##TITLE=Silane, chlorodimethylethyl-,
##JCAMP-DX=4.24
##DATA TYPE=INFRARED SPECTRUM
##CLASS=COBLENTZ III
##ORIGIN=DOW CORNING CORP.
##OWNER=Copyright (C) 1987 by the Coblentz Society
Collection (C) 2018 copyright by the U.S. Secretary of Commerce
on behalf of the United States of America. All rights reserved.
##DATE=1967/06/21
##NAMES=chloro(ethyl)dimethylsilane
##CAS REGISTRY NO=6917-76-6
##MOLFORM=C4 H11 Cl Si
##BP=90 C
##SOURCE REFERENCE=COBLENTZ NO. 5555
##$NIST SOURCE=COBLENTZ
##$NIST IMAGE=cob5555
##SPECTROMETER/DATA SYSTEM=PERKIN-ELMER 521 (GRATING)
##INSTRUMENT PARAMETERS=FILTERS AT 3150, 2500, 2000, 1150, 700, 410. GRATING CHANGES: 2000, 630
##STATE=SOLUTION (11% CCl4 FOR 3800-1300, 4% CS2 FOR 1300-650, AND 11% CCl4 FOR 650-250)
##PATH LENGTH=0.011 CM, 0.011 CM, AND 0.012 CM
##RESOLUTION=2
##XUNITS=1/CM
##YUNITS=TRANSMITTANCE
##XFACTOR=1.0
##YFACTOR=1
##FIRSTX=242
##LASTX=3808
##FIRSTY=0.8355
##MAXX=3808
##MINX=242
##MAXY=0.934
##MINY=0.1089
##NPOINTS=3567
##XYDATA=(X++(Y..Y))
242.000000 0.8355 0.8359 0.8363 0.8369 0.8375
247.000000 0.8376 0.8377 0.8377 0.8377 0.8375
252.000000 0.8373 0.8371 0.8369 0.8367 0.8365
257.000000 0.8363 0.8361 0.8359 0.8356 0.8354
262.000000 0.8354 0.8355 0.8355 0.8355 0.8356
267.000000 0.8356 0.8356 0.8357 0.8357 0.8358
272.000000 0.8359 0.8360 0.8361 0.8361 0.8362
277.000000 0.8363 0.8364 0.8365 0.8366 0.8367
282.000000 0.8368 0.8368 0.8366 0.8363 0.8361
287.000000 0.8358 0.8356 0.8353 0.8351 0.8349
292.000000 0.8346 0.8344 0.8342 0.8340 0.8339
297.000000 0.8338 0.8337 0.8336 0.8335 0.8334
302.000000 0.8333 0.8333 0.8333 0.8333 0.8333
307.000000 0.8333 0.8332 0.8332 0.8332 0.8332
312.000000 0.8332 0.8331 0.8329 0.8326 0.8323
317.000000 0.8321 0.8318 0.8316 0.8313 0.8306
322.000000 0.8297 0.8274 0.8245 0.8215 0.8186
327.000000 0.8156 0.8127 0.8091 0.8052 0.8012
332.000000 0.7972 0.7930 0.7873 0.7816 0.7759
337.000000 0.7706 0.7666 0.7626 0.7586 0.7573
342.000000 0.7545 0.7582 0.7666 0.7846 0.8026
347.000000 0.8207 0.8387 0.8567 0.8747 0.8859
352.000000 0.8934 0.9010 0.9066 0.9115 0.9147
357.000000 0.9162 0.9178 0.9192 0.9197 0.9201
362.000000 0.9206 0.9210 0.9215 0.9219 0.9224
367.000000 0.9231 0.9238 0.9244 0.9251 0.9258
372.000000 0.9265 0.9270 0.9275 0.9280 0.9284
377.000000 0.9289 0.9293 0.9298 0.9303 0.9307
382.000000 0.9308 0.9309 0.9310 0.9312 0.9313
387.000000 0.9335 0.9315 0.9316 0.9317 0.9318
392.000000 0.9319 0.9320 0.9321 0.9323 0.9321
397.000000 0.9320 0.9319 0.9318 0.9316 0.9315
402.000000 0.9314 0.9313 0.9312 0.9310 0.9309
407.000000 0.9308 0.9307 0.9306 0.9304 0.9303
412.000000 0.9302 0.9299 0.9295 0.9290 0.9278
417.000000 0.9245 0.9213 0.9180 0.9135 0.9094
422.000000 0.9084 0.9074 0.9073 0.9074 0.9076
427.000000 0.9077 0.9076 0.9075 0.9074 0.9073
432.000000 0.9073 0.9072 0.9071 0.9059 0.9047
437.000000 0.9035 0.9010 0.8986 0.8961 0.8934
442.000000 0.8900 0.8866 0.8832 0.8794 0.8756
447.000000 0.8718 0.8680 0.8615 0.8535 0.8451
452.000000 0.8340 0.8228 0.8030 0.7674 0.7224
457.000000 0.6719 0.6228 0.5782 0.5336 0.4890
462.000000 0.4444 0.3998 0.3552 0.3107 0.2661
467.000000 0.2215 0.1672 0.1582 0.1552 0.1540
472.000000 0.1504 0.1580 0.1616 0.1762 0.2040
477.000000 0.2317 0.2595 0.2872 0.3123 0.3148
482.000000 0.3162 0.3173 0.3168 0.3155 0.3129
487.000000 0.3122 0.3121 0.3129 0.3150 0.3453
492.000000 0.3865 0.4277 0.4689 0.5101 0.5513
497.000000 0.5925 0.6337 0.6749 0.7161 0.7427
502.000000 0.7529 0.7717 0.7870 0.8014 0.8107
507.000000 0.8184 0.8261 0.8344 0.8425 0.8496
512.000000 0.8567 0.8635 0.8702 0.8768 0.8842
517.000000 0.8923 0.9005 0.9056 0.9096 0.9135
522.000000 0.9175 0.9184 0.9188 0.9192 0.9196
527.000000 0.9200 0.9205 0.9200 0.9199 0.9198
532.000000 0.9197 0.9197 0.9196 0.9197 0.9200
537.000000 0.9203 0.9206 0.9209 0.9213 0.9232
542.000000 0.9251 0.9270 0.9289 0.9309 0.9333
547.000000 0.9340 0.9336 0.9332 0.9329 0.9325
552.000000 0.9321 0.9318 0.9314 0.9310 0.9307
557.000000 0.9304 0.9301 0.9298 0.9295 0.9292
562.000000 0.9289 0.9286 0.9283 0.9275 0.9267
567.000000 0.9259 0.9250 0.9242 0.9233 0.9225
572.000000 0.9216 0.9208 0.9200 0.9188 0.9175
577.000000 0.9162 0.9149 0.9136 0.9123 0.9110
582.000000 0.9097 0.9084 0.9070 0.9053 0.9036
587.000000 0.9019 0.9002 0.8985 0.8968 0.8951
592.000000 0.8918 0.8878 0.8837 0.8796 0.8755
597.000000 0.8712 0.8643 0.8574 0.8505 0.8436
602.000000 0.8337 0.8201 0.8050 0.7869 0.7137
607.000000 0.6521 0.5817 0.5113 0.4409 0.3705
612.000000 0.3002 0.2298 0.1594 0.1262 0.1264
617.000000 0.1296 0.1698 0.2417 0.3135 0.3853
622.000000 0.4571 0.5289 0.6007 0.6725 0.7443
627.000000 0.8205 0.8270 0.8304 0.8307 0.8301
632.000000 0.8297 0.8299 0.8306 0.8359 0.8401
637.000000 0.8421 0.8434 0.8445 0.8423 0.8443
642.000000 0.8435 0.8422 0.8408 0.8390 0.8370
647.000000 0.8346 0.8310 0.8273 0.8234 0.8196
652.000000 0.8142 0.8073 0.7980 0.7967 0.7955
657.000000 0.7973 0.7987 0.8037 0.8094 0.8150
662.000000 0.8207 0.8272 0.8333 0.8370 0.8407
667.000000 0.8444 0.8467 0.8485 0.8504 0.8506
672.000000 0.8505 0.8501 0.8491 0.8481 0.8463
677.000000 0.8444 0.8424 0.8396 0.8366 0.8337
682.000000 0.8296 0.8251 0.8206 0.8159 0.8103
687.000000 0.8048 0.7993 0.7935 0.7870 0.7804
692.000000 0.7739 0.7662 0.7555 0.7449 0.7331
697.000000 0.7188 0.7045 0.6898 0.6751 0.6579
702.000000 0.6341 0.5869 0.5525 0.5274 0.5213
707.000000 0.5198 0.5212 0.5191 0.5241 0.5440
712.000000 0.5639 0.5838 0.6037 0.6236 0.6435
717.000000 0.6634 0.6833 0.7032 0.7224 0.7324
722.000000 0.7437 0.7567 0.7667 0.7748 0.7807
727.000000 0.7837 0.7867 0.7897 0.7926 0.7951
732.000000 0.7977 0.8002 0.8013 0.8019 0.8046
737.000000 0.8018 0.8006 0.7995 0.7982 0.7965
742.000000 0.7937 0.7910 0.7888 0.7866 0.7826
747.000000 0.7700 0.7689 0.7678 0.7666 0.7661
752.000000 0.7663 0.7666 0.7672 0.7679 0.7667
757.000000 0.7649 0.7632 0.7607 0.7572 0.7536
762.000000 0.7498 0.7451 0.7404 0.7357 0.7302
767.000000 0.7242 0.7182 0.7122 0.7063 0.6996
772.000000 0.6926 0.6856 0.6739 0.6592 0.6445
777.000000 0.5637 0.5368 0.5115 0.4740 0.4366
782.000000 0.3991 0.3617 0.3242 0.2868 0.2493
787.000000 0.2119 0.1744 0.1479 0.1434 0.1435
792.000000 0.1696 0.1938 0.2181 0.2423 0.2666
797.000000 0.2908 0.3151 0.3393 0.3542 0.3553
802.000000 0.3543 0.3528 0.3333 0.3138 0.2943
807.000000 0.2748 0.2554 0.2359 0.2164 0.1969
812.000000 0.1774 0.1573 0.1568 0.1566 0.1569
817.000000 0.1613 0.1850 0.2087 0.2324 0.2561
822.000000 0.2798 0.3035 0.3273 0.3510 0.3747
827.000000 0.3933 0.3932 0.3941 0.3917 0.3817
832.000000 0.3660 0.3502 0.3344 0.3187 0.3029
837.000000 0.2871 0.2713 0.2556 0.2398 0.2240
842.000000 0.2083 0.1932 0.1930 0.1929 0.1954
847.000000 0.2192 0.2612 0.3033 0.3453 0.3874
852.000000 0.4295 0.4695 0.4890 0.5481 0.5587
857.000000 0.5694 0.5800 0.5906 0.6010 0.6115
862.000000 0.6240 0.6408 0.6549 0.6642 0.6736
867.000000 0.6829 0.6946 0.7070 0.7176 0.7275
872.000000 0.7370 0.7460 0.7549 0.7638 0.7785
877.000000 0.7919 0.7993 0.8067 0.8129 0.8178
882.000000 0.8228 0.8266 0.8291 0.8315 0.8329
887.000000 0.8339 0.8349 0.8360 0.8370 0.8381
892.000000 0.8385 0.8389 0.8392 0.8396 0.8400
897.000000 0.8403 0.8403 0.8403 0.8404 0.8404
902.000000 0.8404 0.8405 0.8405 0.8410 0.8422
907.000000 0.8434 0.8447 0.8467 0.8487 0.8507
912.000000 0.8527 0.8547 0.8560 0.8572 0.8584
917.000000 0.8589 0.8590 0.8590 0.8616 0.8590
922.000000 0.8589 0.8586 0.8584 0.8581 0.8578
927.000000 0.8576 0.8571 0.8563 0.8554 0.8546
932.000000 0.8537 0.8529 0.8520 0.8512 0.8503
937.000000 0.8493 0.8479 0.8465 0.8450 0.8416
942.000000 0.8381 0.8343 0.8298 0.8254 0.8209
947.000000 0.8165 0.8060 0.7945 0.7848 0.7755
952.000000 0.7661 0.7521 0.7338 0.7026 0.6714
957.000000 0.6403 0.6091 0.5964 0.5966 0.5972
962.000000 0.5961 0.6486 0.6760 0.7034 0.7308
967.000000 0.7451 0.7541 0.7618 0.7695 0.7784
972.000000 0.7883 0.7981 0.8061 0.8141 0.8218
977.000000 0.8259 0.8300 0.8341 0.8371 0.8386
982.000000 0.8401 0.8417 0.8440 0.8395 0.8374
987.000000 0.8350 0.8323 0.8290 0.8257 0.8223
992.000000 0.8189 0.8154 0.8105 0.8054 0.8003
997.000000 0.7843 0.7604 0.7365 0.7125 0.6886
1002.000000 0.6647 0.6588 0.6596 0.6619 0.6646
1007.000000 0.6655 0.6652 0.6650 0.6550 0.6317
1012.000000 0.6085 0.5852 0.5619 0.5386 0.5304
1017.000000 0.5283 0.5364 0.5903 0.6441 0.6980
1022.000000 0.7519 0.7856 0.7915 0.7935 0.7942
1027.000000 0.7942 0.7943 0.7942 0.7939 0.7918
1032.000000 0.7900 0.7873 0.7846 0.7816 0.7779
1037.000000 0.7740 0.7698 0.7656 0.7614 0.7581
1042.000000 0.7547 0.7514 0.7480 0.7447 0.7410
1047.000000 0.7372 0.7333 0.7295 0.7255 0.7229
1052.000000 0.7216 0.7203 0.7192 0.7193 0.7193
1057.000000 0.7185 0.7195 0.7196 0.7200 0.7208
1062.000000 0.7219 0.7234 0.7248 0.7267 0.7304
1067.000000 0.7343 0.7397 0.7451 0.7502 0.7553
1072.000000 0.7604 0.7654 0.7707 0.7763 0.7818
1077.000000 0.7874 0.7923 0.7964 0.8006 0.8047
1082.000000 0.8087 0.8118 0.8149 0.8180 0.8211
1087.000000 0.8242 0.8271 0.8297 0.8323 0.8349
1092.000000 0.8375 0.8401 0.8419 0.8435 0.8451
1097.000000 0.8467 0.8483 0.8499 0.8515 0.8531
1102.000000 0.8543 0.8550 0.8556 0.8563 0.8570
1107.000000 0.8576 0.8583 0.8590 0.8596 0.8603
1112.000000 0.8610 0.8614 0.8617 0.8621 0.8625
1117.000000 0.8629 0.8632 0.8636 0.8640 0.8644
1122.000000 0.8647 0.8650 0.8652 0.8654 0.8656
1127.000000 0.8659 0.8661 0.8663 0.8680 0.8668
1132.000000 0.8669 0.8670 0.8670 0.8671 0.8671
1137.000000 0.8672 0.8672 0.8673 0.8674 0.8674
1142.000000 0.8675 0.8675 0.8676 0.8676 0.8677
1147.000000 0.8677 0.8678 0.8678 0.8678 0.8679
1152.000000 0.8679 0.8679 0.8679 0.8680 0.8680
1157.000000 0.8680 0.8681 0.8681 0.8681 0.8682
1162.000000 0.8682 0.8682 0.8681 0.8680 0.8678
1167.000000 0.8677 0.8676 0.8675 0.8673 0.8672
1172.000000 0.8671 0.8669 0.8668 0.8667 0.8665
1177.000000 0.8664 0.8661 0.8656 0.8652 0.8647
1182.000000 0.8643 0.8638 0.8634 0.8629 0.8625
1187.000000 0.8620 0.8616 0.8611 0.8607 0.8601
1192.000000 0.8594 0.8587 0.8579 0.8572 0.8565
1197.000000 0.8558 0.8551 0.8540 0.8524 0.8507
1202.000000 0.8490 0.8473 0.8457 0.8440 0.8423
1207.000000 0.8398 0.8362 0.8326 0.8290 0.8232
1212.000000 0.8172 0.8111 0.8049 0.7986 0.7924
1217.000000 0.7862 0.7799 0.7732 0.7662 0.7593
1222.000000 0.7523 0.7453 0.7385 0.7330 0.7275
1227.000000 0.7219 0.7181 0.7149 0.7115 0.7071
1232.000000 0.7028 0.6961 0.6870 0.6779 0.6673
1237.000000 0.6555 0.6437 0.6319 0.6133 0.5877
1242.000000 0.5651 0.5444 0.5269 0.5123 0.4921
1247.000000 0.4523 0.3904 0.3285 0.2666 0.2139
1252.000000 0.2146 0.2142 0.2871 0.3421 0.3476
1257.000000 0.3550 0.3637 0.4007 0.4910 0.5812
1262.000000 0.6239 0.6759 0.7077 0.7243 0.7375
1267.000000 0.7493 0.7603 0.7695 0.7788 0.7854
1272.000000 0.7908 0.7962 0.8016 0.8060 0.8098
1277.000000 0.8136 0.8175 0.8216 0.8257 0.8279
1282.000000 0.8301 0.8322 0.8335 0.8346 0.8356
1287.000000 0.8367 0.8376 0.8385 0.8394 0.8412
1292.000000 0.8413 0.8418 0.8421 0.8423 0.8414
1297.000000 0.8373 0.8332 0.8290 0.8249 0.8208
1302.000000 0.8166 0.8125 0.8104 0.8098 0.8098
1307.000000 0.8098 0.8100 0.8102 0.8105 0.8108
1312.000000 0.8111 0.8115 0.8118 0.8122 0.8125
1317.000000 0.8129 0.8134 0.8142 0.8151 0.8159
1322.000000 0.8168 0.8183 0.8201 0.8219 0.8238
1327.000000 0.8256 0.8271 0.8285 0.8299 0.8313
1332.000000 0.8324 0.8332 0.8340 0.8348 0.8355
1337.000000 0.8358 0.8360 0.8363 0.8366 0.8356
1342.000000 0.8371 0.8371 0.8370 0.8370 0.8369
1347.000000 0.8368 0.8367 0.8367 0.8365 0.8362
1352.000000 0.8360 0.8357 0.8355 0.8352 0.8346
1357.000000 0.8340 0.8335 0.8329 0.8306 0.8278
1362.000000 0.8251 0.8223 0.8190 0.8156 0.8122
1367.000000 0.8088 0.8054 0.8002 0.7931 0.7861
1372.000000 0.7790 0.7714 0.7637 0.7509 0.7244
1377.000000 0.7049 0.6934 0.6883 0.6895 0.6914
1382.000000 0.6952 0.7008 0.7053 0.7067 0.7066
1387.000000 0.7062 0.7085 0.7036 0.7018 0.6998
1392.000000 0.6970 0.6923 0.6870 0.6790 0.6696
1397.000000 0.6620 0.6552 0.6485 0.6404 0.6315
1402.000000 0.6224 0.6048 0.5868 0.5647 0.5427
1407.000000 0.5206 0.4985 0.4765 0.4748 0.4751
1412.000000 0.4774 0.4910 0.5047 0.5185 0.5322
1417.000000 0.5460 0.5597 0.5718 0.5827 0.5962
1422.000000 0.6100 0.6235 0.6360 0.6668 0.6811
1427.000000 0.6970 0.7082 0.7159 0.7257 0.7330
1432.000000 0.7368 0.7402 0.7448 0.7421 0.7425
1437.000000 0.7425 0.7421 0.7412 0.7397 0.7368
1442.000000 0.7334 0.7298 0.7257 0.7196 0.7125
1447.000000 0.7038 0.6949 0.6854 0.6759 0.6425
1452.000000 0.6211 0.5998 0.5784 0.5571 0.5357
1457.000000 0.5144 0.4930 0.4837 0.4853 0.4958
1462.000000 0.5092 0.5200 0.5207 0.5216 0.5356
1467.000000 0.5975 0.6531 0.6661 0.6781 0.6976
1472.000000 0.7352 0.7446 0.7538 0.7630 0.7722
1477.000000 0.7811 0.7898 0.7962 0.8005 0.8048
1482.000000 0.8091 0.8123 0.8148 0.8173 0.8199
1487.000000 0.8224 0.8250 0.8275 0.8297 0.8318
1492.000000 0.8339 0.8360 0.8381 0.8402 0.8423
1497.000000 0.8444 0.8464 0.8480 0.8496 0.8512
1502.000000 0.8528 0.8544 0.8560 0.8576 0.8592
1507.000000 0.8608 0.8624 0.8640 0.8653 0.8667
1512.000000 0.8680 0.8694 0.8707 0.8721 0.8734
1517.000000 0.8748 0.8762 0.8775 0.8789 0.8803
1522.000000 0.8817 0.8831 0.8845 0.8858 0.8872
1527.000000 0.8886 0.8900 0.8914 0.8928 0.8942
1532.000000 0.8954 0.8964 0.8974 0.8984 0.8993
1537.000000 0.9003 0.9013 0.9023 0.9066 0.9025
1542.000000 0.9024 0.9023 0.9022 0.9021 0.9020
1547.000000 0.9015 0.9009 0.9003 0.8997 0.8991
1552.000000 0.8983 0.8975 0.8967 0.8960 0.8953
1557.000000 0.8947 0.8940 0.8934 0.8927 0.8920
1562.000000 0.8908 0.8896 0.8884 0.8873 0.8868
1567.000000 0.8863 0.8858 0.8852 0.8847 0.8842
1572.000000 0.8837 0.8835 0.8835 0.8834 0.8834
1577.000000 0.8833 0.8832 0.8830 0.8829 0.8827
1582.000000 0.8821 0.8815 0.8809 0.8803 0.8796
1587.000000 0.8790 0.8784 0.8778 0.8771 0.8765
1592.000000 0.8758 0.8752 0.8745 0.8739 0.8733
1597.000000 0.8728 0.8722 0.8717 0.8711 0.8705
1602.000000 0.8700 0.8694 0.8678 0.8674 0.8671
1607.000000 0.8668 0.8666 0.8663 0.8660 0.8657
1612.000000 0.8654 0.8651 0.8648 0.8645 0.8642
1617.000000 0.8639 0.8639 0.8640 0.8641 0.8642
1622.000000 0.8644 0.8645 0.8646 0.8647 0.8648
1627.000000 0.8649 0.8650 0.8651 0.8653 0.8654
1632.000000 0.8655 0.8657 0.8658 0.8659 0.8661
1637.000000 0.8662 0.8663 0.8665 0.8666 0.8667
1642.000000 0.8669 0.8671 0.8673 0.8675 0.8677
1647.000000 0.8679 0.8681 0.8683 0.8685 0.8687
1652.000000 0.8689 0.8691 0.8693 0.8695 0.8697
1657.000000 0.8699 0.8700 0.8700 0.8701 0.8701
1662.000000 0.8702 0.8703 0.8703 0.8704 0.8704
1667.000000 0.8705 0.8705 0.8706 0.8706 0.8707
1672.000000 0.8707 0.8708 0.8708 0.8707 0.8707
1677.000000 0.8707 0.8707 0.8706 0.8706 0.8706
1682.000000 0.8706 0.8705 0.8705 0.8705 0.8705
1687.000000 0.8704 0.8704 0.8704 0.8704 0.8703
1692.000000 0.8703 0.8703 0.8703 0.8704 0.8705
1697.000000 0.8706 0.8707 0.8708 0.8709 0.8710
1702.000000 0.8711 0.8712 0.8713 0.8714 0.8715
1707.000000 0.8716 0.8717 0.8718 0.8719 0.8719
1712.000000 0.8718 0.8717 0.8716 0.8715 0.8714
1717.000000 0.8713 0.8712 0.8711 0.8710 0.8709
1722.000000 0.8708 0.8707 0.8706 0.8705 0.8706
1727.000000 0.8707 0.8708 0.8710 0.8711 0.8712
1732.000000 0.8714 0.8715 0.8716 0.8718 0.8719
1737.000000 0.8723 0.8729 0.8734 0.8739 0.8744
1742.000000 0.8749 0.8755 0.8760 0.8766 0.8771
1747.000000 0.8777 0.8783 0.8788 0.8794 0.8800
1752.000000 0.8805 0.8811 0.8817 0.8822 0.8825
1757.000000 0.8827 0.8830 0.8832 0.8834 0.8837
1762.000000 0.8839 0.8841 0.8844 0.8846 0.8848
1767.000000 0.8851 0.8853 0.8856 0.8858 0.8860
1772.000000 0.8862 0.8863 0.8864 0.8864 0.8865
1777.000000 0.8866 0.8867 0.8868 0.8868 0.8869
1782.000000 0.8870 0.8871 0.8872 0.8873 0.8873
1787.000000 0.8874 0.8874 0.8874 0.8874 0.8874
1792.000000 0.8874 0.8874 0.8874 0.8874 0.8874
1797.000000 0.8874 0.8874 0.8874 0.8874 0.8875
1802.000000 0.8875 0.8874 0.8873 0.8871 0.8870
1807.000000 0.8869 0.8867 0.8866 0.8865 0.8864
1812.000000 0.8862 0.8861 0.8860 0.8858 0.8857
1817.000000 0.8856 0.8854 0.8853 0.8852 0.8850
1822.000000 0.8848 0.8846 0.8843 0.8841 0.8839
1827.000000 0.8836 0.8834 0.8832 0.8829 0.8827
1832.000000 0.8825 0.8822 0.8820 0.8818 0.8815
1837.000000 0.8813 0.8811 0.8806 0.8802 0.8797
1842.000000 0.8792 0.8787 0.8782 0.8777 0.8772
1847.000000 0.8768 0.8763 0.8758 0.8753 0.8748
1852.000000 0.8743 0.8739 0.8734 0.8729 0.8725
1857.000000 0.8720 0.8715 0.8710 0.8706 0.8701
1862.000000 0.8696 0.8693 0.8690 0.8687 0.8683
1867.000000 0.8680 0.8677 0.8673 0.8670 0.8667
1872.000000 0.8668 0.8670 0.8680 0.8689 0.8698
1877.000000 0.8707 0.8716 0.8726 0.8737 0.8748
1882.000000 0.8760 0.8771 0.8779 0.8779 0.8779
1887.000000 0.8780 0.8780 0.8803 0.8780 0.8779
1892.000000 0.8779 0.8778 0.8778 0.8777 0.8777
1897.000000 0.8776 0.8776 0.8775 0.8775 0.8775
1902.000000 0.8774 0.8774 0.8774 0.8773 0.8773
1907.000000 0.8772 0.8772 0.8772 0.8771 0.8771
1912.000000 0.8771 0.8770 0.8770 0.8769 0.8767
1917.000000 0.8764 0.8761 0.8759 0.8756 0.8753
1922.000000 0.8750 0.8747 0.8745 0.8742 0.8739
1927.000000 0.8736 0.8734 0.8731 0.8727 0.8721
1932.000000 0.8716 0.8710 0.8704 0.8698 0.8692
1937.000000 0.8686 0.8680 0.8674 0.8668 0.8660
1942.000000 0.8652 0.8645 0.8637 0.8630 0.8622
1947.000000 0.8620 0.8619 0.8618 0.8617 0.8616
1952.000000 0.8615 0.8589 0.8612 0.8617 0.8624
1957.000000 0.8630 0.8636 0.8647 0.8657 0.8668
1962.000000 0.8678 0.8692 0.8706 0.8721 0.8738
1967.000000 0.8756 0.8766 0.8775 0.8783 0.8792
1972.000000 0.8799 0.8803 0.8807 0.8811 0.8815
1977.000000 0.8819 0.8823 0.8827 0.8831 0.8835
1982.000000 0.8838 0.8841 0.8844 0.8847 0.8847
1987.000000 0.8852 0.8855 0.8858 0.8861 0.8864
1992.000000 0.8866 0.8868 0.8870 0.8871 0.8875
1997.000000 0.8882 0.8889 0.8896 0.8910 0.8940
2002.000000 0.8971 0.8987 0.9003 0.9023 0.9044
2007.000000 0.9053 0.9062 0.9064 0.9067 0.9069
2012.000000 0.9072 0.9074 0.9077 0.9077 0.9078
2017.000000 0.9077 0.9076 0.9075 0.9074 0.9072
2022.000000 0.9071 0.9070 0.9069 0.9068 0.9067
2027.000000 0.9064 0.9062 0.9059 0.9057 0.9054
2032.000000 0.9051 0.9048 0.9046 0.9043 0.9041
2037.000000 0.9037 0.9034 0.9030 0.9027 0.9023
2042.000000 0.9020 0.9016 0.9013 0.9009 0.9005
2047.000000 0.9003 0.9001 0.9000 0.9000 0.8999
2052.000000 0.8999 0.8998 0.8997 0.8996 0.8996
2057.000000 0.8996 0.8996 0.8997 0.8998 0.8999
2062.000000 0.9000 0.9001 0.9002 0.9003 0.9004
2067.000000 0.9006 0.9009 0.9011 0.9014 0.9016
2072.000000 0.9019 0.9019 0.9019 0.9018 0.9018
2077.000000 0.9018 0.9018 0.9018 0.9018 0.9018
2082.000000 0.9019 0.9019 0.9020 0.9020 0.9020
2087.000000 0.9020 0.9021 0.9021 0.9022 0.9022
2092.000000 0.9022 0.9022 0.9023 0.9023 0.9023
2097.000000 0.9023 0.9024 0.9022 0.9020 0.9016
2102.000000 0.9012 0.9008 0.9004 0.9000 0.8996
2107.000000 0.8990 0.8985 0.8978 0.8971 0.8964
2112.000000 0.8957 0.8955 0.8953 0.8954 0.8955
2117.000000 0.8956 0.8957 0.8958 0.8959 0.8961
2122.000000 0.8963 0.8965 0.8967 0.8969 0.8971
2127.000000 0.8973 0.8975 0.8977 0.8979 0.8980
2132.000000 0.8982 0.8984 0.8986 0.8987 0.8989
2137.000000 0.8990 0.8992 0.8993 0.8995 0.8997
2142.000000 0.8999 0.9000 0.9002 0.9003 0.9005
2147.000000 0.9007 0.9009 0.9011 0.9013 0.9015
2152.000000 0.9018 0.9020 0.9022 0.9024 0.9027
2157.000000 0.9029 0.9031 0.9033 0.9036 0.9038
2162.000000 0.9041 0.9043 0.9045 0.9047 0.9049
2167.000000 0.9049 0.9050 0.9050 0.9050 0.9050
2172.000000 0.9050 0.9050 0.9051 0.9051 0.9051
2177.000000 0.9051 0.9051 0.9051 0.9052 0.9052
2182.000000 0.9052 0.9052 0.9052 0.9052 0.9052
2187.000000 0.9052 0.9053 0.9053 0.9053 0.9053
2192.000000 0.9053 0.9053 0.9054 0.9054 0.9054
2197.000000 0.9054 0.9055 0.9056 0.9058 0.9060
2202.000000 0.9062 0.9062 0.9063 0.9063 0.9063
2207.000000 0.9063 0.9063 0.9063 0.9064 0.9065
2212.000000 0.9066 0.9067 0.9069 0.9070 0.9071
2217.000000 0.9072 0.9073 0.9074 0.9075 0.9076
2222.000000 0.9077 0.9078 0.9080 0.9081 0.9082
2227.000000 0.9083 0.9084 0.9085 0.9086 0.9087
2232.000000 0.9088 0.9089 0.9090 0.9091 0.9093
2237.000000 0.9094 0.9095 0.9097 0.9099 0.9100
2242.000000 0.9102 0.9104 0.9106 0.9107 0.9109
2247.000000 0.9111 0.9113 0.9114 0.9116 0.9118
2252.000000 0.9120 0.9121 0.9123 0.9125 0.9127
2257.000000 0.9128 0.9130 0.9132 0.9134 0.9135
2262.000000 0.9136 0.9136 0.9136 0.9136 0.9137
2267.000000 0.9137 0.9137 0.9137 0.9138 0.9138
2272.000000 0.9138 0.9138 0.9139 0.9139 0.9139
2277.000000 0.9139 0.9140 0.9140 0.9141 0.9141
2282.000000 0.9141 0.9141 0.9142 0.9142 0.9142
2287.000000 0.9142 0.9143 0.9143 0.9143 0.9143
2292.000000 0.9144 0.9144 0.9145 0.9145 0.9146
2297.000000 0.9146 0.9146 0.9146 0.9147 0.9147
2302.000000 0.9148 0.9148 0.9149 0.9149 0.9149
2307.000000 0.9148 0.9147 0.9146 0.9145 0.9143
2312.000000 0.9142 0.9140 0.9139 0.9137 0.9136
2317.000000 0.9135 0.9134 0.9132 0.9131 0.9129
2322.000000 0.9128 0.9127 0.9126 0.9125 0.9125
2327.000000 0.9124 0.9123 0.9122 0.9122 0.9121
2332.000000 0.9121 0.9120 0.9120 0.9119 0.9119
2337.000000 0.9118 0.9118 0.9117 0.9117 0.9116
2342.000000 0.9116 0.9115 0.9115 0.9114 0.9114
2347.000000 0.9113 0.9113 0.9112 0.9111 0.9110
2352.000000 0.9110 0.9109 0.9109 0.9108 0.9108
2357.000000 0.9108 0.9108 0.9108 0.9108 0.9108
2362.000000 0.9108 0.9108 0.9109 0.9109 0.9109
2367.000000 0.9109 0.9109 0.9109 0.9109 0.9109
2372.000000 0.9109 0.9109 0.9109 0.9109 0.9109
2377.000000 0.9109 0.9109 0.9109 0.9109 0.9109
2382.000000 0.9110 0.9110 0.9110 0.9110 0.9110
2387.000000 0.9110 0.9110 0.9110 0.9110 0.9110
2392.000000 0.9110 0.9110 0.9110 0.9110 0.9110
2397.000000 0.9110 0.9111 0.9111 0.9111 0.9111
2402.000000 0.9111 0.9111 0.9112 0.9112 0.9112
2407.000000 0.9112 0.9112 0.9112 0.9113 0.9113
2412.000000 0.9113 0.9113 0.9113 0.9113 0.9113
2417.000000 0.9113 0.9114 0.9114 0.9114 0.9114
2422.000000 0.9114 0.9114 0.9115 0.9115 0.9115
2427.000000 0.9115 0.9115 0.9115 0.9116 0.9116
2432.000000 0.9116 0.9116 0.9116 0.9116 0.9116
2437.000000 0.9116 0.9117 0.9117 0.9117 0.9117
2442.000000 0.9117 0.9117 0.9118 0.9118 0.9118
2447.000000 0.9118 0.9118 0.9118 0.9118 0.9118
2452.000000 0.9118 0.9118 0.9118 0.9118 0.9118
2457.000000 0.9118 0.9118 0.9118 0.9118 0.9118
2462.000000 0.9118 0.9118 0.9119 0.9119 0.9119
2467.000000 0.9119 0.9119 0.9119 0.9119 0.9119
2472.000000 0.9119 0.9119 0.9119 0.9119 0.9119
2477.000000 0.9119 0.9119 0.9119 0.9119 0.9119
2482.000000 0.9120 0.9120 0.9120 0.9120 0.9120
2487.000000 0.9120 0.9121 0.9121 0.9121 0.9121
2492.000000 0.9121 0.9121 0.9121 0.9121 0.9122
2497.000000 0.9122 0.9122 0.9122 0.9122 0.9122
2502.000000 0.9123 0.9123 0.9123 0.9123 0.9123
2507.000000 0.9123 0.9124 0.9124 0.9124 0.9124
2512.000000 0.9124 0.9124 0.9124 0.9124 0.9125
2517.000000 0.9124 0.9124 0.9124 0.9124 0.9124
2522.000000 0.9124 0.9124 0.9124 0.9124 0.9124
2527.000000 0.9124 0.9124 0.9124 0.9124 0.9124
2532.000000 0.9124 0.9123 0.9123 0.9123 0.9123
2537.000000 0.9123 0.9123 0.9123 0.9123 0.9122
2542.000000 0.9122 0.9122 0.9122 0.9122 0.9122
2547.000000 0.9122 0.9122 0.9121 0.9121 0.9121
2552.000000 0.9121 0.9121 0.9121 0.9121 0.9121
2557.000000 0.9120 0.9120 0.9120 0.9120 0.9120
2562.000000 0.9120 0.9120 0.9120 0.9119 0.9119
2567.000000 0.9119 0.9119 0.9119 0.9119 0.9119
2572.000000 0.9119 0.9118 0.9118 0.9117 0.9116
2577.000000 0.9114 0.9113 0.9111 0.9110 0.9108
2582.000000 0.9107 0.9106 0.9105 0.9103 0.9102
2587.000000 0.9100 0.9099 0.9097 0.9096 0.9094
2592.000000 0.9093 0.9092 0.9091 0.9089 0.9088
2597.000000 0.9086 0.9085 0.9083 0.9082 0.9081
2602.000000 0.9080 0.9078 0.9077 0.9075 0.9074
2607.000000 0.9072 0.9071 0.9069 0.9068 0.9067
2612.000000 0.9066 0.9064 0.9063 0.9061 0.9060
2617.000000 0.9058 0.9057 0.9055 0.9054 0.9053
2622.000000 0.9052 0.9050 0.9048 0.9045 0.9043
2627.000000 0.9041 0.9039 0.9037 0.9035 0.9032
2632.000000 0.9030 0.9028 0.9026 0.9023 0.9021
2637.000000 0.9019 0.9017 0.9014 0.9012 0.9010
2642.000000 0.9008 0.9006 0.9004 0.9001 0.8999
2647.000000 0.8999 0.9000 0.9001 0.9003 0.9004
2652.000000 0.9006 0.9007 0.9008 0.9010 0.9013
2657.000000 0.9017 0.9021 0.9025 0.9029 0.9033
2662.000000 0.9037 0.9041 0.9045 0.9044 0.9044
2667.000000 0.9043 0.9043 0.9042 0.9042 0.9041
2672.000000 0.9040 0.9039 0.9039 0.9038 0.9038
2677.000000 0.9037 0.9036 0.9031 0.9027 0.9022
2682.000000 0.9017 0.9012 0.9008 0.9003 0.8999
2687.000000 0.8994 0.8990 0.8985 0.8980 0.8975
2692.000000 0.8971 0.8966 0.8962 0.8960 0.8959
2697.000000 0.8962 0.8965 0.8968 0.8971 0.8974
2702.000000 0.8978 0.8981 0.8984 0.8987 0.8990
2707.000000 0.8993 0.8996 0.8995 0.8995 0.8994
2712.000000 0.8994 0.8993 0.9015 0.8992 0.8992
2717.000000 0.8991 0.8991 0.8987 0.8983 0.8973
2722.000000 0.8964 0.8954 0.8944 0.8933 0.8922
2727.000000 0.8909 0.8897 0.8885 0.8873 0.8853
2732.000000 0.8833 0.8798 0.8764 0.8732 0.8700
2737.000000 0.8675 0.8650 0.8635 0.8621 0.8615
2742.000000 0.8610 0.8608 0.8591 0.8615 0.8624
2747.000000 0.8656 0.8688 0.8723 0.8759 0.8782
2752.000000 0.8805 0.8815 0.8826 0.8832 0.8838
2757.000000 0.8839 0.8840 0.8841 0.8834 0.8836
2762.000000 0.8830 0.8824 0.8818 0.8812 0.8806
2767.000000 0.8798 0.8791 0.8783 0.8775 0.8767
2772.000000 0.8759 0.8751 0.8743 0.8733 0.8724
2777.000000 0.8714 0.8705 0.8695 0.8686 0.8675
2782.000000 0.8664 0.8648 0.8632 0.8616 0.8600
2787.000000 0.8569 0.8538 0.8490 0.8443 0.8382
2792.000000 0.8321 0.8273 0.8225 0.8196 0.8167
2797.000000 0.8140 0.8113 0.8091 0.8070 0.8061
2802.000000 0.8053 0.8047 0.8041 0.8035 0.8029
2807.000000 0.8023 0.8017 0.8022 0.8030 0.8046
2812.000000 0.8065 0.8081 0.8097 0.8105 0.8114
2817.000000 0.8122 0.8131 0.8139 0.8148 0.8149
2822.000000 0.8150 0.8151 0.8190 0.8152 0.8152
2827.000000 0.8149 0.8147 0.8144 0.8142 0.8129
2832.000000 0.8116 0.8092 0.8069 0.8046 0.8024
2837.000000 0.8005 0.7986 0.7977 0.7969 0.7967
2842.000000 0.7966 0.7964 0.7963 0.7962 0.7961
2847.000000 0.7960 0.7960 0.7959 0.7959 0.7959
2852.000000 0.7959 0.7958 0.7958 0.7930 0.7902
2857.000000 0.7861 0.7821 0.7775 0.7730 0.7681
2862.000000 0.7633 0.7582 0.7532 0.7455 0.7378
2867.000000 0.7301 0.7225 0.6845 0.6466 0.6375
2872.000000 0.6285 0.6205 0.6125 0.5946 0.5768
2877.000000 0.5389 0.5011 0.4561 0.4112 0.3662
2882.000000 0.3213 0.2777 0.2342 0.2337 0.2312
2887.000000 0.2457 0.2581 0.2778 0.2975 0.3171
2892.000000 0.3368 0.3564 0.3761 0.3957 0.4154
2897.000000 0.4350 0.4655 0.4595 0.4644 0.4639
2902.000000 0.4635 0.4630 0.4626 0.4560 0.4494
2907.000000 0.4425 0.4356 0.4287 0.4218 0.4148
2912.000000 0.4079 0.4010 0.3941 0.3872 0.3803
2917.000000 0.3734 0.3665 0.3607 0.3550 0.3550
2922.000000 0.3550 0.3679 0.3535 0.3973 0.4137
2927.000000 0.4301 0.4465 0.4629 0.4793 0.4850
2932.000000 0.4908 0.4907 0.4906 0.4905 0.4923
2937.000000 0.4760 0.4616 0.4453 0.4291 0.4129
2942.000000 0.3967 0.3804 0.3642 0.3577 0.3512
2947.000000 0.3480 0.3448 0.3357 0.3267 0.3145
2952.000000 0.3023 0.2901 0.2779 0.2657 0.2535
2957.000000 0.2412 0.2290 0.2168 0.2046 0.1924
2962.000000 0.1802 0.1680 0.1558 0.1436 0.1314
2967.000000 0.1205 0.1097 0.1098 0.1089 0.1157
2972.000000 0.1215 0.1489 0.1764 0.2038 0.2313
2977.000000 0.2587 0.2861 0.3135 0.3410 0.3684
2982.000000 0.3959 0.4233 0.4508 0.4782 0.5057
2987.000000 0.5331 0.5605 0.5842 0.6079 0.6147
2992.000000 0.6215 0.6286 0.6357 0.6434 0.6511
2997.000000 0.6588 0.6665 0.6830 0.6995 0.7124
3002.000000 0.7254 0.7365 0.7477 0.7623 0.7770
3007.000000 0.7813 0.7857 0.7900 0.7944 0.7980
3012.000000 0.8016 0.8044 0.8072 0.8100 0.8128
3017.000000 0.8146 0.8164 0.8178 0.8192 0.8206
3022.000000 0.8220 0.8234 0.8249 0.8263 0.8277
3027.000000 0.8289 0.8301 0.8310 0.8320 0.8330
3032.000000 0.8340 0.8349 0.8359 0.8369 0.8379
3037.000000 0.8389 0.8399 0.8408 0.8418 0.8428
3042.000000 0.8438 0.8448 0.8458 0.8467 0.8477
3047.000000 0.8485 0.8494 0.8502 0.8510 0.8518
3052.000000 0.8526 0.8534 0.8567 0.8551 0.8559
3057.000000 0.8564 0.8569 0.8573 0.8577 0.8581
3062.000000 0.8585 0.8588 0.8592 0.8596 0.8600
3067.000000 0.8604 0.8608 0.8612 0.8616 0.8618
3072.000000 0.8621 0.8623 0.8626 0.8628 0.8631
3077.000000 0.8633 0.8635 0.8637 0.8640 0.8642
3082.000000 0.8644 0.8645 0.8647 0.8648 0.8650
3087.000000 0.8651 0.8653 0.8654 0.8656 0.8657
3092.000000 0.8659 0.8660 0.8662 0.8662 0.8663
3097.000000 0.8662 0.8662 0.8661 0.8660 0.8659
3102.000000 0.8659 0.8658 0.8658 0.8657 0.8656
3107.000000 0.8655 0.8655 0.8654 0.8654 0.8653
3112.000000 0.8653 0.8652 0.8651 0.8650 0.8650
3117.000000 0.8649 0.8649 0.8648 0.8648 0.8647
3122.000000 0.8647 0.8646 0.8645 0.8653 0.8661
3127.000000 0.8671 0.8682 0.8692 0.8703 0.8711
3132.000000 0.8720 0.8724 0.8728 0.8732 0.8736
3137.000000 0.8740 0.8744 0.8748 0.8752 0.8753
3142.000000 0.8754 0.8751 0.8749 0.8746 0.8743
3147.000000 0.8737 0.8731 0.8719 0.8707 0.8703
3152.000000 0.8700 0.8702 0.8704 0.8706 0.8708
3157.000000 0.8709 0.8711 0.8713 0.8715 0.8717
3162.000000 0.8719 0.8721 0.8723 0.8724 0.8726
3167.000000 0.8728 0.8730 0.8732 0.8734 0.8736
3172.000000 0.8738 0.8739 0.8741 0.8743 0.8745
3177.000000 0.8747 0.8749 0.8751 0.8753 0.8755
3182.000000 0.8758 0.8762 0.8766 0.8770 0.8775
3187.000000 0.8779 0.8784 0.8788 0.8792 0.8796
3192.000000 0.8801 0.8805 0.8809 0.8813 0.8818
3197.000000 0.8822 0.8826 0.8830 0.8834 0.8838
3202.000000 0.8842 0.8846 0.8850 0.8854 0.8858
3207.000000 0.8862 0.8866 0.8870 0.8874 0.8878
3212.000000 0.8882 0.8885 0.8889 0.8890 0.8892
3217.000000 0.8894 0.8896 0.8898 0.8900 0.8901
3222.000000 0.8903 0.8905 0.8907 0.8909 0.8911
3227.000000 0.8912 0.8914 0.8916 0.8918 0.8920
3232.000000 0.8922 0.8923 0.8925 0.8927 0.8929
3237.000000 0.8931 0.8934 0.8936 0.8938 0.8940
3242.000000 0.8943 0.8945 0.8948 0.8950 0.8952
3247.000000 0.8954 0.8957 0.8959 0.8961 0.8963
3252.000000 0.8966 0.8968 0.8971 0.8973 0.8975
3257.000000 0.8978 0.8981 0.8984 0.8988 0.8991
3262.000000 0.8994 0.8997 0.9000 0.9003 0.9007
3267.000000 0.9010 0.9013 0.9016 0.9020 0.9022
3272.000000 0.9025 0.9027 0.9029 0.9031 0.9033
3277.000000 0.9034 0.9036 0.9038 0.9040 0.9041
3282.000000 0.9043 0.9045 0.9047 0.9048 0.9050
3287.000000 0.9051 0.9052 0.9053 0.9055 0.9056
3292.000000 0.9057 0.9058 0.9060 0.9061 0.9062
3297.000000 0.9063 0.9065 0.9066 0.9067 0.9068
3302.000000 0.9070 0.9071 0.9072 0.9073 0.9075
3307.000000 0.9076 0.9077 0.9078 0.9079 0.9080
3312.000000 0.9082 0.9083 0.9084 0.9085 0.9086
3317.000000 0.9087 0.9088 0.9089 0.9091 0.9092
3322.000000 0.9093 0.9094 0.9095 0.9096 0.9097
3327.000000 0.9098 0.9099 0.9100 0.9101 0.9102
3332.000000 0.9103 0.9104 0.9105 0.9106 0.9108
3337.000000 0.9109 0.9110 0.9111 0.9112 0.9113
3342.000000 0.9114 0.9115 0.9116 0.9117 0.9118
3347.000000 0.9119 0.9120 0.9121 0.9122 0.9123
3352.000000 0.9124 0.9125 0.9127 0.9127 0.9128
3357.000000 0.9128 0.9129 0.9130 0.9131 0.9131
3362.000000 0.9132 0.9132 0.9133 0.9134 0.9135
3367.000000 0.9135 0.9136 0.9137 0.9138 0.9138
3372.000000 0.9139 0.9139 0.9140 0.9141 0.9142
3377.000000 0.9142 0.9143 0.9143 0.9144 0.9145
3382.000000 0.9146 0.9146 0.9147 0.9147 0.9148
3387.000000 0.9149 0.9150 0.9150 0.9151 0.9151
3392.000000 0.9152 0.9153 0.9154 0.9154 0.9155
3397.000000 0.9155 0.9156 0.9156 0.9156 0.9156
3402.000000 0.9156 0.9155 0.9155 0.9155 0.9155
3407.000000 0.9155 0.9155 0.9155 0.9155 0.9155
3412.000000 0.9155 0.9155 0.9155 0.9155 0.9155
3417.000000 0.9155 0.9155 0.9154 0.9154 0.9154
3422.000000 0.9154 0.9154 0.9154 0.9154 0.9154
3427.000000 0.9154 0.9154 0.9154 0.9154 0.9154
3432.000000 0.9154 0.9153 0.9153 0.9153 0.9153
3437.000000 0.9153 0.9153 0.9153 0.9153 0.9153
3442.000000 0.9153 0.9153 0.9153 0.9153 0.9153
3447.000000 0.9153 0.9153 0.9152 0.9152 0.9151
3452.000000 0.9151 0.9150 0.9149 0.9148 0.9148
3457.000000 0.9147 0.9146 0.9145 0.9145 0.9144
3462.000000 0.9143 0.9142 0.9142 0.9141 0.9140
3467.000000 0.9139 0.9139 0.9138 0.9137 0.9136
3472.000000 0.9136 0.9135 0.9134 0.9133 0.9133
3477.000000 0.9132 0.9131 0.9130 0.9130 0.9129
3482.000000 0.9128 0.9127 0.9127 0.9126 0.9125
3487.000000 0.9124 0.9124 0.9123 0.9122 0.9121
3492.000000 0.9121 0.9120 0.9119 0.9118 0.9118
3497.000000 0.9117 0.9116 0.9115 0.9115 0.9114
3502.000000 0.9113 0.9112 0.9112 0.9111 0.9110
3507.000000 0.9109 0.9109 0.9108 0.9108 0.9107
3512.000000 0.9107 0.9107 0.9107 0.9106 0.9106
3517.000000 0.9105 0.9105 0.9105 0.9105 0.9104
3522.000000 0.9104 0.9103 0.9103 0.9103 0.9103
3527.000000 0.9102 0.9102 0.9101 0.9101 0.9101
3532.000000 0.9101 0.9100 0.9100 0.9099 0.9099
3537.000000 0.9099 0.9099 0.9098 0.9098 0.9097
3542.000000 0.9097 0.9097 0.9097 0.9096 0.9096
3547.000000 0.9095 0.9095 0.9095 0.9095 0.9094
3552.000000 0.9094 0.9093 0.9093 0.9093 0.9093
3557.000000 0.9093 0.9094 0.9094 0.9095 0.9095
3562.000000 0.9095 0.9095 0.9096 0.9096 0.9096
3567.000000 0.9096 0.9097 0.9097 0.9097 0.9097
3572.000000 0.9098 0.9098 0.9098 0.9098 0.9099
3577.000000 0.9099 0.9099 0.9099 0.9100 0.9100
3582.000000 0.9100 0.9100 0.9101 0.9101 0.9101
3587.000000 0.9101 0.9102 0.9102 0.9103 0.9103
3592.000000 0.9103 0.9103 0.9104 0.9104 0.9105
3597.000000 0.9105 0.9105 0.9105 0.9106 0.9106
3602.000000 0.9106 0.9106 0.9107 0.9107 0.9108
3607.000000 0.9108 0.9108 0.9108 0.9109 0.9110
3612.000000 0.9111 0.9112 0.9113 0.9113 0.9114
3617.000000 0.9115 0.9116 0.9117 0.9118 0.9118
3622.000000 0.9119 0.9120 0.9121 0.9122 0.9123
3627.000000 0.9121 0.9120 0.9118 0.9117 0.9115
3632.000000 0.9114 0.9112 0.9111 0.9109 0.9108
3637.000000 0.9106 0.9104 0.9101 0.9099 0.9094
3642.000000 0.9089 0.9083 0.9078 0.9073 0.9068
3647.000000 0.9062 0.9057 0.9052 0.9047 0.9041
3652.000000 0.9036 0.9031 0.9026 0.9020 0.9015
3657.000000 0.9012 0.9010 0.9009 0.9008 0.9007
3662.000000 0.9007 0.9006 0.9005 0.9004 0.9003
3667.000000 0.9002 0.9002 0.9000 0.8999 0.8997
3672.000000 0.8996 0.8994 0.8993 0.8991 0.8990
3677.000000 0.8988 0.8987 0.8986 0.8985 0.8983
3682.000000 0.8982 0.8980 0.8979 0.8977 0.8976
3687.000000 0.8973 0.8971 0.8966 0.8962 0.8957
3692.000000 0.8953 0.8949 0.8945 0.8940 0.8936
3697.000000 0.8931 0.8927 0.8923 0.8919 0.8919
3702.000000 0.8919 0.8921 0.8924 0.8926 0.8928
3707.000000 0.8930 0.8932 0.8934 0.8937 0.8939
3712.000000 0.8942 0.8945 0.8949 0.8953 0.8957
3717.000000 0.8960 0.8964 0.8968 0.8972 0.8975
3722.000000 0.8979 0.8983 0.8987 0.8990 0.8994
3727.000000 0.8995 0.8996 0.8996 0.8997 0.8997
3732.000000 0.8998 0.8999 0.9000 0.9000 0.9001
3737.000000 0.9001 0.9002 0.9002 0.9003 0.9003
3742.000000 0.9004 0.9004 0.9005 0.9003 0.9002
3747.000000 0.9001 0.9000 0.8998 0.8997 0.8996
3752.000000 0.8995 0.8993 0.8992 0.8997 0.9002
3757.000000 0.9008 0.9014 0.9020 0.9027 0.9033
3762.000000 0.9040 0.9046 0.9052 0.9057 0.9062
3767.000000 0.9067 0.9073 0.9078 0.9083 0.9087
3772.000000 0.9091 0.9094 0.9097 0.9100 0.9103
3777.000000 0.9106 0.9109 0.9112 0.9115 0.9117
3782.000000 0.9120 0.9123 0.9126 0.9129 0.9132
3787.000000 0.9132 0.9132 0.9132 0.9132 0.9131
3792.000000 0.9131 0.9131 0.9131 0.9131 0.9131
3797.000000 0.9131 0.9131 0.9131 0.9131 0.9131
3802.000000 0.9131 0.9131 0.9131 0.9131 0.9131
3807.000000 0.9131 0.9131
##END=
