##TITLE=4-Methyl-1-pentene
##JCAMP-DX=4.24
$$ By DXEDIT 1.05 (RS McDonald)
##DATA TYPE=INFRARED SPECTRUM
##CLASS=COBLENTZ III
##ORIGIN=DOW CHEMICAL COMPANY
##OWNER=COPYRIGHT (C) 1988 by COBLENTZ SOCIETY INC.
Collection (C) 2018 copyright by the U.S. Secretary of Commerce
on behalf of the United States of America. All rights reserved.
##DATE=1959/05/22
##CAS REGISTRY NO=691-37-2
##MOLFORM=C6 H12
##SOURCE REFERENCE=COBLENTZ NO. 6561
##$NIST SOURCE=COBLENTZ
##$NIST IMAGE=cob6561
##SPECTROMETER/DATA SYSTEM=DOW KBr FOREPRISM-GRATING
##INSTRUMENT PARAMETERS=BLAZED AT 3.5, 12.0, 20.0 MICRON AND CHANGED AT 5.0, 7.5, 14.9 MICRON
##STATE=SOLUTION (10% CCl4 FOR 3800-1330, 10% CS2 FOR 1330-450 CM^-^1)
##PATH LENGTH=0.011 CM, 0.011 CM
$$SPECTRAL CONTAMINATION DUE TO CCl4 AROUND 1550 CM^-^1 HAS BEEN SUBTRACTED
##SAMPLING PROCEDURE=TRANSMISSION
##RESOLUTION=2
##DATA PROCESSING=DIGITIZED BY COBLENTZ SOCIETY (BATCH I) FROM HARD COPY
##XUNITS=1/CM
##YUNITS=TRANSMITTANCE
##XFACTOR=1
##YFACTOR=1
##DELTAX=1
##FIRSTX=3800
##LASTX=455
##FIRSTY=0.9052
##MAXX=3800
##MINX=455
##MAXY=0.967
##MINY=0.0009
##NPOINTS=3346
##XYDATA=(X++(Y..Y))
3800.000000 0.9052 0.9054 0.9056 0.9060 0.9070
3795.000000 0.9066 0.9075 0.9078 0.9081 0.9082
3790.000000 0.9085 0.9088 0.9091 0.9094 0.9097
3785.000000 0.9099 0.9095 0.9093 0.9095 0.9104
3780.000000 0.9109 0.9101 0.9110 0.9113 0.9115
3775.000000 0.9107 0.9119 0.9120 0.9121 0.9122
3770.000000 0.9124 0.9125 0.9126 0.9126 0.9129
3765.000000 0.9130 0.9132 0.9133 0.9134 0.9134
3760.000000 0.9141 0.9142 0.9139 0.9139 0.9139
3755.000000 0.9139 0.9139 0.9139 0.9140 0.9140
3750.000000 0.9140 0.9140 0.9140 0.9140 0.9141
3745.000000 0.9141 0.9141 0.9141 0.9141 0.9141
3740.000000 0.9141 0.9143 0.9151 0.9149 0.9149
3735.000000 0.9147 0.9142 0.9135 0.9141 0.9144
3730.000000 0.9144 0.9144 0.9144 0.9143 0.9142
3725.000000 0.9140 0.9140 0.9140 0.9140 0.9139
3720.000000 0.9139 0.9128 0.9129 0.9137 0.9137
3715.000000 0.9137 0.9137 0.9137 0.9140 0.9144
3710.000000 0.9141 0.9147 0.9147 0.9147 0.9147
3705.000000 0.9146 0.9146 0.9146 0.9146 0.9144
3700.000000 0.9144 0.9144 0.9144 0.9144 0.9136
3695.000000 0.9136 0.9137 0.9137 0.9137 0.9139
3690.000000 0.9140 0.9140 0.9142 0.9141 0.9133
3685.000000 0.9133 0.9133 0.9135 0.9136 0.9136
3680.000000 0.9138 0.9138 0.9139 0.9140 0.9141
3675.000000 0.9142 0.9143 0.9144 0.9146 0.9147
3670.000000 0.9157 0.9151 0.9150 0.9151 0.9153
3665.000000 0.9154 0.9155 0.9156 0.9158 0.9160
3660.000000 0.9161 0.9162 0.9163 0.9164 0.9166
3655.000000 0.9167 0.9168 0.9169 0.9171 0.9172
3650.000000 0.9173 0.9174 0.9176 0.9176 0.9177
3645.000000 0.9177 0.9177 0.9177 0.9179 0.9180
3640.000000 0.9180 0.9180 0.9182 0.9182 0.9183
3635.000000 0.9183 0.9184 0.9186 0.9195 0.9195
3630.000000 0.9194 0.9186 0.9191 0.9198 0.9198
3625.000000 0.9198 0.9200 0.9200 0.9201 0.9202
3620.000000 0.9203 0.9203 0.9204 0.9204 0.9205
3615.000000 0.9205 0.9206 0.9206 0.9207 0.9207
3610.000000 0.9208 0.9207 0.9200 0.9209 0.9210
3605.000000 0.9210 0.9211 0.9208 0.9205 0.9212
3600.000000 0.9208 0.9201 0.9208 0.9213 0.9214
3595.000000 0.9214 0.9214 0.9214 0.9215 0.9215
3590.000000 0.9216 0.9216 0.9216 0.9216 0.9217
3585.000000 0.9217 0.9218 0.9218 0.9218 0.9218
3580.000000 0.9219 0.9219 0.9220 0.9220 0.9217
3575.000000 0.9213 0.9221 0.9221 0.9218 0.9211
3570.000000 0.9211 0.9211 0.9212 0.9212 0.9213
3565.000000 0.9213 0.9213 0.9213 0.9214 0.9214
3560.000000 0.9215 0.9215 0.9215 0.9215 0.9217
3555.000000 0.9227 0.9216 0.9217 0.9226 0.9226
3550.000000 0.9224 0.9218 0.9226 0.9225 0.9225
3545.000000 0.9220 0.9219 0.9225 0.9225 0.9224
3540.000000 0.9217 0.9220 0.9216 0.9221 0.9224
3535.000000 0.9223 0.9223 0.9223 0.9223 0.9223
3530.000000 0.9223 0.9211 0.9211 0.9211 0.9211
3525.000000 0.9211 0.9211 0.9210 0.9210 0.9210
3520.000000 0.9210 0.9210 0.9210 0.9209 0.9209
3515.000000 0.9209 0.9209 0.9209 0.9209 0.9209
3510.000000 0.9210 0.9210 0.9211 0.9212 0.9213
3505.000000 0.9213 0.9214 0.9214 0.9215 0.9215
3500.000000 0.9216 0.9216 0.9217 0.9218 0.9219
3495.000000 0.9219 0.9220 0.9220 0.9221 0.9221
3490.000000 0.9222 0.9222 0.9223 0.9224 0.9225
3485.000000 0.9225 0.9226 0.9226 0.9227 0.9227
3480.000000 0.9227 0.9227 0.9229 0.9229 0.9230
3475.000000 0.9230 0.9232 0.9232 0.9232 0.9230
3470.000000 0.9230 0.9230 0.9230 0.9230 0.9230
3465.000000 0.9229 0.9229 0.9229 0.9229 0.9229
3460.000000 0.9229 0.9227 0.9227 0.9227 0.9227
3455.000000 0.9227 0.9227 0.9227 0.9227 0.9226
3450.000000 0.9226 0.9226 0.9226 0.9225 0.9225
3445.000000 0.9225 0.9225 0.9223 0.9223 0.9223
3440.000000 0.9223 0.9222 0.9221 0.9220 0.9219
3435.000000 0.9218 0.9218 0.9217 0.9216 0.9215
3430.000000 0.9214 0.9213 0.9213 0.9212 0.9211
3425.000000 0.9200 0.9208 0.9208 0.9207 0.9206
3420.000000 0.9206 0.9205 0.9204 0.9203 0.9201
3415.000000 0.9200 0.9200 0.9199 0.9198 0.9197
3410.000000 0.9196 0.9195 0.9195 0.9200 0.9198
3405.000000 0.9192 0.9191 0.9190 0.9190 0.9189
3400.000000 0.9188 0.9187 0.9187 0.9185 0.9185
3395.000000 0.9184 0.9184 0.9182 0.9182 0.9181
3390.000000 0.9179 0.9177 0.9177 0.9177 0.9176
3385.000000 0.9174 0.9174 0.9174 0.9173 0.9172
3380.000000 0.9172 0.9171 0.9170 0.9169 0.9168
3375.000000 0.9167 0.9167 0.9166 0.9165 0.9164
3370.000000 0.9172 0.9163 0.9161 0.9160 0.9160
3365.000000 0.9159 0.9157 0.9156 0.9155 0.9154
3360.000000 0.9153 0.9152 0.9151 0.9150 0.9150
3355.000000 0.9149 0.9148 0.9147 0.9146 0.9145
3350.000000 0.9144 0.9143 0.9142 0.9141 0.9141
3345.000000 0.9147 0.9149 0.9138 0.9145 0.9135
3340.000000 0.9132 0.9133 0.9142 0.9140 0.9139
3335.000000 0.9128 0.9127 0.9125 0.9125 0.9124
3330.000000 0.9122 0.9122 0.9121 0.9120 0.9119
3325.000000 0.9118 0.9117 0.9116 0.9115 0.9113
3320.000000 0.9112 0.9110 0.9110 0.9109 0.9109
3315.000000 0.9108 0.9108 0.9107 0.9118 0.9117
3310.000000 0.9117 0.9116 0.9114 0.9106 0.9115
3305.000000 0.9114 0.9111 0.9102 0.9102 0.9101
3300.000000 0.9101 0.9100 0.9100 0.9099 0.9099
3295.000000 0.9098 0.9098 0.9097 0.9097 0.9096
3290.000000 0.9096 0.9096 0.9096 0.9095 0.9095
3285.000000 0.9094 0.9094 0.9103 0.9102 0.9091
3280.000000 0.9094 0.9102 0.9099 0.9090 0.9094
3275.000000 0.9100 0.9100 0.9099 0.9099 0.9098
3270.000000 0.9098 0.9098 0.9098 0.9097 0.9097
3265.000000 0.9096 0.9095 0.9093 0.9091 0.9090
3260.000000 0.9088 0.9087 0.9083 0.9082 0.9070
3255.000000 0.9079 0.9077 0.9075 0.9074 0.9070
3250.000000 0.9067 0.9063 0.9060 0.9055 0.9052
3245.000000 0.9043 0.9039 0.9039 0.9036 0.9030
3240.000000 0.9025 0.9019 0.9014 0.9009 0.9003
3235.000000 0.8997 0.8992 0.8986 0.8980 0.8974
3230.000000 0.8969 0.8963 0.8957 0.8949 0.8934
3225.000000 0.8930 0.8932 0.8925 0.8918 0.8912
3220.000000 0.8906 0.8900 0.8894 0.8887 0.8880
3215.000000 0.8876 0.8871 0.8865 0.8861 0.8856
3210.000000 0.8852 0.8847 0.8833 0.8826 0.8821
3205.000000 0.8817 0.8812 0.8807 0.8802 0.8797
3200.000000 0.8794 0.8796 0.8785 0.8785 0.8776
3195.000000 0.8778 0.8774 0.8769 0.8764 0.8758
3190.000000 0.8746 0.8740 0.8739 0.8733 0.8721
3185.000000 0.8710 0.8705 0.8698 0.8692 0.8686
3180.000000 0.8681 0.8675 0.8668 0.8662 0.8657
3175.000000 0.8651 0.8646 0.8646 0.8646 0.8645
3170.000000 0.8645 0.8645 0.8645 0.8645 0.8646
3165.000000 0.8647 0.8652 0.8658 0.8653 0.8655
3160.000000 0.8660 0.8661 0.8655 0.8660 0.8657
3155.000000 0.8658 0.8670 0.8674 0.8677 0.8681
3150.000000 0.8684 0.8687 0.8680 0.8683 0.8686
3145.000000 0.8688 0.8691 0.8693 0.8695 0.8700
3140.000000 0.8709 0.8712 0.8714 0.8715 0.8717
3135.000000 0.8717 0.8719 0.8720 0.8720 0.8720
3130.000000 0.8720 0.8720 0.8719 0.8716 0.8712
3125.000000 0.8709 0.8707 0.8703 0.8699 0.8692
3120.000000 0.8684 0.8677 0.8671 0.8664 0.8656
3115.000000 0.8644 0.8632 0.8618 0.8606 0.8593
3110.000000 0.8581 0.8559 0.8537 0.8518 0.8499
3105.000000 0.8474 0.8450 0.8426 0.8402 0.8378
3100.000000 0.8364 0.8335 0.8306 0.8282 0.8260
3095.000000 0.8223 0.8176 0.7863 0.7550 0.7112
3090.000000 0.6680 0.6243 0.5809 0.5381 0.4955
3085.000000 0.4520 0.4089 0.3810 0.3531 0.3532
3080.000000 0.3517 0.3587 0.3646 0.3879 0.4110
3075.000000 0.4338 0.4571 0.4801 0.5026 0.5193
3070.000000 0.5362 0.5366 0.5384 0.5386 0.5394
3065.000000 0.5404 0.5414 0.5482 0.5556 0.5725
3060.000000 0.5896 0.6070 0.6240 0.6407 0.6571
3055.000000 0.6743 0.6913 0.7078 0.7247 0.7421
3050.000000 0.7594 0.7666 0.7738 0.7765 0.7800
3045.000000 0.7820 0.7849 0.7864 0.7879 0.7891
3040.000000 0.7904 0.7907 0.7907 0.7906 0.7895
3035.000000 0.7886 0.7883 0.7872 0.7866 0.7853
3030.000000 0.7838 0.7809 0.7787 0.7754 0.7721
3025.000000 0.7669 0.7619 0.7563 0.7508 0.7427
3020.000000 0.7346 0.7308 0.7265 0.7211 0.7149
3015.000000 0.7076 0.7006 0.6927 0.6851 0.6754
3010.000000 0.6660 0.6461 0.6263 0.5761 0.5269
3005.000000 0.5048 0.4824 0.4751 0.4677 0.4639
3000.000000 0.4603 0.4582 0.4560 0.4550 0.4541
2995.000000 0.4536 0.4531 0.4529 0.4525 0.4499
2990.000000 0.4473 0.4305 0.4135 0.3899 0.3663
2985.000000 0.3427 0.3190 0.2953 0.2718 0.2481
2980.000000 0.2246 0.2010 0.1774 0.1537 0.1302
2975.000000 0.1065 0.0828 0.0591 0.0355 0.0260
2970.000000 0.0165 0.0148 0.0131 0.0115 0.0100
2965.000000 0.0085 0.0072 0.0063 0.0056 0.0047
2960.000000 0.0038 0.0035 0.0009 0.0030 0.0028
2955.000000 0.0027 0.0027 0.0032 0.0039 0.0069
2950.000000 0.0100 0.0201 0.0303 0.0404 0.0506
2945.000000 0.0606 0.0709 0.0810 0.0912 0.0912
2940.000000 0.0958 0.0914 0.0915 0.0873 0.0830
2935.000000 0.0757 0.0687 0.0615 0.0544 0.0496
2930.000000 0.0448 0.0450 0.0461 0.0461 0.0462
2925.000000 0.0492 0.0523 0.0565 0.0606 0.0646
2920.000000 0.0688 0.0729 0.0771 0.0781 0.0795
2915.000000 0.0789 0.0784 0.0767 0.0749 0.0729
2910.000000 0.0710 0.0690 0.0672 0.0652 0.0632
2905.000000 0.0612 0.0593 0.0573 0.0554 0.0538
2900.000000 0.0523 0.0527 0.0464 0.0567 0.0605
2895.000000 0.0723 0.0843 0.0962 0.1081 0.1200
2890.000000 0.1319 0.1439 0.1558 0.1583 0.1609
2885.000000 0.1615 0.1654 0.1593 0.1564 0.1472
2880.000000 0.1381 0.1288 0.1197 0.1103 0.1013
2875.000000 0.0920 0.0829 0.0737 0.0620 0.0627
2870.000000 0.0611 0.0617 0.0624 0.0903 0.1181
2865.000000 0.1491 0.1801 0.2112 0.2423 0.2733
2860.000000 0.3044 0.3354 0.3665 0.3975 0.4285
2855.000000 0.4596 0.4901 0.5011 0.5122 0.5122
2850.000000 0.5123 0.5061 0.5147 0.4888 0.4779
2845.000000 0.4664 0.4549 0.4432 0.4322 0.4207
2840.000000 0.4091 0.4076 0.4064 0.4068 0.4047
2835.000000 0.4070 0.4074 0.5031 0.5989 0.6079
2830.000000 0.6171 0.6223 0.6265 0.6319 0.6369
2825.000000 0.6425 0.6489 0.6560 0.6617 0.6911
2820.000000 0.7197 0.7265 0.7326 0.7375 0.7423
2815.000000 0.7504 0.7586 0.7710 0.7835 0.7879
2810.000000 0.7924 0.7956 0.7996 0.8030 0.8059
2805.000000 0.8083 0.8106 0.8124 0.8143 0.8160
2800.000000 0.8176 0.8190 0.8203 0.8215 0.8228
2795.000000 0.8241 0.8253 0.8266 0.8275 0.8283
2790.000000 0.8301 0.8306 0.8318 0.8329 0.8343
2785.000000 0.8360 0.8378 0.8383 0.8392 0.8410
2780.000000 0.8425 0.8439 0.8451 0.8467 0.8482
2775.000000 0.8499 0.8516 0.8533 0.8552 0.8581
2770.000000 0.8611 0.8634 0.8658 0.8677 0.8695
2765.000000 0.8710 0.8723 0.8728 0.8728 0.8728
2760.000000 0.8724 0.8719 0.8714 0.8709 0.8705
2755.000000 0.8699 0.8695 0.8695 0.8697 0.8703
2750.000000 0.8709 0.8714 0.8719 0.8732 0.8744
2745.000000 0.8756 0.8770 0.8780 0.8791 0.8796
2740.000000 0.8803 0.8806 0.8811 0.8810 0.8810
2735.000000 0.8809 0.8808 0.8798 0.8788 0.8749
2730.000000 0.8711 0.8611 0.8512 0.8508 0.8504
2725.000000 0.8501 0.8500 0.8500 0.8502 0.8503
2720.000000 0.8504 0.8513 0.8524 0.8534 0.8543
2715.000000 0.8570 0.8597 0.8624 0.8650 0.8671
2710.000000 0.8692 0.8711 0.8731 0.8751 0.8771
2705.000000 0.8781 0.8792 0.8803 0.8814 0.8825
2700.000000 0.8836 0.8846 0.8857 0.8862 0.8868
2695.000000 0.8873 0.8880 0.8886 0.8892 0.8897
2690.000000 0.8902 0.8905 0.8907 0.8909 0.8910
2685.000000 0.8912 0.8914 0.8915 0.8917 0.8918
2680.000000 0.8919 0.8920 0.8922 0.8923 0.8925
2675.000000 0.8925 0.8926 0.8926 0.8926 0.8926
2670.000000 0.8927 0.8927 0.8928 0.8928 0.8929
2665.000000 0.8930 0.8931 0.8931 0.8932 0.8933
2660.000000 0.8933 0.8933 0.8933 0.8941 0.8939
2655.000000 0.8936 0.8933 0.8910 0.8887 0.8869
2650.000000 0.8849 0.8834 0.8826 0.8822 0.8813
2645.000000 0.8810 0.8809 0.8813 0.8823 0.8823
2640.000000 0.8824 0.8827 0.8831 0.8835 0.8840
2635.000000 0.8844 0.8857 0.8860 0.8864 0.8859
2630.000000 0.8865 0.8877 0.8881 0.8887 0.8895
2625.000000 0.8903 0.8911 0.8919 0.8927 0.8935
2620.000000 0.8943 0.8951 0.8959 0.8966 0.8974
2615.000000 0.8976 0.8978 0.8980 0.8983 0.8984
2610.000000 0.8986 0.8986 0.8987 0.8987 0.8987
2605.000000 0.8986 0.8984 0.8979 0.8973 0.8967
2600.000000 0.8961 0.8956 0.8951 0.8938 0.8926
2595.000000 0.8928 0.8931 0.8936 0.8942 0.8945
2590.000000 0.8949 0.8953 0.8956 0.8959 0.8961
2585.000000 0.8964 0.8968 0.8971 0.8975 0.8978
2580.000000 0.8982 0.8984 0.8986 0.8987 0.8989
2575.000000 0.8991 0.8993 0.8994 0.8996 0.8997
2570.000000 0.8997 0.8997 0.8997 0.8997 0.8997
2565.000000 0.8996 0.8996 0.8996 0.8996 0.8996
2560.000000 0.8996 0.8997 0.8998 0.8999 0.9000
2555.000000 0.9000 0.9001 0.9002 0.9003 0.9004
2550.000000 0.9005 0.9006 0.9007 0.9008 0.9010
2545.000000 0.9011 0.9012 0.9012 0.9014 0.9015
2540.000000 0.9020 0.9026 0.9032 0.9038 0.9045
2535.000000 0.9050 0.9056 0.9062 0.9067 0.9075
2530.000000 0.9081 0.9086 0.9092 0.9095 0.9100
2525.000000 0.9104 0.9108 0.9112 0.9116 0.9116
2520.000000 0.9116 0.9116 0.9118 0.9118 0.9118
2515.000000 0.9118 0.9118 0.9118 0.9118 0.9118
2510.000000 0.9118 0.9116 0.9116 0.9116 0.9116
2505.000000 0.9115 0.9115 0.9115 0.9115 0.9114
2500.000000 0.9114 0.9113 0.9113 0.9112 0.9112
2495.000000 0.9111 0.9111 0.9110 0.9110 0.9110
2490.000000 0.9110 0.9109 0.9108 0.9108 0.9108
2485.000000 0.9108 0.9109 0.9109 0.9109 0.9116
2480.000000 0.9120 0.9120 0.9120 0.9120 0.9121
2475.000000 0.9121 0.9121 0.9121 0.9121 0.9121
2470.000000 0.9121 0.9121 0.9122 0.9122 0.9122
2465.000000 0.9122 0.9122 0.9122 0.9122 0.9122
2460.000000 0.9123 0.9123 0.9118 0.9118 0.9118
2455.000000 0.9113 0.9113 0.9120 0.9125 0.9125
2450.000000 0.9117 0.9123 0.9126 0.9126 0.9126
2445.000000 0.9126 0.9126 0.9126 0.9128 0.9128
2440.000000 0.9128 0.9129 0.9129 0.9131 0.9132
2435.000000 0.9133 0.9133 0.9133 0.9135 0.9136
2430.000000 0.9136 0.9139 0.9140 0.9141 0.9142
2425.000000 0.9143 0.9144 0.9145 0.9146 0.9147
2420.000000 0.9148 0.9149 0.9151 0.9152 0.9153
2415.000000 0.9154 0.9156 0.9156 0.9156 0.9156
2410.000000 0.9157 0.9160 0.9165 0.9161 0.9168
2405.000000 0.9168 0.9168 0.9167 0.9166 0.9164
2400.000000 0.9163 0.9161 0.9160 0.9156 0.9153
2395.000000 0.9149 0.9144 0.9140 0.9137 0.9135
2390.000000 0.9135 0.9146 0.9146 0.9146 0.9147
2385.000000 0.9149 0.9161 0.9161 0.9167 0.9177
2380.000000 0.9179 0.9184 0.9193 0.9199 0.9206
2375.000000 0.9206 0.9213 0.9219 0.9220 0.9221
2370.000000 0.9222 0.9214 0.9211 0.9211 0.9210
2365.000000 0.9208 0.9206 0.9201 0.9200 0.9199
2360.000000 0.9207 0.9206 0.9213 0.9212 0.9220
2355.000000 0.9224 0.9221 0.9217 0.9214 0.9205
2350.000000 0.9195 0.9191 0.9194 0.9201 0.9203
2345.000000 0.9198 0.9188 0.9181 0.9179 0.9176
2340.000000 0.9174 0.9161 0.9167 0.9165 0.9153
2335.000000 0.9149 0.9158 0.9156 0.9154 0.9152
2330.000000 0.9159 0.9156 0.9154 0.9154 0.9159
2325.000000 0.9161 0.9165 0.9162 0.9161 0.9158
2320.000000 0.9156 0.9153 0.9151 0.9148 0.9146
2315.000000 0.9143 0.9141 0.9138 0.9135 0.9130
2310.000000 0.9127 0.9124 0.9120 0.9117 0.9112
2305.000000 0.9109 0.9107 0.9105 0.9103 0.9101
2300.000000 0.9099 0.9100 0.9106 0.9104 0.9102
2295.000000 0.9100 0.9098 0.9096 0.9095 0.9092
2290.000000 0.9090 0.9088 0.9079 0.9079 0.9084
2285.000000 0.9087 0.9091 0.9085 0.9088 0.9092
2280.000000 0.9096 0.9097 0.9092 0.9094 0.9098
2275.000000 0.9092 0.9096 0.9099 0.9100 0.9096
2270.000000 0.9099 0.9097 0.9095 0.9098 0.9102
2265.000000 0.9098 0.9098 0.9101 0.9103 0.9099
2260.000000 0.9101 0.9104 0.9098 0.9098 0.9101
2255.000000 0.9103 0.9096 0.9099 0.9102 0.9103
2250.000000 0.9096 0.9099 0.9103 0.9104 0.9105
2245.000000 0.9104 0.9099 0.9101 0.9103 0.9104
2240.000000 0.9107 0.9109 0.9111 0.9113 0.9116
2235.000000 0.9109 0.9108 0.9109 0.9111 0.9112
2230.000000 0.9113 0.9114 0.9115 0.9116 0.9118
2225.000000 0.9119 0.9120 0.9121 0.9121 0.9112
2220.000000 0.9114 0.9116 0.9117 0.9118 0.9119
2215.000000 0.9119 0.9120 0.9120 0.9121 0.9121
2210.000000 0.9122 0.9122 0.9123 0.9123 0.9124
2205.000000 0.9124 0.9124 0.9124 0.9126 0.9126
2200.000000 0.9127 0.9127 0.9127 0.9129 0.9129
2195.000000 0.9122 0.9131 0.9130 0.9123 0.9125
2190.000000 0.9127 0.9128 0.9129 0.9130 0.9132
2185.000000 0.9133 0.9141 0.9140 0.9138 0.9139
2180.000000 0.9140 0.9141 0.9151 0.9155 0.9156
2175.000000 0.9157 0.9159 0.9160 0.9161 0.9162
2170.000000 0.9164 0.9164 0.9155 0.9156 0.9157
2165.000000 0.9158 0.9159 0.9160 0.9161 0.9162
2160.000000 0.9163 0.9164 0.9164 0.9164 0.9166
2155.000000 0.9167 0.9167 0.9169 0.9170 0.9172
2150.000000 0.9172 0.9174 0.9175 0.9175 0.9177
2145.000000 0.9178 0.9179 0.9180 0.9181 0.9181
2140.000000 0.9182 0.9182 0.9183 0.9183 0.9183
2135.000000 0.9183 0.9183 0.9183 0.9184 0.9184
2130.000000 0.9184 0.9184 0.9185 0.9185 0.9185
2125.000000 0.9185 0.9185 0.9185 0.9177 0.9184
2120.000000 0.9186 0.9186 0.9187 0.9187 0.9188
2115.000000 0.9188 0.9189 0.9189 0.9190 0.9191
2110.000000 0.9192 0.9192 0.9193 0.9194 0.9195
2105.000000 0.9195 0.9196 0.9196 0.9197 0.9198
2100.000000 0.9199 0.9199 0.9192 0.9190 0.9200
2095.000000 0.9202 0.9194 0.9202 0.9204 0.9204
2090.000000 0.9205 0.9205 0.9206 0.9206 0.9207
2085.000000 0.9207 0.9208 0.9209 0.9210 0.9210
2080.000000 0.9211 0.9211 0.9212 0.9212 0.9213
2075.000000 0.9213 0.9214 0.9214 0.9214 0.9214
2070.000000 0.9213 0.9204 0.9195 0.9182 0.9171
2065.000000 0.9163 0.9137 0.9155 0.9153 0.9152
2060.000000 0.9151 0.9163 0.9177 0.9187 0.9203
2055.000000 0.9211 0.9219 0.9222 0.9220 0.9220
2050.000000 0.9229 0.9228 0.9226 0.9226 0.9229
2045.000000 0.9229 0.9230 0.9230 0.9230 0.9230
2040.000000 0.9229 0.9228 0.9227 0.9225 0.9224
2035.000000 0.9215 0.9207 0.9198 0.9190 0.9182
2030.000000 0.9173 0.9165 0.9160 0.9156 0.9140
2025.000000 0.9136 0.9134 0.9128 0.9122 0.9117
2020.000000 0.9111 0.9106 0.9101 0.9098 0.9096
2015.000000 0.9093 0.9089 0.9088 0.9088 0.9088
2010.000000 0.9090 0.9093 0.9095 0.9099 0.9103
2005.000000 0.9108 0.9113 0.9117 0.9122 0.9136
2000.000000 0.9150 0.9164 0.9174 0.9173 0.9173
1995.000000 0.9172 0.9163 0.9155 0.9145 0.9133
1990.000000 0.9121 0.9111 0.9100 0.9085 0.9060
1985.000000 0.9057 0.9055 0.9069 0.9080 0.9091
1980.000000 0.9100 0.9108 0.9107 0.9115 0.9120
1975.000000 0.9125 0.9130 0.9135 0.9140 0.9144
1970.000000 0.9148 0.9151 0.9156 0.9159 0.9170
1965.000000 0.9172 0.9171 0.9183 0.9192 0.9197
1960.000000 0.9203 0.9208 0.9214 0.9219 0.9224
1955.000000 0.9229 0.9231 0.9243 0.9254 0.9267
1950.000000 0.9276 0.9278 0.9278 0.9278 0.9273
1945.000000 0.9269 0.9265 0.9261 0.9260 0.9260
1940.000000 0.9261 0.9262 0.9263 0.9265 0.9266
1935.000000 0.9267 0.9268 0.9270 0.9271 0.9271
1930.000000 0.9271 0.9271 0.9272 0.9272 0.9273
1925.000000 0.9274 0.9276 0.9278 0.9279 0.9281
1920.000000 0.9282 0.9284 0.9284 0.9284 0.9287
1915.000000 0.9288 0.9288 0.9288 0.9290 0.9290
1910.000000 0.9286 0.9283 0.9280 0.9286 0.9285
1905.000000 0.9282 0.9279 0.9276 0.9274 0.9273
1900.000000 0.9272 0.9269 0.9268 0.9267 0.9266
1895.000000 0.9264 0.9263 0.9262 0.9262 0.9258
1890.000000 0.9252 0.9252 0.9253 0.9254 0.9254
1885.000000 0.9254 0.9260 0.9263 0.9262 0.9261
1880.000000 0.9261 0.9260 0.9259 0.9258 0.9257
1875.000000 0.9267 0.9267 0.9264 0.9260 0.9256
1870.000000 0.9253 0.9250 0.9246 0.9242 0.9234
1865.000000 0.9228 0.9221 0.9213 0.9202 0.9191
1860.000000 0.9177 0.9161 0.9145 0.9135 0.9116
1855.000000 0.9095 0.9076 0.9056 0.9037 0.9016
1850.000000 0.8992 0.8969 0.8943 0.8917 0.8889
1845.000000 0.8860 0.8826 0.8794 0.8760 0.8725
1840.000000 0.8680 0.8618 0.8564 0.8510 0.8452
1835.000000 0.8392 0.8339 0.8285 0.8231 0.8168
1830.000000 0.8078 0.8035 0.7993 0.8019 0.8016
1825.000000 0.8016 0.8023 0.8035 0.8087 0.8146
1820.000000 0.8228 0.8323 0.8416 0.8506 0.8566
1815.000000 0.8626 0.8686 0.8741 0.8792 0.8842
1810.000000 0.8894 0.8920 0.8939 0.8967 0.8994
1805.000000 0.9021 0.9040 0.9056 0.9075 0.9095
1800.000000 0.9116 0.9133 0.9145 0.9157 0.9168
1795.000000 0.9180 0.9189 0.9194 0.9198 0.9202
1790.000000 0.9203 0.9203 0.9205 0.9210 0.9214
1785.000000 0.9218 0.9222 0.9225 0.9229 0.9233
1780.000000 0.9237 0.9241 0.9245 0.9249 0.9247
1775.000000 0.9245 0.9249 0.9253 0.9255 0.9256
1770.000000 0.9256 0.9257 0.9257 0.9257 0.9258
1765.000000 0.9258 0.9258 0.9258 0.9257 0.9257
1760.000000 0.9256 0.9259 0.9266 0.9266 0.9265
1755.000000 0.9263 0.9261 0.9259 0.9257 0.9255
1750.000000 0.9253 0.9238 0.9248 0.9243 0.9238
1745.000000 0.9234 0.9230 0.9227 0.9222 0.9218
1740.000000 0.9217 0.9216 0.9216 0.9215 0.9214
1735.000000 0.9213 0.9213 0.9212 0.9212 0.9211
1730.000000 0.9212 0.9212 0.9212 0.9212 0.9212
1725.000000 0.9212 0.9212 0.9213 0.9214 0.9216
1720.000000 0.9220 0.9223 0.9225 0.9229 0.9231
1715.000000 0.9235 0.9238 0.9240 0.9244 0.9247
1710.000000 0.9247 0.9248 0.9247 0.9247 0.9245
1705.000000 0.9246 0.9246 0.9246 0.9246 0.9244
1700.000000 0.9242 0.9240 0.9238 0.9237 0.9235
1695.000000 0.9233 0.9231 0.9230 0.9227 0.9224
1690.000000 0.9221 0.9217 0.9214 0.9211 0.9207
1685.000000 0.9204 0.9200 0.9197 0.9193 0.9189
1680.000000 0.9187 0.9183 0.9179 0.9174 0.9166
1675.000000 0.9158 0.9148 0.9145 0.9139 0.9122
1670.000000 0.9106 0.9091 0.9070 0.9049 0.9028
1665.000000 0.9006 0.8985 0.8965 0.8944 0.8924
1660.000000 0.8915 0.8890 0.8870 0.8858 0.8835
1655.000000 0.8810 0.8783 0.8693 0.8321 0.8203
1650.000000 0.8078 0.7954 0.7827 0.7687 0.6364
1645.000000 0.5158 0.3948 0.2737 0.2534 0.2514
1640.000000 0.2523 0.3505 0.4523 0.5541 0.6563
1635.000000 0.7373 0.7565 0.7742 0.7895 0.8028
1630.000000 0.8103 0.8183 0.8271 0.8383 0.8438
1625.000000 0.8476 0.8526 0.8562 0.8597 0.8637
1620.000000 0.8624 0.8640 0.8659 0.8676 0.8702
1615.000000 0.8725 0.8745 0.8764 0.8785 0.8809
1610.000000 0.8821 0.8843 0.8853 0.8842 0.8829
1605.000000 0.8798 0.8800 0.8770 0.8756 0.8691
1600.000000 0.8664 0.8636 0.8616 0.8595 0.8558
1595.000000 0.8508 0.8458 0.8398 0.8348 0.8316
1590.000000 0.8263 0.8253 0.8248 0.8263 0.8281
1585.000000 0.8291 0.8306 0.8330 0.8325 0.8324
1580.000000 0.8311 0.8305 0.8285 0.8272 0.8249
1575.000000 0.8236 0.8241 0.8235 0.8224 0.8215
1570.000000 0.8092 0.7957 0.7876 0.7823 0.7763
1565.000000 0.7713 0.7711 0.7717 0.7712 0.7712
1560.000000 0.7306 0.7155 0.7146 0.7160 0.7192
1555.000000 0.7251 0.7291 0.7323 0.7366 0.7392
1550.000000 0.7421 0.7414 0.7439 0.7471 0.7497
1545.000000 0.7521 0.7564 0.7632 0.7745 0.7864
1540.000000 0.8252 0.8423 0.8598 0.8604 0.8602
1535.000000 0.8621 0.8616 0.8599 0.8587 0.8566
1530.000000 0.8534 0.8512 0.8496 0.8480 0.8473
1525.000000 0.8498 0.8516 0.8521 0.8534 0.8536
1520.000000 0.8545 0.8555 0.8557 0.8579 0.8600
1515.000000 0.8612 0.8623 0.8628 0.8640 0.8640
1510.000000 0.8643 0.8648 0.8641 0.8634 0.8626
1505.000000 0.8615 0.8609 0.8600 0.8580 0.8563
1500.000000 0.8538 0.8511 0.8474 0.8443 0.8413
1495.000000 0.8391 0.8359 0.8331 0.8292 0.8253
1490.000000 0.8196 0.8139 0.8073 0.7997 0.7923
1485.000000 0.7839 0.7754 0.7571 0.7350 0.7158
1480.000000 0.6743 0.6385 0.5887 0.5757 0.5638
1475.000000 0.5355 0.4468 0.3593 0.2718 0.1843
1470.000000 0.1795 0.1803 0.1801 0.1862 0.1927
1465.000000 0.2002 0.2092 0.2258 0.2362 0.2812
1460.000000 0.3495 0.4178 0.4250 0.4284 0.4322
1455.000000 0.4465 0.4710 0.4958 0.5205 0.5452
1450.000000 0.5697 0.5857 0.5855 0.5862 0.5862
1445.000000 0.5625 0.5255 0.4885 0.4526 0.4504
1440.000000 0.4511 0.4866 0.5570 0.6274 0.6668
1435.000000 0.6995 0.7161 0.7294 0.7397 0.7452
1430.000000 0.7484 0.7513 0.7530 0.7546 0.7564
1425.000000 0.7559 0.7568 0.7560 0.7554 0.7430
1420.000000 0.7035 0.6583 0.6598 0.6664 0.6853
1415.000000 0.7047 0.7244 0.7440 0.7635 0.7812
1410.000000 0.7904 0.7968 0.8020 0.8064 0.8090
1405.000000 0.8118 0.8153 0.8173 0.8188 0.8189
1400.000000 0.8197 0.8193 0.8188 0.8176 0.8064
1395.000000 0.7762 0.7637 0.7329 0.6596 0.5841
1390.000000 0.5091 0.4341 0.3585 0.3342 0.3343
1385.000000 0.3898 0.4574 0.5237 0.5895 0.6553
1380.000000 0.7100 0.7099 0.7091 0.6940 0.6244
1375.000000 0.5545 0.4852 0.4157 0.3466 0.3079
1370.000000 0.3084 0.3091 0.4353 0.5973 0.7109
1365.000000 0.7311 0.7626 0.7949 0.8136 0.8269
1360.000000 0.8362 0.8440 0.8507 0.8567 0.8583
1355.000000 0.8594 0.8595 0.8598 0.8584 0.8585
1350.000000 0.8586 0.8512 0.8404 0.8222 0.7977
1345.000000 0.7792 0.7660 0.7544 0.7370 0.7215
1340.000000 0.7181 0.7154 0.7163 0.7167 0.7196
1335.000000 0.7291 0.7486 0.7572 0.7580 0.7603
1330.000000 0.7649 0.7694 0.7753 0.7821 0.7885
1325.000000 0.7944 0.8003 0.8056 0.8104 0.8159
1320.000000 0.8217 0.8274 0.8334 0.8396 0.8427
1315.000000 0.8449 0.8456 0.8479 0.8481 0.8482
1310.000000 0.8477 0.8468 0.8459 0.8451 0.8443
1305.000000 0.8427 0.8398 0.8383 0.8370 0.8356
1300.000000 0.8336 0.8344 0.8347 0.8363 0.8402
1295.000000 0.8446 0.8479 0.8510 0.8539 0.8558
1290.000000 0.8577 0.8598 0.8611 0.8627 0.8639
1285.000000 0.8650 0.8651 0.8648 0.8637 0.8558
1280.000000 0.8514 0.8478 0.8454 0.8437 0.8434
1275.000000 0.8410 0.8414 0.8419 0.8454 0.8490
1270.000000 0.8532 0.8575 0.8620 0.8668 0.8718
1265.000000 0.8762 0.8807 0.8848 0.8883 0.8910
1260.000000 0.8932 0.8955 0.8972 0.8983 0.8995
1255.000000 0.9004 0.9013 0.9005 0.9029 0.8993
1250.000000 0.8981 0.8947 0.8902 0.8854 0.8808
1245.000000 0.8742 0.8628 0.8554 0.8536 0.8459
1240.000000 0.8513 0.8522 0.8580 0.8638 0.8696
1235.000000 0.8756 0.8817 0.8889 0.8958 0.9013
1230.000000 0.9058 0.9102 0.9142 0.9181 0.9215
1225.000000 0.9242 0.9265 0.9271 0.9278 0.9285
1220.000000 0.9291 0.9297 0.9302 0.9307 0.9312
1215.000000 0.9317 0.9323 0.9329 0.9341 0.9344
1210.000000 0.9347 0.9352 0.9355 0.9359 0.9362
1205.000000 0.9366 0.9370 0.9370 0.9370 0.9368
1200.000000 0.9366 0.9362 0.9346 0.9337 0.9331
1195.000000 0.9323 0.9315 0.9310 0.9293 0.9272
1190.000000 0.9249 0.9223 0.9194 0.9147 0.9090
1185.000000 0.9027 0.8962 0.8896 0.8816 0.8732
1180.000000 0.8621 0.8478 0.8356 0.8232 0.8055
1175.000000 0.7708 0.7362 0.7017 0.6671 0.6557
1170.000000 0.6542 0.6546 0.6779 0.7065 0.7342
1165.000000 0.7617 0.7828 0.7980 0.8116 0.8195
1160.000000 0.8274 0.8349 0.8405 0.8463 0.8518
1155.000000 0.8565 0.8612 0.8657 0.8697 0.8724
1150.000000 0.8760 0.8797 0.8821 0.8852 0.8884
1145.000000 0.8916 0.8949 0.8972 0.9016 0.9050
1140.000000 0.9081 0.9117 0.9153 0.9187 0.9210
1135.000000 0.9237 0.9245 0.9245 0.9254 0.9267
1130.000000 0.9267 0.9263 0.9253 0.9225 0.9196
1125.000000 0.9152 0.9109 0.9033 0.8979 0.8924
1120.000000 0.8874 0.8842 0.8828 0.8818 0.8826
1115.000000 0.8837 0.8891 0.9021 0.9061 0.9082
1110.000000 0.9097 0.9099 0.9118 0.9104 0.9096
1105.000000 0.9098 0.9095 0.9062 0.9020 0.8957
1100.000000 0.8890 0.8867 0.8813 0.8808 0.8824
1095.000000 0.8880 0.8991 0.9065 0.9115 0.9155
1090.000000 0.9194 0.9223 0.9243 0.9245 0.9248
1085.000000 0.9248 0.9248 0.9248 0.9246 0.9237
1080.000000 0.9275 0.9227 0.9216 0.9208 0.9197
1075.000000 0.9193 0.9190 0.9192 0.9196 0.9193
1070.000000 0.9189 0.9186 0.9183 0.9180 0.9176
1065.000000 0.9166 0.9142 0.9112 0.9088 0.9054
1060.000000 0.9013 0.8955 0.8919 0.8864 0.8793
1055.000000 0.8733 0.8661 0.8571 0.8458 0.8349
1050.000000 0.8258 0.8160 0.8062 0.7964 0.7866
1045.000000 0.7770 0.7672 0.7529 0.7542 0.7535
1040.000000 0.7539 0.7554 0.7791 0.7954 0.8076
1035.000000 0.8178 0.8268 0.8339 0.8405 0.8442
1030.000000 0.8468 0.8502 0.8532 0.8552 0.8559
1025.000000 0.8558 0.8563 0.8563 0.8561 0.8558
1020.000000 0.8578 0.8539 0.8512 0.8471 0.8409
1015.000000 0.8331 0.8120 0.7727 0.7563 0.7448
1010.000000 0.7356 0.7279 0.7195 0.7114 0.7021
1005.000000 0.6929 0.6793 0.6588 0.6036 0.5391
1000.000000 0.4745 0.4099 0.3451 0.2804 0.2160
995.000000 0.1514 0.1153 0.1188 0.1200 0.2002
990.000000 0.3392 0.4782 0.5955 0.6148 0.6438
985.000000 0.6821 0.7229 0.7417 0.7516 0.7573
980.000000 0.7620 0.7647 0.7663 0.7671 0.7678
975.000000 0.7687 0.7700 0.7722 0.7739 0.7777
970.000000 0.7827 0.7888 0.7964 0.8039 0.8115
965.000000 0.8216 0.8270 0.8302 0.8314 0.8311
960.000000 0.8301 0.8285 0.8264 0.8250 0.8250
955.000000 0.8271 0.8305 0.8345 0.8378 0.8401
950.000000 0.8416 0.8441 0.8423 0.8411 0.8394
945.000000 0.8372 0.8346 0.8291 0.8234 0.8163
940.000000 0.8087 0.7992 0.7861 0.7738 0.7623
935.000000 0.7499 0.7360 0.7223 0.7002 0.6678
930.000000 0.6452 0.6085 0.5843 0.5726 0.5468
925.000000 0.4646 0.4517 0.4308 0.3724 0.3141
920.000000 0.2557 0.1972 0.1391 0.0806 0.0322
915.000000 0.0197 0.0108 0.0061 0.0059 0.0053
910.000000 0.0053 0.0075 0.0162 0.0482 0.0884
905.000000 0.1640 0.2420 0.3200 0.3832 0.4155
900.000000 0.4935 0.5712 0.6495 0.6775 0.6908
895.000000 0.7032 0.7147 0.7272 0.7425 0.7544
890.000000 0.7736 0.7729 0.7774 0.7805 0.7840
885.000000 0.7864 0.7879 0.7866 0.7843 0.7825
880.000000 0.7795 0.7633 0.7537 0.7479 0.7391
875.000000 0.7296 0.7100 0.7134 0.7142 0.7162
870.000000 0.7239 0.7372 0.7526 0.7669 0.7784
865.000000 0.7894 0.8002 0.8107 0.8187 0.8267
860.000000 0.8347 0.8423 0.8525 0.8630 0.8775
855.000000 0.8939 0.9102 0.9246 0.9298 0.9340
850.000000 0.9375 0.9393 0.9411 0.9433 0.9443
845.000000 0.9419 0.9388 0.9366 0.9331 0.9283
840.000000 0.9248 0.9221 0.9180 0.9165 0.9128
835.000000 0.9079 0.8991 0.8868 0.8626 0.8393
830.000000 0.7838 0.7939 0.7843 0.7839 0.7846
825.000000 0.8024 0.8206 0.8357 0.8369 0.8373
820.000000 0.8384 0.8412 0.8550 0.8678 0.8813
815.000000 0.8913 0.9102 0.9230 0.9288 0.9336
810.000000 0.9369 0.9409 0.9427 0.9433 0.9451
805.000000 0.9469 0.9477 0.9486 0.9494 0.9497
800.000000 0.9501 0.9504 0.9506 0.9500 0.9481
795.000000 0.9451 0.9402 0.9342 0.9293 0.9303
790.000000 0.9296 0.9324 0.9370 0.9410 0.9435
785.000000 0.9459 0.9482 0.9495 0.9516 0.9542
780.000000 0.9559 0.9583 0.9603 0.9612 0.9627
775.000000 0.9642 0.9657 0.9662 0.9661 0.9665
770.000000 0.9670 0.9662 0.9659 0.9656 0.9656
765.000000 0.9647 0.9647 0.9648 0.9649 0.9649
760.000000 0.9648 0.9651 0.9651 0.9651 0.9651
755.000000 0.9650 0.9653 0.9660 0.9660 0.9660
750.000000 0.9660 0.9659 0.9659 0.9657 0.9655
745.000000 0.9654 0.9652 0.9652 0.9651 0.9645
740.000000 0.9637 0.9630 0.9623 0.9616 0.9607
735.000000 0.9600 0.9592 0.9582 0.9573 0.9564
730.000000 0.9567 0.9557 0.9545 0.9530 0.9518
725.000000 0.9513 0.9498 0.9491 0.9499 0.9505
720.000000 0.9510 0.9508 0.9506 0.9513 0.9514
715.000000 0.9515 0.9526 0.9536 0.9540 0.9546
710.000000 0.9552 0.9557 0.9561 0.9562 0.9563
705.000000 0.9564 0.9566 0.9576 0.9574 0.9574
700.000000 0.9582 0.9580 0.9578 0.9576 0.9574
695.000000 0.9579 0.9586 0.9586 0.9586 0.9585
690.000000 0.9583 0.9581 0.9587 0.9588 0.9585
685.000000 0.9582 0.9575 0.9576 0.9570 0.9560
680.000000 0.9563 0.9555 0.9567 0.9565 0.9574
675.000000 0.9568 0.9542 0.9509 0.9469 0.9429
670.000000 0.9395 0.9417 0.9408 0.9269 0.9139
665.000000 0.9072 0.9017 0.8986 0.8957 0.8928
660.000000 0.8901 0.8887 0.8864 0.8849 0.8809
655.000000 0.8781 0.8753 0.8736 0.8721 0.8731
650.000000 0.8731 0.8739 0.8746 0.8748 0.8740
645.000000 0.8735 0.8718 0.8692 0.8657 0.8610
640.000000 0.8498 0.8393 0.8295 0.8204 0.8042
635.000000 0.7907 0.7762 0.7628 0.7494 0.7356
630.000000 0.7226 0.7098 0.6963 0.6835 0.6700
625.000000 0.6587 0.6506 0.6502 0.6493 0.6490
620.000000 0.6514 0.6628 0.6761 0.6974 0.7265
615.000000 0.7562 0.7855 0.8144 0.8508 0.8624
610.000000 0.8713 0.8792 0.8863 0.8926 0.8975
605.000000 0.9018 0.9062 0.9106 0.9144 0.9167
600.000000 0.9189 0.9213 0.9236 0.9259 0.9282
595.000000 0.9302 0.9321 0.9341 0.9361 0.9380
590.000000 0.9397 0.9405 0.9414 0.9418 0.9424
585.000000 0.9435 0.9437 0.9444 0.9454 0.9463
580.000000 0.9471 0.9479 0.9487 0.9486 0.9492
575.000000 0.9498 0.9511 0.9516 0.9518 0.9522
570.000000 0.9524 0.9524 0.9524 0.9514 0.9515
565.000000 0.9525 0.9520 0.9508 0.9505 0.9503
560.000000 0.9500 0.9496 0.9489 0.9483 0.9472
555.000000 0.9453 0.9442 0.9440 0.9432 0.9438
550.000000 0.9442 0.9447 0.9452 0.9457 0.9462
545.000000 0.9467 0.9471 0.9477 0.9486 0.9493
540.000000 0.9501 0.9509 0.9523 0.9528 0.9545
535.000000 0.9541 0.9536 0.9544 0.9544 0.9540
530.000000 0.9536 0.9533 0.9529 0.9526 0.9530
525.000000 0.9531 0.9524 0.9517 0.9510 0.9501
520.000000 0.9496 0.9488 0.9481 0.9473 0.9465
515.000000 0.9458 0.9448 0.9441 0.9435 0.9422
510.000000 0.9406 0.9389 0.9374 0.9357 0.9345
505.000000 0.9333 0.9321 0.9309 0.9298 0.9288
500.000000 0.9279 0.9269 0.9259 0.9250 0.9243
495.000000 0.9237 0.9231 0.9226 0.9226 0.9226
490.000000 0.9227 0.9228 0.9228 0.9228 0.9228
485.000000 0.9227 0.9226 0.9224 0.9223 0.9220
480.000000 0.9213 0.9207 0.9202 0.9196 0.9185
475.000000 0.9172 0.9158 0.9144 0.9131 0.9117
470.000000 0.9104 0.9089 0.9075 0.9060 0.9044
465.000000 0.9027 0.9010 0.8994 0.8975 0.8957
460.000000 0.8938 0.8918 0.8892 0.8868 0.8844
455.000000 0.8824
##END=
