##TITLE=2-Benzylaminopyridine
##JCAMP-DX=4.24
##DATA TYPE=INFRARED SPECTRUM
##ORIGIN=Pacific Northwest National Laboratory Under IARPA Contract
##OWNER=Public domain
##DATE=March 2017
##CAS REGISTRY NO=6935-27-9
##MOLFORM=C 12 H 12 N 2
##$NIST SOURCE=IARPA-IR-S
##$NIST DOC FILE=META.MIR.PUR.2-Benzylaminopyridine-90-180um.SLD.ALDRICH.PNNL509420.pdf
##$NIST PSD FILE=PSD.MIR.PUR.2-Benzylaminopyridine-90-180um.SLD.ALDRICH.PNNL509420.txt
##SPECTROMETER/DATA SYSTEM=Bruker Tensor 37 FTIR
##APERTURE=6 mm
##EXTERNAL DIFFUSE REFLECTANCE ACCESSORY=A 562-G integrating sphere
##BEAMSPLITTER=Ge on KBr
##DETECTOR (DIA. DET. PORT IN SPHERE)=2×2 mm, 60° field of view MCT
##SPHERE DIAMETER=75 mm
##ACQUISITION MODE=double-sided, forward-backward
##SCANNER SPEED=40 kHz
##COADDED SCANS=2048
##PHASE RESOLUTION=32.00
##PHASE CORRECTION=Mertz
##ZEROFILLING=4×
##SPECTRAL RANGE=7,500 to 600 cm-1 saved; 7500 to 600 cm-1 reported
##STATE=solid
##RESOLUTION=0.96450084
##SPECTRAL RESOLUTION=4 cm-1
##WAVENUMBER ACCURACY=± 0.4 cm-1
##APODIZATION FUNCTION=Blackman-Harris 3-term
##LOW PASS FILTER=Open
##SWITCH GAIN ON=512 points
##XUNITS=1/cm
##YUNITS=Reflectance
##XLABEL=Wavenumber
##YLABEL=Hemispherical (Total) reflectance
##XFACTOR=1
##YFACTOR=7.1953194e-010
##DELTAX=-0.96450084
##FIRSTX=7498.0295
##LASTX=600.88402
##FIRSTY=0.76453078
##MAXX=7498.03
##MINX=600.882
##MAXY=0.77259154
##MINY=0.027288908
##NPOINTS=7152
##XYDATA=(X++(Y..Y))
7498.03+1062539034+1062431511+1062212570+1062108939+1062286544+1062722521
7492.24+1063227253+1063451165+1063268507+1062740248+1062092454+1061583663
7486.46+1061352379+1061355361+1061434637+1061453276+1061387502+1061313279
7480.67+1061315350+1061402247+1061489890+1061453193+1061200371+1060725295
7474.88+1060117346+1059527705+1059105313+1058930276+1058979896+1059150129
7469.09+1059323426+1059435589+1059495812+1059545101+1059588342+1059550734
7463.31+1059293190+1058678283+1057648771+1056269103+1054707025+1053161018
7457.52+1051776545+1050599168+1049590366+1048687513+1047861286+1047134465
7451.73+1046561640+1046199057+1046084907+1046223909+1046569841+1047020563
7445.95+1047448504+1047765774+1047976763+1048173752+1048472797+1048939175
7440.16+1049552757+1050227970+1050865575+1051400626+1051825254+1052175991
7434.37+1052493343+1052778389+1052985981+1053064760+1053014395+1052902563
7428.59+1052823039+1052829169+1052904137+1052989378+1053044217+1053087210
7422.80+1053192994+1053452443+1053916087+1054554272+1055262123+1055920520
7417.01+1056476778+1056983996+1057561129+1058301784+1059205299+1060179972
7411.22+1061101297+1061875087+1062462492+1062868978+1063116913+1063219218
7405.44+1063167775+1062941462+1062534395+1061981948+1061364722+1060785601
7399.65+1060339021+1060092080+1060076755+1060284348+1060663994+1061138325
7393.86+1061636099+1062116726+1062559910+1062926799+1063132569+1063067293
7388.08+1062657410+1061921311+1060975300+1059987125+1059108875+1058431343
7382.29+1057981449+1057753644+1057745857+1057967118+1058407237+1058997044
7376.50+1059606566+1060099701+1060409930+1060573121+1060685864+1060825197
7370.72+1060999654+1061169804+1061307812+1061433395+1061593189+1061809976
7364.93+1062051201+1062244048+1062317774+1062239492+1062020302+1061698145
7359.14+1061316676+1060918970+1060554897+1060284927+1060162327+1060200681
7353.35+1060353103+1060527974+1060635167+1060630776+1060531122+1060394688
7347.57+1060282442+1060223047+1060196871+1060151641+1060043537+1059875956
7341.78+1059699842+1059568130+1059480984+1059374454+1059162886+1058802623
7335.99+1058324233+1057816187+1057378388+1057078348+1056932305+1056917311
7330.21+1057003960+1057186038+1057475971+1057870280+1058313795+1058703466
7324.42+1058933756+1058947921+1058750352+1058374019+1057836234+1057122667
7318.63+1056211033+1055112601+1053899520+1052695054+1051631744+1050799222
7312.85+1050209083+1049798621+1049467765+1049131608+1048756518+1048359309
7307.06+1047966242+1047558845+1047049722+1046320498+1045302252+1044041125
7301.27+1042691527+1041442329+1040427480+1039685831+1039182589+1038866148
7295.48+1038717702+1038766411+1039065870+1039641595+1040444710+1041347065
7289.70+1042191683+1042868552+1043358623+1043715406+1044001529+1044228837
7283.91+1044342325+1044253522+1043905188+1043323251+1042618879+1041928340
7278.12+1041327350+1040787908+1040217071+1039545586+1038792588+1038052098
7272.34+1037419215+1036916802+1036480163+1036002932+1035408321+1034697736
7266.55+1033944903+1033241608+1032631423+1032084111+1031528682+1030917586
7260.76+1030269046+1029653559+1029141868+1028759322+1028476347+1028230981
7254.98+1027960018+1027621707+1027204866+1026724156+1026202856+1025649581
7249.19+1025047348+1024367579+1023604888+1022804672+1022058136+1021461370
7243.40+1021066067+1020857232+1020771329+1020739851+1020724691+1020724774
7237.61+1020757329+1020833458+1020946532+1021080729+1021230832+1021416141
7231.83+1021672939+1022027568+1022476965+1022994206+1023558168+1024174566
7226.04+1024864276+1025631936+1026453027+1027298804+1028173988+1029124555
7220.25+1030199131+1031394402+1032633245+1033792812+1034761935+1035487183
7214.47+1035978744+1036276878+1036403786+1036337433+1036033334+1035481218
7208.68+1034751995+1033988642+1033341511+1032894930+1032641032+1032517106
7202.89+1032474444+1032529697+1032765289+1033279548+1034114307+1035203793
7197.11+1036380591+1037445558+1038261098+1038809569+1039173146+1039452559
7191.32+1039678375+1039776870+1039612933+1039082190+1038191680+1037074691
7185.53+1035925562+1034897707+1034029895+1033246412+1032420185+1031450566
7179.74+1030310631+1029048841+1027759964+1026548291+1025492851+1024627607
7173.96+1023940797+1023395805+1022959083+1022615553+1022365382+1022210392
7168.17+1022143376+1022142051+1022162015+1022136501+1021991285+1021674430
7162.38+1021181046+1020554790+1019866903+1019191855+1018594096+1018122830
7156.60+1017808377+1017660096+1017670865+1017826435+1018108747+1018489803
7150.81+1018927105+1019369294+1019767828+1020082033+1020273803+1020305862
7145.02+1020154682+1019832111+1019392986+1018919401+1018486738+1018137161
7139.24+1017873156+1017675090+1017525816+1017428233+1017403050+1017472551
7133.45+1017646014+1017917806+1018275418+1018704188+1019181335+1019669665
7127.66+1020121133+1020494733+1020775802+1020984471+1021165721+1021366272
7121.87+1021605260+1021855514+1022047864+1022103531+1021974469+1021666809
7116.09+1021227767+1020708206+1020125358+1019450144+1018624249+1017602193
7110.30+1016398887+1015115808+1013921862+1012990431+1012428375+1012242155
7104.51+1012361359+1012695362+1013180627+1013789818+1014510758+1015321329
7098.73+1016180525+1017035166+1017824944+1018477128+1018897035+1018976228
7092.94+1018631124+1017860316+1016779279+1015597345+1014536769+1013738707
7087.15+1013216579+1012887380+1012660487+1012519331+1012539129+1012831548
7081.37+1013457306+1014371176+1015432912+1016470127+1017348377+1018011247
7075.58+1018480939+1018830930+1019149939+1019505563+1019917517+1020352665
7069.79+1020748797+1021057286+1021278795+1021469985+1021712287+1022064846
7064.00+1022528739+1023048962+1023554191+1024009387+1024442713+1024925327
7058.22+1025516957+1026218430+1026963475+1027653102+1028206544+1028596463
7052.43+1028852846+1029041220+1029227274+1029444062+1029674600+1029859495
7046.64+1029927091+1029833401+1029589194+1029259001+1028933531+1028691312
7040.86+1028572108+1028570286+1028647077+1028748305+1028820788+1028824433
7035.07+1028742009+1028582546+1028373545+1028137871+1027868730+1027521059
7029.28+1027033308+1026374745+1025588695+1024796680+1024150626+1023758553
7023.50+1023633716+1023706696+1023889851+1024145158+1024499208+1024999385
7017.71+1025651237+1026392970+1027125672+1027769738+1028299074+1028728672
7011.92+1029072699+1029311521+1029394525+1029274989+1028947116+1028456218
7006.13+1027877262+1027281491+1026722417+1026249411+1025931147+1025856096
7000.35+1026096823+1026661448+1027469533+1028374374+1029222387+1029911848
6994.56+1030422131+1030801695+1031126835+1031454376+1031796249+1032130252
6988.77+1032438493+1032741266+1033096890+1033562440+1034147359+1034795153
6982.99+1035405587+1035879669+1036157343+1036228832+1036118906+1035860368
6977.20+1035478319+1035001337+1034490061+1034052178+1033815179+1033863308
6971.41+1034181737+1034657891+1035143902+1035538956+1035833611+1036091983
6965.63+1036392768+1036770593+1037192156+1037576773+1037844506+1037960231
6959.84+1037943497+1037842269+1037694817+1037516964+1037320472+1037134915
6954.05+1037000966+1036939914+1036930388+1036923263+1036883833+1036821538
6948.26+1036781693+1036805799+1036896010+1037011652+1037097720+1037124726
6942.48+1037108075+1037097058+1037136240+1037229682+1037333395+1037383595
6936.69+1037342258+1037221149+1037064668+1036903548+1036721056+1036463264
6930.90+1036089498+1035620220+1035139677+1034751332+1034521291+1034453529
6925.12+1034510190+1034652092+1034868631+1035177451+1035601002+1036136385
6919.33+1036738286+1037332401+1037854778+1038290755+1038679099+1039072000
6913.54+1039482546+1039865258+1040145085+1040267105+1040224030+1040047667
6907.75+1039777201+1039429778+1038988582+1038411201+1037661516+1036747564
6901.97+1035742489+1034765497+1033933471+1033316825+1032928563+1032744331
6896.18+1032728509+1032848624+1033077837+1033392870+1033766884+1034160945
6890.39+1034523361+1034805425+1034983361+1035065702+1035079371+1035052200
6884.61+1035012603+1035001917+1035075229+1035280419+1035630161+1036095960
6878.82+1036628940+1037189091+1037760177+1038344848+1038949814+1039568035
6873.03+1040165629+1040683781+1041062351+1041274334+1041345326+1041338119
6867.25+1041313847+1041300013+1041289907+1041266133+1041224299+1041180727
6861.46+1041163993+1041201105+1041305067+1041466187+1041650750+1041809385
6855.67+1041895122+1041883691+1041786356+1041649093+1041534611+1041492860
6849.88+1041532540+1041612479+1041664004+1041634596+1041522185+1041375810
6844.10+1041258677+1041200773+1041174845+1041114622+1040962365+1040714597
6838.31+1040433527+1040216491+1040144836+1040246230+1040492756+1040833718
6832.52+1041237222+1041712216+1042295976+1043019649+1043873544+1044796443
6826.74+1045693911+1046476151+1047091721+1047541117+1047860375+1048087434
6820.95+1048230744+1048262803+1048144178+1047863606+1047463746+1047032574
6815.16+1046665933+1046426697+1046328699+1046349574+1046458092+1046635117
6809.38+1046879241+1047200487+1047605979+1048087931+1048615361+1049138567
6803.59+1049603537+1049968853+1050218278+1050363825+1050443764+1050512519
6797.80+1050621700+1050795328+1051015346+1051233625+1051405679+1051521653
6792.01+1051610952+1051715742+1051859301+1052031852+1052203410+1052345974
6786.23+1052447037+1052506266+1052523993+1052497899+1052432457+1052352519
6780.44+1052304887+1052341750+1052491024+1052735728+1053019614+1053282293
6774.65+1053503802+1053724400+1054018061+1054433660+1054947090+1055465077
6768.87+1055878936+1056126787+1056217495+1056205566+1056146171+1056067641
6763.08+1055973040+1055857812+1055725768+1055596375+1055501774+1055474272
6757.29+1055528282+1055648232+1055793778+1055922508+1056013465+1056075676
6751.51+1056136976+1056225116+1056352355+1056514304+1056701766+1056916731
6745.72+1057179328+1057518467+1057953035+1058481211+1059086012+1059748717
6739.93+1060453337+1061179744+1061896377+1062565128+1063157089+1063661739
6734.14+1064084462+1064435281+1064717179+1064921375+1065031467+1065037514
6728.36+1064953599+1064823046+1064702020+1064627382+1064597312+1064580165
6722.57+1064544876+1064483244+1064408276+1064336786+1064279297+1064246327
6716.78+1064257262+1064336289+1064492191+1064698789+1064896523+1065020946
6711.00+1065041076+1064981267+1064907127+1064881530+1064919552+1064976379
6705.21+1064980273+1064889896+1064733249+1064596318+1064565917+1064668139
6699.42+1064847483+1065004379+1065058886+1064995846+1064861731+1064726540
6693.64+1064645524+1064647264+1064743356+1064941007+1065243532+1065640575
6687.85+1066100575+1066573663+1067003261+1067339998+1067552644+1067630428
6682.06+1067581968+1067435428+1067240178+1067064313+1066974268+1067002847
6676.27+1067127104+1067279609+1067390944+1067432528+1067424162+1067403121
6670.49+1067381417+1067328898+1067195363+1066955132+1066639188+1066329953
6664.70+1066117474+1066045819+1066092043+1066194182+1066305433+1066426874
6658.91+1066589568+1066806769+1067047745+1067265113+1067450504+1067664392
6653.13+1068003780+1068531375+1069223819+1069978391+1070671332+1071223282
6647.34+1071627863+1071930553+1072178405+1072379121+1072495840+1072479770
6641.55+1072310117+1072009581+1071629520+1071223613+1070833280+1070486768
6635.77+1070197912+1069957847+1069733522+1069487575+1069208411+1068925436
6629.98+1068691584+1068547695+1068499317+1068520772+1068577682+1068649006
6624.19+1068736483+1068860822+1069047788+1069308148+1069624755+1069959090
6618.40+1070275448+1070564470+1070846783+1071154029+1071504600+1071891454
6612.62+1072287005+1072659611+1072987319+1073263915+1073489814+1073657064
6606.83+1073741808+1073717039+1073582262+1073384030+1073202449+1073104452
6601.04+1073095505+1073110167+1073054666+1072876150+1072603364+1072327762
6595.26+1072133672+1072031699+1071946375+1071768605+1071430957+1070950330
6589.47+1070411800+1069912949+1069512095+1069211642+1068976133+1068765642
6583.68+1068560949+1068370504+1068217005+1068115694+1068058784+1068019022
6577.90+1067967828+1067896007+1067818554+1067762638+1067745159+1067753692
6572.11+1067741597+1067643848+1067408505+1067030018+1066561237+1066090551
6566.32+1065694834+1065399102+1065170469+1064952108+1064712706+1064473883
6560.53+1064299841+1064257013+1064372655+1064617028+1064914251+1065169640
6554.75+1065299365+1065252976+1065025337+1064656790+1064219239+1063789475
6548.96+1063420266+1063122877+1062872872+1062635209+1062396470+1062181919
6543.17+1062042917+1062021793+1062115400+1062264343+1062379323+1062388021
6537.39+1062271716+1062066360+1061829692+1061600065+1061377230+1061137663
6531.60+1060869599+1060599629+1060388144+1060295945+1060343908+1060493679
6525.81+1060663663+1060771104+1060770110+1060662089+1060469739+1060195959
6520.03+1059802478+1059227914+1058433911+1057445735+1056352438+1055270490
6514.24+1054296148+1053479613+1052828920+1052332306+1051980244+1051775883
6508.45+1051728582+1051832710+1052044941+1052279704+1052438090+1052454078
6502.66+1052324188+1052094395+1051813160+1051487441+1051073913+1050509785
6496.88+1049759438+1048847639+1047859961+1046910471+1046093190+1045443740
6491.09+1044934451+1044504356+1044099692+1043697265+1043298482+1042909143
6485.30+1042523201+1042119862+1041665578+1041117770+1040435101+1039598933
6479.52+1038635858+1037619849+1036642608+1035765104+1034982450+1034229038
6473.73+1033418301+1032493994+1031458187+1030365635+1029290894+1028290127
6467.94+1027378991+1026534374+1025717674+1024900476+1024076983+1023255394
6462.16+1022437203+1021599296+1020693710+1019664861+1018475720+1017127530
6456.37+1015662622+1014150081+1012663718+1011264831+1009995172+1008874207
6450.58+1007896883+1007032633+1006231092+1005436675+1004603655+1003702625
6444.79+1002719172+1001651472+1000508720+999303095+998035010+996679199
6439.01+995192504+993543446+991744369+989859471+987978550+986172017+984452961
6432.26+982770022+981039369+979199453+977255574+975278395+973353652+971516718
6425.50+969726173+967897605+965969963+963949376+961901288+959904393+958009555
6418.75+956229116+954553053+952970680+951481997+950097690+948834409+947708805
6412.00+946731150+945900450+945201959+944608259+944087538+943615361+943186012
6405.25+942814649+942526206+942335844+942234368+942188558+942160311+942131483
6398.50+942123116+942193197+942414872+942841405+943477933+944274918+945147783
6391.75+946013358+946822106+947572122+948298944+949048960+949849424+950691887
6385.00+951537084+952339785+953076796+953754908+954392513+954989775+955515217
6378.24+955922284+956181235+956298783+956309966+956254381+956157544+956029062
6371.49+955870924+955685532+955479514+955264798+955058200+954876784+954733640
6364.74+954636140+954587265+954585111+954618992+954673003+954738527+954829235
6357.99+954976687+955203415+955493182+955788997+956026908+956179082+956272357
6351.24+956368450+956522363+956750830+957028586+957308082+957546490+957723432
6344.49+957840399+957906090+957916445+957845204+957650203+957296236+956780320
6337.73+956142467+955451183+954770172+954124283+953489743+952813205+952046704
6330.98+951174750+950218302+949220186+948223892+947257586+946328888+945427196
6324.23+944534284+943635243+942724769+941805349+940880048+939945883+938990843
6317.48+937993307+936923867+935754276+934469706+933080263+931620739+930138931
6310.73+928678662+927266355+925903917+924568402+923219881+921819751+920353766
6303.98+918846113+917351962+915927976+914600330+913350800+912134240+910914864
6297.23+909695984+908523743+907460930+906552445+905808227+905211048+904737794
6290.47+904372975+904104662+903914218+903775215+903667277+903591149+903570771
6283.72+903633728+903782919+903980819+904160909+904264291+904276468+904238363
6276.97+904218316+904259818+904342159+904382501+904283510+903994571+903545340
6270.22+903027933+902541259+902135353+901794640+901466518+901113628+900749389
6263.47+900432036+900222456+900136967+900131997+900130754+900072353+899948593
6256.72+899801390+899685748+899627513+899605063+899567372+899469872+899303616
6249.97+899097349+898895555+898730625+898607196+898506051+898400515+898274932
6243.21+898133445+897998170+897895617+897839204+897816258+897791324+897723479
6236.46+897589199+897395772+897177328+896979759+896844070+896795776+896842248
6229.71+896972718+897161257+897370175+897556478+897680735+897717184+897659363
6222.96+897515804+897297029+897006184+896645176+896232808+895816712+895461089
6216.21+895213320+895074566+894997858+894914937+894772870+894554674+894270705
6209.46+893930821+893519447+892995579+892324342+891515179+890633865+889770858
6202.70+888983813+888257986+887514514+886659957+885641380+884469469+883198733
6195.95+881882685+880538720+879148862+877696214+876208442+874767059+873470395
6189.20+872376601+871470021+870676598+869910925+869118662+868284814+867413771
6182.45+866499653+865510484+864396643+863116049+861658596+860051620+858342339
6175.70+856574409+854776739+852969544+851168478+849377436+847574051+845708289
6168.95+843722909+841581627+839284279+836858200+834333792+831720665+828996618
6162.20+826117912+823046193+819777071+816351385+812838470+809972936+806304286
6155.44+802454966+798566049+794778029+791197519+787893439+784903813+782214723
6148.69+779730327+777291656+774766255+772159920+769645701+767469876+765803506
6141.94+764655536+763905105+763388444+762964230+762518976+761953854+761191247
6135.19+760204977+759025942+757711716+756319788+754900523+753496169+752106975
6128.44+750637924+748898490+746689116+743928205+740703236+737215504+733664070
6121.69+730173439+726776498+723421307+719983610+716321007+712379820+708278838
6114.94+704293912+700730300+697782259+695479940+693740879+692451090+691523386
6108.18+690920159+690653794+690764962+691271062+692113111+693133841+694114727
6101.43+694834797+695125476+694885080+694079811+692737378+690940786+688826551
6094.68+686568385+684335857+682234214+680246928+678239140+676049937+673638562
6087.93+671190241+669075426+667674759+667174458+667493675+668394539+669676500
6081.18+671279789+673240484+675573163+678216111+681060647+683977707+686786332
6074.43+689225002+691033192+692113649+692618589+692822867+692877209+692660463
6067.67+691878389+690322980+688062536+685419172+682785750+680445036+678511098
6060.92+676971842+675738839+674638749+673387066+671641087+669159259+665972353
6054.17+662399754+658856645+655584872+652528561+649433689+646067067+642349625
6047.42+638334795+634100899+629686499+625088240+620289927+615278058+610061413
6040.67+604694582+599278752+593911798+588606805+583252856+577655239+571642768
6033.92+565173238+558368628+551460595+544679677+538159575+531922406+525932343
6027.17+520157907+514589863+509215245+504006097+498940465+494034256+489347194
6020.41+484969409+481015133+477633931+474989533+473197994+472257160+472028858
6013.66+472285615+472783058+473323659+473815883+474319911+475039277+476212513
6006.91+477944491+480094595+482320827+484254185+485676598+486587692+487141838
6000.16+487532378+487895499+488273240+488624059+488860976+488893780+488655207
5993.41+488102014+487203593+485939070+484316065+482387843+480233473+477889653
5986.66+475277975+472213504+468527624+464237771+459624560+455123967+451106362
5979.91+447708592+444855317+442425345+440404552+438896029+438020265+437815282
5973.15+438223632+439145288+440484615+442166393+444138354+446387283+448941927
5966.40+451833514+455014579+458297784+461371491+463900952+465654551+466581385
5959.65+466792166+466464500+465725419+464576703+462906108+460587304+457625843
5952.90+454261291+450940189+448137238+446132266+444889985+444136821+443573067
5946.15+443067133+442696557+442646688+443066967+443980547+445273774+446740256
5939.40+448155711+449358561+450302874+451050280+451703749+452335596+452951911
5932.64+453502329+453909188+454102242+454059953+453842296+453586451+453449602
5925.89+453543541+453914076+454577691+455557625+456877484+458528322+460467438
5919.14+462663351+465137269+467948752+471139302+474694629+478544322+482578164
5912.39+486663158+490676456+494584632+498514636+502726911+507462143+512767218
5905.64+518449247+524199660+529773130+535070791+540094258+544854093+549338201
5898.89+553530843+557428250+561015512+564245410+567073419+569525012+571731777
5892.14+573894638+576200478+578751766+581538315+584457943+587368708+590148546
5885.38+592739473+595140618+597366394+599418086+601297558+603044737+604747888
5878.63+606508363+608397568+610441184+612625582+614903216+617200357+619457446
5871.88+621687654+623994198+626507339+629285894+632277716+635371055+638471063
5865.13+641524144+644498238+647377027+650197705+653072766+656137568+659453866
5858.38+662958331+666495144+669893742+673023614+675826316+678348611+680765702
5851.63+683340268+686289925+689650459+693252797+696839810+700222006+703337546
5844.88+706189247+708745879+710921290+712644239+713943057+714959563+715879149
5838.12+716839408+717894102+719041244+720277188+721611792+723037601+724481469
5831.37+725792050+726790249+727352388+727472255+727254225+726845916+726362556
5824.62+725855173+725333624+724796916+724226742+723552523+722641138+721355823
5817.87+719649690+717612287+715427847+713272731+711246181+709371058+707639328
5811.12+706050825+704620791+703387332+702421688+701823100+701672418+701969392
5804.37+702614535+703461803+704402761+705406344+706490943+707661197+708879414
5797.61+710084459+711221743+712248024+713114262+713763133+714159099+714331816
5790.86+714396927+714541479+714981101+715902343+717409002+719494700+722070881
5784.11+725031762+728301713+731812805+735431421+738926276+742044964+744655441
5777.36+746826875+748770837+750681663+752617671+754507622+756264204+757901416
5770.61+759556189+761411348+763573422+766003477+768550002+771060907+773485578
5763.86+775886308+778349581+780883764+783393344+785756548+787928314+789975492
5757.11+792007675+794060072+796023251+797689871+798897981+799663074+800184954
5750.35+800704514+801321409+801919335+802261290+802168180+801629070+800779731
5743.60+799800502+798834942+797965970+797215457+796544054+795869918+795120896
5736.85+794295746+793473495+792757691+792198866+791755102+791306120+790697674
5730.10+789789520+788500228+786848934+784969007+783066216+781334320+779867341
5723.35+778626592+777474149+776248062+774829129+773172367+771301883+769293805
5716.60+767262616+765352452+763716152+762479711+761701612+761366118+761412756
5709.84+761792486+762501745+763565883+764988545+766705695+768592581+770518318
5703.09+772410340+774275687+776155118+778046643+779858394+781439607+782672652
5696.34+783551316+784177903+784677831+785105192+785422628+785569086+785547796
5689.59+785437290+785312950+785146032+784786846+784058451+782887783+781361243
5682.84+779657263+777906563+776095971+774091207+771762960+769117112+766337066
5676.09+763705134+761466021+759734788+758505968+757747917+757488219+757818909
5669.34+758805676+760383493+762321821+764309687+766102551+767627766+768969991
5662.58+770250585+771508978+772674345+773639905+774366644+774934499+775517679
5655.83+776325350+777542159+779283167+781559060+784256516+787157837+790005065
5649.08+792589696+794821105+796733505+798435248+800024082+801533558+802947935
5642.33+804270528+805584837+807040219+808755133+810718313+812774105+814707380
5635.58+816362568+817706036+818797096+819712043+820489395+821134538+821662880
5628.83+822131329+822612701+823128700+823604356+823898597+823907543+823657621
5622.08+823303322+823024986+822909344+822907770+822896007+822783596+822584536
5615.32+822414635+822412813+822639872+823016785+823350540+823454502+823268779
5608.57+822891120+822476433+822087094+821623946+820898284+819782372+818309014
5601.82+816643969+814966332+813354966+811764806+810095619+808288837+806380248
5595.07+804476877+802680037+801020293+799441813+797847512+796170372+794434666
5588.32+792778070+791423916+790609783+790496460+791102669+792307218+793921566
5581.57+795790973+797850991+800101370+802527946+805044733+807511733+809810490
5574.81+811898424+813794422+815520270+817071082+818457460+819761497+821121450
5568.06+822629849+824241298+825796086+827150985+828298873+829352739+830408262
5561.31+831424602+832246190+832743384+832942527+833029755+833232377+833683679
5554.56+834358810+835109405+835749164+836141899+836257541+836176111+836058150
5547.81+836077286+836350651+836892495+837613352+838366350+839012404+839469008
5541.06+839714871+839762586+839629051+839329094+838890550+838353759+837758650
5534.31+837126098+836464719+835794725+835165652+834643524+834288314+834140614
5527.55+834218150+834508332+834946214+835409031+835743448+835826700+835614966
5520.80+835159522+834593241+834100935+833868242+834010475+834504108+835190421
5514.05+835871847+836434566+836898294+837349347+837819785+838233726+838460537
5507.30+838424585+838171432+837847867+837623375+837609044+837813406+838151800
5500.55+838503696+838791475+839020440+839246256+839485658+839664257+839655062
5493.80+839387744+838926915+838449768+838145338+838125457+838408929+838959637
5487.05+839717688+840597345+841480399+842249882+842854103+843351463+843893390
5480.29+844643074+845686503+846989960+848419497+849804549+851009843+851981368
5473.54+852753254+853414053+854055385+854736812+855482023+856301706+857210357
5466.79+858207810+859246434+860220195+861001276+861510978+861765954+861865857
5460.04+861927985+862024740+862165896+862318567+862448374+862537839+862589364
5453.29+862617861+862652073+862730769+862885759+863105694+863316269+863408302
5446.54+863318671+863106605+862941592+862994111+863300778+863739820+864146223
5439.78+864473351+864847199+865456722+866382354+867514503+868637207+869579407
5433.03+870304323+870883941+871419490+871990410+872645162+873401059+874226209
5426.28+875042993+875776938+876421998+877056041+877777312+878617208+879502912
5419.53+880299069+880887551+881211365+881272582+881112953+880810511+880480650
5412.78+880252183+880210847+880346867+880558766+880717153+880743164+880634895
5406.03+880426391+880127346+879710753+879174956+878614391+878227703+878216934
5399.28+878653656+879408228+880213415+880819292+881125213+881201176+881195543
5392.52+881206560+881224122+881156775+880910580+880446355+879782656+878957755
5385.77+878010584+876974197+875891503+874812040+873780126+872827157+871979309
5379.02+871259861+870680740+870225959+869853519+869525563+869246564+869074178
5372.27+869096793+869383992+869947540+870726218+871608857+872483545+873283843
5365.52+873996748+874615714+875085655+875294572+875140162+874614637+873837782
5358.77+873000372+872268000+871714393+871334746+871103048+871013169+871071238
5352.02+871260358+871527179+871810403+872088407+872397725+872798744+873321949
5345.26+873941246+874594342+875225651+875807671+876337007+876823929+877294283
5338.51+877791146+878360824+879019552+879730386+880409078+880949182+881256097
5331.76+881277138+881031855+880625368+880232716+880040034+880175640+880661900
5325.01+881411087+882263657+883049708+883655171+884059587+884337757+884609217
5318.26+884971551+885447373+885966519+886401750+886632289+886613816+886399182
5311.51+886096161+885784690+885468000+885105086+884685677+884276125+883985446
5304.75+883889189+883985364+884208695+884479161+884734800+884944877+885116435
5298.00+885302323+885586210+886039582+886676276+887439049+888230815+888956063
5291.25+889550840+889984000+890255129+890391564+890439278+890442178+890416829
5284.50+890344512+890186705+889919470+889556887+889144933+888732234+888343972
5277.75+887980396+887627091+887264923+886867632+886408543+885883764+885335873
5271.00+884846300+884490096+884287226+884190636+884112106+883961506+883667845
5264.25+883185479+882494278+881605011+880559761+879427364+878293559+877249634
5257.49+876371716+875705449+875258289+875009692+874922629+874943090+874997101
5250.74+874998840+874882867+874627477+874244434+873750222+873150888+872470871
5243.99+871787539+871226808+870910284+870895539+871158964+871619129+872169506
5237.24+872692959+873067388+873187254+873001531+872539875+871898377+871205767
5230.49+870583322+870128044+869905955+869948368+870245011+870754217+871425951
5223.74+872225918+873142853+874171785+875295069+876473524+877655872+878799203
5216.99+879877092+880877859+881790900+882595175+883263347+883778268+884152448
5210.23+884427470+884656849+884882169+885122233+885381682+885668799+886006116
5203.48+886429833+886971428+887633718+888375616+889122650+889806975+890416249
5196.73+891009701+891685163+892518183+893516630+894608436+895672077+896588018
5189.98+897288828+897788921+898164675+898489235+898764423+898914939+898858775
5183.23+898605374+898287689+898095505+898151669+898429922+898779665+899034226
5176.48+899128496+899140590+899232126+899529515+900029112+900584458+900988459
5169.72+901093250+900893693+900521004+900150469+899889281+899718469+899526699
5162.97+899203464+898720601+898142557+897580915+897137317+896880602+896845644
5156.22+897030290+897388896+897844671+898328280+898809072+899281746+899722611
5149.47+900064732+900226763+900174741+899953149+899656589+899365910+899104804
5142.72+898841545+898525932+898125161+897627884+897027722+896301895+895418261
5135.97+894367212+893194307+892002930+890916923+890030141+889371330+888906194
5129.22+888570369+888312908+888123954+888033164+888069364+888217893+888422751
5122.46+888634071+888866349+889201346+889718919+890414344+891176372+891851088
5115.71+892340081+892658925+892912658+893213526+893603776+894041824+894457422
5108.96+894824312+895188717+895625191+896166869+896775563+897386163+897969508
5102.21+898552689+899175134+899831874+900460284+900985809+901376142+901659282
5095.46+901896448+902141565+902417333+902710912+902980632+903161551+903175302
5088.71+902950976+902448978+901667897+900631924+899369638+897907960+896288475
5081.95+894587644+892910835+891362178+890012828+888891449+887992656+887290769
5075.20+886744534+886308143+885949289+885661758+885451929+885302986+885156197
5068.45+884933860+884601265+884209441+883879082+883722933+883769985+883950406
5061.70+884157004+884330467+884493741+884706800+884992758+885305885+885567322
5054.95+885734904+885841185+885974637+886228536+886652253+887227398+887872209
5048.20+888477176+888962690+889326266+889640802+890002308+890464958+891020967
5041.45+891628585+892253184+892883085+893510997+894115550+894663772+895130647
5034.69+895514602+895833280+896104492+896332628+896506588+896606159+896608727
5027.94+896496896+896274641+895989595+895742821+895657995+895813647+896179378
5021.19+896618005+896964268+897127708+897142370+897128205+897199694+897391796
5014.44+897649339+897870268+897959899+897861239+897556146+897055722+896396910
5007.69+895642421+894865317+894110165+893363297+892561673+891648880+890632208
5000.94+889587040+888602675+887717385+886899856+886083901+885223544+884329390
4994.19+883464726+882713965+882135175+881723221+881412661+881128113+880842487
4987.43+880604410+880503679+880612694+880942804+881439501+882002883+882518136
4980.68+882892895+883084665+883108357+883006963+882821074+882582087+882329348
4973.93+882113886+881963783+881844745+881666643+881338853+880824594+880135464
4967.18+879289521+878293062+877172511+876019323+874971172+874135336+873515956
4960.43+873017105+872517094+871939381+871265079+870499573+869644270+868704720
4953.68+867701468+866649093+865516034+864214316+862656132+860827896+858812197
4946.92+856729564+854655050+852590228+850508756+848415355+846360308+844402430
4940.17+842571460+840863007+839254954+837712758+836182159+834589762+832875428
4933.42+831033772+829128248+827264059+825535063+823979944+822570951+821237755
4926.67+819904559+818521908+817075887+815574447+814031504+812453936+810844309
4919.92+809204612+807546525+805896971+804294302+802766934+801308238+799872323
4913.17+798399545+796854283+795240597+793585492+791912329+790233035+788561943
4906.42+786922908+785337719+783800079+782269314+780690420+779028108+777285858
4899.66+775492745+773667987+771794190+769828774+767753183+765613061+763502761
4892.91+761493440+759566792+757624902+755570849+753389971+751155828+748957968
4886.16+746828946+744724942+742569992+740313152+737963449+735585168+733269678
4879.41+731094019+729083953+727203860+725381422+723541920+721630514+719607856
4872.66+717439321+715098151+712577471+709896334+707087295+704178767+701189058
4865.91+698132167+695024828+691878596+688676366+685352115+681801178+677929450
4859.16+673716803+669241931+664635430+659988172+655290342+650454793+645402084
4852.40+640131428+634722557+629283906+623898685+618605829+613402024+608244028
4845.65+603057826+597758757+592284236+586605810+580715650+574606466+568272915
4838.90+561733842+555040401+548253395+541407407+534502563+527531449+520511087
4832.15+513480661+506463903+499436500+492337608+485118766+477791365+470433314
4825.40+463153752+456058339+449238032+442779436+436763569+431244358+426226980
4818.65+421675069+417545259+413814770+410473207+407492485+404816236+402393387
4811.89+400230278+398413349+397079076+396349977+396284866+396864484+398012123
4805.14+399627879+401626431+403965323+406654537+409737066+413247744+417177707
4798.39+421461595+425992175+430646267+435313489+439922475+444458647+448959323
4791.64+453475738+458022016+462547750+466959831+471175460+475162789+478937761
4784.89+482526141+485929420+489125147+492092159+494834969+497380624+499756586
4778.14+501978014+504060770+506049588+508025442+510075602+512244634+514510214
4771.39+516802758+519051315+521219560+523315322+525380641+527476693+529659808
4764.63+531948789+534303379+536642354+538902218+541089060+543273293+545530217
4757.88+547877475+550263461+552611879+554874518+557048355+559154844+561209477
4751.13+563213123+565165534+567081289+568985944+570890557+572770153+574575360
4744.38+576275032+577890292+579476434+581059635+582592140+583977358+585148688
4737.63+586123610+586975724+587751999+588420793+588897526+589114851+589062166
4730.88+588767594+588255696+587530656+586593799+585468692+584201145+582837009
4724.13+581391692+579835578+578101239+576116853+573849160+571329391+568636657
4717.37+565844682+562975668+559999876+556877667+553602415+550201001+546694258
4710.62+543057707+539229718+535162037+530875125+526469423+522084555+517841796
4703.87+513811019+510021715+506489582+503227999+500230834+497444948+494762527
4697.12+492042704+489153146+486009524+482592039+478930886+475064708+470999015
4690.37+466692429+462082490+457124797+451811935+446158567+440176043+433866805
4683.62+427243942+420349328+413249732+406013619+398687792+391293499+383840060
4676.86+376350669+368897810+361635271+354809248+348721436+343654727+339791822
4670.11+337172047+335702189+335197705+335420809+336093309+336896486+337488219
4663.36+337552564+336866478+335349568+333076760+330258091+327206336+324296897
4656.61+321908447+320341917+319743453+320071761+321128837+322632059+324287930
4649.86+325846197+327135592+328088499+328742030+329197329+329549038+329822694
4643.11+329961096+329857030+329398377+328486371+327025231+324915408+322078804
4636.36+318514426+314348023+309840803+305348597+301253352+297896567+295534087
4629.60+294313136+294265898+295317382+297296363+299936724+302859727+305556459
4622.85+307412591+307804001+306253997+302592533+297047041+290230876+283038418
4616.10+276487168+271536185+268907960+268946791+271560622+276281689+282431401
4609.35+289318704+296385227+303248300+309660299+315451675+320512336+324809375
4602.60+328397568+331388044+333887020+335952815+337605725+338877849+339857409
4595.85+340693162+341562527+342633955+344043528+345881208+348168864+350833931
4589.09+353701702+356527848+359061947+361108255+362553365+363353250+363494862
4582.34+362956000+361680004+359573845+356533729+352487628+347450617+341586778
4575.59+335270085+329111136+323899730+320437409+319306089+320677867+324266268
4568.84+329435157+335395274+341397845+346868576+351474186+355129458+357946988
4562.09+360146919+361965836+363599900+365192255+366837378+368581410+370418841
4555.34+372301999+374167306+375960543+377646588+379202908+380613475+381872283
4548.59+382993579+384018990+385013295+386051298+387201505+388514116+390016716
4541.83+391714813+393596232+395638315+397814430+400093181+402424452+404718362
4535.08+406835082+408603385+409863808+410513135+410527217+409959196+408922229
4528.33+407567620+406064937+404583833+403284808+402313407+401789498+401779516
4521.58+402262296+403108694+404095710+404952131+405420291+405316619+404580727
4514.83+403293133+401648052+399879583+398179456+396657347+395371783+394402122
4508.08+393896354+394044220+394980829+396682282+398928188+401359941+403606220
4501.33+405409025+406692808+407557803+408213632+408887396+409735616+410793790
4494.57+411985167+413191538+414346177+415490833+416756848+418284341+420137263
4487.82+422264420+424522255+426730097+428724217+430390546+431673956+432569685
4481.07+433107304+433335274+433314192+433119067+432843920+432597767+432488338
4474.32+432597808+432963828+433577451+434399992+435388872+436514807+437757958
4467.57+439083284+440414202+441626330+442576193+443151131+443310511+443088091
4460.82+442560703+441810728+440916077+439966255+439072598+438346564+437855831
4454.06+437593483+437487077+437432777+437324673+437064893+436572628+435804346
4447.31+434777361+433572398+432309532+431119770+430129109+429446606+429136088
4440.56+429172495+429421548+429670435+429703446+429369277+428602486+427397896
4433.81+425773648+423749376+421346574+418600285+415568121+412335365+409009333
4427.06+405708153+402544608+399614543+396988741+394705185+392761721+391112995
4420.31+389679233+388369315+387111750+385882640+384714871+383680969+382856026
4413.56+382278935+381938636+381789693+381780871+381875555+382059579+382342554
4406.80+382757656+383348499+384144738+385138091+386284943+387534721+388857024
4400.05+390247585+391709677+393243590+394849696+396538350+398320073+400180037
4393.30+402060627+403870100+405515140+406926660+408063778+408895804+409386081
4386.55+409492487+409183708+408453531+407319105+405803707+403921998+401680400
4379.80+399090550+396181360+393002241+389620004+386115953+382574128+379055746
4373.05+375565405+372035592+368349215+364390341+360088311+355420054+350377907
4366.30+344933374+339041350+332688912+325964138+319098621+312450368+306430028
4359.54+301398919+297578572+295008417+293564591+293036394+293227170+294032315
4352.79+295455287+297558152+300384215+303903446+308008404+312552487+317400358
4346.04+322468826+327747621+333293837+339200027+345541944+352329365+359483966
4339.29+366848727+374222973+381403585+388220579+394559597+400364766+405625398
4332.54+410357192+414584378+418327044+421591112+424367431+426645851+428437266
4325.79+429782017+430732005+431316386+431523771+431313901+430652314+429541124
4319.03+428035956+426246364+424326012+422448155+420770560+419409406+418437757
4312.28+417909415+417879469+418398160+419478866+421068321+423045956+425254792
4305.53+427541910+429778538+431858478+433691188+435209403+436388686+437256415
4298.78+437874967+438304689+438575487+438684999+438619639+438379409+437989822
4292.03+437498592+436960144+436421531+435912284+435450917+435057519+434757438
4285.28+434565088+434459511+434378040+434235807+433952211+433455721+432665031
4278.53+431469802+429733640+427313277+424079568+419932611+414821336+408772251
4271.77+401909075+394454476+386721044+379112863+372132471+366351491+362301165
4265.02+360307335+360355257+362072283+364849761+368040146+371140112+373897916
4258.27+376325362+378626314+381068505+383848136+387000581+390393712+393787919
4251.52+396908430+399494013+401321090+402230403+402166535+401206856+399553864
4244.77+397492438+395343908+393436437+392082946+391539362+391947671+393295281
4238.02+395426291+398102375+401073238+404116461+407042468+409691919+411948263
4231.27+413761009+415149126+416168283+416862218+417229398+417222356+416767327
4224.51+415781719+414185968+411922956+408994050+405491739+401597893+397537336
4217.76+393506311+389615572+385879161+382247995+378662224+375082252+371476228
4211.01+367784507+363907851+359764621+355401084+351083274+347289994+344590093
4204.26+343461570+344144590+346589722+350506141+355470088+361038216+366823668
4197.51+372526698+377931261+382897694+387361714+391328954+394849820+397980064
4190.76+400750004+403158066+405184741+406804349+407990384+408725075+409022588
4184.00+408954495+408655118+408296636+408046341+408025507+408286695+408810108
4177.25+409514936+410277336+410953833+411406709+411526700+411247080+410541797
4170.50+409412838+407877268+405965407+403728364+401241151+398591202+395856013
4163.75+393085701+390305365+387531656+384790005+382113590+379517776+376962884
4157.00+374333106+371460447+368191532+364462369+360333968+355970596+351580219
4150.25+347354566+343434274+339896612+336757111+333979985+331498550+329239845
4143.50+327146796+325192439+323382323+321744076+320305096+319072713+318034587
4136.74+317184088+316549424+316197756+316208856+316640960+317521840+318863754
4129.99+320677888+322962500+325665610+328654511+331719934+334625439+337177266
4123.24+339285909+340983510+342393807+343667443+344911257+346139414+347263879
4116.49+348125250+348553813+348430094+347720793+346477621+344809490+342851032
4109.74+340741208+338610592+336572051+334710493+333072805+331661037+330431388
4102.99+329305349+328190804+327005537+325685864+324178666+322432543+320402037
4096.24+318063249+315416261+312462193+309164741+305425823+301092853+295999864
4089.48+290031961+283196328+275674982+267821974+260088956+252899439+246538966
4082.73+241114480+236587068+232824563+229617673+226650889+223474339+219539592
4075.98+214331293+207567543+199393951+190473097+181896249+174907532+170523606
4069.23+169202743+170711328+174241245+178699052+183014688+186347968+188167030
4062.48+188245519+186630943+183599835+179591818+175128855+170746834+166953492
4055.73+164189403+162746881+162641397+163500149+164574206+164940465+163854395
4048.97+161109638+157227753+153361689+150923309+151083942+154367457+160514643
4042.22+168651435+177641168+186432028+194259916+200678831+205481038+208597344
4035.47+210042455+209929650+208546813+206446992+204469771+203613722+204758213
4028.72+208351398+214242594+221766652+230028260+238217549+245801313+252547108
4021.97+258437206+263556475+268004052+271846144+275109343+277806241+279963758
4015.22+281631827+282868020+283719430+284217266+284369129+284130555+283369957
4008.47+281877339+279455029+276070327+271985126+267771028+264179521+261919968
4001.71+261453113+262893605+266047706+270536329+275922917+281795370+287800096
3994.96+293655961+299165356+304221875+308802283+312944559+316719594+320208527
3988.21+323494465+326664285+329808922+333004422+336275283+339566378+342757736
3981.46+345726466+348413899+350846232+353089488+355178871+357076070+358680478
3974.71+359876784+360585050+360790405+360548311+359968527+359180406+358293914
3967.96+357371968+356424383+355421421+354310811+353029968+351516889+349728250
3961.20+347669185+345419779+343139971+341035636+339297175+338036690+337257246
3954.45+336866954+336729712+336726254+336804308+336997756+337408301+338155542
3947.70+339319314+340908914+342870126+345118953+347574335+350171889+352862097
3940.95+355600890+358340635+361021731+363571653+365913651+367982118+369729960
3934.20+371121267+372119838+372686906+372793022+372429860+371609680+370352488
3927.45+368674230+366592219+364145845+361422046+358565126+355754430+353150829
3920.70+350838280+348797854+346937518+345160434+343423837+341746097+340164366
3913.94+338681378+337247264+335784240+334227360+332551463+330776202+328961923
3907.19+327205570+325627422+324336763+323388350+322764372+322407402+322283911
3900.44+322428857+322932015+323875955+325271073+327029125+328984000+330939393
3893.69+332718154+334197332+335320823+336090430+336542436+336722671+336668495
3886.94+336399230+335916284+335211373+334286010+333170926+331936018+330686674
3880.19+329552083+328673606+328190846+328221413+328839178+330063028+331865336
3873.44+334193190+336984502+340169046+343661748+347361462+351153852+354911967
3866.68+358494755+361757954+364585798+366928790+368817374+370336417+371576752
3859.93+372595826+373411698+374026232+374456576+374748705+374964788+375154943
3853.18+375343482+375544530+375795944+376175591+376781344+377692190+378940312
3846.43+380512164+382361897+384414666+386557604+388642349+390515277+392064017
3839.68+393245330+394078681+394614146+394901926+394981119+394881340+394626862
3832.93+394233339+393704667+393035501+392221948+391275067+390231805+389158927
3826.17+388145942+387288982+386675607+386377763+386453891+386946529+387871375
3819.42+389197488+390831677+392612861+394318538+395685242+396444039+396368118
3812.67+395324980+393322866+390536566+387300372+384060948+381295647+379417210
3805.92+378698714+379253315+381063120+384017209+387921368+392493657+397385867
3799.17+402250740+406823734+410969034+414662991+417931119+420779092+423161267
3792.42+424996793+426211075+426765386+426662791+425937916+424653843+422911883
3785.67+420863421+418710377+416689418+415043715+413991050+413690141+414214050
3778.91+415541903+417572803+420149895+423078553+426139917+429117698+431844313
3772.16+434244256+436335959+438181840+439815366+441200750+442245214+442849559
3765.41+442952030+442540573+441640371+440297608+438577392+436572876+434411796
3758.66+432244918+430215261+428420118+426888980+425595754+424502084+423604202
3751.91+422944355+422571045+422476859+422569803+422708888+422779010+422747076
3745.16+422656327+422569927+422508378+422430138+422254853+421899022+421293268
3738.41+420379481+419102988+417410606+415256650+412609394+409456535+405810997
3731.65+401717346+397254071+392527910+387662540+382788679+378042512+373571286
3724.90+369538272+366114119+363448472+361633531+360682592+360539323+361106640
3718.15+362269438+363895094+365827830+367900771+369969237+371944387+373800126
3711.40+375548879+377203860+378759600+380203137+381551202+382883528+384347857
3704.65+386125272+388371634+391161993+394462718+398140605+402001522+405837712
3697.90+409469458+412769395+415672124+418174373+420324642+422196907+423849568
3691.14+425288880+426457642+427255497+427569537+427294390+426343782+424673724
3684.39+422322158+419432352+416229293+412956485+409823922+407004900+404661245
3677.64+402935190+401878632+401362592+401050209+400468769+399131224+396628147
3670.89+392660783+387047095+379757095+371002145+361340326+351700334+343229975
3664.14+336965987+333456925+332543159+333414284+334900420+335827129+335271493
3657.39+332662052+327769345+320663847+311692027+301482441+290967265+281368444
3650.64+274083704+270425844+271275659+276797273+286376337+298823173+312733757
3643.88+326837044+340202367+352283556+362854979+371909264+379560313+385967673
3637.13+391285339+395639599+399131597+401843798+403833320+405110269+405620096
3630.38+405247905+403847196+401282197+397482497+392522319+386726097+380757903
3623.63+375617262+372474095+372361146+375839434+382793525+392462510+403692537
3616.88+415277898+426227974+435877492+443860391+450022881+454341851+456880217
3610.13+457784602+457305094+455813221+453792552+451786628+450312193+449754030
3603.38+450282496+451828586+454138443+456883572+459765468+462566265+465136854
3596.62+467365282+469170820+470538684+471563018+472451374+473470987+474851939
3589.87+476692808+478911543+481260086+483392876+484955948+485663178+485339902
3583.12+483940394+481547409+478366013+474711570+470989986+467664534+465204409
3576.37+464015890+464365218+466314149+469696138+474147484+479191122+484346384
3569.62+489221156+493564564+497271982+500358198+502912510+505048656+506860697
3562.87+508399166+509673837+510673941+511385396+511788942+511843822+511477760
3556.11+510597481+509117041+506997753+504293007+501189519+498028625+495277034
3549.36+493435751+492903599+493847994+496140331+499392140+503076902+506686406
3542.61+509853720+512403559+514326603+515706064+516639774+517186464+517353962
3535.86+517126240+516508765+515556873+514367277+513040666+511647537+510225828
3529.11+508806605+507434268+506162993+505034904+504071208+503281098+502681599
3522.36+502300378+502164109+502279006+502620589+503132197+503734968+504345981
3515.61+504900955+505371517+505763258+506093492+506363834+506542350+506567699
3508.85+506368805+505886894+505088708+503968240+502540360+500835842+498896603
3502.10+496773918+494525651+492214345+489909292+487686705+485623167+483774677
3495.35+482158920+480749720+479491824+478323766+477192404+476052677+474867305
3488.60+473613385+472299615+470973915+469705002+468540588+467470279+466420803
3481.85+465290726+464002967+462537892+460928017+459223582+457460498+455647752
3475.10+453776979+451839644+449839643+447795696+445732821+443664561+441576959
3468.35+439427352+437159494+434728072+432112667+429319243+426377497+423350179
3461.59+420351689+417554868+415163292+413350587+412191020+411617698+411428868
3454.84+411337912+411049801+410340210+409115201+407431144+405460260+403412917
3448.09+401453424+399653849+398005040+396460814+394971220+393481998+391918264
3441.34+390185498+388201816+385940916+383453247+380856398+378300967+375929852
3434.59+373838604+372043213+370470076+368979819+367422132+365694751+363770547
3427.84+361683856+359489392+357226380+354907494+352528550+350082921+347569448
3421.08+344993329+342364441+339696248+337003037+334296344+331582796+328867053
3414.33+326155411+323456712+320779219+318127138+315501129+312901297+310330728
3407.58+307799238+305328820+302953831+300707097+298590004+296546989+294471502
3400.83+292251027+289822670+287200389+284451449+281645185+278815105+275960360
3394.08+273073453+270165339+267264163+264392747+261545291+258680005+255733123
3387.33+252645541+249388782+245976516+242453433+238864867+235227012+231519490
3380.58+227706391+223771272+219736995+215656039+211580758+207538404+203527157
3373.82+199528997+195526013+191509878+187485770+183475267+179514365+175643362
3367.07+171888923+168250136+164701259+161210991+157765320+154375896+151070553
3360.32+147876048+144809693+141883655+139113084+136512299+134080028+131787371
3353.57+129586332+127435348+125322076+123262701+121279464+119378578+117548250
3346.82+115774728+114058986+112417208+110867815+109418842+108064512+106790410
3340.07+105579867+104418818+103300504+102228776+101216029+100272793+99394637
3333.31+98556606+97722178+96863375+95977628+95089097+94231909+93426806+92669500
3325.60+91939427+91220693+90515772+89840145+89203679+88597294+87995537+87371145
3317.88+86707985+86005389+85277009+84547661+83845546+83188200+82570616+81968508
3310.17+81358908+80740273+80131946+79553027+79002822+78463411+77919885+77375592
3302.45+76846702+76343222+75856808+75365086+74845189+74284800+73685777+73063735
3294.73+72444355+71854760+71310799+70807992+70324208+69832615+69315835+68772655
3287.02+68215367+67663039+67135599+66649422+66213953+65828311+65479821+65145751
3279.30+64798468+64412841+63973659+63480736+62950718+62413932+61905120+61449583
3271.59+61050578+60687234+60326961+59946387+59546973+59154310+58801156+58506605
3263.87+58264816+58050027+57831806+57589975+57319292+57024714+56714273+56397076
3256.15+56085993+55797763+55546345+55334403+55153418+54994705+54860564+54762520
3248.44+54705776+54675556+54640407+54572997+54470827+54359409+54274205+54235422
3240.72+54234738+54243571+54237104+54217083+54215504+54273449+54408160+54593908
3233.01+54774946+54905167+54984169+55058506+55182965+55370981+55575369+55718803
3225.29+55752855+55699616+55641546+55664125+55794382+55981275+56133811+56187568
3217.57+56149344+56087422+56078336+56153910+56288760+56432158+56553195+56661858
3209.86+56793348+56973132+57192415+57411144+57583954+57688770+57737671+57763076
3202.14+57791552+57826696+57854369+57863439+57860395+57864806+57893137+57948965
3194.43+58028391+58129924+58256289+58406723+58572694+58743050+58911062+59073838
3186.71+59224102+59346112+59423120+59450824+59445543+59440268+59470819+59559228
3178.99+59702491+59873666+60038069+60175212+60289705+60401671+60525379+60655569
3171.28+60772635+60858839+60909246+60932652+60947890+60982262+61067057+61224620
3163.56+61452399+61718874+61980083+62206133+62396407+62572054+62753159+62939628
3155.85+63108995+63230798+63286331+63281247+63241904+63197580+63157399+63099179
3148.13+62980767+62768826+62465509+62112174+61767065+61474367+61247101+61073855
3140.41+60939083+60839304+60784931+60790497+60863426+60999244+61184553+61404617
3132.70+61649368+61912384+62184294+62447445+62679951+62867269+63010666+63124854
3124.98+63227169+63329526+63438007+63555177+63678036+63794087+63882579+63922802
3117.27+63899560+63800253+63608555+63307289+62892115+62383536+61824306+61263617
3109.55+60740898+60279117+59885476+59554615+59271739+59016784+58767048+58496359
3101.83+58175604+57782206+57316651+56810707+56314274+55868466+55488808+55171854
3094.12+54913198+54713806+54568508+54455160+54343950+54222121+54109565+54047964
3086.40+54072049+54187862+54374139+54599940+54840673+55080639+55306782+55506536
3078.69+55675712+55829174+56000282+56224281+56516580+56863548+57232291+57587584
3070.97+57899055+58135221+58258049+58229941+58029266+57658959+57141516+56510254
3063.25+55810588+55109167+54493146+54048264+53825285+53819605+53978603+54229897
3055.54+54509931+54777721+55013877+55213035+55376060+55503362+55591036+55632051
3047.82+55624590+55582933+55541333+55544760+55627635+55793580+56008664+56213440
3040.11+56345406+56357101+56221366+55927182+55478283+54900337+54249835+53610771
3032.39+53072975+52702938+52525669+52527937+52676538+52934802+53267831+53639748
3024.67+54013995+54361517+54671098+54951712+55222800+55499142+55781102+56056938
3016.96+56314124+56549374+56768776+56979117+57177711+57350371+57478506+57549747
3009.24+57565839+57544704+57518885+57530151+57620201+57819033+58136101+58560522
3001.53+59069101+59634947+60229269+60817663+61359046+61813812+62157336+62387253
2993.81+62517775+62566038+62543615+62458711+62322976+62150025+61945550+61701726
2986.09+61407030+61066027+60708948+60379434+60110422+59910669+59772376+59688740
2978.38+59663635+59707151+59825723+60015713+60261131+60533093+60793976+61010210
2970.66+61167219+61271900+61337254+61363845+61340998+61271880+61198066+61193846
2962.95+61326465+61610418+61992250+62375692+62667090+62812280+62810457+62709949
2955.23+62592738+62549911+62650248+62915071+63315666+63796437+64304297+64800575
2947.51+65251659+65616856+65853918+65938723+65880229+65716660+65499599+65280803
2939.80+65105331+65003626+64980577+65013122+65066516+65121381+65186631+65283888
2932.08+65415761+65548106+65626356+65615085+65528685+65427043+65377273+65411009
2924.37+65509182+65623644+65714134+65768755+65794233+65790987+65738411+65602623
2916.65+65357050+64997698+64544439+64030357+63485805+62924013+62334858+61693127
2908.93+60980191+60209683+59440552+58766509+58283429+58049696+58062841+58267513
2901.22+58591260+58983623+59432807+59954081+60566394+61276379+62073038+62925654
2893.50+63782899+64582038+65271079+65829154+66264971+66593962+66815937+66913541
2885.79+66867540+66669210+66319618+65823630+65190079+64435600+63582974+62654354
2878.07+61670579+60662295+59682414+58804387+58102790+57630090+57403735+57408933
2870.35+57610369+57965273+58432677+58976820+59566627+60176041+60790238+61413900
2862.64+62073012+62805244+63643736+64606527+65695309+66900292+68203485+69579151
2854.92+70995082+72416024+73807440+75137877+76381685+77523587+78561947+79505245
2847.21+80360357+81119045+81752855+82221987+82493950+82561370+82447369+82195577
2839.49+81852390+81453338+81021021+80569155+80103776+79617998+79088999+78487403
2831.77+77797802+77035542+76244697+75477896+74771841+74136152+73559982+73029513
2824.06+72546059+72136223+71850095+71746196+71868195+72224643+72783142+73481358
2816.34+74248097+75024984+75783941+76538663+77344921+78284450+79433859+80833300
2808.63+82471459+84291847+86212484+88145795+90011475+91740740+93272665+94546373
2800.91+95497872+96071287+96242876+96041631+95547719+94867308+94099347+93316724
2793.19+92567651+91887622+91307280+90849351+90519945+90304525+90174521+90100329
2785.48+90060494+90040033+90022854+89992070+89943558+89902884+89927228+90087872
2777.76+90447058+91046070+91907183+93037042+94426102+96050226+97881941+99904039
2770.05+102108237+104474972+106950423+109443341+111845066+114056936+116006540
2763.29+117651000+118977145+120004731+120788607+121408670+121945730+122451643
2756.54+122931493+123351814+123676239+123909904+124124227+124442957+124993582
2749.79+125853534+127022918+128438869+130020497+131714297+133511645+135425733
2743.04+137443896+139487170+141406580+143018247+144154910+144707150+144645456
2736.29+144032537+143031190+141897427+140939146+140440812+140583232+141402645
2729.54+142811980+144667884+146840903+149250114+151853715+154617535+157492296
2722.79+160415911+163333147+166213282+169051139+171849181+174589724+177211259
2716.03+179602297+181620295+183129253+184034714+184295012+183906067+182878854
2709.28+181234953+179024522+176349598+173365222+170252187+167174898+164250817
2702.53+161548866+159116016+157016557+155359713+154296362+153979154+154499543
2695.78+155829632+157797544+160109358+162411967+164374960+165763958+166483479
2689.03+166580700+166217465+165627368+165071400+164793199+164969655+165663972
2682.28+166802178+168196892+169617824+170879168+171899288+172707228+173403783
2675.53+174106446+174904094+175830949+176859404+177911510+178889869+179717794
2668.77+180369668+180878439+181321167+181798501+182417342+183273143+184427533
2662.02+185888341+187608722+189511823+191527336+193619432+195794615+198096934
2655.27+200598831+203384820+206521629+210021704+213822418+217801318+221821947
2648.52+225779805+229618066+233307136+236809053+240052144+242926542+245295007
2641.77+247006608+247908528+247857831+246735168+244455857+240973924+236283363
2635.02+230432364+223569706+216020444+208350052+201347811+195879007+192631505
2628.26+191872149+193352922+196433235+200347355+204461653+208396648+211994907
2621.51+215212773+218027445+220404152+222309842+223745074+224772784+225533196
2614.76+226235290+227113954+228358182+230036150+232057275+234196920+236178055
2608.01+237767428+238836453+239363511+239403066+239064155+238518148+238010102
2601.26+237826139+238208085+239253605+240863770+242771676+244632944+246127944
2594.51+247028353+247208463+246613603+245219293+243007289+239957501+236038245
2587.76+231196877+225393365+218716409+211546193+204633314+198964642+195424785
2581.00+194433254+195789024+198812365+202666283+206640253+210259470+213241578
2574.25+215416989+216704893+217148139+216953553+216484420+216191277+216501795
2567.50+217707214+219885896+222890641+226402810+230023372+233357626+236060963
2560.75+237845586+238472960+237763348+235634202+232158234+227611086+222479225
2554.00+217401976+213051320+209980719+208498580+208613063+210059664+212384018
2547.25+215041629+217491648+219281261+220118112+219913937+218781189+216984141
2540.50+214870382+212813823+211179842+210298238+210424338+211686335+214038356
2533.74+217246799+220925204+224610836+227855603+230300859+231713310+231982306
2526.99+231092708+229096455+226093016+222220501+217655398+212617393+207372480
2520.24+202222623+197468090+193348655+189986175+187359048+185317400+183624459
2513.49+182001992+180170856+177893865+175024106+171543063+167562445+163277583
2506.74+158892104+154552932+150329339+146240110+142307848+138608476+135292322
2499.99+132569890+130667058+129765086+129946025+131163600+133250912+135959469
2493.23+139008646+142126764+145077146+147679836+149838089+151565294+152991196
2486.48+154333079+155836891+157712594+160087520+162986314+166331181+169956103
2479.73+173632954+177109327+180151576+182580927+184293418+185264177+185541166
2472.98+185235618+184511220+183570697+182637029+181931000+181645726+181923752
2466.23+182839713+184390732+186495005+188999138+191694275+194340434+196699621
2459.48+198580129+199888059+200666468+201090972+201401014+201787308+202295106
2452.73+202807749+203126904+203101762+202727831+202159003+201633375+201362494
2445.97+201442619+201827402+202360092+202843101+203111952+203089689+202810877
2439.22+202412757+202098324+202082502+202537304+203549896+205099030+207046657
2432.47+209143309+211052437+212401973+212856816+212188002+210313956+207306665
2425.72+203377282+198859935+194190332+189861876+186345959+183995491+182967698
2418.97+183201301+184453730+186378121+188607397+190819381+192770963+194303696
2412.22+195334595+195845416+195878199+195533675+194965406+194366404+193947098
2405.47+193904768+194385415+195447462+197048970+199072311+201377861+203854264
2398.71+206435250+209082195+211759149+214424755+217044136+219604330+222118548
2391.96+224618457+227141290+229715194+232343025+234984980+237541777+239841983
2385.21+241639860+242640709+242570670+241291215+238919540+235887915+232883067
2378.46+230658575+229783494+230437915+232359137+234971581+237643999+239951081
2371.71+241818417+243492699+245366372+247752440+250717609+254037096+257263101
2364.96+259846427+261250822+261046875+259010239+255234976+250207119+244744859
2358.20+239758338+235908583+233343895+231667687+230144564+228008936+224702558
2351.45+219956226+213746290+206218007+197644493+188426168+179089198+170242868
2344.70+162494971+156358098+152181733+150116507+150094255+151814056+154752654
2337.95+158231574+161549798+164147922+165741882+166371026+166344063+166106618
2331.20+166089170+166597050+167778456+169656395+172175843+175221882+178597865
2324.45+181991389+184968631+187031672+187753606+186965339+184916008+182294204
2317.70+180041608+179011061+179643592+181849405+185151662+188980562+192930551
2310.94+196855730+200805677+204892535+209184376+213666910+218261711+222861171
2304.19+227349028+231598890+235468009+238808061+241498331+243482324+244784580
2297.44+245497070+245745543+245655084+245325347+244814153+244128916+243231573
2290.69+242064778+240600511+238890319+237088943+235430296+234159788+233456120
2283.94+233382643+233889280+234854116+236133198+237590237+239100665+240547826
2277.19+241835606+242927288+243886304+244879678+246117196+247745275+249755631
2270.43+251962955+254065406+255749794+256788169+257093179+256719000+255806725
2263.68+254483863+252754949+250450331+247286724+243035888+237721846+231743774
2256.93+225853987+220994104+218053000+217635476+219920813+224649832+231230033
2250.18+238909620+246952742+254763710+261936950+268240493+273561555+277849586
2243.43+281084268+283278400+284501152+284890491+284630524+283897697+282807445
2236.68+281399570+279675295+277662268+275464615+273266445+271287961+269720374
2229.93+268669387+268126362+267971869+268003721+267976819+267641180+266766700
2223.17+265154256+262642854+259114532+254497717+248762050+241916580+234027019
2216.42+225259313+215926650+206499201+197546496+189620134+183120348+178198647
2209.67+174735353+172402105+170791215+169568939+168596875+167976232+168000969
2202.92+169042907+171417274+175275085+180554335+186998040+194225807+201827651
2196.17+209444964+216813225+223765970+230216903+236143015+241577338+246601157
2189.42+251320442+255818777+260102335+264068580+267528561+270286138+272243871
2182.67+273485820+274296909+275106837+276375875+278457327+281478722+285280865
2175.91+289440807+293380794+296532555+298498447+299148229+298613592+297188653
2169.16+295187264+292821367+290155244+287147994+283759461+280064800+276316543
2162.41+272914258+270286510+268737728+268342860+268944306+270250952+271975744
2155.66+273939193+276095116+278488743+281180339+284174087+287375737+290594680
2148.91+293587185+296121823+298031510+299229866+299691833+299422651+298441268
2142.16+296791030+294575816+292004025+289411400+287230294+285890595+285681388
2135.40+286637877+288514678+290862475+293168376+294996840+296078291+296322519
2128.65+295765909+294491528+292574054+290084521+287136542+283917516+280652536
2121.90+277516887+274569715+271771776+269081444+266550409+264343044+262664641
2115.15+261653705+261310404+261497804+262001770+262607358+263154338+263558111
2108.40+263808241+263961326+264136549+264499525+265218332+266391837+267980982
2101.65+269782751+271468962+272672081+273074509+272461528+270730440+267881721
2094.90+264025898+259418631+254497054+249869719+246228054+244189781+244132416
2088.14+246087809+249746560+254566721+259938232+265333021+270387593+274902455
2081.39+278787540+282005613+284553257+286482453+287930317+289116393+290290312
2074.64+291649540+293269066+295081128+296913734+298565173+299876956+300777116
2067.89+301290733+301523984+301631529+301767279+302029607+302419319+302836533
2061.14+303121868+303122283+302748310+302000655+300962238+299765352+298541668
2054.39+297367521+296223507+294991166+293497264+291588260+289197864+286376793
2047.64+283279042+280123201+277148982+274578206+272580110+271242752+270559255
2040.88+270432802+270694633+271127027+271490520+271564743+271202637+270379248
2034.13+269206447+267901519+266720290+265882155+265510357+265603798+266051268
2027.38+266689122+267379287+268063965+268764713+269530116+270371585+271230160
2020.63+271986306+272491991+272598521+272168716+271090702+269316725+266938837
2013.88+264272569+261879957+260466097+260649977+262706743+266432614+271225521
2007.13+276340773+281171786+285407235+289013756+292104114+294799251+297159370
2000.37+299196089+300921751+302381089+303631426+304677713+305392564+305458731
1993.62+304364626+301480680+296235870+288387107+278298775+267086910+256478728
1986.87+248348812+244081284+244051608+247497796+252843648+258289610+262376240
1980.12+264298725+263914315+261529241+257607086+252521014+246423407+239248324
1973.37+230822180+221028254+209962433+198026936+185924458+174539130+164719970
1966.62+157030422+151560603+147892988+145245214+142728272+139607534+135470031
1959.87+130258366+124182576+117564859+110701341+103817414+97126199+90918769
1953.11+85592291+81580934+79237828+78750518+80133251+83275377+87996138+94066305
1945.40+101182873+108906954+116606008+123466927+128623878+131368655+131339113
1938.65+128593859+123581244+117090891+110243195+104452896+101236811+101827322
1931.90+106738140+115528451+126912236+139139323+150425276+159234743+164374070
1925.14+164996712+160675784+151611486+138876405+124470169+110991016+100951154
1918.39+96031701+96669886+102177955+111242947+122456883+134624420+146832340
1911.64+158398037+168790903+177557564+184277430+188588469+190287788+189439195
1904.89+186393218+181690894+175915589+169591243+163172358+157089858+151779647
1898.14+147645748+144962312+143759617+143754822+144375466+144882487+144554023
1891.39+142863743+139596951+134875678+129100093+122838735+116718337+111353380
1884.63+107317012+105116564+105136724+107553763+112270253+118924336+126983207
1877.88+135876093+145102805+154278344+163117840+171394897+178909315+185481958
1871.13+190972921+195305312+198475028+200539415+201592867+201744398+201105468
1864.38+199787597+197900732+195550429+192836198+189855726+186716494+183548911
1857.63+180509788+177769049+175480999+173753867+172633720+172109831+172131193
1850.88+172616697+173452357+174482366+175509868+176312445+176666371+176370370
1844.13+175273407+173313251+170563213+167258864+163766804+160480266+157677398
1837.37+155418155+153541572+151759435+149779004+147387324+144481996+141081555
1830.62+137338340+133537812+130050008+127228077+125291043+124245502+123877328
1823.87+123815199+123640111+123002227+121706163+119742538+117263826+114520964
1817.12+111785681+109287761+107188789+105592655+104567430+104142450+104270041
1810.37+104785253+105416562+105871229+105962216+105714085+105396183+105468273
1803.62+106450226+108748164+112492766+117463776+123151604+128936332+134291245
1796.87+138910431+142718207+145794938+148284409+150328065+152033722+153469047
1790.11+154670603+155662113+156471006+157132789+157681633+158138795+158510293
1783.36+158795898+158996822+159111646+159121597+158980586+158622912+157987305
1776.61+157037919+155766303+154174962+152263277+150030459+147490302+144677825
1769.86+141639769+138422804+135079843+131694706+128403653+125391971+122865678
1763.11+121016401+119998476+119924367+120867406+122854319+125838054+129666281
1756.36+134077191+138742321+143338747+147610283+151390019+154589846+157179033
1749.60+159167127+160591859+161505521+161957755+161978040+161564771+160690447
1742.85+159326373+157478866+155212426+152637104+149863054+146961940+143981353
1736.10+141015895+138280996+136112626+134866814+134776365+135860975+137936586
1729.35+140689865+143758074+146785236+149459643+151545050+152909735+153545434
1722.60+153565491+153176287+152626770+152144125+151869102+151809096+151832985
1715.85+151717074+151221484+150161240+148447858+146101729+143240853+140042972
1709.10+136681869+133259383+129768368+126112041+122170439+117879282+113287670
1702.34+108581349+104068683+100122152+97078836+95133943+94274778+94276776
1695.59+94758179+95280049+95463949+95081828+94083515+92565549+90710752+88725186
1687.88+86789503+85032062+83521054+82270660+81258979+80453902+79833429+79385710
1680.16+79089108+78891731+78712438+78469417+78119690+77681886+77225375+76832495
1672.44+76560015+76423902+76412076+76509535+76714575+77036267+77478912+78028190
1664.73+78648870+79293190+79912415+80464142+80913948+81234469+81404847+81408999
1657.01+81229416+80839430+80202452+79285916+78084059+76633440+75008427+73304773
1649.30+71626930+70081104+68761747+67727006+66979289+66470042+66126191+65876455
1641.58+65661775+65433509+65150954+64783003+64309454+63719988+63013659+62199604
1633.86+61294199+60311791+59255243+58117944+56898697+55610896+54303193+53011903
1626.15+51766598+50583815+49478455+48472640+47591673+46851432+46251529+45782127
1618.43+45439954+45242142+45230964+45469708+46034027+47000468+48429269+50338889
1610.72+52678003+55310934+58034081+60627109+62919358+64834766+66386691+67625679
1603.00+68578561+69221343+69500347+69377456+68861696+68007408+66888695+65573935
1595.28+64114800+62549704+60911772+59233990+57548738+55882652+54251016+52657341
1587.57+51100968+49590069+48155267+46863003+45830007+45230151+45273889+46146785
1579.85+47922083+50489913+53544133+56642515+59325335+61248084+62270741+62465245
1572.14+62052137+61307552+60480605+59743579+59180399+58803615+58582288+58468370
1564.42+58418222+58407380+58432656+58499905+58607507+58739447+58871346+58978492
1556.70+59035712+59013600+58883798+58634657+58282792+57866437+57424900+56982876
1548.99+56550565+56132093+55726398+55316588+54860632+54300387+53590279+52728266
1541.27+51767758+50803554+49945874+49304625+48993096+49133989+49841674+51171386
1533.56+53060565+55305829+57603095+59638339+61184579+62160717+62629746+62743467
1525.84+62666655+62521627+62375298+62257409+62181255+62151573+62164667+62210725
1518.12+62278424+62355459+62426213+62473405+62485711+62461683+62402397+62298124
1510.41+62123015+61845538+61448237+60942981+60370384+59781198+59210547+58663547
1502.69+58123375+57572315+57004186+56416502+55796878+55128753+54422196+53741877
1494.98+53199117+52905865+52924307+53245755+53803317+54500058+55233268+55908419
1487.26+56445443+56782869+56883268+56739731+56377537+55844914+55193910+54460720
1479.54+53656109+52768711+51777999+50674829+49485957+48289138+47200832+46332187
1471.83+45735448+45375879+45147375+44920212+44592965+44126147+43546674+42927690
1464.11+42365025+41971650+41882330+42229171+43069687+44313496+45732005+47077238
1456.40+48222770+49194155+50055945+50766013+51138530+50956882+50171598+49080102
1448.68+48384646+49030094+51793712+56782195+63169006+69442355+74090177+76300297
1440.96+76227125+74706937+72704384+70892715+69559415+68740908+68382995+68416027
1433.25+68762653+69335079+70043785+70809178+71569621+72286455+72944350+73544828
1425.53+74096374+74607661+75084741+75528551+75933169+76290304+76599549+76875628
1417.82+77144225+77429178+77740887+78071302+78395935+78682746+78906020+79057852
1410.10+79146308+79181410+79161876+79075652+78910840+78663942+78339832+77949727
1402.38+77513787+77061755+76623412+76211412+75810729+75385407+74897227+74322118
1394.67+73653284+72888553+72008487+70960228+69667762+68078384+66228160+64284012
1386.95+62522093+61238998+60636035+60738112+61388510+62315531+63226584+63878276
1379.24+64099889+63786714+62897328+61472741+59663615+57731515+56001405+54774868
1371.52+54241603+54428522+55204668+56334740+57556721+58653347+59494920+60046420
1363.80+60348018+60483831+60549469+60623537+60746324+60910400+61064153+61125795
1356.09+61003883+60619618+59926491+58921851+57646947+56177317+54608597+53042460
1348.37+51573932+50282502+49232167+48486681+48133336+48292975+49089453+50574667
1340.66+52646530+55020985+57295424+59078679+60115698+60345046+59884409+58982012
1332.94+57963477+57169324+56870009+57179420+58019589+59171039+60382375+61468522
1325.22+62343245+62987327+63398473+63569932+63511086+63285922+63027710+62903774
1317.51+63041953+63465794+64084553+64742785+65290541+65627692+65707253+65517388
1309.79+65067427+64385551+63520644+62540270+61520886+60529894+59604199+58736781
1302.08+57880401+56964056+55912629+54670984+53245460+51755689+50450850+49639508
1294.36+49543851+50169200+51291786+52582181+53774971+54768148+55605662+56389833
1286.64+57202097+58074972+59004006+59968904+60944115+61900139+62804462+63627210
1278.93+64350070+64971734+65504175+65960872+66345375+66648408+66854182+66950363
1271.21+66935907+66822647+66629567+66370108+66037202+65595561+64988524+64158963
1263.50+63076481+61761235+60297735+58830962+57539895+56590850+56086423+56031703
1255.78+56332442+56825691+57329341+57690520+57813949+57662764+57241688+56583400
1248.06+55752503+54858131+54054011+53511986+53378249+53734132+54575047+55807217
1240.35+57256749+58693223+59870466+60577790+60683113+60152137+59040387+57468840
1232.63+55597865+53608896+51695404+50055112+48872484+48287792+48364770+49077974
1224.92+50331465+51999296+53964567+56138787+58459703+60876514+63330960+65740083
1217.20+67990084+69953321+71532085+72710814+73582219+74321072+75112865+76076929
1209.48+77228637+78495413+79766656+80942657+81961275+82802610+83480722+84028510
1201.77+84480878+84861322+85176480+85415245+85547030+85522241+85284889+84799494
1194.05+84075148+83165192+82141375+81064708+79974865+78897664+77851590+76841281
1186.34+75841229+74781792+73550611+72024330+70139567+67980024+65815315+64029911
1178.62+62954720+62704150+63126350+63886907+64608421+64975555+64772819+63879612
1170.90+62258383+59956152+57127542+54073924+51257807+49226974+48426220+48983073
1163.19+50619332+52771346+54839668+56393100+57214061+57224530+56416942+54866213
1155.47+52790394+50572218+48690561+47582856+47507836+48476870+50288575+52649083
1147.76+55309464+58139016+61097593+64146848+67179664+70019405+72472318+74379059
1140.04+75630313+76155418+75911662+74884972+73092025+70577733+67421126+63767532
1132.32+59878377+56155976+53094384+51150511+50593202+51420542+53397737+56186507
1124.61+59478839+63060960+66799882+70599577+74371598+78025685+81462564+84562360
1116.89+87182554+89177109+90430770+90892395+90601406+89709561+88488776+87301665
1109.18+86519963+86411223+87047911+88290617+89855304+91425241+92745297+93655304
1101.46+94061056+93881608+93017917+91364386+88849039+85471466+81318089+76553186
1093.74+71398079+66110369+60972684+56293011+52399693+49599911+48087065+47834099
1086.03+48548448+49739706+50874562+51536821+51524193+50871222+49822000+48761761
1078.31+48101666+48137053+48944315+50386241+52226065+54269893+56440400+58747280
1070.60+61198625+63730628+66202656+68451756+70362940+71910065+73147811+74168542
1062.88+75055432+75855389+76571524+77160456+77521397+77484685+76825739+75334394
1055.16+72942699+69864078+66652270+64100054+62983004+63765839+66433417+70535414
1047.45+75395146+80344328+84864538+88608695+91353907+92953334+93324708+92477274
1039.73+90555141+87863431+84839484+81944361+79493197+77500237+75647983+73448270
1032.02+70551355+67040009+63520721+60927863+60132680+61569180+65074054+70001087
1024.30+75519543+80931106+85861188+90261635+94258686+97956620+101318293
1017.55+104178350+106346999+107708836+108256841+108067888+107261718+105968874
1010.80+104304781+102340245+100071517+97401439+94149071+90110611+85181393
1004.05+79497759+73497802+67809772+62990268+59272639+56508597+54342138+52469195
996.33+50783724+49335383+48190929+47343521+46726781+46278477+45975435+45819787
988.61+45811798+45938422+46175799+46495342+46876832+47330050+47903962+48658384
980.90+49610276+50702232+51822737+52850783+53679842+54229084+54501591+54705766
973.18+55339689+57092072+60534776+65783257+72367238+79386662+85797010+90620334
965.47+93053879+92621216+89456563+84563095+79727303+76928608+77488480+81495637
957.75+87906600+95225231+102259116+108483590+113917799+118769211+123163678
951.00+127091580+130490841+133329453+135626139+137429379+138793091+139762110
944.25+140366807+140626691+140561135+140195933+139558929+138670811+137545684
937.49+136199192+134650172+132907062+130952383+128744945+126247077+123464712
930.74+120482872+117478863+114693205+112347116+110527588+109100526+107712699
923.99+105891162+103187037+99292280+94098913+87717253+80480223+72930097
917.24+65760797+59699178+55353140+53084920+52961144+54784887+58173016+62633613
909.52+67627357+72625848+77174756+80952333+83801383+85730040+86895178+87575652
901.81+88123139+88877794+90069606+91755061+93828715+96097102+98364504+100484362
894.09+102367861+103971679+105287779+106336199+107154329+107779932+108238089
887.34+108543792+108717400+108795403+108821455+108822532+108795341+108719347
880.59+108583710+108396889+108165471+107861890+107413177+106717275+105672997
873.84+104210066+102322963+100107448+97776664+95624541+93936312+92885925
867.09+92475649+92542965+92822326+93022452+92880250+92178249+90752896+88542113
859.37+85683977+82592853+79893575+78172111+77663040+78087647+78766153+78923991
851.65+77991736+75757816+72378017+68316311+64252596+60935303+58974195+58643049
843.94+59797807+61959425+64512536+66913370+68817989+70102424+70805067+71045613
836.22+70965840+70703906+70385782+70112266+69934775+69829721+69687214+69329037
828.51+68566549+67290232+65551103+63578630+61704978+60228933+59297387+58867520
820.79+58755802+58733229+58622195+58363119+58029830+57781487+57767451+58037902
813.07+58516416+59045927+59464078+59650340+59527387+59047237+58201988+57058880
805.36+55780554+54592262+53700588+53212454+53104998+53260081+53531878+53802587
797.64+54001269+54092070+54054845+53877038+53558489+53116341+52578396+51966621
789.93+51286930+50536515+49720322+48855927+47959660+47032852+46069880+45089279
782.21+44164511+43441356+43149437+43605039+45164056+48076105+52268959+57199337
774.49+61922842+65408306+66940210+66378521+64141991+60960812+57564637+54461668
766.78+51871828+49787017+48088541+46654914+45416019+44348541+43443137+42685393
759.06+42072739+41655072+41568257+42032961+43303650+45565925+48806876+52719557
751.35+56718322+60097614+62276416+63001539+62398446+60853734+58816621+56641857
743.63+54545505+52656181+51087761+49963115+49372340+49305432+49623391+50102697
735.91+50532678+50801157+50913754+50944767+50966848+51011431+51073218+51133840
728.20+51175207+51176367+51107140+50932745+50629687+50202993+49691572+49152777
720.48+48630825+48128728+47607868+47019785+46345529+45607996+44848764+44092727
712.77+43332626+42541084+41693855+40785259+39837309+38919189+38186649+37925916
705.05+38554416+40520671+44088885+49090348+54807838+60132830+63972468+65694889
697.33+65351515+63559319+61148875+58811216+56923528+55574271+54687127+54134665
689.62+53799683+53595751+53468491+53387626+53335769+53301842+53282281+53281246
681.90+53299217+53313491+53271611+53116973+52839004+52509749+52268504+52252516
674.19+52520290+53025944+53663777+54343567+55036181+55759104+56526283+57309947
666.47+58045114+58668180+59158152+59549453+59906724+60278962+60669409+61048098
658.75+61397136+61744310+62147054+62637667+63182840+63697270+64100572+64365323
651.04+64518635+64606573+64662670+64705777+64755816+64836790+64950393+65036570
643.32+64956828+64525930+63586339+62090708+60151495+58032507+56081748+54622405
635.61+53836639+53691527+53954212+54301692+54466436+54330281+53920513+53338642
627.89+52698511+52112763+51696698+51548889+51699241+52077096+52548931+53016785
620.17+53500612+54126971+55018454+56165513+57392754+58463115+59249626+59839749
612.46+60484659+61428526+62746325+64298638+65812193+67015867+67759841+68076199
604.74+68164365+68292526+68646804+69214576+69797487
##END=
