##TITLE=2-Benzylaminopyridine 90-180um
##JCAMP-DX=4.24
##DATA TYPE=INFRARED SPECTRUM
##ORIGIN=Pacific Northwest National Laboratory Under IARPA Contract
##OWNER=Public domain
##DATE=March 2017
##CAS REGISTRY NO=6935-27-9
##MOLFORM=C 12 H 12 N 2
##$NIST SOURCE=IARPA-IR-S
##$NIST DOC FILE=META.MIR.PUR.2-Benzylaminopyridine-90-180um.SLD.ALDRICH.PNNL509420.pdf
##$NIST PSD FILE=PSD.MIR.PUR.2-Benzylaminopyridine-90-180um.SLD.ALDRICH.PNNL509420.txt
##SPECTROMETER/DATA SYSTEM=Bruker Tensor 37 FTIR
##APERTURE=6 mm
##EXTERNAL DIFFUSE REFLECTANCE ACCESSORY=A 562-G integrating sphere
##BEAMSPLITTER=Ge on KBr
##DETECTOR (DIA. DET. PORT IN SPHERE)=2×2 mm, 60° field of view MCT
##SPHERE DIAMETER=75 mm
##ACQUISITION MODE=double-sided, forward-backward
##SCANNER SPEED=40 kHz
##COADDED SCANS=2048
##PHASE RESOLUTION=32.00
##PHASE CORRECTION=Mertz
##ZEROFILLING=4×
##SPECTRAL RANGE=7,500 to 600 cm-1 saved; 7500 to 600 cm-1 reported
##STATE=solid
##RESOLUTION=0.96450084
##SPECTRAL RESOLUTION=4 cm-1
##WAVENUMBER ACCURACY=± 0.4 cm-1
##APODIZATION FUNCTION=Blackman-Harris 3-term
##LOW PASS FILTER=Open
##SWITCH GAIN ON=512 points
##XUNITS=1/cm
##YUNITS=Reflectance
##XLABEL=Wavenumber
##YLABEL=Diffuse-only reflectance
##XFACTOR=1
##YFACTOR=6.5983134e-010
##DELTAX=-0.96450084
##FIRSTX=7498.0295
##LASTX=600.88402
##FIRSTY=0.70235622
##MAXX=7498.03
##MINX=600.882
##MAXY=0.70848851
##MINY=0.026467143
##NPOINTS=7152
##XYDATA=(X++(Y..Y))
7498.03+1064448102+1064520549+1064661379+1064710520+1064563187+1064242142
7492.24+1063835011+1063567173+1063403128+1063241251+1062988228+1062666732
7486.46+1062454359+1062596092+1063239174+1064314409+1065555045+1066640668
7480.67+1067356197+1067655290+1067606781+1067286821+1066708418+1065827128
7474.88+1064597332+1063025174+1061188882+1059231453+1057338160+1055696084
7469.09+1054435847+1053579940+1053038302+1052666581+1052346983+1052034701
7463.31+1051747984+1051530913+1051419623+1051426036+1051524409+1051648888
7457.52+1051708418+1051624589+1051365603+1050964344+1050516381+1050158210
7451.73+1050017020+1050141499+1050461007+1050833722+1051169942+1051533442
7445.95+1052104980+1053016984+1054187069+1055303135+1055989125+1056030227
7440.16+1055493467+1054668816+1053882646+1053313818+1052930535+1052584469
7434.37+1052181221+1051798751+1051662077+1051998116+1052878774+1054164937
7428.59+1055578742+1056842412+1057793620+1058415293+1058783400+1058986018
7422.80+1059070660+1059037417+1058858287+1058499032+1057936979+1057184865
7417.01+1056308724+1055416684+1054612267+1053944344+1053397286+1052931258
7411.22+1052532708+1052233976+1052098838+1052197030+1052583746+1053277143
7405.44+1054230610+1055326712+1056409084+1057343219+1058061639+1058567956
7399.65+1058906525+1059123956+1059238047+1059225220+1059045547+1058700836
7393.86+1058282142+1057944205+1057798588+1057806899+1057781244+1057513407
7388.08+1056934823+1056181896+1055514063+1055152459+1055156886+1055416684
7382.29+1055747123+1056014599+1056209990+1056430583+1056792006+1057331927
7376.50+1057962091+1058494515+1058723690+1058526132+1057925416+1057087305
7370.72+1056242961+1055579284+1055152098+1054872788+1054576947+1054137386
7364.93+1053552388+1052954293+1052523945+1052363243+1052420514+1052528914
7359.14+1052533792+1052409584+1052277697+1052323044+1052680854+1053371541
7353.35+1054300437+1055296541+1056165636+1056752982+1057001850+1056977008
7347.57+1056823171+1056678367+1056592641+1056507908+1056308001+1055906470
7341.78+1055318943+1054676133+1054159337+1053890596+1053847868+1053873523
7335.99+1053780299+1053481206+1053040922+1052607504+1052275891+1052000194
7330.21+1051631363+1051054044+1050312319+1049622625+1049254969+1049366802
7324.42+1049902929+1050630563+1051280148+1051695139+1051889626+1051989534
7318.63+1052109678+1052261347+1052343098+1052212657+1051780413+1051062445
7312.85+1050161282+1049196253+1048235108+1047276583+1046285809+1045251765
7307.06+1044220793+1043286748+1042545745+1042047558+1041771410+1041642504
7301.27+1041575658+1041524077+1041505198+1041587040+1041835004+1042244846
7295.48+1042709700+1043056128+1043134447+1042903013+1042442585+1041895347
7289.70+1041374757+1040908547+1040439899+1039873149+1039137114+1038236583
7283.91+1037262159+1036346001+1035582685+1034973569+1034441507+1033903121
7278.12+1033334203+1032772602+1032267730+1031827356+1031403422+1030918062
7272.34+1030311204+1029590707+1028856569+1028271933+1027974827+1027988377
7266.55+1028205358+1028472021+1028699661+1028904355+1029140396+1029389716
7260.76+1029506155+1029260810+1028461904+1027074567+1025270885+1023375063
7254.98+1021722689+1020511954+1019738883+1019255420+1018901043+1018609719
7249.19+1018423723+1018426162+1018657866+1019079090+1019587304+1020070406
7243.40+1020459651+1020756034+1021022517+1021349884+1021813022+1022433430
7237.61+1023164677+1023907848+1024554724+1025038368+1025359412+1025567539
7231.83+1025717221+1025835467+1025923994+1025980542+1026011888+1026028690
7226.04+1026037633+1026036639+1026007642+1025902133+1025643509+1025165015
7220.25+1024468727+1023656993+1022902711+1022373540+1022160534+1022246893
7214.47+1022526564+1022858538+1023132880+1023318153+1023454014+1023595928
7208.68+1023753921+1023881290+1023923747+1023877406+1023802791+1023787434
7202.89+1023898905+1024168459+1024599168+1025172241+1025835738+1026500048
7197.11+1027064450+1027469413+1027733909+1027941043+1028168773+1028414298
7191.32+1028568226+1028473376+1028032008+1027291096+1026432389+1025664557
7185.53+1025090309+1024651109+1024192669+1023599902+1022896659+1022237046
7179.74+1021803718+1021697035+1021888089+1022250958+1022634783+1022925295
7173.96+1023069918+1023070550+1022962873+1022799280+1022644449+1022568208
7168.17+1022621775+1022796299+1022999819+1023091056+1022965312+1022630086
7162.38+1022202087+1021821423+1021548346+1021325133+1021025046+1020547636
7156.60+1019888294+1019146478+1018472412+1017989491+1017733306+1017645141
7150.81+1017622648+1017591303+1017538367+1017489949+1017459326+1017423554
7145.02+1017344512+1017202689+1017004769+1016763399+1016478579+1016139649
7139.24+1015738389+1015271005+1014731084+1014107966+1013404271+1012658028
7133.45+1011951443+1011394900+1011094181+1011113241+1011445938+1012009617
7127.66+1012673295+1013313576+1013870119+1014364151+1014863964+1015422313
7121.87+1016027726+1016602787+1017043613+1017270259+1017251379+1017001517
7116.09+1016562498+1015987528+1015328186+1014623226+1013892070+1013145556
7110.30+1012412051+1011759123+1011287042+1011089664+1011205200+1011586677
7104.51+1012108893+1012611326+1012957664+1013086479+1013024781+1012853780
7098.73+1012649266+1012440416+1012217925+1011974207+1011731572+1011526967
7092.94+1011373491+1011242056+1011083160+1010866180+1010599246+1010318942
7087.15+1010064925+1009865831+1009744694+1009733854+1009886246+1010264832
7081.37+1010906198+1011771499+1012724875+1013569671+1014133440+1014349065
7075.58+1014274089+1014042294+1013792523+1013625406+1013602281+1013760816
7069.79+1014116999+1014652855+1015306687+1015990960+1016632145+1017204767
7064.00+1017728338+1018222731+1018659492+1018961927+1019067708+1019003932
7058.22+1018900953+1018921729+1019162828+1019613049+1020196149+1020844832
7052.43+1021535158+1022263604+1023007136+1023716613+1024347138+1024895461
7046.64+1025403675+1025920380+1026437538+1026854606+1027008895+1026770054
7040.86+1026133025+1025230597+1024241900+1023266302+1022262069+1021098578
7035.07+1019676101+1018023185+1016308481+1014773541+1013635433+1013011050
7029.28+1012892082+1013175095+1013727031+1014449787+1015306416+1016297641
7023.50+1017411540+1018587045+1019716842+1020683045+1021395683+1021811125
7017.71+1021926300+1021770656+1021411401+1020964162+1020585937+1020435171
7011.92+1020611953+1021115831+1021845181+1022647339+1023392227+1024035850
7006.13+1024633856+1025291481+1026075844+1026945391+1027750440+1028308066
7000.35+1028501289+1028339322+1027943933+1027483957+1027098415+1026849638
6994.56+1026720461+1026652260+1026595169+1026537627+1026499597+1026505739
6988.77+1026567618+1026689116+1026878815+1027146834+1027487119+1027864892
6982.99+1028228302+1028539229+1028801647+1029066865+1029408234+1029874895
6977.20+1030446975+1031021674+1031448679+1031603058+1031450034+1031058711
6971.41+1030558085+1030071821+1029673994+1029388903+1029216728+1029155120
6965.63+1029194867+1029296763+1029374449+1029312300+1029015194+1028456935
6959.84+1027691543+1026820821+1025947029+1025147219+1024481012+1024015796
6954.05+1023838382+1024037025+1024653548+1025635199+1026820008+1027980428
6948.26+1028908240+1029487456+1029712205+1029644997+1029361351+1028920706
6942.48+1028372384+1027777720+1027222985+1026814950+1026653073+1026786043
6936.69+1027174205+1027694795+1028201202+1028599300+1028881772+1029096946
6930.90+1029286194+1029447980+1029554664+1029592875+1029586009+1029583932
6925.12+1029635422+1029763875+1029955382+1030161612+1030320418+1030392594
6919.33+1030391781+1030384645+1030453750+1030650766+1030976237+1031397279
6913.54+1031883814+1032430962+1033052996+1033756872+1034509889+1035220630
6907.75+1035744382+1035924687+1035657662+1034947463+1033910980+1032725719
6901.97+1031555453+1030504788+1029615910+1028891167+1028312764+1027857936
6896.18+1027514761+1027294348+1027215126+1027264989+1027371221+1027418375
6890.39+1027308169+1027020458+1026627237+1026254432+1026021373+1025995718
6884.61+1026180901+1026532839+1026987125+1027482421+1027972298+1028430468
6878.82+1028858015+1029289717+1029784381+1030396298+1031141908+1031993388
6873.03+1032908372+1033869156+1034892540+1035997676+1037154211+1038253746
6867.25+1039135398+1039660234+1039793656+1039634218+1039354907+1039090141
6861.46+1038855455+1038568828+1038150767+1037612742+1037059361+1036612303
6855.67+1036332541+1036196680+1036132182+1036072652+1036001560+1035962446
6849.88+1036027667+1036239949+1036569304+1036930004+1037251952+1037537946
6844.10+1037851041+1038237215+1038658981+1039000169+1039141270+1039049581
6838.31+1038826278+1038678764+1038824020+1039363579+1040209007+1041125076
6832.52+1041879629+1042398051+1042794071+1043252151+1043852685+1044485560
6826.74+1044914552+1044936232+1044514014+1043799389+1043039597+1042446921
6820.95+1042116934+1042038886+1042165714+1042474292+1042964620+1043611857
6815.16+1044329915+1044991516+1045494039+1045811199+1045987168+1046078946
6809.38+1046100716+1046022488+1045820051+1045528907+1045247700+1045081668
6803.59+1045071912+1045166039+1045249055+1045207321+1044979772+1044575712
6797.80+1044062891+1043541307+1043110599+1042842761+1042768326+1042882688
6792.01+1043164528+1043591171+1044142745+1044799829+1045537399+1046314174
6786.23+1047062042+1047690580+1048116320+1048306562+1048306291+1048226255
6780.44+1048198523+1048331132+1048681083+1049249098+1049990010+1050835980
6774.65+1051727388+1052633248+1053539561+1054409650+1055150020+1055618669
6768.87+1055682625+1055288140+1054494834+1053452570+1052336414+1051281413
6763.08+1050354324+1049574207+1048959490+1048560759+1048450553+1048675121
6757.29+1049210254+1049957039+1050783226+1051575899+1052267128+1052824845
6751.51+1053232067+1053485271+1053608756+1053663408+1053728899+1053867832
6745.72+1054098543+1054396732+1054722383+1055052280+1055399430+1055806652
6739.93+1056318841+1056950902+1057674200+1058432817+1059177434+1059887001
6734.14+1060559802+1061186624+1061731423+1062135664+1062338462+1062294921
6728.36+1061986885+1061424651+1060643270+1059695223+1058642210+1057553605
6722.57+1056507999+1055585697+1054848217+1054316878+1053970089+1053765213
6716.78+1053666389+1053658981+1053737391+1053880840+1054037839+1054139825
6711.00+1054139734+1054053737+1053967469+1053997911+1054232145+1054691038
6705.21+1055334752+1056094634+1056897515+1057674471+1058368049+1058948800
6699.42+1059428018+1059850416+1060267664+1060715265+1061200806+1061708659
6693.64+1062215338+1062714970+1063235741+1063820377+1064466711+1065071672
6687.85+1065443844+1065395155+1064851169+1063897341+1062735837+1061592581
6682.06+1060636404+1059940297+1059485831+1059208779+1059070299+1059110406
6676.27+1059434702+1060126383+1061147238+1062310007+1063353626+1064075297
6670.49+1064428590+1064526602+1064552166+1064635634+1064778450+1064874204
6664.70+1064805279+1064536990+1064132388+1063683703+1063229689+1062739722
6658.91+1062174507+1061561506+1061014991+1060680758+1060648419+1060895119
6653.13+1061299179+1061715163+1062057526+1062333584+1062604131+1062907290
6647.34+1063208460+1063418756+1063460941+1063332488+1063121650+1062977027
6641.55+1063048209+1063421917+1064080446+1064906452+1065747996+1066508511
6635.77+1067195314+1067886724+1068639380+1069418051+1070106300+1070593105
6629.98+1070864827+1071033299+1071272862+1071709081+1072332289+1072996509
6624.19+1073508427+1073741848+1073694242+1073446549+1073065614+1072536894
6618.40+1071784690+1070761486+1069527264+1068248869+1067116092+1066238776
6612.62+1065600572+1065099585+1064637531+1064191827+1063826610+1063645492
6606.83+1063722817+1064051811+1064533738+1065014401+1065356402+1065512046
6601.04+1065551431+1065619362+1065843207+1066249706+1066747532+1067187726
6595.26+1067461977+1067573448+1067630358+1067764864+1068029179+1068341732
6589.47+1068527096+1068425832+1067996298+1067341021+1066642023+1066057026
6583.68+1065646462+1065371578+1065151526+1064936172+1064746472+1064658669
6577.90+1064744756+1065007806+1065356854+1065640319+1065716651+1065519092
6572.11+1065074562+1064472944+1063812337+1063156699+1062526264+1061917148
6566.32+1061325195+1060753567+1060203347+1059664329+1059122872+1058585390
6560.53+1058091539+1057700577+1057456226+1057360111+1057375739+1057460742
6554.75+1057598230+1057798588+1058066878+1058359286+1058567143+1058552599
6548.96+1058218999+1057569865+1056709893+1055785243+1054906302+1054107395
6543.17+1053368380+1052678957+1052095405+1051749790+1051796763+1052322322
6537.39+1053271994+1054453190+1055624992+1056620463+1057414311+1058088739
6531.60+1058728207+1059329193+1059790344+1059980947+1059830091+1059372463
6525.81+1058722877+1058004729+1057280166+1056537086+1055733211+1054859780
6520.03+1053964759+1053117073+1052347705+1051628473+1050907885+1050172122
6514.24+1049471769+1048895172+1048508456+1048310265+1048226526+1048147936
6508.45+1047981723+1047686515+1047271253+1046767465+1046200896+1045584553
6502.66+1044926114+1044230097+1043489908+1042684045+1041792728+1040824899
6496.88+1039832589+1038893847+1038073712+1037392149+1036817449+1036289542
6491.09+1035760822+1035232373+1034760112+1034423259+1034271590+1034287669
6485.30+1034389655+1034468787+1034427505+1034197065+1033735101+1033020476
6479.52+1032053459+1030856094+1029469660+1027952786+1026387764+1024885976
6473.73+1023576055+1022569021+1021912479+1021561625+1021385295+1021209597
6467.94+1020882862+1020331559+1019578903+1018709175+1017799611+1016866379
6462.16+1015864855+1014746621+1013523510+1012286217+1011156872+1010212981
6456.37+1009436116+1008719955+1007921861+1006921602+1005655674+1004123262
6450.58+1002371883+1000472177+998489816+996463011+994397001+992280766+990115661
6443.83+987940349+985832244+983882945+982155323+980647482+979293750+978010116
6437.08+976757014+975568772+974522443+973666356+972962570+972286788+971479210
6430.33+970410930+969026122+967346919+965447213+963415440+961322240+959206186
6423.58+957076221+954924395+952738875+950518305+948288612+946117454+944105555
6416.82+942349568+940890417+939685102+938623326+937581243+936479630+935314874
6410.07+934151203+933082110+932180946+931464966+930896047+930417733+930006356
6403.32+929696694+929565530+929686396+930088108+930741668+931574359+932495035
6396.57+933416252+934269449+935014697+935646578+936192370+936702482+937231292
6389.82+937816922+938468134+939165054+939873446+940561514+941210558+941809466
6383.07+942340445+942768714+943050192+943159586+943119839+943009362+942931766
6376.32+942966995+943136099+943404298+943713870+944016125+944282608+944495523
6369.56+944637436+944693714+944664265+944574293+944471494+944407087+944408713
6362.81+944464177+944535992+944600490+944678538+944823251+945064531+945357843
6356.06+945585844+945623151+945413579+945005724+944521900+944087940+943771232
6349.31+943561839+943400324+943228329+943025622+942812616+942626439+942495366
6342.56+942434301+942453000+942557696+942736827+942947574+943123633+943203759
6335.81+943156695+942982623+942694731+942298982+941790316+941163584+940429447
6329.05+939623043+938796404+937998401+937255050+936564362+935904569+935239898
6322.30+934515335+933649944+932551583+931156659+929469326+927563748+925545886
6315.55+923501556+921470777+919461225+917482929+915573377+913794085+912201331
6308.80+910815530+909611660+908539767+907556942+906645480+905805201+905035744
6302.05+904329880+903683276+903102705+902597110+902156194+901735964+901265509
6295.30+900676446+899935353+899064451+898132484+897217590+896361774+895551576
6288.55+894737945+893881496+892982772+892078898+891212784+890405296+889646498
6281.79+888906579+888157807+887397925+886665233+886032449+885577350+885345285
6275.04+885328573+885476719+885727755+886041934+886418171+886887000+887481302
6268.29+888197283+888967463+889665287+890149834+890330681+890219752+889938364
6261.54+889666552+889555171+889644239+889839901+889971607+889898979+889597989
6254.79+889165654+888744702+888424109+888179849+887884820+887378593+886558549
6248.04+885451426+884220185+883094002+882257426+881768092+881559061+881512088
6241.28+881540452+881623649+881785436+882050022+882408463+882808549+883168256
6234.53+883409445+883501675+883484602+883447566+883472949+883587672+883762648
6227.78+883955328+884156591+884404103+884757848+885258926+885895594+886595495
6221.03+887248423+887755373+888074339+888226641+888254283+888163498+887907133
6214.28+887424392+886698746+885780690+884754415+883683064+882580729+881428258
6207.53+880213368+878958279+877717553+876551804+875497074+874551105+873681558
6200.78+872845706+872000910+871100831+870091538+868925337+867590575+866129165
6194.02+864620150+863137692+861719733+860375485+859122835+858019687+857154657
6187.27+856598385+856346446+856293601+856261623+856066865+855586383+854783863
6180.52+853682521+852311625+850670814+848737413+846506636+844025727+841392425
6173.77+838716486+836069363+833458374+830839525+828163225+825418994+822649199
6167.02+819920144+817276996+814716142+812198105+809684134+807165555+804660978
6160.27+802190728+799753810+797325384+794870039+792354893+789751853+787033367
6153.52+784555799+781489170+778540063+775594028+772377536+768724553+764780788
6146.76+760958431+757714839+755348607+753939726+753361955+753290637+753246329
6140.01+752760291+751616990+749975546+748221051+746614069+745062597+743224769
6133.26+740853840+738077360+735356481+733152849+731589995+730376504+729046665
6126.51+727295376+725131536+722750083+720282407+717677470+714799952+711599449
6119.76+708154730+704559651+700803644+696802879+692537302+688157273+683946077
6113.01+680207143+677171994+674987874+673717835+673320685+673624476+674362227
6106.25+675261854+676131176+676861609+677372489+677564989+677356680+676773264
6099.50+675984971+675221656+674599441+674005501+673153976+671763703+669723303
6092.75+667117147+664138592+660996443+657873310+654927230+652302645+650139211
6086.00+648594198+647832645+647964350+648949750+650580444+652585794+654818514
6079.25+657358953+660434752+664190081+668456652+672702942+676216857+678426360
6072.50+679158827+678672292+677464809+676017130+674622431+673353025+672107330
6065.75+670689371+668911118+666725823+664321832+662065717+660277753+658976097
6058.99+657799959+656196185+653756919+650466624+646683517+642886543+639398419
6052.24+636254103+633269495+630191709+626826167+623087323+618999793+614671299
6045.49+610237206+605780078+601281126+596649023+591809334+586767750+581574859
6038.74+576220180+570561441+564388570+557595291+550336209+543031464+536178565
6031.99+530083607+524689002+519631700+514482033+508987248+503160308+497197146
6025.24+491333169+485754194+480579233+475874547+471655176+467897091+464570256
6018.49+461686280+459321765+457594188+456594246+456309787+456585890+457168313
6011.73+457817266+458424395+459038616+459781786+460725497+461819973+462917160
6004.98+463855631+464559371+465101686+465700505+466619825+467997045+469696527
5998.23+471312633+472348122+472471020+471671526+470220414+468471881+466666979
5991.48+464870072+463036671+461107742+459024885+456682908+453923094+450642872
5984.73+446938083+443125889+439581758+436524252+433922793+431586326+429316931
5977.98+427014249+424728910+422693975+421297289+420924123+421720952+423476712
5971.22+425751120+428159808+430553998+432968378+435452991+437989817+440552749
5964.47+443179863+445934482+448786797+451540061+453879102+455498369+456223699
5957.72+456057893+455124480+453531003+451258808+448199676+444356272+440045077
5950.97+435884422+432518699+430296639+429156815+428788663+428889520+429297193
5944.22+429947005+430772198+431676072+432579358+433456086+434308876+435109725
5937.47+435771912+436184283+436287895+436139252+435919246+435866581+436153615
5930.72+436756724+437409878+437705538+437341044+436377235+435317311+434880956
5923.96+435573631+437343257+439604070+441635482+443061572+444045029+445086480
5917.21+446658864+448997905+452142131+456054505+460639545+465682167+470868961
5910.46+475963661+480980312+486154595+491697528+497544883+503339122+508670540
5903.71+513387240+517716682+522097479+526832020+531808428+536515598+540355209
5896.96+543062268+544918117+546599714+548769607+551709318+555220704+558815150
5890.21+562025274+564652478+566837637+568942806+571315045+574078743+577094650
5883.46+580101751+582917029+585519572+587987022+590395620+592787371+595197956
5876.70+597646707+600082812+602369957+604381269+606123977+607748799+609410522
5869.95+611130601+612811204+614401384+616031762+617976589+620462558+623506604
5863.20+626908686+630396269+633794240+637098582+640428307+643911915+647591681
5856.45+651404056+655227994+658952791+662511195+665872536+669040610+672061306
5849.70+675022562+677999130+680961831+683745267+686133585+688016850+689487474
5842.95+690784929+692154244+693737107+695556100+697544740+699559033+701394287
5836.19+702871369+703979351+704944606+706130318+707797733+709924672+712204816
5829.44+714206283+715561235+716079702+715776725+714844396+713563743+712179794
5822.69+710795122+709370614+707827362+706153805+704411956+702649376+700838060
5815.94+698927921+696965072+695120830+693557705+692245616+690924494+689295968
5809.19+687299289+685225646+683563561+682712217+682792704+683663334+685049000
5802.44+686633037+688072812+689044164+689386301+689260512+689149447+689619631
5795.69+690987004+693112950+695471232+697430423+698570382+698854751+698603218
5788.93+698326799+698530184+699565086+701551647+704370855+707724382+711251892
5782.18+714671002+717866989+720883574+723823557+726731968+729547246+732137278
5775.43+734386348+736262116+737841952+739291709+740822449+742624008+744795934
5768.68+747294955+749951292+752562914+755021059+757368231+759732159+762181994
5761.93+764647186+766987808+769152552+771250629+773447983+775778398+778070511
5755.18+780065790+781615094+782759434+783637834+784360770+784977655+785538534
5748.42+786110794+786695521+787140502+787189282+786679983+785712696+784613522
5741.67+783693931+783018510+782376241+781477155+780190811+778633468+777059774
5734.92+775687523+774591872+773723229+772974909+772242487+771444665+770523177
5728.17+769425900+768089059+766449151+764493710+762311532+760082381+757990897
5721.42+756130034+754479602+752955230+751476928+750000433+748518789+747067722
5714.67+745729301+744615629+743833750+743470159+743592064+744241785+745396739
5707.92+746944508+748721045+750586424+752455236+754255260+755888935+757296597
5701.16+758562887+759922581+761592209+763560388+765546272+767189070+768293393
5694.41+768915969+769243788+769422919+769505754+769523550+769551282+769667451
5687.66+769839535+769862299+769428971+768301704+766455926+764102838+761567458
5680.91+759110396+756802294+754539900+752169061+749627493+747007018+744522540
5674.16+742434038+740968699+740257912+740285645+740875881+741765708+742754269
5667.41+743823859+745116661+746772287+748762146+750872012+752830345+754459097
5660.66+755720148+756662774+757370625+757956661+758574811+759396933+760563585
5653.90+762154171+764187029+766615906+769311086+772069499+774681663+777026080
5647.15+779108801+781024315+782883552+784769979+786730118+788769570+790850846
5640.40+792915410+794929388+796906148+798876495+800828052+802687379+804362969
5633.65+805799898+806991393+807932212+808578094+808857043+808728228+808243862
5626.90+807566183+806929514+806550567+806542076+806872695+807403944+807980812
5620.15+808509441+808965082+809325692+809500577+809328311+808678906+807596444
5613.39+806356351+805357808+804897651+804995301+805411195+805833683+806071982
5606.64+806095197+805915525+805468105+804611114+803230733+801339609+799081551
5599.89+796664778+794288564+792102683+790191414+788570114+787200573+786020190
5593.14+784950555+783885166+782690781+781267311+779642218+778018570+776708559
5586.39+775993843+776005405+776705216+777951452+779584856+781486369+783588783
5579.64+785846750+788188637+790496830+792652269+794624604+796511392+798451477
5572.89+800463016+802361909+803869931+804834056+805364854+805766294+806331238
5566.13+807184615+808288577+809547369+810892430+812276605+813624646+814813069
5559.38+815719653+816300314+816641322+816936079+817396688+818140581+819128916
5552.63+820195751+821142081+821841079+822286241+822584159+822897344+823367167
5545.88+824037258+824809788+825467052+825763073+825555217+824905541+824081251
5539.13+823419651+823121100+823103665+823054614+822666543+821871611+820881289
5532.38+819996566+819383204+819013832+818789354+818679599+818718442+818897302
5525.63+819090796+819128645+818939759+818647712+818518174+818791974+819506690
5518.87+820432695+821184718+821458518+821227175+820756449+820429894+820516885
5512.12+821034042+821753907+822325084+822442517+822008195+821206850+820411105
5505.37+819953839+819933152+820217160+820633686+821139281+821801784+822624719
5498.62+823434917+823974929+824117655+823994441+823895706+824039426+824391003
5491.87+824704098+824742941+824509249+824274202+824376730+824947907+825804265
5485.12+826606785+827144809+827490875+827892045+828528713+829368811+830238720
5478.36+831009171+831700671+832434086+833309053+834338309+835479307+836680377
5471.61+837889034+839038614+840072477+840999837+841913467+842918694+844027895
5464.86+845127791+846051357+846696065+847069141+847240322+847263809+847148092
5458.11+846888836+846521270+846140606+845875208+845827060+846018024+846382157
5451.36+846817744+847261370+847711139+848176806+848613838+848919073+849001457
5444.61+848846897+848514020+848094061+847707254+847542306+847849258+848826030
5437.86+850458531+852459591+854384139+855849975+856708862+857051135+857092507
5431.10+857055832+857128731+857468384+858176054+859227893+860430408+861484957
5424.35+862158661+862453961+862635711+863066510+863963879+865246339+866582637
5417.60+867589671+868051274+868008817+867691115+867342068+867070346+866827621
5410.85+866504318+866043619+865471449+864847699+864224852+863668128+863296317
5404.10+863247086+863567588+864130544+864686996+865031798+865143811+865179041
5397.35+865325109+865648412+866054188+866372251+866483451+866381827+866149128
5390.60+865886982+865665665+865504240+865348596+865048961+864388535+863201829
5383.84+861532653+859687508+858091953+857029003+856458188+856077163+855584215
5377.09+854921711+854298051+853972581+854014225+854248910+854437977+854508799
5370.34+854630748+855065973+855931094+857079680+858186532+858942169+859201606
5363.59+859008383+858535128+858006137+857626286+857503614+857590243+857700901
5356.84+857621137+857248151+856654934+856034254+855571026+855350162+855358111
5350.09+855553682+855923416+856467944+857146256+857847783+858449311+858914166
5343.33+859334034+859857876+860566811+861407270+862237342+862925951+863421519
5336.58+863743015+863935695+864041566+864097843+864141203+864213560+864364597
5329.83+864647520+865093495+865677860+866314438+866895100+867343062+867643329
5323.08+867835377+867989757+868192193+868513328+868972852+869518645+870054502
5316.33+870501831+870844013+871110677+871319979+871436599+871387187+871130008
5309.58+870720167+870318545+870109244+870183497+870469492+870772741+870902820
5302.83+870784665+870486113+870159378+869964710+870025324+870406982+871106251
5296.07+872048154+873110924+874172338+875137458+875926879+876457586+876659933
5289.32+876532292+876179270+875778100+875484337+875346760+875294728+875206924
5282.57+875001055+874676126+874287152+873891583+873518688+873174157+872844893
5275.82+872486812+872030088+871429463+870734801+870098946+869683955+869543487
5269.07+869585853+869655229+869637975+869486396+869161016+868579813+867659770
5262.32+866412088+864995755+863665870+862648629+862026052+861707628+861497874
5255.57+861231482+860875389+860529413+860327518+860320382+860436821+860528961
5248.81+860442783+860057151+859308922+858222214+856941832+855715830+854816383
5242.06+854439513+854651525+855390269+856492244+857725020+858834402+859615783
5235.31+859966999+859889041+859436833+858681829+857722942+856720696+855900200
5228.56+855483132+855593338+856193331+857100457+858076777+858934310+859593381
5221.81+860075669+860464373+860872498+861429041+862245110+863346994+864635777
5215.06+865919682+867018585+867861032+868495713+869029491+869562909+870164889
5208.30+870865603+871625395+872312740+872745797+872812644+872578952+872277872
5201.55+872175795+872422585+873006679+873832686+874829964+875978730+877251615
5194.80+878559097+879781846+880855998+881807387+882676572+883409987+883863550
5188.05+883946114+883771952+883641692+883835276+884397328+885116561+885707611
5181.30+886017544+886075357+885985295+885811133+885568317+885298402+885110418
5174.55+885126136+885378708+885767953+886108780+886229556+886050606+885601018
5167.80+884996147+884393625+883943133+883730489+883731212+883817841+883834463
5161.04+883703841+883486951+883344134+883420556+883741148+884184955+884564445
5154.29+884741407+884709430+884583144+884510064+884566342+884715572+884853330
5147.54+884895787+884833728+884709339+884551166+884337709+884004741+883486770
5140.79+882747845+881802599+880733235+879679228+878778335+878079428+877491178
5134.04+876840057+875994990+874972690+873928529+873051665+872444265+872078055
5127.29+871850957+871697842+871668755+871901995+872505511+873427451+874442886
5120.53+875286959+875836456+876177644+876498507+876907897+877346103+877657301
5113.78+877745376+877674103+877638873+877854408+878434437+879337136+880393854
5107.03+881398268+882215602+882836101+883342870+883826784+884327320+884844297
5100.28+885388644+885998032+886697843+887460526+888215078+888893571+889456166
5093.53+889873143+890101777+890102228+889874408+889459147+888890861+888155820
5086.78+887204070+886007969+884600126+883066811+881512901+880039477+878721606
5080.03+877577627+876540332+875486686+874323827+873073436+871871463+870879334
5073.27+870182323+869756583+869514129+869370951+869289832+869270500+869315757
5066.52+869392811+869435449+869382604+869234548+869060205+868941236+868900676
5059.77+868895527+868888391+868920279+869093989+869474201+870010419+870565968
5053.02+871028203+871386825+871711754+872061072+872426108+872760973+873052569
5046.27+873352204+873734765+874239456+874850198+875528691+876251266+876997237
5039.52+877708068+878282948+878640306+878808687+878946807+879261437+879869199
5032.77+880713814+881589955+882251555+882519935+882350199+881838823+881193754
5026.01+880663679+880441459+880585721+881016610+881594923+882220119+882869976
5019.26+883543319+884178813+884636531+884778625+884580434+884167431+883735186
5012.51+883413600+883181535+882893553+882395546+881646684+880755367+879913191
5005.76+879266134+878808507+878374366+877725141+876688930+875252271+873570900
4999.01+871893143+870448716+869346832+868533562+867838178+867092297+866251657
4992.26+865428451+864806236+864511208+864551225+864844808+865287892+865778943
4985.50+866211368+866483903+866552737+866475773+866394202+866457436+866743521
4978.75+867217047+867737185+868113242+868193729+867954617+867513882+867039271
4972.00+866614164+866180384+865611917+864843092+863912028+862891986+861806814
4965.25+860634832+859404313+858254101+857381754+856908228+856773722+856753668
4958.50+856575079+856048166+855136524+853939700+852613699+851285079+850003975
4951.75+848751957+847486932+846172494+844775221+843242990+841503444+839502475
4945.00+837261942+834904156+832612585+830537090+828707663+827018162+825300297
4938.24+823442415+821459150+819467937+817591085+815879362+814305939+812820320
4931.49+811385920+809971122+808526966+807001239+805383011+803721694+802084948
4924.74+800497252+798927262+797338121+795738231+794168060+792641068+791106398
4917.99+789476066+787685933+785737538+783701067+781700639+779883227+778366172
4911.24+777167361+776171257+775172714+773982756+772518997+770820011+768993565
4904.49+767153479+765374458+763679447+762044688+760420678+758756471+757009653
4897.74+755143641+753131154+750976844+748737756+746498939+744307547+742127537
4890.98+739866905+737461062+734938283+732412343+730016888+727833716+725859711
4884.23+724011134+722163414+720207476+718108223+715923200+713766225+711736981
4877.48+709863742+708095923+706337362+704492353+702495222+700316974+697952503
4870.73+695402850+692668737+689763803+686733713+683654211+680595079+677574112
4863.98+674535124+671363437+667936242+664174725+660075723+655708340+651174068
4857.23+646555063+641879012+637120533+632230619+627168349+621920761+616514141
4850.47+611022156+605556233+600224680+595070722+590036275+584984980+579773254
4843.72+574317222+568611871+562698933+556622539+550404140+544040034+537510302
4836.97+530788838+523862860+516756305+509538145+502291122+495051824+487777882
4830.22+480386282+472849516+465271874+457870698+450866717+444362911+438301782
4823.47+432525790+426892118+421366530+416040080+411059291+406512553+402356234
4816.72+398445712+394667212+391071320+387882289+385361045+383625068+382576706
4809.97+381994735+381700430+381659644+381957563+382703308+383959300+385735883
4803.21+388018195+390779047+393969388+397511532+401313880+405298475+409422183
4796.46+413682747+418109703+422737109+427557106+432470145+437279527+441759284
4789.71+445779470+449403501+452875591+456481600+460369855+464450791+468448575
4782.96+472070392+475174555+477831299+480246310+482616155+485023037+487429828
4776.21+489757081+491957778+494032549+495993456+497837562+499567307+501231379
4769.46+502929507+504762276+506769479+508914665+511122949+513327801+515488299
4762.71+517583983+519622667+521658550+523788515+526102761+528618674+531261371
4755.95+533903615+536432989+538784722+540936955+542898539+544719971+546499670
4749.20+548353532+550346688+552448153+554552554+556560344+558445100+560253299
4742.45+562044605+563829724+565557436+567146260+568527048+569659600+570525082
4735.70+571112473+571418747+571459985+571284016+570961436+570559589+570104039
4728.95+569558020+568831696+567826785+566489629+564848185+563003311+561077453
4722.20+559147982+557207084+555173550+552954290+550505268+547847666+545032885
4715.44+542089515+538999850+535717008+532201829+528450926+524508561+520464526
4708.69+516432913+512504956+508701931+504967694+501226772+497464306+493755272
4701.94+490206986+486868453+483694056+480596035+477529179+474514310+471575005
4695.19+468649160+465567760+462132255+458229863+453898388+449279699+444506902
4688.44+439607729+434500789+429078271+423295233+417193996+410849763+404308379
4681.69+397575578+390656329+383586315+376413614+369160720+361826391+354448589
4674.94+347174670+340274730+334084448+328918882+325007908+322462207+321256463
4668.18+321219833+322042609+323308177+324547390+325312534+325261360+324235402
4661.43+322293194+319677484+316729191+313799054+311195518+309164241+307873222
4654.68+307391430+307675302+308578995+309883406+311333592+312687302+313774213
4647.93+314544438+315063606+315444518+315760255+316002167+316102437+315980510
4641.18+315562425+314762299+313464054+311539800+308903156+305567807+301681088
4634.43+297514720+293412511+289714113+286691769+284531113+283350301+283213582
4627.68+284105305+285876129+288219100+290707146+292869270+294247415+294412002
4620.92+292978234+289684416+284542811+277982592+270870369+264338357+259474075
4614.17+257018865+257221617+259886491+264532189+270546412+277288653+284171949
4607.42+290755587+296813328+302309920+307280275+311698312+315445873+318400083
4600.67+320552722+322053020+323146955+324072599+324995149+326010335+327186202
4593.92+328595851+330314010+332386636+334799322+337465392+340238303+342938294
4587.17+345379999+347395602+348852157+349656596+349746816+349071373+347575049
4580.41+345198881+341895239+337653669+332541106+326763759+320727494+315044116
4573.66+310437555+307567535+306848077+308344739+311782841+316634815+322241094
4566.91+327935064+333156997+337544185+340975061+343554546+345543886+347254050
4560.16+348936437+350712342+352571940+354440459+356263788+358050194+359843217
4553.41+361655774+363432153+365071722+366495147+367697165+368750721+369767059
4546.66+370848505+372060211+373425823+374936690+376565148+378280778+380065129
4539.91+381917816+383850178+385868311+387954239+390049155+392043530+393781631
4533.15+395092094+395838245+395963131+395497554+394532525+393183219+391580844
4526.40+389894956+388345788+387174167+386569116+386593189+387153029+388029712
4519.65+388947362+389638952+389887323+389551329+388593888+387111611+385326357
4512.90+383513100+381890129+380550985+379502127+378771716+378484886+378825238
4506.15+379909123+381679382+383904423+386273545+388511775+390447569+392019005
4499.40+393244916+394189620+394938979+395588565+396231691+396939542+397744817
4492.64+398654652+399700078+400975853+402610296+404666414+407056042+409555560
4485.89+411920437+413991279+415704493+417022815+417886129+418246965+418150669
4479.14+417765805+417326831+417033474+416983204+417172271+417540108+418017067
4472.39+418554368+419138372+419791887+420560713+421482472+422546597+423669889
4465.64+424711566+425529397+426041586+426248404+426201205+425948679+425512144
4458.89+424906821+424181401+423431862+422775546+422302110+422034227+421912187
4452.14+421809027+421570999+421070734+420252451+419149031+417867159+416549424
4445.38+415330152+414303019+413509759+412954797+412627429+412507603+412547575
4438.63+412650690+412677610+412484432+411964294+411061278+409755197+408040402
4431.88+405920554+403414306+400565379+397449789+394180903+390902713+387763410
4425.13+384878621+382305842+380046113+378064927+376313480+374740125+373304076
4418.38+371991513+370824725+369846733+369084795+368521026+368094834+367738718
4411.63+367419300+367155279+367002142+367020909+367255142+367723588+368421795
4404.88+369323817+370385615+371558885+372808621+374118881+375481421+376886531
4398.12+378334639+379858175+381519402+383367844+385389184+387494940+389560317
4391.37+391471992+393135613+394450638+395297647+395570588+395235723+394365996
4384.62+393118721+391664718+390111395+388462860+386633297+384503196+381980237
4377.87+379032124+375689549+372036815+368201021+364325954+360521732+356810281
4371.12+353114955+349306171+345268031+340927681+336236974+331144668+325602774
4364.37+319609599+313256604+306752933+300417553+294635463+289773982+286078407
4357.61+283600772+282212871+281703889+281899076+282726821+284204469+286372577
4350.86+289227195+292686932+296603100+300807295+305176913+309689912+314435226
4344.11+319570620+325244287+331524700+338366600+345622769+353079048+360494880
4337.36+367639533+374326354+380441773+385955663+390901855+395334457+399287075
4330.61+402761920+405751947+408272965+410377547+412135882+413595936+414750168
4323.86+415536699+415874364+415710726+415051881+413961063+412539851+410912816
4317.11+409216676+407585304+406125294+404903087+403957841+403334497+403105096
4310.35+403357306+404156258+405503351+407312001+409412563+411591534+413655872
4303.60+415493204+417086184+418472346+419686197+420731262+421595614+422274016
4296.85+422764209+423043429+423062941+422777714+422193213+421387080+420493144
4290.10+419657923+418993207+418544025+418282691+418134816+418025693+417917745
4283.35+417810113+417701443+417545302+417232794+416616406+415549391+413915761
4276.60+411629022+408611172+404777524+400045060+394365499+387768424+380403562
4269.85+372577775+364775339+357633623+351838119+347949932+346231005+346558688
4263.09+348473209+351329995+354487432+357465671+360041408+362259267+364355539
4256.34+366618271+369243985+372256392+375511615+378758030+381704766+384075153
4249.59+385656480+386349290+386194052+385347043+384016210+382406519+380715979
4242.84+379170830+378043586+377607480+378042660+379358407+381387380+383855779
4236.09+386487409+389083313+391547421+393859362+396016473+397982483+399668552
4229.34+400954173+401733974+401956555+401636098+400831591+399605996+397985645
4222.58+395940006+393400605+390316406+386713649+382717400+378519935+374321047
4215.83+370284081+366517143+363058693+359845543+356693413+353339930+349567098
4209.08+345343030+340892473+336644896+333100765+330698310+329742607+330386818
4202.33+332624167+336272023+340977793+346285024+351751173+357059307+362060918
4195.58+366738075+371124111+375234834+379035827+382446220+385373240+387761287
4188.83+389628022+391051718+392114894+392852238+393256479+393342837+393208828
4182.08+393026807+392968542+393127031+393496991+394014329+394604701+395196338
4175.32+395699358+395990366+395935354+395442902+394505560+393196407+391617203
4168.57+389840982+387892406+385774003+383500137+381098811+378584659+375944966
4161.82+373169141+370294672+367412232+364605513+361872732+359104337+356145678
4155.07+352892533+349345737+345589775+341732640+337865048+334065636+330425142
4148.32+327048602+324022306+321370282+319038942+316928376+314949696+313070427
4141.57+311315209+309725436+308312670+307045500+305881444+304817997+303921599
4134.82+303312889+303122941+303450850+304343703+305797299+307766697+310177079
4128.06+312928898+315889612+318879075+321674728+324064085+325933958+327336990
4121.31+328474014+329585766+330820824+332164146+333458010+334481868+335034007
4114.56+334985024+334301518+333048462+331365578+329423234+327375992+325336043
4107.81+323377101+321551378+319900223+318448728+317190251+316076060+315017694
4101.06+313905354+312633486+311123816+309337116+307270768+304942566+302365971
4094.31+299525039+296359201+292763715+288604416+283741172+278064411+271553695
4087.55+264347006+256775846+249311301+242422315+236419631+231384371+227213486
4080.80+223716396+220662933+217748537+214543110+210522698+205222400+198447888
4074.05+190438838+181895433+173846354+167391757+163399449+162252534+163741112
4067.30+167136554+171411988+175515191+178597404+180146583+180018163+178378910
4060.55+175588395+172064183+168191487+164315111+160787331+157990108+156261380
4053.80+155735122+156190051+157024989+157420253+156647170+154406535+151043523
4047.05+147520338+145121360+144997988+147755577+153273182+160814905+169336065
4040.29+177812273+185457009+191784982+196557170+199682358+201153298+201065155
4033.54+199705348+197642997+195721114+194901928+196003405+199440694+205096656
4026.79+212382454+220457402+228504844+235947889+242528817+248250293+253238467
4020.04+257610863+261409959+264614686+267196204+269168515+270603638+271609408
4013.29+272291604+272719399+272898733+272752303+272112021+270745348+268436998
4006.54+265119919+261004205+256628874+252776300+250255983+249643931+251105973
3999.78+254393648+259000209+264372638+270062317+275765387+281290050+286513723
3993.03+291363687+295811737+299863178+303547416+306920456+310076696+313141971
3986.28+316235633+319421841+322686414+325956948+329145731+332184606+335032901
3979.53+337667761+340071277+342221093+344081076+345595195+346691546+347306601
3972.78+347420399+347082688+346408577+345538307+344585225+343602062+342586152
3966.03+341509652+340343225+339057378+337609970+335948811+334043978+331933277
3959.28+329748140+327693603+325983664+324762066+324046244+323729062+323639000
3952.52+323626827+323633421+323707043+323970138+324561730+325586808+327086248
3945.77+329027146+331310271+333797053+336353639+338896495+341410353+343926832
3939.02+346476937+349047683+351561248+353885588+355870275+357395685+358410488
3932.27+358932839+359008923+358658340+357850445+356531829+354681761+352355186
3925.52+349689116+346874380+344111811+341564123+339315031+337348117+335562208
3918.77+333826682+332050981+330224331+328399782+326640364+324970623+323365538
3912.02+321776285+320168671+318549110+316964712+315479658+314146950+312991092
3905.26+312010119+311194930+310549116+310098647+309888623+309975794+310423982
3898.51+311291790+312604421+314317070+316296473+318341999+320238521+321816890
3891.76+322991717+323762756+324181631+324309046+324186509+323833555+323265901
3885.01+322513516+321618428+320613810+319510481+318318196+317094611+315983988
3878.26+315203938+314980048+315467169+316699742+318602317+321055562+323961218
3871.51+327244828+330805151+334484353+338110099+341567398+344815665+347841893
3864.75+350608346+353048109+355100343+356744790+358010515+358973128+359747486
3858.00+360466290+361232292+362058638+362837693+363388093+363584771+363470206
3851.25+363236921+363119352+363308080+363923520+365015445+366561135+368464816
3844.50+370576196+372735361+374818986+376752476+378474226+379890605+380880385
3837.75+381363939+381378121+381071395+380615754+380116664+379586634+378986460
3831.00+378286853+377499915+376664876+375819222+374994300+374234575+373612857
3824.25+373217040+373121852+373371645+373986882+374980298+376351465+378042818
3817.49+379880623+381559103+382717762+383075481+382514467+381063491+378843463
3810.74+376037219+372892292+369735487+366972016+365031140+364262495+364857249
3803.99+366839452+370074463+374255781+378937726+383676287+388186350+392374285
3797.24+396247635+399814033+403039062+405855289+408185252+409954878+411103509
3790.49+411600929+411462945+410751029+409551315+407952824+406054744+404002420
3783.74+402018749+400385571+399372711+399150175+399743393+401057921+402953426
3776.99+405301863+407991939+410900485+413874795+416746034+419367096+421647195
3770.23+423567045+425162103+426472656+427492472+428158724+428391061+428143819
3763.48+427425264+426272071+424719832+422815609+420665409+418458931+416421919
3756.73+414720720+413395623+412370432+411523152+410770586+410115581+409631666
3749.98+409400368+409446619+409714727+410075563+410350537+410365804+410046295
3743.23+409480900+408873906+408410407+408143653+407958515+407612539+406833551
3736.48+405429232+403333142+400570122+397201779+393316866+389049348+384560422
3729.72+379973576+375331446+370636132+365944137+361423776+357313934+353829400
3722.97+351102355+349193277+348126939+347902868+348474903+349729314+351492324
3716.22+353570980+355799115+358056405+360255249+362322252+364199420+365862657
3709.47+367329916+368649931+369891064+371145949+372545052+374250293+376413208
3702.72+379108907+382288498+385792341+389419623+393006256+396462312+399757304
3695.97+402881702+405817304+408533260+410995200+413162563+414968639+416306563
3689.22+417051676+417117981+416497302+415242936+413420193+411080384+408283579
3682.46+405149696+401894315+398808445+396185125+394231128+392998894+392360419
3675.71+392038381+391684501+390942595+389444239+386784334+382575216+376596516
3668.96+368927593+359957963+350330391+340906227+332696592+326637789+323252712
3662.21+322409294+323348646+324952579+326067539+325732199+323298963+318507806
3655.46+311508228+302774548+292967642+282888992+273568417+266328780+262593052
3648.71+263398260+268925542+278423757+290564871+303934607+317377399+330115909
3641.96+341711614+351968221+360847451+368415652+374803064+380155552+384589464
3635.20+388176639+390969243+393023510+394377829+394991643+394706100+393292748
3628.45+390575797+386538718+381360641+375436051+369431742+364317260+361250065
3621.70+361283782+364995888+372219446+382066505+393279604+404683848+415433493
3614.95+424982882+432960925+439123543+443386094+445838232+446696126+446243783
3608.20+444823068+442860626+440866883+439364416+438769121+439278193+440821490
3601.45+443109810+445767727+448479935+451069741+453472377+455647825+457520612
3594.69+459011470+460137067+461079196+462144586+463625327+465647253+468090991
3587.94+470623029+472811576+474259842+474693893+473992275+472186606+469447569
3581.19+466058405+462374574+458788122+455706180+453528519+452601837+453147087
3574.44+455195798+458577826+462970321+467975545+473185148+478210879+482713128
3567.69+486456218+489374430+491584611+493314220+494786786+496137447+497397956
3560.94+498528340+499456875+500100589+500366168+500146704+499329008+497824012
3554.19+495613199+492798237+489623072+486457889+483743829+481919506+481336180
3547.43+482168961+484346080+487541706+491263251+495000334+498360140+501126096
3540.68+503235691+504714716+505617957+506001963+505928974+505479521+504750126
3533.93+503825115+502748615+501524104+500155647+498695818+497249765+495923538
3527.18+494760770+493735218+492813413+492021824+491447215+491165737+491170298
3520.43+491369347+491649335+491943821+492252354+492616758+493082109+493665436
3513.68+494333314+494994552+495520924+495796349+495762474+495424312+494817274
3506.93+493967916+492880305+491545271+489950530+488087363+485964308+483632629
3500.17+481197338+478797005+476555207+474537526+472740619+471115706+469604704
3493.42+468168181+466791955+465472233+464194606+462930755+461660626+460400207
3486.67+459200222+458106197+457112351+456154865+455145799+454016318+452732639
3479.92+451286315+449687237+447967159+446180821+444383959+442597169+440786712
3473.17+438882083+436820409+434588232+432232659+429831469+427440260+425052484
3466.42+422607346+420041658+417345711+414577948+411837014+409231942+406879079
3459.66+404910268+403445923+402527460+402059851+401823901+401557011+401043332
3452.91+400155899+398849501+397148618+395149952+393019761+390947654+389070169
3446.16+387414318+385906657+384434995+382904480+381248945+379411659+377337993
3439.41+375005004+372464046+369853395+367358190+365138885+363264653+361684478
3432.66+360246622+358760461+357075996+355144086+353021235+350816383+348617674
3425.91+346450085+344284009+342072292+339780698+337396287+334925404+332390520
3419.16+329823478+327249299+324671507+322074362+319443792+316787320+314134123
3412.40+311516878+308950829+306428953+303931151+301440418+298957069+296503259
3405.65+294111283+291802232+289568067+287372497+285169701+282922370+280604060
3398.90+278191262+275662543+273011717+270263489+267470997+264690791+261952184
3392.15+259242483+256517900+253728909+250840506+247836884+244714541+241475104
3385.40+238123992+234671166+231126447+227493022+223766102+219943248+216036159
3378.65+212072453+208085464+204105250+200157804+196270452+192467562+188755694
3371.89+185111858+181491633+177854538+174189281+170518164+166879376+163301009
3365.14+159786868+156325517+152915587+149585862+146390439+143378292+140562077
3358.39+137913475+135385253+132937699+130545542+128190376+125858233+123549510
3351.64+121286495+119104012+117031160+115083442+113269112+111595351+110062161
3344.89+108654273+107346283+106116668+104952488+103838771+102751002+101667027
3338.14+100587252+99536011+98537864+97594977+96691804+95820202+94992005
3331.39+94223609+93510084+92819278+92112461+91368426+90589495+89788703+88977302
3323.67+88165444+87371862+86626596+85957595+85367663+84822169+84262781+83642102
3315.95+82954915+82241740+81565450+80980520+80514328+80160329+79875989+79587284
3308.24+79210612+78688588+78017186+77242630+76434747+75661733+74979277+74421837
3300.52+73984257+73608838+73206223+72709775+72121796+71507339+70940702+70452513
3292.81+70019535+69591384+69118801+68565403+67913988+67181668+66430147+65745851
3285.09+65191900+64769734+64427275+64107716+63794469+63511664+63283505+63092970
3277.37+62878598+62572566+62149028+61642902+61123583+60643592+60202913+59758412
3269.66+59270206+58742841+58225419+57773544+57411455+57128944+56908305+56746343
3261.94+56646090+56590422+56530876+56408655+56190862+55890860+55558383+55250387
3254.23+55003596+54821349+54675919+54522482+54319453+54047640+53719663+53375748
3246.51+53070179+52855113+52766298+52809924+52953542+53128817+53254063+53270916
3238.79+53175479+53020710+52884437+52822203+52838136+52894724+52952887+53007815
3231.08+53090002+53232129+53433956+53659648+53869526+54054985+54241890+54461101
3223.36+54716360+54980832+55222327+55429122+55613266+55791951+55967728+56123784
3215.65+56233945+56278056+56254061+56182416+56099507+56042569+56035162+56083868
3207.93+56186328+56336259+56516581+56689490+56803061+56818677+56737959+56602708
3200.21+56466723+56366803+56318779+56335706+56440927+56657676+56984394+57380809
3192.50+57780246+58117826+58354364+58481699+58513034+58468771+58368286+58229602
3184.78+58073772+57928415+57827253+57802998+57876829+58048428+58294591+58579158
3177.07+58868912+59141973+59382840+59572952+59694484+59749463+59772871+59815045
3169.35+59899518+59995051+60035763+59978367+59847046+59726643+59712952+59861770
3161.63+60169467+60584192+61028784+61422930+61705283+61851781+61881359+61842415
3153.92+61786944+61745419+61714463+61662076+61549803+61360628+61113578+60851545
3146.20+60612557+60409844+60236438+60081217+59935420+59787352+59625678+59459697
3138.49+59335427+59318405+59447886+59702044+60009690+60299976+60547528+60777099
3130.77+61030331+61324862+61637104+61916928+62120601+62236374+62286470+62309318
3123.05+62342002+62414240+62544755+62725861+62904315+62988240+62893266+62598040
3115.34+62159343+61670516+61200733+60765982+60346351+59919792+59481591+59043097
3107.62+58623297+58239787+57899502+57593781+57306239+57030159+56775747+56553504
3099.91+56348098+56111804+55791669+55369519+54882544+54407945+54024408+53774292
3092.19+53645884+53583243+53520106+53423241+53319261+53282456+53383291+53628477
3084.47+53938648+54188216+54285442+54234494+54130589+54091875+54184021+54396383
3076.76+54678866+54995901+55348364+55752746+56206077+56669125+57076420+57360281
3069.04+57473807+57401253+57151651+56740003+56175082+55470771+54676099+53892041
3061.33+53247074+52839265+52687246+52728285+52865337+53027056+53200123+53416048
3053.61+53706215+54058751+54409114+54672463+54794978+54786187+54710900+54652110
3045.89+54673530+54800460+55017276+55275511+55510422+55664739+55705920+55622875
3038.18+55408312+55049932+54548283+53943497+53318584+52766682+52349411+52083775
3030.46+51964484+51990060+52161292+52455406+52811041+53149768+53421022+53631125
3022.75+53831422+54076857+54389263+54749376+55115203+55447268+55725149+55949616
3015.03+56131965+56277153+56373199+56399221+56349521+56253130+56165970+56139028
3007.31+56191353+56314737+56503545+56775634+57160905+57667809+58260756+58869336
2999.60+59420204+59865999+60195805+60428226+60598250+60743834+60895271+61066600
2991.88+61249637+61411875+61501373+61461864+61257818+60897310+60436074+59953684
2984.17+59514416+59140341+58818117+58533088+58300164+58163332+58164506+58310687
2976.45+58568967+58888628+59226287+59551995+59841180+60071738+60232904+60332140
2968.73+60385454+60399015+60364920+60280628+60174243+60108266+60154579+60356474
2961.02+60702856+61126564+61527812+61814417+61942554+61935954+61868826+61823670
2953.30+61853294+61970919+62165107+62416600+62702606+62995489+63268707+63508604
2945.59+63716624+63894089+64022887+64064819+63988041+63802333+63570843+63383475
2937.87+63307765+63354416+63484818+63650856+63830467+64027325+64240794+64441299
2930.15+64579193+64617404+64554532+64417254+64237920+64044409+63868881+63753762
2922.44+63736656+63822630+63972278+64118443+64196734+64164129+63998249+63688480
2914.72+63234042+62647938+61959351+61209676+60445627+59712274+59045757+58467167
2907.01+57983156+57596101+57317390+57170344+57177057+57339267+57630795+58009884
2899.29+58441586+58913210+59432236+60010910+60651773+61342206+62057616+62766511
2891.57+63433678+64023390+64506684+64869676+65116822+65264110+65325322+65298324
2883.86+65159166+64865803+64371754+63646537+62696119+61572776+60367319+59187540
2876.14+58136734+57302694+56754976+56537758+56651883+57035883+57568855+58106975
2868.43+58540794+58840181+59058369+59293580+59635909+60132154+60783049+61562184
2860.71+62438337+63390934+64418010+65536747+66770799+68126429+69571562+71036895
2852.99+72443445+73738054+74912018+75991341+77009763+77983650+78900312+79719983
2845.28+80386111+80840340+81041484+80984743+80713191+80310807+79874267+79473323
2837.56+79123225+78786068+78400047+77915533+77315806+76615718+75848400+75050471
2829.85+74251259+73466394+72701668+71967632+71295327+70736142+70340506+70130933
2822.13+70094195+70198779+70422353+70764134+71234330+71831951+72529600+73277011
2814.41+74021977+74738720+75450116+76230526+77183581+78400871+79919360+81698240
2806.70+83629337+85578094+87433232+89133522+90653851+91963829+92998138+93670200
2798.98+93922924+93773874+93315907+92673193+91948438+91199069+90449382+89719095
2791.27+89044030+88476817+88069352+87844632+87774635+87782680+87778491+87706230
2783.55+87571075+87423894+87321625+87300685+87383560+87601918+88004815+88640608
2775.83+89531739+90668164+92024205+93580962+95334345+97283306+99409420
2769.08+101662600+103962437+106215289+108336718+110266472+111970415+113435065
2762.33+114665820+115690334+116558311+117327950+118043580+118717533+119329360
2755.58+119842802+120232781+120512735+120750266+121059251+121565229+122358467
2748.83+123461695+124831958+126393694+128079074+129850100+131690559+133576546
2742.08+135444060+137175927+138617893+139617723+140069761+139946908+139315107
2735.32+138330995+137224368+136263461+135705868+135748099+136488119+137909929
2728.57+139892685+142246914+144775192+147336306+149880122+152430825+155036609
2721.82+157724088+160486883+163298897+166123615+168904826+171551508+173937986
2715.07+175922684+177376032+178204420+178364965+177867026+176759700+175110329
2708.32+172991057+170484527+167700165+164777651+161862634+159068415+156457324
2701.57+154062965+151941863+150213508+149054545+148642467+149080357+150341894
2694.82+152260457+154558148+156899030+158952800+160462041+161299983+161498682
2688.06+161229331+160740843+160284536+160058737+160185712+160708967+161595801
2681.31+162744218+164004749+165223253+166290900+167175917+167922317+168618041
2674.56+169351512+170175407+171088743+172041227+172957171+173768938+174444484
2667.81+174996600+175474722+175950936+176510222+177241955+178225265+179506697
2661.06+181085517+182919190+184947034+187116136+189396224+191785750+194313498
2654.31+197034784+200012481+203285747+206841893+210611653+214488865+218362215
2647.55+222138389+225749434+229142257+232258299+235013415+237289043+238941281
2640.80+239819794+239785761+238722269+236541784+233193947+228673722+223032552
2634.05+216411493+209109910+201660519+194832326+189490723+186329560+185607651
2627.30+187053320+190005239+193704833+197562578+201264611+204711114+207882576
2620.55+210739249+213201098+215187276+216669914+217709400+218457020+219126772
2613.80+219941464+221068506+222565642+224361443+226281587+228109749+229655056
2607.05+230790747+231458806+231659707+231457857+231004453+230546057+230379867
2600.29+230755314+231770884+233326195+235156842+236928004+238334514+239161152
2593.54+239290306+238671998+237287710+235127574+232176887+228399990+223731708
2586.79+218119445+211647345+204694990+198001958+192522846+189093980+188093699
2580.04+189312078+192102503+195692140+199439204+202916624+205856539+208075550
2573.29+209465258+210039731+209978937+209618485+209380141+209668236+210767207
2566.54+212771293+215569520+218887977+222367226+225635524+228350171+230206291
2559.79+230938013+230336326+228296107+224878916+220365217+215261394+210236274
2553.03+205985580+203063009+201742812+201973817+203436559+205662232+208150888
2546.28+210449370+212190202+213114152+213091547+212141106+210435436+208282865
2539.53+206086166+204280632+203262554+203319532+204573830+206950044+210178280
2532.78+213839821+217452289+220568873+222855363+224117860+224284750+223366288
2526.03+221419202+218526847+214797850+210379971+205480369+200372436+195371886
2519.28+190779800+186820306+183599399+181097848+179182932+177626401+176133104
2512.52+174393141+172154956+169290085+165817329+161876308+157668658+153395549
2505.77+149211419+145202649+141395953+137796030+134438166+131427498+128937860
2499.02+127166156+126268131+126309820+127257516+128999309+131376471+134203436
2492.27+137273385+140358240+143222456+145661044+147562117+148968502+150097034
2485.52+151284215+152867857+155061869+157892492+161220997+164817849+168428691
2478.77+171804034+174712954+176970865+178481054+179257118+179404327+179074713
2472.02+178431563+177638946+176863357+176269484+176009923+176217193+176994430
2465.26+178392889+180376865+182803552+185442387+188030420+190332809+192182629
2458.51+193502735+194321289+194774016+195069676+195406009+195872377+196400035
2451.76+196803553+196895016+196604143+196030889+195404564+194977966+194915523
2445.01+195228324+195775765+196326301+196652787+196629436+196291048+195824658
2438.26+195494107+195538912+196100423+197203052+198774149+200665409+202659287
2431.51+204475006+205794367+206310960+205785175+204090413+201247132+197442118
2424.76+193021914+188448719+184221241+180782980+178447450+177357762+177481349
2418.00+178630285+180499775+182721157+184928177+186826200+188244476+189144951
2411.25+189582976+189646458+189418265+188986461+188480991+188089430+188023284
2404.50+188452976+189456352+191008366+193005835+195303007+197747128+200214059
2397.75+202639707+205028590+207425626+209866902+212346208+214825311+217275756
2391.00+219712944+222189134+224747301+227368769+229944867+232281266+234122730
2384.25+235190671+235239903+234145359+232003040+229195418+226357038+224213816
2377.49+223339956+223943065+225792614+228339466+230970894+233272379+235167411
2370.74+236883582+238782589+241150401+244046843+247265120+250391076+252908164
2363.99+254299046+254136650+252188570+248538185+243661640+238362833+233526735
2357.24+229778496+227231892+225472970+223780104+221437743+217970124+213202047
2350.49+207176871+200042539+191999433+183328636+174446144+165907922+158328383
2343.74+152251311+148048696+145880644+145686563+147181679+149873370+153128671
2336.99+156297897+158860118+160538497+161339627+161509126+161426743+161485707
2330.23+161996666+163138623+164959909+167408683+170363322+173633845+176933839
2323.48+179855575+181905866+182642059+181881544+179878678+177336014+175189326
2316.73+174249443+174895743+176994408+180070286+183600166+187243980+190907712
2309.98+194660851+198606716+202793658+207191640+211713582+216246387+220670995
2303.23+224865118+228698089+232033799+234751043+236776402+238108794+238820732
2296.48+239035025+238890943+238510483+237970697+237284888+236403936+235248394
2289.72+233770205+232016816+230159138+228455703+227165994+226458595+226369210
2282.97+226827651+227724388+228961772+230452359+232080049+233675672+235053772
2276.22+236102336+236868248+237567698+238496345+239880724+241754707+243931149
2269.47+246077600+247848175+248999742+249444543+249232463+248479378+247271759
2262.72+245584427+243252883+240036864+235765890+230506988+224665820+218960424
2255.97+214269830+211419232+210980009+213145679+217707955+224129671+231686603
2249.22+239635514+247357282+254434004+260646396+265909431+270191222+273462344
2242.46+275700325+276932198+277270247+276899633+276020217+274781547+273258394
2235.71+271478334+269476371+267337711+265208671+263277371+261733758+260714642
2228.96+260248478+260223230+260400938+260478128+260161058+259219674+257500182
2222.21+254906469+251371326+246838251+241259320+234614414+226950504+218432426
2215.46+209381971+200273747+191668362+184093058+177911255+173235352+169918273
2208.71+167628825+165981611+164677878+163609880+162897874+162844860+163826815
2201.96+166155412+169964750+175163140+181463912+188477219+195818019+203180780
2195.20+210353526+217186416+223560798+229397019+234692958+239543194+244096843
2188.45+248466844+252651460+256519797+259868198+262510081+264364553+265521089
2181.70+266265885+267041689+268329027+270482705+273594682+277450349+281592169
2174.95+285454950+288519683+290440008+291109354+290648813+289319425+287397091
2168.20+285068099+282392566+279347887+275924148+272222679+268504386+265156369
2161.45+262582867+261071752+260703102+261342706+262715883+264522185+266539505
2154.69+268681439+270986335+273544841+276403411+279497547+282648977+285620012
2147.94+288181386+290156655+291435886+291969461+291756117+290829389+289252579
2141.19+287135870+284675037+282185636+280087151+278811444+278659097+279669541
2134.44+281578619+283897110+286079965+287704517+288568666+288670924+288101057
2127.69+286926252+285149195+282758867+279821391+276528477+273152140+269932373
2120.94+266978208+264262590+261713411+259330693+257237764+255632228+254676549
2114.19+254404872+254697167+255323153+256023755+256591182+256919317+257015342
2107.43+256980563+256979344+257205741+257840061+258987563+260611617+262501387
2100.68+264303307+265611331+266071895+265459933+263703044+260863579+257107165
2093.93+252690077+247982343+243497798+239873000+237745519+237560584+239406791
2087.18+242983148+247721370+252986506+258250851+263172427+267578449+271397621
2080.43+274596973+277158641+279102452+280525786+281618456+282626710+283779135
2073.68+285211503+286925755+288795086+290609383+292147011+293249075+293872848
2066.93+294103266+294119119+294127114+294283887+294631353+295075318+295424320
2060.17+295478769+295123895+294372752+293341193+292179260+291005268+289867928
2053.42+288736912+287511723+286048710+284207743+281910165+279182058+276160527
2046.67+273057696+270104660+267505392+265416460+263942833+263125815+262917665
2039.92+263163190+263618514+264011531+264117718+263813837+263093837+262057377
2033.17+260882865+259787802+258974352+258570337+258592920+258956714+259524277
2026.42+260174337+260849555+261560928+262349943+263232498+264159362+265013100
2019.66+265634750+265857738+265531093+264538851+262838126+260525146+257905123
2012.91+255511972+254020481+254044600+255898192+259447200+264150599+269278248
2006.16+274184106+278490174+282108965+285137000+287716012+289943221+291860542
1999.41+293493743+294890384+296111304+297166847+297925668+298049357+296996162
1992.66+294117222+288851725+280992990+270946678+259848009+249407980+241456766
1985.91+237328089+237367294+240817094+246133381+251553302+255640110+257594016
1979.16+257270330+254972977+251160918+246196682+240218931+233156979+224849513
1972.40+215202158+204327650+192626797+180785431+169667971+160110103+152666459
1965.65+147418137+143940457+141452671+139077734+136098185+132118456+127096452
1958.90+121253275+114913299+108361978+101801725+95415397+89464452+84323236
1952.15+80411500+78075598+77506087+78734341+81681714+86204402+92099662+99069598
1944.43+106659751+114211117+120889176+125830919+128366412+128194712+125426791
1937.68+120528611+114266695+107705978+102184726+99136761+99725778+104432734
1930.93+112832938+123703472+135390018+146216390+154742620+159824797+160595034
1924.18+156547262+147801906+135398047+121332599+108187319+98439547+93739767
1917.43+94492118+99957404+108782829+119582789+131250547+142977506+154148036
1910.68+164244809+172797597+179371705+183607258+185308547+184531783+181602720
1903.92+177037147+171408601+165242596+158990198+153068464+147900426+143890266
1897.17+141319667+140217106+140281287+140919796+141397071+141026242+139331175
1890.42+136139275+131593429+126085274+120139671+114313623+109154730+105200950
1883.67+102960439+102836784+105025929+109448098+115762216+123463389+132016944
1876.92+140962772+149944981+158677905+166900559+174365431+180862349+186248294
1870.17+190459976+193509510+195469897+196452632+196579911+195963320+194699356
1863.42+192878917+190597598+187955602+185054327+182000016+178916042+175948847
1856.66+173257258+170988744+169256617+168127114+167613592+167672761+168204010
1849.91+169058279+170057465+171015629+171745521+172052462+171738678+170644315
1843.16+168716538+166058733+162922784+159648083+156569021+153910990+151715037
1836.41+149839020+148038590+146067363+143732985+140913552+137584131+133874183
1829.66+130099036+126690642+124037343+122330170+121499760+121256550+121200633
1822.91+120949022+120227960+118908475+117003213+114643858+112042546+109436908
1816.16+107037660+105004746+103454934+102473035+102094133+102260019+102791923
1809.40+103420833+103872364+103967597+103705846+103312445+103228029+104006904
1802.65+106121817+109746469+114642379+120239523+125872325+131025866+135456797
1795.90+139160603+142252933+144855160+147035554+148814947+150210978+151277903
1789.15+152109013+152803958+153429187+153998997+154487598+154862368+155112873
1782.40+155255712+155314113+155290220+155150124+154833958+154283027+153460251
1775.65+152346511+150920455+149151179+147019248+144543747+141777679+138774767
1768.89+135575608+132237290+128872278+125647181+122742395+120320416+118527766
1762.14+117506437+117387186+118268758+120198387+123143869+126954358+131350263
1755.39+135983620+140537822+144786066+148578647+151806363+154392263+156310860
1748.64+157598051+158334131+158613881+158518591+158088729+157301555+156078331
1741.89+154341078+152097530+149486608+146722719+143971453+141278452+138631126
1735.14+136110956+133998029+132697514+132521195+133527653+135529526+138185389
1728.39+141094658+143889668+146309083+148212482+149544546+150303186+150543145
1721.63+150390628+150032209+149671114+149459339+149424041+149434362+149252702
1714.88+148642411+147450296+145627192+143217070+140342940+137179586+133893830
1708.13+130574640+127205518+123706362+120005040+116073425+111923295+107625119
1701.38+103379212+99549335+96543748+94602590+93689429+93542802+93788079
1694.63+94045184+94018400+93539369+92562038+91150023+89461714+87695271+85999283
1686.91+84420937+82938503+81543736+80294028+79282443+78564165+78120618+77878164
1679.20+77743262+77629047+77471969+77244104+76958911+76661043+76398953+76198904
1671.48+76060503+75975827+75953413+76025933+76233265+76596754+77105663+77719719
1663.76+78380185+79024508+79601167+80077629+80438273+80676634+80786846+80751012
1656.05+80522898+80021069+79159455+77921439+76411052+74797182+73206178+71685826
1648.33+70246921+68911633+67725259+66734011+65960607+65400558+65029515+64806471
1640.62+64675189+64569928+64421635+64159528+63717330+63057000+62196323+61203793
1632.90+60155211+59092758+58019256+56919896+55778977+54607926+53406478+52179793
1625.18+50942195+49732917+48618894+47671960+46934012+46402048+46043934+45827340
1617.47+45738997+45790318+46018285+46488215+47291102+48522859+50243299+52430327
1609.75+54956409+57608641+60150785+62401441+64287936+65840052+67121800+68149678
1602.04+68863745+69176151+69051181+68543480+67761489+66793552+65663433+64348702
1594.32+62836328+61161833+59402674+57640607+55928162+54280163+52686020+51128332
1586.60+49600364+48127239+46792612+45756355+45234842+45432726+46460787+48296659
1578.89+50799142+53727217+56733984+59393415+61324907+62347038+62519546+62063957
1571.17+61261335+60378645+59612637+59054434+58697680+58485301+58360145+58295438
1563.46+58299797+58398864+58600725+58862188+59087598+59185564+59143418+59031066
1555.74+58926895+58848322+58742728+58534228+58185836+57730658+57251480+56828140
1548.02+56490469+56205677+55903264+55514809+54999560+54342674+53540527+52603106
1540.31+51583600+50603124+49829201+49425304+49523745+50221653+51553519+53431817
1532.59+55616642+57777033+59614155+60956179+61782422+62193065+62346626+62384938
1524.88+62380269+62336972+62239790+62105978+61997906+61985147+62092778+62283314
1517.16+62480985+62614283+62649496+62598638+62501847+62399894+62313152+62231824
1509.44+62115215+61899816+61522731+60961305+60259885+59508951+58792982+58158346
1501.73+57611571+57124726+56636408+56064328+55347218+54503461+53658417+53001949
1494.01+52701072+52832586+53364744+54172119+55069957+55867684+56427569+56696242
1486.30+56694706+56485822+56146367+55751007+55357414+54984581+54596002+54109157
1478.58+53435673+52529394+51412475+50168972+48918021+47783273+46862987+46200786
1470.86+45769073+45481514+45228313+44912395+44472439+43893381+43210327+42512354
1463.15+41944658+41693410+41934543+42751655+44061948+45613175+47099381+48342430
1455.43+49363866+50256132+50997795+51402127+51236269+50434946+49299673+48559850
1447.72+49187350+51957495+56950287+63328508+69605329+74296189+76583176+76583277
1440.00+75082550+73008072+71038075+69511558+68527401+68062654+68035514+68336098
1432.28+68854480+69503535+70223191+70969953+71706241+72398843+73025501+73584268
1424.57+74099240+74612592+75159367+75738487+76302855+76782242+77127439+77342437
1416.85+77477096+77591283+77723575+77880987+78045336+78186894+78278780+78305744
1409.14+78264880+78161381+78005855+77815049+77610840+77411339+77217495+77007742
1401.42+76749203+76419735+76023443+75585062+75124499+74633978+74078192+73416050
1393.70+72619216+71667415+70528879+69156933+67523963+65679377+63789653+62118354
1385.99+60940816+60437130+60620546+61330593+62288056+63186239+63776334+63907267
1378.27+63514837+62594884+61200603+59469210+57641409+56029239+54927440+54514053
1370.56+54796604+55627031+56769999+57988605+59106607+60023269+60694122+61112630
1362.84+61309771+61353921+61327984+61290581+61251749+61179606+61023296+60730594
1355.12+60255041+59561971+58638331+57498079+56178317+54734048+53242049+51808406
1347.41+50561317+49624026+49086888+49003810+49412031+50341915+51787702+53652506
1339.69+55719458+57691674+59284637+60308422+60694517+60482099+59806678+58901500
1331.98+58074557+57627069+57737682+58389498+59397830+60518921+61557848+62409018
1324.26+63030358+63404484+63531091+63450638+63264535+63120329+63159771+63456335
1316.54+63979607+64608557+65185944+65581061+65727045+65620017+65292955+64788794
1308.83+64146424+63400272+62585083+61738616+60896903+60080551+59278212+58439734
1301.11+57488029+56349018+54990843+53463241+51923084+50622546+49838866+49760243
1293.40+50388052+51526634+52877651+54179086+55298450+56235549+57063147+57864797
1285.68+58701615+59600063+60546151+61491386+62380089+63185787+63924018+64625861
1277.96+65295128+65890904+66352630+66644937+66782266+66816282+66800790+66764256
1270.25+66705263+66604959+66438887+66177525+65779754+65192589+64365944+63278548
1262.53+61961491+60508324+59066240+57808768+56893693+56416238+56375486+56672676
1254.82+57144724+57616268+57942715+58028092+57822781+57319772+56560223+55642613
1247.10+54718189+53963495+53536970+53539776+53996495+54857454+56011387+57300215
1239.38+58537870+59539286+60154404+60290779+59913305+59028904+57677345+55941170
1231.67+53965031+51963135+50197709+48928037+48344620+48515423+49372730+50754664
1223.95+52482263+54427130+56530509+58773938+61134970+63560924+65963718+68224683
1216.24+70209867+71810158+73002607+73892089+74683741+75582860+76684767+77934532
1208.52+79184014+80296619+81220332+81987340+82661084+83283400+83856050+84354345
1200.80+84751314+85034983+85212798+85301883+85308201+85206672+84939359+84439913
1193.09+83671138+82650571+81448384+80163344+78893006+77710782+76649334+75686975
1185.37+74738872+73665172+72312128+70591496+68569705+66505045+64776384+63716077
1177.66+63444569+63816516+64505696+65152803+65469483+65255557+64369699+62722864
1169.94+60323587+57346003+54165248+51314091+49348363+48657997+49311428+51025206
1162.22+53283235+55529770+57317864+58353951+58475613+57639394+55948397+53682423
1154.51+51275186+49222975+47957989+47739417+48604644+50396978+52853312+55707913
1146.79+58760682+61884645+64986827+67963016+70678555+72984952+74756865+75921079
1139.08+76453418+76341377+75542346+73980023+71595696+68428192+64671350+60677597
1131.36+56906617+53836532+51857067+51176316+51784772+53503321+56084625+59297707
1123.64+62946212+66842044+70793069+74630331+78239158+81550014+84494429+86975582
1115.93+88884270+90139032+90711382+90631178+90000223+89023400+88016880+87343700
1108.21+87283205+87913742+89093612+90550956+92007364+93247971+94114627+94469817
1100.50+94186008+93168839+91379537+88829195+85556713+81619989+77110146+72170255
1092.78+67003300+61874257+57115936+53120105+50272951+48824837+48751204+49701340
1085.06+51091437+52304504+52893177+52693535+51824039+50604428+49440796+48708036
1077.35+48649879+49323736+50616369+52329199+54286007+56398967+58658086+61067057
1069.63+63582705+66101583+68491527+70633501+72444625+73884535+74962509+75747526
1061.92+76356174+76899189+77402819+77755237+77720538+77021845+75458122+73017122
1054.20+69956962+66826078+64380420+63380399+64320281+67217977+71593856+76668343
1046.48+81666578+86051886+89569645+92125599+93635681+93981533+93099198+91110350
1038.77+88372036+85388863+82628197+80333616+78424973+76538653+74216227+71185674
1031.05+67602389+64100094+61583870+60857518+62287898+65682601+70418858+75723774
1023.34+80956746+85776804+90143808+94179165+97976296+101477959+104487182
1016.58+106781238+108228646+108831010+108687143+107932602+106695749+105075285
1009.83+103122215+100819713+98067680+94694521+90520644+85481629+79760458
1003.08+73824989+68290954+63656502+60080799+57373007+55193968+53299953+51639929
995.36+50269050+49203728+48364759+47640547+46982467+46434729+46082498+45975817
987.65+46093631+46364670+46720653+47143226+47674636+48382764+49302564+50399022
979.93+51583967+52765621+53871739+54820779+55502473+55858724+56061465+56633890
972.22+58333361+61786798+67105280+73759751+80787348+87130198+91857146+94232269
964.50+93811356+90701434+85839721+80951839+78001000+78352678+82178202+88500484
956.78+95826085+102906635+109153827+114564625+119369400+123727500+127642347
950.03+131045197+133897748+136220790+138059871+139446406+140389845+140894661
943.28+140982758+140706994+140149615+139403351+138539642+137580473+136491462
936.53+135199483+133622469+131695731+129389785+126721999+123766400+120658759
929.78+117591530+114788888+112450343+110664457+109322558+108086281+106451217
923.03+103892756+100028541+94725195+88125635+80623049+72815318+65440203
916.28+59267993+54950243+52872440+53077931+55295994+59045740+63756585+68863220
908.56+73867140+78376278+82126193+84986875+86964115+88200200+88960421+89581766
900.84+90380944+91560074+93163414+95105373+97239607+99417133+101508898
894.09+103405940+105022689+106313730+107290209+108018520+108595207+109105939
887.34+109588815+110022708+110348325+110509027+110484988+110304095+110031752
880.59+109748671+109520715+109361243+109201963+108896084+108267083+107180657
873.84+105599963+103599490+101344469+99057178+96977878+95316098+94196537
867.09+93623176+93485389+93600654+93756502+93717387+93208778+91944193+89749216
859.37+86746372+83458319+80679700+79117947+79001152+79920399+81020481+81405035
851.65+80491129+78142744+74608979+70401458+66193683+62717353+60601282+60174435
843.94+61336035+63588520+66234384+68638770+70424888+71519963+72063735+72263721
836.22+72288303+72233883+72143510+72033343+71902236+71725098+71439708+70943175
828.51+70113888+68867940+67227224+65351378+63500079+61942633+60866173+60321893
820.79+60214713+60332253+60419904+60295036+59948439+59553773+59357383+59514828
813.07+59989371+60577959+61027344+61146748+60853091+60157633+59142447+57952133
805.36+56783549+55842583+55270136+55082807+55178414+55409356+55666478+55907905
797.64+56120001+56263343+56262999+56051269+55617156+55015278+54331219+53634626
789.93+52951047+52260371+51515427+50670818+49710836+48662971+47589362+46569557
782.21+45694201+45086024+44939800+45545953+47244876+50279054+54580871+59622810
774.49+64475982+68114217+69818239+69438953+67370899+64293136+60872315+57588711
766.78+54707349+52321289+50402432+48850791+47550519+46418082+45418566+44552909
759.06+43846261+43361220+43227086+43653075+44893169+47148344+50423401+54410492
751.35+58495656+61936847+64143731+64897267+64374808+62981736+61125322+59080891
743.63+57000998+55001790+53226501+51839672+50973264+50672743+50874779+51420278
735.91+52094016+52681227+53028033+53085248+52911915+52631589+52363847+52174221
728.20+52070355+52033047+52042041+52071433+52069649+51960041+51673809+51191950
720.48+50560199+49867304+49204445+48630785+48155214+47735131+47293414+46751556
712.77+46064352+45235195+44303556+43318619+42322970+41366689+40554464+40111982
705.05+40422657+41963272+45099433+49807323+55494405+61087472+65406910+67645687
697.33+67679477+66036142+63574801+61091819+59071699+57659222+56782205+56294497
689.62+56058902+55968891+55945850+55939493+55928235+55909006+55879071+55828186
681.90+55750646+55663712+55605678+55606858+55659827+55725793+55780981+55861462
674.19+56055125+56439555+57022418+57741352+58511741+59263143+59931767+60442753
666.47+60736522+60826291+60814632+60845808+61030664+61390348+61861266+62364659
658.75+62877570+63437077+64079001+64774583+65423808+65910980+66181313+66284931
651.04+66358536+66554434+66959217+67550470+68210840+68776715+69082430+68986672
643.32+68392268+67267925+65655817+63654294+61397603+59069655+56941418+55359486
635.61+54628420+54645284+55110359+55786000+56424108+56837094+56894947+56508095
627.89+55658805+54462563+53168981+52064077+51336934+51021243+51252975+51935702
620.17+53015200+54464579+56212836+58126690+60046524+61570388+62955008+64177210
612.46+65251593+66218632+67118780+67971502+68555382+69043073+69438303+69782145
604.74+70158648+70666750+71349736+72128797+72817842
##END=
