##TITLE=SALICYLIC ACID
##JCAMP-DX=4.24
##DATA TYPE=INFRARED SPECTRUM
##CLASS=COBLENTZ
##ORIGIN=INFRACORD
##OWNER=COBLENTZ SOCIETY
Collection (C) 2018 copyright by the U.S. Secretary of Commerce
on behalf of the United States of America. All rights reserved.
##DATE=Not specified, most likely prior to 1970
##CAS REGISTRY NO=69-72-7
##MOLFORM=C7 H6 O3
##SOURCE REFERENCE=COBLENTZ NO. 2535
##$NIST SOURCE=COBLENTZ
##$NIST IMAGE=cob2535
##SPECTROMETER/DATA SYSTEM=Not specified, most likely a prism, grating, or hybrid spectrometer.
##STATE=SOLID (2 mg/300mg KBr PELLET)
$$ SEE SPECTRUM NO. 2534 FOR A DIFFERENT PELLET SPECTRUM
##SAMPLING PROCEDURE=TRANSMISSION
##RESOLUTION=4
##DATA PROCESSING=DIGITIZED BY NIST FROM HARD COPY
##XUNITS=MICROMETERS
##YUNITS=TRANSMITTANCE
##XFACTOR=1.000000
##YFACTOR=1
##DELTAX=000.008358
##FIRSTX=2.542
##LASTX=24.8831
##FIRSTY=0.63
##MAXX=24.8831
##MINX=2.542
##MAXY=0.704
##MINY=0.066
##NPOINTS=2674
##XYDATA=(X++(Y..Y))
2.542000 0.6300 0.6300 0.6300 0.6320 0.6320
2.583806 0.6320 0.6300 0.6300 0.6270 0.6230
2.625000 0.6200 0.6170 0.6150 0.6150 0.6150
2.666806 0.6170 0.6180 0.6230 0.6280 0.6300
2.709000 0.6350 0.6400 0.6410 0.6450 0.6450
2.750806 0.6460 0.6480 0.6480 0.6500 0.6510
2.793000 0.6510 0.6530 0.6560 0.6600 0.6630
2.834806 0.6660 0.6690 0.6710 0.6730 0.6740
2.876000 0.6760 0.6790 0.6810 0.6840 0.6930
2.917806 0.6990 0.6990 0.7010 0.7020 0.7020
2.960000 0.7040 0.7040 0.7010 0.6960 0.6860
3.001806 0.6690 0.6510 0.6330 0.6150 0.5970
3.043000 0.5770 0.5560 0.5340 0.5110 0.4600
3.084806 0.4320 0.4000 0.3760 0.3530 0.3330
3.127000 0.2930 0.2900 0.2870 0.2880 0.2950
3.168806 0.3300 0.3430 0.3480 0.3540 0.3560
3.210000 0.3580 0.3560 0.3530 0.3490 0.3440
3.251806 0.3380 0.3310 0.3250 0.3160 0.3100
3.294000 0.3050 0.2980 0.2950 0.2850 0.2770
3.335806 0.2720 0.2640 0.2590 0.2540 0.2520
3.378000 0.2500 0.2520 0.2540 0.2570 0.2620
3.419806 0.2680 0.2730 0.2780 0.2830 0.2850
3.461000 0.2870 0.2870 0.2870 0.2850 0.2830
3.502806 0.2800 0.2750 0.2700 0.2650 0.2590
3.545000 0.2570 0.2570 0.2590 0.2600 0.2650
3.586806 0.2750 0.2850 0.2900 0.2970 0.3000
3.628000 0.3050 0.3160 0.3260 0.3340 0.3380
3.669806 0.3410 0.3430 0.3440 0.3440 0.3440
3.712000 0.3410 0.3410 0.3360 0.3340 0.3340
3.753806 0.3340 0.3360 0.3380 0.3390 0.3440
3.796000 0.3480 0.3490 0.3510 0.3530 0.3540
3.837806 0.3540 0.3540 0.3530 0.3480 0.3430
3.879000 0.3360 0.3260 0.3150 0.3130 0.3130
3.920806 0.3160 0.3200 0.3210 0.3230 0.3250
3.963000 0.3250 0.3260 0.3300 0.3310 0.3310
4.004806 0.3360 0.3430 0.3490 0.3560 0.3660
4.046000 0.3740 0.3820 0.3910 0.3990 0.4070
4.087806 0.4140 0.4170 0.4220 0.4250 0.4300
4.130000 0.4330 0.4380 0.4450 0.4480 0.4500
4.171806 0.4530 0.4580 0.4620 0.4650 0.4680
4.213000 0.4730 0.4760 0.4800 0.4830 0.4850
4.254806 0.4900 0.4910 0.4950 0.4980 0.5000
4.297000 0.5010 0.5040 0.5090 0.5130 0.5160
4.338806 0.5190 0.5240 0.5280 0.5310 0.5330
4.381000 0.5360 0.5390 0.5460 0.5460 0.5470
4.422806 0.5490 0.5520 0.5540 0.5590 0.5610
4.464000 0.5620 0.5660 0.5690 0.5750 0.5770
4.505806 0.5790 0.5800 0.5820 0.5840 0.5850
4.548000 0.5870 0.5890 0.5900 0.5940 0.5950
4.589806 0.5970 0.5990 0.6000 0.6030 0.6030
4.631000 0.6050 0.6050 0.6070 0.6070 0.6080
4.672806 0.6080 0.6080 0.6100 0.6100 0.6120
4.715000 0.6130 0.6180 0.6220 0.6220 0.6230
4.756806 0.6230 0.6230 0.6220 0.6200 0.6180
4.798000 0.6170 0.6170 0.6170 0.6170 0.6170
4.839806 0.6180 0.6200 0.6230 0.6270 0.6320
4.882000 0.6350 0.6400 0.6460 0.6510 0.6560
4.923806 0.6630 0.6650 0.6660 0.6680 0.6690
4.966000 0.6730 0.6730 0.6730 0.6740 0.6740
5.007806 0.6740 0.6740 0.6740 0.6740 0.6740
5.049000 0.6730 0.6690 0.6660 0.6580 0.6560
5.090806 0.6550 0.6530 0.6560 0.6600 0.6660
5.133000 0.6710 0.6780 0.6790 0.6810 0.6830
5.174806 0.6840 0.6890 0.6890 0.6910 0.6910
5.216000 0.6910 0.6910 0.6890 0.6880 0.6860
5.257806 0.6840 0.6840 0.6860 0.6910 0.6940
5.300000 0.6980 0.6990 0.7010 0.7020 0.7040
5.341806 0.7040 0.7040 0.7020 0.7020 0.7010
5.384000 0.6990 0.6930 0.6890 0.6830 0.6760
5.425806 0.6740 0.6760 0.6780 0.6840 0.6910
5.467000 0.6960 0.6960 0.6960 0.6940 0.6930
5.508806 0.6890 0.6860 0.6830 0.6830 0.6840
5.551000 0.6880 0.6890 0.6890 0.6910 0.6910
5.592806 0.6930 0.6940 0.6960 0.6980 0.6980
5.634000 0.6980 0.6980 0.6960 0.6940 0.6940
5.675806 0.6930 0.6810 0.6760 0.6730 0.6680
5.718000 0.6630 0.6580 0.6510 0.6320 0.6150
5.759806 0.6000 0.5970 0.5940 0.5870 0.5840
5.801000 0.5800 0.5770 0.5700 0.5620 0.5520
5.842806 0.5460 0.5360 0.5290 0.5110 0.5000
5.885000 0.4730 0.4660 0.4530 0.4450 0.4350
5.926806 0.4250 0.4150 0.4000 0.3960 0.3630
5.969000 0.3360 0.3110 0.2880 0.2590 0.2240
6.010806 0.1780 0.1480 0.1270 0.1130 0.1070
6.052000 0.1030 0.1000 0.0990 0.0940 0.0840
6.093806 0.0770 0.0720 0.0700 0.0740 0.0940
6.136000 0.1120 0.1500 0.1940 0.2350 0.2720
6.177806 0.2980 0.3200 0.3300 0.3300 0.3260
6.219000 0.3210 0.3160 0.3010 0.2670 0.2370
6.260806 0.1790 0.1610 0.1510 0.1500 0.1530
6.303000 0.2310 0.2450 0.2570 0.2980 0.3250
6.344806 0.3480 0.3590 0.3890 0.3890 0.3860
6.387000 0.3670 0.3590 0.3510 0.3380 0.3340
6.428806 0.3360 0.3390 0.3480 0.3630 0.3770
6.470000 0.3940 0.3990 0.4090 0.4240 0.4290
6.511806 0.4950 0.5030 0.5110 0.5160 0.5180
6.554000 0.5260 0.5510 0.5610 0.5750 0.5870
6.595806 0.5950 0.5970 0.5990 0.6000 0.6000
6.637000 0.6030 0.6070 0.6100 0.6130 0.6180
6.678806 0.6180 0.6120 0.6070 0.5990 0.5850
6.721000 0.5750 0.5610 0.5420 0.5110 0.4430
6.762806 0.3740 0.2730 0.2350 0.1430 0.0950
6.804000 0.0940 0.0970 0.1360 0.1830 0.2320
6.845806 0.2340 0.2350 0.2350 0.2320 0.2290
6.888000 0.2120 0.2070 0.1990 0.1960 0.1960
6.929806 0.1990 0.2120 0.2120 0.2110 0.1740
6.972000 0.1630 0.1460 0.1300 0.1130 0.0970
7.013806 0.0820 0.0790 0.0820 0.0950 0.1460
7.055000 0.1760 0.1960 0.1980 0.2110 0.2290
7.096806 0.2500 0.2700 0.2820 0.3000 0.3080
7.139000 0.3630 0.3870 0.3970 0.3990 0.3990
7.180806 0.4020 0.4050 0.4070 0.4090 0.4170
7.222000 0.4250 0.4330 0.4370 0.4380 0.4370
7.263806 0.4270 0.4120 0.4000 0.3940 0.3870
7.306000 0.3860 0.3870 0.3890 0.3970 0.4100
7.347806 0.4240 0.4480 0.4680 0.4830 0.4930
7.389000 0.5010 0.5140 0.5230 0.5360 0.5440
7.430806 0.5470 0.5520 0.5560 0.5590 0.5590
7.473000 0.5610 0.5610 0.5610 0.5590 0.5540
7.514806 0.5490 0.5370 0.5190 0.4880 0.4760
7.557000 0.4570 0.4450 0.4190 0.4020 0.3630
7.598806 0.3410 0.3180 0.3150 0.3180 0.3250
7.640000 0.3300 0.3490 0.3710 0.3760 0.3810
7.681806 0.3790 0.3560 0.3330 0.2770 0.2490
7.724000 0.2090 0.1790 0.1610 0.1460 0.1350
7.765806 0.1200 0.1100 0.1000 0.0950 0.0940
7.807000 0.0920 0.0920 0.0940 0.0950 0.0990
7.848806 0.1070 0.1510 0.1780 0.1990 0.2490
7.891000 0.2980 0.3460 0.3710 0.4100 0.4320
7.932806 0.4470 0.4550 0.4550 0.4550 0.4450
7.975000 0.4430 0.4100 0.3760 0.3460 0.3110
8.016806 0.2750 0.2470 0.2040 0.1680 0.1320
8.058000 0.1000 0.0870 0.0800 0.0790 0.0770
8.099806 0.0770 0.0770 0.0800 0.0940 0.1120
8.142000 0.1280 0.1360 0.1430 0.1450 0.1480
8.183806 0.1510 0.1580 0.1630 0.1710 0.1840
8.225000 0.1960 0.1960 0.1990 0.2070 0.2170
8.266806 0.2220 0.2260 0.2190 0.2110 0.1940
8.309000 0.1780 0.1630 0.1500 0.1200 0.1100
8.350806 0.1080 0.1120 0.1300 0.1400 0.1480
8.392000 0.1560 0.1660 0.1780 0.1860 0.1940
8.433806 0.1990 0.1990 0.2020 0.2020 0.2020
8.476000 0.2020 0.2010 0.1990 0.1990 0.1990
8.517806 0.2020 0.2090 0.2240 0.2440 0.2590
8.560000 0.2720 0.3110 0.3300 0.3430 0.3530
8.601806 0.3610 0.3860 0.3960 0.4090 0.4100
8.643000 0.4100 0.4090 0.4070 0.4040 0.3530
8.684806 0.2700 0.2240 0.1980 0.1650 0.1400
8.727000 0.1360 0.1350 0.1360 0.1740 0.2450
8.768806 0.2620 0.2700 0.2820 0.2900 0.2950
8.810000 0.2980 0.3060 0.3150 0.3260 0.3310
8.851806 0.3340 0.3410 0.3440 0.3480 0.3480
8.894000 0.3560 0.3590 0.3640 0.3690 0.3740
8.935806 0.3770 0.3840 0.3940 0.3940 0.3960
8.978000 0.3970 0.4000 0.4070 0.4090 0.4170
9.019806 0.4250 0.4300 0.4350 0.4420 0.4430
9.061000 0.4450 0.4470 0.4480 0.4520 0.4530
9.102806 0.4600 0.4630 0.4660 0.4700 0.4710
9.145000 0.4730 0.4750 0.4810 0.4850 0.4880
9.186806 0.4900 0.4900 0.4810 0.4680 0.4420
9.228000 0.4330 0.4240 0.4220 0.4250 0.4320
9.269806 0.4450 0.4620 0.4660 0.4710 0.4810
9.312000 0.4850 0.4950 0.4950 0.4980 0.5000
9.353806 0.5010 0.5030 0.5040 0.5060 0.5060
9.395000 0.5080 0.5090 0.5130 0.5140 0.5160
9.436806 0.5180 0.5190 0.5190 0.5210 0.5210
9.479000 0.5210 0.5230 0.5240 0.5240 0.5260
9.520806 0.5280 0.5310 0.5330 0.5330 0.5340
9.563000 0.5360 0.5360 0.5370 0.5420 0.5420
9.604806 0.5420 0.5440 0.5440 0.5440 0.5440
9.646000 0.5440 0.5440 0.5440 0.5420 0.5420
9.687806 0.5420 0.5360 0.5000 0.4450 0.4240
9.730000 0.3940 0.3820 0.3630 0.3610 0.3630
9.771806 0.3910 0.4200 0.4320 0.4450 0.4600
9.813000 0.4750 0.4830 0.4950 0.4960 0.4980
9.854806 0.5000 0.5110 0.5160 0.5190 0.5230
9.897000 0.5260 0.5260 0.5290 0.5310 0.5330
9.938806 0.5330 0.5330 0.5330 0.5330 0.5340
9.980000 0.5340 0.5340 0.5340 0.5340 0.5330
10.021806 0.5330 0.5330 0.5330 0.5310 0.5290
10.064000 0.5290 0.5280 0.5280 0.5260 0.5260
10.105806 0.5260 0.5280 0.5280 0.5290 0.5310
10.148000 0.5340 0.5360 0.5410 0.5440 0.5460
10.189806 0.5470 0.5510 0.5540 0.5540 0.5560
10.231000 0.5560 0.5570 0.5570 0.5570 0.5570
10.272806 0.5570 0.5570 0.5560 0.5560 0.5560
10.315000 0.5540 0.5540 0.5510 0.5510 0.5490
10.356806 0.5460 0.5360 0.5160 0.5010 0.4760
10.398000 0.4750 0.4730 0.4750 0.4830 0.4960
10.439806 0.5080 0.5190 0.5420 0.5440 0.5470
10.482000 0.5490 0.5520 0.5560 0.5570 0.5590
10.523806 0.5610 0.5620 0.5620 0.5620 0.5620
10.566000 0.5620 0.5620 0.5620 0.5620 0.5620
10.607806 0.5620 0.5620 0.5620 0.5620 0.5620
10.649000 0.5610 0.5610 0.5610 0.5610 0.5590
10.690806 0.5590 0.5570 0.5560 0.5560 0.5540
10.733000 0.5520 0.5520 0.5490 0.5470 0.5460
10.774806 0.5420 0.5420 0.5340 0.5290 0.5240
10.816000 0.5210 0.5180 0.5140 0.5090 0.5060
10.857806 0.4930 0.4900 0.4800 0.4750 0.4630
10.900000 0.4580 0.4550 0.4470 0.4450 0.4430
10.941806 0.4370 0.4330 0.4300 0.4290 0.4250
10.983000 0.4220 0.4200 0.4190 0.4150 0.4120
11.024806 0.4090 0.4040 0.4020 0.4000 0.3970
11.067000 0.3960 0.3940 0.3810 0.3740 0.3640
11.108806 0.3560 0.3480 0.3460 0.3430 0.3360
11.151000 0.3250 0.3180 0.3100 0.3000 0.2950
11.192806 0.2920 0.2870 0.2850 0.2830 0.2820
11.234000 0.2820 0.2800 0.2800 0.2820 0.2820
11.275806 0.2830 0.2830 0.2850 0.2850 0.2880
11.318000 0.2920 0.2950 0.2970 0.3000 0.3010
11.359806 0.3080 0.3130 0.3200 0.3250 0.3310
11.401000 0.3330 0.3430 0.3440 0.3530 0.3610
11.442806 0.3640 0.3670 0.3720 0.3790 0.3920
11.485000 0.3960 0.3970 0.3990 0.4000 0.4000
11.526806 0.4000 0.3990 0.3910 0.3760 0.3590
11.569000 0.3580 0.3590 0.3660 0.3890 0.3960
11.610806 0.4070 0.4140 0.4290 0.4420 0.4450
11.652000 0.4530 0.4580 0.4630 0.4630 0.4600
11.693806 0.4570 0.4520 0.4450 0.4100 0.3920
11.736000 0.3690 0.3410 0.3390 0.3390 0.3430
11.777806 0.3540 0.3940 0.4320 0.4680 0.4760
11.819000 0.4850 0.4980 0.5040 0.5090 0.5160
11.860806 0.5230 0.5280 0.5340 0.5420 0.5460
11.903000 0.5490 0.5560 0.5610 0.5660 0.5700
11.944806 0.5740 0.5770 0.5800 0.5840 0.5850
11.986000 0.5900 0.5920 0.5920 0.5940 0.5950
12.027806 0.5970 0.5970 0.5990 0.6020 0.6050
12.070000 0.6070 0.6070 0.6080 0.6100 0.6120
12.111806 0.6130 0.6170 0.6180 0.6180 0.6200
12.154000 0.6220 0.6230 0.6250 0.6270 0.6280
12.195806 0.6300 0.6320 0.6330 0.6350 0.6350
12.237000 0.6350 0.6360 0.6380 0.6400 0.6400
12.278806 0.6400 0.6410 0.6430 0.6430 0.6430
12.321000 0.6430 0.6430 0.6430 0.6430 0.6430
12.362806 0.6410 0.6410 0.6400 0.6380 0.6380
12.404000 0.6360 0.6330 0.6280 0.6270 0.6250
12.445806 0.6250 0.6250 0.6270 0.6280 0.6300
12.488000 0.6330 0.6360 0.6410 0.6450 0.6460
12.529806 0.6480 0.6480 0.6500 0.6500 0.6500
12.572000 0.6500 0.6480 0.6460 0.6450 0.6410
12.613806 0.6320 0.6250 0.6170 0.6050 0.5950
12.655000 0.5770 0.5570 0.5330 0.5140 0.4600
12.696806 0.4300 0.4070 0.3790 0.3540 0.3280
12.739000 0.3180 0.3100 0.3060 0.2970 0.2950
12.780806 0.2950 0.2950 0.2980 0.3030 0.3150
12.822000 0.3310 0.3480 0.3540 0.3660 0.3810
12.863806 0.3970 0.4090 0.4170 0.4270 0.4330
12.906000 0.4430 0.4430 0.4480 0.4480 0.4500
12.947806 0.4500 0.4500 0.4480 0.4480 0.4470
12.989000 0.4450 0.4420 0.4370 0.4300 0.4240
13.030806 0.4150 0.4040 0.3940 0.3810 0.3660
13.073000 0.3510 0.3360 0.3180 0.3000 0.2870
13.114806 0.2620 0.2310 0.2010 0.1960 0.1650
13.157000 0.1460 0.1320 0.1000 0.0750 0.0690
13.198806 0.0670 0.0670 0.0660 0.0660 0.0670
13.240000 0.0700 0.0820 0.1030 0.1730 0.1830
13.281806 0.2020 0.2140 0.2240 0.2320 0.2640
13.324000 0.2780 0.2970 0.2980 0.3180 0.3250
13.365806 0.3340 0.3590 0.3720 0.3970 0.4070
13.407000 0.4140 0.4300 0.4450 0.4580 0.4660
13.448806 0.4730 0.4800 0.4880 0.4960 0.4980
13.491000 0.5030 0.5060 0.5110 0.5140 0.5190
13.532806 0.5240 0.5330 0.5370 0.5420 0.5440
13.574000 0.5460 0.5470 0.5510 0.5570 0.5620
13.615806 0.5640 0.5660 0.5670 0.5700 0.5720
13.658000 0.5740 0.5740 0.5750 0.5770 0.5770
13.699806 0.5790 0.5790 0.5790 0.5800 0.5800
13.742000 0.5800 0.5800 0.5800 0.5800 0.5800
13.783806 0.5800 0.5800 0.5790 0.5790 0.5790
13.825000 0.5790 0.5790 0.5770 0.5770 0.5750
13.866806 0.5750 0.5740 0.5720 0.5700 0.5690
13.909000 0.5660 0.5640 0.5610 0.5590 0.5560
13.950806 0.5520 0.5510 0.5470 0.5470 0.5440
13.992000 0.5420 0.5370 0.5330 0.5330 0.5260
14.033806 0.5210 0.5140 0.5080 0.4950 0.4850
14.076000 0.4800 0.4730 0.4660 0.4570 0.4470
14.117806 0.4400 0.4290 0.4190 0.4090 0.3990
14.160000 0.3960 0.3740 0.3670 0.3590 0.3490
14.201806 0.3340 0.3200 0.3050 0.3000 0.2980
14.243000 0.2870 0.2800 0.2730 0.2620 0.2470
14.284806 0.2420 0.2260 0.2110 0.2010 0.1980
14.327000 0.1840 0.1760 0.1660 0.1610 0.1580
14.368806 0.1530 0.1510 0.1500 0.1480 0.1480
14.410000 0.1480 0.1500 0.1500 0.1500 0.1500
14.451806 0.1510 0.1510 0.1580 0.1610 0.1650
14.494000 0.1680 0.1790 0.1860 0.1940 0.1980
14.535806 0.2040 0.2140 0.2210 0.2270 0.2320
14.577000 0.2390 0.2470 0.2520 0.2650 0.2700
14.618806 0.2770 0.2820 0.2870 0.2930 0.3000
14.661000 0.3130 0.3210 0.3260 0.3380 0.3460
14.702806 0.3510 0.3660 0.3720 0.3810 0.3860
14.745000 0.3960 0.3970 0.4000 0.4040 0.4090
14.786806 0.4100 0.4120 0.4140 0.4170 0.4200
14.828000 0.4220 0.4220 0.4240 0.4240 0.4270
14.869806 0.4270 0.4290 0.4300 0.4350 0.4400
14.912000 0.4450 0.4470 0.4500 0.4570 0.4600
14.953806 0.4630 0.4630 0.4650 0.4650 0.4630
14.995000 0.4620 0.4600 0.4550 0.4470 0.4300
15.036806 0.4220 0.4040 0.3810 0.3710 0.3460
15.079000 0.3310 0.3000 0.2800 0.2540 0.2370
15.120806 0.2220 0.2020 0.1680 0.1510 0.1400
15.163000 0.1330 0.1280 0.1250 0.1250 0.1250
15.204806 0.1270 0.1280 0.1330 0.1450 0.1560
15.246000 0.1860 0.2010 0.2090 0.2110 0.2140
15.287806 0.2210 0.2240 0.2310 0.2370 0.2470
15.330000 0.2500 0.2570 0.2650 0.2720 0.2800
15.371806 0.2950 0.2980 0.3060 0.3110 0.3200
15.413000 0.3260 0.3380 0.3460 0.3490 0.3540
15.454806 0.3640 0.3690 0.3710 0.3760 0.3790
15.497000 0.3910 0.3940 0.3960 0.3960 0.3970
15.538806 0.3990 0.3990 0.4000 0.4050 0.4100
15.580000 0.4140 0.4190 0.4200 0.4240 0.4250
15.621806 0.4270 0.4300 0.4320 0.4330 0.4350
15.664000 0.4380 0.4400 0.4430 0.4470 0.4480
15.705806 0.4500 0.4530 0.4580 0.4600 0.4620
15.748000 0.4630 0.4630 0.4650 0.4660 0.4680
15.789806 0.4680 0.4700 0.4700 0.4710 0.4730
15.831000 0.4750 0.4760 0.4800 0.4810 0.4850
15.872806 0.4880 0.4880 0.4900 0.4900 0.4910
15.915000 0.4930 0.4950 0.4960 0.4980 0.5000
15.956806 0.5000 0.5010 0.5010 0.5010 0.5030
15.998000 0.5030 0.5060 0.5060 0.5090 0.5110
16.039806 0.5130 0.5140 0.5140 0.5180 0.5190
16.082000 0.5210 0.5210 0.5230 0.5230 0.5240
16.123806 0.5240 0.5240 0.5240 0.5240 0.5260
16.165000 0.5260 0.5280 0.5280 0.5280 0.5280
16.206806 0.5280 0.5280 0.5280 0.5280 0.5280
16.249000 0.5280 0.5280 0.5280 0.5280 0.5280
16.290806 0.5280 0.5280 0.5280 0.5280 0.5280
16.333000 0.5280 0.5280 0.5280 0.5280 0.5280
16.374806 0.5280 0.5280 0.5280 0.5280 0.5280
16.416000 0.5280 0.5280 0.5280 0.5280 0.5290
16.457806 0.5290 0.5290 0.5290 0.5290 0.5290
16.500000 0.5290 0.5310 0.5310 0.5310 0.5330
16.541806 0.5330 0.5330 0.5330 0.5330 0.5340
16.583000 0.5340 0.5370 0.5370 0.5390 0.5390
16.624806 0.5410 0.5410 0.5420 0.5420 0.5420
16.667000 0.5440 0.5460 0.5470 0.5490 0.5490
16.708806 0.5510 0.5540 0.5540 0.5560 0.5560
16.751000 0.5570 0.5590 0.5590 0.5610 0.5610
16.792806 0.5620 0.5620 0.5640 0.5660 0.5660
16.834000 0.5670 0.5690 0.5700 0.5720 0.5740
16.875806 0.5750 0.5770 0.5790 0.5790 0.5800
16.918000 0.5800 0.5820 0.5820 0.5840 0.5840
16.959806 0.5870 0.5870 0.5890 0.5890 0.5890
17.001000 0.5890 0.5890 0.5890 0.5890 0.5890
17.042806 0.5890 0.5890 0.5890 0.5890 0.5890
17.085000 0.5870 0.5870 0.5870 0.5850 0.5850
17.126806 0.5840 0.5840 0.5840 0.5820 0.5800
17.168000 0.5790 0.5770 0.5750 0.5750 0.5740
17.209806 0.5740 0.5720 0.5700 0.5700 0.5690
17.252000 0.5670 0.5660 0.5640 0.5590 0.5570
17.293806 0.5560 0.5540 0.5490 0.5470 0.5470
17.336000 0.5460 0.5440 0.5420 0.5390 0.5370
17.377806 0.5360 0.5360 0.5360 0.5340 0.5340
17.419000 0.5330 0.5310 0.5290 0.5260 0.5230
17.460806 0.5180 0.5130 0.5080 0.5040 0.5000
17.503000 0.4900 0.4830 0.4760 0.4750 0.4730
17.544806 0.4700 0.4650 0.4570 0.4500 0.4500
17.586000 0.4480 0.4430 0.4400 0.4370 0.4330
17.627806 0.4320 0.4300 0.4300 0.4290 0.4290
17.670000 0.4290 0.4290 0.4320 0.4350 0.4380
17.711806 0.4450 0.4480 0.4500 0.4630 0.4680
17.754000 0.4750 0.4830 0.4900 0.4950 0.4980
17.795806 0.5000 0.5010 0.5090 0.5130 0.5190
17.837000 0.5330 0.5360 0.5370 0.5440 0.5440
17.878806 0.5470 0.5490 0.5520 0.5570 0.5620
17.921000 0.5640 0.5670 0.5690 0.5700 0.5740
17.962806 0.5790 0.5800 0.5820 0.5820 0.5850
18.004000 0.5850 0.5870 0.5890 0.5920 0.5950
18.045806 0.5990 0.6000 0.6020 0.6070 0.6080
18.088000 0.6100 0.6120 0.6130 0.6150 0.6200
18.129806 0.6220 0.6270 0.6280 0.6280 0.6320
18.171000 0.6330 0.6350 0.6360 0.6360 0.6410
18.212806 0.6430 0.6430 0.6450 0.6450 0.6450
18.255000 0.6460 0.6460 0.6480 0.6480 0.6480
18.296806 0.6480 0.6480 0.6480 0.6480 0.6480
18.339000 0.6480 0.6480 0.6480 0.6480 0.6480
18.380806 0.6460 0.6460 0.6450 0.6430 0.6380
18.422000 0.6360 0.6330 0.6280 0.6220 0.6150
18.463806 0.6120 0.6050 0.6000 0.5950 0.5940
18.506000 0.5840 0.5740 0.5670 0.5640 0.5590
18.547806 0.5560 0.5490 0.5460 0.5370 0.5310
18.589000 0.5260 0.5240 0.5210 0.5160 0.5130
18.630806 0.5060 0.5010 0.4960 0.4810 0.4710
18.673000 0.4580 0.4470 0.4370 0.4170 0.4000
18.714806 0.3820 0.3590 0.3460 0.3230 0.3050
18.757000 0.2980 0.2800 0.2620 0.2520 0.2440
18.798806 0.2420 0.2400 0.2400 0.2400 0.2440
18.840000 0.2500 0.2570 0.2680 0.2780 0.2970
18.881806 0.3050 0.3160 0.3260 0.3380 0.3510
18.924000 0.3720 0.3770 0.3870 0.3960 0.4000
18.965806 0.4040 0.4140 0.4190 0.4250 0.4300
19.007000 0.4380 0.4500 0.4530 0.4570 0.4600
19.048806 0.4680 0.4750 0.4780 0.4830 0.4900
19.091000 0.4930 0.4980 0.5000 0.5000 0.5060
19.132806 0.5110 0.5130 0.5180 0.5190 0.5210
19.174000 0.5260 0.5310 0.5340 0.5370 0.5410
19.215806 0.5420 0.5460 0.5470 0.5510 0.5510
19.258000 0.5540 0.5560 0.5570 0.5590 0.5590
19.299806 0.5610 0.5610 0.5620 0.5620 0.5640
19.342000 0.5660 0.5660 0.5670 0.5670 0.5670
19.383806 0.5670 0.5670 0.5670 0.5670 0.5670
19.425000 0.5690 0.5690 0.5690 0.5690 0.5690
19.466806 0.5690 0.5690 0.5690 0.5690 0.5690
19.509000 0.5690 0.5690 0.5690 0.5690 0.5690
19.550806 0.5690 0.5690 0.5700 0.5700 0.5700
19.592000 0.5720 0.5720 0.5720 0.5720 0.5740
19.633806 0.5740 0.5750 0.5770 0.5790 0.5820
19.676000 0.5850 0.5850 0.5870 0.5900 0.5920
19.717806 0.5940 0.5940 0.5940 0.5950 0.5950
19.759000 0.5970 0.5970 0.5970 0.5990 0.5990
19.800806 0.6000 0.6030 0.6050 0.6070 0.6070
19.843000 0.6070 0.6080 0.6100 0.6120 0.6120
19.884806 0.6130 0.6130 0.6150 0.6150 0.6170
19.927000 0.6170 0.6170 0.6180 0.6180 0.6180
19.968806 0.6180 0.6200 0.6200 0.6220 0.6220
20.010000 0.6220 0.6230 0.6230 0.6230 0.6250
20.051806 0.6250 0.6250 0.6250 0.6250 0.6250
20.094000 0.6250 0.6270 0.6270 0.6280 0.6280
20.135806 0.6280 0.6300 0.6300 0.6300 0.6300
20.177000 0.6300 0.6300 0.6320 0.6320 0.6320
20.218806 0.6320 0.6320 0.6320 0.6330 0.6330
20.261000 0.6330 0.6330 0.6350 0.6350 0.6350
20.302806 0.6360 0.6360 0.6400 0.6400 0.6410
20.345000 0.6410 0.6430 0.6430 0.6430 0.6430
20.386806 0.6450 0.6450 0.6450 0.6480 0.6480
20.428000 0.6480 0.6500 0.6500 0.6510 0.6530
20.469806 0.6560 0.6580 0.6600 0.6600 0.6610
20.512000 0.6610 0.6610 0.6610 0.6610 0.6610
20.553806 0.6610 0.6610 0.6610 0.6610 0.6610
20.595000 0.6610 0.6610 0.6610 0.6610 0.6630
20.636806 0.6630 0.6630 0.6630 0.6630 0.6630
20.679000 0.6650 0.6650 0.6650 0.6650 0.6660
20.720806 0.6660 0.6660 0.6660 0.6680 0.6680
20.762000 0.6680 0.6690 0.6690 0.6690 0.6710
20.803806 0.6710 0.6730 0.6730 0.6740 0.6740
20.846000 0.6740 0.6740 0.6760 0.6760 0.6760
20.887806 0.6780 0.6780 0.6780 0.6790 0.6790
20.930000 0.6790 0.6790 0.6790 0.6790 0.6790
20.971806 0.6790 0.6790 0.6790 0.6790 0.6790
21.013000 0.6790 0.6790 0.6790 0.6790 0.6790
21.054806 0.6780 0.6780 0.6780 0.6760 0.6760
21.097000 0.6740 0.6730 0.6690 0.6680 0.6680
21.138806 0.6660 0.6650 0.6610 0.6560 0.6480
21.180000 0.6450 0.6380 0.6320 0.6270 0.6180
21.221806 0.6120 0.6000 0.5940 0.5770 0.5670
21.264000 0.5570 0.5470 0.5440 0.5280 0.5140
21.305806 0.5080 0.4900 0.4800 0.4660 0.4600
21.348000 0.4500 0.4380 0.4290 0.4170 0.4070
21.389806 0.3960 0.3860 0.3760 0.3670 0.3580
21.431000 0.3490 0.3440 0.3380 0.3310 0.3280
21.472806 0.3230 0.3200 0.3130 0.3100 0.3050
21.515000 0.3000 0.2970 0.2950 0.2920 0.2900
21.556806 0.2880 0.2880 0.2870 0.2870 0.2870
21.598000 0.2880 0.2880 0.2880 0.2900 0.2950
21.639806 0.2970 0.2970 0.3000 0.3010 0.3050
21.682000 0.3100 0.3130 0.3150 0.3180 0.3230
21.723806 0.3260 0.3300 0.3340 0.3380 0.3430
21.765000 0.3460 0.3490 0.3510 0.3540 0.3580
21.806806 0.3630 0.3660 0.3690 0.3720 0.3760
21.849000 0.3770 0.3810 0.3840 0.3860 0.3870
21.890806 0.3940 0.3940 0.3960 0.3990 0.4020
21.933000 0.4070 0.4100 0.4150 0.4190 0.4220
21.974806 0.4240 0.4270 0.4320 0.4330 0.4350
22.016000 0.4430 0.4470 0.4480 0.4500 0.4520
22.057806 0.4550 0.4580 0.4600 0.4620 0.4630
22.100000 0.4660 0.4700 0.4710 0.4750 0.4780
22.141806 0.4800 0.4830 0.4860 0.4880 0.4930
22.183000 0.4950 0.4960 0.4980 0.5000 0.5010
22.224806 0.5030 0.5040 0.5060 0.5080 0.5090
22.267000 0.5130 0.5140 0.5140 0.5160 0.5180
22.308806 0.5180 0.5190 0.5210 0.5230 0.5240
22.350000 0.5260 0.5280 0.5290 0.5310 0.5330
22.391806 0.5360 0.5370 0.5390 0.5410 0.5410
22.434000 0.5420 0.5420 0.5440 0.5440 0.5460
22.475806 0.5460 0.5470 0.5470 0.5490 0.5510
22.518000 0.5510 0.5520 0.5520 0.5520 0.5540
22.559806 0.5540 0.5560 0.5560 0.5570 0.5570
22.601000 0.5570 0.5590 0.5590 0.5610 0.5610
22.642806 0.5610 0.5610 0.5620 0.5620 0.5620
22.685000 0.5620 0.5620 0.5620 0.5620 0.5640
22.726806 0.5640 0.5640 0.5660 0.5660 0.5670
22.768000 0.5670 0.5690 0.5690 0.5700 0.5720
22.809806 0.5720 0.5720 0.5740 0.5740 0.5750
22.852000 0.5750 0.5750 0.5770 0.5770 0.5790
22.893806 0.5790 0.5800 0.5820 0.5840 0.5850
22.936000 0.5850 0.5850 0.5870 0.5870 0.5890
22.977806 0.5890 0.5900 0.5900 0.5900 0.5900
23.019000 0.5900 0.5900 0.5900 0.5890 0.5890
23.060806 0.5870 0.5870 0.5850 0.5850 0.5850
23.103000 0.5840 0.5840 0.5840 0.5820 0.5820
23.144806 0.5800 0.5800 0.5790 0.5770 0.5770
23.186000 0.5750 0.5750 0.5740 0.5740 0.5740
23.227806 0.5720 0.5720 0.5720 0.5700 0.5700
23.270000 0.5690 0.5670 0.5670 0.5670 0.5660
23.311806 0.5640 0.5640 0.5640 0.5620 0.5620
23.353000 0.5610 0.5610 0.5610 0.5610 0.5590
23.394806 0.5590 0.5570 0.5570 0.5570 0.5570
23.437000 0.5570 0.5570 0.5570 0.5570 0.5590
23.478806 0.5590 0.5590 0.5610 0.5610 0.5620
23.521000 0.5620 0.5640 0.5640 0.5660 0.5660
23.562806 0.5660 0.5660 0.5670 0.5670 0.5690
23.604000 0.5690 0.5720 0.5720 0.5720 0.5740
23.645806 0.5740 0.5750 0.5750 0.5770 0.5770
23.688000 0.5770 0.5790 0.5800 0.5800 0.5800
23.729806 0.5820 0.5840 0.5840 0.5840 0.5850
23.771000 0.5870 0.5870 0.5890 0.5890 0.5900
23.812806 0.5920 0.5920 0.5940 0.5940 0.5940
23.855000 0.5950 0.5950 0.5950 0.5950 0.5970
23.896806 0.5970 0.5970 0.5990 0.6000 0.6000
23.939000 0.6020 0.6020 0.6020 0.6030 0.6030
23.980806 0.6050 0.6050 0.6050 0.6070 0.6070
24.022000 0.6070 0.6070 0.6070 0.6070 0.6070
24.063806 0.6070 0.6070 0.6070 0.6070 0.6070
24.106000 0.6070 0.6070 0.6070 0.6070 0.6070
24.147806 0.6070 0.6050 0.6050 0.6050 0.6050
24.189000 0.6050 0.6050 0.6050 0.6050 0.6050
24.230806 0.6070 0.6070 0.6080 0.6080 0.6100
24.273000 0.6100 0.6120 0.6120 0.6130 0.6130
24.314806 0.6150 0.6150 0.6150 0.6170 0.6170
24.356000 0.6170 0.6180 0.6180 0.6180 0.6180
24.397806 0.6180 0.6200 0.6200 0.6200 0.6200
24.440000 0.6220 0.6220 0.6220 0.6220 0.6220
24.481806 0.6220 0.6220 0.6220 0.6220 0.6220
24.524000 0.6220 0.6220 0.6220 0.6220 0.6220
24.565806 0.6220 0.6220 0.6220 0.6220 0.6220
24.607000 0.6200 0.6200 0.6200 0.6180 0.6180
24.648806 0.6180 0.6180 0.6180 0.6180 0.6180
24.691000 0.6180 0.6180 0.6180 0.6180 0.6180
24.732806 0.6180 0.6180 0.6180 0.6180 0.6180
24.774000 0.6180 0.6180 0.6180 0.6180 0.6180
24.815806 0.6180 0.6180 0.6200 0.6200 0.6200
24.858000 0.6200 0.6200 0.6200 0.6200
##END=
