##TITLE=BENZOIC ACID, o-HYDROXY-
##JCAMP-DX=4.24
##DATA TYPE=INFRARED SPECTRUM
##CLASS=COBLENTZ III
##ORIGIN=WESTERN REGIONAL RES. USDA
##OWNER=COBLENTZ SOCIETY
Collection (C) 2018 copyright by the U.S. Secretary of Commerce
on behalf of the United States of America. All rights reserved.
##DATE=1964/06/02
##NAMES=salicylic acid
SALICYLIC ACID
##CAS REGISTRY NO=69-72-7
##MOLFORM=C7 H6 O3
##SOURCE REFERENCE=COBLENTZ NO. 9876
##$NIST SOURCE=COBLENTZ
##$NIST IMAGE=cob9876
##SPECTROMETER/DATA SYSTEM=BECKMAN IR-7 (GRATING)
##INSTRUMENT PARAMETERS=GRATING CHANGES AT 3000, 2200, 1150 CM^-^1
##STATE=SOLID (NUJOL MULL)
##SAMPLING PROCEDURE=TRANSMISSION
##RESOLUTION=4
##DATA PROCESSING=DIGITIZED BY NIST FROM HARD COPY (FROM TWO SEGMENTS)
##XUNITS=1/CM
##YUNITS=TRANSMITTANCE
##XFACTOR=1.000000
##YFACTOR=1
##DELTAX=0.811488
##FIRSTX=598.564
##LASTX=4001.94
##FIRSTY=0.788
##MAXX=4001.94
##MINX=598.564
##MAXY=0.896977
##MINY=0.0281025
##NPOINTS=4195
##XYDATA=(X++(Y..Y))
598.564000 0.7880 0.7870 0.7840 0.7830 0.7810
602.621440 0.7800 0.7790 0.7770 0.7760 0.7720
606.678880 0.7690 0.7670 0.7670 0.7660 0.7650
610.736319 0.7640 0.7620 0.7590 0.7550 0.7510
614.793759 0.7460 0.7430 0.7390 0.7360 0.7330
618.851199 0.7290 0.7260 0.7230 0.7200 0.7170
622.908639 0.7130 0.7090 0.7050 0.7010 0.6960
626.966078 0.6910 0.6900 0.6860 0.6830 0.6760
631.023518 0.6690 0.6620 0.6580 0.6490 0.6460
635.080958 0.6410 0.6360 0.6330 0.6300 0.6250
639.138398 0.6180 0.6110 0.6050 0.5990 0.5930
643.195837 0.5860 0.5810 0.5750 0.5730 0.8941
647.253277 0.8970 0.8310 0.7980 0.7820 0.7660
651.310717 0.6942 0.6222 0.5024 0.4960 0.4890
655.368157 0.4430 0.3960 0.3500 0.2891 0.2890
659.425596 0.3708 0.4288 0.6382 0.8023 0.8348
663.483036 0.8390 0.8430 0.8540 0.8590 0.8590
667.540476 0.8600 0.8600 0.8600 0.8600 0.8570
671.597916 0.8530 0.8490 0.8460 0.8200 0.8010
675.655355 0.7850 0.7720 0.7670 0.7600 0.7471
679.712795 0.7310 0.7110 0.6621 0.6460 0.6370
683.770235 0.6210 0.6061 0.5293 0.4554 0.3794
687.827675 0.3720 0.3640 0.3460 0.3290 0.3110
691.885114 0.2941 0.2761 0.2581 0.2401 0.2251
695.942554 0.2090 0.2070 0.2360 0.2649 0.2939
699.999994 0.3229 0.3788 0.4258 0.5235 0.5747
704.057434 0.6010 0.6580 0.6880 0.7150 0.7380
708.114873 0.7719 0.7850 0.7960 0.8050 0.8110
712.172313 0.8160 0.8190 0.8220 0.8250 0.8270
716.229753 0.8290 0.8310 0.8350 0.8350 0.8360
720.287193 0.8380 0.8400 0.8410 0.8430 0.8470
724.344632 0.8470 0.8480 0.8490 0.8500 0.8510
728.402072 0.8520 0.8520 0.8520 0.8520 0.8520
732.459512 0.8530 0.8530 0.8530 0.8530 0.8540
736.516952 0.8540 0.8540 0.8530 0.8510 0.8480
740.574391 0.8450 0.8420 0.8360 0.8280 0.8161
744.631831 0.8000 0.7780 0.7630 0.7490 0.7300
748.689271 0.7121 0.6791 0.5983 0.5164 0.4583
752.746711 0.4000 0.3411 0.2701 0.1972 0.1561
756.804150 0.1161 0.1011 0.0851 0.0750 0.0750
760.861590 0.2811 0.4240 0.5459 0.6699 0.6760
764.919030 0.6830 0.6910 0.6990 0.7159 0.7180
768.976470 0.7180 0.7190 0.7190 0.7190 0.7180
773.033909 0.7150 0.7120 0.6492 0.6032 0.5572
777.091349 0.5210 0.5060 0.4920 0.4780 0.4520
781.148789 0.3971 0.3960 0.3960 0.4079 0.5354
785.206229 0.6670 0.7140 0.7789 0.7990 0.8130
789.263668 0.8220 0.8280 0.8310 0.8350 0.8380
793.321108 0.8430 0.8480 0.8490 0.8480 0.8470
797.378548 0.8390 0.8320 0.8290 0.8290 0.8310
801.435988 0.8350 0.8390 0.8430 0.8470 0.8500
805.493427 0.8530 0.8560 0.8600 0.8610 0.8630
809.550867 0.8640 0.8640 0.8640 0.8650 0.8650
813.608307 0.8650 0.8650 0.8650 0.8650 0.8650
817.665747 0.8640 0.8640 0.8640 0.8640 0.8630
821.723186 0.8630 0.8620 0.8620 0.8600 0.8600
825.780626 0.8590 0.8580 0.8570 0.8560 0.8550
829.838066 0.8540 0.8530 0.8520 0.8510 0.8490
833.895506 0.8470 0.8440 0.8420 0.8390 0.8370
837.952945 0.8350 0.8320 0.8300 0.8280 0.8250
842.010385 0.8230 0.8190 0.7800 0.7550 0.7310
846.067825 0.6372 0.5921 0.5472 0.5211 0.4951
850.125265 0.5180 0.6170 0.6510 0.6840 0.7229
854.182704 0.7479 0.7490 0.7480 0.7311 0.7131
858.240144 0.6950 0.6770 0.6590 0.6410 0.6320
862.297584 0.6240 0.6061 0.5911 0.5711 0.5710
866.355024 0.6400 0.6870 0.6860 0.6840 0.6780
870.412463 0.6670 0.6521 0.6410 0.6370 0.6320
874.469903 0.6160 0.6020 0.5870 0.5730 0.5600
878.527343 0.5480 0.5350 0.5230 0.5120 0.5010
882.584783 0.4960 0.4900 0.4810 0.4700 0.4600
886.642222 0.4510 0.4430 0.4350 0.4260 0.4250
890.699662 0.4240 0.4240 0.4240 0.4250 0.4260
894.757102 0.4400 0.4410 0.4550 0.4680 0.4819
898.814542 0.5090 0.5230 0.5630 0.5650 0.5760
902.871981 0.5860 0.5890 0.5950 0.6020 0.6090
906.929421 0.6200 0.6300 0.6300 0.6350 0.6390
910.986861 0.6450 0.6510 0.6580 0.6660 0.6740
915.044301 0.6830 0.6910 0.7000 0.7090 0.7170
919.101740 0.7250 0.7340 0.7400 0.7460 0.7510
923.159180 0.7550 0.7560 0.7710 0.7760 0.7820
927.216620 0.7860 0.7900 0.7930 0.7970 0.7990
931.274060 0.8010 0.8030 0.8050 0.8090 0.8100
935.331499 0.8100 0.8100 0.8100 0.8100 0.8110
939.388939 0.8110 0.8110 0.8100 0.8100 0.8100
943.446379 0.8100 0.8100 0.8100 0.8100 0.8100
947.503819 0.8100 0.8100 0.8090 0.8090 0.8090
951.561259 0.8090 0.8090 0.8080 0.8060 0.8050
955.618698 0.7920 0.7750 0.7670 0.7600 0.7440
959.676138 0.7081 0.7020 0.7020 0.7080 0.7697
963.733578 0.7800 0.7890 0.7970 0.7980 0.7990
967.791018 0.8010 0.8020 0.8030 0.8040 0.8050
971.848457 0.8060 0.8070 0.8090 0.8100 0.8110
975.905897 0.8120 0.8140 0.8140 0.8150 0.8160
979.963337 0.8160 0.8140 0.8140 0.8120 0.8090
984.020777 0.8020 0.7970 0.7930 0.7890 0.7850
988.078216 0.7820 0.7780 0.7730 0.7680 0.7650
992.135656 0.7610 0.7540 0.7530 0.7769 0.7890
996.193096 0.7980 0.8050 0.8060 0.8060 0.8060
1000.250536 0.8050 0.8030 0.8020 0.8010 0.8000
1004.307975 0.7980 0.7940 0.7910 0.7890 0.7880
1008.365415 0.7880 0.7840 0.7790 0.7780 0.7770
1012.422855 0.7750 0.7740 0.7720 0.7710 0.7670
1016.480295 0.7650 0.7630 0.7570 0.7500 0.7430
1020.537734 0.7370 0.7300 0.7180 0.6590 0.6350
1024.595174 0.6110 0.5641 0.5461 0.5271 0.5270
1028.652614 0.5511 0.6460 0.6990 0.7350 0.7759
1032.710054 0.7850 0.7900 0.7930 0.7970 0.8020
1036.767493 0.8030 0.8030 0.8040 0.8050 0.8050
1040.824933 0.8050 0.8050 0.8050 0.8050 0.8030
1044.882373 0.8030 0.8010 0.8000 0.7990 0.7980
1048.939813 0.7970 0.7960 0.7930 0.7890 0.7870
1052.997252 0.7840 0.7830 0.7820 0.7820 0.7810
1057.054692 0.7810 0.7800 0.7800 0.7800 0.7800
1061.112132 0.7800 0.7800 0.7800 0.7800 0.7800
1065.169572 0.7800 0.7800 0.7800 0.7790 0.7790
1069.227011 0.7780 0.7780 0.7770 0.7770 0.7760
1073.284451 0.7740 0.7690 0.7670 0.7630 0.7610
1077.341891 0.7560 0.7510 0.7430 0.7380 0.7170
1081.399331 0.6940 0.6701 0.6481 0.6370 0.6250
1085.456770 0.6020 0.6020 0.7200 0.7340 0.7480
1089.514210 0.7610 0.7630 0.7640 0.7640 0.7640
1093.571650 0.7630 0.7630 0.7590 0.7560 0.7550
1097.629090 0.7530 0.7510 0.7510 0.7490 0.7480
1101.686529 0.7470 0.7460 0.7430 0.7400 0.7370
1105.743969 0.7340 0.7310 0.7290 0.7270 0.7250
1109.801409 0.7230 0.7210 0.7190 0.7170 0.7150
1113.858849 0.7130 0.7100 0.7070 0.7040 0.7000
1117.916288 0.6970 0.6920 0.6870 0.6830 0.6770
1121.973728 0.6700 0.6620 0.6550 0.6490 0.6450
1126.031168 0.6410 0.6390 0.6370 0.6350 0.6340
1130.088608 0.6320 0.6310 0.6280 0.6250 0.6210
1134.146047 0.6160 0.6100 0.6030 0.5930 0.5820
1138.203487 0.5690 0.5520 0.5340 0.5131 0.5010
1142.260927 0.4880 0.4710 0.4700 0.4680 0.4560
1146.318367 0.4470 0.4031 0.3671 0.3491 0.3311
1150.375806 0.3119 0.2240 0.1350 0.1340 0.1350
1154.433246 0.1689 0.2398 0.2739 0.3089 0.5131
1158.490686 0.6130 0.6290 0.6330 0.6400 0.6410
1162.548126 0.6430 0.6440 0.6440 0.6410 0.6390
1166.605565 0.6370 0.6340 0.6310 0.6270 0.6160
1170.663005 0.6160 0.6090 0.5980 0.5820 0.5641
1174.720445 0.5430 0.5190 0.5070 0.4950 0.4710
1178.777885 0.4470 0.4230 0.4011 0.3821 0.3740
1182.835324 0.3660 0.3530 0.3450 0.3240 0.3070
1186.892764 0.3050 0.3060 0.3090 0.3150 0.3200
1190.950204 0.3250 0.3310 0.3380 0.3470 0.3570
1195.007644 0.3580 0.3570 0.3410 0.3290 0.3170
1199.065083 0.3070 0.2970 0.2860 0.2740 0.2590
1203.122523 0.2420 0.2320 0.2200 0.1941 0.1263
1207.179963 0.1080 0.1080 0.1140 0.1510 0.1790
1211.237403 0.2020 0.2419 0.2619 0.2829 0.3089
1215.294842 0.3401 0.3790 0.3860 0.3840 0.3790
1219.352282 0.3710 0.3670 0.3620 0.3540 0.3450
1223.409722 0.3370 0.3290 0.3160 0.3030 0.2910
1227.467162 0.2810 0.2710 0.2620 0.2540 0.2460
1231.524601 0.2390 0.2360 0.2320 0.2240 0.2170
1235.582041 0.2100 0.2020 0.1940 0.1840 0.1740
1239.639481 0.1640 0.1510 0.1390 0.1240 0.1090
1243.696921 0.1000 0.0910 0.0710 0.0710 0.0710
1247.754360 0.0720 0.1010 0.1160 0.1330 0.1510
1251.811800 0.1710 0.1930 0.2409 0.2689 0.2989
1255.869240 0.3941 0.4351 0.5220 0.5480 0.5490
1259.926680 0.5670 0.5840 0.6020 0.6369 0.6370
1263.984119 0.6520 0.6660 0.6790 0.6810 0.6800
1268.041559 0.6790 0.6770 0.6730 0.6521 0.6371
1272.098999 0.6280 0.6180 0.6030 0.5890 0.5680
1276.156439 0.5350 0.5090 0.4820 0.4391 0.4330
1280.213878 0.4249 0.3750 0.3470 0.3200 0.2650
1284.271318 0.2380 0.2110 0.1651 0.1281 0.1210
1288.328758 0.1110 0.1010 0.0970 0.0910 0.0810
1292.386198 0.0710 0.0710 0.0710 0.0710 0.0730
1296.443638 0.0780 0.0840 0.0910 0.1060 0.1160
1300.501077 0.1260 0.1390 0.1510 0.1670 0.1829
1304.558517 0.2000 0.2190 0.2430 0.2440 0.2950
1308.615957 0.3989 0.4260 0.4410 0.5108 0.5379
1312.673397 0.5430 0.5440 0.5440 0.5210 0.5060
1316.730836 0.4890 0.4561 0.4211 0.3871 0.3701
1320.788276 0.3530 0.3520 0.3720 0.3910 0.4090
1324.845716 0.4290 0.4470 0.4660 0.5049 0.5449
1328.903156 0.5731 0.5930 0.6060 0.6170 0.6410
1332.960595 0.6420 0.6430 0.6580 0.6680 0.6760
1337.018035 0.6830 0.6870 0.6890 0.6910 0.6930
1341.075475 0.6950 0.6970 0.7000 0.7020 0.7040
1345.132915 0.7060 0.7080 0.7090 0.7100 0.7110
1349.190354 0.7120 0.7120 0.7110 0.7100 0.7090
1353.247794 0.7080 0.7060 0.7040 0.7000 0.6970
1357.305234 0.6920 0.6870 0.6800 0.6740 0.6660
1361.362674 0.6590 0.6520 0.6450 0.6400 0.6350
1365.420113 0.6330 0.6310 0.6110 0.5791 0.5680
1369.477553 0.5540 0.5400 0.5270 0.5130 0.5060
1373.534993 0.4990 0.4850 0.4720 0.4700 0.4690
1377.592433 0.4680 0.4680 0.4690 0.4700 0.4730
1381.649872 0.4800 0.4890 0.5080 0.5170 0.5270
1385.707312 0.5350 0.5520 0.5721 0.6410 0.6460
1389.764752 0.6480 0.6490 0.6490 0.6490 0.6450
1393.822192 0.6410 0.6380 0.6360 0.6340 0.6320
1397.879631 0.6270 0.6210 0.6140 0.6040 0.5940
1401.937071 0.5940 0.5940 0.5990 0.6030 0.6070
1405.994511 0.6110 0.6150 0.6190 0.6210 0.6220
1410.051951 0.6220 0.6220 0.6190 0.6120 0.6030
1414.109390 0.5910 0.5780 0.5640 0.5480 0.5320
1418.166830 0.5120 0.5090 0.5030 0.4970 0.4910
1422.224270 0.4750 0.4550 0.4330 0.4081 0.3821
1426.281710 0.3680 0.3540 0.3270 0.2990 0.2740
1430.339149 0.2490 0.2390 0.2270 0.2080 0.1920
1434.396589 0.1709 0.1010 0.0990 0.0980 0.0970
1438.454029 0.0880 0.0750 0.0600 0.0470 0.0370
1442.511469 0.0360 0.0360 0.0370 0.0460 0.0510
1446.568908 0.0640 0.0790 0.1090 0.1240 0.1390
1450.626348 0.1510 0.1600 0.1680 0.1840 0.1850
1454.683788 0.1850 0.1850 0.1810 0.1680 0.1550
1458.741228 0.1510 0.1480 0.1440 0.1400 0.1350
1462.798667 0.1340 0.1330 0.1330 0.1340 0.1420
1466.856107 0.2511 0.2780 0.2950 0.3070 0.3200
1470.913547 0.3400 0.3550 0.3600 0.3610 0.3600
1474.970987 0.3119 0.2710 0.2480 0.2249 0.1510
1479.028426 0.1280 0.1030 0.0910 0.0790 0.0780
1483.085866 0.1430 0.1441 0.1771 0.2410 0.2740
1487.143306 0.3749 0.4259 0.5218 0.5559 0.5859
1491.200746 0.6020 0.6110 0.6200 0.6410 0.6510
1495.258185 0.6610 0.6710 0.6810 0.6910 0.7000
1499.315625 0.7090 0.7170 0.7250 0.7330 0.7400
1503.373065 0.7460 0.7510 0.7550 0.7590 0.7620
1507.430505 0.7680 0.7730 0.7790 0.7850 0.7850
1511.487944 0.7840 0.7840 0.7820 0.7790 0.7760
1515.545384 0.7730 0.7680 0.7630 0.7530 0.7440
1519.602824 0.7270 0.7190 0.7110 0.7020 0.7000
1523.660264 0.7011 0.7231 0.7460 0.7610 0.7670
1527.717703 0.7670 0.7670 0.7660 0.7630 0.7590
1531.775143 0.7560 0.7530 0.7500 0.7460 0.7430
1535.832583 0.7400 0.7380 0.7220 0.7040 0.6960
1539.890023 0.6850 0.6750 0.6740 0.6740 0.6750
1543.947462 0.6770 0.6830 0.6830 0.6830 0.6730
1548.004902 0.6630 0.6540 0.6450 0.6370 0.6340
1552.062342 0.6300 0.6240 0.6180 0.6130 0.6090
1556.119782 0.6059 0.5860 0.5850 0.5700 0.5650
1560.177221 0.5600 0.5540 0.5480 0.5430 0.5380
1564.234661 0.5310 0.5260 0.5200 0.5140 0.5070
1568.292101 0.5000 0.4970 0.4930 0.4850 0.4760
1572.349541 0.4680 0.4590 0.4490 0.4380 0.4270
1576.406980 0.4150 0.4090 0.4090 0.4170 0.4619
1580.464420 0.4781 0.5100 0.5270 0.5410 0.5530
1584.521860 0.5640 0.5720 0.5780 0.5810 0.5800
1588.579300 0.5750 0.5690 0.5640 0.5630 0.5520
1592.636739 0.5330 0.5220 0.5140 0.5040 0.4980
1596.694179 0.4919 0.4649 0.4380 0.4110 0.3830
1600.751619 0.3710 0.3570 0.3300 0.3031 0.2781
1604.809059 0.2510 0.2380 0.2240 0.1980 0.1740
1608.866498 0.1470 0.1460 0.1470 0.1550 0.1630
1612.923938 0.1720 0.1850 0.1980 0.2131 0.2451
1616.981378 0.2950 0.3320 0.3680 0.3820 0.3860
1621.038818 0.3961 0.4171 0.4430 0.4430 0.4420
1625.096258 0.4420 0.4380 0.4360 0.4310 0.4260
1629.153697 0.4210 0.4140 0.4070 0.3990 0.3890
1633.211137 0.3790 0.3690 0.3640 0.3580 0.3460
1637.268577 0.3340 0.3210 0.3080 0.2930 0.2780
1641.326017 0.2640 0.2480 0.2400 0.2320 0.2150
1645.383456 0.1949 0.1770 0.1600 0.1450 0.1320
1649.440896 0.1200 0.1090 0.1010 0.0970 0.0920
1653.498336 0.0860 0.0800 0.0760 0.0720 0.0690
1657.555776 0.0670 0.0640 0.0630 0.0630 0.0630
1661.613215 0.0650 0.0670 0.0720 0.0780 0.0810
1665.670655 0.0840 0.0870 0.0900 0.0930 0.0990
1669.728095 0.1010 0.1020 0.1040 0.1050 0.1050
1673.785535 0.1070 0.1080 0.1090 0.1110 0.1130
1677.842974 0.1200 0.1310 0.1470 0.1630 0.1790
1681.900414 0.1970 0.2150 0.2520 0.2710 0.2910
1685.957854 0.3121 0.3331 0.3791 0.4020 0.4260
1690.015294 0.4430 0.4590 0.4760 0.5060 0.5200
1694.072733 0.5340 0.5480 0.5600 0.5730 0.5840
1698.130173 0.5950 0.6070 0.6160 0.6360 0.6450
1702.187613 0.6530 0.6610 0.6670 0.6750 0.6810
1706.245053 0.6870 0.6910 0.6960 0.7000 0.7040
1710.302492 0.7080 0.7110 0.7130 0.7150 0.7160
1714.359932 0.7180 0.7200 0.7220 0.7240 0.7260
1718.417372 0.7290 0.7310 0.7330 0.7360 0.7380
1722.474812 0.7410 0.7430 0.7460 0.7490 0.7520
1726.532251 0.7550 0.7580 0.7610 0.7670 0.7710
1730.589691 0.7730 0.7760 0.7800 0.7870 0.7900
1734.647131 0.7910 0.7900 0.7890 0.7860 0.7840
1738.704571 0.7820 0.7800 0.7760 0.7710 0.7670
1742.762010 0.7660 0.7630 0.7600 0.7580 0.7560
1746.819450 0.7570 0.7610 0.7670 0.7710 0.7750
1750.876890 0.7780 0.7810 0.7840 0.7880 0.7910
1754.934330 0.7950 0.7980 0.8010 0.8050 0.8070
1758.991769 0.8100 0.8130 0.8150 0.8180 0.8200
1763.049209 0.8220 0.8230 0.8250 0.8260 0.8260
1767.106649 0.8260 0.8270 0.8270 0.8290 0.8310
1771.164089 0.8310 0.8320 0.8340 0.8350 0.8350
1775.221528 0.8350 0.8350 0.8350 0.8360 0.8360
1779.278968 0.8370 0.8370 0.8390 0.8390 0.8410
1783.336408 0.8410 0.8420 0.8420 0.8430 0.8430
1787.393848 0.8420 0.8420 0.8410 0.8400 0.8390
1791.451287 0.8390 0.8380 0.8370 0.8360 0.8350
1795.508727 0.8350 0.8350 0.8350 0.8340 0.8340
1799.566167 0.8330 0.8330 0.8330 0.8330 0.8330
1803.623607 0.8330 0.8320 0.8320 0.8320 0.8320
1807.681046 0.8320 0.8320 0.8320 0.8320 0.8320
1811.738486 0.8310 0.8310 0.8310 0.8310 0.8310
1815.795926 0.8310 0.8310 0.8310 0.8310 0.8300
1819.853366 0.8290 0.8280 0.8270 0.8250 0.8220
1823.910805 0.8210 0.8180 0.8160 0.8140 0.8130
1827.968245 0.8120 0.8120 0.8130 0.8140 0.8140
1832.025685 0.8150 0.8170 0.8180 0.8200 0.8220
1836.083125 0.8240 0.8270 0.8290 0.8310 0.8340
1840.140564 0.8350 0.8370 0.8380 0.8390 0.8390
1844.198004 0.8390 0.8390 0.8390 0.8380 0.8350
1848.255444 0.8330 0.8330 0.8320 0.8310 0.8310
1852.312884 0.8290 0.8280 0.8260 0.8220 0.8180
1856.370323 0.8150 0.8130 0.8100 0.8060 0.8050
1860.427763 0.8050 0.8030 0.8030 0.8040 0.8050
1864.485203 0.8050 0.8070 0.8090 0.8130 0.8150
1868.542643 0.8180 0.8180 0.8200 0.8200 0.8220
1872.600082 0.8230 0.8250 0.8270 0.8270 0.8280
1876.657522 0.8290 0.8300 0.8310 0.8310 0.8310
1880.714962 0.8320 0.8330 0.8330 0.8330 0.8340
1884.772402 0.8340 0.8340 0.8350 0.8350 0.8350
1888.829841 0.8350 0.8350 0.8360 0.8360 0.8360
1892.887281 0.8370 0.8370 0.8380 0.8380 0.8380
1896.944721 0.8380 0.8380 0.8370 0.8370 0.8360
1901.002161 0.8360 0.8350 0.8350 0.8350 0.8350
1905.059600 0.8350 0.8350 0.8340 0.8330 0.8320
1909.117040 0.8310 0.8310 0.8300 0.8290 0.8280
1913.174480 0.8270 0.8260 0.8250 0.8230 0.8220
1917.231920 0.8210 0.8180 0.8180 0.8180 0.8160
1921.289359 0.8170 0.8180 0.8180 0.8200 0.8210
1925.346799 0.8220 0.8230 0.8250 0.8270 0.8300
1929.404239 0.8310 0.8310 0.8310 0.8310 0.8320
1933.461679 0.8320 0.8320 0.8320 0.8310 0.8310
1937.519118 0.8310 0.8300 0.8300 0.8290 0.8290
1941.576558 0.8280 0.8270 0.8260 0.8240 0.8220
1945.633998 0.8200 0.8180 0.8150 0.8130 0.8100
1949.691438 0.8060 0.8040 0.8030 0.8040 0.8050
1953.748877 0.8100 0.8120 0.8140 0.8160 0.8180
1957.806317 0.8180 0.8180 0.8200 0.8200 0.8210
1961.863757 0.8220 0.8220 0.8230 0.8230 0.8230
1965.921197 0.8220 0.8220 0.8210 0.8200 0.8190
1969.978637 0.8180 0.8160 0.8130 0.8100 0.8070
1974.036076 0.8040 0.8000 0.7940 0.7880 0.7780
1978.093516 0.7720 0.7649 0.7500 0.7490 0.7501
1982.150956 0.7790 0.7880 0.7930 0.7960 0.7970
1986.208396 0.8000 0.8040 0.8070 0.8090 0.8100
1990.265835 0.8110 0.8120 0.8140 0.8150 0.8150
1994.323275 0.8150 0.8140 0.8140 0.8130 0.8110
1998.380715 0.8110 0.8100 0.8100 0.8100 0.8100
2002.438155 0.8100 0.8100 0.8100 0.8100 0.8100
2006.495594 0.8100 0.8100 0.8100 0.8100 0.8100
2010.553034 0.8095 0.8090 0.8084 0.8080 0.8077
2014.610474 0.8075 0.8072 0.8070 0.8070 0.8070
2018.667914 0.8070 0.8070 0.8067 0.8065 0.8062
2022.725353 0.8060 0.8057 0.8054 0.8052 0.8050
2026.782793 0.8050 0.8050 0.8050 0.8050 0.8050
2030.840233 0.8050 0.8050 0.8049 0.8047 0.8044
2034.897673 0.8042 0.8039 0.8037 0.8034 0.8032
2038.955112 0.8027 0.8020 0.8012 0.8004 0.7997
2043.012552 0.7989 0.7982 0.7974 0.7966 0.7956
2047.069992 0.7945 0.7935 0.7923 0.7908 0.7893
2051.127432 0.7878 0.7864 0.7851 0.7839 0.7826
2055.184871 0.7812 0.7797 0.7782 0.7767 0.7753
2059.242311 0.7741 0.7728 0.7715 0.7706 0.7698
2063.299751 0.7690 0.7683 0.7675 0.7667 0.7660
2067.357191 0.7652 0.7640 0.7625 0.7609 0.7594
2071.414630 0.7583 0.7573 0.7563 0.7553 0.7543
2075.472070 0.7532 0.7522 0.7512 0.7508 0.7506
2079.529510 0.7503 0.7501 0.7502 0.7505 0.7507
2083.586950 0.7510 0.7512 0.7515 0.7517 0.7520
2087.644389 0.7526 0.7534 0.7541 0.7549 0.7554
2091.701829 0.7559 0.7564 0.7569 0.7575 0.7580
2095.759269 0.7585 0.7590 0.7592 0.7595 0.7598
2099.816709 0.7600 0.7605 0.7610 0.7615 0.7620
2103.874148 0.7620 0.7620 0.7620 0.7620 0.7623
2107.931588 0.7625 0.7628 0.7632 0.7649 0.7667
2111.989028 0.7685 0.7700 0.7703 0.7705 0.7708
2116.046468 0.7710 0.7713 0.7715 0.7718 0.7720
2120.103907 0.7723 0.7725 0.7728 0.7730 0.7730
2124.161347 0.7730 0.7730 0.7731 0.7733 0.7736
2128.218787 0.7738 0.7739 0.7737 0.7734 0.7732
2132.276227 0.7729 0.7727 0.7724 0.7722 0.7718
2136.333666 0.7713 0.7708 0.7703 0.7698 0.7693
2140.391106 0.7688 0.7683 0.7679 0.7676 0.7674
2144.448546 0.7671 0.7669 0.7666 0.7664 0.7661
2148.505986 0.7656 0.7649 0.7641 0.7634 0.7629
2152.563425 0.7626 0.7624 0.7621 0.7616 0.7608
2156.620865 0.7601 0.7593 0.7586 0.7578 0.7570
2160.678305 0.7563 0.7557 0.7552 0.7547 0.7542
2164.735745 0.7535 0.7527 0.7520 0.7512 0.7508
2168.793184 0.7506 0.7503 0.7501 0.7498 0.7496
2172.850624 0.7493 0.7491 0.7490 0.7490 0.7490
2176.908064 0.7490 0.7500 0.7512 0.7525 0.7538
2180.965504 0.7544 0.7549 0.7554 0.7559 0.7562
2185.022943 0.7565 0.7567 0.7570 0.7570 0.7570
2189.080383 0.7570 0.7570 0.7575 0.7580 0.7585
2193.137823 0.7590 0.7592 0.7595 0.7597 0.7600
2197.195263 0.7600 0.7600 0.7600 0.7600 0.7597
2201.252702 0.7595 0.7592 0.7590 0.7590 0.7590
2205.310142 0.7590 0.7590 0.7585 0.7580 0.7575
2209.367582 0.7569 0.7564 0.7559 0.7554 0.7549
2213.425022 0.7544 0.7539 0.7534 0.7529 0.7524
2217.482461 0.7519 0.7514 0.7509 0.7504 0.7499
2221.539901 0.7494 0.7489 0.7484 0.7479 0.7474
2225.597341 0.7469 0.7467 0.7464 0.7462 0.7458
2229.654781 0.7453 0.7448 0.7443 0.7438 0.7433
2233.712220 0.7428 0.7423 0.7419 0.7417 0.7414
2237.769660 0.7411 0.7408 0.7403 0.7398 0.7393
2241.827100 0.7388 0.7383 0.7378 0.7373 0.7368
2245.884540 0.7363 0.7358 0.7353 0.7348 0.7343
2249.941979 0.7337 0.7332 0.7325 0.7315 0.7305
2253.999419 0.7295 0.7286 0.7278 0.7271 0.7263
2258.056859 0.7257 0.7252 0.7247 0.7242 0.7237
2262.114299 0.7232 0.7227 0.7222 0.7218 0.7216
2266.171738 0.7213 0.7211 0.7210 0.7210 0.7210
2270.229178 0.7210 0.7206 0.7201 0.7196 0.7191
2274.286618 0.7186 0.7181 0.7176 0.7171 0.7166
2278.344058 0.7161 0.7156 0.7151 0.7148 0.7145
2282.401497 0.7143 0.7140 0.7138 0.7135 0.7133
2286.458937 0.7130 0.7128 0.7125 0.7123 0.7120
2290.516377 0.7115 0.7110 0.7105 0.7100 0.7098
2294.573817 0.7095 0.7092 0.7090 0.7087 0.7085
2298.631256 0.7082 0.7080 0.7075 0.7070 0.7065
2302.688696 0.7060 0.7057 0.7055 0.7052 0.7050
2306.746136 0.7045 0.7039 0.7034 0.7029 0.7024
2310.803576 0.7019 0.7014 0.7009 0.7004 0.6999
2314.861016 0.6994 0.6989 0.6981 0.6974 0.6966
2318.918455 0.6959 0.6954 0.6949 0.6944 0.6937
2322.975895 0.6927 0.6917 0.6907 0.6897 0.6887
2327.033335 0.6877 0.6867 0.6858 0.6853 0.6848
2331.090775 0.6843 0.6838 0.6833 0.6828 0.6823
2335.148214 0.6817 0.6809 0.6802 0.6794 0.6788
2339.205654 0.6783 0.6778 0.6773 0.6768 0.6763
2343.263094 0.6758 0.6753 0.6746 0.6739 0.6731
2347.320534 0.6724 0.6717 0.6712 0.6707 0.6702
2351.377973 0.6696 0.6688 0.6681 0.6673 0.6667
2355.435413 0.6662 0.6657 0.6652 0.6645 0.6638
2359.492853 0.6630 0.6623 0.6615 0.6607 0.6600
2363.550293 0.6592 0.6587 0.6581 0.6576 0.6571
2367.607732 0.6565 0.6557 0.6549 0.6542 0.6534
2371.665172 0.6527 0.6519 0.6512 0.6504 0.6497
2375.722612 0.6489 0.6482 0.6474 0.6466 0.6459
2379.780052 0.6451 0.6444 0.6436 0.6429 0.6421
2383.837491 0.6413 0.6406 0.6398 0.6390 0.6383
2387.894931 0.6375 0.6368 0.6360 0.6355 0.6350
2391.952371 0.6345 0.6340 0.6335 0.6330 0.6325
2396.009811 0.6320 0.6312 0.6305 0.6297 0.6290
2400.067250 0.6282 0.6275 0.6267 0.6259 0.6252
2404.124690 0.6244 0.6237 0.6229 0.6222 0.6214
2408.182130 0.6207 0.6199 0.6189 0.6179 0.6169
2412.239570 0.6158 0.6148 0.6138 0.6128 0.6118
2416.297009 0.6108 0.6098 0.6087 0.6078 0.6070
2420.354449 0.6063 0.6055 0.6047 0.6037 0.6027
2424.411889 0.6017 0.6007 0.5997 0.5987 0.5977
2428.469329 0.5966 0.5956 0.5946 0.5936 0.5926
2432.526768 0.5916 0.5906 0.5896 0.5886 0.5876
2436.584208 0.5866 0.5856 0.5846 0.5836 0.5826
2440.641648 0.5815 0.5804 0.5792 0.5779 0.5767
2444.699088 0.5755 0.5745 0.5735 0.5725 0.5713
2448.756527 0.5701 0.5688 0.5675 0.5664 0.5654
2452.813967 0.5644 0.5634 0.5622 0.5610 0.5597
2456.871407 0.5584 0.5572 0.5559 0.5547 0.5534
2460.928847 0.5521 0.5509 0.5496 0.5484 0.5473
2464.986286 0.5463 0.5453 0.5443 0.5431 0.5418
2469.043726 0.5406 0.5393 0.5380 0.5368 0.5355
2473.101166 0.5343 0.5328 0.5313 0.5298 0.5283
2477.158606 0.5270 0.5257 0.5245 0.5232 0.5219
2481.216045 0.5206 0.5194 0.5181 0.5166 0.5151
2485.273485 0.5136 0.5121 0.5106 0.5090 0.5075
2489.330925 0.5060 0.5048 0.5035 0.5022 0.5010
2493.388365 0.5002 0.4995 0.4987 0.4980 0.4972
2497.445804 0.4965 0.4957 0.4949 0.4934 0.4919
2501.503244 0.4904 0.4889 0.4874 0.4858 0.4843
2505.560684 0.4825 0.4780 0.4734 0.4689 0.4649
2509.618124 0.4641 0.4634 0.4626 0.4617 0.4602
2513.675563 0.4587 0.4571 0.4557 0.4544 0.4532
2517.733003 0.4519 0.4501 0.4468 0.4435 0.4403
2521.790443 0.4371 0.4344 0.4316 0.4288 0.4262
2525.847883 0.4236 0.4211 0.4186 0.4160 0.4132
2529.905322 0.4105 0.4077 0.4059 0.4057 0.4054
2533.962762 0.4051 0.4050 0.4050 0.4050 0.4050
2538.020202 0.4051 0.4054 0.4056 0.4059 0.4061
2542.077642 0.4064 0.4066 0.4069 0.4069 0.4066
2546.135081 0.4064 0.4061 0.4059 0.4056 0.4054
2550.192521 0.4051 0.4045 0.4038 0.4030 0.4023
2554.249961 0.4015 0.4008 0.4000 0.3993 0.3985
2558.307401 0.3977 0.3970 0.3962 0.3953 0.3943
2562.364840 0.3933 0.3923 0.3913 0.3903 0.3893
2566.422280 0.3883 0.3873 0.3862 0.3852 0.3842
2570.479720 0.3830 0.3818 0.3805 0.3793 0.3782
2574.537160 0.3772 0.3762 0.3752 0.3742 0.3731
2578.594599 0.3721 0.3711 0.3701 0.3691 0.3681
2582.652039 0.3671 0.3665 0.3660 0.3655 0.3650
2586.709479 0.3643 0.3635 0.3628 0.3620 0.3610
2590.766919 0.3600 0.3590 0.3580 0.3575 0.3570
2594.824358 0.3565 0.3560 0.3560 0.3560 0.3560
2598.881798 0.3560 0.3563 0.3565 0.3568 0.3570
2602.939238 0.3573 0.3575 0.3578 0.3584 0.3617
2606.996678 0.3649 0.3682 0.3712 0.3725 0.3738
2611.054117 0.3750 0.3763 0.3776 0.3788 0.3801
2615.111557 0.3814 0.3829 0.3844 0.3859 0.3874
2619.168997 0.3886 0.3899 0.3911 0.3923 0.3933
2623.226437 0.3943 0.3953 0.3965 0.3980 0.3995
2627.283876 0.4011 0.4025 0.4037 0.4050 0.4062
2631.341316 0.4073 0.4081 0.4088 0.4096 0.4108
2635.398756 0.4125 0.4143 0.4160 0.4178 0.4196
2639.456196 0.4213 0.4231 0.4244 0.4251 0.4259
2643.513635 0.4267 0.4273 0.4278 0.4283 0.4288
2647.571075 0.4295 0.4302 0.4310 0.4317 0.4320
2651.628515 0.4320 0.4320 0.4320 0.4318 0.4316
2655.685955 0.4313 0.4311 0.4308 0.4306 0.4303
2659.743395 0.4301 0.4300 0.4300 0.4300 0.4300
2663.800834 0.4300 0.4300 0.4300 0.4300 0.4298
2667.858274 0.4296 0.4293 0.4291 0.4286 0.4281
2671.915714 0.4276 0.4271 0.4266 0.4261 0.4256
2675.973154 0.4251 0.4241 0.4231 0.4221 0.4211
2680.030593 0.4201 0.4191 0.4181 0.4171 0.4160
2684.088033 0.4150 0.4140 0.4130 0.4123 0.4115
2688.145473 0.4108 0.4100 0.4092 0.4085 0.4077
2692.202913 0.4070 0.4054 0.4039 0.4024 0.4010
2696.260352 0.4007 0.4005 0.4002 0.4000 0.3997
2700.317792 0.3995 0.3992 0.3989 0.3982 0.3974
2704.375232 0.3967 0.3960 0.3957 0.3955 0.3952
2708.432672 0.3948 0.3941 0.3933 0.3926 0.3919
2712.490111 0.3917 0.3914 0.3912 0.3908 0.3900
2716.547551 0.3893 0.3885 0.3879 0.3877 0.3874
2720.604991 0.3872 0.3870 0.3870 0.3870 0.3870
2724.662431 0.3871 0.3873 0.3876 0.3878 0.3884
2728.719870 0.3894 0.3904 0.3914 0.3926 0.3941
2732.777310 0.3956 0.3971 0.3983 0.3991 0.3998
2736.834750 0.4006 0.4014 0.4021 0.4029 0.4037
2740.892190 0.4041 0.4044 0.4046 0.4049 0.4053
2744.949629 0.4058 0.4063 0.4068 0.4070 0.4070
2749.007069 0.4070 0.4070 0.4068 0.4066 0.4063
2753.064509 0.4061 0.4058 0.4056 0.4053 0.4051
2757.121949 0.4041 0.4029 0.4016 0.4004 0.3993
2761.179388 0.3983 0.3973 0.3963 0.3949 0.3934
2765.236828 0.3919 0.3904 0.3890 0.3878 0.3865
2769.294268 0.3853 0.3840 0.3827 0.3814 0.3802
2773.351708 0.3791 0.3781 0.3771 0.3761 0.3751
2777.409147 0.3741 0.3731 0.3721 0.3708 0.3696
2781.466587 0.3683 0.3670 0.3668 0.3665 0.3663
2785.524027 0.3660 0.3653 0.3645 0.3637 0.3630
2789.581467 0.3617 0.3605 0.3592 0.3580 0.3570
2793.638906 0.3559 0.3549 0.3539 0.3524 0.3509
2797.696346 0.3494 0.3479 0.3463 0.3448 0.3433
2801.753786 0.3418 0.3406 0.3393 0.3380 0.3366
2805.811226 0.3349 0.3331 0.3313 0.3296 0.3278
2809.868665 0.3261 0.3243 0.3225 0.3205 0.3184
2813.926105 0.3164 0.3143 0.3121 0.3098 0.3075
2817.983545 0.3052 0.3027 0.3002 0.2977 0.2947
2822.040985 0.2909 0.2872 0.2834 0.2807 0.2800
2826.098424 0.2792 0.2785 0.2778 0.2773 0.2768
2830.155864 0.2763 0.2745 0.2710 0.2675 0.2639
2834.213304 0.2599 0.2553 0.2507 0.2461 0.2414
2838.270744 0.2366 0.2319 0.2271 0.2145 0.1959
2842.328183 0.1772 0.1586 0.1458 0.1370 0.1282
2846.385623 0.1194 0.1135 0.1095 0.1055 0.1014
2850.443063 0.0974 0.0934 0.0894 0.0853 0.0837
2854.500503 0.0832 0.0827 0.0822 0.0822 0.0824
2858.557942 0.0827 0.0829 0.0835 0.0843 0.0851
2862.615382 0.0858 0.0864 0.0869 0.0874 0.0879
2866.672822 0.0904 0.0935 0.0965 0.0996 0.1011
2870.730262 0.1024 0.1036 0.1049 0.1066 0.1083
2874.787701 0.1101 0.1119 0.1139 0.1159 0.1179
2878.845141 0.1199 0.1217 0.1234 0.1252 0.1270
2882.902581 0.1275 0.1280 0.1285 0.1290 0.1285
2886.960021 0.1280 0.1275 0.1270 0.1262 0.1255
2891.017460 0.1247 0.1239 0.1216 0.1194 0.1171
2895.074900 0.1148 0.1128 0.1108 0.1088 0.1068
2899.132340 0.1045 0.1022 0.0999 0.0975 0.0950
2903.189780 0.0925 0.0900 0.0876 0.0858 0.0841
2907.247219 0.0823 0.0806 0.0791 0.0776 0.0761
2911.304659 0.0743 0.0718 0.0693 0.0668 0.0636
2915.362099 0.0591 0.0546 0.0500 0.0455 0.0410
2919.419539 0.0365 0.0319 0.0290 0.0290 0.0290
2923.476978 0.0290 0.0289 0.0287 0.0284 0.0281
2927.534418 0.0281 0.0284 0.0286 0.0289 0.0294
2931.591858 0.0305 0.0315 0.0325 0.0335 0.0345
2935.649298 0.0355 0.0365 0.0377 0.0389 0.0402
2939.706737 0.0415 0.0426 0.0436 0.0446 0.0456
2943.764177 0.0466 0.0476 0.0486 0.0496 0.0506
2947.821617 0.0516 0.0526 0.0537 0.0547 0.0557
2951.879057 0.0567 0.0577 0.0582 0.0584 0.0587
2955.936496 0.0589 0.0606 0.0629 0.0651 0.0674
2959.993936 0.0697 0.0719 0.0742 0.0765 0.0826
2964.051376 0.0901 0.0975 0.1049 0.1107 0.1163
2968.108816 0.1218 0.1273 0.1324 0.1375 0.1425
2972.166255 0.1475 0.1482 0.1485 0.1487 0.1490
2976.223695 0.1506 0.1524 0.1542 0.1559 0.1579
2980.281135 0.1599 0.1620 0.1640 0.1657 0.1675
2984.338575 0.1693 0.1710 0.1728 0.1745 0.1763
2988.396015 0.1781 0.1798 0.1816 0.1833 0.1851
2992.453454 0.1871 0.1892 0.1912 0.1932 0.1949
2996.510894 0.1967 0.1985 0.2006 0.2042 0.2077
3000.568334 0.2112 0.2141 0.2143 0.2146 0.2148
3004.625774 0.2153 0.2166 0.2178 0.2191 0.2204
3008.683213 0.2219 0.2234 0.2249 0.2268 0.2296
3012.740653 0.2323 0.2351 0.2375 0.2390 0.2405
3016.798093 0.2420 0.2433 0.2443 0.2454 0.2464
3020.855533 0.2474 0.2484 0.2494 0.2504 0.2519
3024.912972 0.2542 0.2564 0.2587 0.2609 0.2629
3028.970412 0.2649 0.2670 0.2684 0.2691 0.2699
3033.027852 0.2706 0.2713 0.2718 0.2723 0.2728
3037.085292 0.2731 0.2734 0.2736 0.2739 0.2741
3041.142731 0.2744 0.2747 0.2749 0.2753 0.2758
3045.200171 0.2763 0.2768 0.2772 0.2774 0.2777
3049.257611 0.2779 0.2782 0.2784 0.2787 0.2789
3053.315051 0.2792 0.2794 0.2797 0.2799 0.2802
3057.372490 0.2804 0.2807 0.2809 0.2812 0.2814
3061.429930 0.2817 0.2820 0.2820 0.2820 0.2820
3065.487370 0.2820 0.2822 0.2825 0.2827 0.2830
3069.544810 0.2839 0.2849 0.2859 0.2869 0.2888
3073.602249 0.2909 0.2929 0.2949 0.2976 0.3004
3077.659689 0.3031 0.3059 0.3080 0.3100 0.3120
3081.717129 0.3140 0.3160 0.3180 0.3200 0.3220
3085.774569 0.3235 0.3251 0.3266 0.3281 0.3293
3089.832008 0.3306 0.3318 0.3331 0.3344 0.3357
3093.889448 0.3369 0.3382 0.3392 0.3402 0.3412
3097.946888 0.3422 0.3435 0.3448 0.3460 0.3472
3102.004328 0.3482 0.3492 0.3502 0.3512 0.3523
3106.061767 0.3533 0.3543 0.3551 0.3556 0.3561
3110.119207 0.3566 0.3571 0.3573 0.3576 0.3578
3114.176647 0.3583 0.3593 0.3603 0.3613 0.3624
3118.234087 0.3637 0.3650 0.3662 0.3672 0.3677
3122.291526 0.3682 0.3687 0.3692 0.3697 0.3702
3126.348966 0.3707 0.3716 0.3729 0.3741 0.3754
3130.406406 0.3763 0.3768 0.3773 0.3778 0.3783
3134.463846 0.3788 0.3793 0.3798 0.3800 0.3800
3138.521285 0.3800 0.3800 0.3806 0.3816 0.3826
3142.578725 0.3836 0.3846 0.3856 0.3866 0.3876
3146.636165 0.3887 0.3897 0.3907 0.3917 0.3927
3150.693605 0.3937 0.3947 0.3957 0.3965 0.3973
3154.751044 0.3980 0.3988 0.3992 0.3994 0.3997
3158.808484 0.4000 0.4006 0.4014 0.4021 0.4029
3162.865924 0.4036 0.4044 0.4052 0.4059 0.4062
3166.923364 0.4065 0.4067 0.4070 0.4072 0.4075
3170.980803 0.4077 0.4080 0.4080 0.4080 0.4080
3175.038243 0.4080 0.4080 0.4080 0.4080 0.4080
3179.095683 0.4082 0.4085 0.4088 0.4090 0.4090
3183.153123 0.4090 0.4090 0.4090 0.4087 0.4085
3187.210562 0.4082 0.4080 0.4077 0.4075 0.4072
3191.268002 0.4069 0.4064 0.4059 0.4054 0.4043
3195.325442 0.4003 0.3962 0.3922 0.3882 0.3842
3199.382882 0.3801 0.3761 0.3726 0.3708 0.3691
3203.440321 0.3673 0.3655 0.3635 0.3615 0.3594
3207.497761 0.3574 0.3554 0.3534 0.3514 0.3493
3211.555201 0.3470 0.3448 0.3425 0.3396 0.3353
3215.612641 0.3310 0.3267 0.3226 0.3189 0.3151
3219.670080 0.3113 0.3074 0.3033 0.2992 0.2951
3223.727520 0.2896 0.2826 0.2755 0.2685 0.2649
3227.784960 0.2646 0.2644 0.2641 0.2640 0.2640
3231.842400 0.2640 0.2640 0.2644 0.2652 0.2659
3235.899839 0.2667 0.2686 0.2714 0.2742 0.2769
3239.957279 0.2795 0.2821 0.2846 0.2871 0.2898
3244.014719 0.2925 0.2953 0.2981 0.3007 0.3032
3248.072159 0.3057 0.3082 0.3106 0.3128 0.3151
3252.129598 0.3174 0.3222 0.3281 0.3340 0.3399
3256.187038 0.3528 0.3674 0.3820 0.3966 0.4038
3260.244478 0.4096 0.4154 0.4212 0.4261 0.4309
3264.301918 0.4357 0.4405 0.4441 0.4476 0.4512
3268.359357 0.4547 0.4580 0.4613 0.4645 0.4678
3272.416797 0.4756 0.4836 0.4917 0.4997 0.5056
3276.474237 0.5114 0.5172 0.5229 0.5312 0.5395
3280.531677 0.5478 0.5561 0.5593 0.5626 0.5659
3284.589116 0.5691 0.5719 0.5748 0.5776 0.5803
3288.646556 0.5829 0.5854 0.5879 0.5904 0.5929
3292.703996 0.5954 0.5980 0.6004 0.6027 0.6050
3296.761436 0.6072 0.6094 0.6114 0.6135 0.6155
3300.818875 0.6174 0.6192 0.6209 0.6227 0.6249
3304.876315 0.6281 0.6314 0.6347 0.6374 0.6390
3308.933755 0.6405 0.6420 0.6434 0.6447 0.6459
3312.991195 0.6472 0.6484 0.6497 0.6510 0.6522
3317.048634 0.6534 0.6544 0.6554 0.6564 0.6575
3321.106074 0.6585 0.6595 0.6605 0.6614 0.6621
3325.163514 0.6629 0.6636 0.6645 0.6655 0.6665
3329.220954 0.6675 0.6684 0.6692 0.6699 0.6707
3333.278394 0.6714 0.6722 0.6729 0.6737 0.6744
3337.335833 0.6752 0.6760 0.6767 0.6775 0.6782
3341.393273 0.6790 0.6797 0.6805 0.6812 0.6820
3345.450713 0.6828 0.6837 0.6847 0.6857 0.6867
3349.508153 0.6875 0.6883 0.6891 0.6898 0.6908
3353.565592 0.6918 0.6928 0.6938 0.6946 0.6954
3357.623032 0.6961 0.6969 0.6981 0.6993 0.7006
3361.680472 0.7018 0.7029 0.7039 0.7049 0.7059
3365.737912 0.7074 0.7089 0.7104 0.7119 0.7132
3369.795351 0.7144 0.7157 0.7169 0.7175 0.7180
3373.852791 0.7185 0.7190 0.7197 0.7205 0.7212
3377.910231 0.7220 0.7230 0.7240 0.7250 0.7260
3381.967671 0.7263 0.7265 0.7268 0.7270 0.7270
3386.025110 0.7270 0.7270 0.7270 0.7270 0.7270
3390.082550 0.7270 0.7270 0.7270 0.7270 0.7270
3394.139990 0.7269 0.7264 0.7259 0.7254 0.7250
3398.197430 0.7250 0.7250 0.7250 0.7250 0.7250
3402.254869 0.7250 0.7250 0.7249 0.7247 0.7244
3406.312309 0.7242 0.7240 0.7240 0.7240 0.7240
3410.369749 0.7238 0.7233 0.7228 0.7223 0.7220
3414.427189 0.7220 0.7220 0.7220 0.7220 0.7220
3418.484628 0.7220 0.7220 0.7219 0.7216 0.7214
3422.542068 0.7211 0.7210 0.7210 0.7210 0.7210
3426.599508 0.7210 0.7210 0.7210 0.7210 0.7210
3430.656948 0.7210 0.7210 0.7210 0.7210 0.7210
3434.714387 0.7210 0.7210 0.7210 0.7210 0.7210
3438.771827 0.7210 0.7208 0.7206 0.7203 0.7201
3442.829267 0.7200 0.7200 0.7200 0.7200 0.7198
3446.886707 0.7196 0.7193 0.7191 0.7188 0.7186
3450.944146 0.7183 0.7180 0.7180 0.7180 0.7180
3455.001586 0.7180 0.7178 0.7175 0.7173 0.7170
3459.059026 0.7170 0.7170 0.7170 0.7170 0.7168
3463.116466 0.7165 0.7163 0.7160 0.7155 0.7150
3467.173905 0.7145 0.7140 0.7138 0.7135 0.7133
3471.231345 0.7130 0.7125 0.7120 0.7115 0.7110
3475.288785 0.7103 0.7095 0.7087 0.7080 0.7080
3479.346225 0.7080 0.7080 0.7079 0.7069 0.7059
3483.403664 0.7049 0.7040 0.7037 0.7035 0.7032
3487.461104 0.7029 0.7021 0.7014 0.7006 0.6999
3491.518544 0.6994 0.6989 0.6984 0.6979 0.6974
3495.575984 0.6969 0.6964 0.6959 0.6954 0.6949
3499.633423 0.6944 0.6939 0.6934 0.6929 0.6924
3503.690863 0.6919 0.6917 0.6914 0.6912 0.6909
3507.748303 0.6907 0.6904 0.6902 0.6899 0.6897
3511.805743 0.6894 0.6891 0.6890 0.6890 0.6890
3515.863182 0.6890 0.6890 0.6890 0.6890 0.6890
3519.920622 0.6890 0.6890 0.6890 0.6890 0.6891
3523.978062 0.6894 0.6896 0.6899 0.6901 0.6904
3528.035502 0.6906 0.6909 0.6911 0.6914 0.6916
3532.092941 0.6919 0.6921 0.6924 0.6927 0.6929
3536.150381 0.6932 0.6934 0.6937 0.6939 0.6942
3540.207821 0.6944 0.6947 0.6949 0.6950 0.6950
3544.265261 0.6950 0.6950 0.6952 0.6954 0.6957
3548.322700 0.6959 0.6960 0.6960 0.6960 0.6960
3552.380140 0.6962 0.6965 0.6967 0.6970 0.6970
3556.437580 0.6970 0.6970 0.6970 0.6970 0.6970
3560.495020 0.6970 0.6970 0.6970 0.6970 0.6970
3564.552459 0.6970 0.6970 0.6970 0.6970 0.6970
3568.609899 0.6968 0.6965 0.6963 0.6960 0.6960
3572.667339 0.6960 0.6960 0.6960 0.6960 0.6960
3576.724779 0.6960 0.6960 0.6957 0.6955 0.6952
3580.782218 0.6949 0.6944 0.6939 0.6934 0.6929
3584.839658 0.6924 0.6919 0.6914 0.6910 0.6910
3588.897098 0.6910 0.6910 0.6909 0.6904 0.6899
3592.954538 0.6894 0.6889 0.6887 0.6884 0.6882
3597.011977 0.6879 0.6877 0.6874 0.6872 0.6870
3601.069417 0.6870 0.6870 0.6870 0.6869 0.6867
3605.126857 0.6864 0.6862 0.6860 0.6860 0.6860
3609.184297 0.6860 0.6859 0.6856 0.6854 0.6851
3613.241736 0.6850 0.6850 0.6850 0.6850 0.6849
3617.299176 0.6846 0.6844 0.6841 0.6839 0.6836
3621.356616 0.6834 0.6831 0.6830 0.6830 0.6830
3625.414056 0.6830 0.6830 0.6830 0.6830 0.6830
3629.471495 0.6830 0.6830 0.6830 0.6830 0.6828
3633.528935 0.6826 0.6823 0.6821 0.6820 0.6820
3637.586375 0.6820 0.6820 0.6820 0.6820 0.6820
3641.643815 0.6820 0.6820 0.6820 0.6820 0.6820
3645.701254 0.6818 0.6816 0.6813 0.6811 0.6808
3649.758694 0.6805 0.6803 0.6800 0.6800 0.6800
3653.816134 0.6800 0.6800 0.6798 0.6795 0.6793
3657.873574 0.6790 0.6790 0.6790 0.6790 0.6790
3661.931013 0.6790 0.6790 0.6790 0.6790 0.6788
3665.988453 0.6785 0.6783 0.6780 0.6775 0.6770
3670.045893 0.6765 0.6760 0.6757 0.6755 0.6752
3674.103333 0.6750 0.6747 0.6745 0.6742 0.6740
3678.160773 0.6737 0.6735 0.6732 0.6730 0.6727
3682.218212 0.6725 0.6722 0.6720 0.6717 0.6715
3686.275652 0.6712 0.6710 0.6707 0.6705 0.6702
3690.333092 0.6699 0.6694 0.6689 0.6684 0.6679
3694.390532 0.6677 0.6674 0.6672 0.6669 0.6667
3698.447971 0.6664 0.6662 0.6659 0.6657 0.6654
3702.505411 0.6652 0.6649 0.6647 0.6644 0.6642
3706.562851 0.6638 0.6633 0.6628 0.6623 0.6620
3710.620291 0.6620 0.6620 0.6620 0.6619 0.6616
3714.677730 0.6614 0.6611 0.6608 0.6603 0.6598
3718.735170 0.6592 0.6589 0.6586 0.6584 0.6581
3722.792610 0.6580 0.6580 0.6580 0.6580 0.6577
3726.850050 0.6572 0.6567 0.6562 0.6560 0.6560
3730.907489 0.6560 0.6560 0.6558 0.6556 0.6553
3734.964929 0.6551 0.6548 0.6546 0.6543 0.6541
3739.022369 0.6540 0.6540 0.6540 0.6540 0.6534
3743.079809 0.6527 0.6519 0.6512 0.6506 0.6501
3747.137248 0.6496 0.6491 0.6486 0.6481 0.6476
3751.194688 0.6471 0.6468 0.6465 0.6463 0.6460
3755.252128 0.6458 0.6455 0.6453 0.6450 0.6450
3759.309568 0.6450 0.6450 0.6450 0.6450 0.6450
3763.367007 0.6450 0.6450 0.6448 0.6445 0.6443
3767.424447 0.6440 0.6438 0.6435 0.6432 0.6430
3771.481887 0.6427 0.6425 0.6422 0.6420 0.6417
3775.539327 0.6415 0.6412 0.6410 0.6410 0.6410
3779.596766 0.6410 0.6410 0.6410 0.6410 0.6410
3783.654206 0.6410 0.6407 0.6405 0.6402 0.6400
3787.711646 0.6397 0.6394 0.6392 0.6389 0.6387
3791.769086 0.6384 0.6382 0.6379 0.6377 0.6374
3795.826525 0.6372 0.6370 0.6370 0.6370 0.6370
3799.883965 0.6369 0.6367 0.6364 0.6362 0.6359
3803.941405 0.6357 0.6354 0.6351 0.6350 0.6350
3807.998845 0.6350 0.6350 0.6349 0.6346 0.6344
3812.056284 0.6341 0.6339 0.6336 0.6334 0.6331
3816.113724 0.6330 0.6330 0.6330 0.6330 0.6329
3820.171164 0.6326 0.6324 0.6321 0.6320 0.6320
3824.228604 0.6320 0.6320 0.6319 0.6316 0.6314
3828.286043 0.6311 0.6309 0.6306 0.6303 0.6301
3832.343483 0.6298 0.6296 0.6293 0.6291 0.6288
3836.400923 0.6286 0.6283 0.6281 0.6280 0.6280
3840.458363 0.6280 0.6280 0.6278 0.6276 0.6273
3844.515802 0.6271 0.6268 0.6265 0.6263 0.6260
3848.573242 0.6258 0.6255 0.6253 0.6250 0.6250
3852.630682 0.6250 0.6250 0.6250 0.6248 0.6245
3856.688122 0.6243 0.6240 0.6240 0.6240 0.6240
3860.745561 0.6240 0.6238 0.6235 0.6233 0.6230
3864.803001 0.6228 0.6225 0.6222 0.6220 0.6217
3868.860441 0.6215 0.6212 0.6210 0.6207 0.6205
3872.917881 0.6202 0.6200 0.6197 0.6195 0.6192
3876.975320 0.6190 0.6187 0.6185 0.6182 0.6180
3881.032760 0.6177 0.6175 0.6172 0.6170 0.6167
3885.090200 0.6165 0.6162 0.6160 0.6160 0.6160
3889.147640 0.6160 0.6159 0.6157 0.6154 0.6152
3893.205079 0.6149 0.6147 0.6144 0.6142 0.6139
3897.262519 0.6137 0.6134 0.6132 0.6129 0.6127
3901.319959 0.6124 0.6122 0.6119 0.6116 0.6114
3905.377399 0.6111 0.6110 0.6110 0.6110 0.6110
3909.434838 0.6109 0.6106 0.6104 0.6101 0.6099
3913.492278 0.6096 0.6094 0.6091 0.6089 0.6086
3917.549718 0.6084 0.6081 0.6079 0.6076 0.6074
3921.607158 0.6071 0.6070 0.6070 0.6070 0.6070
3925.664597 0.6069 0.6066 0.6064 0.6061 0.6058
3929.722037 0.6056 0.6053 0.6051 0.6048 0.6046
3933.779477 0.6043 0.6041 0.6038 0.6036 0.6033
3937.836917 0.6031 0.6030 0.6030 0.6030 0.6030
3941.894356 0.6030 0.6030 0.6030 0.6030 0.6026
3945.951796 0.6021 0.6016 0.6011 0.6010 0.6010
3950.009236 0.6010 0.6010 0.6008 0.6005 0.6003
3954.066676 0.6000 0.5998 0.5995 0.5993 0.5990
3958.124115 0.5990 0.5990 0.5990 0.5990 0.5988
3962.181555 0.5985 0.5982 0.5980 0.5977 0.5975
3966.238995 0.5972 0.5970 0.5967 0.5965 0.5962
3970.296435 0.5960 0.5957 0.5955 0.5952 0.5950
3974.353874 0.5947 0.5945 0.5942 0.5940 0.5940
3978.411314 0.5940 0.5940 0.5940 0.5937 0.5935
3982.468754 0.5932 0.5930 0.5927 0.5925 0.5922
3986.526194 0.5919 0.5917 0.5914 0.5912 0.5909
3990.583633 0.5907 0.5904 0.5902 0.5901 0.5906
3994.641073 0.5912 0.5917 0.5919 0.5917 0.5914
3998.698513 0.5912 0.5909 0.5907 0.5904 0.5901
##END=
