##TITLE=BENZOIC ACID, o-HYDROXY-
##JCAMP-DX=4.24
$$ By DXEDIT 1.05 (RS McDonald)
##DATA TYPE=INFRARED SPECTRUM
##CLASS=COBLENTZ III
##OWNER=COBLENTZ SOC.
Collection (C) 2018 copyright by the U.S. Secretary of Commerce
on behalf of the United States of America. All rights reserved.
##DATE=1959/09/04
##NAMES=salicylic acid
SALICYLIC ACID
##CAS REGISTRY NO=69-72-7
##MOLFORM=C7 H6 O3
##MP=157-159 C
##BP=ABOUT 211 C AT 20 mmHg
##SOURCE REFERENCE=COBLENTZ NO. 05154
##$NIST SOURCE=COBLENTZ
##$NIST IMAGE=cob5154
##SPECTROMETER/DATA SYSTEM=PERKIN-ELMER 21 (GRATING)
##INSTRUMENT PARAMETERS=FILTER AT ABOUT 10 MICRONS
##STATE=SOLID (0.5 mg / 200 mg KBr DISC)
$$ COMMERCIAL PURITY
##PATH LENGTH=
$$ SPECTRAL FEATURE AT 1002 CM^-^1 IS AN ARTIFACT CAUSED BY FILTER CHANGE
##SAMPLING PROCEDURE=TRANSMISSION
##RESOLUTION=2
##DATA PROCESSING=DIGITIZED BY COBLENTZ SOCIETY (BATCH I) FROM HARD COPY
##XUNITS=1/CM
##YUNITS=TRANSMITTANCE
##XLABEL=Wavenumbers (cm-1)
##YLABEL=Transmittance
##XFACTOR=1
##YFACTOR=1
##DELTAX=1
##FIRSTX=4000
##LASTX=683
##FIRSTY=0.7005
##MAXX=4000
##MINX=683
##MAXY=0.8126
##MINY=0.1958
##NPOINTS=3318
##XYDATA=(X++(Y..Y))
4000.000000 0.7005 0.7005 0.7006 0.7007 0.7008
3995.000000 0.7008 0.7008 0.7010 0.7011 0.7011
3990.000000 0.7011 0.7011 0.7012 0.7014 0.7014
3985.000000 0.7015 0.7015 0.7017 0.7018 0.7018
3980.000000 0.7018 0.7018 0.7019 0.7019 0.7021
3975.000000 0.7021 0.7021 0.7021 0.7021 0.7021
3970.000000 0.7021 0.7021 0.7021 0.7021 0.7021
3965.000000 0.7021 0.7021 0.7021 0.7021 0.7021
3960.000000 0.7021 0.7021 0.7021 0.7021 0.7021
3955.000000 0.7021 0.7021 0.7021 0.7021 0.7021
3950.000000 0.7021 0.7021 0.7021 0.7021 0.7021
3945.000000 0.7021 0.7021 0.7021 0.7021 0.7021
3940.000000 0.7021 0.7021 0.7021 0.7021 0.7021
3935.000000 0.7021 0.7021 0.7021 0.7021 0.7021
3930.000000 0.7021 0.7021 0.7021 0.7021 0.7021
3925.000000 0.7021 0.7021 0.7021 0.7021 0.7021
3920.000000 0.7021 0.7021 0.7021 0.7021 0.7021
3915.000000 0.7021 0.7021 0.7021 0.7021 0.7021
3910.000000 0.7021 0.7021 0.7021 0.7021 0.7022
3905.000000 0.7022 0.7022 0.7022 0.7022 0.7022
3900.000000 0.7022 0.7022 0.7024 0.7025 0.7025
3895.000000 0.7026 0.7028 0.7028 0.7028 0.7030
3890.000000 0.7031 0.7032 0.7033 0.7034 0.7035
3885.000000 0.7036 0.7036 0.7037 0.7038 0.7039
3880.000000 0.7040 0.7041 0.7042 0.7043 0.7044
3875.000000 0.7045 0.7046 0.7047 0.7048 0.7049
3870.000000 0.7050 0.7051 0.7051 0.7053 0.7054
3865.000000 0.7055 0.7055 0.7056 0.7057 0.7058
3860.000000 0.7060 0.7061 0.7061 0.7062 0.7064
3855.000000 0.7065 0.7065 0.7067 0.7068 0.7068
3850.000000 0.7069 0.7071 0.7071 0.7072 0.7074
3845.000000 0.7074 0.7075 0.7075 0.7076 0.7078
3840.000000 0.7078 0.7080 0.7081 0.7082 0.7084
3835.000000 0.7085 0.7086 0.7087 0.7089 0.7090
3830.000000 0.7091 0.7093 0.7094 0.7095 0.7096
3825.000000 0.7098 0.7099 0.7100 0.7101 0.7101
3820.000000 0.7104 0.7105 0.7106 0.7107 0.7108
3815.000000 0.7110 0.7111 0.7111 0.7112 0.7114
3810.000000 0.7115 0.7117 0.7118 0.7118 0.7121
3805.000000 0.7121 0.7122 0.7125 0.7125 0.7126
3800.000000 0.7128 0.7130 0.7131 0.7132 0.7134
3795.000000 0.7135 0.7136 0.7137 0.7138 0.7140
3790.000000 0.7141 0.7142 0.7143 0.7144 0.7145
3785.000000 0.7147 0.7148 0.7149 0.7150 0.7151
3780.000000 0.7151 0.7153 0.7155 0.7156 0.7157
3775.000000 0.7158 0.7158 0.7160 0.7161 0.7161
3770.000000 0.7162 0.7164 0.7165 0.7165 0.7168
3765.000000 0.7168 0.7169 0.7171 0.7171 0.7174
3760.000000 0.7175 0.7175 0.7176 0.7178 0.7178
3755.000000 0.7180 0.7181 0.7182 0.7183 0.7184
3750.000000 0.7186 0.7187 0.7188 0.7189 0.7190
3745.000000 0.7191 0.7192 0.7193 0.7194 0.7195
3740.000000 0.7197 0.7198 0.7199 0.7200 0.7201
3735.000000 0.7203 0.7204 0.7205 0.7206 0.7207
3730.000000 0.7208 0.7208 0.7210 0.7211 0.7211
3725.000000 0.7212 0.7215 0.7215 0.7217 0.7218
3720.000000 0.7219 0.7219 0.7221 0.7221 0.7221
3715.000000 0.7221 0.7222 0.7222 0.7222 0.7222
3710.000000 0.7222 0.7222 0.7222 0.7222 0.7222
3705.000000 0.7222 0.7222 0.7222 0.7222 0.7222
3700.000000 0.7222 0.7222 0.7224 0.7224 0.7224
3695.000000 0.7224 0.7224 0.7224 0.7224 0.7224
3690.000000 0.7224 0.7224 0.7224 0.7224 0.7224
3685.000000 0.7224 0.7224 0.7224 0.7224 0.7225
3680.000000 0.7225 0.7225 0.7225 0.7225 0.7225
3675.000000 0.7225 0.7225 0.7225 0.7225 0.7225
3670.000000 0.7225 0.7225 0.7225 0.7225 0.7225
3665.000000 0.7225 0.7225 0.7225 0.7225 0.7225
3660.000000 0.7225 0.7225 0.7225 0.7225 0.7225
3655.000000 0.7225 0.7224 0.7222 0.7222 0.7221
3650.000000 0.7221 0.7221 0.7221 0.7221 0.7219
3645.000000 0.7219 0.7218 0.7218 0.7218 0.7218
3640.000000 0.7218 0.7217 0.7217 0.7217 0.7215
3635.000000 0.7215 0.7215 0.7215 0.7215 0.7214
3630.000000 0.7214 0.7214 0.7212 0.7212 0.7212
3625.000000 0.7211 0.7211 0.7211 0.7211 0.7211
3620.000000 0.7210 0.7210 0.7210 0.7208 0.7208
3615.000000 0.7208 0.7207 0.7207 0.7206 0.7206
3610.000000 0.7205 0.7205 0.7205 0.7204 0.7204
3605.000000 0.7204 0.7203 0.7203 0.7201 0.7201
3600.000000 0.7200 0.7199 0.7198 0.7196 0.7194
3595.000000 0.7192 0.7190 0.7189 0.7187 0.7184
3590.000000 0.7182 0.7180 0.7178 0.7175 0.7174
3585.000000 0.7171 0.7169 0.7167 0.7165 0.7162
3580.000000 0.7161 0.7158 0.7157 0.7154 0.7151
3575.000000 0.7150 0.7149 0.7147 0.7145 0.7143
3570.000000 0.7140 0.7138 0.7136 0.7134 0.7132
3565.000000 0.7130 0.7126 0.7125 0.7122 0.7121
3560.000000 0.7118 0.7117 0.7114 0.7111 0.7110
3555.000000 0.7108 0.7105 0.7103 0.7101 0.7098
3550.000000 0.7096 0.7093 0.7091 0.7089 0.7086
3545.000000 0.7084 0.7081 0.7078 0.7076 0.7074
3540.000000 0.7071 0.7069 0.7067 0.7065 0.7061
3535.000000 0.7060 0.7058 0.7055 0.7053 0.7050
3530.000000 0.7048 0.7046 0.7043 0.7041 0.7038
3525.000000 0.7037 0.7036 0.7035 0.7034 0.7033
3520.000000 0.7033 0.7033 0.7032 0.7032 0.7031
3515.000000 0.7031 0.7031 0.7030 0.7030 0.7028
3510.000000 0.7028 0.7028 0.7028 0.7028 0.7026
3505.000000 0.7026 0.7025 0.7025 0.7025 0.7024
3500.000000 0.7024 0.7024 0.7022 0.7022 0.7021
3495.000000 0.7021 0.7021 0.7021 0.7021 0.7019
3490.000000 0.7019 0.7018 0.7018 0.7018 0.7018
3485.000000 0.7018 0.7017 0.7017 0.7017 0.7015
3480.000000 0.7015 0.7015 0.7015 0.7014 0.7014
3475.000000 0.7014 0.7012 0.7012 0.7011 0.7011
3470.000000 0.7011 0.7010 0.7010 0.7008 0.7008
3465.000000 0.7008 0.7007 0.7007 0.7006 0.7005
3460.000000 0.7005 0.7004 0.7004 0.7003 0.7001
3455.000000 0.7001 0.7001 0.7000 0.7000 0.6999
3450.000000 0.6999 0.6998 0.6997 0.6996 0.6996
3445.000000 0.6995 0.6994 0.6993 0.6993 0.6992
3440.000000 0.6991 0.6991 0.6990 0.6989 0.6989
3435.000000 0.6988 0.6987 0.6987 0.6986 0.6986
3430.000000 0.6985 0.6984 0.6983 0.6982 0.6981
3425.000000 0.6980 0.6978 0.6976 0.6975 0.6972
3420.000000 0.6971 0.6969 0.6968 0.6965 0.6964
3415.000000 0.6961 0.6960 0.6958 0.6957 0.6955
3410.000000 0.6953 0.6951 0.6950 0.6948 0.6947
3405.000000 0.6945 0.6943 0.6941 0.6939 0.6937
3400.000000 0.6935 0.6933 0.6932 0.6930 0.6926
3395.000000 0.6922 0.6918 0.6915 0.6911 0.6907
3390.000000 0.6901 0.6896 0.6891 0.6886 0.6881
3385.000000 0.6875 0.6871 0.6865 0.6861 0.6855
3380.000000 0.6850 0.6845 0.6840 0.6834 0.6828
3375.000000 0.6824 0.6818 0.6812 0.6808 0.6803
3370.000000 0.6797 0.6792 0.6787 0.6781 0.6775
3365.000000 0.6771 0.6764 0.6757 0.6750 0.6743
3360.000000 0.6736 0.6728 0.6718 0.6711 0.6703
3355.000000 0.6695 0.6687 0.6678 0.6671 0.6662
3350.000000 0.6655 0.6646 0.6638 0.6630 0.6621
3345.000000 0.6614 0.6606 0.6598 0.6583 0.6547
3340.000000 0.6511 0.6476 0.6441 0.6394 0.6344
3335.000000 0.6294 0.6244 0.6199 0.6166 0.6132
3330.000000 0.6099 0.6065 0.6032 0.5998 0.5965
3325.000000 0.5931 0.5898 0.5864 0.5830 0.5796
3320.000000 0.5762 0.5729 0.5695 0.5662 0.5628
3315.000000 0.5594 0.5560 0.5527 0.5493 0.5459
3310.000000 0.5425 0.5391 0.5357 0.5324 0.5290
3305.000000 0.5255 0.5221 0.5187 0.5153 0.5119
3300.000000 0.5085 0.5051 0.5017 0.4983 0.4949
3295.000000 0.4915 0.4881 0.4847 0.4812 0.4778
3290.000000 0.4744 0.4718 0.4701 0.4685 0.4668
3285.000000 0.4653 0.4641 0.4630 0.4618 0.4606
3280.000000 0.4603 0.4602 0.4602 0.4602 0.4598
3275.000000 0.4598 0.4597 0.4597 0.4597 0.4598
3270.000000 0.4599 0.4600 0.4601 0.4603 0.4604
3265.000000 0.4605 0.4606 0.4610 0.4615 0.4620
3260.000000 0.4626 0.4633 0.4643 0.4653 0.4662
3255.000000 0.4673 0.4682 0.4692 0.4702 0.4712
3250.000000 0.4723 0.4734 0.4745 0.4756 0.4767
3245.000000 0.4778 0.4789 0.4799 0.4810 0.4821
3240.000000 0.4832 0.4842 0.4854 0.4866 0.4877
3235.000000 0.4889 0.4902 0.4919 0.4936 0.4953
3230.000000 0.4970 0.4984 0.4997 0.5010 0.5025
3225.000000 0.5034 0.5043 0.5051 0.5060 0.5068
3220.000000 0.5076 0.5084 0.5092 0.5099 0.5105
3215.000000 0.5110 0.5116 0.5121 0.5126 0.5131
3210.000000 0.5136 0.5140 0.5142 0.5143 0.5145
3205.000000 0.5147 0.5148 0.5150 0.5152 0.5154
3200.000000 0.5155 0.5157 0.5159 0.5160 0.5162
3195.000000 0.5162 0.5164 0.5165 0.5166 0.5167
3190.000000 0.5168 0.5168 0.5169 0.5170 0.5171
3185.000000 0.5171 0.5172 0.5173 0.5174 0.5174
3180.000000 0.5175 0.5176 0.5176 0.5176 0.5176
3175.000000 0.5173 0.5170 0.5167 0.5164 0.5160
3170.000000 0.5157 0.5154 0.5151 0.5148 0.5145
3165.000000 0.5142 0.5139 0.5135 0.5132 0.5129
3160.000000 0.5127 0.5125 0.5124 0.5122 0.5121
3155.000000 0.5120 0.5118 0.5117 0.5116 0.5114
3150.000000 0.5112 0.5110 0.5110 0.5108 0.5107
3145.000000 0.5105 0.5104 0.5102 0.5100 0.5099
3140.000000 0.5098 0.5096 0.5095 0.5094 0.5087
3135.000000 0.5078 0.5070 0.5060 0.5052 0.5043
3130.000000 0.5033 0.5024 0.5012 0.5000 0.4987
3125.000000 0.4975 0.4960 0.4947 0.4934 0.4920
3120.000000 0.4903 0.4885 0.4868 0.4850 0.4827
3115.000000 0.4804 0.4781 0.4762 0.4752 0.4742
3110.000000 0.4732 0.4723 0.4714 0.4706 0.4697
3105.000000 0.4688 0.4679 0.4671 0.4662 0.4654
3100.000000 0.4647 0.4640 0.4633 0.4628 0.4622
3095.000000 0.4617 0.4610 0.4606 0.4601 0.4596
3090.000000 0.4590 0.4585 0.4579 0.4574 0.4568
3085.000000 0.4562 0.4558 0.4553 0.4548 0.4545
3080.000000 0.4541 0.4537 0.4534 0.4531 0.4528
3075.000000 0.4524 0.4521 0.4518 0.4515 0.4512
3070.000000 0.4508 0.4505 0.4501 0.4498 0.4495
3065.000000 0.4492 0.4488 0.4485 0.4482 0.4479
3060.000000 0.4476 0.4473 0.4471 0.4469 0.4467
3055.000000 0.4466 0.4464 0.4462 0.4460 0.4459
3050.000000 0.4457 0.4455 0.4453 0.4452 0.4450
3045.000000 0.4448 0.4447 0.4445 0.4444 0.4444
3040.000000 0.4444 0.4446 0.4437 0.4449 0.4452
3035.000000 0.4455 0.4457 0.4460 0.4462 0.4466
3030.000000 0.4468 0.4471 0.4474 0.4477 0.4481
3025.000000 0.4485 0.4489 0.4492 0.4497 0.4501
3020.000000 0.4505 0.4509 0.4512 0.4516 0.4520
3015.000000 0.4524 0.4528 0.4533 0.4537 0.4541
3010.000000 0.4544 0.4548 0.4552 0.4556 0.4560
3005.000000 0.4565 0.4569 0.4573 0.4576 0.4580
3000.000000 0.4584 0.4588 0.4592 0.4596 0.4599
2995.000000 0.4603 0.4607 0.4610 0.4614 0.4617
2990.000000 0.4621 0.4625 0.4628 0.4632 0.4636
2985.000000 0.4639 0.4643 0.4647 0.4650 0.4654
2980.000000 0.4658 0.4660 0.4664 0.4667 0.4670
2975.000000 0.4671 0.4671 0.4672 0.4673 0.4674
2970.000000 0.4676 0.4677 0.4678 0.4679 0.4680
2965.000000 0.4681 0.4682 0.4683 0.4685 0.4685
2960.000000 0.4686 0.4687 0.4688 0.4689 0.4690
2955.000000 0.4692 0.4693 0.4694 0.4695 0.4696
2950.000000 0.4697 0.4698 0.4700 0.4700 0.4701
2945.000000 0.4702 0.4703 0.4703 0.4702 0.4702
2940.000000 0.4702 0.4701 0.4701 0.4700 0.4700
2935.000000 0.4699 0.4698 0.4698 0.4697 0.4697
2930.000000 0.4696 0.4695 0.4695 0.4694 0.4693
2925.000000 0.4692 0.4691 0.4688 0.4685 0.4682
2920.000000 0.4679 0.4676 0.4673 0.4670 0.4667
2915.000000 0.4664 0.4660 0.4658 0.4655 0.4652
2910.000000 0.4650 0.4647 0.4644 0.4642 0.4639
2905.000000 0.4636 0.4633 0.4630 0.4627 0.4624
2900.000000 0.4621 0.4617 0.4614 0.4610 0.4608
2895.000000 0.4604 0.4601 0.4598 0.4595 0.4591
2890.000000 0.4588 0.4584 0.4581 0.4577 0.4574
2885.000000 0.4570 0.4567 0.4565 0.4565 0.4564
2880.000000 0.4564 0.4564 0.4564 0.4564 0.4565
2875.000000 0.4565 0.4565 0.4566 0.4567 0.4569
2870.000000 0.4571 0.4575 0.4579 0.4583 0.4588
2865.000000 0.4593 0.4597 0.4601 0.4606 0.4610
2860.000000 0.4614 0.4619 0.4624 0.4628 0.4632
2855.000000 0.4637 0.4641 0.4645 0.4650 0.4654
2850.000000 0.4660 0.4667 0.4673 0.4680 0.4687
2845.000000 0.4694 0.4702 0.4709 0.4716 0.4723
2840.000000 0.4730 0.4737 0.4744 0.4751 0.4759
2835.000000 0.4766 0.4773 0.4780 0.4786 0.4793
2830.000000 0.4801 0.4808 0.4815 0.4822 0.4830
2825.000000 0.4837 0.4845 0.4852 0.4860 0.4868
2820.000000 0.4876 0.4883 0.4891 0.4899 0.4906
2815.000000 0.4914 0.4922 0.4930 0.4938 0.4945
2810.000000 0.4953 0.4960 0.4968 0.4976 0.4984
2805.000000 0.4992 0.5000 0.5007 0.5015 0.5022
2800.000000 0.5030 0.5038 0.5045 0.5053 0.5060
2795.000000 0.5068 0.5076 0.5084 0.5091 0.5099
2790.000000 0.5107 0.5115 0.5122 0.5130 0.5137
2785.000000 0.5143 0.5150 0.5156 0.5162 0.5168
2780.000000 0.5174 0.5180 0.5186 0.5192 0.5198
2775.000000 0.5204 0.5210 0.5216 0.5222 0.5228
2770.000000 0.5234 0.5240 0.5246 0.5252 0.5258
2765.000000 0.5262 0.5264 0.5266 0.5268 0.5270
2760.000000 0.5271 0.5273 0.5275 0.5276 0.5278
2755.000000 0.5280 0.5281 0.5283 0.5285 0.5286
2750.000000 0.5288 0.5289 0.5291 0.5292 0.5292
2745.000000 0.5292 0.5291 0.5291 0.5291 0.5290
2740.000000 0.5290 0.5290 0.5290 0.5290 0.5290
2735.000000 0.5289 0.5289 0.5289 0.5289 0.5290
2730.000000 0.5291 0.5292 0.5294 0.5295 0.5297
2725.000000 0.5299 0.5301 0.5303 0.5305 0.5307
2720.000000 0.5309 0.5310 0.5312 0.5315 0.5317
2715.000000 0.5319 0.5320 0.5322 0.5324 0.5327
2710.000000 0.5329 0.5331 0.5334 0.5339 0.5344
2705.000000 0.5349 0.5353 0.5358 0.5362 0.5368
2700.000000 0.5372 0.5377 0.5381 0.5385 0.5389
2695.000000 0.5393 0.5396 0.5400 0.5404 0.5408
2690.000000 0.5410 0.5415 0.5418 0.5422 0.5426
2685.000000 0.5429 0.5432 0.5435 0.5437 0.5438
2680.000000 0.5440 0.5441 0.5443 0.5444 0.5446
2675.000000 0.5447 0.5449 0.5450 0.5451 0.5452
2670.000000 0.5453 0.5453 0.5454 0.5454 0.5454
2665.000000 0.5454 0.5454 0.5454 0.5455 0.5455
2660.000000 0.5455 0.5456 0.5456 0.5456 0.5452
2655.000000 0.5445 0.5439 0.5430 0.5421 0.5410
2650.000000 0.5399 0.5388 0.5376 0.5364 0.5352
2645.000000 0.5341 0.5329 0.5318 0.5307 0.5297
2640.000000 0.5287 0.5277 0.5267 0.5257 0.5247
2635.000000 0.5237 0.5227 0.5217 0.5207 0.5198
2630.000000 0.5189 0.5181 0.5175 0.5169 0.5162
2625.000000 0.5157 0.5152 0.5147 0.5143 0.5140
2620.000000 0.5138 0.5137 0.5136 0.5134 0.5095
2615.000000 0.5131 0.5130 0.5129 0.5128 0.5127
2610.000000 0.5125 0.5125 0.5125 0.5125 0.5125
2605.000000 0.5127 0.5128 0.5129 0.5130 0.5131
2600.000000 0.5132 0.5132 0.5133 0.5134 0.5136
2595.000000 0.5137 0.5138 0.5139 0.5140 0.5141
2590.000000 0.5142 0.5143 0.5143 0.5153 0.5162
2585.000000 0.5174 0.5186 0.5199 0.5210 0.5224
2580.000000 0.5236 0.5249 0.5262 0.5273 0.5282
2575.000000 0.5291 0.5297 0.5302 0.5307 0.5310
2570.000000 0.5316 0.5319 0.5322 0.5324 0.5326
2565.000000 0.5328 0.5331 0.5333 0.5335 0.5337
2560.000000 0.5338 0.5339 0.5339 0.5339 0.5338
2555.000000 0.5338 0.5338 0.5338 0.5338 0.5339
2550.000000 0.5342 0.5345 0.5349 0.5352 0.5356
2545.000000 0.5359 0.5362 0.5368 0.5379 0.5390
2540.000000 0.5401 0.5410 0.5422 0.5433 0.5444
2535.000000 0.5455 0.5466 0.5477 0.5488 0.5499
2530.000000 0.5509 0.5520 0.5531 0.5542 0.5552
2525.000000 0.5562 0.5572 0.5582 0.5593 0.5603
2520.000000 0.5612 0.5623 0.5634 0.5644 0.5654
2515.000000 0.5664 0.5675 0.5685 0.5695 0.5706
2510.000000 0.5716 0.5726 0.5737 0.5747 0.5757
2505.000000 0.5768 0.5778 0.5788 0.5799 0.5809
2500.000000 0.5820 0.5829 0.5839 0.5849 0.5859
2495.000000 0.5869 0.5879 0.5889 0.5899 0.5909
2490.000000 0.5919 0.5929 0.5938 0.5948 0.5958
2485.000000 0.5968 0.5979 0.5989 0.5998 0.6006
2480.000000 0.6015 0.6022 0.6030 0.6038 0.6046
2475.000000 0.6054 0.6062 0.6070 0.6078 0.6085
2470.000000 0.6093 0.6101 0.6109 0.6117 0.6125
2465.000000 0.6133 0.6141 0.6149 0.6157 0.6165
2460.000000 0.6172 0.6180 0.6188 0.6197 0.6205
2455.000000 0.6212 0.6221 0.6229 0.6237 0.6245
2450.000000 0.6253 0.6260 0.6269 0.6278 0.6286
2445.000000 0.6294 0.6302 0.6310 0.6319 0.6327
2440.000000 0.6335 0.6343 0.6351 0.6359 0.6367
2435.000000 0.6375 0.6384 0.6392 0.6400 0.6407
2430.000000 0.6412 0.6418 0.6425 0.6431 0.6436
2425.000000 0.6442 0.6447 0.6453 0.6458 0.6465
2420.000000 0.6469 0.6475 0.6480 0.6485 0.6490
2415.000000 0.6495 0.6499 0.6504 0.6508 0.6512
2410.000000 0.6517 0.6521 0.6526 0.6531 0.6535
2405.000000 0.6539 0.6542 0.6543 0.6544 0.6545
2400.000000 0.6545 0.6546 0.6546 0.6546 0.6547
2395.000000 0.6548 0.6549 0.6549 0.6550 0.6551
2390.000000 0.6551 0.6551 0.6551 0.6551 0.6551
2385.000000 0.6549 0.6547 0.6545 0.6545 0.6545
2380.000000 0.6545 0.6546 0.6547 0.6548 0.6549
2375.000000 0.6550 0.6551 0.6553 0.6553 0.6555
2370.000000 0.6556 0.6557 0.6558 0.6558 0.6560
2365.000000 0.6561 0.6561 0.6562 0.6564 0.6565
2360.000000 0.6565 0.6567 0.6568 0.6569 0.6571
2355.000000 0.6574 0.6576 0.6581 0.6585 0.6589
2350.000000 0.6593 0.6597 0.6601 0.6608 0.6618
2345.000000 0.6631 0.6646 0.6661 0.6675 0.6691
2340.000000 0.6706 0.6721 0.6735 0.6749 0.6762
2335.000000 0.6775 0.6790 0.6803 0.6817 0.6831
2330.000000 0.6844 0.6858 0.6871 0.6885 0.6899
2325.000000 0.6912 0.6928 0.6944 0.6958 0.6975
2320.000000 0.6990 0.7006 0.7018 0.7031 0.7042
2315.000000 0.7053 0.7062 0.7074 0.7084 0.7095
2310.000000 0.7105 0.7115 0.7126 0.7137 0.7147
2305.000000 0.7158 0.7168 0.7175 0.7182 0.7183
2300.000000 0.7185 0.7187 0.7189 0.7191 0.7193
2295.000000 0.7195 0.7197 0.7199 0.7201 0.7201
2290.000000 0.7204 0.7206 0.7208 0.7211 0.7212
2285.000000 0.7215 0.7217 0.7218 0.7221 0.7224
2280.000000 0.7225 0.7226 0.7228 0.7231 0.7234
2275.000000 0.7236 0.7238 0.7240 0.7242 0.7244
2270.000000 0.7247 0.7250 0.7254 0.7258 0.7261
2265.000000 0.7265 0.7271 0.7275 0.7278 0.7283
2260.000000 0.7287 0.7292 0.7296 0.7300 0.7305
2255.000000 0.7308 0.7312 0.7317 0.7321 0.7325
2250.000000 0.7330 0.7334 0.7338 0.7343 0.7347
2245.000000 0.7351 0.7357 0.7361 0.7365 0.7371
2240.000000 0.7375 0.7380 0.7384 0.7389 0.7394
2235.000000 0.7399 0.7403 0.7408 0.7411 0.7417
2230.000000 0.7421 0.7425 0.7430 0.7434 0.7437
2225.000000 0.7440 0.7443 0.7446 0.7449 0.7453
2220.000000 0.7456 0.7458 0.7461 0.7465 0.7468
2215.000000 0.7471 0.7475 0.7478 0.7482 0.7485
2210.000000 0.7487 0.7489 0.7491 0.7493 0.7494
2205.000000 0.7495 0.7496 0.7497 0.7498 0.7499
2200.000000 0.7500 0.7501 0.7501 0.7503 0.7503
2195.000000 0.7503 0.7501 0.7500 0.7498 0.7498
2190.000000 0.7499 0.7500 0.7501 0.7501 0.7503
2185.000000 0.7504 0.7505 0.7506 0.7507 0.7508
2180.000000 0.7510 0.7511 0.7511 0.7512 0.7514
2175.000000 0.7517 0.7518 0.7522 0.7526 0.7530
2170.000000 0.7534 0.7538 0.7541 0.7545 0.7549
2165.000000 0.7551 0.7555 0.7558 0.7562 0.7567
2160.000000 0.7569 0.7571 0.7574 0.7576 0.7578
2155.000000 0.7582 0.7584 0.7586 0.7588 0.7591
2150.000000 0.7593 0.7596 0.7598 0.7600 0.7601
2145.000000 0.7603 0.7603 0.7603 0.7601 0.7601
2140.000000 0.7600 0.7600 0.7599 0.7599 0.7598
2135.000000 0.7597 0.7596 0.7595 0.7594 0.7593
2130.000000 0.7592 0.7591 0.7590 0.7589 0.7588
2125.000000 0.7587 0.7585 0.7584 0.7583 0.7582
2120.000000 0.7581 0.7580 0.7578 0.7578 0.7576
2115.000000 0.7575 0.7574 0.7574 0.7574 0.7575
2110.000000 0.7575 0.7575 0.7575 0.7576 0.7578
2105.000000 0.7578 0.7580 0.7580 0.7581 0.7581
2100.000000 0.7582 0.7583 0.7583 0.7585 0.7588
2095.000000 0.7593 0.7598 0.7604 0.7610 0.7615
2090.000000 0.7621 0.7626 0.7633 0.7638 0.7644
2085.000000 0.7650 0.7656 0.7661 0.7668 0.7675
2080.000000 0.7684 0.7693 0.7701 0.7708 0.7717
2075.000000 0.7725 0.7734 0.7742 0.7750 0.7758
2070.000000 0.7767 0.7775 0.7784 0.7792 0.7800
2065.000000 0.7808 0.7817 0.7825 0.7833 0.7842
2060.000000 0.7850 0.7858 0.7865 0.7871 0.7874
2055.000000 0.7875 0.7876 0.7878 0.7880 0.7881
2050.000000 0.7883 0.7885 0.7886 0.7887 0.7888
2045.000000 0.7889 0.7890 0.7891 0.7892 0.7892
2040.000000 0.7893 0.7894 0.7895 0.7896 0.7896
2035.000000 0.7898 0.7899 0.7899 0.7900 0.7901
2030.000000 0.7901 0.7903 0.7903 0.7904 0.7904
2025.000000 0.7906 0.7907 0.7907 0.7908 0.7908
2020.000000 0.7910 0.7911 0.7911 0.7911 0.7911
2015.000000 0.7911 0.7911 0.7911 0.7910 0.7908
2010.000000 0.7900 0.7893 0.7885 0.7878 0.7869
2005.000000 0.7861 0.7853 0.7845 0.7840 0.7836
2000.000000 0.7832 0.7826 0.7826 0.7826 0.7828
1995.000000 0.7831 0.7832 0.7834 0.7836 0.7837
1990.000000 0.7839 0.7841 0.7851 0.7862 0.7875
1985.000000 0.7887 0.7898 0.7910 0.7921 0.7934
1980.000000 0.7938 0.7941 0.7943 0.7946 0.7949
1975.000000 0.7953 0.7956 0.7958 0.7961 0.7961
1970.000000 0.7958 0.7957 0.7955 0.7955 0.7955
1965.000000 0.7957 0.7958 0.7961 0.7964 0.7965
1960.000000 0.7968 0.7971 0.7972 0.7975 0.7978
1955.000000 0.7984 0.7989 0.7994 0.8000 0.8006
1950.000000 0.8011 0.8015 0.8018 0.8021 0.8024
1945.000000 0.8026 0.8031 0.8033 0.8035 0.8035
1940.000000 0.8037 0.8038 0.8038 0.8031 0.8022
1935.000000 0.8015 0.8007 0.7999 0.7991 0.7995
1930.000000 0.8001 0.8008 0.8014 0.8021 0.8028
1925.000000 0.8035 0.8041 0.8047 0.8054 0.8060
1920.000000 0.8065 0.8072 0.8078 0.8086 0.8093
1915.000000 0.8097 0.8101 0.8106 0.8110 0.8114
1910.000000 0.8118 0.8121 0.8125 0.8126 0.8126
1905.000000 0.8125 0.8125 0.8125 0.8124 0.8122
1900.000000 0.8122 0.8121 0.8121 0.8118 0.8115
1895.000000 0.8110 0.8105 0.8097 0.8090 0.8083
1890.000000 0.8075 0.8068 0.8060 0.8051 0.8044
1885.000000 0.8037 0.8028 0.8022 0.8017 0.8011
1880.000000 0.8005 0.7999 0.7993 0.7987 0.7983
1875.000000 0.7980 0.7975 0.7972 0.7972 0.7978
1870.000000 0.7987 0.7996 0.8006 0.8015 0.8022
1865.000000 0.8031 0.8040 0.8049 0.8057 0.8065
1860.000000 0.8074 0.8082 0.8088 0.8092 0.8093
1855.000000 0.8095 0.8096 0.8096 0.8088 0.8080
1850.000000 0.8071 0.8061 0.8051 0.8042 0.8033
1845.000000 0.8021 0.8015 0.8008 0.8003 0.7998
1840.000000 0.7992 0.7986 0.7981 0.7975 0.7971
1835.000000 0.7965 0.7960 0.7960 0.7960 0.7962
1830.000000 0.7967 0.7969 0.7974 0.7976 0.7978
1825.000000 0.7981 0.7983 0.7984 0.7986 0.7988
1820.000000 0.7990 0.7992 0.7994 0.7995 0.7997
1815.000000 0.7999 0.8000 0.8000 0.8000 0.8001
1810.000000 0.8001 0.8001 0.8001 0.8003 0.8003
1805.000000 0.8001 0.8000 0.7998 0.7996 0.7994
1800.000000 0.7992 0.7990 0.7988 0.7986 0.7984
1795.000000 0.7980 0.7975 0.7971 0.7965 0.7960
1790.000000 0.7955 0.7950 0.7944 0.7936 0.7926
1785.000000 0.7918 0.7910 0.7901 0.7892 0.7884
1780.000000 0.7875 0.7862 0.7848 0.7832 0.7815
1775.000000 0.7800 0.7785 0.7768 0.7740 0.7708
1770.000000 0.7676 0.7643 0.7605 0.7561 0.7517
1765.000000 0.7476 0.7442 0.7411 0.7380 0.7365
1760.000000 0.7356 0.7345 0.7335 0.7322 0.7310
1755.000000 0.7296 0.7282 0.7268 0.7250 0.7228
1750.000000 0.7208 0.7187 0.7168 0.7148 0.7126
1745.000000 0.7108 0.7088 0.7068 0.7048 0.7028
1740.000000 0.7006 0.6985 0.6962 0.6940 0.6918
1735.000000 0.6896 0.6872 0.6842 0.6807 0.6771
1730.000000 0.6738 0.6703 0.6668 0.6618 0.6565
1725.000000 0.6511 0.6458 0.6404 0.6347 0.6283
1720.000000 0.6217 0.6152 0.6095 0.6050 0.6004
1715.000000 0.5958 0.5905 0.5846 0.5784 0.5722
1710.000000 0.5660 0.5586 0.5512 0.5435 0.5331
1705.000000 0.5190 0.5001 0.4665 0.4418 0.4291
1700.000000 0.4171 0.4012 0.3845 0.3693 0.3475
1695.000000 0.3310 0.3188 0.3089 0.3019 0.2966
1690.000000 0.2920 0.2884 0.2851 0.2833 0.2816
1685.000000 0.2798 0.2780 0.2755 0.2718 0.2664
1680.000000 0.2580 0.2480 0.2379 0.2279 0.2178
1675.000000 0.2080 0.2011 0.1981 0.1971 0.1958
1670.000000 0.1968 0.1967 0.2019 0.2161 0.2328
1665.000000 0.2494 0.2661 0.2828 0.2996 0.3164
1660.000000 0.3332 0.3500 0.3668 0.3836 0.4005
1655.000000 0.4174 0.4291 0.4353 0.4399 0.4439
1650.000000 0.4478 0.4518 0.4603 0.4708 0.4814
1645.000000 0.4920 0.5026 0.5132 0.5210 0.5244
1640.000000 0.5251 0.5251 0.5251 0.5245 0.5219
1635.000000 0.5056 0.4856 0.4655 0.4453 0.4252
1630.000000 0.4050 0.3848 0.3646 0.3443 0.3296
1625.000000 0.3237 0.3239 0.3240 0.3297 0.3464
1620.000000 0.3638 0.3810 0.3984 0.4157 0.4330
1615.000000 0.4504 0.4678 0.4852 0.5026 0.5201
1610.000000 0.5306 0.5367 0.5416 0.5464 0.5527
1605.000000 0.5595 0.5665 0.5734 0.5787 0.5814
1600.000000 0.5826 0.5865 0.5834 0.5822 0.5776
1595.000000 0.5710 0.5646 0.5581 0.5516 0.5451
1590.000000 0.5386 0.5294 0.5284 0.5287 0.5291
1585.000000 0.5294 0.5303 0.5329 0.5364 0.5419
1580.000000 0.5478 0.5525 0.5567 0.5608 0.5649
1575.000000 0.5690 0.5730 0.5769 0.5808 0.5845
1570.000000 0.5881 0.5919 0.5960 0.6034 0.6131
1565.000000 0.6207 0.6297 0.6415 0.6544 0.6621
1560.000000 0.6653 0.6668 0.6678 0.6680 0.6676
1555.000000 0.6672 0.6661 0.6648 0.6637 0.6636
1550.000000 0.6639 0.6643 0.6688 0.6741 0.6812
1545.000000 0.6912 0.7006 0.7075 0.7112 0.7133
1540.000000 0.7143 0.7148 0.7151 0.7151 0.7151
1535.000000 0.7149 0.7155 0.7165 0.7175 0.7186
1530.000000 0.7204 0.7224 0.7244 0.7261 0.7275
1525.000000 0.7289 0.7299 0.7305 0.7311 0.7311
1520.000000 0.7312 0.7311 0.7308 0.7291 0.7249
1515.000000 0.7169 0.7031 0.6967 0.6915 0.6858
1510.000000 0.6774 0.6675 0.6583 0.6492 0.6397
1505.000000 0.6301 0.6212 0.6144 0.6080 0.6015
1500.000000 0.5908 0.5728 0.5327 0.4497 0.3703
1495.000000 0.2966 0.2607 0.2614 0.2632 0.2784
1490.000000 0.2997 0.3209 0.3422 0.3634 0.3848
1485.000000 0.4060 0.4276 0.4490 0.4648 0.4662
1480.000000 0.4662 0.4620 0.4494 0.4356 0.4218
1475.000000 0.4080 0.3971 0.3942 0.3932 0.3930
1470.000000 0.3934 0.3944 0.3956 0.3997 0.4037
1465.000000 0.4073 0.4103 0.4123 0.4134 0.4128
1460.000000 0.4012 0.3762 0.3512 0.3262 0.3011
1455.000000 0.2759 0.2507 0.2337 0.2296 0.2299
1450.000000 0.2300 0.2300 0.2349 0.2415 0.2540
1445.000000 0.2711 0.2884 0.3033 0.3195 0.3380
1440.000000 0.3562 0.3734 0.3882 0.3980 0.4068
1435.000000 0.4159 0.4269 0.4386 0.4494 0.4578
1430.000000 0.4660 0.4758 0.4884 0.5010 0.5136
1425.000000 0.5262 0.5389 0.5516 0.5642 0.5770
1420.000000 0.5884 0.5922 0.5926 0.5930 0.5929
1415.000000 0.5929 0.5927 0.5926 0.5932 0.5941
1410.000000 0.5951 0.5964 0.5992 0.6021 0.6045
1405.000000 0.6070 0.6092 0.6103 0.6110 0.6110
1400.000000 0.6110 0.6105 0.6093 0.6082 0.6053
1395.000000 0.6006 0.5882 0.5667 0.5716 0.5702
1390.000000 0.5701 0.5700 0.5710 0.5759 0.5819
1385.000000 0.5894 0.5972 0.6045 0.6115 0.6184
1380.000000 0.6254 0.6323 0.6390 0.6458 0.6521
1375.000000 0.6578 0.6633 0.6688 0.6740 0.6780
1370.000000 0.6818 0.6841 0.6858 0.6878 0.6897
1365.000000 0.6915 0.6931 0.6946 0.6961 0.6976
1360.000000 0.6990 0.6996 0.7001 0.7008 0.7011
1355.000000 0.7011 0.7014 0.7003 0.6994 0.6983
1350.000000 0.6961 0.6935 0.6874 0.6793 0.6649
1345.000000 0.6611 0.6591 0.6572 0.6554 0.6526
1340.000000 0.6497 0.6441 0.6366 0.6291 0.6222
1335.000000 0.6167 0.6010 0.5697 0.5386 0.5239
1330.000000 0.5191 0.5210 0.5215 0.5239 0.5310
1325.000000 0.5508 0.5690 0.5785 0.5826 0.5880
1320.000000 0.5853 0.5831 0.5789 0.5642 0.5489
1315.000000 0.5206 0.4900 0.4594 0.4287 0.3950
1310.000000 0.3545 0.3448 0.3344 0.3209 0.3095
1305.000000 0.2973 0.2834 0.2731 0.2644 0.2611
1300.000000 0.2594 0.2590 0.2580 0.2584 0.2616
1295.000000 0.2724 0.2833 0.2971 0.3178 0.3393
1290.000000 0.3606 0.3821 0.4036 0.4251 0.4466
1285.000000 0.4682 0.4898 0.5115 0.5332 0.5548
1280.000000 0.5766 0.5984 0.6190 0.6280 0.6342
1275.000000 0.6393 0.6442 0.6468 0.6497 0.6476
1270.000000 0.6468 0.6438 0.6387 0.6324 0.6160
1265.000000 0.5929 0.5566 0.5246 0.4926 0.4606
1260.000000 0.4286 0.3964 0.3642 0.3320 0.2997
1255.000000 0.2673 0.2303 0.2117 0.2064 0.2077
1250.000000 0.2084 0.2177 0.2312 0.2440 0.2542
1245.000000 0.2642 0.2761 0.2923 0.3096 0.3249
1240.000000 0.3344 0.3416 0.3474 0.3530 0.3612
1235.000000 0.3716 0.3800 0.3870 0.3950 0.4032
1230.000000 0.4123 0.4212 0.4288 0.4353 0.4393
1225.000000 0.4410 0.4420 0.4428 0.4428 0.4428
1220.000000 0.4416 0.4383 0.4246 0.3893 0.3507
1215.000000 0.3118 0.2816 0.2776 0.2785 0.2837
1210.000000 0.2949 0.3147 0.3349 0.3516 0.3650
1205.000000 0.3786 0.3880 0.3942 0.3992 0.4040
1200.000000 0.4087 0.4128 0.4153 0.4186 0.4164
1195.000000 0.4155 0.4126 0.4079 0.4044 0.4009
1190.000000 0.4027 0.4059 0.4177 0.4308 0.4417
1185.000000 0.4527 0.4638 0.4748 0.4858 0.4969
1180.000000 0.5072 0.5147 0.5218 0.5295 0.5374
1175.000000 0.5458 0.5550 0.5626 0.5696 0.5760
1170.000000 0.5800 0.5828 0.5873 0.5924 0.5909
1165.000000 0.5886 0.5829 0.5269 0.4047 0.3236
1160.000000 0.3053 0.3060 0.3060 0.3240 0.3476
1155.000000 0.3692 0.3909 0.4131 0.4442 0.4706
1150.000000 0.4799 0.4884 0.5003 0.5115 0.5204
1145.000000 0.5274 0.5331 0.5389 0.5440 0.5486
1140.000000 0.5527 0.5560 0.5593 0.5625 0.5655
1135.000000 0.5684 0.5712 0.5743 0.5770 0.5797
1130.000000 0.5823 0.5851 0.5880 0.5910 0.5941
1125.000000 0.5972 0.6003 0.6033 0.6065 0.6096
1120.000000 0.6124 0.6153 0.6180 0.6189 0.6199
1115.000000 0.6208 0.6217 0.6228 0.6252 0.6281
1110.000000 0.6312 0.6344 0.6376 0.6407 0.6441
1105.000000 0.6472 0.6494 0.6515 0.6535 0.6553
1100.000000 0.6572 0.6601 0.6622 0.6625 0.6633
1095.000000 0.6603 0.6425 0.6250 0.6046 0.6079
1090.000000 0.6124 0.6218 0.6310 0.6405 0.6496
1085.000000 0.6562 0.6621 0.6636 0.6650 0.6695
1080.000000 0.6718 0.6737 0.6756 0.6775 0.6795
1075.000000 0.6810 0.6824 0.6837 0.6851 0.6864
1070.000000 0.6878 0.6891 0.6905 0.6915 0.6921
1065.000000 0.6928 0.6934 0.6940 0.6947 0.6953
1060.000000 0.6961 0.6971 0.6983 0.6993 0.7004
1055.000000 0.7014 0.7025 0.7036 0.7048 0.7060
1050.000000 0.7071 0.7084 0.7095 0.7106 0.7118
1045.000000 0.7122 0.7125 0.7126 0.7144 0.7115
1040.000000 0.7095 0.7050 0.7003 0.6891 0.6634
1035.000000 0.6184 0.5742 0.5750 0.5755 0.5883
1030.000000 0.6052 0.6341 0.6518 0.6636 0.6703
1025.000000 0.6768 0.6821 0.6865 0.6908 0.6935
1020.000000 0.6960 0.6985 0.7000 0.7015 0.7031
1015.000000 0.7044 0.7054 0.7065 0.7075 0.7087
1010.000000 0.7095 0.7105 0.7115 0.7125 0.7136
1005.000000 0.7147 0.7143 0.7143 0.6528 0.6572
1000.000000 0.6772 0.6989 0.7053 0.7075 0.7075
995.000000 0.7074 0.7106 0.7135 0.7156 0.7175
990.000000 0.7198 0.7221 0.7244 0.7262 0.7275
985.000000 0.7288 0.7299 0.7307 0.7315 0.7324
980.000000 0.7333 0.7336 0.7335 0.7334 0.7330
975.000000 0.7326 0.7326 0.7322 0.7265 0.7168
970.000000 0.7071 0.6974 0.6776 0.6788 0.6807
965.000000 0.6958 0.7091 0.7169 0.7221 0.7258
960.000000 0.7294 0.7328 0.7361 0.7380 0.7397
955.000000 0.7407 0.7385 0.7361 0.7343 0.7365
950.000000 0.7389 0.7403 0.7412 0.7418 0.7419
945.000000 0.7421 0.7421 0.7421 0.7430 0.7458
940.000000 0.7449 0.7455 0.7455 0.7424 0.7383
935.000000 0.7362 0.7358 0.7351 0.7343 0.7328
930.000000 0.7296 0.7261 0.7221 0.7180 0.7139
925.000000 0.7096 0.7054 0.6999 0.6921 0.6842
920.000000 0.6760 0.6689 0.6625 0.6572 0.6524
915.000000 0.6488 0.6457 0.6426 0.6408 0.6390
910.000000 0.6370 0.6312 0.6254 0.6185 0.6114
905.000000 0.6022 0.5886 0.5755 0.5644 0.5537
900.000000 0.5454 0.5373 0.5300 0.5227 0.5188
895.000000 0.5151 0.5148 0.5139 0.5138 0.5148
890.000000 0.5158 0.5201 0.5257 0.5318 0.5381
885.000000 0.5443 0.5510 0.5579 0.5647 0.5716
880.000000 0.5787 0.5862 0.5926 0.5986 0.6048
875.000000 0.6108 0.6165 0.6310 0.6288 0.6206
870.000000 0.6032 0.5889 0.5943 0.6027 0.6154
865.000000 0.6309 0.6446 0.6578 0.6685 0.6775
860.000000 0.6834 0.6818 0.6772 0.6628 0.6149
855.000000 0.5550 0.5530 0.5705 0.6138 0.6425
850.000000 0.6625 0.6776 0.6910 0.7011 0.7104
845.000000 0.7193 0.7250 0.7305 0.7351 0.7389
840.000000 0.7426 0.7464 0.7501 0.7538 0.7568
835.000000 0.7596 0.7621 0.7635 0.7650 0.7665
830.000000 0.7681 0.7696 0.7708 0.7719 0.7734
825.000000 0.7750 0.7780 0.7801 0.7812 0.7819
820.000000 0.7815 0.7815 0.7815 0.7818 0.7858
815.000000 0.7822 0.7822 0.7822 0.7815 0.7804
810.000000 0.7789 0.7765 0.7743 0.7734 0.7735
805.000000 0.7741 0.7755 0.7771 0.7797 0.7821
800.000000 0.7843 0.7851 0.7828 0.7803 0.7761
795.000000 0.7708 0.7625 0.7521 0.7368 0.7138
790.000000 0.6876 0.6241 0.5706 0.5172 0.5169
785.000000 0.5218 0.5579 0.6009 0.6201 0.6337
780.000000 0.6464 0.6568 0.6656 0.6732 0.6776
775.000000 0.6778 0.6778 0.6728 0.6662 0.6589
770.000000 0.6512 0.6350 0.6159 0.5914 0.5398
765.000000 0.4562 0.3707 0.2849 0.2390 0.2321
760.000000 0.2339 0.2500 0.2868 0.3464 0.4072
755.000000 0.4638 0.4997 0.5271 0.5532 0.5829
750.000000 0.6083 0.6304 0.6498 0.6707 0.6862
745.000000 0.7015 0.7156 0.7191 0.7215 0.7240
740.000000 0.7280 0.7341 0.7421 0.7476 0.7475
735.000000 0.7475 0.7474 0.7474 0.7483 0.7492
730.000000 0.7503 0.7515 0.7555 0.7528 0.7528
725.000000 0.7528 0.7521 0.7521 0.7524 0.7501
720.000000 0.7471 0.7393 0.7325 0.7278 0.7246
715.000000 0.7201 0.7112 0.6985 0.6845 0.6712
710.000000 0.6578 0.6433 0.6284 0.6042 0.5614
705.000000 0.5202 0.4862 0.4569 0.4256 0.3892
700.000000 0.3580 0.3559 0.3554 0.3596 0.3730
695.000000 0.3898 0.4060 0.4225 0.4425 0.4643
690.000000 0.4835 0.5021 0.5160 0.5299 0.5440
685.000000 0.5582 0.5762 0.5965
##END=
