##TITLE=ANILINE, 2,3,5,6-TETRAFLUORO-
##JCAMP-DX=4.24
##DATA TYPE=INFRARED SPECTRUM
##CLASS=COBLENTZ III
##ORIGIN=DOW CHEMICAL COMPANY
##OWNER=COBLENTZ SOC.
Collection (C) 2018 copyright by the U.S. Secretary of Commerce
on behalf of the United States of America. All rights reserved.
##DATE=1965/02/18
##NAMES=2,3,5,6-tetrafluorophenylamine
2,3,5,6-tetrafluoroaniline
##CAS REGISTRY NO=700-17-4
##MOLFORM=C6 H3 F4 N
##BP=158 C
##SOURCE REFERENCE=COBLENTZ NO. 06569
##$NIST SOURCE=COBLENTZ
##$NIST IMAGE=cob6569
##SPECTROMETER/DATA SYSTEM=BECKMAN IR-9 (GRATING)
##INSTRUMENT PARAMETERS=ORDER CHANGES: 670, 1200, 2000 CM^-^1
##STATE=SOLUTION (5% CCl4 FOR 3800-1330, 5% CS2 FOR 1330-400)
##PATH LENGTH=0.010 CM, 0.011 CM
$$SPECTRAL CONTAMINATION DUE TO CS2 AROUND 860, CCl4 AROUND 1550, AND AN UNKNOWN AROUND 400 CM^-^1
##SAMPLING PROCEDURE=TRANSMISSION
##RESOLUTION=2
##DATA PROCESSING=DIGITIZED BY COBLENTZ SOCIETY (BATCH I) FROM HARD COPY
##XUNITS=1/CM
##YUNITS=TRANSMITTANCE
##XLABEL=Wavenumbers (cm-1)
##YLABEL=% Transmission
##XFACTOR=1
##YFACTOR=1
##DELTAX=1
##FIRSTX=403
##LASTX=3800
##FIRSTY=0.0904
##MAXX=3800
##MINX=403
##MAXY=0.8889
##MINY=0.0016
##NPOINTS=3398
##XYDATA=(X++(Y..Y))
403.000000 0.0904 0.0905 0.0905 0.0906 0.0915
408.000000 0.0926 0.0939 0.0965 0.1084 0.1424
413.000000 0.1986 0.2383 0.2605 0.2807 0.3009
418.000000 0.3210 0.3412 0.3614 0.3775 0.3862
423.000000 0.3982 0.4165 0.4300 0.4381 0.4446
428.000000 0.4497 0.4549 0.4607 0.4704 0.4798
433.000000 0.4882 0.4967 0.5028 0.5084 0.5141
438.000000 0.5191 0.5234 0.5277 0.5321 0.5364
443.000000 0.5406 0.5441 0.5476 0.5510 0.5546
448.000000 0.5581 0.5610 0.5640 0.5669 0.5698
453.000000 0.5727 0.5756 0.5785 0.5812 0.5841
458.000000 0.5868 0.5896 0.5924 0.5951 0.5979
463.000000 0.6006 0.6035 0.6062 0.6092 0.6120
468.000000 0.6148 0.6177 0.6205 0.6268 0.6334
473.000000 0.6485 0.6519 0.6551 0.6565 0.6580
478.000000 0.6594 0.6608 0.6624 0.6642 0.6660
483.000000 0.6678 0.6696 0.6715 0.6736 0.6756
488.000000 0.6775 0.6796 0.6815 0.6834 0.6850
493.000000 0.6865 0.6882 0.6898 0.6914 0.6930
498.000000 0.6946 0.6961 0.6976 0.6991 0.7006
503.000000 0.7019 0.7034 0.7049 0.7062 0.7076
508.000000 0.7093 0.7110 0.7128 0.7145 0.7162
513.000000 0.7180 0.7198 0.7215 0.7233 0.7248
518.000000 0.7264 0.7280 0.7295 0.7311 0.7325
523.000000 0.7342 0.7358 0.7372 0.7389 0.7403
528.000000 0.7415 0.7428 0.7440 0.7453 0.7465
533.000000 0.7478 0.7491 0.7504 0.7515 0.7528
538.000000 0.7539 0.7550 0.7561 0.7571 0.7583
543.000000 0.7593 0.7604 0.7615 0.7628 0.7643
548.000000 0.7656 0.7668 0.7680 0.7692 0.7699
553.000000 0.7696 0.7686 0.7678 0.7635 0.7382
558.000000 0.7250 0.7078 0.6934 0.6865 0.6851
563.000000 0.6871 0.7119 0.7285 0.7428 0.7485
568.000000 0.7515 0.7545 0.7575 0.7606 0.7640
573.000000 0.7690 0.7718 0.7735 0.7749 0.7761
578.000000 0.7775 0.7791 0.7812 0.7834 0.7861
583.000000 0.7887 0.7910 0.7922 0.7951 0.7918
588.000000 0.7899 0.7835 0.7721 0.7631 0.7543
593.000000 0.7408 0.7398 0.7387 0.7367 0.7374
598.000000 0.7374 0.7374 0.7375 0.7378 0.7378
603.000000 0.7386 0.7401 0.7417 0.7432 0.7450
608.000000 0.7468 0.7484 0.7498 0.7511 0.7524
613.000000 0.7534 0.7538 0.7543 0.7545 0.7546
618.000000 0.7548 0.7549 0.7550 0.7561 0.7541
623.000000 0.7532 0.7521 0.7510 0.7499 0.7485
628.000000 0.7471 0.7456 0.7441 0.7425 0.7410
633.000000 0.7393 0.7376 0.7361 0.7345 0.7328
638.000000 0.7312 0.7297 0.7281 0.7265 0.7255
643.000000 0.7243 0.7232 0.7221 0.7208 0.7198
648.000000 0.7187 0.7174 0.7161 0.7150 0.7138
653.000000 0.7125 0.7112 0.7094 0.7093 0.7093
658.000000 0.7093 0.7103 0.7118 0.7162 0.7212
663.000000 0.7256 0.7235 0.7240 0.7226 0.7215
668.000000 0.7201 0.7175 0.6721 0.6667 0.6675
673.000000 0.6682 0.6875 0.7137 0.7339 0.7461
678.000000 0.7504 0.7543 0.7575 0.7593 0.7610
683.000000 0.7625 0.7640 0.7651 0.7661 0.7672
688.000000 0.7684 0.7698 0.7712 0.7728 0.7743
693.000000 0.7751 0.7760 0.7768 0.7776 0.7785
698.000000 0.7791 0.7804 0.7804 0.7804 0.7791
703.000000 0.7778 0.7758 0.7725 0.7693 0.7638
708.000000 0.7264 0.6587 0.5910 0.5233 0.4555
713.000000 0.3878 0.3626 0.3662 0.4331 0.5000
718.000000 0.5668 0.6337 0.6741 0.6826 0.6951
723.000000 0.7050 0.7150 0.7258 0.7365 0.7425
728.000000 0.7485 0.7545 0.7575 0.7603 0.7632
733.000000 0.7653 0.7671 0.7691 0.7710 0.7721
738.000000 0.7733 0.7744 0.7755 0.7765 0.7775
743.000000 0.7785 0.7795 0.7805 0.7815 0.7825
748.000000 0.7835 0.7842 0.7849 0.7856 0.7862
753.000000 0.7868 0.7875 0.7883 0.7886 0.7890
758.000000 0.7893 0.7896 0.7900 0.7903 0.7907
763.000000 0.7910 0.7910 0.7910 0.7907 0.7904
768.000000 0.7900 0.7895 0.7885 0.7875 0.7865
773.000000 0.7856 0.7846 0.7837 0.7828 0.7830
778.000000 0.7830 0.7831 0.7831 0.7801 0.7775
783.000000 0.7750 0.7718 0.7681 0.7644 0.7595
788.000000 0.7536 0.7478 0.7419 0.7295 0.6660
793.000000 0.6123 0.5586 0.5050 0.4512 0.3976
798.000000 0.3440 0.2903 0.2695 0.2673 0.3064
803.000000 0.3464 0.3866 0.4267 0.4668 0.5069
808.000000 0.5470 0.5872 0.6273 0.6947 0.7201
813.000000 0.7341 0.7431 0.7510 0.7554 0.7594
818.000000 0.7619 0.7645 0.7669 0.7693 0.7715
823.000000 0.7738 0.7756 0.7774 0.7786 0.7793
828.000000 0.7793 0.7792 0.7775 0.7754 0.7734
833.000000 0.7714 0.7703 0.7697 0.7708 0.7721
838.000000 0.7739 0.7748 0.7751 0.7744 0.7718
843.000000 0.7691 0.7641 0.7583 0.7515 0.7433
848.000000 0.7328 0.7215 0.7142 0.7067 0.6985
853.000000 0.6880 0.6803 0.6742 0.6700 0.6647
858.000000 0.6665 0.6661 0.6662 0.6668 0.6684
863.000000 0.6700 0.6719 0.6740 0.6758 0.6768
868.000000 0.6768 0.6768 0.6747 0.6651 0.6565
873.000000 0.6436 0.6359 0.6092 0.5703 0.5314
878.000000 0.4924 0.4535 0.3900 0.2790 0.1679
883.000000 0.1271 0.1208 0.1203 0.1274 0.1794
888.000000 0.2316 0.2838 0.3359 0.4045 0.4137
893.000000 0.4225 0.4308 0.4390 0.4560 0.4665
898.000000 0.4723 0.5027 0.5608 0.6080 0.6194
903.000000 0.6306 0.6418 0.6554 0.6700 0.7174
908.000000 0.7269 0.7361 0.7431 0.7505 0.7586
913.000000 0.7628 0.7658 0.7668 0.7676 0.7685
918.000000 0.7682 0.7743 0.7806 0.7882 0.7950
923.000000 0.7994 0.8038 0.8075 0.8111 0.8142
928.000000 0.8165 0.8190 0.8206 0.8205 0.8206
933.000000 0.8207 0.8198 0.8185 0.8171 0.8158
938.000000 0.8151 0.8150 0.8150 0.8161 0.8168
943.000000 0.8171 0.8171 0.8172 0.8160 0.8044
948.000000 0.7803 0.7561 0.7321 0.7094 0.7095
953.000000 0.7091 0.7328 0.7487 0.7646 0.7805
958.000000 0.7964 0.8022 0.8033 0.8037 0.8037
963.000000 0.8038 0.8038 0.8060 0.8110 0.8118
968.000000 0.8119 0.8121 0.8096 0.8072 0.8051
973.000000 0.8030 0.8041 0.8058 0.8092 0.8138
978.000000 0.8192 0.8251 0.8300 0.8347 0.8382
983.000000 0.8413 0.8444 0.8471 0.8485 0.8491
988.000000 0.8498 0.8504 0.8510 0.8510 0.8511
993.000000 0.8511 0.8511 0.8511 0.8510 0.8510
998.000000 0.8510 0.8510 0.8510 0.8509 0.8508
1003.000000 0.8504 0.8500 0.8496 0.8491 0.8478
1008.000000 0.8467 0.8455 0.8443 0.8420 0.8395
1013.000000 0.8370 0.8345 0.8313 0.8280 0.8247
1018.000000 0.8213 0.8156 0.8078 0.8121 0.8125
1023.000000 0.8135 0.8182 0.8254 0.8290 0.8297
1028.000000 0.8309 0.8293 0.8291 0.8287 0.8275
1033.000000 0.8265 0.8248 0.8231 0.8213 0.8196
1038.000000 0.8178 0.8160 0.8142 0.8121 0.8088
1043.000000 0.8055 0.8017 0.7958 0.7901 0.7818
1048.000000 0.7721 0.7750 0.7750 0.7753 0.7778
1053.000000 0.7811 0.7850 0.7889 0.7931 0.7972
1058.000000 0.8015 0.8025 0.8034 0.8021 0.8017
1063.000000 0.8011 0.7996 0.7969 0.7934 0.7886
1068.000000 0.7838 0.7780 0.7711 0.7643 0.7567
1073.000000 0.7491 0.7415 0.7335 0.7228 0.7105
1078.000000 0.5527 0.4764 0.4580 0.4010 0.3459
1083.000000 0.2908 0.2357 0.1804 0.1253 0.0702
1088.000000 0.0419 0.0392 0.0592 0.1273 0.1954
1093.000000 0.2635 0.3316 0.3998 0.4679 0.5360
1098.000000 0.5618 0.5635 0.5599 0.5117 0.4635
1103.000000 0.4153 0.3671 0.3393 0.3382 0.4135
1108.000000 0.5037 0.5938 0.6365 0.6496 0.6604
1113.000000 0.6678 0.6746 0.6797 0.6841 0.6884
1118.000000 0.6925 0.6964 0.7003 0.7041 0.7074
1123.000000 0.7108 0.7198 0.7369 0.7595 0.7732
1128.000000 0.7841 0.7921 0.8001 0.8053 0.8100
1133.000000 0.8131 0.8161 0.8169 0.8180 0.8181
1138.000000 0.8181 0.8171 0.8146 0.8106 0.8056
1143.000000 0.7999 0.7924 0.7842 0.7748 0.7512
1148.000000 0.7278 0.7043 0.6808 0.6574 0.6376
1153.000000 0.6357 0.6334 0.6320 0.6030 0.5512
1158.000000 0.4996 0.4479 0.3962 0.3655 0.3650
1163.000000 0.3718 0.3916 0.4112 0.4309 0.4425
1168.000000 0.4452 0.3848 0.3421 0.2995 0.2569
1173.000000 0.2143 0.1717 0.1354 0.1354 0.1354
1178.000000 0.2102 0.3037 0.3972 0.5358 0.5543
1183.000000 0.5728 0.5910 0.6089 0.6332 0.6855
1188.000000 0.7015 0.7218 0.7368 0.7471 0.7561
1193.000000 0.7647 0.7718 0.7789 0.7840 0.7885
1198.000000 0.7904 0.7896 0.7919 0.7871 0.7843
1203.000000 0.7821 0.7799 0.7775 0.7741 0.7728
1208.000000 0.7707 0.7682 0.7641 0.7603 0.7569
1213.000000 0.7534 0.7515 0.7518 0.7511 0.7537
1218.000000 0.7546 0.7556 0.7569 0.7622 0.7715
1223.000000 0.7803 0.7867 0.7951 0.8225 0.8375
1228.000000 0.8428 0.8460 0.8467 0.8471 0.8471
1233.000000 0.8468 0.8467 0.8465 0.8461 0.8454
1238.000000 0.8448 0.8441 0.8441 0.8442 0.8452
1243.000000 0.8461 0.8465 0.8468 0.8468 0.8468
1248.000000 0.8461 0.8451 0.8433 0.8415 0.8395
1253.000000 0.8362 0.8318 0.8256 0.8165 0.8075
1258.000000 0.7988 0.7846 0.7691 0.7551 0.6772
1263.000000 0.6668 0.6584 0.6496 0.5626 0.4138
1268.000000 0.2651 0.2577 0.2564 0.3252 0.4181
1273.000000 0.5109 0.6037 0.6965 0.7360 0.7530
1278.000000 0.7636 0.7764 0.7887 0.7996 0.8061
1283.000000 0.8128 0.8171 0.8211 0.8250 0.8288
1288.000000 0.8317 0.8346 0.8375 0.8400 0.8418
1293.000000 0.8435 0.8449 0.8463 0.8475 0.8486
1298.000000 0.8496 0.8506 0.8516 0.8525 0.8531
1303.000000 0.8535 0.8538 0.8542 0.8540 0.8535
1308.000000 0.8531 0.8527 0.8521 0.8518 0.8515
1313.000000 0.8511 0.8508 0.8504 0.8501 0.8500
1318.000000 0.8499 0.8498 0.8497 0.8496 0.8496
1323.000000 0.8496 0.8499 0.8501 0.8540 0.8507
1328.000000 0.8509 0.8511 0.8513 0.8515 0.8517
1333.000000 0.8518 0.8521 0.8523 0.8524 0.8523
1338.000000 0.8523 0.8521 0.8520 0.8518 0.8517
1343.000000 0.8516 0.8514 0.8506 0.8498 0.8490
1348.000000 0.8475 0.8456 0.8418 0.8357 0.8282
1353.000000 0.8164 0.8054 0.7964 0.7961 0.7942
1358.000000 0.8061 0.8169 0.8281 0.8336 0.8386
1363.000000 0.8414 0.8442 0.8460 0.8474 0.8487
1368.000000 0.8498 0.8508 0.8516 0.8523 0.8528
1373.000000 0.8533 0.8533 0.8534 0.8533 0.8533
1378.000000 0.8527 0.8521 0.8516 0.8510 0.8504
1383.000000 0.8499 0.8493 0.8487 0.8481 0.8475
1388.000000 0.8468 0.8463 0.8457 0.8451 0.8428
1393.000000 0.8391 0.8347 0.8289 0.8221 0.8155
1398.000000 0.8089 0.7158 0.6171 0.5709 0.5703
1403.000000 0.6080 0.6885 0.7690 0.8083 0.8178
1408.000000 0.8266 0.8345 0.8418 0.8457 0.8482
1413.000000 0.8489 0.8496 0.8497 0.8503 0.8491
1418.000000 0.8488 0.8482 0.8477 0.8473 0.8468
1423.000000 0.8465 0.8461 0.8455 0.8450 0.8445
1428.000000 0.8440 0.8435 0.8427 0.8418 0.8412
1433.000000 0.8399 0.8380 0.8361 0.8341 0.8310
1438.000000 0.8278 0.8245 0.8212 0.8178 0.8145
1443.000000 0.8111 0.8065 0.8018 0.7971 0.7925
1448.000000 0.7868 0.7806 0.7728 0.7698 0.7708
1453.000000 0.7715 0.7740 0.7805 0.7885 0.7949
1458.000000 0.8010 0.8045 0.8064 0.8078 0.8080
1463.000000 0.8080 0.8068 0.8061 0.8045 0.8025
1468.000000 0.8004 0.7980 0.7956 0.7928 0.7899
1473.000000 0.7862 0.7815 0.7764 0.7711 0.7658
1478.000000 0.7574 0.7472 0.7378 0.7287 0.7199
1483.000000 0.7107 0.6980 0.6865 0.6769 0.6630
1488.000000 0.6508 0.6341 0.5968 0.5596 0.5223
1493.000000 0.4851 0.4478 0.4105 0.3589 0.3058
1498.000000 0.2418 0.1778 0.1139 0.0487 0.0389
1503.000000 0.0290 0.0267 0.0261 0.0258 0.0421
1508.000000 0.1058 0.1694 0.2331 0.2487 0.2483
1513.000000 0.2481 0.2192 0.1859 0.1525 0.1192
1518.000000 0.0859 0.0525 0.0192 0.0024 0.0020
1523.000000 0.0016 0.0016 0.0016 0.0017 0.0017
1528.000000 0.0018 0.0019 0.0019 0.0020 0.0020
1533.000000 0.0021 0.0366 0.0775 0.1184 0.1592
1538.000000 0.2003 0.2412 0.2929 0.3080 0.3177
1543.000000 0.3282 0.3352 0.3382 0.3402 0.3416
1548.000000 0.3430 0.3442 0.3455 0.3476 0.3547
1553.000000 0.3623 0.3692 0.3756 0.3834 0.3921
1558.000000 0.4000 0.4076 0.4155 0.4234 0.4315
1563.000000 0.4414 0.4515 0.4634 0.4753 0.4908
1568.000000 0.5018 0.5090 0.5162 0.5232 0.5295
1573.000000 0.5358 0.5399 0.5439 0.5479 0.5516
1578.000000 0.5551 0.5572 0.5587 0.5599 0.5607
1583.000000 0.5608 0.5609 0.5620 0.5605 0.5595
1588.000000 0.5586 0.5576 0.5566 0.5553 0.5540
1593.000000 0.5508 0.5460 0.5410 0.5362 0.5275
1598.000000 0.5165 0.5012 0.4850 0.4676 0.4643
1603.000000 0.4646 0.4650 0.4655 0.4684 0.4725
1608.000000 0.4780 0.4803 0.4814 0.4822 0.4826
1613.000000 0.4831 0.4838 0.4844 0.4870 0.4908
1618.000000 0.5252 0.5642 0.6032 0.6277 0.6443
1623.000000 0.6557 0.6671 0.6822 0.6984 0.7117
1628.000000 0.7239 0.7312 0.7386 0.7426 0.7468
1633.000000 0.7497 0.7514 0.7528 0.7538 0.7547
1638.000000 0.7555 0.7557 0.7558 0.7578 0.7518
1643.000000 0.7480 0.7426 0.7368 0.7265 0.6930
1648.000000 0.6545 0.6160 0.5775 0.5390 0.5005
1653.000000 0.4620 0.4136 0.3573 0.3011 0.2449
1658.000000 0.1885 0.1324 0.0762 0.0381 0.0386
1663.000000 0.0389 0.0828 0.1744 0.2663 0.3580
1668.000000 0.4497 0.5271 0.5483 0.6067 0.6244
1673.000000 0.6426 0.6633 0.6815 0.6911 0.7007
1678.000000 0.7106 0.7205 0.7304 0.7406 0.7506
1683.000000 0.7605 0.7705 0.7832 0.7898 0.7958
1688.000000 0.8015 0.8067 0.8108 0.8131 0.8151
1693.000000 0.8168 0.8169 0.8171 0.8172 0.8169
1698.000000 0.8161 0.8154 0.8151 0.8151 0.8151
1703.000000 0.8156 0.8206 0.8251 0.8287 0.8314
1708.000000 0.8337 0.8360 0.8386 0.8409 0.8425
1713.000000 0.8444 0.8463 0.8485 0.8501 0.8512
1718.000000 0.8523 0.8534 0.8545 0.8549 0.8550
1723.000000 0.8550 0.8551 0.8552 0.8556 0.8559
1728.000000 0.8563 0.8567 0.8568 0.8570 0.8570
1733.000000 0.8571 0.8571 0.8571 0.8571 0.8571
1738.000000 0.8571 0.8571 0.8571 0.8571 0.8571
1743.000000 0.8571 0.8571 0.8571 0.8570 0.8568
1748.000000 0.8567 0.8565 0.8563 0.8562 0.8561
1753.000000 0.8559 0.8558 0.8557 0.8555 0.8554
1758.000000 0.8553 0.8556 0.8558 0.8561 0.8567
1763.000000 0.8587 0.8607 0.8627 0.8648 0.8648
1768.000000 0.8647 0.8644 0.8644 0.8645 0.8645
1773.000000 0.8645 0.8643 0.8642 0.8639 0.8636
1778.000000 0.8633 0.8630 0.8627 0.8632 0.8649
1783.000000 0.8666 0.8677 0.8685 0.8694 0.8701
1788.000000 0.8708 0.8714 0.8715 0.8715 0.8714
1793.000000 0.8714 0.8713 0.8712 0.8710 0.8709
1798.000000 0.8708 0.8707 0.8705 0.8704 0.8699
1803.000000 0.8693 0.8688 0.8683 0.8677 0.8673
1808.000000 0.8668 0.8665 0.8661 0.8660 0.8658
1813.000000 0.8656 0.8642 0.8627 0.8611 0.8596
1818.000000 0.8567 0.8535 0.8504 0.8504 0.8505
1823.000000 0.8518 0.8531 0.8545 0.8557 0.8570
1828.000000 0.8571 0.8571 0.8565 0.8556 0.8547
1833.000000 0.8543 0.8540 0.8536 0.8528 0.8518
1838.000000 0.8518 0.8506 0.8521 0.8531 0.8540
1843.000000 0.8553 0.8571 0.8593 0.8616 0.8639
1848.000000 0.8649 0.8659 0.8668 0.8673 0.8677
1853.000000 0.8681 0.8683 0.8685 0.8687 0.8689
1858.000000 0.8689 0.8689 0.8687 0.8686 0.8685
1863.000000 0.8683 0.8682 0.8683 0.8683 0.8686
1868.000000 0.8689 0.8692 0.8694 0.8697 0.8701
1873.000000 0.8704 0.8706 0.8707 0.8709 0.8711
1878.000000 0.8713 0.8713 0.8713 0.8711 0.8710
1883.000000 0.8708 0.8706 0.8704 0.8703 0.8701
1888.000000 0.8699 0.8697 0.8695 0.8693 0.8687
1893.000000 0.8682 0.8675 0.8678 0.8691 0.8706
1898.000000 0.8715 0.8725 0.8732 0.8739 0.8745
1903.000000 0.8750 0.8753 0.8756 0.8760 0.8763
1908.000000 0.8766 0.8768 0.8770 0.8771 0.8774
1913.000000 0.8775 0.8775 0.8777 0.8777 0.8778
1918.000000 0.8778 0.8778 0.8780 0.8780 0.8781
1923.000000 0.8778 0.8775 0.8774 0.8771 0.8768
1928.000000 0.8766 0.8764 0.8761 0.8759 0.8756
1933.000000 0.8753 0.8751 0.8748 0.8743 0.8738
1938.000000 0.8734 0.8728 0.8725 0.8721 0.8718
1943.000000 0.8714 0.8716 0.8720 0.8725 0.8730
1948.000000 0.8742 0.8751 0.8759 0.8767 0.8775
1953.000000 0.8784 0.8789 0.8789 0.8789 0.8789
1958.000000 0.8789 0.8788 0.8787 0.8787 0.8786
1963.000000 0.8785 0.8784 0.8784 0.8783 0.8781
1968.000000 0.8778 0.8777 0.8774 0.8771 0.8768
1973.000000 0.8767 0.8764 0.8761 0.8758 0.8755
1978.000000 0.8751 0.8743 0.8735 0.8728 0.8720
1983.000000 0.8713 0.8709 0.8705 0.8701 0.8699
1988.000000 0.8705 0.8717 0.8725 0.8720 0.8714
1993.000000 0.8708 0.8701 0.8683 0.8645 0.8596
1998.000000 0.8545 0.8524 0.8520 0.8528 0.8536
2003.000000 0.8554 0.8573 0.8591 0.8609 0.8618
2008.000000 0.8627 0.8631 0.8636 0.8640 0.8644
2013.000000 0.8646 0.8649 0.8652 0.8655 0.8659
2018.000000 0.8663 0.8664 0.8664 0.8664 0.8664
2023.000000 0.8664 0.8664 0.8663 0.8663 0.8662
2028.000000 0.8662 0.8662 0.8662 0.8662 0.8662
2033.000000 0.8662 0.8663 0.8663 0.8663 0.8661
2038.000000 0.8659 0.8657 0.8655 0.8653 0.8651
2043.000000 0.8648 0.8646 0.8643 0.8641 0.8638
2048.000000 0.8635 0.8633 0.8634 0.8634 0.8636
2053.000000 0.8638 0.8640 0.8642 0.8644 0.8646
2058.000000 0.8648 0.8650 0.8653 0.8655 0.8657
2063.000000 0.8659 0.8661 0.8663 0.8665 0.8668
2068.000000 0.8673 0.8677 0.8681 0.8685 0.8690
2073.000000 0.8694 0.8698 0.8702 0.8706 0.8710
2078.000000 0.8715 0.8718 0.8723 0.8727 0.8732
2083.000000 0.8734 0.8736 0.8736 0.8736 0.8736
2088.000000 0.8736 0.8736 0.8736 0.8736 0.8736
2093.000000 0.8735 0.8735 0.8734 0.8734 0.8733
2098.000000 0.8733 0.8732 0.8732 0.8730 0.8728
2103.000000 0.8727 0.8725 0.8724 0.8721 0.8720
2108.000000 0.8718 0.8716 0.8715 0.8713 0.8712
2113.000000 0.8711 0.8712 0.8712 0.8714 0.8716
2118.000000 0.8718 0.8721 0.8724 0.8725 0.8728
2123.000000 0.8730 0.8733 0.8735 0.8738 0.8740
2128.000000 0.8742 0.8745 0.8749 0.8753 0.8757
2133.000000 0.8760 0.8764 0.8767 0.8771 0.8773
2138.000000 0.8775 0.8775 0.8775 0.8775 0.8777
2143.000000 0.8777 0.8777 0.8775 0.8775 0.8771
2148.000000 0.8770 0.8767 0.8765 0.8762 0.8760
2153.000000 0.8757 0.8755 0.8752 0.8750 0.8750
2158.000000 0.8751 0.8752 0.8754 0.8756 0.8758
2163.000000 0.8760 0.8762 0.8764 0.8766 0.8768
2168.000000 0.8770 0.8771 0.8773 0.8774 0.8775
2173.000000 0.8777 0.8777 0.8777 0.8777 0.8775
2178.000000 0.8775 0.8775 0.8775 0.8775 0.8775
2183.000000 0.8771 0.8770 0.8766 0.8763 0.8759
2188.000000 0.8755 0.8751 0.8748 0.8744 0.8741
2193.000000 0.8737 0.8733 0.8728 0.8725 0.8721
2198.000000 0.8718 0.8716 0.8715 0.8714 0.8714
2203.000000 0.8713 0.8713 0.8712 0.8712 0.8711
2208.000000 0.8710 0.8709 0.8709 0.8711 0.8713
2213.000000 0.8715 0.8717 0.8718 0.8721 0.8724
2218.000000 0.8725 0.8728 0.8730 0.8732 0.8735
2223.000000 0.8737 0.8739 0.8739 0.8740 0.8730
2228.000000 0.8720 0.8709 0.8699 0.8688 0.8678
2233.000000 0.8667 0.8657 0.8647 0.8637 0.8627
2238.000000 0.8617 0.8609 0.8602 0.8595 0.8589
2243.000000 0.8588 0.8588 0.8593 0.8598 0.8603
2248.000000 0.8608 0.8617 0.8627 0.8638 0.8650
2253.000000 0.8657 0.8664 0.8668 0.8675 0.8678
2258.000000 0.8678 0.8678 0.8675 0.8673 0.8670
2263.000000 0.8667 0.8664 0.8661 0.8658 0.8654
2268.000000 0.8651 0.8643 0.8635 0.8627 0.8620
2273.000000 0.8612 0.8604 0.8596 0.8588 0.8578
2278.000000 0.8571 0.8561 0.8551 0.8541 0.8531
2283.000000 0.8520 0.8510 0.8500 0.8493 0.8493
2288.000000 0.8496 0.8500 0.8505 0.8511 0.8517
2293.000000 0.8521 0.8528 0.8534 0.8541 0.8547
2298.000000 0.8554 0.8560 0.8567 0.8571 0.8577
2303.000000 0.8582 0.8588 0.8593 0.8598 0.8604
2308.000000 0.8611 0.8620 0.8628 0.8638 0.8648
2313.000000 0.8657 0.8666 0.8673 0.8681 0.8688
2318.000000 0.8695 0.8700 0.8705 0.8704 0.8703
2323.000000 0.8701 0.8700 0.8699 0.8698 0.8696
2328.000000 0.8695 0.8694 0.8693 0.8692 0.8691
2333.000000 0.8689 0.8690 0.8690 0.8692 0.8695
2338.000000 0.8698 0.8701 0.8704 0.8707 0.8710
2343.000000 0.8721 0.8734 0.8740 0.8747 0.8753
2348.000000 0.8759 0.8765 0.8771 0.8777 0.8783
2353.000000 0.8789 0.8795 0.8796 0.8796 0.8796
2358.000000 0.8796 0.8795 0.8795 0.8795 0.8795
2363.000000 0.8794 0.8794 0.8793 0.8793 0.8792
2368.000000 0.8792 0.8791 0.8791 0.8790 0.8790
2373.000000 0.8790 0.8790 0.8789 0.8789 0.8788
2378.000000 0.8788 0.8788 0.8788 0.8787 0.8787
2383.000000 0.8787 0.8787 0.8787 0.8788 0.8788
2388.000000 0.8789 0.8789 0.8789 0.8789 0.8790
2393.000000 0.8790 0.8791 0.8791 0.8791 0.8791
2398.000000 0.8792 0.8792 0.8792 0.8792 0.8792
2403.000000 0.8792 0.8792 0.8792 0.8792 0.8792
2408.000000 0.8792 0.8792 0.8792 0.8792 0.8793
2413.000000 0.8793 0.8793 0.8794 0.8795 0.8796
2418.000000 0.8797 0.8798 0.8799 0.8800 0.8801
2423.000000 0.8801 0.8802 0.8803 0.8804 0.8805
2428.000000 0.8806 0.8807 0.8808 0.8809 0.8810
2433.000000 0.8810 0.8811 0.8812 0.8813 0.8814
2438.000000 0.8815 0.8816 0.8817 0.8818 0.8818
2443.000000 0.8820 0.8821 0.8821 0.8824 0.8825
2448.000000 0.8827 0.8828 0.8828 0.8830 0.8832
2453.000000 0.8833 0.8835 0.8836 0.8837 0.8838
2458.000000 0.8840 0.8841 0.8842 0.8842 0.8842
2463.000000 0.8842 0.8841 0.8839 0.8838 0.8837
2468.000000 0.8836 0.8833 0.8830 0.8825 0.8821
2473.000000 0.8817 0.8813 0.8808 0.8804 0.8800
2478.000000 0.8796 0.8791 0.8787 0.8783 0.8778
2483.000000 0.8775 0.8771 0.8766 0.8762 0.8758
2488.000000 0.8754 0.8749 0.8744 0.8734 0.8724
2493.000000 0.8713 0.8703 0.8692 0.8682 0.8668
2498.000000 0.8656 0.8638 0.8621 0.8614 0.8607
2503.000000 0.8608 0.8609 0.8616 0.8624 0.8641
2508.000000 0.8658 0.8678 0.8700 0.8721 0.8745
2513.000000 0.8755 0.8766 0.8774 0.8783 0.8791
2518.000000 0.8799 0.8803 0.8807 0.8808 0.8809
2523.000000 0.8810 0.8811 0.8812 0.8813 0.8814
2528.000000 0.8816 0.8816 0.8816 0.8815 0.8815
2533.000000 0.8814 0.8814 0.8813 0.8813 0.8812
2538.000000 0.8812 0.8811 0.8811 0.8810 0.8810
2543.000000 0.8809 0.8809 0.8808 0.8807 0.8806
2548.000000 0.8805 0.8804 0.8803 0.8801 0.8800
2553.000000 0.8799 0.8798 0.8797 0.8796 0.8794
2558.000000 0.8793 0.8792 0.8791 0.8790 0.8789
2563.000000 0.8788 0.8787 0.8785 0.8784 0.8783
2568.000000 0.8782 0.8778 0.8777 0.8771 0.8767
2573.000000 0.8762 0.8758 0.8753 0.8749 0.8741
2578.000000 0.8734 0.8724 0.8714 0.8696 0.8678
2583.000000 0.8663 0.8649 0.8649 0.8649 0.8648
2588.000000 0.8648 0.8648 0.8648 0.8657 0.8666
2593.000000 0.8677 0.8688 0.8699 0.8710 0.8721
2598.000000 0.8732 0.8742 0.8752 0.8757 0.8762
2603.000000 0.8763 0.8765 0.8765 0.8765 0.8763
2608.000000 0.8762 0.8760 0.8758 0.8756 0.8754
2613.000000 0.8751 0.8749 0.8745 0.8742 0.8739
2618.000000 0.8736 0.8733 0.8730 0.8727 0.8724
2623.000000 0.8721 0.8718 0.8714 0.8711 0.8708
2628.000000 0.8705 0.8699 0.8693 0.8686 0.8680
2633.000000 0.8673 0.8666 0.8659 0.8652 0.8648
2638.000000 0.8644 0.8644 0.8645 0.8651 0.8657
2643.000000 0.8664 0.8671 0.8678 0.8687 0.8694
2648.000000 0.8701 0.8708 0.8715 0.8723 0.8731
2653.000000 0.8741 0.8752 0.8761 0.8770 0.8775
2658.000000 0.8781 0.8786 0.8791 0.8792 0.8794
2663.000000 0.8794 0.8794 0.8794 0.8794 0.8794
2668.000000 0.8794 0.8794 0.8794 0.8794 0.8794
2673.000000 0.8793 0.8793 0.8792 0.8792 0.8792
2678.000000 0.8792 0.8791 0.8791 0.8790 0.8790
2683.000000 0.8789 0.8789 0.8788 0.8788 0.8787
2688.000000 0.8787 0.8786 0.8786 0.8785 0.8785
2693.000000 0.8784 0.8783 0.8783 0.8783 0.8782
2698.000000 0.8782 0.8782 0.8782 0.8782 0.8782
2703.000000 0.8781 0.8781 0.8781 0.8781 0.8780
2708.000000 0.8780 0.8780 0.8780 0.8780 0.8780
2713.000000 0.8780 0.8780 0.8780 0.8780 0.8780
2718.000000 0.8780 0.8778 0.8778 0.8781 0.8783
2723.000000 0.8786 0.8789 0.8791 0.8794 0.8797
2728.000000 0.8800 0.8803 0.8806 0.8808 0.8810
2733.000000 0.8812 0.8814 0.8816 0.8818 0.8820
2738.000000 0.8821 0.8823 0.8823 0.8824 0.8824
2743.000000 0.8823 0.8821 0.8818 0.8817 0.8814
2748.000000 0.8811 0.8808 0.8806 0.8803 0.8801
2753.000000 0.8798 0.8796 0.8793 0.8791 0.8788
2758.000000 0.8785 0.8782 0.8778 0.8775 0.8773
2763.000000 0.8770 0.8767 0.8764 0.8761 0.8758
2768.000000 0.8755 0.8752 0.8749 0.8746 0.8743
2773.000000 0.8739 0.8735 0.8730 0.8725 0.8727
2778.000000 0.8728 0.8734 0.8739 0.8744 0.8749
2783.000000 0.8755 0.8761 0.8768 0.8775 0.8784
2788.000000 0.8793 0.8794 0.8796 0.8798 0.8800
2793.000000 0.8802 0.8804 0.8805 0.8807 0.8808
2798.000000 0.8809 0.8810 0.8812 0.8813 0.8814
2803.000000 0.8815 0.8817 0.8818 0.8818 0.8820
2808.000000 0.8821 0.8823 0.8824 0.8825 0.8825
2813.000000 0.8827 0.8828 0.8828 0.8830 0.8831
2818.000000 0.8832 0.8833 0.8834 0.8834 0.8833
2823.000000 0.8833 0.8832 0.8830 0.8828 0.8825
2828.000000 0.8825 0.8823 0.8821 0.8818 0.8818
2833.000000 0.8816 0.8815 0.8813 0.8811 0.8810
2838.000000 0.8809 0.8808 0.8807 0.8806 0.8806
2843.000000 0.8805 0.8804 0.8803 0.8802 0.8801
2848.000000 0.8800 0.8799 0.8798 0.8797 0.8797
2853.000000 0.8796 0.8795 0.8794 0.8794 0.8793
2858.000000 0.8793 0.8792 0.8792 0.8791 0.8791
2863.000000 0.8790 0.8790 0.8789 0.8789 0.8788
2868.000000 0.8788 0.8787 0.8787 0.8786 0.8786
2873.000000 0.8785 0.8785 0.8784 0.8784 0.8783
2878.000000 0.8783 0.8782 0.8782 0.8781 0.8781
2883.000000 0.8780 0.8780 0.8778 0.8778 0.8778
2888.000000 0.8778 0.8777 0.8777 0.8775 0.8775
2893.000000 0.8775 0.8774 0.8773 0.8771 0.8771
2898.000000 0.8770 0.8768 0.8768 0.8767 0.8766
2903.000000 0.8765 0.8764 0.8763 0.8762 0.8761
2908.000000 0.8760 0.8756 0.8753 0.8748 0.8744
2913.000000 0.8739 0.8735 0.8730 0.8725 0.8718
2918.000000 0.8711 0.8703 0.8695 0.8687 0.8680
2923.000000 0.8671 0.8664 0.8651 0.8639 0.8630
2928.000000 0.8621 0.8616 0.8611 0.8608 0.8605
2933.000000 0.8605 0.8605 0.8609 0.8613 0.8627
2938.000000 0.8641 0.8656 0.8671 0.8686 0.8702
2943.000000 0.8717 0.8733 0.8746 0.8759 0.8760
2948.000000 0.8761 0.8761 0.8761 0.8762 0.8763
2953.000000 0.8764 0.8765 0.8766 0.8767 0.8768
2958.000000 0.8771 0.8773 0.8775 0.8775 0.8778
2963.000000 0.8778 0.8781 0.8782 0.8784 0.8785
2968.000000 0.8787 0.8788 0.8790 0.8791 0.8792
2973.000000 0.8793 0.8795 0.8796 0.8798 0.8799
2978.000000 0.8801 0.8802 0.8804 0.8805 0.8806
2983.000000 0.8807 0.8809 0.8810 0.8811 0.8811
2988.000000 0.8811 0.8811 0.8811 0.8810 0.8810
2993.000000 0.8809 0.8809 0.8808 0.8808 0.8807
2998.000000 0.8807 0.8806 0.8806 0.8806 0.8806
3003.000000 0.8806 0.8806 0.8806 0.8806 0.8806
3008.000000 0.8806 0.8806 0.8807 0.8807 0.8807
3013.000000 0.8807 0.8807 0.8807 0.8807 0.8807
3018.000000 0.8807 0.8806 0.8805 0.8803 0.8802
3023.000000 0.8800 0.8799 0.8797 0.8796 0.8794
3028.000000 0.8793 0.8791 0.8789 0.8787 0.8786
3033.000000 0.8784 0.8783 0.8782 0.8782 0.8781
3038.000000 0.8781 0.8780 0.8780 0.8778 0.8778
3043.000000 0.8778 0.8778 0.8777 0.8777 0.8777
3048.000000 0.8777 0.8775 0.8775 0.8775 0.8775
3053.000000 0.8774 0.8774 0.8773 0.8773 0.8771
3058.000000 0.8771 0.8771 0.8771 0.8771 0.8771
3063.000000 0.8770 0.8770 0.8766 0.8762 0.8758
3068.000000 0.8754 0.8749 0.8745 0.8740 0.8736
3073.000000 0.8732 0.8728 0.8716 0.8704 0.8685
3078.000000 0.8666 0.8635 0.8605 0.8504 0.8404
3083.000000 0.8268 0.8134 0.7998 0.7862 0.7724
3088.000000 0.7586 0.7555 0.7525 0.7526 0.7530
3093.000000 0.7537 0.7544 0.7625 0.7589 0.7796
3098.000000 0.7883 0.7968 0.8056 0.8142 0.8228
3103.000000 0.8315 0.8402 0.8455 0.8509 0.8528
3108.000000 0.8550 0.8564 0.8578 0.8589 0.8599
3113.000000 0.8606 0.8614 0.8621 0.8630 0.8635
3118.000000 0.8641 0.8645 0.8650 0.8651 0.8653
3123.000000 0.8654 0.8655 0.8647 0.8640 0.8631
3128.000000 0.8623 0.8618 0.8613 0.8610 0.8608
3133.000000 0.8608 0.8608 0.8609 0.8610 0.8610
3138.000000 0.8611 0.8612 0.8613 0.8615 0.8617
3143.000000 0.8618 0.8621 0.8624 0.8627 0.8630
3148.000000 0.8634 0.8638 0.8642 0.8646 0.8650
3153.000000 0.8653 0.8656 0.8658 0.8658 0.8659
3158.000000 0.8659 0.8656 0.8654 0.8651 0.8648
3163.000000 0.8643 0.8639 0.8632 0.8625 0.8618
3168.000000 0.8612 0.8604 0.8597 0.8589 0.8582
3173.000000 0.8574 0.8567 0.8559 0.8552 0.8544
3178.000000 0.8537 0.8528 0.8521 0.8513 0.8506
3183.000000 0.8506 0.8507 0.8509 0.8513 0.8513
3188.000000 0.8516 0.8518 0.8521 0.8524 0.8528
3193.000000 0.8533 0.8538 0.8542 0.8547 0.8551
3198.000000 0.8556 0.8560 0.8564 0.8568 0.8573
3203.000000 0.8577 0.8581 0.8586 0.8591 0.8595
3208.000000 0.8600 0.8605 0.8610 0.8615 0.8620
3213.000000 0.8624 0.8628 0.8634 0.8639 0.8643
3218.000000 0.8648 0.8652 0.8657 0.8661 0.8666
3223.000000 0.8671 0.8675 0.8680 0.8685 0.8687
3228.000000 0.8690 0.8692 0.8694 0.8696 0.8698
3233.000000 0.8700 0.8702 0.8704 0.8707 0.8709
3238.000000 0.8711 0.8713 0.8715 0.8715 0.8715
3243.000000 0.8715 0.8714 0.8713 0.8713 0.8712
3248.000000 0.8711 0.8709 0.8708 0.8706 0.8704
3253.000000 0.8702 0.8700 0.8698 0.8697 0.8695
3258.000000 0.8693 0.8691 0.8689 0.8687 0.8685
3263.000000 0.8683 0.8681 0.8678 0.8675 0.8675
3268.000000 0.8677 0.8681 0.8685 0.8689 0.8693
3273.000000 0.8696 0.8700 0.8704 0.8709 0.8713
3278.000000 0.8717 0.8721 0.8725 0.8728 0.8733
3283.000000 0.8736 0.8740 0.8743 0.8747 0.8750
3288.000000 0.8753 0.8756 0.8760 0.8762 0.8765
3293.000000 0.8766 0.8767 0.8767 0.8768 0.8768
3298.000000 0.8770 0.8770 0.8771 0.8771 0.8771
3303.000000 0.8770 0.8768 0.8768 0.8767 0.8766
3308.000000 0.8765 0.8764 0.8764 0.8763 0.8762
3313.000000 0.8760 0.8759 0.8756 0.8754 0.8751
3318.000000 0.8749 0.8746 0.8743 0.8740 0.8738
3323.000000 0.8735 0.8733 0.8728 0.8725 0.8721
3328.000000 0.8718 0.8716 0.8713 0.8709 0.8705
3333.000000 0.8700 0.8696 0.8691 0.8686 0.8681
3338.000000 0.8677 0.8671 0.8668 0.8662 0.8657
3343.000000 0.8648 0.8640 0.8631 0.8623 0.8615
3348.000000 0.8607 0.8599 0.8591 0.8583 0.8575
3353.000000 0.8567 0.8560 0.8552 0.8544 0.8536
3358.000000 0.8528 0.8521 0.8513 0.8505 0.8497
3363.000000 0.8485 0.8473 0.8461 0.8449 0.8437
3368.000000 0.8425 0.8414 0.8402 0.8388 0.8374
3373.000000 0.8356 0.8339 0.8321 0.8304 0.8268
3378.000000 0.8232 0.8162 0.8094 0.8039 0.7984
3383.000000 0.7928 0.7875 0.7808 0.7742 0.7667
3388.000000 0.7592 0.7434 0.7275 0.7134 0.6993
3393.000000 0.6898 0.6804 0.6701 0.6598 0.6322
3398.000000 0.6046 0.5770 0.5495 0.5219 0.4943
3403.000000 0.4667 0.4391 0.4115 0.3840 0.3564
3408.000000 0.3288 0.3244 0.3200 0.3198 0.3197
3413.000000 0.3284 0.3223 0.3847 0.4322 0.4797
3418.000000 0.5272 0.5747 0.6222 0.6581 0.6940
3423.000000 0.7143 0.7347 0.7440 0.7533 0.7592
3428.000000 0.7651 0.7710 0.7768 0.7811 0.7855
3433.000000 0.7895 0.7935 0.7974 0.8014 0.8053
3438.000000 0.8093 0.8132 0.8171 0.8197 0.8221
3443.000000 0.8246 0.8271 0.8291 0.8311 0.8325
3448.000000 0.8339 0.8345 0.8352 0.8359 0.8366
3453.000000 0.8368 0.8370 0.8371 0.8371 0.8371
3458.000000 0.8368 0.8366 0.8378 0.8360 0.8357
3463.000000 0.8350 0.8344 0.8334 0.8324 0.8306
3468.000000 0.8288 0.8256 0.8225 0.8151 0.8078
3473.000000 0.8028 0.7976 0.7933 0.7889 0.7804
3478.000000 0.7719 0.7611 0.7501 0.7450 0.7398
3483.000000 0.7347 0.7297 0.7190 0.7084 0.6978
3488.000000 0.6871 0.6765 0.6660 0.6554 0.6448
3493.000000 0.6342 0.6236 0.6129 0.6023 0.5917
3498.000000 0.5810 0.5705 0.5599 0.5493 0.5387
3503.000000 0.5281 0.5175 0.5091 0.5008 0.5003
3508.000000 0.4996 0.5024 0.5050 0.5368 0.5687
3513.000000 0.6005 0.6324 0.6614 0.6905 0.7028
3518.000000 0.7151 0.7269 0.7389 0.7461 0.7534
3523.000000 0.7678 0.7821 0.7911 0.8001 0.8057
3528.000000 0.8114 0.8156 0.8199 0.8239 0.8278
3533.000000 0.8302 0.8325 0.8348 0.8371 0.8391
3538.000000 0.8411 0.8428 0.8445 0.8461 0.8478
3543.000000 0.8494 0.8510 0.8524 0.8538 0.8552
3548.000000 0.8566 0.8574 0.8582 0.8589 0.8597
3553.000000 0.8604 0.8612 0.8620 0.8628 0.8635
3558.000000 0.8642 0.8649 0.8656 0.8663 0.8670
3563.000000 0.8675 0.8680 0.8682 0.8684 0.8686
3568.000000 0.8688 0.8690 0.8691 0.8691 0.8691
3573.000000 0.8690 0.8689 0.8684 0.8680 0.8671
3578.000000 0.8665 0.8651 0.8637 0.8624 0.8611
3583.000000 0.8609 0.8608 0.8614 0.8620 0.8656
3588.000000 0.8693 0.8723 0.8754 0.8766 0.8778
3593.000000 0.8785 0.8791 0.8795 0.8799 0.8802
3598.000000 0.8806 0.8805 0.8805 0.8802 0.8799
3603.000000 0.8791 0.8784 0.8768 0.8752 0.8736
3608.000000 0.8720 0.8713 0.8706 0.8709 0.8712
3613.000000 0.8728 0.8747 0.8765 0.8784 0.8790
3618.000000 0.8797 0.8800 0.8803 0.8804 0.8805
3623.000000 0.8806 0.8807 0.8808 0.8810 0.8812
3628.000000 0.8814 0.8816 0.8818 0.8821 0.8823
3633.000000 0.8825 0.8828 0.8830 0.8833 0.8835
3638.000000 0.8838 0.8841 0.8844 0.8846 0.8849
3643.000000 0.8850 0.8851 0.8852 0.8853 0.8854
3648.000000 0.8855 0.8856 0.8848 0.8858 0.8859
3653.000000 0.8860 0.8861 0.8862 0.8863 0.8864
3658.000000 0.8865 0.8866 0.8867 0.8867 0.8868
3663.000000 0.8868 0.8870 0.8870 0.8871 0.8871
3668.000000 0.8871 0.8871 0.8871 0.8871 0.8871
3673.000000 0.8871 0.8871 0.8871 0.8871 0.8871
3678.000000 0.8871 0.8871 0.8871 0.8871 0.8871
3683.000000 0.8871 0.8871 0.8871 0.8871 0.8871
3688.000000 0.8871 0.8871 0.8871 0.8871 0.8871
3693.000000 0.8871 0.8873 0.8873 0.8873 0.8873
3698.000000 0.8874 0.8874 0.8874 0.8874 0.8875
3703.000000 0.8875 0.8875 0.8875 0.8875 0.8875
3708.000000 0.8877 0.8877 0.8877 0.8877 0.8878
3713.000000 0.8878 0.8878 0.8878 0.8878 0.8878
3718.000000 0.8878 0.8878 0.8880 0.8880 0.8880
3723.000000 0.8880 0.8880 0.8880 0.8881 0.8881
3728.000000 0.8881 0.8881 0.8882 0.8882 0.8882
3733.000000 0.8882 0.8882 0.8882 0.8883 0.8883
3738.000000 0.8883 0.8883 0.8883 0.8883 0.8884
3743.000000 0.8884 0.8884 0.8884 0.8885 0.8885
3748.000000 0.8885 0.8885 0.8886 0.8886 0.8886
3753.000000 0.8886 0.8887 0.8887 0.8888 0.8888
3758.000000 0.8888 0.8888 0.8889 0.8889 0.8889
3763.000000 0.8888 0.8888 0.8888 0.8888 0.8887
3768.000000 0.8887 0.8887 0.8887 0.8886 0.8886
3773.000000 0.8885 0.8884 0.8881 0.8878 0.8877
3778.000000 0.8875 0.8871 0.8870 0.8867 0.8865
3783.000000 0.8862 0.8860 0.8858 0.8856 0.8854
3788.000000 0.8852 0.8850 0.8848 0.8846 0.8844
3793.000000 0.8842 0.8840 0.8838 0.8836 0.8834
3798.000000 0.8832 0.8831 0.8831
##END=
