##TITLE=Acetic acid, methoxyphenyl
##JCAMP-DX=4.24
##DATA TYPE=INFRARED SPECTRUM
##CLASS=COBLENTZ III
##ORIGIN=UNIVERSITY OF FLORIDA
##OWNER=Copyright (C) 1987 by the Coblentz Society
Collection (C) 2018 copyright by the U.S. Secretary of Commerce
on behalf of the United States of America. All rights reserved.
##DATE=1960/07/13
##NAMES=methoxy(phenyl)acetic acid
##CAS REGISTRY NO=7021-09-2
##MOLFORM=C9 H10 O3
##MP=71 C
##SOURCE REFERENCE=COBLENTZ NO. 9962
##$NIST SOURCE=COBLENTZ
##$NIST IMAGE=cob9962
##SPECTROMETER/DATA SYSTEM=BECKMAN IR-4 (HYBRID PRISM-GRATING)
##STATE=SOLID (KBr DISC)
##SAMPLING PROCEDURE=TRANSMISSION
##RESOLUTION=2
##DATA PROCESSING=DIGITIZED BY COBLENTZ SOCIETY (BATCH II) FROM HARD COPY
##XUNITS=1/CM
##YUNITS=TRANSMITTANCE
##XFACTOR=1.0
##YFACTOR=1
##FIRSTX=668
##LASTX=4000
##FIRSTY=0.3518
##MAXX=4000
##MINX=668
##MAXY=0.7503
##MINY=0
##NPOINTS=3333
##XYDATA=(X++(Y..Y))
668.000000 0.3518 0.3527 0.3570 0.3633 0.3731
673.000000 0.3865 0.4062 0.4258 0.4435 0.4617
678.000000 0.4791 0.4946 0.5065 0.5109 0.5137
683.000000 0.5146 0.5148 0.5177 0.5110 0.5007
688.000000 0.4703 0.4372 0.3916 0.3371 0.2827
693.000000 0.2284 0.1743 0.1244 0.0940 0.0903
698.000000 0.0968 0.1292 0.1914 0.2489 0.2991
703.000000 0.3244 0.3475 0.3614 0.3688 0.3699
708.000000 0.3636 0.3426 0.3166 0.2908 0.2649
713.000000 0.2392 0.2134 0.1878 0.1623 0.1379
718.000000 0.1224 0.1070 0.0950 0.0902 0.0908
723.000000 0.1015 0.1428 0.1897 0.2365 0.2832
728.000000 0.3301 0.3615 0.4156 0.4510 0.4752
733.000000 0.4979 0.5210 0.5491 0.5679 0.5777
738.000000 0.5851 0.5906 0.5946 0.5982 0.6002
743.000000 0.6018 0.6020 0.6031 0.6012 0.6005
748.000000 0.5999 0.5989 0.5977 0.5963 0.5945
753.000000 0.5912 0.5842 0.5776 0.5687 0.5573
758.000000 0.5465 0.5348 0.5203 0.5044 0.4849
763.000000 0.4585 0.4292 0.3931 0.3389 0.2928
768.000000 0.2468 0.2088 0.2032 0.2158 0.2739
773.000000 0.3322 0.3904 0.4232 0.4604 0.5168
778.000000 0.5360 0.5486 0.5605 0.5706 0.5785
783.000000 0.5836 0.5867 0.5897 0.5922 0.5940
788.000000 0.5947 0.5954 0.5957 0.5983 0.5950
793.000000 0.5940 0.5926 0.5905 0.5877 0.5857
798.000000 0.5840 0.5832 0.5823 0.5808 0.5791
803.000000 0.5774 0.5756 0.5730 0.5703 0.5673
808.000000 0.5643 0.5613 0.5592 0.5582 0.5579
813.000000 0.5580 0.5578 0.5567 0.5553 0.5535
818.000000 0.5509 0.5484 0.5454 0.5423 0.5393
823.000000 0.5364 0.5333 0.5302 0.5258 0.5213
828.000000 0.5169 0.5127 0.5084 0.5040 0.4994
833.000000 0.4948 0.4893 0.4832 0.4765 0.4696
838.000000 0.4615 0.4544 0.4460 0.4404 0.4391
843.000000 0.4388 0.4430 0.4512 0.4593 0.4646
848.000000 0.4643 0.4663 0.4562 0.4467 0.4345
853.000000 0.4243 0.4159 0.4088 0.4059 0.4036
858.000000 0.4237 0.4387 0.4537 0.4674 0.4740
863.000000 0.4781 0.4805 0.4760 0.4732 0.4702
868.000000 0.4676 0.4656 0.4637 0.4623 0.4614
873.000000 0.4611 0.4608 0.4607 0.4604 0.4619
878.000000 0.4630 0.4641 0.4653 0.4666 0.4680
883.000000 0.4693 0.4709 0.4725 0.4742 0.4760
888.000000 0.4778 0.4795 0.4817 0.4845 0.4881
893.000000 0.4920 0.4957 0.4995 0.5038 0.5072
898.000000 0.5105 0.5127 0.5146 0.5160 0.5159
903.000000 0.5186 0.5102 0.5000 0.4871 0.4735
908.000000 0.4589 0.4506 0.4566 0.4706 0.4940
913.000000 0.5168 0.5368 0.5487 0.5567 0.5633
918.000000 0.5688 0.5730 0.5764 0.5793 0.5812
923.000000 0.5827 0.5840 0.5851 0.5861 0.5867
928.000000 0.5873 0.5878 0.5877 0.5917 0.5866
933.000000 0.5857 0.5830 0.5800 0.5745 0.5685
938.000000 0.5633 0.5606 0.5597 0.5613 0.5650
943.000000 0.5662 0.5646 0.5564 0.5448 0.5243
948.000000 0.4877 0.4385 0.3895 0.3405 0.3074
953.000000 0.3071 0.3381 0.3764 0.4147 0.4528
958.000000 0.4847 0.5038 0.5111 0.5126 0.5111
963.000000 0.5041 0.4693 0.4307 0.3922 0.3537
968.000000 0.3153 0.2771 0.2388 0.2007 0.1626
973.000000 0.1258 0.0976 0.0801 0.0785 0.1001
978.000000 0.1545 0.2286 0.3026 0.3645 0.4078
983.000000 0.4473 0.4683 0.4909 0.5057 0.5266
988.000000 0.5391 0.5590 0.5793 0.5902 0.5993
993.000000 0.6055 0.6117 0.6188 0.6259 0.6311
998.000000 0.6331 0.6353 0.6154 0.5945 0.5754
1003.000000 0.5749 0.5707 0.6052 0.6469 0.6608
1008.000000 0.6686 0.6742 0.6788 0.6813 0.6836
1013.000000 0.6850 0.6860 0.6854 0.6839 0.6816
1018.000000 0.6784 0.6744 0.6700 0.6639 0.6560
1023.000000 0.6448 0.6264 0.6054 0.5842 0.5632
1028.000000 0.5512 0.5485 0.5619 0.5867 0.6113
1033.000000 0.6357 0.6490 0.6529 0.6553 0.6518
1038.000000 0.6555 0.6545 0.6525 0.6474 0.6384
1043.000000 0.6295 0.6170 0.6033 0.5918 0.5810
1048.000000 0.5724 0.5639 0.5567 0.5496 0.5417
1053.000000 0.5323 0.5200 0.4885 0.4551 0.4311
1058.000000 0.4168 0.4055 0.3888 0.3653 0.3418
1063.000000 0.3183 0.3023 0.2876 0.2670 0.2425
1068.000000 0.2154 0.1978 0.1788 0.1573 0.1324
1073.000000 0.1169 0.1041 0.0904 0.0805 0.0699
1078.000000 0.0586 0.0474 0.0348 0.0178 0.0075
1083.000000 0.0009 0.0000 0.0000 0.0000 0.0001
1088.000000 0.0000 0.0000 0.0000 0.0000 0.0208
1093.000000 0.0453 0.0791 0.1019 0.1143 0.1347
1098.000000 0.1539 0.1713 0.1915 0.2131 0.2296
1103.000000 0.2428 0.2554 0.2768 0.2971 0.3130
1108.000000 0.3241 0.3366 0.3473 0.3582 0.3821
1113.000000 0.3964 0.4097 0.4261 0.4425 0.4583
1118.000000 0.4683 0.4768 0.4833 0.4892 0.4968
1123.000000 0.5072 0.5172 0.5269 0.5372 0.5478
1128.000000 0.5545 0.5599 0.5652 0.5694 0.5733
1133.000000 0.5769 0.5792 0.5812 0.5831 0.5852
1138.000000 0.5871 0.5884 0.5894 0.5902 0.5901
1143.000000 0.5896 0.5892 0.5876 0.5851 0.5803
1148.000000 0.5727 0.5537 0.5327 0.5118 0.4910
1153.000000 0.4702 0.4494 0.4356 0.4298 0.4247
1158.000000 0.4198 0.4283 0.4398 0.4512 0.4595
1163.000000 0.4615 0.4311 0.4032 0.3753 0.3475
1168.000000 0.3197 0.2920 0.2643 0.2366 0.2090
1173.000000 0.1772 0.1448 0.1208 0.1002 0.0643
1178.000000 0.0447 0.0282 0.0187 0.0128 0.0074
1183.000000 0.0021 0.0000 0.0001 0.0001 0.0000
1188.000000 0.0022 0.0227 0.0472 0.0715 0.0959
1193.000000 0.1202 0.1445 0.1687 0.1929 0.2170
1198.000000 0.2412 0.2652 0.2866 0.2996 0.3136
1203.000000 0.3247 0.3316 0.3390 0.3446 0.3470
1208.000000 0.3474 0.3474 0.3360 0.3108 0.2850
1213.000000 0.2593 0.2336 0.2080 0.1825 0.1569
1218.000000 0.1314 0.1051 0.0770 0.0658 0.0472
1223.000000 0.0400 0.0378 0.0372 0.0379 0.0450
1228.000000 0.0639 0.1060 0.1169 0.1486 0.1883
1233.000000 0.2281 0.2900 0.3148 0.3385 0.3483
1238.000000 0.3589 0.3715 0.3791 0.3848 0.3884
1243.000000 0.3904 0.3910 0.3911 0.3942 0.3851
1248.000000 0.3653 0.3454 0.3257 0.3059 0.2862
1253.000000 0.2665 0.2468 0.2276 0.2123 0.2006
1258.000000 0.1980 0.1980 0.1990 0.2181 0.2590
1263.000000 0.3018 0.3446 0.3873 0.4056 0.4152
1268.000000 0.4375 0.4555 0.4742 0.4905 0.5036
1273.000000 0.5183 0.5344 0.5554 0.5665 0.5772
1278.000000 0.5884 0.5988 0.6067 0.6108 0.6140
1283.000000 0.6161 0.6173 0.6172 0.6191 0.6166
1288.000000 0.6155 0.6130 0.6087 0.6039 0.6004
1293.000000 0.5970 0.5937 0.5907 0.5886 0.5868
1298.000000 0.5864 0.5870 0.5883 0.5910 0.5938
1303.000000 0.5970 0.5997 0.6019 0.6037 0.6050
1308.000000 0.6054 0.6064 0.6035 0.6019 0.5967
1313.000000 0.5828 0.5678 0.5529 0.5379 0.5231
1318.000000 0.5082 0.4933 0.4785 0.4637 0.4480
1323.000000 0.4429 0.4407 0.4396 0.4442 0.4542
1328.000000 0.4650 0.4757 0.4863 0.4970 0.5076
1333.000000 0.5182 0.5288 0.5371 0.5418 0.5440
1338.000000 0.5442 0.5442 0.5448 0.5498 0.5594
1343.000000 0.5674 0.5750 0.5847 0.6030 0.6197
1348.000000 0.6260 0.6310 0.6341 0.6367 0.6385
1353.000000 0.6403 0.6420 0.6435 0.6447 0.6458
1358.000000 0.6469 0.6479 0.6486 0.6494 0.6502
1363.000000 0.6508 0.6504 0.6500 0.6491 0.6478
1368.000000 0.6463 0.6448 0.6430 0.6414 0.6400
1373.000000 0.6385 0.6359 0.6326 0.6287 0.6241
1378.000000 0.6197 0.6156 0.6115 0.6076 0.6044
1383.000000 0.6012 0.5980 0.5949 0.5919 0.5888
1388.000000 0.5836 0.5776 0.5717 0.5641 0.5550
1393.000000 0.5465 0.5379 0.5290 0.5194 0.4915
1398.000000 0.4547 0.4371 0.4194 0.3917 0.3608
1403.000000 0.3299 0.2991 0.2683 0.2376 0.2082
1408.000000 0.1907 0.1753 0.1648 0.1622 0.1604
1413.000000 0.1603 0.1590 0.1632 0.1686 0.1791
1418.000000 0.2209 0.2420 0.2731 0.3042 0.3353
1423.000000 0.3663 0.3972 0.4208 0.4357 0.4466
1428.000000 0.4589 0.4729 0.4816 0.4859 0.4883
1433.000000 0.4887 0.4880 0.4867 0.4857 0.4863
1438.000000 0.4885 0.5024 0.5140 0.5247 0.5296
1443.000000 0.5335 0.5357 0.5367 0.5366 0.5411
1448.000000 0.5031 0.4817 0.4604 0.4391 0.4178
1453.000000 0.3966 0.3754 0.3538 0.3443 0.3421
1458.000000 0.3419 0.3417 0.3478 0.3621 0.3787
1463.000000 0.3953 0.4119 0.4285 0.4450 0.4615
1468.000000 0.4780 0.4945 0.5109 0.5244 0.5315
1473.000000 0.5370 0.5459 0.5577 0.5709 0.5860
1478.000000 0.6023 0.6148 0.6210 0.6243 0.6267
1483.000000 0.6286 0.6298 0.6290 0.6291 0.6248
1488.000000 0.6214 0.5940 0.5641 0.5344 0.5046
1493.000000 0.4749 0.4452 0.4252 0.4195 0.4188
1498.000000 0.4203 0.4470 0.4761 0.5051 0.5341
1503.000000 0.5630 0.5918 0.6179 0.6241 0.6270
1508.000000 0.6295 0.6313 0.6329 0.6348 0.6384
1513.000000 0.6440 0.6538 0.6637 0.6724 0.6778
1518.000000 0.6801 0.6820 0.6837 0.6853 0.6867
1523.000000 0.6881 0.6887 0.6890 0.6893 0.6899
1528.000000 0.6903 0.6909 0.6932 0.6965 0.7001
1533.000000 0.7029 0.7051 0.7067 0.7082 0.7093
1538.000000 0.7100 0.7105 0.7109 0.7111 0.7120
1543.000000 0.7106 0.7102 0.7096 0.7087 0.7077
1548.000000 0.7066 0.7057 0.7047 0.7038 0.7033
1553.000000 0.7029 0.7025 0.7022 0.7019 0.7015
1558.000000 0.7013 0.7010 0.7008 0.7006 0.7005
1563.000000 0.7004 0.7003 0.7001 0.7000 0.6999
1568.000000 0.6997 0.6996 0.6994 0.6992 0.6988
1573.000000 0.6985 0.6982 0.6964 0.6912 0.6848
1578.000000 0.6784 0.6721 0.6657 0.6594 0.6531
1583.000000 0.6467 0.6404 0.6377 0.6365 0.6413
1588.000000 0.6493 0.6583 0.6674 0.6748 0.6790
1593.000000 0.6810 0.6817 0.6818 0.6813 0.6807
1598.000000 0.6802 0.6797 0.6793 0.6790 0.6789
1603.000000 0.6790 0.6793 0.6796 0.6800 0.6805
1608.000000 0.6812 0.6819 0.6827 0.6834 0.6834
1613.000000 0.6831 0.6832 0.6818 0.6807 0.6794
1618.000000 0.6783 0.6771 0.6759 0.6748 0.6738
1623.000000 0.6727 0.6717 0.6707 0.6701 0.6698
1628.000000 0.6698 0.6698 0.6698 0.6697 0.6695
1633.000000 0.6694 0.6693 0.6691 0.6688 0.6685
1638.000000 0.6684 0.6684 0.6684 0.6685 0.6684
1643.000000 0.6681 0.6676 0.6671 0.6663 0.6655
1648.000000 0.6645 0.6629 0.6611 0.6575 0.6546
1653.000000 0.6521 0.6498 0.6474 0.6455 0.6442
1658.000000 0.6430 0.6419 0.6412 0.6404 0.6397
1663.000000 0.6389 0.6382 0.6375 0.6367 0.6359
1668.000000 0.6350 0.6338 0.6326 0.6312 0.6300
1673.000000 0.6276 0.6247 0.6216 0.6182 0.6144
1678.000000 0.6105 0.6052 0.5977 0.5923 0.5875
1683.000000 0.5831 0.5788 0.5746 0.5704 0.5662
1688.000000 0.5622 0.5582 0.5537 0.5483 0.5427
1693.000000 0.5381 0.5354 0.5328 0.5304 0.5264
1698.000000 0.5221 0.5177 0.5134 0.5091 0.5048
1703.000000 0.5004 0.4962 0.4919 0.4876 0.4833
1708.000000 0.4792 0.4757 0.4735 0.4713 0.4691
1713.000000 0.4669 0.4640 0.4599 0.4547 0.4486
1718.000000 0.4420 0.4337 0.4231 0.4002 0.3693
1723.000000 0.3620 0.3547 0.3349 0.3241 0.3186
1728.000000 0.3129 0.3066 0.2995 0.2859 0.2728
1733.000000 0.2617 0.2530 0.2464 0.2399 0.2319
1738.000000 0.2235 0.2160 0.2097 0.2033 0.1970
1743.000000 0.1877 0.1748 0.1603 0.1467 0.1336
1748.000000 0.1170 0.1050 0.0957 0.0865 0.0743
1753.000000 0.0546 0.0413 0.0295 0.0207 0.0163
1758.000000 0.0131 0.0100 0.0068 0.0042 0.0030
1763.000000 0.0030 0.0033 0.0037 0.0030 0.0116
1768.000000 0.0212 0.0445 0.0682 0.0919 0.1155
1773.000000 0.1392 0.1628 0.1864 0.2099 0.2334
1778.000000 0.2569 0.2804 0.3039 0.3273 0.3508
1783.000000 0.3742 0.4049 0.4245 0.4340 0.4428
1788.000000 0.4553 0.4627 0.4683 0.4738 0.4791
1793.000000 0.4838 0.4884 0.4929 0.4975 0.5021
1798.000000 0.5070 0.5121 0.5172 0.5232 0.5311
1803.000000 0.5393 0.5470 0.5531 0.5561 0.5587
1808.000000 0.5607 0.5619 0.5630 0.5642 0.5653
1813.000000 0.5663 0.5674 0.5685 0.5695 0.5706
1818.000000 0.5717 0.5728 0.5741 0.5757 0.5774
1823.000000 0.5792 0.5812 0.5835 0.5859 0.5892
1828.000000 0.5927 0.5966 0.6016 0.6148 0.6267
1833.000000 0.6347 0.6380 0.6414 0.6446 0.6477
1838.000000 0.6507 0.6533 0.6555 0.6574 0.6590
1843.000000 0.6600 0.6606 0.6609 0.6614 0.6618
1848.000000 0.6621 0.6625 0.6628 0.6633 0.6639
1853.000000 0.6649 0.6659 0.6670 0.6680 0.6692
1858.000000 0.6704 0.6717 0.6729 0.6741 0.6754
1863.000000 0.6765 0.6772 0.6777 0.6780 0.6783
1868.000000 0.6785 0.6786 0.6788 0.6788 0.6788
1873.000000 0.6788 0.6788 0.6788 0.6787 0.6785
1878.000000 0.6784 0.6782 0.6780 0.6778 0.6778
1883.000000 0.6778 0.6780 0.6786 0.6795 0.6805
1888.000000 0.6814 0.6828 0.6843 0.6857 0.6875
1893.000000 0.6894 0.6914 0.6930 0.6942 0.6950
1898.000000 0.6956 0.6962 0.6968 0.6975 0.6978
1903.000000 0.6981 0.6982 0.6984 0.6986 0.6988
1908.000000 0.6988 0.6991 0.6995 0.7002 0.7008
1913.000000 0.7017 0.7030 0.7050 0.7076 0.7113
1918.000000 0.7136 0.7154 0.7165 0.7173 0.7179
1923.000000 0.7182 0.7186 0.7190 0.7193 0.7198
1928.000000 0.7202 0.7206 0.7211 0.7216 0.7220
1933.000000 0.7222 0.7224 0.7225 0.7225 0.7226
1938.000000 0.7226 0.7224 0.7218 0.7210 0.7203
1943.000000 0.7194 0.7183 0.7175 0.7169 0.7166
1948.000000 0.7162 0.7161 0.7163 0.7165 0.7167
1953.000000 0.7169 0.7168 0.7166 0.7163 0.7159
1958.000000 0.7153 0.7139 0.7124 0.7109 0.7094
1963.000000 0.7081 0.7069 0.7059 0.7052 0.7049
1968.000000 0.7055 0.7064 0.7078 0.7097 0.7116
1973.000000 0.7131 0.7148 0.7164 0.7174 0.7180
1978.000000 0.7184 0.7185 0.7186 0.7185 0.7185
1983.000000 0.7184 0.7184 0.7182 0.7181 0.7178
1988.000000 0.7176 0.7174 0.7175 0.7177 0.7180
1993.000000 0.7184 0.7188 0.7193 0.7200 0.7208
1998.000000 0.7215 0.7225 0.7237 0.7248 0.7259
2003.000000 0.7270 0.7282 0.7294 0.7306 0.7318
2008.000000 0.7332 0.7346 0.7358 0.7367 0.7374
2013.000000 0.7379 0.7385 0.7390 0.7393 0.7395
2018.000000 0.7396 0.7396 0.7396 0.7395 0.7393
2023.000000 0.7392 0.7390 0.7388 0.7386 0.7385
2028.000000 0.7382 0.7379 0.7376 0.7373 0.7369
2033.000000 0.7366 0.7362 0.7356 0.7349 0.7343
2038.000000 0.7337 0.7331 0.7325 0.7318 0.7312
2043.000000 0.7306 0.7299 0.7291 0.7284 0.7276
2048.000000 0.7269 0.7262 0.7255 0.7249 0.7246
2053.000000 0.7245 0.7246 0.7247 0.7249 0.7250
2058.000000 0.7252 0.7255 0.7260 0.7265 0.7271
2063.000000 0.7278 0.7285 0.7294 0.7306 0.7321
2068.000000 0.7335 0.7342 0.7348 0.7353 0.7358
2073.000000 0.7364 0.7368 0.7372 0.7375 0.7377
2078.000000 0.7380 0.7382 0.7385 0.7388 0.7390
2083.000000 0.7393 0.7395 0.7398 0.7401 0.7404
2088.000000 0.7406 0.7409 0.7412 0.7414 0.7416
2093.000000 0.7419 0.7422 0.7425 0.7428 0.7430
2098.000000 0.7432 0.7435 0.7438 0.7441 0.7443
2103.000000 0.7446 0.7449 0.7452 0.7455 0.7458
2108.000000 0.7461 0.7464 0.7466 0.7469 0.7472
2113.000000 0.7475 0.7477 0.7479 0.7479 0.7479
2118.000000 0.7479 0.7478 0.7478 0.7477 0.7477
2123.000000 0.7503 0.7476 0.7475 0.7474 0.7471
2128.000000 0.7467 0.7464 0.7460 0.7457 0.7453
2133.000000 0.7450 0.7448 0.7446 0.7444 0.7442
2138.000000 0.7440 0.7439 0.7436 0.7435 0.7433
2143.000000 0.7431 0.7430 0.7428 0.7426 0.7425
2148.000000 0.7424 0.7423 0.7422 0.7420 0.7419
2153.000000 0.7418 0.7416 0.7415 0.7414 0.7413
2158.000000 0.7411 0.7410 0.7409 0.7407 0.7406
2163.000000 0.7405 0.7404 0.7403 0.7402 0.7401
2168.000000 0.7399 0.7398 0.7397 0.7395 0.7394
2173.000000 0.7392 0.7391 0.7390 0.7389 0.7388
2178.000000 0.7386 0.7385 0.7384 0.7382 0.7381
2183.000000 0.7379 0.7378 0.7376 0.7374 0.7373
2188.000000 0.7371 0.7370 0.7368 0.7367 0.7365
2193.000000 0.7363 0.7362 0.7361 0.7361 0.7362
2198.000000 0.7362 0.7362 0.7362 0.7363 0.7363
2203.000000 0.7363 0.7363 0.7364 0.7364 0.7365
2208.000000 0.7365 0.7365 0.7365 0.7366 0.7368
2213.000000 0.7369 0.7371 0.7373 0.7375 0.7377
2218.000000 0.7378 0.7380 0.7382 0.7384 0.7386
2223.000000 0.7388 0.7389 0.7391 0.7392 0.7393
2228.000000 0.7394 0.7395 0.7396 0.7397 0.7397
2233.000000 0.7398 0.7399 0.7400 0.7401 0.7401
2238.000000 0.7401 0.7399 0.7398 0.7396 0.7395
2243.000000 0.7393 0.7392 0.7390 0.7388 0.7386
2248.000000 0.7385 0.7383 0.7381 0.7378 0.7375
2253.000000 0.7372 0.7369 0.7366 0.7363 0.7360
2258.000000 0.7358 0.7355 0.7352 0.7349 0.7346
2263.000000 0.7343 0.7341 0.7339 0.7337 0.7336
2268.000000 0.7334 0.7332 0.7330 0.7328 0.7327
2273.000000 0.7325 0.7323 0.7321 0.7321 0.7321
2278.000000 0.7323 0.7325 0.7327 0.7328 0.7330
2283.000000 0.7331 0.7333 0.7335 0.7338 0.7342
2288.000000 0.7345 0.7347 0.7351 0.7354 0.7356
2293.000000 0.7358 0.7360 0.7361 0.7362 0.7363
2298.000000 0.7364 0.7364 0.7365 0.7365 0.7365
2303.000000 0.7364 0.7364 0.7364 0.7364 0.7363
2308.000000 0.7363 0.7362 0.7362 0.7362 0.7362
2313.000000 0.7361 0.7361 0.7361 0.7361 0.7360
2318.000000 0.7360 0.7360 0.7359 0.7359 0.7359
2323.000000 0.7359 0.7358 0.7358 0.7357 0.7357
2328.000000 0.7356 0.7356 0.7355 0.7355 0.7355
2333.000000 0.7354 0.7354 0.7353 0.7353 0.7352
2338.000000 0.7352 0.7351 0.7351 0.7350 0.7350
2343.000000 0.7350 0.7349 0.7348 0.7347 0.7346
2348.000000 0.7344 0.7343 0.7341 0.7338 0.7336
2353.000000 0.7334 0.7333 0.7330 0.7328 0.7326
2358.000000 0.7324 0.7322 0.7320 0.7317 0.7313
2363.000000 0.7308 0.7302 0.7296 0.7289 0.7283
2368.000000 0.7275 0.7266 0.7256 0.7242 0.7227
2373.000000 0.7213 0.7199 0.7183 0.7166 0.7147
2378.000000 0.7125 0.7099 0.7062 0.7025 0.7003
2383.000000 0.6980 0.6965 0.6952 0.6939 0.6926
2388.000000 0.6914 0.6901 0.6888 0.6881 0.6874
2393.000000 0.6867 0.6861 0.6855 0.6850 0.6844
2398.000000 0.6838 0.6832 0.6828 0.6824 0.6821
2403.000000 0.6820 0.6818 0.6818 0.6817 0.6815
2408.000000 0.6814 0.6813 0.6812 0.6810 0.6808
2413.000000 0.6807 0.6805 0.6803 0.6802 0.6801
2418.000000 0.6799 0.6797 0.6796 0.6784 0.6772
2423.000000 0.6759 0.6746 0.6732 0.6710 0.6688
2428.000000 0.6662 0.6635 0.6620 0.6619 0.6617
2433.000000 0.6617 0.6617 0.6616 0.6616 0.6615
2438.000000 0.6615 0.6615 0.6614 0.6613 0.6612
2443.000000 0.6612 0.6611 0.6611 0.6611 0.6610
2448.000000 0.6610 0.6609 0.6609 0.6608 0.6606
2453.000000 0.6603 0.6598 0.6592 0.6584 0.6574
2458.000000 0.6563 0.6544 0.6524 0.6503 0.6482
2463.000000 0.6461 0.6436 0.6411 0.6384 0.6355
2468.000000 0.6327 0.6308 0.6289 0.6276 0.6266
2473.000000 0.6255 0.6245 0.6235 0.6228 0.6222
2478.000000 0.6212 0.6192 0.6173 0.6150 0.6126
2483.000000 0.6102 0.6079 0.6055 0.6031 0.6007
2488.000000 0.5984 0.5964 0.5943 0.5927 0.5911
2493.000000 0.5900 0.5894 0.5888 0.5884 0.5880
2498.000000 0.5877 0.5874 0.5871 0.5868 0.5865
2503.000000 0.5862 0.5859 0.5857 0.5855 0.5853
2508.000000 0.5851 0.5849 0.5847 0.5845 0.5843
2513.000000 0.5841 0.5839 0.5837 0.5833 0.5828
2518.000000 0.5823 0.5815 0.5808 0.5800 0.5793
2523.000000 0.5781 0.5757 0.5733 0.5713 0.5694
2528.000000 0.5676 0.5665 0.5654 0.5645 0.5637
2533.000000 0.5629 0.5621 0.5613 0.5610 0.5610
2538.000000 0.5610 0.5620 0.5629 0.5637 0.5642
2543.000000 0.5647 0.5652 0.5657 0.5662 0.5667
2548.000000 0.5672 0.5676 0.5679 0.5682 0.5686
2553.000000 0.5689 0.5692 0.5695 0.5698 0.5690
2558.000000 0.5679 0.5667 0.5649 0.5630 0.5613
2563.000000 0.5598 0.5582 0.5568 0.5555 0.5540
2568.000000 0.5525 0.5510 0.5496 0.5482 0.5468
2573.000000 0.5459 0.5451 0.5443 0.5434 0.5425
2578.000000 0.5417 0.5408 0.5399 0.5394 0.5389
2583.000000 0.5384 0.5379 0.5375 0.5370 0.5365
2588.000000 0.5360 0.5357 0.5354 0.5351 0.5349
2593.000000 0.5346 0.5344 0.5342 0.5340 0.5337
2598.000000 0.5335 0.5333 0.5330 0.5328 0.5324
2603.000000 0.5319 0.5314 0.5310 0.5305 0.5300
2608.000000 0.5293 0.5286 0.5277 0.5265 0.5252
2613.000000 0.5235 0.5217 0.5199 0.5175 0.5150
2618.000000 0.5129 0.5120 0.5111 0.5104 0.5098
2623.000000 0.5091 0.5090 0.5090 0.5090 0.5090
2628.000000 0.5090 0.5091 0.5097 0.5103 0.5110
2633.000000 0.5119 0.5127 0.5139 0.5151 0.5164
2638.000000 0.5177 0.5190 0.5203 0.5217 0.5231
2643.000000 0.5246 0.5263 0.5281 0.5295 0.5306
2648.000000 0.5317 0.5327 0.5337 0.5347 0.5351
2653.000000 0.5355 0.5358 0.5361 0.5365 0.5368
2658.000000 0.5370 0.5371 0.5373 0.5373 0.5373
2663.000000 0.5373 0.5372 0.5371 0.5370 0.5369
2668.000000 0.5368 0.5367 0.5365 0.5364 0.5363
2673.000000 0.5362 0.5361 0.5359 0.5358 0.5356
2678.000000 0.5354 0.5352 0.5350 0.5347 0.5345
2683.000000 0.5341 0.5334 0.5327 0.5318 0.5306
2688.000000 0.5295 0.5282 0.5268 0.5254 0.5239
2693.000000 0.5223 0.5207 0.5190 0.5173 0.5156
2698.000000 0.5138 0.5120 0.5103 0.5085 0.5067
2703.000000 0.5046 0.5019 0.4992 0.4966 0.4945
2708.000000 0.4924 0.4906 0.4893 0.4880 0.4867
2713.000000 0.4854 0.4840 0.4824 0.4806 0.4788
2718.000000 0.4773 0.4760 0.4747 0.4742 0.4741
2723.000000 0.4741 0.4742 0.4744 0.4747 0.4752
2728.000000 0.4757 0.4763 0.4768 0.4773 0.4777
2733.000000 0.4782 0.4787 0.4792 0.4798 0.4804
2738.000000 0.4810 0.4818 0.4826 0.4834 0.4841
2743.000000 0.4849 0.4857 0.4863 0.4868 0.4873
2748.000000 0.4878 0.4883 0.4888 0.4890 0.4890
2753.000000 0.4890 0.4890 0.4888 0.4887 0.4885
2758.000000 0.4883 0.4881 0.4878 0.4874 0.4870
2763.000000 0.4865 0.4860 0.4854 0.4846 0.4835
2768.000000 0.4824 0.4812 0.4798 0.4783 0.4770
2773.000000 0.4758 0.4747 0.4735 0.4724 0.4712
2778.000000 0.4701 0.4690 0.4678 0.4667 0.4656
2783.000000 0.4644 0.4633 0.4620 0.4607 0.4593
2788.000000 0.4580 0.4566 0.4552 0.4534 0.4516
2793.000000 0.4498 0.4481 0.4464 0.4447 0.4431
2798.000000 0.4415 0.4399 0.4369 0.4321 0.4273
2803.000000 0.4224 0.4175 0.4126 0.4081 0.4056
2808.000000 0.4032 0.4008 0.3984 0.3960 0.3936
2813.000000 0.3912 0.3889 0.3865 0.3832 0.3794
2818.000000 0.3756 0.3720 0.3686 0.3652 0.3620
2823.000000 0.3592 0.3563 0.3535 0.3512 0.3488
2828.000000 0.3465 0.3446 0.3427 0.3408 0.3385
2833.000000 0.3361 0.3337 0.3306 0.3269 0.3232
2838.000000 0.3200 0.3178 0.3157 0.3136 0.3114
2843.000000 0.3093 0.3072 0.3049 0.3027 0.3004
2848.000000 0.2986 0.2970 0.2954 0.2940 0.2926
2853.000000 0.2913 0.2900 0.2890 0.2880 0.2870
2858.000000 0.2860 0.2849 0.2839 0.2829 0.2819
2863.000000 0.2808 0.2797 0.2783 0.2769 0.2755
2868.000000 0.2742 0.2728 0.2715 0.2703 0.2693
2873.000000 0.2682 0.2669 0.2653 0.2638 0.2622
2878.000000 0.2605 0.2587 0.2570 0.2551 0.2532
2883.000000 0.2512 0.2493 0.2473 0.2453 0.2432
2888.000000 0.2406 0.2380 0.2354 0.2316 0.2276
2893.000000 0.2236 0.2198 0.2163 0.2127 0.2093
2898.000000 0.2066 0.2039 0.2012 0.1983 0.1955
2903.000000 0.1926 0.1896 0.1865 0.1835 0.1804
2908.000000 0.1769 0.1733 0.1698 0.1654 0.1605
2913.000000 0.1556 0.1509 0.1468 0.1428 0.1388
2918.000000 0.1354 0.1321 0.1288 0.1260 0.1239
2923.000000 0.1217 0.1196 0.1179 0.1163 0.1146
2928.000000 0.1129 0.1112 0.1094 0.1077 0.1064
2933.000000 0.1051 0.1038 0.1026 0.1014 0.1002
2938.000000 0.0990 0.0975 0.0961 0.0947 0.0933
2943.000000 0.0919 0.0905 0.0891 0.0879 0.0867
2948.000000 0.0855 0.0851 0.0848 0.0845 0.0843
2953.000000 0.0842 0.0841 0.0840 0.0840 0.0840
2958.000000 0.0840 0.0841 0.0841 0.0841 0.0841
2963.000000 0.0841 0.0841 0.0841 0.0842 0.0843
2968.000000 0.0844 0.0845 0.0846 0.0848 0.0849
2973.000000 0.0850 0.0851 0.0852 0.0853 0.0855
2978.000000 0.0857 0.0858 0.0860 0.0862 0.0864
2983.000000 0.0866 0.0868 0.0870 0.0872 0.0874
2988.000000 0.0876 0.0878 0.0880 0.0877 0.0887
2993.000000 0.0891 0.0894 0.0894 0.0894 0.0894
2998.000000 0.0893 0.0893 0.0893 0.0893 0.0889
3003.000000 0.0886 0.0882 0.0878 0.0874 0.0869
3008.000000 0.0865 0.0863 0.0861 0.0859 0.0858
3013.000000 0.0856 0.0855 0.0853 0.0852 0.0851
3018.000000 0.0850 0.0849 0.0848 0.0848 0.0848
3023.000000 0.0848 0.0848 0.0848 0.0848 0.0849
3028.000000 0.0850 0.0850 0.0851 0.0852 0.0854
3033.000000 0.0855 0.0857 0.0860 0.0863 0.0866
3038.000000 0.0870 0.0874 0.0879 0.0883 0.0888
3043.000000 0.0892 0.0897 0.0902 0.0908 0.0914
3048.000000 0.0920 0.0926 0.0934 0.0942 0.0950
3053.000000 0.0959 0.0970 0.0980 0.0991 0.1002
3058.000000 0.1013 0.1025 0.1036 0.1046 0.1056
3063.000000 0.1066 0.1075 0.1082 0.1089 0.1096
3068.000000 0.1103 0.1110 0.1116 0.1123 0.1125
3073.000000 0.1126 0.1127 0.1128 0.1130 0.1131
3078.000000 0.1132 0.1133 0.1134 0.1135 0.1136
3083.000000 0.1137 0.1140 0.1142 0.1145 0.1147
3088.000000 0.1149 0.1151 0.1153 0.1155 0.1157
3093.000000 0.1159 0.1161 0.1165 0.1169 0.1172
3098.000000 0.1176 0.1181 0.1186 0.1192 0.1198
3103.000000 0.1207 0.1216 0.1225 0.1236 0.1249
3108.000000 0.1262 0.1276 0.1303 0.1343 0.1383
3113.000000 0.1423 0.1448 0.1466 0.1484 0.1502
3118.000000 0.1518 0.1533 0.1549 0.1564 0.1579
3123.000000 0.1594 0.1609 0.1625 0.1637 0.1649
3128.000000 0.1661 0.1672 0.1682 0.1692 0.1701
3133.000000 0.1711 0.1720 0.1730 0.1739 0.1748
3138.000000 0.1756 0.1764 0.1772 0.1779 0.1782
3143.000000 0.1786 0.1790 0.1793 0.1796 0.1798
3148.000000 0.1801 0.1803 0.1806 0.1809 0.1811
3153.000000 0.1813 0.1816 0.1818 0.1820 0.1822
3158.000000 0.1825 0.1827 0.1829 0.1831 0.1834
3163.000000 0.1836 0.1838 0.1841 0.1845 0.1849
3168.000000 0.1852 0.1856 0.1860 0.1864 0.1868
3173.000000 0.1874 0.1881 0.1889 0.1897 0.1906
3178.000000 0.1920 0.1933 0.1946 0.1961 0.1980
3183.000000 0.1999 0.2018 0.2038 0.2062 0.2085
3188.000000 0.2108 0.2132 0.2155 0.2178 0.2201
3193.000000 0.2223 0.2241 0.2259 0.2277 0.2295
3198.000000 0.2310 0.2325 0.2340 0.2355 0.2371
3203.000000 0.2388 0.2404 0.2420 0.2438 0.2455
3208.000000 0.2473 0.2490 0.2508 0.2526 0.2543
3213.000000 0.2561 0.2579 0.2598 0.2616 0.2634
3218.000000 0.2652 0.2671 0.2689 0.2707 0.2727
3223.000000 0.2752 0.2776 0.2801 0.2825 0.2850
3228.000000 0.2875 0.2899 0.2924 0.2949 0.2973
3233.000000 0.2998 0.3023 0.3049 0.3075 0.3102
3238.000000 0.3128 0.3156 0.3184 0.3212 0.3239
3243.000000 0.3267 0.3295 0.3323 0.3351 0.3378
3248.000000 0.3406 0.3434 0.3461 0.3489 0.3517
3253.000000 0.3544 0.3572 0.3600 0.3627 0.3655
3258.000000 0.3682 0.3710 0.3738 0.3765 0.3793
3263.000000 0.3820 0.3848 0.3875 0.3902 0.3930
3268.000000 0.3957 0.3985 0.4012 0.4039 0.4067
3273.000000 0.4094 0.4121 0.4148 0.4175 0.4202
3278.000000 0.4229 0.4256 0.4284 0.4311 0.4338
3283.000000 0.4365 0.4392 0.4419 0.4435 0.4450
3288.000000 0.4464 0.4478 0.4491 0.4505 0.4518
3293.000000 0.4531 0.4554 0.4622 0.4689 0.4757
3298.000000 0.4824 0.4856 0.4881 0.4906 0.4931
3303.000000 0.4952 0.4969 0.4986 0.5003 0.5020
3308.000000 0.5036 0.5052 0.5068 0.5084 0.5100
3313.000000 0.5116 0.5132 0.5147 0.5164 0.5182
3318.000000 0.5201 0.5219 0.5238 0.5256 0.5275
3323.000000 0.5293 0.5312 0.5331 0.5350 0.5369
3328.000000 0.5388 0.5408 0.5427 0.5447 0.5466
3333.000000 0.5486 0.5506 0.5526 0.5546 0.5567
3338.000000 0.5585 0.5598 0.5611 0.5624 0.5637
3343.000000 0.5650 0.5662 0.5674 0.5687 0.5698
3348.000000 0.5709 0.5719 0.5730 0.5740 0.5750
3353.000000 0.5759 0.5769 0.5778 0.5787 0.5797
3358.000000 0.5806 0.5815 0.5824 0.5833 0.5842
3363.000000 0.5851 0.5859 0.5868 0.5876 0.5885
3368.000000 0.5894 0.5902 0.5911 0.5919 0.5928
3373.000000 0.5936 0.5945 0.5953 0.5960 0.5968
3378.000000 0.5976 0.5983 0.5991 0.5998 0.6005
3383.000000 0.6013 0.6021 0.6028 0.6036 0.6043
3388.000000 0.6050 0.6054 0.6059 0.6063 0.6068
3393.000000 0.6072 0.6076 0.6080 0.6084 0.6089
3398.000000 0.6093 0.6097 0.6101 0.6105 0.6109
3403.000000 0.6113 0.6117 0.6121 0.6125 0.6129
3408.000000 0.6133 0.6137 0.6141 0.6145 0.6149
3413.000000 0.6153 0.6156 0.6160 0.6163 0.6164
3418.000000 0.6166 0.6168 0.6170 0.6170 0.6171
3423.000000 0.6171 0.6172 0.6172 0.6172 0.6171
3428.000000 0.6170 0.6170 0.6169 0.6169 0.6168
3433.000000 0.6168 0.6168 0.6166 0.6164 0.6162
3438.000000 0.6160 0.6158 0.6158 0.6158 0.6157
3443.000000 0.6157 0.6158 0.6160 0.6163 0.6165
3448.000000 0.6168 0.6172 0.6177 0.6182 0.6186
3453.000000 0.6191 0.6206 0.6221 0.6236 0.6250
3458.000000 0.6267 0.6288 0.6310 0.6332 0.6354
3463.000000 0.6373 0.6385 0.6398 0.6411 0.6423
3468.000000 0.6436 0.6447 0.6459 0.6471 0.6483
3473.000000 0.6495 0.6506 0.6518 0.6529 0.6541
3478.000000 0.6550 0.6560 0.6569 0.6578 0.6587
3483.000000 0.6597 0.6606 0.6615 0.6624 0.6633
3488.000000 0.6641 0.6649 0.6657 0.6665 0.6673
3493.000000 0.6681 0.6689 0.6696 0.6704 0.6711
3498.000000 0.6719 0.6726 0.6733 0.6741 0.6748
3503.000000 0.6756 0.6763 0.6771 0.6778 0.6785
3508.000000 0.6790 0.6796 0.6802 0.6808 0.6814
3513.000000 0.6820 0.6826 0.6832 0.6837 0.6844
3518.000000 0.6850 0.6856 0.6862 0.6868 0.6874
3523.000000 0.6880 0.6886 0.6892 0.6898 0.6904
3528.000000 0.6910 0.6916 0.6922 0.6928 0.6934
3533.000000 0.6940 0.6946 0.6952 0.6958 0.6964
3538.000000 0.6970 0.6976 0.6982 0.6988 0.6992
3543.000000 0.6996 0.7000 0.7003 0.7007 0.7010
3548.000000 0.7014 0.7017 0.7020 0.7023 0.7026
3553.000000 0.7030 0.7033 0.7037 0.7040 0.7043
3558.000000 0.7046 0.7049 0.7053 0.7056 0.7059
3563.000000 0.7061 0.7064 0.7067 0.7070 0.7072
3568.000000 0.7075 0.7078 0.7081 0.7083 0.7086
3573.000000 0.7089 0.7092 0.7094 0.7097 0.7100
3578.000000 0.7102 0.7105 0.7108 0.7111 0.7113
3583.000000 0.7116 0.7119 0.7122 0.7124 0.7127
3588.000000 0.7130 0.7132 0.7135 0.7137 0.7140
3593.000000 0.7142 0.7145 0.7147 0.7150 0.7152
3598.000000 0.7155 0.7157 0.7160 0.7162 0.7165
3603.000000 0.7167 0.7169 0.7171 0.7173 0.7175
3608.000000 0.7177 0.7179 0.7180 0.7182 0.7183
3613.000000 0.7185 0.7187 0.7188 0.7190 0.7192
3618.000000 0.7194 0.7195 0.7197 0.7198 0.7200
3623.000000 0.7201 0.7203 0.7205 0.7206 0.7208
3628.000000 0.7210 0.7211 0.7212 0.7212 0.7213
3633.000000 0.7214 0.7215 0.7216 0.7217 0.7218
3638.000000 0.7219 0.7219 0.7220 0.7221 0.7222
3643.000000 0.7223 0.7223 0.7224 0.7225 0.7226
3648.000000 0.7226 0.7227 0.7228 0.7229 0.7230
3653.000000 0.7231 0.7232 0.7233 0.7234 0.7236
3658.000000 0.7238 0.7240 0.7242 0.7244 0.7245
3663.000000 0.7247 0.7249 0.7250 0.7252 0.7255
3668.000000 0.7258 0.7260 0.7263 0.7265 0.7271
3673.000000 0.7277 0.7282 0.7288 0.7294 0.7298
3678.000000 0.7302 0.7305 0.7309 0.7312 0.7316
3683.000000 0.7318 0.7321 0.7323 0.7325 0.7328
3688.000000 0.7330 0.7331 0.7333 0.7335 0.7336
3693.000000 0.7338 0.7340 0.7341 0.7343 0.7344
3698.000000 0.7346 0.7348 0.7349 0.7351 0.7353
3703.000000 0.7354 0.7356 0.7357 0.7358 0.7360
3708.000000 0.7361 0.7362 0.7364 0.7365 0.7366
3713.000000 0.7367 0.7369 0.7370 0.7371 0.7372
3718.000000 0.7374 0.7375 0.7376 0.7377 0.7378
3723.000000 0.7379 0.7381 0.7382 0.7383 0.7384
3728.000000 0.7385 0.7386 0.7387 0.7388 0.7389
3733.000000 0.7390 0.7391 0.7392 0.7393 0.7394
3738.000000 0.7394 0.7395 0.7396 0.7397 0.7398
3743.000000 0.7399 0.7399 0.7399 0.7399 0.7399
3748.000000 0.7399 0.7398 0.7398 0.7398 0.7398
3753.000000 0.7398 0.7397 0.7396 0.7396 0.7395
3758.000000 0.7394 0.7393 0.7416 0.7390 0.7389
3763.000000 0.7387 0.7386 0.7385 0.7383 0.7381
3768.000000 0.7379 0.7377 0.7375 0.7373 0.7371
3773.000000 0.7369 0.7367 0.7365 0.7362 0.7361
3778.000000 0.7359 0.7358 0.7357 0.7355 0.7354
3783.000000 0.7354 0.7354 0.7354 0.7354 0.7354
3788.000000 0.7355 0.7355 0.7355 0.7355 0.7355
3793.000000 0.7355 0.7355 0.7355 0.7355 0.7355
3798.000000 0.7355 0.7355 0.7355 0.7355 0.7355
3803.000000 0.7356 0.7356 0.7356 0.7357 0.7358
3808.000000 0.7358 0.7359 0.7360 0.7361 0.7361
3813.000000 0.7362 0.7363 0.7363 0.7364 0.7365
3818.000000 0.7365 0.7366 0.7366 0.7367 0.7367
3823.000000 0.7368 0.7369 0.7370 0.7370 0.7371
3828.000000 0.7372 0.7373 0.7374 0.7374 0.7375
3833.000000 0.7376 0.7376 0.7377 0.7378 0.7378
3838.000000 0.7379 0.7380 0.7380 0.7381 0.7381
3843.000000 0.7381 0.7381 0.7381 0.7381 0.7382
3848.000000 0.7382 0.7382 0.7382 0.7382 0.7382
3853.000000 0.7382 0.7382 0.7382 0.7382 0.7382
3858.000000 0.7382 0.7381 0.7381 0.7381 0.7381
3863.000000 0.7381 0.7380 0.7380 0.7380 0.7380
3868.000000 0.7380 0.7380 0.7379 0.7379 0.7379
3873.000000 0.7379 0.7379 0.7379 0.7378 0.7378
3878.000000 0.7378 0.7378 0.7378 0.7378 0.7377
3883.000000 0.7377 0.7377 0.7377 0.7377 0.7377
3888.000000 0.7377 0.7376 0.7375 0.7375 0.7374
3893.000000 0.7373 0.7373 0.7372 0.7372 0.7371
3898.000000 0.7371 0.7370 0.7370 0.7369 0.7369
3903.000000 0.7368 0.7368 0.7367 0.7367 0.7366
3908.000000 0.7365 0.7365 0.7364 0.7363 0.7363
3913.000000 0.7362 0.7361 0.7361 0.7360 0.7359
3918.000000 0.7359 0.7358 0.7357 0.7356 0.7356
3923.000000 0.7355 0.7354 0.7353 0.7352 0.7352
3928.000000 0.7351 0.7350 0.7349 0.7348 0.7348
3933.000000 0.7347 0.7346 0.7345 0.7344 0.7344
3938.000000 0.7343 0.7342 0.7341 0.7340 0.7339
3943.000000 0.7339 0.7338 0.7337 0.7337 0.7336
3948.000000 0.7335 0.7335 0.7334 0.7333 0.7332
3953.000000 0.7332 0.7331 0.7330 0.7329 0.7328
3958.000000 0.7328 0.7327 0.7326 0.7325 0.7324
3963.000000 0.7324 0.7323 0.7322 0.7321 0.7320
3968.000000 0.7320 0.7319 0.7318 0.7318 0.7317
3973.000000 0.7316 0.7316 0.7315 0.7315 0.7314
3978.000000 0.7313 0.7313 0.7312 0.7311 0.7311
3983.000000 0.7310 0.7309 0.7308 0.7307 0.7307
3988.000000 0.7306 0.7305 0.7305 0.7304 0.7304
3993.000000 0.7303 0.7302 0.7302 0.7301 0.7300
3998.000000 0.7300 0.7299 0.7299
##END=
