##TITLE=HEXACHLOROPHENE
##JCAMP-DX=4.24
$$ By DXEDIT 1.05 (RS McDonald)
##DATA TYPE=INFRARED SPECTRUM
##CLASS=COBLENTZ III
##OWNER=COPYRIGHT (C) 1988 by COBLENTZ SOCIETY INC.
Collection (C) 2018 copyright by the U.S. Secretary of Commerce
on behalf of the United States of America. All rights reserved.
##DATE=1961/05/19
##NAMES=2,2'-METHYLENEBIS[3,4,6-TRICHLOROPHENOL]
##CAS REGISTRY NO=70-30-4
##MOLFORM=C13 H6 Cl6 O2
##MP=164-165 C
##SOURCE REFERENCE=COBLENTZ NO. 5153
##$NIST SOURCE=COBLENTZ
##$NIST IMAGE=cob5153
##SPECTROMETER/DATA SYSTEM=PERKIN-ELMER 21 (GRATING)
##INSTRUMENT PARAMETERS=FILTER AT ABOUT 10 MICRONS
##STATE=SOLID (KBr DISC)
##PATH LENGTH=
$$ SPECTRAL FEATURE AT 997 CM^-^1 IS AN ARTIFACT CAUSED BY FILTER CHANGE
##SAMPLING PROCEDURE=TRANSMISSION
##RESOLUTION=2
##DATA PROCESSING=DIGITIZED BY COBLENTZ SOCIETY (BATCH I) FROM HARD COPY
##XUNITS=1/CM
##YUNITS=TRANSMITTANCE
##XFACTOR=1
##YFACTOR=1
##DELTAX=1
##FIRSTX=4000
##LASTX=667
##FIRSTY=0.9185
##MAXX=4000
##MINX=667
##MAXY=0.9599
##MINY=0.2786
##NPOINTS=3334
##XYDATA=(X++(Y..Y))
4000.000000 0.9185 0.9185 0.9186 0.9186 0.9187
3995.000000 0.9186 0.9187 0.9188 0.9188 0.9188
3990.000000 0.9188 0.9188 0.9188 0.9189 0.9189
3985.000000 0.9189 0.9190 0.9189 0.9190 0.9190
3980.000000 0.9190 0.9191 0.9191 0.9192 0.9192
3975.000000 0.9192 0.9193 0.9192 0.9193 0.9194
3970.000000 0.9193 0.9194 0.9193 0.9193 0.9195
3965.000000 0.9195 0.9195 0.9195 0.9195 0.9195
3960.000000 0.9196 0.9197 0.9196 0.9196 0.9197
3955.000000 0.9198 0.9198 0.9197 0.9198 0.9200
3950.000000 0.9199 0.9200 0.9199 0.9199 0.9200
3945.000000 0.9201 0.9201 0.9201 0.9201 0.9202
3940.000000 0.9202 0.9203 0.9204 0.9205 0.9204
3935.000000 0.9204 0.9205 0.9206 0.9206 0.9205
3930.000000 0.9207 0.9208 0.9207 0.9208 0.9208
3925.000000 0.9208 0.9209 0.9209 0.9210 0.9209
3920.000000 0.9210 0.9211 0.9211 0.9212 0.9213
3915.000000 0.9212 0.9213 0.9213 0.9214 0.9215
3910.000000 0.9214 0.9215 0.9215 0.9216 0.9217
3905.000000 0.9216 0.9217 0.9217 0.9217 0.9216
3900.000000 0.9218 0.9218 0.9218 0.9219 0.9219
3895.000000 0.9220 0.9221 0.9220 0.9220 0.9221
3890.000000 0.9222 0.9222 0.9222 0.9222 0.9223
3885.000000 0.9224 0.9224 0.9225 0.9225 0.9225
3880.000000 0.9225 0.9224 0.9225 0.9227 0.9226
3875.000000 0.9226 0.9226 0.9228 0.9229 0.9228
3870.000000 0.9228 0.9228 0.9230 0.9230 0.9231
3865.000000 0.9232 0.9231 0.9232 0.9233 0.9233
3860.000000 0.9234 0.9235 0.9235 0.9235 0.9235
3855.000000 0.9236 0.9235 0.9236 0.9237 0.9237
3850.000000 0.9238 0.9239 0.9239 0.9240 0.9240
3845.000000 0.9240 0.9241 0.9241 0.9242 0.9242
3840.000000 0.9242 0.9244 0.9244 0.9245 0.9245
3835.000000 0.9246 0.9247 0.9246 0.9248 0.9247
3830.000000 0.9248 0.9248 0.9248 0.9250 0.9250
3825.000000 0.9250 0.9249 0.9251 0.9252 0.9251
3820.000000 0.9252 0.9254 0.9253 0.9254 0.9255
3815.000000 0.9256 0.9256 0.9256 0.9258 0.9257
3810.000000 0.9257 0.9259 0.9259 0.9260 0.9260
3805.000000 0.9261 0.9262 0.9262 0.9263 0.9264
3800.000000 0.9264 0.9265 0.9265 0.9266 0.9265
3795.000000 0.9266 0.9267 0.9267 0.9268 0.9269
3790.000000 0.9269 0.9270 0.9269 0.9270 0.9270
3785.000000 0.9272 0.9273 0.9273 0.9274 0.9275
3780.000000 0.9274 0.9275 0.9274 0.9276 0.9277
3775.000000 0.9277 0.9279 0.9279 0.9281 0.9282
3770.000000 0.9282 0.9284 0.9284 0.9286 0.9287
3765.000000 0.9288 0.9289 0.9289 0.9292 0.9292
3760.000000 0.9294 0.9294 0.9295 0.9297 0.9297
3755.000000 0.9299 0.9300 0.9301 0.9302 0.9303
3750.000000 0.9304 0.9305 0.9306 0.9306 0.9309
3745.000000 0.9309 0.9310 0.9312 0.9311 0.9314
3740.000000 0.9313 0.9316 0.9317 0.9316 0.9319
3735.000000 0.9319 0.9321 0.9321 0.9324 0.9324
3730.000000 0.9324 0.9324 0.9326 0.9326 0.9325
3725.000000 0.9327 0.9327 0.9329 0.9330 0.9330
3720.000000 0.9331 0.9332 0.9332 0.9333 0.9333
3715.000000 0.9334 0.9334 0.9335 0.9336 0.9337
3710.000000 0.9338 0.9339 0.9339 0.9340 0.9340
3705.000000 0.9340 0.9342 0.9342 0.9343 0.9343
3700.000000 0.9345 0.9345 0.9346 0.9347 0.9346
3695.000000 0.9347 0.9349 0.9349 0.9349 0.9350
3690.000000 0.9351 0.9352 0.9353 0.9353 0.9352
3685.000000 0.9353 0.9355 0.9355 0.9355 0.9354
3680.000000 0.9355 0.9354 0.9356 0.9356 0.9355
3675.000000 0.9355 0.9356 0.9356 0.9356 0.9357
3670.000000 0.9356 0.9356 0.9357 0.9356 0.9356
3665.000000 0.9356 0.9356 0.9356 0.9357 0.9356
3660.000000 0.9357 0.9357 0.9356 0.9357 0.9356
3655.000000 0.9357 0.9356 0.9357 0.9356 0.9357
3650.000000 0.9356 0.9357 0.9357 0.9357 0.9358
3645.000000 0.9357 0.9358 0.9357 0.9357 0.9356
3640.000000 0.9356 0.9357 0.9356 0.9356 0.9355
3635.000000 0.9355 0.9354 0.9354 0.9353 0.9353
3630.000000 0.9352 0.9352 0.9351 0.9351 0.9350
3625.000000 0.9350 0.9349 0.9349 0.9348 0.9348
3620.000000 0.9347 0.9347 0.9346 0.9345 0.9344
3615.000000 0.9343 0.9342 0.9342 0.9340 0.9340
3610.000000 0.9338 0.9337 0.9336 0.9335 0.9333
3605.000000 0.9333 0.9331 0.9330 0.9328 0.9326
3600.000000 0.9324 0.9322 0.9321 0.9317 0.9314
3595.000000 0.9313 0.9308 0.9305 0.9304 0.9300
3590.000000 0.9296 0.9295 0.9291 0.9289 0.9286
3585.000000 0.9282 0.9280 0.9277 0.9273 0.9271
3580.000000 0.9268 0.9264 0.9262 0.9259 0.9255
3575.000000 0.9250 0.9245 0.9241 0.9237 0.9232
3570.000000 0.9226 0.9221 0.9215 0.9209 0.9204
3565.000000 0.9198 0.9191 0.9186 0.9179 0.9174
3560.000000 0.9169 0.9163 0.9157 0.9151 0.9145
3555.000000 0.9139 0.9133 0.9128 0.9121 0.9116
3550.000000 0.9110 0.9105 0.9099 0.9093 0.9086
3545.000000 0.9074 0.9060 0.9048 0.9036 0.9023
3540.000000 0.9000 0.8978 0.8954 0.8933 0.8910
3535.000000 0.8886 0.8862 0.8837 0.8814 0.8790
3530.000000 0.8762 0.8733 0.8707 0.8678 0.8650
3525.000000 0.8622 0.8595 0.8566 0.8539 0.8511
3520.000000 0.8492 0.8471 0.8453 0.8433 0.8413
3515.000000 0.8393 0.8370 0.8350 0.8328 0.8304
3510.000000 0.8274 0.8243 0.8212 0.8181 0.8151
3505.000000 0.8121 0.8092 0.8063 0.8034 0.8006
3500.000000 0.7979 0.7953 0.7927 0.7901 0.7861
3495.000000 0.7808 0.7756 0.7704 0.7650 0.7574
3490.000000 0.7483 0.7391 0.7300 0.7208 0.7115
3485.000000 0.7024 0.6932 0.6840 0.6748 0.6656
3480.000000 0.6563 0.6471 0.6379 0.6287 0.6196
3475.000000 0.6103 0.6010 0.5918 0.5832 0.5772
3470.000000 0.5712 0.5654 0.5565 0.5558 0.5557
3465.000000 0.5556 0.5554 0.5553 0.5553 0.5554
3460.000000 0.5553 0.5554 0.5554 0.5576 0.5602
3455.000000 0.5629 0.5655 0.5682 0.5735 0.5787
3450.000000 0.5839 0.5891 0.5943 0.5996 0.6047
3445.000000 0.6100 0.6152 0.6205 0.6257 0.6310
3440.000000 0.6361 0.6414 0.6467 0.6519 0.6572
3435.000000 0.6623 0.6674 0.6691 0.6708 0.6724
3430.000000 0.6751 0.6752 0.6752 0.6751 0.6750
3425.000000 0.6750 0.6747 0.6745 0.6743 0.6740
3420.000000 0.6738 0.6734 0.6731 0.6728 0.6725
3415.000000 0.6717 0.6699 0.6679 0.6660 0.6641
3410.000000 0.6619 0.6594 0.6569 0.6545 0.6521
3405.000000 0.6496 0.6470 0.6446 0.6421 0.6396
3400.000000 0.6372 0.6347 0.6322 0.6298 0.6273
3395.000000 0.6248 0.6224 0.6199 0.6173 0.6149
3390.000000 0.6124 0.6099 0.6072 0.6049 0.6024
3385.000000 0.6000 0.5975 0.5950 0.5938 0.5928
3380.000000 0.5917 0.5906 0.5897 0.5894 0.5890
3375.000000 0.5886 0.5869 0.5880 0.5877 0.5876
3370.000000 0.5874 0.5871 0.5871 0.5870 0.5869
3365.000000 0.5869 0.5869 0.5870 0.5870 0.5871
3360.000000 0.5872 0.5872 0.5873 0.5873 0.5873
3355.000000 0.5877 0.5882 0.5887 0.5892 0.5898
3350.000000 0.5908 0.5918 0.5928 0.5937 0.5951
3345.000000 0.5966 0.5982 0.5996 0.6012 0.6029
3340.000000 0.6045 0.6061 0.6078 0.6095 0.6111
3335.000000 0.6129 0.6146 0.6165 0.6190 0.6215
3330.000000 0.6239 0.6264 0.6296 0.6330 0.6363
3325.000000 0.6397 0.6437 0.6487 0.6536 0.6583
3320.000000 0.6633 0.6666 0.6699 0.6733 0.6765
3315.000000 0.6805 0.6848 0.6891 0.6934 0.6972
3310.000000 0.6999 0.7029 0.7057 0.7085 0.7110
3305.000000 0.7135 0.7158 0.7184 0.7205 0.7225
3300.000000 0.7244 0.7263 0.7282 0.7299 0.7313
3295.000000 0.7330 0.7346 0.7362 0.7379 0.7395
3290.000000 0.7412 0.7428 0.7443 0.7458 0.7474
3285.000000 0.7489 0.7502 0.7516 0.7530 0.7543
3280.000000 0.7558 0.7570 0.7585 0.7599 0.7612
3275.000000 0.7625 0.7639 0.7652 0.7664 0.7675
3270.000000 0.7686 0.7698 0.7709 0.7720 0.7731
3265.000000 0.7742 0.7753 0.7764 0.7774 0.7786
3260.000000 0.7797 0.7808 0.7820 0.7831 0.7841
3255.000000 0.7852 0.7863 0.7873 0.7885 0.7896
3250.000000 0.7907 0.7918 0.7928 0.7939 0.7950
3245.000000 0.7962 0.7973 0.7983 0.7994 0.8005
3240.000000 0.8016 0.8025 0.8038 0.8046 0.8055
3235.000000 0.8064 0.8073 0.8081 0.8090 0.8098
3230.000000 0.8106 0.8115 0.8123 0.8131 0.8140
3225.000000 0.8148 0.8157 0.8166 0.8174 0.8183
3220.000000 0.8191 0.8200 0.8208 0.8216 0.8223
3215.000000 0.8230 0.8237 0.8243 0.8250 0.8257
3210.000000 0.8263 0.8270 0.8276 0.8283 0.8290
3205.000000 0.8296 0.8303 0.8309 0.8315 0.8322
3200.000000 0.8329 0.8335 0.8342 0.8348 0.8352
3195.000000 0.8354 0.8358 0.8361 0.8364 0.8367
3190.000000 0.8370 0.8374 0.8376 0.8380 0.8385
3185.000000 0.8387 0.8393 0.8397 0.8402 0.8407
3180.000000 0.8411 0.8418 0.8424 0.8428 0.8434
3175.000000 0.8441 0.8447 0.8453 0.8459 0.8464
3170.000000 0.8469 0.8476 0.8482 0.8486 0.8493
3165.000000 0.8498 0.8504 0.8508 0.8515 0.8521
3160.000000 0.8525 0.8527 0.8531 0.8536 0.8539
3155.000000 0.8542 0.8546 0.8550 0.8553 0.8557
3150.000000 0.8561 0.8565 0.8568 0.8571 0.8574
3145.000000 0.8578 0.8582 0.8587 0.8591 0.8595
3140.000000 0.8598 0.8602 0.8606 0.8611 0.8614
3135.000000 0.8618 0.8621 0.8624 0.8629 0.8633
3130.000000 0.8637 0.8640 0.8644 0.8649 0.8653
3125.000000 0.8657 0.8659 0.8664 0.8668 0.8671
3120.000000 0.8674 0.8679 0.8683 0.8686 0.8690
3115.000000 0.8695 0.8698 0.8702 0.8705 0.8709
3110.000000 0.8712 0.8717 0.8718 0.8720 0.8723
3105.000000 0.8726 0.8728 0.8730 0.8733 0.8734
3100.000000 0.8737 0.8740 0.8740 0.8744 0.8746
3095.000000 0.8748 0.8750 0.8752 0.8752 0.8752
3090.000000 0.8754 0.8754 0.8754 0.8753 0.8753
3085.000000 0.8748 0.8744 0.8740 0.8735 0.8731
3080.000000 0.8726 0.8721 0.8716 0.8709 0.8702
3075.000000 0.8696 0.8687 0.8677 0.8668 0.8660
3070.000000 0.8652 0.8644 0.8637 0.8630 0.8622
3065.000000 0.8617 0.8610 0.8606 0.8603 0.8600
3060.000000 0.8598 0.8595 0.8593 0.8591 0.8590
3055.000000 0.8587 0.8586 0.8585 0.8585 0.8588
3050.000000 0.8588 0.8591 0.8595 0.8596 0.8599
3045.000000 0.8602 0.8603 0.8606 0.8609 0.8611
3040.000000 0.8618 0.8625 0.8631 0.8643 0.8657
3035.000000 0.8670 0.8682 0.8692 0.8701 0.8709
3030.000000 0.8717 0.8727 0.8735 0.8745 0.8754
3025.000000 0.8763 0.8771 0.8779 0.8788 0.8797
3020.000000 0.8806 0.8814 0.8823 0.8833 0.8842
3015.000000 0.8848 0.8854 0.8860 0.8865 0.8868
3010.000000 0.8873 0.8877 0.8880 0.8883 0.8889
3005.000000 0.8893 0.8896 0.8900 0.8904 0.8907
3000.000000 0.8911 0.8915 0.8919 0.8921 0.8924
2995.000000 0.8926 0.8931 0.8932 0.8933 0.8935
2990.000000 0.8936 0.8938 0.8940 0.8941 0.8943
2985.000000 0.8944 0.8946 0.8948 0.8949 0.8951
2980.000000 0.8953 0.8953 0.8953 0.8954 0.8955
2975.000000 0.8954 0.8954 0.8953 0.8953 0.8953
2970.000000 0.8952 0.8952 0.8951 0.8951 0.8950
2965.000000 0.8950 0.8949 0.8949 0.8948 0.8948
2960.000000 0.8947 0.8947 0.8947 0.8946 0.8946
2955.000000 0.8945 0.8945 0.8944 0.8944 0.8940
2950.000000 0.8936 0.8931 0.8927 0.8922 0.8917
2945.000000 0.8913 0.8908 0.8903 0.8899 0.8894
2940.000000 0.8891 0.8886 0.8883 0.8879 0.8875
2935.000000 0.8871 0.8868 0.8863 0.8859 0.8855
2930.000000 0.8851 0.8848 0.8843 0.8840 0.8836
2925.000000 0.8833 0.8829 0.8827 0.8823 0.8819
2920.000000 0.8816 0.8812 0.8809 0.8805 0.8802
2915.000000 0.8799 0.8796 0.8793 0.8791 0.8788
2910.000000 0.8785 0.8783 0.8780 0.8777 0.8775
2905.000000 0.8772 0.8769 0.8767 0.8764 0.8762
2900.000000 0.8761 0.8760 0.8760 0.8759 0.8761
2895.000000 0.8760 0.8762 0.8763 0.8762 0.8763
2890.000000 0.8764 0.8765 0.8764 0.8766 0.8770
2885.000000 0.8774 0.8781 0.8787 0.8793 0.8798
2880.000000 0.8805 0.8811 0.8815 0.8821 0.8829
2875.000000 0.8836 0.8841 0.8848 0.8855 0.8862
2870.000000 0.8866 0.8874 0.8881 0.8886 0.8890
2865.000000 0.8893 0.8895 0.8899 0.8902 0.8903
2860.000000 0.8906 0.8909 0.8912 0.8915 0.8917
2855.000000 0.8921 0.8924 0.8926 0.8930 0.8933
2850.000000 0.8935 0.8937 0.8937 0.8940 0.8942
2845.000000 0.8942 0.8943 0.8944 0.8945 0.8945
2840.000000 0.8948 0.8950 0.8950 0.8953 0.8952
2835.000000 0.8955 0.8956 0.8956 0.8958 0.8959
2830.000000 0.8960 0.8961 0.8963 0.8964 0.8965
2825.000000 0.8967 0.8968 0.8969 0.8970 0.8972
2820.000000 0.8973 0.8974 0.8975 0.8978 0.8981
2815.000000 0.8983 0.8986 0.8989 0.8990 0.8993
2810.000000 0.8996 0.8998 0.9003 0.9006 0.9008
2805.000000 0.9011 0.9013 0.9017 0.9019 0.9022
2800.000000 0.9025 0.9027 0.9030 0.9033 0.9034
2795.000000 0.9037 0.9039 0.9042 0.9047 0.9049
2790.000000 0.9052 0.9055 0.9058 0.9062 0.9064
2785.000000 0.9068 0.9071 0.9074 0.9077 0.9080
2780.000000 0.9084 0.9087 0.9090 0.9093 0.9096
2775.000000 0.9099 0.9103 0.9106 0.9109 0.9112
2770.000000 0.9115 0.9119 0.9121 0.9125 0.9128
2765.000000 0.9131 0.9135 0.9137 0.9141 0.9144
2760.000000 0.9147 0.9151 0.9153 0.9157 0.9160
2755.000000 0.9164 0.9167 0.9170 0.9173 0.9177
2750.000000 0.9181 0.9184 0.9187 0.9191 0.9193
2745.000000 0.9196 0.9201 0.9202 0.9205 0.9207
2740.000000 0.9208 0.9211 0.9211 0.9213 0.9216
2735.000000 0.9217 0.9218 0.9221 0.9222 0.9224
2730.000000 0.9227 0.9228 0.9230 0.9231 0.9233
2725.000000 0.9235 0.9237 0.9239 0.9239 0.9240
2720.000000 0.9240 0.9240 0.9239 0.9239 0.9238
2715.000000 0.9238 0.9238 0.9238 0.9237 0.9237
2710.000000 0.9236 0.9236 0.9236 0.9236 0.9236
2705.000000 0.9234 0.9234 0.9233 0.9232 0.9230
2700.000000 0.9230 0.9228 0.9227 0.9224 0.9224
2695.000000 0.9222 0.9221 0.9220 0.9220 0.9220
2690.000000 0.9221 0.9220 0.9222 0.9222 0.9223
2685.000000 0.9224 0.9224 0.9225 0.9224 0.9227
2680.000000 0.9229 0.9232 0.9232 0.9235 0.9238
2675.000000 0.9239 0.9241 0.9243 0.9246 0.9247
2670.000000 0.9250 0.9251 0.9254 0.9256 0.9258
2665.000000 0.9260 0.9262 0.9264 0.9265 0.9268
2660.000000 0.9268 0.9271 0.9274 0.9276 0.9279
2655.000000 0.9280 0.9282 0.9283 0.9285 0.9285
2650.000000 0.9286 0.9286 0.9287 0.9288 0.9289
2645.000000 0.9290 0.9290 0.9291 0.9292 0.9293
2640.000000 0.9293 0.9294 0.9295 0.9296 0.9296
2635.000000 0.9298 0.9299 0.9299 0.9300 0.9300
2630.000000 0.9301 0.9302 0.9303 0.9302 0.9305
2625.000000 0.9305 0.9305 0.9307 0.9307 0.9307
2620.000000 0.9309 0.9309 0.9309 0.9312 0.9311
2615.000000 0.9314 0.9313 0.9315 0.9315 0.9316
2610.000000 0.9317 0.9318 0.9318 0.9319 0.9320
2605.000000 0.9321 0.9323 0.9323 0.9324 0.9324
2600.000000 0.9326 0.9326 0.9327 0.9327 0.9328
2595.000000 0.9329 0.9331 0.9331 0.9332 0.9332
2590.000000 0.9332 0.9334 0.9334 0.9335 0.9336
2585.000000 0.9337 0.9336 0.9338 0.9338 0.9338
2580.000000 0.9338 0.9340 0.9340 0.9342 0.9341
2575.000000 0.9342 0.9341 0.9342 0.9343 0.9345
2570.000000 0.9346 0.9346 0.9347 0.9347 0.9348
2565.000000 0.9348 0.9350 0.9350 0.9351 0.9351
2560.000000 0.9352 0.9351 0.9352 0.9353 0.9354
2555.000000 0.9354 0.9355 0.9355 0.9356 0.9357
2550.000000 0.9358 0.9359 0.9359 0.9360 0.9360
2545.000000 0.9361 0.9360 0.9362 0.9361 0.9362
2540.000000 0.9361 0.9362 0.9363 0.9363 0.9363
2535.000000 0.9363 0.9364 0.9364 0.9364 0.9364
2530.000000 0.9364 0.9366 0.9366 0.9365 0.9366
2525.000000 0.9367 0.9367 0.9367 0.9367 0.9367
2520.000000 0.9369 0.9368 0.9368 0.9367 0.9369
2515.000000 0.9369 0.9370 0.9370 0.9371 0.9371
2510.000000 0.9373 0.9373 0.9374 0.9374 0.9375
2505.000000 0.9377 0.9377 0.9378 0.9378 0.9379
2500.000000 0.9380 0.9380 0.9380 0.9381 0.9380
2495.000000 0.9383 0.9383 0.9384 0.9384 0.9385
2490.000000 0.9386 0.9387 0.9386 0.9387 0.9388
2485.000000 0.9389 0.9390 0.9391 0.9390 0.9391
2480.000000 0.9392 0.9392 0.9393 0.9394 0.9395
2475.000000 0.9395 0.9397 0.9396 0.9398 0.9399
2470.000000 0.9400 0.9400 0.9401 0.9402 0.9403
2465.000000 0.9403 0.9404 0.9405 0.9406 0.9406
2460.000000 0.9407 0.9407 0.9408 0.9408 0.9408
2455.000000 0.9408 0.9409 0.9409 0.9409 0.9410
2450.000000 0.9411 0.9411 0.9412 0.9413 0.9413
2445.000000 0.9413 0.9412 0.9414 0.9414 0.9415
2440.000000 0.9416 0.9417 0.9416 0.9416 0.9417
2435.000000 0.9418 0.9417 0.9418 0.9417 0.9419
2430.000000 0.9419 0.9421 0.9421 0.9421 0.9421
2425.000000 0.9421 0.9422 0.9422 0.9423 0.9424
2420.000000 0.9425 0.9425 0.9425 0.9426 0.9426
2415.000000 0.9427 0.9427 0.9428 0.9428 0.9429
2410.000000 0.9429 0.9430 0.9430 0.9431 0.9432
2405.000000 0.9432 0.9432 0.9432 0.9432 0.9432
2400.000000 0.9433 0.9433 0.9433 0.9432 0.9434
2395.000000 0.9434 0.9435 0.9434 0.9435 0.9435
2390.000000 0.9436 0.9435 0.9435 0.9436 0.9437
2385.000000 0.9436 0.9436 0.9436 0.9438 0.9437
2380.000000 0.9438 0.9437 0.9439 0.9439 0.9439
2375.000000 0.9439 0.9441 0.9440 0.9440 0.9439
2370.000000 0.9440 0.9441 0.9442 0.9441 0.9440
2365.000000 0.9437 0.9436 0.9435 0.9432 0.9432
2360.000000 0.9430 0.9428 0.9427 0.9424 0.9422
2355.000000 0.9422 0.9418 0.9418 0.9416 0.9414
2350.000000 0.9412 0.9411 0.9408 0.9408 0.9407
2345.000000 0.9407 0.9406 0.9406 0.9405 0.9405
2340.000000 0.9404 0.9404 0.9403 0.9403 0.9402
2335.000000 0.9402 0.9401 0.9401 0.9400 0.9400
2330.000000 0.9400 0.9399 0.9399 0.9400 0.9401
2325.000000 0.9401 0.9402 0.9402 0.9403 0.9402
2320.000000 0.9404 0.9404 0.9404 0.9403 0.9406
2315.000000 0.9406 0.9406 0.9407 0.9408 0.9407
2310.000000 0.9408 0.9409 0.9409 0.9409 0.9412
2305.000000 0.9412 0.9414 0.9415 0.9417 0.9417
2300.000000 0.9418 0.9419 0.9420 0.9421 0.9422
2295.000000 0.9422 0.9424 0.9424 0.9426 0.9426
2290.000000 0.9428 0.9429 0.9429 0.9431 0.9432
2285.000000 0.9433 0.9434 0.9435 0.9436 0.9436
2280.000000 0.9438 0.9438 0.9440 0.9440 0.9443
2275.000000 0.9442 0.9445 0.9445 0.9448 0.9449
2270.000000 0.9450 0.9451 0.9453 0.9454 0.9456
2265.000000 0.9457 0.9458 0.9459 0.9461 0.9462
2260.000000 0.9464 0.9464 0.9467 0.9467 0.9469
2255.000000 0.9469 0.9471 0.9472 0.9474 0.9476
2250.000000 0.9476 0.9479 0.9479 0.9481 0.9481
2245.000000 0.9484 0.9485 0.9486 0.9487 0.9488
2240.000000 0.9488 0.9488 0.9488 0.9489 0.9489
2235.000000 0.9490 0.9490 0.9491 0.9491 0.9491
2230.000000 0.9491 0.9492 0.9492 0.9493 0.9493
2225.000000 0.9493 0.9493 0.9494 0.9494 0.9495
2220.000000 0.9495 0.9496 0.9496 0.9496 0.9496
2215.000000 0.9497 0.9497 0.9498 0.9498 0.9498
2210.000000 0.9498 0.9499 0.9499 0.9500 0.9500
2205.000000 0.9500 0.9500 0.9501 0.9501 0.9502
2200.000000 0.9501 0.9503 0.9503 0.9503 0.9502
2195.000000 0.9504 0.9504 0.9505 0.9504 0.9506
2190.000000 0.9506 0.9508 0.9508 0.9509 0.9509
2185.000000 0.9510 0.9511 0.9512 0.9512 0.9513
2180.000000 0.9513 0.9514 0.9515 0.9516 0.9516
2175.000000 0.9518 0.9518 0.9518 0.9520 0.9520
2170.000000 0.9521 0.9521 0.9523 0.9523 0.9524
2165.000000 0.9524 0.9525 0.9526 0.9527 0.9527
2160.000000 0.9528 0.9528 0.9530 0.9531 0.9532
2155.000000 0.9531 0.9533 0.9534 0.9534 0.9535
2150.000000 0.9536 0.9535 0.9538 0.9538 0.9539
2145.000000 0.9540 0.9542 0.9542 0.9543 0.9544
2140.000000 0.9544 0.9546 0.9546 0.9547 0.9548
2135.000000 0.9549 0.9550 0.9552 0.9552 0.9553
2130.000000 0.9554 0.9555 0.9556 0.9557 0.9557
2125.000000 0.9559 0.9560 0.9561 0.9561 0.9564
2120.000000 0.9563 0.9565 0.9566 0.9565 0.9568
2115.000000 0.9569 0.9569 0.9568 0.9568 0.9567
2110.000000 0.9567 0.9566 0.9566 0.9565 0.9565
2105.000000 0.9564 0.9564 0.9563 0.9563 0.9562
2100.000000 0.9562 0.9561 0.9561 0.9560 0.9560
2095.000000 0.9559 0.9559 0.9557 0.9556 0.9556
2090.000000 0.9555 0.9555 0.9553 0.9553 0.9552
2085.000000 0.9550 0.9549 0.9549 0.9548 0.9548
2080.000000 0.9547 0.9547 0.9546 0.9546 0.9545
2075.000000 0.9545 0.9543 0.9543 0.9542 0.9542
2070.000000 0.9541 0.9540 0.9539 0.9539 0.9538
2065.000000 0.9538 0.9535 0.9535 0.9534 0.9534
2060.000000 0.9533 0.9533 0.9532 0.9532 0.9531
2055.000000 0.9531 0.9530 0.9530 0.9528 0.9528
2050.000000 0.9527 0.9527 0.9526 0.9524 0.9524
2045.000000 0.9523 0.9523 0.9522 0.9522 0.9521
2040.000000 0.9521 0.9520 0.9520 0.9519 0.9519
2035.000000 0.9517 0.9517 0.9516 0.9516 0.9515
2030.000000 0.9514 0.9513 0.9513 0.9512 0.9512
2025.000000 0.9510 0.9510 0.9509 0.9509 0.9509
2020.000000 0.9509 0.9509 0.9509 0.9509 0.9509
2015.000000 0.9508 0.9508 0.9507 0.9509 0.9509
2010.000000 0.9509 0.9508 0.9510 0.9509 0.9509
2005.000000 0.9508 0.9509 0.9509 0.9509 0.9508
2000.000000 0.9510 0.9509 0.9509 0.9508 0.9509
1995.000000 0.9508 0.9508 0.9509 0.9511 0.9510
1990.000000 0.9511 0.9510 0.9511 0.9511 0.9511
1985.000000 0.9511 0.9512 0.9512 0.9512 0.9512
1980.000000 0.9512 0.9513 0.9513 0.9514 0.9514
1975.000000 0.9514 0.9514 0.9515 0.9515 0.9516
1970.000000 0.9516 0.9516 0.9516 0.9516 0.9517
1965.000000 0.9518 0.9517 0.9518 0.9518 0.9518
1960.000000 0.9519 0.9520 0.9519 0.9520 0.9520
1955.000000 0.9520 0.9520 0.9521 0.9521 0.9521
1950.000000 0.9523 0.9523 0.9524 0.9525 0.9526
1945.000000 0.9525 0.9528 0.9528 0.9528 0.9529
1940.000000 0.9530 0.9531 0.9532 0.9533 0.9533
1935.000000 0.9534 0.9535 0.9536 0.9536 0.9538
1930.000000 0.9538 0.9540 0.9540 0.9541 0.9542
1925.000000 0.9543 0.9543 0.9545 0.9545 0.9545
1920.000000 0.9547 0.9547 0.9548 0.9549 0.9549
1915.000000 0.9549 0.9551 0.9550 0.9551 0.9551
1910.000000 0.9552 0.9552 0.9553 0.9552 0.9554
1905.000000 0.9554 0.9554 0.9555 0.9555 0.9556
1900.000000 0.9555 0.9555 0.9557 0.9557 0.9558
1895.000000 0.9559 0.9558 0.9559 0.9559 0.9561
1890.000000 0.9560 0.9561 0.9561 0.9562 0.9563
1885.000000 0.9563 0.9564 0.9566 0.9567 0.9568
1880.000000 0.9569 0.9569 0.9571 0.9571 0.9573
1875.000000 0.9573 0.9574 0.9575 0.9576 0.9578
1870.000000 0.9578 0.9580 0.9580 0.9581 0.9580
1865.000000 0.9582 0.9582 0.9582 0.9581 0.9582
1860.000000 0.9583 0.9582 0.9583 0.9582 0.9582
1855.000000 0.9583 0.9584 0.9583 0.9583 0.9584
1850.000000 0.9585 0.9585 0.9585 0.9585 0.9586
1845.000000 0.9586 0.9586 0.9586 0.9587 0.9586
1840.000000 0.9587 0.9587 0.9588 0.9588 0.9588
1835.000000 0.9589 0.9590 0.9590 0.9591 0.9592
1830.000000 0.9592 0.9592 0.9593 0.9594 0.9594
1825.000000 0.9594 0.9595 0.9595 0.9596 0.9596
1820.000000 0.9597 0.9597 0.9599 0.9598 0.9598
1815.000000 0.9597 0.9597 0.9596 0.9597 0.9596
1810.000000 0.9596 0.9595 0.9595 0.9594 0.9595
1805.000000 0.9594 0.9594 0.9593 0.9593 0.9592
1800.000000 0.9592 0.9591 0.9592 0.9591 0.9591
1795.000000 0.9590 0.9590 0.9589 0.9589 0.9588
1790.000000 0.9588 0.9587 0.9587 0.9586 0.9586
1785.000000 0.9585 0.9585 0.9584 0.9584 0.9583
1780.000000 0.9582 0.9581 0.9581 0.9580 0.9579
1775.000000 0.9578 0.9578 0.9576 0.9576 0.9575
1770.000000 0.9575 0.9573 0.9572 0.9570 0.9568
1765.000000 0.9566 0.9563 0.9561 0.9558 0.9556
1760.000000 0.9554 0.9551 0.9548 0.9544 0.9541
1755.000000 0.9539 0.9534 0.9531 0.9524 0.9517
1750.000000 0.9506 0.9493 0.9476 0.9459 0.9442
1745.000000 0.9424 0.9406 0.9387 0.9369 0.9351
1740.000000 0.9340 0.9330 0.9321 0.9314 0.9308
1735.000000 0.9302 0.9294 0.9288 0.9281 0.9276
1730.000000 0.9269 0.9256 0.9242 0.9227 0.9214
1725.000000 0.9201 0.9189 0.9174 0.9164 0.9157
1720.000000 0.9157 0.9156 0.9156 0.9155 0.9155
1715.000000 0.9157 0.9159 0.9163 0.9169 0.9175
1710.000000 0.9182 0.9189 0.9196 0.9205 0.9214
1705.000000 0.9225 0.9234 0.9243 0.9246 0.9248
1700.000000 0.9249 0.9252 0.9253 0.9256 0.9260
1695.000000 0.9263 0.9269 0.9274 0.9279 0.9283
1690.000000 0.9290 0.9295 0.9301 0.9306 0.9312
1685.000000 0.9318 0.9318 0.9319 0.9327 0.9325
1680.000000 0.9324 0.9324 0.9321 0.9317 0.9313
1675.000000 0.9309 0.9304 0.9301 0.9296 0.9292
1670.000000 0.9288 0.9284 0.9279 0.9276 0.9270
1665.000000 0.9263 0.9257 0.9250 0.9243 0.9237
1660.000000 0.9229 0.9222 0.9216 0.9208 0.9200
1655.000000 0.9190 0.9182 0.9173 0.9165 0.9156
1650.000000 0.9147 0.9138 0.9129 0.9119 0.9109
1645.000000 0.9099 0.9090 0.9081 0.9072 0.9062
1640.000000 0.9053 0.9042 0.9032 0.9022 0.9012
1635.000000 0.9002 0.8992 0.8979 0.8970 0.8960
1630.000000 0.8957 0.8954 0.8951 0.8948 0.8945
1625.000000 0.8944 0.8944 0.8946 0.8948 0.8948
1620.000000 0.8950 0.8954 0.8963 0.8971 0.8980
1615.000000 0.8987 0.8997 0.9006 0.9015 0.9024
1610.000000 0.9032 0.9042 0.9051 0.9059 0.9069
1605.000000 0.9078 0.9087 0.9095 0.9104 0.9113
1600.000000 0.9122 0.9129 0.9134 0.9139 0.9142
1595.000000 0.9145 0.9162 0.9148 0.9148 0.9145
1590.000000 0.9142 0.9136 0.9131 0.9120 0.9097
1585.000000 0.9052 0.8942 0.8759 0.8612 0.8534
1580.000000 0.8482 0.8432 0.8388 0.8359 0.8349
1575.000000 0.8338 0.8315 0.8328 0.8328 0.8328
1570.000000 0.8330 0.8336 0.8349 0.8371 0.8396
1565.000000 0.8420 0.8447 0.8472 0.8503 0.8541
1560.000000 0.8577 0.8617 0.8654 0.8694 0.8742
1555.000000 0.8795 0.8847 0.8899 0.8957 0.9075
1550.000000 0.9121 0.9154 0.9187 0.9203 0.9212
1545.000000 0.9221 0.9229 0.9238 0.9247 0.9256
1540.000000 0.9259 0.9262 0.9265 0.9269 0.9272
1535.000000 0.9275 0.9278 0.9281 0.9285 0.9288
1530.000000 0.9290 0.9294 0.9297 0.9299 0.9299
1525.000000 0.9299 0.9299 0.9297 0.9296 0.9295
1520.000000 0.9296 0.9296 0.9298 0.9306 0.9315
1515.000000 0.9324 0.9332 0.9340 0.9348 0.9356
1510.000000 0.9361 0.9360 0.9360 0.9358 0.9356
1505.000000 0.9355 0.9354 0.9352 0.9351 0.9350
1500.000000 0.9349 0.9347 0.9346 0.9344 0.9336
1495.000000 0.9315 0.9296 0.9276 0.9256 0.9229
1490.000000 0.9199 0.9168 0.9139 0.9110 0.9083
1485.000000 0.9055 0.9031 0.9018 0.9007 0.8998
1480.000000 0.8994 0.8989 0.8985 0.8980 0.8976
1475.000000 0.8971 0.8968 0.8965 0.8960 0.8956
1470.000000 0.8952 0.8944 0.8924 0.8903 0.8880
1465.000000 0.8855 0.8826 0.8797 0.8766 0.8734
1460.000000 0.8701 0.8671 0.8577 0.8394 0.8225
1455.000000 0.7752 0.7282 0.6808 0.6336 0.5861
1450.000000 0.5386 0.4910 0.4433 0.3957 0.3481
1445.000000 0.3237 0.3133 0.2960 0.2818 0.2802
1440.000000 0.2786 0.2792 0.2792 0.2805 0.3019
1435.000000 0.3187 0.3303 0.3420 0.3540 0.3748
1430.000000 0.4166 0.4411 0.4658 0.4904 0.5151
1425.000000 0.5399 0.5646 0.5894 0.6143 0.6391
1420.000000 0.6640 0.6889 0.7138 0.7389 0.7639
1415.000000 0.7860 0.7937 0.7962 0.8002 0.7981
1410.000000 0.7981 0.7824 0.7558 0.7290 0.7022
1405.000000 0.6755 0.6485 0.6265 0.6131 0.6090
1400.000000 0.6100 0.6099 0.6164 0.6293 0.6413
1395.000000 0.6504 0.6572 0.6624 0.6666 0.6695
1390.000000 0.6699 0.6701 0.6704 0.6706 0.6707
1385.000000 0.6709 0.6716 0.6728 0.6757 0.6867
1380.000000 0.7058 0.7326 0.7582 0.7838 0.8067
1375.000000 0.8172 0.8260 0.8345 0.8428 0.8496
1370.000000 0.8556 0.8595 0.8632 0.8665 0.8688
1365.000000 0.8712 0.8730 0.8736 0.8742 0.8749
1360.000000 0.8761 0.8776 0.8796 0.8818 0.8836
1355.000000 0.8849 0.8860 0.8869 0.8874 0.8881
1350.000000 0.8908 0.8887 0.8887 0.8885 0.8870
1345.000000 0.8847 0.8808 0.8780 0.8765 0.8748
1340.000000 0.8733 0.8722 0.8711 0.8698 0.8685
1335.000000 0.8666 0.8644 0.8623 0.8587 0.8546
1330.000000 0.8503 0.8455 0.8408 0.8364 0.8320
1325.000000 0.8276 0.7954 0.7788 0.7752 0.7731
1320.000000 0.7707 0.7689 0.7669 0.7632 0.7591
1315.000000 0.7520 0.7303 0.7065 0.6827 0.6588
1310.000000 0.6349 0.6248 0.6239 0.6397 0.6624
1305.000000 0.6852 0.7080 0.7268 0.7355 0.7414
1300.000000 0.7456 0.7489 0.7513 0.7540 0.7528
1295.000000 0.7526 0.7520 0.7475 0.7407 0.7333
1290.000000 0.7241 0.7061 0.6880 0.6700 0.6518
1285.000000 0.6337 0.6154 0.5973 0.5791 0.5611
1280.000000 0.5608 0.5640 0.5845 0.6089 0.6334
1275.000000 0.6580 0.6825 0.7072 0.7318 0.7565
1270.000000 0.7635 0.7658 0.7663 0.7667 0.7671
1265.000000 0.7679 0.7695 0.7734 0.7764 0.7792
1260.000000 0.7865 0.7839 0.7841 0.7834 0.7812
1255.000000 0.7790 0.7770 0.7750 0.7730 0.7708
1250.000000 0.7673 0.7632 0.7588 0.7525 0.7452
1245.000000 0.7355 0.7242 0.7049 0.6757 0.6711
1240.000000 0.6687 0.6699 0.6710 0.6724 0.6768
1235.000000 0.6813 0.6863 0.6912 0.6944 0.6960
1230.000000 0.6969 0.6973 0.6989 0.6966 0.6956
1225.000000 0.6946 0.6929 0.6912 0.6895 0.6895
1220.000000 0.6895 0.6898 0.6892 0.6873 0.6820
1215.000000 0.6739 0.6652 0.6570 0.6509 0.6460
1210.000000 0.6477 0.6481 0.6505 0.6557 0.6660
1205.000000 0.6792 0.6920 0.7012 0.7098 0.7194
1200.000000 0.7295 0.7380 0.7451 0.7431 0.7433
1195.000000 0.7406 0.7187 0.6690 0.6181 0.5672
1190.000000 0.5161 0.4323 0.4345 0.4364 0.4643
1185.000000 0.5013 0.5382 0.5734 0.5968 0.6127
1180.000000 0.6295 0.6394 0.6464 0.6527 0.6551
1175.000000 0.6574 0.6590 0.6596 0.6592 0.6570
1170.000000 0.6535 0.6498 0.6482 0.6471 0.6471
1165.000000 0.6489 0.6682 0.6889 0.7065 0.7239
1160.000000 0.7406 0.7549 0.7647 0.7737 0.7809
1155.000000 0.7868 0.7923 0.7974 0.8058 0.8012
1150.000000 0.8005 0.7994 0.7955 0.7877 0.7568
1145.000000 0.7127 0.6686 0.6244 0.5801 0.5357
1140.000000 0.4991 0.4940 0.4972 0.5161 0.5357
1135.000000 0.5483 0.5585 0.5679 0.5803 0.5938
1130.000000 0.6078 0.6219 0.6361 0.6499 0.6638
1125.000000 0.6784 0.7009 0.7234 0.7378 0.7521
1120.000000 0.7627 0.7720 0.7813 0.7895 0.7969
1115.000000 0.8037 0.8089 0.8139 0.8180 0.8219
1110.000000 0.8264 0.8310 0.8351 0.8388 0.8402
1105.000000 0.8417 0.8432 0.8446 0.8460 0.8473
1100.000000 0.8486 0.8499 0.8513 0.8525 0.8537
1095.000000 0.8550 0.8567 0.8584 0.8600 0.8617
1090.000000 0.8632 0.8644 0.8658 0.8663 0.8660
1085.000000 0.8658 0.8656 0.8656 0.8656 0.8660
1080.000000 0.8664 0.8668 0.8674 0.8678 0.8681
1075.000000 0.8687 0.8692 0.8702 0.8712 0.8721
1070.000000 0.8729 0.8739 0.8749 0.8759 0.8768
1065.000000 0.8779 0.8789 0.8798 0.8809 0.8810
1060.000000 0.8811 0.8805 0.8799 0.8798 0.8803
1055.000000 0.8808 0.8811 0.8816 0.8820 0.8824
1050.000000 0.8828 0.8832 0.8836 0.8839 0.8843
1045.000000 0.8846 0.8849 0.8849 0.8849 0.8848
1040.000000 0.8848 0.8847 0.8847 0.8847 0.8848
1035.000000 0.8852 0.8856 0.8860 0.8864 0.8869
1030.000000 0.8873 0.8879 0.8884 0.8891 0.8898
1025.000000 0.8905 0.8911 0.8917 0.8922 0.8927
1020.000000 0.8933 0.8939 0.8944 0.8948 0.8951
1015.000000 0.8953 0.8954 0.8952 0.8948 0.8945
1010.000000 0.8944 0.8956 0.8969 0.9000 0.9017
1005.000000 0.9023 0.9027 0.9032 0.9034 0.9034
1000.000000 0.9033 0.8934 0.8785 0.8662 0.8696
995.000000 0.8841 0.8985 0.9048 0.9048 0.9050
990.000000 0.9051 0.9051 0.9051 0.9051 0.9051
985.000000 0.9051 0.9050 0.9048 0.9071 0.9045
980.000000 0.9034 0.9024 0.8993 0.8947 0.8881
975.000000 0.8784 0.8667 0.8536 0.8411 0.8255
970.000000 0.8047 0.7678 0.7346 0.7014 0.6679
965.000000 0.6345 0.6010 0.5896 0.5971 0.6257
960.000000 0.6548 0.6645 0.6700 0.6756 0.6811
955.000000 0.6866 0.6922 0.6978 0.7034 0.7090
950.000000 0.7146 0.7202 0.7258 0.7315 0.7371
945.000000 0.7429 0.7485 0.7542 0.7598 0.8953
940.000000 0.7714 0.7770 0.7829 0.7885 0.7944
935.000000 0.8002 0.8059 0.8117 0.8176 0.8132
930.000000 0.7880 0.7651 0.7640 0.7648 0.7891
925.000000 0.8069 0.8249 0.8427 0.8559 0.8679
920.000000 0.8780 0.8861 0.8923 0.8990 0.9063
915.000000 0.9099 0.9131 0.9144 0.9156 0.9169
910.000000 0.9192 0.9211 0.9233 0.9245 0.9264
905.000000 0.9263 0.9268 0.9268 0.9268 0.9255
900.000000 0.9243 0.9205 0.9149 0.9052 0.8789
895.000000 0.8481 0.8174 0.7867 0.7559 0.7251
890.000000 0.6942 0.6631 0.6490 0.6527 0.6881
885.000000 0.7236 0.7592 0.7949 0.8307 0.8575
880.000000 0.8669 0.8709 0.8701 0.8718 0.8685
875.000000 0.8521 0.8174 0.7826 0.7644 0.7636
870.000000 0.7703 0.7897 0.7998 0.8007 0.7959
865.000000 0.7888 0.7794 0.7574 0.7247 0.6941
860.000000 0.6646 0.6631 0.7177 0.7911 0.8166
855.000000 0.8358 0.8534 0.8649 0.8763 0.8863
850.000000 0.8961 0.9031 0.9098 0.9142 0.9169
845.000000 0.9197 0.9228 0.9261 0.9290 0.9308
840.000000 0.9328 0.9343 0.9338 0.9335 0.9330
835.000000 0.9329 0.9329 0.9333 0.9337 0.9341
830.000000 0.9342 0.9342 0.9342 0.9342 0.9342
825.000000 0.9345 0.9350 0.9355 0.9360 0.9364
820.000000 0.9366 0.9368 0.9371 0.9372 0.9374
815.000000 0.9375 0.9376 0.9372 0.9369 0.9364
810.000000 0.9360 0.9354 0.9351 0.9347 0.9343
805.000000 0.9339 0.9335 0.9331 0.9327 0.9323
800.000000 0.9320 0.9316 0.9313 0.9312 0.9312
795.000000 0.9314 0.9315 0.9316 0.9318 0.9319
790.000000 0.9321 0.9323 0.9324 0.9324 0.9324
785.000000 0.9322 0.9320 0.9255 0.9316 0.9312
780.000000 0.9304 0.9283 0.9250 0.9217 0.9185
775.000000 0.9149 0.9105 0.9055 0.9007 0.8985
770.000000 0.8989 0.8993 0.9022 0.9055 0.9086
765.000000 0.9115 0.9146 0.9165 0.9175 0.9187
760.000000 0.9196 0.9205 0.9192 0.9212 0.9202
755.000000 0.9170 0.9102 0.8926 0.8566 0.8266
750.000000 0.8148 0.8040 0.7957 0.7798 0.7633
745.000000 0.7425 0.7003 0.6495 0.5985 0.5475
740.000000 0.5160 0.5162 0.5258 0.5496 0.5774
735.000000 0.6052 0.6331 0.6610 0.6890 0.7171
730.000000 0.7454 0.7719 0.7932 0.8101 0.8230
725.000000 0.8308 0.8365 0.8409 0.8444 0.8472
720.000000 0.8509 0.8460 0.8365 0.8370 0.8422
715.000000 0.8581 0.8690 0.8789 0.8881 0.8955
710.000000 0.9016 0.9050 0.9051 0.9053 0.9057
705.000000 0.9098 0.9127 0.9144 0.9143 0.9142
700.000000 0.9151 0.9161 0.9177 0.9174 0.9164
695.000000 0.9161 0.9166 0.9181 0.9193 0.9157
690.000000 0.9145 0.9144 0.9144 0.9133 0.9119
685.000000 0.9111 0.9115 0.9120 0.9117 0.9127
680.000000 0.9082 0.9067 0.9059 0.9054 0.9049
675.000000 0.9030 0.9003 0.8958 0.8906 0.8854
670.000000 0.8801 0.8747 0.8697 0.8660
##END=
