##TITLE=BIS-(2-HYDROXY-3,5,6-TRICHLOROPHENYL)METHANE
##JCAMP-DX=4.24
##DATA TYPE=INFRARED SPECTRUM
##CLASS=COBLENTZ
##ORIGIN=WYANDOTTE CHEMICALS CORP., WYANDOTTE, MICHIGAN, USA
##OWNER=COBLENTZ SOCIETY
Collection (C) 2018 copyright by the U.S. Secretary of Commerce
on behalf of the United States of America. All rights reserved.
##DATE=Not specified, most likely prior to 1970
##CAS REGISTRY NO=70-30-4
##MOLFORM=C13 H6 Cl6 O2
##SOURCE REFERENCE=COBLENTZ NO. 1322
##$NIST SOURCE=COBLENTZ
##$NIST IMAGE=cob1322
##SPECTROMETER/DATA SYSTEM=Not specified, most likely a prism, grating, or hybrid spectrometer.
##STATE=SOLID (MINERAL OIL MULL)
##SAMPLING PROCEDURE=TRANSMISSION
##RESOLUTION=4
##DATA PROCESSING=DIGITIZED BY NIST FROM HARD COPY
##XUNITS=MICROMETERS
##YUNITS=TRANSMITTANCE
##XFACTOR=1.000000
##YFACTOR=1
##DELTAX=000.006803
##FIRSTX=2.02
##LASTX=15.9864
##FIRSTY=0.219
##MAXX=15.9864
##MINX=2.02
##MAXY=0.956
##MINY=0.027
##NPOINTS=2054
##XYDATA=(X++(Y..Y))
2.020000 0.2190 0.2250 0.2250 0.2250 0.2280
2.054030 0.2280 0.2300 0.2350 0.2400 0.2450
2.088000 0.2500 0.2520 0.2500 0.2500 0.2520
2.122030 0.2550 0.2600 0.2650 0.2690 0.2720
2.156000 0.2740 0.2720 0.2700 0.2700 0.2700
2.190030 0.2700 0.2700 0.2700 0.2700 0.2700
2.224000 0.2720 0.2740 0.2740 0.2750 0.2770
2.258030 0.2790 0.2840 0.2870 0.2940 0.3010
2.293000 0.3020 0.3040 0.3070 0.3110 0.3140
2.327030 0.3160 0.3180 0.3190 0.3190 0.3210
2.361000 0.3230 0.3240 0.3280 0.3290 0.3310
2.395030 0.3330 0.3350 0.3380 0.3380 0.3400
2.429000 0.3430 0.3450 0.3450 0.3480 0.3550
2.463030 0.3550 0.3510 0.3510 0.3480 0.3480
2.497000 0.3480 0.3530 0.3600 0.3630 0.3670
2.531030 0.3680 0.3700 0.3700 0.3730 0.3750
2.565000 0.3770 0.3790 0.3820 0.3850 0.3900
2.599030 0.3970 0.4010 0.4060 0.4070 0.4110
2.633000 0.4140 0.4160 0.4190 0.4230 0.4240
2.667030 0.4260 0.4290 0.4310 0.4330 0.4360
2.701000 0.4390 0.4430 0.4460 0.4510 0.4550
2.735030 0.4580 0.4600 0.4630 0.4720 0.4830
2.769000 0.4940 0.5020 0.5120 0.5190 0.5220
2.803030 0.5240 0.5270 0.5240 0.4210 0.3620
2.837000 0.3090 0.2470 0.1570 0.1010 0.0990
2.871030 0.1010 0.1310 0.1520 0.1860 0.2080
2.905000 0.2520 0.2570 0.2800 0.2960 0.3090
2.939030 0.3210 0.3330 0.3400 0.3460 0.3500
2.973000 0.3550 0.3620 0.3680 0.3770 0.3850
3.007030 0.3940 0.4010 0.4070 0.4110 0.4170
3.041000 0.4170 0.4190 0.4190 0.4190 0.4190
3.075030 0.4190 0.4190 0.4190 0.4190 0.4190
3.109000 0.4170 0.4170 0.4160 0.4140 0.4140
3.143030 0.4120 0.4110 0.4090 0.4070 0.4070
3.177000 0.4060 0.4040 0.4040 0.4020 0.4010
3.211030 0.3990 0.3990 0.3940 0.3920 0.3850
3.245000 0.3750 0.3410 0.3400 0.3430 0.3500
3.279030 0.3570 0.3530 0.3480 0.3350 0.3240
3.313000 0.3040 0.2990 0.2360 0.2110 0.1570
3.347030 0.1300 0.0820 0.0540 0.0300 0.0270
3.381000 0.0270 0.0270 0.0270 0.0270 0.0280
3.415030 0.0300 0.0320 0.0350 0.0380 0.0420
3.449000 0.0470 0.0490 0.0570 0.0600 0.0600
3.483030 0.0600 0.0590 0.0570 0.0570 0.0570
3.517000 0.0600 0.1330 0.1700 0.2400 0.3850
3.551030 0.4510 0.5160 0.5460 0.5540 0.5630
3.585000 0.5730 0.5850 0.5950 0.6040 0.6090
3.619030 0.6100 0.6100 0.6100 0.6070 0.6050
3.653000 0.6050 0.6020 0.6020 0.6020 0.6020
3.687030 0.6020 0.6020 0.6050 0.6070 0.6100
3.721000 0.6150 0.6170 0.6170 0.6190 0.6190
3.755030 0.6200 0.6200 0.6220 0.6270 0.6310
3.789000 0.6340 0.6370 0.6390 0.6410 0.6390
3.823030 0.6410 0.6420 0.6460 0.6490 0.6540
3.857000 0.6590 0.6610 0.6610 0.6590 0.6540
3.891030 0.6510 0.6510 0.6510 0.6540 0.6710
3.925000 0.6700 0.6640 0.6640 0.6660 0.6680
3.959030 0.6710 0.6760 0.6800 0.6810 0.6830
3.993000 0.6860 0.6860 0.6880 0.6900 0.6900
4.027030 0.6900 0.6920 0.6930 0.6970 0.7000
4.061000 0.7020 0.7000 0.7000 0.7000 0.7000
4.095030 0.7000 0.7000 0.7020 0.7020 0.7030
4.129000 0.7030 0.7050 0.7050 0.7050 0.7080
4.163030 0.7140 0.7190 0.7220 0.7240 0.7240
4.197000 0.7200 0.7200 0.7190 0.7190 0.7190
4.231030 0.7190 0.7190 0.7190 0.7190 0.7190
4.265000 0.7190 0.7200 0.7220 0.7250 0.7270
4.299030 0.7300 0.7340 0.7410 0.7460 0.7470
4.333000 0.7490 0.7510 0.7520 0.7560 0.7630
4.367030 0.7630 0.7640 0.7680 0.7680 0.7680
4.401000 0.7660 0.7660 0.7660 0.7660 0.7680
4.435030 0.7680 0.7680 0.7680 0.7690 0.7690
4.469000 0.7710 0.7730 0.7740 0.7760 0.7780
4.503030 0.7800 0.7810 0.7830 0.7830 0.7830
4.537000 0.7850 0.7850 0.7850 0.7850 0.7860
4.571030 0.7860 0.7880 0.7900 0.7910 0.7930
4.605000 0.7950 0.7960 0.7960 0.7960 0.7980
4.639030 0.7980 0.7980 0.8000 0.8000 0.8000
4.673000 0.8000 0.8020 0.8050 0.8100 0.8130
4.707030 0.8170 0.8180 0.8180 0.8200 0.8220
4.741000 0.8240 0.8240 0.8240 0.8240 0.8250
4.775030 0.8250 0.8250 0.8250 0.8270 0.8270
4.810000 0.8270 0.8270 0.8270 0.8270 0.8270
4.844030 0.8270 0.8270 0.8290 0.8290 0.8290
4.878000 0.8300 0.8300 0.8300 0.8320 0.8320
4.912030 0.8320 0.8340 0.8350 0.8370 0.8370
4.946000 0.8390 0.8400 0.8400 0.8420 0.8420
4.980030 0.8440 0.8460 0.8460 0.8470 0.8470
5.014000 0.8460 0.8460 0.8470 0.8470 0.8470
5.048030 0.8490 0.8510 0.8520 0.8560 0.8560
5.082000 0.8560 0.8570 0.8620 0.8680 0.8710
5.116030 0.8710 0.8730 0.8730 0.8730 0.8740
5.150000 0.8740 0.8740 0.8760 0.8760 0.8760
5.184030 0.8760 0.8790 0.8790 0.8810 0.8810
5.218000 0.8830 0.8840 0.8840 0.8860 0.8860
5.252030 0.8880 0.8880 0.8910 0.8930 0.8930
5.286000 0.8950 0.8960 0.8960 0.8980 0.9000
5.320030 0.9000 0.9010 0.9030 0.9030 0.9050
5.354000 0.9050 0.9050 0.9060 0.9060 0.9080
5.388030 0.9080 0.9080 0.9100 0.9100 0.9120
5.422000 0.9120 0.9120 0.9120 0.9130 0.9130
5.456030 0.9130 0.9130 0.9150 0.9150 0.9150
5.490000 0.9170 0.9170 0.9170 0.9150 0.9150
5.524030 0.9170 0.9170 0.9170 0.9170 0.9170
5.558000 0.9170 0.9180 0.9200 0.9200 0.9220
5.592030 0.9220 0.9230 0.9230 0.9250 0.9250
5.626000 0.9270 0.9270 0.9270 0.9280 0.9280
5.660030 0.9300 0.9300 0.9300 0.9320 0.9320
5.694000 0.9320 0.9320 0.9320 0.9300 0.9280
5.728030 0.9280 0.9250 0.9220 0.9180 0.9130
5.762000 0.9060 0.8980 0.8900 0.8780 0.8620
5.796030 0.8130 0.8020 0.7980 0.8020 0.8340
5.830000 0.8520 0.8690 0.8840 0.8930 0.9000
5.864030 0.9050 0.9150 0.9280 0.9320 0.9320
5.898000 0.9300 0.9280 0.9280 0.9280 0.9340
5.932030 0.9370 0.9370 0.9340 0.9180 0.9180
5.966000 0.9200 0.9320 0.9340 0.9340 0.9340
6.000030 0.9200 0.9200 0.9200 0.9200 0.9250
6.034000 0.9300 0.9320 0.9320 0.9340 0.9340
6.068030 0.9340 0.9340 0.9340 0.9320 0.9320
6.102000 0.9320 0.9320 0.9320 0.9300 0.9300
6.136030 0.9280 0.9280 0.9270 0.9250 0.9230
6.170000 0.9220 0.9200 0.9180 0.9150 0.9130
6.204030 0.9080 0.9050 0.9000 0.8950 0.8880
6.238000 0.8790 0.8680 0.8560 0.8420 0.8200
6.272030 0.7880 0.7390 0.6700 0.5970 0.5870
6.306000 0.5880 0.5900 0.6090 0.6260 0.6460
6.340030 0.6700 0.6880 0.7170 0.7520 0.7760
6.374000 0.7960 0.7980 0.7960 0.8050 0.8490
6.408030 0.8830 0.8840 0.8900 0.8930 0.8960
6.442000 0.9030 0.9100 0.9200 0.9300 0.9370
6.476030 0.9370 0.9390 0.9390 0.9320 0.9280
6.510000 0.9250 0.9220 0.9220 0.9200 0.9200
6.544030 0.9200 0.9180 0.9180 0.9150 0.9100
6.578000 0.9060 0.9010 0.8910 0.8840 0.8810
6.612030 0.8760 0.8760 0.8710 0.8640 0.8520
6.646000 0.8470 0.8350 0.8200 0.8030 0.7850
6.680030 0.7640 0.7460 0.7270 0.7100 0.6930
6.714000 0.6730 0.6530 0.6290 0.5980 0.5610
6.748030 0.5160 0.4020 0.3650 0.2910 0.2570
6.782000 0.2480 0.2230 0.2110 0.2060 0.2030
6.816030 0.1970 0.1820 0.1550 0.1090 0.0770
6.850000 0.0570 0.0540 0.0470 0.0400 0.0400
6.884030 0.0380 0.0370 0.0380 0.0490 0.0570
6.918000 0.0810 0.1160 0.1550 0.1940 0.2230
6.952030 0.2700 0.3110 0.3450 0.3790 0.4090
6.986000 0.4430 0.4820 0.5050 0.5270 0.5800
7.020030 0.6070 0.6590 0.6680 0.6680 0.6630
7.054000 0.6140 0.5800 0.5260 0.3950 0.3530
7.088030 0.2790 0.1820 0.1770 0.1770 0.1990
7.122000 0.3230 0.3630 0.3900 0.3940 0.3970
7.156030 0.3970 0.3650 0.3620 0.3510 0.3380
7.190000 0.3330 0.3350 0.3620 0.3620 0.3630
7.224030 0.3630 0.3600 0.3570 0.3580 0.4040
7.259000 0.4650 0.4900 0.5140 0.5490 0.5750
7.293030 0.5900 0.6040 0.6140 0.6310 0.6530
7.327000 0.6780 0.7120 0.7270 0.7410 0.7440
7.361030 0.7460 0.7490 0.7560 0.7640 0.7710
7.395000 0.7760 0.7810 0.7850 0.7880 0.7910
7.429030 0.7910 0.7900 0.7800 0.7780 0.7800
7.463000 0.7910 0.8000 0.8120 0.8130 0.8130
7.497030 0.8120 0.7980 0.7900 0.7780 0.7740
7.531000 0.7660 0.7610 0.7420 0.7140 0.6680
7.565030 0.6070 0.5240 0.4500 0.2740 0.1970
7.599000 0.1960 0.1990 0.3020 0.4330 0.4670
7.633030 0.5000 0.5390 0.5700 0.5900 0.6070
7.667000 0.6100 0.6100 0.6090 0.5920 0.5750
7.701030 0.5430 0.5070 0.4010 0.3400 0.2840
7.735000 0.2350 0.1910 0.1640 0.1400 0.0990
7.769030 0.0790 0.0770 0.0770 0.1130 0.1740
7.803000 0.2470 0.3210 0.3840 0.4360 0.4850
7.837030 0.4950 0.5040 0.5210 0.5360 0.5530
7.871000 0.5580 0.5580 0.5870 0.6000 0.6200
7.905030 0.6460 0.6640 0.6730 0.6800 0.6920
7.939000 0.7000 0.7020 0.7000 0.7000 0.6900
7.973030 0.6710 0.6680 0.6680 0.6710 0.6760
8.007000 0.6810 0.6830 0.6830 0.6810 0.6760
8.041030 0.6700 0.6640 0.6610 0.6560 0.6490
8.075000 0.6310 0.6090 0.5800 0.5460 0.5090
8.109030 0.4360 0.4070 0.3850 0.3530 0.3310
8.143000 0.3020 0.2700 0.2230 0.2210 0.2230
8.177030 0.2260 0.2280 0.2230 0.2110 0.2040
8.211000 0.1970 0.1990 0.2330 0.2570 0.2990
8.245030 0.3350 0.3720 0.4060 0.4340 0.4580
8.279000 0.4820 0.4920 0.5020 0.5210 0.5380
8.313030 0.5430 0.5430 0.5380 0.5120 0.4340
8.347000 0.3380 0.2850 0.2140 0.1450 0.0810
8.381030 0.0720 0.0720 0.0810 0.1300 0.1700
8.415000 0.2350 0.2740 0.2910 0.3040 0.3180
8.449030 0.3310 0.3500 0.3720 0.3950 0.4210
8.483000 0.4500 0.4780 0.4920 0.5050 0.5290
8.517030 0.5490 0.5880 0.6050 0.6240 0.6370
8.551000 0.6530 0.6640 0.6780 0.6900 0.7020
8.585030 0.7020 0.7120 0.7170 0.7290 0.7410
8.619000 0.7440 0.7520 0.7590 0.7640 0.7680
8.653030 0.7680 0.7680 0.7520 0.7290 0.7120
8.687000 0.6730 0.6220 0.5600 0.4280 0.3620
8.721030 0.2910 0.1910 0.1620 0.1400 0.1350
8.755000 0.1350 0.1400 0.1520 0.1640 0.1750
8.789030 0.1810 0.1890 0.1990 0.2060 0.2180
8.823000 0.2480 0.2910 0.3410 0.3950 0.4500
8.857030 0.4750 0.5000 0.5410 0.5660 0.5830
8.891000 0.6100 0.6440 0.6750 0.6980 0.7070
8.925030 0.7240 0.7390 0.7490 0.7560 0.7630
8.959000 0.7730 0.7800 0.7830 0.7860 0.7900
8.993030 0.7910 0.7930 0.7960 0.8070 0.8080
9.027000 0.8100 0.8120 0.8130 0.8130 0.8130
9.061030 0.8130 0.8130 0.8130 0.8150 0.8150
9.095000 0.8150 0.8150 0.8150 0.8170 0.8170
9.129030 0.8180 0.8180 0.8180 0.8180 0.8180
9.163000 0.8180 0.8180 0.8180 0.8180 0.8180
9.197030 0.8200 0.8200 0.8200 0.8220 0.8220
9.231000 0.8220 0.8240 0.8240 0.8240 0.8250
9.265030 0.8250 0.8250 0.8250 0.8250 0.8270
9.299000 0.8290 0.8320 0.8350 0.8390 0.8440
9.333030 0.8490 0.8510 0.8510 0.8510 0.8510
9.367000 0.8540 0.8560 0.8570 0.8660 0.8680
9.401030 0.8690 0.8690 0.8710 0.8710 0.8730
9.435000 0.8730 0.8740 0.8760 0.8790 0.8810
9.469030 0.8830 0.8830 0.8830 0.8830 0.8810
9.503000 0.8810 0.8790 0.8780 0.8760 0.8740
9.537030 0.8730 0.8730 0.8690 0.8640 0.8640
9.571000 0.8610 0.8610 0.8590 0.8590 0.8570
9.605030 0.8570 0.8560 0.8560 0.8560 0.8560
9.639000 0.8590 0.8610 0.8610 0.8620 0.8620
9.673030 0.8640 0.8640 0.8680 0.8680 0.8730
9.707000 0.8740 0.8740 0.8760 0.8780 0.8810
9.741030 0.8840 0.8900 0.8930 0.8950 0.8950
9.776000 0.8960 0.8980 0.9010 0.9030 0.9050
9.810030 0.9060 0.9080 0.9100 0.9120 0.9130
9.844000 0.9130 0.9150 0.9150 0.9180 0.9180
9.878030 0.9200 0.9200 0.9200 0.9220 0.9230
9.912000 0.9250 0.9280 0.9320 0.9340 0.9340
9.946030 0.9340 0.9350 0.9370 0.9370 0.9390
9.980000 0.9420 0.9440 0.9470 0.9500 0.9500
10.014030 0.9520 0.9560 0.9560 0.9560 0.9560
10.048000 0.9560 0.9560 0.9540 0.9520 0.9500
10.082030 0.9490 0.9470 0.9450 0.9390 0.9340
10.116000 0.9320 0.9270 0.9270 0.9220 0.9220
10.150030 0.9180 0.9130 0.9120 0.9100 0.9100
10.184000 0.9100 0.9080 0.9060 0.9050 0.9010
10.218030 0.9000 0.9000 0.8960 0.8950 0.8900
10.252000 0.8860 0.8830 0.8790 0.8730 0.8660
10.286030 0.8560 0.8440 0.8270 0.8030 0.7880
10.320000 0.7640 0.7320 0.6950 0.6510 0.6000
10.354030 0.5460 0.4240 0.3720 0.3090 0.2690
10.388000 0.2300 0.1860 0.1820 0.1860 0.2030
10.422030 0.2130 0.2280 0.2450 0.2650 0.2870
10.456000 0.3070 0.3240 0.3380 0.3450 0.3580
10.490030 0.3770 0.4040 0.4330 0.4650 0.4940
10.524000 0.5020 0.5090 0.5340 0.5560 0.5900
10.558030 0.6270 0.6440 0.6560 0.6700 0.6750
10.592000 0.7020 0.7290 0.7420 0.7510 0.7730
10.626030 0.7830 0.7880 0.7950 0.7980 0.8050
10.660000 0.8170 0.8180 0.8170 0.8130 0.8050
10.694030 0.8000 0.7930 0.7830 0.7680 0.7440
10.728000 0.7080 0.6810 0.6240 0.5820 0.5480
10.762030 0.4450 0.4260 0.4260 0.4280 0.4510
10.796000 0.4680 0.4890 0.4950 0.5020 0.5170
10.830030 0.5390 0.5490 0.6120 0.6360 0.6710
10.864000 0.7000 0.7220 0.7470 0.7680 0.7880
10.898030 0.7980 0.8030 0.8120 0.8240 0.8390
10.932000 0.8540 0.8680 0.8760 0.8830 0.8900
10.966030 0.8930 0.8980 0.9010 0.9080 0.9130
11.000000 0.9180 0.9220 0.9230 0.9270 0.9280
11.034030 0.9300 0.9340 0.9340 0.9300 0.9250
11.068000 0.9220 0.9200 0.9180 0.9180 0.9180
11.102030 0.9130 0.9120 0.9120 0.9100 0.9060
11.136000 0.8980 0.8840 0.8640 0.8320 0.7880
11.170030 0.7290 0.7020 0.6710 0.6420 0.6390
11.204000 0.3430 0.3070 0.2740 0.2380 0.2360
11.238030 0.2400 0.2360 0.2920 0.3530 0.4330
11.272000 0.4780 0.5210 0.5630 0.5850 0.6290
11.306030 0.6390 0.6440 0.7100 0.7220 0.7490
11.340000 0.7660 0.7780 0.7850 0.8070 0.8080
11.374030 0.8150 0.8240 0.8320 0.8350 0.8390
11.408000 0.8440 0.8520 0.8620 0.8730 0.8730
11.442030 0.8730 0.8690 0.8660 0.8660 0.8590
11.476000 0.8340 0.8170 0.8020 0.7860 0.7610
11.510030 0.7250 0.6710 0.6460 0.5950 0.5360
11.544000 0.4070 0.4060 0.4070 0.4430 0.4870
11.578030 0.5170 0.5460 0.5800 0.6140 0.6480
11.612000 0.6810 0.7150 0.7270 0.7270 0.7200
11.646030 0.6920 0.6560 0.6170 0.5730 0.5040
11.680000 0.3800 0.3180 0.2480 0.2470 0.2500
11.714030 0.3040 0.3700 0.3850 0.4630 0.5410
11.748000 0.6370 0.6660 0.7070 0.7440 0.7680
11.782030 0.7900 0.7980 0.8080 0.8340 0.8440
11.816000 0.8560 0.8620 0.8680 0.8740 0.8830
11.850030 0.8840 0.8860 0.8910 0.8960 0.9010
11.884000 0.9010 0.9030 0.9050 0.9060 0.9080
11.918030 0.9120 0.9150 0.9170 0.9180 0.9200
11.952000 0.9220 0.9220 0.9250 0.9250 0.9270
11.986030 0.9270 0.9270 0.9270 0.9270 0.9270
12.020000 0.9250 0.9250 0.9270 0.9270 0.9270
12.054030 0.9270 0.9270 0.9270 0.9230 0.9230
12.088000 0.9230 0.9230 0.9230 0.9230 0.9230
12.122030 0.9230 0.9230 0.9230 0.9230 0.9230
12.156000 0.9230 0.9230 0.9230 0.9230 0.9230
12.190030 0.9230 0.9230 0.9230 0.9220 0.9220
12.224000 0.9220 0.9220 0.9200 0.9200 0.9200
12.258030 0.9200 0.9200 0.9180 0.9180 0.9180
12.293000 0.9180 0.9180 0.9180 0.9180 0.9180
12.327030 0.9180 0.9180 0.9170 0.9170 0.9170
12.361000 0.9150 0.9150 0.9130 0.9130 0.9130
12.395030 0.9120 0.9120 0.9120 0.9120 0.9120
12.429000 0.9120 0.9130 0.9130 0.9130 0.9130
12.463030 0.9150 0.9150 0.9150 0.9150 0.9150
12.497000 0.9150 0.9150 0.9130 0.9130 0.9130
12.531030 0.9130 0.9130 0.9120 0.9120 0.9120
12.565000 0.9100 0.9100 0.9100 0.9100 0.9100
12.599030 0.9100 0.9100 0.9100 0.9080 0.9080
12.633000 0.9080 0.9080 0.9080 0.9060 0.9050
12.667030 0.9030 0.9010 0.9000 0.8980 0.8980
12.701000 0.8980 0.8980 0.9000 0.9000 0.9000
12.735030 0.9000 0.9000 0.9000 0.9010 0.9010
12.769000 0.9010 0.9010 0.9010 0.9030 0.9030
12.803030 0.9030 0.9030 0.9030 0.9010 0.9010
12.837000 0.9000 0.8980 0.8980 0.8960 0.8960
12.871030 0.8960 0.8930 0.8930 0.8910 0.8900
12.905000 0.8880 0.8840 0.8830 0.8810 0.8810
12.939030 0.8780 0.8760 0.8740 0.8710 0.8620
12.973000 0.8560 0.8390 0.8130 0.8080 0.8080
13.007030 0.8080 0.8080 0.8080 0.8130 0.8300
13.041000 0.8320 0.8390 0.8490 0.8610 0.8680
13.075030 0.8690 0.8690 0.8730 0.8740 0.8760
13.109000 0.8760 0.8790 0.8810 0.8810 0.8810
13.143030 0.8810 0.8810 0.8810 0.8810 0.8790
13.177000 0.8760 0.8740 0.8710 0.8690 0.8660
13.211030 0.8620 0.8570 0.8510 0.8440 0.8340
13.245000 0.8220 0.8050 0.7880 0.7660 0.7390
13.279030 0.7080 0.7000 0.6760 0.6260 0.5530
13.313000 0.5410 0.5040 0.5000 0.4820 0.4770
13.347030 0.4750 0.4720 0.4680 0.4610 0.4430
13.381000 0.4210 0.3840 0.3350 0.2850 0.2520
13.415030 0.2260 0.2010 0.1990 0.1940 0.1740
13.449000 0.1520 0.1500 0.1530 0.1770 0.2040
13.483030 0.2130 0.2620 0.2890 0.3090 0.3630
13.517000 0.3920 0.4140 0.4260 0.4890 0.4970
13.551030 0.5120 0.5260 0.5360 0.5490 0.5580
13.585000 0.5660 0.5780 0.5920 0.6040 0.6150
13.619030 0.6240 0.6310 0.6360 0.6390 0.6440
13.653000 0.6480 0.6490 0.6510 0.6540 0.6590
13.687030 0.6630 0.6660 0.6680 0.6700 0.6710
13.721000 0.6710 0.6730 0.6750 0.6760 0.6760
13.755030 0.6780 0.6800 0.6810 0.6850 0.6880
13.789000 0.6900 0.6930 0.6930 0.6970 0.6980
13.823030 0.7020 0.7020 0.7050 0.7100 0.7140
13.857000 0.7190 0.7190 0.7190 0.7170 0.7150
13.891030 0.7150 0.7140 0.7120 0.6980 0.6860
13.925000 0.6830 0.6830 0.6810 0.6830 0.6920
13.959030 0.6970 0.7070 0.7170 0.7270 0.7410
13.993000 0.7520 0.7660 0.7780 0.7910 0.8020
14.027030 0.8130 0.8220 0.8290 0.8340 0.8350
14.061000 0.8400 0.8460 0.8510 0.8570 0.8660
14.095030 0.8730 0.8760 0.8780 0.8790 0.8860
14.129000 0.8860 0.8880 0.8900 0.8910 0.8950
14.163030 0.8960 0.8980 0.9000 0.9010 0.9030
14.197000 0.9030 0.9030 0.9050 0.9050 0.9060
14.231030 0.9060 0.9080 0.9100 0.9100 0.9100
14.265000 0.9100 0.9120 0.9120 0.9130 0.9130
14.299030 0.9130 0.9150 0.9150 0.9150 0.9130
14.333000 0.9130 0.9130 0.9130 0.9130 0.9150
14.367030 0.9170 0.9170 0.9180 0.9180 0.9180
14.401000 0.9180 0.9180 0.9150 0.9130 0.9120
14.435030 0.9120 0.9120 0.9120 0.9120 0.9130
14.469000 0.9130 0.9150 0.9150 0.9150 0.9120
14.503030 0.9060 0.9010 0.9000 0.9000 0.9000
14.537000 0.9000 0.9000 0.8980 0.8980 0.8950
14.571030 0.8930 0.8900 0.8900 0.8880 0.8860
14.605000 0.8860 0.8860 0.8860 0.8840 0.8840
14.639030 0.8830 0.8810 0.8810 0.8780 0.8740
14.673000 0.8740 0.8730 0.8710 0.8710 0.8660
14.707030 0.8640 0.8620 0.8620 0.8610 0.8610
14.741000 0.8590 0.8590 0.8560 0.8520 0.8510
14.775030 0.8490 0.8470 0.8460 0.8420 0.8400
14.810000 0.8370 0.8340 0.8320 0.8290 0.8240
14.844030 0.8200 0.8170 0.8120 0.8070 0.8030
14.878000 0.7980 0.7910 0.7860 0.7800 0.7730
14.912030 0.7660 0.7610 0.7540 0.7470 0.7410
14.946000 0.7340 0.7270 0.7190 0.7100 0.7020
14.980030 0.6930 0.6920 0.6880 0.6760 0.6660
15.014000 0.6610 0.6530 0.6480 0.6460 0.6460
15.048030 0.6530 0.6590 0.6640 0.6730 0.6860
15.082000 0.6980 0.7080 0.7190 0.7290 0.7370
15.116030 0.7460 0.7520 0.7590 0.7640 0.7710
15.150000 0.7740 0.7740 0.7690 0.7640 0.7610
15.184030 0.7590 0.7560 0.7540 0.7490 0.7460
15.218000 0.7420 0.7410 0.7370 0.7340 0.7290
15.252030 0.7250 0.7240 0.7220 0.7200 0.7190
15.286000 0.7190 0.7170 0.7170 0.7150 0.7140
15.320030 0.7140 0.7100 0.7080 0.7080 0.7050
15.354000 0.7020 0.7020 0.6980 0.6980 0.6980
15.388030 0.6980 0.7000 0.7000 0.6970 0.6970
15.422000 0.6920 0.6860 0.6830 0.6800 0.6760
15.456030 0.6750 0.6730 0.6700 0.6680 0.6660
15.490000 0.6640 0.6590 0.6580 0.6560 0.6560
15.524030 0.6540 0.6540 0.6530 0.6530 0.6490
15.558000 0.6460 0.6440 0.6420 0.6410 0.6370
15.592030 0.6340 0.6310 0.6290 0.6270 0.6240
15.626000 0.6240 0.6220 0.6190 0.6120 0.6090
15.660030 0.6050 0.6040 0.6000 0.5980 0.5970
15.694000 0.5970 0.5950 0.5930 0.5900 0.5830
15.728030 0.5820 0.5730 0.5700 0.5700 0.5660
15.762000 0.5630 0.5600 0.5540 0.5490 0.5440
15.796030 0.5390 0.5320 0.5310 0.5240 0.5190
15.830000 0.5140 0.5090 0.5040 0.4900 0.4830
15.864030 0.4770 0.4700 0.4600 0.4560 0.4530
15.898000 0.4500 0.4430 0.4380 0.4330 0.4290
15.932030 0.4260 0.4260 0.4230 0.4230 0.4230
15.966000 0.4230 0.4230 0.4230 0.4230
##END=
