##TITLE=p-TOLUENESULFONAMIDE
##JCAMP-DX=4.24
$$ By DXEDIT 1.05 (RS McDonald)
##DATA TYPE=INFRARED SPECTRUM
##CLASS=COBLENTZ III
##ORIGIN=DOW CHEMICAL COMPANY
##OWNER=COBLENTZ SOC.
Collection (C) 2018 copyright by the U.S. Secretary of Commerce
on behalf of the United States of America. All rights reserved.
##DATE=1964/02/12
##NAMES=4-methylbenzenesulfonamide
##CAS REGISTRY NO=70-55-3
##MOLFORM=C7 H9 N O2 S
##SOURCE REFERENCE=COBLENTZ NO. 05776
##$NIST SOURCE=COBLENTZ
##$NIST IMAGE=cob5776
##SPECTROMETER/DATA SYSTEM=DOW KBr FOREPRISM-GRATING
##INSTRUMENT PARAMETERS=BLAZED AT 3.5, 12.0, 20.0 MICRON AND CHANGED AT 5.0, 7.5, 14.9 MICRON
##STATE=SOLID (SPLIT MULL)
$$ THE SPLT IN THE SPECTRAL FEATURE AT 632 CM^-^1 IS AN ARTIFACT CAUSED BY GRATING CHANGE
$$ SPECTRAL FEATURE AT 1995 CM^-^1 IS PROBABLY AN ARTIFACT CAUSED BY GRATING CHANGE
##SAMPLING PROCEDURE=TRANSMISSION
##RESOLUTION=2
##DATA PROCESSING=DIGITIZED BY COBLENTZ SOCIETY (BATCH I) FROM HARD COPY
##XUNITS=1/CM
##YUNITS=TRANSMITTANCE
##XLABEL=Wavenumbers (cm-1)
##YLABEL=% Transmission
##XFACTOR=1
##YFACTOR=1
##DELTAX=1
##FIRSTX=3800
##LASTX=452
##FIRSTY=0.4398
##MAXX=3800
##MINX=452
##MAXY=0.9666
##MINY=0.0064
##NPOINTS=3349
##XYDATA=(X++(Y..Y))
3800.000000 0.4398 0.4400 0.4402 0.4406 0.4410
3795.000000 0.4414 0.4419 0.4423 0.4427 0.4431
3790.000000 0.4435 0.4439 0.4444 0.4448 0.4452
3785.000000 0.4455 0.4458 0.4459 0.4460 0.4462
3780.000000 0.4465 0.4467 0.4469 0.4473 0.4477
3775.000000 0.4481 0.4485 0.4489 0.4494 0.4498
3770.000000 0.4502 0.4506 0.4510 0.4514 0.4518
3765.000000 0.4522 0.4527 0.4531 0.4535 0.4539
3760.000000 0.4543 0.4547 0.4552 0.4556 0.4560
3755.000000 0.4565 0.4570 0.4576 0.4583 0.4589
3750.000000 0.4595 0.4601 0.4607 0.4612 0.4620
3745.000000 0.4626 0.4632 0.4638 0.4645 0.4652
3740.000000 0.4659 0.4665 0.4672 0.4678 0.4684
3735.000000 0.4688 0.4693 0.4697 0.4702 0.4706
3730.000000 0.4710 0.4715 0.4720 0.4724 0.4729
3725.000000 0.4735 0.4741 0.4747 0.4754 0.4760
3720.000000 0.4766 0.4771 0.4777 0.4778 0.4779
3715.000000 0.4780 0.4781 0.4782 0.4782 0.4782
3710.000000 0.4781 0.4779 0.4778 0.4777 0.4776
3705.000000 0.4774 0.4773 0.4772 0.4771 0.4769
3700.000000 0.4768 0.4767 0.4766 0.4765 0.4764
3695.000000 0.4764 0.4765 0.4765 0.4765 0.4765
3690.000000 0.4766 0.4766 0.4766 0.4766 0.4767
3685.000000 0.4770 0.4773 0.4777 0.4782 0.4786
3680.000000 0.4790 0.4794 0.4799 0.4803 0.4807
3675.000000 0.4814 0.4822 0.4831 0.4840 0.4848
3670.000000 0.4857 0.4866 0.4875 0.4883 0.4892
3665.000000 0.4901 0.4910 0.4918 0.4927 0.4932
3660.000000 0.4938 0.4937 0.4936 0.4935 0.4934
3655.000000 0.4933 0.4932 0.4929 0.4927 0.4920
3650.000000 0.4914 0.4908 0.4902 0.4896 0.4890
3645.000000 0.4892 0.4895 0.4900 0.4905 0.4910
3640.000000 0.4915 0.4920 0.4925 0.4930 0.4936
3635.000000 0.4941 0.4946 0.4951 0.4956 0.4962
3630.000000 0.4968 0.4973 0.4979 0.4984 0.4990
3625.000000 0.4995 0.5001 0.5002 0.5004 0.5005
3620.000000 0.5006 0.5007 0.5008 0.5009 0.5010
3615.000000 0.5010 0.5012 0.5015 0.5018 0.5021
3610.000000 0.5025 0.5028 0.5032 0.5035 0.5039
3605.000000 0.5042 0.5045 0.5048 0.5052 0.5055
3600.000000 0.5059 0.5062 0.5068 0.5072 0.5077
3595.000000 0.5081 0.5086 0.5090 0.5095 0.5099
3590.000000 0.5104 0.5108 0.5112 0.5117 0.5122
3585.000000 0.5126 0.5130 0.5134 0.5139 0.5143
3580.000000 0.5148 0.5153 0.5159 0.5164 0.5169
3575.000000 0.5174 0.5179 0.5184 0.5189 0.5194
3570.000000 0.5199 0.5204 0.5209 0.5215 0.5221
3565.000000 0.5227 0.5233 0.5239 0.5245 0.5251
3560.000000 0.5258 0.5264 0.5270 0.5276 0.5282
3555.000000 0.5288 0.5294 0.5299 0.5305 0.5310
3550.000000 0.5315 0.5319 0.5324 0.5328 0.5332
3545.000000 0.5336 0.5340 0.5344 0.5348 0.5352
3540.000000 0.5357 0.5356 0.5356 0.5355 0.5354
3535.000000 0.5354 0.5353 0.5354 0.5357 0.5364
3530.000000 0.5372 0.5379 0.5387 0.5394 0.5402
3525.000000 0.5409 0.5417 0.5423 0.5430 0.5435
3520.000000 0.5441 0.5446 0.5452 0.5458 0.5464
3515.000000 0.5469 0.5475 0.5480 0.5486 0.5492
3510.000000 0.5498 0.5504 0.5510 0.5516 0.5522
3505.000000 0.5527 0.5533 0.5539 0.5545 0.5551
3500.000000 0.5557 0.5562 0.5569 0.5574 0.5580
3495.000000 0.5586 0.5592 0.5598 0.5604 0.5610
3490.000000 0.5616 0.5623 0.5630 0.5636 0.5643
3485.000000 0.5650 0.5657 0.5664 0.5671 0.5677
3480.000000 0.5684 0.5691 0.5698 0.5705 0.5712
3475.000000 0.5721 0.5731 0.5740 0.5749 0.5758
3470.000000 0.5767 0.5776 0.5785 0.5794 0.5804
3465.000000 0.5812 0.5822 0.5830 0.5838 0.5846
3460.000000 0.5855 0.5862 0.5869 0.5876 0.5883
3455.000000 0.5889 0.5896 0.5903 0.5910 0.5917
3450.000000 0.5924 0.5930 0.5936 0.5942 0.5948
3445.000000 0.5954 0.5960 0.5964 0.5968 0.5970
3440.000000 0.5973 0.5975 0.5977 0.5979 0.5982
3435.000000 0.5984 0.5986 0.5988 0.6006 0.5993
3430.000000 0.5996 0.5998 0.6001 0.6001 0.6002
3425.000000 0.5986 0.5971 0.5940 0.5910 0.5879
3420.000000 0.5849 0.5818 0.5788 0.5745 0.5702
3415.000000 0.5636 0.5570 0.5506 0.5442 0.5389
3410.000000 0.5336 0.5286 0.5237 0.5173 0.5109
3405.000000 0.5046 0.4983 0.4947 0.4912 0.4866
3400.000000 0.4820 0.4754 0.4688 0.4617 0.4547
3395.000000 0.4429 0.4310 0.4110 0.3912 0.3812
3390.000000 0.3714 0.3420 0.3125 0.2960 0.2795
3385.000000 0.2499 0.2203 0.1903 0.1604 0.1477
3380.000000 0.1350 0.1299 0.1249 0.1198 0.1148
3375.000000 0.1025 0.0892 0.0892 0.0892 0.0911
3370.000000 0.0929 0.0984 0.1040 0.1102 0.1165
3365.000000 0.1213 0.1262 0.1287 0.1312 0.1337
3360.000000 0.1362 0.1386 0.1411 0.1433 0.1456
3355.000000 0.1478 0.1501 0.1511 0.1522 0.1531
3350.000000 0.1541 0.1549 0.1558 0.1568 0.1578
3345.000000 0.1588 0.1599 0.1607 0.1619 0.1619
3340.000000 0.1623 0.1613 0.1604 0.1582 0.1561
3335.000000 0.1448 0.1336 0.1252 0.1168 0.1073
3330.000000 0.0978 0.0933 0.0888 0.0860 0.0814
3325.000000 0.0829 0.0826 0.0826 0.0826 0.0830
3320.000000 0.0834 0.0851 0.0869 0.1009 0.1150
3315.000000 0.1201 0.1253 0.1296 0.1342 0.1386
3310.000000 0.1431 0.1484 0.1537 0.1591 0.1644
3305.000000 0.1702 0.1759 0.1839 0.1919 0.1948
3300.000000 0.1977 0.2006 0.2034 0.2067 0.2100
3295.000000 0.2128 0.2156 0.2176 0.2196 0.2211
3290.000000 0.2226 0.2240 0.2255 0.2260 0.2266
3285.000000 0.2271 0.2276 0.2277 0.2278 0.2278
3280.000000 0.2278 0.2261 0.2244 0.2219 0.2195
3275.000000 0.2100 0.2004 0.1937 0.1871 0.1767
3270.000000 0.1663 0.1542 0.1424 0.1338 0.1253
3265.000000 0.1165 0.1077 0.0842 0.0610 0.0523
3260.000000 0.0437 0.0375 0.0314 0.0272 0.0200
3255.000000 0.0218 0.0207 0.0207 0.0207 0.0209
3250.000000 0.0213 0.0225 0.0235 0.0242 0.0249
3245.000000 0.0256 0.0263 0.0274 0.0285 0.0291
3240.000000 0.0297 0.0293 0.0290 0.0287 0.0282
3235.000000 0.0280 0.0277 0.0294 0.0312 0.0344
3230.000000 0.0376 0.0411 0.0446 0.0482 0.0519
3225.000000 0.0564 0.0609 0.0662 0.0715 0.0789
3220.000000 0.0864 0.0942 0.1022 0.1094 0.1166
3215.000000 0.1230 0.1295 0.1340 0.1386 0.1431
3210.000000 0.1477 0.1522 0.1568 0.1615 0.1662
3205.000000 0.1708 0.1754 0.1792 0.1829 0.1860
3200.000000 0.1892 0.1923 0.1954 0.1985 0.2018
3195.000000 0.2049 0.2080 0.2110 0.2141 0.2172
3190.000000 0.2203 0.2230 0.2258 0.2283 0.2308
3185.000000 0.2332 0.2357 0.2382 0.2407 0.2429
3180.000000 0.2451 0.2473 0.2495 0.2516 0.2538
3175.000000 0.2559 0.2581 0.2604 0.2627 0.2660
3170.000000 0.2693 0.2721 0.2749 0.2775 0.2802
3165.000000 0.2828 0.2854 0.2869 0.2884 0.2900
3160.000000 0.2916 0.2931 0.2946 0.2961 0.2977
3155.000000 0.2992 0.3008 0.3027 0.3046 0.3107
3150.000000 0.3168 0.3184 0.3202 0.3209 0.3216
3145.000000 0.3218 0.3223 0.3224 0.3225 0.3226
3140.000000 0.3227 0.3227 0.3228 0.3222 0.3216
3135.000000 0.3209 0.3200 0.3192 0.3184 0.3167
3130.000000 0.3150 0.3126 0.3102 0.3072 0.3042
3125.000000 0.3010 0.2978 0.2948 0.2919 0.2893
3120.000000 0.2867 0.2847 0.2827 0.2813 0.2799
3115.000000 0.2799 0.2799 0.2806 0.2809 0.2814
3110.000000 0.2819 0.2840 0.2862 0.2897 0.2932
3105.000000 0.2938 0.2945 0.2941 0.2938 0.2933
3100.000000 0.2928 0.2920 0.2913 0.2907 0.2902
3095.000000 0.2899 0.2896 0.2894 0.2894 0.2893
3090.000000 0.2894 0.2962 0.3030 0.3128 0.3226
3085.000000 0.3323 0.3421 0.3504 0.3587 0.3620
3080.000000 0.3653 0.3682 0.3714 0.3742 0.3770
3075.000000 0.3800 0.3832 0.3864 0.3895 0.3921
3070.000000 0.3948 0.3972 0.3997 0.4012 0.4029
3065.000000 0.4036 0.4044 0.4039 0.4034 0.4032
3060.000000 0.4029 0.4026 0.4024 0.4021 0.4018
3055.000000 0.4030 0.4042 0.4062 0.4084 0.4101
3050.000000 0.4118 0.4127 0.4137 0.4141 0.4146
3045.000000 0.4151 0.4156 0.4160 0.4167 0.4180
3040.000000 0.4193 0.4212 0.4233 0.4257 0.4282
3035.000000 0.4298 0.4315 0.4312 0.4312 0.4310
3030.000000 0.4309 0.4307 0.4307 0.4306 0.4308
3025.000000 0.4314 0.4320 0.4335 0.4351 0.4371
3020.000000 0.4392 0.4423 0.4455 0.4481 0.4508
3015.000000 0.4532 0.4557 0.4556 0.4556 0.4557
3010.000000 0.4558 0.4562 0.4569 0.4587 0.4606
3005.000000 0.4621 0.4637 0.4640 0.4644 0.4647
3000.000000 0.4651 0.4654 0.4658 0.4662 0.4666
2995.000000 0.4676 0.4687 0.4699 0.4710 0.4723
2990.000000 0.4736 0.4748 0.4760 0.4760 0.4762
2985.000000 0.4762 0.4760 0.4760 0.4759 0.4758
2980.000000 0.4758 0.4760 0.4762 0.4764 0.4767
2975.000000 0.4769 0.4772 0.4774 0.4777 0.4779
2970.000000 0.4782 0.4784 0.4786 0.4788 0.4791
2965.000000 0.4794 0.4798 0.4802 0.4806 0.4810
2960.000000 0.4814 0.4818 0.4822 0.4826 0.4830
2955.000000 0.4833 0.4837 0.4841 0.4845 0.4849
2950.000000 0.4853 0.4857 0.4860 0.4865 0.4870
2945.000000 0.4874 0.4878 0.4882 0.4887 0.4891
2940.000000 0.4895 0.4895 0.4895 0.4894 0.4899
2935.000000 0.4889 0.4886 0.4880 0.4875 0.4868
2930.000000 0.4860 0.4850 0.4840 0.4829 0.4819
2925.000000 0.4798 0.4778 0.4760 0.4743 0.4734
2920.000000 0.4726 0.4719 0.4712 0.4710 0.4710
2915.000000 0.4709 0.4716 0.4716 0.4722 0.4738
2910.000000 0.4755 0.4772 0.4790 0.4808 0.4826
2905.000000 0.4857 0.4888 0.4919 0.4950 0.4978
2900.000000 0.5007 0.5030 0.5054 0.5070 0.5087
2895.000000 0.5103 0.5120 0.5136 0.5153 0.5165
2890.000000 0.5178 0.5190 0.5202 0.5209 0.5217
2885.000000 0.5223 0.5230 0.5236 0.5243 0.5249
2880.000000 0.5255 0.5260 0.5268 0.5274 0.5280
2875.000000 0.5285 0.5291 0.5297 0.5303 0.5307
2870.000000 0.5312 0.5314 0.5317 0.5319 0.5322
2865.000000 0.5324 0.5327 0.5328 0.5330 0.5331
2860.000000 0.5333 0.5334 0.5335 0.5335 0.5335
2855.000000 0.5335 0.5335 0.5335 0.5335 0.5335
2850.000000 0.5336 0.5337 0.5338 0.5348 0.5359
2845.000000 0.5371 0.5384 0.5403 0.5422 0.5443
2840.000000 0.5465 0.5487 0.5509 0.5526 0.5544
2835.000000 0.5560 0.5576 0.5592 0.5608 0.5623
2830.000000 0.5639 0.5655 0.5671 0.5684 0.5697
2825.000000 0.5705 0.5714 0.5722 0.5730 0.5736
2820.000000 0.5742 0.5747 0.5752 0.5757 0.5762
2815.000000 0.5767 0.5772 0.5776 0.5781 0.5786
2810.000000 0.5791 0.5796 0.5801 0.5806 0.5810
2805.000000 0.5816 0.5821 0.5826 0.5831 0.5834
2800.000000 0.5838 0.5842 0.5846 0.5849 0.5853
2795.000000 0.5856 0.5860 0.5862 0.5867 0.5871
2790.000000 0.5875 0.5878 0.5882 0.5885 0.5889
2785.000000 0.5892 0.5896 0.5900 0.5904 0.5907
2780.000000 0.5910 0.5915 0.5920 0.5925 0.5930
2775.000000 0.5934 0.5939 0.5943 0.5948 0.5953
2770.000000 0.5958 0.5962 0.5967 0.5971 0.5976
2765.000000 0.5980 0.5985 0.5990 0.5995 0.6000
2760.000000 0.6005 0.6010 0.6015 0.6020 0.6026
2755.000000 0.6031 0.6036 0.6041 0.6047 0.6052
2750.000000 0.6057 0.6062 0.6067 0.6067 0.6068
2745.000000 0.6068 0.6068 0.6068 0.6069 0.6069
2740.000000 0.6068 0.6067 0.6065 0.6065 0.6066
2735.000000 0.6069 0.6072 0.6075 0.6078 0.6081
2730.000000 0.6084 0.6087 0.6090 0.6093 0.6096
2725.000000 0.6099 0.6102 0.6105 0.6108 0.6110
2720.000000 0.6112 0.6116 0.6119 0.6121 0.6124
2715.000000 0.6127 0.6130 0.6132 0.6135 0.6138
2710.000000 0.6141 0.6143 0.6146 0.6148 0.6151
2705.000000 0.6154 0.6157 0.6159 0.6160 0.6162
2700.000000 0.6165 0.6167 0.6169 0.6171 0.6173
2695.000000 0.6175 0.6177 0.6180 0.6184 0.6187
2690.000000 0.6190 0.6193 0.6196 0.6199 0.6202
2685.000000 0.6205 0.6208 0.6210 0.6215 0.6219
2680.000000 0.6224 0.6228 0.6233 0.6237 0.6242
2675.000000 0.6246 0.6250 0.6251 0.6253 0.6254
2670.000000 0.6255 0.6256 0.6256 0.6256 0.6255
2665.000000 0.6254 0.6254 0.6253 0.6253 0.6252
2660.000000 0.6251 0.6250 0.6250 0.6249 0.6248
2655.000000 0.6247 0.6247 0.6246 0.6245 0.6244
2650.000000 0.6243 0.6242 0.6241 0.6239 0.6237
2645.000000 0.6234 0.6232 0.6229 0.6227 0.6224
2640.000000 0.6222 0.6220 0.6218 0.6216 0.6214
2635.000000 0.6212 0.6210 0.6210 0.6209 0.6210
2630.000000 0.6212 0.6215 0.6219 0.6223 0.6227
2625.000000 0.6231 0.6236 0.6241 0.6246 0.6251
2620.000000 0.6257 0.6262 0.6267 0.6272 0.6277
2615.000000 0.6278 0.6279 0.6275 0.6282 0.6267
2610.000000 0.6264 0.6260 0.6258 0.6255 0.6252
2605.000000 0.6249 0.6246 0.6243 0.6240 0.6237
2600.000000 0.6234 0.6231 0.6229 0.6226 0.6224
2595.000000 0.6221 0.6219 0.6219 0.6220 0.6220
2590.000000 0.6220 0.6220 0.6221 0.6221 0.6222
2585.000000 0.6224 0.6226 0.6231 0.6237 0.6243
2580.000000 0.6249 0.6255 0.6262 0.6274 0.6286
2575.000000 0.6298 0.6310 0.6321 0.6333 0.6342
2570.000000 0.6351 0.6360 0.6369 0.6378 0.6387
2565.000000 0.6396 0.6405 0.6414 0.6422 0.6438
2560.000000 0.6453 0.6468 0.6484 0.6499 0.6514
2555.000000 0.6518 0.6525 0.6531 0.6537 0.6542
2550.000000 0.6548 0.6554 0.6560 0.6565 0.6571
2545.000000 0.6576 0.6583 0.6589 0.6595 0.6599
2540.000000 0.6604 0.6608 0.6614 0.6618 0.6624
2535.000000 0.6628 0.6633 0.6638 0.6643 0.6648
2530.000000 0.6653 0.6657 0.6661 0.6667 0.6671
2525.000000 0.6675 0.6678 0.6682 0.6686 0.6689
2520.000000 0.6693 0.6696 0.6700 0.6703 0.6706
2515.000000 0.6710 0.6714 0.6718 0.6722 0.6726
2510.000000 0.6757 0.6735 0.6740 0.6744 0.6748
2505.000000 0.6751 0.6755 0.6758 0.6762 0.6762
2500.000000 0.6762 0.6762 0.6762 0.6762 0.6762
2495.000000 0.6761 0.6761 0.6758 0.6756 0.6753
2490.000000 0.6751 0.6748 0.6745 0.6742 0.6740
2485.000000 0.6737 0.6734 0.6730 0.6726 0.6724
2480.000000 0.6721 0.6718 0.6715 0.6707 0.6699
2475.000000 0.6690 0.6682 0.6675 0.6668 0.6668
2470.000000 0.6668 0.6668 0.6672 0.6675 0.6680
2465.000000 0.6683 0.6686 0.6688 0.6691 0.6694
2460.000000 0.6697 0.6700 0.6703 0.6707 0.6711
2455.000000 0.6717 0.6724 0.6730 0.6736 0.6741
2450.000000 0.6747 0.6750 0.6753 0.6756 0.6758
2445.000000 0.6761 0.6765 0.6768 0.6771 0.6774
2440.000000 0.6776 0.6780 0.6783 0.6786 0.6789
2435.000000 0.6792 0.6795 0.6797 0.6800 0.6803
2430.000000 0.6806 0.6808 0.6811 0.6811 0.6814
2425.000000 0.6815 0.6817 0.6818 0.6819 0.6821
2420.000000 0.6822 0.6824 0.6825 0.6826 0.6828
2415.000000 0.6830 0.6832 0.6834 0.6837 0.6839
2410.000000 0.6842 0.6845 0.6848 0.6850 0.6853
2405.000000 0.6856 0.6858 0.6861 0.6864 0.6867
2400.000000 0.6871 0.6874 0.6876 0.6880 0.6883
2395.000000 0.6886 0.6890 0.6893 0.6896 0.6899
2390.000000 0.6903 0.6906 0.6910 0.6912 0.6917
2385.000000 0.6919 0.6924 0.6926 0.6931 0.6934
2380.000000 0.6938 0.6947 0.6957 0.6967 0.6978
2375.000000 0.6995 0.7011 0.7028 0.7046 0.7064
2370.000000 0.7082 0.7100 0.7118 0.7130 0.7141
2365.000000 0.7148 0.7155 0.7161 0.7169 0.7175
2360.000000 0.7180 0.7184 0.7189 0.7191 0.7210
2355.000000 0.7194 0.7195 0.7196 0.7197 0.7194
2350.000000 0.7192 0.7185 0.7178 0.7171 0.7165
2345.000000 0.7155 0.7145 0.7136 0.7128 0.7131
2340.000000 0.7135 0.7139 0.7144 0.7148 0.7153
2335.000000 0.7157 0.7161 0.7164 0.7167 0.7168
2330.000000 0.7171 0.7165 0.7161 0.7157 0.7153
2325.000000 0.7147 0.7142 0.7133 0.7124 0.7115
2320.000000 0.7106 0.7095 0.7085 0.7071 0.7058
2315.000000 0.7047 0.7037 0.7028 0.7018 0.7014
2310.000000 0.7010 0.7008 0.7008 0.7008 0.7008
2305.000000 0.7011 0.7014 0.7015 0.7018 0.7021
2300.000000 0.7024 0.7025 0.7042 0.7033 0.7037
2295.000000 0.7040 0.7044 0.7047 0.7051 0.7055
2290.000000 0.7058 0.7061 0.7065 0.7068 0.7072
2285.000000 0.7076 0.7081 0.7085 0.7089 0.7093
2280.000000 0.7098 0.7101 0.7106 0.7110 0.7115
2275.000000 0.7118 0.7122 0.7126 0.7132 0.7136
2270.000000 0.7141 0.7146 0.7151 0.7155 0.7160
2265.000000 0.7164 0.7168 0.7174 0.7178 0.7183
2260.000000 0.7188 0.7193 0.7198 0.7201 0.7207
2255.000000 0.7211 0.7217 0.7221 0.7225 0.7230
2250.000000 0.7235 0.7239 0.7244 0.7248 0.7253
2245.000000 0.7257 0.7261 0.7265 0.7271 0.7275
2240.000000 0.7281 0.7288 0.7295 0.7301 0.7310
2235.000000 0.7317 0.7324 0.7331 0.7338 0.7345
2230.000000 0.7351 0.7358 0.7367 0.7375 0.7385
2225.000000 0.7394 0.7404 0.7412 0.7421 0.7431
2220.000000 0.7440 0.7449 0.7458 0.7465 0.7475
2215.000000 0.7483 0.7492 0.7500 0.7508 0.7514
2210.000000 0.7519 0.7522 0.7526 0.7531 0.7535
2205.000000 0.7538 0.7541 0.7543 0.7546 0.7549
2200.000000 0.7551 0.7555 0.7558 0.7561 0.7564
2195.000000 0.7565 0.7568 0.7571 0.7575 0.7578
2190.000000 0.7582 0.7585 0.7589 0.7592 0.7596
2185.000000 0.7601 0.7608 0.7615 0.7622 0.7628
2180.000000 0.7634 0.7639 0.7645 0.7650 0.7656
2175.000000 0.7661 0.7667 0.7671 0.7678 0.7683
2170.000000 0.7689 0.7694 0.7700 0.7705 0.7711
2165.000000 0.7715 0.7721 0.7726 0.7733 0.7738
2160.000000 0.7744 0.7749 0.7755 0.7760 0.7765
2155.000000 0.7771 0.7776 0.7782 0.7788 0.7794
2150.000000 0.7800 0.7805 0.7811 0.7815 0.7821
2145.000000 0.7826 0.7833 0.7838 0.7844 0.7849
2140.000000 0.7855 0.7860 0.7865 0.7871 0.7876
2135.000000 0.7882 0.7888 0.7893 0.7898 0.7901
2130.000000 0.7905 0.7908 0.7911 0.7914 0.7918
2125.000000 0.7921 0.7925 0.7928 0.7932 0.7935
2120.000000 0.7938 0.7942 0.7946 0.7950 0.7955
2115.000000 0.7958 0.7964 0.7968 0.7972 0.7976
2110.000000 0.7982 0.7986 0.7991 0.7995 0.8000
2105.000000 0.8005 0.8010 0.8015 0.8019 0.8025
2100.000000 0.8030 0.8035 0.8041 0.8046 0.8051
2095.000000 0.8056 0.8061 0.8065 0.8071 0.8076
2090.000000 0.8082 0.8087 0.8093 0.8098 0.8104
2085.000000 0.8110 0.8115 0.8121 0.8126 0.8132
2080.000000 0.8138 0.8144 0.8150 0.8155 0.8161
2075.000000 0.8165 0.8171 0.8176 0.8183 0.8187
2070.000000 0.8192 0.8197 0.8202 0.8206 0.8211
2065.000000 0.8215 0.8220 0.8225 0.8230 0.8234
2060.000000 0.8238 0.8241 0.8244 0.8247 0.8250
2055.000000 0.8253 0.8256 0.8258 0.8258 0.8259
2050.000000 0.8259 0.8258 0.8257 0.8256 0.8255
2045.000000 0.8254 0.8254 0.8254 0.8256 0.8258
2040.000000 0.8260 0.8262 0.8264 0.8266 0.8268
2035.000000 0.8270 0.8273 0.8275 0.8278 0.8282
2030.000000 0.8285 0.8288 0.8291 0.8294 0.8297
2025.000000 0.8302 0.8308 0.8313 0.8318 0.8323
2020.000000 0.8328 0.8332 0.8336 0.8340 0.8344
2015.000000 0.8348 0.8374 0.8358 0.8364 0.8373
2010.000000 0.8383 0.8390 0.8398 0.8405 0.8413
2005.000000 0.8421 0.8428 0.8436 0.8444 0.8460
2000.000000 0.8475 0.8368 0.8260 0.8151 0.8044
1995.000000 0.7991 0.7988 0.8144 0.8321 0.8498
1990.000000 0.8521 0.8521 0.8521 0.8514 0.8506
1985.000000 0.8497 0.8485 0.8473 0.8467 0.8464
1980.000000 0.8464 0.8463 0.8471 0.8478 0.8487
1975.000000 0.8495 0.8504 0.8514 0.8525 0.8536
1970.000000 0.8546 0.8553 0.8558 0.8563 0.8568
1965.000000 0.8574 0.8578 0.8578 0.8578 0.8580
1960.000000 0.8580 0.8578 0.8578 0.8575 0.8571
1955.000000 0.8568 0.8566 0.8549 0.8535 0.8523
1950.000000 0.8508 0.8487 0.8480 0.8471 0.8465
1945.000000 0.8455 0.8446 0.8450 0.8457 0.8464
1940.000000 0.8494 0.8534 0.8561 0.8577 0.8593
1935.000000 0.8609 0.8624 0.8634 0.8642 0.8649
1930.000000 0.8648 0.8647 0.8670 0.8645 0.8633
1925.000000 0.8621 0.8604 0.8588 0.8571 0.8532
1920.000000 0.8475 0.8412 0.8320 0.8274 0.8216
1915.000000 0.8231 0.8227 0.8236 0.8327 0.8428
1910.000000 0.8515 0.8548 0.8567 0.8585 0.8603
1905.000000 0.8618 0.8630 0.8640 0.8650 0.8661
1900.000000 0.8671 0.8681 0.8690 0.8698 0.8705
1895.000000 0.8713 0.8718 0.8725 0.8732 0.8739
1890.000000 0.8745 0.8751 0.8758 0.8764 0.8770
1885.000000 0.8778 0.8784 0.8788 0.8792 0.8794
1880.000000 0.8798 0.8798 0.8800 0.8801 0.8803
1875.000000 0.8805 0.8807 0.8815 0.8825 0.8844
1870.000000 0.8856 0.8866 0.8875 0.8871 0.8861
1865.000000 0.8847 0.8815 0.8788 0.8777 0.8775
1860.000000 0.8780 0.8783 0.8787 0.8790 0.8800
1855.000000 0.8813 0.8825 0.8837 0.8850 0.8862
1850.000000 0.8888 0.8915 0.8942 0.8968 0.8993
1845.000000 0.9017 0.9043 0.9070 0.9068 0.9028
1840.000000 0.9003 0.8987 0.8971 0.8955 0.8939
1835.000000 0.8923 0.8917 0.8915 0.8913 0.8911
1830.000000 0.8909 0.8907 0.8904 0.8901 0.8897
1825.000000 0.8894 0.8890 0.8884 0.8866 0.8852
1820.000000 0.8860 0.8868 0.8877 0.8887 0.8896
1815.000000 0.8906 0.8915 0.8924 0.8930 0.8932
1810.000000 0.8928 0.8913 0.8897 0.8882 0.8851
1805.000000 0.8814 0.8778 0.8760 0.8814 0.8878
1800.000000 0.8924 0.8938 0.8953 0.8962 0.8968
1795.000000 0.8977 0.8984 0.9010 0.9040 0.9070
1790.000000 0.9099 0.9095 0.9085 0.9074 0.9064
1785.000000 0.9063 0.9067 0.9070 0.9074 0.9078
1780.000000 0.9087 0.9096 0.9104 0.9112 0.9120
1775.000000 0.9130 0.9150 0.9170 0.9198 0.9254
1770.000000 0.9239 0.9214 0.9189 0.9171 0.9161
1765.000000 0.9150 0.9139 0.9133 0.9132 0.9131
1760.000000 0.9130 0.9128 0.9128 0.9135 0.9141
1755.000000 0.9146 0.9163 0.9178 0.9196 0.9216
1750.000000 0.9246 0.9275 0.9284 0.9280 0.9275
1745.000000 0.9273 0.9271 0.9270 0.9268 0.9268
1740.000000 0.9268 0.9270 0.9283 0.9300 0.9317
1735.000000 0.9334 0.9380 0.9438 0.9390 0.9341
1730.000000 0.9295 0.9292 0.9289 0.9286 0.9283
1725.000000 0.9283 0.9284 0.9295 0.9307 0.9318
1720.000000 0.9349 0.9393 0.9437 0.9507 0.9499
1715.000000 0.9471 0.9445 0.9428 0.9415 0.9401
1710.000000 0.9388 0.9375 0.9394 0.9412 0.9431
1705.000000 0.9447 0.9450 0.9452 0.9459 0.9486
1700.000000 0.9521 0.9575 0.9628 0.9666 0.9652
1695.000000 0.9606 0.9557 0.9505 0.9464 0.9438
1690.000000 0.9412 0.9412 0.9413 0.9432 0.9451
1685.000000 0.9478 0.9507 0.9535 0.9540 0.9521
1680.000000 0.9505 0.9489 0.9484 0.9480 0.9475
1675.000000 0.9439 0.9468 0.9474 0.9483 0.9492
1670.000000 0.9512 0.9540 0.9560 0.9507 0.9446
1665.000000 0.9432 0.9424 0.9453 0.9482 0.9444
1660.000000 0.9404 0.9368 0.9317 0.9284 0.9268
1655.000000 0.9256 0.9295 0.9325 0.9357 0.9297
1650.000000 0.9143 0.9114 0.9135 0.9181 0.9225
1645.000000 0.9300 0.9139 0.9103 0.9088 0.9073
1640.000000 0.9058 0.9057 0.9070 0.9084 0.9097
1635.000000 0.9118 0.9149 0.9178 0.9052 0.8959
1630.000000 0.8885 0.8900 0.8916 0.8931 0.8944
1625.000000 0.8955 0.8965 0.8960 0.8918 0.8878
1620.000000 0.8830 0.8805 0.8812 0.8820 0.8828
1615.000000 0.8807 0.8720 0.8665 0.8640 0.8614
1610.000000 0.8589 0.8548 0.8499 0.8451 0.8301
1605.000000 0.8118 0.7797 0.7684 0.7571 0.7383
1600.000000 0.6951 0.6587 0.6223 0.6115 0.6048
1595.000000 0.6077 0.6109 0.6266 0.6422 0.6578
1590.000000 0.6736 0.6893 0.7050 0.7081 0.7101
1585.000000 0.7086 0.7061 0.7008 0.6894 0.6728
1580.000000 0.6571 0.6465 0.6346 0.5940 0.5848
1575.000000 0.5781 0.5707 0.5628 0.5274 0.5207
1570.000000 0.5224 0.5248 0.5259 0.5256 0.5242
1565.000000 0.5181 0.4899 0.4456 0.4009 0.4007
1560.000000 0.4018 0.4059 0.4380 0.4647 0.4909
1555.000000 0.5157 0.5420 0.5683 0.5947 0.6210
1550.000000 0.6472 0.6736 0.6999 0.7132 0.7236
1545.000000 0.7351 0.7528 0.7698 0.7807 0.7928
1540.000000 0.7992 0.8021 0.7999 0.7978 0.7915
1535.000000 0.7751 0.7643 0.7638 0.7571 0.7485
1530.000000 0.7421 0.7350 0.7356 0.7353 0.7364
1525.000000 0.7389 0.7443 0.7526 0.7649 0.7767
1520.000000 0.7872 0.7957 0.8022 0.8078 0.8099
1515.000000 0.8110 0.8121 0.8135 0.8148 0.8168
1510.000000 0.8191 0.8220 0.8340 0.8461 0.8560
1505.000000 0.8559 0.8532 0.8430 0.8044 0.7993
1500.000000 0.7778 0.7533 0.7489 0.7487 0.7457
1495.000000 0.7483 0.7498 0.7598 0.7645 0.7692
1490.000000 0.7736 0.7743 0.7775 0.7747 0.7738
1485.000000 0.7725 0.7705 0.7684 0.7649 0.7612
1480.000000 0.7568 0.7524 0.7418 0.7344 0.7155
1475.000000 0.6978 0.6237 0.6199 0.6158 0.6062
1470.000000 0.6102 0.6172 0.6307 0.6442 0.6578
1465.000000 0.6712 0.6848 0.6847 0.6853 0.6860
1460.000000 0.6876 0.6919 0.6921 0.6925 0.6872
1455.000000 0.6718 0.6665 0.6648 0.6645 0.6644
1450.000000 0.6643 0.6649 0.6675 0.6703 0.6754
1445.000000 0.6810 0.6871 0.6933 0.6985 0.7038
1440.000000 0.7087 0.7134 0.7203 0.7274 0.7318
1435.000000 0.7368 0.7361 0.7356 0.7351 0.7351
1430.000000 0.7358 0.7365 0.7365 0.7365 0.7361
1425.000000 0.7361 0.7360 0.7360 0.7360 0.7367
1420.000000 0.7372 0.7378 0.7388 0.7397 0.7407
1415.000000 0.7453 0.7424 0.7432 0.7440 0.7438
1410.000000 0.7408 0.7380 0.7351 0.7321 0.7293
1405.000000 0.7264 0.7234 0.7205 0.7175 0.7164
1400.000000 0.7165 0.7211 0.7310 0.7408 0.7507
1395.000000 0.7700 0.7696 0.7687 0.7678 0.7671
1390.000000 0.7651 0.7633 0.7617 0.7601 0.7593
1385.000000 0.7594 0.7580 0.7578 0.7578 0.7581
1380.000000 0.7611 0.7668 0.7725 0.7784 0.7842
1375.000000 0.7901 0.7961 0.8026 0.8067 0.8089
1370.000000 0.8111 0.8132 0.8151 0.8167 0.8178
1365.000000 0.8189 0.8187 0.8178 0.8175 0.8122
1360.000000 0.8069 0.7999 0.7943 0.7899 0.7855
1355.000000 0.7811 0.7725 0.7595 0.7472 0.7351
1350.000000 0.7242 0.7134 0.6821 0.6468 0.6073
1345.000000 0.5860 0.5760 0.5601 0.5377 0.5219
1340.000000 0.4671 0.2766 0.2762 0.2758 0.2751
1335.000000 0.2335 0.1901 0.1465 0.1030 0.0595
1330.000000 0.0488 0.0485 0.0498 0.0549 0.0599
1325.000000 0.0651 0.0678 0.0679 0.0685 0.0646
1320.000000 0.0584 0.0526 0.0466 0.0399 0.0363
1315.000000 0.0376 0.0386 0.0421 0.0528 0.0671
1310.000000 0.1048 0.1288 0.1430 0.1542 0.1657
1305.000000 0.1754 0.1837 0.2067 0.2310 0.2553
1300.000000 0.2796 0.3038 0.3280 0.3524 0.3647
1295.000000 0.3643 0.3592 0.3376 0.3159 0.3048
1290.000000 0.3015 0.3184 0.3502 0.3820 0.4138
1285.000000 0.4456 0.4774 0.5092 0.5330 0.5349
1280.000000 0.5362 0.5616 0.6008 0.6317 0.6608
1275.000000 0.6715 0.6825 0.6978 0.7140 0.7284
1270.000000 0.7378 0.7439 0.7500 0.7555 0.7600
1265.000000 0.7644 0.7688 0.7715 0.7743 0.7771
1260.000000 0.7798 0.7825 0.7848 0.7861 0.7876
1255.000000 0.7892 0.7907 0.7921 0.7939 0.7957
1250.000000 0.7975 0.7995 0.8010 0.8021 0.8033
1245.000000 0.8044 0.8056 0.8068 0.8084 0.8098
1240.000000 0.8112 0.8125 0.8137 0.8153 0.8158
1235.000000 0.8164 0.8162 0.8162 0.8161 0.8136
1230.000000 0.8106 0.8074 0.8048 0.8033 0.8036
1225.000000 0.8039 0.8042 0.8043 0.8044 0.8044
1220.000000 0.8036 0.8026 0.8018 0.8007 0.7985
1215.000000 0.7962 0.7942 0.7918 0.7891 0.7865
1210.000000 0.7838 0.7811 0.7784 0.7757 0.7712
1205.000000 0.7615 0.7392 0.7168 0.7108 0.7086
1200.000000 0.7201 0.7304 0.7407 0.7469 0.7515
1195.000000 0.7533 0.7534 0.7535 0.7524 0.7467
1190.000000 0.7411 0.7151 0.6598 0.6045 0.5491
1185.000000 0.4938 0.4421 0.4439 0.4615 0.5002
1180.000000 0.5389 0.6043 0.5981 0.5979 0.5338
1175.000000 0.4354 0.3368 0.2384 0.1477 0.1550
1170.000000 0.1773 0.1977 0.1976 0.1725 0.1520
1165.000000 0.1569 0.1786 0.1983 0.1983 0.1740
1160.000000 0.1436 0.1131 0.0826 0.0536 0.0400
1155.000000 0.0266 0.0174 0.0096 0.0069 0.0065
1150.000000 0.0065 0.0064 0.0093 0.0160 0.0285
1145.000000 0.0534 0.0798 0.1807 0.2257 0.2707
1140.000000 0.3157 0.3607 0.4038 0.4037 0.4008
1135.000000 0.3870 0.3732 0.3595 0.3458 0.3326
1130.000000 0.3688 0.4199 0.4710 0.5121 0.5260
1125.000000 0.5370 0.5568 0.5664 0.5690 0.5685
1120.000000 0.5676 0.5858 0.5925 0.5993 0.6095
1115.000000 0.6299 0.6434 0.6447 0.6490 0.6450
1110.000000 0.6428 0.6343 0.6234 0.6052 0.5725
1105.000000 0.5501 0.5347 0.5237 0.5127 0.4821
1100.000000 0.4408 0.3995 0.3582 0.3169 0.2770
1095.000000 0.2676 0.2691 0.2715 0.3069 0.3306
1090.000000 0.3568 0.3809 0.4053 0.4295 0.4538
1085.000000 0.4780 0.5022 0.5247 0.5382 0.5484
1080.000000 0.5554 0.5569 0.5574 0.5587 0.5553
1075.000000 0.5451 0.5356 0.5265 0.5032 0.4767
1070.000000 0.4503 0.4354 0.4336 0.4346 0.4434
1065.000000 0.4895 0.5209 0.5524 0.5839 0.6154
1060.000000 0.6421 0.6541 0.6607 0.6668 0.6701
1055.000000 0.6728 0.6740 0.6738 0.6725 0.6711
1050.000000 0.6697 0.6682 0.6672 0.6669 0.6681
1045.000000 0.6698 0.6728 0.6771 0.6855 0.6925
1040.000000 0.6996 0.7065 0.7137 0.7207 0.7278
1035.000000 0.7348 0.7418 0.7489 0.7558 0.7628
1030.000000 0.7700 0.7769 0.7841 0.7911 0.7981
1025.000000 0.8051 0.8121 0.8158 0.8186 0.8186
1020.000000 0.8186 0.8174 0.8148 0.6383 0.6405
1015.000000 0.6499 0.6964 0.7428 0.7884 0.8049
1010.000000 0.8132 0.8214 0.8285 0.8354 0.8408
1005.000000 0.8461 0.8507 0.8550 0.8582 0.8594
1000.000000 0.8592 0.8591 0.8591 0.8592 0.8593
995.000000 0.8594 0.8608 0.8623 0.8637 0.8651
990.000000 0.8663 0.8671 0.8682 0.8691 0.8700
985.000000 0.8709 0.8718 0.8728 0.8737 0.8747
980.000000 0.8755 0.8764 0.8770 0.8773 0.8786
975.000000 0.8778 0.8775 0.8768 0.8763 0.8755
970.000000 0.8738 0.8721 0.8696 0.8643 0.8584
965.000000 0.8517 0.8428 0.8402 0.8394 0.8533
960.000000 0.8636 0.8636 0.8582 0.8482 0.8398
955.000000 0.8336 0.8290 0.8264 0.8260 0.8258
950.000000 0.8268 0.8282 0.8371 0.8474 0.8471
945.000000 0.8468 0.8454 0.8440 0.8425 0.8384
940.000000 0.8327 0.8278 0.8228 0.8180 0.8088
935.000000 0.7996 0.7851 0.7656 0.7436 0.7249
930.000000 0.7115 0.6983 0.6678 0.6376 0.6196
925.000000 0.5925 0.5654 0.5383 0.5112 0.4841
920.000000 0.4627 0.4487 0.4348 0.4104 0.4028
915.000000 0.3980 0.3949 0.3930 0.3930 0.3930
910.000000 0.3928 0.3879 0.3809 0.3714 0.3638
905.000000 0.3602 0.3580 0.3594 0.3625 0.3739
900.000000 0.4584 0.4862 0.5308 0.5615 0.5779
895.000000 0.5942 0.6095 0.6247 0.6337 0.6418
890.000000 0.6501 0.6578 0.6643 0.6708 0.6774
885.000000 0.6844 0.6939 0.7030 0.7115 0.7181
880.000000 0.7240 0.7306 0.7375 0.7397 0.7443
875.000000 0.7415 0.7421 0.7162 0.6906 0.6721
870.000000 0.6751 0.7206 0.7501 0.7586 0.7655
865.000000 0.7697 0.7739 0.7781 0.7815 0.7842
860.000000 0.7868 0.7894 0.7911 0.7921 0.7932
855.000000 0.7942 0.7948 0.7949 0.7951 0.7953
850.000000 0.7925 0.7956 0.7956 0.7950 0.7944
845.000000 0.7937 0.7921 0.7906 0.7890 0.7833
840.000000 0.7776 0.7761 0.7781 0.7801 0.7819
835.000000 0.7834 0.7846 0.7846 0.7845 0.7839
830.000000 0.7834 0.7828 0.7805 0.7781 0.7758
825.000000 0.7735 0.7706 0.7672 0.7641 0.7600
820.000000 0.7554 0.7176 0.6745 0.6274 0.5802
815.000000 0.5473 0.5495 0.5501 0.5008 0.3599
810.000000 0.1716 0.1704 0.1704 0.2215 0.2826
805.000000 0.3437 0.4047 0.4658 0.5268 0.5879
800.000000 0.6489 0.6912 0.6912 0.6912 0.6918
795.000000 0.6925 0.6936 0.7024 0.7180 0.7337
790.000000 0.7494 0.7496 0.7492 0.7433 0.7338
785.000000 0.7243 0.7191 0.7190 0.7226 0.7257
780.000000 0.7285 0.7305 0.7311 0.7331 0.7289
775.000000 0.7247 0.7171 0.7094 0.6939 0.6765
770.000000 0.6538 0.5207 0.3876 0.2545 0.2315
765.000000 0.2469 0.3023 0.3578 0.4044 0.4091
760.000000 0.4134 0.4359 0.4798 0.5238 0.5678
755.000000 0.6118 0.6242 0.6275 0.6274 0.6274
750.000000 0.6258 0.6241 0.6219 0.6180 0.6142
745.000000 0.6092 0.6038 0.5984 0.5930 0.5862
740.000000 0.5793 0.5723 0.5657 0.5601 0.5545
735.000000 0.5489 0.5433 0.5378 0.5310 0.5232
730.000000 0.5153 0.5073 0.4990 0.4892 0.4795
725.000000 0.4710 0.4638 0.4562 0.4455 0.4362
720.000000 0.4293 0.4190 0.4157 0.4133 0.4110
715.000000 0.4087 0.4066 0.4044 0.4022 0.3984
710.000000 0.3081 0.2253 0.2304 0.2445 0.2585
705.000000 0.2727 0.2869 0.3010 0.3151 0.3292
700.000000 0.3418 0.3447 0.3425 0.3323 0.3121
695.000000 0.2919 0.2716 0.2417 0.2406 0.2398
690.000000 0.2569 0.2834 0.3099 0.3358 0.3423
685.000000 0.3439 0.3466 0.3678 0.3744 0.3824
680.000000 0.3858 0.3866 0.3879 0.3858 0.3838
675.000000 0.3808 0.3757 0.3687 0.3626 0.3414
670.000000 0.3518 0.3482 0.3479 0.3630 0.4042
665.000000 0.4453 0.4864 0.5275 0.5687 0.6098
660.000000 0.6508 0.6919 0.7118 0.7232 0.7362
655.000000 0.7417 0.7433 0.7433 0.7433 0.7408
650.000000 0.7371 0.7334 0.7292 0.7250 0.7208
645.000000 0.7174 0.7142 0.7110 0.7081 0.7058
640.000000 0.7042 0.7030 0.7019 0.7021 0.7058
635.000000 0.7238 0.7208 0.7053 0.6604 0.6655
630.000000 0.6661 0.6678 0.6696 0.6712 0.6730
625.000000 0.6765 0.6799 0.6818 0.6828 0.6837
620.000000 0.6842 0.6843 0.6844 0.6841 0.6834
615.000000 0.6822 0.6812 0.6801 0.6775 0.6743
610.000000 0.6664 0.6586 0.6506 0.6415 0.6304
605.000000 0.5918 0.5026 0.4112 0.3197 0.2282
600.000000 0.1436 0.1446 0.1430 0.1701 0.2271
595.000000 0.2840 0.3409 0.3978 0.4548 0.5117
590.000000 0.5686 0.6131 0.6365 0.6611 0.6740
585.000000 0.6834 0.6885 0.6922 0.6946 0.6965
580.000000 0.6981 0.6991 0.6995 0.6999 0.6991
575.000000 0.6968 0.6944 0.6898 0.6818 0.6706
570.000000 0.6548 0.6387 0.6152 0.5525 0.4898
565.000000 0.4271 0.3644 0.3016 0.2389 0.1924
560.000000 0.1932 0.1979 0.2232 0.2485 0.2674
555.000000 0.3128 0.3492 0.3857 0.4222 0.4586
550.000000 0.5067 0.5023 0.4910 0.4678 0.4446
545.000000 0.4214 0.3982 0.3750 0.3518 0.3286
540.000000 0.3054 0.2822 0.2590 0.2357 0.2277
535.000000 0.2282 0.2282 0.2358 0.2511 0.3035
530.000000 0.3442 0.3848 0.4253 0.4659 0.5794
525.000000 0.5970 0.6100 0.6228 0.6342 0.6411
520.000000 0.6481 0.6560 0.6642 0.6705 0.6747
515.000000 0.6789 0.6849 0.6907 0.6933 0.6946
510.000000 0.6964 0.6935 0.6915 0.6871 0.6822
505.000000 0.6775 0.6718 0.6645 0.6568 0.6446
500.000000 0.6199 0.5951 0.5704 0.5457 0.5210
495.000000 0.5153 0.5152 0.5151 0.5395 0.5921
490.000000 0.6447 0.6555 0.6621 0.6668 0.6707
485.000000 0.6745 0.6782 0.6811 0.6830 0.6847
480.000000 0.6851 0.6856 0.6861 0.6861 0.6860
475.000000 0.6838 0.6815 0.6792 0.6756 0.6719
470.000000 0.6694 0.6672 0.6653 0.6632 0.6611
465.000000 0.6594 0.6589 0.6585 0.6580 0.6575
460.000000 0.6571 0.6568 0.6565 0.6562 0.6561
455.000000 0.6560 0.6560 0.6562 0.6565
##END=
