##TITLE=p-Toluenesulfonamide
##JCAMP-DX=4.24
##DATA TYPE=INFRARED SPECTRUM
##CLASS=COBLENTZ III
##ORIGIN=DOW CHEMICAL COMPANY
##OWNER=Copyright (C) 1987 by the Coblentz Society
Collection (C) 2018 copyright by the U.S. Secretary of Commerce
on behalf of the United States of America. All rights reserved.
##DATE=1970/01/21
##NAMES=4-methylbenzenesulfonamide
SANTICIZER 9 (MONSANTO)
##CAS REGISTRY NO=70-55-3
##MOLFORM=C7 H9 N O2 S
##SOURCE REFERENCE=COBLENTZ NO. 9653
##$NIST SOURCE=COBLENTZ
##$NIST IMAGE=cob9653
##SPECTROMETER/DATA SYSTEM=DOW FOREPRISM-GRATING
##INSTRUMENT PARAMETERS=BLAZED AT 3.5, 12.0, 20.0 MICRON AND CHANGED AT 5.0, 7.5, 14.9 MICRON
##STATE=SOLID (SPLIT MULL), FLUOROLUBE FOR 3800-1330 CM^-^1, NUJOL FOR 1330-400 CM^-^1
##SAMPLING PROCEDURE=TRANSMISSION
##RESOLUTION=2
##DATA PROCESSING=DIGITIZED BY COBLENTZ SOCIETY (BATCH II) FROM HARD COPY
##XUNITS=1/CM
##YUNITS=TRANSMITTANCE
##XFACTOR=1.0
##YFACTOR=1
##FIRSTX=392
##LASTX=3792
##FIRSTY=0.7276
##MAXX=3792
##MINX=392
##MAXY=0.8655
##MINY=0.0353
##NPOINTS=3401
##XYDATA=(X++(Y..Y))
392.000000 0.7276 0.7276 0.7276 0.7276 0.7275
397.000000 0.7275 0.7275 0.7274 0.7274 0.7274
402.000000 0.7273 0.7273 0.7272 0.7272 0.7271
407.000000 0.7271 0.7270 0.7270 0.7270 0.7269
412.000000 0.7269 0.7268 0.7268 0.7267 0.7267
417.000000 0.7267 0.7266 0.7266 0.7265 0.7265
422.000000 0.7264 0.7264 0.7263 0.7262 0.7261
427.000000 0.7260 0.7259 0.7258 0.7257 0.7256
432.000000 0.7255 0.7254 0.7253 0.7248 0.7242
437.000000 0.7236 0.7230 0.7225 0.7219 0.7210
442.000000 0.7200 0.7190 0.7180 0.7171 0.7163
447.000000 0.7154 0.7146 0.7137 0.7129 0.7121
452.000000 0.7121 0.7122 0.7122 0.7123 0.7124
457.000000 0.7124 0.7125 0.7125 0.7130 0.7136
462.000000 0.7142 0.7148 0.7154 0.7160 0.7166
467.000000 0.7175 0.7188 0.7201 0.7213 0.7226
472.000000 0.7249 0.7280 0.7302 0.7312 0.7321
477.000000 0.7281 0.7313 0.7302 0.7274 0.7241
482.000000 0.7202 0.7154 0.7106 0.7054 0.6994
487.000000 0.6935 0.6861 0.6787 0.6678 0.6535
492.000000 0.6391 0.6247 0.6227 0.6259 0.6444
497.000000 0.6629 0.6815 0.7000 0.7174 0.7216
502.000000 0.7239 0.7255 0.7264 0.7261 0.7255
507.000000 0.7244 0.7228 0.7211 0.7194 0.7171
512.000000 0.7143 0.7097 0.7045 0.6994 0.6942
517.000000 0.6866 0.6781 0.6692 0.6601 0.6515
522.000000 0.6429 0.6343 0.6256 0.6137 0.5998
527.000000 0.5818 0.5434 0.4983 0.4531 0.4079
532.000000 0.3628 0.3433 0.3425 0.3660 0.3872
537.000000 0.4084 0.4296 0.4508 0.4719 0.4931
542.000000 0.5143 0.5355 0.5567 0.5779 0.5815
547.000000 0.5822 0.5816 0.5805 0.5634 0.5387
552.000000 0.5140 0.4893 0.4646 0.4398 0.4151
557.000000 0.3904 0.3657 0.3410 0.3218 0.3225
562.000000 0.3217 0.4036 0.4523 0.5009 0.5495
567.000000 0.5982 0.6468 0.6884 0.6972 0.7061
572.000000 0.7130 0.7169 0.7175 0.7167 0.7154
577.000000 0.7141 0.7120 0.7091 0.7048 0.7000
582.000000 0.6950 0.6900 0.6833 0.6754 0.6653
587.000000 0.6515 0.6381 0.6205 0.5760 0.5315
592.000000 0.4871 0.4426 0.3981 0.3536 0.3091
597.000000 0.3060 0.3054 0.3053 0.5018 0.6065
602.000000 0.6840 0.6931 0.7020 0.7050 0.7080
607.000000 0.7110 0.7130 0.7146 0.7163 0.7176
612.000000 0.7187 0.7197 0.7208 0.7215 0.7220
617.000000 0.7226 0.7231 0.7237 0.7243 0.7250
622.000000 0.7257 0.7264 0.7271 0.7279 0.7293
627.000000 0.7311 0.7328 0.7346 0.7364 0.7383
632.000000 0.7402 0.7421 0.7428 0.7429 0.7430
637.000000 0.7431 0.7431 0.7429 0.7428 0.7426
642.000000 0.7424 0.7421 0.7418 0.7465 0.7412
647.000000 0.7409 0.7386 0.7366 0.7347 0.7313
652.000000 0.7259 0.7194 0.7126 0.7057 0.6950
657.000000 0.6842 0.6735 0.6582 0.6392 0.6087
662.000000 0.5682 0.5277 0.4872 0.4467 0.4365
667.000000 0.4354 0.4354 0.4427 0.4505 0.4584
672.000000 0.4662 0.4740 0.4818 0.4823 0.4824
677.000000 0.4817 0.4804 0.4786 0.4745 0.4702
682.000000 0.4658 0.4613 0.4558 0.4547 0.4536
687.000000 0.4520 0.4343 0.4097 0.3851 0.3759
692.000000 0.3757 0.3945 0.4133 0.4322 0.4510
697.000000 0.4596 0.4604 0.4605 0.4608 0.4477
702.000000 0.4299 0.4201 0.4266 0.4421 0.4478
707.000000 0.4479 0.3609 0.3397 0.3415 0.4705
712.000000 0.5053 0.5130 0.5188 0.5234 0.5273
717.000000 0.5307 0.5334 0.5361 0.5393 0.5426
722.000000 0.5460 0.5501 0.5545 0.5590 0.5634
727.000000 0.5677 0.5719 0.5762 0.5805 0.5849
732.000000 0.5925 0.6001 0.6076 0.6152 0.6228
737.000000 0.6305 0.6381 0.6458 0.6535 0.6581
742.000000 0.6626 0.6671 0.6712 0.6741 0.6766
747.000000 0.6789 0.6811 0.6819 0.6827 0.6871
752.000000 0.6834 0.6832 0.6823 0.6810 0.6778
757.000000 0.6743 0.6701 0.6647 0.6079 0.5211
762.000000 0.5131 0.5264 0.5461 0.5469 0.5108
767.000000 0.4543 0.3978 0.3862 0.4402 0.6345
772.000000 0.6949 0.7159 0.7370 0.7485 0.7549
777.000000 0.7585 0.7601 0.7618 0.7628 0.7633
782.000000 0.7636 0.7634 0.7633 0.7636 0.7639
787.000000 0.7673 0.7696 0.7698 0.7697 0.7683
792.000000 0.7654 0.7596 0.7534 0.7472 0.7413
797.000000 0.7376 0.7369 0.7368 0.7367 0.7360
802.000000 0.7316 0.7215 0.7101 0.6948 0.6752
807.000000 0.6543 0.5252 0.3117 0.2380 0.2426
812.000000 0.4820 0.6102 0.6784 0.6945 0.7107
817.000000 0.7268 0.7430 0.7598 0.7708 0.7764
822.000000 0.7806 0.7835 0.7851 0.7866 0.7877
827.000000 0.7884 0.7892 0.7900 0.7908 0.7914
832.000000 0.7919 0.7923 0.7928 0.7932 0.7937
837.000000 0.7941 0.7942 0.7944 0.7946 0.7948
842.000000 0.7950 0.7952 0.7950 0.7949 0.7947
847.000000 0.7945 0.7943 0.7942 0.7940 0.7938
852.000000 0.7936 0.7928 0.7921 0.7914 0.7906
857.000000 0.7899 0.7892 0.7884 0.7877 0.7866
862.000000 0.7854 0.7842 0.7829 0.7817 0.7805
867.000000 0.7781 0.7678 0.7575 0.7472 0.7438
872.000000 0.7430 0.7426 0.7433 0.7516 0.7564
877.000000 0.7587 0.7572 0.7572 0.7560 0.7534
882.000000 0.7503 0.7463 0.7423 0.7384 0.7346
887.000000 0.7291 0.7218 0.7146 0.7045 0.6944
892.000000 0.6839 0.6709 0.6584 0.6502 0.6420
897.000000 0.6338 0.6201 0.6002 0.5803 0.5603
902.000000 0.5404 0.5205 0.5006 0.4842 0.4827
907.000000 0.4821 0.4821 0.4864 0.4906 0.4948
912.000000 0.4985 0.4987 0.4989 0.4989 0.4992
917.000000 0.5004 0.5162 0.5319 0.5477 0.5634
922.000000 0.5791 0.5963 0.6287 0.7040 0.7173
927.000000 0.7306 0.7431 0.7534 0.7606 0.7679
932.000000 0.7745 0.7794 0.7844 0.7893 0.7943
937.000000 0.7997 0.8051 0.8084 0.8107 0.8129
942.000000 0.8150 0.8158 0.8167 0.8168 0.8165
947.000000 0.8161 0.8147 0.8110 0.8058 0.8007
952.000000 0.7956 0.7957 0.7962 0.8040 0.8121
957.000000 0.8202 0.8238 0.8243 0.8239 0.8192
962.000000 0.8112 0.8035 0.8035 0.8041 0.8107
967.000000 0.8193 0.8271 0.8295 0.8311 0.8317
972.000000 0.8319 0.8318 0.8316 0.8314 0.8311
977.000000 0.8309 0.8305 0.8300 0.8294 0.8289
982.000000 0.8284 0.8278 0.8271 0.8265 0.8258
987.000000 0.8254 0.8250 0.8246 0.8242 0.8238
992.000000 0.8234 0.8232 0.8232 0.8233 0.8233
997.000000 0.8233 0.8233 0.8233 0.8230 0.8221
1002.000000 0.8211 0.8194 0.8174 0.8153 0.8131
1007.000000 0.8108 0.8086 0.8010 0.7765 0.7519
1012.000000 0.7274 0.7029 0.6913 0.6913 0.7486
1017.000000 0.7870 0.8068 0.8068 0.8095 0.8044
1022.000000 0.8018 0.7989 0.7957 0.7927 0.7899
1027.000000 0.7872 0.7844 0.7816 0.7787 0.7759
1032.000000 0.7730 0.7699 0.7661 0.7622 0.7584
1037.000000 0.7547 0.7515 0.7484 0.7452 0.7421
1042.000000 0.7401 0.7389 0.7382 0.7380 0.7378
1047.000000 0.7377 0.7375 0.7374 0.7381 0.7388
1052.000000 0.7383 0.7367 0.7340 0.7309 0.7275
1057.000000 0.7234 0.7192 0.7130 0.7023 0.6839
1062.000000 0.6656 0.6472 0.6288 0.6104 0.5921
1067.000000 0.5737 0.5649 0.5650 0.5741 0.5919
1072.000000 0.6097 0.6275 0.6454 0.6517 0.6517
1077.000000 0.6531 0.6469 0.6284 0.6100 0.5916
1082.000000 0.5732 0.5548 0.5364 0.5180 0.4996
1087.000000 0.4812 0.4628 0.4443 0.4259 0.4075
1092.000000 0.3897 0.3901 0.3887 0.4356 0.4653
1097.000000 0.4949 0.5246 0.5543 0.5839 0.6136
1102.000000 0.6397 0.6609 0.6788 0.6917 0.6951
1107.000000 0.6974 0.6977 0.6994 0.6981 0.6971
1112.000000 0.6952 0.6913 0.6837 0.6738 0.6640
1117.000000 0.6542 0.6444 0.6346 0.6311 0.6291
1122.000000 0.6273 0.6255 0.6232 0.6204 0.6151
1127.000000 0.6066 0.5996 0.5906 0.5536 0.5165
1132.000000 0.4586 0.4603 0.4674 0.4806 0.4938
1137.000000 0.5070 0.5098 0.5073 0.4594 0.4115
1142.000000 0.3636 0.3158 0.2679 0.2200 0.1722
1147.000000 0.1243 0.0764 0.0398 0.0356 0.0357
1152.000000 0.0353 0.0371 0.0656 0.1116 0.1577
1157.000000 0.2038 0.2499 0.2959 0.3420 0.3881
1162.000000 0.3981 0.3864 0.3648 0.3433 0.3247
1167.000000 0.3293 0.3365 0.3436 0.3038 0.2599
1172.000000 0.2602 0.2596 0.3716 0.4518 0.5320
1177.000000 0.6122 0.6443 0.6302 0.5878 0.5453
1182.000000 0.5029 0.4790 0.7080 0.7215 0.7360
1187.000000 0.7443 0.7515 0.7569 0.7593 0.7605
1192.000000 0.7606 0.7606 0.7596 0.7582 0.7558
1197.000000 0.7533 0.7510 0.7505 0.7508 0.7514
1202.000000 0.7546 0.7583 0.7626 0.7670 0.7712
1207.000000 0.7741 0.7771 0.7801 0.7831 0.7861
1212.000000 0.7887 0.7907 0.7927 0.7938 0.7948
1217.000000 0.7954 0.7955 0.7955 0.7955 0.7954
1222.000000 0.7953 0.7952 0.7924 0.7950 0.7949
1227.000000 0.7946 0.7944 0.7941 0.7939 0.7937
1232.000000 0.7934 0.7931 0.7923 0.7915 0.7907
1237.000000 0.7899 0.7891 0.7883 0.7875 0.7867
1242.000000 0.7857 0.7847 0.7836 0.7826 0.7816
1247.000000 0.7806 0.7795 0.7785 0.7775 0.7765
1252.000000 0.7754 0.7741 0.7727 0.7714 0.7700
1257.000000 0.7687 0.7673 0.7660 0.7646 0.7630
1262.000000 0.7613 0.7596 0.7579 0.7562 0.7545
1267.000000 0.7510 0.7471 0.7431 0.7390 0.7329
1272.000000 0.7254 0.7106 0.6957 0.6809 0.6660
1277.000000 0.6512 0.6364 0.6243 0.6208 0.6173
1282.000000 0.6141 0.6107 0.5849 0.5591 0.5333
1287.000000 0.5076 0.4818 0.4560 0.4533 0.4562
1292.000000 0.4757 0.4896 0.5034 0.5173 0.5311
1297.000000 0.5443 0.5440 0.5447 0.5195 0.4881
1302.000000 0.4568 0.4254 0.4031 0.4005 0.3980
1307.000000 0.3960 0.3940 0.3712 0.3114 0.2517
1312.000000 0.1919 0.1341 0.1339 0.1324 0.1401
1317.000000 0.1479 0.1556 0.1634 0.1674 0.1669
1322.000000 0.1579 0.1481 0.1383 0.1285 0.1226
1327.000000 0.1227 0.1216 0.1341 0.1832 0.2322
1332.000000 0.2812 0.3302 0.3793 0.4283 0.4773
1337.000000 0.5263 0.5754 0.6244 0.6557 0.6642
1342.000000 0.6787 0.7138 0.7261 0.7352 0.7436
1347.000000 0.7495 0.7552 0.7581 0.7611 0.7641
1352.000000 0.7660 0.7678 0.7696 0.7708 0.7716
1357.000000 0.7724 0.7732 0.7740 0.7746 0.7745
1362.000000 0.7743 0.7739 0.7734 0.7730 0.7726
1367.000000 0.7722 0.7717 0.7713 0.7708 0.7703
1372.000000 0.7698 0.7693 0.7697 0.7704 0.7717
1377.000000 0.7730 0.7744 0.7767 0.7790 0.7813
1382.000000 0.7838 0.7857 0.7858 0.7855 0.7865
1387.000000 0.7823 0.7805 0.7786 0.7768 0.7750
1392.000000 0.7727 0.7705 0.7683 0.7660 0.7633
1397.000000 0.7606 0.7586 0.7575 0.7565 0.7564
1402.000000 0.7565 0.7566 0.7579 0.7596 0.7613
1407.000000 0.7626 0.7639 0.7652 0.7653 0.7653
1412.000000 0.7653 0.7649 0.7645 0.7642 0.7638
1417.000000 0.7635 0.7632 0.7629 0.7626 0.7623
1422.000000 0.7626 0.7628 0.7630 0.7633 0.7635
1427.000000 0.7644 0.7654 0.7663 0.7671 0.7669
1432.000000 0.7667 0.7665 0.7664 0.7662 0.7658
1437.000000 0.7651 0.7645 0.7639 0.7628 0.7602
1442.000000 0.7575 0.7548 0.7523 0.7500 0.7476
1447.000000 0.7453 0.7429 0.7409 0.7399 0.7388
1452.000000 0.7377 0.7375 0.7376 0.7377 0.7390
1457.000000 0.7406 0.7424 0.7449 0.7463 0.7468
1462.000000 0.7468 0.7456 0.7442 0.7420 0.7377
1467.000000 0.7310 0.7241 0.7172 0.7103 0.7033
1472.000000 0.6964 0.6946 0.6930 0.7147 0.7264
1477.000000 0.7381 0.7498 0.7614 0.7731 0.7748
1482.000000 0.7758 0.7766 0.7777 0.7766 0.7764
1487.000000 0.7757 0.7744 0.7728 0.7694 0.7660
1492.000000 0.7631 0.7604 0.7603 0.7608 0.7613
1497.000000 0.7634 0.7751 0.7868 0.7984 0.8073
1502.000000 0.8097 0.8118 0.8130 0.8139 0.8149
1507.000000 0.8154 0.8156 0.8157 0.8147 0.8155
1512.000000 0.8154 0.8152 0.8150 0.8149 0.8143
1517.000000 0.8135 0.8127 0.8119 0.8110 0.8102
1522.000000 0.8094 0.8085 0.8074 0.8064 0.8053
1527.000000 0.8042 0.8032 0.8021 0.8010 0.7999
1532.000000 0.7984 0.7964 0.7945 0.7926 0.7907
1537.000000 0.7887 0.7861 0.7829 0.7797 0.7765
1542.000000 0.7733 0.7701 0.7666 0.7627 0.7588
1547.000000 0.7549 0.7510 0.7455 0.7381 0.7306
1552.000000 0.7232 0.7095 0.6909 0.6554 0.6198
1557.000000 0.5842 0.5531 0.5513 0.5595 0.5698
1562.000000 0.5801 0.5903 0.5972 0.5998 0.6010
1567.000000 0.6020 0.6026 0.6032 0.6043 0.6056
1572.000000 0.6082 0.6123 0.6203 0.6296 0.6411
1577.000000 0.6749 0.6964 0.7103 0.7212 0.7290
1582.000000 0.7317 0.7337 0.7334 0.7345 0.7323
1587.000000 0.7314 0.7299 0.7198 0.7097 0.6996
1592.000000 0.6895 0.6794 0.6693 0.6676 0.6679
1597.000000 0.6648 0.7091 0.7323 0.7555 0.7758
1602.000000 0.7834 0.7907 0.7987 0.8040 0.8086
1607.000000 0.8126 0.8166 0.8198 0.8218 0.8237
1612.000000 0.8257 0.8274 0.8286 0.8298 0.8310
1617.000000 0.8323 0.8334 0.8341 0.8347 0.8354
1622.000000 0.8360 0.8367 0.8373 0.8379 0.8385
1627.000000 0.8391 0.8398 0.8404 0.8410 0.8416
1632.000000 0.8422 0.8427 0.8432 0.8437 0.8437
1637.000000 0.8431 0.8426 0.8420 0.8413 0.8404
1642.000000 0.8395 0.8394 0.8394 0.8393 0.8392
1647.000000 0.8406 0.8420 0.8436 0.8465 0.8495
1652.000000 0.8531 0.8552 0.8566 0.8580 0.8592
1657.000000 0.8595 0.8598 0.8602 0.8605 0.8609
1662.000000 0.8613 0.8616 0.8620 0.8622 0.8624
1667.000000 0.8626 0.8628 0.8630 0.8631 0.8632
1672.000000 0.8633 0.8634 0.8635 0.8635 0.8635
1677.000000 0.8636 0.8636 0.8636 0.8636 0.8636
1682.000000 0.8637 0.8636 0.8636 0.8635 0.8635
1687.000000 0.8634 0.8633 0.8633 0.8632 0.8631
1692.000000 0.8631 0.8630 0.8630 0.8629 0.8629
1697.000000 0.8628 0.8628 0.8628 0.8628 0.8628
1702.000000 0.8627 0.8627 0.8627 0.8627 0.8627
1707.000000 0.8627 0.8626 0.8626 0.8626 0.8626
1712.000000 0.8626 0.8626 0.8625 0.8625 0.8625
1717.000000 0.8625 0.8625 0.8625 0.8625 0.8625
1722.000000 0.8625 0.8625 0.8625 0.8625 0.8625
1727.000000 0.8625 0.8625 0.8625 0.8625 0.8625
1732.000000 0.8625 0.8625 0.8624 0.8623 0.8622
1737.000000 0.8621 0.8620 0.8619 0.8618 0.8617
1742.000000 0.8616 0.8615 0.8614 0.8613 0.8612
1747.000000 0.8611 0.8610 0.8613 0.8617 0.8620
1752.000000 0.8624 0.8627 0.8630 0.8634 0.8637
1757.000000 0.8641 0.8644 0.8648 0.8651 0.8655
1762.000000 0.8652 0.8650 0.8647 0.8644 0.8642
1767.000000 0.8639 0.8637 0.8634 0.8631 0.8629
1772.000000 0.8626 0.8623 0.8620 0.8618 0.8616
1777.000000 0.8615 0.8614 0.8612 0.8611 0.8609
1782.000000 0.8608 0.8607 0.8605 0.8604 0.8602
1787.000000 0.8587 0.8575 0.8567 0.8559 0.8551
1792.000000 0.8543 0.8535 0.8530 0.8530 0.8530
1797.000000 0.8530 0.8530 0.8538 0.8547 0.8558
1802.000000 0.8572 0.8585 0.8589 0.8592 0.8596
1807.000000 0.8599 0.8598 0.8597 0.8596 0.8595
1812.000000 0.8593 0.8592 0.8591 0.8589 0.8588
1817.000000 0.8587 0.8586 0.8586 0.8585 0.8584
1822.000000 0.8587 0.8591 0.8594 0.8597 0.8600
1827.000000 0.8603 0.8606 0.8607 0.8607 0.8607
1832.000000 0.8608 0.8608 0.8608 0.8608 0.8606
1837.000000 0.8605 0.8603 0.8602 0.8600 0.8598
1842.000000 0.8597 0.8595 0.8593 0.8591 0.8590
1847.000000 0.8588 0.8586 0.8584 0.8583 0.8580
1852.000000 0.8578 0.8576 0.8574 0.8572 0.8570
1857.000000 0.8569 0.8568 0.8568 0.8567 0.8567
1862.000000 0.8566 0.8566 0.8565 0.8564 0.8564
1867.000000 0.8563 0.8562 0.8561 0.8561 0.8560
1872.000000 0.8559 0.8558 0.8557 0.8556 0.8555
1877.000000 0.8554 0.8553 0.8551 0.8550 0.8549
1882.000000 0.8548 0.8547 0.8546 0.8545 0.8544
1887.000000 0.8543 0.8542 0.8541 0.8540 0.8539
1892.000000 0.8539 0.8538 0.8538 0.8537 0.8537
1897.000000 0.8536 0.8536 0.8535 0.8518 0.8502
1902.000000 0.8485 0.8468 0.8452 0.8436 0.8420
1907.000000 0.8405 0.8389 0.8373 0.8367 0.8374
1912.000000 0.8382 0.8390 0.8398 0.8407 0.8432
1917.000000 0.8457 0.8487 0.8519 0.8537 0.8542
1922.000000 0.8546 0.8543 0.8540 0.8537 0.8535
1927.000000 0.8532 0.8530 0.8528 0.8524 0.8519
1932.000000 0.8515 0.8510 0.8506 0.8501 0.8498
1937.000000 0.8496 0.8494 0.8493 0.8491 0.8489
1942.000000 0.8487 0.8488 0.8494 0.8499 0.8504
1947.000000 0.8509 0.8515 0.8515 0.8515 0.8515
1952.000000 0.8515 0.8515 0.8514 0.8514 0.8514
1957.000000 0.8514 0.8512 0.8511 0.8510 0.8508
1962.000000 0.8507 0.8505 0.8504 0.8503 0.8501
1967.000000 0.8500 0.8498 0.8498 0.8498 0.8499
1972.000000 0.8499 0.8499 0.8499 0.8500 0.8501
1977.000000 0.8503 0.8504 0.8506 0.8506 0.8502
1982.000000 0.8498 0.8494 0.8489 0.8486 0.8482
1987.000000 0.8478 0.8479 0.8484 0.8499 0.8520
1992.000000 0.8546 0.8564 0.8580 0.8591 0.8596
1997.000000 0.8602 0.8607 0.8612 0.8618 0.8621
2002.000000 0.8625 0.8625 0.8625 0.8625 0.8601
2007.000000 0.8625 0.8626 0.8626 0.8626 0.8625
2012.000000 0.8624 0.8623 0.8622 0.8621 0.8620
2017.000000 0.8619 0.8618 0.8617 0.8616 0.8615
2022.000000 0.8614 0.8612 0.8611 0.8610 0.8609
2027.000000 0.8608 0.8607 0.8605 0.8604 0.8603
2032.000000 0.8602 0.8601 0.8600 0.8598 0.8597
2037.000000 0.8596 0.8595 0.8593 0.8592 0.8590
2042.000000 0.8589 0.8588 0.8587 0.8585 0.8584
2047.000000 0.8583 0.8582 0.8581 0.8580 0.8579
2052.000000 0.8579 0.8578 0.8578 0.8577 0.8577
2057.000000 0.8577 0.8577 0.8576 0.8576 0.8575
2062.000000 0.8575 0.8574 0.8574 0.8574 0.8574
2067.000000 0.8573 0.8573 0.8572 0.8572 0.8571
2072.000000 0.8571 0.8570 0.8570 0.8569 0.8568
2077.000000 0.8567 0.8566 0.8565 0.8564 0.8563
2082.000000 0.8562 0.8561 0.8560 0.8559 0.8558
2087.000000 0.8557 0.8556 0.8555 0.8554 0.8553
2092.000000 0.8552 0.8551 0.8551 0.8550 0.8549
2097.000000 0.8548 0.8547 0.8545 0.8544 0.8543
2102.000000 0.8542 0.8540 0.8539 0.8538 0.8537
2107.000000 0.8535 0.8534 0.8532 0.8531 0.8530
2112.000000 0.8529 0.8527 0.8526 0.8524 0.8523
2117.000000 0.8522 0.8521 0.8519 0.8518 0.8516
2122.000000 0.8515 0.8514 0.8513 0.8511 0.8509
2127.000000 0.8507 0.8506 0.8504 0.8502 0.8500
2132.000000 0.8498 0.8496 0.8494 0.8492 0.8491
2137.000000 0.8489 0.8487 0.8485 0.8483 0.8481
2142.000000 0.8479 0.8477 0.8476 0.8474 0.8472
2147.000000 0.8470 0.8468 0.8466 0.8465 0.8463
2152.000000 0.8461 0.8459 0.8457 0.8456 0.8455
2157.000000 0.8454 0.8454 0.8454 0.8454 0.8454
2162.000000 0.8454 0.8453 0.8453 0.8453 0.8453
2167.000000 0.8452 0.8452 0.8455 0.8458 0.8462
2172.000000 0.8466 0.8467 0.8469 0.8468 0.8467
2177.000000 0.8465 0.8464 0.8454 0.8444 0.8432
2182.000000 0.8420 0.8407 0.8394 0.8380 0.8367
2187.000000 0.8362 0.8358 0.8353 0.8349 0.8344
2192.000000 0.8340 0.8336 0.8333 0.8330 0.8327
2197.000000 0.8324 0.8322 0.8319 0.8316 0.8313
2202.000000 0.8310 0.8307 0.8304 0.8301 0.8299
2207.000000 0.8296 0.8293 0.8290 0.8288 0.8285
2212.000000 0.8282 0.8278 0.8275 0.8270 0.8265
2217.000000 0.8260 0.8256 0.8251 0.8247 0.8242
2222.000000 0.8238 0.8233 0.8229 0.8224 0.8219
2227.000000 0.8214 0.8210 0.8205 0.8201 0.8196
2232.000000 0.8192 0.8187 0.8183 0.8178 0.8174
2237.000000 0.8169 0.8164 0.8159 0.8155 0.8150
2242.000000 0.8146 0.8141 0.8136 0.8131 0.8127
2247.000000 0.8122 0.8117 0.8112 0.8108 0.8103
2252.000000 0.8099 0.8094 0.8090 0.8085 0.8081
2257.000000 0.8077 0.8073 0.8069 0.8065 0.8060
2262.000000 0.8056 0.8052 0.8048 0.8043 0.8039
2267.000000 0.8035 0.8031 0.8026 0.8022 0.8018
2272.000000 0.8014 0.8009 0.8005 0.8001 0.7997
2277.000000 0.7993 0.7989 0.7985 0.7982 0.7979
2282.000000 0.7977 0.7974 0.7972 0.7970 0.7968
2287.000000 0.7965 0.7963 0.7960 0.7958 0.7956
2292.000000 0.7954 0.7951 0.7949 0.7946 0.7944
2297.000000 0.7942 0.7940 0.7941 0.7943 0.7945
2302.000000 0.7948 0.7950 0.7953 0.7955 0.7957
2307.000000 0.7959 0.7962 0.7964 0.7966 0.7968
2312.000000 0.7971 0.7973 0.7975 0.7977 0.7980
2317.000000 0.7983 0.7987 0.7990 0.7994 0.7997
2322.000000 0.8001 0.8004 0.8008 0.8012 0.8016
2327.000000 0.8019 0.8023 0.8023 0.8024 0.8024
2332.000000 0.8025 0.8025 0.8025 0.8025 0.8026
2337.000000 0.8026 0.8027 0.8027 0.8027 0.8027
2342.000000 0.8028 0.8028 0.8029 0.8029 0.8030
2347.000000 0.8031 0.8032 0.8033 0.8034 0.8035
2352.000000 0.8036 0.8037 0.8038 0.8038 0.8039
2357.000000 0.8040 0.8041 0.8042 0.8043 0.8044
2362.000000 0.8045 0.8046 0.8047 0.8047 0.8048
2367.000000 0.8047 0.8047 0.8047 0.8047 0.8046
2372.000000 0.8046 0.8045 0.8045 0.8044 0.8044
2377.000000 0.8043 0.8043 0.8042 0.8042 0.8041
2382.000000 0.8041 0.8041 0.8041 0.8040 0.8040
2387.000000 0.8038 0.8037 0.8035 0.8034 0.8032
2392.000000 0.8031 0.8030 0.8029 0.8027 0.8026
2397.000000 0.8024 0.8023 0.8021 0.8020 0.8019
2402.000000 0.8018 0.8016 0.8015 0.8014 0.8013
2407.000000 0.8011 0.8010 0.8009 0.8008 0.8007
2412.000000 0.8006 0.8005 0.8004 0.8003 0.8002
2417.000000 0.8001 0.8000 0.7999 0.7998 0.7997
2422.000000 0.7996 0.7995 0.7995 0.7994 0.7993
2427.000000 0.7992 0.7991 0.7990 0.7989 0.7988
2432.000000 0.7987 0.7986 0.7985 0.7984 0.7983
2437.000000 0.7982 0.7982 0.7981 0.7980 0.7980
2442.000000 0.7980 0.7979 0.7979 0.7978 0.7978
2447.000000 0.7977 0.7977 0.7976 0.7976 0.7975
2452.000000 0.7975 0.7975 0.7975 0.7974 0.7974
2457.000000 0.7973 0.7973 0.7972 0.7972 0.7973
2462.000000 0.7974 0.7974 0.7975 0.7975 0.7975
2467.000000 0.7974 0.7974 0.7973 0.7973 0.7972
2472.000000 0.7972 0.7971 0.7971 0.7970 0.7970
2477.000000 0.7971 0.7972 0.7972 0.7973 0.7973
2482.000000 0.7974 0.7975 0.7976 0.7976 0.7977
2487.000000 0.7977 0.7978 0.7979 0.7980 0.7980
2492.000000 0.7981 0.7981 0.7982 0.7983 0.7984
2497.000000 0.7984 0.7985 0.7985 0.7986 0.7988
2502.000000 0.7991 0.7993 0.7996 0.7998 0.8000
2507.000000 0.8002 0.8005 0.8007 0.8010 0.8012
2512.000000 0.8014 0.8015 0.8016 0.8015 0.8015
2517.000000 0.8014 0.8014 0.8014 0.8014 0.8013
2522.000000 0.8012 0.8010 0.8008 0.8006 0.8004
2527.000000 0.8000 0.7997 0.7992 0.7988 0.7983
2532.000000 0.7979 0.7974 0.7969 0.7964 0.7960
2537.000000 0.7955 0.7951 0.7946 0.7942 0.7937
2542.000000 0.7933 0.7928 0.7924 0.7919 0.7915
2547.000000 0.7910 0.7906 0.7901 0.7897 0.7890
2552.000000 0.7884 0.7877 0.7871 0.7864 0.7857
2557.000000 0.7850 0.7844 0.7837 0.7830 0.7823
2562.000000 0.7817 0.7810 0.7803 0.7796 0.7790
2567.000000 0.7783 0.7777 0.7771 0.7765 0.7758
2572.000000 0.7752 0.7748 0.7744 0.7743 0.7742
2577.000000 0.7741 0.7741 0.7740 0.7739 0.7738
2582.000000 0.7737 0.7736 0.7736 0.7735 0.7734
2587.000000 0.7733 0.7732 0.7731 0.7731 0.7730
2592.000000 0.7730 0.7729 0.7729 0.7729 0.7729
2597.000000 0.7728 0.7728 0.7727 0.7727 0.7726
2602.000000 0.7726 0.7725 0.7725 0.7724 0.7724
2607.000000 0.7724 0.7724 0.7723 0.7723 0.7723
2612.000000 0.7723 0.7723 0.7723 0.7723 0.7723
2617.000000 0.7723 0.7723 0.7723 0.7723 0.7723
2622.000000 0.7723 0.7723 0.7723 0.7723 0.7723
2627.000000 0.7723 0.7723 0.7723 0.7723 0.7723
2632.000000 0.7723 0.7723 0.7723 0.7723 0.7723
2637.000000 0.7723 0.7723 0.7723 0.7723 0.7723
2642.000000 0.7723 0.7723 0.7723 0.7723 0.7723
2647.000000 0.7723 0.7723 0.7723 0.7724 0.7724
2652.000000 0.7724 0.7724 0.7724 0.7724 0.7724
2657.000000 0.7724 0.7724 0.7724 0.7725 0.7725
2662.000000 0.7725 0.7725 0.7725 0.7725 0.7725
2667.000000 0.7725 0.7725 0.7725 0.7725 0.7725
2672.000000 0.7725 0.7725 0.7725 0.7724 0.7724
2677.000000 0.7724 0.7724 0.7723 0.7723 0.7723
2682.000000 0.7723 0.7723 0.7723 0.7722 0.7722
2687.000000 0.7722 0.7722 0.7721 0.7721 0.7721
2692.000000 0.7721 0.7720 0.7720 0.7720 0.7720
2697.000000 0.7720 0.7720 0.7719 0.7719 0.7719
2702.000000 0.7719 0.7718 0.7718 0.7718 0.7718
2707.000000 0.7718 0.7718 0.7718 0.7719 0.7719
2712.000000 0.7719 0.7719 0.7719 0.7719 0.7719
2717.000000 0.7719 0.7719 0.7719 0.7719 0.7719
2722.000000 0.7720 0.7720 0.7720 0.7720 0.7720
2727.000000 0.7720 0.7720 0.7720 0.7720 0.7720
2732.000000 0.7721 0.7721 0.7721 0.7721 0.7721
2737.000000 0.7721 0.7721 0.7721 0.7721 0.7720
2742.000000 0.7719 0.7718 0.7717 0.7716 0.7715
2747.000000 0.7714 0.7714 0.7713 0.7712 0.7711
2752.000000 0.7710 0.7709 0.7708 0.7707 0.7706
2757.000000 0.7705 0.7704 0.7703 0.7702 0.7701
2762.000000 0.7700 0.7699 0.7699 0.7698 0.7697
2767.000000 0.7696 0.7695 0.7693 0.7692 0.7691
2772.000000 0.7690 0.7688 0.7687 0.7686 0.7685
2777.000000 0.7684 0.7683 0.7681 0.7680 0.7679
2782.000000 0.7678 0.7676 0.7675 0.7674 0.7673
2787.000000 0.7671 0.7670 0.7669 0.7668 0.7667
2792.000000 0.7666 0.7664 0.7663 0.7662 0.7661
2797.000000 0.7658 0.7656 0.7652 0.7649 0.7645
2802.000000 0.7642 0.7638 0.7635 0.7631 0.7628
2807.000000 0.7624 0.7620 0.7616 0.7613 0.7609
2812.000000 0.7606 0.7602 0.7599 0.7595 0.7592
2817.000000 0.7588 0.7585 0.7581 0.7577 0.7573
2822.000000 0.7570 0.7566 0.7562 0.7558 0.7555
2827.000000 0.7551 0.7548 0.7544 0.7540 0.7536
2832.000000 0.7533 0.7529 0.7526 0.7522 0.7518
2837.000000 0.7514 0.7511 0.7507 0.7504 0.7500
2842.000000 0.7496 0.7492 0.7489 0.7485 0.7482
2847.000000 0.7478 0.7474 0.7470 0.7467 0.7464
2852.000000 0.7461 0.7458 0.7456 0.7453 0.7451
2857.000000 0.7448 0.7446 0.7443 0.7441 0.7438
2862.000000 0.7435 0.7432 0.7430 0.7427 0.7425
2867.000000 0.7422 0.7420 0.7417 0.7415 0.7412
2872.000000 0.7409 0.7406 0.7404 0.7401 0.7399
2877.000000 0.7396 0.7394 0.7391 0.7389 0.7386
2882.000000 0.7384 0.7381 0.7378 0.7375 0.7373
2887.000000 0.7370 0.7367 0.7363 0.7360 0.7356
2892.000000 0.7352 0.7348 0.7345 0.7341 0.7337
2897.000000 0.7333 0.7330 0.7326 0.7322 0.7318
2902.000000 0.7314 0.7310 0.7307 0.7303 0.7299
2907.000000 0.7295 0.7292 0.7288 0.7285 0.7282
2912.000000 0.7279 0.7275 0.7272 0.7268 0.7265
2917.000000 0.7261 0.7258 0.7255 0.7252 0.7254
2922.000000 0.7256 0.7263 0.7270 0.7274 0.7279
2927.000000 0.7283 0.7287 0.7291 0.7295 0.7297
2932.000000 0.7300 0.7302 0.7305 0.7306 0.7307
2937.000000 0.7307 0.7307 0.7307 0.7307 0.7306
2942.000000 0.7306 0.7304 0.7302 0.7300 0.7298
2947.000000 0.7296 0.7294 0.7291 0.7288 0.7285
2952.000000 0.7282 0.7279 0.7276 0.7272 0.7269
2957.000000 0.7266 0.7263 0.7259 0.7256 0.7251
2962.000000 0.7247 0.7242 0.7237 0.7232 0.7227
2967.000000 0.7222 0.7218 0.7213 0.7208 0.7202
2972.000000 0.7197 0.7192 0.7187 0.7181 0.7176
2977.000000 0.7170 0.7165 0.7159 0.7154 0.7148
2982.000000 0.7143 0.7137 0.7132 0.7126 0.7121
2987.000000 0.7115 0.7110 0.7104 0.7099 0.7093
2992.000000 0.7088 0.7082 0.7077 0.7071 0.7066
2997.000000 0.7060 0.7055 0.7049 0.7044 0.7038
3002.000000 0.7032 0.7026 0.7021 0.7015 0.7010
3007.000000 0.7004 0.6999 0.6993 0.6988 0.6982
3012.000000 0.6977 0.6971 0.6966 0.6960 0.6955
3017.000000 0.6948 0.6942 0.6936 0.6930 0.6923
3022.000000 0.6917 0.6911 0.6905 0.6898 0.6892
3027.000000 0.6886 0.6880 0.6874 0.6868 0.6861
3032.000000 0.6855 0.6849 0.6843 0.6836 0.6829
3037.000000 0.6819 0.6810 0.6800 0.6791 0.6782
3042.000000 0.6773 0.6763 0.6754 0.6744 0.6735
3047.000000 0.6726 0.6717 0.6707 0.6698 0.6687
3052.000000 0.6677 0.6660 0.6643 0.6626 0.6610
3057.000000 0.6593 0.6576 0.6559 0.6542 0.6525
3062.000000 0.6508 0.6491 0.6474 0.6454 0.6435
3067.000000 0.6415 0.6395 0.6374 0.6354 0.6334
3072.000000 0.6314 0.6294 0.6274 0.6250 0.6226
3077.000000 0.6198 0.6170 0.6142 0.6114 0.6086
3082.000000 0.6058 0.6030 0.6002 0.5974 0.5946
3087.000000 0.5912 0.5879 0.5843 0.5808 0.5772
3092.000000 0.5737 0.5706 0.5676 0.5650 0.5624
3097.000000 0.5598 0.5573 0.5551 0.5529 0.5516
3102.000000 0.5503 0.5497 0.5491 0.5485 0.5479
3107.000000 0.5447 0.5415 0.5370 0.5326 0.5306
3112.000000 0.5286 0.5270 0.5255 0.5250 0.5246
3117.000000 0.5241 0.5237 0.5239 0.5242 0.5252
3122.000000 0.5227 0.5288 0.5314 0.5355 0.5397
3127.000000 0.5438 0.5479 0.5521 0.5563 0.5592
3132.000000 0.5622 0.5652 0.5682 0.5709 0.5737
3137.000000 0.5756 0.5775 0.5789 0.5804 0.5805
3142.000000 0.5807 0.5808 0.5811 0.5808 0.5807
3147.000000 0.5804 0.5802 0.5797 0.5793 0.5787
3152.000000 0.5781 0.5774 0.5768 0.5758 0.5749
3157.000000 0.5739 0.5729 0.5719 0.5709 0.5697
3162.000000 0.5686 0.5673 0.5660 0.5647 0.5634
3167.000000 0.5622 0.5610 0.5598 0.5586 0.5574
3172.000000 0.5563 0.5551 0.5540 0.5528 0.5517
3177.000000 0.5502 0.5487 0.5470 0.5454 0.5437
3182.000000 0.5421 0.5405 0.5389 0.5372 0.5356
3187.000000 0.5336 0.5317 0.5294 0.5271 0.5248
3192.000000 0.5225 0.5202 0.5179 0.5156 0.5133
3197.000000 0.5104 0.5076 0.5039 0.5002 0.4964
3202.000000 0.4927 0.4890 0.4853 0.4816 0.4779
3207.000000 0.4740 0.4702 0.4657 0.4613 0.4568
3212.000000 0.4524 0.4479 0.4435 0.4390 0.4346
3217.000000 0.4266 0.4186 0.4088 0.3991 0.3872
3222.000000 0.3753 0.3609 0.3465 0.3298 0.3131
3227.000000 0.2964 0.2797 0.2630 0.2464 0.2297
3232.000000 0.2130 0.1963 0.1797 0.1743 0.1689
3237.000000 0.1677 0.1666 0.1664 0.1662 0.1662
3242.000000 0.1663 0.1663 0.1664 0.1665 0.1666
3247.000000 0.1667 0.1648 0.1671 0.1673 0.1674
3252.000000 0.1676 0.1682 0.1688 0.1695 0.1702
3257.000000 0.1721 0.1740 0.1771 0.1803 0.1862
3262.000000 0.1922 0.2077 0.2233 0.2399 0.2566
3267.000000 0.2732 0.2899 0.3065 0.3232 0.3399
3272.000000 0.3566 0.3732 0.3899 0.4065 0.4232
3277.000000 0.4277 0.4322 0.4337 0.4353 0.4358
3282.000000 0.4364 0.4365 0.4367 0.4367 0.4368
3287.000000 0.4364 0.4377 0.4353 0.4346 0.4333
3292.000000 0.4320 0.4301 0.4282 0.4258 0.4234
3297.000000 0.4210 0.4187 0.4163 0.4140 0.4116
3302.000000 0.4092 0.4059 0.4026 0.3988 0.3950
3307.000000 0.3912 0.3874 0.3809 0.3745 0.3630
3312.000000 0.3516 0.3401 0.3287 0.3172 0.3058
3317.000000 0.2944 0.2830 0.2715 0.2601 0.2536
3322.000000 0.2453 0.2474 0.2477 0.2483 0.2489
3327.000000 0.2540 0.2591 0.2699 0.2807 0.2928
3332.000000 0.3049 0.3169 0.3290 0.3411 0.3532
3337.000000 0.3653 0.3774 0.3895 0.4016 0.4137
3342.000000 0.4258 0.4379 0.4500 0.4519 0.4556
3347.000000 0.4538 0.4538 0.4536 0.4534 0.4531
3352.000000 0.4528 0.4514 0.4501 0.4425 0.4350
3357.000000 0.4271 0.4192 0.4113 0.4034 0.3954
3362.000000 0.3875 0.3796 0.3717 0.3637 0.3558
3367.000000 0.3479 0.3400 0.3321 0.3242 0.3175
3372.000000 0.3108 0.3104 0.3118 0.3100 0.3100
3377.000000 0.3108 0.3116 0.3253 0.3390 0.3508
3382.000000 0.3626 0.3838 0.4051 0.4263 0.4476
3387.000000 0.4688 0.4901 0.5113 0.5326 0.5538
3392.000000 0.5751 0.5953 0.6156 0.6289 0.6423
3397.000000 0.6531 0.6640 0.6733 0.6826 0.6908
3402.000000 0.6991 0.7052 0.7113 0.7166 0.7220
3407.000000 0.7260 0.7300 0.7329 0.7359 0.7375
3412.000000 0.7391 0.7407 0.7424 0.7440 0.7457
3417.000000 0.7466 0.7475 0.7483 0.7492 0.7501
3422.000000 0.7510 0.7514 0.7519 0.7521 0.7523
3427.000000 0.7524 0.7525 0.7525 0.7526 0.7527
3432.000000 0.7528 0.7528 0.7541 0.7530 0.7531
3437.000000 0.7532 0.7533 0.7533 0.7534 0.7533
3442.000000 0.7533 0.7532 0.7531 0.7530 0.7530
3447.000000 0.7529 0.7528 0.7526 0.7524 0.7522
3452.000000 0.7520 0.7518 0.7516 0.7514 0.7512
3457.000000 0.7510 0.7508 0.7506 0.7504 0.7502
3462.000000 0.7500 0.7497 0.7495 0.7493 0.7491
3467.000000 0.7489 0.7487 0.7485 0.7483 0.7481
3472.000000 0.7479 0.7477 0.7475 0.7473 0.7471
3477.000000 0.7469 0.7467 0.7465 0.7463 0.7461
3482.000000 0.7459 0.7457 0.7455 0.7452 0.7450
3487.000000 0.7447 0.7445 0.7442 0.7440 0.7437
3492.000000 0.7435 0.7432 0.7430 0.7427 0.7425
3497.000000 0.7422 0.7420 0.7417 0.7415 0.7412
3502.000000 0.7410 0.7407 0.7405 0.7403 0.7401
3507.000000 0.7398 0.7396 0.7393 0.7391 0.7388
3512.000000 0.7386 0.7383 0.7381 0.7378 0.7376
3517.000000 0.7373 0.7371 0.7368 0.7366 0.7363
3522.000000 0.7361 0.7358 0.7356 0.7353 0.7351
3527.000000 0.7348 0.7346 0.7343 0.7341 0.7338
3532.000000 0.7336 0.7333 0.7331 0.7328 0.7326
3537.000000 0.7323 0.7321 0.7318 0.7316 0.7313
3542.000000 0.7311 0.7308 0.7306 0.7303 0.7301
3547.000000 0.7298 0.7296 0.7293 0.7291 0.7288
3552.000000 0.7286 0.7283 0.7281 0.7278 0.7276
3557.000000 0.7273 0.7271 0.7268 0.7266 0.7263
3562.000000 0.7261 0.7258 0.7256 0.7253 0.7251
3567.000000 0.7248 0.7246 0.7243 0.7241 0.7238
3572.000000 0.7236 0.7234 0.7232 0.7229 0.7227
3577.000000 0.7224 0.7222 0.7219 0.7217 0.7214
3582.000000 0.7212 0.7209 0.7207 0.7204 0.7202
3587.000000 0.7199 0.7197 0.7195 0.7193 0.7190
3592.000000 0.7188 0.7185 0.7183 0.7180 0.7178
3597.000000 0.7175 0.7173 0.7170 0.7168 0.7166
3602.000000 0.7164 0.7161 0.7159 0.7156 0.7154
3607.000000 0.7151 0.7149 0.7146 0.7144 0.7141
3612.000000 0.7139 0.7137 0.7135 0.7132 0.7130
3617.000000 0.7127 0.7125 0.7123 0.7121 0.7118
3622.000000 0.7116 0.7114 0.7112 0.7110 0.7108
3627.000000 0.7105 0.7103 0.7101 0.7099 0.7097
3632.000000 0.7095 0.7092 0.7090 0.7088 0.7086
3637.000000 0.7084 0.7082 0.7079 0.7077 0.7075
3642.000000 0.7073 0.7071 0.7069 0.7066 0.7064
3647.000000 0.7062 0.7060 0.7058 0.7056 0.7053
3652.000000 0.7051 0.7049 0.7047 0.7045 0.7043
3657.000000 0.7040 0.7038 0.7036 0.7034 0.7032
3662.000000 0.7030 0.7028 0.7026 0.7023 0.7021
3667.000000 0.7019 0.7017 0.7015 0.7013 0.7010
3672.000000 0.7008 0.7006 0.7004 0.7002 0.7001
3677.000000 0.6999 0.6998 0.6996 0.6994 0.6992
3682.000000 0.6991 0.6989 0.6987 0.6985 0.6984
3687.000000 0.6982 0.6981 0.6979 0.6977 0.6975
3692.000000 0.6974 0.6972 0.6970 0.6968 0.6967
3697.000000 0.6965 0.6964 0.6962 0.6960 0.6958
3702.000000 0.6957 0.6955 0.6954 0.6952 0.6950
3707.000000 0.6948 0.6947 0.6945 0.6943 0.6941
3712.000000 0.6940 0.6938 0.6937 0.6935 0.6933
3717.000000 0.6931 0.6930 0.6928 0.6927 0.6926
3722.000000 0.6926 0.6925 0.6924 0.6923 0.6922
3727.000000 0.6921 0.6920 0.6919 0.6918 0.6917
3732.000000 0.6916 0.6915 0.6915 0.6914 0.6913
3737.000000 0.6912 0.6911 0.6910 0.6909 0.6908
3742.000000 0.6907 0.6906 0.6906 0.6905 0.6904
3747.000000 0.6903 0.6902 0.6901 0.6900 0.6899
3752.000000 0.6898 0.6897 0.6897 0.6896 0.6895
3757.000000 0.6894 0.6894 0.6893 0.6893 0.6892
3762.000000 0.6892 0.6891 0.6891 0.6890 0.6889
3767.000000 0.6888 0.6888 0.6887 0.6887 0.6886
3772.000000 0.6886 0.6885 0.6885 0.6884 0.6883
3777.000000 0.6882 0.6882 0.6881 0.6881 0.6880
3782.000000 0.6880 0.6879 0.6879 0.6878 0.6878
3787.000000 0.6877 0.6876 0.6875 0.6875 0.6875
3792.000000 0.6875
##END=
