##TITLE=ETHANONE, 1-[4-TRIFLUOROMETHYLPHENYL]-
##JCAMP-DX=4.24
##DATA TYPE=INFRARED SPECTRUM
##CLASS=COBLENTZ III
##ORIGIN=DOW CHEMICAL COMPANY
##OWNER=COBLENTZ SOCIETY
Collection (C) 2018 copyright by the U.S. Secretary of Commerce
on behalf of the United States of America. All rights reserved.
##DATE=1963/05/27
##NAMES=1-[4-(trifluoromethyl)phenyl]ethanone
ACETOPHENONE, 4-[TRIFLUOROMETHYL]-
##CAS REGISTRY NO=709-63-7
##MOLFORM=C9 H7 F3 O
##SOURCE REFERENCE=COBLENTZ NO. 10373
##$NIST SOURCE=COBLENTZ
##$NIST IMAGE=cob10373
##SPECTROMETER/DATA SYSTEM=DOW KBr FOREPRISM-GRATING
##INSTRUMENT PARAMETERS=BLAZED AT 3.5, 12.0, 20.0 MICRON, CHANGED AT 5.0, 7.5, 14.9 MICRON
##STATE=SOLUTION (2% IN CCl4 FOR 3800-1333, 2% IN CS2 FOR 1333-400 CM^-^1)
##PATH LENGTH=0.011, 0.011 CM
$$SPECTRAL CONTAMINATION DUE TO CCl4 AROUND 1550 CM^-^1
$$ SEE SPECTRUM NO. 8542 FOR "10% SOLUTION" STATE
##SAMPLING PROCEDURE=TRANSMISSION
##RESOLUTION=4
##DATA PROCESSING=DIGITIZED BY NIST FROM HARD COPY (FROM TWO SEGMENTS)
##XUNITS=1/CM
##YUNITS=TRANSMITTANCE
##XFACTOR=1.000000
##YFACTOR=1
##DELTAX=0.875659
##FIRSTX=381.786
##LASTX=3797.73
##FIRSTY=0.167
##MAXX=3797.73
##MINX=381.786
##MAXY=0.998
##MINY=0.094042
##NPOINTS=3902
##XYDATA=(X++(Y..Y))
381.786000 0.1670 0.1690 0.1700 0.1710 0.1710
386.164296 0.1750 0.1810 0.1840 0.1890 0.1930
390.542591 0.2000 0.2040 0.2110 0.2160 0.2250
394.920887 0.2310 0.2400 0.2490 0.2609 0.2749
399.299182 0.3040 0.3050 0.3430 0.3959 0.4439
403.677478 0.4470 0.4719 0.4969 0.5189 0.5479
408.055773 0.5740 0.6120 0.6230 0.6420 0.6600
412.434069 0.6730 0.6780 0.6929 0.7059 0.7120
416.812365 0.7200 0.7240 0.7270 0.7350 0.7400
421.190660 0.7440 0.7480 0.7500 0.7510 0.7540
425.568956 0.7550 0.7570 0.7580 0.7580 0.7590
429.947251 0.7630 0.7660 0.7700 0.7730 0.7780
434.325547 0.7830 0.7870 0.7930 0.7950 0.7960
438.703843 0.7990 0.8000 0.8030 0.8090 0.8100
443.082138 0.8130 0.8140 0.8150 0.8170 0.8180
447.460434 0.8190 0.8210 0.8210 0.8220 0.8240
451.838729 0.8250 0.8260 0.8280 0.8290 0.8300
456.217025 0.8300 0.8320 0.8320 0.8330 0.8340
460.595320 0.8340 0.8360 0.8370 0.8370 0.8390
464.973616 0.8400 0.8400 0.8400 0.8400 0.8410
469.351912 0.8410 0.8410 0.8410 0.8410 0.8410
473.730207 0.8400 0.8400 0.8390 0.8390 0.8390
478.108503 0.8390 0.8390 0.8370 0.8370 0.8370
482.486798 0.8360 0.8360 0.8340 0.8340 0.8330
486.865094 0.8330 0.8320 0.8320 0.8300 0.8280
491.243390 0.8240 0.8180 0.8150 0.8130 0.8110
495.621685 0.8040 0.7950 0.7930 0.7950 0.7990
499.999981 0.8070 0.8130 0.8180 0.8299 0.8320
504.378276 0.8360 0.8480 0.8490 0.8510 0.8540
508.756572 0.8590 0.8600 0.8620 0.8630 0.8640
513.134867 0.8640 0.8660 0.8670 0.8690 0.8690
517.513163 0.8700 0.8710 0.8710 0.8730 0.8740
521.891459 0.8740 0.8740 0.8750 0.8770 0.8770
526.269754 0.8780 0.8780 0.8780 0.8790 0.8790
530.648050 0.8790 0.8810 0.8810 0.8810 0.8820
535.026345 0.8820 0.8820 0.8820 0.8840 0.8840
539.404641 0.8840 0.8840 0.8850 0.8850 0.8850
543.782936 0.8850 0.8850 0.8850 0.8850 0.8850
548.161232 0.8850 0.8850 0.8850 0.8850 0.8850
552.539528 0.8850 0.8850 0.8850 0.8840 0.8840
556.917823 0.8840 0.8850 0.8850 0.8850 0.8840
561.296119 0.8840 0.8820 0.8820 0.8810 0.8810
565.674414 0.8810 0.8810 0.8790 0.8810 0.8810
570.052710 0.8820 0.8820 0.8810 0.8810 0.8810
574.431006 0.8810 0.8810 0.8810 0.8810 0.8810
578.809301 0.8790 0.8790 0.8790 0.8780 0.8780
583.187597 0.8770 0.8750 0.8740 0.8740 0.8730
587.565892 0.8710 0.8710 0.8700 0.8690 0.8670
591.944188 0.8660 0.8630 0.8620 0.8590 0.8580
596.322483 0.8510 0.8490 0.8470 0.8321 0.8141
600.700779 0.7890 0.7610 0.7280 0.6821 0.6571
605.079075 0.6570 0.6759 0.6820 0.6820 0.6840
609.457370 0.6940 0.7210 0.7810 0.8020 0.8090
613.835666 0.8130 0.8240 0.8290 0.8340 0.8400
618.213961 0.8470 0.8490 0.8520 0.8560 0.8600
622.592257 0.8620 0.8640 0.8700 0.8710 0.8710
626.970553 0.8730 0.8750 0.8780 0.8780 0.8780
631.348848 0.8790 0.8790 0.8790 0.8790 0.8790
635.727144 0.8790 0.8790 0.8790 0.8790 0.8780
640.105439 0.8750 0.8750 0.8730 0.8730 0.8710
644.483735 0.8700 0.8700 0.8690 0.8690 0.8670
648.862030 0.8670 0.8660 0.8640 0.8640 0.8660
653.240326 0.8660 0.8690 0.8700 0.8730 0.8750
657.618622 0.8790 0.8840 0.8850 0.8890 0.8900
661.996917 0.8920 0.8920 0.8930 0.8940 0.8940
666.375213 0.8960 0.8960 0.8960 0.8960 0.8990
670.753508 0.9000 0.9000 0.9010 0.9010 0.9030
675.131804 0.9040 0.9040 0.9070 0.9080 0.9080
679.510099 0.9090 0.9090 0.9110 0.9110 0.9110
683.888395 0.9120 0.9120 0.9120 0.9140 0.9140
688.266691 0.9150 0.9160 0.9160 0.9160 0.9180
692.644986 0.9180 0.9180 0.9180 0.9180 0.9180
697.023282 0.9180 0.9190 0.9190 0.9190 0.9190
701.401577 0.9180 0.9180 0.9180 0.9180 0.9180
705.779873 0.9180 0.9180 0.9180 0.9160 0.9160
710.158169 0.9150 0.9110 0.9080 0.9030 0.8930
714.536464 0.8900 0.8710 0.8330 0.7351 0.5793
718.914760 0.5790 0.7455 0.8247 0.8688 0.9048
723.293055 0.9120 0.9180 0.9240 0.9310 0.9330
727.671351 0.9340 0.9350 0.9350 0.9380 0.9420
732.049646 0.9420 0.9420 0.9440 0.9440 0.9440
736.427942 0.9420 0.9410 0.9410 0.9410 0.9390
740.806238 0.9390 0.9420 0.9460 0.9460 0.9480
745.184533 0.9490 0.9500 0.9490 0.9500 0.9520
749.562829 0.9530 0.9530 0.9540 0.9540 0.9540
753.941124 0.9540 0.9540 0.9540 0.9540 0.9540
758.319420 0.9540 0.9540 0.9560 0.9570 0.9570
762.697716 0.9560 0.9560 0.9560 0.9560 0.9560
767.076011 0.9560 0.9570 0.9570 0.9590 0.9590
771.454307 0.9570 0.9560 0.9560 0.9560 0.9560
775.832602 0.9560 0.9560 0.9560 0.9560 0.9560
780.210898 0.9560 0.9560 0.9540 0.9540 0.9540
784.589193 0.9540 0.9540 0.9540 0.9540 0.9540
788.967489 0.9540 0.9540 0.9540 0.9540 0.9540
793.345785 0.9560 0.9560 0.9560 0.9560 0.9560
797.724080 0.9570 0.9570 0.9570 0.9570 0.9570
802.102376 0.9570 0.9570 0.9570 0.9570 0.9570
806.480671 0.9570 0.9570 0.9570 0.9570 0.9570
810.858967 0.9590 0.9590 0.9600 0.9600 0.9600
815.237263 0.9600 0.9600 0.9600 0.9590 0.9570
819.615558 0.9560 0.9540 0.9520 0.9460 0.9440
823.993854 0.9380 0.9340 0.9220 0.9120 0.8991
828.372149 0.8890 0.8780 0.8250 0.7380 0.5751
832.750445 0.5750 0.6499 0.6540 0.6839 0.6989
837.128740 0.8140 0.8190 0.8210 0.8090 0.7930
841.507036 0.7591 0.7201 0.6652 0.5265 0.4852
845.885332 0.4580 0.4581 0.5190 0.6110 0.6690
850.263627 0.7100 0.7280 0.7529 0.7759 0.7780
854.641923 0.7920 0.7930 0.7960 0.8030 0.8060
859.020218 0.8100 0.8140 0.8170 0.8250 0.8300
863.398514 0.8330 0.8390 0.8490 0.8520 0.8580
867.776809 0.8590 0.8620 0.8670 0.8700 0.8780
872.155105 0.8840 0.8840 0.8890 0.8900 0.8930
876.533401 0.8960 0.9000 0.9030 0.9070 0.9110
880.911696 0.9140 0.9200 0.9240 0.9270 0.9330
885.289992 0.9350 0.9410 0.9460 0.9530 0.9560
889.668287 0.9590 0.9610 0.9650 0.9680 0.9710
894.046583 0.9750 0.9760 0.9760 0.9780 0.9790
898.424879 0.9800 0.9820 0.9820 0.9830 0.9840
902.803174 0.9840 0.9840 0.9840 0.9840 0.9840
907.181470 0.9860 0.9860 0.9870 0.9890 0.9890
911.559765 0.9890 0.9900 0.9910 0.9910 0.9910
915.938061 0.9910 0.9900 0.9900 0.9900 0.9890
920.316356 0.9890 0.9890 0.9890 0.9890 0.9870
924.694652 0.9870 0.9870 0.9870 0.9870 0.9870
929.072948 0.9870 0.9870 0.9860 0.9840 0.9830
933.451243 0.9820 0.9820 0.9820 0.9800 0.9790
937.829539 0.9780 0.9780 0.9760 0.9740 0.9710
942.207834 0.9710 0.9680 0.9650 0.9590 0.9540
946.586130 0.9480 0.9420 0.9350 0.9240 0.9120
950.964426 0.8990 0.8880 0.8730 0.8620 0.8490
955.342721 0.8470 0.8430 0.8440 0.8520 0.8560
959.721017 0.8740 0.8900 0.9070 0.9190 0.9260
964.099312 0.9330 0.9420 0.9450 0.9480 0.9540
968.477608 0.9560 0.9560 0.9590 0.9610 0.9610
972.855903 0.9630 0.9630 0.9630 0.9630 0.9630
977.234199 0.9630 0.9630 0.9630 0.9640 0.9640
981.612495 0.9640 0.9630 0.9630 0.9630 0.9630
985.990790 0.9630 0.9610 0.9610 0.9600 0.9600
990.369086 0.9600 0.9590 0.9570 0.9570 0.9560
994.747381 0.9540 0.9540 0.9530 0.9530 0.9530
999.125677 0.9520 0.9500 0.9490 0.9450 0.9410
1003.503972 0.9370 0.9340 0.9260 0.9140 0.9110
1007.882268 0.9110 0.9090 0.9030 0.8960 0.8631
1012.260564 0.8139 0.7476 0.4370 0.4370 0.5959
1016.638859 0.6759 0.8208 0.8410 0.8600 0.8789
1021.017155 0.8940 0.9070 0.9150 0.9180 0.9180
1025.395450 0.9190 0.9190 0.9200 0.9220 0.9220
1029.773746 0.9230 0.9230 0.9220 0.9220 0.9220
1034.152042 0.9220 0.9220 0.9220 0.9190 0.9180
1038.530337 0.9180 0.9160 0.9160 0.9150 0.9140
1042.908633 0.9120 0.9110 0.9110 0.9090 0.9080
1047.286928 0.9070 0.9050 0.9030 0.8990 0.8900
1051.665224 0.8840 0.8770 0.8700 0.8560 0.8470
1056.043519 0.8299 0.7629 0.6989 0.6220 0.5380
1060.421815 0.4581 0.4580 0.5788 0.6089 0.6878
1064.800111 0.7090 0.7360 0.7580 0.7780 0.7870
1069.178406 0.7950 0.7980 0.7980 0.7930 0.7731
1073.556702 0.7570 0.7389 0.7029 0.6240 0.5550
1077.934997 0.4671 0.4670 0.5139 0.5679 0.6258
1082.313293 0.6680 0.6830 0.7130 0.7420 0.7760
1086.691589 0.7950 0.8100 0.8150 0.8260 0.8330
1091.069884 0.8400 0.8450 0.8510 0.8520 0.8520
1095.448180 0.8490 0.8490 0.8440 0.8410 0.8370
1099.826475 0.8320 0.8220 0.8130 0.8030 0.7920
1104.204771 0.7740 0.7530 0.7330 0.6582 0.5932
1108.583066 0.5248 0.4580 0.4581 0.5291 0.6260
1112.961362 0.6580 0.6760 0.6970 0.7249 0.7330
1117.339658 0.7350 0.7330 0.7320 0.7240 0.7140
1121.717953 0.6950 0.6720 0.6530 0.6161 0.5771
1126.096249 0.5379 0.4460 0.4060 0.3680 0.3300
1130.474544 0.2910 0.2521 0.2141 0.1751 0.1371
1134.852840 0.1100 0.1020 0.0940 0.1350 0.1430
1139.231135 0.2070 0.2719 0.3309 0.3859 0.4418
1143.609431 0.4911 0.5260 0.5630 0.5930 0.6180
1147.987727 0.6300 0.6370 0.6540 0.6680 0.6859
1152.366022 0.6870 0.6860 0.6840 0.6820 0.6780
1156.744318 0.6670 0.6600 0.6480 0.6240 0.6050
1161.122613 0.5749 0.5370 0.5150 0.4780 0.4180
1165.500909 0.3860 0.3491 0.3121 0.2851 0.2561
1169.879205 0.2269 0.2000 0.2000 0.2250 0.2490
1174.257500 0.2740 0.2980 0.3190 0.4368 0.4889
1178.635796 0.5561 0.6031 0.6460 0.6710 0.6930
1183.014091 0.6970 0.7080 0.7170 0.7320 0.7500
1187.392387 0.7760 0.7840 0.7980 0.8110 0.8210
1191.770682 0.8290 0.8360 0.8390 0.8430 0.8490
1196.148978 0.8490 0.8510 0.8540 0.8550 0.8560
1200.527274 0.8580 0.8600 0.8620 0.8630 0.8630
1204.905569 0.8630 0.8620 0.8620 0.8600 0.8600
1209.283865 0.8590 0.8560 0.8540 0.8510 0.8490
1213.662160 0.8470 0.8470 0.8450 0.8450 0.8470
1218.040456 0.8470 0.8480 0.8490 0.8510 0.8540
1222.418752 0.8540 0.8510 0.8490 0.8480 0.8440
1226.797047 0.8410 0.8360 0.8320 0.8280 0.8170
1231.175343 0.8070 0.8040 0.8040 0.8070 0.8130
1235.553638 0.8170 0.8210 0.8220 0.8220 0.8210
1239.931934 0.8110 0.8020 0.7890 0.7680 0.7610
1244.310229 0.7470 0.7420 0.7360 0.7350 0.7380
1248.688525 0.7430 0.7440 0.7460 0.7460 0.7440
1253.066821 0.7350 0.7250 0.7080 0.6671 0.5902
1257.445116 0.5208 0.4500 0.4279 0.3799 0.2760
1261.823412 0.2760 0.3300 0.4468 0.5618 0.6159
1266.201707 0.6601 0.6911 0.7280 0.7580 0.7840
1270.580003 0.7950 0.8180 0.8300 0.8400 0.8430
1274.958298 0.8490 0.8510 0.8580 0.8590 0.8600
1279.336594 0.8630 0.8660 0.8670 0.8690 0.8700
1283.714890 0.8710 0.8710 0.8710 0.8710 0.8710
1288.093185 0.8710 0.8700 0.8670 0.8660 0.8600
1292.471481 0.8580 0.8540 0.8510 0.8450 0.8390
1296.849776 0.8330 0.8320 0.8290 0.8240 0.8210
1301.228072 0.8090 0.8020 0.7930 0.7800 0.7660
1305.606368 0.7530 0.6950 0.6581 0.6151 0.5641
1309.984663 0.5641 0.5971 0.6180 0.6330 0.6330
1314.362959 0.6050 0.5770 0.5380 0.4891 0.4421
1318.741254 0.3937 0.2639 0.2270 0.2100 0.1900
1323.119550 0.1890 0.1860 0.1770 0.1650 0.1590
1327.497845 0.1580 0.1591 0.2481 0.3350 0.3600
1331.876141 0.3760 0.4140 0.4499 0.5917 0.6279
1336.254437 0.6691 0.7081 0.7390 0.7590 0.7740
1340.632732 0.7890 0.8040 0.8110 0.8150 0.8190
1345.011028 0.8210 0.8210 0.8190 0.8180 0.8140
1349.389323 0.8130 0.8070 0.8000 0.7960 0.7920
1353.767619 0.7870 0.7760 0.7590 0.7420 0.7240
1358.145915 0.7100 0.7030 0.6990 0.6990 0.7020
1362.524210 0.7310 0.7421 0.7690 0.7960 0.8130
1366.902506 0.8320 0.8410 0.8520 0.8560 0.8630
1371.280801 0.8700 0.8740 0.8810 0.8820 0.8890
1375.659097 0.8920 0.8930 0.8970 0.9010 0.9030
1380.037392 0.9050 0.9090 0.9140 0.9180 0.9180
1384.415688 0.9190 0.9200 0.9200 0.9200 0.9190
1388.793984 0.9190 0.9190 0.9180 0.9150 0.9140
1393.172279 0.9120 0.9120 0.9110 0.9050 0.9030
1397.550575 0.9010 0.9000 0.9000 0.8940 0.8930
1401.928870 0.8860 0.8770 0.8710 0.8700 0.8550
1406.307166 0.8369 0.8000 0.7830 0.7679 0.7010
1410.685462 0.5830 0.4841 0.4840 0.6128 0.6519
1415.063757 0.6942 0.7441 0.7871 0.8140 0.8340
1419.442053 0.8440 0.8490 0.8510 0.8510 0.8490
1423.820348 0.8440 0.8390 0.8330 0.8260 0.8210
1428.198644 0.8180 0.8140 0.8180 0.8220 0.8330
1432.576939 0.8430 0.8490 0.8520 0.8560 0.8620
1436.955235 0.8700 0.8710 0.8730 0.8740 0.8770
1441.333531 0.8850 0.8890 0.8920 0.8930 0.8970
1445.711826 0.9000 0.9040 0.9040 0.9040 0.9050
1450.090122 0.9050 0.9070 0.9080 0.9090 0.9110
1454.468417 0.9110 0.9110 0.9110 0.9110 0.9110
1458.846713 0.9110 0.9110 0.9090 0.9090 0.9090
1463.225008 0.9110 0.9120 0.9120 0.9140 0.9140
1467.603304 0.9140 0.9140 0.9140 0.9140 0.9150
1471.981600 0.9140 0.9120 0.9120 0.9110 0.9110
1476.359895 0.9090 0.9090 0.9080 0.9070 0.9070
1480.738191 0.9040 0.9000 0.8970 0.8930 0.8920
1485.116486 0.8890 0.8860 0.8850 0.8820 0.8780
1489.494782 0.8730 0.8710 0.8660 0.8600 0.8590
1493.873078 0.8550 0.8520 0.8510 0.8480 0.8430
1498.251373 0.8340 0.8300 0.8260 0.8210 0.8140
1502.629669 0.8040 0.7950 0.7870 0.7810 0.7650
1507.007964 0.7440 0.7280 0.7210 0.7120 0.6970
1511.386260 0.6720 0.6540 0.6540 0.6670 0.6760
1515.764555 0.6790 0.6900 0.6910 0.6910 0.6910
1520.142851 0.6880 0.6860 0.6760 0.6710 0.6690
1524.521147 0.6680 0.6650 0.6640 0.6610 0.6600
1528.899442 0.6520 0.6490 0.6420 0.6310 0.6200
1533.277738 0.6090 0.6010 0.5920 0.5890 0.5750
1537.656033 0.5630 0.5490 0.5320 0.5220 0.5120
1542.034329 0.5070 0.5000 0.4990 0.4920 0.4840
1546.412625 0.4810 0.4780 0.4770 0.4760 0.4740
1550.790920 0.4740 0.4760 0.4780 0.4800 0.4840
1555.169216 0.4880 0.4890 0.4930 0.5110 0.5170
1559.547511 0.5190 0.5290 0.5370 0.5490 0.5620
1563.925807 0.5640 0.5750 0.5820 0.5890 0.6030
1568.304102 0.6050 0.6120 0.6150 0.6190 0.6260
1572.682398 0.6270 0.6280 0.6300 0.6300 0.6300
1577.060694 0.6300 0.6280 0.6280 0.6280 0.6300
1581.438989 0.6310 0.6340 0.6340 0.6370 0.6410
1585.817285 0.6450 0.6480 0.6600 0.6630 0.6680
1590.195580 0.6780 0.6830 0.6950 0.7060 0.7080
1594.573876 0.7130 0.7250 0.7390 0.7570 0.7610
1598.952171 0.7730 0.7810 0.7950 0.8060 0.8170
1603.330467 0.8250 0.8290 0.8330 0.8370 0.8440
1607.708763 0.8510 0.8550 0.8590 0.8630 0.8700
1612.087058 0.8730 0.8790 0.8810 0.8850 0.8890
1616.465354 0.8900 0.8900 0.8920 0.8930 0.8920
1620.843649 0.8940 0.8970 0.9050 0.9110 0.9120
1625.221945 0.9120 0.9140 0.9160 0.9190 0.9190
1629.600241 0.9200 0.9200 0.9240 0.9270 0.9290
1633.978536 0.9300 0.9300 0.9310 0.9310 0.9330
1638.356832 0.9340 0.9350 0.9350 0.9380 0.9390
1642.735127 0.9410 0.9410 0.9410 0.9410 0.9390
1647.113423 0.9380 0.9380 0.9380 0.9380 0.9370
1651.491718 0.9350 0.9330 0.9300 0.9260 0.9240
1655.870014 0.9230 0.9220 0.9190 0.9190 0.9190
1660.248310 0.9180 0.9180 0.9160 0.9160 0.9160
1664.626605 0.9160 0.9150 0.9140 0.9120 0.9120
1669.004901 0.9110 0.9090 0.9080 0.9070 0.9070
1673.383196 0.9050 0.9010 0.8990 0.8970 0.8940
1677.761492 0.8930 0.8900 0.8810 0.8770 0.8670
1682.139788 0.8540 0.8390 0.8140 0.7960 0.7870
1686.518083 0.7779 0.7609 0.7289 0.7059 0.6349
1690.896379 0.5720 0.5530 0.5030 0.4420 0.3721
1695.274674 0.3057 0.2448 0.2000 0.2000 0.2081
1699.652970 0.2421 0.3271 0.4100 0.4610 0.5120
1704.031265 0.5672 0.6161 0.6611 0.6911 0.7251
1708.409561 0.7610 0.7920 0.8040 0.8150 0.8520
1712.787857 0.8670 0.8730 0.8750 0.8850 0.8920
1717.166152 0.8930 0.8990 0.9030 0.9040 0.9050
1721.544448 0.9110 0.9120 0.9120 0.9120 0.9120
1725.922743 0.9140 0.9140 0.9140 0.9140 0.9140
1730.301039 0.9140 0.9150 0.9150 0.9150 0.9150
1734.679334 0.9150 0.9150 0.9160 0.9180 0.9190
1739.057630 0.9190 0.9190 0.9190 0.9190 0.9190
1743.435926 0.9190 0.9180 0.9160 0.9160 0.9160
1747.814221 0.9150 0.9150 0.9150 0.9160 0.9180
1752.192517 0.9230 0.9260 0.9270 0.9270 0.9290
1756.570812 0.9300 0.9310 0.9310 0.9310 0.9310
1760.949108 0.9330 0.9330 0.9340 0.9350 0.9350
1765.327404 0.9350 0.9350 0.9370 0.9370 0.9350
1769.705699 0.9350 0.9350 0.9350 0.9380 0.9380
1774.083995 0.9380 0.9380 0.9380 0.9370 0.9370
1778.462290 0.9370 0.9370 0.9370 0.9370 0.9350
1782.840586 0.9350 0.9340 0.9340 0.9330 0.9330
1787.218881 0.9330 0.9340 0.9350 0.9350 0.9370
1791.597177 0.9380 0.9380 0.9380 0.9380 0.9380
1795.975473 0.9370 0.9370 0.9350 0.9350 0.9350
1800.353768 0.9370 0.9370 0.9370 0.9370 0.9370
1804.732064 0.9370 0.9370 0.9370 0.9350 0.9350
1809.110359 0.9350 0.9350 0.9350 0.9350 0.9350
1813.488655 0.9340 0.9340 0.9340 0.9330 0.9330
1817.866951 0.9330 0.9330 0.9330 0.9330 0.9330
1822.245246 0.9330 0.9330 0.9330 0.9330 0.9340
1826.623542 0.9370 0.9380 0.9380 0.9390 0.9390
1831.001837 0.9390 0.9390 0.9390 0.9410 0.9390
1835.380133 0.9390 0.9390 0.9390 0.9390 0.9390
1839.758428 0.9390 0.9380 0.9380 0.9370 0.9370
1844.136724 0.9370 0.9370 0.9370 0.9370 0.9370
1848.515020 0.9370 0.9370 0.9370 0.9370 0.9370
1852.893315 0.9370 0.9370 0.9370 0.9370 0.9370
1857.271611 0.9370 0.9370 0.9370 0.9370 0.9380
1861.649906 0.9380 0.9380 0.9380 0.9380 0.9380
1866.028202 0.9380 0.9380 0.9380 0.9380 0.9380
1870.406497 0.9390 0.9390 0.9390 0.9390 0.9410
1874.784793 0.9420 0.9420 0.9440 0.9450 0.9450
1879.163089 0.9450 0.9450 0.9450 0.9450 0.9450
1883.541384 0.9450 0.9440 0.9440 0.9440 0.9440
1887.919680 0.9450 0.9460 0.9460 0.9450 0.9450
1892.297975 0.9460 0.9460 0.9460 0.9450 0.9450
1896.676271 0.9450 0.9450 0.9450 0.9450 0.9450
1901.054567 0.9450 0.9440 0.9440 0.9420 0.9440
1905.432862 0.9420 0.9420 0.9410 0.9390 0.9390
1909.811158 0.9390 0.9390 0.9380 0.9380 0.9380
1914.189453 0.9370 0.9370 0.9370 0.9370 0.9380
1918.567749 0.9390 0.9410 0.9410 0.9420 0.9440
1922.946044 0.9440 0.9440 0.9440 0.9440 0.9440
1927.324340 0.9440 0.9440 0.9420 0.9420 0.9420
1931.702636 0.9410 0.9380 0.9370 0.9350 0.9330
1936.080931 0.9310 0.9310 0.9310 0.9330 0.9340
1940.459227 0.9370 0.9410 0.9440 0.9440 0.9460
1944.837522 0.9460 0.9460 0.9480 0.9480 0.9490
1949.215818 0.9480 0.9480 0.9480 0.9480 0.9480
1953.594114 0.9480 0.9480 0.9480 0.9480 0.9460
1957.972409 0.9460 0.9460 0.9460 0.9460 0.9460
1962.350705 0.9460 0.9460 0.9460 0.9460 0.9460
1966.729000 0.9450 0.9450 0.9440 0.9440 0.9440
1971.107296 0.9440 0.9440 0.9440 0.9440 0.9440
1975.485591 0.9420 0.9420 0.9420 0.9420 0.9420
1979.863887 0.9420 0.9420 0.9420 0.9420 0.9420
1984.242183 0.9410 0.9410 0.9410 0.9390 0.9390
1988.620478 0.9390 0.9380 0.9380 0.9380 0.9380
1992.998774 0.9380 0.9380 0.9380 0.9380 0.9380
1997.377069 0.9390 0.9390 0.9390 0.9390 0.9390
2001.755365 0.9390 0.9400 0.9410 0.9410 0.9410
2006.133661 0.9410 0.9410 0.9410 0.9410 0.9415
2010.511956 0.9420 0.9420 0.9420 0.9420 0.9420
2014.890252 0.9420 0.9421 0.9431 0.9440 0.9440
2019.268547 0.9440 0.9440 0.9440 0.9440 0.9440
2023.646843 0.9440 0.9440 0.9440 0.9440 0.9440
2028.025138 0.9440 0.9440 0.9440 0.9440 0.9440
2032.403434 0.9440 0.9440 0.9440 0.9440 0.9440
2036.781730 0.9440 0.9440 0.9440 0.9440 0.9440
2041.160025 0.9440 0.9441 0.9446 0.9450 0.9450
2045.538321 0.9450 0.9450 0.9450 0.9450 0.9450
2049.916616 0.9450 0.9450 0.9450 0.9451 0.9456
2054.294912 0.9460 0.9460 0.9460 0.9460 0.9460
2058.673207 0.9460 0.9460 0.9460 0.9463 0.9473
2063.051503 0.9481 0.9486 0.9490 0.9490 0.9490
2067.429799 0.9490 0.9490 0.9490 0.9490 0.9490
2071.808094 0.9492 0.9497 0.9500 0.9500 0.9500
2076.186390 0.9500 0.9500 0.9500 0.9500 0.9500
2080.564685 0.9504 0.9514 0.9520 0.9520 0.9520
2084.942981 0.9520 0.9520 0.9520 0.9520 0.9520
2089.321277 0.9520 0.9520 0.9520 0.9520 0.9520
2093.699572 0.9520 0.9520 0.9520 0.9520 0.9520
2098.077868 0.9520 0.9520 0.9522 0.9527 0.9530
2102.456163 0.9530 0.9530 0.9530 0.9530 0.9530
2106.834459 0.9530 0.9530 0.9530 0.9530 0.9530
2111.212754 0.9530 0.9530 0.9530 0.9530 0.9530
2115.591050 0.9530 0.9530 0.9530 0.9530 0.9530
2119.969346 0.9530 0.9530 0.9530 0.9530 0.9530
2124.347641 0.9530 0.9530 0.9530 0.9530 0.9530
2128.725937 0.9530 0.9530 0.9530 0.9530 0.9530
2133.104232 0.9530 0.9530 0.9530 0.9530 0.9530
2137.482528 0.9530 0.9530 0.9530 0.9530 0.9530
2141.860824 0.9530 0.9530 0.9530 0.9530 0.9530
2146.239119 0.9530 0.9530 0.9530 0.9530 0.9530
2150.617415 0.9530 0.9530 0.9530 0.9530 0.9530
2154.995710 0.9530 0.9530 0.9530 0.9530 0.9530
2159.374006 0.9530 0.9530 0.9530 0.9530 0.9530
2163.752301 0.9530 0.9530 0.9530 0.9530 0.9530
2168.130597 0.9530 0.9530 0.9530 0.9530 0.9530
2172.508893 0.9530 0.9530 0.9530 0.9530 0.9530
2176.887188 0.9530 0.9530 0.9530 0.9530 0.9530
2181.265484 0.9530 0.9530 0.9530 0.9530 0.9530
2185.643779 0.9530 0.9530 0.9530 0.9530 0.9530
2190.022075 0.9530 0.9530 0.9530 0.9530 0.9530
2194.400370 0.9530 0.9530 0.9530 0.9530 0.9530
2198.778666 0.9530 0.9525 0.9520 0.9520 0.9520
2203.156962 0.9520 0.9520 0.9520 0.9520 0.9520
2207.535257 0.9520 0.9520 0.9520 0.9520 0.9520
2211.913553 0.9520 0.9520 0.9520 0.9520 0.9520
2216.291848 0.9520 0.9520 0.9520 0.9520 0.9520
2220.670144 0.9520 0.9520 0.9520 0.9520 0.9520
2225.048440 0.9520 0.9520 0.9520 0.9520 0.9520
2229.426735 0.9520 0.9520 0.9520 0.9520 0.9520
2233.805031 0.9520 0.9520 0.9519 0.9509 0.9500
2238.183326 0.9500 0.9500 0.9500 0.9500 0.9500
2242.561622 0.9499 0.9494 0.9489 0.9484 0.9480
2246.939917 0.9480 0.9480 0.9480 0.9478 0.9468
2251.318213 0.9460 0.9460 0.9460 0.9460 0.9459
2255.696509 0.9454 0.9447 0.9432 0.9420 0.9420
2260.074804 0.9417 0.9402 0.9390 0.9390 0.9389
2264.453100 0.9384 0.9380 0.9380 0.9379 0.9374
2268.831395 0.9367 0.9357 0.9350 0.9350 0.9349
2273.209691 0.9344 0.9340 0.9340 0.9339 0.9334
2277.587987 0.9330 0.9330 0.9327 0.9317 0.9310
2281.966282 0.9310 0.9307 0.9297 0.9287 0.9277
2286.344578 0.9270 0.9270 0.9268 0.9263 0.9260
2290.722873 0.9260 0.9256 0.9246 0.9240 0.9240
2295.101169 0.9238 0.9233 0.9230 0.9230 0.9230
2299.479464 0.9230 0.9230 0.9230 0.9230 0.9230
2303.857760 0.9232 0.9237 0.9240 0.9240 0.9244
2308.236056 0.9254 0.9260 0.9260 0.9262 0.9267
2312.614351 0.9270 0.9270 0.9275 0.9285 0.9290
2316.992647 0.9290 0.9292 0.9297 0.9300 0.9300
2321.370942 0.9302 0.9307 0.9310 0.9310 0.9310
2325.749238 0.9310 0.9315 0.9325 0.9330 0.9330
2330.127533 0.9333 0.9338 0.9340 0.9340 0.9340
2334.505829 0.9340 0.9343 0.9348 0.9350 0.9350
2338.884125 0.9350 0.9350 0.9356 0.9366 0.9373
2343.262420 0.9378 0.9383 0.9388 0.9396 0.9406
2347.640716 0.9413 0.9418 0.9426 0.9436 0.9440
2352.019011 0.9440 0.9443 0.9448 0.9450 0.9450
2356.397307 0.9450 0.9450 0.9453 0.9458 0.9460
2360.775603 0.9460 0.9460 0.9460 0.9460 0.9460
2365.153898 0.9467 0.9477 0.9480 0.9480 0.9480
2369.532194 0.9480 0.9484 0.9489 0.9490 0.9490
2373.910489 0.9490 0.9490 0.9494 0.9499 0.9500
2378.288785 0.9500 0.9500 0.9500 0.9508 0.9518
2382.667080 0.9520 0.9520 0.9520 0.9520 0.9520
2387.045376 0.9520 0.9520 0.9520 0.9524 0.9529
2391.423672 0.9530 0.9530 0.9530 0.9530 0.9530
2395.801967 0.9530 0.9530 0.9530 0.9534 0.9539
2400.180263 0.9540 0.9540 0.9540 0.9540 0.9540
2404.558558 0.9540 0.9540 0.9540 0.9549 0.9559
2408.936854 0.9560 0.9560 0.9560 0.9560 0.9560
2413.315150 0.9560 0.9560 0.9560 0.9565 0.9570
2417.693445 0.9570 0.9570 0.9570 0.9570 0.9570
2422.071741 0.9570 0.9570 0.9570 0.9570 0.9570
2426.450036 0.9570 0.9570 0.9570 0.9570 0.9570
2430.828332 0.9570 0.9570 0.9570 0.9570 0.9570
2435.206627 0.9570 0.9570 0.9570 0.9570 0.9570
2439.584923 0.9570 0.9570 0.9570 0.9570 0.9570
2443.963219 0.9570 0.9570 0.9570 0.9570 0.9570
2448.341514 0.9570 0.9570 0.9570 0.9570 0.9570
2452.719810 0.9570 0.9570 0.9570 0.9570 0.9570
2457.098105 0.9570 0.9570 0.9570 0.9570 0.9570
2461.476401 0.9570 0.9570 0.9570 0.9570 0.9570
2465.854696 0.9570 0.9570 0.9570 0.9570 0.9570
2470.232992 0.9570 0.9570 0.9570 0.9570 0.9570
2474.611288 0.9570 0.9570 0.9570 0.9570 0.9570
2478.989583 0.9570 0.9570 0.9570 0.9570 0.9570
2483.367879 0.9570 0.9570 0.9570 0.9570 0.9570
2487.746174 0.9570 0.9570 0.9570 0.9570 0.9570
2492.124470 0.9570 0.9570 0.9570 0.9570 0.9570
2496.502766 0.9570 0.9570 0.9570 0.9570 0.9570
2500.881061 0.9570 0.9570 0.9570 0.9570 0.9570
2505.259357 0.9570 0.9570 0.9570 0.9568 0.9563
2509.637652 0.9560 0.9560 0.9560 0.9560 0.9560
2514.015948 0.9560 0.9560 0.9560 0.9560 0.9560
2518.394243 0.9562 0.9567 0.9570 0.9570 0.9570
2522.772539 0.9570 0.9570 0.9570 0.9570 0.9570
2527.150835 0.9570 0.9570 0.9570 0.9570 0.9570
2531.529130 0.9570 0.9570 0.9570 0.9570 0.9570
2535.907426 0.9570 0.9570 0.9570 0.9570 0.9570
2540.285721 0.9570 0.9570 0.9570 0.9570 0.9570
2544.664017 0.9570 0.9570 0.9570 0.9570 0.9570
2549.042313 0.9570 0.9570 0.9570 0.9570 0.9570
2553.420608 0.9570 0.9570 0.9570 0.9570 0.9570
2557.798904 0.9570 0.9570 0.9570 0.9570 0.9570
2562.177199 0.9570 0.9570 0.9570 0.9570 0.9570
2566.555495 0.9570 0.9570 0.9570 0.9570 0.9570
2570.933790 0.9577 0.9587 0.9583 0.9573 0.9567
2575.312086 0.9562 0.9560 0.9560 0.9560 0.9560
2579.690382 0.9560 0.9560 0.9564 0.9569 0.9570
2584.068677 0.9570 0.9570 0.9570 0.9570 0.9570
2588.446973 0.9566 0.9561 0.9560 0.9560 0.9560
2592.825268 0.9560 0.9560 0.9560 0.9552 0.9542
2597.203564 0.9540 0.9540 0.9540 0.9540 0.9548
2601.581859 0.9558 0.9560 0.9560 0.9564 0.9569
2605.960155 0.9570 0.9570 0.9570 0.9570 0.9570
2610.338451 0.9570 0.9570 0.9570 0.9570 0.9570
2614.716746 0.9570 0.9570 0.9570 0.9570 0.9570
2619.095042 0.9570 0.9570 0.9570 0.9570 0.9570
2623.473337 0.9570 0.9570 0.9570 0.9570 0.9570
2627.851633 0.9570 0.9565 0.9560 0.9560 0.9560
2632.229929 0.9560 0.9560 0.9560 0.9560 0.9560
2636.608224 0.9560 0.9560 0.9560 0.9560 0.9560
2640.986520 0.9560 0.9560 0.9560 0.9560 0.9565
2645.364815 0.9570 0.9570 0.9570 0.9570 0.9570
2649.743111 0.9570 0.9570 0.9570 0.9570 0.9570
2654.121406 0.9570 0.9570 0.9570 0.9570 0.9570
2658.499702 0.9570 0.9570 0.9570 0.9570 0.9570
2662.877998 0.9570 0.9570 0.9570 0.9570 0.9570
2667.256293 0.9570 0.9571 0.9581 0.9590 0.9590
2671.634589 0.9590 0.9590 0.9590 0.9590 0.9590
2676.012884 0.9590 0.9590 0.9590 0.9590 0.9590
2680.391180 0.9590 0.9590 0.9590 0.9590 0.9590
2684.769476 0.9590 0.9591 0.9596 0.9600 0.9600
2689.147771 0.9600 0.9600 0.9600 0.9600 0.9600
2693.526067 0.9600 0.9601 0.9606 0.9610 0.9610
2697.904362 0.9613 0.9623 0.9630 0.9630 0.9630
2702.282658 0.9630 0.9630 0.9630 0.9630 0.9630
2706.660953 0.9630 0.9630 0.9630 0.9630 0.9630
2711.039249 0.9630 0.9630 0.9630 0.9630 0.9630
2715.417545 0.9627 0.9617 0.9610 0.9610 0.9610
2719.795840 0.9610 0.9610 0.9610 0.9610 0.9610
2724.174136 0.9610 0.9610 0.9610 0.9610 0.9610
2728.552431 0.9610 0.9610 0.9610 0.9610 0.9610
2732.930727 0.9610 0.9610 0.9610 0.9610 0.9610
2737.309023 0.9610 0.9610 0.9610 0.9610 0.9610
2741.687318 0.9608 0.9603 0.9600 0.9600 0.9600
2746.065614 0.9600 0.9602 0.9607 0.9610 0.9610
2750.443909 0.9610 0.9610 0.9610 0.9610 0.9610
2754.822205 0.9610 0.9615 0.9625 0.9625 0.9615
2759.200500 0.9610 0.9610 0.9610 0.9610 0.9610
2763.578796 0.9610 0.9610 0.9610 0.9610 0.9610
2767.957092 0.9610 0.9610 0.9610 0.9610 0.9610
2772.335387 0.9610 0.9616 0.9626 0.9630 0.9630
2776.713683 0.9630 0.9630 0.9630 0.9630 0.9633
2781.091978 0.9638 0.9640 0.9640 0.9640 0.9640
2785.470274 0.9640 0.9640 0.9640 0.9640 0.9640
2789.848569 0.9640 0.9640 0.9640 0.9643 0.9649
2794.226865 0.9650 0.9650 0.9650 0.9650 0.9650
2798.605161 0.9650 0.9650 0.9650 0.9650 0.9650
2802.983456 0.9646 0.9641 0.9640 0.9640 0.9640
2807.361752 0.9640 0.9640 0.9640 0.9640 0.9640
2811.740047 0.9640 0.9640 0.9640 0.9640 0.9636
2816.118343 0.9631 0.9630 0.9630 0.9630 0.9630
2820.496639 0.9630 0.9630 0.9630 0.9630 0.9634
2824.874934 0.9639 0.9636 0.9631 0.9630 0.9630
2829.253230 0.9630 0.9630 0.9634 0.9639 0.9640
2833.631525 0.9640 0.9640 0.9640 0.9640 0.9640
2838.009821 0.9645 0.9650 0.9650 0.9650 0.9659
2842.388116 0.9669 0.9661 0.9651 0.9650 0.9650
2846.766412 0.9650 0.9650 0.9650 0.9650 0.9650
2851.144708 0.9650 0.9650 0.9650 0.9645 0.9640
2855.523003 0.9640 0.9640 0.9640 0.9640 0.9645
2859.901299 0.9650 0.9650 0.9650 0.9645 0.9640
2864.279594 0.9635 0.9630 0.9620 0.9610 0.9610
2868.657890 0.9610 0.9620 0.9629 0.9619 0.9610
2873.036186 0.9610 0.9610 0.9610 0.9610 0.9610
2877.414481 0.9610 0.9610 0.9611 0.9621 0.9631
2881.792777 0.9636 0.9640 0.9640 0.9641 0.9646
2886.171072 0.9650 0.9650 0.9650 0.9650 0.9652
2890.549368 0.9662 0.9670 0.9670 0.9668 0.9658
2894.927663 0.9650 0.9650 0.9650 0.9650 0.9650
2899.305959 0.9650 0.9652 0.9662 0.9668 0.9658
2903.684255 0.9650 0.9650 0.9650 0.9650 0.9650
2908.062550 0.9650 0.9650 0.9650 0.9650 0.9650
2912.440846 0.9650 0.9650 0.9649 0.9644 0.9639
2916.819141 0.9634 0.9630 0.9630 0.9626 0.9611
2921.197437 0.9600 0.9600 0.9599 0.9593 0.9590
2925.575732 0.9590 0.9590 0.9590 0.9590 0.9590
2929.954028 0.9590 0.9590 0.9590 0.9590 0.9590
2934.332324 0.9590 0.9590 0.9590 0.9590 0.9590
2938.710619 0.9590 0.9590 0.9590 0.9590 0.9590
2943.088915 0.9590 0.9590 0.9590 0.9590 0.9590
2947.467210 0.9590 0.9590 0.9590 0.9590 0.9590
2951.845506 0.9590 0.9590 0.9590 0.9590 0.9590
2956.223802 0.9585 0.9575 0.9570 0.9570 0.9568
2960.602097 0.9563 0.9560 0.9560 0.9560 0.9560
2964.980393 0.9560 0.9560 0.9560 0.9560 0.9560
2969.358688 0.9560 0.9560 0.9560 0.9563 0.9568
2973.736984 0.9575 0.9585 0.9593 0.9598 0.9603
2978.115279 0.9608 0.9610 0.9610 0.9610 0.9610
2982.493575 0.9616 0.9626 0.9630 0.9630 0.9630
2986.871871 0.9630 0.9633 0.9638 0.9640 0.9640
2991.250166 0.9640 0.9640 0.9640 0.9640 0.9637
2995.628462 0.9632 0.9630 0.9630 0.9620 0.9605
3000.006757 0.9597 0.9592 0.9580 0.9565 0.9550
3004.385053 0.9535 0.9527 0.9522 0.9520 0.9520
3008.763349 0.9524 0.9529 0.9534 0.9539 0.9547
3013.141644 0.9557 0.9564 0.9569 0.9577 0.9587
3017.519940 0.9597 0.9608 0.9610 0.9610 0.9621
3021.898235 0.9636 0.9652 0.9667 0.9674 0.9679
3026.276531 0.9680 0.9680 0.9684 0.9689 0.9690
3030.654826 0.9690 0.9690 0.9690 0.9690 0.9690
3035.033122 0.9690 0.9690 0.9690 0.9690 0.9690
3039.411418 0.9690 0.9690 0.9690 0.9690 0.9690
3043.789713 0.9690 0.9690 0.9686 0.9681 0.9680
3048.168009 0.9680 0.9676 0.9670 0.9661 0.9651
3052.546304 0.9645 0.9640 0.9640 0.9640 0.9635
3056.924600 0.9630 0.9630 0.9630 0.9630 0.9630
3061.302895 0.9630 0.9630 0.9630 0.9630 0.9620
3065.681191 0.9610 0.9610 0.9610 0.9620 0.9630
3070.059487 0.9635 0.9640 0.9640 0.9640 0.9645
3074.437782 0.9650 0.9650 0.9650 0.9660 0.9670
3078.816078 0.9670 0.9670 0.9675 0.9680 0.9680
3083.194373 0.9680 0.9685 0.9691 0.9701 0.9710
3087.572669 0.9715 0.9720 0.9720 0.9720 0.9720
3091.950965 0.9721 0.9731 0.9740 0.9740 0.9740
3096.329260 0.9740 0.9741 0.9746 0.9750 0.9750
3100.707556 0.9750 0.9750 0.9751 0.9756 0.9760
3105.085851 0.9760 0.9760 0.9760 0.9760 0.9760
3109.464147 0.9762 0.9772 0.9780 0.9780 0.9781
3113.842442 0.9786 0.9790 0.9790 0.9790 0.9790
3118.220738 0.9790 0.9790 0.9790 0.9790 0.9790
3122.599034 0.9790 0.9790 0.9790 0.9790 0.9790
3126.977329 0.9790 0.9790 0.9791 0.9796 0.9799
3131.355625 0.9794 0.9790 0.9790 0.9790 0.9790
3135.733920 0.9790 0.9790 0.9790 0.9790 0.9790
3140.112216 0.9790 0.9792 0.9797 0.9800 0.9800
3144.490512 0.9800 0.9800 0.9800 0.9800 0.9800
3148.868807 0.9800 0.9800 0.9800 0.9800 0.9800
3153.247103 0.9800 0.9800 0.9800 0.9800 0.9800
3157.625398 0.9800 0.9800 0.9800 0.9804 0.9814
3162.003694 0.9820 0.9820 0.9822 0.9827 0.9832
3166.381989 0.9837 0.9840 0.9840 0.9840 0.9840
3170.760285 0.9840 0.9840 0.9840 0.9840 0.9840
3175.138581 0.9840 0.9840 0.9840 0.9840 0.9840
3179.516876 0.9845 0.9855 0.9860 0.9860 0.9860
3183.895172 0.9860 0.9860 0.9860 0.9860 0.9860
3188.273467 0.9860 0.9860 0.9863 0.9868 0.9870
3192.651763 0.9870 0.9867 0.9862 0.9860 0.9860
3197.030058 0.9860 0.9860 0.9854 0.9844 0.9840
3201.408354 0.9840 0.9840 0.9840 0.9840 0.9840
3205.786650 0.9840 0.9840 0.9840 0.9840 0.9840
3210.164945 0.9840 0.9840 0.9840 0.9847 0.9857
3214.543241 0.9860 0.9860 0.9863 0.9868 0.9870
3218.921536 0.9870 0.9870 0.9870 0.9866 0.9861
3223.299832 0.9860 0.9860 0.9860 0.9860 0.9860
3227.678128 0.9860 0.9853 0.9843 0.9840 0.9840
3232.056423 0.9847 0.9857 0.9864 0.9869 0.9870
3236.434719 0.9870 0.9870 0.9870 0.9870 0.9870
3240.813014 0.9878 0.9888 0.9890 0.9890 0.9890
3245.191310 0.9890 0.9890 0.9890 0.9890 0.9890
3249.569605 0.9890 0.9890 0.9890 0.9890 0.9890
3253.947901 0.9890 0.9890 0.9890 0.9890 0.9890
3258.326197 0.9890 0.9890 0.9894 0.9899 0.9896
3262.704492 0.9891 0.9894 0.9900 0.9900 0.9900
3267.082788 0.9900 0.9900 0.9900 0.9900 0.9900
3271.461083 0.9900 0.9900 0.9900 0.9900 0.9900
3275.839379 0.9905 0.9910 0.9910 0.9910 0.9910
3280.217675 0.9910 0.9905 0.9900 0.9900 0.9900
3284.595970 0.9900 0.9900 0.9900 0.9900 0.9900
3288.974266 0.9900 0.9905 0.9910 0.9910 0.9910
3293.352561 0.9910 0.9910 0.9910 0.9910 0.9910
3297.730857 0.9910 0.9910 0.9910 0.9910 0.9910
3302.109152 0.9910 0.9910 0.9910 0.9911 0.9921
3306.487448 0.9930 0.9930 0.9930 0.9930 0.9930
3310.865744 0.9930 0.9931 0.9936 0.9940 0.9940
3315.244039 0.9940 0.9940 0.9940 0.9940 0.9940
3319.622335 0.9940 0.9940 0.9940 0.9939 0.9934
3324.000630 0.9930 0.9930 0.9930 0.9930 0.9930
3328.378926 0.9930 0.9928 0.9918 0.9912 0.9922
3332.757222 0.9930 0.9930 0.9930 0.9930 0.9930
3337.135517 0.9930 0.9928 0.9918 0.9910 0.9910
3341.513813 0.9910 0.9910 0.9910 0.9910 0.9910
3345.892108 0.9910 0.9910 0.9910 0.9910 0.9910
3350.270404 0.9910 0.9910 0.9910 0.9910 0.9910
3354.648699 0.9910 0.9910 0.9910 0.9908 0.9903
3359.026995 0.9900 0.9900 0.9898 0.9893 0.9890
3363.405291 0.9890 0.9886 0.9876 0.9870 0.9870
3367.783586 0.9870 0.9870 0.9864 0.9849 0.9838
3372.161882 0.9833 0.9828 0.9823 0.9820 0.9820
3376.540177 0.9820 0.9820 0.9822 0.9827 0.9830
3380.918473 0.9830 0.9832 0.9837 0.9847 0.9862
3385.296768 0.9870 0.9870 0.9875 0.9885 0.9895
3389.675064 0.9905 0.9915 0.9925 0.9932 0.9937
3394.053360 0.9940 0.9940 0.9943 0.9948 0.9955
3398.431655 0.9965 0.9973 0.9978 0.9980 0.9980
3402.809951 0.9980 0.9980 0.9980 0.9980 0.9980
3407.188246 0.9980 0.9980 0.9980 0.9980 0.9980
3411.566542 0.9980 0.9980 0.9980 0.9980 0.9980
3415.944838 0.9980 0.9980 0.9980 0.9977 0.9972
3420.323133 0.9970 0.9970 0.9970 0.9970 0.9970
3424.701429 0.9970 0.9970 0.9970 0.9970 0.9970
3429.079724 0.9970 0.9970 0.9970 0.9970 0.9970
3433.458020 0.9970 0.9963 0.9953 0.9950 0.9950
3437.836315 0.9946 0.9941 0.9940 0.9940 0.9940
3442.214611 0.9940 0.9936 0.9931 0.9930 0.9930
3446.592907 0.9930 0.9930 0.9930 0.9930 0.9930
3450.971202 0.9930 0.9922 0.9912 0.9910 0.9910
3455.349498 0.9918 0.9928 0.9922 0.9912 0.9910
3459.727793 0.9910 0.9910 0.9910 0.9910 0.9910
3464.106089 0.9910 0.9910 0.9910 0.9910 0.9910
3468.484385 0.9910 0.9910 0.9910 0.9910 0.9910
3472.862680 0.9910 0.9910 0.9910 0.9910 0.9919
3477.240976 0.9929 0.9921 0.9911 0.9905 0.9900
3481.619271 0.9900 0.9900 0.9895 0.9890 0.9890
3485.997567 0.9890 0.9890 0.9890 0.9890 0.9890
3490.375862 0.9895 0.9900 0.9900 0.9900 0.9900
3494.754158 0.9900 0.9900 0.9900 0.9900 0.9900
3499.132454 0.9900 0.9900 0.9895 0.9890 0.9880
3503.510749 0.9870 0.9870 0.9870 0.9870 0.9870
3507.889045 0.9870 0.9870 0.9880 0.9890 0.9880
3512.267340 0.9870 0.9870 0.9870 0.9870 0.9870
3516.645636 0.9865 0.9860 0.9860 0.9860 0.9865
3521.023931 0.9870 0.9870 0.9870 0.9870 0.9869
3525.402227 0.9864 0.9860 0.9860 0.9860 0.9860
3529.780523 0.9860 0.9860 0.9860 0.9860 0.9859
3534.158818 0.9848 0.9840 0.9840 0.9840 0.9840
3538.537114 0.9840 0.9840 0.9840 0.9840 0.9840
3542.915409 0.9840 0.9840 0.9840 0.9840 0.9840
3547.293705 0.9840 0.9840 0.9842 0.9852 0.9860
3551.672001 0.9860 0.9860 0.9860 0.9860 0.9860
3556.050296 0.9860 0.9860 0.9860 0.9860 0.9860
3560.428592 0.9860 0.9860 0.9860 0.9860 0.9860
3564.806887 0.9860 0.9860 0.9860 0.9860 0.9860
3569.185183 0.9860 0.9857 0.9847 0.9840 0.9840
3573.563478 0.9840 0.9840 0.9840 0.9840 0.9840
3577.941774 0.9840 0.9840 0.9840 0.9844 0.9854
3582.320070 0.9860 0.9860 0.9860 0.9860 0.9862
3586.698365 0.9867 0.9870 0.9870 0.9870 0.9870
3591.076661 0.9870 0.9870 0.9870 0.9870 0.9870
3595.454956 0.9870 0.9870 0.9870 0.9868 0.9863
3599.833252 0.9860 0.9860 0.9860 0.9860 0.9860
3604.211548 0.9860 0.9860 0.9860 0.9860 0.9860
3608.589843 0.9860 0.9860 0.9860 0.9860 0.9860
3612.968139 0.9860 0.9855 0.9845 0.9840 0.9840
3617.346434 0.9840 0.9840 0.9840 0.9840 0.9840
3621.724730 0.9840 0.9840 0.9840 0.9840 0.9840
3626.103025 0.9840 0.9840 0.9840 0.9840 0.9840
3630.481321 0.9840 0.9840 0.9840 0.9840 0.9840
3634.859617 0.9840 0.9840 0.9840 0.9840 0.9840
3639.237912 0.9840 0.9840 0.9840 0.9840 0.9840
3643.616208 0.9837 0.9832 0.9830 0.9830 0.9830
3647.994503 0.9830 0.9830 0.9830 0.9830 0.9830
3652.372799 0.9830 0.9830 0.9830 0.9830 0.9830
3656.751094 0.9830 0.9830 0.9830 0.9830 0.9830
3661.129390 0.9830 0.9830 0.9826 0.9821 0.9820
3665.507686 0.9820 0.9820 0.9820 0.9820 0.9820
3669.885981 0.9812 0.9802 0.9800 0.9800 0.9800
3674.264277 0.9800 0.9800 0.9800 0.9800 0.9800
3678.642572 0.9800 0.9800 0.9800 0.9800 0.9800
3683.020868 0.9800 0.9800 0.9800 0.9800 0.9800
3687.399164 0.9800 0.9800 0.9809 0.9819 0.9820
3691.777459 0.9820 0.9825 0.9830 0.9835 0.9840
3696.155755 0.9849 0.9859 0.9860 0.9860 0.9860
3700.534050 0.9860 0.9851 0.9841 0.9835 0.9830
3704.912346 0.9830 0.9830 0.9830 0.9830 0.9830
3709.290641 0.9830 0.9830 0.9830 0.9835 0.9840
3713.668937 0.9840 0.9840 0.9840 0.9840 0.9840
3718.047233 0.9840 0.9840 0.9840 0.9835 0.9830
3722.425528 0.9830 0.9830 0.9825 0.9820 0.9820
3726.803824 0.9820 0.9820 0.9820 0.9820 0.9820
3731.182119 0.9820 0.9820 0.9820 0.9820 0.9820
3735.560415 0.9820 0.9820 0.9819 0.9809 0.9800
3739.938711 0.9800 0.9800 0.9800 0.9800 0.9800
3744.317006 0.9800 0.9800 0.9800 0.9800 0.9800
3748.695302 0.9800 0.9800 0.9800 0.9800 0.9800
3753.073597 0.9800 0.9800 0.9800 0.9800 0.9800
3757.451893 0.9800 0.9800 0.9800 0.9800 0.9800
3761.830188 0.9800 0.9800 0.9800 0.9800 0.9800
3766.208484 0.9800 0.9800 0.9800 0.9800 0.9800
3770.586780 0.9800 0.9800 0.9800 0.9800 0.9800
3774.965075 0.9800 0.9800 0.9800 0.9800 0.9800
3779.343371 0.9800 0.9800 0.9800 0.9800 0.9800
3783.721666 0.9800 0.9800 0.9800 0.9800 0.9800
3788.099962 0.9800 0.9800 0.9800 0.9800 0.9804
3792.478257 0.9814 0.9820 0.9820 0.9820 0.9820
3796.856553 0.9820 0.9820
##END=
