##TITLE=n-PROPANOL
##JCAMP-DX=4.24
##DATA TYPE=INFRARED SPECTRUM
##CLASS=COBLENTZ III
##ORIGIN=DOW CHEMICAL COMPANY
##OWNER=COBLENTZ SOCIETY
Collection (C) 2018 copyright by the U.S. Secretary of Commerce
on behalf of the United States of America. All rights reserved.
##DATE=1963/12/13
##NAMES=1-propanol
##CAS REGISTRY NO=71-23-8
##MOLFORM=C3 H8 O
##SOURCE REFERENCE=COBLENTZ NO. 10140
##$NIST SOURCE=COBLENTZ
##$NIST IMAGE=cob10140
##SPECTROMETER/DATA SYSTEM=BECKMAN IR-9 (GRATING)
##INSTRUMENT PARAMETERS=ORDER CHANGES AT 670, 1200, 2000 CM^-^1
##STATE=SOLUTION (10% IN CCl4 FOR 3800-1330, 10% IN CS2 FOR 1330-400 CM^-^1)
##PATH LENGTH=0.010, 0.010 CM
$$SPECTRAL CONTAMINATION DUE TO CCl4 AROUND 1550 CM^-^1
##SAMPLING PROCEDURE=TRANSMISSION
##RESOLUTION=4
##DATA PROCESSING=DIGITIZED BY NIST FROM HARD COPY (FROM TWO SEGMENTS)
##XUNITS=1/CM
##YUNITS=TRANSMITTANCE
##XFACTOR=1.000000
##YFACTOR=1
##DELTAX=0.906894
##FIRSTX=399.335
##LASTX=3797.46
##FIRSTY=0.36
##MAXX=3797.46
##MINX=399.335
##MAXY=1.032
##MINY=0.019
##NPOINTS=3748
##XYDATA=(X++(Y..Y))
399.335000 0.3600 0.3570 0.3490 0.3360 0.3290
403.869468 0.3260 0.3250 0.3230 0.3220 0.3220
408.403935 0.3210 0.3210 0.3220 0.3220 0.3260
412.938403 0.3290 0.3350 0.3420 0.3500 0.3550
417.472870 0.3660 0.3730 0.3900 0.3970 0.4459
422.007338 0.5068 0.5090 0.5229 0.5280 0.5370
426.541805 0.5480 0.5610 0.5680 0.5820 0.5940
431.076273 0.6050 0.6180 0.6290 0.6360 0.6469
435.610740 0.6600 0.6730 0.6800 0.6900 0.6970
440.145208 0.7070 0.7209 0.7320 0.7360 0.7420
444.679675 0.7550 0.7560 0.7600 0.7660 0.7730
449.214143 0.7770 0.7820 0.7890 0.7920 0.7940
453.748610 0.7940 0.7970 0.7990 0.8000 0.8000
458.283078 0.8000 0.8000 0.7990 0.7940 0.7900
462.817545 0.7860 0.7800 0.7750 0.7650 0.7590
467.352013 0.7580 0.7560 0.7550 0.7550 0.7550
471.886480 0.7560 0.7580 0.7590 0.7600 0.7630
476.420948 0.7650 0.7690 0.7730 0.7750 0.7770
480.955415 0.7770 0.7790 0.7790 0.7800 0.7820
485.489883 0.7830 0.7850 0.7920 0.7940 0.7970
490.024350 0.8030 0.8110 0.8170 0.8230 0.8300
494.558818 0.8340 0.8410 0.8480 0.8510 0.8540
499.093285 0.8590 0.8620 0.8690 0.8710 0.8740
503.627753 0.8760 0.8790 0.8840 0.8860 0.8880
508.162220 0.8890 0.8890 0.8920 0.8930 0.8950
512.696688 0.8950 0.8960 0.8980 0.8980 0.8980
517.231155 0.8980 0.8980 0.8980 0.8980 0.8960
521.765623 0.8960 0.8950 0.8930 0.8910 0.8890
526.300090 0.8880 0.8860 0.8860 0.8850 0.8820
530.834558 0.8810 0.8790 0.8780 0.8760 0.8740
535.369025 0.8740 0.8720 0.8720 0.8710 0.8690
539.903493 0.8680 0.8650 0.8620 0.8610 0.8590
544.437960 0.8580 0.8570 0.8570 0.8550 0.8550
548.972428 0.8510 0.8480 0.8470 0.8450 0.8420
553.506895 0.8400 0.8370 0.8370 0.8350 0.8350
558.041363 0.8340 0.8310 0.8280 0.8280 0.8240
562.575831 0.8210 0.8200 0.8180 0.8170 0.8160
567.110298 0.8140 0.8130 0.8110 0.8100 0.8060
571.644766 0.8040 0.8010 0.7990 0.7970 0.7970
576.179233 0.7940 0.7940 0.7930 0.7930 0.7900
580.713701 0.7870 0.7850 0.7830 0.7830 0.7820
585.248168 0.7790 0.7770 0.7760 0.7760 0.7750
589.782636 0.7730 0.7680 0.7650 0.7620 0.7590
594.317103 0.7590 0.7580 0.7560 0.7550 0.7550
598.851571 0.7520 0.7490 0.7460 0.7450 0.7430
603.386038 0.7420 0.7410 0.7380 0.7380 0.7350
607.920506 0.7320 0.7310 0.7290 0.7270 0.7250
612.454973 0.7240 0.7220 0.7210 0.7210 0.7190
616.989441 0.7180 0.7180 0.7150 0.7120 0.7110
621.523908 0.7080 0.7070 0.7050 0.7050 0.7020
626.058376 0.7000 0.6980 0.6970 0.6950 0.6930
630.592843 0.6910 0.6900 0.6880 0.6850 0.6840
635.127311 0.6830 0.6800 0.6780 0.6760 0.6760
639.661778 0.6740 0.6730 0.6670 0.6660 0.6630
644.196246 0.6600 0.6590 0.6570 0.6540 0.6520
648.730713 0.6500 0.6490 0.6440 0.6430 0.6420
653.265181 0.6400 0.6390 0.6370 0.6360 0.6350
657.799648 0.6330 0.6350 0.6360 0.6370 0.6400
662.334116 0.6430 0.6440 0.6460 0.6470 0.6490
666.868583 0.6520 0.6540 0.6570 0.6570 0.6590
671.403051 0.6610 0.6640 0.6670 0.6690 0.6700
675.937518 0.6730 0.6730 0.6740 0.6760 0.6760
680.471986 0.6800 0.6800 0.6800 0.6810 0.6830
685.006453 0.6840 0.6880 0.6880 0.6900 0.6910
689.540921 0.6940 0.6970 0.6980 0.6980 0.7000
694.075388 0.7010 0.7040 0.7050 0.7050 0.7070
698.609856 0.7070 0.7100 0.7110 0.7140 0.7170
703.144323 0.7180 0.7210 0.7220 0.7240 0.7240
707.678791 0.7250 0.7270 0.7290 0.7340 0.7380
712.213258 0.7380 0.7390 0.7410 0.7430 0.7450
716.747726 0.7480 0.7510 0.7550 0.7560 0.7590
721.282193 0.7620 0.7620 0.7650 0.7660 0.7690
725.816661 0.7730 0.7760 0.7770 0.7770 0.7800
730.351129 0.7860 0.7900 0.7900 0.7920 0.7920
734.885596 0.7940 0.7940 0.7990 0.8000 0.8010
739.420064 0.8040 0.8070 0.8100 0.8110 0.8130
743.954531 0.8130 0.8160 0.8160 0.8140 0.8140
748.488999 0.8140 0.8110 0.8070 0.7970 0.7920
753.023466 0.7820 0.7750 0.7660 0.7630 0.7620
757.557934 0.7630 0.7730 0.7800 0.7929 0.8069
762.092401 0.8130 0.8170 0.8280 0.8300 0.8340
766.626869 0.8370 0.8380 0.8380 0.8400 0.8420
771.161336 0.8470 0.8480 0.8500 0.8550 0.8640
775.695804 0.8720 0.8780 0.8860 0.8890 0.8950
780.230271 0.8990 0.9030 0.9090 0.9120 0.9150
784.764739 0.9190 0.9230 0.9300 0.9320 0.9330
789.299206 0.9370 0.9400 0.9430 0.9440 0.9460
793.833674 0.9490 0.9510 0.9530 0.9560 0.9580
798.368141 0.9630 0.9700 0.9710 0.9750 0.9750
802.902609 0.9770 0.9800 0.9840 0.9850 0.9870
807.437076 0.9900 0.9920 0.9970 1.0000 1.0000
811.971544 1.0020 1.0040 1.0050 1.0080 1.0110
816.506011 1.0120 1.0120 1.0150 1.0190 1.0210
821.040479 1.0210 1.0220 1.0240 1.0260 1.0280
825.574946 1.0290 1.0290 1.0290 1.0310 1.0310
830.109414 1.0320 1.0320 1.0320 1.0320 1.0310
834.643881 1.0280 1.0260 1.0250 1.0240 1.0210
839.178349 1.0150 1.0070 1.0010 1.0000 0.9980
843.712816 0.9880 0.9800 0.9630 0.9560 0.9490
848.247284 0.9300 0.9031 0.8841 0.8651 0.8481
852.781751 0.8280 0.8140 0.7970 0.7770 0.7590
857.316219 0.7450 0.7360 0.7151 0.7070 0.7070
861.850686 0.7190 0.7430 0.7590 0.7750 0.7870
866.385154 0.8000 0.8130 0.8299 0.8499 0.8639
870.919621 0.8650 0.8710 0.8760 0.8790 0.8820
875.454089 0.8820 0.8820 0.8810 0.8810 0.8710
879.988556 0.8580 0.8400 0.8240 0.8110 0.7930
884.523024 0.7750 0.7590 0.7311 0.6882 0.6800
889.057492 0.6760 0.6840 0.7250 0.7450 0.7759
893.591959 0.7989 0.8179 0.8300 0.8350 0.8420
898.126427 0.8500 0.8540 0.8570 0.8580 0.8570
902.660894 0.8510 0.8480 0.8410 0.8380 0.8380
907.195362 0.8370 0.8380 0.8470 0.8540 0.8670
911.729829 0.8690 0.8760 0.8890 0.8950 0.9079
916.264297 0.9200 0.9330 0.9420 0.9540 0.9640
920.798764 0.9770 0.9800 0.9850 0.9970 1.0010
925.333232 1.0040 1.0070 1.0090 1.0110 1.0150
929.867699 1.0160 1.0160 1.0180 1.0180 1.0180
934.402167 1.0160 1.0150 1.0120 1.0090 1.0080
938.936634 1.0040 1.0000 1.0000 0.9980 0.9970
943.471102 0.9870 0.9780 0.9700 0.9580 0.9540
948.005569 0.9440 0.9260 0.9031 0.8920 0.8721
952.540037 0.8510 0.8300 0.8070 0.7650 0.6931
957.074504 0.6391 0.6260 0.4495 0.3384 0.2772
961.608972 0.2510 0.2440 0.1980 0.1240 0.0990
966.143439 0.0890 0.0770 0.0650 0.0570 0.0500
970.677907 0.0490 0.0500 0.0550 0.0690 0.1339
975.212374 0.2288 0.3008 0.3299 0.4097 0.4717
979.746842 0.5121 0.5960 0.6180 0.6350 0.6600
984.281309 0.6780 0.6950 0.7149 0.7349 0.7460
988.815777 0.7660 0.7770 0.7930 0.7940 0.7970
993.350244 0.8010 0.8030 0.8040 0.8070 0.8070
997.884712 0.8060 0.7970 0.7850 0.7600 0.7410
1002.419179 0.7220 0.6951 0.6591 0.6361 0.5792
1006.953647 0.5470 0.4800 0.4550 0.4150 0.3811
1011.488114 0.3381 0.2941 0.2442 0.2141 0.1821
1016.022582 0.1640 0.1480 0.1450 0.1450 0.1540
1020.557049 0.2159 0.2868 0.3328 0.3619 0.5203
1025.091517 0.5380 0.5610 0.6050 0.6370 0.6809
1029.625984 0.7049 0.7239 0.7250 0.7290 0.7350
1034.160452 0.7380 0.7380 0.7320 0.7220 0.7140
1038.694919 0.6930 0.6741 0.6222 0.6130 0.5473
1043.229387 0.5090 0.4480 0.4200 0.3061 0.2810
1047.763854 0.2431 0.2071 0.1761 0.1441 0.1112
1052.298322 0.0930 0.0730 0.0630 0.0530 0.0500
1056.832790 0.0450 0.0420 0.0390 0.0390 0.0430
1061.367257 0.0550 0.0600 0.0650 0.0760 0.0770
1065.901725 0.0820 0.0820 0.0840 0.0840 0.0840
1070.436192 0.0830 0.0760 0.0760 0.1200 0.1370
1074.970660 0.2468 0.2610 0.2869 0.3378 0.3788
1079.505127 0.4150 0.4420 0.4750 0.4890 0.5020
1084.039595 0.5130 0.5210 0.5260 0.5270 0.5240
1088.574062 0.5210 0.5170 0.5060 0.4870 0.4760
1093.108530 0.4580 0.4370 0.4240 0.4051 0.3970
1097.642997 0.3840 0.3790 0.3600 0.3550 0.3550
1102.177465 0.3690 0.3939 0.4199 0.4489 0.4779
1106.711932 0.5141 0.5910 0.6010 0.6590 0.6880
1111.246400 0.7080 0.7220 0.7479 0.7629 0.7869
1115.780867 0.7970 0.8000 0.8010 0.8090 0.8110
1120.315335 0.8160 0.8200 0.8230 0.8240 0.8280
1124.849802 0.8300 0.8310 0.8340 0.8370 0.8380
1129.384270 0.8410 0.8450 0.8500 0.8510 0.8540
1133.918737 0.8590 0.8640 0.8690 0.8740 0.8810
1138.453205 0.8880 0.8950 0.9020 0.9120 0.9160
1142.987672 0.9220 0.9300 0.9390 0.9440 0.9530
1147.522140 0.9560 0.9610 0.9640 0.9710 0.9770
1152.056607 0.9770 0.9810 0.9850 0.9880 0.9920
1156.591075 0.9940 0.9950 1.0010 1.0040 1.0050
1161.125542 1.0070 1.0080 1.0110 1.0120 1.0150
1165.660010 1.0160 1.0160 1.0180 1.0190 1.0190
1170.194477 1.0210 1.0210 1.0220 1.0220 1.0220
1174.728945 1.0220 1.0220 1.0220 1.0220 1.0220
1179.263412 1.0210 1.0210 1.0180 1.0160 1.0160
1183.797880 1.0150 1.0150 1.0150 1.0140 1.0140
1188.332347 1.0110 1.0090 1.0070 1.0050 1.0050
1192.866815 1.0040 1.0020 1.0010 1.0000 1.0000
1197.401282 1.0000 0.9980 0.9950 0.9850 0.9800
1201.935750 0.9780 0.9770 0.9750 0.9670 0.9610
1206.470217 0.9560 0.9530 0.9500 0.9420 0.9360
1211.004685 0.9290 0.9190 0.9100 0.9020 0.8950
1215.539153 0.8890 0.8810 0.8750 0.8710 0.8580
1220.073620 0.8520 0.8410 0.8370 0.8240 0.8160
1224.608088 0.8110 0.7940 0.7820 0.7730 0.7580
1229.142555 0.7410 0.7280 0.7110 0.7070 0.6970
1233.677023 0.6900 0.6880 0.6870 0.6870 0.6880
1238.211490 0.6910 0.6970 0.7080 0.7220 0.7270
1242.745958 0.7380 0.7450 0.7600 0.7720 0.7770
1247.280425 0.7920 0.7970 0.8159 0.8270 0.8300
1251.814893 0.8350 0.8400 0.8440 0.8470 0.8500
1256.349360 0.8510 0.8510 0.8510 0.8520 0.8520
1260.883828 0.8510 0.8500 0.8480 0.8440 0.8420
1265.418295 0.8380 0.8350 0.8310 0.8300 0.8300
1269.952763 0.8230 0.8200 0.8200 0.8180 0.8180
1274.487230 0.8170 0.8170 0.8170 0.8170 0.8170
1279.021698 0.8160 0.8160 0.8140 0.8130 0.8110
1283.556165 0.8100 0.8060 0.8010 0.7990 0.7940
1288.090633 0.7930 0.7920 0.7850 0.7820 0.7800
1292.625100 0.7770 0.7770 0.7760 0.7760 0.7760
1297.159568 0.7770 0.7790 0.7800 0.7800 0.7800
1301.694035 0.7830 0.7830 0.7850 0.7850 0.7860
1306.228503 0.7860 0.7860 0.7860 0.7850 0.7820
1310.762970 0.7800 0.7760 0.7730 0.7650 0.7590
1315.297438 0.7560 0.7490 0.7410 0.7390 0.7310
1319.831905 0.7220 0.7140 0.7080 0.7000 0.6900
1324.366373 0.6840 0.6740 0.6670 0.6600 0.6590
1328.900840 0.6520 0.6430 0.6260 0.6230 0.5642
1333.435308 0.5540 0.5530 0.5500 0.5470 0.5430
1337.969775 0.5400 0.5370 0.5340 0.5280 0.5260
1342.504243 0.5230 0.5210 0.5140 0.5120 0.5060
1347.038710 0.5000 0.5000 0.5040 0.5120 0.5190
1351.573178 0.5210 0.5240 0.5260 0.5280 0.5310
1356.107645 0.5340 0.5370 0.5430 0.5450 0.5470
1360.642113 0.5500 0.5500 0.5510 0.5530 0.5530
1365.176580 0.5510 0.5500 0.5480 0.5470 0.5440
1369.711048 0.5360 0.5310 0.5280 0.5240 0.5230
1374.245515 0.5170 0.5130 0.5090 0.4990 0.4861
1378.779983 0.4690 0.4540 0.4320 0.4080 0.3980
1383.314451 0.3900 0.3870 0.3860 0.3840 0.3860
1387.848918 0.3870 0.3900 0.3960 0.4050 0.4150
1392.383386 0.4180 0.4250 0.4340 0.4380 0.4450
1396.917853 0.4510 0.4540 0.4560 0.4610 0.4650
1401.452321 0.4680 0.4680 0.4690 0.4710 0.4720
1405.986788 0.4720 0.4730 0.4730 0.4730 0.4730
1410.521256 0.4730 0.4730 0.4730 0.4730 0.4730
1415.055723 0.4730 0.4730 0.4730 0.4730 0.4730
1419.590191 0.4730 0.4730 0.4730 0.4730 0.4730
1424.124658 0.4730 0.4730 0.4730 0.4730 0.4730
1428.659126 0.4750 0.4750 0.4760 0.4760 0.4750
1433.193593 0.4730 0.4710 0.4690 0.4650 0.4630
1437.728061 0.4560 0.4510 0.4440 0.4410 0.4420
1442.262528 0.4450 0.4480 0.4540 0.4540 0.4520
1446.796996 0.4520 0.4480 0.4350 0.4151 0.3831
1451.331463 0.3600 0.3460 0.3290 0.3040 0.2810
1455.865931 0.2500 0.2310 0.2300 0.2310 0.2430
1460.400398 0.2480 0.2610 0.2640 0.2670 0.2750
1464.934866 0.2770 0.2770 0.2770 0.2780 0.2880
1469.469333 0.2990 0.3120 0.3350 0.3460 0.3550
1474.003801 0.3700 0.3810 0.3940 0.4010 0.4080
1478.538268 0.4180 0.4350 0.4620 0.4820 0.4870
1483.072736 0.5060 0.5240 0.5449 0.5600 0.6008
1487.607203 0.6030 0.6220 0.6420 0.6520 0.6670
1492.141671 0.6730 0.6770 0.6870 0.6900 0.6910
1496.676138 0.6950 0.7000 0.7040 0.7050 0.7070
1501.210606 0.7080 0.7080 0.7080 0.7080 0.7080
1505.745073 0.7080 0.7080 0.7070 0.7070 0.7020
1510.279541 0.7010 0.7000 0.6980 0.6950 0.6930
1514.814008 0.6900 0.6850 0.6850 0.6840 0.6840
1519.348476 0.6830 0.6810 0.6800 0.6780 0.6760
1523.882943 0.6740 0.6730 0.6670 0.6640 0.6610
1528.417411 0.6600 0.6590 0.6490 0.6440 0.6430
1532.951878 0.6350 0.6300 0.6180 0.6150 0.6080
1537.486346 0.6010 0.5960 0.5950 0.5880 0.5780
1542.020814 0.5750 0.5670 0.5610 0.5480 0.5360
1546.555281 0.5260 0.5230 0.5170 0.5140 0.5090
1551.089749 0.5070 0.5070 0.5090 0.5100 0.5140
1555.624216 0.5170 0.5210 0.5260 0.5340 0.5360
1560.158684 0.5480 0.5670 0.5720 0.5770 0.5860
1564.693151 0.5920 0.5990 0.6080 0.6160 0.6280
1569.227619 0.6290 0.6330 0.6460 0.6470 0.6500
1573.762086 0.6570 0.6590 0.6600 0.6630 0.6640
1578.296554 0.6670 0.6690 0.6710 0.6730 0.6730
1582.831021 0.6760 0.6800 0.6830 0.6880 0.6880
1587.365489 0.6910 0.6980 0.7050 0.7100 0.7170
1591.899956 0.7240 0.7280 0.7380 0.7450 0.7510
1596.434424 0.7590 0.7660 0.7750 0.7850 0.7930
1600.968891 0.8030 0.8110 0.8130 0.8210 0.8280
1605.503359 0.8330 0.8370 0.8410 0.8480 0.8510
1610.037826 0.8580 0.8640 0.8690 0.8710 0.8740
1614.572294 0.8780 0.8790 0.8820 0.8880 0.8880
1619.106761 0.8890 0.8910 0.8930 0.8960 0.8980
1623.641229 0.8980 0.8980 0.8990 0.8990 0.9020
1628.175696 0.9030 0.9030 0.9030 0.9080 0.9090
1632.710164 0.9090 0.9090 0.9100 0.9100 0.9100
1637.244631 0.9120 0.9120 0.9130 0.9160 0.9190
1641.779099 0.9200 0.9220 0.9220 0.9230 0.9250
1646.313566 0.9260 0.9260 0.9290 0.9290 0.9300
1650.848034 0.9320 0.9330 0.9330 0.9330 0.9330
1655.382501 0.9330 0.9330 0.9340 0.9360 0.9360
1659.916969 0.9370 0.9390 0.9390 0.9390 0.9390
1664.451436 0.9390 0.9390 0.9390 0.9400 0.9400
1668.985904 0.9400 0.9420 0.9420 0.9430 0.9430
1673.520371 0.9440 0.9440 0.9440 0.9460 0.9460
1678.054839 0.9460 0.9460 0.9470 0.9490 0.9500
1682.589306 0.9510 0.9510 0.9510 0.9530 0.9530
1687.123774 0.9530 0.9540 0.9540 0.9540 0.9560
1691.658241 0.9560 0.9570 0.9580 0.9580 0.9600
1696.192709 0.9600 0.9600 0.9600 0.9610 0.9610
1700.727177 0.9610 0.9610 0.9610 0.9610 0.9610
1705.261644 0.9630 0.9630 0.9640 0.9640 0.9640
1709.796112 0.9640 0.9660 0.9660 0.9660 0.9670
1714.330579 0.9670 0.9670 0.9680 0.9680 0.9700
1718.865047 0.9700 0.9700 0.9700 0.9710 0.9710
1723.399514 0.9710 0.9710 0.9730 0.9730 0.9740
1727.933982 0.9740 0.9740 0.9750 0.9750 0.9740
1732.468449 0.9740 0.9740 0.9740 0.9740 0.9740
1737.002917 0.9740 0.9740 0.9740 0.9750 0.9750
1741.537384 0.9740 0.9740 0.9750 0.9750 0.9750
1746.071852 0.9770 0.9770 0.9770 0.9770 0.9780
1750.606319 0.9780 0.9780 0.9780 0.9780 0.9780
1755.140787 0.9780 0.9780 0.9780 0.9800 0.9810
1759.675254 0.9810 0.9810 0.9780 0.9770 0.9770
1764.209722 0.9770 0.9800 0.9800 0.9800 0.9800
1768.744189 0.9810 0.9810 0.9810 0.9810 0.9810
1773.278657 0.9810 0.9830 0.9830 0.9830 0.9830
1777.813124 0.9830 0.9830 0.9830 0.9830 0.9840
1782.347592 0.9840 0.9840 0.9850 0.9850 0.9850
1786.882059 0.9850 0.9850 0.9850 0.9850 0.9870
1791.416527 0.9870 0.9870 0.9870 0.9870 0.9850
1795.950994 0.9840 0.9840 0.9840 0.9840 0.9840
1800.485462 0.9840 0.9840 0.9840 0.9840 0.9840
1805.019929 0.9840 0.9830 0.9830 0.9830 0.9830
1809.554397 0.9830 0.9830 0.9830 0.9830 0.9830
1814.088864 0.9830 0.9830 0.9830 0.9830 0.9830
1818.623332 0.9830 0.9810 0.9810 0.9810 0.9810
1823.157799 0.9810 0.9800 0.9780 0.9780 0.9780
1827.692267 0.9770 0.9770 0.9770 0.9770 0.9770
1832.226734 0.9770 0.9770 0.9750 0.9750 0.9750
1836.761202 0.9750 0.9750 0.9750 0.9740 0.9740
1841.295669 0.9740 0.9740 0.9750 0.9750 0.9750
1845.830137 0.9750 0.9770 0.9770 0.9770 0.9770
1850.364604 0.9780 0.9780 0.9770 0.9770 0.9770
1854.899072 0.9770 0.9770 0.9780 0.9780 0.9770
1859.433539 0.9770 0.9770 0.9770 0.9770 0.9770
1863.968007 0.9770 0.9770 0.9770 0.9770 0.9770
1868.502475 0.9770 0.9770 0.9780 0.9780 0.9780
1873.036942 0.9780 0.9780 0.9780 0.9780 0.9800
1877.571410 0.9800 0.9810 0.9810 0.9810 0.9810
1882.105877 0.9810 0.9830 0.9830 0.9830 0.9830
1886.640345 0.9830 0.9840 0.9840 0.9840 0.9840
1891.174812 0.9840 0.9840 0.9830 0.9830 0.9830
1895.709280 0.9830 0.9830 0.9830 0.9830 0.9830
1900.243747 0.9830 0.9830 0.9810 0.9810 0.9810
1904.778215 0.9810 0.9810 0.9810 0.9810 0.9810
1909.312682 0.9810 0.9800 0.9800 0.9800 0.9800
1913.847150 0.9800 0.9770 0.9770 0.9770 0.9770
1918.381617 0.9770 0.9750 0.9750 0.9740 0.9740
1922.916085 0.9710 0.9700 0.9670 0.9660 0.9660
1927.450552 0.9640 0.9640 0.9640 0.9610 0.9600
1931.985020 0.9580 0.9570 0.9560 0.9560 0.9560
1936.519487 0.9560 0.9560 0.9560 0.9560 0.9560
1941.053955 0.9560 0.9560 0.9560 0.9570 0.9570
1945.588422 0.9600 0.9630 0.9640 0.9660 0.9660
1950.122890 0.9670 0.9700 0.9730 0.9740 0.9750
1954.657357 0.9770 0.9770 0.9770 0.9770 0.9780
1959.191825 0.9780 0.9780 0.9780 0.9800 0.9800
1963.726292 0.9810 0.9810 0.9810 0.9830 0.9830
1968.260760 0.9830 0.9830 0.9830 0.9830 0.9830
1972.795227 0.9830 0.9830 0.9830 0.9830 0.9830
1977.329695 0.9830 0.9830 0.9830 0.9830 0.9830
1981.864162 0.9830 0.9830 0.9830 0.9830 0.9830
1986.398630 0.9830 0.9830 0.9810 0.9810 0.9810
1990.933097 0.9800 0.9780 0.9780 0.9780 0.9780
1995.467565 0.9780 0.9750 0.9610 0.9510 0.9510
2000.002032 0.9560 0.9610 0.9660 0.9680 0.9700
2004.536500 0.9715 0.9730 0.9735 0.9740 0.9745
2009.070967 0.9750 0.9750 0.9750 0.9760 0.9770
2013.605435 0.9775 0.9780 0.9780 0.9780 0.9780
2018.139902 0.9780 0.9780 0.9780 0.9780 0.9780
2022.674370 0.9775 0.9770 0.9770 0.9770 0.9760
2027.208838 0.9750 0.9750 0.9750 0.9740 0.9730
2031.743305 0.9715 0.9700 0.9690 0.9680 0.9680
2036.277773 0.9680 0.9680 0.9680 0.9680 0.9680
2040.812240 0.9680 0.9680 0.9680 0.9680 0.9690
2045.346708 0.9700 0.9700 0.9700 0.9700 0.9700
2049.881175 0.9700 0.9700 0.9700 0.9700 0.9700
2054.415643 0.9700 0.9700 0.9700 0.9700 0.9700
2058.950110 0.9700 0.9700 0.9690 0.9680 0.9675
2063.484578 0.9670 0.9670 0.9670 0.9670 0.9670
2068.019045 0.9665 0.9660 0.9650 0.9640 0.9640
2072.553513 0.9640 0.9640 0.9640 0.9650 0.9660
2077.087980 0.9660 0.9660 0.9670 0.9681 0.9696
2081.622448 0.9711 0.9726 0.9741 0.9756 0.9770
2086.156915 0.9775 0.9780 0.9790 0.9800 0.9805
2090.691383 0.9811 0.9821 0.9830 0.9835 0.9840
2095.225850 0.9845 0.9850 0.9850 0.9850 0.9850
2099.760318 0.9851 0.9861 0.9870 0.9870 0.9869
2104.294785 0.9859 0.9850 0.9845 0.9840 0.9835
2108.829253 0.9830 0.9830 0.9830 0.9830 0.9830
2113.363720 0.9830 0.9830 0.9830 0.9830 0.9835
2117.898188 0.9840 0.9840 0.9840 0.9840 0.9840
2122.432655 0.9840 0.9840 0.9840 0.9840 0.9840
2126.967123 0.9840 0.9840 0.9840 0.9840 0.9840
2131.501590 0.9845 0.9850 0.9850 0.9850 0.9850
2136.036058 0.9850 0.9850 0.9850 0.9850 0.9850
2140.570525 0.9850 0.9851 0.9861 0.9870 0.9870
2145.104993 0.9870 0.9870 0.9870 0.9870 0.9870
2149.639460 0.9875 0.9880 0.9880 0.9880 0.9875
2154.173928 0.9870 0.9870 0.9870 0.9870 0.9870
2158.708395 0.9870 0.9870 0.9870 0.9869 0.9859
2163.242863 0.9850 0.9850 0.9849 0.9844 0.9840
2167.777330 0.9840 0.9840 0.9840 0.9839 0.9834
2172.311798 0.9830 0.9830 0.9830 0.9830 0.9829
2176.846265 0.9819 0.9810 0.9810 0.9811 0.9821
2181.380733 0.9830 0.9830 0.9829 0.9819 0.9810
2185.915200 0.9810 0.9810 0.9810 0.9810 0.9810
2190.449668 0.9809 0.9804 0.9799 0.9789 0.9780
2194.984136 0.9780 0.9780 0.9780 0.9779 0.9774
2199.518603 0.9770 0.9770 0.9769 0.9759 0.9747
2204.053071 0.9727 0.9709 0.9704 0.9700 0.9700
2208.587538 0.9700 0.9700 0.9701 0.9706 0.9710
2213.122006 0.9710 0.9710 0.9710 0.9710 0.9710
2217.656473 0.9710 0.9710 0.9712 0.9727 0.9740
2222.190941 0.9740 0.9740 0.9740 0.9741 0.9746
2226.725408 0.9750 0.9750 0.9750 0.9750 0.9750
2231.259876 0.9750 0.9749 0.9744 0.9740 0.9740
2235.794343 0.9738 0.9723 0.9710 0.9710 0.9710
2240.328811 0.9710 0.9709 0.9704 0.9700 0.9700
2244.863278 0.9700 0.9700 0.9700 0.9700 0.9701
2249.397746 0.9706 0.9710 0.9710 0.9709 0.9704
2253.932213 0.9700 0.9700 0.9700 0.9700 0.9700
2258.466681 0.9700 0.9700 0.9700 0.9698 0.9688
2263.001148 0.9680 0.9680 0.9680 0.9680 0.9680
2267.535616 0.9680 0.9679 0.9674 0.9668 0.9652
2272.070083 0.9639 0.9634 0.9630 0.9630 0.9628
2276.604551 0.9618 0.9610 0.9610 0.9610 0.9610
2281.139018 0.9609 0.9604 0.9600 0.9600 0.9600
2285.673486 0.9600 0.9598 0.9588 0.9579 0.9574
2290.207953 0.9569 0.9564 0.9558 0.9548 0.9540
2294.742421 0.9540 0.9540 0.9540 0.9540 0.9540
2299.276888 0.9540 0.9540 0.9539 0.9534 0.9530
2303.811356 0.9530 0.9528 0.9518 0.9510 0.9510
2308.345823 0.9510 0.9510 0.9510 0.9510 0.9510
2312.880291 0.9510 0.9510 0.9510 0.9510 0.9510
2317.414758 0.9510 0.9510 0.9510 0.9510 0.9510
2321.949226 0.9510 0.9510 0.9510 0.9510 0.9510
2326.483693 0.9510 0.9510 0.9510 0.9510 0.9510
2331.018161 0.9510 0.9510 0.9510 0.9510 0.9510
2335.552628 0.9510 0.9510 0.9509 0.9504 0.9500
2340.087096 0.9500 0.9500 0.9500 0.9499 0.9494
2344.621563 0.9490 0.9490 0.9490 0.9490 0.9490
2349.156031 0.9490 0.9490 0.9490 0.9490 0.9490
2353.690499 0.9490 0.9490 0.9490 0.9490 0.9490
2358.224966 0.9490 0.9491 0.9496 0.9501 0.9506
2362.759434 0.9510 0.9510 0.9510 0.9510 0.9510
2367.293901 0.9510 0.9510 0.9510 0.9510 0.9510
2371.828369 0.9512 0.9522 0.9530 0.9530 0.9530
2376.362836 0.9530 0.9531 0.9536 0.9540 0.9540
2380.897304 0.9540 0.9540 0.9540 0.9540 0.9540
2385.431771 0.9540 0.9540 0.9540 0.9540 0.9540
2389.966239 0.9540 0.9540 0.9539 0.9534 0.9530
2394.500706 0.9530 0.9530 0.9530 0.9530 0.9530
2399.035174 0.9527 0.9517 0.9510 0.9510 0.9510
2403.569641 0.9510 0.9510 0.9510 0.9510 0.9510
2408.104109 0.9509 0.9504 0.9500 0.9500 0.9500
2412.638576 0.9500 0.9500 0.9500 0.9500 0.9500
2417.173044 0.9501 0.9506 0.9509 0.9504 0.9500
2421.707511 0.9500 0.9499 0.9494 0.9490 0.9490
2426.241979 0.9490 0.9490 0.9487 0.9477 0.9470
2430.776446 0.9470 0.9470 0.9470 0.9469 0.9464
2435.310914 0.9460 0.9460 0.9460 0.9460 0.9460
2439.845381 0.9460 0.9460 0.9460 0.9460 0.9460
2444.379849 0.9460 0.9460 0.9460 0.9460 0.9457
2448.914316 0.9447 0.9440 0.9440 0.9440 0.9440
2453.448784 0.9440 0.9440 0.9438 0.9433 0.9430
2457.983251 0.9430 0.9428 0.9423 0.9415 0.9400
2462.517719 0.9387 0.9377 0.9369 0.9364 0.9360
2467.052186 0.9360 0.9357 0.9347 0.9340 0.9340
2471.586654 0.9340 0.9340 0.9338 0.9333 0.9330
2476.121121 0.9330 0.9328 0.9323 0.9320 0.9320
2480.655589 0.9320 0.9320 0.9320 0.9320 0.9320
2485.190056 0.9320 0.9317 0.9307 0.9300 0.9300
2489.724524 0.9300 0.9300 0.9295 0.9280 0.9268
2494.258991 0.9263 0.9260 0.9260 0.9258 0.9253
2498.793459 0.9247 0.9237 0.9220 0.9190 0.9170
2503.327926 0.9170 0.9168 0.9163 0.9155 0.9140
2507.862394 0.9130 0.9130 0.9128 0.9123 0.9117
2512.396861 0.9107 0.9100 0.9100 0.9093 0.9073
2516.931329 0.9058 0.9053 0.9047 0.9037 0.9028
2521.465797 0.9023 0.9015 0.9000 0.8990 0.8990
2526.000264 0.8988 0.8983 0.8975 0.8960 0.8946
2530.534732 0.8936 0.8930 0.8930 0.8930 0.8930
2535.069199 0.8930 0.8930 0.8933 0.8943 0.8950
2539.603667 0.8950 0.8950 0.8950 0.8950 0.8950
2544.138134 0.8950 0.8950 0.8946 0.8936 0.8930
2548.672602 0.8930 0.8930 0.8930 0.8930 0.8930
2553.207069 0.8928 0.8923 0.8920 0.8920 0.8918
2557.741537 0.8913 0.8910 0.8910 0.8910 0.8910
2562.276004 0.8906 0.8896 0.8890 0.8890 0.8890
2566.810472 0.8890 0.8890 0.8890 0.8888 0.8883
2571.344939 0.8876 0.8866 0.8856 0.8846 0.8840
2575.879407 0.8840 0.8836 0.8826 0.8820 0.8820
2580.413874 0.8820 0.8820 0.8820 0.8820 0.8818
2584.948342 0.8813 0.8810 0.8810 0.8810 0.8810
2589.482809 0.8810 0.8810 0.8810 0.8810 0.8810
2594.017277 0.8810 0.8810 0.8810 0.8810 0.8810
2598.551744 0.8810 0.8810 0.8810 0.8810 0.8810
2603.086212 0.8810 0.8810 0.8810 0.8810 0.8810
2607.620679 0.8810 0.8810 0.8810 0.8810 0.8810
2612.155147 0.8810 0.8810 0.8810 0.8810 0.8810
2616.689614 0.8810 0.8810 0.8810 0.8810 0.8810
2621.224082 0.8810 0.8810 0.8810 0.8810 0.8810
2625.758549 0.8806 0.8796 0.8790 0.8790 0.8788
2630.293017 0.8783 0.8774 0.8759 0.8748 0.8743
2634.827484 0.8736 0.8726 0.8718 0.8713 0.8710
2639.361952 0.8710 0.8706 0.8696 0.8682 0.8662
2643.896419 0.8648 0.8643 0.8636 0.8626 0.8620
2648.430887 0.8620 0.8614 0.8599 0.8579 0.8554
2652.965354 0.8533 0.8518 0.8508 0.8503 0.8500
2657.499822 0.8500 0.8496 0.8486 0.8465 0.8430
2662.034289 0.8395 0.8360 0.8338 0.8333 0.8326
2666.568757 0.8316 0.8310 0.8310 0.8299 0.8274
2671.103224 0.8242 0.8202 0.8176 0.8166 0.8153
2675.637692 0.8138 0.8126 0.8116 0.8110 0.8110
2680.172160 0.8110 0.8110 0.8110 0.8110 0.8114
2684.706627 0.8124 0.8130 0.8130 0.8130 0.8130
2689.241095 0.8137 0.8152 0.8160 0.8160 0.8160
2693.775562 0.8160 0.8155 0.8145 0.8140 0.8140
2698.310030 0.8138 0.8133 0.8123 0.8108 0.8093
2702.844497 0.8078 0.8063 0.8048 0.8033 0.8018
2707.378965 0.8005 0.7995 0.7985 0.7975 0.7963
2711.913432 0.7948 0.7935 0.7925 0.7906 0.7876
2716.447900 0.7839 0.7794 0.7765 0.7755 0.7722
2720.982367 0.7662 0.7614 0.7579 0.7551 0.7530
2725.516835 0.7513 0.7498 0.7488 0.7483 0.7475
2730.051302 0.7465 0.7458 0.7453 0.7443 0.7428
2734.585770 0.7410 0.7390 0.7366 0.7336 0.7318
2739.120237 0.7313 0.7296 0.7266 0.7248 0.7243
2743.654705 0.7235 0.7225 0.7220 0.7220 0.7220
2748.189172 0.7220 0.7220 0.7220 0.7225 0.7235
2752.723640 0.7240 0.7240 0.7240 0.7240 0.7240
2757.258107 0.7240 0.7235 0.7225 0.7220 0.7220
2761.792575 0.7220 0.7220 0.7210 0.7190 0.7177
2766.327042 0.7172 0.7165 0.7155 0.7147 0.7142
2770.861510 0.7135 0.7125 0.7120 0.7120 0.7115
2775.395977 0.7105 0.7100 0.7100 0.7092 0.7077
2779.930445 0.7065 0.7055 0.7019 0.6959 0.6922
2784.464912 0.6907 0.6903 0.6908 0.6894 0.6864
2788.999380 0.6845 0.6835 0.6814 0.6784 0.6752
2793.533847 0.6717 0.6682 0.6647 0.6620 0.6599
2798.068315 0.6571 0.6536 0.6507 0.6482 0.6438
2802.602782 0.6378 0.6326 0.6281 0.6241 0.6206
2807.137250 0.6174 0.6144 0.6119 0.6099 0.6037
2811.671717 0.5937 0.5861 0.5806 0.5772 0.5757
2816.206185 0.5731 0.5696 0.5677 0.5672 0.5618
2820.740652 0.5523 0.5450 0.5395 0.5332 0.5262
2825.275120 0.5203 0.5153 0.5095 0.5030 0.4965
2829.809587 0.4900 0.4829 0.4754 0.4690 0.4634
2834.344055 0.4574 0.4509 0.4463 0.4433 0.4401
2838.878523 0.4366 0.4272 0.4132 0.4014 0.3914
2843.412990 0.3823 0.3738 0.3658 0.3583 0.3495
2847.947458 0.3395 0.3275 0.3140 0.2966 0.2759
2852.481925 0.2596 0.2466 0.2396 0.2371 0.2334
2857.016393 0.2289 0.2247 0.2207 0.2108 0.1963
2861.550860 0.1852 0.1767 0.1679 0.1589 0.1527
2866.085328 0.1487 0.1422 0.1337 0.1226 0.1095
2870.619795 0.1011 0.0961 0.0911 0.0861 0.0799
2875.154263 0.0729 0.0680 0.0645 0.0610 0.0575
2879.688730 0.0540 0.0505 0.0478 0.0458 0.0444
2884.223198 0.0434 0.0436 0.0446 0.0473 0.0514
2888.757665 0.0548 0.0578 0.0715 0.0925 0.1025
2893.292133 0.1050 0.1075 0.1100 0.1131 0.1166
2897.826600 0.1207 0.1252 0.1291 0.1326 0.1343
2902.361068 0.1348 0.1359 0.1374 0.1392 0.1412
2906.895535 0.1426 0.1436 0.1434 0.1424 0.1414
2911.430003 0.1404 0.1391 0.1376 0.1364 0.1354
2915.964470 0.1329 0.1294 0.1256 0.1216 0.1140
2920.498938 0.1040 0.0970 0.0920 0.0867 0.0811
2925.033405 0.0762 0.0717 0.0685 0.0660 0.0635
2929.567873 0.0610 0.0585 0.0560 0.0532 0.0502
2934.102340 0.0478 0.0458 0.0438 0.0418 0.0392
2938.636808 0.0362 0.0338 0.0318 0.0301 0.0286
2943.171275 0.0274 0.0264 0.0266 0.0276 0.0296
2947.705743 0.0321 0.0358 0.0403 0.0439 0.0469
2952.240210 0.0480 0.0480 0.0496 0.0521 0.0530
2956.774678 0.0530 0.0527 0.0522 0.0511 0.0495
2961.309145 0.0458 0.0408 0.0355 0.0300 0.0280
2965.843613 0.0280 0.0258 0.0223 0.0210 0.0210
2970.378080 0.0204 0.0194 0.0190 0.0190 0.0196
2974.912548 0.0206 0.0213 0.0218 0.0239 0.0270
2979.447015 0.0316 0.0371 0.0442 0.0522 0.0756
2983.981483 0.1071 0.1258 0.1378 0.1603 0.1883
2988.515950 0.2176 0.2475 0.2766 0.3050 0.3283
2993.050418 0.3488 0.3693 0.3898 0.4081 0.4253
2997.584885 0.4370 0.4460 0.4590 0.4740 0.4890
3002.119353 0.5040 0.5180 0.5315 0.5423 0.5518
3006.653821 0.5593 0.5658 0.5693 0.5713 0.5816
3011.188288 0.5961 0.6056 0.6126 0.6200 0.6276
3015.722756 0.6307 0.6317 0.6361 0.6421 0.6460
3020.257223 0.6490 0.6530 0.6575 0.6617 0.6657
3024.791691 0.6700 0.6745 0.6767 0.6777 0.6790
3029.326158 0.6805 0.6844 0.6894 0.6924 0.6944
3033.860626 0.6971 0.7001 0.7013 0.7018 0.7030
3038.395093 0.7045 0.7060 0.7075 0.7080 0.7080
3042.929561 0.7090 0.7105 0.7120 0.7135 0.7143
3047.464028 0.7148 0.7150 0.7150 0.7157 0.7167
3051.998496 0.7174 0.7179 0.7180 0.7180 0.7184
3056.532963 0.7189 0.7190 0.7190 0.7190 0.7190
3061.067431 0.7190 0.7190 0.7187 0.7182 0.7177
3065.601898 0.7172 0.7170 0.7170 0.7170 0.7170
3070.136366 0.7159 0.7144 0.7133 0.7123 0.7116
3074.670833 0.7111 0.7099 0.7084 0.7080 0.7080
3079.205301 0.7069 0.7054 0.7036 0.7016 0.6999
3083.739768 0.6984 0.6969 0.6954 0.6943 0.6933
3088.274236 0.6923 0.6913 0.6906 0.6901 0.6882
3092.808703 0.6857 0.6825 0.6790 0.6776 0.6771
3097.343171 0.6766 0.6761 0.6742 0.6717 0.6685
3101.877638 0.6650 0.6615 0.6580 0.6544 0.6509
3106.412106 0.6489 0.6474 0.6466 0.6461 0.6434
3110.946573 0.6399 0.6375 0.6355 0.6339 0.6324
3115.481041 0.6313 0.6303 0.6293 0.6283 0.6251
3120.015508 0.6211 0.6182 0.6157 0.6124 0.6089
3124.549976 0.6054 0.6019 0.5987 0.5957 0.5939
3129.084443 0.5924 0.5905 0.5885 0.5843 0.5793
3133.618911 0.5758 0.5728 0.5694 0.5659 0.5639
3138.153378 0.5624 0.5613 0.5603 0.5566 0.5521
3142.687846 0.5479 0.5439 0.5407 0.5377 0.5359
3147.222313 0.5344 0.5310 0.5270 0.5222 0.5172
3151.756781 0.5126 0.5081 0.5032 0.4982 0.4951
3156.291248 0.4926 0.4912 0.4902 0.4858 0.4802
3160.825716 0.4763 0.4728 0.4681 0.4631 0.4608
3165.360184 0.4593 0.4575 0.4555 0.4535 0.4515
3169.894651 0.4464 0.4404 0.4359 0.4319 0.4271
3174.429119 0.4221 0.4187 0.4157 0.4123 0.4087
3178.963586 0.4052 0.4017 0.3994 0.3974 0.3931
3183.498054 0.3881 0.3839 0.3799 0.3766 0.3736
3188.032521 0.3722 0.3712 0.3639 0.3549 0.3487
3192.566989 0.3432 0.3404 0.3384 0.3360 0.3335
3197.101456 0.3314 0.3294 0.3246 0.3191 0.3140
3201.635924 0.3090 0.3036 0.2981 0.2950 0.2925
3206.170391 0.2908 0.2893 0.2862 0.2827 0.2780
3210.704859 0.2730 0.2688 0.2648 0.2600 0.2549
3215.239326 0.2528 0.2513 0.2498 0.2483 0.2435
3219.773794 0.2380 0.2338 0.2298 0.2262 0.2227
3224.308261 0.2208 0.2193 0.2170 0.2145 0.2124
3228.842729 0.2104 0.2084 0.2064 0.2027 0.1987
3233.377196 0.1926 0.1861 0.1833 0.1814 0.1785
3237.911664 0.1755 0.1725 0.1695 0.1661 0.1626
3242.446131 0.1599 0.1574 0.1549 0.1524 0.1520
3246.980599 0.1520 0.1491 0.1456 0.1417 0.1377
3251.515066 0.1332 0.1287 0.1238 0.1188 0.1167
3256.049534 0.1152 0.1142 0.1132 0.1101 0.1066
3260.584001 0.1039 0.1014 0.0993 0.0973 0.0953
3265.118469 0.0933 0.0922 0.0912 0.0906 0.0901
3269.652936 0.0896 0.0891 0.0869 0.0844 0.0832
3274.187404 0.0822 0.0807 0.0792 0.0782 0.0772
3278.721871 0.0766 0.0761 0.0760 0.0760 0.0735
3283.256339 0.0705 0.0687 0.0672 0.0666 0.0661
3287.790806 0.0647 0.0632 0.0626 0.0621 0.0611
3292.325274 0.0601 0.0600 0.0600 0.0596 0.0591
3296.859741 0.0590 0.0590 0.0581 0.0571 0.0566
3301.394209 0.0561 0.0556 0.0551 0.0541 0.0531
3305.928676 0.0526 0.0521 0.0520 0.0520 0.0520
3310.463144 0.0520 0.0511 0.0501 0.0500 0.0500
3314.997611 0.0496 0.0491 0.0490 0.0490 0.0490
3319.532079 0.0490 0.0486 0.0481 0.0480 0.0480
3324.066546 0.0471 0.0461 0.0460 0.0460 0.0460
3328.601014 0.0460 0.0460 0.0460 0.0456 0.0451
3333.135482 0.0450 0.0450 0.0450 0.0450 0.0450
3337.669949 0.0450 0.0450 0.0450 0.0450 0.0450
3342.204417 0.0441 0.0431 0.0430 0.0430 0.0430
3346.738884 0.0430 0.0430 0.0430 0.0430 0.0430
3351.273352 0.0430 0.0430 0.0439 0.0449 0.0450
3355.807819 0.0450 0.0450 0.0450 0.0450 0.0450
3360.342287 0.0450 0.0450 0.0455 0.0460 0.0460
3364.876754 0.0460 0.0460 0.0460 0.0460 0.0460
3369.411222 0.0469 0.0479 0.0480 0.0480 0.0485
3373.945689 0.0490 0.0490 0.0490 0.0490 0.0490
3378.480157 0.0490 0.0490 0.0504 0.0519 0.0520
3383.014624 0.0520 0.0525 0.0530 0.0530 0.0530
3387.549092 0.0539 0.0549 0.0550 0.0550 0.0559
3392.083559 0.0569 0.0570 0.0570 0.0584 0.0599
3396.618027 0.0600 0.0600 0.0609 0.0619 0.0634
3401.152494 0.0649 0.0659 0.0669 0.0684 0.0699
3405.686962 0.0709 0.0719 0.0725 0.0730 0.0744
3410.221429 0.0759 0.0760 0.0760 0.0765 0.0770
3414.755897 0.0779 0.0789 0.0795 0.0800 0.0809
3419.290364 0.0819 0.0839 0.0859 0.0874 0.0889
3423.824832 0.0899 0.0909 0.0934 0.0959 0.0974
3428.359299 0.0989 0.0995 0.1000 0.1019 0.1039
3432.893767 0.1054 0.1069 0.1084 0.1099 0.1114
3437.428234 0.1129 0.1140 0.1150 0.1179 0.1209
3441.962702 0.1243 0.1278 0.1328 0.1378 0.1390
3446.497169 0.1400 0.1424 0.1449 0.1469 0.1489
3451.031637 0.1529 0.1569 0.1575 0.1580 0.1595
3455.566104 0.1610 0.1615 0.1620 0.1649 0.1679
3460.100572 0.1719 0.1759 0.1789 0.1819 0.1849
3464.635039 0.1879 0.1890 0.1900 0.1939 0.1979
3469.169507 0.2000 0.2020 0.2079 0.2139 0.2169
3473.703974 0.2199 0.2215 0.2230 0.2245 0.2260
3478.238442 0.2280 0.2300 0.2344 0.2389 0.2429
3482.772909 0.2469 0.2490 0.2510 0.2520 0.2530
3487.307377 0.2565 0.2600 0.2660 0.2720 0.2760
3491.841845 0.2800 0.2825 0.2850 0.2870 0.2890
3496.376312 0.2930 0.2970 0.3024 0.3079 0.3129
3500.910780 0.3179 0.3239 0.3299 0.3330 0.3360
3505.445247 0.3405 0.3450 0.3470 0.3490 0.3510
3509.979715 0.3530 0.3585 0.3640 0.3735 0.3830
3514.514182 0.3830 0.3830 0.3880 0.3930 0.3985
3519.048650 0.4040 0.4090 0.4140 0.4206 0.4271
3523.583117 0.4321 0.4371 0.4411 0.4451 0.4501
3528.117585 0.4551 0.4591 0.4631 0.4696 0.4761
3532.652052 0.4826 0.4891 0.4925 0.4961 0.5011
3537.186520 0.5061 0.5131 0.5201 0.5266 0.5332
3541.720987 0.5392 0.5452 0.5502 0.5551 0.5596
3546.255455 0.5641 0.5661 0.5682 0.5767 0.5852
3550.789922 0.5922 0.5992 0.6057 0.6121 0.6171
3555.324390 0.6221 0.6256 0.6290 0.6306 0.6323
3559.858857 0.6393 0.6463 0.6528 0.6593 0.6653
3564.393325 0.6712 0.6762 0.6811 0.6846 0.6882
3568.927792 0.6927 0.6972 0.7022 0.7072 0.7112
3573.462260 0.7152 0.7212 0.7271 0.7291 0.7312
3577.996727 0.7347 0.7382 0.7417 0.7453 0.7508
3582.531195 0.7561 0.7581 0.7602 0.7632 0.7662
3587.065662 0.7692 0.7721 0.7736 0.7752 0.7787
3591.600130 0.7823 0.7878 0.7931 0.7946 0.7960
3596.134597 0.7965 0.7971 0.7986 0.8001 0.8021
3600.669065 0.8042 0.8067 0.8090 0.8095 0.8100
3605.203532 0.8105 0.8111 0.8121 0.8130 0.8130
3609.738000 0.8129 0.8119 0.8109 0.8089 0.8065
3614.272467 0.8000 0.7938 0.7918 0.7896 0.7841
3618.806935 0.7786 0.7731 0.7674 0.7599 0.7521
3623.341402 0.7401 0.7282 0.7172 0.7066 0.7006
3627.875870 0.6946 0.6896 0.6846 0.6785 0.6723
3632.410337 0.6643 0.6567 0.6532 0.6500 0.6495
3636.944805 0.6490 0.6490 0.6490 0.6495 0.6503
3641.479272 0.6533 0.6565 0.6620 0.6677 0.6757
3646.013740 0.6836 0.6906 0.6982 0.7123 0.7266
3650.548208 0.7421 0.7574 0.7709 0.7842 0.7962
3655.082675 0.8082 0.8197 0.8304 0.8339 0.8377
3659.617143 0.8447 0.8518 0.8598 0.8674 0.8719
3664.151610 0.8765 0.8815 0.8861 0.8871 0.8882
3668.686078 0.8897 0.8912 0.8932 0.8952 0.8967
3673.220545 0.8981 0.8986 0.8990 0.8990 0.8991
3677.755013 0.8996 0.9001 0.9011 0.9021 0.9026
3682.289480 0.9032 0.9047 0.9061 0.9071 0.9081
3686.823948 0.9086 0.9091 0.9096 0.9104 0.9134
3691.358415 0.9163 0.9183 0.9204 0.9239 0.9276
3695.892883 0.9321 0.9362 0.9377 0.9391 0.9396
3700.427350 0.9401 0.9411 0.9421 0.9431 0.9441
3704.961818 0.9451 0.9461 0.9466 0.9470 0.9470
3709.496285 0.9471 0.9481 0.9491 0.9501 0.9510
3714.030753 0.9510 0.9511 0.9521 0.9530 0.9530
3718.565220 0.9531 0.9536 0.9540 0.9540 0.9540
3723.099688 0.9540 0.9542 0.9552 0.9561 0.9566
3727.634155 0.9570 0.9570 0.9571 0.9576 0.9580
3732.168623 0.9580 0.9580 0.9580 0.9580 0.9580
3736.703090 0.9580 0.9580 0.9580 0.9580 0.9582
3741.237558 0.9592 0.9600 0.9600 0.9600 0.9600
3745.772025 0.9601 0.9606 0.9610 0.9610 0.9610
3750.306493 0.9610 0.9612 0.9622 0.9630 0.9630
3754.840960 0.9630 0.9630 0.9630 0.9630 0.9628
3759.375428 0.9618 0.9610 0.9610 0.9612 0.9622
3763.909895 0.9630 0.9630 0.9630 0.9630 0.9630
3768.444363 0.9630 0.9630 0.9630 0.9630 0.9630
3772.978830 0.9631 0.9636 0.9640 0.9640 0.9640
3777.513298 0.9640 0.9640 0.9640 0.9642 0.9652
3782.047765 0.9660 0.9660 0.9660 0.9660 0.9660
3786.582233 0.9660 0.9660 0.9660 0.9660 0.9660
3791.116700 0.9660 0.9660 0.9660 0.9660 0.9660
3795.651168 0.9660 0.9658 0.9648
##END=
