##TITLE=n-PROPANOL
##JCAMP-DX=4.24
##DATA TYPE=INFRARED SPECTRUM
##CLASS=COBLENTZ
##ORIGIN=DOW CHEMICAL COMPANY
##OWNER=COBLENTZ SOCIETY
Collection (C) 2018 copyright by the U.S. Secretary of Commerce
on behalf of the United States of America. All rights reserved.
##DATE=1965/10/15
##NAMES=1-propanol
##CAS REGISTRY NO=71-23-8
##MOLFORM=C3 H8 O
##SOURCE REFERENCE=COBLENTZ NO. 10490
##$NIST SOURCE=COBLENTZ
##$NIST IMAGE=cob-r10490
##SPECTROMETER/DATA SYSTEM=DOW KBr FOREPRISM-GRATING
##INSTRUMENT PARAMETERS=GRATING: BLAZED AT 3.5, 12.0, 20.0 MICRON, CHANGED AT 5.0, 7.5, 14.9 MICRON
##STATE=GAS (SATURATED)
##PATH LENGTH=12.5 CM CELL
##SAMPLING PROCEDURE=TRANSMISSION
##RESOLUTION=2
##DATA PROCESSING=DIGITIZED BY NIST FROM HARD COPY (FROM TWO SEGMENTS)
##XUNITS=1/CM
##YUNITS=TRANSMITTANCE
##XFACTOR=1.000000
##YFACTOR=1
##DELTAX=1.261834
##FIRSTX=454.259
##LASTX=3789.29
##FIRSTY=0.72
##MAXX=3789.29
##MINX=454.259
##MAXY=1.012
##MINY=0.044
##NPOINTS=2644
##XYDATA=(X++(Y..Y))
454.259000 0.7200 0.7200 0.7220 0.7220 0.7220
460.568169 0.7220 0.7220 0.7220 0.7220 0.7220
466.877337 0.7220 0.7220 0.7220 0.7220 0.7220
473.186506 0.7220 0.7220 0.7260 0.7260 0.7260
479.495674 0.7260 0.7260 0.7300 0.7300 0.7300
485.804843 0.7320 0.7320 0.7340 0.7360 0.7400
492.114011 0.7420 0.7440 0.7480 0.7520 0.7520
498.423180 0.7560 0.7580 0.7600 0.7620 0.7699
504.732349 0.7700 0.7720 0.7720 0.7740 0.7740
511.041517 0.7740 0.7760 0.7760 0.7760 0.7760
517.350686 0.7760 0.7740 0.7740 0.7740 0.7740
523.659854 0.7740 0.7740 0.7740 0.7740 0.7740
529.969023 0.7740 0.7740 0.7740 0.7740 0.7740
536.278192 0.7740 0.7740 0.7740 0.7740 0.7740
542.587360 0.7740 0.7760 0.7760 0.7760 0.7760
548.896529 0.7760 0.7760 0.7760 0.7760 0.7760
555.205697 0.7780 0.7780 0.7780 0.7780 0.7760
561.514866 0.7760 0.7740 0.7740 0.7740 0.7740
567.824034 0.7740 0.7740 0.7740 0.7740 0.7760
574.133203 0.7760 0.7760 0.7760 0.7760 0.7760
580.442372 0.7780 0.7800 0.7800 0.7820 0.7820
586.751540 0.7820 0.7820 0.7820 0.7820 0.7820
593.060709 0.7820 0.7820 0.7840 0.7840 0.7840
599.369877 0.7860 0.7860 0.7860 0.7880 0.7880
605.679046 0.7880 0.7880 0.7880 0.7880 0.7880
611.988215 0.7900 0.7900 0.7900 0.7900 0.7920
618.297383 0.7920 0.7920 0.7920 0.7920 0.7940
624.606552 0.7940 0.7960 0.7960 0.7960 0.7980
630.915720 0.7980 0.7980 0.7980 0.7980 0.7980
637.224889 0.8000 0.8000 0.8020 0.8040 0.8040
643.534057 0.8060 0.8060 0.8060 0.8040 0.8040
649.843226 0.8060 0.8060 0.8060 0.8060 0.8060
656.152395 0.8060 0.8060 0.8060 0.8060 0.8060
662.461563 0.8060 0.8060 0.8060 0.8060 0.8080
668.770732 0.8080 0.8080 0.8100 0.8100 0.8120
675.079900 0.8120 0.8120 0.8140 0.8140 0.8140
681.389069 0.8140 0.8140 0.8140 0.8140 0.8140
687.698238 0.8140 0.8140 0.8140 0.8160 0.8160
694.007406 0.8160 0.8180 0.8200 0.8200 0.8200
700.316575 0.8240 0.8240 0.8200 0.8200 0.8200
706.625743 0.8200 0.8200 0.8240 0.8200 0.8200
712.934912 0.8200 0.8200 0.8200 0.8200 0.8200
719.244080 0.8200 0.8200 0.8200 0.8200 0.8200
725.553249 0.8200 0.8200 0.8200 0.8200 0.8220
731.862418 0.8220 0.8220 0.8220 0.8220 0.8220
738.171586 0.8200 0.8200 0.8200 0.8180 0.8160
744.480755 0.8160 0.8140 0.8120 0.8100 0.8100
750.789923 0.8080 0.8080 0.8080 0.8080 0.8080
757.099092 0.8080 0.8080 0.8080 0.8080 0.8100
763.408261 0.8100 0.8100 0.8100 0.8120 0.8120
769.717429 0.8120 0.8140 0.8140 0.8160 0.8160
776.026598 0.8160 0.8180 0.8200 0.8200 0.8200
782.335766 0.8200 0.8220 0.8240 0.8240 0.8260
788.644935 0.8280 0.8280 0.8280 0.8280 0.8280
794.954103 0.8280 0.8280 0.8280 0.8280 0.8280
801.263272 0.8260 0.8260 0.8280 0.8280 0.8280
807.572441 0.8280 0.8280 0.8280 0.8280 0.8260
813.881609 0.8260 0.8260 0.8240 0.8240 0.8220
820.190778 0.8220 0.8200 0.8160 0.8160 0.8140
826.499946 0.8120 0.8080 0.8080 0.8060 0.8040
832.809115 0.8000 0.7960 0.7940 0.7900 0.7880
839.118284 0.7880 0.7860 0.7860 0.7820 0.7780
845.427452 0.7760 0.7720 0.7720 0.7700 0.7680
851.736621 0.7660 0.7660 0.7640 0.7600 0.7560
858.045789 0.7540 0.7540 0.7520 0.7500 0.7480
864.354958 0.7440 0.7400 0.7380 0.7360 0.7340
870.664126 0.7300 0.7280 0.7260 0.7240 0.7240
876.973295 0.7220 0.7220 0.7220 0.7220 0.7200
883.282464 0.7180 0.7180 0.7160 0.7120 0.7060
889.591632 0.7060 0.7040 0.7040 0.7020 0.7020
895.900801 0.7020 0.7020 0.7040 0.7040 0.7060
902.209969 0.7060 0.7060 0.7080 0.7100 0.7120
908.519138 0.7180 0.7180 0.7200 0.7240 0.7260
914.828307 0.7280 0.7300 0.7300 0.7300 0.7320
921.137475 0.7340 0.7360 0.7380 0.7380 0.7380
927.446644 0.7380 0.7380 0.7380 0.7380 0.7360
933.755812 0.7320 0.7240 0.7200 0.7180 0.7080
940.064981 0.7040 0.6960 0.6900 0.6701 0.6571
946.374149 0.6429 0.6130 0.6030 0.5870 0.5670
952.683318 0.5271 0.4841 0.4521 0.4162 0.3941
958.992487 0.3500 0.3340 0.3250 0.3230 0.3230
965.301655 0.3230 0.3230 0.3230 0.3230 0.3170
971.610824 0.2909 0.2491 0.3560 0.3560 0.3191
977.919992 0.2891 0.2810 0.2770 0.2750 0.2770
984.229161 0.2950 0.3170 0.3310 0.3540 0.3720
990.538330 0.3920 0.4099 0.4220 0.4379 0.4579
996.847498 0.4800 0.4980 0.5010 0.5030 0.5030
1003.156667 0.4980 0.4820 0.4561 0.4520 0.4421
1009.465835 0.4220 0.4140 0.4120 0.4100 0.4120
1015.775004 0.4180 0.4200 0.4180 0.4120 0.4040
1022.084172 0.4040 0.4120 0.4180 0.3900 0.3481
1028.393341 0.3340 0.3270 0.3270 0.3250 0.3250
1034.702510 0.3230 0.3190 0.3170 0.3030 0.2950
1041.011678 0.2850 0.2611 0.2192 0.1991 0.1622
1047.320847 0.1540 0.1480 0.1420 0.1400 0.1360
1053.630015 0.1300 0.1280 0.1240 0.1200 0.1180
1059.939184 0.1140 0.1000 0.0880 0.0840 0.0840
1066.248353 0.0860 0.0860 0.0920 0.1020 0.1119
1072.557521 0.1360 0.1561 0.1990 0.2150 0.2250
1078.866690 0.2370 0.2510 0.2689 0.2750 0.2830
1085.175858 0.2970 0.3090 0.3170 0.3340 0.3460
1091.485027 0.3580 0.3660 0.3819 0.3979 0.4139
1097.794195 0.4260 0.4420 0.4520 0.4660 0.4820
1104.103364 0.5089 0.5309 0.5390 0.5430 0.5549
1110.412533 0.5690 0.5770 0.5850 0.5970 0.6110
1116.721701 0.6150 0.6329 0.6469 0.6570 0.6699
1123.030870 0.6780 0.6880 0.6940 0.7000 0.7040
1129.340038 0.7160 0.7180 0.7200 0.7240 0.7280
1135.649207 0.7320 0.7340 0.7340 0.7340 0.7360
1141.958376 0.7360 0.7400 0.7440 0.7480 0.7480
1148.267544 0.7480 0.7480 0.7480 0.7500 0.7500
1154.576713 0.7520 0.7540 0.7540 0.7540 0.7540
1160.885881 0.7580 0.7600 0.7600 0.7620 0.7620
1167.195050 0.7600 0.7560 0.7540 0.7540 0.7540
1173.504218 0.7520 0.7500 0.7480 0.7440 0.7400
1179.813387 0.7380 0.7360 0.7340 0.7300 0.7280
1186.122556 0.7220 0.7180 0.7180 0.7100 0.7040
1192.431724 0.6920 0.6840 0.6701 0.6630 0.6531
1198.740893 0.6530 0.6430 0.6350 0.6110 0.6030
1205.050061 0.5950 0.5830 0.5810 0.5710 0.5690
1211.359230 0.5670 0.5570 0.5550 0.5470 0.5450
1217.668399 0.5430 0.5350 0.5330 0.5310 0.5310
1223.977567 0.5310 0.5310 0.5330 0.5350 0.5430
1230.286736 0.5550 0.5550 0.5670 0.5690 0.5730
1236.595904 0.5810 0.5830 0.5850 0.5950 0.6110
1242.905073 0.6130 0.6230 0.6310 0.6430 0.6530
1249.214241 0.6570 0.6700 0.6840 0.6860 0.6860
1255.523410 0.6880 0.6940 0.7000 0.7020 0.7020
1261.832579 0.7040 0.7040 0.7040 0.7040 0.7040
1268.141747 0.7040 0.7040 0.7000 0.7000 0.6980
1274.450916 0.6980 0.6960 0.6960 0.6960 0.6960
1280.760084 0.6940 0.6920 0.6920 0.6900 0.6900
1287.069253 0.6900 0.6880 0.6880 0.6880 0.6880
1293.378422 0.6880 0.6880 0.6880 0.6880 0.6880
1299.687590 0.6880 0.6880 0.6900 0.6900 0.6920
1305.996759 0.6920 0.6940 0.6940 0.6940 0.6940
1312.305927 0.6920 0.6920 0.6880 0.6880 0.6880
1318.615096 0.6880 0.6840 0.6840 0.6840 0.6800
1324.924264 0.6780 0.6760 0.6740 0.6740 0.6720
1331.233433 0.6680 0.6650 0.6630 0.6570 0.6550
1337.542602 0.6550 0.6550 0.6530 0.6530 0.6530
1343.851770 0.6510 0.6510 0.6470 0.6430 0.6410
1350.160939 0.6390 0.6370 0.6370 0.6290 0.6250
1356.470107 0.6230 0.6170 0.6130 0.6090 0.6090
1362.779276 0.5990 0.5970 0.5950 0.5950 0.5870
1369.088445 0.5850 0.5810 0.5750 0.5690 0.5590
1375.397613 0.5450 0.5350 0.5290 0.5150 0.5030
1381.706782 0.4800 0.4740 0.4700 0.4700 0.4640
1388.015950 0.4620 0.4600 0.4600 0.4620 0.4620
1394.325119 0.4660 0.4720 0.4760 0.4820 0.4840
1400.634287 0.4780 0.4760 0.4780 0.4800 0.4840
1406.943456 0.5030 0.5250 0.5310 0.5569 0.5849
1413.252625 0.6050 0.6191 0.6630 0.6880 0.6940
1419.561793 0.7000 0.7060 0.7100 0.7140 0.7160
1425.870962 0.7160 0.7160 0.7160 0.7160 0.7120
1432.180130 0.7100 0.7060 0.7020 0.7000 0.6940
1438.489299 0.6900 0.6880 0.6740 0.6650 0.6390
1444.798468 0.6270 0.6230 0.6170 0.6130 0.6130
1451.107636 0.6050 0.5890 0.5830 0.5790 0.5710
1457.416805 0.5710 0.5730 0.5730 0.5650 0.5590
1463.725973 0.5430 0.5370 0.5370 0.5410 0.5430
1470.035142 0.5570 0.5670 0.5670 0.5391 0.5251
1476.344310 0.5251 0.5530 0.5690 0.5730 0.5830
1482.653479 0.6090 0.6150 0.6230 0.6369 0.6450
1488.962648 0.6530 0.6550 0.6650 0.6740 0.6880
1495.271816 0.6940 0.7020 0.7140 0.7180 0.7220
1501.580985 0.7320 0.7420 0.7620 0.7740 0.7780
1507.890153 0.7800 0.7860 0.7920 0.8099 0.8239
1514.199322 0.8260 0.8260 0.8280 0.8320 0.8370
1520.508491 0.8430 0.8430 0.8430 0.8470 0.8490
1526.817659 0.8510 0.8550 0.8590 0.8630 0.8630
1533.126828 0.8630 0.8650 0.8650 0.8650 0.8650
1539.435996 0.8650 0.8630 0.8630 0.8650 0.8670
1545.745165 0.8690 0.8710 0.8730 0.8750 0.8750
1552.054333 0.8750 0.8750 0.8690 0.8670 0.8670
1558.363502 0.8670 0.8670 0.8690 0.8730 0.8770
1564.672671 0.8790 0.8790 0.8770 0.8770 0.8770
1570.981839 0.8770 0.8770 0.8770 0.8770 0.8790
1577.291008 0.8790 0.8790 0.8830 0.8830 0.8830
1583.600176 0.8850 0.8870 0.8870 0.8870 0.8870
1589.909345 0.8870 0.8870 0.8870 0.8870 0.8870
1596.218514 0.8870 0.8870 0.8870 0.8850 0.8850
1602.527682 0.8870 0.8870 0.8870 0.8870 0.8870
1608.836851 0.8890 0.8910 0.8890 0.8890 0.8910
1615.146019 0.8910 0.8910 0.8930 0.8950 0.8950
1621.455188 0.8930 0.8930 0.8950 0.8950 0.8930
1627.764356 0.8910 0.8910 0.8890 0.8850 0.8830
1634.073525 0.8810 0.8810 0.8830 0.8830 0.8850
1640.382694 0.8850 0.8850 0.8850 0.8830 0.8810
1646.691862 0.8810 0.8790 0.8790 0.8770 0.8750
1653.001031 0.8710 0.8750 0.8830 0.8830 0.8830
1659.310199 0.8830 0.8830 0.8830 0.8830 0.8790
1665.619368 0.8790 0.8790 0.8790 0.8790 0.8790
1671.928537 0.8770 0.8770 0.8770 0.8770 0.8770
1678.237705 0.8770 0.8750 0.8750 0.8750 0.8770
1684.546874 0.8790 0.8790 0.8790 0.8790 0.8770
1690.856042 0.8750 0.8750 0.8730 0.8730 0.8710
1697.165211 0.8670 0.8670 0.8710 0.8770 0.8790
1703.474379 0.8790 0.8810 0.8810 0.8830 0.8830
1709.783548 0.8830 0.8850 0.8810 0.8810 0.8810
1716.092717 0.8830 0.8830 0.8850 0.8850 0.8870
1722.401885 0.8870 0.8870 0.8850 0.8850 0.8850
1728.711054 0.8850 0.8790 0.8790 0.8830 0.8830
1735.020222 0.8850 0.8850 0.8850 0.8850 0.8850
1741.329391 0.8870 0.8870 0.8870 0.8870 0.8870
1747.638560 0.8890 0.8870 0.8890 0.8890 0.8890
1753.947728 0.8910 0.8930 0.8930 0.8930 0.8930
1760.256897 0.8950 0.8950 0.8950 0.8950 0.8930
1766.566065 0.8930 0.8910 0.8910 0.8910 0.8930
1772.875234 0.8950 0.8970 0.8990 0.8990 0.8990
1779.184402 0.8970 0.8970 0.8970 0.8990 0.8990
1785.493571 0.8970 0.8950 0.8950 0.8950 0.8970
1791.802740 0.8990 0.8990 0.8990 0.8990 0.9010
1798.111908 0.9010 0.9010 0.9010 0.9010 0.9010
1804.421077 0.8990 0.8990 0.8990 0.9010 0.9050
1810.730245 0.9050 0.9050 0.9010 0.9010 0.9010
1817.039414 0.9010 0.8990 0.8970 0.8970 0.8990
1823.348583 0.8990 0.8990 0.8990 0.8990 0.9010
1829.657751 0.8990 0.9010 0.9010 0.9010 0.9010
1835.966920 0.8990 0.8970 0.8970 0.8950 0.8970
1842.276088 0.8990 0.9010 0.9030 0.9030 0.9050
1848.585257 0.9050 0.9010 0.9010 0.9050 0.9050
1854.894425 0.9050 0.9050 0.9010 0.9010 0.9010
1861.203594 0.9010 0.9010 0.9010 0.9010 0.9010
1867.512763 0.9010 0.9050 0.9050 0.9050 0.9050
1873.821931 0.9050 0.9050 0.9050 0.9050 0.9050
1880.131100 0.9050 0.9050 0.9050 0.9050 0.9050
1886.440268 0.9050 0.9050 0.9050 0.9050 0.9050
1892.749437 0.9050 0.9050 0.9030 0.9030 0.9030
1899.058606 0.9010 0.9010 0.9010 0.9010 0.8990
1905.367774 0.8990 0.8990 0.8990 0.8970 0.8950
1911.676943 0.8930 0.8930 0.8930 0.8930 0.8930
1917.986111 0.8930 0.8930 0.8930 0.8930 0.8930
1924.295280 0.8930 0.8930 0.8930 0.8930 0.8930
1930.604448 0.8930 0.8910 0.8910 0.8910 0.8930
1936.913617 0.8910 0.8910 0.8890 0.8890 0.8910
1943.222786 0.8910 0.8910 0.8930 0.8930 0.8930
1949.531954 0.8970 0.8990 0.9010 0.9010 0.9030
1955.841123 0.9050 0.9050 0.9030 0.9030 0.9050
1962.150291 0.9050 0.9050 0.9050 0.9050 0.9050
1968.459460 0.9050 0.9050 0.9050 0.9070 0.9070
1974.768628 0.9070 0.9070 0.9050 0.9070 0.9070
1981.077797 0.9070 0.9090 0.9090 0.9090 0.9090
1987.386966 0.9090 0.9090 0.9090 0.9090 0.9070
1993.696134 0.9070 0.9070 0.9050 0.9050 0.9030
2000.005303 0.9030 0.9030 0.9030 0.9030 0.9030
2006.314471 0.9030 0.9030 0.9041 0.9050 0.9050
2012.623640 0.9050 0.9050 0.9050 0.9050 0.9050
2018.932809 0.9050 0.9049 0.9039 0.9030 0.9030
2025.241977 0.9030 0.9030 0.9030 0.9030 0.9030
2031.551146 0.9030 0.9028 0.9018 0.9010 0.9010
2037.860314 0.9010 0.9010 0.9008 0.8997 0.8990
2044.169483 0.8990 0.8987 0.8977 0.8970 0.8970
2050.478651 0.8970 0.8970 0.8970 0.8970 0.8970
2056.787820 0.8970 0.8970 0.8970 0.8970 0.8970
2063.096989 0.8970 0.8970 0.8970 0.8970 0.8970
2069.406157 0.8970 0.8974 0.8984 0.8995 0.9005
2075.715326 0.9010 0.9010 0.9015 0.9025 0.9035
2082.024494 0.9045 0.9050 0.9050 0.9055 0.9065
2088.333663 0.9070 0.9070 0.9076 0.9086 0.9096
2094.642832 0.9106 0.9110 0.9110 0.9116 0.9126
2100.952000 0.9130 0.9130 0.9130 0.9130 0.9137
2107.261169 0.9147 0.9150 0.9150 0.9150 0.9150
2113.570337 0.9150 0.9150 0.9150 0.9150 0.9150
2119.879506 0.9150 0.9150 0.9150 0.9158 0.9168
2126.188674 0.9170 0.9170 0.9170 0.9170 0.9178
2132.497843 0.9188 0.9190 0.9190 0.9190 0.9190
2138.807012 0.9190 0.9190 0.9190 0.9190 0.9190
2145.116180 0.9190 0.9190 0.9190 0.9190 0.9190
2151.425349 0.9190 0.9190 0.9190 0.9190 0.9190
2157.734517 0.9190 0.9190 0.9190 0.9190 0.9190
2164.043686 0.9190 0.9190 0.9190 0.9190 0.9190
2170.352855 0.9190 0.9190 0.9190 0.9190 0.9190
2176.662023 0.9190 0.9190 0.9190 0.9190 0.9190
2182.971192 0.9190 0.9190 0.9190 0.9190 0.9190
2189.280360 0.9190 0.9190 0.9190 0.9190 0.9190
2195.589529 0.9190 0.9190 0.9190 0.9190 0.9190
2201.898697 0.9190 0.9190 0.9190 0.9190 0.9190
2208.207866 0.9190 0.9190 0.9190 0.9190 0.9190
2214.517035 0.9190 0.9194 0.9204 0.9210 0.9210
2220.826203 0.9214 0.9224 0.9230 0.9230 0.9234
2227.135372 0.9245 0.9250 0.9250 0.9250 0.9250
2233.444540 0.9250 0.9250 0.9250 0.9250 0.9250
2239.753709 0.9250 0.9245 0.9235 0.9230 0.9230
2246.062878 0.9236 0.9246 0.9250 0.9250 0.9250
2252.372046 0.9250 0.9250 0.9250 0.9250 0.9250
2258.681215 0.9250 0.9250 0.9250 0.9250 0.9257
2264.990383 0.9267 0.9270 0.9270 0.9270 0.9270
2271.299552 0.9277 0.9287 0.9290 0.9290 0.9290
2277.608720 0.9290 0.9290 0.9290 0.9298 0.9308
2283.917889 0.9302 0.9292 0.9298 0.9308 0.9310
2290.227058 0.9310 0.9310 0.9310 0.9310 0.9310
2296.536226 0.9310 0.9310 0.9310 0.9310 0.9310
2302.845395 0.9310 0.9310 0.9310 0.9320 0.9330
2309.154563 0.9330 0.9330 0.9360 0.9390 0.9390
2315.463732 0.9390 0.9400 0.9410 0.9410 0.9410
2321.772901 0.9410 0.9410 0.9410 0.9410 0.9410
2328.082069 0.9410 0.9410 0.9410 0.9410 0.9410
2334.391238 0.9410 0.9410 0.9410 0.9410 0.9410
2340.700406 0.9408 0.9398 0.9390 0.9390 0.9390
2347.009575 0.9390 0.9390 0.9390 0.9390 0.9390
2353.318743 0.9390 0.9390 0.9390 0.9390 0.9387
2359.627912 0.9377 0.9370 0.9370 0.9370 0.9370
2365.937081 0.9370 0.9370 0.9370 0.9370 0.9370
2372.246249 0.9370 0.9370 0.9370 0.9366 0.9356
2378.555418 0.9350 0.9350 0.9350 0.9350 0.9350
2384.864586 0.9350 0.9345 0.9335 0.9330 0.9330
2391.173755 0.9330 0.9330 0.9325 0.9315 0.9310
2397.482924 0.9310 0.9305 0.9294 0.9290 0.9290
2403.792092 0.9284 0.9274 0.9270 0.9270 0.9270
2410.101261 0.9270 0.9270 0.9270 0.9276 0.9286
2416.410429 0.9290 0.9290 0.9290 0.9290 0.9290
2422.719598 0.9290 0.9290 0.9290 0.9290 0.9290
2429.028766 0.9290 0.9290 0.9290 0.9290 0.9298
2435.337935 0.9308 0.9318 0.9328 0.9330 0.9330
2441.647104 0.9338 0.9348 0.9350 0.9350 0.9358
2447.956272 0.9368 0.9370 0.9370 0.9370 0.9370
2454.265441 0.9370 0.9370 0.9379 0.9389 0.9399
2460.574609 0.9409 0.9419 0.9430 0.9430 0.9430
2466.883778 0.9440 0.9450 0.9450 0.9450 0.9450
2473.192947 0.9450 0.9450 0.9450 0.9450 0.9450
2479.502115 0.9450 0.9450 0.9450 0.9450 0.9450
2485.811284 0.9450 0.9450 0.9451 0.9461 0.9470
2492.120452 0.9470 0.9470 0.9470 0.9470 0.9470
2498.429621 0.9472 0.9482 0.9490 0.9490 0.9488
2504.738789 0.9478 0.9470 0.9470 0.9470 0.9470
2511.047958 0.9473 0.9483 0.9490 0.9490 0.9490
2517.357127 0.9490 0.9490 0.9490 0.9490 0.9490
2523.666295 0.9490 0.9490 0.9490 0.9490 0.9490
2529.975464 0.9490 0.9494 0.9504 0.9510 0.9510
2536.284632 0.9510 0.9510 0.9506 0.9496 0.9490
2542.593801 0.9490 0.9490 0.9490 0.9490 0.9490
2548.902970 0.9485 0.9475 0.9470 0.9470 0.9470
2555.212138 0.9470 0.9470 0.9470 0.9464 0.9454
2561.521307 0.9450 0.9450 0.9450 0.9450 0.9450
2567.830475 0.9450 0.9456 0.9466 0.9470 0.9470
2574.139644 0.9470 0.9470 0.9470 0.9470 0.9470
2580.448812 0.9470 0.9470 0.9470 0.9470 0.9470
2586.757981 0.9463 0.9453 0.9450 0.9450 0.9450
2593.067150 0.9450 0.9450 0.9450 0.9442 0.9432
2599.376318 0.9430 0.9430 0.9430 0.9430 0.9430
2605.685487 0.9430 0.9430 0.9430 0.9430 0.9430
2611.994655 0.9421 0.9411 0.9410 0.9410 0.9410
2618.303824 0.9410 0.9410 0.9410 0.9410 0.9410
2624.612993 0.9400 0.9390 0.9390 0.9390 0.9390
2630.922161 0.9390 0.9380 0.9370 0.9370 0.9370
2637.231330 0.9370 0.9370 0.9370 0.9370 0.9370
2643.540498 0.9370 0.9370 0.9368 0.9348 0.9329
2649.849667 0.9319 0.9310 0.9310 0.9308 0.9298
2656.158835 0.9288 0.9278 0.9268 0.9258 0.9250
2662.468004 0.9250 0.9248 0.9238 0.9228 0.9217
2668.777173 0.9207 0.9197 0.9187 0.9177 0.9167
2675.086341 0.9157 0.9150 0.9150 0.9150 0.9150
2681.395510 0.9146 0.9136 0.9130 0.9130 0.9130
2687.704678 0.9130 0.9126 0.9116 0.9110 0.9110
2694.013847 0.9106 0.9096 0.9090 0.9090 0.9090
2700.323016 0.9090 0.9085 0.9075 0.9070 0.9070
2706.632184 0.9060 0.9040 0.9030 0.9030 0.9019
2712.941353 0.8999 0.8984 0.8974 0.8947 0.8907
2719.250521 0.8873 0.8842 0.8824 0.8814 0.8798
2725.559690 0.8777 0.8744 0.8704 0.8677 0.8657
2731.868858 0.8636 0.8616 0.8596 0.8576 0.8549
2738.178027 0.8519 0.8496 0.8476 0.8470 0.8470
2744.487196 0.8463 0.8453 0.8435 0.8415 0.8402
2750.796364 0.8392 0.8374 0.8354 0.8338 0.8323
2757.105533 0.8312 0.8302 0.8283 0.8263 0.8251
2763.414701 0.8241 0.8240 0.8240 0.8240 0.8240
2769.723870 0.8213 0.8183 0.8171 0.8161 0.8141
2776.033039 0.8121 0.8110 0.8100 0.8100 0.8100
2782.342207 0.8080 0.8060 0.8060 0.8060 0.8050
2788.651376 0.8040 0.8040 0.8040 0.8029 0.8019
2794.960544 0.8009 0.7998 0.7968 0.7939 0.7929
2801.269713 0.7919 0.7909 0.7897 0.7877 0.7855
2807.578881 0.7825 0.7797 0.7777 0.7756 0.7736
2813.888050 0.7714 0.7684 0.7650 0.7599 0.7556
2820.197219 0.7535 0.7501 0.7421 0.7338 0.7246
2826.506387 0.7154 0.7064 0.6976 0.6895 0.6827
2832.815556 0.6787 0.6747 0.6707 0.6631 0.6485
2839.124724 0.6302 0.6050 0.5809 0.5588 0.5382
2845.433893 0.5200 0.5017 0.4831 0.4650 0.4476
2851.743062 0.4299 0.4118 0.3928 0.3726 0.3504
2858.052230 0.3257 0.2984 0.2682 0.2495 0.2424
2864.361399 0.2364 0.2314 0.2258 0.2198 0.2051
2870.670567 0.1830 0.1616 0.1410 0.1297 0.1256
2876.979736 0.1216 0.1175 0.1154 0.1144 0.1140
2883.288904 0.1140 0.1146 0.1157 0.1167 0.1177
2889.598073 0.1187 0.1197 0.1214 0.1234 0.1247
2895.907242 0.1257 0.1260 0.1260 0.1260 0.1260
2902.216410 0.1260 0.1260 0.1252 0.1242 0.1240
2908.525579 0.1240 0.1232 0.1222 0.1204 0.1183
2914.834747 0.1163 0.1143 0.1132 0.1121 0.1085
2921.143916 0.1045 0.1014 0.0984 0.0962 0.0942
2927.453085 0.0875 0.0804 0.0781 0.0761 0.0722
2933.762253 0.0681 0.0661 0.0640 0.0640 0.0640
2940.071422 0.0640 0.0640 0.0630 0.0620 0.0620
2946.380590 0.0620 0.0610 0.0600 0.0589 0.0578
2952.689759 0.0558 0.0538 0.0518 0.0499 0.0489
2958.998927 0.0479 0.0469 0.0459 0.0449 0.0440
2965.308096 0.0440 0.0442 0.0452 0.0465 0.0496
2971.617265 0.0532 0.0592 0.0646 0.0677 0.0707
2977.926433 0.0738 0.0763 0.0773 0.0799 0.0870
2984.235602 0.0923 0.0933 0.0997 0.1188 0.1381
2990.544770 0.1577 0.1827 0.2190 0.2433 0.2443
2996.853939 0.2653 0.3232 0.3763 0.4212 0.4641
3003.163108 0.5038 0.5480 0.5984 0.6394 0.6680
3009.472276 0.6947 0.7189 0.7384 0.7525 0.7704
3015.781445 0.7926 0.8103 0.8234 0.8428 0.8684
3022.090613 0.8820 0.8840 0.8903 0.9006 0.9107
3028.399782 0.9207 0.9279 0.9329 0.9356 0.9366
3034.708950 0.9394 0.9435 0.9450 0.9450 0.9463
3041.018119 0.9483 0.9496 0.9507 0.9510 0.9510
3047.327288 0.9510 0.9510 0.9510 0.9510 0.9517
3053.636456 0.9527 0.9530 0.9530 0.9538 0.9548
3059.945625 0.9558 0.9568 0.9570 0.9570 0.9570
3066.254793 0.9570 0.9570 0.9570 0.9570 0.9570
3072.563962 0.9578 0.9588 0.9590 0.9590 0.9590
3078.873131 0.9590 0.9590 0.9590 0.9590 0.9590
3085.182299 0.9581 0.9571 0.9570 0.9570 0.9570
3091.491468 0.9570 0.9570 0.9570 0.9560 0.9550
3097.800636 0.9550 0.9550 0.9550 0.9550 0.9550
3104.109805 0.9550 0.9550 0.9550 0.9550 0.9551
3110.418973 0.9561 0.9570 0.9570 0.9570 0.9570
3116.728142 0.9571 0.9581 0.9591 0.9601 0.9610
3123.037311 0.9610 0.9613 0.9634 0.9652 0.9662
3129.346479 0.9670 0.9670 0.9672 0.9682 0.9690
3135.655648 0.9690 0.9690 0.9690 0.9690 0.9690
3141.964816 0.9693 0.9703 0.9707 0.9697 0.9690
3148.273985 0.9690 0.9690 0.9690 0.9690 0.9690
3154.583154 0.9690 0.9690 0.9690 0.9690 0.9690
3160.892322 0.9690 0.9690 0.9690 0.9690 0.9690
3167.201491 0.9690 0.9690 0.9685 0.9675 0.9670
3173.510659 0.9670 0.9670 0.9670 0.9670 0.9670
3179.819828 0.9670 0.9670 0.9670 0.9670 0.9670
3186.128996 0.9670 0.9670 0.9670 0.9676 0.9686
3192.438165 0.9696 0.9706 0.9710 0.9710 0.9710
3198.747334 0.9710 0.9717 0.9727 0.9737 0.9747
3205.056502 0.9750 0.9750 0.9750 0.9750 0.9765
3211.365671 0.9785 0.9805 0.9825 0.9830 0.9830
3217.674839 0.9830 0.9830 0.9830 0.9830 0.9830
3223.984008 0.9830 0.9830 0.9830 0.9830 0.9830
3230.293177 0.9839 0.9849 0.9850 0.9850 0.9859
3236.602345 0.9869 0.9870 0.9870 0.9870 0.9870
3242.911514 0.9870 0.9870 0.9870 0.9870 0.9870
3249.220682 0.9870 0.9870 0.9870 0.9880 0.9890
3255.529851 0.9890 0.9890 0.9890 0.9890 0.9901
3261.839019 0.9910 0.9910 0.9910 0.9910 0.9910
3268.148188 0.9910 0.9910 0.9910 0.9910 0.9910
3274.457357 0.9911 0.9921 0.9930 0.9930 0.9930
3280.766525 0.9930 0.9930 0.9930 0.9930 0.9930
3287.075694 0.9930 0.9930 0.9930 0.9930 0.9930
3293.384862 0.9930 0.9933 0.9943 0.9950 0.9950
3299.694031 0.9950 0.9950 0.9953 0.9963 0.9970
3306.003200 0.9970 0.9970 0.9970 0.9975 0.9991
3312.312368 1.0000 1.0000 1.0000 1.0000 1.0000
3318.621537 1.0000 1.0000 1.0000 1.0000 1.0000
3324.930705 1.0000 1.0000 1.0000 1.0000 1.0000
3331.239874 1.0000 1.0000 1.0000 1.0000 1.0000
3337.549042 1.0000 1.0000 1.0000 1.0000 1.0000
3343.858211 1.0000 1.0000 1.0000 1.0006 1.0016
3350.167380 1.0020 1.0020 1.0020 1.0020 1.0020
3356.476548 1.0020 1.0020 1.0020 1.0027 1.0037
3362.785717 1.0040 1.0040 1.0040 1.0040 1.0040
3369.094885 1.0040 1.0040 1.0040 1.0040 1.0040
3375.404054 1.0040 1.0040 1.0040 1.0040 1.0040
3381.713223 1.0040 1.0032 1.0022 1.0020 1.0020
3388.022391 1.0020 1.0020 1.0020 1.0020 1.0011
3394.331560 1.0001 1.0000 1.0000 0.9986 0.9971
3400.640728 0.9970 0.9970 0.9970 0.9970 0.9970
3406.949897 0.9970 0.9970 0.9970 0.9960 0.9950
3413.259065 0.9950 0.9950 0.9950 0.9950 0.9950
3419.568234 0.9950 0.9950 0.9950 0.9950 0.9950
3425.877403 0.9950 0.9950 0.9950 0.9950 0.9950
3432.186571 0.9952 0.9962 0.9970 0.9970 0.9970
3438.495740 0.9970 0.9970 0.9970 0.9970 0.9970
3444.804908 0.9970 0.9970 0.9970 0.9970 0.9970
3451.114077 0.9970 0.9970 0.9970 0.9970 0.9970
3457.423246 0.9967 0.9957 0.9950 0.9950 0.9950
3463.732414 0.9950 0.9946 0.9936 0.9930 0.9930
3470.041583 0.9930 0.9930 0.9930 0.9930 0.9930
3476.350751 0.9930 0.9930 0.9930 0.9930 0.9930
3482.659920 0.9935 0.9945 0.9950 0.9950 0.9955
3488.969088 0.9965 0.9978 0.9993 1.0000 1.0000
3495.278257 1.0000 1.0000 1.0006 1.0016 1.0020
3501.587426 1.0020 1.0020 1.0020 1.0020 1.0020
3507.896594 1.0020 1.0020 1.0027 1.0037 1.0040
3514.205763 1.0040 1.0040 1.0040 1.0040 1.0040
3520.514931 1.0040 1.0040 1.0040 1.0040 1.0047
3526.824100 1.0058 1.0060 1.0060 1.0060 1.0060
3533.133268 1.0060 1.0060 1.0052 1.0042 1.0040
3539.442437 1.0040 1.0040 1.0040 1.0032 1.0021
3545.751606 1.0020 1.0020 1.0011 1.0001 0.9986
3552.060774 0.9971 0.9961 0.9951 0.9941 0.9930
3558.369943 0.9920 0.9910 0.9910 0.9910 0.9920
3564.679111 0.9930 0.9940 0.9950 0.9960 0.9970
3570.988280 0.9985 1.0000 1.0000 1.0000 1.0011
3577.297449 1.0020 1.0020 1.0020 1.0020 1.0020
3583.606617 1.0020 1.0020 1.0020 1.0020 1.0020
3589.915786 1.0016 0.9991 0.9968 0.9958 0.9950
3596.224954 0.9950 0.9948 0.9938 0.9928 0.9918
3602.534123 0.9898 0.9847 0.9807 0.9797 0.9785
3608.843291 0.9764 0.9739 0.9698 0.9643 0.9552
3615.152460 0.9484 0.9464 0.9443 0.9423 0.9379
3621.461629 0.9289 0.9205 0.9135 0.9079 0.9048
3627.770797 0.9001 0.8931 0.8802 0.8590 0.8420
3634.079966 0.8304 0.8200 0.8109 0.8014 0.7913
3640.389134 0.7775 0.7593 0.7349 0.7037 0.6865
3646.698303 0.6835 0.6761 0.6645 0.6499 0.6326
3653.007472 0.6199 0.6108 0.5948 0.5736 0.5626
3659.316640 0.5586 0.5594 0.5635 0.5675 0.5715
3665.625809 0.5749 0.5779 0.5796 0.5807 0.5830
3671.934977 0.5860 0.6005 0.6206 0.6413 0.6622
3678.244146 0.6738 0.6819 0.6966 0.7137 0.7369
3684.553314 0.7621 0.7765 0.7875 0.8131 0.8428
3690.862483 0.8729 0.9031 0.9244 0.9435 0.9503
3697.171652 0.9543 0.9600 0.9661 0.9713 0.9764
3703.480820 0.9815 0.9865 0.9915 0.9966 0.9970
3709.789989 0.9970 0.9993 1.0018 1.0029 1.0040
3716.099157 1.0040 1.0040 1.0040 1.0040 1.0040
3722.408326 1.0040 1.0040 1.0040 1.0040 1.0040
3728.717495 1.0051 1.0060 1.0060 1.0060 1.0060
3735.026663 1.0060 1.0060 1.0061 1.0071 1.0081
3741.335832 1.0091 1.0101 1.0111 1.0120 1.0120
3747.645000 1.0120 1.0120 1.0120 1.0120 1.0120
3753.954169 1.0120 1.0120 1.0120 1.0120 1.0120
3760.263337 1.0117 1.0108 1.0100 1.0100 1.0100
3766.572506 1.0100 1.0097 1.0087 1.0080 1.0080
3772.881675 1.0080 1.0080 1.0080 1.0080 1.0080
3779.190843 1.0080 1.0080 1.0080 1.0080 1.0080
3785.500012 1.0080 1.0080 1.0084 1.0094
##END=
