##TITLE=n-BUTYL ALCOHOL
##JCAMP-DX=4.24
##DATA TYPE=INFRARED SPECTRUM
##CLASS=COBLENTZ III
##ORIGIN=SOUTHERN RESEARCH INSTITUTE
##OWNER=COBLENTZ SOCIETY
Collection (C) 2018 copyright by the U.S. Secretary of Commerce
on behalf of the United States of America. All rights reserved.
##DATE=1965/02/22
##NAMES=1-butanol
##CAS REGISTRY NO=71-36-3
##MOLFORM=C4 H10 O
##SOURCE REFERENCE=COBLENTZ NO. 6915
##$NIST SOURCE=COBLENTZ
##$NIST IMAGE=cob6915
##SPECTROMETER/DATA SYSTEM=PERKIN-ELMER 521 (GRATING)
##INSTRUMENT PARAMETERS=FILTERS AT 3150, 2500, 2000, 1150, 700, 410 AND GRATING CHANGES: 2000, 630 CM^-^1
##STATE=LIQUID (NEAT)
##PATH LENGTH=CAPILLARY
##SAMPLING PROCEDURE=TRANSMISSION
##RESOLUTION=4
##DATA PROCESSING=DIGITIZED BY NIST FROM HARD COPY (FROM TWO SEGMENTS)
##XUNITS=1/CM
##YUNITS=TRANSMITTANCE
##XFACTOR=1.000000
##YFACTOR=1
##DELTAX=1.205788
##FIRSTX=250
##LASTX=3817.93
##FIRSTY=0.663
##MAXX=3817.93
##MINX=250
##MAXY=0.894
##MINY=0.155
##NPOINTS=2960
##XYDATA=(X++(Y..Y))
250.000000 0.6630 0.6670 0.6680 0.6729 0.6769
256.028940 0.6828 0.6869 0.6899 0.6929 0.6939
262.057880 0.6987 0.6999 0.7009 0.7038 0.7077
268.086820 0.7126 0.7167 0.7197 0.7236 0.7267
274.115760 0.7306 0.7328 0.7357 0.7386 0.7425
280.144700 0.7508 0.7546 0.7567 0.7613 0.7662
286.173640 0.7687 0.7698 0.7717 0.7745 0.7758
292.202580 0.7801 0.7818 0.7836 0.7848 0.7858
298.231520 0.7860 0.7860 0.7868 0.7878 0.7888
304.260460 0.7890 0.7890 0.7905 0.7910 0.7910
310.289400 0.7917 0.7920 0.7913 0.7895 0.7890
316.318340 0.7890 0.7890 0.7890 0.7883 0.7880
322.347280 0.7873 0.7870 0.7863 0.7860 0.7853
328.376220 0.7790 0.7747 0.7727 0.7694 0.7654
334.405160 0.7627 0.7614 0.7610 0.7610 0.7604
340.434100 0.7600 0.7606 0.7610 0.7616 0.7626
346.463040 0.7630 0.7636 0.7652 0.7660 0.7671
352.491980 0.7720 0.7767 0.7797 0.7832 0.7850
358.520920 0.7855 0.7860 0.7860 0.7865 0.7870
364.549860 0.7875 0.7880 0.7875 0.7870 0.7865
370.578800 0.7860 0.7855 0.7850 0.7845 0.7812
376.607740 0.7766 0.7741 0.7712 0.7677 0.7625
382.636680 0.7567 0.7546 0.7531 0.7516 0.7506
388.665620 0.7500 0.7500 0.7504 0.7522 0.7548
394.694560 0.7568 0.7592 0.7614 0.7620 0.7620
400.723500 0.7620 0.7620 0.7620 0.7617 0.7610
406.752440 0.7610 0.7607 0.7593 0.7580 0.7577
412.781380 0.7561 0.7534 0.7517 0.7504 0.7487
418.810320 0.7477 0.7464 0.7444 0.7413 0.7359
424.839260 0.7322 0.7290 0.7247 0.7200 0.7163
430.868200 0.7126 0.7066 0.7015 0.6971 0.6857
436.897140 0.6795 0.6728 0.6672 0.6640 0.6642
442.926080 0.6650 0.6656 0.6691 0.6752 0.6813
448.955020 0.6832 0.6843 0.6863 0.6881 0.6894
454.983960 0.6920 0.6920 0.6920 0.6920 0.6918
461.012900 0.6899 0.6889 0.6878 0.6856 0.6816
467.041840 0.6778 0.6758 0.6736 0.6689 0.6668
473.070780 0.6638 0.6608 0.6567 0.6520 0.6510
479.099720 0.6510 0.6510 0.6510 0.6510 0.6510
485.128660 0.6510 0.6500 0.6500 0.6490 0.6450
491.157600 0.6440 0.6430 0.6391 0.6341 0.6263
497.186540 0.6202 0.6162 0.6103 0.6053 0.5956
503.215480 0.5941 0.5940 0.5949 0.5968 0.6043
509.244420 0.6059 0.6087 0.6099 0.6127 0.6192
515.273360 0.6209 0.6210 0.6219 0.6220 0.6211
521.302300 0.6201 0.6200 0.6192 0.6190 0.6182
527.331240 0.6163 0.6152 0.6133 0.6105 0.6092
533.360180 0.6082 0.6072 0.6062 0.6036 0.6014
539.389120 0.5979 0.5954 0.5950 0.5942 0.5894
545.418060 0.5850 0.5825 0.5813 0.5795 0.5783
551.447000 0.5765 0.5753 0.5735 0.5716 0.5703
557.475940 0.5686 0.5659 0.5615 0.5586 0.5573
563.504880 0.5570 0.5550 0.5540 0.5513 0.5467
569.533820 0.5430 0.5413 0.5404 0.5394 0.5371
575.562760 0.5354 0.5337 0.5324 0.5320 0.5320
581.591700 0.5302 0.5278 0.5246 0.5224 0.5208
587.620640 0.5183 0.5170 0.5164 0.5154 0.5139
593.649580 0.5119 0.5099 0.5085 0.5080 0.5075
599.678520 0.5059 0.5039 0.5020 0.5005 0.5000
605.707460 0.4990 0.4975 0.4965 0.4960 0.4960
611.736400 0.4955 0.4950 0.4955 0.4969 0.4980
617.765340 0.4980 0.4975 0.4970 0.4961 0.4950
623.794280 0.4950 0.4950 0.4950 0.4946 0.4932
629.823220 0.4920 0.4916 0.4910 0.4906 0.4900
635.852160 0.4900 0.4900 0.4900 0.4900 0.4896
641.881100 0.4890 0.4890 0.4890 0.4890 0.4893
647.910040 0.4900 0.4906 0.4920 0.4920 0.4917
653.938980 0.4910 0.4907 0.4897 0.4887 0.4880
659.967920 0.4880 0.4880 0.4883 0.4893 0.4905
665.996860 0.4925 0.4942 0.4950 0.4950 0.4952
672.025800 0.4960 0.4960 0.4960 0.4962 0.4970
678.054740 0.4972 0.4986 0.5012 0.5022 0.5030
684.083680 0.5032 0.5042 0.5053 0.5072 0.5080
690.112620 0.5082 0.5090 0.5093 0.5113 0.5133
696.141560 0.5151 0.5161 0.5172 0.5191 0.5200
702.170500 0.5200 0.5201 0.5211 0.5223 0.5261
708.199440 0.5270 0.5270 0.5270 0.5270 0.5269
714.228380 0.5259 0.5249 0.5230 0.5220 0.5210
720.257320 0.5199 0.5169 0.5109 0.5068 0.4959
726.286260 0.4830 0.4720 0.4720 0.4759 0.4789
732.315200 0.4829 0.4859 0.4967 0.5047 0.5155
738.344140 0.5208 0.5276 0.5318 0.5385 0.5446
744.373080 0.5551 0.5624 0.5713 0.5802 0.5873
750.402020 0.5898 0.5936 0.5958 0.5987 0.6025
756.430960 0.6091 0.6152 0.6186 0.6207 0.6219
762.459900 0.6220 0.6237 0.6248 0.6267 0.6295
768.488840 0.6325 0.6338 0.6364 0.6378 0.6388
774.517780 0.6398 0.6416 0.6436 0.6448 0.6458
780.546720 0.6483 0.6498 0.6515 0.6528 0.6545
786.575660 0.6550 0.6550 0.6550 0.6535 0.6530
792.604600 0.6530 0.6523 0.6520 0.6513 0.6510
798.633540 0.6524 0.6592 0.6668 0.6731 0.6804
804.662480 0.6850 0.6860 0.6847 0.6827 0.6787
810.691420 0.6731 0.6691 0.6674 0.6670 0.6670
816.720360 0.6670 0.6676 0.6680 0.6674 0.6658
822.749300 0.6638 0.6618 0.6557 0.6462 0.6328
828.778240 0.6112 0.5882 0.5666 0.5464 0.5275
834.807180 0.5058 0.4717 0.4450 0.4390 0.4406
840.836120 0.4477 0.4725 0.5273 0.5783 0.6287
846.865060 0.6729 0.6850 0.6933 0.7038 0.7127
852.894000 0.7222 0.7298 0.7353 0.7394 0.7415
858.922940 0.7420 0.7424 0.7430 0.7413 0.7386
864.951880 0.7372 0.7360 0.7364 0.7374 0.7392
870.980820 0.7442 0.7498 0.7525 0.7550 0.7546
877.009760 0.7533 0.7513 0.7496 0.7469 0.7402
883.038700 0.7315 0.7199 0.7053 0.6871 0.6655
889.067640 0.6542 0.6435 0.6472 0.6735 0.6947
895.096580 0.7221 0.7416 0.7497 0.7557 0.7611
901.125520 0.7645 0.7663 0.7673 0.7680 0.7680
907.154460 0.7680 0.7678 0.7663 0.7633 0.7603
913.183400 0.7576 0.7552 0.7516 0.7494 0.7454
919.212340 0.7374 0.7291 0.7179 0.7015 0.6864
925.241280 0.6670 0.6549 0.6410 0.6191 0.5843
931.270220 0.5671 0.5536 0.5366 0.5190 0.5023
937.299160 0.4795 0.4518 0.4407 0.4271 0.3985
943.328100 0.3643 0.3380 0.3398 0.3607 0.3720
949.357040 0.4140 0.4436 0.4532 0.4572 0.4600
955.385980 0.4611 0.4633 0.4714 0.4845 0.5060
961.414920 0.5562 0.5702 0.5950 0.6090 0.6090
967.443860 0.6070 0.6001 0.5941 0.5813 0.5694
973.472800 0.5574 0.5446 0.5212 0.4981 0.4743
979.501740 0.4448 0.4318 0.4189 0.3884 0.3685
985.530680 0.3670 0.4359 0.4863 0.5136 0.5169
991.559620 0.5197 0.5200 0.4874 0.4463 0.4280
997.588560 0.4122 0.3826 0.3771 0.3506 0.3316
1003.617500 0.3290 0.3315 0.3461 0.3638 0.3817
1009.646440 0.3850 0.3842 0.3816 0.3754 0.3605
1015.675380 0.3325 0.3150 0.3011 0.2763 0.2508
1021.704320 0.2351 0.2320 0.2433 0.2470 0.2477
1027.733260 0.2480 0.2429 0.2366 0.2307 0.2276
1033.762200 0.2263 0.2253 0.2250 0.2250 0.2250
1039.791140 0.2257 0.2260 0.2267 0.2297 0.2383
1045.820080 0.2513 0.2626 0.2660 0.2602 0.2512
1051.849020 0.2403 0.2354 0.2337 0.2330 0.2330
1057.877960 0.2324 0.2284 0.2212 0.2144 0.2084
1063.906900 0.2013 0.1980 0.1968 0.1960 0.1971
1069.935840 0.1986 0.2062 0.2158 0.2245 0.2399
1075.964780 0.2555 0.2743 0.3234 0.3778 0.4207
1081.993720 0.4542 0.4746 0.4895 0.4950 0.4915
1088.022660 0.4865 0.4836 0.4801 0.4761 0.4726
1094.051600 0.4687 0.4592 0.4470 0.4384 0.4296
1100.080540 0.4174 0.4047 0.3969 0.3911 0.3829
1106.109480 0.3770 0.3794 0.3893 0.4159 0.4479
1112.138420 0.4628 0.4815 0.5045 0.5325 0.5630
1118.167360 0.5732 0.5825 0.5928 0.6034 0.6131
1124.196300 0.6210 0.6253 0.6283 0.6346 0.6396
1130.225240 0.6458 0.6559 0.6680 0.6770 0.6840
1136.254180 0.6924 0.7021 0.7066 0.7121 0.7166
1142.283120 0.7218 0.7253 0.7300 0.7337 0.7360
1148.312060 0.7362 0.7372 0.7382 0.7390 0.7394
1154.341000 0.7410 0.7410 0.7410 0.7410 0.7406
1160.369940 0.7390 0.7386 0.7368 0.7358 0.7347
1166.398880 0.7328 0.7320 0.7317 0.7300 0.7296
1172.427820 0.7267 0.7242 0.7188 0.7167 0.7132
1178.456760 0.7064 0.7009 0.6990 0.6886 0.6828
1184.485700 0.6703 0.6627 0.6587 0.6543 0.6448
1190.514640 0.6418 0.6384 0.6265 0.6155 0.6026
1196.543580 0.5929 0.5909 0.5869 0.5830 0.5810
1202.572520 0.5760 0.5720 0.5690 0.5700 0.5720
1208.601460 0.5749 0.5818 0.5849 0.5927 0.5988
1214.630400 0.6114 0.6243 0.6335 0.6443 0.6516
1220.659340 0.6557 0.6569 0.6570 0.6561 0.6533
1226.688280 0.6521 0.6475 0.6461 0.6451 0.6379
1232.717220 0.6326 0.6302 0.6283 0.6263 0.6226
1238.746160 0.6211 0.6202 0.6200 0.6200 0.6208
1244.775100 0.6235 0.6257 0.6293 0.6333 0.6372
1250.804040 0.6412 0.6452 0.6507 0.6606 0.6638
1256.832980 0.6640 0.6640 0.6640 0.6632 0.6622
1262.861920 0.6612 0.6595 0.6575 0.6563 0.6553
1268.890860 0.6521 0.6467 0.6400 0.6309 0.6259
1274.919800 0.6159 0.6071 0.5995 0.5908 0.5798
1280.948740 0.5706 0.5619 0.5583 0.5580 0.5580
1286.977680 0.5587 0.5596 0.5613 0.5620 0.5607
1293.006620 0.5594 0.5578 0.5564 0.5523 0.5482
1299.035560 0.5452 0.5440 0.5422 0.5398 0.5373
1305.064500 0.5348 0.5334 0.5319 0.5282 0.5227
1311.093440 0.5178 0.5133 0.5094 0.5027 0.4975
1317.122380 0.4965 0.4955 0.4893 0.4814 0.4780
1323.151320 0.4765 0.4760 0.4740 0.4701 0.4675
1329.180260 0.4665 0.4665 0.4675 0.4694 0.4719
1335.209200 0.4730 0.4734 0.4753 0.4770 0.4770
1341.238140 0.4766 0.4760 0.4760 0.4752 0.4736
1347.267080 0.4726 0.4716 0.4706 0.4681 0.4635
1353.296020 0.4587 0.4517 0.4449 0.4423 0.4396
1359.324960 0.4360 0.4306 0.4230 0.4193 0.4140
1365.353900 0.4054 0.3922 0.3768 0.3573 0.3432
1371.382840 0.3288 0.3251 0.3250 0.3356 0.3525
1377.411780 0.3634 0.3815 0.4016 0.4121 0.4260
1383.440720 0.4415 0.4437 0.4462 0.4468 0.4460
1389.469660 0.4460 0.4460 0.4454 0.4424 0.4398
1395.498600 0.4384 0.4354 0.4326 0.4306 0.4287
1401.527540 0.4265 0.4237 0.4212 0.4157 0.4088
1407.556480 0.4077 0.4057 0.4037 0.4015 0.3979
1413.585420 0.3969 0.3956 0.3926 0.3887 0.3859
1419.614360 0.3846 0.3807 0.3777 0.3738 0.3717
1425.643300 0.3678 0.3650 0.3652 0.3693 0.3752
1431.672240 0.3781 0.3800 0.3800 0.3790 0.3779
1437.701180 0.3739 0.3679 0.3599 0.3500 0.3480
1443.730120 0.3410 0.3341 0.3242 0.3152 0.3033
1449.759060 0.2913 0.2823 0.2810 0.2800 0.2800
1455.788000 0.2791 0.2762 0.2760 0.2723 0.2683
1461.816940 0.2717 0.2757 0.2842 0.2986 0.3333
1467.845880 0.3513 0.3610 0.3699 0.3771 0.3858
1473.874820 0.3957 0.4100 0.4387 0.4610 0.4827
1479.903760 0.4986 0.5169 0.5475 0.5662 0.5846
1485.932700 0.5987 0.6124 0.6239 0.6348 0.6418
1491.961640 0.6501 0.6646 0.6735 0.6804 0.6866
1497.990580 0.6934 0.6996 0.7010 0.7033 0.7092
1504.019520 0.7169 0.7219 0.7252 0.7282 0.7319
1510.048460 0.7359 0.7406 0.7427 0.7465 0.7501
1516.077400 0.7551 0.7604 0.7627 0.7650 0.7673
1522.106340 0.7687 0.7730 0.7757 0.7773 0.7780
1528.135280 0.7786 0.7796 0.7831 0.7856 0.7866
1534.164220 0.7876 0.7886 0.7902 0.7922 0.7936
1540.193160 0.7940 0.7963 0.7992 0.8017 0.8041
1546.222100 0.8056 0.8060 0.8060 0.8066 0.8070
1552.251040 0.8070 0.8081 0.8095 0.8105 0.8115
1558.279980 0.8120 0.8125 0.8130 0.8130 0.8140
1564.308920 0.8150 0.8155 0.8160 0.8165 0.8170
1570.337860 0.8175 0.8180 0.8185 0.8190 0.8199
1576.366800 0.8210 0.8210 0.8214 0.8220 0.8220
1582.395740 0.8220 0.8220 0.8220 0.8220 0.8220
1588.424680 0.8220 0.8220 0.8220 0.8220 0.8220
1594.453620 0.8216 0.8210 0.8210 0.8210 0.8210
1600.482560 0.8203 0.8190 0.8187 0.8180 0.8177
1606.511500 0.8170 0.8170 0.8170 0.8170 0.8167
1612.540440 0.8151 0.8124 0.8107 0.8100 0.8100
1618.569380 0.8097 0.8085 0.8070 0.8070 0.8068
1624.598320 0.8060 0.8060 0.8060 0.8060 0.8060
1630.627260 0.8060 0.8062 0.8068 0.8060 0.8060
1636.656200 0.8060 0.8060 0.8060 0.8060 0.8060
1642.685140 0.8060 0.8060 0.8062 0.8070 0.8070
1648.714080 0.8073 0.8090 0.8090 0.8090 0.8091
1654.743020 0.8101 0.8110 0.8111 0.8123 0.8151
1660.771960 0.8161 0.8171 0.8181 0.8191 0.8211
1666.800900 0.8232 0.8262 0.8291 0.8310 0.8321
1672.829840 0.8341 0.8360 0.8370 0.8380 0.8400
1678.858780 0.8420 0.8430 0.8430 0.8440 0.8440
1684.887720 0.8470 0.8480 0.8490 0.8500 0.8519
1690.916660 0.8530 0.8540 0.8550 0.8559 0.8560
1696.945600 0.8597 0.8600 0.8609 0.8610 0.8619
1702.974540 0.8620 0.8629 0.8648 0.8650 0.8659
1709.003480 0.8669 0.8679 0.8689 0.8707 0.8710
1715.032420 0.8719 0.8729 0.8739 0.8740 0.8740
1721.061360 0.8740 0.8740 0.8740 0.8748 0.8750
1727.090300 0.8750 0.8750 0.8750 0.8766 0.8770
1733.119240 0.8778 0.8788 0.8790 0.8798 0.8800
1739.148180 0.8808 0.8802 0.8807 0.8810 0.8810
1745.177120 0.8825 0.8837 0.8840 0.8840 0.8840
1751.206060 0.8840 0.8840 0.8840 0.8840 0.8847
1757.235000 0.8850 0.8850 0.8843 0.8847 0.8850
1763.263940 0.8850 0.8850 0.8850 0.8850 0.8850
1769.292880 0.8850 0.8850 0.8844 0.8840 0.8834
1775.321820 0.8830 0.8830 0.8830 0.8830 0.8830
1781.350760 0.8830 0.8830 0.8830 0.8830 0.8830
1787.379700 0.8830 0.8830 0.8830 0.8835 0.8845
1793.408640 0.8861 0.8870 0.8870 0.8880 0.8890
1799.437580 0.8890 0.8890 0.8890 0.8890 0.8895
1805.466520 0.8900 0.8900 0.8905 0.8915 0.8920
1811.495460 0.8920 0.8920 0.8920 0.8920 0.8920
1817.524400 0.8920 0.8920 0.8920 0.8920 0.8920
1823.553340 0.8920 0.8920 0.8920 0.8920 0.8920
1829.582280 0.8920 0.8920 0.8920 0.8920 0.8916
1835.611220 0.8910 0.8910 0.8910 0.8910 0.8907
1841.640160 0.8900 0.8900 0.8900 0.8900 0.8900
1847.669100 0.8900 0.8900 0.8900 0.8900 0.8903
1853.698040 0.8913 0.8920 0.8920 0.8920 0.8920
1859.726980 0.8920 0.8920 0.8922 0.8930 0.8930
1865.755920 0.8930 0.8930 0.8930 0.8930 0.8932
1871.784860 0.8940 0.8940 0.8940 0.8940 0.8940
1877.813800 0.8940 0.8940 0.8940 0.8940 0.8938
1883.842740 0.8930 0.8930 0.8930 0.8930 0.8930
1889.871680 0.8930 0.8929 0.8919 0.8909 0.8899
1895.900620 0.8890 0.8890 0.8888 0.8870 0.8870
1901.929560 0.8869 0.8860 0.8861 0.8870 0.8870
1907.958500 0.8871 0.8890 0.8890 0.8900 0.8910
1913.987440 0.8910 0.8910 0.8910 0.8920 0.8910
1920.016380 0.8910 0.8920 0.8920 0.8920 0.8910
1926.045320 0.8910 0.8900 0.8900 0.8900 0.8900
1932.074260 0.8900 0.8900 0.8891 0.8890 0.8871
1938.103200 0.8870 0.8870 0.8870 0.8870 0.8870
1944.132140 0.8888 0.8890 0.8908 0.8910 0.8910
1950.161080 0.8910 0.8910 0.8901 0.8900 0.8891
1956.190020 0.8890 0.8890 0.8890 0.8873 0.8870
1962.218960 0.8870 0.8870 0.8870 0.8870 0.8870
1968.247900 0.8870 0.8862 0.8852 0.8842 0.8840
1974.276840 0.8879 0.8898 0.8908 0.8918 0.8920
1980.305780 0.8920 0.8913 0.8903 0.8893 0.8875
1986.334720 0.8856 0.8821 0.8803 0.8807 0.8810
1992.363660 0.8824 0.8837 0.8840 0.8833 0.8830
1998.392600 0.8817 0.8803 0.8793 0.8783 0.8760
2004.421540 0.8737 0.8703 0.8670 0.8653 0.8650
2010.450480 0.8650 0.8637 0.8630 0.8630 0.8630
2016.479420 0.8623 0.8620 0.8620 0.8620 0.8627
2022.508360 0.8630 0.8630 0.8643 0.8657 0.8667
2028.537300 0.8670 0.8677 0.8680 0.8680 0.8680
2034.566240 0.8687 0.8703 0.8710 0.8717 0.8727
2040.595180 0.8730 0.8737 0.8740 0.8747 0.8750
2046.624120 0.8763 0.8770 0.8757 0.8750 0.8750
2052.653060 0.8750 0.8750 0.8750 0.8750 0.8750
2058.682000 0.8750 0.8750 0.8750 0.8750 0.8750
2064.710940 0.8750 0.8750 0.8750 0.8750 0.8750
2070.739880 0.8750 0.8750 0.8750 0.8750 0.8750
2076.768820 0.8750 0.8750 0.8750 0.8750 0.8750
2082.797760 0.8763 0.8770 0.8777 0.8787 0.8790
2088.826700 0.8797 0.8807 0.8810 0.8823 0.8830
2094.855640 0.8837 0.8847 0.8863 0.8870 0.8870
2100.884580 0.8883 0.8890 0.8890 0.8877 0.8870
2106.913520 0.8870 0.8863 0.8860 0.8860 0.8860
2112.942460 0.8860 0.8860 0.8860 0.8860 0.8853
2118.971400 0.8850 0.8850 0.8843 0.8840 0.8840
2125.000340 0.8840 0.8840 0.8840 0.8840 0.8833
2131.029280 0.8830 0.8830 0.8830 0.8830 0.8830
2137.058220 0.8830 0.8830 0.8830 0.8830 0.8837
2143.087160 0.8840 0.8833 0.8830 0.8830 0.8817
2149.116100 0.8810 0.8803 0.8800 0.8793 0.8790
2155.145040 0.8790 0.8790 0.8783 0.8780 0.8773
2161.173980 0.8770 0.8770 0.8770 0.8770 0.8770
2167.202920 0.8770 0.8757 0.8750 0.8750 0.8750
2173.231860 0.8750 0.8750 0.8750 0.8750 0.8750
2179.260800 0.8750 0.8750 0.8750 0.8763 0.8770
2185.289740 0.8770 0.8777 0.8780 0.8780 0.8780
2191.318680 0.8780 0.8780 0.8780 0.8787 0.8790
2197.347620 0.8790 0.8790 0.8797 0.8800 0.8800
2203.376560 0.8800 0.8800 0.8800 0.8800 0.8800
2209.405500 0.8800 0.8800 0.8800 0.8800 0.8800
2215.434440 0.8800 0.8800 0.8800 0.8800 0.8800
2221.463380 0.8800 0.8800 0.8800 0.8793 0.8790
2227.492320 0.8790 0.8790 0.8790 0.8790 0.8790
2233.521260 0.8790 0.8790 0.8790 0.8790 0.8783
2239.550200 0.8780 0.8780 0.8780 0.8780 0.8780
2245.579140 0.8780 0.8780 0.8780 0.8780 0.8780
2251.608080 0.8780 0.8780 0.8780 0.8780 0.8780
2257.637020 0.8780 0.8780 0.8780 0.8780 0.8780
2263.665960 0.8780 0.8780 0.8780 0.8787 0.8783
2269.694900 0.8780 0.8773 0.8770 0.8770 0.8770
2275.723840 0.8757 0.8750 0.8750 0.8750 0.8750
2281.752780 0.8750 0.8743 0.8740 0.8740 0.8740
2287.781720 0.8740 0.8740 0.8740 0.8733 0.8723
2293.810660 0.8700 0.8683 0.8673 0.8663 0.8640
2299.839600 0.8630 0.8623 0.8620 0.8620 0.8620
2305.868540 0.8620 0.8620 0.8620 0.8620 0.8620
2311.897480 0.8620 0.8620 0.8627 0.8630 0.8630
2317.926420 0.8630 0.8630 0.8630 0.8630 0.8630
2323.955360 0.8630 0.8630 0.8630 0.8623 0.8620
2329.984300 0.8620 0.8613 0.8610 0.8610 0.8603
2336.013240 0.8600 0.8600 0.8600 0.8600 0.8600
2342.042180 0.8607 0.8610 0.8610 0.8610 0.8610
2348.071120 0.8610 0.8610 0.8610 0.8603 0.8600
2354.100060 0.8593 0.8577 0.8570 0.8570 0.8570
2360.129000 0.8570 0.8570 0.8570 0.8563 0.8560
2366.157940 0.8553 0.8550 0.8550 0.8543 0.8540
2372.186880 0.8533 0.8523 0.8520 0.8520 0.8520
2378.215820 0.8520 0.8507 0.8500 0.8500 0.8487
2384.244760 0.8473 0.8450 0.8440 0.8427 0.8413
2390.273700 0.8403 0.8400 0.8387 0.8380 0.8373
2396.302640 0.8370 0.8370 0.8363 0.8360 0.8360
2402.331580 0.8360 0.8360 0.8360 0.8360 0.8360
2408.360520 0.8360 0.8360 0.8360 0.8353 0.8350
2414.389460 0.8350 0.8350 0.8350 0.8350 0.8350
2420.418400 0.8350 0.8350 0.8350 0.8350 0.8350
2426.447340 0.8350 0.8350 0.8343 0.8340 0.8340
2432.476280 0.8327 0.8320 0.8313 0.8310 0.8310
2438.505220 0.8310 0.8310 0.8310 0.8310 0.8317
2444.534160 0.8313 0.8310 0.8310 0.8303 0.8300
2450.563100 0.8293 0.8283 0.8267 0.8253 0.8250
2456.592040 0.8250 0.8243 0.8240 0.8233 0.8230
2462.620980 0.8230 0.8223 0.8220 0.8227 0.8230
2468.649920 0.8230 0.8237 0.8247 0.8237 0.8217
2474.678860 0.8190 0.8167 0.8160 0.8153 0.8150
2480.707800 0.8137 0.8130 0.8130 0.8123 0.8120
2486.736740 0.8113 0.8103 0.8100 0.8100 0.8080
2492.765680 0.8063 0.8047 0.8033 0.8030 0.8003
2498.794620 0.7990 0.7983 0.7980 0.7960 0.7943
2504.823560 0.7940 0.7940 0.7927 0.7920 0.7913
2510.852500 0.7910 0.7897 0.7877 0.7863 0.7853
2516.881440 0.7843 0.7840 0.7827 0.7813 0.7810
2522.910380 0.7803 0.7793 0.7790 0.7783 0.7760
2528.939320 0.7743 0.7733 0.7723 0.7700 0.7683
2534.968260 0.7680 0.7680 0.7667 0.7660 0.7647
2540.997200 0.7640 0.7633 0.7623 0.7613 0.7603
2547.026140 0.7587 0.7580 0.7580 0.7580 0.7573
2553.055080 0.7570 0.7563 0.7560 0.7560 0.7560
2559.084020 0.7560 0.7553 0.7550 0.7550 0.7550
2565.112960 0.7557 0.7560 0.7553 0.7550 0.7550
2571.141900 0.7550 0.7550 0.7550 0.7550 0.7550
2577.170840 0.7550 0.7557 0.7560 0.7560 0.7560
2583.199780 0.7560 0.7560 0.7567 0.7570 0.7563
2589.228720 0.7560 0.7560 0.7560 0.7553 0.7550
2595.257660 0.7543 0.7527 0.7520 0.7513 0.7503
2601.286600 0.7493 0.7490 0.7477 0.7457 0.7437
2607.315540 0.7423 0.7413 0.7397 0.7377 0.7357
2613.344480 0.7337 0.7323 0.7320 0.7313 0.7310
2619.373420 0.7310 0.7303 0.7293 0.7277 0.7263
2625.402360 0.7253 0.7243 0.7240 0.7240 0.7240
2631.431300 0.7240 0.7233 0.7210 0.7187 0.7180
2637.460240 0.7173 0.7157 0.7137 0.7117 0.7103
2643.489180 0.7073 0.7047 0.7027 0.7013 0.6990
2649.518120 0.6967 0.6953 0.6943 0.6927 0.6900
2655.547060 0.6883 0.6880 0.6880 0.6880 0.6873
2661.576000 0.6870 0.6863 0.6840 0.6823 0.6820
2667.604940 0.6813 0.6803 0.6787 0.6773 0.6757
2673.633880 0.6737 0.6703 0.6683 0.6673 0.6670
2679.662820 0.6670 0.6670 0.6670 0.6650 0.6640
2685.691760 0.6633 0.6630 0.6630 0.6623 0.6620
2691.720700 0.6613 0.6610 0.6597 0.6577 0.6557
2697.749640 0.6537 0.6523 0.6500 0.6470 0.6440
2703.778580 0.6423 0.6407 0.6354 0.6297 0.6267
2709.807520 0.6253 0.6250 0.6243 0.6173 0.6127
2715.836460 0.6093 0.6073 0.6057 0.6010 0.5964
2721.865400 0.5904 0.5860 0.5837 0.5817 0.5810
2727.894340 0.5810 0.5817 0.5820 0.5827 0.5837
2733.923280 0.5840 0.5847 0.5850 0.5863 0.5870
2739.952220 0.5870 0.5870 0.5870 0.5870 0.5857
2745.981160 0.5850 0.5843 0.5840 0.5833 0.5830
2752.010100 0.5830 0.5823 0.5820 0.5813 0.5797
2758.039040 0.5777 0.5737 0.5713 0.5710 0.5703
2764.067980 0.5693 0.5670 0.5653 0.5617 0.5587
2770.096920 0.5573 0.5543 0.5517 0.5490 0.5453
2776.125860 0.5420 0.5397 0.5370 0.5353 0.5343
2782.154800 0.5327 0.5260 0.5210 0.5153 0.5097
2788.183740 0.5073 0.5037 0.5007 0.4987 0.4914
2794.212680 0.4827 0.4753 0.4723 0.4687 0.4630
2800.241620 0.4570 0.4530 0.4474 0.4424 0.4384
2806.270560 0.4350 0.4274 0.4187 0.4120 0.4073
2812.299500 0.4047 0.4000 0.3953 0.3887 0.3807
2818.328440 0.3734 0.3650 0.3553 0.3507 0.3447
2824.357380 0.3380 0.3307 0.3247 0.3190 0.3144
2830.386320 0.3064 0.2997 0.2907 0.2797 0.2720
2836.415260 0.2660 0.2613 0.2560 0.2507 0.2490
2842.444200 0.2483 0.2453 0.2407 0.2363 0.2290
2848.473140 0.2220 0.2160 0.2100 0.2027 0.1987
2854.502080 0.1927 0.1873 0.1787 0.1723 0.1703
2860.531020 0.1693 0.1690 0.1690 0.1683 0.1680
2866.559960 0.1680 0.1687 0.1690 0.1697 0.1700
2872.588900 0.1707 0.1730 0.1747 0.1796 0.1860
2878.617840 0.1893 0.1913 0.1920 0.1927 0.1937
2884.646780 0.1940 0.1940 0.1940 0.1933 0.1930
2890.675720 0.1923 0.1907 0.1893 0.1883 0.1867
2896.704660 0.1860 0.1847 0.1833 0.1823 0.1813
2902.733600 0.1810 0.1810 0.1803 0.1780 0.1763
2908.762540 0.1753 0.1743 0.1720 0.1690 0.1673
2914.791480 0.1650 0.1633 0.1623 0.1613 0.1590
2920.820420 0.1573 0.1570 0.1563 0.1560 0.1553
2926.849360 0.1550 0.1550 0.1557 0.1560 0.1567
2932.878300 0.1577 0.1600 0.1617 0.1620 0.1620
2938.907240 0.1627 0.1630 0.1630 0.1623 0.1620
2944.936180 0.1613 0.1590 0.1573 0.1563 0.1553
2950.965120 0.1550 0.1550 0.1550 0.1557 0.1567
2956.994060 0.1570 0.1583 0.1610 0.1633 0.1647
2963.023000 0.1670 0.1693 0.1733 0.1803 0.1890
2969.051940 0.2073 0.2210 0.2320 0.2453 0.2579
2975.080880 0.2706 0.2843 0.3130 0.3277 0.3377
2981.109820 0.3506 0.3630 0.3783 0.3906 0.3993
2987.138760 0.4080 0.4210 0.4347 0.4403 0.4483
2993.167700 0.4580 0.4643 0.4746 0.4810 0.4866
2999.196640 0.4923 0.4947 0.4957 0.4967 0.4997
3005.225580 0.5037 0.5077 0.5097 0.5120 0.5150
3011.254520 0.5167 0.5183 0.5197 0.5207 0.5217
3017.283460 0.5240 0.5257 0.5260 0.5260 0.5267
3023.312400 0.5270 0.5270 0.5277 0.5273 0.5270
3029.341340 0.5270 0.5270 0.5263 0.5240 0.5223
3035.370280 0.5213 0.5210 0.5210 0.5203 0.5200
3041.399220 0.5200 0.5193 0.5190 0.5170 0.5147
3047.428160 0.5133 0.5110 0.5087 0.5073 0.5070
3053.457100 0.5057 0.5043 0.5033 0.5017 0.5003
3059.486040 0.5000 0.4987 0.4973 0.4963 0.4947
3065.514980 0.4913 0.4887 0.4860 0.4837 0.4823
3071.543920 0.4807 0.4780 0.4750 0.4727 0.4687
3077.572860 0.4650 0.4620 0.4597 0.4563 0.4550
3083.601800 0.4537 0.4503 0.4483 0.4467 0.4453
3089.630740 0.4437 0.4417 0.4397 0.4377 0.4357
3095.659680 0.4324 0.4303 0.4260 0.4220 0.4203
3101.688620 0.4173 0.4160 0.4127 0.4077 0.4040
3107.717560 0.4023 0.4007 0.3987 0.3953 0.3920
3113.746500 0.3903 0.3873 0.3840 0.3777 0.3710
3119.775440 0.3683 0.3680 0.3673 0.3670 0.3663
3125.804380 0.3653 0.3637 0.3623 0.3607 0.3580
3131.833320 0.3544 0.3523 0.3500 0.3470 0.3440
3137.862260 0.3423 0.3387 0.3357 0.3343 0.3327
3143.891200 0.3300 0.3263 0.3243 0.3227 0.3200
3149.920140 0.3177 0.3143 0.3123 0.3113 0.3064
3155.949080 0.3020 0.3003 0.2980 0.2937 0.2913
3161.978020 0.2897 0.2883 0.2880 0.2860 0.2804
3168.006960 0.2760 0.2743 0.2740 0.2733 0.2710
3174.035900 0.2700 0.2647 0.2607 0.2587 0.2573
3180.064840 0.2570 0.2530 0.2503 0.2493 0.2483
3186.093780 0.2480 0.2473 0.2470 0.2457 0.2443
3192.122720 0.2440 0.2433 0.2417 0.2383 0.2357
3198.151660 0.2337 0.2317 0.2283 0.2270 0.2263
3204.180600 0.2260 0.2247 0.2233 0.2210 0.2200
3210.209540 0.2193 0.2183 0.2180 0.2173 0.2157
3216.238480 0.2143 0.2133 0.2117 0.2103 0.2100
3222.267420 0.2087 0.2080 0.2073 0.2063 0.2047
3228.296360 0.2040 0.2040 0.2020 0.2010 0.2003
3234.325300 0.2000 0.2000 0.1987 0.1967 0.1953
3240.354240 0.1950 0.1937 0.1930 0.1923 0.1907
3246.383180 0.1900 0.1900 0.1893 0.1890 0.1883
3252.412120 0.1880 0.1880 0.1880 0.1880 0.1873
3258.441060 0.1870 0.1850 0.1840 0.1833 0.1830
3264.470000 0.1830 0.1823 0.1820 0.1820 0.1807
3270.498940 0.1800 0.1800 0.1800 0.1800 0.1787
3276.527880 0.1780 0.1773 0.1763 0.1753 0.1750
3282.556820 0.1750 0.1750 0.1750 0.1750 0.1750
3288.585760 0.1750 0.1743 0.1740 0.1740 0.1740
3294.614700 0.1733 0.1730 0.1730 0.1730 0.1717
3300.643640 0.1710 0.1710 0.1710 0.1710 0.1710
3306.672580 0.1710 0.1710 0.1710 0.1710 0.1710
3312.701520 0.1710 0.1710 0.1710 0.1703 0.1700
3318.730460 0.1700 0.1700 0.1700 0.1700 0.1700
3324.759400 0.1700 0.1700 0.1700 0.1700 0.1700
3330.788340 0.1700 0.1700 0.1700 0.1700 0.1700
3336.817280 0.1700 0.1700 0.1700 0.1700 0.1700
3342.846220 0.1700 0.1700 0.1700 0.1700 0.1700
3348.875160 0.1700 0.1700 0.1700 0.1707 0.1710
3354.904100 0.1710 0.1710 0.1710 0.1710 0.1710
3360.933040 0.1710 0.1710 0.1710 0.1710 0.1710
3366.961980 0.1723 0.1730 0.1730 0.1737 0.1740
3372.990920 0.1740 0.1740 0.1740 0.1740 0.1747
3379.019860 0.1750 0.1757 0.1767 0.1770 0.1770
3385.048800 0.1770 0.1770 0.1770 0.1777 0.1793
3391.077740 0.1813 0.1820 0.1827 0.1830 0.1830
3397.106680 0.1837 0.1840 0.1840 0.1853 0.1867
3403.135620 0.1883 0.1897 0.1900 0.1900 0.1913
3409.164560 0.1920 0.1927 0.1923 0.1927 0.1930
3415.193500 0.1937 0.1940 0.1940 0.1947 0.1957
3421.222440 0.1973 0.1987 0.1990 0.1990 0.2003
3427.251380 0.2010 0.2017 0.2020 0.2040 0.2050
3433.280320 0.2063 0.2077 0.2093 0.2100 0.2107
3439.309260 0.2110 0.2130 0.2160 0.2177 0.2187
3445.338200 0.2197 0.2207 0.2223 0.2243 0.2257
3451.367140 0.2280 0.2297 0.2307 0.2317 0.2340
3457.396080 0.2363 0.2370 0.2377 0.2387 0.2403
3463.425020 0.2410 0.2417 0.2420 0.2427 0.2463
3469.453960 0.2487 0.2490 0.2510 0.2553 0.2590
3475.482900 0.2607 0.2617 0.2627 0.2637 0.2653
3481.511840 0.2700 0.2747 0.2773 0.2793 0.2807
3487.540780 0.2817 0.2840 0.2870 0.2900 0.2936
3493.569720 0.2983 0.3020 0.3037 0.3053 0.3067
3499.598660 0.3123 0.3163 0.3197 0.3243 0.3280
3505.627600 0.3310 0.3347 0.3373 0.3400 0.3430
3511.656540 0.3460 0.3510 0.3543 0.3576 0.3616
3517.685480 0.3650 0.3693 0.3737 0.3777 0.3803
3523.714420 0.3843 0.3887 0.3953 0.3993 0.4027
3529.743360 0.4053 0.4080 0.4137 0.4187 0.4240
3535.772300 0.4366 0.4447 0.4460 0.4493 0.4536
3541.801240 0.4583 0.4640 0.4693 0.4757 0.4827
3547.830180 0.4877 0.4903 0.4950 0.4997 0.5063
3553.859120 0.5130 0.5157 0.5220 0.5290 0.5363
3559.888060 0.5437 0.5500 0.5566 0.5610 0.5627
3565.917000 0.5650 0.5727 0.5793 0.5857 0.5893
3571.945940 0.5933 0.5957 0.6020 0.6103 0.6183
3577.974880 0.6217 0.6247 0.6273 0.6300 0.6317
3584.003820 0.6347 0.6420 0.6463 0.6490 0.6520
3590.032760 0.6570 0.6643 0.6697 0.6743 0.6793
3596.061700 0.6843 0.6887 0.6940 0.6987 0.7013
3602.090640 0.7053 0.7070 0.7097 0.7130 0.7167
3608.119580 0.7200 0.7243 0.7280 0.7317 0.7350
3614.148520 0.7367 0.7370 0.7403 0.7440 0.7483
3620.177460 0.7507 0.7530 0.7547 0.7550 0.7563
3626.206400 0.7577 0.7593 0.7620 0.7650 0.7667
3632.235340 0.7670 0.7670 0.7677 0.7687 0.7697
3638.264280 0.7733 0.7770 0.7793 0.7813 0.7840
3644.293220 0.7857 0.7867 0.7870 0.7883 0.7910
3650.322160 0.7953 0.7977 0.7987 0.7990 0.8030
3656.351100 0.8063 0.8103 0.8147 0.8173 0.8187
3662.380040 0.8210 0.8220 0.8227 0.8230 0.8237
3668.408980 0.8240 0.8240 0.8240 0.8240 0.8240
3674.437920 0.8240 0.8240 0.8240 0.8240 0.8240
3680.466860 0.8240 0.8240 0.8240 0.8240 0.8240
3686.495800 0.8240 0.8240 0.8240 0.8240 0.8247
3692.524740 0.8257 0.8273 0.8320 0.8367 0.8413
3698.553680 0.8450 0.8473 0.8520 0.8560 0.8590
3704.582620 0.8607 0.8623 0.8643 0.8650 0.8657
3710.611560 0.8673 0.8687 0.8703 0.8710 0.8710
3716.640500 0.8710 0.8717 0.8720 0.8720 0.8727
3722.669440 0.8730 0.8730 0.8730 0.8737 0.8740
3728.698380 0.8740 0.8747 0.8750 0.8750 0.8750
3734.727320 0.8750 0.8750 0.8750 0.8750 0.8750
3740.756260 0.8750 0.8750 0.8750 0.8750 0.8750
3746.785200 0.8750 0.8750 0.8750 0.8750 0.8750
3752.814140 0.8750 0.8750 0.8750 0.8750 0.8750
3758.843080 0.8750 0.8750 0.8763 0.8777 0.8787
3764.872020 0.8790 0.8790 0.8790 0.8790 0.8790
3770.900960 0.8790 0.8790 0.8790 0.8790 0.8790
3776.929900 0.8790 0.8790 0.8790 0.8790 0.8790
3782.958840 0.8790 0.8797 0.8800 0.8800 0.8800
3788.987780 0.8800 0.8807 0.8810 0.8810 0.8810
3795.016720 0.8810 0.8810 0.8810 0.8810 0.8810
3801.045660 0.8810 0.8810 0.8810 0.8810 0.8810
3807.074600 0.8810 0.8810 0.8810 0.8810 0.8810
3813.103540 0.8810 0.8810 0.8810 0.8810 0.8810
##END=
