##TITLE=1-Butanol
##JCAMP-DX=4.24
##DATA TYPE=INFRARED SPECTRUM
##CLASS=IUPAC A
##ORIGIN=NIST, Anayltical Chemistry Division, 301-975-3108
##OWNER=COPYRIGHT (C) 1998 by the U.S. Secretary of Commerce
##DATE=98/10/1
##$SPECTRA VERSION=1.00
##$UNCERTAINTY IN Y=2.0 % relative (B=1.0E-04,C=2.6E-10,D=2.7E-14)
##CAS NAME=1-Butanol
##CAS REGISTRY NO=71-36-3
##MOLFORM=C H3 C H2 C H2 C H2 O H
##MP=-89.53 C
##BP=117.25 C
##$NIST SOURCE=QUANT-IR
##SPECTROMETER/DATA SYSTEM=IFS66V (Bruker)
##INSTRUMENT PARAMETERS=KBr Beam splitter; MCT Detector; Multipass cell
##STATE=gas
##SAMPLE DESCRIPTION=1-Butanol Primary Gas Standard
##PRESSURE=101.3 kPa
##TEMPERATURE=23 C
##SAMPLING PROCEDURE=1 L/min Flow
##RESOLUTION=0.9640
##DATA PROCESSING=Happ Genzel Apodization
##XUNITS=cm-1
##YUNITS=(micromol/mol)-1m-1 (base 10)
##XFACTOR=1.0
##YFACTOR=4.5474E-13
##DELTAX=0.4820
##FIRSTX=575.169
##LASTX=3975.077
##FIRSTY=1.94E-06
##MAXX=3974.59
##MINX=575.17
##MAXY=.0005361
##MINY=5.92E-07
##NPOINTS=7053
##XYDATA=(X++(Y..Y))
575.17 4284562 7463610 11386910 12440770 11127160 9887644
577.58 8855356 9731876 8598742 8664096 10448710 9523562
580.47 6833874 5748032 5843678 6481014 8660730 9768224
583.37 8037766 5811674 8734764 11387890 9421402 10025190
586.26 7588656 7316804 7654248 7550640 8976564 10785300
589.15 11804550 9589930 6199924 7305970 8749362 11474840
592.04 11694220 9878690 8614636 6523900 4155870 4901542
594.94 4482034 4635204 7911376 10048360 10311150 9049010
597.83 9042090 11189230 10875940 8348880 8979314 10359170
600.72 8716672 7011094 6443938 7226010 7786246 8838082
603.61 7477314 7793730 10695990 8950802 5847004 5970368
606.51 7639168 8328352 9367860 10364590 9138226 7849326
609.40 7152350 7647254 6796472 5572424 5450212 7090960
612.29 8074826 8487746 8401250 6906810 7705538 8737738
615.18 9364646 8602936 8472740 8474754 7932200 8314168
618.08 8936290 9814830 9255474 8743734 9353996 10180140
620.97 9483680 8433000 7479124 6169504 5797414 5942980
623.86 7206078 8313182 8977366 7746008 8386894 10563790
626.76 11828030 12095820 10746640 7891934 8001704 8173988
629.65 6131154 5130890 6939872 9377698 10440450 10108250
632.54 9258904 8124090 8767204 9897470 9898468 8991450
635.43 8295768 7565020 7024514 8900686 9197928 8051070
638.33 7583690 8324500 9600470 9384042 9045268 8556906
641.22 7614092 8550158 10544680 9161398 5933168 5902848
644.11 7637444 9164396 8848850 7530970 6983524 7380676
647.00 7554444 8747540 9554864 8759376 7924746 8530236
649.90 8881174 8675196 8561938 8616358 9117900 7474698
652.79 6928538 8654046 9648018 9900866 7839250 6765252
655.68 6997242 7786702 7866554 7767986 8046126 8292276
658.58 9534138 9432344 7965192 7592650 8786088 8743294
661.47 8990180 9421874 9006668 9214522 9302474 8229874
664.36 8108054 8041448 7145840 8168896 8224764 8413278
667.25 8972674 9322466 7709996 7398594 8589284 7858474
670.15 7700530 7155708 5990364 5638154 6793990 8600356
673.04 7925012 6702362 7406432 8516560 8797476 8954958
675.93 7934590 6473966 6363500 7407482 9130090 8356454
678.82 6271886 6024876 7004372 6845144 6946818 7556946
681.72 6944918 6222258 6568704 6903736 7110348 7292870
684.61 7174124 7432090 8779730 8349552 7711214 8328342
687.50 8855588 9028060 6778004 5003438 5347248 6723622
690.40 7643684 7706548 7204406 6412824 6144874 6690384
693.29 6588990 7180234 7360322 7246492 8298732 8638904
696.18 8200426 6982012 6976912 7231796 7164674 6437468
699.07 5600726 6439716 8303284 9699984 8866624 7717188
701.97 7011970 6439056 6669424 7302954 7978458 7910586
704.86 7183658 7823546 8143352 8094248 7951090 7660926
707.75 7431600 7195038 7673528 8394610 8806780 9047856
710.64 9053972 9180616 9369258 9368782 8242162 8230658
713.54 8442620 9285894 10999810 10640840 9492736 9361340
716.43 9236958 9573212 10395090 10852600 10489310 9874366
719.32 9673886 10411600 11841610 12181920 11156980 10806390
722.22 11192050 13144840 14195200 12650330 12719160 14742720
725.11 14555910 14266450 14248040 14128390 14304490 14753610
728.00 15297230 15619180 15940810 16227090 16289710 16358890
730.89 17497550 18204850 17752050 17670190 18339940 18198460
733.79 18366650 18561050 17645270 18899810 20538290 20415690
736.68 20569730 20967040 20698220 21035010 21962280 22658200
739.57 23722710 24770890 23886420 21432100 19971270 20648000
742.46 21636950 21137830 20040650 20123810 21125030 21325930
745.36 19924510 18843010 19358610 19826360 20424250 21049890
748.25 20270570 19277580 19906680 20344120 19655300 18801480
751.14 17852070 17982760 19680480 20001340 18302570 17318170
754.04 17211390 17403930 16756200 16297270 15933660 16086820
756.93 15818570 15507340 15545510 15462040 16069050 15274730
759.82 14143040 14146170 14167150 13847900 13083970 12664960
762.71 12910160 12889030 13145150 12657980 12016990 11248040
765.61 11401080 12124300 11071240 9850640 9832496 10392570
768.50 11239980 11464030 10257780 9798812 9804226 9650432
771.39 9671118 9707900 9555446 9071814 8886448 9612178
774.28 9787270 8883932 8468654 9072362 9905024 10162180
777.18 9032576 9205168 9345728 9275868 9247160 9730258
780.07 9562262 9582362 10114970 9893070 9477744 10254740
782.96 11243730 11041920 10275240 8811978 8328390 8739262
785.86 9481192 9837722 9302098 9144990 10381030 11303040
788.75 11607070 11802560 11566380 11648350 11805500 11812340
791.64 12410580 14217050 15117370 13673450 12252000 12532620
794.53 13620090 13513450 12624280 12735970 13123200 12529720
797.43 12965440 13912380 14259550 15044710 15569110 14236860
800.32 13759060 14208600 15087780 15896770 15456240 15493470
803.21 15162980 14408240 14805830 16485580 16987420 17222530
806.10 16652180 15538920 15009640 15652210 16107140 16748410
809.00 17459170 16726530 16493940 16448750 16046960 16244450
811.89 17952710 19195660 18538490 17542610 18470580 19017080
814.78 18656560 18225800 18135690 18996360 18948080 18545620
817.68 19439100 20446070 21823880 22426140 22206080 21090470
820.57 20670460 20744550 20813950 22125150 23173740 24126630
823.46 23822550 23325020 24684860 26508700 27545570 28172380
826.35 28691860 28460920 28919790 29764530 31060540 31865540
829.25 30986680 31470110 34071700 35813750 36018430 36634230
832.14 38017780 39688700 40996540 40996200 41287710 42871770
835.03 44974940 45941040 46962620 48499810 49476840 50243750
837.92 50369090 50281800 50644350 52534880 53607280 53522480
840.82 53847020 54367720 54673610 54102110 53019890 52292490
843.71 52303180 52590700 52417900 52039320 51981920 52334330
846.60 53152900 53029900 53234600 54583520 54814400 55177520
849.50 55109640 55058980 55738860 56197880 56470100 56393180
852.39 55769240 55329500 54955420 53860230 52700030 52588910
855.28 51795120 50283910 49952530 49534560 48044030 47257110
858.17 46735660 45649870 44504520 43676720 42843440 41637640
861.07 40840180 39841400 39062630 38199570 37109020 36043480
863.96 35220710 34180680 33537440 32864470 32245650 31476460
866.85 29749670 29061740 29084280 28741130 28047810 27464530
869.74 27121930 26970360 26798250 25824330 24926030 24778420
872.64 25059390 24351190 24177560 23379240 22686690 23424000
875.53 23778570 22989010 21979770 21161280 20988250 21811590
878.42 22839310 22182790 20812180 21073190 21674240 20892160
881.31 20520730 20436200 20561690 20537900 20445410 20576300
884.21 20933010 21154430 21232620 21613040 21872770 22266150
887.10 22639220 22590330 23092300 23621430 23213240 23387160
889.99 24437560 25259920 25508110 25852590 26418150 27061180
892.89 27607720 28279790 28262700 27598140 27253950 28087860
895.78 28558480 28193060 28161230 28299830 28588940 28653410
898.67 28209130 28278760 29111570 29376040 28798030 28780290
901.56 29310770 29942150 30325340 30541260 30549030 30873180
904.46 31035460 31378090 32461100 33462100 33422250 33128100
907.35 32895050 32555950 33018000 33109800 33129850 32654520
910.24 31851290 31828990 32058730 32697110 32426120 31638380
913.13 31267360 30747710 30799350 31487970 32162760 31521660
916.03 31346950 31462460 32106420 32787430 33553880 33902400
918.92 34404200 34723220 35363870 36345420 37606820 38146210
921.81 38878470 39732700 40702570 42127510 42784620 43162420
924.71 44574940 45789290 47155570 48716260 50253590 51769160
927.60 52717860 53563450 55413450 57066310 58338150 59909870
930.49 61323150 63098300 65501380 67222820 68333660 69684600
933.38 71824860 74221620 75513050 76148790 77919290 80461750
936.28 82306150 84248860 86509300 88556160 90193780 92316120
939.17 94774750 96813310 98099100 99261030 101716100 104337200
942.06 105819200 106593700 106942600 107881100 109425800 111023400
944.95 113336200 114812600 115220900 115503100 115928900 115928700
947.85 116502600 117687300 118090800 118743800 120545700 121846000
950.74 122125000 121917100 121364700 121073400 121640000 122405600
953.63 122667400 122437000 122131600 121856000 121062500 120171100
956.53 119395200 118738800 118659100 118163400 117562800 116691600
959.42 115985000 115778200 114922200 113387400 111661300 111227800
962.31 110245300 108824800 107976000 106913800 105531400 103998700
965.20 102831800 101474100 100335900 99297820 98111140 97229220
968.10 95964090 94792980 93615380 92708180 91564830 90055980
970.99 89224030 88717900 88265300 87937830 87950730 88108380
973.88 87996910 87515260 87203150 87518600 87545470 87937140
976.77 89273420 90026640 90494980 91483230 92566620 94148880
979.67 95228820 95833970 96633430 97522250 98308730 99203180
982.56 100076500 100851900 101519100 102155400 102367100 102271000
985.45 101675400 101347400 100475000 99191920 98990700 99141160
988.35 100112200 101398500 102344400 104054100 107341200 110555100
991.24 110742900 110800000 112929500 115624400 118813000 122303200
994.13 125446600 127710400 129829900 130941400 131771700 132472700
997.02 133419600 134165000 134011500 133853100 134143800 134217700
999.92 133910000 133120100 133029900 133782000 134514400 135562400
1002.81 136559800 138235700 140234000 141735100 142959000 144975300
1005.70 147104600 149055900 151965900 154699900 156777400 158623500
1008.59 159901100 161458400 164009900 167139500 170661200 173556200
1011.49 176645500 179669600 182126400 184550000 187755100 191063700
1014.38 194549000 198383200 201266100 204670800 208028100 211093700
1017.27 214243900 218136300 222627100 226764100 230795300 235114200
1020.17 239158100 243531600 247986200 252532900 256632700 259964000
1023.06 263853600 267168900 270160600 273545500 276950800 280201400
1025.95 282884000 285729300 289448400 293907200 297989000 302571000
1028.84 308417800 313898800 318291900 322998200 328325900 335017100
1031.74 343423400 351299500 357886000 365451900 373255000 380242200
1034.63 388337000 397042800 405175400 412206700 418384800 424708600
1037.52 429424000 433393600 436682800 440001600 443932200 446011500
1040.41 447508500 448981200 450047600 449549000 447776500 445921200
1043.31 443533500 442567100 442384600 442937000 443091400 440654400
1046.20 438092400 436513000 436307600 438259800 440994300 443647900
1049.09 445565100 447467500 448621300 450329000 452593500 454486200
1051.99 457492900 461728200 465293300 468280400 471146000 473400000
1054.88 474190900 473267600 471994000 470499500 467604800 464135800
1057.77 460975600 458779000 456256900 452834100 451391800 450999100
1060.66 449822500 449318900 449280800 449132700 449749800 452312700
1063.56 455793500 461159200 465491600 466342100 465674300 465945200
1066.45 468319000 472006600 476216700 480945200 484504100 486236300
1069.34 486266400 485945600 484702100 482668600 480602100 477196800
1072.23 472261800 467265400 462683200 457831200 454656500 452942700
1075.13 451030100 449123200 447119800 444413700 441666500 439904400
1078.02 437555900 432587700 427882300 421291500 412035100 402011700
1080.91 392934500 385216000 377616700 369055400 360554600 352970200
1083.81 345212700 336587900 328693900 320908700 311880600 304062800
1086.70 296073400 286961000 278334700 270872100 264554200 258298400
1089.59 250439600 242925200 236828900 231954400 227192900 222078100
1092.48 216224700 210116600 205283700 200950100 196074600 191991700
1095.38 188068100 183950500 180109000 176403600 172521500 168371600
1098.27 163944700 160064300 157610600 154916900 151362100 147737100
1101.16 143871600 140413800 137133200 133514600 130294700 127582400
1104.05 125238700 122593600 118972100 115371000 113396200 111748000
1106.95 109786700 107541400 105079800 103042100 101039500 99556560
1109.84 98390190 97198810 96337590 95124790 93069510 91402970
1112.73 90105580 88686290 86954160 85579020 84862860 83673210
1115.63 82174740 80628140 79764380 78738560 77374080 76623100
1118.52 75673890 73917520 72776860 71324970 70158390 69453630
1121.41 68143030 67190460 66305450 65239460 64080350 63318990
1124.30 62732820 61562680 60375240 59617510 59054450 58592180
1127.20 57712740 56816320 56477160 55698040 54501290 53345170
1130.09 52625360 52126930 51308380 50141320 49660380 49041620
1132.98 48637620 48486520 47601740 46808280 46155740 45781570
1135.87 45517050 44830920 44374090 43966680 43421930 42750090
1138.77 42372500 42171490 41802680 41316960 40767990 40341930
1141.66 40284410 40119790 39615470 38929720 38552830 38532530
1144.55 38683970 38434340 37825360 37958340 38054090 37730910
1147.45 37805590 37833500 37388360 37745120 37970000 37569690
1150.34 37528040 36910910 36236940 36866180 37399850 37018220
1153.23 36613160 36835460 37379630 37357550 37055100 37583200
1156.12 37598160 37082400 37240340 37366270 37625470 38477480
1159.02 38479990 37976880 38113020 38824960 39257330 39479680
1161.91 39579000 39812390 39841360 39965920 40370940 40443420
1164.80 40847900 41798540 42068580 42432040 42849020 42815580
1167.69 42988280 43650320 43641190 44051860 45143410 45512740
1170.59 45574510 45864690 46305670 47109040 47583290 47935720
1173.48 48801470 49271660 49629420 50144440 50691730 51675360
1176.37 52437680 52575330 53621480 54488560 54643320 55098000
1179.26 55917810 56284670 56729850 57701450 58838020 59773640
1182.16 60378620 60525360 61231240 62459370 63336700 63930520
1185.05 64794890 65550050 66181720 67281420 68556580 69533700
1187.94 70232240 71105370 72388310 73707710 74667440 76172940
1190.84 77428980 78186560 79018750 79856400 80442980 81628220
1193.73 82609500 83207880 84680400 86070380 86823620 87407000
1196.62 88574490 89633060 90460180 91231510 91587820 92290290
1199.51 92971200 93590860 95103780 96336340 96933640 97213490
1202.41 97951980 99114720 99778340 100501300 101388200 102360200
1205.30 102741100 103087500 104124000 104593800 105073600 106399600
1208.19 107230000 107135900 107238000 107650900 107702400 107910900
1211.08 108224800 108354100 108570200 108684000 108544100 108078300
1213.98 108228300 108616800 108500700 107946900 107848500 107667300
1216.87 107292400 107265800 106892800 105966000 105555900 104969700
1219.76 103868200 103032200 102477300 101889600 101046000 99929140
1222.66 98855800 98193410 98277460 97794460 97110700 96284700
1225.55 95739680 95139300 94613180 94017750 92746180 91477700
1228.44 90705630 89958490 89068860 87693720 86712450 85899190
1231.33 84796030 83852900 82855080 81637380 81058170 80500280
1234.23 79705800 78652140 77849420 77128020 76540650 75964000
1237.12 75437820 75113520 74708520 74030060 73826970 73917360
1240.01 73444740 72759520 72582910 72447360 72100000 72047400
1242.90 71744510 71367430 71094420 71095180 71068260 71198710
1245.80 71214120 70820400 70564020 70952460 70919520 70280610
1248.69 70334040 71523060 72104140 71629490 71391800 71634740
1251.58 71698300 72154680 72415140 72344080 72811290 73474920
1254.48 73658040 73441080 73413340 73968920 74401570 74552040
1257.37 74455040 74983020 75856700 76375250 76356520 76389940
1260.26 76770070 77145540 77361230 77585120 78151720 78586760
1263.15 78700920 79133680 79814930 80355560 80557260 81198180
1266.05 81547500 81751980 82030510 81672090 81213660 81385300
1268.94 81597890 81865560 82010700 82328500 82849980 83119870
1271.83 83033940 82952020 83152740 83448820 83836250 84411240
1274.72 85022430 84968840 84891280 85296980 85505990 85306490
1277.62 84835210 84525870 84418640 84602340 84845910 84636290
1280.51 84128640 84035040 83565500 83116160 83224830 83124020
1283.40 82709860 82299860 81953340 81330620 80843520 80366630
1286.30 80349190 80204440 79662260 79514820 79304990 78451090
1289.19 77530330 77394500 77710960 77336290 76662940 75740750
1292.08 74908630 74475000 73877860 72951320 72257570 71700470
1294.97 71350600 70532780 69550060 68966140 68475310 67807540
1297.87 67542720 67194650 66357180 65430990 64781530 64255600
1300.76 63596840 63259490 62518180 61741010 61264270 60799070
1303.65 59929380 59321160 59112810 58751420 58389120 58280040
1306.54 58097570 57733990 57520450 57101400 56899440 57059490
1309.44 56852920 56363610 56163420 55841040 55484420 55376230
1312.33 55227620 55321030 55446360 54695230 54025120 54006390
1315.22 54327930 54263850 54371790 54861990 54619130 54157520
1318.12 54078760 54099970 54013690 54287300 54391790 54519850
1321.01 54505300 54877380 55351960 55608640 55817380 55939150
1323.90 56164450 56651540 56965940 57025070 57565090 58290640
1326.79 58992550 59490090 59244510 59605690 60862960 62217810
1329.69 62761750 63587960 64670970 65451870 66239470 66908620
1332.58 67383670 67821050 68692660 69317460 70143540 71025680
1335.47 71431850 71699600 72273180 72635330 72912300 73011860
1338.36 72959030 73486830 73891770 73783850 74092580 74366200
1341.26 74101530 74454100 74919860 75021090 74880180 74855110
1344.15 75768940 75656710 74887730 75017100 75084160 74950790
1347.04 75245480 75761540 75659100 75441920 75362200 75445240
1349.94 75290190 75336500 75448430 75529190 75614510 75490300
1352.83 75221860 75355670 75375020 74787000 74475780 74476700
1355.72 75461470 75085650 74432380 74787740 74523060 74545040
1358.61 75329230 75414670 75271260 75946480 76807000 76898290
1361.51 77027730 77884740 78661520 79192010 80717000 82387940
1364.40 83353420 84586080 86149710 87864100 89876550 91684540
1367.29 93570980 96263660 98650820 100897100 103677600 106465700
1370.18 109067900 112442800 115340400 118112300 121859900 125494300
1373.08 129277400 133080900 136275800 139387000 142537500 145447100
1375.97 148800000 152268500 154786100 156872900 159638400 162101400
1378.86 164201800 165828200 167020400 167943700 168939100 170097300
1381.76 171936000 174512700 177684200 182049800 186511600 189545200
1384.65 190728100 190099200 188130700 186737200 187388000 189919600
1387.54 192022500 194147900 196548400 198885000 200508700 201210300
1390.43 201226600 200523800 198818900 195997500 193442800 191784300
1393.33 189614600 186528600 182268100 178309600 174536500 169760400
1396.22 165288700 162240300 159954100 157015700 154574500 152449000
1399.11 148984200 145689300 142675500 139507000 136069900 132553100
1402.00 129364300 126480800 123092800 119402600 116219300 112795200
1404.90 108672300 105015600 101820600 98485910 95447010 92858180
1407.79 90090560 86852580 84309460 82451860 80325890 78122330
1410.68 76290450 74225780 72324520 70639440 69059650 67433000
1413.58 65979060 64889640 64023220 62799800 61791540 60769130
1416.47 59965710 59174420 57899020 57362780 57981520 58747780
1419.36 57400240 55643380 54821490 54209620 53658140 53682230
1422.25 54032300 53857940 53356550 52865850 52776050 53190380
1425.15 53242840 53198130 53439250 53885380 54425800 55140460
1428.04 55552660 55610360 56173640 56945450 57087670 57690630
1430.93 58509540 59328890 60035910 60545980 60845380 61116970
1433.82 61301190 61737140 62285620 62709340 64230920 66866200
1436.72 67678420 68503010 70219340 71025540 71537680 72189620
1439.61 72548920 73618560 75542080 77197450 78768340 80668220
1442.50 82721060 84544060 86697410 88870430 90471470 92193400
1445.40 93781680 94977970 96269880 97707880 99226440 100196300
1448.29 101370300 102795600 104281600 105224500 106398600 107699900
1451.18 108982300 110237000 111680500 113385000 114364900 115445900
1454.07 116644100 117995300 118902900 120097700 123221400 125019900
1456.97 123628200 123856400 125581500 127135200 128663500 130088900
1459.86 131868600 133748900 135727800 137108600 137882500 139032500
1462.75 140528700 142074000 143766500 145887500 145992300 143657900
1465.64 142091500 141053200 139912400 138942800 137961600 136738400
1468.54 135046400 132923700 131509100 130770200 130148900 130539400
1471.43 131941300 132625000 133370300 133667900 131514800 129169300
1474.32 128298600 127754800 128326500 128664500 127737300 127051800
1477.21 126207700 124473000 122804800 121015000 119095000 117206200
1480.11 115216400 113179200 111215500 109374000 107896600 106040900
1483.00 103497300 101029000 98937210 96965940 94880540 92954080
1485.89 90866840 88892300 87266820 84963800 82700710 80577160
1488.79 78218730 76568060 75140410 73386190 70606040 67999050
1491.68 65918250 63388720 61135830 59406380 57582710 55664740
1494.57 53767650 52556750 52196190 50079940 46848500 44756400
1497.46 43276850 42183300 40767250 38666530 36865920 35305450
1500.36 33866760 32809450 31723300 30172720 28696880 27906780
1503.25 27318440 26134240 24931140 26079670 26845800 24324500
1506.14 24215190 24587190 21854790 20156270 19885870 19170930
1509.03 18551540 17897180 16823160 15914370 15438570 15728330
1511.93 15442830 14376240 13981150 13481470 13122960 13163420
1514.82 13251540 12949560 12787840 12684180 12771050 12322780
1517.71 11374870 10954000 10760250 10986530 11339310 11626260
1520.61 12889020 11968200 10263410 10838220 10488490 9460066
1523.50 9275768 9369128 9772690 10438840 9634464 8774650
1526.39 8719172 8969718 8547560 8701614 8864600 8259660
1529.28 7876918 7964536 8262970 8179722 8127212 7844374
1532.18 7752736 8411612 9184460 9112796 7810478 7217990
1535.07 7633478 8068186 7911978 7626226 7321944 7579232
1537.96 8956556 11118690 10027210 9468704 10172940 8307168
1540.85 7540724 8917376 9070556 7810406 7638740 7434154
1543.75 7107496 7573028 7981592 7188456 6825952 7014026
1546.64 7180030 6823496 6805754 7083868 7005372 7053552
1549.53 7363820 7040186 6582442 6298014 6015796 6067860
1552.43 6324288 6425074 7423336 8238846 7171728 6438456
1555.32 6405698 6584982 6881150 8063918 8777360 10014420
1558.21 10127800 8023828 8833846 10486020 8651620 6386060
1561.10 6032348 6018900 6188716 5996120 6007958 6069118
1564.00 6071574 6043632 5921058 5830418 6082518 6253308
1566.89 6245742 6252510 6002192 6161066 6890590 7382978
1569.78 6305974 5469718 5357468 5293808 5562338 5676650
1572.67 5796398 5865330 5934070 5814122 5714352 6840350
1575.57 9454094 8462804 6005490 5376460 5183426 5084614
1578.46 5223398 5171410 5309242 5344204 5243990 5305296
1581.35 5065072 4784092 4861562 5092830 5513218 5399494
1584.25 5049454 5011500 4854024 4709288 4672102 4861338
1587.14 4858914 4959788 4971054 5159944 5202860 5004074
1590.03 5002882 4723934 4629426 4857868 4793760 4635900
1592.92 4551266 4997390 5219898 5104788 4932736 4720396
1595.82 4726702 4703066 4614638 4840784 4804490 4518220
1598.71 4714028 4841464 4930258 4877824 4653168 4399114
1601.60 4289572 4478766 4662624 4567498 4920206 5006950
1604.49 4835892 4506768 4299074 4322236 4779402 4862742
1607.39 4706600 4496118 4077432 4185616 4632474 4604286
1610.28 4668026 4685112 4532530 4359058 4313024 4025672
1613.17 4065270 4148470 4425584 4447212 4671818 5944060
1616.07 8148756 7171230 5106532 4682024 4459182 4242606
1618.96 4351978 4395190 4284384 4291998 4248780 4217312
1621.85 4560780 4784084 5513834 5329620 4166516 4016748
1624.74 4272042 4206780 4088430 4261728 4382054 4575270
1627.64 4322900 4317820 4353316 4556636 4552488 3909952
1630.53 3721008 4259188 4325192 4118752 3883200 3494892
1633.42 3148632 4084470 5611364 6879726 6589834 4602664
1636.31 3931230 4208012 4220888 3817950 3612258 3712286
1639.21 3816152 3841626 4200612 3995162 3576154 3858778
1642.10 4099138 4006734 3873984 3687838 3703092 3856742
1644.99 5195182 6494084 5214342 4267882 4687676 4491940
1647.89 4509558 4278746 4317658 4251090 3974590 3790464
1650.78 4034346 5108090 8120588 8895238 8883142 6667508
1653.67 5035910 5303506 4433496 3788850 3804418 3817530
1656.56 3552488 3394326 3104810 3477196 3693860 3706604
1659.46 3847906 3736612 3538640 3646570 3752210 4302750
1662.35 4598444 4011502 3672472 3536236 3523230 3639224
1665.24 3691042 3603278 3462822 3273242 3549412 3956640
1668.13 4072066 4609802 4588284 3926440 3429640 3621762
1671.03 4037020 4010554 3911146 3533112 3354526 3269332
1673.92 3478642 4730876 5792304 4908996 3806754 3677196
1676.81 3535684 3398352 3742696 4092570 3877214 3903726
1679.71 3993166 3698268 3501664 3823650 3925482 4142936
1682.60 4900436 5100598 5504120 7985322 8295528 4760600
1685.49 3540894 3831612 4044664 3713658 3728606 3874218
1688.38 3998724 3690682 3767716 3831626 3538298 3326458
1691.28 3716588 4104952 3878674 3410476 3495124 3622462
1694.17 3837936 4907558 8054554 8436440 5298158 4234794
1697.06 4361898 3991952 3854954 3808600 5291970 7505722
1699.95 7425270 6087452 4424774 3569984 3497376 3796262
1702.85 3522622 3456024 4178722 4100098 3648022 3854816
1705.74 4237104 4064188 3466370 2981622 2966174 3358202
1708.63 3563426 3671512 3772096 3620448 3465710 3536824
1711.53 3345062 3429882 3632844 3608932 3559792 3506956
1714.42 4129328 4333370 3402508 3125888 4478478 6679710
1717.31 5135162 3936250 4109556 3278838 2990750 3033488
1720.20 3090408 3152538 3205280 2964040 2968512 3166544
1723.10 3299054 3234042 3168568 3007636 2853150 3230064
1725.99 3420724 3320542 3381032 3320180 3279288 3047622
1728.88 3052084 3192608 3090836 3163568 3520036 3365862
1731.77 3092694 3596162 5571836 5358120 5097380 5866866
1734.67 4209528 3106156 3303568 3432320 3299030 3437140
1737.56 3247690 3142260 3163300 3889276 4356098 3806128
1740.45 3375840 3344136 3120790 3037702 3371302 3702280
1743.34 3443384 3110392 3108346 3055088 2810078 3043992
1746.24 3674958 3809940 3482562 3695618 3814914 3294738
1749.13 3010590 3041738 3932076 5183636 4902796 3681884
1752.02 3341866 3263290 3415216 3435012 2929224 2776690
1754.92 3203014 3435264 3830654 4116238 3502180 3205268
1757.81 3001434 3038370 3087776 2806914 2723822 3246998
1760.70 3597558 4238396 3924060 3101292 2939756 2789864
1763.59 2917794 3191970 2950798 2739656 2759482 2587096
1766.49 2487892 2910020 4021084 3997878 3092726 3106784
1769.38 3059634 3102164 3582182 3909342 3454044 4143574
1772.27 5195864 3793740 2810520 2628184 2480184 2796562
1775.16 3201910 3298442 3150548 2838638 2942366 3102970
1778.06 3283172 3378970 3172344 3093574 3338718 3192824
1780.95 2948814 2995344 2991326 3051198 2975050 2742626
1783.84 2714666 3657544 3788390 3272680 3034064 2942448
1786.74 3116016 3514680 3398120 3140412 2664024 3032722
1789.63 3534542 3620900 3342254 3153844 3752286 4835402
1792.52 4473242 3370218 3242572 3301076 3162362 3047956
1795.41 3312262 3313462 3375252 3399576 3372272 3313738
1798.31 3472860 3806544 3975586 3830290 3394762 3357744
1801.20 3175602 3082150 3203818 2963378 2811324 2622150
1804.09 2707624 3023810 2941078 3042140 3299176 3144370
1806.98 3317544 3414098 3202738 2910106 2554258 2797246
1809.88 3118302 3140622 3211150 3134674 3196238 3055462
1812.77 2990306 2893234 2984226 2821328 2843348 2784408
1815.66 2540260 2792246 2798430 2779870 2853006 2617994
1818.56 2508972 2721914 2840832 2778372 2586734 2541896
1821.45 2692318 2679494 2809926 2860568 2714778 2630724
1824.34 2896962 3310432 3167058 2777256 2630758 2674014
1827.23 2491516 2215478 2491554 3191902 3370020 3353056
1830.13 2823726 2618234 2677894 2639156 2629234 2600766
1833.02 2391008 2302912 2456516 2500980 2488308 2478716
1835.91 2397074 2300520 2313334 2362726 2574018 2469176
1838.80 2450832 2563908 2766582 2775110 2517390 2473908
1841.70 2699772 2860414 2459166 3136794 4546144 3999392
1844.59 3004906 2964544 2807116 2777126 2633896 2692814
1847.48 2593796 2541416 2484240 2327384 2617600 2897888
1850.38 2762848 2827220 2950652 2484840 2491714 2875092
1853.27 2847612 2824726 2981192 3068300 2935254 2807122
1856.16 2736226 3005088 3132604 2893286 2753464 3061242
1859.05 3175608 3103706 3229416 3205648 2974292 2798980
1861.95 2798554 2976728 3014702 2740928 2499600 2825716
1864.84 3197242 3309504 3403980 3386834 3348802 3650616
1867.73 3644776 3322384 3520850 3326916 3113520 3504912
1870.62 3148844 2417252 2410852 2728682 2740326 2930816
1873.52 3204724 3364466 3263240 3277322 3239054 3120784
1876.41 2935574 2880118 2911204 2756920 2636418 2926252
1879.30 2851068 3012290 3076168 3026850 2959296 2988816
1882.20 2985430 3142272 3052240 2714500 2563982 2665102
1885.09 2658520 2527462 2360150 2629348 2662764 2470206
1887.98 2602508 2937736 3322800 3443904 3184082 2675712
1890.87 2238150 2433436 2765294 2964236 3041838 3363458
1893.77 3088164 2479852 2630252 2577312 2386278 2680046
1896.66 3088464 2900888 2453322 2383230 2763108 3129640
1899.55 3132208 2827610 2903346 2985150 3092796 3108274
1902.44 3277346 3218950 3293260 3526328 3534712 3392906
1905.34 3231378 3009064 3034862 3297764 3568408 3715698
1908.23 3732626 3831362 3812984 3669362 3641770 3603462
1911.12 3349636 3188138 3572164 4051070 3809688 3606176
1914.02 3562772 3587474 3475134 3704936 3935134 4038416
1916.91 4052742 4043550 4019678 3921070 3705092 3502930
1919.80 3363250 3357618 4069282 4113568 3854640 4063590
1922.69 4239726 4315414 4290038 4098758 3893348 3825134
1925.59 3915494 3948354 4114304 4178526 3708236 3523896
1928.48 3632826 3460114 3553604 3460786 3313010 3318990
1931.37 3324570 3374452 3487736 3262688 3028442 2833674
1934.26 2904240 3369506 3670276 3473422 3006550 2702340
1937.16 2858782 3433860 3521234 3433902 3412928 2900488
1940.05 2697054 3178492 3275198 3446004 3707932 3611014
1942.94 3367162 3318472 3082998 2991712 3092914 2963082
1945.84 2884300 3122558 3096400 3082500 3229334 2885646
1948.73 2744426 3146452 3198702 3236730 3177056 3121834
1951.62 3084376 2799330 2871284 3221138 3173662 3201046
1954.51 3287020 3261378 3302974 2971418 2630758 2805070
1957.41 3008876 3136092 3139954 3046090 3152698 3264760
1960.30 3401860 3412922 3067716 3212632 3382168 3194366
1963.19 2804286 3150614 3513962 3267072 2982810 3079996
1966.08 3370882 3595954 3785776 3515088 3460792 3596192
1968.98 3560884 3600426 3790134 3697604 3689874 3849522
1971.87 3564238 3445486 3686674 3956900 3879584 3745598
1974.76 3664468 3803774 3941836 3758732 3564268 3502454
1977.66 3625196 3735856 3797884 4043458 4093844 4011314
1980.55 3882786 3711212 3500908 3453858 3529540 3760574
1983.44 4071954 4131160 4297942 4000972 3658986 3860784
1986.33 3862656 3626870 3733078 3923710 3804588 3808286
1989.23 3843284 3697766 3509452 3678430 4015788 4195340
1992.12 3931916 3571738 3641072 3688404 3659854 3511780
1995.01 3405856 3782458 4038742 3732720 3573702 3529876
1997.90 3462122 3553494 3727482 3834756 4143734 4362636
2000.80 3923210 3417572 3420538 3910938 4133972 4310634
2003.69 4211562 4087484 3992250 3786110 3995978 4323116
2006.58 4178612 3919344 3999354 4032594 4104862 4107248
2009.48 4478102 4909876 4674514 4384444 4574118 4996466
2012.37 4931806 4772842 4823556 4787002 4790338 4941322
2015.26 4953514 5226922 5516518 5449336 5489202 5667188
2018.15 5729368 5896958 5795698 5627994 5668582 5910534
2021.05 5998886 5912028 6111934 6525132 6524786 6639410
2023.94 6624756 6363222 6324866 6683870 7008908 7032012
2026.83 6919212 6849428 6993814 6811804 6548738 6870280
2029.72 7563838 8011052 7700824 7224444 7146430 7275060
2032.62 7675116 7657640 7060644 7215040 7455384 7315862
2035.51 7447370 7736084 7813840 7818678 7728886 7771742
2038.40 7907368 7991702 7904302 7585234 7574150 7557108
2041.29 7555348 7608208 7278512 7118984 7297410 7054348
2044.19 6865076 6951964 6724404 6762798 6599326 6336196
2047.08 6151766 6147258 6563786 6608678 6428630 6237214
2049.97 5957834 5943058 6002120 5702160 5677338 5592240
2052.87 5496890 5689246 5667034 5341458 5257846 5339644
2055.76 5231750 5131412 4872938 4656112 4506772 4644936
2058.65 4795864 4694880 4392760 4424866 4593546 4460402
2061.54 4291086 3952892 3637386 3560410 3600302 3949896
2064.44 3957256 3929848 4182976 4082254 4003174 4049928
2067.33 3745700 3754364 3916470 3817384 3901054 4060578
2070.22 4098284 4019068 3930958 3762650 3459170 3356982
2073.11 3561236 3981224 4090596 3976000 3946528 3541998
2076.01 3416164 3439334 3474572 3708178 3744240 3769986
2078.90 3772200 3664342 3600418 3435220 3261962 3280278
2081.79 3435842 3607902 3256534 3035048 3514500 3811946
2084.69 3873654 3689142 3184552 3242158 3392566 3492466
2087.58 3667754 4089712 3837396 3142228 3017024 3536722
2090.47 4118320 4090182 3744926 3709956 3518118 3338928
2093.36 3563820 3745630 3552232 3364888 3557708 3403452
2096.26 3129312 3353958 3252220 3214404 3679058 4015882
2099.15 3850622 3710386 3582772 3553090 3553954 3343164
2102.04 3149610 3276872 3286740 3103028 3174408 3117670
2104.93 3015736 2932774 2965618 2767512 2775010 3171244
2107.83 3099548 2889738 2787232 2830640 3043236 2887210
2110.72 2558696 2626054 2598450 2702354 2675002 2518904
2113.61 2778490 2883742 2897424 2876512 2635840 2683274
2116.51 2496960 2271252 2542524 2858058 2304994 1959704
2119.40 2145182 2133928 2197598 2018678 1938886 2149700
2122.29 2475752 2640082 2378942 2113652 2115134 1895360
2125.18 1537150 1799738 2389408 2605872 2186436 1858294
2128.08 1839608 1978900 2022702 1805554 2008384 2075194
2130.97 1935858 1711962 1579856 1780402 2089838 2430588
2133.86 2288946 2125168 2205638 2139802 1896942 1610100
2136.75 1933638 2181298 1888730 1879132 1876388 1803368
2139.65 2078410 2107038 1760676 1927492 2399146 2550320
2142.54 2227082 2139436 2082712 1932794 2096040 2346220
2145.43 2216256 1907106 2102228 2245250 2229752 2323816
2148.33 2319114 2144426 2066428 2114992 2227176 2173688
2151.22 2073700 2119568 2322740 2399726 2264716 2214000
2154.11 2539998 2768928 2566566 2509956 2297146 2278334
2157.00 2253124 2274682 2569230 2661084 2510686 2225808
2159.90 2422120 2860452 2935370 2906248 2838912 2779428
2162.79 2827848 2630050 2577174 2543744 2513180 2715086
2165.68 2763228 2963038 3158902 3078126 2857962 2970968
2168.57 3012366 3022426 3220618 3546156 3521740 3446544
2171.47 3396348 3356236 3547618 3542132 3267252 3086716
2174.36 3222276 3261168 3513026 3999526 4101074 4015258
2177.25 3873992 3738184 3638840 3706624 3577720 3407048
2180.15 3577630 3687446 3402986 3353702 3490492 3965222
2183.04 4327780 4305822 4186254 3878826 3704270 3530522
2185.93 3772640 4157564 4077298 4017912 3910840 3842700
2188.82 3852074 3905070 3980170 3361680 3475222 3914528
2191.72 3936924 3810222 4075272 4243384 3903492 3548274
2194.61 3572490 3667352 3575512 3412850 3616698 3777898
2197.50 3896404 3730044 3573232 3670520 3917306 3964592
2200.39 3991494 3954870 3747324 3429534 3407526 3635818
2203.29 3663484 3844026 3641834 3453272 3761632 3895466
2206.18 3839958 3799410 3719966 3623328 3404050 3194190
2209.07 3539956 3846562 3750744 3535766 3408322 3263124
2211.97 3552788 3597496 3615678 3732352 3653254 3555926
2214.86 3818692 3588034 3349848 3568090 3555578 3250304
2217.75 3251266 3446784 3479984 3386314 3322948 3417548
2220.64 3532588 3647556 3705528 3818292 3430110 3034058
2223.54 3199932 3396912 3076098 2913234 3181750 3404670
2226.43 3534244 3550172 3120052 3134920 3332942 3305976
2229.32 3240564 3133796 3075366 3148352 3227342 3338610
2232.21 3538098 3654082 3545712 3160042 2971572 3010860
2235.11 2875898 2902886 3300982 3468992 3109056 2856320
2238.00 3101606 3327012 3383350 3478434 3483334 3598070
2240.89 3688698 3349988 3229550 3487738 3517036 3331240
2243.79 3117154 2981068 3159448 3254494 3338874 3441262
2246.68 3570122 3561962 3507120 3579182 3328354 3273002
2249.57 3096472 3131444 3465918 3731726 3903472 3799860
2252.46 3369706 3301730 3389682 3214538 3335920 3304628
2255.36 3090766 3216198 3623500 3919426 3896072 3579140
2258.25 3546578 3780692 4051834 4090472 3949790 3826000
2261.14 3923696 4039138 4006006 3815788 3801088 3911578
2264.03 3965860 4106686 4038994 3934134 3971764 3674020
2266.93 3449276 3810640 4178492 4387864 4283676 4204412
2269.82 4279194 4405516 4451188 4442084 4317990 4253796
2272.71 4188764 4389920 4731098 4644088 4739182 4942106
2275.61 4786360 4496754 4532884 4228498 4244162 4477450
2278.50 4234690 4029024 4163146 4558630 5023290 4914692
2281.39 4895136 4624322 4491016 4548312 4547494 4636514
2284.28 4842542 4831920 4590520 4596744 4871790 4795958
2287.18 4840430 4718552 4797286 4904172 4901150 4744626
2290.07 4839974 5197502 4852762 4561228 4737000 4705510
2292.96 4566076 4722388 4994700 5135850 5266750 5059220
2295.85 4391446 4273704 4938226 5507018 5390920 4859238
2298.75 4571714 4720538 4892216 5008384 5129152 4901226
2301.64 4727354 4825276 4989574 5145144 5475304 5464762
2304.53 5443414 5361420 5218844 5047978 5011278 4927316
2307.43 4906742 5409378 5861470 5722998 5770098 5800910
2310.32 5266912 5226984 5368508 5544506 5656124 5732710
2313.21 5578758 5853176 6078086 6131212 5845986 5166892
2316.10 5013106 5556006 5948956 5459026 5313896 5931058
2319.00 6021824 5926202 6105998 6717646 6127462 5500482
2321.89 5868282 6384112 6102732 5896140 6156622 6626062
2324.78 6803268 5943138 5933122 7135790 6667480 5509388
2327.67 6403418 7504986 6561362 5654476 6631368 7442314
2330.57 6487864 5841988 6973748 7412730 6153860 6204480
2333.46 7432264 7084894 5889014 6314968 7327382 6539926
2336.35 5673492 6579592 7126844 5951014 5902238 6888060
2339.24 6433288 5657304 6497008 7013678 5896392 5665390
2342.14 6610042 5992566 5370562 6119976 6466002 6276328
2345.03 6352042 6090490 5456016 5274506 5339412 5030806
2347.92 4749766 4853498 4857060 4968202 4812058 5125044
2350.82 5662904 5309574 5180632 5914912 5509526 4797692
2353.71 5845550 5913456 5205058 5933626 6080332 5583160
2356.60 6385680 6380512 5978094 6781808 6614444 6268870
2359.49 7226678 6444166 5766524 6609104 6090468 6216314
2362.39 6646800 5463790 6286858 6683848 5707778 6471486
2365.28 6211214 6188378 6377568 5692744 6459458 6251080
2368.17 5988944 6472106 6057864 6322042 6123080 5630524
2371.06 5751912 5821150 5975514 5913398 5920342 5988096
2373.96 6194864 6158352 5946538 6007868 5510246 5228846
2376.85 5345672 5417642 5315674 5754994 6068172 6067174
2379.74 6004650 5917192 6083484 6252708 6269784 6309244
2382.64 6010422 5683872 5657330 5806902 6146374 6409692
2385.53 6340166 6114610 6414626 6786356 6697940 6202054
2388.42 6280354 6508820 6268922 5959222 6012320 6232018
2391.31 5979200 6094860 6471126 6266144 6176004 6515004
2394.21 6783296 6526720 6646532 6879072 6510954 6261916
2397.10 6194570 6253988 6749356 7117354 7126688 7304388
2399.99 7071382 6774748 7061652 7348842 7091096 6836682
2402.88 7231996 7690322 7621330 7428528 7393612 7483316
2405.78 7461574 7347040 7306912 7535220 7465922 7311244
2408.67 7435782 7579038 7563426 7524192 7588172 7735378
2411.56 7653896 7553948 7401114 7628924 7566670 7707714
2414.46 7757912 7783492 7762584 7943668 8135392 8008944
2417.35 8106088 8090930 7923866 8027620 8080482 7976092
2420.24 7586900 7409750 7407270 7565666 7684000 7756576
2423.13 7695780 7721408 7657172 7555276 7491554 7235440
2426.03 7202846 7333760 7246396 7101898 7114922 6880394
2428.92 6674690 6971938 7090738 6515358 6253464 6968536
2431.81 7310430 7133432 6874052 6965282 6794942 6335528
2434.70 6072526 6017924 6196552 6394880 6425110 6458782
2437.60 6356954 6071544 5929980 5907460 6120730 6337864
2440.49 6716068 6853006 6406924 6205760 6181302 6301972
2443.38 6075916 5844474 6021824 5883654 5602280 5745076
2446.28 5874168 5709592 5209842 5029682 5250918 5407826
2449.17 5750528 5667352 5463204 5198314 5425034 5910748
2452.06 5911064 5680204 5457160 5371718 4856438 4792000
2454.95 5414250 5384154 5044100 5052882 4899328 4725818
2457.85 4617806 4583366 4881954 4681496 4417118 5091114
2460.74 5500824 5476596 5192972 4704094 4214944 4079190
2463.63 4343170 4660102 4714260 4816392 4803014 4891328
2466.52 4873086 4637474 4861464 5007176 4646764 4163798
2469.42 4386814 4701330 4394380 4252810 4567860 4573416
2472.31 4238826 3736786 3707972 4134260 4235764 4528152
2475.20 4674398 4393246 4205890 4273946 4256294 4352480
2478.10 4147864 4045026 4130978 4087032 3997990 4132638
2480.99 4618748 4480654 4403216 4509054 4185800 3909568
2483.88 3808056 3973982 4301980 4316184 3951548 3807846
2486.77 4042584 3631300 3950690 4705026 4625468 4012016
2489.67 3669372 4137034 4441422 4157810 4189110 4222062
2492.56 4780790 5083620 4720896 4372328 4375368 4045554
2495.45 3896080 4365004 4628348 4315122 4329734 4464442
2498.34 4426420 4119134 4151626 4539884 4573524 4084980
2501.24 3567526 3787326 4132120 4341952 4061298 3964100
2504.13 4266412 4586166 4847800 4613356 4266406 4372892
2507.02 4507840 4491712 4271260 4242882 4391666 4600140
2509.92 4433714 4029878 3935708 4385032 4589590 4496514
2512.81 4654340 4707276 5058498 4893106 4259712 4302222
2515.70 5020946 4553342 4378000 4342334 3746206 3759554
2518.59 4227436 4397716 4401692 4471616 4755360 4785540
2521.49 4636410 4602600 4294252 4438884 4669974 4577432
2524.38 4758454 4980630 4663486 4350240 4635116 4601898
2527.27 4304094 4273112 4497506 4635876 4864728 5275924
2530.16 5126652 4660836 4361974 4583476 5018224 4887100
2533.06 4532588 4676994 5114204 5051010 4472336 4256536
2535.95 4796842 5073932 4980366 5119072 5202110 5000448
2538.84 4563030 4286654 4266048 4327006 4533314 4945158
2541.74 5296150 5068434 4983862 5122882 5115414 4835328
2544.63 5095970 4914996 4740774 4921108 5052342 4953268
2547.52 4957732 5135824 4951954 4924036 5195836 5121510
2550.41 4893936 5087822 5586926 5559822 5110982 5032806
2553.31 5117034 5263162 5380146 5287554 5328288 5358172
2556.20 5444280 5612254 5549268 5107598 4821250 5128684
2559.09 5253866 5165666 5223110 5037150 4895876 5009340
2561.98 5278088 5557744 5599206 5767690 5583184 5298614
2564.88 5491642 5691068 5763752 5715586 5810390 5383292
2567.77 5397486 5980118 5997420 6178992 6241938 5915250
2570.66 6089120 5928120 5367936 5616444 6178156 6116610
2573.56 5881348 5805964 5971292 5963266 6165632 6757010
2576.45 6489644 6483050 6818720 6704698 6581516 6402956
2579.34 6343878 6483260 6885496 7343088 7143958 6323306
2582.23 6004178 6833860 7320398 7245276 6674596 6327304
2585.13 6498134 6670662 7013492 7376882 7409150 7218544
2588.02 7642062 7860710 7914652 7683938 7221406 6634770
2590.91 7238982 7825656 7616398 7471682 7331632 8046972
2593.80 8236672 7728914 7777386 7895666 8035536 7941540
2596.70 8246030 8389408 8290896 8296304 8289518 7972530
2599.59 7949702 8283634 8625920 8606348 8279354 8360406
2602.48 8389130 8202820 8128192 7987854 8189716 8466002
2605.37 8472520 8434578 8512312 8637424 8863266 8944876
2608.27 8780888 8605760 8801744 8536022 8704580 9291400
2611.16 9109540 9104798 9543164 9349328 9491188 9477996
2614.05 9230612 9023816 8986750 9381816 9703980 9493600
2616.95 9359574 9618330 9862484 9774850 9284470 9012380
2619.84 9454546 9799398 9724802 9983684 9701456 9384902
2622.73 9632026 9940858 9965568 9943698 9585878 9750008
2625.62 10148840 10240590 10029070 9867606 10087600 10205360
2628.52 10476820 10628630 10464890 10432500 10569960 10578940
2631.41 10277730 10491610 10717420 10159010 10263360 10805680
2634.30 11380870 11166710 10569840 10033510 10035930 10578740
2637.19 10836250 10698690 10830470 10889360 10889690 10797310
2640.09 11204300 11953300 12231350 12275440 11527740 11067740
2642.98 11387170 11888790 11940880 11835880 11545830 11389900
2645.87 11820480 11982680 11885050 11899950 11927740 12184240
2648.77 13009300 13059840 12175400 11583180 12092880 12564920
2651.66 12811110 12652320 12856390 12969610 12940410 13250340
2654.55 13551190 13597360 13245980 12835330 12829030 13362650
2657.44 13826100 14152790 13890630 13862860 14055470 14180210
2660.34 14763810 15304370 15288510 14786640 14673800 14887310
2663.23 14548720 14853120 15451700 15204940 14900900 15187910
2666.12 15968990 16204370 15630420 15276340 15486000 16213470
2669.01 16374560 16328860 16413460 16311760 16384270 16547170
2671.91 16454590 16587120 16890040 16614000 16426140 16630970
2674.80 16740580 16951600 17199240 17163340 17475890 17652830
2677.69 17641250 17791890 17962850 17959320 17695950 17264810
2680.59 17516560 17604870 17570180 17609690 17883120 18367740
2683.48 18455700 18126420 17978150 17675980 17777110 17770450
2686.37 17513810 17814460 18604510 18591860 18193400 18252160
2689.26 18392090 18764740 18787370 18686720 19020710 19001180
2692.16 18680910 18839140 19288280 18871470 19100210 18987720
2695.05 18823820 18920030 19074320 19537930 19868680 19343510
2697.94 18693490 18936620 19176260 19453380 19633800 19436130
2700.83 19782940 19901690 19425940 19054550 19247130 19928520
2703.73 20190300 20229250 20467240 20341820 19938880 20248750
2706.62 20691030 21055390 21051970 21059580 20958570 20486040
2709.51 20493450 21176980 21395820 21058210 21240390 21580290
2712.41 21953210 22411520 22795910 22835640 22908020 22519170
2715.30 22484930 22915200 23208450 22696570 22078780 22412680
2718.19 22925610 23213720 23494690 23658780 23907230 24084080
2721.08 23999660 23904640 24422070 25133280 24991620 24788420
2723.98 25030410 25006970 25188670 25304740 25969110 26399320
2726.87 26674800 26831920 26793930 27184760 27428050 27210610
2729.76 27154220 27690180 28480000 28850890 29020940 29052320
2732.65 29872430 30428070 30452460 30557360 30955440 31602120
2735.55 31969070 32201380 32825610 33250150 32818150 32679320
2738.44 33533170 33877460 34016420 34205540 35071200 35867760
2741.33 35678270 35280520 35396580 35613060 35896600 36346160
2744.23 36521440 36091550 36283430 36816630 36881640 36907560
2747.12 37088440 37464690 37934010 38256520 38056260 38539740
2750.01 39619200 40138300 39507520 39095430 39371890 39197270
2752.90 38867950 39016820 39657180 39736260 39225720 38668530
2755.80 38566510 38744120 38666290 38760640 38587700 38268660
2758.69 38065380 39180320 39657610 39433180 39280930 39305010
2761.58 39373250 39456850 39246850 39127060 39651550 39900140
2764.47 39913640 39780330 39855180 39577800 39718210 40571550
2767.37 40718820 40389040 40408170 40592570 40979160 40952260
2770.26 41186680 41444200 41472060 41410240 41437780 41850280
2773.15 42130920 41950750 42111690 42725330 43441360 43725290
2776.05 43416140 43246480 43609930 43406570 43451050 43862430
2778.94 44126360 44361990 44618650 44454800 44798260 45128720
2781.83 45283020 45344160 45719160 46228520 46939040 47089980
2784.72 46597440 46508720 47073900 47676380 48282800 48311680
2787.62 48242370 47963480 48083250 48551200 48827280 49358420
2790.51 49847330 49643980 49201110 49430900 49981640 50042620
2793.40 49489600 49116190 49456760 50168900 50297980 49670250
2796.29 50369250 50523840 50477780 50509830 50840140 50575580
2799.19 50247260 50509300 51006450 51190140 50902840 50982690
2802.08 50759110 50363020 50571150 51159010 51262300 51580740
2804.97 51961500 51877910 51485370 51171200 52519600 53331780
2807.87 52965700 52454980 52356230 52998510 53430590 53616270
2810.76 53913560 53905180 53909780 54410440 54824180 55014790
2813.65 55193970 55859440 56561380 56675640 56878000 58197950
2816.54 58849690 59118520 59664960 60079580 60236330 60322080
2819.44 60993100 61777000 62148430 62854520 63818280 64402400
2822.33 65682130 66396790 67258300 68446020 69732330 70696380
2825.22 71167900 71937590 73426340 74624570 75659520 76937210
2828.11 78424700 80044680 81391740 83075920 85105350 86668050
2831.01 88081940 90235660 92447860 94759090 96642460 98205510
2833.90 100388500 102469800 104481800 106517100 108952900 111843300
2836.79 114480900 116504800 118847300 121388700 124913800 128589300
2839.69 132264200 135795000 139014900 142607500 146597500 149852400
2842.58 153556800 158025800 162175100 166126600 170144100 174894400
2845.47 179037100 183164800 187963000 191937300 195757400 201134400
2848.36 206435400 210443100 215275500 219609600 224139900 229708200
2851.26 234927800 239377600 243376900 248407100 254166500 259389400
2854.15 265216700 271591100 277320100 282937100 288650100 294782900
2857.04 301113400 308574200 315741300 321132200 327091700 334273900
2859.93 341511900 348084000 354368500 360759600 368562500 377591800
2862.83 384691300 391206800 399238800 407741100 415826400 423235400
2865.72 431737800 440872000 449520400 457654500 466402700 475312800
2868.61 484546200 493971300 503079200 511991200 522058300 533472400
2871.51 543974100 554522600 565699000 578527200 591634700 604196900
2874.40 617542100 631478700 645591900 659087600 672464900 685683500
2877.29 698856100 709653400 717918500 725034800 731813400 736327300
2880.18 738135500 738838100 737658500 735352100 732714900 729515200
2883.08 725974100 723237900 723244400 727258000 736507600 749529000
2885.97 755223000 745981200 732406700 724385900 721956400 721474000
2888.86 722424300 724941600 728904900 733547900 736912100 739254200
2891.75 739498700 738360600 737252900 733687400 728346500 721474900
2894.65 713416200 704739900 695460400 687153300 678739800 669963600
2897.54 662043300 655003500 647352700 638953100 632651700 626758000
2900.43 620559700 616475000 612711900 609250100 607410900 604716100
2903.32 601799400 600930600 600794600 600200800 599340600 599274000
2906.22 599914600 600240300 601830500 604295400 607361800 610801800
2909.11 614076100 618244600 622127900 626111700 629760900 632717400
2912.00 635980700 640458300 644917900 649830000 655755500 659948000
2914.90 663649100 667701500 671877700 676490500 682417900 687995300
2917.79 692797300 697533800 702076200 706818600 712050100 718745300
2920.68 726417000 733241400 739816000 746887200 753935600 760418200
2923.57 767844900 775538600 782256100 788898200 795586400 802884700
2926.47 811907200 819885500 826366500 832278600 838961400 846319200
2929.36 853866200 860994500 869213100 876323800 881957600 889160600
2932.25 898212200 906873100 914964100 924826300 934858000 943836700
2935.14 951913900 960782700 969605600 977731200 985422300 992380100
2938.04 998563500 1004363000 1008500000 1010881000 1011751000 1013223000
2940.93 1015631000 1017328000 1019818000 1021581000 1021551000 1022106000
2943.82 1021379000 1018125000 1012988000 1007334000 1001834000 996361900
2946.72 992295400 990483600 990849900 990166200 988857300 988634000
2949.61 988710100 988563500 989721200 991035800 991742400 993166100
2952.50 994074800 997015200 1001078000 1003372000 1004181000 1004978000
2955.39 1006020000 1006432000 1007165000 1008401000 1009784000 1011392000
2958.29 1014813000 1017501000 1020112000 1024390000 1028803000 1032166000
2961.18 1037273000 1044775000 1051728000 1056986000 1062803000 1068656000
2964.07 1075685000 1085281000 1099260000 1118397000 1139218000 1159410000
2966.96 1174771000 1179030000 1167085000 1143230000 1117713000 1093685000
2969.86 1071590000 1051671000 1034481000 1019112000 1004071000 992400400
2972.75 985671200 982930000 979833200 972892300 962049100 948988600
2975.64 937447900 927557200 917342500 910081300 901924300 892163300
2978.54 881739600 868618300 853517800 838009200 819162400 797119100
2981.43 773443200 749782700 724805500 699034100 673120500 646114500
2984.32 617117200 588810000 562140100 536203300 510385000 485703100
2987.21 462258300 439286800 416844000 394673400 374134700 355298600
2990.11 337610000 321171900 305095100 289671300 275345300 261849500
2993.00 249447800 237824600 226006900 213560400 202226400 192298700
2995.89 182914000 174214300 166371300 158134400 149970000 142512500
2998.78 135352700 128798400 122696000 116718700 110540600 105116400
3001.68 100110900 94337220 89391530 85279910 80799380 77043340
3004.57 74004830 71161860 67809050 64699180 62166150 58909670
3007.46 55963900 53587570 50848860 48699040 47204700 45117320
3010.36 43475870 42715320 41681490 39814980 38586840 37076970
3013.25 35700220 35100000 34399930 33885970 32807760 31479810
3016.14 30518420 30170940 29889730 28907360 28088970 27768820
3019.03 27099060 26608810 26380220 26199560 26515270 26231540
3021.93 24825050 24579240 24522950 23808020 23404970 23781710
3024.82 23820950 23041940 22332510 22588210 23533770 24070200
3027.71 22851820 21508860 21416030 21667870 22051580 22243910
3030.60 21834690 21813490 21319800 20654870 20548430 20768590
3033.50 21331310 21593950 21601540 21252150 21433490 21547270
3036.39 20717340 20708340 20975410 21513800 20908810 19548100
3039.28 19758550 20940520 21147770 20936500 20540250 20716060
3042.18 20839400 20327130 20049440 20390490 20738210 21113750
3045.07 20935820 20061870 20130640 20608580 19999220 19751020
3047.96 19808360 19773950 19418620 19626520 20031330 19888890
3050.85 19459470 19142550 19774510 20073860 19489430 19652120
3053.75 19686340 19320250 18871020 18544350 18594370 18409860
3056.64 17805300 17658380 17544250 17209320 17281860 17402420
3059.53 17546700 17868250 17756330 16735330 17255730 17604560
3062.42 16578130 16084900 16716070 16986200 16953850 16762260
3065.32 16034540 15384740 14950460 15048760 14890580 14653770
3068.21 14802880 14618180 14046790 13662690 13799610 14041160
3071.10 13846430 13473810 13336420 13347270 12922830 13029420
3074.00 13331830 12757980 12357390 12644590 12358820 11887120
3076.89 11675200 12014150 11687470 10766420 10644400 11507260
3079.78 12036550 11579920 11593190 12655940 12679320 11715120
3082.67 11147000 11149910 11402610 11273890 10836290 10828840
3085.57 11523170 11260880 10590660 10413400 10528870 10405650
3088.46 10840350 11042000 10347590 10078190 10398350 10707970
3091.35 10439280 9845364 9448158 9935758 10635780 10836980
3094.24 10892080 10594720 10394810 10264670 9910672 10001980
3097.14 10093620 9891298 9921324 9761500 9614314 9995626
3100.03 10581220 11183170 10440090 9663856 9837896 9167894
3102.92 9231086 9910508 9588480 9198774 9002424 9314856
3105.82 9837908 9585544 9076084 9331342 9726006 9709088
3108.71 9423808 9662454 8946798 8574870 9351056 8750022
3111.60 7878732 8727658 9186444 8500280 7925112 8322748
3114.49 8672988 8625654 8730640 9095420 9484664 9408828
3117.39 9037796 8707760 8723378 9008146 8146616 7662586
3120.28 8780708 9572970 9247456 9002740 9326596 9321884
3123.17 8985634 8944248 8185164 7812118 8220328 8741466
3126.06 8828516 8475696 8244054 8668996 9107886 8967708
3128.96 8863126 9014538 8998006 9062436 8759762 7970368
3131.85 8564304 9367892 8791386 8555500 8922608 9131888
3134.74 9146608 8541832 8162746 8260970 8857776 8829180
3137.64 8452048 9014640 8659524 8769570 9498894 9364140
3140.53 8765162 8505642 8839358 8343290 8068476 8293264
3143.42 8379578 9338442 10153820 9486864 8424748 8655536
3146.31 8812254 8458728 9245194 9018554 8048414 8228614
3149.21 9266672 8917746 8359818 8893610 8702808 8226790
3152.10 8509994 8730548 8758918 9150516 9423376 9480292
3154.99 8723638 8487612 8998556 8984822 8523340 8361634
3157.88 8219460 8220274 8766076 8985314 8395156 8238480
3160.78 8892216 8991810 8917722 8557920 8258296 8163324
3163.67 7764592 7743780 8721578 9448762 9432574 8704182
3166.56 8511878 8750546 8666610 8741564 8829674 9013134
3169.46 9158538 8835756 8687264 8735880 8271488 8138738
3172.35 8442664 8630770 9150556 8874908 8410100 8517044
3175.24 8589434 8882094 8849938 8588946 8732242 8125206
3178.13 7942026 9133716 9762628 9132288 8709164 8865210
3181.03 9422330 8999416 8077930 7756032 8774372 9704264
3183.92 9074156 8794448 9687968 10226780 9335404 9015292
3186.81 9223808 9426262 9484012 8742814 8800856 9382498
3189.70 9860314 9778758 9833034 10425150 10061540 9475722
3192.60 9522698 9335184 9407638 9447930 9912436 9948540
3195.49 9764006 9883222 9960414 9807000 10139550 10358120
3198.38 10191590 10024630 9790102 9465628 9019730 9090884
3201.27 9245902 9440492 9476440 8789628 8408028 9285578
3204.17 9778830 9485648 9595040 9365302 9588056 9325596
3207.06 8277994 8180702 8922126 8908644 8284510 8295696
3209.95 8721608 9277422 9064770 7560876 7395304 8680768
3212.85 8967302 8479188 7905934 7450388 8282224 8809534
3215.74 7969760 7552120 7749920 7391574 7035732 7162784
3218.63 7005604 6602462 6944118 7157546 7536644 7399596
3221.52 6275110 5800698 5924602 5680508 5264952 5092354
3224.42 5675696 5778592 5834076 6101782 6410196 6227712
3227.31 6180282 5958494 5212528 4639680 4912022 4657728
3230.20 5064386 5374864 4681382 4940678 5159548 4964530
3233.09 4537234 3818368 4221072 5397204 5825422 5481732
3235.99 4474196 4890666 5118626 4108014 3169284 3116616
3238.88 3286344 3771962 4373308 4703068 5019926 4856314
3241.77 4283982 3688182 3769998 3848356 4236524 4145838
3244.67 2986856 3159408 3945864 4500898 4696092 4397508
3247.56 3560280 3025964 2664880 3200372 3354900 2987682
3250.45 3315982 3493180 3432586 3521036 3567358 3207480
3253.34 3015130 2819304 3248512 3334606 2962994 3603806
3256.24 3709782 3017002 2794758 3135386 3059212 2597838
3259.13 2925818 2897834 2870004 3358268 3605192 3365250
3262.02 2199362 2034734 2891278 2952744 2960974 3359080
3264.91 3444200 2691100 2854686 3322002 4098550 3569982
3267.81 3676596 3549158 2856702 2519990 3326970 3408610
3270.70 2291280 2020620 2837232 2948774 2528202 2348820
3273.59 2429496 3382152 3333284 2912492 3142776 2595150
3276.49 2280964 2786684 3617584 3029710 2277814 2960866
3279.38 3552428 3242794 2774356 2408128 1859254 1302136
3282.27 2192950 2932886 2603238 3283198 3660486 2912646
3285.16 3520160 3331752 2595404 3001112 3520832 3161176
3288.06 2773662 2122652 1503052 1968754 3101572 2611514
3290.95 2103336 2780368 2371054 2160274 2916784 3119272
3293.84 3167996 3624944 3790874 3497404 2839672 2512198
3296.73 1992064 2126514 3539774 3872228 3302382 3085830
3299.63 3166680 3131710 2787348 2166104 2274022 2814818
3302.52 2647192 1981602 2277598 2539802 2562268 2770704
3305.41 2688904 2664994 3226784 3489132 3911040 3634798
3308.31 3192238 3019410 2646006 3125886 3397610 3082098
3311.20 3337058 3356788 2813564 2830050 3631832 3577590
3314.09 2966648 2393124 3356376 4141128 3697000 3141990
3316.98 4245766 5154850 4223826 3149134 2588214 2907200
3319.88 3278832 3138098 3127890 3720496 3680330 3211730
3322.77 3239130 3884424 3788996 2950654 3403614 3924422
3325.66 3225804 2700484 3103016 3093022 3344356 3241746
3328.55 2707378 2834386 3791742 3852916 2742354 2561058
3331.45 2365224 2307064 2407424 3465778 3379374 3036958
3334.34 3478820 3264224 2495508 2855754 3449014 3187594
3337.23 2484692 3200092 3857288 4040730 3343208 2607206
3340.13 2285862 2566838 2877246 2927592 2982316 2477380
3343.02 2700838 2699428 2795792 3208320 2628034 1794440
3345.91 2435168 2686404 2074358 2421810 2825924 2626134
3348.80 2151442 3028484 3211144 2687940 2754534 2432282
3351.70 2764682 3325238 3412786 3196926 2220538 1463340
3354.59 2375422 3244832 3186464 2627972 2174924 2322532
3357.48 3226466 3368338 3391360 3676372 3290214 2828962
3360.37 3008474 2827422 2411702 2733762 3757470 2971262
3363.27 2683458 3178510 4051232 3844924 2681220 2478534
3366.16 2416786 2100986 2718832 3214886 2785426 2396190
3369.05 3196978 4360324 3895318 2815594 2591462 2555948
3371.95 2524896 2887482 3592702 2941222 3006106 3703078
3374.84 3483720 2431176 2495084 2727682 2568868 2874230
3377.73 3068298 3000146 3443780 3507240 3191036 3556926
3380.62 3063368 2660456 2892884 2978934 3447722 3910420
3383.52 3123030 2449352 2897132 3741676 3237278 2546970
3386.41 2865028 3164490 3267976 2975312 2418222 2268948
3389.30 3030446 3407458 2601790 1780206 1934188 2919218
3392.19 3791676 4171596 3843120 2875420 3300974 3299322
3395.09 3355072 3442216 3509716 4440820 4287602 3919976
3397.98 4064210 3678140 3580768 2525142 2930920 3397006
3400.87 3578852 3328246 3477452 2657040 2255800 3441390
3403.77 3715612 3542068 3633800 3824878 3718776 4083518
3406.66 3562236 3329686 3048064 3445032 4309370 5190188
3409.55 5410222 4776388 3840648 3212502 3358612 3906374
3412.44 4171358 4299748 4291410 4677336 5608582 5848772
3415.34 5300060 4312458 4093946 4218710 4681174 4792490
3418.23 5185826 4920364 4185606 4929002 5599004 6194890
3421.12 5465696 4901560 5347454 4267950 3367784 3231330
3424.01 3694136 4208510 4523732 4970628 5339872 5025176
3426.91 3933188 4316800 5270302 5435520 4900804 5220828
3429.80 6494948 7034416 6704028 6240374 5667734 4763396
3432.69 4715686 5270864 5351358 4922174 5093430 5342868
3435.59 5605988 5068984 4376848 4653870 5135428 5256502
3438.48 5728330 4920714 4029392 4980180 6106364 6309486
3441.37 6764638 7388610 6805280 6326840 6532124 6183964
3444.26 5628152 4912842 4181722 4401866 4826426 5126624
3447.16 5670578 6067882 6378612 5675174 5241262 5820382
3450.05 6513848 6737876 6396384 5824538 5480188 5198812
3452.94 4739764 5106150 5779274 5895086 5499194 4664776
3455.83 5122234 6183644 6208586 5880498 6114232 6214394
3458.73 6025926 6039238 5945244 5627922 6371116 6903520
3461.62 6663274 6913446 7108522 6409118 6137420 6592692
3464.51 6558600 7070354 7408952 7351222 7163966 7045896
3467.40 6669900 5289960 4671760 5314526 5821622 5934526
3470.30 6459058 7039324 6987902 6627440 6153898 6249394
3473.19 7571192 7876522 7115356 7231604 7021208 6791702
3476.08 7297226 6723934 6006360 6402434 6912668 7038766
3478.98 6556372 6192930 6372650 6704426 7030032 7087982
3481.87 7613230 7099000 6373446 6979188 7396502 7165108
3484.76 6243308 6347846 7160836 7172338 7349732 6824806
3487.65 5723392 5639284 6188640 6217162 6461556 6647824
3490.55 6233414 6211890 7251794 7754604 7611114 6809090
3493.44 6684806 6783676 6082790 5734268 5755944 6187426
3496.33 5739402 5505482 5859248 5290742 4872566 5533480
3499.22 5682492 6167700 6273098 5667088 5167220 5198602
3502.12 5718062 5919930 6327638 6061594 5412314 4828474
3505.01 4913724 5621874 5670734 3916316 3693360 5015316
3507.90 5192750 5711384 5601822 5754982 6430750 5590678
3510.80 5334052 5471786 5244122 5096486 5017064 4791448
3513.69 5379938 5450546 4680152 4748716 5094524 5043902
3516.58 5262220 5227182 4852624 4302732 4956500 5397608
3519.47 4903812 5121760 5855628 5794456 5227656 5028828
3522.37 5521400 5381382 5086724 4828450 5472966 4789964
3525.26 3818934 4468860 5580330 6085768 5793834 5573564
3528.15 5427574 4820290 4998662 4965648 4406356 5470680
3531.04 5781554 4843536 4804468 5647480 6242090 5979564
3533.94 5494082 5172450 4920770 4577792 4535224 5528456
3536.83 6079958 5852550 5909840 4214412 2713580 3660252
3539.72 5011878 4531912 4637162 5173140 4895248 4614204
3542.62 5030406 4368224 4681096 5102494 4004820 3543272
3545.51 4673358 5447380 5071216 4941976 5635586 5932152
3548.40 5125850 5361388 5929770 5375858 5070956 4602808
3551.29 4587906 4752138 4723048 4824176 4732340 4875520
3554.19 4242214 4140458 5320122 5857014 5475318 5394312
3557.08 5473228 5413544 4405950 4632736 5725624 5251364
3559.97 4398200 4112694 4188594 4842584 5405892 4966034
3562.86 4847108 4609566 4874386 5289320 5288756 5219100
3565.76 4724456 4697296 5625276 6379696 5882062 4764902
3568.65 4651814 5236028 4976694 4062328 2831870 3802958
3571.54 5220422 5109664 4989000 5139398 4961372 4197746
3574.44 4154882 4469784 4961184 4946494 4384138 3824180
3577.33 4791786 5787714 5048756 3998778 4112612 4723820
3580.22 5574056 5725828 4770788 3746810 4211034 4744416
3583.11 5000322 5570702 6026822 5267116 4421236 4759016
3586.01 4786750 4206766 4633292 5335690 5654800 5956432
3588.90 5541356 4627658 4422180 4314322 4387706 4568828
3591.79 4556100 5736042 6701200 6230066 5800434 5364004
3594.68 5263812 5006986 4950138 5344562 5391998 5868428
3597.58 5781830 5156262 4672244 4956652 5605932 5564050
3600.47 5747772 5976380 5386212 6042388 6728610 6466744
3603.36 5775510 6185150 6558558 6190910 6338628 6722292
3606.26 7005740 6740940 7622966 7733292 6506118 7151176
3609.15 7352788 6920942 7769592 8109182 8260950 8474050
3612.04 8225532 7751150 6980306 7100810 8220936 8615026
3614.93 8237212 8139138 8560970 8985748 9837706 10432810
3617.83 9560340 9540484 10773080 11417230 10194270 10602020
3620.72 11117380 11426480 12408000 12178540 11938220 12301170
3623.61 12513740 12789610 13115710 13101160 13536920 14334480
3626.50 14898740 15188130 16488910 17090430 17282470 18389900
3629.40 18709020 18228150 18048750 18599520 19737940 20467130
3632.29 21800970 22702460 23133540 24425440 25178830 25719040
3635.18 27131240 28395400 29025090 29620890 30340280 31073160
3638.08 31856840 33021910 35212480 37247810 38131960 38858520
3640.97 39892210 42511980 45452350 46681510 47806110 50311010
3643.86 52703290 54330520 55945800 57595540 59500040 62728130
3646.75 66176520 68339370 70247130 72889160 76856940 77803440
3649.65 77781180 80145820 83471220 86013420 87636780 88375360
3652.54 90535420 94114940 96745220 99286020 102329400 106252600
3655.43 109838500 110019800 108201700 107733200 108796600 111134800
3658.32 113978900 116509200 118492000 121971800 125604800 128834200
3661.22 131941800 136213000 139485300 141984800 144408100 147006100
3664.11 149886200 153158200 155952000 158567800 161374800 164344500
3667.00 166325600 168355600 171560200 173173600 173347800 174565600
3669.90 177723800 178909200 176816800 175097500 174160600 173594100
3672.79 171691500 168671000 166287900 164831200 162621300 161046300
3675.68 158101400 153069500 150325300 149887500 150498400 153183800
3678.57 157492700 158281300 151785300 145386300 141957600 139404000
3681.47 138842800 139986100 139065600 137030000 135574000 133952300
3684.36 130833400 127413400 124126100 120855500 117698000 112897200
3687.25 107453800 104337600 100112100 93182720 87303230 82570190
3690.14 77647740 72778520 68386660 64388920 61002040 57061690
3693.04 53757910 51200610 48634730 46877320 45136200 42575820
3695.93 39369000 37424050 36604230 34772020 33319070 32015100
3698.82 30835660 28750070 27038080 27228230 27124770 26111550
3701.72 23959920 22132190 21094170 20117110 19554280 19078210
3704.61 18419610 17898150 17551150 16594680 15080330 14521860
3707.50 14756010 14714750 14409860 14313040 13264440 13233600
3710.39 12794270 12739630 14353890 14792580 13112360 12460360
3713.29 11557180 10474700 9750534 9694886 10471040 10892980
3716.18 10111200 9444824 9174328 8791408 9182948 9675508
3719.07 9686522 8902600 8646130 9490038 9282986 8821788
3721.96 9382552 9713994 9450242 9166410 8946806 9042750
3724.86 8873954 8964262 8911208 9015480 8598738 7539662
3727.75 7416656 7585024 7030270 7056832 7483980 7904112
3730.64 8535246 8739150 9688658 9793598 8434218 7817174
3733.54 7694830 8199758 8444588 8232474 7922442 8280364
3736.43 7943726 6494156 6629462 7644074 7897392 7819788
3739.32 7975072 7662466 7460990 8117258 8379944 7960694
3742.21 7886646 7780484 8280014 10997050 12714320 10350130
3745.11 7814036 7219824 7052106 7359998 7062850 6928402
3748.00 7636982 9953122 11275750 8974108 7119828 6637142
3750.89 7309368 9566300 10511980 7348214 5785634 6106644
3753.78 6196326 6074526 6799384 7298834 7787136 7986916
3756.68 7035724 6409832 6872978 7102628 7252798 8238116
3759.57 7643286 6428728 6366590 6939314 6941560 7078090
3762.46 6521408 6246190 7207994 7171140 6999148 6679786
3765.35 6737420 6594248 6728804 6480298 6464332 6898948
3768.25 6776066 6739750 7264922 7704654 6629006 6242490
3771.14 6615320 6725340 6833430 7463878 7663072 7383048
3774.03 7545358 7574722 7003192 6482264 6612242 6717698
3776.93 7003008 6544350 7008840 8282766 8900440 7930380
3779.82 6600144 6446068 6607086 6269096 6578354 6646012
3782.71 6665608 6776556 6481226 7387020 7936842 7298402
3785.60 6892614 7250806 7665938 7432848 7253676 7107524
3788.50 7337564 7380294 7280400 6622108 6202618 6686204
3791.39 6799644 7192016 7672354 6631834 7122540 7312376
3794.28 7126182 8047252 8107808 8217074 8599020 7919434
3797.17 7403966 6915452 7123272 7489702 7566412 8022178
3800.07 7654268 9436958 11124820 9629982 8801606 8425288
3802.96 7769384 8471828 8046914 6235824 5364586 6406674
3805.85 7996330 9264680 8813864 7829026 7348824 7237096
3808.75 7817786 8150058 7795394 7141284 7207342 7606842
3811.64 7879460 7448486 7010266 6771760 6861488 6889800
3814.53 7359918 9320190 11861220 10908570 8617944 7817728
3817.42 8427372 8593904 8189188 8214578 7645316 8313238
3820.32 10196440 9941972 9432746 8782662 8915324 9229388
3823.21 8732852 8528584 8612982 8946394 8683384 8601686
3826.10 8266154 8263312 8158846 7638878 7577276 8540752
3828.99 9034064 9002240 9599994 10076660 10262940 9608390
3831.89 8569442 8522334 8786960 9708274 10701510 12176180
3834.78 11943920 10448310 10049210 9747548 9760458 12347860
3837.67 12473760 10356380 10121680 10239330 10413840 10292880
3840.57 10247110 9870688 10238510 10007770 9545082 10009670
3843.46 9904130 9757814 9897128 9406724 9590822 9859784
3846.35 10663730 10385080 10244220 10498500 10642020 10781400
3849.24 10548180 10340200 10270000 10539470 12352210 13785340
3852.14 12417840 11593440 13094010 15161930 13973640 11463440
3855.03 11538850 11705400 11023150 10683370 10760470 10734310
3857.92 10811310 10241130 9420816 9637460 9691880 10188370
3860.81 11282040 11496280 10691430 10092440 10096570 11121650
3863.71 11950360 11856210 11966120 11699660 10333910 10028980
3866.60 10859880 11140080 10557570 9703816 10965280 12510750
3869.49 13491990 12726350 11298460 11489250 11163730 10894260
3872.39 10929160 10946470 11574700 11572890 11170150 10857500
3875.28 10390140 10343390 10558160 11043000 11156550 10533190
3878.17 10144370 9500876 9963664 10587850 10448660 9732604
3881.06 9503186 9391694 9185002 9130596 9141356 9482124
3883.96 10194740 10520220 11304520 10443590 8389618 8339390
3886.85 8594556 7944826 7758260 8689712 8779780 8371796
3889.74 7787442 8596212 10140580 9771416 8884550 7796956
3892.63 7435366 8119010 7818614 6513986 6762000 7051206
3895.53 7197234 7929110 7975452 7138498 6455168 6738586
3898.42 7338668 7479052 6771286 7175774 7001920 7139786
3901.31 7884600 7067286 6569462 6859292 7660792 7702722
3904.21 7066404 6963200 6805936 5374036 5412358 6422516
3907.10 6710900 6565704 6841536 6020776 4972012 5255826
3909.99 5852126 5870150 6187064 6021292 5790502 6219874
3912.88 5944374 5606834 5366260 5417472 6159358 6072202
3915.78 5164388 5393190 6649750 6702446 5920680 5289682
3918.67 5463460 5721840 5381778 5046026 5047688 6331280
3921.56 6412260 5749170 6508716 6897402 5883038 5313010
3924.45 5265232 5407712 5899064 6340930 5311246 4543044
3927.35 5031308 5059484 4925376 5666768 5552546 5686042
3930.24 6202654 5670860 5297736 5491696 5997834 5587750
3933.13 5269476 5492746 5282474 5042762 4056036 3608996
3936.03 4098428 4838728 5314236 5653784 5440252 4459934
3938.92 4318288 5044416 5741432 6254712 4919718 4122872
3941.81 5522148 6082938 5365900 4936674 5412492 5603354
3944.70 4951208 4134822 3969106 4472616 4988536 5173008
3947.60 4962880 4202620 3973968 4565068 4920720 4158712
3950.49 4035138 4623218 4897906 4978596 5613560 6328396
3953.38 5543148 5165562 5023894 4747306 4499248 4847980
3956.27 5199146 5568242 5324820 5286274 5866644 5583498
3959.17 4536804 4441736 4614554 4116970 4461898 5613812
3962.06 5383856 4733130 5251210 5035386 4591722 5077068
3964.95 5515486 4916848 4323684 4723396 4877004 4770908
3967.85 5030894 5709682 6020442 5755840 5700104 5954524
3970.74 6356832 6075648 5486720 5273498 5373858 5572746
3973.63 6113202 6559508 6442184
##END=
