##TITLE=1-Butanol
##JCAMP-DX=4.24
##DATA TYPE=INFRARED SPECTRUM
##CLASS=IUPAC A
##ORIGIN=NIST, Anayltical Chemistry Division, 301-975-3108
##OWNER=COPYRIGHT (C) 1998 by the U.S. Secretary of Commerce
##DATE=98/10/1
##$SPECTRA VERSION=1.00
##$UNCERTAINTY IN Y=2.0 % relative (B=1.0E-04,C=2.6E-10,D=2.7E-14)
##CAS NAME=1-Butanol
##CAS REGISTRY NO=71-36-3
##MOLFORM=C H3 C H2 C H2 C H2 O H
##MP=-89.53 C
##BP=117.25 C
##$NIST SOURCE=QUANT-IR
##SPECTROMETER/DATA SYSTEM=IFS66V (Bruker)
##INSTRUMENT PARAMETERS=KBr Beam splitter; MCT Detector; Multipass cell
##STATE=gas
##SAMPLE DESCRIPTION=1-Butanol Primary Gas Standard
##PRESSURE=101.3 kPa
##TEMPERATURE=23 C
##SAMPLING PROCEDURE=1 L/min Flow
##RESOLUTION=1.9290
##DATA PROCESSING=3-Term B-H Apodization
##XUNITS=cm-1
##YUNITS=(micromol/mol)-1m-1 (base 10)
##XFACTOR=1.0
##YFACTOR=4.5474E-13
##DELTAX=0.9645
##FIRSTX=574.687
##LASTX=3974.595
##FIRSTY=3.14E-06
##MAXX=3973.63
##MINX=574.69
##MAXY=.0005281
##MINY=8.32E-07
##NPOINTS=3527
##XYDATA=(X++(Y..Y))
574.69 6912824 8039662 10252080 10184650 9376390 9125886
579.51 8316822 7043888 7237028 8011568 8417140 9158220
585.29 8977552 8106320 8515496 9566438 9146224 8735486
591.08 9736774 9291902 6897050 5344192 6319250 8473830
596.86 9652448 9894674 9618046 8885802 7869832 7499868
602.65 7986164 8431288 8012892 7457180 8270826 8944566
608.44 8254036 7141724 6528002 7005482 7779924 7997320
614.22 8376990 8613158 8461780 8634576 9077084 9311894
620.01 9233230 8263656 6927080 6787900 7733700 8756618
625.79 10084450 10530610 9145832 7469824 7135432 8455282
631.58 9357028 9185628 9195880 8834876 8199794 8209544
637.36 8364254 8622084 8904726 8737252 8695434 8145248
643.15 7526836 7878584 7868298 7763898 8345778 8642452
648.93 8588822 8635408 8492148 8201866 8475140 8524364
654.72 7792210 7570960 7972444 8505368 8654008 8484648
660.50 8729918 9064034 8999880 8513032 8018082 8051250
666.29 8443358 8452082 8099616 7706208 7014702 6768966
672.08 7286640 7672962 8093996 8086344 7484940 7510688
677.86 7466540 6912694 6870058 6950334 6792504 6874914
683.65 7244870 7743250 8151490 8281980 7658824 6562944
689.43 6599916 7049372 6801912 6675300 7062720 7642420
695.22 7910616 7531698 7013220 6696594 7243892 8156372
701.00 7843860 7139974 7270976 7622858 7811910 7887956
706.79 7708264 7706536 8251530 8858314 9105488 8911320
712.57 8804488 9449092 9917856 9710886 9865380 10234230
718.36 10305250 10755520 11317930 11669670 12495450 13307010
724.14 13905840 14264000 14396600 14851400 15542900 16148900
729.93 16841970 17558470 17971830 18193650 18450190 19200630
735.71 20198750 20802180 21506420 22711230 23197470 22090630
741.50 21059170 20777040 20639140 20356200 19842210 19923930
747.29 20210360 20030150 19638820 19003170 18771650 18704180
753.07 17925430 17078510 16454120 15975240 15702600 15517730
758.86 15029990 14297590 13623070 13096890 12840360 12419990
764.64 11808320 11240490 10635280 10559050 10620390 10155320
770.43 9754962 9545180 9352950 9275718 9168726 9274070
776.21 9472282 9371640 9350468 9522708 9721338 9929566
782.00 10314150 10277650 9473236 9099490 9395954 9952510
787.78 10867150 11524150 11772210 12396640 13379230 13504430
793.57 13124410 13041580 12934850 13074250 13799850 14524730
799.35 14566050 14675430 15194880 15274090 15280560 15999930
805.14 16454290 16014700 15925540 16494720 16700870 16565760
810.93 17093900 18003190 18380430 18486960 18534160 18693170
816.71 19294850 20530890 21521110 21379130 21238070 22166530
822.50 23370940 24451870 26133640 27787560 28832620 29961220
828.28 31194660 32743310 34933380 37147650 39279580 41185640
834.07 43274990 45818760 48147340 49722780 50801610 52165160
839.85 53455000 54019700 53670980 52859010 52403100 52298520
845.64 52562570 53255860 54173380 54914420 55432820 55935640
851.42 55964150 55185540 53849570 52308160 50724630 49094720
857.21 47381680 45568780 43676020 41771050 39918820 38065110
862.99 36163620 34397490 32816720 31143660 29608260 28534220
868.78 27659480 26827670 25882580 25026490 24336680 23652260
874.57 23234330 22638040 21872090 21777940 21736090 21321570
880.35 20928990 20624590 20550340 20734580 21119050 21631370
886.14 22213530 22777790 23276510 23941210 24943570 25989480
891.92 27007510 27716840 27859830 27987600 28227660 28365250
897.71 28465730 28662250 28932970 29223750 29800190 30414570
903.49 30942450 31796390 32749570 33043560 32944100 32872930
909.28 32532010 32205450 32130750 31717990 31266790 31379320
915.06 31601360 31921600 32797640 33877490 34999120 36466640
920.85 38153440 39905730 41761830 43673540 45967460 48709660
926.63 51441050 54070750 56915980 59993590 63371190 66821920
932.42 70184190 73552330 76788840 80344230 84355130 88408020
938.21 92457300 96308360 99957560 103513100 106240800 108459000
943.99 111251000 113907900 115404000 116307900 117535000 119287900
949.78 120974100 121609600 121684100 122059800 122179700 121492900
955.56 120253400 119034100 117975600 116785900 115312700 113331700
961.35 111118000 108968700 106671000 104136700 101614700 99295340
967.13 97078000 94836660 92586760 90482600 88956860 88217940
972.92 87921180 87658970 87677290 88470260 89918060 91745670
978.70 93855900 95815600 97515030 99175280 100706500 101734500
984.49 101845300 100996200 99921360 99930850 101668400 105012800
990.27 108816300 112084500 116314900 121938200 127050400 130437200
996.06 132435400 133566200 133976000 133878700 133650300 134140700
1001.85 135831100 138486000 141675800 145263600 149556300 154187200
1007.63 158295100 162323000 167485900 173487800 179340900 185056800
1013.42 191297800 198000000 204647600 211319000 218636700 226716400
1019.20 235096800 243634200 252102200 259908400 266940700 273545000
1024.99 279917700 286480500 294169200 303337700 313345700 323905300
1030.77 336342100 350736600 365640200 380887900 396541900 411201300
1036.56 423342800 432642800 439794700 445108600 448100100 448199200
1042.34 445885200 443561500 442253300 440250700 438296600 439410100
1048.13 443175700 447098800 450793200 455447100 461531000 467694000
1053.91 471747400 472256700 469343500 464290200 458774500 454115300
1059.70 451137300 449820500 450288600 453895400 460030000 464774600
1065.48 467828300 472917200 479732200 484341300 484838500 481858800
1071.27 475819500 467462600 459281800 453328700 448883100 444372900
1077.06 439051400 431267200 418885500 402552300 385487700 369085400
1082.84 352921500 336777000 320466200 303929300 287389400 271861900
1088.63 257592100 244165400 232322500 221561000 210927100 201056500
1094.41 192247700 184122800 176255500 168365400 160993200 154373000
1100.20 147606800 140568900 133870100 127831100 122045700 116427200
1105.98 111673500 107426100 103327200 99931820 97283380 94633310
1111.77 91625700 88626770 85929360 83438620 80970950 78666330
1117.55 76455120 74040360 71548930 69300030 67238300 65254000
1123.34 63377780 61546390 59847370 58400930 56993110 55396960
1129.12 53633910 51971280 50459070 49207930 48126620 46949860
1134.91 45846390 44880850 43893580 42932650 42095490 41294450
1140.70 40552470 39878600 39160560 38637870 38299920 38019270
1146.48 37845850 37735010 37688170 37491950 37072470 36903480
1152.27 36952530 37038890 37230140 37350320 37361830 37579200
1158.05 38010510 38331660 38777140 39347420 39745490 40105990
1163.84 40691300 41544320 42345310 42919130 43511630 44349080
1169.62 45252950 46062480 47009220 48104530 49180980 50287010
1175.41 51554130 52889700 54139900 55250710 56401140 57866340
1181.19 59448440 60850020 62352700 63976920 65594980 67411820
1186.98 69370600 71385170 73637900 75998340 78075840 79833120
1192.76 81602260 83595550 85692670 87643900 89451360 91013990
1198.55 92388360 94034340 95868270 97450140 98964970 100565600
1204.34 102046200 103344300 104679500 106064000 107041700 107549400
1210.12 107953500 108318700 108457300 108392000 108310800 108056600
1215.91 107607400 107003300 106046200 104710400 103212700 101672600
1221.69 100027500 98625180 97556760 96396990 95120420 93599020
1227.48 91739140 89813020 87834660 85815220 83831770 81979610
1233.26 80349660 78761260 77265780 76057060 75087950 74296710
1239.05 73644710 72993350 72416420 71937900 71474310 71187260
1244.83 71075220 70925740 70762300 70793300 71217210 71585500
1250.62 71739480 72080460 72607620 73164260 73565840 73968490
1256.40 74503540 75218070 76002330 76570360 77096020 77742940
1262.19 78472240 79296970 80212310 81053530 81569820 81612070
1267.98 81575420 81872030 82403300 82860260 83143660 83603350
1273.76 84318260 84886980 85156550 85070570 84754130 84597460
1279.55 84407340 83917460 83382600 82908090 82250020 81388580
1285.33 80618340 80038760 79376780 78473120 77676860 76942340
1291.12 75789590 74410660 73055120 71753230 70428900 69100280
1296.90 67974460 66878940 65575840 64277420 63086270 61874840
1302.69 60660980 59585560 58806030 58258410 57747640 57263580
1308.47 56875670 56419700 55872660 55469760 55184370 54715480
1314.26 54317700 54350550 54463760 54319440 54169410 54266820
1320.04 54534290 54974830 55519090 56031060 56588060 57308540
1325.83 58253140 59184310 60264710 61884180 63686280 65349700
1331.61 66766060 68029920 69392540 70723800 71758430 72491450
1337.40 72994420 73442940 73871580 74201180 74535460 74873340
1343.19 75160160 75258380 75137080 75194760 75427370 75482040
1348.97 75401710 75407100 75467740 75430580 75235930 74947090
1354.76 74844950 74844460 74743430 74892260 75366420 76067540
1360.54 76928300 78039330 79770820 82142100 84884500 88094900
1366.33 91900040 96291300 101194800 106557600 112367100 118676000
1372.11 125593700 132672400 139312300 145624700 151637800 157009100
1377.90 161659300 165312800 167985700 170861300 175480000 181932100
1383.68 187358400 188897800 188590500 190354000 194238500 198100900
1389.47 200152100 199325200 195967500 191355900 185556600 178176400
1395.25 170148800 163010700 157227200 151749200 145751200 139321500
1401.04 132762200 126211800 119501600 112467900 105380200 98789070
1406.83 92822970 87339030 82518340 78286680 74366500 70784420
1412.61 67659140 65069690 62881520 60896640 59173940 58151050
1418.40 57463030 56049090 54554120 53892960 53575530 53206600
1424.18 53121710 53404040 54043760 54945710 55837260 56766450
1429.97 57899150 59207240 60332310 61107930 61943480 63569620
1435.75 66117580 68691180 70678990 72258320 74279520 77247110
1441.54 80812860 84676860 88538500 91994460 94963650 97673600
1447.32 100255900 102785800 105269800 107745200 110367700 113032500
1453.11 115505000 117972300 120816000 123273900 124959800 127218000
1458.89 130317600 133660800 136685600 139338000 142137200 144088100
1464.68 143477800 141201600 138870500 136313400 133440300 131434400
1470.47 131305400 132240900 131993300 130062300 128535000 127901400
1476.25 126666700 124220300 120888400 117130900 113264600 109495100
1482.04 105566800 101263300 96986880 92934030 88962120 84863940
1487.82 80661010 76721600 72730800 68212870 63627990 59489720
1493.61 55884580 52751460 49308290 45427770 41981860 38737480
1499.39 35562110 32796200 30293970 28095370 26551790 25764150
1505.18 24912770 23212340 21022020 19201660 17703000 16362590
1510.96 15435250 14557910 13698100 13219480 12969360 12651430
1516.75 12031930 11324250 11242460 11638670 11470740 10643710
1522.53 9893444 9659932 9623108 9211070 8821814 8628694
1528.32 8346012 8134378 8082876 8107230 8383658 8364358
1534.11 7921930 7744654 7787300 8425362 9497044 9609688
1539.89 8907942 8450790 8065684 7608704 7456312 7291666
1545.68 7058000 6963188 6997880 7053382 6854496 6432368
1551.46 6325694 6797026 7167758 6915812 6994002 8029558
1557.25 9032050 9197472 8663166 7361484 6301754 6059330
1563.03 6040764 6003544 6021460 6129686 6226458 6439302
1568.82 6459324 5920780 5546232 5649536 5817160 6181730
1574.60 7077270 7183134 6038290 5290004 5228646 5258264
1580.39 5158282 5037554 5127222 5190744 5006442 4826246
1586.17 4828914 4949760 5052252 5002486 4845644 4751904
1591.96 4761578 4901926 4970170 4835356 4730608 4717870
1597.74 4727430 4779894 4729360 4548090 4524992 4694664
1603.53 4766690 4612250 4557560 4616162 4484472 4412562
1609.32 4543180 4562688 4384044 4210502 4273224 4846630
1615.10 5923096 6138210 5158892 4469790 4330826 4309232
1620.89 4461488 4800746 4778142 4381436 4207078 4285086
1626.67 4373382 4397344 4344290 4177076 4094858 3976344
1632.46 3869874 4606040 5501278 5109124 4283308 3909558
1638.24 3806592 3882966 3909576 3902794 3898866 3932354
1644.03 4476430 5072684 4896412 4532900 4353130 4174950
1649.81 4434342 5945678 7403312 6786014 5203980 4199006
1655.60 3717038 3479774 3496890 3660582 3707032 3807446
1661.38 4041222 3986970 3708736 3602380 3552780 3579506
1667.17 3897598 4182238 4020686 3831786 3810314 3641152
1672.96 3744286 4379506 4495884 3931458 3688756 3826150
1678.74 3875378 3791678 3891148 4413170 5466908 6285696
1684.53 5489698 4210094 3836734 3829724 3795234 3688888
1690.31 3663242 3728198 3690694 4098298 5507128 6192822
1696.10 5148782 4294550 4852036 5955670 5642350 4321176
1701.88 3704760 3752016 3888074 3924438 3730020 3375084
1707.67 3355478 3564086 3591682 3503234 3501446 3591464
1713.45 3748896 3847184 4214800 4771342 4417960 3570408
1719.24 3160592 3095964 3090216 3136650 3158884 3109230
1725.02 3183542 3304964 3278344 3170982 3150684 3242426
1730.81 3475496 4175522 4950616 4768068 3896958 3402634
1736.60 3315618 3383346 3659540 3690662 3394840 3291080
1742.38 3354172 3237162 3097158 3254894 3539244 3585578
1748.17 3436898 3666966 4162868 3975082 3471894 3215240
1753.95 3169918 3442666 3600346 3340648 3058656 3007072
1759.74 3305068 3595806 3353180 3021392 2939220 2821022
1765.52 2785146 3141528 3415862 3288386 3333880 3696326
1771.31 4004168 3672638 3000470 2889716 3056248 3059806
1777.09 3117332 3214450 3205832 3125256 3032274 2965970
1782.88 3015140 3248910 3290766 3188924 3214710 3154718
1788.66 3189824 3383994 3667440 3957850 3736182 3324780
1794.45 3223868 3298000 3368098 3474238 3658688 3639978
1800.24 3379726 3149722 2956904 2828752 2902832 3079050
1806.02 3216360 3191594 2986220 2926568 3073696 3135834
1811.81 3062492 2956560 2858700 2766726 2746034 2750684
1817.59 2702056 2695588 2694334 2663654 2710680 2765624
1823.38 2853714 2966910 2859780 2618012 2609946 2915636
1829.16 3033636 2812214 2639504 2528046 2446710 2449182
1834.95 2431578 2381384 2411150 2493888 2589968 2634738
1840.73 2637746 2823762 3310310 3495838 3113312 2783774
1846.52 2647506 2549624 2562018 2707088 2769300 2713152
1852.30 2751824 2879510 2929094 2903750 2923210 2956110
1858.09 3021792 3116880 3072976 2944092 2873096 2823646
1863.88 2935088 3211116 3400756 3487748 3458650 3344328
1869.66 3130180 2807534 2722826 2963646 3196028 3226002
1875.45 3091658 2924086 2822842 2852894 2957192 3005292
1881.23 3010628 2972710 2810670 2643674 2561116 2556018
1887.02 2665476 2942904 3073220 2802326 2656182 2881164
1892.80 2992016 2784460 2621412 2695474 2721932 2716834
1898.59 2874518 2967650 3014744 3137678 3278698 3385510
1904.37 3329576 3216450 3343898 3610876 3739024 3684074
1910.16 3536908 3523754 3671222 3677046 3620924 3746296
1915.94 3940860 3988662 3832322 3623402 3672602 3915024
1921.73 4097968 4180428 4084018 3957644 3967960 3906034
1927.51 3692842 3533576 3433970 3366446 3337786 3207832
1933.30 3101906 3235160 3238762 3094658 3216670 3296246
1939.09 3130034 3152856 3397124 3464322 3283270 3091286
1944.87 3016564 3045280 3064538 3018456 3061826 3146686
1950.66 3091576 3013744 3083996 3201598 3185154 3009584
1956.44 2927180 3032930 3142332 3240950 3276278 3228198
1962.23 3165936 3177312 3206092 3273736 3469872 3567508
1968.01 3575314 3640872 3701540 3679550 3673794 3758640
1973.80 3792876 3779724 3717516 3650522 3749818 3919822
1979.58 3918442 3725140 3621480 3801768 4018922 3978768
1985.37 3831548 3778502 3800400 3790488 3733650 3800870
1991.15 3886318 3776934 3643266 3615038 3696430 3704662
1996.94 3599166 3648162 3879464 3948588 3791414 3872710
2002.73 4094664 4081728 4024568 4071746 4064722 4083374
2008.51 4295628 4542260 4655552 4766706 4830486 4837926
2014.30 4959916 5212850 5457062 5638236 5742252 5767048
2020.08 5858566 6069910 6348812 6510688 6536084 6691668
2025.87 6887146 6899602 6873820 7133592 7471494 7449806
2031.65 7389910 7392954 7344744 7433008 7630828 7764222
2037.44 7829540 7835102 7711044 7573632 7439886 7251248
2043.22 7057896 6873326 6662088 6426518 6359378 6388696
2049.01 6226010 5980328 5782044 5643494 5563578 5434658
2054.79 5264800 5036664 4775488 4657386 4596514 4498726
2060.58 4328516 3993652 3758812 3829826 3988670 4032138
2066.37 3943962 3858974 3892736 3978162 3942202 3732106
2072.15 3633096 3803242 3870828 3671682 3543826 3628714
2077.94 3710394 3635272 3468094 3385034 3370634 3418690
2083.72 3579498 3549384 3423336 3550244 3651326 3519022
2089.51 3605948 3800154 3692752 3558564 3546868 3488656
2095.29 3371072 3316990 3468470 3700304 3709046 3549498
2101.08 3375922 3251814 3174862 3082476 2967764 2916404
2106.86 2954906 2938754 2879496 2790674 2675972 2645970
2112.65 2699032 2789786 2771382 2619702 2517766 2433812
2118.43 2245804 2121556 2107814 2231186 2345622 2188724
2124.22 1956180 2018822 2171162 2062736 1946296 1950998
2130.01 1921226 1831232 1918584 2145846 2186452 2039002
2135.79 1924032 1929838 1921722 1927642 1980002 2112234
2141.58 2246802 2182500 2110170 2134624 2135670 2184602
2147.36 2237994 2192888 2149998 2155656 2206660 2292426
2153.15 2407068 2519164 2463330 2348736 2392820 2474316
2158.93 2519436 2692678 2833752 2793040 2675976 2612682
2164.72 2714836 2910196 2996836 3008136 3142462 3353048
2170.50 3441210 3438784 3379528 3290920 3432660 3769768
2176.29 3905922 3785800 3640824 3561872 3521694 3586090
2182.07 3886172 4091134 3937928 3815166 3925736 3973838
2187.86 3905102 3812938 3711086 3768210 3930728 3938878
2193.64 3755170 3604044 3602322 3693310 3733406 3778544
2199.43 3879442 3817500 3634176 3605214 3661958 3693136
2205.22 3763946 3745486 3581994 3508480 3589826 3554854
2211.00 3483366 3558918 3642152 3644854 3579318 3480592
2216.79 3398366 3383552 3405982 3470986 3587818 3541584
2222.57 3331678 3186574 3178100 3306374 3349866 3274276
2228.36 3234628 3184950 3206660 3362924 3434122 3245226
2234.14 3041818 3076742 3159454 3149666 3256810 3437536
2239.93 3510956 3458164 3392000 3286106 3181556 3256444
2245.71 3422164 3506968 3441520 3303110 3349662 3581146
2251.50 3608374 3423416 3304328 3277020 3417788 3652266
2257.28 3731908 3819216 3938156 3949662 3937148 3907860
2263.07 3926970 3986542 3924582 3800190 3908058 4166092
2268.86 4291872 4355640 4365328 4337854 4455194 4660854
2274.64 4728826 4583510 4392764 4285528 4297208 4551002
2280.43 4771018 4694488 4600974 4661840 4715778 4731864
2286.21 4776054 4807180 4835502 4875758 4873428 4769524
2292.00 4704836 4826738 4984378 4872786 4810998 5011990
2297.78 4970220 4849420 4917030 4920872 4950198 5172516
2303.57 5356512 5301800 5122680 5097772 5376804 5643474
2309.35 5580570 5439376 5510640 5676568 5838442 5807138
2315.14 5542458 5481814 5605922 5784832 6044648 6134284
2320.92 6032450 6039464 6181676 6330950 6386594 6399566
2326.71 6447996 6529310 6560342 6604296 6644812 6683102
2332.50 6714820 6674000 6580972 6497288 6431204 6380360
2338.28 6327070 6324376 6289782 6138290 6004930 6077594
2344.07 6174302 5905452 5430752 5072400 4903372 4952758
2349.85 5167832 5378092 5449812 5484276 5608368 5784304
2355.64 6001298 6242930 6459722 6572372 6454844 6289584
2361.42 6219868 6176714 6197044 6224164 6199448 6171922
2367.21 6194868 6209668 6107794 5917112 5856080 5930766
2372.99 6022074 6020308 5786548 5490342 5459210 5713694
2378.78 5951504 6057376 6151332 6099094 5909614 5954718
2384.56 6187932 6367626 6479956 6435426 6294364 6155966
2390.35 6108056 6187962 6313670 6475642 6615446 6585808
2396.14 6435484 6531402 6894500 7078250 7067428 7090248
2401.92 7195054 7392806 7480642 7439172 7411550 7416376
2407.71 7443710 7503710 7577076 7610874 7579748 7584542
2413.49 7677296 7792962 7931508 8033738 8041532 7990698
2419.28 7819128 7597636 7578284 7670582 7664358 7531864
2425.06 7359212 7243724 7116328 6957240 6839606 6754702
2430.85 6861284 6990742 6814198 6446004 6232756 6298544
2436.63 6319874 6157346 6115628 6356202 6498280 6350156
2442.42 6157700 5994802 5846536 5733032 5531808 5342710
2448.20 5422764 5512446 5518584 5639656 5594922 5293212
2453.99 5136664 5145310 5007454 4795744 4699640 4760218
2459.77 5018204 5126852 4750208 4431040 4543364 4749022
2465.56 4816456 4810408 4710688 4531574 4449444 4436018
2471.35 4302108 4072706 4114460 4358274 4392924 4297238
2477.13 4222582 4138982 4119312 4257560 4397206 4303176
2482.92 4087272 4055722 4079228 3972032 4014650 4211214
2488.70 4183184 4130544 4242624 4463394 4644780 4483014
2494.49 4247100 4279040 4381092 4360640 4318878 4291752
2500.27 4109090 3987548 4084504 4229332 4449070 4522858
2506.06 4444682 4391436 4376528 4353192 4264954 4331118
2511.84 4557314 4721692 4689478 4589562 4487626 4217204
2517.63 4089270 4283482 4531074 4631050 4561672 4533012
2523.41 4650712 4698400 4598518 4481278 4475462 4696222
2529.20 4896170 4793022 4710036 4762512 4807240 4761396
2534.99 4707602 4878566 5017226 4831424 4513648 4511678
2540.77 4830760 5048068 5054404 4993890 4928762 4928096
2546.56 4979678 5011884 5036132 5085112 5214146 5283592
2552.34 5211438 5232716 5319430 5398660 5403728 5233716
2558.13 5128142 5137558 5091314 5167306 5424064 5561856
2563.91 5549282 5618212 5667512 5654128 5820576 6037222
2569.70 6018622 5846612 5824858 5929226 5960654 6116992
2575.48 6403766 6591440 6604266 6536360 6673026 6835494
2581.27 6710046 6762958 6855342 6697332 6804316 7164366
2587.05 7462958 7644748 7499310 7296126 7420108 7609160
2592.84 7790340 7892270 7930882 8081338 8238052 8238900
2598.63 8175598 8288206 8414112 8357020 8229792 8200124
2604.41 8332822 8497404 8665968 8773020 8740582 8781198
2610.20 9002978 9241474 9375650 9330486 9230838 9332378
2615.98 9499912 9594484 9538724 9450336 9603508 9719286
2621.77 9701298 9782492 9844384 9911794 10025900 10087270
2627.55 10253940 10446720 10499880 10485750 10459010 10501940
2633.34 10744140 10774720 10483200 10495720 10726880 10867250
2639.12 11147790 11650830 11799180 11604680 11652810 11717400
2644.91 11703640 11822480 12012520 12341130 12449080 12270060
2650.69 12416740 12730880 12962920 13221570 13293020 13190410
2656.48 13413780 13809480 14040800 14421990 14864710 14917920
2662.27 14825050 14955330 15162860 15447430 15681970 15728320
2668.05 15981080 16284080 16390400 16482350 16595850 16632090
2673.84 16701420 16950370 17270010 17559450 17761230 17751530
2679.62 17592600 17574780 17791990 18082200 18091590 17867380
2685.41 17787710 18023850 18299730 18421900 18606790 18800500
2691.19 18882160 18943930 18997580 18981330 19082680 19311190
2696.98 19264880 19153860 19349580 19575510 19566980 19500580
2702.76 19782740 20159900 20277040 20452180 20801000 20906320
2708.55 20832300 20981130 21268290 21692190 22293420 22666940
2714.33 22730220 22758260 22673980 22707480 23149530 23637410
2720.12 23947160 24266410 24688950 24941760 25129230 25583400
2725.91 26234980 26753330 27082840 27361430 27894380 28654710
2731.69 29399230 30116090 30770050 31502250 32284180 32813450
2737.48 33187800 33754960 34540680 35239350 35517320 35738250
2743.26 36107350 36371180 36647760 37024640 37518560 38108900
2749.05 38832030 39392830 39379510 39193740 39251450 39268010
2754.83 38958590 38711470 38601850 38584620 38943240 39307130
2760.62 39359920 39346690 39456980 39695180 39802100 39903610
2766.40 40229460 40497720 40701290 41017280 41302220 41514980
2772.19 41782200 42171230 42773310 43304070 43452420 43548980
2777.97 43865840 44287710 44656810 45046740 45556580 46223030
2783.76 46694060 46994100 47578670 48070200 48236190 48606590
2789.54 49189590 49500030 49615900 49651480 49623690 49840190
2795.33 50132820 50378040 50544300 50573150 50693090 50894360
2801.12 50846690 50763110 51046640 51496220 51703660 52015200
2806.90 52547050 52767090 53030820 53540470 53960810 54430680
2812.69 55073360 55874750 56828210 57977860 59099480 59920640
2818.47 60668000 61690080 63029080 64645900 66483270 68480820
2824.26 70431450 72360320 74585040 77143870 80034620 83246420
2830.04 86683040 90446250 94479660 98461030 102487300 106876600
2835.83 111694500 116669800 122149500 128653600 135676400 142790800
2841.61 150165800 158012000 166251000 174735400 183347600 192066500
2847.40 201192700 210543500 219897000 229538000 239189500 249033600
2853.18 259810400 271339700 283070800 295295700 308288300 321343400
2858.97 334462700 347894400 361859000 376739100 391993900 407622500
2864.76 423871000 440715800 457961200 475638000 493900900 512972700
2870.54 533415400 555362100 579137100 604778900 631631900 658783900
2876.33 684718800 706952400 723402000 733406100 736697000 734484700
2882.11 729594200 726810900 732275900 741839100 740488300 729710400
2887.90 724043000 726538800 732557500 737084500 736978800 731300800
2893.68 719889300 704306400 687275000 670614600 654877300 640212200
2899.47 627438000 617449200 610236100 605085100 601809100 600258000
2905.25 599959100 601351300 605132000 611078500 618282600 625759600
2911.04 633041500 640976800 650128900 659350800 668036900 677333800
2916.82 687469200 697434600 707647700 719588600 733070300 746901800
2922.61 760884000 775028200 789124800 803777900 818676200 832690200
2928.40 846642800 861223200 875702600 890546500 907045800 925020300
2934.18 943194000 960644700 976991200 991357800 1002491000 1009493000
2939.97 1013719000 1017405000 1020274000 1020410000 1015965000 1007259000
2945.75 998084100 992331100 989993700 989109700 989407200 990962000
2951.54 993598300 997674600 1002035000 1004851000 1006645000 1008852000
2957.32 1012487000 1017852000 1024808000 1033651000 1044778000 1057019000
2963.11 1070597000 1090517000 1120595000 1151730000 1161510000 1137993000
2968.89 1095912000 1054821000 1021460000 997647500 982834000 968827800
2974.68 949479700 928601100 909764600 890349100 866067100 834486200
2980.46 794773400 748495200 698162600 644809300 590127400 537042900
2986.25 487026100 440112300 396451100 357039400 322148800 290948700
2992.04 263085400 237947800 214556200 193375900 174939000 158379800
2997.82 143106800 129325100 116894800 105453400 94926310 85580900
3003.61 77712210 71050550 64942710 59101840 53725570 49158170
3009.39 45518360 42624290 39943200 37335290 35254830 33537020
3015.18 31773590 30237300 28948230 27748850 26854430 26324680
3020.96 25690900 24777990 24039870 23583450 23161830 23045650
3026.75 22941150 22254230 21853280 21874930 21559230 21056730
3032.53 21019880 21319930 21396480 21194000 21008520 20800650
3038.32 20470550 20557890 20777490 20670510 20482140 20527230
3044.10 20657020 20477390 20192090 19924930 19729730 19711120
3049.89 19677330 19615950 19666840 19580010 19216970 18721770
3055.67 18225900 17740820 17445320 17461530 17508150 17319870
3061.46 16995510 16732920 16701060 16380340 15627000 15048250
3067.25 14754100 14396160 14013180 13798570 13559480 13265450
3073.03 13054940 12794380 12434390 12058610 11660090 11313300
3078.82 11396510 11795620 12051190 11807560 11366460 11155290
3084.60 11091830 10948250 10672100 10608930 10592440 10453280
3090.39 10316050 10091880 10176090 10546230 10550650 10256900
3096.17 10042590 9926954 9894096 10168140 10379840 10010250
3101.96 9584350 9469992 9380660 9385378 9442292 9473878
3107.74 9511276 9316454 8981494 8715990 8608688 8509174
3113.53 8458080 8693562 9038880 9135046 8902322 8582730
3119.31 8555338 8945142 9191542 9088276 8689676 8369200
3125.10 8452772 8574648 8709246 8900894 8953752 8814542
3130.89 8671732 8759944 8869784 8869858 8665388 8544596
3136.67 8663504 8794630 8974314 9007686 8738366 8453262
3142.46 8551354 9058502 9160962 8847256 8761992 8702002
3148.24 8653658 8722208 8660156 8578632 8730812 9036912
3154.03 9074776 8878626 8698612 8492314 8475444 8585272
3159.81 8651740 8727424 8533996 8201428 8345700 8830806
3165.60 8892842 8735548 8789580 8906446 8837304 8583910
3171.38 8462872 8633446 8714276 8655052 8692846 8618294
3177.17 8542572 8842898 9075454 8987608 8714614 8605078
3182.95 8953296 9331474 9484434 9374988 9233784 9167346
3188.74 9376848 9780450 9932120 9718952 9511342 9606300
3194.53 9796530 9889626 10003230 10101860 9919788 9503888
3200.31 9264654 9204752 9083894 9203742 9460248 9409566
3206.10 9024322 8676828 8589610 8638272 8623734 8335740
3211.88 8291978 8282554 8126656 8087328 7813630 7402592
3217.67 7091412 6982032 7076404 6839548 6174888 5646028
3223.45 5506740 5735708 6050374 6101400 5677486 5108990
3229.24 4926434 4983772 4955278 4729966 4594500 4956552
3235.02 5138636 4770066 4085592 3587112 3882894 4469440
3240.81 4498432 4107162 3907332 3745616 3735842 4093262
3246.59 3983272 3379474 3124282 3227042 3375984 3415014
3252.38 3251024 3122052 3211634 3313242 3194226 2995580
3258.17 2897174 2974586 3140064 2954396 2684320 2867000
3263.95 3093528 3137804 3364220 3557180 3326138 3039682
3269.74 2826564 2629980 2603666 2685510 2924110 2988964
3275.52 2815410 2852640 2943818 3002108 2916578 2403676
3281.31 2128576 2539194 3061908 3242902 3156478 3086976
3287.09 2873116 2385536 2276208 2463512 2488566 2622996
3292.88 3029096 3373220 3196868 2707676 2774840 3213132
3298.66 3229686 2914582 2599164 2462584 2402576 2472004
3304.45 2669370 2968300 3359948 3412386 3145702 3092118
3310.23 3190452 3164404 3173802 3180732 3210996 3508458
3316.02 3899728 4034268 3534560 3101260 3207932 3402746
3321.80 3477256 3501562 3470360 3349706 3166244 3107910
3327.59 3111616 3195650 3165364 2761438 2626204 2971092
3333.38 3195476 3094558 3014216 3073134 3299900 3375184
3339.16 2956114 2705594 2773450 2753080 2756200 2689666
3344.95 2458608 2384938 2476926 2600822 2758194 2796752
3350.73 2815982 2981714 2771358 2466068 2639116 2700590
3356.52 2773324 3167482 3311168 3073352 2859174 2931622
3362.30 3102658 3298152 3229844 2746788 2564628 2755966
3368.09 3073946 3385750 3142400 2788752 2920650 3163600
3373.87 3175634 2895804 2709162 2862820 3138182 3308280
3379.66 3214088 3035384 3142514 3240032 3115416 3083160
3385.44 3031094 2985482 2856224 2753620 2687338 2530372
3391.23 2950210 3504192 3444394 3344066 3581948 3935728
3397.02 3988172 3620774 3231952 3233098 3242528 3049308
3402.80 3194396 3552014 3730970 3688642 3534248 3878266
3408.59 4551174 4442732 3856196 3854482 4296988 4873276
3414.37 5135644 4743676 4509772 4717254 4845388 5111928
3420.16 5419878 5112706 4312058 3829638 4170764 4709656
3425.94 4759114 4763234 5125974 5742920 6298652 6038010
3431.73 5347596 5097866 5160850 5196870 5027106 4942404
3437.51 5088748 5044128 5346242 6212298 6722036 6539952
3443.30 5921132 5109306 4777838 5222130 5747288 5846624
3449.08 6003450 6215462 5873530 5356970 5321026 5434566
3454.87 5424710 5710764 6021922 6071386 6020656 6147786
3460.66 6535916 6745596 6615534 6620808 6957214 7134782
3466.44 6682792 5827366 5544354 6064846 6579350 6658940
3472.23 6848820 7215066 7194502 6966180 6701526 6602960
3478.01 6635440 6566990 6738074 7042048 7048936 6968248
3483.80 6861972 6815914 6909322 6577236 6153634 6223892
3489.58 6432244 6762024 7150936 7016994 6494958 6056568
3495.37 5847146 5660812 5446642 5541100 5803492 5697078
3501.15 5585440 5801956 5717566 5339800 5064718 4723936
3506.94 4827450 5411812 5763444 5686982 5390254 5158860
3512.72 5096994 5064700 4995430 5048382 4996758 4894708
3518.51 5043072 5325058 5442954 5349370 5232438 5049830
3524.30 4782926 4946482 5471928 5504188 5141030 4984082
3530.08 5114718 5266362 5529700 5639060 5247596 4995890
3535.87 5329098 5376304 4552924 4142174 4535896 4817220
3541.65 4799024 4689464 4491832 4459086 4857504 5270476
3547.44 5462016 5482078 5269490 4897274 4731338 4727504
3553.22 4654016 4825242 5279568 5400202 5153338 5011402
3559.01 4852962 4590948 4728680 4914554 4927602 5048174
3564.79 5091278 5262382 5511118 5267000 4768212 4232970
3570.58 4250084 4791046 4878220 4595896 4552344 4591056
3576.36 4644514 4790772 4687476 4826150 4933452 4612090
3582.15 4760140 5236620 5162584 4773976 4740438 5161798
3587.94 5372998 4943600 4541676 4775622 5516558 5886592
3593.72 5547500 5224580 5317150 5466566 5292394 5241946
3599.51 5526758 5787116 6057570 6231518 6256746 6389824
3605.29 6684956 7049494 7191882 7175270 7429070 7917612
3611.08 8089622 7772482 7719896 8119286 8518076 9136882
3616.86 9754594 10187420 10588440 10940730 11521200 12045900
3622.65 12365640 12785390 13386400 14309180 15554820 16882580
3628.43 17892290 18399220 19132000 20668090 22505670 24271810
3634.22 26111830 28004910 29652620 31305700 33669520 36537600
3640.00 39358570 42723140 46549710 50372600 54171060 58125050
3645.79 62894350 68122960 73054660 77175730 81011920 85196460
3651.57 89296880 94008580 99701780 105234400 108263000 109290700
3657.36 111850900 116537600 122328200 128902900 135640000 141734000
3663.15 147288400 152944600 158576000 163836800 168528000 172300800
3668.93 175191400 176548400 175398000 172641300 168882600 164656900
3674.72 159913100 154653500 152018800 153386600 152946300 147158200
3680.50 141485200 139004500 136791000 132878200 127285100 120472000
3686.29 112541200 103528200 93377050 82866140 73258510 64851340
3692.07 57600120 51654930 46859310 42360510 38204110 34893360
3697.86 31963770 29245200 27235310 25266910 22688390 20487230
3703.64 19058940 17838730 16397120 15159380 14535750 13967030
3709.43 13391510 13448300 13469910 12376720 10901210 10261040
3715.21 10139740 9669204 9282932 9287788 9207320 9139770
3721.00 9244988 9342078 9219524 9020994 8914430 8610974
3726.79 7970270 7446684 7434866 8014654 8791234 8902376
3732.57 8359934 8126686 8140512 7827176 7362772 7417944
3738.36 7726032 7815374 7935538 8053794 8658808 9888716
3744.14 9640758 8045966 7287562 7796108 8870922 8711082
3749.93 8031694 8279296 7690832 6550672 6517100 7127986
3755.71 7317622 7061818 7170456 7346000 7032124 6805646
3761.50 6783300 6799668 6900968 6826334 6672038 6628134
3767.28 6735748 6957688 6973798 6743024 6824690 7221052
3773.07 7431752 7237254 6873434 6766480 7111204 7688102
3778.85 7556846 6837232 6533610 6602296 6809278 7152888
3784.64 7319482 7327192 7343900 7289558 7145474 6833698
3790.43 6763596 7012836 7141040 7318696 7768472 8079078
3796.21 7826090 7406390 7465764 8096840 9090614 9340542
3802.00 8635046 7806116 6968210 7113426 8012370 8025508
3807.78 7700750 7671500 7547228 7477890 7326786 7072776
3813.57 7601478 9102500 9653120 8837590 8317738 8295066
3819.35 8804462 9332396 9198932 8911818 8758536 8680592
3825.14 8515844 8206088 8059852 8447702 9182248 9647312
3830.92 9405234 9148778 9949624 10939770 10782260 10526460
3836.71 10998110 10918240 10416450 10233060 10104780 9953196
3842.49 9863622 9785666 9754710 10003300 10323850 10498820
3848.28 10553530 10620950 11338830 12307660 12916140 13212990
3854.07 12513070 11488160 10955880 10629880 10182390 9942016
3859.85 10383980 10756880 10702350 11082090 11558920 11249170
3865.64 10750640 10628970 10956620 11874500 12170810 11552800
3871.42 11127300 11166810 11202870 10878920 10653440 10712840
3877.21 10482820 10144900 10098160 9862726 9444944 9324220
3882.99 9734640 10231920 9798514 8774306 8286688 8333382
3888.78 8480720 8873146 9004218 8344474 7664592 7206340
3894.56 7173422 7408870 7235066 7032066 7094392 7135128
3900.35 7204218 7150894 7162278 7222844 6793228 6199818
3906.13 6215218 6379218 5981230 5652066 5825482 5984668
3911.92 5917986 5730086 5682966 5741240 5910112 6028662
3917.70 5752746 5463216 5465620 5821618 6195696 6140886
3923.49 5740202 5608884 5553904 5196642 5105800 5405906
3929.28 5683492 5691096 5615984 5543150 5288108 4740602
3935.06 4359340 4723044 5103660 4989428 5127118 5307704
3940.85 5238272 5344050 5348788 5063730 4626552 4584454
3946.63 4735958 4556412 4425422 4433670 4640374 5181220
3952.42 5530478 5285172 4917724 4971070 5271348 5416134
3958.20 5168764 4701600 4627324 4951418 5081906 5009686
3963.99 5001726 4894078 4782902 5012166 5471228 5799672
3969.77 5939076 5831806 5602336 5773642 6088918
##END=
