##TITLE=1-Butanol
##JCAMP-DX=4.24
##DATA TYPE=INFRARED SPECTRUM
##CLASS=IUPAC A
##ORIGIN=NIST, Anayltical Chemistry Division, 301-975-3108
##OWNER=COPYRIGHT (C) 1998 by the U.S. Secretary of Commerce
##DATE=98/10/1
##$SPECTRA VERSION=1.00
##$UNCERTAINTY IN Y=2.0 % relative (B=1.0E-04,C=2.6E-10,D=2.7E-14)
##CAS NAME=1-Butanol
##CAS REGISTRY NO=71-36-3
##MOLFORM=C H3 C H2 C H2 C H2 O H
##MP=-89.53 C
##BP=117.25 C
##$NIST SOURCE=QUANT-IR
##SPECTROMETER/DATA SYSTEM=IFS66V (Bruker)
##INSTRUMENT PARAMETERS=KBr Beam splitter; MCT Detector; Multipass cell
##STATE=gas
##SAMPLE DESCRIPTION=1-Butanol Primary Gas Standard
##PRESSURE=101.3 kPa
##TEMPERATURE=23 C
##SAMPLING PROCEDURE=1 L/min Flow
##RESOLUTION=0.9640
##DATA PROCESSING=Triangular Apodization
##XUNITS=cm-1
##YUNITS=(micromol/mol)-1m-1 (base 10)
##XFACTOR=1.0
##YFACTOR=4.5474E-13
##DELTAX=0.4820
##FIRSTX=575.169
##LASTX=3975.077
##FIRSTY=2.25E-06
##MAXX=3974.59
##MINX=575.17
##MAXY=.0005304
##MINY=6.79E-07
##NPOINTS=7053
##XYDATA=(X++(Y..Y))
575.17 4953144 7534596 11113070 11946810 10849000 9835400
577.58 8826984 9771228 8660406 8521094 10346130 9351574
580.47 6972234 6060160 6227298 6579800 8619086 9527994
583.37 8271490 5864302 8874354 11135220 9111006 9987450
586.26 7723594 7377206 8030090 7509964 9123534 10337930
589.15 11594750 9470334 6504598 7601498 8771298 11069860
592.04 11434800 9471954 8690894 6706200 4494958 5337650
594.94 4950588 4864106 8031446 9755918 10133810 9011192
597.83 8948786 10974910 10773480 8254658 9000876 10215910
600.72 8679096 7142024 6726492 7371068 7763192 8872830
603.61 7568238 7639028 10585940 8823980 6063180 6273132
606.51 7824722 8243106 9207330 10126920 9014650 7862230
609.40 7241842 7683274 6943082 5818416 5698650 7230978
612.29 7996384 8383592 8431578 6997542 7799538 8702634
615.18 9262956 8557344 8469436 8554164 7990218 8395982
618.08 8885000 9728422 9219526 8731874 9278992 10046540
620.97 9314544 8427008 7581502 6428136 6072930 6244698
623.86 7281532 8313518 8962464 7881844 8393066 10518120
626.76 11385340 11759160 10597740 7936808 8071684 8361132
629.65 6360452 5560488 7132872 9324134 10174420 9937326
632.54 9261840 8211926 8799884 9802094 9774896 8917130
635.43 8386522 7767566 7123544 8924374 9147894 8078664
638.33 7748408 8336000 9558340 9246918 8993126 8652354
641.22 7730606 8454132 10378360 9083714 6165766 6228670
644.11 7744422 9008034 8798926 7554626 7171050 7541722
647.00 7635932 8670406 9480854 8713490 7974194 8580690
649.90 8861042 8653856 8592248 8516104 9182024 7561384
652.79 7105580 8688490 9444158 9755920 7883108 6943618
655.68 7191092 7858942 7920610 7823744 8141960 8260564
658.58 9416882 9392282 8005462 7707832 8868796 8716740
661.47 8933830 9415100 8936636 9131162 9327342 8172628
664.36 8212856 8145278 7236996 8249014 8280388 8351882
667.25 8889526 9270908 7750202 7420268 8667700 7762570
670.15 7726266 7260860 6204408 5900386 6850666 8553048
673.04 7916264 6778930 7515662 8482798 8624476 8856606
675.93 7940254 6651366 6573576 7402010 8972418 8304798
678.82 6355126 6221630 7126838 6899888 6935406 7599786
681.72 6980184 6346282 6696480 6991754 7130492 7373952
684.61 7255972 7404358 8762396 8282566 7717660 8307778
687.50 8670618 8914188 6885928 5276954 5666064 6790242
690.40 7619550 7610140 7255100 6516274 6284588 6846992
693.29 6641316 7256996 7427302 7253542 8256218 8527926
696.18 8169204 7050654 7079618 7289092 7218986 6624740
699.07 5860286 6613818 8238652 9502958 8724202 7716248
701.97 7197014 6599986 6872086 7347290 8003468 7952356
704.86 7252330 7897556 8175082 8082740 8022894 7725284
707.75 7602322 7334736 7819934 8436866 8831000 9030260
710.64 9095882 9158742 9365922 9414180 8358212 8434250
713.54 8650708 9252254 10955910 10539710 9535542 9521574
716.43 9396268 9662018 10435100 10820850 10544410 10012850
719.32 9899992 10483760 11839620 12132980 11246810 11032080
722.22 11342580 13056300 14198750 12641870 12793450 14745580
725.11 14457010 14237890 14332700 14182140 14404880 14800010
728.00 15323870 15623450 15930090 16241020 16342380 16377120
730.89 17442680 18132340 17698560 17642470 18365260 18146110
733.79 18344100 18672310 17719060 18920620 20492990 20251030
736.68 20494730 20930470 20671770 21006980 21908860 22470060
739.57 23391970 24354360 23591600 21402520 20104930 20690090
742.46 21555590 21071710 20076280 20144910 21008880 21207220
745.36 19926170 18948170 19484750 19827660 20289550 20925220
748.25 20208410 19254790 19875910 20229100 19549360 18850570
751.14 18007590 17990940 19571120 19792610 18234770 17365040
754.04 17274190 17395990 16780680 16356220 15996580 16136270
756.93 15858230 15547450 15613120 15407220 16024390 15272000
759.82 14178620 14256170 14170420 13914400 13168750 12795970
762.71 13007180 12911290 13149010 12669400 12120800 11395720
765.61 11452250 12172020 11154850 10041240 10101130 10486900
768.50 11237880 11456840 10317350 9931952 9974478 9748666
771.39 9799532 9779370 9686680 9224744 9041696 9672940
774.28 9892288 8992418 8720558 9176720 9958810 10186870
777.18 9142732 9325360 9514864 9366232 9383326 9823618
780.07 9686550 9644474 10215440 10007990 9593972 10324460
782.96 11190740 10963950 10344540 9034244 8612930 8996730
785.86 9595822 9989082 9503360 9360704 10540080 11343410
788.75 11602080 11857990 11640140 11757280 11954660 11980460
791.64 12465180 14101250 14949070 13651690 12409970 12690040
794.53 13654220 13578120 12711540 12889350 13291800 12699940
797.43 13113300 14060580 14248650 14992120 15567790 14293290
800.32 13975870 14372210 15126420 15902440 15452710 15523850
803.21 15352980 14587080 14998110 16520030 16908820 17121250
806.10 16705100 15690040 15239070 15874860 16218510 16769930
809.00 17497050 16781520 16610300 16680390 16279720 16478100
811.89 17975750 19173730 18562500 17670040 18592530 19082890
814.78 18722850 18449850 18278460 19196190 19121380 18780850
817.68 19667280 20544300 21786680 22347600 22216420 21230190
820.57 20932630 21079940 21083570 22364310 23250570 24207340
823.46 24029740 23588690 24920790 26609740 27525950 28167290
826.35 28753450 28574870 29098770 29887130 31065490 31983930
829.25 31197700 31703350 34170480 35785700 36005570 36719700
832.14 38029660 39588260 40889040 40982240 41336980 42850680
835.03 44864530 45747230 46757240 48249690 49162560 49927010
837.92 50153960 50151450 50481480 52262990 53267420 53157610
840.82 53547820 53997690 54298460 53801800 52851080 52218110
843.71 52213990 52481510 52311000 51986100 51974860 52231920
846.60 53085800 52919220 53097880 54419750 54538600 54927540
849.50 54920220 54814750 55508820 55844120 56092130 56019760
852.39 55424590 54982380 54657940 53619010 52472840 52377130
855.28 51624170 50102570 49807840 49394090 47893980 47166600
858.17 46628500 45563860 44436700 43649620 42810030 41633640
861.07 40853680 39876750 39064330 38257870 37153960 36145880
863.96 35344190 34306780 33679860 32979800 32325350 31657360
866.85 29969120 29330150 29300780 28911710 28227670 27692420
869.74 27304100 27134110 26925240 26056440 25155110 25030000
872.64 25250390 24511590 24378390 23688000 22914200 23648520
875.53 23872980 23145510 22244390 21545980 21323560 22020000
878.42 22929440 22369900 21035900 21351200 21885520 21108170
881.31 20803390 20743210 20822330 20830890 20726780 20865960
884.21 21192870 21415180 21473820 21871680 22099570 22463830
887.10 22874630 22788440 23287010 23836580 23463380 23646280
889.99 24659940 25392710 25658780 25995570 26566620 27150190
892.89 27653630 28275900 28319320 27743720 27435700 28224100
895.78 28665580 28293250 28340760 28448540 28720220 28818730
898.67 28426250 28472630 29273290 29515740 29005090 29027720
901.56 29544200 30094740 30472570 30694500 30721520 31068100
904.46 31255380 31550320 32542040 33484540 33410910 33211070
907.35 33045670 32705270 33171200 33204970 33232720 32852100
910.24 32086160 32142460 32249750 32884080 32593540 31904490
913.13 31608960 31182880 31160930 31838860 32432800 31893820
916.03 31749440 31965740 32490420 33209730 33874230 34297480
918.92 34761460 35184000 35757710 36748880 37937120 38505420
921.81 39227270 40150870 40998400 42479240 43118380 43551470
924.71 44980750 46164750 47472200 49038770 50470260 52021780
927.60 52993710 53860960 55696470 57320780 58546450 60183500
930.49 61568280 63288010 65624710 67313270 68475020 69858210
933.38 71908310 74236540 75577830 76279860 78070370 80548900
936.28 82324660 84233420 86463200 88481030 90107330 92188130
939.17 94558500 96556870 97911220 99072690 101443400 103941300
942.06 105344900 106255100 106675200 107688200 109204200 110675400
944.95 112863800 114299400 114710900 115095500 115596700 115657500
947.85 116205300 117423700 117796300 118412500 120116100 121299900
950.74 121559600 121469200 121019300 120776100 121300500 121979300
953.63 122197800 121986900 121685900 121459500 120688200 119885100
956.53 119165800 118496500 118417300 117871900 117314800 116466100
959.42 115750900 115501400 114665600 113232600 111555200 111149400
962.31 110166800 108736300 107944200 106867400 105544600 104052100
965.20 102955700 101602800 100502400 99482300 98293650 97443050
968.10 96199060 95076700 93925520 93034220 91973030 90511700
970.99 89750130 89240310 88788420 88454530 88439080 88553780
973.88 88462660 88032750 87749680 88106360 88147450 88471790
976.77 89800220 90472160 90959310 91950430 92949470 94450540
979.67 95509540 96084400 96930100 97781190 98568180 99418940
982.56 100288900 101012400 101673300 102274400 102498600 102467300
985.45 101917900 101697700 100978200 99816490 99781200 99921850
988.35 100869800 102155700 103108200 104723600 107746200 110879000
991.24 111128900 111388000 113578100 116130900 119105500 122443300
994.13 125396900 127581300 129665800 130818300 131691500 132460700
997.02 133363800 134184600 134071300 134023100 134356900 134463600
999.92 134297200 133637900 133655000 134438100 135151700 136233700
1002.81 137233300 138851400 140822000 142324100 143567500 145602200
1005.70 147728900 149600500 152455100 155106400 157128300 159092900
1008.59 160451300 162122600 164661700 167690900 171127500 173953900
1011.49 176996600 180035000 182529200 184978500 188224300 191449800
1014.38 194868900 198680500 201532600 204936600 208332300 211396600
1017.27 214620000 218424200 222875100 226903500 230907200 235200800
1020.17 239187000 243522000 247874300 252332600 256428000 259713000
1023.06 263656600 266980700 270010300 273436600 276834100 280134600
1025.95 282942900 285876100 289624600 294066600 298158400 302648200
1028.84 308415500 313804300 318238800 323067000 328438300 334922800
1031.74 343086100 350758000 357191700 364665700 372377700 379161400
1034.63 387103700 395467000 403340100 410193400 416208100 422457800
1037.52 427071200 431101000 434442300 437661900 441582500 443595200
1040.41 445155800 446617100 447714500 447335600 445807100 444299500
1043.31 442131000 441335500 441121200 441503000 441764800 439480700
1046.20 437347700 436025600 435882300 437686700 440211300 442656200
1049.09 444494300 446398400 447595500 449267800 451600700 453382500
1051.99 456269200 460257000 463570400 466349400 469045900 471113500
1054.88 471919900 471056500 469915900 468560900 465869900 462690900
1057.77 459727000 457643000 455365800 452054500 450759600 450359600
1060.66 449187700 448715700 448799200 448663200 449334800 451775400
1063.56 454879600 459738600 463811300 464638200 464337800 464745300
1066.45 467088400 470466800 474291200 478586900 481832900 483421800
1069.34 483438000 483156300 481964900 479927500 477924200 474670500
1072.23 469957800 465257300 460949900 456261800 453097200 451317000
1075.13 449177100 447185200 445054400 442359500 439411000 437487000
1078.02 434958100 429865000 425172200 418765400 409800800 400299100
1080.91 391453100 383854700 376309700 367894100 359518600 352001800
1083.81 344358100 335776500 328007500 320353400 311396000 303697400
1086.70 295878800 286899700 278570800 271116400 264766700 258517500
1089.59 250824500 243484300 237467100 232464200 227612600 222454800
1092.48 216757700 210704600 205941900 201593200 196686200 192605900
1095.38 188670300 184504100 180669300 176928100 173044300 168969800
1098.27 164649600 160747700 158223700 155421900 151835700 148310200
1101.16 144476600 141058000 137818900 134232500 131048200 128305800
1104.05 125867300 123256800 119744900 116227100 114256800 112492800
1106.95 110472900 108261700 105823600 103840800 101831500 100309700
1109.84 99114060 97806180 96885600 95657660 93620110 92001820
1112.73 90680720 89277140 87555250 86173050 85401500 84185650
1115.63 82710160 81189020 80285200 79283990 77835380 77100820
1118.52 76131500 74368080 73310910 71860220 70665150 69988860
1121.41 68628380 67693620 66799210 65737240 64592480 63794910
1124.30 63204410 62037390 60886120 60143560 59509200 59043660
1127.20 58150710 57245170 56879360 56098650 54926180 53844630
1130.09 53082840 52587680 51771630 50621600 50174580 49526510
1132.98 49056660 48921610 48003280 47281050 46623840 46224240
1135.87 45951000 45252980 44798210 44395250 43850110 43205210
1138.77 42809760 42601280 42200790 41745190 41212250 40784580
1141.66 40695100 40509680 40027440 39385290 39032420 38962250
1144.55 39083500 38850240 38246550 38376070 38472770 38098760
1147.45 38195350 38236330 37756720 38102840 38315050 37854130
1150.34 37900120 37338960 36674200 37270030 37744900 37363840
1153.23 37033620 37209030 37731160 37702130 37387140 37917390
1156.12 37952580 37424280 37670910 37756700 37960710 38772620
1159.02 38798660 38329720 38515600 39155660 39557600 39763160
1161.91 39884200 40121600 40186360 40280310 40745730 40783240
1164.80 41175080 42093380 42329460 42668130 43144780 43097880
1167.69 43288850 43975410 43966020 44337660 45423100 45739420
1170.59 45850610 46189610 46589260 47393580 47852730 48187440
1173.48 49057900 49517020 49873020 50449740 50926700 51907570
1176.37 52664760 52787940 53815390 54691720 54821870 55330910
1179.26 56140580 56535860 56976740 57948540 58997820 59908810
1182.16 60546010 60745460 61444520 62650220 63488620 64083930
1185.05 64967570 65736850 66369600 67445220 68684920 69635060
1187.94 70380400 71234950 72506990 73790280 74708710 76167990
1190.84 77413060 78137730 79014150 79882630 80447230 81643340
1193.73 82632500 83198700 84642470 85982520 86730770 87335710
1196.62 88492980 89515860 90303740 91133740 91476600 92234290
1199.51 92937930 93511680 94979620 96136780 96755060 97084230
1202.41 97815350 98962780 99589880 100318200 101162400 102125300
1205.30 102527700 102854700 103920100 104371200 104801800 106081200
1208.19 106863900 106788500 106931400 107374400 107398900 107628500
1211.08 107925900 108047900 108236600 108362900 108245300 107825100
1213.98 107935000 108306600 108163100 107646300 107551200 107395300
1216.87 106957100 106950800 106572500 105662700 105268600 104722200
1219.76 103627200 102864500 102271800 101703100 100850900 99838980
1222.66 98789620 98136380 98148020 97644370 96950300 96176380
1225.55 95605820 95018190 94417380 93879480 92611950 91430550
1228.44 90646140 89891500 89013660 87689660 86711060 85951140
1231.33 84803060 83928720 82945980 81764540 81166000 80605670
1234.23 79794570 78801000 78010160 77317450 76711520 76162970
1237.12 75607440 75286650 74891660 74221330 73994360 74060800
1240.01 73596360 72924260 72779170 72616940 72258690 72201550
1242.90 71917660 71543650 71304550 71280430 71245270 71321770
1245.80 71371700 70985590 70747670 71099740 71110300 70505580
1248.69 70557470 71631210 72175350 71703720 71553080 71806870
1251.58 71837280 72268880 72555390 72451840 72926330 73517580
1254.48 73720700 73533760 73546710 74060480 74475430 74636380
1257.37 74579690 75064810 75890580 76360180 76384510 76434290
1260.26 76828010 77175860 77415760 77613140 78181940 78593870
1263.15 78730060 79135130 79801020 80306300 80492000 81115040
1266.05 81455930 81601740 81942900 81603660 81217640 81407300
1268.94 81597490 81850650 82001140 82280640 82779260 83029670
1271.83 82975320 82924080 83134220 83417540 83769280 84279150
1274.72 84873040 84817420 84750100 85137690 85314760 85131940
1277.62 84719880 84443160 84345060 84465450 84691180 84479870
1280.51 83979170 83930820 83475120 83024620 83122000 82997650
1283.40 82572460 82195120 81855160 81261860 80809220 80330780
1286.30 80276840 80143690 79558520 79422780 79195230 78410870
1289.19 77523290 77370800 77608590 77193380 76547570 75705790
1292.08 74864420 74463600 73846040 72963040 72285530 71717460
1294.97 71346390 70570370 69598990 69056210 68559580 67872030
1297.87 67587250 67221650 66411980 65519820 64905280 64374960
1300.76 63701770 63367000 62651580 61875830 61421720 60960910
1303.65 60127060 59531210 59331540 58952800 58578720 58466000
1306.54 58266880 57896300 57707970 57302170 57069050 57222680
1309.44 56995470 56521000 56347450 56041930 55677390 55605090
1312.33 55412690 55470060 55601540 54897900 54296120 54275390
1315.22 54576540 54478510 54551800 55023660 54796350 54356500
1318.12 54343480 54341520 54267980 54521810 54629380 54758640
1321.01 54765920 55104360 55575550 55791280 56035520 56164260
1323.90 56391400 56863480 57204790 57253600 57822090 58477920
1326.79 59146790 59676810 59507390 59877630 61079410 62358470
1329.69 62871570 63688820 64753210 65486360 66259610 66942690
1332.58 67423890 67870670 68735900 69335410 70101690 70986110
1335.47 71367120 71654700 72231170 72574320 72858550 73013160
1338.36 72950810 73476510 73885690 73754310 74085740 74388620
1341.26 74107720 74486150 74905140 75013040 74930400 74844060
1344.15 75753140 75644410 74913300 75112650 75180930 75026140
1347.04 75316000 75786090 75695720 75501100 75456180 75541100
1349.94 75398170 75446960 75560740 75620550 75705110 75626890
1352.83 75336400 75507600 75511050 75002870 74750900 74693540
1355.72 75657000 75311230 74658460 75152800 74848300 74882510
1358.61 75669720 75770000 75649180 76332420 77168950 77305100
1361.51 77469530 78366360 79166330 79683440 81187230 82827450
1364.40 83774160 85052320 86628610 88283960 90306940 92101260
1367.29 93960550 96617740 98979290 101168300 103954100 106703000
1370.18 109228600 112588300 115453600 118165400 121887700 125381500
1373.08 129038000 132780300 135886100 138985600 142112700 144974800
1375.97 148210300 151626100 154093700 156188500 158923400 161321400
1378.86 163377300 165051000 166298300 167327000 168432100 169655100
1381.76 171511900 174033000 177010600 181056800 185202400 187981600
1384.65 189214900 188811700 187255800 186112900 186800800 189158300
1387.54 191074600 193015900 195265600 197365800 198867600 199459700
1390.43 199466900 198750600 197200600 194517200 192079200 190407900
1393.33 188200100 185223300 181123600 177303700 173722400 169124200
1396.22 164841700 161811600 159527200 156506600 154031200 151909500
1399.11 148450200 145232300 142276100 139107700 135764900 132295500
1402.00 129133000 126253900 122918200 119259300 116132900 112782700
1404.90 108746300 105198800 102066400 98772700 95751340 93180090
1407.79 90456060 87293820 84767790 82923560 80753110 78572410
1410.68 76756840 74715870 72820860 71169220 69574660 67994480
1413.58 66526610 65427380 64539480 63295640 62320720 61281430
1416.47 60475790 59717290 58502310 57919250 58376640 59030000
1419.36 57730700 56090700 55396660 54771510 54226750 54184980
1422.25 54491070 54271510 53838160 53384810 53290480 53673740
1425.15 53719020 53670710 53937820 54338950 54845360 55499780
1428.04 55949170 55978870 56563140 57313930 57456920 58052550
1430.93 58860870 59597710 60316080 60797360 61148450 61442630
1433.82 61694080 62121940 62782300 63174160 64586300 67135460
1436.72 67870430 68665180 70426080 71160230 71738470 72497100
1439.61 72902740 73976750 75854160 77443450 78977800 80840550
1442.50 82846420 84603470 86682270 88820570 90345120 92076490
1445.40 93639330 94859150 96142870 97574420 99067860 100068100
1448.29 101229100 102648400 104105100 105056700 106242800 107537400
1451.18 108813400 110048200 111446000 113125700 114095200 115194200
1454.07 116394100 117731400 118733800 119741400 122731800 124523100
1456.97 123249600 123684200 125392600 126802500 128328000 129694000
1459.86 131431000 133194100 135090400 136452000 137234600 138388600
1462.75 139820400 141270200 142720300 144691400 144823700 142655700
1465.64 141324100 140381000 139232600 138321700 137325900 136165800
1468.54 134592900 132620200 131291400 130641100 129973200 130258600
1471.43 131516300 131992400 132547900 132901600 130844300 128729400
1474.32 127992300 127329200 127752700 128018600 126983000 126333400
1477.21 125484000 123769500 122170500 120438800 118538600 116715000
1480.11 114748400 112766300 110835400 108977800 107473400 105633600
1483.00 103151000 100766000 98707190 96751410 94658720 92768060
1485.89 90693980 88690460 87102290 84783350 82584700 80524690
1488.79 78177840 76507890 75004860 73255740 70546080 68003540
1491.68 66012740 63503900 61289950 59582560 57729200 55871690
1494.57 53984690 52645330 52221380 50136410 47035200 45099470
1497.46 43554370 42400410 40991930 38922220 37198880 35673340
1500.36 34215350 33140460 32051880 30546570 29104540 28304050
1503.25 27681860 26618600 25294240 26290550 27051560 24429660
1506.14 24353890 24786810 22028600 20532140 20277020 19453960
1509.03 18840200 18203660 17158040 16324220 15774680 16021230
1511.93 15702810 14656900 14317790 13837620 13432490 13471470
1514.82 13495510 13196220 13024160 12889630 12937800 12544490
1517.71 11621850 11305770 11061140 11267680 11591480 11668170
1520.61 12943550 12064380 10401270 11070270 10693190 9662016
1523.50 9611558 9584410 9915258 10521060 9783836 8964008
1526.39 8958558 9166462 8725608 8847206 9034288 8426792
1529.28 8109348 8165128 8441218 8315720 8309964 8048238
1532.18 7960560 8515132 9204482 9147360 7985748 7436558
1535.07 7865316 8176172 8080166 7796604 7628688 7797820
1537.96 8949824 11060920 9914170 9374070 10268590 8412574
1540.85 7684570 9036310 9072910 7884608 7787446 7639466
1543.75 7220722 7688748 8039480 7302142 6963336 7164904
1546.64 7283572 6961564 6913192 7219872 7085948 7126290
1549.53 7422530 7108714 6690936 6474146 6198386 6240608
1552.43 6533302 6520828 7439176 8213836 7216180 6586348
1555.32 6643590 6778256 7019756 8161842 8681334 9809912
1558.21 10088540 7985978 8749682 10362490 8521176 6541122
1561.10 6283342 6198880 6320760 6131004 6112832 6190518
1564.00 6149486 6150790 6031876 5938008 6178164 6317380
1566.89 6302606 6334864 6113894 6223748 6854100 7341880
1569.78 6313416 5600352 5533232 5431962 5670822 5782658
1572.67 5853384 5970810 5984530 5998834 5840410 6744122
1575.57 9204494 8260788 5970060 5604162 5323714 5219938
1578.46 5336782 5258374 5378136 5418992 5283044 5379936
1581.35 5142636 4893084 4975680 5141572 5540926 5420606
1584.25 5096088 5084666 4940668 4796758 4769008 4937398
1587.14 4925434 5023006 5021972 5189150 5244962 5022378
1590.03 5076668 4792340 4707310 4923444 4855130 4724874
1592.92 4629558 5042504 5233820 5111462 4986232 4777524
1595.82 4793314 4783524 4657812 4900082 4856064 4581656
1598.71 4777190 4883958 4936964 4919714 4689102 4505098
1601.60 4361174 4568650 4714442 4616422 4930182 5027816
1604.49 4836990 4593450 4381070 4406590 4804274 4883486
1607.39 4702472 4592438 4153280 4286194 4676928 4641268
1610.28 4672312 4741950 4545546 4440946 4371438 4149550
1613.17 4150362 4281532 4486622 4613704 4740250 5820666
1616.07 7882218 6974702 5049028 4847026 4552048 4347654
1618.96 4427198 4476390 4332896 4381954 4324364 4294726
1621.85 4634668 4753746 5444374 5307776 4204686 4121192
1624.74 4365608 4251948 4170766 4310438 4417648 4595116
1627.64 4363266 4360038 4397986 4537408 4601754 3970324
1630.53 3815928 4311016 4348988 4141228 3979060 3666934
1633.42 3330724 4202530 5492214 6622988 6419904 4593796
1636.31 4039300 4314648 4252212 3911180 3692458 3818048
1639.21 3882968 3882256 4224946 4061498 3629546 3948546
1642.10 4126906 4052572 3944666 3795052 3856230 3949190
1644.99 5078880 6400710 5099050 4330804 4761532 4535208
1647.89 4532270 4379588 4325690 4406110 4030908 4064860
1650.78 4193606 5145552 7881842 8449704 8524954 6586938
1653.67 4999018 5441768 4475890 3899092 3928410 3883944
1656.56 3639804 3509342 3216642 3560222 3761204 3719036
1659.46 3898478 3779398 3603156 3736924 3781508 4279372
1662.35 4568494 4000034 3732276 3619546 3579888 3693766
1665.24 3726116 3647410 3550478 3356010 3622520 4005212
1668.13 4045518 4565142 4546826 3958490 3517292 3696744
1671.03 4060842 4007092 3940974 3604110 3457230 3431690
1673.92 3544016 4659192 5649202 4814340 3834472 3789656
1676.81 3638922 3481106 3797826 4124892 3896306 3931866
1679.71 4044854 3771944 3587564 3932622 4012586 4194188
1682.60 4929762 5181810 5307614 7678932 7986826 4690658
1685.49 3708092 4028288 4074784 3826488 3764760 3952138
1688.38 4013810 3759292 3785980 3911712 3591258 3441478
1691.28 3745196 4149838 3902360 3531514 3613394 3800420
1694.17 4010452 4810448 7711608 8124644 5138060 4379714
1697.06 4521442 4078618 4080036 3939318 5241928 7246690
1699.95 7099602 5931898 4498162 3712352 3632348 3890330
1702.85 3625012 3496206 4218500 4105904 3680730 3880462
1705.74 4218100 4042420 3524086 3091182 3076604 3423080
1708.63 3596926 3666546 3795074 3635098 3502622 3590154
1711.53 3400206 3469584 3683362 3619256 3651218 3506030
1714.42 4142164 4304312 3536962 3238096 4385116 6500518
1717.31 4956408 3877702 4222648 3300864 3101468 3129850
1720.20 3140666 3199140 3248050 3025448 3023278 3210352
1723.10 3315848 3253590 3202120 3083778 2901726 3280934
1725.99 3429726 3331118 3399396 3342468 3310954 3113168
1728.88 3089598 3275944 3128264 3229624 3542444 3462012
1731.77 3220296 3576436 5521618 5188958 4888504 5790652
1734.67 4168496 3181718 3457894 3463588 3357984 3469470
1737.56 3317234 3218640 3228186 3847780 4317654 3755696
1740.45 3412600 3398398 3194730 3092224 3397236 3688768
1743.34 3454268 3140440 3170172 3126010 2898744 3092020
1746.24 3678728 3802464 3469488 3696136 3823414 3331752
1749.13 3134146 3148250 3880110 5053262 4771574 3658838
1752.02 3428052 3321218 3429676 3479222 2999596 2855682
1754.92 3289974 3422792 3788756 4066160 3485164 3241196
1757.81 3078668 3056422 3168986 2861888 2815722 3294946
1760.70 3547610 4150308 3884516 3094284 3038748 2850644
1763.59 2950342 3221488 2970136 2788158 2830268 2677700
1766.49 2603584 2917598 3971058 3939968 3084064 3188848
1769.38 3135586 3141734 3575320 3945312 3428624 4040176
1772.27 5091998 3708036 2875278 2792296 2559154 2879918
1775.16 3202338 3296116 3170132 2888372 2994836 3135538
1778.06 3273858 3388218 3189142 3102836 3360588 3198638
1780.95 2987104 3032234 3033266 3057642 3040216 2814974
1783.84 2762746 3631056 3759094 3233516 3122516 2977692
1786.74 3160664 3491870 3398770 3182276 2756414 3075782
1789.63 3554762 3591122 3404462 3210116 3714124 4727578
1792.52 4381122 3366864 3308392 3358912 3201984 3099858
1795.41 3346680 3335886 3383882 3423410 3396186 3348518
1798.31 3485674 3778914 3922650 3807554 3385320 3393828
1801.20 3204972 3099054 3235396 2982000 2871136 2697414
1804.09 2747096 3078352 2952676 3057722 3318810 3134870
1806.98 3309878 3401454 3187350 2975584 2609222 2862890
1809.88 3129314 3140500 3206614 3141310 3190390 3075472
1812.77 3003132 2917140 3006524 2838886 2861706 2835394
1815.66 2561796 2838020 2813890 2780744 2882306 2649810
1818.56 2551634 2753362 2842332 2797414 2621404 2581740
1821.45 2734016 2696776 2823982 2875294 2750620 2669920
1824.34 2900772 3276680 3145900 2782760 2674876 2700016
1827.23 2572224 2283534 2553232 3169980 3303576 3309974
1830.13 2837838 2642716 2729502 2648912 2651764 2626164
1833.02 2434842 2347358 2495564 2524148 2502330 2510358
1835.91 2424774 2351530 2359360 2395226 2601268 2497784
1838.80 2487348 2589076 2770014 2788822 2558888 2523888
1841.70 2724910 2931890 2523012 3079064 4455760 3865620
1844.59 2991696 3020596 2838460 2808646 2671234 2721318
1847.48 2631984 2569574 2555508 2372626 2650004 2916208
1850.38 2759094 2822012 2983646 2518122 2540940 2909776
1853.27 2858360 2834660 2994592 3059872 2951740 2841658
1856.16 2774296 3008180 3144598 2913128 2790300 3080862
1859.05 3183654 3088226 3230254 3197326 2996104 2839704
1861.95 2838736 2985874 3035028 2791340 2571362 2875384
1864.84 3214418 3288586 3400044 3394550 3334590 3631032
1867.73 3637856 3288038 3538744 3334286 3095370 3494704
1870.62 3172018 2472502 2517836 2787902 2787116 2943450
1873.52 3212906 3336444 3258632 3257600 3248386 3114502
1876.41 2977784 2884614 2964098 2781868 2687560 2956008
1879.30 2877376 3005182 3100406 3013050 2991836 2993576
1882.20 2997944 3117776 3067620 2726908 2621646 2688862
1885.09 2695932 2571036 2410008 2663722 2709178 2507788
1887.98 2663912 2934064 3287838 3376206 3166528 2719974
1890.87 2329638 2507284 2803020 2971982 3006440 3331862
1893.77 3091554 2502174 2694440 2642466 2430728 2713886
1896.66 3071188 2916042 2503686 2473478 2785344 3133356
1899.55 3121308 2860284 2934224 3025288 3104218 3128996
1902.44 3286440 3243300 3287040 3529518 3509770 3397374
1905.34 3265708 3068204 3094130 3332062 3569304 3706604
1908.23 3715790 3813642 3808022 3661740 3652964 3616418
1911.12 3412906 3234644 3594138 4024654 3795442 3612404
1914.02 3604112 3619688 3516492 3722056 3938090 4014392
1916.91 4038452 4027664 4001758 3927694 3716052 3562802
1919.80 3443886 3394270 4077030 4107062 3839858 4086056
1922.69 4210532 4284238 4261028 4097130 3910968 3850440
1925.59 3935372 3945566 4074294 4172692 3701188 3557834
1928.48 3668360 3472098 3569630 3490444 3327788 3365198
1931.37 3339912 3382544 3488984 3276148 3079152 2914128
1934.26 2955026 3370612 3633918 3450540 3058818 2787944
1937.16 2913294 3441876 3499716 3389624 3445498 2947142
1940.05 2767386 3234108 3287866 3418684 3694186 3575688
1942.94 3364376 3335650 3120182 3013690 3139554 2995256
1945.84 2917542 3152182 3115764 3071182 3265158 2917352
1948.73 2791630 3182384 3193940 3234974 3191248 3120174
1951.62 3132266 2840868 2912740 3248284 3173062 3205622
1954.51 3298590 3238498 3313346 3007696 2693522 2870836
1957.41 3038450 3142488 3169322 3060904 3192714 3259872
1960.30 3399620 3419624 3094546 3223760 3398162 3224716
1963.19 2859996 3177000 3522254 3276846 3037134 3140992
1966.08 3394342 3578934 3778636 3520698 3477638 3627864
1968.98 3574908 3605232 3805406 3696496 3688338 3861722
1971.87 3593236 3481216 3712778 3943630 3873646 3760238
1974.76 3690546 3804080 3944156 3761146 3607268 3543440
1977.66 3665218 3760246 3802728 4033714 4074294 3993546
1980.55 3889168 3740658 3548048 3521060 3577700 3781522
1983.44 4071322 4087922 4274028 4009606 3673966 3892934
1986.33 3888386 3648652 3762544 3937636 3811462 3816172
1989.23 3863126 3729734 3560152 3712206 4001200 4166354
1992.12 3933664 3598932 3685476 3710358 3683866 3571896
1995.01 3443264 3796072 4033136 3730846 3611944 3586034
1997.90 3513818 3598962 3772352 3837768 4120586 4326076
2000.80 3944624 3489160 3508932 3949600 4124188 4291866
2003.69 4208088 4092754 4044660 3831800 4020880 4334470
2006.58 4186362 3958696 4055538 4074208 4163484 4148646
2009.48 4478702 4894034 4677526 4421786 4604778 4993354
2012.37 4929822 4776616 4866462 4814328 4828784 4984440
2015.26 4985774 5228918 5528002 5435804 5505300 5669508
2018.15 5718270 5881196 5807968 5648084 5708326 5914964
2021.05 6028048 5924288 6125290 6513172 6491640 6606162
2023.94 6627418 6381414 6361602 6685748 6977186 6995290
2026.83 6911070 6835536 6998110 6841842 6603362 6900138
2029.72 7507124 7915940 7640778 7218224 7192206 7257988
2032.62 7636164 7640932 7061446 7238188 7477320 7304324
2035.51 7452782 7710378 7771662 7789880 7707610 7750156
2038.40 7865516 7935008 7870670 7559486 7571780 7542554
2041.29 7513160 7588580 7267884 7099530 7303436 7033540
2044.19 6861112 6962512 6706624 6760712 6601448 6359110
2047.08 6207134 6163246 6555078 6569802 6389480 6251922
2049.97 5962248 5955114 6014956 5704950 5701526 5623794
2052.87 5500638 5685742 5664318 5342366 5280054 5342960
2055.76 5227500 5132608 4902214 4699102 4562468 4664048
2058.65 4802224 4703650 4421468 4442038 4604110 4439740
2061.54 4312116 3994194 3714788 3652484 3656144 3990158
2064.44 3985222 3929284 4206562 4077284 4005690 4084030
2067.33 3774216 3791836 3957806 3835346 3922762 4062438
2070.22 4089856 4012300 3935456 3794846 3518222 3435962
2073.11 3596184 3985162 4063040 3945412 3959938 3566780
2076.01 3471092 3500230 3499796 3731848 3742770 3765292
2078.90 3778894 3661008 3622606 3465318 3314066 3325496
2081.79 3447016 3624834 3311188 3080722 3563582 3773524
2084.69 3844154 3696590 3232782 3297450 3449304 3508224
2087.58 3655272 4042050 3839676 3196150 3119982 3553952
2090.47 4085624 4042870 3724242 3727362 3555648 3368568
2093.36 3583132 3740362 3566784 3367976 3586602 3428714
2096.26 3158152 3404238 3305828 3237836 3685776 3972774
2099.15 3813564 3701840 3591284 3547476 3561468 3365176
2102.04 3171476 3303344 3301946 3115172 3194096 3134978
2104.93 3037716 2953852 3005324 2812496 2796532 3182610
2107.83 3089950 2903386 2832094 2832604 3052998 2895340
2110.72 2588106 2678950 2625194 2721790 2718650 2533078
2113.61 2812162 2869672 2886132 2879734 2638024 2698636
2116.51 2545022 2299842 2544324 2854658 2317038 2012480
2119.40 2212120 2152728 2234332 2068980 1992708 2187030
2122.29 2458094 2616252 2375204 2125040 2154192 1959662
2125.18 1622460 1856212 2375780 2569836 2180548 1910002
2128.08 1887398 2009474 2058280 1829714 2035658 2086050
2130.97 1957840 1774390 1650986 1840356 2091150 2418736
2133.86 2276856 2127856 2217082 2147044 1953218 1660532
2136.75 1967964 2203036 1895824 1920910 1933792 1823612
2139.65 2105688 2136184 1810958 1964842 2395446 2527056
2142.54 2221212 2165486 2130176 1973734 2117912 2354754
2145.43 2236932 1943642 2143482 2272198 2229614 2337288
2148.33 2327350 2173992 2105464 2148816 2249932 2205114
2151.22 2115304 2156852 2342592 2413068 2305860 2239728
2154.11 2552822 2754550 2552268 2534014 2329748 2324132
2157.00 2310682 2304280 2587174 2658072 2546606 2283984
2159.90 2461648 2874472 2909578 2903980 2847122 2782992
2162.79 2853998 2648798 2624916 2595202 2558170 2758430
2165.68 2793022 2959152 3164696 3079898 2890944 3003386
2168.57 3057556 3046604 3234920 3535072 3504626 3444854
2171.47 3419664 3361492 3546370 3544918 3297870 3136076
2174.36 3290490 3305208 3524284 3977056 4055298 3978872
2177.25 3873312 3746064 3654830 3717870 3615622 3428630
2180.15 3606726 3707586 3440424 3425430 3532630 3960276
2183.04 4283712 4250104 4166038 3886224 3755480 3585856
2185.93 3787198 4163040 4039044 4029266 3908592 3874708
2188.82 3852594 3901000 4003046 3416168 3513676 3953560
2191.72 3922332 3824408 4044258 4228688 3887958 3595876
2194.61 3600536 3706852 3601564 3463414 3642970 3787922
2197.50 3883790 3758458 3598362 3705880 3916848 3954020
2200.39 3969736 3945716 3768240 3475832 3456540 3677058
2203.29 3655772 3855668 3668844 3478798 3785648 3889276
2206.18 3823126 3809382 3713920 3652588 3452460 3255862
2209.07 3556268 3851194 3720894 3566656 3448770 3311708
2211.97 3576784 3624792 3599728 3756820 3655542 3559164
2214.86 3821880 3609390 3359970 3597412 3571012 3284864
2217.75 3295118 3470470 3495306 3408668 3362184 3440146
2220.64 3550932 3640694 3680970 3796790 3459160 3071670
2223.54 3246446 3418126 3124326 2962726 3240296 3398404
2226.43 3517702 3557386 3148192 3170764 3365658 3306688
2229.32 3269958 3169690 3118784 3190394 3257990 3351206
2232.21 3527440 3624090 3540240 3186412 3017570 3075392
2235.11 2938312 2947160 3309286 3467426 3140400 2915338
2238.00 3156392 3350646 3385772 3495718 3484234 3584396
2240.89 3692920 3371676 3256984 3511472 3509918 3352726
2243.79 3170030 3038114 3213462 3285428 3365472 3448106
2246.68 3581262 3560094 3510354 3593764 3348210 3321472
2249.57 3169184 3179690 3504824 3708298 3868674 3798262
2252.46 3387848 3346966 3440850 3244718 3374408 3364204
2255.36 3148390 3285598 3633752 3904728 3889864 3615700
2258.25 3591592 3810732 4038796 4085498 3957144 3855706
2261.14 3940258 4045774 4019124 3845066 3838328 3945936
2264.03 3972012 4114978 4051300 3935302 4013014 3733516
2266.93 3529360 3869588 4185098 4373664 4291722 4219726
2269.82 4304304 4409224 4451226 4451892 4334820 4305360
2272.71 4229188 4413152 4735508 4642348 4710868 4936428
2275.61 4762868 4505390 4567678 4277478 4261218 4530738
2278.50 4255968 4121900 4215794 4579718 4993268 4881542
2281.39 4880900 4658442 4510522 4609152 4565842 4667274
2284.28 4829706 4858580 4604590 4638478 4884366 4803822
2287.18 4854182 4750042 4809066 4919234 4914690 4777032
2290.07 4831430 5204266 4858368 4593058 4786618 4744528
2292.96 4610870 4761742 5007210 5107884 5231904 5080090
2295.85 4471248 4369208 4962756 5456572 5349194 4888574
2298.75 4632522 4788112 4916766 5014758 5134814 4939038
2301.64 4770452 4894708 5020978 5158906 5464560 5450068
2304.53 5427056 5373168 5238392 5089570 5066088 5007912
2307.43 4965790 5418078 5857310 5672066 5754536 5803854
2310.32 5304668 5279962 5433036 5546940 5678050 5743496
2313.21 5602224 5850042 6052974 6072886 5871186 5236118
2316.10 5115954 5573882 5978796 5481290 5380340 5951696
2319.00 6041510 5924568 6087476 6670996 6151318 5542540
2321.89 5933932 6381784 6119390 5938762 6190614 6565404
2324.78 6810720 5989168 5937452 7120406 6684980 5561932
2327.67 6422340 7453444 6561602 5720864 6644164 7395648
2330.57 6507550 5884228 6963300 7394314 6169742 6227778
2333.46 7396010 7063014 5930248 6340042 7299708 6557310
2336.35 5712270 6595768 7118940 5971542 5925640 6909182
2339.24 6440664 5692518 6483384 7007216 5900946 5691688
2342.14 6648016 6018774 5415138 6176638 6433240 6216344
2345.03 6321798 6086792 5492480 5325244 5405964 5088158
2347.92 4838834 4943242 4920050 5051686 4889628 5146584
2350.82 5696682 5344392 5177280 5947542 5566868 4827880
2353.71 5901992 5960702 5192532 6003096 6119086 5568762
2356.60 6417800 6410238 5926232 6817998 6606976 6188882
2359.49 7235950 6444014 5748900 6724236 6060792 6193950
2362.39 6753884 5433814 6337960 6733296 5643122 6569090
2365.28 6188612 6176140 6467254 5657300 6527094 6254512
2368.17 5970256 6533748 6015654 6336700 6155668 5663418
2371.06 5835372 5848684 6007272 5935866 5956876 5993118
2373.96 6200458 6149734 5939228 6030320 5573920 5295992
2376.85 5445992 5490626 5384708 5788882 6080562 6053680
2379.74 6041744 5939096 6110862 6255696 6251290 6312078
2382.64 6040166 5753260 5744270 5870714 6160102 6414304
2385.53 6354236 6151386 6417836 6762410 6686232 6223940
2388.42 6305676 6525510 6291024 6016638 6057052 6294150
2391.31 6021022 6131546 6506286 6298752 6216996 6535124
2394.21 6795794 6528596 6646596 6891588 6524842 6329798
2397.10 6298604 6313062 6785934 7111334 7091548 7293484
2399.99 7097998 6805112 7090884 7349762 7127298 6882104
2402.88 7261634 7666578 7600106 7427682 7417698 7484926
2405.78 7483150 7368122 7332852 7544918 7493720 7325772
2408.67 7476280 7577204 7590004 7526520 7615092 7719690
2411.56 7676230 7567650 7445606 7652202 7597808 7710028
2414.46 7784182 7789006 7789500 7929062 8145076 7975940
2417.35 8109502 8081554 7927132 8015208 8065516 7961834
2420.24 7622294 7454556 7466400 7582524 7696212 7750106
2423.13 7693648 7716346 7659628 7548486 7516824 7260746
2426.03 7229178 7351690 7258834 7107740 7146830 6923428
2428.92 6719548 6977600 7121434 6572856 6333360 6991888
2431.81 7281946 7101192 6872120 6956806 6811128 6371866
2434.70 6163808 6093116 6249058 6422592 6428156 6465964
2437.60 6379076 6117454 6007646 5974584 6182714 6341304
2440.49 6685522 6820856 6400130 6239918 6203738 6314424
2443.38 6110852 5861832 6062808 5915688 5641332 5781718
2446.28 5873420 5744330 5274704 5130114 5331432 5437010
2449.17 5757962 5672192 5510226 5267982 5458642 5905492
2452.06 5879854 5675896 5464458 5427888 4943276 4845580
2454.95 5454882 5379108 5057070 5101136 4941638 4782922
2457.85 4706920 4622224 4946454 4752898 4480632 5123126
2460.74 5464312 5412238 5192462 4745966 4329550 4187572
2463.63 4430774 4703732 4735340 4846742 4818780 4906362
2466.52 4908546 4662822 4871880 5010586 4684444 4236602
2469.42 4436864 4744494 4425382 4296990 4596798 4572314
2472.31 4298936 3837288 3813560 4218020 4265540 4525526
2475.20 4690028 4403172 4261394 4324694 4285968 4392324
2478.10 4194238 4100918 4188244 4152784 4067782 4168132
2480.99 4641688 4482612 4399816 4543794 4210650 3997214
2483.88 3890264 4037792 4309218 4352870 3992058 3872802
2486.77 4138244 3719664 3986868 4713984 4589748 4095660
2489.67 3744812 4218360 4464964 4201114 4262796 4277222
2492.56 4756264 5071648 4693584 4411726 4429218 4145064
2495.45 3959080 4422966 4640718 4343436 4366206 4495188
2498.34 4463004 4180678 4201092 4547438 4579422 4143718
2501.24 3680014 3889014 4180286 4375052 4126126 4035810
2504.13 4336140 4578130 4846868 4627302 4317500 4426036
2507.02 4542046 4523684 4330322 4303286 4430042 4616486
2509.92 4474750 4123712 4017916 4459804 4613104 4533788
2512.81 4690062 4723288 5023688 4942906 4303816 4359450
2515.70 5049124 4556586 4395170 4452352 3830906 3887500
2518.59 4302210 4441674 4450758 4505482 4780512 4799170
2521.49 4652490 4671600 4356204 4502678 4730372 4609934
2524.38 4773408 5003272 4701392 4405462 4693886 4656384
2527.27 4376424 4364612 4577502 4689986 4872046 5267100
2530.16 5122316 4722768 4459844 4644764 5047384 4925344
2533.06 4596532 4733852 5121542 5078048 4556102 4357780
2535.95 4866668 5103940 4987794 5137584 5198956 5030370
2538.84 4629856 4401482 4377784 4447704 4599684 4985262
2541.74 5296740 5104986 5002690 5179482 5149820 4881916
2544.63 5146134 4986744 4794798 4998282 5095430 5013364
2547.52 4997738 5201518 5007388 4981264 5249040 5181626
2550.41 4971314 5140278 5599820 5576926 5156000 5125568
2553.31 5186702 5312910 5428414 5332202 5384484 5411276
2556.20 5472648 5625894 5578942 5188370 4911648 5218144
2559.09 5310738 5207654 5295866 5117564 5001066 5108698
2561.98 5341698 5609106 5611476 5805036 5637728 5378030
2564.88 5566800 5747326 5802362 5746746 5884648 5480672
2567.77 5474652 6068644 6002498 6199950 6285218 5935420
2570.66 6137902 6020474 5466148 5719548 6230956 6148448
2573.56 5960492 5888750 6076972 6050462 6206004 6809824
2576.45 6515344 6518900 6868308 6720078 6646092 6486452
2579.34 6447392 6564706 6909724 7315062 7172856 6435070
2582.23 6142582 6914720 7306184 7253122 6753740 6453982
2585.13 6630490 6778570 7057758 7429826 7444356 7280562
2588.02 7668902 7877094 7885918 7725830 7334866 6771064
2590.91 7337978 7878694 7633892 7594190 7388794 8096898
2593.80 8257096 7775906 7861316 7971332 8095792 8008384
2596.70 8279096 8440824 8307180 8350076 8348078 8067334
2599.59 8043618 8350132 8640536 8649534 8318404 8434796
2602.48 8448142 8274056 8231290 8096808 8270308 8545472
2605.37 8522720 8520772 8581846 8710840 8890472 9000378
2608.27 8835220 8681662 8901140 8648940 8757842 9386590
2611.16 9136212 9163030 9599464 9376296 9524430 9536852
2614.05 9289046 9151474 9082784 9451478 9748344 9550320
2616.95 9436062 9676192 9885966 9816586 9401938 9126422
2619.84 9567474 9858000 9754908 10031950 9793658 9470676
2622.73 9749450 9990620 10014160 10026110 9691572 9844708
2625.62 10215040 10286610 10113470 9965130 10196380 10276860
2628.52 10523890 10683910 10518360 10510120 10621390 10676880
2631.41 10343300 10576120 10803960 10275240 10381250 10871530
2634.30 11360810 11188290 10650910 10219430 10178780 10704780
2637.19 10910590 10782230 10929000 10984050 11018470 10924370
2640.09 11299160 11981030 12191730 12283760 11623240 11206230
2642.98 11519830 11954730 11978720 11914390 11669010 11512750
2645.87 11924310 12075330 11959280 12037540 12043070 12261000
2648.77 12996520 13089530 12266340 11781360 12244140 12663210
2651.66 12880270 12741090 12943830 13079050 13021930 13330230
2654.55 13591240 13638490 13355990 12990990 13007800 13486120
2657.44 13887300 14213240 13974610 13973040 14198060 14269630
2660.34 14820060 15296950 15314430 14853500 14768720 15025600
2663.23 14662810 14944820 15535130 15281000 15046080 15288780
2666.12 16008840 16221950 15718360 15433960 15614870 16292900
2669.01 16420670 16373470 16502190 16392630 16466350 16647930
2671.91 16537850 16661750 16968320 16710880 16537080 16778540
2674.80 16836040 17053160 17291280 17248150 17544500 17736800
2677.69 17686810 17873120 17987520 18024020 17785840 17395320
2680.59 17639120 17733160 17672570 17758340 17948560 18434760
2683.48 18479520 18199290 18090670 17812560 17899130 17945170
2686.37 17669220 17947240 18680570 18664670 18291090 18415910
2689.26 18489230 18874650 18875330 18786660 19094330 19129830
2692.16 18773600 18967970 19389470 18962930 19209730 19134630
2695.05 18942550 19102340 19182090 19607970 19921690 19464770
2697.94 18857720 19148680 19316080 19567010 19767920 19539880
2700.83 19889740 20010330 19581920 19277470 19443960 20074400
2703.73 20307440 20311950 20588080 20483530 20117290 20429150
2706.62 20818430 21149850 21145610 21159800 21119260 20692340
2709.51 20683640 21345920 21533210 21232260 21430460 21773250
2712.41 22072650 22532250 22864380 22914810 23014210 22682750
2715.30 22636270 23044530 23306490 22884640 22303850 22672430
2718.19 23114020 23373350 23648420 23811060 24040640 24240510
2721.08 24181260 24116120 24561970 25278510 25099500 24969500
2723.98 25219020 25211800 25402700 25516790 26135120 26548830
2726.87 26783630 27009120 26932940 27354920 27580940 27432330
2729.76 27384480 27921400 28626420 28998670 29192180 29233190
2732.65 30010090 30560950 30571840 30749210 31101110 31747570
2735.55 32084360 32317640 32884300 33360660 32951270 32866480
2738.44 33690700 34006540 34157310 34360350 35124940 35914190
2741.33 35717740 35415280 35553540 35776710 36006640 36442790
2744.23 36643730 36241470 36449220 36968740 37016310 37068930
2747.12 37271160 37605030 38054050 38392240 38217180 38654480
2750.01 39645460 40132720 39561050 39202620 39510550 39337280
2752.90 39044440 39165860 39755960 39801920 39368890 38858400
2755.80 38797160 38937980 38867230 38930940 38830920 38544910
2758.69 38336070 39369300 39805780 39559540 39493260 39507680
2761.58 39569030 39675210 39489290 39376790 39872540 40096260
2764.47 40104470 40001090 40107880 39878580 39952190 40808040
2767.37 40891100 40631910 40672030 40850610 41219340 41196500
2770.26 41410820 41689930 41695580 41702220 41698610 42119380
2773.15 42384090 42246290 42401140 42990770 43602160 43927520
2776.05 43625890 43514100 43883570 43712120 43728550 44190750
2778.94 44366320 44641470 44885330 44761270 45076580 45438750
2781.83 45554250 45677700 46011260 46498740 47125280 47347010
2784.72 46874860 46882000 47385820 47940860 48492910 48543060
2787.62 48516410 48306140 48409470 48900760 49103160 49610900
2790.51 50071010 49924380 49517900 49767690 50242340 50343310
2793.40 49823670 49567240 49807650 50527290 50627430 50042930
2796.29 50731500 50898120 50806210 50894760 51187130 50994910
2799.19 50674920 50955790 51386750 51582810 51290930 51421850
2802.08 51249200 50884010 51092440 51672680 51717860 52052410
2804.97 52399660 52369650 52080340 51750330 53027910 53769500
2807.87 53421630 53063000 52966930 53605720 53998160 54163550
2810.76 54509100 54522890 54558720 55056020 55472590 55677460
2813.65 55893560 56511490 57244650 57379180 57578780 58883320
2816.54 59490850 59761930 60350920 60776570 60993900 61132020
2819.44 61788120 62622300 62948200 63721460 64671100 65243640
2822.33 66527560 67268100 68105210 69324450 70529260 71568610
2825.22 72075350 72898170 74381980 75574790 76629990 77942340
2828.11 79407930 81047220 82399690 84062740 86100100 87674330
2831.01 89109860 91287060 93415120 95717050 97621500 99216980
2833.90 101428000 103527200 105545500 107657800 110027400 112928200
2836.79 115523700 117637400 120051600 122631300 126092500 129720800
2839.69 133288800 136867500 140055600 143645700 147648100 150899600
2842.58 154604800 159039400 163131200 167104700 171075900 175824400
2845.47 179937900 184021900 188842300 192871300 196651000 202013800
2848.36 207236100 211188600 216112500 220476800 224956900 230504800
2851.26 235629800 240178400 244260100 249308100 255078000 260220300
2854.15 266019000 272328900 278017200 283665300 289406100 295564800
2857.04 301788500 309103900 316238400 321653200 327690300 334824800
2859.93 341960500 348527100 354925700 361357800 368991600 377932100
2862.83 384960300 391559000 399576200 407969600 416015900 423449200
2865.72 431874700 440939000 449488300 457635800 466375900 475239700
2868.61 484386800 493757000 502897900 511807400 521788300 533067900
2871.51 543439900 553985300 565034300 577634600 590490000 602808700
2874.40 615895100 629505100 643211700 656394600 669377700 682161800
2877.29 694858800 705390500 713516200 720552600 727217900 731739100
2880.18 733647100 734686800 733836200 731939100 729751600 727032000
2883.08 724045300 721801300 722020900 725725500 733645000 745193700
2885.97 750385100 742091300 730174800 723279000 721050700 720463300
2888.86 721232200 723473000 726946800 731150400 734012500 736159900
2891.75 736279900 735038600 733942700 730373700 725252700 718721300
2894.65 711018200 702820400 693874300 685921500 677797700 669309300
2897.54 661600300 654744800 647385200 639214500 633181600 627499400
2900.43 621359800 617468100 613732600 610209200 608439500 605802100
2903.32 602949200 602125500 601870600 601294500 600484000 600468000
2906.22 601177300 601492000 603119100 605474400 608412900 611760300
2909.11 614895500 618971600 622719300 626593300 630264300 633270500
2912.00 636540800 641038300 645365400 650104300 655911000 660048300
2914.90 663778900 667975900 672145600 676721300 682516500 687999400
2917.79 692740000 697577000 702157700 707033500 712239700 718814700
2920.68 726292300 732997400 739471700 746505700 753484200 759914400
2923.57 767209900 774855000 781430000 788185800 794843800 802020200
2926.47 810793200 818633700 825071700 831161300 837799600 845136100
2929.36 852584700 859574100 867689900 874844600 880554200 887765900
2932.25 896684400 905163400 913102800 922716500 932479200 941230200
2935.14 949207600 957867500 966502900 974334000 981902500 988656800
2938.04 994688600 1000345000 1004447000 1007003000 1008105000 1009687000
2940.93 1012191000 1013707000 1016130000 1017838000 1017692000 1018249000
2943.82 1017512000 1014488000 1009780000 1004618000 999586000 994561600
2946.72 990760500 988938900 989176400 988449800 987144700 987011500
2949.61 987114100 986903500 988060500 989301400 989944100 991485700
2952.50 992311700 995046700 998854500 1000974000 1001823000 1002728000
2955.39 1003822000 1004351000 1005111000 1006478000 1007871000 1009463000
2958.29 1012812000 1015511000 1017987000 1022261000 1026562000 1029947000
2961.18 1034841000 1042081000 1048702000 1053851000 1059723000 1065599000
2964.07 1072606000 1081910000 1094962000 1112627000 1131412000 1149422000
2966.96 1162920000 1166520000 1155530000 1133630000 1110289000 1087826000
2969.86 1066893000 1047746000 1031105000 1016212000 1001589000 990052400
2972.75 982924200 979263600 975426400 968061600 957585900 944797400
2975.64 933613200 923756000 913306000 905701400 897205400 886922800
2978.54 876481000 863129900 848061100 832527000 813936400 792262300
2981.43 769181000 745930400 721478000 696053800 670671100 644193100
2984.32 615929300 588254000 562129900 536581700 511184500 486852800
2987.21 463719700 440990800 418920300 397063400 376803100 358128800
2990.11 340468800 324107700 308082500 292739100 278477100 264975500
2993.00 252492000 240806900 229024200 216699500 205448300 195549300
2995.89 186078900 177281600 169374600 161087300 152928800 145493900
2998.78 138292900 131684600 125512500 119515100 113307800 107826100
3001.68 102849600 97036220 92112510 87989890 83446220 79652720
3004.57 76494880 73564630 70156970 66981650 64446900 61151490
3007.46 58187480 55854930 53047730 50873050 49331900 47210220
3010.36 45479240 44642160 43518590 41601820 40414880 38892120
3013.25 37473840 36842860 36012740 35445660 34365870 33053880
3016.14 32102660 31651740 31346150 30320330 29511650 29176580
3019.03 28477460 27951510 27735190 27406070 27677030 27385210
3021.93 26002290 25766070 25716360 24950790 24565820 24839210
3024.82 24864930 24099060 23470040 23627780 24413810 24878570
3027.71 23756640 22502790 22485960 22599870 22919980 23073350
3030.60 22630180 22637830 22180030 21539980 21472280 21603800
3033.50 22112190 22285820 22338720 21938680 22132200 22241460
3036.39 21437430 21445170 21638100 22083390 21622480 20281350
3039.28 20540590 21564320 21701230 21509150 21157440 21280020
3042.18 21441460 20912730 20689170 20983270 21257340 21556660
3045.07 21466480 20578110 20678990 21118180 20505620 20275470
3047.96 20346970 20290830 19951710 20111580 20492490 20315160
3050.85 19981040 19615170 20221530 20483520 19874130 20060180
3053.75 20073370 19699100 19317130 18967020 19011470 18838160
3056.64 18230350 18124000 18002300 17671180 17722840 17847530
3059.53 17887270 18206250 18132450 17115450 17603640 17973390
3062.42 16942390 16521880 17104140 17274570 17209480 17050290
3065.32 16365790 15788070 15356820 15440870 15273650 14994230
3068.21 15149170 14947930 14430590 14059210 14174480 14359090
3071.10 14177020 13806770 13683840 13702400 13276100 13327020
3074.00 13662210 13056250 12697930 12964500 12683330 12233220
3076.89 12022450 12316930 12047740 11176800 11083050 11832210
3079.78 12334870 11882190 11860750 12864880 12848900 11967520
3082.67 11485610 11477750 11671720 11576340 11145160 11116900
3085.57 11757450 11506950 10864810 10747260 10853300 10681210
3088.46 11070710 11283690 10610790 10386980 10667950 10922170
3091.35 10681270 10169880 9798934 10239580 10863830 10992650
3094.24 11079260 10790610 10614910 10526060 10160220 10255410
3097.14 10347020 10110950 10186480 10028400 9892062 10241450
3100.03 10695650 11298440 10592280 9848822 10144880 9420808
3102.92 9473886 10131870 9769932 9452066 9286720 9510382
3105.82 10033640 9762438 9319496 9534750 9912982 9860210
3108.71 9564752 9849674 9187696 8741946 9590494 8969382
3111.60 8134256 8950534 9357744 8697460 8203568 8574484
3114.49 8895494 8816282 8940496 9238172 9610456 9512710
3117.39 9213718 8901848 8885896 9205328 8420086 7926132
3120.28 9000462 9668794 9367994 9127404 9479924 9429660
3123.17 9101924 9119678 8422596 8064254 8461722 8878216
3126.06 8978646 8660518 8455450 8835960 9247038 9091158
3128.96 9002776 9168820 9106326 9180530 8969146 8177006
3131.85 8733468 9511576 8895652 8733326 9071360 9216106
3134.74 9261446 8702310 8394636 8436660 9014514 8975594
3137.64 8566102 9201142 8803092 8881742 9590090 9430676
3140.53 8901068 8645958 9011226 8512132 8267680 8546732
3143.42 8527998 9395876 10144670 9558134 8547402 8856236
3146.31 8982190 8556800 9339122 9157300 8217166 8398532
3149.21 9377840 9019580 8460082 9046486 8840400 8368058
3152.10 8697404 8861336 8878358 9231826 9456264 9545306
3154.99 8852810 8614294 9121294 9067006 8636418 8528846
3157.88 8399468 8366782 8851970 9090732 8513376 8387328
3160.78 8999550 9044040 8978700 8682798 8370562 8364384
3163.67 7969278 7946806 8822456 9455434 9454094 8800266
3166.56 8637330 8895278 8762170 8863502 8923046 9075236
3169.46 9230870 8916152 8768614 8874102 8398848 8308018
3172.35 8594208 8698164 9211074 8957532 8508722 8681912
3175.24 8668930 8976250 8929752 8660634 8865954 8324238
3178.13 8080292 9229012 9747406 9182548 8819334 8952248
3181.03 9456644 9084818 8275754 7976606 8877852 9758192
3183.92 9147430 8891660 9724466 10238910 9364768 9148116
3186.81 9325556 9475280 9580820 8879710 8952010 9486878
3189.70 9897358 9846144 9822674 10464390 10062830 9559072
3192.60 9631366 9450958 9512638 9543344 9951172 10018100
3195.49 9794310 9963692 10020920 9862276 10169810 10369330
3198.38 10188050 10051830 9834188 9559728 9128212 9211848
3201.27 9322504 9465896 9537696 8931008 8526326 9387352
3204.17 9784404 9478866 9641566 9375244 9574736 9402620
3207.06 8384630 8317750 8988280 8964092 8362780 8425864
3209.95 8744104 9228878 9105684 7706646 7539914 8762440
3212.85 8908682 8494150 8033738 7557432 8305058 8817348
3215.74 7962856 7627178 7820584 7476658 7099438 7272598
3218.63 7095692 6707036 7039770 7180610 7476550 7428272
3221.52 6319718 5952604 6031400 5819100 5412994 5260588
3224.42 5782204 5882322 5874220 6163530 6402512 6246154
3227.31 6153984 6025894 5300574 4778818 5086378 4758526
3230.20 5125778 5472524 4728502 5034436 5213672 4988374
3233.09 4707216 3981478 4382576 5396360 5761114 5486578
3235.99 4528278 4912466 5161530 4171068 3373366 3346248
3238.88 3470542 3886772 4432954 4691290 4986786 4847058
3241.77 4349168 3791606 3917912 3901310 4263316 4233628
3244.67 3129106 3320456 4045792 4444652 4662360 4371352
3247.56 3638048 3189038 2813804 3313182 3459696 3059172
3250.45 3409908 3562684 3465686 3574892 3609184 3276850
3253.34 3138580 2916632 3324896 3434204 2994020 3650570
3256.24 3729458 3085764 2884138 3222894 3142700 2678042
3259.13 3038758 2994526 2925874 3402822 3554496 3442660
3262.02 2320398 2213780 2995468 3042906 2964248 3431198
3264.91 3451586 2828362 2932374 3390138 4061550 3579262
3267.81 3632038 3637288 2916082 2641406 3330272 3471506
3270.70 2377268 2170246 2926684 2989538 2600794 2509678
3273.59 2479548 3433976 3324528 2920202 3210442 2702094
3276.49 2393954 2845680 3609376 3095356 2344580 3048996
3279.38 3519464 3234962 2795276 2519562 2044278 1493228
3282.27 2302712 3051198 2576074 3320616 3675142 2890588
3285.16 3537602 3402766 2618038 3083370 3498008 3150776
3288.06 2809784 2292062 1678528 2069892 3154926 2654356
3290.95 2143424 2906200 2457264 2245782 3015198 3139906
3293.84 3175816 3607050 3737952 3495520 2874578 2663036
3296.73 2177926 2234084 3555278 3824170 3269080 3144358
3299.63 3176502 3162408 2849346 2297122 2348322 2886028
3302.52 2703026 2089540 2385506 2645644 2586888 2869320
3305.41 2751268 2748754 3274874 3466000 3873024 3630054
3308.31 3204240 3148806 2706920 3204628 3435646 3108852
3311.20 3353396 3435680 2873556 2924284 3629162 3599342
3314.09 3057386 2540860 3394746 4147456 3723858 3198052
3316.98 4204442 5046300 4140050 3245216 2742876 3007664
3319.88 3363456 3196036 3173492 3738208 3697314 3272936
3322.77 3275942 3887074 3817984 2996188 3427020 3949786
3325.66 3242220 2789788 3205288 3117836 3364674 3295658
3328.55 2811952 2865344 3787044 3799936 2788294 2654186
3331.45 2526754 2420258 2501226 3463614 3418158 2983396
3334.34 3540562 3276020 2606716 2890976 3500672 3212940
3337.23 2586372 3237150 3818378 3943866 3354988 2694136
3340.13 2414028 2662564 2917488 2937040 3034536 2523666
3343.02 2773966 2768020 2771970 3227088 2697512 1872962
3345.91 2540228 2752030 2138690 2486292 2868366 2697632
3348.80 2198606 3072632 3216246 2682850 2858362 2505354
3351.70 2801106 3333860 3321144 3223052 2338304 1641300
3354.59 2470102 3251602 3132598 2717894 2290900 2430382
3357.48 3253810 3375134 3323120 3697726 3269560 2897918
3360.37 3033688 2953738 2476004 2795040 3757176 3011802
3363.27 2745614 3224482 3941990 3838146 2676544 2617590
3366.16 2546716 2209494 2771288 3251296 2843480 2511978
3369.05 3178710 4294562 3802542 2870570 2684966 2704260
3371.95 2591518 2931716 3602814 2984878 2990220 3712078
3374.84 3465890 2508030 2595212 2845920 2612156 2945652
3377.73 3126872 3004728 3466418 3515228 3167392 3588272
3380.62 3113240 2721252 3020616 3005704 3428640 3880334
3383.52 3164676 2552502 2947974 3739534 3248256 2613996
3386.41 2952270 3179072 3254730 3029104 2522708 2373980
3389.30 3040570 3411106 2654244 1984658 2091944 3021240
3392.19 3706020 4105766 3829898 2926094 3389452 3366580
3395.09 3378020 3561730 3456144 4473812 4188634 3930388
3397.98 4039416 3692250 3638178 2665934 3005312 3481910
3400.87 3557478 3338076 3531454 2804056 2367068 3534402
3403.77 3732314 3526752 3703780 3827780 3737558 4085924
3406.66 3620600 3422114 3220558 3526456 4333780 5060620
3409.55 5296818 4713388 3933850 3363064 3499942 3995788
3412.44 4199140 4365038 4342112 4689420 5516564 5740370
3415.34 5248806 4391992 4211970 4313504 4740254 4774114
3418.23 5179580 4979808 4247660 5012398 5502268 6110654
3421.12 5414096 4846878 5382850 4314348 3539260 3440748
3424.01 3828170 4291188 4556868 4938116 5296826 5069372
3426.91 4049050 4427696 5303444 5448926 4975902 5259586
3429.80 6428090 6889950 6556504 6191062 5697882 4882860
3432.69 4799026 5344248 5362166 4982976 5137208 5352330
3435.59 5574762 5149864 4454322 4788346 5185684 5225718
3438.48 5732526 5039394 4174804 5119182 6122064 6249046
3441.37 6651620 7296850 6714186 6281002 6515666 6141256
3444.26 5647768 5053724 4334198 4589480 4934732 5192826
3447.16 5682652 6013840 6345034 5720978 5315650 5881282
3450.05 6450898 6651776 6347252 5836298 5532942 5325278
3452.94 4849880 5203378 5782876 5870114 5575908 4800812
3455.83 5205406 6214916 6173020 5894042 6128970 6242796
3458.73 6026458 6089124 6034306 5692160 6400630 6903436
3461.62 6617546 6872174 7110462 6424932 6207322 6673424
3464.51 6564422 7050712 7352098 7278678 7106474 6974664
3467.40 6702126 5430390 4868526 5489512 5909686 5985148
3470.30 6460178 7009232 6933408 6670782 6272998 6289864
3473.19 7536666 7808222 7031462 7264702 7043512 6761348
3476.08 7313382 6759870 6084608 6495602 6894460 7032716
3478.98 6584138 6286382 6446728 6742600 7044862 7026810
3481.87 7579118 7116726 6405996 7023090 7332688 7181686
3484.76 6306526 6417064 7183900 7085644 7278246 6863890
3487.65 5802594 5784888 6274212 6259456 6455444 6706142
3490.55 6286656 6273178 7221906 7630766 7534018 6779290
3493.44 6682500 6800230 6119350 5822214 5807046 6218358
3496.33 5791406 5508088 5951932 5356502 4976196 5642282
3499.22 5680018 6133120 6244188 5695464 5259934 5297226
3502.12 5757644 5895258 6258586 6043858 5435846 4965264
3505.01 4962318 5592120 5719674 4055004 3875190 5181582
3507.90 5145764 5749590 5592260 5698132 6416176 5567450
3510.80 5350834 5549240 5243582 5170930 5093010 4846608
3513.69 5379064 5503782 4701068 4860896 5137258 5076488
3516.58 5254690 5261198 4927474 4413408 4998510 5473172
3519.47 4909440 5183188 5807552 5795144 5229862 5103724
3522.37 5517194 5414980 5122698 4861240 5489044 4908384
3525.26 3950572 4634788 5554198 6030182 5728906 5557160
3528.15 5488440 4854458 5074754 5095466 4445092 5506306
3531.04 5791610 4890512 4905826 5655492 6167476 5923496
3533.94 5489400 5229548 4994998 4735130 4593460 5564136
3536.83 5987788 5714222 5859702 4389198 2917280 3880904
3539.72 5054230 4565572 4624446 5246302 4873732 4651638
3542.62 5100162 4422966 4677210 5191138 4103130 3718172
3545.51 4755164 5452294 5085280 4976824 5613356 5943396
3548.40 5114126 5380368 5925552 5335670 5140722 4686352
3551.29 4679466 4828850 4773612 4884346 4760474 4955430
3554.19 4392118 4228484 5379558 5797956 5456278 5396692
3557.08 5457838 5477692 4502284 4683896 5740290 5232124
3559.97 4478210 4302842 4293512 4898464 5409636 4972576
3562.86 4929038 4703812 4926950 5330026 5274062 5280216
3565.76 4832894 4783418 5620296 6271788 5859156 4812392
3568.65 4745664 5249542 4986402 4250184 3062150 3970486
3571.54 5264692 5075448 4981616 5165038 4996458 4318606
3574.44 4276360 4575948 4956622 4999158 4495878 3984100
3577.33 4813128 5785924 5039180 4160766 4279144 4811994
3580.22 5508374 5709644 4838162 3933210 4381376 4875130
3583.11 5022366 5554986 5982652 5321544 4504140 4897878
3586.01 4916214 4343044 4765218 5406976 5610786 5936102
3588.90 5570510 4724956 4604560 4484598 4539586 4779652
3591.79 4665892 5771082 6655234 6167332 5861738 5447964
3594.68 5400532 5147914 5087518 5478534 5457178 5907226
3597.58 5852124 5279320 4889302 5098446 5768446 5624796
3600.47 5850358 6113418 5519786 6135336 6791936 6542442
3603.36 5910610 6325556 6691088 6315848 6491002 6834304
3606.26 7153782 6806708 7680010 7865820 6590556 7357730
3609.15 7534556 7038774 7941810 8182070 8312698 8549484
3612.04 8303064 7953836 7260370 7348122 8405624 8735142
3614.93 8423838 8355072 8825416 9130244 9946742 10534260
3617.83 9778040 9720994 10923370 11545280 10361410 10864150
3620.72 11373760 11534480 12584460 12327220 12142480 12568750
3623.61 12728140 13033200 13370840 13401770 13807880 14614520
3626.50 15164470 15412680 16698150 17298480 17412920 18572890
3629.40 18862550 18515600 18427940 18985050 20107550 20746240
3632.29 22061270 22980470 23355640 24706720 25450890 25978310
3635.18 27383430 28599890 29237910 29896180 30657490 31433870
3638.08 32283960 33392680 35501030 37456760 38367750 39249090
3640.97 40292440 42774940 45640310 46854960 48027100 50516060
3643.86 52821610 54444760 56115620 57870590 59689640 62847120
3646.75 66108170 68294420 70198680 72701770 76578970 77639090
3649.65 77727450 80211660 83307180 85754170 87496370 88345660
3652.54 90497020 94000100 96492760 99013090 101936900 105520200
3655.43 109019500 109314500 107931300 107767200 108952200 111119200
3658.32 113933300 116370600 118390200 121724900 125319700 128382300
3661.22 131444900 135527400 138760600 141173900 143723500 146237000
3664.11 149098500 152241000 154998200 157532900 160256100 163162000
3667.00 165117700 167008100 170137000 171695200 171973400 173050700
3669.90 176005000 177063700 175132200 173637500 172754100 172105200
3672.79 170373000 167456800 165249800 163833500 161564400 160009100
3675.68 157384900 152592200 150191200 149692800 150079000 152122400
3678.57 155812000 156468000 150419500 144633400 141686700 139010400
3681.47 138282500 139130600 138063700 135957500 134521200 132828900
3684.36 129765100 126429000 123246100 119883600 116815600 112179600
3687.25 106778300 103713500 99566490 92832590 87249400 82663300
3690.14 77779280 73063350 68749230 64780260 61463400 57568280
3693.04 54306350 51798180 49137900 47335290 45510420 43057520
3695.93 39920090 38002810 37135380 35224140 33787240 32433410
3698.82 31284540 29285490 27555440 27661000 27366220 26357460
3701.72 24328900 22582500 21620580 20573770 20002620 19471870
3704.61 18804790 18212180 17880260 16944400 15550280 14946630
3707.50 15191840 14989250 14706610 14609870 13588210 13569580
3710.39 13231480 12930000 14506570 14797320 13192060 12657040
3713.29 11849430 10784430 10184790 10010310 10698050 11045580
3716.18 10287730 9695244 9496344 9068752 9429078 9819726
3719.07 9858750 9130944 8855772 9686398 9460894 8974570
3721.96 9560124 9791868 9562468 9296864 9104880 9183256
3724.86 9008342 9080862 9001748 9067416 8750126 7705872
3727.75 7635560 7816050 7240336 7309386 7697114 8028934
3730.64 8670966 8732720 9644818 9761298 8487444 8010608
3733.54 7874480 8296178 8516302 8312332 7984892 8328714
3736.43 8088340 6696786 6861764 7797012 7953702 7878660
3739.32 8070764 7797370 7572366 8212404 8448716 8040012
3742.21 8061800 8022458 8332438 10752060 12376590 10132320
3745.11 7939868 7501574 7241242 7553520 7252862 7193334
3748.00 7708130 9777250 11021220 8884676 7289736 7015706
3750.89 7348660 9414258 10300930 7361202 5995710 6427014
3753.78 6356422 6257634 6910074 7340592 7719888 7987852
3756.68 7103272 6529014 7024870 7179938 7228596 8194600
3759.57 7652218 6514958 6519536 7038278 6937592 7158428
3762.46 6618172 6340484 7263818 7179934 7014066 6764790
3765.35 6800556 6666884 6800872 6578684 6529828 6973262
3768.25 6845752 6779304 7253226 7702502 6683462 6353836
3771.14 6753270 6803964 6878884 7478350 7650862 7376236
3774.03 7522646 7598826 7030222 6609992 6709494 6797840
3776.93 7085928 6670446 7034038 8213926 8713966 7901082
3779.82 6650606 6593522 6726982 6348532 6680838 6714914
3782.71 6712028 6904848 6524866 7402114 7903190 7306944
3785.60 6952866 7305498 7654878 7443944 7282600 7165154
3788.50 7347778 7386194 7291008 6748964 6284168 6858922
3791.39 6822070 7200826 7729310 6657562 7212986 7429390
3794.28 7104620 8118856 8048548 8154998 8567434 7886610
3797.17 7509756 7029634 7251756 7583280 7597742 8174012
3800.07 7678170 9283384 10955360 9372812 8799392 8499926
3802.96 7759690 8446524 8092708 6410816 5699330 6615780
3805.85 7964122 9114380 8692438 7836670 7466776 7328550
3808.75 7831074 8143952 7799490 7244100 7279662 7657608
3811.64 7862292 7512252 7093868 6951004 7004696 7141634
3814.53 7463614 9188204 11524930 10656810 8595456 7979262
3817.42 8497714 8656490 8179830 8394068 7760858 8348562
3820.32 10127220 9776170 9402314 8820448 8922332 9247772
3823.21 8748280 8579628 8656582 8946290 8693528 8627060
3826.10 8332630 8296912 8276446 7773906 7719660 8615136
3828.99 9074200 8980066 9606246 9957826 10192870 9601336
3831.89 8703156 8698608 8952506 9761780 10603920 11935740
3834.78 11813360 10351290 10190650 9933578 9721216 12221220
3837.67 12282410 10278520 10224210 10300690 10392630 10314760
3840.57 10261050 9896950 10240080 10082860 9529024 10111840
3843.46 9883578 9807410 9940284 9502736 9670282 9901922
3846.35 10643310 10399290 10240560 10556940 10610580 10805310
3849.24 10575450 10430550 10446270 10592290 12233290 13611500
3852.14 12341010 11632840 12936100 14846290 13752750 11406410
3855.03 11623590 11729960 11026190 10748500 10811640 10716590
3857.92 10820480 10308510 9527798 9804376 9819532 10198110
3860.81 11233510 11397080 10695750 10217000 10197290 11114420
3863.71 11876220 11712790 11836080 11692240 10380200 10159180
3866.60 10879800 11137160 10652880 9848624 11039320 12345140
3869.49 13230330 12595450 11220660 11556080 11166770 10923410
3872.39 10994140 10922020 11532310 11497010 11107460 10891350
3875.28 10416320 10423730 10537640 11000520 11065660 10502570
3878.17 10195710 9591828 9963716 10562230 10367590 9750688
3881.06 9528596 9470882 9217106 9235366 9194454 9508542
3883.96 10167900 10330530 11105730 10367640 8415930 8455944
3886.85 8705062 8028126 7850984 8724372 8744874 8447016
3889.74 7880324 8572800 10008720 9571892 8827130 7899898
3892.63 7459306 8152436 7852818 6596502 6913350 7151442
3895.53 7188818 7884274 7925930 7157910 6583560 6802702
3898.42 7348034 7491006 6760348 7255782 7028966 7095906
3901.31 7873444 7066584 6633588 6917818 7571784 7672316
3904.21 6976010 6959596 6852010 5515154 5521158 6508430
3907.10 6647592 6505912 6790644 6090324 5068232 5403926
3909.99 5911684 5857252 6195552 6043676 5776286 6246536
3912.88 5932174 5661934 5466208 5448752 6148196 6101938
3915.78 5236284 5446186 6606290 6597678 5924204 5349070
3918.67 5531160 5741370 5443408 5169444 5102464 6313922
3921.56 6412404 5678448 6482660 6807224 5864226 5375344
3924.45 5383694 5428806 5854624 6286218 5353504 4605956
3927.35 5166772 5121946 4948236 5717132 5539298 5637684
3930.24 6186150 5647102 5342168 5485362 5987074 5555592
3933.13 5271282 5494932 5245898 5078446 4191098 3771116
3936.03 4247036 4864134 5272748 5560176 5451738 4520510
3938.92 4448032 5092758 5620492 6198308 4971078 4199024
3941.81 5555576 6004792 5329366 4962870 5388964 5558622
3944.70 4954408 4250928 4087874 4547900 4961998 5122970
3947.60 4958632 4287532 4056844 4596992 4947868 4211320
3950.49 4139386 4683748 4947736 4960542 5551992 6228710
3953.38 5481934 5148008 5097580 4785608 4600610 4889456
3956.27 5201472 5533840 5332650 5226624 5818190 5550170
3959.17 4570864 4518180 4728768 4213368 4487740 5605608
3962.06 5347332 4711620 5289008 5066748 4620198 5085734
3964.95 5493712 4941362 4391666 4812218 4932168 4833068
3967.85 5063492 5691382 5969764 5738370 5699450 5925790
3970.74 6284676 6053452 5497292 5366768 5431436 5619400
3973.63 6063274 6481716 6418938
##END=
