##TITLE=1-Butanol
##JCAMP-DX=4.24
##DATA TYPE=INFRARED SPECTRUM
##CLASS=IUPAC A
##ORIGIN=NIST, Anayltical Chemistry Division, 301-975-3108
##OWNER=COPYRIGHT (C) 1998 by the U.S. Secretary of Commerce
##DATE=98/10/1
##$SPECTRA VERSION=1.00
##$UNCERTAINTY IN Y=2.0 % relative (B=1.0E-04,C=2.6E-10,D=2.7E-14)
##CAS NAME=1-Butanol
##CAS REGISTRY NO=71-36-3
##MOLFORM=C H3 C H2 C H2 C H2 O H
##MP=-89.53 C
##BP=117.25 C
##$NIST SOURCE=QUANT-IR
##SPECTROMETER/DATA SYSTEM=IFS66V (Bruker)
##INSTRUMENT PARAMETERS=KBr Beam splitter; MCT Detector; Multipass cell
##STATE=gas
##SAMPLE DESCRIPTION=1-Butanol Primary Gas Standard
##PRESSURE=101.3 kPa
##TEMPERATURE=23 C
##SAMPLING PROCEDURE=1 L/min Flow
##RESOLUTION=0.9640
##DATA PROCESSING=NB Strong Apodization
##XUNITS=cm-1
##YUNITS=(micromol/mol)-1m-1 (base 10)
##XFACTOR=1.0
##YFACTOR=4.5474E-13
##DELTAX=0.4820
##FIRSTX=575.169
##LASTX=3975.077
##FIRSTY=1.98E-06
##MAXX=3974.59
##MINX=575.17
##MAXY=.000536
##MINY=5.99E-07
##NPOINTS=7053
##XYDATA=(X++(Y..Y))
575.17 4363110 7450490 11349700 12401340 11105190 9928022
577.58 8842018 9741254 8599256 8688190 10412290 9491728
580.47 6855444 5769130 5867534 6490980 8653300 9705622
583.37 8052604 5883410 8708266 11384250 9355480 10076310
586.26 7552726 7362886 7644084 7568508 8993422 10763310
589.15 11738650 9606134 6218704 7378880 8718508 11462600
592.04 11647610 9884232 8593836 6547508 4169658 4913660
594.94 4492072 4667570 7917530 9995760 10294800 9071898
597.83 9066796 11152090 10851350 8385538 8989790 10328810
600.72 8689962 7053276 6443258 7255884 7755438 8828338
603.61 7503402 7806348 10653750 8909112 5903056 5996394
606.51 7632552 8331262 9353084 10348640 9111724 7884274
609.40 7146716 7648082 6773178 5606560 5466128 7091144
612.29 8066600 8457228 8413618 6905860 7744722 8702880
615.18 9363838 8597348 8477174 8476714 7931046 8338428
618.08 8919274 9808752 9244318 8770172 9348858 10163590
620.97 9472138 8428310 7487640 6167894 5828234 5940962
623.86 7227996 8274898 8977392 7754790 8422028 10549540
626.76 11810810 12051180 10750140 7912462 8016198 8139988
629.65 6146954 5176560 6956578 9350564 10420590 10085930
632.54 9271322 8140114 8783746 9875834 9883024 8995228
635.43 8285330 7594704 7032564 8899556 9162876 8061114
638.33 7612284 8321004 9590722 9369878 9042382 8557370
641.22 7644654 8559032 10491740 9140294 5966522 5953942
644.11 7621820 9140238 8825634 7548966 6989594 7394760
647.00 7557148 8746720 9525714 8762960 7940064 8533254
649.90 8872858 8667356 8582306 8597102 9106894 7485198
652.79 6955012 8669524 9599814 9894820 7828344 6805998
655.68 6996682 7781448 7863654 7764918 8063702 8288780
658.58 9524414 9402456 7992228 7601684 8788310 8733590
661.47 8993384 9415998 9009942 9209384 9293378 8238734
664.36 8099816 8057338 7138224 8190504 8200160 8439474
667.25 8946566 9310000 7725774 7407326 8588876 7838252
670.15 7708658 7142608 6002044 5673518 6789210 8573244
673.04 7909940 6732014 7414748 8510098 8783092 8939748
675.93 7930536 6487300 6400606 7399192 9101472 8329138
678.82 6303300 6039850 6997978 6843150 6950572 7543232
681.72 6941936 6234834 6575880 6897982 7111204 7283858
684.61 7193390 7429366 8768366 8340456 7722854 8346584
687.50 8822556 9010906 6770662 5046418 5364482 6718086
690.40 7627118 7695762 7197712 6429198 6144326 6699716
693.29 6583818 7179042 7364212 7247846 8306554 8605094
696.18 8207194 6984120 6994372 7220656 7151852 6443898
699.07 5619898 6469170 8281254 9675488 8849864 7725502
701.97 7020240 6447756 6680822 7303128 7958868 7914912
704.86 7186552 7834692 8129024 8093486 7950676 7657290
707.75 7438240 7202458 7679662 8391394 8799214 9049162
710.64 9049056 9191548 9348954 9372062 8239592 8247910
713.54 8456588 9285982 10978150 10623120 9502008 9372470
716.43 9239742 9583348 10387450 10839750 10483060 9882654
719.32 9692150 10421370 11820110 12168190 11152660 10836930
722.22 11208020 13126830 14162610 12674190 12735020 14734550
725.11 14530640 14280230 14245420 14132430 14311340 14752780
728.00 15296690 15615920 15942810 16218520 16299190 16367120
730.89 17495050 18185050 17759780 17674320 18337250 18200570
733.79 18354480 18567240 17661050 18912330 20516550 20410840
736.68 20573190 20962840 20703530 21044960 21962950 22663240
739.57 23717270 24739560 23859150 21449390 20006900 20654400
742.46 21612960 21128030 20058690 20140820 21109180 21300640
745.36 19932030 18861610 19369090 19825380 20419960 21029070
748.25 20270930 19296030 19908890 20327140 19645040 18804860
751.14 17874300 18002360 19658400 19974870 18300010 17346800
754.04 17203490 17405180 16743720 16312880 15930910 16087090
756.93 15818090 15504430 15560570 15452680 16060700 15264500
759.82 14157220 14154020 14156160 13842410 13092620 12667420
762.71 12920660 12876690 13147510 12642550 12023090 11264420
765.61 11400250 12107410 11060750 9871236 9846086 10398640
768.50 11220310 11453440 10256670 9813364 9802314 9651142
771.39 9673126 9703058 9549958 9080642 8896514 9604942
774.28 9770692 8891162 8482866 9086150 9877234 10164090
777.18 9026636 9226458 9328170 9288990 9242326 9730792
780.07 9561044 9588036 10105820 9890846 9496418 10254640
782.96 11233540 11016170 10278400 8817154 8351762 8742964
785.86 9473518 9823362 9312384 9161002 10382680 11292260
788.75 11598490 11803090 11564940 11653240 11801700 11827480
791.64 12426260 14199440 15083280 13667720 12284170 12543510
794.53 13603170 13500650 12639580 12734590 13121100 12535120
797.43 12977770 13906060 14266400 15028000 15556880 14233850
800.32 13783430 14219520 15074300 15893480 15445410 15497960
803.21 15151430 14436460 14811680 16487370 16962800 17219260
806.10 16636320 15555840 15021510 15657280 16111370 16736500
809.00 17453240 16717880 16505700 16439490 16064280 16262230
811.89 17949830 19158260 18543110 17558420 18477530 18998180
814.78 18650520 18241530 18140100 18987940 18947080 18553230
817.68 19460330 20435160 21824420 22397910 22201630 21095750
820.57 20676210 20759930 20815360 22141600 23154380 24113430
823.46 23821690 23349120 24699700 26492850 27542170 28159180
826.35 28693700 28459050 28936310 29770430 31043450 31850340
829.25 31003310 31504200 34060890 35790010 36019710 36649300
832.14 38026390 39673930 40983740 40993750 41316070 42872960
835.03 44965250 45937650 46966220 48500330 49461330 50242270
837.92 50355040 50304120 50655120 52530560 53587720 53522460
840.82 53856500 54358580 54661390 54091390 53026580 52305580
843.71 52307390 52583900 52415280 52041030 51996780 52332200
846.60 53144530 53039460 53236710 54588300 54795700 55181280
849.50 55108520 55066650 55741470 56190930 56462910 56386540
852.39 55769700 55329900 54942730 53864900 52708280 52581970
855.28 51787900 50295980 49951400 49525160 48046000 47265340
858.17 46727520 45646500 44512140 43671540 42846610 41632560
861.07 40848290 39836560 39066400 38192120 37113800 36040670
863.96 35226020 34179740 33541260 32867270 32232710 31475440
866.85 29754710 29080210 29077390 28735260 28049290 27467830
869.74 27129000 26962730 26792920 25817740 24948530 24770570
872.64 25064150 24338370 24179800 23381280 22704230 23422560
875.53 23759160 22981120 21985700 21172440 21008370 21809190
878.42 22814160 22172690 20835720 21075000 21664930 20883190
881.31 20536850 20433360 20563130 20535120 20449980 20579950
884.21 20929820 21155560 21232380 21615950 21873360 22262820
887.10 22638010 22595950 23089280 23613830 23217110 23403930
889.99 24433550 25252440 25506000 25859520 26416080 27065090
892.89 27602620 28272780 28247280 27609730 27266980 28085320
895.78 28547450 28191710 28169740 28300060 28583810 28647890
898.67 28216930 28290380 29101460 29366490 28800920 28794840
901.56 29309510 29941710 30316930 30544220 30547340 30875550
904.46 31038150 31390290 32457770 33447460 33416080 33123530
907.35 32905400 32554730 33025730 33099070 33122760 32654630
910.24 31854150 31846780 32053480 32688670 32417280 31637500
913.13 31275660 30748820 30820540 31472740 32159750 31509680
916.03 31368160 31459630 32118630 32777560 33558360 33893110
918.92 34411800 34719880 35379430 36338860 37606580 38140310
921.81 38883750 39738110 40703910 42117340 42785320 43167920
924.71 44584520 45784680 47161400 48716780 50250820 51759000
927.60 52721810 53572080 55416020 57060740 58337980 59911730
930.49 61330480 63103620 65495020 67209460 68338680 69699060
933.38 71826460 74204210 75503570 76166620 77928980 80458810
936.28 82300920 84257470 86502450 88554030 90198120 92323030
939.17 94767980 96797260 98103330 99276920 101720500 104321200
942.06 105799800 106591000 106951500 107887500 109438600 111022300
944.95 113330600 114789400 115220500 115499800 115928400 115936800
947.85 116508400 117680700 118095300 118757500 120542400 121826800
950.74 122113500 121912200 121370800 121086200 121645000 122396900
953.63 122657900 122436800 122128200 121850800 121059200 120170300
956.53 119405100 118738200 118662800 118153300 117561600 116696800
959.42 115985900 115776400 114898800 113399500 111665800 111231000
962.31 110236100 108828700 107979200 106902100 105535600 103996800
965.20 102836200 101474100 100336400 99301900 98106380 97233210
968.10 95956500 94800050 93615580 92703860 91563830 90061140
970.99 89234790 88716990 88269380 87942830 87953420 88103900
973.88 87989460 87521880 87207540 87519660 87553400 87946380
976.77 89270110 90021930 90497200 91495530 92565100 94146770
979.67 95218470 95836500 96634700 97522570 98308090 99204970
982.56 100072500 100853300 101513200 102154200 102353200 102271200
985.45 101671500 101339400 100475500 99198080 99010420 99148780
988.35 100118800 101397000 102355500 104086800 107325700 110519200
991.24 110733200 110829600 112951900 115626300 118823700 122289400
994.13 125442500 127691900 129825900 130925000 131776400 132473300
997.02 133414700 134152600 134010000 133857800 134145000 134205000
999.92 133907400 133130400 133041100 133791200 134509800 135572100
1002.81 136564800 138244500 140223400 141734900 142967800 144977500
1005.70 147109600 149062700 151968500 154689100 156767800 158617700
1008.59 159906400 161471600 164029200 167135500 170662600 173550000
1011.49 176648100 179657900 182129400 184558900 187759400 191072700
1014.38 194540600 198386000 201257700 204680500 208018000 211098400
1017.27 214256300 218145200 222623400 226764000 230793600 235118500
1020.17 239156000 243538300 247986300 252519800 256631000 259958300
1023.06 263854000 267160400 270164500 273550600 276942200 280196900
1025.95 282883000 285749200 289455500 293907800 297997500 302589600
1028.84 308412200 313885400 318289700 323014400 328353100 335042900
1031.74 343414500 351286100 357893300 365455000 373252800 380250200
1034.63 388352700 397033600 405149500 412203400 418366600 424698900
1037.52 429396500 433384600 436691000 439992400 443921100 445985000
1040.41 447515300 448967900 450019700 449532900 447757800 445933400
1043.31 443539900 442594200 442396300 442917900 443063300 440637900
1046.20 438113400 436545100 436336900 438285800 440982000 443648500
1049.09 445548000 447468900 448623400 450337000 452595200 454503300
1051.99 457510100 461723900 465279600 468277000 471134900 473370400
1054.88 474163600 473258600 471983700 470482800 467587200 464146700
1057.77 460989300 458768800 456256300 452856300 451411000 450997500
1060.66 449822900 449333400 449275500 449157200 449767900 452353200
1063.56 455808600 461145400 465433400 466309100 465693300 465981700
1066.45 468342900 472024100 476215000 480933400 484461300 486214800
1069.34 486248300 485933300 484690400 482659200 480582500 477168000
1072.23 472262200 467263300 462693400 457852400 454683200 452945400
1075.13 451026900 449119900 447109900 444412500 441686500 439877400
1078.02 437539000 432558500 427865400 421238000 412021100 402028400
1080.91 392958500 385217000 377603800 369055100 360569100 352965500
1083.81 345204300 336597100 328686200 320908300 311880600 304068900
1086.70 296055600 286965800 278357200 270896300 264545200 258285000
1089.59 250434200 242957600 236846400 231961700 227183500 222064300
1092.48 216225000 210134900 205290000 200952200 196076800 192001100
1095.38 188064400 183954000 180111900 176400800 172516000 168366200
1098.27 163960100 160081600 157611100 154904400 151353100 147740100
1101.16 143874700 140416000 137132300 133516900 130307500 127587100
1104.05 125233200 122575400 118979300 115389400 113410300 111740900
1106.95 109778800 107543500 105079200 103051100 101044000 99563270
1109.84 98392640 97202120 96328980 95116670 93069260 91413140
1112.73 90101820 88681820 86963200 85583260 84863730 83659310
1115.63 82182260 80632370 79765220 78735040 77381700 76615820
1118.52 75672040 73912170 72783550 71327240 70159900 69455030
1121.41 68138440 67198220 66298690 65240620 64086460 63319550
1124.30 62726580 61560620 60381480 59624240 59052850 58586500
1127.20 57715350 56819020 56476010 55686620 54504590 53350530
1130.09 52631700 52116900 51311180 50141970 49666940 49043860
1132.98 48636030 48483250 47594830 46815480 46160230 45779870
1135.87 45516350 44828380 44379190 43961350 43422620 42753180
1138.77 42376010 42169400 41799880 41315480 40772220 40345480
1141.66 40285000 40111910 39614260 38933230 38560820 38534940
1144.55 38674830 38434470 37830640 37961260 38048760 37735450
1147.45 37801680 37834600 37392840 37745400 37965060 37565820
1150.34 37523410 36913580 36251900 36869210 37384440 37016340
1153.23 36624540 36840520 37368770 37359220 37059350 37580000
1156.12 37591530 37087020 37244320 37371990 37626920 38470380
1159.02 38468160 37988900 38120310 38825160 39248880 39481680
1161.91 39576780 39812030 39843260 39967180 40369150 40450620
1164.80 40849420 41797520 42062500 42434700 42841460 42822310
1167.69 42988000 43648940 43644670 44059660 45137240 45504400
1170.59 45576640 45871920 46307220 47105600 47584470 47936930
1173.48 48801870 49266350 49631370 50148160 50697850 51667060
1176.37 52438420 52578080 53625200 54475960 54647950 55101030
1179.26 55915060 56283520 56739500 57704030 58836600 59763120
1182.16 60376390 60531200 61240830 62454180 63333180 63932000
1185.05 64794280 65550000 66187150 67286040 68550720 69529860
1187.94 70234040 71114620 72384060 73710760 74666910 76174500
1190.84 77418560 78188340 79014880 79859630 80446300 81625860
1193.73 82609950 83213000 84686140 86055120 86825280 87411100
1196.62 88576490 89629800 90453720 91231450 91588140 92290100
1199.51 92977610 93596040 95107140 96320460 96930250 97221950
1202.41 97954410 99114100 99772260 100509600 101384600 102352500
1205.30 102743700 103090800 104121900 104593900 105083200 106393900
1208.19 107215000 107137500 107240600 107650100 107701300 107912800
1211.08 108224400 108351700 108572200 108674200 108545600 108082500
1213.98 108236300 108605000 108498200 107948300 107850300 107665600
1216.87 107295200 107259000 106889000 105967300 105556000 104962300
1219.76 103869900 103038500 102476800 101883900 101043300 99925940
1222.66 98871030 98194890 98280440 97780080 97116490 96282650
1225.55 95743630 95139190 94609270 94009220 92745520 91483200
1228.44 90711540 89949080 89068130 87694560 86716860 85896300
1231.33 84797120 83849530 82858530 81639800 81065910 80490580
1234.23 79706620 78651070 77855370 77127610 76542470 75964780
1237.12 75441420 75110290 74707640 74035860 73831180 73909510
1240.01 73441500 72766240 72583430 72448540 72097800 72049710
1242.90 71738300 71373460 71094900 71099390 71067780 71197580
1245.80 71206600 70825700 70569980 70948420 70909060 70294750
1248.69 70348580 71516340 72086190 71632530 71396110 71639940
1251.58 71697920 72153920 72411810 72350020 72815670 73467360
1254.48 73649530 73447340 73418420 73972790 74390640 74554300
1257.37 74460610 74991940 75849020 76367240 76356610 76394940
1260.26 76771620 77141440 77363580 77588740 78149540 78584220
1263.15 78702510 79141710 79807470 80357870 80555210 81199820
1266.05 81543480 81749810 82022210 81671620 81219310 81392690
1268.94 81593740 81867290 82012080 82331730 82846100 83113340
1271.83 83034580 82955380 83156490 83449110 83842010 84407210
1274.72 85015210 84967340 84896760 85297020 85495940 85304100
1277.62 84835270 84532010 84422540 84603860 84836100 84636280
1280.51 84127500 84034860 83565280 83122150 83225300 83116070
1283.40 82712090 82296370 81955010 81325670 80851140 80369260
1286.30 80348190 80201030 79664620 79514750 79294670 78449640
1289.19 77545220 77397910 77706180 77324260 76661720 75742010
1292.08 74914380 74471940 73875530 72949940 72266240 71697650
1294.97 71347260 70528150 69557010 68966170 68477110 67809660
1297.87 67543150 67186600 66354410 65437180 64780170 64260570
1300.76 63593190 63260390 62513000 61748610 61261290 60796270
1303.65 59931700 59327300 59112410 58750920 58392990 58278140
1306.54 58097620 57731480 57521420 57103900 56904180 57054340
1309.44 56849770 56364440 56164260 55840650 55486420 55378100
1312.33 55232580 55315710 55438870 54690760 54040080 54008950
1315.22 54325100 54267300 54372380 54856170 54611280 54165420
1318.12 54078080 54104380 54011600 54293080 54384140 54524750
1321.01 54506790 54881340 55348830 55606020 55817010 55941140
1323.90 56168350 56647550 56965430 57029170 57570400 58292450
1326.79 58981720 59486870 59247240 59627280 60858130 62212760
1329.69 62759740 63593330 64668960 65447820 66240540 66901360
1332.58 67389230 67820010 68697170 69315570 70145710 71017290
1335.47 71431280 71700260 72274080 72631320 72907910 73013850
1338.36 72964140 73485770 73886540 73787300 74089950 74364700
1341.26 74104050 74459880 74914580 75011520 74892960 74857110
1344.15 75760610 75646210 74895000 75023060 75078690 74959790
1347.04 75244770 75757320 75651020 75449050 75359620 75447360
1349.94 75288660 75340420 75447260 75528940 75610180 75489880
1352.83 75227510 75350060 75373800 74778060 74499880 74472360
1355.72 75454380 75077650 74440060 74789060 74524460 74553500
1358.61 75323360 75409420 75284290 75948300 76797420 76897670
1361.51 77038960 77882780 78663910 79202700 80720780 82380570
1364.40 83352920 84593690 86154340 87866820 89873560 91691040
1367.29 93576520 96265740 98646420 100906200 103675000 106471800
1370.18 109069700 112441800 115341100 118119900 121868200 125492000
1373.08 129276800 133073300 136272400 139385200 142538200 145451600
1375.97 148801300 152252000 154783200 156874700 159642400 162088400
1378.86 164196500 165817600 167018000 167942000 168945100 170109100
1381.76 171947400 174530200 177700100 182053300 186485700 189510900
1384.65 190690700 190080200 188135900 186781800 187410000 189927600
1387.54 192013400 194157100 196544400 198873100 200492000 201195800
1390.43 201214000 200502300 198801800 196003000 193451200 191784800
1393.33 189587800 186516900 182267500 178309200 174526900 169760900
1396.22 165317400 162247900 159952300 157021300 154571400 152440400
1399.11 148974300 145700100 142670600 139503100 136068000 132560100
1402.00 129366900 126473700 123089400 119407500 116214800 112787600
1404.90 108676300 105023700 101821700 98489260 95455740 92852580
1407.79 90087830 86860980 84321660 82448830 80326800 78122610
1410.68 76293640 74223500 72331640 70638980 69061460 67433980
1413.58 65988820 64887980 64025030 62795840 61796640 60771870
1416.47 59961650 59174340 57904800 57391640 57970660 58725200
1419.36 57384620 55658960 54827920 54211500 53668350 53685580
1422.25 54026720 53849620 53356960 52875520 52779950 53189620
1425.15 53238280 53204050 53442200 53889230 54426580 55135410
1428.04 55548430 55618620 56172070 56944910 57085640 57700960
1430.93 58506500 59328600 60030540 60544320 60841820 61118570
1433.82 61303760 61738820 62284910 62735580 64232720 66854950
1436.72 67668940 68513340 70212740 71015770 71537210 72190170
1439.61 72559780 73630650 75542930 77193130 78775720 80668050
1442.50 82721720 84547000 86695810 88865820 90468240 92191920
1445.40 93777380 94975170 96277990 97701360 99226300 100191300
1448.29 101382000 102788600 104281300 105220800 106404900 107698600
1451.18 108980800 110245100 111675400 113384200 114356100 115455400
1454.07 116641600 117988300 118916500 120121500 123192100 124987200
1456.97 123632100 123892400 125582100 127128800 128668300 130088500
1459.86 131876600 133745600 135718400 137100500 137884600 139042200
1462.75 140526400 142083700 143764300 145851300 145960200 143655100
1465.64 142109100 141051100 139914100 138943000 137957700 136727000
1468.54 135043800 132932600 131521000 130776300 130168700 130549100
1471.43 131940000 132621500 133353400 133635700 131508200 129185400
1474.32 128321100 127763000 128324300 128648800 127733600 127048500
1477.21 126198300 124466100 122807200 121011300 119095200 117204700
1480.11 115216200 113178700 111221200 109376600 107890900 106030500
1483.00 103496100 101037000 98937760 96967400 94879560 92952980
1485.89 90871890 88890380 87263720 84960000 82700240 80581800
1488.79 78221670 76580460 75126020 73375890 70605580 68004200
1491.68 65917700 63389860 61144570 59407160 57579830 55664450
1494.57 53786720 52558720 52174600 50061670 46858820 44776750
1497.46 43279320 42177250 40759670 38666430 36872600 35308800
1500.36 33872080 32808800 31716190 30174900 28706840 27912210
1503.25 27304400 26144190 24966590 26057120 26825410 24334350
1506.14 24224390 24555510 21852400 20185150 19885260 19167300
1509.03 18550560 17893850 16820730 15928860 15445890 15719100
1511.93 15436830 14375120 13990230 13478390 13133350 13160100
1514.82 13250990 12945140 12795140 12682320 12762750 12317800
1517.71 11377580 10963350 10767790 10981800 11355780 11619200
1520.61 12864990 11961830 10278580 10843910 10469530 9472800
1523.50 9282418 9380620 9763216 10429020 9621574 8796248
1526.39 8715442 8970832 8547608 8703332 8856046 8257520
1529.28 7890278 7962672 8263516 8173188 8127254 7848320
1532.18 7763058 8417364 9162536 9100972 7814258 7240112
1535.07 7631056 8063142 7902334 7634052 7322274 7618388
1537.96 8937366 11096440 10021140 9473890 10158400 8308532
1540.85 7578464 8897974 9055372 7812484 7649820 7429716
1543.75 7122092 7565324 7973022 7184104 6843110 7007686
1546.64 7177694 6824890 6810866 7079966 7008104 7052912
1549.53 7358916 7034090 6585336 6299788 6021940 6067886
1552.43 6328768 6437574 7411880 8222190 7161492 6460756
1555.32 6401376 6600938 6878748 8074342 8776220 9984394
1558.21 10116750 8050336 8848892 10439270 8637152 6410654
1561.10 6053506 6009930 6193030 5991696 6013306 6066268
1564.00 6071666 6041018 5923904 5833766 6082230 6252166
1566.89 6240834 6254432 6004176 6176910 6875764 7368482
1569.78 6301084 5482504 5364814 5292312 5566534 5671348
1572.67 5799764 5861020 5935146 5808302 5754094 6834342
1575.57 9419440 8427050 6028882 5394228 5183438 5085844
1578.46 5225340 5170106 5309222 5343458 5242900 5302912
1581.35 5064612 4787328 4869504 5090400 5507608 5395590
1584.25 5050606 5014548 4849922 4715904 4670208 4864906
1587.14 4854032 4963982 4970264 5157790 5202086 5001314
1590.03 5003494 4725622 4632280 4857874 4786542 4643732
1592.92 4553770 4998222 5212682 5102186 4934426 4722144
1595.82 4726504 4704506 4616628 4836944 4804188 4519674
1598.71 4719326 4836692 4929560 4873958 4652908 4401634
1601.60 4295972 4474710 4665962 4565268 4923802 4996578
1604.49 4837254 4504688 4308832 4323378 4778202 4856554
1607.39 4703332 4496446 4085138 4188410 4631108 4599236
1610.28 4671142 4679296 4535986 4354726 4317674 4022058
1613.17 4075350 4142902 4429918 4442324 4706282 5933754
1616.07 8116668 7143772 5127036 4695582 4456558 4247762
1618.96 4351542 4393218 4285486 4289944 4254238 4214806
1621.85 4571050 4781372 5501130 5318688 4174034 4030334
1624.74 4264382 4208888 4087820 4268758 4373604 4577910
1627.64 4317870 4325218 4353108 4551656 4544782 3917484
1630.53 3728820 4258040 4315396 4120862 3876040 3504434
1633.42 3162806 4101290 5604802 6845138 6574294 4609884
1636.31 3956652 4200832 4216456 3818474 3619694 3709760
1639.21 3820512 3839846 4195470 3992592 3583604 3861376
1642.10 4093884 4002666 3877568 3685696 3712664 3876670
1644.99 5182646 6466348 5211368 4283106 4695528 4477574
1647.89 4519950 4272334 4323256 4241582 3984378 3783650
1650.78 4078774 5098450 8130282 8835564 8873726 6669306
1653.67 5055346 5306684 4421716 3807712 3799914 3819480
1656.56 3544666 3403880 3105256 3481946 3688344 3707318
1659.46 3844260 3737240 3538970 3653110 3755848 4296440
1662.35 4589760 4007900 3680804 3536908 3526038 3637522
1665.24 3689888 3599842 3465198 3280050 3548828 3959956
1668.13 4069096 4606520 4574474 3930070 3441840 3623240
1671.03 4035284 4001610 3912990 3531640 3358094 3277318
1673.92 3495512 4722030 5766830 4900554 3820114 3682322
1676.81 3534716 3407022 3739778 4088832 3875752 3906614
1679.71 3986426 3702168 3505884 3824304 3928068 4148398
1682.60 4891386 5115254 5526068 7941112 8258474 4763274
1685.49 3592264 3818124 4046504 3708840 3740032 3864880
1688.38 4000952 3688936 3771888 3823650 3542276 3333782
1691.28 3718604 4092344 3878926 3412360 3504776 3614350
1694.17 3872010 4921220 8011920 8391226 5309130 4266672
1697.06 4358698 3985934 3867130 3834038 5293690 7482416
1699.95 7386658 6091926 4430940 3591280 3497670 3791470
1702.85 3527858 3461308 4173044 4091214 3657870 3858438
1705.74 4228014 4056400 3467620 2991588 2970922 3358010
1708.63 3560354 3670670 3767954 3622430 3464432 3538766
1711.53 3345578 3432408 3631778 3603414 3566538 3513662
1714.42 4119420 4323968 3399926 3176892 4456448 6655436
1717.31 5115958 3957500 4109816 3272154 3006248 3029190
1720.20 3094302 3147448 3205756 2963798 2974566 3163796
1723.10 3297160 3232788 3165904 3011926 2857184 3229804
1725.99 3417096 3318554 3384454 3314826 3281110 3048588
1728.88 3054896 3189176 3095814 3162174 3519946 3353032
1731.77 3125430 3593728 5558762 5352874 5092296 5856788
1734.67 4196172 3137516 3300152 3433614 3294314 3441408
1737.56 3240042 3153406 3169202 3885504 4341986 3804800
1740.45 3381514 3344352 3121534 3045986 3368980 3695024
1743.34 3440370 3115794 3107010 3054444 2816816 3050580
1746.24 3665936 3805630 3487108 3693958 3808902 3291972
1749.13 3022134 3056068 3934136 5159580 4890070 3687018
1752.02 3355876 3263108 3412608 3428570 2934562 2783922
1754.92 3204362 3437344 3822092 4111988 3495346 3215930
1757.81 3000824 3040402 3081018 2814874 2725134 3257476
1760.70 3588898 4229474 3915458 3105870 2947460 2791892
1763.59 2918636 3186594 2949548 2741696 2759908 2584758
1766.49 2503366 2913776 4004824 3988422 3095532 3117330
1769.38 3055784 3113274 3572998 3905094 3472014 4134800
1772.27 5177948 3780486 2831546 2631334 2485434 2799052
1775.16 3198018 3290434 3152770 2840280 2947872 3101426
1778.06 3281328 3374456 3175678 3095370 3335618 3190692
1780.95 2950800 2999072 2987970 3052946 2966718 2756752
1783.84 2717678 3654416 3773034 3276126 3037812 2949712
1786.74 3113446 3515012 3384194 3149088 2667920 3042020
1789.63 3524212 3615688 3343162 3171020 3753314 4815776
1792.52 4462054 3378748 3253594 3293074 3168314 3046936
1795.41 3315800 3308236 3378438 3396192 3373570 3317040
1798.31 3474950 3805892 3965818 3831564 3393956 3360962
1801.20 3176400 3081822 3204100 2958490 2815062 2626258
1804.09 2708706 3021504 2942416 3041252 3299488 3142922
1806.98 3319398 3409414 3197384 2914776 2559858 2800188
1809.88 3116098 3135596 3215454 3129450 3200280 3049506
1812.77 2997078 2888790 2987106 2819852 2841676 2786910
1815.66 2540412 2795196 2795072 2780080 2850350 2619136
1818.56 2513504 2722086 2836354 2776564 2590208 2542326
1821.45 2694064 2677974 2810466 2856726 2715910 2637882
1824.34 2896606 3304002 3160770 2782074 2632912 2671316
1827.23 2489814 2227118 2493080 3192300 3355454 3353782
1830.13 2822476 2625618 2676490 2639292 2628080 2598820
1833.02 2393116 2305594 2456720 2498754 2488646 2476930
1835.91 2398320 2299620 2318574 2359460 2574850 2465830
1838.80 2456098 2563996 2762754 2772716 2518060 2482432
1841.70 2692240 2859026 2476334 3139820 4524702 3987068
1844.59 3014144 2974190 2799174 2784092 2629720 2695830
1847.48 2591750 2540690 2486150 2331616 2618232 2892472
1850.38 2765700 2823758 2948036 2487820 2498054 2871748
1853.27 2844668 2829038 2978680 3066742 2932022 2812246
1856.16 2738266 3004868 3125312 2896880 2757804 3060540
1859.05 3172866 3104540 3228498 3201836 2974552 2803188
1861.95 2800512 2975070 3008242 2744106 2506180 2828574
1864.84 3193268 3307740 3401870 3388854 3351604 3645202
1867.73 3644768 3322608 3519906 3328402 3115972 3498876
1870.62 3140752 2428694 2415518 2728234 2738502 2935858
1873.52 3199296 3363914 3260968 3279468 3235476 3121332
1876.41 2936700 2882156 2906528 2762670 2634248 2931282
1879.30 2845304 3017174 3070128 3029626 2957494 2992498
1882.20 2984034 3140410 3047182 2718316 2566528 2666262
1885.09 2652534 2532238 2361692 2629078 2658960 2473728
1887.98 2608388 2937166 3318460 3437432 3177586 2681070
1890.87 2244246 2440780 2758994 2967276 3039910 3355180
1893.77 3086862 2484086 2633962 2573100 2394646 2680580
1896.66 3080304 2895094 2460450 2390110 2764874 3120066
1899.55 3132176 2827062 2910346 2979732 3097238 3104486
1902.44 3278992 3218254 3296218 3523152 3531982 3391054
1905.34 3232434 3012130 3039462 3298474 3565192 3715072
1908.23 3731922 3830306 3811106 3670636 3641276 3600478
1911.12 3351422 3198540 3569480 4045846 3803080 3614102
1914.02 3559068 3591264 3475346 3708928 3930988 4037608
1916.91 4051836 4043292 4018354 3918530 3707012 3499660
1919.80 3374802 3358292 4067028 4105658 3859952 4066488
1922.69 4236316 4313548 4287610 4097804 3896832 3826274
1925.59 3916636 3950062 4109790 4173580 3710938 3526072
1928.48 3635312 3456714 3556090 3457322 3316062 3318872
1931.37 3327048 3371812 3486240 3258682 3031272 2838736
1934.26 2909724 3367684 3660910 3469126 3008020 2713750
1937.16 2861208 3430196 3516858 3431360 3408462 2906470
1940.05 2702832 3180364 3271076 3448776 3701414 3610226
1942.94 3366306 3319574 3083570 2994392 3090196 2965082
1945.84 2886178 3121486 3096480 3081282 3225224 2889078
1948.73 2748622 3148106 3192192 3238226 3176612 3119808
1951.62 3083686 2804118 2873684 3219154 3171294 3202324
1954.51 3287652 3258372 3299218 2971922 2636580 2809002
1957.41 3006080 3133478 3140078 3047176 3154442 3265800
1960.30 3395376 3414272 3068092 3219104 3370764 3197672
1963.19 2810468 3153696 3504336 3264916 2990188 3081990
1966.08 3373680 3589038 3784492 3513922 3465526 3593834
1968.98 3562666 3600518 3787924 3699166 3688448 3847902
1971.87 3562612 3454408 3684724 3954024 3875422 3748752
1974.76 3667366 3802872 3938400 3756322 3568066 3505032
1977.66 3624630 3737486 3797274 4043404 4089288 4011516
1980.55 3880872 3711994 3502642 3456508 3533870 3758032
1983.44 4073856 4125620 4294500 4000320 3664718 3860364
1986.33 3858808 3631624 3733514 3921792 3803234 3810560
1989.23 3838982 3699054 3513516 3683136 4011728 4187672
1992.12 3932238 3575128 3644650 3685002 3657792 3514720
1995.01 3411942 3779834 4032674 3730952 3577576 3529760
1997.90 3464688 3554256 3728116 3837564 4139626 4354996
2000.80 3918516 3430144 3423870 3913468 4126512 4310088
2003.69 4209242 4086584 3994010 3790478 3998452 4315468
2006.58 4177980 3921002 4003848 4028418 4108132 4111674
2009.48 4477108 4902268 4670474 4394864 4574980 4991928
2012.37 4928188 4775600 4823288 4788450 4789894 4943274
2015.26 4955068 5227170 5512398 5449788 5490206 5669104
2018.15 5726220 5896238 5792248 5633020 5670812 5908706
2021.05 5995950 5918140 6111288 6524718 6520646 6639750
2023.94 6620316 6367246 6331198 6683548 7004614 7027534
2026.83 6922834 6849240 6990814 6810944 6557202 6878726
2029.72 7557236 7999762 7697422 7228990 7153938 7277464
2032.62 7665646 7655010 7065024 7220668 7450210 7318308
2035.51 7450086 7734488 7809798 7819348 7729724 7773666
2038.40 7907430 7985884 7904760 7585594 7577322 7557434
2041.29 7553274 7604992 7280872 7121494 7294230 7055012
2044.19 6864584 6955356 6720144 6765272 6595180 6336774
2047.08 6159054 6148628 6562740 6602054 6427808 6237312
2049.97 5962270 5941150 6002256 5700322 5680106 5592226
2052.87 5499750 5686590 5662662 5344662 5259456 5339910
2055.76 5227386 5132788 4869870 4661042 4508810 4647282
2058.65 4789542 4693794 4396810 4426422 4591468 4456044
2061.54 4290052 3953726 3638870 3567664 3599768 3948470
2064.44 3956306 3930866 4181170 4081388 4001914 4049604
2067.33 3747040 3757108 3915202 3817198 3904144 4057796
2070.22 4096580 4018576 3928666 3762138 3460922 3364468
2073.11 3563098 3976476 4089094 3970956 3947658 3541000
2076.01 3421028 3441324 3474298 3708634 3741562 3769848
2078.90 3771394 3663352 3599628 3435536 3263850 3285418
2081.79 3432092 3602042 3259596 3042718 3516122 3806440
2084.69 3865720 3690682 3186126 3250502 3387322 3498874
2087.58 3665574 4082006 3829404 3150652 3029864 3536746
2090.47 4108158 4086414 3745666 3710784 3518326 3344238
2093.36 3564234 3738568 3554430 3367334 3554128 3404180
2096.26 3130892 3355098 3250968 3222802 3676132 4010240
2099.15 3846834 3713376 3583380 3553336 3550738 3344350
2102.04 3153480 3275004 3286488 3102236 3177122 3113066
2104.93 3019540 2930910 2964644 2771824 2776994 3168938
2107.83 3093384 2892370 2791126 2831330 3037638 2886952
2110.72 2559602 2630950 2596440 2700688 2676290 2520512
2113.61 2780316 2881074 2893788 2878608 2633778 2684346
2116.51 2494518 2281440 2538316 2849808 2305092 1966138
2119.40 2148702 2128044 2198870 2017550 1944880 2152150
2122.29 2471474 2634092 2378524 2116790 2111698 1895762
2125.18 1544660 1807860 2380538 2597824 2185084 1864452
2128.08 1843846 1973544 2024852 1805138 2011626 2068944
2130.97 1934542 1715294 1582774 1786680 2085228 2426564
2133.86 2286694 2127834 2206044 2132942 1901352 1616254
2136.75 1932738 2176324 1888054 1881628 1876960 1806374
2139.65 2074460 2104096 1765226 1935710 2390862 2546184
2142.54 2226582 2141720 2082564 1936362 2098416 2338330
2145.43 2216894 1910468 2105208 2241920 2230596 2322284
2148.33 2317152 2144594 2070214 2114448 2225854 2171914
2151.22 2077028 2121406 2321120 2395836 2266902 2220020
2154.11 2536314 2766978 2561206 2514568 2295188 2280744
2157.00 2255112 2276036 2569480 2653050 2512154 2231832
2159.90 2425908 2856784 2931256 2905584 2841116 2777152
2162.79 2828562 2628720 2578618 2546104 2512656 2717870
2165.68 2761690 2965198 3151970 3079240 2858872 2973918
2168.57 3009574 3027866 3219450 3543842 3518314 3446844
2171.47 3398942 3356934 3546626 3535972 3270842 3088842
2174.36 3224344 3264190 3514548 3996628 4094492 4016066
2177.25 3872246 3741420 3638670 3705410 3576952 3412444
2180.15 3574782 3685398 3401278 3362282 3493130 3963904
2183.04 4323194 4299502 4187960 3875820 3709260 3535746
2185.93 3773278 4154338 4072514 4019892 3911156 3841940
2188.82 3858560 3894650 3982140 3362742 3486684 3905616
2191.72 3936522 3813984 4074528 4235188 3903150 3553374
2194.61 3575634 3662060 3578178 3413784 3621678 3772106
2197.50 3895220 3727776 3579458 3670890 3916804 3961740
2200.39 3991438 3950970 3746218 3435444 3408350 3638966
2203.29 3658712 3842238 3641878 3458466 3762296 3890702
2206.18 3839792 3799280 3719448 3619824 3408216 3199186
2209.07 3542462 3838148 3750282 3532910 3415262 3262374
2211.97 3555734 3593152 3618474 3727554 3657344 3554736
2214.86 3816726 3585830 3355902 3565668 3551552 3253800
2217.75 3255086 3444852 3476730 3388032 3323980 3420240
2220.64 3529778 3650614 3700794 3814132 3428460 3043562
2223.54 3199238 3391224 3076800 2920406 3181838 3404618
2226.43 3526844 3549918 3121320 3140854 3329670 3303746
2229.32 3240700 3134660 3077172 3149010 3228282 3339170
2232.21 3537712 3648280 3542828 3162514 2974306 3010222
2235.11 2878362 2908218 3297164 3460708 3110884 2863286
2238.00 3102852 3324790 3381788 3478892 3484810 3595184
2240.89 3684938 3351914 3235036 3485768 3512634 3329332
2243.79 3121594 2982594 3161992 3251718 3340704 3440826
2246.68 3567192 3564226 3502890 3581942 3323312 3277354
2249.57 3097330 3136862 3465986 3729300 3897088 3797126
2252.46 3373812 3302920 3390666 3213540 3336702 3301348
2255.36 3096076 3220954 3622788 3911524 3893980 3580970
2258.25 3553590 3779794 4049116 4085956 3951512 3828184
2261.14 3925524 4035122 4004846 3817796 3802736 3913040
2264.03 3964292 4104992 4038756 3933696 3968302 3676524
2266.93 3455496 3815674 4171614 4385566 4281692 4208412
2269.82 4279052 4405632 4448112 4442402 4316554 4255782
2272.71 4193852 4388628 4729562 4642456 4742862 4934306
2275.61 4788352 4494366 4535584 4229376 4247302 4472508
2278.50 4233376 4034274 4171624 4552804 5022908 4905810
2281.39 4898584 4622386 4495510 4547934 4549096 4637566
2284.28 4839420 4827660 4596632 4596050 4874120 4788926
2287.18 4845472 4716196 4801366 4900154 4899396 4751066
2290.07 4838332 5192368 4850368 4567846 4736028 4703236
2292.96 4570600 4724296 4993936 5134140 5259388 5054554
2295.85 4399158 4287278 4937270 5494920 5383464 4863396
2298.75 4578644 4721870 4892560 5004896 5126858 4899634
2301.64 4733370 4824928 4993426 5142074 5475808 5459206
2304.53 5445566 5358072 5220410 5048530 5011002 4930448
2307.43 4913944 5407584 5854868 5723748 5765900 5800112
2310.32 5265742 5237612 5364306 5548080 5649252 5736654
2313.21 5578390 5857796 6072714 6123708 5842712 5173264
2316.10 5027268 5550098 5938252 5464438 5320674 5931704
2319.00 6009698 5941132 6099156 6710398 6119632 5519740
2321.89 5868018 6375850 6100056 5904494 6163494 6613710
2324.78 6793396 5957196 5944488 7115808 6658282 5536716
2327.67 6407452 7475810 6560738 5682148 6629618 7415964
2330.57 6493320 5866842 6962078 7393032 6168482 6222104
2333.46 7410654 7071590 5913414 6320926 7304882 6536894
2336.35 5699810 6571250 7108870 5961322 5917572 6869626
2339.24 6429484 5677820 6492454 6992092 5909576 5675044
2342.14 6597636 5987970 5388248 6119824 6456556 6276468
2345.03 6348152 6085598 5461570 5278792 5334250 5032684
2347.92 4751338 4859436 4850628 4971188 4816962 5125950
2350.82 5652388 5314230 5187724 5899710 5513100 4809992
2353.71 5840536 5904380 5216470 5930036 6078108 5588238
2356.60 6382998 6377370 5985026 6774356 6618574 6269340
2359.49 7216672 6444042 5774726 6609416 6091318 6208290
2362.39 6649948 5469212 6286818 6680426 5702492 6484838
2365.28 6201820 6183950 6387894 5686358 6465908 6244990
2368.17 5988976 6479022 6048020 6326376 6116734 5635022
2371.06 5759598 5814940 5978216 5909536 5925198 5988096
2373.96 6190080 6160454 5941330 6008732 5506658 5239852
2376.85 5341124 5421432 5317598 5757656 6061556 6064508
2379.74 6006596 5919662 6083820 6252204 6266204 6306450
2382.64 6008936 5688142 5662708 5808462 6146388 6401658
2385.53 6341592 6118798 6419698 6774456 6696284 6206722
2388.42 6284582 6502214 6265906 5967714 6010534 6230426
2391.31 5982038 6097034 6466716 6263800 6185940 6510038
2394.21 6780096 6528916 6647188 6873682 6508384 6266418
2397.10 6198958 6259350 6746914 7115346 7122768 7301810
2399.99 7069996 6782930 7062364 7340026 7092020 6846038
2402.88 7233344 7683194 7616848 7432512 7394440 7483086
2405.78 7458004 7351486 7307148 7533794 7463336 7315334
2408.67 7436622 7576870 7561838 7527936 7586036 7736586
2411.56 7646738 7561898 7396894 7635328 7560568 7713006
2414.46 7752854 7785814 7765022 7941786 8134654 8007800
2417.35 8106120 8090102 7924590 8030984 8073168 7975994
2420.24 7585904 7416756 7407160 7567878 7680218 7757300
2423.13 7694374 7721352 7656996 7553238 7491838 7236912
2426.03 7206080 7330362 7246394 7101832 7112696 6881826
2428.92 6681116 6969142 7079600 6523610 6263096 6970046
2431.81 7295984 7136178 6875138 6963832 6789874 6337188
2434.70 6078152 6021228 6196780 6393164 6423824 6455964
2437.60 6355808 6070934 5935780 5908082 6124404 6338924
2440.49 6709454 6848550 6404130 6214958 6178826 6299138
2443.38 6076418 5847746 6019412 5882004 5606222 5748176
2446.28 5866106 5706202 5214986 5033534 5257030 5402248
2449.17 5751368 5658016 5467652 5204520 5428154 5906252
2452.06 5902464 5684910 5453000 5370642 4863146 4799446
2454.95 5408340 5377854 5046250 5054220 4897242 4725888
2457.85 4623174 4583732 4875910 4684818 4424248 5094966
2460.74 5488728 5473010 5188384 4705218 4220450 4087400
2463.63 4342176 4659354 4710364 4818262 4802684 4888112
2466.52 4874226 4639660 4863688 4995950 4648174 4172552
2469.42 4388632 4693400 4396172 4257902 4566556 4563954
2472.31 4238094 3745648 3711484 4136314 4232634 4527978
2475.20 4666914 4395308 4207190 4278086 4251772 4352832
2478.10 4146704 4048122 4130658 4083656 4006954 4130536
2480.99 4616512 4477146 4404678 4506188 4182458 3915038
2483.88 3812542 3975824 4297576 4308068 3959910 3803988
2486.77 4045212 3634860 3959456 4693412 4612926 4019832
2489.67 3680460 4133844 4437828 4152620 4200542 4222180
2492.56 4780942 5070518 4722838 4373454 4374972 4047172
2495.45 3906116 4360260 4623508 4314266 4336414 4457992
2498.34 4425022 4123590 4156630 4535866 4561452 4089448
2501.24 3573482 3796892 4123312 4338814 4061604 3970580
2504.13 4269774 4581384 4841248 4612200 4270820 4377328
2507.02 4501774 4491690 4271160 4249186 4389594 4595866
2509.92 4428156 4037278 3942472 4381966 4587840 4493254
2512.81 4662150 4703012 5055426 4881906 4277478 4300216
2515.70 5018246 4545670 4382036 4338390 3751560 3768606
2518.59 4224514 4392430 4405056 4472762 4751978 4784706
2521.49 4632088 4605876 4296126 4441880 4667086 4579348
2524.38 4759108 4971866 4666072 4354610 4635010 4595304
2527.27 4309034 4276932 4496920 4639136 4863274 5270612
2530.16 5118068 4665238 4371216 4585250 5010816 4882670
2533.06 4540884 4681190 5106468 5041784 4480260 4265942
2535.95 4795416 5068446 4980938 5120526 5195356 4997692
2538.84 4564974 4290914 4268938 4328550 4539018 4939378
2541.74 5292490 5064908 4992102 5114580 5120612 4831978
2544.63 5099066 4909768 4748014 4920292 5048620 4956122
2547.52 4956984 5134050 4952846 4927534 5192228 5118184
2550.41 4901756 5091386 5578728 5554368 5113472 5038576
2553.31 5117836 5260864 5379780 5286224 5330688 5358336
2556.20 5445396 5607990 5542648 5112374 4827586 5128698
2559.09 5250904 5164246 5222708 5036162 4900198 5013992
2561.98 5274864 5558794 5595504 5764660 5582646 5302644
2564.88 5496790 5684028 5767906 5709214 5809604 5388502
2567.77 5402354 5979588 5993368 6176906 6241188 5916036
2570.66 6086660 5924048 5378272 5621692 6171234 6109522
2573.56 5886916 5807530 5969736 5970850 6162116 6754324
2576.45 6486690 6488460 6816104 6698820 6584450 6402912
2579.34 6348646 6488450 6884272 7332952 7131728 6336764
2582.23 6015496 6837620 7303430 7240352 6677514 6333976
2585.13 6502914 6670104 7016384 7366976 7413134 7218540
2588.02 7648606 7849844 7915986 7671540 7230790 6645320
2590.91 7242078 7817334 7606310 7485262 7334184 8043522
2593.80 8228052 7729324 7788220 7887198 8040962 7939680
2596.70 8248830 8383014 8293646 8293270 8288382 7974544
2599.59 7957260 8283996 8617658 8605118 8281348 8361926
2602.48 8386914 8200516 8132218 7990078 8192430 8461652
2605.37 8471552 8435542 8515196 8636856 8862898 8937458
2608.27 8786518 8602862 8803408 8539626 8708356 9284320
2611.16 9111528 9104662 9545332 9342796 9495736 9471272
2614.05 9231042 9028804 8992728 9380062 9696902 9493610
2616.95 9365664 9619446 9855118 9768778 9289120 9023248
2619.84 9451770 9799206 9719582 9983114 9697112 9395210
2622.73 9631946 9940414 9957034 9946626 9588170 9757180
2625.62 10143300 10234040 10032810 9869192 10091890 10203860
2628.52 10475610 10624670 10464940 10437290 10564770 10578060
2631.41 10284430 10486820 10715500 10158160 10281100 10797940
2634.30 11373870 11154670 10573560 10042790 10044560 10573800
2637.19 10832930 10697210 10834790 10883770 10891900 10805580
2640.09 11206050 11953630 12215710 12271640 11526480 11084330
2642.98 11388120 11884720 11934430 11833360 11551360 11394470
2645.87 11820860 11976210 11886920 11899170 11936940 12186220
2648.77 13001540 13040000 12185350 11593780 12102880 12551500
2651.66 12813170 12650420 12858930 12967950 12943220 13253130
2654.55 13544050 13592380 13242940 12845650 12833700 13368480
2657.44 13815430 14150340 13889430 13866900 14058800 14183330
2660.34 14766040 15292360 15281780 14793770 14673370 14887980
2663.23 14553220 14857290 15442410 15199440 14914150 15194210
2666.12 15959380 16193750 15628520 15292800 15487700 16210590
2669.01 16367840 16329340 16413530 16312870 16385080 16545000
2671.91 16458280 16586250 16885240 16612870 16431800 16632000
2674.80 16742020 16948780 17200960 17162300 17477890 17648580
2677.69 17643570 17791850 17961590 17950060 17701320 17266500
2680.59 17522310 17598170 17573390 17613830 17885970 18359880
2683.48 18452730 18121400 17984710 17675470 17778940 17766240
2686.37 17524630 17818480 18594910 18585420 18195850 18260910
2689.26 18389930 18761820 18787000 18688650 19019520 18993050
2692.16 18694360 18831600 19292950 18862070 19108940 18980110
2695.05 18829260 18923300 19078120 19534610 19854180 19344940
2697.94 18701310 18944200 19174430 19448350 19635100 19436970
2700.83 19783130 19891510 19425840 19067450 19251640 19925300
2703.73 20185400 20230980 20460030 20342780 19942960 20259010
2706.62 20683640 21053660 21049130 21056680 20955140 20493590
2709.51 20503490 21169400 21390510 21060180 21248790 21578120
2712.41 21957280 22405650 22796940 22826370 22909490 22518930
2715.30 22496540 22909960 23195830 22697140 22090220 22419770
2718.19 22922180 23210900 23495530 23657870 23906920 24078760
2721.08 24001150 23915000 24422270 25122810 24990190 24789560
2723.98 25036580 24998690 25200180 25302740 25973550 26392830
2726.87 26671420 26833170 26796100 27184510 27420650 27212370
2729.76 27166210 27691140 28479090 28838560 29029520 29054940
2732.65 29874830 30417200 30452530 30564510 30957500 31598830
2735.55 31967740 32206190 32821120 33237050 32826380 32686560
2738.44 33536880 33863830 34025280 34212060 35070500 35852520
2741.33 35673980 35286640 35401720 35613020 35900670 36337000
2744.23 36518210 36096400 36290010 36812090 36877200 36912830
2747.12 37089740 37469750 37925110 38256060 38061590 38553380
2750.01 39605880 40122580 39509490 39102830 39370750 39190420
2752.90 38880020 39020400 39651860 39723370 39225380 38677470
2755.80 38567540 38747460 38659840 38765330 38574120 38286860
2758.69 38069910 39183690 39638740 39435650 39282930 39307610
2761.58 39371630 39451880 39252620 39130440 39655380 39888600
2764.47 39918100 39775780 39855820 39584440 39725730 40564220
2767.37 40710470 40390040 40418500 40587280 40981640 40949130
2770.26 41190720 41439540 41469530 41413850 41442740 41847150
2773.15 42126680 41952980 42122040 42725850 43434160 43713950
2776.05 43422520 43246380 43611340 43403580 43459930 43859400
2778.94 44128620 44355090 44621990 44452840 44806060 45120200
2781.83 45286530 45344200 45727520 46226730 46931270 47079300
2784.72 46604410 46516920 47081670 47667740 48281640 48300930
2787.62 48245500 47967410 48088200 48552410 48828260 49357750
2790.51 49835520 49641420 49210160 49437790 49972490 50032670
2793.40 49492830 49127040 49467400 50148590 50305000 49666850
2796.29 50383080 50504680 50490300 50504550 50837750 50571580
2799.19 50256680 50515920 50996760 51189290 50899900 50983610
2802.08 50754300 50375140 50573240 51157940 51261070 51581190
2804.97 51958170 51862810 51503200 51181810 52522560 53308200
2807.87 52960020 52467100 52363580 52999540 53425900 53615250
2810.76 53910270 53906820 53914420 54413140 54817060 55018280
2813.65 55199020 55861900 56548690 56685770 56883410 58198860
2816.54 58837920 59122030 59665110 60072250 60239050 60328900
2819.44 60995630 61772010 62154920 62851140 63827580 64395060
2822.33 65689630 66388350 67269580 68445260 69726940 70688130
2825.22 71175150 71944850 73426950 74619820 75662710 76943860
2828.11 78422740 80045110 81394990 83081420 85097460 86669910
2831.01 88086820 90245310 92443980 94752180 96642060 98207460
2833.90 100395000 102463300 104485900 106522500 108962200 111834900
2836.79 114478700 116498400 118864500 121394200 124925900 128584900
2839.69 132262300 135790100 139023700 142606700 146594700 149856000
2842.58 153567100 158027700 162163400 166138400 170144200 174893600
2845.47 179036100 183169300 187954600 191936800 195780200 201128500
2848.36 206430900 210434100 215283300 219609500 224153000 229709100
2851.26 234907700 239376100 243391700 248416700 254166200 259395400
2854.15 265222900 271588200 277309500 282946800 288648700 294797600
2857.04 301126500 308565400 315722000 321132100 327116600 334274000
2859.93 341503200 348074900 354373200 360789700 368569700 377573000
2862.83 384677700 391226000 399256700 407724100 415827500 423242800
2865.72 431755900 440858800 449519200 457655300 466414100 475314600
2868.61 484550600 493965500 503076300 512017600 522067500 533476400
2871.51 543958200 554548400 565718200 578535400 591632400 604201100
2874.40 617561900 631472500 645591900 659073400 672475300 685665300
2877.29 698824900 709599800 717902000 725018600 731773700 736285300
2880.18 738099000 738814800 737632300 735344800 732705800 729508200
2883.08 725992300 723287300 723320300 727364500 736559700 749381100
2885.97 754987900 745876200 732506000 724485100 722006100 721496100
2888.86 722454100 724972900 728906800 733539100 736879600 739219700
2891.75 739482000 738337800 737229800 733639600 728322500 721454600
2894.65 713395600 704743200 695463000 687159500 678734000 669977000
2897.54 662060200 654986600 647356600 638972400 632664600 626766700
2900.43 620578700 616492000 612724200 609262900 607408200 604714900
2903.32 601826200 600951200 600784900 600197600 599356600 599277800
2906.22 599925200 600249500 601854100 604307500 607361000 610814100
2909.11 614073900 618256100 622118600 626110100 629747000 632727400
2912.00 635995000 640462800 644934200 649827500 655747000 659924500
2914.90 663661100 667699500 671895100 676502500 682419300 687981600
2917.79 692790800 697535900 702074700 706833000 712075600 718757500
2920.68 726411000 733231700 739827100 746881000 753936300 760426400
2923.57 767849800 775527200 782249600 788897200 795610200 802895700
2926.47 811905800 819847600 826364400 832283100 838983400 846310000
2929.36 853878200 860993800 869201700 876302800 881978700 889195100
2932.25 898203100 906877700 914976300 924843900 934828900 943832600
2935.14 951914900 960788700 969591900 977722100 985406500 992372300
2938.04 998544600 1004343000 1008458000 1010861000 1011760000 1013229000
2940.93 1015637000 1017327000 1019804000 1021565000 1021539000 1022095000
2943.82 1021328000 1018092000 1012979000 1007330000 1001845000 996378100
2946.72 992350300 990505200 990847700 990150700 988874200 988637800
2949.61 988716000 988578200 989722500 991041200 991729200 993186100
2952.50 994092800 997038100 1001051000 1003342000 1004182000 1004975000
2955.39 1006020000 1006428000 1007182000 1008393000 1009808000 1011400000
2958.29 1014819000 1017495000 1020139000 1024389000 1028797000 1032190000
2961.18 1037315000 1044763000 1051712000 1056975000 1062820000 1068671000
2964.07 1075735000 1085371000 1099339000 1118447000 1139194000 1159322000
2966.96 1174552000 1178733000 1166876000 1143171000 1117752000 1093717000
2969.86 1071635000 1051723000 1034504000 1019139000 1004120000 992502000
2972.75 985736400 982926600 979766600 972813200 962014800 949015700
2975.64 937457300 927594800 917349900 910095200 901888100 892142100
2978.54 881694500 868590300 853485700 837968500 819088200 797102000
2981.43 773424500 749773300 724783000 699034500 673091000 646093200
2984.32 617118000 588844100 562151000 536211800 510403200 485723300
2987.21 462274600 439287800 416860000 394697000 374166900 355325700
2990.11 337626100 321185200 305106200 289689200 275365500 261866600
2993.00 249464400 237816700 226004600 213574100 202253500 192310200
2995.89 182930100 174222300 166371900 158134300 149979000 142524300
2998.78 135359000 128810900 122693800 116721100 110552100 105118100
3001.68 100108600 94345900 89402650 85284760 80802920 77062760
3004.57 74003420 71157070 67814780 64700570 62164420 58910100
3007.46 55971020 53587960 50857790 48704610 47204470 45119200
3010.36 43494050 42705080 41679270 39810900 38591920 37079210
3013.25 35706640 35109660 34392140 33883850 32799330 31488020
3016.14 30529350 30169460 29881800 28909110 28093190 27769560
3019.03 27098350 26613100 26385130 26205370 26499520 26226120
3021.93 24829470 24590650 24511020 23814420 23415150 23778190
3024.82 23806350 23044300 22347100 22604600 23519050 24047020
3027.71 22846960 21526580 21427850 21669720 22042970 22243530
3030.60 21829080 21813210 21315580 20661150 20560640 20767790
3033.50 21333250 21582010 21601910 21258620 21425570 21546660
3036.39 20713100 20729910 20967060 21499330 20898440 19572110
3039.28 19771850 20934380 21128960 20942330 20543450 20717070
3042.18 20830070 20330740 20057500 20395420 20735580 21101960
3045.07 20929680 20074660 20131950 20603300 19992290 19764940
3047.96 19800150 19775720 19423180 19630410 20025050 19878540
3050.85 19468580 19152810 19768270 20068290 19488930 19658840
3053.75 19676080 19318510 18875040 18548890 18589720 18406890
3056.64 17808220 17660210 17544250 17210890 17287470 17400030
3059.53 17553880 17849130 17760390 16742250 17261360 17582540
3062.42 16585990 16099810 16716670 16978590 16947210 16758970
3065.32 16028760 15396100 14952630 15049340 14889410 14656600
3068.21 14800200 14610340 14050550 13671510 13800660 14035610
3071.10 13841210 13480570 13333250 13347770 12927130 13031180
3074.00 13321070 12760980 12362120 12644380 12347540 11899100
3076.89 11676870 12007310 11677340 10779590 10660970 11501290
3079.78 12021710 11589830 11603020 12645190 12660840 11718600
3082.67 11160470 11151460 11398850 11265720 10849850 10830240
3085.57 11517340 11247530 10602080 10413820 10533070 10408740
3088.46 10836040 11032380 10348520 10092330 10395450 10700830
3091.35 10430100 9852904 9460684 9939530 10631380 10828020
3094.24 10890730 10594090 10394030 10266180 9913498 10003200
3097.14 10091770 9890368 9920676 9763720 9618322 10007660
3100.03 10570470 11167560 10441260 9665992 9841736 9170950
3102.92 9238996 9903158 9577626 9207970 9009764 9316752
3105.82 9826120 9583394 9083576 9339692 9712542 9714962
3108.71 9417378 9658380 8952198 8583634 9337666 8747698
3111.60 7896654 8730562 9163238 8504760 7937008 8325950
3114.49 8666388 8626420 8736966 9093680 9478188 9403072
3117.39 9036648 8719346 8717660 8998380 8151728 7684882
3120.28 8779714 9554192 9247262 9011098 9320828 9322288
3123.17 8978194 8944684 8184196 7828628 8221900 8734258
3126.06 8820072 8479484 8253502 8669266 9100094 8966990
3128.96 8865568 9015114 8997642 9051690 8761896 7985552
3131.85 8567074 9353338 8789238 8566494 8925064 9120464
3134.74 9144186 8538332 8177484 8265094 8846244 8834324
3137.64 8447644 9019554 8656898 8779216 9490098 9349602
3140.53 8778596 8504070 8837608 8341098 8074064 8300998
3143.42 8386256 9337966 10127910 9483472 8440700 8653968
3146.31 8817440 8457650 9242784 9000334 8071550 8235092
3149.21 9252014 8914138 8368258 8891296 8695750 8236430
3152.10 8511274 8730522 8758202 9156988 9409034 9476200
3154.99 8727304 8499740 8991988 8977806 8524966 8364132
3157.88 8223904 8226644 8760778 8973108 8403994 8244806
3160.78 8893684 8979340 8917926 8557402 8259930 8160264
3163.67 7774260 7754328 8724904 9428446 9426636 8708904
3166.56 8518472 8750634 8663634 8745508 8830510 9010110
3169.46 9153790 8837620 8686906 8732890 8274828 8142768
3172.35 8450360 8624546 9145348 8869794 8415200 8523982
3175.24 8587552 8877454 8851460 8584640 8729368 8131232
3178.13 7961344 9125978 9745420 9127398 8727878 8862440
3181.03 9414084 8984792 8093082 7777336 8768706 9687006
3183.92 9072660 8817806 9675542 10214040 9333724 9028492
3186.81 9227866 9413206 9484452 8743904 8818340 9376168
3189.70 9852902 9783662 9833744 10416230 10057420 9478210
3192.60 9531318 9327114 9419716 9443818 9913026 9941396
3195.49 9769812 9880258 9962160 9809148 10140670 10352160
3198.38 10188400 10026730 9783976 9469974 9022180 9097382
3201.27 9245298 9435142 9466310 8797444 8424188 9280874
3204.17 9772748 9477636 9605030 9360954 9583126 9315854
3207.06 8290750 8194512 8910990 8900490 8290150 8307342
3209.95 8723318 9257440 9053254 7577990 7416962 8671486
3212.85 8950584 8472598 7918354 7463316 8279012 8791274
3215.74 7971892 7560784 7745686 7389398 7043154 7156732
3218.63 7008794 6603848 6953486 7153472 7526378 7388870
3221.52 6280546 5811076 5923026 5671498 5278090 5093640
3224.42 5679532 5769344 5843558 6095776 6409588 6222768
3227.31 6180858 5945994 5223678 4639818 4920228 4658808
3230.20 5060070 5371570 4681132 4950434 5149954 4956290
3233.09 4539244 3834732 4231066 5393998 5797002 5488780
3235.99 4480528 4896970 5095698 4109974 3180446 3126542
3238.88 3289806 3772604 4373172 4696306 5016804 4843412
3241.77 4290816 3691038 3778844 3850200 4221508 4143068
3244.67 2993292 3181066 3937710 4497214 4681608 4396256
3247.56 3554378 3042170 2669404 3198712 3350206 2990430
3250.45 3320818 3485784 3437026 3515818 3567700 3200944
3253.34 3025234 2822542 3243160 3335978 2966766 3603132
3256.24 3694876 3023408 2804948 3125994 3061094 2598884
3259.13 2929516 2896058 2874288 3361832 3585678 3360478
3262.02 2211470 2048070 2888082 2943726 2973224 3343372
3264.91 3447312 2685132 2884028 3300594 4104718 3555788
3267.81 3687282 3531634 2871128 2530358 3318806 3390440
3270.70 2303696 2035962 2830194 2939886 2525056 2366418
3273.59 2429332 3375552 3327392 2911452 3144264 2588478
3276.49 2304008 2781954 3601622 3026530 2296194 2963998
3279.38 3537662 3236598 2778250 2400240 1869568 1317682
3282.27 2191474 2924534 2609914 3275026 3660264 2910036
3285.16 3523902 3318896 2612050 3002590 3512160 3151970
3288.06 2773862 2122078 1526352 1969776 3084562 2611048
3290.95 2109838 2778124 2368074 2172848 2914100 3115038
3293.84 3171154 3624906 3777000 3497712 2837394 2513978
3296.73 2008242 2136874 3532134 3852238 3307294 3091228
3299.63 3166412 3122508 2788174 2174380 2283258 2800028
3302.52 2646460 1987198 2284790 2534622 2562918 2766594
3305.41 2694536 2665038 3235070 3478662 3907336 3630166
3308.31 3190434 3027864 2650142 3126162 3392250 3083634
3311.20 3337536 3346132 2827064 2833680 3630038 3554124
3314.09 2983008 2404434 3363522 4114136 3702890 3162330
3316.98 4242342 5131726 4209482 3166930 2597806 2911784
3319.88 3268640 3144196 3130552 3716478 3669626 3222386
3322.77 3247216 3869996 3785634 2961486 3409232 3904560
3325.66 3231050 2706010 3110952 3085236 3343880 3233726
3328.55 2719614 2846980 3772616 3845894 2738244 2579978
3331.45 2351288 2329066 2402598 3463000 3368864 3047172
3334.34 3468864 3261186 2504982 2867742 3426230 3194106
3337.23 2490708 3216096 3836068 4034514 3335386 2619036
3340.13 2294570 2566334 2879356 2914750 2989600 2472812
3343.02 2709148 2697740 2797810 3192804 2629984 1809194
3345.91 2432774 2679470 2077346 2434366 2804550 2637146
3348.80 2156578 3027352 3201526 2684634 2763792 2432728
3351.70 2772508 3318868 3402598 3184862 2230764 1482026
3354.59 2383252 3225172 3178924 2626592 2192458 2325430
3357.48 3223668 3361822 3392960 3667982 3290626 2832928
3360.37 3010050 2816940 2436474 2723188 3754568 2956372
3363.27 2712086 3176022 4034602 3833820 2688678 2484264
3366.16 2418786 2108886 2720552 3199002 2786456 2417560
3369.05 3197828 4338382 3883550 2824316 2601914 2550762
3371.95 2541482 2875694 3590918 2937280 3023982 3681794
3374.84 3479500 2438412 2503986 2723774 2571718 2873902
3377.73 3067642 3003540 3437268 3509858 3186334 3557090
3380.62 3058108 2669932 2895650 2984422 3441224 3897986
3383.52 3118192 2473834 2896618 3726248 3232474 2558448
3386.41 2872630 3155700 3263528 2968816 2429108 2280534
3389.30 3024668 3389234 2599116 1798466 1948474 2917592
3392.19 3786244 4147674 3851974 2874474 3315174 3289372
3395.09 3355490 3452594 3507946 4435500 4281846 3916446
3397.98 4077766 3652222 3599784 2517594 2957446 3373578
3400.87 3588604 3316642 3473110 2666136 2269046 3442924
3403.77 3696406 3553606 3625744 3835932 3704878 4091494
3406.66 3546204 3345410 3049444 3460120 4305868 5179516
3409.55 5394920 4769704 3847444 3226022 3364478 3905002
3412.44 4165424 4299072 4300832 4680016 5604612 5825628
3415.34 5302720 4313706 4112794 4212798 4687182 4788170
3418.23 5173734 4925604 4189944 4950526 5578118 6183564
3421.12 5470176 4901054 5344446 4253612 3390436 3238302
3424.01 3696510 4206952 4522570 4973060 5318878 5026626
3426.91 3944072 4335612 5252428 5427596 4914082 5233926
3429.80 6487180 7016524 6702132 6233726 5670082 4771922
3432.69 4729714 5259464 5349998 4921812 5105614 5333476
3435.59 5597974 5065548 4392322 4655048 5140002 5246570
3438.48 5717020 4919772 4054434 4987712 6092852 6312436
3441.37 6760860 7376538 6803382 6333804 6530174 6175360
3444.26 5624598 4918366 4192036 4408942 4827298 5123966
3447.16 5677420 6054028 6371806 5674658 5258606 5824780
3450.05 6504302 6728022 6391920 5829026 5477858 5202862
3452.94 4748816 5112150 5773894 5877298 5502758 4679160
3455.83 5133878 6168932 6202072 5886020 6115218 6209166
3458.73 6029212 6033234 5951658 5635530 6372054 6893592
3461.62 6666446 6911880 7097042 6416656 6141200 6599704
3464.51 6553898 7075924 7398568 7348942 7167336 7033654
3467.40 6662464 5297712 4693576 5314508 5816726 5938796
3470.30 6459578 7030680 6979950 6624664 6170986 6260494
3473.19 7558506 7864248 7116908 7234686 7023826 6792488
3476.08 7289570 6719216 6020628 6411184 6900880 7031388
3478.98 6557678 6199714 6381212 6696038 7037774 7081218
3481.87 7604076 7098046 6385046 6988772 7373820 7163236
3484.76 6256202 6355402 7160228 7161334 7343424 6816056
3487.65 5738882 5647694 6187794 6214140 6462070 6637520
3490.55 6245072 6219710 7255106 7731306 7609506 6814836
3493.44 6685770 6780378 6076344 5753602 5749432 6184250
3496.33 5738724 5510702 5849362 5296218 4878088 5542752
3499.22 5674008 6167030 6260704 5665634 5181988 5198742
3502.12 5725084 5909908 6326246 6047378 5418620 4836854
3505.01 4929234 5598882 5655622 3934982 3710454 5019582
3507.90 5174444 5715154 5605882 5748786 6426980 5582324
3510.80 5348828 5464574 5246426 5092532 5024690 4795256
3513.69 5374400 5440982 4687610 4754874 5093834 5039424
3516.58 5266250 5211708 4862158 4311874 4957214 5385752
3519.47 4911430 5129344 5846648 5780540 5241000 5028904
3522.37 5525620 5362616 5106052 4822644 5465658 4782262
3525.26 3841596 4483210 5566258 6074382 5793858 5569496
3528.15 5429862 4825682 4992892 4972728 4413734 5469276
3531.04 5761136 4853268 4823286 5641304 6229816 5972828
3533.94 5497238 5174086 4917832 4588602 4547260 5520810
3536.83 6077738 5835436 5897716 4211644 2756914 3660200
3539.72 4998142 4525410 4650800 5156742 4903998 4606398
3542.62 5036358 4368060 4684618 5083774 4011936 3568472
3545.51 4669422 5430236 5072158 4957550 5623210 5924532
3548.40 5134714 5364440 5923726 5363368 5081590 4603046
3551.29 4592658 4753236 4716768 4832424 4722348 4873748
3554.19 4248730 4158332 5312594 5844268 5471870 5406888
3557.08 5457538 5412376 4419538 4642740 5709916 5236924
3559.97 4408724 4121368 4199946 4833372 5402228 4955220
3562.86 4858500 4610822 4878176 5286344 5280094 5218182
3565.76 4730626 4713358 5622032 6358044 5872376 4782012
3568.65 4658250 5232828 4949358 4076546 2854460 3814838
3571.54 5202008 5099238 4999532 5126648 4961938 4198440
3574.44 4171698 4464736 4958920 4929390 4394598 3841844
3577.33 4793902 5760590 5043356 4012756 4130344 4721280
3580.22 5565544 5701836 4778246 3760718 4222220 4736846
3583.11 5006858 5563908 6009820 5266890 4435512 4756402
3586.01 4782416 4215808 4642068 5331638 5649324 5944586
3588.90 5537416 4631706 4430560 4316882 4384102 4577048
3591.79 4567124 5732432 6685446 6217108 5811384 5361502
3594.68 5266020 5012286 4949520 5352178 5385464 5867868
3597.58 5767634 5160854 4686202 4958944 5600412 5566308
3600.47 5738896 5981376 5388222 6055696 6704016 6468298
3603.36 5785442 6186734 6552842 6188986 6353722 6707518
3606.26 7013502 6745884 7609366 7728740 6513128 7157540
3609.15 7347568 6926144 7776664 8098494 8261006 8470402
3612.04 8214826 7752322 6994836 7114150 8213502 8599702
3614.93 8242336 8145694 8565366 8993458 9823318 10423440
3617.83 9560924 9573226 10745500 11413340 10192930 10620010
3620.72 11116900 11422720 12403350 12169110 11949160 12301440
3623.61 12514560 12786500 13116690 13102750 13548370 14323460
3626.50 14907130 15189850 16486250 17086260 17286800 18384980
3629.40 18692900 18230490 18067920 18599840 19745690 20464680
3632.29 21797800 22700830 23135790 24425270 25175080 25729090
3635.18 27132050 28384820 29022570 29623180 30341550 31072400
3638.08 31868260 33036200 35208330 37234880 38118570 38875190
3640.97 39913680 42515720 45429120 46678450 47824330 50313810
3643.86 52690650 54327620 55945790 57605380 59520190 62728050
3646.75 66165330 68319360 70282700 72879740 76831500 77777220
3649.65 77818740 80165620 83462500 85987440 87631280 88396970
3652.54 90552840 94112820 96733230 99300220 102346000 106236300
3655.43 109785600 109985200 108215400 107770700 108813900 111151300
3658.32 113962400 116518500 118496900 121992500 125583400 128850500
3661.22 131939700 136214000 139460900 141987700 144407500 147016800
3664.11 149885600 153157400 155943100 158576300 161370700 164331100
3667.00 166332800 168359400 171546000 173141600 173373200 174588300
3669.90 177690200 178864500 176802300 175126900 174154400 173579100
3672.79 171667000 168688100 166289400 164839800 162614500 161021700
3675.68 158081300 153092400 150373600 149913000 150534200 153213300
3678.57 157408900 158185400 151758800 145440200 141985000 139441600
3681.47 138858100 139968200 139036100 137041700 135564900 133934700
3684.36 130820900 127415600 124131700 120848800 117670400 112898800
3687.25 107474500 104323800 100076700 93184930 87329700 82567890
3690.14 77650370 72781910 68403540 64386720 61006220 57066110
3693.04 53769250 51210200 48639770 46883440 45117170 42569420
3695.93 39391990 37431900 36607610 34758940 33336890 32004810
3698.82 30826730 28761920 27057130 27239130 27095760 26100590
3701.72 23960710 22144190 21101900 20119450 19558240 19075030
3704.61 18422400 17899610 17539140 16590580 15091200 14539420
3707.50 14747880 14720540 14392850 14323670 13255390 13243980
3710.39 12799600 12762990 14330250 14773750 13103770 12474970
3713.29 11545360 10484070 9763692 9708218 10462840 10877020
3716.18 10109590 9447968 9182388 8795110 9192232 9661174
3719.07 9676216 8914802 8654328 9482924 9276646 8834056
3721.96 9382926 9704538 9444784 9174600 8942990 9049352
3724.86 8867528 8971192 8907428 9006276 8593506 7550130
3727.75 7420446 7580956 7033094 7065124 7490282 7895984
3730.64 8543474 8738486 9675626 9778012 8431100 7840724
3733.54 7694940 8203468 8430332 8237312 7928028 8265682
3736.43 7936972 6508866 6650056 7632208 7892244 7818524
3739.32 7971080 7665906 7470796 8113026 8371148 7960950
3742.21 7887652 7799932 8310260 10973680 12657580 10337210
3745.11 7840906 7244238 7044306 7364122 7055056 6953004
3748.00 7661670 9922936 11236700 8957880 7154872 6658542
3750.89 7340462 9521560 10476560 7342224 5834254 6098464
3753.78 6201400 6077054 6806164 7294344 7777908 7973402
3756.68 7038398 6426934 6869414 7111612 7247826 8227448
3759.57 7624526 6451434 6371814 6941552 6930902 7072382
3762.46 6532528 6249434 7213590 7148490 7012814 6671266
3765.35 6748550 6586146 6731216 6482364 6466988 6897614
3768.25 6770718 6756986 7249444 7696682 6626272 6261490
3771.14 6610258 6728412 6837264 7458804 7657528 7385104
3774.03 7546140 7562408 7008740 6484022 6626076 6703570
3776.93 7008276 6547918 7028956 8267050 8875418 7923924
3779.82 6618318 6449328 6609306 6267428 6582740 6644826
3782.71 6658268 6785890 6486106 7388178 7917380 7298806
3785.60 6908254 7247852 7662316 7424340 7263508 7105128
3788.50 7342710 7370222 7274898 6628158 6211212 6686788
3791.39 6807798 7174068 7677536 6627260 7133756 7309768
3794.28 7129052 8048484 8102954 8213862 8595308 7906652
3797.17 7416456 6922094 7123398 7498532 7548842 8037764
3800.07 7672140 9430406 11092710 9618286 8813832 8434740
3802.96 7772408 8465710 8018624 6255406 5391414 6428114
3805.85 7978272 9244284 8799234 7835064 7362726 7241892
3808.75 7819302 8132988 7796342 7146390 7220530 7597376
3811.64 7874776 7441010 7019754 6771954 6866150 6894204
3814.53 7396386 9308060 11823010 10871080 8647542 7839842
3817.42 8421668 8590402 8182700 8217176 7668258 8314878
3820.32 10188630 9909946 9448450 8787194 8917744 9224172
3823.21 8726636 8544988 8604494 8950938 8671314 8610174
3826.10 8262794 8265588 8150572 7650642 7588996 8536224
3828.99 9029218 9003840 9606352 10065780 10247680 9609222
3831.89 8573274 8544640 8782546 9728026 10691170 12156230
3834.78 11922550 10460860 10048080 9776926 9771918 12324760
3837.67 12440730 10365040 10151120 10224170 10423090 10278340
3840.57 10259060 9866874 10237410 10006390 9550204 10009790
3843.46 9902548 9752202 9904750 9396958 9615374 9845604
3846.35 10665510 10374610 10254530 10498990 10637340 10778980
3849.24 10546590 10340860 10282970 10563290 12335620 13755270
3852.14 12411930 11644050 13091370 15113730 13957430 11487670
3855.03 11556620 11687390 11028580 10688380 10764270 10730450
3857.92 10800590 10244240 9425602 9647662 9694908 10197270
3860.81 11267400 11481410 10688460 10110630 10109190 11119080
3863.71 11938950 11854640 11955660 11690290 10346160 10046640
3866.60 10859000 11111870 10573030 9717806 10990230 12488160
3869.49 13463120 12725400 11304740 11501280 11154570 10899340
3872.39 10937190 10945820 11572330 11563120 11168060 10861080
3875.28 10391740 10352700 10561470 11032230 11154230 10520590
3878.17 10158950 9504626 9976212 10568570 10444710 9734010
3881.06 9509416 9389700 9186994 9131534 9151808 9478490
3883.96 10203980 10511100 11280910 10433010 8406788 8356176
3886.85 8576270 7958724 7764372 8690996 8757510 8378584
3889.74 7810612 8597760 10126000 9744262 8890886 7807968
3892.63 7450964 8099986 7814606 6522020 6775628 7048592
3895.53 7200674 7922520 7956812 7144866 6465936 6753002
3898.42 7317316 7485158 6765826 7184040 7004866 7136262
3901.31 7878596 7054954 6595240 6859658 7653016 7689290
3904.21 7077606 6950256 6804472 5382164 5437474 6407464
3907.10 6710204 6559618 6832612 6015056 4992658 5260580
3909.99 5850408 5864824 6183980 6023668 5790634 6220212
3912.88 5934890 5610622 5375800 5422008 6149096 6059342
3915.78 5184272 5403912 6638976 6680432 5927134 5301484
3918.67 5463438 5718314 5370856 5068262 5051326 6322334
3921.56 6401326 5764308 6504806 6880078 5880970 5327796
3924.45 5266686 5418484 5887776 6326254 5311726 4560540
3927.35 5027500 5063160 4924968 5667698 5550548 5686318
3930.24 6196842 5662158 5316982 5487124 5991134 5586668
3933.13 5272236 5497780 5266580 5043596 4056968 3629280
3936.03 4101660 4836418 5310126 5640630 5433260 4470660
3938.92 4330966 5054774 5721394 6236344 4928248 4149086
3941.81 5520258 6055764 5372724 4948356 5410586 5588002
3944.70 4948340 4146060 3980980 4473146 4984430 5160946
3947.60 4959322 4207504 3991666 4554446 4911948 4161322
3950.49 4049410 4620026 4892946 4992836 5601478 6321614
3953.38 5532112 5180450 5015080 4755474 4500658 4857976
3956.27 5189954 5564612 5326934 5292962 5853490 5574400
3959.17 4547374 4446270 4609338 4129478 4470176 5595698
3962.06 5380560 4739156 5251328 5027992 4605850 5076384
3964.95 5498858 4919516 4333088 4726898 4869390 4778790
3967.85 5036588 5703096 6013544 5754556 5710652 5951280
3970.74 6349686 6067914 5493766 5277556 5380142 5573442
3973.63 6117458 6539966 6441156
##END=
