##TITLE=1-Butanol
##JCAMP-DX=4.24
##DATA TYPE=INFRARED SPECTRUM
##CLASS=IUPAC A
##ORIGIN=NIST, Anayltical Chemistry Division, 301-975-3108
##OWNER=COPYRIGHT (C) 1998 by the U.S. Secretary of Commerce
##DATE=98/10/1
##$SPECTRA VERSION=1.00
##$UNCERTAINTY IN Y=2.0 % relative (B=1.0E-04,C=2.6E-10,D=2.7E-14)
##CAS NAME=1-Butanol
##CAS REGISTRY NO=71-36-3
##MOLFORM=C H3 C H2 C H2 C H2 O H
##MP=-89.53 C
##BP=117.25 C
##$NIST SOURCE=QUANT-IR
##SPECTROMETER/DATA SYSTEM=IFS66V (Bruker)
##INSTRUMENT PARAMETERS=KBr Beam splitter; MCT Detector; Multipass cell
##STATE=gas
##SAMPLE DESCRIPTION=1-Butanol Primary Gas Standard
##PRESSURE=101.3 kPa
##TEMPERATURE=23 C
##SAMPLING PROCEDURE=1 L/min Flow
##RESOLUTION=0.9640
##DATA PROCESSING=3-Term B-H Apodization
##XUNITS=cm-1
##YUNITS=(micromol/mol)-1m-1 (base 10)
##XFACTOR=1.0
##YFACTOR=4.5474E-13
##DELTAX=0.4820
##FIRSTX=575.169
##LASTX=3975.077
##FIRSTY=2.12E-06
##MAXX=3974.59
##MINX=575.17
##MAXY=.0005348
##MINY=7.13E-07
##NPOINTS=7053
##XYDATA=(X++(Y..Y))
575.17 4674802 7617122 10865110 12016890 11160440 9894238
577.58 9234448 9335692 8830620 8974434 9957812 9208942
580.47 7125424 5958170 5928024 6769954 8461094 9270848
583.37 7932808 6741856 8707830 10497660 9973670 9394922
586.26 8038680 7391872 7581754 7826012 9041094 10647730
589.15 11238870 9347282 7053150 7308572 9024192 10998920
592.04 11344540 9977426 8475100 6449426 4744946 4666026
594.94 4584308 5209506 7687894 9729832 10030680 9273088
597.83 9436696 10745270 10470110 8926516 9116570 9800286
600.72 8727626 7194402 6705824 7157548 7906654 8380486
603.61 7780236 8281048 9835812 8722744 6422942 6246640
606.51 7455696 8392788 9373100 9948396 9149184 7933558
609.40 7388192 7385590 6744626 5755884 5776898 6964548
612.29 7970908 8417528 8118822 7350648 7717082 8689468
615.18 9096608 8730288 8494060 8368298 8111198 8340302
618.08 9000262 9541860 9274684 8937712 9400250 9900438
620.97 9424670 8456354 7402556 6352462 5869954 6161718
623.86 7156170 8260988 8610198 8101498 8651848 10402120
626.76 11648320 11822630 10452830 8447546 8000630 7775874
629.65 6317366 5635860 7046196 9135848 10187430 10027780
632.54 9193270 8453854 8847254 9697576 9736686 9028600
635.43 8298036 7576730 7483958 8596960 8948760 8173196
638.33 7793744 8429920 9321162 9372294 9018550 8468940
641.22 7951412 8746530 9937894 8822368 6522646 6200334
644.11 7610942 8827908 8676316 7663592 7161380 7325032
647.00 7749436 8673182 9270642 8748514 8189894 8478894
649.90 8780172 8699730 8577938 8717842 8714112 7676642
652.79 7345220 8499906 9545476 9459022 8039740 6982342
655.68 7105836 7653526 7834736 7843068 8025380 8487736
658.58 9282258 9194916 8152920 7887786 8545322 8807546
661.47 9022596 9264212 9123922 9195196 9087518 8404326
664.36 8126880 7867232 7523030 7963186 8272140 8461954
667.25 8954828 8953896 7948282 7680458 8219806 7985190
670.15 7619464 7046942 6136884 5900066 6923136 8144092
673.04 7832366 7048874 7478260 8361974 8785422 8741098
675.93 7852518 6723376 6555192 7545586 8671784 8127224
678.82 6599526 6249504 6789432 6897504 7041334 7333306
681.72 6925484 6418346 6560186 6884200 7104230 7242768
684.61 7230716 7644250 8446766 8316438 7944048 8296086
687.50 8814776 8574718 6876454 5375218 5532926 6639054
690.40 7493136 7605826 7155026 6499684 6302212 6558036
693.29 6726408 7102186 7300196 7470568 8154708 8517326
696.18 8043848 7214890 7012150 7179276 7047590 6410924
699.07 5907940 6612684 8231782 9290152 8820216 7795530
701.97 7031236 6585668 6738494 7310180 7851810 7779658
704.86 7445100 7752346 8084472 8076266 7923730 7675100
707.75 7425046 7326308 7715522 8337310 8780580 9000818
710.64 9082234 9182802 9350254 9148546 8459448 8258846
713.54 8553544 9452752 10618980 10503040 9681240 9353496
716.43 9323332 9658202 10331580 10704700 10446270 9946894
719.32 9840218 10536340 11649980 11929600 11290740 10922800
722.22 11481730 12984380 13723120 12940730 13083730 14322980
725.11 14557200 14306980 14231420 14181290 14351810 14772350
728.00 15254820 15622160 15932020 16191280 16282860 16558660
730.89 17416030 17997940 17817090 17811540 18186240 18256070
733.79 18381660 18342020 18050560 18963100 20217390 20472410
736.68 20614300 20841970 20810460 21140390 21917230 22725070
739.57 23724540 24424380 23606360 21609280 20354040 20702650
742.46 21369730 21030510 20253420 20287020 20983570 21038070
745.36 19979940 19135470 19340520 19852450 20432850 20796600
748.25 20229000 19575090 19868050 20141110 19631770 18780090
751.14 18042310 18268040 19434030 19633180 18443220 17463140
754.04 17276360 17239920 16803630 16302280 16035840 16005180
756.93 15810640 15577030 15509830 15602870 15805640 15218600
759.82 14349490 14143970 14109770 13767340 13142740 12791440
762.71 12849670 12953080 12999690 12641300 11986980 11412690
765.61 11511360 11795950 11047670 10064870 9933436 10442230
768.50 11136510 11196900 10403090 9875990 9775498 9682862
771.39 9673134 9675016 9496320 9121810 9054166 9511464
774.28 9593774 8970920 8654650 9103888 9818090 9892194
777.18 9289832 9180078 9320954 9271640 9350890 9603416
780.07 9600270 9675992 9977242 9857624 9691826 10296310
782.96 11022230 10954770 10138020 8996972 8480774 8800666
785.86 9412430 9678024 9366336 9400322 10319180 11192760
788.75 11593280 11719090 11629010 11658550 11779560 11913760
791.64 12630740 14057080 14693580 13682640 12553550 12679450
794.53 13403150 13373770 12804200 12790600 12935400 12724010
797.43 13053030 13802880 14337660 15008820 15221320 14403760
800.32 13917950 14282200 15085370 15658460 15558100 15417790
803.21 15091930 14605590 15049290 16256090 16957390 17069200
806.10 16561560 15636870 15225790 15611790 16139380 16771830
809.00 17185750 16830600 16519640 16388320 16147020 16522090
811.89 17864490 18860940 18468930 17900960 18391080 18858030
814.78 18647390 18279420 18314490 18828670 18879930 18789510
817.68 19442990 20527080 21673590 22291500 22037110 21220230
820.57 20760880 20730640 21052030 22060970 23171500 23894820
823.46 23786330 23662880 24761910 26370350 27468950 28163180
826.35 28545480 28595430 28980420 29847060 30979460 31553670
829.25 31235420 31850230 33914960 35536840 36096440 36770250
832.14 38065840 39631100 40754610 41054780 41513260 42970850
835.03 44763660 45954410 47059380 48391280 49449680 50120790
837.92 50340200 50349610 50930390 52380340 53400730 53601130
840.82 53877570 54333860 54514600 54012690 53082600 52424150
843.71 52352740 52507720 52380140 52099780 52048970 52425290
846.60 52978770 53084730 53453680 54364010 54855480 55090950
849.50 55114560 55192730 55694770 56167290 56409000 56293240
852.39 55804700 55341680 54827030 53843840 52895570 52462790
855.28 51663100 50501070 49937020 49335520 48177890 47301760
858.17 46633390 45641370 44559160 43680380 42768500 41721010
861.07 40794160 39888470 39042520 38162630 37109280 36092980
863.96 35174240 34257830 33528690 32872630 32227280 31292710
866.85 29945780 29183250 29019610 28678260 28067720 27508510
869.74 27152510 26973330 26647230 25845310 25051190 24868320
872.64 24864130 24465410 24054540 23398760 22946970 23352190
875.53 23573600 22953490 22011350 21276570 21163450 21853280
878.42 22534880 22054170 21106750 21137860 21414730 20979020
881.31 20562440 20479490 20531110 20527330 20484430 20616950
884.21 20909450 21125940 21290980 21587430 21898150 22264670
887.10 22559250 22691680 23100160 23446830 23322350 23542020
889.99 24397250 25154900 25528880 25889110 26435170 27038970
892.89 27636700 28152400 28150940 27650150 27470480 28019720
895.78 28406560 28258240 28187360 28328610 28549790 28559820
898.67 28301910 28416100 29010600 29221170 28903950 28873610
901.56 29331640 29894160 30300470 30498450 30611670 30839620
904.46 31068170 31510630 32448030 33273930 33378040 33144080
907.35 32865850 32711440 32940250 33104930 33040110 32591390
910.24 31999150 31863170 32141550 32529040 32333670 31719810
913.13 31231190 30857660 30903540 31499040 31910340 31622730
916.03 31384000 31568050 32101880 32813450 33468320 33940890
918.92 34361420 34789060 35415700 36405560 37467150 38188840
921.81 38896920 39751380 40788340 41988520 42729740 43357560
924.71 44528570 45822550 47187700 48712020 50251140 51668630
927.60 52694570 53750010 55373180 56997660 58395670 59878070
930.49 61386660 63215000 65375280 67116060 68375740 69825020
933.38 71873000 74022700 75394700 76352580 78060300 80329230
936.28 82329580 84302830 86474030 88478740 90283760 92375320
939.17 94699460 96681280 98071870 99497180 101744500 104131200
942.06 105698600 106514500 107048400 107992800 109425100 111162400
944.95 113179400 114626500 115196600 115534000 115846900 116032900
947.85 116615100 117542400 118134900 118954100 120451900 121665100
950.74 122040700 121855000 121409900 121228200 121674200 122315600
953.63 122580500 122423100 122140200 121760900 121046000 120194300
956.53 119409900 118850500 118575900 118151500 117511700 116718900
959.42 116081000 115654300 114811100 113340300 111907100 111119000
962.31 110168700 108931600 107932500 106861800 105499000 104070900
965.20 102791400 101516200 100354900 99265720 98173940 97151930
968.10 95988630 94785740 93667560 92665950 91495330 90182000
970.99 89277900 88728860 88285820 87999340 87976440 88060100
973.88 87931740 87542510 87320360 87461870 87609370 88111120
976.77 89164160 89975140 90593520 91491340 92664180 94053480
979.67 95146300 95868930 96650100 97501850 98330420 99197290
982.56 100061400 100829600 101518600 102074400 102319500 102174700
985.45 101730300 101249100 100395500 99394990 99042180 99292760
988.35 100167300 101333700 102482300 104331300 107339900 110001600
991.24 110725600 111175000 113019600 115717900 118861600 122248600
994.13 125279900 127698900 129638600 130901500 131742400 132520500
997.02 133384300 134002600 134011500 133936200 134101100 134154500
999.92 133819400 133246200 133183000 133770400 134579000 135544300
1002.81 136686800 138290000 140147200 141681600 143104500 144995100
1005.70 147066100 149235000 151929800 154582700 156740400 158519300
1008.59 159950000 161639300 164104900 167218400 170538900 173599300
1011.49 176630400 179570200 182117600 184693000 187771900 191089700
1014.38 194623600 198197200 201374100 204653200 207980800 211105200
1017.27 214377300 218243500 222562400 226743400 230852400 235057600
1020.17 239223300 243541800 248003700 252457700 256486200 260076400
1023.06 263742600 267113600 270233000 273545400 276928100 280095200
1025.95 282916300 285881100 289585200 293833300 298078600 302799000
1028.84 308352300 313700000 318354000 323104100 328566300 335325800
1031.74 343328400 351062000 358068800 365495000 373099700 380448500
1034.63 388442500 396939600 404985000 412045200 418428400 424407100
1037.52 429303000 433270100 436682100 440127200 443584700 445921500
1040.41 447498600 448914300 449769400 449317000 447776400 445808600
1043.31 443802000 442695500 442517000 442875600 442615900 440643400
1046.20 438264600 436750600 436699000 438388300 440989300 443505000
1049.09 445577000 447321600 448727000 450428800 452520800 454686100
1051.99 457715700 461602400 465193200 468260100 471038000 473142500
1054.88 473883800 473208000 471960500 470243700 467508700 464186700
1057.77 461150200 458724100 456084000 453196900 451578300 450848800
1060.66 449952100 449395800 449264600 449258600 450110000 452455300
1063.56 456145000 460971000 464869700 466076100 465840400 466319500
1066.45 468552400 472092100 476318600 480729400 484188300 485926200
1069.34 486214600 485778100 484560200 482670400 480360400 476926300
1072.23 472249400 467347200 462622200 458137000 454915400 452902500
1075.13 451033100 449108200 446991700 444408000 441839100 439814700
1078.02 437064700 432664000 427533000 420823400 411897900 402181400
1080.91 393176000 385238400 377441500 369067400 360719500 352940300
1083.81 345053000 336720600 328721500 320669300 312114300 304024300
1086.70 295872300 287049400 278541200 271072000 264574000 257999800
1089.59 250510700 243171200 237050400 231969500 227133000 221946500
1092.48 216175900 210346700 205374800 200843500 196225500 192014500
1095.38 188033900 184000400 180133100 176371900 172474400 168322600
1098.27 164037400 160324800 157563900 154761200 151355900 147688700
1101.16 143947500 140446000 137068600 133589400 130381800 127649900
1104.05 125184700 122420700 118969900 115669300 113447400 111693300
1106.95 109738500 107498100 105161900 103041300 101136000 99611540
1109.84 98383740 97259380 96277180 94969040 93144680 91465880
1112.73 90084990 88629710 87015290 85702820 84770530 83625390
1115.63 82158930 80756760 79731730 78676910 77485360 76591460
1118.52 75519640 74040580 72711430 71378100 70245920 69335850
1121.41 68215760 67197020 66276300 65220260 64152270 63352080
1124.30 62625540 61560910 60452870 59649680 59074880 58516630
1127.20 57707180 56921740 56393130 55627250 54505930 53425450
1130.09 52662240 52073840 51238650 50273080 49628300 49081260
1132.98 48687440 48348120 47624770 46829670 46205660 45804040
1135.87 45436320 44877320 44379270 43944800 43396580 42804490
1138.77 42403400 42141090 41782220 41306150 40788040 40410150
1141.66 40263200 40060900 39581420 38986300 38615060 38563500
1144.55 38614200 38364940 37964160 37948470 37978090 37803480
1147.45 37799980 37741380 37539180 37719410 37853930 37641690
1150.34 37421120 36897670 36475720 36845290 37236130 37014980
1153.23 36725160 36893000 37279520 37302110 37211800 37486780
1156.12 37501640 37207920 37231270 37386940 37738720 38319400
1159.02 38392560 38089780 38218450 38770440 39224080 39454140
1161.91 39606950 39773000 39858610 40018410 40308730 40501090
1164.80 40952130 41667970 42092000 42439700 42769020 42849360
1167.69 43083010 43521870 43719400 44176390 45009640 45460060
1170.59 45616810 45888010 46373930 47048550 47558770 48033710
1173.48 48724860 49254560 49657640 50148200 50770230 51639860
1176.37 52316420 52748500 53583540 54362130 54696830 55166380
1179.26 55832350 56300930 56822980 57731500 58800160 59718780
1182.16 60291960 60628540 61323760 62396160 63284820 63981520
1185.05 64774350 65526200 66267480 67311330 68504160 69482810
1187.94 70264840 71176310 72399110 73635530 74773450 76123200
1190.84 77342030 78199090 79023270 79805330 80555530 81590860
1193.73 82535230 83372230 84659660 85960410 86789300 87516440
1196.62 88551760 89591310 90454510 91152000 91653970 92286380
1199.51 92954010 93758730 95047060 96226940 96875250 97295020
1202.41 98031740 99018910 99794820 100526200 101407700 102252500
1205.30 102732600 103217600 104016600 104595700 105228800 106308900
1208.19 107064200 107172500 107295800 107582000 107733300 107929900
1211.08 108189300 108373100 108548600 108643600 108479600 108194000
1213.98 108267300 108529700 108418100 108033900 107830700 107631900
1216.87 107356800 107204900 106789100 106064600 105521800 104876600
1219.76 103917600 103081600 102471000 101845400 100995000 99940680
1222.66 98921830 98336600 98165090 97768190 97077990 96341130
1225.55 95725210 95154300 94602540 93895020 92746870 91569260
1228.44 90705300 89938960 88975630 87769340 86740710 85846280
1231.33 84825380 83845620 82809400 81758820 81055470 80463110
1234.23 79654670 78701840 77859780 77154500 76540780 75973400
1237.12 75473510 75100710 74656410 74116980 73880030 73815250
1240.01 73406550 72851800 72590660 72405250 72158900 71996970
1242.90 71735690 71382100 71147160 71085950 71099430 71177060
1245.80 71141810 70842220 70683790 70874190 70811500 70402090
1248.69 70541300 71411020 71915810 71672380 71481200 71595680
1251.58 71774410 72117280 72354260 72442590 72845940 73388230
1254.48 73588200 73472130 73521930 73941680 74356420 74502100
1257.37 74571260 75042020 75794820 76278060 76366720 76452580
1260.26 76767980 77117930 77361040 77648040 78128340 78526700
1263.15 78761330 79174620 79794270 80288030 80643920 81140360
1266.05 81523420 81767610 81915110 81652820 81330660 81386930
1268.94 81611980 81840290 82043060 82364970 82804820 83056650
1271.83 83034180 83003810 83167820 83466220 83867620 84421570
1274.72 84900270 84965480 84980010 85259080 85435640 85255970
1277.62 84866580 84559470 84471800 84612300 84766910 84578800
1280.51 84209470 83962700 83569580 83218760 83184020 83070370
1283.40 82708560 82315410 81898420 81361020 80839000 80453250
1286.30 80325140 80130960 79736190 79503200 79189080 78439560
1289.19 77669150 77479070 77581510 77288880 76615770 75757560
1292.08 74980240 74446430 73815870 72997620 72276540 71743030
1294.97 71262780 70505210 69620850 68984280 68439510 67883510
1297.87 67526370 67106890 66342540 65479020 64806700 64225590
1300.76 63662090 63180540 62515940 61792300 61269270 60723110
1303.65 59978020 59393010 59083640 58751620 58434630 58267610
1306.54 58062520 57765040 57479910 57141380 56965070 56993280
1309.44 56800900 56418750 56139100 55834910 55530290 55367210
1312.33 55269960 55331790 55283440 54714630 54138270 54069820
1315.22 54255800 54294150 54445120 54725340 54583770 54224340
1318.12 54099140 54075000 54085240 54249500 54403000 54487900
1321.01 54578960 54893490 55312850 55601300 55801060 55957450
1323.90 56211700 56621440 56917280 57114060 57596800 58284340
1326.79 58962330 59349130 59359550 59760170 60886000 62065310
1329.69 62818030 63632960 64614490 65456570 66215600 66877520
1332.58 67371500 67905900 68641010 69358230 70152140 70941330
1335.47 71405350 71758220 72231700 72622280 72881580 72981030
1338.36 73066690 73463910 73797460 73861130 74088080 74263740
1341.26 74218190 74471480 74853730 74982260 74892180 75034390
1344.15 75578050 75538910 75054820 75000180 75050100 75025500
1347.04 75289220 75645380 75644070 75462200 75396070 75397230
1349.94 75330520 75345660 75443590 75530220 75577540 75463260
1352.83 75294230 75338950 75258210 74848200 74515740 74670220
1355.72 75204580 75039460 74619730 74667780 74576700 74685070
1358.61 75199330 75374840 75418220 75980890 76666310 76906350
1361.51 77158540 77870860 78611910 79374810 80741940 82258060
1364.40 83405170 84643540 86175140 87918840 89839800 91694020
1367.29 93721970 96202650 98627660 100992000 103681500 106424700
1370.18 109215300 112351700 115315700 118293800 121831300 125524800
1373.08 129281500 132970400 136262200 139396200 142490300 145529200
1375.97 148820800 152099400 154705100 157002800 159576500 162042700
1378.86 164114600 165754000 166970500 167959100 168965400 170218500
1381.76 172068400 174612500 177901300 182065400 186258600 189217000
1384.65 190410900 189856300 188237700 187093600 187732500 189829300
1387.54 192034700 194192800 196540200 198757200 200345500 201090300
1390.43 201099200 200348300 198618400 196044100 193609000 191685300
1393.33 189460300 186312100 182327200 178345600 174351200 169818300
1396.22 165539300 162380500 159829800 157106700 154638100 152198000
1399.11 149025300 145734400 142650100 139457900 136056400 132610400
1402.00 129421200 126389300 123037500 119496100 116176600 112666800
1404.90 108758800 105098000 101792600 98540150 95526420 92828380
1407.79 90001820 86979820 84431100 82402920 80309720 78194040
1410.68 76242620 74259410 72359880 70660530 69048510 67465860
1413.58 66040830 64934210 63952720 62844500 61784690 60808990
1416.47 59971500 59080650 58036990 57561280 58019340 58358600
1419.36 57334780 55810420 54856990 54219130 53760750 53742160
1422.25 53935980 53801550 53358420 52935060 52870020 53121050
1425.15 53228010 53248070 53476530 53900100 54459020 55085930
1428.04 55488280 55700590 56215480 56824160 57178400 57723360
1430.93 58512610 59306960 60002940 60506400 60843340 61098420
1433.82 61348140 61756540 62262610 62898840 64444210 66523850
1436.72 67688990 68666040 70050060 70976560 71565090 72132860
1439.61 72676580 73773140 75489460 77184690 78825540 80697890
1442.50 82676100 84605390 86702380 88764300 90497220 92169270
1445.40 93709380 94999070 96291010 97729280 99120210 100240400
1448.29 101408500 102813700 104176700 105272400 106417800 107697400
1451.18 108978300 110266500 111735200 113245800 114391900 115460500
1454.07 116676100 117914500 118947900 120449300 122990600 124431900
1456.97 123937300 124115200 125548000 127134800 128639900 130157300
1459.86 131881400 133770700 135620300 136998400 137953400 139091200
1462.75 140539900 142094700 143851100 145529200 145548900 143808600
1465.64 142178900 141035400 139943300 138940900 137917900 136657700
1468.54 134965400 133053000 131628900 130787900 130327100 130726200
1471.43 131804000 132640300 133297800 133223000 131482800 129440200
1474.32 128342900 127962800 128282800 128434100 127786600 127024600
1477.21 126043800 124491700 122779500 120993300 119100600 117188300
1480.11 115207200 113193900 111234300 109442100 107828400 105916900
1483.00 103512800 101095000 98959920 96942740 94911830 92924050
1485.89 90884500 88960950 87139100 84974400 82728160 80527860
1488.79 78352810 76600730 75089520 73196800 70640170 68095980
1491.68 65832360 63440900 61229360 59387860 57566360 55669080
1494.57 53884280 52719010 51875690 49880160 47059370 44857990
1497.46 43348930 42125980 40641730 38724340 36906690 35326120
1500.36 33935770 32804430 31639580 30185220 28820900 27941340
1503.25 27214240 26123090 25354790 26024420 26229240 24781420
1506.14 24300320 24015610 22055220 20408100 19800840 19191720
1509.03 18545990 17818950 16856750 15986130 15579800 15625240
1511.93 15297060 14506810 13953170 13511610 13190630 13175950
1514.82 13176240 12980590 12792840 12722740 12674460 12231010
1517.71 11473650 10990610 10834340 11014760 11313460 11819840
1520.61 12488240 11822510 10690240 10655330 10373610 9611178
1523.50 9324944 9418440 9831922 10162780 9635238 8911168
1526.39 8781844 8838520 8658986 8701692 8723848 8304064
1529.28 7956612 8006736 8188868 8191052 8082768 7877788
1532.18 7889090 8428706 9040116 8884906 7944830 7393296
1535.07 7640016 7957312 7896184 7614732 7430918 7762192
1537.96 9123830 10509870 10135610 9707404 9690008 8517760
1540.85 7922254 8698384 8809682 8019328 7622556 7415036
1543.75 7247186 7569316 7756250 7275696 6917422 7015524
1546.64 7080574 6888230 6858020 7018800 7027182 7104888
1549.53 7245600 7019534 6613264 6297144 6075072 6106754
1552.43 6291046 6587310 7398152 7889234 7245246 6554276
1555.32 6450866 6593438 7054116 7964988 8879548 9822098
1558.21 9710046 8563818 8983544 9853338 8579414 6735184
1561.10 6080014 6061620 6114784 6039740 6012508 6060686
1564.00 6065206 6027790 5924772 5893644 6067238 6219694
1566.89 6252802 6200942 6079832 6257744 6857394 7092362
1569.78 6356530 5598700 5360740 5358988 5528834 5682622
1572.67 5783058 5869976 5895372 5823690 5917252 7132788
1575.57 8787340 8210636 6337802 5446884 5200568 5129532
1578.46 5184998 5209074 5289344 5319002 5275798 5249376
1581.35 5057404 4850500 4884738 5131158 5415014 5357120
1584.25 5108826 4985770 4860086 4724184 4717668 4821096
1587.14 4883082 4938880 5006140 5133396 5157204 5044160
1590.03 4949096 4757882 4689484 4801322 4781704 4643408
1592.92 4651684 4953424 5160992 5095760 4923838 4760970
1595.82 4721012 4689562 4673396 4793578 4756372 4610062
1598.71 4696350 4838188 4903314 4848258 4647230 4425390
1601.60 4341338 4481492 4605638 4656140 4865530 4966430
1604.49 4803672 4532448 4335040 4405276 4708026 4822106
1607.39 4698368 4456208 4172168 4248906 4541678 4626582
1610.28 4655976 4657934 4524898 4387994 4261826 4092512
1613.17 4064344 4191590 4371236 4491378 4844626 6133098
1616.07 7561356 6985192 5405138 4710506 4461750 4301344
1618.96 4339436 4367352 4305946 4284260 4246192 4291678
1621.85 4529230 4884006 5348124 5150088 4355668 4083448
1624.74 4216888 4194100 4145838 4245152 4403588 4486726
1627.64 4375166 4319092 4386448 4520128 4436332 3990716
1630.53 3855102 4168770 4281146 4111070 3859912 3494754
1633.42 3383840 4184770 5566924 6608134 6275556 4850682
1636.31 4092678 4163452 4143590 3856198 3664534 3715422
1639.21 3797200 3907592 4095836 3956406 3704918 3848850
1642.10 4039054 4002444 3860782 3728082 3721854 4069010
1644.99 5197394 6020704 5280424 4519388 4562054 4545332
1647.89 4452180 4337482 4290890 4220634 3981698 3880708
1650.78 4155344 5491556 7680122 8794246 8465230 6780232
1653.67 5384666 5082336 4486120 3900236 3808396 3761408
1656.56 3580170 3360590 3232472 3442700 3659688 3730230
1659.46 3802756 3719076 3597334 3640792 3834924 4258872
1662.35 4435570 4062274 3704642 3559580 3545478 3628470
1665.24 3665024 3595854 3451558 3357156 3575218 3897600
1668.13 4156048 4504748 4476326 3955206 3552372 3663584
1671.03 3953170 4004022 3855838 3573004 3369002 3319812
1673.92 3665554 4701580 5438528 4873886 3983318 3670594
1676.81 3537184 3483846 3746360 3986506 3925306 3913272
1679.71 3924866 3713798 3598200 3780490 3945750 4242444
1682.60 4799738 5128792 5885728 7604500 7584182 5205588
1685.49 3788796 3828844 3936366 3785904 3743146 3878884
1688.38 3912570 3767246 3760988 3770014 3549970 3437186
1691.28 3713914 3997544 3831106 3516320 3494498 3646112
1694.17 3974466 5297052 7556588 7795912 5688744 4438422
1697.06 4268746 4040568 3863066 4081854 5431864 7082604
1699.95 7215376 6020826 4576076 3702530 3568892 3689386
1702.85 3558528 3603588 4029108 4035336 3766912 3885848
1705.74 4137558 3988638 3487236 3063756 3040796 3322162
1708.63 3547452 3670532 3727218 3618028 3510404 3484472
1711.53 3397994 3450432 3590284 3608034 3554232 3630856
1714.42 4057886 4120960 3531808 3397152 4660826 5977228
1717.31 5218436 4182602 3916720 3388048 3041858 3040038
1720.20 3087678 3155382 3147840 3011904 3000574 3156372
1723.10 3262430 3235104 3152224 3005506 2952018 3194574
1725.99 3367472 3353328 3354732 3328636 3240682 3092814
1728.88 3075354 3149400 3119592 3220336 3420684 3354004
1731.77 3215216 3881744 5160834 5353566 5300202 5407638
1734.67 4327502 3330240 3294226 3379410 3356206 3369790
1737.56 3270644 3156930 3294858 3841930 4172266 3829978
1740.45 3448332 3306758 3147256 3111062 3372888 3594380
1743.34 3431810 3169620 3099678 3018400 2896970 3115002
1746.24 3586772 3724466 3582972 3679084 3696572 3342342
1749.13 3061664 3195848 3999626 4908564 4731928 3847646
1752.02 3380678 3307938 3391556 3339234 2992838 2882050
1754.92 3164826 3464600 3816974 3946110 3569300 3213962
1757.81 3049032 3038192 3030488 2837676 2840064 3204810
1760.70 3660928 4061434 3833626 3224542 2935976 2841552
1763.59 2945154 3097300 2957422 2782706 2721900 2602950
1766.49 2575816 3039544 3816042 3835648 3267720 3086152
1769.38 3080188 3177220 3560024 3762344 3659744 4221010
1772.27 4737530 3885610 2947154 2632824 2564394 2812292
1775.16 3145194 3258224 3116930 2917576 2948558 3108272
1778.06 3268140 3324620 3194204 3154490 3266042 3175454
1780.95 3003414 2982228 3006876 3022926 2952290 2769888
1783.84 2899822 3503076 3677130 3322448 3060214 2986700
1786.74 3162240 3414500 3382942 3090530 2824292 3050086
1789.63 3463616 3554138 3359310 3291250 3844906 4573100
1792.52 4339612 3551440 3269162 3269846 3161652 3122244
1795.41 3258226 3329796 3365104 3392674 3364976 3353010
1798.31 3504852 3775286 3923150 3773338 3472230 3327134
1801.20 3192040 3123798 3133920 2984334 2801034 2671886
1804.09 2750838 2949132 2975160 3073042 3219570 3208742
1806.98 3301310 3358762 3191222 2894348 2664752 2810090
1809.88 3062254 3154340 3178980 3166048 3153400 3075460
1812.77 2978132 2933464 2932712 2858336 2828952 2746822
1815.66 2635580 2742502 2796520 2797184 2796010 2641180
1818.56 2567332 2703722 2809428 2755084 2612104 2579200
1821.45 2659368 2708394 2794092 2825866 2725704 2692362
1824.34 2925710 3208300 3124924 2820026 2665902 2632220
1827.23 2475274 2311778 2572548 3090538 3344814 3253408
1830.13 2887634 2662792 2660460 2644272 2626796 2567346
1833.02 2412730 2347290 2435252 2491908 2488450 2466574
1835.91 2392866 2322604 2315818 2396830 2512190 2488758
1838.80 2471704 2581236 2732266 2725710 2558222 2518850
1841.70 2693170 2753166 2653238 3275022 4187306 3922870
1844.59 3181602 2933902 2838262 2749256 2676644 2659570
1847.48 2604776 2540760 2463666 2409966 2615070 2822474
1850.38 2798844 2841524 2839250 2573448 2559044 2798664
1853.27 2850894 2855686 2970134 3026906 2939058 2813738
1856.16 2800274 2977764 3068100 2909342 2836298 3024410
1859.05 3142072 3141012 3201544 3168674 2984916 2829166
1861.95 2831476 2950946 2960002 2744468 2603608 2831984
1864.84 3150652 3307430 3384244 3381282 3411874 3595818
1867.73 3583912 3422402 3446132 3321952 3228078 3365782
1870.62 3083290 2547266 2469848 2669574 2776576 2942462
1873.52 3187560 3314274 3287740 3265154 3226952 3106996
1876.41 2960180 2894538 2879876 2758134 2717774 2851262
1879.30 2901896 2988928 3059982 3020428 2980016 2979018
1882.20 3017878 3095850 3009058 2747048 2610792 2643026
1885.09 2639664 2516362 2443198 2583920 2622498 2529650
1887.98 2637016 2947616 3275762 3375704 3141744 2684720
1890.87 2355284 2453406 2744944 2938348 3090536 3255248
1893.77 3025128 2622586 2587900 2554254 2472552 2702078
1896.66 2980010 2855806 2519892 2464674 2758636 3067770
1899.55 3072636 2901852 2898276 2995030 3070920 3141406
1902.44 3231764 3245468 3321094 3485980 3507808 3390780
1905.34 3218714 3054332 3076728 3298652 3547260 3691122
1908.23 3749052 3809600 3790524 3690564 3640316 3564056
1911.12 3366222 3284402 3592994 3916180 3822848 3630146
1914.02 3579354 3557472 3541236 3701424 3914342 4021750
1916.91 4049108 4040990 4006228 3900848 3705808 3517886
1919.80 3379348 3495458 3942274 4061920 3940126 4055258
1922.69 4222930 4297618 4260038 4096860 3916892 3854710
1925.59 3903446 3972730 4098230 4079874 3760870 3578826
1928.48 3576350 3514320 3515444 3453374 3339714 3319386
1931.37 3330770 3389072 3423664 3264302 3033568 2880708
1934.26 2975720 3339330 3582214 3424774 3036834 2781600
1937.16 2937478 3342750 3491478 3448488 3322254 2954800
1940.05 2824422 3102600 3293070 3461012 3644560 3583064
1942.94 3405730 3281384 3110514 3026336 3050816 2971132
1945.84 2943894 3072430 3098868 3114232 3138454 2921602
1948.73 2845784 3077638 3201328 3216598 3178554 3126624
1951.62 3037448 2864038 2922880 3146230 3189968 3211300
1954.51 3265170 3276674 3234250 2969208 2725152 2807548
1957.41 2996386 3114364 3121234 3083556 3152640 3268442
1960.30 3383180 3342848 3162270 3211690 3322990 3152298
1963.19 2941458 3151148 3404382 3261564 3050214 3115816
1966.08 3355710 3595002 3697954 3557990 3493210 3565434
1968.98 3573708 3629280 3737664 3712574 3723432 3764962
1971.87 3597808 3507300 3694132 3892048 3872246 3753098
1974.76 3704694 3804170 3882870 3758414 3586822 3535778
1977.66 3623356 3725062 3833848 4005828 4072122 4002208
1980.55 3876164 3703082 3530814 3475424 3555728 3778234
1983.44 4021792 4156536 4211322 3993020 3758932 3822642
1986.33 3820010 3688754 3749144 3865448 3829510 3812354
1989.23 3812160 3688274 3575036 3707018 3988704 4116306
1992.12 3913036 3651744 3633890 3676596 3638312 3517690
1995.01 3493688 3761536 3935328 3762554 3592694 3525404
1997.90 3490576 3568710 3714204 3871216 4130026 4241814
2000.80 3914576 3504930 3511984 3857026 4131366 4257846
2003.69 4208890 4093584 3969510 3862700 4016414 4238712
2006.58 4156790 3983584 3986532 4043514 4088626 4174722
2009.48 4490642 4787544 4667340 4468288 4618384 4906140
2012.37 4916820 4810780 4807208 4793272 4819232 4912874
2015.26 5002700 5229634 5451420 5469322 5515242 5643144
2018.15 5752436 5845562 5785948 5663742 5705862 5882046
2021.05 5967834 5961988 6153796 6445608 6550556 6614062
2023.94 6581008 6402728 6396318 6677580 6954198 7009554
2026.83 6924600 6890878 6933314 6796824 6654360 6935122
2029.72 7521764 7874402 7671736 7297304 7180338 7325146
2032.62 7602518 7548100 7201932 7226824 7386602 7365764
2035.51 7475704 7696630 7803134 7799924 7753730 7788108
2038.40 7897398 7963430 7859290 7644294 7570346 7559908
2041.29 7567412 7537226 7309446 7181842 7219084 7063882
2044.19 6918880 6888520 6779194 6721840 6583592 6350728
2047.08 6180540 6227206 6492988 6570978 6426852 6220560
2049.97 6004876 5959034 5932706 5756760 5663316 5590434
2052.87 5549848 5650134 5612228 5385310 5288618 5302674
2055.76 5236998 5099604 4883714 4664760 4560764 4645240
2058.65 4752652 4656902 4453956 4449818 4537244 4456864
2061.54 4259592 3956432 3682136 3576928 3660378 3885024
2064.44 3951524 3982852 4116542 4087020 4028464 3982642
2067.33 3804818 3781652 3867218 3852660 3913194 4039406
2070.22 4077158 4017822 3917402 3736994 3496414 3409966
2073.11 3601098 3925426 4048614 3996664 3873332 3596530
2076.01 3440754 3440132 3512836 3669846 3744448 3765528
2078.90 3751808 3673496 3581682 3433264 3297368 3302528
2081.79 3442076 3511758 3279182 3163554 3478442 3770734
2084.69 3833014 3626002 3291882 3252762 3387448 3501386
2087.58 3717506 3965840 3758850 3244842 3131018 3548368
2090.47 4009274 4032210 3804198 3679020 3520364 3412392
2093.36 3555222 3679032 3551750 3436016 3493890 3379652
2096.26 3224190 3289962 3265722 3304056 3657146 3923550
2099.15 3858740 3710294 3601296 3558636 3515838 3345562
2102.04 3208134 3255920 3249470 3153002 3147342 3112892
2104.93 3016162 2956678 2921830 2803632 2848250 3083016
2107.83 3078004 2908116 2812450 2862376 2977032 2854036
2110.72 2634296 2603740 2625436 2678284 2649340 2597424
2113.61 2747518 2868096 2893884 2832396 2693234 2637030
2116.51 2491662 2358440 2554658 2697414 2344924 2056744
2119.40 2104396 2153130 2149730 2038818 1989776 2170086
2122.29 2447986 2563074 2378618 2162426 2075382 1868128
2125.18 1650688 1856042 2324836 2489944 2205134 1913024
2128.08 1866406 1964944 1970544 1886952 1979450 2040700
2130.97 1920536 1726942 1641498 1796224 2099650 2340946
2133.86 2286588 2170102 2177166 2111190 1884906 1722660
2136.75 1919682 2081368 1943748 1878372 1862546 1867736
2139.65 2034372 2036960 1856000 1979366 2344330 2462180
2142.54 2273060 2143440 2064866 1990222 2110784 2279528
2145.43 2181090 2001654 2089590 2217598 2249974 2306286
2148.33 2287802 2163030 2087624 2127788 2196218 2166250
2151.22 2099014 2148428 2299756 2361934 2279352 2281444
2154.11 2524558 2687234 2599232 2475992 2336230 2274938
2157.00 2260602 2326106 2530038 2620970 2483504 2313696
2159.90 2465476 2793614 2918510 2899636 2838586 2802076
2162.79 2779878 2658976 2579792 2542274 2558444 2682996
2165.68 2793984 2960200 3111654 3050020 2921756 2954402
2168.57 3008870 3053946 3246334 3480518 3514848 3451074
2171.47 3396216 3400296 3510432 3495372 3282418 3145870
2174.36 3201896 3299656 3557032 3927712 4070524 4003790
2177.25 3876708 3742356 3671388 3669432 3570590 3468094
2180.15 3568528 3612924 3449760 3382448 3553450 3944674
2183.04 4257502 4292302 4148686 3906894 3700222 3606440
2185.93 3799450 4070800 4085000 4007458 3917706 3858660
2188.82 3854802 3918230 3844462 3502352 3528040 3842000
2191.72 3907968 3883164 4056884 4152538 3900496 3617580
2194.61 3583170 3635984 3559310 3483046 3604080 3774764
2197.50 3842116 3734118 3616758 3699276 3879058 3963176
2200.39 3979300 3925126 3727058 3481540 3455138 3594534
2203.29 3696874 3771676 3644554 3544620 3727556 3862882
2206.18 3842876 3792310 3716842 3602742 3402188 3297420
2209.07 3529990 3776386 3727686 3555474 3398774 3347892
2211.97 3502694 3596486 3631804 3699082 3646032 3626578
2214.86 3724972 3588650 3432602 3525822 3502302 3306466
2217.75 3285692 3416994 3458288 3390602 3352750 3419002
2220.64 3535118 3633896 3720254 3724900 3430246 3134280
2223.54 3206740 3301488 3106192 2990164 3173234 3386428
2226.43 3518654 3464300 3204924 3165148 3292488 3300166
2229.32 3232652 3142342 3099172 3148972 3232724 3355210
2232.21 3522362 3615638 3494662 3196078 3013132 2977770
2235.11 2905020 2970070 3259792 3374030 3128240 2946558
2238.00 3096732 3296240 3392014 3460812 3503294 3595790
2240.89 3609050 3390514 3297914 3445432 3479000 3327504
2243.79 3128452 3040442 3141214 3254704 3340910 3446608
2246.68 3546340 3550896 3535316 3514488 3370384 3245762
2249.57 3136800 3184324 3452942 3715456 3855716 3739314
2252.46 3436030 3330860 3338108 3272548 3305722 3272308
2255.36 3151476 3266894 3602412 3864578 3841068 3632622
2258.25 3592010 3788758 4009046 4059834 3951484 3867046
2261.14 3925512 4013850 3976662 3847972 3823826 3899578
2264.03 3983786 4067884 4032210 3961768 3910160 3685784
2266.93 3557234 3807614 4153744 4329134 4290400 4230574
2269.82 4289472 4389690 4443294 4419658 4330636 4252076
2272.71 4235758 4418054 4649650 4680854 4756586 4879862
2275.61 4758568 4561782 4464772 4289762 4283102 4390260
2278.50 4242308 4090680 4206092 4577118 4912810 4939578
2281.39 4843524 4652874 4523536 4537834 4563076 4658604
2284.28 4802956 4791368 4632792 4649550 4801860 4825258
2287.18 4803892 4759502 4799092 4886450 4872856 4788046
2290.07 4891756 5066422 4865030 4645766 4697958 4686414
2292.96 4619376 4743136 4970126 5135322 5207624 4974318
2295.85 4491046 4413278 4920602 5384938 5316994 4903014
2298.75 4649950 4723932 4881068 5012324 5063656 4913236
2301.64 4774402 4838700 4984332 5181642 5408968 5467588
2304.53 5429696 5352792 5211896 5073530 5002172 4937006
2307.43 5001654 5400920 5753430 5757856 5770828 5692376
2310.32 5363430 5252704 5379184 5528496 5655582 5684586
2313.21 5661962 5839600 6049748 6071934 5772950 5262702
2316.10 5135942 5531614 5787874 5520662 5455766 5828462
2319.00 5996382 5966522 6195578 6491256 6127476 5675780
2321.89 5897558 6236800 6119478 5979218 6191570 6579516
2324.78 6611564 6095612 6157410 6830106 6542040 5882510
2327.67 6440260 7134550 6568922 5995046 6600824 7123400
2330.57 6543050 6164276 6849734 7101554 6394316 6417050
2333.46 7146286 6932224 6181654 6423298 6998554 6527482
2336.35 5993378 6517458 6809198 6160062 6088876 6625702
2339.24 6374192 5952248 6438186 6716714 6056240 5884200
2342.14 6319056 5995462 5620142 6042644 6370336 6327436
2345.03 6290436 6022540 5538880 5318280 5271894 5034202
2347.92 4822910 4829116 4883120 4914026 4898776 5167294
2350.82 5499910 5349200 5340928 5707918 5447520 5126666
2353.71 5660676 5771704 5471990 5824944 5957934 5829328
2356.60 6232206 6307000 6204088 6601384 6576668 6519382
2359.49 6899830 6464652 6051980 6347522 6213350 6281386
2362.39 6334108 5845068 6205160 6422316 6046616 6264060
2365.28 6264292 6232622 6201324 5977008 6266676 6245688
2368.17 6132200 6294024 6196366 6229274 6071932 5744800
2371.06 5735792 5842528 5931506 5929948 5928106 6014778
2373.96 6152100 6122698 6003750 5899080 5555330 5295958
2376.85 5341234 5380478 5418748 5728240 6013358 6057210
2379.74 5998570 5963836 6083886 6223804 6277054 6246428
2382.64 6006254 5738162 5686728 5842340 6131472 6352392
2385.53 6308638 6212808 6424032 6707666 6620590 6309096
2388.42 6305742 6423992 6257886 6022264 6045768 6142298
2391.31 6047830 6143348 6362654 6290264 6250480 6505534
2394.21 6684682 6597578 6667672 6767890 6535904 6293136
2397.10 6215544 6333276 6726986 7049852 7162456 7227304
2399.99 7060380 6880360 7061270 7250872 7091048 6954156
2402.88 7243134 7594428 7601286 7455596 7417178 7461750
2405.78 7446824 7357554 7358640 7478814 7451820 7361416
2408.67 7439038 7549816 7560562 7540586 7606516 7689712
2411.56 7656852 7536594 7478548 7567128 7611440 7685326
2414.46 7757778 7772238 7799838 7946968 8074980 8052736
2417.35 8084644 8062158 7975644 8014890 8056460 7920972
2420.24 7628922 7437266 7438670 7555780 7678546 7730128
2423.13 7713724 7704084 7650154 7564234 7454264 7277342
2426.03 7231604 7294564 7235368 7132320 7069042 6884692
2428.92 6766534 6939606 6966306 6568672 6434156 6895070
2431.81 7222538 7115100 6941118 6915834 6743590 6371788
2434.70 6108190 6060026 6200092 6363998 6426760 6435146
2437.60 6322430 6099808 5948094 5952270 6118520 6367968
2440.49 6675160 6744244 6456546 6232200 6211422 6237222
2443.38 6074752 5920324 5963186 5857254 5680822 5740028
2446.28 5824036 5647968 5266970 5104058 5233220 5448444
2449.17 5667590 5651916 5447634 5288110 5472286 5820910
2452.06 5873656 5677916 5487142 5289584 4937978 4917956
2454.95 5293600 5329478 5109602 5020650 4897084 4738248
2457.85 4627850 4646924 4790914 4666258 4592200 5036930
2460.74 5427398 5429338 5157630 4702744 4278754 4149154
2463.63 4354328 4609930 4726760 4792670 4822882 4873426
2466.52 4830228 4724386 4844456 4918976 4621800 4292912
2469.42 4402696 4588228 4424602 4336788 4509378 4515468
2472.31 4207298 3820578 3792792 4069824 4275324 4499876
2475.20 4598630 4409214 4254404 4253802 4282056 4294130
2478.10 4168506 4078870 4106098 4081166 4033650 4202162
2480.99 4500218 4495404 4437198 4428998 4197320 3938888
2483.88 3855738 4003922 4244778 4250262 3986970 3884156
2486.77 3915606 3769432 4027038 4554326 4532348 4058338
2489.67 3815988 4108548 4330628 4223056 4179708 4323776
2492.56 4730778 4966768 4721584 4439648 4311060 4079336
2495.45 4006580 4329664 4520852 4379296 4347278 4436570
2498.34 4375506 4181010 4216200 4474714 4483004 4075460
2501.24 3704998 3803260 4113540 4249744 4096658 4035498
2504.13 4267310 4578630 4757822 4592494 4350332 4374584
2507.02 4483868 4452096 4308606 4271638 4405108 4531230
2509.92 4392568 4083548 4034670 4340628 4533292 4547906
2512.81 4627354 4768934 4960618 4812990 4374642 4434758
2515.70 4794106 4616428 4401122 4238120 3858666 3840018
2518.59 4172316 4369930 4411792 4511788 4709428 4751614
2521.49 4662210 4547008 4380034 4452920 4610080 4628566
2524.38 4765826 4884018 4661998 4462064 4573800 4556354
2527.27 4351374 4319200 4481346 4650616 4901164 5172328
2530.16 5072716 4689332 4454772 4623016 4915220 4847692
2533.06 4621908 4730158 5023972 4959282 4535758 4394512
2535.95 4747220 5006988 5024678 5107318 5152770 4957326
2538.84 4592412 4332520 4279078 4353968 4567910 4938598
2541.74 5187152 5099574 5019558 5102110 5058030 4942792
2544.63 5007858 4921014 4802742 4912650 5010746 4971070
2547.52 4991692 5067584 4981260 4978928 5132108 5094596
2550.41 4968812 5143726 5492250 5483070 5180314 5059466
2553.31 5128196 5259420 5340080 5314348 5324178 5368938
2556.20 5459152 5571288 5481698 5133656 4930398 5093554
2559.09 5215188 5194838 5176684 5046410 4941474 5035368
2561.98 5282806 5511070 5626696 5702262 5564238 5387478
2564.88 5488428 5672632 5736920 5748496 5710340 5464200
2567.77 5502710 5871942 6032150 6157938 6167654 6011004
2570.66 6026548 5854654 5515048 5672688 6063632 6088884
2573.56 5907810 5850824 5939282 5997484 6243492 6593750
2576.45 6542386 6544470 6734470 6707538 6568572 6425924
2579.34 6378142 6529610 6897422 7224620 7034510 6408586
2582.23 6216514 6764446 7226222 7153754 6715418 6421590
2585.13 6494300 6704220 7014608 7321778 7362334 7337552
2588.02 7596562 7838690 7858078 7649940 7189436 6855704
2590.91 7232964 7679170 7636868 7461762 7494206 7948586
2593.80 8109262 7835916 7781776 7907040 7985536 8020398
2596.70 8212146 8348604 8308230 8296836 8230386 8027650
2599.59 8012172 8285028 8562842 8548298 8356258 8349210
2602.48 8349432 8226214 8112172 8052068 8201604 8417850
2605.37 8464448 8456378 8518768 8657680 8835368 8904064
2608.27 8773838 8679880 8711064 8617182 8781436 9149762
2611.16 9141444 9190744 9419326 9419618 9457330 9438798
2614.05 9237588 9052776 9064880 9369284 9607132 9508282
2616.95 9430350 9614632 9804656 9702012 9323044 9140678
2619.84 9438376 9718422 9793696 9879538 9698896 9484424
2622.73 9644614 9885958 9963946 9876300 9684798 9789170
2625.62 10094340 10187410 10035720 9939778 10064340 10236250
2628.52 10454680 10571200 10490070 10461520 10549150 10520260
2631.41 10371130 10498230 10567400 10287790 10332760 10818980
2634.30 11233990 11103460 10577920 10130210 10132420 10528130
2637.19 10762550 10752030 10812860 10882560 10870050 10886540
2640.09 11268980 11862150 12199430 12125690 11584630 11203860
2642.98 11421810 11805260 11916010 11802290 11567140 11499200
2645.87 11768250 11938230 11904740 11903490 11963790 12292780
2648.77 12865900 12896620 12222840 11787520 12076710 12532840
2651.66 12730960 12724270 12836440 12943760 13003270 13246430
2654.55 13508140 13524590 13237390 12904320 12929550 13344000
2657.44 13808740 14041190 13937020 13901740 14039810 14265860
2660.34 14753940 15206870 15200570 14855770 14736960 14780340
2663.23 14668910 14906330 15296580 15198100 15004180 15277830
2666.12 15871890 16056930 15674540 15371310 15584480 16106460
2669.01 16340480 16353380 16377750 16344320 16400950 16499840
2671.91 16494860 16620760 16782350 16632050 16496900 16612090
2674.80 16758550 16961210 17143010 17231560 17447830 17620390
2677.69 17670110 17796470 17929750 17917300 17658810 17395400
2680.59 17479900 17587050 17581240 17652000 17920910 18298330
2683.48 18377350 18165810 17942820 17754470 17754320 17726040
2686.37 17612030 17905620 18457670 18522830 18279420 18260860
2689.26 18438430 18699830 18763760 18769280 18952980 18950660
2692.16 18761230 18902210 19116860 19004220 19026670 18984760
2695.05 18868670 18929100 19130540 19515200 19715670 19318320
2697.94 18859060 18929830 19184810 19438790 19560050 19540340
2700.83 19738930 19795470 19446010 19152660 19337620 19850040
2703.73 20151770 20265870 20403570 20287140 20073160 20265570
2706.62 20682290 20985720 21056810 21040820 20889830 20572360
2709.51 20615310 21093850 21292630 21157080 21263500 21588890
2712.41 21965690 22402760 22728200 22850060 22817490 22588100
2715.30 22564630 22893430 23063330 22675950 22252540 22441460
2718.19 22884910 23214660 23471520 23675920 23893630 24038150
2721.08 23996210 24014430 24458880 24977980 24980450 24873860
2723.98 24973700 25053650 25166070 25412490 25919890 26375310
2726.87 26654330 26793770 26874490 27156820 27345020 27240420
2729.76 27258130 27738750 28399510 28822710 28986840 29202580
2732.65 29819100 30334990 30467500 30608400 31001350 31551030
2735.55 31944070 32273350 32790470 33096270 32867430 32865140
2738.44 33431500 33849310 34018370 34331180 35057960 35690780
2741.33 35641320 35374890 35411360 35626250 35925040 36301000
2744.23 36407400 36207440 36343800 36730090 36877770 36932880
2747.12 37125370 37478120 37913310 38155740 38183970 38643230
2750.01 39522360 39929540 39548240 39222140 39285790 39173020
2752.90 38950080 39108760 39553380 39633140 39217290 38748590
2755.80 38619960 38691480 38705590 38704400 38571480 38275160
2758.69 38316450 39053910 39538620 39444440 39313880 39311150
2761.58 39377500 39404450 39259260 39248730 39594880 39864690
2764.47 39881390 39824540 39786310 39653300 39848910 40442060
2767.37 40633220 40455910 40431250 40636100 40897080 41005560
2770.26 41187500 41404180 41456420 41424880 41507610 41827630
2773.15 42045340 42014800 42190170 42745080 43363490 43620900
2776.05 43437400 43349740 43499020 43457300 43513720 43837340
2778.94 44118230 44372420 44534240 44554810 44788670 45102460
2781.83 45261420 45405200 45737660 46269350 46837040 46975400
2784.72 46668900 46628540 47074130 47684650 48172160 48301990
2787.62 48199100 48037380 48145860 48513420 48875500 49350960
2790.51 49723650 49599920 49323300 49487300 49894500 49932840
2793.40 49520900 49245800 49518560 50074170 50145360 49929840
2796.29 50251890 50502000 50481480 50572730 50726660 50567060
2799.19 50352980 50549330 50953930 51100050 50976290 50923160
2802.08 50730100 50469170 50642690 51066500 51304530 51592890
2804.97 51874400 51830970 51485540 51483170 52413540 53124460
2807.87 52942090 52524900 52492700 52957100 53387090 53638410
2810.76 53857660 53906060 54001790 54391220 54787240 55009280
2813.65 55284130 55863810 56459000 56683880 57089260 58068170
2816.54 58785790 59168970 59639780 60035740 60220320 60429550
2819.44 61012160 61702280 62206720 62907690 63736780 64543060
2822.33 65566380 66432720 67311090 68466540 69673900 70608760
2825.22 71219060 72070370 73369700 74596940 75703620 76972200
2828.11 78451760 79991530 81454300 83137580 85022170 86637510
2831.01 88220540 90239060 92470000 94682370 96581060 98323520
2833.90 100363400 102462100 104482200 106590500 109032000 111802300
2836.79 114363700 116572000 118870700 121574200 124932000 128593400
2839.69 132237100 135739700 139079100 142684800 146458200 149935900
2842.58 153695800 157962400 162146600 166129600 170285300 174777700
2845.47 179035300 183290100 187810900 191908300 196038000 201125200
2848.36 206189500 210609600 215172900 219647800 224328700 229640700
2851.26 234795500 239292200 243563600 248539300 254063500 259500300
2854.15 265317300 271468800 277307400 282947400 288732000 294808700
2857.04 301320700 308524700 315415000 321241800 327306800 334284700
2859.93 341390600 348035700 354385100 361006800 368792500 377235500
2862.83 384589400 391483500 399314500 407674700 415694500 423440600
2865.72 431843800 440789800 449421500 457772600 466424100 475373800
2868.61 484579500 493914500 503043900 512191400 522310700 533292500
2871.51 543996200 554621800 566001500 578573600 591531200 604344400
2874.40 617639200 631518300 645472000 659077500 672425300 685690900
2877.29 698423800 709210900 717711100 724984200 731410300 735841500
2880.18 737953300 738495600 737463600 735294700 732614400 729454600
2883.08 726113600 723724400 723951700 728179500 737191900 748240900
2885.97 752539600 745234600 733395500 725381600 722288100 721730600
2888.86 722700800 725194200 729033900 733309400 736742000 738879400
2891.75 739246700 738386000 736799200 733385500 728072000 721263800
2894.65 713314200 704621400 695645600 687127500 678674500 670117500
2897.54 662199000 654899300 647205200 639341200 632719200 626692200
2900.43 620950400 616522900 612759600 609551600 607248300 604674000
2903.32 602171500 601055200 600713700 600152300 599480200 599407000
2906.22 599844800 600475900 601979600 604401000 607434300 610759400
2909.11 614250400 618179700 622155600 626048000 629639300 632768300
2912.00 636202500 640451200 644991100 650027600 655428100 659873500
2914.90 663706200 667727900 671946600 676734300 682348900 687857400
2917.79 692789800 697495000 702115300 706900800 712310700 718923400
2920.68 726258200 733201600 739902300 746888200 753825400 760593900
2923.57 767891600 775360800 782245800 788908600 795683500 803208600
2926.47 811706200 819629200 826257400 832424900 839072100 846363900
2929.36 853774900 861205800 869008400 876056500 882242500 889488000
2932.25 898144500 906758400 915296100 924843800 934679900 943665500
2935.14 952066800 960768100 969483500 977654300 985295200 992237100
2938.04 998506200 1004060000 1008197000 1010606000 1011860000 1013398000
2940.93 1015489000 1017481000 1019690000 1021249000 1021674000 1021869000
2943.82 1020934000 1017791000 1012897000 1007367000 1001829000 996619400
2946.72 992683600 990885600 990648100 990058900 989051900 988688600
2949.61 988662100 988802000 989750800 990913800 991891400 993049900
2952.50 994451800 997212200 1000759000 1003111000 1004178000 1005029000
2955.39 1005898000 1006498000 1007247000 1008437000 1009806000 1011736000
2958.29 1014665000 1017492000 1020409000 1024418000 1028604000 1032483000
2961.18 1037698000 1044680000 1051413000 1057103000 1062795000 1068870000
2964.07 1076136000 1086050000 1100187000 1118680000 1139118000 1158555000
2966.96 1172816000 1176156000 1164966000 1142962000 1117969000 1094031000
2969.86 1071971000 1052153000 1034812000 1019151000 1004679000 993267300
2972.75 986385900 982863300 979148800 972204700 961652500 949257900
2975.64 937759100 927462400 917906200 909895900 901647300 892051400
2978.54 881259800 868259100 853468100 837399100 818609700 796818200
2981.43 773463700 749535500 724672600 699005600 672935600 645747300
2984.32 617250000 589096500 562272300 536218100 510588600 485924300
2987.21 462335600 439387200 416882800 394967800 374435300 355496900
2990.11 337836800 321230200 305211100 289867700 275488000 262046000
2993.00 249583600 237793600 225887000 213763600 202474400 192393700
2995.89 183032000 174372600 166294700 158148200 150098600 142560000
2998.78 135464000 128875000 122721700 116677800 110676500 105195300
3001.68 99964980 94489190 89543130 85204500 80935800 77165560
3004.57 74043550 71067340 67851260 64809060 62028150 58969280
3007.46 56067290 53517790 50954400 48821040 47090010 45202080
3010.36 43630100 42671540 41522500 39941500 38528310 37100730
3013.25 35844340 35072900 34442210 33778810 32766800 31543350
3016.14 30628100 30184490 29761380 28937340 28181630 27700720
3019.03 27134320 26655190 26386050 26289910 26413150 26019350
3021.93 25045510 24605960 24406210 23862200 23547520 23719140
3024.82 23675590 23052880 22506880 22707490 23467240 23750920
3027.71 22832220 21734750 21473170 21691140 22022020 22128330
3030.60 21914210 21722670 21290300 20757130 20601360 20835150
3033.50 21271980 21554390 21532880 21348800 21427420 21365420
3036.39 20879370 20743440 21035330 21304330 20772670 19830210
3039.28 19935620 20757080 21082920 20895800 20648480 20704540
3042.18 20725030 20368910 20162290 20387560 20746000 21016340
3045.07 20807350 20232550 20208890 20402920 20074890 19798120
3047.96 19797820 19710130 19523760 19661080 19931300 19841680
3050.85 19474090 19316680 19715670 19908030 19633940 19621850
3053.75 19617880 19305250 18891770 18612970 18553020 18331440
3056.64 17890920 17663400 17501390 17286840 17285900 17409750
3059.53 17574240 17801040 17577300 17027370 17217370 17358240
3062.42 16673750 16289740 16645870 16934100 16928830 16661660
3065.32 16054390 15416820 15051400 14998560 14876620 14725630
3068.21 14741000 14549900 14079870 13755750 13819050 13961370
3071.10 13816730 13513420 13367740 13262700 13022020 13065230
3074.00 13172350 12788380 12486600 12533930 12332510 11927040
3076.89 11780500 11891020 11581520 10909190 10820980 11447430
3079.78 11858830 11662350 11787520 12464590 12504100 11788700
3082.67 11245950 11196980 11331650 11221530 10907640 10963450
3085.57 11343080 11193780 10675790 10469810 10479110 10510790
3088.46 10798910 10877300 10428680 10180170 10398910 10602160
3091.35 10384250 9876998 9608332 9973492 10543340 10816120
3094.24 10825490 10614070 10408780 10220420 9994040 10000990
3097.14 10038670 9936548 9885540 9761796 9712870 10025320
3100.03 10593010 10937030 10432930 9844968 9672332 9306408
3102.92 9343318 9723760 9584136 9228406 9094836 9353352
3105.82 9698654 9537216 9217922 9350774 9658200 9652278
3108.71 9530376 9481500 9009250 8788228 9097186 8699344
3111.60 8195842 8649974 8984946 8517696 8103200 8310668
3114.49 8601864 8654156 8775796 9101384 9400660 9356408
3117.39 9046912 8764848 8779970 8794984 8215344 7952720
3120.28 8719040 9372558 9263628 9105184 9268460 9257316
3123.17 9048934 8805252 8260632 7948610 8241276 8663284
3126.06 8750934 8495812 8362964 8671312 9002754 8975174
3128.96 8910376 8981982 9013792 9000430 8664296 8224476
3131.85 8602248 9114154 8858362 8663094 8890072 9103816
3134.74 9029204 8588126 8242826 8353310 8746924 8757694
3137.64 8636788 8833698 8751428 8880858 9339816 9286520
3140.53 8819660 8621314 8680782 8387772 8159818 8260402
3143.42 8542114 9311352 9889350 9413896 8660430 8642880
3146.31 8709240 8679714 9051466 8890730 8250624 8389030
3149.21 9011048 8880674 8563178 8755974 8653694 8364768
3152.10 8497390 8692918 8829936 9122130 9393846 9326526
3154.99 8821416 8621198 8903170 8904060 8579874 8363302
3157.88 8243270 8320214 8707226 8839682 8471074 8389826
3160.78 8783962 8968842 8862192 8570572 8295746 8107714
3163.67 7828896 7927898 8670350 9322382 9300126 8803892
3166.56 8589306 8688436 8699416 8740962 8847464 9008132
3169.46 9072378 8867886 8725368 8639756 8332254 8219730
3172.35 8413988 8699792 9001520 8842896 8515712 8505164
3175.24 8632944 8823578 8804610 8670438 8589698 8202282
3178.13 8190560 9032280 9533462 9176734 8805196 8945198
3181.03 9239860 8915454 8180886 7996930 8761870 9417536
3183.92 9143250 9001222 9630088 9961460 9446840 9106564
3186.81 9219210 9409078 9329528 8896142 8887112 9367950
3189.70 9758106 9801556 9935598 10248950 10021560 9596152
3192.60 9469952 9392280 9390930 9533726 9828652 9912656
3195.49 9817138 9878050 9914194 9899048 10116620 10288850
3198.38 10194220 10009880 9777906 9438480 9117426 9101520
3201.27 9254290 9414126 9345438 8842240 8636970 9215818
3204.17 9631860 9570062 9521464 9456448 9498126 9182706
3207.06 8450304 8331212 8785624 8797656 8402112 8366374
3209.95 8745228 9145648 8825406 7804838 7656842 8496304
3212.85 8831328 8468374 7918484 7687916 8225896 8561424
3215.74 8049086 7663998 7645898 7394124 7122282 7113424
3218.63 6955118 6745038 6911558 7193216 7445172 7218778
3221.52 6395358 5908086 5854346 5655250 5300418 5237590
3224.42 5579136 5777832 5866378 6115460 6315286 6258792
3227.31 6145376 5868586 5236100 4802652 4803662 4784226
3230.20 5049196 5184390 4864978 4924980 5088062 4925794
3233.09 4480112 4020180 4362670 5255080 5700532 5347602
3235.99 4744254 4848434 4899510 4119530 3331306 3150966
3238.88 3344232 3793704 4321062 4706436 4929766 4788464
3241.77 4273700 3816298 3762272 3906322 4156756 3941986
3244.67 3238464 3259294 3908764 4433664 4613940 4294100
3247.56 3623966 3045688 2834096 3127974 3258412 3119342
3250.45 3282854 3453722 3457218 3517782 3488416 3245282
3253.34 3006130 2937098 3186554 3245508 3154868 3501462
3256.24 3568008 3102500 2894836 3062804 2983340 2749086
3259.13 2854188 2899252 2965878 3309230 3527056 3191034
3262.02 2382102 2220854 2739994 2950726 3024964 3313226
3264.91 3278326 2874398 2887404 3400832 3840288 3705910
3267.81 3621128 3456078 2912126 2733010 3193020 3192978
3270.70 2443928 2217702 2707230 2853204 2577328 2384698
3273.59 2597352 3194782 3266412 3039002 2991438 2645784
3276.49 2419730 2853694 3356686 3001230 2538818 2941188
3279.38 3390414 3217754 2790714 2379462 1848940 1568608
3282.27 2164360 2734490 2791428 3232378 3443492 3176358
3285.16 3363202 3237480 2800834 3022842 3357838 3163972
3288.06 2722192 2129524 1692796 2096428 2802764 2608560
3290.95 2326268 2573012 2411698 2336018 2812680 3092620
3293.84 3244460 3568858 3713856 3427104 2905052 2473510
3296.73 2104830 2364394 3337696 3715032 3366108 3139376
3299.63 3144112 3079958 2732868 2300354 2349310 2690882
3302.52 2551368 2162740 2264704 2498430 2596788 2718922
3305.41 2694760 2778234 3162054 3528686 3779456 3606904
3308.31 3245270 2974242 2806628 3085684 3288746 3191046
3311.20 3290924 3257648 2909486 2979422 3467442 3490302
3314.09 2959568 2680962 3315232 3926932 3670374 3445390
3316.98 4211042 4819298 4207964 3233454 2750238 2912864
3319.88 3188874 3157854 3242286 3601628 3606568 3298676
3322.77 3351570 3753500 3648424 3191022 3411614 3706322
3325.66 3254208 2875288 3016674 3149986 3276320 3165118
3328.55 2825034 2983626 3635476 3632018 2925946 2541528
3331.45 2404248 2318258 2597190 3246194 3340066 3178484
3334.34 3361770 3158678 2706430 2889786 3303974 3096016
3337.23 2754134 3174882 3784300 3875358 3342882 2677066
3340.13 2394720 2573040 2825076 2939338 2868194 2621870
3343.02 2650086 2720432 2854412 3030128 2577596 2066236
3345.91 2362370 2525226 2257290 2422022 2727430 2563768
3348.80 2407998 2895462 3083228 2804016 2672224 2558034
3351.70 2801858 3240076 3362066 3060810 2253902 1769986
3354.59 2360314 3082752 3095592 2650162 2275712 2466240
3357.48 3081372 3351472 3439872 3554830 3274542 2950210
3360.37 2936474 2791946 2532336 2878852 3409912 3080434
3363.27 2809986 3254420 3855884 3670580 2859650 2501372
3366.16 2365830 2274460 2693950 3049544 2792070 2608386
3369.05 3265858 4064950 3786140 2974004 2618432 2561746
3371.95 2586228 2964060 3331744 3083616 3112298 3544956
3374.84 3325788 2641044 2519740 2655844 2655528 2853174
3377.73 3018538 3095558 3376312 3431724 3326546 3390972
3380.62 3085560 2774350 2863114 3047588 3452422 3679336
3383.52 3149194 2645220 2974188 3494160 3205490 2731844
3386.41 2855278 3133996 3195086 2929900 2487638 2435212
3389.30 2960906 3194750 2600508 1953640 2081844 2899618
3392.19 3700422 4055628 3712138 3145214 3206494 3318994
3395.09 3359884 3431028 3676380 4237542 4249756 4022936
3397.98 3949676 3756394 3378810 2814754 2918806 3363176
3400.87 3486216 3415838 3293494 2730668 2550564 3264200
3403.77 3645774 3582592 3661070 3757104 3822304 3905018
3406.66 3632234 3305994 3178738 3521588 4316352 5071080
3409.55 5258942 4723384 3894596 3350340 3431082 3853074
3412.44 4149592 4274256 4359272 4780776 5478214 5716492
3415.34 5212640 4460368 4143930 4288846 4608492 4850358
3418.23 5068950 4825424 4466904 4897328 5601730 5948886
3421.12 5494186 5096568 5056058 4314224 3496012 3341368
3424.01 3701646 4171366 4550422 4953468 5225700 4873740
3426.91 4209056 4410776 5133318 5306644 5054942 5393886
3429.80 6359700 6881806 6679798 6225330 5601318 4921978
3432.69 4819626 5189392 5253474 5038850 5098028 5353844
3435.59 5457602 5042776 4550030 4692894 5061874 5332524
3438.48 5490782 4905636 4363434 5007862 5939416 6355728
3441.37 6800426 7166020 6827082 6452878 6427364 6150866
3444.26 5600244 4905484 4356060 4435690 4801262 5176044
3447.16 5636624 6062878 6188472 5727860 5421852 5839128
3450.05 6431020 6637110 6355882 5864708 5494102 5161266
3452.94 4891098 5160592 5676204 5811096 5411638 4902196
3455.83 5228626 5996342 6145518 5984702 6087386 6163444
3458.73 6061732 6023708 5896750 5826132 6329514 6762970
3461.62 6755216 6904036 6945956 6484864 6274736 6492312
3464.51 6667786 7032254 7341370 7328028 7174924 7006172
3467.40 6482466 5430440 4896536 5288442 5749330 6010542
3470.30 6469342 6925022 6934634 6607942 6249634 6476416
3473.19 7385708 7681370 7282884 7166452 7015392 6932476
3476.08 7095840 6699846 6209128 6417538 6848006 6927794
3478.98 6578018 6292310 6394540 6710238 6972128 7183654
3481.87 7420428 7059092 6620410 6935252 7289836 7033674
3484.76 6430532 6478036 7006986 7213472 7219348 6721446
3487.65 5906074 5754874 6088422 6261730 6449364 6541154
3490.55 6298832 6410590 7145286 7649350 7485588 6935122
3493.44 6727126 6631990 6156174 5789466 5840622 6019900
3496.33 5782086 5613540 5690520 5314414 5076336 5427018
3499.22 5754380 6095016 6146342 5688754 5257224 5292820
3502.12 5650570 5968480 6198396 6000230 5418800 4951354
3505.01 5020644 5513702 5335734 4195948 3976918 4791524
3507.90 5272846 5587740 5649182 5860712 6141796 5710256
3510.80 5397330 5408186 5256688 5113474 4982242 4945574
3513.69 5284208 5296930 4835024 4797734 5018080 5099956
3516.58 5209658 5174898 4810502 4527762 4914184 5227838
3519.47 5033952 5215888 5708974 5709242 5286742 5163142
3522.37 5394846 5367928 5077140 5008050 5222278 4741404
3525.26 4111920 4546678 5474508 5941818 5807776 5591050
3528.15 5337240 4966810 4962724 4858424 4713142 5326594
3531.04 5557786 5008412 4959384 5604536 6086972 5942320
3533.94 5523130 5184700 4905072 4627272 4724210 5450252
3536.83 5931392 5922212 5581228 4255172 3148356 3739368
3539.72 4668876 4651252 4707832 5031176 4886244 4755840
3542.62 4817082 4556988 4698374 4825762 4120916 3829642
3545.51 4607888 5239502 5118286 5087888 5569054 5726084
3548.40 5319132 5423322 5718430 5433990 5030898 4689914
3551.29 4618442 4713890 4753392 4780176 4786052 4726798
3554.19 4339892 4371948 5203224 5689698 5536788 5414676
3557.08 5459476 5231578 4632940 4791204 5436740 5190172
3559.97 4498602 4175834 4289856 4833262 5215188 5037112
3562.86 4814622 4705642 4899800 5212118 5282294 5137974
3565.76 4809504 4867988 5594920 6155722 5771234 4943822
3568.65 4781650 5075564 4873050 3989500 3237738 3878890
3571.54 4941080 5116436 5032546 5087176 4847270 4336780
3574.44 4209192 4508834 4864666 4855662 4375324 4104814
3577.33 4794806 5476384 4992528 4212204 4193288 4772580
3580.22 5445810 5532996 4750800 4022708 4214450 4697540
3583.11 5055198 5554810 5806140 5251154 4637328 4701562
3586.01 4672928 4393264 4679146 5265450 5655676 5828428
3588.90 5448524 4760688 4434222 4347026 4410986 4525040
3591.79 4776546 5697916 6437376 6248756 5790396 5430724
3594.68 5231804 5040996 5037648 5271296 5480336 5760128
3597.58 5690050 5179224 4809488 5024218 5478056 5604960
3600.47 5764326 5813928 5625340 6036698 6566634 6382276
3603.36 5979870 6176776 6420240 6291988 6371568 6715066
3606.26 6893806 6957986 7485156 7479858 6860560 7060828
3609.15 7234942 7163002 7666110 8081636 8272686 8388572
3612.04 8190470 7693116 7140094 7282348 8087196 8478674
3614.93 8287194 8233496 8558444 9061108 9800826 10156650
3617.83 9725410 9753848 10683330 11059770 10510200 10607460
3620.72 11078660 11558380 12179020 12184170 12045170 12272560
3623.61 12524610 12802350 13048670 13187210 13596560 14298980
3626.50 14838510 15381900 16355990 17015460 17454860 18242760
3629.40 18567570 18284640 18173450 18712410 19652560 20585680
3632.29 21720050 22613560 23297220 24321990 25140780 25878680
3635.18 27102270 28281760 29020610 29643000 30341760 31083230
3638.08 31921060 33207470 35186240 37036450 38112540 38903870
3640.97 40180460 42570200 45141880 46663660 48057350 50287040
3643.86 52566140 54330700 55952060 57636950 59737640 62771650
3646.75 65936740 68307610 70358860 73153470 76294560 77639440
3649.65 78209090 80315900 83326640 85857820 87470860 88631540
3652.54 90794400 93933700 96737410 99371100 102486200 106200800
3655.43 109226900 109662700 108451200 107996600 109028600 111217100
3658.32 113933000 116394500 118777900 121982600 125546100 128795800
3661.22 132169400 136018400 139357900 141966400 144443600 147050600
3664.11 149962900 153066100 155925400 158597700 161409600 164165100
3667.00 166329200 168579100 171265200 172922400 173528400 174921200
3669.90 177371800 178314200 176901400 175224000 174238100 173347700
3672.79 171497500 168778900 166465800 164678800 162749800 160802000
3675.68 157716300 153490300 150730100 150066900 150869100 153472400
3678.57 156884500 156956400 151827300 145913300 142104400 139755000
3681.47 139159400 139602400 138875800 137131800 135550500 133677800
3684.36 130786200 127436900 124125600 120882400 117404200 112772400
3687.25 107885300 104135500 99620020 93383300 87502330 82535890
3690.14 77654780 72868240 68448220 64508470 60891600 57180740
3693.04 53891950 51191190 48786000 46875800 44993500 42456880
3695.93 39592790 37634770 36405730 34856080 33333010 32047780
3698.82 30667940 28812360 27388860 27162770 26973370 25901050
3701.72 24022180 22274060 21099750 20194600 19567830 19045460
3704.61 18444000 17930410 17443940 16489930 15256350 14659040
3707.50 14710760 14657900 14465110 14119990 13468990 13144740
3710.39 12865690 13040330 14148380 14398750 13318580 12399440
3713.29 11532990 10534870 9869300 9843622 10409720 10674210
3716.18 10134720 9518660 9145860 8937534 9194864 9594442
3719.07 9541700 8994462 8851320 9293242 9239366 9008282
3721.96 9338696 9606452 9451388 9171662 9011198 8985798
3724.86 8929542 8930636 8945162 8922128 8479782 7711140
3727.75 7469722 7449068 7139510 7127498 7477256 7951172
3730.64 8446528 8883284 9536942 9524172 8579956 7892914
3733.54 7815968 8145972 8368588 8209564 8046864 8158402
3736.43 7734790 6787470 6781784 7507284 7837558 7866024
3739.32 7888036 7681198 7618078 8044970 8255848 8026856
3742.21 7879260 7881258 8682670 10823590 11975100 10327300
3745.11 8166788 7281618 7149916 7239748 7100234 7070834
3748.00 7926430 9786938 10609170 9074568 7353802 6843826
3750.89 7587328 9352034 9747946 7663208 6107316 6070012
3753.78 6149668 6236542 6749798 7300966 7738820 7776430
3756.68 7096446 6605088 6831362 7079378 7418458 7941858
3759.57 7539982 6631430 6485180 6827338 6975880 6949636
3762.46 6566058 6482436 7010278 7164550 6958540 6760560
3765.35 6688648 6655058 6652484 6523740 6548872 6792338
3768.25 6797552 6833382 7261784 7418572 6764700 6372568
3771.14 6569304 6721896 6931222 7384904 7575220 7466962
3774.03 7518728 7469702 7007500 6607144 6595320 6764594
3776.93 6854360 6720134 7147584 8170180 8614226 7867210
3779.82 6811316 6504422 6508782 6395034 6528420 6637638
3782.71 6689032 6690768 6708648 7317472 7723898 7342888
3785.60 7026964 7264510 7543474 7450754 7251464 7182536
3788.50 7296788 7361594 7176688 6663998 6368396 6615522
3791.39 6845718 7224306 7374798 6930906 7054798 7242896
3794.28 7336010 7881472 8120614 8272586 8397728 7961244
3797.17 7399246 7043736 7153966 7426442 7653544 7850720
3800.07 8054370 9423462 10539060 9767130 8879434 8363466
3802.96 8028780 8259288 7803584 6399772 5711936 6493888
3805.85 7949540 8950102 8723354 7921250 7408390 7366668
3808.75 7768288 8032240 7736258 7276602 7260060 7590890
3811.64 7746946 7454112 7040096 6835802 6844286 6972206
3814.53 7616282 9443130 11218790 10682370 8880436 8071888
3817.42 8345766 8487378 8276388 8098738 7864038 8546644
3820.32 9790650 9919462 9392530 8930302 8947862 9077488
3823.21 8794460 8570288 8668642 8826916 8729050 8545048
3826.10 8333922 8241002 8086096 7717072 7765382 8453600
3828.99 8936998 9121944 9572128 10029180 10114070 9533034
3831.89 8758070 8563050 8917706 9705070 10803940 11862570
3834.78 11719680 10647960 10069560 9783722 10246970 11892850
3837.67 12068480 10712320 10165200 10263290 10348120 10320440
3840.57 10172720 10018050 10123180 9965230 9718358 9900972
3843.46 9896404 9818514 9768480 9545660 9585980 9975556
3846.35 10452600 10421240 10311030 10477610 10644390 10712020
3849.24 10554290 10365640 10325230 10816890 12293180 13269830
3852.14 12527550 12000150 13205740 14573750 13732580 11941910
3855.03 11541830 11556570 11084190 10759970 10737460 10757180
3857.92 10695610 10190270 9616702 9597454 9774890 10295650
3860.81 11125300 11311700 10733770 10193580 10283030 11085520
3863.71 11782290 11896910 11902170 11495870 10527620 10234120
3866.60 10753750 10997390 10491960 10100310 10999300 12420820
3869.49 13178880 12600150 11604950 11380110 11181830 10948400
3872.39 10919600 11064350 11455480 11503740 11189070 10825080
3875.28 10469340 10386590 10606930 10980960 11015920 10589350
3878.17 10082570 9711794 9983514 10457500 10339920 9826076
3881.06 9520116 9375616 9211854 9143038 9195724 9556920
3883.96 10112740 10616220 11006970 10222500 8761826 8384022
3886.85 8435548 8021800 7969440 8526202 8701986 8332208
3889.74 8036942 8736728 9783862 9694258 8840170 7928842
3892.63 7622936 7945648 7627896 6806772 6758530 7025842
3895.53 7307188 7802538 7820878 7162188 6633534 6786846
3898.42 7268200 7310244 6990252 7057490 7059688 7259552
3901.31 7588496 7139170 6699510 6958590 7519490 7584434
3904.21 7159002 6964382 6560496 5651514 5577936 6296728
3907.10 6627050 6652802 6636902 5982176 5211136 5312550
3909.99 5741824 5932060 6096728 6006902 5917484 6084008
3912.88 5940054 5622272 5414862 5546808 6007802 5924810
3915.78 5366818 5582794 6426480 6559662 5944664 5434948
3918.67 5480078 5608872 5391822 5092550 5292096 6106162
3921.56 6278662 6010222 6441320 6640682 5970792 5401016
3924.45 5301164 5465584 5899290 6068942 5361918 4770068
3927.35 4946320 5024710 5094430 5501286 5601876 5759702
3930.24 6005452 5708536 5391260 5555618 5826774 5606210
3933.13 5371832 5405008 5290062 4897718 4159682 3772148
3936.03 4144456 4789202 5291908 5557712 5298694 4612198
3938.92 4475330 5030388 5722288 5913682 5016544 4524470
3941.81 5362182 5858882 5415618 5102020 5358862 5453712
3944.70 4921628 4251250 4087912 4474826 4927788 5107258
3947.60 4859410 4301486 4117062 4528622 4712296 4279658
3950.49 4160696 4565008 4864966 5073260 5639612 6044230
3953.38 5631694 5197890 5006166 4744876 4613966 4839544
3956.27 5210674 5452598 5363254 5399672 5711368 5443678
3959.17 4711680 4489458 4489500 4269142 4610380 5362668
3962.06 5305328 4953610 5109616 4997552 4759066 5068766
3964.95 5329190 4915690 4507408 4672968 4833098 4834932
3967.85 5106998 5644238 5915070 5797364 5751080 5986012
3970.74 6230614 6023192 5552808 5331082 5386962 5638576
3973.63 6091186 6467258 6287954
##END=
