##TITLE=1-Butanol
##JCAMP-DX=4.24
##DATA TYPE=INFRARED SPECTRUM
##CLASS=IUPAC A
##ORIGIN=NIST, Anayltical Chemistry Division, 301-975-3108
##OWNER=COPYRIGHT (C) 1998 by the U.S. Secretary of Commerce
##DATE=98/10/1
##$SPECTRA VERSION=1.00
##$UNCERTAINTY IN Y=2.0 % relative (B=1.0E-04,C=2.6E-10,D=2.7E-14)
##CAS NAME=1-Butanol
##CAS REGISTRY NO=71-36-3
##MOLFORM=C H3 C H2 C H2 C H2 O H
##MP=-89.53 C
##BP=117.25 C
##$NIST SOURCE=QUANT-IR
##SPECTROMETER/DATA SYSTEM=IFS66V (Bruker)
##INSTRUMENT PARAMETERS=KBr Beam splitter; MCT Detector; Multipass cell
##STATE=gas
##SAMPLE DESCRIPTION=1-Butanol Primary Gas Standard
##PRESSURE=101.3 kPa
##TEMPERATURE=23 C
##SAMPLING PROCEDURE=1 L/min Flow
##RESOLUTION=1.9290
##DATA PROCESSING=NB Strong Apodization
##XUNITS=cm-1
##YUNITS=(micromol/mol)-1m-1 (base 10)
##XFACTOR=1.0
##YFACTOR=4.5474E-13
##DELTAX=0.9645
##FIRSTX=574.687
##LASTX=3974.595
##FIRSTY=2.82E-06
##MAXX=3973.63
##MINX=574.69
##MAXY=.0005311
##MINY=8.13E-07
##NPOINTS=3527
##XYDATA=(X++(Y..Y))
574.69 6218798 7774956 10949070 10169660 9234696 9204144
579.51 8590440 6577526 7163044 8249668 8119302 9467086
585.29 9139260 7804664 8295060 10004050 9199310 8175188
591.08 10192430 9691076 6711836 4849756 6044170 8821648
596.86 9709658 10031410 9627324 9022756 7711422 7314126
602.65 8029902 8552446 8205414 6961044 8404594 9224926
608.44 8301552 7060034 6325374 6879036 8063220 7794288
614.22 8485922 8675874 8412414 8515336 9218550 9239408
620.01 9484938 8333208 6704194 6502860 7899122 8555212
625.79 10235380 10979780 9106132 7305842 6690928 8612862
631.58 9664924 8967990 9350454 8920154 7992032 8236232
637.36 8378508 8503518 9158018 8536240 8872740 8239908
643.15 7145786 8109748 7890886 7520202 8498646 8686190
648.93 8547656 8659012 8589968 8019372 8484184 8824500
654.72 7550050 7527838 7917324 8581678 8776092 8315116
660.50 8758094 9116934 9097198 8513130 7916080 7955782
666.29 8545156 8539662 8031006 7834946 6941142 6526826
672.08 7449134 7579938 8153544 8325338 7213038 7558088
677.86 7664414 6690406 6900344 7019276 6724166 6825860
683.65 7232884 7739552 8221352 8340600 7926690 6159478
689.43 6578964 7246828 6748396 6551958 7069300 7632616
695.22 8125188 7461820 7059366 6508496 7084496 8516398
701.00 7903210 6895072 7288298 7660412 7800588 7968012
706.79 7682818 7566064 8264150 8921756 9182012 8947470
712.57 8575528 9497548 10136930 9550394 9823626 10363680
718.36 10189560 10688240 11504910 11413860 12617600 13286660
724.14 13958760 14335760 14301920 14808130 15586040 16126440
729.93 16805060 17658480 17968570 18227670 18340020 19113590
735.71 20357200 20749360 21393520 22761670 23661870 21953150
741.50 20901850 20817940 20588140 20524700 19626090 19896400
747.29 20363580 19979990 19764700 18894410 18660870 18980260
753.07 17824480 17091140 16400110 15969400 15644800 15604490
758.86 15077620 14257890 13637050 12999180 12893450 12486720
764.64 11724800 11349710 10463940 10522720 10797410 10084870
770.43 9720784 9576050 9290208 9324974 9118630 9213434
776.21 9608532 9292642 9348784 9492328 9762758 9850614
782.00 10366740 10515550 9326364 8953546 9444820 9787060
787.78 10982920 11590680 11729600 12213800 13645180 13592830
793.57 12980280 13133180 12859200 12978130 13744780 14748050
799.35 14514820 14537640 15341150 15318380 15061620 16053030
805.14 16716020 15886970 15760230 16611670 16799650 16408880
810.93 16966220 18213020 18342760 18546630 18485890 18654290
816.71 19137610 20542170 21824660 21356390 20985800 22127480
822.50 23500470 24230890 26162800 27961720 28755550 29948880
828.28 31211150 32504560 35061920 37060740 39402400 41129480
834.07 43154480 45883890 48259640 49876710 50654000 52200160
839.85 53582740 54164800 53804770 52708520 52403560 52211340
845.64 52504280 53200530 54213630 54982820 55375310 56036880
851.42 56106710 55278370 53870860 52311410 50730520 49109420
857.21 47397830 45583320 43678920 41757600 39916060 38086320
862.99 36140020 34343190 32856470 31144820 29472020 28554360
868.78 27611510 26887300 25857790 24968050 24395000 23549660
874.57 23266960 22765890 21624750 21824760 21832240 21270210
880.35 20954290 20554930 20529850 20683730 21116830 21603880
886.14 22229320 22784880 23273280 23834540 24979980 25972180
891.92 27038600 27874220 27815870 27960660 28270410 28352060
897.71 28472720 28606510 28999370 29104270 29831290 30439170
903.49 30882110 31721210 32934920 33098560 32891200 32956650
909.28 32544180 32086730 32257580 31736810 31107380 31394700
915.06 31627770 31760020 32800890 33886690 34922840 36422480
920.85 38178280 39844440 41809670 43575410 45890380 48709250
926.63 51505070 53982190 56919920 59913480 63359490 66875900
932.42 70122820 73646210 76700390 80247310 84383500 88389820
938.21 92485240 96385920 99881820 103711900 106378600 108252400
943.99 111274100 114165900 115506500 116210300 117460100 119231400
949.78 121240300 121709200 121551400 122122000 122337700 121584000
955.56 120247600 118962700 118047400 116778200 115451500 113349200
961.35 111091000 108994900 106729600 104124700 101576200 99271510
967.13 97100000 94823580 92594880 90369500 88821790 88132160
972.92 87954980 87620660 87529540 88351960 89895200 91652540
978.70 93915170 95863980 97505420 99189580 100779500 101894100
984.49 102016000 101067700 99715730 99627230 101417300 104852200
990.27 109119300 111815200 116014300 122055200 127390400 130651300
996.06 132542600 133706800 134031700 133947300 133508000 133924500
1001.85 135684100 138393700 141660900 145103600 149484700 154311300
1007.63 158379700 162031700 167358400 173534800 179414900 184913300
1013.42 191223900 198022400 204680500 211185800 218491000 226692800
1019.20 235075100 243606700 252248600 260031600 267013500 273559600
1024.99 279954700 286237200 293940900 303153000 313410600 323505800
1030.77 335969000 350736800 365604500 380730800 396720800 411626600
1036.56 423844600 432953200 440049400 445484900 448558300 448695400
1042.34 445840300 443224700 442502200 440383800 437611500 438915900
1048.13 443277000 447166800 450633200 455129200 461513300 468031600
1053.91 472385500 472804300 469721200 464316400 458658000 453794700
1059.70 450881000 449608700 449759600 453268800 460430300 465280100
1065.48 467247900 472529900 480174200 485111700 485321700 482352300
1071.27 476270300 467428400 458803300 453061300 448977900 444426400
1077.06 439416700 432076300 419666000 402530200 385328000 369092200
1082.84 352886500 336837000 320475800 303992300 287202000 271579400
1088.63 257602800 243799400 232132100 221655400 210744800 200882100
1094.41 192139600 184078100 176294400 168298000 160773200 154480400
1100.20 147650200 140515100 133734200 127781100 122109500 116186000
1105.98 111621800 107447000 103187700 99778490 97300860 94730100
1111.77 91602440 88579950 85873680 83473620 80918920 78646750
1117.55 76501960 74070360 71479540 69279620 67230320 65231980
1123.34 63370960 61544720 59769270 58420760 57004230 55465180
1129.12 53574260 51978370 50399050 49167320 48174840 46924530
1134.91 45812300 44900820 43887360 42906250 42089020 41302710
1140.70 40504020 39938520 39088790 38618510 38298480 37992480
1146.48 37843380 37719400 37695260 37586060 36978580 36876130
1152.27 36967710 36993280 37260000 37372910 37334690 37496360
1158.05 38093990 38275030 38747640 39402550 39745570 40072080
1163.84 40625200 41562240 42400460 42912130 43459890 44327130
1169.62 45307200 46009200 46991870 48107300 49192470 50237250
1175.41 51554640 52895890 54177740 55246060 56339200 57822260
1181.19 59534310 60796130 62332960 64002270 65543070 67384890
1186.98 69388620 71321260 73616710 76050730 78152160 79811180
1192.76 81570450 83554050 85751200 87641000 89500760 91066950
1198.55 92323590 93971020 95963990 97438820 98941370 100589900
1204.34 102087900 103336200 104638800 106152100 107138900 107539700
1210.12 107960400 108350600 108518500 108352800 108363400 108086600
1215.91 107613300 107075600 106106900 104743700 103191000 101725900
1221.69 99979130 98528960 97621020 96388820 95159580 93683710
1227.48 91718190 89833470 87843220 85800700 83830700 81908420
1233.26 80373680 78741800 77214990 76012470 75075620 74250260
1239.05 73672660 72967890 72397110 71948710 71444940 71133780
1244.83 71114900 70907380 70764530 70675640 71245460 71663680
1250.62 71655310 72084210 72565590 73234320 73542060 73952050
1256.40 74478860 75175170 76085390 76551960 77082410 77722530
1262.19 78470140 79261130 80238100 81086270 81684570 81617230
1267.98 81500340 81833900 82413940 82917020 83101890 83533860
1273.76 84366450 84931850 85207260 85143380 84680400 84608940
1279.55 84481670 83914370 83353730 82950710 82296100 81365120
1285.33 80572120 80053540 79442110 78447630 77616700 77079690
1291.12 75791870 74417440 73033430 71760890 70446530 69044870
1296.90 67963390 66942160 65562850 64246850 63105810 61868660
1302.69 60651870 59519600 58772580 58251740 57761320 57219690
1308.47 56905940 56437200 55849950 55419700 55253560 54708740
1314.26 54209820 54343600 54532070 54319410 54107220 54255660
1320.04 54501440 54947780 55546570 56009450 56577480 57245480
1325.83 58271170 59197020 60108000 61895020 63693720 65404750
1331.61 66796520 67998110 69385830 70795250 71792430 72543650
1337.40 72992590 73436740 73906180 74186340 74536920 74882860
1343.19 75176140 75335990 75073980 75155940 75476850 75509530
1348.97 75374670 75394190 75490840 75452780 75265990 74907630
1354.76 74797310 74926660 74650140 74863900 75314940 76055090
1360.54 76899400 77933340 79640260 82124170 84791570 88007340
1366.33 91799160 96214420 101125400 106482200 112305300 118550300
1372.11 125554200 132787400 139353800 145641800 151774900 157097600
1377.90 161817600 165528100 167954200 170564400 175059300 182062900
1383.68 188187800 189300300 188021500 190006200 194245800 198417300
1389.47 200632100 199800300 196075200 191529800 185873800 178290600
1395.25 169983900 162713800 157211900 151864100 145818900 139339900
1401.04 132745400 126237100 119569100 112490800 105284600 98667810
1406.83 92783530 87209670 82416520 78260300 74305280 70720050
1412.61 67560750 65005010 62859230 60868960 59059830 58003120
1418.40 57717830 56037740 54364740 53839990 53641080 53117280
1424.18 53080560 53342990 53983990 54975360 55823500 56737680
1429.97 57849090 59244800 60413280 61102090 61819760 63348400
1435.75 66161290 68785700 70785030 72174060 74080100 77181510
1441.54 80752790 84676610 88609020 92093140 94986340 97702000
1447.32 100256700 102792800 105283400 107706500 110354000 113080100
1453.11 115524500 117867200 120839300 123566300 124723100 127120200
1458.89 130248400 133740600 136778000 139262300 142184400 144660400
1464.68 143747100 141110500 138926300 136421600 133298400 131071000
1470.47 131074200 132475400 132420000 129885400 128307700 128072200
1476.25 126867100 124375500 120932600 117164700 113219200 109517400
1482.04 105668200 101235800 96940660 92927780 88971290 84925270
1487.82 80567210 76723940 72863950 68220810 63524660 59432640
1493.61 55757330 52815110 49471820 45244430 41993290 38752930
1499.39 35445910 32793320 30232980 28015640 26364290 25794150
1505.18 25078760 23328890 20902840 19147000 17730880 16226660
1510.96 15467640 14572930 13600690 13193510 12974580 12710210
1516.75 12081650 11187900 11114920 11781720 11611330 10596720
1522.53 9816874 9566316 9786306 9148946 8790956 8655582
1528.32 8347952 8065524 8134016 7994910 8451446 8504576
1534.11 7784570 7776264 7679956 8253882 9759950 9764404
1539.89 8801426 8435686 8146978 7466666 7521924 7284448
1545.68 7039334 6934254 6992864 7091126 6931132 6353664
1551.46 6219438 6772484 7387870 6804302 6808776 7995524
1557.25 9292530 9175398 8933458 7246672 6138176 6051198
1563.03 6048160 5998276 5990984 6151442 6199592 6423204
1568.82 6654592 5825842 5469196 5636302 5849508 5976552
1574.60 7229304 7539276 5830222 5200068 5214550 5294990
1580.39 5169864 4979802 5127228 5264162 4987432 4796502
1586.17 4803282 4957898 5074272 5038070 4811876 4754888
1591.96 4718800 4917022 5025884 4813896 4712192 4724558
1597.74 4709262 4794818 4777906 4498062 4492590 4703362
1603.53 4837662 4575708 4515674 4687098 4466632 4348040
1609.32 4589840 4587364 4400912 4149086 4230404 4666900
1615.10 6097298 6459770 4983342 4405518 4312278 4305850
1620.89 4377110 4893706 4873736 4297272 4177870 4276834
1626.67 4403088 4383010 4399192 4133078 4096892 4038882
1632.46 3672972 4491252 5885034 5120612 4168648 3902162
1638.24 3742994 3922400 3907082 3890554 3932616 3815386
1644.03 4408116 5323766 4856248 4507562 4358066 4158476
1649.81 4147480 5860350 7952750 6890300 5053542 4120406
1655.60 3692092 3437884 3452110 3713482 3691486 3755698
1661.38 4109728 4053386 3628084 3625464 3538362 3523346
1667.17 3870782 4323892 3992106 3781466 3868888 3619408
1672.96 3557584 4525130 4663990 3811702 3620704 3862696
1678.74 3901754 3769860 3800518 4349826 5381942 6730374
1684.53 5547794 3948704 3846876 3806636 3840910 3653968
1690.31 3643660 3762886 3666664 3807856 5620552 6679970
1696.10 4978922 4089696 4624166 6348312 5841672 4098246
1701.88 3617836 3740178 3919994 3936904 3815058 3261086
1707.67 3325930 3607134 3621282 3469306 3498522 3568700
1713.45 3768298 3838742 4052792 5063514 4468812 3469710
1719.24 3094948 3112508 3067946 3139510 3191342 3068850
1725.02 3171812 3344950 3288198 3158506 3118264 3253476
1730.81 3371350 4114372 5173816 4913032 3774924 3329622
1736.60 3334940 3292196 3731274 3770510 3333444 3247464
1742.38 3414558 3243510 3030280 3221878 3601134 3626900
1748.17 3383764 3523494 4396812 3992366 3403580 3217500
1753.95 3075524 3466454 3713150 3312326 3034768 2936068
1759.74 3273434 3753240 3344570 2948778 2973844 2819604
1765.52 2686556 3140868 3561644 3193298 3304092 3666682
1771.31 4146642 3775800 2825146 2859198 3118536 3027304
1777.09 3107056 3247544 3205032 3140478 3010778 2976486
1782.88 2935808 3314084 3332680 3115330 3278220 3121142
1788.66 3146398 3411838 3587644 4126064 3745748 3252378
1794.45 3200222 3304014 3371924 3434780 3706558 3697238
1800.24 3350912 3150858 2956290 2779390 2890370 3087924
1806.02 3234774 3247632 2946680 2873322 3109516 3154060
1811.81 3070288 2946854 2868414 2747172 2737416 2774742
1817.59 2683286 2692762 2715678 2630908 2720448 2765328
1823.38 2823264 3030318 2882198 2581424 2524400 2960156
1829.16 3128694 2758662 2650394 2517768 2431538 2447958
1834.95 2456534 2344642 2420144 2476354 2610794 2639940
1840.73 2622492 2731906 3364002 3654030 3046130 2763974
1846.52 2643120 2539204 2520166 2732770 2801758 2682474
1852.30 2734786 2896004 2952968 2879518 2930998 2950876
1858.09 3003562 3152454 3093608 2915550 2887690 2794748
1863.88 2883900 3255866 3398206 3518306 3468596 3350000
1869.66 3176514 2753146 2650426 2980354 3229460 3260566
1875.45 3088544 2919556 2793062 2840216 2970264 3018164
1881.23 2999508 3017140 2796856 2634226 2545142 2546634
1887.02 2622966 2952208 3192900 2757956 2564306 2916096
1892.80 3067842 2768972 2557946 2717412 2751524 2642620
1898.59 2922428 2966010 2995872 3140930 3274906 3419362
1904.37 3356420 3151438 3319254 3644926 3768844 3703250
1910.16 3518244 3465144 3728530 3685304 3578324 3729550
1915.94 3976498 4018338 3859174 3560680 3630294 3950140
1921.73 4091144 4231656 4086522 3917560 3982746 3953752
1927.51 3660232 3532624 3430040 3350722 3360966 3226274
1933.30 3015620 3278750 3297818 2995654 3237086 3372864
1939.09 3071798 3099946 3444066 3514982 3276842 3068486
1944.87 2999868 3040722 3095696 2987162 3049756 3184408
1950.66 3098468 2974144 3078284 3224936 3223126 2994556
1956.44 2868658 3064224 3120410 3267258 3282210 3239324
1962.23 3143980 3173296 3220896 3214968 3515754 3578930
1968.01 3556860 3642900 3719032 3685076 3634762 3789408
1973.80 3789592 3788950 3732170 3604532 3738352 3950814
1979.58 3965658 3705228 3560942 3786764 4089786 3988222
1985.37 3809810 3764544 3805730 3811254 3702882 3779860
1991.15 3956014 3755638 3639698 3579006 3714718 3743826
1996.94 3555342 3612814 3898850 4035970 3704158 3846028
2002.73 4161692 4086380 3981924 4106322 4055532 4046150
2008.51 4275820 4599010 4624764 4788708 4843538 4814342
2014.30 4931040 5219756 5471490 5640622 5773972 5740310
2020.08 5845842 6048650 6369926 6556950 6488544 6681586
2025.87 6936036 6907870 6821194 7077680 7606282 7410020
2031.65 7381004 7422480 7304104 7414542 7646190 7781908
2037.44 7821300 7879510 7697770 7572306 7457502 7244116
2043.22 7061196 6869666 6683966 6387564 6323822 6453004
2049.01 6227256 5969454 5778934 5620222 5585244 5436010
2054.79 5269798 5061858 4728162 4655066 4609794 4492780
2060.58 4382362 3972628 3687226 3825344 4009278 4060434
2066.37 3942710 3831782 3882670 3997458 3986712 3714554
2072.15 3557900 3833058 3938632 3646190 3495290 3635378
2077.94 3742180 3654490 3448994 3363090 3389960 3352580
2083.72 3649684 3570024 3355640 3544306 3745120 3439312
2089.51 3571138 3900160 3672056 3530642 3563040 3502164
2095.29 3360930 3281014 3433492 3768308 3725556 3553400
2101.08 3365026 3240468 3182394 3085468 2963776 2882744
2106.86 2981908 2940642 2878098 2812316 2641582 2648906
2112.65 2673376 2822268 2794726 2611824 2491454 2490598
2118.43 2202544 2124428 2071406 2223374 2413380 2206572
2124.22 1889416 1980342 2268778 2030694 1931256 1950226
2130.01 1953594 1788308 1875554 2204126 2210022 2043592
2135.79 1876094 1959958 1904452 1926906 1967662 2090976
2141.58 2312578 2170788 2080590 2158922 2115344 2179978
2147.36 2269028 2183776 2141710 2152152 2193310 2301232
2153.15 2382788 2572582 2469632 2313220 2378130 2513010
2158.93 2461254 2713108 2868058 2804852 2668012 2581632
2164.72 2689340 2941790 3014664 2979150 3118634 3390708
2170.50 3451322 3440434 3405654 3238164 3382628 3820726
2176.29 3959934 3774632 3634684 3548538 3526506 3514396
2182.07 3904718 4184030 3920552 3750276 3955040 4000956
2187.86 3888852 3842408 3660248 3754070 3953848 3992924
2193.64 3730428 3587250 3572420 3718188 3733150 3749888
2199.43 3920570 3851048 3587822 3589444 3686392 3662670
2205.22 3790494 3774970 3571270 3451432 3639792 3561464
2211.00 3438258 3570568 3652254 3660072 3581130 3482410
2216.79 3381210 3378948 3406616 3444030 3624634 3584958
2222.57 3298198 3182076 3131580 3333764 3383546 3242646
2228.36 3258256 3164314 3179908 3367652 3504570 3240008
2234.14 2990442 3059580 3212460 3095446 3257570 3448338
2239.93 3548602 3443156 3403412 3299554 3131704 3246790
2245.71 3435798 3535374 3461110 3270100 3290778 3640074
2251.50 3654562 3390712 3301488 3248888 3377844 3716428
2257.28 3711600 3803120 3980916 3930644 3957660 3889674
2263.07 3916026 4011046 3952212 3744170 3867854 4220016
2268.86 4282802 4368206 4383286 4300434 4435278 4690226
2274.64 4769394 4594914 4360808 4293356 4225906 4558524
2280.43 4849258 4684854 4561890 4670974 4730860 4711244
2286.21 4793040 4796772 4841852 4868596 4910938 4753560
2292.00 4674486 4798732 5062816 4875094 4699074 5119142
2297.78 4971810 4786690 4957310 4917024 4898032 5182826
2303.57 5408556 5322380 5101648 5024942 5377118 5725000
2309.35 5592990 5381592 5504768 5678394 5850040 5902430
2315.14 5452430 5472004 5600074 5758712 6072718 6198698
2320.92 5976204 6038668 6157570 6376262 6369418 6416550
2326.71 6410480 6574554 6526226 6628136 6629548 6692010
2332.50 6720322 6694990 6563846 6508944 6412354 6400140
2338.28 6300672 6334962 6315350 6139000 5962218 6050386
2344.07 6271614 5935006 5399160 5048002 4862634 4925038
2349.85 5165228 5413746 5455458 5459938 5605218 5778308
2355.64 5991338 6255378 6459600 6633324 6458118 6255722
2361.42 6237876 6146620 6207672 6227676 6209210 6149916
2367.21 6203542 6221528 6144146 5875408 5835544 5932436
2372.99 6025882 6075806 5800924 5437232 5399142 5724034
2378.78 5990778 6036438 6180468 6147150 5846040 5912934
2384.56 6225570 6350230 6530914 6437932 6300108 6140266
2390.35 6077766 6191796 6300776 6477902 6643424 6626752
2396.14 6381738 6460114 6951098 7121214 7036940 7101022
2401.92 7146944 7436388 7498050 7434508 7403136 7417606
2407.71 7433878 7503376 7580498 7629246 7572826 7560068
2413.49 7685300 7780460 7938916 8054698 8044524 8008922
2419.28 7849820 7535554 7566166 7690302 7689120 7538460
2425.06 7344428 7241000 7140954 6923298 6867374 6695722
2430.85 6851062 7065586 6842374 6426806 6153396 6326794
2436.63 6359400 6142898 6034514 6386924 6567856 6338118
2442.42 6154752 5996782 5831278 5751170 5554608 5256908
2448.20 5437116 5551066 5458388 5683306 5660410 5250606
2453.99 5088510 5199096 5015212 4769896 4681184 4717424
2459.77 5019056 5269198 4716302 4333546 4539310 4784928
2465.56 4819938 4822144 4741700 4495992 4441226 4452202
2471.35 4345810 4006332 4057386 4432546 4400634 4290778
2477.13 4225624 4137644 4076008 4259672 4440238 4345126
2482.92 4023792 4051238 4120628 3946264 3945764 4305406
2488.70 4164358 4097060 4236940 4437884 4743902 4490734
2494.49 4176408 4275436 4410980 4365772 4295218 4341508
2500.27 4105122 3910818 4127608 4167190 4506574 4545830
2506.06 4428178 4397128 4356472 4398966 4213694 4305500
2511.84 4568830 4759372 4712606 4549512 4566882 4170614
2517.63 4023624 4282664 4556738 4668266 4555546 4486572
2523.41 4676950 4726442 4599196 4466002 4431058 4676722
2529.20 4999928 4755706 4686942 4771622 4812028 4795608
2534.99 4624248 4900996 5075412 4873904 4439204 4441942
2540.77 4865684 5092022 5053008 5002734 4912036 4916708
2546.56 4989854 5009330 5037278 5065614 5213244 5342106
2552.34 5161710 5235608 5319976 5397876 5459170 5210202
2558.13 5091610 5176834 5059748 5121726 5454520 5605556
2563.91 5509716 5625402 5701248 5598532 5808564 6092694
2569.70 6048428 5816414 5778328 5985918 5910822 6096466
2575.48 6424054 6623592 6626046 6496302 6627482 6966362
2581.27 6617132 6750508 6959044 6603724 6760616 7198554
2587.05 7455188 7719768 7534320 7176954 7461890 7580688
2592.84 7817398 7912306 7891710 8087426 8262284 8271276
2598.63 8115164 8291312 8459824 8360430 8221990 8153164
2604.41 8345224 8489860 8669558 8816250 8719652 8740610
2610.20 9005906 9259854 9402108 9363888 9160044 9340210
2615.98 9507432 9617140 9573756 9361888 9631342 9761460
2621.77 9651984 9804234 9848158 9878208 10073280 10037340
2627.55 10258040 10475620 10511250 10480390 10466660 10437290
2633.34 10775550 10896950 10360050 10478380 10754450 10854680
2639.12 11062260 11737540 11900870 11492700 11680170 11747720
2644.91 11646290 11847780 11954140 12376540 12563500 12138290
2650.69 12415970 12756110 12940500 13249720 13366820 13089750
2656.48 13377910 13884180 13986040 14389720 14968700 14944810
2662.27 14754190 14963500 15151070 15423010 15783010 15627250
2668.05 15993090 16330480 16383090 16471870 16617960 16634550
2673.84 16650580 16952430 17268470 17576970 17788570 17804560
2679.62 17538730 17553970 17746580 18162800 18129700 17842760
2685.41 17717130 18014220 18361140 18378300 18614290 18825020
2691.19 18883020 18935980 19024290 18963260 19024560 19395860
2696.98 19287810 19054820 19371490 19605300 19615210 19392250
2702.76 19771740 20235980 20258330 20389860 20868330 20957670
2708.55 20755210 20977850 21253860 21631530 22348220 22741620
2714.33 22699100 22797680 22675060 22583630 23180750 23656250
2720.12 23971160 24196040 24767100 24937240 25090660 25517620
2725.91 26295730 26762670 27119610 27297010 27845350 28685940
2731.69 29377710 30154510 30739920 31483780 32338060 32860190
2737.48 33124720 33731950 34523290 35361790 35510530 35677390
2743.26 36172390 36338130 36650160 36989730 37516700 38078830
2749.05 38827100 39549420 39383020 39141690 39235480 39380500
2754.83 38910400 38682050 38630080 38468880 38954940 39389860
2760.62 39346500 39342560 39403640 39745500 39813290 39825940
2766.40 40267690 40513990 40661030 41032750 41322390 41495570
2772.19 41773770 42123060 42765010 43419820 43430350 43518820
2777.97 43827690 44330500 44627600 45053010 45493470 46271700
2783.76 46763290 46882080 47610650 48166420 48169520 48548160
2789.54 49267760 49535410 49593040 49724140 49512860 49872120
2795.33 50120650 50397140 50574100 50561380 50641480 50981320
2801.12 50847340 50688000 50996610 51582380 51685820 51911240
2806.90 52682680 52731530 52954590 53608200 53921080 54420240
2812.69 55029640 55873590 56771460 57984670 59165300 59943870
2818.47 60597100 61654260 62971400 64624580 66441320 68496700
2824.26 70459880 72282560 74546540 77085560 79980290 83219080
2830.04 86636300 90368540 94531300 98441460 102438900 106773700
2835.83 111703900 116618500 121908900 128605400 135673800 142757000
2841.61 150072200 157952200 166217800 174704700 183363000 191973600
2847.40 201137900 210609400 219777200 229578400 239193200 248827700
2853.18 259686400 271338400 283021400 295080600 308353400 321334200
2858.97 334372000 347898200 361577100 376794100 391882000 407552300
2864.76 423744700 440674100 457904700 475515900 493837600 512682200
2870.54 533233800 555045600 578814900 604599700 631551700 658958800
2876.33 685267100 707998800 724322000 734594600 737552400 734992700
2882.11 729347000 725317300 730755100 744513000 742605100 728055700
2887.90 722755500 725886100 732921200 737868600 737860500 732259900
2893.68 720617800 704459100 687206100 670419200 654777400 639890000
2899.47 626988800 616956700 609961300 604790200 601492200 600131200
2905.25 599685400 600948900 604753200 610903000 618219800 625877100
2911.04 632918200 640705000 650127900 659552800 667866700 677146000
2916.82 687559800 697467400 707273100 719313300 733073700 746885400
2922.61 760814700 775109000 788999700 803647200 818972200 832658200
2928.40 846465900 861305000 875703500 890185800 906806800 924976100
2934.18 943375600 960747000 977334800 991825700 1003253000 1009990000
2939.97 1013656000 1017514000 1020691000 1021189000 1016792000 1007337000
2945.75 997385700 991693300 989908400 988887100 989195100 990842000
2951.54 993315700 997537200 1002465000 1004963000 1006615000 1008560000
2957.32 1012235000 1017580000 1024582000 1033162000 1044648000 1057021000
2963.11 1069628000 1088462000 1119840000 1155340000 1168062000 1140883000
2968.89 1095150000 1053542000 1020031000 995781900 982771600 970219500
2974.68 949572300 928056100 909791800 891253200 867190700 835893600
2980.46 795841900 749037200 698667500 645120400 589759900 536549300
2986.25 486510700 439678200 395732300 356274900 321612400 290418900
2992.04 262595700 237778100 214196900 192869900 174665700 158226100
2997.82 142832000 129116600 116744400 105325700 94741330 85330080
3003.61 77496550 70992530 64904920 59046920 53573550 49020490
3009.39 45370040 42610990 39965540 37220210 35169440 33610330
3015.18 31693790 30203800 28948680 27701080 26764320 26354230
3020.96 25772330 24724800 23976820 23609150 23110900 22961050
3026.75 23188390 22107850 21773480 21963170 21620070 20938710
3032.53 20946370 21393500 21434330 21204170 20957640 20919240
3038.32 20308040 20559800 20857290 20674810 20445830 20468830
3044.10 20776410 20449810 20208970 19908810 19692530 19710720
3049.89 19713700 19548220 19722890 19611890 19258500 18690480
3055.67 18257470 17689560 17398860 17430580 17597600 17297530
3061.46 17039960 16616160 16791960 16474570 15576890 14975910
3067.25 14793730 14404520 13963830 13808900 13591520 13214060
3073.03 13093350 12791740 12458180 12028570 11711940 11181490
3078.82 11369590 11792950 12174630 11841750 11293400 11152170
3084.60 11079160 11025320 10583060 10612730 10641060 10407640
3090.39 10383600 10018640 10083820 10664600 10589220 10238490
3096.17 10011720 9947750 9809336 10158090 10539190 10002830
3101.96 9489434 9511752 9343976 9371178 9476382 9423300
3107.74 9598984 9313042 8988366 8664438 8620908 8520402
3113.53 8378640 8685868 9071406 9221500 8889026 8573718
3119.31 8405956 9036106 9218484 9160750 8687248 8247954
3125.10 8490030 8567392 8678122 8950292 8963112 8859404
3130.89 8565700 8813318 8840512 8952678 8631888 8483972
3136.67 8692512 8764756 8993322 9090788 8719106 8417346
3142.46 8408262 9179926 9267242 8735748 8796598 8705066
3148.24 8598380 8783316 8649760 8546196 8672590 9111582
3154.03 9124552 8840238 8740326 8438932 8441068 8634198
3159.81 8594422 8816614 8558688 8121394 8218598 8992222
3165.60 8900242 8692920 8766434 8957108 8865140 8578290
3171.38 8366626 8682768 8745880 8612648 8717826 8662124
3177.17 8406872 8890134 9138802 8999886 8737454 8436068
3182.95 9029256 9306986 9599108 9314690 9276064 9082288
3188.74 9346308 9824386 10016070 9713078 9438760 9594762
3194.53 9829314 9878168 9989896 10163570 9970678 9466138
3200.31 9200814 9275656 9002954 9171766 9536346 9459634
3206.10 9040886 8576432 8630854 8563868 8789248 8191418
3211.88 8318702 8344268 8034086 8188624 7813628 7387444
3217.67 7067158 6914110 7144520 6955810 6106166 5606854
3223.45 5414018 5742732 6075092 6209782 5708040 5016660
3229.24 4877340 5026904 4961654 4784616 4400250 5050730
3235.02 5228556 4817368 4095416 3383250 3844320 4582762
3240.81 4610512 4006212 3931068 3751990 3586214 4229262
3246.59 4104074 3263694 3071328 3230814 3381314 3473486
3252.38 3236260 3074410 3204310 3369890 3205614 2967604
3258.17 2884338 2918210 3239352 2991776 2543912 2886090
3263.95 3152406 3078492 3346540 3686030 3302402 3016078
3269.74 2860898 2555158 2633422 2614110 2967314 3070134
3275.52 2723770 2867596 2957454 2979364 3063394 2339838
3281.31 1973588 2537834 3134808 3290434 3144836 3077366
3287.09 3001268 2254142 2222590 2535308 2453082 2565334
3292.88 3031534 3473142 3293756 2566770 2670278 3363066
3298.66 3242308 2948596 2521098 2491918 2358280 2456454
3304.45 2665898 2918308 3436240 3498274 3067132 3067132
3310.23 3233380 3151574 3152136 3236064 3087542 3562394
3316.02 3852074 4258046 3463228 2996896 3199054 3447876
3321.80 3458866 3532618 3460380 3396042 3108376 3119154
3327.59 3096158 3175326 3309138 2668450 2528068 3001360
3333.38 3284576 3060796 3000132 3044084 3282798 3547836
3339.16 2870632 2635458 2829890 2725592 2760032 2755512
3344.95 2397436 2365710 2477088 2588172 2776082 2835006
3350.73 2720218 3096198 2823638 2282726 2736040 2703490
3356.52 2652996 3262040 3366422 3086126 2769046 2946908
3362.30 3083800 3319900 3374514 2636456 2498544 2774738
3368.09 3003532 3554538 3160646 2645962 2941396 3180248
3373.87 3261538 2865014 2634310 2854336 3147792 3364876
3379.66 3242318 2959122 3128200 3346472 3018456 3151364
3385.44 2982290 3027106 2858452 2694104 2804504 2345478
3391.23 2913032 3698054 3396432 3296906 3535714 4011768
3397.02 4057962 3646116 3118266 3237196 3334256 2938610
3402.80 3157856 3611174 3738534 3759696 3416948 3766082
3408.59 4747954 4570520 3662830 3824830 4258814 4903528
3414.37 5319994 4682420 4383272 4803730 4791098 5069806
3420.16 5568160 5200542 4269132 3636984 4140274 4843522
3425.94 4763926 4658652 5132566 5668752 6521508 6111894
3431.73 5222908 5057224 5168242 5237002 5043744 4816950
3437.51 5225888 4945744 5206876 6301908 6865262 6572384
3443.30 6002276 5004586 4620726 5205024 5879542 5807006
3449.08 5945474 6376912 5896100 5246492 5274574 5540130
3454.87 5287020 5747032 6063886 6094074 5993780 6070970
3460.66 6583786 6824062 6589650 6523884 7004500 7233240
3466.44 6808178 5686762 5380034 6080960 6695040 6629480
3472.23 6751508 7370212 7169200 7009050 6654834 6560368
3478.01 6703068 6494924 6693618 7140784 7038040 6965480
3483.80 6892008 6708720 7058874 6593714 6014392 6237880
3489.58 6423434 6689962 7306688 7059220 6488674 5989812
3495.37 5860878 5678250 5390594 5466166 5933558 5686816
3501.15 5479926 5879362 5814318 5229184 5175830 4595956
3506.94 4723594 5486888 5828202 5738932 5356180 5143074
3512.72 5066844 5121326 4914988 5107378 5004620 4837684
3518.51 5016120 5359048 5493056 5334452 5241984 5090344
3524.30 4709194 4810508 5641918 5549118 5111206 4896100
3530.08 5160492 5219146 5531908 5791610 5195312 4869524
3535.87 5336090 5665160 4398364 3963882 4610778 4863282
3541.65 4807232 4701560 4499738 4319100 4903038 5291964
3547.44 5500082 5501490 5335162 4825396 4704826 4762712
3553.22 4618322 4720736 5388060 5461588 5125848 4976524
3559.01 4962658 4422604 4767382 4960070 4873508 5083830
3564.79 5089758 5160418 5709870 5219320 4850310 4105164
3570.58 4104596 4941584 4940542 4529000 4523002 4653944
3576.36 4521056 4962198 4553580 4826918 5099742 4457616
3582.15 4676976 5390668 5216600 4695552 4645976 5180384
3587.94 5556080 4898894 4443084 4645004 5598890 6059956
3593.72 5505982 5148276 5284100 5579054 5252784 5147340
3599.51 5580494 5755374 6077578 6281612 6209646 6382434
3605.29 6645054 7108680 7234612 7109138 7373350 7973152
3611.08 8219658 7708876 7584590 8210620 8414112 9154912
3616.86 9816696 10138700 10666940 10830560 11561820 12098220
3622.65 12322290 12777860 13320310 14254620 15536650 16928640
3628.43 18016690 18369460 18930380 20658100 22521450 24268650
3634.22 26065710 28086960 29660150 31176090 33523210 36670630
3640.00 39184910 42649070 46596010 50325760 54241360 57887790
3645.79 62852530 68160850 73205080 77294830 80786540 85395520
3651.57 89084580 93879810 99608750 105736000 108793900 108803700
3657.36 111522700 116398900 122182800 128864600 135773900 141863200
3663.15 147204500 152968800 158630400 163924700 168674400 172466900
3668.93 175302000 177169600 175494400 172892400 168897500 164699900
3674.72 160171300 154227100 151009800 153720300 154326300 146912200
3680.50 140704300 139118300 137069300 133197600 127411200 120695200
3686.29 112665200 103756200 93470120 82647860 73092910 64652320
3692.07 57423260 51392280 46888200 42322360 38008980 34853100
3697.86 31979770 29071490 27194030 25504080 22534460 20369110
3703.64 19004300 17929620 16363390 15004990 14552500 14023370
3709.43 13216870 13420260 13751290 12441530 10709180 10136440
3715.21 10285750 9638930 9158570 9371294 9173260 9120456
3721.00 9225132 9409474 9222608 8992822 8936626 8712608
3726.79 7922836 7375330 7313788 7973258 8901596 9101246
3732.57 8203192 8114094 8186746 7916342 7199898 7385574
3738.36 7803534 7780764 7941698 8044504 8353910 10273530
3744.14 9970752 7737632 7170110 7552268 9213998 8898766
3749.93 7579378 8641692 7791914 6264954 6419824 7217018
3755.71 7453978 6928514 7140924 7512314 6960980 6767400
3761.50 6813422 6732150 6981320 6816508 6661468 6597622
3767.28 6710830 6983866 7065828 6648772 6759438 7271244
3773.07 7496690 7293670 6791608 6727058 6993918 7868922
3778.85 7698694 6691512 6491792 6595646 6759098 7200414
3784.64 7363404 7283958 7399992 7252846 7234822 6761362
3790.43 6686274 7072160 7134790 7239404 7796932 8191162
3796.21 7885846 7266256 7421326 7958948 9245650 9587888
3802.00 8521314 7939040 6739928 6882980 8324530 8041580
3807.78 7583770 7768600 7477676 7514666 7371890 6957570
3813.57 7314024 9312290 10035010 8599234 8344528 8139064
3819.35 8789072 9526054 9166202 8908722 8723750 8710840
3825.14 8541294 8198510 7940236 8387232 9221802 9796652
3830.92 9457812 8869870 9897092 11237810 10819790 10226590
3836.71 11242110 10971250 10308640 10261180 10097190 9950296
3842.49 9846160 9814274 9667520 10002710 10363980 10495780
3848.28 10603290 10471700 11242430 12504440 12785400 13553750
3854.07 12492420 11396420 10909630 10680590 10172610 9761674
3859.85 10401560 10925210 10535990 11051040 11759200 11282560
3865.64 10616520 10660430 10709230 12064400 12372420 11458130
3871.42 11051710 11147120 11319710 10842590 10562250 10802020
3877.21 10528440 10017200 10185860 9896722 9383822 9238422
3882.99 9656986 10462730 9923936 8623202 8193200 8353994
3888.78 8424336 8853220 9278702 8223120 7701232 7099062
3894.56 7098900 7537350 7239704 6924294 7176744 7056740
3900.35 7287986 7110384 7128802 7336748 6858148 6029310
3906.13 6179548 6543602 5960374 5502444 5885292 5994584
3911.92 5973782 5671590 5677570 5735696 5862642 6182290
3917.70 5690828 5458552 5356456 5843532 6254584 6249984
3923.49 5644184 5572262 5689114 5088624 5054246 5393240
3929.28 5766938 5681802 5612092 5571684 5348462 4749016
3935.06 4158412 4726804 5275800 4868770 5109730 5437044
3940.85 5100254 5437926 5343360 5159064 4503812 4530442
3946.63 4867144 4493368 4421546 4413548 4547146 5218252
3952.42 5664536 5307762 4813016 4932176 5303870 5480566
3958.20 5239958 4604276 4536184 5014100 5133074 4957826
3963.99 5045374 4902878 4708900 4962528 5512748 5827734
3969.77 5965474 5903076 5476952 5751096 6173560
##END=
