##TITLE=1-Butanol
##JCAMP-DX=4.24
##DATA TYPE=INFRARED SPECTRUM
##CLASS=IUPAC A
##ORIGIN=NIST, Anayltical Chemistry Division, 301-975-3108
##OWNER=COPYRIGHT (C) 1998 by the U.S. Secretary of Commerce
##DATE=98/10/1
##$SPECTRA VERSION=1.00
##$UNCERTAINTY IN Y=2.0 % relative (B=1.0E-04,C=2.6E-10,D=2.7E-14)
##CAS NAME=1-Butanol
##CAS REGISTRY NO=71-36-3
##MOLFORM=C H3 C H2 C H2 C H2 O H
##MP=-89.53 C
##BP=117.25 C
##$NIST SOURCE=QUANT-IR
##SPECTROMETER/DATA SYSTEM=IFS66V (Bruker)
##INSTRUMENT PARAMETERS=KBr Beam splitter; MCT Detector; Multipass cell
##STATE=gas
##SAMPLE DESCRIPTION=1-Butanol Primary Gas Standard
##PRESSURE=101.3 kPa
##TEMPERATURE=23 C
##SAMPLING PROCEDURE=1 L/min Flow
##RESOLUTION=0.9640
##DATA PROCESSING=Boxcar Apodization
##XUNITS=cm-1
##YUNITS=(micromol/mol)-1m-1 (base 10)
##XFACTOR=1.0
##YFACTOR=4.5474E-13
##DELTAX=0.4820
##FIRSTX=575.169
##LASTX=3975.077
##FIRSTY=2.28E-06
##MAXX=3974.59
##MINX=575.17
##MAXY=.0005381
##MINY=2.01E-07
##NPOINTS=7053
##XYDATA=(X++(Y..Y))
575.17 5021056 6229890 12786160 13277380 10142310 11275870
577.58 6392450 12184210 7346616 7936196 11680970 10084450
580.47 6056762 5397474 6257712 5323386 9406768 10256490
583.37 8989732 3596706 7804662 16043860 4102350 15215590
586.26 3831862 8731400 7499832 6937336 9033366 10883100
589.15 12309040 11547950 2300202 9955438 6127120 13664490
592.04 11711170 9684124 8500604 7811162 1542348 6601646
594.94 4292042 2805908 9248868 9894584 11206690 8637116
597.83 7852934 12223150 12111810 6643574 8567038 12277460
600.72 7673154 7591762 4993722 8681422 6060924 10918580
603.61 6758488 5714148 13683710 8703116 4795992 5444596
606.51 8372178 8122530 8765060 12020310 8098990 8682022
609.40 5655978 9115756 6210500 5844964 4298268 7744604
612.29 8357760 7744574 10352490 4503008 9072566 7717048
615.18 10785460 7695532 8538636 9096150 6960266 9037140
618.08 7980442 11066720 8726806 8678300 8913524 11057920
620.97 9397616 8110348 8221552 5114826 6579454 4654552
623.86 8314146 7171074 10978190 6112976 8325964 10803240
626.76 12242490 11885330 12440320 5654272 8567228 9029064
629.65 5784464 4042670 7017776 9655298 11089470 9710490
632.54 10055470 6947850 8938576 10186570 10181410 8949814
635.43 7898734 8568496 4888886 10466000 9258428 7788492
638.33 7456736 7675314 10707730 8940790 9095060 9033516
641.22 6906120 7847458 11834670 10230330 3992784 6165758
644.11 7199342 10131750 8871232 7513582 6231414 8209180
647.00 6595930 9137260 9989432 8957880 7065972 8896390
649.90 9139748 8262318 9174442 7431786 10823520 6822334
652.79 5648830 10022170 8465568 12034020 6356536 7105668
655.68 6379472 8330902 7923550 7269146 8776912 7117212
658.58 10550710 9577984 7973854 6332316 10153600 8047544
661.47 8957124 10010020 8513602 9154364 10055880 7691740
664.36 7660184 9569794 4855016 10069560 7045980 9131586
667.25 8103910 10841700 6994484 6248638 10487230 6499314
670.15 8402524 7263046 5658258 5492990 5957030 10048800
673.04 7862340 5947466 7304744 9102774 8359894 9513656
675.93 8245738 5629184 6674288 6372428 10556880 8556972
678.82 5687816 5350408 7936446 6482472 6600458 8219758
681.72 6966088 5620666 6882830 6783468 7205362 7215460
684.61 7561026 6229668 10110110 8224098 6881850 9134436
687.50 7893150 10823360 5971984 4614176 4943756 7022240
690.40 7806406 7885192 7189660 6557986 5297196 7710576
693.29 5702054 7537878 7823516 6101494 9342370 8059740
696.18 9287318 5803914 7426856 7099628 7345218 6808222
699.07 4664242 6579410 7889190 10993750 8490554 7617352
701.97 7176936 6021476 6676024 7301966 7932224 8762792
704.86 5899586 8602080 7930140 8182280 8052884 7482248
707.75 7686082 6786890 7656814 8599186 8654846 9369010
710.64 8691194 9585750 8724366 10658120 7003402 8717958
713.54 8320418 8452552 12196790 10752750 8823618 9794756
716.43 8887322 9495348 10440920 11187790 10481810 9808320
719.32 9421134 10129500 12060670 13042260 10294780 11284380
722.22 10202270 13410280 15467760 12009270 11329550 16673040
725.11 13649730 14554080 14211820 14026490 14282880 14632920
728.00 15506090 15473990 16071200 16103260 16671980 15583830
730.89 17855130 18576530 17686830 17079860 19031630 17985270
733.79 17862980 19923780 16077950 19025610 21428090 19973690
736.68 20435120 21480020 20301420 20842710 22217550 22485900
739.57 23501090 25476880 24392530 21114410 19213350 20597540
742.46 22200450 21360820 19554630 19855100 21320310 21939050
745.36 19900210 17966720 19831510 19646580 20240880 21630010
748.25 20504570 18364870 20181330 20807370 19425440 19039800
751.14 17621200 17203360 20163860 21029100 17439550 17590670
754.04 16560810 18350770 16036770 16841010 15288550 16532250
756.93 15845280 15042540 16254420 14393670 17163670 15189110
759.82 13585630 14398280 14118190 14050300 13105100 12068340
762.71 13617560 12100680 14000760 12192320 12402180 10942500
765.61 10807190 13246050 10822720 9476548 9751926 10376530
768.50 11070700 12498540 9442352 9920566 9871110 9531716
771.39 9706910 9726958 9664398 9129558 8344470 9908560
774.28 10188010 8730406 7938316 9444926 9336782 11691490
777.18 7417578 10143670 8802032 9816872 8486872 10452220
780.07 9288306 9311798 10508080 10000440 9027394 10006420
782.96 12061730 10571450 11120280 8006398 8384232 8520116
785.86 9605854 10151260 9337598 8370106 10761330 11504180
788.75 11375180 12251280 11182420 11777760 11812190 11817590
791.64 11800300 14428300 16140590 13417740 11803230 12133970
794.53 14192640 13769620 12236190 12385000 14055020 11686160
797.43 12973650 14225630 14119760 14619870 16961350 13268250
800.32 13773520 14216160 14626090 17037130 14505380 16094980
803.21 15077440 14430560 13687070 17792750 16232660 17943900
806.10 16528450 15649190 14292070 16045250 16094850 16197740
809.00 18687430 15853350 16803950 16410920 16181770 15368360
811.89 18352330 19604200 19085120 16196760 19141910 19177260
814.78 18518230 18458780 17389530 19554500 19300200 17519690
817.68 20186000 19615040 22646050 22113500 22935980 20594750
820.57 20402180 21372440 19621190 23039860 22493860 24894670
823.46 23966470 22414430 24809360 26664700 27843820 27730220
826.35 29533050 27689840 29188790 29521850 30906780 32958120
829.25 30273690 30679710 34511770 36436340 35662280 36431940
832.14 38078440 39462050 41828000 40590010 41112600 42394290
835.03 45745560 45756600 46567060 49092020 49050100 50857780
837.92 50004000 50732580 49507390 53210290 53985700 53120820
840.82 53996910 54223340 55075540 54185580 52933800 52055200
843.71 52205150 52780010 52534270 51784120 52140120 51810480
846.60 53751440 53098040 52149340 55904600 53933800 55779810
849.50 55015260 54659740 56034770 56127170 56526040 56682410
852.39 55585100 55285900 55175690 54110680 51960150 53016600
855.28 52219230 49583530 49983620 50248950 47417790 47301050
858.17 46993880 45567450 44498270 43456220 43369850 41001840
861.07 41389590 39396030 39332860 38098470 37302260 35668540
863.96 35659910 33747640 33712300 32919040 31889260 32404190
866.85 28897970 29083390 29175030 28873280 27998700 27336990
869.74 27228060 26659150 27439090 25441350 25103540 23996430
872.64 26278730 23275940 24933690 23314080 21976860 23716410
875.53 24188490 22883750 22035210 20946380 20789010 21495300
878.42 23572540 22471610 20118750 20771610 22731600 20108560
881.31 20881930 20089770 20799150 20479310 20413370 20486320
884.21 20949310 21341650 20922510 21847510 21756240 22170060
887.10 23000370 22265300 22939050 24277020 22773340 23176380
889.99 24493070 25569140 25304930 25921360 26239740 27331410
892.89 27251830 28714790 28292280 27741510 26569380 28364480
895.78 28960590 27813750 28311000 28159110 28617170 28952890
898.67 27990530 27975670 29274560 29866930 28331560 28818090
901.56 29140840 30200140 30141210 30880310 30149880 31149510
904.46 30951410 31117600 32412900 33917120 33449060 32864810
907.35 33421710 31695910 33697880 32752980 33354630 32981960
910.24 31190020 32264310 31451800 33269960 32605090 31164480
913.13 31777940 30178400 31046420 30843630 33433580 30515310
916.03 31958890 30750180 32628720 32243510 34215790 33319160
918.92 34950450 34214130 35684330 35765620 38359930 37689960
921.81 38997540 39789060 40336280 42471210 43116340 42323670
924.71 45166510 45445300 47215040 48727080 50192220 51923410
927.60 52986000 52886410 55721440 57221520 58048820 60130200
930.49 61256580 62671530 65936320 67315860 68292060 69448630
933.38 71628020 74660610 75790380 75718030 77512820 81069470
936.28 81992030 84276120 86442110 88899260 89869260 92245840
939.17 94927090 96948070 98384940 98582880 101720300 104839600
942.06 105781200 106887500 106720300 107516600 109892800 110244700
944.95 113971700 114944400 115345800 115205800 116354700 115658000
947.85 116134600 118206300 118028600 118120400 120914400 122110500
950.74 122159900 122057800 121345900 120715500 121636500 122572700
953.63 122784400 122488900 121968500 122155100 121045300 120009900
956.53 119673400 118131200 119222500 117872000 117784600 116735600
959.42 115495800 116376500 114664200 114070300 110516400 111925000
962.31 110311600 108411000 108304100 106775100 105847400 103550200
965.20 103197000 101260900 100249000 99613870 97608870 97780900
968.10 95561770 95086420 93339220 92788990 91888460 89585210
970.99 89322480 88633080 88311340 87790020 87909350 88208000
973.88 88074840 87603850 86748860 87862970 87484410 87370550
976.77 89712540 90151190 90049970 91877620 91995870 94587980
979.67 95276860 95757440 96569740 97658070 98157680 99311980
982.56 99994760 101031900 101289000 102543600 102115700 102777300
985.45 101244300 101580000 100907300 98360940 99416420 98626710
988.35 100066800 101703700 102017500 103748200 106804700 112186800
991.24 110496300 109874600 113263900 115203900 118966300 122064200
994.13 126197800 127075400 130705300 130540900 132112600 132206800
997.02 133453700 134553000 133970800 133565200 134407400 134106900
999.92 134286700 132834000 132621500 134179000 134015900 136013600
1002.81 136055800 138282400 140306400 142016600 142506600 144957600
1005.70 147485500 148362500 152245200 154917300 156647000 158942000
1008.59 159856300 160964800 164212600 166581900 171367800 173091200
1011.49 176830300 179768300 182278600 184129500 187803200 191268500
1014.38 193846100 199470600 200381700 205126200 207896800 211236500
1017.27 213957200 217920600 222819200 226885100 230426800 235565800
1020.17 238747600 243709000 247901300 252461400 257331600 259172500
1023.06 264444300 267155600 269924600 273716600 276767000 280613900
1025.95 282672900 285646800 288978600 294346600 297809900 302049600
1028.84 308549300 314479000 317894100 323033200 328020500 334331700
1031.74 343613900 352070500 357185300 365337400 373985800 379466800
1034.63 388309200 397272400 405240600 412926200 417493400 425924300
1037.52 429086100 433712400 436956800 439013800 445352400 445535300
1040.41 447782400 448842600 450503400 450188600 447101400 446940500
1043.31 442361900 442861700 442084600 442608000 444557200 440152900
1046.20 437922300 436428900 435300000 438538300 440569700 444441300
1049.09 444874200 448301600 448113500 450126400 453017400 454071100
1051.99 456924200 462242400 465331600 468254500 471289600 473702200
1054.88 474804900 473246400 471780000 471241100 467488100 464241100
1057.77 460538100 458731500 457130800 451742100 451086600 451754100
1060.66 449149200 449462500 449153400 449396500 448496500 453028800
1063.56 454457500 461677200 466651700 466597700 465435900 465307500
1066.45 467943300 472207700 475600800 481663700 484612300 487091900
1069.34 485862700 486383300 485006800 482309700 481168200 477572800
1072.23 472347600 466750300 463385500 456976600 454272100 453234100
1075.13 450933200 449052400 447478700 444349600 441498400 439376000
1078.02 439543600 431095900 429114400 421792600 412298800 401662200
1080.91 392540600 385126500 378100600 368977300 360192600 352977200
1083.81 345731600 336237100 328263100 322156400 310641900 304496900
1086.70 296470800 286722300 278008500 270708500 264117900 259418500
1089.59 249864200 242804100 236269200 232160500 227158500 222305500
1092.48 216466700 209578800 205022300 201598900 195363400 192210600
1095.38 188109200 183829600 180073900 176470400 172577300 168442500
1098.27 164000300 159317200 157872400 155292700 151083900 148081000
1101.16 143587600 140325200 137446800 133209000 130295800 127378200
1104.05 125345700 122849100 119245000 114458200 113628200 111792800
1106.95 109763000 107836000 104632000 103368600 100690100 99526180
1109.84 98493950 97011980 96339840 95657930 92665170 91425020
1112.73 90089340 88824060 86961590 85066960 85391780 83424050
1115.63 82536210 80081660 79995770 78906990 77088140 76508730
1118.52 76424970 73085700 73351890 71125700 69763220 70113590
1121.41 67603440 67432070 66213480 65393480 63905920 63174430
1124.30 63069530 61505160 60190110 59677520 58904840 58780640
1127.20 57839580 56348770 56884520 55654580 54612940 53087400
1130.09 52679160 52037760 51782800 49471540 50063400 48908420
1132.98 48330790 49083090 47249600 46942420 46053860 45606930
1135.87 45916970 44493590 44532320 43885260 43591080 42563780
1138.77 42344020 42247700 41821030 41314800 40817940 40104570
1141.66 40420020 40147680 39754430 38758850 38503900 38461050
1144.55 38728030 38804000 37277720 38125130 38249640 37526500
1147.45 37689380 38355920 36758060 37892180 38388890 37069920
1150.34 37917170 37077730 35515260 37080940 37715770 36981210
1153.23 36407100 36726170 37518950 37707820 36378490 37981860
1156.12 37857260 36609540 37411430 37471720 37074960 39064330
1159.02 38510040 37825470 37797260 39137680 39122660 39691320
1161.91 39342680 40018340 39801350 39757780 40616400 40411100
1164.80 40345950 42456440 41715320 42505360 42977650 42892380
1167.69 42474240 44284140 43346770 43685550 45612080 45507170
1170.59 45426360 45987700 46015860 47300170 47756020 47463220
1173.48 49218460 49166310 49570750 50229540 50519480 51556060
1176.37 53109690 51750550 53966340 54687380 54546600 54825090
1179.26 56286510 56149820 56597620 57618590 58998710 59682320
1182.16 60761700 60180610 61093830 62602680 63490350 63712000
1185.05 64880790 65677230 65922400 67291570 68616740 69681180
1187.94 70106450 71076970 72170630 74207780 74077450 76504360
1190.84 77494780 78199910 78847200 80238020 79974750 81740980
1193.73 83018440 82523380 84995300 86102380 87070700 86968120
1196.62 88767860 89729490 90273140 91627480 91265540 92300490
1199.51 93291220 92894880 95515250 96352210 97120310 97079270
1202.41 97620000 99599660 99477390 100659600 101155900 102659200
1205.30 102866600 102530200 104609300 104585100 104598900 106670100
1208.19 107568800 106999200 107022500 107979800 107511700 107870100
1211.08 108405400 108157600 108761600 108536000 108952000 107599800
1213.98 108321500 108639400 108859300 107524900 108019600 107772600
1216.87 107069400 107332600 107306200 105487700 105742100 105189400
1219.76 103684200 102976500 102510100 101901400 101241500 99734070
1222.66 99072120 97472600 98997350 97401850 97508010 95892140
1225.55 95977740 95031550 94552380 94336750 92738400 91173790
1228.44 90926420 89722100 89542340 87310310 86740110 86050020
1231.33 84706150 83751900 83235410 81070470 81362720 80334960
1234.23 80023700 78334540 78021920 76961670 76622430 75928700
1237.12 75387980 75063310 74956240 73775440 73698290 74178920
1240.01 73525820 72521260 72549420 72722700 71702550 72405060
1242.90 71557340 71520860 70819410 71309950 70869620 71290300
1245.80 71313980 70904780 70129860 71236830 71111260 70154590
1248.69 69744200 71890460 72444230 71523830 71061420 72031000
1251.58 71283020 72335030 72605300 72051300 72766390 73676100
1254.48 73713810 73509730 73008140 74262820 74243650 74908910
1257.37 74027340 74999580 75900080 76612490 76296580 76240460
1260.26 76832260 77154540 77437810 77389180 78189860 78825210
1263.15 78427010 79216050 79648100 80803220 80018020 81570140
1266.05 81510100 81612140 82320320 81772300 80789920 81644210
1268.94 81376350 82068710 81880570 82256460 82944610 83222610
1271.83 83055280 82795470 83214220 83366460 83875660 84214040
1274.72 85407160 84932650 84614980 85494950 85516850 85491650
1277.62 84663920 84578620 84264710 84617990 84903450 84939490
1280.51 83661320 84408700 83536470 82790080 83457080 83117460
1283.40 82806240 82077300 82313060 80989680 81144050 79995860
1286.30 80454780 80456050 79366700 79558440 79561130 78453600
1289.19 77335180 77062650 78228540 77151020 76876460 75676420
1292.08 74755210 74499040 74138660 72647890 72472340 71365920
1294.97 71709570 70497300 69438800 68862610 68735180 67481400
1297.87 67641210 67374140 66329040 65405900 64591540 64600640
1300.76 63114220 63719640 62330600 61754600 61119730 61111360
1303.65 59749380 59167570 59251490 58734280 58291370 58272170
1306.54 58287090 57480540 57772540 56971890 56732610 57216460
1309.44 57019900 56099580 56323670 55853170 55330100 55475940
1312.33 55189570 55068140 56042820 54432160 53961740 53766140
1315.22 54611900 54226820 54002260 55379400 54513840 54104610
1318.12 53924730 54412480 53545740 54707270 54048510 54877630
1321.01 54156030 54948290 55433210 55565900 55883820 55913760
1323.90 56053750 56673570 57197880 56716880 57571730 58397810
1326.79 58759370 60131590 58723300 59574140 60561800 62854760
1329.69 62386900 63543760 64892190 65281770 66408640 66802280
1332.58 67656810 67327510 69137400 69019620 70192800 71152470
1335.47 71562550 71406110 72521760 72559960 72924800 73235450
1338.36 72576980 73574520 74192020 73508100 74019420 74847800
1341.26 73588710 74552400 75090060 74890000 75258110 73988130
1344.15 76476020 75899120 74271470 75314950 75067450 74892310
1347.04 74970690 76240110 75435190 75600720 75077980 75787140
1349.94 75014380 75437070 75423860 75517150 75662610 75599580
1352.83 75062930 75215210 75976280 74131270 75128420 73296900
1355.72 76579120 75017000 73752350 75435310 74311370 74105010
1358.61 75805950 75440590 74962860 75821880 77220970 76825720
1361.51 76745020 77889750 79012780 78613310 80722210 82808530
1364.40 83071840 84555680 86171310 87693340 89955580 91875290
1367.29 92968280 96673680 98601900 100742100 103554100 106901200
1370.18 108360800 112885400 115491800 117442100 122297300 125256500
1373.08 129246400 133370700 136239100 139266400 142816200 145158000
1375.97 148753000 152551700 155122900 156234400 160113600 161933100
1378.86 164482000 165816300 167202300 167800000 169020400 169888400
1381.76 171662000 174622900 177105900 182095600 186887000 190051300
1384.65 191022000 190718600 187730700 186476500 186352300 190717200
1387.54 191624800 194256200 196418000 199145100 200744600 201321700
1390.43 201415600 200690200 199243500 195956400 192847300 192319300
1393.33 189472200 187242400 181918900 178108900 175169100 169487500
1396.22 164988600 161790300 160542300 156744600 154122100 153460500
1399.11 148414300 145838300 142616300 139650800 136062000 132507200
1402.00 129151300 126718800 123254900 119088300 116284000 113199200
1404.90 108363300 104866800 102015300 98320020 95343860 92814860
1407.79 90473610 86472060 84119900 82589470 80462590 77743220
1410.68 76667020 73958590 72408220 70495110 69207540 67278990
1413.58 66017970 64588360 64464590 62427760 62003490 60660560
1416.47 59788210 59685200 57368270 57351840 57382950 60008450
1419.36 57169650 55330240 54848170 54250460 53475710 53491710
1422.25 54333500 53869730 53354830 52847370 52420030 53535830
1425.15 53154310 53156520 53339120 53955710 54267460 55265520
1428.04 55721540 55445560 55883930 57578010 56530330 57898350
1430.93 58366090 59455580 59995940 60709500 60714300 61287220
1433.82 61122240 61732890 62362000 62660020 63171920 68273970
1436.72 67274130 68026640 70844000 70953740 71374680 72502160
1439.61 72274960 73235250 75856990 77113770 78733240 80504900
1442.50 82984450 84322380 86621130 89250500 90232490 92250310
1445.40 94021460 94753310 96458890 97345270 99803350 99760900
1448.29 101605700 102430100 104838900 104832100 106526100 107667500
1451.18 108949600 110373600 111205300 114096700 113903300 115710400
1454.07 116371100 118215200 119106100 119116200 123380800 126954300
1456.97 122143500 123768000 125775600 126941600 128946400 129724800
1459.86 132081200 133516200 135959600 137398100 137581900 139068800
1462.75 140398600 142292500 143239400 146471000 147173600 142756000
1465.64 142247900 141062200 139837700 138936700 138062000 136751800
1468.54 135383600 132554100 131326500 130890100 129934000 129909400
1471.43 132615700 132399100 133161700 134828200 131465300 128316800
1474.32 128863200 126962200 128496700 129293400 127364000 127052700
1477.21 126737500 124125900 123018900 120984000 119083800 117232400
1480.11 115267500 113081200 111319600 109106600 108052700 106322000
1483.00 103373000 100962600 98840050 97138650 94688630 93070420
1485.89 90947920 88474030 87813080 84784360 82533410 81007640
1488.79 77616010 76836820 74892730 74022120 70395140 67682300
1491.68 66342440 63163960 60959700 59518910 57590380 55628600
1494.57 53823450 51776510 53111460 50479190 46116360 44926980
1497.46 42998300 42276980 41149580 38365000 36887380 35316730
1500.36 33697180 32812680 31914160 30188330 28394840 27910550
1503.25 27409930 26512700 23975050 25581620 29346900 22271310
1506.14 24095170 26439320 20755450 19836630 20303340 18960540
1509.03 18529660 18193620 16572680 16037410 14968870 15936260
1511.93 16002350 13643240 14461250 13198340 13162600 12955120
1514.82 13650480 12616680 13025710 12403730 12997300 12610190
1517.71 10977290 11067710 10665280 10674550 12036050 10377620
1520.61 14131330 12500270 8562980 11996130 10410420 9163022
1523.50 9203224 9557826 9094598 11570450 9141408 8849398
1526.39 8233506 9722644 7948312 8771356 9292138 7959758
1529.28 7927276 7676566 8674026 7889800 8362202 7816058
1532.18 7392662 8529996 9154240 9909390 7211764 7109210
1535.07 7478252 8520056 7603288 8024444 6719630 8025432
1537.96 7397384 13527370 9217082 8418194 12172710 7259318
1540.85 6887752 9346600 9944904 6753410 8143374 7346104
1543.75 6930422 7282346 8894154 6550538 6971884 6760786
1546.64 7647286 6508518 6734978 7268242 7002310 6749668
1549.53 7814178 6926638 6531242 6357790 5925234 5885232
1552.43 6636822 6033750 7126904 9504870 6395334 6650966
1555.32 5985596 7141060 5886326 8943550 8188116 9986722
1558.21 11905290 6119406 8588184 12121850 8564952 5383728
1561.10 6547086 5479422 6750026 5587716 6195562 5990294
1564.00 6126650 6024302 6005716 5620196 6145876 6396936
1566.89 6025462 6608758 5647946 6222572 6530676 8398744
1569.78 5864026 5244890 5600294 4903206 5899136 5435270
1572.67 6017600 5641190 6236244 5521606 6074772 5065888
1575.57 11748250 8486732 5121380 5588260 5137118 4886710
1578.46 5494094 4928180 5416522 5439880 5048532 5504386
1581.35 5097282 4550576 5016030 4811976 5825254 5486020
1584.25 4771738 5261198 4668382 4880194 4351268 5212948
1587.14 4550632 5224506 4751006 5231274 5402370 4708700
1590.03 5295302 4614428 4408208 5160848 4600250 4878372
1592.92 4105546 5264654 5265336 5069046 5027684 4574778
1595.82 4753050 4817118 4386830 4943978 5053816 4082978
1598.71 4998658 4680664 5059622 4877884 4695860 4328810
1601.60 4266472 4304302 5098296 4003938 5352258 4827924
1604.49 5079504 4275206 4474560 3913332 5124444 4840016
1607.39 4654056 4695852 3871898 3938858 5075362 4292214
1610.28 4861684 4591798 4726326 4020908 4781126 3512450
1613.17 4468240 3677464 4928156 4000562 5008858 4556434
1616.07 10118520 7142774 4290264 4975914 4387720 4109278
1618.96 4408748 4462156 4225288 4244586 4469360 3738080
1621.85 5083970 4162170 5936004 5879944 3438510 4152582
1624.74 4277942 4377680 3736702 4620238 3949890 5152676
1627.64 3852780 4590550 4146232 4599482 4867032 3771168
1630.53 3276894 4707612 4194682 4247394 3742550 3847304
1633.42 2424586 4140222 5614246 7075778 7687440 3541592
1636.31 3994890 4172350 4504326 3607778 3622180 3593624
1639.21 4079366 3424256 4578186 4095550 3177768 3986794
1642.10 4240940 3880452 4067304 3416250 3942358 3431408
1644.99 4764090 7965302 4789530 3455104 5643622 3688714
1647.89 5215244 3683126 4732592 3983650 4393792 2987058
1650.78 5062494 2681740 10817700 7263382 10781980 6070282
1653.67 3947174 6543216 3765812 3882400 3593586 4218558
1656.56 3105340 3930208 2432388 3849110 3653834 3632008
1659.46 3933536 3863884 3242592 3904492 3448462 4309014
1662.35 5142400 3618028 3799128 3431282 3518338 3626618
1665.24 3789520 3525576 3598414 3083542 3390936 4385224
1668.13 3521862 5043310 4685760 3905662 3215644 3453216
1671.03 4421330 3723692 4269406 3262288 3429018 3272888
1673.92 3101340 4565242 6747048 4790524 3347494 3895134
1676.81 3498144 3263852 3612574 4525280 3562430 3963976
1679.71 4104394 3762678 3141804 4080730 3905362 3817204
1682.60 5140928 5422230 4309444 8375022 10751320 2483142
1685.49 4086426 3325360 4758474 3097710 4106646 3477090
1688.38 4568780 3189656 3982152 3845248 3649240 2972406
1691.28 3830174 4195652 4167926 2886494 3876198 3214234
1694.17 4321630 3332604 9170152 10172140 3650746 4270014
1697.06 4736708 3578784 4211710 3298312 4596808 8908428
1699.95 7140096 6607708 3820372 3652752 3126462 4207852
1702.85 3505230 2878002 4756194 4131356 3371006 3811396
1705.74 4439994 4189150 3396650 2906344 2742364 3548482
1708.63 3529854 3656724 3847700 3710950 3181940 3882896
1711.53 3083842 3417016 3805972 3444506 3795734 3124284
1714.42 4111550 5175812 2588602 3529130 2722048 9527980
1717.31 3988300 3419532 5090542 2509510 3263062 2836350
1720.20 3264086 2939064 3539292 2691782 3024340 3114946
1723.10 3429180 3179398 3166462 3162646 2486962 3398512
1725.99 3579926 3071286 3643016 3079218 3559818 2824504
1728.88 3056262 3269946 3148378 2777444 4080100 2955236
1731.77 3610114 2022400 7256028 5189622 3853560 7908740
1734.67 3113566 3068694 3186340 3812036 2791932 3969758
1737.56 2839040 3479528 2658210 4026160 4800808 3647838
1740.45 3180978 3558740 3006324 2950040 3273754 4020268
1743.34 3388472 2994674 3102470 3235726 2586026 2907472
1746.24 3820680 4102240 3116834 3716670 4225252 2955238
1749.13 3156748 2724782 3666666 5758974 5357442 2985264
1752.02 3632542 3019942 3462100 3701048 2786860 2489760
1754.92 3436364 3371512 3583012 4867858 2894872 3554176
1757.81 2701220 3149484 3116174 2959722 2140994 3848466
1760.70 2948970 4860692 4075120 2634752 3216594 2598514
1763.59 2809830 3489118 2880420 2576768 2979144 2429416
1766.49 2563120 2370800 4515706 4516656 2268988 3591758
1769.38 2812480 3104438 3386586 4516500 3014704 3417268
1772.27 6967922 2837692 2851330 2688172 2264966 2774642
1775.16 3379318 3215038 3412232 2475196 3113466 3010140
1778.06 3309162 3495544 3176622 2839168 3604422 3217986
1780.95 2722488 3207980 2771846 3287002 2780120 3118090
1783.84 1828712 4379426 3801224 3167320 2990138 3003324
1786.74 2752696 4076808 2964456 3731716 1936076 3295652
1789.63 3515636 3817512 3267200 3042186 3301204 5515410
1792.52 4782114 2710012 3499552 3175274 3396228 2603544
1795.41 3737108 3029236 3553286 3305688 3465020 3222354
1798.31 3375788 3949972 3902482 4171822 2960826 3630682
1801.20 3117516 2856122 3574434 2686344 2999022 2498152
1804.09 2534748 3320676 2819848 2844494 3725814 2757910
1806.98 3465082 3532770 3086064 3145060 2185672 2823920
1809.88 3346548 2879866 3543378 2766904 3584458 2719344
1812.77 3311064 2512526 3364102 2569160 2867212 3061822
1815.66 2054004 3153828 2686410 2704518 3049246 2543368
1818.56 2360958 2820114 2853626 2831674 2578678 2360614
1821.45 2928296 2473154 2912368 2907566 2699048 2558714
1824.34 2730528 3623726 3158964 2729254 2507634 2819680
1827.23 2500360 2142680 2100594 3753070 2973236 3913168
1830.13 2425362 2664208 2703820 2631032 2593472 2710910
1833.02 2350934 2164664 2577626 2465652 2506790 2467826
1835.91 2476054 2141958 2495118 2060380 2936118 2242380
1838.80 2531650 2470642 2813884 2952088 2323198 2536016
1841.70 2479666 3377324 2034466 2532484 5649862 3983184
1844.59 2386742 3469706 2363116 3180968 2248442 2986610
1847.48 2451370 2533448 2650070 2047910 2657126 3095020
1850.38 2678438 2627748 3441646 2127358 2362564 3157584
1853.27 2728152 2816500 2940528 3240796 2793402 2960836
1856.16 2462038 3151682 3205940 2942292 2466250 3235124
1859.05 3250326 2941656 3335392 3269778 2926196 2791078
1861.95 2690226 3058914 3071378 2838158 2183520 2898918
1864.84 3297042 3262570 3431532 3481066 3122164 3745622
1867.73 3957260 2814460 3873230 3404628 2599198 4023068
1870.62 3201026 2152770 2250950 3042210 2474518 3058928
1873.52 3088086 3622772 3037870 3429794 3160866 3230806
1876.41 2823884 2901050 2887518 2976608 2113526 3516850
1879.30 2360316 3330864 2920618 3184538 2765010 3187568
1882.20 2748680 3335948 3083756 2694928 2390964 2836928
1885.09 2538146 2761080 1971442 2866626 2733356 2294086
1887.98 2618214 2874272 3405420 3578440 3168322 2826490
1890.87 1831146 2599930 2647094 3206556 2715718 3638424
1893.77 3369288 1881638 2986918 2546276 2240132 2567482
1896.66 3382726 2922504 2368564 2182040 2867560 3100362
1899.55 3460020 2398824 3196148 2724384 3382852 2784136
1902.44 3590338 3039916 3265486 3611462 3588410 3332612
1905.34 3338148 2880910 2979152 3318878 3567084 3821014
1908.23 3618464 3910736 3858964 3607888 3623272 3718822
1911.12 3314348 3062812 3354538 4589524 3490628 3774636
1914.02 3328518 3897724 3122208 3876410 3887398 4105266
1916.91 4033380 4045406 4049382 3924610 3784472 3300292
1919.80 3694406 2653198 4665236 4094160 3607166 4192860
1922.69 4218242 4336738 4362798 4073482 3893714 3712376
1925.59 4019780 3875170 4047778 4508738 3538396 3304234
1928.48 4022178 3052518 3849532 3363888 3298220 3296680
1931.37 3391820 3195486 3774846 3109754 3107526 2762528
1934.26 2725916 3462250 3796582 3583418 2893484 2693620
1937.16 2531592 3787744 3510014 3280902 3714966 2839836
1940.05 2227626 3650122 3028384 3476416 3792660 3741616
1942.94 3124498 3559176 2950556 2915988 3209658 2997290
1945.84 2636666 3349390 3078920 2884208 3548986 2828230
1948.73 2356360 3566540 2955894 3397652 3141922 3038466
1951.62 3296366 2635400 2684998 3542046 3008138 3191668
1954.51 3415848 3081634 3526510 3002476 2343828 2928874
1957.41 2977308 3162556 3233094 2899916 3200322 3294298
1960.30 3260258 3839950 2568740 3460286 3278434 3546148
1963.19 2289114 3265058 3744976 3223546 2890772 2956954
1966.08 3556450 3351636 4205770 3239474 3467796 3665782
1968.98 3562116 3453124 3982604 3677822 3458792 4241360
1971.87 3325538 3444322 3568186 4205608 3765032 3820954
1974.76 3550264 3774588 4125422 3680502 3574660 3423780
1977.66 3613914 3852934 3584490 4240980 4041330 4069276
1980.55 3846002 3782156 3410808 3429998 3552604 3575258
1983.44 4401136 3800210 4633746 4011758 3343014 4043854
1986.33 3951190 3474764 3657652 4167460 3620754 3870852
1989.23 3849778 3800536 3305858 3693648 4015492 4338614
1992.12 4040708 3271256 3804232 3630016 3708866 3575276
1995.01 3166474 3795284 4368494 3512402 3611256 3547354
1997.90 3407686 3503978 3814902 3746908 4059700 4736716
2000.80 3792302 3415272 3048266 4294834 3877454 4571900
2003.69 4133920 4032458 4169508 3538244 3981354 4487862
2006.58 4280262 3632070 4229042 3830472 4307966 3905132
2009.48 4378366 5283896 4568246 4313190 4367014 5318506
2012.37 4874132 4679724 4888946 4814726 4620356 5162754
2015.26 4745388 5230130 5700978 5372278 5377594 5866654
2018.15 5491152 6148156 5716366 5628414 5538666 6012024
2021.05 6045486 5876934 5860526 6933814 6235708 6790566
2023.94 6690262 6306006 6169764 6705816 7146744 6990222
2026.83 7014824 6625020 7207896 6862848 6296548 6823368
2029.72 7553550 8328306 7727920 7010078 7221406 7107768
2032.62 7719256 8139384 6471430 7357386 7626380 7154168
2035.51 7382820 7891262 7727098 7938900 7629616 7750608
2038.40 7963206 7933780 8155396 7288670 7707376 7548632
2041.29 7426626 7862554 7196032 6887022 7583452 7040032
2044.19 6558678 7405368 6286834 7064900 6533550 6287284
2047.08 6253028 5779884 6899100 6564922 6420378 6311612
2049.97 5880358 5784944 6374846 5349196 5853434 5594414
2052.87 5325964 5798392 5797724 5230576 5144050 5550760
2055.76 5042410 5354712 4699152 4796828 4284608 4735336
2058.65 4794250 4860130 4209746 4352634 4808610 4332400
2061.54 4410994 3969850 3455208 3730196 3269280 4243150
2064.44 3945934 3697778 4455522 4031924 3826484 4386890
2067.33 3486752 3709010 4127864 3630434 3943326 4073002
2070.22 4148818 4005592 3920772 3880090 3330374 3338918
2073.11 3425780 4099772 4259906 3686184 4368630 3221512
2076.01 3463504 3500322 3272792 3919860 3649406 3789990
2078.90 3843866 3587102 3665132 3462656 3141268 3343018
2081.79 3272842 3909166 3239668 2643274 3745026 3847574
2084.69 3795692 4081694 2666228 3497386 3222318 3685136
2087.58 3312882 4478772 3958302 2913742 2859578 3487878
2090.47 4327898 4259482 3457246 3901934 3514516 3142702
2093.36 3621430 3850450 3625116 3083884 3760660 3557738
2096.26 2686090 3735556 3131022 3051790 3677434 4310094
2099.15 3667510 3818598 3500660 3538622 3639304 3370032
2102.04 2984304 3315102 3480182 2806808 3417366 2974858
2104.93 3151340 2740078 3164038 2727960 2463324 3549674
2107.83 2995746 2891714 2779126 2701674 3183230 3057962
2110.72 2192588 2914080 2387158 2776048 2845518 2175898
2113.61 2993022 2880272 2782562 3182694 2255722 2976330
2116.51 2426724 2181524 2325288 3410626 2100880 1675858
2119.40 2481164 1830190 2495722 1869072 1890868 2120816
2122.29 2475958 2830198 2360374 1971030 2199890 2061362
2125.18 1203312 1792270 2413628 2929980 2041492 1781248
2128.08 1854964 1862138 2375384 1359976 2275880 2032362
2130.97 1974470 1749220 1362492 1917910 1877328 2757840
2133.86 2219892 1981246 2366428 2054678 2111868 1237488
2136.75 1978184 2525792 1580202 1971902 1961506 1582162
2139.65 2161634 2380354 1414402 1949352 2389586 2871216
2142.54 1961942 2201890 2171144 1757086 2104630 2414952
2145.43 2427330 1524834 2279272 2266342 2161976 2351392
2148.33 2421274 2048354 2091848 2025178 2347796 2147600
2151.22 2060472 2030688 2386150 2466764 2256800 2081146
2154.11 2481370 3135694 2200308 2852416 2020180 2388418
2157.00 2279522 2056208 2779860 2590560 2706914 1972738
2159.90 2335492 3073742 2887488 2908770 2919116 2581830
2162.79 3101012 2436190 2611644 2637692 2256540 2987770
2165.68 2537086 3066578 3147310 3278246 2541792 3175740
2168.57 2922144 3059584 3035992 3812636 3434244 3435080
2171.47 3485608 3149254 3710052 3566794 3316622 2852474
2174.36 3403632 3168716 3334532 4274016 4023736 4108650
2177.25 3788782 3838240 3454030 3870858 3575830 3288982
2180.15 3513910 4015006 3096324 3506838 3253628 4027088
2183.04 4532388 4150824 4441072 3626842 3904798 3313596
2185.93 3662656 4488438 3880062 4126584 3902072 3715578
2188.82 4080058 3456396 4777424 2642848 3623978 3960396
2191.72 4097942 3537590 4158940 4417656 3920964 3348558
2194.61 3641806 3634630 3769250 3064150 3870450 3576916
2197.50 4154488 3613434 3577794 3522416 4108974 3864770
2200.39 4053218 3974140 3811524 3370630 3185074 3963714
2203.29 3321132 4162438 3623612 3163766 3958780 3899276
2206.18 3823236 3819686 3728244 3600934 3570666 2818236
2209.07 3695350 3898948 3875442 3311466 3719666 2778406
2211.97 3938092 3427734 3653162 3716150 3849324 3132676
2214.86 4250562 3496546 3139054 3695266 3700224 3078218
2217.75 3202114 3539070 3476016 3430148 3194302 3516058
2220.64 3410854 3833278 3450732 4172560 3358838 2854016
2223.54 3129612 3709994 2933334 2775464 3214776 3510926
2226.43 3346528 3995738 2713686 3192990 3420620 3268194
2229.32 3279536 3121958 3015696 3168076 3234968 3268804
2232.21 3605206 3650732 3710756 3055398 2853616 3163114
2235.11 2812674 2736280 3382042 3676444 3071634 2629030
2238.00 3171624 3410732 3286952 3581000 3430484 3509054
2240.89 3973448 3203602 3068258 3632042 3570334 3277602
2243.79 3217348 2722828 3347632 3156780 3389452 3402910
2246.68 3582608 3708172 3200018 4022948 2922432 3581326
2249.57 2903836 3061300 3522830 3737674 3926744 4014928
2252.46 3170906 3188588 3696674 2874130 3527058 3351524
2255.36 2972704 3105634 3717800 3921236 4116796 3355650
2258.25 3563200 3698728 4189510 4083544 4007586 3681132
2261.14 3982600 4028762 4119880 3717414 3741346 4024226
2264.03 3818840 4250696 4058348 3782110 4164812 3710742
2266.93 3097514 4008984 4060766 4622790 4166554 4217960
2269.82 4210660 4500406 4378866 4570790 4204856 4329294
2272.71 4126490 4193624 5111578 4380378 4792192 4974270
2275.61 5016894 4060310 4995436 3925686 4168438 4739442
2278.50 4174828 3869694 4255158 4241850 5601562 4454822
2281.39 5301310 4387302 4500608 4572368 4539836 4540518
2284.28 4957274 4876738 4601912 4277748 5336224 4381670
2287.18 5222774 4406672 4942364 4849256 4994152 4735932
2290.07 4515410 5701684 4702604 4354368 4902770 4732640
2292.96 4444914 4682372 5093280 5076896 5316042 5341520
2295.85 4143378 4020486 4995190 5722982 5514662 4769972
2298.75 4412204 4745838 4969800 4857488 5399210 4770392
2301.64 4708652 4728008 5168944 4832442 5851300 5240448
2304.53 5601838 5276576 5319048 4927210 5058828 4984346
2307.43 4662676 5398912 6180508 5579228 5601126 6355390
2310.32 4706314 5487080 5140540 5782068 5393944 6142172
2313.21 5115652 6096410 6022924 6188504 6105754 4897044
2316.10 4857990 5491310 6405036 5341872 4786538 6517002
2319.00 5707762 6259724 5366146 7679354 5824122 5283636
2321.89 5683142 6885098 5915562 5757286 6200890 6452632
2324.78 7456068 5629950 5161366 8037948 7004132 4511096
2327.67 6345184 8431692 6501376 4831070 6729842 8201778
2330.57 6381796 5021572 7217466 8356946 5403736 5701934
2333.46 8178440 7420638 5207540 5948326 8278308 6486512
2336.35 4926214 6605036 8173536 5205184 5469608 7609296
2339.24 6622768 4814954 6658304 7802522 5527468 4851552
2342.14 7703184 5816638 4692622 6507162 6643464 6010544
2345.03 6529660 6278892 5211502 5203958 5502216 5094784
2347.92 4410062 5197752 4493330 5365440 4515772 4950338
2350.82 6142168 5256620 4600612 6458702 5959716 3509430
2353.71 6643062 6319926 4234932 6354948 6648742 4478802
2356.60 7095644 6635198 5070804 7439046 6958486 4986720
2359.49 8572352 6325228 4593636 7945890 5503918 5604330
2362.39 8357322 3696184 6696650 7920896 3783246 7987342
2365.28 5621118 5812592 7632880 4012146 7675828 6067276
2368.17 5255388 7623050 5002046 6957376 6158922 5205078
2371.06 6095324 5497098 6303428 5688456 6048462 5853156
2373.96 6242746 6424768 5452052 6622618 5128614 5288726
2376.85 5189350 5767494 4829258 5999344 6110340 6038530
2379.74 6090880 5769470 6088366 6386096 6105666 6536584
2382.64 5982112 5550342 5697360 5670888 6233958 6417408
2385.53 6567374 5732544 6553752 6771956 7052532 5796166
2388.42 6299094 6720816 6223636 5922740 5779998 6644228
2391.31 5721760 5915158 6887466 6055168 6137318 6387186
2394.21 7191050 6227530 6560832 7265598 6294980 6260478
2397.10 6232222 6040772 6773514 7401526 6797816 7619570
2399.99 7075190 6514292 7082352 7560688 7120766 6552242
2402.88 7216636 7947604 7563386 7430310 7289534 7599868
2405.78 7405026 7455264 7036436 7789960 7439342 7203916
2408.67 7433720 7672450 7506306 7587718 7393814 8042314
2411.56 7360454 7950448 6821902 8203856 7093860 8033178
2414.46 7561848 7940306 7639090 7873142 8412892 7749830
2417.35 8209884 8220040 7670588 8218942 7938054 8274474
2420.24 7317598 7527968 7225968 7709786 7568944 7926778
2423.13 7546900 7812314 7683708 7440082 7695752 7066342
2426.03 7169878 7416328 7304876 6939950 7276982 6911562
2428.92 6411050 7053284 7342932 6539416 5631666 7419068
2431.81 7253698 7334168 6544596 7183018 6877688 6213680
2434.70 6077822 5919016 6188926 6491890 6374364 6476796
2437.60 6501138 5900524 6041178 5699872 6258334 6220372
2440.49 6691680 7268670 6043998 6392392 5931886 6552434
2443.38 6087368 5572656 6236134 5970690 5327992 5874182
2446.28 5860782 5905386 5101326 4767646 5569744 4989942
2449.17 6221396 5411930 5709532 4939470 5291354 6222676
2452.06 5801958 5854128 5152464 5771466 4657790 4405148
2454.95 5829316 5454388 4775024 5261960 4842668 4668954
2457.85 4741710 4277422 5139236 4885850 3746724 5513382
2460.74 5449778 5607380 5198120 4766520 4064356 4014904
2463.63 4244134 4902616 4509942 5002852 4687576 4872660
2466.52 5138650 4253580 5032472 5070156 4834810 3784402
2469.42 4378474 5008708 4306596 3984986 4824252 4552200
2472.31 4372088 3614354 3387322 4550126 3910400 4680924
2475.20 4789282 4399644 3982296 4534096 3958324 4674056
2478.10 3995950 3976294 4254562 3997164 4129270 3692392
2480.99 5163710 4272934 4282492 4815330 4020614 3941874
2483.88 3723118 3872534 4461668 4358646 4071532 3264404
2486.77 4812756 3022880 3870148 5066570 4695858 4020028
2489.67 3309482 4158902 4913504 3621914 4653090 3673238
2492.56 5072196 5208108 4804376 4038836 4718774 3910258
2495.45 3688156 4367338 5036368 3936864 4476876 4379142
2498.34 4651106 3949190 3983890 4745644 4615544 4303262
2501.24 3044880 4051868 3912264 4725570 3876124 3829292
2504.13 4366802 4469180 5078618 4687574 3974842 4525882
2507.02 4413814 4709266 4061758 4322306 4238626 4818270
2509.92 4452442 4005418 3664436 4499288 4838884 4097946
2512.81 5084540 4206514 5498966 4882274 4312458 3514110
2515.70 6131742 3934730 4419004 4725588 3370946 3642868
2518.59 4420570 4361142 4460224 4305614 4870534 4936228
2521.49 4348784 5008018 3910008 4477476 4877684 4377572
2524.38 4743746 5173676 4766830 3912068 4956538 4607832
2527.27 4233378 4165454 4564178 4673910 4618804 5629632
2530.16 5107328 4668758 4195864 4442988 5299056 4937856
2533.06 4356640 4538090 5321614 5206120 4418286 3864760
2535.95 5009384 5232752 4767708 5224416 5224524 5127466
2538.84 4479846 4192788 4312590 4230672 4566298 4758992
2541.74 5758572 4753830 5112680 4913236 5622430 4134048
2544.63 5685276 4682234 4688042 4922460 5150998 4951910
2547.52 4758712 5428148 4830518 4759248 5402246 5150560
2550.41 4772946 4919784 5794978 5768358 4837838 5091246
2553.31 5091360 5202760 5575958 5100422 5435984 5304760
2556.20 5405038 5675410 5672026 5136530 4475640 5312794
2559.09 5351932 4966004 5445500 4961064 4806414 5039540
2561.98 5141786 5834808 5326924 5999218 5667968 4969236
2564.88 5698172 5531944 6055388 5314792 6311382 5136468
2567.77 5031404 6513116 5684574 6212034 6596272 5444668
2570.66 6332778 6164770 4971000 5497764 6538946 6016290
2573.56 5928446 5636476 6079152 6054304 5634894 7515918
2576.45 6107510 6355418 7156560 6493350 6746204 6285246
2579.34 6334490 6424434 6769364 7617652 7275848 6362326
2582.23 5279728 7337226 7212948 7554348 6556096 6071480
2585.13 6695732 6463530 7129108 7293590 7819046 6567884
2588.02 8136936 7561046 8283964 7406170 7732278 5844096
2590.91 7383048 8297568 7166598 7985228 6577968 8437416
2593.80 8604504 7177234 8141172 7528356 8507568 7440830
2596.70 8544352 8354856 8315084 8170500 8571178 7751030
2599.59 7890952 8285546 8671846 8859062 7950902 8466402
2602.48 8522470 8000586 8355256 7725750 8232308 8554276
2605.37 8493604 8341558 8592690 8495452 9013564 8880240
2608.27 9027034 8106970 9348852 8219356 8462416 9755150
2611.16 9037744 8631568 10276550 8742752 9838082 9429862
2614.05 9230236 9032262 8797684 9382622 9964054 9418198
2616.95 9199164 9675428 9904210 9952116 9231666 8740090
2619.84 9428778 10229130 9166866 10522910 9541726 9252836
2622.73 9536432 10234350 9660186 10409640 9139524 9804090
2625.62 10234270 10294110 10121940 9547238 10361150 9989416
2628.52 10553650 10784870 10338840 10439180 10510570 10839390
2631.41 10039310 10272660 11454980 9440396 10540580 10439260
2634.30 11926120 11049670 10680470 9831782 9857474 10656710
2637.19 11117950 10358190 11074260 10733630 11067980 10629550
2640.09 10918290 12446720 11836450 12937770 11168270 10956850
2642.98 11226140 12193400 11840330 11923080 11627850 10977150
2645.87 12115490 11975110 11867480 11836050 12081550 11660440
2648.77 13509700 13190040 12305960 10856050 12557810 12244420
2651.66 13320170 12189460 13064960 13036460 12718180 13363160
2654.55 13519160 13813960 13169910 12855570 12453550 13679010
2657.44 13533280 14656720 13595920 13812500 14247370 13850450
2660.34 14882860 15399280 15504280 14674010 14331930 15471640
2663.23 14078630 14723180 15930980 15061360 14814070 14943170
2666.12 16133090 16611700 15324760 15362640 15026490 16682050
2669.01 16306610 16225660 16592010 16184420 16328780 16713680
2671.91 16376830 16377060 17287770 16474520 16265820 16752030
2674.80 16713490 16792390 17561350 16760800 17704990 17656200
2677.69 17592740 17739550 18113190 17835190 18095170 16624800
2680.59 17928480 17446750 17650310 17506580 17809740 18431020
2683.48 18777980 17728060 18404750 17232400 17982690 17841950
2686.37 17391260 17471790 19037580 18726220 17832460 18503160
2689.26 18085950 18995690 18904390 18305880 19358060 18948040
2692.16 18768290 18209860 20378920 17820720 19816840 18706850
2695.05 18814220 18963240 18924960 19534110 20159810 19523600
2697.94 18106800 19232980 19074590 19356850 20057480 18921720
2700.83 20015640 20100930 19322590 18992200 18932090 20237510
2703.73 20203630 20111950 20528710 20678970 19367890 20531710
2706.62 20469090 21368420 20910940 21064720 21196200 20297660
2709.51 20215660 21337750 21762970 20596810 21430560 21440070
2712.41 22057320 22223320 23205010 22413490 23451720 22133360
2715.30 22487240 22831170 23539280 22813410 21581120 22505950
2718.19 23026500 23109710 23643710 23531810 23970250 24135570
2721.08 24077690 23681580 24252330 25558830 25020740 24356450
2723.98 25564480 24457660 25731700 24652090 26401320 26277210
2726.87 26682340 27054810 26461180 27309840 27616320 27106720
2729.76 27047400 27451110 28891040 28549380 29514540 28340290
2732.65 30252280 30517860 30394200 30523090 30800530 31749440
2735.55 32059800 31976910 32866980 33577770 32868450 31941150
2738.44 34213400 33537290 34335540 33750660 35137430 36237150
2741.33 35735710 34985310 35514490 35532600 35899440 36254020
2744.23 37007960 35653130 36198610 37111780 36745620 36969000
2747.12 36926090 37586860 37718150 38785030 37561130 38483330
2750.01 39650090 40682900 39355120 38687900 39787100 39086600
2752.90 38865780 38654420 40013860 39827300 39246120 38576530
2755.80 38305740 39165230 38199490 39257010 38163100 38909460
2758.69 36878420 39992130 39587150 39487480 39152500 39374180
2761.58 39296070 39552460 39394410 38596810 40097540 39665200
2764.47 40251140 39374240 40257480 39396960 39320280 40968450
2767.37 40896240 40054980 40661670 40169640 41510700 40547870
2770.26 41337800 41472770 41483860 41443830 41258190 41850980
2773.15 42440720 41687640 42075000 42621440 43618160 43848560
2776.05 43544580 42683920 44261590 43014720 43466270 43851940
2778.94 44283030 44035100 45204020 43835740 45150670 44938140
2781.83 45551600 45000960 45937870 45926870 47223320 47287580
2784.72 46495320 46145770 47369360 47312310 48833220 47968390
2787.62 48591450 47701470 47947140 48782810 48614560 49368320
2790.51 50079140 49785150 48879250 49368450 50128330 50252360
2793.40 49467240 48779070 49552130 49911900 51385470 48145480
2796.29 51514420 49919800 50943240 49949320 51384830 50459460
2799.19 50037390 50525010 50944570 51632300 50403510 51339030
2802.08 50730040 50247000 50266890 51605560 51008670 51511150
2804.97 52315260 51586030 52121860 49898940 53190570 53573990
2807.87 52907480 52493340 51912980 53253890 53487880 53473520
2810.76 54077900 53969940 53581270 54616490 54758600 55184930
2813.65 54873840 55950320 56632930 57005360 55948720 58920010
2816.54 58761620 58984900 59787370 60059280 60419180 59986580
2819.44 61008180 61964440 62108220 62426340 64600310 63384700
2822.33 66580170 65883230 67412220 68274090 69881180 70843120
2825.22 71168950 71490250 73750540 74605660 75542730 76986030
2828.11 78217740 80346490 81167070 82961500 85251900 86907060
2831.01 87526260 90554060 92201850 94915950 96950150 97650720
2833.90 100756000 102268400 104653900 106293300 108902800 111729500
2836.79 115049600 115904800 119360500 120591700 125277500 128387000
2839.69 132373200 135886700 139002500 142172100 147228900 149549100
2842.58 153184000 158434800 161912800 166527700 169404200 175487800
2845.47 178999200 182675000 188473600 192059100 195116500 200951700
2848.36 207578900 209249600 216093200 219392700 223632500 230071500
2851.26 234935600 239765800 242913600 248069700 254688400 259044800
2854.15 264894800 272140100 277005900 283233600 288176400 295172300
2857.04 300480600 308532100 316766400 320557700 326839100 334215500
2859.93 341845300 348030400 354447700 360521600 367626800 378787600
2862.83 384765400 390421900 399480400 407491800 416583600 422393400
2865.72 431852800 440813800 450027200 457044000 466706900 475051600
2868.61 484528500 494082000 503155400 511898300 521044200 534585800
2871.51 543301400 554932700 564786300 578596000 592107500 603569900
2874.40 617750500 631027800 646259300 658598500 673058100 684946800
2877.29 700028500 710028500 718402600 724678300 732498800 737348100
2880.18 737772600 739770000 737728500 735383600 732902300 729608400
2883.08 725910300 722488800 722314200 726171600 734737900 750974900
2885.97 760944400 746114400 730707100 722666900 722077400 720963500
2888.86 722062300 724730100 728314800 734457200 736658400 739959500
2891.75 740203500 737392400 738777900 733553300 728909800 721824600
2894.65 713223900 705456600 694582800 687512800 678884700 669628700
2897.54 661824100 654969600 648262100 637613100 632772400 627408600
2900.43 619225000 616826800 612903700 608149400 608166000 604910000
2903.32 600813500 600990700 600907800 600334300 599182700 598715900
2906.22 600668400 599353800 601881900 604187300 606961200 611471400
2909.11 613079400 619007600 621628900 626412900 629891600 632803800
2912.00 635341800 640648900 645129700 648692300 657185900 659479600
2914.90 663803600 667458200 672167200 675621300 682842900 688222600
2917.79 692616700 697793700 701844300 706900000 711602800 718244400
2920.68 727057300 733095200 739767000 746651200 754558000 759767100
2923.57 767798600 776030800 782129600 788776600 795950700 801545900
2926.47 812943900 819848400 826913300 831607700 839210000 845734800
2929.36 854792400 859835100 869903200 876980200 881211900 888675400
2932.25 898242000 907679400 913621800 925382300 934733400 944624800
2935.14 951100400 961102100 969719500 977842900 985482200 992861700
2938.04 998154000 1005221000 1008569000 1011618000 1011472000 1012536000
2940.93 1016578000 1016514000 1019978000 1022749000 1020458000 1022904000
2943.82 1021890000 1018658000 1013116000 1007017000 1002289000 995589200
2946.72 992238700 989134000 991879100 990163100 988460500 988477400
2949.61 989172900 987862100 989591300 991883300 990502200 994496700
2952.50 992723600 996807400 1001792000 1003681000 1004231000 1004566000
2955.39 1006690000 1005913000 1007384000 1007906000 1010574000 1009819000
2958.29 1015884000 1017306000 1019572000 1024178000 1029704000 1031326000
2961.18 1036589000 1044815000 1052870000 1055975000 1063462000 1068090000
2964.07 1075172000 1084477000 1097267000 1118696000 1138830000 1160645000
2966.96 1177105000 1183447000 1170641000 1142423000 1117705000 1093022000
2969.86 1071216000 1051033000 1033614000 1019951000 1002650000 991510700
2972.75 984228700 983199200 981002800 973736700 962810400 948584400
2975.64 936110600 929433300 914624600 911596400 902001200 892072500
2978.54 882537500 869543900 852538500 839777800 819351200 798106600
2981.43 772582400 750789800 724632300 699226000 672988800 647323000
2984.32 616419800 588540000 561831000 536462200 509972100 485272500
2987.21 462439700 438821100 417221300 393986800 373728800 355230400
2990.11 337028000 321348400 304903900 289288200 275333500 261430400
2993.00 249343900 237707900 226577700 212973600 201913200 192210800
2995.89 182889400 173674600 166799000 158069700 149620600 142686000
2998.78 134999600 128843800 122491400 117025600 110229700 104781400
3001.68 100785200 93866500 88988160 85858230 80221630 77089220
3004.57 73758020 71496590 67784240 64179430 62827460 58609100
3007.46 55693550 53949860 50635830 48245180 47821750 44723760
3010.36 43331600 42564860 42450220 39003630 39073770 37033360
3013.25 35181970 35576940 33904660 34379040 32716250 31450080
3016.14 30312800 30066770 30272250 28819680 27747160 28156170
3019.03 26886260 26538700 26495040 25953700 26478090 27163590
3021.93 23809220 24857880 24698850 23777340 22988870 24004000
3024.82 24055660 23089960 21916150 22547030 23356450 24934410
3027.71 22766480 20968440 21512870 21637540 21893720 22834070
3030.60 21216440 22278550 21324920 20349100 20698670 20397080
3033.50 21705760 21391440 21954840 20986890 21168740 22498110
3036.39 19706150 21297080 20336240 22145760 21216070 18954530
3039.28 19265900 21712640 20812700 21365000 20060030 20836530
3042.18 21090910 20255060 19731630 20585740 20593570 21228310
3045.07 21366470 19637980 19746860 21519190 19344530 20007540
3047.96 19558770 20191780 19013760 19590560 20323280 19790570
3050.85 19684010 18604190 19857890 20750180 18711030 20045810
3053.75 19674200 19355180 18884760 18354760 18646520 18712220
3056.64 17467330 17687360 17781780 16846640 17483510 17246410
3059.53 17685470 17523100 18856660 15420960 17682300 18094740
3062.42 16382400 15518470 17109710 16994750 16842720 17172330
3065.32 15724500 15620500 14494670 15344420 14912690 14385130
3068.21 15021980 14709170 14001950 13489070 13728750 14275580
3071.10 13806350 13510810 13054940 13819100 12538170 12924510
3074.00 13765600 12726500 11823900 13233690 12090120 12111150
3076.89 11161220 12439090 11875100 10497790 10284850 11630390
3079.78 12442240 11495620 10914430 13275300 12951590 11447700
3082.67 11102960 10949160 11665480 11242430 10955720 10151430
3085.57 12283290 11120500 10566120 10118160 10949860 9956832
3088.46 10909170 11563190 9958108 10041210 10284650 11020910
3091.35 10400740 9947580 9051394 9874982 10962010 10635020
3094.24 11183390 10469100 10299270 10543570 9579026 10051990
3097.14 10308180 9634350 10074250 9851284 9239168 10253090
3100.03 10151090 11913450 10510440 8802524 10828000 8561946
3102.92 8922336 10621010 9240054 9369296 8759460 9202728
3105.82 10132030 9786426 8570132 9546848 9589518 10223710
3108.71 8627354 10483130 8781748 7795758 10186830 8955230
3111.60 6834172 9240728 9423444 8578810 7393830 8511674
3114.49 8810650 8512914 8703852 9010906 9684280 9492408
3117.39 8938262 8815518 8225746 9792900 7958578 6939292
3120.28 9055150 9981450 9137172 8770904 9409554 9688586
3123.17 8378198 9700662 7744526 7698276 8145532 8916968
3126.06 8927702 8508484 7947164 8672714 9382152 8902778
3128.96 8704846 9192974 8907678 9013914 9330428 7173440
3131.85 8470726 10173630 8384058 8360024 9183292 8876656
3134.74 9676262 8180128 8251750 7937634 9025010 9387468
3137.64 7330108 10135700 8082172 8531114 10013670 9264948
3140.53 8946122 7842998 9612040 8031946 7801340 8728644
3143.42 7768836 9456264 10633010 9732662 7766902 8652592
3146.31 9551004 7247392 10194210 9027606 7821666 7598650
3149.21 10106170 8974912 7595860 9528164 8710030 7860562
3152.10 8598528 8952732 8343906 9533896 9062190 10155960
3154.99 8321098 8231008 9253200 9171622 8280366 8442268
3157.88 8254666 7914472 8899770 9305576 8323182 7652806
3160.78 9520998 8663802 9228286 8446682 8147210 8329256
3163.67 7792052 7135872 9114636 9389748 9920576 8336200
3166.56 8346820 9072892 8401774 8878566 8761540 8939832
3169.46 9435844 8729878 8482838 9121876 8087818 7849886
3172.35 8863962 8051990 9748678 8852846 8052618 8801894
3175.24 8316512 9014096 9139500 8009832 9390272 7918530
3178.13 7342608 9364906 10385090 8707240 8871702 8331736
3181.03 10104040 8921510 8076592 7237524 8645946 10611010
3183.92 8645812 8537224 9543644 11175570 8695028 8990150
3186.81 9394278 9059538 10314290 7970290 8974716 9225634
3189.70 10156430 9803726 9342804 11006770 10149710 8910514
3192.60 10121160 8737868 9943544 8826452 10403060 9853130
3195.49 9716698 9785366 10278150 9393754 10300540 10509520
3198.38 10062250 10175600 9634582 9767624 8591706 9271026
3201.27 9169558 9398992 9808302 8779152 7795420 9467054
3204.17 10352060 8752450 10330790 8720118 9905916 9713992
3207.06 7838548 7867906 9253094 9203694 7875394 8320394
3209.95 8658360 9270486 9912620 6879778 6799148 9302582
3212.85 9110764 8297098 8272666 6658696 8476288 9452738
3215.74 7641202 7253802 8159456 7290002 6860778 7189924
3218.63 7401386 5897396 7449450 6811228 7674072 7941244
3221.52 5860630 5576588 6263944 5480470 5563992 4351424
3224.42 6350332 5425128 6031922 5781242 6919860 5849410
3227.31 6418632 5954788 5506926 3783086 5772066 4033282
3230.20 5001112 6243194 3721550 5360226 5180444 4910048
3233.09 4875804 3374034 3798268 6055118 5460320 6447918
3235.99 3247712 5363600 5429648 4147486 2694278 3299958
3238.88 3110984 3682096 4642730 4435576 5387822 4745458
3241.77 4583536 3123252 4111616 3619278 4119886 5126000
3244.67 1883690 3422968 3819960 4762604 4570938 4921674
3247.56 3000482 3505650 1931722 3535610 3686438 2400220
3250.45 3660328 3427914 3478356 3330452 4008582 2774278
3253.34 3417620 2316434 3394898 3838848 2097202 4108290
3256.24 3932734 2790756 2629440 3184724 3526118 1843766
3259.13 3429884 2831180 2521366 3722712 3344412 4096394
3262.02 1679270 1516498 3600002 2611604 3101786 2981734
3264.91 4497144 1448736 3785164 2088682 5737786 2281860
3267.81 4409082 3361514 3127150 1720646 3778832 3878464
3270.70 1941464 1520780 3266652 3151214 2158298 2768690
3273.59 1559236 4121864 3478240 2206314 3995256 2089206
3276.49 2376080 2250780 4448280 3045166 1575028 3151140
3279.38 3902512 3136444 2831310 2279350 2285524 444102
3282.27 2321794 3641038 1890788 3228670 4802846 1425580
3285.16 4493870 3341738 2146240 2897702 4097352 2798122
3288.06 3072478 2051674 1338484 1338686 4069862 2604008
3290.95 1170692 3779888 2056722 1695992 3347712 3131578
3293.84 2862098 3918516 3702474 3869554 2423588 2781104
3296.73 1973058 1247446 4332116 3982436 3154994 2966436
3299.63 3295374 3066520 3120184 1731218 2227234 2926106
3302.52 3142540 1211954 2617346 2550164 2438020 2864456
3305.41 2884484 2056830 3865192 2906474 4473200 3603292
3308.31 2869918 3533620 1968524 3339948 3783528 2554372
3311.20 3612606 3476520 2821396 2132404 4467280 3181010
3314.09 3613574 1242180 3859464 4296216 4060636 2248942
3316.98 4308150 6096960 3802204 3334894 2062482 3068824
3319.88 3374650 3265108 2605086 4211114 3690596 3125536
3322.77 2934110 4064802 4413604 2055088 3578354 4344264
3325.66 3290308 1956814 3846696 2513192 3692882 3361930
3328.55 2510016 2513578 3907718 4799082 1589390 3377074
3331.45 1627912 3074460 1194918 4570824 3157040 2706864
3334.34 3687546 3763438 1675554 3141690 3368546 3944064
3337.23 1240794 3929080 3457716 4718160 3042358 2670512
3340.13 2024316 2511784 3237870 2400888 3846810 1545696
3343.02 3282860 2497346 2587712 3580024 2961144 898434
3345.91 2719448 3308250 1201694 2877630 2577914 3353078
3348.80 977420 3690476 3534184 1977670 3499764 1791744
3351.70 2860072 3514982 3347418 3463190 2424808 501084
3354.59 2748222 3379530 3426916 2432104 2286230 1657980
3357.48 3910162 3198930 3221932 3979352 3423468 2290042
3360.37 3492508 2597022 2700096 1553288 5523066 1840060
3363.27 3060070 2647820 4535750 4323566 2036680 2543562
3366.16 2768580 1468786 2909232 3524428 2797880 2017360
3369.05 2878896 5119156 4070236 2263144 2850616 2314866
3371.95 2824000 2036788 4936770 2011034 3117076 3742238
3374.84 4197556 1558834 2701214 2950184 2234694 2967682
3377.73 3295598 2638294 3549438 4002582 2308732 4439140
3380.62 2745678 2429186 3115168 2837652 3172552 4700126
3383.52 2804758 2288886 2468634 4505664 3231208 1983048
3386.41 3179198 3013626 3501924 2976198 2446592 1794064
3389.30 3199912 3871224 2532310 1494558 1694958 2932342
3392.19 4112804 3901394 4861048 1408652 4313816 2828972
3395.09 3382762 3816566 2627776 5261724 4337476 3197088
3397.98 5189942 2303512 5375146 669338 4007264 2680038
3400.87 4460296 2420108 4316110 2577024 1184774 4434850
3403.77 3378868 3782386 3144356 4627694 2631380 5348206
3406.66 2583428 4061114 2368578 3621172 4110386 5462040
3409.55 5635370 4832760 3785810 2976558 3190026 4134232
3412.44 4090800 4396536 4282738 4206570 6170892 5697948
3415.34 5878648 3551550 4522520 3635956 5275252 4339592
3418.23 5366978 5609128 2865916 5842798 4858984 7082664
3421.12 5458332 3865940 6762364 3525976 3505562 2888048
3424.01 3758456 4350086 4328060 5154150 5184812 5887492
3426.91 2852558 4501544 5349856 5853274 4545960 4776724
3429.80 6932468 7191800 6768904 6064834 6121596 4211154
3432.69 4694358 5270076 5849140 4270640 5516132 4929520
3435.59 6134474 5048752 4050682 4466440 5694570 4499182
3438.48 6586304 4954590 3176020 5096416 6513006 6166988
3441.37 6438638 8123308 6623446 5911736 6999286 6061946
3444.26 5653464 5135270 3652986 4462510 5009178 4763732
3447.16 6091190 5595582 7147066 5367746 4920926 5862644
3450.05 6621180 6914474 6442294 5771112 5331518 5536314
3452.94 4278238 5020638 6133694 5710540 6087226 3915150
3455.83 4992298 6632700 6326638 5508886 6301868 6281568
3458.73 5970072 5900706 6431758 4854076 6630594 7282438
3461.62 6291846 6911202 7540292 6297858 5537718 7376936
3464.51 5816938 7471586 7387162 7397144 7208078 6827828
3467.40 7392746 4824528 4273702 5448304 6043038 5678052
3470.30 6424740 7320184 6998232 6631494 6247164 5458626
3473.19 8097652 8454740 6305550 7666428 7142592 6092632
3476.08 8072746 6691404 5451046 6617704 6851308 7350846
3478.98 6497672 5898946 6574482 6375232 7602800 6347792
3481.87 8301056 7272970 5490822 7534378 7171544 7783704
3484.76 5714602 5937174 7939790 6566088 7820096 7035350
3487.65 5337962 5311258 6706356 5857464 6567634 6818046
3490.55 6330584 5422010 7937108 7481798 8208862 6345046
3493.44 6492610 7473228 5465040 6134408 5069482 6979926
3496.33 5455356 5161938 6357642 5393032 3985100 6423820
3499.22 5003468 6526262 6494914 5502080 5224446 4698828
3502.12 6339412 5286846 6978278 5849596 5639732 4444194
3505.01 4914274 5382050 6889250 3114852 2814404 6323778
3507.90 4161730 6468516 5493582 4987822 7807240 4660370
3510.80 5545802 5513504 5300312 4843618 5482918 4103046
3513.69 5706996 5893348 4160352 4680446 5496440 4570378
3516.58 5696736 4939768 5428496 3421204 5234824 5842100
3519.47 4522690 4855286 6342886 5718504 5423248 4280300
3522.37 6381740 4754166 5845096 3649030 6565020 4747606
3525.26 3113736 4536594 5665886 6424314 5715298 5346702
3528.15 5961406 4262258 4981888 5774198 3061928 6177008
3531.04 6230574 4337822 4637090 5661896 6624190 5930276
3533.94 5449978 5160862 4921966 4677884 3999972 5642128
3536.83 6791522 4856724 7238192 3862032 2013176 3200356
3539.72 6380868 3627608 4793928 5280860 5300772 3563062
3542.62 6381388 3344042 4745910 5866900 3674536 2913804
3545.51 4881524 5946956 4846966 4718976 5557618 6734166
3548.40 4434418 5131666 6824626 4638892 5647446 4157288
3551.29 4598190 4994528 4340248 5345154 4091966 5614394
3554.19 3934240 3588970 5634168 6318108 5003460 5734018
3557.08 4992214 6335262 3683198 4163880 6676826 5066810
3559.97 4256688 4059988 4091732 4543382 6291844 4200236
3562.86 5427868 4138292 4891398 5570792 5030154 5610392
3565.76 4494600 4375112 5652162 6812666 6096448 4450948
3568.65 4166330 5985996 4555008 4951684 1493572 3836270
3571.54 6034628 4703814 5132096 4940202 5611638 3464580
3574.44 4495338 4050500 5422962 4793920 4826108 2942668
3577.33 4880102 6434786 5184678 3345452 4338034 4353610
3580.22 5973796 5861358 5161376 2768476 4616106 4708034
3583.11 4957598 5392394 6600022 5323124 3803456 4961568
3586.01 5241710 3549854 4705358 5548528 5469144 6194474
3588.90 5887986 4079052 4648020 4238122 4158516 5072310
3591.79 3803806 5796110 7528042 5676056 6225350 4932918
3594.68 5508986 5022366 4469108 6000824 4688060 6426428
3597.58 5746212 5220316 4416818 4720464 6047874 5459674
3600.47 5323928 7025250 4180368 6562108 6691242 6982238
3603.36 5038898 6288368 7090460 5587048 6701020 6244300
3606.26 7859340 5774554 7878514 8874786 4923322 7832416
3609.15 7788736 5855448 8540490 7884150 8203152 8772688
3612.04 8047786 8093284 6655832 6624820 8656992 8799084
3614.93 8143348 7894470 8706114 8888624 9492166 11593350
3617.83 8664274 9619076 10233390 13186810 8470146 11226530
3620.72 11276110 10637640 13418330 11819800 11776180 12434980
3623.61 12513750 12592490 13525600 12682080 13655000 14116190
3626.50 15523470 14222950 17105940 17314470 16551900 18955960
3629.40 18906450 18001170 18079690 18024160 20462470 19760380
3632.29 22121630 23092990 22371630 24952730 25248330 25242660
3635.18 27301880 28621500 28961050 29578160 30380480 31008570
3638.08 31916590 32565660 35192340 37906260 37766150 39211560
3640.97 39126800 42359700 46252700 46676590 47121830 50533100
3643.86 52981750 54223410 55929340 57706620 59002450 62455120
3646.75 67091120 67762900 70933210 71129900 78951930 77693410
3649.65 76911670 79898930 83956290 85911140 88309210 87792660
3652.54 89801820 94990730 96383610 99343860 102053500 105959200
3655.43 111136900 110686500 107346300 107713800 108165300 111353400
3658.32 113594300 117502000 117106400 122716400 125099200 129673600
3661.22 130610100 137318900 139234400 142237500 144145400 147192000
3664.11 149432800 153638800 155761900 158708700 161044800 164811500
3667.00 166554100 167306500 172606000 173372700 173276000 173490500
3669.90 178365000 180460100 175833000 175470000 173492700 174410300
3672.79 171790000 168742700 165384900 165941100 161686800 161483000
3675.68 159386100 151720500 149901800 149918700 149800400 152707600
3678.57 157679000 161842700 150569500 144566100 142117900 138974600
3681.47 137692400 141396600 138987200 136917700 135335200 134787800
3684.36 130618900 127379700 124286500 120498100 118258800 113588800
3687.25 105921000 104897000 101448300 92207700 87193350 82655400
3690.14 77748090 72405860 68678870 63685450 61741160 56593270
3693.04 53475720 51581360 48036680 47084220 45235000 42957510
3695.93 39025560 36582340 37787460 33863990 33876240 31473560
3698.82 31418100 28838080 25876610 27949520 26896120 26833700
3701.72 23641190 21830200 21328220 19811750 19618860 19146070
3704.61 18379120 17787680 17675090 17025220 14509230 14468640
3707.50 14658810 15270200 13474110 15733870 11835230 14131330
3710.39 12536390 12059150 14531560 16233750 11689330 13312870
3713.29 11241350 10538700 9558702 9410180 10495760 11474180
3716.18 9933394 9163278 9613512 8160158 9442912 9598910
3719.07 10086880 8839502 7865664 10274720 9282610 8292098
3721.96 9597542 9971112 9230216 9442976 8457030 9593940
3724.86 8341808 9396172 8578500 9202898 9014940 7022948
3727.75 7270658 8151184 6577714 6965832 7748392 7384902
3730.64 9271856 7966060 10011180 10658320 7557354 8257070
3733.54 7050178 8637450 8327618 8524718 7455136 8411078
3736.43 8800402 5476510 6563572 7936300 8042338 7520118
3739.32 8296790 7678990 6989572 8343522 8716732 7630136
3742.21 7976334 7933782 7226804 11084990 14561950 10030340
3745.11 6884862 7766888 6277776 8144896 6609966 7037994
3748.00 6991062 9743922 13403450 7840564 7190872 6233402
3750.89 7025866 9047326 13318050 5426040 5865496 5959010
3753.78 6692318 5275860 7321128 7104986 7729026 8604938
3756.68 6802032 6012056 6946278 7562748 6184910 9435726
3759.57 7495594 6195536 5906336 7612050 6401856 7530950
3762.46 6697124 5101724 8466912 6375472 7732678 5910558
3765.35 7422522 5965046 7234740 6311520 6119848 7421326
3768.25 6458598 6871872 6712560 8947346 5795780 6255736
3771.14 6658360 6874378 6444420 7700606 7930698 7000774
3774.03 7727788 7664100 7212944 5852684 7221252 5950190
3776.93 8005750 5715054 7018840 8279382 9554516 7994572
3779.82 6156350 6241804 7212602 5558854 6983588 6651882
3782.71 6294730 7545104 5464292 7791322 8365948 7080584
3785.60 6739336 7062518 8201784 7018484 7631160 6607720
3788.50 7750598 7103258 7656658 6579210 5687692 7028146
3791.39 6886428 6368628 9419658 4897184 7893392 7548462
3794.28 6180192 8912294 7894916 7800306 9512136 7266134
3797.17 7851768 6496478 6957222 8137676 6509586 9462160
3800.07 6173292 9303654 13011840 8540760 8790850 9087576
3802.96 6513692 9382514 8304056 6110916 4459278 6731666
3805.85 7595482 10196680 8758170 7561022 7525542 6724134
3808.75 8146118 8145004 8165720 6581320 7424024 7327608
3811.64 8441444 7119428 7223632 6403084 7180494 6575250
3814.53 7333340 8206780 13906160 10741880 8299988 7236392
3817.42 8692584 8999226 7549002 8873628 7341620 7126054
3820.32 12056230 8925286 10200970 8146936 8848394 9839976
3823.21 8184994 8904624 7994414 9765274 7986818 9227502
3826.10 7755700 8496382 8226878 7662434 6995936 8849234
3828.99 9365426 8445332 9939128 9962980 10479570 10057130
3831.89 7689702 9135414 7923882 10453220 9753744 13162220
3834.78 12296770 9901804 9875730 10601540 7625888 13902420
3837.67 13440790 8787570 10934280 9558946 11132580 9590978
3840.57 11091620 8931898 10841250 10138130 8869928 10528190
3843.46 9938908 9198922 10881350 8297810 10520680 8713280
3846.35 11875220 9786126 10293090 10588310 10494200 11040820
3849.24 10462980 10254460 10417590 9941030 12058450 15449120
3852.14 11628190 11229910 12407470 16560790 14650740 9805816
3855.03 12145830 11855010 10915640 10442290 11013890 10487080
3857.92 11031880 10620600 8564566 10219880 9350768 9960162
3860.81 11558780 11957840 10356280 10207380 9560340 11237570
3863.71 12412380 11584560 11934180 12422210 9778378 9542534
3866.60 11415190 10880910 11469880 8104608 11670990 12178640
3869.49 14125710 13325890 9927394 12471710 10757660 10803680
3872.39 11242350 10323550 12104750 11588470 11004620 11138240
3875.28 10055010 10424390 10442690 10961550 11833380 9771584
3878.17 11010830 8494574 10340030 10554240 10914010 9256780
3881.06 9661954 9379006 9151018 9070362 9250754 8957030
3883.96 10939260 9694476 12028790 11223720 7037188 8712712
3886.85 8770168 8066350 6835876 9603394 8410654 8817788
3889.74 7291822 7914154 11492820 9210288 9359840 7449332
3892.63 7045570 8331436 8696464 5256536 7266948 7088750
3895.53 6747790 8354942 8116352 7266974 5860776 7030926
3898.42 6934034 8590898 5428602 8086046 6798010 6393812
3901.31 9222972 6251060 6816956 6310222 8183350 7791512
3904.21 7014728 6462026 8081538 4172088 5472376 6512638
3907.10 7162166 5855760 7626516 5994840 4475536 5108262
3909.99 6380582 5362360 6545102 6175944 5136460 6931882
3912.88 5641162 5664666 5437512 4901540 6601858 6384178
3915.78 4814212 4762136 7445334 6680116 6011616 4948984
3918.67 5363120 6212152 4935972 5592042 3881538 7225614
3921.56 6693266 4942860 6687436 7657328 5333350 5391936
3924.45 5108490 5504396 5481294 7268934 5034190 4000308
3927.35 5318958 5390760 4026702 6557870 5226630 5308044
3930.24 7027870 5170846 5481058 4996750 6657730 5458426
3933.13 4819670 6130564 4676918 5847946 3528998 3494426
3936.03 3956526 5033674 5265852 5707738 5915742 4062736
3938.92 3931402 5477012 5147606 7392042 4706756 2944560
3941.81 6289756 6307808 5351088 4458614 5638280 5839294
3944.70 5017588 3908166 3781182 4468778 5172996 5077692
3947.60 5395484 3838194 3860478 4374744 5713908 3615038
3950.49 3872688 4834506 4880508 5001876 5022416 7605162
3953.38 4653884 5556986 4763580 5098410 3911480 5272144
3956.27 4794360 6071036 5168402 4943732 6203828 6002374
3959.17 3985318 4358674 5092072 3755674 3985318 6280696
3962.06 5685446 3782984 5998880 4974066 4215002 5088862
3964.95 5911598 5017366 3687458 5115248 4844600 4714376
3967.85 4829214 5818240 6336702 5484350 5808738 5662308
3970.74 6782442 6057798 5410484 5093648 5556344 5228106
3973.63 6393658 6343640 7229202
##END=
