##TITLE=n-BUTANOL
##JCAMP-DX=4.24
##DATA TYPE=INFRARED SPECTRUM
##CLASS=COBLENTZ
##ORIGIN=DOW CHEMICAL COMPANY
##OWNER=COBLENTZ SOCIETY
Collection (C) 2018 copyright by the U.S. Secretary of Commerce
on behalf of the United States of America. All rights reserved.
##DATE=1965/10/12
##NAMES=1-butanol
##CAS REGISTRY NO=71-36-3
##MOLFORM=C4 H10 O
##SOURCE REFERENCE=COBLENTZ NO. 10142
##$NIST SOURCE=COBLENTZ
##$NIST IMAGE=cob10142
##SPECTROMETER/DATA SYSTEM=DOW KBr FOREPRISM-GRATING
##INSTRUMENT PARAMETERS=BLAZED AT 3.5, 12.0, 20.0 MICRON, CHANGED AT 5.0, 7.5, 14.9 MICRON
##STATE=SOLUTION (0.5% IN CCl4 FOR 3800-1330, 0.5% IN CS2 FOR 1330-400 CM^-^1)
##PATH LENGTH=0.055, 0.054 CM
$$ SEE SPECTRUM NO. 6915 FOR "LIQUID (NEAT)" AND SPECTRUM NO. 4807 FOR "SOLUTION (10%)" STATES
##SAMPLING PROCEDURE=TRANSMISSION
##RESOLUTION=4
##DATA PROCESSING=DIGITIZED BY NIST FROM HARD COPY (FROM TWO SEGMENTS)
##XUNITS=1/CM
##YUNITS=TRANSMITTANCE
##XFACTOR=1.000000
##YFACTOR=1
##DELTAX=0.871082
##FIRSTX=392.857
##LASTX=3793.56
##FIRSTY=0.886
##MAXX=3793.56
##MINX=392.857
##MAXY=1.009
##MINY=0.255339
##NPOINTS=3905
##XYDATA=(X++(Y..Y))
392.857000 0.8860 0.8860 0.8860 0.8860 0.8860
397.212409 0.8860 0.8870 0.8870 0.8870 0.8870
401.567817 0.8870 0.8870 0.8890 0.8890 0.8890
405.923226 0.8890 0.8890 0.8900 0.8900 0.8920
410.278634 0.8920 0.8930 0.8930 0.8930 0.8930
414.634043 0.8930 0.8930 0.8940 0.8940 0.8940
418.989451 0.8960 0.8960 0.8940 0.8930 0.8930
423.344860 0.8930 0.8940 0.8940 0.8940 0.8940
427.700269 0.8960 0.8960 0.8960 0.8960 0.8970
432.055677 0.8970 0.8970 0.8970 0.8960 0.8940
436.411086 0.8940 0.8940 0.8930 0.8930 0.8920
440.766494 0.8920 0.8900 0.8900 0.8900 0.8890
445.121903 0.8890 0.8890 0.8890 0.8900 0.8900
449.477311 0.8920 0.8920 0.8920 0.8920 0.8920
453.832720 0.8900 0.8900 0.8900 0.8900 0.8900
458.188129 0.8900 0.8900 0.8900 0.8900 0.8900
462.543537 0.8900 0.8900 0.8900 0.8920 0.8920
466.898946 0.8920 0.8920 0.8920 0.8900 0.8900
471.254354 0.8890 0.8890 0.8890 0.8890 0.8870
475.609763 0.8870 0.8860 0.8860 0.8860 0.8860
479.965171 0.8850 0.8850 0.8830 0.8830 0.8830
484.320580 0.8830 0.8830 0.8830 0.8830 0.8830
488.675989 0.8830 0.8830 0.8830 0.8830 0.8830
493.031397 0.8830 0.8830 0.8830 0.8830 0.8830
497.386806 0.8830 0.8820 0.8820 0.8810 0.8790
501.742214 0.8770 0.8750 0.8710 0.8700 0.8670
506.097623 0.8640 0.8630 0.8620 0.8620 0.8630
510.453031 0.8640 0.8670 0.8680 0.8700 0.8720
514.808440 0.8720 0.8740 0.8750 0.8770 0.8770
519.163849 0.8780 0.8790 0.8810 0.8820 0.8820
523.519257 0.8820 0.8830 0.8830 0.8830 0.8850
527.874666 0.8850 0.8850 0.8860 0.8860 0.8860
532.230074 0.8870 0.8870 0.8870 0.8890 0.8890
536.585483 0.8890 0.8890 0.8900 0.8900 0.8900
540.940891 0.8900 0.8900 0.8900 0.8920 0.8920
545.296300 0.8920 0.8920 0.8920 0.8930 0.8930
549.651709 0.8940 0.8940 0.8940 0.8940 0.8960
554.007117 0.8960 0.8970 0.8970 0.8970 0.8980
558.362526 0.8980 0.8980 0.9000 0.9010 0.9010
562.717934 0.9010 0.9030 0.9040 0.9040 0.9040
567.073343 0.9040 0.9040 0.9040 0.9040 0.9040
571.428751 0.9040 0.9040 0.9040 0.9040 0.9050
575.784160 0.9050 0.9050 0.9050 0.9070 0.9070
580.139569 0.9070 0.9070 0.9080 0.9080 0.9090
584.494977 0.9090 0.9090 0.9090 0.9090 0.9090
588.850386 0.9110 0.9110 0.9110 0.9110 0.9110
593.205794 0.9110 0.9110 0.9120 0.9120 0.9120
597.561203 0.9120 0.9120 0.9120 0.9120 0.9120
601.916611 0.9120 0.9120 0.9130 0.9130 0.9130
606.272020 0.9130 0.9150 0.9160 0.9160 0.9180
610.627429 0.9180 0.9180 0.9180 0.9190 0.9190
614.982837 0.9190 0.9200 0.9200 0.9220 0.9220
619.338246 0.9220 0.9230 0.9230 0.9230 0.9230
623.693654 0.9230 0.9230 0.9230 0.9230 0.9230
628.049063 0.9230 0.9230 0.9230 0.9220 0.9220
632.404471 0.9230 0.9220 0.9220 0.9220 0.9230
636.759880 0.9230 0.9230 0.9220 0.9220 0.9230
641.115289 0.9230 0.9230 0.9230 0.9230 0.9230
645.470697 0.9230 0.9230 0.9230 0.9230 0.9230
649.826106 0.9230 0.9240 0.9240 0.9240 0.9260
654.181514 0.9270 0.9270 0.9280 0.9300 0.9310
658.536923 0.9310 0.9310 0.9330 0.9340 0.9340
662.892331 0.9370 0.9380 0.9420 0.9430 0.9410
667.247740 0.9410 0.9390 0.9410 0.9430 0.9490
671.603149 0.9530 0.9570 0.9650 0.9790 1.0000
675.958557 1.0000 1.0010 1.0010 1.0010 1.0020
680.313966 1.0020 1.0020 1.0020 1.0020 1.0020
684.669374 1.0040 1.0050 1.0060 1.0080 1.0080
689.024783 1.0080 1.0080 1.0060 1.0060 1.0060
693.380191 1.0080 1.0080 1.0080 1.0080 1.0080
697.735600 1.0060 1.0060 1.0080 1.0080 1.0080
702.091009 1.0080 1.0080 1.0080 1.0080 1.0080
706.446417 1.0080 1.0080 1.0080 1.0080 1.0080
710.801826 1.0080 1.0080 1.0080 1.0080 1.0080
715.157234 1.0080 1.0080 1.0080 1.0080 1.0080
719.512643 1.0080 1.0080 1.0060 1.0060 1.0050
723.868051 1.0040 1.0020 1.0010 1.0010 1.0000
728.223460 0.9980 0.9950 0.9910 0.9900 0.9870
732.578869 0.9840 0.9820 0.9760 0.9630 0.9590
736.934277 0.9570 0.9560 0.9560 0.9600 0.9610
741.289686 0.9680 0.9740 0.9760 0.9790 0.9820
745.645094 0.9840 0.9870 0.9870 0.9870 0.9870
750.000503 0.9890 0.9900 0.9910 0.9930 0.9940
754.355911 0.9980 1.0000 1.0000 1.0000 1.0010
758.711320 1.0020 1.0020 1.0040 1.0060 1.0080
763.066729 1.0080 1.0080 1.0090 1.0090 1.0090
767.422137 1.0090 1.0080 1.0080 1.0060 1.0060
771.777546 1.0060 1.0060 1.0050 1.0050 1.0040
776.132954 1.0020 1.0020 1.0020 1.0020 1.0040
780.488363 1.0040 1.0020 1.0020 1.0020 1.0020
784.843771 1.0020 1.0020 1.0020 1.0010 1.0010
789.199180 1.0010 1.0000 1.0000 0.9950 0.9940
793.554589 0.9940 0.9930 0.9930 0.9910 0.9900
797.909997 0.9900 0.9890 0.9870 0.9870 0.9860
802.265406 0.9840 0.9840 0.9830 0.9830 0.9830
806.620814 0.9830 0.9830 0.9830 0.9830 0.9840
810.976223 0.9840 0.9840 0.9840 0.9840 0.9840
815.331631 0.9840 0.9830 0.9820 0.9820 0.9820
819.687040 0.9820 0.9800 0.9790 0.9790 0.9780
824.042449 0.9780 0.9780 0.9760 0.9760 0.9750
828.397857 0.9740 0.9740 0.9720 0.9720 0.9680
832.753266 0.9670 0.9640 0.9610 0.9590 0.9540
837.108674 0.9460 0.9410 0.9370 0.9340 0.9220
841.464083 0.9080 0.8930 0.8890 0.8870 0.8870
845.819491 0.8890 0.8920 0.8940 0.9000 0.9090
850.174900 0.9230 0.9370 0.9480 0.9490 0.9540
854.530309 0.9560 0.9570 0.9600 0.9610 0.9630
858.885717 0.9640 0.9640 0.9650 0.9650 0.9650
863.241126 0.9650 0.9650 0.9650 0.9650 0.9640
867.596534 0.9640 0.9640 0.9640 0.9640 0.9640
871.951943 0.9640 0.9640 0.9640 0.9640 0.9640
876.307351 0.9640 0.9640 0.9640 0.9640 0.9640
880.662760 0.9640 0.9640 0.9640 0.9640 0.9640
885.018168 0.9640 0.9640 0.9640 0.9640 0.9640
889.373577 0.9630 0.9610 0.9610 0.9590 0.9590
893.728986 0.9560 0.9540 0.9500 0.9460 0.9430
898.084394 0.9430 0.9420 0.9420 0.9420 0.9450
902.439803 0.9490 0.9500 0.9540 0.9540 0.9560
906.795211 0.9560 0.9570 0.9570 0.9570 0.9590
911.150620 0.9590 0.9590 0.9590 0.9570 0.9560
915.506028 0.9540 0.9540 0.9530 0.9520 0.9520
919.861437 0.9480 0.9460 0.9450 0.9420 0.9410
924.216846 0.9370 0.9350 0.9330 0.9270 0.9240
928.572254 0.9220 0.9160 0.9120 0.9050 0.9010
932.927663 0.8960 0.8930 0.8920 0.8790 0.8750
937.283071 0.8670 0.8620 0.8550 0.8510 0.8400
941.638480 0.8340 0.8310 0.8180 0.8120 0.8060
945.993888 0.8040 0.8030 0.8040 0.8060 0.8080
950.349297 0.8140 0.8220 0.8300 0.8330 0.8400
954.704706 0.8450 0.8510 0.8530 0.8560 0.8600
959.060114 0.8630 0.8670 0.8710 0.8750 0.8780
963.415523 0.8810 0.8820 0.8830 0.8860 0.8870
967.770931 0.8890 0.8890 0.8890 0.8870 0.8850
972.126340 0.8850 0.8830 0.8820 0.8770 0.8720
976.481748 0.8710 0.8640 0.8570 0.8510 0.8410
980.837157 0.8210 0.8140 0.8120 0.8120 0.8150
985.192566 0.8260 0.8330 0.8420 0.8450 0.8480
989.547974 0.8490 0.8490 0.8490 0.8480 0.8450
993.903383 0.8410 0.8360 0.8330 0.8300 0.8210
998.258791 0.8160 0.8000 0.7820 0.7670 0.7600
1002.614200 0.7560 0.7550 0.7560 0.7590 0.7600
1006.969608 0.7660 0.7670 0.7670 0.7700 0.7700
1011.325017 0.7700 0.7690 0.7670 0.7650 0.7600
1015.680426 0.7550 0.7470 0.7410 0.7300 0.7260
1020.035834 0.7110 0.6920 0.6650 0.6440 0.6320
1024.391243 0.6140 0.5661 0.5461 0.5420 0.5420
1028.746651 0.5500 0.5540 0.5690 0.5880 0.6050
1033.102060 0.6060 0.6090 0.6090 0.6050 0.6050
1037.457468 0.6030 0.6020 0.6020 0.6030 0.6060
1041.812877 0.6180 0.6310 0.6370 0.6460 0.6530
1046.168286 0.6661 0.7070 0.7130 0.7220 0.7260
1050.523694 0.7290 0.7290 0.7260 0.7250 0.7180
1054.879103 0.7100 0.7000 0.6850 0.6730 0.6580
1059.234511 0.6540 0.6390 0.6171 0.5941 0.5810
1063.589920 0.5680 0.5530 0.5380 0.5270 0.5240
1067.945328 0.5230 0.5240 0.5380 0.5510 0.5769
1072.300737 0.5960 0.6060 0.6210 0.6360 0.6550
1076.656146 0.6650 0.6800 0.7089 0.7190 0.7399
1081.011554 0.7500 0.7730 0.7780 0.7890 0.7960
1085.366963 0.8000 0.8030 0.8070 0.8120 0.8140
1089.722371 0.8150 0.8160 0.8210 0.8230 0.8250
1094.077780 0.8270 0.8310 0.8330 0.8340 0.8360
1098.433188 0.8360 0.8400 0.8420 0.8460 0.8510
1102.788597 0.8530 0.8530 0.8550 0.8560 0.8570
1107.144006 0.8600 0.8620 0.8630 0.8640 0.8700
1111.499414 0.8720 0.8720 0.8740 0.8750 0.8780
1115.854823 0.8790 0.8810 0.8830 0.8860 0.8900
1120.210231 0.8920 0.8930 0.8930 0.8930 0.8940
1124.565640 0.8940 0.8960 0.8970 0.8980 0.8980
1128.921048 0.9000 0.9000 0.9010 0.9030 0.9030
1133.276457 0.9040 0.9040 0.9050 0.9070 0.9080
1137.631866 0.9080 0.9080 0.9090 0.9090 0.9110
1141.987274 0.9110 0.9110 0.9090 0.9090 0.9090
1146.342683 0.9090 0.9090 0.9090 0.9090 0.9110
1150.698091 0.9110 0.9110 0.9110 0.9120 0.9120
1155.053500 0.9110 0.9110 0.9090 0.9080 0.9050
1159.408908 0.9040 0.9010 0.9000 0.9000 0.8980
1163.764317 0.8970 0.8970 0.8970 0.8970 0.8960
1168.119726 0.8940 0.8940 0.8940 0.8920 0.8920
1172.475134 0.8900 0.8870 0.8860 0.8850 0.8830
1176.830543 0.8830 0.8820 0.8820 0.8810 0.8780
1181.185951 0.8750 0.8740 0.8740 0.8720 0.8710
1185.541360 0.8710 0.8700 0.8670 0.8660 0.8660
1189.896768 0.8640 0.8630 0.8620 0.8620 0.8590
1194.252177 0.8560 0.8530 0.8510 0.8510 0.8490
1198.607586 0.8490 0.8480 0.8460 0.8460 0.8460
1202.962994 0.8460 0.8480 0.8480 0.8490 0.8490
1207.318403 0.8510 0.8510 0.8510 0.8510 0.8520
1211.673811 0.8530 0.8530 0.8530 0.8530 0.8530
1216.029220 0.8530 0.8550 0.8550 0.8560 0.8570
1220.384628 0.8570 0.8570 0.8570 0.8590 0.8590
1224.740037 0.8600 0.8620 0.8620 0.8620 0.8630
1229.095446 0.8630 0.8630 0.8630 0.8630 0.8630
1233.450854 0.8630 0.8630 0.8630 0.8630 0.8630
1237.806263 0.8630 0.8620 0.8620 0.8620 0.8620
1242.161671 0.8620 0.8620 0.8620 0.8620 0.8620
1246.517080 0.8620 0.8620 0.8620 0.8620 0.8620
1250.872488 0.8600 0.8600 0.8600 0.8590 0.8590
1255.227897 0.8570 0.8560 0.8550 0.8530 0.8530
1259.583306 0.8530 0.8520 0.8510 0.8480 0.8460
1263.938714 0.8450 0.8440 0.8440 0.8440 0.8420
1268.294123 0.8410 0.8410 0.8410 0.8410 0.8410
1272.649531 0.8420 0.8420 0.8420 0.8420 0.8420
1277.004940 0.8440 0.8450 0.8450 0.8450 0.8460
1281.360348 0.8460 0.8460 0.8480 0.8480 0.8490
1285.715757 0.8490 0.8510 0.8510 0.8520 0.8520
1290.071166 0.8520 0.8530 0.8530 0.8530 0.8530
1294.426574 0.8530 0.8530 0.8550 0.8570 0.8570
1298.781983 0.8570 0.8570 0.8590 0.8600 0.8600
1303.137391 0.8600 0.8620 0.8620 0.8620 0.8630
1307.492800 0.8630 0.8630 0.8640 0.8640 0.8630
1311.848208 0.8630 0.8620 0.8620 0.8600 0.8600
1316.203617 0.8590 0.8590 0.8570 0.8570 0.8570
1320.559026 0.8560 0.8550 0.8550 0.8550 0.8530
1324.914434 0.8530 0.8520 0.8510 0.8510 0.8510
1329.269843 0.8490 0.8480 0.8410 0.8400 0.8400
1333.625251 0.8400 0.8400 0.8400 0.8410 0.8410
1337.980660 0.8410 0.8410 0.8420 0.8440 0.8440
1342.336068 0.8450 0.8460 0.8510 0.8510 0.8520
1346.691477 0.8520 0.8530 0.8530 0.8530 0.8530
1351.046886 0.8530 0.8530 0.8530 0.8520 0.8520
1355.402294 0.8510 0.8510 0.8490 0.8480 0.8480
1359.757703 0.8460 0.8450 0.8440 0.8420 0.8420
1364.113111 0.8410 0.8410 0.8380 0.8370 0.8340
1368.468520 0.8330 0.8330 0.8260 0.8220 0.8160
1372.823928 0.8160 0.8080 0.7990 0.7960 0.7850
1377.179337 0.7770 0.7660 0.7520 0.7430 0.6890
1381.534746 0.6870 0.6890 0.6980 0.6990 0.7100
1385.890154 0.7180 0.7260 0.7330 0.7410 0.7440
1390.245563 0.7450 0.7510 0.7620 0.7650 0.7700
1394.600971 0.7770 0.7800 0.7850 0.7900 0.7970
1398.956380 0.7990 0.8060 0.8140 0.8210 0.8220
1403.311788 0.8250 0.8260 0.8330 0.8330 0.8360
1407.667197 0.8370 0.8400 0.8410 0.8440 0.8450
1412.022606 0.8480 0.8510 0.8510 0.8520 0.8530
1416.378014 0.8530 0.8550 0.8560 0.8560 0.8560
1420.733423 0.8570 0.8570 0.8570 0.8570 0.8570
1425.088831 0.8570 0.8560 0.8550 0.8550 0.8520
1429.444240 0.8520 0.8490 0.8450 0.8410 0.8360
1433.799648 0.8310 0.8180 0.8150 0.8140 0.8150
1438.155057 0.8210 0.8310 0.8360 0.8380 0.8400
1442.510466 0.8410 0.8410 0.8400 0.8370 0.8360
1446.865874 0.8340 0.8270 0.8190 0.8120 0.8060
1451.221283 0.7960 0.7850 0.7750 0.7660 0.7600
1455.576691 0.7550 0.7470 0.7360 0.7170 0.7070
1459.932100 0.7060 0.7070 0.7090 0.7100 0.7100
1464.287508 0.7090 0.7070 0.6980 0.6930 0.6880
1468.642917 0.6840 0.6850 0.6960 0.7130 0.7359
1472.998326 0.7670 0.7810 0.7960 0.7990 0.8030
1477.353734 0.8040 0.8070 0.8120 0.8140 0.8160
1481.709143 0.8250 0.8340 0.8510 0.8600 0.8710
1486.064551 0.8750 0.8790 0.8820 0.8860 0.8900
1490.419960 0.8920 0.8930 0.8970 0.8980 0.9010
1494.775368 0.9030 0.9050 0.9050 0.9070 0.9070
1499.130777 0.9070 0.9070 0.9090 0.9090 0.9110
1503.486186 0.9110 0.9110 0.9120 0.9120 0.9120
1507.841594 0.9130 0.9130 0.9130 0.9130 0.9150
1512.197003 0.9150 0.9150 0.9160 0.9160 0.9160
1516.552411 0.9160 0.9160 0.9180 0.9180 0.9180
1520.907820 0.9180 0.9180 0.9180 0.9180 0.9180
1525.263228 0.9190 0.9190 0.9190 0.9190 0.9190
1529.618637 0.9190 0.9190 0.9190 0.9190 0.9190
1533.974046 0.9190 0.9190 0.9190 0.9190 0.9190
1538.329454 0.9190 0.9190 0.9180 0.9180 0.9180
1542.684863 0.9190 0.9190 0.9190 0.9190 0.9190
1547.040271 0.9190 0.9190 0.9190 0.9190 0.9190
1551.395680 0.9190 0.9190 0.9190 0.9190 0.9190
1555.751088 0.9190 0.9190 0.9190 0.9190 0.9190
1560.106497 0.9190 0.9190 0.9190 0.9190 0.9190
1564.461906 0.9190 0.9190 0.9190 0.9190 0.9190
1568.817314 0.9190 0.9190 0.9190 0.9190 0.9200
1573.172723 0.9200 0.9200 0.9200 0.9200 0.9200
1577.528131 0.9200 0.9200 0.9200 0.9200 0.9200
1581.883540 0.9200 0.9200 0.9200 0.9200 0.9200
1586.238948 0.9200 0.9220 0.9220 0.9220 0.9220
1590.594357 0.9220 0.9230 0.9240 0.9240 0.9240
1594.949766 0.9240 0.9240 0.9260 0.9260 0.9260
1599.305174 0.9260 0.9260 0.9260 0.9260 0.9260
1603.660583 0.9260 0.9260 0.9260 0.9260 0.9260
1608.015991 0.9260 0.9260 0.9260 0.9270 0.9270
1612.371400 0.9260 0.9260 0.9260 0.9270 0.9270
1616.726808 0.9270 0.9270 0.9270 0.9270 0.9270
1621.082217 0.9270 0.9270 0.9270 0.9270 0.9280
1625.437626 0.9280 0.9280 0.9280 0.9300 0.9310
1629.793034 0.9310 0.9330 0.9330 0.9310 0.9310
1634.148443 0.9310 0.9310 0.9310 0.9310 0.9310
1638.503851 0.9310 0.9310 0.9330 0.9330 0.9330
1642.859260 0.9330 0.9330 0.9330 0.9330 0.9330
1647.214668 0.9330 0.9340 0.9340 0.9340 0.9340
1651.570077 0.9340 0.9340 0.9340 0.9340 0.9340
1655.925486 0.9350 0.9340 0.9340 0.9340 0.9340
1660.280894 0.9340 0.9340 0.9340 0.9340 0.9340
1664.636303 0.9340 0.9340 0.9340 0.9340 0.9340
1668.991711 0.9340 0.9340 0.9340 0.9340 0.9340
1673.347120 0.9340 0.9340 0.9340 0.9340 0.9340
1677.702528 0.9340 0.9340 0.9340 0.9340 0.9340
1682.057937 0.9350 0.9350 0.9350 0.9350 0.9350
1686.413346 0.9350 0.9350 0.9350 0.9350 0.9350
1690.768754 0.9350 0.9350 0.9350 0.9350 0.9350
1695.124163 0.9370 0.9380 0.9380 0.9380 0.9380
1699.479571 0.9380 0.9370 0.9350 0.9350 0.9340
1703.834980 0.9340 0.9340 0.9340 0.9340 0.9340
1708.190388 0.9340 0.9340 0.9340 0.9350 0.9340
1712.545797 0.9350 0.9350 0.9350 0.9350 0.9350
1716.901206 0.9350 0.9370 0.9370 0.9370 0.9370
1721.256614 0.9370 0.9370 0.9370 0.9380 0.9380
1725.612023 0.9380 0.9380 0.9380 0.9390 0.9390
1729.967431 0.9390 0.9410 0.9410 0.9410 0.9410
1734.322840 0.9410 0.9410 0.9420 0.9410 0.9410
1738.678248 0.9410 0.9410 0.9410 0.9420 0.9420
1743.033657 0.9430 0.9430 0.9450 0.9450 0.9450
1747.389066 0.9450 0.9460 0.9460 0.9460 0.9460
1751.744474 0.9460 0.9460 0.9460 0.9480 0.9480
1756.099883 0.9480 0.9480 0.9490 0.9490 0.9490
1760.455291 0.9480 0.9480 0.9480 0.9480 0.9490
1764.810700 0.9490 0.9490 0.9490 0.9490 0.9490
1769.166108 0.9500 0.9500 0.9500 0.9500 0.9520
1773.521517 0.9520 0.9520 0.9520 0.9530 0.9530
1777.876926 0.9530 0.9530 0.9540 0.9540 0.9540
1782.232334 0.9540 0.9560 0.9540 0.9530 0.9530
1786.587743 0.9530 0.9530 0.9540 0.9540 0.9540
1790.943151 0.9540 0.9560 0.9560 0.9560 0.9560
1795.298560 0.9560 0.9560 0.9560 0.9560 0.9560
1799.653968 0.9560 0.9570 0.9590 0.9570 0.9570
1804.009377 0.9570 0.9570 0.9570 0.9570 0.9570
1808.364786 0.9570 0.9570 0.9590 0.9600 0.9600
1812.720194 0.9610 0.9610 0.9610 0.9610 0.9610
1817.075603 0.9610 0.9610 0.9600 0.9600 0.9600
1821.431011 0.9590 0.9570 0.9570 0.9570 0.9570
1825.786420 0.9590 0.9600 0.9600 0.9610 0.9610
1830.141828 0.9610 0.9610 0.9610 0.9610 0.9600
1834.497237 0.9600 0.9600 0.9590 0.9570 0.9570
1838.852645 0.9570 0.9570 0.9570 0.9570 0.9570
1843.208054 0.9570 0.9570 0.9570 0.9570 0.9570
1847.563463 0.9570 0.9570 0.9570 0.9570 0.9570
1851.918871 0.9570 0.9570 0.9570 0.9570 0.9570
1856.274280 0.9570 0.9570 0.9570 0.9570 0.9570
1860.629688 0.9570 0.9570 0.9570 0.9570 0.9570
1864.985097 0.9570 0.9570 0.9570 0.9570 0.9570
1869.340505 0.9570 0.9570 0.9570 0.9570 0.9570
1873.695914 0.9570 0.9570 0.9570 0.9570 0.9570
1878.051323 0.9570 0.9570 0.9590 0.9590 0.9590
1882.406731 0.9590 0.9590 0.9590 0.9570 0.9570
1886.762140 0.9570 0.9570 0.9570 0.9570 0.9570
1891.117548 0.9570 0.9570 0.9570 0.9570 0.9570
1895.472957 0.9570 0.9570 0.9570 0.9570 0.9570
1899.828365 0.9570 0.9570 0.9570 0.9570 0.9570
1904.183774 0.9570 0.9570 0.9570 0.9570 0.9570
1908.539183 0.9570 0.9570 0.9570 0.9570 0.9570
1912.894591 0.9570 0.9570 0.9570 0.9570 0.9560
1917.250000 0.9560 0.9560 0.9560 0.9560 0.9560
1921.605408 0.9570 0.9570 0.9570 0.9570 0.9570
1925.960817 0.9590 0.9600 0.9600 0.9590 0.9570
1930.316225 0.9570 0.9570 0.9570 0.9570 0.9570
1934.671634 0.9570 0.9570 0.9570 0.9590 0.9570
1939.027043 0.9570 0.9590 0.9590 0.9590 0.9590
1943.382451 0.9590 0.9590 0.9590 0.9590 0.9590
1947.737860 0.9590 0.9590 0.9590 0.9590 0.9590
1952.093268 0.9590 0.9590 0.9590 0.9590 0.9590
1956.448677 0.9590 0.9590 0.9590 0.9590 0.9590
1960.804085 0.9590 0.9590 0.9590 0.9590 0.9590
1965.159494 0.9590 0.9590 0.9590 0.9590 0.9590
1969.514903 0.9570 0.9570 0.9570 0.9570 0.9610
1973.870311 0.9610 0.9630 0.9630 0.9630 0.9630
1978.225720 0.9630 0.9630 0.9630 0.9630 0.9630
1982.581128 0.9630 0.9630 0.9630 0.9640 0.9640
1986.936537 0.9650 0.9650 0.9650 0.9650 0.9650
1991.291945 0.9650 0.9650 0.9650 0.9670 0.9670
1995.647354 0.9680 0.9690 0.9710 0.9650 0.9630
2000.002763 0.9630 0.9635 0.9640 0.9640 0.9640
2004.358171 0.9640 0.9640 0.9640 0.9640 0.9640
2008.713580 0.9640 0.9640 0.9640 0.9635 0.9630
2013.068988 0.9630 0.9630 0.9635 0.9640 0.9640
2017.424397 0.9640 0.9640 0.9640 0.9635 0.9630
2021.779805 0.9630 0.9630 0.9630 0.9630 0.9635
2026.135214 0.9640 0.9640 0.9640 0.9640 0.9640
2030.490623 0.9640 0.9640 0.9640 0.9640 0.9640
2034.846031 0.9640 0.9640 0.9640 0.9640 0.9640
2039.201440 0.9640 0.9640 0.9640 0.9640 0.9635
2043.556848 0.9630 0.9630 0.9630 0.9635 0.9640
2047.912257 0.9640 0.9640 0.9645 0.9650 0.9650
2052.267665 0.9650 0.9650 0.9650 0.9660 0.9670
2056.623074 0.9670 0.9670 0.9670 0.9670 0.9670
2060.978483 0.9670 0.9675 0.9680 0.9680 0.9680
2065.333891 0.9680 0.9680 0.9680 0.9680 0.9680
2069.689300 0.9680 0.9680 0.9680 0.9680 0.9680
2074.044708 0.9680 0.9680 0.9680 0.9680 0.9680
2078.400117 0.9680 0.9680 0.9680 0.9680 0.9680
2082.755525 0.9680 0.9680 0.9680 0.9680 0.9680
2087.110934 0.9680 0.9680 0.9680 0.9680 0.9680
2091.466343 0.9685 0.9690 0.9690 0.9690 0.9690
2095.821751 0.9690 0.9690 0.9690 0.9690 0.9690
2100.177160 0.9690 0.9690 0.9690 0.9690 0.9690
2104.532568 0.9690 0.9690 0.9690 0.9690 0.9690
2108.887977 0.9690 0.9690 0.9690 0.9690 0.9700
2113.243385 0.9710 0.9710 0.9710 0.9710 0.9710
2117.598794 0.9710 0.9710 0.9700 0.9690 0.9690
2121.954203 0.9690 0.9690 0.9690 0.9700 0.9710
2126.309611 0.9710 0.9710 0.9710 0.9710 0.9710
2130.665020 0.9710 0.9710 0.9710 0.9710 0.9710
2135.020428 0.9710 0.9710 0.9710 0.9710 0.9710
2139.375837 0.9710 0.9710 0.9710 0.9710 0.9710
2143.731245 0.9710 0.9710 0.9710 0.9710 0.9710
2148.086654 0.9710 0.9710 0.9710 0.9710 0.9710
2152.442063 0.9710 0.9710 0.9710 0.9710 0.9710
2156.797471 0.9710 0.9710 0.9710 0.9710 0.9710
2161.152880 0.9710 0.9710 0.9710 0.9710 0.9710
2165.508288 0.9710 0.9710 0.9710 0.9710 0.9710
2169.863697 0.9710 0.9710 0.9710 0.9710 0.9710
2174.219105 0.9710 0.9710 0.9710 0.9715 0.9720
2178.574514 0.9720 0.9720 0.9720 0.9720 0.9720
2182.929923 0.9721 0.9731 0.9740 0.9740 0.9740
2187.285331 0.9740 0.9740 0.9740 0.9740 0.9740
2191.640740 0.9740 0.9740 0.9740 0.9740 0.9740
2195.996148 0.9740 0.9740 0.9745 0.9750 0.9750
2200.351557 0.9750 0.9750 0.9750 0.9750 0.9750
2204.706965 0.9750 0.9750 0.9750 0.9750 0.9750
2209.062374 0.9750 0.9750 0.9750 0.9750 0.9750
2213.417783 0.9745 0.9740 0.9740 0.9740 0.9740
2217.773191 0.9740 0.9740 0.9740 0.9740 0.9740
2222.128600 0.9740 0.9740 0.9740 0.9740 0.9740
2226.484008 0.9740 0.9745 0.9750 0.9750 0.9750
2230.839417 0.9750 0.9750 0.9750 0.9750 0.9750
2235.194825 0.9750 0.9755 0.9760 0.9760 0.9760
2239.550234 0.9760 0.9761 0.9771 0.9780 0.9780
2243.905643 0.9780 0.9780 0.9779 0.9769 0.9760
2248.261051 0.9760 0.9760 0.9760 0.9760 0.9760
2252.616460 0.9761 0.9771 0.9780 0.9780 0.9780
2256.971868 0.9780 0.9780 0.9780 0.9780 0.9785
2261.327277 0.9790 0.9790 0.9790 0.9790 0.9790
2265.682685 0.9785 0.9780 0.9780 0.9780 0.9780
2270.038094 0.9780 0.9785 0.9790 0.9790 0.9788
2274.393503 0.9768 0.9750 0.9750 0.9750 0.9750
2278.748911 0.9750 0.9755 0.9760 0.9760 0.9761
2283.104320 0.9771 0.9780 0.9780 0.9780 0.9780
2287.459728 0.9780 0.9785 0.9790 0.9790 0.9790
2291.815137 0.9790 0.9790 0.9795 0.9801 0.9811
2296.170545 0.9820 0.9820 0.9821 0.9825 0.9830
2300.525954 0.9835 0.9841 0.9851 0.9860 0.9865
2304.881363 0.9871 0.9886 0.9900 0.9900 0.9900
2309.236771 0.9900 0.9900 0.9900 0.9900 0.9905
2313.592180 0.9911 0.9921 0.9930 0.9930 0.9931
2317.947588 0.9936 0.9941 0.9946 0.9950 0.9950
2322.302997 0.9949 0.9945 0.9940 0.9940 0.9940
2326.658405 0.9940 0.9940 0.9940 0.9940 0.9946
2331.013814 0.9951 0.9961 0.9970 0.9970 0.9970
2335.369223 0.9970 0.9970 0.9970 0.9969 0.9959
2339.724631 0.9950 0.9950 0.9950 0.9950 0.9950
2344.080040 0.9950 0.9950 0.9950 0.9949 0.9944
2348.435448 0.9940 0.9940 0.9941 0.9946 0.9950
2352.790857 0.9950 0.9950 0.9950 0.9950 0.9950
2357.146265 0.9950 0.9950 0.9950 0.9950 0.9950
2361.501674 0.9950 0.9950 0.9950 0.9951 0.9961
2365.857083 0.9970 0.9970 0.9970 0.9970 0.9970
2370.212491 0.9970 0.9970 0.9970 0.9970 0.9970
2374.567900 0.9969 0.9959 0.9949 0.9944 0.9936
2378.923308 0.9901 0.9869 0.9864 0.9860 0.9860
2383.278717 0.9859 0.9849 0.9840 0.9840 0.9840
2387.634125 0.9840 0.9840 0.9840 0.9840 0.9840
2391.989534 0.9840 0.9840 0.9840 0.9840 0.9839
2396.344943 0.9834 0.9830 0.9830 0.9831 0.9836
2400.700351 0.9840 0.9840 0.9840 0.9840 0.9840
2405.055760 0.9840 0.9840 0.9840 0.9841 0.9851
2409.411168 0.9860 0.9860 0.9860 0.9860 0.9860
2413.766577 0.9860 0.9861 0.9866 0.9870 0.9870
2418.121985 0.9870 0.9870 0.9870 0.9870 0.9870
2422.477394 0.9870 0.9871 0.9881 0.9890 0.9890
2426.832803 0.9890 0.9890 0.9890 0.9890 0.9891
2431.188211 0.9896 0.9900 0.9900 0.9900 0.9900
2435.543620 0.9900 0.9900 0.9900 0.9900 0.9900
2439.899028 0.9900 0.9900 0.9900 0.9900 0.9900
2444.254437 0.9901 0.9906 0.9910 0.9910 0.9910
2448.609845 0.9910 0.9910 0.9910 0.9910 0.9910
2452.965254 0.9912 0.9922 0.9928 0.9918 0.9910
2457.320663 0.9910 0.9910 0.9910 0.9910 0.9910
2461.676071 0.9911 0.9921 0.9930 0.9930 0.9930
2466.031480 0.9930 0.9930 0.9930 0.9930 0.9930
2470.386888 0.9931 0.9936 0.9940 0.9940 0.9940
2474.742297 0.9940 0.9941 0.9946 0.9950 0.9950
2479.097705 0.9950 0.9950 0.9950 0.9950 0.9950
2483.453114 0.9950 0.9950 0.9950 0.9950 0.9950
2487.808523 0.9950 0.9950 0.9950 0.9950 0.9950
2492.163931 0.9950 0.9950 0.9950 0.9950 0.9950
2496.519340 0.9950 0.9950 0.9949 0.9944 0.9940
2500.874748 0.9940 0.9940 0.9940 0.9940 0.9940
2505.230157 0.9940 0.9940 0.9940 0.9940 0.9941
2509.585565 0.9946 0.9949 0.9944 0.9940 0.9940
2513.940974 0.9940 0.9940 0.9940 0.9940 0.9940
2518.296383 0.9940 0.9940 0.9940 0.9940 0.9940
2522.651791 0.9940 0.9940 0.9941 0.9946 0.9950
2527.007200 0.9950 0.9950 0.9950 0.9950 0.9950
2531.362608 0.9949 0.9944 0.9940 0.9940 0.9940
2535.718017 0.9940 0.9940 0.9940 0.9940 0.9940
2540.073425 0.9941 0.9946 0.9949 0.9944 0.9940
2544.428834 0.9940 0.9940 0.9940 0.9940 0.9940
2548.784243 0.9940 0.9940 0.9939 0.9934 0.9930
2553.139651 0.9930 0.9930 0.9930 0.9930 0.9930
2557.495060 0.9930 0.9930 0.9930 0.9930 0.9928
2561.850468 0.9918 0.9910 0.9910 0.9910 0.9910
2566.205877 0.9910 0.9910 0.9910 0.9910 0.9909
2570.561285 0.9904 0.9900 0.9900 0.9900 0.9900
2574.916694 0.9900 0.9900 0.9900 0.9900 0.9900
2579.272103 0.9900 0.9900 0.9900 0.9901 0.9906
2583.627511 0.9910 0.9910 0.9910 0.9910 0.9910
2587.982920 0.9910 0.9910 0.9910 0.9910 0.9910
2592.338328 0.9910 0.9910 0.9910 0.9910 0.9910
2596.693737 0.9910 0.9910 0.9910 0.9910 0.9910
2601.049145 0.9910 0.9910 0.9910 0.9910 0.9910
2605.404554 0.9910 0.9910 0.9910 0.9910 0.9910
2609.759963 0.9910 0.9910 0.9909 0.9904 0.9900
2614.115371 0.9900 0.9900 0.9900 0.9900 0.9900
2618.470780 0.9899 0.9894 0.9890 0.9890 0.9890
2622.826188 0.9890 0.9890 0.9890 0.9890 0.9890
2627.181597 0.9890 0.9890 0.9888 0.9878 0.9870
2631.537005 0.9870 0.9870 0.9870 0.9870 0.9870
2635.892414 0.9870 0.9870 0.9870 0.9870 0.9869
2640.247823 0.9864 0.9860 0.9860 0.9860 0.9860
2644.603231 0.9858 0.9848 0.9840 0.9840 0.9840
2648.958640 0.9840 0.9840 0.9840 0.9840 0.9840
2653.314048 0.9840 0.9840 0.9840 0.9840 0.9840
2657.669457 0.9840 0.9839 0.9834 0.9830 0.9830
2662.024865 0.9829 0.9824 0.9820 0.9820 0.9820
2666.380274 0.9820 0.9820 0.9820 0.9818 0.9808
2670.735683 0.9800 0.9800 0.9800 0.9800 0.9800
2675.091091 0.9800 0.9800 0.9800 0.9800 0.9800
2679.446500 0.9800 0.9800 0.9800 0.9800 0.9800
2683.801908 0.9800 0.9800 0.9800 0.9800 0.9800
2688.157317 0.9800 0.9800 0.9800 0.9800 0.9800
2692.512725 0.9800 0.9800 0.9800 0.9799 0.9794
2696.868134 0.9790 0.9790 0.9790 0.9790 0.9789
2701.223543 0.9784 0.9780 0.9780 0.9778 0.9768
2705.578951 0.9759 0.9754 0.9749 0.9744 0.9740
2709.934360 0.9740 0.9738 0.9728 0.9719 0.9714
2714.289768 0.9708 0.9698 0.9689 0.9684 0.9679
2718.645177 0.9674 0.9670 0.9670 0.9668 0.9658
2723.000585 0.9650 0.9650 0.9649 0.9644 0.9640
2727.355994 0.9640 0.9639 0.9634 0.9630 0.9630
2731.711403 0.9630 0.9630 0.9630 0.9630 0.9628
2736.066811 0.9618 0.9610 0.9610 0.9609 0.9604
2740.422220 0.9600 0.9600 0.9600 0.9600 0.9599
2744.777628 0.9594 0.9590 0.9590 0.9590 0.9590
2749.133037 0.9590 0.9590 0.9587 0.9577 0.9570
2753.488445 0.9570 0.9570 0.9570 0.9569 0.9564
2757.843854 0.9560 0.9560 0.9560 0.9560 0.9560
2762.199263 0.9560 0.9558 0.9548 0.9540 0.9540
2766.554671 0.9540 0.9540 0.9539 0.9534 0.9529
2770.910080 0.9524 0.9516 0.9501 0.9489 0.9484
2775.265488 0.9477 0.9467 0.9459 0.9454 0.9450
2779.620897 0.9450 0.9448 0.9438 0.9429 0.9424
2783.976305 0.9420 0.9420 0.9420 0.9420 0.9420
2788.331714 0.9420 0.9420 0.9420 0.9419 0.9414
2792.687122 0.9407 0.9397 0.9390 0.9390 0.9387
2797.042531 0.9377 0.9367 0.9357 0.9347 0.9337
2801.397940 0.9327 0.9317 0.9306 0.9291 0.9279
2805.753348 0.9274 0.9266 0.9251 0.9237 0.9227
2810.108757 0.9215 0.9195 0.9177 0.9167 0.9159
2814.464165 0.9154 0.9147 0.9137 0.9125 0.9105
2818.819574 0.9083 0.9058 0.9026 0.8976 0.8933
2823.174982 0.8908 0.8882 0.8852 0.8825 0.8805
2827.530391 0.8783 0.8758 0.8731 0.8696 0.8657
2831.885800 0.8607 0.8559 0.8519 0.8469 0.8388
2836.241208 0.8304 0.8215 0.8123 0.8028 0.7931
2840.596617 0.7826 0.7715 0.7590 0.7490 0.7455
2844.952025 0.7418 0.7373 0.7332 0.7302 0.7251
2849.307434 0.7146 0.7029 0.6879 0.6730 0.6584
2853.662842 0.6450 0.6345 0.6238 0.6128 0.6019
2858.018251 0.5909 0.5797 0.5682 0.5566 0.5446
2862.373660 0.5330 0.5225 0.5119 0.5009 0.4905
2866.729068 0.4815 0.4729 0.4654 0.4580 0.4510
2871.084477 0.4389 0.4149 0.3980 0.3980 0.4037
2875.439885 0.4232 0.4386 0.4441 0.4509 0.4609
2879.795294 0.4735 0.4925 0.5146 0.5446 0.5713
2884.150702 0.5898 0.6033 0.6043 0.6053 0.6063
2888.506111 0.6070 0.6070 0.6064 0.6044 0.6024
2892.861520 0.6004 0.5978 0.5938 0.5895 0.5845
2897.216928 0.5797 0.5752 0.5704 0.5649 0.5595
2901.572337 0.5545 0.5497 0.5452 0.5410 0.5374
2905.927745 0.5327 0.5252 0.5183 0.5128 0.5073
2910.283154 0.5018 0.4968 0.4928 0.4885 0.4835
2914.638562 0.4783 0.4729 0.4672 0.4612 0.4542
2918.993971 0.4447 0.4346 0.4231 0.4105 0.3954
2923.349380 0.3828 0.3758 0.3679 0.3579 0.3479
2927.704788 0.3379 0.3281 0.3186 0.3091 0.2996
2932.060197 0.2930 0.2930 0.2957 0.3047 0.3143
2936.415605 0.3253 0.3353 0.3428 0.3524 0.3670
2940.771014 0.3808 0.3928 0.4040 0.4135 0.4203
2945.126422 0.4213 0.4222 0.4227 0.4230 0.4230
2949.481831 0.4161 0.3941 0.3729 0.3535 0.3377
2953.837240 0.3302 0.3222 0.3132 0.3030 0.2899
2958.192648 0.2769 0.2645 0.2558 0.2553 0.2555
2962.548057 0.2570 0.2598 0.2653 0.2704 0.2749
2966.903465 0.2813 0.2918 0.3120 0.3529 0.3925
2971.258874 0.4290 0.4618 0.4868 0.5105 0.5312
2975.614282 0.5495 0.5630 0.5850 0.6245 0.6608
2979.969691 0.6908 0.7190 0.7435 0.7660 0.7845
2984.325100 0.7986 0.8036 0.8101 0.8196 0.8284
2988.680508 0.8359 0.8429 0.8489 0.8561 0.8656
2993.035917 0.8749 0.8834 0.8903 0.8943 0.8982
2997.391325 0.9017 0.9048 0.9073 0.9105 0.9150
3001.746734 0.9196 0.9246 0.9288 0.9313 0.9333
3006.102142 0.9343 0.9355 0.9370 0.9388 0.9413
3010.457551 0.9439 0.9464 0.9483 0.9493 0.9505
3014.812960 0.9520 0.9535 0.9550 0.9565 0.9580
3019.168368 0.9592 0.9597 0.9607 0.9627 0.9645
3023.523777 0.9660 0.9672 0.9677 0.9680 0.9680
3027.879185 0.9685 0.9700 0.9712 0.9717 0.9720
3032.234594 0.9720 0.9723 0.9733 0.9742 0.9747
3036.590002 0.9750 0.9750 0.9752 0.9757 0.9760
3040.945411 0.9760 0.9763 0.9773 0.9780 0.9780
3045.300820 0.9782 0.9787 0.9788 0.9783 0.9782
3049.656228 0.9787 0.9790 0.9790 0.9792 0.9797
3054.011637 0.9800 0.9800 0.9803 0.9813 0.9820
3058.367045 0.9820 0.9822 0.9827 0.9830 0.9830
3062.722454 0.9832 0.9837 0.9840 0.9840 0.9844
3067.077862 0.9854 0.9860 0.9860 0.9862 0.9867
3071.433271 0.9870 0.9870 0.9874 0.9884 0.9887
3075.788680 0.9877 0.9870 0.9870 0.9870 0.9870
3080.144088 0.9874 0.9884 0.9890 0.9890 0.9890
3084.499497 0.9890 0.9890 0.9890 0.9890 0.9890
3088.854905 0.9890 0.9890 0.9892 0.9897 0.9902
3093.210314 0.9907 0.9908 0.9903 0.9900 0.9900
3097.565722 0.9900 0.9900 0.9902 0.9907 0.9910
3101.921131 0.9910 0.9910 0.9910 0.9910 0.9910
3106.276540 0.9910 0.9910 0.9910 0.9910 0.9910
3110.631948 0.9910 0.9908 0.9903 0.9900 0.9900
3114.987357 0.9900 0.9900 0.9900 0.9900 0.9900
3119.342765 0.9900 0.9900 0.9900 0.9902 0.9907
3123.698174 0.9910 0.9910 0.9910 0.9910 0.9910
3128.053582 0.9910 0.9908 0.9903 0.9900 0.9900
3132.408991 0.9900 0.9900 0.9900 0.9900 0.9900
3136.764400 0.9900 0.9900 0.9900 0.9900 0.9900
3141.119808 0.9902 0.9907 0.9910 0.9910 0.9910
3145.475217 0.9910 0.9910 0.9910 0.9908 0.9903
3149.830625 0.9900 0.9900 0.9900 0.9900 0.9900
3154.186034 0.9900 0.9900 0.9900 0.9900 0.9900
3158.541442 0.9900 0.9900 0.9900 0.9900 0.9900
3162.896851 0.9900 0.9900 0.9900 0.9898 0.9893
3167.252260 0.9890 0.9890 0.9890 0.9890 0.9890
3171.607668 0.9890 0.9886 0.9876 0.9870 0.9870
3175.963077 0.9870 0.9870 0.9870 0.9870 0.9868
3180.318485 0.9863 0.9860 0.9860 0.9860 0.9860
3184.673894 0.9860 0.9860 0.9860 0.9860 0.9856
3189.029302 0.9846 0.9840 0.9840 0.9840 0.9840
3193.384711 0.9840 0.9840 0.9840 0.9840 0.9840
3197.740120 0.9840 0.9838 0.9833 0.9830 0.9830
3202.095528 0.9830 0.9830 0.9830 0.9830 0.9830
3206.450937 0.9830 0.9830 0.9830 0.9830 0.9830
3210.806345 0.9830 0.9830 0.9828 0.9823 0.9820
3215.161754 0.9820 0.9820 0.9820 0.9820 0.9820
3219.517162 0.9820 0.9820 0.9816 0.9806 0.9800
3223.872571 0.9800 0.9800 0.9800 0.9800 0.9800
3228.227980 0.9800 0.9800 0.9800 0.9800 0.9800
3232.583388 0.9800 0.9798 0.9793 0.9790 0.9790
3236.938797 0.9790 0.9790 0.9790 0.9790 0.9790
3241.294205 0.9790 0.9790 0.9790 0.9788 0.9783
3245.649614 0.9780 0.9780 0.9780 0.9780 0.9780
3250.005022 0.9780 0.9780 0.9780 0.9780 0.9780
3254.360431 0.9776 0.9766 0.9758 0.9753 0.9750
3258.715840 0.9750 0.9750 0.9750 0.9748 0.9743
3263.071248 0.9740 0.9740 0.9740 0.9740 0.9740
3267.426657 0.9740 0.9740 0.9740 0.9740 0.9740
3271.782065 0.9740 0.9740 0.9736 0.9726 0.9718
3276.137474 0.9713 0.9710 0.9710 0.9710 0.9710
3280.492882 0.9710 0.9710 0.9710 0.9710 0.9710
3284.848291 0.9710 0.9710 0.9710 0.9710 0.9710
3289.203700 0.9710 0.9710 0.9706 0.9696 0.9690
3293.559108 0.9690 0.9690 0.9690 0.9690 0.9690
3297.914517 0.9688 0.9683 0.9680 0.9680 0.9680
3302.269925 0.9680 0.9680 0.9680 0.9678 0.9673
3306.625334 0.9666 0.9656 0.9648 0.9643 0.9638
3310.980742 0.9633 0.9626 0.9616 0.9608 0.9603
3315.336151 0.9598 0.9593 0.9590 0.9590 0.9590
3319.691560 0.9590 0.9590 0.9590 0.9586 0.9576
3324.046968 0.9570 0.9570 0.9568 0.9563 0.9560
3328.402377 0.9560 0.9556 0.9546 0.9540 0.9540
3332.757785 0.9538 0.9533 0.9530 0.9530 0.9530
3337.113194 0.9530 0.9530 0.9530 0.9530 0.9530
3341.468602 0.9530 0.9530 0.9530 0.9530 0.9530
3345.824011 0.9530 0.9530 0.9530 0.9530 0.9530
3350.179420 0.9528 0.9523 0.9520 0.9520 0.9520
3354.534828 0.9520 0.9516 0.9506 0.9500 0.9500
3358.890237 0.9500 0.9500 0.9500 0.9500 0.9500
3363.245645 0.9500 0.9500 0.9500 0.9500 0.9500
3367.601054 0.9505 0.9515 0.9520 0.9520 0.9520
3371.956462 0.9520 0.9520 0.9520 0.9520 0.9520
3376.311871 0.9520 0.9520 0.9520 0.9520 0.9520
3380.667280 0.9520 0.9520 0.9520 0.9522 0.9527
3385.022688 0.9530 0.9530 0.9530 0.9530 0.9532
3389.378097 0.9537 0.9540 0.9540 0.9540 0.9540
3393.733505 0.9540 0.9540 0.9540 0.9540 0.9540
3398.088914 0.9540 0.9538 0.9533 0.9530 0.9530
3402.444322 0.9530 0.9530 0.9530 0.9530 0.9528
3406.799731 0.9523 0.9520 0.9520 0.9520 0.9520
3411.155140 0.9520 0.9520 0.9520 0.9520 0.9520
3415.510548 0.9520 0.9520 0.9520 0.9520 0.9520
3419.865957 0.9520 0.9520 0.9520 0.9520 0.9520
3424.221365 0.9520 0.9520 0.9520 0.9520 0.9520
3428.576774 0.9515 0.9505 0.9500 0.9500 0.9498
3432.932182 0.9493 0.9490 0.9490 0.9490 0.9490
3437.287591 0.9488 0.9483 0.9475 0.9465 0.9458
3441.643000 0.9453 0.9450 0.9450 0.9445 0.9435
3445.998408 0.9430 0.9430 0.9430 0.9430 0.9430
3450.353817 0.9430 0.9428 0.9423 0.9418 0.9413
3454.709225 0.9410 0.9410 0.9410 0.9410 0.9410
3459.064634 0.9410 0.9405 0.9395 0.9388 0.9383
3463.420042 0.9380 0.9380 0.9380 0.9380 0.9380
3467.775451 0.9380 0.9378 0.9373 0.9365 0.9355
3472.130860 0.9348 0.9343 0.9338 0.9333 0.9330
3476.486268 0.9330 0.9325 0.9315 0.9310 0.9310
3480.841677 0.9307 0.9303 0.9300 0.9300 0.9295
3485.197085 0.9285 0.9278 0.9273 0.9270 0.9270
3489.552494 0.9270 0.9270 0.9268 0.9263 0.9260
3493.907902 0.9260 0.9255 0.9245 0.9240 0.9240
3498.263311 0.9240 0.9240 0.9240 0.9240 0.9240
3502.618720 0.9240 0.9245 0.9255 0.9260 0.9260
3506.974128 0.9262 0.9267 0.9270 0.9270 0.9272
3511.329537 0.9277 0.9280 0.9280 0.9280 0.9280
3515.684945 0.9285 0.9295 0.9303 0.9308 0.9315
3520.040354 0.9325 0.9333 0.9338 0.9343 0.9348
3524.395762 0.9350 0.9350 0.9355 0.9365 0.9373
3528.751171 0.9377 0.9387 0.9402 0.9413 0.9418
3533.106580 0.9423 0.9428 0.9435 0.9445 0.9453
3537.461988 0.9458 0.9468 0.9483 0.9498 0.9513
3541.817397 0.9523 0.9528 0.9533 0.9538 0.9545
3546.172805 0.9555 0.9568 0.9583 0.9593 0.9598
3550.528214 0.9603 0.9608 0.9615 0.9625 0.9633
3554.883622 0.9638 0.9643 0.9648 0.9655 0.9665
3559.239031 0.9675 0.9685 0.9695 0.9705 0.9710
3563.594440 0.9710 0.9710 0.9710 0.9713 0.9718
3567.949848 0.9720 0.9720 0.9720 0.9720 0.9725
3572.305257 0.9735 0.9740 0.9740 0.9740 0.9740
3576.660665 0.9740 0.9740 0.9740 0.9740 0.9740
3581.016074 0.9740 0.9740 0.9740 0.9740 0.9740
3585.371482 0.9735 0.9725 0.9720 0.9720 0.9720
3589.726891 0.9720 0.9717 0.9712 0.9710 0.9710
3594.082300 0.9702 0.9687 0.9677 0.9672 0.9665
3598.437708 0.9655 0.9645 0.9635 0.9614 0.9584
3602.793117 0.9559 0.9539 0.9530 0.9530 0.9522
3607.148525 0.9507 0.9460 0.9385 0.9315 0.9250
3611.503934 0.9191 0.9136 0.9075 0.9010 0.8956
3615.859342 0.8911 0.8858 0.8798 0.8725 0.8639
3620.214751 0.8496 0.8306 0.8130 0.7965 0.7857
3624.570160 0.7797 0.7689 0.7539 0.7394 0.7254
3628.925568 0.7139 0.7044 0.6954 0.6869 0.6760
3633.280977 0.6630 0.6541 0.6486 0.6452 0.6437
3637.636385 0.6419 0.6399 0.6390 0.6390 0.6398
3641.991794 0.6413 0.6472 0.6567 0.6632 0.6672
3646.347202 0.6824 0.7068 0.7319 0.7574 0.7804
3650.702611 0.8014 0.8202 0.8372 0.8507 0.8613
3655.058020 0.8707 0.8792 0.8913 0.9063 0.9191
3659.413428 0.9301 0.9392 0.9466 0.9525 0.9570
3663.768837 0.9604 0.9629 0.9648 0.9663 0.9673
3668.124245 0.9678 0.9688 0.9703 0.9721 0.9741
3672.479654 0.9753 0.9758 0.9760 0.9760 0.9766
3676.835062 0.9776 0.9780 0.9780 0.9783 0.9788
3681.190471 0.9790 0.9790 0.9790 0.9790 0.9793
3685.545880 0.9798 0.9800 0.9800 0.9800 0.9800
3689.901288 0.9800 0.9800 0.9806 0.9816 0.9820
3694.256697 0.9820 0.9823 0.9828 0.9833 0.9838
3698.612105 0.9848 0.9863 0.9876 0.9886 0.9893
3702.967514 0.9898 0.9903 0.9908 0.9916 0.9926
3707.322922 0.9933 0.9938 0.9943 0.9948 0.9956
3711.678331 0.9966 0.9970 0.9970 0.9973 0.9978
3716.033740 0.9980 0.9980 0.9986 0.9996 1.0003
3720.389148 1.0008 1.0010 1.0010 1.0010 1.0010
3724.744557 1.0010 1.0010 1.0001 0.9986 0.9977
3729.099965 0.9972 0.9964 0.9954 0.9950 0.9950
3733.455374 0.9950 0.9950 0.9947 0.9942 0.9940
3737.810782 0.9940 0.9937 0.9932 0.9930 0.9930
3742.166191 0.9930 0.9930 0.9930 0.9930 0.9924
3746.521599 0.9914 0.9910 0.9910 0.9910 0.9910
3750.877008 0.9910 0.9910 0.9910 0.9910 0.9916
3755.232417 0.9926 0.9930 0.9930 0.9930 0.9930
3759.587825 0.9930 0.9930 0.9933 0.9938 0.9940
3763.943234 0.9940 0.9940 0.9940 0.9940 0.9940
3768.298642 0.9943 0.9948 0.9950 0.9950 0.9950
3772.654051 0.9950 0.9950 0.9950 0.9950 0.9950
3777.009459 0.9950 0.9950 0.9950 0.9950 0.9950
3781.364868 0.9950 0.9950 0.9950 0.9950 0.9950
3785.720277 0.9950 0.9950 0.9947 0.9942 0.9943
3790.075685 0.9948 0.9950 0.9950 0.9950 0.9950
##END=
