##TITLE=1-Butanol
##JCAMP-DX=4.24
##DATA TYPE=INFRARED SPECTRUM
##CLASS=IUPAC A
##ORIGIN=NIST, Anayltical Chemistry Division, 301-975-3108
##OWNER=COPYRIGHT (C) 1998 by the U.S. Secretary of Commerce
##DATE=98/10/1
##$SPECTRA VERSION=1.00
##$UNCERTAINTY IN Y=2.0 % relative (B=1.0E-04,C=2.6E-10,D=2.7E-14)
##CAS NAME=1-Butanol
##CAS REGISTRY NO=71-36-3
##MOLFORM=C H3 C H2 C H2 C H2 O H
##MP=-89.53 C
##BP=117.25 C
##$NIST SOURCE=QUANT-IR
##SPECTROMETER/DATA SYSTEM=IFS66V (Bruker)
##INSTRUMENT PARAMETERS=KBr Beam splitter; MCT Detector; Multipass cell
##STATE=gas
##SAMPLE DESCRIPTION=1-Butanol Primary Gas Standard
##PRESSURE=101.3 kPa
##TEMPERATURE=23 C
##SAMPLING PROCEDURE=1 L/min Flow
##RESOLUTION=1.9290
##DATA PROCESSING=Boxcar Apodization
##XUNITS=cm-1
##YUNITS=(micromol/mol)-1m-1 (base 10)
##XFACTOR=1.0
##YFACTOR=4.5474E-13
##DELTAX=0.9645
##FIRSTX=574.687
##LASTX=3974.595
##FIRSTY=1.27E-06
##MAXX=3973.63
##MINX=574.69
##MAXY=.0005377
##MINY=6.76E-07
##NPOINTS=3527
##XYDATA=(X++(Y..Y))
574.69 2809936 7488752 13241620 9257160 9356232 8794114
579.51 10132210 4772760 7141684 9549316 6315042 10938520
585.29 9206596 7298216 7424192 11282030 9754426 5778176
591.08 12108980 10199910 6326514 4035762 5007728 10411880
596.86 8962746 10902980 9042960 9806250 7165958 6848494
602.65 8470130 8156472 9710896 4670094 9505848 9515644
608.44 8431338 6815786 6217278 5956860 9724070 6275578
614.22 9467938 8352954 8722374 7676668 10285560 8230662
620.01 10630920 8100560 6657608 5258632 9210916 7415344
625.79 10570360 12341170 8356370 7706646 5126988 9214160
631.58 10730840 7707412 10166270 9087632 7320878 8408668
637.36 8736236 7477294 10724750 7144526 9646936 8819204
643.15 5462892 9360258 7827606 6598844 9311056 8498570
648.93 8562342 8527454 9101754 7455744 8195938 10233700
654.72 6189410 8056806 7518204 8725186 9351430 7491532
660.50 9192064 8968396 9450464 8427414 7786524 7647776
666.29 8814590 8854434 7548642 8354784 6928362 5503128
672.08 8480262 6959216 8149254 9407306 5996118 7832152
677.86 8474008 5641504 7338538 7095060 6563358 6705206
683.65 7342822 7486020 8754554 7693124 9574880 4281778
689.43 7084930 7611314 6649646 6100134 7469854 7055624
695.22 9215766 6656904 7650146 6033962 6393400 9731562
701.00 7899956 6131416 7594338 7697646 7664282 8234214
706.79 7672194 7138570 8412336 9030220 9212084 9320460
712.57 7782340 9622488 10940060 8829104 9824530 10787180
718.36 9946104 10114050 12797400 9837308 13742220 12704000
724.14 14256900 14520560 14005940 14748200 15723670 16116530
729.93 16536720 18130500 17685210 18509750 18094500 18695380
735.71 21101410 20299130 21469810 22211630 25455800 21020960
741.50 20657170 21266630 19894780 21595970 18624080 19975690
747.29 20952160 19404870 20403500 18629930 17960920 20340280
753.07 16840450 17670650 15916350 16283970 15241850 15957100
758.86 15162190 14022590 13909910 12581150 13053680 12846910
764.64 11078430 12143260 9735296 10459510 11441030 9672594
770.43 9700320 9791672 8939436 9614132 9028080 8811286
776.21 10348260 8677218 9701820 9144316 10121670 9524506
782.00 10323640 11361230 8788366 8517852 10083090 8828770
787.78 11738790 11355060 12075780 11213730 14689410 13692570
793.57 12316470 13803860 12356190 13104470 13212840 15661040
799.35 14193750 14122180 15807830 15514180 14378610 16132570
805.14 17571890 15378540 15365850 16989120 17015000 16150760
810.93 16324150 19272420 17638570 19129590 18056020 18870090
816.71 18689210 20392910 22776100 21131780 20474930 21913360
822.50 24280050 23256580 26425990 28442220 28434000 29815280
828.28 31778530 31217480 36236750 36092890 40217620 40787600
834.07 42842700 46203850 48178460 50606550 49880780 52505840
839.85 53785090 54256710 54428430 51907940 52857980 51772970
845.64 52584860 52992360 54288670 55281710 54986700 56388220
851.42 56292310 55473860 53851340 52330590 50726570 49143980
857.21 47418200 45613100 43686160 41728560 39890850 38163720
862.99 36107320 34177460 32950530 31331310 28879550 28976600
868.78 27197490 27236960 25757000 24707230 24784990 23155840
874.57 23215440 23530780 20516740 22278070 22042840 20938810
880.35 21281540 20176240 20714180 20412160 21285940 21403250
886.14 22395500 22658410 23491650 23345430 25307930 25829440
891.92 26975720 28429850 27512790 27922270 28479730 28134610
897.71 28751700 28126340 29607430 28418010 30208110 30338240
903.49 30935970 31248710 33617200 33074420 32678810 33196770
909.28 32700180 31515410 32797940 31758640 30634330 31509450
915.06 31880090 31143350 33044160 33859500 34802040 36230960
920.85 38480540 39398190 42266380 43128320 45914760 48536160
926.63 51930190 53471780 57231430 59598390 63315800 67220640
932.42 69621490 74222860 76312760 80070460 84548430 88306090
938.21 92428160 96826460 99308850 104300300 106808700 107495400
943.99 111413200 114724700 115730500 115815000 117592200 118718400
949.78 122099400 121838100 121073600 122348600 122651200 121674900
955.56 120358600 118541600 118554000 116353100 116049400 113175500
961.35 111089900 108990500 106927600 104025700 101556000 99149180
967.13 97270200 94647610 92802520 90035820 88675980 87867370
972.92 88178130 87519050 87284500 88036790 90109060 91207450
978.70 94228040 95893540 97462830 99216450 100857900 102204800
984.49 102280300 101305800 99316850 98962380 101349300 103851000
990.27 110716600 110663700 115560200 122260500 128126600 130959600
996.06 132572600 134131800 133892400 134321100 133127500 133530600
1001.85 135532400 138102500 141908200 144597500 149428300 154459900
1007.63 158920200 161028300 167404300 173479400 179838200 184362100
1013.42 191241800 197986600 204908300 210838800 218219000 226708600
1019.20 235107200 243348200 252723200 260087100 267293300 273305300
1024.99 280463600 285376700 293953900 302301900 314321500 322317100
1030.77 335328300 350929200 365666600 380104700 397222000 412229800
1036.56 424859800 433324900 440357100 446201200 449118200 449879800
1042.34 445714900 442071700 443334100 441064400 435851500 437998800
1048.13 443871600 447164800 450523500 454251900 461661500 468394100
1053.91 473756800 473467300 470621800 464031600 458733500 453009900
1059.70 450553700 449375000 449084200 451411300 461579800 466911900
1065.48 465326500 471900000 480990500 486762000 485732900 483225000
1071.27 477182600 467398400 457720900 452523100 449530100 444137900
1077.06 440073900 433342600 421557300 401897200 385051400 369318100
1082.84 352576700 337199800 320241000 304345900 286914500 270627900
1088.63 258390800 242631600 231826300 222246800 210091100 200728300
1094.41 191920400 184010200 176375200 168406800 159900900 155133100
1100.20 147524200 140515300 133463700 127518900 122712800 115252800
1105.98 111789000 107537500 102897100 99453070 97347860 95046110
1111.77 91405000 88629770 85595670 83763590 80661180 78671800
1117.55 76556820 74230660 71211420 69338400 67188080 65219110
1123.34 63293690 61707090 59394320 58698940 56774570 55886100
1129.12 53166150 52227350 50180040 49065900 48377430 46816630
1134.91 45721670 45005080 43838100 42885860 42006540 41489920
1140.70 40142600 40376440 38695530 38720250 38276160 37928730
1146.48 37849590 37737940 37532700 38061020 36533800 36927430
1152.27 37069980 36766070 37445120 37318740 37451590 37040730
1158.05 38606800 37940460 38728880 39579560 39678340 40080570
1163.84 40417150 41635480 42539110 42865370 43394810 44176500
1169.62 45615420 45716720 47086220 48021060 49343000 50001540
1175.41 51675970 52808700 54335100 55188280 56294510 57554690
1181.19 59978840 60478660 62358540 64110220 65395880 67303390
1186.98 69553960 71079220 73638500 76084840 78417120 79623340
1192.76 81652210 83291300 86074290 87456150 89662040 91185750
1198.55 92215610 93680850 96395870 97250740 98939150 100619400
1204.34 102185200 103348800 104447500 106372600 107376400 107392200
1210.12 108059800 108287600 108821300 108045900 108614700 108098000
1215.91 107552600 107283400 106138100 104899900 102986200 101974300
1221.69 99890030 98167610 97990770 96205650 95235580 93955250
1227.48 91521930 89953220 87861820 85694890 83990480 81569780
1233.26 80611140 78608670 77186520 75855150 75192600 73998370
1239.05 73896020 72815980 72395350 71970180 71455060 70874300
1244.83 71413120 70647660 71032320 70218260 71363220 72002290
1250.62 71185210 72409700 72178080 73650470 73312930 73983600
1256.40 74500580 74900450 76498670 76309570 77191580 77575390
1262.19 78600740 79041700 80436200 80963720 82064540 81552310
1267.98 81334070 81803250 82379050 83120990 82992960 83320300
1273.76 84551400 84989470 85204900 85469690 84327900 84707940
1279.55 84653490 83885820 83244500 83068820 82397460 81307270
1285.33 80458740 80080580 79594840 78473570 77217420 77702300
1291.12 75504060 74596660 72892030 71802300 70535250 68882720
1296.90 67914770 67155930 65488000 64146080 63231190 61770170
1302.69 60745700 59294890 58798900 58160940 57923690 56971040
1308.47 57097110 56391600 55902840 55160250 55540760 54689210
1314.26 53919450 54367850 54701700 54329280 53912600 54320280
1320.04 54429360 54836950 55720340 55846220 56688160 57024550
1325.83 58303810 59450650 59471830 62222400 63514730 65614030
1331.61 66820390 67940580 69295600 71047700 71724430 72731470
1337.40 72937140 73388750 74051430 74088660 74553520 74943700
1343.19 75068860 75687140 74792050 75110760 75602360 75569090
1348.97 75291490 75364570 75560940 75459660 75346960 74892310
1354.76 74477530 75457490 74124190 75074670 75060720 76144070
1360.54 76823380 77818980 79248380 82332060 84473060 87970070
1366.33 91568470 96122910 101030300 106310700 112304000 118255800
1372.11 125430700 133129100 139384700 145533700 152179800 157114500
1377.90 162040900 166087200 167795700 170191800 174028000 182153800
1383.68 189976500 190424000 186150500 189815800 194064900 199127200
1389.47 201255700 200954700 195845500 191842100 186570800 178419500
1395.25 169780400 161923600 157377900 152077300 145911000 139385300
1401.04 132668300 126283800 119708800 112561000 105116300 98352580
1406.83 92908730 86874680 82243210 78311060 74131530 70685790
1412.61 67343520 64900840 62873690 60768830 59089680 57189880
1418.40 58818660 55714880 54046930 53659600 54036340 52696670
1424.18 53172260 53206300 53805040 55161330 55706550 56766820
1429.97 57673210 59329460 60634390 61013270 61785440 62616740
1435.75 66554860 68763910 71144540 71997580 73575330 77262230
1441.54 80537160 84732710 88677450 92368710 94901960 97829450
1447.32 100207800 102804600 105355500 107592600 110311600 113207200
1453.11 115574800 117726700 120430500 124980800 123422700 127506400
1458.89 129786900 134076800 136930500 139165600 141776100 146247700
1464.68 144049300 140701300 139114700 136724000 133065600 130343000
1470.47 130599300 132804600 133718700 129143800 127754500 128665200
1476.25 127049500 124772600 120834800 117367700 113016700 109536600
1482.04 105989000 101080800 96847660 92993610 88840390 85281450
1487.82 80173960 76754700 73200420 68240330 63200400 59534390
1493.61 55366350 52853840 50217810 44364500 42314220 38833250
1499.39 35005470 33062570 29911500 28155070 25714130 26039460
1505.18 25290410 23721110 20484680 19028950 18060640 15635810
1510.96 15755360 14610690 13308570 13241890 12936420 12807000
1516.75 12290090 10878340 10746580 12168050 11966620 10285980
1522.53 9958022 8939640 10655260 8606602 8936708 8593932
1528.32 8543564 7622416 8631988 7449828 8622884 9081798
1534.11 7059600 8184228 7502720 7532734 10661450 9954758
1539.89 8512458 8285372 8715476 6664568 8096054 7007880
1545.68 7150648 6784666 7061436 7031556 7293570 5996250
1551.46 6234398 6327510 8390828 6138162 6776720 7422750
1557.25 10600900 8123682 10337140 6473520 5980060 6074326
1563.03 6053012 6022458 5874782 6228708 6249210 6029140
1568.82 7560106 5187026 5600506 5368042 6327498 5169722
1574.60 7467940 8814734 4721226 5436994 5019968 5462796
1580.39 5186634 4840716 5075690 5539640 4827660 4815928
1586.17 4695184 5037336 5031596 5232762 4590074 4914576
1591.96 4526132 4967286 5195844 4705132 4685688 4770734
1597.74 4653292 4773466 5000188 4269316 4524054 4612830
1603.53 5113894 4432966 4361894 4949018 4415770 4098478
1609.32 4847758 4478548 4615172 3805922 4488156 3979872
1615.10 6412036 7568130 4006850 4684796 4061190 4547816
1620.89 3949876 5199206 5152736 3929554 4289162 4127250
1626.67 4628676 4143514 4719402 3903960 4078462 4342050
1632.46 3291952 3798304 7320020 4708372 3953630 4073492
1638.24 3417154 4174912 3831058 3824668 4107786 3628492
1644.03 3898496 6397446 4280646 4711272 4209166 4379960
1649.81 3546016 5183208 9789028 6591108 4814902 3990668
1655.60 3684334 3397102 3259404 3951450 3618738 3598634
1661.38 4243754 4339448 3206442 3898638 3386698 3541156
1667.17 3574476 4912610 3724806 3709588 3980402 3795046
1672.96 2807060 5036206 5089298 3365368 3551128 3991950
1678.74 3885480 3870112 3392696 4670032 4462874 8308574
1684.53 5426612 3131636 4296550 3451080 4184314 3414596
1690.31 3688780 3746548 3907706 2965962 5574772 8472520
1696.10 3719668 4476562 3339566 7779902 6114274 3378078
1701.88 3698888 3585744 4157088 3692092 4332602 2721056
1707.67 3439576 3627346 3756772 3303078 3568472 3515622
1713.45 3686806 4235764 3000066 6354442 4152088 3405948
1719.24 2870556 3285666 2941522 3144742 3328644 2920840
1725.02 3146284 3475854 3250582 3201314 2950346 3427780
1730.81 3133030 3824534 5767264 5223878 3398894 3165196
1736.60 3610344 2837266 4032296 3934756 3161826 3111772
1742.38 3633874 3222084 2909986 3086974 3839618 3575694
1748.17 3570682 2687904 5437024 3707010 3267806 3386888
1753.95 2744536 3515552 4083552 3079200 3098940 2811466
1759.74 3026766 4324200 3184160 2756816 3132534 2825168
1765.52 2490704 2959056 4240100 2595448 3555978 3363650
1771.31 4505290 4152470 2189490 2940300 3303336 2886470
1777.09 3077468 3390896 3089042 3305110 2796274 3231548
1782.88 2532028 3580380 3486732 2733392 3637388 2977706
1788.66 2937986 3797096 2951258 4895332 3522982 3155098
1794.45 3168592 3303288 3448472 3252104 3844394 3855666
1800.24 3201138 3195658 2990098 2632548 2895612 3124948
1806.02 3195220 3457614 2821928 2714858 3276330 3118068
1811.81 3135412 2866910 2948834 2678176 2701186 2880550
1817.59 2603738 2669370 2837656 2475354 2785676 2810696
1823.38 2632244 3286082 2842796 2594290 2258834 3047442
1829.16 3479174 2414432 2850256 2399394 2469610 2359624
1834.95 2642548 2113134 2591296 2310682 2757650 2563804
1840.73 2715404 2438118 3406230 4226488 2604134 2910048
1846.52 2546066 2612966 2342742 2834052 2892324 2569562
1852.30 2729194 2900372 3064860 2746546 3005256 2937410
1858.09 2925302 3250310 3164006 2777940 2987240 2760990
1863.88 2664328 3511924 3246478 3659260 3463888 3296200
1869.66 3375180 2598958 2472430 3086914 3237102 3378922
1875.45 3017436 2971408 2690300 2845632 2968180 3109074
1881.23 2853438 3242880 2655660 2690018 2467420 2580970
1887.02 2533440 2853632 3623302 2557090 2356304 3016356
1892.80 3253356 2719612 2393424 2756442 2960632 2251658
1898.59 3236818 2850526 2979916 3167548 3236456 3476120
1904.37 3487004 2934062 3304324 3722862 3817516 3718680
1910.16 3564360 3189324 4004344 3628680 3512542 3659118
1915.94 4106922 3998550 4002064 3385692 3505158 4152488
1921.73 3920208 4448758 4044556 3829012 3980284 4152846
1927.51 3471178 3610772 3400192 3319060 3368960 3400688
1933.30 2664860 3434148 3541350 2602276 3349960 3607166
1939.09 2874042 2982480 3575336 3616596 3241866 3019112
1944.87 2999210 2969668 3255186 2850342 3033952 3279376
1950.66 3128170 2849636 3098242 3252180 3303234 3023926
1956.44 2602078 3328800 2894724 3454622 3195744 3328460
1962.23 3070504 3124738 3393756 2899322 3774172 3526438
1968.01 3522734 3657762 3727394 3773412 3427686 3979796
1973.80 3702228 3813730 3821660 3439644 3760982 3971866
1979.58 4112166 3633550 3459812 3692698 4334996 3934046
1985.37 3782836 3735948 3805220 3882590 3655076 3618886
1991.15 4286934 3526518 3776460 3410526 3771386 3892908
1996.94 3377188 3625120 3790840 4455360 3309200 3863850
2002.73 4319412 4118338 3779798 4311956 3951142 4049640
2008.51 4105196 4908638 4369718 4948890 4828144 4785630
2014.30 4854380 5243800 5530952 5562922 5944826 5585644
2020.08 5898986 5964232 6390838 6741192 6300630 6666312
2025.87 7090938 6861328 6845324 6681070 8250138 7038910
2031.65 7459290 7522800 7158210 7417344 7648984 7880006
2037.44 7685312 8093350 7577350 7590514 7521140 7179830
2043.22 7121518 6794780 6801548 6298080 6165344 6715502
2049.01 6138744 5960108 5814854 5505544 5693028 5413510
2054.79 5236178 5213590 4530036 4698262 4670850 4379686
2060.58 4591486 3907478 3499434 3877588 4017772 4136460
2066.37 3936436 3763360 3875856 4010544 4102050 3711434
2072.15 3320806 3934276 4117274 3552698 3387262 3668154
2077.94 3806622 3682410 3446464 3208430 3645436 2953336
2083.72 3998200 3537418 3236814 3417646 4160608 3114964
2089.51 3460648 4274724 3487140 3512916 3596162 3542574
2095.29 3320122 3271608 3237966 4052894 3645576 3609164
2101.08 3326062 3208464 3225872 3054240 3025160 2717574
2106.86 3124578 2912498 2828700 2964602 2435394 2802978
2112.65 2483292 2993982 2762480 2691234 2259916 2844024
2118.43 1889584 2303596 1917674 2191398 2603022 2217582
2124.22 1796152 1741276 2727076 1735818 2040562 1844064
2130.01 2122280 1670496 1713016 2450294 2129970 2186374
2135.79 1606822 2196088 1751078 1979934 1971166 1936030
2141.58 2579918 2075914 1988298 2291500 2018854 2163282
2147.36 2379076 2125096 2128040 2184750 2093674 2438074
2153.15 2176686 2819044 2399852 2296406 2242556 2783368
2158.93 2144002 2880198 2884286 2840974 2646522 2540866
2164.72 2594642 3052434 3039692 2928302 3022380 3529164
2170.50 3444582 3397966 3543222 3092224 3254072 3953642
2176.29 4096302 3670738 3701050 3429494 3681244 3243598
2182.07 3963254 4435664 3852150 3561658 4066212 4094304
2187.86 3726292 4073480 3408724 3830626 3899716 4227846
2193.64 3546754 3668328 3414234 3845260 3727214 3634572
2199.43 4036962 3949490 3446614 3541180 3839096 3472298
2205.22 3934328 3773140 3642296 3185312 3876190 3546896
2211.00 3287828 3668336 3619052 3726786 3547322 3520556
2216.79 3324368 3369476 3454096 3325576 3707740 3745274
2222.57 3098380 3321252 2916198 3440866 3506742 3046616
2228.36 3440450 3036500 3188562 3282088 3761174 3146962
2234.14 2943674 2911792 3527324 2774828 3415792 3349272
2239.93 3733976 3318094 3449974 3382828 2952376 3287484
2245.71 3432450 3602682 3494166 3252230 3064738 3844310
2251.50 3754702 3251570 3347720 3233408 3167052 4015022
2257.28 3573922 3734670 4189338 3742748 4123878 3776006
2263.07 3922824 4031096 4068540 3606256 3718508 4468980
2268.86 4145392 4430738 4445870 4193710 4391754 4768148
2274.64 4819072 4678020 4173806 4482784 3949010 4600598
2280.43 5070010 4610494 4476932 4693718 4815006 4571954
2286.21 4936254 4672772 4955918 4733742 5109248 4626246
2292.00 4701014 4632786 5287304 4996566 4162788 5646014
2297.78 4850774 4599082 5140506 4890890 4756606 5215254
2303.57 5536112 5326070 5115870 4825182 5373040 5939464
2309.35 5608646 5216486 5520746 5746628 5669976 6408118
2315.14 4954964 5659968 5517304 5737964 6035024 6519304
2320.92 5619922 6270674 5883734 6702170 6098912 6690950
2326.71 6069786 6943054 6203072 6881954 6444734 6820842
2332.50 6629396 6846886 6402360 6666108 6236194 6579892
2338.28 6134482 6412334 6352304 6146290 5908598 5877222
2344.07 6601022 5923778 5319940 5046670 4760232 4901796
2349.85 5126090 5523882 5456100 5389438 5620322 5780482
2355.64 5926944 6354048 6348094 6842184 6446820 6104964
2361.42 6412070 5952774 6338444 6147268 6317956 6010368
2367.21 6309472 6141656 6340206 5689030 5840260 5954936
2372.99 5969248 6240986 5815076 5337466 5265424 5746188
2378.78 6136110 5905128 6245916 6316660 5663930 5779382
2384.56 6459786 6120394 6797354 6319764 6373146 6104316
2390.35 5983690 6261972 6228556 6508820 6652134 6778174
2396.14 6258036 6249470 7130768 7249456 6828364 7317370
2401.92 6845394 7686880 7440604 7464010 7352880 7459052
2407.71 7381534 7530372 7558206 7688552 7567408 7465198
2413.49 7769208 7703486 7972748 8096792 8047206 7988758
2419.28 8034070 7278068 7627260 7693854 7758858 7532114
2425.06 7337086 7164902 7330390 6666842 7126294 6447040
2430.85 6836224 7283982 6810942 6501016 5843464 6512470
2436.63 6372418 6204534 5749716 6507394 6749562 6230998
2442.42 6183430 6004730 5791310 5745886 5738318 4924800
2448.20 5533590 5721246 5175918 5849908 5811120 5147254
2453.99 4914146 5424004 4968532 4727696 4657532 4677366
2459.77 4844338 5794528 4501518 4144290 4559872 4879544
2465.56 4803846 4802856 4896972 4319536 4504944 4398196
2471.35 4546642 3828966 3854606 4744658 4293780 4327562
2477.13 4192046 4208190 3908740 4323700 4454588 4553570
2482.92 3752202 4116766 4186230 3992248 3573538 4768738
2488.70 3960812 4050846 4322378 4205048 5112716 4443884
2494.49 3991010 4314270 4459936 4410640 4162842 4491402
2500.27 4185182 3518650 4549470 3723284 4838320 4511572
2506.06 4355440 4513244 4153856 4687986 3962014 4324680
2511.84 4580870 4792596 4884318 4224244 4990556 3920146
2517.63 3935558 4295944 4594436 4745882 4577252 4307076
2523.41 4804498 4751276 4607662 4428324 4404340 4466500
2529.20 5455456 4483394 4703232 4831304 4699084 5077278
2534.99 4219764 5109458 5082876 5067298 4219564 4296712
2540.77 4971822 5197502 4985560 5074242 4849272 4892344
2546.56 5036346 4979134 5056536 5047290 5105802 5644740
2552.34 4872994 5356542 5300530 5330992 5662138 5125304
2558.13 4951370 5377340 4935600 5025594 5511372 5765730
2563.91 5336432 5652670 5852684 5399658 5795592 6238992
2569.70 6071096 5823784 5520650 6335438 5629032 6145856
2575.48 6426900 6708352 6638206 6527572 6246980 7636032
2581.27 6125376 6746070 7378180 6210738 6733756 7342834
2587.05 7330158 7874336 7781878 6608216 7890470 7284422
2592.84 7983948 7959188 7738564 8174698 8223574 8465460
2598.63 7861896 8346414 8586110 8295446 8299056 7950780
2604.41 8473402 8431272 8645632 8970450 8637518 8656412
2610.20 9021646 9317474 9370382 9585520 8833268 9490786
2615.98 9478952 9600788 9814308 8975848 9799328 9891806
2621.77 9431818 9922190 9898758 9652786 10390660 9743172
2627.55 10374800 10487130 10569150 10401260 10584230 10244810
2633.34 10718850 11470780 9746634 10675210 10709130 10967170
2639.12 10712160 11958700 12282400 10973810 11904990 11848630
2644.91 11363460 12103710 11713620 12358110 13112040 11496610
2650.69 12654410 12744010 12905440 13208880 13715620 12717380
2656.48 13308960 14182920 13775090 14271040 15272900 14992650
2662.27 14518010 15048480 15201940 15120330 16375550 15054070
2668.05 16222170 16373910 16365490 16431760 16668420 16696510
2673.84 16449210 17064340 17180620 17687820 17713540 18094560
2679.62 17219080 17732620 17430580 18508020 18102290 17848300
2685.41 17550860 17943030 18647590 18115970 18726230 18840680
2691.19 18903420 18875840 19111230 18978430 18762250 19678000
2696.98 19393720 18654170 19631850 19460290 19961690 18948820
2702.76 19837320 20425180 20223180 20165060 21065050 21136070
2708.55 20447140 21079730 21253000 21418910 22491030 22965690
2714.33 22492640 22922470 22821500 22067230 23529250 23456080
2720.12 24292440 23710530 25246180 24699170 25212340 25153660
2725.91 26671780 26554170 27377140 27075490 27715820 28899460
2731.69 29150000 30405010 30567620 31477370 32403210 33076820
2737.48 32818060 33883160 34252680 35821710 35424510 35407110
2743.26 36553900 36040560 36836290 36799220 37589680 38051340
2749.05 38612690 40130410 39166680 39173620 38997490 39874380
2754.83 38626180 38613600 38886580 38030060 39052630 39644980
2760.62 39158960 39503450 39122520 39960440 39874740 39521470
2766.40 40473460 40532150 40522550 41102460 41381720 41410440
2772.19 41807220 42045780 42594730 43898880 43147640 43644460
2777.97 43556610 44651660 44343170 45285640 45191030 46401760
2783.76 47069300 46417120 47763010 48449870 47942060 48400900
2789.54 49475600 49676800 49274680 50279100 48854370 50293040
2795.33 49872460 50551420 50557840 50656490 50322300 51376120
2801.12 50730120 50609130 50783500 51874300 51724380 51386900
2806.90 53320160 52499930 52691680 54001930 53600240 54605970
2812.69 54772210 56057150 56520790 58061620 59265060 60070620
2818.47 60328230 61734570 62754470 64702220 66286130 68533190
2824.26 70629700 71987480 74607870 76924530 79917160 83153460
2830.04 86661540 90022430 94873340 98233080 102511900 106426300
2835.83 111818800 116705400 121163700 128776100 135587400 142785300
2841.61 149832100 157881800 166202300 174566100 183530100 191755800
2847.40 200887900 211098300 219168800 229874000 239286800 248283800
2853.18 259560100 271307300 283195200 294266200 308823600 321321400
2858.97 333874800 348584800 360223500 377709400 391140300 407807600
2864.76 423281300 440732500 457893600 475061000 494176000 511727200
2870.54 533338000 554344800 578252000 604435500 631220900 659422300
2876.33 685682300 710492400 724932300 737328200 738389300 736338500
2882.11 728668100 723843000 724456400 752119100 747770800 721919200
2887.90 722287700 723739600 734312000 738945600 739341600 733782700
2893.68 722122800 704281200 687344900 669734600 655038800 639102700
2899.47 626447300 615877800 609766500 604322400 600750700 600261400
2905.25 599095600 600365300 603944900 610854100 617851800 626450900
2911.04 632574900 640139300 650031000 660355100 667244700 676787500
2916.82 687793600 697822800 706289600 718872900 733219600 746916200
2922.61 760464200 775532000 788765300 802952900 820151100 832296500
2928.40 846036300 861567200 875983900 889152600 906669200 924622000
2934.18 944125400 960412800 978271100 992194400 1004820000 1011009000
2939.97 1013007000 1017859000 1021241000 1022477000 1018538000 1007416000
2945.75 995993900 990269100 990434400 988185500 988910500 990756100
2951.54 992889000 996722600 1004094000 1004500000 1007062000 1007602000
2957.32 1012204000 1016761000 1024777000 1031753000 1044658000 1057434000
2963.11 1068369000 1084218000 1117469000 1160739000 1182584000 1144408000
2968.89 1092639000 1051516000 1018476000 991316400 982734300 974278100
2974.68 948720600 927051100 909455000 893375800 868482000 838655200
2980.46 797533000 749639700 699461800 646105500 588581700 536055000
2986.25 485370000 439406200 394341200 354961300 320891400 289643900
2992.04 261471200 237965700 213497100 191891600 174285700 158174200
2997.82 142184000 128888100 116458700 105195300 94422710 84935980
3003.61 77025340 71060030 64751190 59102750 53164800 48941110
3009.39 44969080 42678720 40078620 36987700 34852200 34071210
3015.18 31283350 30272870 28928250 27675230 26502290 26433240
3020.96 26033390 24528120 23860830 23668190 23227230 22228550
3026.75 24445240 21223050 21850400 22073160 21869110 20599420
3032.53 20757420 21704220 21317780 21480950 20413120 21744720
3038.32 19470100 20823740 20996740 20606230 20527450 20053730
3044.10 21394540 20058860 20452130 19771410 19690100 19595100
3049.89 20014430 19117590 20094800 19451610 19547880 18382970
3055.67 18567710 17391190 17507680 17105320 18131810 16838210
3061.46 17582410 15932570 17251940 16584080 15495060 14737090
3067.25 14989880 14397400 13841070 13799230 13805960 12879380
3073.03 13410000 12554300 12757070 11642450 12231790 10535200
3078.82 11630430 11537540 12585700 11888860 11006410 11353400
3084.60 10795370 11500490 10135490 10707220 10858990 10070000
3090.39 10761670 9809462 9738746 11142470 10496520 10295910
3096.17 9823838 10169360 9538764 10053590 11030360 9928352
3101.96 9154874 9807426 9165568 9297334 9747676 9009160
3107.74 10086810 9046656 9197100 8417882 8702990 8630522
3113.53 8073912 8820306 8959842 9621710 8560676 8957662
3119.31 7629528 9662766 8959916 9434998 8739940 7803094
3125.10 8769578 8508976 8507944 9242574 8707984 9321582
3130.89 7901418 9373056 8379952 9425924 8418212 8338712
3136.67 8866964 8632130 8971782 9419852 8459628 8647044
3142.46 7776662 9625522 9573074 8230492 9068216 8712598
3148.24 8327310 9113540 8467508 8630410 8390748 9368344
3154.03 9254118 8596270 9004132 8259258 8280844 8992134
3159.81 8138670 9280986 8414806 8209190 7551342 9781602
3165.60 8603188 8758802 8589232 9191202 8787540 8750602
3171.38 7938968 8967166 8761562 8507674 8693668 9006116
3177.17 7810846 9182972 9276310 8805864 9211912 7512218
3182.95 9817972 8652286 10397080 8659686 9805714 8616004
3188.74 9445204 9811536 10266030 9668648 9263460 9588634
3194.53 9931754 9841882 9905658 10335500 10043640 9463342
3200.31 8866464 9718898 8639428 9127856 9786010 9386626
3206.10 9350444 7943524 9290648 7716390 9880400 7284634
3211.88 8638652 8582096 7504008 8733208 7597554 7431158
3217.67 7058680 6702232 7245450 7386630 5689582 5804660
3223.45 5004492 5966020 5934582 6549284 5729890 4832344
3229.24 4693120 5336806 4629422 5414090 3421412 5663332
3235.02 5233326 4850544 4358260 2693802 3961330 4674772
3240.81 5064110 3507630 4106792 3937524 2940120 4723672
3246.59 4396122 2853570 3060408 3273150 3300098 3695584
3252.38 3140996 3001802 3150748 3534118 3225308 2837546
3258.17 3011070 2605466 3558672 3158064 2040926 3069144
3263.95 3292086 2934510 3176518 4166460 3102234 2918014
3269.74 3153686 2104032 3019196 2227900 3111776 3383490
3275.52 2311314 3019388 3056202 2661486 3674134 2063874
3281.31 1640346 2591488 3298504 3332144 3212830 2780480
3287.09 3670530 1661216 2206534 2783490 2302756 2470602
3292.88 3016442 3630970 3618176 2224262 2257910 4055724
3298.66 2867980 3366258 2020546 2855108 2087458 2497096
3304.45 2715780 2704904 3614212 3783100 2743862 3090082
3310.23 3316812 3198872 2864436 3797150 2263900 4321020
3316.02 3024098 5396264 2846522 2999168 3066586 3714640
3321.80 3208332 3806122 3204960 3738788 2773504 3264000
3327.59 3113966 2871448 3975934 2203742 2441570 2991482
3333.38 3608276 2844444 3024664 3082586 2945350 4307790
3339.16 2398212 2538752 3059896 2591288 2706224 3063398
3344.95 2092862 2439116 2442872 2598108 2701234 3152876
3350.73 2208736 3483244 3112282 1486608 3289214 2685660
3356.52 2165930 3735192 3256734 3313258 2361874 3164920
3362.30 3002938 3187676 3983928 2158880 2390728 3053804
3368.09 2479358 4201854 3152782 2153748 3249852 2978154
3373.87 3626476 2706148 2473246 2904726 3103168 3508944
3379.66 3314904 2814444 2905966 3979692 2300122 3763850
3385.44 2535412 3271718 2944964 2229926 3552822 1609886
3391.23 2822086 4412200 2952448 3446064 3234186 4335688
3397.02 4046682 3861198 2731966 3244244 3730148 2511552
3402.80 3123196 3859956 3527904 4146874 3086284 3413936
3408.59 5234886 5024572 2880238 4092960 4080192 4837434
3414.37 5917250 4460912 3950624 5281292 4537882 4888438
3420.16 6017658 5247338 4336250 3091540 4139348 5171190
3425.94 4835780 4186246 5569586 5000216 7368060 6117092
3431.73 4896740 5045294 5210098 5198636 5387190 4051248
3437.51 6048302 4468772 4947616 6483864 7269380 6358150
3443.30 6429600 4650502 4375628 5078328 6335952 5651342
3449.08 5633384 6967460 5781930 5123392 4933266 6234190
3454.87 4509320 6161492 5985474 6191834 5980298 5805976
3460.66 6760234 6961238 6607944 6153820 7280504 7207468
3466.44 7326218 5221686 5091598 6126112 6972682 6664196
3472.23 6178258 8184060 6663192 7390366 6442618 6407192
3478.01 7028482 6241770 6534716 7505882 6915252 6869146
3483.80 7250866 6047354 7724618 6535634 5617228 6374830
3489.58 6525518 6215224 7974218 6863784 6660134 5685254
3495.37 6019766 5657124 5399970 5059614 6480944 5553242
3501.15 5212362 5992608 6321084 4456260 5968676 4014718
3506.94 4565816 5744786 5824632 5971818 5115862 5308230
3512.72 4750298 5585924 4385058 5495182 4914890 4741362
3518.51 4956882 5415402 5648614 5223700 5281704 5171646
3524.30 4726534 4148594 6429170 5315778 5281496 4462222
3530.08 5517746 5008682 5405692 6369810 4862590 4803986
3535.87 4941184 6853064 3667124 3637430 4932790 4842240
3541.65 4882852 4591678 4800424 3670074 5337568 5095690
3547.44 5746988 5324340 5707052 4477180 4748436 4807716
3553.22 4689428 4228472 5888488 5394272 5244698 4545356
3559.01 5747244 3521450 5200612 4972576 4717894 5126292
3564.79 5364872 4374448 6823542 4437172 5518442 3670974
3570.58 3667270 5512914 4914704 4479528 4217226 5298160
3576.36 3543826 6072382 3759320 4899346 5719570 3886918
3582.15 4495264 5851196 5262678 4512310 4519698 5020186
3587.94 6252446 4507320 4482570 4203806 5800102 6559764
3593.72 5213910 5144902 5030198 6028508 5100502 4823774
3599.51 5924886 5522490 6141060 6489686 5944882 6550508
3605.29 6396616 7324866 7331290 6936872 7264072 8035242
3611.08 8573930 7624102 7005838 8876488 7832908 9315648
3616.86 10090870 9685306 11275270 10198390 11869440 12194050
3622.65 12128470 12900170 13116580 14196010 15496330 16961440
3628.43 18317570 18420440 18273550 20912200 22406850 24426090
3634.22 25740270 28473130 29544000 31137770 32805930 37574690
3640.00 38396460 42618690 46919450 49806240 54988560 56874870
3645.79 63119870 68130420 73310900 78130660 79298850 86956820
3651.57 87775520 94295860 98850960 106725200 110560300 106887000
3657.36 111429000 116134600 121920200 128774100 136003200 142308900
3663.15 146718600 153237200 158574800 164196900 168674500 173253600
3668.93 174439800 179565800 174435400 174118300 168503500 164654800
3674.72 161050900 153706900 148363400 154092500 158416700 145480000
3680.50 138773800 140105000 137101100 134174400 127115600 121472900
3686.29 112515900 104320500 93773130 81939200 73112780 64071610
3692.07 57481100 50497940 47320340 42232520 37517890 34854800
3697.86 32154890 28681770 26823200 26592740 21670260 20500600
3703.64 18651190 18340060 16265010 14601610 14628630 14327560
3709.43 12707940 13233010 14574460 12446170 10347800 9718294
3715.21 10867010 9524272 8673570 9898918 8825176 9284686
3721.00 8994678 9719284 9111170 9001238 8834326 9139796
3726.79 7613026 7435328 6937744 8026502 8849546 9987334
3732.57 7312620 8502226 7945924 8501496 6508664 7482366
3738.36 8002524 7685302 7775384 8613894 6890962 11489450
3744.14 10935230 6315374 7834312 6276432 10254100 9836646
3749.93 5358516 10484500 7630318 5580224 6379944 7277108
3755.71 7980096 6428912 7013076 8147702 6562034 6711912
3761.50 7078584 6280862 7453444 6572924 6775208 6461958
3767.28 6730160 6894372 7479240 6283354 6652168 7449874
3773.07 7486796 7617738 6341364 7018722 6357930 8455874
3778.85 8065094 6140696 6573208 6607354 6583524 7310418
3784.64 7578212 6919924 7857342 6789360 7769184 6425392
3790.43 6528552 7281754 7139084 6975646 7929400 8313482
3796.21 8234822 6639984 7743892 7365354 9541866 10510490
3802.00 7533934 8897346 6067126 6073514 9533338 7813544
3807.78 7132496 8380966 6959214 7807796 7371882 6973218
3813.57 6412148 9671926 11480830 7107548 9235292 7389494
3819.35 8781286 10199470 8746624 9151294 8464702 8911020
3825.14 8485540 8328748 7583942 8342862 9252780 10055320
3830.92 9815418 8014540 9826404 11918340 11189200 8835608
3836.71 12480810 10763980 10017160 10494640 9944708 10074250
3842.49 9645984 10101010 9294150 10091970 10491260 10347500
3848.28 10872650 10222070 10581720 13821770 11314250 15294500
3854.07 11741260 11532400 10648830 10890860 10238710 9276718
3859.85 10352690 11658890 9810814 11079800 12199570 11495550
3865.64 9869078 11484810 9431398 12911780 12743810 11065600
3871.42 11075790 10915170 11780950 10671240 10299230 11037170
3877.21 10788700 9410398 10652060 9871734 9231016 9228872
3882.99 9200108 11160220 10172680 8168954 8081406 8425548
3888.78 8461296 8292270 10617560 7158102 8375154 6603852
3894.56 6962472 7882788 7347552 6339072 7865070 6372654
3900.35 7883486 6793544 7087518 7544316 7156268 5485462
3906.13 6116228 7005876 5949330 4929070 6359866 5710804
3911.92 6342054 5365470 5716370 5887800 5374524 7010412
3917.70 5056146 5896162 4774440 6172560 6116146 6724396
3923.49 5291800 5362746 6344596 4494082 5224556 5152072
3929.28 6149366 5499530 5657714 5608420 5415630 4970764
3935.06 3537372 4730922 5911588 4373094 4966944 6182778
3940.85 4159628 6243124 4791584 5807556 3993386 4368332
3946.63 5431102 4065348 4571854 4400864 4270814 5307432
3952.42 5972248 5362836 4523822 4899584 5390202 5519658
3958.20 5524316 4310056 4337772 5184968 5314368 4671948
3963.99 5269742 4896144 4559734 4834624 5644432 5895676
3969.77 5864542 6306558 4994738 5747046 6500348
##END=
