##TITLE=1-Butanol
##JCAMP-DX=4.24
##DATA TYPE=INFRARED SPECTRUM
##CLASS=IUPAC A
##ORIGIN=NIST, Anayltical Chemistry Division, 301-975-3108
##OWNER=COPYRIGHT (C) 1998 by the U.S. Secretary of Commerce
##DATE=98/10/1
##$SPECTRA VERSION=1.00
##$UNCERTAINTY IN Y=2.0 % relative (B=1.0E-04,C=2.6E-10,D=2.7E-14)
##CAS NAME=1-Butanol
##CAS REGISTRY NO=71-36-3
##MOLFORM=C H3 C H2 C H2 C H2 O H
##MP=-89.53 C
##BP=117.25 C
##$NIST SOURCE=QUANT-IR
##SPECTROMETER/DATA SYSTEM=IFS66V (Bruker)
##INSTRUMENT PARAMETERS=KBr Beam splitter; MCT Detector; Multipass cell
##STATE=gas
##SAMPLE DESCRIPTION=1-Butanol Primary Gas Standard
##PRESSURE=101.3 kPa
##TEMPERATURE=23 C
##SAMPLING PROCEDURE=1 L/min Flow
##RESOLUTION=1.9290
##DATA PROCESSING=Happ Genzel Apodization
##XUNITS=cm-1
##YUNITS=(micromol/mol)-1m-1 (base 10)
##XFACTOR=1.0
##YFACTOR=4.5474E-13
##DELTAX=0.9645
##FIRSTX=574.687
##LASTX=3974.595
##FIRSTY=2.82E-06
##MAXX=3973.63
##MINX=574.69
##MAXY=.0005314
##MINY=8.11E-07
##NPOINTS=3527
##XYDATA=(X++(Y..Y))
574.69 6213484 7736562 10994980 10199320 9203690 9232526
579.51 8586932 6555870 7150614 8247600 8127998 9472182
585.29 9165874 7767596 8285218 10039480 9189470 8156246
591.08 10207850 9746682 6691668 4788556 6030330 8830668
596.86 9744742 10026180 9648212 9020968 7701888 7295888
602.65 8023618 8587470 8189234 6948834 8392394 9263196
608.44 8308772 7050436 6295294 6886116 8059248 7807764
614.22 8474144 8695428 8395882 8519860 9209526 9258558
620.01 9493316 8351438 6667766 6493284 7884760 8557554
625.79 10250990 11013210 9125842 7261374 6665180 8621086
631.58 9683330 8972298 9350092 8928864 7979490 8233264
637.36 8370196 8517014 9149450 8547922 8878596 8235802
643.15 7136482 8107428 7897718 7508118 8497828 8700738
648.93 8539582 8668004 8589478 8006298 8495314 8830434
654.72 7553368 7501694 7920948 8591194 8777820 8313002
660.50 8748110 9131220 9103200 8515586 7902384 7949000
666.29 8554572 8543964 8035914 7839678 6928638 6518854
672.08 7442430 7584724 8164946 8330004 7206772 7556628
677.86 7672392 6686570 6890820 7028556 6718764 6819590
683.65 7228752 7745656 8216984 8372174 7919482 6149762
689.43 6559636 7267978 6744744 6542942 7058262 7649584
695.22 8126988 7476450 7048096 6489784 7080662 8538774
701.00 7914506 6876990 7280644 7666110 7803476 7973046
706.79 7678746 7555578 8261010 8929620 9195128 8940576
712.57 8561786 9501916 10149020 9545816 9816970 10371010
718.36 10178910 10694410 11495340 11421210 12601730 13301830
724.14 13959450 14340990 14295930 14802010 15589250 16122840
729.93 16807490 17660040 17978190 18223700 18328950 19111870
735.71 20361180 20754330 21370870 22788970 23684070 21960240
741.50 20881720 20809500 20603800 20517790 19621610 19889140
747.29 20369870 19992270 19763890 18884780 18664240 18983820
753.07 17839480 17074360 16405920 15958710 15647310 15608670
758.86 15082660 14259520 13629340 12996750 12896950 12486590
764.64 11732130 11342010 10457960 10518880 10806550 10087010
770.43 9715002 9573964 9291734 9323248 9113278 9215918
776.21 9608098 9299160 9336796 9498438 9758394 9846664
782.00 10378660 10528210 9319574 8941402 9432560 9789574
787.78 10978850 11609880 11710610 12214540 13657490 13605060
793.57 12977140 13126680 12862840 12956830 13752690 14757650
799.35 14515770 14527610 15351160 15319930 15045300 16059970
805.14 16733740 15881670 15743300 16620560 16809620 16390170
810.93 16964370 18215220 18359540 18537890 18491540 18640540
816.71 19124030 20549680 21846860 21359610 20958360 22127530
822.50 23497860 24223970 26159920 27975130 28754590 29949550
828.28 31196130 32504980 35045510 37077740 39397460 41130250
834.07 43144030 45883940 48283080 49878880 50653900 52195340
839.85 53598750 54187510 53807280 52708670 52388450 52210630
845.64 52491560 53197430 54218700 54984530 55378130 56042730
851.42 56125600 55288340 53874820 52311380 50731520 49110940
857.21 47399900 45584990 43679080 41756220 39916360 38087750
862.99 36136520 34339640 32860020 31139220 29467620 28543730
868.78 27617070 26886390 25856250 24967380 24391170 23545470
874.57 23274440 22762620 21618530 21817420 21842380 21272610
880.35 20947450 20555370 20520390 20683440 21111410 21605120
886.14 22227230 22790000 23265670 23831960 24975460 25973590
891.92 27046750 27882760 27818850 27956410 28271490 28356610
897.71 28465040 28612340 28991290 29105450 29825120 30446120
903.49 30870220 31723020 32945510 33108370 32889600 32962690
909.28 32541410 32084680 32262240 31739020 31095650 31393050
915.06 31624590 31751890 32793720 33888840 34914260 36420300
920.85 38173240 39848220 41803500 43572340 45876680 48714420
926.63 51502790 53983530 56910100 59909970 63359040 66873630
932.42 70129190 73643410 76697560 80236640 84382230 88390170
938.21 92491890 96384410 99887740 103727400 106388400 108240900
943.99 111273300 114192700 115517900 116205600 117442000 119238600
949.78 121259000 121722000 121544200 122124200 122356100 121596400
955.56 120243100 118963700 118043300 116790800 115456400 113357400
961.35 111086700 108998900 106734000 104125400 101570500 99270960
967.13 97098630 94826990 92589890 90360420 88803160 88125630
972.92 87954370 87617000 87512190 88341340 89884370 91650940
978.70 93915390 95871340 97505360 99190560 100789900 101911400
984.49 102038000 101071700 99693960 99594880 101375800 104857900
990.27 109120300 111805700 115976400 122068000 127426800 130678100
996.06 132560200 133716800 134046500 133946800 133495900 133899400
1001.85 135663500 138387600 141650600 145091600 149474600 154328000
1007.63 158377500 162013000 167334800 173544800 179414800 184905600
1013.42 191210700 198027400 204679600 211173300 218475000 226687600
1019.20 235070800 243609800 252259200 260050700 267017800 273569800
1024.99 279945500 286222100 293901000 303149000 313393100 323474300
1030.77 335925800 350729900 365597500 380722800 396735200 411681200
1036.56 423898900 432994300 440082900 445525800 448620900 448743200
1042.34 445835300 443203500 442519100 440385300 437549700 438858400
1048.13 443276400 447179900 450608800 455101200 461505300 468078000
1053.91 472452700 472877600 469757800 464329700 458635300 453763700
1059.70 450848500 449579900 449688200 453220500 460463900 465315900
1065.48 467208900 472480700 480224700 485193000 485391700 482409500
1071.27 476319200 467423000 458754500 453031800 448976600 444444400
1077.06 439458500 432176400 419740300 402546400 385308000 369085400
1082.84 352891500 336834800 320486300 303991300 287178600 271562100
1088.63 257578100 243774500 232109100 221652400 210735500 200856300
1094.41 192127500 184073700 176298300 168282800 160763300 154477600
1100.20 147662600 140505500 133719100 127781600 122100500 116174800
1105.98 111607300 107447800 103173200 99761980 97302510 94737090
1111.77 91604780 88570050 85873000 83470500 80917980 78642820
1117.55 76508090 74070740 71475860 69274420 67229920 65229160
1123.34 63371860 61539540 59767480 58415390 57013570 55463540
1129.12 53577100 51971600 50395340 49164110 48176160 46924110
1134.91 45808970 44901170 43887640 42902680 42090220 41298260
1140.70 40507410 39934660 39089060 38612090 38298460 37990630
1146.48 37842090 37716350 37701940 37586760 36976980 36869500
1152.27 36966970 36992860 37259290 37378540 37326150 37496850
1158.05 38091740 38276100 38743240 39406080 39748360 40065420
1163.84 40620590 41562870 42405890 42912240 43453010 44328140
1169.62 45306800 46009320 46985940 48110370 49189940 50235930
1175.41 51550990 52899530 54179780 55246660 56330030 57823240
1181.19 59534860 60797070 62328960 64002690 65539360 67382540
1186.98 69386610 71317780 73612450 76058520 78157310 79813140
1192.76 81562280 83555220 85751020 87646260 89504650 91071810
1198.55 92316060 93969200 95966700 97443060 98937280 100593000
1204.34 102092400 103333800 104638200 106160100 107148400 107542600
1210.12 107958300 108358200 108519300 108356100 108364300 108091400
1215.91 107616400 107081200 106116600 104744000 103194200 101726900
1221.69 99973530 98524210 97619700 96393700 95163990 93689220
1227.48 91721410 89832620 87844380 85801600 83825210 81907100
1233.26 80370300 78742560 77207460 76009460 75069940 74250290
1239.05 73670450 72968110 72394300 71949420 71439920 71132620
1244.83 71112200 70913020 70755750 70670260 71246500 71666330
1250.62 71656250 72073740 72571230 73232880 73545540 73948140
1256.40 74473560 75176940 76086300 76556700 77076640 77723410
1262.19 78465900 79261700 80236170 81096000 81692370 81620140
1267.98 81492680 81827850 82417380 82920260 83098020 83528820
1273.76 84368420 84938100 85216290 85145160 84679020 84607700
1279.55 84488940 83914980 83351930 82954450 82300820 81363030
1285.33 80567270 80055760 79448200 78442450 77619120 77083250
1291.12 75801880 74412720 73033900 71761390 70446310 69040660
1296.90 67963020 66946180 65563220 64244600 63105180 61870890
1302.69 60647340 59515190 58766150 58253390 57758630 57219920
1308.47 56905240 56441610 55844280 55419370 55256490 54708080
1314.26 54200510 54341420 54538750 54319070 54102800 54251380
1320.04 54498230 54946730 55545570 56011430 56571520 57242090
1325.83 58273260 59190940 60101560 61885950 63700910 65408010
1331.61 66800510 67994760 69387220 70799590 71800640 72546580
1337.40 72993880 73437450 73907120 74187320 74536280 74882550
1343.19 75182630 75337980 75072100 75150650 75481250 75512710
1348.97 75372400 75393020 75492260 75457020 75268060 74901510
1354.76 74799330 74923770 74651110 74852150 75313890 76050860
1360.54 76896350 77919060 79630060 82114570 84785920 87993460
1366.33 91789050 96204340 101116300 106475200 112294400 118538000
1372.11 125551500 132796200 139360100 145648400 151784900 157112600
1377.90 161837800 165547800 167954400 170524100 175017700 182083900
1383.68 188274800 189334700 187982200 189950500 194252500 198450300
1389.47 200695200 199845300 196100600 191549500 185906300 178306900
1395.25 169960900 162687600 157203700 151877600 145828100 139341200
1401.04 132745000 126239800 119576600 112492500 105273400 98657100
1406.83 92772540 87198280 82404550 78253980 74300820 70709660
1412.61 67551070 64996710 62855760 60867050 59038780 58004000
1418.40 57726750 56046160 54342410 53835890 53640330 53115490
1424.18 53070380 53336590 53979820 54974200 55825380 56731320
1429.97 57846220 59248400 60420730 61104010 61799080 63333550
1435.75 66155920 68803500 70792090 72164790 74061960 77167180
1441.54 80749560 84674840 88618960 92101530 94992920 97702740
1447.32 100258200 102794000 105283100 107703800 110352300 113085400
1453.11 115525000 117854000 120856500 123571400 124724400 127090400
1458.89 130250500 133745400 136787800 139252200 142205500 144708800
1464.68 143784000 141107700 138929200 136431500 133281500 131030300
1470.47 131049000 132506700 132452200 129878800 128285100 128082300
1476.25 126896900 124389400 120943400 117163700 113217600 109521000
1482.04 105675100 101236500 96935120 92924580 88977500 84924160
1487.82 80563470 76723550 72876060 68221900 63517390 59418560
1493.61 55748320 52825340 49475510 45241940 41984130 38753230
1499.39 35440360 32783820 30233270 27997140 26352380 25791580
1505.18 25101160 23336470 20895530 19141410 17724590 16222860
1510.96 15463680 14574360 13593620 13186800 12977040 12717590
1516.75 12083630 11173660 11104950 11793610 11625330 10598070
1522.53 9798730 9570434 9786760 9155434 8781464 8661394
1528.32 8342658 8067874 8126308 7993230 8458114 8509348
1534.11 7785644 7767512 7666886 8247674 9776532 9785032
1539.89 8792840 8436998 8143054 7468032 7514714 7291882
1545.68 7033272 6932962 6990688 7098900 6933798 6350514
1551.46 6200942 6782076 7395034 6805228 6778454 8006958
1557.25 9296082 9205916 8935024 7251086 6115670 6047656
1563.03 6050882 5995434 5990514 6151778 6193708 6433140
1568.82 6659354 5829944 5451478 5643040 5839008 5967100
1574.60 7248422 7559530 5830834 5175638 5218352 5296910
1580.39 5170538 4974742 5128518 5268326 4989222 4790778
1586.17 4801984 4957070 5079332 5038066 4813226 4750084
1591.96 4717538 4918236 5029892 4813864 4709796 4724014
1597.74 4708116 4798048 4779250 4496718 4485764 4707952
1603.53 4841182 4573674 4513756 4690520 4465596 4344560
1609.32 4589698 4595254 4396940 4150040 4213480 4658302
1615.10 6117612 6479722 4984934 4384504 4317342 4297584
1620.89 4376082 4900234 4881240 4294738 4168838 4280296
1626.67 4401050 4388320 4398392 4132362 4099016 4038950
1632.46 3651066 4494014 5904910 5136798 4155424 3894404
1638.24 3743418 3920746 3908918 3891466 3931880 3801376
1644.03 4412762 5332486 4868390 4496074 4364418 4148146
1649.81 4116170 5868134 7988522 6919122 5034548 4110160
1655.60 3688742 3431604 3450846 3715016 3690864 3752118
1661.38 4116986 4055960 3627556 3620818 3540448 3513210
1667.17 3875524 4329818 3995346 3775584 3875150 3609864
1672.96 3549326 4534140 4679294 3805980 3609978 3865678
1678.74 3906496 3763510 3797556 4327532 5397954 6756346
1684.53 5562038 3929916 3832712 3815320 3837550 3655446
1690.31 3638850 3770400 3653242 3785160 5641428 6707350
1696.10 4990884 4039612 4626378 6371114 5867262 4083402
1701.88 3598768 3743670 3917982 3947154 3813004 3258654
1707.67 3317124 3613884 3622234 3468988 3495046 3567312
1713.45 3773964 3824008 4059096 5072380 4488064 3454578
1719.24 3089856 3110490 3067810 3140286 3192122 3066944
1725.02 3170308 3347840 3291190 3154778 3118404 3249620
1730.81 3360582 4113220 5193658 4928182 3766042 3321822
1736.60 3329272 3291352 3734070 3778926 3328612 3243782
1742.38 3418404 3245084 3022832 3219790 3605074 3635428
1748.17 3368166 3525862 4403586 4004826 3396618 3211208
1753.95 3070634 3468712 3720774 3315480 3028060 2927468
1759.74 3276438 3761818 3348594 2942102 2974930 2818914
1765.52 2675936 3146560 3565076 3196520 3289992 3671426
1771.31 4160482 3780968 2815626 2850834 3123394 3026720
1777.09 3105716 3248938 3208538 3137860 3014100 2969726
1782.88 2935300 3316894 3334526 3115776 3276610 3120746
1788.66 3145366 3403730 3594952 4130158 3754732 3243094
1794.45 3196556 3305708 3369668 3434066 3710340 3702050
1800.24 3350888 3149496 2955030 2775738 2887830 3088248
1806.02 3239546 3250406 2943892 2869106 3110272 3158584
1811.81 3069460 2947760 2867486 2745932 2737262 2775300
1817.59 2682748 2693054 2715238 2630544 2719850 2763750
1823.38 2824270 3032950 2887734 2574230 2518182 2965102
1829.16 3133904 2760646 2645678 2519616 2428036 2450276
1834.95 2455124 2345604 2416230 2478550 2609802 2643506
1840.73 2616452 2725460 3372116 3662922 3049028 2755490
1846.52 2645480 2535186 2518446 2734140 2804410 2680862
1852.30 2731858 2898828 2953466 2879678 2929912 2950270
1858.09 3003084 3155412 3094844 2915304 2886748 2790890
1863.88 2882190 3255120 3402960 3518946 3470276 3353112
1869.66 3177864 2748858 2643398 2979790 3235170 3262798
1875.45 3090218 2917170 2790996 2838070 2972412 3017586
1881.23 3002270 3017542 2799070 2630734 2544976 2543804
1887.02 2618282 2957336 3199722 2756764 2554920 2918748
1892.80 3075526 2767498 2552440 2719794 2749946 2642532
1898.59 2920394 2969504 2993356 3140156 3275854 3423334
1904.37 3356916 3147066 3315464 3648134 3772874 3705878
1910.16 3513438 3463896 3729626 3688556 3573158 3728618
1915.94 3978600 4024364 3859042 3555468 3626948 3949542
1921.73 4095748 4233552 4088084 3913646 3985196 3955756
1927.51 3660662 3529980 3430058 3349292 3364766 3223596
1933.30 3012126 3281390 3299950 2991450 3236796 3378672
1939.09 3068210 3094248 3448070 3520616 3276930 3065914
1944.87 2996986 3042360 3095904 2986112 3048214 3187864
1950.66 3098792 2971260 3076400 3228442 3227010 2991040
1956.44 2867080 3060980 3124056 3265714 3286092 3238324
1962.23 3142534 3174294 3217612 3215246 3515166 3582740
1968.01 3554744 3642674 3721946 3683030 3634838 3788372
1973.80 3791996 3789834 3731690 3601924 3735498 3955580
1979.58 3969368 3703892 3553632 3787158 4094294 3991666
1985.37 3806906 3762748 3807088 3812246 3699220 3781368
1991.15 3957356 3759630 3634366 3578214 3716166 3745882
1996.94 3553380 3606154 3905922 4037594 3701614 3840990
2002.73 4167908 4086622 3980688 4105928 4057114 4039734
2008.51 4277748 4598926 4627686 4787404 4846194 4811302
2014.30 4928366 5220204 5472076 5643658 5773842 5740810
2020.08 5841746 6047606 6373244 6558710 6486650 6679912
2025.87 6939992 6910610 6811122 7080984 7608660 7415356
2031.65 7376954 7424026 7302118 7411002 7648840 7781784
2037.44 7824374 7880154 7699440 7571472 7458398 7245124
2043.22 7059586 6871726 6683824 6383616 6322902 6455498
2049.01 6230600 5967810 5777002 5620166 5585280 5437088
2054.79 5271880 5061090 4726562 4653124 4609996 4495732
2060.58 4384802 3971150 3680830 3822684 4012812 4062926
2066.37 3942654 3829248 3880976 4000580 3990812 3711432
2072.15 3552474 3834956 3944790 3644788 3490240 3635292
2077.94 3746014 3656630 3445984 3364176 3384926 3354092
2083.72 3650814 3574372 3347894 3547340 3747936 3435976
2089.51 3568718 3905184 3674800 3526176 3564590 3503612
2095.29 3360252 3275040 3433750 3770894 3731150 3552248
2101.08 3364246 3239614 3182256 3087130 2960904 2882446
2106.86 2981742 2942096 2879388 2811148 2642304 2644412
2112.65 2674878 2822744 2799454 2608160 2494196 2489048
2118.43 2205316 2119034 2069868 2223214 2419120 2209278
2124.22 1880726 1981382 2270924 2034834 1924916 1953590
2130.01 1953852 1784544 1873314 2206282 2216888 2039646
2135.79 1876494 1957458 1906552 1925108 1965082 2092696
2141.58 2315072 2171984 2078470 2158638 2115082 2179748
2147.36 2270688 2184374 2140444 2150654 2194148 2298306
2153.15 2385200 2574122 2472700 2307852 2379756 2511076
2158.93 2461374 2711284 2873348 2806104 2667008 2577652
2164.72 2687858 2943872 3016932 2975710 3117600 3392722
2170.50 3453340 3442234 3405654 3233622 3378138 3825150
2176.29 3965200 3775918 3631404 3550232 3522186 3510614
2182.07 3906208 4192038 3919758 3745094 3956280 4002914
2187.86 3891304 3840002 3659440 3749226 3959480 3994996
2193.64 3731946 3581654 3572306 3718578 3733076 3748788
2199.43 3923940 3853646 3584458 3588098 3685732 3663526
2205.22 3790538 3780140 3567050 3450150 3640814 3563098
2211.00 3435394 3569172 3655278 3660522 3582552 3481466
2216.79 3380040 3378592 3404920 3443404 3628226 3587360
2222.57 3299054 3176376 3130706 3335012 3385380 3243644
2228.36 3256384 3164784 3175058 3371044 3508926 3241770
2234.14 2983224 3061164 3211690 3096330 3252562 3453378
2239.93 3549264 3444474 3404054 3299006 3129008 3243614
2245.71 3438278 3538368 3463382 3264792 3287862 3643770
2251.50 3659292 3389838 3299162 3244474 3378008 3717604
2257.28 3712782 3802484 3981398 3933720 3955682 3890142
2263.07 3913930 4014754 3953242 3738816 3865760 4221170
2268.86 4285886 4368394 4384198 4297584 4432904 4693056
2274.64 4774778 4594232 4361428 4288344 4222500 4558566
2280.43 4855684 4685698 4557766 4671684 4730944 4712082
2286.21 4791410 4798890 4839330 4871640 4911172 4754936
2292.00 4668024 4799540 5069210 4871276 4697374 5120320
2297.78 4976182 4782072 4957994 4917500 4893410 5183462
2303.57 5413620 5326032 5097300 5018656 5377324 5732448
2309.35 5594492 5377168 5502662 5676828 5857964 5902538
2315.14 5452898 5464394 5601128 5755594 6078218 6200064
2320.92 5977570 6031258 6161838 6374156 6374690 6411040
2326.71 6414582 6570842 6530432 6624446 6632384 6689896
2332.50 6723744 6694146 6565774 6506066 6414682 6397828
2338.28 6301354 6334378 6318622 6138982 5956202 6051458
2344.07 6277768 5940714 5396210 5043632 4858982 4920884
2349.85 5166120 5416464 5456358 5458090 5604004 5777322
2355.64 5991694 6254132 6463466 6636966 6459166 6254694
2361.42 6235244 6147726 6205354 6230758 6207608 6150344
2367.21 6201744 6226184 6144156 5874162 5831828 5931780
2372.99 6028642 6080022 5803148 5431040 5392970 5725228
2378.78 5992854 6037048 6183610 6149738 5841168 5909728
2384.56 6224496 6354888 6530974 6442270 6298804 6138510
2390.35 6075728 6190056 6300928 6477222 6648148 6629086
2396.14 6376068 6454784 6954816 7124916 7038344 7095652
2401.92 7148438 7435910 7502824 7432970 7403016 7416672
2407.71 7433760 7502454 7581858 7630528 7571778 7558922
2413.49 7683902 7780774 7939244 8056732 8045162 8012696
2419.28 7849190 7533062 7562060 7693486 7691546 7539430
2425.06 7342358 7242810 7139114 6925942 6863570 6693554
2430.85 6849738 7071532 6848574 6420812 6149530 6325802
2436.63 6365994 6138332 6029466 6388454 6574044 6339668
2442.42 6153176 5996718 5830070 5754618 5552368 5252960
2448.20 5436426 5552130 5457242 5685454 5666898 5246640
2453.99 5085566 5201280 5018052 4767076 4678296 4711316
2459.77 5025042 5276970 4717422 4322598 4537742 4788322
2465.56 4821084 4824798 4742030 4495542 4437538 4457074
2471.35 4346808 4000466 4054046 4435274 4405600 4288502
2477.13 4227036 4135376 4073570 4258160 4447224 4345840
2482.92 4021208 4048680 4125444 3940400 3945902 4306572
2488.70 4167990 4092724 4232660 4441538 4748980 4493708
2494.49 4170082 4273296 4414954 4364842 4295822 4344942
2500.27 4102052 3910266 4121018 4171166 4505668 4550936
2506.06 4427872 4393916 4360010 4397254 4213188 4300116
2511.84 4570612 4764906 4710862 4553342 4566784 4170670
2517.63 4015154 4281662 4560508 4672032 4553824 4484178
2523.41 4677452 4730420 4599420 4464168 4424218 4680332
2529.20 5003006 4758392 4682060 4771250 4816846 4792174
2534.99 4622884 4898054 5085412 4875302 4432956 4434678
2540.77 4868128 5096532 5054920 5001876 4911114 4915630
2546.56 4989920 5010194 5036544 5062924 5216646 5342336
2552.34 5162618 5232054 5320480 5400366 5461874 5209034
2558.13 5089782 5177140 5058282 5116912 5457978 5607994
2563.91 5508444 5625854 5702012 5595532 5806544 6097952
2569.70 6052772 5810906 5778578 5984466 5911258 6091458
2575.48 6426992 6627230 6628862 6488362 6632202 6967004
2581.27 6617126 6748704 6962982 6600766 6753612 7199380
2587.05 7458638 7727448 7532420 7174850 7454798 7585646
2592.84 7816840 7913998 7890094 8085350 8268104 8270396
2598.63 8112942 8289928 8463744 8363342 8217870 8151716
2604.41 8343102 8490450 8671116 8818692 8718692 8736322
2610.20 9005632 9261428 9407810 9362322 9158534 9336352
2615.98 9509792 9621940 9571594 9359296 9630670 9764338
2621.77 9651088 9803644 9847414 9879780 10071020 10038290
2627.55 10254990 10480130 10511490 10482210 10463700 10432500
2633.34 10782960 10899490 10358680 10468790 10760830 10848800
2639.12 11058600 11745780 11905790 11490580 11677140 11749690
2644.91 11646190 11842920 11952320 12383360 12565370 12136460
2650.69 12407950 12760580 12938210 13255790 13368390 13084190
2656.48 13374110 13887180 13983620 14387760 14977080 14947800
2662.27 14749910 14961500 15147710 15428770 15781050 15628470
2668.05 15987680 16336960 16382730 16471070 16620300 16632980
2673.84 16648200 16949250 17270810 17576730 17795510 17804660
2679.62 17539560 17544450 17748860 18165820 18137300 17838280
2685.41 17709970 18015110 18362380 18379430 18611840 18828750
2691.19 18882580 18936510 19026280 18959190 19023410 19401120
2696.98 19288680 19050380 19366700 19615550 19612310 19387510
2702.76 19767960 20242940 20256380 20386120 20873790 20960730
2708.55 20752040 20973750 21251300 21627990 22353180 22747030
2714.33 22700960 22800000 22670770 22578580 23175050 23665920
2720.12 23965210 24199100 24765670 24943780 25080410 25517460
2725.91 26294380 26771180 27117660 27292830 27841170 28684170
2731.69 29381750 30152970 30740000 31481090 32345010 32861700
2737.48 33123500 33722680 34529430 35368060 35512140 35675720
2743.26 36170870 36342590 36644140 36990140 37513820 38074340
2749.05 38833340 39557880 39390640 39131380 39240440 39384070
2754.83 38911260 38679480 38625980 38463610 38953370 39396180
2760.62 39350580 39336080 39403740 39747340 39813010 39822630
2766.40 40267350 40516390 40658560 41033090 41323920 41495360
2772.19 41770720 42117390 42768970 43424660 43435590 43509570
2777.97 43829530 44327840 44631790 45046370 45492200 46276440
2783.76 46764810 46878120 47610950 48174230 48165090 48542990
2789.54 49274060 49537600 49599200 49718640 49515020 49864070
2795.33 50126150 50396260 50579120 50556620 50642540 50983930
2801.12 50851250 50677280 50994940 51588040 51681100 51910810
2806.90 52684870 52733420 52949740 53606940 53924960 54412280
2812.69 55030320 55867660 56769320 57983780 59173260 59944190
2818.47 60593270 61645410 62968540 64618280 66439140 68498460
2824.26 70459260 72278800 74537790 77080500 79973380 83216160
2830.04 86627580 90366200 94529290 98445130 102427800 106767300
2835.83 111702100 116606600 121891400 128591200 135676600 142750400
2841.61 150063500 157944200 166212300 174704600 183359700 191964900
2847.40 201136600 210604600 219776700 229575800 239190800 248809700
2853.18 259668800 271339700 283006700 295070500 308348400 321334200
2858.97 334372400 347876200 361572600 376773800 391887000 407532200
2864.76 423737500 440665500 457895000 475510300 493815100 512663700
2870.54 533198500 555013900 578777000 604574200 631547400 658974200
2876.33 685347600 708099700 724460600 734713000 737671300 735041900
2882.11 729324500 725097800 730697200 744733300 742809300 727968800
2887.90 722537700 725843900 732941800 737967800 737967600 732375000
2893.68 720696400 704490000 687189300 670407000 654752600 639859600
2899.47 626928600 616906400 609920400 604754400 601461900 600105300
2905.25 599657500 600898200 604713200 610874600 618221300 625879800
2911.04 632907200 640676200 650130800 659562600 667856900 677125100
2916.82 687568200 697462300 707239300 719279700 733069600 746881900
2922.61 760814800 775108700 788985400 803647500 818985300 832664300
2928.40 846449500 861310100 875695900 890155800 906769800 924979600
2934.18 943383300 960775200 977363200 991894900 1003335000 1010042000
2939.97 1013666000 1017520000 1020746000 1021283000 1016881000 1007347000
2945.75 997308500 991628100 989877400 988871700 989169100 990822300
2951.54 993281300 997538900 1002487000 1004998000 1006595000 1008539000
2957.32 1012193000 1017559000 1024537000 1033121000 1044628000 1057009000
2963.11 1069503000 1088233000 1119780000 1155795000 1168735000 1141271000
2968.89 1095095000 1053381000 1019832000 995602500 982763300 970332400
2974.68 949617500 927990800 909804900 891342000 867343700 836048800
2980.46 795970200 749112000 698727800 645143200 589734000 536479300
2986.25 486458700 439613100 395652500 356186100 321542300 290353100
2992.04 262547800 237743300 214157500 192814300 174630400 158202100
2997.82 142805600 129088000 116727700 105308500 94719370 85299610
3003.61 77474160 70980760 64903550 59035950 53560310 48999180
3009.39 45357080 42607250 39965370 37208140 35164720 33608180
3015.18 31693430 30195780 28949380 27693710 26756980 26356920
3020.96 25778340 24721460 23970350 23610890 23098550 22970400
3026.75 23190370 22111220 21757060 21974680 21623240 20928820
3032.53 20939410 21396610 21444580 21196940 20966720 20912690
3038.32 20307220 20551340 20866730 20678160 20436330 20472380
3044.10 20777010 20457760 20204340 19909700 19686940 19713760
3049.89 19710760 19549970 19720940 19622220 19256900 18694360
3055.67 18253640 17689520 17387980 17434990 17596520 17308370
3061.46 17030060 16617630 16793440 16486910 15571450 14970300
3067.25 14794860 14405740 13959780 13810430 13590620 13215590
3073.03 13090150 12798510 12453120 12035590 11704380 11179330
3078.82 11356310 11800800 12183090 11846030 11290070 11144590
3084.60 11086810 11022870 10582340 10610330 10641940 10411620
3090.39 10382390 10012840 10078930 10669570 10599270 10233280
3096.17 10012470 9944150 9803040 10160170 10550740 10004150
3101.96 9483892 9508776 9344060 9370836 9473380 9428190
3107.74 9598186 9321352 8982608 8663446 8620490 8518820
3113.53 8374544 8680292 9080352 9224200 8897070 8559642
3119.31 8405070 9031490 9231688 9165022 8684152 8242238
3125.10 8486460 8568864 8677676 8949738 8972894 8852350
3130.89 8568620 8804388 8850408 8952094 8632370 8478936
3136.67 8690902 8764678 8996794 9094926 8724412 8402988
3142.46 8404052 9186846 9275408 8733540 8792886 8705754
3148.24 8597606 8783086 8654146 8537532 8671596 9116436
3154.03 9128692 8842154 8738170 8436098 8439972 8631110
3159.81 8599138 8817582 8567210 8104856 8217692 8995144
3165.60 8910974 8683780 8767242 8959182 8872150 8571866
3171.38 8363458 8682500 8750420 8609166 8722842 8658252
3177.17 8403202 8887926 9146232 9008088 8726074 8436362
3182.95 9017038 9323794 9593666 9324952 9266810 9081808
3188.74 9338414 9831874 10023340 9712990 9431972 9592774
3194.53 9831852 9877332 9990118 10168990 9977090 9459518
3200.31 9200852 9273164 9001178 9167016 9542012 9470422
3206.10 9034186 8578940 8616624 8578886 8782214 8195934
3211.88 8313204 8346404 8036352 8187582 7821182 7383612
3217.67 7062378 6909808 7152688 6962510 6107680 5593496
3223.45 5410954 5736922 6083658 6218404 5711856 5007310
3229.24 4873754 5025086 4973668 4773298 4398428 5046860
3235.02 5244218 4825280 4087814 3370280 3833492 4599990
3240.81 4615166 4004986 3929498 3746454 3581750 4236592
3246.59 4115790 3257196 3061770 3230282 3385128 3476380
3252.38 3236836 3068284 3204836 3374416 3207092 2967046
3258.17 2877452 2918974 3246314 2992744 2535910 2883350
3263.95 3158146 3072850 3349082 3692516 3305272 3014892
3269.74 2857134 2557360 2625478 2614398 2970536 3073422
3275.52 2722058 2864512 2956638 2986194 3068968 2337678
3281.31 1957518 2535162 3143140 3296852 3140608 3085584
3287.09 3001580 2250626 2213836 2539454 2452398 2557816
3292.88 3032290 3486230 3299518 2553636 2664942 3366888
3298.66 3256978 2940812 2523582 2485444 2359084 2453040
3304.45 2662814 2917212 3443378 3504358 3063518 3062516
3310.23 3237286 3148924 3156792 3228202 3092274 3547174
3316.02 3870632 4260670 3470018 2979510 3200548 3448306
3321.80 3463070 3529500 3466824 3392910 3109384 3116216
3327.59 3092630 3182230 3312218 2667498 2513578 3006912
3333.38 3289734 3062258 2996446 3037560 3291356 3552862
3339.16 2871220 2626568 2831536 2725926 2762112 2757066
3344.95 2396674 2360096 2477820 2586086 2781642 2830840
3350.73 2720628 3103596 2822792 2277590 2734058 2705000
3356.52 2647908 3262736 3380162 3080712 2766660 2942268
3362.30 3082934 3328766 3379134 2633452 2490222 2768280
3368.09 3009314 3562390 3164326 2637144 2934270 3190422
3373.87 3264554 2864752 2626534 2850960 3151004 3370552
3379.66 3244204 2951030 3132580 3344446 3025350 3142710
3385.44 2988720 3026448 2855380 2700122 2799320 2337848
3391.23 2909280 3708526 3403132 3283294 3537212 4014868
3397.02 4070564 3643456 3110700 3238160 3336880 2933832
3402.80 3152064 3613358 3747324 3759362 3406584 3758476
3408.59 4766222 4578348 3654788 3810214 4257850 4911858
3414.37 5332098 4679188 4375374 4802754 4790284 5068094
3420.16 5579390 5214856 4259278 3620478 4135666 4855730
3425.94 4763306 4655274 5119056 5677894 6533118 6124150
3431.73 5212580 5049042 5169432 5244780 5035458 4820242
3437.51 5223106 4943684 5191588 6310650 6877902 6584872
3443.30 6002638 4997560 4601180 5206360 5887832 5805154
3449.08 5945328 6386128 5903516 5231470 5277282 5536072
3454.87 5288478 5739690 6073694 6095418 5988884 6066366
3460.66 6586442 6833346 6584682 6518548 7003704 7251714
3466.44 6813256 5677236 5360302 6082750 6706182 6623256
3472.23 6753158 7370378 7181862 7003926 6653110 6558712
3478.01 6703624 6490872 6691198 7145538 7040886 6967854
3483.80 6885118 6712012 7063310 6598060 6003924 6234800
3489.58 6419162 6692654 7312176 7072996 6482196 5987358
3495.37 5858918 5681460 5380776 5466072 5938968 5688632
3501.15 5471034 5888370 5815042 5235462 5168908 4592690
3506.94 4710684 5491192 5840166 5740370 5357732 5135122
3512.72 5071820 5116060 4918254 5105166 5008738 4831126
3518.51 5012948 5363418 5496768 5335120 5242930 5094338
3524.30 4695892 4808118 5646106 5564748 5100384 4894778
3530.08 5156762 5217734 5536536 5799616 5196816 4849168
3535.87 5350638 5676880 4395340 3943154 4613028 4872500
3541.65 4806302 4707018 4491466 4315598 4897036 5301762
3547.44 5499206 5510152 5334994 4823524 4699532 4766744
3553.22 4610370 4717826 5391458 5473784 5117858 4984008
3559.01 4956404 4422410 4760582 4966424 4870886 5087108
3564.79 5081316 5168018 5707894 5237228 4842718 4096372
3570.58 4093958 4949060 4952316 4519418 4527138 4644004
3576.36 4531980 4955314 4556024 4825562 5107488 4450112
3582.15 4667750 5402564 5225334 4687142 4633470 5189020
3587.94 5565494 4904248 4423968 4636426 5607070 6073970
3593.72 5508506 5134362 5286994 5584064 5250768 5141674
3599.51 5577992 5758050 6078776 6283550 6210312 6375272
3605.29 6646290 7112180 7238804 7103366 7366506 7981602
3611.08 8230492 7700604 7580086 8204110 8415786 9152410
3616.86 9818438 10145720 10659970 10832400 11558790 12104020
3622.65 12321650 12772050 13315700 14246980 15534350 16936300
3628.43 18028410 18362820 18916240 20648250 22527880 24263420
3634.22 26067590 28089670 29664640 31154940 33521300 36664030
3640.00 39181020 42636810 46593220 50335870 54228100 57880520
3645.79 62835050 68169620 73227660 77288160 80796180 85378840
3651.57 89091010 93842430 99616750 105793300 108827900 108782400
3657.36 111466800 116383800 122166700 128860600 135790100 141871400
3663.15 147205200 152964700 158640400 163932800 168697900 172470800
3668.93 175348800 177199400 175545900 172896000 168911000 164711200
3674.72 160188000 154168500 150918100 153768400 154434200 146917500
3680.50 140628200 139104800 137118900 133221000 127442300 120708200
3686.29 112691600 103777800 93476260 82633080 73063220 64637010
3692.07 57390500 51375960 46879600 42318620 37991220 34846300
3697.86 31976490 29054280 27198840 25510180 22536120 20343770
3703.64 19006100 17933080 16359980 14991630 14552930 14023340
3709.43 13202770 13421370 13773910 12453070 10686700 10128570
3715.21 10292170 9637796 9152562 9368466 9178928 9111758
3721.00 9228770 9411796 9226108 8988094 8943312 8717058
3726.79 7924284 7361528 7303748 7965200 8922158 9107704
3732.57 8204202 8099412 8202452 7913524 7193110 7377726
3738.36 7809318 7779280 7948060 8022916 8349456 10300600
3744.14 9997186 7731730 7124428 7553606 9240036 8899754
3749.93 7574400 8643292 7815830 6237748 6402428 7232304
3755.71 7460006 6921586 7140080 7520066 6962464 6761932
3761.50 6809932 6735454 6979748 6822750 6656264 6596112
3767.28 6706170 6991424 7068380 6644366 6751124 7274344
3773.07 7508486 7293040 6792132 6709986 6994432 7881666
3778.85 7711250 6684490 6481298 6593976 6756734 7204492
3784.64 7364546 7288088 7394654 7261832 7233076 6759236
3790.43 6678534 7075054 7134294 7233408 7797964 8206712
3796.21 7885008 7262646 7401862 7954862 9263176 9600248
3802.00 8535260 7929780 6721598 6870302 8338278 8053204
3807.78 7577680 7764886 7483030 7511434 7380472 6935752
3813.57 7293708 9337168 10054460 8607476 8318512 8136478
3819.35 8787376 9537054 9175192 8899518 8726088 8709878
3825.14 8547530 8193080 7930886 8377702 9228004 9814800
3830.92 9455266 8848084 9891024 11267440 10814400 10219660
3836.71 11243670 10987780 10299640 10257590 10101480 9945554
3842.49 9849778 9809868 9664384 10000020 10365960 10501830
3848.28 10601380 10455160 11246280 12495680 12811120 13556360
3854.07 12512870 11376740 10908530 10684550 10167220 9746926
3859.85 10405800 10931130 10529990 11045380 11778770 11282720
3865.64 10617120 10638260 10708170 12070020 12395350 11455150
3871.42 11036380 11151980 11325160 10841440 10555320 10809580
3877.21 10528020 10014880 10185540 9903944 9378350 9222732
3882.99 9658986 10480130 9938222 8611062 8181010 8354390
3888.78 8414054 8867760 9282890 8237072 7685678 7095270
3894.56 7092072 7546954 7238366 6923830 7168656 7065566
3900.35 7283432 7112842 7125088 7349388 6860308 6016488
3906.13 6175960 6556842 5957704 5494584 5879998 6006198
3911.92 5971092 5671750 5674962 5729826 5870382 6182084
3917.70 5700844 5443548 5355822 5836968 6269494 6253526
3923.49 5638702 5572912 5691106 5089574 5039300 5398892
3929.28 5769336 5685956 5609846 5575312 5357468 4742690
3935.06 4143470 4727950 5284214 4865076 5110448 5435474
3940.85 5107120 5427514 5360888 5154580 4498464 4527030
3946.63 4870784 4497320 4415542 4410310 4539992 5221648
3952.42 5678252 5309862 4804100 4926086 5306874 5490862
3958.20 5243084 4596608 4526846 5019354 5136292 4958094
3963.99 5045620 4904724 4700776 4958044 5515558 5830526
3969.77 5973706 5901908 5470980 5747276 6177116
##END=
