##TITLE=1-Butanol
##JCAMP-DX=4.24
##DATA TYPE=INFRARED SPECTRUM
##CLASS=IUPAC A
##ORIGIN=NIST, Anayltical Chemistry Division, 301-975-3108
##OWNER=COPYRIGHT (C) 1998 by the U.S. Secretary of Commerce
##DATE=98/10/1
##$SPECTRA VERSION=1.00
##$UNCERTAINTY IN Y=2.0 % relative (B=1.0E-04,C=2.6E-10,D=2.7E-14)
##CAS NAME=1-Butanol
##CAS REGISTRY NO=71-36-3
##MOLFORM=C H3 C H2 C H2 C H2 O H
##MP=-89.53 C
##BP=117.25 C
##$NIST SOURCE=QUANT-IR
##SPECTROMETER/DATA SYSTEM=IFS66V (Bruker)
##INSTRUMENT PARAMETERS=KBr Beam splitter; MCT Detector; Multipass cell
##STATE=gas
##SAMPLE DESCRIPTION=1-Butanol Primary Gas Standard
##PRESSURE=101.3 kPa
##TEMPERATURE=23 C
##SAMPLING PROCEDURE=1 L/min Flow
##RESOLUTION=1.9290
##DATA PROCESSING=Triangular Apodization
##XUNITS=cm-1
##YUNITS=(micromol/mol)-1m-1 (base 10)
##XFACTOR=1.0
##YFACTOR=4.5474E-13
##DELTAX=0.9645
##FIRSTX=574.687
##LASTX=3974.595
##FIRSTY=2.86E-06
##MAXX=3973.63
##MINX=574.69
##MAXY=.0005227
##MINY=8.44E-07
##NPOINTS=3527
##XYDATA=(X++(Y..Y))
574.69 6299806 7796216 10884610 9914986 9080724 9185134
579.51 8689312 6703042 7353578 8392012 8034542 9421648
585.29 9157212 7838958 8290278 10001540 9160220 8048826
591.08 10098670 9611142 6892158 5245076 6334898 8857878
596.86 9539848 9830576 9498822 9017842 7797208 7464972
602.65 8059636 8586822 8261434 7043820 8380434 9217946
608.44 8190914 7285664 6465650 7090996 8116332 7845476
614.22 8431544 8767962 8346706 8594110 9135258 9178836
620.01 9356734 8470396 6853270 6792260 8070960 8526396
625.79 10027720 10813060 9032024 7545448 6874876 8716148
631.58 9638620 8850602 9328318 8983490 8002488 8397610
637.36 8410928 8520938 9176588 8482566 8884578 8363694
643.15 7179236 8285692 7985164 7573654 8573102 8695110
648.93 8526776 8676034 8656810 8033238 8511248 8886710
654.72 7618274 7682990 8013606 8600782 8812810 8328886
660.50 8773036 9096414 9053432 8565736 7995414 8030256
666.29 8566212 8549354 8011000 7959296 7086484 6681420
672.08 7612826 7602792 8126986 8397184 7199796 7650610
677.86 7763228 6774034 7025688 7180770 6814636 7003326
683.65 7287972 7817480 8136014 8330042 7980670 6321842
689.43 6704628 7452206 6805964 6759068 7150822 7697538
695.22 8125418 7530886 7216088 6725468 7144126 8604588
701.00 7945782 7025024 7474400 7796318 7878434 8108242
706.79 7840032 7737274 8404514 8993902 9242972 9103284
712.57 8690344 9623228 10240980 9653510 9939138 10575850
718.36 10281420 10873220 11645760 11533010 12699470 13348230
724.14 13930440 14412530 14336140 14893060 15637150 16142770
729.93 16779550 17629000 17906980 18244700 18337600 19090310
735.71 20271900 20650140 21162450 22452860 23349380 21709780
741.50 20812230 20796140 20502740 20519630 19596090 19852930
747.29 20311210 19819390 19743260 18826380 18612800 18928380
753.07 17789150 17101630 16505460 16022140 15713880 15624840
758.86 15132170 14319480 13789910 13105430 13037670 12606530
764.64 11864660 11573860 10676300 10706610 11004290 10242770
770.43 9942998 9824262 9500518 9590466 9339156 9435210
776.21 9817512 9506734 9557500 9722870 9956368 10019210
782.00 10465680 10724960 9538854 9311504 9787200 10058930
787.78 11164520 11793050 11871890 12322510 13716010 13654840
793.57 13077720 13347060 13100790 13194790 13919710 14884590
799.35 14660650 14657760 15523570 15492390 15214730 16184300
805.14 16868810 16047830 15985980 16827370 17049070 16638190
810.93 17223510 18405910 18511440 18749400 18779640 18978030
816.71 19435020 20731970 22017010 21628130 21319240 22533850
822.50 23851250 24514230 26370430 28184870 28862720 30201810
828.28 31418330 32707460 35176350 37084480 39343120 41066900
834.07 42964730 45608540 47835680 49448170 50178750 51714480
839.85 53003860 53592180 53337900 52376920 52186680 52047470
845.64 52305980 52952440 53864470 54570560 54862150 55466310
851.42 55495830 54688320 53377800 51903790 50401500 48834670
857.21 47184890 45430250 43598620 41735010 39955550 38185020
862.99 36311270 34542040 33140180 31461320 29843880 28943280
868.78 27980890 27255620 26252450 25353950 24849450 23937800
874.57 23694720 23235220 22064200 22297260 22273420 21699060
880.35 21450060 21081830 21056470 21225650 21604710 22090370
886.14 22651580 23231240 23688850 24242360 25334540 26254280
891.92 27227220 28093750 28007980 28232720 28540320 28669810
897.71 28782210 28975260 29358170 29490850 30168110 30823970
903.49 31177130 31999460 33139200 33321240 33101530 33298450
909.28 32900630 32500750 32734570 32308110 31703380 32114670
915.06 32351730 32517440 33560130 34671280 35645380 37188120
920.85 38876780 40549060 42492440 44287920 46521400 49331050
926.63 52035970 54501650 57412860 60349130 63715100 67167540
932.42 70323820 73844740 76854770 80327080 84394800 88226260
938.21 92222620 96018380 99357690 103140700 105790900 107618700
943.99 110583300 113424300 114734900 115560700 116813900 118496300
949.78 120428600 120914800 120746300 121380400 121544200 120880600
955.56 119619000 118452900 117553200 116321500 115029900 113053300
961.35 110857100 108906600 106705200 104254100 101797200 99629080
967.13 97522420 95383180 93275790 91217130 89731130 89095390
972.92 88901490 88632150 88533680 89376700 90815140 92458990
978.70 94591430 96466540 98011240 99664930 101169500 102302900
984.49 102521200 101881500 100781900 100965900 102687200 105982400
990.27 110117800 112707300 116673900 122460900 127431200 130593800
996.06 132524900 133860600 134364800 134579300 134396300 135038500
1001.85 136870300 139590900 142818800 146232400 150478900 155297400
1007.63 159343300 163062800 168321800 174435900 180184000 185683600
1013.42 191903800 198667200 205236500 211742400 218930900 227038100
1019.20 235179900 243546700 251987800 259727400 266659500 273366900
1024.99 279859800 286341300 294017800 303210400 313334900 323293400
1030.77 335382800 349760300 363965500 378476600 393736600 407993700
1036.56 419731300 428625900 435611400 441041900 444212000 444798000
1042.34 442473400 440310800 440035800 438358700 435878700 437326700
1048.13 441476500 445126600 448407700 452664800 458519600 464498800
1053.91 468429100 468895700 466166600 461405800 456348900 452002500
1059.70 449363700 448331800 448397900 451451700 458109100 462576400
1065.48 464201400 469037900 475952900 480191700 480130700 477297100
1071.27 471664900 463379500 455156100 449517900 445191600 440242400
1077.06 434834800 427419900 415346300 398888900 382437000 366781500
1082.84 350946500 335308800 319330700 303355700 287005000 271784600
1088.63 258179300 244530200 232995300 222633900 211758500 201997600
1094.41 193286300 185155700 177423000 169435600 161920600 155627600
1100.20 148806100 141751100 135052000 129150900 123549800 117631600
1105.98 113096300 108925600 104618000 101153200 98571430 95894720
1111.77 92743280 89708460 86997360 84552660 81974250 79639990
1117.55 77497520 75039100 72482440 70274300 68239150 66190630
1123.34 64357120 62494000 60724240 59312500 57888690 56320740
1129.12 54472380 52892140 51338840 50060880 49085050 47788960
1134.91 46690380 45759450 44754100 43746240 42956780 42136590
1140.70 41348590 40780570 39942030 39453130 39145850 38781750
1146.48 38644940 38458440 38423700 38322910 37720680 37639400
1152.27 37724290 37710790 37959670 38087380 38034330 38201360
1158.05 38788260 38946880 39388170 40051910 40369880 40726780
1163.84 41252300 42164640 42967270 43494280 44032980 44908680
1169.62 45862900 46566710 47522180 48646440 49688590 50739720
1175.41 52009800 53340680 54582870 55693570 56755230 58238920
1181.19 59913990 61160450 62673390 64364640 65846200 67691660
1186.98 69645140 71537410 73740150 76122010 78150380 79826590
1192.76 81554020 83518930 85639360 87486960 89293950 90899550
1198.55 92119760 93764220 95705210 97140710 98596720 100225400
1204.34 101668800 102897400 104125100 105601300 106538300 106950100
1210.12 107368100 107771800 107928400 107767900 107780500 107505500
1215.91 107014200 106498900 105556400 104259200 102768500 101403600
1221.69 99708380 98286910 97393180 96124090 94895050 93470350
1227.48 91533260 89745140 87807700 85850600 83945460 82083670
1233.26 80587440 79017990 77505720 76360650 75404010 74585840
1239.05 73990270 73299540 72707110 72300600 71769700 71476850
1244.83 71432930 71234240 71104740 70991360 71535370 71927370
1250.62 71899540 72332580 72777380 73420310 73716090 74129990
1256.40 74643060 75295010 76176970 76628620 77141340 77795280
1262.19 78489060 79255620 80154630 80957900 81542100 81522780
1267.98 81440830 81792230 82329020 82823920 82993720 83390700
1273.76 84181770 84664760 84924450 84884300 84431430 84365150
1279.55 84251460 83675340 83140940 82742730 82115700 81207900
1285.33 80445760 79905630 79322390 78307190 77488840 76950890
1291.12 75684240 74355170 73040000 71786630 70534580 69141380
1296.90 68083670 67083390 65722630 64453690 63347340 62151400
1302.69 60976440 59890820 59137310 58624740 58106820 57566790
1308.47 57236800 56794520 56205200 55791020 55638790 55127530
1314.26 54631520 54768850 54938820 54735830 54552600 54730350
1320.04 54960240 55390630 55981240 56432060 57019490 57656770
1325.83 58693260 59602660 60481170 62204390 63910370 65522190
1331.61 66904490 68043180 69410320 70754500 71727650 72479760
1337.40 72957500 73408740 73914170 74185820 74566300 74897330
1343.19 75202790 75396310 75173740 75269480 75617550 75645640
1348.97 75555210 75591630 75721270 75689050 75592510 75264710
1354.76 75237840 75418340 75220100 75488290 76018050 76767940
1360.54 77717460 78769740 80526830 82985790 85636830 88802410
1366.33 92547980 96852420 101656300 106863200 112545400 118561500
1372.11 125303700 132273000 138584700 144656600 150627600 155760600
1377.90 160411100 164153200 166722500 169397500 173667200 180134800
1383.68 186004700 187152500 186148200 188164600 192058700 195662700
1389.47 197612300 196732700 193182200 188886100 183581200 176408600
1395.25 168569900 161591200 156212100 150898800 144932600 138622600
1401.04 132185300 125838500 119346800 112504600 105530800 99131310
1406.83 93416620 87951600 83236010 79146710 75221570 71704780
1412.61 68561140 66028010 63848440 61904840 60039760 58923510
1418.40 58593880 56950420 55288830 54840890 54581000 54056310
1424.18 54016200 54265590 54828350 55783300 56569280 57463310
1429.97 58514730 59872650 61018370 61780440 62544230 64044480
1435.75 66734500 69238040 71222570 72677150 74596110 77641700
1441.54 81049300 84777420 88559820 91914370 94758460 97441300
1447.32 99986170 102483100 104975200 107337000 109958800 112598800
1453.11 115058500 117257400 120208600 122883900 124062800 126417000
1458.89 129455300 132670100 135620200 137822500 140532300 142865300
1464.68 142025100 139582400 137706200 135421400 132541000 130430500
1470.47 130278500 131435500 131301200 128773800 127238200 126920300
1476.25 125585200 123113000 119805400 116179700 112351500 108724000
1482.04 104989200 100639400 96474500 92521700 88626200 84656430
1487.82 80356440 76551940 72783570 68229370 63685080 59713730
1493.61 56019070 53089780 49802940 45613660 42493250 39310960
1499.39 36042950 33458340 30941590 28730830 27029900 26318460
1505.18 25522780 23777200 21424720 19753460 18376810 16838610
1510.96 16089200 15186230 14175880 13763200 13461650 13170590
1516.75 12563510 11688290 11534050 12150080 11896730 10967770
1522.53 10203540 9965842 10135090 9512144 9116266 9053322
1528.32 8677528 8437046 8486320 8299444 8709108 8796632
1534.11 8038874 8152052 7995626 8452672 9858904 9847028
1539.89 8871776 8652274 8348538 7700370 7742434 7543192
1545.68 7242006 7202234 7166670 7310918 7114766 6649332
1551.46 6439902 7012260 7542270 7061550 6949296 8143304
1557.25 9210208 9087934 8896162 7401584 6319644 6350140
1563.03 6232982 6223266 6143936 6350352 6304806 6531304
1568.82 6754176 5989594 5641658 5858446 6030264 6039242
1574.60 7213500 7544138 5880362 5383254 5414732 5429422
1580.39 5335946 5109210 5265082 5378574 5118346 4936232
1586.17 4956526 5068166 5183592 5137014 4933588 4888182
1591.96 4842406 5014296 5126056 4908730 4824778 4846760
1597.74 4804510 4893590 4879980 4618214 4604084 4802170
1603.53 4924580 4672698 4601864 4806114 4563148 4460006
1609.32 4685590 4688842 4512968 4310782 4406608 4705008
1615.10 6048506 6399768 4983218 4526294 4481468 4426498
1620.89 4464828 4943804 4931690 4375386 4291268 4388180
1626.67 4475020 4457750 4477592 4230308 4186876 4225056
1632.46 3780254 4518342 5861224 5076994 4224810 4061876
1638.24 3861692 4045986 4019128 3984124 4093868 3909080
1644.03 4463010 5336322 4863116 4563440 4494980 4350272
1649.81 4250398 5760490 7747156 6679108 5023162 4270468
1655.60 3858352 3603582 3589166 3832434 3795466 3809486
1661.38 4178004 4099362 3709428 3721512 3672634 3600418
1667.17 3941186 4353220 4047168 3821976 3993040 3722064
1672.96 3626016 4541952 4693740 3840692 3745754 3950670
1678.74 4013984 3863294 3952254 4393230 5272532 6586198
1684.53 5469944 3979438 4013732 3908620 3944604 3763860
1690.31 3749814 3891330 3852954 3830372 5565102 6549452
1696.10 4964588 4178746 4652908 6234360 5771946 4097080
1701.88 3774666 3856778 3975852 3983774 3888946 3357596
1707.67 3419604 3691878 3681320 3535534 3594732 3616990
1713.45 3859868 3873236 4025930 5000224 4446256 3488226
1719.24 3233770 3210676 3168738 3207610 3283720 3134238
1725.02 3246540 3401038 3354296 3236904 3213786 3368072
1730.81 3441550 4078790 5079228 4839020 3769178 3435592
1736.60 3444334 3350862 3759904 3813044 3364984 3319402
1742.38 3472970 3327150 3099280 3305780 3620132 3692510
1748.17 3420094 3537510 4380886 3979136 3420202 3337430
1753.95 3127264 3511066 3732546 3342512 3122252 3019260
1759.74 3295608 3775666 3357074 3002912 3061128 2930308
1765.52 2754606 3204860 3595588 3229890 3344086 3656880
1771.31 4099292 3792826 2871652 2958488 3204436 3065836
1777.09 3161538 3279558 3244584 3177458 3078002 3047004
1782.88 2988244 3352566 3375644 3130086 3356518 3162460
1788.66 3216850 3452720 3573742 4102152 3750328 3278838
1794.45 3281384 3351744 3420422 3442426 3708020 3694216
1800.24 3362602 3200936 3032262 2851650 2961988 3125352
1806.02 3247928 3279216 2989448 2922904 3149146 3174426
1811.81 3091990 2984324 2916676 2800292 2785912 2831640
1817.59 2727948 2744592 2773476 2676960 2777020 2809012
1823.38 2843962 3051154 2915464 2647096 2572796 2989460
1829.16 3134812 2773578 2694864 2588802 2479222 2520714
1834.95 2511152 2416422 2480962 2540250 2654038 2699570
1840.73 2688972 2753086 3345596 3623902 3033892 2806768
1846.52 2722052 2604966 2586376 2779390 2849536 2725748
1852.30 2781536 2934188 2985034 2911772 2972478 2990224
1858.09 3024280 3175740 3119774 2948378 2956134 2857012
1863.88 2934574 3284756 3393274 3505754 3462434 3345160
1869.66 3223586 2818440 2728656 3028980 3243088 3260414
1875.45 3113774 2961382 2854814 2882786 3014000 3035540
1881.23 3020096 3041404 2839822 2691866 2620982 2624676
1887.02 2672520 2966226 3214928 2797376 2611752 2962204
1892.80 3087692 2816116 2608624 2795136 2810340 2696226
1898.59 2976182 3015542 3027130 3188400 3285002 3442416
1904.37 3389482 3201046 3356438 3666708 3756302 3723754
1910.16 3548186 3501090 3757758 3720090 3603226 3761096
1915.94 3974412 4014412 3886438 3606160 3679512 3974532
1921.73 4078024 4215856 4090626 3911666 3995546 3959174
1927.51 3681168 3567662 3482308 3380300 3410924 3284244
1933.30 3059926 3326706 3353236 3025616 3280824 3418568
1939.09 3110224 3142534 3464856 3519404 3295314 3120292
1944.87 3054122 3090318 3145940 3033344 3087384 3225182
1950.66 3138452 3020574 3123250 3246414 3261136 3040932
1956.44 2934428 3122782 3161470 3292776 3314622 3276768
1962.23 3190980 3229012 3280678 3254004 3552028 3604712
1968.01 3576848 3668266 3743678 3713010 3660816 3819084
1973.80 3806770 3811540 3774230 3646546 3769046 3966512
1979.58 3978858 3752598 3609918 3824058 4100282 3999832
1985.37 3835086 3809690 3836132 3860688 3734776 3813926
1991.15 3983690 3787836 3693392 3633632 3761598 3796752
1996.94 3620510 3662064 3941492 4075112 3755234 3884696
2002.73 4216884 4106876 4033568 4158142 4131010 4100024
2008.51 4338282 4632142 4652234 4812154 4890320 4856768
2014.30 4981766 5253700 5484604 5644798 5787140 5762920
2020.08 5875134 6064200 6361086 6559322 6474832 6680382
2025.87 6916964 6916808 6815834 7062784 7573130 7364462
2031.65 7347622 7428162 7290370 7406262 7619576 7731272
2037.44 7760202 7824836 7645014 7529114 7427896 7216896
2043.22 7047432 6860242 6698394 6403224 6329268 6455346
2049.01 6217784 5978588 5806512 5636490 5606802 5444942
2054.79 5286476 5100680 4768312 4705438 4649854 4515610
2060.58 4433756 4046616 3774840 3906916 4055402 4095186
2066.37 3986132 3880984 3924644 4020740 4019458 3767892
2072.15 3606052 3870998 3965684 3683508 3545192 3683108
2077.94 3761744 3693672 3486056 3432016 3449244 3395964
2083.72 3678204 3621480 3380364 3586230 3784662 3465570
2089.51 3589972 3924442 3676054 3553346 3602196 3530534
2095.29 3417314 3328506 3463196 3769220 3716986 3555978
2101.08 3395232 3271726 3221064 3126632 3014660 2923832
2106.86 3027780 2966414 2915076 2853242 2696904 2696450
2112.65 2718698 2833144 2829820 2626236 2536980 2533786
2118.43 2263218 2194672 2143532 2257320 2446858 2256538
2124.22 1946726 2040594 2315456 2072794 1981880 2013540
2130.01 2019664 1856834 1931232 2238056 2238536 2081008
2135.79 1936842 2022674 1967342 1987806 2030036 2121470
2141.58 2353892 2202136 2125806 2217888 2162312 2220350
2147.36 2318772 2223242 2204818 2206918 2256940 2345776
2153.15 2420904 2595710 2521904 2352944 2449244 2566282
2158.93 2510232 2740148 2899414 2823644 2730098 2642818
2164.72 2750476 2982248 3058782 3017260 3154048 3412578
2170.50 3459910 3454976 3451930 3291108 3415362 3832540
2176.29 3945162 3779862 3662444 3599224 3587822 3555184
2182.07 3912532 4187594 3927300 3769598 3988238 4006484
2187.86 3906880 3877028 3708896 3778008 3976866 3996072
2193.64 3766424 3633982 3626970 3757238 3770904 3763068
2199.43 3938790 3877338 3619684 3641476 3728426 3689438
2205.22 3805646 3807360 3606284 3494546 3684628 3604964
2211.00 3475850 3614590 3676374 3680536 3611178 3524160
2216.79 3430562 3430346 3458312 3467904 3647112 3607044
2222.57 3339004 3253012 3186438 3381742 3420618 3279970
2228.36 3310522 3229086 3219708 3404610 3521312 3295390
2234.14 3043358 3140484 3271128 3157518 3298364 3487034
2239.93 3564234 3471516 3439922 3364210 3193830 3310000
2245.71 3476994 3560706 3510284 3331162 3341272 3675848
2251.50 3686430 3430212 3387392 3328784 3437746 3773798
2257.28 3741876 3833464 4014254 3953282 3995456 3935430
2263.07 3951860 4053654 4011310 3810550 3931070 4268260
2268.86 4303664 4390970 4427692 4336142 4471736 4696220
2274.64 4778270 4612520 4414112 4372354 4290196 4593200
2280.43 4876206 4706452 4600008 4722128 4766178 4749754
2286.21 4827490 4837074 4868816 4901546 4942778 4807204
2292.00 4731558 4833624 5107334 4917892 4731448 5172060
2297.78 5013588 4822728 5032106 4974142 4951252 5219140
2303.57 5428082 5349890 5169402 5087760 5417756 5739808
2309.35 5621888 5414930 5572618 5690498 5867566 5924296
2315.14 5510874 5534086 5692412 5772076 6114098 6199984
2320.92 6024376 6064888 6212022 6375096 6410074 6417492
2326.71 6452734 6577194 6559704 6626406 6661744 6679862
2332.50 6742848 6687244 6593250 6522390 6450128 6424816
2338.28 6335816 6351840 6346424 6175268 6007426 6065236
2344.07 6283778 5953998 5469318 5168472 4995902 5043524
2349.85 5256910 5482918 5523144 5526194 5679694 5832916
2355.64 6032176 6273790 6448940 6630214 6461234 6285154
2361.42 6283974 6193270 6243276 6272790 6239938 6196010
2367.21 6229504 6256112 6184074 5937108 5900664 5992268
2372.99 6052422 6114972 5865132 5540448 5503504 5807352
2378.78 6043492 6065606 6209338 6209266 5906818 5995096
2384.56 6280500 6374920 6549346 6467390 6346720 6217038
2390.35 6155080 6272296 6363706 6519974 6680452 6681970
2396.14 6461876 6520690 7006340 7136434 7070132 7144382
2401.92 7183038 7452296 7519986 7447614 7445010 7452424
2407.71 7475994 7535274 7609182 7660284 7609634 7600590
2413.49 7723662 7803734 7942688 8058138 8027670 8013052
2419.28 7871286 7575632 7601228 7718158 7691468 7566682
2425.06 7366336 7288166 7183384 6977242 6938578 6756748
2430.85 6885148 7086082 6870384 6493108 6237498 6396078
2436.63 6430788 6214754 6103938 6428288 6590990 6352566
2442.42 6199096 6057782 5885570 5823168 5648772 5342334
2448.20 5529466 5627700 5499782 5720078 5711406 5303328
2453.99 5166648 5273968 5096908 4858076 4805280 4795908
2459.77 5066328 5315554 4793836 4436982 4653662 4855414
2465.56 4868048 4872884 4807608 4571626 4521866 4530572
2471.35 4449214 4115244 4161312 4516962 4466140 4356610
2477.13 4324820 4230972 4179822 4327244 4509848 4411092
2482.92 4119108 4139458 4240582 4041166 4044388 4400360
2488.70 4249638 4191424 4336054 4484560 4797242 4555370
2494.49 4259730 4374660 4489802 4444342 4359520 4443756
2500.27 4203500 4033774 4251014 4256452 4576834 4616406
2506.06 4495232 4489732 4440220 4506326 4318140 4410658
2511.84 4642986 4822416 4767324 4615234 4664862 4297562
2517.63 4151358 4413584 4632362 4752872 4640052 4581468
2523.41 4761258 4813302 4685480 4595128 4539654 4767622
2529.20 5082714 4831526 4786514 4869906 4905528 4902528
2534.99 4727674 4982114 5156386 4967788 4584824 4576742
2540.77 4986826 5167950 5134210 5099922 5024722 5025986
2546.56 5107584 5112982 5158868 5165588 5314614 5441542
2552.34 5263748 5344786 5427830 5476148 5568402 5317668
2558.13 5222362 5323216 5208530 5251668 5580156 5713224
2563.91 5616188 5739620 5834806 5712540 5925142 6182898
2569.70 6159466 5934742 5924748 6130846 6057344 6216926
2575.48 6547294 6699952 6751242 6600100 6740176 7090500
2581.27 6725210 6865724 7118978 6738362 6916620 7335998
2587.05 7520914 7815356 7643202 7313826 7617292 7709374
2592.84 7926472 8038386 8001844 8201526 8365272 8388250
2598.63 8233218 8412634 8574236 8481564 8371856 8311326
2604.41 8503296 8628566 8791618 8950510 8862016 8885826
2610.20 9148448 9365162 9511732 9491856 9298514 9489554
2615.98 9633608 9739606 9724906 9506316 9785666 9917668
2621.77 9783884 9973522 9998530 10033020 10236390 10192890
2627.55 10399570 10620630 10640780 10630830 10645130 10583740
2633.34 10925750 11062510 10543610 10684010 10974250 11043650
2639.12 11219670 11869960 12039550 11625140 11866340 11937950
2644.91 11822350 12068160 12116190 12542430 12743160 12327180
2650.69 12622300 12968220 13088660 13423820 13554880 13296060
2656.48 13582260 14101360 14151230 14541750 15108060 15095570
2662.27 14915460 15180120 15323200 15595620 15961040 15799050
2668.05 16158390 16505330 16529930 16643530 16799240 16828560
2673.84 16854370 17145030 17448470 17713790 17941230 17960390
2679.62 17744520 17763710 17947570 18331950 18321090 18065720
2685.41 17968240 18253140 18589490 18586420 18823280 19038150
2691.19 19085030 19152050 19255470 19210870 19245350 19645570
2696.98 19531580 19325770 19636900 19871760 19891880 19694870
2702.76 20053350 20528940 20522330 20659510 21137080 21242490
2708.55 21050330 21319510 21583050 21919040 22605490 22992990
2714.33 22933090 23113700 23009920 22952010 23520810 24002430
2720.12 24273630 24531260 25075370 25298170 25429320 25890770
2725.91 26615220 27086560 27455430 27666540 28207240 29036340
2731.69 29685010 30456400 31034220 31736570 32597940 33103110
2737.48 33400960 33995880 34748830 35575390 35728950 35915220
2743.26 36449260 36607200 36946390 37284880 37811460 38324880
2749.05 39023850 39726850 39594080 39376720 39513710 39673750
2754.83 39238800 39056840 39074790 38876310 39371020 39775280
2760.62 39739280 39771190 39839320 40191020 40279610 40281260
2766.40 40752860 40986420 41136500 41519330 41820880 41993800
2772.19 42315780 42628210 43261750 43893680 43942830 44046540
2777.97 44404190 44880080 45205060 45625880 46061570 46813690
2783.76 47337570 47418500 48178780 48732290 48752850 49123480
2789.54 49872280 50090060 50213580 50378300 50216720 50578820
2795.33 50861950 51098230 51354610 51330820 51462820 51817520
2801.12 51753460 51624040 51967440 52570930 52694440 52917640
2806.90 53764390 53809420 54091590 54795690 55141590 55680660
2812.69 56351510 57204200 58131920 59321160 60553460 61370340
2818.47 62130420 63254120 64624290 66296500 68125520 70201750
2824.26 72218500 74098680 76433850 79019780 81921370 85201180
2830.04 88607340 92344780 96508760 100453500 104504600 108880600
2835.83 113870500 118836300 124128600 130795400 137790000 144803400
2841.61 152095200 159912800 168114500 176511300 185153100 193685700
2847.40 202820400 212249300 221353900 231161300 240812500 250432600
2853.18 261268400 272842300 284440000 296355600 309566500 322371700
2858.97 335381900 348843600 362432400 377511000 392476700 407957400
2864.76 424030700 440747800 457816800 475236900 493419100 512012300
2870.54 532297100 553632900 576766400 601654100 627540700 653611600
2876.33 678721100 700357800 716154200 726374500 730052300 728492500
2882.11 724436700 720948400 725633800 738844300 737148900 723697700
2887.90 719634000 722409100 728321200 732463600 731907600 726620200
2893.68 715676400 700698400 684608900 668942500 654213800 640210400
2899.47 627978600 618449700 611736200 606723900 603505200 602245100
2905.25 601866500 603114900 606805200 612625500 619608400 627009500
2911.04 633921900 641492100 650742100 659977500 668188900 677354600
2916.82 687712800 697546000 707296400 719162400 732637500 746078500
2922.61 759696900 773790600 787373600 801724700 816809000 830276300
2928.40 843863200 858605200 872755800 887023700 903178200 920748900
2934.18 938360900 955030000 970889600 984801300 995910600 1002709000
2939.97 1006475000 1010446000 1013500000 1014117000 1010341000 1001982000
2945.75 993038400 988036700 986446300 985446300 985680900 987364800
2951.54 989521200 993502700 998117400 1000581000 1002298000 1004481000
2957.32 1008069000 1013372000 1020041000 1028216000 1039056000 1050980000
2963.11 1062705000 1079684000 1107127000 1138587000 1149591000 1124159000
2968.89 1082326000 1044639000 1013111000 989120700 975513300 962280100
2974.68 941293300 919728500 901116200 881788900 857290200 826215700
2980.46 787177600 741756500 693268200 641644200 588296400 536881800
2986.25 488391100 442791200 399915700 361180200 327073700 296078500
2992.04 268391300 243664900 220170700 198835400 180620600 164030000
2997.82 148526800 134691500 122216500 110671500 100034400 90489500
3003.61 82498710 75755420 69489560 63480720 57927590 53233630
3009.39 49410230 46427990 43640940 40707860 38534920 36825760
3015.18 34770180 33163790 31823340 30454030 29392920 28853880
3020.96 28163550 27053140 26219660 25834200 25179370 24944460
3026.75 25108030 23974180 23568290 23738120 23309950 22615230
3032.53 22564890 22912180 22887010 22593830 22340590 22297120
3038.32 21641810 21846030 22090620 21859410 21608350 21593030
3044.10 21845800 21497880 21231820 20973200 20681010 20720590
3049.89 20644050 20469160 20565090 20464380 20056290 19554050
3055.67 19095810 18595560 18228130 18275870 18336060 18062110
3061.46 17766500 17349380 17453430 17183950 16257250 15729340
3067.25 15512060 15142870 14650600 14531380 14259820 13898890
3073.03 13735490 13465900 13086400 12717290 12393790 11897340
3078.82 12021840 12388420 12700220 12385800 11854920 11736010
3084.60 11636690 11593300 11133770 11165890 11188430 10914710
3090.39 10944440 10559090 10591700 11138990 11034060 10692340
3096.17 10503730 10447890 10279690 10566340 10948770 10404680
3101.96 9929046 9993242 9781928 9811424 9892520 9807034
3107.74 9975996 9697652 9397168 9092816 9059828 8960518
3113.53 8814006 9069372 9434136 9527206 9265752 8955648
3119.31 8804126 9368140 9520712 9445966 9060894 8598460
3125.10 8896220 8898294 9014032 9233280 9273132 9149952
3130.89 8899838 9108864 9140150 9224984 8957958 8776554
3136.67 9031470 9018946 9260344 9330374 9013462 8735946
3142.46 8697710 9419944 9506840 8945810 9088898 8967266
3148.24 8859246 9043172 8921008 8808582 8921232 9318804
3154.03 9331692 9032892 9008190 8678936 8711648 8869868
3159.81 8816510 9011128 8831502 8367566 8485904 9190552
3165.60 9105366 8867546 8994350 9121544 9077200 8788512
3171.38 8602802 8892190 8963422 8788292 8935072 8889230
3177.17 8603760 9098452 9281554 9186888 8941392 8680184
3182.95 9207676 9479120 9702970 9489234 9436068 9302976
3188.74 9485568 9966938 10105230 9859668 9587218 9760506
3194.53 9961858 9990950 10076810 10241070 10071240 9594272
3200.31 9351016 9458444 9145590 9308054 9615668 9559340
3206.10 9136138 8751182 8762882 8698616 8911486 8316170
3211.88 8435238 8487062 8104652 8307216 7918988 7519532
3217.67 7246774 7031222 7266942 7063588 6281148 5826372
3223.45 5653572 5901656 6195236 6281550 5860034 5170124
3229.24 5098208 5175204 5137770 4960060 4564938 5170988
3235.02 5316194 4912908 4314802 3615524 4037322 4706096
3240.81 4705660 4116762 4103418 3940832 3704622 4345740
3246.59 4222806 3405478 3280238 3408150 3517922 3609080
3252.38 3384640 3226840 3345772 3498072 3332394 3121396
3258.17 3053602 3046026 3374546 3145110 2698166 3051308
3263.95 3300226 3179152 3430550 3771754 3371102 3139376
3269.74 3013368 2711674 2807172 2752394 3075622 3199516
3275.52 2818126 3009456 3057364 3054132 3185114 2513156
3281.31 2155636 2713166 3207926 3361562 3192374 3154314
3287.09 3125082 2402220 2385866 2713904 2590198 2696540
3292.88 3112726 3507594 3393716 2671274 2804668 3436232
3298.66 3305954 3026716 2669488 2636438 2533886 2593868
3304.45 2826178 2984210 3511750 3548056 3162540 3151982
3310.23 3370268 3211514 3290886 3323378 3225012 3608356
3316.02 3892986 4253560 3567152 3076744 3365238 3504494
3321.80 3550192 3576292 3541674 3468740 3206860 3224106
3327.59 3191428 3234046 3414026 2788614 2657554 3113080
3333.38 3358570 3125584 3108370 3118562 3325020 3606938
3339.16 2948792 2730450 2967426 2794914 2855960 2854062
3344.95 2517222 2487858 2615268 2670102 2874074 2920788
3350.73 2773456 3172738 2931660 2365184 2888352 2809922
3356.52 2729900 3323294 3410332 3147550 2869884 3050480
3362.30 3149744 3343296 3457136 2721902 2646222 2904864
3368.09 3042042 3608432 3226450 2735764 3053194 3234866
3373.87 3325988 2961216 2752802 2965988 3216784 3405494
3379.66 3328410 3016332 3222584 3410034 3085152 3232610
3385.44 3063764 3111166 2966702 2782670 2982292 2462798
3391.23 3015832 3768350 3444180 3369898 3608098 4014394
3397.02 4080650 3702060 3218310 3341310 3473884 3043930
3402.80 3287556 3695292 3794822 3859476 3537642 3806718
3408.59 4787754 4598938 3752790 3974702 4344184 4889238
3414.37 5342700 4710868 4454552 4910002 4830728 5071282
3420.16 5549322 5221514 4386156 3822426 4267608 4961308
3425.94 4816042 4770548 5196526 5650976 6450200 6103702
3431.73 5238044 5186762 5222794 5337662 5120110 4918812
3437.51 5343610 5081872 5248496 6323486 6761790 6508850
3443.30 6031834 5153526 4777008 5329654 5947600 5825414
3449.08 5946536 6384922 5950738 5318066 5410548 5653472
3454.87 5381098 5817862 6125682 6132386 6076176 6122248
3460.66 6610658 6845460 6611418 6558018 6987782 7198240
3466.44 6839622 5818174 5543666 6193482 6763754 6647898
3472.23 6766768 7370890 7149234 7028512 6720194 6611286
3478.01 6797750 6554632 6732784 7181710 7024012 6999922
3483.80 6929124 6721384 7086766 6669366 6076098 6379386
3489.58 6473600 6699844 7265792 7041024 6492718 6080202
3495.37 5930518 5809556 5481554 5562076 5992620 5768296
3501.15 5498760 5955532 5838478 5291688 5309832 4753368
3506.94 4838276 5567644 5829330 5752268 5420054 5217014
3512.72 5167072 5210534 5000426 5191494 5110868 4929984
3518.51 5108798 5413440 5530354 5382108 5292014 5214472
3524.30 4817964 4907522 5684808 5593376 5169316 5009046
3530.08 5263656 5280536 5551382 5827942 5271038 4931906
3535.87 5377904 5731498 4506440 4120798 4764470 4943278
3541.65 4865314 4823032 4626750 4464784 4992916 5363034
3547.44 5493880 5546890 5378620 4941826 4800718 4929306
3553.22 4726656 4840506 5428010 5536760 5147836 5095962
3559.01 5074868 4565832 4876558 5112970 4920418 5233868
3564.79 5149552 5233380 5747436 5274278 4978914 4312852
3570.58 4255526 5081826 5047536 4627394 4700634 4791970
3576.36 4649880 5113826 4685576 4930364 5285980 4590356
3582.15 4828324 5519080 5327206 4875764 4820948 5319644
3587.94 5681856 5076730 4689018 4864544 5735528 6172450
3593.72 5647522 5349784 5490080 5794478 5481322 5386664
3599.51 5845126 5962640 6291364 6501538 6444432 6634742
3605.29 6881570 7327670 7483134 7365294 7640086 8195168
3611.08 8492856 8011114 7950000 8610918 8757600 9498514
3616.86 10145860 10450800 11033740 11186050 11935420 12497070
3622.65 12736610 13263980 13826350 14748920 15999170 17322570
3628.43 18471610 18881010 19523640 21237350 23081810 24756340
3634.22 26575050 28568560 30246220 31756480 34145040 37271570
3640.00 39726860 43143080 47026850 50647190 54582840 58120370
3645.79 63002750 68067990 73029030 77033830 80543540 85159360
3651.57 88826760 93461870 98923720 104829100 108064600 108281500
3657.36 111299400 116105400 121608900 127976500 134612000 140449300
3663.15 145636300 151174100 156651600 161589200 166211400 169657800
3668.93 172369000 174131500 172582700 170212300 166581600 162580700
3674.72 158595800 152959600 149591700 151869800 152344600 145015400
3680.50 139196000 137611400 135244400 131239600 125572400 119024400
3686.29 111260800 102711500 92921460 82580160 73468550 65329840
3692.07 58267690 52292540 47811180 43257120 38929010 35781740
3697.86 32908360 29890760 27986880 26262510 23316620 21170760
3703.64 19805930 18654530 17117770 15701700 15250840 14668650
3709.43 13775090 13867750 14148580 12859320 11217120 10658780
3715.21 10803770 10088770 9612322 9804558 9573130 9464806
3721.00 9563992 9675120 9512326 9223292 9204554 8959514
3726.79 8260874 7727132 7706502 8193040 9086682 9215520
3732.57 8392872 8286896 8419110 8118476 7475522 7611384
3738.36 8067016 7928018 8175940 8246714 8384072 10251620
3744.14 9970946 7851496 7495820 7676626 9302780 8953236
3749.93 7573794 8764186 7942806 6446648 6686938 7357324
3755.71 7585392 7026240 7246630 7632918 7047440 6914194
3761.50 6961446 6847174 7095080 6936830 6781300 6753044
3767.28 6815438 7082034 7172616 6765140 6876918 7340708
3773.07 7541002 7355046 6917448 6867718 7058230 7882978
3778.85 7738022 6768866 6658704 6758350 6849082 7293410
3784.64 7403758 7341182 7449372 7313358 7319634 6894380
3790.43 6794398 7216446 7223068 7325754 7816292 8215948
3796.21 7929210 7382952 7571422 7975464 9175762 9486098
3802.00 8441656 8075170 6923562 6986164 8435484 8033428
3807.78 7626634 7873440 7552432 7609930 7535738 7161502
3813.57 7379384 9292160 9944292 8549600 8465880 8247578
3819.35 8799832 9534956 9127126 8938380 8777914 8758894
3825.14 8630764 8326396 8094086 8503948 9241894 9801090
3830.92 9522348 8957166 9886590 11218090 10741640 10167420
3836.71 11223320 10927070 10278360 10317200 10138810 9997050
3842.49 9921544 9896428 9758596 10059850 10427660 10492670
3848.28 10719390 10484400 11282490 12388320 12583910 13331830
3854.07 12395130 11325220 10999470 10719180 10328960 9833330
3859.85 10500900 10960780 10556520 10994680 11754170 11208640
3865.64 10681430 10749550 10711740 11970000 12276850 11361640
3871.42 11061470 11122780 11299060 10830950 10534220 10810030
3877.21 10517430 10006440 10203840 9922222 9437596 9309428
3882.99 9610682 10389210 9863214 8667028 8285266 8488530
3888.78 8415336 8831538 9214640 8210780 7757184 7245762
3894.56 7132326 7646850 7248402 7005300 7226152 7099670
3900.35 7298338 7150102 7085634 7353566 6878468 6105606
3906.13 6224856 6620596 6004378 5597082 5964272 6035116
3911.92 6017236 5724322 5758226 5781850 5886150 6195234
3917.70 5739480 5527276 5454594 5852076 6242272 6235470
3923.49 5653600 5602758 5756666 5156486 5133366 5448490
3929.28 5767914 5676972 5602790 5569058 5378314 4857476
3935.06 4268796 4804732 5357624 4856148 5161536 5454374
3940.85 5103294 5428824 5346560 5182274 4579190 4580642
3946.63 4954908 4531490 4518238 4519014 4599158 5217842
3952.42 5635468 5304246 4854246 4985768 5305056 5457966
3958.20 5262664 4674124 4605418 5073570 5152296 4974818
3963.99 5090358 4972594 4784580 5022630 5536348 5792414
3969.77 5931598 5914464 5492284 5764434 6169782
##END=
