##TITLE=Benzene
##JCAMP-DX=4.24
##DATA TYPE=INFRARED SPECTRUM
##CLASS=IUPAC A
##ORIGIN=NIST, Analytical Chemistry Division, 301-975-3108
##OWNER=COPYRIGHT (C) 2000 by the U.S. Secretary of Commerce
##DATE=00/02/01
##$SPECTRA VERSION=1.10
##$UNCERTAINTY IN Y=2.1 % relative (B=1.1E-04,C=5.2E-10,D=5.2E-15)
##CAS NAME=Benzene
##CAS REGISTRY NO=71-43-2
##MOLFORM=C6 H6
##MP=5.5 C
##BP=80.1 C
##$NIST SOURCE=QUANT-IR
##SPECTROMETER/DATA SYSTEM=IFS66V (Bruker)
##INSTRUMENT PARAMETERS=KBr Beam Splitter; MCT Detector; Multipass cell
##STATE=gas
##SAMPLE DESCRIPTION=Benzene Primary Gas Standard
##PRESSURE=101.3 Pa
##TEMPERATURE=23 C
##SAMPLING PROCEDURE=1 L/min Flow
##RESOLUTION=1.9290
##DATA PROCESSING=Happ Genzel Apodization
##XUNITS=cm-1
##YUNITS=(micromol/mol)-1m-1 (base 10)
##XFACTOR=1.0
##YFACTOR=3.6379E-12
##DELTAX=0.9645
##FIRSTX=575.653
##LASTX=3974.61
##FIRSTY=-3.30E-07
##MAXX=3973.64
##MINX=575.65
##MAXY=.003074
##MINY=-5.12E-07
##NPOINTS=3526
##XYDATA=(X++(Y..Y))
575.65-90893-59849-137883-66040-178635 8689
580.47-34117 67527-78578-4703-56632 120738
586.26-46345 46581-23702 60232-129192 8451
592.05-25235 89403-64444 62638-20628 69749
597.83-61407 8392-83832 63280-52702 74362
603.62-5940 188198 154842 289366 53579 132601
609.40-54682 44857-95463 60229-90226 49751
615.19-68473 96606-52750 99814-43989 139653
620.97-30850 125287-37615 104436-64990 133642
626.76-8290 193839 65975 315627 192736 462018
632.54 410409 818880 859792 1366432 1567665 2357848
638.33 2855293 3960940 4845566 6476718 7912313 10191933
644.11 12363792 15526253 18638891 22775398 26847571 32036861
649.90 37036002 43045132 48676706 55093939 60717136 66860888
655.69 71689079 76520167 79332240 81771766 81756680 81147544
661.47 77673038 73738370 67066471 60390924 51181892 43388182
667.26 34416738 30918717 38867237 98708212 294689537 716570881
673.04 844975734 309538414 30317181 23228900 28805260 36644166
678.83 47717872 57141094 67868584 76128737 84490895 89694074
684.61 94066232 95348936 95676076 93159877 89901627 84536136
690.40 78798246 71441568 64436980 56796051 49886529 42735060
696.18 36708739 30726163 25733541 20830984 17134724 13603028
701.97 11036625 8547587 6868464 5168520 4124704 3006766
707.75 2453305 1721669 1451131 955933 840396 496091
713.54 500161 267659 331868 142115 207109 27744
719.33 135519 15920 93361-23168 90901-25667
725.11 78275-32633 61534-24730 64263-30436
730.90 56877-43898 39792-39169 42944-47566
736.68 23040-61764-104-66196 19745-55240
742.47 153-68332 2709-49056 10188-54163
748.25 8997-38495 34719-21731 36708-990
754.04 71286 22761 97908 73647 134792 103402
759.82 167064 138425 195060 182096 247043 216684
765.61 252146 205552 228717 187335 212375 159305
771.39 169677 132856 138109 129242 224385 303827
777.18 885193 2078037 1837633 700514 420397 219996
782.97 171048 82639 135014 99475 175509 163682
788.75 219169 172743 231961 205076 234694 196470
794.54 237500 192162 210029 165462 170861 107457
800.32 123641 82951 85679 30799 39962 593
806.11 6131-29653 7430-7409 6728-43116
811.89-39142-68066-40252-54612-32105-51737
817.68-27427-50270-25327-50546-26920-50895
823.46-45707-63136-37365-53274-29528-48634
829.25-23154-34947-35856-55242-35183-59307
835.03-46704-51722-31827-56728-33701-35576
840.82-18105-32005-32813-60132-45250-47847
846.61-32394-53720-54277-54017-30698-37856
852.39-23466-39557-41468-49401-38027-52448
858.18-54135-61816-48429-52855-47406-57860
863.96-41229-35292-26510-50246-45520-49811
869.75-51719-52153-35498-40094-34455-44405
875.53-47444-46240-36862-43929-43099-46471
881.32-43347-49809-41551-45972-44538-47875
887.10-45895-51785-51197-55074-48906-64490
892.89-57087-42844-41198-53539-56347-50554
898.67-39404-43370-38209-44498-45620-47683
904.46-53250-60722-52492-43680-43035-41189
910.25-33371-32384-42612-43920-42566-41746
916.03-49293-43187-34055-38880-45075-42634
921.82-50493-44850-40120-43112-53140-62953
927.60-63684-42882-39874-34093-38734-35998
933.39-44821-37175-40946-42012-41610-46432
939.17-51608-45733-49585-49454-48909-30684
944.96-35860-39624-44470-42390-47400-37740
950.74-40849-32498-27848-27374-38451-28143
956.53-45356-35739-30698-26742-27933-21561
962.31-33307-21435-21994-12181-27441-24441
968.10-26262-11043-16490-21165-26805-11997
973.89-22587-9656-11721-1539-5296 3239
979.67-4220 12829 18502 32161 34045 60613
985.46 65551 87391 84098 105127 100881 121585
991.24 132303 160042 163941 190813 190668 207091
997.03 223358 276525 323688 402749 459715 532000
1002.81 553551 562499 606375 815041 1110542 1454559
1008.60 1757565 2093873 2433649 2869190 3341490 3904475
1014.38 4499372 5181115 5849259 6546495 7188146 7807897
1020.17 8309016 8744212 9006114 9150190 9091628 8904558
1025.95 8522411 8098746 7575333 7173550 6933350 7007758
1031.74 7627934 9362820 11509514 14234590 18988178 22583464
1037.53 18019398 11972003 8108685 5443436 4507571 4644857
1043.31 5321153 6105895 6876907 7524851 8048247 8391789
1049.10 8552860 8528541 8340319 8005110 7548615 6982064
1054.88 6335473 5668892 5004150 4352719 3708642 3129504
1060.67 2600855 2133883 1724408 1379207 1082213 850794
1066.45 641158 481837 349154 252023 167086 132312
1072.24 82780 53821 30749 11770-14408-13197
1078.02-19191-11658-28071-23148-28389-27698
1083.81-37503-21856-28505-28610-45288-35052
1089.59-44855-34341-43811-42143-46127-20232
1095.38-36004-44453-50141-28633-29746-21895
1101.17-43795-45859-54970-36052-39944-30161
1106.95-41090-34128-49249-34931-41521-31555
1112.74-38603-29380-50524-47047-61147-49289
1118.52-47771-29715-45248-34414-52178-54552
1124.31-68847-45213-50019-43418-58483-43819
1130.09-57167-48522-57973-41234-48865-38517
1135.88-49826-39927-61561-53183-63536-46570
1141.66-64764-52853-55988-37025-50081-35049
1147.45-45600-38187-55254-41798-57000-43986
1153.23-55966-38086-48117-34208-51947-40515
1159.02-43067-35572-55589-35077-51507-39286
1164.81-44500-25245-36279-14541-32372-30758
1170.59-44363-25868-35372-16895-27672-16689
1176.38-33704-15456-24669-11840-25417-6777
1182.16-16356-47-16784-2212-14370 3550
1187.95-3858 23186 40509 99527 75742 37349
1193.73 3288 5545-24816-7916-11275 3619
1199.52-9182 8523-5588 10195-2452 15532
1205.30 9696 25972 1094 7775 20875 135452
1211.09 144562 86175 28240 29211 7647 26180
1216.87 17259 33564 30574 60335 59236 83031
1222.66 69568 102539 115750 160161 171310 213099
1228.45 223234 260457 270885 308093 295648 319334
1234.23 310990 315400 285985 292280 273640 293101
1240.02 287166 306425 279487 281694 251472 258415
1245.80 252949 279994 260838 287797 290690 310932
1251.59 286638 283896 243757 233476 187543 176616
1257.37 128170 108169 60686 54258 19574 20080
1263.16-12131-12033-40680-29586-48729-28589
1268.94-47018-35900-55484-37944-53755-34287
1274.73-52033-39899-63378-46391-60460-39334
1280.51-54368-40894-60701-35507-59757-51872
1286.30-64985-42492-58240-40879-56557-31691
1292.09-56212-51325-69434-46109-62218-43243
1297.87-57290-39315-57689-40455-63236-43968
1303.66-58566-41039-58851-43984-68149-53761
1309.44-69949-44578-62588-50058-66230-42372
1315.23-57447-38339-59539-41263-69049-59502
1321.01-75668-51475-63563-44495-68417-51943
1326.80-73325-50078-69420-54802-73364-53410
1332.58-66915-44627-65934-46511-67315-48869
1338.37-64911-49059-71123-54653-78009-61146
1344.15-78755-53993-69439-45721-55525-36433
1349.94-70673-68962-102351-83384-86643-43639
1355.73-52621-31799-40243-19934-29514 9504
1361.51 9783 47020 42480 90752 116467 193545
1367.30 234994 314946 361173 467047 533034 638590
1373.08 718555 831143 882220 966623 1005444 1060941
1378.87 1053965 1069234 1023193 1018085 982107 979707
1384.65 948088 993153 997327 1034618 999954 956045
1390.44 897037 921957 935361 999024 1016696 1048550
1396.22 1021294 1012574 936975 870121 743667 655381
1402.01 532232 453551 340962 278341 186730 145474
1407.79 84141 75703 25935 17235-25785-11874
1413.58-37000-24070-41298-19770-36938 7694
1419.37-30289-28476-49721-29186-47083-26750
1425.15-53491-30272-44545-21661-40942-20553
1430.94-45595-25325-46399-18766-16738 30268
1436.72-10925-3081-21244-1535-22522 6857
1442.51-5358 25825 16352 53675 68471 123457
1448.29 135456 223568 285755 404702 504331 702341
1454.08 920649 1279875 1653977 2105400 2627420 3323311
1459.86 4097269 5056790 6100951 7315306 8591615 9958873
1465.65 11295252 12672824 13915336 15049956 15913531 16584380
1471.43 16901470 16975325 16713885 16249911 15696375 15473129
1477.22 15409227 16029571 17751372 20662475 24258406 25765146
1483.01 22539931 19376012 17274501 15106296 13735369 13364537
1488.79 13738250 14545745 15465923 16298950 16847721 17049138
1494.58 16846206 16287290 15348425 14220596 12928479 11620994
1500.36 10332696 9189367 8177959 7381175 6745320 6257994
1506.15 5826937 5504761 5227121 5004253 4746169 4544377
1511.93 4295375 4078274 3884352 3797186 3770233 3807528
1517.72 3762425 3622448 3479899 3405625 3271278 3274270
1523.50 3336260 3487221 3564400 3634199 3596826 3513925
1529.29 3299842 3053475 2721670 2416137 2044415 1705232
1535.07 1365289 1108418 879417 749230 573445 441035
1540.86 315913 247859 154827 140120 81436 60689
1546.65 17735 24831-2517 14471-14386-1827
1552.43-9623 29112-18266-9796 7752 73700
1558.22 54205 66784 2382-5951-25952 3095
1564.00-11847 944-24842-240-1981 36209
1569.79-28 10936-8787 8940-4008 65692
1575.57 60672 39978 2228 16073-7636 14717
1581.36-8083 7032-12216 14630-2704 18873
1587.14 8810 31258 6268 32814 12447 30914
1592.93 21042 52415 33739 60701 47321 77153
1598.71 65904 94941 88152 127015 123495 154977
1604.50 142939 177228 166710 194530 175927 195205
1610.29 161708 177871 148476 153489 120731 172250
1616.07 166575 169238 179662 293229 418643 582102
1621.86 584183 426709 215131 142195 104939 149584
1627.64 148467 188420 189120 232441 226048 252817
1633.43 259968 316045 267338 247062 204786 197197
1639.21 151755 155318 118248 122637 89899 119836
1645.00 116543 119718 78152 87358 65546 99726
1650.78 136086 235961 208569 199218 171663 209778
1656.57 219650 250899 224800 249731 237977 280749
1662.35 270421 311623 444210 643241 423941 279374
1668.14 274221 289358 258061 275379 246851 277349
1673.93 302681 336505 300865 323189 304647 318590
1679.71 280666 276541 236114 265205 263936 231904
1685.50 132015 116822 67654 75000 40915 50290
1691.28 17881 34695 18143 85677 84384 56787
1697.07 11405 52537 85408 93633 15719 14207
1702.85-2590 28226 17625 45152 2287 8786
1708.64-22974-10289-37876-3546 28009 192482
1714.42 279556 192652 106826 76514-678 2138
1720.21-19907 2272-19549 8700-2579 29899
1726.00 19612 52832 47496 94135 83868 124211
1731.78 150757 227687 227156 240737 227244 270968
1737.57 269342 328230 320962 337861 312914 334385
1743.35 303993 312187 269082 269585 234797 239988
1749.14 216658 302411 400364 626803 835742 862301
1754.92 650373 505847 324703 236895 176585 221927
1760.71 248476 301000 304714 367729 372803 424070
1766.49 432063 468995 440617 469558 464482 508884
1772.28 478112 485631 474901 517371 515698 564701
1778.06 578949 651203 684347 770714 810885 912466
1783.85 992624 1134334 1259058 1467971 1674965 1975924
1789.64 2300164 2747481 3215546 3751229 4278933 4918198
1795.42 5556620 6264017 6919026 7588065 8117919 8566888
1801.21 8832564 9002258 8997342 8924447 8731408 8586554
1806.99 8414723 8395622 8434092 8546251 8522573 8302393
1812.78 7920831 7756981 7821669 8142421 8508038 8884992
1818.56 9069011 9077454 8793311 8327912 7622109 6826071
1824.35 5905954 5013520 4115846 3347695 2647994 2097905
1830.13 1585991 1224546 906462 708552 511560 397378
1835.92 277227 232464 155321 140583 88438 89424
1841.70 51546 85247 60532 52514 10298 32990
1847.49 15543 43966 15484 35175 17978 50346
1853.28 30528 54251 29357 56364 40909 71886
1859.06 58998 94086 79398 115388 101307 132700
1864.85 113150 137576 123693 159066 136163 148850
1870.63 118330 138963 117400 143600 126782 163044
1876.42 142947 161619 133500 148196 117261 138332
1882.20 110059 143061 150227 209270 196782 208779
1887.99 163980 157263 98479 98741 57020 70029
1893.77 36349 53996 25531 46544 21573 45763
1899.56 15114 29314-2885 17558-7335 15814
1905.34-11776 5503-16729 11013-7584 24355
1911.13 14280 52069 35522 58145 27541 52280
1916.92 33651 59032 42794 90862 92092 138833
1922.70 146301 204769 218310 284748 313677 398811
1928.49 443432 543946 614793 757149 870730 1056191
1934.27 1215831 1454535 1688896 2012613 2327122 2730448
1940.06 3121156 3593052 4017890 4469906 4852940 5252011
1945.84 5545956 5809820 5965708 6120953 6104703 6049897
1951.63 5937855 5863146 5784001 5773924 5689514 5641669
1957.41 5479540 5271877 5072785 5109022 5265665 5562288
1963.20 5818935 6046060 6069170 5970845 5666692 5270011
1968.98 4717381 4149976 3516825 2943262 2368488 1913745
1974.77 1487809 1180831 893308 701075 506487 412534
1980.56 310108 281658 232543 240095 210831 249145
1986.34 259618 371154 414603 311080 131685 122315
1992.13 94491 132692 123153 154489 138328 174318
1997.91 176630 236917 218109 288864 380315 433034
2003.70 586181 932539 563614 273620 352446 354005
2009.48 192972 155015 116341 146925 130165 169830
2015.27 169941 213515 197157 222653 202915 226828
2021.05 196147 204858 157449 167530 124802 128458
2026.84 81047 93299 58226 71213 40842 57481
2032.62 18394 33195 7953 40581 3110 3791
2038.41-28910-2734-27704-826-22752-395
2044.20-31146-6559-35820-11189-30745-5056
2049.98-33264-11915-36406-12429-36107-12245
2055.77-38196-15248-45318-20846-42383-15019
2061.55-43392-18143-46947-31554-60647-33453
2067.34-59981-42927-71231-45957-72550-50966
2073.12-86274-62533-69141-27071-54238-31655
2078.91-56262-29091-47629-28821-60105-33005
2084.69-46878-16665-39847 1549-17936 955
2090.48-40264-27628-51604-14526-44145-35846
2096.26-62531-24555-38576-23447-54543-26148
2102.05-36093-19451-60089-31964-42572-21184
2107.84-59117-31060-44162-5099-49891-36464
2113.62-55767-13744-56272-41376-59696-11281
2119.41-41698-32286-57978-17298-47536-37405
2125.19-56380-11463-35779-26848-56986-24079
2130.98-42036-23919-52646-12168-29544 344
2136.76 656 5827-49441-26070-46748-12897
2142.55-16410 5974-47489-29993-55768-29149
2148.33-53558-19759-41775-23971-46893-11380
2154.12-41363-32157-57387-11778-36862-21631
2159.90-36804 1884-40657-37431-45944-171
2165.69-43780-30125-32090 1815-49988-26810
2171.48-30509-12023-60003-18897-19915-11171
2177.26-51344-9678-31447-24845-39990 5831
2183.05-28711-15121-25847 6234-29717 2456
2188.83-4173 21999-4515 41655 27684 47991
2194.62 42046 103382 97337 152011 178198 247064
2200.40 254893 329891 369042 458349 508739 617488
2206.19 664561 747867 759949 790400 730245 688815
2211.97 582833 542614 522166 633851 732434 853384
2217.76 829864 774259 633652 549739 430314 377718
2223.54 282506 252089 185447 182020 123962 117552
2229.33 70454 72966 29394 50109 14481 25060
2235.12-10618 11733-16820-741-36765-14665
2240.90-47591-26458-52363-25035-50906-23810
2246.69-47631-20367-47632-24083-48990-21729
2252.47-42933-14494-49709-25168-44893-15447
2258.26-40234-10730-38044-12225-29201 10700
2264.04-7824 24224 2253 33135 10852 38193
2269.83 16525 44319 17105 43221 14251 39051
2275.61 11250 35005 3020 28634 5399 35981
2281.40 11973 30952 1682 33916 17135 42742
2287.18 11167 35856 8119 33203 4594 29366
2292.97-3352 21827-3999 22327-1941 23480
2298.76-926 36189 26171 72140 73497 135508
2304.54 152264 232975 263479 362032 426039 548947
2310.33 632974 772741 856943 971536 1029915 1115666
2316.11 1129512 1159691 1117241 1103327 1033406 1010708
2321.90 961681 976334 968728 1031330 1139009 1313065
2327.68 1260920 1207735 1156035 1211144 1223429 1261758
2333.47 1227691 1236280 1165521 1121203 1008666 935684
2339.25 799367 714757 580913 508835 391184 333575
2345.04 237015 205292 129986 121481 74696 91378
2350.82 61670 80578 53394 89561 68080 104366
2356.61 88043 121804 102305 144976 134913 180783
2362.40 192323 254428 212262 218350 198118 217499
2368.18 173654 196748 175201 207406 174687 192574
2373.97 157849 180525 150761 181569 165488 194381
2379.75 169671 210961 208911 288398 343764 499162
2385.54 447652 318835 215320 225111 216062 258642
2391.32 245657 287022 272892 307680 287014 314986
2397.11 289964 322725 298535 295584 239723 249435
2402.89 218228 242640 232012 289790 299524 371708
2408.68 388229 325095 172617 143706 99850 122060
2414.46 100573 137629 115863 148259 128778 159121
2420.25 135142 161497 124393 145936 111852 117207
2426.04 73773 85760 45782 60780 20850 39522
2431.82 7489 29596-2086 16870-18341 5118
2437.61-22715 7420-21141 3412-20617 6443
2443.39-23588-2671-29898-749-32046-6548
2449.18-33929-7160-33681-8858-37001-8159
2454.96-34510-6146-25526 5737-18362 9471
2460.75-19455 8668-13426 16516-10608 14361
2466.53-11089 17574 192 38378 18985 49580
2472.32 22710 47723 23221 57717 27266 45502
2478.10 17056 44750 16380 46068 20181 50177
2483.89 33027 50515 12083 36741 15373 48593
2489.68 22182 39793 11201 47065 21080 49030
2495.46 11845 22826-12990 7307-29241-8246
2501.25-38080-15045-42755-19820-51670-24717
2507.03-49838-23351-55767-37270-59395-27029
2512.82-53523-25422-47160-27852-62449-30092
2518.60-54670-32039-58857-29562-58238-29266
2524.39-60189-43516-64124-33114-66921-40751
2530.17-70457-43538-64408-31254-62842-38554
2535.96-56011-24102-53463-21363-46369-18844
2541.74-39269-10706-35983-1923-26397-3585
2547.53-30933-5935-22004 25475 5769 35728
2553.32 20415 66924 58621 82084 12821 8583
2559.10-16137 14322-8956 26230 3150 22130
2564.89-4865 33278 10106 37631 8922 35802
2570.67 12840 45160 25058 72875 101623 155985
2576.46 75696 62499 24045 49498 26665 58564
2582.24 41651 90141 78950 119872 113324 159003
2588.03 145209 189320 176004 219023 209380 254540
2593.81 232801 264098 247836 282348 256572 286738
2599.60 274597 322746 331757 414033 422234 458623
2605.38 458684 547524 572911 638819 634040 654372
2611.17 588546 556071 459952 415809 321231 300431
2616.96 238950 237706 198588 238351 226511 234501
2622.74 186629 197394 156691 179254 146551 167233
2628.53 128945 153344 123859 135224 86903 105388
2634.31 72668 93574 57111 78735 47866 73973
2640.10 54241 101449 87599 126313 125907 178559
2645.88 177855 236086 237007 287695 270510 299194
2651.67 266513 282355 241782 246087 195780 217304
2657.45 191853 221354 197797 240596 250498 309394
2663.24 298155 331526 291667 292606 229739 211079
2669.02 144122 138680 87787 92117 34096 34540
2674.81-11324 9006-23868 3773-27702-12966
2680.60-47776-22723-47785-18070-47005-29487
2686.38-66326-35246-62455-36897-69278-41359
2692.17-68094-44468-71391-43048-74563-48230
2697.95-78794-58071-95890-70897-92334-53910
2703.74-68426-42470-73854-44119-73721-40731
2709.52-54705-24438-62848-39823-62754-37428
2715.31-75178-48622-76366-49280-80342-54161
2721.09-78556-49782-82165-57490-80249-52448
2726.88-74928-35891-63953-47697-76800-46653
2732.66-78177-48504-63456-36899-66480-30985
2738.45-64358-46779-71830-46443-74455-44519
2744.24-73530-48079-70419-39419-70383-42558
2750.02-72530-51347-82795-54590-77047-49697
2755.81-82597-50328-75733-47191-66328-36893
2761.59-68280-47105-72272-40177-75012-52245
2767.38-76264-45721-70730-37443-69396-45372
2773.16-72119-40314-52194-22661-67338-44363
2778.95-70768-47579-69932-31279-50929-18279
2784.73-48656-31844-57625-12200-31437 1033
2790.52-27783 3978-1523 45861 31629 65916
2796.30 51187 98497 83069 125652 126025 184434
2802.09 183772 234530 239750 309170 314787 375779
2807.88 391794 459140 460441 525255 527915 571066
2813.66 562324 607650 597121 634478 609006 639702
2819.45 607652 627351 601989 659021 698718 790395
2825.23 802976 862949 881249 878809 744144 676244
2831.02 581582 594008 569327 612500 605365 646124
2836.80 632989 679277 656488 680264 645476 656251
2842.59 601452 597978 538100 534805 479544 480072
2848.37 427411 461467 444369 485089 488190 549540
2854.16 485418 435713 356852 357439 317993 350669
2859.94 335648 390401 393862 447722 438229 482559
2865.73 467238 501347 470926 501078 471692 484051
2871.52 464634 510945 511177 573938 589596 667532
2877.30 692138 776462 809113 893445 906856 974085
2883.09 982153 1033801 1040362 1108835 1123159 1210331
2888.87 1258217 1363088 1410680 1537202 1643795 1849965
2894.66 2013637 2202709 2288804 2343839 2209007 2030615
2900.44 1748888 1528194 1290859 1164523 1039257 1003393
2906.23 928250 909855 845920 841067 754008 718009
2912.01 642916 633755 579711 580548 522970 525669
2917.80 474224 477588 416170 386764 298630 277670
2923.58 208134 199706 139899 144824 78740 65918
2929.37 13177 24099-13048 2012-31314-6071
2935.16-34794-16020-58735-32204-65785-44301
2940.94-78997-58025-82284-53048-82548-51487
2946.73-78231-57676-80805-49857-74067-40669
2952.51-56170-22290-53242-32475-59821-36181
2958.30-86838-72604-108226-84298-117422-104893
2964.08-140994-106949-115870-79345-104673-71952
2969.87-85620-33224-38771-16666-44688-10182
2975.65-35735-14773-49516-26382-43929-12857
2981.44-39587-6090-20558 24307 7938 36289
2987.23 579 20474 1232 35257 26337 69113
2993.01 33428 48797 36031 74677 46726 78882
2998.80 70068 123027 115672 169580 167924 221872
3004.58 226877 286915 300157 377574 422101 520180
3010.37 579577 734589 867612 1097171 1333096 1688184
3016.15 2059883 2576464 3147249 3905955 4794290 5934409
3021.94 7249211 8883647 10780401 13056541 15637131 18633026
3027.72 21915257 25566683 29408193 33433206 37376538 41191565
3033.51 44648769 47633433 49885912 51361580 51857081 51907437
3039.29 51672190 50832915 50243829 50806781 52361826 55366203
3045.08 59010921 61588162 61194520 57868231 53907932 51640671
3050.87 51386107 52803296 55048862 57417068 59132662 59764491
3056.65 58966505 56839363 53401594 48998527 44007954 39072900
3062.44 34388592 30374162 27348908 25294626 24017889 23618042
3068.22 23932349 24842627 26069653 27350260 28273816 28525494
3074.01 27766153 26017968 23706725 22022505 22612606 27014635
3079.79 33689637 37953371 38403717 37691324 37248586 37208766
3085.58 37226685 37550594 37948325 38511144 39006133 39225472
3091.36 38973975 38633680 38012810 37299374 36828637 36704713
3097.15 37032699 38323965 39622694 37886347 36976372 35879099
3102.93 33461546 32387344 32514437 33638418 34963918 36262504
3108.72 36861089 36728163 35556331 33595717 30794191 27578147
3114.51 23998672 20451809 16939301 13802130 10968928 8647711
3120.29 6646349 5137243 3884033 2992655 2272749 1810312
3126.08 1370755 1096411 827360 690977 514535 455728
3131.86 337008 299906 202661 191755 114957 119321
3137.65 56459 74474 30881 60762 2149 20843
3143.43-22234 11013-28034 3429-46580-22129
3149.22-57813-20047-57505-14583-51179-17683
3155.00-60597-29400-56083-15605-54494-22545
3160.79-50785-20703-71323-28024-46805-16708
3166.57-58435-19564-64228-32925-55267-9246
3172.36-38946-6180-56972-39231-74783-23215
3178.15-56959-18079-47488-2545-42274-24877
3183.93-72452-37144-61461-21608-54782-23700
3189.72-49318-8710-53042-35398-64462-28931
3195.50-68777-30075-55837-20261-59240-27561
3201.29-55276-29315-73826-38268-72838-43828
3207.07-76771-32842-52336-25004-70011-41764
3212.86-80502-45490-69307-35572-62254-23619
3218.64-66694-35305-66568-28175-54346-23555
3224.43-61053-19248-57663-22471-46423-5057
3230.21-42549-23306-59727-25174-51749-8201
3236.00-43926-12362-36357-515-33753-11218
3241.79-40642 8384-31845-12086-48358-8279
3247.57-38744 1191-16321 11802-35776-7387
3253.36-34376-6983-40880-2764-29156 6802
3259.14-22667 5657-36280-3192-42077-14152
3264.93-43049-20150-59434-23004-60345-28665
3270.71-63136-27877-47055-20709-63119-35351
3276.50-75153-44711-66561-32615-65127-31494
3282.28-68136-39352-73637-41593-82067-48829
3288.07-70012-35675-79740-46573-65334-33117
3293.85-72515-44278-79961-46485-77674-32600
3299.64-73736-55639-80307-51543-93243-68252
3305.43-100862-44259-56171-33585-80749-43092
3311.21-70394-32495-66527-37401-67956-34546
3317.00-82022-56710-87680-50550-75275-30555
3322.78-71229-38212-77468-48741-75552-39638
3328.57-77677-57624-96405-53819-73051-30502
3334.35-81892-51561-83850-55853-87947-52779
3340.14-76581-49056-81531-38200-76441-57424
3345.92-88775-45899-76989-37296-71219-39014
3351.71-72923-38871-61768-29690-73050-50385
3357.49-73822-44139-74709-33212-68071-28354
3363.28-63474-34088-67246-42745-79145-38707
3369.07-68732-52069-92646-39437-58752-33515
3374.85-64945-24490-59423-27032-63331-30912
3380.64-61890-22081-47495-16538-53440-17690
3386.42-43790-3467-41755-18872-45106 5211
3392.21-35465-9562-32989 5202-32867 4516
3397.99-15991 17357-19029 16025-6400 29068
3403.78-8972 39304 13633 38821 14639 52576
3409.56 10501 35561-15559 3311-27673 7053
3415.35-23226 13023-15687 11600-33074-12289
3421.13-50409-4467-31448-610-29772 26749
3426.92-6867 23648-11832 15598-8041 25060
3432.71-11951 31507 6708 55789 33405 58230
3438.49 13191 30565 1393 48017-654 34206
3444.28 6899 42539 7081 46903 4605 30446
3450.06 3996 62592 158593 510889 584692 296080
3455.85 49683 27668-20615-1812-39089 4106
3461.63-7408 29602-8143 24953-4397 15219
3467.42-21508 23956 6392 34165-23926 2395
3473.20-21723 676-44256-11556-48647-18678
3478.99-46772-14513-55814-28204-48959-5775
3484.77-52516-32564-59619-31393-70798-37297
3490.56-82407-54218-65470-15986-62699-32768
3496.35-55988-27903-71113-40784-71712-32226
3502.13-65482-40168-82070-45093-80357-45437
3507.92-66049-29392-77814-49263-72414-36630
3513.70-70399-23081-49953-31219-71251-24508
3519.49-50637-30347-57224-9256-53693-31028
3525.27-70531-32863-61107-40108-75238-33331
3531.06-71442-37138-73347-46412-74810-39005
3536.84-77796-38556-62376-31779-68270-44493
3542.63-80696-40946-72370-30115-72874-49486
3548.41-70955-35833-81156-51526-79267-44799
3554.20-76013-38207-73210-55013-90110-45284
3559.99-73509-37248-70087-42511-83128-38882
3565.77-56960-24881-60967-27623-70830-37865
3571.56-65959-39384-85471-48870-72516-40951
3577.34-83787-52459-77156-46555-75117-44072
3583.13-95560-53496-70008-37547-72593-30878
3588.91-67245-38722-81348-41647-68432-29349
3594.70-48509 699-25497 10739-20180 18081
3600.48-21709 13207-5336 40816 15892 69943
3606.27 39819 83523 62138 73698 24210 67817
3612.05 39549 63174 27028 62367 38706 96293
3617.84 92580 183825 207215 285034 222487 157489
3623.63 46213 56140 24258 85976 87338 146798
3629.41 108761 138472 114809 164566 141900 186467
3635.20 158061 202145 183157 238158 222315 273493
3640.98 268924 338049 354196 453886 477051 585141
3646.77 612240 687669 663799 650024 521742 455684
3652.55 384738 470740 591371 787035 772060 720915
3658.34 577490 504724 387808 351826 247307 235172
3664.12 169696 173706 114221 146777 105535 142673
3669.91 123367 134719 89856 124355 101215 148439
3675.69 87969 89460 66685 117000 86663 126364
3681.48 103723 146326 121270 163559 139114 200901
3687.27 217467 256929 227273 307519 304558 359943
3693.05 350421 410430 422777 502582 462027 481040
3698.84 461505 526509 505112 508942 435019 449760
3704.62 408809 468295 468541 532778 537684 601573
3710.41 554762 522292 375677 321554 236427 230339
3716.19 153483 156058 98110 109892 59023 98763
3721.98 69635 101938 52604 72843 38755 69405
3727.76 27335 47486 14854 66882 30387 40337
3733.55 7176 48447 13245 29973-13326 20611
3739.33-10021 52052 31970 122986 261180 350449
3745.12 74056-13800-41203 35006-3727 13625
3750.91 20918 48345-23528 9314-20379 21909
3756.69-8516 22362-18693 7211-33895 7171
3762.48-31154 2528-34200 1353-51834-20912
3768.26-40543-4472-55732-19300-47424-14670
3774.05-55228-16969-55350-16569-37960 8288
3779.83-34689-14410-55555-14784-47884-16265
3785.62-58375-20466-50826-6577-50031-21197
3791.40-59608-28564-63920-20284-45544-12841
3797.19-56135-29220-52317 32574-14526-19540
3802.97-58920-20852-38191 13444-48327-39432
3808.76-73622-39589-71079-29954-66485-29484
3814.55-27669 19027-65084-52488-81911-16302
3820.33-31578-13610-70403-43195-76875-31297
3826.12-69282-41466-78792-41925-63299-26065
3831.90-79388-36757-56566-22157-49499 18462
3837.69-34655-31312-74410-43008-84026-27635
3843.47-66468-35497-66290-34656-89650-52440
3849.26-81477-12639-14909 18960 8046 11074
3855.04-71394-28261-67437-41861-71730-33927
3860.83-81120-50287-79691-27315-63766-24992
3866.61-62371-23961-31249-1462-67170-35332
3872.40-66991-27803-81194-60605-88664-47737
3878.19-83974-34012-66468-29420-67574-39545
3883.97-75622-20922-65000-33615-42702 44768
3889.76-10517-26827-89775-52255-84969-40671
3895.54-71308-35207-75783-23261-60635-15727
3901.33-58544-27454-61157-36399-74757-40729
3907.11-80016-44069-80969-38363-62368-16580
3912.90-50256-4831-59388-32283-65568-15893
3918.68-42681-9475-56892-24139-50176 11258
3924.47-16749 37163 5755 36791 2644 45359
3930.25 17946 66796 30898 79941 51914 95464
3936.04 68232 110047 77287 114746 81570 136856
3941.83 120879 181978 159401 199527 171218 215532
3947.61 166789 206037 196701 258944 226006 250563
3953.40 184695 204839 151654 173638 128530 160945
3959.18 127390 169770 128843 186152 151397 180683
3964.97 128415 169835 145525 177936 130470 174893
3970.75 149016 197441 160736 177906
##END=
