##TITLE=Benzene
##JCAMP-DX=4.24
##DATA TYPE=INFRARED SPECTRUM
##CLASS=IUPAC A
##ORIGIN=NIST, Analytical Chemistry Division, 301-975-3108
##OWNER=COPYRIGHT (C) 2000 by the U.S. Secretary of Commerce
##DATE=00/02/01
##$SPECTRA VERSION=1.10
##$UNCERTAINTY IN Y=2.1 % relative (B=1.1E-04,C=5.2E-10,D=5.2E-15)
##CAS NAME=Benzene
##CAS REGISTRY NO=71-43-2
##MOLFORM=C6 H6
##MP=5.5 C
##BP=80.1 C
##$NIST SOURCE=QUANT-IR
##SPECTROMETER/DATA SYSTEM=IFS66V (Bruker)
##INSTRUMENT PARAMETERS=KBr Beam Splitter; MCT Detector; Multipass cell
##STATE=gas
##SAMPLE DESCRIPTION=Benzene Primary Gas Standard
##PRESSURE=101.3 Pa
##TEMPERATURE=23 C
##SAMPLING PROCEDURE=1 L/min Flow
##RESOLUTION=0.9640
##DATA PROCESSING=Boxcar Apodization
##XUNITS=cm-1
##YUNITS=(micromol/mol)-1m-1 (base 10)
##XFACTOR=1.0
##YFACTOR=7.2759E-12
##DELTAX=0.4820
##FIRSTX=575.171
##LASTX=3974.61
##FIRSTY=4.21E-06
##MAXX=3974.13
##MINX=575.17
##MAXY=.0077522
##MINY=-.0000671
##NPOINTS=7052
##XYDATA=(X++(Y..Y))
575.17 579947-605490 581662-741539 572849-655700
577.58 644931-722619 521157-667761 536346-640034
580.47 679016-621050 583605-554854 652754-721879
583.37 651753-656803 556758-638551 658865-537321
586.26 688436-684051 608537-666547 716457-681295
589.15 694076-623462 643412-734995 601287-717272
592.05 706507-642107 718865-736845 815932-800375
594.94 745418-812081 839369-712461 757863-814107
597.83 804768-729406 743386-831168 726606-785657
600.72 851788-849310 802084-785090 853784-880228
603.62 842431-779218 881843-802458 929683-765917
606.51 1075770-758203 952928-855153 949083-880287
609.40 952621-918453 907945-947504 919108-956493
612.29 951020-987962 989458-964692 925534-1000436
615.19 1010173-1020958 1040010-1010599 1036425-1031163
618.08 1080797-1075976 1099626-1071986 1102929-1061049
620.97 1171200-1104924 1130864-1143632 1234041-1163178
623.87 1199869-1196710 1216059-1208581 1253927-1265755
626.76 1340775-1239483 1321545-1261254 1392279-1263142
629.65 1443782-1257149 1521725-1256547 1548158-1206969
632.54 1593507-1191250 1785779-1158277 1948083-1074976
635.44 2118210-982192 2321238-809098 2594271-564265
638.33 2979466-247077 3416001 112637 3949868 632032
641.22 4633147 1257984 5460237 2044163 6412370 2993005
644.11 7597006 4129754 8979772 5496660 10628462 7131870
647.01 12530040 8960837 14631831 11042536 17105220 13371647
649.90 19751173 15972471 22608507 18662554 25699675 21537077
652.79 28904883 24452801 32043750 27323779 35180573 30095574
655.69 38183889 32465018 40895347 34571836 43029123 35921028
658.58 44652906 36690057 45562261 36602143 45817477 35662950
661.47 45233752 33730459 43829336 30888810 41717555 27253104
664.36 39159864 22652984 36010600 17238259 32830408 11428298
667.26 30215743 5163474 28805099-1168244 31711110-6277037
670.15 50609702-5739600 118267318 46685759 271154861 320283730
673.04 363792474 1065464438 26312574 52809866-9230862 35060985
675.93-6593793 25092390-1479748 25926579 5138656 28535197
678.83 11688238 32206687 18167024 36386576 24349445 40510858
681.72 29832344 44392710 34719326 47828621 38649034 50247724
684.61 41481293 51768488 43242459 52316646 43958946 51962156
687.51 43678361 50601117 42393224 48525307 40357907 45869590
690.40 37735447 42666650 34544133 38850763 31038134 34985672
693.29 27501219 31205439 23983019 27422745 20517696 23859968
696.18 17318707 20563019 14491640 17613109 11804241 15009366
699.08 9259717 12555339 7238220 10512702 5579900 8794282
701.97 4074256 7352263 2908056 6176976 1922304 5147141
704.86 1171702 4376160 532829 3692066 35877 3190036
707.75-297456 2791524-595827 2468303-787444 2223115
710.65-935033 2004885-1041843 1842679-1131412 1710303
713.54-1173861 1605789-1191379 1524685-1199633 1469787
716.43-1208584 1411973-1200188 1345737-1200760 1288181
719.33-1229724 1285797-1184200 1260229-1162831 1193769
722.22-1176604 1174498-1117144 1168489-1117809 1112630
725.11-1087248 1123054-1074713 1072831-1053131 1060039
728.00-1049223 1060329-1008615 1025074-1012545 1004952
730.90-974003 1002047-990474 968062-952743 940332
733.79-943125 939270-924690 926497-920722 908805
736.68-908044 878297-892115 875811-888994 839498
739.57-891950 858465-872416 842547-843686 833282
742.47-853029 802844-833834 796438-823364 779317
745.36-809546 789465-783851 764633-800760 768064
748.25-773797 749304-777085 751025-740921 742797
751.15-725935 729051-726280 733907-723414 730683
754.04-692097 736232-670916 709103-676227 734080
756.93-640473 745301-640034 722718-589015 712026
759.82-588785 723869-566744 727581-564823 731126
762.72-563340 753243-521499 737271-506742 748279
765.61-505526 735286-501106 730514-509798 719631
768.50-503018 693900-487252 692917-487986 659665
771.39-496154 659232-510103 647620-487346 632085
774.29-529465 618356-478402 713021-488880 709956
777.18-340539 805375-226457 1875292 1843240 986166
780.07-326592 933983-270541 691224-388550 663612
782.97-431622 577248-472780 564719-450659 561108
785.86-447020 556492-437850 581580-406293 576650
788.75-387300 605710-397750 574919-395700 596074
791.64-363562 608123-390067 586205-349895 562030
794.54-367232 591252-351989 574134-382595 562427
797.43-352687 543804-376593 544207-381070 497292
800.32-393685 506945-401538 512647-408585 472997
803.21-410534 473819-438695 449415-417793 444331
806.11-436413 435183-450446 422399-434623 414724
809.00-411176 427057-422051 421139-421538 395843
811.89-438238 381102-432120 382753-455434 399639
814.79-433194 376622-416399 382290-426982 373743
817.68-414868 388809-416320 357790-411774 400116
820.57-422402 355455-392339 358296-395865 366336
823.46-402643 338385-406378 355262-403572 348439
826.36-383676 341804-403231 366491-381938 336134
829.25-393140 355530-373817 358925-384747 342188
832.14-392519 326406-365600 332899-369966 311830
835.03-373463 332833-401495 347057-372143 331382
837.93-360851 313173-386149 335958-353129 318783
840.82-343379 312664-338943 329565-359116 321251
843.71-358725 304019-368148 303192-338577 297701
846.61-348405 315550-345369 304044-356989 289079
849.50-356119 301560-344199 314643-345252 300798
852.39-326317 293870-319436 301440-347314 299704
855.28-350198 297720-331340 290708-340557 299063
858.18-337370 271194-341725 283265-327765 267080
861.07-324143 283024-330127 280127-331541 271129
863.96-324782 269974-304877 270608-308025 297243
866.85-319673 267827-330794 276576-313414 269114
869.75-317138 270102-337215 270064-300862 266715
872.64-311122 278210-316402 278700-313732 270575
875.53-300881 245065-311238 263080-285785 246026
878.43-298803 266247-301478 248965-297227 249799
881.32-288048 249579-301234 248469-297593 258279
884.21-299118 255168-303947 263128-306972 244777
887.10-281146 247324-308012 248927-288210 245851
890.00-310099 243943-287395 240747-282212 220499
892.89-300167 229617-277960 233099-262130 228910
895.78-283212 233101-281819 220777-286172 229731
898.67-271573 236839-272939 227214-278171 239725
901.57-266835 228544-285062 229777-260081 214665
904.46-275906 236937-288337 213038-270497 210705
907.35-264284 232551-273196 220517-259191 218395
910.25-264553 228031-256322 233548-262076 210601
913.14-259115 221766-269775 226774-267773 225755
916.03-259576 210025-270100 218495-254583 222258
918.92-246090 209752-257157 209222-256394 218618
921.82-253283 197807-254132 201219-240939 208306
924.71-246086 201302-244897 192664-245434 194294
927.60-275259 200928-260766 212779-234154 190374
930.49-243593 215961-237094 192196-242235 210800
933.39-229987 178611-240446 202461-224767 191318
936.28-242411 196997-243278 203356-226759 177937
939.17-243188 192775-232504 183609-238015 196137
942.07-241871 191864-246595 185558-225985 191892
944.96-215677 191735-234533 193979-239187 191653
947.85-224956 184724-238902 188777-225824 182512
950.74-223817 188626-223265 180513-222325 200611
953.64-212304 186131-217323 164304-205685 196004
956.53-223484 178134-227545 169849-200722 190363
959.42-222471 190196-220949 185369-200814 191030
962.31-224112 183107-208706 183433-208620 188261
965.21-203132 188635-202419 188312-220081 179186
968.10-200836 180682-205696 185074-196564 194070
970.99-199728 171449-212068 185751-199641 183455
973.89-196275 182582-209632 181323-178065 176060
976.78-194229 189050-193196 194293-196191 196316
979.67-195726 190424-187045 185113-174177 198881
982.56-170361 201427-177208 198483-151136 214497
985.46-160006 220967-144453 229286-136263 211156
988.35-124283 231794-131447 239991-133333 232760
991.24-109844 247590-107006 260144-103139 270823
994.13-96506 268517-74281 281105-83385 267888
997.03-66569 286151-50310 311013-37562 345744
999.92 7004 372271 32536 423663 67821 432359
1002.81 115572 458439 114334 445350 84084 464540
1005.71 160338 557897 288174 741862 468911 906151
1008.60 621939 1060062 782858 1217269 955696 1370094
1011.49 1143353 1603564 1365304 1835141 1633279 2118098
1014.38 1907625 2423910 2234027 2765881 2580818 3103996
1017.28 2922971 3451927 3258685 3780197 3594095 4080000
1020.17 3870711 4343175 4113125 4556295 4288112 4703811
1023.06 4396375 4756392 4418465 4743203 4360766 4638094
1025.95 4209656 4440124 3992591 4233445 3745902 3965215
1028.85 3488612 3710933 3305855 3614307 3304614 3613065
1031.74 3287341 3844081 3869390 4688874 5230047 6015619
1034.63 5843397 7163117 7574462 9366365 10061520 14708398
1037.53 12898412 6499070 7037869 6247974 4897470 3875327
1040.42 2936861 2610525 2125380 2231069 2048013 2393697
1043.31 2320518 2769837 2738605 3184330 3134549 3573209
1046.20 3496619 3914228 3787460 4166558 4014131 4363144
1049.10 4130133 4426117 4164384 4433703 4099936 4321879
1051.99 3974119 4157783 3770002 3915824 3522989 3643104
1054.88 3196004 3296950 2874974 2973216 2519788 2633178
1057.77 2216888 2306103 1876131 1977906 1560216 1694001
1060.67 1288371 1438570 1027546 1195733 820775 984909
1063.56 640325 815855 468623 659611 351784 556407
1066.45 230531 450132 140373 368971 66572 306213
1069.35 17294 255366-31107 203467-65477 206685
1072.24-72992 174945-110602 155612-114460 159388
1075.13-119661 133607-142627 130697-139293 119709
1078.02-139526 120616-134143 127519-144632 120742
1080.92-147620 117210-149233 127929-140481 111931
1083.81-160707 124276-147823 115458-140702 121043
1086.70-139995 111382-154595 114964-158280 116109
1089.59-151889 116805-163207 118110-150294 114186
1092.49-147773 95450-149144 104980-151470 125325
1095.38-131241 111467-150069 93993-150588 100040
1098.27-142272 112266-147245 117957-130084 106066
1101.17-138037 105633-146238 96876-160715 108020
1104.06-150478 106038-150970 119829-142881 99525
1106.95-140550 113017-149215 108480-144146 97886
1109.84-150026 111130-147320 107683-135422 96026
1112.74-140859 107127-132372 105242-149588 110515
1115.63-153720 92086-143750 89668-142103 81567
1118.52-147162 107456-141806 109808-139997 93079
1121.41-133286 93846-131636 91204-139804 85497
1124.31-155890 81389-138816 87371-141497 103242
1127.20-136033 83895-145482 99417-151046 95341
1130.09-144686 104092-155394 89652-145043 100934
1132.99-155523 100483-140266 94627-130993 89590
1135.88-146053 102720-137413 92491-139879 85857
1138.77-144692 83253-144530 90360-154699 102764
1141.66-141041 81232-150628 89686-148189 95458
1144.56-138775 92550-130413 89615-142244 99039
1147.45-132650 92221-132902 96279-141215 79724
1150.34-127563 90474-142240 85595-133983 89560
1153.23-147628 95939-137092 83861-127923 93296
1156.13-135727 92221-133829 96505-136668 72309
1159.02-131196 109521-132942 91118-141438 88074
1161.91-140726 96997-124333 81167-134811 85408
1164.81-132284 94179-129022 99564-130850 97082
1167.70-126887 101478-115656 104489-134577 88803
1170.59-131041 94389-127557 88723-120829 96313
1173.48-124434 93871-113723 96682-116499 93454
1176.38-119768 95423-126901 99936-118544 103649
1179.27-118632 99776-124438 107795-123436 101670
1182.16-110441 102416-112919 105068-106043 95377
1185.05-108854 97376-105635 102433-113026 105941
1187.95-107683 110607-106913 113690-91778 117317
1190.84-65244 156453-40000 163043-83456 101080
1193.73-101571 121219-104247 106125-113622 97786
1196.63-122174 93747-104814 106976-104033 97498
1199.52-106623 103912-99873 98614-98611 103424
1202.41-101622 102256-102028 110331-102511 104800
1205.30-99133 112864-86511 113139-97722 103332
1208.20-93637 99345-107572 98819-85304 174695
1211.09 36970 181049-52105 133138-80353 111876
1213.98-82065 107074-86075 99451-92793 110957
1216.87-88687 113955-84441 105869-82724 110903
1219.77-65085 123513-74009 129191-49595 132518
1222.66-60354 133420-60386 144146-39717 154652
1225.55-24894 172313-12448 185755-2106 201211
1228.45 12921 207486 36129 214246 33353 238350
1231.34 50132 253654 56759 244948 52167 252988
1234.23 62358 263499 67767 234988 65857 236682
1237.12 49096 238627 41390 237313 45731 238150
1240.02 42758 249631 53163 249184 53585 236233
1242.91 43305 238409 31424 228115 34282 209438
1245.80 31517 223328 43938 236212 43890 216778
1248.69 44529 229633 52656 245890 63811 244358
1251.59 52412 245454 56301 227519 34354 223927
1254.48 29831 200911 14347 191706-5678 179379
1257.37-13776 161601-34885 142522-50873 121034
1260.27-59054 112044-73604 102674-75715 91886
1263.16-87404 89437-97435 83510-108745 69521
1266.05-100800 66989-106218 59575-103933 75736
1268.94-113513 73320-107610 64998-115934 67390
1271.84-110803 62358-107628 60947-109507 70938
1274.73-109696 59449-99790 59675-114392 57832
1277.62-114530 60699-116673 62042-111611 63515
1280.51-109383 61050-107128 70080-122991 55189
1283.41-105171 63861-97547 51832-112338 53951
1286.30-124857 67195-115635 62686-110776 54720
1289.19-101332 60093-115885 59840-105047 67715
1292.09-103181 63279-114214 52871-121172 57416
1294.98-112900 54846-107111 56372-111736 57794
1297.87-110466 62524-108640 61333-106400 50036
1300.76-101100 65267-117559 55837-106994 52008
1303.66-108521 62568-105941 50446-101728 52539
1306.55-99912 52532-112696 56669-115661 50765
1309.44-115327 52065-113789 59036-107992 60358
1312.33-115367 53741-114773 53044-109080 59806
1315.23-106897 52172-101464 62581-107129 47965
1318.12-102142 60336-107419 50060-115407 45928
1321.01-118490 46376-106157 45771-111577 55973
1323.91-101698 48493-100161 39677-108803 58689
1326.80-119033 48485-116127 55646-107484 51949
1329.69-116678 49614-112252 47625-112209 50626
1332.58-115286 51723-102816 51744-105827 51488
1335.48-115475 59070-106111 47438-111149 51833
1338.37-107671 49746-100994 48040-112765 46403
1341.26-101850 40787-110945 44769-112141 38154
1344.15-109415 40291-111191 43988-100294 39161
1347.05-100403 44211-104553 60729-100690 59083
1349.94-102179 44097-108476 29200-109102 23066
1352.83-131336 32722-118174 29873-106509 49410
1355.73-88843 52757-98622 54084-108168 83655
1358.62-94524 53330-89296 65083-85560 87204
1361.51-78359 79487-51400 98718-65182 106122
1364.40-44527 107400-17768 128612 5820 167415
1367.30 28037 199804 63731 228552 88336 259677
1370.19 124106 303442 187066 340632 216982 383669
1373.08 264265 439277 316037 494241 352010 520385
1375.97 395179 538519 430862 585045 447759 597339
1378.87 464515 603861 457852 610039 457366 581767
1381.76 439469 569774 428471 573875 417192 561075
1384.65 399166 544866 408495 555592 445482 578127
1387.55 421195 578285 472449 583945 413842 536709
1390.44 382734 525985 367583 527674 389078 550051
1393.33 401684 565403 446979 579231 454907 590747
1396.22 446963 591734 441715 574406 419446 555431
1399.12 380440 503397 340460 440123 281599 391458
1402.01 225972 341399 174324 293637 122023 252222
1404.90 76556 202456 48623 164637 12066 137586
1407.79-24119 118423-26995 100527-42756 85304
1410.69-57715 76806-80922 62721-81786 54556
1413.58-74225 53056-79538 43578-87456 54899
1416.47-83437 65105-91769 43126-90523 105083
1419.37-64250 41160-85578 42492-79124 43901
1422.26-86171 43796-81746 43950-80785 48679
1425.15-83462 39262-89861 46107-82642 48135
1428.04-80537 51495-87623 55048-80053 49919
1430.94-80694 44750-84003 50612-83625 43193
1433.83-82504 54566-83585 58065-68327 109631
1436.72-57268 51963-77058 60653-71194 61672
1439.61-68740 55360-68852 53073-64188 57910
1442.51-62000 67517-56422 66387-58529 90512
1445.40-50516 73964-37080 102785 2133 114138
1448.29-9665 135533 21568 168369 56467 216723
1451.19 109332 253071 154874 320220 223590 402572
1454.08 326556 524365 469268 663225 680575 932435
1456.97 831203 1089840 1105476 1363933 1407365 1700856
1459.86 1770317 2104514 2193957 2569661 2709896 3104273
1462.76 3269624 3699846 3884005 4376122 4583069 5016573
1465.65 5248760 5719597 5942355 6384912 6627086 7032883
1468.54 7215926 7609397 7725208 8042941 8117736 8366928
1471.43 8391658 8553217 8434270 8584561 8421329 8446555
1474.33 8226646 8197712 7917294 7811899 7678287 7787038
1477.22 7671684 7735386 7532424 7896093 8245482 8734317
1480.11 9401803 10314552 10916325 12360039 13181574 13964396
1483.01 13786676 9822548 9743914 10083805 9234904 8732409
1485.90 7884241 7507752 6941257 6830345 6534153 6655221
1488.79 6602851 6910268 6932676 7338758 7443176 7797480
1491.68 7927593 8243848 8266989 8547815 8484513 8622861
1494.58 8487978 8504788 8306195 8275631 7866271 7772295
1497.47 7352434 7188367 6750419 6532503 6065804 5865413
1500.36 5415727 5218424 4784337 4639731 4245698 4135828
1503.25 3796839 3716424 3432734 3424283 3214786 3134751
1506.15 2939548 3011870 2731288 2794669 2619409 2672046
1509.04 2500236 2570227 2370888 2424537 2260235 2328345
1511.93 2175460 2198476 2029962 2086860 1914342 2004771
1514.83 1844739 1942083 1802690 1947158 1866263 1935595
1517.72 1844178 1960147 1892315 1791512 1658915 1824750
1520.61 1691303 1789976 1542985 1718181 1545439 1682700
1523.50 1575515 1724993 1640033 1816630 1713139 1844659
1526.40 1747584 1887263 1754967 1878967 1732367 1820523
1529.29 1663350 1725023 1529829 1595060 1390888 1420949
1532.18 1221443 1269973 1065328 1098428 854072 910877
1535.07 696569 749250 541026 611484 414950 501948
1537.97 311061 479511 261429 323532 232081 245355
1540.86 107151 227820 110881 148767 41689 136425
1543.75 8035 118709 19710 91829-21324 75428
1546.65-36466 66781-44739 66236-56683 55907
1549.54-43663 55280-58605 59169-62560 48372
1552.43-64486 46823-55203 107346-65248 49601
1555.32-77391 52832-86437 80212-41266 98458
1558.22 15307 43140-27777 120979-24826 26837
1561.11-49330 35019-53120 36939-55516 45230
1564.00-52803 61051-56453 44398-60223 45822
1566.90-58743 42285-55088 54649-49025 92339
1569.79-43467 42162-41136 41322-46621 52931
1572.68-46139 44998-53677 49581-41271 46501
1575.57 48886 93693-50509 69585-50461 63746
1578.47-49775 54661-49623 49764-50014 55990
1581.36-49951 57219-55659 47690-51827 48324
1584.25-49400 51082-47748 63974-54279 53247
1587.14-49751 69115-37615 59764-39651 53449
1590.04-44255 67833-39761 66738-42985 56754
1592.93-43042 70606-27440 67401-25049 73816
1595.82-34337 78395-22719 82312-24639 82954
1598.72-11597 89755-8935 85650-3321 101626
1601.61 2164 106743 11815 123116 17766 125400
1604.50 19674 126875 30179 137923 27673 146186
1607.39 40909 142139 38031 147407 48083 136809
1610.29 45519 136313 26503 133526 39274 131650
1613.18 22097 122414 18011 111155 12345 101441
1616.07 87146 158688-4955 132145 20138 155584
1618.96 50468 162372 137594 279361 192073 316285
1621.86 324959 376396 226209 257743 79313 150042
1624.75 28327 107437-3012 102897 7992 128359
1627.64 28772 123593 32245 142995 40302 154600
1630.54 51016 161130 68061 176989 63135 169059
1633.43 72364 179315 90403 223184 130221 165252
1636.32 72890 166860 64923 158730 56260 135582
1639.21 40328 125500 29891 120878 19066 112398
1642.11 16251 97200 9305 91464 6809 87961
1645.00 6170 149124 2769 95425 2744 87874
1647.89 2897 76746-13771 85022 494 80215
1650.78 5320 83778 86663 155299 109809 147375
1653.68 21463 172379 21345 146132 38171 149340
1656.57 44280 185098 73028 167198 65180 172789
1659.46 63384 168558 70874 178661 66254 189140
1662.36 101243 192022 73606 204750 106554 225351
1665.25 154418 649416 277002 124362 98749 160502
1668.14 95054 193185 118214 166466 96090 169616
1671.03 100213 168103 96655 168510 76694 173189
1673.93 89323 203412 152206 200182 107091 195386
1676.82 114450 200772 110999 204359 115936 196958
1679.71 108366 188685 98296 181018 74704 162165
1682.60 80883 172762 64368 201343 146930 112063
1685.50 46765 99381 32634 83427 8062 76408
1688.39-5352 70746-13138 72060-18048 54914
1691.28-22483 55705-26064 46158-26018 49209
1694.18-18732 44641 46733 135451-45562 61213
1697.07-25175 50705-29882 38742-13065 122880
1699.96 17922 98543-36014 54979-42068 45148
1702.85-50551 48959-30823 54222-41560 54102
1705.75-15484 69021-34885 53777-54640 50027
1708.64-47306 37425-54805 35349-57698 29823
1711.53-59413 28947-46448 61130-12056 106777
1714.42 68088 361670 69278 55297-22444 185124
1717.32 9952 31470-9344 42330-43609 23730
1720.21-40957 37212-39445 27593-40745 34076
1723.10-41729 33824-36951 45139-31550 47750
1726.00-30764 57557-17429 55103-14380 65503
1728.89-7583 88907 12630 78897 7797 97363
1731.78 21643 99007 93590 136432 59279 209370
1734.67 53428 149955 70470 162194 83399 173982
1737.57 93664 177244 93574 211692 144783 190003
1740.46 128628 206622 122954 192186 127724 207897
1743.35 115381 197345 118942 188083 109343 178661
1746.24 95146 166834 82513 161588 89879 150086
1749.14 69649 137502 71758 186282 142249 213316
1752.03 207617 326662 341487 477494 486943 520562
1754.92 282566 370965 247896 300098 155921 208587
1757.82 81797 140529 52390 131185 48803 140599
1760.71 66769 188900 109335 169204 113010 195615
1763.60 124133 227483 144359 234820 154340 241659
1766.49 184689 251102 199646 276657 178444 266208
1769.39 187459 263985 189008 287208 197595 277735
1772.28 249158 268941 189854 277463 197021 278633
1775.17 215183 290980 212731 307613 230265 311180
1778.06 246290 329840 269893 356846 297103 379312
1780.96 327306 420527 356207 447701 388704 482045
1783.85 429814 553253 482807 594349 552954 675521
1786.74 631497 760457 739399 879580 865831 1009735
1789.64 1011443 1190120 1217046 1386147 1435598 1667549
1792.53 1708352 1886953 1965748 2171424 2252175 2484352
1795.42 2576052 2821009 2909287 3171616 3261999 3498855
1798.31 3600938 3836193 3916697 4117182 4150911 4335324
1801.21 4338952 4472084 4450601 4548321 4481067 4548952
1804.10 4471970 4506996 4382762 4387847 4299991 4330082
1806.99 4203851 4244035 4118168 4210570 4183940 4249361
1809.88 4205055 4288373 4303901 4306080 4250119 4199820
1812.78 3994788 3988727 3812795 3892034 3792363 3944874
1815.67 3912525 4101441 4116883 4298897 4334892 4485855
1818.56 4490155 4601966 4546447 4598915 4475035 4462837
1821.46 4283504 4220135 3977156 3873392 3593070 3448467
1824.35 3159097 2999845 2687471 2532427 2232707 2092781
1827.24 1812597 1687991 1436571 1357454 1131760 1080824
1830.13 863233 817358 650476 631592 486848 480183
1833.03 360432 375199 267024 294638 182642 223356
1835.92 124503 177628 88366 148967 53103 118381
1838.81 41470 88873 29293 80679 10548 69954
1841.70 4269 58180-4577 58105 32100 74947
1844.60-15698 55439-20307 39394-27252 49532
1847.49-23219 43863-17885 55290-15749 44005
1850.38-25708 50504-27600 50368-17119 55431
1853.28-11053 51662-11441 58034-15066 54854
1856.17-15883 56317-8620 58714-3416 63040
1859.06-3426 67778 8400 73519 12798 74145
1861.95 14375 89026 20973 90463 22508 95826
1864.85 29286 97371 30900 90434 29749 101296
1867.74 46510 91918 56412 109789 32599 103515
1870.63 28901 102873 29598 91609 35067 94741
1873.52 34131 99650 30632 101176 39594 108493
1876.42 51365 108379 43871 106048 42012 106385
1879.31 37162 105539 29532 90258 38501 95747
1882.20 30794 87954 26810 99413 31758 114405
1885.10 57664 139704 73017 137956 74076 130951
1887.99 60424 119934 51816 111887 24402 82323
1890.88 19972 75760 3668 66514-2922 62167
1893.77-2082 50623-8158 52711-11437 50216
1896.67-16083 51892-16055 45690-12232 48567
1899.56-13030 45452-23152 41437-24538 34784
1902.45-29810 35117-32026 40744-34617 31378
1905.34-25493 35355-37570 25806-36612 33757
1908.24-36025 31747-32366 35088-27170 34333
1911.13-23185 47440-17183 55380-10158 57102
1914.02-7772 58647-10785 46753-11307 51652
1916.92-14042 59543-4704 46724-1887 50741
1919.81 3055 65969 21296 84380 25927 86254
1922.70 44004 110379 55845 126231 74084 146112
1925.59 95836 163688 112051 201124 143053 220590
1928.49 180168 259121 214933 291958 256055 339148
1931.38 310411 400714 373997 467060 448156 547694
1934.27 537870 637986 633579 741702 746423 882099
1937.16 883619 1027444 1047681 1196137 1223648 1387155
1940.06 1430331 1589022 1639108 1823642 1880559 2046872
1942.95 2091856 2263360 2306661 2461049 2506400 2657923
1945.84 2677634 2823741 2823244 2936030 2922347 3020826
1948.74 2984590 3123159 3060781 3093699 3008005 3041387
1951.63 2973637 3010483 2927040 2939678 2865351 2920359
1954.52 2878557 2908176 2847763 2874293 2791103 2874362
1957.41 2752825 2805688 2675332 2644292 2524279 2541775
1960.31 2487507 2550503 2542383 2656695 2674100 2795671
1963.20 2828670 2947341 2962476 3068533 3028498 3096165
1966.09 3004058 3025328 2911723 2883992 2730768 2662375
1968.98 2490345 2404190 2186962 2100921 1889593 1792287
1971.88 1582316 1486038 1288757 1211357 1026022 969497
1974.77 810060 769576 631277 596737 479472 482212
1977.66 362194 364306 266465 284510 184720 224630
1980.56 155722 179669 117043 161007 90359 155583
1983.45 86853 147455 76107 134267 83785 152739
1986.34 92130 154072 115269 201229 180300 277457
1989.23 246997 146704 32066 87066 31067 81317
1992.13 28732 74141 25310 88354 38382 101397
1995.02 37491 101576 41727 100693 54855 113598
1997.91 40647 121805 77346 165098 68666 155248
2000.80 82608 129981 140223 227376 241519 287266
2003.70 46458 263364 299339 799134 627901 58550
2006.59 82190 102446 98611 252046 256202 175328
2009.48 97096 105106 58579 91423 38433 82278
2012.38 44766 86224 53622 90799 46361 100995
2015.27 61980 116795 72180 128077 79409 127406
2018.16 88665 124538 72709 140606 92150 121615
2021.05 82794 128838 88979 111735 69779 105938
2023.95 52524 109259 46216 94865 36377 86484
2026.84 27998 65368 21080 57722 22432 57382
2029.73 8410 50669 1437 52009 6934 41194
2032.62 892 32696-6376 29578-16244 34726
2035.52-14448 36734 4940 31967-32646 21643
2038.41-32837 9725-26040 13588-29739 16161
2041.30-32533 13878-22535 13178-25562 19192
2044.20-31635 10507-36315 19915-32371 10525
2047.09-40221 9722-29124 13269-32035 15535
2049.98-32337 13756-34280 6358-34565 15664
2052.87-38731 12419-40069 15615-34400 11515
2055.77-40338 11365-31961 8008-40948 10795
2058.66-44398 4829-35141 5874-39377 15446
2061.55-36807 3544-41128 11281-37856 9017
2064.44-45190-359-46309-2193-48667 1138
2067.34-43361-219-46503-8229-53743-4815
2070.23-53002-5486-53230-3144-61165-2135
2073.12-51586-22059-62074-17317-60090-5140
2076.02-43049 4834-31794-6854-47492 3366
2078.91-42897-100-44921-757-45968 15919
2081.80-37762-6650-41438-5211-43241-4868
2084.69-42319-1229-23594 8654-47216 9534
2087.59-35204 17869-15154 18815-36293 30109
2090.48-29895-664-36606 330-45539-41
2093.37-37509 2211-15728 3224-46982-5090
2096.26-48365-2493-47792-1587-33501 25594
2099.16-45803 3892-46427 6606-46519 250
2102.05-48065 22372-16700-10036-37447-9577
2104.94-45112-1522-40052-7375-3428-1328
2107.84-55686-4394-35884-2763-41962-9873
2110.73-25481 41782-50689 1724-47128 2204
2113.62-54519-764-52581 40912-36694-13012
2116.51-54043 2567-50472-6768-51050 21142
2119.41-8917-10174-40411-4473-38787-10654
2122.30-43652 2492-3525-15637-38964-13051
2125.19-43229-2831-40554 699-2544 1129
2128.08-41120-713-36543-12737-35060-7352
2130.98-28059 12412-42904 4626-38661-7396
2133.87-38614-1626-8300 17730-50410 15857
2136.76-28229 40130 15026-5383-34092-1222
2139.66-44118 2331-38124 5310-38596 3858
2142.55-31901 20455-7100 27745-42498-304
2145.44-43882-1525-38048-1183-47579 2092
2148.33-35846-5564-41628 186-23062 7762
2151.23-42990 4338-44380 5882-38420 6609
2154.12-14944-2542-37970-1380-50389-2315
2157.01-50577 17457-9760-6335-34327-3473
2159.90-30966 4589-41130 36882-14161-13796
2162.80-33141-15564-42287-11348-26094 45039
2165.69-38296-2157-43687-3241-36919-13700
2168.58 8575 28698-50208 334-43973-1285
2171.48-47303 17078 5098-12970-39132-6406
2174.37-44093-11376-28968 52521-31113-5807
2177.26-34190-1244-39013-13045 9177 11772
2180.15-46356-3451-41147 7878-38992 35345
2183.05-13162-1391-30557-1468-27070-1583
2185.94-3615 23797-36644 10084-29689 13149
2188.83-27596 35839-6113 14680-10040 10703
2191.72-9156 30819 10669 43573-4569 35872
2194.62-7593 39802 23231 71159 35086 67741
2197.51 40265 81409 64654 108623 107058 126917
2200.40 107183 154914 117192 175720 153736 216652
2203.30 187706 234178 223370 275337 264370 325851
2206.19 301887 360021 334911 391573 362674 402231
2209.08 385554 407913 368352 392238 348016 352365
2211.97 296876 321344 261545 264403 231879 272173
2214.87 264379 325446 313719 394114 397334 450253
2217.76 421379 447381 403618 392158 336883 342092
2220.65 274603 282382 225611 235312 185963 196166
2223.54 146705 164826 114298 129889 93651 116389
2226.44 67291 106044 61805 87975 40255 60391
2229.33 37745 52109 27895 41983 8090 29570
2232.22 7873 34121 2298 32862-8583 21655
2235.12-14232 15794-14379 12829-16340 15904
2238.01-18685 12341-32634 6970-34411 9255
2240.90-31461-5652-32781-5118-35620-7102
2243.79-30641-3816-38439 1228-34999-7311
2246.69-31038 2315-37943-935-25613-7544
2249.58-31309-3225-37622 1633-35974 1595
2252.47-36123-2305-24146 6210-30708-7839
2255.36-36689-3720-32638-1197-29198 3894
2258.26-29217-6970-18768 982-28013 6373
2261.15-31213 827-26500 3787-17127 15686
2264.04-13093 14846-5607 13563-3733 26256
2266.94-13070 24766 1927 24993-662 21702
2269.83 912 32091-972 31773 1036 30008
2272.72-4595 35614 1775 22877-1350 30639
2275.61-3006 27892-7186 29832-2112 19883
2278.51-13440 25146-940 17777-2503 22404
2281.40 2707 31774-9744 28657-11502 20878
2284.29-6347 22527 1449 28351 4495 33547
2287.18-5470 23816-1372 29505-7029 24652
2290.08-3721 26779-3936 16772-1811 24497
2292.97-6983 18010-14148 17107-2217 15465
2295.86-9453 12423-1113 19570-12577 19081
2298.76-1584 10159-6194 26570 5092 28562
2301.65 8863 46666 19865 52913 38352 76992
2304.54 56060 93677 77334 124516 120947 142173
2307.43 135113 183674 190313 232850 222510 280259
2310.33 279158 346154 326690 394148 395414 464915
2313.22 436457 493666 477544 557462 519778 566381
2316.11 542416 605788 558639 592220 544397 595828
2319.00 548208 551564 510654 552274 502684 498221
2321.90 461186 514345 481169 482735 444123 516043
2324.79 513122 497869 476269 548107 701786 670549
2327.68 642443 670662 607421 579896 545232 637488
2330.58 564481 571346 617185 667092 594001 613190
2333.47 635610 655094 570832 617532 634865 600790
2336.36 526858 580527 556250 495371 459251 505611
2339.25 432417 379803 375854 393362 288404 289042
2342.15 288776 259533 186301 225367 184939 152548
2345.04 119164 154216 97813 89275 81020 87424
2347.93 39525 64158 35136 61919 23861 40628
2350.82 37906 52547 8607 61798 21842 13253
2353.72 47029 66839-8729 68691 51356 15257
2356.61 61416 77775 2746 93619 53314 24711
2359.50 92059 67239 26437 138872 37087 74946
2362.40 120975 74039 113087 164963 87678 151840
2365.29 70944 94933 124925 84823 127518 104362
2368.18 74681 123715 53024 120905 79165 90348
2371.07 106788 88872 110074 83550 93002 96857
2373.97 73577 104475 60642 104945 66375 96579
2376.86 63646 102310 64020 108431 86814 100880
2379.75 64535 112148 81217 109639 88096 120102
2382.64 103045 153231 141102 190902 138965 299553
2385.54 334554 230007 168154 135013 118218 120049
2388.43 92584 104160 104049 122842 113024 133513
2391.32 113697 140828 119448 147834 138484 145026
2394.22 138680 154480 145988 156057 141452 158994
2397.11 146325 157037 147328 148491 160337 178126
2400.00 137820 146340 123071 139001 104055 127766
2402.89 107025 125277 108482 117677 101975 135240
2405.79 120702 140222 137416 176131 164168 149206
2408.68 182306 284489 181685 163110 96988 92561
2411.57 57589 69474 56014 59376 42295 69334
2414.46 42814 58894 56442 70392 61974 62435
2417.36 62796 75780 57726 82790 65367 77305
2420.25 69981 78878 65669 87399 70250 68175
2423.14 54217 80501 57504 74334 50642 59064
2426.04 34225 52209 35283 45801 18294 39103
2428.93 19604 34649 10520 21669 8206 20720
2431.82 5431 12820 6383 17411-7746 17584
2434.71 422 5512-9782 8471-14659 286
2437.61-1938-7939-11718 11590-13988 9142
2440.50-19075 3391-13432 9020-14059 4036
2443.39-9088 2415-13385-3377-15556-1688
2446.28-18408 6743-11220-8871-21962 6065
2449.18-18888-7284-13601-6989-13370-4564
2452.07-17019-4859-16536-7548-20119-1737
2454.96-15155-5549-17272-5738-15539 3435
2457.86-9830-72-7676 2695-5958 1230
2460.75-3609 2560-17538 10032-6818 1454
2463.64-1492 8481-6508 11321-7549 6412
2466.53-9136 13829-7918 7150-5197 14157
2469.43 3218 24762 126 27402 14199 19906
2472.32 13820 26883 8828 24938 8756 22895
2475.21 12552 33505 16841 29761 9096 18400
2478.10 9247 26564 769 27516 11517 17622
2481.00 5933 23133 15037 25359 6421 15598
2483.89 19347 41031 14021 20798 12936 14080
2486.78 3815 19482 5708 17029 13393 25118
2489.68 10576 26470 12103 21317-2894 14984
2492.57 11211 28149 12758 17436 10768 29649
2495.46 11718 21694-1952 8215-889 4477
2498.35-9553 6803-11410-1225-20532-6172
2501.25-11434-8999-20134-8509-22121-3975
2504.14-26912-2773-29996-12937-22875-21575
2507.03-14850-14490-27717-10954-19286-18861
2509.92-25698-27924-30216-17047-25538-10956
2512.82-30816-9148-29335-12891-28839-6391
2515.71-13827-22208-28802-24105-29003-14342
2518.60-23712-16282-25352-16553-32737-19718
2521.50-22088-16083-26834-19564-29590-11636
2524.39-28961-11844-31356-29500-40079-17867
2527.28-20225-14649-38372-19648-32148-23765
2530.17-28578-25398-35023-24887-33336-18753
2533.07-29812-15845-23849-17164-40244-19282
2535.96-30951-17770-16420-16170-23132-16824
2538.85-28173-12568-12875-13992-25283-11523
2541.74-20596-5063-13833-13116-10836-14293
2544.64-9279-8024-5681 1913-16101-4789
2547.53-14503-2158-10824-7729-19806-1835
2550.42 894 11113 10885 7906 9951 11956
2553.32 8384 15034 28410 18266 36076 38184
2556.21 38863 46089 30810 12038-11790-4892
2559.10-5129 1675 2609-1048-3195 6942
2561.99-259 8600 5557 18780 1513 6349
2564.89-1017 795 3211 22327 9235 3905
2567.78 21348 7888 13259 11860 8478 10581
2570.67 13849 10786 14328 18459 14569 20403
2573.56 18078 26404 36054 44469 89440 112162
2576.46 46819 34488 26097 27387 14923 18327
2579.35 20318 16443 12776 26647 18613 27890
2582.24 13408 30996 29098 43204 40804 51147
2585.14 44872 53740 55505 61883 74233 74905
2588.03 71665 78622 82175 96377 82247 100742
2590.92 94404 105883 103240 114354 112759 124248
2593.81 127418 124777 114164 130652 124041 132832
2596.71 135122 134131 133729 139333 131865 134920
2599.60 135189 147494 146201 159917 153315 163558
2602.49 188853 212334 203955 226063 231073 216832
2605.38 208753 240461 245039 269805 286894 296831
2608.28 298858 316548 318680 335887 322265 325030
2611.17 315188 308462 283329 274316 252780 239806
2614.06 218721 197665 187387 162137 150382 139873
2616.96 135333 131101 112920 111567 99787 111746
2619.85 104874 94706 128821 140219 111575 107261
2622.74 99743 104172 96900 92087 84162 85324
2625.63 80448 85275 87113 71448 78511 87908
2628.53 68670 66695 72002 67008 73463 68281
2631.42 70785 62262 52206 48115 43245 49118
2634.31 46335 39237 42294 44651 34544 35400
2637.20 32756 31750 33371 30033 27587 33443
2640.10 28007 26500 45736 37563 53448 58100
2642.99 45285 48877 64709 71684 78587 82740
2645.88 83041 98078 101233 117528 114008 121518
2648.78 144501 128429 144410 149870 135825 143845
2651.67 143700 146833 131072 133759 135114 126462
2654.56 128253 112567 113390 95972 100047 105089
2657.45 99202 107350 95452 112810 97785 106477
2660.35 111110 100869 121602 133935 147285 152174
2663.24 145652 159232 163412 159229 155939 161532
2666.13 144799 136664 132322 129347 111632 93174
2669.02 80396 91023 62982 64429 48040 54660
2671.92 48052 41754 28202 24095 18794 6691
2674.81 4317-549-3756 2453-9620 2214
2677.70-14568-3693-476-2656-13487-15097
2680.60-17671-14069-18146-24147-11947-22740
2683.49-12339-13424-20893-14890-12815-18421
2686.38-36126-24130-27039-22685-23352-23361
2689.27-25997-26873-20784-30105-33843-25059
2692.17-25947-24242-27985-34885-25510-31021
2695.06-28915-23107-30137-35367-27072-33773
2697.95-27562-34276-32111-40240-27209-52052
2700.84-42001-43362-39042-44579-28787-46538
2703.74-23122-25425-21992-30120-28510-40328
2706.63-22032-25369-31876-36015-21088-36319
2709.52-25335-17051-9220-22980-24322-17181
2712.42-30641-36588-19256-23174-22614-27157
2715.31-22153-36016-38093-26585-26385-34743
2718.20-35834-27993-24555-44203-29514-34691
2721.09-37627-25814-35727-30251-30618-31900
2723.99-41710-33325-41804-23892-32415-36689
2726.88-35675-30760-23903-29898-17663-19463
2729.77-26008-48894-15283-41498-31823-22420
2732.66-31520-34919-32497-37507-26524-23045
2735.56-14971-28527-29052-36870-9378-34883
2738.45-8212-26984-29440-39422-29591-22067
2741.34-26995-36938-28396-33877-22308-37304
2744.24-22778-30164-32424-31229-33010-29251
2747.13-20819-27898-25030-34172-24224-32294
2750.02-23247-30078-29266-39204-24230-45616
2752.91-28529-35175-35972-35234-17726-39300
2755.81-28093-43615-30889-32732-27458-33202
2758.70-24598-43770-24773-23923-17473-33236
2761.59-28471-16496-31415-38154-26144-37427
2764.48-16746-31523-22896-32154-34658-36777
2767.38-27997-37351-23300-31323-29371-35321
2770.27-20336-25183-25036-25997-31607-34895
2773.16-25415-25650-32061-34573-17778-27422
2776.06-589-17425-25020-29225-30936-31767
2778.95-27846-25258-19959-50081-23029-29905
2781.84-21258-29587-13098-22607-11613-22886
2784.73-9346-15545-19514-27113-22438-33833
2787.63-13399-6488-11173-10500-3919-14419
2790.52 5794-10038-8751-16494 3806 9836
2793.41 14323 7521 28922 20092 29144 19720
2796.30 32727 22053 45946 39244 52845 42294
2799.20 55117 45688 71767 54961 95518 75103
2802.09 92333 104175 106975 102225 120397 118209
2804.98 146294 141548 165968 159342 172985 176661
2807.88 193215 196283 225327 220699 229456 240208
2810.77 234068 260511 272909 268568 281413 268125
2813.66 286902 288156 298188 285666 313027 297545
2816.55 312739 314665 314103 297771 320863 316925
2819.45 307927 314535 309110 301063 309167 303899
2822.34 308588 312750 335462 356275 379950 395977
2825.23 396204 406272 427451 423662 398134 475434
2828.12 500925 412122 414607 365120 364707 324721
2831.02 307277 279494 301152 271889 306617 284237
2833.91 291308 295848 310344 304589 328855 301653
2836.80 320392 323444 335296 321839 348663 331106
2839.70 342586 315614 349340 321491 333478 319457
2842.59 317368 301727 312274 283595 284326 271708
2845.48 285124 241993 257425 247932 242623 232057
2848.37 229629 205802 217205 225207 238269 216393
2851.27 238835 228126 245255 236451 269517 278894
2854.16 284726 251013 232276 190469 205116 174650
2857.05 185294 160646 174045 154823 174472 157453
2859.94 182719 162816 182006 186889 195980 209143
2862.84 209550 211937 232789 221829 227587 234258
2865.73 245740 232919 252252 230733 261767 234229
2868.62 240671 230896 264124 246609 234248 224906
2871.52 232398 244084 245156 240556 260322 249683
2874.41 289923 260066 303288 287358 326020 317926
2877.30 350965 333427 384572 376297 386813 418683
2880.19 431260 432714 464654 449023 481017 463619
2883.09 501373 505448 500053 503440 523042 514415
2885.98 551479 541183 560219 557732 592494 580106
2888.87 630513 621316 670876 664221 705392 695684
2891.77 736611 755777 795923 810548 872429 909894
2894.66 981611 999933 1078173 1095715 1127879 1153755
2897.55 1194500 1175244 1171837 1109574 1085353 1002822
2900.44 956756 875544 821551 735058 714122 636941
2903.34 608251 554590 558856 510054 518894 479253
2906.23 493491 461789 468560 446442 428023 428322
2909.12 433170 408412 414724 379442 368471 334374
2912.01 359059 310100 330526 299085 306254 291664
2914.91 301361 276445 278444 263628 268624 247544
2917.80 254287 243967 242419 219150 240855 208748
2920.69 218405 172564 178461 144450 152467 124379
2923.59 129316 90591 128706 70608 96189 68186
2926.48 71952 63892 74093 34222 45602 2887
2929.37 32859 13666 5110-3447 10160-796
2932.26 5834-22802 3153-20023 8247-28285
2935.16-1700-14116-668-25433-5215-39366
2938.05-20702-24295-10708-36925-21779-45027
2940.94-7116-44949-28634-54092-17650-40352
2943.83-37181-30143-23730-52309-22271-42533
2946.73-23641-28587-33085-49702-26212-40737
2949.62-17663-48470-20568-36566-19164-46713
2952.51-3847-40112-2910-21784-15091-28994
2955.41-5364-36082-21357-30035-8447-33330
2958.30-7806-65628-25730-55497-33938-48854
2961.19-54440-58361-24692-66390-52219-59995
2964.08-58190-77600-50053-79345-42807-57871
2966.98-35476-59085-30270-61601-34337-49940
2969.87-36567-43902-20152-41897-3186-6100
2972.76-3852-32846-6704-28349 3248-29484
2975.65 3587-14553-8302-24451-2825-26430
2978.55-15385-30108-10039-28893 5788-15647
2981.44-23432-12424-723-24847 4666-21206
2984.33 20697-8848 17365 9588 18371-422
2987.23 24209 1855 8462-11890 8467 15526
2990.12 7112 3939 17400 8833 45366 14610
2993.01 44640 14378 28685-4733 31655 8318
2995.90 55218 18174 35026 23650 39735 17855
2998.80 49795 21908 63302 49267 70181 50294
3001.69 76711 70240 100926 79905 98702 96144
3004.58 125087 112105 130916 130394 151601 153908
3007.47 170456 167665 205359 215415 239616 254478
3010.37 267178 284894 322575 357161 408821 418111
3013.26 488136 535907 598604 655870 753487 822365
3016.15 932303 1018061 1148825 1249701 1436569 1554977
3019.05 1735574 1910989 2163346 2364553 2650515 2930939
3021.94 3262809 3591477 3982174 4400857 4855178 5353932
3024.83 5915155 6464625 7121985 7761500 8519279 9267988
3027.72 10088337 10906809 11828376 12741750 13723125 14682719
3030.62 15695697 16711778 17739132 18714121 19674619 20618205
3033.51 21540443 22385164 23189319 23890443 24516166 25025313
3036.40 25485276 25782082 26010589 26026654 25884237 25898840
3039.29 26018780 25926951 25969628 25196614 25069454 24902851
3042.19 25100796 25464260 25446922 26034902 26559400 27688800
3045.08 28453448 29879419 30189803 31511120 31149441 31142050
3047.97 30218447 28916695 27773667 26615293 26096269 25449642
3050.87 25538935 25373238 25915535 26228505 26924225 27487115
3053.76 28227436 28709360 29364301 29640197 30048480 29976949
3056.65 29981370 29606341 29238973 28515289 27811781 26797227
3059.54 25782392 24535759 23317717 21974924 20735882 19466603
3062.44 18345976 17132835 16042078 14973645 14271737 13569485
3065.33 13045389 12519617 12209495 11886504 11782251 11687272
3068.22 11788171 11903238 12120762 12351302 12698034 13026413
3071.11 13412089 13686155 14000484 14189898 14429327 14332685
3074.01 14281889 13960539 13732216 13004898 12498468 11726414
3076.90 11315872 10687633 10592805 10747039 11696522 12991522
3079.79 15059476 17249450 19111586 19515052 19424240 19207155
3082.69 19124057 18769750 18578322 18444540 18804310 18626403
3085.58 18434701 18591330 18701238 18778838 18818207 18963364
3088.47 19124712 19211313 19432192 19513292 19682389 19649540
3091.36 19690383 19425704 19307599 19440032 19297916 19005996
3094.26 18715000 18633765 18539138 18344935 18251560 18412430
3097.15 18229394 18548063 18590835 18921262 19163389 20750844
3100.04 22297198 15937699 17644951 20154876 18611499 17922717
3102.93 17086948 16606563 16169695 16051347 15958341 16206537
3105.83 16442802 16763193 17131015 17496178 17921872 18142190
3108.72 18451784 18529153 18582033 18428282 18275456 17868568
3111.61 17464192 16848844 16225657 15468305 14659636 13800719
3114.51 12930379 12007720 11121253 10179786 9329741 8427153
3117.40 7637389 6829730 6135002 5411741 4861709 4249615
3120.29 3770274 3259451 2894464 2499261 2226394 1907895
3123.18 1685877 1427548 1306709 1094937 1028400 860654
3126.08 803158 662576 627248 503505 479654 409047
3128.97 390205 312525 309371 249698 249244 193363
3131.86 228362 154900 172683 124811 135367 91880
3134.75 123367 59222 93796 49329 80413 24532
3137.65 63122 17380 54925 3607 43293-2452
3140.54 58080-1630 39887-16915 30825-22265
3143.43 10502-15117 21904-35895 27016-34129
3146.33 20849-26746 9942-32599-2908-38515
3149.22-919-50811 13289-36970-967-57129
3152.11 20767-43760 5565-29954-5443-41134
3155.00 17578-51747-3501-48029-1914-35510
3157.90 528-30853-1734-34512 1454-46433
3160.79-4775-26740 9517-48448 13375-65142
3163.68-10292-44750 11853-34385 2044-26003
3166.57 388-63454 11279-27696 2225-56712
3169.47-1328-48610 582-49322 12298-25841
3172.36 2271-38043 19491-27593 12074-63789
3175.25 12407-37614-34842-57415 12461-37478
3178.15 693-48466 6254-39670 8444-43898
3181.04 9483-26988 13355-27101 4751-57856
3183.93 12218-52157-17473-52230 7040-44895
3186.82-744-43368 5698-32879-2191-50764
3189.72 4575-32760 6163-37058 15382-31471
3192.61-11361-52913-8463-37821-469-46447
3195.50 6915-62641 1388-50425 7049-39235
3198.39-4759-35500 13060-57618 5819-48749
3201.29 1-37652 8560-47652-2104-63340
3204.18 2596-57524 7130-56581-6923-53567
3207.07-5934-54386-13997-35885-13966-24569
3209.97 11409-54229 4831-55501-5086-47661
3212.86-10985-52988-14923-50569-14119-39929
3215.75-1781-44983-15699-52989 28606-51676
3218.64-2407-49246 5248-62639 496-39308
3221.54-6450-51918 5990-35166 1289-39981
3224.43 1290-54410 1198-30998 7302-44472
3227.32-7738-45052 14182-35199 1475-35947
3230.21 25538-27763-11394-39912 4553-44121
3233.11-6706-37866 5659-50517 11204-31272
3236.00 14298-33172-1202-41941 13230-21735
3238.89 6462-37624 25581-32180 14210-43857
3241.79 14602-51278 17983-14846 26474-37718
3244.68 4019-31744 15336-56583 7031-21232
3247.57 8808-36280 8802-32422 19826-15714
3250.46 22358-17234 10886-35771 16098-45216
3253.36 13384-22453 10630-32054 3660-38959
3256.25 18440-29425 4886-28768 30568-32342
3259.14 4896-13922 29845-44294 29366-49989
3262.03 25311-45243 30319-47415 14562-50208
3264.93 12895-32983 14156-37494-18967-33856
3267.82 4915-49323 10442-43523-8815-47476
3270.71 12671-49890-5952-48476 1628-31932
3273.61 27590-66193 9119-44404-2193-53553
3276.50-151-50700-5410-74211 10242-51839
3279.39 6552-52700-190-55634 11939-53736
3282.28 2975-54878 488-49949-9558-51823
3285.18-6314-43976-12203-54216-17701-52030
3288.07-11426-52053 13852-59371 1607-58697
3290.96-11354-62649-2034-46785 14771-62299
3293.85 4191-59467 3508-59437-5369-59404
3296.75-11132-43961-9329-71191 3776-41671
3299.64-1279-42177-15622-75148-7659-50780
3302.53 2673-65784-13143-69165 1902-81817
3305.43-12266-81728-6590-58055 2434-41744
3308.32 24524-65069-3990-61310-8270-55295
3311.21 8061-69303 10702-49932 1570-55571
3314.10 9740-59591-5262-48171-921-39543
3317.00-6287-64951-5171-66507-13201-58442
3319.89-10857-54839-8733-65881 6225-39416
3322.78 6974-70193 1162-53127 9240-62437
3325.67-10855-61788 310-59945 3056-57844
3328.57 3686-63436 3879-69455-16710-69988
3331.46-10626-61694 2115-75830 17515-39518
3334.35-3909-55647-26599-66336 23451-75319
3337.25-8393-72655 6314-70631-4866-69546
3340.14-10670-35984-12248-60635-4011-76372
3343.03 14852-63714 11226-60389-2339-73485
3345.92-9044-70839 4057-66736 10845-69055
3348.82-3415-52626 10210-51870-17983-52628
3351.71 16378-60762-14623-52499 11974-58110
3354.60 11750-52919 7450-55298-5860-69503
3357.49-5034-55229 11327-54700-24802-55590
3360.39 14111-52511 4521-68332 11336-48091
3363.28 6397-48237-1246-56220 256-33982
3366.17-20009-45045-4331-73615 8694-56250
3369.07-4745-41993 2781-65899-19161-65143
3371.96-10752-62308 23719-54092 9929-54137
3374.85-7033-49519 3497-36264 3044-59366
3377.74 20967-62918 17242-55452-1268-51271
3380.64 16152-64900 7400-40471 9080-51097
3383.53 27125-46096 4310-55586 31969-63915
3386.42 12539-30515 4945-30395 22484-47923
3389.31 26832-69608 29615-62484 20354-17851
3392.21 28856-54217 28213-57054 21744-34998
3395.10 24461-36073 30424-45388 21503-43673
3397.99 35591-30247 33784-29182 30704-41601
3400.89 43327-44544 39094-36543 56029-27884
3403.78 32890-30612 28547-14590 56074-18946
3406.67 47988-24729 35475-19980 70019-16219
3409.56 37369-11921 44319-23144 39671-29235
3412.46 28654-52840 29340-36427 37174-51029
3415.35 28994-27780 28293-38923 31117-30140
3418.24 43075-38964 18204-35987 34367-64972
3421.13 24473-62069 24544-44829 27672-38493
3424.03 23291-35855 18884-51292 37634-31563
3426.92 67769-47576 34963-31520 45462-32209
3429.81 41903-56341 38286-16893 38776-33924
3432.71 38026-30938 26163-19790 54849-34146
3435.60 42193-5473 58966-10792 71945-24227
3438.49 46648-8527 51425-42638 44739-45892
3441.38 67829-13295 56421-50654 51960-40943
3444.28 72676-46235 53080-9510 38291-29543
3447.17 52940-14545 44085-14601 43092-49053
3450.06 51990-24590 65320-57301 93245-11784
3452.95 209474 125544 464709 521435 102108 111944
3455.85 55336-11878 60455-48007 31794-21948
3458.74 24898-51260 24633-45003 28109-61692
3461.63 42594-9842 21687-18354 42755-32716
3464.53 35063-33425 37062-9863 35659-50858
3467.42 42298-42520 32970-41144 60287-29534
3470.31 47494-18002 45429-47774 14941-39049
3473.20 29684-22652 20264-40299 34405-65080
3476.10 10472-23995 13674-59610 20533-45884
3478.99 2300-35186 16418-54670 31911-64919
3481.88 8455-46532-811-48446 25558-39481
3484.77 30021-64078 12853-54139-9589-39868
3487.67 16314-56098 1474-74879 26590-62653
3490.56-55-63697 2103-84700 661-57116
3493.45 24915-49654 24715-62411-3520-53257
3496.35 8387-49295 22271-62140 12486-73146
3499.24 19870-71935 5981-65024 16932-68694
3502.13 19955-61720 11172-64807 9658-79468
3505.02 2931-62680 11253-69865-7488-56934
3507.92-1591-58083 21568-62565 19801-74202
3510.81-456-73046 4792-57309 11106-70078
3513.70 19669-69238-1198-47352 28207-51665
3516.59 11052-53402 9227-82436 20247-52697
3519.49 9923-37452 18872-69012 5877-62956
3522.38 31558-42273 22105-56444 7659-55289
3525.27 14229-72584 14959-71496 20598-48480
3528.17 4352-57041-6320-71897 20670-61434
3531.06 18295-80404 22884-77977 21318-60965
3533.95 3988-86307 26263-77126 10649-61042
3536.84 15553-79428 3781-62980 19064-68145
3539.74 29937-74971 16398-65900 21647-77127
3542.63 5922-79051 13556-62304 13119-80132
3545.52 11009-45459 13416-67230 2299-73189
3548.41 14-67900 42075-91303 26363-78774
3551.31 5333-76620 2686-63375 12165-77929
3554.20 7940-60769 1579-61012 9238-60553
3557.09 10371-77609-8445-78740 12082-67723
3559.99 7301-73133 23982-73660 13354-68698
3562.88 22347-71852 4020-78978 15340-76258
3565.77 12129-44787 24187-71124 21495-68360
3568.66 26604-61521 14769-71058 18616-81732
3571.56 21047-60007 16061-67343 7020-81297
3574.45 16615-94454 22306-63155 12553-72954
3577.34 13221-76433 13193-93659 9054-56197
3580.23 15068-85613 3250-62683 21188-72362
3583.13 6735-83553-13277-68652 10859-64854
3586.02 21531-69409 8956-76792 20103-56018
3588.91 12260-69440 19179-67951 12727-78101
3591.81 1169-63183 13757-64628 15039-69098
3594.70 22652-59597 31738-41219 23575-38567
3597.59 44044-51601 36335-38475 40378-43385
3600.48 51385-48505 30613-40330 41515-42452
3603.38 63878-31889 54179-31810 59013-3020
3606.27 74554-18095 66777-12994 78299 16652
3609.16 87736-33407 66040-24149 66958-32079
3612.05 91973-20183 73662-25780 66962-35990
3614.95 88904-30253 59984-20124 83397-920
3617.84 91126-11212 108758 69874 123560 44044
3620.73 222328 63971 186162 118915 131804 13577
3623.63 75788-2848 55118-28088 60293-20143
3626.52 62276-12956 85908 27433 80967 37643
3629.41 121879 7601 105935 7014 113973 19602
3632.30 112022 30158 123318 38656 118074 45679
3635.20 134911 37206 136633 42855 141493 60068
3638.09 146253 56575 174214 72873 168759 72949
3640.98 183782 94240 208224 102648 212028 142615
3643.87 244813 177457 280106 202466 294861 236647
3646.77 370293 269478 365874 270170 427484 301768
3649.66 358670 288801 354448 225106 268862 178656
3652.55 235055 142951 247104 167823 286796 248891
3655.45 405869 383301 456411 362429 425548 304022
3658.34 371549 256638 311674 193902 257793 163265
3661.23 223551 132126 192385 76700 159958 71621
3664.12 134486 51957 140837 19538 124446 11078
3667.02 107891 15003 115720 34672 84296-6209
3669.91 127784 66451 84990 7279 100322 14756
3672.80 90784 14188 84650 34453 87644 27422
3675.69 143496-13182 84152-20420 82255-4126
3678.59 93233 10605 99607-2276 103607 2598
3681.48 110034 6866 118229 11588 115365 22007
3684.37 119881 23767 125319 26460 130148 42141
3687.27 121744 109015 190140 48975 164824 60172
3690.16 182226 103691 209925 108530 218898 112557
3693.05 232531 134029 243893 139377 247634 172900
3695.94 282745 211145 301002 186207 281495 174450
3698.84 280676 187615 300207 201894 311244 225829
3701.73 316094 186662 285028 170416 272195 161101
3704.62 270402 153168 255816 177388 298097 178636
3707.51 314240 196728 312471 235925 335732 244990
3710.41 364499 217816 340821 224664 261510 146060
3713.30 214344 92750 189609 75343 164749 64405
3716.19 139665 33801 128812 12643 117437 2310
3719.09 111654-10812 90022-11611 79091-10763
3721.98 110191-20285 96932-2980 88315-9879
3724.87 80753-39192 80707-6872 70580-33689
3727.76 85124-23577 66104-41994 65805-37720
3730.66 67664-29802 101182-34876 71928-42547
3733.55 45726-37132 79792-36085 51409-27399
3736.44 84225-55809 32979-41991 67017-52035
3739.33 43859-62748 77214-37433 77087-24736
3742.23 75083-37423 151146 50306 245341 323556
3745.12 112163-97917 42826-69817 47294-81935
3748.01 32817-34769 116208-70018 43144-61361
3750.91 36855-28403 149599-87684 64035-65603
3753.80 57105-72898 63632-60905 56941-58205
3756.69 68112-60503 73064-55190 46044-56448
3759.58 74352-76271 44776-64889 52600-59137
3762.48 48858-60327 43657-60505 53510-79911
3765.37 61331-69382 60935-85962 31788-80395
3768.26 44024-72021 61574-67784 36053-72370
3771.15 29613-82311 53019-74781 42929-72250
3774.05 41118-81033 33751-64767 40202-78516
3776.94 32538-76034 54904-87677 65580-57473
3779.83 48860-65100 47433-71423 27976-75481
3782.73 42142-70933 38450-78031 60637-85354
3785.62 34940-72643 33079-74763 37107-72583
3788.51 38325-64010 53701-78960 32965-75713
3791.40 40281-77706 34536-80821 27467-72273
3794.30 28904-72940 31237-61597 59431-93586
3797.19 44202-71978 41942-88936 24655-70254
3800.08 28129-38841 119252-70797 27240-75888
3802.97 32407-69764 35357-85210 42686-66747
3805.87 43227-38251 63262-83604 29175-98394
3808.76 42715-101508 52497-104930 32951-84529
3811.65 35759-86046 43265-90373 41622-95386
3814.55 41488-92884 114724-45646 25035-78872
3817.44 21355-99314 21817-87531 21835-78268
3820.33 65746-72562 76354-96570 35862-79070
3823.22 28944-97348 32520-94334 35692-87345
3826.12 48009-94164 38000-94137 23733-83638
3829.01 34508-102018 29914-79139 43562-61289
3831.90 13519-95803 35062-88592 19752-56878
3834.79 49266-95393 37943-71905 20855-17454
3837.69 77625-100582 59881-92912 30577-110867
3840.58 70448-104074 21475-105393 39222-83210
3843.47 54972-93642 34213-99591 51534-101292
3846.37 56474-97307 44423-113187 20089-93814
3849.26 34243-97254 31949-104293 75465-16757
3852.15 36970-75844 45705-7663 98908-87864
3855.04 40859-105877 35138-79917 49953-90130
3857.94 32444-93849 22964-85075 52651-100999
3860.83 39496-96989 34286-107383 33688-101382
3863.72 43930-94579 61501-92734 27208-80402
3866.61 52734-85234 36377-102441 58411-81046
3869.51 100887-87107 37435-91584 40893-97264
3872.40 41112-91679 46065-86581 40272-88080
3875.29 21724-116708 28547-100586 45126-109298
3878.19 42453-117236 42770-86562 44096-98303
3881.08 50142-93514 43042-94309 52221-105483
3883.97 46758-125295 52163-60635 37385-102453
3886.86 53739-94088 27371-89807 81189-53631
3889.76 122957-87069 66904-98253 29016-106778
3892.65 35776-109036 36841-101963 35528-96120
3895.54 37509-93597 47538-94194 40578-107458
3898.43 31725-63056 43796-90955 34351-83851
3901.33 78411-97550 31472-92877 50916-72921
3904.22 36197-106339 42986-91377 38783-100355
3907.11 42079-108866 47241-101781 36155-107797
3910.01 48413-98960 34792-94578 68132-89753
3912.90 46736-97661 76447-88282 63383-83656
3915.79 23412-90782 50286-91584 33128-76963
3918.68 57914-83970 66199-91672 62407-100212
3921.58 55692-93113 44077-90497 59670-62062
3924.47 70110-71118 58950-48538 90992-62664
3927.36 85749-73786 86771-59813 75443-45046
3930.25 77568-61836 105783-45165 95474-55951
3933.15 105103-49442 116100-39354 112517-47870
3936.04 123621-26405 111014-18227 111461-28439
3938.93 135631-23814 101246-18710 141107-28136
3941.83 133348 3236 161453-14757 165555 38387
3944.72 152786 7267 166672 28140 173924 15216
3947.61 185358 17925 156510 2992 187937 31594
3950.50 186444 50953 205544 40272 198799 48327
3953.40 188503 12480 175105 16078 170292 5780
3956.29 160414-3501 146020 3978 151976-13806
3959.18 147619-6780 153758 15217 137398-7828
3962.07 147417 15116 178441-1875 157942 3533
3964.97 172070-19352 142010 15 159339 12492
3967.86 155669 7164 152960-10509 153610-2488
3970.75 163696 5513 160586 16258 166026 21153
3973.65 164961 1358
##END=
