##TITLE=Benzene
##JCAMP-DX=4.24
##DATA TYPE=INFRARED SPECTRUM
##CLASS=IUPAC A
##ORIGIN=NIST, Analytical Chemistry Division, 301-975-3108
##OWNER=COPYRIGHT (C) 2000 by the U.S. Secretary of Commerce
##DATE=00/02/01
##$SPECTRA VERSION=1.10
##$UNCERTAINTY IN Y=2.1 % relative (B=1.1E-04,C=5.2E-10,D=5.2E-15)
##CAS NAME=Benzene
##CAS REGISTRY NO=71-43-2
##MOLFORM=C6 H6
##MP=5.5 C
##BP=80.1 C
##$NIST SOURCE=QUANT-IR
##SPECTROMETER/DATA SYSTEM=IFS66V (Bruker)
##INSTRUMENT PARAMETERS=KBr Beam Splitter; MCT Detector; Multipass cell
##STATE=gas
##SAMPLE DESCRIPTION=Benzene Primary Gas Standard
##PRESSURE=101.3 Pa
##TEMPERATURE=23 C
##SAMPLING PROCEDURE=1 L/min Flow
##RESOLUTION=0.9640
##DATA PROCESSING=Triangular Apodization
##XUNITS=cm-1
##YUNITS=(micromol/mol)-1m-1 (base 10)
##XFACTOR=1.0
##YFACTOR=7.2759E-12
##DELTAX=0.4820
##FIRSTX=575.171
##LASTX=3974.61
##FIRSTY=1.09E-07
##MAXX=3974.13
##MINX=575.17
##MAXY=.0044938
##MINY=-5.07E-07
##NPOINTS=7052
##XYDATA=(X++(Y..Y))
575.17 14985-2929-24040-69683-40614-15228
577.58-2425-57457-65068-47247-41452-4792
580.47 40756 15786 8224 46671 25035-24964
583.37 6599-7718-25644 4128 47207 78928
586.26 53878-328-9724 15044 43252 23283
589.15 38520 40093 2736-30965-35078-8824
592.05 32100 53773 33163 29997 51827 6721
594.94 1768 7282 63187 60494 22751 4425
597.83 43030 44152 8406-18259-10527 25639
600.72 48180 10640 23079 46943 44080 9733
603.62 40796 69776 75551 79286 103801 136113
606.51 184073 147148 105364 77966 79051 64633
609.40 66301 38917 29842 20051 26882 25577
612.29 34862 25003 52048 36038 17400 26083
615.19 49825 40272 62629 55650 58674 57688
618.08 69322 51432 71653 63177 75896 86599
620.97 104220 75935 69203 73890 109883 82300
623.87 83354 69588 83689 80962 91778 83094
626.76 132013 118315 126497 127768 162621 160645
629.65 194995 200446 243082 234691 274927 291453
632.54 321140 364549 441160 471989 561816 606332
635.44 702728 758206 883393 976424 1134621 1272497
638.33 1477522 1645434 1878536 2079863 2377860 2653458
641.22 3015305 3350220 3790987 4195736 4707374 5209154
644.11 5825901 6418889 7143794 7854572 8710488 9545643
647.01 10514166 11445185 12525840 13602338 14839785 16007860
649.90 17356959 18643580 20065139 21422946 22953825 24369119
652.79 25946075 27349436 28902480 30289819 31816799 33139077
655.69 34548044 35680587 36971913 37891778 38868966 39472860
658.58 40204586 40478689 40847298 40739122 40773745 40231516
661.47 39864997 38859473 38125803 36700117 35658455 33897393
664.36 32606102 30423844 28931476 26488467 25076684 22605190
667.26 21516757 19163892 18856030 17445361 19465916 21492126
670.15 31639121 42047185 83888695 112582594 234652861 292999291
673.04 464967296 617628666 247517626 41266550 41166983 19956623
675.93 21558074 14174172 17654141 16181531 19637244 19947945
678.83 23284134 24490255 27706137 29327500 32321496 33986112
681.72 36654703 38266167 40600125 41982689 43785394 44737827
684.61 46023380 46553623 47312128 47395115 47654584 47309863
687.51 47067556 46259001 45586120 44442667 43421298 42015072
690.40 40695620 39042197 37428633 35558387 33852985 31958604
693.29 30250757 28386357 26673792 24828636 23175045 21452302
696.18 19918018 18343575 16986228 15525790 14280320 12963700
699.08 11770205 10628915 9658175 8692555 7894615 7047377
701.97 6350773 5660594 5105775 4528888 4054051 3570668
704.86 3217473 2826504 2520999 2191557 1963664 1718676
707.75 1555480 1347725 1211142 1051848 958769 831187
710.65 756398 646999 596831 507454 467331 399493
713.54 377018 322447 312665 266550 265135 227754
716.43 223859 192044 191222 154557 156148 116348
719.33 119719 114901 127205 111470 112472 78655
722.22 81874 76255 98882 83249 80649 60743
725.11 81113 73530 73899 54586 68014 53081
728.00 62111 61460 71130 50927 54573 47461
730.90 64766 50416 45228 37877 48796 32949
733.79 44240 38152 47066 36261 39837 30906
736.68 33894 21079 32181 23506 23617 5824
739.57 16183 18904 23672 20128 30858 19869
742.47 16203 7299 16378 10157 14892 7076
745.36 18247 19999 26416 10138 12174 14522
748.25 20948 10435 14533 18633 29659 24875
751.15 31809 21962 28707 26205 29307 32123
754.04 44249 45739 50224 36951 46613 56600
756.93 70073 70759 67622 70827 86486 76624
759.82 86048 88424 99506 95881 101899 99987
762.72 107078 120386 128946 124010 134971 133783
765.61 134276 128992 132215 126307 123445 121083
768.50 118674 112712 119841 115370 111612 97478
771.39 100117 93803 89803 89976 96111 80560
774.29 71669 78653 115152 140538 134086 177910
777.18 244441 307550 516193 1239255 1586358 778134
780.07 329309 368660 285076 202216 165327 147764
782.97 113480 82422 69502 69111 73749 70362
785.86 72428 70587 79879 91142 99207 98482
788.75 112877 115361 107245 99254 106553 116179
791.64 127845 123975 112125 115981 123317 108163
794.54 114402 122433 123026 110931 101419 104489
797.43 109319 95452 92009 89880 79618 62187
800.32 65060 62289 61840 61428 50758 38826
803.21 41019 33065 20755 18687 24347 15661
806.11 10872 5053-1369-1051 1897 2215
809.00 13512 10900 8131 5963 1676-10024
811.89-15019-19884-15217-22357-24364-13843
814.79-14791-18178-9973-13561-16306-17115
817.68-9656-7438-13401-22136-9735-1565
820.57-16245-19991-9085-13559-10072-11051
823.46-17493-26873-21811-18368-19163-17592
826.36-11553-20396-18500-7407-8961-20488
829.25-16544-8995-3401-5734-11753-16967
832.14-22123-21261-11266-13823-16465-25792
835.03-18211-20885-26152-13361-11893-13895
837.93-12460-24626-24901-11130-7888-11549
840.82-7236-11578-3536-5882-12597-13803
843.71-17401-24003-25996-20647-12705-19636
846.61-15688-11721-13393-19117-24018-28398
849.50-24169-19706-13847-10647-14591-13765
852.39-8961-12542-5759-12505-18919-18919
855.28-21278-17334-13762-19010-18780-15704
858.18-21190-29653-26770-21577-20970-26293
861.07-19333-18450-20298-20961-23235-24075
863.96-21864-19472-11901-15918-8729-5236
866.85-15068-24098-24459-18775-16007-20242
869.75-19186-23556-29271-20514-11680-17397
872.64-15361-13981-16049-14011-16558-15116
875.53-16596-26872-23767-14805-11184-20959
878.43-17291-13366-18402-21678-19317-18883
881.32-14909-19661-21711-21963-18298-16903
884.21-17765-19653-19450-16865-23078-22014
887.10-13244-20694-26347-21087-16961-22934
890.00-29140-23336-19306-19882-21352-31664
892.89-32673-25806-19633-17114-11838-19816
895.78-22550-21205-23392-27935-26124-21461
898.67-16034-15395-16975-21077-19129-13783
901.57-13421-20411-24583-18557-14766-24693
904.46-21771-18374-28614-29309-24261-26029
907.35-17909-15077-20582-19913-15875-19193
910.25-17218-13629-10569-10369-16560-22395
913.14-17252-18308-19896-17317-18304-16063
916.03-17318-24033-24068-18491-14476-12137
918.92-11953-18553-19987-20508-18506-15088
921.82-19278-24790-22991-20636-14898-15470
924.71-17684-19594-20053-24230-21698-28993
927.60-35048-28208-24504-14761-12822-22237
930.49-17081-9467-13634-20845-17378-10084
933.39-13939-25613-20785-12699-10896-18714
936.28-20516-19008-19142-13215-14372-25783
939.17-24697-19299-18481-23108-20517-18490
942.07-21035-21932-25181-21854-14898-12951
944.96-8621-14333-17625-17303-20073-16960
947.85-14701-20184-22376-17972-16321-18190
950.74-15392-14266-15336-17665-12736-5366
953.64-7020-11353-15883-20989-8618-6295
956.53-15258-18872-21595-19069-5951-7764
959.42-13014-11021-12792-9685-2564-7121
962.31-14645-12152-8218-9052-7231-5252
965.21-3471-3903-3122-6837-13689-10967
968.10-5416-7402-6698-4036 229 1603
970.99-3640-12218-11226-4857-2915-3042
973.89-1588-4581-8575-1582 6333-1140
976.78 42 3093 4287 5495 4559 6511
979.67 4395 5904 7137 7953 15521 18697
982.56 20909 20550 18329 23425 34600 35593
985.46 35127 41340 46358 50905 49610 46591
988.35 56978 58779 59363 62471 59895 63864
991.24 74337 77337 82055 86411 89675 95296
994.13 96056 100926 110379 111521 107386 108590
997.03 119013 126151 137831 147261 158748 178892
999.92 196637 209318 228066 251193 261263 275379
1002.81 296047 301614 302869 295855 296320 322558
1005.71 365692 418526 494293 582603 665500 744248
1008.60 819868 899247 978016 1060919 1144086 1227429
1011.49 1333692 1445915 1557789 1680766 1817409 1954051
1014.38 2096454 2252181 2414577 2583269 2750166 2916431
1017.28 3084776 3252345 3413150 3575252 3730293 3870179
1020.17 4002421 4125469 4236605 4331331 4409635 4473252
1023.06 4513011 4532353 4536265 4520559 4483099 4424001
1025.95 4343560 4246369 4147633 4043691 3922409 3803830
1028.85 3686989 3588730 3527634 3508758 3519956 3527850
1031.74 3589137 3798108 4140478 4643121 5305792 5768572
1034.63 6187035 6897825 7813695 8883034 10427026 12525190
1037.53 11301445 7818251 6741166 6118108 4984370 3993811
1040.42 3222957 2730943 2424715 2302715 2301113 2391155
1043.31 2527945 2708429 2896399 3084077 3266243 3442706
1046.20 3607372 3757381 3885119 3998305 4098181 4172626
1049.10 4213838 4237000 4245594 4232300 4187362 4130540
1051.99 4059197 3969690 3860827 3741068 3615052 3469456
1054.88 3305881 3143666 2987373 2821761 2651068 2493984
1057.77 2340186 2175375 2013391 1855485 1708633 1571757
1060.67 1441258 1315228 1189796 1080078 976567 878496
1063.56 792837 707727 626841 557665 503199 445984
1066.45 389106 340365 297207 258116 223316 194580
1069.35 169056 143451 119309 96256 87571 84949
1072.24 74064 56827 42759 36475 34849 33772
1075.13 25790 13742 7106 7086 4488 810
1078.02 1373 1183 4442 2819-1537-3789
1080.92-5417-7104-5666-1221-2700-11720
1083.81-13931-7132-7361-8324-4785-4429
1086.70-5613-12192-14320-14156-15657-13690
1089.59-12346-14416-17970-13508-12527-12775
1092.49-15703-21836-18192-17546-14310-4278
1095.38-3278-11051-18502-23216-21097-19034
1098.27-13766-12168-13039-7079-5614-11572
1101.17-12095-15014-18092-23869-25004-19373
1104.06-18162-18679-16317-10234-13431-18511
1106.95-13566-12846-16667-15876-16834-21417
1109.84-19489-15208-16659-14258-13410-18749
1112.74-16389-12738-10627-15533-18867-16842
1115.63-23687-25208-22862-24358-24060-28851
1118.52-23301-15741-15597-13124-17196-19767
1121.41-17010-17908-17011-20644-22903-27980
1124.31-32850-30059-23881-24546-21312-16075
1127.20-18928-26671-24158-21752-24850-23981
1130.09-20754-20475-27081-27822-22438-22088
1132.99-25910-21110-19469-19577-16826-22861
1135.88-23122-17418-18518-21643-22937-26349
1138.77-27193-28754-26268-27082-27954-20369
1141.66-22672-30422-29729-27193-26095-21949
1144.56-20780-20010-17511-21792-22310-17331
1147.45-17069-19147-17874-18480-24442-25917
1150.34-18806-20786-25207-24479-21076-23555
1153.23-26102-20743-21742-23234-17574-18071
1156.13-20001-19601-18590-17647-23350-29268
1159.02-18302-10100-15910-21157-23733-23958
1161.91-22671-16419-15815-23099-23019-22168
1164.81-19324-16726-14878-13593-14958-14186
1167.70-12453-9285-5640-9111-17448-19649
1170.59-17684-15598-16101-16392-12353-11697
1173.48-13183-11402-7665-8499-9067-11182
1176.38-10774-12085-13010-9635-7182-6334
1179.27-7014-9197-9082-5817-8212-6153
1182.16-2611-3509-3389-1036-1250-4940
1185.05-3967-3734-964-1812-2762-166
1187.95 1843 3797 4190 9217 13962 19651
1190.84 35706 48928 56424 48815 24724 6093
1193.73 7297 11135 5650 553-3694-7091
1196.63-10565-7614-496 2357 568-2331
1199.52-1214 1825 2357 733 3014 2968
1202.41 2324 1847 3540 5854 3993 3927
1205.30 6365 11046 14179 11743 6947 5817
1208.20 6744 2754 192 6165 26121 70876
1211.09 102604 80544 50824 35657 23333 17938
1213.98 16435 13527 11572 7453 8758 12685
1216.87 13402 15865 14912 13480 15649 20028
1219.77 28138 28738 27661 35073 42240 39770
1222.66 38432 39308 41454 49379 56815 62341
1225.55 70742 77656 84118 90073 96006 104018
1228.45 108838 115452 124297 123945 129848 139743
1231.34 146417 152369 151940 149188 150173 154764
1234.23 158506 163078 157901 149427 151935 146622
1237.12 143818 142824 140071 141161 142339 141776
1240.02 143177 148919 150289 150506 147973 142005
1242.91 140413 138764 132287 131621 128172 122242
1245.80 125743 131082 136529 139963 135617 130739
1248.69 135133 139058 144546 150723 153010 149879
1251.59 146997 148519 145220 135359 129203 127611
1254.48 120698 110896 105634 98354 89952 85327
1257.37 78667 69354 59526 51486 42343 34727
1260.27 31032 24764 18917 15837 13053 6773
1263.16 3775 612-3772-6993-13838-15247
1266.05-13592-16485-18494-21064-15988-14571
1268.94-18511-16721-17528-21515-23039-20902
1271.84-21227-21992-20858-22401-20472-17667
1274.73-20975-21809-18156-22673-25931-26381
1277.62-25839-25549-26127-24340-23043-22236
1280.51-22009-22717-19817-20505-28861-27453
1283.41-21247-18674-18267-26037-27327-29994
1286.30-30866-24130-24661-23754-24365-25020
1289.19-20163-23037-26471-23716-19616-17699
1292.09-18181-21672-26434-30201-31173-27762
1294.98-26822-26501-24070-25350-25775-25108
1297.87-23966-22112-22478-21836-23512-26192
1300.76-20273-20530-27611-26300-24602-26624
1303.66-24379-20933-23470-25676-23182-23640
1306.55-21997-25789-27672-26783-29449-30444
1309.44-29986-29462-27663-24667-23228-24242
1312.33-27818-28639-28812-27762-24979-22726
1315.23-23968-24999-20826-19699-24445-27146
1318.12-22459-21232-25004-28924-31686-33043
1321.01-34097-31199-27933-30045-28918-23870
1323.91-23534-25590-25486-31399-28021-25480
1326.80-31443-32050-30350-26548-25485-28415
1329.69-31176-30348-29784-30563-29575-29371
1332.58-30327-26998-23793-25264-25207-27486
1335.48-28755-23783-24803-28793-28667-26654
1338.37-26700-25885-24135-27498-30814-28479
1341.26-26788-31073-31802-30860-32966-33923
1344.15-32356-32460-32200-28718-26749-29012
1347.05-26359-27017-24295-18771-19637-19271
1349.94-23595-28281-32622-37368-37088-44667
1352.83-47682-41262-39398-37740-29816-22013
1355.73-16079-18384-18953-20588-17589-4603
1358.62-10160-15698-9849-7147-1262 7215
1361.51 6238 10720 23223 24344 22461 31382
1364.40 36287 42794 56183 65369 81784 96397
1367.30 109323 126604 142220 155838 169618 186979
1370.19 205505 231439 256423 271985 291124 312913
1373.08 337934 363678 388849 412084 426118 444154
1375.97 459958 471373 492745 507363 514374 521741
1378.87 528123 528033 527702 530171 523435 512380
1381.76 506890 500542 499180 497692 491319 485576
1384.65 476872 476116 480626 489971 505312 504446
1387.55 497619 509289 523880 509709 486226 468952
1390.44 459403 453982 449630 455669 465026 473909
1393.33 478929 493308 507772 510654 516755 516714
1396.22 514674 513775 507777 497862 487341 474049
1399.12 450907 429326 405154 374568 349832 323861
1402.01 298355 273486 249287 225078 201562 181475
1404.90 157253 138502 122893 103660 88884 73613
1407.79 59132 54026 48313 39266 32289 24154
1410.69 18672 11407 1488-1126-4087-4886
1413.58-2976-5732-8019-13127-11697-8540
1416.47-5904-4386-11435-16358-3847 19593
1419.37 8585-11244-13386-13070-10497-12569
1422.26-13881-12963-11543-11864-10114-9710
1425.15-12074-15866-15440-12097-9922-9225
1428.04-7416-8036-9357-5835-5565-6874
1430.94-7398-9756-8666-6956-8194-9927
1433.83-6070-3448-2576 1779 15666 33007
1436.72 20825 3468 2802 6064 7391 8710
1439.61 8269 7001 7492 7825 11382 12800
1442.51 16470 20492 22723 22354 27784 37771
1445.40 35704 36369 47729 63577 78135 78398
1448.29 82936 97772 114133 132199 153213 179955
1451.19 203631 225455 255819 291687 330501 378928
1454.08 435606 503332 575523 659324 779773 886963
1456.97 961959 1075168 1212683 1354194 1514717 1687683
1459.86 1878083 2083438 2302165 2544480 2803039 3071550
1462.76 3355955 3653329 3966532 4304696 4631397 4950320
1465.65 5285891 5627071 5957678 6285436 6611937 6911183
1468.54 7195133 7461366 7690504 7893577 8069950 8215018
1471.43 8331613 8391019 8410633 8423828 8390121 8316819
1474.33 8217489 8095141 7941190 7797542 7743809 7740829
1477.22 7735131 7711090 7720292 7946016 8323337 8782008
1480.11 9433271 10162927 10943139 11956918 12758066 13284019
1483.01 12598065 10559904 9809643 9772229 9236071 8627099
1485.90 8012754 7512838 7121636 6864960 6716078 6683777
1488.79 6749151 6881581 7047258 7266855 7487940 7703899
1491.68 7922152 8103064 8249623 8372930 8436880 8452565
1494.58 8425026 8345654 8246927 8085738 7853747 7613441
1497.47 7345932 7058989 6755693 6430886 6104027 5785108
1500.36 5470328 5159766 4864723 4593351 4336891 4103975
1503.25 3890509 3697095 3532342 3402606 3279320 3132362
1506.15 3034318 2953837 2841152 2761507 2701028 2636436
1509.04 2579689 2521793 2451958 2388424 2335768 2288427
1511.93 2236287 2166533 2105537 2049942 2000032 1963672
1514.83 1929215 1904110 1890238 1904659 1915176 1902247
1517.72 1900157 1913099 1892837 1788931 1746070 1761264
1520.61 1755197 1714716 1657350 1648337 1636000 1633893
1523.50 1651081 1672965 1707932 1745424 1767668 1780165
1526.40 1798165 1808363 1805509 1797507 1776438 1743902
1529.29 1704480 1648155 1583552 1519091 1443102 1358918
1532.18 1281490 1205312 1125600 1033302 935589 853301
1535.07 774784 697189 625431 560945 502944 450674
1537.97 413289 400240 344293 297574 277527 222567
1540.86 187996 184376 165192 126064 108559 96651
1543.75 81319 79178 75471 56905 44136 35877
1546.65 29606 24716 21895 19076 12565 12659
1549.54 16095 10838 8279 8548 4521 1316
1552.43 1592 1188 16357 30680 11682-2619
1555.32-3857-4530-3233 16732 27203 44826
1558.22 49329 20391 30708 51938 27921-173
1561.11-360-2011-1758-2951-1145 768
1564.00 4471 8151 2506-1725-2171-1551
1566.90-1844-2342 2074 5807 13943 26993
1569.79 14392 3463 6289 2548 4751 7427
1572.68 5587 2479 1390 6902 8494 23667
1575.57 61859 45549 16494 15413 11201 11106
1578.47 8218 6248 5390 3522 5146 6357
1581.36 6270 5839 1827 687 2081 2111
1584.25 3986 4238 7740 9903 5197 4406
1587.14 8559 15503 15750 12849 12166 8726
1590.04 11340 15930 16003 15690 12731 10477
1592.93 13555 20546 23527 22489 25781 24959
1595.82 23513 27993 31304 32151 31645 35112
1598.72 39924 41961 42356 42143 48029 52855
1601.61 55444 58885 65099 70588 72239 73896
1604.50 74720 77457 82897 85054 85615 91658
1607.39 93447 91968 92332 96242 96301 92191
1610.29 92864 88064 82462 85163 87688 83041
1613.18 76714 74594 70741 67920 64747 75364
1616.07 111285 101505 72096 77798 86201 101619
1618.96 109940 130339 179589 219641 238225 274609
1621.86 323444 309855 261368 203328 143385 108224
1624.75 85890 67469 58498 59455 66409 77257
1627.64 80644 79653 85790 92221 96150 102250
1630.54 105803 111285 119084 122255 118767 120043
1633.43 124744 131079 143308 163522 160449 131147
1636.32 121012 119412 114156 110615 102946 93297
1639.21 87749 82270 78620 75026 69751 67414
1642.11 63201 57347 55341 52292 52657 49572
1645.00 62435 79182 61847 51555 50592 47573
1647.89 46428 39219 37326 43506 45407 46272
1650.78 49188 65563 104899 120775 129804 105705
1653.68 90244 102026 90641 91198 95884 97661
1656.57 106278 122702 124532 118274 119073 120126
1659.46 118822 119461 124391 125934 126723 137379
1662.36 148141 141483 139668 151059 168589 178729
1665.25 271567 421979 314013 149500 136168 134328
1668.14 139473 151389 150769 137444 134950 135429
1671.03 136737 134091 134780 130032 126240 131781
1673.93 139374 160660 176181 162804 152691 154009
1676.82 156536 156895 156238 158654 157676 153909
1679.71 150453 145735 141587 134975 124233 121538
1682.60 125210 125008 122159 150062 150710 100808
1685.50 80132 72276 65233 54380 47208 42097
1688.39 37064 33915 31394 31208 25339 20217
1691.28 19516 18752 15660 13325 14480 16902
1694.18 18909 27317 67330 67834 24232 17627
1697.07 19399 14382 13002 11060 34609 61389
1699.96 60729 44727 21537 11520 7858 3136
1702.85 1643 6762 12892 11227 8647 14008
1705.75 24350 22282 14457 7424 864 2701
1708.64 1094-4027-5582-6883-8323-10019
1711.53-9221-7108 5314 19935 41606 65546
1714.42 136799 208390 129941 39441 51138 92513
1717.32 58114 16013 20906 10974-399-4999
1720.21-905 1764 119-3141-1030-204
1723.10-168 620 4707 8518 10556 11627
1726.00 13894 19836 22706 22448 26770 30621
1728.89 37189 48268 51003 47455 51501 60520
1731.78 63809 78203 109470 105097 113793 135845
1734.67 115050 108817 116466 121392 127588 132779
1737.57 136683 137984 144320 165645 173105 162028
1740.46 164710 167260 162485 159773 165269 166166
1743.35 159795 159070 157747 152829 148961 143346
1746.24 137465 132245 127612 128388 128179 120788
1749.14 114916 113434 124836 154565 178413 198598
1752.03 243299 298382 363931 427059 474527 438734
1754.92 352813 317700 291180 252353 208967 171291
1757.82 137809 114258 105511 101343 102478 108557
1760.71 121995 144605 149738 144762 154745 162630
1763.60 172346 185916 191408 197033 200746 209681
1766.49 220463 223943 235490 236921 228736 230436
1769.39 232212 232071 237472 247109 244935 253964
1772.28 268353 249127 239406 245176 245878 250882
1775.17 259059 261548 264920 274783 279715 285217
1778.06 294635 304997 317995 331505 344695 357478
1780.96 376019 393695 408202 424017 442136 461072
1783.85 489016 521567 544582 573816 612243 652739
1786.74 693829 742636 799480 860810 925472 994634
1789.64 1075339 1171077 1270854 1372079 1493895 1630981
1792.53 1751313 1868526 2004638 2143751 2291236 2446973
1795.42 2608330 2772242 2937856 3110393 3275411 3437029
1798.31 3601802 3759245 3904559 4030017 4139949 4240454
1801.21 4319744 4381086 4428682 4456424 4465698 4465472
1804.10 4455471 4426500 4379662 4332144 4301683 4265463
1806.99 4222534 4185869 4154978 4163251 4186975 4198283
1809.88 4210640 4239000 4267833 4250824 4219064 4134132
1812.78 4026860 3940958 3874290 3850391 3854541 3896437
1815.67 3957430 4041753 4133332 4228168 4322202 4398685
1818.56 4461057 4498296 4508397 4487957 4436290 4355455
1821.46 4249826 4116503 3957610 3781512 3585478 3377181
1824.35 3164118 2940945 2713339 2490069 2272508 2063327
1827.24 1862605 1671572 1498428 1342148 1197491 1064236
1830.13 932248 814956 716329 628427 549964 479361
1833.03 421495 370096 325991 283992 244325 211737
1835.92 184587 163129 145389 129289 110931 100451
1838.81 89485 77310 72691 64543 56789 52173
1841.70 47363 41915 39221 45073 59088 49938
1844.60 33408 29430 23731 17725 18061 21395
1847.49 20189 19651 23422 26217 24140 18749
1850.38 18065 19602 18001 20899 24000 26384
1853.28 27195 25551 27387 27973 26061 25585
1856.17 25378 27571 29771 31226 33796 34769
1859.06 35744 39711 43913 45919 47794 47819
1861.95 51873 57125 58587 59706 61030 64270
1864.85 65826 66872 65883 63990 66052 72665
1867.74 74907 72802 81569 79212 71753 70886
1870.63 68620 69658 66625 65039 67810 67437
1873.52 68765 69297 68412 71315 74709 78854
1876.42 82009 79712 77888 76805 76490 75428
1879.31 73641 72580 66695 64938 69157 67753
1882.20 64892 61909 64080 68290 72142 82093
1885.10 93198 102923 105643 105420 104626 99426
1887.99 93894 88915 84918 77150 63105 55260
1890.88 53044 46919 40756 37264 34034 33230
1893.77 30864 25929 25575 24833 23456 21769
1896.67 20715 21542 19710 18937 20816 20667
1899.56 20093 16889 13478 12439 10604 7523
1902.45 6674 6092 6439 7953 4434 4308
1905.34 7930 5733 856-964 1145 3360
1908.24 2669 3460 5101 7201 8690 9090
1911.13 13580 18133 21039 25102 26969 28216
1914.02 29121 29354 26080 23160 24936 25544
1916.92 26111 31358 30486 28040 31240 32768
1919.81 38379 45995 55147 61112 63224 68214
1922.70 79285 87946 94955 103983 113514 124072
1925.59 134581 143199 156366 174509 186460 201147
1928.49 220419 238788 256242 275166 297890 323197
1931.38 352358 383657 416247 451477 490273 532551
1934.27 577914 623947 674688 728105 790975 860145
1937.16 929080 1006060 1087967 1172946 1262896 1360608
1940.06 1461127 1561310 1669516 1785497 1898629 2004595
1942.95 2109218 2215008 2315907 2412209 2509693 2599017
1945.84 2680732 2757497 2820682 2872699 2919519 2955788
1948.74 2993372 3038867 3049490 3031729 3010027 2990272
1951.63 2975859 2957700 2931261 2900115 2881113 2878468
1954.52 2878603 2865373 2851930 2828753 2813324 2806144
1957.41 2775373 2743771 2688151 2615641 2559026 2526637
1960.31 2520979 2534277 2571524 2626135 2688506 2755362
1963.20 2826947 2891162 2949872 2992269 3011736 3012299
1966.09 2986995 2947178 2889952 2811062 2714204 2601257
1968.98 2481618 2345796 2198383 2053985 1906558 1757108
1971.88 1608520 1462571 1324539 1193617 1069941 957922
1974.77 855416 761756 675713 594376 528318 470620
1977.66 411465 358341 314825 274734 238124 215569
1980.56 196734 173818 160107 147777 138260 135905
1983.45 131202 126908 120324 118558 124141 130454
1986.34 132022 137829 153357 178541 206939 238527
1989.23 228477 144305 84032 72465 67830 64676
1992.13 62238 58704 61173 66977 72536 75588
1995.02 74801 76606 77366 79521 86827 86635
1997.91 84891 95695 113880 123661 116906 122244
2000.80 120458 125700 165571 204525 248463 222965
2003.70 166569 228559 382697 598911 507399 190088
2006.59 108040 115782 140899 213009 230047 171085
2009.48 122433 98078 84795 76700 68235 67685
2012.38 69448 71460 75181 74016 74597 80929
2015.27 87719 93876 98306 103265 104301 106155
2018.16 108659 103814 102913 112461 111920 104560
2021.05 104664 107182 105172 95326 90805 84819
2023.95 80749 80923 74630 69598 64442 61099
2026.84 53645 46895 43886 41157 42072 37884
2029.73 33066 30128 27917 29826 28220 23699
2032.62 21088 16470 14822 11269 9877 12064
2035.52 11742 16162 20536 9985-1565-2376
2038.41-6220-7852-4730-5603-5739-5476
2041.30-7175-5428-2730-4680-3423-3466
2044.20-6944-9982-9266-5706-7476-11166
2047.09-13260-10998-7327-7807-7777-7234
2049.98-7917-8656-10532-12932-10402-9253
2052.87-11423-11945-12085-9700-9515-11780
2055.77-13373-11491-9961-13443-14728-14267
2058.66-17146-16343-13374-14933-13727-10450
2061.55-12841-16815-15796-13311-13491-15402
2064.44-19455-21809-22279-23529-23465-21483
2067.34-20698-21984-24086-28017-28697-27718
2070.23-27961-28249-27824-28608-31495-27957
2073.12-30280-38115-38250-36916-34112-27036
2076.02-21351-16667-15635-22959-23555-19755
2078.91-20006-21145-21453-21883-19217-12195
2081.80-16246-22587-21912-22696-22654-22435
2084.69-21223-17083-9087-12782-18492-13989
2087.59-10394-4167 1623-3686-6914-715
2090.48-7521-16580-16593-18952-21457-19206
2093.37-17233-12977-5897-14294-22877-24472
2096.26-24566-23629-23324-20619-10984-6679
2099.16-15992-19813-19631-18661-20435-21717
2102.05-18717-5136-5197-19332-21438-23947
2104.94-24202-20208-21264-15948-2839-15649
2107.84-28387-23030-18590-20135-21939-21956
2110.73-5535 2058-15903-22130-20959-22986
2113.62-25118-25376-17530-1439-11862-28561
2116.51-27516-23026-24973-26657-22096-4963
2119.41-1825-18416-22299-20608-21918-24107
2122.30-23316-11225-4281-19472-24673-25143
2125.19-24483-20282-20438-11323-521-11128
2128.08-20126-18053-20341-23336-20585-19252
2130.98-12467-10801-17590-16553-18767-21523
2133.87-19609-13203 369-5288-16886-9033
2136.76-1777 14502 15806-9324-16402-18010
2139.66-20543-17709-16306-15314-15909-14529
2142.55-9499-680 7089 947-14464-19834
2145.44-20766-20245-18484-20774-22805-18695
2148.33-17722-21255-20823-16021-9086-12531
2151.23-18129-17943-19062-16224-15812-10574
2154.12-5683-15146-18715-20965-24776-23576
2157.01-21554-6353-1840-15038-17673-17146
2159.90-13802-14310-11828 4809-1798-19240
2162.80-20773-25005-24806-21962-5780 6781
2165.69-10052-19793-21297-19633-20145-15668
2168.58 8266 3159-18559-20439-20446-20761
2171.48-19638-2744 4316-16246-21999-21480
2174.37-23702-22546-5485 11751-5458-18131
2177.26-16582-16717-20766-15015 5652-3977
2180.15-20119-20507-17485-13718-9494 5258
2183.05 1863-11209-13391-13132-11702-8500
2185.94 4812 2609-9151-8693-6836-5302
2188.83-1009 10887 10315 4155 4466 2553
2191.72 8330 16820 24875 24611 19203 18584
2194.62 18309 26660 41228 51540 53767 55051
2197.51 60293 69638 81947 97585 113965 116942
2200.40 125303 135682 142354 157393 175128 194024
2203.30 206352 219355 238893 257854 279899 301258
2206.19 317869 334728 349498 364466 373195 380672
2209.08 388519 384987 377570 369301 355835 334313
2211.97 315021 300905 279576 259416 255578 264271
2214.87 284197 307975 333799 369289 400795 418815
2217.76 423272 418466 402533 372964 346498 320285
2220.65 290630 265146 241813 220540 201588 182154
2223.54 164881 149567 133069 118983 110961 100886
2226.44 90783 87504 80533 71580 59428 51795
2229.33 49746 43753 39760 32065 24633 21025
2232.22 22173 21077 19123 16588 10769 7218
2235.12 4202 2540 1945 101 504 242
2238.01-1176-5047-10104-11040-12107-10123
2240.90-13392-17521-17035-18094-19047-18887
2243.79-16379-17847-18866-16104-17686-19148
2246.69-15504-14719-17945-15341-13506-17558
2249.58-16759-17543-18243-16056-16469-15720
2252.47-17127-15461-10435-10204-14784-19378
2255.36-19535-17662-16346-14966-13228-11504
2258.26-14129-14915-9243-10639-11404-9996
2261.15-12745-12301-10471-7908-2817 1007
2264.04 1564 3178 5447 4512 8762 9913
2266.94 6403 10412 13959 12928 12355 11349
2269.83 14622 16558 15655 16412 16522 14910
2272.72 14335 17837 16236 11979 13743 14949
2275.61 13698 12448 11374 13414 12368 7352
2278.51 5707 10283 11498 8635 10395 11652
2281.40 15590 14949 10563 10840 7807 7605
2284.29 9317 10970 14648 15977 18228 17463
2287.18 12568 11488 13880 13971 11101 11161
2290.08 12157 12804 10559 8165 11109 11419
2292.97 8621 6058 3715 6474 9161 6690
2295.86 4844 5586 9952 8874 5643 8929
2298.76 10050 6154 9790 16431 19824 21222
2301.65 26823 34515 38547 44864 55505 65851
2304.54 74358 84322 96646 114795 130855 138157
2307.43 152996 175972 201882 221293 241209 266633
2310.33 296103 324285 346848 375236 408776 436120
2313.22 453109 470679 495336 521980 533632 541628
2316.11 556582 570606 570861 565372 562196 565210
2319.00 556041 536186 527866 527032 512764 489970
2321.90 483958 493326 490610 474969 472749 498773
2324.79 511465 499681 502418 562440 649244 655704
2327.68 643641 640419 611779 576424 574056 597019
2330.58 582077 576509 614017 630562 609952 606836
2333.47 628618 623176 595303 602257 615537 583246
2336.36 550885 555284 542550 495291 474836 472961
2339.25 434925 388343 380333 363429 313692 288989
2342.15 284302 249989 215330 208868 190551 155088
2345.04 139976 136242 113746 92839 90155 78457
2347.93 62047 56171 53306 50484 42053 39056
2350.82 46559 41582 34630 43188 34246 25076
2353.72 47727 46911 29193 49128 50912 34602
2356.61 58038 58208 42386 65478 59230 46836
2359.50 75097 64195 62886 91652 70793 77367
2362.40 103033 91636 115750 132097 117296 118456
2365.29 96642 96840 110956 101586 113412 102034
2368.18 94033 97792 86105 96838 92898 91509
2371.07 100353 96750 100362 91477 93383 90836
2373.97 87683 88025 82961 86359 84666 82524
2376.86 83043 85347 85504 92764 97106 89660
2379.75 87141 95134 97834 99083 104259 110139
2382.64 121770 138387 156858 167750 183893 258099
2385.54 288530 228342 174557 141182 126743 116720
2388.43 106135 104594 111750 117091 121625 124462
2391.32 125838 129911 131812 138459 142592 141175
2394.22 144281 147779 150203 149364 148980 151116
2397.11 151616 151341 150464 149348 160436 161859
2400.00 148313 138367 133372 127588 119580 118358
2402.89 117994 117479 116815 113054 115685 124711
2405.79 130034 134641 146712 161675 163790 156898
2408.68 192272 226615 192691 148411 113867 88173
2411.57 73376 66342 64029 56863 55736 58876
2414.46 55358 55992 62143 65307 65546 62655
2417.36 67193 68721 68418 72786 72737 72235
2420.25 74454 73114 73836 77121 74075 65040
2423.14 64502 68357 66545 63754 58638 51205
2426.04 45574 44040 42768 37078 31080 30136
2428.93 28856 25751 20408 16669 16020 14766
2431.82 12478 9950 11980 9497 5308 8057
2434.71 6946 1179-237-177-4102-3183
2437.61-737-6992-3675 439-1759-2333
2440.50-5590-5221-2916-1503-3297-3189
2443.39-2182-3942-5870-8092-7766-8239
2446.28-7588-3420-5244-11940-10876-5799
2449.18-9292-11011-9009-9829-8582-9198
2452.07-10065-9986-10293-11908-11515-8740
2454.96-8633-10063-10208-10009-7626-3883
2457.86-3577-3984-2453-1686-1264-1710
2460.75 84-3044-5226 216 124-1202
2463.64 2714 2519 2034 2888 1383-53
2466.53 1153 3693 2088 1319 3909 7122
2469.43 11612 13862 12761 17574 19241 16507
2472.32 19076 19265 17514 17468 16988 17180
2475.21 20483 23935 23785 21427 17249 14228
2478.10 16642 16726 13832 17562 17626 13624
2481.00 14017 17136 19829 18498 14443 14514
2483.89 23655 28557 21739 17217 16361 11838
2486.78 11242 13182 12714 13595 17703 18548
2489.68 18002 18869 18065 13837 8525 10497
2492.57 16657 19812 17894 14450 17119 20084
2495.46 17934 13447 6863 3933 3761 121
2498.35-1421-1104-3843-7463-11131-10307
2501.25-8350-11991-13315-13922-13519-13221
2504.14-15090-14155-18530-18494-18590-20143
2507.03-15102-17363-19856-16466-16577-20311
2509.92-22861-26864-24783-21597-19267-18751
2512.82-20256-18494-19711-19855-19145-13799
2515.71-13546-21679-24286-25279-23151-19656
2518.60-19085-20062-20246-21747-24565-22810
2521.50-19190-20031-21472-23122-21994-19711
2524.39-20481-20335-24877-31094-30387-23430
2527.28-17958-21536-27341-26034-25970-26505
2530.17-25350-27772-28752-28287-26582-24205
2533.07-23038-21069-19628-23455-28355-25505
2535.96-23760-20366-15868-17882-18897-19943
2538.85-20631-15955-12307-15999-18089-15821
2541.74-14068-10346-10880-12281-10864-11735
2544.64-8969-7597-4050-3809-8404-8687
2547.53-8178-6457-6733-9762-10795-4110
2550.42 3269 8450 10495 9210 10665 11551
2553.32 11552 17045 23330 24173 31850 36267
2556.21 38160 38651 29046 11807-2026-3834
2559.10-1356 1350 2961 328 1155 3946
2561.99 4620 6368 9801 11866 7404 4637
2564.89 3137 2374 7970 15377 11597 9748
2567.78 15286 12695 12637 12592 10944 12123
2570.67 13787 13466 15841 17858 18295 20256
2573.56 22476 28419 37336 50879 79803 86853
2576.46 56788 36380 30848 26081 21011 19808
2579.35 21390 18252 19117 23103 24437 24199
2582.24 23289 28350 34618 40194 44896 48124
2585.14 49767 53270 58008 63637 72153 74131
2588.03 75057 78375 85313 90019 90361 95389
2590.92 99225 102729 107027 111385 115916 121471
2593.81 125919 122778 121130 125866 128064 131218
2596.71 134808 134236 135779 136892 135701 135661
2599.60 139787 145496 150936 156565 159337 167941
2602.49 188551 203541 209161 219837 225709 218050
2605.38 219116 234615 248812 265280 282172 290778
2608.28 298614 308046 316712 322520 320126 315952
2611.17 310523 299031 283135 268182 252363 236117
2614.06 217965 199893 184882 166668 152972 143293
2616.96 137365 129788 119302 112115 107930 109957
2619.85 106950 106048 123465 129550 116550 107335
2622.74 103695 102155 98431 92450 87858 85516
2625.63 83927 85382 84285 77568 79839 82084
2628.53 73492 69841 71024 70394 71359 70223
2631.42 68546 62680 55056 49953 47520 48662
2634.31 46920 42987 43646 43202 38646 36529
2637.20 35170 34206 34296 32374 31624 33447
2640.10 31468 33735 41727 44440 51904 55614
2642.99 51008 54046 64447 72468 78756 82739
2645.88 87367 95953 104138 112868 116068 124081
2648.78 134565 134000 140422 143914 139484 140800
2651.67 143033 141296 134510 132941 132190 128130
2654.56 124004 116566 110447 102449 101990 103797
2657.45 103490 103800 103137 106501 104313 106719
2660.35 109507 109225 120565 133295 143646 147754
2663.24 148417 154780 159027 156507 155312 153734
2666.13 144771 135696 131151 124164 111136 94632
2669.02 86635 82647 70718 61619 54952 52340
2671.92 48992 40816 31861 25324 19326 10910
2674.81 6451 2072 774 116-2269-2451
2677.70-6266-4241-654-3902-9750-13446
2680.60-14453-14074-16802-18263-15431-16708
2683.49-13861-13768-16794-15058-13771-19903
2686.38-27311-25489-23783-22748-22058-22825
2689.27-24326-24248-23055-27352-29384-25831
2692.17-24583-24484-27444-29723-27486-28031
2695.06-27324-24926-28819-30798-29365-29630
2697.95-29798-30825-33604-33994-34575-41841
2700.84-42733-39552-39969-37679-34998-35490
2703.74-28455-23472-24761-26618-30315-31774
2706.63-26253-24845-30382-29892-26556-28668
2709.52-25130-16807-14405-19680-21927-20558
2712.42-27584-29560-23087-21506-23376-24187
2715.31-25407-31556-33458-27840-27478-31623
2718.20-32610-27898-28764-35058-32336-32699
2721.09-33109-29513-31192-30704-29645-32675
2723.99-35703-35320-34400-28909-30290-33856
2726.88-33090-28909-25986-25005-21059-19825
2729.77-28764-34170-27275-31695-31012-25157
2732.66-29524-31626-32410-31785-27336-21257
2735.56-19987-24027-29454-26905-20806-22358
2738.45-18590-22061-29851-32382-29068-23600
2741.34-27417-30808-30211-28387-27311-29178
2744.24-26805-27465-30444-29796-30436-26745
2747.13-23779-24517-26794-28115-27246-26935
2750.02-26253-26742-30712-31568-31060-34796
2752.91-32597-31543-34497-29681-26060-30322
2755.81-32658-34694-32822-29165-29212-28193
2758.70-29415-32797-27711-21583-21909-26961
2761.59-25975-21069-28455-31457-29564-28423
2764.48-23896-24921-26057-28441-32854-31741
2767.38-30410-30064-27057-27094-29506-28484
2770.27-23670-22702-24305-25047-29152-29618
2773.16-26037-24857-29247-27472-22158-18178
2776.06-10489-14411-22972-25809-28498-27801
2778.95-26654-22538-25993-33844-28248-23626
2781.84-23519-21399-17615-15872-15281-15191
2784.73-12685-12909-18443-20910-22757-22999
2787.63-14251-6853-8551-6508-5749-4995
2790.52-533-3054-7535-5912 3042 12205
2793.41 13499 16586 23647 26549 26728 28124
2796.30 29882 33296 40921 46569 49029 51076
2799.20 52563 57680 64579 71003 83518 86439
2802.09 92572 104782 106782 110682 118153 127874
2804.98 140189 149866 159703 165861 171946 181779
2807.88 191166 203096 217596 223912 229973 237551
2810.77 241588 257422 267847 271772 275063 275917
2813.66 282514 290387 292450 294972 302802 304490
2816.55 308611 314020 310254 307351 314699 316093
2819.45 311470 313074 309741 306908 308500 309318
2822.34 311720 320310 336789 357083 376423 390426
2825.23 396109 406066 418972 417304 417062 456625
2828.12 465379 426571 400192 376547 355804 333500
2831.02 308573 296816 293946 291039 296496 295002
2833.91 293160 301711 306778 313106 317796 314232
2836.80 317518 327042 329077 331677 337381 337996
2839.70 333164 330199 334535 330758 326485 323038
2842.59 313867 308840 303513 292372 282361 279888
2845.48 273750 258423 254133 252235 243426 237825
2848.37 228614 219431 220452 230408 232671 230077
2851.27 233915 237968 241431 248175 262847 276091
2854.16 272139 254452 228634 208168 199105 189672
2857.05 181820 175673 171658 170133 171031 172882
2859.94 177152 177412 183235 192741 199859 210027
2862.84 212605 219279 227797 228809 230086 238567
2865.73 241866 243234 245058 245645 250391 245894
2868.62 240347 244689 254578 251330 239103 235280
2871.52 238361 247479 248255 252319 258161 267017
2874.41 278189 282405 294002 305328 318500 332099
2877.30 342646 353263 373630 384422 393546 417406
2880.19 429362 441548 454620 461917 471292 478513
2883.09 494201 505367 503231 510884 519072 528186
2885.98 542568 551437 557663 570721 584406 598532
2888.87 618932 637755 658837 677537 694931 710611
2891.77 733093 763329 790548 822753 864591 914263
2894.66 961640 1004340 1051160 1085596 1109305 1139436
2897.55 1158858 1157764 1137052 1100823 1056056 1000140
2900.44 939419 878096 812114 752485 704088 654450
2903.34 608713 576494 553312 531061 513753 498524
2906.23 487898 476178 465928 453175 436464 434490
2909.12 428986 418782 407452 389825 367511 354125
2912.01 347067 331979 323571 314400 305773 302855
2914.91 297239 287982 278783 273664 266763 259256
2917.80 253979 250962 240787 234089 231160 222101
2920.69 208653 190089 174173 161187 149269 139524
2923.59 125054 115682 112608 97243 90121 83745
2926.48 74716 75250 67661 53578 40718 28540
2929.37 28832 24900 12461 10939 11328 11390
2932.26 4694-1321-881 7 118-5384
2935.16-4194-310-3655-7228-10645-18167
2938.05-18706-12076-13767-18816-23299-22478
2940.94-17884-23889-30373-30640-23903-25553
2943.83-29421-21498-24584-29966-25834-24953
2946.73-22439-19796-28255-30598-26947-23120
2949.62-22448-25537-22996-19270-21739-20907
2952.51-14157-14402-8911-6916-12700-11039
2955.41-10146-15711-18497-13174-12105-12723
2958.30-18498-32288-31764-32575-33284-34780
2961.19-44116-38365-32433-42316-46819-44961
2964.08-51954-53349-51025-50961-43534-36849
2966.98-35614-34523-32756-34939-32342-29423
2969.87-29372-22887-18369-14884-2246 6974
2972.76-161-6096-4837-1962 1148-298
2975.65 4303 5529-271-409 792-2425
2978.55-6166-4986-3299-320 7940 4699
2981.44-3030 6077 7490 5880 9501 12854
2984.33 21456 22428 26432 32267 29579 29086
2987.23 31984 29068 23007 20052 26387 34406
2990.12 29577 31737 34836 42635 51725 51897
2993.01 53282 50291 42991 39829 44703 52296
2995.90 62076 59406 56553 61250 60841 62935
2998.80 67949 71624 82889 91720 94539 97802
3001.69 105051 116519 126101 129024 133725 145529
3004.58 157134 163688 171197 182722 194568 207413
3007.47 217236 230781 253258 274886 294525 314894
3010.37 331189 356307 389351 431295 471076 507896
3013.26 560706 620835 680173 752254 835145 924069
3016.15 1020553 1127425 1242793 1374475 1527419 1681295
3019.05 1848766 2047900 2271698 2507893 2773887 3070428
3021.94 3389712 3736140 4118093 4539825 4992551 5494281
3024.83 6033118 6606710 7228374 7892356 8609208 9366753
3027.72 10156379 10986698 11864689 12777907 13717459 14674644
3030.62 15651799 16646200 17633201 18595101 19531521 20452265
3033.51 21337227 22169415 22938781 23631743 24234644 24751810
3036.40 25179358 25498414 25703482 25759793 25711420 25735577
3039.29 25779643 25775205 25636215 25249149 25020004 24963624
3042.19 25117209 25353532 25568842 25987288 26640306 27467790
3045.08 28403631 29329160 30055327 30699443 30787992 30514503
3047.97 29804195 28728731 27665013 26741369 26098506 25677834
3050.87 25539451 25583823 25873583 26292603 26811098 27403354
3053.76 27982441 28524010 29000650 29363344 29596351 29642371
3056.65 29528222 29250936 28802798 28190151 27430293 26526209
3059.54 25493331 24359132 23151223 21917067 20688970 19507053
3062.44 18365554 17248544 16172110 15219188 14447338 13799567
3065.33 13236320 12771053 12407313 12140762 11979471 11920738
3068.22 11960427 12081826 12254428 12490543 12775674 13097453
3071.11 13412032 13701703 13949215 14163284 14293391 14287358
3074.01 14162190 13946420 13603586 13095208 12527838 11970530
3076.90 11484528 11100830 10978860 11276273 12069854 13361709
3079.79 15099047 17005049 18476409 19086722 19125118 19040525
3082.69 18908252 18705558 18516385 18491756 18610050 18562072
3085.58 18461837 18538335 18639397 18715566 18783380 18907015
3088.47 19036343 19163676 19307990 19432278 19522585 19551770
3091.36 19513973 19368022 19273734 19285049 19171801 18936400
3094.26 18711638 18589942 18482879 18341637 18286907 18316354
3097.15 18313664 18459770 18604982 18861400 19250406 20426341
3100.04 20290401 17730850 17823793 19125830 18583278 17798799
3102.93 17155809 16644113 16294505 16115724 16083799 16230368
3105.83 16457167 16739155 17059676 17405580 17733694 17992771
3108.72 18199852 18308230 18301880 18192444 17975951 17635578
3111.61 17189885 16639514 16003327 15291324 14504606 13684537
3114.51 12828002 11955091 11071220 10191471 9329802 8490405
3117.40 7687272 6930686 6215015 5552950 4954554 4397539
3120.29 3883352 3421268 3013931 2656615 2339752 2056313
3123.18 1798184 1580655 1399499 1239921 1108093 987588
3126.08 877913 780512 694211 613913 549204 500693
3128.97 449504 402972 363783 331382 298502 276187
3131.86 259709 232838 209961 192570 171798 159600
3134.75 147083 129453 118529 111428 100421 88812
3137.65 81650 76695 69947 63042 57397 57670
3140.54 60911 54800 46668 39755 36248 29477
3143.43 24144 29532 25532 20369 23133 19575
3146.33 20093 18578 13572 9839 3677 3706
3149.22 178-647 6254 5682-2933-3777
3152.11 6195 3126 2695 4809-2942 359
3155.00 4057-5402-8310-7603-5008-1431
3157.90-993 420-2354-1728-3935-8520
3160.79-6448 2540-571-5567-5947-17622
3163.68-17583-8141-1154-1259-2982 786
3166.57-9115-16715-4596 1124-8551-15906
3169.47-14181-12389-12071-10523-2130 1573
3172.36-5116-3323 2758 3305-6006-16829
3175.25-8186-12524-31078-22838-7448-6794
3178.15-11884-13012-9439-7297-7481-8826
3181.04-4637 326-145-790-10340-16946
3183.93-11648-18407-25949-19669-12384-13287
3186.82-14545-12737-9195-7864-14361-17033
3189.72-10952-6584-7836-7105-3195-7774
3192.61-19660-22996-19739-13746-15214-15267
3195.50-16129-22903-19737-16848-12741-12339
3198.39-16025-9442-10446-18786-16547-16655
3201.29-16245-10918-12061-16490-22268-25499
3204.18-22070-21318-18792-22824-25007-24051
3207.07-23763-26105-24213-18164-18890-7901
3209.97-9557-19349-18633-23006-22916-22363
3212.86-25501-27161-27855-26571-25139-18891
3215.75-18045-21092-27431-19416-6697-16236
3218.64-21822-19018-19833-25636-20397-16072
3221.54-21730-21499-14462-11776-14779-14950
3224.43-17958-22190-16497-9520-11724-17698
3227.32-21500-16712-8874-9950-13404-8384
3230.21 2-6771-19316-16773-14380-18304
3233.11-19974-14723-14871-17680-10789-6383
3236.00-6128-9385-15411-13930-6197-2259
3238.89-8855-7753-1272-3548-8437-11166
3241.79-11440-14213-4649 5928 2109-8088
3244.68-12176-7323-9944-19511-12210-2996
3247.57-7610-10126-9023-6036 288 4785
3250.46 4222 2507-5290-8002-7853-12513
3253.36-7140-2265-6295-8818-12570-10952
3256.25-4792-5701-9775-3089 2753-4609
3259.14-7753 4854 2126-5942-4945-9342
3262.03-7756-7074-5016-10493-13617-15467
3264.93-11764-7819-8720-16151-25470-16228
3267.82-15851-19098-15078-18361-24704-20050
3270.71-15187-20798-24661-21606-17987-7370
3273.61-8223-23174-19876-17694-23679-24395
3276.50-24038-23641-30520-33495-22962-20169
3279.39-21048-22277-24851-22922-18949-21621
3282.28-23240-24517-23730-24695-28080-27236
3285.18-25393-24135-28826-31324-33102-29803
3288.07-29867-23957-18716-25119-26222-29051
3290.96-33306-31592-26614-18961-18196-25458
3293.85-25740-26155-25708-28268-29957-31150
3296.75-30169-24227-31122-35221-23999-19121
3299.64-21770-22827-34826-40495-32826-25201
3302.53-26560-33488-38063-35334-33838-41543
3305.43-43059-42709-35572-27867-23591-13990
3308.32-13411-26735-31050-30594-31735-25600
3311.21-24814-29184-22418-20473-24502-23674
3314.10-21810-27167-27836-23605-22247-19802
3317.00-28075-33499-32525-35697-35651-32698
3319.89-32440-29883-32399-32008-22294-15699
3322.78-22706-31722-28081-22966-22975-29874
3325.67-34538-31157-28619-27847-26648-26104
3328.57-27136-29011-29304-35866-40883-38737
3331.46-36571-31073-30837-32995-18971-16028
3334.35-26161-31709-42377-32482-21348-33656
3337.25-38691-35168-30505-33957-35004-36573
3340.14-31517-21186-30747-32017-33784-34700
3343.03-25267-25464-24507-26875-33022-37149
3345.92-38259-34726-30532-29147-26453-31442
3348.82-30672-23579-20478-25785-34361-25196
3351.71-18696-28590-34232-24855-20476-23020
3354.60-20645-21176-22512-25727-32113-35189
3357.49-31704-25411-20864-28442-38783-28206
3360.39-19018-21359-25950-29386-21603-19103
3363.28-20417-21614-25208-27200-21870-19649
3366.17-30363-25939-29668-35159-25360-26301
3369.07-26820-20370-24771-35039-39947-36657
3371.96-35231-27396-15835-19338-20948-24545
3374.85-28211-23487-19781-14845-21883-22908
3377.74-17785-22079-19181-22085-26422-20287
3380.64-19067-25582-21366-14230-17938-16014
3383.53-9775-13989-22150-17761-11166-20637
3386.42-16148-8469-13874-6556-8294-11107
3389.31-13445-20346-14544-17725-10014 4542
3392.21-4034-12288-10872-14883-10769-4452
3395.10-5509-3437-4084-8352-9696-6325
3397.99 208 2754 1991 2841-1510-1417
3400.89 2079-1004 986 5375 12734 8532
3403.78 2797 2532 3414 14649 19464 16069
3406.67 13850 10059 7464 16178 26317 18265
3409.56 11348 15720 13267 9856 7163 3701
3412.46-4232-10186-5723-715-1604-8165
3415.35-4033 1874-2146-3299-1060 3560
3418.24 4678-3138-9322-3341-6425-16989
3421.13-16197-17238-12590-8164-6418-5199
3424.03-6717-5069-10918-9526-773 9439
3426.92 15095 1460-1024 5670 6821 6230
3429.81 1083-7138 2137 11918 6566 3218
3432.71 4277 2753 914 11567 15195 7758
3435.60 11810 23593 24421 26343 27811 17618
3438.49 15000 21734 13516 4335 3409 5786
3441.38 19541 24296 12896 3179 5819 10771
3444.28 17174 8074 13447 20282 9646 9936
3447.17 16677 18500 14717 17303 8386 2484
3450.06 11251 20759 18035 15964 39150 70858
3452.95 138672 206954 364792 384923 181043 103925
3455.85 59036 27370 24198 1828 3158 6824
3458.74-3041-10237-8271-6886-8592-12269
3461.63 5152 12636 2568 8464 9379 3597
3464.53 2772 2388 7265 14302 3132-5227
3467.42 402-1213-2823 2828 13436 11140
3470.31 11094 13837 6815-7488-12194-6566
3473.20-788 2143-6086-6156-6580-20669
3476.10-16227-4036-13856-20574-14109-15765
3478.99-19337-10995-14051-15658-11692-22264
3481.88-22182-18784-23793-16753-9384-6842
3484.77-10053-21589-21260-23895-28531-16570
3487.67-16254-22659-30203-30157-19313-24488
3490.56-31123-29374-33791-39705-33123-21550
3493.45-14630-13535-15204-24832-29811-23160
3496.35-21735-16710-16649-22133-26158-28043
3499.24-24542-28643-30213-25662-24068-25157
3502.13-21911-22752-25781-26388-29646-35441
3505.02-32690-27110-26672-32719-34713-28292
3507.92-29628-23535-19130-21832-23091-31436
3510.81-35122-33600-29569-23673-25729-27348
3513.70-23130-28765-29308-16232-11238-16269
3516.59-20982-20256-27375-33296-21584-18217
3519.49-18894-10810-17051-27115-27919-21668
3522.38-10553-8553-14069-19837-23818-20890
3525.27-23831-28365-26373-26837-19368-17492
3528.17-24990-26507-34506-30992-22321-21068
3531.06-25442-29754-26143-28103-23845-22888
3533.95-34000-34853-25547-29202-29016-23088
3536.84-26673-33534-32749-24429-23228-22280
3539.74-19809-25963-26369-23084-24275-30842
3542.63-34342-33396-27954-23937-27928-33298
3545.52-25787-16071-22407-28598-32897-33522
3548.41-34823-23579-17318-30547-27201-30847
3551.31-35023-34446-33341-27006-28461-33511
3554.20-29797-26792-29880-26754-26042-25161
3557.09-28687-36695-41508-36870-29700-28273
3559.99-31079-28458-23670-27402-28234-25186
3562.88-23475-28488-34411-33275-29177-30368
3565.77-24594-12756-17454-24027-22813-22133
3568.66-18905-19963-25518-26207-27167-30624
3571.56-24147-20378-24333-26605-32875-33508
3574.45-33002-37437-27050-22472-28083-29069
3577.34-30056-30905-33638-40311-32201-21393
3580.23-27541-37099-34310-24663-23209-29255
3583.13-33922-40907-43208-32661-27715-24431
3586.02-22327-26528-30494-30304-22520-19286
3588.91-25085-26118-23713-25482-28488-33708
3591.81-33281-25986-24426-23914-24358-23935
3594.70-19061-15736-8927-5708-8738-1699
3597.59 158-5530-3515 938-4 1255
3600.48 3980-2729-5698 158 1217 5391
3603.38 14466 13631 12347 13586 20599 32037
3606.27 31439 26503 26551 30328 38249 49000
3609.16 39182 21961 20740 23175 20896 23763
3612.05 34083 31033 25959 24151 19965 21590
3614.95 30465 23599 19598 28444 37623 44552
3617.84 45180 45689 68386 94683 87381 103827
3620.73 137742 125340 132414 135615 95177 60404
3623.63 43650 35938 23537 18974 22250 24054
3626.52 26332 32740 47669 57456 54929 70055
3629.41 72450 60376 59266 59539 65658 67403
3632.30 69554 74920 79525 80983 80384 87386
3635.20 89215 87279 90354 92311 97592 103879
3638.09 103517 109219 120969 122887 122544 126480
3640.98 135609 145912 155423 157522 168881 186847
3643.87 201794 219353 233660 244593 254959 281127
3646.77 307351 313394 313468 325525 351179 339862
3649.66 319418 318468 301858 267356 236780 220706
3652.55 203441 198230 208311 222319 250586 295037
3655.45 352358 395643 400199 389938 370408 343621
3658.34 320896 295346 266635 238753 218327 202913
3661.23 185456 171358 150573 128668 120109 113000
3664.12 99788 97450 91409 77641 74188 66335
3667.02 64085 65378 71491 70414 52364 51388
3669.91 79503 87292 60100 52560 58604 56642
3672.80 54545 53530 54875 63595 58078 70483
3675.69 76772 49529 37846 35068 38112 44380
3678.59 49222 55152 53158 51176 54111 56131
3681.48 59274 61442 65622 65346 67614 71464
3684.37 72879 74744 77560 78688 85061 87510
3687.27 96698 133049 133396 112381 113645 118714
3690.16 133014 150014 157144 160834 165152 168698
3693.05 178098 185442 190487 192615 201530 218054
3695.94 233434 247945 246084 236323 230529 227587
3698.84 230677 238025 245977 251212 258493 266104
3701.73 257868 241391 231673 224698 219546 216566
3704.62 215260 209862 211066 227682 237559 239688
3707.51 250565 252735 261092 277208 281865 290969
3710.41 292810 276652 275075 258648 219040 192637
3713.30 168142 148783 139104 127621 118197 110393
3716.19 95502 86297 78460 69815 64985 59908
3719.09 56325 47049 41949 40106 35673 43447
3721.98 49350 41421 43759 45827 40681 38788
3724.87 30270 22094 30124 36057 25534 22979
3727.76 29481 26850 17901 14059 15033 16568
3730.66 17830 26750 34948 24630 17966 10869
3733.55 4320 14251 22468 15681 9750 20547
3736.44 22468 2854-6057 6650 11240 3720
3739.33-3626 1088 16345 20585 24201 28872
3742.23 26152 38505 82661 113400 193527 242398
3745.12 99501-6446-8040-7341-8667-16096
3748.01-10944 19349 32474 3560-8513-4805
3750.91-5080 30120 46363 5351-3371 69
3753.80-4701-4900-349 795-956 2950
3756.69 4936 4378 7973 3143-5095 2302
3759.58 5162-8282-11256-6650-4416-3526
3762.48-5412-5711-8549-4887-7434-11372
3765.37-5618-5001-7289-18748-23827-19129
3768.26-15220-10092-4059-9537-16897-17491
3771.15-22750-19723-11568-13619-14930-14466
3774.05-16755-20663-19140-12791-15531-19609
3776.94-21416-15249-11719-14974-2871-789
3779.83-7104-8217-10151-15513-21923-18704
3782.73-15026-14477-17578-14700-9074-19125
3785.62-21006-17759-19946-18718-17638-16539
3788.51-15158-9304-8646-17733-21213-18631
3791.40-17565-19750-21294-23722-23791-20498
3794.30-21492-19774-18571-8337-8182-21775
3797.19-17820-14079-18100-26177-25689-18350
3800.08-14865 14122 30802-1926-21837-19926
3802.97-19678-16391-19882-22236-15326-11235
3805.87-7008 6653-437-18502-28958-29497
3808.76-26488-27304-23042-30739-29722-23491
3811.65-24790-22463-21873-23257-24252-25047
3814.55-24157-10978 21548 9306-20800-24428
3817.44-32143-36431-33865-30047-30161-16823
3820.33-5556-3977-3479-21224-25212-21411
3823.22-29180-31792-30120-29109-26968-22836
3826.12-20758-25991-26831-30397-32167-26047
3829.01-27863-34186-28847-21303-14765-15318
3831.90-32452-34162-26184-29286-27179-10498
3834.79-13177-26383-20626-18768-15852 15877
3837.69 7139-18648-16010-22607-33922-30374
3840.58-16393-28954-39901-34994-27135-18331
3843.47-17094-24083-30352-27417-23264-24475
3846.37-20641-24020-28670-38722-39992-31103
3849.26-29703-30280-31105-26069 5848 19054
3852.15-6932-14847-680 29938 22591-11162
3855.04-24447-31674-27245-18099-17501-24152
3857.94-28721-30735-32953-22911-19656-27928
3860.83-28664-29021-32680-35239-33705-30219
3863.72-26153-21830-15385-23562-29704-18881
3866.61-15595-19453-27527-26064-15844-3944
3869.51 7999-10727-25598-24016-25835-27090
3872.40-25819-23677-21542-21686-24172-27021
3875.29-39101-43466-38369-31166-29183-32687
3878.19-33148-36728-28802-20901-24478-25343
3881.08-22360-22937-25403-22852-23198-27711
3883.97-31014-37644-20295-6916-23314-27570
3886.86-20439-24464-31094-16135 3205 19284
3889.76 24457-74-11914-23236-35248-34517
3892.65-34190-35078-32844-31705-31002-28578
3895.54-28251-25148-22760-24923-28170-34267
3898.43-26872-11517-17700-24490-25988-14675
3901.33-5455-21915-30445-24485-16673-14128
3904.22-26486-32266-26614-24420-28216-28943
3907.11-29794-31709-27700-29047-33021-31778
3910.01-26123-27196-30291-21138-11693-16066
3912.90-22636-18156-7246-11014-11171-18244
3915.79-31407-24685-19140-23390-25200-14080
3918.68-11450-11309-10012-13934-14933-20064
3921.58-18454-19705-21899-17419-7806 1794
3924.47 1820-1926-668 13816 17023 12076
3927.36 10263 6249 11530 11572 11211 17837
3930.25 12471 15312 26855 27605 22948 22984
3933.15 27501 30427 36266 37446 35470 34892
3936.04 44088 45586 43579 47988 44066 47319
3938.93 55569 48514 40344 52798 60240 54686
3941.83 60912 75296 78549 72767 87826 98673
3944.72 86130 83912 91917 98674 96951 95920
3947.61 100959 94755 84658 88234 103485 108402
3950.50 111821 121901 123550 118837 119437 119534
3953.40 108639 96643 95345 94275 90700 85538
3956.29 81735 75878 73577 77534 74404 68606
3959.18 70432 72219 78557 81389 70533 69181
3962.07 75599 88166 91967 82018 79421 83574
3964.97 83165 69032 67641 76305 82015 84685
3967.86 81550 80978 76092 71851 74628 77850
3970.75 82631 83239 84712 89063 90045 91923
3973.65 86094 78755
##END=
