##TITLE=Benzene
##JCAMP-DX=4.24
##DATA TYPE=INFRARED SPECTRUM
##CLASS=IUPAC A
##ORIGIN=NIST, Analytical Chemistry Division, 301-975-3108
##OWNER=COPYRIGHT (C) 2000 by the U.S. Secretary of Commerce
##DATE=00/02/01
##$SPECTRA VERSION=1.10
##$UNCERTAINTY IN Y=2.1 % relative (B=1.1E-04,C=5.2E-10,D=5.2E-15)
##CAS NAME=Benzene
##CAS REGISTRY NO=71-43-2
##MOLFORM=C6 H6
##MP=5.5 C
##BP=80.1 C
##$NIST SOURCE=QUANT-IR
##SPECTROMETER/DATA SYSTEM=IFS66V (Bruker)
##INSTRUMENT PARAMETERS=KBr Beam Splitter; MCT Detector; Multipass cell
##STATE=gas
##SAMPLE DESCRIPTION=Benzene Primary Gas Standard
##PRESSURE=101.3 Pa
##TEMPERATURE=23 C
##SAMPLING PROCEDURE=1 L/min Flow
##RESOLUTION=1.9290
##DATA PROCESSING=Triangular Apodization
##XUNITS=cm-1
##YUNITS=(micromol/mol)-1m-1 (base 10)
##XFACTOR=1.0
##YFACTOR=3.6379E-12
##DELTAX=0.9645
##FIRSTX=575.653
##LASTX=3974.61
##FIRSTY=0
##MAXX=3973.64
##MINX=575.65
##MAXY=.0028387
##MINY=-2.88E-07
##NPOINTS=3526
##XYDATA=(X++(Y..Y))
575.65 4388-43708-30293-39972-70071 29560
580.47 64553 81318 33890 21346 54232 142164
586.26 65786 72632 95185 93452 1485 49660
592.05 101635 126760 66873 108251 114944 116586
597.83 86208 69031 71172 127823 106533 144712
603.62 160253 250056 309398 351186 224589 220754
609.40 143676 147989 115501 171817 131444 172273
615.19 165357 229253 194622 249867 219861 306348
620.97 253152 314129 275754 324213 281236 386169
626.76 371459 482850 486960 649943 666795 856871
632.54 948112 1278633 1467918 1906867 2260572 2981650
638.33 3629032 4666732 5695781 7253206 8815420 11009538
644.11 13278345 16322768 19483019 23463428 27518617 32505424
649.90 37411199 43173132 48640071 54793636 60196261 66107472
655.69 70694343 75418563 78048213 80629736 80535194 80452214
661.47 77043882 74209462 67741299 63094569 54241287 50252890
667.26 41985339 46353924 53641128 120359182 267811727 651831342
673.04 780314497 280202437 47037485 54118996 35933699 48944236
678.83 50406406 62668241 68080854 78161605 83127080 89736660
684.61 91862888 94418155 93262743 91974383 87751826 83570676
690.40 77216905 70990435 63564734 56922820 49649439 43336538
696.18 36948599 31645933 26293020 21948024 17877385 14777827
701.97 11818403 9683093 7618198 6217297 4806336 3946398
707.75 3047451 2544850 1956530 1675961 1270064 1128382
713.54 864228 821071 638230 630254 472810 466857
719.33 365469 410757 293310 334798 268070 298311
725.11 235462 266275 201437 250795 189229 223751
730.90 171485 193571 144793 181842 138032 159291
736.68 111782 134960 83758 118175 95875 117363
742.47 72482 97332 69927 106420 72824 94536
748.25 69366 101911 90239 112089 89902 126306
754.04 121455 143010 144365 186809 177084 210413
759.82 207391 240016 232729 276179 279967 303617
765.61 284794 291369 264369 271469 251223 244025
771.39 215499 222730 198838 225063 306498 411594
777.18 823339 1999357 1713384 704258 487118 318348
782.97 217308 178758 170426 181976 198088 233343
788.75 235309 236780 245437 264517 245864 252683
794.54 247915 245148 219912 217636 183346 160524
800.32 137870 134676 100333 83294 56659 53079
806.11 24328 21701 22962 38142 20063 3863
811.89-21586-19880-24203-9843-18254-9201
817.68-13975-9738-12174-11412-14779-11529
823.46-32459-23783-24220-17064-17099-13928
829.25-12821-1110-24829-21134-22816-25668
835.03-34358-19560-20084-25567-22234-6436
840.82-9611-4171-21767-30308-32810-20381
846.61-21953-25737-41875-26544-20069-14197
852.39-13924-15297-30588-24811-27353-28264
858.18-42184-37117-37107-29821-35977-34667
863.96-30781-15247-17064-29500-34372-27715
869.75-40448-31211-25024-21633-24492-24772
875.53-36483-26924-26632-25665-32576-28001
881.32-32512-31875-31002-28465-34381-30314
887.10-35685-34231-40352-38266-37274-46783
892.89-46005-26761-31883-36854-44828-34375
898.67-29110-29135-27998-29774-35196-32449
904.46-41274-44785-40476-29342-32043-27964
910.25-22999-19730-31385-30256-30891-28172
916.03-37005-30517-22495-27031-33253-29256
921.82-38101-32461-28160-31748-39257-48713
927.60-49187-30334-28029-23254-26509-24211
933.39-32038-25334-27770-30794-27735-34355
939.17-37302-33189-35019-36419-34819-19323
944.96-22458-28095-29057-29722-31818-25113
950.74-25130-21317-12503-15976-22859-14752
956.53-28173-22657-12879-15077-10404-8629
962.31-15020-7968-4127 852-7958-9502
968.10-5800 2708 4405-5683-4181 4974
973.89 346 7758 12462 16040 20172 22815
979.67 23475 33416 47267 53418 63966 82600
985.46 95685 110294 116452 130810 137117 150001
991.24 171085 190564 205274 225473 238795 249438
997.03 279397 324076 381839 451119 519338 584769
1002.81 629839 643790 712118 907433 1204194 1522970
1008.60 1833922 2155486 2507698 2922191 3398859 3929084
1014.38 4518546 5156424 5812749 6460666 7091987 7663764
1020.17 8162376 8558112 8835051 8956234 8940749 8756434
1025.95 8450531 8053418 7637828 7260729 7141233 7210428
1031.74 7864791 9418561 11520875 13721592 17908438 21282447
1037.53 17011348 11650136 8420378 5820870 4985660 4983624
1043.31 5549188 6199116 6884325 7451937 7927060 8228996
1049.10 8373738 8339031 8160151 7834227 7403806 6860730
1054.88 6250485 5610193 4978743 4349328 3734245 3170806
1060.67 2663662 2202213 1807611 1461152 1171966 934608
1066.45 729740 561492 432588 325019 241128 195000
1072.24 146711 105987 87002 57088 35693 26584
1078.02 23696 21521 10216 5725 6784-2052
1083.81-5405 196 110-8565-17308-15932
1089.59-18760-17876-18598-26217-23287-7433
1095.38-14579-31103-27689-17498-11458-12659
1101.17-24300-34585-34773-26688-22273-22679
1106.95-23843-26170-31787-27613-24893-25913
1112.74-23205-24026-34503-40250-43516-43341
1118.52-32450-25979-31491-30837-36834-49122
1124.31-52417-41104-35851-40326-43936-40368
1130.09-42621-45122-43360-38956-35321-37126
1135.88-36640-38081-47263-50258-49232-44328
1141.66-50244-50630-42097-36293-37332-34867
1147.45-32789-37707-41777-40556-43357-42707
1153.23-42466-37577-35658-34067-38508-40662
1159.02-29978-35544-42583-34140-38036-38909
1164.81-31144-25813-24727-16111-20171-30900
1170.59-30430-25786-22763-18041-15527-17391
1176.38-20751-16083-12012-12780-12494-7775
1182.16-4135-1343-3997-2669-701 3395
1187.95 10121 22012 47627 89790 80808 32370
1193.73 16999 6865-9938-6723 2591 2627
1199.52 3874 7646 7495 9315 11322 13990
1205.30 22811 24463 17396 11951 31969 124559
1211.09 145763 77321 43279 31818 23851 27915
1216.87 33199 34503 45990 59890 72820 82836
1222.66 84645 102772 129319 156808 181707 207086
1228.45 231662 252155 276210 297909 299923 308558
1234.23 315887 305807 293917 286283 283234 286348
1240.02 294391 297791 286832 275460 262810 254007
1245.80 263287 273911 269224 279292 295810 298142
1251.59 290109 272422 249603 224947 195994 170388
1257.37 139635 105363 75717 53752 35427 19643
1263.16 4333-11529-23308-28813-32421-29598
1268.94-31740-37302-39874-39488-39059-36975
1274.73-37869-42191-48155-48169-45609-42561
1280.51-40260-43754-46899-38634-45357-54293
1286.30-49620-45626-44114-44084-43255-35818
1292.09-42319-53850-53936-48683-47810-46661
1297.87-43157-43071-43808-43579-48728-47034
1303.66-44172-44897-44685-47261-52910-55817
1309.44-54712-47776-47719-52991-50757-45759
1315.23-43189-42169-45416-44607-53206-61300
1321.01-58709-54268-48415-47904-52875-54012
1326.80-57192-52463-53172-56988-56207-55452
1332.58-50659-47083-49952-48468-50542-50915
1338.37-47987-50930-53718-55365-59482-60827
1344.15-59785-54022-50879-46947-38380-38006
1349.94-51582-65727-78058-77323-63461-40649
1355.73-31225-28994-16558-14667-4320 15835
1361.51 34951 54419 70498 100165 144437 199816
1367.30 259296 318611 382247 465996 548259 629693
1373.08 724913 813375 880797 942912 999428 1033798
1378.87 1047458 1046250 1023966 1002382 990034 970395
1384.65 958627 982771 1001211 1016419 1004951 947171
1390.44 913418 918861 946144 984195 1015794 1024657
1396.22 1015301 987192 933470 852254 752018 650639
1402.01 552684 458949 370359 291292 222813 162944
1407.79 122251 93119 63721 35617 13327 6052
1413.58 1623-7816-3211-3620-2280 21666
1419.37 4972-12199-9953-11785-7800-7825
1425.15-12428-9615-2136-363 3044 3411
1430.94 1805 2354 5458 11467 34032 60674
1436.72 43829 34603 42453 42642 47268 58491
1442.51 71746 85746 104179 124165 167383 207226
1448.29 249238 323466 416499 523124 656854 843447
1454.08 1089751 1428658 1829412 2259642 2806156 3471434
1459.86 4252618 5165096 6200280 7346077 8597441 9882251
1465.65 11185026 12474010 13684692 14741606 15598813 16223528
1471.43 16578451 16650032 16488944 16079249 15652469 15481614
1477.22 15521873 16071622 17711356 20159763 23371032 24782669
1483.01 21793839 19015563 17255469 15163548 13959641 13555114
1488.79 13866289 14531289 15341657 16048328 16535197 16676348
1494.58 16481324 15932543 15059796 13985650 12784350 11535059
1500.36 10329893 9224844 8267829 7475066 6861973 6356408
1506.15 5936660 5589946 5318518 5071300 4822041 4603647
1511.93 4372206 4143721 3968386 3857831 3830841 3831738
1517.72 3798729 3641224 3524349 3439195 3323519 3304674
1523.50 3368456 3476561 3552507 3586029 3560104 3454460
1529.29 3267209 3012751 2715197 2405502 2071046 1728283
1535.07 1424353 1155952 948730 798299 642614 490578
1540.86 387252 297188 220912 183204 141549 97904
1546.65 74317 57226 47861 41201 32760 21534
1552.43 31710 47589 22823 8744 44360 82031
1558.22 80431 74332 34844 7249 9020 13145
1564.00 19013 9973 6549 8347 24833 40935
1569.79 25778 17101 19555 16759 20497 65742
1575.57 79916 40000 27335 21130 16521 18751
1581.36 15762 11065 11683 17764 20412 20669
1587.14 30825 32680 27869 34586 34955 32526
1592.93 43123 53114 54709 61414 68404 77120
1598.71 86650 94480 107966 124583 141097 151109
1604.50 159785 172374 182339 188320 191057 189984
1610.29 178629 174687 168025 155245 142677 173334
1616.07 189137 173903 205133 289437 414659 540638
1621.86 563565 403251 235566 155238 135930 156003
1627.64 170504 187286 206535 226573 241214 245005
1633.43 268991 302614 275079 237756 220335 192559
1639.21 169635 153579 137707 123232 110838 117903
1645.00 134565 116886 99904 90083 91842 102068
1650.78 152336 225959 219123 193100 191777 204604
1656.57 235703 242888 241664 244609 257146 274336
1662.35 295166 301789 435879 609372 419702 272491
1668.14 301559 283163 275918 272200 265582 271323
1673.93 314880 325104 310442 313245 314242 307159
1679.71 291510 268949 249747 252994 272056 221027
1685.50 148633 117700 89510 75286 62791 50678
1691.28 40367 37427 37428 80068 98464 53343
1697.07 33399 49102 97979 86025 33265 15973
1702.85 19119 26407 34610 41626 20535 9183
1708.64-438-5458-11902 6507 45140 174779
1714.42 276372 170893 119322 78263 21038 8935
1720.21 4237 6300 4213 11758 20836 31621
1726.00 42829 54571 69847 95122 106925 124701
1731.78 169617 220366 241839 235028 246191 267611
1737.57 285133 320316 334450 329826 329115 328908
1743.35 321858 309940 292443 273301 265380 253411
1749.14 254761 317591 424813 599773 812302 813364
1754.92 641950 502100 359923 259162 225422 241592
1760.71 286866 311762 336992 375780 402395 428914
1766.49 460019 474589 472195 480266 497924 520431
1772.28 516278 504851 521073 541908 565528 594362
1778.06 633727 685239 742870 810017 876826 960019
1783.85 1067277 1190207 1341291 1530387 1761025 2038167
1789.64 2379231 2791698 3268358 3765409 4298629 4892862
1795.42 5525895 6178173 6822037 7435024 7961286 8368641
1801.21 8651811 8800393 8833422 8758743 8614582 8472846
1806.99 8340070 8300579 8349564 8417257 8416638 8199483
1812.78 7881472 7720078 7796778 8053502 8388592 8690064
1818.56 8858630 8825315 8567544 8101584 7455998 6683396
1824.35 5837525 4971370 4141748 3384383 2732828 2176057
1830.13 1697521 1317613 1021689 795568 616975 472910
1835.92 370217 294944 234973 191007 157562 131149
1841.70 111029 115860 111409 78443 60016 56921
1847.49 59289 62239 55929 51216 55919 62776
1853.28 65015 64906 63147 65956 73216 79309
1859.06 88884 99462 106918 118655 126798 134172
1864.85 138121 138713 147152 157938 158200 148466
1870.63 142540 139917 141633 143950 149183 160936
1876.42 163619 158775 155449 147123 140641 139158
1882.20 135083 143065 170336 201303 210796 199278
1887.99 181099 153208 121165 99513 82473 71673
1893.77 62177 55633 51308 47903 46520 46542
1899.56 40212 31503 24038 21040 19863 19480
1905.34 16532 10825 13082 17287 22569 30654
1911.13 43715 57152 64657 65309 60476 63128
1916.92 70102 73527 82341 107519 132987 156831
1922.70 189556 225478 264467 308953 363343 426262
1928.49 496994 575945 672575 792146 929751 1091355
1934.27 1274665 1487136 1741506 2033787 2362583 2729172
1940.06 3127220 3555871 3985229 4393994 4783739 5141776
1945.84 5447783 5679382 5852354 5984484 5998887 5933948
1951.63 5863437 5773823 5723320 5690970 5628104 5560670
1957.41 5438020 5229785 5074442 5086156 5242861 5478383
1963.20 5719925 5891732 5921203 5797099 5528999 5130999
1968.98 4632769 4075328 3500178 2933923 2408816 1949660
1974.77 1560023 1236070 975892 761272 589450 469167
1980.56 385757 327647 297053 276062 265377 276498
1986.34 299279 369625 434036 312958 172573 147201
1992.13 138191 147006 160552 163584 174145 182082
1997.91 208961 241924 253088 284321 412979 418787
2003.70 562387 885132 554456 262704 387693 341679
2009.48 217910 163636 149164 150859 157094 168095
2015.27 190639 206105 213890 213368 218326 215962
2021.05 210438 195070 173567 159541 142332 122067
2026.84 100622 88100 78279 65423 60212 51616
2032.62 38260 28368 26554 33243 21409-1559
2038.41-7974-7560-8438-7407-4732-7457
2044.20-13240-13013-17525-18155-13325-13020
2049.98-16160-19456-19035-20335-19231-20520
2055.77-21629-23258-28175-28789-25881-23853
2061.55-27610-27294-30606-39783-43568-41836
2067.34-43296-51060-53878-53841-55720-58186
2073.12-67272-68925-52218-36683-39481-40695
2078.91-40076-38698-31997-37899-42994-41330
2084.69-30646-26080-25237-9839-5326-10862
2090.48-24634-35908-35595-24439-28919-43906
2096.26-45537-33820-24202-33129-38452-35887
2102.05-21772-29423-43743-41118-27145-31727
2107.84-42214-40444-29304-17242-33901-46080
2113.62-39153-25011-39646-50294-42795-23148
2119.41-26561-42372-41492-27962-31677-46423
2125.19-40122-22536-21731-36564-40428-33441
2130.98-26911-32608-37177-21019-15178-12939
2136.76 12587-6068-34011-32906-30037-24049
2142.55-3743-6237-32621-38070-38699-37948
2148.33-37462-30070-26226-34012-31498-22263
2154.12-25872-40719-40846-21703-21693-31807
2159.90-22233-9547-24646-45754-29795-10545
2165.69-27973-39317-16879-8678-33937-35703
2171.48-14697-20963-42759-27783-4651-20716
2177.26-34661-17916-14397-32635-22813-2788
2183.05-11928-22549-7798-894-11105-3923
2188.83 14562 15711 14716 35805 48083 43822
2194.62 63701 99419 117879 146516 196688 238903
2200.40 271585 320452 382799 443012 514342 592528
2206.19 659260 713039 747805 753510 723314 665224
2211.97 596070 538153 543015 618031 725024 807771
2217.76 807471 733593 630090 529677 442195 367851
2223.54 301257 246756 205935 176576 144393 112277
2229.33 91787 68520 50117 44579 34009 18951
2235.12 9248 4862 1809-7981-17909-21308
2240.90-28401-33183-33362-32493-32754-31893
2246.69-30156-29054-30160-32570-31150-30585
2252.47-26307-23513-32203-33313-27056-24442
2258.26-23168-19563-20151-20400-11682 1026
2264.04 7798 13692 17754 22347 26380 27219
2269.83 31861 33329 32370 32718 30097 28945
2275.61 27496 25643 20217 20076 22522 26327
2281.40 28782 22340 19785 25258 33900 33302
2287.18 28573 27748 26463 25567 23502 22894
2292.97 17003 16773 17754 18149 21231 21675
2298.76 24612 36497 53078 73322 101005 137080
2304.54 178707 233604 288226 359630 445707 538999
2310.33 642308 751207 854332 939517 1018494 1077081
2316.11 1114070 1122101 1107469 1075419 1036094 994842
2321.90 975107 966357 987205 1016547 1133802 1272376
2327.68 1244982 1177708 1158875 1182789 1216199 1223542
2333.47 1214188 1195814 1152358 1084384 1002793 908414
2339.25 804048 698731 596071 501730 414110 332975
2345.04 265112 208653 160613 126004 104877 93254
2350.82 89229 80498 79010 87637 91251 99862
2356.61 109684 116200 123208 138298 154591 170836
2362.40 204942 238654 223991 205140 213635 205898
2368.18 190355 187377 191584 196151 190631 182612
2373.97 175998 172331 170295 173092 184871 186133
2379.75 190653 204666 229144 277621 343792 464005
2385.54 442338 299992 238895 222471 235918 250046
2391.32 260176 275114 284949 293713 298014 300814
2397.11 300260 306360 307898 281792 254426 241352
2402.89 235568 235272 247040 277708 306059 343408
2408.68 384614 302705 187828 142553 123246 117730
2414.46 120068 129235 132233 137208 143409 146125
2420.25 147857 147969 136966 132186 125269 104583
2426.04 89341 75344 62208 51327 38222 30483
2431.82 24957 19870 15110 7569-409-3499
2437.61-5237-2161-4178-6669-4014-4270
2443.39-6982-12670-13159-10781-15539-16436
2449.18-17052-17350-16920-18734-20105-17786
2454.96-17488-16175-9160-5245-2884-1263
2460.75-3417-1755 2353 5515 5222 3989
2466.53 5716 7432 16033 26552 33035 36848
2472.32 37196 35771 37508 44998 41533 33708
2478.10 32624 33709 31479 34938 35189 37428
2483.89 46929 38139 27652 26347 30523 36026
2489.68 36752 28005 26302 34792 34069 35273
2495.46 25885 10854 2978-3250-12764-18226
2501.25-21211-25320-26240-29786-34995-34562
2507.03-33847-33864-38934-46675-42431-37179
2512.82-37666-36635-31542-38345-45973-40189
2518.60-38501-42692-42522-39982-42549-40187
2524.39-43265-53746-47120-43528-50581-50331
2530.17-52833-53148-47579-41678-45682-48447
2535.96-38974-34476-37195-31441-29658-29343
2541.74-22627-21069-19865-12617-10314-13936
2547.53-12918-14721-4943 14601 21015 24148
2553.32 35288 52006 68221 66562 28133 517
2559.10 3870 5755 8402 15882 20004 12528
2564.89 12767 23559 26537 27514 26669 26807
2570.67 31496 36734 44814 60534 111381 137475
2576.46 87860 54086 46002 42771 48018 51933
2582.24 61815 81896 97376 109873 130517 147828
2588.03 161094 177701 191550 206620 223456 240951
2593.81 246915 251358 262919 270445 273407 277271
2599.60 293446 313481 346673 398145 432676 442165
2605.38 468724 526236 573019 607103 627621 620414
2611.17 585154 530294 467190 401650 338474 293576
2616.96 260610 233280 219681 228931 241943 222070
2622.74 203430 188536 174787 170148 163918 157558
2628.53 146528 142840 140841 125439 106076 97901
2634.31 92519 86132 77778 72601 69968 69111
2640.10 75851 95059 107826 118354 144723 168134
2645.88 192863 222031 247615 269768 279067 280955
2651.67 276559 265939 254600 234133 212904 208362
2657.45 209549 211926 215604 228994 262726 290516
2663.24 303521 309382 296796 272420 239892 196935
2669.02 160276 128704 105530 83283 53883 28600
2674.81 10578 3309-3442-4130-8215-20724
2680.60-27279-30172-28543-27402-28602-37913
2686.38-46815-43364-43775-45703-50307-50267
2692.17-49159-53670-52809-52248-56355-57432
2697.95-60302-66189-75534-77528-72066-63103
2703.74-50662-52492-55851-52692-54978-50449
2709.52-37848-35517-45307-49554-44818-47163
2715.31-56760-57229-57675-58198-61321-62794
2721.09-59961-58634-63151-65735-60784-60798
2726.88-56958-45814-46497-56685-57863-54586
2732.66-58936-57186-45053-46299-49145-40272
2738.45-46359-55493-52340-54731-55545-52761
2744.24-54342-56379-51572-48231-52032-51240
2750.02-53392-59207-62384-62192-57386-57272
2755.81-62814-57472-55741-55320-47158-45731
2761.59-48726-54573-52459-47724-54703-58893
2767.38-55027-52674-50710-44700-48949-51661
2773.16-50116-47519-32742-30415-46658-49490
2778.95-47679-52240-46944-36699-29811-24804
2784.73-25988-35449-33337-15987-9011-3003
2790.52-2916 1352 22873 41188 54668 62190
2796.30 74966 95301 107474 122874 150245 179853
2802.09 206629 229707 261574 302382 334533 366738
2807.88 409050 447645 474849 511468 541038 556388
2813.66 575948 593259 609961 620506 622851 628085
2819.45 625170 620852 624550 652039 713258 771915
2825.23 808015 834247 877675 850143 753161 670628
2831.02 609169 594823 595911 607399 626642 636770
2836.80 649989 666562 670605 665972 659786 643179
2842.59 618411 588893 559765 529728 505134 479753
2848.37 456237 461539 471291 480014 505914 536067
2854.16 503074 432204 389268 363831 352913 357268
2859.94 368534 392917 421817 445764 463264 479344
2865.73 491442 499058 496703 500926 501615 488445
2871.52 498829 517669 544559 579226 620676 669601
2877.30 719737 774237 831805 887098 927123 966915
2883.09 1004148 1028898 1064894 1106547 1148776 1207185
2888.87 1281082 1356525 1431000 1527009 1653345 1817369
2894.66 1992586 2136104 2237426 2260824 2161726 1974555
2900.44 1743557 1515417 1320714 1173797 1078015 1012123
2906.23 962772 914330 875629 842776 784319 723429
2912.01 678065 640540 613430 585937 555353 530164
2917.80 505062 479505 446790 392009 335185 288885
2923.58 248207 212800 180104 158157 120867 82444
2929.37 58805 41566 31950 18895 13010 9584
2935.16 8034-75-15052-15136-21589-27105
2940.94-33181-39677-36345-34421-37051-32695
2946.73-31713-37907-33103-29231-26241-20259
2952.51-9264-2886-5506-11470-10951-13154
2958.30-34850-45194-52587-55532-59687-72251
2964.08-79181-72176-54750-44991-42324-34499
2969.87-21980 2508 23883 20592 21346 30929
2975.65 32856 30036 24843 23167 33934 39842
2981.44 41834 50935 63750 82956 94263 99383
2987.23 94480 91586 102634 111770 130779 150431
2993.01 146283 140326 159004 174936 179407 191102
2998.80 214236 245888 270792 305254 337862 373679
3004.58 415153 459341 511437 574260 659638 747306
3010.37 850628 998570 1176950 1400495 1683594 2034233
3016.15 2454325 2969043 3589873 4344705 5276946 6403881
3021.94 7749575 9353076 11256331 13469741 16018012 18908794
3027.72 22110127 25606814 29318676 33150801 36945010 40565827
3033.51 43894758 46735121 48936022 50404865 50992948 51124121
3039.29 51088523 50404875 50006428 50618352 52061552 54734761
3045.08 57986630 60249411 59968708 57032334 53596894 51610533
3050.87 51385780 52575127 54537812 56559826 58040035 58496398
3056.65 57695563 55645126 52439830 48310642 43670030 39045995
3062.44 34674783 30862976 28002495 25993574 24734078 24266028
3068.22 24488718 25230532 26298948 27391983 28201420 28397528
3074.01 27745705 26230207 24283877 22902708 23491758 27374666
3079.79 33402836 37216815 37687609 37199810 36944914 36951765
3085.58 37008063 37310152 37693547 38181104 38641205 38831768
3091.36 38593064 38305700 37737397 37113835 36661131 36604776
3097.15 36776488 37864442 39123286 37332944 36581932 35674348
3102.93 33360177 32461598 32524641 33443683 34577251 35630385
3108.72 36114396 35864996 34743789 32825157 30207318 27125595
3114.51 23777260 20373486 17068884 14027908 11337782 9045820
3120.29 7122377 5588313 4370187 3420395 2712176 2179769
3126.08 1748787 1409279 1152923 954939 793343 677425
3131.86 577998 488689 415543 355921 304910 263077
3137.65 227921 200617 184517 171118 142826 120766
3143.43 108618 99962 91652 83237 66255 51657
3149.22 48631 46845 41116 45542 40976 37188
3155.00 28236 21695 27628 30152 24771 19510
3160.79 24609 19123 2341 8688 22515 15549
3166.57 7969 11877 1285-3439 7589 15290
3172.36 18920 16068 1796-14890-16266-1573
3178.15-2438 656 4333 12844 7714-8249
3183.93-20354-20095-12151-7821-7483-10871
3189.72-4423 1873-8397-23837-19327-17911
3195.50-25240-20250-14288-12604-18165-20656
3201.29-15119-22523-33611-30927-32952-36929
3207.07-37167-28491-15990-22073-33084-36553
3212.86-42408-41335-32233-33364-27398-21983
3218.64-31846-32994-31030-27766-20313-23410
3224.43-27619-18764-24359-22750-14461-7706
3230.21-11094-24270-26312-25325-20516-10043
3236.00-13430-14704-6157-4503-3709-13747
3241.79-11327 4341-3529-14828-17998-10811
3247.57-9672-3940 10205 6033-7968-11261
3253.36-6009-11250-12753-7416-2465 145
3259.14 2912-672-10275-8709-15269-20454
3264.93-16078-25935-32568-27976-34039-33830
3270.71-36186-34727-22018-28356-37882-40743
3276.50-48278-50460-40549-40031-40454-38953
3282.28-43188-46494-48435-48335-55978-55832
3288.07-45385-43660-54528-54234-41026-42528
3293.85-48379-52092-54985-53888-54347-41792
3299.64-49918-64425-55307-60128-67940-73834
3305.43-74986-53722-34353-44369-56815-51588
3311.21-47168-43076-43440-47988-45251-44925
3317.00-57926-65302-62107-60069-52395-41611
3322.78-49430-48781-53773-59074-52309-51212
3328.57-54478-66938-71192-63481-51652-42111
3334.35-60164-61480-60334-65878-64217-63427
3340.14-53961-59652-59795-49381-54348-67264
3345.92-65182-55923-55550-48392-49960-49919
3351.71-50876-50169-41278-41605-51158-60766
3357.49-50865-54806-53162-43921-47766-40050
3363.28-42786-46223-45531-53527-57022-50283
3369.07-47107-61704-69272-50160-37816-45958
3374.85-43641-36375-38879-38684-41617-41901
3380.64-39965-34262-26774-28890-31928-29319
3386.42-23315-16598-20519-30175-24046-7359
3392.21-14999-21551-11775-7024-11976-7789
3397.99 4158 4163 1650 3402 13464 16461
3403.78 10388 25643 32598 23859 33030 37322
3409.56 27714 22059 5217-7782-5523-4790
3415.35-2636-333 3773-1961-11686-22666
3421.13-27375-15916-9700-12425-9107 13322
3426.92 11816 9661 9453 2396 13098 12557
3432.71 8821 19585 26046 40240 50818 42021
3438.49 33956 18162 22331 35528 20023 22213
3444.28 28679 30162 28549 36181 29193 25086
3450.06 35849 64781 162694 453777 554446 254447
3455.85 74734 31900 6696-4335-14187-3507
3461.63 12497 17582 10612 12392 14957 3451
3467.42-1157 10606 22762 19540-4927-10209
3473.20-2090-12513-24314-23202-28276-31110
3478.99-27085-27499-35278-40355-30138-20071
3484.77-33616-45629-39120-44414-51065-49100
3490.56-60329-65675-45740-30455-44135-46684
3496.35-36604-42291-50944-53363-51633-46453
3502.13-46238-53490-61496-57405-59371-58960
3507.92-46968-43712-57624-61777-51709-49769
3513.70-51154-37910-31665-44986-51171-38614
3519.49-31389-44830-38592-24380-36050-44461
3525.27-50242-47120-41258-53984-55261-46638
3531.06-52603-50958-53170-59920-54799-52223
3536.84-58155-52426-43621-47159-48801-57792
3542.63-60393-53903-54066-44501-53320-63300
3548.41-51410-50054-61599-64208-59173-58358
3554.20-57077-52800-53695-67709-69138-58187
3559.99-54538-51862-50955-55540-62477-52695
3565.77-38292-40651-42766-41805-51449-51967
3571.56-46717-52966-64868-61684-53114-54754
3577.34-63395-65436-56398-60787-55626-56492
3583.13-74107-65780-49342-52009-52543-44880
3588.91-47300-51310-59153-53314-46038-42168
3594.70-27755-14104-6442-4145-812 4189
3600.48-483 311 15825 26785 34318 54746
3606.27 57064 65611 79510 58441 44822 54847
3612.05 60074 50228 50491 52055 62766 85377
3617.84 112471 164272 213668 252550 229658 139773
3623.63 73874 52865 53679 76955 108555 131605
3629.41 129109 125718 137296 151385 162790 173274
3635.20 179948 190224 205476 225763 244834 261365
3640.98 292107 325009 372931 435256 487052 556250
3646.77 611631 648269 658924 617083 536063 448620
3652.55 419039 462226 596139 740055 752679 676014
3658.34 580504 481871 405542 339567 272051 227548
3664.12 196908 167458 141178 140417 130650 131495
3669.91 146145 123024 113914 114625 121101 135557
3675.69 110527 81176 92571 107440 109358 116088
3681.48 126445 135550 143830 154079 163101 187848
3687.27 237431 242634 246746 293258 321029 341682
3693.05 367407 390454 433119 476802 471410 459024
3698.84 473705 500051 512708 484722 450460 434826
3704.62 427821 450363 481663 505554 540181 563748
3710.41 550833 490372 387962 306590 259489 218899
3716.19 177956 146381 124002 101488 84658 88379
3721.98 91103 88487 74325 60653 60810 56432
3727.76 49378 36434 36122 52897 50423 27162
3733.55 29350 34508 34501 17368 11600 11070
3739.33 15402 41261 59789 96274 255987 309852
3745.12 84400-17426-8107 22050 20584-3442
3750.91 41674 30994-2928-2653 1027 6153
3756.69 11062 5618 1716-7686-12835-7921
3762.48-10782-13234-14375-13903-29926-35551
3768.26-19713-20325-34808-33944-26518-30149
3774.05-34408-31428-33937-31807-18775-9704
3779.83-15879-29958-34274-30233-27753-31881
3785.62-37264-35453-31176-23114-30556-36772
3791.40-38286-43034-42439-36077-25867-29579
3797.19-34479-42237-34086 13376 1559-36199
3802.97-35612-35812-20968-4579-30058-53428
3808.76-50848-53291-50247-44416-44665-46157
3814.55-11549-223-46082-63645-58936-33653
3820.33-14515-31999-49580-56766-55941-46710
3826.12-49227-56568-56691-57467-43454-41746
3831.90-58182-51940-35273-38878-31953-1544
3837.69-17245-48526-51084-56991-62543-43228
3843.47-46174-52375-45670-49652-67427-63349
3849.26-59457-29343 2362-4820 22720-7270
3855.04-52030-40925-46313-57068-50484-49476
3860.83-59404-63976-58360-42845-44550-40984
3866.61-41219-42125-13500-20258-47610-49950
3872.40-47078-44294-59325-74883-65298-62475
3878.19-62733-50118-46290-47007-45872-55197
3883.97-53905-37284-42568-49165-24690 21135
3889.76 4693-44514-64396-65487-61279-56808
3895.54-49307-51207-54365-39290-41174-33074
3901.33-38275-44736-39604-52674-52660-55589
3907.11-57778-58286-57922-53486-40788-33599
3912.90-31023-21882-37910-46573-42016-32167
3918.68-21575-25874-33125-37284-26661-3933
3924.47 3274 19270 26033 19661 24898 29367
3930.25 38902 50516 51274 63320 72235 77810
3936.04 88336 92340 97882 98928 103190 120679
3941.83 139756 161741 176300 178527 187819 195705
3947.61 185730 187265 213465 234355 238230 227182
3953.40 201332 186010 172279 156567 151170 144336
3959.18 149006 152910 148563 166963 169264 161620
3964.97 149141 151329 164796 158732 150060 156339
3970.75 166017 174288 175044 155571
##END=
