##TITLE=Benzene
##JCAMP-DX=4.24
##DATA TYPE=INFRARED SPECTRUM
##CLASS=IUPAC A
##ORIGIN=NIST, Analytical Chemistry Division, 301-975-3108
##OWNER=COPYRIGHT (C) 2000 by the U.S. Secretary of Commerce
##DATE=00/02/01
##$SPECTRA VERSION=1.10
##$UNCERTAINTY IN Y=2.1 % relative (B=1.1E-04,C=5.2E-10,D=5.2E-15)
##CAS NAME=Benzene
##CAS REGISTRY NO=71-43-2
##MOLFORM=C6 H6
##MP=5.5 C
##BP=80.1 C
##$NIST SOURCE=QUANT-IR
##SPECTROMETER/DATA SYSTEM=IFS66V (Bruker)
##INSTRUMENT PARAMETERS=KBr Beam Splitter; MCT Detector; Multipass cell
##STATE=gas
##SAMPLE DESCRIPTION=Benzene Primary Gas Standard
##PRESSURE=101.3 Pa
##TEMPERATURE=23 C
##SAMPLING PROCEDURE=1 L/min Flow
##RESOLUTION=1.9290
##DATA PROCESSING=3-Term B-H Apodization
##XUNITS=cm-1
##YUNITS=(micromol/mol)-1m-1 (base 10)
##XFACTOR=1.0
##YFACTOR=3.6379E-12
##DELTAX=0.9645
##FIRSTX=575.653
##LASTX=3974.61
##FIRSTY=-1.87E-07
##MAXX=3973.64
##MINX=575.65
##MAXY=.0026269
##MINY=-3.54E-07
##NPOINTS=3526
##XYDATA=(X++(Y..Y))
575.65-51469-89008-101108-109924-113514-44158
580.47 3383 11698-27648-39141-3083 46121
586.26 13057 5003 16249-1378-57953-34672
592.05 13569 28974-1697 12836 22229 18574
597.83-13901-32447-28731 3422 3810 24007
603.62 56500 133851 199282 208126 125512 69364
609.40 12005-13542-26898-10352-22428-12359
615.19-1651 23871 18109 29576 32201 58419
620.97 45561 50301 34929 30409 19481 53726
626.76 72451 115224 153492 228511 283642 383234
632.54 514428 730642 965719 1288233 1696578 2280752
638.33 2988445 3895446 5004682 6414016 8090164 10143246
644.11 12569096 15486266 18851708 22730617 27079622 31967148
649.90 37251530 42939922 48855646 54911336 60853681 66581837
655.69 71738918 76111465 79321597 81280144 81714010 80574944
661.47 77663170 73178022 67150441 59848548 51537757 43059010
667.26 35514945 32754796 48155616 122374534 335032693 666443010
673.04 722082657 359446178 76629453 25761523 28982697 37380704
678.83 47289552 57487123 67331483 76237025 83851843 89620146
684.61 93454561 95241290 95117554 93080973 89481476 84515868
690.40 78468799 71544576 64286936 56960667 49809569 42966504
696.18 36685529 30930237 25720556 21072098 17137081 13798533
701.97 11026368 8713372 6842891 5305328 4091258 3126328
707.75 2402336 1822028 1393081 1040700 782806 574293
713.54 442198 335763 271742 201963 149389 92634
719.33 81842 63584 46514 30154 37604 25622
725.11 28336 15128 18587 16980 21223 12205
730.90 13290-1182 1225-1116 3036-9931
736.68-13290-27313-31053-31019-16876-24295
742.47-29383-36221-26231-22375-18650-24688
748.25-17421-10340 5052 5143 13316 24810
754.04 43576 50822 74451 94323 113042 125463
759.82 145661 158368 178070 200484 225647 232731
765.61 233383 221981 213372 202891 194922 173851
771.39 158411 142826 133316 149587 220421 390144
777.18 1001576 1817968 1675056 863070 424587 254401
782.97 157314 113827 113437 124912 154573 180784
788.75 195986 196482 211994 219481 218430 214733
794.54 218073 207290 195246 177948 155035 125148
800.32 110152 93886 72294 45267 28353 11466
806.11-4132-13770-4667 540-7411-30821
811.89-47644-55406-50269-45601-42053-41420
817.68-38364-39188-36817-39366-37716-43550
823.46-51815-53335-46960-44027-39312-38648
829.25-31639-31319-40821-46429-44915-50953
835.03-51599-45498-41673-46349-39839-30576
840.82-25143-28235-38995-51159-49774-43285
846.61-40224-48847-55238-48776-37341-32784
852.39-30044-35991-43501-45010-43564-49288
858.18-56063-57199-52482-50210-51153-52119
863.96-44030-33865-33259-44255-47887-48784
869.75-52041-48465-39976-37599-37811-42695
875.53-47113-44342-40271-42045-44304-44843
881.32-45571-46646-44327-44469-45799-46529
887.10-47704-50201-52472-52728-53373-59908
892.89-56183-44868-43916-51595-55073-49289
898.67-42490-41318-40626-43283-45990-48146
904.46-53764-57767-52482-45119-42824-40114
910.25-34541-34508-40853-43608-42489-43441
916.03-46690-42731-36500-39229-43307-44776
921.82-47805-45216-41346-44504-52919-61634
927.60-59419-46571-38856-36455-36890-38603
933.39-41363-39642-40166-41933-42389-46705
939.17-49341-47823-48493-49833-45223-35401
944.96-35123-40235-42806-44146-44246-40570
950.74-38295-33625-28080-30085-33807-33964
956.53-39739-37229-30348-28198-25944-25554
962.31-28261-24508-19273-17525-23342-26097
968.10-22466-15438-15681-22046-22321-17487
973.89-17415-13256-8672-4861-2254-495
979.67 1029 9943 20770 29145 39462 55657
985.46 69722 81708 89674 99395 106488 118696
991.24 136436 154652 169204 184873 194669 206012
997.03 230989 274291 330551 397588 463691 521836
1002.81 552376 567379 637013 829027 1120490 1445675
1008.60 1765110 2092739 2452369 2873907 3359268 3908284
1014.38 4516635 5176768 5856311 6534765 7186272 7784857
1020.17 8299574 8711377 8987589 9112047 9071460 8867315
1025.95 8518074 8077992 7599814 7199056 6992352 7098611
1031.74 7832352 9429176 11614482 14585984 18818581 21086927
1037.53 17788517 12356066 8314798 5755178 4692817 4742603
1043.31 5337858 6105055 6853858 7503861 8015771 8360045
1049.10 8519795 8499837 8314218 7983805 7529179 6967768
1054.88 6332202 5668966 5006874 4353474 3720688 3137939
1060.67 2612143 2143642 1736205 1387156 1094477 853881
1066.45 650769 485842 356167 253304 176939 128741
1072.24 87186 54260 32036 9826-8790-15294
1078.02-15928-16822-23390-25771-26552-30410
1083.81-32048-26777-26380-32562-39431-39710
1089.59-40178-38904-40861-44171-39684-28770
1095.38-33699-44889-44340-33683-27088-28259
1101.17-39194-48187-48890-41225-36406-34953
1106.95-36755-39259-42793-39840-37438-35709
1112.74-34529-36010-44904-51386-55366-52292
1118.52-43606-37005-39193-40817-48175-57961
1124.31-60765-51608-46695-48576-51840-50162
1130.09-51934-53037-52024-46853-44389-43667
1135.88-44683-46972-54760-57989-57173-54350
1141.66-57931-56950-50640-44176-43622-41023
1147.45-40994-43984-48324-48431-50445-49969
1153.23-49122-44571-42355-41305-45368-44311
1159.02-39949-41943-46752-43311-44822-43912
1164.81-38618-32227-28807-23177-27404-34927
1170.59-37167-32382-28852-23632-22261-23238
1176.38-25843-21910-19204-18098-18093-13409
1182.16-10120-7574-9562-8604-7403-2576
1187.95 3877 19765 49732 83111 74575 36857
1193.73 11157-1874-14769-13101-6512-2849
1199.52-2150 1223 1375 3501 4614 9676
1205.30 15311 16888 8545 6808 41226 114693
1211.09 134033 85022 40175 23548 16425 19675
1216.87 23305 28566 38012 53168 65413 74581
1222.66 79653 97236 123040 152499 178500 205753
1228.45 229757 253963 277472 297378 303938 311906
1234.23 314925 307713 294053 286103 282150 286837
1240.02 293438 296380 286514 274126 259822 254463
1245.80 260554 269839 270957 281711 295526 301265
1251.59 292267 275443 250919 225259 195665 168070
1257.37 135070 101440 69837 47367 27686 12403
1263.16-4531-19027-31704-36914-39781-37399
1268.94-39847-43265-46961-45818-45531-42853
1274.73-44767-48199-54207-53883-52246-47715
1280.51-47327-48851-50580-46403-52046-57519
1286.30-56738-51255-50359-48790-47256-42548
1292.09-48982-57371-60084-55138-53982-51086
1297.87-49620-47785-49304-49656-53682-52024
1303.66-50861-49307-51031-52959-59246-61263
1309.44-60477-54362-55135-57171-57066-51385
1315.23-49247-47661-50330-51622-60310-66124
1321.01-66454-59990-55921-54292-59031-60903
1326.80-63159-59843-61257-62782-64446-61449
1332.58-58419-54560-56488-55845-58202-57085
1338.37-57171-57893-62137-63896-68691-69452
1344.15-69039-63323-60331-53798-48228-48116
1349.94-62051-77429-90845-89541-76216-55056
1355.73-45256-38956-33185-27283-18739 409
1361.51 18593 37309 54137 84476 127836 184949
1367.30 244096 306622 374133 457629 542273 631883
1373.08 726577 817926 890439 956320 1010640 1047594
1378.87 1060267 1055998 1032783 1010367 990309 972118
1384.65 964209 983406 1005569 1019715 1000261 951388
1390.44 914055 917705 946449 988709 1021357 1035920
1396.22 1026810 998513 940767 857303 752721 646939
1402.01 542371 445267 352076 270950 197870 139670
1407.79 95811 66024 35563 8765-13289-21164
1413.58-27963-31711-32027-29250-23131-9824
1419.37-20591-34956-40007-38320-37941-37516
1425.15-42209-39295-35615-31491-31512-31047
1430.94-35094-35137-35286-25851-6023 11766
1436.72 499-10181-12140-11171-11143-2959
1442.51 4739 16248 26952 47391 77975 113253
1448.29 151613 216316 298407 398584 524448 703146
1454.08 948293 1279993 1669795 2115631 2660608 3334438
1459.86 4132727 5069061 6133606 7323727 8610249 9950625
1465.65 11305527 12645956 13899373 14998867 15882853 16518549
1471.43 16861812 16912875 16681419 16229811 15759930 15496112
1477.22 15533385 16221718 17964732 20780361 23904054 24898691
1483.01 22573524 19559843 17258761 15250334 13911267 13496265
1488.79 13814951 14565038 15451203 16247812 16787362 16976494
1494.58 16784901 16218294 15317028 14189765 12927486 11622743
1500.36 10359937 9211085 8217371 7408222 6772968 6266318
1506.15 5847774 5511010 5238570 4995971 4758272 4533990
1511.93 4302754 4080762 3904745 3806424 3783022 3791717
1517.72 3746545 3620738 3494119 3392173 3298431 3282061
1523.50 3354650 3471477 3565660 3612822 3591194 3488331
1529.29 3296549 3035954 2728807 2402043 2052366 1702989
1535.07 1382099 1111099 899324 738699 583308 440255
1540.86 328188 241011 171251 129816 90485 54505
1546.65 28866 16410 7690 3973-4696-7852
1552.43 1267 11055-5737-10663 18972 55671
1558.22 62859 50249 15001-10451-14939-6987
1564.00-4688-8164-13591-7294 7633 20354
1569.79 10943 3033 281 928 13310 50030
1575.57 59907 35061 13446 7181 2833 4391
1581.36 929-1346-1736 4495 6438 11054
1587.14 16840 20464 17863 22071 21663 23599
1592.93 30702 41113 44275 51133 57365 67516
1598.71 75369 86266 98586 117154 132055 144865
1604.50 153597 166830 175967 183822 185180 183257
1610.29 173124 167227 157131 144131 138371 159660
1616.07 170110 168607 200012 293211 427569 551652
1621.86 557433 415335 242031 146070 121900 138917
1627.64 158223 179034 199092 221246 234258 246926
1633.43 271331 294682 274943 240893 213140 188213
1639.21 162781 145752 127952 113683 103321 111806
1645.00 119726 109659 89413 79531 77806 97591
1650.78 150246 210346 214544 193518 185690 202449
1656.57 225767 238267 236420 240609 250305 268670
1662.35 282109 324718 460737 563449 441529 301735
1668.14 279531 279120 268901 264968 259464 274447
1673.93 306255 321832 313664 313483 312804 307033
1679.71 288999 267761 250709 257782 260521 217466
1685.50 149782 108014 80366 65016 51203 40296
1691.28 29216 26081 35734 71137 81635 51785
1697.07 28670 49244 82969 76021 31837 8996
1702.85 8303 18350 27043 29924 13757-601
1708.64-12557-19961-24435-6534 53822 177492
1714.42 249052 192391 118054 66107 15887-4706
1720.21-9648-8005-8180-790 7647 19838
1726.00 29821 43444 59337 81407 95355 119323
1731.78 162201 211438 232055 233552 239946 260191
1737.57 282886 313760 327838 327927 323702 322620
1743.35 313396 300561 279299 260882 244367 232253
1749.14 238709 301862 425525 621884 805434 817123
1754.92 665847 496092 344157 239027 197912 216053
1760.71 255536 289740 317999 354654 383721 413758
1766.49 439870 454643 453584 460755 476055 492787
1772.28 487488 479948 486803 506989 527252 555933
1778.06 591867 641592 696469 759822 824389 906117
1783.85 1006017 1128777 1276496 1465073 1694068 1977515
1789.64 2324425 2748709 3229905 3747183 4301414 4915288
1795.42 5571570 6251970 6924356 7560692 8106320 8531867
1801.21 8818265 8968743 8988106 8900255 8743059 8578606
1806.99 8444744 8403139 8449668 8520006 8489904 8271021
1812.78 7962330 7794804 7869576 8147671 8512700 8848218
1818.56 9040646 9023056 8764031 8282729 7608885 6801498
1824.35 5913481 5009990 4141336 3357182 2677138 2101771
1830.13 1615435 1229389 930461 705961 528846 393666
1835.92 293250 223977 169114 131204 100602 79715
1841.70 67070 72197 65996 43949 24419 23198
1847.49 26375 31152 26716 25979 29439 38394
1853.28 40948 42931 41247 46174 51783 61448
1859.06 70203 82521 91139 103770 112082 120998
1864.85 123570 128174 135075 146085 145078 138604
1870.63 130008 128855 128509 133285 138927 150329
1876.42 152490 150696 143733 137417 129229 126796
1882.20 123664 135769 162179 193821 203844 196035
1887.99 173459 145245 111776 88470 69532 58946
1893.77 48230 43053 37058 35629 33070 33257
1899.56 25827 18342 9188 6792 3891 4135
1905.34-1182-4123-5228 124 4049 14224
1911.13 25472 39713 45206 45945 40119 41869
1916.92 44147 48908 56979 79800 102833 129226
1922.70 157996 194124 230358 275419 326321 388926
1928.49 456024 535953 630222 749242 886243 1048819
1934.27 1232554 1451029 1707442 2008176 2345640 2725359
1940.06 3138383 3581913 4025428 4454986 4858564 5230673
1945.84 5543405 5787843 5968759 6087557 6100571 6037413
1951.63 5946786 5859935 5798963 5757809 5698966 5618756
1957.41 5473849 5270727 5117358 5127490 5293184 5552411
1963.20 5816580 6007097 6050539 5931733 5653105 5239716
1968.98 4717510 4135678 3530044 2940331 2392438 1916116
1974.77 1511500 1181601 912806 697903 527037 408308
1980.56 325827 275378 245200 230854 225552 241414
1986.34 280157 357082 390322 295148 165123 115685
1992.13 109274 121288 133216 143288 150357 165491
1997.91 189911 219824 236709 290276 375872 446458
2003.70 628153 797043 583067 337503 339660 322796
2009.48 217921 151842 131519 135620 142993 160063
2015.27 180384 200150 207292 211954 213364 214403
2021.05 205941 192022 170589 155231 135938 116485
2026.84 94536 82050 69537 60754 51987 44734
2032.62 30830 23191 21172 25216 12685-4876
2038.41-15670-14660-15660-12314-12054-12705
2044.20-18398-19038-23390-21835-19936-17406
2049.98-21695-22800-25065-23633-24903-23883
2055.77-26680-27530-32761-31882-30818-27829
2061.55-30953-30609-36284-42262-47819-45817
2067.34-49453-53774-58882-58037-61100-63973
2073.12-72940-70732-57637-42300-42489-42866
2078.91-44308-39901-38319-40443-46969-43063
2084.69-36218-29102-25330-12289-8142-12659
2090.48-27786-37038-37825-29275-34626-44788
2096.26-48316-36465-30808-34243-41382-35509
2102.05-28790-32344-45076-41606-34110-34639
2107.84-44361-41477-31669-23312-36274-45505
2113.62-41555-32155-42767-50495-44603-28493
2119.41-31556-41517-43141-32920-37484-45400
2125.19-42141-26650-27081-36542-42997-35896
2130.98-32867-35069-37464-25253-18577-7251
2136.76 3899-7550-32602-36782-34293-22245
2142.55-8989-10517-31764-40738-43476-41196
2148.33-40256-32564-31890-34025-33610-25930
2154.12-31537-41177-41787-27355-26825-29842
2159.90-24324-15492-29720-42250-33404-19096
2165.69-30679-35665-22855-16473-33637-34403
2171.48-23784-26798-41160-29191-15521-22649
2177.26-33844-23834-23729-31369-26311-11399
2183.05-17320-22157-15454-8796-14664-7270
2188.83 4445 9731 11400 28048 36539 40550
2194.62 56929 88374 111052 144146 188583 233312
2200.40 269732 320690 380707 448629 521982 603629
2206.19 673905 732376 766111 771469 736440 674542
2211.97 597243 543289 548492 628580 739413 824743
2217.76 827162 756284 646698 540474 445129 367164
2223.54 296956 242695 199628 169366 136005 107505
2229.33 82091 61867 43788 37128 25604 13946
2235.12 2594-210-5992-12940-23444-27448
2240.90-35014-37762-39964-37438-38551-35790
2246.69-35624-32978-35698-35585-36825-33269
2252.47-31117-28855-36058-36004-33212-28057
2258.26-27583-23826-25638-22788-16108-2698
2264.04 4170 11640 14612 20752 22577 26588
2269.83 28238 31581 29582 30418 26821 26695
2275.61 23427 22074 16267 16973 17905 23381
2281.40 22481 19491 15522 22302 27574 29627
2287.18 24169 23524 20526 20626 17140 16074
2292.97 9992 9753 8229 10402 9818 11663
2298.76 12980 24834 39070 61239 87260 124429
2304.54 166677 220986 278545 352992 439303 539252
2310.33 645628 760183 864960 959000 1037374 1100335
2316.11 1135026 1144223 1124915 1090829 1044297 1003555
2321.90 975423 969915 983571 1036620 1154272 1269037
2327.68 1264276 1204911 1178055 1200503 1231002 1245921
2333.47 1238355 1219157 1173235 1106133 1018697 921430
2339.25 811573 702994 594888 497742 404801 323686
2345.04 251499 194539 144828 111700 88910 80202
2350.82 73227 69397 67726 76187 81455 91946
2356.61 99995 109266 116438 132541 147851 171654
2362.40 204505 232644 223930 210821 208013 203259
2368.18 188634 185725 187852 192752 186785 180145
2373.97 171125 168132 164559 170241 176485 181748
2379.75 184614 199897 226851 280381 365539 458860
2385.54 436616 321126 237857 219094 227943 245919
2391.32 258242 274216 284530 294895 298586 302646
2397.11 303123 309835 305018 283432 254200 239330
2402.89 230891 233595 246982 278468 313192 359653
2408.68 376280 306563 197694 137897 114590 111250
2414.46 114037 124092 128545 136022 140639 146444
2420.25 147163 147114 137900 133072 121759 105647
2426.04 86565 73529 58584 47955 34326 27463
2431.82 20139 17013 9945 4184-4832-7097
2437.61-9309-6098-8667-8210-8555-6692
2443.39-11541-14242-16807-14609-18839-19025
2449.18-21257-19657-21537-21304-23828-21006
2454.96-21789-17598-13558-7097-6103-3663
2460.75-6275-3275-1170 3372 1632 2440
2466.53 1470 6430 13060 25121 30907 36333
2472.32 34972 35856 36819 43064 38974 34187
2478.10 30074 31707 29776 33153 33061 38952
2483.89 42011 37677 26267 25567 28069 35005
2489.68 32989 28543 25797 32870 33868 34314
2495.46 23475 11485 24-5866-15959-20300
2501.25-25699-27038-30763-32583-38178-37001
2507.03-37656-36798-43795-47390-46775-40471
2512.82-40853-37198-36935-40448-47456-43293
2518.60-43254-43847-45821-42967-44894-42940
2524.39-48799-53044-51957-47752-53089-53834
2530.17-57290-55114-51707-45868-49858-48971
2535.96-44212-38100-39393-34618-34005-30337
2541.74-27592-23290-22387-15350-15024-15428
2547.53-18704-16230-7619 10401 17680 24630
2553.32 34462 54116 67430 62394 27496 1998
2559.10-3439 1790 4451 12884 13586 10951
2564.89 9812 19239 22234 24553 21858 23909
2570.67 25686 32820 40067 66542 109415 128537
2576.46 91119 54780 38480 37839 39456 46773
2582.24 56429 76385 91294 108390 125682 145299
2588.03 158674 175938 189176 206510 222294 239487
2593.81 245332 252611 259889 268592 269531 276215
2599.60 288317 312678 347965 397721 430289 449063
2605.38 477709 532974 583293 623188 641609 635995
2611.17 597585 541692 472293 403710 337458 290116
2616.96 252658 227934 215605 226297 232822 221734
2622.74 200038 185157 171075 166265 159211 153564
2628.53 143256 140664 134205 121479 101958 93118
2634.31 85340 80233 70571 66285 61090 62695
2640.10 69290 87471 99953 116418 138291 166040
2645.88 191424 222780 248998 272503 281784 285221
2651.67 278187 269313 252799 233271 211689 205828
2657.45 204692 208856 212589 231787 262202 293850
2663.24 309235 315403 302011 278259 240578 199519
2669.02 158056 127556 100698 77879 47650 23134
2674.81 3622-3653-9942-9841-16448-24792
2680.60-34102-34685-34984-31568-35648-42316
2686.38-51020-48848-49865-50389-55390-54190
2692.17-56075-56522-58453-56850-61103-61503
2697.95-66523-71636-81590-82250-78647-66326
2703.74-58225-55735-59825-57864-59444-52171
2709.52-43738-39800-48771-51100-51052-51839
2715.31-60509-61491-63437-62780-67034-66255
2721.09-66001-63760-68952-68940-68257-64449
2726.88-60864-50934-53023-58789-63181-60745
2732.66-64225-59428-53092-49967-51712-46415
2738.45-52225-57330-59899-58961-61072-58097
2744.24-60774-59641-57829-53599-56749-55979
2750.02-60329-63797-69102-66686-65072-63595
2755.81-67795-63753-63066-58678-54685-50734
2761.59-55896-58409-58955-55264-61612-63675
2767.38-63453-58759-57151-52259-56277-57495
2773.16-58684-51082-41751-39051-52087-56267
2778.95-58922-58713-56001-44770-38498-32585
2784.73-37187-42549-41738-26969-19007-13033
2790.52-13941-5645 10867 31883 43296 54122
2796.30 65364 84169 96496 115077 139407 170851
2802.09 195982 223332 254328 294634 327768 364687
2807.88 404063 444176 474973 511067 538152 558850
2813.66 574957 594674 608731 620168 622174 625397
2819.45 619948 616264 619604 653017 710880 773371
2825.23 814265 852869 880494 852051 759512 667983
2831.02 604060 583983 584637 600386 616991 633401
2836.80 646762 663792 667934 666751 656698 641467
2842.59 613726 584808 551311 522387 492702 467244
2848.37 446236 449000 457893 475125 501991 523849
2854.16 491162 427529 374035 347133 334010 338933
2859.94 351277 378079 406002 433273 450998 468775
2865.73 479219 486685 484850 487478 481978 475564
2871.52 479213 499748 525328 562469 603783 654898
2877.30 705900 764122 821494 877627 919609 960492
2883.09 992907 1022767 1054465 1096015 1139286 1200179
2888.87 1271513 1349650 1427935 1530386 1664696 1839260
2894.66 2021263 2181346 2286656 2306845 2204647 2009083
2900.44 1762941 1522059 1313646 1161593 1058165 993320
2906.23 941385 898631 859669 823174 766274 707972
2912.01 657682 622705 592555 567020 536845 512899
2917.80 487089 463019 424904 373238 313737 265832
2923.58 222203 187307 154714 128921 91365 55761
2929.37 27502 12552-793-9593-17860-18748
2935.16-23199-30203-43104-46188-52775-57434
2940.94-66027-69106-69716-66598-68669-64808
2946.73-66868-68360-68243-62666-60812-52378
2952.51-44343-36895-40956-44135-47543-52701
2958.30-71986-84708-94479-97529-106277-116572
2964.08-125500-117588-104800-93381-91290-83265
2969.87-70847-46453-31005-28462-30573-23889
2975.65-24457-27656-36287-36526-32349-26153
2981.44-25814-17709-6905 10325 18968 21867
2987.23 13428 10630 13550 24712 38548 52108
2993.01 45470 40917 48112 59768 60512 68485
2998.80 84202 109088 129768 156549 180881 210159
3004.58 239621 275648 314450 368856 434505 510237
3010.37 599684 727494 887783 1095198 1357243 1687976
3016.15 2088556 2582983 3183346 3925965 4841624 5962305
3021.94 7308504 8927122 10850215 13107335 15713510 18680424
3027.72 21983587 25597162 29443661 33415818 37356595 41125857
3033.51 44567986 47501274 49751947 51184923 51780353 51858202
3039.29 51563304 50875565 50452725 50975513 52623951 55476896
3045.08 58825888 61059144 60675047 57754429 54212848 51993179
3050.87 51684595 52946639 55073082 57299044 58943752 59509011
3056.65 58734665 56605109 53233684 48891763 44021046 39114545
3062.44 34508404 30548034 27521915 25429563 24174959 23742270
3068.22 24039263 24897092 26080660 27285763 28156662 28345302
3074.01 27592533 25916263 23818214 22422107 23289316 27423222
3079.79 33257813 37271503 38205726 37736708 37323882 37213709
3085.58 37285902 37559021 37981436 38496058 38960654 39138017
3091.36 38962512 38581448 37996762 37343534 36887578 36788444
3097.15 37193762 38349272 39050004 38061339 36935765 35635120
3102.93 33713463 32589224 32699542 33665598 34966851 36131539
3108.72 36738512 36538290 35423081 33441312 30726693 27508518
3114.51 24009833 20452560 17010833 13850672 11064530 8698932
3120.29 6738424 5177468 3952574 3018358 2322826 1809635
3126.08 1404471 1092881 855258 679353 539853 440686
3131.86 355749 285003 222187 175845 133545 103207
3137.65 74961 59381 48134 40789 20093 5727
3143.43-4561-5960-11357-15195-29245-36888
3149.22-40657-37604-38984-32935-34554-35356
3155.00-43428-43613-40226-33654-37991-37111
3160.79-36491-39103-50555-43016-34235-33438
3166.57-40006-38541-46698-46388-39210-26652
3172.36-23838-25048-40776-52769-55126-42628
3178.15-39847-34362-30152-21643-28157-40336
3183.93-53839-51579-46272-38346-39641-37485
3189.72-33785-27577-38336-47330-49279-46165
3195.50-50935-45378-41121-37315-42921-41807
3201.29-42038-45635-55720-54592-57745-58604
3207.07-59380-47775-40372-41562-53207-57464
3212.86-63662-59603-55463-49980-46842-42046
3218.64-49544-50299-50391-43415-40431-39586
3224.43-42943-37550-40621-36840-31008-22824
3230.21-28785-36840-43440-39783-35482-26101
3236.00-28241-25852-22152-16353-20265-24129
3241.79-22855-11393-17332-25836-30991-24608
3247.57-22543-12587-4657-5262-18645-20784
3253.36-21204-21433-24462-17872-14437-8466
3259.14-8703-10596-19123-19773-26524-27820
3264.93-30293-34851-42201-39948-44281-44140
3270.71-47146-41030-35508-36466-47009-51014
3276.50-59082-57525-53131-48013-49698-47697
3282.28-52784-54292-58086-58265-65233-62165
3288.07-56473-53336-62318-59394-52713-49475
3293.85-56783-59394-63872-61841-60216-51745
3299.64-59590-66682-67364-67625-77733-82243
3305.43-81233-60124-46414-49687-61842-58487
3311.21-54996-49055-51560-51744-52780-52790
3317.00-65235-70510-71795-65400-58963-49783
3322.78-54087-54995-61581-62322-60715-56478
3328.57-63644-71845-78107-68720-58054-51300
3334.35-63310-66561-69440-70140-72446-66756
3340.14-63958-63329-64308-56474-62555-70074
3345.92-71796-62934-60494-54258-55653-54496
3351.71-57205-52552-48454-46636-57840-61973
3357.49-60966-58423-58134-50687-50871-45542
3363.28-48229-48877-53368-57235-61786-54894
3369.07-56808-65954-72174-56075-47214-47206
3374.85-48428-41718-43610-43066-47322-45953
3380.64-45570-37372-33791-32317-36771-32457
3386.42-28188-21228-27137-31370-27613-14900
3392.21-19802-22032-18334-12118-15710-9429
3397.99-2802 1313-2657 2132 7625 12141
3403.78 10279 22369 26284 26496 29337 34568
3409.56 26292 18196 604-9183-12393-8133
3415.35-7759-2155-2075-4891-17679-26603
3421.13-31557-21348-17282-15238-10452 6630
3426.92 8491 8147 2975 2959 5664 8826
3432.71 6233 15466 23688 39355 45443 42205
3438.49 27924 18529 18860 26888 18375 19098
3444.28 22070 25894 24519 28279 20640 17293
3450.06 22916 64882 208700 458304 521693 302354
3455.85 92138 19635-5353-15256-21280-9111
3461.63 4716 12749 8044 10331 7785 1654
3467.42-3264 9095 18158 15114-5149-10195
3473.20-9897-14943-26695-27738-33020-32651
3478.99-32389-31265-39916-40441-33876-25529
3484.77-36976-44476-46233-47102-54023-55115
3490.56-65635-64914-50892-36998-45203-45922
3496.35-43221-44283-54269-55472-55383-48972
3502.13-51247-55984-64129-61842-64069-59054
3507.92-52083-48370-60306-62185-58226-52796
3513.70-52137-40034-38172-45364-52063-41166
3519.49-38798-42362-40085-29654-37808-45956
3525.27-53014-48278-48729-53778-57692-51512
3531.06-54628-53517-58385-59941-59658-56083
3536.84-60118-53479-49069-47319-53900-58902
3542.63-63334-57559-55273-49161-57351-61083
3548.41-57249-53882-64065-65431-64542-60165
3554.20-60033-54819-60129-68155-72128-62110
3559.99-58223-53321-55545-58481-64201-53720
3565.77-44348-40738-44773-45138-53418-52506
3571.56-52478-56119-66941-63344-58986-57897
3577.34-66918-66012-63783-60678-60739-62705
3583.13-74946-67764-57544-53371-54996-48761
3588.91-51701-55385-62720-57385-52911-43482
3594.70-32550-16539-10551-5060-3963 265
3600.48-4542-126 10015 24211 33999 50925
3606.27 56849 68290 71553 59188 44565 51244
3612.05 52468 48868 43484 48010 57110 81293
3617.84 113597 167630 221040 256157 225809 145534
3623.63 71673 44643 44884 71250 101684 125433
3629.41 124786 125092 131748 147763 157796 169551
3635.20 174874 187022 200199 221704 238021 259809
3640.98 285814 324712 373096 436095 496338 566675
3646.77 624788 666269 669368 625973 536451 451137
3652.55 416209 473103 608810 745380 769715 700787
3658.34 593833 493072 406075 335614 267742 221711
3664.12 185983 158387 134654 129636 123256 129133
3669.91 132173 121287 107589 110306 117679 125339
3675.69 102739 81552 83330 98859 102933 111508
3681.48 119073 130541 137002 147941 158068 189412
3687.27 225000 240857 250914 288593 318899 344564
3693.05 366567 398111 438812 477068 476610 470346
3698.84 480372 507354 513374 491265 454791 435757
3704.62 430708 453795 483742 518418 552100 577959
3710.41 561381 497898 396214 312085 254369 213779
3716.19 171566 141357 114434 94742 79177 82493
3721.98 84527 83508 68804 59449 53974 52757
3727.76 42113 34326 33758 47351 42260 29136
3733.55 24024 31171 26175 15528 4329 5015
3739.33 10678 33225 55568 127565 257457 279252
3745.12 113768-8209-18320 10331 9942 8577
3750.91 27875 26867-781-5937-3554 5015
3756.69 6317 5643-2809-8768-15126-11148
3762.48-14161-14174-17119-18664-32754-33884
3768.26-26655-24106-35992-34848-32582-31768
3774.05-37084-34737-37555-31296-21888-11631
3779.83-19410-29348-36937-31994-32299-33487
3785.62-39994-36789-33341-26390-33026-37203
3791.40-43268-44359-45899-36479-31298-30337
3797.19-39578-42403-28591 4660-2979-29397
3802.97-41427-34588-21843-10880-31734-50911
3808.76-57740-55064-54285-47647-49630-39506
3814.55-15638-8611-43442-64265-60861-34695
3820.33-21774-30807-51456-58097-58680-50250
3826.12-53565-56989-61706-56188-48849-46368
3831.90-58090-51980-42875-37356-28078-7548
3837.69-20354-43638-57035-60235-62208-49047
3843.47-49743-50645-50994-54368-68909-68514
3849.26-59996-29022-5119 7831 13949-8065
3855.04-44710-47262-51791-55731-55641-53191
3860.83-63063-65209-60878-47420-46146-42624
3866.61-45012-35812-20833-22532-45553-50890
3872.40-50152-48476-63946-73247-72366-65650
3878.19-64348-52965-49872-46965-51629-55234
3883.97-55027-42999-47168-45253-20900 14767
3889.76 788-39301-67687-69046-67005-58266
3895.54-55116-53301-54628-43895-41418-35753
3901.33-41186-42969-46891-51496-57931-57814
3907.11-62531-61174-62676-54382-45723-35069
3912.90-31686-27148-40419-47347-46571-33688
3918.68-27834-28011-38400-38903-30212-9147
3924.47 2289 17661 21049 21081 20455 28669
3930.25 35816 47339 50391 61928 68845 78750
3936.04 84615 92676 93920 97965 101567 119893
3941.83 138851 162885 174715 183196 188404 194640
3947.61 186710 193210 213633 237744 240589 230098
3953.40 204396 187468 169256 157506 146512 144944
3959.18 145290 150374 150996 165148 167318 161718
3964.97 149458 153894 159802 159469 151138 158077
3970.75 166495 178100 174516 158411
##END=
