##TITLE=Benzene
##JCAMP-DX=4.24
##DATA TYPE=INFRARED SPECTRUM
##CLASS=IUPAC A
##ORIGIN=NIST, Analytical Chemistry Division, 301-975-3108
##OWNER=COPYRIGHT (C) 2000 by the U.S. Secretary of Commerce
##DATE=00/02/01
##$SPECTRA VERSION=1.10
##$UNCERTAINTY IN Y=2.1 % relative (B=1.1E-04,C=5.2E-10,D=5.2E-15)
##CAS NAME=Benzene
##CAS REGISTRY NO=71-43-2
##MOLFORM=C6 H6
##MP=5.5 C
##BP=80.1 C
##$NIST SOURCE=QUANT-IR
##SPECTROMETER/DATA SYSTEM=IFS66V (Bruker)
##INSTRUMENT PARAMETERS=KBr Beam Splitter; MCT Detector; Multipass cell
##STATE=gas
##SAMPLE DESCRIPTION=Benzene Primary Gas Standard
##PRESSURE=101.3 Pa
##TEMPERATURE=23 C
##SAMPLING PROCEDURE=1 L/min Flow
##RESOLUTION=0.9640
##DATA PROCESSING=Happ Genzel Apodization
##XUNITS=cm-1
##YUNITS=(micromol/mol)-1m-1 (base 10)
##XFACTOR=1.0
##YFACTOR=7.2759E-12
##DELTAX=0.4820
##FIRSTX=575.171
##LASTX=3974.61
##FIRSTY=3.65E-07
##MAXX=3974.13
##MINX=575.17
##MAXY=.0048177
##MINY=-9.67E-07
##NPOINTS=7052
##XYDATA=(X++(Y..Y))
575.17 50197-58089 2471-133000-13860-72170
577.58 29327-120138-40117-115644-12883-64291
580.47 74732-43164 42997-13570 56976-87806
583.37 32917-74903 979-63432 83538 21468
586.26 88966-69169 16119-53276 74878-41485
589.15 72764-27188 33088-108667-11242-84564
592.05 66857-16953 68995-42732 84758-70822
594.94 29421-71719 100305-15193 55939-77922
597.83 77292-35642 40297-108483 18281-58961
600.72 81515-75830 54876-40780 75587-82713
603.62 70826-21836 109995-14223 138828 50198
606.51 227717 59716 140968-21727 110731-35333
609.40 98032-65380 58462-88757 55698-83660
612.29 63550-84379 82359-77725 45053-92197
615.19 77655-76839 91379-65202 87093-66867
618.08 95906-76422 96628-69166 101850-46762
620.97 131019-63947 90240-70296 132368-64902
623.87 101717-87110 99960-81031 104424-83051
626.76 144068-53300 134748-53143 167384-25958
629.65 196068 7134 239566 31539 265379 74803
632.54 304866 138090 419650 237653 533886 359213
635.44 666135 495275 836819 698333 1080287 982055
638.33 1417406 1342468 1808680 1760085 2299026 2320628
641.22 2931266 3006211 3702509 3840116 4615591 4844117
644.11 5734774 6048672 7057117 7484246 8637680 9184020
647.01 10461046 11092681 12495251 13269380 14844977 15704874
649.90 17407411 18375289 20166970 21196489 23115609 24197285
652.79 26177726 27231276 29203296 30225391 32194557 33134815
655.69 34998202 35729400 37491238 37981936 39437765 39575483
658.58 40800971 40574082 41447841 40795398 41348290 40213760
661.47 40371328 38714248 38513430 36372533 35881596 33337073
664.36 32603869 29542809 28597059 25166158 24294406 20699918
667.26 20100081 16396801 16433609 13330924 15358030 15607150
670.15 24477496 35849644 73119743 114918901 230614947 318974879
673.04 514881943 662150628 270595122 32371386 15297592 15226644
675.93 10325064 11648795 10972923 14805731 15332038 19249194
678.83 20308555 24232683 25609391 29405173 30855046 34317895
681.72 35655162 38801131 39975505 42685829 43442803 45548837
684.61 45877185 47427696 47303046 48294587 47733619 48204268
687.51 47186716 47110041 45701650 45226009 43513856 42721113
690.40 40749798 39654791 37411702 36054511 33751362 32347994
693.29 30082599 28684363 26442923 25035923 22881897 21579571
696.18 19576379 18413641 16612568 15552645 13883905 12943268
699.08 11346594 10568159 9220434 8619074 7459585 6963615
701.97 5919529 5570557 4687599 4441098 3647948 3485861
704.86 2828223 2750064 2148438 2119583 1607138 1657648
707.75 1219847 1297279 892638 1010157 658299 799848
710.65 471895 623625 326598 490959 210394 389209
713.54 132879 319087 80620 269463 44797 235928
716.43 13971 204664-10126 170798-38994 132986
719.33-68424 135524-50355 137188-60078 103148
722.22-87275 103311-61084 113641-75717 90455
725.11-69740 106013-72171 86836-75086 85829
728.00-75867 96256-62063 85732-76956 82880
730.90-61511 86409-78893 73012-72810 69002
733.79-74274 74903-67537 73192-72429 67505
736.68-76722 57675-75754 60732-83026 41213
739.57-88620 55253-77396 57816-67733 57300
742.47-81925 43180-80088 46574-79877 42958
745.36-74044 57540-63593 46193-77638 50361
748.25-66653 45720-72355 54232-54380 61602
751.15-51378 57577-53615 60774-51696 66925
754.04-34292 82026-27864 71076-31221 91552
756.93-3614 105946-5999 105656 13801 111722
759.82 14190 123239 29650 130767 32359 133461
762.72 39077 155368 63030 159825 69832 169439
765.61 70029 163742 68310 160186 60017 153884
768.50 55221 145228 57549 148167 49255 128204
771.39 37084 122869 26793 118647 32786 105814
774.29 3350 100483 49524 160831 65013 190987
777.18 166214 302920 496499 1382983 1652927 881011
780.07 267109 365237 229262 220196 103327 168163
782.97 53834 102216 8851 91076 17042 95075
785.86 17103 95544 26765 118453 48412 127460
788.75 64208 145082 58180 126561 57061 145842
791.64 82031 153631 65478 144980 76480 137229
794.54 68306 152484 79309 139720 56174 133254
797.43 65285 124609 48206 118278 35064 89067
800.32 19673 89544 18986 89178 7358 65747
803.21-2649 59244-23257 44425-18802 42214
806.11-32114 29754-44732 23282-40931 28208
809.00-27228 37751-31605 32174-38530 14816
811.89-56762 4435-56486 1357-64767 10204
814.79-54203 6813-49160 11299-55524 7049
817.68-47496 17623-51959 1631-46902 23024
820.57-53165 3455-46621 11107-46011 13060
823.46-54255-4418-58821 4457-54990 6020
826.36-47380 2525-53747 16222-43587 2200
829.25-52149 14521-36484 18285-45449 4957
832.14-57138 874-44783 9575-50497-3586
835.03-52396 451-59366 8416-43893 9351
837.93-45628-3686-58198 10366-39120 10984
840.82-39243 10961-34366 16433-43250 7392
843.71-48933-3972-58175 230-43706 1828
846.61-46148 9874-43050 1697-55415-8843
849.50-55520 829-43202 10383-43945 7052
852.39-38539 9277-34686 8510-48354 478
855.28-50765 3094-42685 1542-47339 4651
858.18-50124-10627-56115-1909-49545-6570
861.07-47650 1471-47863-1795-51369-5408
863.96-50071 121-39471 4328-34875 15260
866.85-41791-5835-52548 320-42891-547
869.75-46390-5506-56984-1772-38186 2444
872.64-41833 5050-41912 4711-42235 3917
875.53-43074-9246-50381 3938-36451-2377
878.43-42731 4892-43495-4051-45000-503
881.32-39915-1546-47323-4346-43355 1425
884.21-42630-1716-44113 758-48139-3864
887.10-37876-2732-51388-3498-41063-5636
890.00-54002-6475-42951-1763-45569-15615
892.89-57807-9723-42940 927-34577-2539
895.78-45932-4825-47058-12146-50180-4959
898.67-38611 1921-39928-4784-42079 3362
901.57-35667-4249-47780-2027-37527-8054
904.46-44398-2577-51469-14201-47913-9908
907.35-40065 1235-42601-4071-38324-3219
910.25-39478 2631-31549 6174-38669-6828
913.14-39793-2591-41803-1891-39805-87
916.03-39254-9096-46597-3382-35418 4183
918.92-32861-3145-41829-5808-39373 145
921.82-40330-10540-44802-5854-35274-181
924.71-38027-4866-40996-9368-42901-15495
927.60-57058-15460-44988 405-33090-7698
930.49-37440 5403-33519-7082-37479 4577
933.39-34017-12346-41574 1703-30197-4751
936.28-40961-5963-38651 1072-34151-12596
939.17-45441-5931-38378-9674-40570-5087
942.07-40742-9368-45728-9100-34621 1444
944.96-27644-612-37318-4827-39844-3870
947.85-34314-7536-42489-5554-35956-5448
950.74-34910-1564-35074-5589-31802 7763
953.64-25109 1118-36189-9109-27643 6541
956.53-34039-8125-42260-7336-24992 4882
959.42-32011 125-32344 2522-21307 4841
962.31-34377-1246-27832 2504-26597 6390
965.21-22441 8022-22045 3937-33738-612
968.10-25133 3512-26392 6863-18385 13085
970.99-23233-2674-31798 5048-22335 7455
973.89-21253 4680-28940 8203-13443 8922
976.78-20366 12428-15602 14799-15539 15304
979.67-16181 14241-14091 16352-5209 27617
982.56 609 28288-3170 31138 13886 43732
985.46 14297 48759 26085 58717 28232 53606
988.35 35263 65832 38057 68159 37264 69249
991.24 51668 83309 59514 91618 66957 99792
994.13 72461 105208 86804 115015 81755 109676
997.03 91976 127142 110682 147224 131296 179153
999.92 169432 209612 201160 251322 234026 275163
1002.81 267768 299941 270098 285626 255213 306575
1005.71 322248 403941 455079 574212 632766 739697
1008.60 788596 895022 947042 1056691 1111656 1222169
1011.49 1301846 1442412 1528675 1680166 1791710 1957680
1014.38 2075302 2260982 2400545 2600473 2744223 2941522
1017.28 3086777 3285302 3423593 3616936 3749141 3919605
1020.17 4028005 4181091 4268450 4392172 4445897 4536969
1023.06 4550370 4595362 4571355 4580044 4512987 4475260
1025.95 4361679 4283695 4151415 4065390 3908988 3804653
1028.85 3649867 3566178 3470479 3471688 3447233 3466747
1031.74 3490939 3721466 4052617 4624655 5286440 5794638
1034.63 6187607 6953529 7892975 9113305 10973194 13218739
1037.53 11839548 8099694 6731307 6118643 4973219 3894625
1040.42 3078083 2573880 2261692 2164447 2170002 2297056
1043.31 2441068 2658964 2848648 3070007 3247242 3454331
1046.20 3610641 3788630 3904173 4043924 4129824 4228860
1049.10 4252183 4297441 4286909 4294560 4228149 4190437
1051.99 4096729 4025939 3893115 3791545 3641337 3512237
1054.88 3322449 3176301 2994999 2845934 2650563 2510970
1057.77 2333518 2186316 1998816 1858055 1687452 1569547
1060.67 1416612 1309084 1161181 1070418 945154 867537
1063.56 760325 695243 592801 544524 470017 434010
1066.45 356383 327998 264582 246459 191631 184263
1069.35 138881 134342 89108 87294 59366 79364
1072.24 48738 51859 16699 31880 11032 31823
1075.13 3155 11440-15833 5343-17244 141
1078.02-19695 1817-14994 4357-20614-2401
1080.92-24602-5365-23813 2054-20316-9208
1083.81-32053-4253-24300-4387-21211 426
1086.70-21770-7982-31036-10271-31930-9030
1089.59-28063-9792-33697-8721-27347-7274
1092.49-31217-17099-34079-12819-28440 2267
1095.38-16048-4872-33417-18746-36333-13691
1098.27-27638-6335-26183-458-18371-4738
1101.17-25497-8698-32034-18646-39281-13623
1104.06-31654-12442-29195-3262-26340-11793
1106.95-26657-5988-29257-9261-30018-15154
1109.84-32573-8753-28856-7240-25933-12028
1112.74-28989-5345-22292-8374-30783-10460
1115.63-36044-19038-35483-17660-37023-22810
1118.52-35644-8798-26244-5879-28587-12923
1121.41-28655-10581-28199-13508-34524-22177
1124.31-45452-24161-35824-17619-32226-8429
1127.20-30085-19768-36057-14872-36413-16884
1130.09-31909-13174-38988-21034-34142-14987
1132.99-37287-14127-30525-11622-28044-15670
1135.88-34288-10080-28965-14164-34184-19417
1138.77-38908-21892-37781-20373-38757-12888
1141.66-33507-23545-41687-20641-37092-14798
1144.56-31361-12263-28205-14644-33081-10085
1147.45-27312-11601-28085-11392-35445-19076
1150.34-29432-13523-35982-17632-31746-16740
1153.23-36709-14021-32348-15980-28020-10584
1156.13-30294-12525-28532-10435-34655-22859
1159.02-28704-1957-25305-14232-34829-17667
1161.91-33090-8915-25854-16076-34171-15626
1164.81-29808-9567-24786-6336-25100-7180
1167.70-22524-1307-14767-1460-27881-13457
1170.59-28307-8829-26449-9525-22382-4716
1173.48-23135-4392-17282-1047-18873-4181
1176.38-20924-5520-23271-2807-16871 1099
1179.27-16956-2346-19126 864-18149 795
1182.16-12392 3623-12943 6066-10864 1784
1185.05-14152 2955-10791 4716-12795 6133
1187.95-8031 10057-5829 15387 3869 26953
1190.84 28026 59977 52171 59324 15992 11747
1193.73-3413 17797-3690 6887-14146-1739
1196.63-21607-1882-10138 9427-8851 3905
1199.52-10953 8320-7060 7315-6493 9502
1202.41-7275 8084-5900 12228-5573 9917
1205.30-3170 17951 5551 18425-2685 11499
1208.20-3667 7080-12213 8719 17162 82932
1211.09 101989 94013 44426 41141 13254 22778
1213.98 6319 18872 1292 12291-1429 17886
1216.87 4128 21427 5241 18448 5461 25625
1219.77 19032 34427 18445 41059 33671 46001
1222.66 28852 43997 31517 54535 47548 68382
1225.55 62030 84185 75909 96682 88146 110859
1228.45 101253 123061 116760 131415 122385 147627
1231.34 140514 161270 145605 157050 142979 162672
1234.23 152747 171933 151507 157384 144292 153989
1237.12 136104 149392 132099 147908 134327 148674
1240.02 135568 156572 143718 158830 140854 149580
1242.91 132832 145640 124560 138013 119415 127975
1245.80 116821 137684 129688 147478 128151 137148
1248.69 126978 146093 138071 159298 147477 158417
1251.59 141236 157274 139446 143448 122659 135407
1254.48 114084 118395 98311 105245 82558 92117
1257.37 71251 75804 51379 56970 33409 39821
1260.27 21971 29735 9899 20845 4112 11851
1263.16-5237 5521-12572-2594-23258-10905
1266.05-22791-11685-28003-16401-24755-9380
1268.94-26743-11529-26041-16570-31893-16019
1271.84-29738-16813-29515-17274-28547-12369
1274.73-28995-16316-26258-17277-34495-21670
1277.62-34333-20653-34516-19256-31141-16781
1280.51-30169-17074-27440-15350-37336-22919
1283.41-29173-12378-25842-20510-36094-25669
1286.30-39292-19297-32310-18477-32571-19467
1289.19-28083-17752-34740-18746-27144-11573
1292.09-25346-16077-34713-25834-39812-23082
1294.98-34902-21223-32025-20132-33836-20140
1297.87-31732-16878-29933-16582-31607-20927
1300.76-27845-15298-35371-21737-32740-21714
1303.66-32010-15783-30981-20745-31025-18226
1306.55-29566-20761-35498-22166-37503-25953
1309.44-38385-24821-35649-19375-30613-19026
1312.33-35806-24154-37174-23080-32709-17620
1315.23-31734-19975-28168-14422-32190-22451
1318.12-30022-15855-32380-24450-40007-29229
1321.01-42517-26854-35911-25585-36616-19061
1323.91-30668-20456-33599-26844-35902-20958
1326.80-39379-28144-38516-21622-33062-23741
1329.69-39405-26098-38019-26138-37763-25222
1332.58-38474-22464-31500-20270-33176-23329
1335.48-36682-19311-32573-24577-36956-22570
1338.37-34551-21351-31829-23446-38941-24525
1341.26-34735-27129-40010-27359-41262-30569
1344.15-40827-29198-40438-25103-34830-25214
1347.05-34837-23477-32096-14647-26584-14986
1349.94-31224-24853-41510-34474-46699-43051
1352.83-57861-39944-49202-35750-39069-18461
1355.73-24274-14839-28463-18583-26476-1710
1358.62-19301-13690-20770-5291-10943 9145
1361.51-3742 12870 13433 26267 12155 31841
1364.40 25283 43468 44883 66508 71434 97975
1367.30 99824 128779 133153 158174 160219 188867
1370.19 196761 235215 249347 276673 283969 317662
1373.08 332193 370464 385586 420310 423673 452650
1375.97 457138 480608 491274 517797 513945 532183
1378.87 527311 538024 526652 539702 521293 520234
1381.76 502364 507108 494620 504178 486539 490523
1384.65 470137 479786 473897 496249 501491 511316
1387.55 493645 517622 522593 518975 481436 472836
1390.44 451310 456388 441066 458761 458195 478680
1393.33 473688 500307 504815 520034 514932 526232
1396.22 513538 523720 506942 508039 486573 483683
1399.12 449183 437436 401047 380554 343520 327930
1402.01 290784 276220 240399 226514 191657 181653
1404.90 146133 137916 110882 102669 76227 71317
1407.79 46076 51984 35977 38046 19848 22760
1410.69 6318 9378-11390-3761-16988-6613
1413.58-15146-6902-20540-15059-24379-9861
1416.47-17248-5360-24452-18832-14557 20885
1419.37-861-12401-26788-15115-22680-14493
1422.26-26174-15154-23780-13829-22136-11678
1425.15-24659-18844-28699-14968-22764-11725
1428.04-20387-11064-22609-9039-18895-10203
1430.94-21616-13898-23238-11417-23394-15067
1433.83-21878-8933-19029-3778 1891 30066
1436.72 6440-3007-15517-1539-10119 928
1439.61-10018-1930-12063-2112-8963 2073
1442.51-4452 9039 507 9231 4678 23587
1445.40 10741 19623 20809 47293 51198 59732
1448.29 52398 75738 81732 108681 119259 154972
1451.19 167273 197252 215679 259777 287179 343738
1454.08 389732 466014 526730 622477 734682 850971
1456.97 914231 1033774 1161499 1314322 1465058 1649167
1459.86 1831397 2048044 2260002 2515333 2768531 3051431
1462.76 3330735 3643074 3955056 4310328 4635340 4970124
1465.65 5303821 5662360 5993067 6338679 6664837 6981489
1468.54 7264476 7545336 7771796 7986891 8157974 8315141
1471.43 8423229 8488500 8496388 8512226 8464811 8389998
1474.33 8270708 8139691 7957675 7805386 7734203 7735333
1477.22 7712996 7673861 7663151 7892794 8277653 8775528
1480.11 9458386 10242801 11110564 12216491 13172642 13742809
1483.01 12913096 10718941 9840457 9809545 9314825 8652654
1485.90 7993062 7463911 7046366 6787595 6630421 6615203
1488.79 6685859 6844510 7021195 7269158 7500830 7745754
1491.68 7970540 8176221 8326442 8468419 8531039 8559822
1494.58 8522978 8455090 8344964 8188237 7939036 7697107
1497.47 7411451 7125177 6801185 6475103 6127246 5807895
1500.36 5473956 5163792 4851125 4582183 4311259 4082965
1503.25 3856497 3669524 3496236 3377897 3244656 3108178
1506.15 3001271 2930449 2810646 2739610 2671990 2620261
1509.04 2556024 2508088 2429257 2374251 2313857 2277357
1511.93 2216045 2154286 2081969 2033929 1975009 1946984
1514.83 1904120 1887463 1868182 1895162 1900924 1898507
1517.72 1892026 1917741 1884711 1784175 1727768 1755700
1520.61 1744858 1710225 1640390 1637905 1616963 1626301
1523.50 1634732 1670903 1700380 1752009 1767361 1791917
1526.40 1802208 1824513 1814099 1816534 1786530 1763920
1529.29 1713842 1665759 1589914 1532904 1444931 1367983
1532.18 1278670 1211561 1120181 1034414 923555 848326
1535.07 758169 689054 605323 549883 480367 437834
1537.97 393966 390332 326073 288103 256245 210405
1540.86 166877 173000 146603 115320 88251 84946
1543.75 63192 70334 59191 49082 27104 27289
1546.65 13171 17230 6595 12272-2346 6957
1549.54 2138 6176-5157 3910-8880-3260
1552.43-12766-2398 5839 30023 1070-6196
1555.32-18046-9345-15856 13735 18998 47036
1558.22 40914 20355 22905 53019 20733-2656
1561.11-12295-4777-12006-5170-10940-632
1564.00-3916 7672-6073-3008-11618-2770
1566.90-11308-3490-7303 5410 7509 28391
1569.79 7622 3186-2892 2006-3362 7105
1572.68-2254 1204-7087 4796-59 26799
1575.57 58675 50085 10468 14179 3585 11204
1578.47 511 6505-2631 3812-2535 7090
1581.36-782 6449-5771 884-5759 2669
1584.25-3670 5096 830 10914-2187 4674
1587.14 1437 17066 9477 14359 4766 9426
1590.04 4148 17148 9634 16851 5341 10717
1592.93 6203 21764 17062 24189 19091 26052
1595.82 16625 29056 24842 33403 24860 36315
1598.72 33602 43601 35657 43300 41420 54465
1601.61 49240 60712 59396 73130 66906 76174
1604.50 68800 79832 77348 87628 80453 94553
1607.39 88554 94763 87286 99256 91470 95276
1610.29 87530 90029 76530 87088 82333 85061
1613.18 70518 75181 63589 66868 55699 77586
1616.07 106952 104426 64431 74671 77230 100082
1618.96 100538 130836 176019 226514 240870 289627
1621.86 334827 329878 268136 209300 136798 105641
1624.75 74661 63701 46905 56565 57659 77611
1627.64 73626 80640 78873 93750 90366 104330
1630.54 100320 114251 114666 125589 113842 122311
1633.43 119349 134125 141552 171101 159753 135859
1636.32 115880 121660 110085 113445 98203 95304
1639.21 81956 83790 72942 76395 64089 68681
1642.11 57111 58244 48540 52977 45064 50366
1645.00 58023 82376 57913 52664 43769 48627
1647.89 39542 38823 29906 42726 38390 44542
1650.78 40701 66341 101834 128968 128973 109657
1653.68 85332 102714 84982 92432 88728 99451
1656.57 101009 126752 120612 121933 113545 122720
1659.46 112892 121755 118281 127858 120541 140508
1662.36 142468 143757 131184 151837 156619 181574
1665.25 284986 449294 327709 153664 118906 131154
1668.14 132795 153247 146644 139096 129291 136639
1671.03 131889 135955 129718 130747 120141 131576
1673.93 134995 165275 175090 167635 148940 156341
1676.82 153040 160143 153251 162418 155030 157825
1679.71 147337 149299 138236 137404 119411 123232
1682.60 120835 126555 120978 157187 151441 105041
1685.50 73970 71841 59753 54320 41219 41775
1688.39 31068 33835 25872 31613 19575 20222
1691.28 13413 18799 9465 12842 7990 16177
1694.18 11564 30501 66721 73220 20835 16646
1697.07 12263 14604 4544 10955 30253 67300
1699.96 60739 48897 16024 11594 445 2946
1702.85-5512 7592 7205 12501 2609 15975
1705.75 20068 25551 9544 8307-5477 3421
1708.64-5300-3403-12725-6919-16037-10958
1711.53-18438-8834-4232 19423 32246 70432
1714.42 144749 226479 133513 40583 43381 96821
1717.32 55333 17087 11995 10579-8245-6731
1720.21-7997 1490-6291-3640-7715-676
1723.10-6808 62-1681 8505 4439 11339
1726.00 7728 19878 16606 22337 20081 30209
1728.89 31541 49046 45518 47203 44866 59228
1731.78 56962 79907 104726 108746 111708 138764
1734.67 111677 109345 109971 122852 122478 134552
1737.57 131479 138656 140130 169003 170654 165409
1740.46 160784 169324 158231 161340 161095 168055
1743.35 155637 160345 152984 153964 143503 143399
1746.24 130954 130840 120212 126799 120315 117637
1749.14 103862 106678 113349 149700 168805 195604
1752.03 236398 302616 369446 448294 492522 457896
1754.92 357870 322175 288335 254790 201336 167183
1757.82 124600 106643 90905 93998 88989 102385
1760.71 111981 142365 141506 142425 145034 160064
1763.60 164470 184460 184409 195381 193055 208369
1766.49 213156 223907 229286 236230 221352 227790
1769.39 223284 229030 228963 243876 236760 252652
1772.28 260317 246129 228313 238690 234410 245164
1775.17 247310 255439 252676 267876 266779 277540
1778.06 280538 296732 303785 323000 329854 348346
1780.96 360813 384179 392156 412980 423851 448458
1783.85 470344 508520 524795 559063 590783 637085
1786.74 671408 725845 776600 844065 902205 976927
1789.64 1052273 1155108 1249849 1358541 1477704 1623448
1792.53 1740145 1863925 1995022 2142601 2287112 2451941
1795.42 2611411 2784860 2949443 3131945 3295793 3467760
1798.31 3631664 3800489 3944380 4078708 4185677 4293614
1801.21 4368831 4436411 4478104 4510258 4512246 4515528
1804.10 4497813 4470252 4412598 4366403 4327204 4294016
1806.99 4242246 4205724 4168526 4183106 4205178 4224045
1809.88 4234500 4272732 4300822 4292666 4251427 4164120
1812.78 4040694 3949534 3871667 3850755 3850545 3902223
1815.67 3963574 4061417 4155314 4265207 4361418 4452017
1818.56 4514960 4563360 4571362 4558229 4500803 4424276
1821.46 4310260 4178696 4009276 3832657 3624383 3415067
1824.35 3189118 2964517 2723770 2499047 2269574 2060420
1827.24 1848491 1658732 1476324 1323636 1172080 1042373
1830.13 902851 789439 684622 602553 518705 454091
1833.03 391468 346833 298353 262427 217875 191155
1835.92 159567 144776 122942 112868 90281 85575
1838.81 70152 64190 54895 52642 40434 41093
1841.70 31862 31262 24364 37643 47986 44148
1844.60 21627 21550 10943 10243 5840 15031
1847.49 9043 14139 13244 22017 14427 14134
1850.38 7959 14900 8408 16808 15190 23353
1853.28 18755 22632 19147 25138 17931 22401
1856.17 17095 24676 21897 28844 26251 32372
1859.06 28337 37650 37124 44485 40962 46201
1861.95 45388 56101 52707 58751 55102 63558
1864.85 60346 66326 59972 62697 60257 72148
1867.74 69627 73249 76920 79665 66770 69939
1870.63 63183 68900 60811 64256 61880 66989
1873.52 63231 68610 62831 70692 69699 79416
1876.42 77700 80341 73100 76928 71639 75562
1879.31 68909 72227 61079 64306 63650 67553
1882.20 58968 60659 57668 67053 66435 82245
1885.10 89683 105390 103386 108235 101937 101557
1887.99 90426 90487 81392 77843 57950 54573
1890.88 47229 46256 34801 35993 28115 32326
1893.77 24901 24900 19447 23867 17587 20695
1896.67 14896 20532 13867 18080 15159 20327
1899.56 14674 16130 7578 11313 4370 6194
1902.45 73 4646 254 6567-2003 3030
1905.34 1667 4491-6122-3217-5975 1421
1908.24-4288 1318-2010 5160 1384 6872
1911.13 6380 16235 14468 23517 20481 26616
1914.02 22520 27303 18509 20082 16614 21969
1916.92 18092 27742 21984 23642 21470 27596
1919.81 28572 41147 46158 56339 53332 62587
1922.70 69066 82483 84667 97960 102734 117894
1925.59 123091 136120 144515 167175 174341 193374
1928.49 207710 230710 242899 265903 283509 313346
1931.38 337876 373715 401632 441227 475483 522462
1934.27 563235 613871 659542 717845 776637 851147
1937.16 916452 998930 1077264 1168232 1255025 1359392
1940.06 1456983 1563964 1670127 1794198 1905799 2018879
1942.95 2121047 2233781 2332291 2435892 2530896 2627511
1945.84 2706796 2789917 2849381 2906851 2948225 2989745
1948.74 3024920 3076798 3082769 3066333 3035478 3018054
1951.63 2997769 2982730 2949208 2919613 2895191 2898023
1954.52 2895036 2887404 2867823 2848978 2829506 2827112
1957.41 2793062 2763416 2698247 2623764 2556004 2525217
1960.31 2514562 2534095 2570631 2634337 2698133 2775235
1963.20 2848436 2923453 2983454 3034827 3053348 3059303
1966.09 3030217 2994210 2931536 2855039 2750341 2638464
1968.98 2510158 2373949 2217229 2072015 1915900 1766293
1971.88 1608547 1462734 1316416 1186454 1055741 945753
1974.77 837505 747008 655216 577651 507159 453889
1977.66 390372 341244 293202 257323 216951 199524
1980.56 177146 159695 141636 134564 121707 124677
1983.45 116692 117012 105987 109201 111342 122847
1986.34 120405 130828 144054 176568 207544 248014
1989.23 230887 143393 71204 61457 55581 57591
1992.13 51341 52398 51121 62279 64450 72114
1995.02 67021 72982 69140 76512 78984 83214
1997.91 76203 92823 107850 122604 110890 118513
2000.80 110297 121413 157968 210531 248813 221153
2003.70 152058 221617 406348 644323 536054 195356
2006.59 81407 96888 134895 217606 236586 175937
2009.48 116993 92523 76891 71619 60775 63507
2012.38 62986 69137 69721 71968 69218 79388
2015.27 83628 93855 95370 103951 101711 107394
2018.16 105880 104304 100332 113762 110128 105860
2021.05 102374 109018 103426 96805 87802 85272
2023.95 77937 81624 71985 70146 61432 61430
2026.84 50114 46528 39752 41126 38638 38019
2029.73 29459 29560 24463 29942 25239 23991
2032.62 17528 16343 10934 10710 6087 11621
2035.52 8705 17590 18512 10824-5212-3451
2038.41-10447-8346-8645-5551-9152-5663
2041.30-10590-5231-5894-3999-6298-2860
2044.20-10185-10018-12539-5121-10410-11079
2047.09-16990-10763-10380-6964-10607-6485
2049.98-10657-7961-13821-12459-13534-8474
2052.87-14379-11492-15111-8771-12266-11041
2055.77-16445-10559-12742-12508-17714-13876
2058.66-20306-15750-16456-14029-16288-9258
2061.55-15441-16072-18729-12147-15704-14304
2064.44-22340-21304-25529-23094-26453-20619
2067.34-23140-20851-26994-27561-31954-27222
2070.23-30921-27464-30659-28086-34159-27164
2073.12-33364-38104-42515-37512-37544-26565
2076.02-23255-14664-17589-21984-26382-19041
2078.91-22349-20315-24390-21378-21258-10744
2081.80-18198-21855-25053-22343-25613-22362
2084.69-24198-15869-10993-11676-21232-13881
2087.59-12637-1994 302-1736-8258 945
2090.48-9306-15701-19791-18774-24459-19183
2093.37-19700-11092-7216-12732-25733-24740
2096.26-27797-23528-26680-19611-12503-4512
2099.16-17864-19183-22581-17886-23471-21688
2102.05-20667-2893-6147-17898-24692-24206
2104.94-26856-20469-23623-14004-3853-14354
2107.84-31311-23493-20977-19449-25514-20878
2110.73-6360 4929-17261-21640-24475-22265
2113.62-29029-25122-19055 1436-13325-27943
2116.51-31515-22730-28151-27068-24177-2448
2119.41-2271-16861-25143-20681-24379-24758
2122.30-25393-9542-4930-18225-27603-25993
2125.19-26946-20855-22333-9567-947-9466
2128.08-22050-18302-22784-23380-23517-18523
2130.98-13944-9687-19175-16327-21460-21812
2133.87-22878-11700-754-3996-19400-9603
2136.76-2286 18566 16110-7299-19884-18703
2139.66-23505-17719-18769-14841-18671-14187
2142.55-11571 2017 7297 3499-16557-20094
2145.44-24055-19724-21116-20393-25415-18121
2148.33-20106-20871-23660-14825-10586-11058
2151.23-20361-17821-21543-15935-17809-8752
2154.12-7109-13577-21354-21129-27990-24541
2157.01-23745-4518-2689-13584-20750-16935
2159.90-16419-14162-12583 7107-2300-18344
2162.80-24622-25785-28984-21889-6280 9401
2165.69-10731-20077-24773-20343-23792-13918
2168.58 8079 5850-20342-21549-23901-21751
2171.48-21832-539 3694-14838-25546-22652
2174.37-27850-22984-6108 14425-5979-18195
2177.26-20040-17559-24308-13910 4649-2237
2180.15-23046-22047-21139-14246-11027 7003
2183.05 745-10836-17116-14086-15283-7932
2185.94 3178 3528-11918-9873-10628-6135
2188.83-3560 11524 8363 4178 449 1334
2191.72 4648 16947 22910 24874 15868 16513
2194.62 13369 25043 38113 51779 50943 53867
2197.51 56097 68051 78664 98118 112002 117782
2200.40 122749 135199 139399 157144 173324 195458
2203.30 205106 220962 237854 260817 281085 306137
2206.19 320829 340815 353777 371833 378468 389257
2209.08 394561 393627 382991 376524 359223 338559
2211.97 315324 301902 276001 256239 248679 261078
2214.87 280267 308651 334973 376308 408801 431382
2217.76 434040 431285 411071 382049 350838 325319
2220.65 291969 267489 240948 221688 199703 182400
2223.54 162297 148987 129553 117931 107258 99815
2226.44 87559 86896 78050 70927 55910 50520
2229.33 46284 43208 36732 30913 20865 19608
2232.22 18935 20723 16692 16248 7955 6398
2235.12 975 1904-1140-178-2170 484
2238.01-3546-5193-13119-11714-14789-10213
2240.90-16112-17866-20139-18538-22003-19113
2243.79-19021-17993-21299-16282-20253-19174
2246.69-17868-14668-20116-15167-15750-17196
2249.58-19346-17641-20629-16100-18629-15775
2252.47-19618-15147-12103-9311-16914-19771
2255.36-22426-17998-18712-14911-15102-11380
2258.26-16445-14825-11489-10264-13390-10232
2261.15-15148-12870-13207-8025-4730 1475
2264.04-7 3681 3534 5149 7176 10263
2266.94 4732 10767 12519 13752 10417 11745
2269.83 12902 17269 14211 17126 14812 15339
2272.72 12665 18529 14451 12418 11620 15495
2275.61 11885 12669 9447 13920 10332 7120
2278.51 3150 10224 9396 8779 7922 12113
2281.40 13958 15488 8694 10531 5233 7125
2284.29 6595 11001 12519 16640 16702 17842
2287.18 10288 11247 11563 13951 8709 10796
2290.08 9861 12655 7928 7706 8546 11164
2292.97 6046 4824 482 5437 6321 5636
2295.86 1343 4252 6782 7381 2143 7009
2298.76 5893 3676 5138 14055 15463 18602
2301.65 22130 31761 33674 41929 50627 63248
2304.54 69568 81227 91990 112807 126668 135647
2307.43 147946 174002 198596 220650 238219 266681
2310.33 294869 326206 346744 378876 411157 442314
2313.22 456222 476747 499702 530329 539225 550099
2316.11 562566 580289 577265 573439 567297 572975
2319.00 559969 541351 529695 531230 513096 490705
2321.90 481995 494426 489185 473465 469624 498776
2324.79 510277 496404 497825 566988 659125 671271
2327.68 655438 649561 615662 578248 574514 599360
2330.58 582909 580337 618124 638715 615291 613934
2333.47 634933 631159 601047 610756 623006 591594
2336.36 556297 562544 547806 501082 478280 478028
2339.25 437165 391030 380805 365108 312766 288833
2342.15 282091 249384 212209 207027 186794 152318
2345.04 134953 133116 108856 89339 84402 74896
2347.93 56259 51779 48011 46959 36510 36131
2350.82 41912 39031 31017 40308 29079 23026
2353.72 43808 44834 26566 46830 47027 34234
2356.61 54541 56690 41021 63355 56014 46847
2359.50 70795 63551 61791 89449 69304 76830
2362.40 99528 93876 116047 135164 120312 118373
2365.29 95142 96318 108754 103925 112326 102856
2368.18 92841 96092 84994 95614 91375 91560
2371.07 98862 97897 99063 91850 91711 90596
2373.97 86076 87233 80976 85824 82242 82012
2376.86 80165 84555 83101 93197 95047 89249
2379.75 83905 94026 94911 98111 100451 108782
2382.64 118559 138854 155391 167429 187997 270579
2385.54 302360 239857 174778 138784 122515 113290
2388.43 101592 101464 108411 116241 120016 124214
2391.32 124528 129636 130930 139128 142151 142052
2394.22 143789 148875 150270 150364 148869 152023
2397.11 151719 152325 149836 150955 161709 164723
2400.00 149085 139006 132115 127263 117588 117510
2402.89 116021 117191 114478 111933 113273 124211
2405.79 128560 135071 146996 164439 163476 160293
2408.68 198245 237197 201118 152139 111222 85514
2411.57 68400 63626 59895 54659 52474 56977
2414.46 52643 54618 60227 65231 64023 62412
2417.36 65708 68619 67674 72988 72141 72861
2420.25 73724 73777 73730 78429 73728 65433
2423.14 63502 69131 66693 64985 58051 51390
2426.04 44105 44155 41615 37028 29441 29803
2428.93 27574 25611 18659 15990 14200 14305
2431.82 10663 9630 10413 9062 3901 7780
2434.71 5556 809-2041-1076-5874-3675
2437.61-2809-7426-5468 311-2750-2704
2440.50-7381-5674-4370-1485-4559-3166
2443.39-3406-3884-7431-8496-9547-8746
2446.28-8748-3204-6533-12433-12475-6158
2449.18-10453-11419-10618-9987-9866-9469
2452.07-11340-10359-11768-12522-12977-9074
2454.96-9843-10470-11907-10661-8900-4002
2457.86-4518-4078-3529-1694-2302-1544
2460.75-1068-3500-6540-216-1021-1134
2463.64 1489 2721 1063 2853 25-396
2466.53-250 3513 575 824 2116 7168
2469.43 10713 14108 12103 18063 18562 17185
2472.32 18238 19704 16710 17487 15751 17247
2475.21 19773 24826 23667 22012 16010 14141
2478.10 15354 16617 12891 17654 16617 13516
2481.00 12598 17297 19287 18608 12908 14346
2483.89 23485 29797 21816 17420 15014 11448
2486.78 9798 12689 11498 13578 16937 19058
2489.68 17598 19489 17544 13605 6816 9989
2492.57 15990 20690 17388 14818 16663 21156
2495.46 18157 13937 5849 3768 2449 1
2498.35-2542-1172-4858-8029-12764-10699
2501.25-9658-12130-14883-14332-14794-13454
2504.14-16051-14623-19779-19166-20283-20324
2507.03-16318-17625-20798-16744-17266-20537
2509.92-24634-27939-26649-22044-20215-18903
2512.82-21235-18805-20884-20364-19980-13286
2515.71-14045-21796-26197-26319-24491-19886
2518.60-19836-20089-21229-22317-25999-23269
2521.50-20156-19949-22676-23554-23135-19776
2524.39-21014-20295-26426-32369-32514-23536
2527.28-18394-21409-28579-26852-27330-26810
2530.17-26734-28352-30464-29175-28022-24669
2533.07-24038-20914-20460-24031-30083-26810
2535.96-25217-20499-16674-17834-20071-20898
2538.85-21954-16239-13062-16339-19504-16791
2541.74-14919-10670-11644-12756-12159-12339
2544.64-10146-7773-4469-3995-9335-9640
2547.53-9414-7006-8111-11229-12874-5351
2550.42 2622 8703 10250 9065 9942 10670
2553.32 10742 16586 22984 24715 32454 37855
2556.21 40374 40897 30004 10871-4701-6539
2559.10-3504 321 1550-700-361 2941
2561.99 3446 5854 9310 11746 6613 3534
2564.89 1100 934 7064 14896 11025 9159
2567.78 14218 12232 11697 11403 9743 10850
2570.67 12388 12310 14464 16608 16812 18521
2573.56 20536 26710 35769 52903 84307 91845
2576.46 59049 35396 28331 24214 18584 18001
2579.35 18965 16491 16822 21593 22607 22408
2582.24 20807 26500 32791 39396 43744 47313
2585.14 48366 52101 56569 63261 71539 74002
2588.03 74017 77837 84632 89841 89774 95013
2590.92 98515 102625 106414 111422 115778 122328
2593.81 126077 122938 120417 125323 127595 131332
2596.71 134365 134267 135115 136317 134293 134277
2599.60 137966 144357 149664 155230 157202 167030
2602.49 188435 204984 210989 222118 226632 218253
2605.38 217932 234202 249697 268034 285244 295006
2608.28 302472 312958 322158 328775 326046 322121
2611.17 315907 304216 287049 271427 254755 237935
2614.06 218728 200152 183933 165250 150669 141250
2616.96 135404 127883 116803 109162 105264 107402
2619.85 104114 104922 123580 130981 117188 106522
2622.74 102499 101473 97467 91369 86258 83931
2625.63 82686 84585 83075 76691 79049 81301
2628.53 72652 68375 69626 69650 70778 70054
2631.42 68241 61908 53582 47935 45724 47121
2634.31 45340 41580 42133 41776 37073 34592
2637.20 33134 32356 32227 30239 29502 30838
2640.10 28913 31286 39412 43114 50857 54071
2642.99 49070 51701 62666 71667 77952 81851
2645.88 86441 95337 104265 112956 116552 125087
2648.78 135491 135824 141983 145370 140915 141961
2651.67 144456 142474 135328 133451 132805 128871
2654.56 124221 116376 109181 100931 100270 102568
2657.45 102440 102725 102202 105339 103257 105540
2660.35 107678 108015 119664 134169 145333 149541
2663.24 150289 157063 161482 159435 157988 156381
2666.13 146782 137539 132637 125946 111460 94484
2669.02 85796 82102 69785 60314 53349 51608
2671.92 48124 40080 30381 23819 17225 8936
2674.81 3742-166-1583-1764-4104-4388
2677.70-8187-5460-1721-4652-11360-15319
2680.60-16246-15841-18590-19948-17252-17850
2683.49-14989-14896-17785-15796-14587-21212
2686.38-29274-27569-25364-23844-23200-23967
2689.27-25591-25266-24340-28817-30954-27290
2692.17-25349-25499-28714-31130-28944-29264
2695.06-28061-26069-29722-32247-30532-30794
2697.95-30544-32227-34486-35358-35947-44001
2700.84-44634-42051-41316-39658-36526-37040
2703.74-29056-24102-24660-27873-31608-33380
2706.63-27023-26100-31330-31616-28046-30271
2709.52-25958-17155-14201-20115-22365-21934
2712.42-28908-31217-24158-22141-23792-24955
2715.31-26506-33297-34959-29194-28359-33066
2718.20-33773-29009-29881-36281-34098-34174
2721.09-34225-30827-32177-31599-30829-33868
2723.99-37512-37216-35715-29991-31435-35469
2726.88-34775-30312-26868-25692-20901-20557
2729.77-29778-35860-29085-33217-31886-26689
2732.66-30205-33576-34212-33817-28256-21985
2735.56-19961-25520-30735-28723-21605-22845
2738.45-18696-23220-31177-34851-30124-24940
2741.34-28152-32673-31632-29943-28437-30493
2744.24-27834-28982-31627-31916-31732-28173
2747.13-24398-25603-27801-29768-28381-28345
2750.02-26911-28315-31747-33456-32619-36740
2752.91-34005-33826-35618-31365-26742-31737
2755.81-34260-37098-34250-31090-30000-29892
2758.70-31006-34964-28960-22631-22598-28500
2761.59-26807-22700-29528-33828-31518-30053
2764.48-24927-26124-27023-30596-34569-34262
2767.38-32181-31951-28392-29021-31194-30491
2770.27-24911-24031-25291-27069-31071-31949
2773.16-27656-27075-31162-30119-23878-19006
2776.06-10664-15293-24238-28650-30733-30670
2778.95-28153-24632-28131-36890-30857-26324
2781.84-25175-23861-19096-17876-16750-17161
2784.73-13900-15030-20351-24281-26146-26490
2787.63-16519-9163-9937-9137-7860-7333
2790.52-2522-6088-10835-10024 513 9480
2793.41 11718 14028 21947 24218 24881 24895
2796.30 27263 30028 38887 43928 47272 47687
2799.20 49983 53881 61873 68196 81451 83789
2802.09 91090 102089 105233 107514 115700 125194
2804.98 138720 148277 158805 164019 170685 179632
2807.88 190104 202276 217559 223788 229917 236311
2810.77 241585 257270 269047 272533 275383 275523
2813.66 282859 290181 292985 294868 303143 304622
2816.55 309678 314091 310464 306866 314627 315758
2819.45 311528 311759 308505 304789 306082 306196
2822.34 308466 317030 335024 356935 378186 392332
2825.23 398474 408835 421691 418646 421857 463481
2828.12 474556 433183 402616 376442 355577 329922
2831.02 304891 290901 289404 286653 293441 291032
2833.91 290723 298145 305671 311516 316981 312252
2836.80 316773 325474 329457 331133 338423 337805
2839.70 333714 329618 335134 330682 327477 322210
2842.59 314241 307769 303224 290381 281246 277715
2845.48 272078 255504 251674 248897 241410 233935
2848.37 224692 213930 216420 226375 230208 226618
2851.27 231187 234549 239272 246111 264052 278077
2854.16 275602 254468 226953 203494 194708 184135
2857.05 177151 169424 166519 163792 166012 167209
2859.94 172298 171836 178705 187860 196919 206200
2862.84 210007 216197 225449 225686 227797 235368
2865.73 240133 240337 242826 242858 248253 242069
2868.62 236929 240817 252417 247799 234944 228790
2871.52 233366 241636 243847 246178 253307 261422
2874.41 273751 276927 289641 299953 315232 327416
2877.30 339296 349273 370863 380633 391739 414232
2880.19 428694 439748 453679 460011 469621 476343
2883.09 493603 503264 502079 507181 516529 524957
2885.98 540552 547950 555253 566326 581616 594594
2888.87 616762 634872 657906 675255 693653 707366
2891.77 731590 760617 790034 821451 866796 917797
2894.66 969292 1013757 1064169 1099089 1126428 1157186
2897.55 1180657 1178901 1158258 1118351 1071900 1011235
2900.44 948647 881824 814052 750183 701145 648129
2903.34 602489 567954 546612 523353 507708 491684
2906.23 482892 470666 461895 447296 432341 429371
2909.12 426339 415580 405127 385051 363135 347936
2912.01 342068 326108 318559 307993 301234 297268
2914.91 293375 282655 274564 268199 262608 253963
2917.80 250350 245991 237407 229526 228440 218384
2920.69 205601 184501 169253 154147 144137 131999
2923.59 119242 108319 106508 89914 83826 75516
2926.48 69223 68105 62540 46046 33121 19657
2929.37 21516 16121 5109 1666 4492 3261
2932.26-2302-10207-8182-8153-6703-13722
2935.16-10698-8149-9485-15055-17759-27181
2938.05-25837-20331-19891-27382-30638-30917
2940.94-24591-32456-38272-39811-31295-34382
2943.83-36289-30287-31803-38785-33876-33500
2946.73-29141-28484-35882-40449-34983-32062
2949.62-30094-34925-30697-28860-29535-30467
2952.51-22104-23162-15848-15885-19843-20334
2955.41-17903-25598-26757-23052-19169-21700
2958.30-27036-43083-41803-43655-42354-46701
2961.19-54056-49688-42080-53500-57283-57784
2964.08-63085-66766-63167-64157-54713-49228
2966.98-46090-46990-44147-48082-44227-43255
2969.87-41345-36730-30648-27949-12790-4909
2972.76-11061-20126-17730-16065-11593-14301
2975.65-8228-8925-13470-15736-13261-18436
2978.55-21331-22081-19020-16542-7158-12497
2981.44-19097-12264-8988-12472-8112-5569
2984.33 4212 4016 9522 13409 12008 9596
2987.23 13369 8537 2242-2498 5398 11956
2990.12 8321 7777 12318 19239 29841 28635
2993.01 30730 24661 17673 11372 17875 24523
2995.90 35851 30609 28513 29986 30976 30273
2998.80 35992 37892 50513 57330 60767 60977
3001.69 69123 78813 88996 89092 93775 103412
3004.58 115414 119440 126455 135407 147240 157194
3007.47 165994 177005 198982 218679 237461 253979
3010.37 268335 289500 321860 361100 399045 432123
3013.26 483001 539351 597350 665180 746856 831838
3016.15 926724 1028444 1141929 1269541 1420774 1569325
3019.05 1734378 1928740 2151544 2384107 2649237 2942808
3021.94 3262069 3605787 3988629 4409078 4865427 5368343
3024.83 5912442 6489515 7117865 7788783 8517184 9284514
3027.72 10087901 10930591 11826482 12757435 13718096 14695031
3030.62 15696408 16714375 17727047 18710774 19670714 20613277
3033.51 21522556 22375803 23165547 23873047 24489270 25013966
3036.40 25447634 25766326 25961578 25990092 25920462 25923143
3039.29 25969922 25957987 25781439 25345619 25060350 24986954
3042.19 25138983 25376404 25586575 26020249 26698956 27604638
3045.08 28606023 29622033 30423041 31122832 31231188 30930671
3047.97 30131205 28953308 27770118 26762794 26066823 25619426
3050.87 25480101 25536580 25862622 26316810 26893575 27528051
3053.76 28167818 28749278 29276850 29670743 29937781 29994476
3056.65 29893826 29608111 29156766 28519945 27740016 26797161
3059.54 25728909 24542352 23288929 21998855 20728899 19500894
3062.44 18324626 17161066 16047221 15058202 14271653 13610586
3065.33 13044999 12569369 12206524 11936969 11784388 11732463
3068.22 11791438 11926876 12123764 12378109 12693798 13039632
3071.11 13386338 13695446 13971664 14201439 14351792 14343265
3074.01 14219468 13982005 13617091 13055861 12437182 11809819
3076.90 11265643 10810696 10650259 10930506 11776223 13169836
3079.79 15087606 17173806 18775058 19401026 19395107 19238069
3082.69 19061486 18807329 18591618 18558408 18680263 18623222
3085.58 18515062 18580550 18693785 18770018 18842613 18967100
3088.47 19107466 19242293 19399942 19533595 19635798 19666543
3091.36 19619896 19459519 19365399 19376692 19263356 19006208
3094.26 18763393 18630675 18516165 18368195 18310217 18333087
3097.15 18345142 18484410 18657199 18900889 19473749 20741385
3100.04 20473189 17798714 17830092 19219752 18808666 17888798
3102.93 17168937 16616599 16243179 16057191 16037058 16203783
3105.83 16462210 16774135 17130400 17510144 17874489 18162788
3108.72 18398207 18523505 18534361 18428498 18216842 17869149
3111.61 17415518 16847036 16194702 15456465 14648041 13798082
3114.51 12918305 12016067 11108560 10200875 9317615 8453180
3117.40 7633257 6855782 6128416 5451705 4847388 4280242
3120.29 3763008 3293096 2887491 2527485 2215864 1930154
3123.18 1677498 1459269 1285728 1128445 1005049 886090
3126.08 783988 686860 606849 526552 468866 420990
3128.97 376630 329719 296331 263361 236455 214330
3131.86 203338 175952 157535 138292 122898 109178
3134.75 101303 81998 75560 66760 60348 46328
3137.65 43665 36596 34423 24604 23582 22068
3140.54 30338 21725 17202 7204 7561-2456
3143.43-2968-664 27-8045-1606-7337
3146.33-2816-7300-8337-15933-17974-21625
3149.22-21104-24511-13095-17067-22231-26199
3152.11-12092-17492-14010-16103-19333-19353
3155.00-11961-24621-24906-27116-20305-19444
3157.90-15026-16894-16015-18651-17892-25773
3160.79-19454-13306-12221-20810-19003-34372
3163.68-30897-23740-11874-15311-12832-13442
3166.57-20430-31482-14955-11799-18276-30336
3169.47-25015-26351-22281-23591-10718-10555
3172.36-13516-15467-4645-7577-14580-28706
3175.25-16713-25433-40690-36085-15182-17149
3178.15-19455-24499-16966-17973-14733-19505
3181.04-11247-9265-5286-10417-17042-27244
3183.93-18801-29302-33495-30536-18616-22726
3186.82-20765-22213-14522-16898-20478-26790
3189.72-16806-15165-12789-14987-7526-16021
3192.61-25588-33071-25492-22429-19695-23527
3195.50-21444-31820-25338-25210-16890-20602
3198.39-19806-17203-14450-26675-21407-24911
3201.29-19934-18302-15070-24174-26741-33999
3204.18-26487-28736-22485-30424-29142-31815
3207.07-28103-33889-28366-25777-21470-13821
3209.97-12035-25458-22714-29949-26540-29376
3212.86-29138-34515-31930-33935-28484-25172
3215.75-20550-28259-31059-25560-8741-21786
3218.64-24581-25866-22987-32410-23254-22543
3221.54-24521-28067-16865-17259-16643-20936
3224.43-21082-28729-19060-14732-13479-24051
3227.32-24823-22777-10877-15344-15620-13127
3230.21-945-11689-21751-23073-16935-24259
3233.11-22528-20634-17343-23315-12835-10957
3236.00-7168-14843-17978-19812-7566-7162
3238.89-10215-12870-2328-8150-9890-16972
3241.79-14085-20098-5571 2262 2130-13278
3244.68-13862-12630-12119-25313-14166-7780
3247.57-8525-15476-11110-10856-428 1269
3250.46 4439-1611-6367-13039-10015-17549
3253.36-8404-6551-6850-13965-14412-15882
3256.25-5846-10465-10795-7313 2364-9235
3259.14-8037 518 2641-10194-5937-14307
3262.03-8340-11531-5048-15180-14681-20705
3264.93-12249-11522-8636-21302-26677-21475
3267.82-16544-23020-15797-23064-25743-24679
3270.71-15639-25318-25900-27104-17674-10455
3273.61-7780-27180-20605-22316-23782-29382
3276.50-24135-28588-31733-38853-23566-24043
3279.39-20590-26914-25097-27251-18803-25499
3282.28-23457-28756-23922-28993-28628-31572
3285.18-25503-27956-29227-36098-34046-34741
3288.07-30168-27474-18247-28408-26375-33861
3290.96-34112-36829-26344-22257-17212-29177
3293.85-25836-30250-25544-32440-30311-35800
3296.75-29844-28396-31592-39622-24005-21866
3299.64-20034-26614-35483-45844-33179-28498
3302.53-25453-37844-38214-39843-33809-46455
3305.43-44339-48366-35800-32225-21714-16261
3308.32-11435-30306-31307-35847-31357-29828
3311.21-24405-32995-21745-24059-23496-27318
3314.10-21324-31060-27697-27369-20733-22959
3317.00-27495-37624-33115-40057-35938-37025
3319.89-31983-34054-32556-36059-20941-18182
3322.78-21532-35926-27826-26211-21686-33999
3325.67-34508-35710-27919-31507-25530-29597
3328.57-25996-32419-28571-40366-41172-44000
3331.46-36104-35189-30590-36310-17179-18143
3334.35-24062-37008-42470-36452-20052-37090
3337.25-38661-39608-29658-37705-34962-41040
3340.14-30095-24666-28889-36407-33771-38630
3343.03-24321-28297-22587-30473-32147-42203
3345.92-38169-39301-29556-32503-25488-35476
3348.82-29914-26774-18610-29728-33795-28714
3351.71-17340-32319-34007-28885-19070-25822
3354.60-19288-24070-20955-29414-31950-39945
3357.49-31489-28292-19261-32568-38804-32405
3360.39-17341-23981-25446-33142-20755-21808
3363.28-18779-24790-24771-30506-20673-22858
3366.17-29010-29875-29710-38640-25279-29383
3369.07-25223-23069-23395-39270-40554-41985
3371.96-35196-30565-14081-21368-19623-28488
3374.85-27704-27484-17908-18020-20424-26432
3377.74-16921-25070-18024-26178-25306-24178
3380.64-18103-29519-20325-17993-16236-19165
3383.53-7815-17573-21139-21566-10353-24153
3386.42-15033-12399-11390-10040-5960-14430
3389.31-12665-24464-14526-22123-7573 1740
3392.21-1086-16032-10477-19200-9527-8187
3395.10-3224-6764-2409-12463-8967-10347
3397.99 2113-283 4483-837 204-5324
3400.89 3458-4973 2346 2265 15310 5497
3403.78 4216-2311 4944 11666 22462 13805
3406.67 15767 5938 8789 13578 29358 16041
3409.56 13632 12427 15778 6913 9280 19
3412.46-3504-15077-4793-4271-156-12216
3415.35-2567-1743-152-7255 824 885
3418.24 7255-6846-7488-7251-4784-21416
3421.13-16130-22118-11444-12095-4321-8972
3424.03-4610-9579-9937-14584 1151 7320
3426.92 18239-1920 580 1580 9780 2810
3429.81 2137-11842 3722 8682 9158-550
3432.71 5514-1852 2386 8033 17095 3999
3435.60 13581 20392 28004 24391 30667 14313
3438.49 17565 18035 15891-776 3668 1255
3441.38 22874 21506 15631-2275 6850 6705
3444.28 19027 4113 15725 15959 11611 5138
3447.17 18339 14552 17017 12250 8521-4481
3450.06 11008 13822 16285 5723 34279 63495
3452.95 139061 223157 399548 411607 201119 96614
3455.85 52889 20317 18742-4571 983 1260
3458.74-3481-16179-8943-12068-9478-16913
3461.63 6435 9530 5173 4983 11243 334
3464.53 3623-1360 9973 11467 5194-9404
3467.42 1236-5533-1546-642 16161 8961
3470.31 14610 11744 9290-11800-11985-10734
3473.20 1750-675-3610-9090-5783-24696
3476.10-14912-7350-11925-24211-13280-19443
3478.99-17466-14630-11889-18292-10404-25649
3481.88-21160-23296-22351-20381-6522-8439
3484.77-7724-24618-20352-28404-26854-19919
3487.67-13354-26108-29425-33852-17410-27620
3490.56-29182-33832-33105-44978-32363-24859
3493.45-11215-15291-12545-28722-28583-27559
3496.35-19144-19474-13715-25447-24488-31928
3499.24-22771-32777-28378-29732-21732-28485
3502.13-19342-26058-23175-30096-28085-39893
3505.02-31217-30484-24520-36758-33288-32757
3507.92-27394-26672-16219-24150-20890-35499
3510.81-34219-38339-27494-27196-23409-30641
3513.70-21549-33027-27545-19270-7653-18766
3516.59-18288-24081-26371-37597-20273-21419
3519.49-15455-13526-14399-31457-27282-25268
3522.38-7282-10385-10871-23531-21654-24726
3525.27-21839-32357-25185-30301-16587-20352
3528.17-22002-31173-33153-35410-19629-24095
3531.06-22871-33801-24217-31797-20575-26994
3533.95-31831-39502-23562-33020-26142-26828
3536.84-24033-38316-30820-28647-19986-25394
3539.74-16896-29685-23670-26713-21340-35177
3542.63-32844-38079-25312-27399-25797-37589
3545.52-23047-18846-18774-32581-31159-38883
3548.41-32544-26857-14070-33383-25042-35112
3551.31-32980-39414-30853-30704-26050-37331
3554.20-27724-30531-27247-30363-23072-28086
3557.09-26290-41353-40621-41567-27284-32000
3559.99-28566-32169-20951-31056-25652-28761
3562.88-20392-32613-32634-38067-27554-34732
3565.77-21395-15741-13716-27764-20605-25718
3568.66-15638-23587-22635-30566-25225-34866
3571.56-21366-23755-20732-30943-30513-38330
3574.45-31600-41889-24350-25970-24642-33343
3577.34-27346-35069-32138-45308-29698-24699
3580.23-24603-41881-32464-28120-19746-32528
3583.13-32345-46507-42268-37531-24954-27454
3586.02-19381-30347-28908-34652-19814-22702
3588.91-22343-30144-21369-29234-26842-38856
3591.81-31967-30583-22079-28162-22754-28517
3594.70-17493-19548-6167-9436-5712-5169
3597.59 2917-9245-1213-3021 2859-2193
3600.48 6473-7204-4009-5078 3258 1452
3603.38 17250 10064 14482 8983 23745 29190
3606.27 35280 22862 28790 26473 43012 47276
3609.16 43385 17487 22287 17680 23087 19391
3612.05 37475 27345 29067 18560 21811 16578
3614.95 32597 18058 20681 22243 40059 39770
3617.84 46278 40078 72107 91233 92827 103523
3620.73 144660 128698 142455 137405 101552 55207
3623.63 43291 28668 22546 11500 21343 17430
3626.52 25902 27211 49607 53276 58619 67074
3629.41 76078 56654 60424 54514 67522 62699
3632.30 71811 70539 82291 76512 83047 82970
3635.20 91781 82688 92057 87249 99949 98740
3638.09 105678 104407 123691 118377 124531 120625
3640.98 137551 141198 157568 152242 170777 182209
3643.87 205693 216681 238510 241697 260112 280913
3646.77 316199 314979 321552 328546 362184 343902
3649.66 329421 320068 309461 265043 237954 212481
3652.55 200792 188231 204782 213564 250601 293854
3655.45 364444 405377 417859 398675 382947 347640
3658.34 329457 295848 271804 235815 221243 198984
3661.23 188548 167122 151791 122599 120367 106506
3664.12 100940 91504 92345 71728 74085 59571
3667.02 64123 59671 73784 64821 51965 45586
3669.91 82719 84880 62782 46675 59114 52039
3672.80 55571 48117 56811 58307 61476 68097
3675.69 80568 45423 37568 27395 38635 38266
3678.59 51706 50204 55566 45659 55873 50690
3681.48 61444 56363 67931 60136 69882 66128
3684.37 75124 69373 79080 73192 85920 80812
3687.27 100440 130670 138854 108272 113950 112477
3690.16 135946 146321 162021 157388 168899 164772
3693.05 182125 182104 194431 188467 205414 215486
3695.94 240882 248397 253785 234677 234813 223656
3698.84 234696 235063 251547 249806 266307 266362
3701.73 265405 239219 235890 220342 223081 211950
3704.62 218136 203899 214037 223333 242685 237485
3707.51 255842 250544 268106 276613 291768 293500
3710.41 303084 280038 285642 259966 226372 188451
3713.30 170535 143151 140898 122334 120970 104921
3716.19 97876 80147 80089 63623 66697 54100
3719.09 58171 40707 43308 32764 37432 37874
3721.98 52181 36862 46835 41135 44596 33687
3724.87 32168 16143 32837 31204 28653 17780
3727.76 32632 22193 20471 7817 17048 10479
3730.66 20862 22905 39570 21157 20874 4231
3733.55 6242 8961 26080 10836 13039 16537
3736.44 26163-3015-4803 456 14399-2442
3739.33-2862-5860 18470 15440 27172 21787
3742.23 26095 32039 84374 118569 218388 256744
3745.12 112464-16978-15635-16808-9541-25643
3748.01-9252 15658 38409-944-7076-14588
3750.91-862 27722 53786 2065-879-7381
3753.80-1200-11403 3398-4982 3184-2494
3756.69 9294-12 12657-2242-960-2622
3759.58 9422-13591-8453-12479-286-8440
3762.48-1250-11144-4366-10166-3578-16541
3765.37-1414-9157-3023-24902-21262-25806
3768.26-11455-14424 905-13981-12919-23825
3771.15-19739-25264-7689-18137-10803-19519
3774.05-13220-26367-15462-17818-11407-25503
3776.94-18134-20774-8201-19421 1829-4549
3779.83-1965-12843-5952-21067-18827-24473
3782.73-11084-19607-13661-19163-5039-23917
3785.62-17635-23429-16194-24071-14011-21686
3788.51-10874-13240-4064-22529-17932-23877
3791.40-13703-24588-17975-29222-20529-25917
3794.30-17937-25406-14217-12254-3796-26492
3797.19-14393-18889-14537-32532-23450-25657
3800.08-10022 13085 38930-4330-19173-27108
3802.97-16152-21937-16713-27885-12070-16125
3805.87-945 3969 5956-23698-26278-36404
3808.76-23116-32701-19356-36796-25966-29671
3811.65-20096-28108-17402-29086-20442-32196
3814.55-21094-13983 29825 7662-15247-31773
3817.44-29610-43525-31358-37068-26493-21945
3820.33 608-6294 2099-26118-21209-27631
3823.22-25115-38246-26711-35066-22694-27728
3826.12-16021-30869-22979-36455-28234-31606
3829.01-24249-40079-25685-25668-8938-19837
3831.90-28964-40387-23660-35065-22925-14707
3834.79-8598-31254-18164-25159-9386 13322
3837.69 14572-22445-12392-29168-30548-36400
3840.58-11649-34841-36762-42756-22391-23081
3843.47-11197-29855-26157-33852-18593-29632
3846.37-15405-29126-24640-46074-36940-37988
3849.26-25641-37105-29294-31386 12714 16917
3852.15-1455-21772 5347 29239 31228-15073
3855.04-22694-39487-23942-23407-12330-29529
3857.94-24974-37759-28914-28372-14575-33134
3860.83-24408-35211-28687-42149-30023-36692
3863.72-21553-26611-10094-29476-25293-24856
3866.61-9815-25343-23709-33301-10876-6895
3869.51 15538-14999-21067-31251-21547-33462
3872.40-21451-29261-16319-26709-18608-33132
3875.29-35549-51256-34759-37173-24121-38657
3878.19-29402-43476-23985-26576-18904-31199
3881.08-17251-28863-20154-28812-17971-33972
3883.97-28062-44656-14804-11993-17494-34153
3886.86-16403-31958-27687-23319 10631 18217
3889.76 33758-3088-6725-30784-31678-42557
3892.65-30524-41968-28840-38216-26567-34915
3895.54-23570-30785-17724-30399-24671-41191
3898.43-22255-16534-11946-30954-21831-19142
3901.33 377-27184-26986-31011-10831-19173
3904.22-21864-39000-22466-30345-23349-35390
3907.11-25609-38023-23158-35573-28882-38544
3910.01-21629-34099-25916-27189-5835-21835
3912.90-18070-24176-1729-15283-5533-25028
3915.79-27638-31887-14993-30078-21046-20443
3918.68-5940-16587-4871-19699-10661-26722
3921.58-14610-27128-18624-24801-3062-3481
3924.47 7031-8524 4140 8454 23348 7029
3927.36 14699 65 15907 5213 16437 11043
3930.25 17114 8999 32283 22109 28088 16144
3933.15 32288 24408 42039 31551 40472 28700
3936.04 49440 39914 49489 41513 49261 41692
3938.93 60990 41827 44715 45839 65186 48168
3941.83 66071 69760 84294 67498 94613 94122
3944.72 92817 77618 97932 93737 103672 91088
3947.61 107473 88530 89116 81082 109195 103393
3950.50 119456 117881 131745 114978 127507 115386
3953.40 115550 90613 100894 88349 96756 79414
3956.29 86918 68814 78750 70896 79580 61687
3959.18 74752 65882 84755 75371 75701 61496
3962.07 81074 83323 99156 76599 85443 78043
3964.97 89021 62041 72019 69535 88699 79406
3967.86 88372 75065 81606 65072 79729 71868
3970.75 88858 77787 91508 84112 98046 87758
3973.65 94035 73578
##END=
