##TITLE=Benzene
##JCAMP-DX=4.24
##DATA TYPE=INFRARED SPECTRUM
##CLASS=IUPAC A
##ORIGIN=NIST, Analytical Chemistry Division, 301-975-3108
##OWNER=COPYRIGHT (C) 2000 by the U.S. Secretary of Commerce
##DATE=00/02/01
##$SPECTRA VERSION=1.10
##$UNCERTAINTY IN Y=2.1 % relative (B=1.1E-04,C=5.2E-10,D=5.2E-15)
##CAS NAME=Benzene
##CAS REGISTRY NO=71-43-2
##MOLFORM=C6 H6
##MP=5.5 C
##BP=80.1 C
##$NIST SOURCE=QUANT-IR
##SPECTROMETER/DATA SYSTEM=IFS66V (Bruker)
##INSTRUMENT PARAMETERS=KBr Beam Splitter; MCT Detector; Multipass cell
##STATE=gas
##SAMPLE DESCRIPTION=Benzene Primary Gas Standard
##PRESSURE=101.3 Pa
##TEMPERATURE=23 C
##SAMPLING PROCEDURE=1 L/min Flow
##RESOLUTION=1.9290
##DATA PROCESSING=NB Strong Apodization
##XUNITS=cm-1
##YUNITS=(micromol/mol)-1m-1 (base 10)
##XFACTOR=1.0
##YFACTOR=3.6379E-12
##DELTAX=0.9645
##FIRSTX=575.653
##LASTX=3974.61
##FIRSTY=-3.58E-07
##MAXX=3973.64
##MINX=575.65
##MAXY=.0030506
##MINY=-5.30E-07
##NPOINTS=3526
##XYDATA=(X++(Y..Y))
575.65-98423-51615-145816-57601-185839 17302
580.47-44095 75532-87093 5830-66146 128858
586.26-55731 56987-34218 69138-137232 18820
592.05-35760 98055-72999 72014-30142 78128
597.83-70135 18128-92786 72411-62446 84906
603.62-15408 198796 142376 299142 42180 144768
609.40-66203 57243-107036 71841-102116 62246
615.19-80777 108768-65539 113126-57220 152724
620.97-44454 138901-51521 118567-78533 148032
626.76-22835 209027 51146 331050 177330 479276
632.54 395098 836534 843601 1386268 1552536 2379093
638.33 2839652 3984656 4830914 6502750 7897861 10221204
644.11 12350503 15558193 18624488 22809458 26831939 32071444
649.90 37015795 43078678 48649004 55123768 60679593 66885646
655.69 71636510 76537592 79266086 81787798 81678148 81165627
661.47 77585954 73772003 66970383 60453165 51080305 43519299
667.26 34330794 31400039 39528736 101988871 298255903 708748203
673.04 838546320 308705450 37588907 23256426 28853509 36665175
678.83 47752480 57090270 67899320 76054454 84503501 89610645
684.61 94070629 95271404 95677815 93093843 89909943 84482894
690.40 78811972 71406322 64463555 56773372 49917203 42722456
696.18 36741585 30714454 25765321 20824453 17165795 13595114
701.97 11063034 8539184 6890892 5159092 4144568 2996640
707.75 2470392 1710504 1466181 944504 854117 485171
713.54 512682 256777 343113 131296 217824 18264
719.33 145408 6168 102880-32039 99786-34543
725.11 86873-40907 69762-32706 71920-38046
730.90 64253-51101 47094-46250 49607-54192
736.68 29448-68020 6308-72092 25347-61128
742.47 5877-73538 8002-54390 15215-59070
748.25 14159-43431 39407-26505 41663-5655
754.04 75753 18511 102267 69366 138732 99650
759.82 170686 134905 198688 178695 250056 213247
765.61 255114 202519 231692 184509 214811 156919
771.39 171942 130862 140457 128862 225177 316965
777.18 886566 2058999 1824817 704213 433590 214094
782.97 177622 78591 139737 95546 179549 159456
788.75 222716 169375 235353 201491 237908 193482
794.54 240264 189184 212794 162557 173433 105130
800.32 126199 80332 87959 28698 42231-1648
806.11 8472-31448 9540-9858 8510-45040
811.89-36923-69765-38357-56535-30274-53599
817.68-25552-52180-23470-52334-25303-52640
823.46-43927-64594-35791-54916-27976-50025
829.25-21872-36509-34438-56429-33984-60586
835.03-45151-53188-30613-57862-32321-36874
840.82-17140-33287-31735-60939-44051-48963
846.61-31694-54581-53107-54804-29939-38804
852.39-22772-40407-40565-50059-37491-53161
858.18-53339-62350-47817-53622-46715-58357
863.96-40459-36234-26045-50739-44874-50389
869.75-51095-52530-35127-40640-34114-44778
875.53-46936-46551-36651-44292-42693-46855
881.32-42963-50135-41217-46357-44195-48191
887.10-45613-52122-50757-55514-48631-64617
892.89-56640-43277-41231-53613-55930-50792
898.67-39237-43686-37990-44727-45426-47911
904.46-53097-60617-52382-43839-43013-41097
910.25-33542-32440-42646-43688-42770-41666
916.03-49236-43060-34324-38805-45174-42470
921.82-50570-44652-40395-43117-53308-62481
927.60-63771-42623-40402-33723-39183-35599
933.39-45108-36907-41202-41824-41828-46241
939.17-51718-45529-49924-48955-49184-30499
944.96-36353-39209-44792-41996-47720-37375
950.74-41179-32089-28445-26881-38991-27611
956.53-45800-35109-31263-26297-28462-21067
962.31-33795-20725-22755-11677-28026-23677
968.10-26760-10670-17163-20448-27338-11401
973.89-23238-8923-12424-903-5977 3892
979.67-4718 13524 17764 32913 33402 61410
985.46 64602 88248 83187 106001 100085 122580
991.24 131441 160836 163099 191531 189857 208182
997.03 222897 277647 322990 403670 458668 532275
1002.81 552208 564511 607910 818123 1110004 1455491
1008.60 1756419 2095796 2433551 2871764 3341354 3907005
1014.38 4498990 5182906 5847802 6547441 7185651 7807836
1020.17 8305467 8743253 9001514 9148782 9086571 8903753
1025.95 8518516 8100029 7574702 7179452 6935911 7023771
1031.74 7641668 9375799 11519420 14281676 18925302 22491010
1037.53 17954478 12015942 8140087 5467130 4533943 4651584
1043.31 5326013 6103750 6876022 7521389 8045601 8387823
1049.10 8549679 8525186 8337691 8002686 7546529 6980715
1054.88 6334822 5669204 5003992 4353453 3709242 3130979
1060.67 2601619 2135366 1725173 1380712 1082725 852018
1066.45 641340 483077 349049 253195 166955 133076
1072.24 82352 54543 30262 12318-14704-12455
1078.02-19873-11114-28634-22474-29098-27001
1083.81-38029-21240-29409-27835-45954-34235
1089.59-45626-33635-44631-41157-46803-19772
1095.38-36935-43436-50660-27955-30715-21287
1101.17-44577-44846-55629-35278-40870-29359
1106.95-41994-33238-50026-34041-42426-30673
1112.74-39560-28615-51406-46077-61905-48253
1118.52-48770-28912-46236-33523-53244-53400
1124.31-69586-44304-51189-42422-59392-42871
1130.09-58177-47475-58865-40319-49885-37537
1135.88-50897-38963-62584-51943-64655-45570
1141.66-65798-51619-57091-36057-51129-34002
1147.45-46765-37100-56302-40674-58135-42794
1153.23-57064-36965-49289-33220-52881-39408
1159.02-44274-34501-56608-33951-52690-37984
1164.81-45681-24089-37448-13547-33621-29492
1170.59-45354-24746-36507-15793-28916-15524
1176.38-34760-14283-25909-10663-26527-5569
1182.16-17627 1116-17981-953-15545 4809
1187.95-4950 24831 39308 99848 73988 38724
1193.73 2473 6678-25729-6596-12549 4749
1199.52-10336 9698-6802 11417-3605 16806
1205.30 8324 27094-317 10199 20171 135723
1211.09 141818 87425 27801 30555 6604 27408
1216.87 16067 34862 29463 61560 57816 84314
1222.66 68446 104090 114460 161415 170018 214343
1228.45 221922 261808 269420 309225 294304 320597
1234.23 309466 316551 284813 293677 272487 294498
1240.02 285714 307546 278047 283020 250304 260033
1245.80 251592 281239 259615 289284 289157 311972
1251.59 285131 285137 242326 234835 186151 177934
1257.37 126727 109625 59462 55729 18239 21457
1263.16-13513-10557-41993-28053-50115-27208
1268.94-48520-34434-56852-36483-55192-32889
1274.73-53568-38450-64748-44861-61896-37923
1280.51-55945-39318-62159-34148-61298-50234
1286.30-66360-41109-59759-39302-58061-30367
1292.09-57805-49669-70787-44680-63705-41751
1297.87-58803-37842-59234-38950-64692-42419
1303.66-60097-39579-60388-42529-69630-52113
1309.44-71417-43162-64178-48453-67673-40856
1315.23-59090-36766-61166-39780-70606-57802
1321.01-77089-49951-65228-42980-70039-50242
1326.80-74904-48512-71061-53204-74853-51805
1332.58-68534-43089-67552-44911-68872-47286
1338.37-66520-47529-72694-53074-79589-59451
1344.15-80313-52402-71005-44085-57290-35053
1349.94-72401-67223-103748-81436-88159-42264
1355.73-54264-30280-41757-18334-30901 11156
1361.51 8057 48701 41015 92751 115018 195296
1367.30 233288 316819 359730 468801 531415 640404
1373.08 716794 832461 880388 968135 1003391 1062196
1378.87 1051872 1070621 1021480 1019882 980347 981732
1384.65 946791 995089 995409 1035544 997760 957828
1390.44 896335 924089 933972 1000462 1014691 1049737
1396.22 1019281 1013681 934762 871414 741946 657138
1402.01 530661 455332 339493 280182 185324 147472
1407.79 82689 77431 24196 19134-27283-10095
1413.58-38702-22228-43113-17681-38875 9270
1419.37-32382-26375-51361-27464-48872-25054
1425.15-55139-28449-46330-19956-42741-18810
1430.94-47371-23469-48115-16531-18846 31718
1436.72-12944-921-23058 259-24181 8677
1442.51-7101 27567 14802 55655 66703 125403
1448.29 134018 225914 284042 407199 503272 705699
1454.08 920398 1282775 1653196 2109044 2628123 3327605
1459.86 4097929 5061223 6101456 7319105 8590653 9961218
1465.65 11292878 12673451 13910026 15048218 15906336 16581189
1471.43 16893448 16972255 16706585 16252780 15697011 15481476
1477.22 15419055 16052212 17771940 20678909 24201141 25709879
1483.01 22514851 19400993 17278775 15116391 13756118 13378096
1488.79 13746496 14548420 15463570 16294492 16840107 17042760
1494.58 16837769 16282139 15342695 14219448 12926356 11623095
1500.36 10333720 9193530 8180468 7385651 6746661 6260730
1506.15 5827318 5507306 5226264 5005804 4744890 4545685
1511.93 4294112 4080399 3884786 3799793 3769991 3807169
1517.72 3759806 3623643 3478906 3407570 3270722 3278262
1523.50 3335083 3488705 3561534 3634750 3593428 3513987
1529.29 3296683 3054441 2719519 2417423 2042717 1707410
1535.07 1364638 1111320 878680 750987 571948 443325
1540.86 314700 249969 153546 141990 79669 62641
1546.65 16288 26632-4178 16119-16092 357
1552.43-11583 30496-20023-7013 5851 75208
1558.22 51591 68474 561-3600-27470 4664
1564.00-13678 2606-26345 1798-3950 37680
1569.79-1936 12983-10682 11135-5342 66877
1575.57 58286 41610 1032 17738-9240 16354
1581.36-9819 8825-13813 16250-4352 20615
1587.14 7017 32917 4596 34528 10697 32808
1592.93 19321 54069 31978 62527 45591 78883
1598.71 64194 96733 86522 128711 121651 156711
1604.50 141205 179002 164813 196300 173932 196991
1610.29 159846 179762 146377 155656 119386 173798
1616.07 164566 171463 179400 295709 417051 581019
1621.86 579685 427546 215248 145490 103810 151468
1627.64 146578 190275 187354 234026 224209 255023
1633.43 257985 317111 265122 249049 203124 198883
1639.21 150187 157078 116503 124478 88612 121463
1645.00 114543 121108 76721 89225 64120 102461
1650.78 134125 236915 205913 201502 170394 211668
1656.57 217616 252423 223032 251811 236210 282478
1662.35 268766 316680 440131 641821 420512 284427
1668.14 272971 290452 256667 276928 245698 279313
1673.93 300677 337720 299237 325075 302692 320139
1679.71 278804 278354 235027 266752 261254 233193
1685.50 130630 119200 65805 77042 38975 52265
1691.28 15994 36991 16813 86883 81907 58350
1697.07 11044 54261 82937 94522 14377 16606
1702.85-4319 30154 15485 46803 281 10869
1708.64-24871-8314-39428-857 28066 192282
1714.42 276205 192934 106496 77895-1808 4332
1720.21-21703 4109-21284 10610-4390 31733
1726.00 17769 54836 45652 95892 82133 126542
1731.78 149035 228907 224897 242743 225593 273057
1737.57 267438 329937 318659 339747 311071 336153
1743.35 301989 313917 267268 271508 232901 242315
1749.14 215743 305524 400288 628299 830310 860995
1754.92 647787 508751 323293 240297 175811 224224
1760.71 246383 302844 302863 369648 370759 426064
1766.49 429767 470731 438690 471892 462406 510439
1772.28 476086 487863 473292 519245 513912 566821
1778.06 577221 653328 682463 772734 809237 914764
1783.85 991135 1136703 1257942 1470632 1674098 1979021
1789.64 2299854 2750422 3214286 3753851 4278109 4921119
1795.42 5554991 6265993 6916270 7588378 8113553 8566188
1801.21 8827972 9001751 8993127 8925333 8728947 8589472
1806.99 8414375 8399542 8432856 8545957 8516686 8302323
1812.78 7921737 7764075 7823721 8146091 8505441 8884171
1818.56 9062879 9074777 8786980 8326239 7617532 6826526
1824.35 5903705 5016159 4115565 3351733 2647953 2101676
1830.13 1585790 1228359 905804 711466 510328 400058
1835.92 275804 234771 153574 142805 86494 91714
1841.70 49847 87020 58207 54506 8744 35087
1847.49 13517 45809 13519 37308 16062 52244
1853.28 28465 56218 27467 58395 38973 73890
1859.06 57023 96079 77401 117379 99267 134587
1864.85 111189 139631 121798 160796 134063 150786
1870.63 116518 140962 115483 145660 124856 164896
1876.42 140837 163529 131502 150201 115302 140381
1882.20 108281 145461 148266 210883 194357 210556
1887.99 161801 159258 96564 100973 55046 72142
1893.77 34348 56074 23527 48622 19530 47704
1899.56 13012 31369-4819 19613-9320 17717
1905.34-13736 7542-18598 12985-9484 26420
1911.13 12297 53953 33337 60097 25628 54362
1916.92 31610 61176 41021 92925 90100 140900
1922.70 144438 206773 216459 286890 311876 400919
1928.49 441620 546290 613188 759594 869107 1058670
1934.27 1214420 1457337 1687677 2015403 2325809 2733243
1940.06 3119638 3595147 4015519 4471478 4850315 5252929
1945.84 5542467 5810882 5962306 6121016 6101139 6051269
1951.63 5936174 5865595 5782390 5775716 5687013 5642357
1957.41 5476195 5274829 5074094 5114302 5265367 5564507
1963.20 5815338 6045288 6063878 5969856 5662033 5269958
1968.98 4714216 4151563 3515116 2946111 2367860 1917162
1974.77 1487239 1184006 892294 703943 505454 415259
1980.56 308712 284032 230820 242300 209130 251629
1986.34 258749 371908 410121 312265 131282 125637
1992.13 92375 134931 120943 156523 136372 176710
1997.91 174517 238657 217051 291329 377245 439750
2003.70 580945 929200 559014 281821 350500 353221
2009.48 191966 158288 114511 149135 128216 172009
2015.27 167854 215300 195069 224643 200868 228720
2021.05 193897 206891 155374 169680 122559 130618
2026.84 79059 95452 56167 73336 38741 59487
2032.62 16329 35548 5869 42405 839 6074
2038.41-30780-653-29769 1273-24950 1697
2044.20-33251-4433-37878-9027-32859-3096
2049.98-35293-9846-38414-10398-38163-10194
2055.77-40313-13169-47376-18640-44554-12935
2061.55-45517-16084-49124-29390-62622-31440
2067.34-62139-40798-73258-43854-74753-48917
2073.12-88217-60109-71292-25208-56440-29505
2078.91-58234-27086-49769-26858-61964-30811
2084.69-49077-14490-41926 3675-20410 2983
2090.48-42375-25201-53619-12652-46413-33591
2096.26-64244-22674-40782-21563-56189-24162
2102.05-38331-17616-61803-29748-44925-19179
2107.84-61137-28497-46660-3082-52322-33622
2113.62-58189-11661-58754-38550-61929-9305
2119.41-44227-29749-60004-15380-49854-34945
2125.19-58279-9658-38135-24644-58790-22056
2130.98-44316-21751-54482-10227-31384 2233
2136.76-1725 7517-51077-23787-48692-10718
2142.55-18924 7815-49539-27506-57999-26906
2148.33-55645-17715-44019-21730-48904-9481
2154.12-43688-29696-59316-9848-39181-19206
2159.90-38913 3531-42792-34756-48033 1448
2165.69-45850-27483-34474 3524-51855-24309
2171.48-33054-10074-61599-16686-22542-9108
2177.26-53010-7763-33759-22436-41903 7518
2183.05-30852-12692-28021 8130-31621 4755
2188.83-6533 24133-6395 43666 25386 50447
2194.62 40151 105398 95320 154462 176005 249041
2200.40 253021 332239 367040 460607 506746 619459
2206.19 662132 749597 757213 791773 727548 690605
2211.97 581144 545960 521536 636743 729640 853939
2217.76 826108 775775 631535 552234 428399 380108
2223.54 280555 254572 183455 184157 121864 119785
2229.33 68370 75217 27395 52249 12225 27289
2235.12-12638 13877-19082 1436-38897-12464
2240.90-49769-24184-54517-22870-53071-21620
2246.69-49812-18258-49787-21902-51108-19503
2252.47-45219-12397-51854-22817-47121-13277
2258.26-42441-8574-40226-9865-31341 12847
2264.04-10108 26418 62 35283 8677 40368
2269.83 14328 46467 14883 45429 12021 41296
2275.61 8978 37214 860 30916 3254 38060
2281.40 9717 33132-285 36102 14824 44839
2287.18 8996 38111 5867 35458 2303 31600
2292.97-5556 24100-6191 24514-4143 25716
2298.76-2971 38494 24055 74482 71423 137922
2304.54 150164 235338 261537 364484 424137 551193
2310.33 631068 774577 854731 973209 1027677 1117074
2316.11 1127046 1161103 1115000 1105011 1031622 1012825
2321.90 960299 978459 967556 1035024 1136454 1313162
2327.68 1257055 1211067 1154768 1213557 1220793 1263594
2333.47 1225196 1238063 1162807 1123096 1006205 937723
2339.25 797099 717067 578845 511184 389145 336012
2345.04 235042 207694 128036 123943 72735 93633
2350.82 59466 82911 51269 91853 65814 106676
2356.61 85711 124102 100156 147265 132755 183379
2362.40 189824 256022 209851 220877 195839 219524
2368.18 171589 199230 172877 209544 172303 194892
2373.97 155626 182832 148653 183875 163140 196684
2379.75 167460 213749 206669 292039 341207 499235
2385.54 443438 321520 214932 227544 214127 260664
2391.32 243519 289160 270638 309798 284775 317140
2397.11 287943 324623 296062 297533 237911 251706
2402.89 216271 245011 230235 291886 297976 372913
2408.68 384536 326273 171511 146834 97824 124507
2414.46 98372 139845 113594 150520 126494 161346
2420.25 132779 163661 122171 148087 109508 119370
2426.04 71666 87997 43553 63045 18654 41841
2431.82 5257 31827-4384 19137-20556 7489
2437.61-24970 9640-23399 5696-22847 8571
2443.39-25833-344-32143 1477-34334-4230
2449.18-36183-4916-35954-6598-39206-5931
2454.96-36698-3870-27750 7910-20640 11684
2460.75-21656 10968-15678 18668-12828 16582
2466.53-13224 19874-1975 40547 16663 51762
2472.32 20421 50088 20974 59850 24903 47858
2478.10 14843 47013 14150 48294 18072 52323
2483.89 30675 52567 10073 39089 13182 50678
2489.68 19820 42180 9023 49369 18636 51195
2495.46 9461 25181-15199 9539-31446-5962
2501.25-40284-12814-45009-17597-53841-22435
2507.03-52104-21259-57939-34938-61519-24931
2512.82-55680-23236-49518-25624-64532-27842
2518.60-57029-29732-61097-27305-60495-27139
2524.39-62418-41134-66355-30970-69222-38401
2530.17-72732-41129-66724-29125-65066-36139
2535.96-58323-21905-55707-19089-48630-16569
2541.74-41526-8480-38153 230-28684-1402
2547.53-33076-3503-24143 27596 3386 38146
2553.32 18295 69194 55822 83837 10680 11325
2559.10-18187 16498-11097 28343 777 24487
2564.89-6985 35518 7701 39891 6685 38116
2570.67 10643 47395 23204 75635 98631 157338
2576.46 73144 65492 21947 51863 24417 60984
2582.24 39481 92406 76627 122234 111013 161254
2588.03 142881 191659 173664 221425 206994 256695
2593.81 230465 266452 245549 284475 254391 289144
2599.60 272504 325344 329690 416033 419518 461259
2605.38 456830 549871 570260 640798 631215 656066
2611.17 585858 558178 457596 418232 319248 302970
2616.96 236846 240246 196837 240455 223947 236474
2622.74 184531 199749 154488 181629 144134 169561
2628.53 126713 155659 121330 137472 84729 107832
2634.31 70299 95875 54831 81095 45608 76472
2640.10 52095 103666 85362 128706 123751 180807
2645.88 175633 238373 234558 289801 268024 301339
2651.67 264164 284525 239371 248404 193731 219782
2657.45 189578 223644 195827 243127 248214 311400
2663.24 295606 333520 289122 294640 227390 213348
2669.02 142063 141084 85497 94345 31786 37081
2674.81-13517 11455-26147 6001-30084-10670
2680.60-49902-20395-50041-15876-49452-27103
2686.38-68544-32843-64923-34547-71553-39046
2692.17-70427-42137-73694-40769-76898-45896
2697.95-81222-55770-98087-68448-94475-51694
2703.74-70870-40248-76119-41784-75939-38301
2709.52-57195-22333-65087-37358-65195-35167
2715.31-77466-46177-78762-46971-82630-51782
2721.09-80890-47589-84389-55154-82514-50106
2726.88-77145-33790-66390-45304-79009-44440
2732.66-80333-46150-65862-34632-68722-28825
2738.45-66705-44408-74046-44206-76681-42291
2744.24-75809-45691-72755-37170-72712-40255
2750.02-74904-49021-84988-52231-79462-47389
2755.81-84855-47991-78023-44870-68628-34791
2761.59-70548-44690-74576-37990-77333-49789
2767.38-78577-43363-73104-35188-71757-43008
2773.16-74254-37935-54713-20592-69557-41932
2778.95-73079-45192-72100-29012-53312-16130
2784.73-51066-29288-59780-9867-33962 3300
2790.52-29944 6471-3722 47942 29283 68302
2796.30 48954 100746 80803 128145 123826 186629
2802.09 181448 237000 237541 311415 312457 378250
2807.88 389382 461385 458130 527472 525432 573286
2813.66 560111 609868 594698 636691 606626 641930
2819.45 605286 629800 600332 661795 696563 792095
2825.23 800841 864986 877806 879893 741587 679536
2831.02 579813 596992 567096 614938 602944 648476
2836.80 630655 681439 653969 682495 642997 658381
2842.59 599043 600287 535787 537232 477106 482706
2848.37 425332 464132 441967 487899 485564 550893
2854.16 482313 438343 355068 360087 315891 353272
2859.94 333474 392877 391396 449962 435801 484866
2865.73 464728 503589 468661 503195 469433 486452
2871.52 462772 513291 509080 576376 587403 669921
2877.30 689871 778884 806645 895589 904440 976274
2883.09 979769 1036171 1038197 1111249 1121094 1212982
2888.87 1255879 1365509 1408664 1540322 1642190 1852530
2894.66 2010823 2204104 2284679 2343904 2204631 2032132
2900.44 1746595 1531257 1289617 1167828 1037673 1005939
2906.23 926047 912355 843522 843087 751532 720573
2912.01 640889 636188 577426 582833 520695 528039
2917.80 471904 479647 413536 388970 296485 280197
2923.58 205822 202262 137530 147043 76343 68434
2929.37 11150 26395-15243 4309-33472-3779
2935.16-37286-13658-61039-29762-68224-41978
2940.94-81243-55627-84561-50802-84769-49297
2946.73-80501-55386-82945-47673-76223-38354
2952.51-58510-20196-55583-30045-62325-33980
2958.30-89217-70043-110511-82057-119803-102562
2964.08-142930-104549-118220-77234-106889-69522
2969.87-87646-31174-41277-14523-46742-8039
2975.65-38099-12616-51582-24041-46158-10696
2981.44-41764-3660-22797 26503 5464 38357
2987.23-1554 22810-809 37563 24057 70950
2993.01 31207 51327 33851 76728 44512 81456
2998.80 67822 125372 113352 171938 165662 224180
3004.58 224736 289183 298273 379999 420016 522734
3010.37 577971 737581 866131 1100563 1332071 1691822
3016.15 2059354 2580709 3147742 3911438 4796037 5940818
3021.94 7252267 8891601 10784626 13065433 15641770 18641812
3027.72 21918905 25573572 29408398 33434767 37371243 41187402
3033.51 44636984 47622662 49867507 51346846 51846889 51900174
3039.29 51663546 50839010 50259684 50833156 52382647 55381383
3045.08 58986951 61535576 61140231 57857924 53934121 51682554
3050.87 51414428 52822096 55048472 57407499 59109431 59740464
3056.65 58938198 56817430 53380483 48990628 44005416 39080441
3062.44 34399797 30393665 27365793 25311869 24032095 23633635
3068.22 23941914 24850178 26069085 27345005 28259472 28507963
3074.01 27746107 26009466 23717397 22068267 22682536 27049739
3079.79 33650104 37889091 38373200 37699665 37251970 37215553
3085.58 37226757 37557054 37947254 38513187 38997315 39221412
3091.36 38967341 38631642 38010285 37303142 36836817 36709933
3097.15 37061600 38295713 39607701 37868028 36981589 35866943
3102.93 33469053 32423175 32522964 33651474 34955055 36257034
3108.72 36840154 36715188 35534971 33585969 30780317 27576982
3114.51 23993603 20458045 16940891 13813315 10973145 8659354
3120.29 6650221 5147329 3886006 3000707 2272775 1815704
3126.08 1369092 1101213 825162 695023 511956 459304
3131.86 333990 303273 199794 195009 112010 122516
3137.65 53549 77752 27752 63676-921 24115
3143.43-25206 14078-31159 6352-49580-18907
3149.22-60833-16956-60567-11520-54350-14718
3155.00-63490-26296-59016-12868-57350-19542
3160.79-53898-17846-73961-24950-50027-13804
3166.57-61347-16670-67136-29738-58158-6439
3172.36-42060-3433-59989-35878-77654-20224
3178.15-60134-14895-50529 226-45446-21905
3183.93-75068-34156-64309-18952-57556-20796
3189.72-52113-6246-55825-32408-67213-26215
3195.50-71493-27144-58785-17572-61944-24735
3201.29-58217-26560-76506-35423-75725-40952
3207.07-79330-30118-55338-22388-72711-38936
3212.86-83130-42690-72078-32785-65111-20933
3218.64-69523-32336-69329-25365-57326-20650
3224.43-63905-16375-60556-19438-49278-2513
3230.21-45409-20468-62328-22302-54535-5573
3236.00-46668-9540-39039 1983-36516-8258
3241.79-43321 10950-34870-9060-51020-5523
3247.57-41383 3925-19251 14260-38250-4625
3253.36-37100-4328-43415-64-31885 9478
3259.14-25542 8400-39003-456-44770-11415
3264.93-45855-17410-62088-20241-63156-25903
3270.71-65682-25197-49873-18209-65716-32684
3276.50-77689-41937-69263-30020-67830-28816
3282.28-70913-36524-76443-38879-84698-45927
3288.07-72903-33135-82264-43714-68170-30576
3293.85-75226-41441-82758-43524-80473-30083
3299.64-76491-52796-82958-49065-95922-65294
3305.43-103264-41588-59382-30919-83288-40164
3311.21-73269-29791-69344-34524-70838-31897
3317.00-84793-53707-90449-47580-78250-27766
3322.78-74221-35323-80270-45829-78307-37078
3328.57-80542-54707-99003-50769-76230-27800
3334.35-84759-48569-86673-53139-90460-50171
3340.14-79340-46320-84147-35658-79341-54417
3345.92-91455-43090-79892-34485-74086-36246
3351.71-75548-36134-64522-27313-75519-47655
3357.49-76449-41451-77419-30410-70951-25553
3363.28-66327-31332-70041-39965-81678-36103
3369.07-71730-49161-94997-36769-61775-30717
3374.85-67610-21776-62307-24200-66125-28054
3380.64-64572-19346-50375-13826-56111-14797
3386.42-46621-871-44617-15758-47863 7768
3392.21-38336-6530-35798 7821-35479 7343
3397.99-18841 19954-21624 18880-9327 31863
3403.78-11590 41999 10740 41665 11897 55159
3409.56 7593 38264-18250 6254-30291 9719
3415.35-25876 15692-18543 14216-35880-9268
3421.13-53050-1621-34536 2528-32598 29509
3426.92-9933 26447-14506 18411-10829 27793
3432.71-14638 34450 3944 58451 30418 60755
3438.49 10497 33703-1495 50786-3626 37409
3444.28 3805 45514 4120 49709 1666 33588
3450.06 1403 68078 158254 509091 576913 297861
3455.85 51166 30780-23042 912-41390 6844
3461.63-10259 32048-10687 27560-7194 17959
3467.42-23878 26708 3258 36657-26416 5325
3473.20-24641 3327-46856-8794-51377-15854
3478.99-49555-11947-58436-25215-51758-3389
3484.77-55220-29660-62374-28706-73547-34624
3490.56-85056-51025-68393-13553-65438-29799
3496.35-58912-25273-73783-37855-74489-29491
3502.13-68484-37267-84822-42240-83134-42473
3507.92-69030-26834-80487-46243-75284-33846
3513.70-73028-20423-53023-28359-73673-21907
3519.49-53581-27365-59947-6679-56715-28017
3525.27-73167-30152-64035-37221-77943-30548
3531.06-74345-34322-76164-43507-77616-36293
3536.84-80438-35757-65229-29183-71040-41606
3542.63-83437-37995-75323-27453-75670-46473
3548.41-73784-33311-83806-48627-82033-42071
3554.20-78701-35638-76080-52092-92676-42516
3559.99-76412-34469-73037-39649-85678-36026
3565.77-59960-22152-63807-24841-73575-34949
3571.56-68964-36639-88052-45958-75463-38350
3577.34-86347-49682-79882-43820-78058-41329
3583.13-98126-50458-73098-34721-75403-28023
3588.91-70350-35725-84115-38686-71277-26407
3594.70-51299 3400-28449 13629-23098 20863
3600.48-24482 16295-8250 43762 12963 72764
3606.27 37000 86209 58995 76455 21854 70549
3612.05 36577 65975 24361 65399 35953 99565
3617.84 89868 187030 203777 286662 218495 160577
3623.63 44256 59703 21695 89136 84111 149330
3629.41 105757 141633 112018 167424 138924 189341
3635.20 155197 205159 180364 240967 219517 276463
3640.98 266253 341245 351382 456990 474092 588032
3646.77 608916 689851 660004 651859 519019 459447
3652.55 383807 475382 588333 787765 767055 723202
3658.34 574796 507941 385149 354872 244698 238437
3664.12 166760 176861 111518 149746 102929 145329
3669.91 120425 137296 87461 127373 98243 150726
3675.69 85099 92815 64147 119579 83861 129253
3681.48 100916 149097 118482 166339 136851 203690
3687.27 214251 259695 224859 310457 301374 362833
3693.05 347686 413646 419687 504811 458846 484420
3698.84 458980 528953 501583 511622 432348 453136
3704.62 406302 471435 465653 535732 534600 603760
3710.41 550690 524615 372987 325193 233730 233273
3716.19 150711 159142 95199 113027 56345 101815
3721.98 66513 104627 49800 75813 36005 72023
3727.76 24519 50551 12276 69317 27405 43280
3733.55 4716 50945 10283 32874-16095 23829
3739.33-12846 54994 30018 127800 254946 350669
3745.12 70621-7078-44097 37358-6527 16760
3750.91 17812 50576-26050 12616-23377 24802
3756.69-11568 25215-21694 10318-36840 10218
3762.48-34316 5715-37406 4269-54695-17614
3768.26-43752-1690-58561-16143-50584-11681
3774.05-58199-13946-58289-13381-41030 10980
3779.83-37823-11259-58375-11793-51044-13227
3785.62-61347-17240-53980-3659-53145-18113
3791.40-62580-25540-66702-17359-48654-10008
3797.19-59194-25520-55247 34972-18084-16233
3802.97-61416-17750-41305 15854-51346-36169
3808.76-76347-36731-73885-27249-69134-26154
3814.55-31164 21369-68129-48627-84619-13521
3820.33-35079-10839-73136-39957-79819-28445
3826.12-72361-38477-81558-38853-66516-23222
3831.90-82169-33517-59873-18784-52568 21076
3837.69-38162-27862-77422-39688-87084-24558
3843.47-69797-32197-69615-31619-92655-49024
3849.26-84065-9989-17722 21388 4748 13719
3855.04-73816-25042-70685-38613-74799-31058
3860.83-84162-46886-82780-24306-66943-22023
3866.61-65084-20889-34595 1154-69974-31908
3872.40-70244-24994-84192-57273-91677-44679
3878.19-87001-30919-69713-26365-70794-36150
3883.97-78730-17897-68337-29609-45913 47129
3889.76-14462-23252-92420-48974-88102-37506
3895.54-74690-31840-79030-19889-64072-12580
3901.33-61681-24418-64161-33471-77623-37764
3907.11-83022-40977-83943-35143-65602-13368
3912.90-53648-1774-62666-28774-68567-12834
3918.68-46015-6489-59934-20621-53305 14460
3924.47-20051 40231 2450 39960-344 48566
3930.25 14735 69952 27743 83140 48746 98553
3936.04 65141 113049 74158 117954 78620 140141
3941.83 117730 184939 156126 202704 167987 218479
3947.61 163833 209596 193543 261765 222405 253613
3953.40 181551 208120 148525 176861 125502 164267
3959.18 124085 173164 125596 189453 147713 183962
3964.97 125456 173145 142120 181013 127527 178217
3970.75 145827 200362 157262 180805
##END=
