##TITLE=Benzene
##JCAMP-DX=4.24
##DATA TYPE=INFRARED SPECTRUM
##CLASS=IUPAC A
##ORIGIN=NIST, Analytical Chemistry Division, 301-975-3108
##OWNER=COPYRIGHT (C) 2000 by the U.S. Secretary of Commerce
##DATE=00/02/01
##$SPECTRA VERSION=1.10
##$UNCERTAINTY IN Y=2.1 % relative (B=1.1E-04,C=5.2E-10,D=5.2E-15)
##CAS NAME=Benzene
##CAS REGISTRY NO=71-43-2
##MOLFORM=C6 H6
##MP=5.5 C
##BP=80.1 C
##$NIST SOURCE=QUANT-IR
##SPECTROMETER/DATA SYSTEM=IFS66V (Bruker)
##INSTRUMENT PARAMETERS=KBr Beam Splitter; MCT Detector; Multipass cell
##STATE=gas
##SAMPLE DESCRIPTION=Benzene Primary Gas Standard
##PRESSURE=101.3 Pa
##TEMPERATURE=23 C
##SAMPLING PROCEDURE=1 L/min Flow
##RESOLUTION=0.9640
##DATA PROCESSING=NB Strong Apodization
##XUNITS=cm-1
##YUNITS=(micromol/mol)-1m-1 (base 10)
##XFACTOR=1.0
##YFACTOR=7.2759E-12
##DELTAX=0.4820
##FIRSTX=575.171
##LASTX=3974.61
##FIRSTY=4.16E-07
##MAXX=3974.13
##MINX=575.17
##MAXY=.0047908
##MINY=-1.02E-06
##NPOINTS=7052
##XYDATA=(X++(Y..Y))
575.17 57238-66094 10565-140330-5125-81265
577.58 36888-127901-31521-123439-4549-72382
580.47 81846-50940 51402-22383 64921-95444
583.37 41112-83313 9799-70908 91086 12314
586.26 96694-76819 25462-62058 83154-50052
589.15 81286-36430 41598-116634-1899-93024
592.05 75189-26563 78511-52272 94100-80816
594.94 40437-81487 109653-26061 66456-87140
597.83 86826-46348 50298-117668 28925-69724
600.72 91312-85935 65887-52070 86107-92759
603.62 81880-33069 120752-24844 150426 38609
606.51 238079 47691 152968-32936 122471-47215
609.40 109697-77232 70615-100602 67840-95967
612.29 75997-96711 94446-90401 58122-104750
615.19 90363-89866 104443-78557 100587-80449
618.08 109519-90123 110552-83110 116161-61198
620.97 144896-78422 105563-85177 146995-80334
623.87 117326-102442 115615-96997 120751-99123
626.76 160205-70134 151800-69867 184355-43181
629.65 213641-10563 257191 13841 283333 56818
632.54 323573 119701 438527 218434 553694 339223
635.44 686601 475094 857922 677712 1102015 960907
638.33 1439463 1320535 1831640 1737998 2322881 2297671
641.22 2955803 2982713 3727719 3815983 4641924 4819369
644.11 5761826 6023203 7085399 7458040 8666828 9156503
647.01 10490966 11064408 12527079 13239720 14877454 15673853
649.90 17441234 18342338 20202250 21162230 23152267 24160408
652.79 26215377 27192309 29242826 30184495 32235317 33090300
655.69 35040930 35682478 37535417 37930261 39484869 39521464
658.58 40850521 40515363 41501329 40732455 41405669 40145044
661.47 40434259 38640031 38583204 36292161 35959892 33247550
664.36 32691195 29443070 28699208 25054698 24414966 20570117
667.26 20245102 16243168 16625787 13138824 15676186 15314109
670.15 25166878 35434486 74439341 114898571 231113659 321655935
673.04 509938913 658446628 268414773 38369296 15302104 15337604
675.93 10220433 11827654 10850553 14942721 15207909 19371755
678.83 20197210 24339806 25509229 29498053 30763740 34400196
681.72 35572861 38874833 39898336 42750659 43370858 45608484
684.61 45810697 47482136 47241196 48345142 47675892 48250634
687.51 47132606 47154356 45651694 45268505 43466798 42761834
690.40 40704671 39693302 37370039 36093123 33713502 32385115
693.29 30046822 28719394 26408995 25070359 22850469 21612789
696.18 19547069 18445388 16583958 15583138 13855758 12972938
699.08 11320321 10598244 9194803 8647233 7434279 6990627
701.97 5895718 5596886 4663773 4466111 3625207 3510449
704.86 2805771 2773194 2126709 2142520 1586153 1679575
707.75 1198892 1318526 872478 1030932 638376 819844
710.65 452508 643189 307618 509973 191940 407794
713.54 114792 337155 62943 287104 27441 253123
716.43-2989 221455-26761 187206-55336 149405
719.33-84222 151470-66334 152633-75658 118624
722.22-102055 118328-76156 128072-90071 105083
725.11-84034 119860-86104 100792-88819 99493
728.00-89249 109516-75524 98918-89759 95834
730.90-74554 99021-91321 85540-85235 81289
733.79-86331 86890-79580 85078-84225 79176
736.68-88298 69273-87205 71900-94294 52659
739.57-99710 66280-88453 68811-78776 68010
742.47-92527 53916-90651 56969-90226 53382
745.36-84235 67548-73878 56376-87486 60258
748.25-76699 55660-81974 63904-64075 71061
751.15-60858 67038-62983 70132-60925 76250
754.04-43532 90961-36971 80261-39987 100453
756.93-12726 114706-14577 114328 5128 120194
759.82 5923 131559 21225 139087 24019 141924
762.72 30873 163514 54719 168024 61723 177375
765.61 62017 171765 60286 168123 52134 161711
768.50 47476 153021 49863 155573 41732 135791
771.39 29617 130293 19505 126002 25172 113151
774.29-3546 108325 41766 168054 58103 198839
777.18 158667 315890 497251 1378442 1632516 886468
780.07 271607 372414 220895 228145 96830 174779
782.97 47034 109281 2476 97738 10411 101565
785.86 10663 102145 20402 124746 42004 133909
788.75 57748 151175 51881 133114 50914 152075
791.64 75467 159807 59479 151122 70229 143430
794.54 62428 158348 73018 145831 50380 139205
797.43 59157 130559 42388 123956 29218 95065
800.32 13946 95348 13105 94848 1577 71655
803.21-8487 64893-28785 50186-24584 47795
806.11-37735 35407-50244 28889-46376 33699
809.00-32765 43077-36994 37499-43973 20186
811.89-61943 9767-61887 6775-69988 15440
814.79-59533 12128-54425 16385-60576 12302
817.68-52702 22541-57002 7014-52094 27822
820.57-58109 8634-51614 15960-50902 17785
823.46-59097 615-63637 9225-59762 10791
826.36-52283 7434-58403 20810-48495 7135
829.25-56729 19190-41370 22938-50182 9682
832.14-61627 5535-49420 13907-54921 1026
835.03-57006 5069-63855 13010-48591 13822
837.93-50219 964-62459 14702-43638 15326
840.82-43488 15274-38742 20666-47558 11739
843.71-53326 426-62282 4422-48025 6072
846.61-50287 13979-47359 5900-59553-4534
849.50-59652 5035-47489 14494-48048 11187
852.39-42602 13301-38834 12541-52399 4674
855.28-54839 7183-46869 5664-51367 8563
858.18-54180-6468-59996 1905-53476-2585
861.07-51552 5295-51788 2118-55245-1501
863.96-53825 3878-43281 8174-38733 18889
866.85-45680-1788-56277 4084-46779 3255
869.75-50261-1655-60589 2003-42103 6200
872.64-45557 8810-45719 8510-45982 7542
875.53-46795-5461-53812 7346-40134 1287
878.43-46244 8338-47068-414-48485 2971
881.32-43492 1944-50767-757-46933 4938
884.21-46233 1942-47747 4289-51595-285
887.10-41553 743-54707 2-44755-2110
890.00-57339-2974-46465 1516-48991-12160
892.89-60964-6412-46252 4110-37944 728
895.78-49117-1592-50372-8774-53366-1694
898.67-41952 5103-43199-1420-45284 6531
901.57-39067-923-50851 1109-40847-4747
904.46-47614 524-54623-10905-51071-6709
907.35-43274 4279-45699-879-41508-69
910.25-42539 5758-34773 9190-41733-3613
913.14-42920 502-44924 1282-42964 2985
916.03-42433-5903-49571-307-38519 7131
918.92-35938-115-44763-2747-42399 3034
921.82-43329-7499-47636-2952-38243 2647
924.71-40894-2003-43837-6509-45883-12535
927.60-59875-12381-47953 3179-36088-4676
930.49-40222 8066-36431-4056-40242 7167
933.39-36873-9376-44191 4300-33096-1923
936.28-43683-3112-41424 3720-37017-9721
939.17-48039-3298-41174-6859-43316-2366
942.07-43570-6556-48398-6312-37338 4048
944.96-30417 2079-39997-2064-42531-1164
947.85-37133-4791-45082-2896-38668-2759
950.74-37549 1005-37696-2830-34418 10271
953.64-27815 3654-38604-6409-30282 8910
956.53-36621-5460-44667-4718-27703 7351
959.42-34550 2769-34879 5130-24053 7365
962.31-36813 1378-30442 5049-29102 8900
965.21-24986 10536-24670 6470-36139 1958
968.10-27716 5993-28811 9378-20943 15433
970.99-25745-37-34177 7480-24864 9920
973.89-23793 7168-31212 10589-15991 11337
976.78-22684 14850-18112 17298-18056 17802
979.67-18653 16707-16476 18804-7608 29938
982.56-1839 30679-5414 33575 11392 46061
985.46 11993 51187 23651 60949 25970 56003
988.35 32947 68073 35711 70485 35018 71651
991.24 49309 85579 57198 93967 64586 102118
994.13 70186 107571 84381 117185 79599 112053
997.03 89773 129384 108420 149570 129111 181436
999.92 167057 212028 198848 253505 231770 277448
1002.81 265389 301911 267768 288039 253415 309195
1005.71 320281 406590 453046 576446 630311 741973
1008.60 786303 897355 944810 1058900 1109578 1224668
1011.49 1299835 1444647 1526652 1682612 1789539 1960043
1014.38 2073247 2263468 2398326 2602763 2741915 2943846
1017.28 3084451 3287526 3421284 3619056 3746654 3921631
1020.17 4025627 4183071 4265907 4394101 4443318 4538773
1023.06 4547740 4597242 4568782 4581806 4510344 4477007
1025.95 4359199 4285828 4149028 4067406 3906631 3806982
1028.85 3648028 3569076 3469218 3474176 3445143 3470093
1031.74 3491404 3726597 4054595 4627975 5281630 5796594
1034.63 6189058 6962339 7892318 9136377 10960438 13164072
1037.53 11806678 8119741 6758797 6107923 4972472 3901129
1040.42 3082264 2579495 2263755 2168469 2170187 2299632
1043.31 2440157 2660747 2846971 3071464 3245477 3455729
1046.20 3608645 3789893 3902188 4045327 4127590 4229992
1049.10 4250021 4298937 4284640 4295848 4226006 4191992
1051.99 4094578 4027344 3891164 3793104 3639240 3513652
1054.88 3320720 3178110 2993132 2847624 2649025 2512749
1057.77 2331686 2187966 1997253 1859971 1685923 1571447
1060.67 1414870 1310978 1159601 1072355 943567 869398
1063.56 758706 696991 591382 546420 468347 435698
1066.45 354796 329849 262935 248275 190020 186033
1069.35 137190 136017 87518 89220 57776 80946
1072.24 46865 53648 15111 33741 9268 33439
1075.13 1339 13276-17458 7051-18968 1870
1078.02-21325 3499-16741 5999-22305-662
1080.92-26313-3572-25506 3659-22155-7356
1083.81-33670-2568-26062-2637-22905 2012
1086.70-23496-6248-32699-8532-33642-7282
1089.59-29896-8012-35381-6967-29128-5666
1092.49-32852-15386-35679-11114-30039 3803
1095.38-17880-3270-34935-17048-37869-12076
1098.27-29314-4707-27759 1100-20066-3138
1101.17-27056-7159-33660-16920-40843-11992
1104.06-33380-10692-30855-1731-27996-10058
1106.95-28300-4428-30860-7649-31669-13445
1109.84-34168-7163-30467-5682-27549-10404
1112.74-30460-3857-23970-6743-32382-8885
1115.63-37621-17395-37032-16213-38509-21174
1118.52-37142-7295-27897-4355-30120-11349
1121.41-30133-9155-29687-12070-36038-20662
1124.31-46810-22634-37366-16102-33706-7069
1127.20-31642-18133-37558-13385-37952-15239
1130.09-33586-11662-40497-19344-35808-13427
1132.99-38806-12548-32089-10149-29603-14106
1135.88-35717-8628-30547-12657-35666-17934
1138.77-40346-20379-39328-18789-40256-11454
1141.66-35140-21920-43136-19113-38612-13302
1144.56-32865-10808-29736-13123-34487-8648
1147.45-28840-10090-29595-10002-36795-17552
1150.34-30951-12166-37333-16143-33297-15236
1153.23-38134-12579-33819-14474-29499-9199
1156.13-31712-11025-30035-9104-36022-21196
1159.02-30170-710-26856-12666-36271-16117
1161.91-34511-7576-27372-14619-35491-14197
1164.81-31233-8136-26274-4896-26549-5683
1167.70-23938 116-16344-83-29249-11904
1170.59-29744-7452-27840-8083-23811-3363
1173.48-24469-2992-18698 274-20231-2794
1176.38-22323-4095-24634-1373-18340 2487
1179.27-18406-850-20567 2289-19560 2243
1182.16-13845 5010-14285 7377-12242 3147
1185.05-15429 4281-12170 6071-14127 7540
1187.95-9457 11460-7167 16763 2605 28403
1190.84 26731 61135 50496 60390 14748 13454
1193.73-4695 19045-5140 8318-15535-321
1196.63-22867-450-11550 10658-10197 5301
1199.52-12236 9587-8383 8640-7796 10774
1202.41-8575 9452-7247 13526-6911 11322
1205.30-4458 19232 4132 19691-3924 12811
1208.20-5022 8384-13351 10424 16291 83809
1211.09 99916 94904 43424 42591 12083 24116
1213.98 5076 20079 65 13611-2646 19145
1216.87 2822 22664 3972 19739 4328 26848
1219.77 17712 35633 17339 42276 32316 47188
1222.66 27668 45306 30344 55788 46298 69621
1225.55 60808 85389 74662 97942 86904 112075
1228.45 100067 124231 115504 132657 121255 148851
1231.34 139186 162430 144299 158373 141791 163957
1234.23 151447 172996 150306 158618 143136 155131
1237.12 134942 150625 130894 149171 133048 149986
1240.02 134342 157812 142393 160019 139583 150870
1242.91 131571 146874 123331 139228 118199 129286
1245.80 115724 138873 128416 148538 126981 138433
1248.69 125878 147274 136896 160407 146180 159635
1251.59 140079 158400 138140 144702 121523 136535
1254.48 112848 119619 97118 106435 81389 93310
1257.37 69988 76997 50200 58153 32277 41021
1260.27 20808 30879 8804 21976 2949 13009
1263.16-6372 6677-13774-1427-24350-9718
1266.05-23948-10627-29038-15218-25924-8291
1268.94-27878-10370-27263-15370-32993-14893
1271.84-30881-15692-30627-16120-29672-11321
1274.73-30065-15199-27411-16224-35526-20533
1277.62-35468-19521-35627-18117-32281-15685
1280.51-31269-15921-28660-14281-38354-21690
1283.41-30286-11445-26950-19437-37136-24490
1286.30-40380-18170-33513-17359-33630-18369
1289.19-29229-16702-35730-17599-28283-10537
1292.09-26504-15003-35801-24647-40868-21995
1294.98-36004-20143-33124-19070-34888-19031
1297.87-32833-15797-31034-15553-32625-19798
1300.76-28986-14307-36377-20616-33844-20606
1303.66-33056-14813-32019-19676-32014-17264
1306.55-30620-19718-36524-21115-38582-24839
1309.44-39452-23717-36715-18310-31770-17959
1312.33-36876-23031-38230-21974-33796-16621
1315.23-32762-18869-29252-13490-33174-21320
1318.12-31082-14920-33445-23371-41036-28150
1321.01-43493-25840-36988-24529-37579-18109
1323.91-31704-19514-34567-25772-36926-20003
1326.80-40431-26965-39572-20604-34201-22676
1329.69-40408-25039-39078-25083-38820-24171
1332.58-39462-21436-32576-19275-34223-22236
1335.48-37684-18317-33684-23482-37943-21567
1338.37-35553-20360-32896-22447-39844-23558
1341.26-35780-26132-40956-26409-42232-29560
1344.15-41810-28218-41356-24188-35797-24273
1347.05-35763-22471-33069-13683-27664-14015
1349.94-32247-23892-42402-33552-47679-42043
1352.83-58695-38991-50178-34711-39967-17616
1355.73-25317-13919-29436-17397-27510-833
1358.62-20408-12525-21720-4257-11972 10077
1361.51-4674 13944 12307 27213 11256 32857
1364.40 24339 44461 44010 67456 70518 98909
1367.30 98892 129756 132117 159173 159271 189935
1370.19 195895 236128 248301 277586 283140 318650
1373.08 331270 371426 384515 421196 422700 453552
1375.97 456244 481560 490337 518541 513019 533061
1378.87 526304 538945 525719 540497 520303 521176
1381.76 501538 508066 493696 505063 485519 491502
1384.65 469289 480849 473148 497129 500370 512125
1387.55 493059 518496 521288 519570 480653 473936
1390.44 450435 457436 440236 459848 457168 479649
1393.33 472859 501204 503813 520827 514020 527070
1396.22 512621 524571 505934 508961 485535 484511
1399.12 448209 438294 400105 381454 342686 328803
1402.01 289904 277142 239471 227492 190712 182602
1404.90 145254 138882 109974 103583 75337 72291
1407.79 45275 52924 35027 38926 18988 23665
1410.69 5377 10296-12247-2789-17848-5726
1413.58-16033-6123-21365-14134-25187-8962
1416.47-18247-4555-25341-17479-15502 21376
1419.37-2025-11295-27431-14328-23536-13690
1422.26-26946-14331-24606-12999-22973-10917
1425.15-25500-17942-29476-14143-23627-10885
1428.04-21278-10185-23441-8186-19797-9367
1430.94-22449-13022-24064-10628-24226-14154
1433.83-22731-8096-19838-2631 867 30581
1436.72 5368-1870-16222-718-10994 1737
1439.61-10852-1111-12822-1309-9740 2875
1442.51-5233 9791-327 10176 3840 24306
1445.40 9906 20638 20156 47953 50239 60539
1448.29 51775 76643 80905 109607 118478 155767
1451.19 166426 198198 214962 260708 286474 344789
1454.08 389066 466912 526341 623753 733580 851508
1456.97 913724 1035232 1160879 1315339 1464613 1650251
1459.86 1830880 2049181 2259589 2516479 2767961 3052499
1462.76 3330185 3644334 3954515 4311057 4634420 4971117
1465.65 5303214 5662948 5992315 6339212 6663796 6981799
1468.54 7263350 7545448 7770483 7987063 8156774 8315070
1471.43 8421508 8488554 8495186 8512326 8463169 8390180
1474.33 8269446 8139714 7957539 7807465 7734765 7735885
1477.22 7711592 7675990 7666025 7896613 8279781 8778964
1480.11 9459544 10246703 11111557 12216875 13163147 13712933
1483.01 12900550 10729974 9859603 9804674 9308152 8654927
1485.90 7993675 7467659 7047844 6791008 6631724 6618159
1488.79 6686139 6846421 7020929 7270317 7499889 7746376
1491.68 7969159 8176369 8324915 8468277 8529187 8559603
1494.58 8521509 8455128 8342992 8187950 7937565 7697752
1497.47 7410124 7125648 6800029 6475832 6126589 5808807
1500.36 5473247 5164937 4850702 4583415 4310833 4084178
1503.25 3856129 3670897 3496174 3378517 3243971 3109442
1506.15 3000778 2931102 2810024 2740932 2671223 2621084
1509.04 2555190 2508716 2428536 2375238 2313260 2277862
1511.93 2215158 2154983 2081421 2034839 1974404 1947916
1514.83 1903420 1888633 1867840 1895798 1899960 1899227
1517.72 1891781 1917181 1883318 1785343 1728336 1756301
1520.61 1743039 1711189 1639814 1639285 1616094 1627511
1523.50 1634121 1671919 1699590 1752550 1766394 1792727
1526.40 1801302 1825108 1813098 1817133 1785519 1764494
1529.29 1712785 1666394 1589041 1533528 1444009 1368844
1532.18 1277960 1212251 1119105 1035225 922877 849352
1535.07 757318 690020 604599 550892 479572 439253
1537.97 393051 390883 325268 288995 255430 211197
1540.86 166771 173423 145701 116142 87811 85644
1543.75 62660 70961 58352 49724 26583 28003
1546.65 12514 17970 5850 12978-2968 7690
1549.54 1351 6879-5840 4602-9617-2501
1552.43-13406-1366 4864 30461 113-5068
1555.32-18859-8328-16570 14651 18204 47314
1558.22 40047 21387 22460 53021 19925-1678
1561.11-12669-4279-12563-4552-11531 54
1564.00-4644 8246-6786-2240-12266-2123
1566.90-11951-2771-7952 6252 6691 28817
1569.79 6878 3999-3447 2606-3926 7637
1572.68-2921 1900-7645 5384-168 27303
1575.57 57523 50273 10157 15098 2801 11934
1578.47-197 7198-3284 4509-3192 7745
1581.36-1506 7104-6417 1594-6405 3309
1584.25-4303 5791 103 11528-2860 5510
1587.14 759 17654 8741 15002 4143 10149
1590.04 3524 17773 8894 17502 4683 11495
1592.93 5602 22348 16373 24836 18416 26709
1595.82 16026 29748 24096 34071 24250 37002
1598.72 32913 44179 35058 43997 40799 55059
1601.61 48607 61419 58710 73752 66193 76859
1604.50 68165 80539 76617 88318 79797 95212
1607.39 87794 95480 86669 99838 90801 95901
1610.29 86858 90663 76007 87745 81561 85672
1613.18 69909 75840 62931 67491 55580 78247
1616.07 105771 104711 64086 75807 76420 100775
1618.96 100165 131883 175300 226807 240641 290103
1621.86 333433 329493 267279 210065 136514 106637
1624.75 74121 64519 46446 57384 57014 78151
1627.64 72906 81368 78254 94394 89675 105009
1630.54 99666 114958 113891 126177 113208 123068
1633.43 118739 134958 140951 171252 158813 136581
1636.32 115574 122240 109438 114000 97577 95935
1639.21 81411 84400 72336 77001 63499 69257
1642.11 56519 58833 48031 53505 44560 51255
1645.00 57259 82700 57129 53534 43207 49137
1647.89 38947 39460 29462 43257 37791 45089
1650.78 40655 66930 101352 128827 128118 110371
1653.68 84899 103456 84142 93364 87963 100330
1656.57 100338 127270 119743 122690 112913 123358
1659.46 112256 122484 117552 128571 120009 141132
1662.36 141558 144463 130752 152558 156036 184549
1665.25 283396 446927 325243 156336 119756 131454
1668.14 132426 153475 145995 139636 128987 137065
1671.03 131412 136405 129168 131303 119700 132323
1673.93 134629 165612 174181 168063 148659 156948
1676.82 152433 160706 152703 162946 154414 158363
1679.71 146785 149850 137600 137954 118951 123946
1682.60 120128 127342 120712 157142 150386 105517
1685.50 74116 72192 59315 54775 40817 42271
1688.39 30584 34399 25333 32083 19047 20810
1691.28 12916 19258 8986 13381 7555 16578
1694.18 11511 31195 65564 73190 20490 17668
1697.07 11595 15070 4217 11864 29733 67477
1699.96 59642 49502 15558 12394-162 3608
1702.85-5979 8174 6505 13050 2206 16584
1705.75 19325 25982 8918 9019-6024 4029
1708.64-5970-2778-13281-6352-16609-10371
1711.53-18915-8139-4677 20035 31925 72142
1714.42 143155 225291 132044 43266 43155 96475
1717.32 54396 18182 11671 10815-8518-6126
1720.21-8464 1858-6768-3117-8171-231
1723.10-7262 599-2170 8968 3908 11893
1726.00 7256 20337 16076 22859 19626 30778
1728.89 31063 49420 44916 47808 44445 59670
1731.78 56815 80326 104028 109312 111106 139066
1734.67 110940 110336 109404 123383 121927 135048
1737.57 130890 139383 139755 169286 169927 165948
1740.46 160409 169665 157798 161938 160532 168470
1743.35 155155 160875 152435 154434 143005 143877
1746.24 130460 131385 119794 127249 119739 118076
1749.14 103509 107464 113136 150093 168411 196315
1752.03 236403 303142 369161 448061 490486 457720
1754.92 357725 323351 287429 255302 200803 167892
1757.82 124258 107435 90521 94613 88548 103149
1760.71 111472 142640 140845 143038 144650 160584
1763.60 163949 184938 183775 195941 192626 208838
1766.49 212693 224355 228679 236597 220910 228383
1769.39 222738 229668 228427 244318 236454 252981
1772.28 259576 246517 228154 239205 233936 245695
1775.17 246749 255961 252222 268368 266255 278094
1778.06 280107 297237 303335 323443 329419 348878
1780.96 360341 384608 391674 413500 423415 449133
1783.85 469837 508986 524295 559784 590302 637641
1786.74 671013 726520 776186 844618 901804 977669
1789.64 1052037 1155678 1249467 1359407 1477409 1623725
1792.53 1739612 1864597 1994796 2143149 2286838 2452526
1795.42 2610964 2785453 2948979 3132376 3295243 3468246
1798.31 3631117 3800664 3943540 4078900 4184927 4293751
1801.21 4367986 4436571 4477269 4510369 4511592 4515760
1804.10 4497003 4470327 4412232 4367033 4326762 4294360
1806.99 4241742 4206588 4168647 4183906 4204625 4224395
1809.88 4234540 4272804 4300068 4292095 4250321 4164023
1812.78 4040442 3950760 3871711 3852198 3850489 3903419
1815.67 3963314 4062211 4154857 4265607 4360715 4452079
1818.56 4514074 4563230 4570305 4558054 4499777 4424219
1821.46 4309247 4178699 4008387 3832796 3623670 3415396
1824.35 3188494 2964902 2723356 2499672 2269251 2061062
1827.24 1848240 1659551 1476167 1324415 1171705 1042993
1830.13 902602 790263 684424 603141 518474 454706
1833.03 391227 347359 297967 262929 217526 191751
1835.92 159199 145333 122456 113372 89883 86043
1838.81 69754 64642 54511 53015 40085 41494
1841.70 31458 31703 24229 38004 47305 44370
1844.60 21339 22057 10487 10798 5437 15426
1847.49 8598 14650 12794 22349 13942 14649
1850.38 7533 15367 7966 17312 14713 23747
1853.28 18309 23089 18705 25545 17481 22885
1856.17 16676 25124 21461 29268 25809 32803
1859.06 27958 38077 36684 44856 40559 46667
1861.95 44984 56488 52230 59221 54672 63991
1864.85 59880 66713 59550 63188 59929 72437
1867.74 69281 73641 76461 79946 66396 70457
1870.63 62713 69324 60401 64713 61479 67379
1873.52 62812 69027 62446 71155 69293 79777
1876.42 77229 80715 72727 77348 71207 75990
1879.31 68442 72618 60730 64780 63214 67861
1882.20 58602 61145 57286 67529 66062 82760
1885.10 89171 105721 102881 108617 101471 101939
1887.99 90040 90915 80869 78203 57607 55089
1890.88 46786 46649 34419 36452 27719 32701
1893.77 24490 25329 19083 24240 17174 21134
1896.67 14485 20930 13469 18514 14756 20682
1899.56 14237 16535 7196 11719 3946 6628
1902.45-324 5103-205 6967-2395 3498
1905.34 1173 4841-6486-2713-6407 1819
1908.24-4718 1776-2426 5552 983 7328
1911.13 5981 16643 14028 23931 20025 27043
1914.02 22064 27666 18116 20544 16214 22405
1916.92 17701 28077 21574 24052 21166 27973
1919.81 28296 41509 45733 56639 53026 63040
1922.70 68684 82824 84298 98381 102353 118271
1925.59 122682 136617 144138 167557 173931 193863
1928.49 207315 231072 242546 266345 283203 313785
1931.38 337544 374119 401304 441668 475189 522865
1934.27 562919 614274 659283 718380 776347 851613
1937.16 916135 999463 1076914 1168748 1254758 1359837
1940.06 1456624 1564496 1669879 1794545 1905276 2019233
1942.95 2120658 2234090 2331854 2436231 2530401 2627763
1945.84 2706241 2790093 2848760 2907095 2947664 2990292
1948.74 3024416 3076727 3081728 3066583 3035213 3018495
1951.63 2997368 2982887 2948815 2920183 2895199 2898366
1954.52 2894576 2887544 2867419 2849524 2829051 2827429
1957.41 2792242 2763505 2697513 2624368 2556217 2526058
1960.31 2514703 2534862 2570666 2634831 2697928 2775583
1963.20 2848057 2923608 2982785 3034783 3052482 3059284
1966.09 3029464 2994257 2930768 2854987 2749749 2638584
1968.98 2509535 2374123 2216832 2072399 1915474 1766667
1971.88 1608261 1463233 1316202 1186987 1055583 946321
1974.77 837329 747466 655041 578237 506966 454268
1977.66 390095 341780 292904 257820 216790 199956
1980.56 176802 160105 141369 135007 121392 125104
1983.45 116224 117413 105672 109729 110959 123169
1986.34 120088 131415 143877 177098 207173 247233
1989.23 229571 143808 71869 62137 55208 57914
1992.13 51024 52816 50857 62636 64004 72456
1995.02 66631 73378 68814 76916 78501 83607
1997.91 75994 93429 107155 122924 110396 118952
2000.80 110172 122172 158051 210479 247057 221636
2003.70 152984 225595 405073 639347 532550 197617
2006.59 84791 97532 135098 216862 235076 175941
2009.48 117417 93022 76721 71933 60599 63850
2012.38 62747 69372 69412 72260 69026 79726
2015.27 83291 94155 95023 104227 101412 107654
2018.16 105504 104696 100136 113948 109712 106224
2021.05 102196 109150 103093 97063 87571 85612
2023.95 77635 81923 71594 70535 61083 61713
2026.84 49812 46863 39548 41388 38334 38250
2029.73 29202 29908 24203 30187 24918 24238
2032.62 17299 16592 10683 11020 5834 11934
2035.52 8480 17813 18009 11088-5394-3097
2038.41-10726-8010-8939-5297-9436-5381
2041.30-10828-4958-6192-3729-6579-2635
2044.20-10478-9626-12827-4872-10788-10727
2047.09-17207-10456-10716-6692-10890-6198
2049.98-10971-7691-14092-12108-13846-8207
2052.87-14708-11115-15425-8469-12642-10703
2055.77-16697-10275-13103-12190-18010-13575
2058.66-20574-15426-16786-13707-16572-9031
2061.55-15779-15689-18997-11875-16077-14015
2064.44-22625-20970-25824-22774-26721-20341
2067.34-23469-20605-27284-27230-32212-26932
2070.23-31235-27140-31022-27735-34448-26927
2073.12-33727-37751-42711-37189-37779-26272
2076.02-23565-14520-17928-21657-26560-18802
2078.91-22677-20018-24672-20986-21562-10582
2081.80-18541-21513-25262-22117-25842-22101
2084.69-24343-15641-11399-11442-21405-13499
2087.59-12910-1766-137-1388-8508 1130
2090.48-9673-15319-20030-18518-24664-18896
2093.37-19866-10927-7617-12571-25861-24398
2096.26-28079-23245-26893-19215-12949-4357
2099.16-18200-18714-22914-17595-23807-21207
2102.05-20877-2843-6577-17624-24780-23961
2104.94-27052-20272-23669-13866-4325-14233
2107.84-31251-23188-21336-19277-25597-20406
2110.73-6866 4946-17588-21074-24849-21955
2113.62-29329-24518-19466 1467-13843-27350
2116.51-31701-22522-28495-26560-24323-2453
2119.41-2766-16577-25157-20522-24628-24439
2122.30-25399-9559-5315-18096-27573-25764
2125.19-27153-20623-22394-9450-1386-9339
2128.08-22077-18104-22998-23142-23632-18296
2130.98-14265-9521-19417-16044-21730-21517
2133.87-22908-11505-1255-3807-19498-9062
2136.76-2551 18468 15603-7025-19841-18463
2139.66-23713-17432-19083-14581-18911-13833
2142.55-11748 2218 6758 3644-16736-19658
2145.44-24292-19467-21436-20106-25609-17897
2148.33-20424-20587-23764-14615-10969-10859
2151.23-20579-17470-21837-15623-18000-8605
2154.12-7460-13384-21517-20861-28251-24090
2157.01-23907-4453-3143-13355-20760-16731
2159.90-16701-13744-12801 7077-2725-18025
2162.80-24657-25635-29009-21450-6733 9344
2165.69-11107-19546-24976-20166-23730-13654
2168.58 7524 5770-20413-21066-24259-21334
2171.48-21883-575 3196-14637-25494-22500
2174.37-27961-22426-6547 14299-6359-17657
2177.26-20247-17432-24195-13723 4160-2283
2180.15-23032-21624-21452-13825-11309 7054
2183.05 305-10507-17173-13924-15317-7720
2185.94 2777 3592-12050-9486-10932-5743
2188.83-3801 11628 8017 4410 347 1586
2191.72 4573 17093 22543 25025 15641 16860
2194.62 13261 25406 37798 51854 50682 54159
2197.51 55982 68313 78576 98199 111714 117949
2200.40 122589 135443 139224 157530 173025 195627
2203.30 204873 221273 237692 261065 280833 306325
2206.19 320532 341078 353476 371997 378222 389403
2209.08 394220 393701 382773 376606 358895 338805
2211.97 315148 302033 275829 256709 248803 261480
2214.87 280136 308979 334860 376494 408303 431317
2217.76 433632 431211 410704 382210 350672 325504
2220.65 291793 267773 240785 221920 199516 182635
2223.54 162117 149188 129409 118213 107039 100067
2226.44 87384 87132 77721 71118 55798 50761
2229.33 46135 43310 36560 31051 20800 19839
2232.22 18754 20876 16457 16430 7747 6646
2235.12 793 2112-1330 31-2365 659
2238.01-3823-4955-13330-11400-15046-10032
2240.90-16351-17614-20318-18370-22144-18921
2243.79-19251-17785-21481-16108-20456-18909
2246.69-18113-14498-20263-14988-15981-17013
2249.58-19508-17437-20827-15871-18891-15548
2252.47-19781-14899-12372-9225-17101-19503
2255.36-22568-17808-18912-14701-15324-11254
2258.26-16560-14620-11689-10128-13563-10052
2261.15-15337-12627-13365-7812-4934 1604
2264.04-171 3830 3385 5336 6962 10414
2266.94 4610 10979 12272 13882 10294 11955
2269.83 12718 17417 14017 17325 14574 15590
2272.72 12486 18667 14223 12673 11453 15646
2275.61 11659 12914 9263 14077 10065 7386
2278.51 3050 10363 9176 8962 7827 12274
2281.40 13704 15651 8485 10770 5030 7372
2284.29 6433 11178 12346 16795 16459 17980
2287.18 10145 11511 11326 14111 8535 11033
2290.08 9649 12783 7780 7927 8366 11269
2292.97 5848 5046 381 5596 6096 5760
2295.86 1287 4418 6562 7512 2058 7132
2298.76 5705 3902 5073 14147 15276 18832
2301.65 21983 31906 33520 42183 50451 63399
2304.54 69395 81488 91908 112892 126430 135862
2307.43 148006 174173 198355 220806 238140 266977
2310.33 294593 326389 346581 379219 410783 442392
2313.22 455946 477186 499393 530405 538841 550499
2316.11 562251 580349 576828 573807 567073 573025
2319.00 559577 541742 529598 531213 512763 491205
2321.90 482050 494437 488743 473974 469850 498739
2324.79 509701 496813 499028 567077 658182 670532
2327.68 655397 649366 615379 579127 574526 599228
2330.58 582831 581106 617700 638266 615358 614460
2333.47 634345 631059 601338 610964 622217 591701
2336.36 556649 562434 547227 501527 478405 477658
2339.25 436938 391640 380566 364856 312904 289250
2342.15 281624 249494 212403 207077 186408 152732
2345.04 134980 133045 108726 89680 84232 74944
2347.93 56227 52083 47781 47064 36483 36366
2350.82 41621 39216 30917 40297 29063 23428
2353.72 43414 44876 26676 46847 46838 34560
2356.61 54285 56750 41032 63349 55929 47087
2359.50 70583 63753 61660 89472 69209 77135
2362.40 99394 94035 115936 135033 119824 118673
2365.29 95166 96543 108756 103742 112289 102857
2368.18 92736 96415 84747 95861 91196 91692
2371.07 98874 97703 99147 91805 91735 90650
2373.97 85924 87456 80774 86058 81966 82296
2376.86 79947 84813 82956 93329 94686 89513
2379.75 83851 94209 94662 98339 100333 109057
2382.64 118482 139073 154938 168217 188374 269998
2385.54 300804 239520 175389 139170 122586 113382
2388.43 101669 101695 108340 116283 119871 124330
2391.32 124395 129803 130835 139196 141998 142154
2394.22 143766 148905 150145 150453 148814 152099
2397.11 151619 152347 149885 151121 161497 164567
2400.00 148964 139253 131960 127411 117514 117709
2402.89 115887 117269 114356 112152 113255 124297
2405.79 128436 135319 146921 164226 163472 161036
2408.68 197905 236454 200330 152601 111283 85869
2411.57 68469 63767 59783 54832 52407 57045
2414.46 52571 54803 60133 65184 63980 62520
2417.36 65641 68687 67597 73064 72027 72959
2420.25 73627 73886 73667 78396 73568 65644
2423.14 63481 69192 66500 65067 57894 51544
2426.04 44067 44268 41426 37150 29385 29951
2428.93 27400 25691 18584 16137 14115 14351
2431.82 10618 9737 10275 9158 3856 7854
2434.71 5381 957-2122-999-5900-3628
2437.61-2906-7294-5506 350-2935-2546
2440.50-7491-5479-4535-1395-4662-3047
2443.39-3534-3825-7496-8388-9633-8606
2446.28-8831-3199-6697-12212-12534-6137
2449.18-10566-11285-10680-9942-9931-9417
2452.07-11396-10295-11857-12404-13032-9023
2454.96-9958-10383-11958-10539-8973-3967
2457.86-4614-3987-3586-1660-2343-1497
2460.75-1192-3377-6566-154-1134-1017
2463.64 1398 2774 979 2930-85-229
2466.53-361 3581 463 988 2051 7282
2469.43 10540 14220 12023 18140 18425 17294
2472.32 18158 19752 16626 17593 15675 17396
2475.21 19675 24868 23502 22077 15963 14305
2478.10 15220 16722 12820 17737 16453 13656
2481.00 12593 17358 19127 18633 12943 14559
2483.89 23323 29702 21726 17543 14947 11547
2486.78 9776 12742 11449 13683 16832 19103
2489.68 17524 19552 17371 13710 6841 10170
2492.57 15852 20656 17309 14980 16599 21163
2495.46 17979 14019 5822 3882 2353 94
2498.35-2602-1115-4996-7912-12771-10628
2501.25-9775-12077-14912-14229-14915-13332
2504.14-16207-14506-19876-19069-20304-20269
2507.03-16403-17604-20779-16721-17379-20526
2509.92-24629-27836-26641-22003-20348-18809
2512.82-21339-18692-21016-20193-20027-13316
2515.71-14203-21735-26140-26226-24524-19873
2518.60-19930-20026-21321-22250-25994-23182
2521.50-20265-19941-22718-23435-23209-19701
2524.39-21150-20271-26530-32166-32454-23508
2527.28-18633-21357-28585-26739-27413-26759
2530.17-26809-28305-30479-29083-28088-24603
2533.07-24105-20869-20633-23935-30089-26675
2535.96-25271-20466-16780-17832-20102-20810
2538.85-21930-16221-13211-16288-19490-16687
2541.74-14996-10667-11697-12728-12139-12336
2544.64-10112-7762-4565-4000-9370-9512
2547.53-9477-6984-8221-11113-12808-5258
2550.42 2536 8643 10203 9086 9938 10686
2553.32 10827 16562 23001 24705 32487 37792
2556.21 40287 40739 29817 10988-4528-6379
2559.10-3522 281 1495-649-350 2963
2561.99 3408 5943 9197 11723 6544 3612
2564.89 1111 1086 7012 14784 11032 9202
2567.78 14221 12158 11741 11383 9778 10855
2570.67 12384 12327 14462 16605 16793 18575
2573.56 20579 26766 35992 53050 83838 91327
2576.46 58982 35794 28354 24241 18629 18039
2579.35 18919 16551 16843 21616 22483 22501
2582.24 20815 26618 32715 39425 43659 47339
2585.14 48352 52155 56605 63260 71465 73955
2588.03 74063 77925 84536 89863 89728 95105
2590.92 98436 102689 106374 111470 115768 122297
2593.81 125944 122993 120454 125385 127547 131346
2596.71 134312 134281 135095 136305 134288 134381
2599.60 137970 144402 149588 155248 157311 167229
2602.49 188328 204895 210952 222043 226423 218413
2605.38 218130 234332 249657 268042 285107 294984
2608.28 302468 313010 322013 328710 325931 322131
2611.17 315760 304177 287001 271471 254704 237919
2614.06 218746 200146 183958 165273 150794 141304
2616.96 135360 127870 116793 109318 105278 107366
2619.85 104243 105115 123431 130670 117129 106711
2622.74 102509 101459 97404 91409 86278 83992
2625.63 82711 84512 83056 76781 79033 81192
2628.53 72660 68476 69653 69610 70800 69983
2631.42 68189 61867 53614 48028 45752 47089
2634.31 45316 41629 42116 41736 37066 34638
2637.20 33143 32355 32209 30267 29503 30823
2640.10 28996 31312 39459 43078 50804 53966
2642.99 49165 51844 62667 71595 77910 81889
2645.88 86466 95407 104179 112944 116615 125043
2648.78 135465 135784 141975 145285 140926 142048
2651.67 144323 142452 135356 133492 132779 128794
2654.56 124241 116296 109260 100997 100341 102566
2657.45 102371 102820 102126 105393 103232 105555
2660.35 107722 108117 119789 134076 145204 149522
2663.24 150328 157056 161370 159443 157938 156304
2666.13 146746 137625 132591 125824 111410 94655
2669.02 85794 82098 69692 60475 53356 51632
2671.92 48012 40075 30411 23821 17225 8952
2674.81 3794-119-1602-1718-4187-4316
2677.70-8176-5395-1852-4703-11339-15237
2680.60-16250-15876-18545-19950-17201-17886
2683.49-14994-14934-17738-15793-14740-21182
2686.38-29195-27473-25422-23840-23237-23975
2689.27-25549-25293-24387-28791-30880-27276
2692.17-25420-25544-28675-31108-28923-29267
2695.06-28067-26132-29709-32212-30500-30850
2697.95-30527-32283-34400-35464-35927-44005
2700.84-44499-42118-41251-39732-36434-37052
2703.74-28994-24262-24672-27932-31489-33339
2706.63-27046-26229-31226-31621-28027-30251
2709.52-25832-17297-14306-20086-22351-21999
2712.42-28838-31110-24167-22258-23751-25017
2715.31-26534-33232-34851-29251-28456-33001
2718.20-33689-29125-29889-36263-34038-34187
2721.09-34224-30820-32215-31565-30914-33842
2723.99-37512-37091-35758-30023-31523-35380
2726.88-34701-30349-26855-25697-20943-20763
2729.77-29612-35854-29023-33280-31795-26791
2732.66-30246-33532-34150-33773-28201-22109
2735.56-20042-25572-30522-28786-21522-22999
2738.45-18664-23390-31037-34738-30112-25071
2741.34-28167-32629-31542-30041-28379-30538
2744.24-27809-29043-31596-31878-31686-28188
2747.13-24441-25680-27732-29786-28319-28399
2750.02-26902-28398-31652-33526-32544-36778
2752.91-33946-33895-35488-31437-26773-31854
2755.81-34123-37105-34172-31169-29974-29995
2758.70-30928-34923-28854-22818-22627-28415
2761.59-26797-22813-29522-33760-31411-30140
2764.48-24888-26243-26997-30633-34475-34271
2767.38-32132-31994-28379-29111-31082-30481
2770.27-24922-24108-25304-27093-31011-31886
2773.16-27702-27151-31063-30091-23765-19124
2776.06-10745-15448-24151-28595-30697-30623
2778.95-28131-24817-28069-36835-30710-26488
2781.84-25088-23901-19049-17986-16670-17200
2784.73-13908-15138-20305-24292-26021-26406
2787.63-16516-9293-9938-9148-7788-7394
2790.52-2534-6210-10651-9927 542 9329
2793.41 11774 14020 21967 24086 24958 24840
2796.30 27395 29997 38952 43784 47319 47620
2799.20 50132 53797 62063 68053 81512 83714
2802.09 91197 101961 105235 107547 115837 125131
2804.98 138798 148145 158838 163951 170787 179608
2807.88 190216 202211 217521 223712 229905 236389
2810.77 241652 257261 268927 272422 275461 275529
2813.66 282948 290028 293079 294811 303207 304548
2816.55 309726 313912 310548 306934 314609 315657
2819.45 311543 311748 308503 304825 306126 306193
2822.34 308624 317163 335132 356904 378047 392222
2825.23 398531 408832 421422 418945 422230 463022
2828.12 473876 432942 403027 376309 355655 329833
2831.02 305202 290953 289645 286540 293519 290935
2833.91 290911 298113 305726 311349 317004 312239
2836.80 316951 325324 329523 331066 338458 337570
2839.70 333917 329531 335218 330503 327555 322095
2842.59 314337 307686 303221 290324 281449 277525
2845.48 272112 255503 251831 248770 241423 233857
2848.37 224761 214076 216614 226203 230206 226584
2851.27 231333 234434 239458 246170 264075 277701
2854.16 275340 254242 227173 203557 194902 184005
2857.05 177314 169348 166688 163712 166179 167078
2859.94 172404 171808 178833 187847 196887 206147
2862.84 210047 216176 225396 225647 227919 235285
2865.73 240140 240226 242987 242706 248280 241915
2868.62 237238 240782 252283 247571 235084 228980
2871.52 233417 241558 243864 246179 253488 261253
2874.41 273901 276769 289896 299792 315394 327196
2877.30 339519 349189 370887 380579 391882 414164
2880.19 428650 439663 453748 459829 469823 476308
2883.09 493586 503064 502166 507216 516651 524890
2885.98 540599 547800 555448 566244 581802 594489
2888.87 616977 634684 658061 675030 693802 707366
2891.77 731810 760528 790204 821554 867055 917630
2894.66 969404 1013584 1064108 1098839 1126532 1156948
2897.55 1180346 1178360 1158098 1117994 1071858 1011004
2900.44 948717 881669 814312 750205 701339 648058
2903.34 602884 567980 546839 523235 507954 491576
2906.23 483050 470549 461893 447286 432517 429363
2909.12 426297 415427 405105 384886 363416 347855
2912.01 342215 325940 318760 307890 301406 297151
2914.91 293381 282585 274689 268120 262664 253948
2917.80 250410 245853 237530 229462 228503 218095
2920.69 205688 184376 169460 154064 144257 131825
2923.59 119510 108133 106664 89722 84050 75416
2926.48 69390 67920 62525 45862 33402 19644
2929.37 21593 15938 5277 1723 4506 3071
2932.26-2180-10246-7972-8393-6568-13805
2935.16-10512-8368-9398-15217-17640-27189
2938.05-25629-20532-19893-27485-30365-31077
2940.94-24541-32693-37944-39890-31274-34476
2943.83-36136-30450-31761-38806-33714-33607
2946.73-29118-28667-35764-40402-34850-32283
2949.62-29979-35007-30534-29086-29313-30610
2952.51-21912-23348-15739-16101-19665-20448
2955.41-17874-25667-26527-23189-19094-22034
2958.30-26851-43183-41504-43845-42320-46799
2961.19-53795-49800-42149-53608-57095-57935
2964.08-62951-66828-62980-64249-54541-49476
2966.98-45955-47170-43996-48198-44080-43371
2969.87-41185-36849-30494-27957-12757-5268
2972.76-10981-20124-17498-16280-11427-14433
2975.65-8129-9137-13309-15808-13218-18556
2978.55-21150-22166-18826-16659-7227-12585
2981.44-18889-12332-8980-12561-7856-5758
2984.33 4350 3863 9652 13205 12118 9525
2987.23 13404 8346 2423-2396 5422 11805
2990.12 8347 7833 12485 19091 29910 28393
2993.01 30844 24412 17932 11326 18193 24264
2995.90 35885 30410 28734 29849 31118 30153
2998.80 36214 37790 50660 57069 60893 60939
3001.69 69328 78633 89016 89000 94004 103309
3004.58 115435 119349 126600 135372 147284 157095
3007.47 166149 177059 199074 218583 237445 253948
3010.37 268463 289681 322038 360975 399153 432235
3013.26 483250 539319 597607 665315 747080 831870
3016.15 927006 1028502 1142429 1269661 1421065 1569402
3019.05 1735114 1929033 2152047 2384453 2649955 2943167
3021.94 3262670 3606424 3989380 4409784 4866306 5369027
3024.83 5913300 6490187 7119003 7789558 8518171 9285018
3027.72 10088858 10931351 11827377 12757798 13718600 14695354
3030.62 15696792 16714193 17726604 18710281 19670375 20612592
3033.51 21521596 22374477 23164081 23871232 24487654 25012015
3036.40 25445715 25763675 25958566 25988621 25921319 25923805
3039.29 25969612 25953090 25779555 25345681 25065952 24990493
3042.19 25140122 25377746 25588800 26026539 26701443 27608787
3045.08 28602898 29622837 30415005 31117556 31219167 30923304
3047.97 30124078 28952184 27774685 26766933 26073636 25622962
3050.87 25486274 25539372 25866939 26317830 26895585 27527338
3053.76 28167678 28747109 29275572 29666968 29935175 29990269
3056.65 29891296 29604083 29154096 28516390 27737665 26794138
3059.54 25727217 24540606 23288659 21998840 20730060 19501399
3062.44 18325374 17161632 16050141 15061226 14274705 13611972
3065.33 13047161 12570995 12208848 11938668 11786782 11734146
3068.22 11793197 11927853 12125061 12379025 12694604 13039377
3071.11 13385970 13694476 13971170 14199272 14349653 14340257
3074.01 14218107 13978431 13614905 13053299 12438367 11809942
3076.90 11268905 10815069 10659641 10940141 11787741 13178703
3079.79 15091096 17163633 18758801 19388188 19392120 19237050
3082.69 19060950 18807424 18595862 18559520 18678741 18622028
3085.58 18517407 18582096 18692948 18770162 18843295 18967431
3088.47 19107718 19242131 19400117 19532350 19635158 19664185
3091.36 19618765 19460407 19366632 19375142 19260546 19006576
3094.26 18765025 18631137 18515922 18369820 18310802 18334786
3097.15 18345352 18487014 18656602 18910746 19483347 20702590
3100.04 20457802 17821017 17859891 19197881 18789892 17895433
3102.93 17171153 16620627 16246111 16061092 16039799 16206091
3105.83 16463047 16774961 17131003 17509429 17873745 18161008
3108.72 18396758 18520857 18532596 18425933 18214869 17866553
3111.61 17413838 16845048 16193297 15455059 14647263 13797450
3114.51 12918012 12015761 11108838 10200992 9318343 8453681
3117.40 7634366 6856421 6129789 5452561 4848612 4280760
3120.29 3764311 3293911 2888744 2528036 2216706 1930472
3123.18 1678507 1459647 1286597 1128506 1005682 885929
3126.08 784534 686732 607295 526593 469333 420823
3128.97 376855 329675 296620 263214 236852 214128
3131.86 203506 175695 157846 138101 123201 108940
3134.75 101517 81801 75908 66433 60605 46124
3137.65 43987 36293 34684 24357 24007 21758
3140.54 30548 21299 17578 6918 7822-2651
3143.43-2621-1007 294-8320-1249-7696
3146.33-2505-7643-8104-16150-17696-21887
3149.22-20754-24736-12884-17538-21726-26458
3152.11-11820-17867-13723-16414-18965-19653
3155.00-11784-24937-24467-27360-20048-19704
3157.90-14846-17124-15794-18917-17676-25879
3160.79-19145-13715-11977-21185-18682-34612
3163.68-30343-24091-11728-15576-12596-13862
3166.57-20067-31526-14692-12388-17963-30494
3169.47-24650-26718-21900-23817-10523-10959
3172.36-13154-15644-4449-8129-14142-28867
3175.25-16569-25847-40100-36144-15129-17614
3178.15-19072-24722-16658-18355-14411-19729
3181.04-10944-9597-5112-10813-16642-27482
3183.93-18562-29659-32970-30792-18440-23073
3186.82-20402-22455-14327-17275-20142-26923
3189.72-16535-15538-12479-15242-7407-16386
3192.61-25231-33131-25237-22767-19436-23894
3195.50-21106-32110-24886-25575-16659-20887
3198.39-19447-17595-14201-26949-21005-25232
3201.29-19584-18678-14859-24530-26308-34296
3204.18-26069-29180-22166-30784-28744-32143
3207.07-27842-34064-28135-25930-21252-14185
3209.97-11883-25722-22323-30271-26214-29703
3212.86-28879-34725-31671-34113-28228-25455
3215.75-20451-28496-30518-25903-8622-22214
3218.64-24047-26284-22656-32633-22934-22973
3221.54-24168-28231-16643-17626-16373-21254
3224.43-20766-28880-18740-15164-13315-24259
3227.32-24375-23032-10720-15684-15169-13401
3230.21-916-12022-21319-23253-16793-24475
3233.11-22179-20979-17055-23527-12501-11365
3236.00-6976-15133-17578-19953-7404-7558
3238.89-9844-13094-2104-8588-9482-17332
3241.79-13655-20295-5211 1693 2288-13448
3244.68-13427-13073-11835-25423-13810-8243
3247.57-8306-15654-10767-11089-192 935
3250.46 4599-1913-6037-13312-9679-17769
3253.36-8095-6949-6643-14193-14038-16116
3256.25-5665-10776-10358-7638 2470-9425
3259.14-7591 63 2871-10543-5443-14765
3262.03-7804-12053-4660-15645-14185-21008
3264.93-11878-11943-8522-21460-26276-21735
3267.82-16350-23279-15561-23405-25281-24988
3270.71-15466-25644-25481-27300-17315-11044
3273.61-7516-27434-20135-22796-23419-29636
3276.50-23855-29039-31244-39101-23187-24570
3279.39-20231-27278-24646-27623-18485-25919
3282.28-23044-29090-23624-29321-28292-31794
3285.18-25293-28274-28996-36270-33766-34982
3288.07-29805-27865-17993-28813-25978-34233
3290.96-33677-37067-25969-22777-16912-29548
3293.85-25348-30683-25179-32821-29946-36032
3296.75-29557-28841-31217-39754-23708-22310
3299.64-19841-26997-35088-45929-32806-29033
3302.53-25211-38164-37691-40309-33465-46893
3305.43-43766-48706-35378-32614-21315-16838
3308.32-11209-30650-30787-36179-30934-30291
3311.21-24020-33328-21349-24562-23051-27706
3314.10-21013-31378-27276-27663-20529-23367
3317.00-27167-37877-32765-40381-35563-37340
3319.89-31702-34419-32152-36265-20641-18801
3322.78-21169-36141-27334-26743-21412-34337
3325.67-34007-36061-27576-31902-25142-30035
3328.57-25579-32862-28229-40742-40687-44299
3331.46-35723-35688-30100-36600-16887-18731
3334.35-23817-37201-41860-36863-19886-37582
3337.25-37959-40083-29291-38184-34503-41247
3340.14-29825-25116-28635-36679-33288-39019
3343.03-23876-28862-22164-30980-31699-42544
3345.92-37656-39734-29115-33031-25086-35847
3348.82-29384-27220-18455-30029-33235-29084
3351.71-17236-32625-33417-29286-18786-26222
3354.60-18865-24520-20610-29839-31508-40198
3357.49-31026-28752-19133-32871-38204-32692
3360.39-17177-24498-24917-33446-20360-22295
3363.28-18444-25161-24387-30696-20515-23173
3366.17-28715-30166-29363-38896-24928-29785
3369.07-24824-23537-23203-39497-40093-42287
3371.96-34709-30991-13802-21893-19218-28815
3374.85-27273-27724-17695-18460-20001-26791
3377.74-16490-25561-17603-26601-24779-24652
3380.64-17768-29804-19883-18492-15800-19521
3383.53-7557-18050-20498-22048-10001-24495
3386.42-14584-12811-11060-10391-5651-14929
3389.31-12097-24969-13947-22483-7099 1035
3392.21-735-16382-9951-19603-9039-8681
3395.10-2832-7212-2036-12864-8408-10750
3397.99 2491-766 4873-1296 713-5781
3400.89 3931-5478 2993 1713 15664 4963
3403.78 4714-2583 5436 11194 22730 13334
3406.67 16194 5572 9428 13095 29559 15590
3409.56 14179 12015 16099 6529 9665-487
3412.46-2986-15384-4270-4905 284-12551
3415.35-2085-2291 252-7576 1298 349
3418.24 7547-7218-6912-7824-4379-21864
3421.13-15485-22611-10919-12612-3924-9391
3424.03-4240-10029-9418-14892 1733 6555
3426.92 18600-2393 1307 1034 10188 2185
3429.81 2705-12117 4230 8014 9555-899
3432.71 5901-2202 2934 7504 17395 3702
3435.60 14143 19852 28407 23848 31040 13937
3438.49 18128 17402 16309-1190 4425 786
3441.38 23309 20630 16235-2686 7637 5927
3444.28 19579 3628 16270 15306 12126 4865
3447.17 18682 14075 17416 11702 9048-4765
3450.06 11599 12966 17055 5252 35657 62833
3452.95 141015 223126 396951 408806 201253 98636
3455.85 53175 20289 19217-4893 1563 621
3458.74-3055-16466-8447-12674-8865-17176
3461.63 6746 8938 5610 4647 11518-61
3464.53 4127-1667 10315 10822 5659-9713
3467.42 1732-6100-850-1161 16565 8415
3470.31 15131 11098 9635-12088-11354-11077
3473.20 1986-1154-3153-9576-5413-24904
3476.10-14409-7999-11556-24433-12941-19824
3478.99-17030-15064-11491-18767-10002-26059
3481.88-20666-23717-21873-20696-6198-9075
3484.77-7296-24996-19911-28724-26369-20341
3487.67-13188-26538-28755-34271-17068-28191
3490.56-28619-34353-32636-45263-31753-25424
3493.45-10844-15893-12175-29067-28021-27926
3496.35-18767-19976-13347-25954-23864-32448
3499.24-22285-33296-27761-30281-21235-28992
3502.13-18855-26612-22659-30646-27583-40275
3505.02-30650-31073-24172-37101-32805-33150
3507.92-26956-27122-15824-24743-20409-35978
3510.81-33602-38735-27049-27769-22912-31128
3513.70-21126-33417-26902-19799-7423-19204
3516.59-17800-24641-25791-37913-19811-21934
3519.49-15011-14103-14068-31772-26590-25723
3522.38-6931-11029-10443-23892-21139-25249
3525.27-21367-32829-24576-30770-16187-20911
3528.17-21628-31543-32584-35770-19231-24789
3531.06-22246-34348-23574-32370-20084-27694
3533.95-31114-39969-23064-33607-25515-27492
3536.84-23582-38686-30194-29237-19470-26008
3539.74-16366-30238-23000-27374-20859-35713
3542.63-32168-38546-24817-28084-25258-37888
3545.52-22551-19522-18417-32962-30657-39280
3548.41-31851-27601-13580-34030-24322-35791
3551.31-32348-39855-30332-31310-25591-37726
3554.20-27236-31044-26780-30773-22665-28637
3557.09-25891-41769-39951-42017-26880-32589
3559.99-27945-32718-20469-31628-24992-29365
3562.88-19950-33181-31955-38588-27031-35148
3565.77-20853-16456-13280-28209-19961-26300
3568.66-15142-24203-22031-31138-24612-35349
3571.56-20811-24418-20258-31470-29893-38932
3574.45-30929-42394-23774-26716-24078-33847
3577.34-26787-35733-31515-45683-29100-25510
3580.23-24156-42193-31798-28785-19354-33101
3583.13-31826-46872-41629-38013-24538-28025
3586.02-18934-30916-28237-35087-19365-23354
3588.91-21783-30606-20873-29849-26313-39261
3591.81-31376-31120-21651-28686-22186-29014
3594.70-16912-20065-5738-9954-5158-5716
3597.59 3335-9696-621-3614 3421-2776
3600.48 6930-7707-3356-5617 3853 903
3603.38 17734 9406 15122 8581 24288 28503
3606.27 35692 22402 29431 26070 43478 46410
3609.16 43829 17104 23030 16998 23837 18774
3612.05 38005 26577 29749 17924 22604 15919
3614.95 33112 17400 21520 21715 40566 39031
3617.84 46969 39882 72570 90376 93712 102915
3620.73 145059 127936 142973 136275 101930 55150
3623.63 43933 28185 23139 11132 21875 16891
3626.52 26542 26832 49942 52775 59157 66456
3629.41 76402 56114 61221 53906 68125 62081
3632.30 72447 69967 82763 75987 83648 82370
3635.20 92298 82124 92707 86692 100521 98093
3638.09 106370 103847 124216 117644 125265 120080
3640.98 138253 140458 158171 151719 171515 181637
3643.87 206242 216088 238963 241215 260930 280290
3646.77 316507 314152 322569 327873 362390 343059
3649.66 330178 319369 309618 264589 238665 212083
3652.55 201518 187931 205538 213225 251564 293526
3655.45 364628 404214 417925 397967 383422 347083
3658.34 330021 295208 272397 235410 221859 198493
3661.23 189041 166501 152355 122235 120957 105951
3664.12 101569 90887 92904 71110 74811 58945
3667.02 64882 59137 74135 64068 52843 45495
3669.91 82860 83897 63397 46511 59560 51456
3672.80 56086 47774 57218 57863 62115 67333
3675.69 80833 44750 38570 26853 39310 37677
3678.59 52246 49507 56162 45089 56558 50009
3681.48 62139 55666 68579 59486 70558 65467
3684.37 75752 68736 79735 72598 86461 80592
3687.27 101124 129687 139038 107819 114934 111913
3690.16 136648 145516 162577 156701 169631 164133
3693.05 182824 181333 195084 187939 206175 214932
3695.94 241356 247533 254228 234071 235577 223104
3698.84 235455 234404 252180 249196 266892 265449
3701.73 265910 238611 236685 219681 223830 211243
3704.62 218793 203380 214927 222569 243319 236735
3707.51 256578 249906 268851 275903 292395 292612
3710.41 303679 279330 286112 259008 227013 188025
3713.30 171269 142639 141588 121710 121572 104258
3716.19 98526 79559 80768 62965 67447 53349
3719.09 58838 40053 44012 32171 38237 37134
3721.98 52758 36195 47569 40392 45196 32959
3724.87 32894 15711 33446 30350 29368 17271
3727.76 33180 21390 21212 7254 17734 9833
3730.66 21694 22085 40098 20340 21609 3662
3733.55 7120 8299 26474 10231 13914 15715
3736.44 26505-3517-3801-257 14799-3138
3739.33-1884-6463 19115 14625 27849 20997
3742.23 27241 31561 85498 118655 217385 253917
3745.12 112709-15557-14339-17846-8838-26087
3748.01-8120 14479 38641-1684-6012-15053
3750.91 291 26412 54058 1209 505-8358
3753.80-327-12144 4158-5807 4025-3295
3756.69 10084-823 13321-3007-4-3477
3759.58 10014-14306-7491-13240 378-9178
3762.48-571-11808-3628-10968-2790-17270
3765.37-565-10168-2280-25633-20293-26545
3768.26-10652-15258 1517-14779-12142-24515
3771.15-18891-25967-7019-18966-10002-20320
3774.05-12494-26985-14706-18630-10780-26139
3776.94-17263-21631-7365-20166 2585-5504
3779.83-1177-13555-5317-21748-17994-25127
3782.73-10451-20384-12784-20001-4368-24679
3785.62-16763-24190-15486-24745-13320-22354
3788.51-10112-14083-3455-23221-17060-24630
3791.40-13021-25340-17246-29875-19818-26605
3794.30-17295-25982-13451-13189-3139-27151
3797.19-13480-19858-13830-33115-22683-26173
3800.08-9016 11993 39054-5139-17967-27708
3802.97-15510-22716-15960-28503-11339-16764
3805.87-240 2985 6439-24361-25231-37212
3808.76-22203-33689-18492-37627-25020-30544
3811.65-19309-28920-16613-29942-19573-33041
3814.55-19777-14876 30126 6462-14228-32321
3817.44-28897-44117-30629-37771-25589-22743
3820.33 1343-7417 2883-26888-20225-28533
3823.22-24320-38942-25888-35871-21826-28644
3826.12-15242-31727-22144-37196-27378-32489
3829.01-23512-40724-24793-26444-8467-20689
3831.90-28093-40928-23039-35674-22090-15683
3834.79-8010-31826-17404-25604-8606 12162
3837.69 15029-23053-11416-30218-29295-37320
3840.58-10981-35869-35577-43481-21556-24097
3843.47-10485-30713-25105-34745-17675-30616
3846.37-14479-30206-23736-46812-35937-38881
3849.26-24909-37974-28153-31894 13130 15641
3852.15-691-21762 6128 27901 31555-15769
3855.04-21478-40183-23001-24399-11643-30338
3857.94-24134-38455-27986-29296-13871-33981
3860.83-23462-36156-27785-42965-29073-37593
3863.72-20587-27604-9376-30296-24239-25706
3866.61-9197-26237-22661-34048-9775-8117
3869.51 16163-16011-19877-32084-20708-34286
3872.40-20550-30137-15509-27575-17871-34037
3875.29-34618-51911-33822-38201-23255-39654
3878.19-28363-44299-23048-27643-18007-32038
3881.08-16386-29792-19188-29779-17070-35040
3883.97-26927-45324-13989-13248-16576-34813
3886.86-15667-32841-26486-24048 11549 16797
3889.76 34492-4169-5577-31704-30597-43404
3892.65-29636-42854-27934-39111-25688-35780
3895.54-22677-31679-16902-31375-23758-41791
3898.43-21398-17566-11316-31577-20743-20181
3901.33 978-28085-25787-31779-10179-20210
3904.22-20940-39667-21612-31331-22445-36292
3907.11-24647-38934-22260-36574-27841-39428
3910.01-20799-35023-24811-28123-5111-22857
3912.90-16871-25118-854-16351-4720-25895
3915.79-26570-32659-14337-30842-20068-21337
3918.68-5150-17536-3933-20726-9638-27676
3921.58-13648-28076-17599-25567-2221-4505
3924.47 7781-9205 5132 7465 24080 6060
3927.36 15749-846 16839 4315 17314 10107
3930.25 18092 8199 33099 21010 29142 15234
3933.15 33318 23389 42996 30450 41572 27786
3936.04 50351 38918 50403 40597 50255 40792
3938.93 61707 40919 45909 44863 65981 47325
3941.83 67217 68544 85253 66735 95509 92886
3944.72 93781 76946 98847 92632 104680 90109
3947.61 108340 87441 90399 80230 110116 102337
3950.50 120500 116787 132627 114042 128480 114206
3953.40 116551 89739 101985 87257 97756 78388
3956.29 87921 67903 79795 69826 80534 60762
3959.18 75842 64946 85582 74295 76690 60805
3962.07 82110 82143 99980 75622 86661 76831
3964.97 89946 61130 73268 68533 89554 78386
3967.86 89304 74056 82620 64155 80824 70819
3970.75 89835 76793 92515 83144 98945 86703
3973.65 94941 72566
##END=
