##TITLE=Benzene
##JCAMP-DX=4.24
##DATA TYPE=INFRARED SPECTRUM
##CLASS=IUPAC A
##ORIGIN=NIST, Analytical Chemistry Division, 301-975-3108
##OWNER=COPYRIGHT (C) 2000 by the U.S. Secretary of Commerce
##DATE=00/02/01
##$SPECTRA VERSION=1.10
##$UNCERTAINTY IN Y=2.1 % relative (B=1.1E-04,C=5.2E-10,D=5.2E-15)
##CAS NAME=Benzene
##CAS REGISTRY NO=71-43-2
##MOLFORM=C6 H6
##MP=5.5 C
##BP=80.1 C
##$NIST SOURCE=QUANT-IR
##SPECTROMETER/DATA SYSTEM=IFS66V (Bruker)
##INSTRUMENT PARAMETERS=KBr Beam Splitter; MCT Detector; Multipass cell
##STATE=gas
##SAMPLE DESCRIPTION=Benzene Primary Gas Standard
##PRESSURE=101.3 Pa
##TEMPERATURE=23 C
##SAMPLING PROCEDURE=1 L/min Flow
##RESOLUTION=1.9290
##DATA PROCESSING=Boxcar Apodization
##XUNITS=cm-1
##YUNITS=(micromol/mol)-1m-1 (base 10)
##XFACTOR=1.0
##YFACTOR=7.2759E-12
##DELTAX=0.9645
##FIRSTX=575.653
##LASTX=3974.61
##FIRSTY=-2.25E-06
##MAXX=3973.64
##MINX=575.65
##MAXY=.0046051
##MINY=-3.94E-06
##NPOINTS=3526
##XYDATA=(X++(Y..Y))
575.65-309751 220025-333544 259744-415880 323904
580.47-321360 352300-354653 305266-368107 431264
586.26-376911 348109-334712 381834-426047 332698
592.05-332235 388140-380028 359288-322892 349724
597.83-342293 316203-377615 383577-380608 390652
603.62-370116 460424-296777 567900-401745 485995
609.40-445321 435001-472863 461909-474817 450911
615.19-469899 497571-482192 513680-500548 559406
620.97-502589 546919-502536 544620-542408 580667
626.76-523384 623088-510976 712649-468508 798666
632.54-394516 1011658-192315 1300550 117751 1821934
638.33 739166 2640466 1681196 3936177 3166665 5819044
644.11 5337463 8515922 8431638 12195418 12458434 16905650
649.90 17507571 22489116 23281572 28654584 29227123 34703831
655.69 34661563 39746773 38388468 42567926 39457138 42506274
661.47 37179676 39034401 31504914 32766987 22884077 24733926
667.26 13409225 18551586 10292018 41659617 106417846 349027359
673.04 632930956 7087052 23812220 3031043 19456519 13978250
678.83 27328596 25641432 36650673 35887074 44560981 43199171
684.61 48979903 46322932 49523997 45417786 46348783 41220761
690.40 40632250 34699278 33194072 27460685 25790254 20448971
696.18 19089188 14544664 13547536 9599903 9187352 6087657
701.97 6082065 3633050 3961220 2005300 2558768 960647
707.75 1714903 352958 1192293 8714 859010-192615
713.54 665708-277402 561882-314969 481331-359745
719.33 418540-323545 371207-340620 373685-334661
725.11 351880-317083 317559-290828 307719-288201
730.90 299062-286624 274862-268740 267565-262758
736.68 242702-253838 215974-250526 225365-232741
742.47 198203-229583 189620-207167 187651-208779
748.25 182317-197296 194803-182181 183363-166282
754.04 202639-152242 202062-107240 207871-85872
759.82 216664-57828 218311-29044 244113-5404
765.61 238084-3913 216510-5817 203049-7908
771.39 160647 627 125805 5010 142584 148434
777.18 169364 1374550 1125483-19313 437700-91333
782.97 252256-126812 222848-100777 227970-51012
788.75 245826-47840 240203-10166 227957-13331
794.54 228939-6376 202388-10888 181608-42752
800.32 151063-41920 126557-67818 98495-75491
806.11 79007-95646 79993-74975 78962-94761
811.89 48797-103971 46391-91549 48957-92306
817.68 54389-94091 56300-92216 49416-81474
823.46 30468-88700 39757-85078 43385-80186
829.25 38393-59613 25025-76506 33844-78743
835.03 21436-72511 35736-79878 27783-58011
840.82 30531-52494 22643-71472 13878-58985
846.61 20117-58177-735-57731 18433-51825
852.39 20499-46880 3205-50470 7547-49556
858.18-5531-54850-396-49178 646-55066
863.96 2502-40125 14678-51590-3143-39721
869.75-12085-44151 2122-37730-938-34748
875.53-14182-34964-4410-34626-9962-35520
881.32-7832-40137-6421-34921-11691-34307
887.10-11976-37197-13420-42428-6893-47467
892.89-22063-24745-13023-34136-23320-33539
898.67-7947-33304-8301-30123-17816-27153
904.46-22136-36574-24082-20968-21632-21799
910.25-16746-11431-26751-18470-25313-14687
916.03-30871-20077-15855-16715-29385-12375
921.82-34120-17404-22450-17135-30980-25709
927.60-45435-6245-32917-3330-33193-3129
933.39-37516-6432-28032-16869-23636-18131
939.17-34664-12794-34579-13944-40044 1424
944.96-29776-9632-33611-8284-38916-3598
950.74-34473-4457-25550 3747-42520 12178
956.53-46896-1003-28212 331-30515 10365
962.31-40407 11773-33528 18827-36816 7642
968.10-33989 14784-24451 6554-36718 21063
973.89-38448 19735-28545 21495-24965 25301
979.67-27074 28751-12236 39908-11223 60072
985.46 2357 76483 8499 85929 18743 88941
991.24 37134 111095 50372 126602 67622 128751
997.03 80631 167081 128623 234151 197616 300823
1002.81 253098 307997 246963 429617 516496 771436
1008.60 834990 1088353 1162205 1472791 1617826 1992226
1014.38 2193305 2638755 2875304 3325642 3548890 3967975
1020.17 4109556 4445973 4462232 4655438 4500418 4542157
1025.95 4194342 4136332 3701421 3640322 3347134 3572067
1031.74 3501449 4785365 5618727 7041703 8792330 13584760
1037.53 8438932 5767229 4043799 2366116 2229703 2197662
1043.31 2706385 3016564 3484440 3753002 4062408 4205881
1049.10 4306070 4277793 4190906 4014099 3787258 3504287
1054.88 3163867 2840220 2491547 2188505 1832821 1570323
1060.67 1283679 1069628 843933 697429 517005 441043
1066.45 297266 254531 152795 145469 53809 91023
1072.24 20457 40619 1364 22834-29157 14001
1078.02-32125 19398-38421 9452-33809 7944
1083.81-44761 15264-38234 12211-52272 11660
1089.59-50907 9963-46773 4271-54527 23045
1095.38-43112-437-52204 13631-41667 19167
1101.17-50524 3860-57871 12098-48499 14545
1106.95-50817 15027-58221 14145-50498 13747
1112.74-49978 19255-58639 8130-62298 4775
1118.52-55665 21635-59234 18572-58699 5369
1124.31-72056 13628-57738 12750-66117 14843
1130.09-63493 9476-63780 13767-57715 15057
1135.88-60905 19132-70282 11512-71846 18503
1141.66-72269 9838-65235 21103-64265 20375
1147.45-59251 19111-68117 20148-69496 18547
1153.23-69121 21515-63638 22757-63617 13165
1159.02-54916 21690-72803 27783-68066 19479
1164.81-62542 30072-62364 36882-55240 21908
1170.59-62556 27972-58800 32626-53973 33392
1176.38-60141 33952-52608 35386-55653 39440
1182.16-51099 44391-52624 42074-50384 44393
1187.95-45546 53562-29234 102467 5739 48280
1193.73-37496 46373-58734 36946-44665 42878
1199.52-47580 48288-46666 48531-44525 50087
1205.30-38731 61335-48156 53445-59749 131265
1211.09 46887 72574-29541 57583-41566 56017
1216.87-32455 57146-28200 74939-15973 90719
1222.66-15849 97041 11545 126854 39433 152350
1228.45 66755 175602 87785 206526 97808 205872
1234.23 113672 202743 96584 191569 89650 192178
1240.02 96945 203851 91276 188772 78547 172851
1245.80 77993 193265 77659 190727 100827 203879
1251.59 97095 190656 73104 166952 43159 138732
1257.37 15752 102257-20032 76019-39831 59375
1263.16-55251 43305-71913 36399-77169 38130
1268.94-73793 32227-79233 32481-78818 35004
1274.73-77197 32431-84972 28567-82248 32397
1280.51-78618 33295-87724 39928-82428 22979
1286.30-83627 31396-81746 33207-84358 41139
1292.09-80351 24603-88308 31059-84117 30457
1297.87-80692 33744-83277 35627-87557 31712
1303.66-81754 32200-82348 32484-88798 27106
1309.44-90981 33678-84239 27321-88019 34609
1315.23-84595 38360-88034 38106-90337 23126
1321.01-92595 29030-86723 35654-92929 32997
1326.80-96662 33731-90602 27314-91921 28262
1332.58-89799 36337-91735 34908-90545 30568
1338.37-86713 31173-92370 30309-96821 26639
1344.15-97873 31150-91850 32766-83719 42326
1349.94-94035 24019-111482 14402-102841 37887
1355.73-80169 35212-70937 43162-73014 63311
1361.51-54173 84344-40807 102973-2886 156164
1367.30 57795 218188 115426 295085 207919 374731
1373.08 301268 479232 381275 542659 446814 593288
1378.87 467493 599540 450193 566984 432640 551474
1384.65 403228 561917 437403 578406 454598 527475
1390.44 386009 515473 408742 557463 455007 583744
1396.22 454726 568083 413599 497015 311905 386541
1402.01 206103 285777 109722 197011 33603 129218
1407.79-19971 99743-48795 70363-78100 56062
1413.58-78498 46989-83350 58075-95057 83763
1419.37-83791 46186-85731 46180-85315 50932
1425.15-91544 46834-83382 51265-83226 54278
1430.94-88015 52360-89092 55051-80081 95604
1436.72-77488 61595-72969 62693-76702 67540
1442.51-66092 75124-53300 84729-28157 129383
1448.29-6308 178895 73222 269454 174842 415368
1454.08 377645 698277 766050 1097945 1233735 1716158
1459.86 1962355 2582511 2968117 3710691 4223388 5049976
1465.65 5570834 6424536 6896292 7634075 7899008 8414279
1471.43 8400387 8604719 8301701 8238117 7684064 7841363
1477.22 7544439 7941750 8655608 10323360 12025290 14177683
1483.01 10716867 9653413 8739898 7381512 6767046 6588770
1488.79 6815734 7274108 7727129 8205435 8441198 8601820
1494.58 8427620 8233846 7649124 7173148 6424771 5847468
1500.36 5109928 4616930 4027512 3704510 3321163 3161016
1506.15 2862089 2785853 2564536 2555701 2314658 2326851
1511.93 2102122 2074886 1892705 1924942 1842975 1943659
1517.72 1871426 1841609 1680093 1778008 1550005 1693160
1523.50 1593487 1817334 1721644 1888419 1746076 1830576
1529.29 1596016 1595094 1297898 1273487 965537 903213
1535.07 621588 604596 369211 439380 228842 269173
1540.86 98615 185257 6089 136059-20026 87171
1546.65-51931 72487-63457 70183-69006 59716
1552.43-74347 92975-79589 53220-65871 117342
1558.22-48316 112910-70515 56851-75088 62181
1564.00-63350 60021-74706 60527-67100 91807
1569.79-68732 68570-67627 70246-76968 100731
1575.57-15799 67633-55436 66598-65188 69018
1581.36-64025 62915-67595 68395-60352 66621
1587.14-54258 79125-62699 80815-54832 74153
1592.93-51265 91116-47833 93655-39234 100479
1598.71-28108 107957-18141 125426 621 140752
1604.50 6680 153421 19270 162879 22100 166790
1610.29 11603 156567 8398 145594-15622 152512
1616.07 32909 131660 26523 195777 151946 356793
1621.86 276696 263328 33361 125013-17020 142132
1627.64 9417 157633 30958 179951 52719 186862
1633.43 58982 238841 68410 180828 44904 158150
1639.21 13283 139715-2820 123128-18821 115628
1645.00 8614 116829-21878 103606-30650 109986
1650.78-9966 208194 35347 161293 19884 164308
1656.57 51194 192201 43889 192521 47917 211355
1662.35 67144 217951 99427 512618 97980 177404
1668.14 93350 198965 69289 198547 64031 186945
1673.93 100642 234081 82202 226052 90525 222848
1679.71 79713 199321 54321 185570 87244 182764
1685.50-11295 129697-38281 106276-47261 92711
1691.28-60164 86479-66510 108092-131 75086
1697.07-52074 71187-240 114467-64039 69084
1702.85-66430 80368-59998 97880-70626 71937
1708.64-78253 60936-86287 58398-57714 137021
1714.42 155005 106993 12744 94764-68131 62800
1720.21-73825 66385-76208 69139-66325 80093
1726.00-55835 92744-46158 117931-25121 122461
1731.78 8446 184532 54234 181147 44631 207139
1737.57 59075 238663 95140 234822 88914 235754
1743.35 85430 223622 69127 198152 52560 187994
1749.14 28697 214542 125868 359289 393822 532591
1754.92 231692 336021 80184 180480 11909 174402
1760.71 61934 219506 77987 258806 114808 281113
1766.49 148016 309714 145402 305753 158483 330899
1772.28 171930 303902 171108 325858 189464 349467
1778.06 218570 394991 270660 456285 334488 520225
1783.85 428604 630445 558022 795527 766294 1045610
1789.64 1075063 1429668 1541868 1939718 2059727 2525348
1795.42 2703828 3205133 3389498 3877327 4004137 4368563
1801.21 4364062 4585897 4440327 4547634 4284750 4372742
1806.99 4116313 4254512 4146952 4343196 4235738 4239018
1812.78 3861659 3912336 3816314 4129967 4188953 4529953
1818.56 4491894 4638525 4352606 4257609 3756698 3491384
1824.35 2886489 2569773 1979946 1728093 1241126 1113342
1830.13 706477 674604 372571 420139 182239 263083
1835.92 64827 186381 3890 141139-28685 117475
1841.70-51740 115006-31970 90804-66184 86005
1847.49-63077 94918-63206 86179-61729 96874
1853.28-55292 98351-56714 97656-49093 105594
1859.06-41604 119379-33160 130091-20444 137178
1864.85-12187 136482-8250 150836 878 142197
1870.63-10224 138106-10998 141989-9242 154338
1876.42 2314 150045-2307 144654-14192 142594
1882.20-18876 139982 2154 180551 29910 176084
1887.99 11513 152406-26458 122773-46139 108500
1893.77-55363 99506-59894 95631-62467 96935
1899.56-64629 86682-74181 80223-75029 79018
1905.34-75145 70870-78357 75780-74666 82073
1911.13-64133 98576-53128 102422-59942 97184
1916.92-53612 100889-53957 117801-24108 138050
1922.70 2732 172625 38076 211601 85076 269586
1928.49 149915 341446 231862 449663 359347 598511
1934.27 532476 793414 767655 1074736 1085225 1435242
1940.06 1481784 1869840 1940135 2308672 2357693 2704813
1945.84 2710360 2987310 2907118 3155186 2992759 3088621
1951.63 2908510 2990264 2817635 2967325 2768702 2899722
1957.41 2688824 2698741 2436456 2607321 2549292 2853349
1963.20 2844451 3117350 2981442 3075869 2778278 2719366
1968.98 2294816 2147116 1686797 1536880 1104157 1018550
1974.77 665616 652005 371450 416848 174837 272660
1980.56 82717 206299 46116 190004 30681 195277
1986.34 53421 242649 184510 225157-35935 144101
1992.13-35362 143218-11383 150244-4527 160098
1997.91 8585 202639 31832 195727 137294 307986
2003.70 82226 770407 140391 123309 164738 255947
2009.48 4991 150595-20581 149575-10158 156223
2015.27 13535 180465 27928 181610 30666 186549
2021.05 25445 179130 373 161210-13622 141048
2026.84-37234 121507-44202 107857-53234 104917
2032.62-67099 91574-74718 100073-70932 72243
2038.41-89486 73988-89147 74065-85532 76283
2044.20-93389 74212-94056 67712-88250 71657
2049.98-89975 66279-90560 66213-90935 67803
2055.77-93874 68546-99177 64747-97135 70142
2061.55-99145 67251-97156 57795-106137 58524
2067.34-102971 51849-111087 53090-112435 52136
2073.12-119715 40343-109974 66528-103986 58660
2078.91-101543 56441-93249 58008-104616 55937
2084.69-97483 70023-102085 81917-85772 79426
2090.48-97557 61041-104801 71760-94185 52423
2096.26-105867 59185-85501 56796-97890 53501
2102.05-83664 63573-106886 55705-92415 67755
2107.84-111654 64759-106821 88884-111708 63752
2113.62-116128 86465-115490 61169-116962 82482
2119.41-100020 60625-111464 73916-98562 53136
2125.19-106534 73358-89545 58124-104316 61879
2130.98-92308 62494-105406 69461-83103 60499
2136.76-57371 74844-104704 62416-97489 63838
2142.55-79478 86119-108599 64465-106877 64156
2148.33-106051 67325-93925 61388-101320 73494
2154.12-94898 58383-111073 76523-93077 60856
2159.90-95856 83137-94124 48462-100118 85673
2165.69-100235 53422-89753 86541-108321 57976
2171.48-85111 74579-115033 63900-75080 68198
2177.26-108322 73384-83950 54425-96938 85189
2183.05-89276 60984-85847 83391-95298 74657
2188.83-73649 88216-84593 99462-57305 94299
2194.62-58810 134099-30169 147266 15839 201938
2200.40 48204 237926 111330 301961 177115 387109
2206.19 257449 452128 307892 476079 293716 420847
2211.97 216670 336462 173854 389317 291015 518655
2217.76 347702 468140 237457 350778 135091 266429
2223.54 61557 202106 12984 169472-14115 132118
2229.33-39531 112841-65743 104322-69176 88537
2235.12-83183 82622-84252 77590-98471 72590
2240.90-102756 64133-104284 65815-103601 65695
2246.69-101349 67656-100718 64220-101381 66260
2252.47-100377 75003-106111 64960-100065 71329
2258.26-99912 74698-97707 70928-94351 86030
2264.04-83277 91403-77582 94577-71376 95553
2269.83-68899 101089-71022 101767-72860 99192
2275.61-74050 98041-78942 92776-75568 95321
2281.40-68959 91597-77773 93591-67191 100385
2287.18-74505 97730-75917 97077-78729 96654
2292.97-83246 90399-80464 88760-78337 89892
2298.76-80610 96265-65669 113740-43493 147062
2304.54-6123 197208 50676 255494 137506 346813
2310.33 242581 458675 361380 554876 448839 629377
2316.11 499826 651698 492143 620719 449989 568412
2321.90 413522 550406 417528 574336 476848 780957
2327.68 545779 677629 489776 684383 537402 712510
2333.47 533806 702011 506697 641061 426694 548834
2339.25 319934 436687 209694 332744 116307 243511
2345.04 38175 181019-15825 137617-42143 122633
2350.82-46083 118587-56106 128092-48802 133364
2356.61-36328 142236-31721 153519-12449 167914
2362.40 12275 220221 25050 181305 24931 189847
2368.18 3265 178861 5604 187740 5637 177670
2373.97-3031 171487-6041 169334 4255 179366
2379.75-1695 192291 10018 237060 61618 364086
2385.54 170260 208605 33757 179223 35735 205596
2391.32 44862 222055 58817 232043 66318 235150
2397.11 67395 235922 81287 221295 42721 198494
2402.89 34499 193904 38711 218533 79187 245730
2408.68 152754 239046-6225 149571-31480 140303
2414.46-31501 151183-23139 153921-14855 159834
2420.25-13402 164322-20182 152364-19212 134882
2426.04-41633 122176-57704 111737-71399 100113
2431.82-76640 95016-81012 89566-91496 84262
2437.61-94100 86166-90953 80325-89153 83100
2443.39-90861 77875-96707 83071-98825 78165
2449.18-97823 76650-96616 75885-99717 76693
2454.96-96987 74910-91192 82639-89275 85958
2460.75-90848 83942-86308 88427-84309 85384
2466.53-83876 86371-79650 99970-70534 105817
2472.32-69023 104517-71525 112764-66614 101822
2478.10-72453 104266-73951 103854-68636 100096
2483.89-56272 102832-74292 96771-71974 104552
2489.68-66770 99378-78965 109224-73993 109180
2495.46-74605 90638-87501 85459-96147 75602
2501.25-98200 71097-100365 70525-107212 67758
2507.03-104518 68207-105301 56739-107912 66440
2512.82-105752 64421-99717 66142-115035 67043
2518.60-106674 63482-110945 67941-111711 66611
2524.39-107199 53181-111247 67532-118154 63242
2530.17-117782 59002-114297 68214-112664 58587
2535.96-107645 71301-111023 71994-103326 68706
2541.74-97890 74693-99663 79966-91166 75633
2547.53-93152 74770-94244 97533-78214 97543
2553.32-72047 114877-51072 131379-77713 77810
2559.10-85314 86363-85240 93200-75468 89790
2564.89-86163 100793-76994 100834-76825 97832
2570.67-73950 102615-67712 109746-30533 181757
2576.46-55693 112288-70971 105486-67990 111009
2582.24-64217 129155-41916 139784-24597 163219
2588.03-11817 179053 4143 192700 20696 212743
2593.81 34327 211638 43990 222769 47893 221459
2599.60 56562 241597 78920 293142 134072 308933
2605.38 138692 361350 204378 403151 238967 413084
2611.17 214895 360750 148097 290329 75312 230023
2616.96 38829 197176 16048 195728 43610 193354
2622.74 13247 180173-6038 173493-10471 168545
2628.53-20540 158843-17922 151412-42465 136041
2634.31-46701 130452-55021 121748-58540 118634
2640.10-58073 134473-35967 139324-15514 169748
2645.88 6240 201120 35923 228652 53817 231955
2651.67 53132 221589 41523 205458 12188 190371
2657.45 14361 191875 17454 196035 46350 238632
2663.24 67118 250838 65822 227596 37025 183852
2669.02-8748 148901-38286 130715-67205 100051
2674.81-91486 88960-96651 84924-93405 73073
2680.60-105265 69107-105291 73112-104533 69030
2686.38-120504 68518-115819 66483-119331 61933
2692.17-114868 58629-118357 62931-121832 59866
2697.95-122433 55165-132183 45580-127856 52769
2703.74-112152 60733-121652 63183-121446 60540
2709.52-108140 73333-115999 61239-113250 67119
2715.31-124535 60656-122425 59619-123539 54641
2721.09-121382 58454-122951 50481-119474 54491
2726.88-121384 66471-111558 55339-120984 60631
2732.66-121650 53910-109306 63720-119401 70920
2738.45-113294 54066-114286 57043-119515 60581
2744.24-118374 56386-117440 65141-120043 62539
2750.02-118168 56114-124093 54122-120546 60292
2755.81-127893 59243-119463 55490-112334 62985
2761.59-114642 56648-119672 66073-121628 55278
2767.38-120628 61024-120902 67910-118763 58921
2773.16-117101 58133-105964 76102-120786 59912
2778.95-115206 55644-117792 67763-108171 74364
2784.73-105028 65354-116536 81792-100826 85434
2790.52-96360 79286-80091 104367-64141 113899
2796.30-58881 134474-41558 142556-18899 174673
2802.09 10861 198232 34670 240407 74168 268648
2807.88 113097 316422 143307 346897 185240 364765
2813.66 200879 384960 217382 401653 220051 404485
2819.45 222093 393951 217872 402066 271784 477732
2825.23 325954 501559 373398 536615 278497 425955
2831.02 192721 384546 196941 389548 221120 406203
2836.80 230930 426516 245553 422995 241287 412608
2842.59 217760 382508 185262 351175 153997 328590
2848.37 119367 319031 135991 326537 153037 374205
2854.16 164397 294012 93548 260966 71904 260322
2859.94 80381 279440 113382 309446 134562 326150
2865.73 149887 336539 151027 331481 161111 314662
2871.52 153386 334217 173748 367997 211048 417091
2877.30 261980 471331 320503 533985 369250 569364
2883.09 412674 595799 436957 638827 474843 686796
2888.87 544941 767889 616594 849947 730726 1006665
2894.66 928571 1189620 1068102 1277287 1029782 1106137
2900.44 788813 842636 556050 656856 434348 581465
2906.23 382843 536518 336559 511083 293141 438682
2912.01 238879 396994 207861 374111 176988 346096
2917.80 154327 321368 130510 275882 63677 222650
2923.58 18347 185577-18742 161352-44042 112095
2929.37-74762 90976-85374 80031-97078 78714
2935.16-99818 78883-119035 71687-118092 61405
2940.94-121251 50430-122213 56527-124697 55656
2946.73-116797 47441-118935 55067-117655 59056
2952.51-108333 72093-108256 65222-114368 72102
2958.30-132344 48634-138522 40171-137933 27333
2964.08-153187 24693-136227 42191-134210 44249
2969.87-125010 62005-91728 68089-103328 76260
2975.65-96750 72136-103651 62503-99422 74375
2981.44-102051 78047-93331 95260-76352 100170
2987.23-78826 85088-75422 93636-66741 119232
2993.01-61800 97469-59967 120595-59696 120014
2998.80-49499 147378-27904 168433 2239 190252
3004.58 34488 220916 71618 262387 134154 339210
3010.37 201339 446829 347594 622021 578157 917401
3016.15 938904 1354986 1481739 2006748 2298701 3017338
3021.94 3518688 4479119 5277913 6563404 7696635 9358372
3027.72 10838717 12834502 14608602 16796664 18637790 20697769
3033.51 22315771 23971153 24957202 25881527 25935820 25958565
3039.29 25960303 25423700 24855707 25441518 25862071 27664577
3045.08 29547421 31248458 30980151 29052350 26612175 25653445
3050.87 25418048 26374585 27448429 28851708 29634459 30121940
3056.65 29570535 28640845 26752620 24639855 21917832 19569290
3062.44 17078507 15089663 13523096 12612572 11852630 11770192
3068.22 11856042 12419232 12991446 13751689 14180113 14421282
3074.01 13975328 13129548 11761238 10792238 10772491 13066422
3079.79 17271466 19627522 19162753 18867484 18477630 18723449
3085.58 18453205 18877035 18859906 19337994 19458846 19771363
3091.36 19396354 19414171 19010133 18589939 18428706 18205109
3097.15 18619719 18586288 21048095 18149624 18690630 18354194
3102.93 16220634 16298155 15922813 16996867 17300913 18389668
3108.72 18358393 18639846 17726076 17038092 15308906 13961998
3114.51 11865643 10348802 8299342 6988089 5299686 4412183
3120.29 3141863 2657405 1788140 1585817 995624 1015481
3126.08 557161 654565 290979 459212 134537 341806
3131.86 55220 259636-11341 206032-54030 169218
3137.65-82382 145438-95712 144902-110846 118500
3143.43-120594 114812-123541 112810-132354 95193
3149.22-137809 101200-141864 105326-135597 100280
3155.00-136805 87736-131708 98166-131256 90123
3160.79-127974 98543-146918 89834-123512 97042
3166.57-139218 101292-139622 85431-131149 100934
3172.36-124496 105271-134626 85514-150007 102575
3178.15-139740 100177-133280 108019-124380 90703
3183.93-141257 82013-130681 89835-125846 85203
3189.72-124402 98303-123939 76053-130301 88404
3195.50-138756 86439-128192 91787-129972 83220
3201.29-124014 86470-141360 83510-136506 77279
3207.07-138864 80493-120199 86664-136285 79737
3212.86-140349 73415-129605 78917-131698 93587
3218.64-137944 83876-134356 85484-126244 91428
3224.43-138220 98904-134360 89764-123871 98776
3230.21-117658 83659-128131 85995-127161 98685
3236.00-120968 88493-112389 95060-110621 90012
3241.79-123800 110893-116881 92925-126223 96913
3247.57-117940 94426-99893 103380-115843 89498
3253.36-109077 90618-117581 95255-110759 100100
3259.14-108159 103250-120592 99621-118867 86660
3264.93-114090 86362-131170 91022-131152 84345
3270.71-127851 77269-112928 84359-128866 79661
3276.50-133693 69546-125543 79256-130141 83387
3282.28-132759 78845-136567 80355-141140 71252
3288.07-131000 82811-139617 70282-125371 80780
3293.85-134960 77102-140973 78680-143426 87782
3299.64-132130 60849-130484 69698-143909 64152
3305.43-153750 76160-119943 82088-144454 80112
3311.21-135935 84642-132062 79453-134455 87132
3317.00-143798 70778-144315 76076-142815 94159
3322.78-143194 85729-139730 72555-135261 79448
3328.57-136092 69891-151931 75832-141714 96655
3334.35-150006 76028-139203 67192-138682 65936
3340.14-129608 70642-141599 83198-135391 67183
3345.92-145878 80947-142543 84939-136552 79467
3351.71-133496 74112-123740 80868-129370 62805
3357.49-126426 72321-138047 88010-139366 89788
3363.28-131670 80006-128959 75286-139413 78621
3369.07-127993 71198-151043 80597-122559 78162
3374.85-132524 90438-131655 88101-132578 84123
3380.64-130779 87026-120215 90660-127249 90560
3386.42-122478 100436-119480 87972-126769 110189
3392.21-119145 91069-114158 103912-117125 98260
3397.99-102453 106236-107914 104426-101113 117727
3403.78-110696 121223-87092 111618-89324 128612
3409.56-96951 120453-107152 95948-109641 100010
3415.35-108522 102975-103625 104917-116139 94505
3421.13-131094 102258-117284 103362-125312 124629
3426.92-107633 111732-101929 100553-98983 113074
3432.71-110650 119313-99576 127663-77520 125683
3438.49-89663 112203-106008 138268-112684 123346
3444.28-101107 127617-104595 131882-101605 115271
3450.06-101486 130286-66990 369776 311002 171370
3455.85-69382 98255-100009 90516-115207 93696
3461.63-94603 111078-100530 105936-92675 100861
3467.42-109777 108776-92216 120334-114632 95394
3473.20-102852 97614-123537 94842-122895 86600
3478.99-119732 91525-125362 80146-122842 100499
3484.77-124264 75755-123140 82484-137431 84887
3490.56-141545 66929-132183 99737-135275 80153
3496.35-122837 85246-136619 79547-137450 85886
3502.13-132870 82359-146428 81583-141732 75110
3507.92-132065 90027-141778 72287-133717 82913
3513.70-139205 89463-119646 81567-138410 87107
3519.49-118033 78675-131381 103989-131417 86413
3525.27-137536 81780-124580 76594-141130 89791
3531.06-140697 83808-135416 73335-136349 82816
3536.84-141493 78871-126169 80462-130522 76260
3542.63-143911 84786-142739 91567-136266 68586
3548.41-131076 83611-141748 71390-136558 75589
3554.20-136972 79406-131184 68156-147129 80002
3559.99-137754 82246-134952 80880-145969 79699
3565.77-124332 87086-132870 90945-139281 80674
3571.56-131094 82390-146577 74531-133306 79489
3577.34-140989 68039-131517 71748-136853 84914
3583.13-156868 74164-132183 82667-142153 91835
3588.91-139132 87206-148346 82779-135137 84365
3594.70-125397 103217-114023 107688-114074 114857
3600.48-114845 106175-104371 125890-101034 144389
3606.27-84430 138987-58995 133385-92646 135342
3612.05-76308 128488-86710 132489-87393 155393
3617.84-66652 200825-3750 256992 21569 174817
3623.63-88338 131537-97040 147550-61058 184250
3629.41-50898 170260-46444 186961-33335 198369
3635.20-25611 203953-12394 221904 10532 235296
3640.98 32921 270649 67909 338422 125757 401859
3646.77 204276 448110 239985 430240 164410 316667
3652.55 83932 321189 186481 525092 293427 463129
3658.34 187825 349935 89139 282420 14070 220683
3664.12-19553 192714-53846 180510-49425 163569
3669.91-23197 157932-53503 161688-54425 184702
3675.69-55029 134391-64804 161396-58379 162688
3681.48-47530 173041-39285 181469-29855 189699
3687.27 22427 229229-708 264955 48669 281456
3693.05 74381 304325 104699 367492 126639 338172
3698.84 126454 366792 158371 358172 108504 331293
3704.62 92861 337887 133279 366393 166062 411204
3710.41 177767 376082 76235 260104 13462 220840
3716.19-29785 181306-55230 160235-80647 155930
3721.98-69298 156739-75658 133868-78964 134443
3727.76-84450 121926-97249 137270-78231 111196
3733.55-93914 123576-89552 114168-111988 118359
3739.33-119627 139162-92409 145830 18528 376930
3745.12-138908 107808-142652 135886-98675 86370
3750.91-73409 130320-126020 112853-117222 116609
3756.69-107493 115851-114469 110840-128630 115959
3762.48-126505 111821-129033 115259-137078 92383
3768.26-123889 108944-140106 97319-128889 100767
3774.05-138121 101956-136646 97061-125826 114385
3779.83-123214 98053-136895 101099-131135 101234
3785.62-140421 100038-137448 110655-135103 96285
3791.40-135589 91036-138814 94469-125659 100153
3797.19-135953 95544-150396 142142-110805 85026
3802.97-130013 90770-127058 123050-131035 78088
3808.76-136698 81452-139227 89502-134608 80625
3814.55-117490 133663-153277 83079-154402 99822
3820.33-113938 97705-143625 84980-148349 94708
3826.12-140549 83226-143586 81187-136785 100925
3831.90-155285 89506-133303 99070-145971 134392
3837.69-127722 88642-147049 93353-164067 107526
3843.47-146814 91131-142838 98630-162494 86388
3849.26-152803 93724-93363 91899-80064 112432
3855.04-158379 102546-142234 83319-142974 94971
3860.83-152237 84592-154202 102654-144615 96725
3866.61-135327 83997-112671 111287-150268 93912
3872.40-145518 100586-149530 72498-151037 87917
3878.19-157636 98064-144981 96312-143594 92431
3883.97-157864 112180-149333 95539-146530 153957
3889.76-115824 93615-160837 87266-156108 92991
3895.54-149097 100504-161806 112960-152283 111102
3901.33-141141 91486-131907 83883-142780 87393
3907.11-149483 88134-151749 90617-142913 107818
3912.90-144694 121023-148275 96386-146676 103899
3918.68-130294 107744-141744 99828-143595 126621
3924.47-127571 134865-106701 126677-109263 134102
3930.25-105465 150974-102191 154527-85272 157026
3936.04-74383 164472-71049 168867-74460 181715
3941.83-53122 204248-29275 209532-27425 225537
3947.61-31951 210499-12899 245887 100 243663
3953.40-25869 216981-36707 197359-47681 192485
3959.18-52838 206925-62262 217632-42330 209274
3964.97-54605 196481-35978 202874-51971 201187
3970.75-38634 211934-28194 202215
##END=
