##TITLE=Benzene
##JCAMP-DX=4.24
##DATA TYPE=INFRARED SPECTRUM
##CLASS=IUPAC A
##ORIGIN=NIST, Analytical Chemistry Division, 301-975-3108
##OWNER=COPYRIGHT (C) 2000 by the U.S. Secretary of Commerce
##DATE=00/02/01
##$SPECTRA VERSION=1.10
##$UNCERTAINTY IN Y=2.1 % relative (B=1.1E-04,C=5.2E-10,D=5.2E-15)
##CAS NAME=Benzene
##CAS REGISTRY NO=71-43-2
##MOLFORM=C6 H6
##MP=5.5 C
##BP=80.1 C
##$NIST SOURCE=QUANT-IR
##SPECTROMETER/DATA SYSTEM=IFS66V (Bruker)
##INSTRUMENT PARAMETERS=KBr Beam Splitter; MCT Detector; Multipass cell
##STATE=gas
##SAMPLE DESCRIPTION=Benzene Primary Gas Standard
##PRESSURE=101.3 Pa
##TEMPERATURE=23 C
##SAMPLING PROCEDURE=1 L/min Flow
##RESOLUTION=0.9640
##DATA PROCESSING=3-Term B-H Apodization
##XUNITS=cm-1
##YUNITS=(micromol/mol)-1m-1 (base 10)
##XFACTOR=1.0
##YFACTOR=7.2759E-12
##DELTAX=0.4820
##FIRSTX=575.171
##LASTX=3974.61
##FIRSTY=4.77E-08
##MAXX=3974.13
##MINX=575.17
##MAXY=.0040825
##MINY=-5.71E-07
##NPOINTS=7052
##XYDATA=(X++(Y..Y))
575.17 6556-17677-43270-76589-56569-32556
577.58-26604-68167-78536-73513-50814-19582
580.47 18013 3928 7210 19549 7575-28991
583.37-19233-31220-34705-15140 35643 55374
586.26 37719-14546-22800-6562 19510 11458
589.15 23023 12764-14333-54533-53339-32776
592.05 13123 25238 21495 12822 20901-11676
594.94-20095-9371 35519 31399 6096-12930
597.83 16074 11262-12956-46096-31525-6416
600.72 14310-10235 419 11153 12191-12533
603.62 12455 32511 49928 49828 80831 112922
606.51 150701 119578 82142 46338 45418 30272
609.40 29246 1739-5801-20761-11046-16246
612.29-5640-11499 7320-10652-17964-20519
615.19 2510-1732 15820 7555 14702 7633
618.08 17822 3732 17523 9586 26084 30441
620.97 45318 17720 14491 14458 40716 20491
623.87 17776 580 13479 5412 16410 12808
626.76 46217 37623 45438 42186 70768 71171
629.65 99475 105859 137190 134280 165744 173768
632.54 209843 242803 311556 348888 423527 471824
635.44 553805 614079 723429 819141 966252 1105931
638.33 1297200 1468546 1686754 1895334 2175757 2456994
641.22 2803780 3149369 3569909 3987105 4484192 4996422
644.11 5596891 6207957 6917190 7650416 8491905 9352289
647.01 10307064 11269522 12342767 13453445 14674931 15898227
649.90 17232367 18566860 19985163 21402092 22917903 24407096
652.79 25961678 27446939 28980929 30448534 31955593 33356722
655.69 34737342 35974464 37201967 38218798 39136524 39838500
658.58 40471243 40844104 41099962 41089847 40965330 40530566
661.47 39958319 39068272 38069421 36770242 35407244 33775009
664.36 32067402 30049749 28015688 25770958 23648823 21407531
667.26 19356177 17273334 15636446 14514205 14711512 17543900
670.15 24361312 41161882 72950588 129009552 225045823 337346411
673.04 509604454 561095718 301733291 69838563 18727834 13983442
675.93 11746929 11024933 12006867 14005977 16126917 18564760
678.83 20980278 23628912 26180010 28856713 31336397 33823718
681.72 36087195 38345945 40348890 42243147 43774457 45145581
684.61 46178752 47049517 47579424 47944118 47989510 47870353
687.51 47421469 46808557 45930833 44944869 43737564 42453066
690.40 40963148 39394827 37623632 35833743 33962452 32144944
693.29 30285337 28486979 26637509 24857852 23077448 21411647
696.18 19767777 18259188 16784066 15405116 14052303 12787516
699.08 11530616 10428947 9389935 8483732 7612724 6831307
701.97 6077374 5441697 4834003 4311021 3792302 3366114
704.86 2962279 2626259 2280488 2003742 1736578 1541834
707.75 1339968 1183333 1013346 899143 773180 689541
710.65 583609 517756 434369 386365 317264 286932
713.54 236125 219326 180527 172275 142152 139259
716.43 110329 109854 82646 79199 50794 44774
719.33 25403 44592 37417 47687 24825 19672
722.22 870 20012 19176 29121 7068 13091
725.11 9170 24024 6640 11161 750 10111
728.00 1756 19406 10245 12824-2059 11407
730.90 7716 13526-5410 3218-5065 1873
733.79-5932 6799-1034 6223-5701 1163
736.68-11538-5431-12378-4390-20195-19066
739.57-24865-8982-14818-3328-8518-4262
742.47-20452-15314-21449-12529-21563-13584
745.36-16017-1121-8917-8908-19312-6680
748.25-12513-8526-15644-688-1493 8077
751.15 801 5768-849 7779 1996 15330
754.04 16782 29537 21408 23212 20879 40727
756.93 44824 54575 45620 57840 58963 65638
759.82 62239 75915 75523 84057 79074 87427
762.72 87818 107073 107699 115706 114416 123192
765.61 115196 119341 112351 115313 105221 109024
768.50 99262 103272 99529 104260 91002 87915
771.39 78584 80454 70261 77098 70919 64702
774.29 48736 64250 88400 113748 114649 154276
777.18 204513 302194 630538 1266867 1470102 905941
780.07 401733 313177 261481 191858 144787 127064
782.97 91900 67967 49048 54365 52910 58566
785.86 53642 60649 64010 81022 83497 93655
788.75 98374 106665 94354 93532 93684 110249
791.64 114578 116720 103768 110363 107568 106101
794.54 103680 116313 111244 105939 92907 99395
797.43 95862 92559 82218 83073 67306 59363
800.32 52209 56724 51926 54243 40110 35482
803.21 28231 25802 11196 13498 10854 10586
806.11-294-2116-11800-7748-9820-1245
809.00 1457 6564-600 968-9240-14582
811.89-26005-24390-28257-27885-32390-21851
814.79-24760-20989-21506-18294-25557-20710
817.68-19285-13248-23208-23334-18950-9930
820.57-22658-22208-20898-15855-18762-16010
823.46-26871-29468-31364-23933-27035-20768
826.36-22626-22784-24780-13367-18397-21960
829.25-24256-12798-11284-9168-18772-21395
832.14-29519-23717-20917-16817-25463-26602
835.03-28242-25827-30320-19268-18921-15949
837.93-22410-26858-30224-16695-15468-12664
840.82-15653-11736-11506-9068-17717-17522
843.71-25079-27424-32373-23662-22191-20400
846.61-21986-15209-19972-22100-31321-31070
849.50-31559-22680-20161-14493-19575-15660
852.39-16497-12419-13779-14781-23969-22947
855.28-26472-20160-21208-20477-23902-19822
858.18-27945-31099-33039-25345-28183-26712
861.07-26394-21307-25594-24098-29121-26738
863.96-28053-20924-19615-15478-13837-9026
866.85-20024-25739-29645-21939-22557-21315
869.75-25850-27115-32820-23175-19477-17648
872.64-20562-16762-20116-17070-20586-17638
875.53-23818-27423-28550-17729-18463-20339
878.43-22283-17044-23032-23133-25067-20132
881.32-21383-21233-26787-23698-23664-19186
884.21-22690-21380-23708-20815-26742-22493
887.10-20926-22337-29458-23437-23374-25270
890.00-32195-26123-24516-21416-27967-32929
892.89-37251-28676-24801-17544-18233-20320
895.78-26473-24098-28914-29530-30962-23398
898.67-21013-17124-21846-22062-22948-16072
901.57-18748-21975-27500-20814-21728-24001
904.46-26147-23149-31734-31129-30955-26214
907.35-23117-18208-23648-21253-21807-20096
910.25-21327-15170-14513-12745-20842-22492
913.14-23170-20392-23462-20025-21719-18343
916.03-22754-25285-28075-20931-18545-13526
918.92-16949-19331-24510-22242-22297-18147
921.82-23823-25885-27865-21913-19906-17054
924.71-21495-21065-25108-24771-28213-31714
927.60-38227-32187-27622-17570-18784-21297
930.49-20676-13028-18049-20998-20767-13572
933.39-19580-25070-24976-15392-16291-19428
936.28-24532-21819-21949-16016-20383-25912
939.17-28892-22431-23828-23940-25054-21500
942.07-25037-25196-29005-23832-20054-13715
944.96-14085-15569-21323-20566-23496-19353
947.85-20512-22147-26048-21170-21536-19666
950.74-20184-17011-20331-19035-16533-8697
953.64-11056-13650-21355-20560-14877-10247
956.53-18669-22322-26537-20061-13164-10451
959.42-16185-14932-16848-11370-8980-10266
962.31-17996-15345-14285-11476-12138-8018
965.21-8490-6139-8658-10839-17694-14261
968.10-12338-10237-11807-6899-4929-2329
970.99-9784-14838-16710-9749-8819-6260
973.89-8219-9256-13020-5502-2451-3433
976.78-6079-1700-1864 625-1265 826
979.67-1806 477-390 3902 7654 13770
982.56 13566 14522 11752 18794 25416 29991
985.46 28904 35356 39139 44321 41255 42812
988.35 46990 52352 51531 54101 51620 57327
991.24 63489 70364 72586 78355 80378 85893
994.13 86302 93018 98168 100995 95705 98542
997.03 104361 114960 123141 134798 145771 165791
999.92 181389 197869 214742 236145 247527 263550
1002.81 277737 285986 281138 274405 272823 297151
1005.71 336961 395482 470235 560313 644491 726260
1008.60 801950 882237 960362 1043952 1124447 1213788
1011.49 1315607 1429726 1543283 1670073 1804360 1946031
1014.38 2090485 2249664 2414384 2587377 2756827 2929196
1017.28 3099341 3271483 3436486 3603033 3758945 3905602
1020.17 4038959 4166425 4277935 4376730 4455602 4520153
1023.06 4559008 4580156 4580160 4563635 4521200 4458839
1025.95 4370963 4271109 4162671 4049800 3921330 3792641
1028.85 3665438 3561095 3490551 3464305 3457758 3464496
1031.74 3530609 3736179 4097793 4638720 5261250 5770243
1034.63 6258814 6978940 7947837 9217806 11058420 12565395
1037.53 11412180 8540187 6854635 6024483 4986270 3940010
1040.42 3134647 2606077 2301436 2180704 2193405 2297949
1043.31 2456267 2651806 2856383 3060046 3254719 3443132
1046.20 3616743 3775288 3910765 4032120 4134494 4213060
1049.10 4258496 4285178 4292588 4278941 4235752 4178081
1051.99 4103223 4012538 3901050 3780601 3647431 3499087
1054.88 3332580 3167748 3003038 2835328 2662868 2501920
1057.77 2341145 2176897 2009400 1850430 1699154 1560935
1060.67 1427083 1299450 1173779 1061880 955930 860006
1063.56 770062 686312 604691 537619 479094 424310
1066.45 367463 319435 274950 237601 202389 175192
1069.35 148431 124830 99071 80386 70199 68016
1072.24 57073 42718 27998 23112 20800 20670
1075.13 12062 2785-4869-4786-7834-8744
1078.02-10095-7241-6299-5822-10612-11909
1080.92-14920-14393-13587-8853-12061-17566
1083.81-20673-15150-14862-13195-12114-9616
1086.70-13125-16798-20935-20168-21643-18841
1089.59-19074-19675-22603-18854-18137-17365
1092.49-22250-24787-25113-21610-17919-8716
1095.38-8580-14119-23563-26637-27042-22346
1098.27-19194-15875-15833-10421-10623-12955
1101.17-16701-17974-23346-26898-28799-23662
1104.06-22780-21089-19325-14245-17449-19166
1106.95-18179-16015-19326-18715-21521-23055
1109.84-23042-18796-19221-16559-18051-19582
1112.74-19683-14661-14696-16982-20967-20866
1115.63-26276-27100-27341-26284-29066-29632
1118.52-26504-18828-17340-15688-19674-20526
1121.41-20668-18888-20493-21823-26599-30540
1124.31-35496-32022-28547-25443-23353-18563
1127.20-22385-26499-27340-24592-26970-25158
1130.09-23759-23270-29045-28677-26288-24523
1132.99-27015-23311-22175-19904-20952-23188
1135.88-24603-19832-20919-22368-26006-27495
1138.77-30433-29736-29837-28829-28740-23282
1141.66-26012-30557-32686-29381-28122-23770
1144.56-22997-20466-21007-22313-23689-19267
1147.45-19459-19295-20201-20634-26298-25726
1150.34-22874-22280-26758-25360-24613-24963
1153.23-27071-23357-24206-22941-20875-19129
1156.13-21659-20510-20479-19931-26343-27874
1159.02-20970-12884-17149-21868-26122-25468
1161.91-24046-18184-19212-22891-25781-23353
1164.81-21760-17820-16830-14935-16595-15067
1167.70-14070-9406-8066-10491-18642-20617
1170.59-20269-17352-18409-16688-15087-13020
1173.48-14641-11873-10269-8934-11253-11615
1176.38-13342-13319-14547-10879-9249-7225
1179.27-9226-9866-10615-8063-9435-6826
1182.16-5332-4032-4749-2169-3799-5076
1185.05-6502-4312-3789-2991-4447-1631
1187.95-414 2125 2650 7715 11806 21288
1190.84 35274 51138 56663 48493 24778 8008
1193.73 4879 8308 3913-610-6328-9357
1196.63-12711-8681-3385 894-1537-2788
1199.52-3097 375-15 571 545 1915
1202.41 210 1081 1618 4012 2165 3030
1205.30 4705 10216 11812 10614 5357 4543
1208.20 2659-3-3317 4694 29142 72998
1211.09 98706 85053 54390 34997 21630 16458
1213.98 13144 11858 8022 6228 6148 10265
1216.87 11397 13747 12159 12127 12993 19251
1219.77 24562 27181 27000 34069 38794 39134
1222.66 36258 37388 39530 47514 54146 61914
1225.55 68738 77121 82740 89791 95394 103425
1228.45 108490 116473 122040 125620 130127 140179
1231.34 147185 153089 152114 150835 150671 155703
1234.23 159631 163222 157771 152508 149841 147528
1237.12 143272 142279 139675 140996 140971 142094
1240.02 143361 148818 150409 151264 147260 143398
1242.91 139775 137886 132432 130630 125854 122891
1245.80 124098 130942 135905 139254 134772 132195
1248.69 133726 139691 144875 151817 153130 151795
1251.59 148793 149620 144929 137437 130260 127710
1254.48 120243 112485 104702 98355 89936 85073
1257.37 77390 69039 58333 50180 40314 33961
1260.27 28060 23279 16926 14385 9979 5918
1263.16 1258-1183-5981-9652-15806-16745
1266.05-17215-18035-21578-21413-19029-16777
1268.94-19340-18403-20221-22529-24783-22840
1271.84-23472-22865-23602-22943-22145-19740
1274.73-22279-21780-21474-23381-27670-27705
1277.62-28137-27079-27802-25613-24956-23220
1280.51-23969-22732-21922-22983-29299-28098
1283.41-23630-19164-21118-25610-30037-31459
1286.30-31735-26769-25962-24965-26270-24744
1289.19-23301-24067-27384-24573-21403-18266
1292.09-19766-22524-28330-31401-32842-29664
1294.98-28896-27013-26561-26123-27506-26108
1297.87-25549-23327-23757-23080-25633-25429
1300.76-22975-22580-27869-27586-27408-26913
1303.66-25860-22813-25050-25753-25587-23847
1306.55-24639-26332-29068-28733-31256-31671
1309.44-32316-30613-29365-25734-25080-25553
1312.33-29265-30016-30900-28741-26872-24250
1315.23-25724-24906-22872-21440-25904-26892
1318.12-24785-22714-26616-30037-33912-34929
1321.01-35962-32626-31118-30741-30144-25634
1323.91-25440-25905-28794-30947-30260-28348
1326.80-32625-33453-32215-28099-27944-29610
1329.69-32819-32010-32384-31713-32060-31233
1332.58-31848-28312-26532-25917-27753-28873
1335.48-29763-26206-27389-29578-30813-28650
1338.37-28702-26900-27148-29037-32265-30233
1341.26-30276-32064-34147-33423-35560-35600
1344.15-35638-34575-34399-30848-30143-29861
1347.05-29866-28320-26109-21265-20997-21310
1349.94-25861-30245-36045-39109-42671-47600
1352.83-50709-46126-43863-39999-33554-24413
1355.73-20309-20208-22964-23151-19164-10764
1358.62-13748-17267-15467-10387-4966 1855
1361.51 2879 8724 16893 20129 19572 25785
1364.40 30988 39255 49660 62345 76514 92286
1367.30 105976 123077 138147 152761 166286 183826
1370.19 203524 229616 252912 271899 289899 312995
1373.08 337686 365054 390403 413383 429566 447032
1375.97 461690 477201 495257 511179 519119 526856
1378.87 531297 532858 532280 532833 525606 516064
1381.76 507559 502842 499786 498054 491698 484866
1384.65 476775 475760 480110 492073 503447 505201
1387.55 502307 513093 522165 511795 487815 469283
1390.44 457308 451433 448268 454188 463251 472817
1393.33 480618 495152 507861 515310 519001 520766
1396.22 518855 517672 511372 502780 491163 476759
1399.12 454524 431829 405041 376471 348494 322904
1402.01 296014 271211 245544 221513 197377 175799
1404.90 152272 133339 115413 98246 81263 66444
1407.79 52888 46835 40395 33263 24779 18132
1410.69 11003 3880-5063-8729-11584-11136
1413.58-11032-11910-16026-18824-18970-14973
1416.47-12557-12149-18804-20356-7621 9310
1419.37 2214-14008-21088-19620-18798-19123
1422.26-21025-19757-19381-18169-17690-16962
1425.15-20205-22747-23373-19938-18280-16356
1428.04-16044-15952-16940-14398-14434-14909
1430.94-17098-18050-18337-16797-18651-18882
1433.83-17221-14214-13330-6714 7220 19513
1436.72 10204-4680-9686-6710-5474-4115
1439.61-5525-6254-7429-6148-4739-2106
1442.51 185 4038 4658 5759 10025 16739
1445.40 15750 17168 26360 42258 53017 55872
1448.29 58959 71512 86585 104625 124885 149664
1451.19 171517 194103 221355 255649 293512 340697
1454.08 396251 462124 533943 624451 736512 840167
1456.97 925626 1034008 1166977 1312928 1471991 1647766
1459.86 1838580 2046060 2268826 2513833 2774854 3049711
1462.76 3337681 3641827 3963970 4303759 4638108 4968967
1465.65 5309234 5656387 5996684 6334374 6663993 6974637
1468.54 7265124 7534660 7770817 7978165 8156425 8305634
1471.43 8416538 8477298 8499050 8499858 8461015 8381182
1474.33 8269615 8129725 7963621 7819173 7747784 7730225
1477.22 7710975 7677456 7707140 7919370 8297725 8808143
1480.11 9476999 10255609 11155501 12187780 13106195 13497872
1483.01 12660625 10963501 9987970 9724198 9287747 8651431
1485.90 8017725 7482154 7075815 6804143 6656799 6629109
1488.79 6702698 6846233 7035279 7264908 7504308 7741217
1491.68 7968157 8165289 8326268 8453139 8526201 8547240
1494.58 8518380 8446802 8337774 8170538 7941803 7688031
1497.47 7412576 7117383 6801886 6470167 6133422 5804190
1500.36 5479253 5162222 4860025 4580641 4319946 4082175
1503.25 3864522 3670894 3506994 3374371 3244724 3112700
1506.15 3008754 2920341 2820674 2739047 2675815 2617033
1509.04 2559987 2501487 2434565 2372277 2319078 2272033
1511.93 2216815 2151551 2087222 2030956 1981579 1943231
1514.83 1909859 1885872 1877490 1890434 1900244 1897035
1517.72 1898552 1906771 1872963 1791597 1743683 1747603
1520.61 1741892 1702517 1653985 1633061 1623654 1624968
1523.50 1640730 1668625 1705442 1744432 1770073 1788367
1526.40 1805411 1817587 1817539 1809662 1788930 1758024
1529.29 1715239 1659756 1594401 1526291 1447951 1364755
1532.18 1283676 1206175 1122289 1028770 931122 844457
1535.07 763067 685288 611522 546181 486364 436267
1537.97 402604 378063 331935 288413 254349 210073
1540.86 176647 166273 146510 115345 93303 80704
1543.75 69303 66185 60193 46153 31920 23829
1546.65 17327 13673 10466 7661 2894 3511
1549.54 4614 2512-539-995-4599-6935
1552.43-8275-3791 9851 19287 6177-8148
1555.32-13279-13254-8185 8171 24166 40099
1558.22 38970 23847 28695 40888 23211-911
1561.11-8577-8139-8733-8213-7250-3923
1564.00-342 2209-2136-6002-7606-6769
1566.90-7510-6442-3468 2560 11914 19906
1569.79 11492 2090-209-576 259 2744
1572.68 862-1727-2651 987 6245 27249
1575.57 51933 43848 19179 10567 7840 6964
1578.47 4426 2902 1024 657 1197 3065
1581.36 2837 2050-1489-2375-2210-818
1584.25-122 1899 4307 5826 2326 1926
1587.14 5744 11993 12601 10926 8140 6801
1590.04 8296 12568 13194 12595 9249 8058
1592.93 10677 17266 20022 21188 22082 22242
1595.82 21441 25169 28028 29446 29326 32909
1598.72 36727 39557 39264 40781 44916 50344
1601.61 53089 57556 62973 68660 70591 72289
1604.50 72985 76529 80523 83581 85207 90025
1607.39 91645 91425 91652 94859 94366 92426
1610.29 90165 86317 81704 83490 84516 81123
1613.18 74826 71405 67093 63463 62278 78372
1616.07 101891 96861 74503 72153 81906 95079
1618.96 106706 132733 177733 219207 247794 288460
1621.86 326424 319158 269510 205943 145096 104745
1624.75 79065 61787 52489 54127 61933 72443
1627.64 76450 78236 82703 89587 94389 100195
1630.54 104429 110952 117443 120624 118371 119373
1633.43 123375 131920 146417 162993 158216 135918
1636.32 121200 117738 113592 109307 101198 92669
1639.21 85431 80742 76296 72761 67930 64994
1642.11 60144 55570 51786 50053 48131 49986
1645.00 61972 72603 62363 51146 46986 45414
1647.89 41743 36624 34549 38898 40981 42082
1650.78 46501 67669 100716 123761 126056 108010
1653.68 93825 95232 90633 89396 92260 96837
1656.57 106345 120061 122886 119322 117570 118412
1659.46 117134 118660 121511 123897 126358 136402
1662.36 143213 140370 138090 148008 161127 194129
1665.25 298166 396039 319762 178187 127396 128720
1668.14 136812 147769 147076 138137 132929 133874
1671.03 134064 133515 131655 127962 124831 129331
1673.93 140559 160966 172603 165026 154293 153689
1676.82 155631 156892 156890 158700 157594 154728
1679.71 150288 146241 140826 133547 124089 121352
1682.60 123062 123651 129333 149063 144556 107526
1685.50 79506 69557 61461 52396 44255 39119
1688.39 34142 31222 29039 27717 22538 18218
1691.28 16256 15502 12389 10734 10939 13290
1694.18 16239 33173 62036 61813 30495 15682
1697.07 14199 11722 8090 12587 34204 58654
1699.96 60726 44251 21993 9535 3675 183
1702.85-870 4413 8975 9023 7524 13588
1705.75 21049 20954 13007 5203-557-576
1708.64-2600-6181-9249-10363-12730-13965
1711.53-14650-10482-80 16693 37525 75876
1714.42 147622 193667 134860 56709 53449 78682
1717.32 56837 22478 13071 6928-4015-7844
1720.21-5463-2219-3808-5447-5118-3662
1723.10-3847-2120 1102 5294 7073 8774
1726.00 11237 16444 18862 20282 22926 27963
1728.89 35134 44603 47099 45851 48506 55578
1731.78 62027 79830 101388 107987 116939 127995
1734.67 117142 109005 112899 119755 125430 131129
1737.57 134028 136871 145805 163439 170010 165002
1740.46 163715 165175 161405 160120 163028 163896
1743.35 159417 157501 155126 151288 145994 140545
1746.24 133818 128283 123954 123829 121604 115054
1749.14 107424 106696 119312 145976 170680 197637
1752.03 241363 302219 372093 441742 479102 445361
1754.92 370485 321475 289230 250426 205598 164872
1757.82 129721 106316 94942 91831 92987 100935
1760.71 116493 136030 142483 142156 147834 157498
1763.60 167987 180122 187137 192275 196891 205867
1766.49 214774 222417 230173 231640 225907 225109
1769.39 225792 227303 232369 239190 241527 250716
1772.28 256799 245030 233956 235365 237771 242988
1775.17 249008 252827 256593 264249 269577 275505
1778.06 283518 294472 306581 320172 332536 346665
1780.96 363384 380779 395112 410546 426943 447290
1783.85 473987 503827 528760 557889 594076 634226
1786.74 675694 724490 780245 841723 905811 976349
1789.64 1057844 1152987 1252928 1359762 1483146 1617541
1792.53 1742024 1864700 1998462 2141473 2291329 2450345
1795.42 2614549 2782583 2953357 3127914 3297892 3465727
1798.31 3633150 3795463 3943316 4073208 4186569 4287126
1801.21 4368144 4431223 4477041 4504285 4513119 4511226
1804.10 4496662 4464319 4415188 4367157 4328804 4290073
1806.99 4245665 4204808 4178466 4183819 4205071 4222072
1809.88 4239883 4270665 4294536 4286707 4243546 4157174
1812.78 4047191 3950998 3882673 3853447 3860667 3902993
1815.67 3970904 4059904 4158862 4262155 4361008 4446563
1818.56 4512982 4555619 4568254 4549776 4498062 4417035
1821.46 4307806 4171332 4008710 3826372 3624858 3411514
1824.35 3189976 2961007 2727278 2497535 2273832 2059268
1827.24 1853046 1659383 1482256 1323124 1176672 1039886
1830.13 908160 790331 689240 601641 522672 453888
1833.03 395204 345581 301162 260274 221672 189647
1835.92 163183 142882 125683 109966 94127 83050
1838.81 72375 63102 56638 50348 43267 38793
1841.70 33920 29619 28432 36712 45883 40298
1844.60 26259 19035 13296 8999 8864 11705
1847.49 11619 12490 15553 18513 16310 12501
1850.38 10914 11851 11716 14388 17543 20493
1853.28 20832 20763 21412 22186 20624 20045
1856.17 19995 22237 24204 26583 28366 29988
1859.06 31291 35332 39078 42011 43054 44579
1861.95 48014 52992 54989 56425 57860 60881
1864.85 62573 63561 62137 61231 63354 69066
1867.74 71164 72868 77189 76351 70241 67534
1870.63 66040 65821 63443 62686 63725 64888
1873.52 65407 66046 65845 68536 72166 76846
1876.42 78998 78059 75610 74755 73838 73103
1879.31 71283 69048 64205 63097 64958 64821
1882.20 61320 59285 60437 64660 69979 80137
1885.10 91771 101633 105196 105701 103534 99097
1887.99 92973 88301 82961 74326 61485 53313
1890.88 48892 43840 37622 33799 30838 29705
1893.77 26739 23427 21718 21428 19805 18550
1896.67 17506 17766 16359 16279 17119 17880
1899.56 16473 13800 10328 8851 6478 4233
1902.45 2532 2471 2766 3298 1012 1340
1905.34 2952 1540-3145-4795-3592-1503
1908.24-1683-850 425 2656 3570 5272
1911.13 8773 13588 16985 20777 22695 24223
1914.02 24676 24318 20900 18660 18711 19764
1916.92 21085 24433 23814 22503 23382 26229
1919.81 31096 39330 47564 53490 56009 61617
1922.70 70780 79972 87175 95907 105115 115594
1925.59 125004 134749 147642 163807 177031 192000
1928.49 209773 228261 245340 264433 286182 311896
1931.38 340390 371791 404214 439771 478237 520870
1934.27 565458 612515 662252 717431 779966 848920
1937.16 920085 997623 1080050 1166933 1258697 1357649
1940.06 1459151 1563301 1673849 1791443 1906580 2016422
1942.95 2123470 2230722 2333700 2433891 2531684 2623901
1945.84 2708063 2785150 2849584 2903479 2948790 2988007
1948.74 3028629 3067949 3079381 3063286 3038357 3017076
1951.63 2999174 2978978 2950345 2920082 2900492 2896557
1954.52 2894582 2884919 2868368 2848342 2833239 2820692
1957.41 2794658 2756436 2697126 2624489 2563013 2528327
1960.31 2520309 2536671 2575884 2633886 2700919 2774139
1963.20 2849161 2920377 2982411 3028484 3051709 3052518
1966.09 3029575 2988983 2929577 2849593 2749517 2635144
1968.98 2509215 2369797 2219836 2069540 1917566 1764353
1971.88 1611143 1462161 1319801 1185805 1059919 945556
1974.77 841125 746315 658158 578467 510694 451539
1977.66 393430 340949 295848 255984 221563 198150
1980.56 178439 159174 144035 133019 125078 122152
1983.45 118741 114429 109055 108494 113524 119828
1986.34 123204 130824 147966 175789 209743 237512
1989.23 218472 145951 82740 61586 57446 55678
1992.13 53067 51543 53795 60192 65937 69313
1995.02 69535 70703 71637 75166 79790 80650
1997.91 81002 91944 108440 117173 115091 115027
2000.80 114194 125601 161086 207728 237645 212660
2003.70 178064 240517 417722 581653 494236 237137
2006.59 103609 100639 143326 205947 222507 176242
2009.48 123326 93777 79052 70249 63572 62557
2012.38 64512 67825 70343 70717 71913 77919
2015.27 85108 91880 97067 101590 103537 105741
2018.16 106229 103470 103896 110272 110395 105666
2021.05 104522 106504 103551 96084 89289 84016
2023.95 80360 78760 73862 68450 63451 58965
2026.84 51902 45587 41541 40117 39297 36252
2029.73 31385 28227 26759 27733 26214 22737
2032.62 18782 15277 12185 9561 8297 9688
2035.52 11214 15823 17317 8949-1584-5478
2038.41-8418-9135-7700-7100-7506-7564
2041.30-8366-6663-5107-5078-4911-5168
2044.20-8451-10908-10336-7825-9158-12430
2047.09-14421-12194-9468-8598-8826-8368
2049.98-9025-9883-12154-13270-12042-10860
2052.87-12362-13108-12880-10969-10994-12650
2055.77-14008-12402-11926-13870-15677-16154
2058.66-17917-17083-15528-15249-14211-12042
2061.55-14042-16829-16675-14377-14391-16410
2064.44-20305-22644-23952-24525-24411-22508
2067.34-21892-22729-25629-28621-29932-29137
2070.23-29232-29065-29198-30091-31352-29951
2073.12-32733-38382-40491-38798-35183-28328
2076.02-21935-17048-17545-22300-23926-21337
2078.91-21003-21786-22745-22305-18958-14385
2081.80-17138-22093-23697-23728-24126-23600
2084.69-22075-16768-11684-13624-17787-15418
2087.59-10552-3841-118-2935-4973-3003
2090.48-8214-15619-18563-20323-22137-20577
2093.37-17762-12182-8650-14350-22887-25845
2096.26-26110-25241-24485-19981-11913-8804
2099.16-15215-20022-20694-20162-21725-22276
2102.05-17219-7030-7385-17211-23176-25050
2104.94-24924-22502-21087-14051-7407-15734
2107.84-26549-24802-20835-21101-23334-19412
2110.73-6515-1587-13506-21862-23136-24316
2113.62-26665-25259-15879-5439-12812-26358
2116.51-28924-25697-26569-27182-20383-6641
2119.41-4667-15918-22637-22420-23509-25096
2122.30-22181-11722-8034-17607-25480-26703
2125.19-25397-22531-19508-10493-3856-10385
2128.08-18848-20082-21830-23524-22395-18827
2130.98-13705-12508-16562-18134-20281-22236
2133.87-20447-11950-3032-6537-14426-10560
2136.76 579 14115 12536-5480-17224-20095
2139.66-21257-19311-17510-16593-16828-14884
2142.55-9263 206 6039 202-13179-20580
2145.44-22218-21086-20399-21780-22838-20135
2148.33-19568-21538-21289-15927-11134-12967
2151.23-17855-19359-19465-17675-15503-10346
2154.12-8338-14032-19633-22758-25753-25461
2157.01-20021-7963-4726-13095-18582-17782
2159.90-15817-14670-8878 1490-3191-16763
2162.80-23566-26348-26939-20647-5854 2509
2165.69-8304-19653-22812-22052-21231-11842
2168.58 3910 1259-15429-22202-22710-22561
2171.48-17631-3835-243-13534-22927-24380
2174.37-25783-21164-5003 6602-4048-16673
2177.26-19002-19484-21058-12527 186-4919
2180.15-18816-22451-19694-15339-7901 2242
2183.05 121-10123-15238-15075-13569-7419
2185.94 1473 393-8399-10770-9329-6867
2188.83-910 7884 8490 4037 1460 1556
2191.72 6479 15570 22479 22601 17952 15459
2194.62 16351 24975 38526 48885 51919 53458
2197.51 58097 67542 80474 96942 110714 117452
2200.40 124358 133371 142187 156488 174755 192872
2203.30 206535 220864 239198 260051 282255 303947
2206.19 322133 339208 355046 369460 379511 388044
2209.08 393678 391663 384012 374336 358880 337830
2211.97 317394 299354 277357 258163 252456 262012
2214.87 282177 307946 337994 374418 407339 427568
2217.76 433375 427952 409715 381462 352106 323625
2220.65 293854 266824 242518 220936 200794 181632
2223.54 163789 147605 131213 117844 108097 98643
2226.44 89972 85092 78685 69216 57890 50512
2229.33 46661 42439 37029 29956 22641 19500
2232.22 19588 19444 17608 14554 9457 5416
2235.12 2383 932-175-956-1077-985
2238.01-2821-6637-11110-12873-13066-12418
2240.90-15080-18210-19210-19688-20627-19844
2243.79-18618-19033-19512-18190-19078-19382
2246.69-17268-16507-17959-16414-15693-17519
2249.58-18435-18747-18984-17682-17343-17287
2252.47-17846-15660-11895-11419-15811-19986
2255.36-20912-19179-17646-15883-14136-13207
2258.26-15030-14694-11699-11246-12006-11964
2261.15-13578-13605-11982-8596-3972-141
2264.04 1153 2789 4027 5044 7586 8450
2266.94 7089 9740 12651 12733 11449 11508
2269.83 13704 15685 15553 15922 15587 14484
2272.72 14491 16466 15067 12412 12693 13894
2275.61 12950 11664 11115 12204 10657 6723
2278.51 5392 8556 9648 8550 9006 11495
2281.40 14139 13719 10561 8928 6817 6423
2284.29 7713 10265 13197 15699 17142 16022
2287.18 12079 10874 12189 12317 10295 9988
2290.08 10785 11069 8949 7699 9068 9558
2292.97 6987 4013 2383 4494 6230 4812
2295.86 2805 4017 6615 6124 4185 5730
2298.76 5860 4172 6654 12505 15976 18461
2301.65 23455 30125 35051 41775 51556 61879
2304.54 70767 80814 94022 111368 125949 136080
2307.43 150575 173549 198333 219626 240417 266351
2310.33 295738 323936 349153 378583 411293 438881
2313.22 457770 476811 501482 526032 539970 550033
2316.11 563889 576195 577516 572649 569804 569291
2319.00 559251 542333 532357 527414 512582 492897
2321.90 486059 490977 487553 475310 475820 495385
2324.79 505862 498999 509904 571326 644503 666483
2327.68 657418 644310 615231 583996 580032 591475
2330.58 585676 587453 615192 630567 619524 617788
2333.47 630666 626138 608513 611051 615263 590735
2336.36 564043 558566 542139 505308 482548 470481
2339.25 436359 397429 379969 358227 318152 291780
2342.15 277494 248405 218242 204060 184388 155251
2345.04 137948 128826 109901 91844 83688 73067
2347.93 59039 51643 48746 45034 38503 37095
2350.82 40509 37868 34455 36337 30119 27837
2353.72 40349 41062 33918 42929 44707 40312
2356.61 51281 53192 48344 57629 55757 52994
2359.50 64997 64416 67579 80211 74727 79474
2362.40 94213 99066 115584 128710 123210 114019
2365.29 99837 98280 105453 106595 108941 102731
2368.18 95498 93052 89390 92535 92390 92807
2371.07 97277 98451 97395 93238 91516 89881
2373.97 87312 85600 83307 83978 83149 81430
2376.86 81580 83181 85482 91464 93906 89084
2379.75 86965 92063 95594 97723 101737 108794
2382.64 120688 137908 154917 168403 199666 261253
2385.54 285503 239620 179909 142249 123814 112724
2388.43 103766 102622 108653 115407 120235 123353
2391.32 125577 128747 132355 138057 141691 142305
2394.22 144471 148125 150136 149972 149822 151284
2397.11 151988 151696 150508 152661 160409 161241
2400.00 150274 139400 132654 126190 119518 117054
2402.89 116666 116356 114632 112480 115156 122850
2405.79 129095 135893 148143 161035 163081 167586
2408.68 198749 223329 199310 153294 114130 86842
2411.57 70744 63683 59718 55084 53835 55202
2414.46 53931 55153 60202 64057 63996 63254
2417.36 65703 67808 68956 71726 72552 72793
2420.25 73663 73654 74713 76628 73183 66468
2423.14 64993 67509 67010 63893 58253 51123
2426.04 45570 43542 41396 36330 31039 29164
2428.93 27786 24566 19564 16023 14650 13528
2431.82 11220 9875 10131 8234 5696 6528
2434.71 5230 1036-1225-2265-4489-3986
2437.61-3768-6287-4682-1441-1982-3762
2440.50-6041-5932-3909-2727-3594-3597
2443.39-3328-4542-6880-8601-9103-9031
2446.28-7594-4935-6877-11502-11185-8235
2449.18-9706-11202-10585-10137-9745-9961
2452.07-10732-10884-11556-12575-12080-10029
2454.96-9708-10712-11334-10675-8223-5087
2457.86-4243-4143-3221-2205-1991-1650
2460.75-1514-3731-4703-1654-781-718
2463.64 1312 2105 1813 1884 596-440
2466.53 556 2147 1299 871 2914 6763
2469.43 10843 12958 13720 16930 18331 17545
2472.32 18401 18788 17522 16900 16452 17306
2475.21 20357 23579 23724 21104 16864 14581
2478.10 15490 15553 14601 16452 16369 13805
2481.00 13701 16710 18917 17605 14269 15642
2483.89 23086 27109 22594 17691 14858 11722
2486.78 10702 11847 12180 13725 16798 18317
2489.68 18320 18685 17315 12955 8729 10370
2492.57 15866 19161 17611 15521 17241 19692
2495.46 18082 13111 7043 3806 2325-108
2498.35-1724-2206-4633-8440-11435-10970
2501.25-10224-12244-14206-14627-14331-14327
2504.14-15133-16001-18576-19593-20044-19603
2507.03-17261-18011-19413-17650-17695-20714
2509.92-24476-27151-26005-22625-20192-19694
2512.82-20217-19780-20261-20544-18712-14709
2515.71-15250-21212-25408-26030-23920-20784
2518.60-19807-20321-21134-22883-24758-23277
2521.50-20614-20533-22272-23415-22495-20735
2524.39-20512-21647-26291-31434-30790-24313
2527.28-19756-22263-26847-27381-27058-26949
2530.17-26986-28499-29785-29288-27534-25260
2533.07-23490-21478-21080-24600-28270-27256
2535.96-24561-20710-17535-18054-19765-21022
2538.85-20662-16752-14174-16369-18374-17045
2541.74-14393-11684-11622-12455-12320-11891
2544.64-10133-7608-4930-5116-8329-9650
2547.53-8933-7710-8400-11049-11155-5347
2550.42 2333 7874 9768 9443 9916 10530
2553.32 11782 16713 22069 25881 31977 37353
2556.21 40063 38829 28573 11458-2195-5737
2559.10-3335-152 930-248 206 2377
2561.99 3850 5976 9213 10300 7072 3586
2564.89 1534 2018 7436 12732 11407 10457
2567.78 12860 12572 11706 11159 10244 10929
2570.67 12080 12725 14465 16237 17117 18534
2573.56 21301 27211 37149 55529 80103 84497
2576.46 60874 38263 28883 23888 19527 18260
2579.35 18346 16973 17669 20843 22482 22053
2582.24 22213 26509 32922 38929 43672 46801
2585.14 48899 52193 56973 63562 70484 73563
2588.03 74719 78331 84411 88799 90842 94595
2590.92 98705 102502 106690 111249 116218 121807
2593.81 124867 123006 121822 124760 127921 131180
2596.71 133812 134432 135204 135700 134688 134900
2599.60 138488 144105 149781 154515 158631 169090
2602.49 187592 203020 212015 220900 224326 219666
2605.38 220972 233938 250282 267803 283931 294574
2608.28 303066 312662 321787 327022 325920 321668
2611.17 314982 303187 287391 271186 254771 237486
2614.06 218836 200608 183438 166019 151561 141892
2616.96 135118 127205 117474 109754 106415 106380
2619.85 104801 108200 121538 127150 117842 107647
2622.74 103071 100905 97120 91524 86780 84088
2625.63 83273 83986 82154 78302 79042 79292
2628.53 73486 69359 69365 69894 70404 69904
2631.42 67412 61558 54071 48521 46395 46534
2634.31 44979 42369 41973 40970 37507 34751
2637.20 33258 32480 31884 30458 29898 30224
2640.10 29670 32373 38521 43923 50025 52576
2642.99 50459 53191 62286 71201 77529 81951
2645.88 87251 95285 104287 111986 117453 125483
2648.78 133574 136978 141456 143930 141966 142171
2651.67 143704 141497 136321 133656 132192 128799
2654.56 123588 116567 108912 102337 100782 102099
2657.45 102579 102490 102971 104287 104120 105496
2660.35 107297 110106 120114 133600 144098 148892
2663.24 151421 156614 160332 159542 158004 154902
2666.13 146885 138302 132337 124537 111029 95934
2669.02 86766 80435 70416 60658 54356 51245
2671.92 47343 39761 30965 23808 16901 9514
2674.81 3950 269-1326-2223-3636-5129
2677.70-6933-5323-2892-5342-10843-14803
2680.60-15988-16419-18360-19164-17928-17154
2683.49-15519-15439-16883-15949-15969-21517
2686.38-27454-27555-25446-24018-23439-24127
2689.27-25248-25129-25342-28388-29898-27633
2692.17-25695-26051-28592-30262-29446-28966
2695.06-27908-27100-29519-31454-30943-30644
2697.95-30938-32283-34298-35207-37411-42559
2700.84-44137-42341-41205-39302-37313-35383
2703.74-29700-25020-25171-27916-31336-31840
2706.63-28060-27171-30470-30862-29186-29022
2709.52-25200-18162-15827-19426-21864-23304
2712.42-28071-29497-25126-22749-23733-24975
2715.31-27497-32360-33618-30095-29352-32345
2718.20-32791-29998-30941-34642-34581-34159
2721.09-33562-31746-31772-31595-31487-34013
2723.99-36748-37090-34863-31349-31859-34632
2726.88-34109-30477-27319-24984-21732-22222
2729.77-29318-33381-31246-32107-31223-28274
2732.66-30153-33078-34071-32853-28170-22692
2735.56-21367-25398-29529-27677-23295-21669
2738.45-20404-23730-30478-33313-30056-26441
2741.34-28401-31629-31588-29893-29177-29541
2744.24-28593-29214-31206-31849-31126-28114
2747.13-25328-25726-27819-29100-28700-28022
2750.02-27474-28626-31503-32899-33645-35378
2752.91-34558-34136-34573-31220-28582-31155
2755.81-34443-35986-34267-31411-30222-30033
2758.70-31628-33070-28992-23685-23723-27097
2761.59-26358-24707-29055-32603-31776-29271
2764.48-26183-25960-27568-30632-33833-33905
2767.38-32586-31267-29218-29238-30738-29553
2770.27-25814-24374-25386-27473-30524-31000
2773.16-28340-27906-30262-29133-24240-18235
2776.06-13101-15989-23444-28238-30361-30226
2778.95-27987-25824-29205-34076-31278-26830
2781.84-25228-23149-19830-17794-17121-16411
2784.73-14749-15739-20130-23867-25962-24566
2787.63-17033-10615-9641-9026-8071-6449
2790.52-4133-6208-9924-8219 175 8317
2793.41 11676 15127 20832 24028 24681 25407
2796.30 27217 31241 38084 43735 46653 48123
2799.20 50151 54755 61380 69662 79283 84822
2802.09 91699 100697 105048 108638 115826 126032
2804.98 137880 148584 157743 164366 171029 179956
2807.88 190331 202935 215842 223835 229972 236037
2810.77 243529 256532 267543 272507 274792 276913
2813.66 282772 289448 292718 296157 301770 305384
2816.55 309503 312699 310393 309006 313358 314813
2819.45 312369 311103 308413 305727 305815 306614
2822.34 309544 318738 335687 356836 376929 390882
2825.23 399246 409317 418841 419615 428947 457988
2828.12 465002 435478 403120 377590 354564 330138
2831.02 306737 293284 288943 288599 291587 291535
2833.91 292038 298211 305285 311595 314983 314061
2836.80 317415 324707 328939 332290 336852 337349
2839.70 333528 331560 333126 331088 326998 321804
2842.59 314433 308226 301610 291159 282144 277478
2845.48 269928 257974 251735 248109 241387 233670
2848.37 224328 216374 217685 225348 228765 228232
2851.27 230820 234916 239510 248218 263266 275227
2854.16 272209 253445 227538 206284 194184 184949
2857.05 176854 170435 166392 164828 165660 168081
2859.94 171127 173282 179028 187864 196977 205199
2862.84 210425 216812 223748 226088 228739 234910
2865.73 239233 240884 242208 244032 245983 242412
2868.62 238401 242348 249389 246410 236109 230713
2871.52 234020 240544 243840 247119 253330 262390
2874.41 271842 278916 288944 301069 314476 327562
2877.30 338726 351597 368548 380953 393797 412761
2880.19 428055 440388 452145 460803 468888 478418
2883.09 492136 501356 503201 507988 516235 526407
2885.98 538917 548075 555797 567230 580992 596474
2888.87 615778 636000 656659 675665 692604 709414
2891.77 732310 760785 790255 824069 867649 918046
2894.66 967828 1015067 1061218 1097858 1126985 1156007
2897.55 1176038 1175735 1154668 1117411 1069179 1011080
2900.44 947751 881792 814566 753045 700191 649629
2903.34 604275 570498 546027 524937 507409 493185
2906.23 482081 471444 460755 447252 434488 429383
2909.12 424870 415783 403275 384852 364177 349821
2912.01 339981 327886 317792 308833 301608 297397
2914.91 292036 283236 274779 268427 261958 254961
2917.80 250140 245308 237423 230909 226641 218117
2920.69 203906 185755 169085 155224 143598 132051
2923.59 119346 110254 103507 92121 83187 76015
2926.48 70055 67430 60423 46906 32768 22637
2929.37 20034 15208 6408 2849 3677 2602
2932.26-2874-8239-8761-7661-8469-11694
2935.16-10968-8691-10395-14346-19174-25078
2938.05-25230-21118-21444-26456-30311-29488
2940.94-27392-31844-37739-37787-33572-34055
2943.83-34913-31581-32910-36462-34896-32627
2946.73-29891-29864-35454-38533-35603-32044
2949.62-31521-33087-31319-29130-29796-28532
2952.51-24102-21371-17380-16435-19347-19652
2955.41-19903-24257-26034-22875-20494-21939
2958.30-29276-39638-42676-42867-43499-47172
2961.19-52036-48951-45709-51920-56825-58562
2964.08-62909-65290-64228-62049-55641-49451
2966.98-47005-46095-45600-46463-44929-42954
2969.87-40980-36328-31448-25519-14240-7293
2972.76-11711-17893-18085-15327-13135-12477
2975.65-9637-9468-13187-14740-14792-17877
2978.55-21087-21259-19307-15098-9956-12648
2981.44-16700-12871-10321-10867-8690-4000
2984.33 2155 5263 9080 12581 11702 10867
2987.23 11665 8425 2379-132 5104 10132
2990.12 8877 8730 12620 20088 27490 29494
2993.01 29038 24718 17561 13906 17612 25665
2995.90 32602 31408 28990 30035 30502 31634
2998.80 35048 40066 49250 56918 60017 62562
3001.69 69230 79076 87015 90071 94522 103970
3004.58 113843 120107 126695 136006 146827 157065
3007.47 166281 179083 198458 218590 237027 253598
3010.37 269528 291518 323026 360960 398006 435471
3013.26 483833 539706 599012 667751 747285 833736
3016.15 927781 1030680 1144210 1274010 1419984 1572457
3019.05 1739384 1933993 2152973 2390106 2654092 2947466
3021.94 3266252 3612802 3995219 4415412 4873634 5375713
3024.83 5918045 6498836 7125085 7799219 8523821 9291047
3027.72 10094637 10940218 11832459 12762860 13720782 14699481
3030.62 15699268 16713517 17721823 18706618 19667647 20607458
3033.51 21512562 22364705 23150931 23857013 24472996 24998102
3036.40 25427111 25744807 25931932 25972481 25933632 25931220
3039.29 25958823 25930377 25733002 25374573 25096531 25027407
3042.19 25154439 25369891 25627857 26062005 26740831 27619307
3045.08 28611715 29579750 30410533 31013198 31162706 30840606
3047.97 30064418 28953160 27800231 26819319 26108878 25675855
3050.87 25512485 25586263 25883515 26339695 26902841 27529813
3053.76 28156563 28740860 29252076 29649604 29899362 29967831
3056.65 29860230 29579715 29123210 28495474 27710547 26775631
3059.54 25707480 24531006 23282031 22002803 20735950 19510487
3062.44 18326358 17170185 16068753 15094722 14293191 13627833
3065.33 13060433 12589768 12222476 11958102 11801712 11752444
3068.22 11804632 11937918 12133690 12389199 12698884 13040057
3071.11 13379346 13689993 13963090 14188046 14322899 14323698
3074.01 14198653 13960574 13580987 13047062 12434411 11825839
3076.90 11279911 10863821 10727108 11031405 11871937 13263529
3079.79 15117095 17088969 18600607 19290173 19368558 19235359
3082.69 19046863 18814713 18623224 18587404 18646963 18614380
3085.58 18546549 18588522 18687277 18769209 18852030 18969904
3088.47 19106155 19246857 19395150 19528620 19622558 19653613
3091.36 19598901 19471599 19384701 19353975 19237947 19008673
3094.26 18783303 18633736 18509941 18384129 18325320 18329574
3097.15 18369396 18488835 18670755 18956970 19599496 20477537
3100.04 20022029 18302058 18067125 18891101 18725441 17922423
3102.93 17199405 16647522 16276888 16085784 16070778 16219467
3105.83 16471799 16781975 17134417 17507791 17860445 18154140
3108.72 18378185 18503742 18513329 18410341 18192265 17850975
3111.61 17394785 16832603 16179308 15444167 14640667 13792906
3114.51 12914195 12015334 11108262 10205506 9320591 8461362
3117.40 7640455 6864926 6136973 5464966 4853469 4289448
3120.29 3770979 3304837 2895173 2536380 2220092 1936293
3123.18 1683233 1467602 1288081 1134961 1005323 889515
3126.08 784442 690305 606374 530914 470325 421843
3128.97 375909 332399 296130 264687 237009 216679
3131.86 200001 177931 157077 139234 122925 110542
3134.75 98880 84682 74774 67534 58624 48733
3137.65 42502 37838 32682 26552 23086 24259
3140.54 26860 22915 15789 9485 5294-410
3143.43-2766-639-1933-4972-4292-5018
3146.33-4856-6302-9845-14632-18565-20557
3149.22-22200-21417-16287-16856-22470-22451
3152.11-16126-15419-15376-16009-19072-17626
3155.00-16020-21930-25683-25131-21710-18498
3157.90-16430-16131-16917-17737-19779-22904
3160.79-19790-13895-14336-18449-22628-30495
3163.68-30695-22493-14996-13897-13673-14275
3166.57-21562-26080-17798-13121-19662-26802
3169.47-26652-24958-23682-20619-13380-10772
3172.36-13672-12803-7510-7858-16359-23490
3175.25-20876-26301-37403-32842-19685-16783
3178.15-20346-21840-18917-16791-16592-16759
3181.04-12757-8552-7239-10325-18111-23404
3183.93-22700-27742-32602-28545-21904-21221
3186.82-21768-20203-16672-16771-21329-23492
3189.72-18685-14672-13970-12868-10743-15883
3192.61-25527-30071-26623-22164-21223-22033
3195.50-24175-28283-26987-23277-19455-19439
3198.39-19810-16795-17595-23026-23481-22958
3201.29-20924-17623-17681-22562-28061-30851
3204.18-28770-26676-25540-28295-30285-30265
3207.07-30196-31520-29170-25271-21053-14603
3209.97-15135-22082-25002-27589-28060-28467
3212.86-30481-32762-33073-32308-29151-24639
3215.75-23059-27067-29955-23044-14647-19403
3218.64-24785-24663-25688-28589-25199-22655
3221.54-25168-25037-19333-16712-17860-19827
3224.43-22837-25220-20399-14920-15943-21943
3227.32-24696-20620-14210-14210-15502-10987
3230.21-5433-11236-20467-21441-19695-22290
3233.11-22830-20035-19413-19923-14814-10205
3236.00-9584-13681-18105-16933-10033-7451
3238.89-10495-10088-5719-6947-11310-14699
3241.79-16211-15921-7211 1252-1000-10223
3244.68-13923-12355-15045-20482-15426-8723
3247.57-9952-13099-12232-8659-2349 1876
3250.46 2482-1063-7056-10900-12373-14108
3253.36-10110-6589-8385-12443-14965-13425
3256.25-8868-9333-10468-5801-1877-6556
3259.14-7044-284-494-6548-8841-11101
3262.03-10614-9167-8639-12682-16411-17603
3264.93-14100-10703-11781-19712-25022-21263
3267.82-18950-20119-18833-21850-25454-22834
3270.71-19444-23244-26424-24833-18457-10787
3273.61-12308-21907-22648-21813-24942-27015
3276.50-26301-27902-32965-34268-26978-22788
3279.39-22835-24978-26299-24839-22045-23409
3282.28-25269-26471-26132-27622-29594-29602
3285.18-27367-27418-30544-34188-34859-33476
3288.07-30882-25839-22245-25668-28593-32100
3290.96-35010-34024-27950-21581-20800-25858
3293.85-27794-28075-28142-30327-32139-33342
3296.75-31008-28868-32887-34904-26899-21505
3299.64-21870-26682-36154-41279-35082-28314
3302.53-28690-35197-38954-37915-37761-43183
3305.43-46063-44821-37953-30495-23087-15837
3308.32-16254-26513-32485-33766-32347-28628
3311.21-27488-28831-24751-23025-24772-25043
3314.10-24673-28216-28686-25852-22668-23009
3317.00-28898-34541-35664-37606-37306-35526
3319.89-33645-33007-33912-32240-23630-18787
3322.78-24023-31349-29544-25150-25222-31379
3325.67-35120-33622-30462-29271-27851-27691
3328.57-28336-30008-31934-37872-42029-41616
3331.46-37834-34003-33044-31219-21353-18548
3334.35-25689-35334-40830-34046-26700-33637
3337.25-39186-37048-33498-35165-37105-37522
3340.14-31447-26087-29802-34158-35679-34552
3343.03-28278-25895-25627-28782-34208-39131
3345.92-39664-36776-32436-30078-29165-32106
3348.82-30883-25372-22522-28056-32555-27134
3351.71-22568-29444-33243-27586-22562-22867
3354.60-21878-22112-23535-27857-33432-36504
3357.49-32944-26728-23734-30892-36927-30433
3360.39-21723-22497-27141-28960-23732-20559
3363.28-20856-23265-26250-27297-23173-23307
3366.17-28290-29381-31801-34083-28987-27403
3369.07-25994-23099-26610-36209-41026-40090
3371.96-36077-27868-18951-19135-22061-26296
3374.85-28232-25418-20018-18033-21533-23081
3377.74-20743-21671-21369-24018-25764-22763
3380.64-21821-25242-22082-17622-17569-16048
3383.53-12168-15914-21131-18857-15530-19388
3386.42-16722-12300-11672-9147-8708-11974
3389.31-15818-19790-18457-17478-9055 65
3392.21-3792-11716-13736-15252-11610-7006
3395.10-5261-4797-5568-9450-10440-7276
3397.99-1136 1571 2139 846-1559-2110
3400.89-328-1443 308 5329 10536 7659
3403.78 2717 645 4360 12913 18421 16311
3406.67 13070 8755 8565 16166 23514 18587
3409.56 13343 13717 13085 9469 6650 1615
3412.46-5557-10537-7182-2983-3712-7679
3415.35-4741-1068-2238-3988-1184 2616
3418.24 2993-3865-7874-6269-8880-16744
3421.13-18913-18424-14140-9966-7122-6809
3424.03-6794-8239-11275-10319-1252 8947
3426.92 11870 2922-394 3507 6431 4622
3429.81-977-5841 1180 8446 6791 2853
3432.71 2530 747 2131 9200 12503 8688
3435.60 12508 21069 25430 26823 25921 18483
3438.49 16480 18141 12656 3721 1634 6365
3441.38 17989 21459 12714 3375 4317 9840
3444.28 13231 9718 12992 15704 10689 9239
3447.17 14701 16233 15211 12989 6207 1340
3450.06 7977 14564 13025 13754 33161 73023
3452.95 139056 241039 369978 371111 221380 106727
3455.85 54752 26310 14140 1290-566 883
3458.74-5439-12024-11422-10399-11983-10693
3461.63 2203 8655 5544 6577 7638 3461
3464.53 1547 2109 7718 10579 3129-4206
3467.42-2609-2915-2796 2932 11120 11970
3470.31 12462 12435 5336-7460-12300-8214
3473.20-1391-303-4545-6930-10436-18927
3476.10-15823-9086-13783-19487-16921-17493
3478.99-17731-14217-14050-15080-15259-21442
3481.88-22916-22282-22625-17754-9900-7339
3484.77-11535-20162-23160-26218-26290-19566
3487.67-17290-23862-30260-29413-22904-25404
3490.56-30320-32285-36003-39945-33930-23131
3493.45-15011-13402-16571-25218-28955-25754
3496.35-21220-17806-17469-22502-26702-28219
3499.24-26951-29487-30083-27390-25072-24917
3502.13-22885-23666-25575-27838-31245-35551
3505.02-33294-28914-28391-33370-34331-31423
3507.92-28729-24346-20164-21427-24807-31963
3510.81-35851-35046-29979-25968-26021-27015
3513.70-25941-29360-27616-18110-12304-16090
3516.59-19977-22867-28648-31760-24289-19546
3519.49-16677-13507-17872-27028-28345-21740
3522.38-11713-9270-13649-20348-23115-23065
3525.27-24893-28480-28133-26209-20364-19402
3528.17-23843-29399-33761-31552-23946-22339
3531.06-25817-29307-28147-27605-24478-26013
3533.95-33065-34472-28962-29295-28209-25517
3536.84-27791-33719-32456-26817-23216-22115
3539.74-21528-25512-26061-24450-25535-31525
3542.63-34952-34134-28673-26037-28908-32180
3545.52-25533-18999-21829-29244-33428-35753
3548.41-33336-24782-20753-27426-29275-32106
3551.31-35250-36063-32997-29249-29583-32898
3554.20-30600-28854-28947-27936-25859-26239
3557.09-29950-37885-41581-38177-31368-29856
3559.99-30523-28770-25550-27504-27928-25957
3562.88-24818-29699-34328-34476-31486-30343
3565.77-23414-15758-17267-23219-23590-22220
3568.66-19614-21267-24940-27442-28712-29915
3571.56-24979-22070-23772-28356-32712-34936
3574.45-35528-36015-28613-24687-27140-29993
3577.34-30548-32377-35848-39358-32329-24883
3580.23-28413-36386-34080-26706-24232-29471
3583.13-35623-42575-42787-35535-28290-24858
3586.02-23503-27402-30931-30239-23691-21449
3588.91-24466-26478-25072-26665-30141-34792
3591.81-33604-28680-25331-25428-25460-24788
3594.70-20576-16062-9816-7572-6869-3177
3597.59-1417-4894-3686-961 198 1021
3600.48 1700-3445-5464-2728 718 5391
3603.38 12331 12931 11951 13313 21410 29973
3606.27 31283 26866 26582 30534 40169 46516
3609.16 38682 23819 19759 20272 20609 24204
3612.05 31494 30372 26037 21847 19412 21323
3614.95 26176 22012 19678 25917 36046 41786
3617.84 43160 47711 69127 88669 93748 109990
3620.73 133237 135151 138314 132504 99120 61986
3623.63 42148 30786 21021 15912 18168 20341
3626.52 23913 31669 45634 54103 58687 67783
3629.41 70242 61660 57813 58753 63492 65991
3632.30 69189 73618 78425 79416 81181 85274
3635.20 87807 86807 88693 91181 96694 100946
3638.09 103422 108934 118414 121296 121881 125196
3640.98 134307 144362 152786 157374 168697 185105
3643.87 202732 219361 234442 245130 259796 284324
3646.77 308803 317266 320699 334338 351908 345434
3649.66 329691 320505 302717 268851 237586 215553
3652.55 199927 194174 202565 219369 250912 299485
3655.45 358488 400954 411619 400025 378697 351490
3658.34 325930 298308 268921 240366 219160 201759
3661.23 185931 168899 148564 128185 117545 108658
3664.12 99576 94094 87649 76761 70138 63856
3667.02 61664 63791 68947 64782 52402 54137
3669.91 75775 81100 63347 52398 54904 54638
3672.80 52950 51597 54995 59092 61523 69950
3675.69 71080 51331 36198 32069 35732 41522
3678.59 48274 52209 52025 50114 52233 54430
3681.48 57711 60254 63557 64160 66615 69238
3684.37 71658 72978 75438 77363 81935 85866
3687.27 101815 127337 131128 115735 111661 117851
3690.16 132732 148125 157530 161179 165171 169549
3693.05 178090 185227 190259 193425 203353 219006
3695.94 236939 248809 248594 238992 231900 228493
3698.84 231904 238820 247403 253938 262546 267035
3701.73 260016 244240 232767 224523 219675 215984
3704.62 213539 209142 213021 226018 237314 242757
3707.51 250562 255592 265625 278604 288546 295860
3710.41 296200 286255 279120 259343 224896 192770
3713.30 167995 148517 137081 126268 117535 107312
3716.19 95169 84148 76255 68042 62947 58042
3719.09 53357 45227 40076 36302 35837 41269
3721.98 45884 42396 43099 43628 41216 36208
3724.87 28664 22915 28692 31841 26349 23270
3727.76 27194 24645 17642 12614 13318 14395
3730.66 18453 26516 32262 25439 17000 8410
3733.55 5539 12395 19403 14811 12460 18506
3736.44 18290 2788-4382 2833 8016 1411
3739.33-4280 18 12547 19078 23191 24422
3742.23 25353 41453 79866 131259 207275 223997
3745.12 115017 7162-17287-14252-14739-18890
3748.01-8668 16340 26124 6200-8361-9966
3750.91 900 28461 38433 12311-2845-3988
3753.80-5230-5827-1838-974-314 1666
3756.69 4444 5022 6663 1640-2446 854
3759.58 2048-7450-11137-8601-4883-4747
3762.48-5228-7256-7528-6989-8126-10396
3765.37-6650-5517-9167-19247-23774-21423
3768.26-15586-10080-5547-10120-15996-20238
3771.15-22419-20108-13767-13902-14680-15841
3774.05-17693-21097-18766-15333-16004-20711
3776.94-20910-17009-13603-12422-4244-1905
3779.83-5337-8702-10844-17036-21158-20141
3782.73-15957-16052-16714-14565-12075-18315
3785.62-20806-20165-19817-19933-18123-17450
3788.51-14164-10199-10015-17392-20804-20028
3791.40-18445-20475-22137-24722-23948-22654
3794.30-21567-21211-16750-10109-10464-19118
3797.19-18465-16262-19552-26706-26392-21663
3800.08-9535 14639 25390 1935-18956-22847
3802.97-20039-19049-20615-22055-16624-11766
3805.87-3629 4348-671-17800-28731-31091
3808.76-28417-27328-26140-30521-29691-26246
3811.65-24281-23686-22512-24317-25239-26953
3814.55-23085-6036 16728 8647-14992-27582
3817.44-33434-37883-35537-33219-28537-17678
3820.33-5807-2285-5735-18961-24346-25023
3823.22-28929-32778-31362-30271-26901-23610
3826.12-21916-25644-27919-31526-31309-28678
3829.01-29456-33598-29314-21683-14777-18667
3831.90-30245-34398-29715-29906-24489-14189
3834.79-14744-23779-22783-20274-8826 10281
3837.69 6687-12733-18506-25194-32592-29592
3840.58-21593-29745-38677-36923-27291-19667
3843.47-17821-24685-29373-28539-24571-23799
3846.37-21703-24578-30532-39426-39878-34523
3849.26-30978-32540-32272-21934 4555 13744
3852.15-2591-12500 3950 26249 21525-6914
3855.04-25596-32550-27752-20418-18484-24530
3857.94-29149-32875-31422-24913-21532-27033
3860.83-29094-30947-33432-36395-34579-31598
3863.72-26387-21489-17751-24110-27032-21190
3866.61-16368-21147-26890-26361-15488-2179
3869.51 4663-9293-22994-26578-26562-28023
3872.40-26160-24396-21627-22285-23721-29907
3875.29-39026-44361-39327-33194-30302-33098
3878.19-34906-36174-29169-23562-23646-25293
3881.08-23046-24025-24454-24097-24044-28718
3883.97-33487-35000-20844-12405-20555-26820
3886.86-23585-27258-28820-16853 4632 21082
3889.76 22903 4365-11768-25399-34659-37283
3892.65-35938-36350-34074-33276-31296-30257
3895.54-28031-25993-23504-25908-29852-33721
3898.43-25650-15757-17160-24873-24108-14902
3901.33-9334-20950-28931-25564-17016-17081
3904.22-25556-31815-28023-26518-27914-30288
3907.11-30832-31861-29310-30911-33047-32536
3910.01-28135-29199-28806-21898-13791-17024
3912.90-21117-17740-9541-9759-11992-20905
3915.79-28985-27028-21845-24654-23624-16877
3918.68-11590-11341-10911-14099-16495-20352
3921.58-20306-22142-22453-18638-8175-381
3924.47 1239-2373 1562 11460 16578 12602
3927.36 9387 6838 9872 10333 12352 14182
3930.25 13417 15868 25005 26286 23605 22471
3933.15 26644 30329 35666 36363 35416 35879
3936.04 42696 44577 45192 45459 45333 47768
3938.93 52829 46982 43232 50315 57359 55756
3941.83 62226 73010 77305 76753 88393 95146
3944.72 89180 85183 92290 97532 98340 97645
3947.61 99783 93356 86229 88917 101729 108645
3950.50 115030 121928 124946 121567 121787 118894
3953.40 109718 98289 95426 93454 90800 85216
3956.29 80988 75137 74292 75132 73507 68577
3959.18 69465 72161 78463 78294 71918 68742
3962.07 76714 87078 90911 83628 81141 82753
3964.97 80771 70085 68419 74703 82339 83937
3967.86 83144 79890 76155 72004 74321 77686
3970.75 82479 83552 86441 89190 92469 91992
3973.65 87965 79161
##END=
