##TITLE=1,1,1-Trichloroethane
##JCAMP-DX=4.24
##DATA TYPE=INFRARED SPECTRUM
##CLASS=IUPAC A
##ORIGIN=NIST, Analytical Chemistry Division, 301-975-3108
##OWNER=COPYRIGHT (C) 2001 by the U.S. Secretary of Commerce
##DATE=01/06/01
##$SPECTRA VERSION=1.10
##$UNCERTAINTY IN Y=2.1 % relative (B=1.08E-04,C=2.81E-10,D=2.71E-15)
##CAS NAME=1,1,1-Trichloroethane
##CAS REGISTRY NO=71-55-6
##MOLFORM=C H3 C Cl3
##MP=-30.41 C
##BP=74.1 C
##$NIST SOURCE=QUANT-IR
##SPECTROMETER/DATA SYSTEM=IFS66V (Bruker)
##INSTRUMENT PARAMETERS=KBr Beam Splitter; MCT Detector; Multipass cell
##STATE=gas
##SAMPLE DESCRIPTION=1,1,1-Trichloroethane Primary Gas Standard
##PRESSURE=101.3 Pa
##TEMPERATURE=23 C
##SAMPLING PROCEDURE=1 L/min Flow
##RESOLUTION=0.9640
##DATA PROCESSING=Happ Genzel Apodization
##XUNITS=cm-1
##YUNITS=(micromol/mol)-1m-1 (base 10)
##XFACTOR=1.0
##YFACTOR=18.189E-13
##DELTAX=0.4820
##FIRSTX=575.17
##LASTX=3974.606
##FIRSTY=3.68E-06
##MAXX=3974.12
##MINX=575.17
##MAXY=.0019251
##MINY=-3.61E-07
##NPOINTS=7052
##XYDATA=(X++(Y..Y))
575.17 2023372 1924169 1789513 1721139 1702696 1752164
577.58 1677166 1708172 1524697 1182272 1030446 1212636
580.47 1094280 865630 1014059 1032049 872927 716063
583.37 662565 683140 734648 786544 880278 799627
586.26 705888 708814 740903 690110 725324 890258
589.15 875571 689795 591733 633382 577111 468101
592.04 521363 447052 280357 296398 334490 213542
594.94 229962 253080 133324 71492 91620 145576
597.83 107863 41408 19321 37142 12731-26899
600.72-41532-57951-33192 74013 59233-93619
603.62-47235 21227 1532-10733-33164-2676
606.51 53161 39323-34702-30743-28252-51146
609.40-126271-123586-6857 81393 60306 35148
612.29 37822 54213 20368-25022-8783-29914
615.19-52006-10338 31253-8820-41222 133
618.08 65598 77721 69078 39004-52748-50199
620.97-1511 44080 32856 24583 7091 19394
623.86 46762 72229 52449 117862 71157 6019
626.76 15182 54842 68379 95009 64612 50327
629.65 8182-32718-63558-84419-81329-58333
632.54-38446-39667-58339-57810-61086-48129
635.44-27055 3767-12303 25753 11741-74767
638.33-49384-12510-74314-73612-58545-40421
641.22-31576-77522-123337-56349 2321-12333
644.11-25053-29441-34098-39376-52904-28648
647.01-60474-80987-49070 22328-32212-50560
649.90 18612 31307 56221 45068 16840 60774
652.79 109624 116581 93470 100660 85987 114783
655.68 120580 170238 181276 194346 278695 302834
658.58 312568 343015 307221 371941 443229 490998
661.47 561023 622635 669230 725795 745287 872024
664.36 1023476 1081799 1129062 1210842 1389794 1813852
667.26 2069207 1972670 1955034 2118368 2289366 2488324
670.15 2582911 2720828 2940300 3190114 3472773 3806656
673.04 4043892 4285978 4515048 4805491 5188046 5610401
675.93 6011173 6420166 6805709 7242103 7693740 8239667
678.83 8763815 9249764 9751566 10231994 10672636 11217631
681.72 11776480 12436368 13212360 14096960 14973194 15980788
684.61 17067648 17952556 18232297 18216974 18468214 19053364
687.50 19922947 20883747 21352422 21218938 20535433 19883134
690.40 19640031 19504236 19214484 19056542 18983246 18990849
693.29 18961815 19033168 19238780 19547871 19895347 20398940
696.18 21003827 21777284 22570324 23563567 24689076 25984598
699.08 27387775 28986839 30763242 32780092 34916143 37272760
701.97 39862556 42691277 45714558 49106349 52808990 56898683
704.86 61437121 66684617 72522729 79290496 86867507 95504073
707.75 105373677 116273758 128041351 140800588 154600050 169670310
710.65 185989684 204085177 224195431 246556327 270825504 297388077
713.54 326452941 358213370 392257703 428247899 466781473 507827788
716.43 551206275 596609113 642287475 689185044 736829807 785394589
719.32 834062455 879150946 918010391 951714482 981516413 1006299537
722.22 1023848880 1036749554 1042958631 1047495936 1050426607 1047709798
725.11 1049471589 1052258224 1047920337 1045350897 1049666859 1058386935
728.00 1049126955 1005481325 937969633 861383544 775072257 676514429
730.90 583977492 503894023 435697037 376451816 325466724 282277060
733.79 245685475 213955045 186969690 163474428 143066783 125124766
736.68 109474323 95572716 83728756 73539557 65004109 57652074
739.57 51542180 46339659 42083364 38400910 35372433 32664200
742.47 30426414 28300818 26307337 24442460 22807961 21197765
745.36 19873284 18855603 18472248 18506665 18760039 18703541
748.25 18324898 17592468 16856580 16119259 15453303 14709651
751.14 13990775 13246236 12543216 11776021 11117406 10563521
754.04 10230209 9882853 9651019 9276219 8688552 8014981
756.93 7652011 7489322 7624400 7942168 8250618 7791674
759.82 6682592 5811435 5652963 5992476 6826769 7960797
762.72 8827662 8246709 6300944 4740250 4352218 4592086
765.61 5346093 6425920 7307980 7129680 5678383 4147146
768.50 3625654 3535513 3583651 3653217 3763642 3737045
771.39 3743910 3826447 3960527 3887032 3740158 3625119
774.29 3596685 3501741 3406904 3321797 3245992 3155111
777.18 3080850 2972421 2879350 2756462 2704225 2618290
780.07 2578224 2499177 2394211 2291983 2286278 2251725
782.96 2207620 2157696 2173544 2113101 2029814 2014021
785.86 2090682 2122387 2094016 2062524 2148172 2267932
788.75 2481018 2604028 2627410 2651936 2720266 2818997
791.64 2985641 3140607 3367662 3568682 3704865 3813137
794.54 4056803 4226177 4408415 4559393 4712838 4828907
797.43 4878875 4872675 4801660 4713995 4635760 4478898
800.32 4333387 4142003 3980692 3859724 3876355 3984939
803.21 4157486 4384678 4678029 4882938 5008533 4970754
806.11 4925383 4845130 4773521 4649161 4492171 4287625
809.00 4155320 4019665 3908678 3761238 3598637 3422119
811.89 3274437 3110892 3012828 2920948 2840028 2797946
814.78 2847947 2918937 3009753 3093441 3175626 3178893
817.68 3172597 3194136 3181489 3039248 2946750 2840063
820.57 2740591 2659075 2604284 2526994 2469739 2462056
823.46 2417666 2280934 2242028 2218078 2214012 2190593
826.36 2153100 2089500 2091257 2022219 2014044 2049018
829.25 1997497 1939002 1946171 1918730 1900036 1848834
832.14 1821360 1845004 1852520 1841919 1784691 1638919
835.03 1533510 1472396 1468038 1381774 1296960 1209371
837.93 1181384 1168700 1183088 1194513 1290193 1344124
840.82 1280672 1184380 1200611 1177169 1189472 1191472
843.71 1192866 1152820 1129599 1130057 1164421 1116301
846.60 1097828 1074415 1089943 1101373 1123586 1138700
849.50 1159225 1155727 1227070 1271106 1308076 1385968
852.39 1468247 1494637 1600741 1715880 1801058 1846455
855.28 1927227 1970518 2076231 2224085 2425779 2529234
858.18 2594034 2628190 2693144 2744500 2878147 3106634
861.07 3301175 3284467 3343134 3446130 3447245 3295211
863.96 3247842 3251746 3309429 3433999 3672949 3933617
866.85 4043648 3770828 3420611 3068206 2763292 2693391
869.75 3047514 3835542 4670147 4194244 2755280 2076535
872.64 1963834 1953910 1998980 1989230 1956695 1927740
875.53 1911837 1847465 1722343 1566585 1427835 1281868
878.42 1141174 993064 875406 763829 700553 625054
881.32 556107 512836 486110 427037 391849 320681
884.21 282444 288781 307002 270844 245836 229677
887.10 217667 194977 190232 159812 166927 139274
890.00 143921 132588 128816 118842 87828 68714
892.89 76698 65550 83192 74946 66421 67100
895.78 72951 38347 23146 27818 18951-2870
898.67 3846 6266 19135 38531 52962 18283
901.57-219-15932-8566-14971-5086 6998
904.46 1927-6337-958-6345-868-7790
907.35-10467-5636 21197 27827 21195 24654
910.24 33219 3414 21250 19903 13648 17602
913.14 55500 42907 44299 54513 61521 24005
916.03 34632 50797 61874 33571 30993 59428
918.92 106415 80027 65140 74259 93523 95975
921.82 103806 125833 141080 98442 108818 123016
924.71 110769 103006 135501 133009 112975 112038
927.60 118417 91546 128412 145783 160867 158511
930.49 147795 141607 161799 153898 153707 150025
933.39 190797 200491 195481 204576 226454 237522
936.28 255405 252284 252468 255071 279720 274918
939.17 300379 322982 345806 366037 397584 419023
942.06 465374 493815 533343 561661 605796 643334
944.96 678419 718677 795598 855040 903848 930958
947.85 967137 1002825 1066709 1108648 1149953 1195376
950.74 1261344 1302021 1360019 1405269 1463385 1487772
953.64 1518297 1546263 1614615 1653050 1690189 1722922
956.53 1781967 1830085 1886988 1928404 2006029 2069553
959.42 2140768 2175886 2210448 2237625 2264357 2235000
962.31 2245343 2208698 2188556 2168117 2061936 1918903
965.21 1840946 1736867 1703224 1668186 1502895 1396641
968.10 1421143 1434177 1466008 1473097 1492565 1490633
970.99 1469565 1427405 1404376 1364151 1314288 1251185
973.88 1210443 1146503 1075195 988298 951159 897024
976.78 867248 834516 810651 768594 746540 731336
979.67 740130 736150 758519 793853 852752 881216
982.56 936893 980802 1067977 1151768 1254310 1333542
985.46 1437303 1536781 1650270 1763397 1901472 2032562
988.35 2179531 2322724 2502258 2656870 2831836 3008631
991.24 3214533 3407849 3634953 3853415 4100544 4334941
994.13 4585284 4800107 5025163 5245344 5418968 5519602
997.03 5553607 5531492 5518014 5462665 5449103 5529564
999.92 5714194 5919698 6259558 6575647 6851799 7166323
1002.81 7481460 7732227 7933844 8076525 8203722 8326537
1005.70 8529236 8784736 9118194 9443645 9779222 10060096
1008.60 10283781 10399699 10403222 10250889 10002096 9674634
1011.49 9366834 9071538 8983236 9128479 9505168 9995127
1014.38 10444199 10761281 10890022 10723010 10243356 9418311
1017.28 8363234 7278779 6322080 5480173 4791802 4233983
1020.17 3788836 3375270 3025508 2720409 2455333 2201982
1023.06 1997427 1821649 1704987 1580489 1484795 1409155
1025.95 1386342 1337930 1301250 1263184 1266226 1252998
1028.85 1270707 1270572 1266013 1257256 1287809 1312339
1031.74 1363530 1370354 1382897 1406575 1438192 1436847
1034.63 1474890 1531724 1615051 1653366 1699420 1738391
1037.52 1809449 1875128 1994324 2129089 2239405 2257414
1040.42 2274607 2250294 2284062 2388547 2559523 2752281
1043.31 2987271 3212501 3444445 3634741 3749810 3817800
1046.20 3965269 4082927 4253229 4493796 4848421 5187048
1049.10 5616367 6079330 6602786 7122527 7724517 8381938
1051.99 9116444 9889259 10784044 11776923 12876109 13968093
1054.88 15191116 16561877 18200949 19827822 21398771 23056657
1057.77 24958331 27200555 29776261 32148125 34209430 36392856
1060.67 38974431 41792151 44820176 47916085 51083762 54123448
1063.56 57075264 60153637 63488785 66735681 69791346 72521903
1066.45 75121260 77486238 80019760 83514579 87599692 90127957
1069.34 91907159 95888814 103736386 114262532 123769083 126785639
1072.24 125496129 126310933 132856356 143199262 149241360 139336149
1075.13 121538733 115165660 120548727 130513026 142109242 155082937
1078.02 168958383 183405090 198196552 213552772 229414148 245625808
1080.92 261700642 277871770 294625480 312452606 331510457 351981507
1083.81 373158575 394948726 417112278 439228321 459515968 476190338
1086.70 487066206 490816376 488320014 481621745 473375072 465453727
1089.59 456281922 437206975 398357425 348443306 311920053 303497671
1092.49 313910202 330564026 348276477 363223633 372502563 374884589
1095.38 369294458 355388051 334682761 309081242 280858753 251985960
1098.27 223930936 197797422 174190695 153103977 134608191 118713546
1101.16 105029691 93242639 83390409 74980648 67632577 61244291
1104.06 55734229 50970347 47025312 43808783 41087838 38549734
1106.95 36166503 34047737 32291182 30768863 29386941 28136050
1109.84 26960640 25863064 24916517 24001208 23015257 22098003
1112.74 21334747 20623898 19903050 19103668 18322384 17514347
1115.63 16738771 15928843 15166097 14411287 13637652 12804819
1118.52 11958638 11101105 10249508 9357168 8507801 7718453
1121.41 6988977 6304945 5686578 5098596 4570829 4082022
1124.31 3645750 3239706 2888370 2557585 2274517 2015805
1127.20 1802624 1604978 1439837 1276780 1148457 1031012
1130.09 939527 834992 752888 670009 610653 530603
1132.98 474635 417628 382575 342068 342435 307527
1135.88 294833 270292 274165 276671 266567 233150
1138.77 235030 225019 223409 216634 205289 182899
1141.66 189389 193906 204396 201322 191915 184715
1144.56 207916 199558 205363 203298 191143 168081
1147.45 164996 149007 144350 178777 210622 186655
1150.34 189986 167897 172360 173449 186897 167792
1153.23 161637 157586 138143 121604 148728 148884
1156.13 146242 134802 146930 130797 110920 80190
1159.02 80868 81397 113682 117335 81955 43421
1161.91 57006 53808 62059 42272 46821 37507
1164.80 47370 42134 58417 37845 27762 24132
1167.70 38741 16411 21401 24984 21299 2274
1170.59 31508 47806 46980 32353 41967 21400
1173.48 13990 10356 32029 21306 34276 26304
1176.38 37572 41870 44373 31353 32861 31759
1179.27 60875 54729 51122 62852 92443 73153
1182.16 76409 67831 66548 63450 91967 110166
1185.05 131125 124495 149723 131954 136662 148859
1187.95 167158 187664 220778 198432 203131 203296
1190.84 207337 191402 202123 189921 192152 215087
1193.73 254669 238837 244775 247490 250159 224137
1196.62 242997 243261 262951 237328 237038 257564
1199.52 276153 258761 275501 265511 272627 275119
1202.41 288954 278848 294830 290902 293913 299123
1205.30 310929 294058 306435 311618 322096 308078
1208.20 313198 283651 299429 315857 341162 337367
1211.09 370315 382568 411551 411038 416196 417356
1213.98 455195 475432 502909 502018 505199 486672
1216.87 496485 497973 516121 500842 525113 522104
1219.77 536135 530449 547819 537721 559814 574919
1222.66 603524 614436 652496 686035 745281 783723
1225.55 840286 890055 973270 1032177 1114348 1177482
1228.44 1283695 1363717 1461843 1538394 1639683 1735063
1231.34 1857224 1950759 2069383 2155024 2269308 2381198
1234.23 2528769 2665622 2817222 2929386 3067302 3204333
1237.12 3383462 3527513 3683928 3801242 3947541 4064078
1240.02 4223132 4382306 4554433 4645772 4768700 4893437
1242.91 5012489 5096744 5192291 5249196 5330040 5372407
1245.80 5429188 5449234 5498044 5540286 5586934 5579569
1248.69 5548922 5422341 5350074 5332862 5345090 5329296
1251.59 5199171 4878666 4656923 4456579 4258658 4117956
1254.48 4048731 3754017 3399124 3045074 2713602 2387565
1257.37 2152271 1932428 1770173 1585801 1448432 1309252
1260.26 1237165 1130805 1066731 983755 938212 893516
1263.16 901816 864213 851061 802257 787420 762476
1266.05 766612 741632 742441 708432 694417 648097
1268.94 621205 592681 602744 565780 578056 552183
1271.84 555278 533136 522750 500135 519557 480330
1274.73 473436 425331 403896 361424 347794 303817
1277.62 297039 261339 260935 248347 242212 217603
1280.51 260901 239789 239467 225972 256852 260508
1283.41 297448 289092 309389 295267 324869 300166
1286.30 313870 285091 294527 274218 292033 293999
1289.19 349248 344358 378492 379542 420429 387227
1292.08 381357 344026 357446 341760 360488 334799
1294.98 370871 375613 379716 334203 353044 352590
1297.87 373061 362027 392452 378896 416645 397067
1300.76 402771 384417 402038 364378 381088 379801
1303.66 422447 384991 401478 381503 404198 404268
1306.55 452789 445234 453097 427607 471981 461109
1309.44 492422 453938 467307 435676 455283 430488
1312.33 460478 416734 383973 338222 365187 317491
1315.23 312543 261156 295943 291052 337160 328209
1318.12 363509 353559 392955 364235 386672 369423
1321.01 417844 387653 409843 360301 363945 322711
1323.90 356428 324438 314402 253950 280407 246872
1326.80 262474 217034 256326 215022 218726 173899
1329.69 212020 180934 207208 158948 187728 172855
1332.58 208006 171684 196403 164503 219547 198603
1335.48 244166 201549 235299 210658 240494 180573
1338.37 212301 170602 202153 145806 188117 142824
1341.26 166188 141997 186337 122792 165618 125845
1344.15 181264 141482 162395 90330 135335 96600
1347.05 171960 110056 137992 70830 104774 27951
1349.94 90978 36880 51928-17025 58336 11066
1352.83 78180 95674 175503 145531 270456 242493
1355.72 365295 359335 380278 289691 370406 376472
1358.62 476021 448542 603586 612932 784486 838352
1361.51 1090609 1168789 1454279 1679791 2220674 2566746
1364.40 2889155 3045991 3527379 3917041 4613244 5153204
1367.29 5937136 6598654 7550318 8344072 9451319 10366129
1370.19 11557068 12552392 13893726 14956270 16313253 17426200
1373.08 19040279 20751151 22126199 21804843 22257087 22469720
1375.97 22662941 22315202 22354158 21652362 21185456 19927627
1378.87 19239129 17946822 17203250 14955825 13688377 12136049
1381.76 12946820 16167105 30712844 74934675 161893599 166740185
1384.65 76837023 50567244 41592100 24031504 14559314 13037714
1387.54 13498873 15644332 17460936 20185790 22253655 24751438
1390.44 26438969 28277684 29290612 30400387 30615060 30738560
1393.33 30055132 29344898 27948714 26579765 24644266 22867689
1396.22 20693983 18773608 16603256 14770012 12752253 11101758
1399.11 9437377 8175180 6849444 5903232 4922151 4301265
1402.01 3608434 3246930 2803165 2636454 2346133 2276491
1404.90 2108962 2171163 2111842 2240807 2235189 2399335
1407.79 2460431 2714069 2817807 3077969 3209263 3512955
1410.69 3698598 4019865 4226948 4568448 4792044 5152049
1413.58 5398889 5753189 5982436 6334413 6558182 6865831
1416.47 7037680 7299140 7409888 7589723 7611306 7713077
1419.36 7710637 7790066 7731397 7780598 7735787 7776040
1422.26 7788077 8089482 8353577 8917864 9584642 10014094
1425.15 10684925 12328731 12640788 11514651 11757194 13817320
1428.04 14013949 11448380 9758003 9108011 8213592 7825072
1430.93 7684644 7779399 7946481 8246886 8484590 8787587
1433.83 8997628 9300504 9560811 9908394 10172462 10527363
1436.72 10898696 11389189 11815795 12343168 12842535 13462620
1439.61 14056640 14743994 15323463 15953336 16504272 17127910
1442.51 17682272 18235270 18568718 18866406 19027254 19161246
1445.40 19112781 18925371 18488030 18073697 17591799 17185132
1448.29 16683569 16281126 15846971 15517942 15218741 14785732
1451.18 13987164 13779032 14518196 17097056 21944145 27944437
1454.08 32662410 34973485 34459860 32168685 29325523 26061685
1456.97 22647805 19378379 16632430 14691349 13462004 12699209
1459.86 12279106 12224599 12331641 12550118 12775994 13020134
1462.75 13204421 13380314 13420131 13358666 13209395 13063200
1465.65 12803763 12488040 12047219 11563514 11004709 10446905
1468.54 9827628 9232988 8611499 8029802 7406020 6792041
1471.43 6156094 5655560 5167853 4688005 4250040 3903399
1474.33 3528654 3186109 2826932 2550351 2286903 2061333
1477.22 1821333 1650354 1469848 1338080 1178400 1062505
1480.11 941894 869943 772212 704032 617493 570445
1483.00 507490 480962 428838 408286 373765 361818
1485.90 308966 293960 250124 255862 237167 233418
1488.79 198421 200844 191795 187300 165994 194665
1491.68 169348 166664 138801 154838 146042 142856
1494.57 103743 106160 39446 50335 88053 111066
1497.47 86774 80637 47335 81812 90725 95428
1500.36 71359 75204 56435 71976 52778 49601
1503.25 35090 48272 7843-50899-94655-33299
1506.15-70420-92582-48132 232-15071 13632
1509.04 16006 31984 14966 27161 24799 21281
1511.93-10137 16017 24830 40798 16590 12712
1514.82 966 11383 6647 20224 1704 21693
1517.72 31142 40839 18668 20034-14283-22504
1520.61-78423-40984-6023-11709-7639 27942
1523.50 20790 32048 10550-6475-1649 36423
1526.39 21536 34466 28536 23847 21263 53854
1529.29 36698 45478 38220 56896 42195 45974
1532.18 27337 13471-12434-4154 9316 30910
1535.07 29135 45011 34593 37359 34159 29928
1537.97-32435-113699-99095-46952-64795-8709
1540.86-3634-43718-65086-2786-784 19414
1543.75 14181 8728-18864 4806 11269 31767
1546.64 31375 36008 19035 30879 15192 880
1549.54-14406 10816 10538 8510 2858 24709
1552.43 22244 13909-39594-59042-18473 17783
1555.32 7388 20801 996-37296-71564-102946
1558.21-117286-31978-53800-114765-84315 1719
1561.11 9027 18845-943 6262 8569 28334
1564.00 7643 16959 35845 70001 34743 3035
1566.89-14901 8275 17148 16594-28204-37542
1569.79-10341 28766 18948 20647 2825 5718
1572.68 4979 17183 7317 10724-19152-50926
1575.57-122600-60766 883 12171 6063 27914
1578.46 29248 33632 39320 36786 7711 34688
1581.36 43846 68134 63137 57992 52194 60421
1584.25 35391 50731 51438 57007 37356 30795
1587.14 34691 58501 48301 51113 41484 46586
1590.03 35578 54670 46136 47835 41137 50336
1592.93 48880 63573 47173 53338 45421 57639
1595.82 45313 46826 33708 35525 31690 38271
1598.71 22818 38483 28903 19540 7119 14431
1601.61 19816 30658 8046 8673 14008 14759
1604.50 949 26615 16527 6735-14266 1106
1607.39-6640-3577-10489 6691-5302-9535
1610.28-23412-6068-11726-2423-20762-19265
1613.18-15918-4455-16975-15576-34550-62824
1616.07-154648-114237-51357-38776-43705-38988
1618.96-19727-838-15148-9242-32578-41775
1621.85-41127-28669-69271-63645-39363-39606
1624.75-40580-13078-17101-4525-6730-17308
1627.64-28734-16830-31810-21428-24788-22154
1630.53-33579-17830-6323-1942-5784 4578
1633.43-13664-22941-72321-117359-108419-47613
1636.32-43146-36299-40261-16776-30091-35411
1639.21-43437-19732-19730-12234-24462-14307
1642.10-12168-7784-14480-11125-20732-24059
1645.00-76045-110466-61266-20468-42592-34515
1647.89-48268-31209-10717-464-30425-11508
1650.78-6958-40120-139863-172430-191844-113987
1653.67-55609-48130-24679 8011 19158 21997
1656.57-353-7 17464 28584 10558 12794
1659.46 17634 27157 17866 26508 24778 13508
1662.35-1907 17265 29147 34182 29925 40263
1665.25 31954 32348 50299 65336 54513 44049
1668.14 15539-3536-11404 28700 29311 20581
1671.03 12226 31137 30658 46797 43671 48957
1673.92 29849-14221-32418 17925 28860 47383
1676.82 58786 72571 54201 44896 46181 59144
1679.71 66327 75873 63156 67605 68866 67668
1682.60 49991 53633 35553-36433-60670 57156
1685.49 101232 97774 81530 100865 107788 124804
1688.39 129174 143703 126423 129589 128584 142606
1691.28 133626 152589 160376 169688 158708 167617
1694.17 162882 128922 17849 12299 121526 163419
1697.07 139203 127928 131542 144646 85032 24268
1699.96 17807 69924 138416 175657 169577 172666
1702.85 161438 166605 156420 164149 191868 217181
1705.74 198180 191667 194767 230464 236584 209214
1708.64 195683 212255 202310 203877 207375 223477
1711.53 240472 241202 238846 256212 256352 279153
1714.42 267776 292649 346167 367303 306575 250567
1717.31 339963 378033 313585 327431 333298 329553
1720.21 325795 347334 357857 370491 373555 394592
1723.10 406014 418614 411570 416014 419453 422395
1725.99 409400 412418 412963 437302 434732 418773
1728.89 409290 443820 460824 442305 422970 440920
1731.78 437519 416261 325700 306482 284236 268476
1734.67 326629 359489 346985 349496 330318 313596
1737.56 305329 299337 284687 254617 232827 262717
1740.46 269178 288394 322487 379377 402289 393360
1743.35 371363 338451 295607 274043 250007 221548
1746.24 185008 168633 171878 176175 150826 161251
1749.13 172729 173653 150132 120512 107095 134703
1752.03 139091 143300 138246 136413 126315 122707
1754.92 115361 117109 88543 77117 90246 106545
1757.81 92442 105889 107793 100343 92642 86146
1760.71 63870 41238 55271 88264 83506 88383
1763.60 88589 99310 98667 98264 94505 103519
1766.49 106365 105575 76773 90827 110654 118328
1769.38 111870 117710 114845 109987 121254 97906
1772.28 60074 118031 155155 163955 172754 188318
1775.17 187592 208669 229326 243312 242019 260842
1778.06 282147 287445 286861 315661 334201 356499
1780.95 374091 404337 417576 431554 443560 477456
1783.85 492209 506385 536437 572505 577906 602810
1786.74 628128 665752 689531 707069 725685 758194
1789.63 766081 761184 754004 786591 782386 754960
1792.53 784598 843215 854410 861134 856925 857237
1795.42 849676 852914 855837 847023 823104 809082
1798.31 793625 769374 729725 711930 676324 651651
1801.20 646623 623122 579263 568715 533486 492936
1804.10 436776 404097 379200 348676 304506 284692
1806.99 264789 254500 233836 224538 223617 218506
1809.88 192400 188656 179564 163336 159343 179604
1812.77 183950 179272 180282 182569 176997 182564
1815.67 182487 196751 186724 181306 170848 173149
1818.56 173483 178006 184273 189599 179131 176070
1821.45 167852 168882 158338 161130 145214 126090
1824.35 115462 118245 123832 132984 120854 117508
1827.24 110079 107620 95144 96214 88980 91682
1830.13 97219 109983 103562 96164 91035 96769
1833.02 83166 84732 83925 94491 86637 80642
1835.92 74073 67877 52005 53695 45655 42960
1838.81 43565 52516 44036 41008 28297 25931
1841.70 21951 27437 20544-2467-48281-35568
1844.59-11909-3430-3867 486 4354 1875
1847.49-11931-2579-8049-11689-22101-19297
1850.38-25404-15677-7328-1772-3115-9411
1853.27-26850-21649-23536-24662-30968-16357
1856.17-15236-12408-14855-11525-14882-21471
1859.06-22649-18755-25458-19366-21329-12568
1861.95-17981-21544-22956-23552-24669-15367
1864.84-18003-22584-25933-11249-17944-23025
1867.74-26021-32961-44659-32391-31946-31966
1870.63-30897-6695-8028-25025-28405-12355
1873.52-15093-11099-4958-2949-10196-2421
1876.41 1083-7221-26468-11138-7490-11319
1879.31-12477-11478-12777-12402-20857-13129
1882.20-1593 6724-12266-5249-2301-2029
1885.09 8607 18950 6497 6881 10372 23347
1887.99 20105 21097 13076 12524 9581 32209
1890.88 38328 38301 40864 51259 42359 55109
1893.77 70563 85879 77229 77890 86693 109637
1896.66 105142 104416 121574 154670 161326 161153
1899.56 164521 172226 172142 179551 178853 174803
1902.45 162664 166028 174334 181252 170809 178391
1905.34 205467 244905 277878 273830 257655 326646
1908.23 398552 419720 342615 315462 394817 434338
1911.13 284948 142859 120328 142898 146919 156495
1914.02 166037 167571 179750 198929 207225 220560
1916.91 209110 195431 192955 195733 180974 176496
1919.81 168337 166939 169229 156862 134017 119126
1922.70 101235 99373 83476 96638 102275 95529
1925.59 81832 78582 75907 85357 87638 102195
1928.48 96196 80213 71259 68683 47547 44859
1931.38 41184 42556 39714 56166 80229 116809
1934.27 124649 122170 99355 82031 60126 51277
1937.16 52769 47609 35660 50380 54548 62580
1940.05 62734 60980 57249 65358 45360 45396
1942.95 53873 53896 44543 44129 38005 37898
1945.84 41555 39758 33810 39709 33855 24461
1948.73 17275 30351 47001 69253 76385 77299
1951.63 61394 47317 31459 28513 26982 28322
1954.52 28873 33047 37558 47384 43208 35863
1957.41 33527 44340 43021 49294 41874 41827
1960.30 39597 39610 29568 26532 34699 48309
1963.20 40589 34399 33812 35314 28029 16377
1966.09 18225 27893 32494 33792 23635 26087
1968.98 21339 22325 31045 24953 15861 27674
1971.87 33848 35399 44274 55639 56601 32611
1974.77-2656 2857 15100 31255 24654 23784
1977.66 19206 25984 26375 28824 23927 24186
1980.55 17510 13182 16475 27690 22797 20333
1983.45 7413 7654 5636 1629-6707-6352
1986.34-5697-6891-2122 5559 1883-3340
1989.23-6209 269-12548-12010-22877-18173
1992.12-12924-19493-17865-8191-13265-18819
1995.02-20736-1211 8606-4570-21793-13504
1997.91-13016-14797-14699-15645-22331-24629
2000.80-22324-19657-23744-19229-22827-21704
2003.69-15148-3676-6163-5974-27728-31475
2006.59-20806-14038-22186-19573-18328-7584
2009.48-18525-34472-35485-20033-21880-21135
2012.37-14422-4337-10516-10061-19853-18031
2015.27-17444-21857-26830-21677-19419-5898
2018.16-5916-9021-15094-8180-4146-810
2021.05-623 6912-3571-10744-8612 184
2023.94 4836 7387-2341 1818-1005 8439
2026.84 3629-2878-6063-2256 5200 9320
2029.73 2654-2114-6999-2623-3573 5853
2032.62 24952 33530 20406 14300 991 1875
2035.51 2615-1519-6550-7139-9324 3643
2038.41 6044 7777 6090 3342-6235-1416
2041.30 2209 7631-1847 11482 21152 1058
2044.19-17540-14427-16976-8687-1751 2841
2047.09-2206 5877 17636 17828-5763-9264
2049.98-5684 1923 4415 5017-2281 4748
2052.87 1994-408 5914 6053-2029-1479
2055.76-9381 359 6824 3033-4866 5656
2058.66 10027 5739 2393 8253 8854 6867
2061.55-216-5071-3516 9614 1109 554
2064.44 14529 21224 9864 14496 16326 15090
2067.33 15879 11914 1194 8243 4972 24012
2070.23 40554 37931 38335 44147 26270 27999
2073.12 43614 47047 34803 44183 49467 59228
2076.01 56751 48416 24815 26252 41287 44489
2078.91 42611 56859 61291 60862 48390 26467
2081.80 18716 52004 70645 66343 49580 56263
2084.69 74701 79125 50843 58149 83563 83069
2087.58 74506 88219 97176 105186 95679 96960
2090.48 112462 126757 139783 159408 170086 183056
2093.37 181818 184256 177595 207946 234342 255969
2096.26 283916 305009 314355 340180 348638 358753
2099.15 410230 463198 504545 541665 569692 607286
2102.05 630867 636693 677538 748737 785678 821704
2104.94 855578 901221 919072 912962 893210 934849
2107.83 969435 982167 987934 1018287 1037092 1045604
2110.73 1029129 1040625 1108461 1144895 1156174 1151868
2113.62 1127759 1093570 1053521 1004502 1009788 1023382
2116.51 1020015 1032577 1056434 1084171 1094476 1081404
2119.40 1114171 1208568 1253671 1282159 1308441 1360202
2122.30 1409788 1414940 1435196 1522427 1599007 1666884
2125.19 1721776 1789426 1839883 1847128 1822404 1874269
2128.08 1933288 1966064 2019235 2089306 2154132 2235564
2130.97 2283157 2296884 2257810 2235654 2251037 2270628
2133.87 2281946 2310925 2357507 2489311 2684849 2902536
2136.76 3117311 3231018 3107667 2748972 2241911 1894303
2139.65 1727561 1650218 1615366 1617622 1633440 1654252
2142.55 1672112 1696779 1712340 1689721 1627498 1547077
2145.44 1424534 1280757 1141576 1020010 908264 828302
2148.33 753351 704357 695817 681295 643816 642551
2151.22 640678 633803 619467 611349 601861 581760
2154.12 559847 574413 570362 563918 561828 545689
2157.01 506366 449405 398063 385280 374991 364109
2159.90 331434 303759 273635 212524 205123 244594
2162.79 234042 212509 191314 178033 121778 80089
2165.69 97101 111325 99948 82493 63106 48219
2168.58-8381-2979 37321 45566 27212 15492
2171.47-6413-48698-51118 12201 34014 39539
2174.37 48345 58147 22871-19666 20830 74884
2177.26 62467 56175 82275 53205-27063-2270
2180.15 50668 41017 31762 37130 18118-14583
2183.04-263 30126 36008 44969 37159 15093
2185.94-39201-29899 5824 2566-12360-17697
2188.83-39722-73831-75783-49073-52077-55630
2191.72-58685-71626-122884-125541-101374-99787
2194.61-89180-83748-103427-121474-105822-80388
2197.51-81512-98849-106412-108754-116039-87943
2200.40-88169-97718-102003-96857-104743-101773
2203.29-81556-79506-94966-88119-80686-93733
2206.19-98142-83085-66032-60004-75752-77934
2209.08-82305-68519-65118-76104-87540-81101
2211.97-76082-70216-76602-65976-56597-58505
2214.86-64119-61100-53606-43650-43946-58519
2217.76-76475-75663-57626-50327-53846-41889
2220.65-34435-37022-38681-40705-47362-51568
2223.54-58305-59917-52481-39990-51878-64017
2226.43-57953-33682-32226-37259-44936-42498
2229.33-59641-50291-33602-32860-27990-24191
2232.22-30543-29772-34139-34496-31794-22843
2235.11-29687-38946-36821-38651-33938-17024
2238.01-15238-17229-37908-45818-35266-19957
2240.90-11745-4291-27714-25841-8657-16100
2243.79-29613-16483-11507-12896-17570-17872
2246.68-25421-28766-19544-4840-7617-3277
2249.58 2455 4199-13336-9519 11730 9249
2252.47-8192-1836-4161 4424 9338 8432
2255.36 9126-292-15572-13097-9553-5378
2258.25-10195-14368-12472-216-4029 7915
2261.15 7118-5674-2546 6580-6534-7287
2264.04 15962 17271 1928 1680 5940 14321
2266.93-4777-17593-7697-7862-28335-19655
2269.83-5945 15890 17861-1983-27820-32543
2272.72-23745-5504-9438-15139-13021-3743
2275.61-10859-8573 5814 3706-19540-25308
2278.50-22763-18231-19742-14907-13951-18694
2281.40-14870-12303-20019-17564-26533-16742
2284.29-8972-21128-17722 525 3522 1797
2287.18-18744-22108-22019-17004-14156-11389
2290.07-21780-21871-15175-7774-7838-2558
2292.97-4050 2118 1739 6246-2074-10396
2295.86-16009-8758-6818 1403 5952-3403
2298.75-14578 1570 6065 2448-11433 1753
2301.65 9559 15177-5130-10351-18006-20
2304.54 428-6259-7365 18352 40021 18872
2307.43-6739 7214 33382 13769-18550 2195
2310.32 44815 74770 26819 11882 55934 104740
2313.22 35229 7482 46821 135063 80099 37226
2316.11 63846 170491 126966 31696 48188 186947
2319.00 154883 46875 63355 229209 203180 63993
2321.89 91620 273561 235040 54369 96933 320475
2324.79 268231 69424 153399 384030 294683 68644
2327.68 193160 420505 266214 58130 278515 486736
2330.57 249283 94417 370483 477869 171203 142839
2333.47 470206 432798 124954 261715 530637 312364
2336.36 128412 409758 481563 150639 180283 489436
2339.25 334700 101201 347682 468166 192096 185331
2342.14 394713 255806 104143 261321 273456 93973
2345.04 152143 245008 128828 82002 146698 115439
2347.93 47577 31007 55218 84313 73142 97490
2350.82 185582 150829 120427 278153 249711 154201
2353.71 346610 333970 178912 389161 396747 222368
2356.61 455126 435120 245998 512261 440388 276808
2359.50 557745 416593 331957 584392 340533 375914
2362.39 566826 305289 453738 485898 305149 499204
2365.29 353004 324237 440138 248049 370570 327031
2368.18 246043 344172 215256 279075 233618 209946
2371.07 239592 144615 197039 138471 148816 132602
2373.96 110998 106175 80678 105788 62265 68362
2376.86 63352 64406 36868 27150 22189 32907
2379.75 17827 24028 28371 8883-11048 1191
2382.64 2009 60-3992-3600-2525 13119
2385.53 7390 30 962 1470 984 9573
2388.43 4320-3212 2952 3783-5430-1421
2391.32 5074 6353 8828-240-6785 12539
2394.21 19648 11496 7553 17549 15683 7578
2397.11 8241 16513 12180 21413 21102 13205
2400.00 15149 27520 16492 11572 24583 35105
2402.89 25557 24505 16921 15679 21348 33444
2405.78 33168 31752 25328 12968 23901 41852
2408.68 50709 47813 30095 43878 47639 49533
2411.57 54207 52357 64794 71191 52135 57024
2414.46 69982 82825 79738 72879 89023 105352
2417.35 119848 121635 118900 129683 126052 137970
2420.25 147227 153385 174516 203186 218871 228903
2423.14 241288 253764 262411 295154 317383 319983
2426.03 334725 357704 388311 411213 417959 448427
2428.93 491861 514656 544430 593289 634784 673864
2431.82 720623 763495 786239 831737 889595 940995
2434.71 983396 1015091 1062695 1132365 1187229 1249131
2437.60 1302676 1361183 1429545 1509394 1586859 1655303
2440.50 1736581 1839903 1944292 2038403 2120630 2235677
2443.39 2402081 2559342 2653391 2711707 2744027 2785203
2446.28 2858654 2988022 3129446 3202812 3182048 3205145
2449.17 3468302 3962738 4483622 4773233 5012581 5429496
2452.07 5566691 4681736 3286847 2516135 2325680 2348507
2454.96 2425900 2526005 2624057 2724313 2802616 2865190
2457.85 2888870 2885389 2860650 2791813 2667859 2548247
2460.75 2413217 2260070 2093790 1912519 1749753 1620680
2463.64 1491108 1385621 1315525 1267473 1225154 1196366
2466.53 1152549 1117580 1087173 1058504 1017937 967845
2469.42 900704 837642 779382 722659 642378 593235
2472.32 579455 565288 543620 527897 516445 509861
2475.21 501550 487521 467611 452974 424548 395140
2478.10 358514 335687 314376 297915 281278 255281
2480.99 225827 220200 212706 213675 212210 206444
2483.89 190587 188955 191373 187632 186701 191330
2486.78 199971 209271 196258 192112 194440 202482
2489.67 187781 190360 198791 196458 196011 212319
2492.57 209869 197526 180681 170395 182165 201582
2495.46 210965 228910 225045 229886 225640 209009
2498.35 212606 230493 221301 225695 235312 235897
2501.24 232371 237324 233109 241196 255493 267981
2504.14 279896 297316 291971 279494 280969 302322
2507.03 323358 332363 330269 328584 325923 328539
2509.92 319478 321537 335689 344419 339139 332851
2512.81 330197 326222 318824 305269 301503 302065
2515.71 297785 311654 314636 313710 309835 309323
2518.60 316798 312490 311747 322451 317204 297673
2521.49 288890 293118 281134 274860 273845 262561
2524.39 250173 252115 236273 229054 232629 237155
2527.28 240520 230915 233061 239343 226700 213807
2530.17 212601 226161 228097 215249 212111 224266
2533.06 237425 243134 235133 240626 244907 244690
2535.96 249874 267045 264354 254864 254468 256487
2538.85 262610 280348 270462 244925 221460 235739
2541.74 247866 250981 243065 237777 235499 233163
2544.63 227900 226062 224880 223175 225015 226069
2547.53 221274 220341 212361 202188 194131 187703
2550.42 182824 179493 171735 175138 179186 169603
2553.31 161189 147110 134346 141527 142300 131006
2556.21 139747 144409 121265 103739 99608 107058
2559.10 108347 110630 91416 88338 81034 83006
2561.99 71876 62712 59563 57783 36001 22429
2564.88 23051 32069 32073 18081 7020 15149
2567.78 7592 1533 6971 16885 14584 20440
2570.67 3570-13233-11192 3344 14850 7713
2573.56-973 1964-9298-12429-6507 8295
2576.45 2437-14069-27596-23502-16559-8385
2579.35-13400-2373 3916-5639-13164-1790
2582.24-13084-8329-5919-14740-25819-22949
2585.13-26684-27175-22033-24919-13028-3888
2588.03-16396-9421-19102-34567-30918-17915
2590.92-16233-24361-22978-4992-21123-28593
2593.81-19840-15340-19584-14291-6558 3913
2596.70-6944-12161-22009-29239-25050-8945
2599.60 3581 1168 13787 13225 474-6301
2602.49-5993 5743 284 1500 6370 8190
2605.38 20412 29960 25581 27341 24992 12236
2608.27 4644 11081 3195 3950 12508 10299
2611.17 6787 16265 6114-610 3824 10123
2614.06-3851-2076 14225 15024 3091-6714
2616.95-13305 551 4470-6786-18323-25469
2619.85-21879-19991-18989-14138-5689-12081
2622.74-19227-17324-11528 23-7012-8664
2625.63-4956 824-2945-6789-17051-9511
2628.52-9103-11260-20217-24458-16685-10542
2631.42-10836-8686-3250 1464 7279 253
2634.31-32043-24195 1617-7345-22211-13582
2637.20-15069-3462 3360 4409-1900 564
2640.09 7620 3033-2981 15757 20621 14698
2642.99 1472-8631 13776 43186 24910 14961
2645.88 9135 10238 10490 13317 10744 22130
2648.77 35790 37124 38787 36159 38593 53294
2651.67 45473 55727 75427 70693 51936 54191
2654.56 46860 70138 76613 82775 86628 86909
2657.45 78605 86164 85346 89312 108263 119592
2660.34 118407 119035 116910 107017 92436 112948
2663.24 120766 115769 113690 114057 121999 128950
2666.13 138490 153656 159934 156041 151007 168394
2669.02 191661 184124 164898 147683 128554 118483
2671.91 137972 136024 112542 104138 106094 107448
2674.81 91070 91786 102228 99538 93309 95584
2677.70 82495 78243 71056 67541 70811 63993
2680.59 59057 61963 56219 43828 37175 26008
2683.49 26741 34210 19522 28959 21291 3958
2686.38 8745 18893 9100-153 8763 11471
2689.27-7826-5485 2872 7753-17041-17871
2692.16-1432 7284 6839-6659-18035-27228
2695.06-22088-23556-36438-20345-23732-32082
2697.95-21086-13754-30606-31290-31048-38477
2700.84-41069-19910-15556-22882-20934-10969
2703.73-12764-16542-9918 3924 4820 8541
2706.63 22826 23824 2938 1117-1032 1310
2709.52 10719 13154 12064 12117-1197 10974
2712.41 7217-26142-42482-22420-16601-46486
2715.31-65076-35504 1277 6032-11015-18080
2718.20 1000 7900 2268-4775-26284-26973
2721.09-27152-32718-27645-24097-13018-16460
2723.98-17463-2921 5531 11478-10949-15803
2726.88-21005-31192-25817-30124-30125-22536
2729.77-27657-31142-31869-23894-32842-30488
2732.66-29250-28666-10378-7097-19862-8318
2735.55-16787-19404-24069-34157-30979-4006
2738.45-6806-31432-33170-9377 3265-424
2741.34-11160-11281-13087-30136-57521-51712
2744.23-26239-30530-52282-42059-47425-47231
2747.13-18828 29816 85466 110563 37769-17874
2750.02-19707-3969-2197-23939-56884-33943
2752.91-11259-10889-19572-16631-3647 7884
2755.80 1754-7471-7307 4359 1891 5624
2758.70 9595 26895 33565 34307 41333 43037
2761.59 15994 20203 26512 35221 13125 1953
2764.48 8484 18455-978-25295-73475-126442
2767.37-177333-198931-166071-72776 8134 25755
2770.27-6741-9287 17402 57062 62486 50735
2773.16 45471 46905 38907 40938 37271 32479
2776.05 27155 24991 33835 35811 22723 14814
2778.95 17420 23325 8290-10571-8479 11960
2781.84 4518 6189 18263 34663 13236 646
2784.73 12373 16623 12964 13683-4694-10330
2787.62-11144 17110 32139 7043 6600 20984
2790.52 31039 45315 55481 62772 63831 92243
2793.41 92903 97605 90252 91978 96456 109212
2796.30 133349 151950 155454 157062 164439 166677
2799.19 177197 199206 197439 208184 221823 222767
2802.09 219305 230119 227865 223448 241249 264966
2804.98 250291 261698 298649 310687 293992 289241
2807.87 290826 339114 367202 333351 285926 279974
2810.77 292805 299850 302699 310939 321740 329789
2813.66 347498 376058 398741 408602 410250 431234
2816.55 451660 470307 473204 479832 499068 526287
2819.44 541540 558776 582958 601495 601414 609708
2822.34 622723 616620 606376 596482 590200 599782
2825.23 605521 616140 624611 664522 694675 700440
2828.12 731671 807224 828821 808334 727133 646112
2831.01 580665 551754 547068 570963 606842 639834
2833.91 680817 718761 735661 745987 738697 735487
2836.80 732246 701924 650055 609458 553340 515394
2839.69 506769 517393 534131 536831 554462 589972
2842.59 599086 607318 593202 577222 580291 599736
2845.48 606202 618572 611572 592593 574312 568447
2848.37 591760 650555 675188 664150 643581 648470
2851.26 653691 671217 684132 707609 704451 691586
2854.16 696092 732346 754835 748718 763722 812231
2857.05 857838 893928 908760 922560 938516 972642
2859.94 1003593 1018736 1010806 1040482 1071591 1103120
2862.83 1118127 1160718 1176268 1205684 1233295 1280283
2865.73 1339239 1373711 1384691 1410938 1440353 1462662
2868.62 1498812 1527013 1526802 1515860 1504172 1471323
2871.51 1449704 1473477 1465330 1455697 1446543 1429650
2874.41 1403786 1383533 1331782 1308993 1311591 1304018
2877.30 1284397 1272066 1270213 1283798 1277872 1276072
2880.19 1268147 1256722 1249321 1249806 1232702 1219939
2883.08 1192747 1213942 1258203 1266032 1242383 1240526
2885.98 1201306 1159167 1158072 1180330 1202620 1206945
2888.87 1175060 1150827 1172593 1189369 1214804 1254861
2891.76 1226541 1206939 1208174 1231412 1272258 1281071
2894.65 1252320 1241592 1211233 1197769 1174670 1146824
2897.55 1127337 1103011 1049401 1014490 976513 952608
2900.44 947338 935493 926282 938461 917588 906336
2903.33 866791 843607 825603 820690 794419 743101
2906.23 710311 693050 660662 652034 626294 614337
2909.12 589780 560217 531213 520027 506990 490904
2912.01 449961 421845 404261 404146 380624 375683
2914.90 345012 320421 287144 283124 244848 238288
2917.80 238634 226674 188661 179627 160654 150804
2920.69 147066 169461 156811 148210 108494 109620
2923.58 113986 128865 127990 138145 121471 130395
2926.47 130781 169360 196370 243088 269891 313439
2929.37 371369 449170 495526 584615 679836 830604
2932.26 991043 1162150 1330568 1566738 1788677 2074267
2935.15 2373309 2694499 2994490 3361176 3720344 4093634
2938.05 4437115 4820242 5152970 5494010 5738338 5967573
2940.94 6100651 6229996 6242986 6267481 6193149 6121911
2943.83 5970139 5750971 5254645 4760403 4286202 3958259
2946.72 3564892 3483078 3648484 4690302 7993735 15187974
2949.62 32825353 51257643 33143408 10170804 4433326 3247880
2952.51 3103293 3224593 3693256 4119338 4674341 5114727
2955.40 5616629 6015067 6445717 6712216 6959204 7042965
2958.29 7110596 7067479 6977740 6752348 6512896 6160408
2961.19 5800967 5438205 5122112 4676505 4268006 3820472
2964.08 3420694 3030704 2702917 2354705 2074228 1802994
2966.97 1609796 1411336 1246190 1074296 958806 876532
2969.87 809954 729588 676168 613364 573416 506061
2972.76 479114 438237 425986 413507 420645 415544
2975.65 422140 367675 349013 344037 358807 360304
2978.54 390145 378001 353398 330529 358589 366171
2981.44 387374 376654 379735 368301 390216 420272
2984.33 433729 405530 422475 434213 456653 480140
2987.22 514948 514991 554036 599744 655629 681796
2990.11 720893 767146 851342 921570 1010564 1079456
2993.01 1173695 1292304 1472958 1649698 1853776 2122206
2995.90 2448394 2814192 3273697 3792876 4447586 5198658
2998.79 6096887 7107941 8302599 9625423 11105102 12693106
3001.69 14400293 16121835 17818416 19404562 20921685 22283768
3004.58 23496865 24423270 25043607 25263335 25106754 24555266
3007.47 23771517 22822913 21985241 21462796 21628843 22790363
3010.36 25482099 29889081 36079793 42591074 47911336 49469957
3013.26 45638821 39783951 33112943 27480263 23687723 21694776
3016.15 21078493 21484230 22471985 23744170 24928168 25874715
3019.04 26475224 26702757 26463169 25822081 24763323 23393076
3021.93 21779889 20001165 18107451 16212199 14339715 12538233
3024.83 10846858 9325797 7939044 6682791 5592114 4660435
3027.72 3851348 3160307 2577115 2100727 1705557 1389486
3030.61 1133295 913337 740945 624062 513517 420041
3033.51 338526 272666 234827 192863 155302 142345
3036.40 143854 137659 121851 91377 82515 81129
3039.29 68709 65865 57226 56873 59713 55225
3042.18 55240 68122 76753 76792 88976 84874
3045.08 72306 60112 52288 56163 65854 73112
3047.97 90649 98443 94643 80287 50829 45104
3050.86 46516 37669 27489 34758 31926 24432
3053.75 23822 39466 47927 31500 40866 62270
3056.65 60954 40902 9953-4246 27105 44112
3059.54 45107 32389 27982 23637 2048-16685
3062.43-4759 27109 43379 32830 18101 30036
3065.33 33825 18109 8920 7583-1884 8109
3068.22 20056 10568 5731 9947 8709 8559
3071.11 7268-15283-33355-29015-8044-2406
3074.00 1167 29381 51839 44073 20393 7561
3076.90 3093-9879-5569 7733 10828-4841
3079.79-8213-30761-42701-20650-27448-35712
3082.68-11670 5335 18638 8113-2239-16929
3085.57-22073-21821-21019-12867-15988-12619
3088.47 728-5183-22169-26106-595 41017
3091.36 36307 29112 13815 3368 8198 15454
3094.25 29039 20121 17307 14830-16385-25745
3097.15 16279 18506-6920-20227-17101 7052
3100.04 7760-22829-13874-1581-7241-23064
3102.93-24206-9416 9264 12980-644-18837
3105.82-19050-28873-49111-35479-6845-10212
3108.72-27130-16494 7765-9543-43721-67884
3111.61-59285-9077 14896 8081-14083-29627
3114.50-11865-7929-14582-26549-32527-3758
3117.39 9287 938-4177-32619-42382-25014
3120.29-10607-18735-39752-29877-29498-37097
3123.18 5532 29483 1639-22210-21339-33043
3126.07-20128 6176 5566-18225-25196-25628
3128.97-31172-30702-9234-11674-14577-20038
3131.86-17919-24442-39452-21698 7883 19037
3134.75-2659-17182-11266-8923-16464-9676
3137.64-7178 498-3698-30993-23447-12527
3140.54-5110-8643-847 30692 28962 4401
3143.43-6353-20519-10629-13397-29101-25411
3146.32-2264 22438 19398 12197 2029-2611
3149.21-5506-4437 6473 16328 24786 38182
3152.11 38364 34896 41529 34491 37523 43079
3155.00 23306 26051 29308 33376 43404 24148
3157.89 31160 41771 19119 23952 39114 51707
3160.79 58760 64541 79782 69049 63614 65247
3163.68 62820 67833 83700 75137 64133 70847
3166.57 88686 79911 91299 110196 130803 128978
3169.46 127968 109688 95038 102781 108144 130265
3172.36 145538 151720 143971 137303 149888 135853
3175.25 140480 155983 169805 181198 184556 194559
3178.14 219440 223430 204300 211032 223736 229638
3181.03 226914 205951 177626 190715 209410 207726
3183.93 192914 185376 198657 225795 248185 260474
3186.82 249038 279828 306516 312624 301515 262037
3189.71 239604 239051 208725 196537 206654 185901
3192.61 197610 197906 191099 215267 205015 177511
3195.50 195284 206017 176134 131456 112856 130741
3198.39 108157 104054 127458 144342 123906 108026
3201.28 114468 119739 94456 68944 81929 82816
3204.18 53199 55498 67527 71625 76469 77040
3207.07 75739 90412 110084 103638 97557 87296
3209.96 62879 52806 65687 71662 74883 75431
3212.85 82264 83378 64054 63757 64708 77647
3215.75 75676 58318 61308 68486 87057 74784
3218.64 55998 54527 53557 26989 20041 24109
3221.53 41397 44431 35846 25572 11622 10509
3224.43 11449 26320 19824 11155-4732-4414
3227.32-297 29797 45223 21956 8069 35956
3230.21 39055 42734 30283 32637 54692 48134
3233.10 43503 50106 77570 113995 130439 108860
3236.00 107037 123914 142044 146634 162892 190794
3238.89 215813 227810 255725 280840 302913 314795
3241.78 314010 314188 335968 360692 382727 373604
3244.67 353550 363913 404497 427116 426971 427333
3247.57 449383 465619 497485 508053 484056 473590
3250.46 467300 437532 415385 428854 414401 400722
3253.35 432081 472172 497537 513918 520753 506394
3256.25 461230 414225 389213 347744 320447 297289
3259.14 278447 286355 289013 267409 248752 234803
3262.03 218978 212274 209025 164075 138720 139490
3264.92 127729 123249 116970 99516 84419 85663
3267.82 63827 43983 45906 56354 46843 49449
3270.71 70279 63451 51016 21250 23689 35770
3273.60 42039 52259 59190 51032 45477 52491
3276.49 68743 72783 70852 78283 87603 99668
3279.39 108974 93455 112053 145400 161195 173405
3282.28 177819 204914 231270 238042 247178 251812
3285.17 243186 218733 220662 256287 311076 346823
3288.07 350551 358619 408923 450024 446649 447891
3290.96 476056 479392 467328 473161 465299 463271
3293.85 520553 570613 535184 491541 492168 472001
3296.74 458431 430064 385426 401953 406615 427262
3299.64 451387 480681 501453 496345 455226 401340
3302.53 378442 355170 315431 249458 220273 222824
3305.42 215848 212322 212403 235142 252581 205223
3308.31 181045 187963 190102 187309 180654 176136
3311.21 176607 147227 106092 82576 72246 55128
3314.10 60180 72280 56053 20999 16150 23281
3316.99 9973-654 1250-5074-415-31775
3319.89-53214-56443-42242-34648-32891-7231
3322.78 9018-11539-12977 276-21708-28951
3325.67-18653-19244 3839 12326-9693-31895
3328.56-25818-4186 2667 6190 24082 14299
3331.46-768 31537 48179 37352 48403 64530
3334.35 65109 54130 74239 91694 124562 162713
3337.24 207435 231478 230525 230909 264368 311461
3340.13 334759 363040 403939 444307 478158 483612
3343.03 519039 595136 639001 678406 709939 696019
3345.92 699145 743894 769692 792133 813489 824965
3348.81 853411 884496 903950 928280 951962 1026967
3351.71 1152534 1279292 1366251 1382674 1338665 1308881
3354.60 1365328 1516896 1725027 1886380 1814231 1575951
3357.49 1434049 1368177 1259750 1156876 1123510 1076918
3360.38 1035813 1006210 960270 904727 888329 887391
3363.28 881399 836092 815034 791462 741709 722813
3366.17 710331 674054 635117 614796 589611 548626
3369.06 503107 484251 455751 385119 338425 316319
3371.95 311301 283970 250399 226048 180492 150074
3374.85 138992 126700 114772 120097 103787 75878
3377.74 53721 55242 30598 38032 73304 47632
3380.63 4743-22638-14459 12344-3917-19501
3383.53-46317-51138-11715-11483-20754-30069
3386.42-31339-34523-30476-27248-28487-44157
3389.31-49723-35922-26700-32646-38544-33537
3392.20-49837-62130-36519-22717-31673-36212
3395.10-35100-23560-33890-67831-61879-56533
3397.99-48937-45241-34188-32659-38882-23689
3400.88-43312-59845-44204-34547-40962-56911
3403.77-57630-42197-52784-63754-29830-37342
3406.67-69676-58327-27877-34673-34749-35087
3409.56-50499-31752-37193-48239-35304-16902
3412.45-24163-55682-58653-29876-27260-29534
3415.35-23108-27400-26469-42388-62417-67208
3418.24-56180-37621-50779-65119-50080-44838
3421.13-69765-83118-44896-23961-24344-10535
3424.02-7283-30181-55911-34511-20452-52358
3426.92-72782-67636-40237-41099-63061-60864
3429.81-31140-30665-47092-56168-54430-34947
3432.70-25667-41838-29606-9140 3378-9225
3435.59-3230 15081-7822-37448-36672-26377
3438.49-28795-52479-75579-72349-47974-32607
3441.38-47754-53016-46807-49254-51235-52415
3444.27-37229-12572-26489-14261 4811-10737
3447.17-18547-21466-35885-51402-69749-80367
3450.06-61761-54350-42334-25696-12966-11989
3452.95-12077-21369-46984-51049-38509-11189
3455.84 7732-16934-27563-27433-10567-310
3458.74-25729-44014-31066-9385 4146 4829
3461.63 7665 10504 25746 25518 20262 16592
3464.52 3874 4296-600 10099 18755-6750
3467.41 4620 48405 45114 34269 35842 13729
3470.31-531 3981 9439 34428 47386 27613
3473.20 51496 65377 80472 85684 61553 54409
3476.09 90616 93994 68772 38195-2740 7294
3478.99 25433 19959 17666 30800 31280 27916
3481.88 31825 33462 27115 20041 22286 14629
3484.77 33848 33993 21298 36586 54935 38787
3487.66 19941 38882 53311 37939 45562 57756
3490.56 21683 1053 17810 27959 42772 52934
3493.45 33557 393 16723 29913 35694 47275
3496.34 41603 12062-181 32201 70526 70969
3499.23 74161 64479 39720 19524 12471 3118
3502.13 885-7413 19967 16784-17272-9440
3505.02 21712 41825 33745 21113 12166 28796
3507.91 33057-3675 1903 17360 31437 23031
3510.81-144 5099 6814 17712 36428 28330
3513.70 7104 8509 23854 23534 25842 43035
3516.59 56217 54138 55276 61267 79656 62057
3519.48 56143 38688 9238 49710 48516 37633
3522.38 88929 124095 124001 133351 145954 152649
3525.27 167622 165423 135799 131560 145302 175569
3528.16 204478 211090 203649 198054 218746 236258
3531.05 238208 260686 259193 239324 243946 230012
3533.95 237151 252642 254127 259584 260309 285514
3536.84 319598 322925 312209 299390 293066 289530
3539.73 301881 301758 277204 261263 276211 268514
3542.63 213929 213375 243552 256454 257635 232036
3545.52 222872 210815 184150 173488 184760 202139
3548.41 182010 137421 116708 139051 145634 122942
3551.30 81692 71748 97135 90404 57485 31496
3554.20 40569 54953 40573 44607 63088 20977
3557.09-4088 36291 50046 50347 18333 3868
3559.98 41206 30896 8269 32094 30169 1196
3562.87 7669 6363-20207-18613 1787 12319
3565.77 15472-2040-22690-34450-13968 24762
3568.66 25816 10662 4261 6367 16635 32037
3571.55 49501 33628 9976 2236-13313-21025
3574.45-13534-10205 13071 23128 19959-2111
3577.34-27134-24552-16779-17031-20083-31288
3580.23-40952-27588-20971-18440-8911-20318
3583.12-5714-11580-23788-4067 4173-10893
3586.02-32461-51287-41884-35607-63643-69761
3588.91-40196-26449-24617-26524-18345-19219
3591.80 5331 3737-10360-3837 8153-4832
3594.69-38896-50515-13766 11883-2855-19779
3597.59-36426-53052-65022-54019-20932-19895
3600.48-34694-17062-16007-19882-6272-7148
3603.37-27803-43803-40218-28954-41330-31501
3606.27-32055-32014-29005-17625 1347-2735
3609.16 1492 4502-7775-23981-47296-65375
3612.05-93940-80497-36260-43208-52012-34844
3614.94-37960-42142-33940-43165-58927-62927
3617.84-51980-36440-40979-62024-50786-31303
3620.73-11726 4455-6457-24858-50931-55082
3623.62-25658-23601-4661-14528-53107-60837
3626.51-31049-10504-39951-68287-55058-112858
3629.41-115535-34635-19766-36991-48586-34651
3632.30-17779-25944-41326-29810-5863-10557
3635.19-21362-21941-25669-12875-27362-31906
3638.09-23971-31325-44698-23877 11176 14404
3640.98-19545-48707-45079-31216-22794-28797
3643.87-26077-12127-20130-36289-23939-2585
3646.76-17540-30860-41804-76066-118608-77100
3649.66-57315-81149-77656-54596-20904-2647
3652.55-16277-41003-26775-27673-57874-48055
3655.44-46989-83397-71210-46322-39047-40149
3658.33-24622-23044-39550-23985-11519-5025
3661.23-10877-19727-22927-21462-14362-22071
3664.12-25131-14745-14566-14517-3676 6777
3667.01 13055 11298-36144-61784-29526-8149
3669.91-70184-107124-34735 6487 7099-8267
3672.80 2906-3223-10551-21619-12491-43304
3675.69-62556-1432 10753 9518 28558 25268
3678.58 6469 5649 14758 631 3293 3431
3681.48 9844-166-13954-20474-28692-19816
3684.37-25066-46004-31956-27967-29805-43166
3687.26-76548-137213-126163-61138-44326-14164
3690.15-6892-39964-67295-57455-42236-43968
3693.05-44287-15774-7499-13681-22332-14440
3695.94-7391-18230-25299-9725-89-17611
3698.83-36348-26953-34849-33181-16860-42181
3701.73-52050-29133-20138-17168-38792-46266
3704.62-55956-70561-73972-35940-8988-29269
3707.51-47030-46093-50895-58365-52971-59520
3710.40-49758-36067-73717-115130-91972-54001
3713.30-29434-24357-30199-29706-17769-20005
3716.19-24399-33825-43389-31787-17931-20373
3719.08-22650-1767 7424-21773-22391-1810
3721.97-708-13445-29368-5219 28020 27404
3724.87 15861-7531-39588-27976 6182 21946
3727.76 45762 31794 21249 33982 33134 36495
3730.65 46543 20589-14203-2097 42600 44980
3733.55 28185 4562-505 6049-1522-60549
3736.44-43908 20247 24987 14204 18603 13185
3739.33 6455 11978 10875 11363 31381 47094
3742.22 29981-1562-27696-111274-165881-95912
3745.12-27415-22523-10498 6525 1151-13585
3748.01-33534-97386-132935-59291-19737-21182
3750.90-31808-113599-155090-77623-51086-33355
3753.79-12638-41555-66569-71209-69048-64266
3756.69-45141-32105-32440-46478-40752-55032
3759.58-79839-49868-17767-23586-42593-60439
3762.47-47032-29809-47050-55759-48602-67616
3765.37-70465-64921-61589-49383-37677-37114
3768.26-48734-72409-91595-56334-26028-35663
3771.15-35948-36774-41340-47209-40034-21576
3774.04-39104-57871-30167-32536-55261-72931
3776.94-74438-65748-62942-68261-90921-83092
3779.83-47486-32777-41213-38038-27027-39201
3782.72-58265-51230-47909-37860-40471-49989
3785.61-56723-46176-25393-21161-32251-30236
3788.51-37515-40726-27487-28201-40418-20105
3791.40-9078-25266-42943-41952-40769-46000
3794.29-55632-48183-31299-41367-48088-46371
3797.19-38732-30893-13721-23082-31132-28441
3800.08-43057-117820-143615-69191-37050-22703
3802.97-9496-23100-25089-5570-14311-44709
3805.86-76876-132945-114012-50892-34104-34821
3808.76-33424-17592-19831-4921 20716 22958
3811.65-4893-15779-8017-813-7952-23943
3814.54-27393-40624-121316-84576 10961 29781
3817.43 21028-20414-32430-10726-8778-45542
3820.33-59262-49703-51402-23875 13146 24477
3823.22 10428-11287-19368-17427-33676-12139
3826.11 12432 28102 37315 9827 9485 44950
3829.01 51169 40020 54298 46563 6061 2195
3831.90 8451-6544 23027 28386 7448-22531
3834.79-20813-11295 5604 3047-34808-107200
3837.68-74661-15296-7901-3669-8693-16357
3840.58-19185-13382-17884-9961-23130-53483
3843.47-65502-48369-44353-45650-45032-25264
3846.36-33908-47564-60140-71979-52080-37024
3849.25-34484-31239-46002-69925-118248-120369
3852.15-57400-52914-100384-189401-144426-72654
3855.04-41519-23167-40148-49583-53323-48038
3857.93-32165-38824-61717-54415-38332-25645
3860.83-44864-72503-47558-28143-54820-66557
3863.72-57567-74361-96385-75552-49526-44798
3866.61-60964-67527-65325-61765-71031-79486
3869.50-99289-69419-45341-42161-34688-35770
3872.40-37549-50084-42943-43868-43662-34193
3875.29-33749-15407-15148-30685-34451-43245
3878.18-50141-42233-44854-76876-76916-46407
3881.07-34081-40392-45760-29942-306-758
3883.97-11134-36302-79427-89242-37152-27098
3886.86-42849-32455-14412 1155-21124-42093
3889.75-42207-42731-42219-24127-8105-25598
3892.65-38544-45891-59692-43069 5885-3226
3895.54-39885-30724-24529-17711-16330-33207
3898.43-51887-67799-37861-15131-23568-39378
3901.32-26711 7063 24404 7674-37813-68162
3904.22-39913-12567-20083-32648-46895-20477
3907.11 11591 5545 13330 17980 14627 27908
3910.00 41052 18486-902 7543 44062 44045
3912.89 21705 17508 20834 21682 20524 19538
3915.79 54043 66044 41013 40609 63600 57558
3918.68 51282 29596 35392 75299 70843 45321
3921.57 47412 52386 73240 91603 62879 30472
3924.47 45398 82671 69627 55916 64926 90650
3927.36 91160 92958 112882 98318 67512 75569
3930.25 98646 103864 117924 103982 80014 95449
3933.14 100194 104909 103254 112213 120877 117708
3936.04 119173 121613 115122 101532 105025 126356
3938.93 124886 111230 134281 150782 132503 128286
3941.82 149510 162392 157547 163022 179247 195862
3944.71 193594 189709 177026 195559 214408 222502
3947.61 216179 210429 202647 205725 221644 231402
3950.50 235834 226453 241752 241985 217325 214807
3953.39 221371 238076 255892 249954 272024 271540
3956.29 254830 260340 260505 233681 208232 206645
3959.18 201838 194712 210055 233921 241278 240989
3962.07 224318 206468 208670 226537 232655 229739
3964.96 222095 200003 174671 186039 222872 240941
3967.86 214342 173625 175029 177974 184688 198565
3970.75 190988 194643 238107 247228 217900 191882
3973.64 207439 239097
##END=
