##TITLE=1,1,1-Trichloroethane
##JCAMP-DX=4.24
##DATA TYPE=INFRARED SPECTRUM
##CLASS=IUPAC A
##ORIGIN=NIST, Analytical Chemistry Division, 301-975-3108
##OWNER=COPYRIGHT (C) 2001 by the U.S. Secretary of Commerce
##DATE=01/06/01
##$SPECTRA VERSION=1.10
##$UNCERTAINTY IN Y=2.1 % relative (B=1.08E-04,C=2.81E-10,D=2.71E-15)
##CAS NAME=1,1,1-Trichloroethane
##CAS REGISTRY NO=71-55-6
##MOLFORM=C H3 C Cl3
##MP=-30.41 C
##BP=74.1 C
##$NIST SOURCE=QUANT-IR
##SPECTROMETER/DATA SYSTEM=IFS66V (Bruker)
##INSTRUMENT PARAMETERS=KBr Beam Splitter; MCT Detector; Multipass cell
##STATE=gas
##SAMPLE DESCRIPTION=1,1,1-Trichloroethane Primary Gas Standard
##PRESSURE=101.3 Pa
##TEMPERATURE=23 C
##SAMPLING PROCEDURE=1 L/min Flow
##RESOLUTION=1.9290
##DATA PROCESSING=Happ Genzel Apodization
##XUNITS=cm-1
##YUNITS=(micromol/mol)-1m-1 (base 10)
##XFACTOR=1.0
##YFACTOR=18.189E-13
##DELTAX=0.9645
##FIRSTX=575.652
##LASTX=3974.606
##FIRSTY=3.49E-06
##MAXX=3973.64
##MINX=575.65
##MAXY=.0019089
##MINY=-2.95E-07
##NPOINTS=3526
##XYDATA=(X++(Y..Y))
575.65 1919148 1751529 1723187 1590020 1300151 1092040
580.47 1020267 925355 784101 697706 794372 775562
586.26 733717 727342 809554 717966 608482 512101
592.04 420242 302232 266501 186236 129582 93214
597.83 72874 10870-8323-38112 20501-24729
603.62-5965-17704 15808 2830-16419-78670
609.40-55415 16934 58385 22363 6475-35505
615.19-3735-15251 23692 48798 28330-27221
620.97 25985 14681 38592 50942 82730 31624
626.76 57525 61690 48883-36855-59472-70316
632.54-37998-65764-31406-20984 9968-41447
638.33-38451-69872-41339-80890-44513-30619
644.11-17642-49827-38551-62273-16153-23257
649.90 36700 30838 77911 88893 110461 102339
655.68 169397 208721 302520 314950 395757 485066
661.47 626917 711268 896755 1055092 1304774 1708041
667.26 2000840 2134769 2460927 2751865 3230274 3751671
673.04 4302823 4844445 5621417 6398784 7282931 8219302
678.83 9265562 10205741 11265091 12495780 14140047 15992322
684.61 17626195 18327986 19261588 20570744 20912953 20073031
690.40 19481135 19097390 19016164 19095512 19618185 20458601
696.18 21852209 23641706 26100918 29092548 32914645 37404354
701.97 42879167 49305487 57260554 67113347 79926466 96281280
707.75 116940526 141499382 170633385 205439901 247998733 299076996
713.54 359843761 429884529 509480626 597035019 689851415 785075605
719.32 875302008 948651124 1001890833 1032848349 1045999995 1049161175
725.11 1049331646 1049443828 1046503799 989220667 854427741 679373055
730.90 511937638 382246570 286701898 217176722 165512756 126729337
736.68 96857696 74686582 58419390 46992667 38767558 32968076
742.47 28356439 24597130 21338635 19267337 18597448 18495762
748.25 17529779 16166685 14690481 13272673 11816021 10694062
754.04 9904927 9161531 8161475 7691753 7854932 7431847
759.82 6223132 6338818 7681425 7490500 5401462 4964523
765.61 6227802 6410099 4653368 3669625 3641939 3759748
771.39 3823940 3843584 3651802 3505891 3315751 3167357
777.18 2962875 2792015 2622550 2492012 2326014 2252085
782.96 2170568 2109728 2052852 2095402 2115041 2311883
788.75 2540167 2683013 2847424 3175448 3527598 3869976
794.53 4215546 4558106 4782525 4838965 4703597 4473692
800.32 4151551 3943506 4028896 4415794 4812713 4948296
806.11 4837028 4625594 4313013 4029977 3745655 3435040
811.89 3137833 2933866 2845832 2932506 3080017 3171624
817.68 3164676 3047510 2842921 2672862 2538054 2441893
823.46 2315819 2229153 2178143 2109444 2047020 2014151
829.25 1964376 1914874 1862505 1842047 1806987 1653240
835.03 1495476 1372033 1239542 1183171 1228857 1280742
840.82 1229169 1188299 1185749 1158756 1140027 1119237
846.60 1092987 1104534 1138902 1183300 1271513 1384784
852.39 1528328 1696945 1855963 1998785 2246049 2493017
858.17 2640370 2791345 3079944 3297433 3390243 3328171
863.96 3294995 3496953 3823821 3684413 3119543 2979452
869.75 3746114 3677214 2449276 1983144 1968668 1933159
875.53 1806136 1573614 1280056 1009858 783396 631956
881.32 518460 431251 336524 294508 269605 232663
887.10 198905 170821 148646 133662 110042 80601
892.89 73856 73086 66212 44689 23043 7831
898.67 12366 30720 21125-6746-7887-1879
904.46-485-5130-4847 1791 22135 22532
910.24 20391 15679 30499 43155 50904 40557
916.03 46144 43703 64654 78286 81462 97302
921.81 118787 115643 113555 116829 124412 112972
927.60 116581 139155 155064 149581 155938 164951
933.39 193768 209270 238919 249902 264545 283211
939.17 324880 367922 429613 493693 569150 640189
944.96 736693 843337 935107 1011276 1108792 1200411
950.74 1308351 1403559 1489340 1558996 1651275 1731045
956.53 1834032 1939517 2070154 2168323 2233301 2238890
962.31 2214110 2121562 1944737 1763501 1617427 1460443
968.10 1441685 1470705 1480076 1428992 1359502 1254494
973.88 1141907 1004869 909545 833143 779994 738701
979.67 752051 799730 892414 996326 1161059 1338398
985.45 1546543 1770819 2042501 2332927 2667465 3017708
991.24 3424937 3861118 4340480 4797113 5218499 5470135
997.03 5527202 5485418 5595857 5978004 6562535 7160672
1002.81 7697913 8058486 8373716 8823352 9444996 10011673
1008.60 10320489 10175372 9679065 9193982 9281658 9970937
1014.38 10627402 10498877 9270998 7346553 5584479 4301360
1020.17 3416894 2741980 2233091 1848032 1599219 1429701
1025.95 1344006 1277129 1267141 1262598 1278478 1315384
1031.74 1372991 1404419 1457456 1537836 1654464 1748574
1037.52 1905716 2105496 2244285 2278078 2434348 2770065
1043.31 3212829 3586713 3848384 4110632 4555923 5229419
1049.09 6112820 7165543 8429494 9962003 11836159 14046712
1054.88 16701960 19808908 23221369 27373262 31987575 36625091
1060.67 41923649 47944210 54077550 60287231 66592702 72393353
1066.45 77660823 83714093 89816356 98349213 113284376 124223328
1072.24 129841184 139650670 135078519 122615532 131946435 155644615
1078.02 183754784 213830942 245663425 278212511 313373509 352484246
1083.81 395256975 437921222 472298075 486500730 480618703 463777453
1089.59 425339320 356699638 316478281 331317173 359438092 369432768
1095.38 350669619 307257095 252513801 199501294 154886009 120262560
1101.16 94514687 75750110 61840542 51523257 44141168 38669959
1106.95 34274317 30875287 28195510 25943728 23981420 22182092
1112.73 20618919 19096613 17526341 15944896 14400508 12786651
1118.52 11101864 9375197 7763447 6339521 5139250 4109733
1124.31 3275999 2579837 2047136 1616602 1300325 1037138
1130.09 850019 672530 545685 421253 363076 305934
1135.88 289179 261321 252460 220265 219800 187883
1141.66 202148 190079 202946 194308 204195 166828
1147.45 165520 168182 197510 169726 183288 162085
1153.23 159711 130907 152040 133301 133091 85481
1159.02 101582 86867 74591 45328 57857 34727
1164.80 55111 30649 38414 15726 29153 12475
1170.59 46277 29300 34224 9798 35773 22767
1176.37 48286 26630 51207 44263 77419 66722
1182.16 79952 67231 117344 121209 148553 143528
1187.95 197430 194029 213139 188390 207410 208546
1193.73 252806 233608 250872 233947 257884 244194
1199.52 278628 258872 289040 274272 304231 287521
1205.30 315577 298952 322228 289190 329333 336760
1211.09 397031 397824 444734 461273 510713 484356
1216.87 513905 499786 537861 523153 562007 565580
1222.66 637967 682012 802689 888830 1052003 1178942
1228.44 1380737 1533186 1758118 1941182 2178954 2382534
1234.23 2681218 2922500 3235138 3510127 3821855 4066548
1240.01 4394123 4636510 4902896 5078490 5267174 5355305
1245.80 5473767 5520603 5566525 5427542 5367933 5233501
1251.59 4920877 4453919 4147756 3682641 3074552 2416097
1257.37 1975322 1588664 1353669 1127517 1017013 896183
1263.16 883770 795701 789931 728525 728359 635526
1268.94 624106 560490 577557 516101 531083 464831
1274.73 450648 349874 334375 253389 268847 219364
1280.51 261621 221908 289147 272429 327661 285532
1286.30 317084 265366 332903 329908 409100 365233
1292.08 384753 326418 379068 342511 380908 332679
1297.87 398076 366287 425741 366626 408353 363013
1303.65 423949 368304 445948 414576 479304 438132
1309.44 494653 420912 472488 382573 393391 292968
1315.23 323744 272866 370264 331380 409829 353596
1321.01 429617 337817 381199 286026 319193 219715
1326.80 278663 183725 239164 152032 222738 142613
1332.58 228252 148096 255172 176870 265550 159146
1338.37 234815 124039 210138 106653 203232 98140
1344.15 203555 70593 182712 67969 156180 6390
1349.94 111193-37705 113335 38959 260469 207736
1355.72 422389 270590 481048 418283 749436 806340
1361.51 1337898 1699133 2621066 3059583 4150986 5114177
1367.29 6834871 8314718 10600524 12506509 15200281 17479299
1373.08 20603280 21734056 22614937 22104102 21864619 19747043
1378.87 18290180 14895846 13508699 25792249 88224685 120187869
1384.65 65404673 27479647 14911588 16048159 19711071 24722590
1390.44 27651341 30218276 30126488 29220015 26150966 22894736
1396.22 18565205 14906908 11044075 8359987 5848035 4457815
1402.01 3167905 2735081 2182871 2252913 2128305 2475239
1407.79 2601442 3130907 3417387 4066736 4474867 5190978
1413.58 5657092 6356997 6763408 7300603 7479270 7731405
1419.36 7699296 7800996 7761149 8183740 8923514 10261759
1425.15 11597274 12254460 12792404 11687175 9141676 8074310
1430.93 7796047 8294900 8706738 9352779 9838144 10607169
1436.72 11336096 12400651 13429306 14752731 15887073 17145263
1442.51 18086338 18835865 19016228 18833192 18014895 17197729
1448.29 16253801 15560762 14619719 14536535 18488734 27227809
1454.08 33121767 31695780 25936214 19762967 15142444 12980677
1459.86 12324845 12595115 12964957 13331250 13278724 13031626
1465.65 12391004 11549471 10395294 9253216 7989471 6823466
1471.43 5652875 4742739 3879654 3215264 2545697 2090223
1477.22 1635343 1358534 1047313 889410 680226 593811
1483.00 454399 429348 327518 311779 230164 245558
1488.79 179035 206041 156931 182618 128281 150587
1494.57 68010 89376 68782 97427 57719 102963
1500.36 52904 79872 30735 41712-52300-47197
1506.15-78159-6572-9613 38421 5911 31643
1511.93-1763 41572-3082 25330-4961 37430
1517.72 11927 24431-46616-20734-24568 29409
1523.50 3742 22726 3907 43275 13939 52156
1529.29 29018 60668 23361 26508-11193 36798
1535.07 22097 49967-13778-53518-79757-16633
1540.86-44688-5365-4677 17131-8586 36440
1546.64 16933 33884-7518 15677-2764 27686
1552.43-15974-15933-13494 17462-49721-71105
1558.21-86850-59466-39721 19506-2896 26433
1564.00 14779 50800 3171 16243-12512-4047
1569.79-2589 25760-2918 20489-15440-43128
1575.57-62223 11266 11535 43867 18935 45486
1581.36 44976 69404 40757 59251 36614 49555
1587.14 36164 58127 34150 56096 36805 58548
1592.93 43645 61018 40346 52547 26101 42027
1598.71 20794 29428 7031 27507 3465 21037
1604.50 5115 14493-13491 4566-12601-808
1610.28-20619-2684-24274-4199-34730-68841
1616.07-103331-43459-40099-5003-28216-25625
1621.85-55560-43826-48753-13591-19515-7777
1627.64-32129-16247-33295-9385-13425 1984
1633.43-48645-77678-75790-30404-38128-24277
1639.21-34547-10173-23392-3681-23591-35842
1645.00-78707-39629-45407-20108-22296-9904
1650.78-76399-139036-125568-38825-9145 19352
1656.57 2204 23994 9187 28548 14683 22066
1662.35 9398 38049 26690 48754 45180 44004
1668.14 886 21998 14869 34558 33403 42183
1673.92-4315 15687 37497 65752 45261 64818
1679.71 60754 74437 55751 45214-10039 40098
1685.49 83125 106546 115115 137805 125881 142295
1691.28 144845 168511 153245 108363 64222 131761
1697.07 131521 117478 50208 86982 146173 174928
1702.85 157587 180787 191574 207335 210544 220610
1708.64 199179 213215 217504 245682 247117 275981
1714.42 300228 332143 306532 339569 325587 336996
1720.21 339070 374482 385846 417137 410324 422808
1725.99 409735 431646 419382 442374 436169 438450
1731.78 384217 319928 294862 342370 336230 323377
1737.56 288049 267998 253815 304789 356894 387408
1743.35 329728 280276 214023 185417 161248 169971
1749.13 154460 137478 123401 144191 128350 127868
1754.92 100706 95869 90683 107719 93902 83979
1760.71 55351 78965 83334 100053 93274 106169
1766.49 92302 101711 106721 119985 107623 103373
1772.28 111457 165485 179299 215080 232635 267333
1778.06 281115 319667 351120 402559 428381 475743
1783.85 509334 565831 601947 664446 703780 751168
1789.63 758704 775769 777547 828482 851307 859770
1795.42 848202 844084 804042 767914 703244 663915
1801.20 610918 564700 483241 413912 340076 292705
1806.99 247881 233090 206778 191767 166987 177952
1812.77 176846 184185 178988 191227 177004 178004
1818.56 175244 186664 171690 169845 149593 134941
1824.35 117682 128166 113216 108783 91164 98711
1830.13 97808 101963 86926 90340 83585 84098
1835.92 61723 55395 42311 49424 34620 31142
1841.70 16725-4497-28989-5462-3746 2277
1847.49-10465-9624-23840-11084-9970-8778
1853.27-26118-20999-23834-10389-18150-15116
1859.06-25420-16741-21534-16718-26112-16491
1864.84-23839-15329-26213-29293-38886-25310
1870.63-21509-14825-21580-6410-9605-672
1876.41-13326-9849-14424-8774-17738-6814
1882.20-6724-1188-1030 12901 7722 20365
1887.99 14818 18421 23515 42451 42637 61823
1893.77 72403 87443 95689 118017 140313 165314
1899.56 167064 179015 169515 172695 172077 194222
1905.34 235302 277157 328563 376816 362953 345306
1911.13 201295 143962 152227 175873 191857 212616
1916.91 197466 192685 173492 170894 147774 123598
1922.70 94943 97975 88675 84530 81826 95695
1928.48 79846 65926 43985 46151 60549 106333
1934.27 108934 85117 53696 49578 46146 61779
1940.05 58026 59023 47504 52369 40347 42514
1945.84 35616 37980 24437 37962 59115 71543
1951.63 45456 33737 25837 36988 38237 41988
1957.41 38312 47256 39043 38674 30417 41835
1963.20 34685 33581 20454 28612 26797 27591
1968.98 22041 26851 24416 41266 45152 31913
1974.77 8534 24183 21129 27343 23264 24589
1980.55 15069 24026 14447 10535-2400-2717
1986.34-6712 3038-4133-3586-16588-15028
1992.12-18783-11733-17052-3700-8705-11916
1997.91-16848-15631-24242-19583-23769-15844
2003.69-11828-11477-25578-18024-20184-15017
2009.48-28636-23500-20169-8606-14970-15739
2015.27-23899-18264-13666-7134-10333 576
2021.05-2550-3015-3611 5141-659 5103
2026.84-3018 2111 1791 1229-4872 12338
2032.62 20670 15606 723-132-7616 2425
2038.41 3675 3785-2378 5788 6607 2752
2044.19-15217-6411-2570 9773 5459-964
2049.98-2529 4749-41 4803 358-220
2055.76-2571 4053 1856 8208 4506 6423
2061.55-2677 4009 5013 15932 12635 17020
2067.33 7954 10455 20864 39548 34137 37228
2073.12 38537 47562 50818 45755 31866 44703
2078.91 51489 55376 34758 49343 58280 64715
2084.69 64518 69454 76903 90257 96356 106294
2090.48 125107 157880 175082 186462 208174 258924
2096.26 298855 336093 376514 459237 536318 601401
2102.05 652682 737942 820230 887839 909582 937468
2107.83 977628 1015550 1035112 1067614 1126694 1140625
2113.62 1087957 1030472 1017706 1040982 1072496 1108160
2119.40 1189933 1282944 1355570 1425700 1523206 1662502
2125.19 1775718 1837797 1882039 1975483 2089599 2218945
2130.97 2268523 2257234 2267309 2332323 2530995 2894270
2136.76 3077540 2672290 2007669 1685805 1626322 1656338
2142.55 1686892 1666551 1520946 1284200 1028519 839260
2148.33 723292 675838 644074 632100 608141 585704
2154.12 568046 565679 529036 456444 389042 356321
2159.90 297299 241551 223572 213788 158631 110986
2165.69 96183 82886 34869 18529 28166 10517
2171.47-26208 134 37447 37691 18521 48003
2177.26 63145 37081 14500 36640 24410 9452
2183.04 19201 37037 4230-12925-8326-24150
2188.83-58412-58060-58696-83416-111260-97752
2194.61-97218-102781-95054-94451-107607-96804
2200.40-97094-98872-96285-85647-89158-88327
2206.19-82708-68573-76708-71571-77607-78103
2211.97-75345-64600-62028-56198-51370-58151
2217.76-68061-53482-44725-36487-44069-50407
2223.54-56011-49520-54863-41613-39869-45810
2229.33-47075-31796-29503-29546-33322-28362
2235.11-35909-33157-24626-23617-36521-21731
2240.90-17036-17552-20054-16606-16039-19151
2246.68-22918-10458-3608-1498-2977 3212
2252.47-2859 4447 5816-790-11692-8320
2258.25-11714-3266 952 2112-2625 3861
2264.04 7384 7261 1576-6647-16233-11713
2269.83 3588-3971-23511-14126-12108-8209
2275.61-5068-5022-20201-19063-17744-14509
2281.40-17308-18238-19165-13362-6610-4492
2287.18-19128-16419-17608-16246-11881-3092
2292.97-677 1787-8849-7749-2672-1476
2298.75-2984 957 727 5526-8058-5057
2304.54-2450 15436 15651 12848 7999 17470
2310.32 40271 43411 54600 48793 74749 80005
2316.11 102882 91987 111629 113988 142258 148039
2321.89 169569 165563 192583 204778 231935 232300
2327.68 244257 254135 283620 288092 295557 299777
2333.47 315425 318565 325711 319699 303415 298162
2339.25 299479 300788 277604 243000 210891 183099
2345.04 161790 130719 91971 57639 70594 115699
2350.82 160410 208445 252055 288258 319641 355422
2356.61 381302 402792 417807 431968 430744 426870
2362.39 425634 419379 400034 368162 338052 312291
2368.18 281820 252346 222236 186591 155466 129597
2373.96 103821 85398 68851 53603 32794 25528
2379.75 22143 9879-940-682-1474 5062
2385.53 3035 2446 3595 2435-230 1120
2391.32 4333 3110 7690 13517 12583 12028
2397.11 12768 17948 17524 19051 19791 26727
2402.89 22773 20688 27926 28826 23802 37121
2408.68 42898 42935 49587 57431 61468 63552
2414.46 74834 83243 103087 119358 126575 137873
2420.25 161003 197202 229303 254750 290943 323994
2426.03 361502 405487 454903 517449 592190 676154
2431.82 756625 839218 934839 1023427 1129399 1245778
2437.60 1368430 1507594 1663832 1840427 2036835 2261125
2443.39 2526139 2693726 2811269 2989043 3156907 3349432
2449.17 3975048 4748528 5195417 4395402 2890177 2400934
2454.96 2522859 2716562 2838472 2870402 2758513 2542592
2460.75 2247119 1925786 1624934 1409472 1272010 1193851
2466.53 1118940 1053790 957439 842003 713910 614808
2472.32 560781 532605 507520 485999 445644 394438
2478.10 337427 298234 254093 224358 211603 203974
2483.89 190710 189857 192826 200963 195557 195677
2489.67 192554 199108 203236 196013 181228 199820
2495.46 219596 226165 217381 222383 227385 234774
2501.24 234522 246242 267084 287338 286586 304068
2507.03 324746 329608 324237 328588 336268 335135
2512.81 322964 310277 301740 308897 311497 312715
2518.60 313548 315278 301783 288506 276018 262932
2524.39 246031 235726 234602 235927 230363 221632
2530.17 219980 220494 224921 238133 240241 248878
2535.96 257525 259280 259367 267462 247656 238905
2541.74 244131 240133 231603 227278 224062 224271
2547.53 216653 203660 188117 179623 174559 168283
2553.31 148959 140177 137642 132226 111446 106013
2559.10 101894 89772 77590 66233 49007 31596
2564.88 26481 20526 9739 7991 11994 11280
2570.67-3513 1763 5412-1738-6761-1282
2576.45-12369-19631-12883-4409-4896-7812
2582.24-9417-15361-24148-24855-19784-11598
2588.03-16061-24894-23717-18866-18319-20265
2593.81-19330-11288-5632-13058-22552-10441
2599.60 4363 7134-1334 175 3200 12637
2605.38 23630 25147 14614 7539 6817 10155
2611.17 8806 5222 2571 4948 6992-2101
2616.95-3800-8037-20350-19714-14166-12779
2622.74-14123-7044-5744-3207-8072-10813
2628.52-14569-18242-13699-6572-278-7711
2634.31-15688-11351-14227-4603 810 2715
2640.09 3470 11327 9859 8006 22387 18786
2645.88 10530 13048 23113 35475 39034 46932
2651.67 58713 63796 55465 66133 80397 84773
2657.45 84291 96282 112690 117220 107710 109987
2663.24 115366 118099 130578 148918 157042 170261
2669.02 175001 148539 130671 125252 110566 101223
2674.81 96560 97339 90267 78573 69587 64897
2680.59 57906 45402 31377 27878 22214 13914
2686.38 10125 7737 2765-502-4030-7618
2692.16 218-6614-21372-26056-26788-24200
2697.95-23688-29834-34556-26208-19245-15664
2703.73-11180-824 12056 14162 3918 4126
2709.52 10618 9250 2672-17164-29369-39398
2715.31-30565-6383-6536 915-9863-24253
2721.09-29196-21927-15664-3854-564-14011
2726.88-26179-27934-27758-28441-29904-29232
2732.66-22993-13023-14569-20138-26244-17284
2738.45-20878-12987-4818-12524-32846-42174
2744.23-38734-44946-30849 31405 63215 11437
2750.02-11531-25447-30071-16674-10735-825
2755.80-2418 9 7694 23069 35284 32961
2761.59 24684 22480 11487 4901-38260-122628
2767.37-162688-79119-2288 10035 40260 52331
2773.16 44586 39246 32411 29724 28480 20839
2778.95 13252 881 2067 12455 18407 12231
2784.73 12279 6684-3030 9505 15355 21546
2790.52 43256 62564 82923 93152 95356 114775
2796.30 144045 158874 171206 191029 209289 220796
2802.09 225557 233829 251127 273488 295270 299664
2807.87 327415 324402 293186 297835 312079 335730
2813.66 372519 405904 432596 463469 486559 522439
2819.44 560865 593821 610084 612918 599590 600740
2825.23 618928 660901 714316 782692 774096 657963
2831.01 570626 579534 642572 707912 737501 732823
2836.80 689683 605800 533451 520712 544109 579718
2842.59 596299 587700 596457 608511 592704 588060
2848.37 634241 658186 653091 671808 694623 702790
2854.16 725693 759527 813331 882970 925127 971748
2859.94 1009800 1045993 1097819 1153111 1208418 1285277
2865.73 1361383 1413761 1467142 1511927 1511300 1479645
2871.51 1463686 1454681 1424639 1373380 1322532 1298175
2877.30 1279253 1277327 1272700 1259468 1242195 1220096
2883.08 1225333 1249856 1224674 1181463 1180112 1189615
2888.87 1171759 1195361 1224482 1221403 1237201 1262676
2894.65 1235537 1195769 1148088 1092095 1015765 963122
2900.44 937106 927707 894631 850752 807889 751618
2906.23 689348 649687 607684 563431 519235 481826
2912.01 428437 399061 364323 321917 272409 245225
2917.80 214194 181325 155515 158219 136563 119101
2923.58 121380 131729 131325 172781 235177 326599
2929.37 438543 601753 839015 1172554 1571849 2093272
2935.15 2690645 3370695 4081106 4806623 5442692 5925050
2940.94 6170597 6229319 6069275 5620223 4776200 3989574
2946.72 3694859 6338198 20582510 33669319 18127369 4375684
2952.51 3380022 4153061 5133216 5987322 6678440 6994144
2958.29 7028671 6708026 6153794 5437834 4681294 3833946
2964.08 3065169 2379360 1845894 1420199 1108921 881711
2969.87 743946 615790 524387 446330 425695 408634
2975.65 382719 350676 370327 364510 355880 363530
2981.44 380706 380912 411473 418494 441871 479094
2987.22 532565 599730 687619 782255 928414 1090007
2993.01 1325506 1667455 2163000 2867275 3875466 5289894
2998.79 7222430 9724909 12764449 16098151 19343604 22164369
3004.58 24203118 24995936 24381734 22889665 21929520 23820965
3010.36 30984938 41625472 46259042 39292685 28685161 22658948
3016.15 21904297 23701389 25644882 26392935 25548806 23222298
3021.93 19932038 16227907 12620266 9419869 6795498 4746281
3027.72 3238645 2157017 1432843 943191 637836 426741
3033.51 289230 195073 153437 128214 102728 75950
3039.29 67296 56250 60030 64806 81462 77052
3045.08 65672 58096 78436 88528 76859 47982
3050.86 39730 29475 31099 32985 44207 48713
3056.65 37858 15266 35603 32404 18186-1729
3062.43 20965 28738 29254 17420 9282 6688
3068.22 13097 6954 7371-14844-18548-4025
3074.00 27774 32572 13508-3254 3621-5395
3079.79-22378-31696-20097-1573 6627-13944
3085.57-18386-18113-7924-12871-7151 19156
3091.36 27050 9916 17759 18406 6313-5782
3097.15 3917-10043-3324-9572-8771-17237
3102.93-5671 919-10690-32078-27018-18311
3108.72-10327-22854-44767-21480-840-15934
3114.50-14041-21470-7929-4670-21624-27392
3120.29-22480-32793-15510 2226-10108-22810
3126.07-5976-13974-24707-24448-13467-19380
3131.86-23859-16156 3854-8931-10615-11006
3137.64-5490-18685-13304-3409 16929 6189
3143.43-9645-20003-12403 7608 12264-1994
3149.21 1813 14721 33671 36154 39134 32845
3155.00 30591 31296 34589 28758 32949 47362
3160.79 67065 67974 66740 69390 74725 73776
3166.57 88560 108175 125956 110541 107929 126231
3172.36 145871 141809 144332 154739 179675 197933
3178.14 214937 214614 223828 203790 197466 198090
3183.93 199405 222065 254727 279086 300025 267516
3189.71 231995 203711 197488 195572 202564 194036
3195.50 186005 144461 119975 116425 128085 117333
3201.28 106965 83629 72593 61332 71799 76189
3207.07 93258 98378 83775 62799 70893 75603
3212.85 76996 66376 71795 65037 72293 68786
3218.64 55406 33052 31492 35654 26414 13361
3224.43 18731 7810 3938 19653 27928 27929
3230.21 38519 38423 48650 60937 102808 114140
3236.00 127004 150220 190962 231924 279420 306352
3241.78 326525 354367 370144 378035 415988 435432
3247.57 471345 489526 475878 440778 421785 421136
3253.35 466952 504306 490951 421020 354230 301794
3259.14 285577 264736 237549 208373 172789 136443
3264.92 123160 99549 78681 53500 51282 54591
3270.71 57077 33964 36565 47540 53751 55155
3276.49 71308 79062 97462 106453 140296 170263
3282.28 206652 234654 244719 231856 268491 328622
3288.07 379149 427635 459240 470030 471125 489327
3293.85 530334 507690 471801 426734 406584 430010
3299.64 475224 473984 415585 343330 268272 221463
3305.42 218460 226263 213322 187864 186629 173557
3311.21 141946 88585 67131 56069 35799 14052
3316.99 6365-6906-27350-48591-33441-14979
3322.78-3716-14203-18471-13103-1813-18623
3328.56-7566 6935 16236 24820 46581 54835
3334.35 68927 97506 165973 215456 250144 300590
3340.13 371529 435591 501070 582861 670245 701563
3345.92 741948 787739 834051 877680 936526 1055248
3351.71 1254119 1345031 1364966 1547899 1753038 1608489
3357.49 1361276 1185927 1081142 997126 925639 880642
3363.28 843981 781173 728343 670238 614617 546210
3369.06 479504 392708 326363 277747 220613 159082
3374.85 130211 109017 80991 48678 48764 32575
3380.63-206-7252-20533-33911-19097-27797
3386.42-29747-32901-37038-39253-31614-43248
3392.20-43706-36074-29836-37123-50261-57483
3397.99-41722-36765-35160-47068-42177-50826
3403.77-50217-50075-46364-50335-34456-39967
3409.56-37654-39277-29134-43560-36686-29377
3415.35-26328-46335-55182-53586-51011-60353
3421.13-57907-35931-15409-30501-36245-50923
3426.92-56074-52565-47347-42496-46722-41798
3432.70-29395-15845-868-4703-21503-35273
3438.49-50064-61968-45255-49129-48348-45472
3444.27-24430-13969-8993-28007-50048-68989
3450.06-51024-30055-13310-29458-36767-20628
3455.84-12276-20863-15021-29508-11641 2355
3461.63 16602 19467 15979 3518 8526 8352
3467.41 31593 34217 18472 7636 28882 41359
3473.20 65301 71638 74366 74183 40589 12673
3478.99 21682 24883 32063 27848 25032 21880
3484.77 31178 35249 39788 36060 47215 35887
3490.56 21509 26824 39086 19532 29088 34738
3496.34 24854 33993 68048 54610 28201 3632
3502.13 6714 1889 7208 24384 27568 19258
3507.91 14482 13292 18780 6038 21067 19647
3513.70 18019 22602 43126 52697 65555 59531
3519.48 42058 35660 64902 105104 137508 151487
3525.27 155535 143119 176048 200111 212105 229213
3531.05 251752 244398 240689 245601 262764 286941
3536.84 314301 300860 297694 288214 275470 248645
3542.63 233998 243928 237749 204248 187937 180546
3548.41 152453 131603 116138 86535 76880 47413
3554.20 46763 43810 31637 27945 37970 21809
3559.98 27672 20161 15678-5348-4868 2419
3565.77-2334-18478 9762 11159 14645 27076
3571.55 30268-795-11056-5231 15430-4714
3577.34-17281-22935-26452-30608-15754-15566
3583.12-10435-10818-13989-40780-46595-55110
3588.91-31602-25703-8863-5142 800-17575
3594.69-23895-11147-17642-50235-42676-29701
3600.48-18958-16581-15222-35599-34214-36244
3606.27-27113-18268 833-5682-24973-66825
3612.05-64900-49798-38424-41282-44455-56223
3617.84-44872-50410-27935-12384-23879-42393
3623.62-19941-30122-37978-37100-54965-87871
3629.41-56708-37964-30993-31124-22069-17886
3635.19-18197-24469-25160-33670-14940-8440
3640.98-29268-36397-23003-24156-20768-20299
3646.76-30791-74771-80290-73833-46666-22584
3652.55-24258-39905-50002-65663-51699-37253
3658.33-27363-24240-10148-18762-17984-22217
3664.12-15700-11698 5713-10348-31730-47206
3669.91-54674-19859 2350-7606-15932-34875
3675.69-14221 12215 19589 8108 7267 2453
3681.48-1226-20165-24229-34741-30793-59400
3687.26-98542-77348-26693-39712-50385-44116
3693.05-21653-16503-13341-17447-11537-19896
3698.83-28558-32071-34429-33931-26262-48326
3704.62-58879-43886-29687-48545-52053-55014
3710.40-57831-85693-58739-32981-23192-25332
3716.19-29901-32209-17436-11022-8403-12256
3721.97-9522-2364 18649-9829-11710 16304
3727.76 34104 29198 37429 16026 15964 27909
3733.55 16386-7295-23785-5146 19749 10983
3739.33 12654 18038 32187-10623-86902-91482
3745.12-24464-6115-20601-78732-63826-42769
3750.90-86450-89916-37639-45386-62526-60411
3756.69-38133-43932-53104-49204-32008-47565
3762.47-41716-53064-59710-66150-47332-48585
3768.26-62383-59472-33779-41150-37328-39600
3774.04-37343-47583-60707-71175-70993-71743
3779.83-41945-38587-39397-51751-41331-50164
3785.61-38606-31618-29628-37269-28484-26660
3791.40-24322-43295-43714-48033-38949-45310
3797.19-26678-26856-39901-93062-75894-32064
3802.97-15474-20872-48889-97629-66857-37170
3808.76-19623-3287 10385-7345-6060-23943
3814.54-56086-54949 5948-8606-17458-40086
3820.33-45345-22091 11344-7667-17314-10060
3826.11 22113 19711 36827 43764 36140 6219
3831.90 11649 9450-4582-11919-16868-61973
3837.68-33407-12044-10513-18528-17758-46471
3843.47-48821-46223-34049-50448-54808-45986
3849.25-38394-79169-88453-91826-125345-92326
3855.04-37988-47471-42175-48330-44235-44798
3860.83-47027-50874-55905-77261-68006-58730
3866.61-59535-70444-76259-71278-41282-40761
3872.40-40333-46047-32267-26494-25055-43663
3878.18-46251-64492-50788-42247-21729-13637
3883.97-39337-64073-38465-28678-13971-35376
3889.75-36916-30043-24101-46922-28656-20681
3895.54-23250-25581-32908-49511-28726-26974
3901.32 530-10823-36103-32708-26210-20304
3907.11 9646 13483 28301 16356 22607 28525
3912.89 25770 17973 35836 46748 53778 49352
3918.68 47505 53639 58459 57366 71469 51949
3924.47 64429 65352 84109 94242 94243 82672
3930.25 104924 97886 98033 100077 114749 115818
3936.04 119428 108101 119245 123169 138372 138008
3941.82 157026 166599 189311 186383 200803 211545
3947.61 213625 209692 229347 231782 233910 220369
3953.39 239785 254622 267123 254400 236654 204933
3959.18 208755 223364 235099 214632 224989 221309
3964.96 204392 197123 219078 188827 183854 187950
3970.75 213395 222533 216973 220828
##END=
