##TITLE=1,1,1-Trichloroethane
##JCAMP-DX=4.24
##DATA TYPE=INFRARED SPECTRUM
##CLASS=IUPAC A
##ORIGIN=NIST, Analytical Chemistry Division, 301-975-3108
##OWNER=COPYRIGHT (C) 2001 by the U.S. Secretary of Commerce
##DATE=01/06/01
##$SPECTRA VERSION=1.10
##$UNCERTAINTY IN Y=2.1 % relative (B=1.08E-04,C=2.81E-10,D=2.71E-15)
##CAS NAME=1,1,1-Trichloroethane
##CAS REGISTRY NO=71-55-6
##MOLFORM=C H3 C Cl3
##MP=-30.41 C
##BP=74.1 C
##$NIST SOURCE=QUANT-IR
##SPECTROMETER/DATA SYSTEM=IFS66V (Bruker)
##INSTRUMENT PARAMETERS=KBr Beam Splitter; MCT Detector; Multipass cell
##STATE=gas
##SAMPLE DESCRIPTION=1,1,1-Trichloroethane Primary Gas Standard
##PRESSURE=101.3 Pa
##TEMPERATURE=23 C
##SAMPLING PROCEDURE=1 L/min Flow
##RESOLUTION=1.9290
##DATA PROCESSING=Boxcar Apodization
##XUNITS=cm-1
##YUNITS=(micromol/mol)-1m-1 (base 10)
##XFACTOR=1.0
##YFACTOR=18.189E-13
##DELTAX=0.9645
##FIRSTX=575.652
##LASTX=3974.606
##FIRSTY=3.70E-06
##MAXX=3973.64
##MINX=575.65
##MAXY=.0019345
##MINY=-1.45E-06
##NPOINTS=3526
##XYDATA=(X++(Y..Y))
575.65 2037447 1600384 1818418 1623698 1283016 1016601
580.47 1077156 891141 853419 515255 967877 668486
586.26 833189 566751 996354 616322 676842 441069
592.04 513166 182506 370768 107110 186406 19411
597.83 172297-105742 121651-214298 213385-194936
603.62 134461-144786 126774-82620 78354-171445
609.40-19134-24078 148742-70066 111739-162695
615.19 114143-119932 99704-10117 135419-183193
620.97 174214-110838 148143-67700 230683-112199
626.76 168289-31300 172158-158688 38520-188999
632.54 97885-204184 93695-150649 167007-195980
638.33 110815-229349 121698-233901 73687-131035
644.11 99472-177625 99186-220994 146760-191592
649.90 199662-115397 203367-21623 232395-42080
655.68 309397 54080 469015 162320 517162 345801
661.47 778053 555245 1008680 977003 1283786 1681531
667.26 2194186 1868835 2696108 2504049 3386088 3592788
673.04 4488133 4580298 5817343 6205196 7432111 8012441
678.83 9489365 9996277 11411067 12193159 14286893 15744166
684.61 18277031 17989034 19170140 20747594 21558567 19571311
690.40 19758635 18743198 19262920 18713132 19820673 20050576
696.18 22048966 23194562 26278208 28593450 33071948 36868710
701.97 42987180 48637620 57182961 66064890 79491585 94803963
707.75 116520794 140058925 169843291 203056185 246606814 296199330
713.54 358277363 427162382 507869231 595589854 689608730 784716845
719.32 881418523 951639546 1008925464 1035729808 1050047378 1046823003
725.11 1053732992 1041566678 1063542550 1011673176 862538100 678368370
730.90 498691666 376522877 279212235 214391379 161657153 125642286
736.68 94343577 73944440 56763313 46760770 37763650 33117891
742.47 27822874 24840528 20803277 19086425 18153670 19144357
748.25 17323891 16395814 14474643 13488979 11565798 10727151
754.04 9745083 9455821 7891043 7498380 7943824 8004004
759.82 5584339 5933344 8039750 8593130 4367503 4623308
765.61 6357990 7528444 3851770 3649426 3534610 3884990
771.39 3692534 4069625 3467001 3665350 3172564 3300389
777.18 2851621 2885058 2515221 2610574 2192050 2354159
782.96 2073852 2212739 1905147 2237742 1953397 2369656
788.75 2535510 2721550 2740558 3222747 3499931 3897031
794.53 4176865 4624352 4784715 4935592 4667665 4555476
800.32 4088814 3894071 3913588 4432872 4878135 5039851
806.11 4804750 4709551 4250465 4062477 3733625 3456916
811.89 3085390 2941167 2765298 2938482 3085764 3208139
817.68 3172250 3103534 2791999 2701172 2487642 2492608
823.46 2277763 2227863 2183550 2115800 2020499 2040145
829.25 1947129 1928866 1849959 1825427 1872929 1634626
835.03 1477001 1399453 1203061 1164785 1206198 1345819
840.82 1203383 1172709 1209606 1143101 1144449 1126630
846.60 1076767 1097204 1149408 1156077 1280736 1365418
852.39 1534036 1677911 1904284 1921222 2274335 2504848
858.17 2684086 2673847 3172872 3269127 3488071 3283006
863.96 3273699 3356689 4047613 3768575 3124768 2458310
869.75 4050593 4323214 1795945 2100364 1896713 2004938
875.53 1802056 1616862 1244219 1026904 735703 651217
881.32 483251 467890 293726 305060 270659 231689
887.10 196941 170703 144974 135161 118850 64364
892.89 80253 68417 76817 39251 25257 1668
898.67 4792 40745 33246-26788 43-7498
904.46 9311-16342 6596-20066 48007 3944
910.24 40448-9978 50803 23581 81195 7521
916.03 77034 12662 82828 74223 83229 84576
921.81 141082 100957 124486 100635 146974 95522
927.60 119701 130357 179146 123556 180763 130374
933.39 229851 172936 273502 224175 286358 253999
939.17 348254 341197 449972 470507 591535 615540
944.96 746380 835231 959216 978707 1139360 1167525
950.74 1338227 1379436 1525199 1515541 1694229 1686743
956.53 1871275 1894387 2113105 2145664 2276433 2220255
962.31 2244848 2136217 1964068 1708131 1692182 1352227
968.10 1481304 1438662 1534904 1393507 1405910 1217167
973.88 1190209 953901 938500 797600 810753 690589
979.67 778954 750714 934920 934891 1201136 1293677
985.45 1580052 1721190 2077434 2282269 2706670 2961143
991.24 3460780 3805063 4392302 4754933 5300387 5490919
997.03 5591371 5413700 5546870 5892356 6609061 7124112
1002.81 7797626 8038964 8364916 8729007 9502013 10027896
1008.60 10483473 10232647 9733588 8998217 9111330 9962674
1014.38 10849835 10772930 9508235 7215323 5491206 4171358
1020.17 3414970 2666919 2244201 1773327 1626243 1362027
1025.95 1391125 1215996 1305834 1227966 1300204 1278275
1031.74 1417187 1364540 1484738 1486688 1710325 1691845
1037.52 1919243 2088011 2332564 2194493 2418699 2710728
1043.31 3259940 3604966 3870884 4039281 4516929 5163585
1049.09 6095583 7102290 8383154 9864872 11767584 13967527
1054.88 16510691 19882890 22934472 27229579 32147526 36372299
1060.67 41692818 48013943 54032988 60245332 66639441 72831145
1066.45 77125483 83740222 90241901 94899274 114510124 128809592
1072.24 123231491 146302036 140545010 111096667 131574971 153664962
1078.02 184338191 212486361 246466329 276970650 312862113 350975745
1083.81 395634746 438664419 478480222 491504719 482841354 464545360
1089.59 442923075 345107332 297558536 332015499 363450163 377498178
1095.38 356589920 310027161 251470071 197450009 152330917 118292699
1101.16 92795958 74750523 61038539 50803189 43689065 38534600
1106.95 33966898 30731675 28118926 25838129 24015038 22046251
1112.73 20666243 19081131 17563136 15885674 14464907 12765029
1118.52 11158879 9305627 7753922 6243506 5149251 4011652
1124.31 3299163 2486273 2078914 1533818 1347530 956643
1130.09 914643 592545 617123 332073 433551 229573
1135.88 356562 191496 329068 134601 311423 91127
1141.66 290195 107643 282389 112806 296472 80185
1147.45 239432 78323 306689 61846 284584 68281
1153.23 258551 20424 261158 28949 249031-33398
1159.02 199428 8164 158022-53733 163871-78014
1164.80 168752-77028 143895-92361 139861-107755
1170.59 165741-78549 144610-110669 156188-98862
1176.37 173259-96282 166913-71389 191577-40247
1182.16 191562-60373 240762 6971 268318 10571
1187.95 329092 76955 332249 71290 317873 85683
1193.73 386014 108986 372102 109777 385638 107780
1199.52 421178 116729 428364 136131 442636 149258
1205.30 455145 156109 476191 128959 476212 186853
1211.09 547228 256613 578047 321670 670372 327074
1216.87 665480 346923 690912 371538 709304 408647
1222.66 788175 516660 961822 717263 1216322 1003180
1228.44 1551834 1358907 1921349 1776306 2345880 2191953
1234.23 2864050 2743706 3398302 3345704 4005760 3868725
1240.01 4589109 4464377 5085714 4914672 5453660 5184369
1245.80 5655962 5337875 5811778 5222697 5521467 5154781
1251.59 5129293 4200480 4370135 3575945 3244207 2177143
1257.37 2145766 1375640 1528816 922858 1203945 674821
1263.16 1105136 575994 999117 515576 955014 412072
1268.94 837637 337707 803376 290289 755931 247022
1274.73 682152 113882 568464 8443 510081-33849
1280.51 519714-45365 547988 19458 587371 29634
1286.30 581029-11580 596169 62856 687017 106616
1292.08 647129 50435 649925 75454 658477 38443
1297.87 693705 67635 736003 59618 713887 43893
1303.65 757048 26466 777498 91507 805782 105020
1309.44 848054 59359 837728 33056 743283-63010
1315.23 673601-106158 756872-55754 809562-57665
1321.01 857624-82175 798382-129236 743004-221659
1326.80 726709-266865 692540-313102 697269-349096
1332.58 735739-378999 790832-361021 818489-398574
1338.37 801669-454975 797981-496921 824226-546168
1344.15 876042-616474 868942-619930 872739-740335
1349.94 883096-839092 912142-798850 1121447-689944
1355.72 1389450-722634 1470180-624147 1799700-328553
1361.51 2462126 380125 4015062 1608088 5492283 3562969
1367.29 8357019 6553722 12383078 10486436 17345372 14907001
1373.08 23617725 19263221 25618030 18956774 25936947 15266831
1378.87 24015296 7950108 21989960-729265 91513603 169532556
1384.65 33710504 35287806 3023714 22286227 14511806 29272712
1390.44 24312527 33823807 27707950 32074773 24068453 25088405
1396.22 16600536 16628169 9195487 9775141 4221183 5718459
1402.01 1751786 3922958 945575 3330966 1043807 3457157
1407.79 1614630 4049214 2503626 4918524 3641559 5976372
1413.58 4907090 7088518 6099354 7988381 6896409 8330716
1419.36 7167460 8309321 7247974 8410857 8589352 10216188
1425.15 12040545 11943686 13193785 12704244 7806535 8695667
1430.93 6891669 9007475 8034804 9974474 9219562 11145746
1436.72 10737599 12923497 12843253 15303120 15377470 17660579
1442.51 17710187 19390143 18667726 19455817 17545306 17670123
1448.29 15747471 16019389 14303506 13958179 16119521 28549809
1454.08 35250670 32724545 25739663 19606869 14150751 12992895
1459.86 11782062 12923780 12640979 13762388 13015141 13410339
1465.65 12164106 11901317 10113545 9546956 7707227 7090822
1471.43 5315633 5002139 3564340 3493193 2217429 2364462
1477.22 1322874 1635607 747436 1159009 402069 850732
1483.00 185831 684972 76171 556773-24493 497995
1488.79-73640 449886-83473 425143-117404 404912
1494.57-175079 298544-134417 313343-174732 344700
1500.36-183615 313209-201306 289906-294616 171123
1506.15-309393 212319-214702 247183-195760 235395
1511.93-216561 262471-215924 228192-206949 233374
1517.72-175571 228153-251103 155935-202757 210867
1523.50-161993 183487-167811 225166-170219 232585
1529.29-146635 235474-140068 192735-194933 213775
1535.07-144580 219490-151194 73720-252854 170818
1540.86-217970 144288-142089 167114-173747 201242
1546.64-138060 194422-168906 167263-153578 179244
1552.43-144822 89572-133323 163153-171829 22433
1558.21-188725 41671-166289 174328-156088 177469
1564.00-143601 221793-153938 151281-128786 95108
1569.79-110764 152221-132905 145364-117604 62234
1575.57-214601 169005-131065 186935-115158 163942
1581.36-70378 195281-84643 178952-76267 157774
1587.14-77232 179254-89252 177100-81010 171522
1592.93-65603 170784-68580 164171-86882 151762
1598.71-85214 137276-107673 144539-110494 128402
1604.50-98048 122639-125407 111618-115348 103017
1610.28-128623 107854-134772 101528-120424 29044
1616.07-245749 96730-168406 122574-139400 80523
1621.85-159630 51281-150031 87618-113404 92509
1627.64-136246 86266-135543 85816-105453 102151
1633.43-124394-22626-159470 66376-127252 65405
1639.21-130646 89820-123110 96161-117312 75424
1645.00-214099 83199-151872 74501-109190 83738
1650.78-129206-113272-209011 56915-92120 118477
1656.57-100559 125806-89104 122006-71953 109593
1662.35-88223 137080-66839 134624-36091 145444
1668.14-112688 121443-75442 119105-52793 148906
1673.92-111959 93731-38841 159458-48387 149667
1679.71-20033 160423-31803 155454-135095 116376
1685.49 37239 156985 58114 206300 57611 204823
1691.28 81020 233849 103485 188795-74509 263481
1697.07 30567 235213-70435 146815 104734 242262
1702.85 87946 235470 145984 254098 159530 286070
1708.64 128887 276368 150128 315914 177297 341297
1714.42 222199 441300 187289 450107 233824 415264
1720.21 257469 453355 307386 501482 330007 506644
1725.99 319912 522495 331317 521837 367946 509751
1731.78 342520 356016 213095 424574 279762 379696
1737.56 235531 318994 181426 357612 304850 477659
1743.35 259299 346198 147377 237417 102075 223204
1749.13 113608 181077 59575 214709 64203 191727
1754.92 42470 145621 33132 170083 36731 151171
1760.71-25616 148532 21158 163271 31382 167749
1766.49 37213 145446 64121 167434 65088 147099
1772.28 39590 243569 109113 278858 172171 327549
1778.06 221933 372825 293313 464348 367574 534351
1783.85 447107 629572 535766 728805 642898 820868
1789.63 696740 841182 702110 890000 811257 906101
1795.42 800134 902507 751658 827854 644254 716331
1801.20 561225 621503 435585 456219 293484 332690
1806.99 198587 278138 162441 238911 111045 225647
1812.77 133528 229160 129861 243489 130601 218836
1818.56 130096 237040 125641 213832 111373 174572
1824.35 65998 181437 65987 155239 43140 139189
1830.13 59793 145163 43292 130543 43543 130097
1835.92 17278 97095-3827 95229-4241 64727
1841.70-11868 35471-90426 49957-49863 50197
1847.49-57436 38513-74180 31312-46956 35082
1853.27-72985 22080-69574 37018-61869 28730
1859.06-70714 26153-62899 27334-73370 30750
1864.84-69887 29058-64384 7614-80356 11414
1870.63-55987 26046-69070 41646-55926 47269
1876.41-57327 28788-52562 31384-58729 28821
1882.20-38081 30923-39253 56239-36106 61515
1887.99-19216 47567-11975 82309 3838 93531
1893.77 45792 113390 68526 141392 112943 203124
1899.56 129426 218859 135598 199344 147587 201975
1905.34 222758 297910 283111 465312 263950 491695
1911.13 84956 182456 113112 213301 151266 265166
1916.91 151302 237526 129396 212390 115529 158425
1922.70 50370 135504 57975 113506 43447 139732
1928.48 45148 100952 4946 78145 12672 154709
1934.27 87071 114193 15293 82842 6216 102656
1940.05 21924 97666 5921 94410 683 78872
1945.84-523 76717-13938 61736 34369 114256
1951.63 9013 61723-6863 66285 12452 70376
1957.41 5261 83398 4888 74417-10973 83032
1963.20-1520 70852-18317 60561 963 53339
1968.98-5881 55925-8281 69234 25530 66871
1974.77-43304 71200-18078 62578-9480 60385
1980.55-24899 63050-18140 41914-34035 27131
1986.34-41074 39653-38316 31869-51620 16728
1992.12-52563 24558-55616 31353-33611 9373
1997.91-39920 10787-53010 7881-50264 6427
2003.69-33410 20292-63701 17539-55362 24204
2009.48-66227 6269-50263 23640-42223 10033
2015.27-49416 1731-33789 17909-38937 28193
2021.05-24375 17652-29901 36493-32999 37678
2026.84-32830 25876-18421 24888-34345 34165
2032.62 8075 36576-25810 26805-37335 27331
2038.41-15949 25830-27937 29074-14840 34206
2044.19-53077 23732-30109 35409-10187 12033
2049.98-22084 28552-23980 27246-18799 18192
2055.76-24623 28140-23494 34747-22037 36223
2061.55-34676 33114-25245 47543-16678 46153
2067.33-17283 28669-4321 71852 8014 57400
2073.12 19355 64452 36343 70972-3693 75767
2078.91 20589 99341-12461 80398 38659 81965
2084.69 50505 79783 64292 103458 85409 114809
2090.48 107301 176969 163902 199291 179077 284974
2096.26 277964 361500 334918 488621 514966 633855
2102.05 612079 766285 797645 926894 886870 945287
2107.83 969815 1028209 1031736 1049895 1144851 1161112
2113.62 1088581 1013348 1012336 1034600 1084523 1082318
2119.40 1192119 1292447 1351587 1427989 1494470 1685500
2125.19 1776853 1863285 1839243 2000689 2052888 2264203
2130.97 2279361 2247545 2257723 2309447 2460317 2917522
2136.76 3273952 2779099 1821317 1671227 1584318 1679463
2142.55 1674377 1723534 1525714 1307232 988925 842228
2148.33 682667 699185 614511 657973 589295 602303
2154.12 543367 591396 527963 469182 355190 387922
2159.90 283688 238451 206652 248191 140620 111112
2165.69 81059 116557 6116 20296 26817 39184
2171.47-72696 16915 33794 66507-25674 73697
2177.26 61705 55957-31604 80663 2126 20174
2183.04-8248 82302-23334-9501-10511-2048
2188.83-89380-42489-63085-64655-147538-73183
2194.61-105317-102346-101260-73273-137076-73152
2200.40-111742-86843-114082-64186-107307-71763
2206.19-108011-34588-108462-44706-97387-64334
2211.97-90958-49912-72529-49632-55196-44177
2217.76-93726-32038-63294-14066-62015-32179
2223.54-81348-20701-84965-18760-51603-33585
2229.33-68553-10428-44916-12598-53737-6392
2235.11-54269-22567-36765 1647-69444 2161
2240.90-29791-6462-31198-7632-22962-8287
2246.68-40699 3955-13862 12762-22423 26673
2252.47-25914 21424-4816 15029-33690 12932
2258.25-32562 12300-10310 15894-17634 13890
2264.04 1946 13573-2156-1708-22667-15740
2269.83 8637 11130-51830 7949-27953 4821
2275.61-18881 17283-43231-3930-30218-2442
2281.40-26970-9618-29627-4293-18265 18276
2287.18-43867 1211-30127-7205-23471 10497
2292.97-14435 20259-25110-3-8472 8199
2298.75-17068 18705-22446 36846-39608 20684
2304.54-30592 40106 3880 18673 8219-3187
2310.32 74943 2798 106681-15166 140205 11876
2316.11 178838 16590 181130 44434 209201 83820
2321.89 236783 98422 251065 150233 285813 187871
2327.68 282496 211384 325564 257946 320987 273806
2333.47 339188 301575 337600 322097 296204 301564
2339.25 292179 314432 277549 240904 213346 175148
2345.04 171413 125969 101112 36636 63192 121829
2350.82 153897 214195 249570 295716 309537 367151
2356.61 373930 412662 408614 444411 426275 427508
2362.39 425974 422966 404410 366889 334883 316613
2368.18 279610 252186 225457 184768 151979 134303
2373.96 96232 91053 61364 64126 21281 28334
2379.75 23224 13428-11749 9921-14368 17226
2385.53-3899 5031 2759 4110-1801-903
2391.32 8767-781 6536 18854 8039 16919
2397.11 4599 27686 8568 28267 8023 38783
2402.89 17289 19564 26710 39126 6901 47927
2408.68 42119 39688 51330 55417 68232 51730
2414.46 86466 70787 109095 121364 124938 135607
2420.25 156098 197850 236795 243266 299511 318621
2426.03 361017 405512 449898 515976 588438 677162
2431.82 761519 824666 950887 1007550 1133029 1242776
2437.60 1365534 1500841 1665417 1823120 2055836 2206195
2443.39 2594635 2686198 2810390 2938387 3285938 3074237
2449.17 4055291 4688551 5581773 4800459 2263555 2442575
2454.96 2441103 2793986 2811294 2946400 2752112 2585569
2460.75 2232753 1942205 1580490 1411407 1233935 1221490
2466.53 1089250 1085693 943861 860881 696081 608556
2472.32 548125 542549 493875 504340 435309 411075
2478.10 314733 316753 238509 227809 202152 217456
2483.89 174327 202205 176565 221405 177646 211519
2489.67 176726 210537 194811 215599 151495 216262
2495.46 209766 245879 196547 237515 212898 251071
2501.24 218609 255115 253163 311547 265003 312007
2507.03 324601 337821 315443 331178 335687 342716
2512.81 316886 317402 287034 320404 303901 320321
2518.60 303773 329592 293372 293608 271732 268431
2524.39 241293 234689 232579 239236 231551 218714
2530.17 218524 224644 212778 253544 227513 256647
2535.96 252108 271051 238974 295283 231006 238894
2541.74 246828 243072 226578 231865 217273 232105
2547.53 212984 209767 180079 185230 166076 183690
2553.31 134528 147914 127767 150422 94209 112706
2559.10 102194 90385 75918 68696 50799 25132
2564.88 27480 25497 1967 12121 4374 29656
2570.67-24705 12782 2511 4815-21288 15573
2576.45-20621-21052-15324 980-6075-8021
2582.24-9063-11638-30349-22182-25603-3804
2588.03-15784-28964-24505-16629-18449-19703
2593.81-23393-9471-3422-6951-36948-4551
2599.60 2315 18059-13546 7776-3842 15066
2605.38 23446 32626 9392 8790 2764 14304
2611.17 7863 5508 1912 1170 16801-10084
2616.95-2369-854-30471-16221-17109-5239
2622.74-26050 4833-15765 7070-14637-7890
2628.52-13809-23022-11518-9468 5131-3714
2634.31-29886 5477-32101 7788-6032 9806
2640.09-5090 17118 14230-7603 38220 15421
2645.88 7208 13395 18078 44585 31607 50818
2651.67 53186 79511 37725 72828 78915 91425
2657.45 75105 98600 112049 128277 96581 113118
2663.24 116086 115935 125161 157866 151789 168482
2669.02 192885 139774 124651 135619 101655 106310
2674.81 88914 104659 88675 79592 66091 67744
2680.59 57057 50050 22897 32499 22072 12259
2686.38 9618 9172 2507-3040 2413-20064
2692.16 11399-5597-26999-24011-29886-22334
2697.95-22869-26954-43520-21234-20508-14310
2703.73-13981-1511 13934 21238-2126 708
2709.52 18360 2458 15993-28208-24541-41799
2715.31-48650 22885-32434 24493-20772-18754
2721.09-40567-13092-23908 1008 4846-14769
2726.88-31102-26100-29047-26410-32575-27162
2732.66-30718-791-23881-6610-47973 4841
2738.45-38243-6063-3891-5734-37005-50252
2744.23-28488-51134-46960 27041 119959-33065
2750.02 6793-32770-40593-2811-25116 14908
2755.80-13262 5566 311 27056 36519 40631
2761.59 11499 39512-6297 24976-30759-119004
2767.37-222957-65691 33374-22127 61771 52436
2773.16 42644 41266 31133 26537 35753 13447
2778.95 23181-10119 4262 9131 28405 4344
2784.73 14468 15105-20754 20206 14787 11831
2790.52 50979 56654 87945 97472 88273 109772
2796.30 152953 157522 167948 192495 210690 222813
2802.09 226197 226808 257849 259754 321187 270291
2807.87 346704 339516 266822 308397 304192 334169
2813.66 370909 414627 420537 478714 470816 531154
2819.44 553718 607260 602555 630481 582285 609090
2825.23 599702 673645 692354 806250 818042 639362
2831.01 541304 570335 639237 722594 742315 741170
2836.80 703845 605137 509301 518137 538131 584033
2842.59 611233 573706 596831 618337 597255 556449
2848.37 652652 669057 638346 671540 705894 691397
2854.16 726281 758616 794897 911076 905435 985142
2859.94 1006795 1041471 1095747 1159006 1196714 1285151
2865.73 1374135 1407852 1467179 1526348 1523014 1468910
2871.51 1461335 1463950 1426390 1381242 1302019 1311703
2877.30 1262752 1285320 1273245 1258810 1247226 1213839
2883.08 1207571 1278289 1225772 1168497 1167417 1221361
2888.87 1137710 1201636 1238361 1214930 1219552 1300669
2894.65 1217114 1213409 1133246 1117415 991841 969962
2900.44 918439 947827 890013 852218 808070 763139
2906.23 668275 664745 595950 578014 496873 512652
2912.01 394824 422684 348156 343702 244826 265500
2917.80 198297 199998 120766 192144 116481 127856
2923.58 101282 161817 91944 192761 206979 343413
2929.37 406968 607379 783400 1200473 1496538 2119020
2935.15 2629899 3404071 4033581 4869080 5433874 6036896
2940.94 6155147 6340374 6044257 5856592 4644438 4003395
2946.72 3302413 4302417 14125880 51936787 10576118 1947591
2952.51 3842829 3732208 5445641 5804973 6954642 6907199
2958.29 7236597 6664805 6280344 5347392 4806440 3723081
2964.08 3120237 2278717 1873406 1348851 1133534 811538
2969.87 793688 560245 567545 387789 461764 379407
2975.65 423728 290305 418544 337797 372829 334397
2981.44 422235 330076 458254 383671 460020 457706
2987.22 548094 571174 718022 733095 961239 1047113
2993.01 1318899 1619320 2128367 2787519 3792351 5157425
2998.79 7096655 9581037 12689022 16123966 19447071 22321773
3004.58 24514286 25358151 24632112 22820896 21307748 22489475
3010.36 29442207 43081905 50409646 39748055 27113401 21291430
3016.15 21396588 23702252 26004198 26748810 25950999 23410022
3021.93 20055456 16166028 12544856 9250572 6690089 4586486
3027.72 3175480 2038248 1415790 867241 647876 384996
3033.51 303051 161200 166164 115967 118852 51851
3039.29 89303 31372 81267 39115 108313 61133
3045.08 82951 29877 99111 78735 100807 19080
3050.86 62620 6946 48919 13655 62172 32825
3056.65 72341-37599 81593 1454 55459-52084
3062.43 58620 6119 51654 100 23615-14993
3068.22 40374-22485 42254-44199-3421-28205
3074.00 51813 27640 24846-27091 24282-13896
3079.79-15233-47541-11172-13490 35842-41449
3085.57 471-39342 12856-25012-10260 17962
3091.36 51359-20603 39714 4872 28691-44479
3097.15 50071-55422 35769-42479 21896-46650
3102.93 12287-6615 7139-56386-14557-26738
3108.72-2395-12431-67643-23704 29875-49673
3114.50 17011-50894 8730-3852-19981-43231
3120.29 2168-59268-5954 5942 1735-53807
3126.07 24998-30450-14489-42815 8466-35316
3131.86-10025-44693 44325-42066 15154-39320
3137.64 28925-51997 11461-32422 49443-9610
3143.43-184-31767-12361 6860 29324-22155
3149.21 13745-2071 54895 19869 55428 20365
3155.00 39396 20263 48950 15390 39772 34580
3160.79 84790 58177 74025 58295 90652 53977
3166.57 103115 89166 157606 88867 114067 112663
3172.36 170068 122598 158396 133237 201275 175691
3178.14 246511 180481 262391 177161 207349 194700
3183.93 196745 210317 274807 252267 345966 240544
3189.71 252026 176688 218476 169297 234001 162447
3195.50 227810 111981 136928 88398 161342 90143
3201.28 136792 54165 99242 28814 99328 50527
3207.07 112953 90017 103319 31911 94381 55049
3212.85 104802 34036 103438 35690 95140 55566
3218.64 73292 13496 38461 33221 38528-8672
3224.43 39627-2638 385 18809 40890 6790
3230.21 64313 10039 78790 16907 145862 88212
3236.00 142942 128592 207982 213600 298636 300384
3241.78 327997 349228 392735 338328 456019 400204
3247.57 497073 482428 498547 416411 439886 384906
3253.35 486953 502311 526317 397040 371699 270641
3259.14 304609 256088 245050 201502 187738 109184
3264.92 148776 77340 102165 25206 70880 31612
3270.71 91941 1159 52560 34634 72644 28768
3276.49 99257 48604 129963 70453 166975 147865
3282.28 225831 220671 276118 195475 272516 332110
3288.07 376588 432167 468106 465619 482250 450661
3293.85 586659 478532 496785 406749 403334 414006
3299.64 494044 492511 410679 350113 260147 205397
3305.42 220281 227270 229896 160684 209273 159718
3311.21 170144 58353 77596 51479 45259-1964
3316.99 20230-17668-8922-80048-14831-30276
3322.78 20578-33867-3085-38991 37305-55950
3328.56 12579-6209 31974 1943 71066 34067
3334.35 87082 61410 192186 209347 252987 284305
3340.13 386206 424493 510883 554741 720478 668493
3345.92 759842 773634 848563 860593 946681 988754
3351.71 1319026 1367979 1317474 1472805 1953611 1565091
3357.49 1364671 1149532 1092134 987094 925537 864421
3363.28 873612 754372 751292 648747 639349 522753
3369.06 507826 370146 330254 273497 235160 133770
3374.85 142087 98930 99492 19866 65119 39488
3380.63-16102-2795-8804-65649 15067-52297
3386.42-13473-45185-23657-60129-6121-62607
3392.20-35186-44696-16837-45320-38272-83187
3397.99-16695-58678-5685-80442-10546-77748
3403.77-28264-73928-16207-89193 6240-74717
3409.56-5061-76675 13799-81813-11629-50051
3415.35 1131-66703-46257-64496-35448-73855
3421.13-53741-51685 18649-58636-13978-65830
3426.92-53072-53324-50287-34505-53358-43451
3432.70-26380-22379 9941-4587-19618-42820
3438.49-33310-96414-10222-75870-25616-73889
3444.27 1006-34349 18627-48111-27715-104117
3450.06-28269-51048 17161-46701-35829-29021
3455.84 14163-57249 29042-75648 19641-20657
3461.63 38789 2074 40743-27920 39679-27744
3467.41 61282 21628 36540-26858 59250 13735
3473.20 87950 63999 73157 87557 43990-14318
3478.99 44360 4743 52416 11876 40565 1931
3484.77 49762 17044 63229 7815 74822 22173
3490.56 28967 3437 79271-19064 49887 28693
3496.34 33700 366 112778 31319 50812-27697
3502.13 29583-12257 7217 26652 36256 8203
3507.91 28064-10944 55097-36267 55730-2510
3513.70 35286-1757 66779 32797 85066 52771
3519.48 49775 13331 73667 96012 157766 131716
3525.27 191360 95729 205499 187620 223881 209101
3531.05 281491 224986 252615 228553 278380 260524
3536.84 357165 268024 321201 272491 291927 240033
3542.63 225466 247878 253171 191620 184802 191572
3548.41 150552 117772 144938 47276 119772 6365
3554.20 70872 30884 46920-3283 81864-23237
3559.98 66907-13000 50822-37674 13939-15966
3565.77 33815-73087 56697-16944 31225 7532
3571.55 68549-36350 12853-41577 61525-35157
3577.34 106-39995-6154-60289 14222-41191
3583.12 14459-37793 26869-85560-3904-107284
3588.91 15472-65803 26725-34997 32680-37817
3594.69-20580-17712 13612-90531-20021-47703
3600.48 2638-40626 20325-72796-4698-64529
3606.27-1765-48863 36644-33060 15900-112296
3612.05-43413-67659-14492-65052-12589-98243
3617.84-1772-92107-1716-24965 6317-93280
3623.62 27676-57756-23418-52185-15568-149708
3629.41-15834-59116-10720-50194-7014-29086
3635.19-2616-43680-1479-61920 79-3023
3640.98-29604-54732-392-44054-1475-42516
3646.76 12736-120669-55141-98614-34682-22692
3652.55-10234-58560-26031-97399-31213-53818
3658.33-4625-53984 25576-49702 9121-49538
3664.12 10217-42361 37961-21485-32663-39797
3669.91-79044-12667 22538-29756 13953-71869
3675.69 2648 4047 40849-14496 28130-19668
3681.48 28412-51970 5495-65871-2312-62197
3687.26-109961-108234 27360-71326-32989-70052
3693.05 5296-36162 7582-39364 8681-30908
3698.83-22767-39725-23509-54625 3951-68425
3704.62-53685-61458 6930-83389-22688-89264
3710.40-7393-144133-27581-46076-7812-36211
3716.19-17458-52635 718-24618 8973-32750
3721.97 14349-42017 73480-48672-2470 3682
3727.76 64542-6525 77241-11545 19169 35991
3733.55 17786-6488-34263-16624 50761-16264
3739.33 34811-10144 67052-6864-97072-143202
3745.12 34834-44145 41707-142499-50327-16664
3750.90-96145-133606 18293-72231-46403-90457
3756.69-4287-64814-34835-84039 17738-96100
3762.47 423-85698-30377-102193-17791-61430
3768.26-49395-93652 10237-76653-9665-62577
3774.04-15901-62161-45234-95370-40638-117471
3779.83 3890-73409 220-97861 3909-90404
3785.61-10305-52868-3327-67783 16-55714
3791.40 14482-83509-7202-89147 7106-96259
3797.19 21200-68862 23137-158086-57477-36694
3802.97 4154-40076-1072-169318-26846-57791
3808.76 639-28755 52233-48156 28338-44263
3814.54-28792-131622 97864-71032 30639-76158
3820.33-26611-58262 66860-48634 13431-57764
3826.11 77799-27995 72984 17250 76433-39023
3831.90 41615-7625 17146-52262 53187-144999
3837.68 16670-38710 21486-57013 31290-92994
3843.47-15639-82104 6949-81697-34902-74386
3849.25 9222-113550-87308-66030-156558-111804
3855.04 17370-93394-5117-77456-23555-59284
3860.83-32228-69314-26474-111194-48840-69558
3866.61-43343-87307-58183-107405-43-71421
3872.40-9912-80257-2330-54159 13919-86927
3878.18-254-112942-15635-70692-2459-17747
3883.97-15220-117224 11139-75496 40789-80271
3889.75-6747-63985 25889-100909 6282-37958
3895.54-7314-45740 3206-104379 25847-80463
3901.32 45059-22418-39639-41533-5177-59986
3907.11 57195-31710 75264-21311 45374 13382
3912.89 47024-11454 57613 32295 69622 38277
3918.68 54935 39388 85610 14151 129998-7833
3924.47 113448 22269 117824 67250 133668 29208
3930.25 156475 60308 127012 68111 147760 84330
3936.04 157376 65945 157228 83882 180817 93786
3941.82 198426 123626 235082 148155 226918 192489
3947.61 240654 171670 267484 198001 274936 174054
3953.39 273914 225851 302488 225845 272968 162697
3959.18 235488 192411 283495 164820 262042 198666
3964.96 233429 142337 288701 133302 218564 153385
3970.75 238019 215925 222471 205186
##END=
