##TITLE=1,1,1-Trichloroethane
##JCAMP-DX=4.24
##DATA TYPE=INFRARED SPECTRUM
##CLASS=IUPAC A
##ORIGIN=NIST, Analytical Chemistry Division, 301-975-3108
##OWNER=COPYRIGHT (C) 2001 by the U.S. Secretary of Commerce
##DATE=01/06/01
##$SPECTRA VERSION=1.10
##$UNCERTAINTY IN Y=2.1 % relative (B=1.08E-04,C=2.81E-10,D=2.71E-15)
##CAS NAME=1,1,1-Trichloroethane
##CAS REGISTRY NO=71-55-6
##MOLFORM=C H3 C Cl3
##MP=-30.41 C
##BP=74.1 C
##$NIST SOURCE=QUANT-IR
##SPECTROMETER/DATA SYSTEM=IFS66V (Bruker)
##INSTRUMENT PARAMETERS=KBr Beam Splitter; MCT Detector; Multipass cell
##STATE=gas
##SAMPLE DESCRIPTION=1,1,1-Trichloroethane Primary Gas Standard
##PRESSURE=101.3 Pa
##TEMPERATURE=23 C
##SAMPLING PROCEDURE=1 L/min Flow
##RESOLUTION=1.9290
##DATA PROCESSING=3-Term B-H Apodization
##XUNITS=cm-1
##YUNITS=(micromol/mol)-1m-1 (base 10)
##XFACTOR=1.0
##YFACTOR=18.189E-13
##DELTAX=0.9645
##FIRSTX=575.652
##LASTX=3974.606
##FIRSTY=3.46E-06
##MAXX=3973.64
##MINX=575.65
##MAXY=.0019085
##MINY=-2.55E-07
##NPOINTS=3526
##XYDATA=(X++(Y..Y))
575.65 1904940 1778595 1703203 1562414 1314545 1117021
580.47 1015107 918113 792073 732942 770926 773841
586.26 737730 745902 775817 717015 609305 514359
592.04 413813 318857 256680 191941 131879 97506
597.83 63646 20653-12854-19258-1352-10190
603.62-14132-7283 5510 3537-25779-62054
609.40-47743 12485 43198 27748-201-20189
615.19-13626-4403 19730 42203 20072-5294
620.97 11817 23346 34321 56755 65411 47846
626.76 51482 60717 33789-23476-59496-60429
632.54-51149-52210-38126-14753-7449-28881
638.33-47475-56251-56430-64661-50839-28681
644.11-27840-39699-47434-46970-28690-8231
649.90 21999 42978 69097 93017 102819 118260
655.68 161714 221300 285076 329874 394683 496993
661.47 613891 731887 889758 1072404 1331580 1689629
667.26 1969530 2173321 2449973 2789222 3234403 3760095
673.04 4297320 4890362 5617395 6421156 7288783 8242484
678.83 9242679 10230571 11291460 12573098 14172692 15960002
684.61 17452589 18374857 19327971 20401044 20696528 20126082
690.40 19511080 19156719 19038582 19179603 19668510 20562089
696.18 21916069 23766013 26188620 29245532 33025967 37584640
701.97 43040245 49581848 57587924 67643372 80543436 97050860
707.75 117618414 142314398 171623010 206819507 249488840 300798143
713.54 361465555 431577791 510875530 597962724 690263499 784218869
719.32 872271978 945133384 997917222 1029730862 1044200276 1048696512
725.11 1049229788 1049084190 1036817454 975437699 847328777 680681025
730.90 518678107 388219127 291320338 220298643 167803103 128281169
736.68 98231721 75715405 59284837 47547100 39204912 33168863
742.47 28513892 24678023 21553624 19511709 18704260 18333841
748.25 17465898 16142483 14705009 13261488 11878703 10750511
754.04 9916115 9111325 8258167 7804446 7752425 7285027
759.82 6463839 6557920 7410665 7141615 5706675 5263542
765.61 6039499 6053862 4802803 3834185 3669158 3747929
771.39 3819034 3802569 3663534 3494970 3325907 3154952
777.18 2970969 2790312 2631473 2483450 2344616 2248652
782.96 2176136 2108258 2073004 2088498 2148837 2316075
788.75 2525596 2685911 2877744 3178603 3526497 3869959
794.53 4215836 4536441 4753640 4804018 4688116 4456150
800.32 4172449 3994916 4083066 4417158 4766481 4904006
806.11 4820505 4606477 4319390 4029078 3741392 3436885
811.89 3154935 2953617 2877507 2942826 3070299 3153942
817.68 3145595 3031332 2849912 2678323 2545741 2435699
823.46 2323379 2235301 2174993 2110388 2052647 2010706
829.25 1964783 1914090 1868245 1839887 1785234 1652939
835.03 1501754 1369907 1253372 1201076 1230394 1261622
840.82 1231545 1195203 1181055 1160502 1139581 1118145
846.60 1099814 1108605 1140405 1191390 1275622 1390385
852.39 1532513 1695694 1852174 2018334 2245408 2475668
858.17 2640080 2817425 3065797 3276619 3361611 3334075
863.96 3335808 3521325 3739099 3609612 3192361 3146001
869.75 3596308 3464745 2593698 2058239 1966559 1915950
875.53 1788109 1562232 1284815 1017011 797272 638069
881.32 523708 429196 346467 297226 267516 233230
887.10 199920 171838 149957 132148 108859 84837
892.89 74749 72135 63475 44782 24102 11350
898.67 14897 25712 17734-1738-6825-2554
904.46-1727-4050-3995 4600 18170 22484
910.24 19531 19568 29704 42721 47165 43982
916.03 44121 48366 63018 76576 83599 98537
921.81 114094 116131 114247 117907 120675 115920
927.60 119772 138194 150889 152157 155876 169073
933.39 190729 212457 234993 251067 264781 287770
939.17 324628 371681 429599 496130 567924 645075
944.96 738232 840953 931926 1015621 1107142 1203900
950.74 1305542 1402444 1485824 1563787 1648231 1735956
956.53 1833684 1944777 2063684 2163097 2222205 2234065
962.31 2201834 2106787 1943576 1770693 1613994 1486432
968.10 1449061 1468000 1468552 1426572 1352435 1253972
973.88 1136701 1013094 912189 837877 781388 749086
979.67 757383 808479 893454 1008050 1162387 1344620
985.45 1548613 1779993 2044990 2341558 2669343 3028671
991.24 3429159 3869701 4335496 4791942 5187647 5436297
997.03 5508892 5513049 5643527 6014537 6563900 7150980
1002.81 7665501 8051109 8396975 8854852 9434369 9967064
1008.60 10239155 10113884 9679854 9296400 9388497 9965475
1014.38 10487990 10304417 9146457 7377165 5668652 4372514
1020.17 3452910 2772050 2254119 1872982 1612268 1445504
1025.95 1346253 1288172 1267268 1266827 1281634 1319712
1031.74 1367574 1408961 1461581 1545126 1649432 1760580
1037.52 1912754 2095390 2224416 2300850 2465483 2789682
1043.31 3200021 3567067 3848014 4143546 4595916 5266830
1049.09 6142249 7203126 8476567 10022683 11895340 14124706
1054.88 16783495 19859808 23354294 27455636 31988206 36743838
1060.67 42052399 47962091 54091559 60304523 66505031 72292657
1066.45 77806880 83721933 90224729 99520271 112572594 123214026
1072.24 130698703 137042758 133609664 126597505 134420587 156442910
1078.02 184079527 214159844 245768954 278686024 314061291 353143222
1083.81 395229153 436481830 468705024 482948045 478690692 460053001
1089.59 419785138 361818283 326325576 333582552 356242100 364327114
1095.38 346313424 305252237 252830641 200984042 156653621 121826792
1101.16 95749108 76604299 62473907 52042151 44478639 38857423
1106.95 34451823 31001761 28270583 25995626 24008697 22225469
1112.73 20624946 19088700 17523653 15952492 14387236 12774923
1118.52 11093482 9396376 7795890 6379922 5168356 4145392
1124.31 3299134 2609853 2064013 1637946 1308455 1051878
1130.09 850323 682894 544609 434489 361783 314461
1135.88 285867 266039 246855 227500 212488 197831
1141.66 195789 196080 197596 199189 194156 174827
1147.45 164659 174636 185426 179076 175206 167276
1153.23 153111 141786 142918 138660 122534 98900
1159.02 94249 88928 69933 54570 49523 44551
1164.80 45040 38429 30985 24182 21674 23651
1170.59 35066 35311 26882 20965 26568 31919
1176.37 37579 37133 43381 53561 67508 73062
1182.16 73168 80681 106828 127624 140496 156419
1187.95 184844 200337 203123 198348 202035 218514
1193.73 239131 242469 242473 243554 248758 255303
1199.52 266350 270409 278417 284833 293330 298092
1205.30 304993 308783 309347 305098 320651 348961
1211.09 383686 408689 436738 469835 494368 497237
1216.87 503245 511937 525605 535513 552876 580669
1222.66 629966 698619 793439 905636 1042353 1195461
1228.44 1368694 1549267 1747524 1954015 2169600 2402839
1234.23 2667548 2938482 3225269 3519866 3806508 4084906
1240.01 4375429 4644222 4883493 5084156 5246019 5364080
1245.80 5457668 5524259 5529662 5445444 5351883 5204551
1251.59 4890031 4486814 4115826 3660321 3062364 2458455
1257.37 1981056 1619148 1351532 1151643 1011339 919416
1263.16 866161 814415 776014 743483 707719 654166
1268.94 610689 578991 559364 533937 512444 478315
1274.73 430950 369439 318247 275059 252664 240399
1280.51 242162 245847 269331 290061 305526 303522
1286.30 297280 291619 315300 349591 382173 381513
1292.08 365911 351232 358100 360952 360243 358327
1297.87 375222 388185 398910 390346 387029 387918
1303.65 396982 398321 420313 437817 454310 461856
1309.44 464914 449972 440575 407161 366991 322921
1315.23 302424 306232 338798 359603 378364 384884
1321.01 391873 369790 348705 316726 287576 256125
1326.80 242893 218945 205225 188837 186940 181333
1332.58 189197 191240 212167 216763 220518 202044
1338.37 190976 169922 165322 153596 155650 147727
1344.15 148596 127007 129443 117169 100366 65682
1349.94 51528 30512 57965 107242 195419 272375
1355.72 339294 353511 413499 507666 680435 911514
1361.51 1285195 1822921 2508981 3201963 4100982 5276598
1367.29 6761755 8489835 10498113 12683911 15084305 17678040
1373.08 20198169 21742716 22313332 22216369 21457197 19953971
1378.87 17838069 15385396 15678700 34954165 82923286 104264435
1384.65 68958809 31669525 17512495 16351706 20051094 24270048
1390.44 27658895 29686574 30037092 28789159 26162282 22664679
1396.22 18721433 14835862 11285016 8360003 6074565 4448727
1402.01 3344604 2689795 2315522 2196998 2231893 2416852
1407.79 2691269 3070027 3498755 4007547 4545131 5131667
1413.58 5712881 6291343 6799719 7224697 7504047 7670098
1419.36 7733367 7766087 7851251 8233455 9033234 10262240
1425.15 11471565 12240473 12501923 11418678 9423306 8196818
1430.93 7948338 8265091 8760969 9312219 9899752 10589045
1436.72 11406207 12383576 13492142 14708782 15918969 17080065
1442.51 18061302 18726582 18961111 18711135 18024888 17166108
1448.29 16307440 15508613 14773599 15241407 19359970 26711723
1454.08 31820620 30930297 25869268 20032780 15585257 13238964
1459.86 12495168 12605351 12971109 13250348 13250820 12956161
1465.65 12361246 11488452 10403250 9226197 8012140 6817098
1471.43 5704627 4745403 3920346 3208575 2589303 2084602
1477.22 1672435 1346844 1079893 874980 707108 579350
1483.00 479637 410832 347544 295356 252133 226226
1488.79 200365 187884 174789 163818 146566 127273
1494.57 90928 77807 81476 81186 77155 81557
1500.36 71064 61937 45898 18507-30226-57944
1506.15-55727-23952 3435 20236 20119 17238
1511.93 15894 21856 13903 11018 11732 21685
1517.72 22365 5835-25708-29522-10924 11948
1523.50 14866 12881 17480 27684 29380 37857
1529.29 42090 45181 33717 16026 7353 22341
1535.07 32884 30700-6789-53855-60802-36199
1540.86-29504-15121 1816 5841 7006 21922
1546.64 26427 20516 6940 5365 8776 11799
1552.43-5782-17723-6097-2426-39310-72089
1558.21-77319-62888-30301 2261 9182 16245
1564.00 26269 32870 16871 6244-3695-7319
1569.79 4285 13330 8736 7696-11893-43852
1575.57-43148-4595 20016 31050 30572 38368
1581.36 51665 57665 51467 49691 45078 42776
1587.14 44600 47712 44609 46491 46308 49898
1592.93 51466 52196 48263 43583 35733 33357
1598.71 28134 21850 16785 17422 12987 13046
1604.50 11611 5821-3251-3715-5485-8400
1610.28-11885-11777-14815-15094-33556-70949
1616.07-84159-56087-31973-17676-21466-33424
1621.85-46234-48671-39757-22757-14524-16066
1627.64-23049-24040-24130-16170-8165-11444
1633.43-43357-73518-66576-41542-32564-30290
1639.21-26593-18713-15657-12567-20320-43420
1645.00-61813-49893-37850-26802-17980-25402
1650.78-74635-126508-111246-50619-7616 9447
1656.57 11033 15586 17104 20893 20139 16797
1662.35 18529 29114 34380 42561 47287 34686
1668.14 14284 15074 21358 29215 36907 30465
1673.92 9348 14368 40196 55427 54091 58992
1679.71 65487 67086 58977 35236 10663 37285
1685.49 80717 102943 118729 130433 132171 138610
1691.28 149802 160464 149199 106812 86291 117376
1697.07 131258 105883 70588 89582 141812 165609
1702.85 166000 177515 193379 204204 212786 213836
1708.64 206735 210224 223011 239625 253283 273825
1714.42 303173 319989 319089 329190 331861 333760
1720.21 346497 368708 390904 408835 415313 416670
1725.99 417615 423883 427273 435703 439050 427260
1731.78 383361 325909 309028 331444 336256 318343
1737.56 291768 267941 266512 303881 354273 370383
1743.35 332611 276016 221877 185093 168130 164700
1749.13 155060 137067 130719 136431 132325 121955
1754.92 105754 94771 95699 101120 95763 79365
1760.71 66010 74209 86752 94700 97943 100290
1766.49 97448 100043 109027 114595 109903 104578
1772.28 120845 156952 184535 210620 236840 262485
1778.06 286602 317339 355757 396872 433348 472156
1783.85 514565 561002 607858 659126 706433 742871
1789.63 761633 771780 787561 822372 849677 855364
1795.42 850484 836697 805807 761763 708826 660475
1801.20 613119 557465 486318 412256 345592 292308
1806.99 254066 230172 209643 189106 174291 174885
1812.77 179200 181094 183007 185593 180586 176507
1818.56 178621 181081 174905 165767 151352 133666
1824.35 123524 122688 116007 105550 96487 96415
1830.13 99470 97766 91004 87755 85669 79209
1835.92 65406 53365 46742 44706 37376 28563
1841.70 16153-5892-19463-10363-2044-1944
1847.49-7153-13214-18159-13968-9185-12875
1853.27-21284-23264-20085-15019-15384-18321
1859.06-21216-19949-19021-20077-21862-20390
1864.84-20156-19585-24077-31182-34043-27754
1870.63-20295-17985-16824-10566-6556-5379
1876.41-9638-12038-11873-12121-13468-9418
1882.20-5135-2782 2132 8716 11697 16384
1887.99 17099 18069 26632 38400 46709 59684
1893.77 73724 85735 98673 117523 141349 160533
1899.56 169601 174501 172400 171487 176496 197311
1905.34 235697 278363 328970 364305 364370 320556
1911.13 218604 154421 155684 173776 193524 205354
1916.91 200209 189275 177261 166505 148265 122102
1922.70 101313 95074 90200 84173 85472 89674
1928.48 80901 63818 48939 47583 66936 97909
1934.27 104855 83205 59185 49001 50252 57597
1940.05 59595 56068 51185 48593 43611 40199
1945.84 37960 34441 29885 38776 58133 64039
1951.63 48683 33809 29790 34676 39204 40121
1957.41 41168 43556 41102 36574 34658 37788
1963.20 36479 30739 24917 26233 27784 25965
1968.98 24402 25000 28410 38457 42621 29443
1974.77 16316 19991 23538 24841 24875 21980
1980.55 19075 20029 16100 8331 426-3971
1986.34-3635-630-2095-6652-13357-16603
1992.12-16223-14614-13042-7583-7877-12656
1997.91-15311-17869-21363-21674-21137-16980
2003.69-12007-14621-21064-20434-18192-19061
2009.48-24631-24431-18128-12357-13441-17546
2015.27-20998-18860-12914-9327-7314-2409
2021.05-1638-3469-1457 1988 2000 2039
2026.84-120 679 2171-215-254 10358
2032.62 18633 13483 3685-1832-3987 396
2038.41 3889 2248 615 4040 6252-327
2044.19-9830-7893-535 6378 5423-401
2049.98-603 2180 2112 2740 1422-909
2055.76-570 2036 3853 5928 6024 3910
2061.55 700 2426 7347 12832 14566 14103
2067.33 10467 11433 22810 34737 36142 36501
2073.12 40262 46219 49692 43714 37197 43016
2078.91 51636 50251 41787 47725 58260 63216
2084.69 65692 69670 78180 88736 97244 107640
2090.48 127875 154808 174316 187968 213766 256523
2096.26 298828 336109 384644 457655 534704 598354
2102.05 659363 736840 818181 879150 911111 939412
2107.83 977407 1012134 1037404 1072547 1118564 1128764
2113.62 1087117 1038507 1024006 1042529 1072958 1116616
2119.40 1191817 1279246 1355224 1430352 1530980 1657545
2125.19 1766915 1834203 1891379 1978506 2092980 2204306
2130.97 2257847 2261104 2276941 2355747 2560730 2862881
2136.76 2972403 2625531 2070403 1731156 1642564 1655947
2142.55 1678415 1643856 1505199 1280469 1040749 851781
2148.33 735903 678045 648089 629502 608796 586178
2154.12 571186 559258 522887 457069 395703 351146
2159.90 298145 248100 225332 205280 160296 116622
2165.69 96757 76222 40907 22952 23510 6644
2171.47-14410 1667 31159 33757 27796 45005
2177.26 56101 37285 23140 29821 24407 13470
2183.04 21162 27398 7492-9262-11787-27777
2188.83-51823-58554-62739-84344-103403-100492
2194.61-98095-100508-96147-97255-102879-99202
2200.40-97044-98374-94532-88524-88034-87851
2206.19-80718-73105-73767-74049-76243-77831
2211.97-73648-66310-61249-56507-53283-58980
2217.76-63321-54929-44426-39671-43481-50661
2223.54-53406-52153-51043-44065-40943-45262
2229.33-43786-34471-29582-30541-31396-30968
2235.11-33757-32386-25664-26533-31079-23963
2240.90-17665-18124-18800-17288-16526-19490
2246.68-19761-11722-4208-2412-1255 617
2252.47-81 3074 4669-1857-8783-9926
2258.25-9246-4317 662 812-385 3143
2264.04 6872 6175 1218-6984-13677-9778
2269.83-442-6343-17954-15852-11454-8611
2275.61-5311-8102-16919-19348-17155-15797
2281.40-16785-18417-17791-13388-7162-7844
2287.18-15634-17456-16909-15919-10880-4470
2292.97-382-847-6495-7228-3217-2142
2298.75-1755-129 2074 1716-4552-5662
2304.54 760 11887 15378 12375 10453 20190
2310.32 36172 45641 50596 55581 69830 84452
2316.11 95499 98803 107211 119888 137000 152083
2321.89 163782 172291 188818 208485 226211 235217
2327.68 243102 258393 278450 289235 294469 302281
2333.47 312782 319607 323204 317886 305459 299219
2339.25 299630 296298 275644 243472 211581 184378
2345.04 159913 129500 92538 66196 76268 115503
2350.82 161117 207565 250835 287275 320607 353477
2356.61 380702 401474 417852 429067 430382 427309
2362.39 424765 417057 397792 368491 338865 311392
2368.18 282037 252240 221218 187405 156441 129515
2373.96 105242 85602 69230 52429 35359 26136
2379.75 20596 10053 1187-1083 52 3338
2385.53 3427 2691 3216 2141 492 1482
2391.32 3479 4187 7928 12245 12743 12148
2397.11 13701 16783 18046 18724 21100 24606
2402.89 23208 22312 26863 27594 27304 35601
2408.68 41929 44138 49755 56819 60991 65378
2414.46 74098 85466 102348 117762 127310 139952
2420.25 163349 196485 228004 256835 290225 324871
2426.03 362624 406419 457262 519573 593852 675534
2431.82 756887 841759 933296 1026743 1131110 1246918
2437.60 1371325 1510666 1667294 1844190 2041225 2269263
2443.39 2507983 2685291 2821628 2988398 3158448 3429529
2449.17 3998759 4693709 4973282 4265875 3077680 2504992
2454.96 2536889 2702620 2823591 2844125 2740786 2528037
2460.75 2242979 1928959 1640521 1422823 1282986 1193832
2466.53 1121235 1047768 954446 839436 719259 622677
2472.32 565484 532928 508416 482382 443997 393094
2478.10 340960 296998 256891 227201 212680 202725
2483.89 193183 190256 194053 198212 196880 194789
2489.67 194546 198453 201463 194306 187579 199680
2495.46 217534 223118 220183 222067 228097 233122
2501.24 236909 247623 267273 283226 290167 304451
2507.03 322033 327680 326089 329106 334767 333082
2512.81 323002 310841 304741 307875 311418 312490
2518.60 313906 312365 301996 288535 276004 262162
2524.39 247262 237324 235065 234675 229794 222908
2530.17 220382 221079 226683 235905 241627 248717
2535.96 256455 258748 261167 262091 249901 241305
2541.74 242491 239294 232430 227373 224792 222764
2547.53 215807 203095 189495 180095 174528 165721
2553.31 151070 141088 137354 129208 114441 106099
2559.10 100514 89749 77766 65174 48938 33842
2564.88 26316 19593 11453 8892 11343 8479
2570.67 374 1254 3619-1510-4655-4478
2576.45-11540-17196-12536-6060-5288-7583
2582.24-10170-15927-22631-23919-19128-13932
2588.03-16817-23091-23070-19652-18744-19782
2593.81-18025-11735-7924-13540-18543-10102
2599.60 2340 4976 633 277 4448 12853
2605.38 22007 22922 15317 8603 7599 9264
2611.17 8442 5376 3448 4969 4875-665
2616.95-4265-9573-17916-18943-14819-13405
2622.74-12428-8284-5322-4692-7570-11048
2628.52-14571-16732-13301-6655-2747-7888
2634.31-13278-12941-11708-5585 351 2370
2640.09 4868 9606 9702 11119 18970 18057
2645.88 12449 14336 23613 33773 39934 47517
2651.67 57679 61165 59097 66611 78730 83800
2657.45 86624 96992 110664 114579 109966 110454
2663.24 114897 119817 131697 146978 158027 168842
2669.02 169271 150197 132934 123445 111669 101920
2674.81 97654 95838 89507 79016 70398 64443
2680.59 56977 45044 33361 27410 21764 14723
2686.38 10376 7264 3063-493-4175-5397
2692.16-2533-7995-19525-25420-26153-24595
2697.95-24848-29649-32125-26550-19800-15537
2703.73-10113-376 10167 11894 5839 5276
2709.52 9107 8497 117-15623-29096-36109
2715.31-27552-11171-4690-2706-10255-22746
2721.09-26862-22284-14540-5419-3551-13776
2726.88-24289-27641-27879-28617-29482-28319
2732.66-22191-15255-15065-20512-23204-19901
2738.45-18544-13084-7563-14831-30872-39813
2744.23-40605-41330-22245 26269 47680 17311
2750.02-10359-23699-26758-18244-9753-3128
2755.80-1501 796 9168 22443 32763 31779
2761.59 26001 20615 12615-1797-45491-115097
2767.37-140205-80556-14107 13779 36694 48926
2773.16 45039 38947 33150 30038 27230 21003
2778.95 12223 3438 3601 11762 16116 13464
2784.73 11265 5801 1159 8134 15426 24413
2790.52 42682 62868 81079 91684 98459 116570
2796.30 141379 158473 172560 190730 208100 219596
2802.09 226146 235525 251856 273675 291744 304287
2807.87 321731 319245 299894 299262 313858 338018
2813.66 371968 404573 433565 461815 489083 522694
2819.44 560075 590675 607935 609777 602436 603491
2825.23 623413 662600 717343 768986 754717 663295
2831.01 587762 589019 643037 701468 731517 726045
2836.80 682392 607794 544189 526969 546330 576361
2842.59 591664 590972 597015 603523 594526 597446
2848.37 630039 652974 657487 672517 691873 705558
2854.16 727557 762975 816435 877665 926304 969997
2859.94 1009543 1048771 1098457 1152990 1212362 1285151
2865.73 1357043 1414056 1465666 1503830 1505729 1482564
2871.51 1464929 1450876 1420960 1373287 1327508 1298825
2877.30 1282515 1276697 1271211 1258788 1241262 1224920
2883.08 1229015 1240729 1221556 1188920 1182241 1184255
2888.87 1179587 1196177 1218664 1224779 1239230 1252850
2894.65 1233753 1194042 1146971 1088075 1020331 967551
2900.44 940349 923223 892873 850896 805583 750348
2906.23 693669 648971 607543 563137 520867 478439
2912.01 433261 397648 363344 320243 276817 244142
2917.80 214210 182147 161135 153329 137702 122307
2923.58 123185 129255 139334 175959 240748 329771
2929.37 448003 614349 856705 1183261 1594388 2105774
2935.15 2706107 3375211 4084691 4789963 5416486 5882059
2940.94 6138845 6189443 6020179 5547480 4788803 4073739
2946.72 4207464 8372302 20518392 28372960 18592157 6616287
2952.51 3674023 4197402 5105055 5963144 6608223 6947685
2958.29 6963355 6668825 6123387 5432754 4663092 3849748
2964.08 3078264 2407615 1863822 1441332 1122841 898532
2969.87 744558 623259 525778 457410 425556 407724
2975.65 380811 360811 364948 364584 358321 365773
2981.44 376926 387184 406455 422029 443869 482330
2987.22 534592 603884 688143 792127 930379 1103590
2993.01 1343919 1694829 2199558 2921116 3946943 5381607
2998.79 7322901 9820110 12816518 16082454 19268526 22026821
3004.58 23982717 24746815 24225793 22982422 22432065 24753937
3010.36 31613940 40563738 44180899 38657998 29504442 23592513
3016.15 22352983 23726503 25432145 26112157 25285911 23052915
3021.93 19858399 16245754 12691748 9522290 6896438 4842594
3027.72 3313101 2220864 1473462 976416 653810 440246
3033.51 296385 204797 155990 128425 102170 79565
3039.29 66426 59314 59758 67382 77285 76188
3045.08 65964 63477 76245 84997 73405 52126
3050.86 38908 31985 30772 34991 42679 46407
3056.65 35123 23740 30603 31158 16430 6636
3062.43 17617 27964 26666 18416 9935 8686
3068.22 10373 8695 2757-11053-15734-554
3074.00 22636 28578 13666 1301 461-6586
3079.79-21211-27774-19095-3097 1078-10601
3085.57-17970-15967-10956-10787-3552 16019
3091.36 22246 14841 16065 16501 5846-1232
3097.15-1108-5545-6366-7675-11002-13184
3102.93-6900-2048-12741-27030-26652-18260
3108.72-14014-24683-36529-21888-7616-12314
3114.50-16290-17256-10042-8158-19738-25228
3120.29-25608-27502-15631-3013-10418-17092
3126.07-10886-14100-23033-22224-16825-18801
3131.86-22056-13447-2620-6334-10931-9401
3137.64-9421-14801-13046-1010 10915 5644
3143.43-8902-16674-10273 4987 8660 1527
3149.21 3126 16109 30401 36579 37203 33799
3155.00 30915 31971 32723 30758 34561 48537
3160.79 63468 67810 67254 70082 73314 76890
3166.57 89086 108257 119596 113191 111391 126744
3172.36 141297 143341 145392 157682 178078 198182
3178.14 211303 216963 218001 206700 198452 198279
3183.93 203125 224027 252883 279058 289890 267562
3189.71 232820 208063 197789 197650 199243 194781
3195.50 179379 148068 123216 119621 123543 117966
3201.28 104116 86356 71998 65741 70182 78902
3207.07 90796 95166 82273 68435 69822 75462
3212.85 74353 69804 69044 68055 69969 67367
3218.64 53492 37030 32329 33404 25506 16984
3224.43 15498 9238 7375 18393 26237 30188
3230.21 36146 40788 48375 66935 96667 114944
3236.00 128449 153680 190644 233428 275488 305316
3241.78 327811 352403 368319 384024 411975 438994
3247.57 467763 484209 471722 444051 424556 429869
3253.35 465082 495642 480500 422060 356330 308662
3259.14 284386 263827 237051 207417 172347 140971
3264.92 120852 100484 77451 58033 51822 54929
3270.71 51954 39063 37669 46991 52532 58237
3276.49 69282 81525 95168 111471 139074 171833
3282.28 204812 231866 240127 241113 272441 326901
3288.07 378852 424643 455482 468457 473829 494049
3293.85 518231 506025 469704 431429 414133 434085
3299.64 466856 463784 413309 342707 273291 229319
3305.42 220277 222681 210827 192590 184124 170663
3311.21 137623 94694 68697 54584 35348 16800
3316.99 5117-7913-27871-41687-33261-15896
3322.78-7957-12725-17138-11546-7454-13060
3328.56-7395 6316 15784 27560 43751 56271
3334.35 71036 105107 162167 213043 252790 304448
3340.13 370042 436066 503666 584408 659571 703810
3345.92 742503 788123 833288 880649 946594 1070396
3351.71 1234230 1332367 1393941 1553278 1688817 1591769
3357.49 1373543 1198801 1084478 999486 930189 882411
3363.28 838873 783445 726959 671113 611905 546992
3369.06 475464 396690 329326 276373 219554 165217
3374.85 131281 108054 79869 54842 45629 29582
3380.63 4543-8415-20794-28408-23847-26127
3386.42-30293-32814-36988-37126-35455-40925
3392.20-42495-36134-32429-37956-49496-53001
3397.99-44100-36883-38095-43487-45162-48675
3403.77-50755-48965-48312-46116-38978-37899
3409.56-39010-36477-34248-39105-37135-29677
3415.35-30859-43994-53575-53190-53382-58047
3421.13-54641-35852-22234-28309-38244-48976
3426.92-54650-52256-47348-44221-45013-40480
3432.70-29261-15464-4323-6931-21022-35290
3438.49-49918-56336-49520-47772-48463-41760
3444.27-26778-14485-13688-28107-49982-61920
3450.06-50983-30342-19593-27581-32761-21790
3455.84-15736-17627-19431-22991-12958 2878
3461.63 14185 18739 13922 7173 6986 13125
3467.41 27434 31326 18938 13863 26743 43904
3473.20 61806 71178 73892 68168 41493 19576
3478.99 20211 25986 29682 28422 24650 24434
3484.77 29893 35709 37880 39205 42779 35650
3490.56 24735 28505 32785 25335 27984 32197
3496.34 27936 38972 58961 52869 28045 9033
3502.13 4879 3926 9243 21934 25413 20095
3507.91 14814 14944 14892 11688 17519 20073
3513.70 18725 25847 40752 53676 61906 57707
3519.48 43799 42245 66601 103955 133922 150195
3525.27 151961 151893 173911 198300 212737 230565
3531.05 245999 245429 241920 248060 263642 288039
3536.84 306402 303309 296119 287981 272709 250916
3542.63 238396 241080 232737 207463 189534 176762
3548.41 153736 132816 113110 90779 72584 53217
3554.20 45864 42497 32774 30951 32558 26531
3559.98 24557 21373 12105-981-4092 735
3565.77-5044-9718 4174 12104 15835 25898
3571.55 23588 3517-8794-1925 7462-2778
3577.34-16457-22212-26985-26724-18897-14183
3583.12-11902-10734-18897-36245-47950-48523
3588.91-35607-22988-11858-4138-4040-15083
3594.69-20690-14314-22775-42500-42219-29709
3600.48-20845-16254-19696-31087-35416-33738
3606.27-27691-15869-4311-7304-29699-58360
3612.05-63086-50065-41367-40840-46596-51377
3617.84-48671-44730-29671-16765-25714-34298
3623.62-26538-29146-36782-40003-58370-75581
3629.41-59693-39544-32636-29149-23220-18424
3635.19-19546-23110-26997-28404-17353-13245
3640.98-26909-32491-25972-22961-21672-21717
3646.76-37449-67210-78759-69760-47446-27004
3652.55-26950-38563-51458-59914-52044-37689
3658.33-28999-21736-14792-16504-19410-19801
3664.12-16673-8756-706-11029-30697-45986
3669.91-46906-22173-3593-6864-18378-27305
3675.69-13580 9113 15908 10406 6149 3109
3681.48-4464-16948-25956-31608-36976-61151
3687.26-87945-71645-38752-38649-47840-40795
3693.05-25188-16434-15026-15270-14409-19718
3698.83-27795-31713-34167-32268-31997-45930
3704.62-54601-43655-36126-45183-52572-54275
3710.40-63183-75062-59594-35449-25561-25522
3716.19-29772-28850-19250-11390-9877-10698
3721.97-9261 841 9008-4452-6770 14814
3727.76 29570 32199 31511 20265 17959 23712
3733.55 14269-6077-17535-3832 13323 13344
3739.33 12829 20131 21680-16447-74380-78110
3745.12-34057-10959-29394-64862-63052-54428
3750.90-79344-79434-49111-46438-59557-56322
3756.69-43660-44076-51241-46195-38669-42877
3762.47-45548-51576-60287-61062-51395-50471
3768.26-59785-54847-40374-38488-38952-38343
3774.04-39936-47774-60574-68842-71786-65544
3779.83-47441-38576-42205-46879-45580-45823
3785.61-39981-32033-31830-33812-30274-25965
3791.40-28790-39270-45145-44874-42562-39956
3797.19-30907-28189-48103-79630-71701-36644
3802.97-19659-24355-53445-82482-67878-38824
3808.76-20254-3213 4120-3229-10069-25967
3814.54-50942-43089-8923-6324-20827-36351
3820.33-40840-19588 1181-5204-15054-4786
3826.11 15015 24058 34325 41817 31471 13233
3831.90 9714 7774-3886-10667-25224-47592
3837.68-35689-14892-12820-16217-23843-40974
3843.47-48664-43830-39810-47729-52960-45604
3849.25-47691-73045-87462-97540-113270-88260
3855.04-50101-43976-44914-45962-45466-44782
3860.83-47613-50692-59322-71298-68403-60235
3866.61-61607-69218-74783-66229-47203-40137
3872.40-42023-41987-34267-26661-29310-40009
3878.18-49898-57996-52408-39597-24264-19353
3883.97-39675-54321-42216-26856-21313-31029
3889.75-36101-29495-30083-38742-31152-22130
3895.54-23542-26018-35254-41947-33132-21436
3901.32-7070-12972-31106-31991-26751-15348
3907.11 4170 16311 22726 20266 22075 27352
3912.89 24461 22992 34188 46383 51481 50026
3918.68 48720 53711 56877 60877 64475 58690
3924.47 61422 69313 81925 93066 91433 89594
3930.25 98820 99904 97754 102912 111725 116911
3936.04 116072 112839 117213 125926 134814 142259
3941.82 154540 169752 183954 190159 199626 210456
3947.61 212029 214535 225595 232434 230364 226994
3953.39 238287 254821 262055 254134 233497 211917
3959.18 210049 223517 228561 220963 221806 219509
3964.96 205443 203284 208662 194326 184687 192337
3970.75 210081 220147 218475 221350
##END=
