##TITLE=1,1,1-Trichloroethane
##JCAMP-DX=4.24
##DATA TYPE=INFRARED SPECTRUM
##CLASS=IUPAC A
##ORIGIN=NIST, Analytical Chemistry Division, 301-975-3108
##OWNER=COPYRIGHT (C) 2001 by the U.S. Secretary of Commerce
##DATE=01/06/01
##$SPECTRA VERSION=1.10
##$UNCERTAINTY IN Y=2.1 % relative (B=1.08E-04,C=2.81E-10,D=2.71E-15)
##CAS NAME=1,1,1-Trichloroethane
##CAS REGISTRY NO=71-55-6
##MOLFORM=C H3 C Cl3
##MP=-30.41 C
##BP=74.1 C
##$NIST SOURCE=QUANT-IR
##SPECTROMETER/DATA SYSTEM=IFS66V (Bruker)
##INSTRUMENT PARAMETERS=KBr Beam Splitter; MCT Detector; Multipass cell
##STATE=gas
##SAMPLE DESCRIPTION=1,1,1-Trichloroethane Primary Gas Standard
##PRESSURE=101.3 Pa
##TEMPERATURE=23 C
##SAMPLING PROCEDURE=1 L/min Flow
##RESOLUTION=0.9640
##DATA PROCESSING=Boxcar Apodization
##XUNITS=cm-1
##YUNITS=(micromol/mol)-1m-1 (base 10)
##XFACTOR=1.0
##YFACTOR=18.189E-13
##DELTAX=0.4820
##FIRSTX=575.17
##LASTX=3974.606
##FIRSTY=3.44E-06
##MAXX=3974.12
##MINX=575.17
##MAXY=.0019341
##MINY=-6.38E-07
##NPOINTS=7052
##XYDATA=(X++(Y..Y))
575.17 1894009 2049574 1661598 1828044 1531147 1977795
577.58 1446482 1915031 1486979 1222383 783954 1413928
580.47 1171405 594585 1192602 1016742 907207 649098
583.37 681243 632440 803383 676412 1026792 742118
586.26 706702 667772 806732 660361 642941 982611
589.15 921976 660192 526725 675038 642785 325874
592.04 625439 473892 206000 260420 470780 90400
594.94 243770 337290 65802 86981 41033 214347
597.83 89578 44060-12947 69910 10740-39799
600.72-34421-59867-77009 95776 174222-245747
603.62-6323 55773-31874 25276-73654 2913
606.51 55257 98508-114770 18997-62827 5202
609.40-171005-153319-6749 139346 34245 42101
612.29 19823 75559 38772-77786 34360-40497
615.19-69486-22703 77675-23161-61838-11156
618.08 88462 88971 40723 115370-140980-14897
620.97-41814 105948-14447 70183-42827 60522
623.86-14380 175723-82748 244776 22207 11795
626.76-23637 109181 6480 172066 3659 99440
629.65-17651-22773-70995-86985-91848-51118
632.54-41658-18281-87597-30101-92701-18272
635.44-73247 71988-78472 57866 55014-135405
638.33-62987 68386-150881-38280-78815-31494
641.22-22861-52010-191736-34992 29182-23076
644.11-28769-18358-55983 1247-117596 43956
647.01-109188-51194-122325 124057-70498-99109
649.90 82716-13312 84062 60761-30558 83567
652.79 98904 160698 31276 171423 4862 189926
655.68 49297 217631 180548 146615 319575 315338
658.58 256907 439727 203360 417166 434955 488600
661.47 552642 653004 621739 796314 665238 881127
664.36 1057566 1086234 1095684 1249802 1235063 1890999
667.26 2212546 1912779 1872616 2189691 2197633 2603175
670.15 2510909 2730724 2907658 3226071 3388646 3915859
673.04 3969750 4344993 4464447 4803220 5151852 5657361
675.93 5959336 6485987 6727350 7308346 7602231 8292753
678.83 8753187 9259680 9723203 10309655 10559499 11299720
681.72 11684148 12468775 13112956 14187990 14868477 16002850
684.61 17041620 18193188 18301735 18109287 18383623 19024620
687.50 19790232 21131082 21399873 21462945 20468377 19764448
690.40 19574989 19667441 19052502 19139652 18866592 19099145
693.29 18862315 19056749 19148997 19630392 19754126 20489963
696.18 20831297 21920436 22389120 23643208 24552131 26054627
699.08 27253621 29034095 30609778 32850647 34785744 37286057
701.97 39728789 42751348 45513599 49146932 52604453 56948583
704.86 61076550 66767493 72099403 79266366 86538203 95237678
707.75 105092260 116167108 127704819 140701856 154127649 169601935
710.65 185373702 203816674 223425102 246374437 270114566 296938959
713.54 325713405 357697290 391922804 427605098 466079475 507603392
716.43 550107502 597382635 641313806 689474133 736391002 785219424
719.32 834817303 881152759 918818708 952986136 981645776 1009747681
722.22 1022905604 1040152673 1042649508 1046486148 1054699689 1044391854
725.11 1048465766 1056899524 1045215921 1045254498 1045711479 1063313395
728.00 1059561579 1010584052 939503245 861798132 782321159 671462551
730.90 582542949 499873048 434655149 373970458 324054130 280270305
733.79 245191354 212259318 186681020 162356813 142878900 124217076
736.68 109490766 94694258 83706086 72816826 65060567 57059977
739.57 51625977 45828998 42245519 37959340 35587135 32284421
742.47 30627832 28098283 26446589 24191383 23024435 20919251
745.36 20021248 18481969 18562172 18252668 19044069 18604388
748.25 18594426 17416237 17001876 15957777 15613585 14574693
751.14 14120743 13103485 12704946 11605429 11245309 10330842
754.04 10424884 9675155 9825651 9219242 8859757 7758225
756.93 7769571 7271401 7717781 7759446 8593082 7942319
759.82 6638548 5525716 5651332 5784057 6820168 7884930
762.72 9278512 8717860 6114975 4318210 4350800 4389577
765.61 5306125 6395946 7615670 7501698 5775163 3629176
768.50 3728325 3382499 3699879 3513506 3932681 3619185
771.39 3816522 3699156 4133507 3818097 3801460 3519134
774.29 3696178 3441987 3446781 3278746 3297301 3093473
777.18 3156799 2890943 2978231 2636943 2813686 2515994
780.07 2661684 2445636 2461642 2185387 2371155 2189042
782.96 2278607 2060498 2263674 2076196 2048668 1939435
785.86 2153482 2095337 2154424 1951692 2229344 2155178
788.75 2569728 2599778 2648233 2606440 2761839 2737055
791.64 3067434 3043302 3440921 3521019 3807689 3648693
794.54 4202459 4124904 4486293 4510136 4747469 4834703
797.43 4896806 4881192 4828653 4659120 4727431 4398409
800.32 4418248 4070275 4033191 3768568 3899047 3931183
803.21 4196312 4293168 4786654 4809323 5151049 4875059
806.11 5013835 4769235 4853579 4590928 4580669 4186834
809.00 4229858 3949815 3972519 3718521 3649665 3359641
811.89 3340413 3035229 3057992 2885003 2867806 2730221
814.78 2886182 2876428 3050919 3046988 3244396 3143728
817.68 3195470 3148082 3300298 2937549 3015599 2795240
820.57 2769152 2619280 2641891 2501505 2471594 2433653
823.46 2518809 2165574 2312354 2154327 2272613 2136908
826.36 2233880 1980726 2199035 1950195 2013533 2079095
829.25 2014280 1876729 2009092 1868736 1945067 1826223
832.14 1805381 1853804 1864076 1824265 1860965 1567068
835.03 1584597 1380705 1574231 1307479 1362741 1132891
837.93 1234528 1105829 1249629 1105023 1348299 1339730
840.82 1350189 1059343 1310450 1085483 1257911 1133710
843.71 1259859 1095643 1179244 1047678 1273166 1027319
846.60 1167146 1006531 1140141 1056180 1168096 1087098
849.50 1229754 1066719 1289474 1241752 1321252 1343657
852.39 1549446 1403293 1653055 1676080 1871603 1761367
855.28 2019928 1876695 2140122 2126637 2535523 2468741
858.18 2664145 2555672 2761512 2671026 2898996 3036618
861.07 3477701 3153653 3396597 3407826 3585057 3164960
863.96 3309417 3186997 3345214 3348339 3722745 3881328
866.85 4266530 3685662 3473923 3031123 2749050 2528731
869.75 3022126 3625599 5139054 4620003 2255498 2057301
872.64 1942509 1920143 2044141 1972391 1973622 1901489
875.53 1943134 1849125 1747915 1535871 1456951 1251834
878.42 1176889 947143 916431 707905 741774 596982
881.32 573859 473801 542930 365783 454130 272532
884.21 299626 252254 363198 230572 272497 198872
887.10 258759 140544 258257 81131 245034 70395
890.00 194299 99850 147296 114651 100168 32203
892.89 122486 14309 128229 46945 87021 37816
895.78 115535 8682 30405 20668 41915-36370
898.67 30542-18253 39224 9631 105295-25869
901.57 34338-55237 25543-41517 6479 4349
904.46 13696-27965 24113-32477 24194-27764
907.35 6848-33587 47125 15460 37394-10877
910.24 94853-66559 75321-17156 50989-42705
913.14 124993-8511 80848 11799 127883-43666
916.03 78098 11474 115285-12403 59176 8608
918.92 178307 36399 83585 50830 119620 75297
921.82 120594 93129 207410 34191 139458 111924
924.71 132461 58982 176316 116746 127659 74934
927.60 183024 11083 187894 106891 194456 136439
930.49 174085 97786 211419 109985 198879 91985
933.39 236655 182561 206178 183434 252322 209093
936.28 289081 223106 283593 209179 333675 224315
939.17 334282 297305 371617 334061 435095 373546
942.06 509111 455108 568873 528642 631526 622891
944.96 702860 676896 832025 829270 938207 898224
947.85 1000121 959059 1107693 1078692 1179528 1152181
950.74 1312053 1252137 1408432 1354892 1519700 1440422
953.64 1566370 1483957 1671597 1612259 1729716 1675852
956.53 1826001 1785294 1938723 1867920 2059271 2019860
959.42 2195832 2133141 2255715 2182092 2349160 2148665
962.31 2322373 2162209 2203540 2179930 2105103 1843177
965.21 1909474 1678746 1699940 1735375 1479577 1324856
968.10 1481284 1377040 1520443 1427910 1531229 1466967
970.99 1505277 1388804 1439639 1337637 1350552 1206292
973.88 1256609 1106831 1129001 917963 1011779 842850
976.78 908723 794835 852933 727771 779548 688264
979.67 783663 690378 795479 740388 917028 815075
982.56 999797 911877 1122700 1096338 1310224 1281762
985.46 1477727 1498486 1685224 1720464 1941787 1988375
988.35 2226480 2261098 2562822 2602044 2878897 2951776
991.24 3271079 3345294 3690640 3794626 4153419 4283038
994.13 4637618 4765366 5043688 5241719 5455456 5511042
997.03 5603719 5479195 5581339 5409012 5469231 5442221
999.92 5793786 5800377 6324153 6567958 6845081 7151332
1002.81 7522555 7715657 7980575 8042946 8250856 8254477
1005.70 8570429 8707846 9178531 9387700 9839350 10030388
1008.60 10350185 10382165 10490132 10221399 10080472 9599836
1011.49 9443396 8955115 8971460 9038866 9494699 9995923
1014.38 10493690 10776942 10992298 10764337 10357227 9456543
1017.28 8390130 7207149 6334647 5407690 4794907 4168681
1020.17 3825498 3323418 3046085 2679572 2490058 2150038
1023.06 2035159 1756742 1759653 1525629 1529385 1339881
1025.95 1450630 1282735 1354067 1196479 1328011 1191752
1028.85 1320950 1232384 1309330 1198533 1342259 1249988
1031.74 1427965 1326662 1414729 1364831 1495859 1376942
1034.63 1517673 1472974 1682914 1598713 1751391 1678814
1037.52 1864459 1811678 2033912 2084565 2328192 2186984
1040.42 2351039 2183817 2304729 2336075 2594850 2700512
1043.31 3030558 3172991 3486668 3617341 3823420 3710453
1046.20 4062767 3992499 4314170 4371717 4958395 5068417
1049.10 5692627 5986315 6683157 7031655 7774023 8301829
1051.99 9176854 9790054 10833244 11663202 12986068 13832347
1054.88 15266999 16372773 18298210 19802104 21417460 22951836
1057.77 24940560 27006359 29913916 32224851 34203216 36208551
1060.67 39012772 41650865 44901380 47799981 51201853 54091922
1063.56 57118649 59957389 63646785 66651408 70021310 72394495
1066.45 75319916 77384323 79890469 82957141 88440056 90280502
1069.34 91459671 94578620 103376804 113734165 126382123 127704082
1072.24 125044836 124341878 132173960 142964483 154772915 142604755
1075.13 116270368 112773058 119647051 130429762 141573990 155038891
1078.02 168695553 183492276 197912038 213565953 229163815 245847806
1080.92 261570686 277857898 294206409 312372617 330887040 352105304
1083.81 372788892 395076767 416811745 439851423 460192234 477603123
1086.70 488891024 492269292 489349735 481966840 473088382 465452845
1089.59 457821389 443517231 401864507 345020241 303024086 299591172
1092.49 313091917 330140681 349025805 364664146 374059099 376707218
1095.38 371454945 356838280 335936714 309602119 281012851 251759140
1098.27 223492061 197130477 173662432 152486320 133989163 118176505
1101.16 104692610 92670551 83128737 74721539 67437728 60998729
1104.06 55624282 50726545 46885660 43650180 41102205 38491998
1106.95 36132067 33921438 32258270 30737782 29352026 28117621
1109.84 26963102 25797924 24915100 24038427 23000429 22026713
1112.74 21362002 20579167 19990206 19023484 18404304 17430062
1115.63 16821138 15855210 15208435 14378163 13691457 12771544
1118.52 11995855 11058865 10304959 9310711 8517828 7681494
1121.41 7005355 6258240 5713561 5051935 4592555 4039015
1124.31 3671883 3191490 2920085 2511225 2303308 1970606
1127.20 1833812 1561844 1476830 1231479 1182476 986030
1130.09 984550 787928 795292 618868 664102 477673
1132.98 520657 364174 439376 268387 416753 243001
1135.88 348926 220400 308121 248669 310581 181723
1138.77 275767 193244 248441 195145 234983 146120
1141.66 216668 168984 229318 181632 219285 138311
1144.56 258468 159519 234111 184104 217287 137154
1147.45 191066 131982 146688 151266 275080 119509
1150.34 254968 108775 218834 127464 235408 133089
1153.23 181182 144567 164376 70488 198155 111590
1156.13 186665 86539 195597 93718 152544 30961
1159.02 122748 33017 152980 102616 116039-18262
1161.91 114794-2619 124537-19105 103283-19048
1164.80 103746-17806 120440-10140 67263-26536
1167.70 99277-37291 58905-7448 66768-56087
1170.59 74018 19876 86786-18831 97400-26630
1173.48 57515-46986 97052-40739 90395-21706
1176.38 74285 11157 81144-8243 73991-22043
1179.27 115118 17175 82000 12997 160079 14006
1182.16 124290 27046 106572 12626 138966 61599
1185.05 194734 52171 223084 76028 171368 116288
1187.95 202378 135819 293968 134889 251221 159121
1190.84 258483 136165 253260 148714 222767 164130
1193.73 326352 177876 293622 197656 317682 145044
1196.62 315219 172363 336800 181150 268987 218352
1199.52 337667 190360 339524 211195 318286 227482
1202.41 343150 223918 342767 253843 325540 260162
1205.30 363650 238632 353846 263568 381546 241852
1208.20 389201 207129 356725 257984 410075 263475
1211.09 437146 321156 471342 362379 464316 357694
1213.98 509664 425554 557627 452540 561902 425499
1216.87 554234 432672 594140 417451 602202 452828
1219.77 603713 461698 617666 470898 613757 522816
1222.66 657700 557772 703439 628308 803380 726638
1225.55 897318 820809 1044429 959627 1189275 1094167
1228.44 1360171 1294706 1528351 1473735 1699366 1666319
1231.34 1931228 1875384 2146236 2083987 2329630 2313821
1234.23 2590039 2600699 2892750 2857441 3133961 3121567
1237.12 3467907 3448243 3772154 3713671 4034743 3977860
1240.02 4294668 4301422 4658747 4563941 4823813 4844816
1242.91 5076551 5030624 5271276 5169585 5412951 5296957
1245.80 5507983 5377491 5557951 5478761 5666234 5509998
1248.69 5655298 5339528 5382692 5284489 5395941 5286996
1251.59 5361377 4732695 4736703 4394927 4320362 3978368
1254.48 4241393 3669345 3464283 2976810 2785207 2283256
1257.37 2233411 1831888 1866134 1484458 1542029 1193928
1260.26 1345678 1027104 1158000 893312 1020625 790742
1263.16 1006311 768968 944442 715180 863332 682465
1266.05 848385 659882 825706 630639 772746 575355
1268.94 693246 498899 711030 453821 681874 459954
1271.84 637776 458029 603811 398254 634278 373067
1274.73 576765 332609 490335 273414 437949 211730
1277.62 384642 177860 332898 176035 332588 97430
1280.51 383139 139031 331630 124774 356537 156242
1283.41 407864 180914 422833 173056 452975 177649
1286.30 433344 171208 402670 165411 399747 167223
1289.19 484178 216306 503446 249003 560353 265232
1292.08 498868 223182 471267 226022 482413 210346
1294.98 477694 282046 491938 215428 453722 255654
1297.87 477729 246148 516819 248452 545466 284136
1300.76 512275 265800 533441 231544 505387 240488
1303.66 579407 238017 533653 256410 521349 278527
1306.55 580700 328473 582313 276101 626561 307028
1309.44 655323 297563 617575 286286 602491 280658
1312.33 608230 295406 508446 181993 532683 157400
1315.23 475992 86156 454822 134868 491857 178348
1318.12 514376 196508 559341 201012 550132 190773
1321.01 605729 206339 592810 186253 534064 144534
1323.90 527273 169528 483198 65264 465147 64318
1326.80 454723 11870 458254 29425 405019-26827
1329.69 411332-14379 406448-36284 367172-7121
1332.58 398648-21873 396534-52475 438961-20598
1335.48 469920-18038 445756-2621 473408-60073
1338.37 449473-68942 450892-107376 431717-85016
1341.26 385768-95157 451807-151847 434863-145402
1344.15 449994-119352 441824-208116 435491-221854
1347.05 501070-202458 448536-246445 433734-311884
1349.94 415443-263547 359590-350756 385377-295970
1352.83 353461-190234 505268-228512 658920-137355
1355.72 712742 56914 711848-70323 707906 23332
1358.62 869353 10574 1050073 154379 1246178 336888
1361.51 1601084 652744 1941088 1119483 2726420 2141322
1364.40 3400100 2444315 4096374 3282269 5219451 4529181
1367.29 6543601 5929455 8215806 7617768 10167741 9612565
1370.19 12323547 11712421 14741975 14095000 17181010 16505950
1373.08 19819522 19755729 24006329 20107814 23564789 21353864
1375.97 23979316 20899266 23956281 20069264 23043828 17963717
1378.87 21395776 15480390 20255276 11801842 17018809 7800902
1381.76 17373093 7760902 34585556 44627940 186068744 222758269
1384.65 16702158 71359080 35903979 25103447 9659316 15453570
1387.54 10777416 17896724 15253819 22177128 20469606 26494596
1390.44 24964370 29825397 27978276 31819120 29510816 31988534
1393.33 29048543 30471328 27011883 27612883 23736098 23795546
1396.22 19833450 19601141 15782124 15522127 12002303 11732978
1399.11 8727829 8798067 6168584 6490141 4267910 4881344
1402.01 2980587 3801092 2219732 3167131 1814450 2766220
1404.90 1595392 2650513 1628019 2702542 1775793 2840185
1407.79 1993828 3169856 2370389 3510149 2776735 3918011
1410.69 3303674 4401040 3846300 4941388 4420064 5510998
1413.58 5046157 6110146 5626992 6684426 6224815 7210098
1416.47 6703242 7645923 7085556 7930923 7297436 8024338
1419.36 7402160 8117002 7414817 8084771 7436366 8085728
1422.26 7392829 8413061 8030818 9047516 9502304 10313916
1425.15 9826042 13060945 13122113 11096906 10882489 14459514
1428.04 15252933 10675956 9447085 9565911 7700021 8060156
1430.93 7401394 7970325 7711745 8470576 8259879 9023138
1433.83 8765454 9514075 9337029 10129915 9962671 10704719
1436.72 10678071 11607674 11590306 12550270 12612605 13671524
1439.61 13825006 14982456 15106350 16171269 16291612 17333678
1442.51 17483894 18493928 18382860 19077341 18857573 19373239
1445.40 18970065 19185438 18273597 18291166 17366173 17419105
1448.29 16457935 16474726 15652413 15673365 15020692 15226398
1451.18 13522103 13833566 13908743 16625607 21386144 28565468
1454.08 33053100 35847225 34854084 32152125 29521958 26040377
1456.97 22651194 19247374 16411453 14533396 13340028 12675370
1459.86 12114068 12268116 12233563 12624112 12693955 13119372
1462.75 13114664 13498982 13368953 13460729 13110134 13189759
1465.65 12720835 12611333 11967441 11669322 10912604 10555089
1468.54 9728677 9331147 8508174 8133040 7310444 6902097
1471.43 6016741 5735392 5108038 4739932 4146772 4001208
1474.33 3431715 3282380 2715783 2630941 2196806 2153173
1477.22 1711481 1745919 1366155 1435825 1081845 1146363
1480.11 847424 957943 687047 785278 531369 650743
1483.00 422087 563591 346960 485207 290060 457711
1485.90 209734 391854 149675 342870 158953 314033
1488.79 119706 266547 128616 264516 65745 301482
1491.68 74242 259213 43053 241893 63416 243060
1494.57-11604 233684-73756 109457 36430 187143
1497.47 8120 170002-55445 164592 25842 168307
1500.36-5101 152890-25828 152006-17027 116494
1503.25-39914 128764-51429 25274-228173 97094
1506.15-142809-68962-97477 87875-106641 95735
1509.04-57745 108433-56736 88873-32988 95613
1511.93-97961 89119-40641 113368-47158 68616
1514.82-57908 70747-57892 93198-72000 82259
1517.72-25987 113379-61658 111463-111691 87346
1520.61-189744 15669-24465 15322-62047 96400
1523.50-41869 91446-32685 30576-66749 118084
1526.39-51024 94368-19869 75693-53456 141252
1529.29-42847 117828-35079 129713-21102 102432
1532.18-18737 59789-62437 32061-30407 79295
1535.07-20717 95346-6757 70362 4442 67320
1537.97-31870-133517-149251 52405-176589 78970
1540.86-45503 11486-170791 105090-86599 93655
1543.75-47870 79549-99985 72082-47438 87495
1546.64-19108 93097-42135 87766-28894 45527
1549.54-73559 63739-28345 48096-47038 74094
1552.43-18822 66254-75551-61509-36762 67247
1555.32-43137 65472-19533-15562-105785-47690
1558.21-229084 74097-82493-114729-147107 92674
1561.11-61775 90654-68157 64355-54919 100981
1564.00-57990 67512-26090 148753-17741 43246
1566.89-70046 55675-24046 74778-78583-13587
1569.79-52412 91105-35572 74056-47804 49776
1572.68-43596 73568-53651 83381-94501 54198
1575.57-252745 4407-20919 48244-38939 68930
1578.46-974 60111 6436 95285-69416 100178
1581.36-14077 122723 22922 97418 1034 126391
1584.25-34184 106803 4761 105027-2838 63507
1587.14-11925 114692-2237 99882-9372 101798
1590.03-26333 113879-2533 92003-4894 97720
1592.93-5035 125895-13294 109603-11363 113793
1595.82-4435 92959-9595 75540-12754 91584
1598.71-35148 89366-6659 51453-28750 46516
1601.61-17278 79705-35894 38955-17443 62476
1604.50-64420 92014-35008 61338-78979 61188
1607.39-59053 47874-68200 65860-56535 43123
1610.28-85455 54877-68945 55235-70492 19321
1613.18-58108 47320-71659 46372-104098 46869
1616.07-277613-69118-56177-22351-59710-27700
1618.96-44609 46324-67162 44796-77465-5174
1621.85-91520 40549-127401-43400-47144-17170
1624.75-84438 38388-61858 31883-32177 14051
1627.64-75637 37966-85935 24756-64730 18901
1630.53-75416 11597-28936 28534-46089 53981
1633.43-60074 27020-102436-101372-169594 27332
1636.32-100584 20447-104475 48923-82442 13094
1639.21-101604 35810-67511 36263-70166 21499
1642.10-42028 23861-47408 24040-56931 18993
1645.00-91689-134568-72972 39355-107614 27240
1647.89-105574 9988-53007 67286-106072 48446
1650.78-56896 54199-243517-91965-289172-64524
1653.67-54262-49848-37982 31541-919 53638
1656.57-28946 12399-26 63354-23968 38359
1659.46-10116 61685-16167 53491 6199 39429
1662.35-39687 44947 9600 58973 896 68637
1665.25 13396 38589 36735 93671 27794 77723
1668.14-18299 32345-72530 87533-7400 56784
1671.03-35940 80104-16086 90328 8066 80128
1673.92 17088 9352-100553 84860-19844 86550
1676.82 23186 114119 24969 62516 23698 82328
1679.71 40472 110675 30034 92952 46009 98131
1682.60 18217 76018 36796-7823-176441 156737
1685.49 58298 145941 24817 149503 63381 169731
1688.39 81355 200239 74079 174790 79590 196742
1691.28 79254 197430 121254 214641 113191 209023
1694.17 125390 204255-43400-25573 156423 187155
1697.07 115006 147735 94617 201545 61851 22628
1699.96-9478 76681 133558 211488 134116 210442
1702.85 123035 202078 127371 178572 167263 262599
1705.74 161079 220368 155261 261385 233487 219009
1708.64 162080 250799 172457 223507 189480 233014
1711.53 235215 260195 202853 301515 203819 333816
1714.42 226885 297191 347814 391292 330786 165340
1717.31 369310 446072 227923 381066 301738 359196
1720.21 288175 380209 329753 401104 339769 424872
1723.10 378736 450832 383286 438330 396652 453797
1725.99 374838 445682 372354 475037 414167 442431
1728.89 368156 472168 453311 467009 373637 494090
1731.78 384087 505673 239714 346453 279946 232031
1734.67 342093 385125 317040 378745 313672 320746
1737.56 296830 309746 277550 276285 181107 310105
1740.46 233709 311046 290206 409282 398740 403575
1743.35 364137 356015 271764 290855 237079 239335
1746.24 164497 178561 149598 217200 106984 186792
1749.13 155899 197948 134694 138351 64693 174819
1752.03 111070 168771 116075 159473 102925 147756
1754.92 84019 156126 59120 89639 65887 147712
1757.81 51103 133671 95825 109846 82680 98688
1760.71 60336 37299 31339 129107 49847 116474
1763.60 61349 124289 78963 119038 69073 129337
1766.49 77698 150306 29035 114676 96949 138622
1769.38 92334 130724 112710 103945 121372 138282
1772.28-19809 168349 138412 181037 149626 218456
1775.17 156659 228935 213372 266955 218063 273007
1778.06 275227 307437 252998 345332 309062 381750
1780.95 344994 434351 393618 456723 410739 507010
1783.85 475184 517148 512465 611683 541088 630074
1786.74 600892 689761 674572 724220 699530 788200
1789.63 746815 788934 710778 819981 784459 739946
1792.53 760516 885468 827281 886679 835356 877519
1795.42 831772 863624 849055 863879 805644 823086
1798.31 779831 796360 695923 741995 657753 654001
1801.20 640069 654540 532835 612367 502698 526472
1804.10 404892 421508 362662 375494 272088 309193
1806.99 240103 278007 214025 235910 208508 246593
1809.88 162938 206983 171595 170746 137785 198263
1812.77 177867 183836 170024 200670 152862 209662
1815.67 149012 233451 158819 205134 148170 189500
1818.56 159963 189027 170323 212083 156390 199261
1821.45 141618 197683 128918 187670 131391 135025
1824.35 99935 132141 104118 161539 95194 140066
1827.24 87165 133580 67475 121293 66412 109346
1830.13 75721 135273 85209 114688 63879 130772
1833.02 50286 112313 54796 123533 66393 96993
1835.92 56727 91644 23547 78796 25250 60143
1838.81 20561 80684 18716 66492 3816 47247
1841.70-1708 51884-482 38282-99575-15105
1844.59-19325 8596-15607 11073-8129 26776
1847.49-46244 29459-33704 14323-50398 7526
1850.38-50810 967-19397 12545-17569 14960
1853.27-58146 4394-45946 842-62913 11788
1856.17-35505 5050-30066 744-21626-14768
1859.06-36962 2881-51053 5947-46768 10777
1861.95-32865-11997-32507-11621-42445 3775
1864.84-32974-4838-53619 17598-36219-10828
1867.74-38300-12555-75252-5346-52663-10189
1870.63-62104 21240-16499-17525-51055 13585
1873.52-34211 853-15886 14735-31292 14115
1876.41-12149 18937-63356 14234-18147-4343
1879.31-20775-1240-26080 6736-43402 4174
1882.20-23246 43181-48406 16649-13209 4208
1885.09-5407 45718-19177 27209-14506 51611
1887.99-4773 46673-12732 39724-25709 61820
1890.88 21009 55260 16009 84487 8942 78236
1893.77 47290 117214 51321 97721 58169 142250
1896.66 84975 115108 98901 180966 149056 170327
1899.56 151836 188325 155034 195892 165923 191995
1902.45 143553 177942 160696 202559 152069 182804
1905.34 194415 253927 274338 310088 188687 366223
1908.23 372222 492335 297704 297734 374616 539052
1911.13 249611 113330 105049 162990 133846 161365
1914.02 167777 166644 169532 216707 186827 245359
1916.91 196403 202521 177910 218507 160391 191487
1919.81 157606 170237 168575 169744 115080 142493
1922.70 68627 136094 44401 122072 89507 112280
1925.59 62450 96624 52601 109594 61536 126612
1928.48 85854 89919 51920 97743 17609 67235
1931.38 19878 64866 13156 76558 51578 150779
1934.27 102743 149653 77442 100209 44187 57249
1937.16 44428 67756 3763 78021 32474 82602
1940.05 45949 82045 26839 103439 14983 58192
1942.95 45942 68065 28775 57828 27506 42691
1945.84 37106 50802 16630 56919 22616 37024
1948.73-3018 44900 29762 89343 61849 97358
1951.63 45926 61536 15518 38592 17982 36382
1954.52 19850 42425 24354 63511 32766 47278
1957.41 12315 69292 18120 74874 20756 58171
1960.30 24748 55685 16946 32911 21231 67924
1963.20 29597 38912 28667 40721 29337 12284
1966.09 12972 36426 22897 50963 4606 40728
1968.98 13393 20501 35517 31149-75 37777
1971.87 31842 34599 40825 62000 55605 53523
1974.77-39196 26458-10179 62751-832 46052
1977.66-3576 45542 9890 45690 8387 38438
1980.55 6719 21771-402 50575 2364 42716
1983.45-13945 21970-4163 12174-17192-1114
1986.34-7741-5510-9263 17934-8505 10082
1989.23-29507 31883-43751 15858-45326-9211
1992.12-11936-18947-28321 7624-24981-6807
1995.02-40695 11926 7603 7626-45213 3458
1997.91-21393-9939-19542-8154-29234-20393
2000.80-29909-6550-40003-2986-36370-11057
2003.69-31890 19839-30356 24305-52276-22457
2006.59-31723 6324-43885-44-40844 15946
2009.48-29252-27959-54891 2285-37277-10106
2012.37-30736 19342-33216 12613-39838-5670
2015.27-25076-11404-43035-4431-40577 14983
2018.16-19965 5975-33084 5828-15974 13486
2021.05-19019 28206-16861-4327-19604 12757
2023.94-9376 30091-28843 27091-26512 30436
2026.84-7956 3867-13544 1467 341 20274
2029.73-7271 8204-21045 10584-15033 9019
2032.62 19351 53954 33 34414-18384 12795
2035.51-3353 6365-18089 7467-30285 22815
2038.41-7182 20145-6131 20563-27380 16325
2041.30-16864 32618-26201 20539 28024 5717
2044.19-36782 4119-35368 4859-13626 19355
2047.09-19236 15986 7396 43188-30939 4055
2049.98-18682 14915-7795 22417-22786 20886
2052.87-5386 332 2840 18668-20179 19641
2055.76-32080 14581-395 15919-23617 18118
2058.66 5840 11707-8291 18019 1999 15689
2061.55-8855 4044-22565 33387-13697 3396
2064.44 8178 40485-10693 27234 9954 20293
2067.33 8082 29664-25686 35475-21396 36024
2070.23 41381 43149 22303 70946 3433 34901
2073.12 36456 69033 6316 67073 28618 80527
2076.01 40121 71794 2140 30770 39821 55227
2078.91 24092 73227 51418 72402 43369 36097
2081.80-12911 75168 62848 84319 27876 65505
2084.69 63078 111026 20703 61019 88899 93647
2087.58 52547 106623 80928 125657 81655 98436
2090.48 108820 134989 125479 177964 150020 209049
2093.37 155415 216218 138487 230266 225304 259514
2096.26 278362 321281 293670 355715 350424 337390
2099.15 416956 467369 499706 553016 557128 615697
2102.05 637809 629830 651603 785790 759375 846964
2104.94 825073 935399 897583 952902 835109 969150
2107.83 954520 1004531 957611 1042122 1023327 1064195
2110.73 1024484 1004908 1140149 1138038 1165645 1152200
2113.62 1137313 1081017 1079129 966248 1019180 1031403
2116.51 1008857 1034675 1051401 1089940 1103475 1078001
2119.40 1067281 1259804 1230249 1302211 1287262 1364108
2122.30 1424026 1422223 1388856 1556345 1576820 1693459
2125.19 1694914 1812796 1829387 1891464 1761375 1895813
2128.08 1936873 1962390 2003839 2112021 2121750 2271833
2130.97 2264715 2337525 2234182 2233251 2242741 2288185
2133.87 2257533 2332692 2313508 2485034 2675107 2907406
2136.76 3118602 3324195 3125913 2848529 2139622 1874082
2139.65 1696202 1654243 1594843 1624397 1624589 1663142
2142.55 1663165 1701966 1718284 1708833 1616542 1571736
2145.44 1420046 1287805 1125016 1034004 882339 843042
2148.33 739860 695151 690350 709241 607002 664327
2151.22 627269 648327 606432 621035 593657 601833
2154.12 523009 603855 557088 567852 561567 556409
2157.01 504788 460005 369279 403314 359184 383569
2159.90 323609 297565 298371 191960 174688 289333
2162.79 210062 234726 163095 213775 109532 58365
2165.69 101362 125887 87292 103550 28541 103348
2168.58-60792 2235 42665 59927 14942 23136
2171.47-1801-46731-100178 59024 15280 52731
2174.37 33003 79770 32813-57240 15572 111174
2177.26 49478 44083 91103 99853-93585 1312
2180.15 80681 29956 27177 44273 30406-36719
2183.04-7895 54008 12399 73120 11825 60335
2185.94-87249-26571 19687 5856-22234-7528
2188.83-36897-78516-99824-16930-73357-37550
2191.72-80105-29822-160735-127585-85573-112053
2194.61-85368-75204-102074-134809-109743-67681
2197.51-80696-97252-120729-82152-158874-49932
2200.40-105745-85380-118491-80137-114251-107153
2203.29-76734-67219-110962-85369-71694-96997
2206.19-108152-75918-74745-35811-101741-55028
2209.08-107596-50544-71403-65025-106665-65412
2211.97-92157-49228-97269-55730-58599-52793
2214.86-71745-57645-58517-38100-41738-54949
2217.76-83634-81290-54555-41135-67558-34548
2220.65-33356-36841-41107-34860-53946-44495
2223.54-65698-54857-65944-18677-63791-57270
2226.43-79991-7193-49208-17620-71151-11060
2229.33-87232-43814-28468-35377-31377-12699
2232.22-43831-17368-44668-26330-43385-10201
2235.11-31815-44207-33795-36499-48530 2685
2238.01-31528 4864-54504-41939-46184-3110
2240.90-33056 29366-54095-23211-3723-5624
2243.79-52929 828-20447-2975-28504-6641
2246.68-33457-25443-31831 15036-24250 8558
2249.58-9930 25264-30841-11072 15434 25885
2252.47-35767 22102-23787 15388 7042 8647
2255.36 9322 9144-31937-2086-19961 7272
2258.25-20326-4016-32572 25993-29043 24338
2261.15 6537-8747-10709 22707-13776-18868
2264.04 26241 26797-13932 14084-11657 38873
2266.93-17013-19866-12864 16532-59806 263
2269.83-25998 34653 13979 10126-46212-22832
2272.72-41539 16876-21715-7098-27332 14462
2275.61-22652-8653 5692 20565-37635-17405
2278.50-31429-7895-29158-9610-13019-20468
2281.40-20226 3229-40638 4863-46846-10513
2284.29-1176-25634-30559 20155-14213 28291
2287.18-44038-6735-36064-4518-27089 6391
2290.07-37194-13972-24986 6523-23938 15383
2292.97-23061 20891-16521 25215-15263 1418
2295.86-33106 6470-19960 10568 1374 12019
2298.75-44179 27921-14192 31492-48706 32647
2301.65-19901 55240-43260 23506-56474 30276
2304.54-14291 4937-24363 20011 57199 19928
2307.43-21917 2025 48462 29532-57718 24800
2310.32 9350 147612-29849 38306-8058 222938
2313.22-58378 66027-63307 284690-15849 99478
2316.11-55001 305643 80488 56769-75605 328589
2319.00 118852 65270-68022 368129 202142 40637
2321.89-19614 402274 266262-5095-18689 468876
2324.79 313201-37405 75054 527100 359004-87894
2327.68 143731 589607 302501-141891 280718 693779
2330.57 209407-102123 438261 684859 34254-22743
2333.47 637984 571470-96120 194544 776366 293069
2336.36-106591 512380 686531-27756 31219 736314
2339.25 371310-152382 423089 671710 38065 72070
2342.14 597008 245097-60397 347313 382290-54476
2345.04 152213 358605 72609 30295 212107 110404
2347.93 30520 24570 46524 106162 71097 44899
2350.82 246656 183685-21695 388952 319338-52073
2353.71 470612 455811-87101 523023 552924-94115
2356.61 630638 594636-132777 781604 528527-106583
2359.50 920106 376155 7482 1045233 85493 231217
2362.39 1004122-118410 595561 694812-111461 888042
2365.29 202156 170110 806119-144189 605634 336597
2368.18 26097 668937-95881 487896 166565 135864
2371.07 426267-92452 416371-25469 243267 102623
2373.96 91913 163925-14372 219315-39066 141755
2376.86 4469 122395-11019 63125-18654 76593
2379.75-17506 41540 24689 23792-41723 25718
2382.64-13148 13681-18523 12249-25677 36742
2385.53-3228 2825-3231 8890-11148 21400
2388.43 2686-8944 4270 11771-15350 523
2391.32 7968 2869 12873 5342-26385 26842
2394.21 18077 16120-5877 30337 11126 11663
2397.11-5501 36899-9058 37038 15413 18444
2400.00-1228 50087 3590 13015 16188 55746
2402.89 5838 41398 3738 23216 10028 45906
2405.78 27770 33028 32756 288 22781 50127
2408.68 41605 72540-3701 66546 38544 49962
2411.57 59523 46042 59935 94886 27133 67746
2414.46 61886 91116 84410 57452 97363 101125
2417.35 123211 130719 98855 153874 104041 149610
2420.25 144727 150681 168358 212728 215739 232325
2423.14 234081 267075 242375 304519 326072 309963
2426.03 337287 353505 387924 424021 404605 443072
2428.93 504751 510559 534126 602354 631291 675367
2431.82 712932 783834 766578 834540 890352 942879
2434.71 987242 1014933 1043311 1155708 1166929 1266139
2437.60 1291631 1364994 1421841 1512077 1590685 1652707
2440.50 1725979 1845203 1941456 2050000 2108278 2220095
2443.39 2399456 2590193 2647209 2731018 2731124 2787157
2446.28 2834723 2986016 3146006 3234217 3186303 3119951
2449.17 3422877 3922708 4596047 4782079 4929765 5436422
2452.07 5913045 4888372 2968042 2429581 2266319 2360355
2454.96 2403046 2544792 2605110 2747550 2789272 2888830
2457.85 2885925 2895783 2860593 2825646 2644051 2565647
2460.75 2411827 2264029 2099070 1911223 1728998 1636733
2463.64 1474890 1383343 1301673 1280045 1203929 1219808
2466.53 1134080 1128403 1075819 1072444 1008650 985108
2469.42 886742 848892 762286 749781 619721 587864
2472.32 579288 571432 536945 531388 510702 514909
2475.21 497239 498254 452747 471664 409574 412382
2478.10 340458 346794 304991 303866 276949 268791
2480.99 202076 238307 196058 225968 202596 220893
2483.89 176563 193017 191865 188581 181187 197693
2486.78 186622 233407 175581 207377 173011 231525
2489.67 164154 199191 195952 205014 176992 231406
2492.57 203090 204157 176484 167003 172226 220527
2495.46 186715 258010 203175 243130 225681 208051
2498.35 194575 259254 199270 234774 230931 246075
2501.24 217106 254299 217916 247383 250036 276339
2504.14 266414 314921 287121 280342 269889 307461
2507.03 322761 340648 322625 337733 313185 343848
2509.92 308158 321534 334926 351624 337092 331430
2512.81 331929 324922 323552 301688 295346 315692
2515.71 276976 328457 307108 318387 309393 302315
2518.60 325614 310698 303551 331930 319220 297769
2521.49 275904 310323 270168 277544 273288 271444
2524.39 231099 273428 223377 229222 234341 232041
2527.28 251908 222415 229765 251399 220777 215826
2530.17 202124 233835 232284 212581 204442 229543
2533.06 231773 258500 218626 250297 240050 250854
2535.96 234944 283747 260156 254760 249817 265030
2538.85 243219 305455 258869 262529 189890 254090
2541.74 238751 262918 235346 241231 232149 237586
2544.63 223853 227660 224543 222886 222482 233055
2547.53 213346 227998 209463 203488 191882 190021
2550.42 178114 186621 164234 174362 187853 163778
2553.31 164952 149814 122958 145465 150905 119047
2556.21 139025 162129 108426 110371 83575 126272
2559.10 85690 143310 59283 114531 56254 105383
2561.99 57525 71866 46531 77678 22594 25621
2564.88 14816 39702 31505 25768-13283 35669
2567.78-4318 7318-6115 37173-7471 43479
2570.67-5427-15334-16130 4476 20181 12776
2573.56-16569 21682-25531-2388-22764 27320
2576.45-5054-4960-44348-11126-31544 12987
2579.35-35119 10909-635 7543-41412 32068
2582.24-41206 7408-12187-4616-40925-11759
2585.13-31097-31311-13598-32445-18668 19552
2588.03-43829 11693-24300-37767-37364-9021
2590.92-19225-16464-47929 28752-40826-25008
2593.81-24728-3267-34136-1933-23291 27875
2596.70-24816-44-27793-30475-27801-13204
2599.60 19852-17617 26339 15890-6109 429
2602.49-22203 25425-12256 4418 8448 3468
2605.38 18954 40758 15758 33334 24935 16782
2608.27-11072 29196-9051 5782 12678 18836
2611.17-12004 38605-7615 5673-8271 30212
2614.06-18375-4013 18744 21914-4778 2639
2616.95-30486 10856 7534-9068-15781-33510
2619.85-16385-23074-16399-20951 4027-13110
2622.74-25789-10024-25901 20517-21890 187
2625.63-16101 15917-17478 12117-40236 7901
2628.52-19431-1999-24706-27958-16036-6926
2631.42-13486-8561-4178 4224 666 25768
2634.31-59719-25248 13789 67-45783 10533
2637.20-37676 12098-5572 15472-11430 2971
2640.09 6943 13848-26120 34201 14582 21134
2642.99-209-14265-3899 83080-2858 31560
2645.88-5966 21961-920 25658-1251 23833
2648.77 41535 34334 39228 42210 18964 80797
2651.67 23422 61623 74271 91925 17553 92208
2654.56 2085 106034 54398 99045 73174 105613
2657.45 56983 102069 78216 85268 109854 127543
2660.34 110769 127100 108476 126406 60295 133495
2663.24 117638 115338 114908 109201 124545 128851
2666.13 133589 159568 159921 160329 142152 162358
2669.02 208725 181128 166516 144892 135364 96319
2671.91 153341 143746 100680 109030 96179 126305
2674.81 74696 94058 103574 107252 77496 116278
2677.70 65366 88700 66711 63556 77677 62035
2680.59 54881 65829 60021 37733 41864 25668
2683.49 10946 64684-13662 51828 18194-2019
2686.38 3682 31327 5077-3737 2985 34749
2689.27-34380 11585-16438 39234-41543-16121
2692.16 1717 5900 16084-13802-12727-34659
2695.06-24380-4171-67985 4940-31730-33735
2697.95-28574 9037-52140-19980-36841-28597
2700.84-63176-1934-18607-22057-29083-789
2703.73-16616-15748-18321 15528-917 7507
2706.63 20414 43772-19331 14093-8723 1792
2709.52 10219 20813-1789 35655-28923 26674
2712.41 14223-28599-60770-13675-4485-47814
2715.31-85385-34927 13029 10047-10338-33656
2718.20 10539 13391-7556 14078-46007-20606
2721.09-22800-43861-16626-37149-1097-16715
2723.98-31229 13922-13931 42572-35696-6702
2726.88-17152-44305-14621-33466-37823-8813
2729.77-39285-19356-50509-869-51029-22361
2732.66-28918-36915-9152 13295-52645 23506
2735.55-38281-6907-29698-28096-52761 16985
2738.45-4256-36552-46651 1682 2081 7610
2741.34-21685-5361-14696-17057-76104-54606
2744.23-20564-11124-85798-15201-61014-47928
2747.13-31815 40585 66310 175060 4252-21279
2750.02-32043 10659-10043 3256-101319-13297
2752.91-14762-1048-29984-13791-9906 21103
2755.80-5183-1399-23931 25589-16906 22071
2758.70-10237 43418 25460 42631 23725 81137
2761.59-26589 50257-3157 72024-12311 13601
2764.48-10969 48775-22900 438-87762-114039
2767.37-194073-201549-197674-56819 14871 57354
2770.27-37127 92-3338 83125 56622 55532
2773.16 33651 62999 22593 52899 31363 35433
2776.05 26702 19931 35094 44798 15551 17392
2778.95 8064 39286 1325-6448-32090 44603
2781.84-20187 22106-4585 67757-3340-2587
2784.73 12185 27771-4960 39998-29100 7581
2787.62-33373 22021 56130-13749 6496 27191
2790.52 20980 58367 39183 90637 21314 136276
2793.41 60385 125436 69858 102672 89137 107321
2796.30 133703 158548 154793 153901 166714 169663
2799.19 159671 225643 177027 216885 219031 233274
2802.09 201978 245783 221698 224342 223116 300483
2804.98 223907 261691 299511 333591 268396 314142
2807.87 251963 358231 381639 342464 263792 281059
2810.77 293627 302632 299582 310041 324393 327244
2813.66 341128 382620 395670 422029 390191 445297
2816.55 439450 486525 463307 482985 488999 538653
2819.44 534710 560367 579131 614480 593546 606714
2822.34 632860 615065 604011 603207 573256 616745
2825.23 586713 638199 594076 682303 693463 709871
2828.12 685404 861475 802403 857831 698718 662762
2831.01 554641 559315 531221 571815 608721 637481
2833.91 676439 734371 724642 762674 728378 738805
2836.80 734851 719603 627731 632620 537120 511922
2839.69 501776 513273 542628 535151 534958 619303
2842.59 576517 631552 581547 582057 561613 622125
2845.48 585594 638382 605308 599382 564032 573237
2848.37 561685 680491 669542 683060 614617 671715
2851.26 628063 695493 657706 734458 694836 696884
2854.16 675970 742273 765549 742382 746679 824847
2857.05 848333 913016 894967 936702 917143 990221
2859.94 987108 1055439 964688 1073829 1038436 1146745
2862.83 1065971 1211260 1137483 1231813 1212891 1282404
2865.73 1342725 1387934 1371493 1412256 1447309 1452213
2868.62 1502411 1537010 1528278 1513144 1509781 1482101
2871.51 1407707 1515343 1441516 1470905 1434378 1450575
2874.41 1376079 1421675 1301951 1311525 1310130 1315066
2877.30 1272116 1282393 1247911 1310093 1258305 1291327
2880.19 1258233 1268108 1228633 1278824 1203244 1255342
2883.08 1153990 1220623 1258302 1295546 1204863 1276805
2885.98 1191499 1148700 1151272 1183318 1202411 1222405
2888.87 1175387 1126952 1182003 1196267 1180636 1313101
2891.76 1193131 1217969 1195002 1229124 1273166 1313265
2894.65 1213823 1281239 1176812 1221575 1163157 1154637
2897.55 1112255 1135241 1018532 1035622 961122 953328
2900.44 942418 952828 888104 988855 871179 954653
2903.33 828706 867832 801963 838556 797715 742585
2906.23 689696 726155 619127 692126 591356 642017
2909.12 572707 577394 507634 540070 485636 523753
2912.01 419493 447286 364815 453315 328703 429131
2914.90 297902 370861 225202 348020 189559 270739
2917.80 211271 270396 140019 220471 123898 186635
2920.69 94073 231196 100740 213311 43717 154884
2923.58 69869 176063 77690 197328 60452 188048
2926.47 65763 225286 142415 293398 226324 348078
2929.37 319703 515258 424370 641894 611160 878088
2932.26 939214 1224977 1238436 1651222 1697835 2138181
2935.15 2301515 2776018 2897199 3440065 3641015 4185790
2938.05 4331144 4935800 5039603 5634759 5619872 6118436
2940.94 5963126 6403876 6090986 6436892 6048538 6286945
2943.83 5810070 6026943 5047683 4965420 3994605 4287612
2946.72 3153166 3803201 3065861 4853678 5933792 15942415
2949.62 22682567 73389601 28171525 4508006 5391689 2121469
2952.51 3733671 2613572 4141896 3725649 5015798 4825951
2955.40 5887760 5774394 6704183 6513687 7183674 6880727
2958.29 7280965 6942766 7145103 6622029 6663796 6051511
2961.19 5911213 5293081 5303961 4526644 4398873 3703887
2964.08 3514216 2919197 2807481 2242556 2163723 1696999
2966.97 1689695 1336089 1308625 1010551 988769 837126
2969.87 856275 674658 731124 549398 644921 430519
2972.76 543542 377316 475139 359921 476958 349920
2975.65 507316 295531 396442 291787 413598 297930
2978.54 452612 336543 400162 261094 422981 305777
2981.44 450337 321994 430564 318828 421523 388529
2984.33 493115 340302 470210 393220 493902 433142
2987.22 576085 454039 596177 555667 706198 637550
2990.11 760677 711375 903802 868854 1062393 1031291
2993.01 1208950 1233806 1512210 1620488 1855370 2083351
2995.90 2479743 2740267 3321208 3696229 4490159 5099579
2998.79 6138450 6997191 8335971 9530127 11137341 12604843
3001.69 14454921 16068244 17913850 19345820 21032397 22239117
3004.58 23639362 24421969 25210190 25276364 25286032 24518628
3007.47 23910005 22701130 22020108 21187989 21547017 22260782
3010.36 25270049 29198579 36120247 42866775 48418437 51771946
3013.26 45147538 40652503 32393025 27254147 23095592 21503667
3016.15 20740196 21443070 22324402 23845420 24927598 26012223
3019.04 26500829 26878420 26494604 25974505 24793730 23481138
3021.93 21786856 20062374 18072604 16233884 14301191 12535490
3024.83 10781702 9310344 7905985 6644929 5547998 4642296
3027.72 3815230 3144722 2541775 2092008 1680038 1378681
3030.61 1124163 909229 712106 639981 498856 421277
3033.51 338344 256202 245424 188714 149989 134297
3036.40 153489 130919 137560 76114 80825 92860
3039.29 54046 78789 47514 58338 62814 53848
3042.18 50849 66883 88285 59702 105195 80390
3045.08 75018 57890 50390 51119 73709 62252
3047.97 97865 102198 90256 97327 30542 51687
3050.86 44298 46520 10380 48398 27296 26259
3053.75 17304 36601 68314 11662 40998 69760
3056.65 66056 40239 17294-37468 51766 34114
3059.54 59796 21812 29673 30207 2262-26610
3062.43-12461 35070 48096 40676-752 39541
3065.33 38636 16877 457 20716-15950 8352
3068.22 31604 4801 2994 13050 9657 2154
3071.11 22413-22975-35026-39833 2250-287
3074.00-12010 33384 61426 47912 17756-967
3076.90 17275-25951 483 684 31435-27131
3079.79 10913-33947-64998 598-25909-59086
3082.68 9050-12621 43537-8225 10830-26763
3085.57-21733-18175-30421-1914-20885-18632
3088.47 9683-815-30246-24668-25319 81192
3091.36 13572 44496 8741-5021 17580-483
3094.25 50534 8384 17106 26701-15161-62326
3097.15 49064 18349-11686-21063-26815 9538
3100.04 35113-57871 1030-4671 3016-33759
3102.93-24180-14711 17707 13530 6966-32586
3105.82-12545-20701-64278-42110 8798-8101
3108.72-34153-29764 32144-11617-46392-69590
3111.61-85391 11962 18121 10300-7140-54673
3114.50 6354-11590-13668-19709-55395 8039
3117.39 20334-15253 19340-48004-48665-22091
3120.29-8188-4774-61875-23084-13738-72700
3123.18 22655 43792 2901-43455 2273-54344
3126.07-18636 10607 20643-34670-18706-30871
3128.97-20313-56820 19876-29603-1374-30370
3131.86-14586-13251-60424-16695 5349 38374
3134.75-12417-20913-13238 2979-32395 1280
3137.64-12535-3131 22003-64266-6318-22612
3140.54 4801-10747-17176 47171 40091-15223
3143.43 14523-46218 4429-10193-38704-25588
3146.32-11706 43098 8352 21482-5631 460
3149.21-6762-8540 7468 19166 18561 44937
3152.11 42031 23230 54996 28391 28228 68352
3155.00-1068 35161 31907 17388 72167 2272
3157.89 27200 69291-7900 32023 36967 51219
3160.79 67584 45706 105467 53897 68000 63095
3163.68 67516 51585 106077 63578 71177 48250
3166.57 123267 48396 110124 90263 156797 110664
3169.46 143907 108063 79261 118845 88801 142597
3172.36 142942 154536 153923 110174 184014 109941
3175.25 148182 153043 170646 184604 183796 186281
3178.14 224648 240440 182502 219047 220852 235154
3181.03 225547 221860 149218 199709 211219 214884
3183.93 187522 183533 187536 239740 231501 295573
3186.82 207513 299437 306370 313931 315827 255688
3189.71 223068 262124 201172 172960 246941 146300
3192.61 217305 202942 166749 236103 215145 150277
3195.50 203457 221209 173108 138121 74251 177709
3198.39 77591 109959 116738 169979 112096 105399
3201.28 110092 133752 96673 49983 85479 105587
3204.18 26998 61979 68870 69938 78316 78686
3207.07 71922 81705 129227 93776 101073 93132
3209.96 59896 39590 76570 66382 79078 73591
3212.85 76078 105378 39318 80473 49175 85205
3215.75 88476 36268 79633 43569 115503 64139
3218.64 58912 41059 81581 636 33917 7059
3221.53 54102 46077 30920 37117-6726 28958
3224.43-15320 56430-2325 34922-30841 16558
3227.32-26944 45048 50937 32055-30594 74341
3230.21 12903 64815 21018 17379 79873 33222
3233.10 51204 35807 82388 108089 159387 85214
3236.00 113532 113702 158133 132828 167361 182526
3238.89 233527 207752 268917 272904 311289 313371
3241.78 321625 296877 347163 348926 401688 372267
3244.67 348638 346305 420293 425816 436969 404786
3247.57 470330 445083 508845 523368 471506 474043
3250.46 474618 443475 386575 454551 411147 381845
3253.35 434368 476977 498757 515250 525968 514082
3256.25 468870 390543 414864 328005 326704 298286
3259.14 265547 288721 301639 259828 250873 232724
3262.03 223587 194477 242505 145414 129209 154231
3264.92 115360 130102 115142 108103 63844 108766
3267.82 53551 42877 36999 69729 44486 29460
3270.71 101073 39211 82410-10462 34120 33492
3273.60 42737 48957 69490 45380 45766 44899
3276.49 76940 73452 67064 77095 92277 87202
3279.39 136156 67292 111832 157333 151108 188603
3282.28 160223 208115 242133 229066 254904 247255
3285.17 259355 201373 218637 244681 321030 354232
3288.07 355320 335739 415331 467151 444734 430617
3290.96 491376 485731 452608 483290 470068 436176
3293.85 519729 606853 536893 459524 520931 457666
3296.74 456538 463614 325275 447657 371943 446510
3299.64 437649 488333 505848 504312 468241 375758
3302.53 394156 344446 341216 226224 211938 233784
3305.42 208126 215941 208072 218978 299943 175620
3308.31 179608 189827 191966 186026 185647 163627
3311.21 195823 144726 104467 71251 87119 38523
3314.10 61899 77827 69709 2400 15706 30939
3316.99 12978-18005 26214-37769 39954-57302
3319.89-43915-70829-35390-29649-45576-6521
3322.78 29452-23144-25439 26283-34721-39322
3325.67 1029-43931 18112 18290-7386-43062
3328.56-30333 1968 7590-8125 38211 23306
3331.46-30638 44888 62545 17935 57486 57667
3334.35 87592 20067 100184 67849 138864 147890
3337.24 221163 234934 233721 218655 256704 327971
3340.13 327677 358080 409983 435691 498743 472572
3343.03 494255 623366 630118 675371 733778 688855
3345.92 674984 765840 761572 792499 821839 814987
3348.81 851383 896567 889430 945229 927567 1015644
3351.71 1152802 1288798 1383591 1403221 1333789 1285492
3354.60 1338577 1507618 1716875 1961465 1880592 1512078
3357.49 1420419 1387843 1270020 1107682 1158571 1057491
3360.38 1040614 1002931 979454 872826 904471 866153
3363.28 919884 806805 820669 810108 718723 726970
3366.17 717202 677652 622506 622024 590212 555795
3369.06 490305 480307 487401 357311 347752 297770
3371.95 328188 285411 236389 248091 164251 150804
3374.85 134196 138373 91955 144437 91421 92004
3377.74 22692 87870 11624 17620 112094 38434
3380.63 4642-28709-35744 49481-26259-5162
3383.53-46217-87701 29296-31468-5616-45378
3386.42-18785-46603-22063-33986-16707-50488
3389.31-56826-32375-23297-28971-50575-20031
3392.20-48028-83865-25491-14916-38156-33297
3395.10-41072-22961-7451-106537-37854-73305
3397.99-36062-54623-32518-17652-67832 7470
3400.88-52286-73148-36346-33603-34952-62353
3403.77-66166-32977-39755-103004 3869-35328
3406.67-83257-72319-734-46799-40304-9730
3409.56-89062-1248-45650-53396-38789-9079
3412.45-13277-64659-77128-9517-30151-38254
3415.35-8561-41922-12338-44005-68664-66247
3418.24-67995-18532-51810-80622-42235-37852
3421.13-63750-115717-26386-17288-37117-1582
3424.02-4851-18665-82395-31329 5942-71193
3426.92-66688-88594-19659-39917-65301-80975
3429.81-9479-31871-49038-57767-59567-39099
3432.70-638-70661-15752-20890 24898-22586
3435.59-12157 36965-8765-50409-35875-24797
3438.49-20569-51998-85512-75969-50735-13534
3441.38-59001-55720-40715-52114-51118-50630
3444.27-57878 24372-53513-14267 25006-23254
3447.17-17261-16841-36467-53570-61277-105705
3450.06-40307-67897-36768-29760-5137-14447
3452.95-13103-7313-62446-50558-40795-21121
3455.84 41601-42476-15845-40003-9676 16788
3458.74-30865-56259-28578-11678 15160-5739
3461.63 19170-5786 39868 24313 13980 30876
3464.52-14140 18925-11415 5120 43240-24766
3467.41-14679 79064 39918 23292 54245 5430
3470.31-7413 9571 2326 25913 86403-22223
3473.20 85161 46628 89357 93578 63578 24803
3476.09 114355 101013 57245 63440-39783 17554
3478.99 30423 21663 5517 42030 29866 23829
3481.88 35508 31225 36638 778 48413-17193
3484.77 55132 35207 10019 33721 69840 41352
3487.66 1746 41008 71053 24197 36905 87138
3490.56 10016-16532 33145 16352 49867 52630
3493.45 56706-39552 37330 24896 34205 49972
3496.34 54047 4187-11537 21965 99833 50672
3499.23 89483 61884 45529 3997 29765-19423
3502.13 29094-44652 43010 30796-42155-7252
3505.02 18169 58946 25512 27764 1189 22195
3507.91 71810-46547 20918 5968 40396 35995
3510.81-24594 20794-1842 13044 48165 32413
3513.70-1037 805 36042 18449 22894 40117
3516.59 69987 40174 70887 33940 115438 41840
3519.48 55868 71084-54115 95287 47138 4962
3522.38 104403 136772 114194 134121 150708 146688
3525.27 168506 186490 113157 137962 135022 176638
3528.16 213619 210976 208824 184240 219532 251417
3531.05 217594 273120 274751 208948 274807 206902
3533.95 239163 262704 242629 272392 246640 280137
3536.84 336939 318579 319055 289858 301976 275475
3539.73 309896 309577 275366 249124 275499 304957
3542.63 176456 210382 257283 244667 283142 211060
3545.52 229897 218286 174292 173029 173757 222177
3548.41 183741 137801 90216 157460 144915 135485
3551.30 71691 51247 119667 90423 61097 16116
3554.20 37798 71491 33499 26171 98753 16743
3557.09-46913 75050 29016 74133 16152-32372
3559.98 76187 33124-19597 48472 45551-24043
3562.87 15766 20482-36002-24023 11406 5144
3565.77 29982-8074-19977-43640-27466 47214
3568.66 24575 7312 4571 486 21891 20513
3571.55 69085 32774 164 10087-14017-35067
3574.45 4748-34680 31977 16692 29301 1419
3577.34-41768-21527-14397-17594-18350-26618
3580.23-55127-22195-12640-39196 24208-55943
3583.12 18315-11581-41475 5296 11480-14009
3586.02-25994-66011-42208-17001-72441-89744
3588.91-20434-36778-8353-50422 11087-54974
3591.80 33940-1147-15066-8584 18473 801
3594.69-41291-73004-7237 30230-11827-14996
3597.59-38895-52094-69447-67619-6842-7140
3600.48-62723 3181-18659-29005 191 1368
3603.37-34369-41648-58266 3342-75036-7320
3606.27-44413-27941-29121-29800 22294-16403
3609.16 4140 13207-15457-10827-63211-46612
3612.05-111337-100652-2604-50438-66932-18755
3614.94-40317-51663-21740-44697-61016-68279
3617.84-52344-34830-24296-86072-43612-32244
3620.73-16799 20632-12056-20478-47885-88492
3623.62 15712-59399 20651-9011-62590-75064
3626.51-25870 877-21713-123354 13685-147241
3629.41-159139 17963-32921-26791-64873-32359
3632.30-9778-21879-51598-36795 8283-7959
3635.19-35462-1853-55312 19714-46516-29726
3638.09-22384-21925-62212-26584 20777 26524
3640.98-20262-63940-41590-34360-13503-32916
3643.87-34474 364-18945-43395-37040 26099
3646.76-35092-20209-51490-40792-182982-46146
3649.66-43474-100799-72948-65501-10786 72
3652.55-858-68621-16675-8507-83416-47614
3655.44-13725-124018-58244-48667-28929-53045
3658.33-21264-4037-69196-5858-21086 5153
3661.23-12724-22596-20030-30021-2913-25430
3664.12-33386-5559-17550-16606-6607 16095
3667.01-1588 44198-52621-78023-33035 27160
3669.91-65700-177991 16888-11988 39209-48767
3672.80 38797-29201 15396-52472 13386-32921
3675.69-124230 51785-2869 1522 40573 27547
3678.58 4645-10347 43994-28382 24998-15699
3681.48 26521-3541-18977-12640-40259-17741
3684.37-4217-81062-5952-43549-13609-53870
3687.26-47738-166483-158358-10685-81696 9267
3690.15-1329-36040-87758-50778-42734-32532
3693.05-71895 8404-16093-3344-35396-10822
3695.94-1929-16714-38070-4070 5420-8975
3698.83-60804-6629-40546-49769 12908-53448
3701.73-70966-6493-40149 12926-64438-30643
3704.62-64561-61184-98448-29621 11813-36919
3707.51-52493-44385-43684-74240-35988-71345
3710.40-55447-14889-66128-150260-82119-56683
3713.30-19622-25089-27384-41880-3608-26715
3716.19-20739-30629-54375-30504-12192-18757
3719.08-32327-3950 33886-42974-27942 11149
3721.97-5934-367-51484-6741 44601 24074
3724.87 17978 2707-56943-41369 32255-7128
3727.76 79509 19876 11898 44455 31616 25356
3730.65 67377 19094-22710-27635 78134 29886
3733.55 47059-17574 13738-16682 51419-109950
3736.44-57193 53149 20877 6420 25705 14208
3739.33-1719 17790 12107 1083 34618 54122
3742.22 43159-24922 8244-114375-223553-82748
3745.12 997-38415-8946 13795 5024-20535
3748.01-15972-87532-201801-17574-14166-34907
3750.90 3843-111940-234910-11903-73756-37351
3753.79 16373-55653-66575-77469-61232-78873
3756.69-33202-39281-14256-68048-28346-42418
3759.58-111163-44134-1958-28306-34198-76477
3762.47-49240-12431-50950-72566-21332-88299
3765.37-65615-63950-66495-47776-36021-31446
3768.26-51438-59712-123016-50125-4145-53016
3771.15-26672-40535-38097-49718-50465-5998
3774.04-29055-95666 1542-38691-52248-78863
3776.94-79767-57575-70809-49945-108471-90928
3779.83-39416-22884-49234-40818-20354-28817
3782.72-82287-31633-65921-22139-46498-44734
3785.61-65744-47652-23159-8349-49069-16892
3788.51-42552-46378-25705-12755-66753-6602
3791.40-4976-21130-55212-36114-42321-41802
3794.29-59482-60472-8196-56055-40249-58416
3797.19-24376-52559 13163-37643-25339-38142
3800.08-8898-127717-203638-19392-50996-22154
3802.97 4308-29064-36584 5724-925-65594
3805.86-39741-174845-128335-19740-46170-20303
3808.76-57359 9328-40667-351 20155 43087
3811.65-21229-14742-12748 9748-13535-12622
3814.54-60775 35760-198785-97542 59903 5210
3817.43 57013-47157-35413-10736 13982-59957
3820.33-71417-30193-73534-20944 18944 33701
3823.22 8476-8291-38041 13142-68173 33
3826.11 15477 17721 64961-7629-4556 59382
3829.01 60763 20558 64709 63734-11668-10220
3831.90 45040-58287 62659 11828 32761-56016
3834.79 341-34992 32382-16305 18886-178655
3837.68-66481 10240-23728 10902-17625-7439
3840.58-35904 8095-40994 10080-25712-50315
3843.47-88647-26662-58762-28410-72778 3116
3846.36-44004-47366-51585-92884-43570-31143
3849.25-44209-15120-55897-53786-121630-174811
3852.15 7982-92618-21136-293142-115488-63256
3855.04-51761 4126-58293-42067-58417-52686
3857.93-26808-24151-85093-44714-46382-13158
3860.83-34060-101794-42566-4977-67802-74359
3863.72-47095-65224-122954-65522-51563-28779
3866.61-75429-59383-78637-40197-95242-45350
3869.50-143415-50221-40235-52379-20233-50741
3872.40-16358-73825-28389-46039-54278-16502
3875.29-55406-442-10344-41068-26790-45718
3878.18-53928-45719-22402-96400-85772-36757
3881.07-29572-41932-47617-45250 23467-10859
3883.97-1407-34117-76302-132028-2300-23634
3886.86-59984-22064-29181 27717-30513-48048
3889.75-39772-42051-47279-30575 14077-37417
3892.65-37683-41680-63931-67806 35541 10345
3895.54-73679-11223-33291-17382-2898-46635
3898.43-32170-103166-20870-12220-16194-52128
3901.32-32795 12908 33274 15194-35482-96258
3904.22-35253 5552-32183-17474-68534-25801
3907.11 40008-17353 24536 17856 11711 18209
3910.00 66744 3919 4232-17707 69799 45750
3912.89 14309 14930 26724 12990 36932-10242
3915.79 71667 77190 34399 20278 94277 35309
3918.68 72773 17084 15628 99840 77680 25886
3921.57 58335 43441 67321 116856 56931 22785
3924.47 21960 122724 49881 62623 46297 110715
3927.36 88163 78602 131268 104239 51544 68064
3930.25 117115 86115 132049 116760 46086 122471
3933.14 81735 121007 90505 115263 126802 112658
3936.04 120404 122815 120017 96003 95954 135224
3938.93 136056 88475 139525 167845 122207 121195
3941.82 150923 174526 145535 168607 167474 217366
3944.71 174054 215435 145312 212650 205912 235994
3947.61 207599 216393 199336 196630 233347 219339
3950.50 257616 201481 253584 254402 201397 217432
3953.39 222087 223639 287768 213736 296688 272738
3956.29 243591 263159 270508 234499 194943 212989
3959.18 203537 186719 204548 246245 234525 252074
3962.07 221574 202966 199538 235692 232164 230764
3964.96 224921 206829 159151 178745 229956 250463
3967.86 229697 142378 190498 171570 180398 207820
3970.75 195124 164501 264527 250038 223366 173003
3973.64 204473 248800
##END=
