##TITLE=1,1,1-Trichloroethane
##JCAMP-DX=4.24
##DATA TYPE=INFRARED SPECTRUM
##CLASS=IUPAC A
##ORIGIN=NIST, Analytical Chemistry Division, 301-975-3108
##OWNER=COPYRIGHT (C) 2001 by the U.S. Secretary of Commerce
##DATE=01/06/01
##$SPECTRA VERSION=1.10
##$UNCERTAINTY IN Y=2.1 % relative (B=1.08E-04,C=2.81E-10,D=2.71E-15)
##CAS NAME=1,1,1-Trichloroethane
##CAS REGISTRY NO=71-55-6
##MOLFORM=C H3 C Cl3
##MP=-30.41 C
##BP=74.1 C
##$NIST SOURCE=QUANT-IR
##SPECTROMETER/DATA SYSTEM=IFS66V (Bruker)
##INSTRUMENT PARAMETERS=KBr Beam Splitter; MCT Detector; Multipass cell
##STATE=gas
##SAMPLE DESCRIPTION=1,1,1-Trichloroethane Primary Gas Standard
##PRESSURE=101.3 Pa
##TEMPERATURE=23 C
##SAMPLING PROCEDURE=1 L/min Flow
##RESOLUTION=1.9290
##DATA PROCESSING=Triangular Apodization
##XUNITS=cm-1
##YUNITS=(micromol/mol)-1m-1 (base 10)
##XFACTOR=1.0
##YFACTOR=18.189E-13
##DELTAX=0.9645
##FIRSTX=575.652
##LASTX=3974.606
##FIRSTY=3.58E-06
##MAXX=3973.64
##MINX=575.65
##MAXY=.0018538
##MINY=-2.58E-07
##NPOINTS=3526
##XYDATA=(X++(Y..Y))
575.65 1969958 1814368 1780247 1669333 1382961 1208092
580.47 1123467 1047855 899375 826665 902073 892229
586.26 833637 838655 898828 824450 705373 638616
592.04 534715 438904 390993 331263 257831 243852
597.83 204237 166201 131891 118653 160104 131338
603.62 135158 142309 155452 163496 133054 96656
609.40 100460 187121 206599 193083 169321 147956
615.19 167288 173721 191710 240031 205224 174692
620.97 214175 222466 227953 262502 278170 251672
626.76 260789 288465 261051 208657 173546 188790
632.54 202981 201457 217362 252978 266410 246359
638.33 236800 235041 249887 240255 259139 304025
644.11 299439 304096 303122 313037 346424 370155
649.90 417901 446082 479909 530460 542053 576111
655.68 633652 709147 796283 852164 928852 1060484
661.47 1198997 1326039 1513079 1721714 1949252 2396248
667.26 2680011 2873440 3217921 3562805 4033369 4611510
673.04 5156622 5759487 6528178 7359134 8225820 9217784
678.83 10251279 11266640 12326226 13616784 15183060 17015490
684.61 18621573 19415515 20332995 21735374 22137853 21569213
690.40 21207623 21099396 21179988 21534050 22224954 23345116
696.18 24914254 27001354 29659021 32980221 37036844 41917523
701.97 47704398 54631243 62993106 73401174 86554465 103271689
707.75 124014417 148753831 177812614 212522905 254409318 304438799
713.54 363308156 430907826 506954106 590481107 677986013 767696943
719.32 852282482 921426539 971916448 1002397089 1015442382 1019156220
725.11 1018086291 1014132539 1007585654 951822662 826306581 665975519
730.90 511406589 389971160 298136871 229633703 178060700 138615473
736.68 108123202 85012658 67911101 55428897 46333287 39602652
742.47 34324863 29931924 26262922 23648975 22496439 21855285
748.25 20558294 18928173 17327832 15733109 14193189 12902085
754.04 12005811 11124827 10067424 9424205 9482073 8971310
759.82 7767245 7687157 8865532 8588323 6613629 6113817
765.61 7234374 7275688 5613351 4692652 4669810 4637605
771.39 4670001 4610678 4414564 4223556 4035861 3842701
777.18 3645376 3435390 3272775 3108122 2947136 2839926
782.96 2763153 2672457 2620091 2639795 2652787 2810283
788.75 3029377 3139928 3300300 3590781 3918225 4214788
794.53 4534730 4831052 5037215 5077310 4959845 4752393
800.32 4472198 4276513 4349727 4672484 5020137 5117385
806.11 5012843 4814443 4523852 4250880 3987323 3685747
811.89 3411602 3212413 3121011 3178697 3300143 3359639
817.68 3347970 3230388 3040952 2876731 2746695 2647608
823.46 2523837 2431010 2380885 2303698 2240256 2201496
829.25 2147694 2095124 2038079 2007170 1972841 1820492
835.03 1674447 1560890 1433906 1374311 1408394 1450838
840.82 1395713 1356249 1355041 1324396 1306926 1289576
846.60 1263132 1277827 1309854 1353755 1436638 1546936
852.39 1677529 1842176 1992579 2130179 2358112 2599364
858.17 2733401 2880109 3145520 3347835 3433803 3397049
863.96 3359572 3535609 3825030 3712031 3206497 3022151
869.75 3737659 3667968 2502871 2126489 2100546 2015962
875.53 1897849 1661312 1394206 1132952 921888 767771
881.32 656544 565255 471011 423441 396529 353432
887.10 320152 289257 265086 248195 224025 193952
892.89 185528 182235 173173 152583 131377 117162
898.67 117242 134700 123313 97972 95887 102125
904.46 100218 98305 95887 103464 119643 122069
910.24 117890 116791 126991 141684 145929 139441
916.03 143712 143572 160379 177211 175817 194566
921.81 211992 212256 208382 215261 220784 214283
927.60 214534 240490 251867 251967 256493 269848
933.39 294655 313411 339488 356535 368980 394203
939.17 432029 479146 535617 602839 673294 747402
944.96 835905 944381 1029039 1109419 1201637 1295481
950.74 1395036 1493869 1573285 1648697 1735214 1818884
956.53 1913071 2017864 2134206 2230262 2285077 2295790
962.31 2266389 2192465 2022595 1866811 1732333 1588913
968.10 1563862 1591549 1586189 1544157 1472714 1383764
973.88 1275773 1157831 1065850 1005413 952673 926555
979.67 937579 995040 1082065 1192853 1349591 1532465
985.45 1731308 1961645 2222334 2515763 2836999 3187198
991.24 3575393 4002645 4453883 4894403 5292408 5555890
997.03 5635407 5643115 5768703 6149720 6691902 7257713
1002.81 7766437 8132884 8440648 8878821 9445692 9967503
1008.60 10248718 10145500 9721658 9304551 9362292 9950766
1014.38 10474820 10326152 9195397 7454722 5847893 4666083
1020.17 3812478 3164440 2659063 2289650 2035017 1872469
1025.95 1778573 1719187 1703747 1712325 1725627 1778795
1031.74 1838404 1892299 1953565 2057561 2184460 2304918
1037.52 2469349 2695901 2859339 2944102 3133596 3498738
1043.31 3950430 4366548 4681461 5024038 5531080 6266042
1049.09 7194127 8304407 9619616 11205761 13124998 15370489
1054.88 18038510 21173322 24559879 28678816 33256923 37843829
1060.67 43072588 48993828 54998682 61103237 67346533 73215541
1066.45 78527531 84809999 91117496 99036764 113450907 124013706
1072.24 128763326 139531340 136711927 126258867 136735314 159305325
1078.02 185474334 214285256 244596598 275974139 309335917 346368173
1083.81 385850710 425095749 456422007 469823185 463800583 448919587
1089.59 416001826 353714690 316762078 329361281 351163877 357481063
1095.38 338950059 298674915 248339354 199264509 157389547 124265639
1101.16 99127530 80432451 66325055 55667850 47891211 42022216
1106.95 37249521 33538384 30557916 28052462 25868933 23885824
1112.73 22150878 20499327 18808502 17152110 15528075 13875521
1118.52 12157164 10436297 8810355 7385889 6150997 5101514
1124.31 4220828 3496378 2909142 2446704 2073676 1780415
1130.09 1540701 1339884 1168106 1026210 925380 852902
1135.88 794207 755929 709842 671909 639481 604017
1141.66 587363 573928 555878 548496 530984 499917
1147.45 472037 478857 480522 458552 447686 435561
1153.23 409109 390393 386255 376667 355111 319206
1159.02 312096 309703 274032 259655 249576 238089
1164.80 236238 225281 211112 203935 195057 192156
1170.59 202411 200843 184376 177305 180613 182875
1176.37 186529 181777 184435 193806 203364 211145
1182.16 203271 208303 234609 255055 260146 272331
1187.95 302560 316214 314127 311186 307864 327010
1193.73 347294 347623 343308 348034 348651 355416
1199.52 366615 367612 374596 381535 387241 393405
1205.30 396848 403744 404646 396118 412447 440903
1211.09 474398 498563 518549 558219 582173 581823
1216.87 589280 601540 615879 629414 645348 677779
1222.66 725188 795624 888545 998975 1132158 1281680
1228.44 1451951 1627065 1818937 2026075 2230877 2456252
1234.23 2719110 2978952 3251354 3545125 3816792 4078785
1240.01 4365201 4623011 4848108 5045039 5196300 5309995
1245.80 5390616 5458511 5474070 5362786 5267340 5167699
1251.59 4836921 4418214 4097865 3684661 3081689 2498080
1257.37 2053036 1708749 1443804 1250715 1102301 1008080
1263.16 954794 893966 848305 817109 778749 721141
1268.94 673647 644292 621899 594372 569748 540516
1274.73 489716 430794 379735 339560 315322 304492
1280.51 305403 303432 326682 347727 358695 359581
1286.30 350747 342536 365051 399913 431646 432305
1292.08 410252 399093 405566 414630 406815 405905
1297.87 422616 436321 446786 438499 431157 436932
1303.65 447091 441975 466220 486150 494204 507396
1309.44 508821 490248 487691 457087 414599 379074
1315.23 352050 360345 392652 412204 426280 431939
1321.01 444118 418700 398322 374521 341461 314304
1326.80 304158 282647 266575 256262 251432 249789
1332.58 257482 256845 282077 286324 291767 275303
1338.37 266144 249586 245874 239816 242033 237502
1344.15 247298 220337 231600 229997 213948 187349
1349.94 187035 167144 203607 260860 354208 440494
1355.72 532048 541570 629979 741765 935792 1181738
1361.51 1556386 2093458 2842690 3478240 4382840 5542462
1367.29 7007244 8659977 10632713 12699883 15016959 17374691
1373.08 20079168 21427490 22057761 22001819 21681475 20191432
1378.87 19153878 16812254 17552535 24658350 81770575 111553146
1384.65 59665447 28387115 18370574 17457595 21227025 24386333
1390.44 27604423 29098593 29508422 28085863 25695098 22245076
1396.22 18602842 14832713 11522634 8667441 6533061 4894870
1402.01 3855276 3149377 2786582 2598050 2638210 2749141
1407.79 3023501 3339833 3758235 4212541 4736621 5270473
1413.58 5838434 6371035 6873181 7272709 7560174 7718817
1419.36 7809946 7862153 7935118 8287988 9032860 10159616
1425.15 11473502 11877261 12522225 11494630 9254077 8325994
1430.93 8133524 8490341 8947405 9462633 10027041 10677755
1436.72 11472880 12400824 13459076 14625152 15767186 16860683
1442.51 17820246 18439338 18702131 18493870 17850048 17080751
1448.29 16331269 15722635 15124098 15031510 18487620 26209853
1454.08 31442328 29989101 25024596 19536444 15422860 13350356
1459.86 12671825 12732823 13008988 13207998 13144351 12813614
1465.65 12233983 11369495 10319447 9180957 8027210 6862972
1471.43 5788348 4857597 4062396 3360000 2747234 2245775
1477.22 1836258 1505811 1234364 1021132 849998 708601
1483.00 605709 526233 461558 395068 351263 317733
1488.79 287822 266964 254806 234125 216763 198174
1494.57 154951 133625 150627 134065 131290 135051
1500.36 120982 107749 95734 70528 17794-11828
1506.15-8033 20543 49169 57276 61296 50806
1511.93 51785 59725 48663 43225 45725 51438
1517.72 58154 40208 4449-914 23411 42021
1523.50 47440 35114 46991 54879 53968 62118
1529.29 66723 68007 61641 37574 28584 46215
1535.07 55058 54509 24959-38791-36581-2685
1540.86-8027 3233 30147 23735 24433 42188
1546.64 46844 39511 24578 23310 27105 33350
1552.43 15693-8369 15389 22759-18371-58137
1558.21-47893-48077-9115 24257 22849 30384
1564.00 39138 53601 28375 21676 17523 1477
1569.79 25040 29495 21368 23686 13724-32760
1575.57-29941 18633 34611 46368 43535 47832
1581.36 67811 70296 62988 61915 60466 52606
1587.14 59579 61083 56590 59412 59103 60789
1592.93 65055 62415 61363 54871 47758 44684
1598.71 42765 32644 29073 30983 24967 23559
1604.50 26217 17307 8326 7886 8857 1927
1610.28 468 0-4502-4027-11953-61187
1616.07-75721-36390-21002-5076-9413-23254
1621.85-32508-38697-27050-11930-1587-6490
1627.64-13063-12870-14198-7735 1853 2045
1633.43-27643-70001-52025-26421-20348-21924
1639.21-16369-8819-6721-4507-6189-31518
1645.00-57323-33719-27301-19561-8615-10571
1650.78-52549-125610-96361-33151 4742 18172
1656.57 16602 24764 24886 28893 31610 23854
1662.35 26773 39486 42512 47350 59721 44924
1668.14 19042 26181 33156 35065 48929 44654
1673.92 15486 20503 54654 65700 60401 65540
1679.71 75774 73621 70875 52617 11987 47578
1685.49 99676 104817 127636 136986 138215 141929
1691.28 156245 163281 166057 112459 83075 135190
1697.07 143284 122396 72996 94573 162171 173839
1702.85 170666 182324 204569 206536 222317 221631
1708.64 213560 216866 232550 247265 261722 274857
1714.42 310693 329148 315878 338213 337672 335987
1720.21 352360 371375 394574 410831 417551 417633
1725.99 417528 427095 425609 435282 438865 429342
1731.78 393881 323164 310463 343341 344106 321831
1737.56 301948 273896 270510 304170 358630 375450
1743.35 331005 278828 228396 192038 177944 174263
1749.13 169689 142584 138703 148296 140682 131565
1754.92 116328 101580 106316 111011 108081 90419
1760.71 73045 86295 98618 104260 107373 111161
1766.49 107901 107445 122246 124936 125633 113174
1772.28 130445 173108 193728 219531 246688 270993
1778.06 295342 322956 363272 403005 438025 474481
1783.85 516919 561551 605402 654934 701405 737131
1789.63 755219 764530 774827 813259 842808 839690
1795.42 838332 824984 795315 753493 700446 654315
1801.20 610897 558129 489214 416082 354971 301352
1806.99 265519 241813 223395 200807 183819 185497
1812.77 190644 188417 190189 193980 187613 180551
1818.56 184843 187405 179701 170486 159655 138159
1824.35 128893 131267 123247 112298 102720 101843
1830.13 107561 103617 96357 92077 92202 85410
1835.92 71341 58729 52522 51986 44221 32784
1841.70 28090 1105-15267-19 6573 4529
1847.49 119-5701-12253-8009 31-6332
1853.27-14976-16957-13206-7938-8461-12342
1859.06-14918-13959-11462-14007-16057-13546
1864.84-14382-12976-16023-25320-27177-21777
1870.63-11412-12165-11904-3858-1106 1368
1876.41-3837-6827-4263-5167-7281-3185
1882.20 3653 2127 8834 16323 16802 23756
1887.99 25194 22741 34056 46600 52087 65238
1893.77 81340 90010 104513 119339 146039 163961
1899.56 170951 178635 176117 175211 182619 195316
1905.34 242994 269581 324925 359861 350199 335835
1911.13 208827 151763 169548 176556 198477 208781
1916.91 201166 190204 178659 169013 154520 125565
1922.70 105168 101548 98628 87291 90218 96618
1928.48 87394 69289 56214 52112 68897 104290
1934.27 111881 84136 63078 53762 55440 63459
1940.05 65190 60203 55224 54340 48568 44830
1945.84 44100 41336 34259 40082 64652 70325
1951.63 51650 36942 35102 39400 45825 43332
1957.41 45280 48245 45925 40486 37789 43177
1963.20 41384 35567 28455 30809 34434 29315
1968.98 29995 29306 31623 40876 50639 33062
1974.77 16579 27149 28177 28007 30212 25642
1980.55 21848 24972 21080 12069 6029 37
1986.34 1287 4783 2814-1528-8268-11994
1992.12-10430-8839-9900-1994-1942-10216
1997.91-9173-12919-16422-16300-15782-13943
2003.69-5037-9578-17983-15121-13068-12424
2009.48-20468-20161-12723-6902-8299-12916
2015.27-15614-15114-6210-4671-3776 2609
2021.05 4117-826 3300 7315 5459 7628
2026.84 3848 4502 8844 4397 2383 13969
2032.62 25708 16571 7505 3805 19 5417
2038.41 10469 6354 4886 7975 12936 5969
2044.19-7013-1700 4513 11850 12349 2096
2049.98 5252 8226 6926 8127 8021 3554
2055.76 5603 7803 9512 11518 12211 10458
2061.55 6223 8714 13474 19630 20474 21285
2067.33 17772 15853 29545 43161 41694 41492
2073.12 47249 50775 59030 50675 42291 50624
2078.91 60514 61812 45841 57437 69424 71647
2084.69 76665 78328 89691 99782 110183 117479
2090.48 139084 167669 188991 198508 224245 270152
2096.26 312962 347230 390549 466143 543320 603020
2102.05 656650 735014 815383 878285 904043 930978
2107.83 973451 1009065 1030997 1058852 1116287 1129727
2113.62 1085739 1037383 1030135 1053167 1086174 1118824
2119.40 1198852 1285854 1358047 1425863 1520254 1649239
2125.19 1759568 1819338 1868196 1957235 2063465 2183078
2130.97 2235366 2227378 2249709 2307928 2476954 2785166
2136.76 2955716 2585820 1989758 1708423 1646626 1649133
2142.55 1665528 1631618 1496410 1273653 1042920 862759
2148.33 753726 699289 665224 644921 621639 593184
2154.12 575521 565922 533170 460361 398940 365118
2159.90 310926 252571 236692 222372 171872 122800
2165.69 111075 94778 51019 30925 43478 23066
2171.47-9415 11073 48003 43436 27824 51555
2177.26 69620 40518 22959 41488 32456 13464
2183.04 25503 38934 10186-9701-891-19939
2188.83-49593-52474-50051-76371-100218-89477
2194.61-87193-97418-85940-88666-99123-90791
2200.40-88534-93738-87934-81309-81216-83843
2206.19-75607-65074-70797-67740-70167-73629
2211.97-67902-61016-55894-54101-45551-54565
2217.76-60931-49667-39820-35261-38653-47339
2223.54-49152-45385-48617-38965-33831-42771
2229.33-40526-29332-24649-27492-28004-25500
2235.11-29679-30584-19155-20650-30939-18567
2240.90-12263-15587-14661-14301-10661-15815
2246.68-16975-7749 905 89 1301 5429
2252.47 1428 5814 9986 1188-6131-4527
2258.25-6181-644 5377 4399 1879 6101
2264.04 10915 8682 5571-3159-10058-9053
2269.83 7767-1360-18142-9692-6920-6143
2275.61-888-2510-14834-15100-12098-11527
2281.40-11745-14696-13132-10547-2352-1729
2287.18-14006-12145-11330-12466-6173-337
2292.97 3376 4803-3433-3935 3128 1709
2298.75 2635 4553 5582 9822-2047 1284
2304.54 3113 20367 19480 19645 13593 25151
2310.32 43507 49705 57393 56758 76637 86746
2316.11 103202 99760 112790 122221 141732 154566
2321.89 168889 172275 191920 209442 229201 236361
2327.68 242699 257253 280428 288938 292539 300372
2333.47 312180 316874 321446 318595 301346 298446
2339.25 296567 298566 275290 244386 214383 188467
2345.04 168100 140052 106163 75126 87610 129082
2350.82 168674 213136 254386 288217 318435 352119
2356.61 377035 397019 411610 425004 424444 420236
2362.39 419404 412231 394651 364190 336266 311535
2368.18 282192 253389 225375 190470 161522 136122
2373.96 111529 92820 76977 61816 42095 33779
2379.75 31376 18059 8828 8324 7089 12589
2385.53 10830 9426 11418 9628 7813 8462
2391.32 12498 10266 15368 20272 20058 19270
2397.11 20804 25165 25613 26699 27959 34397
2402.89 31863 28944 37631 38327 33725 47201
2408.68 52952 53114 60464 68517 73170 76070
2414.46 88322 96510 116038 133115 141011 154587
2420.25 176931 213010 244470 270266 307353 341072
2426.03 379042 424539 473555 536514 608727 692214
2431.82 770794 853264 948381 1036947 1141377 1258456
2437.60 1377359 1517438 1667276 1842840 2029144 2242926
2443.39 2494109 2663788 2774148 2963558 3134317 3303662
2449.17 3869718 4518759 4939436 4240131 2871050 2472877
2454.96 2567687 2693639 2794868 2800954 2697368 2487028
2460.75 2219848 1916257 1640455 1430242 1297438 1210387
2466.53 1132812 1061038 968277 854522 736391 637485
2472.32 586154 551020 524402 497582 459264 407323
2478.10 354531 314999 274325 241980 231180 219543
2483.89 208027 203668 207224 211577 207794 205535
2489.67 204544 207027 213695 204981 193166 208080
2495.46 228009 231284 225828 228869 235886 240826
2501.24 243329 251764 273054 290616 290938 305762
2507.03 326994 329445 326614 329118 337755 334792
2512.81 325556 313060 306187 311429 314442 313461
2518.60 314953 315251 303392 289931 279537 266238
2524.39 251576 240673 240094 239722 235534 225995
2530.17 226301 225207 229831 241306 243658 249984
2535.96 259945 259342 259953 267697 249627 240189
2541.74 247095 240596 234085 228650 226050 224498
2547.53 218177 204669 191524 181630 177523 170193
2553.31 152888 142926 141128 134731 115303 109115
2559.10 105870 92286 81694 69956 54847 36905
2564.88 33225 26130 16601 13276 17550 16044
2570.67 2258 6289 10870 2127-1641 3140
2576.45-6570-14428-7113-921-862-4611
2582.24-4933-11040-18405-19547-15093-8072
2588.03-11597-20389-18262-14633-13587-15806
2593.81-14393-8057-1709-8839-16853-6305
2599.60 7771 9464 2613 4203 7579 14814
2605.38 25667 26309 17561 10928 10736 13171
2611.17 12101 8568 6289 7691 10530 569
2616.95 143-3802-15160-14889-9093-8966
2622.74-9701-3563-2301-292-4228-7131
2628.52-9356-13822-8560-3810 3519-4341
2634.31-10698-6162-9200-550 5112 6266
2640.09 7375 14925 14329 11040 26526 22127
2645.88 15713 18312 27847 39021 42981 49458
2651.67 61669 66447 59384 69149 83593 86727
2657.45 87699 97819 113963 117825 109870 112387
2663.24 118791 120169 132268 149094 155484 166712
2669.02 172940 146936 131941 127177 112941 103955
2674.81 99346 98985 92585 80748 72897 67340
2680.59 61105 48956 35806 32281 26898 18299
2686.38 14906 12313 7190 4159 1030-3791
2692.16 4148-2722-16393-20083-21165-19490
2697.95-18457-24313-28426-20708-14192-11280
2703.73-6596 2085 14175 16332 6778 7242
2709.52 13257 10672 6130-13260-21785-32588
2715.31-24440-2478-4343 2897-5539-19848
2721.09-22433-17043-11263-1948 2484-10999
2726.88-20619-22846-22025-23758-23771-24493
2732.66-17872-10002-10225-15958-20892-12353
2738.45-16054-9888-1472-8981-26633-35016
2744.23-30171-35189-25888 31268 61222 10899
2750.02-5043-17308-22996-9595-5837 3936
2755.80 2878 4833 12848 25054 37689 33784
2761.59 27244 24539 13293 6381-28964-103947
2767.37-142052-64446 4076 10026 41940 53116
2773.16 45729 43289 36413 34668 33371 26418
2778.95 20274 9091 9979 19512 25044 18728
2784.73 20118 16107 6351 20069 25470 30998
2790.52 52710 69684 89573 100672 103273 122279
2796.30 150473 164356 176729 196356 213605 225848
2802.09 231119 240649 256894 277965 300048 301695
2807.87 330423 329316 300878 309112 323359 344138
2813.66 380766 410753 437747 467282 490826 523658
2819.44 561474 590521 608544 611957 603501 605364
2825.23 624478 661794 707506 768104 764870 659407
2831.01 585719 594248 648831 704693 729868 724479
2836.80 688624 613472 549547 538611 557896 588485
2842.59 604578 595577 605053 618369 605068 599882
2848.37 645368 667378 662776 682928 707002 714382
2854.16 740653 772016 823548 889650 929794 975427
2859.94 1015445 1049534 1102584 1155108 1208552 1280210
2865.73 1353592 1400576 1451786 1493540 1495825 1466307
2871.51 1454707 1444589 1418629 1370432 1325588 1302289
2877.30 1284577 1279867 1276705 1260988 1249006 1224890
2883.08 1230169 1250759 1229865 1186437 1189778 1196726
2888.87 1179789 1198718 1229857 1219328 1236852 1256275
2894.65 1232016 1191255 1151127 1095351 1028433 974552
2900.44 952008 936023 907160 859077 824203 765504
2906.23 711310 668130 633065 583797 547741 506367
2912.01 461168 426450 400791 353333 315374 282274
2917.80 263192 224390 210387 206084 198565 174340
2923.58 193850 197442 216434 250843 333652 414474
2929.37 551915 700781 960291 1267362 1680253 2156662
2935.15 2758403 3370042 4080794 4718838 5372194 5772355
2940.94 6094041 6081708 6086211 5599991 5133563 4324478
2946.72 4829985 6246396 18814278 31364926 16613967 4561651
2952.51 4597218 4441557 5450926 5956560 6653398 6819214
2958.29 6891699 6535948 6049385 5349255 4665562 3847736
2964.08 3140718 2476010 1972919 1550209 1247920 1011834
2969.87 873284 735340 644892 560315 536296 514017
2975.65 488224 454377 474789 469072 461753 473769
2981.44 493621 497671 534820 549523 580848 630033
2987.22 691715 773231 875247 988212 1156439 1345022
2993.01 1609610 1984674 2508692 3238859 4255926 5653389
2998.79 7523889 9907815 12769249 15891934 18919333 21558422
3004.58 23500061 24346456 23970999 22865850 22241576 24018766
3010.36 30202383 39611400 43783528 37533585 28228916 23019707
3016.15 22208433 23586562 25092995 25600721 24712423 22523654
3021.93 19458652 16020658 12641604 9627745 7116495 5135967
3027.72 3644360 2558646 1803700 1282802 936113 694860
3033.51 523352 406707 336639 294756 248606 212451
3039.29 189117 170938 161915 160348 165385 158528
3045.08 139871 130999 141400 149500 131826 105585
3050.86 93058 83842 78905 81735 84438 91402
3056.65 75938 56057 70517 69269 51390 35123
3062.43 51497 60091 54826 48125 35234 36067
3068.22 37147 33018 30913 12887 6069 20816
3074.00 45171 51998 31009 18104 21963 15597
3079.79-3086-8605-2301 16309 21118 3949
3085.57-1554 438 7434 5505 5874 33964
3091.36 37420 23548 28317 32637 16863 9206
3097.15 15663 4119 7626 4589 2117-3065
3102.93 3375 12804-952-18100-15216-6545
3108.72-1788-9020-34178-8778 7399-6693
3114.50-4130-10664-683 5824-13980-15558
3120.29-12337-21318-8393 11593-3703-12988
3126.07 1412-4102-17060-13303-6627-8454
3131.86-16498-6289 9367-93-4473-1086
3137.64 895-8029-6019 5062 20970 13828
3143.43-2680-8102-5279 16256 17826 7360
3149.21 9507 23223 38255 42263 43488 40580
3155.00 36300 39719 40957 38216 39983 55279
3160.79 71253 74534 71356 77424 80428 82382
3166.57 93458 113529 128536 117442 112816 133483
3172.36 148526 148251 148527 162026 181349 201264
3178.14 214072 216054 223949 208234 200258 206435
3183.93 202336 227732 252600 276020 293169 266259
3189.71 231560 210573 199855 201083 202054 196465
3195.50 186104 151750 124983 125460 130549 123356
3201.28 109949 92607 78930 71780 77654 83949
3207.07 94656 103824 86465 71158 75264 82525
3212.85 79908 73071 75627 71323 74530 74429
3218.64 59236 41814 36971 44168 32144 22250
3224.43 26266 18627 11469 30573 34183 37732
3230.21 45733 49621 57378 71212 108806 122895
3236.00 132928 160006 194880 236005 277722 307406
3241.78 322669 355121 367272 377931 412642 431716
3247.57 461353 482477 466639 440288 421301 422272
3253.35 458186 493296 476321 415954 353417 307126
3259.14 287794 269549 238425 214942 177581 145899
3264.92 130077 109968 87135 66788 60193 65695
3270.71 64907 46277 45551 60124 61255 66953
3276.49 79181 90101 105401 117217 146462 177780
3282.28 207719 238427 248226 240035 273589 332607
3288.07 374339 423353 449899 465283 464068 482010
3293.85 519239 498325 465934 429065 407202 428130
3299.64 464378 462969 406216 344683 274278 232033
3305.42 224991 231865 215785 192346 188277 176616
3311.21 145329 97460 74923 66813 43295 25438
3316.99 14715 5186-16170-33465-22596-3808
3322.78 2852-2682-9873-1134 7666-5357
3328.56 3119 21297 26302 39188 57822 70941
3334.35 83539 113856 176461 227437 258186 312093
3340.13 376866 442782 501348 582278 664090 698079
3345.92 736888 788239 830108 881711 935137 1046231
3351.71 1228434 1322450 1327649 1496804 1684336 1548032
3357.49 1325152 1176775 1072210 996491 919931 878680
3363.28 836952 777530 722567 668640 610384 546658
3369.06 480335 400138 332592 288959 230172 173303
3374.85 141790 122214 92005 60963 58176 44492
3380.63 8174 6228-10477-22754-10419-18583
3386.42-23317-23040-30885-30671-25876-34772
3392.20-38322-28415-26911-29719-45006-48501
3397.99-37542-30478-32424-40224-38590-42878
3403.77-46922-41828-43094-43196-32106-33478
3409.56-35587-33099-26893-37171-34637-24450
3415.35-25324-39987-51384-46203-47165-52207
3421.13-53866-31298-14826-28029-33201-44577
3426.92-51327-45745-43862-36554-42801-35884
3432.70-26418-13426-1572-2799-20974-29223
3438.49-45256-54566-40758-42497-44574-38729
3444.27-23408-11110-10205-22991-45401-59073
3450.06-46121-24969-12759-23326-34555-13835
3455.84-11295-15723-11421-22490-8768 7687
3461.63 15515 23478 16396 9548 11623 13709
3467.41 31498 38484 20457 14809 32276 44646
3473.20 64149 72413 70328 76163 41738 19534
3478.99 26343 30033 33740 32965 27415 27860
3484.77 32978 39812 40864 39676 47514 41173
3490.56 23376 32468 41362 24585 30940 41307
3496.34 26550 37969 66400 55973 29964 11030
3502.13 11834 9837 10054 30051 28332 24986
3507.91 17329 19673 22734 12468 24798 26864
3513.70 21922 30207 45914 57091 66250 65676
3519.48 47745 46575 70146 110284 135644 153005
3525.27 156383 147497 176805 202686 209162 229396
3531.05 247850 244860 239202 248843 260111 284647
3536.84 307623 296469 291977 285897 271688 250136
3542.63 232105 243745 234684 204749 186775 183462
3548.41 151557 135906 118201 91856 81393 55319
3554.20 50408 52447 34179 35516 40460 27849
3559.98 29467 26275 17796 3358-2330 10545
3565.77 930-10916 12468 17062 13692 31014
3571.55 29028 5487-8027 749 15552 335
3577.34-15588-14614-23546-23064-14029-9793
3583.12-10923-5877-13561-33016-41787-45792
3588.91-28523-19665-9239-1563-24-11666
3594.69-23668-5800-16127-42636-38522-22833
3600.48-19133-12282-14634-29389-31455-28744
3606.27-25878-13748-1767-3397-23718-57700
3612.05-60030-41586-38152-35140-42477-48944
3617.84-41330-43468-28462-7913-24109-37109
3623.62-18902-24955-38576-30319-50648-78326
3629.41-51619-32068-30645-25826-21768-13592
3635.19-17836-19782-22322-28693-14512-4267
3640.98-28197-30244-21067-19926-21224-17327
3646.76-28649-66534-72529-64256-45106-18830
3652.55-25382-34852-45820-57277-47669-30830
3658.33-26337-19977-9627-14528-16484-16609
3664.12-13898-8791 5448-7240-28718-37223
3669.91-50077-14006 2067-5242-12202-27958
3675.69-11795 15331 17526 10840 6883 5855
3681.48-879-15420-21835-29997-29188-49271
3687.26-91191-67667-24251-35337-47102-37058
3693.05-20528-12813-13040-13734-11017-15297
3698.83-27061-25722-32259-29272-24411-41318
3704.62-55445-37264-28730-42783-49573-47897
3710.40-52471-76192-53949-26990-23749-19817
3716.19-27653-25628-15667-5984-7658-5995
3721.97-7616 1486 19883-3647-9194 21943
3727.76 32712 30445 37731 19733 16372 31528
3733.55 16383 145-19339 923 20435 13635
3739.33 12691 18633 28132-3685-79037-78135
3745.12-22067-5934-19393-70835-60861-32993
3750.90-82628-80520-34831-40544-60012-52703
3756.69-37205-37476-51597-42541-30937-42515
3762.47-40332-45816-56586-58119-45849-41105
3768.26-59850-52002-32139-36411-36511-34029
3774.04-37210-40672-58311-61446-66172-63313
3779.83-40503-33128-38681-44662-38862-42624
3785.61-37548-24975-29378-30342-28090-20953
3791.40-24201-35838-41569-39607-37181-38089
3797.19-27464-22223-36830-81011-70754-24082
3802.97-19833-16259-44614-85433-60088-28291
3808.76-21075 1066 7967-3137-7418-14052
3814.54-51451-45354 6710-4887-17017-28360
3820.33-42063-13527 10373-714-15031-1726
3826.11 22239 24255 33702 46928 34054 12344
3831.90 11486 16784-5550-4679-12705-51882
3837.68-29673-4777-12487-12662-16803-38102
3843.47-45340-38329-32542-42730-52527-40558
3849.25-36124-71981-83356-77515-117893-81857
3855.04-35278-44696-40110-42198-42684-38163
3860.83-45649-44328-51941-68601-63595-50999
3866.61-57076-60960-70742-62396-38753-34741
3872.40-38341-38206-31155-20508-24553-36382
3878.18-41831-54532-46138-33969-22843-7030
3883.97-36980-53411-34073-22264-13160-27132
3889.75-34554-21570-21137-38215-25683-12477
3895.54-22871-16699-28878-39571-23130-20333
3901.32 1556-2689-32772-20277-20929-11244
3907.11 12839 18922 30174 23424 24756 36416
3912.89 29055 26627 39272 53238 55098 57040
3918.68 49713 62221 60645 64475 74602 60152
3924.47 68512 74553 84866 101745 95580 90457
3930.25 107134 105862 100315 109189 116132 123503
3936.04 121666 117521 122741 132384 141063 146764
3941.82 159214 173384 189882 192649 200331 217738
3947.61 213403 216020 229087 236691 234370 227206
3953.39 239827 258396 263151 257891 237268 214407
3959.18 211698 230476 235354 220769 225065 229120
3964.96 205814 204735 221621 196968 188892 197664
3970.75 214272 229240 216457 227584
##END=
