##TITLE=1,1,1-Trichloroethane
##JCAMP-DX=4.24
##DATA TYPE=INFRARED SPECTRUM
##CLASS=IUPAC A
##ORIGIN=NIST, Analytical Chemistry Division, 301-975-3108
##OWNER=COPYRIGHT (C) 2001 by the U.S. Secretary of Commerce
##DATE=01/06/01
##$SPECTRA VERSION=1.10
##$UNCERTAINTY IN Y=2.1 % relative (B=1.08E-04,C=2.81E-10,D=2.71E-15)
##CAS NAME=1,1,1-Trichloroethane
##CAS REGISTRY NO=71-55-6
##MOLFORM=C H3 C Cl3
##MP=-30.41 C
##BP=74.1 C
##$NIST SOURCE=QUANT-IR
##SPECTROMETER/DATA SYSTEM=IFS66V (Bruker)
##INSTRUMENT PARAMETERS=KBr Beam Splitter; MCT Detector; Multipass cell
##STATE=gas
##SAMPLE DESCRIPTION=1,1,1-Trichloroethane Primary Gas Standard
##PRESSURE=101.3 Pa
##TEMPERATURE=23 C
##SAMPLING PROCEDURE=1 L/min Flow
##RESOLUTION=1.9290
##DATA PROCESSING=NB Strong Apodization
##XUNITS=cm-1
##YUNITS=(micromol/mol)-1m-1 (base 10)
##XFACTOR=1.0
##YFACTOR=18.189E-13
##DELTAX=0.9645
##FIRSTX=575.652
##LASTX=3974.606
##FIRSTY=3.49E-06
##MAXX=3973.64
##MINX=575.65
##MAXY=.0019089
##MINY=-2.92E-07
##NPOINTS=3526
##XYDATA=(X++(Y..Y))
575.65 1920394 1751413 1722771 1587050 1301592 1093858
580.47 1020847 923498 787006 698024 795508 772542
586.26 736852 725872 809535 715261 610250 510732
592.04 421626 301571 267722 185114 131228 92080
597.83 73978 9342-5638-39988 22391-27071
603.62-3526-19420 17108 808-15417-78551
609.40-53523 15382 58423 20804 8230-36595
615.19-2137-16310 24945 46466 29826-28073
620.97 27766 12728 40733 48781 84013 30300
626.76 59444 59251 49785-37971-57044-71874
632.54-36466-67310-29224-23352 11446-43571
638.33-35936-71999-39344-82432-42493-32776
644.11-16241-51545-36357-64124-13778-25423
649.90 38751 28894 79755 86777 112372 101002
655.68 171840 206574 304259 313216 398660 483230
661.47 628920 710214 898488 1055854 1307711 1704983
667.26 2001238 2133340 2465530 2750818 3234734 3748917
673.04 4306662 4844281 5625773 6397122 7287425 8217446
678.83 9267846 10204031 11272349 12499337 14148476 15981077
684.61 17618222 18326354 19268323 20551595 20898392 20067607
690.40 19492788 19096825 19025375 19097862 19630250 20463014
696.18 21866040 23648036 26117639 29101613 32934147 37416340
701.97 42904310 49327652 57304398 67161755 80002431 96352617
707.75 117025058 141577718 170752512 205574225 248173857 299246971
713.54 360032687 430055863 509634768 597132768 689903292 784946178
719.32 875029370 948228229 1001504762 1032483837 1045846151 1049035418
725.11 1049449617 1049187500 1045567758 987830934 853615083 679546840
730.90 512557692 382953789 287161838 217544589 165737906 126919003
736.68 96988120 74812131 58499998 47064395 38804042 32999709
742.47 28365144 24614154 21355992 19297179 18601401 18489172
748.25 17515255 16169050 14687285 13276359 11818797 10702788
754.04 9902410 9161696 8168757 7702536 7842532 7425384
759.82 6241650 6359394 7651909 7468881 5418567 4998749
765.61 6204195 6387879 4653711 3692898 3643546 3760571
771.39 3820171 3843416 3648786 3508396 3313617 3168874
777.18 2961315 2794025 2621170 2493753 2325297 2254128
782.96 2168953 2112113 2051888 2098134 2115701 2313877
788.75 2538067 2684297 2849073 3177076 3526774 3870600
794.53 4214686 4556685 4778498 4836478 4700445 4473282
800.32 4152920 3949557 4033754 4416337 4807851 4944281
806.11 4833842 4625110 4312307 4030668 3744780 3435796
811.89 3138932 2936873 2848285 2934100 3078833 3169969
817.68 3162185 3046641 2842606 2674410 2537817 2442326
823.46 2315927 2229951 2177888 2109701 2047143 2014356
829.25 1963945 1915151 1863035 1841237 1805665 1652656
835.03 1495900 1372460 1240551 1185287 1228445 1279725
840.82 1228810 1188875 1185752 1158549 1140081 1119299
846.60 1093504 1104946 1139377 1183746 1272320 1385121
852.39 1529027 1696275 1856676 1999600 2246628 2490892
858.17 2641427 2792053 3080375 3293711 3388567 3327956
863.96 3300324 3496868 3817389 3675600 3130773 2989385
869.75 3732587 3663858 2452301 1997623 1966437 1932224
875.53 1803701 1572937 1279926 1011255 784192 633295
881.32 518291 431906 336833 295156 269361 232678
887.10 199023 170958 148736 133479 110109 80776
892.89 74163 72821 66094 44559 23247 8198
898.67 12507 30277 20946-6549-7525-2113
904.46-432-5248-4437 1633 22232 22048
910.24 20775 15592 30892 42598 51148 40184
916.03 46668 43567 64867 77972 81778 97177
921.81 118677 115342 113932 116572 124446 112965
927.60 117089 138822 155060 149290 156568 164648
933.39 194268 208786 239241 249421 265119 283130
939.17 325427 367784 430119 493453 569533 640281
944.96 737125 842822 935245 1011069 1109341 1200078
950.74 1308693 1402804 1489740 1558573 1651940 1730609
956.53 1834937 1939120 2070328 2167011 2232811 2237785
962.31 2213071 2119928 1945005 1763099 1618910 1461320
968.10 1443773 1469519 1479783 1427782 1359661 1253482
973.88 1142388 1004755 910634 832937 780934 738979
979.67 753468 799729 893637 996422 1162256 1338157
985.45 1547657 1770883 2043717 2332875 2668706 3017837
991.24 3426438 3860919 4341112 4795321 5216182 5465853
997.03 5526174 5487581 5601363 5981057 6563911 7158308
1002.81 7695813 8056961 8376790 8825508 9444976 10005743
1008.60 10313044 10168001 9680573 9203674 9292574 9970133
1014.38 10613098 10478135 9259365 7347597 5594188 4308195
1020.17 3421862 2744315 2236307 1849678 1601740 1430202
1025.95 1345526 1277130 1268119 1262353 1279435 1315088
1031.74 1373312 1404068 1458728 1537561 1655164 1748869
1037.52 1907037 2103600 2243699 2279157 2438418 2771371
1043.31 3212146 3584374 3848860 4113505 4560609 5233027
1049.09 6116525 7169188 8435027 9967999 11842843 14055779
1054.88 16708316 19818322 23232741 27381034 31992011 36635184
1060.67 41936116 47948561 54078422 60288631 66580836 72391319
1066.45 77666719 83713699 89891203 98422744 113213166 124208450
1072.24 129780146 139454324 135012361 122877514 132299860 155703919
1078.02 183811487 213844732 245696774 278249232 313456567 352542511
1083.81 395263563 437737997 471940780 486132246 480405246 463251974
1089.59 425009145 357127182 317397517 331673263 359072545 368910319
1095.38 350202498 307043425 252534817 199660646 155072164 120433576
1101.16 94645223 75844838 61909545 51577876 44177276 38692933
1106.95 34291290 30889592 28204148 25948207 23986250 22184668
1112.73 20621004 19095092 17526849 15944511 14400253 12784423
1118.52 11102080 9376463 7767770 6342838 5143588 4112286
1124.31 3279836 2581718 2050296 1617542 1302639 1037198
1130.09 851676 671972 547335 420874 364660 305238
1135.88 290369 260263 253573 219132 221087 186841
1141.66 203465 188871 204164 192968 205067 165814
1147.45 167232 166849 198548 168325 184691 160475
1153.23 161247 129680 153497 131414 134534 84389
1159.02 102979 85232 75968 44185 59338 33273
1164.80 56548 29050 39995 14224 30871 11039
1170.59 47683 27454 35941 8366 37495 20997
1176.37 49916 25028 53000 42695 78850 64959
1182.16 81779 65942 118946 119251 150421 142010
1187.95 198961 191984 214687 186895 209400 206886
1193.73 254206 231742 252708 232216 259783 242344
1199.52 280476 256929 291033 272311 306142 285571
1205.30 317564 296760 324277 287407 331805 334723
1211.09 398891 395852 446914 459005 512399 482226
1216.87 516208 497675 539949 521116 564385 563800
1222.66 640582 680222 805364 886902 1054761 1176861
1228.44 1383324 1531100 1760685 1938884 2181809 2380614
1234.23 2683878 2920289 3237798 3507408 3824296 4064166
1240.01 4396394 4633287 4904713 5075224 5268820 5352305
1245.80 5476074 5516475 5567537 5424966 5369426 5227522
1251.59 4921735 4452198 4148851 3676815 3077013 2416139
1257.37 1980423 1587626 1357711 1125825 1020876 893908
1263.16 886840 792829 793204 725309 731110 632567
1268.94 627555 557534 580633 512979 534060 461303
1274.73 453639 346745 337948 250328 272595 215987
1280.51 265349 218583 292834 268596 331014 281677
1286.30 320892 262141 337018 326002 412236 361074
1292.08 388639 323049 382854 338457 384912 328951
1297.87 402251 361899 429709 362307 412978 358540
1303.65 428496 363968 450625 409802 483906 433167
1309.44 499307 415945 477137 377307 398376 288344
1315.23 329448 268122 375478 325678 415398 347704
1321.01 435019 331816 387030 280007 325301 213835
1326.80 284805 177447 245678 145635 229518 135798
1332.58 235434 140993 262510 169044 273011 151274
1338.37 242774 116076 218467 98229 212019 89027
1344.15 212625 61380 192319 57772 166154-3870
1349.94 122039-48072 125428 27739 272741 194442
1355.72 434816 257486 496169 404974 765729 793016
1361.51 1358456 1683613 2640074 3043431 4177223 5098688
1367.29 6862148 8295848 10630113 12481403 15237645 17442937
1373.08 20621365 21674004 22646617 22042115 21909246 19661737
1378.87 18377229 14756496 14085130 26393759 87544173 119215787
1384.65 65046743 28316655 14978257 16235442 19636793 24764721
1390.44 27574477 30229412 30056418 29228414 26102268 22915876
1396.22 18539170 14939170 11032475 8394837 5839740 4487632
1402.01 3157690 2758101 2170835 2271741 2115995 2491350
1407.79 2589583 3145161 3406091 4079624 4463990 5202210
1413.58 5646246 6366018 6751925 7307113 7468141 7737842
1419.36 7690585 7809015 7760734 8196633 8931077 10259487
1425.15 11592719 12242701 12762103 11675159 9146702 8108827
1430.93 7794120 8308683 8697433 9362540 9831446 10617986
1436.72 11331085 12411310 13423481 14760338 15878865 17148878
1442.51 18073574 18834193 18999745 18831602 18004449 17205298
1448.29 16248734 15563754 14633551 14623292 18552171 27188350
1454.08 32990954 31611443 25923053 19797791 15180146 13017715
1459.86 12334981 12604730 12957574 13330633 13268193 13030430
1465.65 12381191 11549627 10389425 9256718 7985650 6829224
1471.43 5651762 4749598 3877491 3221266 2543612 2096307
1477.22 1632734 1363823 1044393 894112 677066 598181
1483.00 451258 433103 324078 315569 226904 249144
1488.79 175725 209570 153447 186037 124686 153681
1494.57 65173 92931 65558 100483 54661 106002
1500.36 49534 83196 27045 44667-55272-43229
1506.15-80774-3565-12881 41039 2904 34698
1511.93-4654 44337-6032 28394-7645 40097
1517.72 8703 26911-48788-17545-27087 31446
1523.50 1204 25325 1548 45628 11491 54672
1529.29 26465 62841 20744 29190-13185 39217
1535.07 19435 51447-16172-50415-81412-14668
1540.86-46915-3006-7164 19262-10511 38531
1546.64 14370 36033-9533 18046-4934 29229
1552.43-17729-13570-15432 18284-51287-68960
1558.21-87962-57484-41542 20965-5071 28839
1564.00 12369 52615 1123 18212-14124-2095
1569.79-4276 27153-4518 21776-17457-40611
1575.57-63355 13029 9095 45670 17226 47429
1581.36 43052 70884 39133 60891 35004 51283
1587.14 34531 59690 32523 57783 35193 60148
1592.93 42028 62505 38746 54072 24638 43540
1598.71 19186 31053 5532 29023 1952 22591
1604.50 3458 15968-14841 6070-14159 709
1610.28-22087-1196-25689-3136-36671-66699
1616.07-104212-41669-42229-3570-30050-24084
1621.85-56822-42150-49997-12370-21154-6438
1627.64-33461-14766-34573-7943-14995 2570
1633.43-49752-75755-76542-29574-39579-22877
1639.21-35828-8875-24787-2452-25482-34091
1645.00-79768-37939-47049-18663-23855-9812
1650.78-77387-136699-125566-38111-11039 20465
1656.57 851 25385 7832 29799 13299 23504
1662.35 8244 39269 25445 50009 43451 45237
1668.14-86 23529 13533 35902 31736 43211
1673.92-5085 17454 35979 66622 44171 66113
1679.71 59421 75543 53971 46636-10299 41623
1685.49 81680 107223 114252 138456 125071 143324
1691.28 143998 168935 151467 110177 63806 133133
1697.07 128829 118861 50054 88832 144562 175242
1702.85 157064 181672 190728 208018 209611 221282
1708.64 198486 214377 216603 246558 246277 277286
1714.42 298682 333209 305246 340932 324152 338486
1720.21 338108 375615 384612 418064 409019 424051
1725.99 408576 432857 418263 443444 434873 438606
1731.78 383102 321653 294823 342904 334798 324058
1737.56 287285 269247 253823 305981 355205 387280
1743.35 328338 281353 213462 186669 160757 170522
1749.13 153556 138489 122840 144881 127277 128639
1754.92 99972 96943 89973 108331 92727 85029
1760.71 54808 80059 82245 100885 92378 106882
1766.49 91661 102548 106017 120362 106915 104632
1772.28 110967 166271 178243 216064 231715 268145
1778.06 280423 320657 350337 403295 427563 476702
1783.85 508516 566747 601122 665311 702627 751743
1789.63 757550 776871 777059 829158 850095 860275
1795.42 847348 844498 802970 768559 702548 664752
1801.20 609980 565098 482486 414727 339704 293638
1806.99 247530 233798 206070 192576 166614 178715
1812.77 176096 184871 178323 191742 176349 178813
1818.56 174594 187137 170991 170359 148899 135747
1824.35 117211 128739 112411 109497 90718 99393
1830.13 97099 102442 86417 90978 82879 84557
1835.92 61127 56162 41775 49905 34053 31586
1841.70 15953-3697-29195-4742-4679 2883
1847.49-11175-8921-24295-10438-10776-8270
1853.27-26603-20237-24453-9856-18856-14471
1859.06-25956-16126-22211-16090-26701-15847
1864.84-24480-14819-26862-28646-39224-24752
1870.63-22190-14253-22103-5777-10352-126
1876.41-13909-9193-15016-8244-18157-6300
1882.20-7269-622-1539 13408 7170 20839
1887.99 14294 19094 23068 42884 42231 62316
1893.77 71933 87831 95454 118516 139780 165594
1899.56 166457 179397 169063 173175 172142 194766
1905.34 235146 277769 327504 377342 360505 345641
1911.13 200723 146427 151802 176432 191115 212893
1916.91 196693 193335 172924 171302 147045 124253
1922.70 94732 98497 88132 85195 81386 95947
1928.48 79121 66500 43712 47169 60242 106354
1934.27 107814 85556 53530 50329 45722 62213
1940.05 57340 59577 46977 52896 39810 43101
1945.84 35036 38449 24257 38663 58362 71548
1951.63 44993 34456 25585 37380 37741 42424
1957.41 37894 47637 38474 39281 29970 42307
1963.20 34018 34123 20111 29071 26302 27988
1968.98 21687 27311 24177 41548 44314 32444
1974.77 8315 24798 20470 27869 22680 25115
1980.55 14630 24443 13865 11000-2780-2154
1986.34-7135 3439-4707-3129-17007-14455
1992.12-19272-11218-17465-3367-9203-11506
1997.91-17191-15293-24556-19192-24049-15463
2003.69-12382-11128-25902-17457-20803-14594
2009.48-29020-22879-20635-8331-15437-15354
2015.27-24115-17862-14053-6819-10624 844
2021.05-2960-2571-3961 5489-1111 5502
2026.84-3360 2499 1343 1615-4951 12596
2032.62 20079 15818 477 314-7857 2763
2038.41 3219 4110-2582 6116 6016 3116
2044.19-15424-5841-2983 9926 5081-578
2049.98-2733 4981-340 5073 36 132
2055.76-2832 4368 1504 8551 4052 6819
2061.55-3007 4522 4577 16293 12166 17336
2067.33 7686 11044 20508 39682 33760 37626
2073.12 38324 47767 50315 46090 31728 45259
2078.91 50704 55790 34533 49916 57786 64914
2084.69 64357 69724 76784 90356 96220 106690
2090.48 125061 157912 174700 186992 208240 259237
2096.26 298316 336743 376614 459758 535541 601792
2102.05 652599 738523 819347 887605 909220 937946
2107.83 977404 1015369 1035384 1067844 1126017 1139447
2113.62 1087846 1031193 1018471 1041014 1072893 1108673
2119.40 1190280 1282642 1355411 1426434 1523583 1662377
2125.19 1774489 1837935 1882261 1976614 2089105 2218018
2130.97 2267299 2257472 2268460 2335108 2533538 2890275
2136.76 3067603 2668357 2011786 1692049 1627528 1656809
2142.55 1685395 1664746 1518845 1284236 1029277 841111
2148.33 724048 676742 643883 632379 607763 586189
2154.12 567881 565398 528151 456854 389124 356391
2159.90 297083 242388 223405 213441 158417 111784
2165.69 95883 82791 35007 19182 27484 10688
2171.47-25710 778 36461 37859 18725 48217
2177.26 62125 37579 14551 36802 23842 10291
2183.04 18780 36823 3997-12339-8845-24123
2188.83-58252-57741-59378-83069-111076-97511
2194.61-97530-102485-95339-94315-107696-96535
2200.40-97455-98511-96471-85527-89446-87844
2206.19-83072-68337-77117-71230-77912-77725
2211.97-75486-64487-62160-56105-51716-57925
2217.76-68039-53134-45157-36379-44429-49986
2223.54-56288-49149-55094-41386-40304-45439
2229.33-47138-31642-29901-29261-33565-28179
2235.11-36055-32796-25075-23382-36601-21427
2240.90-17450-17367-20135-16497-16269-18932
2246.68-22914-10279-3946-1272-3229 3449
2252.47-3053 4677 5394-549-11838-8000
2258.25-11898-3021 628 2274-2684 4010
2264.04 7181 7256 1439-6583-16006-11571
2269.83 3161-3925-23457-13790-12423-7941
2275.61-5451-4889-20327-18714-17972-14400
2281.40-17464-18062-19216-13148-6986-4379
2287.18-19275-16111-17820-15986-12018-2949
2292.97-988 1885-8923-7493-2873-1350
2298.75-3151 1252 317 5802-8392-4452
2304.54-2743 15592 15276 12959 8335 17342
2310.32 40570 42682 55371 48118 75731 78888
2316.11 103775 91032 112768 113069 143198 146990
2321.89 170449 164817 193532 203927 232472 231603
2327.68 245053 253664 283942 287494 296043 299478
2333.47 315656 318281 325645 319524 303494 298435
2339.25 299285 300518 277308 243019 211061 183071
2345.04 161777 130400 92304 58308 71215 115835
2350.82 160329 208471 251818 288310 319519 355451
2356.61 381024 402864 417572 431878 430579 426946
2362.39 425530 419128 399836 368172 338088 312278
2368.18 281794 252320 222185 186649 155521 129705
2373.96 103827 85575 68705 53711 32865 25677
2379.75 21963 9982-912-457-1601 5137
2385.53 2911 2544 3526 2429-159 1108
2391.32 4339 3151 7702 13469 12488 12172
2397.11 12691 18033 17365 19248 19669 26733
2402.89 22704 20876 27750 28922 23851 37197
2408.68 42734 43020 49661 57287 61581 63494
2414.46 75046 83228 103137 119188 126621 138131
2420.25 161198 197120 229314 254738 291074 323975
2426.03 361642 405631 455094 517732 592311 676102
2431.82 756787 839192 935047 1023482 1129725 1245888
2437.60 1368724 1507903 1664315 1840544 2037961 2260869
2443.39 2525259 2692438 2812604 2987606 3160596 3353518
2449.17 3981122 4738753 5173513 4387704 2900344 2417428
2454.96 2522620 2716318 2835804 2868516 2755913 2541558
2460.75 2246224 1926613 1626053 1411400 1272603 1194550
2466.53 1118496 1053750 956666 842101 714244 615739
2472.32 561154 532885 507305 485946 445147 394676
2478.10 337344 298533 254101 224832 211533 204123
2483.89 190651 190227 192586 201093 195287 195951
2489.67 192450 199287 202777 196268 181374 200221
2495.46 219054 226225 217255 222723 227121 234943
2501.24 234468 246660 266750 287380 286539 304324
2507.03 324367 329526 324292 328718 336053 335022
2512.81 322820 310542 301789 309047 311293 312876
2518.60 313348 315232 301597 288640 275910 262956
2524.39 246091 235923 234623 235822 230325 221722
2530.17 220014 220680 224854 238218 240112 249044
2535.96 257246 259509 259082 267431 247542 239236
2541.74 243991 240064 231605 227407 223995 224253
2547.53 216444 203727 188118 179828 174337 168312
2553.31 148891 140508 137341 132271 111423 106198
2559.10 101714 89771 77583 66134 49057 31734
2564.88 26496 20510 9790 8224 11698 11364
2570.67-3512 1974 5089-1543-6836-1299
2576.45-12465-19325-12885-4517-4974-7793
2582.24-9508-15350-24092-24645-19846-11731
2588.03-16158-24748-23635-18928-18381-20184
2593.81-19240-11314-5900-12970-22349-10239
2599.60 4018 7108-1372 390 3201 12723
2605.38 23400 25017 14581 7726 6824 10135
2611.17 8726 5253 2685 4839 6962-2118
2616.95-3823-8068-20269-19512-14333-12676
2622.74-14192-6905-5952-3147-8171-10777
2628.52-14538-18166-13563-6682-475-7638
2634.31-15720-11124-14347-4414 562 2854
2640.09 3443 11229 9967 8020 22335 18576
2645.88 10724 13247 23047 35468 38973 47114
2651.67 58419 63833 55521 66377 80124 84795
2657.45 84400 96438 112384 117130 107742 110133
2663.24 115326 118282 130594 148883 157047 169996
2669.02 174670 148529 130846 125272 110477 101465
2674.81 96516 97311 90121 78656 69622 64900
2680.59 57751 45475 31437 27934 22146 13984
2686.38 10148 7711 2796-569-3870-7640
2692.16 125-6788-21261-25900-26781-24211
2697.95-23832-29731-34444-26124-19361-15614
2703.73-11093-780 11828 14029 4029 4208
2709.52 10612 8944 2680-17263-29178-38996
2715.31-30617-6279-6975 1023-10200-23905
2721.09-29146-21754-15711-3964-838-14011
2726.88-26025-27850-27804-28425-29900-29057
2732.66-23069-13033-14881-19833-26387-17068
2738.45-21003-12820-5183-12685-32662-42053
2744.23-38749-44560-30050 30543 62505 11060
2750.02-10838-25388-29900-16504-11001-728
2755.80-2576 263 7729 23062 34974 32979
2761.59 24531 22670 11188 4448-39117-121420
2767.37-161061-78967-3034 9676 40359 51840
2773.16 44580 39285 32465 29695 28490 20663
2778.95 13368 961 2346 12264 18347 12194
2784.73 12187 6797-2920 9608 15345 21691
2790.52 43396 62440 82786 93063 95611 114904
2796.30 143896 158778 171313 191037 209140 220689
2802.09 225644 233901 251407 273134 295483 299525
2807.87 327115 324073 293425 298345 312123 335999
2813.66 372417 405928 432420 463632 486513 522696
2819.44 560582 593706 609589 612918 599551 601350
2825.23 619060 661505 714177 781317 772486 658209
2831.01 572349 580665 642531 707374 736774 732060
2836.80 689014 606069 534353 521563 544256 579337
2842.59 596035 587804 596541 608053 593095 588566
2848.37 634128 657727 653316 671915 694534 702856
2854.16 726000 759995 813276 882970 924755 971853
2859.94 1009698 1046254 1097865 1153248 1208677 1285250
2865.73 1361107 1413644 1466939 1511140 1510815 1479778
2871.51 1463824 1454366 1424155 1373577 1322700 1298637
2877.30 1279278 1277441 1272518 1259319 1242221 1220621
2883.08 1225396 1249281 1224269 1182179 1180090 1189688
2888.87 1171981 1195623 1224053 1221678 1237054 1262262
2894.65 1234795 1195984 1147552 1092165 1015805 963933
2900.44 937094 927570 894284 850779 807594 751716
2906.23 689433 649962 607378 563747 518897 482141
2912.01 428259 399460 363781 322218 272352 245566
2917.80 213809 181909 155430 158380 136233 119746
2923.58 121152 132125 131466 173723 235279 327411
2929.37 439138 603618 840147 1174739 1573162 2095631
2935.15 2691387 3372053 4080599 4805624 5439071 5921368
2940.94 6166360 6225652 6062970 5613680 4778488 3992644
2946.72 3767283 6578580 20395149 33397315 17987427 4635813
2952.51 3443379 4138205 5141796 5976872 6676818 6984624
2958.29 7025123 6701165 6152867 5434710 4682011 3833273
2964.08 3068480 2380800 1849103 1421404 1111487 882316
2969.87 745288 615419 525681 446429 426565 407774
2975.65 383488 350572 370788 363864 356614 363140
2981.44 381226 380483 411971 418111 442585 479055
2987.22 533205 599606 688474 782370 929542 1090819
2993.01 1327919 1670109 2167241 2872853 3883430 5299492
2998.79 7233469 9734776 12769900 16096638 19335659 22148928
3004.58 24179801 24969675 24365657 22900518 21984846 23921911
3010.36 31035346 41510475 46069180 39212600 28762807 22758573
3016.15 21954591 23704559 25623474 26362096 25521758 23203135
3021.93 19924793 16228964 12628482 9430113 6807077 4755840
3027.72 3247544 2163003 1438137 945939 640328 427586
3033.51 290572 195609 154091 127956 103031 75864
3039.29 67727 56053 60533 64522 81542 76531
3045.08 66145 58161 78636 87787 76967 47840
3050.86 40195 29268 31483 32815 44408 48000
3056.65 38350 15113 36080 31422 18895-1826
3062.43 21452 28062 29422 17162 9707 6443
3068.22 13400 6440 7612-15057-17760-4134
3074.00 27633 31894 13809-3203 3692-5774
3079.79-22052-31512-19744-2092 6587-14183
3085.57-17828-18356-7839-12851-6759 18710
3091.36 26971 9844 18068 17810 6801-6125
3097.15 4402-10588-2742-10150-8308-17394
3102.93-5409 320-10539-31979-26638-18514
3108.72-10692-22786-44234-21564-1010-16328
3114.50-13518-21639-7820-5111-21347-27478
3120.29-22288-32716-15303 1601-9865-22788
3126.07-5874-14415-24220-24576-13412-19681
3131.86-23262-16495 3970-9414-10001-11495
3137.64-5177-18983-12626-3814 16903 5712
3143.43-9318-19790-12135 7239 12170-2004
3149.21 2311 14486 33749 35796 39272 32674
3155.00 30850 31120 34679 28710 33348 47209
3160.79 66996 67711 66985 69220 74919 73721
3166.57 89010 107692 125859 110371 108568 125977
3172.36 145818 141548 144830 154628 179984 197403
3178.14 215240 214051 224007 203522 197828 198084
3183.93 199808 222086 254970 278381 299772 266825
3189.71 232617 203667 198042 195214 202889 193329
3195.50 186129 144154 120856 116186 128270 116736
3201.28 107313 83272 73185 61130 72269 75936
3207.07 93382 97734 84037 62831 71333 75062
3212.85 77327 66031 72224 64714 72540 68255
3218.64 55576 33142 31765 35291 26585 13309
3224.43 18807 7764 4300 19493 27987 27722
3230.21 38839 38025 49403 60641 103050 113587
3236.00 127603 150182 191337 231680 279327 306092
3241.78 326697 353993 370456 377849 416476 435024
3247.57 471483 488612 475834 440635 422644 421466
3253.35 467186 503031 490351 420557 354990 301976
3259.14 285882 264410 237630 208094 173092 136395
3264.92 123488 99111 79099 53436 51852 54049
3270.71 57238 33857 37113 47161 54029 54937
3276.49 71730 78627 97975 106240 140802 169931
3282.28 206864 233895 244880 232236 269149 328503
3288.07 378988 427376 458886 469721 471806 488979
3293.85 530100 506659 472153 426905 407571 430196
3299.64 474494 473027 415096 343451 268762 222188
3305.42 218751 225780 213389 187838 186868 172770
3311.21 142063 88682 67612 55762 35948 14058
3316.99 6525-7319-26956-48409-32940-15494
3322.78-3721-14472-17898-13548-1603-18795
3328.56-7033 6534 16546 24644 46791 54507
3334.35 69702 97660 166093 214971 250562 300759
3340.13 371657 435402 501682 582350 670032 701020
3345.92 742478 787474 834250 877693 938245 1055694
3351.71 1252871 1343918 1367860 1546709 1749127 1604871
3357.49 1363148 1186918 1081812 997263 926230 880507
3363.28 844001 780807 728736 669818 614863 545714
3369.06 479655 392712 326860 277466 220814 159317
3374.85 130665 108613 81319 48806 48727 32366
3380.63 0-7254-20280-33964-18866-28205
3386.42-29415-33183-36703-39483-31507-43409
3392.20-43329-36276-29907-37426-49862-57489
3397.99-41426-37344-34823-47411-41798-51191
3403.77-49760-50501-45885-50724-34062-40557
3409.56-37017-39837-28760-43904-36113-29938
3415.35-26290-46502-54745-53785-50982-60342
3421.13-57350-36323-15492-30940-35936-51030
3426.92-55806-52516-47455-42508-46673-41638
3432.70-29300-15958-1093-4995-21416-35446
3438.49-49613-62064-44948-49633-47784-45658
3444.27-24125-14550-8973-28525-49473-68875
3450.06-50433-30636-13445-29594-36218-20962
3455.84-12115-21348-14491-29783-11025 1862
3461.63 16789 18951 16298 3239 9113 8108
3467.41 31744 33501 18985 7642 29373 40995
3473.20 65382 71411 74212 73720 40774 12971
3478.99 22068 24510 32242 27532 25361 21750
3484.77 31456 34855 40118 35785 47275 35530
3490.56 22136 26470 39229 19361 29446 34257
3496.34 25493 33852 67907 53746 28771 3597
3502.13 7032 1839 7458 24141 27437 19127
3507.91 14863 12901 19178 5733 21461 19144
3513.70 18546 22455 43387 52334 65516 59117
3519.48 42480 36056 65343 104734 137493 150791
3525.27 155969 143134 176503 199550 212469 228912
3531.05 251681 244059 241146 245546 263275 286412
3536.84 314295 300344 298089 287778 275479 248782
3542.63 234377 243643 237417 204397 188055 180338
3548.41 152539 131443 116457 86097 77403 47178
3554.20 47229 43336 32146 27595 38326 21315
3559.98 28243 19486 16049-5515-4319 1736
3565.77-1799-18643 10179 10590 15204 26444
3571.55 30267-1077-10118-5695 15473-5208
3577.34-16746-23229-26041-30793-15453-16000
3583.12-10035-11472-13657-41281-45683-55519
3588.91-30960-26344-8384-5753 900-17691
3594.69-23402-11732-17590-50163-42033-30142
3600.48-18703-17134-14953-35908-33637-36593
3606.27-26568-18686 1004-6618-24596-66775
3612.05-64109-50257-38278-41798-43953-56617
3617.84-44298-50657-27544-13297-23382-42546
3623.62-19657-30668-37481-37870-54440-87726
3629.41-56062-38734-30735-31294-21880-18222
3635.19-18009-24768-24802-33644-14922-8949
3640.98-28981-36280-22861-24485-20409-21079
3646.76-30604-74897-79410-73871-46512-23172
3652.55-24321-40175-49595-65653-51235-37722
3658.33-27030-24639-9891-19236-17495-22571
3664.12-15163-12083 5638-10728-31648-46770
3669.91-54260-19957 2004-8094-15478-34758
3675.69-13700 11581 19581 7879 7631 1986
3681.48-930-20530-23695-35094-30982-59669
3687.26-97362-77311-27019-40396-49568-44291
3693.05-21482-16991-13049-17691-11441-20129
3698.83-28335-32182-34128-34222-26313-48480
3704.62-58161-44278-29686-48950-51372-55805
3710.40-57274-85700-58055-33645-23184-25595
3716.19-29591-32230-17251-11398-8200-12534
3721.97-8869-2950 18702-10059-10791 15802
3727.76 34225 28686 37637 15918 16310 27563
3733.55 16056-7044-23195-5240 19630 10600
3739.33 13277 17617 31535-11303-85419-90874
3745.12-24285-7861-20195-78390-63426-43675
3750.90-85759-89514-37827-46247-61692-60569
3756.69-38090-44455-52397-49654-31675-48158
3762.47-41175-53683-59053-66325-47193-49143
3768.26-61711-59674-33585-41693-36852-39985
3774.04-37203-47937-60337-71432-70338-72032
3779.83-41553-39478-38784-52237-40776-50565
3785.61-38104-32184-29309-37521-28036-27284
3791.40-23986-43731-43000-48620-38298-45837
3797.19-26055-28145-39437-92806-74861-32758
3802.97-15653-21831-48297-97331-65969-37907
3808.76-19247-3887 10542-7774-5804-24698
3814.54-54672-55244 6233-9924-16720-40417
3820.33-44281-22616 11282-8346-16215-10520
3826.11 22523 19118 37377 42831 36483 6092
3831.90 12094 8840-3983-12767-16231-62086
3837.68-32440-13103-10073-19151-17383-46873
3843.47-47953-46790-33843-50839-54040-46674
3849.25-38477-79175-88346-91874-124513-92212
3855.04-38268-48213-41572-48739-43906-45129
3860.83-46764-51307-55638-77279-67582-59193
3866.61-59460-70666-75599-71480-41068-41460
3872.40-39806-46318-31813-27204-24676-44255
3878.18-45578-64818-50125-42555-21666-14494
3883.97-38809-64030-37711-29641-13615-35886
3889.75-36050-30820-23675-47139-28134-21278
3895.54-22953-26108-32332-49862-27906-27591
3901.32 577-11373-35563-32753-25790-20614
3907.11 10111 12693 28730 15954 23091 28000
3912.89 26102 17951 36148 46344 53819 49216
3918.68 47813 53333 58906 56749 72001 51346
3924.47 65268 64835 84618 93421 94833 82292
3930.25 105376 97221 98706 99704 115126 115193
3936.04 119901 107715 119913 122570 138937 137493
3941.82 157728 165948 189713 185965 201266 210946
3947.61 214052 209436 229777 231011 234452 220137
3953.39 240433 253938 267275 253654 237113 204876
3959.18 209602 222605 235398 214272 225453 220515
3964.96 205260 196592 219406 188155 184874 187715
3970.75 213499 222090 217259 220557
##END=
