##TITLE=1,1,1-Trichloroethane
##JCAMP-DX=4.24
##DATA TYPE=INFRARED SPECTRUM
##CLASS=IUPAC A
##ORIGIN=NIST, Analytical Chemistry Division, 301-975-3108
##OWNER=COPYRIGHT (C) 2001 by the U.S. Secretary of Commerce
##DATE=01/06/01
##$SPECTRA VERSION=1.10
##$UNCERTAINTY IN Y=2.1 % relative (B=1.08E-04,C=2.81E-10,D=2.71E-15)
##CAS NAME=1,1,1-Trichloroethane
##CAS REGISTRY NO=71-55-6
##MOLFORM=C H3 C Cl3
##MP=-30.41 C
##BP=74.1 C
##$NIST SOURCE=QUANT-IR
##SPECTROMETER/DATA SYSTEM=IFS66V (Bruker)
##INSTRUMENT PARAMETERS=KBr Beam Splitter; MCT Detector; Multipass cell
##STATE=gas
##SAMPLE DESCRIPTION=1,1,1-Trichloroethane Primary Gas Standard
##PRESSURE=101.3 Pa
##TEMPERATURE=23 C
##SAMPLING PROCEDURE=1 L/min Flow
##RESOLUTION=0.9640
##DATA PROCESSING=Triangular Apodization
##XUNITS=cm-1
##YUNITS=(micromol/mol)-1m-1 (base 10)
##XFACTOR=1.0
##YFACTOR=18.189E-13
##DELTAX=0.4820
##FIRSTX=575.17
##LASTX=3974.606
##FIRSTY=3.70E-06
##MAXX=3974.12
##MINX=575.17
##MAXY=.0018855
##MINY=-2.86E-07
##NPOINTS=7052
##XYDATA=(X++(Y..Y))
575.17 2037606 1941332 1834626 1753440 1744898 1776102
577.58 1698277 1717773 1565935 1240985 1095705 1269839
580.47 1153253 919058 1074106 1075521 923075 792026
583.37 735730 758822 794735 836469 923427 850649
586.26 761354 770308 799441 750984 771209 927051
589.15 907527 739654 646888 692188 633772 521963
592.04 577899 511417 344192 366552 403259 275750
594.94 295348 319558 201781 149458 164192 210562
597.83 175202 112483 94005 108900 85904 47858
600.72 38822 24186 37382 139242 130992-18738
603.62 35411 95577 71389 66869 46447 69581
606.51 125197 109597 43515 48232 52064 31836
609.40-31183-34048 76349 152188 133667 113053
612.29 117028 133120 104138 59514 81178 60760
615.19 39141 77663 118500 80775 54962 90956
618.08 154367 157853 155947 131221 50580 51299
620.97 100837 134551 131752 119486 114565 116380
623.86 151903 169421 152260 212927 178208 109535
626.76 132692 158610 175492 196458 172247 156905
629.65 125088 82998 63145 38760 47255 62946
632.54 86357 82069 70783 69903 72961 81133
635.44 104796 133596 117688 152826 151378 61141
638.33 95855 129420 71028 75356 93351 103572
641.22 121398 79302 40290 102074 160423 140970
644.11 139825 133179 136461 130033 121855 145505
647.01 123582 102702 135647 206273 158346 140768
649.90 218395 220028 254817 246538 226113 267632
652.79 320120 324173 313112 322612 316475 346474
655.68 357396 406347 428637 434363 531313 547925
658.58 568829 607425 580108 647047 726350 767439
661.47 850854 909245 967339 1031569 1061209 1183882
664.36 1344235 1400423 1472804 1564290 1732106 2128815
667.26 2389105 2303576 2327706 2494565 2666039 2867333
670.15 2981221 3123279 3362713 3602457 3892145 4220014
673.04 4469799 4719543 4974002 5262889 5658635 6068959
675.93 6480806 6888316 7290957 7728958 8190712 8727041
678.83 9263082 9740578 10265463 10749967 11215753 11769091
681.72 12349329 13001911 13782562 14644250 15510232 16469389
684.61 17515267 18375714 18712479 18761111 19086310 19651437
687.50 20475130 21367283 21826674 21752536 21205467 20644376
690.40 20488689 20385028 20161203 20052976 20044323 20090175
693.29 20137690 20251586 20532593 20878496 21302070 21848010
696.18 22524548 23341952 24213209 25254363 26461577 27803577
699.08 29296620 30950322 32816259 34891029 37127790 39552979
701.97 42258205 45170090 48327193 51819055 55676641 59885966
704.86 64591120 69966195 75952459 82827138 90534667 99214790
707.75 109152912 120041874 131863724 144637682 158506180 173599420
710.65 189980669 208041673 228090610 250270422 274346301 300595454
713.54 329287180 360487606 393985512 429239015 467053227 507089723
716.43 549367687 593536134 637958531 683494802 729695466 776378416
719.32 823239263 866534299 904218347 936845185 965906926 990054028
722.22 1007262243 1020416453 1026878201 1031613869 1035258425 1032416560
725.11 1034123359 1036565037 1031756379 1028512898 1030124971 1035343282
728.00 1024076844 981532047 917275325 845046772 763595949 670381652
730.90 582786164 506330723 440056371 382378416 332089124 289509391
733.79 252948971 221284319 194076503 170465719 149737172 131645700
736.68 115695313 101641048 89498279 79113523 70240410 62670024
739.57 56223388 50798345 46215234 42317508 38994285 36094353
742.47 33595243 31328640 29130811 27176713 25387376 23720498
745.36 22275273 21187403 20616026 20492198 20516271 20340363
748.25 19837901 19086818 18280991 17530012 16786359 16030865
751.14 15246105 14499488 13742620 12985716 12279398 11718440
754.04 11315197 10937033 10626600 10252505 9639742 9005648
756.93 8615657 8437763 8475918 8707095 8920374 8499918
759.82 7456862 6690661 6520464 6797487 7473452 8425823
762.72 9152104 8644324 6865418 5497176 5143629 5315893
765.61 5919537 6839268 7562206 7415467 6083867 4716380
768.50 4239522 4128645 4107612 4158695 4221795 4197930
771.39 4170077 4244843 4337460 4271263 4111608 4011874
774.29 3960926 3872726 3758155 3684523 3586641 3504886
777.18 3411268 3313397 3206040 3093060 3024929 2944682
780.07 2884167 2817938 2699641 2610135 2585516 2557069
782.96 2497080 2453882 2453755 2406143 2313458 2307834
785.86 2361134 2399376 2361956 2345847 2418402 2529808
788.75 2714232 2839507 2850172 2895760 2952149 3057916
791.64 3205959 3359960 3558948 3763734 3882674 3996441
794.54 4221538 4385675 4547131 4699434 4828888 4948598
797.43 4980542 4989645 4911692 4839570 4758426 4617421
800.32 4476084 4310093 4154686 4055265 4058038 4169286
803.21 4309371 4524096 4776556 4968365 5073596 5049010
806.11 4997763 4934119 4850162 4743850 4583831 4400169
809.00 4262809 4138217 4015308 3882646 3714134 3555514
811.89 3405767 3256131 3152004 3072855 2984517 2950960
814.78 2984119 3052126 3120787 3200851 3265581 3275502
817.68 3254520 3280994 3259598 3129234 3038286 2945680
820.57 2839336 2769443 2705124 2639422 2567631 2567020
823.46 2514756 2390264 2347129 2328817 2307624 2293732
826.36 2246826 2190725 2188184 2125523 2103426 2147093
829.25 2083125 2034990 2035673 2009456 1985956 1943690
832.14 1905676 1934275 1923163 1917698 1856234 1728271
835.03 1622701 1569464 1553329 1477481 1389246 1318298
837.93 1279485 1276401 1277360 1291931 1363709 1425078
840.82 1353372 1275791 1285868 1268876 1267483 1279528
843.71 1267494 1243643 1209302 1218985 1241325 1203938
846.60 1179955 1169269 1172544 1194631 1203422 1229682
849.50 1242542 1247553 1308629 1362080 1384726 1472554
852.39 1543362 1578220 1670557 1791527 1861189 1919416
855.28 1992243 2048839 2140279 2289000 2466672 2576217
858.18 2631144 2683467 2740627 2807950 2916381 3139570
861.07 3312668 3306559 3352975 3465404 3458140 3333168
863.96 3289188 3310011 3349367 3474255 3668524 3904868
866.85 3996173 3751781 3435662 3142492 2860634 2810242
869.75 3104148 3755174 4510635 4088070 2764900 2204868
872.64 2087567 2040030 2068839 2044823 2004862 1972098
875.53 1945564 1883024 1757194 1613587 1476005 1340240
878.42 1199430 1062262 943696 838602 769162 700522
881.32 623216 586025 550344 495693 456997 395065
884.21 349211 358910 365370 335429 303682 295914
887.10 274250 259008 247273 222282 223755 200798
890.00 198602 193096 180019 179411 141702 130437
892.89 132487 123678 135312 131892 117007 122209
895.78 123057 94804 75136 85481 70965 55013
898.67 57195 63505 68172 89968 98739 70513
901.57 50819 40429 43041 40493 43666 60487
904.46 49670 47054 48285 46582 47829 46392
907.35 39300 48140 67202 79457 65786 76164
910.24 79884 55841 68251 74306 60395 70820
913.14 99991 94239 87726 105617 105959 77578
916.03 81457 103015 106210 88634 79363 110851
918.92 149153 129730 111412 127947 138329 147907
921.82 147280 173734 184777 148525 154626 175239
924.71 156302 155034 179863 184162 157742 165927
927.60 167739 145863 176911 197300 203746 210996
930.49 194212 195917 209490 208089 204284 205355
933.39 238913 254115 243227 260276 274723 290668
936.28 302774 307186 302960 311974 332092 332793
939.17 352795 381618 397054 424486 449949 476559
942.06 516835 549978 583883 618132 655503 699933
944.96 729282 774448 842557 904763 946858 982028
947.85 1013533 1055038 1111278 1159590 1193745 1246005
950.74 1303576 1350041 1400092 1451257 1501057 1534446
953.64 1559393 1594875 1654148 1699504 1729179 1770999
956.53 1820497 1875478 1923684 1971520 2038372 2105459
959.42 2164748 2207602 2231481 2265949 2285185 2261968
962.31 2268331 2238701 2207334 2198561 2090519 1963108
965.21 1891181 1792105 1749609 1728994 1563825 1474062
968.10 1492487 1501002 1523275 1532400 1542004 1545964
970.99 1518598 1485275 1456320 1424673 1370022 1316942
973.88 1270658 1217272 1143940 1068752 1028276 982626
976.78 946406 922956 892974 862321 835274 829872
979.67 832024 838056 852675 895614 945509 982324
982.56 1032262 1084930 1163043 1253094 1346237 1433543
985.46 1529163 1637286 1741962 1863238 1991746 2130331
988.35 2268420 2417852 2587811 2749076 2914694 3098447
991.24 3293328 3491511 3706970 3928102 4161611 4396043
994.13 4633117 4849070 5058561 5279323 5438782 5550300
997.03 5586339 5584794 5581201 5552699 5545480 5641017
999.92 5817854 6017274 6336925 6646900 6901398 7215000
1002.81 7508869 7759767 7953980 8110524 8239503 8377128
1005.70 8572440 8825587 9134674 9447533 9753913 10024857
1008.60 10224295 10342411 10340465 10214255 9984949 9699561
1011.49 9423240 9165601 9083625 9220120 9543601 9984142
1014.38 10366438 10642417 10733789 10564256 10102317 9340625
1017.28 8354172 7350845 6446130 5649972 4978940 4439694
1020.17 3993223 3590419 3236515 2941887 2670979 2429080
1023.06 2219408 2051530 1925944 1809735 1705892 1637428
1025.95 1603263 1562406 1517935 1489747 1484344 1478678
1028.85 1486909 1497679 1486626 1490583 1514059 1545823
1031.74 1589661 1608603 1615964 1653421 1680614 1694466
1034.63 1728556 1795609 1871244 1922859 1966802 2022364
1037.52 2090435 2169985 2278422 2421237 2524790 2562023
1040.42 2589788 2594449 2634542 2758656 2922292 3125111
1043.31 3350030 3585220 3806707 4018699 4140487 4242113
1046.20 4402521 4555012 4734259 5004313 5358887 5721281
1049.10 6149857 6637514 7160068 7709607 8313350 9000484
1051.99 9735701 10539384 11431237 12446182 13540823 14661427
1054.88 15887421 17268453 18883261 20521489 22090735 23789373
1057.77 25678025 27891461 30402373 32768736 34834593 37063427
1060.67 39626522 42421643 45387636 48447346 51554751 54594880
1063.56 57515729 60592819 63862660 67086251 70107152 72886441
1066.45 75523991 78029750 80580470 84052035 88090194 90826725
1069.34 92837589 96943270 104271122 113967548 122878351 126084846
1072.24 125418306 126704130 132679431 141788034 147664340 139304243
1075.13 123784257 119007963 124372479 133584418 144600985 157014376
1078.02 170438848 184427363 198861248 213815731 229318954 245146360
1080.92 260946309 276824191 293325029 310741333 329296566 349078963
1083.81 369492563 390344907 411452702 432333310 451397359 467011389
1086.70 477331695 481025329 479025220 472923374 465111421 456973901
1089.59 447528359 429536445 394250020 349123734 315981568 307859824
1092.49 316151891 329887339 345066450 357879857 365607857 367119633
1095.38 361370006 347976247 328357674 304169445 277464380 250067413
1098.27 223296076 198223735 175430868 154953329 136863922 121239784
1101.16 107692370 95953472 86072444 77596180 70152432 63687553
1104.06 58082678 53223722 49150804 45795129 42925263 40276084
1106.95 37799942 35603354 33752893 32141833 30665991 29343575
1109.84 28096218 26935339 25919694 24955316 23919533 22970078
1112.74 22152693 21395725 20625427 19799861 18986993 18161892
1115.63 17358968 16536595 15745113 14977906 14178999 13344673
1118.52 12485972 11632123 10775485 9893807 9042776 8261654
1121.41 7522532 6840053 6209968 5620981 5079624 4588564
1124.31 4136738 3726966 3359362 3024242 2724123 2460498
1127.20 2228508 2025216 1841797 1674592 1528084 1406002
1130.09 1296129 1188989 1090266 1005631 930114 850428
1132.98 779280 723785 673125 631645 616829 581162
1135.88 555422 532170 519791 522887 500153 469033
1138.77 460460 450761 437032 432441 411705 391825
1141.66 388565 393054 392125 392061 374022 368333
1144.56 382598 374378 371194 372219 352205 333626
1147.45 323514 313226 297151 333057 353174 331940
1150.34 330288 312756 308551 312711 316673 302840
1153.23 287614 290950 263386 251970 269432 272391
1156.13 261515 255154 257998 247798 221643 199030
1159.02 191984 195369 214595 224907 182678 154301
1161.91 159007 159923 158851 146483 142037 139967
1164.80 139596 140215 146828 134738 116085 119636
1167.70 125078 109709 105740 116693 104930 93018
1170.59 111819 133196 122819 116320 118129 105947
1173.48 90841 94249 106568 101521 106941 105884
1176.38 107524 119284 112704 108786 102848 107330
1179.27 127193 128734 116420 134767 154857 142382
1182.16 139013 139855 130148 135760 152850 177186
1185.05 188511 188502 206796 197497 193668 215472
1187.95 221179 247684 271515 257046 254621 263447
1190.84 258574 251569 254341 252290 244216 273592
1193.73 301715 294064 291106 303688 297183 281370
1196.62 291361 298001 308750 294246 283602 313120
1199.52 320253 311421 320664 319204 317013 328118
1202.41 332723 330599 338075 343076 336277 350402
1205.30 353159 345546 348694 362419 362546 358485
1208.20 356796 338221 344184 369186 383051 388595
1211.09 411305 431260 449267 459800 456283 467626
1213.98 493760 521146 537137 546882 541597 535602
1216.87 535529 547241 555431 550459 565105 572546
1219.77 576406 582336 590708 592341 604653 630584
1222.66 648871 671499 699568 742885 790570 839633
1225.55 885427 945484 1016440 1085078 1156230 1228966
1228.44 1322476 1411623 1497276 1585712 1674109 1779501
1231.34 1887940 1990670 2097886 2195195 2297896 2420359
1234.23 2551946 2696731 2833556 2957300 3082153 3228269
1237.12 3389724 3541446 3682883 3811368 3944554 4072421
1240.02 4213957 4378541 4534073 4635571 4744389 4879205
1242.91 4980425 5075581 5157759 5224981 5292908 5345660
1245.80 5390107 5422186 5455226 5505684 5533546 5535292
1248.69 5498229 5391662 5310342 5303171 5284113 5273481
1251.59 5137631 4845295 4626501 4451049 4235512 4100990
1254.48 4012409 3735857 3384805 3069141 2736553 2439154
1257.37 2195829 1993194 1816899 1649951 1499224 1374898
1260.26 1286515 1193526 1113533 1046778 984077 951397
1263.16 940504 913671 885256 851385 820930 809202
1266.05 796123 783320 768479 748059 719677 690582
1268.94 649274 635418 630128 605362 603188 590814
1271.84 577001 571704 544534 536452 539530 513614
1274.73 493110 461901 426074 400702 372380 344447
1277.62 323403 303931 286216 290863 268605 258516
1280.51 285151 278848 263194 267907 279297 298158
1283.41 315374 324256 326510 329804 341226 334328
1286.30 330936 322334 313547 314455 312299 331629
1289.19 365179 377441 391239 409302 429641 416889
1292.08 394756 379703 373738 377010 377250 369896
1294.98 384891 407166 393463 369760 370293 388266
1297.87 387695 395978 406923 410554 428290 428892
1300.76 414628 418113 415696 400649 396638 414016
1303.66 434859 418330 415842 418793 418526 439260
1306.55 462101 477204 463505 461723 482187 491330
1309.44 499760 485393 476755 469622 465139 462464
1312.33 466889 450722 396111 377704 379636 356768
1315.23 331016 306468 315644 333589 351082 367507
1318.12 375066 390773 402799 401799 397746 406527
1321.01 426176 421793 417701 398256 375990 363432
1323.90 366581 364232 327278 298968 296219 291592
1326.80 278197 262359 271206 260977 235720 223390
1329.69 229812 228568 224900 209742 206421 223364
1332.58 224405 222622 215692 216980 237390 248043
1335.48 259489 252793 250680 262456 256442 235111
1338.37 231475 227218 222622 204689 209558 205265
1341.26 187800 204886 208615 187064 190927 192435
1344.15 203122 208678 187329 164603 165674 170478
1347.05 198556 184598 167612 152571 141623 114841
1349.94 129939 128138 97867 82816 111008 116621
1352.83 130307 202677 228553 251803 327964 349867
1355.72 417435 471870 443288 425021 450621 522214
1358.62 563554 606161 703271 784791 895114 1023811
1361.51 1211635 1370837 1590739 1885315 2330201 2752239
1364.40 3002530 3265762 3675578 4148023 4749578 5374368
1367.29 6056183 6807168 7646041 8525170 9507213 10510382
1370.19 11567618 12652563 13845768 15003478 16201397 17424670
1373.08 18779716 20527057 21728733 21580862 21942031 22345346
1375.97 22357625 22243661 22124932 21682852 21097312 20183262
1378.87 19390583 18475501 17725068 16076292 15056936 14387653
1381.76 15833103 19907889 34349834 68749890 149790225 154808700
1384.65 70225847 51690111 43908286 24709136 17741909 14679404
1387.54 15529172 16460592 18527573 20418819 22690006 24561106
1390.44 26449538 27813075 29028713 29771110 30202426 30059023
1393.33 29622440 28722334 27584752 26083999 24412238 22540724
1396.22 20620969 18620181 16681422 14770413 12963326 11229423
1399.11 9743162 8381521 7203385 6152548 5295859 4563649
1402.01 3976190 3500763 3148322 2867854 2665096 2488822
1404.90 2404126 2361736 2378128 2407866 2478937 2550201
1407.79 2682319 2844782 3015372 3191597 3389471 3610039
1410.69 3858414 4098438 4366586 4630470 4911712 5195242
1413.58 5496654 5777425 6059883 6340018 6615237 6854400
1416.47 7079053 7276918 7441842 7565973 7648678 7700019
1419.36 7758815 7791569 7796842 7804808 7829411 7837853
1422.26 7908401 8169507 8468003 8941048 9646445 10012410
1425.15 10604096 12117937 12486415 11419855 11629642 13477169
1428.04 13683556 11242696 9838318 9259560 8389311 8018952
1430.93 7901447 7936033 8117432 8354094 8609846 8864370
1433.83 9104511 9365694 9656394 9963029 10263497 10578839
1436.72 10980461 11423422 11875612 12356932 12879998 13445619
1439.61 14052938 14681469 15275685 15851914 16420021 16982854
1442.51 17544623 18039879 18393738 18650108 18841461 18933764
1445.40 18926178 18725543 18358721 17950333 17537182 17129518
1448.29 16695999 16292175 15931908 15588237 15369765 15002464
1451.18 14375428 14290072 15108619 17457759 21872264 27244106
1454.08 31470096 33563905 33161316 31097641 28573658 25560463
1456.97 22427746 19386642 16824870 14964966 13771263 12982220
1459.86 12538830 12423788 12485587 12634590 12826854 13013518
1462.75 13174870 13303995 13340173 13251821 13113215 12944792
1465.65 12697173 12367632 11953507 11466420 10940744 10382384
1468.54 9796929 9201443 8611166 8025253 7433698 6823491
1471.43 6218947 5712324 5249099 4757576 4341975 3979733
1474.33 3621123 3268055 2929445 2638194 2390787 2148161
1477.22 1924228 1736286 1568391 1418618 1273379 1140367
1480.11 1032840 941815 856645 771286 698543 634192
1483.00 583477 539124 499799 460895 438806 409734
1485.90 370471 341384 310306 299006 292341 272443
1488.79 252168 237348 242719 221367 212976 225334
1491.68 212573 195712 182954 180708 186229 166869
1494.57 142429 135008 84054 78524 127486 129621
1497.47 121142 104307 84106 102919 122440 111837
1500.36 102890 93757 87221 88694 82581 65541
1503.25 63413 60900 38462-27877-59540-10468
1506.15-35429-71631-14335 15020 10375 27412
1509.04 40214 43571 39655 38343 48893 34466
1511.93 16006 29687 47013 50239 39274 24824
1514.82 25834 23306 29492 31748 24669 31201
1517.72 51389 47058 38056 28808 6785-6504
1520.61-51183-26910 17835-3257 13065 36373
1523.50 36899 39043 31167 4363 19097 45084
1526.39 38376 41287 47882 31742 39677 60638
1529.29 52785 52185 54495 62261 57082 51213
1532.18 43919 22461 8136 6415 26804 37475
1535.07 42348 50130 47097 41281 44411 32506
1537.97-11292-98584-72977-33354-49202-4030
1540.86 12353-36243-44296 4994 12895 21169
1543.75 28632 13725-1310 11563 26251 34265
1546.64 43958 39057 31812 34533 29199 7670
1549.54 1550 16714 23892 13553 15850 28037
1552.43 31186 18738-21696-48644-2850 20845
1555.32 14989 21542 11757-33381-51881-88302
1558.21-99698-25252-36760-104564-63355 5268
1561.11 16890 19591 11977 9463 21135 30748
1564.00 21070 20120 45227 67999 44297 7779
1566.89 1048 12151 27395 19605-12050-29417
1569.79 4079 30232 27903 22688 15512 8671
1572.68 17520 17963 17984 10883-6671-39109
1575.57-100293-50287 14403 11735 17253 29632
1578.46 39967 33879 49741 40153 20228 39632
1581.36 53771 67532 72515 58187 62436 62932
1584.25 46197 53548 61324 58053 49535 34641
1587.14 46518 60131 57807 52819 52530 49517
1590.03 46346 56709 56492 49593 52716 52111
1592.93 58618 64561 56712 55181 55202 58652
1595.82 54749 48336 44650 37664 41978 40844
1598.71 32181 40334 38452 22172 19172 17507
1601.61 29017 32314 18319 11031 24932 16945
1604.50 10635 27518 25224 8575-2591 3695
1607.39 4377-1675 85 7339 4697-7478
1610.28-12001-4096-2461-1580-9915-17981
1613.18-5665-5517-8460-17228-26585-54029
1616.07-135480-103238-38413-39843-32932-37415
1618.96-11747-1374-9548-8433-23069-38827
1621.85-32006-24746-57643-58781-27341-37361
1624.75-31334-10823-10390-4874 1075-16256
1627.64-19557-13933-22979-19058-15849-19562
1630.53-23648-16372 1508-2868 160 3346
1633.43-8715-22509-57844-107572-91783-43792
1636.32-35184-35456-31626-16881-21348-33354
1639.21-32964-18408-12130-11618-16073-13495
1642.10-4654-8017-7783-10970-15678-22121
1645.00-61418-102952-48369-19770-36539-31569
1647.89-37892-31148-3796-2792-23461-15472
1650.78-3045-40295-123673-154082-169305-105353
1653.67-44551-48846-17107 6411 21811 21461
1656.57 6666 2133 23746 28971 16990 15192
1659.46 24392 28571 24055 27452 31514 16744
1662.35 7225 20637 35700 35368 35863 42066
1665.25 39351 33756 55898 63350 58180 44172
1668.14 24871 2590-747 31024 36335 22113
1671.03 21543 33312 37405 46627 48960 46750
1673.92 39201-7834-18595 23872 36159 47402
1676.82 63839 71297 60860 47086 55086 60370
1679.71 72005 76112 69145 68116 74797 67964
1682.60 56783 52542 48416-24051-42387 62529
1685.49 104433 94244 89810 101081 115161 122906
1688.39 134437 141632 132971 129626 135992 142651
1691.28 140350 151359 164892 166598 162304 163280
1694.17 163259 133471 35953 24136 131588 158393
1697.07 141208 128745 133893 144574 94422 36989
1699.96 37747 77826 143961 172448 171272 172787
1702.85 166770 169015 165115 166401 196910 215803
1705.74 202701 194646 200719 228785 239997 209613
1708.64 202822 215751 209039 207739 215617 224868
1711.53 246708 242220 245179 259113 260847 282418
1714.42 273986 292870 344238 361623 314517 253451
1717.31 345539 375498 314109 330767 339107 330625
1720.21 333033 348223 362775 369973 377827 392841
1723.10 407875 415343 414009 413402 422148 420093
1725.99 413277 412330 416188 433958 436955 417800
1728.89 413805 439391 460886 436549 424860 435012
1731.78 434017 413716 331071 313979 299395 273442
1734.67 334293 356829 346344 348273 333228 314049
1737.56 310715 299565 291772 260651 243385 269662
1740.46 277305 291338 324941 372240 396033 382818
1743.35 368004 334605 298003 274641 255042 224706
1746.24 194890 174469 180408 180692 158546 164667
1749.13 177961 173055 157356 126139 117218 138987
1752.03 144707 144037 143947 137474 132754 124718
1754.92 121152 119866 97586 82303 98711 109721
1757.81 98051 108081 113103 101508 98648 89135
1760.71 74211 48575 65221 92261 89159 91577
1763.60 95433 101344 105264 100668 101946 105563
1766.49 112056 109516 85619 95922 117762 120197
1769.38 118146 120528 123009 111684 129977 106592
1772.28 72737 126292 162406 164936 179903 191642
1775.17 195106 211676 235298 245394 248826 262960
1778.06 288447 290041 294288 319148 340341 357980
1780.95 379014 404227 421739 432335 448160 477303
1783.85 496614 505674 539412 570461 579506 601319
1786.74 629209 660577 688143 700863 722838 749786
1789.63 761801 755708 751660 780595 782610 752041
1792.53 784824 835207 846082 850719 850673 848272
1795.42 844476 843116 848950 836545 817304 800004
1798.31 788445 761962 726591 707502 676695 646707
1801.20 646246 618082 578395 565012 533215 491282
1804.10 442326 406091 386055 352029 313443 290955
1806.99 274133 259963 243388 229360 231219 222709
1809.88 199995 193877 188779 169754 168498 183827
1812.77 190088 181515 186726 185091 183002 185203
1815.67 186955 197514 190653 182985 176922 175350
1818.56 179304 178704 188000 189048 182481 176572
1821.45 171857 169671 161740 161347 150158 128576
1824.35 123262 121060 128766 133600 125026 118706
1827.24 115343 109461 101067 98868 95665 93876
1830.13 102225 109708 107697 96705 95954 97864
1833.02 88202 86330 88419 94164 90399 80340
1835.92 78740 69048 57457 55791 51780 44753
1838.81 48799 52902 47981 41793 33770 27370
1841.70 27093 26756 24321 1573-38363-29085
1844.59-4532-2668 1522 962 8824 3057
1847.49-6976-848-3134-9876-15890-16162
1850.38-18890-13828-2485-2316 733-8117
1853.27-21120-19088-17659-22016-25088-14336
1856.17-10860-11452-10427-10776-9942-19934
1859.06-17290-16610-20597-17027-17082-11382
1861.95-13532-20138-17436-21531-19782-14207
1864.84-13525-20664-21384-10173-13968-22306
1867.74-20448-30261-38236-29474-26138-29210
1870.63-26032-6548-4158-23394-22493-10163
1873.52-10675-10150-781-2164-5880-2022
1876.41 4644-5283-21152-8549-2896-10368
1879.31-7085-9954-7702-9972-14603-10959
1882.20 2491 8002-7506-2760 3995-918
1885.09 13332 19503 11371 9060 15726 24010
1887.99 24537 22156 19341 15852 16224 33755
1890.88 43476 38929 46311 53134 48434 56956
1893.77 74942 85577 82122 79877 91554 110157
1896.66 109947 106413 125788 153270 162378 159500
1899.56 166980 171377 174117 178453 181006 175230
1902.45 167502 168037 178801 183305 177504 182184
1905.34 211321 241591 278288 272843 261074 321068
1908.23 387579 405381 340688 308667 383205 416441
1911.13 281692 151740 138084 151857 154816 160025
1914.02 172206 169430 183685 198524 206865 217631
1916.91 209618 194167 194902 194854 182592 176526
1919.81 171251 165447 170984 155196 137596 121130
1922.70 106811 103184 89469 98252 106456 95697
1925.59 87490 81080 81615 86999 90728 100806
1928.48 98918 79813 75855 70560 53572 48414
1931.38 48619 46392 47741 59083 83423 113095
1934.27 122482 117601 100373 82144 65867 53208
1937.16 58795 50227 41518 52847 58628 62209
1940.05 66372 60943 60117 66236 49449 46744
1942.95 57915 54064 48132 45812 42491 39273
1945.84 45643 41104 37551 41126 38183 27642
1948.73 23887 33490 50248 67660 75960 74795
1951.63 62854 48438 36311 31330 32128 30547
1954.52 33552 34747 40761 47459 46371 37121
1957.41 37688 45429 45491 49583 44798 42440
1960.30 42808 40596 34054 28732 37851 48576
1963.20 42602 35514 36774 36224 31826 18995
1966.09 22854 29491 34619 34994 26284 28356
1968.98 25193 23526 34395 26846 19690 29925
1971.87 36893 35696 46113 52861 56895 33497
1974.77 3543 7328 19522 31322 27519 24552
1977.66 23179 26491 29410 28807 26915 24600
1980.55 21678 14469 19998 27633 24602 20919
1983.45 10827 8964 9238 3175-2359-4243
1986.34-1125-5303 1389 5827 4897-2454
1989.23-2950 1478-9535-9591-18226-16532
1992.12-8259-18153-13879-7023-9854-16187
1995.02-16617-1216 10041-4136-18033-11197
1997.91-9657-13817-11302-14329-18238-22635
2000.80-18226-17976-20060-17515-18375-20244
2003.69-11563-3957-4615-5389-22895-29224
2006.59-16055-13498-18369-18098-15291-7742
2009.48-14535-32098-29874-18222-17762-20080
2012.37-10924-4367-8124-9122-15902-16898
2015.27-13036-20335-21738-19272-15567-5354
2018.16-3015-8009-10771-6883-576-300
2021.05 1890 7212 29-8983-3740 824
2023.94 7645 7804 915 3478 2050 8985
2026.84 6800-1491-1355-837 8183 9659
2029.73 5664-72-2660 65 1108 6616
2032.62 26479 31828 21430 15412 4801 3415
2035.51 6692-273-1891-4502-5003 5018
2038.41 9030 7837 9363 4593-1769 448
2041.30 5601 9181 1413 10990 23464 1463
2044.19-12266-10529-11752-6535 2068 4063
2047.09 1820 6275 19493 17835-1781-6215
2049.98-618 3065 7787 6456 1251 6466
2052.87 6074 648 9776 7103 1660 1446
2055.76-4794 2219 10443 4807-588 7484
2058.66 13463 7207 6414 9900 12207 8362
2061.55 4634-1849 968 12125 5791 2759
2064.44 18496 22428 13424 16531 20693 16145
2067.33 20440 14577 6679 12903 10651 25640
2070.23 44313 37756 41460 45962 31389 30420
2073.12 48284 48321 39424 46577 53225 59224
2076.01 59542 50762 31648 30486 47580 47068
2078.91 47418 58815 64482 61581 54495 32689
2081.80 27412 55845 74357 68352 56555 60028
2084.69 79433 82594 58256 63282 90546 86442
2087.58 81603 93307 103027 109577 103857 103227
2090.48 121632 131778 147046 163231 176030 186570
2093.37 189052 191745 187937 215622 243210 260183
2096.26 290670 309629 320388 346360 358309 366490
2099.15 418966 466207 506965 542580 571184 606619
2102.05 634900 638874 681488 746844 783484 816182
2104.94 851984 891723 913935 908737 894429 932430
2107.83 967854 977054 986348 1013937 1032780 1042651
2110.73 1030541 1039269 1104581 1134616 1144863 1143148
2113.62 1120790 1091359 1057940 1011369 1018542 1031018
2116.51 1027163 1039997 1063026 1087664 1103550 1090913
2119.40 1123812 1212130 1254185 1281915 1311695 1357600
2122.30 1412045 1415957 1440753 1522432 1596095 1657640
2125.19 1713981 1774037 1827848 1836754 1818866 1868776
2128.08 1929712 1955683 2012924 2075814 2138335 2211774
2130.97 2258766 2272621 2243597 2222888 2244571 2260385
2133.87 2277067 2306582 2354454 2473052 2654236 2839213
2136.76 3030513 3121552 3009373 2687702 2230597 1913793
2139.65 1760848 1674347 1636911 1628389 1639784 1651266
2142.55 1665348 1680177 1692573 1664527 1604810 1526184
2145.44 1412535 1274843 1146646 1029280 923566 844827
2148.33 774331 720731 712784 693502 656825 652584
2151.22 650338 638959 627159 614789 608403 586464
2154.12 565932 577391 572836 561872 561358 541387
2157.01 507496 452701 406013 391467 379865 366711
2159.90 335960 306544 284103 221728 215697 249229
2162.79 236700 214352 195201 182033 132324 89084
2165.69 108335 114484 105560 85964 69391 56770
2168.58 4150 6228 45472 46783 32342 19132
2171.47 4764-37029-38423 18910 37339 40022
2174.37 49818 58364 30817-12370 27705 75337
2177.26 62773 53668 81946 56521-19237 4841
2180.15 54696 39566 33533 38245 23512-9678
2183.04 6480 31387 36070 42338 36518 17698
2185.94-32050-25534 9619 748-10714-17194
2188.83-34055-68586-68561-46238-49328-55465
2191.72-56621-67760-115002-118209-93497-97590
2194.61-85907-81713-98015-115975-100324-79418
2197.51-79001-97188-100491-103817-111166-85590
2200.40-85029-95961-97102-93664-99148-99385
2203.29-78183-78037-91521-85895-76565-91059
2206.19-92369-80951-64045-60093-72964-75156
2209.08-78160-67804-62063-74694-82262-78218
2211.97-72196-67970-72814-64457-53896-57575
2214.86-60598-58998-51361-43866-42759-56410
2217.76-71102-71763-53871-48533-51616-40836
2220.65-32990-37159-36765-39867-44647-49574
2223.54-53802-57385-49380-39391-48051-61078
2226.43-53380-33501-30620-37230-42036-39852
2229.33-54960-48059-29830-33249-25762-23855
2232.22-28494-28473-30989-32776-29399-22254
2235.11-26941-37530-32127-36522-30797-16805
2238.01-14659-16933-33377-42757-30105-19613
2240.90-11007-4073-24578-24993-5455-15662
2243.79-26123-14990-9268-12743-14737-16565
2246.68-20900-26402-15860-4139-5421-3181
2249.58 3998 4729-9580-8888 13955 8719
2252.47-5777 406-1446 4678 11332 7213
2255.36 10958 511-11798-10776-6294-4672
2258.25-6560-12551-8997 1336-2285 7783
2261.15 9585-4999 177 7942-3135-6409
2264.04 17943 16289 3960 2953 7245 14016
2266.93-1609-16444-3716-6201-23706-16488
2269.83-3369 13365 17885-2354-22415-28672
2272.72-19455-4922-6826-14058-9935-2801
2275.61-7878-8596 7128 3268-16496-22441
2278.50-18664-16444-16688-13936-10660-17940
2281.40-11776-11212-17426-15018-22889-15780
2284.29-5079-20152-13883 435 4072 1661
2287.18-15284-19822-17270-15966-10941-10450
2290.07-17467-19979-10899-7156-4709-1994
2292.97-1053 2306 4086 5833 1235-8905
2295.86-11071-7025-2870 811 9334-2677
2298.75-9705 2084 9417 2676-6192 2100
2301.65 12598 13961-697-7828-12112 1212
2304.54 5216-4053-1707 17247 41658 18684
2307.43-333 7891 37644 14572-8726 4817
2310.32 47983 70226 34697 12081 61441 98417
2313.22 44407 10292 55179 127225 86916 38331
2316.11 71923 159647 133192 34205 59474 178362
2319.00 159354 50918 73369 219660 205269 67980
2321.89 100251 262782 236474 62477 105601 310920
2324.79 267518 77527 158588 371557 293305 78077
2327.68 196530 410317 268895 68831 277489 473992
2330.57 250986 102475 365982 469062 177789 148632
2333.47 462795 426553 131025 261872 522970 309991
2336.36 132138 404674 476538 154918 183865 485505
2339.25 332636 103926 346949 461367 188141 186993
2342.14 394863 253868 105930 265990 274684 95530
2345.04 157612 247639 128421 88789 153338 118663
2347.93 58112 45926 65477 94598 83791 100406
2350.82 191154 158931 119314 281236 255560 147741
2353.71 349179 338851 170103 392702 402348 207276
2356.61 459526 438959 228031 519993 441223 256598
2359.50 571337 408908 313206 601778 326057 367698
2362.39 582937 280795 458664 490251 280993 514249
2365.29 342507 316248 455774 229678 380973 325359
2368.18 237562 356685 204640 286742 233004 207092
2371.07 247226 140901 205160 139352 151726 137141
2373.96 113192 112373 83272 110115 67129 70800
2376.86 69596 64475 44758 30182 29965 35460
2379.75 24111 24881 34135 11417-3546 5356
2382.64 7905 2743 2450 150 2358 15333
2385.53 11567 2596 6434 4703 5046 12228
2388.43 8672-223 7550 7245-810 2447
2391.32 9512 8381 13203 3935-1715 15566
2394.21 23029 13900 12054 20064 20170 10630
2397.11 13494 19982 16377 23794 25965 16190
2400.00 19970 30422 21846 15120 29603 37181
2402.89 29397 28197 23058 20384 26866 36742
2405.78 37203 35046 32252 18544 31166 45117
2408.68 54431 52173 35907 49652 53696 53506
2411.57 61426 56486 70333 76365 58995 64473
2414.46 76746 87995 87371 79873 97669 110449
2417.35 125939 127221 125947 137585 134495 146142
2420.25 157391 161805 183788 209663 226101 235355
2423.14 249702 262557 271084 302624 325482 327825
2426.03 345471 366727 397037 420708 428576 458483
2428.93 502547 523901 554805 602231 643496 680612
2431.82 727799 770538 794751 839587 897250 945375
2434.71 991050 1022353 1071482 1139221 1193192 1254364
2437.60 1309599 1367124 1436277 1513148 1591695 1658909
2440.50 1740771 1840507 1943008 2036236 2120254 2229705
2443.39 2388624 2536051 2628130 2689997 2729764 2775891
2446.28 2849798 2971901 3106590 3185977 3183548 3219757
2449.17 3466722 3913988 4391924 4653152 4853042 5206316
2452.07 5338211 4540072 3282545 2607617 2423860 2410658
2454.96 2466642 2542515 2627764 2711615 2781328 2832950
2457.85 2854052 2843504 2819954 2751216 2633494 2518279
2460.75 2390157 2240309 2085397 1910314 1756500 1631067
2463.64 1506923 1401636 1333861 1280982 1237521 1204909
2466.53 1161426 1123082 1093235 1059976 1020883 969447
2469.42 906810 843574 788519 733379 658015 608521
2472.32 595417 576511 555723 537698 526729 516494
2475.21 508868 492184 473609 457221 430859 401324
2478.10 367875 343879 324661 305031 291272 264281
2480.99 237812 230783 223789 221476 221147 213769
2483.89 200226 196648 200816 194214 195800 197116
2486.78 206304 213198 202748 197148 200926 207005
2489.67 194500 194802 205645 200261 201289 214807
2492.57 213642 200805 189119 176872 190433 205655
2495.46 214599 230696 227728 230768 230901 212214
2498.35 218224 233773 225607 228284 239941 237872
2501.24 236882 240944 238608 244606 260089 269401
2504.14 281401 296905 294003 282057 285625 303455
2507.03 323792 330429 330367 328259 326826 329333
2509.92 321752 322471 336419 342995 338850 332446
2512.81 331010 326029 320861 306812 304800 304875
2515.71 300073 312984 315431 313952 311712 309454
2518.60 318242 312510 311930 321116 317096 297790
2521.49 290627 294083 282738 275281 276183 263773
2524.39 252528 254774 239735 232439 236585 238444
2527.28 243320 232393 235130 240646 229222 217373
2530.17 216522 227909 230824 217735 216773 226392
2533.06 239130 243677 237100 241644 247460 245434
2535.96 251152 266005 264902 254297 257164 256508
2538.85 262647 277287 269819 245868 225800 237680
2541.74 249067 249636 244152 237754 237143 233523
2544.63 229571 226704 226656 223416 225913 225788
2547.53 221337 219905 213024 202559 196113 188920
2550.42 184711 181260 173608 175704 180009 169087
2553.31 162850 149527 137212 143342 144964 131263
2556.21 140927 143668 123341 106020 104254 107826
2559.10 110034 110327 93847 89419 84033 83175
2561.99 75167 63376 62502 58775 40402 25954
2564.88 28238 33103 35323 20110 11400 17854
2567.78 12173 4047 11305 18123 16091 21090
2570.67 7339-9754-5532 4380 17097 7952
2573.56 1759 3895-5273-9882-3255 7936
2576.45 4609-12388-21843-20476-12465-6871
2579.35-10165-2502 6629-5443-10119-226
2582.24-10465-7863-3102-13742-22032-20323
2585.13-22620-25303-17393-23736-10649-3103
2588.03-15414-8378-15560-32100-26102-16972
2590.92-13060-22779-20477-3877-18231-26704
2593.81-15572-14232-16087-12920-4902 3850
2596.70-5692-10481-17828-25279-20726-7165
2599.60 5623 814 14665 13178 2437-3459
2602.49-3352 7814 2525 3204 9692 8972
2605.38 21746 29502 25771 26638 26450 13146
2608.27 7311 13043 6137 4933 15314 10778
2611.17 8507 16934 8500 744 6293 11389
2614.06-886-934 15896 14165 4807-4042
2616.95-10488 1756 5409-5870-14840-22265
2619.85-18242-17274-16125-12841-3685-10835
2622.74-15840-14812-9314 808-4860-7666
2625.63-2351 764-1028-5438-14030-7971
2628.52-6828-10057-16261-21976-13061-9102
2631.42-8172-7501-813 952 7693 2026
2634.31-27505-21741 4901-7068-18487-10311
2637.20-11654-2367 5582 4810 1333 1284
2640.09 10716 4642 10 16515 21823 14648
2642.99 6921-5959 16374 42178 25284 16208
2645.88 13469 12139 14478 15810 14859 23482
2648.77 38501 36675 41883 37383 41234 54582
2651.67 48392 54795 77159 68980 55226 57027
2654.56 50979 71014 78968 81274 88700 86764
2657.45 81237 87443 88900 89653 109904 117716
2660.34 118504 117550 118043 108716 95211 114366
2663.24 121891 115745 116502 115427 124413 129827
2666.13 138884 152545 158748 155987 151218 166359
2669.02 187931 179775 162629 148228 131175 119594
2671.91 138559 135292 113667 106116 107788 108712
2674.81 93559 92864 104151 98994 94045 96072
2677.70 83620 79545 73654 68348 72998 64819
2680.59 60618 62557 57806 44554 41091 28118
2683.49 29734 36462 21133 30223 24723 5798
2686.38 12601 19846 12362 1155 11792 12641
2689.27-4334-3262 4960 9111-13260-14844
2692.16 1608 6397 7931-6130-13910-24927
2695.06-18233-20536-33293-17913-19990-30806
2697.95-17908-12859-27679-29145-26430-35203
2700.84-36658-18123-12905-21513-17542-9582
2703.73-9649-14447-6852 4882 6889 8004
2706.63 23193 23137 4531 3289 2579 2063
2709.52 13126 12568 13022 13026-226 10308
2712.41 8954-23448-37284-20142-13702-41610
2715.31-57749-31323 1643 4996-8912-16320
2718.20 2853 7099 1943-2925-23654-23401
2721.09-23078-29837-23306-22479-10090-14788
2723.98-14776-2048 4948 11186-9979-14016
2726.88-16942-29515-21310-28080-26898-20775
2729.77-24612-28906-28577-21701-29503-28238
2732.66-24280-28011-7551-6915-18227-6990
2735.55-14412-18539-19292-31110-27335-3899
2738.45-4544-29026-28049-8308 3927-1086
2741.34-9168-11108-10805-27242-50602-48122
2744.23-21870-28678-47352-37010-39444-42114
2747.13-11902 26391 77460 100785 36292-14785
2750.02-11762-3577 942-20262-49371-29446
2752.91-7240-10403-14693-14527-325 7649
2755.80 4932-5685-2751 6040 5750 7368
2758.70 13342 26300 36006 31928 42536 41863
2761.59 19086 20882 28556 33347 16333 1895
2764.48 10919 15382-1255-25924-66604-116538
2767.37-157544-179508-148277-68476 6670 21050
2770.27-4174-5993 20349 54096 61375 48544
2773.16 47369 47277 40992 41826 39933 33876
2776.05 31310 26614 36578 36570 26200 17361
2778.95 21128 24585 13537-6190-2035 15199
2781.84 9442 8846 21520 35329 17686 3498
2784.73 18513 18266 16859 17004 1438-3356
2787.62-4125 19755 37187 10288 14761 26136
2790.52 36989 48057 60634 65781 68220 94127
2793.41 95760 99369 95865 96019 103614 112546
2796.30 137324 152620 158339 158545 169185 169266
2799.19 180703 201133 200180 208978 224776 223517
2802.09 222757 231951 233229 226325 245413 267127
2804.98 254876 263145 301039 308780 296782 293586
2807.87 294733 336491 364679 331880 292306 286976
2810.77 300154 304593 309065 315942 328523 334860
2813.66 353258 378317 401354 410307 414096 433487
2816.55 453913 470675 476362 481919 502263 526636
2819.44 542695 557470 581931 598730 600088 606800
2822.34 621833 613914 608162 598169 594845 602474
2825.23 610277 619208 629038 663258 696509 697237
2828.12 728300 794268 813128 792987 723266 648756
2831.01 593408 564387 561924 579959 615272 641372
2833.91 681208 713903 730476 739356 734254 728165
2836.80 727635 696976 650393 613722 563437 526929
2839.69 520925 526349 544719 543315 561322 592611
2842.59 600881 607852 598672 581671 587975 603355
2845.48 610149 619642 616593 597135 586058 578225
2848.37 601079 651908 676864 664702 650918 654357
2851.26 662161 675989 689957 710069 711380 698480
2854.16 706158 737644 762964 755282 774121 817280
2857.05 861559 893315 911913 923842 943773 972102
2859.94 1006114 1018483 1016530 1042373 1076534 1102849
2862.83 1121141 1160349 1178837 1205451 1236359 1276091
2865.73 1335628 1365767 1379696 1404362 1435493 1453264
2868.62 1489447 1513742 1515877 1503631 1498491 1465839
2871.51 1447153 1468273 1460566 1447714 1443271 1422848
2874.41 1401106 1381380 1335268 1310677 1316397 1303826
2877.30 1289177 1274402 1274570 1283972 1279864 1274774
2880.19 1271442 1256261 1252975 1249797 1236515 1223994
2883.08 1201193 1215534 1259654 1261357 1240793 1239602
2885.98 1206590 1164947 1168019 1183388 1204312 1206844
2888.87 1181248 1155708 1181780 1191252 1214769 1252040
2891.76 1226657 1208137 1214415 1228082 1269891 1272518
2894.65 1248408 1237407 1210909 1194285 1176762 1143859
2897.55 1129572 1102360 1054700 1019348 987791 958371
2900.44 958866 939910 934106 940474 922075 908088
2903.33 874790 848016 834403 822255 803568 748108
2906.23 723723 701821 673524 660846 639178 621685
2909.12 603915 569358 547973 529713 522122 499967
2912.01 468305 434686 424565 416009 399091 386584
2914.90 365418 334215 310252 299675 270578 254651
2917.80 263979 242770 216254 199904 192098 172670
2920.69 178316 189363 186112 171187 145039 137355
2923.58 153001 155502 167020 167845 165513 166613
2926.47 180356 208037 247150 282357 325211 356828
2929.37 429912 495941 558936 638128 749301 882004
2932.26 1057795 1210755 1395533 1612954 1848678 2108251
2935.15 2420580 2712765 3027889 3361077 3733988 4068950
2938.05 4429229 4770182 5120187 5416495 5688421 5875635
2940.94 6048208 6136543 6201450 6181867 6174882 6047553
2943.83 5979539 5711628 5359915 4828095 4549638 4155390
2946.72 4047800 3862035 4524352 5247492 9128880 14689093
2949.62 29843358 47455524 30483671 9879293 6064913 4023602
2952.51 3851925 3651637 4068809 4338894 4849170 5207053
2955.40 5672115 6019364 6417983 6654200 6882017 6956993
2958.29 7011684 6970841 6874836 6662815 6426766 6099519
2961.19 5744588 5401322 5086632 4661120 4261923 3841368
2964.08 3444854 3076664 2748239 2417347 2136004 1876513
2966.97 1676589 1486040 1315336 1153275 1028724 951117
2969.87 872881 797773 736042 678099 631546 570131
2972.76 536961 502345 480726 474217 470089 469036
2975.65 469384 424053 400795 403549 408508 414698
2978.54 435414 432071 403506 390550 411217 423332
2981.44 437935 435571 434936 433044 446787 483578
2984.33 492263 474344 489103 509568 525918 558154
2987.22 589731 599963 636062 689940 741254 779806
2990.11 818526 876646 958451 1039068 1128783 1213556
2993.01 1311967 1444678 1626581 1819489 2025741 2312266
2995.90 2638627 3019501 3480076 4010866 4659215 5413824
2998.79 6294684 7297145 8457710 9753703 11178775 12720156
3001.69 14353038 16015962 17638291 19173174 20625086 21941706
3004.58 23098878 24002273 24603483 24854418 24745319 24295335
3007.47 23628174 22836264 22148112 21778772 22046072 23220271
3010.36 25786606 29796065 35442978 41180543 45946605 47366900
3013.26 43884114 38718357 32757460 27593987 24141407 22176143
3016.15 21534735 21766996 22600567 23668685 24712610 25516033
3019.04 26042193 26201174 25951703 25311831 24302255 22980470
3021.93 21448297 19739976 17934242 16110255 14316156 12574176
3024.83 10942093 9459592 8111533 6876965 5808754 4883247
3027.72 4081272 3388250 2804506 2319533 1917602 1588178
3030.61 1324069 1091325 909173 779744 658674 555790
3033.51 468314 392952 349141 299850 256744 236989
3036.40 231001 217805 199743 165580 154460 149147
3039.29 132968 128147 116868 113371 114447 107534
3042.18 105280 115450 121458 118349 129059 123323
3045.08 110591 99445 90618 93209 101142 104938
3047.97 120714 125294 121184 108201 80148 73930
3050.86 75293 64948 54900 61043 57697 50214
3053.75 48683 62033 70457 53300 61470 81048
3056.65 77014 60965 32593 18718 47141 60549
3059.54 60537 49081 44112 41251 21250 4150
3062.43 14432 41952 56303 46511 32638 43717
3065.33 47355 31268 23779 23147 12856 21559
3068.22 32952 22736 18474 22841 20176 19603
3071.11 18992-1447-17749-13955 5126 10219
3074.00 11738 38110 57288 50759 28678 18358
3076.90 14249 2029 4502 17036 18688 3348
3079.79 1954-18098-32142-7925-17220-24372
3082.68-1992 11979 23912 14398 5457-7302
3085.57-12427-11523-12419-3711-7354-5284
3088.47 8419 2002-11283-15642 6762 45323
3091.36 38573 33908 20911 11033 16168 20910
3094.25 34152 24969 21108 22538-7852-17367
3097.15 22071 22748-1587-10193-11031 12689
3100.04 12861-16200-7132 4540-2219-14879
3102.93-16925-3010 12077 16066 3460-13190
3105.82-12886-20384-40927-27983-2314-5356
3108.72-21659-12104 10529-6362-35544-55824
3111.61-50425-3932 15115 9830-8734-23843
3114.50-6167-4137-10056-18917-27124 1043
3117.39 11044 2186 387-26168-35155-19170
3120.29-7544-13300-34848-22528-22171-31840
3123.18 7392 30326 2316-16754-14625-26073
3126.07-16410 9287 6596-13692-20617-18736
3128.97-25870-25202-5487-8457-10960-15620
3131.86-13752-17925-33029-16380 9512 19664
3134.75 268-12904-6237-4485-12566-4654
3137.64-4534 3143 618-25683-17088-7685
3140.54-1297-3293 814 32247 28537 6616
3143.43-860-15642-5685-7844-22695-18650
3146.32 1457 23974 20395 14806 6316 2203
3149.21 465 627 11438 20069 27135 40318
3152.11 40491 36540 44972 36683 39708 46780
3155.00 26225 31158 33441 35380 47818 27115
3157.89 34707 46816 23136 30444 43214 55032
3160.79 61167 66132 81198 71483 65874 70385
3163.68 65677 71630 85260 79502 67469 76157
3166.57 91857 84483 94103 112678 130135 128724
3169.46 128670 113615 99357 109403 111487 133306
3172.36 145488 152806 145668 139531 153580 139579
3175.25 144515 159881 171067 183151 186334 194651
3178.14 218672 222667 204907 212052 224080 227080
3181.03 226765 207993 182308 194063 211727 208265
3183.93 197743 189717 204100 226483 247981 260228
3186.82 248788 277655 301913 304402 297899 260220
3189.71 239667 241799 210778 199405 211297 187384
3192.61 200629 200780 190504 215576 205652 177399
3195.50 195866 202869 176998 135340 118456 135813
3198.39 113636 107808 130501 143682 125877 109947
3201.28 116749 120399 98502 72483 86495 86832
3204.18 58039 61509 72507 74493 79783 80754
3207.07 78909 91889 110356 102910 97678 90112
3209.96 67053 58112 70285 74188 77668 77110
3212.85 83540 85458 66456 68278 67011 79575
3215.75 77605 61499 64976 70131 86749 76395
3218.64 57020 57773 56262 31693 25935 28772
3221.53 43993 45840 38215 29076 17121 15367
3224.43 16284 28633 23707 14759 2649 2055
3227.32 6396 30954 48859 24920 14162 40782
3230.21 41750 46666 35981 37102 59923 52900
3233.10 50157 57943 81044 115584 130836 112773
3236.00 111877 129877 145640 152181 166292 194694
3238.89 217211 229803 255750 280609 299697 314056
3241.78 313163 315871 335530 358594 378570 373506
3244.67 354834 366680 402649 424704 424031 426357
3247.57 447715 460995 489861 501126 477438 469279
3250.46 464979 437392 415780 430980 416964 403520
3253.35 433320 468359 489524 504213 508700 496911
3256.25 454381 411258 389159 348962 323159 302609
3259.14 281235 288692 288777 267973 249799 237837
3262.03 220566 212864 211046 167487 144010 145573
3264.92 131539 126723 121061 103695 88797 90725
3267.82 69830 51286 52365 62988 51741 54320
3270.71 73125 65761 55834 28889 30760 43358
3273.60 45953 57007 62578 56524 51186 58515
3276.49 72912 77754 75103 84393 91680 103479
3279.39 114434 99453 117917 149729 162639 177192
3282.28 180201 206853 231324 237471 246580 252408
3285.17 246224 226132 229015 262338 311153 345933
3288.07 350433 358897 405667 445118 441392 443636
3290.96 471684 474942 463118 472068 466030 461819
3293.85 513158 559998 525666 485751 491073 467125
3296.74 457266 432067 388964 407132 409053 426578
3299.64 448645 472470 490627 485266 448158 397998
3302.53 376629 353528 317146 255838 227890 231115
3305.42 220208 218839 214963 234675 251676 206428
3308.31 184531 192708 190468 189074 180570 175762
3311.21 175038 148708 109207 89187 78535 61789
3314.10 63571 75482 58808 27231 21233 29793
3316.99 13455 5725 5787-1072 3581-24766
3319.89-44889-46371-35399-26634-28317-3517
3322.78 11822-8086-9588 6005-17295-21903
3325.67-11332-14365 6970 15709-4771-22968
3328.56-18032 3000 8144 10778 29233 21939
3331.46 5656 39197 53275 43815 54505 71813
3334.35 72210 64216 84507 102078 132009 168650
3337.24 209198 234568 235537 239064 270784 317203
3340.13 338362 367423 406931 444723 480743 487215
3343.03 521178 595106 633709 671011 705808 693758
3345.92 699396 744212 767448 789693 813511 824186
3348.81 854165 884681 905178 933115 957923 1028569
3351.71 1144781 1258931 1340529 1360796 1328100 1307392
3354.60 1362167 1496717 1675407 1822264 1757919 1541707
3357.49 1416618 1359109 1251937 1155146 1122861 1075920
3360.38 1031649 1005556 958686 907290 888408 885064
3363.28 877110 832090 811100 790395 739130 721682
3366.17 707799 671797 633686 613437 587397 548751
3369.06 502766 484070 456558 388668 345704 322109
3371.95 315403 287142 253776 231873 188004 158022
3374.85 148328 133444 121160 124080 109035 81737
3377.74 60707 63622 38327 41626 76331 48460
3380.63 12113-13358-8082 17287-1994-12602
3383.53-37752-44185-6780-9114-18006-24761
3386.42-27192-29348-27220-23871-25259-38940
3389.31-44939-31849-24380-29714-36349-29521
3392.20-44815-57222-32881-20892-30611-32395
3395.10-34162-21934-31338-63268-55909-51911
3397.99-45576-42600-32438-30230-38773-21364
3400.88-40652-56220-40692-33356-38945-52759
3403.77-55106-38448-49317-61446-28054-34624
3406.67-66052-54083-25381-34921-33186-31903
3409.56-48923-29019-34443-45894-33020-17707
3412.45-22514-51898-54535-26824-26863-28979
3415.35-21873-27718-25592-40086-58178-61888
3418.24-53961-35611-48635-62034-47897-42109
3421.13-64706-77759-41193-23222-25656-11557
3424.02-8734-27747-53549-32493-20117-49860
3426.92-67339-62935-39028-38456-60068-56993
3429.81-30184-29769-45596-50639-51762-32281
3432.70-24067-39045-27489-8759 2663-9003
3435.59-5081 14278-8388-34697-33604-25470
3438.49-27837-48946-69371-66955-45587-31427
3441.38-46093-50392-43228-47088-46705-48981
3444.27-35696-10760-26482-14609 4596-12239
3447.17-18317-20048-34963-47063-64078-74098
3450.06-56331-50350-40322-24309-13454-12461
3452.95-12772-18817-43541-44538-35408-11019
3455.84 7007-16409-24203-23966-10671 1182
3458.74-23492-38135-26618-6847 4521 5908
3461.63 9024 11125 25814 25099 20096 18498
3464.52 5428 8061 1937 11239 22211-3307
3467.41 6617 49121 42609 33288 37138 16567
3470.31 3277 10576 11341 36524 48595 28989
3473.20 53155 65302 76560 85466 61708 54757
3476.09 88874 89581 66202 42141 2412 12556
3478.99 29026 21980 20033 32919 32358 29555
3481.88 32700 35222 28294 22776 25610 16947
3484.77 35269 36674 22507 38060 54493 40558
3487.66 21959 40825 54150 37997 44502 58919
3490.56 23313 6291 22209 30119 41197 52881
3493.45 34953 4698 20739 32932 34676 47799
3496.34 41768 17680 4565 35571 68674 67914
3499.23 70343 64165 39150 23479 15286 7593
3502.13 5577-4287 21359 20201-13390-3501
3505.02 22941 41279 32856 24135 13596 29932
3507.91 35016-758 6727 19482 31298 25483
3510.81 2398 10543 10300 19324 37194 30164
3513.70 10610 13106 27306 27159 28259 45627
3516.59 56565 55758 56857 61311 80533 61318
3519.48 58661 45706 13813 56756 54882 41612
3522.38 92952 123358 122909 133301 146377 150692
3525.27 166044 165363 138459 137064 149443 176030
3528.16 202901 208878 204333 198960 219070 236122
3531.05 234752 258543 256730 237664 245793 231231
3533.95 238225 253818 253245 261406 260476 283697
3536.84 314815 317115 307977 297475 292054 287719
3539.73 298498 298663 276073 259939 273819 268760
3542.63 215715 217415 243881 252089 254847 229273
3545.52 221983 211335 186010 175926 184355 198907
3548.41 181012 139840 120648 140152 143977 123697
3551.30 86060 75331 98857 90584 61159 37279
3554.20 44716 58673 42853 44644 65888 24736
3557.09 1303 40801 48333 50896 22491 6038
3559.98 44315 32437 9093 34215 31463 2557
3562.87 10530 10216-16303-13285 4430 12337
3565.77 15779 125-17081-27699-10803 25505
3568.66 24570 12017 7150 9481 18067 30807
3571.55 47166 32728 10067 6215-10086-16194
3574.45-9210-7876 13224 21534 18262 129
3577.34-24073-20232-14522-15464-18067-27025
3580.23-37848-23193-19471-17027-6930-19616
3583.12-4622-8915-23396-2588 2423-10682
3586.02-29419-46968-39543-31170-59510-63300
3588.91-37005-24321-24184-23825-16371-18079
3591.80 4656 4506-10714-2747 6521-3549
3594.69-34338-45479-12253 10263-5029-18713
3597.59-33309-47842-58334-50657-18809-19000
3600.48-33666-15109-14529-20331-5606-8142
3603.37-25097-40901-36496-26286-39146-28938
3606.27-29357-29764-25929-17514 1969-4464
3609.16 511 2874-8944-23106-44967-58716
3612.05-86246-75824-33057-42565-50868-32313
3614.94-37199-41208-32688-41191-55583-58106
3617.84-49896-34874-38647-58173-46550-29162
3620.73-13816 3003-9397-22110-47111-50630
3623.62-22856-24479-7084-13150-50830-55103
3626.51-31781-10571-39982-67278-47579-104175
3629.41-108716-30545-22563-36374-45368-33521
3632.30-16920-24943-38070-28670-4909-11837
3635.19-19803-20125-24569-11711-25273-30781
3638.09-20954-28603-40466-22723 9018 11252
3640.98-18475-44542-40154-29220-20939-27470
3643.87-24937-12024-18203-35026-22566-4146
3646.76-18208-32375-38954-69569-111335-71230
3649.66-53226-78035-71171-51811-22288-5209
3652.55-16739-40422-26032-25051-57209-44808
3655.44-42886-78706-65625-43033-37391-39067
3658.33-23568-21135-37789-21542-11336-5650
3661.23-10230-18333-20323-20174-12344-20173
3664.12-22994-12619-12711-13403-2583 5461
3667.01 9798 11015-32715-56288-28832-5459
3669.91-64262-97512-29964 5672 3687-7482
3672.80 2132-2112-9622-20496-9496-36354
3675.69-58684 3356 9512 7849 27359 24610
3678.58 6261 7122 15424 1555 4293 4091
3681.48 9077 859-13488-16535-27928-17408
3684.37-23210-43566-29964-27463-31046-42685
3687.26-69212-126331-115870-54828-45554-17408
3690.15-8039-39640-61556-53774-38081-41591
3693.05-41458-15404-7588-13854-20232-14305
3695.94-5927-17313-22931-10004 29-16986
3698.83-34197-23672-32107-33208-13809-40605
3701.73-47908-27191-20599-17591-37273-44208
3704.62-51062-64886-68798-35197-9979-30197
3707.51-45308-42993-48296-55746-49473-56774
3710.40-50094-34329-69303-106396-83973-50605
3713.30-30271-23849-29609-28274-17054-19531
3716.19-23213-30167-40075-28601-16295-17922
3719.08-21410-1701 8222-20117-19431-80
3721.97-495-9615-25430-3119 27014 24512
3724.87 14944-2752-34084-21281 8968 20544
3727.76 44277 31903 20727 36364 32004 35700
3730.65 44767 23646-10227 2365 41139 42846
3733.55 26380 8040 216 7363 2833-52692
3736.44-38608 23185 21890 13818 19165 14397
3739.33 7215 13969 12028 11945 28584 43090
3742.22 25759-4759-23583-98291-151396-84968
3745.12-25434-24957-12170 3732-1873-17128
3748.01-30231-88121-123533-53766-21678-28862
3750.90-28815-105336-144395-68445-50967-36886
3753.79-13516-42314-62979-65812-64658-60559
3756.69-43984-32000-32035-45963-38999-50014
3759.58-75877-46425-18755-25075-40342-56879
3762.47-45571-28057-46640-53733-45371-64574
3765.37-66341-60438-59046-47661-37493-37499
3768.26-46976-66270-86030-52686-25434-36564
3771.15-34774-35263-39416-44060-39984-20326
3774.04-37631-56298-28698-32663-53337-68242
3776.94-70096-62574-60880-63969-84801-78405
3779.83-44879-33061-40225-38164-25795-38203
3782.72-54819-47705-45382-36991-38075-47449
3785.61-51850-44279-23906-21345-31250-28476
3788.51-34194-39358-24913-26313-38468-19632
3791.40-9142-25022-40159-39009-38450-42510
3794.29-52214-45442-29686-39289-45625-42329
3797.19-36870-30063-14330-23036-31773-29831
3800.08-39089-107537-132696-60724-37112-25116
3802.97-9509-23386-25656-6556-16313-44442
3805.86-67871-122205-103951-46506-33777-33870
3808.76-31143-15854-17511-5927 19511 20127
3811.65-3540-14369-5391-2185-5853-24178
3814.54-26183-32000-110777-75954 12400 21892
3817.43 19132-18464-29645-9222-7432-41967
3820.33-52993-42207-46124-21446 12612 20990
3823.22 10657-9664-15621-12028-29119-7852
3826.11 13797 25877 37991 11948 11155 45856
3829.01 49362 38217 51697 47573 6135 7155
3831.90 11770-4206 22331 28506 6739-17044
3834.79-18114-7859 2508 2806-29155-97062
3837.68-66246-11483-10420-3718-7823-15278
3840.58-17017-12161-17242-10676-20542-50144
3843.47-59286-44911-40944-43348-43142-24568
3846.36-33300-45745-54678-68081-48561-36159
3849.25-36028-31152-47832-63682-111199-112658
3852.15-57397-54381-93335-175919-132654-67185
3855.04-46014-23807-41525-47114-50083-47016
3857.93-31137-37267-58528-50695-37732-26029
3860.83-41643-69609-44978-27509-53461-64364
3863.72-53504-70107-90051-71444-47640-45196
3866.61-58028-65259-61311-60120-67298-73517
3869.50-93128-64844-42952-42289-33355-35204
3872.40-35016-47836-39456-40873-41301-30770
3875.29-33162-14873-14975-30031-31878-39800
3878.18-47684-39899-41142-70977-71200-42112
3881.07-33197-36999-42570-28018-1439-2858
3883.97-12924-31806-71641-81988-32585-25395
3886.86-40825-28972-14987 819-20189-38677
3889.75-37396-38004-38942-22665-7585-24457
3892.65-35635-39517-53516-40492 5994-3081
3895.54-38171-25337-22821-16397-15343-30130
3898.43-45487-61160-33982-12897-21523-34105
3901.32-23695 7155 20798 7594-32199-60416
3904.22-33966-9863-18684-26062-41194-15955
3907.11 13830 6286 14723 21210 15394 29286
3910.00 40882 21714 3905 11763 44385 45097
3912.89 22808 22651 23682 26108 25066 23173
3915.79 54297 67706 41763 43994 65094 57947
3918.68 54505 35398 37887 77344 71175 47908
3921.57 53069 55272 73514 91146 66188 35946
3924.47 50554 84689 72013 59870 69052 92594
3927.36 92953 92460 113595 100213 71902 80457
3930.25 102264 103024 119107 106110 83678 99990
3933.14 103046 107446 106432 113890 123265 118909
3936.04 121314 123365 118563 106183 108871 129283
3938.93 128596 114203 137153 152606 135682 132078
3941.82 153197 163863 160690 165074 181414 195245
3944.71 194505 191816 180793 197409 215228 221392
3947.61 216784 212399 205868 208638 223239 231543
3950.50 236879 226749 241624 243593 218717 220328
3953.39 224075 239684 256834 248787 270773 270934
3956.29 253235 260026 259722 235294 211836 211557
3959.18 207194 199344 213639 234670 240131 240555
3962.07 226484 210046 212241 228003 232629 229193
3964.96 223238 204454 180774 191177 222438 239069
3967.86 215040 178175 181457 183802 187168 203325
3970.75 194587 197263 237274 245689 219044 197310
3973.64 210155 239497
##END=
