##TITLE=1,1,1-Trichloroethane
##JCAMP-DX=4.24
##DATA TYPE=INFRARED SPECTRUM
##CLASS=IUPAC A
##ORIGIN=NIST, Analytical Chemistry Division, 301-975-3108
##OWNER=COPYRIGHT (C) 2001 by the U.S. Secretary of Commerce
##DATE=01/06/01
##$SPECTRA VERSION=1.10
##$UNCERTAINTY IN Y=2.1 % relative (B=1.08E-04,C=2.81E-10,D=2.71E-15)
##CAS NAME=1,1,1-Trichloroethane
##CAS REGISTRY NO=71-55-6
##MOLFORM=C H3 C Cl3
##MP=-30.41 C
##BP=74.1 C
##$NIST SOURCE=QUANT-IR
##SPECTROMETER/DATA SYSTEM=IFS66V (Bruker)
##INSTRUMENT PARAMETERS=KBr Beam Splitter; MCT Detector; Multipass cell
##STATE=gas
##SAMPLE DESCRIPTION=1,1,1-Trichloroethane Primary Gas Standard
##PRESSURE=101.3 Pa
##TEMPERATURE=23 C
##SAMPLING PROCEDURE=1 L/min Flow
##RESOLUTION=0.9640
##DATA PROCESSING=3-Term B-H Apodization
##XUNITS=cm-1
##YUNITS=(micromol/mol)-1m-1 (base 10)
##XFACTOR=1.0
##YFACTOR=18.189E-13
##DELTAX=0.4820
##FIRSTX=575.17
##LASTX=3974.606
##FIRSTY=3.68E-06
##MAXX=3974.12
##MINX=575.17
##MAXY=.0019193
##MINY=-2.82E-07
##NPOINTS=7052
##XYDATA=(X++(Y..Y))
575.17 2023690 1915465 1803561 1727479 1717935 1726087
577.58 1700179 1667035 1498197 1214154 1092930 1156840
580.47 1073736 936020 987940 1001964 872599 735205
583.37 674891 689508 733280 796025 847283 798581
586.26 722465 714677 725301 705496 749312 857495
589.15 845232 705470 617073 615702 566686 498927
592.04 497290 430632 313279 300934 304343 239694
594.94 230823 226796 144677 85239 98483 128404
597.83 103311 48969 26845 29208 10160-22338
600.72-41987-50843-18124 52618 33130-56241
603.62-44299 5372 3505-13230-23235 1558
606.51 41156 27755-19643-32033-31888-61289
609.40-111980-103388-11748 61413 60151 39780
612.29 40552 45144 18002-13341-16099-29858
615.19-40695-10093 16265-7204-28130 4507
618.08 55963 73922 65991 26822-34717-43015
620.97-1201 33035 34350 22048 13248 21122
623.86 47712 62301 69896 95966 69014 18654
626.76 21227 49223 71919 83611 68650 44519
629.65 8935-31198-61690-80254-77692-59017
632.54-42003-43109-54432-59041-57639-47358
635.44-24417-5706-1630 16144-1606-54293
638.33-47128-31138-61986-71883-57597-42200
641.22-41164-78032-102545-58223-10827-11777
644.11-23545-29719-33748-41640-45067-39791
647.01-57515-72608-40763-1414-25200-34522
649.90 7579 34336 49449 41809 30217 61142
652.79 102656 110498 99970 95430 95143 109266
655.68 129597 162619 181640 207579 267505 300100
658.58 317285 329625 326644 372124 439364 494868
661.47 559754 619423 671933 717959 765368 876076
664.36 1006777 1079808 1135684 1226710 1435100 1783281
667.26 2005807 1987465 1987821 2118195 2296080 2468009
670.15 2591852 2734621 2946190 3195002 3483323 3787786
673.04 4046272 4282511 4526640 4821351 5195634 5605716
675.93 6013667 6414766 6816074 7243337 7711837 8234820
678.83 8757479 9252278 9748489 10223542 10692911 11218295
681.72 11795752 12455622 13233079 14093623 14997929 15993934
684.61 17033523 17843646 18180196 18264982 18527300 19102790
687.50 19941376 20794103 21248062 21119425 20542189 19955856
690.40 19659810 19474400 19240493 19069338 18999569 18982299
693.29 18981125 19055723 19258418 19552738 19925095 20414429
696.18 21036366 21777657 22608474 23584609 24721119 26001615
699.08 27424200 29016293 30807719 32799079 34956724 37312506
701.97 39906358 42723416 45782006 49158855 52879692 56974661
704.86 61566351 66784252 72691126 79429881 87056221 95721241
707.75 105556369 116424812 128218497 140981091 154827912 169885988
710.65 186307225 204436381 224597541 246887315 271233573 297826449
713.54 326930445 358615428 392597845 428696925 467226335 508231541
716.43 551575304 596638770 642515554 689305669 736995238 785414246
719.32 833430665 878038581 917107578 951017353 980651624 1004985448
722.22 1023070395 1035529732 1042678085 1047241207 1049367921 1048547886
725.11 1049668515 1050938292 1048280362 1046534890 1050505441 1055197526
728.00 1043005694 1001275571 936376149 859700641 772812471 677646898
730.90 586139887 506014474 437252553 377919388 326832807 283450454
733.79 246529432 214804380 187574380 164027443 143493700 125536891
736.68 109774035 95944158 84013205 73838470 65206034 57877632
739.57 51696171 46512735 42178475 38522384 35422919 32752883
742.47 30441465 28327722 26326504 24487247 22807612 21252625
745.36 19922861 18972293 18542088 18549554 18700916 18650310
748.25 18258539 17595553 16853301 16134881 15436619 14716721
751.14 13983656 13256343 12528823 11798221 11132714 10606242
754.04 10223734 9907020 9622832 9240866 8670231 8073660
756.93 7683938 7544987 7653812 7944383 8111735 7676923
759.82 6724354 5939742 5738483 6081763 6878361 7916518
762.72 8569711 8002582 6370928 4950365 4460035 4684572
765.61 5402858 6392596 7119530 6903384 5662639 4331296
768.50 3697558 3562444 3584903 3663148 3736591 3745249
771.39 3755385 3837953 3921283 3875875 3744344 3642198
774.29 3583190 3503007 3407742 3324293 3242333 3159251
777.18 3073399 2976758 2872168 2771085 2696155 2628300
780.07 2569790 2495845 2393273 2310778 2279554 2251393
782.96 2205139 2171016 2158566 2109950 2041007 2031449
785.86 2081654 2112639 2092220 2084946 2152333 2286307
788.75 2463704 2587014 2627172 2660405 2724617 2832366
791.64 2981929 3155013 3361663 3558546 3697928 3839813
794.54 4041009 4230499 4401423 4560845 4705699 4817439
797.43 4868859 4861371 4798238 4716760 4620349 4482527
800.32 4323741 4148663 3986521 3885247 3891666 3997041
803.21 4166056 4397945 4660579 4870859 4977513 4971448
806.11 4917549 4848198 4762794 4644775 4482160 4302130
809.00 4153189 4025358 3901088 3759527 3595182 3428373
811.89 3270337 3123712 3012946 2923580 2846116 2815167
814.78 2850752 2923228 3007670 3094153 3160643 3177985
817.68 3176898 3189228 3156762 3049910 2942877 2842237
820.57 2743077 2664494 2599637 2530965 2478210 2456347
823.46 2399703 2300136 2243128 2222822 2209467 2189297
826.36 2146932 2102990 2076854 2034171 2021462 2033542
829.25 1995950 1951574 1938916 1921275 1893516 1853379
832.14 1830468 1842051 1849169 1834283 1767899 1647348
835.03 1540047 1484053 1451761 1383574 1295110 1221199
837.93 1182902 1174660 1181190 1210845 1281814 1324065
840.82 1273583 1206306 1191508 1185219 1186275 1192574
843.71 1184354 1156902 1132628 1137597 1147991 1123248
846.60 1095533 1082516 1088191 1104167 1121438 1140706
849.50 1153629 1170433 1221080 1270506 1314826 1387604
852.39 1456958 1510228 1601200 1711568 1792757 1854304
855.28 1918858 1983192 2082132 2235362 2406624 2523861
858.18 2587310 2634991 2689382 2760160 2893993 3102268
861.07 3261226 3300137 3349628 3429440 3418078 3315897
863.96 3255358 3262329 3320164 3455422 3675638 3908849
866.85 3973273 3759320 3419123 3077133 2803933 2769618
869.75 3122530 3847921 4435389 4020031 2896216 2174106
872.64 1981921 1964055 1988626 1985670 1956956 1930528
875.53 1902863 1837002 1716550 1570146 1425988 1283400
878.42 1139155 999250 875593 773288 697594 626765
881.32 560144 516491 479371 432416 384373 327339
884.21 289737 291584 296494 273599 246799 231032
887.10 214976 199194 184405 167898 159328 146257
890.00 140126 134569 127366 115318 89613 74128
892.89 72458 71562 77808 75483 67571 68599
895.78 65118 42297 26406 25643 16248 2727
898.67 2551 8571 19836 38282 43439 21982
901.57-461-11150-11642-11620-4949 4108
904.46 1133-3543-3330-3935-3520-6644
907.35-9539-1275 17188 25809 22589 26272
910.24 25345 13053 16828 19834 14621 24688
913.14 45382 46382 45051 54855 52493 33682
916.03 34676 50745 53999 38947 35728 63673
918.92 92318 82912 68876 76489 90092 97330
921.82 105892 125352 129758 108884 108834 118708
924.71 111086 110836 128643 130337 115947 114068
927.60 111360 104167 123824 146202 157172 157537
930.49 148023 147050 155941 156138 152165 158868
933.39 184505 198341 197679 207211 224058 239285
936.28 251096 253460 252234 259814 273538 281169
939.17 299181 323556 344822 368647 395066 424249
942.06 461387 496526 530677 565066 604126 643340
944.96 678797 725843 791837 853753 899406 933198
947.85 966364 1008579 1062086 1109165 1150043 1199804
950.74 1255944 1306036 1356820 1408529 1456419 1489814
953.64 1516854 1554496 1608290 1653679 1688607 1728421
956.53 1779172 1832528 1883250 1935882 2002497 2071911
959.42 2133422 2176683 2208235 2238708 2252958 2243617
962.31 2235669 2212501 2188192 2153151 2054709 1931655
965.21 1835031 1750172 1703053 1644424 1513516 1420586
968.10 1417919 1438596 1460625 1476165 1488084 1487842
970.99 1465199 1431495 1400688 1363050 1311258 1255961
973.88 1205497 1146067 1071396 998308 946976 902336
976.78 865875 836866 806645 772880 747027 736354
979.67 737028 741628 759973 799014 846185 887268
982.56 933560 989668 1066254 1156144 1249141 1338834
985.46 1435724 1539986 1649478 1768576 1899431 2036210
988.35 2177903 2330249 2496715 2661508 2831167 3014814
991.24 3211192 3414955 3632307 3859563 4097255 4338762
994.13 4578094 4802588 5023939 5237428 5405677 5508343
997.03 5542927 5534066 5509504 5470958 5464823 5549269
999.92 5716115 5945253 6254129 6568952 6858527 7166741
1002.81 7469552 7724136 7922751 8074568 8201986 8341754
1005.70 8537440 8799723 9115560 9446551 9768576 10050899
1008.60 10263895 10380771 10374653 10234946 9986955 9679571
1011.49 9367382 9109502 9023573 9170081 9524831 9988091
1014.38 10420508 10728623 10837117 10668478 10181688 9378024
1017.28 8357629 7302205 6341523 5508042 4814148 4254688
1020.17 3793492 3387305 3032745 2728132 2456621 2211443
1023.06 2001579 1833152 1702501 1586579 1487307 1419669
1025.95 1380605 1341096 1299910 1271633 1262143 1259587
1028.85 1266595 1270610 1264388 1265230 1285639 1318217
1031.74 1354569 1372248 1384144 1408809 1431330 1444859
1034.63 1477223 1537498 1605907 1655835 1697119 1745143
1037.52 1807377 1885640 1996170 2125821 2221706 2258744
1040.42 2265887 2261652 2295770 2401056 2562524 2760612
1043.31 2984692 3214478 3436414 3622191 3740192 3833685
1046.20 3958116 4093851 4264019 4515924 4843379 5205093
1049.10 5620551 6091656 6600470 7138543 7732999 8396843
1051.99 9121759 9912267 10799855 11797545 12872576 13993420
1054.88 15214892 16611882 18196823 19818756 21413303 23100692
1057.77 25017159 27261852 29738391 32093208 34230521 36465048
1060.67 39014163 41831196 44830127 47930822 51059318 54109015
1063.56 57096077 60201805 63470329 66704605 69730730 72502036
1066.45 75076874 77517293 80187474 83627539 87314884 89996179
1069.34 92294577 96579778 104203649 114098463 122600398 126027262
1072.24 125866788 127335769 133522446 142465822 146388260 137912954
1075.13 123609759 117233705 121353931 130794820 142356770 155238525
1078.02 169061790 183462298 198299277 213639039 229479320 245597498
1080.92 261719698 277971873 294818280 312665303 331765786 352099808
1083.81 373271204 395009806 417110044 438901121 458881334 475165311
1086.70 485804841 489713736 487577185 481348696 473436860 465239041
1089.59 454549619 433679997 396383380 350812140 316929239 306812458
1092.49 314998545 330754378 347785940 362220422 371286091 373478000
1095.38 367821675 354190433 333815691 308619921 280743317 252130494
1098.27 224269424 198244658 174633958 153561358 135067423 119104112
1101.16 105362223 93586637 83643431 75168266 67801371 61400151
1104.06 55864597 51115989 47153276 43897162 41118920 38577521
1106.95 36212618 34112549 32332077 30793611 29410162 28149391
1109.84 26973949 25890350 24921909 23988304 23027359 22125926
1112.74 21343174 20623115 19887749 19108448 18316081 17521678
1115.63 16731154 15938479 15166575 14408746 13626366 12803222
1118.52 11955912 11103006 10241356 9365514 8517894 7729502
1121.41 6996436 6317192 5691230 5109907 4577063 4091938
1124.31 3650394 3250104 2891236 2566744 2278097 2024565
1127.20 1804640 1611458 1439422 1283688 1149614 1036408
1130.09 936347 839825 751870 675115 605985 535842
1132.98 473496 422512 380453 350622 334828 312688
1135.88 291670 276211 273221 275091 261646 240283
1138.77 232138 227124 222000 216298 202773 188624
1141.66 188481 195452 201547 200646 191723 190903
1144.56 201443 202825 203412 201967 188725 172156
1147.45 162236 151308 151010 178908 199695 192742
1150.34 184265 173689 170811 176531 180296 170740
1153.23 161591 155216 138094 130166 143067 149182
1156.13 143888 139855 141063 130928 108188 86609
1159.02 79968 87858 107947 110941 80702 53656
1161.91 52918 56951 55941 47731 43262 41979
1164.80 43601 47079 50795 40648 28046 28321
1167.70 31136 22222 20376 24414 17717 11777
1170.59 28400 45449 43780 37583 35629 24661
1173.48 13729 15897 25110 26669 29509 30609
1176.38 35609 42203 40940 34673 31554 38069
1179.27 53689 55949 53110 66959 82640 78258
1182.16 73378 69935 65401 69938 89215 111654
1185.05 125061 131474 140811 136980 137223 150587
1187.95 166802 190910 209730 204401 201349 204883
1190.84 202840 197131 197120 193259 195067 219008
1193.73 243660 243847 243202 248522 243824 233493
1196.62 238297 248076 253631 242849 239944 258050
1199.52 268692 266048 269576 269581 270880 278061
1202.41 283713 284473 290411 292867 293631 301069
1205.30 304906 300236 304210 313530 316650 312746
1208.20 305660 293029 298344 318588 334728 345217
1211.09 365368 386722 405240 413027 414506 424898
1213.98 451036 477716 496897 503750 500289 492814
1216.87 493851 502196 508754 509372 518821 526475
1219.77 531340 535842 541646 544642 557488 578324
1222.66 599356 620279 650656 691653 740497 788026
1225.55 837929 897242 967612 1037685 1109516 1186616
1228.44 1277602 1368265 1456751 1543990 1637423 1741096
1231.34 1850765 1956640 2062117 2161424 2267637 2388729
1234.23 2525650 2669509 2808876 2935309 3065759 3213288
1237.12 3375678 3531290 3675374 3808046 3940612 4073176
1240.02 4221659 4386218 4538387 4652903 4767860 4893476
1242.91 5005179 5100063 5184009 5254968 5321704 5376457
1245.80 5421237 5455669 5495666 5542327 5576007 5577025
1248.69 5530233 5433393 5358844 5338925 5339218 5310553
1251.59 5163103 4898667 4658931 4458282 4267193 4133140
1254.48 4006000 3745454 3397908 3050374 2713040 2405319
1257.37 2153229 1944413 1764373 1595985 1446167 1323177
1260.26 1229016 1140229 1061581 992068 936637 904759
1263.16 891755 870399 842992 809905 784100 769138
1266.05 759907 747766 734726 713488 687236 652951
1268.94 619421 601263 592411 576570 569340 559081
1271.84 549223 536722 518958 509478 507094 488120
1274.73 464205 431845 398480 368212 340703 312125
1277.62 290246 269141 257342 250965 237154 231769
1280.51 247292 245461 235282 235702 250098 268398
1283.41 287368 296269 301112 305324 312873 309317
1286.30 304083 294028 287163 283034 287064 305792
1289.19 336107 353730 370204 389106 404790 394465
1292.08 373503 355261 350073 350083 350318 347999
1294.98 363263 377457 368856 347730 347630 358206
1297.87 365468 371563 382306 390426 404115 403764
1300.76 396355 393069 389805 376484 375404 390251
1303.66 405420 397319 392460 391439 397869 415210
1306.55 440493 450318 444674 442763 459270 471567
1309.44 477040 466104 456445 447590 444588 443021
1312.33 444736 421152 379145 353966 348874 328171
1315.23 301159 279602 285815 303067 324479 338934
1318.12 352592 365309 377789 376424 376447 384425
1321.01 400427 400430 393710 373064 352690 339297
1323.90 341582 331441 302224 272808 266252 259117
1326.80 247982 235862 238275 226622 206506 192329
1329.69 195979 194858 190254 176248 176489 185199
1332.58 191757 186203 182506 183958 201922 214595
1335.48 224316 219242 220882 224461 220223 201329
1338.37 194745 188177 181871 168027 167993 159366
1341.26 153441 158712 162275 146785 145818 147848
1344.15 159312 157346 140601 116657 114694 122834
1347.05 141527 132002 115185 94810 78892 59052
1349.94 64098 55021 31085 14714 30458 37111
1352.83 63916 112343 149771 179930 236102 276304
1355.72 335938 370266 354211 326613 350546 399891
1358.62 446004 489017 569254 650349 754645 882876
1361.51 1050070 1215149 1433821 1745625 2176674 2571564
1364.40 2850066 3114265 3499755 3982914 4573768 5208111
1367.29 5903462 6662430 7509318 8413048 9403329 10429260
1370.19 11507487 12629323 13828159 15024792 16253245 17531435
1373.08 19040628 20714279 21795738 21973069 22188657 22489680
1375.97 22542599 22411141 22193554 21725730 21010890 20066355
1378.87 19090458 18092505 16881381 15189886 13569954 12632197
1381.76 13268051 18286661 35725610 82900643 147290825 149303399
1384.65 89013389 53101853 40236814 25397514 16026401 13327650
1387.54 13844814 15540858 17662920 20031435 22364695 24575955
1390.44 26495702 28103616 29334632 30217113 30622460 30573946
1393.33 30071543 29203630 27972945 26460940 24690503 22780145
1396.22 20755432 18713418 16678263 14722634 12830952 11086196
1399.11 9521228 8151269 6928806 5884994 4997640 4276805
1402.01 3678417 3221240 2862905 2604157 2395114 2249464
1404.90 2159119 2140296 2154264 2208065 2273921 2372442
1407.79 2503224 2678822 2853999 3046825 3247886 3484234
1410.69 3730124 3992307 4257969 4540423 4823225 5125129
1413.58 5424699 5724270 6010924 6305098 6579540 6835333
1416.47 7060044 7266029 7428518 7555434 7631623 7688690
1419.36 7731131 7759535 7756523 7758110 7756640 7764732
1422.26 7846002 8076322 8411847 8932752 9545619 10049271
1425.15 10869880 12084830 12383850 11758326 12087470 13484015
1428.04 13513909 11614743 9943091 9056490 8311158 7862753
1430.93 7730929 7787829 7974268 8231453 8500489 8766712
1433.83 9018411 9288738 9580465 9889433 10192434 10526481
1436.72 10923757 11373661 11837800 12334037 12868058 13453785
1439.61 14077497 14720496 15336648 15935236 16521191 17111722
1442.51 17686179 18192182 18566459 18838513 19026186 19125499
1445.40 19091908 18877038 18496456 18057559 17609423 17163957
1448.29 16705294 16271641 15869079 15519818 15199905 14713779
1451.18 14098229 13940510 14846725 17496262 22153736 27711323
1454.08 32241066 34470343 34146487 32074271 29249201 26036365
1456.97 22672524 19470969 16775206 14816824 13544639 12758534
1459.86 12345311 12251422 12352818 12549843 12780842 13007788
1462.75 13204853 13354477 13403813 13341462 13211995 13041118
1465.65 12795832 12463991 12041523 11548413 11006803 10434094
1468.54 9833923 9226330 8620487 8020422 7409697 6785972
1471.43 6182249 5656096 5170451 4694111 4267873 3896533
1474.33 3536205 3181244 2843431 2550923 2295286 2056938
1477.22 1835474 1646723 1480379 1331248 1187932 1059945
1480.11 952219 863680 779063 699184 626070 566038
1483.00 515526 474843 435967 404282 379387 352794
1485.90 317534 286967 260731 249852 241365 226371
1488.79 206487 197503 193896 182803 176666 183167
1491.68 175218 160410 148336 148758 148730 134597
1494.57 113280 91630 55131 53707 86606 101357
1497.47 91532 74108 61116 75696 91357 88968
1500.36 77747 69700 64042 64342 56986 46259
1503.25 41409 37389 5936-49916-73823-52926
1506.15-66341-81640-46430-12526-5604 7398
1509.04 19881 24724 21478 23374 25807 14940
1511.93 1579 11514 27425 32386 21411 10195
1514.82 6000 7543 11138 13191 9853 18619
1517.72 32377 33855 24386 12000-7770-32985
1520.61-60073-42592-12616-10599-1094 19177
1523.50 25258 25185 12220-3497 5416 25627
1526.39 27826 29978 29759 23126 28861 43490
1529.29 42811 41214 44202 49646 46689 40947
1532.18 29118 10437-5522-4019 11540 25888
1535.07 33206 39446 37719 35646 34602 19168
1537.97-35691-96828-91604-61040-49770-19296
1540.86-10512-41658-48517-15389 4130 13498
1543.75 15438 3449-8370 448 14904 27018
1546.64 33292 31107 25259 24966 16348-218
1549.54-6217 5334 11049 7061 8621 19504
1552.43 22094 5062-32997-48687-18832 8742
1555.32 12530 14166-1748-37059-70355-101174
1558.21-97846-52583-59921-99073-73462-13693
1561.11 10936 12263 5093 4208 12891 19873
1564.00 14164 17547 39760 56441 36448 4560
1566.89-6692 4830 16389 7784-21065-31770
1569.79-7419 19066 22063 16181 7438 4175
1572.68 8215 12218 10868 3494-17905-59970
1575.57-96964-62158-7306 8432 11802 23535
1578.46 30402 33303 38595 31009 18943 30262
1581.36 47652 61967 63951 57057 55670 53335
1584.25 43774 47049 53247 51675 40442 31907
1587.14 39083 51490 51590 47959 45074 42668
1590.03 42038 48692 48909 45472 44827 47518
1592.93 52778 56934 52309 49746 50063 52253
1595.82 48727 43352 37176 33720 34406 33376
1598.71 29370 33087 29683 18349 11256 13431
1601.61 21527 23891 12952 8849 13878 11263
1604.50 9090 19112 17654 3671-6671-4116
1607.39-3690-6363-5148 447-2900-12290
1610.28-16757-11289-7963-8372-16319-19753
1613.18-13644-9653-13444-20366-34694-76023
1616.07-129381-111322-59891-42124-41715-36727
1618.96-19271-7522-10592-15390-29214-40849
1621.85-38048-39223-60122-60865-43411-40200
1624.75-34776-19564-13317-7822-7636-18108
1627.64-23750-22589-26326-24751-22925-25425
1630.53-28041-19173-7074-3990-2504-1363
1633.43-11156-30868-70947-108427-98239-58849
1636.32-41539-39339-34209-24465-27626-36888
1639.21-36775-24960-17446-16632-19665-16430
1642.10-11159-10346-12067-14084-18898-33311
1645.00-72703-95608-62464-32518-36050-39552
1647.89-41783-31479-11592-8782-20455-15226
1650.78-12390-53518-126168-171852-173114-118363
1653.67-64375-45352-22815 3822 18151 17012
1656.57 4139 2673 16738 22855 14757 12707
1659.46 19017 23206 21655 24164 23528 12255
1662.35 4819 15435 28380 32069 33036 36470
1665.25 33835 35232 50082 60305 55132 40248
1668.14 17865-2361-1893 20692 28474 19890
1671.03 17912 26786 34487 42581 45859 44119
1673.92 25830-10271-19230 9762 31179 45343
1676.82 59938 66183 56367 46346 48655 57668
1679.71 67272 71324 66794 66528 68921 64203
1682.60 54314 49437 26273-28833-33866 42417
1685.49 93969 94574 88821 97719 110448 121695
1688.39 131916 137062 131025 127929 132186 137527
1691.28 139558 149734 161454 165266 163072 164410
1694.17 158648 114112 37242 32793 109238 151575
1697.07 141930 130071 133942 130975 85318 33624
1699.96 28432 72594 133153 167473 171891 169419
1702.85 165054 163229 160102 167279 191969 208626
1705.74 201099 192718 201187 224741 230900 211385
1708.64 201552 206898 204909 203799 209912 223431
1711.53 237789 240275 242983 252309 261339 272145
1714.42 274853 297471 340573 352749 306880 277307
1717.31 330539 359014 328814 324942 332307 328932
1720.21 330923 344757 358806 368209 377346 392310
1723.10 406786 414569 414132 415375 419843 419004
1725.99 412871 411299 417895 431895 432863 419391
1728.89 417704 440219 454883 441649 430400 436145
1731.78 435569 402498 339742 305128 285439 281925
1734.67 321965 351167 350188 345162 331087 314898
1737.56 305897 297634 282189 255586 242779 257706
1740.46 272108 290475 327074 372920 396897 390903
1743.35 369640 336379 299757 273267 249517 219789
1746.24 188898 171794 172524 170229 157882 160899
1749.13 171268 168949 149407 122921 115023 129880
1752.03 139645 141178 139262 134513 127918 121543
1754.92 117576 111091 92099 81071 91299 100466
1757.81 98034 103328 106437 100102 93057 83176
1760.71 63883 47614 59025 80931 85862 86995
1763.60 90963 96838 99120 97254 97229 101921
1766.49 106339 99832 85126 91320 108854 115478
1769.38 114389 115944 114547 112881 115310 94577
1772.28 78185 113404 150642 163598 174398 184893
1775.17 191981 208174 228514 240196 245973 261014
1778.06 279544 286018 292612 313280 335371 355164
1780.95 376870 400791 418203 430690 448003 473553
1783.85 492465 508885 537970 566422 582023 602312
1786.74 630809 662875 688772 706896 728616 753341
1789.63 764289 760213 761733 779578 778356 765069
1792.53 790076 834192 854209 858724 858151 855462
1795.42 851903 852636 853964 844078 825168 808543
1798.31 792403 766167 734182 708245 678588 654974
1801.20 643589 618971 585951 563567 533215 489556
1804.10 441472 405069 378579 345774 309364 284165
1806.99 266954 252228 236200 225739 223213 214316
1809.88 196854 187355 178505 165282 163956 176482
1812.77 182528 180153 180715 180842 179413 181030
1815.67 185648 191815 188098 179943 173512 172470
1818.56 174485 178075 184403 186418 180877 174701
1821.45 169987 166294 161242 157365 144952 127362
1824.35 118088 118436 124855 128735 122897 116336
1827.24 111411 105358 98047 94265 91157 91800
1830.13 98908 106161 103777 96167 93467 92740
1833.02 86457 83749 86486 90723 87378 80202
1835.92 74499 65720 55614 51501 46998 43168
1838.81 45478 48935 45501 38814 30584 25209
1841.70 24070 24802 18216-7232-37164-34116
1844.59-14360-5211-2799 182 3525-588
1847.49-7239-5792-7200-13395-19242-21387
1850.38-22156-16261-7556-3255-3664-11833
1853.27-22310-23409-22938-26084-26711-19261
1856.17-14520-13678-13546-12929-15296-20682
1859.06-21479-21025-22727-21277-18957-15488
1861.95-17353-21374-22616-23890-22510-17816
1864.84-18025-22743-22259-15521-17285-22922
1867.74-26442-34203-39906-34985-31594-32234
1870.63-26275-11662-10540-22844-24597-16122
1873.52-13538-10980-5439-4907-7177-3499
1876.41-667-9645-19762-13673-8551-11006
1879.31-11933-12086-12212-14318-17608-12836
1882.20-1693 1275-7047-6404-2533-380
1885.09 8849 14478 9237 6990 12520 19973
1887.99 21351 19016 14897 11546 14707 28757
1890.88 37634 38392 42728 47253 46773 55090
1893.77 71025 81111 79368 78874 89716 104246
1896.66 106210 107263 124783 149582 160410 161569
1899.56 165530 170553 173785 177818 178548 173056
1902.45 165724 166628 174380 177827 174295 181646
1905.34 207820 243607 271597 270992 273715 326320
1908.23 390391 401334 352128 334116 388401 399723
1911.13 286939 163999 128389 139294 148146 156388
1914.02 164626 169418 181165 196690 208516 215788
1916.91 208993 197206 194171 192247 183168 175551
1919.81 169722 167503 166726 154794 135778 118123
1922.70 104668 96197 89280 94816 100416 93986
1925.59 84030 78304 78475 83620 90290 98156
1928.48 94698 81217 72758 64890 51339 44222
1931.38 42495 41367 43581 57047 82976 111166
1934.27 123335 118105 100755 80865 62700 52927
1937.16 51801 46023 40904 47992 55672 60810
1940.05 62757 60201 59916 59738 49434 46578
1942.95 52587 51991 46407 42863 39257 38444
1945.84 40712 38815 36202 37332 33482 24578
1948.73 21177 30661 48323 66238 75621 73993
1951.63 62031 46714 34008 28545 27663 28018
1954.52 29683 32909 38746 44643 42882 36485
1957.41 36227 41737 44844 46410 43581 41111
1960.30 40292 37548 31034 28322 35914 44238
1963.20 41081 35267 34278 33692 27252 18780
1966.09 19677 26845 32127 31467 26197 24545
1968.98 22489 23691 28409 24308 19782 26495
1971.87 33096 36673 44774 53720 52338 30239
1974.77 5106 3520 16299 26691 26170 22683
1977.66 21631 24479 27073 27211 25137 22698
1980.55 18138 14311 18187 24447 23641 18071
1983.45 10118 6967 5499 666-4996-6410
1986.34-5972-5896-1473 3351 1834-3216
1989.23-4118-3703-9604-14550-19735-18266
1992.12-14973-18097-16265-11053-13103-18445
1995.02-16638-3152 4680-5519-16924-15197
1997.91-13231-14576-14777-16787-21434-23927
2000.80-22103-21090-21928-20961-21734-20994
2003.69-13955-6564-5199-10373-24124-29189
2006.59-21248-17024-19886-20215-16227-11798
2009.48-19161-32044-32254-23469-21114-20340
2012.37-13502-7623-8903-12294-17442-18501
2015.27-18143-22171-24754-22534-17044-8658
2018.16-6153-9844-12489-8967-4019-1649
2021.05 1021 3374-2725-9281-7239-789
2023.94 4772 4805 596 92 1632 5533
2026.84 3580-2448-4707-1707 4729 7240
2029.73 3187-2350-5116-3813-1552 7447
2032.62 23263 29378 22036 12644 3832 1622
2035.51 1903-1837-5546-7718-6285 1429
2038.41 6205 6932 6163 1810-3322-1991
2041.30 2916 4551 2576 10664 15899 1217
2044.19-13411-15787-14732-9202-1905 842
2047.09 403 6297 15864 13216-1788-8327
2049.98-4721 774 4345 3297 606 2732
2052.87 2208 1073 4916 4378-168-3371
2055.76-5879-499 5214 2058-1312 4340
2058.66 8628 5776 4196 7146 8553 5808
2061.55 346-4161-1131 5404 2783 2989
2064.44 13412 17722 13039 13749 15933 15329
2067.33 15226 10384 4806 5903 9352 23332
2070.23 37247 38342 39598 39521 30112 30239
2073.12 41672 43897 39110 43002 50670 56683
2076.01 56093 45307 29586 28492 39287 43393
2078.91 45766 54832 60663 58554 46873 28699
2081.80 26421 49006 66869 63829 54058 58088
2084.69 72538 72845 57582 61198 79004 81463
2087.58 78788 87018 97353 101751 97824 99370
2090.48 112331 126367 141214 157485 170899 180074
2093.37 183000 182027 184765 206801 233712 256980
2096.26 282856 302653 317616 336874 348885 366300
2099.15 410346 461116 503920 539867 571597 604705
2102.05 627674 642848 683290 742082 786070 820808
2104.94 858235 895736 915407 909787 904962 932922
2107.83 965994 980504 992788 1015807 1035613 1040927
2110.73 1034028 1051042 1102409 1140720 1153301 1148462
2113.62 1125830 1092826 1051447 1014623 1011018 1020303
2116.51 1022982 1034472 1057205 1081058 1090275 1089344
2119.40 1125730 1199036 1251308 1281362 1313257 1359747
2122.30 1401863 1417381 1447660 1519890 1597976 1664100
2125.19 1724527 1785987 1832684 1840715 1836826 1875047
2128.08 1928708 1969642 2022458 2087931 2157658 2228998
2130.97 2277728 2286972 2261208 2242148 2251932 2268841
2133.87 2285487 2313492 2373055 2500341 2688855 2901935
2136.76 3099935 3188379 3066886 2721424 2271419 1925773
2139.65 1743562 1657428 1622165 1619809 1634482 1653560
2142.55 1673467 1695107 1705662 1682523 1624603 1539331
2145.44 1420982 1281399 1144946 1021404 914261 828855
2148.33 758088 711494 694904 676770 650801 641992
2151.22 640099 632219 620807 610912 600210 581030
2154.12 566878 570602 570228 564583 559422 541486
2157.01 503371 450148 405283 385331 375220 359962
2159.90 332456 303468 267799 222174 213804 235073
2162.79 232658 212103 193262 169909 124534 90619
2165.69 96533 106626 99169 81722 64600 39908
2168.58 3356 2902 31706 40700 28607 13584
2171.47-10008-41895-38808 4099 31609 39826
2174.37 48836 49957 21417-4628 23267 62715
2177.26 63790 61988 72620 43442-7639 2485
2180.15 39297 41316 34368 32795 15512-6049
2183.04 2654 25420 37030 41502 35241 8616
2185.94-27280-25432-1156 494-10508-20774
2188.83-41856-68213-70361-54845-51727-55922
2191.72-59935-79077-113751-120894-105580-97983
2194.61-90148-88237-103175-115411-104061-85212
2197.51-84312-97204-105217-110158-109071-93599
2200.40-89403-97072-100040-99443-102681-98700
2203.29-84776-82769-90802-88076-84389-92182
2206.19-94591-82892-67743-64248-72881-78788
2209.08-78660-70677-67457-76412-84072-81672
2211.97-75601-72758-73250-66404-58493-59261
2214.86-62478-60404-53081-45526-46443-59175
2217.76-73104-72589-59534-52376-50903-42815
2220.65-36181-36866-38693-41622-46804-52150
2223.54-57271-58469-51332-44620-51672-61033
2226.43-54368-38152-32985-38123-42652-46516
2229.33-54517-49166-36447-32099-28103-26173
2232.22-29042-30913-33231-34141-30479-25818
2235.11-30057-36882-37563-37573-31539-20033
2238.01-15546-20898-35370-42730-34222-21527
2240.90-11430-10294-22821-23267-12987-17360
2243.79-24552-18244-12413-13667-16591-19351
2246.68-24532-26678-18346-8256-6048-3285
2249.58 2029 450-9305-6494 7579 6334
2252.47-3531-3826-1878 3565 8387 8702
2255.36 7386-1495-12182-13143-9228-7186
2258.25-9873-13542-10274-3521-802 5385
2261.15 5071-2877-1346 2425-4260-2924
2264.04 11981 14214 4850 2195 7015 9091
2266.93-3443-13647-9316-11857-22673-19207
2269.83-4132 12088 14197-3264-23811-30425
2272.72-21753-9778-9485-13964-11493-6937
2275.61-8999-6494 2985-274-16161-24046
2278.50-22241-19484-18456-15683-14949-17186
2281.40-14974-14392-17842-19993-22889-17219
2284.29-12555-18362-14906-2502 3082-1985
2287.18-15267-21836-20880-17636-13900-14019
2290.07-19690-20871-14849-9354-6584-4095
2292.97-2338 602 2959 3648-1799-10178
2295.86-13444-9988-5466 581 3660-4037
2298.75-9270-980 5095 80-6008 184
2301.65 9798 9890-1744-11475-12801-3663
2304.54-489-5535-2405 17623 32312 18084
2307.43 369 9419 25208 11259-8623 5478
2310.32 43381 59875 33669 21456 58086 81961
2313.22 44352 17776 57515 107356 84177 47856
2316.11 80064 141891 119053 50359 71762 154666
2319.00 142598 67862 91740 193369 183776 93117
2321.89 120432 233028 209986 93932 130414 270034
2324.79 242132 120198 180210 326114 269875 132090
2327.68 211844 351461 256222 135859 276381 405907
2330.57 264293 172496 340112 402469 221837 207362
2333.47 404084 383478 205892 285805 441873 318659
2336.36 213194 371644 408149 216260 231377 404648
2339.25 320414 188891 324478 395842 241542 224800
2342.14 330700 253840 160595 234627 238289 137869
2345.04 158098 206751 141908 102226 128860 109260
2347.93 56738 38142 56238 76945 79282 109531
2350.82 163219 150890 155689 243881 236744 207933
2353.71 308821 306978 247177 351576 362250 298866
2356.61 408071 402758 332080 448592 422805 361120
2359.50 477722 427139 396595 489575 393793 405634
2362.39 480027 384515 430815 444988 378188 432677
2365.29 376312 352289 379626 310245 337157 320403
2368.18 281383 298417 254837 255957 238757 220646
2371.07 214302 174867 173407 153723 142285 132302
2373.96 114277 101420 91350 91636 72898 64923
2376.86 65622 58287 40927 27215 25733 27566
2379.75 22218 23344 24357 8496-4885-1281
2382.64 1850-584-2926-3814 458 8957
2385.53 7332 1395 977 1144 2795 6950
2388.43 3963-741 2009 1892-2953-1035
2391.32 4118 6631 6762 76-1934 10144
2394.21 17061 12122 10226 15246 14707 8998
2397.11 9834 13924 14952 19448 19918 14785
2400.00 17281 23032 17810 14620 24331 31229
2402.89 27427 23031 18285 16708 22688 31060
2405.78 33085 30866 24154 17231 25129 40118
2408.68 48881 44752 36208 41684 47508 50002
2411.57 52976 54942 63859 66327 56767 58185
2414.46 70131 79917 78993 77150 88881 105126
2417.35 117596 120669 121639 126704 129180 137270
2420.25 146747 156012 175939 200758 217966 229236
2423.14 241454 252829 266966 293154 313832 322277
2426.03 336085 359101 386997 408173 422310 450765
2428.93 488049 515940 547921 591836 634442 675151
2431.82 720117 759615 790555 833800 888470 939411
2434.71 981478 1017825 1066888 1129336 1188861 1247341
2437.60 1303758 1362795 1431678 1508929 1585231 1657560
2440.50 1740586 1839976 1942587 2036121 2126522 2244818
2443.39 2400566 2547847 2647386 2706841 2745817 2790703
2446.28 2868752 2990134 3117417 3185998 3189489 3248134
2449.17 3508953 3968114 4441573 4764420 5044792 5381334
2452.07 5383993 4589884 3400651 2617551 2363532 2357627
2454.96 2430276 2525260 2624831 2720059 2800195 2858020
2457.85 2884269 2881523 2853081 2781645 2669101 2545237
2460.75 2410136 2257733 2091106 1915723 1755970 1620259
2463.64 1495581 1391744 1319599 1268195 1227920 1193297
2466.53 1154454 1118137 1087708 1056171 1016496 964558
2469.42 901696 838232 780003 718049 648196 599417
2472.32 579392 563872 544780 528557 517401 509459
2475.21 500659 486287 468826 450217 424692 393541
2478.10 361260 335716 315405 297761 279761 254405
2480.99 230413 219502 214506 213001 211673 204410
2483.89 193322 189565 190306 188095 187771 191886
2486.78 200363 204937 198212 192905 195868 197971
2489.67 191241 191180 197002 196603 199284 208700
2492.57 208312 196615 181895 174252 183685 199464
2495.46 212941 224559 226996 228049 223513 212501
2498.35 215436 225244 224093 226402 233853 234979
2501.24 234145 235396 235538 242133 255296 267708
2504.14 281122 293040 290848 281871 284613 302161
2507.03 321305 330285 330499 328225 327095 326215
2509.92 321623 323613 334774 341864 339009 333505
2512.81 329934 325662 317668 307024 302375 300950
2515.71 301335 309434 314122 313106 310422 310841
2518.60 314591 313139 313883 319515 314710 299516
2521.49 291395 289976 282344 275707 272094 262186
2524.39 253031 248617 238023 230904 232757 237063
2527.28 238056 233110 233840 235843 226781 215771
2530.17 215355 224005 225471 216971 214896 224328
2533.06 236264 240460 237794 240216 244237 245489
2535.96 252244 263287 263275 256427 254979 257013
2538.85 265009 275082 268017 244913 228599 234987
2541.74 246509 248838 243677 238222 235559 232568
2544.63 228573 226142 224797 223790 224933 224919
2547.53 222102 218972 212045 202524 194457 187921
2550.42 183188 178584 173808 175265 176665 169926
2553.31 160138 147280 138008 140345 140049 134695
2556.21 139062 139265 122497 105900 101931 105599
2559.10 108991 106257 94857 87066 83144 80290
2561.99 72513 63553 60070 53934 37691 24799
2564.88 24664 30362 29683 18424 10738 12028
2567.78 8098 3386 8013 14365 16445 16058
2570.67 3770-9954-8944 2800 11538 7341
2573.56 1347-885-7563-11084-4643 4351
2576.45 765-13748-24221-23271-16035-11095
2579.35-10193-3464 1290-5565-9330-6388
2582.24-9742-9060-7716-15339-23109-24317
2585.13-26035-26122-23587-22225-13383-8094
2588.03-12479-12721-19987-31219-29177-20044
2590.92-17855-22893-19607-11553-19225-25883
2593.81-20468-17093-17643-14130-5739-248
2596.70-5602-13209-21439-27253-22947-9470
2599.60 677 4141 11263 11077 1637-5225
2602.49-3692 2380 1692 2066 5803 10074
2605.38 19983 27344 26840 26511 23207 13028
2608.27 7380 8244 4934 5251 10656 9897
2611.17 9409 12429 6989 1174 4397 6224
2614.06-844 457 11469 12695 3621-6357
2616.95-9436-1369 1801-6787-17622-23458
2619.85-22286-20079-18382-13378-8439-12189
2622.74-17537-16808-10240-3595-5777-7929
2625.63-4367-1129-2654-8286-13511-11099
2628.52-9328-12621-19314-22322-16978-11722
2631.42-10361-8125-3355 1595 5213-4617
2634.31-24574-21089-4606-8513-17686-15822
2637.20-12349-4608 2555 2915-195 1302
2640.09 5635 2562 1750 12990 18895 13310
2642.99 2043-2933 15347 34167 26919 15322
2645.88 10640 9847 11171 12133 13391 22484
2648.77 33554 37239 38041 36902 41109 48854
2651.67 49036 57225 71257 67842 56261 51752
2654.56 53049 66504 77023 82039 86295 85045
2657.45 81779 84394 86316 91969 106921 117278
2660.34 118878 118394 115753 105807 99131 110340
2663.24 118632 116279 114085 115459 121776 129397
2666.13 139558 152006 158188 155756 155041 169529
2669.02 186017 182180 165210 147413 129967 124020
2671.91 133971 132166 115378 105815 106198 104010
2674.81 94346 93408 99945 98770 95099 92515
2677.70 84370 77521 71777 68789 68936 64357
2680.59 60491 60397 54998 44940 36302 28058
2683.49 28227 29770 24356 25545 19696 7880
2686.38 9771 15210 9276 3040 7818 7208
2689.27-3557-4808 2678 2001-12416-14943
2692.16-2823 5740 4405-6145-17771-24612
2695.06-23175-25920-30805-24217-24417-28727
2697.95-21559-18381-27381-31367-32244-37853
2700.84-36530-23170-17497-21307-19388-13200
2703.73-13024-14773-8503 1459 5425 10376
2706.63 20595 19651 6676 789-101 2513
2709.52 9532 12389 12550 9331 3756 7912
2712.41 1989-23169-35852-25048-22983-44519
2715.31-56384-34278-4465 2205-9315-13266
2718.20-1289 5634 2230-7652-22298-27018
2721.09-28168-30659-28137-22531-15759-16036
2723.98-14507-4318 5507 5958-7416-16053
2726.88-21942-28247-27713-29315-28661-25005
2729.77-27133-30914-29986-27280-30522-30849
2732.66-29369-25454-12979-10277-15005-12418
2735.55-15334-20016-24883-32006-26440-9555
2738.45-10606-27396-28506-11522 486-1801
2741.34-9118-11694-15670-32183-51435-48276
2744.23-31467-33933-46093-45295-46187-42374
2747.13-15082 30794 80621 92412 41413-8565
2750.02-16433-6672-6070-26430-46363-34419
2752.91-15017-12648-17359-14966-3766 4576
2755.80 1368-5986-4985 1489 3348 5321
2758.70 12297 24725 32717 35212 40787 37307
2761.59 22248 19936 27543 29164 15531 4749
2764.48 9480 12774-1359-29929-73998-126344
2767.37-171955-189528-155037-75235-2871 16491
2770.27-965-4464 20061 50641 59660 51748
2773.16 46867 44950 40970 39710 37201 32326
2776.05 27707 26986 32630 33038 23762 16565
2778.95 18181 19397 7778-7060-4837 6493
2781.84 6598 7643 19483 27479 15099 4888
2784.73 11093 15033 14090 9855-1997-9876
2787.62-5690 14737 24750 11709 9147 20111
2790.52 31974 44337 55328 61120 69414 86560
2793.41 94276 94954 92236 92227 98030 111205
2796.30 132391 149220 155142 158119 163509 168036
2799.19 179535 194573 200013 208499 219702 221791
2802.09 222117 227549 227623 227244 242643 257634
2804.98 255320 266084 294355 305276 296577 289809
2807.87 299654 335247 356268 330830 293508 283176
2810.77 291795 299072 303689 311397 321212 331501
2813.66 349494 374912 396604 406912 413988 430845
2816.55 451610 467265 474051 481930 500648 523975
2819.44 542023 559935 582069 598028 603016 610581
2822.34 619229 615942 606486 596962 593277 598768
2825.23 606751 615311 630646 662476 690514 704615
2828.12 740246 796829 822148 796878 727757 648437
2831.01 587480 555755 552305 573003 606307 641255
2833.91 680387 714823 734763 742615 739612 735412
2836.80 727543 697856 652456 606310 556798 520500
2839.69 510178 518528 531544 539429 557938 584829
2842.59 599406 602976 593125 580391 583492 597040
2845.48 607646 614834 609646 592571 576658 573356
2848.37 598479 644065 669182 662119 648556 648042
2851.26 656339 669919 686497 702476 702985 694457
2854.16 701962 729776 749701 752476 769829 811469
2857.05 856403 889881 908871 922635 942081 971730
2859.94 1001223 1014009 1018224 1040032 1072355 1099373
2862.83 1123951 1155021 1179458 1204828 1237047 1282293
2865.73 1334963 1369381 1387587 1411454 1438988 1465256
2868.62 1497373 1521927 1524929 1515788 1500422 1473026
2871.51 1458373 1467123 1465572 1455462 1445468 1427673
2874.41 1405328 1377330 1337376 1313298 1309876 1301719
2877.30 1285905 1273649 1273329 1279900 1278989 1274702
2880.19 1267753 1257175 1251106 1246181 1234062 1216723
2883.08 1201862 1217762 1251947 1260012 1246907 1233355
2885.98 1201010 1166431 1162223 1180273 1199540 1200406
2888.87 1176367 1159222 1171540 1190711 1218027 1241907
2891.76 1228735 1210285 1212226 1234482 1266740 1273950
2894.65 1256217 1237394 1214852 1195618 1174096 1148096
2897.55 1126821 1097311 1053256 1013523 979250 955792
2900.44 946312 935583 930751 931735 920208 900471
2903.33 870395 843991 828344 816651 790051 746292
2906.23 713407 689762 665608 648260 629389 611596
2909.12 589277 559954 534764 519291 506913 485951
2912.01 452799 423122 408083 399101 384898 370151
2914.90 347039 317877 293460 275889 251447 238796
2917.80 237092 221289 194651 177068 162988 151105
2920.69 152658 162156 158677 141510 116857 109232
2923.58 116711 125175 130934 132304 127139 127726
2926.47 138695 166207 200880 238619 273675 315185
2929.37 375858 442392 504347 584472 690805 831273
2932.26 993956 1160377 1344122 1562531 1801500 2075242
2935.15 2378610 2689158 3007970 3358239 3724424 4086593
2938.05 4446133 4809178 5156763 5474469 5738220 5947917
2940.94 6102881 6206392 6248134 6246980 6196699 6104641
2943.83 5961911 5697632 5259323 4759563 4317396 3940152
2946.72 3626969 3518834 3811093 5075128 8704614 16964840
2949.62 33173329 44521733 32412885 13247527 5194717 3450067
2952.51 3135778 3296976 3676582 4149686 4647538 5131315
2955.40 5593208 6025620 6412143 6713010 6926498 7043582
2958.29 7088028 7062079 6950959 6752655 6490342 6161487
2961.19 5798095 5449246 5096083 4686004 4258573 3831104
2964.08 3420422 3043709 2697228 2368674 2073947 1818603
2966.97 1607225 1418625 1243728 1085309 963883 880049
2969.87 806620 735361 673410 618623 567218 514575
2972.76 475378 444423 424921 417993 417369 418922
2975.65 409880 375327 350372 348517 355385 366472
2978.54 381634 376728 352719 340721 353730 369770
2981.44 380579 380164 376182 375059 390960 418085
2984.33 425338 414641 420584 436906 456056 483065
2987.22 507704 522959 554300 602411 649472 684940
2990.11 721291 774824 847849 925892 1006031 1084813
2993.01 1177142 1304176 1471467 1655001 1864789 2132932
2995.90 2454539 2831821 3282949 3818159 4463239 5225987
2998.79 6115387 7141770 8323903 9654337 11123023 12715406
3001.69 14401615 16118666 17797464 19393938 20892758 22259123
3004.58 23444675 24370756 24971359 25198464 25035220 24516159
3007.47 23740326 22844498 22038626 21586722 21801438 23064098
3010.36 25780962 30209678 36133950 42380840 47255000 48496668
3013.26 45301658 39625691 33306188 27800854 24009003 21935088
3016.15 21260999 21585000 22523891 23726917 24887417 25812442
3019.04 26410663 26618902 26393590 25747200 24709216 23349532
3021.93 21751325 19980146 18107912 16215652 14352705 12557190
3024.83 10877453 9349174 7962135 6712004 5620329 4681858
3027.72 3872366 3179146 2596187 2114851 1719668 1399991
3030.61 1139706 921588 751076 624817 516753 422069
3033.51 341217 277820 233898 193706 159637 144996
3036.40 142330 136149 119006 95406 83833 78990
3039.29 70659 64600 58851 57391 58390 56027
3042.18 57540 67418 75037 79234 85842 83514
3045.08 72313 60908 54336 57266 65272 75103
3047.97 88826 96374 92922 77339 55326 46191
3050.86 44801 37255 30842 32739 31222 25576
3053.75 26748 38293 43229 36342 42930 58214
3056.65 57631 39045 12675 4266 24128 41572
3059.54 42446 34037 27957 20540 2533-11214
3062.43-1175 24265 38677 31948 23072 28439
3065.33 30376 19255 10444 5913 1750 8439
3068.22 16135 11487 7342 8946 8876 8497
3071.11 3302-14354-29473-25934-10891-2805
3074.00 5672 28309 46450 41261 22311 9175
3076.90 1337-6576-4151 6128 7177-2265
3079.79-11905-28873-36400-26046-27732-29678
3082.68-13310 5074 14028 8484-3256-15085
3085.57-21154-21803-19561-15031-14772-10780
3088.47-2764-7175-19760-21081 2684 32227
3091.36 36355 27400 14753 6165 8418 16873
3094.25 24727 21414 17369 9649-12659-16161
3097.15 8762 13762-4740-17389-13289 2975
3100.04 1816-15309-13612-4598-9200-20321
3102.93-21471-8637 6519 9991-1587-15463
3105.82-20836-30831-42980-32765-12665-12582
3108.72-22254-13878 120-12396-41946-62224
3111.61-51597-14019 9543 5399-13091-23387
3114.50-14619-9670-15514-25664-26085-6703
3117.39 5384 1831-8672-29092-37594-25583
3120.29-14526-21239-33987-31649-31196-27731
3123.18 1968 20293 2298-17523-23991-28372
3126.07-17861 1463 1272-14994-24209-26396
3128.97-30366-26552-13946-11379-15291-18521
3131.86-19473-26133-33390-19772 4772 12994
3134.75-1224-13596-11839-10868-13672-10641
3137.64-6177-1464-8200-24318-23226-12918
3140.54-7197-6654 3569 24637 24811 7181
3143.43-7375-15853-13116-15684-25571-22067
3146.32-1800 17244 18914 11494 3138-2375
3149.21-4799-2661 6271 16029 25764 35772
3152.11 37661 36874 38901 36347 38150 38203
3155.00 27680 25949 29393 34733 37776 29114
3157.89 31860 35487 24401 25557 38718 50766
3160.79 58358 66558 74787 70275 64736 64595
3163.68 63999 70035 79039 74959 67028 73229
3166.57 83395 84030 92195 110906 126410 129500
3169.46 124670 110345 99212 102037 111424 128832
3172.36 144031 149270 143949 141174 144606 139598
3175.25 142186 155756 169370 179747 185712 197286
3178.14 215745 219106 209195 211890 222628 228042
3181.03 223811 204355 185328 191490 205874 205323
3183.93 194276 188988 201268 224689 246799 255669
3186.82 257154 278715 302986 309641 296347 265095
3189.71 243705 233458 211996 200858 200513 192300
3192.61 195239 196581 196925 208924 201842 185852
3195.50 193905 198727 173658 135794 119925 122814
3198.39 111968 108653 126563 137400 124934 111913
3201.28 114358 114201 94370 75948 79778 77105
3204.18 59225 57033 66137 71788 75697 76684
3207.07 78561 91452 105201 103907 96766 84744
3209.96 65404 57023 64275 71299 74336 76548
3212.85 81411 79410 67837 63622 67091 74930
3215.75 72768 62271 61644 70962 81168 73888
3218.64 58910 54894 48578 30907 21643 26734
3221.53 38685 42402 35659 24700 14208 10476
3224.43 14399 22024 19914 9420-1405-4200
3227.32 4718 26960 38461 23356 16047 30900
3230.21 39700 39504 33018 36337 49255 48776
3233.10 45271 53986 79008 110689 123308 112745
3236.00 110111 124342 139383 148925 164798 190472
3238.89 213208 230961 254969 280484 300989 312651
3241.78 314017 318258 336240 360476 376982 371755
3244.67 358874 369469 401083 423235 426849 431527
3247.57 447948 468731 493592 501800 486641 474298
3250.46 463117 438716 422100 423524 414602 408848
3253.35 433532 469543 495969 512252 517006 500945
3256.25 460754 418495 385853 350589 321027 298009
3259.14 283308 285404 284584 268073 249516 234525
3262.03 220448 213238 201167 167828 143403 137031
3264.92 129238 122797 115090 99741 87654 81219
3267.82 64384 47743 47555 52648 48972 52994
3270.71 64888 62994 47386 27440 25126 34820
3273.60 42703 51764 56385 51597 47628 54235
3276.49 66476 71744 72538 78632 87977 99454
3279.39 104145 99858 114590 142138 160790 171749
3282.28 182080 204720 227681 238635 246244 249631
3285.17 240132 223624 226488 259819 307599 341172
3288.07 351196 366347 407210 442032 447481 452874
3290.96 471474 476616 470708 470599 466201 474018
3293.85 519331 555181 533738 499809 487998 473433
3296.74 455931 426571 397182 398963 410083 427457
3299.64 452561 479058 496919 489997 452763 407193
3302.53 378050 352567 310389 256258 225895 220960
3305.42 216602 212866 216383 234569 240469 209820
3308.31 186413 187104 189216 186673 180916 177253
3311.21 171081 145261 109150 85076 70770 59280
3314.10 61354 67302 52536 26572 18216 19612
3316.99 10370 1858-683-2506-7441-29539
3319.89-50282-53151-43519-35754-28523-8861
3322.78 2273-8014-10194-6315-18906-25723
3325.67-20933-14664 1035 6964-9772-26807
3328.56-23053-6852 1992 8956 19037 13204
3331.46 7987 28569 43164 41513 49084 62004
3334.35 62655 60178 73242 94837 125170 164150
3337.24 203599 227115 230688 236843 266868 307032
3340.13 335762 365310 403722 443368 472854 488988
3343.03 526538 589014 638421 677118 701639 699095
3345.92 706795 740182 769285 791939 811619 828086
3348.81 853906 882247 905090 927815 961281 1035883
3351.71 1152733 1272262 1353781 1371871 1341209 1324172
3354.60 1382215 1526799 1717167 1844728 1784327 1593829
3357.49 1447385 1360461 1260489 1169835 1120507 1078266
3360.38 1037687 1003474 958221 912113 890646 886966
3363.28 873847 840866 814485 786578 747486 723828
3366.17 706103 673522 638576 613810 586886 547698
3369.06 507951 482678 447858 389809 342451 319640
3371.95 307118 282869 252274 221948 183430 153378
3374.85 138884 126519 118210 115875 102054 76529
3377.74 58433 50069 36501 43237 62032 44869
3380.63 7407-16407-10817 4176-3334-21728
3383.53-42543-42779-19299-12697-21078-28368
3386.42-31929-33029-30792-27874-31210-42290
3389.31-46250-36782-29375-32715-36421-37476
3392.20-49187-55169-38776-26787-30780-35303
3395.10-33185-27327-38495-60174-62485-55797
3397.99-49875-43782-35858-34303-34601-30316
3400.88-42594-54044-45395-37326-42724-54183
3403.77-54679-46856-53122-55228-37647-41645
3406.67-61894-54756-34837-33266-34678-38204
3409.56-43830-36541-37978-44015-34293-21471
3412.45-28554-50594-52817-34792-28039-27859
3415.35-25252-26200-29656-43060-59671-64512
3418.24-54640-43464-50961-59752-51926-50163
3421.13-67904-73584-48250-27760-21641-12534
3424.02-11823-30908-47267-35838-28894-49994
3426.92-68520-63378-45518-44746-58867-55719
3429.81-36613-33541-45789-54278-51276-36612
3432.70-30558-36360-28482-10259-1383-5753
3435.59-929 7549-8956-31959-35055-28593
3438.49-32618-52389-70852-68644-49463-38243
3441.38-45822-50990-48420-49115-51100-49643
3444.27-35172-19965-21437-13086-1553-9147
3447.17-17734-23537-36061-51843-68599-74821
3450.06-64130-53277-41656-26282-15147-12120
3452.95-13636-24464-42962-48208-35924-12423
3455.84-456-13991-25961-24298-11720-6792
3458.74-24397-38397-29619-10736 1710 5419
3461.63 7425 12973 22795 24680 20666 14741
3464.52 6506 3078 2302 9852 12380-43
3467.41 10587 39684 43926 36630 31391 15250
3470.31 2834 4027 12940 32540 40952 36147
3473.20 49076 65977 78590 80482 64427 62469
3476.09 84485 88938 68093 35890 6782 8471
3478.99 21275 20469 20568 28393 30649 29250
3481.88 31359 32139 26792 22043 20041 19907
3484.77 30130 31764 26337 37171 48702 38271
3487.66 26808 38063 47825 42173 46528 48857
3490.56 24578 7838 16355 29002 41825 47869
3493.45 30707 9723 15754 28746 36721 44257
3496.34 37246 15196 7716 33435 63411 71864
3499.23 71631 61945 40382 22104 11715 4811
3502.13-744-510 14239 11191-9562-5482
3505.02 19891 36628 33136 21607 16786 26810
3507.91 25211 4482 3202 17361 27391 20225
3510.81 5245 4166 8571 19152 31580 25991
3513.70 11159 11063 20910 24091 28459 42407
3516.59 53310 54982 55783 63966 72731 64485
3519.48 54167 35953 22564 41606 46882 48989
3522.38 85837 117778 125827 133893 144840 154194
3525.27 164656 160275 140629 134513 148353 175313
3528.16 200459 208680 203858 202855 218183 233270
3531.05 242162 256312 255714 244162 240116 234112
3533.95 238543 250028 255049 258504 264797 287150
3536.84 313956 320605 311705 300704 293359 292551
3539.73 299572 297401 278721 266819 272338 259704
3542.63 223987 218713 240300 254688 252505 235295
3545.52 222229 208151 187103 177263 186038 195282
3548.41 177775 141512 124652 135962 140624 119495
3551.30 87275 78241 91151 85908 58599 37836
3554.20 41538 49670 43882 47472 51942 23991
3557.09 8040 30911 48176 44303 21391 13517
3559.98 32296 28735 16825 27332 25204 7808
3562.87 6165 1731-15042-15272-107 11202
3565.77 11621-2452-21221-28723-10554 17825
3568.66 23059 12235 5715 7891 17406 32632
3571.55 43370 32311 12913 732-11953-18122
3574.45-14630-6269 10407 20992 16519-2692
3577.34-22090-23724-18207-17500-21519-31121
3580.23-36703-28859-21847-16806-13197-15110
3583.12-9730-12669-17938-6233 19-11944
3586.02-32126-46134-42414-41886-59697-63218
3588.91-43324-28279-25598-24294-20513-14108
3591.80 246 1692-6722-2799 3650-8568
3594.69-34993-41742-15807 4567-3043-19831
3597.59-36371-52273-60986-49944-26728-22880
3600.48-28542-20330-16798-16690-8894-10721
3603.37-26867-40486-38523-33686-36814-33788
3606.27-31695-31590-27566-16067-3047-1023
3609.16 1228 1696-8289-25476-46065-67566
3612.05-86365-74790-45749-43375-47242-38662
3614.94-38094-39817-37186-44255-56864-60249
3617.84-51184-39920-44161-55980-49520-31267
3620.73-12203-533-7626-26267-47232-48621
3623.62-31220-19955-10134-19572-47613-54099
3626.51-32744-19324-40141-60002-68686-102678
3629.41-100278-47068-25001-36238-43863-34195
3632.30-22244-27268-36494-27530-11075-11660
3635.19-19313-22901-22214-18238-25255-29809
3638.09-26629-32555-38462-21377 5512 7769
3640.98-18708-42760-43395-32084-25464-27213
3643.87-23974-16157-21555-31246-22120-9417
3646.76-16893-30675-45605-78223-102835-81475
3649.66-65092-76047-74395-52543-23765-8178
3652.55-18504-33740-29582-33104-50471-49567
3655.44-54117-74207-69300-49297-40696-37025
3658.33-27087-26545-33426-24895-12344-7357
3661.23-11353-18697-22187-20316-17143-21203
3664.12-22650-16689-14526-12621-3681 5866
3667.01 11981 2768-32057-51506-31321-23205
3669.91-65969-86877-41163-98 3686-2865
3672.80-812-2886-11735-17508-19888-41536
3675.69-47470-10944 8734 13165 24474 22558
3678.58 9594 7687 10159 4119 2406 4908
3681.48 6677-744-12602-20929-25516-22284
3684.37-28195-39266-34225-28642-32121-46379
3687.26-81833-124291-116225-70468-41254-18582
3690.15-13934-39060-60487-56671-45135-43964
3693.05-38761-19753-9801-14320-19219-14660
3695.94-10576-17615-21145-10862-4866-18000
3698.83-31008-30345-33088-30319-24630-39293
3701.73-46027-31995-20755-22018-35827-46972
3704.62-56620-68835-66347-37974-17531-28677
3707.51-43706-47114-51504-55826-55376-56473
3710.40-48965-45322-74521-103312-89635-56246
3713.30-32984-26216-29170-27487-20498-20236
3716.19-25340-33916-39526-31427-20849-20378
3719.08-18472-3728 281-16424-18636-5424
3721.97-2974-14265-22027-3626 21862 25598
3724.87 13783-9232-31729-23826 2480 23936
3727.76 38572 32630 25441 31432 33888 37875
3730.65 39928 19103-5974 4030 34594 42004
3733.55 26619 8209 1192 4098-11460-46528
3736.44-35474 9360 22408 16973 16770 12939
3739.33 8729 10719 11122 14930 30574 41312
3742.22 27228-146-38308-106236-143291-96440
3745.12-38927-20967-9672 2528-537-14335
3748.01-41437-92733-112753-66014-26891-22471
3750.90-44769-106716-133003-87738-52124-32759
3753.79-21764-40591-63072-69911-68761-61499
3756.69-46436-34250-35172-42635-44445-57102
3759.58-69782-49622-24607-25752-42569-54739
3762.47-46331-36088-45504-52684-53664-64409
3765.37-69125-65321-59963-49502-39625-39324
3768.26-50747-71903-81592-57314-33341-33696
3771.15-36235-37338-41632-44918-37879-28079
3774.04-39526-49104-35991-35902-54456-70033
3776.94-72577-66929-64172-71620-85321-78160
3779.83-51242-36957-39052-36635-31146-40600
3782.72-53283-52277-46378-40362-41531-49620
3785.61-53568-44388-28280-24058-29650-32110
3788.51-36711-37784-29919-30498-34284-21981
3791.40-13835-25608-39482-42041-41838-46843
3794.29-52619-46307-36408-40485-46803-45103
3797.19-38998-28839-18837-22553-29409-31209
3800.08-54095-109208-125158-77489-39814-22910
3802.97-14386-20981-21156-10657-18308-44577
3805.86-81754-119195-106127-59496-36857-34761
3808.76-30446-21256-16452-3175 16711 17372
3811.65-1640-12600-8014-3496-9355-22026
3814.54-28375-53799-99540-74212-3230 25561
3817.43 14665-14804-26579-14117-15899-41285
3820.33-55012-52043-45923-22306 8615 19928
3823.22 9152-9009-17258-21188-26470-11872
3826.11 10840 27211 30438 14851 15925 39628
3829.01 47987 44791 50302 40580 12720 4191
3831.90 4039 2186 18043 24217 5368-16390
3834.79-19916-9533 1705-2607-41858-87695
3837.68-70226-24750-8114-5562-8959-15713
3840.58-17354-15599-15269-14000-26026-50402
3843.47-60015-51074-44964-45681-41165-30734
3846.36-34557-47382-60192-66094-53089-39296
3849.25-34160-34667-47368-74451-110246-108059
3852.15-68804-61004-109170-164233-140430-79826
3855.04-43500-29803-38474-48762-51667-46124
3857.93-36145-41917-56046-53110-38747-31383
3860.83-46535-62865-48612-36539-51985-62836
3863.72-62212-75449-88474-74870-53140-48719
3866.61-59014-66193-64814-64417-70387-82147
3869.50-89841-70814-49035-41210-36458-35577
3872.40-39838-46211-44632-43628-41850-36112
3875.29-30225-18824-17960-28448-35474-42868
3878.18-47520-43968-50370-70978-71487-49730
3881.07-37374-40198-42084-27250-5967-2251
3883.97-13877-39431-73774-77722-45096-31600
3886.86-38003-31359-14528-5895-20703-38389
3889.75-42329-42568-39096-24347-14321-24571
3892.65-37601-47087-54381-37002-4701-8238
3895.54-31314-31640-24239-18651-19745-33236
3898.43-51824-59190-39453-20542-24987-34223
3901.32-22961 4120 18370 2580-35263-57516
3904.22-40165-18930-20697-33253-39462-19396
3907.11 4455 8397 12558 16608 17543 28087
3910.00 34386 19336 3768 12889 37253 40178
3912.89 24974 18853 20286 21519 20211 26253
3915.79 49812 59454 45378 45049 57975 57982
3918.68 48188 34575 41661 67171 67084 50467
3921.57 47679 55299 72936 82993 62371 38758
3924.47 49723 73197 69925 59676 68184 85903
3927.36 91444 96370 106578 95406 74517 78304
3930.25 95195 105753 112822 101994 87486 93050
3933.14 100574 103479 105342 112099 118722 118609
3936.04 119315 120055 113801 104580 108277 122257
3938.93 122561 118006 133047 144455 135132 132802
3941.82 148048 159095 159569 164751 179559 192172
3944.71 193725 187662 183047 195257 212739 219746
3947.61 216456 209955 204580 208119 220342 230740
3950.50 233008 231211 238919 237453 221458 216311
3953.39 223097 238568 251149 255518 267638 268729
3956.29 258879 259364 255663 233900 212606 205960
3959.18 201404 198736 211633 230830 240107 237945
3962.07 224173 209983 211550 224329 231114 228906
3964.96 219556 199304 181295 190563 219503 233075
3967.86 211598 181508 174971 178755 186007 194689
3970.75 192830 202106 231660 240569 218354 199413
3973.64 210265 233831
##END=
