##TITLE=1,1,1-TRICHLOROETHANE
##JCAMP-DX=4.24
##DATA TYPE=INFRARED SPECTRUM
##CLASS=COBLENTZ
##ORIGIN=W.T. BOLLETER
##OWNER=COBLENTZ SOCIETY
Collection (C) 2018 copyright by the U.S. Secretary of Commerce
on behalf of the United States of America. All rights reserved.
##DATE=Not specified, most likely prior to 1970
##CAS REGISTRY NO=71-55-6
##MOLFORM=C2 H3 Cl3
##SOURCE REFERENCE=COBLENTZ NO. 4474
##$NIST SOURCE=COBLENTZ
##$NIST IMAGE=cob4474
##SPECTROMETER/DATA SYSTEM=Not specified, most likely a prism, grating, or hybrid spectrometer.
##PATH LENGTH=0.0025 CM
##SAMPLING PROCEDURE=TRANSMISSION
##RESOLUTION=4
##DATA PROCESSING=DIGITIZED BY NIST FROM HARD COPY
##XUNITS=MICROMETERS
##YUNITS=TRANSMITTANCE
##XFACTOR=1.000000
##YFACTOR=1
##DELTAX=000.017455
##FIRSTX=14.419
##LASTX=37.9477
##FIRSTY=0
##MAXX=37.9477
##MINX=14.419
##MAXY=0.917
##MINY=0
##NPOINTS=1349
##XYDATA=(X++(Y..Y))
14.419000 0.0000 0.0000 0.0000 0.0010 0.0010
14.506337 0.0010 0.0010 0.0010 0.0030 0.0030
14.593000 0.0030 0.0030 0.0030 0.0030 0.0030
14.680337 0.0030 0.0030 0.0050 0.0050 0.0070
14.768000 0.0070 0.0080 0.0120 0.0160 0.0170
14.855337 0.0250 0.0280 0.0350 0.0480 0.0570
14.943000 0.0780 0.0960 0.1010 0.1170 0.1370
15.030337 0.1660 0.1870 0.1960 0.2140 0.2350
15.117000 0.2530 0.2820 0.3010 0.3190 0.3390
15.204337 0.3600 0.3820 0.4000 0.4160 0.4260
15.292000 0.4390 0.4550 0.4670 0.4750 0.4890
15.379337 0.4980 0.5050 0.5140 0.5190 0.5250
15.466000 0.5280 0.5330 0.5350 0.5390 0.5460
15.553337 0.5500 0.5580 0.5660 0.5780 0.5980
15.641000 0.6080 0.6210 0.6260 0.6370 0.6500
15.728337 0.6600 0.6710 0.6800 0.6960 0.7000
15.815000 0.7080 0.7140 0.7210 0.7260 0.7320
15.902337 0.7390 0.7440 0.7460 0.7460 0.7500
15.990000 0.7510 0.7550 0.7580 0.7620 0.7640
16.077337 0.7660 0.7660 0.7670 0.7670 0.7710
16.164000 0.7710 0.7730 0.7730 0.7750 0.7750
16.251337 0.7750 0.7760 0.7760 0.7760 0.7760
16.339000 0.7760 0.7760 0.7760 0.7750 0.7730
16.426337 0.7730 0.7710 0.7710 0.7690 0.7690
16.513000 0.7670 0.7670 0.7660 0.7640 0.7600
16.600337 0.7570 0.7550 0.7530 0.7510 0.7500
16.688000 0.7500 0.7480 0.7440 0.7420 0.7390
16.775337 0.7330 0.7300 0.7280 0.7230 0.7190
16.863000 0.7120 0.7050 0.7000 0.6980 0.6850
16.950337 0.6780 0.6710 0.6600 0.6480 0.6350
17.037000 0.6260 0.6230 0.6170 0.6120 0.6030
17.124337 0.6000 0.5980 0.5980 0.5960 0.5960
17.212000 0.5960 0.5960 0.5960 0.5960 0.5980
17.299337 0.5980 0.6000 0.6000 0.6000 0.6000
17.386000 0.6010 0.6010 0.6010 0.6000 0.5980
17.473337 0.5940 0.5910 0.5890 0.5850 0.5780
17.561000 0.5730 0.5690 0.5660 0.5620 0.5570
17.648337 0.5480 0.5390 0.5350 0.5280 0.5230
17.735000 0.5190 0.5160 0.5100 0.5030 0.5000
17.822337 0.4980 0.4870 0.4850 0.4820 0.4800
17.910000 0.4730 0.4690 0.4620 0.4580 0.4510
17.997337 0.4440 0.4350 0.4300 0.4250 0.4170
18.084000 0.4080 0.4000 0.3980 0.3870 0.3780
18.171337 0.3690 0.3570 0.3500 0.3370 0.3280
18.259000 0.3170 0.3030 0.3000 0.2890 0.2750
18.346337 0.2690 0.2620 0.2510 0.2480 0.2320
18.433000 0.2170 0.2080 0.2030 0.1960 0.1830
18.520337 0.1730 0.1670 0.1640 0.1550 0.1510
18.608000 0.1480 0.1390 0.1320 0.1210 0.1160
18.695337 0.1080 0.0980 0.0890 0.0850 0.0820
18.783000 0.0760 0.0750 0.0690 0.0600 0.0500
18.870337 0.0420 0.0390 0.0330 0.0300 0.0280
18.957000 0.0250 0.0230 0.0190 0.0190 0.0140
19.044337 0.0120 0.0120 0.0100 0.0080 0.0080
19.132000 0.0080 0.0080 0.0080 0.0080 0.0080
19.219337 0.0080 0.0100 0.0100 0.0120 0.0160
19.306000 0.0190 0.0230 0.0260 0.0300 0.0350
19.393337 0.0390 0.0440 0.0510 0.0640 0.0830
19.481000 0.0960 0.1000 0.1140 0.1350 0.1500
19.568337 0.1600 0.1800 0.2000 0.2190 0.2320
19.655000 0.2500 0.2760 0.3000 0.3080 0.3280
19.742337 0.3500 0.3620 0.3760 0.3980 0.4100
19.830000 0.4260 0.4390 0.4550 0.4660 0.4760
19.917337 0.4910 0.4980 0.5010 0.5120 0.5140
20.004000 0.5260 0.5460 0.5510 0.5510 0.5640
20.091337 0.5710 0.5800 0.5890 0.5980 0.6000
20.179000 0.6050 0.6100 0.6160 0.6210 0.6250
20.266337 0.6280 0.6320 0.6350 0.6370 0.6420
20.353000 0.6460 0.6480 0.6510 0.6530 0.6530
20.440337 0.6550 0.6580 0.6580 0.6600 0.6620
20.528000 0.6620 0.6620 0.6620 0.6620 0.6620
20.615337 0.6620 0.6620 0.6600 0.6580 0.6570
20.703000 0.6570 0.6550 0.6550 0.6530 0.6510
20.790337 0.6510 0.6500 0.6500 0.6480 0.6480
20.877000 0.6480 0.6480 0.6480 0.6480 0.6500
20.964337 0.6510 0.6510 0.6530 0.6550 0.6550
21.052000 0.6570 0.6580 0.6580 0.6600 0.6620
21.139337 0.6620 0.6640 0.6660 0.6670 0.6690
21.226000 0.6710 0.6710 0.6730 0.6780 0.6800
21.313337 0.6820 0.6830 0.6870 0.6910 0.6920
21.401000 0.6940 0.6960 0.6960 0.6980 0.7000
21.488337 0.7030 0.7070 0.7100 0.7120 0.7140
21.575000 0.7170 0.7190 0.7210 0.7250 0.7260
21.662337 0.7260 0.7280 0.7280 0.7320 0.7330
21.750000 0.7350 0.7370 0.7410 0.7420 0.7420
21.837337 0.7460 0.7480 0.7480 0.7480 0.7500
21.924000 0.7510 0.7510 0.7510 0.7530 0.7550
22.011337 0.7550 0.7570 0.7570 0.7570 0.7570
22.099000 0.7570 0.7570 0.7570 0.7580 0.7580
22.186337 0.7580 0.7580 0.7600 0.7620 0.7640
22.273000 0.7660 0.7660 0.7660 0.7670 0.7690
22.360337 0.7710 0.7710 0.7730 0.7750 0.7750
22.448000 0.7760 0.7780 0.7780 0.7780 0.7800
22.535337 0.7800 0.7800 0.7820 0.7830 0.7850
22.623000 0.7850 0.7870 0.7890 0.7890 0.7890
22.710337 0.7910 0.7920 0.7940 0.7960 0.7960
22.797000 0.7980 0.7980 0.8000 0.8000 0.8010
22.884337 0.8010 0.8010 0.8030 0.8030 0.8050
22.972000 0.8070 0.8080 0.8080 0.8080 0.8100
23.059337 0.8100 0.8120 0.8120 0.8120 0.8140
23.146000 0.8160 0.8170 0.8190 0.8210 0.8210
23.233337 0.8230 0.8230 0.8230 0.8230 0.8230
23.321000 0.8230 0.8230 0.8230 0.8250 0.8250
23.408337 0.8250 0.8250 0.8250 0.8250 0.8250
23.495000 0.8260 0.8260 0.8260 0.8260 0.8260
23.582337 0.8280 0.8280 0.8280 0.8300 0.8300
23.670000 0.8320 0.8320 0.8300 0.8280 0.8280
23.757337 0.8280 0.8280 0.8280 0.8280 0.8300
23.844000 0.8300 0.8280 0.8280 0.8280 0.8280
23.931337 0.8280 0.8280 0.8280 0.8280 0.8300
24.019000 0.8300 0.8300 0.8300 0.8300 0.8280
24.106337 0.8280 0.8280 0.8280 0.8280 0.8280
24.193000 0.8280 0.8260 0.8250 0.8250 0.8250
24.280337 0.8230 0.8230 0.8210 0.8210 0.8190
24.368000 0.8160 0.8100 0.8100 0.8100 0.8100
24.455337 0.8100 0.8080 0.8070 0.8050 0.8030
24.543000 0.8000 0.7980 0.7980 0.7960 0.7940
24.630337 0.7940 0.7920 0.7920 0.7890 0.7870
24.717000 0.7870 0.7850 0.7850 0.7830 0.7820
24.804337 0.7800 0.7800 0.7800 0.7780 0.7780
24.892000 0.7780 0.7760 0.7760 0.7750 0.7750
24.979337 0.7750 0.7730 0.7730 0.7730 0.7710
25.066000 0.7710 0.7690 0.7670 0.7670 0.7670
25.153337 0.7670 0.7660 0.7660 0.7660 0.7660
25.241000 0.7640 0.7620 0.7600 0.7580 0.7580
25.328337 0.7580 0.7570 0.7570 0.7570 0.7570
25.415000 0.7570 0.7570 0.7550 0.7550 0.7550
25.502337 0.7530 0.7510 0.7500 0.7500 0.7500
25.590000 0.7500 0.7500 0.7510 0.7510 0.7510
25.677337 0.7510 0.7500 0.7480 0.7480 0.7480
25.764000 0.7480 0.7460 0.7460 0.7440 0.7420
25.851337 0.7390 0.7390 0.7390 0.7370 0.7350
25.939000 0.7330 0.7320 0.7300 0.7280 0.7260
26.026337 0.7250 0.7250 0.7210 0.7190 0.7170
26.113000 0.7170 0.7140 0.7100 0.7080 0.7080
26.200337 0.7080 0.7080 0.7070 0.7050 0.7050
26.288000 0.7010 0.7010 0.7000 0.6980 0.6980
26.375337 0.6960 0.6960 0.6940 0.6940 0.6920
26.463000 0.6910 0.6890 0.6890 0.6870 0.6850
26.550337 0.6830 0.6820 0.6800 0.6780 0.6760
26.637000 0.6730 0.6690 0.6670 0.6660 0.6620
26.724337 0.6580 0.6570 0.6550 0.6510 0.6500
26.812000 0.6480 0.6480 0.6460 0.6420 0.6410
26.899337 0.6390 0.6390 0.6370 0.6350 0.6330
26.986000 0.6320 0.6320 0.6320 0.6300 0.6280
27.073337 0.6260 0.6250 0.6250 0.6250 0.6230
27.161000 0.6210 0.6190 0.6170 0.6160 0.6120
27.248337 0.6100 0.6100 0.6080 0.6070 0.6050
27.335000 0.6030 0.6010 0.6010 0.6010 0.6000
27.422337 0.6000 0.5960 0.5960 0.5940 0.5920
27.510000 0.5910 0.5890 0.5890 0.5870 0.5830
27.597337 0.5800 0.5760 0.5690 0.5660 0.5620
27.684000 0.5600 0.5580 0.5570 0.5530 0.5510
27.771337 0.5500 0.5480 0.5390 0.5370 0.5330
27.859000 0.5280 0.5250 0.5210 0.5170 0.5140
27.946337 0.5140 0.5100 0.5070 0.5030 0.4980
28.033000 0.4960 0.4830 0.4780 0.4730 0.4670
28.120337 0.4620 0.4530 0.4500 0.4390 0.4350
28.208000 0.4260 0.4170 0.4070 0.3980 0.3870
28.295337 0.3780 0.3730 0.3580 0.3510 0.3460
28.383000 0.3280 0.3170 0.3010 0.2960 0.2780
28.470337 0.2620 0.2480 0.2330 0.2190 0.2050
28.557000 0.1980 0.1780 0.1640 0.1500 0.1350
28.644337 0.1260 0.1140 0.1080 0.0980 0.0800
28.732000 0.0750 0.0640 0.0550 0.0480 0.0390
28.819337 0.0330 0.0280 0.0230 0.0190 0.0160
28.906000 0.0140 0.0120 0.0100 0.0100 0.0080
28.993337 0.0080 0.0070 0.0070 0.0050 0.0050
29.081000 0.0050 0.0030 0.0030 0.0030 0.0030
29.168337 0.0050 0.0050 0.0070 0.0080 0.0080
29.255000 0.0080 0.0080 0.0080 0.0080 0.0100
29.342337 0.0100 0.0120 0.0120 0.0160 0.0190
29.430000 0.0250 0.0350 0.0370 0.0480 0.0550
29.517337 0.0690 0.0820 0.0890 0.1010 0.1120
29.604000 0.1190 0.1320 0.1500 0.1600 0.1760
29.691337 0.1980 0.2140 0.2280 0.2480 0.2600
29.779000 0.2760 0.2980 0.3140 0.3260 0.3390
29.866337 0.3530 0.3710 0.3910 0.4010 0.4170
29.953000 0.4300 0.4480 0.4620 0.4750 0.4890
30.040337 0.5010 0.5030 0.5120 0.5210 0.5280
30.128000 0.5370 0.5410 0.5500 0.5510 0.5580
30.215337 0.5710 0.5800 0.5910 0.6000 0.6070
30.303000 0.6140 0.6190 0.6250 0.6280 0.6320
30.390337 0.6370 0.6460 0.6480 0.6500 0.6530
30.477000 0.6570 0.6600 0.6640 0.6660 0.6660
30.564337 0.6690 0.6750 0.6780 0.6800 0.6820
30.652000 0.6850 0.6870 0.6890 0.6980 0.7000
30.739337 0.7010 0.7050 0.7100 0.7160 0.7170
30.826000 0.7190 0.7210 0.7230 0.7250 0.7250
30.913337 0.7260 0.7260 0.7260 0.7280 0.7300
31.001000 0.7320 0.7330 0.7330 0.7350 0.7350
31.088337 0.7370 0.7370 0.7410 0.7440 0.7480
31.175000 0.7480 0.7500 0.7530 0.7570 0.7580
31.262337 0.7580 0.7620 0.7640 0.7660 0.7670
31.350000 0.7690 0.7730 0.7750 0.7760 0.7780
31.437337 0.7780 0.7780 0.7800 0.7820 0.7820
31.524000 0.7830 0.7830 0.7850 0.7870 0.7870
31.611337 0.7870 0.7890 0.7890 0.7890 0.7890
31.699000 0.7890 0.7890 0.7890 0.7910 0.7910
31.786337 0.7910 0.7920 0.7960 0.7960 0.7980
31.873000 0.8000 0.8000 0.8010 0.8010 0.8030
31.960337 0.8050 0.8050 0.8080 0.8100 0.8100
32.048000 0.8120 0.8120 0.8120 0.8120 0.8140
32.135337 0.8160 0.8160 0.8170 0.8170 0.8190
32.223000 0.8210 0.8210 0.8210 0.8230 0.8230
32.310337 0.8250 0.8250 0.8260 0.8260 0.8280
32.397000 0.8280 0.8300 0.8300 0.8320 0.8320
32.484337 0.8330 0.8330 0.8350 0.8370 0.8390
32.572000 0.8390 0.8410 0.8420 0.8440 0.8460
32.659337 0.8480 0.8500 0.8500 0.8510 0.8530
32.746000 0.8570 0.8580 0.8640 0.8710 0.8750
32.833337 0.8760 0.8780 0.8800 0.8830 0.8850
32.921000 0.8850 0.8850 0.8830 0.8820 0.8800
33.008337 0.8780 0.8760 0.8730 0.8730 0.8710
33.095000 0.8690 0.8620 0.8570 0.8550 0.8530
33.182337 0.8510 0.8500 0.8500 0.8500 0.8480
33.270000 0.8480 0.8480 0.8500 0.8500 0.8500
33.357337 0.8510 0.8510 0.8530 0.8550 0.8550
33.444000 0.8570 0.8600 0.8620 0.8660 0.8670
33.531337 0.8710 0.8730 0.8750 0.8760 0.8760
33.619000 0.8780 0.8800 0.8800 0.8830 0.8830
33.706337 0.8850 0.8870 0.8890 0.8890 0.8890
33.793000 0.8890 0.8910 0.8920 0.8920 0.8920
33.880337 0.8920 0.8940 0.8940 0.8940 0.8980
33.968000 0.9000 0.9000 0.9010 0.9050 0.9050
34.055337 0.9070 0.9070 0.9070 0.9070 0.9050
34.143000 0.9050 0.9050 0.9070 0.9070 0.9080
34.230337 0.9120 0.9140 0.9160 0.9160 0.9160
34.317000 0.9160 0.9170 0.9170 0.9170 0.9170
34.404337 0.9170 0.9160 0.9140 0.9120 0.9100
34.492000 0.9080 0.9070 0.9050 0.9030 0.9010
34.579337 0.9010 0.9000 0.8980 0.8960 0.8910
34.666000 0.8890 0.8890 0.8870 0.8870 0.8850
34.753337 0.8830 0.8830 0.8830 0.8830 0.8850
34.841000 0.8870 0.8870 0.8870 0.8870 0.8870
34.928337 0.8870 0.8870 0.8870 0.8870 0.8870
35.015000 0.8890 0.8890 0.8910 0.8910 0.8920
35.102337 0.8920 0.8920 0.8920 0.8910 0.8910
35.190000 0.8910 0.8910 0.8910 0.8910 0.8910
35.277337 0.8910 0.8910 0.8910 0.8910 0.8910
35.364000 0.8910 0.8910 0.8910 0.8910 0.8910
35.451337 0.8890 0.8890 0.8870 0.8850 0.8850
35.539000 0.8830 0.8830 0.8820 0.8820 0.8800
35.626337 0.8800 0.8800 0.8800 0.8800 0.8780
35.713000 0.8760 0.8760 0.8760 0.8760 0.8780
35.800337 0.8780 0.8780 0.8780 0.8760 0.8760
35.888000 0.8750 0.8730 0.8730 0.8730 0.8710
35.975337 0.8710 0.8710 0.8690 0.8660 0.8640
36.063000 0.8620 0.8580 0.8570 0.8550 0.8530
36.150337 0.8530 0.8530 0.8510 0.8510 0.8510
36.237000 0.8500 0.8500 0.8500 0.8500 0.8500
36.324337 0.8480 0.8440 0.8420 0.8410 0.8390
36.412000 0.8370 0.8330 0.8320 0.8330 0.8350
36.499337 0.8350 0.8330 0.8320 0.8280 0.8260
36.586000 0.8250 0.8230 0.8190 0.8140 0.8120
36.673337 0.8100 0.8100 0.8070 0.8030 0.8010
36.761000 0.8000 0.7980 0.7960 0.7920 0.7890
36.848337 0.7890 0.7870 0.7800 0.7780 0.7750
36.935000 0.7710 0.7670 0.7640 0.7600 0.7570
37.022337 0.7510 0.7480 0.7390 0.7350 0.7280
37.110000 0.7210 0.7170 0.7170 0.7160 0.7140
37.197337 0.7120 0.7100 0.7080 0.7030 0.7000
37.284000 0.6980 0.6890 0.6820 0.6780 0.6760
37.371337 0.6760 0.6730 0.6710 0.6690 0.6670
37.459000 0.6670 0.6660 0.6640 0.6600 0.6550
37.546337 0.6500 0.6480 0.6460 0.6460 0.6440
37.633000 0.6420 0.6420 0.6410 0.6410 0.6390
37.720337 0.6370 0.6370 0.6350 0.6350 0.6330
37.808000 0.6330 0.6320 0.6300 0.6300 0.6280
37.895337 0.6260 0.6260 0.6260 0.6250
##END=
