##TITLE=1,1,1-Trichloroethane
##JCAMP-DX=4.24
##DATA TYPE=INFRARED SPECTRUM
##CLASS=IUPAC A
##ORIGIN=NIST, Analytical Chemistry Division, 301-975-3108
##OWNER=COPYRIGHT (C) 2001 by the U.S. Secretary of Commerce
##DATE=01/06/01
##$SPECTRA VERSION=1.10
##$UNCERTAINTY IN Y=2.1 % relative (B=1.08E-04,C=2.81E-10,D=2.71E-15)
##CAS NAME=1,1,1-Trichloroethane
##CAS REGISTRY NO=71-55-6
##MOLFORM=C H3 C Cl3
##MP=-30.41 C
##BP=74.1 C
##$NIST SOURCE=QUANT-IR
##SPECTROMETER/DATA SYSTEM=IFS66V (Bruker)
##INSTRUMENT PARAMETERS=KBr Beam Splitter; MCT Detector; Multipass cell
##STATE=gas
##SAMPLE DESCRIPTION=1,1,1-Trichloroethane Primary Gas Standard
##PRESSURE=101.3 Pa
##TEMPERATURE=23 C
##SAMPLING PROCEDURE=1 L/min Flow
##RESOLUTION=0.9640
##DATA PROCESSING=NB Strong Apodization
##XUNITS=cm-1
##YUNITS=(micromol/mol)-1m-1 (base 10)
##XFACTOR=1.0
##YFACTOR=18.189E-13
##DELTAX=0.4820
##FIRSTX=575.17
##LASTX=3974.606
##FIRSTY=3.67E-06
##MAXX=3974.12
##MINX=575.17
##MAXY=.0019246
##MINY=-3.59E-07
##NPOINTS=7052
##XYDATA=(X++(Y..Y))
575.17 2020002 1926138 1788336 1724721 1700433 1754378
577.58 1674413 1707608 1519940 1187989 1032849 1209924
580.47 1093448 868385 1015284 1027176 873696 717225
583.37 664695 682794 736251 784969 879410 797966
586.26 708288 708594 740343 691623 726531 888053
589.15 872328 691366 593619 631950 577392 468700
592.04 520666 445463 283045 296116 333839 213934
594.94 230502 251558 133069 73983 91240 144902
597.83 106729 42564 19574 36846 12321-26608
600.72-41427-56898-32237 71470 58610-92379
603.62-45624 19851 839-10071-32792-1957
606.51 51517 39199-34644-29584-29714-51159
609.40-125332-121508-7518 80010 59583 36046
612.29 37722 53460 20547-24780-8667-30192
615.19-50843-10623 30313-8988-39840 427
618.08 64868 77423 67891 39280-52486-48241
620.97-2486 44044 31898 25332 6776 20623
623.86 45339 73538 51370 118045 69627 7866
626.76 15168 55377 67282 95402 63591 50766
629.65 7656-32304-63417-83952-81025-58291
632.54-39007-39631-58519-57287-61393-47244
635.44-27917 4251-12524 25148 11089-73539
638.33-49355-13045-74624-72392-58902-40517
641.22-32691-76927-122142-56069 1179-12624
644.11-24840-29249-34593-38636-53484-28353
647.01-61324-78968-49857 21626-32207-49611
649.90 18868 30419 56050 44997 17525 61417
652.79 108367 116826 92788 101786 85132 116010
655.68 119977 170345 181428 194827 278324 302682
658.58 311758 343717 307215 373158 442528 491368
661.47 560729 622923 668344 726561 746077 872783
664.36 1022080 1081492 1129139 1214256 1392212 1811404
667.26 2063986 1973035 1957734 2120249 2287814 2488442
670.15 2582342 2722963 2940417 3191668 3472104 3806819
673.04 4042272 4286980 4515482 4807591 5188296 5610862
675.93 6010215 6421084 6805144 7244020 7693966 8240278
678.83 8762756 9250234 9750489 10232762 10672581 11219844
681.72 11776864 12439905 13212759 14098789 14974073 15983310
684.61 17062091 17943116 18226762 18220843 18474751 19059651
687.50 19922128 20877463 21338587 21210995 20534905 19890322
690.40 19641339 19504094 19213936 19060576 18982567 18992318
693.29 18962110 19036841 19239398 19550547 19896000 20403459
696.18 21003988 21781009 22571081 23568548 24690183 25988678
699.08 27389583 28992152 30765664 32784491 34918646 37278592
701.97 39865440 42697237 45719057 49114682 52813825 56910656
704.86 61446088 66700974 72535562 79309536 86885992 95527693
707.75 105392635 116292059 128057884 140823481 154620152 169698966
710.65 186018806 204128073 224232504 246598468 270864879 297438566
713.54 326501930 358256288 392297977 428293944 466827194 507879351
716.43 551229594 596633894 642293850 689209605 736843615 785392018
719.32 833993496 879042752 917904401 951648432 981396806 1006204644
722.22 1023709584 1036667783 1042911959 1047427940 1050394590 1047738638
725.11 1049474548 1052192258 1047895120 1045526998 1049685601 1058060148
728.00 1048522237 1005014929 937785939 861154612 774940544 676540884
730.90 584251774 504093394 435887675 376597571 325621902 282392891
733.79 245791258 214031932 187047363 163524379 143121713 125160131
736.68 109516738 95602962 83768193 73563563 65033792 57669050
739.57 51565837 46351268 42100777 38406873 35384973 32667151
742.47 30433453 28299680 26313328 24442585 22813269 21198439
745.36 19884015 18862733 18484418 18506351 18758766 18693457
748.25 18322271 17588534 16859766 16117490 15454885 14707342
751.14 13992950 13244147 12545167 11774897 11122805 10563650
754.04 10234287 9881029 9651334 9269833 8690199 8016807
756.93 7659548 7491685 7631094 7937792 8239431 7779293
759.82 6687204 5822565 5665086 5999789 6834198 7952545
762.72 8802129 8224206 6305929 4759569 4367698 4599861
765.61 5353205 6420645 7288605 7107103 5678618 4160118
768.50 3638803 3535261 3586673 3651115 3764034 3735266
771.39 3747376 3824878 3959312 3883706 3742292 3624905
774.29 3597260 3500448 3407944 3321174 3246679 3154202
777.18 3081680 2970971 2880868 2755457 2705904 2617113
780.07 2579093 2497400 2395746 2291979 2287461 2250086
782.96 2209077 2157118 2173678 2111758 2031819 2014695
785.86 2090916 2120346 2095270 2062863 2150923 2267618
788.75 2480787 2601582 2627768 2652109 2721884 2818815
791.64 2987200 3140206 3368608 3566060 3706523 3812654
794.54 4058394 4224126 4409409 4558419 4712602 4827569
797.43 4877756 4871423 4801796 4713008 4635950 4477306
800.32 4334208 4141105 3982831 3861084 3879013 3985377
803.21 4159615 4384274 4678330 4879299 5007792 4968409
806.11 4926524 4843697 4773972 4647093 4492988 4287122
809.00 4156926 4018718 3909169 3759966 3599397 3421433
811.89 3275540 3110786 3013962 2920442 2841551 2798705
814.78 2849290 2918488 3010482 3092379 3175203 3177942
817.68 3173748 3192268 3181054 3038096 2948000 2839255
820.57 2741614 2658897 2604491 2527023 2470896 2460552
823.46 2417711 2280663 2244023 2217156 2214789 2189072
826.36 2154316 2088555 2092033 2022100 2014973 2047726
829.25 1997603 1939215 1946808 1917748 1900262 1848964
832.14 1822143 1844944 1852238 1840421 1784237 1638273
835.03 1535787 1471686 1468450 1380112 1298358 1209152
837.93 1182904 1167966 1184497 1194612 1290395 1341231
840.82 1281396 1184293 1202184 1175942 1190736 1190219
843.71 1193274 1152023 1131258 1129033 1164879 1114984
846.60 1099275 1073875 1090907 1100693 1124349 1137689
849.50 1160245 1155530 1227783 1270349 1309277 1385175
852.39 1468698 1494530 1602117 1714303 1801624 1845417
855.28 1928395 1969933 2078706 2223212 2425834 2526945
858.18 2594827 2627364 2694263 2744974 2880869 3104218
861.07 3300023 3283348 3345423 3442812 3446581 3294822
863.96 3250471 3251668 3311740 3434999 3674586 3928700
866.85 4039403 3766961 3421715 3068638 2768539 2700027
869.75 3058043 3831515 4648658 4180587 2762064 2090549
872.64 1965773 1954220 1998815 1988189 1957218 1927468
875.53 1911349 1846035 1722152 1566333 1428306 1281327
878.42 1141788 992765 876495 763740 701159 624625
881.32 557082 512391 486608 426204 392387 320419
884.21 283890 288281 306907 270238 246609 229144
887.10 218286 194198 191165 158904 167892 138475
890.00 144665 132082 128998 118321 88332 68575
892.89 77282 65068 83584 74321 67094 66576
895.78 72915 38171 23761 27366 19121-2916
898.67 4331 5992 19727 37763 52951 17662
901.57 651-16266-8135-15151-4812 6567
904.46 2074-6472-656-6671-614-8124
907.35-9908-5702 21246 27276 21764 23989
910.24 33694 2973 22003 18970 14715 17084
913.14 55826 42108 45313 53493 61919 23660
916.03 35745 49805 62074 33198 32381 58727
918.92 106250 79321 66121 74033 93633 95700
921.82 104499 124922 141194 98263 109596 122155
924.71 111328 103029 135532 132263 113720 111398
927.60 119091 91236 129315 144859 161144 157872
930.49 148453 141290 162226 153079 154666 149788
933.39 191063 199760 196012 204467 226739 237068
936.28 255628 251727 253222 254565 280236 274505
939.17 301059 322446 346280 365622 398173 418603
942.06 465930 493210 533861 561329 606177 642846
944.96 679073 718647 795983 854211 904068 930462
947.85 967860 1002539 1067074 1107986 1150689 1194929
950.74 1261856 1301326 1360794 1404461 1463811 1486867
953.64 1519313 1545854 1615154 1652120 1690935 1722547
956.53 1782657 1829311 1887761 1927936 2006877 2068643
959.42 2141085 2174962 2211253 2236365 2264943 2233960
962.31 2245969 2208102 2188789 2166376 2061985 1918723
965.21 1841948 1737279 1702994 1666668 1503689 1398251
968.10 1422279 1433264 1466666 1472385 1492889 1489666
970.99 1469824 1427037 1404722 1363349 1314753 1250750
973.88 1210894 1145437 1076031 987913 952125 896399
976.78 868087 833871 811119 768198 747418 730981
979.67 740761 735796 759637 793242 853449 880379
982.56 938031 980307 1069119 1150986 1254981 1332997
985.46 1438075 1536302 1651002 1763081 1902171 2031979
988.35 2180482 2322227 2503006 2656143 2832917 3008082
991.24 3215483 3407268 3635993 3852791 4101429 4334155
994.13 4585587 4799615 5025407 5244213 5417935 5517833
997.03 5553358 5530526 5518402 5462500 5451828 5530104
999.92 5716575 5920199 6260441 6574558 6852474 7166114
1002.81 7480752 7730689 7933431 8075409 8204666 8326863
1005.70 8531464 8784894 9119360 9442642 9779219 10058089
1008.60 10282610 10396622 10401346 10247901 10001954 9673378
1011.49 9368902 9073913 8988669 9132161 9507609 9994225
1014.38 10442045 10757088 10885148 10716338 10237480 9413608
1017.28 8363112 7280316 6325163 5482277 4795034 4235253
1020.17 3790406 3375666 3027021 2720500 2456354 2202021
1023.06 1998965 1821634 1706006 1579967 1486272 1408898
1025.95 1387146 1336982 1302390 1262695 1267215 1252389
1028.85 1271365 1269648 1266842 1256919 1288891 1311578
1031.74 1363883 1369545 1383839 1405872 1438650 1436479
1034.63 1476303 1531061 1615461 1652335 1700398 1737853
1037.52 1810525 1875053 1995558 2127513 2239153 2255773
1040.42 2275332 2250232 2286208 2389041 2560796 2752177
1043.31 2987965 3211852 3444287 3632579 3750294 3817316
1046.20 3966745 4082177 4256294 4493829 4850509 5186570
1049.10 5618888 6078736 6604445 7122538 7726908 8382077
1051.99 9118643 9890065 10787487 11776965 12878378 13968162
1054.88 15196510 16564122 18202790 19825929 21401107 23060344
1057.77 24966293 27204297 29774277 32142314 34212103 36398537
1060.67 38981069 41794035 44823655 47915247 51083146 54120713
1063.56 57079228 60155602 63490187 66729105 69788569 72515936
1066.45 75119584 77488437 80040520 83516276 87580177 90112955
1069.34 91950007 95954814 103794740 114224657 123669129 126700510
1072.24 125536826 126408473 132937728 143085111 148975407 139217975
1075.13 121696533 115403145 120639453 130548232 142130763 155103508
1078.02 168966443 183415080 198204002 213565269 229417063 245627168
1080.92 261700085 277885274 294642298 312480737 331530642 352001442
1083.81 373164981 394960940 417104493 439198444 459443616 476080831
1086.70 486934391 490696421 488241710 481591875 473379288 465426005
1089.59 456074129 436863642 398163592 348694206 312406482 303870638
1092.49 314042187 330576810 348226477 363118311 372369866 374732005
1095.38 369141288 355255197 334592389 309029496 280846471 252000959
1098.27 223967723 197843754 174239874 153152979 134657171 118755052
1101.16 105068122 93276536 83419518 75000527 67651292 61260068
1104.06 55749814 50984725 47039875 43817228 41092507 38552121
1106.95 36172148 34053718 32296111 30771606 29389244 28137486
1109.84 26962593 25865284 24917179 24000383 23016501 22100221
1112.74 21336639 20622614 19903112 19102262 18323631 17513197
1115.63 16739810 15928346 15167216 14410132 13637361 12803788
1118.52 11959184 11100302 10249754 9357180 8509457 7719121
1121.41 6990411 6305504 5687908 5099018 4572244 4082348
1124.31 3647053 3239960 2889569 2557712 2275737 2015914
1127.20 1803681 1604813 1440697 1276626 1149466 1030651
1130.09 940198 834497 753806 669447 611329 530022
1132.98 475614 416984 383715 341390 343269 306597
1135.88 295755 269899 274849 275768 266969 232858
1138.77 235656 224528 223812 216068 205667 182789
1141.66 189944 193516 204586 200755 192577 184400
1144.56 208308 198991 205806 202645 191440 167896
1147.45 165223 148967 145295 178127 210720 185762
1150.34 190875 167194 173330 172720 187175 167368
1153.23 162067 156977 138767 121533 149183 147974
1156.13 146931 134306 147322 129882 111576 79858
1159.02 81804 81109 113816 116101 82602 43331
1161.91 57901 52806 62778 41494 47739 36718
1164.80 48260 41319 58894 37049 28784 23455
1167.70 39190 15886 22182 24105 21926 2161
1170.59 32124 46792 47505 31817 42461 20656
1173.48 15047 9689 32710 20471 35030 25716
1176.38 38188 41184 44772 30848 33714 31291
1179.27 61215 53977 52163 62182 92774 72365
1182.16 77184 67126 67360 63123 92739 109153
1185.05 131893 123619 150343 131258 137572 148349
1187.95 167953 186819 221079 197655 204096 202420
1190.84 207976 190830 202680 189393 193305 214373
1193.73 254913 238012 245770 246398 250960 223449
1196.62 244191 242122 263492 236727 238206 256688
1199.52 276631 258053 276295 264720 273515 274349
1202.41 289574 278261 295397 290282 294629 298447
1205.30 311387 293549 307300 310697 322814 307055
1208.20 314066 283043 300715 314794 341981 336609
1211.09 371312 381611 412142 410118 417147 416942
1213.98 455964 474516 503411 501041 505909 486025
1216.87 497553 496924 517058 499926 526181 520974
1219.77 537154 529482 548702 537027 560824 574115
1222.66 604268 613861 653499 685396 746042 782915
1225.55 841372 889339 974258 1031119 1115565 1176664
1228.44 1284765 1362627 1462772 1537590 1640839 1734202
1231.34 1858172 1949682 2070293 2154148 2270569 2380600
1234.23 2529842 2664557 2817919 2928429 3068753 3203529
1237.12 3384483 3526046 3684944 3799993 3948755 4063208
1240.02 4224727 4380806 4554801 4644726 4769936 4892284
1242.91 5013010 5095576 5193111 5247998 5330964 5371071
1245.80 5430039 5448368 5499183 5539065 5587380 5577421
1248.69 5548978 5421836 5352074 5332647 5345443 5325560
1251.59 5198219 4877759 4659219 4455344 4261404 4116536
1254.48 4047614 3750620 3400548 3044211 2715249 2387487
1257.37 2154437 1931595 1771750 1584692 1450472 1308306
1260.26 1238755 1129525 1068272 982689 940040 892527
1263.16 903030 862676 852264 801170 788832 761435
1266.05 767699 740457 743430 707215 695328 647003
1268.94 622733 591538 604036 564446 579460 550853
1271.84 556445 531813 524217 498897 520706 478701
1274.73 474742 423933 405280 360194 349044 302686
1277.62 298260 260391 262172 246947 243760 216562
1280.51 262080 238043 241173 224842 258373 259024
1283.41 298778 287400 311069 293609 326408 298368
1286.30 315484 283518 296159 272775 294010 292489
1289.19 350783 342456 380473 377607 421737 385185
1292.08 383186 342607 359243 340032 362113 333551
1294.98 372458 373544 380972 333160 354779 350989
1297.87 374578 360478 394156 377232 418108 395202
1300.76 404579 382694 403584 362767 383412 377760
1303.66 424009 383016 403522 379798 406202 402710
1306.55 454207 443062 455124 425955 474084 458689
1309.44 494358 451722 469545 433617 457462 428519
1312.33 461912 414373 386364 336559 367088 314951
1315.23 315060 259361 298502 288845 339213 326005
1318.12 365717 351309 394960 361881 389323 367057
1321.01 420114 384888 412158 357744 366610 320618
1323.90 358571 321582 316879 251910 283031 244019
1326.80 265258 214540 258840 212014 221655 171485
1329.69 214753 177993 209802 156524 190598 170140
1332.58 210434 168916 199446 161812 222572 195350
1335.48 247018 198570 238502 207294 243448 177478
1338.37 215774 167067 205538 142593 191353 139513
1341.26 169819 138464 189578 119281 169586 122173
1344.15 184852 137233 166276 86588 139962 92296
1347.05 175926 105320 142543 66269 109380 23816
1349.94 95301 31934 56676-20897 62568 7132
1352.83 82936 90975 180099 140949 275451 237695
1355.72 369822 353388 384776 286024 375946 371017
1358.62 481580 443292 609938 606708 791859 832043
1361.51 1097693 1162355 1463630 1675115 2226984 2556903
1364.40 2896276 3040627 3537776 3910402 4622819 5145386
1367.29 5947464 6590989 7561118 8335684 9462398 10356244
1370.19 11569191 12542285 13905605 14944552 16326009 17418855
1373.08 19059448 20720706 22127315 21785343 22280511 22445124
1375.97 22678092 22294024 22371079 21623589 21206719 19898762
1378.87 19271679 17905965 17233767 14910231 13754409 12095807
1381.76 13105539 16225874 31592577 75245474 160429082 165734761
1384.65 76958132 51528229 41243667 24223763 14670064 13123950
1387.54 13487007 15680671 17437496 20211577 22226301 24769048
1390.44 26411065 28291139 29264604 30409582 30588918 30746248
1393.33 30032646 29352893 27928939 26588696 24628212 22878457
1396.22 20681223 18785747 16593366 14782033 12744718 11115200
1399.11 9431588 8187263 6843667 5915274 4916459 4312296
1402.01 3602595 3257156 2797008 2645122 2339785 2284869
1404.90 2103240 2178755 2105761 2247679 2229209 2406539
1407.79 2454802 2720511 2811689 3084403 3203893 3519016
1410.69 3693200 4025468 4221838 4573795 4787166 5157203
1413.58 5393728 5758022 5977579 6339020 6552874 6870127
1416.47 7032478 7303152 7404397 7593412 7606348 7717400
1419.36 7705834 7793922 7727045 7784998 7731215 7782290
1422.26 7786187 8095803 8353958 8922736 9577098 10027348
1425.15 10688815 12312665 12616454 11538996 11782213 13785663
1428.04 13975258 11451010 9777318 9112846 8213357 7836932
1430.93 7683895 7785307 7944584 8250258 8481202 8790541
1433.83 8994740 9304204 9557980 9911231 10170069 10531637
1436.72 10896743 11392449 11813243 12347060 12840391 13466611
1439.61 14053765 14746664 15319869 15956231 16501374 17130777
1442.51 17677849 18235678 18563744 18867735 19022956 19161438
1445.40 19106298 18925049 18483838 18076923 17588609 17188017
1448.29 16681005 16284514 15845460 15521981 15210941 14786789
1451.18 13990673 13803215 14549579 17141776 21959844 27927418
1454.08 32611985 34924338 34425804 32154694 29320352 26057228
1456.97 22651486 19388152 16647087 14705078 13470574 12706949
1459.86 12284223 12229529 12332112 12551923 12774610 13020902
1462.75 13202224 13379631 13416562 13358791 13207284 13063291
1465.65 12800543 12487737 12044433 11564027 11002711 10447805
1468.54 9826042 9234508 8610191 8031059 7404105 6793991
1471.43 6156273 5657611 5166781 4690091 4250013 3904882
1474.33 3527252 3187851 2826479 2552438 2285842 2062999
1477.22 1820569 1652254 1468718 1339567 1177326 1064240
1480.11 940993 871252 771053 705369 616559 571824
1483.00 506494 482151 427816 409627 372470 362954
1485.90 307659 295460 249085 257199 235805 234418
1488.79 197630 201965 190555 188581 164977 195749
1491.68 167762 168107 137771 156131 144367 144222
1494.57 102130 107373 38806 52260 86630 111530
1497.47 85484 81986 46682 83032 89200 96312
1500.36 70364 76377 55442 72898 51637 50786
1503.25 34140 48703 6097-48796-95145-32741
1506.15-71655-90515-49047 595-16056 14849
1509.04 14686 32870 14114 28144 23509 22248
1511.93-10695 17236 23543 41419 15691 13734
1514.82 233 12308 5665 21061 1018 22754
1517.72 29917 41646 17459 21238-15898-21131
1520.61-78668-39817-7333-10970-8029 28428
1523.50 19829 32554 9739-5151-2282 36969
1526.39 20582 35321 27532 25019 20460 54609
1529.29 35527 46723 37207 57712 41239 46669
1532.18 26449 14180-12683-3248 8647 31414
1535.07 28443 45505 33991 37948 33504 29250
1537.97-32756-111908-99271-46378-65577-7966
1540.86-5648-42057-65410-1804-2290 20442
1543.75 12815 9752-19417 5884 10320 32470
1546.64 30397 36743 18383 31464 14255 1841
1549.54-14727 11364 9639 9290 2426 25231
1552.43 21163 13965-39520-57689-18942 17738
1555.32 6829 20979 144-36794-72223-101242
1558.21-117438-32188-55367-112608-84296 1828
1561.11 7465 19747-1772 7426 7586 28956
1564.00 6921 18321 34836 70061 33663 4252
1566.89-15094 8962 16003 16793-28431-36146
1569.79-10963 28952 18005 21360 2227 6574
1572.68 4254 17866 6309 11536-20945-49454
1575.57-122324-59293-793 12474 5806 28282
1578.46 28705 34195 38418 37451 7320 35758
1581.36 42907 68614 62279 58818 51408 61096
1584.25 34799 51642 50522 57430 36820 31746
1587.14 34159 58913 47495 51890 40715 47429
1590.03 34923 55319 45313 48586 40532 51111
1592.93 48077 64210 46365 54259 44643 58289
1595.82 44551 47477 33137 36255 30960 38934
1598.71 22268 39008 28129 20144 6840 15076
1601.61 19130 30927 7654 9429 13227 15457
1604.50 444 27217 15374 7681-14818 1876
1607.39-7536-2686-11172 7283-6244-8604
1610.28-24031-5263-12644-1822-21357-18403
1613.18-16611-3931-17821-14682-36409-61811
1616.07-154256-112660-52630-38958-43716-38449
1618.96-20258-593-15839-8732-33234-40712
1621.85-41991-28386-69448-62776-40069-39177
1624.75-40853-12678-17707-4090-7467-16655
1627.64-29208-16244-32422-20720-25535-21590
1630.53-33828-17311-6961-1494-6326 4997
1633.43-14490-22831-72843-115721-108506-47304
1636.32-44400-35275-41028-16209-31061-34401
1639.21-43953-19070-20619-11634-24924-13723
1642.10-12754-7372-14957-10643-21403-24314
1645.00-75887-109056-61665-20676-43358-33623
1647.89-48794-30232-11887 50-30902-10528
1650.78-9002-39605-140627-170204-191701-113381
1653.67-56744-47886-24661 7976 18508 22089
1656.57-424 671 16932 28640 10280 13434
1659.46 17125 27471 17546 26848 24140 13979
1662.35-1903 17704 28546 34506 29632 40434
1665.25 31778 32878 49965 65312 53939 44348
1668.14 15017-2444-11622 29066 28258 21389
1671.03 11824 31765 30007 47301 43111 48998
1673.92 29008-13081-32288 18503 27918 48096
1676.82 58056 72698 53792 45517 46001 59495
1679.71 65814 76107 62838 68085 68307 67927
1682.60 49855 53515 34321-34618-59852 57665
1685.49 99056 98529 81170 101621 107068 125476
1688.39 128367 144183 125759 130491 127859 143253
1691.28 133095 153311 159552 170181 158192 168232
1694.17 161263 128770 19073 14183 120770 162239
1697.07 139001 128779 130901 144172 84469 25536
1699.96 18683 70424 137570 175391 168993 173193
1702.85 160958 167022 156230 164935 191273 217115
1705.74 197635 192570 194679 230407 235732 209743
1708.64 195673 212489 201901 204360 207318 223659
1711.53 240006 241523 238513 256857 255652 279605
1714.42 267716 293466 345426 365752 307385 252062
1717.31 339449 377080 313463 328544 332319 330203
1720.21 325592 347785 357289 370932 373248 395030
1723.10 405438 418844 411236 416468 418951 422694
1725.99 409017 413116 412629 437483 433953 419448
1728.89 409473 443985 459833 442795 422802 441621
1731.78 435801 416680 325424 307319 284379 269338
1734.67 326456 358922 346656 349656 330000 313940
1737.56 305240 299308 284177 255311 232896 263248
1740.46 268659 289282 322324 379204 401460 393234
1743.35 370966 338592 295597 274356 249617 221726
1746.24 185068 169318 171398 176390 150693 161861
1749.13 172112 173560 149666 121301 107138 135052
1752.03 138448 143635 137851 136704 125969 123174
1754.92 114873 117243 88313 77983 89780 106742
1757.81 92161 106243 107309 100523 92483 85997
1760.71 63828 42015 55203 88276 82955 88918
1763.60 88239 99577 98252 98623 94271 103940
1766.49 105615 105923 76726 91512 110058 118419
1769.38 111754 117752 114819 110170 120436 98493
1772.28 60556 118706 154077 164306 172430 188588
1775.17 187434 209108 228812 243456 241995 261148
1778.06 281627 287734 286820 316083 333724 356947
1780.95 373753 404588 417059 432072 443360 477637
1783.85 491840 506987 536059 572641 577537 603446
1786.74 627824 665930 689068 707461 725454 758258
1789.63 765326 761779 753988 786426 781908 755968
1792.53 784795 843015 853660 861460 856551 857493
1795.42 849556 853124 855421 847012 822975 809348
1798.31 793105 769615 729481 712174 676203 652135
1801.20 646063 623323 579013 569127 532640 493309
1804.10 436652 404654 378712 348930 304374 285246
1806.99 264467 254762 233689 224979 223183 218629
1809.88 192277 188934 179224 163787 159462 179622
1812.77 183613 179482 180113 182767 176727 183051
1815.67 182064 197001 186196 181719 170663 173447
1818.56 173310 178268 183958 189706 178805 176468
1821.45 167481 169260 157992 161266 144843 126468
1824.35 115473 118605 123481 133106 120491 117914
1827.24 109690 107956 94853 96570 88726 92135
1830.13 96928 110063 103144 96622 90696 97064
1833.02 82788 85303 83548 94685 86246 80972
1835.92 73712 68165 51797 54016 45339 43411
1838.81 43264 52717 43601 41339 28011 26355
1841.70 21674 27670 19664-2082-48027-34835
1844.59-12425-3423-3967 679 3937 2157
1847.49-12146-2208-8589-11269-22415-18911
1850.38-25581-15356-7637-1651-3543-9140
1853.27-27001-21234-24024-24212-31182-16047
1856.17-15651-12154-15036-11440-15081-21216
1859.06-22830-18527-25734-18975-21652-12388
1861.95-18258-21301-23125-23315-24802-15238
1864.84-18383-22152-26122-11118-18306-22723
1867.74-26371-32628-44761-32069-32429-31443
1870.63-31035-6701-8584-24542-28428-12232
1873.52-15356-10790-5288-2793-10288-2164
1876.41 495-6886-26472-10841-7903-11128
1879.31-12574-11331-13021-12198-20959-12647
1882.20-2171 6897-12460-4859-2582-1673
1885.09 8311 18982 6235 7415 10049 23579
1887.99 19656 21443 12683 13080 9411 32462
1890.88 37809 38722 40510 51532 42136 55694
1893.77 70043 85984 76883 78535 86397 109694
1896.66 104786 105087 121464 154606 160893 161429
1899.56 164361 172387 171946 179716 178484 174986
1902.45 162621 166413 173994 181299 170839 178941
1905.34 205573 244893 276913 274357 258167 327657
1908.23 396670 418943 342867 317669 393375 432088
1911.13 284308 145113 121137 142857 146765 156582
1914.02 165916 167778 179707 199071 206873 220520
1916.91 208775 195855 192752 195821 180751 176742
1919.81 168284 167067 168894 156865 133798 119587
1922.70 100868 99886 83288 97026 101704 95706
1925.59 81676 78990 75681 85733 87349 102229
1928.48 95745 80577 70996 68882 47319 45337
1931.38 40836 42938 39601 56808 79890 116876
1934.27 123898 122294 99003 82313 60117 51627
1937.16 52444 47887 35587 50755 54148 62819
1940.05 62329 61402 56838 65550 45156 45883
1942.95 53509 53966 44416 44291 37931 38077
1945.84 41341 39895 33716 39808 33517 24791
1948.73 17320 30765 46751 69335 75906 77340
1951.63 61091 47592 31422 28764 26863 28467
1954.52 28773 33257 37399 47393 42908 36233
1957.41 33373 44615 42630 49546 41577 42139
1960.30 39326 39713 29468 26944 34529 48232
1963.20 40375 34637 33759 35200 27973 16593
1966.09 18315 27957 32186 33919 23493 26252
1968.98 21310 22449 30804 25011 16009 27767
1971.87 33698 35538 44293 55498 55980 32809
1974.77-2494 3575 14610 31412 24217 24196
1977.66 18978 26259 26064 29014 23716 24319
1980.55 17345 13545 16297 27815 22383 20594
1983.45 7250 7920 5372 1750-6717-6246
1986.34-5765-6737-2191 5542 1624-2982
1989.23-6515 535-12958-11636-23004-17981
1992.12-13155-19313-17884-8202-13547-18452
1995.02-20657-1163 8028-4395-21702-13303
1997.91-13260-14655-14816-15634-22363-24435
2000.80-22476-19531-23901-19065-23006-21345
2003.69-15396-3483-6660-5817-27836-30935
2006.59-21127-13961-22409-19157-18607-7593
2009.48-18874-33975-35507-19963-22155-20751
2012.37-14697-4200-10876-9792-20015-17799
2015.27-17715-21657-26936-21359-19624-5758
2018.16-6307-8762-15171-7946-4420-569
2021.05-859 6950-3781-10391-8671 345
2023.94 4471 7603-2613 2239-1296 8590
2026.84 3334-2664-6035-2105 5025 9292
2029.73 2480-1883-7092-2460-3563 6143
2032.62 24581 33459 20105 14594 898 2106
2035.51 2382-1387-6688-6849-9430 3818
2038.41 5736 7958 5802 3555-6356-1040
2041.30 1808 7843-1835 11575 20611 1170
2044.19-17432-14141-17132-8417-2071 2968
2047.09-2253 6185 17125 17820-5844-8789
2049.98-5867 2075 4099 5221-2400 4871
2052.87 1855-208 5720 6124-2235-1193
2055.76-9471 598 6415 3218-4834 5782
2058.66 9730 5883 2390 8336 8646 6927
2061.55-344-4707-3674 9628 973 961
2064.44 14219 21214 9788 14712 16129 15227
2067.33 15607 12149 1001 8631 4914 24203
2070.23 40137 38095 38114 44177 26237 28481
2073.12 43172 47149 34686 44609 49104 59408
2076.01 56228 48572 24926 26666 40988 44589
2078.91 42593 56990 60959 60804 48062 27029
2081.80 19005 52174 69902 66432 49685 56754
2084.69 74086 79055 51034 58641 83079 83082
2087.58 74562 88532 96770 105221 95639 97316
2090.48 112383 126883 139638 159602 169691 183300
2093.37 181292 184783 177596 208356 234041 256172
2096.26 283641 305097 314271 340109 348741 359242
2099.15 410459 462987 504326 541715 569643 607106
2102.05 630628 637367 677706 748745 785043 822229
2104.94 855193 901299 917994 913551 893384 935462
2107.83 968563 982491 987853 1018566 1036498 1045417
2110.73 1029737 1041152 1108460 1144096 1155999 1151421
2113.62 1127716 1093124 1053923 1004928 1010219 1023156
2116.51 1020123 1032923 1056424 1083832 1094139 1082448
2119.40 1114592 1208569 1252683 1282570 1308625 1360176
2122.30 1409071 1415446 1435787 1522955 1598273 1667160
2125.19 1721512 1789512 1838579 1847377 1822876 1874928
2128.08 1932769 1966410 2019348 2089684 2153796 2235582
2130.97 2281887 2296515 2257712 2236487 2250992 2270792
2133.87 2281811 2311857 2358595 2490739 2685241 2902532
2136.76 3114929 3227335 3102253 2747674 2243463 1898296
2139.65 1729064 1651275 1615831 1618081 1633374 1654364
2142.55 1672100 1696653 1711561 1689182 1626807 1546609
2145.44 1423922 1281017 1141640 1020572 908440 828749
2148.33 753708 705100 695564 681367 643846 643049
2151.22 640252 633928 619356 611506 601427 582180
2154.12 559882 574645 570003 564092 561518 545328
2157.01 505915 449784 398344 385774 374591 364026
2159.90 331402 303495 273509 213331 205585 244412
2162.79 233184 213060 190845 177789 121886 80982
2165.69 97195 110974 99533 82939 62384 48500
2168.58-8080-2009 36690 45194 27138 15371
2171.47-6775-47679-50644 12286 33153 39937
2174.37 48027 57497 22971-18525 21065 74069
2177.26 62333 56684 81107 53056-26047-1478
2180.15 49842 40724 32053 36668 18095-13971
2183.04-15 30065 35532 45226 36189 15374
2185.94-38750-29187 5221 2308-12315-17903
2188.83-39927-73167-75621-49065-52584-55191
2191.72-59445-71580-122573-124941-101525-99893
2194.61-89193-84185-103346-120959-105655-80771
2197.51-81871-98594-106603-108246-116183-87745
2200.40-88809-97313-102137-96809-104672-101497
2203.29-81876-79662-94780-88051-80962-93627
2206.19-97864-82884-66502-59981-76027-77447
2209.08-82438-68377-65596-75884-87521-80781
2211.97-76435-70031-76657-65778-56907-58483
2214.86-64069-60915-53651-43782-44244-58528
2217.76-76164-75380-57816-50381-53786-41827
2220.65-34650-37009-38731-40693-47447-51478
2223.54-58336-59585-52659-40112-52147-63424
2226.43-57998-33646-32771-36870-45301-42242
2229.33-59627-49980-33839-32858-28068-24184
2232.22-30675-29611-34282-34231-31907-22948
2235.11-29777-38817-36816-38462-33968-16935
2238.01-15718-17182-37960-45298-35375-19754
2240.90-12267-4262-27693-25426-9119-16033
2243.79-29484-16284-11867-12760-17699-17810
2246.68-25483-28397-19681-4820-7821-2970
2249.58 2071 4202-13192-9154 11258 9250
2252.47-8250-1477-4354 4575 9171 8444
2255.36 8907-233-15506-12819-9769-5326
2258.25-10395-13989-12684 7-4228 7973
2261.15 6830-5371-2577 6396-6380-6988
2264.04 15689 17057 1938 2092 5623 14205
2266.93-4883-17114-8040-7811-28350-19059
2269.83-6202 15814 17256-1876-27703-31993
2272.72-23920-5544-9756-14767-13167-3737
2275.61-10882-8296 5422 3563-19525-24918
2278.50-22913-18148-19793-14898-14042-18551
2281.40-15007-12197-20262-17308-26541-16673
2284.29-9245-20888-17624 598 2987 1953
2287.18-18904-21676-22204-16789-14442-11317
2290.07-21865-21541-15362-7648-8065-2319
2292.97-4293 2384 1448 6354-2364-10072
2295.86-16072-8555-6941 1490 5534-3116
2298.75-14568 1876 5410 2846-11603 2317
2301.65 8840 15448-5633-9627-18258 234
2304.54-77-5882-7060 18253 39393 18750
2307.43-6066 7349 32644 13767-18102 3241
2310.32 43699 74480 26391 13894 54630 104482
2313.22 34147 10462 45526 134925 78222 40349
2316.11 63147 169799 124704 34969 48426 185919
2319.00 152218 50354 64058 227609 200408 67541
2321.89 92926 271007 232292 58506 98747 317056
2324.79 265663 73945 155239 379375 292828 73689
2327.68 194560 414950 265761 64082 278261 480506
2330.57 250416 100519 367864 472447 174914 147775
2333.47 465081 429354 130799 263396 524347 312757
2336.36 134427 406964 476414 155384 183677 483778
2339.25 333605 107094 346367 463156 195086 188030
2342.14 390902 255206 107874 259816 271275 96298
2345.04 153045 242549 129135 83589 145903 114344
2347.93 48457 31914 55079 83827 74039 97746
2350.82 183984 151822 121591 276188 249835 156258
2353.71 344525 333488 181413 387395 396154 224599
2356.61 453190 434926 247855 510567 440345 278219
2359.50 556377 416965 332166 583673 341031 376157
2362.39 566612 304729 454504 485857 303892 500652
2365.29 352042 323965 441755 245901 372455 326274
2368.18 244978 346719 212193 281623 232484 209394
2371.07 241167 142381 199705 136170 150421 131800
2373.96 110879 107129 79591 106834 61076 69803
2376.86 62168 64986 36256 28055 21662 33253
2379.75 17570 24340 27747 9178-10940 1464
2382.64 1604 298-4197-3225-2701 13135
2385.53 7115 279 876 1607 927 9501
2388.43 4238-3022 2862 3718-5336-1317
2391.32 5029 6277 8651-48-6604 12571
2394.21 19237 11698 7600 17539 15439 7874
2397.11 8118 16676 12021 21529 20801 13553
2400.00 15038 27455 16358 12031 24345 35079
2402.89 25308 24736 16777 16018 21249 33426
2405.78 33021 31636 25386 13214 24080 41803
2408.68 50198 48045 30063 44174 47387 49578
2411.57 54216 52531 64541 71123 52124 57494
2414.46 69784 82611 79775 73059 89258 105178
2417.35 119626 121738 118751 129914 125908 138171
2420.25 147109 153670 174578 203072 218669 229033
2423.14 241120 253993 262528 295114 317112 320024
2426.03 335015 357786 388101 411125 418230 448614
2428.93 491667 514716 544669 593315 634647 674084
2431.82 720345 763478 786336 832105 889474 940780
2434.71 983250 1015465 1062790 1132555 1186913 1249325
2437.60 1302545 1361505 1429666 1509375 1586740 1655544
2440.50 1736890 1840051 1943964 2038366 2121173 2236571
2443.39 2401809 2558496 2652356 2711525 2743939 2786051
2446.28 2859483 2988292 3128120 3201197 3183198 3209098
2449.17 3473010 3962385 4480483 4772252 5015265 5422691
2452.07 5549506 4673970 3294771 2528642 2329494 2349953
2454.96 2425966 2526345 2623700 2724296 2801940 2864761
2457.85 2888174 2885086 2859582 2791246 2667411 2548280
2460.75 2412761 2259800 2093577 1912926 1750106 1621033
2463.64 1491328 1386418 1315766 1267890 1224993 1196537
2466.53 1152344 1117931 1086975 1058514 1017505 967808
2469.42 900498 838018 779016 722708 642623 593967
2472.32 579463 565217 543626 528072 516448 509918
2475.21 501325 487615 467403 453067 424175 395360
2478.10 358443 335969 314302 298020 280967 255497
2480.99 225865 220575 212532 213890 211889 206522
2483.89 190624 189131 191258 187691 186739 191561
2486.78 199685 209274 196002 192625 194083 202593
2489.67 187669 190688 198485 196683 195994 212296
2492.57 209475 197543 180781 170828 182144 201770
2495.46 210600 229063 224754 229944 225372 209456
2498.35 212553 230493 221123 226024 235010 236011
2501.24 232235 237487 233067 241478 255338 268151
2504.14 279724 297158 291687 279847 281220 302419
2507.03 323059 332268 330111 328774 325751 328609
2509.92 319491 321831 335546 344232 339072 332903
2512.81 330218 326088 318801 305412 301469 302274
2515.71 297730 311793 314356 313739 309928 309333
2518.60 316732 312527 311845 322273 316903 297938
2521.49 288910 293120 281024 275038 273595 262736
2524.39 250073 252187 236174 229322 232712 236978
2527.28 240491 230993 233091 239160 226545 214152
2530.17 212724 226042 227839 215410 212329 224405
2533.06 237108 243155 235084 240814 244694 244959
2535.96 249830 266934 264105 255059 254447 256772
2538.85 262455 280244 269804 245387 221662 236111
2541.74 247436 250970 242969 237918 235432 233183
2544.63 227899 226106 224871 223245 224942 226088
2547.53 221182 220347 212243 202263 194127 187792
2550.42 182747 179557 171834 175130 179066 169480
2553.31 161142 147213 134567 141454 142222 131200
2556.21 139648 144122 121111 104214 99541 107337
2559.10 107850 110858 91067 88842 80697 83182
2561.99 71616 63052 59311 57737 35904 22839
2564.88 23092 31994 31735 18322 7028 15232
2567.78 7362 1934 6792 17055 14264 20417
2570.67 3370-12835-10966 3261 14538 7778
2573.56-1043 2071-9475-11975-6654 8210
2576.45 2016-13804-27527-23160-16870-8223
2579.35-13491-2208 3448-5302-13351-1553
2582.24-13346-8031-6323-14577-25816-22859
2585.13-26691-27166-21993-24760-13219-3862
2588.03-16575-9332-19356-34195-30802-18021
2590.92-16525-23946-23155-5041-21367-28126
2593.81-20030-15306-19669-13948-6882 3951
2596.70-7227-11992-22077-28991-24810-9152
2599.60 3618 1073 13778 12975 464-5952
2602.49-6108 5792 149 1648 6366 8314
2605.38 20325 29864 25508 27370 24747 12462
2608.27 4624 11150 3131 4164 12270 10451
2611.17 6674 16300 5882-192 3592 10085
2614.06-3790-1778 13971 14849 2963-6404
2616.95-13210 552 4166-6857-18141-25400
2619.85-21789-20090-18825-14220-5814-12139
2622.74-19148-17055-11728 43-7221-8337
2625.63-5145 923-3278-6507-17153-9280
2628.52-9404-11226-20186-24261-16693-10632
2631.42-10825-8618-3268 1546 6798 235
2634.31-31692-23795 1072-7348-22172-13258
2637.20-15282-3220 3020 4465-1878 707
2640.09 7335 3242-2909 15847 20223 14632
2642.99 1553-7985 13544 42943 24454 15454
2645.88 8969 10472 10298 13462 10822 22204
2648.77 35651 37029 38722 36414 38435 53380
2651.67 45422 56064 74839 70806 51663 54852
2654.56 46562 70555 76108 83065 86255 87116
2657.45 78501 86315 85321 89558 108143 119442
2660.34 118295 119142 116522 107365 92538 113125
2663.24 120378 115811 113806 114109 122046 129007
2666.13 138514 153580 159669 156124 151355 168396
2669.02 191303 183763 164982 147571 128952 118677
2671.91 137815 135663 112634 104524 105834 107453
2674.81 91116 92065 101956 99615 93151 95700
2677.70 82301 78417 71058 67595 70740 63983
2680.59 59158 61835 56157 43799 37203 26277
2683.49 26531 34400 19318 29075 20996 4339
2686.38 8788 18662 9045 189 8492 11459
2689.27-7909-4928 2321 7761-17023-17408
2692.16-1528 6995 6761-6803-17824-27071
2695.06-22301-23373-36478-20229-24028-31667
2697.95-21329-13832-30702-31013-31361-38137
2700.84-40991-19913-15906-22648-20908-11037
2703.73-12893-16275-9927 3862 4774 8762
2706.63 22451 23748 2883 1414-1085 1465
2709.52 10567 13226 11767 12353-1222 10941
2712.41 6659-25792-41989-22581-17204-46241
2715.31-64353-35307 753 5573-10730-17814
2718.20 940 7712 1986-4662-26255-26800
2721.09-27178-32740-27391-24249-13074-16420
2723.98-17398-2661 4986 11531-11109-15601
2726.88-21011-31158-25755-30121-30107-22533
2729.77-27889-30795-32095-23768-32988-30347
2732.66-29216-28468-10688-7024-20040-8051
2735.55-17145-19184-24311-33701-30888-4266
2738.45-7274-31003-32830-9407 2837-419
2741.34-11126-11195-13497-30099-57109-51320
2744.23-26823-30519-52278-41816-47590-46594
2747.13-18577 30222 84256 109658 37413-16639
2750.02-19507-4027-2948-23580-56541-33468
2752.91-11881-10916-19494-16339-3808 7731
2755.80 1537-7113-7396 4494 1611 6004
2758.70 9483 26983 33274 34616 40818 43202
2761.59 15778 20957 25889 35290 12835 2631
2764.48 8148 18414-1595-25297-73905-126137
2767.37-176976-197672-165285-72736 6736 25236
2770.27-6695-8339 17246 56802 61946 50987
2773.16 45380 47041 38774 41075 37113 32517
2776.05 27246 25125 33711 35634 22694 15129
2778.95 17296 23156 8054-9972-8566 12025
2781.84 4169 6820 17840 34487 13091 1136
2784.73 12228 16656 12662 13834-4970-9773
2787.62-10941 16867 31751 7115 7007 20997
2790.52 30924 45500 55042 63268 63506 92600
2793.41 92234 97952 90017 92269 96520 109421
2796.30 133243 151709 155414 157106 164390 166940
2799.19 177068 199245 197270 208448 221464 222885
2802.09 219270 230140 227693 224001 240976 264841
2804.98 250333 262306 298090 310480 293687 290000
2807.87 291074 339048 366023 333204 286457 280459
2810.77 292685 299796 302773 310967 321748 329954
2813.66 347633 376055 398356 408710 410262 431552
2816.55 451331 470285 473077 480207 499040 526268
2819.44 541439 558980 582732 601336 601446 609740
2822.34 622515 616450 606353 596715 590205 600076
2825.23 605201 616597 624698 664650 694088 701256
2828.12 731712 807167 827153 807987 726493 646866
2831.01 580981 552500 547426 571242 606847 639946
2833.91 680660 718602 735240 745941 738578 735542
2836.80 731659 701799 649804 609627 553405 516022
2839.69 507160 517399 534018 537137 554456 590016
2842.59 598527 607324 592906 577781 580280 599929
2845.48 605872 618543 611156 592729 574411 569262
2848.37 591952 650392 674188 664334 643560 649006
2851.26 653405 671664 683786 707561 703999 692126
2854.16 696433 732204 754405 749060 764181 812441
2857.05 857388 893832 908434 922918 938505 972937
2859.94 1002844 1018996 1010686 1041272 1070850 1103712
2862.83 1117597 1161230 1175708 1206227 1233339 1280586
2865.73 1338746 1373442 1384772 1411036 1440363 1462739
2868.62 1498720 1526530 1526597 1515744 1503809 1471846
2871.51 1449835 1473680 1464738 1456037 1446108 1429895
2874.41 1403280 1383645 1331813 1309653 1311346 1303929
2877.30 1284321 1272551 1270082 1283921 1277531 1276249
2880.19 1267868 1257051 1249062 1250037 1232115 1220405
2883.08 1193064 1214633 1257336 1265929 1242042 1240456
2885.98 1201014 1159907 1158528 1180381 1202172 1206394
2888.87 1175294 1151354 1172740 1189728 1214345 1254566
2891.76 1225952 1207697 1208470 1231728 1271534 1280872
2894.65 1251865 1242050 1210849 1198059 1174331 1147169
2897.55 1126896 1103027 1049147 1014890 976545 953020
2900.44 947121 935918 925938 938826 916730 906767
2903.33 866319 844280 825419 820517 793945 743485
2906.23 710257 693433 660275 652550 625832 614641
2909.12 589300 560583 531154 520407 506456 491010
2912.01 449614 422654 403815 404677 379908 376253
2914.90 344108 321346 286451 283758 244390 239152
2917.80 237761 226982 188302 180274 160087 151725
2920.69 146535 169991 155633 148923 108044 110692
2923.58 113292 129497 127157 138804 120728 131482
2926.47 130256 170325 195658 243687 269377 314516
2929.37 370725 449871 494966 586040 679687 831842
2932.26 990190 1163457 1330153 1568288 1788205 2075984
2935.15 2372284 2695757 2993984 3362703 3718977 4094900
2938.05 4435772 4821558 5150689 5494748 5735392 5968544
2940.94 6097564 6230978 6239988 6268697 6190248 6123389
2943.83 5965221 5749998 5250588 4764784 4284211 3962567
2946.72 3565467 3492181 3662511 4739173 8049438 15469639
2949.62 32596355 50881609 32901060 10462482 4581493 3235370
2952.51 3128017 3217321 3703173 4113180 4679400 5109674
2955.40 5620221 6010457 6447528 6707293 6960249 7039003
2958.29 7111658 7063634 6978133 6749150 6513451 6157894
2961.19 5803308 5436104 5123065 4674005 4269987 3819074
2964.08 3422964 3029768 2704727 2353846 2076455 1802524
2966.97 1611442 1410474 1247379 1074303 960213 876102
2969.87 810590 729051 677155 612485 574360 505340
2972.76 480214 437595 427035 412831 421586 414350
2975.65 422572 366929 350392 343382 359684 359619
2978.54 390492 376796 354463 330231 359539 365137
2981.44 388007 375770 380499 368052 391069 419184
2984.33 434032 405166 423413 433583 457480 479377
2987.22 515468 514575 555139 599024 656004 681144
2990.11 721942 766832 852176 920840 1011226 1078997
2993.01 1175078 1292509 1473704 1649762 1855293 2122807
2995.90 2450012 2814806 3276217 3793983 4450879 5199999
2998.79 6100546 7109919 8306433 9627119 11108415 12694071
3001.69 14401822 16120056 17817845 19401591 20920417 22279184
3004.58 23493090 24415865 25037574 25254540 25101150 24548821
3007.47 23770573 22822875 21993600 21473238 21651246 22815229
3010.36 25519838 29916164 36089928 42567982 47830303 49391674
3013.26 45576754 39785024 33122100 27519690 23718798 21723362
3016.15 21095992 21497136 22475703 23744119 24922479 25869305
3019.04 26466813 26695348 26454143 25815356 24756496 23389123
3021.93 21776078 19999731 18106655 16213228 14340581 12540841
3024.83 10849537 9328686 7941490 6685918 5595008 4662984
3027.72 3853394 3162571 2578907 2102498 1706911 1390671
3030.61 1133981 914399 741625 624601 513572 420359
3033.51 338923 272951 234980 192870 155778 142524
3036.40 143888 137245 121876 91542 82661 81144
3039.29 68577 66045 57195 56985 59605 55306
3042.18 55450 67990 76817 76681 88965 84558
3045.08 72367 60184 52521 56188 65987 73096
3047.97 90594 98239 94270 80326 50936 45433
3050.86 46214 37838 27519 34834 31691 24652
3053.75 24076 39205 47804 31666 41166 61908
3056.65 60574 40635 10541-3905 27342 43467
3059.54 45111 32363 28010 23372 2114-16153
3062.43-4440 26903 42819 32919 18320 30055
3065.33 33463 18231 8915 7700-1740 8160
3068.22 19805 10539 5890 9895 8752 8379
3071.11 7099-15359-32832-28860-8191-2398
3074.00 1457 29351 51299 43780 20595 7573
3076.90 3211-9823-5209 7316 10857-5077
3079.79-8236-30546-42431-20820-27480-35456
3082.68-11339 4803 18643 7729-2037-16918
3085.57-21943-21703-21080-12877-15939-12527
3088.47 485-5386-22017-25339-793 40839
3091.36 35682 29289 13821 3533 8503 15210
3094.25 29001 20007 17281 14421-15819-25341
3097.15 16078 17810-6760-19786-16845 6538
3100.04 7632-22684-13429-2096-7273-22932
3102.93-23822-9429 9078 12565-572-18714
3105.82-19146-28925-48641-35251-7282-10498
3108.72-26603-16473 7322-10033-43536-67087
3111.61-58896-9204 14185 7750-13730-29415
3114.50-11754-8293-14708-26204-32238-3846
3117.39 9017 612-4174-32534-41851-25008
3120.29-11140-18690-39537-29944-29313-36703
3123.18 5474 28548 1747-22086-21092-32931
3126.07-19776 5634 5322-18172-24901-25860
3128.97-30779-30797-9131-12121-14320-20090
3131.86-18071-24374-39147-21271 7358 18671
3134.75-2699-16771-11395-8885-16505-9495
3137.64-7191 111-3645-30939-22936-12862
3140.54-5166-8374-681 30289 28642 4270
3143.43-5913-20553-10580-13645-28855-24917
3146.32-2460 22245 19026 12349 1990-2506
3149.21-5425-4302 6476 16363 24753 38018
3152.11 38370 34848 41536 34585 37353 43079
3155.00 23252 26301 29401 33105 43404 24256
3157.89 31151 41625 19121 24434 38983 51556
3160.79 58949 64318 79754 68826 63873 65126
3163.68 63090 67739 83598 74827 64718 70607
3166.57 88828 79674 91925 109777 130857 128563
3169.46 127914 109754 95193 103137 108067 130417
3172.36 145228 151450 144243 137118 150058 135686
3175.25 140932 155889 169741 181089 184709 194726
3178.14 219047 223260 204422 211373 223515 229532
3181.03 226438 206143 177985 191064 208959 207537
3183.93 192999 185820 198767 225989 247532 260732
3186.82 249091 280198 306022 312187 301185 262309
3189.71 239732 238892 208975 196516 206886 185722
3192.61 197805 197878 191249 214930 204830 177968
3195.50 195345 205329 175709 132269 112836 130854
3198.39 107889 104869 127064 143994 123758 108512
3201.28 114349 119285 94532 69431 81722 82600
3204.18 53355 55907 67363 71592 76409 77036
3207.07 76046 90325 109899 103410 97530 87096
3209.96 63155 53064 65784 71448 74933 75538
3212.85 81970 83407 63914 64217 64617 77462
3215.75 75597 58291 61864 68172 86951 74395
3218.64 56473 54242 53573 26848 20654 24028
3221.53 41345 44178 35690 25751 11511 10992
3224.43 11170 26489 19261 11519-4931-3841
3227.32-249 29746 44437 22402 8201 36268
3230.21 38420 42866 30446 32740 54602 47807
3233.10 43962 50308 77888 113369 130169 108802
3236.00 107648 123719 142061 146620 163267 190543
3238.89 215896 227738 255961 280596 302833 314470
3241.78 314196 314328 336305 360353 382383 373319
3244.67 354173 364271 404403 426528 427213 427336
3247.57 449751 465513 497218 507574 484087 473708
3250.46 466891 437870 415569 428780 414337 401381
3253.35 432370 471910 497338 513734 520334 505827
3256.25 461365 414202 389430 347614 320687 297446
3259.14 278778 286300 288697 267310 248908 234723
3262.03 219315 211919 208803 164106 139142 139545
3264.92 127602 123366 116657 99776 84335 85640
3267.82 63627 44506 45893 56190 47074 49435
3270.71 70332 62715 51343 21301 24159 35598
3273.60 42123 52122 59044 50970 45793 52548
3276.49 68622 72665 70974 78325 87776 99287
3279.39 109024 93665 112421 145260 160832 173604
3282.28 177948 204979 231042 237885 247257 251371
3285.17 243171 218978 221449 256500 310818 346206
3288.07 350773 359138 408837 449330 446716 448153
3290.96 475807 479166 467407 473065 465563 464109
3293.85 520343 569357 535023 491855 492401 471765
3296.74 458034 430472 385483 402775 406171 427795
3299.64 451212 480638 500927 495630 455230 401501
3302.53 378822 354486 315395 249826 220847 222879
3305.42 215698 212537 212856 234612 252113 205083
3308.31 181782 187918 189983 187208 180819 175970
3311.21 176312 146887 106479 82644 72421 55295
3314.10 60384 71717 55894 21329 16413 22988
3316.99 10071-730 1639-5588-347-32136
3319.89-52548-56331-42278-34644-32615-7447
3322.78 8595-11337-12924 49-21681-28758
3325.67-18436-19260 3823 11710-9657-31435
3328.56-25553-4406 2708 6197 23727 14404
3331.46-330 31493 47817 37444 48740 63989
3334.35 65343 54097 74788 91513 125022 162544
3337.24 207228 230948 230625 231458 264506 311278
3340.13 334694 363245 404087 443907 477960 484096
3343.03 519444 595033 638671 678119 709405 696258
3345.92 699605 743962 769402 792102 813471 825122
3348.81 853446 884491 903706 928673 952653 1027949
3351.71 1152591 1278516 1364917 1381650 1338905 1310457
3354.60 1367058 1518131 1723642 1882361 1811694 1576851
3357.49 1435626 1367602 1260087 1157443 1124015 1076603
3360.38 1036175 1005766 960447 904967 889093 886749
3363.28 881346 835999 815090 791286 741899 723091
3366.17 709898 674067 635286 614855 589213 548706
3369.06 503457 483918 455462 385031 339285 316287
3371.95 311150 283855 250281 226058 180481 150556
3374.85 138870 126964 114676 120123 103213 76409
3377.74 53554 55378 30955 38208 72759 46929
3380.63 5157-21887-14531 12197-4484-19411
3383.53-45760-50929-11691-12212-20399-30212
3386.42-31109-34613-30307-27514-28575-44047
3389.31-49415-35946-27007-32542-38574-33740
3392.20-49689-61715-36540-23097-31742-35961
3395.10-35010-24082-33843-67774-61303-56891
3397.99-48723-45281-34396-32465-39073-23788
3400.88-43457-59368-44144-34944-41059-56637
3403.77-57458-42613-52477-63583-30055-37909
3406.67-68920-58182-28140-34822-34883-34832
3409.56-50600-31610-37535-47778-35222-17386
3412.45-24493-55184-58311-30026-27467-29528
3415.35-23006-27637-26539-42535-62193-66769
3418.24-56297-37945-50839-64749-50140-45433
3421.13-69321-82623-44876-24336-24302-10565
3424.02-7902-29952-55382-34608-20974-52534
3426.92-71983-67577-40471-41582-62523-60644
3429.81-31360-31108-46980-55898-54139-35289
3432.70-25710-41819-29061-9626 3261-9060
3435.59-3157 14599-8031-36992-36404-26668
3438.49-29129-52459-75152-71907-48274-32909
3441.38-47776-52801-46855-49345-51188-51966
3444.27-37507-12626-26497-14094 4454-10866
3447.17-18385-21626-35952-51510-69358-80251
3450.06-61523-54561-42091-25881-13076-12064
3452.95-12346-21417-46847-50595-38205-11644
3455.84 7469-17213-27002-27302-10739-767
3458.74-25699-43509-30796-9640 4082 4631
3461.63 7950 10413 25708 25362 20143 16729
3464.52 3744 4533-466 9900 18515-6270
3467.41 4957 47988 44783 34316 35705 13723
3470.31-254 4183 9715 33938 47509 27491
3473.20 52066 64975 80398 85173 62016 54778
3476.09 90386 93437 68346 38572-2372 7741
3478.99 24971 20063 17769 30756 31142 28009
3481.88 31847 33222 27315 19811 22678 14528
3484.77 33874 33719 21709 36612 54412 38793
3487.66 20445 38817 52999 38185 45456 57279
3490.56 21765 1576 18012 27804 42809 52201
3493.45 33765 670 17136 29624 35776 46939
3496.34 41272 12333 642 32117 70273 70559
3499.23 74194 64073 39937 19514 12807 2752
3502.13 1425-7424 19749 16364-16849-8774
3505.02 21334 41540 33413 21397 12527 28323
3507.91 32979-3675 2635 17046 31071 23003
3510.81-52 5412 6829 17790 36045 28097
3513.70 7474 8678 23745 23486 26128 42887
3516.59 56145 53893 55784 60895 79654 61835
3519.48 55839 39214 9405 49789 48247 38366
3522.38 88939 123495 124003 133451 145938 152697
3525.27 167222 165246 135876 132174 145468 175551
3528.16 204152 210718 203840 198371 218676 236260
3531.05 238192 260411 259110 239181 244255 229965
3533.95 237403 252556 253913 259802 260579 285611
3536.84 319249 322466 312324 299325 293352 289591
3539.73 301759 301328 277388 261746 275610 268239
3542.63 214350 214092 243457 255845 257611 231928
3545.52 222975 210630 184303 174037 184651 201669
3548.41 181447 138024 117156 139105 144868 122780
3551.30 82248 72129 96885 89730 57752 32016
3554.20 40613 54641 40875 44495 62461 21284
3557.09-3492 36600 49158 50117 18754 4249
3559.98 40883 30638 8743 31864 29860 1465
3562.87 7676 6078-19905-18255 1771 11953
3565.77 15315-2275-22400-33855-13853 24374
3568.66 25365 10810 4481 6426 16897 31805
3571.55 49140 33427 10115 2260-13159-20978
3574.45-13193-10304 13205 22644 19698-2079
3577.34-26813-24338-16927-17118-20251-31118
3580.23-40745-27600-20889-18772-8615-20544
3583.12-5650-11716-23448-4092 3745-11133
3586.02-32228-50927-41994-35994-63334-69325
3588.91-40133-26982-24338-26832-17865-19440
3591.80 5352 3329-9983-3780 7751-5220
3594.69-38388-49846-13887 11317-3135-19642
3597.59-36490-52924-64533-53818-21384-19983
3600.48-34568-16980-16186-19687-6446-7472
3603.37-27818-43277-40454-28767-41595-31172
3606.27-32336-31856-28775-17758 1304-2878
3609.16 1541 4330-8065-23824-47573-65174
3612.05-93301-80237-36707-43442-51727-34941
3614.94-38058-42059-34077-43370-58692-62662
3617.84-51889-36903-40986-61804-50400-31314
3620.73-11958 4206-6821-24912-50323-55055
3623.62-25328-24049-4786-15082-52608-60180
3626.51-31209-11454-39471-68617-55140-112321
3629.41-114518-34971-20939-36587-48318-34542
3632.30-18203-26043-40878-29690-6212-10676
3635.19-21429-21532-25979-12772-27561-31562
3638.09-24296-31271-44249-23587 10613 13758
3640.98-19436-48255-44730-31445-22925-28677
3643.87-25993-12388-20290-35762-24009-2823
3646.76-17893-30569-42612-75415-118069-76895
3649.66-58065-80974-77018-54600-21052-3381
3652.55-16172-40691-26929-27908-57527-48244
3655.44-47125-83177-70565-46827-39013-40043
3658.33-24892-23030-39478-23608-11905-5094
3661.23-10986-19666-22724-21545-14445-22040
3664.12-24993-14780-14636-14312-3739 6898
3667.01 12491 10952-36001-60696-29920-9370
3669.91-69467-106079-34275 5028 7444-8532
3672.80 3310-3866-10013-21869-12877-42730
3675.69-62085-1324 10061 9833 28303 24933
3678.58 6868 5522 14877 348 3757 3133
3681.48 9820-318-13930-20281-28584-20097
3684.37-24965-45975-31577-28480-29703-43944
3687.26-76518-136134-125603-61102-44917-14170
3690.15-7740-39762-66816-57193-42654-43674
3693.05-44217-15704-8063-13506-22208-14397
3695.94-7690-18117-25018-9753-629-17431
3698.83-36244-26887-34734-33252-17141-42104
3701.73-51664-28934-20781-17056-39043-45961
3704.62-56278-70065-73511-36079-9659-29397
3707.51-46689-46188-50794-58434-52856-59380
3710.40-49822-36822-73645-114356-91360-54400
3713.30-29706-24626-29981-29707-17781-20222
3716.19-24445-33739-43136-31690-18215-20318
3719.08-22303-2122 7115-21584-21982-1979
3721.97-1207-13190-28902-5031 27585 27043
3724.87 15604-7473-38944-27722 6357 21426
3727.76 45641 31608 21574 33934 33175 36415
3730.65 46120 20353-13255-1870 42375 44154
3733.55 28439 4539 106 5140-1532-59837
3736.44-43064 19591 24458 14418 18532 13178
3739.33 6555 11960 10935 11617 31342 46448
3742.22 29958-2011-28270-110609-164182-95612
3745.12-28336-22741-10311 6135 1035-13914
3748.01-34199-96430-131887-59124-20597-21819
3750.90-32663-112568-154065-77272-51880-33394
3753.79-13135-41829-66048-71184-68811-64246
3756.69-45013-32613-32334-46507-40967-54968
3759.58-79252-49651-18343-24046-42345-60035
3762.47-47012-30229-46948-55764-48587-67725
3765.37-70137-64944-61498-49350-37910-37286
3768.26-49113-71970-91005-56304-26494-35865
3771.15-35718-36962-41309-46913-40037-22082
3774.04-38895-57627-30136-33208-55064-72658
3776.94-74319-65690-63350-68249-90576-82594
3779.83-47803-33138-41092-37926-27428-39139
3782.72-58184-50849-48172-37810-40773-49815
3785.61-56480-45979-25737-21244-32324-30155
3788.51-37514-40476-27777-28124-40234-20013
3791.40-9654-25216-42760-41804-40980-46000
3794.29-55301-48240-31422-41629-47704-46491
3797.19-38398-31171-13747-23388-30710-29130
3800.08-43735-116824-142584-69013-37858-22729
3802.97-9806-22959-24833-5985-14530-45289
3805.86-76542-132105-113244-51298-34850-34408
3808.76-33633-17409-19883-4564 20143 22662
3811.65-4836-15312-8106-972-8256-23368
3814.54-28477-40431-120277-83414 10261 28432
3817.43 21119-20317-31664-11217-9205-45312
3820.33-58981-49503-51216-23567 12664 24033
3823.22 10221-10886-19572-17134-33583-11761
3826.11 12299 27656 37089 10082 10034 44578
3829.01 50955 40201 53976 46199 6500 2183
3831.90 8786-6670 23363 27359 7784-22490
3834.79-20161-11624 5722 1703-34371-106301
3837.68-73800-15957-8402-3523-8968-16036
3840.58-19358-13131-18114-10031-23592-52980
3843.47-65299-48201-44820-45193-45216-25290
3846.36-34272-47553-59882-71720-51978-37195
3849.25-34720-31251-46534-70092-117217-120011
3852.15-57299-55201-99492-188552-143071-73404
3855.04-42159-23325-40431-49249-53204-47908
3857.93-32586-38884-61529-53944-38618-26162
3860.83-44787-71911-47565-28744-54756-66232
3863.72-57947-74291-95940-75188-50096-44962
3866.61-61039-67141-65580-61591-71592-78939
3869.50-99119-69100-45732-42319-34529-36167
3872.40-37289-50180-42785-43890-43706-33964
3875.29-33847-15487-15423-30651-34386-43252
3878.18-49866-42584-45049-76545-76372-46611
3881.07-34471-40385-45280-29960-488-1234
3883.97-11295-36682-78518-88737-37353-27672
3886.86-42617-31980-14855 859-21317-41718
3889.75-42156-42692-41900-24336-8404-25767
3892.65-38396-45943-59026-42871 5155-3584
3895.54-39577-30287-24754-17827-16463-33587
3898.43-51331-67507-37637-15836-23595-38949
3901.32-26341 6811 23749 7134-37363-67384
3904.22-39817-13000-20533-32288-46416-20465
3907.11 11333 5327 13518 17801 14947 27696
3910.00 40757 18222-82 7646 43750 43549
3912.89 21952 17673 20884 21428 20925 19718
3915.79 53881 65417 41439 40727 63616 56995
3918.68 51416 30008 35737 74808 70467 45531
3921.57 47775 52555 73040 91021 62655 31465
3924.47 45403 82364 69134 56649 64902 90487
3927.36 91141 93048 112474 98051 68097 75761
3930.25 98668 103622 117587 104036 80172 95850
3933.14 99735 105135 103227 112262 120742 117688
3936.04 119240 121411 115061 101836 105246 125994
3938.93 124860 111592 134252 150317 132607 128750
3941.82 149348 162217 157535 163408 178996 195887
3944.71 193094 190100 177055 195966 213949 222452
3947.61 215995 210520 202838 205828 221775 230965
3950.50 236029 226466 241650 241689 217451 215140
3953.39 221617 237752 256084 249767 272057 271178
3956.29 255096 260295 260058 233740 208508 206713
3959.18 201824 195071 210145 233804 240923 240843
3962.07 224230 206879 208848 226457 232424 229642
3964.96 221800 200088 175207 186518 222560 240053
3967.86 214365 173922 175442 177928 184726 198278
3970.75 191355 194921 237886 246329 218104 192491
3973.64 207757 238602
##END=
