##TITLE=PERTHANE
##JCAMP-DX=4.24
##DATA TYPE=INFRARED SPECTRUM
##CLASS=COBLENTZ III
##ORIGIN=K. K. DEB-NCI FREDERICK CANCER RESEARCH CENTER
##OWNER=Copyright (C) 1987 by the Coblentz Society
Collection (C) 2018 copyright by the U.S. Secretary of Commerce
on behalf of the United States of America. All rights reserved.
##DATE=C18 H20 Cl2
##NAMES=1-[2,2-dichloro-1-(4-ethylphenyl)ethyl]-4-ethylbenzene
1,1-DICHLOROETHANE,2-BIS(4-ETHYLPHENYL)
##CAS REGISTRY NO=72-56-0
##MOLFORM=C18 H20 Cl2
##SOURCE REFERENCE=COBLENTZ NO. 9727
##$NIST SOURCE=COBLENTZ
##$NIST IMAGE=cob9727
##SPECTROMETER/DATA SYSTEM=PERKIN-ELMER 180 (GRATING)
##INSTRUMENT PARAMETERS=GRATINGS: 2000, 1000, 500, 250 CM^-^1; FILTER CHANGE: 2970, 2000, 1485, 1000, 743, 500, 372, 250, 186 CM^-^1.
##STATE=SOLID (1.25 mg / 300 mg KBr DISC)
$$ PURITY 99+% BY TLC
SEE SPECTRUM NO. 9724, 9725 FOR "THIN FILM FROM C2HCl3 SOLUTION" RUN, AND SPECTRUM NO. 9726 FOR "CS2 SOLUTION" RUN
##SAMPLING PROCEDURE=TRANSMISSION
##RESOLUTION=2
##DATA PROCESSING=DIGITIZED BY COBLENTZ SOCIETY (BATCH II) FROM HARD COPY
##XUNITS=1/CM
##YUNITS=TRANSMITTANCE
##XFACTOR=1.0
##YFACTOR=1
##FIRSTX=352
##LASTX=4000
##FIRSTY=0.879
##MAXX=4000
##MINX=352
##MAXY=0.94
##MINY=0.1074
##NPOINTS=3649
##XYDATA=(X++(Y..Y))
352.000000 0.8790 0.8822 0.8853 0.8883 0.8913
357.000000 0.8943 0.8972 0.8997 0.9019 0.9041
362.000000 0.9063 0.9085 0.9107 0.9114 0.9114
367.000000 0.9113 0.9112 0.9108 0.9100 0.9093
372.000000 0.9088 0.9086 0.9085 0.9089 0.9102
377.000000 0.9130 0.9146 0.9156 0.9166 0.9177
382.000000 0.9187 0.9197 0.9201 0.9205 0.9208
387.000000 0.9211 0.9207 0.9204 0.9200 0.9197
392.000000 0.9193 0.9189 0.9184 0.9177 0.9170
397.000000 0.9164 0.9157 0.9150 0.9142 0.9133
402.000000 0.9125 0.9117 0.9109 0.9100 0.9100
407.000000 0.9104 0.9109 0.9113 0.9117 0.9122
412.000000 0.9127 0.9139 0.9151 0.9163 0.9175
417.000000 0.9187 0.9199 0.9214 0.9210 0.9211
422.000000 0.9211 0.9211 0.9209 0.9206 0.9203
427.000000 0.9201 0.9198 0.9195 0.9192 0.9189
432.000000 0.9186 0.9181 0.9176 0.9172 0.9167
437.000000 0.9162 0.9158 0.9143 0.9126 0.9110
442.000000 0.9066 0.9014 0.8950 0.8859 0.8772
447.000000 0.8689 0.8605 0.8522 0.8439 0.8356
452.000000 0.8299 0.8304 0.8316 0.8433 0.8562
457.000000 0.8690 0.8819 0.8948 0.9076 0.9139
462.000000 0.9150 0.9161 0.9172 0.9172 0.9172
467.000000 0.9171 0.9170 0.9169 0.9163 0.9161
472.000000 0.9156 0.9152 0.9147 0.9138 0.9130
477.000000 0.9122 0.9114 0.9106 0.9097 0.9084
482.000000 0.9072 0.9059 0.9043 0.9019 0.8996
487.000000 0.8967 0.8934 0.8902 0.8869 0.8836
492.000000 0.8803 0.8758 0.8713 0.8668 0.8623
497.000000 0.8566 0.8496 0.8425 0.8334 0.8174
502.000000 0.7982 0.7718 0.7453 0.7188 0.6924
507.000000 0.6659 0.6394 0.6169 0.6157 0.6164
512.000000 0.6324 0.6478 0.6630 0.6626 0.6609
517.000000 0.6132 0.5627 0.5122 0.4616 0.4111
522.000000 0.3605 0.3381 0.3323 0.3317 0.3957
527.000000 0.4754 0.5550 0.6347 0.7144 0.7798
532.000000 0.8125 0.8347 0.8454 0.8560 0.8645
537.000000 0.8710 0.8775 0.8810 0.8825 0.8839
542.000000 0.8854 0.8865 0.8863 0.8861 0.8858
547.000000 0.8856 0.8858 0.8861 0.8864 0.8886
552.000000 0.8905 0.8919 0.8927 0.8914 0.8919
557.000000 0.8915 0.8911 0.8906 0.8897 0.8888
562.000000 0.8878 0.8869 0.8860 0.8851 0.8839
567.000000 0.8828 0.8817 0.8805 0.8791 0.8773
572.000000 0.8755 0.8737 0.8706 0.8670 0.8633
577.000000 0.8597 0.8552 0.8464 0.8377 0.8303
582.000000 0.8238 0.8173 0.8108 0.7970 0.7628
587.000000 0.7316 0.7094 0.6872 0.6663 0.6454
592.000000 0.5544 0.4941 0.4337 0.3734 0.3131
597.000000 0.2528 0.1925 0.1345 0.1343 0.1342
602.000000 0.2647 0.3433 0.4218 0.5004 0.5789
607.000000 0.6575 0.8416 0.8619 0.8698 0.8748
612.000000 0.8798 0.8848 0.8898 0.8922 0.8943
617.000000 0.8963 0.8983 0.9003 0.9023 0.9046
622.000000 0.9068 0.9091 0.9114 0.9137 0.9160
627.000000 0.9174 0.9175 0.9177 0.9177 0.9162
632.000000 0.9147 0.9132 0.9116 0.9094 0.9072
637.000000 0.9050 0.9027 0.8995 0.8964 0.8946
642.000000 0.8939 0.8932 0.8940 0.8955 0.8992
647.000000 0.9021 0.9031 0.9025 0.9016 0.9008
652.000000 0.8995 0.8976 0.8957 0.8938 0.8920
657.000000 0.8902 0.8885 0.8869 0.8852 0.8835
662.000000 0.8817 0.8798 0.8780 0.8761 0.8742
667.000000 0.8724 0.8705 0.8686 0.8663 0.8638
672.000000 0.8613 0.8587 0.8562 0.8537 0.8504
677.000000 0.8469 0.8435 0.8400 0.8345 0.8279
682.000000 0.8213 0.8146 0.8072 0.7994 0.7916
687.000000 0.7832 0.7747 0.7662 0.7577 0.7451
692.000000 0.7313 0.6515 0.5877 0.5238 0.4599
697.000000 0.3961 0.3322 0.2684 0.2557 0.2568
702.000000 0.4018 0.5943 0.6619 0.6712 0.6773
707.000000 0.6833 0.6873 0.6911 0.6892 0.6858
712.000000 0.6796 0.6516 0.6237 0.5957 0.5677
717.000000 0.5398 0.5118 0.4838 0.4559 0.4279
722.000000 0.4000 0.3853 0.3893 0.3980 0.4022
727.000000 0.4019 0.3965 0.3566 0.3167 0.2769
732.000000 0.2370 0.1971 0.1573 0.1360 0.1359
737.000000 0.1404 0.1338 0.2305 0.2756 0.3207
742.000000 0.3657 0.4108 0.4559 0.5009 0.5332
747.000000 0.5359 0.5144 0.4831 0.4518 0.4205
752.000000 0.3892 0.3579 0.3266 0.2953 0.2639
757.000000 0.2326 0.2171 0.2390 0.2889 0.3389
762.000000 0.3888 0.4387 0.4886 0.5385 0.5721
767.000000 0.5741 0.5570 0.5419 0.5268 0.5117
772.000000 0.4966 0.4862 0.4865 0.4855 0.5490
777.000000 0.5813 0.6136 0.6459 0.6782 0.7105
782.000000 0.7428 0.7751 0.7921 0.7981 0.8014
787.000000 0.8033 0.8035 0.8029 0.8022 0.8008
792.000000 0.7991 0.7974 0.7946 0.7914 0.7874
797.000000 0.7799 0.7659 0.7482 0.7348 0.7178
802.000000 0.6906 0.6634 0.6361 0.6089 0.5817
807.000000 0.5545 0.5272 0.5000 0.4728 0.4456
812.000000 0.4184 0.3911 0.3639 0.3367 0.3095
817.000000 0.2822 0.2528 0.2537 0.2814 0.3279
822.000000 0.3743 0.4208 0.4672 0.5137 0.5601
827.000000 0.6066 0.6530 0.6994 0.7459 0.7753
832.000000 0.7838 0.7910 0.7911 0.7909 0.7877
837.000000 0.7846 0.7836 0.7827 0.7830 0.7832
842.000000 0.7912 0.8124 0.8336 0.8528 0.8537
847.000000 0.8530 0.8402 0.8031 0.7659 0.7288
852.000000 0.6916 0.6545 0.6173 0.5802 0.5430
857.000000 0.5059 0.4762 0.4762 0.5374 0.6115
862.000000 0.6857 0.7598 0.8265 0.8371 0.8506
867.000000 0.8524 0.8512 0.8502 0.8425 0.8066
872.000000 0.7707 0.7347 0.6988 0.6629 0.6270
877.000000 0.5911 0.5551 0.5192 0.4833 0.4474
882.000000 0.4024 0.4039 0.4107 0.4954 0.5800
887.000000 0.6647 0.7493 0.8222 0.8470 0.8651
892.000000 0.8800 0.9020 0.9142 0.9187 0.9233
897.000000 0.9266 0.9294 0.9322 0.9331 0.9339
902.000000 0.9348 0.9357 0.9366 0.9370 0.9374
907.000000 0.9400 0.9383 0.9387 0.9390 0.9388
912.000000 0.9386 0.9384 0.9381 0.9379 0.9377
917.000000 0.9375 0.9372 0.9369 0.9366 0.9362
922.000000 0.9359 0.9356 0.9353 0.9349 0.9345
927.000000 0.9340 0.9334 0.9328 0.9323 0.9317
932.000000 0.9311 0.9306 0.9300 0.9291 0.9280
937.000000 0.9268 0.9256 0.9245 0.9226 0.9193
942.000000 0.9159 0.9126 0.9082 0.9026 0.8978
947.000000 0.8947 0.8932 0.8927 0.8929 0.8949
952.000000 0.8999 0.9023 0.9026 0.9025 0.9020
957.000000 0.8941 0.8847 0.8753 0.8658 0.8564
962.000000 0.8470 0.8376 0.8282 0.8187 0.8093
967.000000 0.7999 0.7905 0.7810 0.7716 0.7670
972.000000 0.7680 0.7868 0.8044 0.8219 0.8395
977.000000 0.8570 0.8713 0.8761 0.8813 0.8867
982.000000 0.8919 0.8950 0.8980 0.9011 0.9030
987.000000 0.9046 0.9061 0.9077 0.9087 0.9087
992.000000 0.9087 0.9087 0.9087 0.9086 0.9082
997.000000 0.9078 0.9074 0.9069 0.9065 0.9058
1002.000000 0.9050 0.9042 0.9034 0.9026 0.9016
1007.000000 0.8999 0.8982 0.8953 0.8912 0.8871
1012.000000 0.8826 0.8772 0.8718 0.8664 0.8591
1017.000000 0.8494 0.8396 0.7835 0.6957 0.6953
1022.000000 0.7200 0.7497 0.7795 0.8092 0.8390
1027.000000 0.8687 0.8832 0.8810 0.8808 0.8795
1032.000000 0.8773 0.8719 0.8668 0.8606 0.8520
1037.000000 0.8367 0.8140 0.7914 0.7688 0.7557
1042.000000 0.7549 0.7623 0.7783 0.7943 0.8103
1047.000000 0.8248 0.8242 0.8269 0.8226 0.8197
1052.000000 0.8144 0.8083 0.8019 0.7923 0.7784
1057.000000 0.7525 0.7265 0.7006 0.6747 0.6488
1062.000000 0.6229 0.5970 0.5905 0.5918 0.5917
1067.000000 0.6442 0.6705 0.6967 0.7230 0.7492
1072.000000 0.7754 0.8017 0.8279 0.8541 0.8685
1077.000000 0.8756 0.8807 0.8859 0.8899 0.8923
1082.000000 0.8947 0.8958 0.8963 0.8969 0.8974
1087.000000 0.8979 0.8992 0.8988 0.8983 0.8978
1092.000000 0.8974 0.8969 0.8965 0.8956 0.8942
1097.000000 0.8927 0.8913 0.8894 0.8872 0.8851
1102.000000 0.8829 0.8807 0.8786 0.8758 0.8722
1107.000000 0.8685 0.8648 0.8612 0.8567 0.8515
1112.000000 0.8462 0.8409 0.8329 0.8246 0.8163
1117.000000 0.8080 0.7943 0.7619 0.7295 0.6972
1122.000000 0.6648 0.6324 0.6017 0.6044 0.6025
1127.000000 0.6282 0.6668 0.7055 0.7441 0.7827
1132.000000 0.8069 0.8197 0.8320 0.8440 0.8523
1137.000000 0.8606 0.8697 0.8797 0.8853 0.8880
1142.000000 0.8901 0.8903 0.8905 0.8907 0.8909
1147.000000 0.8910 0.8910 0.8909 0.8901 0.8905
1152.000000 0.8905 0.8905 0.8905 0.8905 0.8897
1157.000000 0.8888 0.8879 0.8869 0.8858 0.8847
1162.000000 0.8836 0.8825 0.8814 0.8803 0.8791
1167.000000 0.8779 0.8768 0.8756 0.8744 0.8732
1172.000000 0.8712 0.8689 0.8666 0.8643 0.8593
1177.000000 0.8543 0.8472 0.8376 0.8281 0.8186
1182.000000 0.8173 0.8175 0.8176 0.8174 0.8165
1187.000000 0.8152 0.8127 0.8089 0.8017 0.7859
1192.000000 0.7700 0.7542 0.7383 0.7225 0.7066
1197.000000 0.6947 0.6934 0.6976 0.7193 0.7381
1202.000000 0.7383 0.7360 0.7305 0.7251 0.7196
1207.000000 0.7171 0.7173 0.7022 0.6839 0.6656
1212.000000 0.6472 0.6289 0.6106 0.5922 0.5816
1217.000000 0.5811 0.5816 0.6188 0.6563 0.6939
1222.000000 0.7314 0.7689 0.8064 0.8178 0.8244
1227.000000 0.8329 0.8310 0.8325 0.8314 0.8257
1232.000000 0.8200 0.8144 0.8087 0.8030 0.7974
1237.000000 0.7917 0.7877 0.7868 0.7864 0.7874
1242.000000 0.7884 0.7895 0.7913 0.7934 0.7957
1247.000000 0.7983 0.8009 0.8063 0.8126 0.8212
1252.000000 0.8278 0.8323 0.8376 0.8457 0.8545
1257.000000 0.8629 0.8699 0.8722 0.8746 0.8769
1262.000000 0.8783 0.8797 0.8811 0.8821 0.8828
1267.000000 0.8819 0.8819 0.8818 0.8814 0.8810
1272.000000 0.8806 0.8802 0.8797 0.8791 0.8779
1277.000000 0.8768 0.8757 0.8746 0.8730 0.8709
1282.000000 0.8689 0.8669 0.8649 0.8630 0.8614
1287.000000 0.8597 0.8581 0.8564 0.8548 0.8531
1292.000000 0.8503 0.8471 0.8446 0.8436 0.8430
1297.000000 0.8434 0.8446 0.8463 0.8482 0.8508
1302.000000 0.8533 0.8543 0.8539 0.8535 0.8522
1307.000000 0.8510 0.8499 0.8487 0.8475 0.8458
1312.000000 0.8440 0.8422 0.8393 0.8354 0.8314
1317.000000 0.8247 0.8167 0.8113 0.8082 0.8051
1322.000000 0.8020 0.8003 0.7997 0.7998 0.8001
1327.000000 0.8003 0.8022 0.8056 0.8088 0.8115
1332.000000 0.8127 0.8141 0.8166 0.8197 0.8250
1337.000000 0.8332 0.8391 0.8413 0.8402 0.8409
1342.000000 0.8406 0.8374 0.8338 0.8303 0.8222
1347.000000 0.8139 0.8075 0.8028 0.8014 0.8012
1352.000000 0.8020 0.7999 0.8065 0.8093 0.8134
1357.000000 0.8179 0.8212 0.8246 0.8257 0.8267
1362.000000 0.8274 0.8274 0.8268 0.8262 0.8250
1367.000000 0.8154 0.8001 0.7847 0.7693 0.7540
1372.000000 0.7386 0.7161 0.7163 0.7261 0.7449
1377.000000 0.7636 0.7823 0.8010 0.8127 0.8181
1382.000000 0.8217 0.8243 0.8254 0.8265 0.8276
1387.000000 0.8281 0.8283 0.8285 0.8266 0.8289
1392.000000 0.8289 0.8287 0.8285 0.8282 0.8271
1397.000000 0.8261 0.8250 0.8240 0.8225 0.8202
1402.000000 0.8179 0.8155 0.8115 0.8072 0.8028
1407.000000 0.7980 0.7920 0.7860 0.7800 0.7621
1412.000000 0.7278 0.7005 0.6689 0.6373 0.6057
1417.000000 0.5741 0.5425 0.5109 0.4792 0.4476
1422.000000 0.4160 0.4022 0.4219 0.4014 0.4975
1427.000000 0.5353 0.5731 0.6108 0.6486 0.6864
1432.000000 0.7242 0.7278 0.7267 0.7245 0.7107
1437.000000 0.6939 0.6770 0.6602 0.6434 0.6265
1442.000000 0.6097 0.5929 0.5761 0.5592 0.5424
1447.000000 0.5256 0.5087 0.4919 0.4751 0.4582
1452.000000 0.4414 0.4305 0.4298 0.4509 0.4699
1457.000000 0.4889 0.5079 0.5269 0.5428 0.5465
1462.000000 0.5589 0.5941 0.6294 0.6646 0.6962
1467.000000 0.7398 0.7683 0.7877 0.7963 0.8049
1472.000000 0.8125 0.8158 0.8191 0.8224 0.8253
1477.000000 0.8260 0.8266 0.8265 0.8270 0.8257
1482.000000 0.8241 0.8225 0.8201 0.8177 0.8149
1487.000000 0.8111 0.8072 0.8008 0.7936 0.7868
1492.000000 0.7824 0.7783 0.7743 0.7703 0.7659
1497.000000 0.7613 0.7567 0.7483 0.7358 0.7173
1502.000000 0.6613 0.6199 0.5785 0.5371 0.4958
1507.000000 0.4544 0.4130 0.3716 0.3302 0.2888
1512.000000 0.2474 0.2302 0.2411 0.3173 0.3934
1517.000000 0.4695 0.5457 0.6218 0.6979 0.7714
1522.000000 0.8034 0.8343 0.8491 0.8561 0.8631
1527.000000 0.8695 0.8740 0.8785 0.8818 0.8843
1532.000000 0.8859 0.8869 0.8879 0.8889 0.8899
1537.000000 0.8893 0.8883 0.8874 0.8865 0.8857
1542.000000 0.8857 0.8857 0.8861 0.8869 0.8878
1547.000000 0.8886 0.8895 0.8915 0.8911 0.8918
1552.000000 0.8926 0.8933 0.8933 0.8933 0.8929
1557.000000 0.8920 0.8911 0.8901 0.8892 0.8883
1562.000000 0.8872 0.8858 0.8844 0.8830 0.8816
1567.000000 0.8802 0.8787 0.8770 0.8744 0.8719
1572.000000 0.8694 0.8665 0.8617 0.8569 0.8524
1577.000000 0.8492 0.8490 0.8487 0.8463 0.8500
1582.000000 0.8537 0.8575 0.8637 0.8745 0.8778
1587.000000 0.8804 0.8830 0.8809 0.8806 0.8799
1592.000000 0.8792 0.8785 0.8774 0.8762 0.8750
1597.000000 0.8738 0.8722 0.8707 0.8691 0.8675
1602.000000 0.8660 0.8640 0.8615 0.8590 0.8565
1607.000000 0.8540 0.8515 0.8490 0.8456 0.8420
1612.000000 0.8384 0.8342 0.8285 0.8299 0.8305
1617.000000 0.8329 0.8363 0.8421 0.8490 0.8519
1622.000000 0.8544 0.8595 0.8573 0.8580 0.8579
1627.000000 0.8577 0.8574 0.8566 0.8557 0.8549
1632.000000 0.8541 0.8529 0.8517 0.8504 0.8492
1637.000000 0.8478 0.8463 0.8448 0.8434 0.8419
1642.000000 0.8404 0.8390 0.8375 0.8361 0.8346
1647.000000 0.8332 0.8317 0.8303 0.8289 0.8276
1652.000000 0.8264 0.8251 0.8216 0.8250 0.8264
1657.000000 0.8288 0.8313 0.8338 0.8363 0.8383
1662.000000 0.8403 0.8422 0.8441 0.8459 0.8476
1667.000000 0.8493 0.8509 0.8526 0.8543 0.8553
1672.000000 0.8562 0.8571 0.8579 0.8588 0.8587
1677.000000 0.8588 0.8586 0.8585 0.8573 0.8559
1682.000000 0.8546 0.8532 0.8516 0.8496 0.8476
1687.000000 0.8455 0.8435 0.8411 0.8372 0.8334
1692.000000 0.8297 0.8285 0.8274 0.8267 0.8281
1697.000000 0.8291 0.8304 0.8317 0.8341 0.8366
1702.000000 0.8397 0.8429 0.8457 0.8480 0.8499
1707.000000 0.8504 0.8508 0.8513 0.8515 0.8518
1712.000000 0.8521 0.8523 0.8523 0.8523 0.8523
1717.000000 0.8523 0.8523 0.8523 0.8526 0.8532
1722.000000 0.8538 0.8546 0.8557 0.8569 0.8572
1727.000000 0.8572 0.8573 0.8574 0.8574 0.8575
1732.000000 0.8576 0.8576 0.8577 0.8578 0.8578
1737.000000 0.8579 0.8578 0.8578 0.8577 0.8576
1742.000000 0.8576 0.8575 0.8575 0.8603 0.8574
1747.000000 0.8573 0.8571 0.8566 0.8561 0.8555
1752.000000 0.8550 0.8545 0.8539 0.8534 0.8531
1757.000000 0.8528 0.8526 0.8524 0.8521 0.8520
1762.000000 0.8523 0.8526 0.8530 0.8533 0.8536
1767.000000 0.8540 0.8544 0.8548 0.8552 0.8556
1772.000000 0.8550 0.8539 0.8528 0.8517 0.8506
1777.000000 0.8496 0.8478 0.8454 0.8429 0.8405
1782.000000 0.8381 0.8356 0.8324 0.8291 0.8258
1787.000000 0.8225 0.8192 0.8162 0.8133 0.8104
1792.000000 0.8087 0.8098 0.8107 0.8128 0.8154
1797.000000 0.8180 0.8220 0.8264 0.8310 0.8365
1802.000000 0.8421 0.8477 0.8534 0.8591 0.8602
1807.000000 0.8608 0.8610 0.8609 0.8609 0.8601
1812.000000 0.8607 0.8607 0.8606 0.8606 0.8605
1817.000000 0.8604 0.8603 0.8602 0.8601 0.8600
1822.000000 0.8599 0.8598 0.8597 0.8596 0.8595
1827.000000 0.8594 0.8593 0.8592 0.8589 0.8587
1832.000000 0.8585 0.8582 0.8580 0.8577 0.8575
1837.000000 0.8572 0.8570 0.8567 0.8565 0.8562
1842.000000 0.8560 0.8557 0.8555 0.8552 0.8550
1847.000000 0.8547 0.8545 0.8542 0.8540 0.8538
1852.000000 0.8535 0.8533 0.8530 0.8528 0.8524
1857.000000 0.8518 0.8513 0.8507 0.8501 0.8496
1862.000000 0.8490 0.8484 0.8479 0.8473 0.8467
1867.000000 0.8458 0.8447 0.8437 0.8426 0.8415
1872.000000 0.8404 0.8393 0.8382 0.8371 0.8360
1877.000000 0.8347 0.8333 0.8319 0.8306 0.8292
1882.000000 0.8278 0.8264 0.8251 0.8231 0.8204
1887.000000 0.8177 0.8150 0.8090 0.8028 0.7964
1892.000000 0.7873 0.7782 0.7663 0.7540 0.7418
1897.000000 0.7295 0.7172 0.7050 0.7045 0.7086
1902.000000 0.7325 0.7565 0.7617 0.7632 0.7647
1907.000000 0.7664 0.7680 0.7698 0.7723 0.7748
1912.000000 0.7845 0.8045 0.8196 0.8301 0.8335
1917.000000 0.8368 0.8378 0.8388 0.8395 0.8401
1922.000000 0.8407 0.8413 0.8418 0.8422 0.8426
1927.000000 0.8430 0.8434 0.8438 0.8442 0.8446
1932.000000 0.8450 0.8455 0.8459 0.8463 0.8468
1937.000000 0.8470 0.8470 0.8457 0.8469 0.8469
1942.000000 0.8469 0.8468 0.8468 0.8468 0.8465
1947.000000 0.8460 0.8455 0.8450 0.8445 0.8439
1952.000000 0.8434 0.8429 0.8424 0.8419 0.8414
1957.000000 0.8409 0.8404 0.8404 0.8403 0.8403
1962.000000 0.8403 0.8402 0.8402 0.8402 0.8401
1967.000000 0.8402 0.8404 0.8406 0.8409 0.8411
1972.000000 0.8411 0.8410 0.8409 0.8408 0.8407
1977.000000 0.8406 0.8405 0.8404 0.8403 0.8402
1982.000000 0.8401 0.8401 0.8400 0.8399 0.8398
1987.000000 0.8398 0.8397 0.8396 0.8395 0.8395
1992.000000 0.8394 0.8393 0.8393 0.8392 0.8391
1997.000000 0.8390 0.8390 0.8390 0.8390 0.8390
2002.000000 0.8390 0.8390 0.8390 0.8390 0.8390
2007.000000 0.8390 0.8390 0.8390 0.8390 0.8390
2012.000000 0.8390 0.8390 0.8391 0.8391 0.8391
2017.000000 0.8391 0.8391 0.8390 0.8389 0.8387
2022.000000 0.8386 0.8384 0.8383 0.8381 0.8380
2027.000000 0.8378 0.8377 0.8375 0.8374 0.8372
2032.000000 0.8371 0.8369 0.8368 0.8366 0.8365
2037.000000 0.8363 0.8362 0.8360 0.8358 0.8355
2042.000000 0.8353 0.8351 0.8349 0.8346 0.8344
2047.000000 0.8342 0.8340 0.8337 0.8335 0.8332
2052.000000 0.8330 0.8328 0.8326 0.8323 0.8321
2057.000000 0.8318 0.8316 0.8314 0.8312 0.8309
2062.000000 0.8307 0.8305 0.8303 0.8300 0.8298
2067.000000 0.8295 0.8293 0.8291 0.8289 0.8286
2072.000000 0.8284 0.8281 0.8279 0.8277 0.8275
2077.000000 0.8272 0.8270 0.8268 0.8266 0.8264
2082.000000 0.8262 0.8260 0.8258 0.8256 0.8254
2087.000000 0.8252 0.8250 0.8248 0.8246 0.8244
2092.000000 0.8243 0.8241 0.8239 0.8237 0.8235
2097.000000 0.8233 0.8231 0.8229 0.8227 0.8225
2102.000000 0.8223 0.8221 0.8219 0.8218 0.8217
2107.000000 0.8215 0.8214 0.8213 0.8212 0.8210
2112.000000 0.8209 0.8208 0.8207 0.8206 0.8205
2117.000000 0.8203 0.8202 0.8201 0.8200 0.8198
2122.000000 0.8197 0.8196 0.8195 0.8193 0.8192
2127.000000 0.8191 0.8190 0.8188 0.8187 0.8186
2132.000000 0.8185 0.8183 0.8182 0.8181 0.8180
2137.000000 0.8178 0.8177 0.8176 0.8175 0.8173
2142.000000 0.8172 0.8171 0.8170 0.8168 0.8167
2147.000000 0.8166 0.8165 0.8163 0.8162 0.8161
2152.000000 0.8161 0.8161 0.8161 0.8161 0.8162
2157.000000 0.8162 0.8162 0.8162 0.8162 0.8162
2162.000000 0.8162 0.8162 0.8163 0.8163 0.8163
2167.000000 0.8163 0.8163 0.8163 0.8164 0.8164
2172.000000 0.8164 0.8164 0.8164 0.8164 0.8164
2177.000000 0.8164 0.8165 0.8165 0.8165 0.8165
2182.000000 0.8165 0.8165 0.8165 0.8164 0.8164
2187.000000 0.8162 0.8161 0.8160 0.8159 0.8157
2192.000000 0.8156 0.8155 0.8154 0.8152 0.8151
2197.000000 0.8150 0.8149 0.8147 0.8146 0.8143
2202.000000 0.8141 0.8138 0.8135 0.8132 0.8130
2207.000000 0.8127 0.8124 0.8121 0.8119 0.8116
2212.000000 0.8113 0.8110 0.8108 0.8105 0.8102
2217.000000 0.8099 0.8096 0.8093 0.8091 0.8088
2222.000000 0.8085 0.8082 0.8080 0.8077 0.8074
2227.000000 0.8071 0.8069 0.8066 0.8063 0.8060
2232.000000 0.8058 0.8055 0.8052 0.8049 0.8047
2237.000000 0.8045 0.8044 0.8042 0.8041 0.8039
2242.000000 0.8038 0.8036 0.8035 0.8033 0.8032
2247.000000 0.8030 0.8029 0.8027 0.8026 0.8024
2252.000000 0.8023 0.8021 0.8020 0.8018 0.8017
2257.000000 0.8015 0.8014 0.8012 0.8011 0.8009
2262.000000 0.8007 0.8005 0.8004 0.8002 0.8001
2267.000000 0.7999 0.7998 0.7996 0.7995 0.7993
2272.000000 0.7992 0.7990 0.7989 0.7987 0.7986
2277.000000 0.7984 0.7983 0.7981 0.7980 0.7978
2282.000000 0.7977 0.7975 0.7974 0.7972 0.7971
2287.000000 0.7967 0.7964 0.7957 0.7950 0.7942
2292.000000 0.7935 0.7928 0.7921 0.7914 0.7907
2297.000000 0.7900 0.7893 0.7886 0.7880 0.7875
2302.000000 0.7871 0.7866 0.7862 0.7858 0.7854
2307.000000 0.7849 0.7845 0.7840 0.7836 0.7831
2312.000000 0.7827 0.7829 0.7831 0.7833 0.7836
2317.000000 0.7838 0.7840 0.7842 0.7845 0.7847
2322.000000 0.7849 0.7851 0.7854 0.7856 0.7858
2327.000000 0.7860 0.7862 0.7863 0.7864 0.7863
2332.000000 0.7862 0.7861 0.7860 0.7858 0.7857
2337.000000 0.7856 0.7855 0.7854 0.7853 0.7852
2342.000000 0.7851 0.7850 0.7849 0.7847 0.7846
2347.000000 0.7844 0.7843 0.7841 0.7840 0.7838
2352.000000 0.7837 0.7835 0.7834 0.7832 0.7831
2357.000000 0.7829 0.7828 0.7826 0.7825 0.7823
2362.000000 0.7822 0.7820 0.7819 0.7817 0.7815
2367.000000 0.7813 0.7811 0.7809 0.7807 0.7805
2372.000000 0.7803 0.7801 0.7799 0.7797 0.7795
2377.000000 0.7793 0.7791 0.7789 0.7787 0.7785
2382.000000 0.7783 0.7781 0.7779 0.7777 0.7775
2387.000000 0.7773 0.7771 0.7769 0.7767 0.7764
2392.000000 0.7762 0.7760 0.7758 0.7755 0.7753
2397.000000 0.7751 0.7749 0.7746 0.7744 0.7742
2402.000000 0.7740 0.7737 0.7735 0.7733 0.7731
2407.000000 0.7728 0.7726 0.7724 0.7722 0.7719
2412.000000 0.7717 0.7714 0.7712 0.7710 0.7708
2417.000000 0.7705 0.7703 0.7703 0.7703 0.7703
2422.000000 0.7704 0.7705 0.7706 0.7706 0.7707
2427.000000 0.7708 0.7709 0.7709 0.7710 0.7711
2432.000000 0.7712 0.7712 0.7713 0.7714 0.7715
2437.000000 0.7715 0.7716 0.7717 0.7718 0.7718
2442.000000 0.7719 0.7720 0.7721 0.7721 0.7722
2447.000000 0.7721 0.7721 0.7719 0.7718 0.7717
2452.000000 0.7716 0.7714 0.7713 0.7711 0.7710
2457.000000 0.7708 0.7707 0.7705 0.7704 0.7702
2462.000000 0.7701 0.7699 0.7698 0.7695 0.7693
2467.000000 0.7690 0.7688 0.7685 0.7683 0.7680
2472.000000 0.7678 0.7675 0.7673 0.7671 0.7669
2477.000000 0.7666 0.7664 0.7661 0.7658 0.7654
2482.000000 0.7651 0.7648 0.7645 0.7642 0.7639
2487.000000 0.7636 0.7633 0.7629 0.7626 0.7623
2492.000000 0.7620 0.7617 0.7614 0.7611 0.7608
2497.000000 0.7604 0.7601 0.7598 0.7595 0.7592
2502.000000 0.7589 0.7586 0.7583 0.7580 0.7578
2507.000000 0.7575 0.7573 0.7570 0.7568 0.7565
2512.000000 0.7563 0.7560 0.7558 0.7555 0.7553
2517.000000 0.7550 0.7547 0.7544 0.7542 0.7539
2522.000000 0.7537 0.7534 0.7532 0.7529 0.7527
2527.000000 0.7524 0.7522 0.7519 0.7517 0.7514
2532.000000 0.7512 0.7509 0.7507 0.7505 0.7503
2537.000000 0.7501 0.7499 0.7497 0.7496 0.7494
2542.000000 0.7492 0.7490 0.7489 0.7487 0.7485
2547.000000 0.7483 0.7482 0.7480 0.7478 0.7476
2552.000000 0.7475 0.7473 0.7471 0.7469 0.7467
2557.000000 0.7465 0.7464 0.7462 0.7460 0.7458
2562.000000 0.7457 0.7455 0.7453 0.7451 0.7450
2567.000000 0.7448 0.7446 0.7444 0.7443 0.7441
2572.000000 0.7439 0.7437 0.7436 0.7433 0.7430
2577.000000 0.7427 0.7425 0.7422 0.7419 0.7416
2582.000000 0.7413 0.7410 0.7407 0.7404 0.7402
2587.000000 0.7399 0.7396 0.7393 0.7390 0.7387
2592.000000 0.7384 0.7381 0.7379 0.7376 0.7373
2597.000000 0.7370 0.7367 0.7364 0.7361 0.7358
2602.000000 0.7356 0.7353 0.7350 0.7347 0.7344
2607.000000 0.7342 0.7340 0.7338 0.7337 0.7335
2612.000000 0.7333 0.7331 0.7329 0.7327 0.7325
2617.000000 0.7323 0.7321 0.7319 0.7318 0.7316
2622.000000 0.7314 0.7312 0.7310 0.7308 0.7306
2627.000000 0.7304 0.7302 0.7300 0.7299 0.7297
2632.000000 0.7295 0.7293 0.7291 0.7289 0.7287
2637.000000 0.7286 0.7285 0.7286 0.7287 0.7288
2642.000000 0.7289 0.7290 0.7291 0.7291 0.7292
2647.000000 0.7293 0.7294 0.7295 0.7296 0.7297
2652.000000 0.7298 0.7298 0.7299 0.7300 0.7301
2657.000000 0.7302 0.7303 0.7303 0.7304 0.7305
2662.000000 0.7306 0.7307 0.7308 0.7308 0.7309
2667.000000 0.7305 0.7301 0.7296 0.7292 0.7288
2672.000000 0.7284 0.7280 0.7276 0.7271 0.7267
2677.000000 0.7263 0.7259 0.7255 0.7251 0.7247
2682.000000 0.7243 0.7239 0.7235 0.7230 0.7226
2687.000000 0.7222 0.7218 0.7214 0.7210 0.7206
2692.000000 0.7202 0.7199 0.7196 0.7193 0.7190
2697.000000 0.7187 0.7184 0.7180 0.7177 0.7174
2702.000000 0.7171 0.7168 0.7165 0.7162 0.7159
2707.000000 0.7156 0.7153 0.7147 0.7141 0.7134
2712.000000 0.7127 0.7116 0.7105 0.7093 0.7082
2717.000000 0.7066 0.7050 0.7027 0.7005 0.6997
2722.000000 0.6990 0.6987 0.6984 0.6993 0.7003
2727.000000 0.7018 0.7034 0.7046 0.7059 0.7062
2732.000000 0.7066 0.7067 0.7068 0.7069 0.7071
2737.000000 0.7072 0.7074 0.7071 0.7069 0.7065
2742.000000 0.7061 0.7057 0.7053 0.7049 0.7045
2747.000000 0.7041 0.7037 0.7032 0.7028 0.7021
2752.000000 0.7014 0.7006 0.6999 0.6991 0.6984
2757.000000 0.6976 0.6968 0.6960 0.6953 0.6945
2762.000000 0.6937 0.6927 0.6918 0.6909 0.6900
2767.000000 0.6891 0.6882 0.6873 0.6864 0.6855
2772.000000 0.6846 0.6836 0.6827 0.6818 0.6809
2777.000000 0.6804 0.6800 0.6797 0.6794 0.6791
2782.000000 0.6788 0.6785 0.6782 0.6778 0.6775
2787.000000 0.6772 0.6769 0.6766 0.6763 0.6760
2792.000000 0.6757 0.6754 0.6751 0.6748 0.6745
2797.000000 0.6741 0.6738 0.6734 0.6730 0.6726
2802.000000 0.6723 0.6719 0.6715 0.6708 0.6701
2807.000000 0.6687 0.6673 0.6659 0.6645 0.6630
2812.000000 0.6616 0.6599 0.6582 0.6561 0.6541
2817.000000 0.6520 0.6499 0.6478 0.6458 0.6436
2822.000000 0.6414 0.6391 0.6368 0.6345 0.6322
2827.000000 0.6299 0.6276 0.6253 0.6230 0.6204
2832.000000 0.6178 0.6146 0.6114 0.6082 0.6050
2837.000000 0.6018 0.5986 0.5942 0.5899 0.5837
2842.000000 0.5776 0.5713 0.5650 0.5578 0.5506
2847.000000 0.5434 0.5362 0.5051 0.4741 0.4711
2852.000000 0.4681 0.4650 0.4620 0.4590 0.4560
2857.000000 0.4439 0.4319 0.4121 0.3923 0.3725
2862.000000 0.3527 0.3329 0.3131 0.2932 0.2734
2867.000000 0.2596 0.2454 0.2458 0.2458 0.2601
2872.000000 0.2744 0.2975 0.3206 0.3437 0.3669
2877.000000 0.3900 0.4131 0.4362 0.4594 0.4778
2882.000000 0.4962 0.4958 0.4957 0.4935 0.4916
2887.000000 0.4881 0.4847 0.4812 0.4778 0.4743
2892.000000 0.4709 0.4691 0.4673 0.4675 0.4677
2897.000000 0.4702 0.4728 0.4753 0.4778 0.4787
2902.000000 0.4796 0.4792 0.4789 0.4779 0.4770
2907.000000 0.4719 0.4668 0.4637 0.4607 0.4559
2912.000000 0.4511 0.4450 0.4389 0.4338 0.4287
2917.000000 0.4087 0.3887 0.3720 0.3553 0.3386
2922.000000 0.3220 0.3053 0.2886 0.2719 0.2552
2927.000000 0.2385 0.2110 0.2204 0.2189 0.2305
2932.000000 0.2421 0.2537 0.2654 0.2770 0.2886
2937.000000 0.3002 0.3118 0.3234 0.3350 0.3466
2942.000000 0.3583 0.3699 0.3815 0.3931 0.4047
2947.000000 0.4065 0.4084 0.3937 0.4083 0.3607
2952.000000 0.3425 0.3243 0.3061 0.2879 0.2697
2957.000000 0.2514 0.2332 0.2150 0.1968 0.1786
2962.000000 0.1604 0.1421 0.1239 0.1156 0.1074
2967.000000 0.1212 0.1086 0.1615 0.1879 0.2142
2972.000000 0.2406 0.2670 0.2934 0.3197 0.3461
2977.000000 0.3725 0.3989 0.4252 0.4516 0.4770
2982.000000 0.5024 0.5059 0.5095 0.5191 0.5288
2987.000000 0.5384 0.5481 0.5574 0.5667 0.5700
2992.000000 0.5733 0.5759 0.5786 0.5804 0.5822
2997.000000 0.5828 0.5854 0.5762 0.5690 0.5590
3002.000000 0.5490 0.5390 0.5290 0.5190 0.5091
3007.000000 0.4991 0.4891 0.4809 0.4728 0.4743
3012.000000 0.4759 0.4845 0.4932 0.5018 0.5105
3017.000000 0.5181 0.5257 0.5244 0.5232 0.5100
3022.000000 0.4968 0.4836 0.4704 0.4571 0.4439
3027.000000 0.4347 0.4273 0.4307 0.4359 0.4539
3032.000000 0.4720 0.4901 0.5082 0.5262 0.5443
3037.000000 0.5623 0.5804 0.5964 0.6124 0.6128
3042.000000 0.6131 0.6061 0.5990 0.5893 0.5796
3047.000000 0.5699 0.5602 0.5505 0.5409 0.5312
3052.000000 0.5215 0.5214 0.5214 0.5214 0.5214
3057.000000 0.5387 0.5201 0.5840 0.6120 0.6367
3062.000000 0.6614 0.6650 0.6686 0.6705 0.6724
3067.000000 0.6743 0.6762 0.6768 0.6801 0.6778
3072.000000 0.6783 0.6786 0.6789 0.6785 0.6782
3077.000000 0.6771 0.6761 0.6732 0.6703 0.6669
3082.000000 0.6635 0.6604 0.6573 0.6543 0.6514
3087.000000 0.6489 0.6465 0.6441 0.6417 0.6409
3092.000000 0.6402 0.6394 0.6386 0.6423 0.6380
3097.000000 0.6522 0.6584 0.6646 0.6708 0.6770
3102.000000 0.6832 0.6880 0.6928 0.6928 0.6928
3107.000000 0.6928 0.6928 0.6928 0.6941 0.6925
3112.000000 0.6922 0.6918 0.6915 0.6908 0.6901
3117.000000 0.6887 0.6874 0.6857 0.6840 0.6824
3122.000000 0.6808 0.6792 0.6777 0.6759 0.6741
3127.000000 0.6724 0.6707 0.6704 0.6702 0.6699
3132.000000 0.6697 0.6706 0.6716 0.6743 0.6770
3137.000000 0.6797 0.6825 0.6849 0.6874 0.6875
3142.000000 0.6877 0.6878 0.6880 0.6880 0.6881
3147.000000 0.6881 0.6882 0.6881 0.6881 0.6880
3152.000000 0.6879 0.6878 0.6877 0.6876 0.6876
3157.000000 0.6875 0.6874 0.6873 0.6872 0.6871
3162.000000 0.6870 0.6869 0.6868 0.6867 0.6866
3167.000000 0.6864 0.6863 0.6862 0.6861 0.6859
3172.000000 0.6858 0.6857 0.6856 0.6854 0.6853
3177.000000 0.6851 0.6850 0.6849 0.6848 0.6846
3182.000000 0.6845 0.6843 0.6841 0.6839 0.6838
3187.000000 0.6836 0.6835 0.6833 0.6832 0.6830
3192.000000 0.6829 0.6827 0.6826 0.6824 0.6823
3197.000000 0.6821 0.6819 0.6817 0.6816 0.6814
3202.000000 0.6813 0.6811 0.6810 0.6808 0.6807
3207.000000 0.6805 0.6804 0.6802 0.6800 0.6798
3212.000000 0.6797 0.6795 0.6794 0.6792 0.6791
3217.000000 0.6789 0.6787 0.6785 0.6784 0.6782
3222.000000 0.6781 0.6779 0.6778 0.6776 0.6774
3227.000000 0.6772 0.6771 0.6769 0.6768 0.6766
3232.000000 0.6765 0.6763 0.6761 0.6759 0.6758
3237.000000 0.6756 0.6755 0.6753 0.6752 0.6750
3242.000000 0.6748 0.6746 0.6745 0.6743 0.6742
3247.000000 0.6740 0.6739 0.6737 0.6736 0.6734
3252.000000 0.6732 0.6730 0.6729 0.6727 0.6725
3257.000000 0.6722 0.6720 0.6718 0.6716 0.6713
3262.000000 0.6711 0.6709 0.6707 0.6704 0.6702
3267.000000 0.6700 0.6698 0.6695 0.6693 0.6691
3272.000000 0.6689 0.6686 0.6684 0.6682 0.6680
3277.000000 0.6677 0.6675 0.6673 0.6671 0.6668
3282.000000 0.6666 0.6664 0.6662 0.6659 0.6657
3287.000000 0.6655 0.6653 0.6650 0.6648 0.6646
3292.000000 0.6644 0.6641 0.6639 0.6637 0.6635
3297.000000 0.6632 0.6630 0.6626 0.6623 0.6620
3302.000000 0.6617 0.6613 0.6610 0.6607 0.6604
3307.000000 0.6601 0.6598 0.6594 0.6591 0.6588
3312.000000 0.6585 0.6581 0.6578 0.6575 0.6572
3317.000000 0.6569 0.6566 0.6562 0.6559 0.6556
3322.000000 0.6553 0.6549 0.6546 0.6543 0.6540
3327.000000 0.6536 0.6533 0.6530 0.6527 0.6524
3332.000000 0.6521 0.6517 0.6514 0.6511 0.6508
3337.000000 0.6504 0.6501 0.6497 0.6494 0.6490
3342.000000 0.6487 0.6483 0.6480 0.6476 0.6473
3347.000000 0.6469 0.6466 0.6462 0.6459 0.6455
3352.000000 0.6452 0.6448 0.6445 0.6441 0.6438
3357.000000 0.6434 0.6431 0.6427 0.6424 0.6421
3362.000000 0.6418 0.6414 0.6411 0.6407 0.6404
3367.000000 0.6400 0.6397 0.6393 0.6390 0.6386
3372.000000 0.6383 0.6379 0.6376 0.6372 0.6369
3377.000000 0.6365 0.6362 0.6358 0.6355 0.6352
3382.000000 0.6349 0.6345 0.6342 0.6338 0.6335
3387.000000 0.6331 0.6328 0.6324 0.6321 0.6317
3392.000000 0.6314 0.6311 0.6308 0.6304 0.6301
3397.000000 0.6297 0.6294 0.6290 0.6287 0.6283
3402.000000 0.6280 0.6277 0.6274 0.6270 0.6267
3407.000000 0.6263 0.6260 0.6256 0.6253 0.6249
3412.000000 0.6246 0.6243 0.6241 0.6240 0.6240
3417.000000 0.6239 0.6238 0.6237 0.6236 0.6235
3422.000000 0.6234 0.6233 0.6233 0.6232 0.6231
3427.000000 0.6230 0.6229 0.6228 0.6227 0.6226
3432.000000 0.6225 0.6224 0.6224 0.6223 0.6222
3437.000000 0.6221 0.6220 0.6219 0.6218 0.6217
3442.000000 0.6216 0.6215 0.6215 0.6214 0.6213
3447.000000 0.6212 0.6211 0.6210 0.6209 0.6208
3452.000000 0.6208 0.6207 0.6206 0.6206 0.6206
3457.000000 0.6205 0.6205 0.6205 0.6203 0.6205
3462.000000 0.6205 0.6204 0.6204 0.6204 0.6204
3467.000000 0.6204 0.6204 0.6203 0.6203 0.6203
3472.000000 0.6203 0.6203 0.6203 0.6202 0.6202
3477.000000 0.6202 0.6202 0.6202 0.6202 0.6201
3482.000000 0.6201 0.6201 0.6201 0.6201 0.6201
3487.000000 0.6200 0.6200 0.6200 0.6200 0.6200
3492.000000 0.6200 0.6199 0.6199 0.6199 0.6199
3497.000000 0.6199 0.6199 0.6198 0.6198 0.6198
3502.000000 0.6198 0.6198 0.6198 0.6198 0.6198
3507.000000 0.6198 0.6199 0.6199 0.6199 0.6199
3512.000000 0.6200 0.6200 0.6201 0.6201 0.6201
3517.000000 0.6201 0.6202 0.6202 0.6202 0.6202
3522.000000 0.6203 0.6203 0.6203 0.6203 0.6204
3527.000000 0.6204 0.6204 0.6204 0.6205 0.6205
3532.000000 0.6206 0.6206 0.6206 0.6206 0.6207
3537.000000 0.6207 0.6207 0.6207 0.6208 0.6208
3542.000000 0.6208 0.6208 0.6209 0.6209 0.6209
3547.000000 0.6209 0.6210 0.6210 0.6210 0.6210
3552.000000 0.6211 0.6211 0.6212 0.6212 0.6212
3557.000000 0.6212 0.6213 0.6213 0.6213 0.6213
3562.000000 0.6214 0.6214 0.6215 0.6215 0.6216
3567.000000 0.6216 0.6217 0.6217 0.6218 0.6218
3572.000000 0.6219 0.6219 0.6220 0.6221 0.6222
3577.000000 0.6222 0.6223 0.6223 0.6224 0.6224
3582.000000 0.6225 0.6225 0.6226 0.6226 0.6227
3587.000000 0.6227 0.6228 0.6228 0.6229 0.6229
3592.000000 0.6230 0.6230 0.6231 0.6231 0.6232
3597.000000 0.6232 0.6233 0.6233 0.6234 0.6234
3602.000000 0.6235 0.6235 0.6236 0.6236 0.6237
3607.000000 0.6237 0.6238 0.6238 0.6239 0.6239
3612.000000 0.6240 0.6240 0.6241 0.6241 0.6242
3617.000000 0.6241 0.6241 0.6240 0.6239 0.6238
3622.000000 0.6237 0.6236 0.6235 0.6234 0.6233
3627.000000 0.6232 0.6231 0.6230 0.6229 0.6227
3632.000000 0.6226 0.6225 0.6224 0.6223 0.6222
3637.000000 0.6221 0.6220 0.6219 0.6218 0.6217
3642.000000 0.6216 0.6215 0.6214 0.6213 0.6212
3647.000000 0.6211 0.6210 0.6209 0.6208 0.6206
3652.000000 0.6205 0.6204 0.6203 0.6199 0.6196
3657.000000 0.6192 0.6188 0.6184 0.6180 0.6176
3662.000000 0.6172 0.6167 0.6163 0.6159 0.6155
3667.000000 0.6151 0.6147 0.6143 0.6139 0.6136
3672.000000 0.6133 0.6135 0.6138 0.6140 0.6143
3677.000000 0.6145 0.6148 0.6150 0.6152 0.6154
3682.000000 0.6157 0.6159 0.6162 0.6164 0.6166
3687.000000 0.6168 0.6171 0.6173 0.6176 0.6177
3692.000000 0.6179 0.6180 0.6181 0.6182 0.6183
3697.000000 0.6184 0.6185 0.6186 0.6188 0.6189
3702.000000 0.6190 0.6191 0.6192 0.6193 0.6194
3707.000000 0.6193 0.6193 0.6192 0.6191 0.6190
3712.000000 0.6189 0.6188 0.6187 0.6186 0.6185
3717.000000 0.6184 0.6183 0.6182 0.6181 0.6179
3722.000000 0.6178 0.6177 0.6176 0.6175 0.6174
3727.000000 0.6173 0.6172 0.6171 0.6170 0.6168
3732.000000 0.6167 0.6166 0.6165 0.6164 0.6163
3737.000000 0.6162 0.6161 0.6160 0.6159 0.6158
3742.000000 0.6157 0.6155 0.6154 0.6153 0.6152
3747.000000 0.6151 0.6150 0.6149 0.6148 0.6147
3752.000000 0.6146 0.6145 0.6144 0.6143 0.6142
3757.000000 0.6141 0.6140 0.6139 0.6138 0.6137
3762.000000 0.6136 0.6135 0.6135 0.6134 0.6133
3767.000000 0.6132 0.6131 0.6130 0.6129 0.6128
3772.000000 0.6127 0.6126 0.6125 0.6124 0.6123
3777.000000 0.6122 0.6121 0.6120 0.6119 0.6118
3782.000000 0.6117 0.6116 0.6115 0.6114 0.6113
3787.000000 0.6112 0.6112 0.6111 0.6110 0.6109
3792.000000 0.6108 0.6107 0.6106 0.6105 0.6104
3797.000000 0.6103 0.6102 0.6101 0.6100 0.6099
3802.000000 0.6098 0.6097 0.6096 0.6095 0.6094
3807.000000 0.6093 0.6092 0.6091 0.6090 0.6089
3812.000000 0.6088 0.6086 0.6085 0.6084 0.6083
3817.000000 0.6082 0.6081 0.6079 0.6078 0.6077
3822.000000 0.6076 0.6075 0.6074 0.6072 0.6071
3827.000000 0.6070 0.6069 0.6068 0.6067 0.6065
3832.000000 0.6064 0.6063 0.6062 0.6061 0.6060
3837.000000 0.6059 0.6058 0.6056 0.6055 0.6054
3842.000000 0.6053 0.6052 0.6051 0.6049 0.6048
3847.000000 0.6047 0.6046 0.6045 0.6044 0.6042
3852.000000 0.6041 0.6040 0.6039 0.6038 0.6037
3857.000000 0.6035 0.6034 0.6032 0.6031 0.6029
3862.000000 0.6028 0.6026 0.6024 0.6022 0.6020
3867.000000 0.6018 0.6016 0.6014 0.6013 0.6011
3872.000000 0.6009 0.6007 0.6005 0.6003 0.6001
3877.000000 0.5999 0.5998 0.5996 0.5994 0.5992
3882.000000 0.5990 0.5988 0.5986 0.5984 0.5983
3887.000000 0.5981 0.5979 0.5977 0.5975 0.5973
3892.000000 0.5972 0.5970 0.5968 0.5966 0.5964
3897.000000 0.5962 0.5960 0.5958 0.5957 0.5955
3902.000000 0.5953 0.5951 0.5950 0.5948 0.5946
3907.000000 0.5944 0.5943 0.5941 0.5937 0.5937
3912.000000 0.5936 0.5934 0.5932 0.5930 0.5929
3917.000000 0.5927 0.5925 0.5923 0.5921 0.5919
3922.000000 0.5918 0.5916 0.5914 0.5912 0.5911
3927.000000 0.5909 0.5907 0.5905 0.5904 0.5902
3932.000000 0.5900 0.5902 0.5904 0.5906 0.5908
3937.000000 0.5910 0.5912 0.5914 0.5916 0.5917
3942.000000 0.5919 0.5921 0.5923 0.5925 0.5927
3947.000000 0.5928 0.5929 0.5929 0.5929 0.5929
3952.000000 0.5930 0.5930 0.5931 0.5930 0.5929
3957.000000 0.5926 0.5924 0.5921 0.5918 0.5915
3962.000000 0.5912 0.5909 0.5906 0.5903 0.5900
3967.000000 0.5897 0.5895 0.5892 0.5890 0.5887
3972.000000 0.5885 0.5882 0.5880 0.5877 0.5874
3977.000000 0.5871 0.5869 0.5867 0.5865 0.5862
3982.000000 0.5860 0.5858 0.5856 0.5853 0.5851
3987.000000 0.5849 0.5847 0.5845 0.5843 0.5840
3992.000000 0.5838 0.5836 0.5834 0.5831 0.5829
3997.000000 0.5827 0.5825 0.5823 0.5821
##END=
