##TITLE=PERTHANE
##JCAMP-DX=4.24
##DATA TYPE=INFRARED SPECTRUM
##CLASS=COBLENTZ II
##ORIGIN=K. K. DEB-NCI FREDERICK CANCER RESEARCH CENTER
##OWNER=Copyright (C) 1987 by the Coblentz Society
Collection (C) 2018 copyright by the U.S. Secretary of Commerce
on behalf of the United States of America. All rights reserved.
##DATE=1974/03/05
##NAMES=1-[2,2-dichloro-1-(4-ethylphenyl)ethyl]-4-ethylbenzene
1,1-DICHLOROETHANE,2-BIS(4-ETHYLPHENYL)
##CAS REGISTRY NO=72-56-0
##MOLFORM=C18 H20 Cl2
##MP=38 C
##SOURCE REFERENCE=COBLENTZ NO. 9726
##$NIST SOURCE=COBLENTZ
##$NIST IMAGE=cob9726
##SPECTROMETER/DATA SYSTEM=PERKIN-ELMER 180 (GRATING)
##INSTRUMENT PARAMETERS=GRATINGS: 2000, 1000, 500, 250 CM^-^1; FILTER CHANGE: 2970, 2000, 1485, 1000, 743, 500, 372, 250, 186 CM^-^1.
##STATE=SOLUTION (4.8 mg / cc CCl4, CS2)
$$ PURITY 99+% BY TLC
SEE SPECTRUM NO. 9724, 9725 FOR "THIN FILM FROM C2HCl3 SOLUTION" RUN, AND SPECTRUM NO. 9727 FOR "KBr DISC" RUN
##SAMPLING PROCEDURE=TRANSMISSION
##RESOLUTION=2
##DATA PROCESSING=DIGITIZED BY COBLENTZ SOCIETY (BATCH II) FROM HARD COPY
##XUNITS=1/CM
##YUNITS=TRANSMITTANCE
##XFACTOR=1.0
##YFACTOR=1
##FIRSTX=402
##LASTX=3796
##FIRSTY=0.1386
##MAXX=3796
##MINX=402
##MAXY=0.8972
##MINY=0.0762
##NPOINTS=3395
##XYDATA=(X++(Y..Y))
402.000000 0.1386 0.1709 0.2033 0.2356 0.2680
407.000000 0.3003 0.3327 0.3650 0.3974 0.4298
412.000000 0.4621 0.4945 0.5268 0.5592 0.5915
417.000000 0.6624 0.6790 0.6955 0.7074 0.7175
422.000000 0.7277 0.7378 0.7476 0.7568 0.7660
427.000000 0.7752 0.7992 0.8199 0.8364 0.8461
432.000000 0.8536 0.8611 0.8680 0.8727 0.8774
437.000000 0.8821 0.8860 0.8869 0.8877 0.8888
442.000000 0.8895 0.8894 0.8884 0.8874 0.8861
447.000000 0.8846 0.8831 0.8815 0.8803 0.8791
452.000000 0.8780 0.8773 0.8774 0.8771 0.8779
457.000000 0.8788 0.8797 0.8811 0.8827 0.8842
462.000000 0.8858 0.8873 0.8888 0.8903 0.8918
467.000000 0.8933 0.8948 0.8963 0.8972 0.8971
472.000000 0.8955 0.8967 0.8962 0.8958 0.8947
477.000000 0.8931 0.8915 0.8899 0.8879 0.8858
482.000000 0.8838 0.8818 0.8797 0.8773 0.8747
487.000000 0.8721 0.8695 0.8670 0.8640 0.8607
492.000000 0.8574 0.8542 0.8509 0.8464 0.8407
497.000000 0.8349 0.8291 0.8198 0.8054 0.7910
502.000000 0.7765 0.7621 0.7477 0.7332 0.7222
507.000000 0.7137 0.7068 0.7003 0.6938 0.6871
512.000000 0.6791 0.6711 0.6630 0.6536 0.6437
517.000000 0.6339 0.6278 0.6217 0.6156 0.6079
522.000000 0.5999 0.5828 0.5803 0.5790 0.5790
527.000000 0.5837 0.5952 0.6067 0.6182 0.6298
532.000000 0.6413 0.6528 0.6643 0.6758 0.6874
537.000000 0.6989 0.7035 0.7050 0.7045 0.7040
542.000000 0.7024 0.6994 0.6952 0.6905 0.6853
547.000000 0.6801 0.6736 0.6671 0.6604 0.6511
552.000000 0.6418 0.6329 0.6245 0.6161 0.6077
557.000000 0.5936 0.5792 0.5572 0.5352 0.5132
562.000000 0.4913 0.4693 0.4556 0.4540 0.4544
567.000000 0.4554 0.4642 0.4734 0.4826 0.4919
572.000000 0.5011 0.5103 0.5195 0.5277 0.5274
577.000000 0.5267 0.5233 0.5088 0.4943 0.4798
582.000000 0.4653 0.4508 0.4364 0.4219 0.4131
587.000000 0.4158 0.4345 0.4531 0.4717 0.4904
592.000000 0.5090 0.5277 0.5419 0.5497 0.5601
597.000000 0.5737 0.6068 0.6400 0.6731 0.7062
602.000000 0.7393 0.7724 0.7832 0.7868 0.7897
607.000000 0.7917 0.7942 0.7911 0.7715 0.7477
612.000000 0.7239 0.7001 0.6763 0.6526 0.6288
617.000000 0.6050 0.5812 0.5574 0.5336 0.5351
622.000000 0.5718 0.6095 0.6472 0.6849 0.7226
627.000000 0.7603 0.7980 0.8138 0.8160 0.8126
632.000000 0.8120 0.8082 0.8017 0.7952 0.7887
637.000000 0.7834 0.7804 0.7774 0.7739 0.7588
642.000000 0.7479 0.7426 0.7373 0.7354 0.7342
647.000000 0.7385 0.7429 0.7467 0.7457 0.7439
652.000000 0.7254 0.7043 0.6833 0.6622 0.6411
657.000000 0.6201 0.5990 0.5779 0.5712 0.5716
662.000000 0.5716 0.5853 0.6021 0.6188 0.6356
667.000000 0.6524 0.6692 0.6791 0.6829 0.6855
672.000000 0.6880 0.6905 0.6938 0.6974 0.7011
677.000000 0.7059 0.7130 0.7204 0.7303 0.7403
682.000000 0.7441 0.7444 0.7443 0.7460 0.7428
687.000000 0.7393 0.7329 0.7086 0.6638 0.6190
692.000000 0.5742 0.5294 0.4847 0.4399 0.3951
697.000000 0.3503 0.3230 0.3228 0.3227 0.3278
702.000000 0.3337 0.3397 0.3456 0.3516 0.3575
707.000000 0.3635 0.3694 0.3754 0.3814 0.3873
712.000000 0.3913 0.3910 0.3910 0.3901 0.3895
717.000000 0.3875 0.3842 0.3793 0.3742 0.3615
722.000000 0.3530 0.3446 0.3252 0.2936 0.2619
727.000000 0.2303 0.1987 0.1671 0.1355 0.1039
732.000000 0.0765 0.0762 0.1012 0.1243 0.1474
737.000000 0.1705 0.1936 0.2167 0.2398 0.2629
742.000000 0.2860 0.2992 0.3037 0.3086 0.3131
747.000000 0.3164 0.3205 0.3372 0.3538 0.3704
752.000000 0.3871 0.4037 0.4203 0.4370 0.4536
757.000000 0.4703 0.4869 0.5035 0.5176 0.5231
762.000000 0.5258 0.5277 0.5271 0.5267 0.5257
767.000000 0.5110 0.4865 0.4620 0.4375 0.4130
772.000000 0.3886 0.3641 0.3396 0.3151 0.2907
777.000000 0.2662 0.2417 0.2208 0.2223 0.2328
782.000000 0.2597 0.2866 0.3135 0.3403 0.3672
787.000000 0.3941 0.4210 0.4478 0.4747 0.5016
792.000000 0.5285 0.5553 0.5822 0.6091 0.6345
797.000000 0.6329 0.6324 0.6305 0.6134 0.5940
802.000000 0.5747 0.5553 0.5360 0.5166 0.4972
807.000000 0.4779 0.4585 0.4391 0.4198 0.4004
812.000000 0.3811 0.3617 0.3423 0.3230 0.3036
817.000000 0.2843 0.2649 0.2455 0.2299 0.2297
822.000000 0.2295 0.2296 0.2297 0.2298 0.2299
827.000000 0.2305 0.2313 0.2320 0.2509 0.2754
832.000000 0.2999 0.3244 0.3489 0.3734 0.3978
837.000000 0.4223 0.4468 0.4713 0.4929 0.4933
842.000000 0.4924 0.4862 0.4582 0.4303 0.4023
847.000000 0.3744 0.3464 0.3185 0.2905 0.2626
852.000000 0.2346 0.2273 0.2268 0.2330 0.2581
857.000000 0.2832 0.3083 0.3335 0.3586 0.3837
862.000000 0.4088 0.4339 0.4591 0.4842 0.5093
867.000000 0.5344 0.5596 0.5847 0.6098 0.6202
872.000000 0.6191 0.6183 0.6171 0.6129 0.6068
877.000000 0.5688 0.5277 0.4866 0.4455 0.4044
882.000000 0.3633 0.3284 0.3305 0.4208 0.5112
887.000000 0.6015 0.6906 0.7107 0.7286 0.7432
892.000000 0.7560 0.7651 0.7743 0.7841 0.7963
897.000000 0.8085 0.8180 0.8269 0.8358 0.8429
902.000000 0.8490 0.8551 0.8612 0.8660 0.8703
907.000000 0.8746 0.8789 0.8803 0.8817 0.8831
912.000000 0.8845 0.8859 0.8874 0.8886 0.8893
917.000000 0.8900 0.8907 0.8914 0.8921 0.8924
922.000000 0.8925 0.8920 0.8918 0.8916 0.8907
927.000000 0.8895 0.8884 0.8873 0.8859 0.8837
932.000000 0.8815 0.8792 0.8770 0.8734 0.8694
937.000000 0.8653 0.8595 0.8462 0.8329 0.8196
942.000000 0.8117 0.8117 0.8133 0.8198 0.8263
947.000000 0.8328 0.8393 0.8458 0.8523 0.8553
952.000000 0.8530 0.8520 0.8510 0.8498 0.8469
957.000000 0.8370 0.8246 0.8122 0.7998 0.7874
962.000000 0.7751 0.7627 0.7503 0.7379 0.7255
967.000000 0.7148 0.7118 0.7129 0.7127 0.7218
972.000000 0.7335 0.7452 0.7569 0.7687 0.7804
977.000000 0.7921 0.8038 0.8156 0.8273 0.8389
982.000000 0.8432 0.8474 0.8520 0.8566 0.8610
987.000000 0.8635 0.8661 0.8691 0.8681 0.8686
992.000000 0.8678 0.8670 0.8654 0.8633 0.8599
997.000000 0.8558 0.8497 0.8428 0.8377 0.8338
1002.000000 0.8299 0.8259 0.8227 0.8210 0.8192
1007.000000 0.8173 0.8161 0.8154 0.8147 0.8094
1012.000000 0.8036 0.7971 0.7849 0.7772 0.7688
1017.000000 0.7596 0.6980 0.5366 0.4697 0.4696
1022.000000 0.4826 0.5179 0.5532 0.5885 0.6238
1027.000000 0.6592 0.6945 0.7298 0.7651 0.7850
1032.000000 0.7850 0.7841 0.7777 0.7706 0.7623
1037.000000 0.7633 0.7642 0.7677 0.7711 0.7745
1042.000000 0.7780 0.7789 0.7766 0.7776 0.7691
1047.000000 0.7470 0.7250 0.7029 0.6809 0.6589
1052.000000 0.6295 0.6242 0.6189 0.6118 0.6037
1057.000000 0.6011 0.5985 0.5967 0.5989 0.5986
1062.000000 0.6221 0.6486 0.6751 0.7016 0.7281
1067.000000 0.7546 0.8013 0.8223 0.8324 0.8402
1072.000000 0.8481 0.8542 0.8593 0.8644 0.8695
1077.000000 0.8731 0.8758 0.8785 0.8813 0.8840
1082.000000 0.8862 0.8877 0.8892 0.8907 0.8923
1087.000000 0.8937 0.8942 0.8946 0.8951 0.8956
1092.000000 0.8961 0.8960 0.8967 0.8954 0.8951
1097.000000 0.8948 0.8942 0.8926 0.8911 0.8882
1102.000000 0.8852 0.8821 0.8785 0.8748 0.8713
1107.000000 0.8681 0.8650 0.8618 0.8572 0.8496
1112.000000 0.8420 0.8332 0.8222 0.8084 0.7710
1117.000000 0.7481 0.7251 0.7022 0.6792 0.6563
1122.000000 0.6333 0.6104 0.5874 0.5881 0.6105
1127.000000 0.6538 0.6972 0.7405 0.7941 0.8048
1132.000000 0.8123 0.8197 0.8276 0.8364 0.8452
1137.000000 0.8544 0.8640 0.8733 0.8773 0.8812
1142.000000 0.8851 0.8891 0.8904 0.8916 0.8929
1147.000000 0.8936 0.8936 0.8936 0.8937 0.8962
1152.000000 0.8937 0.8937 0.8932 0.8927 0.8921
1157.000000 0.8915 0.8909 0.8899 0.8880 0.8861
1162.000000 0.8842 0.8823 0.8800 0.8773 0.8746
1167.000000 0.8719 0.8676 0.8623 0.8570 0.8506
1172.000000 0.8428 0.8349 0.8272 0.8195 0.8118
1177.000000 0.8041 0.7928 0.7790 0.7652 0.7535
1182.000000 0.7425 0.7316 0.7201 0.7082 0.6968
1187.000000 0.6867 0.6768 0.6710 0.6653 0.6596
1192.000000 0.6560 0.6558 0.6560 0.6627 0.6706
1197.000000 0.6785 0.6864 0.6943 0.7018 0.6993
1202.000000 0.6976 0.6909 0.6842 0.6774 0.6707
1207.000000 0.6640 0.6561 0.6465 0.6369 0.6272
1212.000000 0.6176 0.6140 0.6169 0.6144 0.6236
1217.000000 0.6329 0.6421 0.6513 0.6606 0.6698
1222.000000 0.6790 0.6883 0.6975 0.7067 0.7160
1227.000000 0.7252 0.7344 0.7442 0.7508 0.7572
1232.000000 0.7639 0.7619 0.7626 0.7617 0.7580
1237.000000 0.7531 0.7488 0.7463 0.7463 0.7453
1242.000000 0.7464 0.7498 0.7521 0.7544 0.7571
1247.000000 0.7598 0.7637 0.7679 0.7722 0.7759
1252.000000 0.7793 0.7826 0.7860 0.7894 0.7927
1257.000000 0.7988 0.8076 0.8164 0.8221 0.8260
1262.000000 0.8299 0.8339 0.8355 0.8355 0.8359
1267.000000 0.8356 0.8356 0.8348 0.8338 0.8316
1272.000000 0.8287 0.8263 0.8254 0.8244 0.8235
1277.000000 0.8232 0.8230 0.8228 0.8226 0.8224
1282.000000 0.8223 0.8222 0.8222 0.8211 0.8193
1287.000000 0.8176 0.8137 0.8098 0.8057 0.8017
1292.000000 0.7977 0.7937 0.7902 0.7880 0.7859
1297.000000 0.7840 0.7830 0.7819 0.7808 0.7783
1302.000000 0.7745 0.7707 0.7667 0.7627 0.7586
1307.000000 0.7553 0.7524 0.7494 0.7465 0.7435
1312.000000 0.7409 0.7385 0.7361 0.7337 0.7312
1317.000000 0.7288 0.7264 0.7237 0.7187 0.7180
1322.000000 0.7166 0.7189 0.7201 0.7217 0.7234
1327.000000 0.7252 0.7272 0.7291 0.7311 0.7330
1332.000000 0.7348 0.7367 0.7377 0.7373 0.7369
1337.000000 0.7366 0.7357 0.7346 0.7335 0.7333
1342.000000 0.7333 0.7333 0.7333 0.7340 0.7349
1347.000000 0.7358 0.7375 0.7392 0.7410 0.7433
1352.000000 0.7465 0.7498 0.7530 0.7562 0.7591
1357.000000 0.7620 0.7648 0.7676 0.7705 0.7733
1362.000000 0.7754 0.7760 0.7765 0.7770 0.7786
1367.000000 0.7761 0.7755 0.7740 0.7712 0.7684
1372.000000 0.7649 0.7592 0.7536 0.7422 0.7242
1377.000000 0.6839 0.6881 0.6832 0.6906 0.7026
1382.000000 0.7145 0.7265 0.7385 0.7472 0.7518
1387.000000 0.7555 0.7591 0.7626 0.7647 0.7669
1392.000000 0.7691 0.7712 0.7730 0.7733 0.7712
1397.000000 0.7740 0.7738 0.7733 0.7727 0.7721
1402.000000 0.7711 0.7700 0.7690 0.7680 0.7668
1407.000000 0.7636 0.7605 0.7573 0.7534 0.7469
1412.000000 0.7403 0.7337 0.7243 0.7103 0.6806
1417.000000 0.6509 0.6212 0.5915 0.5618 0.5320
1422.000000 0.5050 0.5057 0.5057 0.5347 0.5654
1427.000000 0.5962 0.6269 0.6577 0.6755 0.6792
1432.000000 0.6826 0.6874 0.6867 0.6864 0.6861
1437.000000 0.6854 0.6847 0.6839 0.6810 0.6771
1442.000000 0.6730 0.6684 0.6630 0.6576 0.6517
1447.000000 0.6459 0.6400 0.6354 0.6312 0.6271
1452.000000 0.6212 0.6143 0.5714 0.5319 0.4924
1457.000000 0.4528 0.4447 0.4481 0.4940 0.4941
1462.000000 0.4921 0.4833 0.4744 0.4656 0.4640
1467.000000 0.5055 0.5658 0.6262 0.6697 0.6811
1472.000000 0.6892 0.6972 0.7065 0.7166 0.7265
1477.000000 0.7357 0.7449 0.7475 0.7497 0.7519
1482.000000 0.7540 0.7549 0.7553 0.7564 0.7561
1487.000000 0.7557 0.7553 0.7548 0.7535 0.7522
1492.000000 0.7510 0.7497 0.7482 0.7467 0.7452
1497.000000 0.7437 0.7411 0.7385 0.7359 0.7199
1502.000000 0.7053 0.6908 0.6446 0.6182 0.5738
1507.000000 0.5259 0.4781 0.4302 0.3824 0.3345
1512.000000 0.2866 0.2388 0.1909 0.1536 0.1537
1517.000000 0.2069 0.2806 0.3543 0.4280 0.5017
1522.000000 0.5754 0.6491 0.6586 0.6730 0.6857
1527.000000 0.6984 0.7130 0.7275 0.7392 0.7508
1532.000000 0.7583 0.7631 0.7678 0.7726 0.7773
1537.000000 0.7795 0.7815 0.7835 0.7856 0.7876
1542.000000 0.7896 0.7909 0.7918 0.7926 0.7935
1547.000000 0.7944 0.7952 0.7961 0.7969 0.7978
1552.000000 0.7983 0.7987 0.7992 0.7997 0.8001
1557.000000 0.8006 0.8011 0.8016 0.8020 0.8025
1562.000000 0.8035 0.8034 0.8026 0.8017 0.8007
1567.000000 0.7987 0.7967 0.7941 0.7914 0.7885
1572.000000 0.7841 0.7797 0.7753 0.7717 0.7696
1577.000000 0.7689 0.7697 0.7704 0.7758 0.7816
1582.000000 0.7872 0.7928 0.7987 0.8049 0.8064
1587.000000 0.8073 0.8082 0.8091 0.8098 0.8099
1592.000000 0.8091 0.8101 0.8102 0.8103 0.8104
1597.000000 0.8106 0.8101 0.8093 0.8085 0.8078
1602.000000 0.8070 0.8062 0.8051 0.8036 0.8020
1607.000000 0.8005 0.7989 0.7973 0.7953 0.7924
1612.000000 0.7895 0.7866 0.7819 0.7769 0.7736
1617.000000 0.7738 0.7743 0.7747 0.7753 0.7777
1622.000000 0.7826 0.7875 0.7933 0.7990 0.8034
1627.000000 0.8057 0.8081 0.8092 0.8095 0.8099
1632.000000 0.8102 0.8105 0.8104 0.8104 0.8103
1637.000000 0.8103 0.8099 0.8093 0.8087 0.8082
1642.000000 0.8076 0.8070 0.8064 0.8059 0.8053
1647.000000 0.8048 0.8043 0.8037 0.8032 0.8027
1652.000000 0.8021 0.8016 0.8012 0.8008 0.8004
1657.000000 0.8001 0.7997 0.7994 0.7990 0.7986
1662.000000 0.7983 0.7981 0.7989 0.7996 0.8003
1667.000000 0.8010 0.8018 0.8026 0.8034 0.8042
1672.000000 0.8051 0.8059 0.8068 0.8077 0.8085
1677.000000 0.8094 0.8102 0.8097 0.8093 0.8088
1682.000000 0.8084 0.8079 0.8068 0.8054 0.8039
1687.000000 0.8027 0.8026 0.8024 0.8022 0.8023
1692.000000 0.8030 0.8037 0.8044 0.8059 0.8077
1697.000000 0.8096 0.8115 0.8135 0.8155 0.8175
1702.000000 0.8195 0.8212 0.8217 0.8221 0.8225
1707.000000 0.8229 0.8233 0.8237 0.8242 0.8245
1712.000000 0.8248 0.8251 0.8254 0.8257 0.8260
1717.000000 0.8263 0.8266 0.8268 0.8271 0.8273
1722.000000 0.8275 0.8278 0.8280 0.8283 0.8281
1727.000000 0.8287 0.8288 0.8288 0.8288 0.8288
1732.000000 0.8288 0.8288 0.8288 0.8288 0.8288
1737.000000 0.8288 0.8288 0.8288 0.8288 0.8288
1742.000000 0.8288 0.8288 0.8286 0.8284 0.8282
1747.000000 0.8280 0.8277 0.8275 0.8273 0.8271
1752.000000 0.8269 0.8266 0.8264 0.8262 0.8259
1757.000000 0.8255 0.8250 0.8246 0.8242 0.8238
1762.000000 0.8233 0.8229 0.8225 0.8221 0.8216
1767.000000 0.8212 0.8208 0.8204 0.8199 0.8193
1772.000000 0.8188 0.8182 0.8177 0.8171 0.8166
1777.000000 0.8160 0.8155 0.8149 0.8126 0.8102
1782.000000 0.8079 0.8055 0.8032 0.7997 0.7955
1787.000000 0.7919 0.7896 0.7880 0.7874 0.7861
1792.000000 0.7895 0.7920 0.7945 0.7970 0.7989
1797.000000 0.8009 0.8037 0.8065 0.8096 0.8136
1802.000000 0.8177 0.8216 0.8255 0.8269 0.8274
1807.000000 0.8279 0.8284 0.8289 0.8294 0.8299
1812.000000 0.8304 0.8308 0.8309 0.8311 0.8312
1817.000000 0.8313 0.8315 0.8316 0.8318 0.8319
1822.000000 0.8320 0.8320 0.8320 0.8320 0.8320
1827.000000 0.8320 0.8321 0.8321 0.8321 0.8321
1832.000000 0.8321 0.8321 0.8322 0.8322 0.8321
1837.000000 0.8320 0.8319 0.8318 0.8317 0.8317
1842.000000 0.8312 0.8315 0.8314 0.8313 0.8313
1847.000000 0.8312 0.8311 0.8310 0.8309 0.8309
1852.000000 0.8308 0.8307 0.8306 0.8305 0.8304
1857.000000 0.8303 0.8303 0.8302 0.8301 0.8300
1862.000000 0.8299 0.8298 0.8297 0.8296 0.8296
1867.000000 0.8294 0.8288 0.8283 0.8277 0.8271
1872.000000 0.8265 0.8260 0.8254 0.8243 0.8231
1877.000000 0.8218 0.8206 0.8193 0.8172 0.8151
1882.000000 0.8129 0.8108 0.8086 0.8064 0.8037
1887.000000 0.8011 0.7984 0.7958 0.7931 0.7903
1892.000000 0.7861 0.7820 0.7778 0.7736 0.7642
1897.000000 0.7535 0.7403 0.7405 0.7388 0.7410
1902.000000 0.7413 0.7428 0.7458 0.7513 0.7566
1907.000000 0.7618 0.7670 0.7733 0.7804 0.7875
1912.000000 0.7962 0.8040 0.8074 0.8108 0.8142
1917.000000 0.8164 0.8181 0.8198 0.8215 0.8231
1922.000000 0.8243 0.8252 0.8262 0.8271 0.8281
1927.000000 0.8286 0.8290 0.8294 0.8297 0.8301
1932.000000 0.8305 0.8308 0.8311 0.8313 0.8315
1937.000000 0.8317 0.8319 0.8321 0.8323 0.8325
1942.000000 0.8327 0.8329 0.8331 0.8333 0.8334
1947.000000 0.8332 0.8331 0.8330 0.8329 0.8328
1952.000000 0.8327 0.8326 0.8325 0.8324 0.8323
1957.000000 0.8322 0.8320 0.8318 0.8315 0.8313
1962.000000 0.8310 0.8308 0.8305 0.8303 0.8301
1967.000000 0.8302 0.8302 0.8302 0.8302 0.8302
1972.000000 0.8302 0.8303 0.8303 0.8307 0.8310
1977.000000 0.8314 0.8317 0.8321 0.8324 0.8328
1982.000000 0.8331 0.8335 0.8338 0.8339 0.8340
1987.000000 0.8341 0.8343 0.8344 0.8345 0.8348
1992.000000 0.8350 0.8353 0.8355 0.8358 0.8360
1997.000000 0.8363 0.8366 0.8374 0.8382 0.8390
2002.000000 0.8399 0.8403 0.8408 0.8415 0.8422
2007.000000 0.8426 0.8431 0.8431 0.8431 0.8430
2012.000000 0.8430 0.8430 0.8430 0.8429 0.8429
2017.000000 0.8429 0.8429 0.8429 0.8430 0.8430
2022.000000 0.8430 0.8430 0.8431 0.8431 0.8432
2027.000000 0.8432 0.8433 0.8433 0.8433 0.8433
2032.000000 0.8433 0.8433 0.8433 0.8433 0.8433
2037.000000 0.8433 0.8433 0.8433 0.8433 0.8433
2042.000000 0.8433 0.8433 0.8433 0.8433 0.8433
2047.000000 0.8433 0.8433 0.8433 0.8433 0.8433
2052.000000 0.8433 0.8433 0.8433 0.8433 0.8433
2057.000000 0.8433 0.8433 0.8433 0.8433 0.8433
2062.000000 0.8433 0.8433 0.8434 0.8434 0.8435
2067.000000 0.8435 0.8436 0.8437 0.8438 0.8438
2072.000000 0.8439 0.8440 0.8441 0.8441 0.8442
2077.000000 0.8442 0.8443 0.8444 0.8445 0.8445
2082.000000 0.8446 0.8446 0.8447 0.8448 0.8449
2087.000000 0.8449 0.8450 0.8451 0.8452 0.8452
2092.000000 0.8453 0.8453 0.8454 0.8455 0.8456
2097.000000 0.8456 0.8457 0.8457 0.8458 0.8458
2102.000000 0.8459 0.8459 0.8460 0.8461 0.8462
2107.000000 0.8462 0.8463 0.8463 0.8464 0.8464
2112.000000 0.8465 0.8465 0.8466 0.8466 0.8467
2117.000000 0.8467 0.8468 0.8468 0.8469 0.8469
2122.000000 0.8470 0.8470 0.8471 0.8472 0.8473
2127.000000 0.8473 0.8474 0.8474 0.8475 0.8475
2132.000000 0.8476 0.8476 0.8477 0.8477 0.8478
2137.000000 0.8478 0.8479 0.8479 0.8479 0.8478
2142.000000 0.8478 0.8477 0.8477 0.8477 0.8477
2147.000000 0.8476 0.8476 0.8476 0.8476 0.8475
2152.000000 0.8475 0.8475 0.8475 0.8474 0.8474
2157.000000 0.8473 0.8473 0.8473 0.8473 0.8472
2162.000000 0.8472 0.8472 0.8472 0.8471 0.8471
2167.000000 0.8470 0.8470 0.8470 0.8470 0.8469
2172.000000 0.8469 0.8469 0.8469 0.8468 0.8468
2177.000000 0.8467 0.8467 0.8467 0.8467 0.8466
2182.000000 0.8466 0.8466 0.8466 0.8465 0.8465
2187.000000 0.8465 0.8465 0.8465 0.8465 0.8465
2192.000000 0.8465 0.8464 0.8464 0.8464 0.8464
2197.000000 0.8464 0.8464 0.8464 0.8464 0.8463
2202.000000 0.8463 0.8463 0.8463 0.8463 0.8463
2207.000000 0.8463 0.8463 0.8462 0.8462 0.8462
2212.000000 0.8462 0.8462 0.8462 0.8462 0.8462
2217.000000 0.8462 0.8462 0.8461 0.8461 0.8461
2222.000000 0.8461 0.8461 0.8461 0.8461 0.8461
2227.000000 0.8460 0.8460 0.8460 0.8460 0.8460
2232.000000 0.8460 0.8460 0.8460 0.8459 0.8459
2237.000000 0.8459 0.8459 0.8459 0.8459 0.8459
2242.000000 0.8459 0.8458 0.8458 0.8458 0.8458
2247.000000 0.8458 0.8458 0.8458 0.8458 0.8457
2252.000000 0.8457 0.8457 0.8457 0.8457 0.8457
2257.000000 0.8456 0.8455 0.8454 0.8453 0.8452
2262.000000 0.8452 0.8451 0.8450 0.8449 0.8449
2267.000000 0.8448 0.8447 0.8446 0.8445 0.8444
2272.000000 0.8444 0.8443 0.8442 0.8441 0.8441
2277.000000 0.8440 0.8439 0.8438 0.8437 0.8436
2282.000000 0.8436 0.8435 0.8434 0.8433 0.8433
2287.000000 0.8432 0.8431 0.8430 0.8429 0.8428
2292.000000 0.8428 0.8427 0.8426 0.8425 0.8425
2297.000000 0.8423 0.8421 0.8419 0.8417 0.8415
2302.000000 0.8413 0.8411 0.8409 0.8407 0.8405
2307.000000 0.8403 0.8401 0.8399 0.8397 0.8395
2312.000000 0.8394 0.8397 0.8401 0.8405 0.8409
2317.000000 0.8412 0.8416 0.8420 0.8424 0.8427
2322.000000 0.8431 0.8434 0.8438 0.8441 0.8445
2327.000000 0.8447 0.8450 0.8453 0.8456 0.8458
2332.000000 0.8461 0.8463 0.8457 0.8469 0.8472
2337.000000 0.8474 0.8477 0.8478 0.8479 0.8479
2342.000000 0.8480 0.8480 0.8481 0.8481 0.8482
2347.000000 0.8482 0.8483 0.8483 0.8484 0.8484
2352.000000 0.8485 0.8485 0.8486 0.8486 0.8487
2357.000000 0.8487 0.8487 0.8487 0.8487 0.8486
2362.000000 0.8486 0.8485 0.8485 0.8485 0.8485
2367.000000 0.8484 0.8484 0.8484 0.8484 0.8483
2372.000000 0.8483 0.8482 0.8482 0.8482 0.8482
2377.000000 0.8481 0.8481 0.8480 0.8480 0.8480
2382.000000 0.8480 0.8479 0.8479 0.8478 0.8478
2387.000000 0.8478 0.8478 0.8477 0.8477 0.8477
2392.000000 0.8477 0.8476 0.8476 0.8476 0.8476
2397.000000 0.8475 0.8475 0.8475 0.8475 0.8474
2402.000000 0.8474 0.8474 0.8474 0.8473 0.8473
2407.000000 0.8473 0.8473 0.8472 0.8472 0.8472
2412.000000 0.8472 0.8471 0.8471 0.8471 0.8471
2417.000000 0.8470 0.8470 0.8470 0.8470 0.8469
2422.000000 0.8469 0.8469 0.8469 0.8468 0.8468
2427.000000 0.8469 0.8471 0.8472 0.8473 0.8474
2432.000000 0.8475 0.8476 0.8477 0.8478 0.8480
2437.000000 0.8481 0.8482 0.8483 0.8484 0.8485
2442.000000 0.8486 0.8487 0.8489 0.8490 0.8491
2447.000000 0.8492 0.8493 0.8494 0.8495 0.8496
2452.000000 0.8497 0.8498 0.8499 0.8499 0.8500
2457.000000 0.8501 0.8502 0.8503 0.8504 0.8504
2462.000000 0.8505 0.8506 0.8507 0.8507 0.8508
2467.000000 0.8507 0.8506 0.8505 0.8505 0.8504
2472.000000 0.8504 0.8503 0.8503 0.8502 0.8502
2477.000000 0.8501 0.8501 0.8500 0.8500 0.8499
2482.000000 0.8498 0.8497 0.8497 0.8496 0.8496
2487.000000 0.8495 0.8495 0.8494 0.8494 0.8493
2492.000000 0.8493 0.8493 0.8493 0.8493 0.8493
2497.000000 0.8493 0.8493 0.8493 0.8494 0.8494
2502.000000 0.8494 0.8494 0.8494 0.8494 0.8495
2507.000000 0.8495 0.8495 0.8495 0.8495 0.8495
2512.000000 0.8496 0.8496 0.8496 0.8496 0.8497
2517.000000 0.8497 0.8497 0.8497 0.8497 0.8497
2522.000000 0.8498 0.8498 0.8498 0.8498 0.8498
2527.000000 0.8498 0.8499 0.8499 0.8499 0.8499
2532.000000 0.8500 0.8501 0.8502 0.8502 0.8503
2537.000000 0.8504 0.8505 0.8505 0.8506 0.8507
2542.000000 0.8508 0.8509 0.8510 0.8510 0.8511
2547.000000 0.8512 0.8513 0.8513 0.8514 0.8515
2552.000000 0.8516 0.8517 0.8518 0.8518 0.8519
2557.000000 0.8520 0.8521 0.8521 0.8522 0.8523
2562.000000 0.8524 0.8523 0.8523 0.8523 0.8523
2567.000000 0.8522 0.8522 0.8522 0.8522 0.8521
2572.000000 0.8521 0.8521 0.8521 0.8520 0.8520
2577.000000 0.8520 0.8520 0.8520 0.8520 0.8519
2582.000000 0.8519 0.8519 0.8519 0.8517 0.8515
2587.000000 0.8513 0.8511 0.8509 0.8507 0.8505
2592.000000 0.8503 0.8501 0.8499 0.8497 0.8495
2597.000000 0.8493 0.8491 0.8489 0.8487 0.8485
2602.000000 0.8483 0.8481 0.8479 0.8477 0.8475
2607.000000 0.8473 0.8471 0.8469 0.8467 0.8463
2612.000000 0.8460 0.8456 0.8453 0.8449 0.8446
2617.000000 0.8442 0.8439 0.8435 0.8432 0.8428
2622.000000 0.8425 0.8421 0.8418 0.8414 0.8411
2627.000000 0.8412 0.8414 0.8416 0.8418 0.8420
2632.000000 0.8423 0.8425 0.8427 0.8429 0.8432
2637.000000 0.8435 0.8439 0.8443 0.8447 0.8451
2642.000000 0.8455 0.8459 0.8464 0.8468 0.8472
2647.000000 0.8476 0.8480 0.8484 0.8488 0.8492
2652.000000 0.8496 0.8499 0.8503 0.8506 0.8510
2657.000000 0.8513 0.8517 0.8520 0.8524 0.8527
2662.000000 0.8531 0.8534 0.8538 0.8539 0.8540
2667.000000 0.8540 0.8540 0.8540 0.8541 0.8541
2672.000000 0.8541 0.8541 0.8541 0.8541 0.8541
2677.000000 0.8541 0.8541 0.8541 0.8541 0.8541
2682.000000 0.8542 0.8542 0.8542 0.8541 0.8540
2687.000000 0.8538 0.8537 0.8535 0.8534 0.8532
2692.000000 0.8531 0.8529 0.8528 0.8527 0.8526
2697.000000 0.8524 0.8523 0.8524 0.8525 0.8527
2702.000000 0.8530 0.8533 0.8536 0.8538 0.8541
2707.000000 0.8544 0.8547 0.8549 0.8552 0.8552
2712.000000 0.8553 0.8550 0.8548 0.8545 0.8543
2717.000000 0.8541 0.8539 0.8531 0.8523 0.8514
2722.000000 0.8505 0.8496 0.8487 0.8479 0.8472
2727.000000 0.8465 0.8458 0.8450 0.8443 0.8436
2732.000000 0.8429 0.8424 0.8420 0.8415 0.8410
2737.000000 0.8414 0.8419 0.8425 0.8432 0.8438
2742.000000 0.8444 0.8449 0.8455 0.8459 0.8463
2747.000000 0.8466 0.8470 0.8474 0.8478 0.8480
2752.000000 0.8483 0.8483 0.8483 0.8483 0.8483
2757.000000 0.8483 0.8483 0.8483 0.8483 0.8483
2762.000000 0.8484 0.8482 0.8480 0.8478 0.8476
2767.000000 0.8474 0.8473 0.8471 0.8469 0.8467
2772.000000 0.8465 0.8463 0.8461 0.8459 0.8458
2777.000000 0.8456 0.8454 0.8452 0.8450 0.8448
2782.000000 0.8446 0.8443 0.8441 0.8439 0.8437
2787.000000 0.8434 0.8432 0.8430 0.8428 0.8425
2792.000000 0.8423 0.8421 0.8419 0.8414 0.8410
2797.000000 0.8405 0.8400 0.8395 0.8390 0.8385
2802.000000 0.8380 0.8375 0.8370 0.8364 0.8359
2807.000000 0.8354 0.8349 0.8339 0.8329 0.8319
2812.000000 0.8309 0.8299 0.8289 0.8279 0.8269
2817.000000 0.8257 0.8245 0.8230 0.8216 0.8201
2822.000000 0.8187 0.8172 0.8158 0.8144 0.8130
2827.000000 0.8115 0.8101 0.8077 0.8054 0.8027
2832.000000 0.8001 0.7975 0.7949 0.7922 0.7896
2837.000000 0.7869 0.7843 0.7816 0.7789 0.7756
2842.000000 0.7723 0.7689 0.7656 0.7623 0.7590
2847.000000 0.7557 0.7524 0.7490 0.7457 0.7400
2852.000000 0.7344 0.7279 0.7215 0.7150 0.7086
2857.000000 0.6843 0.6600 0.6482 0.6364 0.6224
2862.000000 0.6085 0.5879 0.5674 0.5507 0.5341
2867.000000 0.5208 0.5075 0.4942 0.4809 0.4676
2872.000000 0.4543 0.4410 0.4240 0.4260 0.4244
2877.000000 0.4253 0.4263 0.4439 0.4615 0.4791
2882.000000 0.4968 0.5144 0.5321 0.5497 0.5674
2887.000000 0.5788 0.5922 0.5904 0.5907 0.5821
2892.000000 0.5735 0.5639 0.5544 0.5448 0.5353
2897.000000 0.5313 0.5274 0.5282 0.5290 0.5346
2902.000000 0.5402 0.5458 0.5515 0.5571 0.5627
2907.000000 0.5683 0.5739 0.5688 0.5637 0.5518
2912.000000 0.5400 0.5281 0.5163 0.5044 0.4926
2917.000000 0.4807 0.4689 0.4570 0.4452 0.4333
2922.000000 0.4215 0.4096 0.3977 0.3858 0.3740
2927.000000 0.3621 0.3503 0.3384 0.3266 0.3147
2932.000000 0.3029 0.2910 0.2792 0.2792 0.2792
2937.000000 0.3013 0.3235 0.3483 0.3732 0.3980
2942.000000 0.4229 0.4478 0.4727 0.4975 0.5224
2947.000000 0.5256 0.5279 0.5287 0.5287 0.5125
2952.000000 0.4964 0.4728 0.4492 0.4256 0.4021
2957.000000 0.3785 0.3549 0.3313 0.3078 0.2842
2962.000000 0.2606 0.2370 0.2135 0.1899 0.1663
2967.000000 0.1427 0.1192 0.1082 0.0973 0.0976
2972.000000 0.0966 0.1129 0.1279 0.1484 0.1689
2977.000000 0.1894 0.2099 0.2304 0.2509 0.2714
2982.000000 0.2919 0.3124 0.3329 0.3534 0.3739
2987.000000 0.3944 0.4149 0.4354 0.4559 0.4764
2992.000000 0.4970 0.5175 0.5380 0.5585 0.5790
2997.000000 0.5971 0.6153 0.6152 0.6151 0.6150
3002.000000 0.6168 0.6057 0.5965 0.5865 0.5766
3007.000000 0.5667 0.5568 0.5468 0.5369 0.5305
3012.000000 0.5241 0.5278 0.5316 0.5375 0.5434
3017.000000 0.5493 0.5552 0.5572 0.5593 0.5510
3022.000000 0.5428 0.5335 0.5243 0.5150 0.5058
3027.000000 0.4976 0.4916 0.4953 0.5012 0.5157
3032.000000 0.5302 0.5446 0.5591 0.5736 0.5881
3037.000000 0.6025 0.6170 0.6314 0.6459 0.6547
3042.000000 0.6635 0.6635 0.6635 0.6576 0.6653
3047.000000 0.6454 0.6391 0.6327 0.6264 0.6200
3052.000000 0.6137 0.6074 0.6011 0.5996 0.5981
3057.000000 0.5982 0.5977 0.6114 0.6245 0.6383
3062.000000 0.6522 0.6660 0.6798 0.6936 0.7075
3067.000000 0.7213 0.7351 0.7489 0.7627 0.7760
3072.000000 0.7894 0.7899 0.7904 0.7906 0.7917
3077.000000 0.7910 0.7912 0.7889 0.7866 0.7822
3082.000000 0.7779 0.7736 0.7693 0.7650 0.7607
3087.000000 0.7564 0.7521 0.7478 0.7435 0.7391
3092.000000 0.7348 0.7333 0.7319 0.7318 0.7317
3097.000000 0.7409 0.7325 0.7687 0.7873 0.8056
3102.000000 0.8240 0.8264 0.8289 0.8306 0.8323
3107.000000 0.8328 0.8334 0.8339 0.8345 0.8350
3112.000000 0.8356 0.8356 0.8357 0.8351 0.8346
3117.000000 0.8340 0.8335 0.8324 0.8313 0.8301
3122.000000 0.8289 0.8277 0.8266 0.8258 0.8251
3127.000000 0.8244 0.8237 0.8230 0.8224 0.8223
3132.000000 0.8223 0.8224 0.8226 0.8230 0.8234
3137.000000 0.8243 0.8252 0.8262 0.8272 0.8285
3142.000000 0.8299 0.8336 0.8373 0.8404 0.8436
3147.000000 0.8460 0.8485 0.8502 0.8519 0.8530
3152.000000 0.8541 0.8551 0.8562 0.8564 0.8567
3157.000000 0.8570 0.8573 0.8576 0.8579 0.8581
3162.000000 0.8584 0.8587 0.8590 0.8592 0.8595
3167.000000 0.8596 0.8598 0.8600 0.8602 0.8603
3172.000000 0.8605 0.8606 0.8608 0.8609 0.8611
3177.000000 0.8613 0.8615 0.8616 0.8618 0.8619
3182.000000 0.8621 0.8622 0.8624 0.8626 0.8628
3187.000000 0.8629 0.8631 0.8633 0.8635 0.8636
3192.000000 0.8638 0.8639 0.8641 0.8643 0.8645
3197.000000 0.8646 0.8648 0.8650 0.8652 0.8653
3202.000000 0.8655 0.8657 0.8659 0.8660 0.8662
3207.000000 0.8663 0.8665 0.8666 0.8668 0.8669
3212.000000 0.8670 0.8671 0.8672 0.8673 0.8674
3217.000000 0.8675 0.8676 0.8677 0.8678 0.8679
3222.000000 0.8680 0.8681 0.8682 0.8683 0.8684
3227.000000 0.8685 0.8686 0.8686 0.8687 0.8688
3232.000000 0.8689 0.8690 0.8691 0.8692 0.8693
3237.000000 0.8694 0.8695 0.8696 0.8697 0.8698
3242.000000 0.8699 0.8700 0.8701 0.8702 0.8703
3247.000000 0.8703 0.8704 0.8705 0.8706 0.8707
3252.000000 0.8708 0.8708 0.8709 0.8710 0.8711
3257.000000 0.8711 0.8712 0.8713 0.8714 0.8715
3262.000000 0.8716 0.8716 0.8717 0.8718 0.8719
3267.000000 0.8719 0.8720 0.8721 0.8722 0.8723
3272.000000 0.8724 0.8724 0.8725 0.8726 0.8727
3277.000000 0.8727 0.8728 0.8729 0.8730 0.8731
3282.000000 0.8732 0.8732 0.8733 0.8734 0.8735
3287.000000 0.8735 0.8736 0.8736 0.8737 0.8737
3292.000000 0.8738 0.8738 0.8739 0.8739 0.8740
3297.000000 0.8740 0.8741 0.8741 0.8742 0.8742
3302.000000 0.8743 0.8743 0.8744 0.8744 0.8745
3307.000000 0.8745 0.8746 0.8746 0.8747 0.8747
3312.000000 0.8748 0.8748 0.8749 0.8749 0.8750
3317.000000 0.8750 0.8751 0.8751 0.8752 0.8752
3322.000000 0.8753 0.8753 0.8754 0.8754 0.8755
3327.000000 0.8755 0.8756 0.8756 0.8757 0.8757
3332.000000 0.8758 0.8758 0.8759 0.8759 0.8760
3337.000000 0.8760 0.8761 0.8761 0.8762 0.8762
3342.000000 0.8763 0.8763 0.8764 0.8764 0.8764
3347.000000 0.8764 0.8765 0.8765 0.8766 0.8766
3352.000000 0.8767 0.8767 0.8768 0.8768 0.8769
3357.000000 0.8769 0.8770 0.8770 0.8770 0.8770
3362.000000 0.8771 0.8771 0.8772 0.8772 0.8773
3367.000000 0.8773 0.8774 0.8774 0.8775 0.8775
3372.000000 0.8776 0.8776 0.8776 0.8776 0.8777
3377.000000 0.8777 0.8778 0.8778 0.8779 0.8779
3382.000000 0.8780 0.8780 0.8781 0.8781 0.8782
3387.000000 0.8782 0.8782 0.8782 0.8783 0.8783
3392.000000 0.8784 0.8784 0.8785 0.8785 0.8786
3397.000000 0.8787 0.8788 0.8789 0.8790 0.8790
3402.000000 0.8791 0.8792 0.8793 0.8794 0.8795
3407.000000 0.8796 0.8797 0.8798 0.8799 0.8799
3412.000000 0.8800 0.8801 0.8802 0.8803 0.8804
3417.000000 0.8805 0.8806 0.8806 0.8807 0.8808
3422.000000 0.8809 0.8810 0.8811 0.8812 0.8813
3427.000000 0.8814 0.8815 0.8815 0.8816 0.8817
3432.000000 0.8818 0.8819 0.8820 0.8821 0.8822
3437.000000 0.8822 0.8823 0.8823 0.8824 0.8824
3442.000000 0.8825 0.8826 0.8827 0.8827 0.8828
3447.000000 0.8828 0.8829 0.8829 0.8830 0.8831
3452.000000 0.8832 0.8832 0.8833 0.8833 0.8834
3457.000000 0.8834 0.8835 0.8836 0.8837 0.8837
3462.000000 0.8838 0.8838 0.8839 0.8839 0.8840
3467.000000 0.8840 0.8841 0.8842 0.8843 0.8843
3472.000000 0.8844 0.8844 0.8845 0.8845 0.8846
3477.000000 0.8846 0.8847 0.8846 0.8845 0.8844
3482.000000 0.8843 0.8842 0.8841 0.8840 0.8839
3487.000000 0.8838 0.8838 0.8837 0.8836 0.8835
3492.000000 0.8834 0.8833 0.8832 0.8831 0.8830
3497.000000 0.8829 0.8828 0.8827 0.8827 0.8826
3502.000000 0.8825 0.8824 0.8823 0.8822 0.8821
3507.000000 0.8820 0.8819 0.8818 0.8817 0.8817
3512.000000 0.8817 0.8816 0.8816 0.8816 0.8816
3517.000000 0.8815 0.8815 0.8814 0.8814 0.8814
3522.000000 0.8814 0.8813 0.8813 0.8812 0.8812
3527.000000 0.8812 0.8812 0.8811 0.8811 0.8811
3532.000000 0.8811 0.8810 0.8810 0.8809 0.8809
3537.000000 0.8809 0.8809 0.8808 0.8808 0.8808
3542.000000 0.8808 0.8807 0.8807 0.8806 0.8806
3547.000000 0.8806 0.8806 0.8805 0.8805 0.8804
3552.000000 0.8804 0.8804 0.8804 0.8803 0.8803
3557.000000 0.8802 0.8802 0.8802 0.8802 0.8801
3562.000000 0.8801 0.8800 0.8800 0.8800 0.8800
3567.000000 0.8799 0.8799 0.8798 0.8798 0.8798
3572.000000 0.8798 0.8797 0.8797 0.8796 0.8796
3577.000000 0.8796 0.8796 0.8795 0.8795 0.8795
3582.000000 0.8795 0.8794 0.8794 0.8793 0.8793
3587.000000 0.8793 0.8793 0.8792 0.8792 0.8791
3592.000000 0.8791 0.8791 0.8791 0.8790 0.8790
3597.000000 0.8789 0.8789 0.8789 0.8789 0.8788
3602.000000 0.8788 0.8787 0.8787 0.8787 0.8787
3607.000000 0.8786 0.8786 0.8785 0.8784 0.8783
3612.000000 0.8782 0.8781 0.8781 0.8780 0.8779
3617.000000 0.8778 0.8777 0.8776 0.8776 0.8775
3622.000000 0.8774 0.8773 0.8772 0.8771 0.8770
3627.000000 0.8769 0.8769 0.8768 0.8767 0.8766
3632.000000 0.8765 0.8764 0.8764 0.8763 0.8762
3637.000000 0.8761 0.8760 0.8759 0.8759 0.8758
3642.000000 0.8757 0.8756 0.8755 0.8754 0.8754
3647.000000 0.8752 0.8751 0.8749 0.8748 0.8747
3652.000000 0.8746 0.8744 0.8743 0.8742 0.8741
3657.000000 0.8739 0.8738 0.8737 0.8736 0.8734
3662.000000 0.8733 0.8731 0.8730 0.8729 0.8728
3667.000000 0.8726 0.8725 0.8724 0.8723 0.8721
3672.000000 0.8720 0.8720 0.8721 0.8722 0.8724
3677.000000 0.8725 0.8726 0.8727 0.8728 0.8729
3682.000000 0.8730 0.8731 0.8733 0.8734 0.8735
3687.000000 0.8736 0.8737 0.8738 0.8739 0.8740
3692.000000 0.8741 0.8742 0.8744 0.8745 0.8746
3697.000000 0.8747 0.8748 0.8749 0.8750 0.8751
3702.000000 0.8752 0.8753 0.8754 0.8755 0.8756
3707.000000 0.8757 0.8758 0.8759 0.8760 0.8761
3712.000000 0.8762 0.8763 0.8764 0.8765 0.8767
3717.000000 0.8768 0.8769 0.8770 0.8771 0.8772
3722.000000 0.8773 0.8774 0.8775 0.8775 0.8775
3727.000000 0.8774 0.8774 0.8774 0.8774 0.8774
3732.000000 0.8774 0.8774 0.8774 0.8773 0.8773
3737.000000 0.8773 0.8773 0.8773 0.8773 0.8772
3742.000000 0.8772 0.8772 0.8772 0.8772 0.8772
3747.000000 0.8772 0.8772 0.8771 0.8771 0.8771
3752.000000 0.8771 0.8771 0.8771 0.8771 0.8771
3757.000000 0.8771 0.8771 0.8772 0.8774 0.8775
3762.000000 0.8776 0.8777 0.8779 0.8780 0.8781
3767.000000 0.8782 0.8784 0.8785 0.8786 0.8787
3772.000000 0.8789 0.8790 0.8791 0.8792 0.8793
3777.000000 0.8794 0.8796 0.8797 0.8798 0.8799
3782.000000 0.8801 0.8802 0.8803 0.8804 0.8806
3787.000000 0.8807 0.8808 0.8809 0.8811 0.8812
3792.000000 0.8813 0.8814 0.8816 0.8816 0.8817
##END=
