##TITLE=2-Butenedioic acid (E), di-2-methylpropyl ester
##JCAMP-DX=4.24
$$ By DXEDIT 1.05 (RS McDonald)
##DATA TYPE=INFRARED SPECTRUM
##CLASS=COBLENTZ III
##ORIGIN=DOW CHEMICAL COMPANY
##OWNER=COPYRIGHT (C) 1988 by COBLENTZ SOCIETY INC.
Collection (C) 2018 copyright by the U.S. Secretary of Commerce
on behalf of the United States of America. All rights reserved.
##DATE=1970/01/09
##NAMES=diisobutyl (2E)-2-butenedioate
Diisobutyl fumarate
##CAS REGISTRY NO=7283-69-4
##MOLFORM=C12 H20 O4
##SOURCE REFERENCE=COBLENTZ NO. 09497
##$NIST SOURCE=COBLENTZ
##$NIST IMAGE=cob9497
##SPECTROMETER/DATA SYSTEM=DOW KBr FOREPRISM-GRATING
##INSTRUMENT PARAMETERS=BLAZED AT 3.5, 12.0, 20.0 MICRON AND CHANGED AT 5.0, 7.5, 14.9 MICRON
##STATE=SOLUTION (10% CCl4 FOR 2.7-7.5, 10% CS2 FOR 7.5-26 MICRON) VS SOLVENT
##PATH LENGTH=0.011 CM, 0.011 CM
##SAMPLING PROCEDURE=TRANSMISSION
##RESOLUTION=2
##DATA PROCESSING=DIGITIZED BY COBLENTZ SOCIETY (BATCH I) FROM HARD COPY
##XUNITS=1/CM
##YUNITS=TRANSMITTANCE
##XFACTOR=1
##YFACTOR=1
##DELTAX=1
##FIRSTX=3800
##LASTX=394
##FIRSTY=0.8693
##MAXX=3800
##MINX=394
##MAXY=0.8845
##MINY=0.0044
##NPOINTS=3407
##XYDATA=(X++(Y..Y))
3800.000000 0.8693 0.8693 0.8693 0.8694 0.8695
3795.000000 0.8695 0.8696 0.8696 0.8697 0.8697
3790.000000 0.8698 0.8698 0.8699 0.8700 0.8701
3785.000000 0.8702 0.8704 0.8705 0.8707 0.8708
3780.000000 0.8710 0.8712 0.8714 0.8715 0.8717
3775.000000 0.8718 0.8720 0.8721 0.8723 0.8724
3770.000000 0.8725 0.8725 0.8728 0.8728 0.8730
3765.000000 0.8731 0.8732 0.8733 0.8735 0.8736
3760.000000 0.8737 0.8738 0.8739 0.8740 0.8742
3755.000000 0.8743 0.8745 0.8747 0.8749 0.8751
3750.000000 0.8753 0.8755 0.8757 0.8759 0.8761
3745.000000 0.8763 0.8765 0.8767 0.8768 0.8771
3740.000000 0.8773 0.8775 0.8777 0.8778 0.8781
3735.000000 0.8783 0.8785 0.8786 0.8788 0.8789
3730.000000 0.8790 0.8790 0.8791 0.8792 0.8793
3725.000000 0.8793 0.8794 0.8795 0.8796 0.8796
3720.000000 0.8797 0.8798 0.8799 0.8799 0.8800
3715.000000 0.8801 0.8802 0.8802 0.8803 0.8804
3710.000000 0.8805 0.8805 0.8806 0.8806 0.8807
3705.000000 0.8807 0.8808 0.8808 0.8809 0.8809
3700.000000 0.8810 0.8810 0.8811 0.8811 0.8812
3695.000000 0.8812 0.8813 0.8814 0.8814 0.8814
3690.000000 0.8814 0.8813 0.8813 0.8812 0.8811
3685.000000 0.8810 0.8809 0.8808 0.8807 0.8806
3680.000000 0.8805 0.8803 0.8801 0.8799 0.8797
3675.000000 0.8795 0.8793 0.8791 0.8789 0.8787
3670.000000 0.8785 0.8783 0.8781 0.8778 0.8778
3665.000000 0.8778 0.8780 0.8781 0.8782 0.8783
3660.000000 0.8784 0.8785 0.8786 0.8787 0.8788
3655.000000 0.8789 0.8791 0.8791 0.8792 0.8792
3650.000000 0.8792 0.8792 0.8793 0.8793 0.8794
3645.000000 0.8794 0.8794 0.8793 0.8792 0.8790
3640.000000 0.8763 0.8785 0.8783 0.8781 0.8778
3635.000000 0.8777 0.8775 0.8773 0.8771 0.8768
3630.000000 0.8766 0.8761 0.8756 0.8751 0.8747
3625.000000 0.8742 0.8737 0.8732 0.8728 0.8725
3620.000000 0.8723 0.8720 0.8718 0.8716 0.8714
3615.000000 0.8711 0.8709 0.8706 0.8704 0.8704
3610.000000 0.8704 0.8704 0.8704 0.8704 0.8705
3605.000000 0.8707 0.8710 0.8713 0.8716 0.8718
3600.000000 0.8721 0.8724 0.8727 0.8728 0.8730
3595.000000 0.8731 0.8732 0.8733 0.8735 0.8736
3590.000000 0.8737 0.8738 0.8739 0.8740 0.8741
3585.000000 0.8742 0.8743 0.8744 0.8746 0.8747
3580.000000 0.8748 0.8749 0.8750 0.8751 0.8752
3575.000000 0.8752 0.8753 0.8754 0.8755 0.8756
3570.000000 0.8757 0.8758 0.8759 0.8759 0.8760
3565.000000 0.8761 0.8762 0.8763 0.8764 0.8765
3560.000000 0.8766 0.8766 0.8766 0.8766 0.8765
3555.000000 0.8764 0.8764 0.8763 0.8763 0.8762
3550.000000 0.8762 0.8761 0.8761 0.8760 0.8759
3545.000000 0.8758 0.8757 0.8756 0.8756 0.8755
3540.000000 0.8754 0.8753 0.8752 0.8751 0.8750
3535.000000 0.8749 0.8749 0.8748 0.8747 0.8746
3530.000000 0.8746 0.8746 0.8746 0.8746 0.8746
3525.000000 0.8746 0.8746 0.8746 0.8746 0.8746
3520.000000 0.8746 0.8746 0.8746 0.8746 0.8747
3515.000000 0.8747 0.8748 0.8748 0.8749 0.8750
3510.000000 0.8751 0.8753 0.8756 0.8758 0.8761
3505.000000 0.8763 0.8766 0.8768 0.8771 0.8774
3500.000000 0.8777 0.8778 0.8782 0.8784 0.8787
3495.000000 0.8790 0.8793 0.8796 0.8799 0.8801
3490.000000 0.8804 0.8807 0.8810 0.8813 0.8816
3485.000000 0.8818 0.8821 0.8823 0.8825 0.8828
3480.000000 0.8830 0.8832 0.8835 0.8837 0.8839
3475.000000 0.8840 0.8841 0.8842 0.8843 0.8844
3470.000000 0.8845 0.8845 0.8845 0.8845 0.8845
3465.000000 0.8843 0.8841 0.8839 0.8838 0.8836
3460.000000 0.8834 0.8831 0.8828 0.8823 0.8818
3455.000000 0.8814 0.8810 0.8806 0.8802 0.8794
3450.000000 0.8787 0.8778 0.8768 0.8760 0.8751
3445.000000 0.8740 0.8730 0.8716 0.8703 0.8689
3440.000000 0.8675 0.8662 0.8649 0.8630 0.8612
3435.000000 0.8584 0.8557 0.8514 0.8471 0.8438
3430.000000 0.8405 0.8387 0.8370 0.8357 0.8344
3425.000000 0.8334 0.8291 0.8321 0.8318 0.8317
3420.000000 0.8316 0.8321 0.8328 0.8346 0.8363
3415.000000 0.8378 0.8394 0.8410 0.8427 0.8445
3410.000000 0.8463 0.8481 0.8499 0.8518 0.8539
3405.000000 0.8559 0.8578 0.8595 0.8612 0.8625
3400.000000 0.8639 0.8652 0.8665 0.8675 0.8687
3395.000000 0.8695 0.8704 0.8712 0.8721 0.8725
3390.000000 0.8730 0.8731 0.8733 0.8734 0.8736
3385.000000 0.8737 0.8738 0.8739 0.8741 0.8742
3380.000000 0.8742 0.8742 0.8742 0.8742 0.8742
3375.000000 0.8741 0.8741 0.8741 0.8741 0.8740
3370.000000 0.8740 0.8740 0.8740 0.8738 0.8737
3365.000000 0.8735 0.8734 0.8733 0.8732 0.8730
3360.000000 0.8728 0.8727 0.8725 0.8724 0.8723
3355.000000 0.8721 0.8720 0.8718 0.8717 0.8715
3350.000000 0.8714 0.8713 0.8712 0.8710 0.8709
3345.000000 0.8708 0.8707 0.8705 0.8704 0.8702
3340.000000 0.8701 0.8700 0.8699 0.8697 0.8696
3335.000000 0.8694 0.8693 0.8692 0.8691 0.8689
3330.000000 0.8688 0.8687 0.8686 0.8684 0.8683
3325.000000 0.8682 0.8681 0.8680 0.8678 0.8678
3320.000000 0.8677 0.8675 0.8674 0.8673 0.8671
3315.000000 0.8671 0.8670 0.8668 0.8668 0.8667
3310.000000 0.8666 0.8665 0.8664 0.8663 0.8662
3305.000000 0.8661 0.8661 0.8659 0.8657 0.8654
3300.000000 0.8652 0.8647 0.8642 0.8632 0.8623
3295.000000 0.8609 0.8596 0.8594 0.8592 0.8591
3290.000000 0.8590 0.8589 0.8588 0.8587 0.8586
3285.000000 0.8584 0.8583 0.8583 0.8583 0.8582
3280.000000 0.8582 0.8581 0.8581 0.8580 0.8580
3275.000000 0.8578 0.8578 0.8578 0.8578 0.8578
3270.000000 0.8578 0.8577 0.8577 0.8577 0.8577
3265.000000 0.8577 0.8578 0.8578 0.8578 0.8578
3260.000000 0.8578 0.8578 0.8580 0.8580 0.8581
3255.000000 0.8581 0.8582 0.8582 0.8583 0.8583
3250.000000 0.8584 0.8584 0.8585 0.8585 0.8585
3245.000000 0.8585 0.8586 0.8586 0.8586 0.8585
3240.000000 0.8585 0.8584 0.8583 0.8582 0.8582
3235.000000 0.8581 0.8580 0.8578 0.8578 0.8575
3230.000000 0.8574 0.8570 0.8567 0.8562 0.8558
3225.000000 0.8553 0.8549 0.8545 0.8541 0.8538
3220.000000 0.8535 0.8532 0.8528 0.8525 0.8521
3215.000000 0.8518 0.8516 0.8512 0.8509 0.8506
3210.000000 0.8503 0.8499 0.8496 0.8492 0.8489
3205.000000 0.8485 0.8481 0.8477 0.8474 0.8470
3200.000000 0.8467 0.8463 0.8459 0.8455 0.8451
3195.000000 0.8446 0.8442 0.8438 0.8434 0.8428
3190.000000 0.8425 0.8421 0.8420 0.8418 0.8416
3185.000000 0.8414 0.8412 0.8410 0.8408 0.8406
3180.000000 0.8404 0.8402 0.8401 0.8400 0.8399
3175.000000 0.8398 0.8397 0.8396 0.8395 0.8393
3170.000000 0.8392 0.8392 0.8393 0.8393 0.8394
3165.000000 0.8394 0.8394 0.8394 0.8395 0.8395
3160.000000 0.8395 0.8395 0.8396 0.8397 0.8398
3155.000000 0.8399 0.8401 0.8402 0.8403 0.8404
3150.000000 0.8406 0.8407 0.8408 0.8409 0.8410
3145.000000 0.8411 0.8413 0.8413 0.8413 0.8412
3140.000000 0.8412 0.8411 0.8411 0.8410 0.8410
3135.000000 0.8409 0.8409 0.8408 0.8408 0.8407
3130.000000 0.8407 0.8406 0.8405 0.8403 0.8401
3125.000000 0.8399 0.8398 0.8396 0.8395 0.8393
3120.000000 0.8391 0.8389 0.8388 0.8386 0.8385
3115.000000 0.8383 0.8381 0.8378 0.8378 0.8375
3110.000000 0.8373 0.8371 0.8368 0.8366 0.8364
3105.000000 0.8362 0.8360 0.8357 0.8355 0.8353
3100.000000 0.8351 0.8348 0.8346 0.8342 0.8339
3095.000000 0.8335 0.8332 0.8328 0.8325 0.8321
3090.000000 0.8318 0.8314 0.8311 0.8305 0.8299
3085.000000 0.8291 0.8284 0.8275 0.8268 0.8254
3080.000000 0.8240 0.8225 0.8210 0.8195 0.8180
3075.000000 0.8167 0.8154 0.8141 0.8128 0.8117
3070.000000 0.8105 0.8097 0.8089 0.8080 0.8071
3065.000000 0.8067 0.8061 0.8061 0.8061 0.8060
3060.000000 0.8060 0.8058 0.8058 0.8058 0.8060
3055.000000 0.8060 0.8060 0.8060 0.8061 0.8061
3050.000000 0.8061 0.8061 0.8061 0.8061 0.8061
3045.000000 0.8061 0.8061 0.8060 0.8060 0.8058
3040.000000 0.8058 0.8058 0.8058 0.8057 0.8057
3035.000000 0.8056 0.8055 0.8053 0.8051 0.8048
3030.000000 0.8046 0.8043 0.8040 0.8031 0.8022
3025.000000 0.8014 0.8006 0.7997 0.7989 0.7975
3020.000000 0.7961 0.7947 0.7933 0.7918 0.7904
3015.000000 0.7886 0.7868 0.7848 0.7828 0.7808
3010.000000 0.7788 0.7764 0.7740 0.7714 0.7688
3005.000000 0.7661 0.7635 0.7608 0.7582 0.7550
3000.000000 0.7518 0.7481 0.7445 0.7232 0.7019
2995.000000 0.6904 0.6789 0.6661 0.6536 0.5950
2990.000000 0.5365 0.5312 0.5262 0.5204 0.5146
2985.000000 0.4928 0.4710 0.4335 0.3959 0.3584
2980.000000 0.3209 0.2834 0.2460 0.2143 0.1827
2975.000000 0.1670 0.1514 0.1357 0.1201 0.1045
2970.000000 0.0889 0.0763 0.0638 0.0602 0.0566
2965.000000 0.0537 0.0508 0.0466 0.0425 0.0405
2960.000000 0.0385 0.0368 0.0353 0.0343 0.0328
2955.000000 0.0326 0.0318 0.0316 0.0314 0.0314
2950.000000 0.0314 0.0427 0.0543 0.0673 0.0803
2945.000000 0.0933 0.1064 0.1194 0.1324 0.1454
2940.000000 0.1584 0.1624 0.1664 0.1691 0.1718
2935.000000 0.1745 0.1775 0.1813 0.1852 0.1886
2930.000000 0.1922 0.1956 0.1990 0.2026 0.2062
2925.000000 0.2161 0.2260 0.2409 0.2558 0.2707
2920.000000 0.2857 0.3006 0.3155 0.3304 0.3453
2915.000000 0.3580 0.3707 0.3706 0.3714 0.3678
2910.000000 0.3650 0.3608 0.3566 0.3524 0.3482
2905.000000 0.3445 0.3402 0.3409 0.3412 0.3437
2900.000000 0.3462 0.3487 0.3512 0.3522 0.3502
2895.000000 0.3520 0.3508 0.3478 0.3448 0.3418
2890.000000 0.3388 0.3358 0.3336 0.3330 0.3332
2885.000000 0.3358 0.3384 0.3409 0.3434 0.3459
2880.000000 0.3530 0.3447 0.3409 0.2777 0.2145
2875.000000 0.2023 0.1894 0.1915 0.1929 0.2214
2870.000000 0.2498 0.2781 0.3065 0.3348 0.3632
2865.000000 0.3916 0.4200 0.4476 0.4752 0.4862
2860.000000 0.4973 0.5462 0.5954 0.6067 0.6181
2855.000000 0.6269 0.6358 0.6422 0.6489 0.6541
2850.000000 0.6593 0.6649 0.6705 0.6787 0.6869
2845.000000 0.6931 0.6992 0.7040 0.7089 0.7130
2840.000000 0.7171 0.7200 0.7230 0.7258 0.7289
2835.000000 0.7318 0.7348 0.7375 0.7405 0.7425
2830.000000 0.7446 0.7467 0.7488 0.7508 0.7528
2825.000000 0.7547 0.7565 0.7580 0.7596 0.7611
2820.000000 0.7628 0.7644 0.7660 0.7675 0.7691
2815.000000 0.7705 0.7718 0.7733 0.7748 0.7761
2810.000000 0.7775 0.7790 0.7804 0.7818 0.7833
2805.000000 0.7847 0.7861 0.7874 0.7888 0.7901
2800.000000 0.7914 0.7926 0.7940 0.7953 0.7965
2795.000000 0.7978 0.7993 0.8007 0.8021 0.8036
2790.000000 0.8051 0.8065 0.8080 0.8095 0.8111
2785.000000 0.8125 0.8141 0.8154 0.8168 0.8169
2780.000000 0.8172 0.8175 0.8178 0.8180 0.8183
2775.000000 0.8185 0.8187 0.8191 0.8195 0.8200
2770.000000 0.8206 0.8211 0.8217 0.8225 0.8234
2765.000000 0.8242 0.8251 0.8255 0.8259 0.8261
2760.000000 0.8264 0.8266 0.8268 0.8270 0.8271
2755.000000 0.8271 0.8271 0.8271 0.8271 0.8271
2750.000000 0.8271 0.8270 0.8268 0.8268 0.8267
2745.000000 0.8266 0.8266 0.8263 0.8261 0.8257
2740.000000 0.8254 0.8250 0.8247 0.8243 0.8240
2735.000000 0.8236 0.8232 0.8227 0.8221 0.8217
2730.000000 0.8213 0.8205 0.8197 0.8189 0.8181
2725.000000 0.8174 0.8167 0.8160 0.8154 0.8148
2720.000000 0.8142 0.8135 0.8128 0.8125 0.8124
2715.000000 0.8132 0.8141 0.8155 0.8168 0.8184
2710.000000 0.8199 0.8213 0.8228 0.8242 0.8257
2705.000000 0.8268 0.8281 0.8293 0.8305 0.8315
2700.000000 0.8325 0.8333 0.8341 0.8349 0.8357
2695.000000 0.8365 0.8373 0.8381 0.8389 0.8393
2690.000000 0.8398 0.8401 0.8405 0.8409 0.8413
2685.000000 0.8417 0.8421 0.8424 0.8427 0.8430
2680.000000 0.8434 0.8437 0.8441 0.8444 0.8447
2675.000000 0.8448 0.8449 0.8449 0.8449 0.8447
2670.000000 0.8446 0.8444 0.8442 0.8440 0.8439
2665.000000 0.8437 0.8435 0.8433 0.8432 0.8430
2660.000000 0.8428 0.8427 0.8427 0.8425 0.8425
2655.000000 0.8424 0.8423 0.8421 0.8421 0.8420
2650.000000 0.8418 0.8418 0.8418 0.8417 0.8416
2645.000000 0.8415 0.8415 0.8415 0.8416 0.8416
2640.000000 0.8417 0.8418 0.8418 0.8418 0.8420
2635.000000 0.8421 0.8421 0.8421 0.8423 0.8424
2630.000000 0.8425 0.8425 0.8425 0.8427 0.8428
2625.000000 0.8428 0.8431 0.8433 0.8435 0.8437
2620.000000 0.8439 0.8441 0.8444 0.8446 0.8448
2615.000000 0.8450 0.8452 0.8454 0.8456 0.8458
2610.000000 0.8461 0.8463 0.8465 0.8467 0.8468
2605.000000 0.8470 0.8471 0.8473 0.8475 0.8477
2600.000000 0.8478 0.8480 0.8482 0.8483 0.8485
2595.000000 0.8485 0.8485 0.8482 0.8480 0.8477
2590.000000 0.8474 0.8471 0.8468 0.8466 0.8463
2585.000000 0.8461 0.8459 0.8458 0.8457 0.8456
2580.000000 0.8455 0.8454 0.8454 0.8454 0.8455
2575.000000 0.8456 0.8457 0.8458 0.8459 0.8460
2570.000000 0.8462 0.8463 0.8464 0.8465 0.8467
2565.000000 0.8468 0.8471 0.8473 0.8475 0.8478
2560.000000 0.8480 0.8482 0.8485 0.8487 0.8489
2555.000000 0.8491 0.8494 0.8496 0.8498 0.8500
2550.000000 0.8503 0.8506 0.8510 0.8513 0.8517
2545.000000 0.8520 0.8524 0.8527 0.8531 0.8534
2540.000000 0.8538 0.8541 0.8544 0.8547 0.8550
2535.000000 0.8553 0.8556 0.8559 0.8563 0.8563
2530.000000 0.8563 0.8563 0.8562 0.8561 0.8560
2525.000000 0.8558 0.8557 0.8555 0.8554 0.8552
2520.000000 0.8551 0.8550 0.8549 0.8548 0.8548
2515.000000 0.8548 0.8550 0.8551 0.8552 0.8553
2510.000000 0.8554 0.8555 0.8557 0.8558 0.8559
2505.000000 0.8560 0.8561 0.8562 0.8564 0.8565
2500.000000 0.8566 0.8567 0.8568 0.8568 0.8571
2495.000000 0.8571 0.8573 0.8574 0.8575 0.8578
2490.000000 0.8581 0.8583 0.8585 0.8587 0.8589
2485.000000 0.8591 0.8593 0.8595 0.8598 0.8600
2480.000000 0.8602 0.8604 0.8606 0.8608 0.8610
2475.000000 0.8612 0.8615 0.8617 0.8618 0.8621
2470.000000 0.8624 0.8625 0.8628 0.8630 0.8632
2465.000000 0.8634 0.8637 0.8639 0.8641 0.8643
2460.000000 0.8645 0.8647 0.8650 0.8652 0.8654
2455.000000 0.8656 0.8659 0.8661 0.8663 0.8665
2450.000000 0.8667 0.8668 0.8671 0.8673 0.8675
2445.000000 0.8677 0.8678 0.8681 0.8683 0.8685
2440.000000 0.8688 0.8690 0.8692 0.8694 0.8696
2435.000000 0.8698 0.8700 0.8702 0.8704 0.8706
2430.000000 0.8708 0.8710 0.8712 0.8714 0.8717
2425.000000 0.8718 0.8721 0.8723 0.8725 0.8725
2420.000000 0.8728 0.8728 0.8730 0.8730 0.8731
2415.000000 0.8732 0.8733 0.8733 0.8734 0.8735
2410.000000 0.8736 0.8736 0.8736 0.8736 0.8736
2405.000000 0.8734 0.8732 0.8730 0.8728 0.8727
2400.000000 0.8725 0.8724 0.8723 0.8721 0.8720
2395.000000 0.8718 0.8718 0.8718 0.8718 0.8717
2390.000000 0.8716 0.8715 0.8715 0.8714 0.8714
2385.000000 0.8714 0.8714 0.8714 0.8714 0.8714
2380.000000 0.8714 0.8714 0.8714 0.8714 0.8714
2375.000000 0.8715 0.8716 0.8717 0.8718 0.8718
2370.000000 0.8720 0.8721 0.8721 0.8723 0.8724
2365.000000 0.8724 0.8724 0.8724 0.8724 0.8724
2360.000000 0.8724 0.8724 0.8724 0.8723 0.8723
2355.000000 0.8721 0.8720 0.8718 0.8718 0.8716
2350.000000 0.8715 0.8714 0.8713 0.8711 0.8710
2345.000000 0.8708 0.8707 0.8707 0.8707 0.8707
2340.000000 0.8708 0.8708 0.8708 0.8708 0.8709
2335.000000 0.8709 0.8710 0.8710 0.8710 0.8709
2330.000000 0.8709 0.8708 0.8708 0.8707 0.8707
2325.000000 0.8704 0.8702 0.8699 0.8697 0.8694
2320.000000 0.8692 0.8689 0.8686 0.8683 0.8680
2315.000000 0.8675 0.8671 0.8667 0.8663 0.8658
2310.000000 0.8654 0.8650 0.8646 0.8642 0.8639
2305.000000 0.8635 0.8632 0.8628 0.8625 0.8621
2300.000000 0.8618 0.8614 0.8611 0.8608 0.8606
2295.000000 0.8603 0.8601 0.8599 0.8599 0.8598
2290.000000 0.8600 0.8602 0.8605 0.8608 0.8611
2285.000000 0.8613 0.8616 0.8618 0.8621 0.8625
2280.000000 0.8628 0.8631 0.8634 0.8637 0.8640
2275.000000 0.8643 0.8646 0.8649 0.8652 0.8655
2270.000000 0.8658 0.8660 0.8663 0.8664 0.8666
2265.000000 0.8668 0.8670 0.8671 0.8673 0.8674
2260.000000 0.8675 0.8678 0.8680 0.8681 0.8683
2255.000000 0.8684 0.8686 0.8687 0.8689 0.8690
2250.000000 0.8692 0.8693 0.8694 0.8695 0.8697
2245.000000 0.8698 0.8699 0.8700 0.8702 0.8703
2240.000000 0.8704 0.8705 0.8707 0.8708 0.8709
2235.000000 0.8710 0.8712 0.8713 0.8714 0.8714
2230.000000 0.8715 0.8715 0.8715 0.8715 0.8716
2225.000000 0.8716 0.8716 0.8716 0.8717 0.8717
2220.000000 0.8717 0.8717 0.8718 0.8718 0.8718
2215.000000 0.8718 0.8720 0.8720 0.8721 0.8721
2210.000000 0.8721 0.8721 0.8721 0.8721 0.8723
2205.000000 0.8723 0.8724 0.8724 0.8725 0.8725
2200.000000 0.8725 0.8725 0.8725 0.8725 0.8727
2195.000000 0.8727 0.8727 0.8727 0.8727 0.8725
2190.000000 0.8725 0.8725 0.8725 0.8725 0.8725
2185.000000 0.8724 0.8724 0.8723 0.8723 0.8721
2180.000000 0.8721 0.8725 0.8728 0.8738 0.8748
2175.000000 0.8759 0.8771 0.8778 0.8786 0.8789
2170.000000 0.8789 0.8790 0.8788 0.8785 0.8782
2165.000000 0.8777 0.8773 0.8768 0.8764 0.8759
2160.000000 0.8755 0.8750 0.8745 0.8742 0.8739
2155.000000 0.8737 0.8735 0.8732 0.8730 0.8728
2150.000000 0.8725 0.8724 0.8721 0.8718 0.8715
2145.000000 0.8711 0.8708 0.8704 0.8701 0.8696
2140.000000 0.8692 0.8688 0.8684 0.8680 0.8675
2135.000000 0.8675 0.8675 0.8674 0.8674 0.8673
2130.000000 0.8673 0.8671 0.8671 0.8673 0.8674
2125.000000 0.8675 0.8677 0.8678 0.8681 0.8682
2120.000000 0.8684 0.8686 0.8688 0.8690 0.8692
2115.000000 0.8693 0.8695 0.8697 0.8699 0.8701
2110.000000 0.8703 0.8704 0.8706 0.8708 0.8710
2105.000000 0.8712 0.8714 0.8715 0.8717 0.8718
2100.000000 0.8721 0.8721 0.8723 0.8723 0.8724
2095.000000 0.8725 0.8725 0.8727 0.8728 0.8728
2090.000000 0.8730 0.8730 0.8731 0.8732 0.8733
2085.000000 0.8734 0.8735 0.8735 0.8736 0.8737
2080.000000 0.8738 0.8739 0.8740 0.8740 0.8741
2075.000000 0.8742 0.8743 0.8744 0.8745 0.8745
2070.000000 0.8746 0.8747 0.8748 0.8749 0.8750
2065.000000 0.8750 0.8751 0.8752 0.8753 0.8754
2060.000000 0.8755 0.8755 0.8756 0.8757 0.8758
2055.000000 0.8759 0.8760 0.8760 0.8761 0.8762
2050.000000 0.8763 0.8764 0.8765 0.8765 0.8766
2045.000000 0.8767 0.8768 0.8768 0.8770 0.8770
2040.000000 0.8770 0.8770 0.8771 0.8771 0.8771
2035.000000 0.8771 0.8771 0.8771 0.8771 0.8771
2030.000000 0.8771 0.8771 0.8773 0.8773 0.8773
2025.000000 0.8773 0.8774 0.8774 0.8775 0.8775
2020.000000 0.8775 0.8775 0.8775 0.8773 0.8771
2015.000000 0.8770 0.8768 0.8766 0.8765 0.8763
2010.000000 0.8761 0.8760 0.8759 0.8759 0.8759
2005.000000 0.8759 0.8759 0.8758 0.8757 0.8755
2000.000000 0.8753 0.8749 0.8746 0.8742 0.8739
1995.000000 0.8737 0.8735 0.8734 0.8732 0.8730
1990.000000 0.8728 0.8727 0.8725 0.8724 0.8723
1985.000000 0.8721 0.8721 0.8721 0.8720 0.8718
1980.000000 0.8718 0.8718 0.8718 0.8718 0.8720
1975.000000 0.8720 0.8721 0.8721 0.8721 0.8723
1970.000000 0.8723 0.8724 0.8724 0.8724 0.8724
1965.000000 0.8724 0.8723 0.8723 0.8721 0.8721
1960.000000 0.8721 0.8720 0.8718 0.8716 0.8714
1955.000000 0.8712 0.8708 0.8702 0.8696 0.8690
1950.000000 0.8684 0.8680 0.8677 0.8674 0.8670
1945.000000 0.8667 0.8663 0.8660 0.8656 0.8653
1940.000000 0.8650 0.8648 0.8646 0.8643 0.8641
1935.000000 0.8639 0.8636 0.8634 0.8632 0.8628
1930.000000 0.8627 0.8625 0.8625 0.8624 0.8623
1925.000000 0.8621 0.8621 0.8620 0.8618 0.8617
1920.000000 0.8616 0.8615 0.8614 0.8614 0.8613
1915.000000 0.8613 0.8613 0.8612 0.8612 0.8612
1910.000000 0.8611 0.8611 0.8611 0.8611 0.8611
1905.000000 0.8611 0.8612 0.8612 0.8612 0.8613
1900.000000 0.8613 0.8613 0.8613 0.8612 0.8611
1895.000000 0.8610 0.8609 0.8608 0.8607 0.8606
1890.000000 0.8604 0.8603 0.8600 0.8598 0.8595
1885.000000 0.8592 0.8590 0.8587 0.8584 0.8580
1880.000000 0.8575 0.8571 0.8568 0.8564 0.8557
1875.000000 0.8550 0.8543 0.8535 0.8527 0.8516
1870.000000 0.8504 0.8493 0.8481 0.8468 0.8456
1865.000000 0.8444 0.8431 0.8418 0.8411 0.8403
1860.000000 0.8395 0.8387 0.8381 0.8381 0.8381
1855.000000 0.8381 0.8383 0.8386 0.8390 0.8394
1850.000000 0.8398 0.8401 0.8404 0.8407 0.8409
1845.000000 0.8412 0.8415 0.8418 0.8420 0.8423
1840.000000 0.8425 0.8428 0.8430 0.8433 0.8434
1835.000000 0.8435 0.8434 0.8432 0.8430 0.8428
1830.000000 0.8425 0.8418 0.8412 0.8405 0.8399
1825.000000 0.8392 0.8382 0.8371 0.8362 0.8352
1820.000000 0.8342 0.8332 0.8318 0.8302 0.8287
1815.000000 0.8271 0.8256 0.8240 0.8225 0.8208
1810.000000 0.8192 0.8175 0.8160 0.8143 0.8126
1805.000000 0.8110 0.8093 0.8076 0.8060 0.8043
1800.000000 0.8026 0.8010 0.7993 0.7974 0.7955
1795.000000 0.7936 0.7918 0.7899 0.7880 0.7860
1790.000000 0.7837 0.7814 0.7791 0.7768 0.7745
1785.000000 0.7721 0.7699 0.7675 0.7653 0.7630
1780.000000 0.7600 0.7567 0.7534 0.7501 0.7469
1775.000000 0.7439 0.7408 0.7376 0.7345 0.7306
1770.000000 0.7260 0.7215 0.7168 0.7025 0.6750
1765.000000 0.6676 0.6604 0.6533 0.6465 0.6362
1760.000000 0.6181 0.6002 0.5849 0.5694 0.5514
1755.000000 0.5370 0.5257 0.5118 0.4593 0.4289
1750.000000 0.3984 0.3680 0.3377 0.2782 0.2679
1745.000000 0.2414 0.2024 0.1787 0.1552 0.1316
1740.000000 0.1080 0.0771 0.0628 0.0482 0.0379
1735.000000 0.0297 0.0235 0.0199 0.0161 0.0131
1730.000000 0.0105 0.0088 0.0079 0.0072 0.0069
1725.000000 0.0065 0.0062 0.0059 0.0056 0.0052
1720.000000 0.0050 0.0049 0.0048 0.0047 0.0046
1715.000000 0.0046 0.0046 0.0046 0.0052 0.0086
1710.000000 0.0155 0.0267 0.0417 0.0739 0.0907
1705.000000 0.1906 0.2025 0.2167 0.2331 0.2619
1700.000000 0.2887 0.3113 0.3462 0.3709 0.3892
1695.000000 0.4010 0.4140 0.4343 0.4519 0.4614
1690.000000 0.4696 0.4770 0.4838 0.4909 0.5008
1685.000000 0.5097 0.5171 0.5259 0.5346 0.5434
1680.000000 0.5521 0.5609 0.5697 0.5784 0.5872
1675.000000 0.5960 0.6047 0.6122 0.6188 0.6230
1670.000000 0.6268 0.6303 0.6317 0.6328 0.6335
1665.000000 0.6340 0.6338 0.6335 0.6321 0.6301
1660.000000 0.6266 0.6219 0.6189 0.6174 0.6158
1655.000000 0.6142 0.6116 0.6081 0.6000 0.5791
1650.000000 0.5470 0.5150 0.4829 0.4508 0.4187
1645.000000 0.3866 0.3546 0.3356 0.3326 0.3339
1640.000000 0.3436 0.3946 0.4528 0.5110 0.5466
1635.000000 0.5715 0.5851 0.5995 0.6159 0.6322
1630.000000 0.6484 0.6641 0.6783 0.6886 0.6989
1625.000000 0.7075 0.7158 0.7241 0.7322 0.7390
1620.000000 0.7457 0.7525 0.7583 0.7639 0.7694
1615.000000 0.7743 0.7771 0.7801 0.7830 0.7858
1610.000000 0.7887 0.7915 0.7945 0.7974 0.8004
1605.000000 0.8033 0.8061 0.8083 0.8104 0.8125
1600.000000 0.8146 0.8165 0.8187 0.8205 0.8220
1595.000000 0.8234 0.8249 0.8263 0.8271 0.8280
1590.000000 0.8289 0.8298 0.8306 0.8315 0.8324
1585.000000 0.8333 0.8341 0.8346 0.8350 0.8353
1580.000000 0.8357 0.8360 0.8363 0.8367 0.8370
1575.000000 0.8373 0.8377 0.8380 0.8383 0.8386
1570.000000 0.8389 0.8392 0.8395 0.8398 0.8401
1565.000000 0.8404 0.8407 0.8410 0.8413 0.8415
1560.000000 0.8416 0.8417 0.8418 0.8420 0.8421
1555.000000 0.8421 0.8424 0.8424 0.8425 0.8425
1550.000000 0.8425 0.8427 0.8427 0.8428 0.8428
1545.000000 0.8428 0.8428 0.8428 0.8428 0.8428
1540.000000 0.8425 0.8421 0.8418 0.8415 0.8412
1535.000000 0.8409 0.8402 0.8389 0.8374 0.8345
1530.000000 0.8315 0.8292 0.8273 0.8254 0.8245
1525.000000 0.8237 0.8228 0.8221 0.8214 0.8206
1520.000000 0.8198 0.8189 0.8180 0.8171 0.8162
1515.000000 0.8154 0.8145 0.8136 0.8122 0.8111
1510.000000 0.8098 0.8086 0.8074 0.8061 0.8049
1505.000000 0.8032 0.8011 0.7990 0.7969 0.7949
1500.000000 0.7928 0.7907 0.7882 0.7857 0.7832
1495.000000 0.7807 0.7782 0.7757 0.7726 0.7680
1490.000000 0.7632 0.7585 0.7538 0.7478 0.7418
1485.000000 0.7351 0.7271 0.7175 0.7061 0.6751
1480.000000 0.6486 0.6284 0.5912 0.5565 0.4810
1475.000000 0.3993 0.3176 0.2358 0.1541 0.0942
1470.000000 0.0942 0.1065 0.1474 0.1883 0.2189
1465.000000 0.2244 0.2299 0.2359 0.2769 0.3277
1460.000000 0.3784 0.3902 0.3927 0.3953 0.3987
1455.000000 0.4039 0.4143 0.4381 0.4716 0.4938
1450.000000 0.5160 0.5383 0.5597 0.5692 0.5783
1445.000000 0.5866 0.5983 0.6169 0.6377 0.6517
1440.000000 0.6618 0.6698 0.6751 0.6800 0.6842
1435.000000 0.6862 0.6885 0.6904 0.6919 0.6931
1430.000000 0.6936 0.6936 0.6935 0.6928 0.6922
1425.000000 0.6888 0.6828 0.6756 0.6654 0.6542
1420.000000 0.6404 0.6274 0.6169 0.6062 0.5940
1415.000000 0.5816 0.5672 0.5521 0.5283 0.4912
1410.000000 0.4310 0.3782 0.3350 0.3347 0.3388
1405.000000 0.3540 0.3693 0.3845 0.3998 0.4089
1400.000000 0.4092 0.3792 0.3076 0.2629 0.2623
1395.000000 0.2878 0.3274 0.3670 0.3809 0.3712
1390.000000 0.3140 0.2631 0.2647 0.2787 0.2927
1385.000000 0.3047 0.3023 0.2767 0.2353 0.1363
1380.000000 0.1524 0.1346 0.1511 0.1804 0.2100
1375.000000 0.2371 0.2371 0.2183 0.1860 0.1586
1370.000000 0.1555 0.2858 0.4338 0.4595 0.4767
1365.000000 0.4954 0.5127 0.5281 0.5370 0.5473
1360.000000 0.5600 0.5715 0.5780 0.5852 0.5893
1355.000000 0.5926 0.5962 0.5950 0.5927 0.5718
1350.000000 0.5486 0.5253 0.5020 0.4787 0.4555
1345.000000 0.4322 0.4208 0.4197 0.4269 0.4501
1340.000000 0.4733 0.4965 0.5197 0.5429 0.5516
1335.000000 0.5546 0.5560 0.5572 0.5581 0.5591
1330.000000 0.5584 0.5575 0.5556 0.5522 0.5448
1325.000000 0.5324 0.5201 0.5078 0.4927 0.4760
1320.000000 0.4576 0.4412 0.4182 0.3950 0.3664
1315.000000 0.3323 0.2980 0.2638 0.2296 0.1953
1310.000000 0.1611 0.1268 0.0926 0.0584 0.0400
1305.000000 0.0294 0.0226 0.0183 0.0161 0.0149
1300.000000 0.0139 0.0143 0.0149 0.0157 0.0167
1295.000000 0.0174 0.0173 0.0173 0.0156 0.0128
1290.000000 0.0100 0.0074 0.0044 0.0049 0.0052
1285.000000 0.0066 0.0104 0.0161 0.0259 0.0374
1280.000000 0.0484 0.0591 0.0702 0.0757 0.0782
1275.000000 0.0806 0.0846 0.0821 0.0814 0.0800
1270.000000 0.0781 0.0749 0.0716 0.0677 0.0639
1265.000000 0.0603 0.0569 0.0535 0.0501 0.0461
1260.000000 0.0421 0.0379 0.0335 0.0292 0.0252
1255.000000 0.0217 0.0198 0.0181 0.0169 0.0169
1250.000000 0.0169 0.0199 0.0229 0.0259 0.0334
1245.000000 0.0409 0.0523 0.0660 0.0809 0.0974
1240.000000 0.1136 0.1299 0.1462 0.1625 0.1787
1235.000000 0.1951 0.2114 0.2277 0.2440 0.2583
1230.000000 0.2611 0.2601 0.2606 0.2578 0.2456
1225.000000 0.2112 0.1770 0.1429 0.1087 0.0979
1220.000000 0.0968 0.1051 0.1196 0.1342 0.1488
1215.000000 0.1633 0.1779 0.1874 0.1896 0.1910
1210.000000 0.1916 0.1916 0.1916 0.1910 0.1903
1205.000000 0.1898 0.1898 0.1898 0.1914 0.1934
1200.000000 0.1996 0.2042 0.2094 0.2154 0.2254
1195.000000 0.2410 0.2567 0.2723 0.2880 0.3035
1190.000000 0.3169 0.3198 0.3188 0.3188 0.3074
1185.000000 0.2899 0.2724 0.2549 0.2374 0.2200
1180.000000 0.2025 0.1850 0.1675 0.1500 0.1325
1175.000000 0.1150 0.0975 0.0807 0.0735 0.0656
1170.000000 0.0579 0.0523 0.0509 0.0495 0.0481
1165.000000 0.0473 0.0466 0.0459 0.0453 0.0447
1160.000000 0.0442 0.0421 0.0399 0.0376 0.0334
1155.000000 0.0286 0.0233 0.0176 0.0128 0.0108
1150.000000 0.0100 0.0091 0.0090 0.0090 0.0090
1145.000000 0.0113 0.0220 0.0634 0.0920 0.1516
1140.000000 0.2112 0.2708 0.3163 0.3268 0.3375
1135.000000 0.3662 0.4000 0.4266 0.4595 0.4762
1130.000000 0.4929 0.5089 0.5232 0.5375 0.5532
1125.000000 0.5701 0.5852 0.5988 0.6124 0.6258
1120.000000 0.6388 0.6465 0.6545 0.6618 0.6678
1115.000000 0.6740 0.6801 0.6860 0.6899 0.6921
1110.000000 0.6934 0.6944 0.6944 0.6944 0.6936
1105.000000 0.6926 0.6918 0.6912 0.6911 0.6908
1100.000000 0.6956 0.7004 0.7057 0.7117 0.7176
1095.000000 0.7235 0.7288 0.7341 0.7387 0.7428
1090.000000 0.7468 0.7501 0.7535 0.7561 0.7581
1085.000000 0.7601 0.7621 0.7648 0.7683 0.7717
1080.000000 0.7731 0.7745 0.7758 0.7772 0.7784
1075.000000 0.7791 0.7799 0.7807 0.7814 0.7819
1070.000000 0.7822 0.7826 0.7830 0.7834 0.7834
1065.000000 0.7834 0.7825 0.7831 0.7830 0.7828
1060.000000 0.7817 0.7805 0.7793 0.7778 0.7757
1055.000000 0.7736 0.7714 0.7692 0.7664 0.7625
1050.000000 0.7589 0.7548 0.7485 0.7421 0.7358
1045.000000 0.7276 0.7169 0.7061 0.6954 0.6847
1040.000000 0.6740 0.6618 0.6471 0.6325 0.6002
1035.000000 0.5647 0.4285 0.4105 0.3964 0.3812
1030.000000 0.3468 0.2404 0.2246 0.2060 0.1875
1025.000000 0.1690 0.1507 0.1417 0.1352 0.1296
1020.000000 0.1241 0.1180 0.1119 0.1030 0.0935
1015.000000 0.0859 0.0768 0.0607 0.0541 0.0529
1010.000000 0.0522 0.0521 0.0573 0.0638 0.0705
1005.000000 0.0784 0.0870 0.0968 0.1087 0.1237
1000.000000 0.1504 0.1761 0.2017 0.2274 0.2531
995.000000 0.2787 0.2981 0.3100 0.3312 0.3500
990.000000 0.3741 0.3982 0.4222 0.4357 0.4365
985.000000 0.4373 0.4359 0.4291 0.4024 0.3134
980.000000 0.2191 0.1248 0.0876 0.0889 0.1107
975.000000 0.1771 0.2434 0.3099 0.3762 0.4427
970.000000 0.4800 0.4910 0.5038 0.5131 0.5218
965.000000 0.5299 0.5398 0.5521 0.5627 0.5709
960.000000 0.5791 0.5871 0.5950 0.6027 0.6093
955.000000 0.6159 0.6220 0.6256 0.6272 0.6284
950.000000 0.6285 0.6285 0.6269 0.6066 0.5844
945.000000 0.5622 0.5478 0.5465 0.5481 0.5537
940.000000 0.5600 0.5657 0.5698 0.5733 0.5747
935.000000 0.5760 0.5797 0.5781 0.5790 0.5790
930.000000 0.5790 0.5775 0.5757 0.5736 0.5715
925.000000 0.5696 0.5669 0.5670 0.5671 0.5690
920.000000 0.5737 0.5785 0.5846 0.5907 0.5957
915.000000 0.6000 0.6044 0.6092 0.6141 0.6189
910.000000 0.6238 0.6287 0.6336 0.6386 0.6436
905.000000 0.6487 0.6537 0.6595 0.6668 0.6744
900.000000 0.6811 0.6871 0.6933 0.6994 0.7051
895.000000 0.7101 0.7151 0.7201 0.7253 0.7305
890.000000 0.7343 0.7378 0.7397 0.7400 0.7403
885.000000 0.7406 0.7421 0.7438 0.7455 0.7478
880.000000 0.7501 0.7524 0.7547 0.7569 0.7598
875.000000 0.7626 0.7655 0.7674 0.7690 0.7705
870.000000 0.7721 0.7733 0.7737 0.7741 0.7745
865.000000 0.7749 0.7753 0.7754 0.7756 0.7757
860.000000 0.7758 0.7758 0.7761 0.7767 0.7762
855.000000 0.7765 0.7765 0.7767 0.7767 0.7767
850.000000 0.7767 0.7767 0.7767 0.7767 0.7765
845.000000 0.7760 0.7755 0.7750 0.7745 0.7736
840.000000 0.7721 0.7707 0.7692 0.7678 0.7641
835.000000 0.7603 0.7565 0.7514 0.7458 0.7401
830.000000 0.7339 0.7265 0.7194 0.7121 0.7053
825.000000 0.6983 0.6911 0.6837 0.6793 0.6762
820.000000 0.6783 0.6784 0.6786 0.6788 0.6791
815.000000 0.6794 0.6796 0.6800 0.6806 0.6811
810.000000 0.6818 0.6832 0.6858 0.6889 0.6943
805.000000 0.6998 0.7054 0.7114 0.7175 0.7242
800.000000 0.7324 0.7404 0.7464 0.7524 0.7578
795.000000 0.7615 0.7639 0.7651 0.7658 0.7684
790.000000 0.7664 0.7665 0.7658 0.7642 0.7625
785.000000 0.7608 0.7564 0.7517 0.7425 0.7265
780.000000 0.6757 0.6171 0.5584 0.4998 0.4655
775.000000 0.4635 0.4638 0.4668 0.4733 0.5185
770.000000 0.5651 0.6117 0.6583 0.6814 0.6962
765.000000 0.7124 0.7298 0.7510 0.7593 0.7675
760.000000 0.7758 0.7830 0.7887 0.7944 0.8001
755.000000 0.8058 0.8101 0.8140 0.8178 0.8213
750.000000 0.8230 0.8248 0.8265 0.8283 0.8300
745.000000 0.8318 0.8335 0.8348 0.8359 0.8371
740.000000 0.8382 0.8393 0.8404 0.8415 0.8425
735.000000 0.8437 0.8448 0.8459 0.8470 0.8478
730.000000 0.8488 0.8497 0.8506 0.8515 0.8524
725.000000 0.8533 0.8542 0.8551 0.8560 0.8568
720.000000 0.8578 0.8586 0.8590 0.8595 0.8599
715.000000 0.8604 0.8609 0.8613 0.8618 0.8623
710.000000 0.8628 0.8634 0.8640 0.8647 0.8653
705.000000 0.8659 0.8667 0.8675 0.8684 0.8692
700.000000 0.8701 0.8703 0.8704 0.8705 0.8716
695.000000 0.8708 0.8708 0.8705 0.8702 0.8699
690.000000 0.8695 0.8691 0.8686 0.8668 0.8651
685.000000 0.8623 0.8575 0.8528 0.8495 0.8471
680.000000 0.8454 0.8440 0.8424 0.8368 0.8274
675.000000 0.8192 0.8056 0.7919 0.7783 0.7647
670.000000 0.7511 0.7375 0.7269 0.7215 0.7174
665.000000 0.7188 0.7188 0.7193 0.7203 0.7239
660.000000 0.7284 0.7361 0.7428 0.7444 0.7456
655.000000 0.7465 0.7474 0.7501 0.7536 0.7571
650.000000 0.7605 0.7651 0.7703 0.7755 0.7803
645.000000 0.7848 0.7893 0.7938 0.7980 0.8015
640.000000 0.8050 0.8084 0.8115 0.8144 0.8172
635.000000 0.8204 0.8236 0.8258 0.8268 0.8278
630.000000 0.8277 0.8277 0.8275 0.8275 0.8275
625.000000 0.8275 0.8277 0.8277 0.8278 0.8278
620.000000 0.8283 0.8291 0.8298 0.8305 0.8315
615.000000 0.8328 0.8343 0.8357 0.8367 0.8370
610.000000 0.8373 0.8377 0.8380 0.8383 0.8386
605.000000 0.8389 0.8392 0.8395 0.8397 0.8400
600.000000 0.8403 0.8406 0.8409 0.8412 0.8415
595.000000 0.8418 0.8420 0.8428 0.8436 0.8444
590.000000 0.8452 0.8458 0.8463 0.8467 0.8471
585.000000 0.8475 0.8481 0.8484 0.8486 0.8488
580.000000 0.8490 0.8490 0.8490 0.8490 0.8490
575.000000 0.8490 0.8490 0.8489 0.8468 0.8449
570.000000 0.8421 0.8393 0.8364 0.8328 0.8292
565.000000 0.8265 0.8247 0.8230 0.8231 0.8231
560.000000 0.8232 0.8233 0.8234 0.8242 0.8251
555.000000 0.8260 0.8268 0.8277 0.8286 0.8294
550.000000 0.8298 0.8303 0.8307 0.8311 0.8316
545.000000 0.8320 0.8324 0.8327 0.8330 0.8334
540.000000 0.8337 0.8332 0.8324 0.8316 0.8308
535.000000 0.8300 0.8285 0.8270 0.8258 0.8256
530.000000 0.8254 0.8260 0.8267 0.8273 0.8278
525.000000 0.8285 0.8291 0.8297 0.8303 0.8310
520.000000 0.8316 0.8321 0.8327 0.8331 0.8336
515.000000 0.8340 0.8344 0.8349 0.8353 0.8357
510.000000 0.8359 0.8360 0.8361 0.8362 0.8363
505.000000 0.8364 0.8364 0.8363 0.8363 0.8358
500.000000 0.8354 0.8350 0.8345 0.8340 0.8332
495.000000 0.8323 0.8314 0.8306 0.8300 0.8295
490.000000 0.8289 0.8283 0.8278 0.8277 0.8277
485.000000 0.8277 0.8278 0.8278 0.8280 0.8281
480.000000 0.8282 0.8283 0.8285 0.8286 0.8287
475.000000 0.8289 0.8290 0.8291 0.8292 0.8292
470.000000 0.8291 0.8290 0.8289 0.8287 0.8286
465.000000 0.8285 0.8284 0.8283 0.8282 0.8281
460.000000 0.8281 0.8280 0.8280 0.8278 0.8277
455.000000 0.8271 0.8267 0.8263 0.8258 0.8252
450.000000 0.8246 0.8240 0.8208 0.8175 0.8144
445.000000 0.8089 0.8026 0.7964 0.7914 0.7867
440.000000 0.7821 0.7808 0.7797 0.7784 0.7771
435.000000 0.7760 0.7750 0.7744 0.7739 0.7733
430.000000 0.7728 0.7726 0.7724 0.7721 0.7718
425.000000 0.7715 0.7714 0.7711 0.7708 0.7706
420.000000 0.7706 0.7706 0.7706 0.7706 0.7706
415.000000 0.7706 0.7706 0.7706 0.7706 0.7706
410.000000 0.7706 0.7707 0.7708 0.7710 0.7711
405.000000 0.7714 0.7715 0.7718 0.7718 0.7721
400.000000 0.7722 0.7725 0.7726 0.7731 0.7735
395.000000 0.7739 0.7744
##END=
