##TITLE=Adenine
##JCAMP-DX=4.24
##DATA TYPE=INFRARED SPECTRUM
##CLASS=COBLENTZ II
##ORIGIN=K. K. DEB-NCI FREDERICK CANCER RESEARCH CENTER
##OWNER=Copyright (C) 1987 by the Coblentz Society
Collection (C) 2018 copyright by the U.S. Secretary of Commerce
on behalf of the United States of America. All rights reserved.
##DATE=1974/08/19
##NAMES=9H-purin-6-ylamine
9H-purin-6-amine
6-AMINOPURINE
##CAS REGISTRY NO=73-24-5
##MOLFORM=C5 H5 N5
##SOURCE REFERENCE=COBLENTZ NO. 9736
##$NIST SOURCE=COBLENTZ
##$NIST IMAGE=cob9736
##SPECTROMETER/DATA SYSTEM=PERKIN-ELMER 180 (GRATING)
##INSTRUMENT PARAMETERS=GRATINGS: 2000, 1000, 500, 250 CM^-^1; FILTER CHANGE: 2970, 2000, 1485, 1000, 743, 500, 372, 250, 186 CM^-^1.
##STATE=SOLID (1.4 mg / 360 mg KBr DISC)
$$ PURITY - ANALYTICAL
##SAMPLING PROCEDURE=TRANSMISSION
##RESOLUTION=2
##DATA PROCESSING=DIGITIZED BY COBLENTZ SOCIETY (BATCH II) FROM HARD COPY
##XUNITS=1/CM
##YUNITS=TRANSMITTANCE
##XFACTOR=1.0
##YFACTOR=1
##FIRSTX=408
##LASTX=3788
##FIRSTY=0.9133
##MAXX=3788
##MINX=408
##MAXY=0.9111
##MINY=0.0876
##NPOINTS=3381
##XYDATA=(X++(Y..Y))
408.000000 0.9133 0.9132 0.9129 0.9127 0.9123
413.000000 0.9119 0.9115 0.9111 0.9107 0.9106
418.000000 0.9104 0.9103 0.9102 0.9100 0.9099
423.000000 0.9098 0.9097 0.9097 0.9098 0.9098
428.000000 0.9098 0.9098 0.9094 0.9090 0.9086
433.000000 0.9082 0.9078 0.9074 0.9075 0.9075
438.000000 0.9075 0.9075 0.9075 0.9072 0.9076
443.000000 0.9076 0.9076 0.9076 0.9076 0.9076
448.000000 0.9077 0.9079 0.9081 0.9084 0.9086
453.000000 0.9089 0.9091 0.9094 0.9096 0.9099
458.000000 0.9101 0.9103 0.9105 0.9107 0.9109
463.000000 0.9109 0.9106 0.9104 0.9101 0.9097
468.000000 0.9092 0.9088 0.9083 0.9079 0.9074
473.000000 0.9070 0.9065 0.9061 0.9057 0.9053
478.000000 0.9050 0.9046 0.9042 0.9038 0.9034
483.000000 0.9031 0.9027 0.9024 0.9021 0.9018
488.000000 0.9015 0.9010 0.9003 0.8996 0.8989
493.000000 0.8982 0.8975 0.8963 0.8952 0.8940
498.000000 0.8929 0.8917 0.8897 0.8877 0.8857
503.000000 0.8838 0.8808 0.8779 0.8746 0.8738
508.000000 0.8730 0.8723 0.8717 0.8712 0.8706
513.000000 0.8699 0.8689 0.8678 0.8668 0.8653
518.000000 0.8627 0.8602 0.8578 0.8553 0.8529
523.000000 0.8504 0.8465 0.8389 0.8327 0.8270
528.000000 0.8214 0.8157 0.8092 0.7657 0.7609
533.000000 0.7592 0.7576 0.7561 0.7523 0.6995
538.000000 0.6406 0.5820 0.5234 0.4647 0.4489
543.000000 0.4496 0.4885 0.5284 0.5683 0.6083
548.000000 0.6482 0.6881 0.7280 0.7680 0.7862
553.000000 0.7925 0.8060 0.8123 0.8181 0.8211
558.000000 0.8242 0.8272 0.8291 0.8305 0.8320
563.000000 0.8319 0.8316 0.8325 0.8299 0.8289
568.000000 0.8274 0.8259 0.8239 0.8217 0.8195
573.000000 0.8173 0.8150 0.8128 0.8104 0.8070
578.000000 0.8036 0.8001 0.7968 0.7934 0.7901
583.000000 0.7867 0.7832 0.7794 0.7756 0.7718
588.000000 0.7673 0.7623 0.7573 0.7524 0.7473
593.000000 0.7423 0.7372 0.7321 0.7271 0.7204
598.000000 0.7113 0.7022 0.6956 0.6891 0.6826
603.000000 0.6752 0.6665 0.6578 0.6496 0.6419
608.000000 0.6341 0.6252 0.6159 0.6067 0.5978
613.000000 0.5888 0.5783 0.5654 0.5525 0.5250
618.000000 0.4963 0.4680 0.4396 0.4330 0.4337
623.000000 0.4382 0.4499 0.4615 0.4732 0.4848
628.000000 0.4965 0.4968 0.4964 0.4986 0.4950
633.000000 0.4933 0.4905 0.4780 0.4624 0.4468
638.000000 0.4312 0.4156 0.4001 0.3845 0.3689
643.000000 0.3661 0.3658 0.3658 0.3660 0.3662
648.000000 0.3675 0.3690 0.3706 0.3724 0.3743
653.000000 0.3760 0.3778 0.3796 0.3815 0.3834
658.000000 0.3853 0.3872 0.3890 0.3912 0.3935
663.000000 0.3958 0.3982 0.4005 0.4030 0.4066
668.000000 0.4102 0.4138 0.4178 0.4241 0.4304
673.000000 0.4361 0.4400 0.4438 0.4477 0.4516
678.000000 0.4579 0.4646 0.4697 0.4722 0.4747
683.000000 0.4765 0.4782 0.4830 0.4970 0.5043
688.000000 0.5115 0.5186 0.5258 0.5329 0.5404
693.000000 0.5481 0.5558 0.5634 0.5703 0.5767
698.000000 0.5830 0.5893 0.5949 0.5992 0.6036
703.000000 0.6067 0.6083 0.6099 0.6111 0.6113
708.000000 0.6115 0.6116 0.6153 0.6109 0.6096
713.000000 0.5812 0.5448 0.5083 0.4719 0.4354
718.000000 0.3990 0.3625 0.3261 0.2956 0.2951
723.000000 0.2956 0.3274 0.3772 0.4269 0.4767
728.000000 0.5264 0.5761 0.6206 0.6473 0.6717
733.000000 0.6815 0.6919 0.7024 0.7077 0.7130
738.000000 0.7183 0.7215 0.7242 0.7270 0.7298
743.000000 0.7329 0.7360 0.7392 0.7431 0.7471
748.000000 0.7512 0.7542 0.7568 0.7594 0.7616
753.000000 0.7637 0.7659 0.7687 0.7718 0.7749
758.000000 0.7780 0.7815 0.7853 0.7891 0.7929
763.000000 0.7963 0.7995 0.8026 0.8058 0.8089
768.000000 0.8120 0.8149 0.8177 0.8205 0.8234
773.000000 0.8260 0.8275 0.8290 0.8305 0.8320
778.000000 0.8335 0.8345 0.8353 0.8357 0.8355
783.000000 0.8350 0.8358 0.8333 0.8321 0.8307
788.000000 0.8244 0.8176 0.8107 0.8030 0.7946
793.000000 0.7843 0.7671 0.7271 0.6871 0.6472
798.000000 0.6072 0.5855 0.5855 0.5824 0.6400
803.000000 0.6805 0.7211 0.7616 0.8021 0.8227
808.000000 0.8238 0.8245 0.8254 0.8249 0.8246
813.000000 0.8240 0.8232 0.8222 0.8206 0.8190
818.000000 0.8174 0.8157 0.8140 0.8123 0.8100
823.000000 0.8072 0.8044 0.8008 0.7965 0.7922
828.000000 0.7880 0.7840 0.7799 0.7739 0.7677
833.000000 0.7615 0.7531 0.7441 0.7354 0.7268
838.000000 0.7131 0.6947 0.6757 0.6554 0.6351
843.000000 0.6148 0.5944 0.5741 0.5536 0.5532
848.000000 0.5527 0.5529 0.5523 0.5671 0.5843
853.000000 0.6016 0.6189 0.6361 0.6502 0.6511
858.000000 0.6529 0.6488 0.6426 0.6363 0.6301
863.000000 0.6239 0.6177 0.6115 0.6053 0.5990
868.000000 0.5944 0.5919 0.5902 0.5892 0.5887
873.000000 0.5907 0.5927 0.5961 0.5998 0.6040
878.000000 0.6084 0.6136 0.6189 0.6245 0.6330
883.000000 0.6415 0.6484 0.6541 0.6598 0.6640
888.000000 0.6683 0.6725 0.6763 0.6800 0.6825
893.000000 0.6839 0.6870 0.6830 0.6814 0.6789
898.000000 0.6749 0.6700 0.6616 0.6316 0.5999
903.000000 0.5682 0.5365 0.5048 0.4731 0.4414
908.000000 0.4097 0.3780 0.3463 0.3272 0.3286
913.000000 0.3285 0.3660 0.4048 0.4437 0.4825
918.000000 0.5213 0.5602 0.5990 0.6378 0.6579
923.000000 0.6608 0.6616 0.6611 0.6549 0.6179
928.000000 0.5809 0.5440 0.5070 0.4701 0.4331
933.000000 0.3961 0.3592 0.3222 0.2852 0.2483
938.000000 0.2254 0.2261 0.2488 0.2818 0.3149
943.000000 0.3479 0.3809 0.4139 0.4470 0.4800
948.000000 0.5130 0.5461 0.5791 0.6121 0.6451
953.000000 0.6782 0.7112 0.7433 0.7505 0.7576
958.000000 0.7648 0.7925 0.8306 0.8476 0.8787
963.000000 0.8891 0.8976 0.8999 0.9023 0.9046
968.000000 0.9067 0.9086 0.9096 0.9105 0.9101
973.000000 0.9111 0.9105 0.9097 0.9084 0.9070
978.000000 0.9057 0.9039 0.9018 0.8997 0.8976
983.000000 0.8952 0.8928 0.8904 0.8882 0.8860
988.000000 0.8838 0.8816 0.8793 0.8768 0.8742
993.000000 0.8717 0.8691 0.8665 0.8639 0.8613
998.000000 0.8586 0.8558 0.8531 0.8502 0.8467
1003.000000 0.8432 0.8397 0.8309 0.8234 0.8160
1008.000000 0.8079 0.7952 0.7826 0.7709 0.7568
1013.000000 0.7333 0.7097 0.6862 0.6627 0.6391
1018.000000 0.6156 0.5920 0.5685 0.5450 0.5247
1023.000000 0.5238 0.5239 0.5259 0.5473 0.5691
1028.000000 0.5909 0.6127 0.6345 0.6563 0.6781
1033.000000 0.6999 0.7218 0.7384 0.7474 0.7564
1038.000000 0.7684 0.7816 0.7958 0.8050 0.8102
1043.000000 0.8154 0.8206 0.8259 0.8301 0.8337
1048.000000 0.8374 0.8411 0.8448 0.8463 0.8478
1053.000000 0.8492 0.8507 0.8522 0.8533 0.8539
1058.000000 0.8546 0.8552 0.8559 0.8563 0.8564
1063.000000 0.8566 0.8567 0.8570 0.8569 0.8566
1068.000000 0.8564 0.8561 0.8558 0.8552 0.8546
1073.000000 0.8540 0.8529 0.8515 0.8502 0.8489
1078.000000 0.8476 0.8462 0.8447 0.8432 0.8417
1083.000000 0.8402 0.8387 0.8372 0.8355 0.8338
1088.000000 0.8321 0.8304 0.8287 0.8270 0.8253
1093.000000 0.8235 0.8215 0.8195 0.8174 0.8154
1098.000000 0.8134 0.8109 0.8081 0.8052 0.8023
1103.000000 0.7994 0.7961 0.7916 0.7871 0.7826
1108.000000 0.7772 0.7709 0.7646 0.7572 0.7493
1113.000000 0.7414 0.7285 0.7153 0.7011 0.6837
1118.000000 0.6589 0.6354 0.6064 0.5775 0.5485
1123.000000 0.5195 0.4906 0.4710 0.4705 0.4867
1128.000000 0.5135 0.5404 0.5672 0.5941 0.6209
1133.000000 0.6477 0.6746 0.7014 0.7283 0.7551
1138.000000 0.7737 0.7713 0.7702 0.7682 0.7647
1143.000000 0.7605 0.7548 0.7482 0.7422 0.7368
1148.000000 0.7299 0.7184 0.7069 0.6953 0.6838
1153.000000 0.6723 0.6608 0.6492 0.6471 0.6472
1158.000000 0.6466 0.6549 0.6631 0.6714 0.6796
1163.000000 0.6879 0.6961 0.7044 0.7126 0.7164
1168.000000 0.7198 0.7231 0.7254 0.7255 0.7254
1173.000000 0.7246 0.7249 0.7243 0.7237 0.7225
1178.000000 0.7213 0.7200 0.7187 0.7172 0.7157
1183.000000 0.7142 0.7127 0.7105 0.7083 0.7061
1188.000000 0.7039 0.7017 0.6996 0.6978 0.6960
1193.000000 0.6942 0.6924 0.6906 0.6886 0.6860
1198.000000 0.6834 0.6808 0.6782 0.6756 0.6723
1203.000000 0.6679 0.6635 0.6591 0.6548 0.6505
1208.000000 0.6463 0.6421 0.6378 0.6335 0.6292
1213.000000 0.6249 0.6206 0.6161 0.6097 0.6044
1218.000000 0.6000 0.5956 0.5912 0.5868 0.5795
1223.000000 0.5721 0.5647 0.5574 0.5500 0.5426
1228.000000 0.5353 0.5173 0.5049 0.4955 0.4893
1233.000000 0.4832 0.4767 0.4701 0.4635 0.4567
1238.000000 0.4499 0.4385 0.4223 0.4054 0.3885
1243.000000 0.3716 0.3547 0.3378 0.3209 0.3040
1248.000000 0.2871 0.2702 0.2565 0.2550 0.2759
1253.000000 0.3039 0.3319 0.3599 0.3879 0.4159
1258.000000 0.4439 0.4925 0.5062 0.5139 0.5216
1263.000000 0.5289 0.5337 0.5385 0.5433 0.5470
1268.000000 0.5505 0.5540 0.5558 0.5573 0.5588
1273.000000 0.5593 0.5613 0.5594 0.5590 0.5584
1278.000000 0.5573 0.5561 0.5545 0.5512 0.5467
1283.000000 0.5423 0.5341 0.5254 0.5164 0.5073
1288.000000 0.4966 0.4834 0.4712 0.4598 0.4469
1293.000000 0.4321 0.4210 0.4099 0.3926 0.3734
1298.000000 0.3539 0.3321 0.3045 0.2769 0.2493
1303.000000 0.2217 0.1941 0.1665 0.1534 0.1545
1308.000000 0.1774 0.2057 0.2340 0.2623 0.2906
1313.000000 0.3189 0.3472 0.3755 0.4039 0.4322
1318.000000 0.4605 0.4794 0.4812 0.4782 0.4598
1323.000000 0.4380 0.4161 0.3943 0.3725 0.3507
1328.000000 0.3289 0.3070 0.2852 0.2634 0.2437
1333.000000 0.2434 0.2608 0.3100 0.3593 0.4086
1338.000000 0.4578 0.5071 0.5563 0.5976 0.6093
1343.000000 0.6189 0.6273 0.6339 0.6385 0.6432
1348.000000 0.6457 0.6500 0.6455 0.6427 0.6366
1353.000000 0.6188 0.6010 0.5832 0.5654 0.5476
1358.000000 0.5298 0.5120 0.4942 0.4764 0.4587
1363.000000 0.4409 0.4231 0.4053 0.4041 0.4021
1368.000000 0.4225 0.4452 0.4679 0.4905 0.5132
1373.000000 0.5359 0.5585 0.5812 0.6039 0.6265
1378.000000 0.6449 0.6543 0.6575 0.6608 0.6629
1383.000000 0.6648 0.6651 0.6649 0.6663 0.6635
1388.000000 0.6623 0.6600 0.6576 0.6552 0.6523
1393.000000 0.6488 0.6453 0.6414 0.6371 0.6328
1398.000000 0.6285 0.6204 0.6110 0.6029 0.5947
1403.000000 0.5866 0.5788 0.5711 0.5634 0.5521
1408.000000 0.5285 0.5037 0.4600 0.4187 0.3774
1413.000000 0.3361 0.2948 0.2535 0.2122 0.2039
1418.000000 0.2031 0.2201 0.2670 0.3140 0.3610
1423.000000 0.4079 0.4549 0.5019 0.5488 0.5958
1428.000000 0.6427 0.6529 0.6530 0.6544 0.6369
1433.000000 0.6249 0.6130 0.6010 0.5890 0.5770
1438.000000 0.5651 0.5531 0.5411 0.5291 0.5172
1443.000000 0.5052 0.4932 0.4812 0.4693 0.4573
1448.000000 0.4453 0.4422 0.4450 0.4523 0.4610
1453.000000 0.4696 0.4783 0.4870 0.4956 0.5043
1458.000000 0.5129 0.5216 0.5303 0.5389 0.5391
1463.000000 0.5384 0.5371 0.5357 0.5342 0.5327
1468.000000 0.5299 0.5291 0.5337 0.5383 0.5429
1473.000000 0.5475 0.5520 0.5566 0.5601 0.5619
1478.000000 0.5613 0.5607 0.5602 0.5598 0.5594
1483.000000 0.5595 0.5598 0.5606 0.5626 0.5653
1488.000000 0.5680 0.5708 0.5713 0.5720 0.5711
1493.000000 0.5706 0.5702 0.5687 0.5660 0.5634
1498.000000 0.5575 0.5495 0.5416 0.5336 0.5257
1503.000000 0.5177 0.5170 0.5172 0.5169 0.5187
1508.000000 0.5233 0.5320 0.5406 0.5492 0.5578
1513.000000 0.5664 0.5751 0.5837 0.5923 0.6009
1518.000000 0.6051 0.6060 0.6060 0.6054 0.6057
1523.000000 0.6051 0.6041 0.6026 0.6002 0.5978
1528.000000 0.5954 0.5932 0.5910 0.5888 0.5866
1533.000000 0.5844 0.5813 0.5782 0.5750 0.5718
1538.000000 0.5682 0.5647 0.5612 0.5572 0.5529
1543.000000 0.5486 0.5438 0.5389 0.5339 0.5269
1548.000000 0.5193 0.5096 0.4970 0.4883 0.4817
1553.000000 0.4752 0.4686 0.4610 0.4509 0.4409
1558.000000 0.4312 0.4216 0.4119 0.4023 0.3927
1563.000000 0.3830 0.3734 0.3638 0.3542 0.3445
1568.000000 0.3349 0.3253 0.3156 0.3060 0.2964
1573.000000 0.2867 0.2771 0.2675 0.2579 0.2482
1578.000000 0.2386 0.2290 0.2193 0.2097 0.2001
1583.000000 0.1881 0.1749 0.1588 0.1408 0.1300
1588.000000 0.1230 0.1160 0.1103 0.1058 0.1012
1593.000000 0.0981 0.0952 0.0927 0.0910 0.0905
1598.000000 0.0902 0.0901 0.0876 0.0903 0.0909
1603.000000 0.0918 0.0927 0.0952 0.0978 0.1013
1608.000000 0.1056 0.1200 0.1398 0.1596 0.1794
1613.000000 0.1991 0.2189 0.2387 0.2585 0.2783
1618.000000 0.2981 0.3179 0.3377 0.3574 0.3772
1623.000000 0.3970 0.4130 0.4209 0.4271 0.4307
1628.000000 0.4348 0.4335 0.4340 0.4337 0.4324
1633.000000 0.4295 0.4275 0.4252 0.4224 0.4173
1638.000000 0.4101 0.4043 0.4002 0.3961 0.3911
1643.000000 0.3848 0.3778 0.3698 0.3607 0.3395
1648.000000 0.3234 0.3073 0.2912 0.2751 0.2590
1653.000000 0.2429 0.2268 0.2107 0.1946 0.1785
1658.000000 0.1629 0.1445 0.1356 0.1278 0.1209
1663.000000 0.1148 0.1119 0.1091 0.1078 0.1068
1668.000000 0.1065 0.1065 0.1073 0.1086 0.1110
1673.000000 0.1145 0.1191 0.1364 0.1543 0.1722
1678.000000 0.1901 0.2080 0.2259 0.2438 0.2617
1683.000000 0.2796 0.2935 0.3164 0.3328 0.3413
1688.000000 0.3497 0.3604 0.3771 0.3953 0.4141
1693.000000 0.4323 0.4501 0.4676 0.4897 0.5174
1698.000000 0.5325 0.5481 0.5652 0.5878 0.6074
1703.000000 0.6188 0.6302 0.6412 0.6520 0.6634
1708.000000 0.6758 0.6881 0.6968 0.7056 0.7155
1713.000000 0.7292 0.7422 0.7528 0.7632 0.7700
1718.000000 0.7768 0.7835 0.7880 0.7922 0.7965
1723.000000 0.8007 0.8045 0.8074 0.8103 0.8132
1728.000000 0.8160 0.8178 0.8193 0.8209 0.8224
1733.000000 0.8239 0.8248 0.8258 0.8267 0.8276
1738.000000 0.8285 0.8293 0.8301 0.8310 0.8318
1743.000000 0.8323 0.8326 0.8329 0.8333 0.8336
1748.000000 0.8339 0.8342 0.8369 0.8415 0.8459
1753.000000 0.8494 0.8522 0.8534 0.8547 0.8559
1758.000000 0.8566 0.8573 0.8579 0.8586 0.8590
1763.000000 0.8593 0.8597 0.8601 0.8605 0.8609
1768.000000 0.8613 0.8618 0.8623 0.8628 0.8634
1773.000000 0.8639 0.8643 0.8648 0.8652 0.8657
1778.000000 0.8661 0.8665 0.8668 0.8671 0.8675
1783.000000 0.8681 0.8686 0.8692 0.8698 0.8704
1788.000000 0.8710 0.8715 0.8722 0.8728 0.8735
1793.000000 0.8742 0.8749 0.8756 0.8762 0.8769
1798.000000 0.8779 0.8790 0.8800 0.8810 0.8820
1803.000000 0.8831 0.8846 0.8862 0.8866 0.8870
1808.000000 0.8874 0.8878 0.8882 0.8886 0.8889
1813.000000 0.8891 0.8893 0.8894 0.8896 0.8898
1818.000000 0.8900 0.8902 0.8934 0.8902 0.8902
1823.000000 0.8902 0.8901 0.8901 0.8901 0.8901
1828.000000 0.8898 0.8895 0.8891 0.8888 0.8885
1833.000000 0.8882 0.8878 0.8875 0.8872 0.8869
1838.000000 0.8865 0.8860 0.8855 0.8850 0.8846
1843.000000 0.8841 0.8836 0.8831 0.8826 0.8822
1848.000000 0.8817 0.8812 0.8807 0.8802 0.8796
1853.000000 0.8791 0.8785 0.8780 0.8775 0.8769
1858.000000 0.8764 0.8758 0.8753 0.8747 0.8742
1863.000000 0.8736 0.8728 0.8721 0.8713 0.8705
1868.000000 0.8698 0.8690 0.8682 0.8669 0.8656
1873.000000 0.8643 0.8630 0.8617 0.8604 0.8591
1878.000000 0.8571 0.8551 0.8530 0.8509 0.8490
1883.000000 0.8473 0.8457 0.8443 0.8438 0.8434
1888.000000 0.8430 0.8420 0.8427 0.8431 0.8437
1893.000000 0.8448 0.8460 0.8477 0.8497 0.8516
1898.000000 0.8541 0.8566 0.8592 0.8617 0.8642
1903.000000 0.8662 0.8678 0.8694 0.8704 0.8707
1908.000000 0.8710 0.8710 0.8710 0.8710 0.8707
1913.000000 0.8705 0.8702 0.8700 0.8698 0.8695
1918.000000 0.8692 0.8688 0.8684 0.8680 0.8677
1923.000000 0.8673 0.8669 0.8665 0.8661 0.8657
1928.000000 0.8654 0.8651 0.8648 0.8645 0.8642
1933.000000 0.8638 0.8635 0.8632 0.8629 0.8626
1938.000000 0.8623 0.8619 0.8611 0.8603 0.8595
1943.000000 0.8587 0.8575 0.8562 0.8549 0.8536
1948.000000 0.8523 0.8513 0.8504 0.8496 0.8490
1953.000000 0.8493 0.8496 0.8500 0.8505 0.8511
1958.000000 0.8516 0.8521 0.8525 0.8530 0.8530
1963.000000 0.8524 0.8518 0.8512 0.8506 0.8500
1968.000000 0.8493 0.8485 0.8477 0.8469 0.8461
1973.000000 0.8453 0.8445 0.8437 0.8429 0.8421
1978.000000 0.8412 0.8404 0.8396 0.8388 0.8379
1983.000000 0.8371 0.8362 0.8353 0.8344 0.8335
1988.000000 0.8325 0.8316 0.8307 0.8300 0.8294
1993.000000 0.8289 0.8283 0.8278 0.8272 0.8267
1998.000000 0.8271 0.8279 0.8286 0.8302 0.8318
2003.000000 0.8327 0.8337 0.8347 0.8357 0.8366
2008.000000 0.8375 0.8384 0.8393 0.8401 0.8409
2013.000000 0.8416 0.8423 0.8428 0.8434 0.8437
2018.000000 0.8440 0.8443 0.8447 0.8445 0.8444
2023.000000 0.8439 0.8434 0.8427 0.8421 0.8415
2028.000000 0.8409 0.8400 0.8391 0.8382 0.8373
2033.000000 0.8364 0.8355 0.8345 0.8336 0.8326
2038.000000 0.8317 0.8307 0.8298 0.8288 0.8278
2043.000000 0.8268 0.8259 0.8249 0.8240 0.8230
2048.000000 0.8221 0.8211 0.8202 0.8192 0.8183
2053.000000 0.8177 0.8171 0.8165 0.8160 0.8160
2058.000000 0.8160 0.8161 0.8162 0.8167 0.8173
2063.000000 0.8178 0.8183 0.8189 0.8195 0.8202
2068.000000 0.8210 0.8221 0.8233 0.8249 0.8266
2073.000000 0.8276 0.8286 0.8285 0.8285 0.8281
2078.000000 0.8278 0.8275 0.8272 0.8268 0.8265
2083.000000 0.8262 0.8259 0.8256 0.8254 0.8251
2088.000000 0.8248 0.8245 0.8243 0.8239 0.8236
2093.000000 0.8232 0.8228 0.8223 0.8218 0.8212
2098.000000 0.8206 0.8199 0.8193 0.8187 0.8181
2103.000000 0.8173 0.8166 0.8158 0.8150 0.8142
2108.000000 0.8135 0.8127 0.8119 0.8110 0.8102
2113.000000 0.8093 0.8085 0.8076 0.8068 0.8058
2118.000000 0.8049 0.8039 0.8030 0.8020 0.8010
2123.000000 0.8000 0.7991 0.7980 0.7969 0.7958
2128.000000 0.7948 0.7937 0.7927 0.7916 0.7906
2133.000000 0.7894 0.7882 0.7868 0.7855 0.7851
2138.000000 0.7847 0.7845 0.7843 0.7841 0.7839
2143.000000 0.7837 0.7836 0.7834 0.7833 0.7833
2148.000000 0.7833 0.7830 0.7828 0.7822 0.7817
2153.000000 0.7811 0.7806 0.7800 0.7795 0.7789
2158.000000 0.7783 0.7774 0.7766 0.7757 0.7749
2163.000000 0.7740 0.7731 0.7719 0.7708 0.7696
2168.000000 0.7684 0.7672 0.7661 0.7649 0.7637
2173.000000 0.7625 0.7614 0.7602 0.7591 0.7579
2178.000000 0.7568 0.7556 0.7545 0.7535 0.7525
2183.000000 0.7515 0.7506 0.7496 0.7486 0.7476
2188.000000 0.7466 0.7456 0.7446 0.7436 0.7426
2193.000000 0.7416 0.7406 0.7396 0.7387 0.7377
2198.000000 0.7367 0.7358 0.7349 0.7340 0.7332
2203.000000 0.7323 0.7314 0.7305 0.7296 0.7287
2208.000000 0.7279 0.7270 0.7261 0.7252 0.7244
2213.000000 0.7235 0.7226 0.7217 0.7208 0.7199
2218.000000 0.7191 0.7182 0.7173 0.7164 0.7155
2223.000000 0.7147 0.7139 0.7131 0.7123 0.7114
2228.000000 0.7106 0.7098 0.7090 0.7081 0.7073
2233.000000 0.7065 0.7057 0.7048 0.7040 0.7032
2238.000000 0.7024 0.7015 0.7007 0.6999 0.6991
2243.000000 0.6983 0.6975 0.6966 0.6958 0.6949
2248.000000 0.6940 0.6930 0.6920 0.6910 0.6900
2253.000000 0.6890 0.6880 0.6870 0.6860 0.6850
2258.000000 0.6840 0.6830 0.6820 0.6810 0.6800
2263.000000 0.6790 0.6780 0.6770 0.6760 0.6750
2268.000000 0.6740 0.6729 0.6719 0.6707 0.6696
2273.000000 0.6684 0.6673 0.6661 0.6650 0.6638
2278.000000 0.6627 0.6615 0.6604 0.6592 0.6581
2283.000000 0.6569 0.6558 0.6546 0.6535 0.6523
2288.000000 0.6512 0.6504 0.6496 0.6488 0.6481
2293.000000 0.6473 0.6466 0.6458 0.6451 0.6443
2298.000000 0.6436 0.6428 0.6420 0.6412 0.6405
2303.000000 0.6397 0.6390 0.6383 0.6377 0.6373
2308.000000 0.6369 0.6365 0.6361 0.6357 0.6353
2313.000000 0.6349 0.6345 0.6341 0.6338 0.6331
2318.000000 0.6325 0.6317 0.6309 0.6300 0.6292
2323.000000 0.6284 0.6276 0.6265 0.6255 0.6242
2328.000000 0.6230 0.6218 0.6206 0.6192 0.6179
2333.000000 0.6165 0.6151 0.6137 0.6124 0.6110
2338.000000 0.6096 0.6082 0.6068 0.6051 0.6034
2343.000000 0.6017 0.6001 0.5984 0.5968 0.5951
2348.000000 0.5935 0.5920 0.5906 0.5896 0.5886
2353.000000 0.5875 0.5865 0.5855 0.5845 0.5835
2358.000000 0.5825 0.5815 0.5805 0.5795 0.5785
2363.000000 0.5774 0.5764 0.5754 0.5744 0.5732
2368.000000 0.5720 0.5708 0.5696 0.5683 0.5671
2373.000000 0.5659 0.5647 0.5635 0.5623 0.5611
2378.000000 0.5599 0.5591 0.5583 0.5575 0.5567
2383.000000 0.5559 0.5551 0.5542 0.5534 0.5526
2388.000000 0.5518 0.5511 0.5505 0.5501 0.5497
2393.000000 0.5493 0.5489 0.5485 0.5482 0.5479
2398.000000 0.5476 0.5473 0.5470 0.5467 0.5465
2403.000000 0.5465 0.5465 0.5464 0.5464 0.5463
2408.000000 0.5463 0.5463 0.5464 0.5466 0.5468
2413.000000 0.5470 0.5473 0.5475 0.5477 0.5479
2418.000000 0.5481 0.5482 0.5484 0.5486 0.5488
2423.000000 0.5489 0.5491 0.5490 0.5490 0.5488
2428.000000 0.5487 0.5483 0.5479 0.5472 0.5466
2433.000000 0.5454 0.5442 0.5429 0.5417 0.5404
2438.000000 0.5392 0.5380 0.5368 0.5356 0.5345
2443.000000 0.5333 0.5321 0.5308 0.5296 0.5282
2448.000000 0.5269 0.5255 0.5241 0.5227 0.5214
2453.000000 0.5198 0.5182 0.5165 0.5148 0.5131
2458.000000 0.5115 0.5098 0.5081 0.5064 0.5048
2463.000000 0.5031 0.5015 0.4998 0.4982 0.4966
2468.000000 0.4950 0.4934 0.4919 0.4904 0.4889
2473.000000 0.4874 0.4859 0.4843 0.4828 0.4813
2478.000000 0.4798 0.4784 0.4770 0.4757 0.4745
2483.000000 0.4732 0.4720 0.4707 0.4695 0.4682
2488.000000 0.4670 0.4658 0.4646 0.4633 0.4621
2493.000000 0.4608 0.4596 0.4583 0.4571 0.4559
2498.000000 0.4547 0.4536 0.4526 0.4516 0.4506
2503.000000 0.4496 0.4486 0.4476 0.4466 0.4456
2508.000000 0.4446 0.4436 0.4426 0.4416 0.4406
2513.000000 0.4396 0.4386 0.4375 0.4364 0.4352
2518.000000 0.4340 0.4328 0.4316 0.4303 0.4291
2523.000000 0.4279 0.4267 0.4254 0.4242 0.4230
2528.000000 0.4218 0.4206 0.4194 0.4182 0.4170
2533.000000 0.4160 0.4150 0.4139 0.4129 0.4119
2538.000000 0.4109 0.4099 0.4089 0.4079 0.4069
2543.000000 0.4059 0.4049 0.4039 0.4029 0.4019
2548.000000 0.4010 0.4000 0.3990 0.3980 0.3970
2553.000000 0.3960 0.3951 0.3941 0.3931 0.3916
2558.000000 0.3901 0.3872 0.3844 0.3811 0.3778
2563.000000 0.3738 0.3699 0.3672 0.3645 0.3628
2568.000000 0.3612 0.3606 0.3601 0.3598 0.3596
2573.000000 0.3594 0.3592 0.3590 0.3588 0.3586
2578.000000 0.3584 0.3582 0.3580 0.3576 0.3573
2583.000000 0.3569 0.3565 0.3553 0.3541 0.3525
2588.000000 0.3509 0.3484 0.3459 0.3432 0.3405
2593.000000 0.3380 0.3356 0.3357 0.3359 0.3360
2598.000000 0.3332 0.3365 0.3368 0.3377 0.3387
2603.000000 0.3421 0.3455 0.3493 0.3532 0.3561
2608.000000 0.3591 0.3608 0.3625 0.3642 0.3659
2613.000000 0.3668 0.3677 0.3681 0.3685 0.3687
2618.000000 0.3697 0.3684 0.3680 0.3669 0.3659
2623.000000 0.3642 0.3625 0.3608 0.3591 0.3577
2628.000000 0.3564 0.3551 0.3538 0.3526 0.3514
2633.000000 0.3502 0.3490 0.3479 0.3469 0.3459
2638.000000 0.3449 0.3439 0.3429 0.3419 0.3409
2643.000000 0.3400 0.3391 0.3382 0.3373 0.3363
2648.000000 0.3354 0.3345 0.3336 0.3327 0.3318
2653.000000 0.3309 0.3300 0.3291 0.3282 0.3264
2658.000000 0.3247 0.3229 0.3211 0.3182 0.3153
2663.000000 0.3125 0.3098 0.3073 0.3048 0.3022
2668.000000 0.2996 0.2967 0.2939 0.2910 0.2881
2673.000000 0.2852 0.2823 0.2793 0.2764 0.2742
2678.000000 0.2721 0.2700 0.2680 0.2678 0.2676
2683.000000 0.2674 0.2672 0.2672 0.2672 0.2673
2688.000000 0.2663 0.2679 0.2684 0.2692 0.2701
2693.000000 0.2712 0.2723 0.2736 0.2750 0.2767
2698.000000 0.2785 0.2801 0.2817 0.2830 0.2843
2703.000000 0.2853 0.2863 0.2866 0.2869 0.2871
2708.000000 0.2873 0.2875 0.2878 0.2888 0.2898
2713.000000 0.2932 0.2967 0.2998 0.3030 0.3053
2718.000000 0.3077 0.3085 0.3094 0.3100 0.3107
2723.000000 0.3109 0.3121 0.3110 0.3108 0.3106
2728.000000 0.3104 0.3096 0.3088 0.3078 0.3068
2733.000000 0.3057 0.3046 0.3033 0.3021 0.3007
2738.000000 0.2993 0.2979 0.2965 0.2946 0.2928
2743.000000 0.2915 0.2902 0.2895 0.2888 0.2888
2748.000000 0.2888 0.2888 0.2889 0.2890 0.2891
2753.000000 0.2891 0.2892 0.2892 0.2893 0.2893
2758.000000 0.2893 0.2887 0.2882 0.2871 0.2861
2763.000000 0.2849 0.2837 0.2825 0.2814 0.2799
2768.000000 0.2784 0.2768 0.2752 0.2738 0.2724
2773.000000 0.2710 0.2697 0.2683 0.2670 0.2659
2778.000000 0.2649 0.2641 0.2633 0.2624 0.2616
2783.000000 0.2608 0.2600 0.2595 0.2591 0.2588
2788.000000 0.2586 0.2584 0.2549 0.2582 0.2582
2793.000000 0.2581 0.2581 0.2582 0.2583 0.2585
2798.000000 0.2588 0.2591 0.2594 0.2596 0.2599
2803.000000 0.2605 0.2611 0.2621 0.2631 0.2642
2808.000000 0.2654 0.2666 0.2678 0.2690 0.2702
2813.000000 0.2714 0.2726 0.2737 0.2749 0.2760
2818.000000 0.2772 0.2783 0.2794 0.2806 0.2818
2823.000000 0.2832 0.2847 0.2861 0.2875 0.2884
2828.000000 0.2894 0.2903 0.2912 0.2921 0.2930
2833.000000 0.2938 0.2947 0.2963 0.2979 0.2995
2838.000000 0.3012 0.3027 0.3043 0.3058 0.3074
2843.000000 0.3105 0.3137 0.3211 0.3285 0.3301
2848.000000 0.3318 0.3323 0.3329 0.3333 0.3338
2853.000000 0.3338 0.3339 0.3339 0.3340 0.3340
2858.000000 0.3341 0.3342 0.3343 0.3344 0.3345
2863.000000 0.3348 0.3352 0.3355 0.3359 0.3362
2868.000000 0.3365 0.3368 0.3372 0.3385 0.3398
2873.000000 0.3413 0.3429 0.3449 0.3470 0.3497
2878.000000 0.3524 0.3564 0.3630 0.3612 0.3619
2883.000000 0.3618 0.3617 0.3616 0.3615 0.3613
2888.000000 0.3611 0.3608 0.3606 0.3602 0.3598
2893.000000 0.3593 0.3588 0.3583 0.3579 0.3574
2898.000000 0.3569 0.3567 0.3551 0.3567 0.3569
2903.000000 0.3570 0.3571 0.3574 0.3578 0.3584
2908.000000 0.3591 0.3600 0.3610 0.3617 0.3625
2913.000000 0.3629 0.3633 0.3633 0.3633 0.3632
2918.000000 0.3631 0.3629 0.3627 0.3619 0.3612
2923.000000 0.3600 0.3589 0.3573 0.3557 0.3536
2928.000000 0.3515 0.3488 0.3461 0.3434 0.3408
2933.000000 0.3381 0.3355 0.3325 0.3296 0.3265
2938.000000 0.3234 0.3210 0.3186 0.3166 0.3146
2943.000000 0.3126 0.3107 0.3087 0.3067 0.3042
2948.000000 0.3018 0.2988 0.2958 0.2933 0.2908
2953.000000 0.2886 0.2865 0.2848 0.2831 0.2814
2958.000000 0.2797 0.2779 0.2762 0.2748 0.2734
2963.000000 0.2721 0.2708 0.2695 0.2682 0.2669
2968.000000 0.2656 0.2644 0.2633 0.2622 0.2612
2973.000000 0.2601 0.2580 0.2587 0.2584 0.2585
2978.000000 0.2587 0.2589 0.2592 0.2595 0.2598
2983.000000 0.2610 0.2623 0.2638 0.2653 0.2669
2988.000000 0.2685 0.2711 0.2738 0.2768 0.2799
2993.000000 0.2823 0.2847 0.2870 0.2893 0.2914
2998.000000 0.2935 0.2942 0.2949 0.2952 0.2956
3003.000000 0.2954 0.2953 0.2951 0.2950 0.2948
3008.000000 0.2947 0.2949 0.2951 0.2956 0.2961
3013.000000 0.2974 0.2988 0.2998 0.3008 0.3010
3018.000000 0.3012 0.3014 0.3017 0.3016 0.3016
3023.000000 0.3014 0.3001 0.3009 0.3006 0.2995
3028.000000 0.2985 0.2976 0.2967 0.2948 0.2930
3033.000000 0.2910 0.2891 0.2867 0.2843 0.2818
3038.000000 0.2794 0.2769 0.2744 0.2717 0.2691
3043.000000 0.2662 0.2633 0.2603 0.2573 0.2542
3048.000000 0.2512 0.2478 0.2445 0.2411 0.2377
3053.000000 0.2345 0.2313 0.2283 0.2253 0.2223
3058.000000 0.2193 0.2164 0.2136 0.2107 0.2079
3063.000000 0.2052 0.2026 0.2000 0.1975 0.1953
3068.000000 0.1931 0.1912 0.1893 0.1876 0.1859
3073.000000 0.1846 0.1833 0.1819 0.1806 0.1793
3078.000000 0.1780 0.1769 0.1758 0.1748 0.1739
3083.000000 0.1729 0.1720 0.1710 0.1701 0.1691
3088.000000 0.1682 0.1675 0.1669 0.1663 0.1657
3093.000000 0.1650 0.1644 0.1638 0.1632 0.1628
3098.000000 0.1624 0.1620 0.1617 0.1613 0.1609
3103.000000 0.1605 0.1602 0.1599 0.1596 0.1595
3108.000000 0.1595 0.1594 0.1593 0.1592 0.1592
3113.000000 0.1591 0.1591 0.1592 0.1569 0.1597
3118.000000 0.1600 0.1603 0.1606 0.1609 0.1612
3123.000000 0.1617 0.1622 0.1629 0.1637 0.1644
3128.000000 0.1652 0.1659 0.1666 0.1675 0.1685
3133.000000 0.1699 0.1714 0.1729 0.1745 0.1760
3138.000000 0.1776 0.1792 0.1808 0.1825 0.1842
3143.000000 0.1861 0.1880 0.1899 0.1919 0.1937
3148.000000 0.1956 0.1974 0.1993 0.2020 0.2047
3153.000000 0.2074 0.2101 0.2128 0.2156 0.2185
3158.000000 0.2214 0.2242 0.2271 0.2299 0.2328
3163.000000 0.2352 0.2376 0.2398 0.2421 0.2444
3168.000000 0.2467 0.2490 0.2513 0.2534 0.2556
3173.000000 0.2574 0.2592 0.2609 0.2627 0.2645
3178.000000 0.2663 0.2680 0.2697 0.2714 0.2731
3183.000000 0.2747 0.2764 0.2779 0.2794 0.2806
3188.000000 0.2818 0.2830 0.2843 0.2855 0.2867
3193.000000 0.2890 0.2913 0.2939 0.2966 0.2987
3198.000000 0.3009 0.3030 0.3052 0.3073 0.3094
3203.000000 0.3115 0.3136 0.3155 0.3175 0.3192
3208.000000 0.3210 0.3227 0.3245 0.3262 0.3279
3213.000000 0.3294 0.3310 0.3325 0.3341 0.3356
3218.000000 0.3372 0.3384 0.3397 0.3405 0.3414
3223.000000 0.3422 0.3431 0.3434 0.3436 0.3439
3228.000000 0.3441 0.3441 0.3442 0.3439 0.3437
3233.000000 0.3434 0.3431 0.3421 0.3411 0.3397
3238.000000 0.3384 0.3370 0.3356 0.3342 0.3328
3243.000000 0.3312 0.3297 0.3278 0.3260 0.3241
3248.000000 0.3223 0.3204 0.3185 0.3164 0.3144
3253.000000 0.3123 0.3103 0.3083 0.3063 0.3039
3258.000000 0.3015 0.2989 0.2963 0.2951 0.2939
3263.000000 0.2930 0.2922 0.2916 0.2911 0.2905
3268.000000 0.2900 0.2891 0.2883 0.2874 0.2865
3273.000000 0.2848 0.2831 0.2797 0.2763 0.2725
3278.000000 0.2687 0.2668 0.2649 0.2629 0.2610
3283.000000 0.2593 0.2577 0.2561 0.2545 0.2540
3288.000000 0.2535 0.2530 0.2526 0.2524 0.2523
3293.000000 0.2526 0.2530 0.2546 0.2500 0.2613
3298.000000 0.2664 0.2691 0.2718 0.2750 0.2783
3303.000000 0.2821 0.2859 0.2893 0.2927 0.2972
3308.000000 0.3017 0.3080 0.3143 0.3253 0.3363
3313.000000 0.3406 0.3449 0.3491 0.3534 0.3571
3318.000000 0.3609 0.3646 0.3684 0.3724 0.3765
3323.000000 0.3810 0.3856 0.3901 0.3946 0.3988
3328.000000 0.4031 0.4067 0.4104 0.4122 0.4141
3333.000000 0.4145 0.4149 0.4151 0.4154 0.4152
3338.000000 0.4151 0.4149 0.4147 0.4145 0.4144
3343.000000 0.4141 0.4138 0.4133 0.4128 0.4127
3348.000000 0.4127 0.4129 0.4132 0.4135 0.4138
3353.000000 0.4146 0.4154 0.4177 0.4200 0.4233
3358.000000 0.4266 0.4315 0.4364 0.4411 0.4459
3363.000000 0.4496 0.4534 0.4929 0.5325 0.5457
3368.000000 0.5590 0.5688 0.5786 0.5871 0.5957
3373.000000 0.6058 0.6160 0.6230 0.6300 0.6350
3378.000000 0.6401 0.6451 0.6501 0.6535 0.6570
3383.000000 0.6603 0.6636 0.6668 0.6701 0.6734
3388.000000 0.6767 0.6801 0.6836 0.6873 0.6910
3393.000000 0.6947 0.6984 0.7004 0.7024 0.7042
3398.000000 0.7060 0.7078 0.7096 0.7114 0.7132
3403.000000 0.7150 0.7168 0.7184 0.7201 0.7216
3408.000000 0.7231 0.7246 0.7261 0.7276 0.7291
3413.000000 0.7306 0.7321 0.7336 0.7351 0.7363
3418.000000 0.7376 0.7389 0.7402 0.7415 0.7428
3423.000000 0.7441 0.7454 0.7466 0.7479 0.7492
3428.000000 0.7505 0.7518 0.7531 0.7544 0.7558
3433.000000 0.7571 0.7584 0.7597 0.7610 0.7619
3438.000000 0.7628 0.7636 0.7645 0.7654 0.7663
3443.000000 0.7671 0.7679 0.7683 0.7688 0.7692
3448.000000 0.7697 0.7701 0.7705 0.7709 0.7714
3453.000000 0.7718 0.7723 0.7727 0.7732 0.7736
3458.000000 0.7740 0.7741 0.7743 0.7744 0.7745
3463.000000 0.7746 0.7747 0.7748 0.7749 0.7750
3468.000000 0.7751 0.7751 0.7752 0.7751 0.7751
3473.000000 0.7749 0.7748 0.7747 0.7746 0.7745
3478.000000 0.7744 0.7747 0.7750 0.7755 0.7761
3483.000000 0.7767 0.7773 0.7779 0.7786 0.7796
3488.000000 0.7806 0.7816 0.7827 0.7836 0.7846
3493.000000 0.7854 0.7862 0.7870 0.7879 0.7887
3498.000000 0.7895 0.7898 0.7902 0.7905 0.7909
3503.000000 0.7912 0.7916 0.7919 0.7923 0.7926
3508.000000 0.7929 0.7931 0.7934 0.7936 0.7939
3513.000000 0.7941 0.7943 0.7945 0.7948 0.7950
3518.000000 0.7953 0.7955 0.7957 0.7959 0.7962
3523.000000 0.7963 0.7965 0.7966 0.7968 0.7969
3528.000000 0.7970 0.7971 0.7973 0.7974 0.7975
3533.000000 0.7976 0.7978 0.7979 0.7980 0.7981
3538.000000 0.7983 0.7984 0.7985 0.7986 0.7987
3543.000000 0.7987 0.7988 0.7989 0.7990 0.7990
3548.000000 0.7991 0.7991 0.7992 0.7993 0.7994
3553.000000 0.7994 0.7995 0.7996 0.7997 0.7997
3558.000000 0.7997 0.7997 0.7998 0.7998 0.7998
3563.000000 0.7998 0.7998 0.7997 0.7997 0.7996
3568.000000 0.7995 0.7994 0.7993 0.7991 0.7990
3573.000000 0.7989 0.7988 0.7989 0.7990 0.7990
3578.000000 0.7991 0.7992 0.7993 0.7994 0.7995
3583.000000 0.7995 0.7996 0.7997 0.7998 0.7999
3588.000000 0.8000 0.8001 0.8002 0.8003 0.8005
3593.000000 0.8006 0.8008 0.8009 0.8010 0.8011
3598.000000 0.8013 0.8014 0.8015 0.8016 0.8018
3603.000000 0.8019 0.8020 0.8021 0.8022 0.8023
3608.000000 0.8025 0.8026 0.8027 0.8028 0.8029
3613.000000 0.8030 0.8032 0.8033 0.8034 0.8034
3618.000000 0.8035 0.8035 0.8036 0.8036 0.8037
3623.000000 0.8037 0.8038 0.8038 0.8039 0.8039
3628.000000 0.8040 0.8040 0.8041 0.8041 0.8041
3633.000000 0.8040 0.8039 0.8037 0.8036 0.8035
3638.000000 0.8034 0.8033 0.8032 0.8031 0.8030
3643.000000 0.8028 0.8026 0.8023 0.8021 0.8018
3648.000000 0.8016 0.8014 0.8012 0.8009 0.8007
3653.000000 0.8004 0.8002 0.7999 0.7997 0.7991
3658.000000 0.7986 0.7981 0.7976 0.7970 0.7965
3663.000000 0.7960 0.7955 0.7952 0.7949 0.7946
3668.000000 0.7944 0.7941 0.7939 0.7936 0.7934
3673.000000 0.7931 0.7929 0.7928 0.7927 0.7928
3678.000000 0.7929 0.7930 0.7931 0.7932 0.7933
3683.000000 0.7936 0.7939 0.7942 0.7946 0.7949
3688.000000 0.7952 0.7954 0.7957 0.7958 0.7960
3693.000000 0.7960 0.7961 0.7958 0.7956 0.7954
3698.000000 0.7952 0.7950 0.7948 0.7946 0.7945
3703.000000 0.7943 0.7942 0.7940 0.7939 0.7937
3708.000000 0.7936 0.7934 0.7933 0.7930 0.7927
3713.000000 0.7924 0.7921 0.7917 0.7914 0.7911
3718.000000 0.7908 0.7905 0.7902 0.7899 0.7896
3723.000000 0.7892 0.7889 0.7886 0.7883 0.7879
3728.000000 0.7876 0.7872 0.7869 0.7865 0.7862
3733.000000 0.7858 0.7855 0.7851 0.7848 0.7844
3738.000000 0.7841 0.7837 0.7834 0.7830 0.7827
3743.000000 0.7823 0.7820 0.7816 0.7812 0.7809
3748.000000 0.7806 0.7803 0.7800 0.7797 0.7795
3753.000000 0.7791 0.7788 0.7785 0.7782 0.7778
3758.000000 0.7775 0.7772 0.7769 0.7766 0.7763
3763.000000 0.7760 0.7757 0.7754 0.7751 0.7747
3768.000000 0.7744 0.7741 0.7738 0.7735 0.7732
3773.000000 0.7729 0.7726 0.7722 0.7719 0.7716
3778.000000 0.7713 0.7710 0.7707 0.7704 0.7701
3783.000000 0.7697 0.7694 0.7691 0.7688 0.7687
3788.000000 0.7686
##END=
