##TITLE=3-Ethoxy-4-hydroxyphenethylamine
##JCAMP-DX=4.24
##DATA TYPE=INFRARED SPECTRUM
##ORIGIN=EPA-IR VAPOR PHASE LIBRARY
##OWNER=SRD/NIST
Collection (C) 2018 copyright by the U.S. Secretary of Commerce
on behalf of the United States of America. All rights reserved.
##CAS REGISTRY NO=74321-37-2
##MOLFORM=C 10 H 15 N O 2
##$NIST SOURCE=MSDC-IR
##STATE=gas
##XUNITS=1/CM
##YUNITS=ABSORBANCE
##XFACTOR=1.
##YFACTOR=0.001
##DELTAX=1.92898
##FIRSTX=549.8
##LASTX=4000.7
##FIRSTY=2.697
##MAXX=4000.7
##MINX=549.759
##MAXY=0.109107
##MINY=0
##NPOINTS=1790
##XYDATA=(X++(Y..Y))
549.759 2.697 2.457 2.297 2.277 2.007 1.867 1.907 1.667 1.447 1.357
569.049 1.487 1.407 1.447 1.577 1.367 1.337 1.227 1.257 1.407 1.2015
588.339 1.1911 1.1173 1.307 1.697 1.737 1.757 1.757 1.657 1.707 1.847
607.628 1.687 1.697 1.747 1.687 1.787 1.597 1.437 1.247 1.0474 0.998
626.918 0.9055 0.9318 0.8753 0.7856 0.8594 0.7736 0.7655 0.9816 1.1328 1.1491
646.208 1.0863 1.227 1.387 1.487 1.917 2.337 2.677 3.017 3.457 4.117
665.498 4.627 4.967 5.097 5.157 5.177 4.917 4.737 4.377 3.877 3.687
684.787 3.497 3.267 3.057 2.907 2.837 2.687 2.487 2.327 2.297 2.367
704.077 2.287 2.217 2.227 2.297 2.487 2.537 2.517 2.577 2.487 2.417
723.367 2.237 2.157 2.327 2.087 1.847 1.837 1.747 1.817 1.847 1.907
742.657 2.017 1.927 1.877 1.917 1.967 2.027 2.097 2.257 2.447 2.517
761.947 2.587 2.497 2.387 2.437 2.357 2.337 2.387 2.427 2.657 2.947
781.236 3.297 4.037 5.057 6.237 7.627 9.407 11.227 13.037 14.997 17.077
800.526 18.637 18.897 18.327 17.437 16.317 14.967 13.357 11.507 9.807 8.167
819.816 6.777 5.827 4.877 4.107 3.487 3.067 2.707 2.547 2.517 2.397
839.106 2.277 2.197 2.157 2.037 1.987 1.857 1.767 1.787 1.667 1.427
858.395 1.367 1.487 1.477 1.237 1.1624 1.267 1.317 1.297 1.327 1.377
877.685 1.2177 1.0392 1.0844 1.247 1.267 1.2033 1.2096 1.487 1.627 1.557
896.975 1.747 1.827 1.717 1.647 1.707 1.797 1.827 1.937 1.797 1.747
916.265 1.917 2.007 2.157 2.207 2.097 2.117 2.287 2.407 2.477 2.607
935.555 2.697 2.847 3.007 3.147 3.157 2.987 3.027 3.157 3.007 2.847
954.844 2.907 2.797 2.527 2.457 2.437 2.237 2.137 2.407 2.837 2.857
974.134 2.557 2.467 2.627 2.837 2.977 2.907 2.927 3.097 3.257 3.357
993.424 3.507 3.637 3.637 3.687 3.797 4.037 4.097 4.177 4.317 4.317
1012.714 4.537 4.657 4.707 4.887 5.127 5.197 5.167 5.647 6.127 6.217
1032.003 6.377 6.547 6.797 7.337 7.917 8.677 9.247 10.197 11.257 12.047
1051.293 13.277 14.507 15.537 16.507 17.357 18.077 19.007 19.857 19.867 19.797
1070.583 20.537 20.817 20.687 20.927 21.087 21.757 23.107 24.257 25.427 27.277
1089.873 29.737 32.257 35.057 38.217 41.427 44.877 48.247 51.907 55.957 59.497
1109.163 61.517 61.647 60.227 57.127 52.857 47.787 41.377 34.157 27.437 21.977
1128.452 17.717 14.587 12.347 10.507 8.937 7.897 7.487 6.867 6.547 6.387
1147.742 6.177 6.307 6.557 6.837 7.137 7.657 8.177 8.687 8.927 9.027
1167.032 9.187 9.427 9.377 8.977 8.767 8.897 9.117 9.297 9.407 9.487
1186.322 9.987 10.457 10.797 10.927 11.147 11.467 11.507 11.707 11.727 11.947
1205.611 11.947 11.687 11.227 10.367 9.647 9.077 8.407 8.157 8.507 9.007
1224.901 9.657 10.337 10.937 11.737 13.107 14.897 17.097 19.707 23.077 27.197
1244.191 31.957 37.817 44.927 53.447 63.627 74.607 85.527 95.537 103.177 107.927
1263.481 109.107 106.407 99.987 90.597 79.467 67.917 57.527 48.947 42.037 36.327
1282.771 31.737 28.267 25.477 23.157 21.627 20.557 19.527 18.587 17.737 16.927
1302.060 16.087 15.117 14.057 13.057 12.137 11.317 10.567 9.897 9.197 8.517
1321.350 7.917 7.337 6.877 6.487 6.057 5.617 5.297 5.027 4.737 4.547
1340.640 4.407 4.207 4.087 3.967 3.817 3.747 3.667 3.567 3.537 3.497
1359.930 3.467 3.447 3.407 3.437 3.537 3.697 3.887 4.097 4.337 4.617
1379.219 4.867 5.227 5.607 5.877 6.067 6.237 6.437 6.507 6.537 6.507
1398.509 6.407 6.287 6.157 6.177 6.337 6.637 7.027 7.687 8.587 9.627
1417.799 11.057 12.787 14.587 16.497 18.337 19.907 21.347 22.597 23.577 24.417
1437.089 25.167 25.697 25.897 25.747 25.217 24.507 23.847 23.157 22.567 22.427
1456.378 23.217 25.217 28.337 32.417 37.147 42.277 47.437 52.777 58.137 63.017
1475.668 66.657 68.457 68.487 66.897 63.817 59.517 54.107 47.927 41.627 35.787
1494.958 30.687 26.377 22.887 20.127 17.987 16.297 14.917 13.797 12.867 12.067
1514.248 11.367 10.887 10.477 10.067 9.677 9.307 9.087 8.837 8.567 8.387
1533.538 8.247 8.087 7.947 7.917 7.857 7.717 7.597 7.547 7.617 7.587
1552.827 7.607 7.767 7.897 8.077 8.327 8.707 9.067 9.507 10.097 10.827
1572.117 11.797 12.907 14.217 15.747 17.247 18.777 20.287 21.577 22.707 23.537
1591.407 23.957 23.977 23.567 22.777 21.787 20.737 19.547 18.127 16.577 15.007
1610.697 13.557 12.167 10.767 9.377 8.187 7.187 6.307 5.657 5.077 4.547
1629.986 4.127 3.767 3.517 3.257 3.017 2.797 2.687 2.577 2.467 2.437
1649.276 2.257 2.147 2.097 1.997 1.937 1.867 1.797 1.757 1.707 1.717
1668.566 1.687 1.527 1.507 1.567 1.537 1.447 1.417 1.477 1.477 1.427
1687.856 1.397 1.407 1.387 1.377 1.357 1.267 1.277 1.367 1.367 1.267
1707.146 1.227 1.257 1.277 1.2232 1.247 1.327 1.267 1.237 1.1971 1.1804
1726.435 1.237 1.247 1.257 1.267 1.277 1.237 1.1743 1.1711 1.2072 1.1902
1745.725 1.1566 1.162 1.1547 1.1814 1.161 1.0996 1.0862 1.0259 1.0502 1.0824
1765.015 1.0421 1.0118 0.9915 1.0139 1.055 1.0044 0.9536 0.967 0.9598 0.969
1784.305 0.9605 1.0064 1.0392 1.0078 1.0087 1.0247 0.9789 0.9474 0.9825 0.9958
1803.594 1.0571 1.1133 1.1462 1.1643 1.19 1.203 1.2134 1.267 1.297 1.297
1822.884 1.277 1.297 1.317 1.327 1.367 1.457 1.507 1.507 1.547 1.537
1842.174 1.547 1.597 1.557 1.547 1.547 1.547 1.547 1.467 1.377 1.377
1861.464 1.357 1.307 1.267 1.2131 1.1407 1.1934 1.2111 1.0912 1.0428 0.9598
1880.754 0.9538 0.9807 0.8985 0.9003 0.9382 0.9375 0.8938 0.8331 0.8307 0.8192
1900.043 0.7562 0.7214 0.7216 0.7184 0.7129 0.7697 0.803 0.7842 0.8074 0.8565
1919.333 0.9177 0.9147 0.9103 0.9488 0.9973 1.0756 1.1235 1.1128 1.0823 1.0193
1938.623 0.9519 1.0167 1.0836 1.079 1.0624 1.0367 1.0803 1.0734 1.0355 1.0872
1957.913 1.057 1.0326 1.0447 1.024 1.0539 1.0495 1.0418 1.057 1.0649 1.082
1977.202 1.0735 1.0918 1.0791 1.0522 1.0753 1.056 1.0784 1.1597 1.1368 1.1328
1996.492 1.1892 1.2051 1.227 1.247 1.257 1.287 1.357 1.397 1.407 1.407
2015.782 1.407 1.387 1.397 1.387 1.267 1.1902 1.2061 1.2057 1.0919 1.0317
2035.072 1.0532 1.0614 1.019 0.9923 1.0319 1.0096 0.9247 0.9231 0.9638 0.9549
2054.362 0.9509 0.9419 0.9556 1.0067 0.9826 0.8968 0.8108 0.8318 0.9321 0.907
2073.651 0.8818 0.9481 0.9913 0.9756 0.9654 1.0369 1.082 1.1335 1.1675 1.2267
2092.941 1.297 1.267 1.287 1.337 1.367 1.357 1.327 1.357 1.377 1.317
2112.231 1.267 1.227 1.1487 1.1062 1.1295 1.0678 0.9901 0.986 0.9805 1.002
2131.521 0.9701 0.8813 0.832 0.7943 0.8396 0.9027 0.8928 0.8432 0.8424 0.9372
2150.810 0.9662 0.89 0.8909 0.9361 0.876 0.8454 0.8949 0.9651 0.9756 0.9578
2170.100 0.9515 0.9554 0.9241 0.9089 0.8736 0.835 0.836 0.881 0.8585 0.8273
2189.390 0.8956 0.8924 0.8656 0.8366 0.8153 0.8052 0.777 0.7787 0.8434 0.8634
2208.680 0.7649 0.757 0.8188 0.8063 0.7821 0.7463 0.7862 0.8165 0.833 0.8511
2227.970 0.8936 0.9521 0.9957 1.0995 1.1724 1.237 1.387 1.607 1.897 2.117
2247.259 2.287 2.487 2.617 2.707 2.657 2.497 2.307 2.077 1.817 1.587
2266.549 1.367 1.2146 1.1494 1.1048 1.0531 0.967 0.9013 0.8902 0.8812 0.8008
2285.839 0.7734 0.7654 0.7178 0.7146 0.7011 0.6616 0.6186 0.5893 0.5509 0.6017
2305.129 0.7071 0.6997 0.6471 0.6404 0.6512 0.6935 0.7798 0.7641 0.7121 0.7454
2324.418 0.8358 0.9042 0.8401 0.7913 0.7862 0.7582 0.7461 0.7099 0.7269 0.7422
2343.708 0.6953 0.6926 0.6644 0.6612 0.6085 0.5998 0.6455 0.6439 0.7061 0.7476
2362.998 0.7093 0.6512 0.6471 0.7246 0.7568 0.6974 0.7195 0.7361 0.7139 0.7307
2382.288 0.7114 0.6746 0.6735 0.7006 0.6558 0.6148 0.643 0.5754 0.5825 0.6153
2401.578 0.6133 0.6318 0.5995 0.5678 0.5736 0.5456 0.5061 0.5897 0.5612 0.5567
2420.867 0.669 0.62 0.5683 0.6469 0.7148 0.6387 0.5376 0.5766 0.6099 0.5782
2440.157 0.584 0.5468 0.5422 0.6452 0.5972 0.532 0.5633 0.6098 0.5963 0.5894
2459.447 0.637 0.5773 0.536 0.5541 0.5735 0.6209 0.6488 0.5955 0.6547 0.6926
2478.737 0.6412 0.647 0.7209 0.7714 0.7788 0.826 0.8331 0.811 0.8643 0.8818
2498.026 0.878 0.9532 1.002 0.9983 0.977 1.0934 1.1478 1.1449 1.2004 1.237
2517.316 1.297 1.337 1.307 1.287 1.297 1.297 1.247 1.237 1.297 1.257
2536.606 1.1772 1.1274 1.0986 1.0844 1.0555 1.0581 1.0823 1.1636 1.237 1.1481
2555.896 1.1143 1.1528 1.1604 1.1989 1.1635 1.1148 1.1577 1.1381 1.091 1.1185
2575.186 1.1 1.0214 0.9895 1.0064 1.0251 1.0121 1.0914 1.237 1.237 1.1433
2594.475 1.0519 1.0161 1.0478 1.0782 1.0605 1.0269 0.9955 0.9409 0.933 0.9202
2613.765 0.8871 0.8735 0.8459 0.846 0.9153 0.9409 0.842 0.7503 0.7578 0.8128
2633.055 0.865 0.8604 0.7921 0.7848 0.8313 0.9119 0.9557 0.9164 0.8 0.6945
2652.345 0.707 0.7402 0.8022 0.7496 0.6529 0.6578 0.6624 0.69 0.7394 0.7255
2671.634 0.7081 0.6997 0.69 0.7748 0.7871 0.6636 0.6439 0.668 0.6593 0.731
2690.924 0.7456 0.7128 0.6502 0.6716 0.7102 0.7913 0.8847 0.8374 0.8077 0.8303
2710.214 0.9024 0.8872 0.8616 0.9313 1.0121 1.0736 1.1228 1.1858 1.307 1.247
2729.504 1.247 1.377 1.407 1.467 1.597 1.667 1.597 1.707 1.747 1.687
2748.794 1.657 1.527 1.517 1.537 1.407 1.367 1.417 1.417 1.467 1.557
2768.083 1.477 1.517 1.627 1.617 1.587 1.647 1.737 1.717 1.697 1.817
2787.373 1.967 1.927 1.957 2.107 2.307 2.397 2.457 2.617 2.807 2.967
2806.663 3.077 3.247 3.567 3.787 3.987 4.227 4.447 4.847 5.257 5.737
2825.953 6.287 7.027 7.917 8.987 10.367 11.977 13.617 15.127 16.397 17.227
2845.242 17.677 17.777 17.307 16.537 15.537 14.397 13.397 12.577 12.107 11.847
2864.532 11.757 11.857 11.917 12.067 12.327 12.597 12.987 13.267 13.487 13.877
2883.822 14.127 14.197 14.507 14.957 15.257 15.567 15.947 16.437 17.107 17.807
2903.112 18.507 19.127 19.987 20.997 21.867 22.667 23.517 24.477 25.457 26.407
2922.401 27.247 28.027 28.997 30.087 31.357 32.917 34.397 35.967 37.647 39.177
2941.691 40.507 41.497 41.927 41.607 40.977 40.047 38.567 36.757 34.597 32.377
2960.981 30.147 27.807 25.577 23.587 21.777 20.127 18.707 17.517 16.507 15.697
2980.271 15.137 14.717 14.597 14.647 14.837 15.407 16.167 17.087 18.427 20.097
2999.561 21.897 23.487 24.547 24.917 24.567 23.887 22.847 21.337 19.417 17.537
3018.850 16.227 15.257 14.507 13.967 13.467 13.057 12.687 12.247 11.947 11.737
3038.140 11.467 11.127 10.817 10.637 10.477 10.207 9.857 9.727 9.707 9.537
3057.430 9.257 8.967 8.717 8.647 8.537 8.307 8.057 7.857 7.697 7.477
3076.720 7.297 7.287 7.297 7.177 7.067 6.937 6.727 6.527 6.197 5.817
3096.009 5.607 5.207 4.727 4.357 3.877 3.567 3.297 3.137 2.887 2.557
3115.299 2.427 2.157 2.117 2.177 1.997 1.897 1.947 1.867 1.707 1.577
3134.589 1.537 1.607 1.607 1.467 1.357 1.367 1.467 1.567 1.537 1.447
3153.879 1.407 1.337 1.287 1.357 1.477 1.377 1.357 1.507 1.467 1.427
3173.169 1.427 1.467 1.467 1.337 1.2097 1.267 1.277 1.1734 1.0545 1.0429
3192.458 1.1824 1.1376 1.0359 1.041 1.096 1.0511 0.9204 0.9032 0.8859 0.8018
3211.748 0.7269 0.7233 0.6748 0.647 0.6553 0.6731 0.793 0.7194 0.6068 0.6937
3231.038 0.59 0.508 0.6129 0.5242 0.5682 0.6437 0.5623 0.5216 0.502 0.5447
3250.328 0.5652 0.5196 0.3459 0.3899 0.432 0.30769 0.27796 0.30615 0.3291 0.25121
3269.617 0.3993 0.4985 0.3988 0.4133 0.5282 0.5778 0.5769 0.5973 0.5777 0.5651
3288.907 0.3477 0.2609 0.4295 0.4442 0.3678 0.3805 0.5557 0.5937 0.4658 0.4379
3308.197 0.4504 0.4577 0.5046 0.4728 0.4365 0.5228 0.4704 0.3387 0.3802 0.30391
3327.487 0.2086 0.3441 0.4139 0.5423 0.5113 0.4178 0.3843 0.3506 0.3775 0.28343
3346.777 0.30744 0.3429 0.28404 0.1644 0.22162 0.3369 0.2965 0.26864 0.253 0.3463
3366.066 0.3413 0.22218 0.24715 0.27737 0.3488 0.4396 0.229185 0.2072 0.3602 0.2156
3385.356 0.2122 0.27442 0.3155 0.233988 0.121 0.24372 0.4042 0.3602 0.29822 0.334
3404.646 0.3329 0.3274 0.29547 0.22224 0.178 0.2432 0.1579 0.1 0.063 0.022
3423.936 0.1792 0.26253 0.2886 0.3369 0.3704 0.4529 0.5344 0.5817 0.4625 0.345
3443.225 0.3447 0.28179 0.24541 0.3425 0.3854 0.3872 0.3731 0.3957 0.4326 0.3792
3462.515 0.4157 0.4327 0.408 0.4315 0.3734 0.2789 0.32079 0.3722 0.3947 0.4868
3481.805 0.3826 0.1967 0.119 0.1287 0.1879 0.22258 0.32513 0.423 0.3545 0.2037
3501.095 0.28262 0.3365 0.3588 0.3883 0.3425 0.3679 0.3953 0.31605 0.24691 0.31091
3520.385 0.3515 0.24295 0.1313 0.23946 0.29035 0.24289 0.25863 0.233207 0.1978 0.29452
3539.674 0.30337 0.25897 0.3677 0.3657 0.25508 0.1575 0 0.013 0.24121 0.3807
3558.964 0.3406 0.22259 0.3063 0.3678 0.2681 0.1802 0.30798 0.3529 0.1452 0.2036
3578.254 0.31724 0.26576 0.25061 0.24499 0.2118 0.25597 0.2937 0.30518 0.25113 0.093
3597.544 0.124 0.2101 0.3361 0.30375 0.1876 0.231374 0.30033 0.3823 0.3522 0.25044
3616.833 0.22448 0.26208 0.27126 0.29052 0.2887 0.2398 0.26581 0.4145 0.28011 0.1883
3636.123 0.2004 0.234924 0.3778 0.3748 0.27318 0.347 0.372 0.29729 0.29126 0.22398
3655.413 0.28219 0.1997 0.219 0.3848 0.30808 0.26194 0.27368 0.3459 0.4606 0.3872
3674.703 0.32551 0.31538 0.3761 0.32045 0.1365 0.1796 0.229979 0.3976 0.595 0.45
3693.993 0.3409 0.27193 0.1837 0.224 0.29697 0.4175 0.3831 0.25214 0.25697 0.28301
3713.282 0.1774 0.1683 0.25651 0.29265 0.2129 0.064 0.071 0.26621 0.3337 0.30551
3732.572 0.351 0.28157 0.3073 0.4115 0.3375 0.27451 0.29613 0.214 0.083 0.2154
3751.862 0.4314 0.3332 0.3559 0.3298 0.2699 0.4286 0.3597 0.2015 0.2163 0.1982
3771.152 0.28278 0.401 0.3529 0.31139 0.1457 0.017 0.085 0.121 0.2022 0.31714
3790.441 0.25855 0.2047 0.3425 0.3528 0.25822 0.3979 0.31754 0.2395 0.4111 0.4366
3809.731 0.4093 0.3463 0.3883 0.5486 0.5891 0.5184 0.3826 0.29463 0.32289 0.4509
3829.021 0.4535 0.4557 0.5206 0.441 0.3626 0.3371 0.3705 0.4375 0.5045 0.3916
3848.311 0.3813 0.5415 0.5035 0.4581 0.4482 0.4086 0.4519 0.5013 0.5758 0.4849
3867.601 0.3597 0.5128 0.6591 0.5725 0.4185 0.3625 0.4521 0.4709 0.3489 0.3697
3886.890 0.4462 0.3689 0.3526 0.4534 0.5001 0.5484 0.4273 0.3315 0.31162 0.3323
3906.180 0.3434 0.4209 0.5718 0.5479 0.5111 0.4438 0.32323 0.4646 0.5015 0.4263
3925.470 0.5205 0.4242 0.445 0.6092 0.6772 0.6315 0.6325 0.711 0.6984 0.5232
3944.760 0.373 0.386 0.4722 0.6258 0.61 0.5258 0.5189 0.4972 0.5505 0.5765
3964.049 0.4543 0.5442 0.6673 0.6124 0.5298 0.4952 0.5538 0.4507 0.3726 0.4217
3983.339 0.3591 0.3837 0.403 0.4482 0.5216 0.4488 0.4286 0.5752 0.6893 0.5774
##END=
