##TITLE=Sulfur Dioxide
##JCAMP-DX=4.24
##DATA TYPE=INFRARED SPECTRUM
##CLASS=IUPAC A
##ORIGIN=NIST, Anayltical Chemistry Division, 301-975-3108
##OWNER=COPYRIGHT (C) 1998 by the U.S. Secretary of Commerce
##DATE=98/10/1
##$SPECTRA VERSION=1.00
##$UNCERTAINTY IN Y=2.1 % relative (B=1.1E-04,C=7.6E-10,D=2.7E-14)
##CAS NAME=Sulfur Dioxide
##CAS REGISTRY NO=7446-09-5
##MOLFORM=S O2
##MP=-72.7 C
##BP=-10 C
##$NIST SOURCE=QUANT-IR
##SPECTROMETER/DATA SYSTEM=IFS66V (Bruker)
##INSTRUMENT PARAMETERS=KBr Beam splitter; MCT Detector; Multipass cell
##STATE=gas
##SAMPLE DESCRIPTION=Sulfur Dioxide Primary Gas Standard
##PRESSURE=101.3 kPa
##TEMPERATURE=23 C
##SAMPLING PROCEDURE=1 L/min Flow
##RESOLUTION=0.9640
##DATA PROCESSING=Triangular Apodization
##XUNITS=cm-1
##YUNITS=(micromol/mol)-1m-1 (base 10)
##XFACTOR=1.0
##YFACTOR=4.5474E-13
##DELTAX=0.4820
##FIRSTX=575.169
##LASTX=3975.077
##FIRSTY=.0000161
##MAXX=3974.59
##MINX=575.17
##MAXY=.0009735
##MINY=-1.38E-06
##NPOINTS=7053
##XYDATA=(X++(Y..Y))
575.17 35497080 28669020 26699360 24465950 22270230 20667340
577.58 21327340 26268570 31704050 27293000 22809930 21361900
580.47 20716790 19328990 17987240 18225910 20479260 22115430
583.37 18815160 18390180 18052950 16654460 15592170 14797290
586.26 14861920 16590320 18885410 15401700 12771650 13639530
589.15 13212740 13097550 12999780 11695400 12096230 14098370
592.04 12362720 10599840 9869328 9136640 10135410 10609760
594.94 9233150 8489394 9593736 8784374 7865668 7687680
597.83 7052592 7205126 7761170 7660712 7222368 7946660
600.72 7336204 5966256 5930044 5595764 5331812 4417344
603.61 4262058 4853818 5464296 5990262 5210654 4870050
606.51 4682034 3783308 3132448 3034858 2631124 3627066
609.40 4246294 3492706 3446358 3130732 2589246 2407988
612.29 2444362 2468232 2724176 2895682 2715768 2528608
615.18 2231304 1988458 1946192 1948526 1984278 2041390
618.08 1730610 1452148 1600426 1508038 1488448 1408120
620.97 1437438 1348746 1083726 896038 763552 794548
623.86 599902 767424 658126 406138 757512 775022
626.76 826970 967862 321138 332108 1050922 487522
629.65-1424 171306 573420 1157932 1031896 423446
632.54 169276 70644 28750 156990 238780-24514
635.43-318278-185944 19596-194944-452434-364550
638.33-297960-83716-175768-302124-49238-187712
641.22-174228-400738-352666 77130-140028 89210
644.11 129142 103574-52922-513338-586186-411580
647.00-429930-232782 46928 219610 196922-161764
649.90-348712-524126-607804-557728-497574-462924
652.79 79658 236810-47192 25762-93574-170556
655.68-243740-204958-281058-206878-236306-657940
658.58-509182-175812-217474-416820-392912-162616
661.47-106166-252270-242642-413372-561220-574022
664.36-758260-841468-612014-263730 114512 4141836
667.25 7635708 5201990 2049026 820920 312986-233884
670.15-229750-380636-600164-443752-192458-345318
673.04-789284-587188-205832-141306-212514 16242
675.93-31324-503396-400274-191156-656474-695790
678.82-232952-239952-477714-493116-471416-240738
681.72 226798 32230-329588-303884-259494-306228
684.61-288114-177628-164336-166764 42710-30542
687.50-287628-325020-559030-561208-582416-589944
690.40-457802-250866 128242 49096-351838-364758
693.29-517798-607070-271808-192842-401918-629186
696.18-603830-585178-393730-151808-180202-356648
699.07-339298-96300-39624-66966-394716-672700
701.97-616684-599372-409526-204678-318816-190908
704.86-243548-339874-518436-970774-718932-589424
707.75-831698-720900-324864-255236-620704-639658
710.64-624972-748762-479884-533670-712924-602670
713.54-509366-544956-594464-523332-407566-399194
716.43-691024-912250-927478-912646-610594-210978
719.32-229634-476026-488292-539100-703644-570536
722.22-429930-427750-344804-478052-647774-452716
725.11-322450-601246-822074-684852-501162-491050
728.00-490140-295012-395186-617598-665872-592720
730.89-579784-695744-518946-547708-641320-431666
733.79-633746-634450-340472-260834-368406-693942
736.68-716618-503408-400082-500690-612090-598066
739.57-450482-416154-501146-410932-347988-544260
742.46-614632-689496-649862-336972-271852-274116
745.36-354764-449988-472674-473102-565136-759952
748.25-591252-333610-433028-399564-253508-387864
751.14-266690-153688-312496-462744-468334-391108
754.04-478118-511836-674844-608354-364474-382642
756.93-483186-456740-284902-272804-317258-540412
759.82-422342-203148-462190-730006-740494-699320
762.71-646030-473294-492622-497354-468308-473214
765.61-537892-546736-474500-553492-696604-480060
768.50-306354-580148-797422-635490-408332-582552
771.39-494496-307790-412302-316848-257376-342564
774.28-448480-399942-505536-713728-675726-669600
777.18-590872-580286-684964-630334-412518-375220
780.07-348752-433138-684938-531818-415150-371122
782.96-246460-325394-473624-346604-502446-552084
785.86-416842-565364-526946-687216-871124-804882
788.75-620254-548500-659838-680724-444886-294720
791.64-481032-616624-465202-461604-541984-374444
794.53-599736-649396-359884-356240-246914-372744
797.43-615100-607898-322078-277482-561822-638624
800.32-793904-580462-501028-769994-671778-660398
803.21-622652-545934-215384-39458-330886-574474
806.10-366198-317644-530102-340546-330580-372616
809.00-559830-602432-507598-640632-561854-486986
811.89-495142-472726-469356-384648-557548-743494
814.78-451850-379242-376858-263484-329700-380696
817.68-236284-474910-867264-503504-343582-303056
820.57-171302-371068-458814-562102-699144-403226
823.46-162572-470542-506916-428502-508914-612474
826.35-662370-348600-243116-410300-514906-526802
829.25-527978-510736-418830-508166-552662-566010
832.14-601816-217062-288044-647046-638006-747252
835.03-779062-526398-388480-365158-397826-455532
837.92-397192-483660-478902-352896-321088-447566
840.82-347542-473446-539438-374746-465174-513230
843.71-656208-677084-784124-827080-577152-408024
846.60-363152-346380-564010-691140-456492-511836
849.50-634760-470836-569134-652674-462288-495398
852.39-558082-528340-565970-548718-615970-693972
855.28-736510-490874-251978-353712-504550-580672
858.17-521324-340380-267450-373948-456736-542768
861.07-446700-502768-649792-417030-234188-298814
863.96-395256-446092-491332-429272-483664-573766
866.85-479454-380492-381066-437020-434532-451016
869.74-582080-618298-531298-481520-451164-357554
872.64-370036-504326-536312-602884-571584-401790
875.53-381172-351998-294022-396816-462266-446166
878.42-489758-488822-475796-388712-276022-333294
881.31-349496-467628-536338-528550-495440-357488
884.21-433488-401946-377190-482356-354886-182860
887.10-315298-522656-505796-501382-453400-469092
889.99-483436-434610-571256-629496-642082-632640
892.89-456966-471298-496114-457352-456368-433906
895.78-408238-427086-463702-467684-430576-360474
898.67-451850-504706-357890-328806-414838-497816
901.56-464886-350188-392092-399738-266852-154340
904.46-224104-382032-390210-400298-580982-519236
907.35-447394-467554-434938-324976-259248-341780
910.24-513552-648494-466698-377486-409856-459800
913.13-421910-376346-385302-349894-249418-201354
916.03-278426-278668-265152-485892-600666-566166
918.92-563344-553060-603056-581002-467710-480744
921.81-555944-577638-651148-494688-421850-459274
924.71-338758-333138-532156-533792-473650-458840
927.60-433794-514644-571356-612216-485914-321788
930.49-318060-358028-443744-495798-395812-413380
933.38-494340-542826-548278-469216-390254-274286
936.28-348710-464326-516682-556952-536096-489126
939.17-392610-429078-478260-534118-537934-592006
942.06-687816-541554-441990-416430-345678-425668
944.95-537056-533846-487956-518798-505806-462102
947.85-488770-450004-349338-310906-427772-476764
950.74-403066-416788-524524-482148-360074-390080
953.63-415516-381730-437378-445502-423930-452200
956.53-494680-555592-582934-458602-366762-500588
959.42-531066-472936-459308-543156-482258-380682
962.31-477454-411152-390204-396734-291296-377594
965.20-559124-516154-433480-461616-465156-391662
968.10-385632-469576-485430-524364-408270-319152
970.99-293340-220712-283078-422140-510172-393734
973.88-420932-436842-393946-373032-262378-250946
976.77-272200-369564-396158-460852-450438-423882
979.67-452564-386666-462094-455514-405708-434022
982.56-402050-387722-403814-519246-512570-293572
985.45-231204-376840-397272-419080-446542-344598
988.35-350410-393008-504962-570082-446214-499174
991.24-520350-426970-496666-461840-320236-338956
994.13-460220-479952-369404-357246-489310-502652
997.02-349278-348728-384222-390784-442052-479346
999.92-491246-300694-282708-464854-576562-470664
1002.81-319438-477850-472504-362646-401002-350770
1005.70-416560-423596-353796-468124-497318-478812
1008.59-491128-451616-392050-409494-450390-399118
1011.49-419522-434682-348408-356832-338468-352152
1014.38-542426-528746-420122-425112-561016-443898
1017.27-309352-481910-472904-319112-348520-549172
1020.17-466464-329280-262966-251932-368340-438228
1023.06-462444-599364-569732-353834-340456-387414
1025.95-365946-380864-400502-359408-372968-424432
1028.84-424532-390110-343708-293654-241764-227434
1031.74-300684-292150-219048-309484-309150-313690
1034.63-330340-430456-500930-410598-504558-370400
1037.52-214878-185442-100880-35448-142400-238108
1040.41-198192-122838-59974-86594-75688-53970
1043.31-123732-182234-76722-117702-131638-41262
1046.20 31976 22484-16704 39146 9238-10816
1049.09 95020 161860 119048 112310 291506 358638
1051.99 324070 450472 473980 405692 392404 347784
1054.88 371680 440542 562692 526112 535052 662534
1057.77 705994 850426 959264 1086754 1119892 1077886
1060.66 1157080 1353694 1502810 1584480 1620400 1707708
1063.56 1814444 1724926 1763206 2050234 2158920 2182632
1066.45 2396090 2535768 2521372 2706310 2971140 3162120
1069.34 3316246 3467562 3634818 3685366 3698122 3906664
1072.23 4055542 4265332 4640046 4972918 5300668 5222126
1075.13 4991492 5342416 5836960 6110678 6441306 6767010
1078.02 6823052 6810406 6999940 7374888 7925438 8410160
1080.91 8699692 9184694 9356360 9150382 9482864 10166010
1083.81 10613540 10967660 11444790 12179680 12422850 12153110
1086.70 12249910 12769810 13581510 14370470 15292870 16084210
1089.59 15974960 15156700 15323500 16443920 17378150 18559910
1092.48 19736590 20220750 19330260 18502770 19523150 21335960
1095.38 22596890 23496540 23767700 24022610 24190130 24150440
1098.27 25441860 27140270 27704560 27048770 27654630 29411530
1101.16 30253720 31009760 32194270 31918520 30526400 31045280
1104.05 34182340 37813780 39082120 38470410 36599780 34964800
1106.95 36270320 40101840 44312610 48407460 47951020 41082360
1109.84 37579400 40566550 46211140 51264740 56691960 55193980
1112.73 46790670 44387680 46833300 52061560 61431230 68881910
1115.63 63125070 53637940 53915620 56318520 62153840 71939920
1118.52 77520390 67647460 58666820 61480510 66886360 76033990
1121.41 85252990 91561270 78951140 62468060 65271520 80731810
1124.30 96105830 106129300 112128500 92457720 67677260 66846800
1127.20 79288240 103273100 130073600 141869700 112600600 78877540
1130.09 76383280 85025050 95862450 136528500 173113200 140670500
1132.98 99877460 85830140 89543000 102727500 118047200 162464100
1135.87 165090000 116109600 101489100 103970200 106393200 108012100
1138.77 132190400 149418400 123843300 110141000 110055500 107875700
1141.66 94987540 91672920 109920600 113609800 108515800 99932310
1144.55 76637680 67681140 73721740 77390120 88444940 74912300
1147.45 53970080 51296670 54203650 57488360 54430210 49265860
1150.34 47048540 49048950 47689230 50052980 54752320 54214200
1153.23 59780900 64317790 61910880 67079700 93613080 102202200
1156.12 90508670 100750100 114876000 117701000 119110900 125668900
1159.02 128438700 134804900 148348200 128741800 111568300 120371000
1161.91 125831700 159354400 179882600 153223500 123553300 118221300
1164.80 135818400 151530300 164251400 165754600 143236000 125568700
1167.69 117485800 121365400 134112900 148445800 154699100 133795900
1170.59 109737300 104550800 104539600 110875600 122166400 125543400
1173.48 105944500 88896180 88648820 90074570 99711160 115031900
1176.37 114247400 88798860 70756080 69182190 73173750 78462860
1179.26 84687380 88683940 73370130 58711240 58154540 65925390
1182.16 76722660 83126140 80851180 61781210 50342140 51262170
1185.05 51639420 57742750 67429990 67167600 56163170 50587990
1187.94 48867040 49391930 52902560 59685750 61968220 51428550
1190.84 45085540 44294990 45708970 47271070 48864330 47707040
1193.73 43832340 42495210 42171440 42462670 43661650 44629760
1196.62 41341260 36908500 36849170 37914120 37999910 38684040
1199.51 37852320 34293960 31406180 30430650 32042400 33863100
1202.41 33984050 32683690 29744710 27705130 26524900 26084200
1205.30 27572560 28831020 27072180 24642810 23551930 22852650
1208.19 22422630 22087050 22567340 22600970 21294040 20214550
1211.08 19560880 18911690 18338200 17449920 17014250 17297580
1213.98 16898950 16359990 15982530 15082490 13773770 12925710
1216.87 13230980 13716050 13359680 12620700 11784450 11006750
1219.76 10405780 10008560 10329950 10759670 10309950 9504504
1222.66 8848522 8266262 7828988 7684664 7814322 7629474
1225.55 7179344 6897848 6555760 6224372 5875826 5639544
1228.44 5777830 5648086 5323474 4968778 4639258 4477434
1231.33 4096590 3955600 4065628 3863370 3617774 3508250
1234.23 3309628 3128644 2930496 2853114 2904086 2694120
1237.12 2451550 2273218 2228170 2000760 1836410 2022694
1240.01 1978690 1843098 1608060 1506386 1446804 1310290
1242.90 1344170 1283458 1240534 1143956 1109316 1079120
1245.80 932192 892232 882902 829594 729872 659476
1248.69 645476 652152 631908 637832 633236 588902
1251.58 471050 317336 337594 380908 357012 299242
1254.48 310788 313554 253966 196176 154930 132252
1257.37 202144 234048 241156 263820 325606 282592
1260.26 199102 237270 183012 133794 74768 48010
1263.15 74266 45482 47634 90750 186998 241536
1266.05 130018 32898 96798 97766 87772 136102
1268.94 100530 93008 152796 198040 119232 18286
1271.83 74788 129782 149350 106342 146460 276574
1274.72 246652 184442 175082 182244 189526 166614
1277.62 152688 194030 314426 308528 340158 429406
1280.51 360098 334108 285638 252096 321996 357764
1283.40 411122 397338 401052 448102 551708 542106
1286.30 510050 532630 506800 577282 699072 748116
1289.19 739558 707950 682298 770996 936072 998280
1292.08 989790 1000650 1056476 1164224 1273106 1296726
1294.97 1415062 1574478 1691066 1849422 1953206 2139644
1297.87 2342388 2535654 2855896 2969094 3077778 3485850
1300.76 3786336 3919598 4344522 4870540 5194970 5593422
1303.65 6260018 6802642 7216402 8140344 8976370 9287536
1306.54 10220140 11481210 12233910 13304020 14841080 16031600
1309.44 17244800 19023670 20718070 22390390 24779340 26812870
1312.33 28856140 31920700 34308530 36722210 40853970 43967660
1315.22 46547590 51825410 56428210 59039560 65139140 72121230
1318.12 74822530 80960390 91494820 95355190 100523300 114569000
1321.01 120511600 123959000 141184400 151400400 153405000 172349000
1323.90 188944600 190315200 208040000 231703800 235143800 249874300
1326.79 280729300 290151300 300025400 335291200 354137600 359364500
1329.69 396096000 426903100 429857600 463286300 507626200 513002800
1332.58 537762000 597335200 608999700 618613400 693895200 714640300
1335.47 708634600 799000100 829444800 808526000 908117600 950387300
1338.36 918023700 1021498000 1079727000 1035207000 1134895000 1208572000
1341.26 1148923000 1249389000 1337067000 1259215000 1360105000 1444908000
1344.15 1328725000 1386087000 1436362000 1321967000 1407412000 1468870000
1347.04 1348826000 1429712000 1475326000 1341119000 1429384000 1449825000
1349.94 1312449000 1403005000 1379490000 1260411000 1343193000 1285975000
1352.83 1189213000 1250152000 1186237000 1134923000 1209870000 1165477000
1355.72 1168888000 1257342000 1232334000 1255128000 1313842000 1363423000
1358.61 1535013000 1717176000 1890887000 2074069000 2140793000 1856612000
1361.51 1071683000 475057800 346194700 332957700 380292600 408543300
1364.40 480670100 585191200 638324500 781722800 893098800 979041100
1367.29 1170116000 1217527000 1341621000 1472451000 1463765000 1625452000
1370.18 1633919000 1661440000 1788829000 1699512000 1819267000 1793599000
1373.08 1756824000 1852324000 1714978000 1793610000 1728158000 1665964000
1375.97 1713812000 1564397000 1608099000 1503261000 1453070000 1437991000
1378.86 1306372000 1323121000 1196293000 1169167000 1101353000 1016671000
1381.76 988954200 888655700 861430000 776752600 734233100 675525400
1384.65 615482000 577436200 515001800 481010200 429762500 393669000
1387.54 353915400 319885200 286299900 255839300 229294500 202077800
1390.43 180818200 158760600 139577100 123437300 107025800 93781480
1393.33 81782850 70814010 61611270 52785750 45160870 39003300
1396.22 33190300 28414190 24437710 20824670 18347200 15497500
1399.11 13489660 11611840 10164700 8959294 7821770 6838410
1402.00 6109628 5414672 4929800 4483222 4066714 3687866
1404.90 3338884 3056404 3159882 3094412 2846592 2608970
1407.79 2470964 2302744 2130648 2140782 2291300 2178770
1410.68 2006660 2089010 2236756 2026448 1814380 1744664
1413.58 1863488 1781116 1419944 1327334 1360084 1344240
1416.47 1338084 1288866 1339496 1341236 1189696 1169404
1419.36 1238760 1183384 1094068 1172564 1323136 1163450
1422.25 955744 873952 909088 871838 857742 921184
1425.15 921744 815242 703984 658036 673846 727368
1428.04 659118 558164 580194 669566 646128 603920
1430.93 662146 616752 576990 528436 449864 458634
1433.82 442662 371542 312406 293512 343542 338908
1436.72 342908 354112 419602 430374 318144 190010
1439.61 200820 272058 263254 269162 246970 168440
1442.50 236568 312302 265870 241768 296602 253624
1445.40 171916 154074 111040 81650-12892 9500
1448.29 137876 64554 22448 109376 141038 45606
1451.18 63476 79412 50686 84086 102914 49792
1454.07 4366 74026 53628 28952 67678 36246
1456.97 10462-35312-42442-48534-74718-93030
1459.86-53788 64090 103720 86946 63126-6926
1462.75-96192-149758-135316-82562-136298-140624
1465.64-12262-64250-124488-91370-76242-120096
1468.54-126852-27604 36752-61984-169816-126646
1471.43-61394-88500-129050-196480-241194-212038
1474.32-173424-190152-208840-201374-168388-169994
1477.21-205376-192152-150800-99132-115122-59264
1480.11-59496-190320-192200-88984-109298-137858
1483.00-137814-245122-232738-235756-290892-277972
1485.89-249614-183234-137184-119922-169810-265526
1488.79-288036-255694-225034-233258-195240-175682
1491.68-238334-206834-185832-247070-253064-323754
1494.57-289686-253904-254102-188888-255322-312102
1497.46-310470-240952-187454-226276-225140-181506
1500.36-236836-306980-219742-173842-209968-224632
1503.25-191044-248430-316038-298846-272662-252848
1506.14-260736-284268-261536-272220-285390-223522
1509.03-250462-300288-279084-202652-161296-201700
1511.93-281676-256396-176278-152570-142868-182478
1514.82-238426-235582-203044-196008-242120-238092
1517.71-177578-277070-249878-169936-158702-118154
1520.61-109374-140450-213100-253572-222676-87270
1523.50-20260-68444-101770-151238-187760-158536
1526.39-137332-131572-166438-178376-177996-138158
1529.28-87780-93176-185748-188972-125994-136914
1532.18-94876-114786-129958-135974-168124-211482
1535.07-213412-152418-149210-186116-167542-156024
1537.96-95864-60840-116602-167002-116708-26450
1540.85 12094-42438-113418-105178-81662-102658
1543.75-164620-184942-164968-122498-149928-251298
1546.64-241008-208768-265874-306248-362724-389534
1549.53-396252-399826-385398-403970-349306-314502
1552.43-412462-412690-371392-422694-430748-389162
1555.32-346260-343542-342002-344988-355388-415868
1558.21-421348-331350-356640-398642-401492-379488
1561.10-401266-467298-425350-371558-379122-379390
1564.00-363452-393472-389010-353188-426178-425136
1566.89-395790-416866-376990-357154-387350-330790
1569.78-320896-394644-399420-378950-356822-373290
1572.67-372948-366000-367612-415440-427372-356058
1575.57-428704-516498-403686-366294-401602-343708
1578.46-381244-438482-437836-463494-413782-393922
1581.35-449612-439962-369082-315820-289214-368714
1584.25-458520-453574-408048-364340-389484-369760
1587.14-314112-296540-282148-303286-346684-403778
1590.03-382184-352344-471282-472352-411958-446018
1592.92-438084-382508-368294-393170-411182-412074
1595.82-361268-361452-389506-385692-438586-463742
1598.71-391314-374204-399310-336214-353276-392156
1601.60-369798-376414-394006-378300-368248-460570
1604.49-472260-362558-365590-402422-331916-367328
1607.39-413646-357316-327928-348712-409844-402272
1610.28-381408-406300-430616-432362-402560-365024
1613.17-398660-470942-403626-378160-363602-375458
1616.07-411570-389322-350834-401336-427628-363360
1618.96-344740-335622-247714-288106-313478-266610
1621.85-306226-257896-272662-333948-409854-469932
1624.74-467554-467562-410660-364328-375770-395320
1627.64-430766-398314-408380-415150-329100-314714
1630.53-351900-351044-400250-409736-379630-404312
1633.42-356950-332970-375780-376614-314896-310226
1636.31-368880-425806-469154-440226-367188-366852
1639.21-416044-376038-285764-233668-271966-325902
1642.10-405996-381968-316348-314006-343582-411206
1644.99-472768-489404-363064-348534-401174-328866
1647.89-290246-362584-397476-406454-468508-398094
1650.78-317512-346754-382828-439820-385200-273864
1653.67-266436-370916-381962-329748-321402-309326
1656.56-324598-311744-312518-343744-399282-417892
1659.46-391570-345864-326872-377160-366288-313552
1662.35-340394-402140-433542-376996-332830-364630
1665.24-378042-350466-359654-363692-384440-423562
1668.13-360558-304458-354204-331010-282792-313606
1671.03-339890-389198-373818-369470-354028-305086
1673.92-367208-363712-259454-279252-319138-264996
1676.81-253910-258898-181570-253504-335364-287862
1679.71-277846-298608-281108-284560-261184-269360
1682.60-314078-308632-312282-305228-279970-276072
1685.49-239564-279664-334336-293798-323040-311224
1688.38-371824-443534-354060-289220-326608-308234
1691.28-307430-315792-339058-317942-237430-348066
1694.17-393770-366948-397388-377810-378636-376034
1697.06-323456-289192-302150-339056-358706-407012
1699.95-442606-345080-229210-273030-371356-415176
1702.85-412682-376320-349060-393260-447760-394116
1705.74-308986-261954-301884-382148-378546-343732
1708.63-353298-366298-364016-359846-375380-449160
1711.53-425188-335452-326358-305780-329036-374120
1714.42-344098-297720-352044-446426-388712-362856
1717.31-372428-374956-382958-357234-319854-286156
1720.20-317818-312088-357442-374642-290512-317972
1723.10-350748-314916-346680-335122-290434-290220
1725.99-327712-396304-383060-365116-425796-402780
1728.88-340650-292376-323842-378590-377322-334548
1731.77-310140-370636-336456-359252-417162-422480
1734.67-364472-369580-414632-333768-324898-341704
1737.56-328208-373104-360118-303774-316860-292516
1740.45-274258-350194-415838-395690-367282-391170
1743.34-377530-338636-310872-369698-424392-380004
1746.24-396834-392896-335392-356220-416202-423604
1749.13-394640-387110-417528-459078-401068-346996
1752.02-385680-392094-394348-444430-468800-376050
1754.92-380412-405206-376154-399366-326862-323772
1757.81-343310-296160-350688-394570-405342-426658
1760.70-442698-462516-391464-334340-370848-387712
1763.59-326158-351542-363056-344628-447178-446802
1766.49-371952-348012-368812-339016-288826-347414
1769.38-411442-387770-314718-301666-353190-392100
1772.27-409104-460744-509098-455900-380734-353988
1775.16-334792-311916-345650-329366-323666-391156
1778.06-394640-378860-308248-313812-373372-369884
1780.95-425084-414812-413770-432694-384996-370882
1783.84-399986-394214-354324-358686-368108-351520
1786.74-345698-376466-389708-383952-348990-357054
1789.63-385284-380336-388902-390938-408686-390858
1792.52-360592-354592-336512-344180-411140-466174
1795.41-409732-313968-283322-378730-399082-315816
1798.31-348384-427204-420748-383560-369060-422606
1801.20-462572-407898-406946-368400-337588-398548
1804.09-358742-352596-443914-401388-323388-375920
1806.98-369650-379436-390896-383388-371392-337584
1809.88-345120-342916-304662-310556-288188-298682
1812.77-365056-356364-360470-386626-420470-476596
1815.66-373126-256058-330208-420168-476598-344936
1818.56-281440-388476-322846-201382-322440-417016
1821.45-410582-326246-300120-406340-291888-218928
1824.34-344148-324776-315420-254312-228240-320466
1827.23-169358-126516-303436-408336-390244-238898
1830.13-239400-304438-123602-190872-397656-374216
1833.02-319590-153030-156694-249344-55370-178692
1835.91-360100-285172-292536-115590-179576-154220
1838.80 42250-166532-255716-313150-288778-121446
1841.70-166288-16298 69320-191428-224050-211904
1844.59-158424-81188-75828 100614-44808-227714
1847.48-208778-215438 8182 72368 117298 189060
1850.38-67278-166200-118068-65196 31208 161954
1853.27 315652 125050 7298 25566-65150 24132
1856.16 210984 316348 219298 47066-16846 28378
1859.05 118834 186946 368838 402292 153158 63064
1861.95 66470 22628 116104 310774 275892 140356
1864.84 60236 2134 79066 107808 181854 191210
1867.73-32082-120684-90312-157982-224790-120554
1870.62-24634-127970-236116-224548-235648-288972
1873.52-227746-93570-23086 239346 549350 452074
1876.41 210790 83802 17836-87770-159752-214880
1879.30-191864-40982-9920-88694-75372-49982
1882.20-22424 41998 37518 205804 158606-44478
1885.09-78490-89744-88394 84972 407620 168168
1887.98-55068 5040-2682 10744 343594 487116
1890.87 166240 48852-32318-90408 3958 433896
1893.77 412784-10394-85168-60844-59550 181566
1896.66 410272 86580-183168-217668-225730-38976
1899.55 362690 305676-123586-247600-222134-206486
1902.44 167754 302872-57868-226548-257134-240688
1905.34 17150 208648 40156-210620-290928-280500
1908.23-14958 249424 82044-200136-342774-390532
1911.12-168510 126746 8724-229846-298064-318528
1914.02-185114 47968-23238-171842-288776-383832
1916.91-179308 6164-139640-198712-247420-337780
1919.80-230326-114360-167090-262584-396352-411152
1922.69-211022-143978-268078-317994-375714-288766
1925.59-130784-227756-316148-313458-347882-260868
1928.48-199112-277498-344076-428058-438056-275086
1931.37-245108-332194-342348-371020-391682-306720
1934.26-324540-343382-308036-372050-322580-304218
1937.16-353516-298632-358674-417940-293084-284726
1940.05-335008-321218-364020-332544-327728-383496
1942.94-403074-435488-376878-408366-444648-377454
1945.84-428572-464638-352900-296036-365128-435230
1948.73-453416-417262-427850-451874-394104-386282
1951.62-416132-384070-350844-420484-513290-495696
1954.51-449224-464766-400454-364968-445532-448772
1957.41-427724-424896-412360-409316-452400-383840
1960.30-335596-367826-416480-443356-380812-413068
1963.19-458204-457078-461478-419274-356108-392900
1966.08-389024-376212-433522-441894-447288-417238
1968.98-357958-397492-488006-520420-490218-425290
1971.87-354650-369222-385184-383654-427610-428962
1974.76-421074-434910-393702-401582-435544-436718
1977.66-460110-412190-426300-441854-463470-517846
1980.55-458236-350764-312244-390036-464762-478796
1983.44-444988-425016-410994-393604-412884-427176
1986.33-356868-383774-432250-447234-503712-434440
1989.23-404634-410188-369856-308214-309580-426298
1992.12-450680-405794-436228-451070-441414-433764
1995.01-394660-403716-394476-428346-467336-400648
1997.90-374148-434094-421636-411938-415326-347630
2000.80-375074-354334-364616-462600-466730-437952
2003.69-439602-464696-460592-429250-390352-349838
2006.58-348816-360526-400598-456988-442438-378136
2009.48-428908-479736-431484-407946-362698-303104
2012.37-324616-376686-400380-364210-345366-348366
2015.26-350098-398796-412372-426080-438772-403836
2018.15-351294-405592-490120-487130-468418-496240
2021.05-459910-392048-369650-333948-391650-445658
2023.94-385318-396220-395090-358298-397746-382992
2026.83-384406-380288-377964-428046-455250-415458
2029.72-354852-365546-353192-380056-343938-324230
2032.62-351016-306138-286212-296584-282140-211850
2035.51-192192-243010-248358-255824-192948-213138
2038.40-251230-173878-176024-141400-118320-86542
2041.29-46450-62572-74074-57316-43942-48946
2044.19-15774 36436 88958 85240 113138 115280
2047.08 128648 226468 155654 101030 179090 182588
2049.97 142942 144640 204834 209306 185108 152732
2052.87 135302 164790 83822 71446 120304 91594
2055.76 153724 210086 146566 83514 20406 10810
2058.65 12242 53308 35470-107612-198150-236096
2061.54-265590-240788-225330-204374-63420 121180
2064.44 54994-5338 125930 155864 189256 265070
2067.33 197282 243904 439044 429708 405886 460938
2070.22 419470 370156 424918 400920 380000 552588
2073.11 492562 282134 241814 181806 122796 140778
2076.01 80328 97768 283586 165300-42834-81482
2078.90-158872-137800-129570-199200-167436 20220
2081.79-45274-276946-354366-397958-303256-253352
2084.69-333424-368674-63680-65564-340778-337700
2087.58-379134-425272-379162-390346-319788 71352
2090.47 5280-274134-280430-329846-403296-399690
2093.36-431988-226504 171370-100258-364678-326320
2096.26-309958-343506-350254-377496-16282 329664
2099.15-114468-401290-443666-419714-297186-317434
2102.04-337948 194362 259868-291892-408378-387944
2104.93-436184-425182-450152-152068 396736 52858
2107.83-326164-285102-325344-416874-423252-353786
2110.72 165586 316388-273258-409104-355092-340994
2113.61-345110-402734-98260 480918 91922-442458
2116.51-468656-421870-350100-304928-294536 199570
2119.40 290810-304484-427636-365344-403162-363874
2122.29-363736-8686 434244-37610-375810-350602
2125.18-371560-349500-379474-153294 284470 30370
2128.08-307826-305822-398770-430728-403298-284176
2130.97 79590-13570-397944-440326-475574-435438
2133.86-344660-310374-87136-125274-373780-364708
2136.75-366060-424282-396836-293006-206894-244568
2139.65-388388-436880-456960-445484-434880-483920
2142.54-474046-378180-405852-399560-362770-391858
2145.43-401924-395076-240866-297528-431306-385470
2148.33-416330-420130-434548-349064-107472-152760
2151.22-332232-314438-371508-402924-437236-175030
2154.11 183594-167944-414698-390264-396268-368328
2157.00-346582 166386 368568-210570-427002-387478
2159.90-356776-411892-239584 365072 110762-333644
2162.79-335138-386428-301984-345042 178342 613976
2165.68-80994-413402-367842-361254-324318-118638
2168.57 540772 269894-356720-408338-433976-389850
2171.47-368850 220850 455236-173278-358516-411596
2174.36-354628-338970 26334 571814 44426-400778
2177.25-415316-359904-408844-156500 552906 168218
2180.15-422774-417502-380264-368580-265058 349412
2183.04 226236-369614-414328-421588-390096-309994
2185.93 145098 130300-309382-417298-401694-290178
2188.82-267092 143208 70246-419166-405896-386904
2191.72-404870-324210 120492 64402-361082-426408
2194.61-470860-505672-397932-25830-164692-497780
2197.50-468630-397592-375910-208288 10468-196602
2200.39-426212-439416-386740-392400-309084-236958
2203.29-383884-518066-487130-393108-377572-204670
2206.18-188312-298620-332840-347398-377806-354172
2209.07-280772-433790-465474-397644-429084-381056
2211.97-272380-349630-392374-401474-472880-521182
2214.86-427536-291718-369438-457290-436878-425538
2217.75-427330-375840-414970-443262-379872-400180
2220.64-392026-340310-440084-491510-479530-560374
2223.54-478274-389710-410978-407240-423248-407204
2226.43-430786-377630-376668-442080-394348-403142
2229.32-470152-411314-365524-377074-269814-244958
2232.21-289104-255596-249202-287410-263638-257270
2235.11-268196-316148-321904-277624-354330-365402
2238.00-275480-164796-139220-191812-205424-230510
2240.89-212548-237366-335766-381264-314832-286728
2243.79-306296-277412-190290-98478-61514-58564
2246.68-108258-110460-106406-178904-177168-160114
2249.57-163940-133416-139010-55800 107992 237806
2252.46 255274 237490 106830-21008-8816-31944
2255.36-16498-48428-121528-138040-113142-11150
2258.25 226532 397722 435336 390344 242766 287564
2261.14 326638 145024 145850 233670 140608-39452
2264.03-60126 220044 520440 645566 697250 666480
2266.93 565962 580718 691378 636828 756202 865304
2269.82 627578 402908 268854 249870 505616 852496
2272.71 1032020 1018182 743010 705198 1063552 1049226
2275.61 900642 1075216 948346 628718 495692 472810
2278.50 742480 1246726 1615852 1275032 633840 571990
2281.39 724454 672420 807164 1407200 1617876 1158942
2284.28 621212 535562 599946 365140 786614 1326842
2287.18 1143588 741840 497500 482332 554230 607386
2290.07 741758 827818 565072 312760 256150 302806
2292.96 430228 306370 364502 471174 408562 472318
2295.85 535062 448774 383672 577190 769198 551734
2298.75 787016 1352050 1666678 2033082 1911056 1607484
2301.64 1641968 1737018 1690496 1752680 2071374 2364516
2304.53 2029566 1641906 1782708 2485234 3149040 2814760
2307.43 2332176 2251128 2727930 2651738 2252382 2408068
2310.32 3007968 2715130 1949766 1788576 2665116 3540544
2313.21 2765842 2093146 2478200 3287400 2442950 1473188
2316.10 2151730 3778670 3176706 1590308 2129076 4004484
2319.00 3530974 1487678 1846922 4219162 3954420 1612890
2321.89 1975034 4613526 4401270 1685062 2239452 5287514
2324.78 4732464 1486598 2365318 6004298 5090682 1657232
2327.67 3349906 7029172 4945980 1452580 4354964 7632304
2330.57 4230080 1554552 5784018 7673824 3001144 2281912
2333.46 7501790 7090796 1989218 3815086 8385400 5222604
2336.35 1735112 5977672 7891440 2873792 2732414 7443564
2339.24 5522468 1646132 4983170 7130504 3053524 2709732
2342.14 6209436 4342020 1665540 4116204 4608284 1657290
2345.03 2119516 3546028 1844936 1067128 2144060 1690452
2347.92 783764 669196 784200 1313762 1084318 1130778
2350.82 2644630 2158392 1346028 3897072 3728902 1860078
2353.71 5125360 5462676 2651960 6027554 6334402 2912508
2356.60 6808054 6804432 3197234 7799062 6995768 3731940
2359.49 8600384 6313882 4462372 9298290 5443398 5561556
2362.39 8929598 4271958 6811372 7452294 3865930 7624812
2365.28 5168544 4527030 6991868 3563764 5878316 4985702
2368.17 3584346 5613466 3038648 4401474 3505568 2835134
2371.06 3635500 1938248 2913478 1862286 2113574 1825028
2373.96 1464308 1710778 1118796 1320838 828460 896644
2376.85 539974 549416 367988 232798 41078-124190
2379.74-77804-185926-167822-159122-256220-302942
2382.64-341928-455696-445910-372762-424892-570610
2385.53-592862-613742-505414-449198-484954-561924
2388.42-591938-594228-583964-512314-575760-596112
2391.31-609460-652918-578364-575402-577924-565932
2394.21-553346-516630-546116-539114-543022-546760
2397.10-495942-457046-595450-658670-578594-526554
2399.99-401942-440102-545762-525000-569340-637290
2402.88-608694-542688-600056-638526-589842-588654
2405.78-532166-561422-512712-512952-597542-544666
2408.67-515126-487390-511098-496932-478580-546490
2411.56-546766-524746-547640-537982-524634-524258
2414.46-477160-508044-518976-571664-536140-381862
2417.35-424260-460428-454136-441472-375184-409534
2420.24-534894-580732-489132-472304-438040-353942
2423.13-371100-400846-380474-304688-360920-365160
2426.03-298004-333016-314160-345316-347050-347076
2428.92-279094-185178-250264-297422-302354-220324
2431.81-183018-208550-220562-205420-130686-83334
2434.70-123230-114654-131504-210612-186828-94462
2437.60-42450-75886-35258-35598-6138 62102
2440.49 86158 129094 142096 149942 203516 278466
2443.38 266790 295790 381260 446892 482716 538554
2446.28 686440 697564 679580 865008 987532 992968
2449.17 1077654 1184502 1196660 1202588 1337586 1546002
2452.06 1547092 1635662 1916450 2006390 1902148 1994244
2454.95 2264804 2432664 2499096 2620800 2803332 3113002
2457.85 3286630 3227026 3605020 4156126 4142014 4080870
2460.74 4648800 5187704 5044156 5139290 5914776 6256060
2463.63 6048266 6451450 7257062 7575396 7415600 7779564
2466.52 8796714 8974322 8729234 9585668 10578110 10306260
2469.42 10446310 11916750 12623450 12253490 13079530 14884120
2472.31 15089260 14799710 16476400 17864880 17315250 17596030
2475.20 19018310 18784030 17870420 19481390 21166950 19917030
2478.10 20069610 22915860 22778690 21597500 24317480 25669230
2480.99 23752870 25283380 27758260 25844620 25877430 28968790
2483.88 27797460 26313310 28912560 28736170 26211460 28382060
2486.77 28997660 26064590 27618980 28564780 25784430 26495900
2489.67 27627310 25322450 25615120 26345890 23293380 22168520
2492.56 22802070 21250510 21962240 23454330 23108560 25093350
2495.45 27235300 28589650 31845210 34688240 37038080 39372020
2498.34 39205150 33361110 19441290 8983136 6645516 6410926
2501.24 7370776 8025812 9584320 11692840 13047970 16052820
2504.13 18185460 20768920 24580560 25734930 29587590 30967130
2507.02 32648050 35404680 35214720 38271140 37548550 39492370
2509.92 39435970 39577700 40194500 39035950 39859390 38240810
2512.81 38432840 36738620 36200180 34699070 33610870 32120010
2515.70 30572100 29112820 27386770 25755950 23863640 22291290
2518.59 20450740 18903140 17171070 15590460 13908230 12354580
2521.49 10986080 9766338 8545804 7403274 6226934 5296038
2524.38 4487978 3751856 2965022 2311576 1877748 1458908
2527.27 1032964 762834 550818 435774 258988 189908
2530.16 77168-64574-116754-118050-143288-171134
2533.06-257530-280302-310088-293856-205420-217936
2535.95-256752-268238-306548-248038-136970-192654
2538.84-263780-257032-303456-298838-247384-234084
2541.74-248342-295920-324396-381124-415826-361540
2544.63-311898-251168-204956-211948-232764-196040
2547.52-250742-350036-361086-373760-480488-427248
2550.41-395292-390032-355136-411966-420494-360282
2553.31-208298-171124-296442-328610-377176-397758
2556.20-377554-345270-305492-320842-326980-394574
2559.09-419622-418786-403996-408834-396966-344002
2561.98-320142-337080-339918-261950-304884-346098
2564.88-381326-372168-336296-389760-377764-421692
2567.77-416958-398036-421468-329180-253924-342888
2570.66-440936-417098-424560-400362-255690-252872
2573.56-392038-452178-467422-397260-401780-416438
2576.45-356714-358938-378306-428202-453412-358722
2579.34-274364-276200-330890-347880-323772-290752
2582.23-392468-411080-318644-403712-446940-405380
2585.13-384886-346470-348984-364876-393446-365520
2588.02-386528-363590-278806-397122-461946-423878
2590.91-381366-339806-316742-292368-350702-414512
2593.80-428912-435316-431372-395230-349500-329424
2596.70-373404-520054-510658-381676-246464-310196
2599.59-428958-268220-289298-363038-323628-306894
2602.48-351286-461362-478730-466308-418390-376280
2605.37-384538-413172-392984-337178-312224-331058
2608.27-385386-408332-481074-484054-404896-428676
2611.16-484072-587356-605062-540506-524542-519768
2614.05-425552-322476-355842-421812-498882-540486
2616.95-556166-582600-609416-532266-490676-526084
2619.84-470794-576942-634052-488694-512160-544468
2622.73-528944-562604-549504-560308-547302-587940
2625.62-580548-573592-668590-639358-602400-575468
2628.52-615448-654506-672668-731774-671078-618588
2631.41-689498-679230-724356-873340-762138-739654
2634.30-832424-830940-852158-865360-881966-943978
2637.19-1015554-960884-947196-1000718-877636-885944
2640.09-1036444-985438-1027582-1157506-1126426-1091060
2642.98-1098260-1106428-1125420-1267658-1263996-1168654
2645.87-1285064-1350866-1456144-1529868-1486634-1453418
2648.77-1387346-1269078-1459248-1671982-1638368-1673650
2651.66-1685962-1622880-1686812-1825658-1836918-1834726
2654.55-1724040-1618394-1754602-1922410-1941040-1965792
2657.44-1992324-1850896-1898856-2073956-2139622-2181180
2660.34-2119024-2105004-2115984-1983680-2018994-2116722
2663.23-2103268-2172904-2142810-2110942-2240702-2184830
2666.12-2136416-2384210-2339564-2289572-2463254-2448640
2669.01-2447060-2614444-2518486-2453620-2527420-2392184
2671.91-2460390-2620244-2571826-2557014-2482782-2459992
2674.80-2609534-2547368-2563590-2524354-2359724-2598842
2677.69-2770284-2729184-2855194-2735118-2510550-2618240
2680.59-2727614-2722752-2764978-2659318-2569870-2582138
2683.48-2602236-2674530-2664590-2661238-2719510-2739054
2686.37-2916724-3021898-2841276-2618692-2502314-2567138
2689.26-2765418-2927546-2916754-2867518-2830690-2685224
2692.16-2578796-2670804-2830998-2755192-2733438-2875772
2695.05-2771898-2759246-2719664-2522100-2472920-2594234
2697.94-2696036-2766386-2791826-2682814-2600272-2584832
2700.83-2626696-2713808-2801894-2710380-2634620-2741924
2703.73-2778120-2707740-2576146-2454924-2540686-2586610
2706.62-2596352-2639166-2557008-2518238-2556378-2559802
2709.51-2586916-2516890-2397660-2494124-2648618-2662056
2712.41-2687154-2679676-2560264-2522722-2460200-2554744
2715.30-2641080-2614454-2657898-2645314-2811422-2897050
2718.19-2807844-2781332-2834910-2927684-2902804-2808690
2721.08-2720384-2755730-2743438-2444092-1947026-1370000
2723.98-1130644-1259786-1345868-1356606-1460832-1582770
2726.87-1765182-1829810-1769366-1880912-1961688-2269930
2729.76-2479724-2337518-2255770-2188758-2191804-2250952
2732.65-2266266-2334524-2284970-2365720-2544072-2462542
2735.55-2425770-2373004-2496034-2646646-2633938-2705384
2738.44-2805652-2722802-2677626-2889754-2863540-2761042
2741.33-2834362-2868088-2879238-2944686-2857514-2823278
2744.23-2924358-2894652-2835024-2773150-2838406-2992700
2747.12-2953856-2853262-2831026-2834584-2900506-2953624
2750.01-2961594-2980886-2916098-2908090-2977324-2952556
2752.90-2797192-2705102-2892702-2966240-2898018-2851814
2755.80-2865792-2908112-2927366-2884162-2830188-2841408
2758.69-2855554-2804832-2810396-2866904-2918888-3041148
2761.58-2893050-2670498-2734100-2870900-2834110-2621378
2764.47-2575282-2759528-2766352-2748672-2648884-2531704
2767.37-2526174-2629756-2618782-2514434-2450974-2483644
2770.26-2513626-2397520-2300714-2243310-2309908-2406076
2773.15-2288466-2188538-2233748-2200256-2120910-2045946
2776.05-2049084-2018110-2047046-1999074-1884502-1884686
2778.94-1840304-1641322-1528186-1612982-1484146-1273586
2781.83-1306528-1414168-1309416-1190040-1199408-1115332
2784.72-1118642-1220826-1202498-973280-927996-912862
2787.62-771524-815762-902724-885572-771404-721678
2790.51-722972-724540-733366-732826-651758-623778
2793.40-565988-595282-659900-540580-511204-598230
2796.29-595926-500944-476728-452902-441656-499496
2799.19-522080-503694-466216-383528-416834-456326
2802.08-383986-292756-284352-376602-333790-270414
2804.97-393042-423906-404582-315016-435190-541196
2807.87-349214-391816-424870-378088-365654-337966
2810.76-444988-461532-259514-215840-318700-434720
2813.65-523434-474386-399942-336008-272502-320482
2816.54-409288-342962-302230-300780-224666-277054
2819.44-389412-398618-407990-269872-252604-394804
2822.33-361688-331726-369238-417180-319796-225164
2825.22-228256-310038-341334-321508-400900-463408
2828.11-518936-453046-352348-353402-449336-448200
2831.01-414266-429052-401372-366270-245408-252268
2833.90-288130-271472-268092-455402-473700-330648
2836.79-328100-387280-440458-344486-195930-257704
2839.69-400566-441368-481400-326332-349314-409932
2842.58-397758-359480-287410-352820-365858-370040
2845.47-347354-352960-501610-430342-286274-270258
2848.36-271586-388670-376512-383028-417242-431132
2851.26-354510-259528-252478-254616-397660-408060
2854.15-342622-421488-480686-434658-443220-452916
2857.04-349242-328426-447860-416110-356972-440872
2859.93-396196-211556-282592-438486-471266-505482
2862.83-431874-372738-417782-364750-265002-264428
2865.72-236476-337076-351890-340128-405284-321784
2868.61-336760-402484-353290-255658-180138-236968
2871.51-430214-468580-457596-383916-271632-353052
2874.40-453808-528996-415046-354726-369464-308626
2877.29-383676-421528-403340-453472-444188-364622
2880.18-311102-236504-314562-441286-373822-315758
2883.08-406544-348288-232786-350314-432336-423878
2885.97-342500-317020-419536-417188-346196-236542
2888.86-181476-215498-242766-396804-463686-284718
2891.75-220096-383098-383128-223646-195852-279728
2894.65-398578-366632-462572-595898-475030-421644
2897.54-515140-493620-385808-437710-400674-263044
2900.43-320210-358172-325206-314284-280916-244114
2903.32-254854-389428-398140-390416-373880-192564
2906.22-227572-351898-386380-269266-315418-468738
2909.11-514552-503804-299796-280056-274542-264130
2912.00-328788-376538-487546-337690-174782-210608
2914.90-237468-348280-415958-271504-230118-363508
2917.79-437352-403354-328250-357780-515470-457460
2920.68-241010-323996-486072-321346-175440-232696
2923.57-402988-534270-385322-336592-469036-410460
2926.47-303694-351620-352576-384178-457630-416706
2929.36-336560-432064-544674-455060-402298-376672
2932.25-235444-296950-421388-266862-282402-468232
2935.14-405308-330734-413964-399676-386018-503856
2938.04-514102-325720-269228-328220-337230-388524
2940.93-210228-151994-397074-426530-361714-250270
2943.82-265384-393896-373212-354300-416994-452486
2946.72-433130-473144-526242-436808-353480-474024
2949.61-445616-272542-428226-550406-424878-365670
2952.50-357134-364624-277246-304248-455818-477406
2955.39-488252-537046-569058-611132-447160-311714
2958.29-384236-334620-302920-354516-248696-153964
2961.18-330604-385832-296244-262266-223018-394802
2964.07-443132-286330-328412-254612-232440-388066
2966.96-333084-281776-355552-382498-375862-433190
2969.86-331814-244408-241868-244346-392830-376916
2972.75-280142-340986-247234-153768-271670-297592
2975.64-360610-464592-491116-367460-207568-204168
2978.54-253904-264840-292388-398364-330300-214694
2981.43-231388-219420-233446-364338-387644-241098
2984.32-149988-260082-308084-286240-281362-231738
2987.21-292478-316622-400392-520350-499496-330366
2990.11-186484-250588-364728-399440-372044-441634
2993.00-477400-353134-398074-490266-449076-510422
2995.89-549802-455502-280576-181186-180070-97698
2998.78-123038-359336-418014-485118-484926-310194
3001.68-352508-370982-367038-425712-500046-553954
3004.57-398990-262778-289836-430554-498436-408672
3007.46-465638-461998-391248-407752-494576-399656
3010.36-230120-198250-303248-471024-514930-388350
3013.25-267592-285962-222352-286760-462778-420606
3016.14-412670-503842-521984-499010-412666-341696
3019.03-304958-386840-413884-360784-292242-258864
3021.93-346026-425436-424906-403862-355778-424448
3024.82-552886-493186-366456-279440-203498-203972
3027.71-321192-397882-470420-430884-305412-213136
3030.60-206456-188700-200754-267642-306386-350888
3033.50-290872-251040-333698-433406-309992-318050
3036.39-378914-249282-311932-363226-279384-365896
3039.28-428258-324674-302298-316380-361116-351316
3042.18-328708-375176-333712-213894-214518-312390
3045.07-302856-306484-314728-347746-444660-409882
3047.96-382634-512846-568980-453328-335910-295100
3050.85-345268-359322-363184-406352-445146-386102
3053.75-334100-351252-306450-245672-261576-383986
3056.64-478966-381734-194164-149726-209882-277024
3059.53-242750-359164-464812-392074-422086-352950
3062.42-265400-305470-413310-458024-490766-506484
3065.32-377526-370618-352574-235292-306676-358210
3068.21-241186-161306-113996-129674-289610-402314
3071.10-315642-304960-369446-324694-343430-339898
3074.00-188590-231986-386194-332732-172554-267200
3076.89-228686-149002-166262-253788-400628-282160
3079.78-228924-290192-291316-270870-305734-292376
3082.67-382716-405224-357340-303956-276522-288328
3085.57-241896-277840-376904-305266-203214-302456
3088.46-389924-346496-282704-405840-521016-445830
3091.35-406654-372334-291528-286280-333074-349206
3094.24-335962-253058-118836-209694-248244-181988
3097.14-355844-460456-294366-181190-232778-364172
3100.03-358668-301742-210780-189254-347360-388876
3102.92-434810-373926-367368-489336-435832-448922
3105.82-334206-217622-365396-386772-350022-331266
3108.71-381176-420614-317644-318310-493960-406382
3111.60-404356-504774-462612-313558-161036-333034
3114.49-406146-400694-487826-449908-337866-325660
3117.39-412086-303086-217778-330286-275196-275020
3120.28-297592-188210-365856-380288-308026-385264
3123.17-295614-185246-186226-279552-303132-331460
3126.06-379846-400138-382158-271400-143622-216334
3128.96-272988-267556-457618-613080-452936-382194
3131.85-363848-225764-270970-292182-267020-363246
3134.74-402236-304760-366940-494780-406550-379522
3137.64-398456-343992-162846-187844-318958-256750
3140.53-310306-267670-242960-154992-211692-448956
3143.42-358882-223472-364636-485502-446820-331962
3146.31-370708-431008-236638-145022-136662-159688
3149.21-266164-394454-343736-349198-321208-173578
3152.10-146888-191164-165324-298208-454322-360182
3154.99-397720-421048-435370-455244-354212-333198
3157.88-392402-378486-414364-495486-408220-462268
3160.78-552726-422062-296884-246318-285702-283882
3163.67-400274-368460-242688-285472-483680-525238
3166.56-276620-306238-348382-325764-275470-215808
3169.46-276672-383772-441400-402136-445474-470058
3172.35-378808-327834-341118-384512-369122-368222
3175.24-407288-352646-362102-306840-134428-224654
3178.13-358000-375092-289934-193952-219946-262852
3181.03-397082-460006-430188-268958-194904-309186
3183.92-309916-290666-348866-402386-395942-328658
3186.81-383428-453156-317658-185600-219982-278364
3189.70-264648-300646-306640-214480-213504-340462
3192.60-323086-309576-285278-260842-260932-431576
3195.49-332710-106636-318332-364490-373198-320084
3198.38-212608-177578-112570-336130-421652-253172
3201.27-286516-271984-246094-321906-334720-320662
3204.17-347494-261208-322084-419366-403930-323056
3207.06-361264-402532-473014-403770-187186-263442
3209.95-252964-177060-181276-272150-391132-446424
3212.85-368046-277000-312768-401774-454848-414658
3215.74-228272-229562-310250-341074-225542-188168
3218.63-376788-317144-183656-162858-227884-205636
3221.52-263578-458108-429780-377900-345628-141872
3224.42-122834-348918-425792-255766-227004-303546
3227.31-358818-359130-196242-292108-322218-179130
3230.20-171066-254620-343716-347932-387394-449310
3233.09-370820-297440-315146-417412-437254-277642
3235.99-312128-223418-124216-246064-251972-385270
3238.88-458544-324492-259760-107350-100830-309860
3241.77-355642-262780-261782-203394-142642-325014
3244.67-441042-614604-603068-292834-246846-89590
3247.56 7338-205870-400504-367362-265402-296342
3250.45-275052-280464-288304-260344-253592-282184
3253.34-313958-366048-337222-225734-187238-243320
3256.24-344650-266958-367280-503428-266534-314322
3259.13-394592-346622-327216-316268-308762-296042
3262.02-316254-234570-262014-341352-374808-521426
3264.91-518640-340730-358172-245486-312824-375242
3267.81-170874-308332-412838-428380-325558-273590
3270.70-417262-361890-296928-396142-430616-409666
3273.59-461022-407510-359024-261506-264236-453792
3276.49-580656-509692-336844-351570-341222-289410
3279.38-319362-343348-354216-223160-194358-272272
3282.27-258130-334434-361394-438846-444194-242670
3285.16-133684-70758-117192-305996-504352-446076
3288.06-171572-216446-433180-466894-540488-554126
3290.95-412470-452712-377292-158594-255028-387486
3293.84-367674-317664-313552-369880-291928-263622
3296.73-301546-160932-128456-257848-339978-370504
3299.63-404646-319372-214130-162502-189310-219348
3302.52-335580-353040-249326-253912-185828-209870
3305.41-265890-326142-337128-375946-183756-158324
3308.31-295108-267266-353456-230646-175944-237810
3311.20-151856-162640-189948-235308-202384-270198
3314.09-386358-305506-373606-402406-297556-157950
3316.98-205904-237986-311242-428526-411828-429022
3319.88-337538-280666-385994-280378-196846-358360
3322.77-229712-76778-129392-195278-319102-315642
3325.66-138304-215372-470166-551102-322298-206992
3328.55-384618-220690-213704-502262-406008-256254
3331.45-180044-225766-279642-420200-654612-545490
3334.34-367748-478272-556154-240874-47176-139294
3337.23-189980-310844-462134-370584-239738-285114
3340.13-332336-333544-298722-308888-485760-473120
3343.02-258562-281438-341464-183682-115178-203024
3345.91-203242-158720-253602-344374-88228-95606
3348.80-309026-245832-183540-172454-365452-393220
3351.70-396790-252380-187554-418542-392482-158694
3354.59-61700-139924-244996-340792-384578-411262
3357.48-411912-406410-289074-335298-488758-494128
3360.37-358584-237346-283942-352494-346428-289354
3363.27-298708-296942-226168-273460-272948-150610
3366.16-187368-294320-407592-374414-261364-342532
3369.05-412346-70240-2810-242452-176468-167166
3371.95-239882-344058-396008-473304-454378-378578
3374.84-384752-425224-262754-102302-221880-283884
3377.73-349726-313352-182472-465090-664600-404020
3380.62-464354-448604-142894-100300-192198-196480
3383.52-79208-61234-287372-544990-504248-351456
3386.41-207140-246386-477744-407708-337530-444312
3389.30-369328-145410-150460-246468-267632-168076
3392.19-35788-158358-103882-77088-236826-419270
3395.09-661144-599558-274548-227206-475782-459044
3397.98-347672-467346-409670-169968-163360-289598
3400.87-203162-254364-274274-17064-155812-361732
3403.77-357152-356244-250210-303930-393408-257786
3406.66-111806-97408-304614-357238-112332-117846
3409.55-344594-492288-403900-227034-265142-399300
3412.44-379810-109994-14688-243030-410440-399652
3415.34-274246-357692-571274-556938-417870-353936
3418.23-357006-297600-308616-155140-72816-224892
3421.12-300074-273606-377466-423760-386584-279124
3424.01-113696-226052-277824-267124-323614-415706
3426.91-415970-352032-310978-318718-368540-290284
3429.80-301500-379512-266880-147288-117122-183338
3432.69-259040-222724-272248-167224-178224-275978
3435.59-220278-219240-241496-174120-163048-411860
3438.48-372652-299536-263632-183554-226566-118008
3441.37-226798-432446-271872-195148-257186-196866
3444.26-159790-358300-389182-344744-532250-485388
3447.16-225680-206234-303630-255300-368972-374474
3450.05-96032-78578-347668-341682-167714-310952
3452.94-396982-372226-494748-347228-55834-103946
3455.83-113984-138032-231454-184322-152468-189838
3458.73-178226-93102-235098-344298-23840 86618
3461.62-175220-373862-479848-369878-259792-233298
3464.51-298074-254490-159886-304266-407958-493876
3467.40-476298-578194-512146-275326-347064-463522
3470.30-394280-308574-378776-349244-266302-348712
3473.19-275060-217080-404948-342528-397048-495302
3476.08-409080-316348-138570-102002-247602-316412
3478.98-355386-440470-351138-292496-292774-267984
3481.87-265764-245398-246712-233122-179704-137524
3484.76-202790-215026-322096-624284-427838-225264
3487.65-352704-322866-394012-397172-430732-492972
3490.55-277590-318432-422126-314948-375130-416438
3493.44-466316-468032-311012-300822-457598-354726
3496.33-242908-309836-185936-281990-347960-173062
3499.22-232198-99512 55214-138328-394728-573642
3502.12-521858-395542-287616-248448-274794-429512
3505.01-453542-315136-310638-344058-304504-348716
3507.90-338060-175958-352896-544480-430350-292848
3510.80-416098-492778-349002-331430-428676-424686
3513.69-361886-526304-502294-328282-314934-164426
3516.58-49672-140054-114120-220476-457830-346028
3519.47-222588-190164-389776-437926-325218-412986
3522.37-301174-391590-427410-251984-201710-123682
3525.26-134536-302102-227342-219640-348216-306906
3528.15-367822-414614-399150-355162-359454-484244
3531.04-503312-375482-331944-278182-153680-230884
3533.94-442858-383938-317410-235002-205470-231456
3536.83-206418-299340-400578-462866-514484-328062
3539.72-92700-254274-356308-313922-320010-212694
3542.62-153942-194980-312900-348224-281614-437662
3545.51-546252-468216-220484-202540-208190-122806
3548.40-201076-289412-419460-318900-262358-343690
3551.29-259608-221388-167912-63772-162138-192036
3554.19-186758-288208-298536-296474-394114-493442
3557.08-559540-465432-262682-268660-402042-363930
3559.97-250742-185776-270878-278248-171176-256962
3562.86-378236-370506-289884-269364-176418-115992
3565.76-333494-375094-174066-198262-196524-218808
3568.65-378104-339542-428214-390142-240512-188366
3571.54-201916-495188-484526-215068-172258-285064
3574.44-430630-498000-391316-254426-214858-94204
3577.33-35254-200308-389016-490054-501874-435024
3580.22-312130-309660-299150-246174-220182-144754
3583.11-129820-154800-154420-165554-210178-322230
3586.01-364460-211550-119378-279878-434862-412634
3588.90-390856-343680-256904-372310-393384-370778
3591.79-362326-301884-275662-131042-39788-161966
3594.68-138454-50908-81858-98698-343940-385164
3597.58-160422-108972-183918-203902-198352-232982
3600.47-241544-278506-274964-242278-214122-117512
3603.36-174674-142894 5786-20252 49704 147864
3606.26 58080-193058-248454-144892-127320-185504
3609.15-171124-132092-212750-126328 16470-53262
3612.04-158250-69106-39616-128788-36914 79026
3614.93 7862-31880 20664-80650-54710-31386
3617.83-130074-106856-105876-131304-249740-204820
3620.72-48532 5034 77136 36136-11778 162322
3623.61 236068-73774-198700-28776 58042 81642
3626.50 18760 155448 364964 312254 162196 65126
3629.40-102362-271418-371204-278372 52200 204568
3632.29-378-196208-192366-181680-198358-17230
3635.18 94194 186684 207042 43420 91302 178016
3638.08 244724 163260 108268 76018 159490 295350
3640.97 158142 133424 229982 183644 108658 79408
3643.86 91804 101386 81366 31502 60380-3314
3646.75-52572 96298 17888-86714-98738-121242
3649.65-142118-109524-106614-306344-391542-425710
3652.54-442286-353834-346580-368872-373048-241678
3655.43-106942-198086-264096-285714-189498-92384
3658.32-275238-382308-261750-273040-370550-316202
3661.22-325126-142128-18098-155536-192918-257126
3664.11-282640-209124-135938-227154-213390-107196
3667.00-237970-368860-423944-444722-233674 15072
3669.90-163744-349132-307288-327466-250988-238192
3672.79-315670-226646-212228-247396-307686-391222
3675.68-299354-227970-216632-230468-172232-182992
3678.57-263356-327504-331476-298358-352292-141892
3681.47-130794-293636-294796-220234-140348-210726
3684.36-252198-305566-177254-3880-5498-26792
3687.25-212164-361884-248368-185790-293454-239980
3690.14-43532-159068-346504-231418-168338-301680
3693.04-253852-29584-173928-282340-136150-93916
3695.93-193416-400602-309562-165150-221346-226484
3698.82-118214-125516-323264-317190-249824-274024
3701.72-227928-304878-223220-265438-386918-294416
3704.61-175816-250456-243924 45572-30338-161482
3707.50-130822-104702-157410-197902-194168-274584
3710.39-323632-122442-27224-197994-250024-185944
3713.29-254664-421932-426480-366996-304648-254474
3716.18-311150-254406-147548-164902-183416-127146
3719.07-173852-259750-294362-183718-94134-179520
3721.96-144318-102436-141584-177032-152706-179366
3724.86-172324-31150-103168-133278-85202-183764
3727.75-115882-169192-325648-330408-375956-196862
3730.64-76652-195016-152048-182148-78286-102240
3733.54-227070-2222-160278-387248-255716-323086
3736.43-284352-219668-202434-85156-230840-405386
3739.32-348752-262354-263162-256730-145822-162288
3742.21-226808-94984-85786-197216-269302-260994
3745.11-290790-358344-444012-445918-243320-142378
3748.00-211168-262682-350830-422684-352918-314670
3750.89-235458-198772-236000-270602-258442-243158
3753.78-283362-224038-228054-303430-330506-323112
3756.68-321834-518752-519622-252328-233364-299782
3759.57-365420-398634-383156-221092-132568-250666
3762.46-234176-262774-262048-141414-97996-349236
3765.35-489730-419324-372616-236548-222122-220814
3768.25-213844-185350-232458-382946-309544-227198
3771.14-286992-274600-246260-294706-261674-189810
3774.03-153656-284844-374058-343496-363980-368610
3776.93-294936-204662-181324-97232-141434-331406
3779.82-355454-241186-221484-215002-213396-164124
3782.71-160222-282774-300498-338342-407602-354842
3785.60-288604-147008-157040-296110-320902-436236
3788.50-495192-481216-323380-133552-200726-335152
3791.39-357864-357814-373572-249162-132202-99934
3794.28-118650-231396-307710-321224-407082-461576
3797.17-272340-107148-242414-402592-466688-417096
3800.07-214620-255320-363478-271106-347822-332694
3802.96-159302-57380-78214-173016-244476-327392
3805.85-270182-224334-333002-359390-171402-108982
3808.75-164428-217646-218376-189802-233998-299028
3811.64-384904-293470-280756-325944-298246-232178
3814.53-229232-172788-152116-211206-221834-315608
3817.42-386436-379924-263618-296862-253330-178444
3820.32-229936-221130-240144-238794-175310-182312
3823.21-220886-209294-230638-238114-304498-425622
3826.10-266924-65524-229750-250168-80364-195848
3828.99-370112-282258-110580-140182-212194-237534
3831.89-189496-147990-235048-161180-69970-174988
3834.78-201508-112788-215470-376534-403150-312534
3837.67-111542 428-171812-412086-421822-209958
3840.57-160360-276714-292886-315192-245336-98698
3843.46-26486-95718-93556-67660-185560-149138
3846.35-25350-117864-258354-271208-198548-204866
3849.24-114918-84084-252522-197676-145598-265174
3852.14-255658-138292-221290-262918-181560-269320
3855.03-423712-300476-174588-126240-133870-295410
3857.92-342970-228016-206444-220844-117440-34928
3860.81-75926-160138-108458-359950-463768-250434
3863.71-250202-437592-446062-311050-219618-311280
3866.60-226488-160272-296544-220182-217506-288200
3869.49-270568-83912-41878-117066-93070-173886
3872.39-367062-302972-248442-255864-225272-281888
3875.28-298690-323780-310872-265038-246602-125064
3878.17-55564-243844-320564-342022-380790-292722
3881.06-254516-165804-112256-213904-268404-386784
3883.96-386402-241692-193904-308024-393654-224334
3886.85-202586-140688-184110-367664-262498-94260
3889.74-144226-199428-250250-358306-295806-196444
3892.63-139428-303706-495740-411496-379816-360000
3895.53-274742-205176-207922-251494-287270-404498
3898.42-248188-34124-72708-187318-140192-136006
3901.31-152300-307386-422642-274768-331220-361564
3904.21-254460-352484-484240-489034-566640-608506
3907.10-537812-494834-458384-270738-119412-175196
3909.99-185148-68746-60768-150272-224112-272598
3912.88-329220-237336-154976-278644-287574-280164
3915.78-291208-185012-267634-355574-402006-585342
3918.67-527970-325082-347338-290392-194198-268088
3921.56-271712-329782-369822-288502-389130-443820
3924.45-261518-301490-361646-398190-429246-284402
3927.35-334786-369938-167794-206288-415780-378600
3930.24-283292-249512-203958-277946-396448-418958
3933.13-264828-182262-260670-324850-265408-338254
3936.03-477918-348578-366226-290848-236534-253996
3938.92-176232-325654-331476-243890-339858-284982
3941.81-174816-168390-283846-352318-285768-222360
3944.70-225696-355520-402294-356202-307586-230956
3947.60-241964-183680-27806-222808-490446-521352
3950.49-395062-308464-445838-444102-333510-454566
3953.38-394088-365934-384258-262496-291562-331430
3956.27-455480-494112-332136-132746-75594-171326
3959.17-181582-59578-155084-391126-395782-456334
3962.06-466642-262800-267114-396650-388210-320264
3964.95-221914-281758-344784-445080-404268-330246
3967.85-407036-468862-460652-281540-220498-298878
3970.74-456748-538752-435932-319796-412670-476584
3973.63-468700-544780-481174
##END=
