##TITLE=Sulfur Dioxide
##JCAMP-DX=4.24
##DATA TYPE=INFRARED SPECTRUM
##CLASS=IUPAC A
##ORIGIN=NIST, Anayltical Chemistry Division, 301-975-3108
##OWNER=COPYRIGHT (C) 1998 by the U.S. Secretary of Commerce
##DATE=98/10/1
##$SPECTRA VERSION=1.00
##$UNCERTAINTY IN Y=2.1 % relative (B=1.1E-04,C=7.6E-10,D=2.7E-14)
##CAS NAME=Sulfur Dioxide
##CAS REGISTRY NO=7446-09-5
##MOLFORM=S O2
##MP=-72.7 C
##BP=-10 C
##$NIST SOURCE=QUANT-IR
##SPECTROMETER/DATA SYSTEM=IFS66V (Bruker)
##INSTRUMENT PARAMETERS=KBr Beam splitter; MCT Detector; Multipass cell
##STATE=gas
##SAMPLE DESCRIPTION=Sulfur Dioxide Primary Gas Standard
##PRESSURE=101.3 kPa
##TEMPERATURE=23 C
##SAMPLING PROCEDURE=1 L/min Flow
##RESOLUTION=0.9640
##DATA PROCESSING=3-Term B-H Apodization
##XUNITS=cm-1
##YUNITS=(micromol/mol)-1m-1 (base 10)
##XFACTOR=1.0
##YFACTOR=9.0949E-13
##DELTAX=0.4820
##FIRSTX=575.169
##LASTX=3975.077
##FIRSTY=.0000166
##MAXX=3974.59
##MINX=575.17
##MAXY=.000997
##MINY=-1.37E-06
##NPOINTS=7053
##XYDATA=(X++(Y..Y))
575.17 18323580 14924370 13201310 12059520 10905880 10194230
577.58 10870680 13386570 15310860 13987710 11737530 10670300
580.47 10187830 9534008 8970732 9209062 10265230 10702540
583.37 9790050 9202356 8916112 8322752 7713772 7344210
586.26 7514994 8462262 9032988 7849724 6648134 6587608
589.15 6604462 6535020 6334546 5957754 6222578 6759550
592.04 6249872 5359490 4816940 4653192 4994388 5135286
594.94 4653590 4395792 4592888 4382450 3967298 3724088
597.83 3531168 3590372 3800506 3792114 3746102 3873152
600.72 3608802 3091220 2883218 2771840 2540984 2195478
603.61 2109018 2378748 2744046 2904558 2679716 2457076
606.51 2257496 1872726 1544184 1385100 1382604 1756398
609.40 2003704 1834778 1684560 1517444 1283648 1168226
612.29 1168830 1222890 1340398 1414034 1359080 1240970
615.18 1094558 978328 942492 951890 981862 972406
618.08 845604 738142 746704 741680 717988 699936
620.97 696224 644356 528206 420814 365894 339456
623.86 308592 328398 282724 231630 318914 381482
626.76 423684 391658 196284 216034 391326 235888
629.65 15238 60136 300462 536578 493494 241418
632.54 68642 5704 4458 60940 76548-36664
635.43-149322-109970-45704-121946-224814-219722
638.33-154690-86112-107636-128434-79528-87304
641.22-134168-203080-160814-41490-28160 22322
644.11 65316 45870-68360-249200-309050-260894
647.00-220182-123632 16526 108930 76992-67308
649.90-196686-285312-326778-312896-286694-199064
652.79 4002 87070 19026-11736-49098-98464
655.68-124780-129198-135906-121210-176854-302364
658.58-263720-135338-133062-206544-196244-107846
661.47-77682-117398-155348-228688-300950-351550
664.36-433580-475038-399042-267864 384152 2222518
667.25 3596412 2816562 1276988 423716 77262-125622
670.15-186194-246780-307830-242522-149548-226366
673.04-369790-311648-147164-87870-74516-13158
675.93-60206-209380-204426-178814-311514-325364
678.82-173482-145826-232160-271288-238618-97052
681.72 63768 10374-135422-168064-153064-160286
684.61-146412-106656-89604-60844 1088-27078
687.50-123992-198234-276338-308552-316190-306860
690.40-240510-105074 38182 7590-138320-214864
693.29-276784-280028-165778-119866-210080-311372
696.18-331250-297106-199540-99036-103414-168968
699.07-155582-63332-11688-54744-202502-329288
701.97-342806-303140-210132-134232-128810-108606
704.86-117222-175478-305148-442568-396624-350294
707.75-401926-347196-188690-162672-279140-332924
710.64-345158-347140-279692-286420-340214-315696
713.54-273508-281494-294324-261548-208410-226660
716.43-350450-465062-498114-457524-303204-134398
719.32-123592-213274-256384-296272-339774-298982
722.22-233590-203428-193680-251306-299338-236230
725.11-200368-306372-400032-358538-276894-251608
728.00-224854-172710-208722-303160-337266-315090
730.89-315928-329594-290010-289646-296748-268374
733.79-309816-300604-190478-137616-207298-335174
736.68-356616-272106-220936-257760-308222-299548
739.57-243062-224876-237430-209878-201142-267312
742.46-327434-358292-313868-197108-134642-140020
745.36-180080-224822-241876-254782-311328-367674
748.25-302822-209018-206370-192664-159712-170732
751.14-132992-99008-156044-227902-235978-219606
754.04-239736-284936-335112-302308-213692-202776
756.93-238674-221972-158836-137208-181536-246452
759.82-203622-144558-234834-359680-390988-370194
762.71-323312-262704-248246-250562-242278-248930
765.61-272202-273312-259704-296794-326616-248216
768.50-195732-294930-384416-327946-254030-273394
771.39-245318-187624-186378-162200-139812-174130
774.28-211598-220010-273146-349740-362056-342364
777.18-313062-314686-343820-312918-228908-184742
780.07-182904-243458-319368-287410-221934-176274
782.96-139914-170626-212318-209234-248404-265808
785.86-243922-266588-292024-363324-436588-413816
788.75-332150-300770-335148-329244-232982-177374
791.64-239934-291950-257760-247166-249958-236222
794.53-296960-307340-216896-161906-141810-202710
797.43-300516-291140-183942-167012-264796-349854
800.32-379698-315838-295286-362984-366532-346814
803.21-327302-256794-113840-51836-161618-255716
806.10-209282-192750-231454-195064-168556-205718
809.00-278138-302700-292710-313520-295404-261436
811.89-251964-246510-229932-224272-297194-345238
814.78-263636-201294-178064-150950-165210-170042
817.68-157286-270990-386022-295832-187240-136070
820.57-114206-174398-243508-308180-327612-212756
823.46-133134-210158-253260-240178-269104-323286
826.35-312106-199180-143636-200942-260262-277256
829.25-275668-256512-234724-258260-287718-304938
832.14-265892-149648-168274-296452-354818-393546
835.03-385520-288418-206854-188360-206248-223130
837.92-223182-244494-237974-190610-180136-204478
840.82-204236-240996-256050-219582-230614-276220
843.71-329934-368730-413196-410020-311174-216644
846.60-178300-197378-286276-325504-269422-272160
849.50-298824-273550-295914-311962-263604-257186
852.39-279086-282294-287100-294508-325014-368252
855.28-362166-254568-156030-180576-257832-297202
858.17-263286-184548-150214-187792-241524-266826
861.07-252176-278880-306208-224392-140290-151626
863.96-200052-235582-246996-238130-259752-285364
866.85-252542-206624-201298-219902-227224-248840
869.74-299062-317274-286120-254912-226258-192982
872.64-202222-253126-290530-313506-289526-227386
875.53-195162-176626-167212-202916-235484-244108
878.42-255514-260574-245112-200018-158356-164582
881.31-192814-243048-279732-281950-250268-211144
884.21-214284-212388-215024-231550-179008-120812
887.10-169070-254058-273594-261362-245158-245662
889.99-244044-247038-292192-331922-342268-317680
892.89-260032-246594-253434-245572-237462-227488
895.78-218330-227082-242668-244776-222698-207196
898.67-236448-247846-201068-183010-219848-256182
901.56-240626-204454-206034-199222-140944-94678
904.46-123726-186288-208266-234934-286584-280224
907.35-249824-244496-222650-173058-145968-187716
910.24-274476-318108-261688-211638-218484-236882
913.13-225430-208168-201840-180052-135480-117246
916.03-135752-142162-163474-248280-308474-308872
918.92-298972-301656-314168-298622-258764-258254
921.81-288376-317200-324164-273280-234328-222864
924.71-186860-195916-262108-281354-257692-240382
927.60-240116-271776-308022-314034-255752-184606
930.49-167384-193472-234596-249524-223282-225682
933.38-261170-289956-287786-252926-200034-161296
936.28-185474-241242-278064-295086-286390-254838
939.17-220468-226444-254492-279328-293392-325490
942.06-345462-297634-241870-212208-196218-229260
944.95-276548-283816-271026-274074-268342-257232
947.85-256358-235272-191018-181294-222270-244688
950.74-226708-235998-268636-253124-210038-208016
953.63-216082-215992-230154-237134-232936-244346
956.53-269454-299868-299980-249356-219490-257518
959.42-278120-260708-259498-279146-256434-228708
962.31-239278-229460-214640-200154-175970-215294
965.20-281448-279956-248776-248658-244014-219548
968.10-218490-248982-271680-272914-228366-181698
970.99-151956-133430-162188-229616-260176-236106
973.88-230768-236022-222096-196182-155094-139778
976.77-157800-196274-225030-247874-247618-241236
979.67-237074-229940-244892-247200-232932-232278
982.56-222970-216210-235294-277562-261656-179314
985.45-148328-193182-222308-236190-233072-202990
988.35-194808-224826-275708-295138-267902-272264
991.24-274006-256668-263638-244060-193944-198770
994.13-245430-254054-216294-215582-260852-263528
997.02-213064-197510-210122-224464-246892-269300
999.92-251796-186614-178336-253692-301362-259440
1002.81-215014-248802-254400-222842-213540-212090
1005.70-227810-229446-220894-253560-275558-275178
1008.59-271188-252624-229700-234660-244072-236352
1011.49-238592-236170-210392-199378-194740-222622
1014.38-285356-291518-251670-258422-289572-251334
1017.27-213512-254386-254208-205192-221580-284466
1020.17-266010-200744-158030-162150-207648-248964
1023.06-282896-328854-307854-230834-204380-218342
1025.95-220032-226032-228654-220048-225640-246354
1028.84-249270-233628-207938-180476-155276-155526
1031.74-177568-175280-160878-181308-192870-195344
1034.63-213078-258458-282340-276196-279240-230492
1037.52-159664-122466-84008-67844-109242-152908
1040.41-142658-105014-78342-79804-77134-79052
1043.31-107650-123788-101956-105814-105754-70384
1046.20-36222-38368-46750-40290-47276-47504
1049.09-7698 19006 8378 18966 83600 120026
1051.99 130406 166936 180766 156054 134428 117720
1054.88 126178 165016 206138 204940 213968 255880
1057.77 299808 359298 424706 477656 491840 482754
1060.66 521272 608508 686950 728558 754210 794064
1063.56 821268 800174 829842 935162 1001884 1039332
1066.45 1120384 1179570 1203398 1282650 1406856 1510098
1069.34 1591342 1668974 1737594 1762364 1785750 1859138
1072.23 1946140 2064456 2241696 2427404 2552144 2516004
1075.13 2452922 2583414 2811070 2987144 3153038 3288670
1078.02 3324678 3325332 3409434 3603580 3871832 4111320
1080.91 4305872 4497972 4561124 4523958 4665920 4963948
1083.81 5214580 5412904 5680798 5987498 6096106 6009950
1086.70 6034552 6285748 6685114 7129730 7605494 7937518
1089.59 7854340 7538780 7588970 8059700 8624732 9242632
1092.48 9811584 9961600 9562460 9242274 9662724 10516270
1095.38 11237340 11670310 11852180 11933680 11956930 12072840
1098.27 12669330 13427440 13685990 13540340 13819210 14531320
1101.16 15081680 15537390 15941380 15746620 15221490 15528120
1104.05 17052780 18776170 19529420 19161270 18153760 17433320
1106.95 18061900 19969110 22352860 24161010 23569060 20642900
1109.84 18853890 20048610 22905220 25968260 28176250 27175990
1112.73 23733810 22009360 23083310 26264760 30987070 33853030
1115.63 31510320 27460590 26492510 27999580 31446580 36163240
1118.52 37913160 33991190 29871520 30185840 33435870 38257160
1121.41 43309160 44869940 39108720 32034800 32619990 40035900
1124.30 48355260 54451270 55108200 45928520 34731630 32591710
1127.20 39589220 52558280 66173020 69680020 56812590 41182540
1130.09 36960810 40709580 50524810 70308020 83587220 72024650
1132.98 52028360 42496250 43722720 50393480 63035400 80248020
1135.87 80438270 62311400 51291490 50827940 52237960 56255370
1138.77 66927620 72537980 64474960 56574540 54872020 52750640
1141.66 47850250 47602440 54003600 57289710 55244660 48886350
1144.55 39098640 34139670 35841720 39786460 42511200 36911370
1147.45 27950140 24940130 26373170 27686370 26543680 24156210
1150.34 23058070 23254990 23332120 24443880 26066240 27022900
1153.23 29122850 30660850 30584200 35039200 45308870 49585460
1156.12 47509880 50711060 56783590 59349790 60589950 62937830
1159.02 65269840 69502150 72174670 64966390 57481850 58545370
1161.91 65834910 80466280 88207630 77882020 63426600 60062300
1164.80 67391530 76751810 83322080 82601330 73028820 63205460
1167.69 58853090 60942240 67751230 75317700 76734260 67586770
1170.59 56296140 51703320 52172790 56073700 61438960 61720430
1173.48 53501440 45338180 43359850 45275860 50903250 57508570
1176.37 56140070 45329720 35939410 33897440 36010160 39323310
1179.26 42845510 43147080 36715930 29760140 28759070 32856200
1182.16 38468320 41908490 39583630 31526220 25468030 24510150
1185.05 25710830 29172640 33288450 33078810 28666530 25178740
1187.94 24045260 24524250 26737510 29881330 30223300 26217540
1190.84 22662950 21882370 22587800 23602310 24264830 23626030
1193.73 22057580 21110790 20941700 21224470 21883560 22012530
1196.62 20518240 18650760 18266270 18713840 19056970 19267900
1199.51 18693620 17082570 15577800 15152080 15876970 16783120
1202.41 16957420 16208280 14856310 13702590 13052030 13013570
1205.30 13693340 14145340 13457300 12321260 11611600 11249720
1208.19 11027940 10975890 11151760 11106070 10581460 10013840
1211.08 9629748 9314066 8974282 8591634 8414790 8446592
1213.98 8327458 8092200 7828984 7355928 6730374 6356698
1216.87 6458170 6659120 6546726 6179104 5740488 5331782
1219.76 5011902 4875570 5022498 5183136 5014590 4629220
1222.66 4261306 3957482 3748416 3690850 3720454 3641940
1225.55 3454628 3280792 3113136 2935492 2766348 2682056
1228.44 2702872 2656968 2504810 2319896 2164662 2036768
1231.33 1888878 1823684 1833180 1763148 1654490 1573664
1234.23 1484812 1384896 1297980 1266332 1259446 1176306
1237.12 1055462 970326 913770 818878 768196 811690
1240.01 814246 738354 636704 571524 528540 486468
1242.90 478180 462464 432554 394598 372318 342554
1245.80 289580 259448 249918 221290 175634 139306
1248.69 129844 129156 126780 126866 123932 95106
1251.58 32340-30454-34930-19144-27266-48524
1254.48-50144-55156-80746-114102-138112-143236
1257.37-119022-100724-92782-78564-61004-80334
1260.26-108526-114770-132678-165102-194274-208650
1263.15-207492-216208-215898-191870-147800-134730
1266.05-179868-221964-214228-209390-207810-201710
1268.94-210554-214080-190398-181082-217442-258658
1271.83-248026-223360-218970-231748-210202-170300
1274.72-174510-206336-219746-222116-224906-239616
1277.62-246784-225532-185936-175466-159032-141024
1280.51-159762-190910-219444-234658-216170-195382
1283.40-181312-187762-189818-168908-136302-139730
1286.30-156692-167610-172560-147532-99810-80080
1289.19-91002-119608-132206-97718-34340-8162
1292.08-15974-23446-4310 35406 71270 87454
1294.97 130394 190622 248360 302388 355628 427100
1297.87 514388 614360 727694 782800 849068 996710
1300.76 1124228 1213202 1390466 1607532 1776794 1972730
1303.65 2250084 2495018 2745780 3131936 3480668 3713354
1306.54 4124284 4650078 5082410 5602674 6269046 6868962
1309.44 7494890 8287112 9110994 9994812 11053890 12070260
1312.33 13165400 14491150 15709230 17053770 18821420 20371440
1315.22 21944180 24235050 26356810 28148430 30943610 33880840
1318.12 35909210 39082820 43257750 45884070 49220120 54585880
1321.01 58004900 61300540 67920860 72836230 76255880 83926210
1323.90 90950020 94631500 102542400 111852200 116545100 124439100
1326.79 136344300 143111400 150492800 164243200 173898300 180889900
1329.69 195846100 209159400 216249900 231308900 248800300 257045700
1332.58 271264400 293309600 303388900 315182800 341446200 354331600
1335.47 363854900 394156300 410121200 416930300 449723800 469217100
1338.36 474101100 508696600 532396000 534775700 568573100 594995100
1341.26 594632000 628784800 657957500 654071100 686496900 710952500
1344.15 689343600 698518000 706808400 685827500 706842800 722276400
1347.04 700545200 717514200 725636900 698787800 713684200 714758700
1349.94 684622600 694654100 684549500 654280300 660232400 641204100
1352.83 610985500 611456000 592592400 577541800 589901800 585029100
1355.72 590858600 615889900 619872700 628068000 652289400 693670700
1358.61 775333100 876522500 980419500 1077052000 1096314000 918594600
1361.51 552839600 247203800 139060400 136260000 159533000 185313700
1364.40 224505600 271224300 315920500 378330900 437996500 498750200
1367.29 571613000 621194700 678526100 729974200 759834600 807572400
1370.18 830731600 853907300 884342100 885315100 907655000 909145300
1373.08 906018800 914421400 893408300 893615600 876380800 856066000
1375.97 846562000 813151200 797229400 766191000 738039200 713542200
1378.86 675434600 651393500 613648400 583882900 552095600 516796600
1381.76 488259300 453331300 424716300 392784300 364508500 336388800
1384.65 308320400 283932900 258065300 235747500 213431700 193036000
1387.54 174054500 156308900 139642300 124439500 110583100 97697640
1390.43 86315700 75736620 66158720 57837470 50033020 43313020
1393.33 37381680 32113310 27451640 23245910 19541780 16482430
1396.22 13746490 11465740 9531532 7951152 6656266 5485448
1399.11 4485898 3694404 3035068 2520740 2030624 1637100
1402.00 1311632 1065646 863090 714104 553430 422622
1404.90 286306 240340 285834 314614 237464 166860
1407.79 107856 63616 18220 65644 130890 129648
1410.68 90150 152878 208934 165316 76528 76580
1413.58 119370 93074-33042-77640-63340-37338
1416.47-35476-21888 740 10504-32618-28880
1419.36-5458-7208-26398 28374 78072 36596
1422.25-57066-87750-82588-74524-68894-32554
1425.15-30890-65416-116800-129198-115956-90030
1428.04-114742-142332-132304-89816-88268-86162
1430.93-74690-74692-96278-115892-142662-139536
1433.82-148366-170732-199474-196412-180396-165696
1436.72-162708-140946-113654-106562-157886-205490
1439.61-206806-173388-164266-158762-175550-188622
1442.50-165298-129588-138000-137744-126526-136122
1445.40-169398-183244-200880-221336-252800-233398
1448.29-196434-203894-216994-183004-173440-193310
1451.18-198164-188388-191294-175658-171698-187916
1454.07-200782-180582-181172-181574-175746-178410
1456.97-196986-210716-219358-220348-233110-234004
1459.86-208958-155174-129374-128456-147494-179984
1462.75-225220-247206-241232-223996-236554-224040
1465.64-189116-193586-217560-208352-205270-215880
1468.54-211962-166680-145152-180712-225074-211374
1471.43-186296-187104-213254-242788-262700-249142
1474.32-234722-234320-243182-235486-224558-222608
1477.21-234764-227298-206364-183582-176028-156316
1480.11-167414-208754-213560-177700-174454-182826
1483.00-200992-230724-240844-243418-261234-258254
1485.89-239592-205326-179816-171712-199652-238352
1488.79-254640-239268-226700-218022-204920-199454
1491.68-214572-206566-203514-218522-238900-255746
1494.57-249796-230744-217950-202724-224902-251052
1497.46-249920-216848-196290-200522-200694-190810
1500.36-214256-231558-206326-181528-190724-193402
1503.25-191834-212696-241314-238360-224928-213548
1506.14-217972-221878-219998-220434-219016-201618
1509.03-210492-227030-218016-181990-164504-182238
1511.93-213180-203172-170822-148990-149176-166898
1514.82-191454-191192-179152-176592-191740-186228
1517.71-180018-200426-196084-163064-144994-127704
1520.61-124480-141718-177074-195378-173926-114046
1523.50-81606-92130-117644-141312-156588-146348
1526.39-134862-132936-146588-153958-151308-129478
1529.28-108646-114798-148428-151916-133502-121334
1532.18-112622-113926-122940-128944-146570-163954
1535.07-162674-140278-137158-146040-145194-129900
1537.96-104780-91522-114420-131892-111126-67348
1540.85-50630-72152-102840-103676-96628-106102
1543.75-132534-142538-132188-115704-132646-166228
1546.64-170992-162422-181244-206628-233398-247544
1549.53-253358-251126-250092-245422-225362-217870
1552.43-246936-252804-246140-257462-262976-243196
1555.32-224204-216406-217110-217566-230324-251390
1558.21-249676-221644-224254-240918-244898-238590
1561.10-252616-270868-259458-235434-232188-230264
1564.00-230148-236156-234328-229954-250200-254498
1566.89-248264-245028-233234-224758-225934-208494
1569.78-208234-231234-240860-229934-222620-223934
1572.67-225784-221900-228318-244756-245382-230810
1575.57-258270-281556-251222-227220-227380-216750
1578.46-229594-252366-263836-264054-248700-242106
1581.35-258776-253606-222716-190626-186030-220222
1584.25-261164-264006-242550-224756-226800-216346
1587.14-194302-178282-174792-184176-209420-229224
1590.03-224522-225276-261382-268048-252720-254142
1592.92-250022-227614-219800-228220-239074-233976
1595.82-217672-213512-222892-231292-252608-257500
1598.71-235044-222570-221528-205562-208862-220444
1601.60-219542-219838-224782-218822-226080-256710
1604.49-259004-223240-215624-218754-205828-213984
1607.39-227752-210150-195438-205886-228514-229960
1610.28-224912-232594-244920-243980-229312-216264
1613.17-233314-252760-237266-216820-211068-217826
1616.07-229452-220778-212206-227434-235878-215420
1618.96-201142-184030-160492-165664-174594-166984
1621.85-167450-156752-162316-192430-233188-260616
1624.74-267672-258306-233806-211480-212884-225424
1627.64-236364-230942-232226-224076-195334-183304
1630.53-194616-205034-223036-227588-222820-219912
1633.42-205112-195950-208650-205738-184582-180888
1636.31-207710-239312-257948-242972-215260-212288
1639.21-225960-207618-166128-141152-155034-188414
1642.10-219546-211744-185622-178106-196682-230162
1644.99-262664-258250-216724-202070-209942-187152
1647.89-174400-197188-219956-235086-248134-221232
1650.78-189084-192590-218168-234986-210260-163604
1653.67-161442-197268-208996-190844-179914-176492
1656.56-178884-175560-177996-194604-220132-229254
1659.46-217060-194662-190004-202694-199274-182306
1662.35-192722-220804-232552-210736-193080-199434
1665.24-205422-198436-198578-203280-217000-224232
1668.13-201536-180928-188410-180806-165952-172392
1671.03-192448-209518-210698-204508-192668-182776
1673.92-198134-191658-159832-158310-168818-154904
1676.81-145642-134948-119670-143804-174912-167448
1679.71-160324-163056-161122-156016-149962-154788
1682.60-170482-174424-174370-168592-159468-149032
1685.49-142020-157062-175326-171464-173262-179898
1688.38-208688-228236-199496-170202-172824-171646
1691.28-170630-176084-182862-166566-151422-182610
1694.17-209254-208942-212652-209838-208108-200398
1697.06-178714-161406-166598-182338-200436-223678
1699.95-229938-185618-139562-151340-196794-223248
1702.85-222840-205034-197110-215710-234276-212244
1705.74-170748-148600-167604-199082-203970-191684
1708.63-192092-196692-197128-196200-211266-234750
1711.53-225434-190650-173700-168914-181072-194870
1714.42-184410-170530-195632-226120-216098-199798
1717.31-200752-204146-205010-192596-173010-160882
1720.20-166902-175006-192474-192166-170262-171950
1723.10-182640-178874-183754-177582-161034-158714
1725.99-180658-205618-207418-206678-222254-214394
1728.88-184386-163732-176182-198654-200230-181300
1731.77-175886-187434-187158-196772-220320-221236
1734.67-203314-203392-209458-187274-176354-178932
1737.56-183710-195108-190006-170878-165014-155342
1740.45-155898-186662-216060-212770-203684-205678
1743.34-199892-180394-173956-196822-217308-211136
1746.24-210482-203026-186090-192628-217064-222734
1749.13-212672-209328-224980-234988-214230-192860
1752.02-200000-207060-215548-235592-238440-210716
1754.92-203912-209336-207650-201776-181354-173172
1757.81-173494-166780-184192-206378-218014-227390
1760.70-238800-237826-209716-185966-194408-196846
1763.59-182434-183428-188140-196538-228814-232096
1766.49-204044-188896-190154-175956-163334-184566
1769.38-211714-201732-171964-163596-184288-204896
1772.27-221844-246812-263364-241854-207178-186444
1775.16-175104-169926-176752-174326-179438-201192
1778.06-210022-194756-169730-169390-189638-202912
1780.95-218952-221776-222740-222122-207332-200000
1783.84-208238-204900-191984-189290-191552-185996
1786.74-186184-197092-205352-199800-188454-189752
1789.63-199914-202590-205020-208910-213284-205540
1792.52-192800-183974-178200-186632-218154-238098
1795.41-214040-169486-160088-191248-199880-177586
1798.31-187574-217126-220376-203624-200762-222010
1801.20-235760-222570-210260-193188-186874-197726
1804.09-191988-196530-221324-208444-183802-189824
1806.98-196952-200556-205306-202726-193912-182240
1809.88-181194-176646-165312-158718-153680-162248
1812.77-184576-189562-192434-204942-228274-237520
1815.66-194866-150628-172902-221484-235558-189514
1818.56-166332-185866-162810-128278-165888-213124
1821.45-212404-178446-174232-191572-158650-135404
1824.34-166468-176408-163132-137892-135444-142786
1827.23-98648-86044-154294-210838-198068-144214
1830.13-134612-132396-89568-114884-191550-204666
1833.02-160982-98778-92774-98504-62670-101436
1835.91-169764-170240-138760-90466-87092-60922
1838.80-19834-74132-140884-168208-145620-93666
1841.70-67998-12624 416-79986-125452-117698
1844.59-88684-56344-21078 19428-30598-109496
1847.48-130234-100198-20182 35792 67784 63218
1850.38-26694-87976-78392-42464 11450 87906
1853.27 129674 70122 6876-14560-31490 10200
1856.16 98396 145772 103062 23326-15686 3080
1859.05 46414 104614 178472 180944 89670 27818
1861.95 12048 10946 62446 136580 132888 72534
1864.84 20058 2168 24756 56602 88338 73890
1867.73-9552-61616-68900-94014-110744-69820
1870.62-36230-71660-120088-130930-140726-153918
1873.52-126922-70286-704 133650 256834 232424
1876.41 121630 42346-5282-53708-96582-119872
1879.30-98682-40290-21432-43472-48112-35212
1882.20-15814 6618 35366 85062 64816-13948
1885.09-54300-62874-42902 58936 157448 89402
1887.98-11582-22438-16820 29864 162382 212406
1890.87 108102 15334-34192-52418 29828 185866
1893.77 179932 24634-53670-53676-17136 96824
1896.66 164220 51338-86920-134692-117066-844
1899.55 152682 130216-38740-133712-138926-78792
1902.44 68184 116304-9836-118946-149016-111966
1905.34 3154 80768 15682-102092-162262-133116
1908.23-6270 97558 39104-96486-188554-192110
1911.12-83116 31780-1184-106570-165030-161906
1914.02-88346-358-13232-87876-160838-179444
1916.91-97922-26176-58936-104274-140818-161600
1919.80-121608-72838-87402-143560-204054-198470
1922.69-123636-89642-130356-171876-187026-142724
1925.59-91134-113608-157038-171726-171120-136584
1928.48-114234-139580-184048-221602-214256-155430
1931.37-135624-162012-181712-194592-194082-170020
1934.26-167736-171344-171562-180958-171036-164150
1937.16-170984-166686-188170-198962-164118-150504
1940.05-165052-172556-180480-173618-174630-194006
1942.94-212370-216370-205032-211788-219322-208058
1945.84-221978-226204-186094-160346-185808-220610
1948.73-230792-221234-223500-224978-208392-201846
1951.62-207226-194990-188270-218650-256888-256148
1954.51-240598-230762-207264-197448-221058-230060
1957.41-223274-217382-213042-216556-222404-198522
1960.30-177616-188234-213160-219162-205590-213014
1963.19-232716-238816-235056-212868-191790-195200
1966.08-197520-199708-218274-229176-228154-209876
1968.98-190800-207468-247958-266742-252772-217416
1971.87-188150-186186-194076-201156-215844-220430
1974.76-219970-217320-206548-207570-220406-228130
1977.66-229514-217762-217940-227484-244990-258566
1980.55-232378-182656-166260-197286-235174-244510
1983.44-232250-218832-209846-204928-211994-209576
1986.33-191500-196676-218604-237424-249192-229530
1989.23-212030-205498-185554-159052-167216-209316
1992.12-226670-217358-223164-230626-228860-219416
1995.01-207084-203212-206430-221742-230862-209496
1997.90-200070-215010-218508-214050-205388-186908
2000.80-184418-181700-195292-229062-239402-229066
2003.69-229298-237478-236466-220614-199064-180382
2006.58-176734-185402-208140-229764-223258-205514
2009.48-221314-239134-227790-207804-182668-159816
2012.37-166896-190756-201134-188994-178074-176076
2015.26-183458-200838-213412-220750-222066-203918
2018.15-188260-210026-245156-251996-249036-251354
2021.05-235118-205196-184674-177952-200744-218450
2023.94-207164-202216-198856-191746-198394-198952
2026.83-196840-194702-200122-220242-231484-213610
2029.72-190200-184566-187088-190194-180112-173024
2032.62-174718-161584-151750-152110-140850-113248
2035.51-105264-121104-132110-126768-110310-114604
2038.40-121414-102126-89574-77012-62614-44774
2041.29-31112-33748-39270-34110-29882-26772
2044.19-11824 15682 37190 45026 51600 56440
2047.08 73084 97716 78342 60586 79432 86168
2049.97 72206 75620 96258 103354 91112 75620
2052.87 70182 68310 43610 36000 46398 52242
2055.76 76532 96728 75134 38692 9100 80
2058.65 6770 21846 4532-54698-107186-132952
2061.54-143646-137118-128694-103736-32418 36410
2064.44 25828 10480 46750 76628 98446 115928
2067.33 105218 135158 202630 220390 215804 224834
2070.22 210802 196226 204274 200830 214384 263972
2073.11 241034 160046 113598 84982 62830 55410
2076.01 40976 66618 118384 79238-9024-56348
2078.90-80518-79348-81724-99132-71242-9712
2081.79-35348-130168-191388-200358-166058-146918
2084.69-174436-156270-58102-53574-145692-185628
2087.58-203120-217010-211020-202198-129360 2086
2090.47-5900-109628-154304-178124-208036-222446
2093.36-208078-89870 34214-39610-161086-178970
2096.26-170726-180904-195606-159908 4360 110500
2099.15-30736-191914-238400-216306-175970-173594
2102.04-114616 71110 91042-100664-209260-219350
2104.93-229830-239072-211020-41502 135526 42008
2107.83-126894-165256-181836-218684-228102-137124
2110.72 67180 108592-88842-205036-199368-185776
2113.61-197346-180646-9052 176056 51232-183630
2116.51-254940-228374-192836-171094-98182 82196
2119.40 99448-104596-215946-212214-210206-206208
2122.29-157376 20912 154024 9202-163982-199910
2125.18-196948-198266-178104-48276 95410 23320
2128.08-123258-177190-208378-227762-208386-115788
2130.97 10890-22678-169494-238340-247662-226250
2133.86-187646-134738-60882-77056-164418-193294
2136.75-198558-214082-199418-148682-110420-129944
2139.65-189106-225404-235162-230528-231824-245564
2142.54-236594-207026-203692-200980-192746-199402
2145.43-207614-185570-140684-156710-203572-209680
2148.33-214202-222836-219438-161176-75736-83330
2151.22-148240-173370-193998-218906-202238-69912
2154.11 38222-65042-192988-216868-211982-204772
2157.00-128060 74706 133420-63284-208146-215540
2159.90-207540-202464-71980 120226 55548-128976
2162.79-195258-199010-187986-124018 104488 228382
2165.68 8244-190366-215210-200960-164748-2244
2168.57 210858 125304-128532-230162-236124-224472
2171.47-134820 97924 170786-33940-188304-219642
2174.36-207318-148310 49748 211828 48152-174182
2177.25-228066-216594-195504-21418 199454 86762
2180.15-163980-233460-216108-195756-77582 127248
2183.04 88536-134024-228754-229198-210688-118384
2185.93 43138 40670-124694-217504-210082-168516
2188.82-90674 41478 6450-165234-223136-214730
2191.72-209762-125148 27968 12966-146088-228796
2194.61-254632-257456-175110-53094-95296-223014
2197.50-248980-217794-180440-91738-23848-94300
2200.39-201290-226982-210334-192638-155132-138124
2203.29-195980-256644-251932-214848-175342-114134
2206.18-101338-141068-169276-181324-189504-173656
2209.07-165738-210576-232734-217794-213264-186624
2211.97-154316-170702-196378-213324-244980-258018
2214.86-214526-166092-186566-224050-227586-220430
2217.75-212730-200722-211574-217672-203516-200124
2220.64-193024-186672-219570-247202-260990-274852
2223.54-247122-209204-205376-209934-213550-213684
2226.43-212834-197710-199756-214858-209292-214718
2229.32-231848-215734-196140-180896-145416-129792
2232.21-138686-132942-132226-140806-137498-132674
2235.11-142158-159884-162076-157860-180484-183806
2238.00-141860-89838-75298-91930-107632-113886
2240.89-113452-130830-173268-191940-172206-156902
2243.79-158714-142396-100044-54504-31956-33912
2246.68-51708-57782-66598-89380-96984-91462
2249.57-88232-81636-72706-27432 51886 117250
2252.46 135998 115046 52056-4172-18458-19340
2255.36-20540-37834-70126-84020-68886-4034
2258.25 106672 196950 222180 189832 139322 141960
2261.14 137896 84038 72856 92904 48652-30184
2264.03-29118 97714 246128 328920 352138 331282
2266.93 291750 297160 326620 338894 386438 410222
2269.82 316632 192910 114106 122112 247010 417756
2272.71 516966 493938 388376 385710 498174 521420
2275.61 492148 517124 458134 318098 225170 233074
2278.50 382958 637216 781654 629840 359880 277860
2281.39 315372 333398 447176 695530 786376 590170
2284.28 339414 255124 235886 222552 403708 619620
2287.18 576358 384784 249458 226904 258438 306428
2290.07 371870 387364 278744 154788 110812 140788
2292.96 172668 156002 170152 204524 203038 223150
2295.85 237374 204694 190582 268692 318596 290026
2298.75 398038 647994 864258 1002074 957990 838672
2301.64 817100 845898 843458 895850 1045538 1139614
2304.53 1004562 838200 916636 1258380 1522860 1428638
2307.43 1199964 1175154 1314854 1301320 1170168 1254166
2310.32 1439552 1322174 992598 952406 1343656 1655050
2313.21 1410522 1128742 1281556 1503964 1190142 835042
2316.10 1151804 1719314 1508382 952692 1170806 1825724
2319.00 1633050 914142 1075934 1902174 1805450 1008730
2321.89 1164182 2087026 1991420 1098016 1324446 2367088
2324.78 2138588 1059798 1404916 2639944 2338730 1253936
2327.67 1857886 3059218 2358444 1264128 2224258 3274528
2330.57 2180736 1370766 2709600 3291240 1840946 1663864
2333.46 3295028 3165464 1606828 2159134 3543152 2607246
2336.35 1561584 2803502 3358382 1888062 1804320 3142254
2339.24 2606858 1479488 2391796 3035230 1899466 1715236
2342.14 2627466 2123250 1309236 1869754 1997080 1144978
2345.03 1117764 1462104 996156 665148 886350 776982
2347.92 403030 262200 362188 517160 499860 671760
2350.82 1100600 998736 976600 1677262 1675596 1430484
2353.71 2297094 2439158 1965052 2742270 2815316 2210502
2356.60 3043602 3061568 2453188 3392082 3289334 2730074
2359.49 3606522 3238642 2957050 3805690 3182600 3157536
2362.39 3678142 2925316 3240516 3326420 2735740 3187352
2365.28 2806292 2606900 2895622 2418380 2620542 2468208
2368.17 2174166 2332530 1961540 1964262 1788808 1575982
2371.06 1546470 1248158 1219828 1062500 981500 891312
2373.96 782770 753058 634626 569844 460042 382146
2376.85 289366 234382 170630 88480-6420-69846
2379.74-84008-102936-105730-106820-140590-168780
2382.64-199930-237344-236210-212300-237082-293114
2385.53-322060-314976-273028-242630-257364-290900
2388.42-310998-312890-299142-281062-295062-311394
2391.31-324508-329942-310818-299838-299946-294884
2394.21-284818-274844-279504-281786-283314-277912
2397.10-255548-253426-303764-333114-308458-263000
2399.99-220010-230346-268078-279790-299736-323648
2402.88-313352-294108-309982-324386-313780-299276
2405.78-285426-281456-269770-275160-297292-287500
2408.67-266924-257454-260424-256258-257360-277406
2411.56-283648-278922-282568-280886-275750-267572
2414.46-256402-261934-278110-293622-268832-218628
2417.35-218216-236780-238760-224196-204278-223142
2420.24-276598-296396-270142-248566-225510-196628
2423.13-197098-208462-196492-176684-187314-188118
2426.03-171792-172078-175872-184516-191032-183298
2428.92-149016-118004-135256-162302-160548-129304
2431.81-110690-117648-125584-113562-81670-62324
2434.70-69618-74946-91178-117968-110014-70006
2437.60-47296-48624-42928-36274-20688 6310
2440.49 25686 41562 48602 56418 81480 108300
2443.38 113144 127806 163578 196332 217522 254912
2446.28 306406 320186 332112 401222 459872 481448
2449.17 516478 558046 568128 580800 645452 723764
2452.06 751800 808246 915714 958432 934064 974712
2454.95 1087656 1175380 1219510 1276370 1378070 1512290
2457.85 1582338 1613900 1785384 1998042 2032512 2059408
2460.74 2290482 2503348 2509314 2596584 2888838 3049280
2463.63 3043674 3226244 3563366 3721372 3718460 3919956
2466.52 4299360 4421012 4431980 4780130 5148954 5156952
2469.42 5311784 5871144 6199098 6213932 6623214 7310328
2472.31 7513522 7599130 8252460 8815750 8795640 8957906
2475.20 9402334 9343420 9169980 9775986 10344030 10107530
2478.10 10316380 11226040 11339080 11222570 12107500 12613790
2480.99 12292650 12834660 13572900 13216060 13346600 14209450
2483.88 14002130 13670680 14315750 14257840 13669730 14149690
2486.77 14261380 13572560 13843020 14017120 13321150 13361750
2489.67 13559490 13009810 12940590 12866870 11832440 11167660
2492.56 11049260 10717500 10927530 11430200 11706030 12511510
2495.45 13559300 14606870 16131650 17740760 19194140 20360110
2498.34 20056630 16490290 9942868 4574596 2660316 2616460
2501.24 3080626 3628810 4451494 5432728 6429030 7729096
2504.13 9003348 10470140 12037870 13258970 14689810 15717560
2507.02 16674310 17644540 18248740 19028150 19386740 19854790
2509.92 20079730 20172200 20235720 20055770 19984610 19630440
2512.81 19308870 18773930 18255980 17636560 16989260 16254790
2515.70 15479370 14685000 13845560 12957060 12053120 11174060
2518.59 10299600 9450466 8606956 7763524 6925902 6130508
2521.49 5434158 4800664 4194102 3596304 3026746 2540644
2524.38 2134536 1750564 1370978 1049254 816564 607922
2527.27 414192 271598 179436 112484 50212 5174
2530.16-45244-103002-128278-129966-133528-151658
2533.06-181120-200176-206746-190508-157152-152852
2535.95-167106-180484-185396-154632-114866-127176
2538.84-155882-167966-179840-176438-154862-144000
2541.74-151560-171482-192906-219232-230296-210244
2544.63-178398-146152-124046-123520-125550-121672
2547.52-146098-185920-201576-219490-248074-239450
2550.41-219890-208942-204602-221274-225360-186738
2553.31-122628-106948-148068-181668-203268-213080
2556.20-203908-184644-168564-168598-181024-207004
2559.09-223378-223644-218830-217414-207476-185636
2561.98-173438-177494-170244-150060-158758-182960
2564.88-198218-193834-186766-197330-206014-217900
2567.77-219548-216270-209690-171698-145534-178560
2570.66-220194-226118-222344-195756-143110-140882
2573.56-195242-235708-238126-216412-210714-208610
2576.45-191138-186112-200122-223616-227006-187674
2579.34-147358-144856-166642-176312-164932-163458
2582.23-195316-201676-183492-204726-225388-214372
2585.13-196620-181584-179614-189510-197418-194858
2588.02-195064-178070-161908-198762-231692-221808
2590.91-196862-174730-158204-154612-178824-209312
2593.80-222580-225622-220278-201614-178340-170706
2596.70-202692-257336-257274-194302-140734-162200
2599.59-190066-155058-149836-172354-165798-158924
2602.48-185034-229222-247380-238330-214668-195586
2605.37-197428-206570-196626-171870-158048-167828
2608.27-190346-213954-240480-239040-214090-216966
2611.16-251646-295278-305588-283948-270436-256028
2614.05-211054-168702-174684-211036-249526-273706
2616.95-286114-299860-301646-273564-254044-252584
2619.84-253114-289144-302724-264180-256248-268394
2622.73-271840-278572-279634-278762-280678-290566
2625.62-291346-299970-326252-323774-302490-292984
2628.52-307098-326974-345378-358412-337616-320098
2631.41-333936-344348-376680-415846-393342-380990
2634.30-407444-420794-427076-434188-447548-478572
2637.19-501966-489942-484608-483334-449150-454230
2640.09-497270-503454-525478-568420-568794-551156
2642.98-547984-551668-576348-623628-625356-604336
2645.87-635450-684036-734966-765296-754568-727146
2648.77-682260-656388-730436-819666-837784-842484
2651.66-839632-825384-854634-909540-930586-914700
2654.55-860844-826404-878548-953348-982320-993802
2657.44-983942-943314-960956-1032732-1081668-1093350
2660.34-1074702-1062982-1046758-1008166-1014532-1049432
2663.23-1066054-1081412-1074056-1075046-1104596-1093702
2666.12-1100372-1168090-1176256-1172854-1219070-1234308
2669.01-1251932-1293282-1273790-1248208-1245212-1218004
2671.91-1243366-1299202-1302042-1278978-1248166-1250526
2674.80-1289326-1290778-1281866-1246200-1215658-1294240
2677.69-1376474-1400506-1419948-1365288-1287706-1308502
2680.59-1360210-1379150-1378606-1336918-1294770-1289668
2683.48-1308226-1332654-1336858-1339366-1358002-1393966
2686.37-1470114-1505868-1430430-1315906-1256198-1288918
2689.26-1385490-1463322-1473322-1450254-1413002-1345940
2692.16-1303762-1343142-1399324-1391158-1392266-1423504
2695.05-1408126-1386656-1347642-1270582-1244392-1292410
2697.94-1352114-1392036-1394916-1350358-1305956-1295278
2700.83-1319080-1365722-1394258-1363768-1340280-1372250
2703.73-1392070-1357314-1288730-1243458-1263870-1293160
2706.62-1308952-1313454-1286690-1267898-1276904-1288058
2709.51-1288982-1252442-1214842-1251032-1316880-1344254
2712.41-1352812-1337678-1292404-1255264-1242318-1276814
2715.30-1313646-1319670-1325252-1346616-1410202-1447492
2718.19-1423300-1408000-1435732-1472502-1466534-1422846
2721.08-1391738-1401130-1376800-1225264-957330-680290
2723.98-553658-586676-638256-665516-713374-787698
2726.87-868194-899198-894756-926108-1002478-1139092
2729.76-1226762-1191974-1133152-1099258-1098722-1119856
2732.65-1140382-1155278-1155182-1196968-1254390-1243582
2735.55-1209022-1199772-1251108-1312728-1333876-1365788
2738.44-1394674-1370600-1370428-1430610-1434826-1404300
2741.33-1417910-1439772-1456082-1466908-1440870-1431126
2744.23-1456996-1453198-1419796-1398890-1433240-1488880
2747.12-1482622-1439650-1418526-1425430-1454632-1481570
2750.01-1493322-1491394-1470978-1469718-1490536-1472016
2752.90-1403854-1377690-1439170-1480564-1460226-1436566
2755.80-1440892-1460444-1467344-1448612-1426658-1426276
2758.69-1426206-1411804-1413564-1440060-1482494-1512168
2761.58-1449420-1364442-1376932-1430916-1409936-1327894
2764.47-1309742-1368968-1396024-1379282-1329166-1277740
2767.37-1276770-1312722-1311274-1267990-1239326-1249740
2770.26-1252344-1207552-1153938-1133374-1164524-1192826
2773.15-1155048-1114194-1115420-1103742-1065964-1033960
2776.05-1024410-1022292-1025534-1001858-962092-946908
2778.94-912076-829898-783916-787198-733212-653884
2781.83-656712-688574-656032-606448-585760-562504
2784.72-569626-606354-587128-505520-462260-436520
2787.62-396600-406936-443314-436142-390756-360908
2790.51-357538-361738-367308-359388-330680-304214
2793.40-287226-300232-311606-277060-264060-291004
2796.29-291180-256822-234166-222434-224500-246108
2799.19-260302-252878-227754-200590-208356-218432
2802.08-188848-147832-146894-171760-161088-149554
2804.97-186100-210090-194064-176360-219492-245186
2807.87-200750-193386-205392-192812-178494-182618
2810.76-218772-212244-140388-111338-155620-220066
2813.65-258364-243458-203800-164542-142404-163330
2816.54-191978-176676-154416-138230-119440-141440
2819.44-187436-206946-191960-143808-138816-180176
2822.33-184128-173778-189626-198656-160292-115658
2825.22-115302-147208-164462-170348-200632-238978
2828.11-256504-227666-184524-184742-217708-226016
2831.01-216736-214508-204550-174192-131304-123224
2833.90-134472-131906-152786-217136-228506-181108
2836.79-168718-196936-211320-165938-110770-130304
2839.69-192196-230138-226804-182388-177580-200476
2842.58-200378-175754-155652-169684-183896-183056
2845.47-175750-194780-236758-214036-153958-129374
2848.36-144428-181844-193820-197876-212622-212428
2851.26-176614-133844-118966-138082-187170-199274
2854.15-187338-211614-235530-228602-226978-217696
2857.04-181624-177174-211102-208674-196364-211676
2859.93-183468-124094-143524-209626-245764-250672
2862.83-222514-199948-202216-178956-139602-122664
2865.72-127538-159228-175610-181752-190066-172584
2868.61-175618-194410-174614-124582-92766-127002
2871.51-203942-240382-230658-187878-150566-175928
2874.40-231716-254832-218410-184898-174120-166234
2877.29-188240-208204-213740-227146-221260-187028
2880.18-148822-127464-161578-205734-191752-175064
2883.08-190604-167432-136120-170854-213810-210290
2885.97-177568-172098-204348-209612-172004-119114
2888.86-91356-98688-133070-197144-215614-154054
2891.75-130276-177834-179276-120738-100002-139570
2894.65-184260-199300-243106-282814-251708-229354
2897.54-252042-243888-213336-213086-191008-148674
2900.43-155944-173470-167100-154822-137556-121356
2903.32-137994-185232-205384-201852-170810-112342
2906.22-116674-168574-179944-148876-167554-231004
2909.11-266402-241216-169744-135986-131656-136304
2912.00-162682-203188-227466-170534-100660-94708
2914.90-124330-174364-191712-144708-127872-176808
2917.79-214736-201360-173860-195096-245382-217736
2920.68-147952-170246-215962-162892-97730-119724
2923.57-202724-248500-207528-188268-219224-203646
2926.47-166092-167784-178784-199162-222020-206074
2929.36-185228-221876-261194-239910-207752-174220
2932.25-132930-152866-182540-148454-157012-212928
2935.14-205946-182296-197564-201532-210644-250782
2938.04-245754-176750-141486-156914-177246-172012
2940.93-110320-99376-178356-213034-178528-133130
2943.82-140280-182396-188866-186150-207988-224406
2946.72-226788-244510-255710-221390-198122-224946
2949.61-208176-166762-212600-258976-225366-187674
2952.50-179278-169492-143926-160562-216438-243540
2955.39-254046-275088-298870-296668-230496-175166
2958.29-177482-169236-160926-161404-120240-98244
2961.18-153012-183900-155720-125358-130606-190058
2964.07-208202-167714-150406-128760-132604-174572
2966.96-169426-153392-174226-192166-201654-207096
2969.86-169832-126996-114896-136296-184606-186212
2972.75-160040-155556-120078-91676-121178-153036
2975.64-189932-236696-243480-184608-114812-100462
2978.54-119306-133276-158250-188718-164700-119144
2981.43-107776-108002-128640-178160-184024-124824
2984.32-89106-120948-149326-147132-134402-124096
2987.21-139044-164758-210932-259688-246350-167072
2990.11-104770-123000-174822-196564-199526-223112
2993.00-226614-194612-204518-235596-242190-263306
2995.89-274604-227598-145870-92432-69886-45330
2998.78-73084-161362-219738-247856-231486-177756
3001.68-170562-181866-189898-218030-258726-266262
3004.57-203244-139674-150008-210570-239404-224920
3007.46-230996-228130-206360-215564-236542-194910
3010.36-120952-101376-155486-232370-252606-199368
3013.25-144814-126692-116244-152322-212720-218934
3016.14-220316-251672-267292-251128-210396-171014
3019.03-161546-189398-203502-180410-145174-136264
3021.93-171454-209384-215878-200522-189580-223748
3024.82-269364-251050-190284-135614-99794-105986
3027.71-155410-206522-235864-216196-157504-110724
3030.60-95536-91228-101666-130228-157588-168472
3033.50-147442-135898-171816-199480-172008-166290
3036.39-170498-143856-154152-168254-158060-184048
3039.28-202864-173178-153180-161472-177398-177086
3042.18-174958-182994-159972-114256-111942-143774
3045.07-153594-152744-158608-182474-213066-208482
3047.96-210498-258166-279898-233328-173466-152218
3050.85-166686-178942-187500-207806-219006-197866
3053.75-175766-169972-149856-125280-138742-195824
3056.64-232362-187894-106198-75152-99418-124418
3059.53-135458-182320-222106-215282-205564-174644
3062.42-140496-156182-203008-236124-254818-247306
3065.32-206398-186350-165438-135332-152678-166582
3068.21-124932-76618-51844-71930-142122-188370
3071.10-170660-162920-176830-173814-174304-155710
3074.00-110250-126208-178308-159858-112128-118228
3076.89-108522-78188-84136-135702-180122-151626
3079.78-124960-138440-144280-141286-147230-158712
3082.67-189924-203120-183052-155256-141616-135972
3085.57-127044-146448-175236-149728-118038-149018
3088.46-185616-172020-159214-206750-251762-236680
3091.35-209196-182858-151746-146738-165546-177244
3094.24-165358-118352-75316-93552-109110-114098
3097.14-177216-213340-155290-100574-121136-172326
3100.03-180920-147812-105528-106488-161352-201596
3102.92-212202-194802-200246-232860-234486-216446
3105.82-164580-130408-168360-190904-178088-172698
3108.71-192622-198020-167742-177100-224002-217134
3111.60-217938-247036-228156-151546-104094-151388
3114.49-198436-217102-240124-224112-180094-174358
3117.39-189152-153700-126570-146432-144198-139814
3120.28-131750-121808-168136-187170-175266-180136
3123.17-146580-97614-95912-130436-153580-171356
3126.06-193404-204988-187564-131284-83532-98300
3128.96-124494-153260-235496-290756-247780-200756
3131.85-168230-127624-128002-138244-145036-178586
3134.74-190110-169318-193704-233172-217424-199794
3137.64-197764-159310-95666-98792-138906-143624
3140.53-147152-137308-110538-84112-123030-197654
3143.42-178878-137540-182186-237124-224096-185670
3146.31-193574-195928-128536-71708-60426-81370
3149.21-136724-186220-186390-177988-150378-94528
3152.10-72098-79402-92804-153102-208092-199974
3154.99-200450-214610-225210-220018-185772-172922
3157.88-188018-195484-215962-235068-223402-242540
3160.78-264480-217662-152362-125702-132912-154412
3163.67-189024-176192-133428-157074-236140-243048
3166.56-168722-151388-168748-161248-132832-113470
3169.46-139180-190244-216712-215656-227702-229996
3172.35-196068-168828-173158-188110-188758-192054
3175.24-198324-188146-178272-138624-85838-111458
3178.13-172072-184524-144478-103570-104178-139578
3181.03-198150-233366-209696-141282-110818-140248
3183.92-153200-153372-176558-201096-196014-179680
3186.81-199566-214112-161184-104136-107110-130748
3189.70-139056-150322-144392-113462-117502-157778
3192.60-167162-156284-142548-130458-151046-195878
3195.49-154312-92838-139712-186494-188834-158112
3198.38-111018-75418-79524-157400-193212-151244
3201.27-137006-133056-132508-155606-167918-167856
3204.17-162312-144144-165486-204192-200232-174988
3207.06-182038-211822-233346-191338-121162-118340
3209.95-116754-90116-92006-138138-196628-219680
3212.85-186672-149356-160776-203772-229190-198148
3215.74-130676-118268-151902-158474-118038-116106
3218.63-167634-156148-99868-83918-99426-106830
3221.52-147780-215994-225384-200292-155548-80538
3224.42-77626-163042-196248-144116-120686-150800
3227.31-180696-165886-124408-139872-144684-99188
3230.20-87210-125628-165680-182440-203296-218336
3233.09-189904-156478-166962-207996-207800-163026
3235.99-142656-105518-77124-104686-140694-195612
3238.88-220436-177528-117686-57572-63758-140120
3241.77-170968-144820-123216-93698-87826-153680
3244.67-239340-311510-289770-180492-104962-35700
3247.56-11456-96824-186158-185486-149256-142734
3250.45-141120-141540-141194-131780-128960-141596
3253.34-163078-181532-163866-117284-96460-124150
3256.24-153778-153358-194170-220640-165082-159540
3259.13-187594-180244-165798-159186-154022-152320
3262.02-146166-124434-131820-164866-205274-258058
3264.91-252580-195424-162752-138462-156056-158496
3267.81-116176-147824-204250-208728-167858-155794
3270.70-189828-181374-164180-192698-214360-218580
3273.59-225986-209380-172736-133012-145630-226824
3276.49-285758-255028-189856-171826-165506-152076
3279.38-159474-174846-164872-118844-102254-122546
3282.27-137930-163626-193022-224346-210988-131142
3285.16-59778-30528-62162-157906-241210-208542
3288.06-111276-116844-199318-248282-277660-272384
3290.95-233394-220138-172760-103360-125438-181834
3293.84-186216-165538-165744-174676-153560-140314
3296.73-131550-85294-72176-121908-170230-195576
3299.63-199650-162380-109292-82502-88744-118454
3302.52-163650-171038-138944-117348-98510-104630
3305.41-134364-163258-180638-169224-106210-90682
3308.31-130006-152138-160526-124204-98444-101394
3311.20-83106-78326-94890-107740-110036-142350
3314.09-177852-174392-189970-195856-146056-91700
3316.98-93178-119606-163008-208350-220132-210660
3319.88-174840-159182-174382-143160-124516-152534
3322.77-111966-50224-56000-102478-151932-141124
3325.66-87996-122454-229630-259778-176552-131580
3328.55-154420-122348-136660-220562-207720-132870
3331.45-92754-103704-144614-228798-309976-278884
3334.34-218982-246330-249482-130448-37040-50148
3337.23-96500-163488-217322-187600-136388-140394
3340.13-163304-164480-152840-175000-235114-226108
3343.02-156234-145400-150736-98220-67214-88672
3345.91-95112-92368-131654-139894-66352-62478
3348.80-127554-125800-92006-104242-170548-206104
3351.70-190404-132212-123272-190974-184052-88528
3354.59-34868-62058-119780-169322-197852-210672
3357.48-212962-194176-159328-179634-239438-244566
3360.37-183406-131346-141578-171746-171870-153490
3363.27-149692-141654-125212-132598-122736-85702
3366.16-94832-150788-198160-185810-154290-178624
3369.05-169114-55398-19974-83888-92164-86618
3371.95-120920-169848-209264-237808-230462-203416
3374.84-202772-198004-128404-69542-97100-143692
3377.73-167820-143212-129586-233020-302302-249816
3380.62-234742-200252-92826-52772-82246-81170
3383.52-37522-42856-149302-259448-258008-179362
3386.41-114460-140506-214684-212678-194126-212786
3389.30-173940-90850-77458-116566-125254-77102
3392.19-36510-52494-45340-46184-115988-228582
3395.09-323932-289704-163386-137826-214744-228352
3397.98-205246-224778-191646-103914-88728-120822
3400.87-117408-126712-105156-38998-77572-164636
3403.77-189630-172104-143134-160216-181396-129084
3406.66-59460-63944-140532-152438-75182-72096
3409.55-169082-236992-201508-133878-142316-193072
3412.44-169676-62430-24070-110474-195414-193408
3415.34-157124-195022-276296-281330-224164-186060
3418.23-173686-159308-136830-76706-49310-99470
3421.12-140478-153510-189762-214646-194700-131400
3424.01-77382-100390-131402-140524-168784-206588
3426.91-209796-182388-161110-166166-174082-156796
3429.80-162020-176840-135172-76642-60376-90076
3432.69-119576-124512-121120-93928-96436-123672
3435.59-117806-112714-110176-87492-107300-183906
3438.48-194216-159380-126952-102932-91532-75564
3441.37-125008-187458-149988-110452-112780-95182
3444.26-99638-163890-192394-205628-256352-231940
3447.16-135768-108958-133964-148106-181806-162250
3450.05-66106-59552-147850-157744-115002-149858
3452.94-194164-215090-234708-164772-55508-36470
3455.83-51872-75084-103046-95402-82784-89910
3458.73-78734-67856-120218-133578-23458 24202
3461.62-74022-189508-234110-194616-137854-124112
3464.51-137144-117658-97128-144414-207912-245242
3467.40-262914-285878-245274-166976-176210-218166
3470.30-199500-171510-180666-170248-150436-157582
3473.19-135748-131360-177012-188112-210504-240498
3476.08-214304-149084-73132-57518-110902-158024
3478.98-190450-211400-184726-153588-143630-136752
3481.87-130848-125244-122054-111468-85758-72518
3484.76-88104-112480-189296-277422-222904-144046
3487.65-155316-172960-192034-206702-227004-223094
3490.55-164624-163672-190016-175800-185812-214796
3493.44-237720-223986-170044-168274-207906-181044
3496.33-139814-131638-113720-139968-152936-113266
3499.22-92550-35076 11438-64476-198444-283332
3502.12-270540-205506-147108-123556-148728-208256
3505.01-218160-173754-158114-164326-162220-170746
3507.90-149868-116436-179224-252094-218980-172498
3510.80-206296-230006-189056-176434-206534-209268
3513.69-209886-254810-247742-187286-142500-78206
3516.58-33800-45666-62468-125688-203384-179532
3519.47-115428-114140-183268-210366-189852-187886
3522.37-175380-197058-199898-141046-91214-61010
3525.26-77824-125146-120032-122478-157108-167036
3528.15-186364-207048-200948-182950-195074-240704
3531.04-247892-202740-165716-126274-88224-126684
3533.94-201320-201480-159872-119894-103390-104428
3536.83-110854-150256-203924-245466-246686-159212
3539.72-77508-115656-167930-169044-150852-108024
3542.62-78810-100448-149342-165428-166282-223568
3545.51-272000-227798-133342-97336-87560-70654
3548.40-96366-154018-195032-170126-148766-158544
3551.29-138546-108696-72802-44594-67664-89118
3554.19-103086-135034-148916-159106-202532-256978
3557.08-279988-229694-150212-144946-188500-180182
3559.97-128686-104208-126616-126138-101772-131816
3562.86-183536-186438-156050-126374-84380-81528
3565.76-153326-169724-110248-89988-95090-122888
3568.65-172268-192028-210902-190280-127424-90488
3571.54-128446-228526-228028-128466-91692-144190
3574.44-218070-246598-202096-138780-93078-40326
3577.33-25308-96472-193334-251900-258692-220964
3580.22-171564-155454-147378-127570-103412-74472
3583.11-63650-70642-74536-82710-112872-161906
3586.01-169444-109266-77148-138974-208806-218082
3588.90-200088-168984-149262-179808-200354-195402
3591.79-183026-161264-127786-65932-34936-63040
3594.68-60940-31624-30334-72474-162360-178302
3597.58-100050-62256-84302-100526-105288-116326
3600.47-128520-141674-141752-127872-102334-76418
3603.36-81296-61240-13282 5222 37526 69202
3606.26 19730-82978-119188-86690-73382-88858
3609.15-86806-83646-95134-58624-8862-28670
3612.04-62638-43154-34056-49154-15678 25722
3614.93 11294-4546-5498-27688-28396-29072
3617.83-54854-59108-57476-81912-120340-101708
3620.72-37926 8720 31294 17776 18048 81392
3623.61 88666-22858-84266-31462 23354 31020
3626.50 27632 91614 173456 165130 97384 27310
3629.40-59246-148686-191798-129262 15174 82810
3632.29 6540-86834-109460-108132-90082-20236
3635.18 50990 96614 90682 42396 46678 91518
3638.08 114446 87862 53050 45470 88240 126184
3640.97 94564 80482 104938 93632 59206 42270
3643.86 45652 49496 38634 24628 20470-2734
3646.75-5902 28910 10870-34914-53640-62992
3649.65-65744-53370-71244-145886-202970-225358
3652.54-221554-192570-181804-191326-180230-119684
3655.43-70098-92926-132058-135244-91198-69234
3658.32-131918-175678-149318-149272-177086-175518
3661.22-148048-72336-25538-60808-101054-130442
3664.11-137200-105260-83130-102442-94764-72774
3667.00-117970-186368-225536-212122-110128-22376
3669.90-75048-156624-169452-158666-133556-130044
3672.79-142828-121534-108452-126146-162666-186622
3675.68-157652-120178-110100-106222-89822-95616
3678.57-132054-164382-169174-166822-152414-88052
3681.47-78496-133616-146886-110530-83146-102338
3684.36-135084-143138-85048-10420 9866-22240
3687.25-106594-164952-136198-113714-135316-105506
3690.14-47104-85200-148694-125982-106760-138100
3693.04-109914-47720-81446-118708-77014-54376
3695.93-110018-180888-157842-104188-105176-100918
3698.82-65092-79226-145346-160224-138640-130724
3701.72-129356-137428-125844-145662-180770-150804
3704.61-110094-121752-92792-6106-11306-62842
3707.50-66088-58418-76790-95402-109558-142822
3710.39-143244-68480-32016-83632-114268-105616
3713.29-140184-204950-220310-191890-156654-141112
3716.18-148186-124334-84510-79980-81754-71550
3719.07-90944-131544-140192-95648-62992-76274
3721.96-71236-57724-70070-84250-84564-90136
3724.86-72308-34166-43366-56834-57202-72840
3727.75-68166-95988-154836-184022-175434-105852
3730.64-58494-78386-85984-76492-48810-60444
3733.54-73700-34610-85862-164582-158566-156922
3736.43-144794-116298-85264-62742-118890-189690
3739.32-181598-144760-133840-118536-83960-85032
3742.21-91992-54892-47606-92696-128700-136762
3745.11-151806-188990-227406-212858-131494-80048
3748.00-96850-135402-180854-207048-188164-155866
3750.89-120112-103320-116348-131942-129990-128694
3753.78-131490-116914-119202-147822-164292-162694
3756.68-186682-253446-244344-151930-118492-148964
3759.57-185508-204928-183174-115584-81202-108280
3762.46-123778-131510-118350-69898-70938-167698
3765.35-238432-226806-182808-130632-108940-107604
3768.25-101332-96574-128604-175460-159186-129152
3771.14-136670-137440-133176-141934-127968-93634
3774.03-88590-139236-181736-185186-188394-184178
3776.93-149574-108204-77948-52710-81814-155046
3779.82-172822-134206-111408-107552-99854-81784
3782.71-89308-130836-156746-179896-200896-184428
3785.60-136026-80908-83560-133722-174450-222596
3788.50-256138-238930-158918-83792-100158-158674
3791.39-184440-190202-180102-126554-67410-44068
3794.28-61100-110434-150620-174836-212362-216944
3797.17-137544-73838-118694-200156-236568-200182
3800.07-130738-132948-163672-159134-172022-156478
3802.96-83872-29990-36706-80804-127866-155914
3805.85-139790-130710-165848-165304-97696-59302
3808.75-77884-103762-106120-100830-118884-157674
3811.64-181776-160164-149404-160374-149356-124356
3814.53-107796-86416-79598-97132-119836-160996
3817.42-195862-186934-151784-142712-123756-100914
3820.32-107482-115214-120532-114480-93738-92920
3823.21-104988-108620-113642-127064-167052-196218
3826.10-131830-65786-98340-105366-65550-105094
3828.99-168512-139216-72932-70104-103052-115336
3831.89-96544-88592-102936-77854-51066-77730
3834.78-87522-72804-115114-186722-205566-151816
3837.67-56188-14450-90062-196276-201934-123726
3840.57-93804-130046-155934-158078-119550-53106
3843.46-20354-35664-41056-48318-79138-65260
3846.35-29118-61562-122580-135376-112898-93054
3849.24-59238-60010-104804-101450-91360-123212
3852.14-119558-89354-106306-119870-108270-147662
3855.03-195250-158496-92570-60898-79228-142032
3857.92-164002-129230-109252-99792-56724-21216
3860.81-34526-59334-84288-174006-211178-150490
3863.71-144914-210362-220832-164464-129116-138372
3866.60-114402-100260-127184-120414-119042-142252
3869.49-122088-52296-23810-40286-51752-100152
3872.39-165574-161230-133502-123898-122034-138870
3875.28-155402-164578-158046-140112-112372-59814
3878.17-44920-108620-161542-183188-186486-158046
3881.06-122148-80792-64458-98060-145444-191872
3883.96-187248-131092-110780-156292-178676-131328
3886.85-92472-75396-107578-162260-128766-64034
3889.74-65012-97126-135536-169734-148640-97090
3892.63-84652-157750-231784-224444-199048-178580
3895.53-139196-106318-104306-125152-160214-185382
3898.42-120548-33782-34862-73860-71750-63588
3901.31-86690-155152-192046-163548-164564-166698
3904.21-145514-179474-234990-262506-292956-308020
3907.10-285440-260252-221380-137490-73126-77558
3909.99-75636-37604-30614-69018-110980-143814
3912.88-155542-119874-95574-127194-145730-145432
3915.78-132086-107604-130334-175076-225358-284884
3918.67-262538-190734-165066-138612-109612-122476
3921.56-141306-166216-174790-165782-195764-203204
3924.45-153866-150418-181326-206786-202084-165342
3927.35-168724-161334-102866-117260-188784-192322
3930.24-149964-119382-109246-144200-197636-200494
3933.13-139890-101924-126370-150090-146884-181576
3936.03-220336-198752-177292-148802-124074-112624
3938.92-109698-150344-160414-144832-158286-138898
3941.81-92914-91620-139118-168858-145806-114524
3944.70-123774-174358-201202-185832-153322-124706
3947.60-111610-72056-35644-114504-233292-260324
3950.49-206676-178296-212782-216116-194872-212858
3953.38-206120-192172-178630-144838-142870-177890
3956.27-231448-241718-167314-72986-42718-71432
3959.17-70890-41630-86188-176536-215456-236134
3962.06-218872-151922-143534-188312-194576-156746
3964.95-121896-136626-179218-214902-202928-181538
3967.85-205642-237136-218920-149000-113996-153194
3970.74-227802-261632-220428-178422-202164-234472
3973.63-250046-264770-244060
##END=
