##TITLE=Sulfur Dioxide
##JCAMP-DX=4.24
##DATA TYPE=INFRARED SPECTRUM
##CLASS=IUPAC A
##ORIGIN=NIST, Anayltical Chemistry Division, 301-975-3108
##OWNER=COPYRIGHT (C) 1998 by the U.S. Secretary of Commerce
##DATE=98/10/1
##$SPECTRA VERSION=1.00
##$UNCERTAINTY IN Y=2.1 % relative (B=1.1E-04,C=7.6E-10,D=2.7E-14)
##CAS NAME=Sulfur Dioxide
##CAS REGISTRY NO=7446-09-5
##MOLFORM=S O2
##MP=-72.7 C
##BP=-10 C
##$NIST SOURCE=QUANT-IR
##SPECTROMETER/DATA SYSTEM=IFS66V (Bruker)
##INSTRUMENT PARAMETERS=KBr Beam splitter; MCT Detector; Multipass cell
##STATE=gas
##SAMPLE DESCRIPTION=Sulfur Dioxide Primary Gas Standard
##PRESSURE=101.3 kPa
##TEMPERATURE=23 C
##SAMPLING PROCEDURE=1 L/min Flow
##RESOLUTION=0.9640
##DATA PROCESSING=NB Strong Apodization
##XUNITS=cm-1
##YUNITS=(micromol/mol)-1m-1 (base 10)
##XFACTOR=1.0
##YFACTOR=9.0949E-13
##DELTAX=0.4820
##FIRSTX=575.169
##LASTX=3975.077
##FIRSTY=.0000166
##MAXX=3974.59
##MINX=575.17
##MAXY=.0010258
##MINY=-1.40E-06
##NPOINTS=7053
##XYDATA=(X++(Y..Y))
575.17 18307200 14536060 13166760 12081680 10866140 9953390
577.58 10519080 13317790 16224570 13969210 11497560 10561450
580.47 10268050 9540244 8801134 9064174 10285670 11180200
583.37 9500202 9232388 8967580 8329548 7672440 7266092
586.26 7362202 8425314 9539526 7783162 6333142 6697656
589.15 6567490 6564274 6406274 5832428 6060750 7107246
592.04 6243016 5284056 4795458 4506356 5047084 5290834
594.94 4607062 4226330 4763256 4391402 3908504 3758644
597.83 3458624 3562676 3850226 3826144 3644122 3990012
600.72 3677158 2972084 2910378 2763700 2602540 2127984
603.61 2036936 2382876 2744638 3032150 2626846 2461212
606.51 2300078 1870504 1481028 1418834 1251824 1797460
609.40 2118916 1779256 1706766 1534032 1255872 1145694
612.29 1170560 1201906 1348970 1444404 1361584 1249732
615.18 1090006 959488 939432 946196 985030 1000070
618.08 848064 694858 772892 729988 728562 685874
620.97 709818 658794 521360 416854 350046 359580
623.86 277880 352220 295570 178168 348512 375470
626.76 423914 452384 143946 149528 508456 226538
629.65-38716 31270 289700 597980 538734 209330
632.54 54402-1482-9722 66090 106822-32956
635.43-189482-113558-11940-113210-259634-215446
638.33-169938-56192-107410-158540-49624-94016
641.22-120668-219048-204194 25732-78598 50918
644.11 58712 70426-52496-274668-338052-239304
647.00-242738-128506 24244 127638 107268-83548
649.90-196100-296634-335038-316022-284772-242428
652.79 36184 128762-14870 8646-58298-93444
655.68-138976-117064-149860-110590-142922-353792
658.58-278426-104426-115848-228848-212928-94474
661.47-58250-130790-140312-229500-314010-332464
664.36-447114-493552-410222-284360 63570 2267536
667.25 4132064 2876758 1118764 333076 95060-184502
670.15-159818-251212-332078-256742-107996-204042
673.04-424604-329724-118172-77042-98426 9864
675.93-22684-260792-211310-123072-345958-372040
678.82-130216-127368-246514-281122-253604-120844
681.72 126330 21858-165868-173858-142904-167274
684.61-153076-99188-88760-77900 23808-8142
687.50-145408-178966-299308-304156-319430-317982
690.40-249038-119048 79322 34990-169530-206356
693.29-280612-320348-139020-98564-202604-338898
696.18-327260-316556-200086-77100-88616-187244
699.07-176022-47546-2626-28290-206684-359140
701.97-340404-318484-209952-108258-146914-97040
704.86-108186-172622-276654-510546-378834-325084
707.75-426166-378522-154068-129838-302292-343472
710.64-327756-386762-245056-281876-359216-320132
713.54-257442-283886-302078-269108-194894-203280
716.43-352726-486700-498672-486922-307378-100824
719.32-99702-236462-250640-290020-362406-303152
722.22-219014-211776-172116-251546-329124-232296
725.11-162314-312414-431138-363810-261068-251224
728.00-240758-147856-196192-320706-345620-312856
730.89-301860-357092-270246-286492-319456-235994
733.79-324578-330306-167700-124764-182192-368902
736.68-371564-268928-195752-262524-314236-316860
739.57-227648-219816-247524-212150-174304-280878
742.46-324714-371746-335514-177458-126258-134492
745.36-177180-234160-240420-249644-299290-403592
748.25-306266-182702-212416-206772-132166-196618
751.14-128598-78174-154214-242456-242744-205882
754.04-242308-275676-353638-320628-186730-199788
756.93-244518-241336-138712-136750-161734-281248
759.82-208636-105072-231628-382932-396816-370800
762.71-333924-245048-250246-252632-239898-243602
765.61-277170-280554-245224-293496-356212-246602
768.50-152858-303358-414388-337516-215926-298190
771.39-251770-164840-201912-159986-126506-173630
774.28-222912-209236-260972-374592-356340-352396
777.18-302352-308574-354684-330006-211920-183646
780.07-172172-229610-354916-284588-216550-181534
782.96-122522-165472-233952-188404-253542-286612
785.86-214282-288212-267468-368652-452012-431012
788.75-315788-289454-338694-356862-220712-151580
791.64-240652-320290-242794-242908-266546-207040
794.53-307404-342540-187172-176238-113768-199262
797.43-317750-320434-159088-140270-279016-348444
800.32-407456-308880-258734-401202-351766-357164
803.21-323738-286246-93422-14906-163026-296992
806.10-195774-169408-267024-178846-164358-192444
809.00-290578-315968-271262-334210-292156-257482
811.89-251086-248818-232406-205558-292636-390682
814.78-241674-198436-183534-138390-165910-185876
817.68-124252-257484-452340-279610-176188-143182
820.57-84524-185478-239116-310428-361774-210822
823.46-82208-235458-261964-227732-265750-329080
826.35-344426-180390-119474-205778-268524-279488
829.25-276578-263154-218890-261124-291162-304266
832.14-301736-110058-141876-328800-343760-403720
835.03-406602-282858-191614-187944-199072-238774
837.92-204784-259080-242052-188484-161256-227342
840.82-182560-247824-275876-196686-235580-265488
843.71-342840-358914-421376-434096-305758-204874
846.60-174504-177390-294784-356792-244852-266066
849.50-322776-251528-297512-334896-245426-253326
852.39-287918-275704-293178-285000-325384-370986
855.28-388588-253638-125272-176140-263446-311994
858.17-271904-177234-131392-191964-239928-284120
861.07-237332-272432-338882-220508-118562-147520
863.96-204692-236666-255872-228230-256104-302518
866.85-252000-199140-194724-226634-223662-240700
869.74-305476-330230-280930-255774-228648-186620
872.64-188342-264680-285016-325542-298272-217834
875.53-192502-181768-150364-209200-239290-242704
878.42-255356-265996-247476-206656-138924-172012
881.31-179866-251066-283572-287312-256434-195262
884.21-220450-214472-201134-256012-178084-99058
887.10-156622-279274-268022-270122-234526-250652
889.99-244436-235728-293714-341238-339642-337104
892.89-238116-250692-253686-247494-234938-231606
895.78-210814-228682-242662-251664-222114-196072
898.67-237068-268298-188102-174994-217632-268998
901.56-245706-192464-207478-213344-137748-79604
904.46-114828-200426-206974-221796-305758-283370
907.35-239272-252322-225498-174316-126284-186100
910.24-271434-353406-246486-207692-209634-251348
913.13-220066-209100-200586-190784-126000-111134
916.03-137958-147162-139398-260740-318870-309114
918.92-296868-298084-319522-307260-247420-252346
921.81-292852-313416-344064-266172-224782-236646
924.71-175614-179796-276912-290116-250818-244348
927.60-226556-278002-305378-333642-254526-174998
930.49-158222-194102-233652-267184-208842-223728
933.38-260082-297478-292330-256310-199664-147856
936.28-177780-251030-274718-305904-283230-264834
939.17-202848-230734-248742-288672-284238-326624
942.06-362236-298220-231236-219670-178664-231018
944.95-282262-291976-260486-281320-267444-254476
947.85-259270-243580-182520-170314-225564-258362
950.74-216020-230944-278564-263476-193630-211366
953.63-217678-212082-230604-243492-224754-246864
956.53-263272-308222-308252-251448-194298-271694
959.42-280894-261658-246768-295476-256482-215020
962.31-249654-229138-209488-212724-155258-211220
965.20-296650-288470-234236-255794-245166-219574
968.10-204266-260704-264344-292102-220960-181064
970.99-151376-125088-151980-237832-274418-228060
973.88-226494-246600-214406-210912-138864-144472
976.77-143240-209978-214950-260936-243102-242112
979.67-239550-223076-246668-256408-220622-243522
982.56-215062-219532-220170-295366-273920-171746
985.45-123826-209196-217356-241452-239002-198910
988.35-185686-224110-274820-316864-247446-280162
991.24-278166-248232-267764-258240-174810-194586
994.13-249408-271048-202022-208172-266122-283358
997.02-195228-198306-208396-224228-244778-275474
999.92-266138-174696-156242-264572-316174-268234
1002.81-183002-267468-259052-215122-215830-206944
1005.70-228368-240690-200038-265906-274436-278148
1008.59-270582-259000-218360-237112-247396-234876
1011.49-234698-249132-198548-205306-187514-211342
1014.38-299596-303866-237086-252274-305714-259282
1017.27-179646-278090-258308-197958-197508-317948
1020.17-263206-202794-144464-158638-204506-259340
1023.06-267214-349810-318156-219030-193014-229424
1025.95-211930-231144-228320-220798-216652-256408
1028.84-246800-240528-202486-186486-145544-154420
1031.74-178304-187344-140534-194982-187164-198786
1034.63-201830-264230-293340-263246-296468-234936
1037.52-146088-130438-77764-57740-104432-171406
1040.41-139432-110932-62720-91188-69312-79994
1043.31-99882-146702-80738-116550-106784-76666
1046.20-21530-42654-48092-39604-41716-65116
1049.09 2598 22008 11684-3736 99578 122514
1051.99 123078 169292 195292 145244 143390 105026
1054.88 128294 154998 225170 196770 207438 259574
1057.77 293982 359710 425706 483960 500986 469092
1060.66 513692 609250 696962 728666 753540 788988
1063.56 842164 784782 812158 946680 1013080 1019840
1066.45 1130218 1189468 1189710 1271640 1416900 1509974
1069.34 1595272 1664086 1751826 1761564 1773288 1859290
1072.23 1945654 2044664 2249784 2424132 2594184 2523496
1075.13 2406910 2564584 2835182 2977936 3159422 3307062
1078.02 3336952 3301818 3397384 3582838 3883466 4122058
1080.91 4296204 4520132 4600270 4469896 4641172 4977240
1083.81 5231348 5392840 5667492 6022104 6152974 5966760
1086.70 6007712 6246708 6698942 7104686 7631590 8008224
1089.59 7927670 7441626 7511858 8064780 8611446 9235506
1092.48 9885454 10076500 9565796 9065386 9600770 10551540
1095.38 11288980 11709030 11874230 11921510 11994230 11929000
1098.27 12659090 13506040 13819170 13404850 13738920 14586310
1101.16 15110430 15485420 16092090 15829230 15066030 15270890
1104.05 17024500 18969650 19728650 19254880 18154480 17138700
1106.95 17863080 19883790 22417810 24537170 24191060 20293660
1109.84 18317500 19745280 22989190 25925750 28834160 27766770
1112.73 23231850 21543490 22820020 25874840 31218940 34993470
1115.63 31901620 26546790 26324520 27611310 31155640 36535140
1118.52 39306170 33935730 28788200 29962450 33027740 38312520
1121.41 43559430 46622230 39424470 30315670 31455820 39987280
1124.30 48855860 54887890 57387110 46431860 32544250 31412430
1127.20 38396110 52428430 67508500 73441620 57169160 38435030
1130.09 35937270 40296520 48018130 70631660 89852380 72767430
1132.98 49708730 40762930 42900100 50036980 60654560 83897330
1135.87 85150720 59181900 49863300 50599250 52413870 54200780
1138.77 67626700 76310470 63457800 55357100 55024080 53686270
1141.66 47033120 45623000 55329380 58003000 55771450 49978110
1144.55 38013000 32584090 36164410 39046080 44875700 37427260
1147.45 26459140 24296300 26399450 28260940 26749400 23889620
1150.34 22704290 23509600 23059370 24203950 26564550 26442110
1153.23 29321100 31196160 29901990 33186610 46875150 51419330
1156.12 45545240 50409040 57660540 59604830 60073500 63273240
1159.02 64845620 69067420 74926940 64981470 54998980 58859810
1161.91 63158130 81917470 92213930 78410260 61032610 58106850
1164.80 67322560 77265740 84167770 84963800 72394180 62551400
1167.69 57514700 60327940 67408070 76295540 78977480 68068130
1170.59 54428900 51365420 51378520 55846580 62021780 63916430
1173.48 53178900 43939490 43066680 44559550 50405020 58999930
1176.37 58326990 44726200 34393360 33419030 35807320 39340550
1179.26 43008480 44945190 36614610 28530140 27953520 32555200
1182.16 38914980 42693260 41107480 30822710 24387480 24492410
1185.05 25200740 28895090 34161860 34064310 28190870 24815490
1187.94 23841800 24209920 26508270 30235250 31441820 25776060
1190.84 22239080 21582510 22646710 23556190 24559720 23834160
1193.73 21860840 20996030 20889840 21132930 21926310 22381260
1196.62 20632490 18249080 18171790 18775630 19033610 19387200
1199.51 18957090 17009320 15415440 14902740 15866930 16931060
1202.41 17096510 16350840 14779370 13622890 12978240 12840580
1205.30 13721730 14409460 13528750 12193970 11580730 11216360
1208.19 11027550 10895780 11201160 11217750 10569980 9969214
1211.08 9631332 9306974 9003602 8548912 8353686 8503860
1213.98 8341768 8078716 7877324 7391266 6689898 6250436
1216.87 6443730 6732370 6586112 6185502 5737756 5313378
1219.76 4994584 4808198 5016802 5258402 5051392 4613218
1222.66 4257076 3940236 3725468 3663578 3751976 3662688
1225.55 3443926 3281836 3116524 2932992 2759634 2645170
1228.44 2730184 2671596 2511024 2314404 2153018 2052904
1231.33 1869964 1799704 1862768 1764786 1646248 1577194
1234.23 1487958 1381546 1291878 1250020 1288164 1173936
1237.12 1055006 954174 933640 809532 740616 828616
1240.01 826220 743892 628992 562666 540724 465486
1242.90 493140 454224 444056 382628 378314 346790
1245.80 285832 251326 259056 220382 178462 128620
1248.69 133842 125332 131026 120830 135000 94228
1251.58 43202-54108-28700-21652-15528-63168
1254.48-40882-58170-72042-124120-131548-159662
1257.37-107434-106528-86536-89072-44994-83390
1260.26-112682-113262-126514-170686-190554-220172
1263.15-195372-226312-212122-204498-135748-127960
1266.05-173208-243982-201346-216126-204682-202370
1268.94-205216-228118-180694-178432-206772-281508
1271.83-239234-228780-204634-248016-209312-164978
1274.72-162604-219818-212446-231334-212412-250302
1277.62-241950-242054-165440-188174-154304-137026
1280.51-153280-199000-210718-254378-202294-207968
1283.40-163658-200934-182412-184878-115550-147960
1286.30-150982-173756-171272-161714-83746-84220
1289.19-78842-130338-132516-114504-14912-11754
1292.08-7066-38176 1658 25224 89104 69260
1294.97 136824 184428 255264 297010 359082 415086
1297.87 525686 593424 757014 771906 834718 995210
1300.76 1149950 1177390 1392872 1614572 1781486 1939630
1303.65 2272106 2494732 2713802 3129656 3537542 3649062
1306.54 4108078 4682296 5068116 5551740 6311444 6855910
1309.44 7460674 8281480 9126022 9923630 11097420 12057050
1312.33 13094380 14537590 15718000 16899150 18923230 20403110
1315.22 21728710 24286630 26536220 27839790 30889560 34233740
1318.12 35623270 38708180 43839500 45754770 48488820 55269960
1321.01 58220290 60125160 68541020 73512260 74832700 84127520
1323.90 92254380 93228420 102064400 113561400 115591600 123065500
1326.79 138192700 143049700 148357500 165640700 175061500 178199700
1329.69 196383800 211515400 213653600 230405500 252126000 255346100
1332.58 268374200 297374100 303517400 309668200 346081800 356528600
1335.47 355756600 399248200 414396400 406793000 454597700 475438700
1338.36 462670400 512558900 540969700 522678600 570792800 606110300
1341.26 581214000 629839400 671802100 639019700 687912400 727888900
1344.15 674904200 699054300 720428700 669048000 708899800 737396000
1347.04 683856400 720393000 740651600 680264600 719209000 728085600
1349.94 665507600 704225500 692470500 637492900 671914300 644533600
1352.83 597921100 621756600 591546700 567065900 599689000 581208600
1355.72 583550700 625710100 615915100 625262100 652416900 683326000
1358.61 773660100 877173400 978275600 1088168000 1127974000 963590800
1361.51 535870700 205106300 127916800 131297600 162294000 181310800
1364.40 222546300 274918800 309254000 380057300 441119300 489068500
1367.29 584452300 614245600 678435900 741220600 746146900 819543900
1370.18 830241000 844201900 903797900 866694700 920426600 910033000
1373.08 894392400 934784300 874393200 906229100 876092300 846170600
1375.97 864245200 795620900 810772000 761057200 734817300 724399600
1378.86 661259200 665462700 603306100 588860600 552572000 512246000
1381.76 494756200 446337600 430625100 388171900 366746700 335951700
1384.65 306672100 286131700 255262500 237818300 211446500 194094800
1387.54 172869200 156930900 138815300 124615000 110213000 97588580
1390.43 86046840 75818140 65615610 58146980 49506700 43468270
1393.33 37058450 32200910 27213350 23348320 19237740 16629070
1396.22 13504990 11549190 9367096 7985544 6573976 5528364
1399.11 4372114 3760338 2919548 2612444 1926658 1707682
1402.00 1221298 1135210 777264 794200 472676 498048
1404.90 205086 280824 229306 402198 168464 226294
1407.79 44254 129428-62036 116982 92802 195542
1410.68 8426 205620 183286 223180 6714 116024
1413.58 82108 173086-110802-35300-112524 15110
1416.47-83598 20452-44580 73038-92388 10850
1419.36-40998 41262-86036 66030 62578 83812
1422.25-110278-56738-117752-35234-116652 13982
1425.15-61934-24128-163204-94974-158576-39826
1428.04-150484-115234-175600-43310-122490-59262
1430.93-101000-40258-129556-79788-183644-104370
1433.82-175850-139664-234624-171524-206060-136138
1436.72-193442-116116-138112-65968-185920-188660
1439.61-241420-137652-193590-127728-199134-173584
1442.50-193576-91512-167178-117258-145444-105352
1445.40-201998-154432-228100-189918-288768-217320
1448.29-203462-182382-251976-154716-185872-179232
1451.18-221966-160890-220538-150106-189624-164528
1454.07-234646-149372-203976-164034-192378-156392
1456.97-217362-192178-241364-196418-255888-217268
1459.86-237878-126474-145982-106064-164802-157136
1462.75-249394-232888-264404-195068-260374-216210
1465.64-192474-173874-244350-188234-218742-200540
1468.54-240288-144602-149268-161246-257144-195174
1471.43-196528-167050-229216-226730-287582-231636
1474.32-248142-215516-264188-219022-240250-200604
1477.21-258152-210810-226194-159120-200606-132826
1480.11-174172-202516-240024-150554-189602-168944
1483.00-208020-225064-255420-223004-282992-243760
1485.89-259170-187486-192986-149840-211148-229636
1488.79-274760-224118-238288-207004-217946-177956
1491.68-236950-191666-210328-208982-247620-250638
1494.57-264566-213062-238182-176052-240766-241360
1497.46-270962-200710-202404-190134-217750-168936
1500.36-226166-232418-215674-161558-205226-184690
1503.25-196938-198568-262066-226034-237758-197302
1506.14-230472-211830-231290-206206-239562-179582
1509.03-222658-219198-237220-164872-170582-165412
1511.93-235738-195338-178670-134896-156978-153506
1514.82-208630-182270-188102-160916-207022-180016
1517.71-177300-200152-212216-145670-159342-112444
1520.61-133588-124920-193018-189136-196118-95070
1523.50-84118-80244-129222-129876-175230-132900
1526.39-146162-116494-161146-142810-167150-118470
1529.28-114848-96264-166716-147856-137012-116142
1532.18-116552-105166-132862-117304-155022-158304
1535.07-177608-125764-142880-141382-154364-124754
1537.96-111810-73786-124662-131104-125038-52288
1540.85-52596-60144-120746-94332-103514-91382
1543.75-147214-135520-144904-98466-137132-165118
1546.64-184012-143720-193242-194448-246830-238724
1549.53-264114-242146-257834-241426-233598-196300
1552.43-265340-246508-248068-251336-277056-233878
1555.32-230150-206588-226540-206692-236312-246016
1558.21-268464-201080-233076-234010-257382-224520
1561.10-258766-270504-270370-220354-242438-221616
1564.00-236506-228924-247076-210522-266514-247058
1566.89-253990-240418-240882-211512-242186-195732
1569.78-209368-228938-251334-222240-226936-217608
1572.67-234286-212992-232464-240008-260394-210156
1575.57-265240-290714-253256-212708-243068-200692
1578.46-235668-249428-269762-262856-253476-227946
1581.35-272032-251618-229154-179960-184522-211160
1584.25-277998-259438-250662-210196-239088-211266
1587.14-199384-169666-179750-173866-216914-227672
1590.03-233500-203990-279888-265166-252846-249696
1592.92-261896-216578-223514-221464-248158-231120
1595.82-220648-203590-232828-218968-262824-258242
1598.71-238036-211318-236382-191432-214088-218736
1601.60-223828-212614-233792-211974-223234-258028
1604.49-275314-207910-218266-221996-202642-207202
1607.39-242648-201984-196836-196316-240494-225522
1610.28-226330-227284-251916-242410-233984-205884
1613.17-233858-261192-237722-211824-212450-211724
1616.07-239090-217306-209434-224352-249050-206198
1618.96-206194-184292-156210-159728-188296-152154
1621.85-182934-143138-166180-183042-242454-258528
1624.74-275240-255722-240404-198598-219708-216486
1627.64-249854-219768-240186-224652-196456-171580
1630.53-204536-194222-233076-224510-224702-219750
1633.42-209174-183926-218724-204814-186294-168250
1636.31-214562-233730-271744-239414-216102-200338
1639.21-241510-204666-170430-125314-160758-179266
1642.10-235774-209050-186192-169222-198446-225692
1644.99-272098-265566-212030-191022-226024-178790
1647.89-170492-194204-228088-225154-265304-216720
1650.78-184646-186266-221694-240210-220248-149030
1653.67-156876-199724-220828-180970-186358-167604
1656.56-188052-167676-181820-185894-229822-227200
1659.46-224904-185978-190038-202056-209060-169166
1662.35-195518-217572-246506-203616-192254-195120
1665.24-214708-189932-204106-196474-220808-228188
1668.13-205610-167272-198902-179020-163004-168712
1671.03-194258-211492-213680-201742-198966-169480
1673.92-207740-196576-152786-152974-180080-148414
1676.81-147530-138464-109994-139622-189546-160994
1679.71-161226-162306-163622-154002-151536-147028
1682.60-179526-168880-180392-164904-163274-145830
1685.49-141410-149510-190110-159134-183042-166796
1688.38-214600-235920-203664-155288-183014-164908
1691.28-174762-170298-191314-167232-138988-183870
1694.17-219870-199992-221180-203448-213248-200098
1697.06-181736-152634-168938-179150-202424-220650
1699.95-246366-182626-129910-141508-206320-223036
1702.85-230778-199022-195604-209828-248980-210354
1705.74-172112-135730-168902-201848-211536-183244
1708.63-196146-193636-201760-189662-210932-238688
1711.53-236068-179000-179042-160230-184036-197162
1714.42-189948-157480-196208-235294-217888-192084
1717.31-205826-198730-213490-187994-178426-149356
1720.20-175586-165096-200742-195314-166152-165940
1723.10-193736-168024-192788-175304-162278-150034
1725.99-183154-207744-212818-194876-234460-213264
1728.88-187680-152178-177948-200320-207106-176760
1731.77-171250-192790-184954-190794-228280-223054
1734.67-201852-195650-224736-176702-178614-176570
1737.56-183566-195584-198288-160610-172594-150186
1740.45-151992-183324-227806-209546-203108-204852
1743.34-206410-174928-170724-192668-230510-201462
1746.24-216990-202872-183804-184612-226094-221820
1749.13-215016-201382-228680-239186-218602-179958
1752.02-207526-202258-216580-233064-253260-198018
1754.92-205972-209976-207286-206214-179106-167548
1757.81-182832-154218-188900-205418-220912-224096
1760.70-242210-242390-211762-174292-199688-199770
1763.59-179346-180060-194954-181540-242622-233892
1766.49-204384-180318-198990-173412-157852-179948
1769.38-223710-202226-170696-153562-189610-202424
1772.27-223208-242742-276840-239348-207494-181042
1775.16-179698-161010-185044-169484-176796-203050
1778.06-215800-195646-167016-160318-199306-193702
1780.95-228944-216668-225314-223894-208004-192810
1783.84-214498-204794-191218-185838-196704-182220
1786.74-185758-195746-210122-199306-187790-184664
1789.63-206148-198060-208962-204160-219762-203434
1792.52-193888-181994-178522-178638-221896-245702
1795.41-220172-160760-151634-195192-211840-164604
1798.31-186320-221520-226598-198140-197972-219892
1801.20-247290-215128-216306-189440-181896-203694
1804.09-191292-186192-234908-209640-174590-192424
1806.98-197864-198152-209496-200420-198736-175430
1809.88-185450-176142-165552-156918-155010-152996
1812.77-195756-183746-195426-198590-232456-245740
1815.66-202232-127032-177646-218328-258972-176518
1818.56-158400-194162-174106-100878-173640-216842
1821.45-224788-167824-168042-205572-160044-113306
1824.34-183228-171782-171734-130538-129442-160302
1827.23-92542-63032-163740-219012-213088-127468
1830.13-132756-149562-71828-98418-215540-204614
1833.02-174256-79726-89514-118338-40086-90956
1835.91-197322-158886-159188-65094-99174-71638
1838.80 12000-80726-146964-173200-160568-73000
1841.70-87424-3522 27538-96290-133318-118168
1844.59-94306-46712-39000 51112-29994-124374
1847.48-131674-117666-8994 40218 63746 94492
1850.38-43136-98418-81804-44396 6626 88264
1853.27 157978 66290-7366-3106-50536 4794
1856.16 102200 167768 106692 16640-28696 1954
1859.05 44666 98390 188532 209346 72430 23138
1861.95 11522 2506 50386 159842 139664 70306
1864.84 15066-7364 25984 55470 91924 97064
1867.73-24412-68852-63836-90988-128854-66048
1870.62-21398-68126-133328-126316-139804-161008
1873.52-135684-63304-19866 131724 291092 247294
1876.41 109934 37846-3720-54184-100456-124754
1879.30-112268-26820-14586-47934-53148-31726
1882.20-22542 15330 17816 106484 76944-27556
1885.09-56386-65966-56904 45282 208142 87668
1887.98-35788-17020-21396 5388 175222 258288
1890.87 85832 17672-43132-61462-3564 229720
1893.77 213070-3408-64116-53548-36790 97298
1896.66 214652 45732-105652-140598-133510-20026
1899.55 194620 162796-64232-148274-140256-108620
1902.44 88680 161638-27240-129846-157146-130502
1905.34 6912 115604 21042-114090-175386-152270
1908.23-9580 140448 45514-103424-204234-210580
1911.12-95038 74906 3686-114314-177924-168528
1914.02-104058 33936-12954-82718-172004-198010
1916.91-103906 10724-73272-97516-145914-171132
1919.80-130134-50356-90070-133064-222770-209904
1922.69-119378-64998-143336-165084-207092-141698
1925.59-75584-107118-171534-162874-188098-127800
1928.48-108330-133486-189194-222482-235458-137670
1931.37-131166-162248-186388-189996-208306-156308
1934.26-172154-171264-167796-186244-172684-154310
1937.16-183618-152692-192768-210536-158566-140876
1940.05-174462-164066-190808-167516-172768-193718
1942.94-214792-220920-200520-208076-231430-194286
1945.84-227282-235224-185358-145062-189336-221674
1948.73-239356-213470-225986-228408-207614-195152
1951.62-216152-191452-182692-212980-270282-255060
1954.51-239402-233312-208888-182948-232190-227666
1957.41-226726-213140-216772-208346-236322-193016
1960.30-173792-183580-218082-224490-199652-209500
1963.19-238740-236592-241368-212182-185674-195924
1966.08-200998-190888-225246-226732-234510-209256
1968.98-184858-199964-255804-269906-258760-214858
1971.87-183558-182900-198614-194274-222660-218006
1974.76-221692-218384-206022-201304-227186-222424
1977.66-239654-208572-221224-223334-245464-266026
1980.55-239252-174074-157902-195266-242950-246706
1983.44-233312-215980-212182-199456-215128-214084
1986.33-186198-191172-224914-230496-263918-222258
1989.23-212722-206010-190782-150114-160110-214532
1992.12-235662-208264-226840-230262-231354-219608
1995.01-205454-201956-205308-218762-243040-202752
1997.90-196032-217216-222582-208898-215604-174668
2000.80-192560-174724-191690-233534-245960-222998
2003.69-230436-236580-242520-217796-202756-173276
2006.58-179106-179108-210582-232608-230884-192134
2009.48-224334-244654-229060-206778-186574-149822
2012.37-166812-190754-209012-185346-178122-174106
2015.26-181186-202196-214966-219544-227906-203648
2018.15-180454-205534-254682-251482-247248-254520
2021.05-240426-198940-187782-167372-203658-225846
2023.94-203876-200498-204430-182622-205608-195136
2026.83-199748-192212-197250-220932-238568-214628
2029.72-184656-185488-184796-194530-180014-167482
2032.62-182680-157358-151296-152188-147888-106732
2035.51-100954-122874-134638-130084-106046-109694
2038.40-135008-91590-96610-72000-67416-41628
2041.29-29672-30878-44796-30928-31098-27370
2044.19-16380 18634 38988 45898 49978 58976
2047.08 62222 116268 72954 52974 81870 93860
2049.97 64816 74230 96954 110536 87098 79012
2052.87 61334 82796 32694 35812 47552 49650
2055.76 71836 112606 69964 44106-1360 4236
2058.65-1970 32538 10510-54068-116924-129032
2061.54-153026-131144-134484-109598-40368 62810
2064.44 21320-2164 50976 80246 91980 131218
2067.33 91846 125498 216998 225092 206124 236046
2070.22 208006 191144 206934 203782 194302 287780
2073.11 250988 148852 111550 87502 54220 64132
2076.01 31268 55032 142124 90602-26736-50634
2078.90-92430-74282-78508-105550-86950 14310
2081.79-21334-142744-195626-212770-161090-135650
2084.69-179494-184606-33100-26778-172518-178714
2087.58-207616-218898-212060-205144-161370 46376
2090.47 9622-129980-153814-174748-214028-221206
2093.36-228568-106808 94098-40352-187196-178202
2096.26-166870-179876-199472-189320 914 186492
2099.15-50000-207056-253182-216596-169750-169858
2102.04-166600 115888 142994-136004-223512-214210
2104.93-232110-239374-238192-64238 215868 44494
2107.83-162524-160210-177160-223544-240792-170820
2110.72 94156 181526-136258-213648-207024-171308
2113.61-205558-202314-42786 272020 55208-218794
2116.51-272432-222070-196258-164904-143472 120862
2119.40 158414-144590-232854-206150-212206-208634
2122.29-184306 9410 239890-6988-190636-203204
2125.18-193878-199842-196508-70356 160370 27740
2128.08-149300-173544-210348-235390-216096-137436
2130.97 52130 3050-198902-240162-254834-229554
2133.86-184626-149144-39346-56688-188924-190184
2136.75-197004-217850-210338-143080-103158-116330
2139.65-201632-224158-242248-225858-230862-246782
2142.54-247722-193028-209496-200840-189360-198920
2145.43-211740-195846-124750-146954-222172-200116
2148.33-219658-218480-232662-170580-54320-67444
2151.22-168846-163966-198590-217492-230674-75782
2154.11 99144-71534-219154-212650-217010-203350
2157.00-173394 105518 199928-91490-234784-211558
2159.90-204438-219100-113058 199654 70030-164684
2162.79-194876-207848-181324-170912 110644 331036
2165.68-25196-221704-215186-202284-182074-39452
2168.57 291456 159920-181722-230238-246470-219994
2171.47-187458 132544 245282-69998-202770-227652
2174.36-208002-175416 30540 311842 36724-207494
2177.25-238964-206022-224580-58460 294178 108306
2180.15-219094-233946-219178-199852-125764 196200
2183.04 128084-179932-234288-233146-215870-149568
2185.93 82804 82162-158076-223600-225482-155698
2188.82-128678 88720 39868-206500-225668-211730
2191.72-219634-155092 69940 49390-181486-225958
2194.61-262780-263796-203900-1948-83010-249950
2197.50-257280-211540-195120-93896 12174-90244
2200.39-222292-231352-208254-196932-157470-114422
2203.29-201714-266126-263208-203230-193462-95834
2206.18-94118-144142-173804-178640-195404-176680
2209.07-146826-220380-241874-209274-220698-190706
2211.97-139538-171824-201040-205694-250046-267532
2214.86-221604-143370-189414-229306-231600-215052
2217.75-221162-188848-216614-221430-200686-198584
2220.64-200296-169984-227166-248836-257366-284900
2223.54-251974-195116-211950-203282-221510-205440
2226.43-224180-188516-198492-220344-208184-206378
2229.32-245722-211772-194386-187966-141164-121026
2232.21-148000-127916-131414-143022-139380-127506
2235.11-142694-159732-170286-143162-190364-188916
2238.00-147680-78514-71584-92076-110152-114592
2240.89-112506-121168-181344-198298-172602-148570
2243.79-167070-143378-105126-44862-33434-24726
2246.68-60624-53498-64934-90698-103562-84404
2249.57-96240-73104-86328-29104 49310 132406
2252.46 134842 129326 47468-12688-19534-18870
2255.36-19604-30550-78468-84006-80228-11660
2258.25 107828 213886 225340 202762 117844 147080
2261.14 152360 72640 60888 113480 52546-40218
2264.03-60724 100120 257456 340450 355608 340804
2266.93 277562 292896 335744 328638 382632 446170
2269.82 310716 191092 96350 104306 231772 439776
2272.71 528982 523282 359654 358034 523076 540292
2275.61 457966 549804 468996 309234 207782 212268
2278.50 355056 657368 838700 663890 300774 266202
2281.39 324430 324440 398468 737424 840552 602988
2284.28 294238 246194 255712 169938 388320 689196
2287.18 591506 377282 220774 226346 252108 307038
2290.07 369474 425442 271534 143436 94616 140716
2292.96 187946 147468 158640 226680 183926 232660
2295.85 241132 212146 157918 280638 342132 263634
2298.75 354110 683286 846374 1061830 956902 825824
2301.64 794200 874990 816826 889052 1032880 1211522
2304.53 995630 802748 852436 1274700 1601578 1453978
2307.43 1150772 1138312 1349574 1346492 1100810 1238018
2310.32 1492892 1396846 901366 897440 1302186 1850050
2313.21 1351210 1085758 1190312 1707642 1145158 740458
2316.10 1015676 1971152 1545964 809044 1007068 2079460
2319.00 1732574 735430 862640 2170504 1960890 793080
2321.89 938104 2363986 2193922 822536 1088888 2702830
2324.78 2364388 701952 1152508 3052846 2553982 803784
2327.67 1680514 3572118 2479764 698516 2194030 3862090
2330.57 2117252 760062 2920460 3864106 1495390 1139356
2333.46 3794130 3572386 1003308 1914588 4223996 2630916
2336.35 891792 3000928 3967938 1458728 1387228 3711588
2339.24 2784284 847618 2498232 3569014 1585986 1374310
2342.14 3094830 2190360 873554 2028116 2302018 848732
2345.03 1035842 1724994 926860 498322 1019300 818914
2347.92 337646 234502 332438 580578 474148 549876
2350.82 1274124 1018946 697082 1906846 1817792 995650
2353.71 2548398 2698872 1450894 2996520 3128654 1597320
2356.60 3370782 3359946 1770998 3838338 3499900 2050216
2359.49 4201368 3202922 2400996 4525414 2859488 2879146
2362.39 4351334 2324486 3396536 3682128 2120862 3705856
2365.28 2659076 2337614 3400556 1925270 2897970 2511188
2368.17 1875264 2738330 1608564 2172210 1762882 1443782
2371.06 1781434 986040 1432764 911630 1060876 875412
2373.96 739588 829150 551556 653064 383212 449518
2376.85 226900 279930 140888 116562-28696-71368
2379.74-85196-101566-114890-88916-152348-162410
2382.64-199802-243074-246044-197546-231528-301094
2385.53-325336-324024-270696-231628-256530-291572
2388.42-317632-310062-308426-265192-302484-308184
2391.31-325902-336546-308128-295724-304780-291270
2394.21-290840-264942-286782-276598-287842-278784
2397.10-257608-234796-312842-343682-308834-266810
2399.99-207408-222692-280674-272530-299668-330392
2402.88-317954-282320-311992-331782-310066-303696
2405.78-278458-287422-266360-266572-310960-283750
2408.67-268744-250910-265540-254910-251334-282078
2411.56-286526-274496-285670-280950-275040-271192
2414.46-250058-262552-275764-300402-280544-199856
2417.35-220020-238870-241516-227288-196282-214030
2420.24-284742-307332-265378-248272-231488-185626
2423.13-198302-210610-203460-163384-193316-193028
2426.03-164242-175464-172504-185814-193050-187394
2428.92-153536-101070-139664-163096-171626-122188
2431.81-107874-115922-130902-116456-81368-52762
2434.70-75318-71090-87190-126044-116960-65738
2437.60-40364-53908-40752-37484-25798 12208
2440.49 21732 47140 45788 55650 76444 119158
2443.38 106438 125952 162304 201996 212530 250416
2446.28 315060 326020 310812 410398 466034 479114
2449.17 510060 571128 563766 574200 634440 746642
2452.06 739158 796374 928084 980120 912644 962640
2454.95 1092674 1188756 1211434 1273350 1364448 1528004
2457.85 1599224 1577898 1768284 2050664 2033552 2006930
2460.74 2290544 2566264 2485246 2540062 2924170 3100458
2463.63 2987620 3192060 3605804 3765024 3670434 3863836
2466.52 4373460 4457402 4335532 4769740 5258646 5121524
2469.42 5194318 5940500 6291228 6110578 6536410 7452692
2472.31 7553412 7430052 8274674 8987094 8720994 8863026
2475.20 9544000 9402712 8946310 9775510 10595010 9987396
2478.10 10082620 11486220 11424160 10891260 12222570 12895630
2480.99 11994560 12758370 13942750 13053700 13080620 14578130
2483.88 14023190 13329260 14546070 14459820 13270410 14280450
2486.77 14562900 13191510 13896280 14328310 13031730 13319980
2489.67 13850590 12789810 12909000 13186060 11676490 11013300
2492.56 11229070 10530600 10858840 11588880 11505470 12503220
2495.45 13613730 14454080 16147610 17788030 19168490 20599580
2498.34 20563800 17220640 9625282 3848626 2456242 2521650
2501.24 3123262 3551340 4414500 5489648 6304174 7785250
2504.13 8985134 10346960 12278360 13026450 14890920 15717310
2507.02 16540820 17948400 17911090 19407780 19111940 20049840
2509.92 20065000 20096290 20452350 19790660 20309440 19343300
2512.81 19608790 18534850 18470870 17477160 17134290 16161930
2515.70 15554600 14637280 13895990 12930940 12065230 11163710
2518.59 10301920 9443226 8614392 7755426 6930252 6100620
2521.49 5433680 4790194 4198568 3590550 3013850 2522638
2524.38 2136000 1749480 1365488 1025316 820190 605270
2527.27 404458 263826 173712 116064 43216 7586
2530.16-40860-112382-131036-129644-130878-148558
2533.06-184138-202224-208326-199382-145394-153258
2535.95-166064-181794-190968-161968-97446-128230
2538.84-159900-166298-181858-182912-149316-143548
2541.74-146558-174804-188918-222516-237152-210710
2544.63-178984-144682-119600-122108-130936-113016
2547.52-143150-192494-202396-210752-262276-237712
2550.41-217442-211486-195788-226510-230900-195758
2553.31-111456-93280-155118-181470-204870-217958
2556.20-203444-187212-161450-171528-173294-213066
2559.09-223642-226666-215612-220002-210408-183254
2561.98-169918-178620-177528-139380-158574-183988
2564.88-201588-197170-177724-204080-200050-223182
2567.77-219806-213546-219634-169820-131440-176992
2570.66-231454-223106-226452-204810-131980-126492
2573.56-203682-238510-247330-208188-211328-213578
2576.45-187220-182964-198620-224756-239192-185220
2579.34-141248-138182-171932-178550-166766-150744
2582.23-203502-210458-168880-207466-233448-212278
2585.13-198758-176996-179214-187854-202498-191036
2588.02-198610-183670-143440-204058-240052-223296
2590.91-196174-173424-157834-147596-177970-214098
2593.80-222858-227356-222172-203760-174612-165828
2596.70-192578-272250-267878-194462-123330-156894
2599.59-215070-138910-145710-181780-163974-153908
2602.48-178154-238538-249092-242794-212778-192000
2605.37-194778-211642-199464-169488-153790-164960
2608.27-192476-210480-246016-247196-204040-214730
2611.16-246410-303980-312066-280154-269362-263822
2614.05-212204-156174-171984-209580-253450-275460
2616.95-285418-300048-310316-271086-246858-260234
2619.84-238928-294056-319870-250226-254708-272788
2622.73-267330-283292-276860-281338-275856-294592
2625.62-291530-290572-337908-323824-302342-286414
2628.52-307270-328738-341992-369340-336076-310670
2631.41-339060-340884-366844-439522-384780-371758
2634.30-414628-419432-428024-433160-443984-477580
2637.19-513130-486184-479576-497690-438346-441444
2640.09-514902-494986-518648-581614-570092-547088
2642.98-548186-549322-567518-634506-635770-583374
2645.87-641970-677602-741186-772368-757094-727814
2648.77-687978-627698-729590-840238-833202-844398
2651.66-845498-814592-847456-920800-932482-924502
2654.55-859954-804624-876184-965422-983482-993132
2657.44-998970-926046-949854-1041772-1084630-1102318
2660.34-1070346-1061380-1058310-994390-1008010-1059812
2663.23-1058384-1091428-1072042-1063768-1118056-1095022
2666.12-1073064-1195052-1174884-1155856-1233012-1234222
2669.01-1237434-1315508-1271964-1235866-1263494-1199064
2671.91-1236974-1315178-1302308-1281482-1245678-1233166
2674.80-1309738-1282488-1289518-1253702-1183076-1297258
2677.69-1396970-1385060-1443906-1371248-1261648-1304600
2680.59-1372884-1373414-1393926-1333158-1288012-1286374
2683.48-1306026-1337906-1338482-1332146-1362382-1378310
2686.37-1478402-1530022-1435998-1305206-1240074-1276166
2689.26-1389692-1478020-1477814-1448674-1423248-1341370
2692.16-1286512-1337244-1419542-1387346-1377356-1445024
2695.05-1400012-1390122-1360802-1257498-1229712-1292462
2697.94-1356772-1394714-1408854-1345880-1302314-1287156
2700.83-1317498-1363790-1412418-1359994-1326264-1375842
2703.73-1404290-1360872-1289500-1223166-1268830-1294720
2706.62-1308240-1322846-1284126-1260040-1280346-1285818
2709.51-1298508-1255864-1196172-1245546-1328886-1344254
2712.41-1355242-1347992-1285104-1257010-1228768-1276830
2715.30-1324924-1312462-1331180-1329220-1419036-1461680
2718.19-1418832-1399876-1432230-1483016-1472890-1421486
2721.08-1380628-1404548-1403436-1243234-964874-649024
2723.98-521412-590010-645812-658216-710560-784036
2726.87-877210-912408-877892-929440-980720-1149594
2729.76-1256766-1188194-1130818-1092866-1093628-1123630
2732.65-1136628-1164468-1144738-1187128-1278878-1238624
2735.55-1211612-1182550-1249840-1326418-1326446-1364746
2738.44-1408784-1368874-1346266-1453096-1439710-1391282
2741.33-1418776-1443206-1450854-1480780-1435562-1419684
2744.23-1468074-1456498-1419710-1387232-1425482-1506102
2747.12-1488304-1433112-1415390-1420214-1455488-1485780
2750.01-1492622-1498518-1465968-1462374-1500058-1482560
2752.90-1399162-1351608-1450224-1492384-1459530-1430366
2755.80-1438218-1462970-1472360-1450464-1419566-1427796
2758.69-1429650-1409694-1405730-1443104-1473782-1539718
2761.58-1452198-1342566-1366226-1450782-1421526-1317448
2764.47-1284450-1388800-1394292-1391542-1326000-1271382
2767.37-1263806-1325556-1317880-1265602-1229802-1250230
2770.26-1265652-1205708-1150762-1120944-1163754-1209926
2773.15-1155638-1099122-1124612-1105112-1068776-1023872
2776.05-1029904-1014678-1034756-1005352-953808-949802
2778.94-926388-821334-767622-805068-741366-631258
2781.83-651550-705190-660194-592852-596094-551612
2784.72-564112-614524-607806-488122-460642-446320
2787.62-380786-403208-452128-445692-384448-356866
2790.51-356532-361926-367770-366740-326416-305846
2793.40-280418-296208-329324-267046-256304-295990
2796.29-302318-248170-236616-218248-221456-246092
2799.19-267166-251818-234374-187320-210768-225626
2802.08-193442-137382-141220-180422-166158-130004
2804.97-197144-212194-202018-156364-221980-270322
2807.87-181180-193598-212412-190030-179552-170310
2810.76-227982-230564-127738-96650-155218-221594
2813.65-272236-244278-204770-162046-134346-158108
2816.54-207204-173212-152860-142536-109924-134334
2819.44-197856-206632-205488-132394-125034-195554
2822.33-183452-168686-187810-212382-159748-106884
2825.22-108548-151044-170072-160382-203146-238460
2828.11-268848-229556-175986-176060-225776-230024
2831.01-211056-220014-203262-184064-117440-123376
2833.90-136622-132252-135108-232624-242950-168164
2836.79-163926-195732-227578-167264-95822-118426
2839.69-205616-226628-248022-162676-177526-203918
2842.58-205356-176880-144738-173130-185864-184608
2845.47-173390-182172-256180-221056-142194-127974
2848.36-133394-194292-191364-195908-214564-219738
2851.26-179872-124084-119750-123648-201470-203298
2854.15-177364-210816-246672-222112-229114-225312
2857.04-176156-163246-225794-209330-185934-221670
2859.93-196564-101078-135904-220022-246488-260358
2862.83-220338-191820-209612-184354-130078-125278
2865.72-116048-166710-178304-174814-203680-162588
2868.61-172780-202836-181150-120784-82052-113686
2871.51-218380-244898-236728-190974-132782-174392
2874.40-233922-271802-214164-177656-181090-153358
2877.29-192978-211136-209958-230342-229464-183348
2880.18-151774-112158-159202-221278-192156-161580
2883.08-204014-171848-116194-173040-222774-216240
2885.97-173220-159556-214686-214910-176736-113118
2888.86-84428-97570-123188-204400-238384-142366
2891.75-111950-189928-196140-106732-92290-134086
2894.65-199594-186126-242072-303222-247140-215568
2897.54-262608-250420-200954-219486-200816-130654
2900.43-158502-178472-166718-155936-138546-115970
2903.32-128442-194306-209324-200876-187396-90376
2906.22-111420-174276-195300-133370-157970-240548
2909.11-271664-258736-153132-134568-132140-128982
2912.00-164916-196924-252024-170342-84674-93098
2914.90-118314-177906-211218-134748-113076-180884
2917.79-225724-204216-164626-183556-265242-230824
2920.68-122044-162986-244758-162234-78660-109794
2923.57-206020-274276-197524-173806-234150-209502
2926.47-151630-172376-174914-197008-231310-209832
2929.36-169322-220602-278540-237430-205720-183162
2932.25-115700-147412-206838-133348-142890-233616
2935.14-207934-168370-205904-200772-199808-260168
2938.04-263216-165684-130362-161112-174688-191726
2940.93-99882-71970-197800-221312-183640-120754
2943.82-130730-195380-188614-179670-209496-229852
2946.72-220738-244582-267212-221356-179894-238786
2949.61-219398-139462-213830-282358-218348-184922
2952.50-175872-179718-131922-151424-225976-246392
2955.39-249172-277336-297640-315450-227282-157460
2958.29-187320-167704-154650-174714-119008-74812
2961.18-162844-197790-150702-125394-111720-201476
2964.07-225626-151812-159070-124676-116586-194022
2966.96-167630-144598-175750-196918-195060-221998
2969.86-168106-119934-113370-124082-199050-193006
2972.75-147380-168112-120532-72868-129222-149172
2975.64-186896-243534-256868-188362-99850-96824
2978.54-121032-133360-150256-205434-167598-109144
2981.43-108530-106432-117618-188862-198374-120464
2984.32-70918-125882-156336-145288-139038-113454
2987.21-142956-158300-208580-272130-259820-164972
2990.11-85460-118976-181408-202616-190734-226776
2993.00-239648-180794-199364-247684-232456-266320
2995.89-285476-235872-138196-84922-75724-36512
2998.78-54270-176390-220132-253604-247282-157762
3001.68-173650-182224-185744-215220-262102-283826
3004.57-202992-123046-141806-214776-255962-209644
3007.46-239034-230930-201092-207480-254262-200828
3010.36-109210-88408-149448-244734-266726-200378
3013.25-131278-134532-103500-144486-229976-217940
3016.14-209738-259700-268982-259444-206372-170120
3019.03-148666-196354-209096-183610-140400-126546
3021.93-171206-217276-217794-202586-179048-218234
3024.82-286528-256570-188150-132888-94266-94148
3027.71-160124-205874-247340-222810-155220-102828
3030.60-96056-89314-95792-133976-155806-179768
3033.50-143220-127056-168804-220014-160116-162284
3036.39-186208-127556-155500-178842-144416-185280
3039.28-218204-165532-150474-157900-182942-177576
3042.18-169388-190872-166550-103982-102922-153298
3045.07-152844-152182-156274-176944-225044-206900
3047.96-197428-263726-296250-232872-167264-143090
3050.85-170678-179144-184598-208072-227548-197560
3053.75-169258-176130-150406-119334-127688-199942
3056.64-248252-197768-91610-67250-97456-134230
3059.53-121814-183580-237414-206858-214460-175738
3062.42-129294-150296-207552-238636-255364-260936
3065.32-194646-188738-172026-120554-152914-182920
3068.21-120794-75288-43680-61302-144624-207828
3071.10-162362-158286-183546-171050-174268-170650
3074.00-90294-119466-193706-171780-88346-130548
3076.89-112086-69016-78882-128748-206348-142702
3079.78-118704-139216-150524-132648-154780-146178
3082.67-199128-206640-185996-150938-139758-139666
3085.57-120436-140866-190480-152336-100146-150176
3088.46-197096-173976-142442-207440-268334-234186
3091.35-208598-186786-144746-142566-167234-181334
3094.24-170792-123234-55158-98610-117152-93904
3097.14-183094-237574-150832-85502-113900-183984
3100.03-187296-149160-100994-88264-173748-199582
3102.92-223642-187880-190744-245962-231516-225400
3105.82-166798-104358-182530-192642-180500-162450
3108.71-197950-206276-162348-158624-249482-207440
3111.60-210766-258570-238522-151354-75396-159688
3114.49-205330-209428-251684-229528-172226-164948
3117.39-206856-150936-110474-159194-141386-136722
3120.28-143716-96212-182800-194292-162692-195406
3123.17-146928-89764-85348-138702-151134-171808
3126.06-193434-211040-193770-134496-64130-101434
3128.96-127482-138088-237386-319260-240034-196456
3131.85-177684-112142-130002-141768-134910-184046
3134.74-201120-156286-186988-252790-211412-196528
3137.64-204178-169682-78866-87356-157888-131530
3140.53-158164-133794-117590-69472-108566-226120
3143.42-182758-113856-182342-253060-228816-174510
3146.31-188828-221528-116444-68086-52938-78058
3149.21-131462-204952-179126-183560-158512-85622
3152.10-65116-84904-79662-150456-230890-187840
3154.99-202430-214028-226192-229754-179126-165878
3157.88-193818-191466-212446-248880-211784-238498
3160.78-285236-215806-147794-115234-138038-143092
3163.67-203314-184240-117352-144932-247986-271296
3166.56-141822-152400-171796-166558-131740-103782
3169.46-134242-195334-224704-209030-228848-240710
3172.35-192018-163568-169876-193676-187212-189062
3175.24-205608-183638-183644-149006-62252-107550
3178.13-182516-193794-146312-91412-103560-129964
3181.03-205962-241068-222050-132876-94304-150098
3183.92-154780-147194-176208-207376-200198-169872
3186.81-197222-233718-159280-91366-102450-139280
3189.70-132624-155944-149868-108398-103208-173158
3192.60-164424-160058-140234-128684-136940-218562
3195.49-166964-52498-155694-187678-197278-160858
3198.38-106552-75316-56262-167684-217730-131798
3201.27-143564-130324-127638-157054-174202-161074
3204.17-175288-127778-165448-211476-208192-163340
3207.06-181150-210584-244302-206364-92764-129020
3209.95-118866-87168-80168-139030-199348-235050
3212.85-184486-141194-152118-210592-234706-214036
3215.74-111134-113204-154980-172428-110488-96286
3218.63-189856-162252-90884-75690-106872-99774
3221.52-135894-235364-227690-199714-169596-64100
3224.42-55670-176786-217458-133504-108694-154930
3227.31-183598-182380-99442-147924-157834-89206
3230.20-77656-125780-172716-179710-201430-230566
3233.09-189954-147210-160530-214182-224648-145748
3235.99-153736-105770-58448-113664-130018-200968
3238.88-238914-171962-125378-43416-45520-154040
3241.77-183418-138024-127200-94222-66078-158468
3244.67-235300-327678-316748-157118-115212-28628
3247.56 15238-98488-205792-193400-135924-148572
3250.45-136894-143536-142302-131812-124090-142474
3253.34-160248-190008-170366-111510-86898-121864
3256.24-166944-140570-188788-255510-137902-159008
3259.13-196136-179966-164154-158700-155042-148940
3262.02-155878-113916-128396-166696-197652-269492
3264.91-269564-177752-173548-123040-156350-182448
3267.81-85026-151902-210890-220606-162492-138740
3270.70-207660-181122-151650-196032-221158-210724
3273.59-236758-207888-178254-122694-129302-232534
3276.49-303346-264596-172908-173942-168802-145108
3279.38-159824-176524-177018-110468-92028-131154
3282.27-129432-168326-188056-231454-229196-123310
3285.16-55698-19856-49368-157674-264542-227756
3288.06-82732-101520-214146-246382-282662-285584
3290.95-218000-230398-184708-75900-121888-195236
3293.84-189412-161296-160584-185914-149764-134456
3296.73-147562-74988-58836-124556-175904-194964
3299.63-210750-163878-104538-75832-86810-113178
3302.52-169734-185208-125820-127854-85326-107006
3305.41-128600-172354-175078-192056-89608-77370
3308.31-143218-143330-178702-118088-88448-114120
3311.20-74510-77156-93500-113668-102726-136204
3314.09-197260-158580-196892-204288-152266-72792
3316.98-95714-114834-160004-219784-217576-220530
3319.88-170388-146868-190742-142716-102080-179250
3322.77-112776-34046-52022-99442-162632-157326
3325.66-64136-107128-245072-287388-166572-106464
3328.55-182694-109366-110306-255034-212048-127820
3331.45-80692-102666-136974-220496-341720-282768
3334.34-195606-247264-286008-118528-13408-50888
3337.23-92082-160234-240042-189902-122204-138198
3340.13-169252-166250-149688-159206-253476-242144
3343.02-137116-140650-170812-89500-54704-94980
3345.91-99890-79126-134388-167402-46602-40272
3348.80-156336-120978-93130-79870-190484-204332
3351.70-207460-121064-99832-212102-203634-76676
3354.59-18432-59854-120042-175284-197978-214492
3357.48-212494-204796-143694-170644-252394-257416
3360.37-182538-115396-140322-177534-177454-146838
3363.27-151640-146172-116550-135488-134870-70174
3366.16-89700-148830-213102-190918-138204-180098
3369.05-204184-32824 8952-112472-84984-83006
3371.95-113980-177866-204244-249120-232926-197698
3374.84-199114-216284-128220-44614-101706-143630
3377.73-178392-149092-94874-239134-342982-222222
3380.62-241890-224660-70128-40976-89166-93734
3383.52-27146-21888-145530-286900-268690-178010
3386.41-97666-123424-241514-212144-179732-228172
3389.30-186978-71364-67602-125142-134328-82010
3392.19-12312-69730-41346-31096-111844-224626
3395.09-351544-312680-138508-111642-237200-237274
3397.98-185216-240804-206664-84396-76466-138458
3400.87-106986-129308-129346-3826-71820-182324
3403.77-191058-180362-129038-156964-201852-129846
3406.66-47526-43872-155188-178426-53512-51326
3409.55-176610-257866-210514-112918-134978-205864
3412.44-193524-45470 3884-114386-213406-202080
3415.34-140000-181174-298994-289716-221116-175972
3418.23-182458-150492-154436-67172-31454-103844
3421.12-150818-141770-194354-223148-200056-137648
3424.01-51002-107624-134678-136842-163934-215862
3426.91-215044-180556-156464-162652-185066-148842
3429.80-156550-193312-136548-67948-52318-88320
3432.69-130346-117094-134348-84164-87810-138752
3435.59-110410-114990-113066-86934-80092-213180
3438.48-193880-159872-127088-95698-101118-59242
3441.37-114146-222348-139834-102158-119274-96176
3444.26-76784-180414-196624-187760-275602-251466
3447.16-114310-98930-144754-136010-190688-188376
3450.05-40896-36888-169020-175602-84934-156798
3452.94-200196-206774-255006-180486-23010-41706
3455.83-47722-72354-112940-95976-75370-95790
3458.73-82776-49766-122362-172638-4044 56670
3461.62-77646-199544-252906-195724-128298-118534
3464.51-143652-125848-71888-152144-205126-258296
3467.40-249320-303892-257420-141610-170916-234972
3470.30-200920-158354-188840-174656-137280-169828
3473.19-135258-109424-198860-177608-207044-256692
3476.08-215018-157652-58434-43618-114878-163286
3478.98-184654-228696-180088-150290-143770-136398
3481.87-131142-124424-122576-116102-83398-65136
3484.76-90114-105414-171846-321978-223236-115616
3487.65-167646-164752-197770-204132-225028-246988
3490.55-142336-158188-207978-161614-187242-213590
3493.44-243048-237486-156432-154894-228710-184130
3496.33-122844-148710-93548-144088-172142-95426
3499.22-107848-38148 44088-60426-202848-307502
3502.12-274288-206928-137728-119542-135676-221634
3505.01-231318-163032-154276-169814-156362-174944
3507.90-163412-85598-179090-278284-221606-149644
3510.80-209510-250442-176758-168162-213106-215978
3513.69-188898-272262-259890-174910-153394-75030
3516.58-16772-54122-51810-113682-235302-180220
3519.47-107184-93878-195152-226806-170444-207040
3522.37-155034-204794-215834-132896-91532-53558
3525.26-64514-145668-115336-109554-172988-156354
3528.15-190028-210020-206148-175636-187036-247492
3531.04-263464-193038-169730-128526-73774-111498
3533.94-228194-200156-163656-112950-100088-107692
3536.83-101044-149246-206538-248342-266726-164114
3539.72-41502-121192-179682-166926-159530-104826
3542.62-68232-95600-154618-176676-143800-230484
3545.51-286360-244718-112152-95146-95842-55222
3548.40-96802-148844-217370-164284-138768-170478
3551.29-137070-108328-78514-25370-75256-90238
3554.19-96144-141074-151612-148712-203336-258832
3557.08-296222-237372-133084-131874-205160-186020
3559.97-125266-90160-134070-135804-84884-128696
3562.86-194558-193390-151242-132352-80750-57508
3565.76-168894-190806-92016-90400-93798-110200
3568.65-190040-180696-222502-200618-117946-84792
3571.54-102518-257624-249330-110556-75340-142014
3574.44-224710-263076-203880-131642-98682-36042
3577.33-3890-95756-199222-262524-263632-227652
3580.22-158966-157630-149478-127084-106214-70460
3583.11-58898-74198-72262-80844-105406-170216
3586.01-185224-105300-52834-140998-222408-221194
3588.90-199820-174206-129468-189676-202724-195634
3591.79-186426-159262-137940-60526-17246-74370
3594.68-68608-19796-32100-51034-182440-200354
3597.58-86220-49928-89010-103108-101838-118382
3600.47-126146-145028-144626-127534-107674-63660
3603.36-88328-72300 2704-4792 37096 84290
3606.26 35528-101598-132810-79604-66508-94510
3609.15-89452-72918-110630-62458 9018-24948
3612.04-79772-38046-23926-64998-17388 41284
3614.93 9564-12874 7318-38100-28868-17504
3617.83-66912-55314-56794-71944-136410-110398
3620.72-30320 8830 40684 18024-1964 91642
3623.61 121204-37286-112692-22612 27614 40776
3626.50 7234 87490 194280 176112 91300 34676
3629.40-59950-153952-210750-149510 30864 115526
3632.29 5614-104110-111022-105924-106574-15876
3635.18 54974 101086 109700 20016 46762 89270
3638.08 131672 82640 53042 32868 85844 148528
3640.97 86074 68782 118142 95436 56404 36992
3643.86 47152 51234 41716 18004 28016-3848
3646.75-23494 49246 12840-42410-53174-63950
3649.65-69360-51568-52304-156590-206872-228104
3652.54-229926-185634-178580-193628-191892-120398
3655.43-49446-95098-136362-146178-90744-44214
3658.32-139388-194420-139614-139910-191026-170316
3661.22-165126-66916-2088-69844-97634-136130
3664.11-144176-106324-68006-112238-102300-52324
3667.00-117328-192502-230298-232422-112868 15234
3669.90-73506-177034-164874-167014-127284-122898
3672.79-156650-115932-103032-124494-159882-203516
3675.68-154456-116256-106640-113282-83582-88864
3678.57-134626-167960-174444-157958-176734-69188
3681.47-63760-147646-153442-112398-67750-106198
3684.36-132978-160830-88098 4042 13314-8246
3687.25-110038-188472-131194-99650-148800-118194
3690.14-19378-79136-174890-121570-90154-153672
3693.04-124866-16342-83250-142786-66220-43484
3695.93-98144-209990-160158-89022-107444-112512
3698.82-53096-64502-160688-168770-127936-139204
3701.72-116278-153324-112904-140246-199296-151846
3704.61-95558-126272-120372 28980-9536-73448
3707.50-69462-48732-80082-96800-104126-144684
3710.39-166354-58042-9324-93306-124912-93890
3713.29-131452-218794-227024-191516-155706-131122
3716.18-159042-127758-74718-79008-88690-62282
3719.07-87186-136906-152240-94892-46204-88228
3721.96-70108-52598-68606-90592-79418-94330
3724.86-82430-17380-44920-65420-43208-88834
3727.75-55528-88884-165524-183864-192416-103290
3730.64-34422-95052-77476-90514-35276-54580
3733.54-101026-3790-77564-197472-140208-167898
3736.43-144962-114600-91690-40616-115622-210738
3739.32-183944-137784-133768-127714-72842-81054
3742.21-109150-44084-37108-95850-135926-134032
3745.11-147068-188570-233924-232592-120684-66970
3748.00-95296-134956-180014-222062-183246-161770
3750.89-113816-98736-114996-137326-129370-124956
3753.78-139148-112284-111866-153292-166316-162436
3756.68-168844-271506-267648-130620-110048-148718
3759.57-188282-210936-194254-111158-60412-122344
3762.46-117198-137944-125840-64980-43116-178270
3765.35-256756-225836-190128-119670-107684-108570
3768.25-102390-90724-118550-196628-158330-118866
3771.14-140404-140888-124704-151120-129708-91814
3774.03-72434-143794-191734-181088-190086-190256
3776.93-152104-101656-83840-39958-70310-168568
3779.82-186362-125266-110466-106826-104320-77554
3782.71-78324-139730-155040-177394-211360-186610
3785.60-141710-68308-70900-144768-165218-229004
3788.50-261618-253180-160534-61290-93780-168206
3791.39-187136-188914-192502-126064-59868-39140
3794.28-52758-114098-155494-168920-215398-238754
3797.17-135064-47328-115226-209492-247386-213092
3800.07-109568-126476-180900-144768-180426-170434
3802.96-77478-19650-28504-84376-125804-170070
3805.85-136568-118948-171638-185516-85992-48956
3808.75-77850-108254-109920-92664-118670-154208
3811.64-199232-151478-145860-165380-153440-119250
3814.53-111360-84864-70522-103802-109196-166908
3817.42-198978-200162-135570-152114-123786-92290
3820.32-110540-114412-121462-120714-86768-90934
3823.21-108418-106970-113582-122212-162430-221502
3826.10-134414-34984-109632-122800-39624-101134
3828.99-190174-148592-53710-66816-106572-122654
3831.89-95266-78036-116640-79372-34050-84780
3834.78-96980-56718-108738-199442-215966-162890
3837.67-46376 9966-82390-219196-219698-111882
3840.57-75844-141226-152848-169920-122908-49466
3843.46-5088-44326-40438-38840-90252-75218
3846.35-7656-59448-131450-145344-104806-102208
3849.24-52754-43678-123638-101308-76890-134172
3852.14-128772-72478-109466-130562-92938-142896
3855.03-218132-161424-83214-57766-62562-156202
3857.92-173840-126300-100526-116148-48270-17600
3860.81-23454-77578-51292-194136-232374-137940
3863.71-122464-230852-229654-164112-110452-155112
3866.60-111912-83150-145796-112790-114448-148436
3869.49-138602-38276-14870-47066-43664-90042
3872.39-188142-161132-127526-127614-113140-143902
3875.28-152838-170054-158618-140618-118914-57138
3878.17-20218-119840-164928-183852-195734-155616
3881.06-124952-78956-49336-102968-139032-203712
3883.96-199648-121950-97034-157724-202368-118262
3886.85-95832-65212-95770-188478-133132-47152
3889.74-61100-100232-127986-188190-149048-95918
3892.63-61678-158402-253074-223470-194748-187624
3895.53-133788-104644-95096-130948-148190-215484
3898.42-119728-17162-22392-93020-64486-64638
3901.31-71580-161406-212892-147870-165550-179080
3904.21-127070-177148-244788-257466-295306-318248
3907.10-282424-260756-233722-134866-54174-82280
3909.99-86138-29132-21034-70892-112336-144986
3912.88-167070-120336-76110-138078-146234-145760
3915.78-140372-92860-127876-179656-212488-307968
3918.67-272958-174060-168614-144738-92248-130992
3921.56-133712-171558-181252-153826-196446-227006
3924.45-131760-150760-180672-210450-214702-150524
3927.35-168658-183214-80070-104106-208002-200482
3930.24-142638-121934-96148-142538-204444-218192
3933.13-131946-88554-127216-160370-136404-174578
3936.03-244788-185596-185776-146648-117846-120776
3938.92-89494-163774-167324-130382-170404-144744
3941.81-82630-81876-141566-183404-143206-110886
3944.70-109590-184556-206682-189496-151970-120876
3947.60-114542-83526-1116-111188-251276-278160
3950.49-199490-161864-221302-228782-172324-230528
3953.38-201486-190146-189444-132396-140998-170444
3956.27-239232-260340-169946-61010-27656-81206
3959.17-80212-25014-71186-198764-208828-243824
3962.06-234172-136640-129084-203522-197224-162730
3964.95-104500-138634-174204-228986-205164-167812
3967.85-207672-242234-236298-136246-103472-143334
3970.74-237590-276008-223578-158094-205940-238910
3973.63-245294-274962-245402
##END=
