##TITLE=Sulfur Dioxide
##JCAMP-DX=4.24
##DATA TYPE=INFRARED SPECTRUM
##CLASS=IUPAC A
##ORIGIN=NIST, Anayltical Chemistry Division, 301-975-3108
##OWNER=COPYRIGHT (C) 1998 by the U.S. Secretary of Commerce
##DATE=98/10/1
##$SPECTRA VERSION=1.00
##$UNCERTAINTY IN Y=2.1 % relative (B=1.1E-04,C=7.6E-10,D=2.7E-14)
##CAS NAME=Sulfur Dioxide
##CAS REGISTRY NO=7446-09-5
##MOLFORM=S O2
##MP=-72.7 C
##BP=-10 C
##$NIST SOURCE=QUANT-IR
##SPECTROMETER/DATA SYSTEM=IFS66V (Bruker)
##INSTRUMENT PARAMETERS=KBr Beam splitter; MCT Detector; Multipass cell
##STATE=gas
##SAMPLE DESCRIPTION=Sulfur Dioxide Primary Gas Standard
##PRESSURE=101.3 kPa
##TEMPERATURE=23 C
##SAMPLING PROCEDURE=1 L/min Flow
##RESOLUTION=1.9290
##DATA PROCESSING=Happ Genzel Apodization
##XUNITS=cm-1
##YUNITS=(micromol/mol)-1m-1 (base 10)
##XFACTOR=1.0
##YFACTOR=4.5474E-13
##DELTAX=0.9645
##FIRSTX=574.687
##LASTX=3974.595
##FIRSTY=.0000162
##MAXX=3973.63
##MINX=574.69
##MAXY=.0009394
##MINY=-1.34E-06
##NPOINTS=3527
##XYDATA=(X++(Y..Y))
574.69 35834840 31278780 24112380 21962060 25993610 26956280
579.51 21956720 19262930 19055690 20318590 18602130 16673900
585.29 15232400 16520790 15517840 13496910 12815480 12555630
591.08 12560340 11072860 9698990 9794510 9104196 8600240
596.86 7502404 7362504 7495900 7463890 6375916 5472442
602.65 4595362 4905394 5418600 4955982 3738918 3026816
608.44 3358770 3657704 2959164 2495092 2460444 2742684
614.22 2419152 2070308 1887094 1875578 1543284 1495950
620.01 1375982 1259652 860578 718076 575646 604836
625.79 699092 702774 515550 425354 306154 831280
631.58 506878 122452 39798-35340-228740-243376
637.36-400692-217696-235618-193238-333634-124778
643.15 11524 18338-418116-480372-232590 115254
648.93-155328-494140-625460-287722 14168-610
654.72-195728-234024-329970-444958-394512-324886
660.50-275666-237644-466988-709080-892548 136732
666.29 3891028 4811210 1393676-97986-528146-419206
672.08-554168-473348-263538-87082-334882-438608
677.86-542154-373938-485386-163612-104246-248264
683.65-335176-197754-131938-94318-414410-563924
689.43-580280-192484-122082-371158-486480-346918
695.22-569852-508556-322930-240544-185476-185162
701.00-576800-534588-352208-215904-447354-708174
706.79-794752-584744-479408-595362-668832-593188
712.57-630158-549462-526170-532854-871876-784464
718.36-437352-378488-603358-548798-462934-463498
724.14-521924-583176-694128-482608-448532-529270
729.93-669594-598920-610458-558614-536858-378324
735.71-591474-550002-553456-534562-494910-420006
741.50-558664-618130-457828-301272-441432-531826
747.29-645986-472230-391646-288012-296970-378926
753.07-491350-545600-576888-431238-419416-323116
758.86-418046-399928-657646-689544-585876-475086
764.64-530304-520626-595260-508732-598558-618982
770.43-532738-399346-343200-340138-491006-630270
776.21-693084-634412-590716-408022-506310-517236
782.00-390488-337758-456340-487654-565478-707076
787.78-784554-648228-592568-446824-525866-492594
793.57-540490-510422-389148-416410-509122-432538
799.35-645532-656380-697636-671220-466900-247574
805.14-404770-414044-408042-429322-589086-583160
810.93-557330-468310-529346-565930-453956-316870
816.71-358484-518466-564684-305546-384250-538230
822.50-477390-389522-529944-559940-467700-395708
828.28-546952-497078-548936-524734-437594-530086
834.07-750534-568320-433824-418290-478346-395472
839.85-415802-445124-490846-546378-750546-717584
845.64-505946-437358-587474-551360-593124-559094
851.42-559368-544348-630288-663482-536882-403748
857.21-533808-394836-412008-486434-564602-428006
862.99-363192-428608-515886-505488-463788-420672
868.78-533866-574784-524870-413028-513382-566480
874.57-489384-356460-418588-474116-510892-393112
880.35-370430-461224-540746-444226-443048-391524
886.14-350218-439134-531832-478986-542674-619700
891.92-623614-502242-500256-444774-474650-453616
897.71-465132-433108-432346-450294-451992-339902
903.49-273704-329500-496434-523630-487200-357866
909.28-430326-533284-488410-436996-434176-331378
915.06-276378-294174-486498-593094-619368-568726
920.85-558588-596812-561400-427074-448532-509522
926.63-511218-540740-574380-412168-408924-455940
932.42-492348-540424-494148-375666-474538-555746
938.21-517320-469602-559378-626744-588956-440744
943.99-478062-540018-550324-513048-458190-402254
949.78-461616-483578-487732-423866-447116-458842
955.56-511962-559076-527066-497460-539938-518324
961.35-493060-443218-409280-445778-535842-489082
967.13-467080-486916-511376-370898-321558-417146
972.92-489660-449432-387972-307786-392592-468910
978.70-489246-470134-486312-453550-466148-491566
984.49-410228-376716-456296-420566-473406-546742
990.27-549864-522524-469464-433308-470238-467852
996.06-483038-421680-460456-491218-433406-476324
1001.85-521854-475258-465244-430242-461298-495370
1007.63-547852-497864-480814-471618-459708-406174
1013.42-475226-538632-537864-502464-479290-466144
1019.20-499672-421324-362900-495848-592548-505312
1024.99-430060-450162-450272-480648-452910-369786
1030.77-325260-345562-354560-411496-493956-553758
1036.56-434660-257266-182318-260802-215252-166298
1042.34-172808-225124-200372-149654-76422-97994
1048.13-52420-3856 92942 207526 324972 298174
1053.91 273158 317262 427952 508276 738296 901612
1059.70 1025354 1194692 1458610 1552906 1667002 1823390
1065.48 2128558 2311012 2632144 2973828 3348074 3499512
1071.27 3764790 4160948 4803962 4988560 5297088 5925102
1077.06 6510658 6703892 7306776 8154536 8899098 9178810
1082.84 9927382 10858600 11813850 12083380 12764580 14247060
1088.63 15495400 15380320 16300630 18362450 19434880 19155520
1094.41 20972470 23033850 23857910 24555590 26421070 27403010
1100.20 29035110 30874640 31275570 32205290 36660920 37572340
1105.98 36296950 40424740 45894700 42264650 42069210 50674600
1111.77 52138570 46856760 54021080 62590840 57791670 58109220
1117.55 69227020 67489180 63870710 76439350 82764470 71315410
1123.34 81701880 102352600 90121780 74917840 105462500 123242200
1129.12 93027320 89010460 133107000 134644700 96413560 107595100
1134.91 143680200 130016400 104622700 118195800 132363600 119078300
1140.70 103132600 101475800 108663600 95209030 74940950 77526110
1146.48 70525260 54753310 52843810 49439450 46769460 49269700
1152.27 54805900 60441850 74798690 93611550 104302300 117093000
1158.05 126556400 136488900 129133500 125235000 153283500 151215400
1163.84 131231600 150401600 156471700 132199400 126792800 144038000
1169.62 132747800 109316500 113084900 115433300 96494900 94527190
1175.41 106873300 91707950 72433470 78661670 79797760 65458700
1181.19 67310300 77827660 64594420 52021030 58459420 62172660
1186.98 52679480 51010820 56712300 52743110 45358060 46857830
1192.76 46215360 43209560 42622880 42625950 38513300 37570290
1198.55 37571620 34369720 31353040 32946160 31694360 28065470
1204.34 26576940 27324120 24899810 22785940 22029280 21872340
1210.12 20097330 18699670 17279670 16883120 16017220 14677730
1215.91 13076960 13119390 12175000 10858920 9927336 10148150
1221.69 9163068 8117330 7366518 7268164 6479330 5977520
1227.48 5364858 5298218 4575814 4162910 3618586 3575386
1233.26 3053240 2878472 2458482 2406268 1870712 1775832
1239.05 1498574 1542190 1074088 1092580 816150 894076
1244.83 574632 630208 332980 396070 166300 340500
1250.62 65128 83570-150618 9288-221108-127554
1256.40-352164-118754-250566-77410-330144-234786
1262.19-497706-330270-460620-229352-495414-327574
1267.98-509918-309676-501070-374592-563490-335808
1273.76-477198-300554-544300-371470-536508-249078
1279.55-414920-277654-541288-297740-474466-225780
1285.33-400652-219456-380728-88176-327480-62026
1291.12-160586 89332-44226 307512 268488 718416
1296.90 758636 1344972 1464132 2096070 2383094 3299508
1302.69 3890534 5132040 6105640 7699326 9119048 11455910
1308.47 13635650 16762800 19992110 24364090 28802220 34561900
1314.26 40700980 48492940 56957000 67329270 78734300 92610060
1320.04 107617400 125222800 144655500 167513300 192356200 220634600
1325.83 251704700 287115300 325299600 367984400 413840200 464485200
1331.61 518780500 578139800 640274600 707396400 777767700 852112400
1337.40 928739600 1009743000 1090884000 1172425000 1253347000 1332562000
1343.19 1387210000 1397268000 1400344000 1419583000 1428055000 1424904000
1348.97 1407525000 1376953000 1330566000 1274606000 1211699000 1175739000
1354.76 1177983000 1218311000 1270433000 1425342000 1760138000 2065895000
1360.54 1657947000 687726900 302312700 380314100 545160000 756424100
1366.33 1004440000 1243805000 1445393000 1598159000 1709936000 1780017000
1372.11 1813831000 1810249000 1776623000 1716594000 1634736000 1532847000
1377.90 1419209000 1295001000 1167053000 1037260000 910374200 787773100
1383.68 673510700 567506900 472405600 387419500 313947600 250084500
1389.47 196936800 152365300 116517100 87337850 64960080 46897290
1395.25 33480700 23187970 16298390 11030240 7649562 4982074
1401.04 3453766 2083394 1525072 760314 662136 445796
1406.83 436956 56026 232354 152182 381246 214348
1412.61 269312 30114-19264-162044 31034-82318
1418.40 25370-82676 111264-33682-77768-201454
1424.18-40870-196882-175998-273508-197482-258256
1429.97-116968-216274-185052-332484-299232-421994
1435.75-295174-318866-222900-406990-321202-378062
1441.54-302576-333436-227420-330728-328922-481390
1447.32-416050-446828-349328-409592-349122-393662
1453.11-338836-404630-327594-401760-383948-479352
1458.89-409428-362568-248936-398142-436780-496514
1464.68-403442-431518-392770-439746-331672-391932
1470.47-383848-423718-449960-516610-454962-487792
1476.25-434852-460860-355636-363018-363168-398976
1482.04-356598-465912-476054-517548-397794-397752
1487.82-434422-496532-415412-431688-397268-462670
1493.61-472314-480976-420894-490134-428180-414450
1499.39-392448-440628-376478-399400-416452-477296
1505.18-426686-453618-422050-439352-414054-395908
1510.96-360160-396390-307072-352068-355756-380094
1516.75-359896-393230-321260-281882-288266-359532
1522.53-240716-214304-259306-300386-269228-305658
1528.32-250426-262770-270816-258800-224808-277112
1534.11-298828-305704-274044-259922-206322-234766
1539.89-151708-161100-189512-235704-255144-270022
1545.68-299930-354508-405890-492364-495144-485978
1551.46-457560-500996-502528-491922-433738-454650
1557.25-472386-475408-463016-501956-507496-494448
1563.03-455496-473210-470532-505064-477734-461150
1568.82-425610-457718-455308-454038-448184-479394
1574.60-490108-522908-469502-457126-490090-519948
1580.39-497730-485476-405912-450576-497450-470328
1586.17-417042-373456-379046-440688-473572-519308
1591.96-500056-471004-454212-461916-435804-474916
1597.74-487166-458080-421944-435512-437792-455392
1603.53-482976-470044-425252-434612-417770-425882
1609.32-449824-472478-471280-461776-472756-450254
1615.10-435350-444882-446348-433242-364564-338842
1620.89-332744-330942-393548-502168-499890-447496
1626.67-445726-466034-429736-390688-411566-447702
1632.46-429704-410422-393628-393106-461224-475894
1638.24-437224-392900-319982-372276-403100-385378
1644.03-454666-485642-421462-383644-397790-462244
1649.81-435460-411302-426598-370242-372956-386226
1655.60-355968-358702-394940-437822-404700-392880
1661.38-387416-426032-422950-401122-400186-415100
1667.17-421996-384166-355056-359808-403864-403810
1672.96-383624-363418-327860-309060-271744-294038
1678.74-329834-324106-312028-318648-342724-333170
1684.53-304520-316256-344182-378788-414132-367056
1690.31-343624-349474-338778-363602-416868-418214
1696.10-389700-342228-371080-424054-372486-335792
1701.88-418612-419160-431754-401480-339812-371834
1707.67-394544-387684-409962-436966-396338-352298
1713.45-369688-373300-419224-412646-406240-375988
1719.24-340454-352862-369414-351138-362992-343752
1725.02-343692-388550-426858-404228-362166-374014
1730.81-376710-366106-406218-423390-413224-378334
1736.60-365930-372706-351876-321092-373630-415870
1742.38-406036-372888-393072-420312-401882-400196
1748.17-430604-434790-443882-407952-419070-451368
1753.95-438778-411620-395412-351008-355662-401144
1759.74-458216-448572-401946-377538-375460-406898
1765.52-437686-389050-358394-370860-386908-351424
1771.31-411620-478360-473684-379706-352752-351690
1777.09-395074-376894-363230-400000-444382-429398
1782.88-416750-397110-387136-373156-395382-390650
1788.66-391664-399992-420734-401624-376680-390284
1794.45-436584-369832-366816-377822-414520-417328
1800.24-440408-437474-400706-382698-408602-402670
1806.02-388310-397488-401220-370128-349960-318968
1811.81-337584-372834-422876-424422-366228-402862
1817.59-401330-335042-322584-375200-387644-339346
1823.38-321242-320588-302190-240700-251302-346820
1829.16-328274-235226-281522-340646-250900-169004
1834.95-235372-294322-217272-115188-173142-280162
1840.73-202456-68096-139294-207970-108668-39980
1846.52-167810-154908 42132 55416-109484-61186
1852.30 132178 131222-13468 67328 198126 89564
1858.09 32544 218418 273416 104798 68798 204474
1863.88 146932 46932 105544 90404-85760-172730
1869.66-151348-154460-261016-268278-119698 251938
1875.45 371466 123324-107256-190014-119052-72102
1881.23-66682 28852 101198 3406-87282 104464
1887.02 135768-7914 124472 285466 71250 1700
1892.80 217266 107582-54946 141946 61440-179248
1898.59 13488 123532-171926-85898 66470-151204
1904.37-157900 29478-153542-167534 36892-150122
1910.16-276740-70488-177976-247768-97808-171650
1915.94-270300-141300-203896-262812-210246-281470
1921.73-338950-246052-314962-276980-258488-313662
1927.51-290490-298486-399220-339286-329178-368104
1933.30-360126-337960-352176-333614-356372-356302
1939.09-332496-335896-359228-383212-425666-419016
1944.87-438748-409102-374322-411600-455918-430850
1950.66-417534-391936-448958-489886-458208-418176
1956.44-448384-433932-435722-394920-395026-417286
1962.23-442780-459676-432186-388750-416288-439472
1968.01-426520-433322-503336-436878-389298-401376
1973.80-439864-424390-431560-442234-449854-458776
1979.58-483338-392770-407592-461326-447198-414288
1985.37-411990-406796-467426-454242-403816-347692
1991.15-401980-440274-456490-432624-420000-430590
1996.94-432484-419180-426098-380128-385258-432924
2002.73-470964-461306-439730-369722-390144-427316
2008.51-444770-446988-415862-342254-374200-371122
2014.30-368710-392978-437772-407454-437898-487322
2020.08-491602-412816-386808-407496-411650-388366
2025.87-398816-393840-435610-415948-384284-364768
2031.65-356318-320918-297504-239824-243264-241068
2037.44-234924-201688-155734-91186-74268-64100
2043.22-45676 29838 82352 128968 155576 155148
2049.01 150642 171374 183328 164558 116582 92162
2054.79 115540 158968 81008 22380 7242-102114
2060.58-250786-266212-169150 7712 60370 147620
2066.37 210372 304584 412720 437100 405034 424954
2072.15 460214 347606 175000 117992 142954 113848
2077.94-86130-158196-160288-93668-238964-355016
2083.72-334264-247292-198560-338608-423630-335928
2089.51-121452-175810-362492-396686-195324-127828
2095.29-327198-358816-216030 7160-282992-412578
2101.08-288574-3986-152336-423100-427068-95240
2106.86-646-293656-404728-188984 6158-292320
2112.65-391968-222330 79076-231498-439496-283938
2118.43 12086-148032-410410-352908-19970-25332
2124.22-348452-360630-104822-29878-322984-406158
2130.01-222066-147386-413876-427336-270308-210784
2135.79-365602-392924-317844-291468-427890-461630
2141.58-476376-427590-404620-393154-360752-338410
2147.36-416250-424354-309248-218228-343008-378676
2153.15-182030-160182-403776-318060-4490-86160
2158.93-416054-271254-2516-146746-392270-94846
2164.72 135252-204714-377160 25958 75024-344498
2170.50-363788 43246-49904-380322-172596 131228
2176.29-200876-394262-32352 36098-370402-285620
2182.07 23180-161224-430540-180484-81778-323504
2187.86-298836-65616-249834-406996-210122-104428
2193.64-400018-424750-262800-354354-422918-205712
2199.43-236204-397150-378854-337574-459492-413404
2205.22-279746-271086-358390-353412-411230-428600
2211.00-378716-348960-441822-457218-400096-412666
2216.79-445020-412860-425720-392020-411456-476242
2222.57-519886-441092-425358-417026-415946-410142
2228.36-442160-418266-354796-274780-274416-266648
2234.14-284910-300128-342134-317634-221662-178792
2239.93-229134-276220-354926-321506-265462-124954
2245.71-88414-111314-173090-176760-162898-15674
2251.50 181928 197258 24714-34220-95658-128316
2257.28 28970 333048 361656 283768 197396 132182
2263.07 16412 225736 587314 653058 614860 706778
2268.86 709728 434054 358780 764814 915280 872988
2274.64 993960 960648 675060 617560 1153428 1145406
2280.43 679902 766800 1232292 1125622 579666 624756
2286.21 991550 826664 506364 633740 648670 399782
2292.00 272412 343140 376866 445604 425396 517180
2297.78 696300 1286850 1823640 1764414 1673188 1883666
2303.57 2058386 1932642 2425444 2730616 2489318 2524248
2309.35 2568422 2471086 2293978 2830510 2628400 2560270
2315.14 2271774 2757842 2589954 2900100 2622864 2980754
2320.92 2880434 3248018 3221144 3562654 3436068 3873930
2326.71 4044932 4393526 4375732 4636452 4634716 4811052
2332.50 4888448 5105514 5020452 5131798 5011138 4945122
2338.28 4717828 4667646 4563650 4379882 3909988 3482638
2344.07 2866652 2325452 1772810 1298772 774016 930750
2349.85 1476142 2127486 2813330 3654024 4438304 5009284
2355.64 5356006 5737846 6091794 6380504 6513784 6701488
2361.42 6644860 6491592 6217576 5909518 5505896 5220246
2367.21 4825258 4381066 3826786 3261480 2641542 2173860
2372.99 1769088 1464690 1106156 773628 453864 177462
2378.78-106120-183300-250190-329974-449310-457730
2384.56-573256-586588-538686-560134-618554-579380
2390.35-628662-630094-619804-574434-571246-551934
2396.14-552070-542886-622408-525298-495844-553882
2401.92-626298-608884-634552-592544-568830-553632
2407.71-570786-517198-527628-535232-571994-548016
2413.49-543896-527432-557224-470062-467640-438306
2419.28-485420-541290-504452-411194-404090-369272
2425.06-369458-343804-373742-334094-287402-288140
2430.85-277150-229606-216558-140204-168972-194694
2436.63-162704-86560-71718 16256 66304 136782
2442.42 190722 282860 376694 525142 635118 803180
2448.20 964186 1095218 1203568 1415122 1650568 1863106
2453.99 2013802 2312696 2596524 2967928 3347496 3847014
2459.77 4291312 4836878 5361478 5963216 6585896 7311646
2465.56 7974246 8773216 9552060 10470410 11522290 12796390
2471.35 14188820 15693780 17118130 18137570 18616970 19513170
2477.13 20579970 21841240 23202290 24608540 25790750 26808590
2482.92 27595290 28060660 28110690 28054790 27791550 27420100
2488.70 26850310 26323430 24969530 22835380 21842900 22801630
2494.49 25265110 29621510 35381990 39093900 30139860 12551550
2500.27 5793242 7477870 10941110 15508100 20997080 26575890
2506.06 31325220 35036980 37769570 39522430 40268600 40130780
2511.84 39213000 37524140 35222800 32468530 29321260 25903330
2517.63 22355450 18913140 15528580 12362020 9623092 7230800
2523.41 5155022 3516042 2176026 1240314 588064 240180
2529.20-1414-169532-268078-306820-392086-360564
2534.99-334062-339638-311934-266338-337964-329040
2540.77-314990-338948-430172-398172-312420-242138
2546.56-275998-346392-451146-456930-437474-420802
2552.34-360064-259914-357570-398844-381962-343062
2558.13-414354-432782-435398-371738-353692-316220
2563.91-365672-376752-405274-419346-431566-349622
2569.70-376236-426818-381400-328152-439690-436444
2575.48-414486-384140-433186-365202-323032-324788
2581.27-361036-376644-419354-409946-384660-369724
2587.05-394522-355350-403990-416928-363990-327680
2592.84-410982-433732-406178-374836-468434-393272
2598.63-337332-322652-329674-343414-440750-455514
2604.41-417494-389052-360150-343730-432272-451154
2610.20-474516-551514-578426-478680-389944-417594
2615.98-543840-578210-559642-508772-563418-541638
2621.77-540510-545234-568102-568708-619036-621118
2627.55-616032-645840-695086-658904-715088-774828
2633.34-802822-824420-885236-940000-988898-938252
2639.12-947424-1009942-1109422-1105176-1133696-1200012
2644.91-1259370-1361884-1499814-1430234-1410950-1570180
2650.69-1683806-1681982-1797864-1785128-1741292-1860146
2656.48-1969562-1932034-2056198-2150646-2126816-2047492
2662.27-2094298-2138746-2174218-2199564-2300108-2374096
2668.05-2476304-2533430-2515990-2475006-2560438-2547282
2673.84-2537772-2553872-2516804-2593996-2781730-2709478
2679.62-2661478-2722052-2679428-2600304-2653306-2687852
2685.41-2827386-2898250-2693288-2635356-2868312-2872686
2691.19-2729254-2692736-2793532-2805320-2760004-2579124
2696.98-2612592-2732876-2707852-2620462-2717126-2725810
2702.76-2744356-2671704-2555586-2565708-2607880-2554640
2708.55-2567806-2502070-2540130-2655852-2654910-2533606
2714.33-2563250-2628754-2734938-2832612-2864694-2896090
2720.12-2867374-2758912-2335950-1503892-1209802-1339186
2725.91-1584570-1757482-1915268-2220130-2356864-2227432
2731.69-2247920-2295638-2412202-2450118-2464994-2586748
2737.48-2729212-2757478-2824014-2835790-2881240-2898942
2743.26-2897266-2870120-2858048-2915550-2903352-2866726
2749.05-2954260-2962136-2963006-2893702-2840980-2896240
2754.83-2907306-2901410-2901028-2846754-2844380-2891124
2760.62-2945668-2811486-2797646-2708118-2722090-2716876
2766.40-2610954-2585746-2555150-2485564-2410464-2309564
2772.19-2334834-2255772-2190714-2081710-2053034-1983936
2777.97-1880388-1685562-1533726-1373000-1329050-1227894
2783.76-1162026-1153428-1043492-864070-844248-827502
2789.54-755732-716590-705620-616446-600978-566188
2795.33-565986-513918-466446-480840-491580-427212
2801.12-405194-328182-320346-333978-386832-398010
2806.90-438704-401508-387104-384118-373102-290124
2812.69-417824-452096-357770-326088-346932-275526
2818.47-312516-367126-334142-326428-374358-347718
2824.26-280090-276710-368114-447938-449804-393670
2830.04-440868-414414-347516-256670-296998-377838
2835.83-399704-369118-334792-295768-423034-387898
2841.61-391326-347386-351654-353270-412426-382256
2847.40-310752-335094-410702-383088-303556-291156
2853.18-386664-415932-464968-407296-395036-399266
2858.97-393650-308852-403900-462744-426602-334612
2864.76-279532-300166-366556-355048-360484-262492
2870.54-301466-421862-393252-375902-461514-382946
2876.33-364558-397216-444568-358950-315254-354166
2882.11-379696-323496-360590-384042-385898-367750
2887.90-269172-224340-352282-335252-322992-268214
2893.68-291122-413990-511298-490278-473522-404202
2899.47-342864-321426-309690-269754-355566-365324
2905.25-288576-294180-348268-429086-448576-295488
2911.04-303262-372252-336928-224294-321736-306030
2916.82-356330-381116-419256-394540-367268-304362
2922.61-306428-414934-421676-381748-356372-390086
2928.40-416028-441854-465004-348066-316150-325830
2934.18-382028-388524-415926-453452-385218-317040
2939.97-304244-271770-361786-310696-343642-384320
2945.75-446022-471344-461912-407492-412790-440310
2951.54-409482-321960-364188-461314-560632-529578
2957.32-406742-330298-297858-255066-317368-285568
2963.11-350440-337570-291862-306074-342768-370088
2968.89-383464-277924-298480-339620-295852-226156
2974.68-318516-425474-365908-228724-283704-320990
2980.46-273490-232082-320690-263066-252420-272660
2986.25-277486-344032-462828-345834-286678-370552
2992.04-431622-417826-460980-508880-426450-208184
2997.82-147358-297434-453860-386230-371924-440578
3003.61-471926-345714-399006-453640-450496-431244
3009.39-364442-273268-413372-386632-279384-315714
3015.18-436450-485410-482844-367578-373360-341116
3020.96-321738-381032-416220-448812-463556-287558
3026.75-261562-380032-402226-244214-205416-252296
3032.53-316204-305096-362928-331346-322202-313996
3038.32-369280-342256-339668-344388-345088-259598
3044.10-279068-305262-374048-418302-498750-443958
3049.89-346566-349262-410986-387644-333988-284186
3055.67-373700-334556-209632-237012-362178-413474
3061.46-354716-340420-457464-463500-377550-305244
3067.25-287336-175224-192230-316776-348038-341290
3073.03-298758-278544-295750-224374-195500-254738
3078.82-305636-270096-294508-326866-379890-317292
3084.60-280638-289922-301944-297748-353142-405090
3090.39-461288-358406-325326-318468-253408-182764
3096.17-280902-333022-281896-296414-296720-254730
3101.96-377996-401748-450852-394652-331106-340184
3107.74-375150-361642-390466-431070-454552-328652
3113.53-317378-422160-430384-359420-318144-276798
3119.31-280410-279996-353730-321884-244984-247716
3125.10-352606-370254-281488-206506-356336-486816
3130.89-421698-280044-287318-328500-383270-414018
3136.67-416168-293342-241670-270408-263570-224756
3142.46-321796-342838-418150-403272-338130-182592
3148.24-200172-324150-340622-210706-181234-292600
3154.03-405566-421008-422834-364718-406094-443584
3159.81-489000-407958-294654-307202-335394-355670
3165.60-420630-332972-306730-263294-366208-430056
3171.38-436722-359710-373324-377598-376446-266004
3177.17-265816-307782-254800-294626-411394-312910
3182.95-278236-319150-380138-384632-373492-257260
3188.74-256818-276424-264556-286350-311988-289452
3194.53-322574-270394-334282-293412-204788-271670
3200.31-320874-268730-310354-319748-329664-364084
3206.10-385566-402968-367986-236334-213492-280652
3211.88-393240-337680-396622-357378-288628-270266
3217.67-281246-263966-203822-240290-387216-368688
3223.45-236928-275522-313464-296936-318830-264422
3229.24-233280-248072-373182-389108-364792-369682
3235.02-345508-214534-237670-350798-336590-175788
3240.81-250420-275236-223102-328938-535552-369690
3246.59-133970-191224-339174-288520-288934-260614
3252.38-303014-317418-269700-241428-344572-368508
3258.17-361136-339030-331958-288534-282874-334070
3263.95-470574-395870-319456-278726-330340-366088
3269.74-356902-347132-392338-427104-402412-315146
3275.52-437128-469354-366136-316440-327696-258114
3281.31-251558-330008-405758-259806-133868-290952
3287.09-365526-305612-473296-512194-417560-279536
3292.88-325286-341786-333444-272600-207774-242858
3298.66-370292-302426-207400-240080-311594-236194
3304.45-239632-305260-305314-226430-288068-248538
3310.23-198976-167772-218334-277652-367110-333208
3316.02-242444-247306-395408-391334-348470-289246
3321.80-258704-152854-210196-242818-317552-410694
3327.59-323096-281934-364284-289672-250706-438674
3333.38-537810-461988-284378-141208-312392-345064
3339.16-311186-310842-384588-393426-311350-207204
3344.95-175680-209496-221516-179458-223982-252826
3350.73-361128-308702-322488-203978-166758-310686
3356.52-413386-374846-399784-418422-327596-311066
3362.30-321592-274780-254038-208402-295654-354146
3368.09-322898-174022-134144-205428-333738-440190
3373.87-429092-339162-219440-257262-311660-433762
3379.66-513374-343440-174616-120100-185984-408116
3385.44-378278-319568-409548-372012-247722-199652
3391.23-167018-87258-164886-422584-505212-361774
3397.02-430344-394346-277866-211604-229926-157980
3402.80-285316-329530-327488-235362-197502-221992
3408.59-244996-368410-343622-308358-195924-217872
3414.37-362200-421128-508786-390666-311974-177994
3420.16-206500-313114-390734-269658-221834-288382
3425.94-387290-364496-339748-325888-309346-188930
3431.73-187874-227946-219176-218684-227948-212912
3437.51-318604-312222-218768-204752-295822-249258
3443.30-218228-300586-434152-397964-276364-297098
3449.08-269314-197528-272618-314722-416172-291244
3454.87-123854-142068-189762-162460-189512-158320
3460.66-94922-301136-375380-267938-242668-303938
3466.44-478174-506694-414920-380902-376598-327558
3472.23-303478-295262-387752-424422-298066-174556
3478.01-306232-375164-332202-267858-257770-204710
3483.80-175500-269724-436234-359226-349040-410408
3489.58-410588-348484-372078-417138-422764-364072
3495.37-348838-263254-273992-220146-97094-184910
3501.15-474020-409000-306760-362802-374166-321332
3506.94-319960-309676-417468-406564-412080-383652
3512.72-425792-460100-382472-170922-117976-247562
3518.51-325034-285518-382384-370840-382024-273524
3524.30-177642-203408-276518-331788-395316-390754
3530.08-451758-398122-270552-278900-360784-257644
3535.87-225482-311708-445558-324664-259324-303894
3541.65-235756-221794-325554-432150-412902-219504
3547.44-185310-281556-345562-290472-217378-125924
3553.22-179820-250190-355130-471424-442392-329104
3559.01-324870-241872-243480-276084-345228-240624
3564.79-231752-263398-220042-254778-379754-334654
3570.58-268402-356372-316168-306844-429650-280550
3576.36-130818-213756-455518-424588-329960-239508
3582.15-174032-132508-197264-271112-255890-281386
3587.94-409670-345582-364754-370636-315122-154998
3593.72-112090-80596-188542-264198-189120-183114
3599.51-241358-265606-249308-169604-105982 25970
3605.29 54074-98292-192854-160356-179046-102332
3611.08-78404-84460-65550 10908-4356-36154
3616.86-80240-109254-176610-154380-18020 59976
3622.65 100704 1486-58146 61838 189718 275474
3628.43 31906-236484-193342 37442-120268-183374
3634.22-44058 148034 121146 172266 154924 147312
3640.00 185952 201006 155254 113554 78080 60544
3645.79 8402 21856-56996-108390-146268-273612
3651.57-426854-394548-367244-244794-213106-219266
3657.36-218226-285540-331126-308896-180606-131182
3663.15-238766-215064-190446-197744-351070-336434
3668.93-177344-247640-312936-265908-253706-266594
3674.72-330880-258262-210838-213750-311342-306454
3680.50-233274-225152-236636-212950-231750-62394
3686.29-101368-244044-267734-185650-200062-243960
3692.07-233218-168328-174754-180022-282028-246840
3697.86-184680-198232-287334-266814-270882-291898
3703.64-299884-199030-96670-79340-146654-182316
3709.43-257028-163892-163074-239480-373478-369152
3715.21-305908-229448-173786-164512-235396-196702
3721.00-147192-131138-163330-153056-110518-99536
3726.79-141240-214940-325892-228060-158822-137398
3732.57-121666-137842-266282-303030-229342-193828
3738.36-312194-305346-229082-169186-139176-176612
3744.14-283066-371610-369856-221258-280816-366806
3749.93-315458-229974-253856-253044-254600-279592
3755.71-359484-429432-357244-304832-370184-256274
3761.50-222304-229494-198452-309578-418780-283600
3767.28-218872-220896-303988-280972-278542-255724
3773.07-225006-266122-371582-334002-231446-151928
3778.85-267572-270580-218654-182066-259404-347548
3784.64-339618-210956-272880-422838-422352-247370
3790.43-297940-352268-252676-126140-220298-349452
3796.21-364774-243642-360130-368314-301704-317718
3802.00-267260-115618-170126-268164-301034-267180
3807.78-178184-180830-228610-294266-330892-299872
3813.57-256744-182622-209766-308408-354748-276484
3819.35-230238-221560-222762-194036-221116-274480
3825.14-314730-207054-182596-224778-246696-172920
3830.92-208430-184400-164392-135940-203962-314442
3836.71-272380-135470-303814-279562-267336-264892
3842.49-146364-62386-116110-107932-158658-226562
3848.28-188000-147168-203030-212232-220440-218778
3854.07-305836-275082-185878-238732-272820-166188
3859.85-92020-124760-303392-339974-379584-340014
3865.64-261278-226104-249122-239154-143200-83266
3871.42-214660-288966-266530-274094-319230-259782
3877.21-165130-209624-348024-297530-195386-209724
3882.99-337254-290974-298118-254472-207444-241112
3888.78-189590-198526-291244-232298-321026-417990
3894.56-347830-238406-269690-284600-150266-110036
3900.35-166114-274828-347006-317454-386262-515630
3906.13-589218-496782-301154-147296-107258-141068
3911.92-266418-245442-256302-267684-261178-355994
3917.70-500248-408574-285052-252858-320702-353962
3923.49-366606-333134-385980-352920-294722-278430
3929.28-341444-259418-310784-334572-268116-275324
3935.06-370584-380786-307186-236356-282920-299734
3940.85-261738-224378-292638-264072-334790-345992
3946.63-264000-153718-272570-436086-415096-408186
3952.42-415104-376072-321304-369262-404018-205868
3958.20-121500-144954-318458-426156-359210-340446
3963.99-320792-299772-390024-399238-428330-326232
3969.77-346632-447408-419072-451488-505408
##END=
