##TITLE=Sulfur Dioxide
##JCAMP-DX=4.24
##DATA TYPE=INFRARED SPECTRUM
##CLASS=IUPAC A
##ORIGIN=NIST, Anayltical Chemistry Division, 301-975-3108
##OWNER=COPYRIGHT (C) 1998 by the U.S. Secretary of Commerce
##DATE=98/10/1
##$SPECTRA VERSION=1.00
##$UNCERTAINTY IN Y=2.1 % relative (B=1.1E-04,C=7.6E-10,D=2.7E-14)
##CAS NAME=Sulfur Dioxide
##CAS REGISTRY NO=7446-09-5
##MOLFORM=S O2
##MP=-72.7 C
##BP=-10 C
##$NIST SOURCE=QUANT-IR
##SPECTROMETER/DATA SYSTEM=IFS66V (Bruker)
##INSTRUMENT PARAMETERS=KBr Beam splitter; MCT Detector; Multipass cell
##STATE=gas
##SAMPLE DESCRIPTION=Sulfur Dioxide Primary Gas Standard
##PRESSURE=101.3 kPa
##TEMPERATURE=23 C
##SAMPLING PROCEDURE=1 L/min Flow
##RESOLUTION=0.9640
##DATA PROCESSING=Boxcar Apodization
##XUNITS=cm-1
##YUNITS=(micromol/mol)-1m-1 (base 10)
##XFACTOR=1.0
##YFACTOR=9.0949E-13
##DELTAX=0.4820
##FIRSTX=575.169
##LASTX=3975.077
##FIRSTY=.0000149
##MAXX=3974.59
##MINX=575.17
##MAXY=.0010509
##MINY=-1.50E-06
##NPOINTS=7053
##XYDATA=(X++(Y..Y))
575.17 16397620 14220570 13157040 12101540 10983980 9311436
577.58 10325290 11937590 19678880 12651080 11512290 10122430
580.47 10610400 9631880 8250498 9200716 9430614 13505200
583.37 7534052 10145020 8692694 8506470 7539520 7133250
586.26 7264330 7711498 11333000 7306848 5365126 7516534
589.15 6082314 6794168 6503086 5828274 5078578 8602292
592.04 5696540 5233892 4939642 3979124 5269786 5603834
594.94 4655086 3455538 5578104 4180774 3734732 4022746
597.83 3152662 3598242 3863510 4107702 3115842 4412870
600.72 3904506 2430734 3290848 2465528 2971644 1871220
603.61 1869810 2560998 2457426 3641304 2194968 2640492
606.51 2288588 2017512 1089394 1865946 665698 1990380
609.40 2483464 1430452 1899054 1521694 1212598 1076786
612.29 1231706 1114498 1372598 1531612 1322876 1289892
615.18 1083304 903416 960188 921904 987390 1045732
618.08 919914 474866 981388 574426 855200 577124
620.97 774842 692104 471058 470214 227036 523212
623.86 101206 447640 384894-68514 542778 306038
626.76 375030 665066 47278-176950 1009802 40792
629.65-102748-530 220208 745518 656412 75234
632.54 69874-15924-42468 66840 176756-3208
635.43-313404-99974 50352-52784-419240-97888
638.33-300072 69290-100242-302396 117784-190736
641.22-69002-170074-501666 465250-484432 344516
644.11-118884 206342-56062-292492-466972-87312
647.00-371186-97074 32444 130866 229498-196406
649.90-129308-360748-314148-366830-194232-426176
652.79 132164 284844-229360 191100-190220 12138
655.68-254148-15746-221756-116734 24584-558794
658.58-263200-47258-63770-299580-236460-80474
661.47 22998-222632-66838-229192-393104-213246
664.36-551870-432608-600060 77696-881748 2146820
667.25 5750026 2517760 940034 40314 379392-537720
670.15 80848-356712-326386-338988 4600-122930
673.04-597328-339792-51554-38844-189218 48612
675.93 130790-445928-232996 72170-454790-520112
678.82 41368-132250-269918-313048-221622-284610
681.72 367508-12324-230548-182058-102026-196584
684.61-165514-83710-65370-151596 79694 77506
687.50-293436-17832-449404-226170-348654-342988
690.40-233156-201904 190244 117134-303374-147626
693.29-249160-493990 7684-126978-118258-481100
696.18-228700-414228-177628-41632-47902-224872
699.07-247610 34654-39516 58932-213126-459776
701.97-278108-374136-232334 10194-258700-39738
704.86-69846-264024-46642-837794-215558-310326
707.75-452502-494272-43074-61118-362932-409744
710.64-168856-625878-42446-339530-375532-352158
713.54-189798-317176-297764-303294-162158-156614
716.43-342676-575052-428530-596302-297110-46640
719.32-13478-347852-201552-270360-422904-321168
722.22-142450-295320-80388-259544-403462-237086
725.11-46498-345098-501932-365764-224862-233694
728.00-321012-60906-171496-382658-330176-353170
730.89-193770-507878-167488-272170-439162-86352
733.79-379998-435850-42434-192448-29424-530940
736.68-333378-317588-82264-334808-268078-412126
739.57-143512-238980-245576-267984-42618-386232
742.46-268340-400728-414048-91620-139210-121800
745.36-157364-279306-206542-284162-203250-543020
748.25-286394-120638-213498-305340 33002-347232
751.14-72812-44748-150684-270596-276078-137204
754.04-295740-216288-396230-399334-64310-256456
756.93-192864-364584 38-240802-15408-429948
759.82-205838 2462-241032-439486-402656-344286
762.71-404940-155598-293400-239494-245960-223620
765.61-286468-311726-202882-272252-434620-268292
768.50-3972-372978-436998-422710-34220-430202
771.39-253982-72586-287470-130450-104530-166508
774.28-260338-194938-185632-504104-261700-438724
777.18-237068-318944-350234-409418-126202-214032
780.07-164770-140272-505674-222768-214708-211000
782.96-78846-129242-338286-95884-252824-416150
785.86-15634-482068-96954-456160-428312-517446
788.75-233798-303728-301648-467678-159372-115742
791.64-213158-434042-167470-226464-356546-95062
794.53-313922-510682 18164-349852 48634-258240
797.43-298902-436726-76814-65704-368672-279850
800.32-498676-329094-64268-641916-171058-497898
803.21-202764-445948 2426 38094-135714-432838
806.10-153332-53544-454772-42068-230160-119818
809.00-324678-386558-142146-459834-230510-274752
811.89-238998-255954-243786-181614-212826-597776
814.78-90098-244422-190812-108254-151478-260072
817.68-48230-151466-719498-141212-171070-215060
820.57 57798-284708-191046-308830-436344-255434
823.46 126500-387192-240540-196842-282036-291074
826.35-475364-97764-75916-230546-277858-289930
829.25-256844-312974-150746-281994-321610-227312
832.14-477880 33612-68356-479370-240502-455932
835.03-445412-276566-132574-240346-113858-363040
837.92-68224-370182-186606-253614-27980-384452
840.82-54804-280820-364366-66564-334364-163186
843.71-442152-286322-447642-498090-279832-173972
846.60-197404-115158-296408-477224-142270-248158
849.50-429586-150638-307050-421924-164268-256722
852.39-330498-220550-352634-223088-363466-333464
855.28-473624-253344-33562-200998-253530-354762
858.17-276174-184654-54650-253606-179754-374412
861.07-177880-235938-452782-184298-75272-143410
863.96-226600-215420-300380-192618-236790-364630
866.85-227462-199834-163328-262280-207038-223240
869.74-311640-377066-242938-274656-222822-198536
872.64-116396-345586-221412-377668-310098-195638
875.53-173866-233044-66846-261590-226806-250430
878.42-238988-299938-213720-279960-23410-269040
881.31-86012-313216-268484-293836-294702-128114
884.21-250820-241682-112560-369272-137900-85300
887.10-78236-411968-171378-359008-155576-296998
889.99-235500-213410-283600-399276-262876-467846
892.89-102452-327454-212300-282052-199282-273598
895.78-163548-258992-220264-281452-215062-179236
898.67-210666-360538-113244-191172-190506-309408
901.56-257586-156072-208552-257070-120842-57866
904.46-80564-250008-208340-159338-380312-281620
907.35-193614-301564-195316-226034-26830-257102
910.24-168830-537122-110454-280574-121966-348294
913.13-152542-254200-155330-257448-70014-125278
916.03-113220-213190-21664-338688-316370-312958
918.92-292944-288354-324838-341630-211008-234952
921.81-332116-256736-432616-226934-191478-298080
924.71-139952-132934-323678-315860-200032-305994
927.60-139154-353078-235814-427662-214032-180150
930.49-116576-231686-179624-368418-117728-263696
933.38-229462-331088-288446-266146-202990-124046
936.28-142026-313686-212796-386152-208904-361548
939.17-89298-311504-175804-361894-227816-338626
942.06-397358-310816-169034-297168-84310-280222
944.95-257564-349450-190664-336046-242272-260112
947.85-251004-280750-150858-155842-217516-317522
950.74-163434-236252-281722-320354-112526-255042
953.63-204824-212976-214706-287416-168794-294108
956.53-210188-358630-288454-312666-64860-376858
959.42-229264-314646-163810-374304-244760-167176
962.31-294090-229158-164470-297236-61306-229956
965.20-312028-336316-153542-320260-204386-271374
968.10-107150-366238-162184-409628-145860-212194
970.99-139256-119576-118760-258314-313110-204852
973.88-195092-321848-120368-333586-9338-252022
976.77-17420-334374-105492-358402-185522-266224
979.67-240564-211200-230758-322082-127018-341148
982.56-127216-300132-115202-387926-260724-201182
985.45-4754-322136-146500-283926-235872-205494
988.35-143486-262546-209582-447732-116726-355098
991.24-264476-237510-253004-336968-79928-232568
994.13-212338-360690-121350-231568-231908-388994
997.02-88712-251402-177214-240984-230032-282836
999.92-308102-155870-79370-329510-297718-359712
1002.81-18930-388114-231602-201104-228376-200086
1005.70-199532-327950-74586-366768-217042-322970
1008.59-231096-314924-153790-272530-235174-254442
1011.49-185558-333304-114276-263436-157140-180770
1014.38-333290-345244-182060-253278-316062-344186
1017.27 1132-436400-183972-266762-36822-506962
1020.17-157250-279074-61890-202852-144324-352052
1023.06-153194-452262-309290-213110-135222-306622
1025.95-141464-285160-191468-261884-149570-330090
1028.84-188982-304288-139986-250696-79278-196264
1031.74-125914-289988-4274-312686-104828-261064
1034.63-141334-283484-344374-184420-368258-243170
1037.52-84948-189948-34798-66938-50718-270616
1040.41-61190-198968 52258-198556 21636-158342
1043.31 10712-308566 78574-230588-38140-152960
1046.20 68038-99748-16188-75546 25672-169790
1049.09 89196-30968 87794-131136 202386 88524
1051.99 127896 141064 281388 48146 240774 4762
1054.88 207466 57732 335516 134162 206490 278590
1057.77 267752 370568 424534 484826 545916 412986
1060.66 520628 591646 741696 699632 787184 723776
1063.56 948336 713788 784896 965072 1071254 925926
1066.45 1185908 1204342 1163376 1230398 1473106 1472240
1069.34 1640034 1610528 1816806 1743456 1749964 1852162
1072.23 1985678 1940304 2346758 2325112 2744180 2524438
1075.13 2305372 2506564 2952388 2892516 3207680 3312016
1078.02 3407610 3196904 3437542 3489460 3943252 4139160
1080.91 4265526 4522724 4784696 4251260 4655070 4978118
1083.81 5306752 5312084 5661942 6027606 6393956 5726050
1086.70 6101964 6036190 6882330 6919438 7764996 8034252
1089.59 8240312 7103410 7405678 8125526 8576238 9176124
1092.48 10034270 10283760 9692724 8536524 9612118 10590520
1095.38 11419900 11705680 12032540 11669760 12423190 11286390
1098.27 12914520 13393000 14436320 12820900 13713230 14662180
1101.16 15310600 15087080 16604930 15943710 14832520 14650280
1104.05 17046640 19324990 20157180 19226050 18492960 16247340
1106.95 17764930 19576120 22691370 24636550 26420370 18702760
1109.84 17837360 18715510 23970270 24897590 30393930 29413560
1112.73 21504340 20954630 22680590 24833550 31343920 37480050
1115.63 33348040 23043370 27724070 26011240 31165000 36052580
1118.52 43388670 33507570 25505910 31369240 30762620 39992160
1121.41 41733550 51844080 39917850 26023720 30034990 39512350
1124.30 51090280 53027820 63643540 47973110 25797140 32162080
1127.20 34270380 53940290 66734690 84016580 56830830 31422210
1130.09 35312320 41241840 42609910 66276790 109696400 69037420
1132.98 45678460 38568130 39938160 54017280 49927690 92096570
1135.87 100323600 44216520 52745210 47236490 56642010 47257110
1138.77 67370770 89191440 56192580 54980290 54481740 56542810
1141.66 46547190 38087840 61867020 57372580 56239440 53450210
1144.55 35896500 27035450 41808210 31547850 54314520 36626520
1147.45 22906280 23976770 25949760 29983500 26740000 23699460
1150.34 21298280 24932510 22379920 22670830 29643370 23207970
1153.23 30806960 31915040 30219820 26562760 51158170 57775930
1156.12 37331970 52170130 58875140 60813940 57545840 65195240
1159.02 64502000 64981980 83477190 65741370 44651120 68008630
1161.91 50605760 87371400 100843500 78707460 55700730 54677440
1164.80 67552300 79317090 82319620 94225220 66473870 64738800
1167.69 52722260 61121920 65530750 78038820 83532180 70311300
1170.59 47439830 54414600 47492960 57350870 60311310 71366690
1173.48 50754060 40739180 44001300 42839020 48844780 61444100
1176.37 64248360 42205160 30999110 33792020 34560160 40760480
1179.26 40611700 51322920 34849460 26207180 27025810 31376660
1182.16 40780450 42165420 46524410 27784730 22109660 25813460
1185.05 23581690 28218520 35669740 37036980 25846500 24793330
1187.94 23552000 23463660 26470160 29473910 36156540 22662290
1190.84 22770460 20177540 23637530 22718340 25507270 24286650
1193.73 21191430 20949470 20823130 20959450 21798960 23243980
1196.62 21107410 16932080 18346020 18908070 18922250 19421150
1199.51 19855320 16470910 15441940 14169360 15989530 17254420
1202.41 17182990 16833170 14429470 13534910 12974010 12374860
1205.30 13728910 15073300 13646280 11749220 11744440 10982810
1208.19 11242710 10539120 11370270 11483330 10491030 9845134
1211.08 9719152 9201060 9152894 8458556 8135628 8743290
1213.98 8321740 8001392 8016520 7445078 6660544 5976278
1216.87 6437980 6914742 6630648 6178038 5762806 5233446
1219.76 5048376 4609194 5009254 5439270 5116372 4531380
1222.66 4299820 3873866 3731906 3543738 3871174 3689390
1225.55 3403428 3291296 3136552 2895622 2819810 2469460
1228.44 2877702 2646224 2539552 2310250 2094462 2132934
1231.33 1824758 1704896 1991176 1725068 1638056 1581770
1234.23 1506892 1350600 1329608 1135466 1441372 1083642
1237.12 1128150 844908 1038362 778560 649746 907420
1240.01 824258 760038 626976 497560 652452 316788
1242.90 630602 340698 552382 288418 436342 329920
1245.80 301384 201194 318476 177350 227678 60376
1248.69 189818 72392 188350 51700 219040 19424
1251.58 153290-196664 72718-106356 91022-178694
1254.48 56594-136466 17670-222124-31778-282214
1257.37 2658-195662-124-185990 53318-134564
1260.26-96504-133152-80590-227978-123908-314722
1263.15-91642-323048-129710-301718-49066-174294
1266.05-87814-377778-86296-299360-145718-252684
1268.94-135924-324298-93832-243890-99720-425792
1271.83-124232-330068-87290-357988-149856-206134
1274.72-75232-325258-114584-335546-97944-362190
1277.62-134686-382810-14208-306148-80646-180100
1280.51-85084-288978-97524-405044-54114-354968
1283.40-8374-342304-54586-332372 36858-259272
1286.30-64528-251196-97164-272706 36716-179906
1289.19 27688-231258-47714-242992 123076-112706
1292.08 99670-157846 107904-96312 234850-71886
1294.97 238436 99814 334056 222232 439672 300294
1297.87 664556 416568 943598 658778 870768 911822
1300.76 1323798 978324 1495648 1555806 1883394 1759472
1303.65 2415682 2447464 2688994 3018626 3842762 3344632
1306.54 4159512 4733162 5102092 5309782 6560570 6729690
1309.44 7452630 8187342 9337856 9552314 11374700 11990130
1312.33 12892740 14647150 15944910 16233600 19384690 20549150
1315.22 21081030 24351070 27372280 26786730 30679070 35477580
1318.12 34973510 37159090 45999500 45612990 45755670 57587910
1321.01 59561960 55686630 70796060 76284940 69864410 84613130
1323.90 97344180 88273270 100322200 119816000 112599400 118055600
1326.79 144903200 143113400 140984800 170250600 179943500 168654500
1329.69 198061100 220377600 204796300 226899300 264025900 250403700
1332.58 257596200 310876300 306803400 288067400 361908600 368424000
1335.47 323275700 417490600 433900200 366151900 472774500 501714300
1338.36 417655300 526568500 575704200 475739900 576854300 652564200
1341.26 528588700 630180200 731115300 576823100 689750300 795571900
1344.15 611034300 701740800 780828000 599634400 716731000 800352600
1347.04 613378800 729556700 806892800 598818900 741696200 788000100
1349.94 575982500 750693800 724423700 561017300 727626100 653410600
1352.83 542016700 671249400 586472200 523697400 647332400 564854900
1355.72 552841900 672837300 589128300 622542500 666033600 648491700
1358.61 779309800 883409700 960239800 1115949000 1155489000 1096224000
1361.51 477655800 107335500 142709800 103186300 186246000 164172200
1364.40 215712000 296606700 282888200 382503400 472305400 424814000
1367.29 657947300 571513700 671260900 803285500 665447200 879255400
1370.18 834258600 771114600 1028114000 742788400 998817000 913186800
1373.08 814114700 1066141000 744860300 989940700 869342700 778848400
1375.97 982615600 669316700 908948500 718846800 714087700 799769900
1378.86 555992100 773206900 518430000 636052400 546175100 485151300
1381.76 542243200 391401500 481455800 348295700 390221900 328792900
1384.65 298990600 302451200 234412500 257672400 193598500 207903300
1387.54 161255900 165623400 131638800 129071100 106771400 99524510
1390.43 83598140 78374460 61816140 61821190 45642870 46337810
1393.33 34332240 34258720 25069080 25272290 16964460 18583090
1396.22 11583910 12986000 8035764 8905020 5700372 6329596
1399.11 3418588 4677818 1890766 3611934 937926 2602078
1402.00 325296 1981830-89688 1646024-362376 1298172
1404.90-557694 931314-453024 1166556-561484 918610
1407.79-648584 830800-772814 737680-484848 843348
1410.68-672032 790246-318452 793424-597098 655904
1413.58-472122 847122-784640 535572-662326 558098
1416.47-606468 527312-570314 645964-649936 499686
1419.36-503998 533266-590318 493344-302618 519932
1422.25-569284 351206-526574 394788-574690 465662
1425.15-476376 409076-609082 329224-601356 413766
1428.04-559356 266706-592564 377950-498108 277466
1430.93-430052 311512-491672 297338-571096 260452
1433.82-511136 194046-567668 131404-503374 170040
1436.72-501416 179208-440296 271306-492932 92820
1439.61-565756 198302-511494 176692-471276 77998
1442.50-484532 231000-465360 148050-407770 193402
1445.40-516526 153998-531744 118684-585928 9626
1448.29-395754 51642-529590 102740-393450 27640
1451.18-464058 107296-498522 115392-437332 102766
1454.07-533546 140098-456056 56546-402492 63844
1456.97-436430 26020-471872 43062-493514 14100
1459.86-499116 132914-372186 120454-381642 71480
1462.75-479162-21790-496546 48396-472546-63918
1465.64-328924 12178-462474 16930-404944-5286
1468.54-466166 60546-312344 39814-491388-356
1471.43-367250 20410-413830-35752-498496-37898
1474.32-429356-21710-465346-26518-434926 14232
1477.21-479582-1938-444876 74226-430860 74196
1480.11-327636-49590-449518 66462-366780-19992
1483.00-327632-107152-408284-37978-478770-61178
1485.89-448424-4900-363592 29796-362660-87260
1488.79-440968-67594-381704-64224-375986 8404
1491.68-423798-37890-327666-98912-353856-141682
1494.57-411638-36014-438134 38176-422916-82018
1497.46-445606-45016-327462-56254-375064-4014
1500.36-353204-144156-329494-13828-342872-68138
1503.25-307204-57908-426150-76988-384394-46448
1506.14-369980-80066-370778-47180-423230 5904
1509.03-377128-79316-400266-7530-304632-7600
1511.93-402870-68514-294592-9100-274604-20798
1514.82-349664-61430-306288-29886-327048-99758
1517.71-225658-134424-335818 2552-308260 35584
1520.61-270500 28116-344200-53172-364802 60478
1523.50-194728 41876-257680 7504-332228 15336
1526.39-289168 36640-309260-4486-309166 8542
1529.28-232766 48024-301972-61448-203580-51554
1532.18-183478-19930-230292-12990-252892-61956
1535.07-297198-9322-230748-64122-238754-43704
1537.96-206548 48406-229148-47720-237996 65676
1540.85-146138 58258-257186 23360-214766 38820
1543.75-278094-21408-269172 28550-227932-82634
1546.64-304520 1930-328314-63998-373404-127472
1549.53-371728-143604-348492-154696-345014-43788
1552.43-407994-148520-321930-167234-383206-135824
1555.32-319276-109254-326448-104704-330074-141372
1558.21-416032-45368-355140-126116-373852-110826
1561.10-344846-199354-370980-101620-351248-122618
1564.00-329476-126136-376378-58426-405680-143268
1566.89-338768-160282-335846-93122-369468-89190
1569.78-275316-167962-330874-146666-294010-145190
1572.67-314908-131076-306276-155002-380002-81648
1575.57-342034-264876-309336-105306-370188-78566
1578.46-320876-187084-329218-210740-323712-126682
1581.35-371436-181980-302032-101636-242788-122856
1584.25-390448-168330-349828-94284-345730-129972
1587.14-273410-90280-254996-87622-297470-153408
1590.03-339778-57920-413056-186874-308156-182868
1592.92-352374-126786-294000-149214-321918-172238
1595.82-283112-117432-329166-117882-349008-202946
1598.71-304096-112644-353618-81704-289632-164042
1601.60-281234-145472-304056-155686-253336-214700
1604.49-370492-113116-267912-203082-224650-146054
1607.39-335328-121640-260946-114742-325908-164410
1610.28-272564-175364-305966-200428-281290-154270
1613.17-249968-274444-245504-182644-246120-160228
1616.07-299942-175000-236326-175624-330242-131892
1618.96-258632-155180-181350-92680-298784-21382
1621.85-317598-23308-254452-94156-323714-197528
1624.74-341832-194760-317678-100566-311696-116924
1627.64-360418-119892-317176-176746-250294-84570
1630.53-298676-99492-315636-170452-264160-183494
1633.42-264216-102326-295902-152312-242420-83294
1636.31-294112-154702-364122-171314-279838-104450
1639.21-348366-126606-251302-18026-252202-82026
1642.10-339592-145426-233380-111184-241370-181348
1644.99-315786-262566-227654-119770-321938-107470
1647.89-205444-144558-303008-132784-368096-156726
1650.78-210026-146930-254340-218988-282102-76486
1653.67-183892-167468-296694-95996-267566-81020
1656.56-274746-88026-251198-107370-307724-167384
1659.46-292612-121414-231848-155868-285504-81064
1662.35-260392-151942-334284-134970-236850-139094
1665.24-288230-115902-268012-138736-262138-204078
1668.13-256406-84862-271488-141468-177878-145920
1671.03-212612-199096-242054-160684-260740-89182
1673.92-266762-187780-151500-116044-241480-100862
1676.81-167968-145416-93912-107500-261360-105124
1679.71-193900-137356-191466-123408-190242-85456
1682.60-249998-106330-238046-116750-207564-103800
1685.49-184928-71526-300846-46222-287276-69618
1688.38-276286-212170-259376-61108-272460-91594
1691.28-233474-116022-236668-161376-112070-174510
1694.17-279182-126882-294802-139820-264466-164192
1697.06-223928-97622-210378-139940-242112-168534
1699.95-325536-141126-139742-87474-269038-177626
1702.85-288908-146520-234010-148906-331540-156280
1705.74-221246-67746-208198-174304-265322-121832
1708.63-246356-149588-247270-145278-236358-213950
1711.53-304760-96616-248060-94904-227164-169092
1714.42-238018-96412-217718-243714-238440-143156
1717.31-260430-137576-283908-121992-251516-58474
1720.20-263048-83136-262048-173540-184094-111982
1723.10-276176-80246-268626-124804-204822-95962
1725.99-221824-177182-270390-110474-318946-158862
1728.88-241148-86972-215454-177738-242104-155394
1731.77-160446-210778-184230-159660-269520-201214
1734.67-231692-127786-321498-93928-228598-141662
1737.56-208556-164158-260228-85752-238218-103066
1740.45-174500-142656-289858-168704-227488-177104
1743.34-249808-133790-197216-140032-314946-122264
1746.24-276404-169958-210222-131036-285036-182534
1749.13-254820-151138-265740-217848-268156-100456
1752.02-278350-145394-262846-174450-346130-113672
1754.92-248838-194026-210536-212960-187860-122398
1757.81-254450-73192-244948-169596-253556-194022
1760.70-266080-234358-241688-116938-239678-187868
1763.59-191048-140094-264984-81896-333174-189930
1766.49-244462-120286-257766-139428-170794-140506
1769.38-282748-170348-200634-96310-240176-162230
1772.27-261884-189858-351004-190868-245370-131024
1775.16-236010-92792-247886-128310-188964-193608
1778.06-241326-179842-189210-97618-279444-110138
1780.95-307730-160490-260432-205634-233408-148420
1783.84-256272-182238-208792-156400-232848-151724
1786.74-203972-174636-238430-179524-208428-144774
1789.63-255492-150368-255046-156662-267004-171116
1792.52-217952-158250-203018-138664-246862-246398
1795.41-248392-129088-144480-185754-272090-98078
1798.31-211762-210794-260876-162740-218426-180748
1801.20-316456-151482-265664-163678-173770-216952
1804.09-204926-131538-294872-200160-148654-206546
1806.98-202756-178166-240950-166286-242528-126562
1809.88-223930-152628-185746-129208-194810-83692
1812.77-275414-119410-246606-147512-271416-224960
1815.66-277036-584-271562-126120-390678-84164
1818.56-180234-173442-264892 40710-266106-165190
1821.45-298024-113082-164166-228820-199268 4196
1824.34-301220-91196-238476-93786-107322-216172
1827.23-87548 22768-233078-185758-293706-52240
1830.13-134322-208702-30634-24202-336948-124512
1833.02-270926 5416-84380-195688 25340-30478
1835.91-348232-11592-326080 91516-172730-117404
1838.80 135534-141492-150296-149568-258360 59692
1841.70-201002 32064 113100-169004-136988-95504
1844.59-155262 53528-179384 202814-70140-163020
1847.48-93638-196638 41652 61000-9098 243998
1850.38-148692-81128-98954-42772 5102 55526
1853.27 253436 44968-70564 85812-147170 38016
1856.16 70396 247764 84222 23664-73126 18636
1859.05 35468 91542 173970 328968-29720 55550
1861.95-7540 13886-21644 255806 121546 73448
1864.84 9886-34856 36844 60314 61556 201396
1867.73-108120-54396-70678-52746-203286-34848
1870.62-2866-42824-193016-86460-154488-156318
1873.52-184288-1356-90384 121446 378052 271144
1876.41 69142 40494-3372-47756-120890-105716
1879.30-179376 36886-21480-44144-86632 16316
1882.20-92706 107164-97618 201108 92554-76738
1885.09-36096-87854-44000-68788 407000 30962
1887.98-92422 19288-27408-50944 159460 449778
1890.87-81868 120042-134296 12418-178360 387670
1893.77 280438-103538-60168-42758-73614 45536
1896.66 396742-28798-124956-148704-141062-111958
1899.55 313956 237844-149688-173762-94958-220320
1902.44 132074 305692-131128-115836-171692-168944
1905.34-7814 221804 2830-130752-198424-173636
1908.23-67366 294792-1000-84016-258552-202770
1911.12-195378 251624-59028-85830-245172-114386
1914.02-230180 206072-101600-12844-231934-192562
1916.91-190640 194216-213614-4614-205646-144210
1919.80-209466 72924-178668-36228-318538-187402
1922.69-164748 63384-263660-62404-315220-100056
1925.59-69530-55262-267238-62508-299920-50148
1928.48-140654-82798-246264-158954-356180-29622
1931.37-172648-127232-237974-122110-306144-63336
1934.26-225980-151468-164832-189442-203004-82602
1937.16-275510-66758-231790-226150-158748-87008
1940.05-248528-85904-266648-115896-191314-182676
1942.94-222706-229806-199984-169560-308478-111834
1945.84-273598-232382-210354-76390-237688-185558
1948.73-295700-160448-256226-218956-226154-150182
1951.62-270030-155880-197954-167748-335362-222250
1954.51-254712-218270-250540-98064-314150-172168
1957.41-276394-161454-274088-133402-321634-138868
1960.30-194048-155930-237616-236114-186206-192312
1963.19-272406-206494-273566-201486-176434-188478
1966.08-234048-134600-280260-185034-274446-190252
1968.98-190296-161808-298076-251348-289886-193962
1971.87-189218-156020-240330-141620-273190-183978
1974.76-244890-203754-228366-153086-288430-155098
1977.66-318600-136612-269542-188974-258612-270188
1980.55-268440-141646-153182-179674-274208-235016
1983.44-249610-192222-238830-168088-233356-219802
1986.33-183618-155454-282552-156672-355892-154732
1989.23-250056-179082-228662-113156-155776-212814
1992.12-281194-152882-265402-208180-249340-212206
1995.01-207958-191688-220042-181842-306472-156650
1997.90-207736-203804-261018-149824-298796-83320
2000.80-267310-123152-204106-227284-281282-182690
2003.69-259464-207494-284672-178144-246610-121904
2006.58-221436-133664-244098-206776-286962-122184
2009.48-260040-240668-242926-184544-224518-97900
2012.37-195878-163846-252104-153662-194090-163276
2015.26-179180-202622-224958-203896-251836-197278
2018.15-170860-181582-295948-233036-252088-248356
2021.05-274314-152860-232836-113538-227012-238508
2023.94-198498-180554-250184-119428-264554-151338
2026.83-231192-172714-199368-214542-258698-218268
2029.72-162202-202574-166894-209900-187210-132320
2032.62-230582-120488-172164-130162-186698-75044
2035.51-100076-125992-138908-135182-110636-62686
2038.40-221146-4526-169526-13620-114928-7658
2041.29-49578-1742-81756-878-51788-11278
2044.19-42944 40466 28808 63624 20256 108294
2047.08-22324 217160 19318 57144 70944 134958
2049.97 21454 95926 72656 158164 36514 137734
2052.87-20990 181794-47214 72726 27950 70992
2055.76 17294 203494-4550 116602-82224 72488
2058.65-74682 96406-9600-21696-177554-70032
2061.54-223136-69962-185516-77562-117124 180574
2064.44-28410-18666 55886 110982 31724 217158
2067.33 29616 110164 252460 246398 149014 299588
2070.22 174482 196932 190134 260170 80178 395680
2073.11 246460 124748 102954 117484 32 118614
2076.01 76 13308 205094 132472-118458 27540
2078.90-172152-24108-96424-86368-166982 98622
2081.79 5122-196152-167698-267864-130744-125550
2084.69-156764-294082 37504 71732-314444-85674
2087.58-268196-183368-258122-128082-345136 236064
2090.47 1940-186252-137536-161992-240754-203924
2093.36-243918-230960 325278-108128-238388-159452
2096.26-164228-177752-199216-225758-111146 502306
2099.15-240004-146462-335316-168998-214516-55378
2102.04-406030 275526 276780-281738-214072-200274
2104.93-245048-232532-251608-231474 520420-30202
2107.83-244338-119266-174348-237916-240140-256278
2110.72 85408 486300-421200-89522-319748-52452
2113.61-303942-123036-312718 679622-78868-234878
2116.51-344510-146648-280034-41236-351702 235486
2119.40 339354-322404-217934-193712-220924-209146
2122.29-198186-145240 591286-179904-189374-224382
2125.18-168442-222208-178128-230108 416228-33286
2128.08-206452-143048-214506-267762-182146-254790
2130.97 181794 69240-320178-188618-289910-239262
2133.86-147298-220860 16280 20438-305054-129332
2136.75-223696-197544-264626-97656-129242-38914
2139.65-284396-169296-298514-181730-258282-211898
2142.54-322218-107772-264170-180370-187894-199730
2145.43-207042-239218-84450-98394-322024-112898
2148.33-287042-163610-282112-190078-17148 5062
2151.22-284796-71450-265328-163466-302476-142296
2154.11 312024-141092-286908-149956-290558-104876
2157.00-359724 185060 397702-225096-270170-178524
2159.90-230760-162782-360184 518014 31082-270260
2162.79-125728-291886-86572-301776 33402 719480
2165.68-255906-223002-208990-222720-144860-248348
2168.57 556254 235944-397738-104976-373762-79430
2171.47-411698 219820 487474-273188-150366-274812
2174.36-192902-179596-168508 719552-141846-212056
2177.25-287586-153908-244608-269126 622542 115256
2180.15-405744-133694-311054-78716-392500 451498
2183.04 205064-356040-163128-294038-154282-295012
2185.93 192194 219458-335876-120860-370576 17828
2188.82-361190 271888 121206-368702-163142-240310
2191.72-186362-289626 187108 170868-361094-116162
2194.61-360524-173658-394952 216826-111368-303726
2197.50-275278-173260-237316-124054 122918-98770
2200.39-278816-222186-209708-189364-205834-7956
2203.29-268182-235676-346236-94114-321318 9844
2206.18-117894-134058-197322-159098-206098-209980
2209.07-66722-267978-263448-169236-247982-210116
2211.97-88362-184750-223812-164762-282872-258102
2214.86-282638-39570-243522-207772-272002-158966
2217.75-292470-113470-262528-210364-209986-166454
2220.64-265146-79302-286554-234010-248520-300616
2223.54-289250-115318-287420-127002-302712-121296
2226.43-309970-123622-220252-219150-226954-150352
2229.32-317920-173020-198320-205090-140092-77068
2232.21-203898-87740-147446-135056-159602-95568
2235.11-170048-122916-240176-51062-262762-158114
2238.00-194988-24906-85728-80820-125988-102688
2240.89-132846-71502-224802-190066-196678-96206
2243.79-223300-105448-157752 21214-87836 45138
2246.68-127290-8586-87070-65870-156094-16822
2249.57-174178 10878-173038 20306-8286 218458
2252.46 71944 205756 8646-18670-25134-7994
2255.36-38606 16182-132384-46166-128946-2752
2258.25 78314 291792 169854 298520 8406 191470
2261.14 180302 54394 2168 203012 19238-12576
2264.03-175528 150954 252150 385328 326836 399388
2266.93 217196 293954 363460 315018 320382 601004
2269.82 216158 249882 19606 118576 141018 557310
2272.71 464754 668638 244736 312250 564768 648656
2275.61 262506 724912 428448 321398 154128 212840
2278.50 254098 724880 909718 819570 59000 334850
2281.39 295232 392812 178202 911654 897472 669654
2284.28 153466 232106 368218 14760 316846 926388
2287.18 527448 426908 98594 294566 185726 368444
2290.07 277370 596258 179910 167886 38232 147696
2292.96 227140 141650 76676 369142 41204 337124
2295.85 173258 315438 1774 360870 371736 266224
2298.75 130926 959724 578696 1381648 799652 918926
2301.64 613550 1097278 610296 1025866 824982 1543872
2304.53 831116 847304 637836 1338390 1767936 1511548
2307.43 1018498 1077828 1381302 1568050 799460 1324348
2310.32 1452958 1797856 409272 1149340 723360 2852928
2313.21 647098 1543018 363444 2810054 484072 1077508
2316.10 94504 3125380 1188452 875490 159520 3106654
2319.00 1655676 621192-35808 3161762 2131716 453592
2321.89 131798 3243042 2634992 205856 327060 3675910
2324.78 2928712-172438 366092 4230752 3140798-411508
2327.67 1130590 4998414 2875716-926892 2112212 5495066
2330.57 2018752-1065706 3554156 5500006 561470-461326
2333.46 5279086 4755552-753670 1140420 6312498 2657324
2336.35-1098830 3544240 5905820 58862 149750 5462400
2339.24 3371298-1210998 2939380 5196258 575158 241608
2342.14 4717584 2285156-520188 2583086 3320120-267012
2345.03 915998 2572054 635132-45800 1580644 794032
2347.92 152918 289370 156242 792108 529250-2284
2350.82 1847926 1261986-400652 2642522 2566828-758538
2353.71 3443662 3828832-653532 3902522 4593726-1042954
2356.60 4685034 4774232-1249484 5745254 4533152-1149714
2359.49 6992828 3075770-298790 8006274 1254080 1454842
2362.39 7827222-870472 4299494 5538204-1272944 6664924
2365.28 1727978 856722 6417786-1164056 4730774 2617928
2368.17 60980 5409166-907052 3785832 1403084 613768
2371.06 3443620-996222 3246046-472416 1892222 596890
2373.96 532972 1365174-147874 1409312-356348 1129504
2376.85-375450 765810-230256 409308-236964 28960
2379.74-152462-36200-209468 32254-253874-95228
2382.64-231734-225882-300814-138508-228886-327146
2385.53-314426-353584-266866-195844-276306-267912
2388.42-365624-253900-391192-165164-374716-266760
2391.31-341410-348314-306870-269654-345438-243322
2394.21-352806-189750-355466-219598-334494-244484
2397.10-308354-146828-364718-357470-296222-292302
2399.99-176570-189632-344760-222620-318390-330316
2402.88-347674-235514-323908-360442-274264-345776
2405.78-231888-321556-262718-217666-385048-231068
2408.67-310198-205080-300056-244634-233916-296876
2411.56-296918-252738-302626-278854-264562-296734
2414.46-217130-280400-263878-298994-345604-109754
2417.35-263104-224818-250946-237302-180912-187388
2420.24-305998-335886-246034-239422-271932-128118
2423.13-233244-182958-258084-93988-230408-205416
2426.03-128510-206186-148470-196168-198150-179110
2428.92-200134-16120-199354-118816-236996-71272
2431.81-127704-93548-157814-106100-102656-3840
2434.70-116682-48774-77724-146128-130646-59338
2437.60-13262-83398-25278-35068-56390 55238
2440.49-21186 91386 10392 85376 27004 185844
2443.38 54718 149748 137112 235948 187588 246502
2446.28 320054 377450 209350 478946 448980 499638
2449.17 457194 645858 510610 609482 545734 870386
2452.06 658996 796254 925520 1075138 816562 971268
2454.95 1078494 1252608 1151610 1312058 1296908 1573450
2457.85 1659286 1488492 1690746 2226830 2014878 1887058
2460.74 2255800 2780004 2395906 2392878 3005862 3279860
2463.63 2790258 3141280 3693044 3887080 3568520 3668632
2466.52 4600136 4573742 4054186 4720210 5600356 5034632
2469.42 4830838 6164208 6549516 5849170 6239670 7892252
2472.31 7686550 6914590 8321416 9535562 8425486 8580890
2475.20 9926832 9667542 8267850 9733602 11388400 9682388
2478.10 9249474 12369010 11735230 9772240 12567820 13905320
2480.99 10936450 12477740 15218670 12526870 12070970 15933200
2483.88 14008690 12164310 15277450 15290550 11736290 14749320
2486.77 15762000 11632760 14196160 15456300 11900170 13194090
2489.67 15018450 11833270 12765470 14316770 11045370 10484110
2492.56 12175170 9763126 10649590 12420580 10585990 12719480
2495.45 13877870 13892510 16310550 18006130 18764320 21307360
2498.34 20859370 19478650 8543834 2208636 2662664 2033412
2501.24 3527256 3243948 4277708 5899090 5725128 8056110
2504.13 9211250 9342164 13881670 11417110 15992360 15778260
2507.02 15298190 20277630 15057120 22362990 16719990 21582630
2509.92 19726910 19375880 22190910 17388530 23135520 16482720
2512.81 22409750 16036200 20653690 15676670 18624130 15026400
2515.70 16428220 13988050 14407650 12583740 12286980 11012760
2518.59 10401430 9350522 8705878 7659890 7033670 5949228
2521.49 5518740 4708068 4256274 3550656 3018406 2456814
2524.38 2175472 1719292 1397152 929398 872672 583988
2527.27 388538 257240 149206 146910 8998 19170
2530.16-20730-147416-124304-133506-125234-139968
2533.06-191088-213068-188310-254236-81428-185922
2535.95-144688-197974-180246-214496-19352-160382
2538.84-158472-165702-174754-216766-112428-168856
2541.74-111718-206694-161494-235934-252912-204418
2544.63-184550-140188-114744-107740-163974-76488
2547.52-145794-201244-222342-154850-331020-210062
2550.41-211716-237150-149444-262658-217834-235916
2553.31-81098-53514-193772-166054-207572-237952
2556.20-182674-219902-112858-217820-117880-259998
2559.09-196792-253828-191722-233928-215886-175510
2561.98-167988-166380-220536-87582-178572-179644
2564.88-201124-227228-121252-261306-150144-257990
2567.77-214048-195862-255006-163272-99446-168128
2570.66-275254-194906-238432-231670-111272-75412
2573.56-256996-206414-301760-160422-226486-225378
2576.45-174918-176956-203124-208168-288230-158200
2579.34-147120-105242-205492-159774-199802-93260
2582.23-234356-243734-110562-227684-256028-189598
2585.13-223142-149074-196516-166168-231742-170100
2588.02-199394-227948-62362-245856-246114-225632
2590.91-195976-166462-167316-125298-177868-230166
2593.80-214234-237070-217802-219388-152860-180776
2596.70-138020-331818-270212-206536-88708-112494
2599.59-331292-48552-158336-208252-146806-161070
2602.48-139248-286396-226392-269296-197056-193596
2605.37-180364-229530-202588-163794-148720-152992
2608.27-208844-192816-253420-284994-153620-240380
2611.16-210454-337530-321154-268908-264130-281894
2614.05-224728-112410-186478-193548-271312-272202
2616.95-288932-289330-337970-269288-206780-318426
2619.84-175032-307078-384676-184890-267396-291560
2622.73-235128-319550-245078-310932-246088-310988
2625.62-305502-237536-399970-293290-323518-258756
2628.52-312774-342376-312094-413268-326074-282298
2631.41-358746-350582-296476-550066-326574-357280
2634.30-445814-399918-440664-425440-443980-459776
2637.19-554622-472158-449480-558026-407060-388076
2640.09-598406-448090-501456-626596-560184-539386
2642.98-549790-553366-536686-651716-697704-474534
2645.87-722646-614482-783830-767452-777862-697678
2648.77-752798-522042-742414-904874-793386-857008
2651.66-865472-788892-819282-970262-908224-956468
2654.55-869064-740104-883404-992642-989112-961374
2657.44-1075372-858598-930766-1079902-1064978-1140728
2660.34-1051048-1044388-1112872-945498-986868-1117772
2663.23-996988-1145456-1059738-1027068-1150786-1137758
2666.12-934502-1330952-1139380-1105556-1284486-1243004
2669.01-1162324-1407114-1258290-1169468-1368738-1110364
2671.91-1234874-1364080-1285932-1282128-1276766-1130430
2674.80-1430986-1203972-1322268-1300286-1074586-1310618
2677.69-1488608-1271984-1550046-1371168-1196812-1293466
2680.59-1436336-1305146-1475226-1292974-1287626-1279176
2683.48-1299932-1346854-1357324-1284942-1418392-1304302
2686.37-1509540-1581802-1440452-1283764-1214666-1247082
2689.26-1399908-1510400-1487024-1425852-1465574-1323672
2692.16-1257546-1307744-1485808-1382436-1298204-1557120
2695.05-1330164-1410008-1403498-1215690-1205286-1293004
2697.94-1378178-1371310-1471106-1302948-1323396-1246940
2700.83-1344024-1321352-1487076-1332672-1297356-1381130
2703.73-1443424-1340314-1331812-1134428-1318862-1283150
2706.62-1300228-1353044-1277410-1230164-1310584-1258120
2709.51-1328078-1273036-1143582-1235410-1368448-1333366
2712.41-1347264-1398574-1231166-1300022-1177246-1275080
2715.30-1380644-1245344-1405318-1237564-1466968-1488608
2718.19-1400360-1391698-1413084-1517666-1475066-1427770
2721.08-1351086-1398140-1476330-1248400-1011306-572016
2723.98-453500-614628-668086-627792-718396-771272
2726.87-878888-985676-774554-1013492-878268-1185174
2729.76-1341036-1142062-1147304-1076414-1074446-1154618
2732.65-1098604-1210512-1122830-1125460-1396634-1159108
2735.55-1274180-1110856-1255272-1374696-1288210-1367264
2738.44-1434386-1397496-1231168-1561714-1423138-1362358
2741.33-1421538-1468506-1405044-1542792-1413382-1379196
2744.23-1517674-1442238-1433558-1362672-1392698-1563740
2747.12-1489750-1413734-1419532-1404174-1456834-1504082
2750.01-1472514-1530632-1450222-1436588-1532596-1490368
2752.90-1421268-1249554-1514808-1499356-1461744-1413858
2755.80-1434892-1468824-1478522-1464438-1389276-1444108
2758.69-1427366-1423134-1357574-1501304-1386850-1654844
2761.58-1428782-1309238-1322708-1522004-1418508-1336812
2764.47-1160880-1518404-1311106-1474674-1275878-1298502
2767.37-1195302-1388480-1310068-1271548-1204696-1242746
2770.26-1314820-1176840-1166876-1082288-1161004-1251886
2773.15-1167594-1030580-1188576-1067416-1115908-955794
2776.05-1092520-953248-1083026-1004038-933216-948488
2778.94-971694-803172-709160-864672-766820-561488
2781.83-651002-739208-687574-516848-675816-485910
2784.72-581600-595000-701920-403310-471086-490980
2787.62-318192-413870-458748-480768-353184-360590
2790.51-348362-371772-351394-404658-293648-326350
2793.40-268252-259482-412134-207578-261504-286412
2796.29-357682-189944-276020-187820-232276-226438
2799.19-308092-212158-292744-117234-245100-221386
2802.08-221836-99168-138982-185064-216564-26624
2804.97-284374-159996-271148-78728-218466-376222
2807.87-78508-226114-227856-165866-210308-117434
2810.76-252014-286176-85138-65516-173740-198814
2813.65-327104-220350-221184-149532-131664-119870
2816.54-275186-137836-156098-158988-91088-100654
2819.44-255356-160488-272298-95100-76122-265734
2822.33-152720-176966-160130-265770-142964-94932
2825.22-93600-154084-203904-106604-242458-204122
2828.11-319110-218632-168416-145538-252738-245272
2831.01-172826-266986-155128-257730-38214-162544
2833.90-111950-173302-51184-291280-280598-112414
2836.79-184032-161754-290588-150220-86604-53454
2839.69-301476-130976-385966-39608-229004-188092
2842.58-220286-190020-101228-199348-182316-182992
2845.47-192092-115340-328518-232330-91286-169176
2848.36-61276-268098-153894-205630-212256-230704
2851.26-205582-67950-174170-37250-276150-191862
2854.15-161488-194982-298346-179154-247078-236506
2857.04-181346-98964-293626-195970-158386-236402
2859.93-255976-19582-130598-259442-219622-300928
2862.83-207864-168780-226920-212908-75394-175516
2865.72-52428-205718-189932-124076-280334-103544
2868.61-183530-213314-202292-102074-82452-52902
2871.51-285404-228686-248186-221018-61564-207546
2874.40-203632-337324-190444-146562-236432-83630
2877.29-233392-205872-203888-226576-268162-142974
2880.18-195742-53912-160988-258546-200928-104402
2883.08-253576-191082-45786-200728-232988-226708
2885.97-178050-104352-268254-200126-202342-93574
2888.86-67554-112134-90300-208372-314172-98162
2891.75-70892-213634-259144-35918-118800-77088
2894.65-286464-118686-242552-363804-229032-172118
2897.54-298998-271152-155276-234726-250634-51008
2900.43-194342-179046-164982-158576-141012-113408
2903.32-92824-224846-226586-154366-289566 20006
2906.22-147806-148704-268466-72500-137178-287550
2909.11-234584-352076-64620-161062-137584-90196
2912.00-211068-126640-352398-147438-44746-108992
2914.90-100318-167962-282824-91990-84978-192470
2917.79-250990-205126-157292-135048-321174-272276
2920.68-47620-136392-338654-142428-34796-108682
2923.57-179804-371134-148474-137578-278082-232940
2926.47-87654-217698-148262-195146-248888-230942
2929.36-121414-214102-335040-216096-190862-230754
2932.25-64070-115532-305724-71552-102604-303334
2935.14-207456-115484-249626-194304-167354-277438
2938.04-317390-128040-98940-201938-125014-269146
2940.93-81396 31532-298138-193064-221232-84890
2943.82-99410-247118-172948-168858-208196-254414
2946.72-194944-246146-290556-239210-107788-285302
2949.61-265330-47928-219912-365174-157748-216320
2952.50-132060-241380-82630-135126-253968-254366
2955.39-221662-308188-258124-384268-216570-94232
2958.29-241708-152922-129210-214782-131038 7600
2961.18-205056-235938-106804-170674-31302-237838
2964.07-290368-65938-214486-120988-41018-287316
2966.96-130622-138250-167822-233700-138690-291062
2969.86-145462-99994-138596-62656-252822-213168
2972.75-88208-218914-131378 4216-191120-115236
2975.64-188530-252090-282496-208482-47228-110032
2978.54-111060-157988-94776-273806-159576-83276
2981.43-115476-116854-70546-226448-222326-121964
2984.32-11476-153288-175982-116260-185128-51014
2987.21-188504-125002-205566-297876-284310-171554
2990.11-27640-127796-185376-230366-155702-231042
2993.00-290320-132350-181020-307738-174772-292728
2995.89-294642-263764-114532-65046-99174-32608
2998.78 23174-253688-195490-248264-329330-54798
3001.68-226294-164266-182926-211294-254620-334438
3004.57-200746-77316-145494-191142-345744-111124
3007.46-305788-207910-214962-156142-320722-201472
3010.36-83840-70942-126156-281030-283030-222700
3013.25-63192-198246-53996-121514-286322-211542
3016.14-165136-309972-235972-310938-161924-208622
3019.03-82428-242758-200834-199986-128584-106100
3021.93-167964-244002-206458-221288-153810-191254
3024.82-345288-249338-189934-121086-102728-42514
3027.71-204352-171796-291264-222934-158970-76506
3030.60-105872-91620-65748-169820-116302-238224
3033.50-107286-133728-123630-313542-100280-145858
3036.39-262134-50016-173018-218576-94028-185042
3039.28-277778-115576-171328-131458-207274-178520
3042.18-145734-214690-183018-82640-69976-197950
3045.07-133166-156142-160882-143056-272912-197594
3047.96-162626-273604-344364-212414-171662-106432
3050.85-198312-169650-183602-199796-253250-198138
3053.75-140204-207340-139476-120998-90642-217408
3056.64-269362-238760-32404-79744-65142-193880
3059.53-62950-185208-301194-143020-264578-168294
3062.42-106258-138810-218318-253008-225348-332554
3065.32-129322-209614-198482-73524-148270-243656
3068.21-79736-96496-17438-49322-127004-285346
3071.10-111644-158452-201302-169224-143690-254788
3074.00-804-131908-202494-245256 31722-210776
3076.89-103208-38422-103570-53972-334008-62594
3079.78-142738-110960-205602-59098-234878-58056
3082.67-265952-181950-210880-130994-136682-155124
3085.57-106942-114176-236690-163952-41224-168598
3088.46-214280-192000-90462-208756-321766-208058
3091.35-209626-205974-119428-140914-166688-195986
3094.24-162998-169092 26588-128452-153896-20678
3097.14-200186-307394-120628-65840-87272-222548
3100.03-193880-140970-125518 3142-263552-137510
3102.92-288034-159044-153506-307998-193928-246684
3105.82-210514 19544-285206-141122-228922-102180
3108.71-236712-202580-190682-48146-386042-131942
3111.60-208522-289656-240158-191758 38180-218832
3114.49-217176-167802-299080-226814-170920-114724
3117.39-276288-140548-49000-220874-125666-99208
3120.28-238388 37632-266604-206502-97138-271924
3123.17-115516-100120-32470-193256-116396-192964
3126.06-175456-237996-184866-176130 16462-136836
3128.96-134364-103018-217348-422766-186380-184452
3131.85-232998-40762-156720-154432-98076-199006
3134.74-237194-122108-150234-337714-159892-208278
3137.64-201306-212376-39958-29160-270036-23278
3140.53-252148-68434-174774-30676-48584-324524
3143.42-181342-47632-192370-291882-230340-165160
3146.31-133518-345650-21840-112182-2722-111810
3149.21-67814-304442-110124-218954-173882-65798
3152.10-39956-121460-43298-118108-335750-101118
3154.99-245788-197636-222254-265646-155444-146346
3157.88-219356-182342-183114-312812-166412-214580
3160.78-366518-170482-175948-51914-203318-66336
3163.67-264452-199752-71882-135082-233138-406784
3166.56 4614-219120-144792-193528-126066-82758
3169.46-126444-201036-254258-181058-228134-279174
3172.35-166202-165798-151280-217576-181154-170574
3175.24-240730-158810-184856-209624 29260-123822
3178.13-200758-204176-168242-35490-143830-71372
3181.03-253904-227720-267228-113976-38678-200032
3183.92-145166-134734-175368-219282-215004-147372
3186.81-173074-304968-133018-77040-75646-190412
3189.70-83092-192314-143418-127128-23500-265506
3192.60-106004-205816-103834-163016-66816-274182
3195.49-249748 135780-291184-123226-245002-159754
3198.38-80998-114046 27284-188374-318920-15224
3201.27-218696-90778-137450-137188-226240-87652
3204.17-272332-32636-206128-197760-256094-106270
3207.06-203074-200690-241938-302112 55024-227864
3209.95-76432-116366-23926-173576-169744-300108
3212.85-151442-148552-106978-260290-196738-307196
3215.74-12842-143488-134626-219328-104904-9404
3218.63-287972-144024-86568-41482-143262-87906
3221.52-80146-313182-212250-182312-230020-17706
3224.42-676-212942-274016-97932-73388-197194
3227.31-135162-292362 30454-209264-180614-59768
3230.20-63564-122678-196122-170046-185122-271856
3233.09-182894-125896-156898-199368-313008-43610
3235.99-218660-111276 20694-187990-70070-212874
3238.88-306352-111724-182990-1926 4258-198688
3241.77-212264-106186-137658-125186 25592-217910
3244.67-198286-341672-434798-19506-202996-988
3247.56 82618-115224-239238-228646-66346-205266
3250.45-94796-169506-129722-146802-97094-164340
3253.34-134434-217848-183204-95958-74108-101780
3256.24-218310-114270-118588-433090 21108-216162
3259.13-197024-180184-162600-150398-175106-110684
3262.02-215108-61676-134078-178744-170294-279070
3264.91-353396-65232-267874-55722-133554-313868
3267.81 76352-232704-182588-264488-159222-64032
3270.70-290644-159178-125740-199042-260980-150120
3273.59-304500-163704-219704-94430-87674-254882
3276.49-326290-308634-100922-202660-177304-116456
3279.38-178728-156292-226098-85170-51260-192066
3282.27-66556-216432-154214-239730-293762-72354
3285.16-73424 8138-27584-150984-304100-298222
3288.06 8666-71878-273500-220416-282518-349038
3290.95-141132-265944-239408 23074-136924-226574
3293.84-186314-162550-129590-231738-137066-96410
3296.73-221720-27142-38968-129676-199240-168860
3299.63-254790-151984-103604-55702-93048-100626
3302.52-160828-265152-22674-231728 15974-179358
3305.41-53184-259668-82506-315510-13198-40222
3308.31-223714-56220-272850-81266-50012-183376
3311.20-16022-104402-69520-141310-93570-81432
3314.09-309770-49182-266208-178350-212794 18716
3316.98-144890-90326-141752-272900-174534-267288
3319.88-158154-100008-242834-164482 11548-304162
3322.77-80834-1208-56608-87754-169396-228880
3325.66 19588-88556-267866-357154-155290 4146
3328.55-313062-67600 450-407334-159134-151668
3331.45-33322-117870-133684-158166-455574-267528
3334.34-150478-217640-417986-55552 34114-71200
3337.23-85698-125782-317532-179742-89092-136034
3340.13-190594-154538-172234-86420-314396-283874
3343.02-78462-121290-246950-47164-30302-113126
3345.91-119482-41930-120396-264268 5276 56930
3348.80-309024-13740-194802 78272-337678-110090
3351.70-302934-81824-27102-280708-242820-44814
3354.59 19582-73436-104138-206208-174548-247656
3357.48-175252-269274-82716-157162-285110-276392
3360.37-192754-62606-156544-176924-204498-115310
3363.27-162042-163940-89360-130258-196564 3932
3366.16-115532-115330-263506-197846-104676-149220
3369.05-333534 34930 116904-262168 7198-130896
3371.95-51948-245004-144018-308470-216186-200418
3374.84-168156-271674-141258 47780-158066-114686
3377.73-201044-194582 11838-233452-508850-72278
3380.62-286448-306284 20834-42396-89850-139638
3383.52 6120 11102-115614-373366-264888-181904
3386.41-80274-43400-352122-185978-136568-269484
3389.30-229048-10258-50394-159542-121610-147542
3392.19 116358-177536-1816-94-126010-184682
3395.09-419530-371080-78720-34836-314910-264178
3397.98-99862-302414-241302-36566-31100-219534
3400.87-58048-108044-255394 143592-91088-234814
3403.77-156842-233826-77128-142246-270720-106424
3406.66-47940 21896-187384-263992 22782-15756
3409.55-197228-292292-249328-39494-142158-206970
3412.44-276746 7672 67298-135738-245816-225164
3415.34-107430-122564-389222-269580-246214-108502
3418.23-264700-59582-254698-14644-2060-107908
3421.12-198566-83528-220398-243792-181470-206516
3424.01 72186-180606-112216-146798-134262-250548
3426.91-218794-174218-156668-134440-236106-117484
3429.80-133170-249484-126606-49704-47516-60790
3432.69-196034-45202-210980-43366-51152-216420
3435.59-45504-159326-76866-158226 79738-376986
3438.48-122686-186782-131202-56396-153152-23366
3441.37-42220-374666-51818-115180-114200-140492
3444.26 30582-261514-203296-118054-331640-308738
3447.16-44448-76558-201266-80830-198572-287718
3450.05 47850 5570-209726-258742 50578-223766
3452.94-203704-171938-290606-264752 126120-125928
3455.83-4770-72630-137662-99070-47422-114926
3458.73-101654-6564-91130-317320 74530 129192
3461.62-115988-191868-310368-185608-107254-115318
3464.51-133940-200748 61182-253124-121394-362352
3467.40-147466-377934-291110-62202-169884-277754
3470.30-207186-109562-220378-196248-78520-214364
3473.19-159738 4820-325752-104364-203236-316448
3476.08-174146-215798-3522-25680-117946-199120
3478.98-124194-315422-131548-161382-139212-137234
3481.87-131606-123852-118194-132418-77356-47200
3484.76-92200-129156-54172-493198-199246-13094
3487.65-264530-90832-242658-197496-179912-363390
3490.55-43280-150098-288850-78972-228808-193210
3493.44-247918-285204-118960-109936-292304-205448
3496.33-25728-268106 11594-164404-252796 6002
3499.22-176612-62414 157704-105896-162676-402674
3502.12-235314-244914-85842-151634-70822-270278
3505.01-262414-125140-149486-192312-138354-160808
3507.90-249826 37872-203744-334842-232778-82764
3510.80-214594-326072-114712-171638-206772-275230
3513.69-83488-347752-287318-113082-206694-69588
3516.58 45574-105900-31506-40134-368912-123612
3519.47-132824-20344-221950-312510-31878-357200
3522.37-24310-261310-251470-93596-106292-52576
3525.26 2406-232478-93940-47928-267932-74778
3528.15-238860-187132-239882-146072-178442-243594
3531.04-331026-128158-208006-120042-71262-23134
3533.94-358724-130530-213124-77152-95850-131438
3536.83-62862-158046-212996-240708-305156-212748
3539.72 93780-178042-199410-141352-196646-91844
3542.62-43204-98100-138424-255182-29194-298928
3545.51-267512-331512-19790-105414-143352 25084
3548.40-154500-75746-320560-120452-111820-216686
3551.29-123060-91680-134302 68536-134542-78020
3554.19-76824-157270-169378-104342-229868-237168
3557.08-342764-252708-99518-83722-273274-170740
3559.97-141220-37496-158786-175288-22284-136784
3562.86-212516-216354-122622-153424-94536 29140
3565.76-217012-259624-9962-114334-111270-29164
3568.65-300524-90236-276780-228850-62492-137494
3571.54 28368-372258-281926-61774-46774-146614
3574.44-224428-308598-201598-105916-120226-42140
3577.33 66248-122906-190072-302528-244242-276310
3580.22-95684-188652-144506-124012-117270-62816
3583.11-39790-98518-51216-96392-70580-194744
3586.01-215730-112036 24668-166756-244682-232930
3588.90-171470-236418-26824-261762-181424-198222
3591.79-203866-133558-177186-52774 41286-113614
3594.68-101026 50458-103670 61668-261368-246506
3597.58-41620-26166-107320-110232-83274-136870
3600.47-109074-156068-156076-106966-149944-7316
3603.36-107564-126900 89826-71430 58012 93488
3606.26 99206-167910-152542-59232-51674-105206
3609.15-115216-11800-173920-64546 51326-8620
3612.04-138788-17858 16610-122702-15736 82568
3614.93 7786-60266 77638-89900-33096 42108
3617.83-140770-2086-98972-6368-199684-122134
3620.72 1572-12108 68486 31672-66184 108036
3623.61 216982-78322-200520 48410-13848 113092
3626.50-76258 92262 236616 206906 48066 77850
3629.40-80042-148434-245282-202326 61806 199316
3632.29-13144-142462-113300-75082-173370 15282
3635.18 67168 67912 220454-108280 120174 20106
3638.08 227746 18746 91622-8030 65326 229354
3640.97 48050 30878 174234 76516 64994 12902
3643.86 64442 39866 67544-18250 53468 16898
3646.75-113550 146040-12488-55910-44628-71328
3649.65-65716-79214 32524-221220-193612-228386
3652.54-264180-152678-183702-188980-217038-141432
3655.43 27888-133422-124496-172248-111778 43474
3658.32-174816-240326-114402-94270-271102-99790
3661.22-240736-55936 83850-143436-47858-172684
3664.11-138294-135432-3046-149930-135670 22400
3667.00-138744-203290-224064-276640-146762 133002
3669.90-85994-247744-108438-218774-103328-90322
3672.79-218006-81128-96274-137236-119892-279562
3675.68-111630-132988-76416-152510-58398-72396
3678.57-154762-149160-230334-65184-308920 20852
3681.47-38234-200334-137094-152372 10036-164070
3684.36-81880-226962-89562 52292-11266 38336
3687.25-110166-260786-105584-61128-178352-173656
3690.14 69700-64590-259374-95952-43850-186304
3693.04-194698 98408-98634-227766 4866-72634
3695.93-10994-330534-132826-58968-108362-155000
3698.82-20760-21664-203614-204524-52418-230004
3701.72-7380-262610-40568-132394-255398-141352
3704.61-74910-89948-270998 201216-70892-67056
3707.50-99590-442-109504-89826-102058-119552
3710.39-250956-21326 52024-132066-149886-64266
3713.29-102200-264454-232672-180974-176086-79066
3716.18-207584-127126-51982-71332-124172-23526
3719.07-89422-142176-175656-113432 32412-160924
3721.96-37906-58182-49688-124614-52140-97730
3724.86-131648 47602-51848-121086 52332-191674
3727.75 12848-79152-209646-149932-242988-121854
3730.64 84006-221938 27784-187770 21558-12800
3733.54-230754 112392-41998-348930-2594-258974
3736.43-115492-103970-139366 34450-111364-273518
3739.32-170748-128932-121218-169776-36898-56502
3742.21-183086 8376-26972-99558-157962-123300
3745.11-134700-197624-219708-310460-67720-53676
3748.00-89474-149694-144062-298474-122338-215068
3750.89-73792-106696-100686-157526-128262-103232
3753.78-172900-97022-86178-184570-147156-197308
3756.68-90774-320268-345294-40326-123674-139178
3759.57-197414-216746-214924-128758 39452-223520
3762.46-44248-186438-116776-93166 60262-227832
3765.35-302100-187264-244714-62898-127152-103092
3768.25-104496-97282-56098-286984-129490-100314
3771.14-146660-167400-72434-204798-103960-119750
3774.03-9080-169646-218062-156150-202828-193682
3776.93-173774-58818-130694 2638-44812-197886
3779.82-229794-77792-131454-90254-122836-76014
3782.71-32674-185596-139708-161298-253072-165756
3785.60-173930-41828-18840-219290-94422-279656
3788.50-242802-294314-172812 2700-91258-191554
3791.39-194644-166198-238468-114284-42574-42588
3794.28-23260-129768-168992-151422-207596-301058
3797.17-132290 26014-123926-231980-246584-273406
3800.07-39590-103110-266344-59878-222900-201884
3802.96-50806-14348 6332-122682-82980-233428
3805.85-111204-99742-165478-263068-28978-41294
3808.75-79826-109570-136872-46548-156284-97484
3811.64-290008-89506-159672-165440-174568-92306
3814.53-126892-94424-18214-169122-32856-229978
3817.42-149532-292584-32112-222278-105702-69754
3820.32-128652-108244-115210-150770-56516-92386
3823.21-120302-97462-116222-122974-122420-297664
3826.10-151308 69032-153122-188960 57916-112094
3828.99-229908-186358 18906-86124-102074-140970
3831.89-103612-27580-169646-84758 23128-112110
3834.78-130330-6452-95494-238698-215852-201572
3837.67-22650 57692-57092-278992-251176-95678
3840.57-3938-220076-91886-234156-98166-75174
3843.46 65424-97752-28734-11174-110760-126602
3846.35 79676-88428-125258-196514-46334-151816
3849.24-42174 25278-203916-87820-32056-166084
3852.14-165464-7632-127308-169520-45440-122288
3855.03-287868-158356-45306-94532 23174-230080
3857.92-163856-149248-30338-218162 37388-83302
3860.81 92150-241012 143204-317630-241736-139200
3863.71-22406-335426-196546-212426-11740-238758
3866.60-104048-2556-249136-46950-133854-130378
3869.49-212312 22898-4770-71224-34344-33228
3872.39-278810-135436-107306-165038-57910-191446
3875.28-115900-203684-145336-146410-122454-87336
3878.17 84906-194686-147678-180418-229392-134132
3881.06-133730-95842 18928-160524-85782-244730
3883.96-229028-91342-83588-125474-312950-23236
3886.85-149372-38138-40128-282564-123616-10592
3889.74-48674-138896-58762-282608-97916-142476
3892.63 22194-170682-309658-210938-168246-240270
3895.53-83978-146116-21860-217934-29350-363246
3898.42-59174-24898 56022-203912 17448-122398
3901.31-4478-175098-289792-75440-173928-235412
3904.21-54062-185736-277100-231144-299418-350914
3907.10-263958-257284-266612-138072 6812-106854
3909.99-114144-4096 186-83064-113388-139832
3912.88-190524-144828 10188-206436-125110-138776
3915.78-184342-38792-124614-222924-130900-394504
3918.67-288340-120860-179414-191710 1242-211124
3921.56-71176-205232-193218-131742-160660-349958
3924.45-7032-205792-158328-210086-267018-98570
3927.35-151850-280236 9054-83252-259036-220602
3930.24-98840-167282-34740-167004-188554-286360
3933.13-92680-68582-123616-195632-117440-116284
3936.03-370824-79392-253904-129488-80254-194996
3938.92 16964-232834-183506-66802-224132-149694
3941.81-57972-68564-131386-241522-102818-142818
3944.70-37146-244772-190876-211568-136806-128144
3947.60-84574-177220 140662-149680-265284-331602
3950.49-172996-126624-226110-310144-39724-345956
3953.38-148546-184702-243974-66886-174162-131098
3956.27-258614-305284-164956-49046 22552-118968
3959.17-99344-876 1956-311094-138160-276472
3962.06-274898-101984-73240-282848-149294-232256
3964.95-8660-200708-116388-287118-208450-116674
3967.85-243398-211554-321070-64438-119414-95162
3970.74-278644-286294-258604-76650-243620-244980
3973.63-222172-299820-273564
##END=
