##TITLE=Sulfur Dioxide
##JCAMP-DX=4.24
##DATA TYPE=INFRARED SPECTRUM
##CLASS=IUPAC A
##ORIGIN=NIST, Anayltical Chemistry Division, 301-975-3108
##OWNER=COPYRIGHT (C) 1998 by the U.S. Secretary of Commerce
##DATE=98/10/1
##$SPECTRA VERSION=1.00
##$UNCERTAINTY IN Y=2.1 % relative (B=1.1E-04,C=7.6E-10,D=2.7E-14)
##CAS NAME=Sulfur Dioxide
##CAS REGISTRY NO=7446-09-5
##MOLFORM=S O2
##MP=-72.7 C
##BP=-10 C
##$NIST SOURCE=QUANT-IR
##SPECTROMETER/DATA SYSTEM=IFS66V (Bruker)
##INSTRUMENT PARAMETERS=KBr Beam splitter; MCT Detector; Multipass cell
##STATE=gas
##SAMPLE DESCRIPTION=Sulfur Dioxide Primary Gas Standard
##PRESSURE=101.3 kPa
##TEMPERATURE=23 C
##SAMPLING PROCEDURE=1 L/min Flow
##RESOLUTION=1.9290
##DATA PROCESSING=Boxcar Apodization
##XUNITS=cm-1
##YUNITS=(micromol/mol)-1m-1 (base 10)
##XFACTOR=1.0
##YFACTOR=9.0949E-13
##DELTAX=0.9645
##FIRSTX=574.687
##LASTX=3974.595
##FIRSTY=.0000197
##MAXX=3973.63
##MINX=574.69
##MAXY=.0010263
##MINY=-1.45E-06
##NPOINTS=3527
##XYDATA=(X++(Y..Y))
574.69 21747700 14502640 12184620 9309904 13678190 15093250
579.51 9508108 10295370 8205072 11847990 8171740 9390284
585.29 6043402 9513388 7552628 6486016 6556852 5981414
591.08 6690630 5620848 4185172 5628822 3901690 4993584
596.86 3079834 4075952 3361332 4322420 2724252 3135900
602.65 1815236 2585596 2779928 2668160 1732156 1391256
608.44 1579772 2200040 1211498 1384894 962978 1699362
614.22 1014026 1176256 726908 1216532 498018 965456
620.01 490270 872056 203956 516836 145772 390390
625.79 253704 532426 26472 523042-325588 900430
631.58 25262 139076-84538 144512-329380 128632
637.36-498310 166196-361410 166812-446744 152968
643.15-180734 293894-465538-113322-310970 335154
648.93-221584-154532-488564-60486 6222 76670
654.72-186516-65460-167842-257834-194592-142892
660.50-175932-43840-236732-415588-329846-748734
666.29 2373852 3639970-443884 416416-740496 167524
672.08-559022-63574-318392 235670-420440 20012
677.86-576796 151458-587116 167120-157554-25254
683.65-321520 49398-222348 183690-410830-122786
689.43-524654 89916-102372-115514-432336 70430
695.22-483876-175886-207668-39184-222156 155808
701.00-542802-138770-291794 56614-308252-306550
706.79-510888-223234-235238-266590-432700-172820
712.57-449406-143784-405718-49440-633630-360976
718.36-223798-64412-446074-201890-271976-166478
724.14-343878-161894-542036-77124-323804-139052
729.93-498610-148160-453482-116234-485784 86736
735.71-536554-116084-384396-186042-339800-93310
741.50-352594-294340-299912 2242-358216-122710
747.29-507880-91704-301440-53400-198068-127820
753.07-324746-178954-439914-44362-391080 48314
758.86-421932 30624-516244-250780-392704-102214
764.64-398272-117352-456056-108096-394100-269122
770.43-319114-140492-218374-93522-300440-269244
776.21-436950-212802-441164-37564-355378-230130
782.00-228360-83052-309740-182882-320172-295210
787.78-523056-184074-452060-44872-411518-134162
793.57-342828-236900-210340-115438-422610-1412
799.35-511452-203680-435564-291466-338704 70254
805.14-361810-102884-295314-92050-420212-203694
810.93-368098-144874-308612-281904-259796-95442
816.71-204114-204978-440998 10632-245972-269186
822.50-292094-83552-357014-231540-315972-44460
828.28-437792-118936-361812-226116-247544-144370
834.07-564220-165104-282004-116772-351902-98434
839.85-275364-159888-316054-166088-480322-339244
845.64-282894-96854-438830-151936-401374-196526
851.42-351508-195184-372554-301092-362470-16298
857.21-474454-33038-304084-150022-399890-140098
862.99-200632-178654-311190-212938-287216-121712
868.78-340320-240848-343110-95704-328568-249894
874.57-315748-73624-284886-168514-349232-123456
880.35-214512-178582-368162-133900-281972-168040
886.14-174258-184162-347522-157182-323598-263494
891.92-404304-144206-347502-128752-315838-162628
897.71-287590-174062-244704-191680-283708-125594
903.49-159734-94696-333288-203162-327250-88774
909.28-241064-281090-258498-173950-282482-107576
915.06-184544-60592-311528-266528-351638-254908
920.85-285840-288394-334342-147792-246194-249552
926.63-275488-215262-393890-110058-242424-210250
932.42-254880-261772-305244-96588-283406-270252
938.21-290130-173606-322314-286270-367692-131786
943.99-279828-251042-304464-230882-268440-135466
949.78-287078-194800-306186-147464-268164-195528
955.56-269788-284204-278396-208164-313754-229570
961.35-273640-200204-219542-174290-339676-194056
967.13-267244-194344-334310-133506-157836-194914
972.92-291190-186524-247388-76790-240368-212926
978.70-278794-196552-281244-200854-232812-265900
984.49-211796-128732-304102-150268-256550-276810
990.27-282166-256164-252256-172392-284364-182892
996.06-302610-157544-243476-271988-186172-232680
1001.85-302946-191092-280940-161366-274778-196922
1007.63-339082-198842-275702-199582-280478-141954
1013.42-268390-261426-288658-230388-262460-195646
1019.20-291044-207838-136870-259116-332850-248058
1024.99-183192-256314-194058-266496-225492-188662
1030.77-135494-199940-146668-226076-217376-336980
1036.56-196092-147254-17700-206530-65398-107292
1042.34-44540-163234-62298-125574 31104-112652
1048.13 19482-46428 80534 59858 229476 108744
1053.91 162870 103044 284146 161112 441274 408820
1059.70 558342 509934 840388 689378 915774 785574
1065.48 1202014 1021476 1421852 1363742 1839486 1598132
1071.27 2013954 1859562 2662656 2335922 2695550 2851428
1077.06 3488942 3113922 3770556 3919344 4752616 4272322
1082.84 5166338 5182022 6269468 5785556 6411798 6910116
1088.63 8333438 7218036 8148926 9085800 10436300 8671086
1094.41 10835580 11485900 12270730 11574210 13927210 13173990
1100.20 14707150 15418520 16211400 14518080 19692630 18963270
1105.98 17466360 18925800 25961570 19933160 19102230 26646590
1111.77 28516360 19780060 26856370 34600960 28018830 25237810
1117.55 38999720 33751060 28474490 38197920 48015960 29082370
1123.34 38647860 57762280 48332160 24724220 56311810 72381850
1129.12 41813740 31616810 77282260 76449000 36060620 48317110
1134.91 84328180 66214500 42873460 60438530 72193530 57892830
1140.70 50727910 47196580 59014100 50537880 29348350 43362090
1146.48 37442820 22074490 29687000 23147910 23421470 23535710
1152.27 28413870 28910520 35086690 51286710 48065580 62552430
1158.05 59676780 72410690 67087400 50839340 85640980 81439220
1163.84 51963200 81661270 83358940 62852650 56420070 80224780
1169.62 68464460 47643860 57225230 63847420 43898030 42800160
1175.41 61047920 46307410 29602170 41565950 43842420 29027050
1181.19 30258240 46212570 30533000 22500250 29681620 34904460
1186.98 23578860 24219590 30433290 27644350 19338900 25510330
1192.76 22660450 21749030 20212330 23439470 17449940 19291150
1198.55 18939180 17922550 13708590 18024100 15617160 14207260
1204.34 12040880 15281850 11502290 11829930 10263640 11952390
1210.12 9236606 10040490 7850890 9080782 7540108 8030054
1215.91 5524204 7414462 5599958 5898594 4163878 5895646
1221.69 4066536 4469570 3091624 4277972 2673536 3522848
1227.48 2057280 3301268 1718636 2603370 1225988 2376798
1233.26 974276 1965756 675160 1786092 370336 1403522
1239.05 201936 1372706-64060 1104512-146394 1005914
1244.83-264086 855834-367904 724562-465074 721438
1250.62-481038 542570-604354 541742-640078 473198
1256.40-740916 493104-667472 521938-718626 440054
1262.19-817386 389338-807170 496580-849006 411592
1267.98-821652 401296-786184 347980-837880 386694
1273.76-792500 429056-860364 399686-877630 486244
1279.55-797174 475380-914198 485552-864444 504052
1285.33-801438 498448-837658 631776-828154 591652
1291.12-687334 664756-670778 805170-542274 1042488
1296.90-334254 1381814 23480 1736340 465906 2340580
1302.69 1221034 3240498 2336604 4536974 3758360 6452194
1308.47 6006980 9076172 9134050 12928080 13488610 18004140
1314.26 19385170 24950150 27465230 34372100 38212670 47057090
1320.04 52641990 63283890 71011260 84444800 94895970 110904500
1325.83 124368200 144265100 161096200 184661600 205326500 232899700
1331.61 257626400 289999800 318344700 354461200 387273200 427069200
1337.40 462477600 506090800 544423800 587173100 625763000 668302700
1343.19 702082000 699122200 694047500 715519000 712166000 716881700
1348.97 702398300 693827900 662063900 644252800 596322000 589687400
1354.76 575174200 620549100 616542000 693478300 853630700 1128474000
1360.54 989347600 155758500 138020900 177211500 272522200 368101400
1366.33 507532100 623974100 731464600 800968800 862294000 891871000
1372.11 913376600 906878400 892778900 859317500 821434800 765930900
1377.90 712568800 646366700 585086400 517053500 455862400 391752400
1383.68 336899600 281427700 236041600 191358300 156869800 122834400
1389.47 98370260 74332580 58314400 42054600 32791990 22177450
1395.25 17072690 10527500 8604726 4707550 4310586 1808002
1401.04 2265864 387634 1344280-220504 818134-254302
1406.83 741580-529794 616512-405762 660442-309668
1412.61 526926-336684 324250-461954 402898-411254
1418.40 378684-417710 417190-314994 245094-425660
1424.18 311928-391032 174176-396952 159690-403778
1429.97 223162-370626 173282-434892 121334-496808
1435.75 123828-431924 193368-502500 97592-421394
1441.54 66740-390120 121302-385880 62714-473328
1447.32-1074-425794 26654-393462 4152-372826
1453.11 13000-391824 24732-375850-18062-414050
1458.89-54254-346588 77550-373910-67572-414920
1464.68-39906-366238-40352-390752-518-326810
1470.47-85988-304318-121898-386262-96026-375548
1476.25-84450-369700-51318-281218-78946-321530
1482.04-35150-369212-112704-399376-76644-283786
1487.82-122904-370772-87666-324846-89582-326978
1493.61-149832-346842-82886-371808-111402-296072
1499.39-95650-331138-86286-283322-117916-343936
1505.18-113608-315556-132848-288978-144732-270490
1510.96-81854-318952-32658-270278-99420-268618
1516.75-97268-284274-91340-198726-55652-296076
1522.53-32386-149988-81928-220722-53824-237090
1528.32-55146-176888-101404-173300-54918-185692
1534.11-112162-200092-83270-199422-14512-213828
1539.89 4872-126318-59138-146334-110080-149638
1545.68-125794-206714-159942-299552-207842-288328
1551.46-172298-301072-210642-296278-163826-261274
1557.25-211576-268570-191780-287178-225674-285850
1563.03-178610-284342-183168-307796-192890-277256
1568.82-159290-273272-194758-258824-185036-280526
1574.60-199052-316962-194286-246996-219812-301996
1580.39-202044-305024-138038-252422-249198-243924
1586.17-200680-191424-161812-252306-204266-297176
1591.96-227454-255572-196700-269612-174982-266372
1597.74-232438-246808-184164-237710-204766-233062
1603.53-238094-257834-178700-246610-187506-221062
1609.32-219414-241592-240564-218192-250846-220792
1615.10-209522-233584-209346-245038-157562-177226
1620.89-163058-163250-173066-285636-248448-217746
1626.67-213054-250876-211292-187204-198396-241604
1632.46-207866-204404-204438-171424-247320-250798
1638.24-198574-233196-108548-206860-215354-164020
1644.03-236942-268214-189426-202978-168174-266520
1649.81-211444-183612-251302-154276-190938-208268
1655.60-159914-189878-174212-259352-169208-222708
1661.38-162356-237890-205610-198748-199744-202252
1667.17-227722-180702-183008-161562-219610-201032
1672.96-186234-195608-144738-177050-111756-150980
1678.74-173032-159908-156078-151970-179736-171204
1684.53-142650-155744-179170-171912-240424-164352
1690.31-171390-180256-165202-168294-229928-198400
1696.10-213274-148290-182226-230524-198652-112998
1701.88-265284-174948-234714-212836-138530-200208
1707.67-199944-188100-201140-230826-207010-144870
1713.45-218294-146734-248180-182464-220158-184002
1719.24-165146-168308-206674-149830-204544-159360
1725.02-168422-192318-224692-208248-165216-190954
1730.81-199586-159538-221406-203968-220022-177954
1736.60-184482-184430-192712-128288-203676-205984
1742.38-216748-168000-199192-218872-200776-183398
1748.17-238402-193286-252660-178886-213856-230098
1753.95-227212-190418-220336-152170-185138-186432
1759.74-249008-225334-197120-185600-187810-189672
1765.52-251248-172370-189514-161938-236182-125232
1771.31-233072-222750-283638-141698-208468-136136
1777.09-235912-169362-185532-184718-250136-194434
1782.88-226566-179852-214200-159118-223048-177070
1788.66-210212-181026-234060-184398-205878-151338
1794.45-286652-125676-221462-152314-241784-181616
1800.24-238676-215670-205958-171950-222018-195294
1806.02-194750-191624-219358-165830-195662-135848
1811.81-178474-179132-211358-243928-139028-225202
1817.59-208340-158210-148430-194390-210916-153350
1823.38-166526-154104-168510-107432-102342-198274
1829.16-186438-77942-141386-202118-125042-49734
1834.95-125114-168300-119864-22762-76624-173592
1840.73-125312 27354-86114-128212-65306 45154
1846.52-126734-112992 54780 76432-113098-49702
1852.30 96514 110860-70914 25480 157346 36602
1858.09-48688 147574 177558 30492-21624 169080
1863.88 70074-14230 64848 91586-82718-84358
1869.66-94696-22584-187320-105818-147066 189704
1875.45 250236 31200-55808-133370-44656-20388
1881.23-64004 25278 67524 36414-145140 113224
1887.02 107232-69302 37378 251800-6490-82238
1892.80 202138 81244-158640 169980 69484-199022
1898.59 6620 212798-235630-35370 132040-128784
1904.37-159108 157990-145792-150424 133850-82054
1910.16-267650 107080-135052-177530 12502-63614
1915.94-236000 28722-137260-150194-81700-114724
1921.73-260486-11786-245222-98366-125416-169056
1927.51-159712-87662-282516-118034-177240-181612
1933.30-196558-140004-209036-135260-198214-174362
1939.09-166932-156534-195608-165358-248872-176182
1944.87-247932-195902-181358-191964-262536-183242
1950.66-243438-153360-247956-240796-251612-164872
1956.44-269772-177114-257178-166828-209242-200818
1962.23-226310-230472-231884-164852-225778-210276
1968.01-235780-163676-321220-177308-211664-172268
1973.80-256050-183284-235822-201490-252226-184638
1979.58-311004-136852-220728-231214-239312-179304
1985.37-239960-153400-283538-197722-239328-118746
1991.15-236976-199232-252094-201586-214904-206964
1996.94-235134-181420-249804-158882-203108-201912
2002.73-263778-203000-262076-138196-216570-201762
2008.51-238508-205368-250786-110456-233090-156390
2014.30-206124-161502-268520-160408-240046-228242
2020.08-283268-175900-200756-193740-230100-161244
2025.87-235152-154136-258554-186350-207868-161222
2031.65-206296-129414-187088-78602-149160-100402
2037.44-138898-84484-100978-17304-56242-12360
2043.22-53814 38992 27462 75372 76092 84164
2049.01 63672 93670 89068 95720 44116 53948
2054.79 29676 127166 17992 6390 15590-27084
2060.58-173662-111028-144086 80792-27786 114902
2066.37 79484 155462 217698 230790 190830 201522
2072.15 259692 189632 50966 70648 39824 146192
2077.94-134346-19248-163554 53658-164688-187102
2083.72-167934-145288-28836-217702-196798-240982
2089.51 31308-95298-189858-247086-93048 40998
2095.29-279672-97254-270914 261472-323902-118686
2101.08-293164 177630-130100-204072-310458 3244
2106.86 96492-229880-196286-189040 228002-329818
2112.65-91618-305768 323542-278080-176118-263262
2118.43 175308-119750-216582-264106 68274 61462
2124.22-266640-194202-61576 110778-261752-199730
2130.01-152226 73824-339498-178272-170464-9610
2135.79-263892-166702-198500-58754-296000-177598
2141.58-289846-178190-220850-183150-203646-123282
2147.36-241956-213992-178158-40318-200650-234654
2153.15-72248 8816-295466-194162 59410 45756
2158.93-352936-123564 53522-6818-355624-13172
2164.72 180828-115806-354148 125112 118362-238806
2170.50-307504 168222 8562-296354-141012 251474
2176.29-161592-309604 29856 169800-347974-160254
2182.07 103072-30096-382210-10770 16222-204318
2187.86-240374 117794-176778-246568-129686 93932
2193.64-315878-223482-82946-152414-329212 4360
2199.43-126770-220328-219606-88076-306360-192578
2205.22-140010-86842-244754-118516-244486-201974
2211.00-212884-121824-258986-231118-192374-186886
2216.79-265688-157346-261744-154264-227722-205850
2222.57-323848-164868-247208-179890-236628-169166
2228.36-257322-188396-209350-91814-171814-101820
2234.14-168366-122600-195868-161638-115180-49868
2239.93-155878-82836-249362-104258-204016 5194
2245.71-78902-12620-132868-52338-128020-1850
2251.50 98370 166496-59526 26012-75354-57420
2257.28-68692 280546 135590 186708 43546 139426
2263.07-82546 88822 364410 333340 272746 362478
2268.86 412816 211978 33022 488450 484264 364682
2274.64 556346 490702 380078 85038 759742 641164
2280.43 225862 305038 723844 675864 137890 258462
2286.21 612712 460136 104700 392812 351770 191822
2292.00 66844 242494 110740 315726 117958 330814
2297.78 230628 639800 1064678 827038 828510 865016
2303.57 1234464 714224 1286620 1538730 1039192 1430194
2309.35 1092728 1585206 562152 2073920 730876 1916110
2315.14 344864 2202106 491460 2263462 509936 2230296
2320.92 743664 2276070 982276 2411678 1108982 2446068
2326.71 1576568 2639704 1783018 2681044 2006518 2679250
2332.50 2165586 2859608 2223658 2829766 2292208 2679412
2338.28 2170068 2479232 2158150 2373106 1794176 1912274
2344.07 1289408 1290318 738206 828428 142640 516000
2349.85 669932 1119198 1328106 1877508 2208046 2586722
2355.64 2609640 2928860 2988296 3297386 3142126 3484290
2361.42 3247630 3335172 3035332 3053870 2642836 2709052
2367.21 2346482 2270608 1847668 1709596 1229740 1144432
2372.99 809888 798918 499402 432532 167504 160048
2378.78-156518-24674-183122-90064-321740-132626
2384.56-360634-267880-285276-233608-383302-212152
2390.35-377070-270058-358038-237380-332728-223910
2396.14-340718-177168-422226-186084-281790-230696
2401.92-380038-239468-380510-247478-325928-224446
2407.71-349946-195658-314172-214418-345234-219300
2413.49-330484-187954-373790-147100-301522-162506
2419.28-269010-261524-293576-146406-255784-132242
2425.06-235786-118036-233752-146272-148834-129144
2430.85-174144-64978-171764-3390-124162-72966
2436.63-127444 17852-101820 64398-13272 110272
2442.42 52290 180986 138232 312686 269930 433608
2448.20 458510 585624 547970 743554 783130 1005410
2453.99 907570 1240252 1209272 1563998 1571834 2021390
2459.77 2046696 2500920 2597650 3054508 3195398 3759092
2465.56 3875192 4476426 4688362 5280272 5676846 6438786
2471.35 7024796 7912522 8515786 9306638 9066580 9875002
2477.13 10170170 10984660 11521600 12403320 12855730 13479970
2482.92 13776210 14165370 13969240 14146310 13807980 13850160
2488.70 13285070 13327140 12652220 11251540 10570990 11409390
2494.49 12210610 14840630 17341160 21357980 17525530 3050224
2500.27 2555258 3539746 5387572 7595050 10491670 13418070
2506.06 15780510 17631960 18991610 19888250 20234290 20146930
2511.84 19706150 18833460 17651350 16296080 14672880 12996590
2517.63 11125570 9480586 7731512 6124516 4762376 3613352
2523.41 2473200 1785152 979504 644156 204788 152224
2529.20-39618-62812-181162-95268-261374-144318
2534.99-183138-152144-197756-62238-234146-123614
2540.77-190380-114612-276626-171908-184986-73338
2546.56-168566-131308-275602-203060-240630-183310
2552.34-243412-28806-252606-156442-246566-95770
2558.13-273336-164148-281390-122576-238090-88158
2563.91-241414-140776-246450-162222-283658-110906
2569.70-215130-202274-237682-69454-311338-156668
2575.48-268788-114156-297222-130822-188840-128420
2581.27-215248-151546-247240-180126-220706-138296
2587.05-257710-115118-243662-191608-212612-100912
2592.84-261954-178270-261872-90694-338738-133760
2598.63-201302-127390-200564-118886-266144-215026
2604.41-219086-178330-207772-117168-263632-204234
2610.20-237342-270080-327422-219154-198376-162836
2615.98-326496-253606-334578-178218-351984-221156
2621.77-305578-236900-323028-240218-348702-287352
2627.55-326588-285324-407006-270960-388430-372028
2633.34-422312-382002-472616-433204-553270-418390
2639.12-503408-459710-612184-515554-579438-588752
2644.91-646844-630564-832630-676150-688560-774280
2650.69-906850-757922-969028-876318-854020-903778
2656.48-1067506-872684-1082386-1056794-1111514-957732
2662.27-1090068-1036380-1125690-1047780-1195260-1146806
2668.05-1272768-1248690-1302736-1162864-1346492-1242872
2673.84-1272610-1286204-1259626-1227740-1496032-1308504
2679.62-1321370-1374838-1368444-1237526-1378040-1295826
2685.41-1422084-1511970-1329474-1221392-1530630-1421724
2691.19-1376180-1280556-1470176-1341618-1477628-1190502
2696.98-1332722-1360400-1414250-1206638-1448022-1301666
2702.76-1420732-1329350-1266146-1253418-1368274-1204290
2708.55-1356832-1193276-1280056-1323526-1386066-1194568
2714.33-1316148-1288094-1373956-1431696-1422732-1455438
2720.12-1456102-1359612-1349136-553470-618040-625654
2725.91-823708-885562-917852-1122562-1273106-1013308
2731.69-1188696-1083500-1257074-1209714-1228860-1263768
2737.48-1426996-1319810-1468034-1373420-1471568-1435576
2743.26-1459806-1435610-1409030-1469104-1480074-1367956
2749.05-1539324-1441124-1516050-1441242-1390746-1469166
2754.83-1456368-1431796-1489176-1378986-1461196-1374340
2760.62-1596174-1283424-1500832-1276108-1389240-1380164
2766.40-1276924-1297436-1298170-1209636-1264762-1061868
2772.19-1261686-1052918-1169078-965710-1088034-943722
2777.97-1008520-777174-830184-608744-724314-580740
2783.76-581092-581098-562106-368184-451006-408642
2789.54-388420-322450-411840-245380-351294-237002
2795.33-322484-236800-238490-217352-296198-156562
2801.12-264168-104910-202156-117432-247498-143156
2806.90-280874-151936-234586-139382-272496-33104
2812.69-278960-221206-184440-123596-233730-82664
2818.47-170410-196816-165780-140338-214042-171314
2824.26-139614-109780-203794-212262-271470-128840
2830.04-280912-170856-218356-72552-168520-177704
2835.83-235494-138798-240440-25492-341020-95250
2841.61-277262-105598-229072-121766-252272-183142
2847.40-148622-143368-242910-179664-167910-86232
2853.18-261770-140678-311226-140486-243504-147204
2858.97-278146-56622-259000-214104-244050-140716
2864.76-152626-108794-243920-116208-254252-71516
2870.54-147658-237122-213066-117752-326694-119824
2876.33-223500-148510-290652-136464-168692-152958
2882.11-241788-105492-213018-178708-202096-185834
2887.90-161082-21488-274930-100196-217716-91560
2893.68-149812-189634-304702-207160-274226-178908
2899.47-184112-134350-198850-72620-216228-193206
2905.25-124484-141596-182522-187090-310646-59906
2911.04-189876-154080-257182 24244-285482-55100
2916.82-249104-135638-260208-165546-208382-143952
2922.61-115184-251242-197568-201410-159588-198372
2928.40-222728-183310-306934-107952-195380-121120
2934.18-228010-174552-206522-244734-204896-111802
2939.97-221196-31206-294918-64418-228030-148016
2945.75-259334-213218-264426-170564-220520-209252
2951.54-245242-105688-205782-203204-319608-265708
2957.32-207826-130630-203042-40910-254222-53448
2963.11-239876-146068-150720-134612-198362-145176
2968.89-264782-67768-179318-160496-182042-55716
2974.68-178006-219034-232768-30590-191494-137236
2980.46-183790-26438-257444-67598-154860-117942
2986.25-160722-108238-332184-119372-138636-178280
2992.04-248246-177626-242610-255058-264824-50944
2997.82-67418-111024-318000-130258-214956-173986
3003.61-333704-69788-252594-205288-251306-184378
3009.39-252870-15150-303966-171144-134420-120542
3015.18-268394-198802-319494-101804-239456-148362
3020.96-153470-190640-227274-180846-323218-69264
3026.75-138272-174806-277264-49662-136052-77916
3032.53-228824-73198-261492-102924-216324-90370
3038.32-253196-118882-211016-124654-244340-52844
3044.10-194888-97014-240194-152920-309360-205810
3049.89-172340-142950-250872-162106-210802-69618
3055.67-242552-174060-76176-102422-198376-219400
3061.46-185538-116218-280906-219458-211286-105542
3067.25-203852-41310-79450-189818-163960-181694
3073.03-151534-112032-190590-84008-99554-107274
3078.82-202088-83352-188678-114462-252498-119414
3084.60-156372-123748-183064-103282-221104-145904
3090.39-316198-115680-190482-144706-161896-26554
3096.17-172188-180264-128732-130144-209846-23050
3101.96-288376-122972-295214-164978-174948-144198
3107.74-225676-142014-226552-175342-298338-113332
3113.53-149342-225858-238322-150532-189204-97274
3119.31-183588-81864-232102-142928-131830-80252
3125.10-217668-175798-174364-27210-209642-255656
3130.89-248586-77954-176336-133084-224914-172502
3136.67-269654-99942-132760-113888-187406-19846
3142.46-253340-86168-288494-146600-243248-18368
3148.24-109574-159652-220232-64436-85978-127622
3154.03-250220-167212-271840-114578-251094-179358
3159.81-291540-199840-126080-144406-202588-109542
3165.60-312494-72578-239682-32666-254656-166518
3171.38-288634-106166-243082-135456-259030-75710
3177.17-140706-171900-125038-88410-307078-86334
3182.95-169508-120956-239782-143136-259646-60188
3188.74-157370-129024-140502-116332-208508-73074
3194.53-248196-46634-228922-143434-72128-131994
3200.31-208506-76676-194882-140998-168926-179106
3206.10-202012-184912-239636-53190-148370-63136
3211.88-312460-59706-279962-146322-152968-122102
3217.67-147716-142586-91500-85532-229582-217708
3223.45-61224-152826-179130-108354-211438-89040
3229.24-153754-57604-249384-169000-199372-156166
3235.02-237244-38804-137098-156236-258436 30054
3240.81-192670-123002-116682-88116-390480-161016
3246.59-34834-47998-267534-62544-211730-69378
3252.38-191106-141198-167186-53016-232262-151554
3258.17-212574-134870-207326-100568-183208-84798
3263.95-342820-134770-200492-89528-194558-172212
3269.74-196814-141820-224416-184578-270316-56510
3275.52-280730-235506-186688-122178-213884-88720
3281.31-138386-133406-265378-126464-2454-157910
3287.09-259476-28550-336176-212420-277970-43632
3292.88-225966-133840-202310-116530-116436-61950
3298.66-265260-121336-106908-78570-229972-59880
3304.45-142110-127708-221322-17324-228938-72556
3310.23-140310-31130-150608-90468-239920-145072
3316.02-143548-45250-286768-142262-229226-77842
3321.80-215898 21158-164744-92126-146426-254250
3327.59-150116-95528-237884-138646-66236-250050
3333.38-300750-213424-202252 69250-265412-126708
3339.16-186614-112062-225438-195158-171618-78976
3344.95-93070-84488-163714-13414-193882-19412
3350.73-308708-42592-260864-47358-70634-149144
3356.52-254522-152596-201618-243156-137568-145664
3362.30-196530-92514-183000-30848-196622-150906
3368.09-218602-38582-68460-92316-161232-254574
3373.87-198472-212034-41592-166428-127440-211500
3379.66-318878-156704-59606-82570-7926-301976
3385.44-171626-117176-247394-192884-108564-90540
3391.23-112762-8196-57204-215598-355332-49828
3397.02-312362-153652-183574-20004-228298 54630
3402.80-241582-109032-218038-91720-77922-154396
3408.59-42764-276716-109700-211882-63966-63394
3414.37-260210-114144-385986-87474-256450 10006
3420.16-152640-101212-289660-69418-132680-101610
3425.94-255096-142240-202790-120670-221774-32046
3431.73-112854-111666-120476-82092-161816-34176
3437.51-219812-143180-122594-44750-216670-90572
3443.30-112084-120716-257540-218984-93736-161120
3449.08-174018-16314-215966-70360-301830-126988
3454.87-32910-64594-124190-56754-95402-131246
3460.66 58664-211392-217824-93650-144228-95576
3466.44-291340-260624-198370-175510-217408-133138
3472.23-181668-100474-223666-217736-187858 10298
3478.01-214464-173328-193972-93812-167528-73756
3483.80-103938-63952-331304-108076-194906-193374
3489.58-243114-128930-211136-184562-262040-119954
3495.37-246944-59592-184460-103608-50778 11728
3501.15-377316-158242-139662-180538-225156-104754
3506.94-226686-59496-305540-132000-267414-136816
3512.72-244642-214872-250888-28356-53326-102828
3518.51-243144-34000-296242-103168-266594-102424
3524.30-87080-79278-168676-126238-255680-133638
3530.08-279184-193686-131482-85716-272842-59266
3535.87-147158-85876-327894-114322-108834-193612
3541.65-97806-88994-175112-207766-276434-41780
3547.44-101730-122342-222862-106318-158452 5098
3553.22-126346-99870-182726-243210-271196-82468
3559.01-249514-39140-183288-60670-273398-49304
3564.79-132972-142542-105120-88938-239406-175200
3570.58-76868-227026-165500-71828-331804-84768
3576.36-78314-15920-347758-159490-200088-88516
3582.15-112338-26404-113188-136876-154840-56226
3587.94-323712-75960-247896-135852-238206 8976
3593.72-118648 25064-114524-166330-69770-80652
3599.51-138798-118410-160404-47446-96396 42778
3605.29 52820-48884-151726-14888-161032 2758
3611.08-67174-15864-78830 57820-32494 8588
3616.86-65902-28642-104000-111326 29302 3876
3622.65 91624 490-89550 82528 30916 256446
3628.43-32536-111350-220038 205976-179610-47358
3634.22-107240 202202-43940 162904 37004 86460
3640.00 80416 128812 54508 80406 3886 79726
3645.79-58784 75702-70554-34526-83746-86968
3651.57-306200-123330-260948-63418-121518-114752
3657.36-85800-157886-164454-175828-94538 5110
3663.15-201678-51780-143524-25918-224508-210838
3668.93-12438-144446-187054-97094-162556-73268
3674.72-244158-73864-143106-49000-205736-145472
3680.50-118818-82710-176050-19166-240700 78788
3686.29-78426-115398-181082-42120-122920-104508
3692.07-161822-23172-148874-8032-222508-83770
3697.86-116882-43618-210896-86788-164742-115700
3703.64-197764-72554-64204 12924-137906-8834
3709.43-236570 4034-128024-58598-254174-157468
3715.21-178254-89376-110358-29632-176988-67368
3721.00-92034-36780-106300-69044-64224-20542
3726.79-103532-43872-259858-55802-104116-45350
3732.57-87784-13400-179650-144316-140186-25462
3738.36-220426-136574-122496-73936-71564-60626
3744.14-169662-156780-269702-15190-174330-186442
3749.93-185382-64464-162520-106310-137700-124008
3755.71-178742-237808-196792-77020-284030-62220
3761.50-126104-125174-79048-120372-310870-61534
3767.28-160090-39098-227354-88980-173842-108858
3773.07-126240-84076-254220-127770-171356 26184
3778.85-219012-94818-146040-38134-159500-151712
3784.64-239546-25124-158976-195148-301842-15564
3790.43-197904-168144-173014 24422-157356-134526
3796.21-285930 11446-268790-164472-145476-149778
3802.00-193438 22124-108764-136926-152760-158868
3807.78-55412-97926-107884-145668-189802-128372
3813.57-160404-53596-110248-143644-222810-105044
3819.35-131164-87736-144188-58446-139880-94220
3825.14-235016-39250-122076-71498-198150-590
3830.92-175208-42124-126080-19828-122236-136850
3836.71-239758 106222-301772-60218-163508-137460
3842.49-89684 29618-114650-13622-87450-126076
3848.28-109246-26334-148212-67694-153704-51240
3854.07-200802-142824-61948-115388-186068-41518
3859.85-77166 22224-245080-107636-240432-153738
3865.64-137556-91388-139112-123764-90268 24142
3871.42-146534-147290-135880-113132-194036-125750
3877.21-75410-56078-247972-119308-118318-27930
3882.99-270982-70402-195256-119880-76384-151372
3888.78-92796-42878-237344-34264-186088-227060
3894.56-189734-83844-131206-194338-31924-56788
3900.35-73982-130512-216960-115052-202436-249486
3906.13-332634-250968-158132-32546-85106-1236
3911.92-217718-67914-155652-124190-134564-127704
3917.70-338826-165492-160306-78050-205478-137314
3923.49-241078-94432-260432-134118-191322-57986
3929.28-276714-36048-201332-167500-132744-103682
3935.06-221896-181458-179748-64674-181496-124790
3940.85-176774-29788-239942-44308-228908-146892
3946.63-178016-9696-132474-271766-178210-211808
3952.42-211966-192988-152546-147234-304008-18692
3958.20-98498-14692-181338-252156-153600-167752
3963.99-192616-77828-275354-124658-298862-105970
3969.77-160758-269970-178652-221188-283470
##END=
