##TITLE=Sulfur Dioxide
##JCAMP-DX=4.24
##DATA TYPE=INFRARED SPECTRUM
##CLASS=IUPAC A
##ORIGIN=NIST, Anayltical Chemistry Division, 301-975-3108
##OWNER=COPYRIGHT (C) 1998 by the U.S. Secretary of Commerce
##DATE=98/10/1
##$SPECTRA VERSION=1.00
##$UNCERTAINTY IN Y=2.1 % relative (B=1.1E-04,C=7.6E-10,D=2.7E-14)
##CAS NAME=Sulfur Dioxide
##CAS REGISTRY NO=7446-09-5
##MOLFORM=S O2
##MP=-72.7 C
##BP=-10 C
##$NIST SOURCE=QUANT-IR
##SPECTROMETER/DATA SYSTEM=IFS66V (Bruker)
##INSTRUMENT PARAMETERS=KBr Beam splitter; MCT Detector; Multipass cell
##STATE=gas
##SAMPLE DESCRIPTION=Sulfur Dioxide Primary Gas Standard
##PRESSURE=101.3 kPa
##TEMPERATURE=23 C
##SAMPLING PROCEDURE=1 L/min Flow
##RESOLUTION=0.9640
##DATA PROCESSING=Happ Genzel Apodization
##XUNITS=cm-1
##YUNITS=(micromol/mol)-1m-1 (base 10)
##XFACTOR=1.0
##YFACTOR=9.0949E-13
##DELTAX=0.4820
##FIRSTX=575.169
##LASTX=3975.077
##FIRSTY=.0000167
##MAXX=3974.59
##MINX=575.17
##MAXY=.0010301
##MINY=-1.39E-06
##NPOINTS=7053
##XYDATA=(X++(Y..Y))
575.17 18368320 14477410 13158910 12087220 10855930 9931216
577.58 10463310 13351640 16271490 14009770 11454320 10555670
580.47 10272060 9538932 8788426 9034498 10317660 11187520
583.37 9514058 9207540 8984824 8326334 7668878 7257218
586.26 7337238 8443860 9568620 7787746 6309440 6689284
589.15 6577448 6562770 6414572 5810972 6064508 7118942
592.04 6260206 5272730 4785926 4498488 5049084 5307894
594.94 4597212 4221984 4766026 4400254 3904082 3755560
597.83 3456200 3556636 3858656 3822528 3643914 3996350
600.72 3681778 2969186 2901992 2772712 2600994 2124774
603.61 2029598 2377632 2754464 3034482 2631448 2456506
606.51 2307248 1865916 1482686 1409868 1248228 1798520
609.40 2126770 1781504 1703880 1537448 1252574 1143862
612.29 1168922 1201084 1349738 1446770 1363424 1249840
615.18 1089464 958016 938256 945844 985740 1003248
618.08 846262 694406 770634 733098 726264 686898
620.97 710136 660196 521862 414302 351472 357518
623.86 278494 353238 294762 177122 347126 376576
626.76 426026 455626 138070 148578 512444 231242
629.65-46054 26812 290474 603770 542888 208080
632.54 51314-2252-11126 66980 109880-33254
635.43-192598-114534-8120-113536-260554-218676
638.33-168206-55038-107768-158818-50334-91472
641.22-120404-223264-202080 23064-74074 46348
644.11 63066 70764-50064-278206-339124-240398
647.00-242452-130436 25270 130916 108482-82664
649.90-198186-296600-337056-314854-287566-243850
652.79 38576 130986-13720 6116-55554-95986
655.68-137708-118278-149996-108358-142610-356006
658.58-281580-100884-114364-230614-215038-92588
661.47-57542-130018-140238-229552-313792-332866
664.36-446228-498762-405056-300030 38308 2279398
667.25 4173028 2899494 1096436 326122 89566-183416
670.15-162818-248760-336296-256808-104090-202954
673.04-428466-332710-115120-76468-99656 12704
675.93-21222-263748-211716-119806-348288-375504
678.82-128226-123952-248110-282004-257250-119624
681.72 129426 24962-169018-174780-142306-167600
684.61-153810-98350-89494-78342 25830-7568
687.50-144268-180988-298332-305932-319088-318956
690.40-251286-118642 82904 36986-170426-206984
693.29-282222-321764-139126-93894-203984-339156
696.18-329738-316838-200840-74452-87284-189290
699.07-177242-47578 310-26546-207264-360960
701.97-342176-319266-209094-107796-146146-97200
704.86-107700-169068-279326-511708-380982-321258
707.75-429342-380538-151332-126582-304104-343366
710.64-329874-385832-245592-279292-361838-320090
713.54-256644-283308-303520-269456-193442-200818
716.43-353364-487636-501042-488568-308354-96772
719.32-98272-236956-251182-289678-364242-303408
722.22-218952-210464-171308-251414-331876-231498
725.11-159358-312390-434336-364672-259406-251802
728.00-240858-146428-194698-321832-347590-311086
730.89-303016-356878-270172-286546-319240-235496
733.79-325138-332200-167810-120222-182744-369654
736.68-375320-266936-194822-261144-316710-316918
739.57-227512-218474-249228-210818-173888-279754
742.46-326084-373258-336588-176986-124212-134020
745.36-177292-234384-241238-247584-300308-405426
748.25-307362-180300-213266-206090-132782-196194
751.14-129652-75662-153910-244196-242774-205820
754.04-240832-276132-355432-321324-185934-197452
756.93-247158-240840-139650-133232-163050-282604
759.82-209486-101768-230640-385204-397686-371746
762.71-333420-244916-249170-253424-239314-243274
765.61-277796-280788-243996-293706-358788-245682
768.50-150086-302614-418936-336374-215206-298188
771.39-252788-164010-201668-160696-124808-173856
774.28-223604-207878-261256-374702-358470-351356
777.18-302484-307272-356672-330422-211806-182402
780.07-170482-230226-356102-286180-215712-181366
782.96-120962-165844-234132-188014-254298-286064
785.86-215652-285604-268680-366860-455306-431440
788.75-315374-287112-340436-358242-220436-148280
791.64-241646-321580-242582-242864-266208-205880
794.53-308826-343274-188754-173006-114102-196818
797.43-321322-321894-157286-138164-278282-350828
800.32-409068-307118-258638-400012-355100-354396
803.21-326964-286396-92790-10228-164166-299806
806.10-194794-169134-266988-180680-161306-192540
809.00-291692-315894-271830-333632-293626-256294
811.89-251160-249234-232252-203156-294440-391836
814.78-242832-196448-184136-137272-166560-186144
817.68-120920-258702-455032-281518-174328-141958
820.57-84172-184078-239830-311074-365192-209054
823.46-80128-234842-264296-226578-264466-331508
826.35-345730-179840-116630-205786-269728-279512
829.25-277428-262596-218454-260854-290714-306878
832.14-302064-107916-139654-329436-345314-403802
835.03-408888-282298-190660-186296-200532-237530
837.92-205908-258160-244422-186094-162280-226154
840.82-183004-247950-276386-197056-233084-267040
843.71-341838-359492-422062-436098-305762-203800
846.60-173022-175948-296310-358232-243976-265586
849.50-323372-251080-297466-335978-245042-252412
852.39-288110-276390-292272-285364-324156-372724
855.28-390468-253460-122896-174488-264768-313276
858.17-273192-175774-130544-190664-241704-284160
861.07-236618-272572-340814-221088-116144-146884
863.96-204828-237600-255916-227670-256092-303490
866.85-252734-197784-194580-226706-223522-239896
869.74-306340-331026-281200-255378-229180-185188
872.64-188226-264060-286112-326028-299282-217020
875.53-192544-181046-150120-208634-240284-242338
878.42-255690-265984-248896-205486-139270-170142
881.31-180658-250476-284656-288188-256070-194856
884.21-220402-214000-201576-256664-179146-95802
887.10-156864-279464-270176-268782-235140-250180
889.99-244594-234698-294096-341118-341638-336256
892.89-238666-248974-254962-246860-235524-231062
895.78-210958-228036-243318-252018-222114-194750
898.67-237994-268908-188278-173038-218094-270020
901.56-246122-191598-207638-214448-137744-77630
904.46-114420-201302-206648-221624-306562-284084
907.35-238822-252144-226918-172986-125918-183606
910.24-274168-353714-248144-204730-210778-250912
913.13-221160-207932-201702-190642-126008-109744
916.03-139068-145936-138992-260398-320734-309128
918.92-296502-297830-320296-307620-246668-251846
921.81-292308-314706-344586-266208-224252-237004
924.71-174814-178558-277868-290940-251202-243054
927.60-227002-276666-307132-334112-255504-173298
930.49-157802-193116-235196-267022-209244-222118
933.38-260808-297802-293140-256720-199350-146406
936.28-177482-250804-276070-305262-285016-263516
939.17-203376-228928-250048-288026-284316-326610
942.06-363844-298070-231308-218496-178620-229792
944.95-283992-291614-260840-280868-268024-253894
947.85-259970-243920-181976-168918-226360-258898
950.74-215784-229942-280146-263492-193356-210574
953.63-218292-211492-231082-243272-225074-245834
956.53-263798-308190-310232-249906-194014-270822
959.42-283018-260146-247176-295852-256748-214354
962.31-249830-229214-210026-212172-154648-209978
965.20-298700-288542-234176-255060-246576-218028
968.10-204816-259384-266352-291684-222020-180060
970.99-151544-123926-151144-238758-275494-227576
973.88-226590-246118-216046-209584-140140-141902
976.77-144674-208440-216650-260164-244028-241684
979.67-239712-222484-247318-256008-221426-242388
982.56-216468-217570-220790-295658-276338-169598
985.45-123298-208390-218730-241132-239952-198196
988.35-185262-222856-276748-316418-248090-279194
991.24-279164-247304-268802-258292-174446-192682
994.13-251234-271244-201998-206216-268074-283472
997.02-195526-196750-209044-223744-244742-276482
999.92-267154-173340-154730-264464-319360-266784
1002.81-182728-266828-260678-214430-215558-206482
1005.70-229288-239866-200452-264812-276026-277332
1008.59-271634-258406-218362-236516-248240-234102
1011.49-235538-248684-199222-204498-187116-210504
1014.38-300862-304836-236140-251330-308070-258026
1017.27-179482-277216-261316-194606-198342-317810
1020.17-266042-200858-144522-156824-205756-258246
1023.06-268072-350276-320088-217326-192738-228972
1025.95-212722-230390-229332-219724-217132-255884
1028.84-248142-239776-203436-185602-145818-153040
1031.74-180002-186214-141348-193574-188832-197394
1034.63-201754-264736-293424-263736-296986-235526
1037.52-145676-129926-78010-55778-105196-171564
1040.41-141296-109216-63570-89886-70690-77810
1043.31-101954-145582-82072-114856-109034-75480
1046.20-21660-41756-49164-38496-42778-64942
1049.09 1718 24158 9880-3676 99168 123880
1051.99 121848 170404 195200 146402 141880 105982
1054.88 126152 156368 224972 197304 206436 259456
1057.77 293972 359298 425994 485012 501152 468488
1060.66 512176 609880 697372 729538 752354 790216
1063.56 842414 784308 810056 948002 1013226 1019436
1066.45 1130180 1190640 1188288 1270932 1416910 1511154
1069.34 1594514 1664928 1752292 1761880 1772038 1859388
1072.23 1944404 2044548 2247988 2426792 2596800 2524596
1075.13 2402326 2563004 2835716 2979042 3159038 3310004
1078.02 3336942 3301036 3393998 3582178 3883754 4123118
1080.91 4295708 4523830 4601186 4467492 4636432 4979410
1083.81 5232162 5391572 5665584 6027772 6155340 5966874
1086.70 6000054 6246584 6695672 7105962 7632032 8019682
1089.59 7930474 7435442 7502010 8063436 8610652 9235710
1092.48 9893848 10089850 9562330 9051418 9589686 10556150
1095.38 11294480 11715170 11873420 11927290 11987080 11924300
1098.27 12649270 13523340 13822910 13399470 13726280 14592860
1101.16 15109430 15488840 16102190 15839910 15046820 15245180
1104.05 17019400 18991360 19750370 19271760 18143990 17115550
1106.95 17832640 19876990 22421400 24599370 24228280 20283640
1109.84 18239550 19725250 22971850 25951730 28899710 27815030
1112.73 23202220 21479620 22779080 25838820 31257560 35111160
1115.63 31923910 26500630 26248950 27595450 31103520 36617520
1118.52 39416520 33941140 28704660 29876490 33031950 38264480
1121.41 43664460 46759990 39463790 30154560 31295960 39996950
1124.30 48866100 55030010 57579110 46472040 32381680 31179860
1127.20 38321970 52353800 67770070 73757430 57240560 38181460
1130.09 35782740 40189460 47754150 70833550 90298340 73028400
1132.98 49426850 40524530 42870250 49825420 60599620 84265680
1135.87 85480610 59128140 49506320 50677510 52306730 54062600
1138.77 67764450 76543910 63525920 55144790 55072320 53761250
1141.66 46901480 45525490 55343880 58148180 55857340 50043920
1144.55 37901770 32488010 36032620 39167580 44981080 37541940
1147.45 26318500 24184950 26425200 28304590 26786850 23846940
1150.34 22690700 23505150 23035920 24212370 26549980 26445870
1153.23 29309380 31268370 29767100 33080730 47010490 51532490
1156.12 45471820 50293560 57775640 59612610 60064630 63270480
1159.02 64772640 69138220 75118400 64967200 54905590 58604460
1161.91 63102830 81996940 92628560 78506330 60772340 57883690
1164.80 67296180 77295450 84373820 85075780 72476100 62366540
1167.69 57432520 60201030 67399350 76420410 79214770 68084580
1170.59 54325590 51208390 51364240 55759390 62179020 64060500
1173.48 53199000 43802190 42980530 44492710 50365910 59184340
1176.37 58515810 44705240 34228720 33324820 35813450 39295600
1179.26 43117290 45051100 36656170 28389800 27840670 32542410
1182.16 38930380 42851660 41195270 30798790 24273380 24444050
1185.05 25166330 28867780 34266160 34139800 28185260 24749880
1187.94 23818000 24177670 26469470 30322730 31501490 25800530
1190.84 22147200 21574040 22627160 23573870 24582220 23854180
1193.73 21849690 20976140 20883730 21121680 21938660 22417690
1196.62 20637040 18221570 18149460 18781690 19034070 19406240
1199.51 18974340 17014340 15385710 14882880 15861410 16946130
1202.41 17118770 16359320 14777640 13611880 12965180 12825480
1205.30 13726680 14433920 13537840 12185790 11569820 11218490
1208.19 11020410 10893200 11204600 11228320 10570940 9965082
1211.08 9628684 9309480 9003814 8544242 8350322 8505842
1213.98 8345090 8078790 7881194 7395918 6683672 6240660
1216.87 6441452 6739208 6591770 6186662 5736474 5312878
1219.76 4989746 4802814 5016164 5265570 5055906 4612920
1222.66 4254968 3939388 3721242 3662694 3753692 3665358
1225.55 3443532 3281466 3116666 2933718 2756468 2644476
1228.44 2730110 2675022 2511258 2313368 2153122 2052960
1231.33 1868202 1798598 1863734 1766388 1645142 1577482
1234.23 1488108 1381818 1289658 1250834 1288262 1176446
1237.12 1052532 954890 933790 808782 738912 828786
1240.01 828628 744156 627814 563154 539272 466632
1242.90 491314 456424 442642 383448 377658 347892
1245.80 284850 251368 258856 221522 177466 128840
1248.69 132860 126238 130068 121836 134376 96366
1251.58 41664-53772-30748-19498-16744-62180
1254.48-42232-56358-73216-122882-133476-158708
1257.37-108822-104790-88122-87894-45240-82432
1260.26-113742-112568-126722-169962-191944-219228
1263.15-196500-225052-214002-203740-136250-125446
1266.05-174668-243628-202704-214754-205846-201064
1268.94-206326-227664-181626-176004-208214-280986
1271.83-241298-226562-205758-247514-210862-162944
1274.72-163118-218966-214172-229746-213730-248734
1277.62-244422-240520-166606-186764-155622-135230
1280.51-154050-197762-212648-253128-204494-205590
1283.40-165384-198878-185060-183092-116650-146016
1286.30-152528-172588-173204-160816-84650-82030
1289.19-79950-129166-135118-113480-15780-9306
1292.08-8744-37118-526 27208 87674 70480
1294.97 134854 185842 254210 298200 357346 416494
1297.87 523298 595378 756292 773402 831324 997404
1300.76 1149042 1177384 1390170 1617510 1779220 1939460
1303.65 2271616 2495860 2709314 3132718 3537698 3647560
1306.54 4103850 4685938 5064886 5550438 6311014 6857468
1309.44 7455338 8283278 9121892 9923284 11096240 12056390
1312.33 13089250 14541800 15712100 16893980 18926350 20403210
1315.22 21712730 24293660 26540160 27819810 30888120 34254240
1318.12 35594020 38694400 43870760 45735070 48452520 55313530
1321.01 58212440 60066540 68576460 73537340 74748270 84147560
1323.90 92314250 93145750 102039700 113653600 115523100 122990600
1326.79 138296200 143035200 148227600 165734800 175102800 178043200
1329.69 196425100 211634200 213490300 230364900 252317500 255205800
1332.58 268228400 297644100 303420300 309424800 346375000 356504300
1335.47 355426400 399538400 414483400 406378600 454849900 475643300
1338.36 462173100 512774100 541303800 522127800 570989600 606492200
1341.26 580625500 630023900 672227400 638468100 688105300 728577300
1344.15 674529700 699056600 720773200 668446300 709003100 737917800
1347.04 683311900 720591000 741038700 679778000 719410900 728395200
1349.94 665194700 704320000 692779600 637147900 672060700 644829100
1352.83 597527600 621872000 591545700 566701100 599777300 581110300
1355.72 583294800 625837800 616148900 624866400 651952300 682716500
1358.61 773138800 877114000 978431300 1089142000 1132696000 967113000
1361.51 534806700 200906900 125428500 131466800 161989000 181155300
1364.40 222482100 274777500 309033300 380235600 440628200 489548500
1367.29 584210100 614465700 678701100 741020500 746567100 819538800
1370.18 830069800 844965000 902973800 867666500 919981000 910081500
1373.08 895106600 933849800 875505300 905563500 876282700 846731100
1375.97 863302900 796864600 809791000 761601200 734952300 723749100
1378.86 662335600 664297200 604336600 588176100 552829600 512401000
1381.76 494266300 446975400 429953500 388687800 366375400 336088800
1384.65 306664500 285954500 255475600 237522400 211681000 193840200
1387.54 173025600 156774600 138887000 124518400 110244300 97521810
1390.43 86067440 75759220 65637550 58087340 49535780 43407520
1393.33 37085170 32155410 27236180 23308590 19254660 16594780
1396.22 13522230 11520380 9378434 7965070 6584932 5512780
1399.11 4380746 3744254 2930900 2597878 1938824 1692822
1402.00 1232790 1121690 788714 782180 484122 486864
1404.90 214034 268368 240042 394194 178694 215536
1407.79 54322 119490-54328 107114 103658 187278
1410.68 14968 197068 193884 216070 12814 106548
1413.58 92514 166270-103564-45408-104370 7832
1416.47-76192 12478-36450 66356-85708 2872
1419.36-33108 34714-81064 59674 70808 78848
1422.25-105606-63692-111474-41466-110982 8284
1425.15-54736-30124-157686-101966-152444-44960
1428.04-144248-122134-170396-48088-117042-64714
1430.93-95716-44892-124320-85066-178876-109422
1433.82-170414-144396-230634-176342-201546-140248
1436.72-189464-120758-133182-69198-181462-194272
1439.61-237526-141744-188952-131584-195046-178518
1442.50-189658-94750-163170-121716-140826-109094
1445.40-198028-158918-223462-193948-285954-221310
1448.29-198998-185682-249598-157630-181812-182958
1451.18-218790-164300-217106-153774-185194-168654
1454.07-231314-152868-200244-167630-188988-159172
1456.97-214308-195550-238192-199542-252598-221426
1459.86-234886-129442-141986-109050-161252-160108
1462.75-246592-236852-261282-197522-258076-219342
1465.64-189080-176032-242356-191012-215398-203830
1468.54-238310-147010-145058-163994-255540-198296
1471.43-193158-169218-226410-229746-285464-234484
1474.32-244986-218118-261744-221992-237068-203328
1477.21-255448-214334-222914-162072-197800-135040
1480.11-170772-206014-238202-152540-186812-170982
1483.00-205782-227500-253370-225114-280726-246870
1485.89-256750-189988-190072-151512-208572-232408
1488.79-273216-226210-235982-209404-215370-179998
1491.68-235046-193784-208030-210512-246082-252922
1494.57-262690-215454-235464-178098-237880-244558
1497.46-269296-202606-199722-192384-215900-170186
1500.36-224408-235152-213902-162574-203568-186682
1503.25-194528-200386-260632-228472-235498-199064
1506.14-228446-214030-229044-208602-237458-181476
1509.03-220042-222078-235606-166688-167552-167328
1511.93-234532-197818-176562-136226-154788-155232
1514.82-207288-184426-186022-162218-206048-181246
1517.71-175558-201942-211284-147226-157218-114366
1520.61-130982-126680-191152-192218-194782-96522
1523.50-81254-81826-127382-132060-173654-135108
1526.39-143742-118334-159136-145098-165568-120432
1529.28-112306-97508-165728-149736-135710-117068
1532.18-115306-106198-131622-118476-153488-160284
1535.07-176506-126828-141216-142858-153460-126278
1537.96-110154-74452-123252-133480-124032-53254
1540.85-50108-61678-119678-96306-101316-92804
1543.75-145752-137796-143318-99314-135232-167352
1546.64-182622-144964-191136-196366-245278-240568
1549.53-262740-243508-256506-243320-231604-197314
1552.43-264100-248396-246228-252756-276300-235226
1555.32-228492-207822-225176-207862-234538-248280
1558.21-267144-202356-230830-236114-256010-225504
1561.10-257284-272522-269236-221360-240904-223094
1564.00-234834-230788-245286-211900-265020-248918
1566.89-252482-241970-239338-212880-241044-196798
1569.78-207602-230318-250788-223162-225678-218684
1572.67-233338-213912-230950-241816-259256-210558
1575.57-264156-292940-252004-213492-241792-201752
1578.46-234102-250746-269090-264142-252188-228610
1581.35-271256-253390-228098-180438-182548-212264
1584.25-277464-261454-248994-211256-237938-212846
1587.14-198064-170536-178376-174654-215816-229646
1590.03-231750-204884-278936-267042-251266-250884
1592.92-261218-217412-222014-222466-247538-232354
1595.82-219304-204508-231568-219954-261984-259984
1598.71-236586-212412-235286-192412-212682-220058
1601.60-222872-213384-233236-212448-221892-259560
1604.49-275168-208210-217240-223018-201538-207856
1607.39-242358-203082-195074-197194-239928-226624
1610.28-225184-227922-251484-243436-233328-205654
1613.17-233534-262122-237676-211792-211658-212278
1616.07-238882-217976-208170-225302-248806-206896
1618.96-205522-185088-154852-160690-187230-153726
1621.85-181358-144536-164138-184102-241638-259936
1624.74-274606-257054-239226-199368-218046-218040
1627.64-248746-220904-239258-226116-195088-172204
1630.53-203322-195316-232270-225570-223928-220730
1633.42-208240-184338-218112-206232-184916-168646
1636.31-213308-235184-271320-240838-214332-201192
1639.21-240926-206540-168710-125876-158910-180714
1642.10-235370-210518-184894-169414-197484-226214
1644.99-272490-266792-210816-191304-225814-179556
1647.89-168790-195164-227178-226348-265038-217790
1650.78-183170-186270-221402-241708-220102-148704
1653.67-155320-201074-220574-181884-184942-168756
1656.56-186970-168754-180368-186780-229120-228656
1659.46-224220-186392-188838-203308-208426-169606
1662.35-193996-219034-246230-204462-190790-196058
1665.24-214062-190756-203090-197034-220270-229548
1668.13-204754-167498-198432-179868-162104-168680
1671.03-194106-212128-213370-202542-198074-169734
1673.92-207570-197634-151688-153164-180098-148788
1676.81-147282-138738-108928-139864-189816-161652
1679.71-160372-162888-163280-154532-150646-147594
1682.60-178888-169866-179672-165688-162670-146458
1685.49-140044-150598-189192-160584-181444-167518
1688.38-213810-237856-202740-155614-181968-166058
1691.28-173642-170956-191462-167372-137850-184256
1694.17-219894-200762-220302-204336-212572-201110
1697.06-181004-152778-168112-179766-201562-221732
1699.95-246766-183354-128000-141424-206058-224392
1702.85-230382-199558-194188-210678-248968-211706
1705.74-170842-135566-167972-203126-211216-183668
1708.63-195300-194452-201202-189824-210172-240072
1711.53-235786-179578-177782-160754-183250-198394
1714.42-189444-157070-195726-236502-217672-192198
1717.31-205028-199682-212788-189232-177094-150210
1720.20-174340-165924-200350-196398-165020-166502
1723.10-193090-168912-191980-176448-161244-150118
1725.99-182486-208988-211990-195468-233914-214782
1728.88-186592-152186-177110-201292-207248-176566
1731.77-170892-193042-184686-190676-228414-224006
1734.67-200686-196452-224302-177502-177468-177154
1737.56-182878-196568-197808-161182-171860-150730
1740.45-150670-183966-227944-210220-202300-205504
1743.34-206266-175192-169388-193582-230136-202282
1746.24-216282-203808-182660-184836-225856-222862
1749.13-214220-201500-228250-240506-217856-180190
1752.02-206632-203168-215352-234456-252890-198488
1754.92-205006-210482-207284-206612-178546-167968
1757.81-182166-154638-187936-206354-220450-224384
1760.70-242136-243370-211214-174036-199406-200556
1763.59-178556-180666-193928-182110-242152-235562
1766.49-203230-180654-198744-173968-156568-180312
1769.38-223998-203270-169576-153572-189000-203206
1772.27-222274-243656-276880-240390-206412-181628
1775.16-178744-161618-184514-169894-176040-203548
1778.06-216130-196190-165914-160700-198432-194788
1780.95-228172-217520-224730-224686-207392-192912
1783.84-214308-205446-190576-186126-196494-182496
1786.74-185148-196124-210122-199784-187072-185004
1789.63-205694-198772-208196-204818-219424-204046
1792.52-193372-182354-177842-178474-221792-246966
1795.41-220406-160164-150450-196152-212024-164452
1798.31-185308-222574-226680-198230-196884-220752
1801.20-247084-215888-215790-189538-181402-204216
1804.09-190768-186154-235338-210130-173892-192316
1806.98-197956-198324-209238-201104-198182-175782
1809.88-185014-176720-165060-157390-154036-153562
1812.77-195188-184750-194396-198962-232110-247696
1815.66-201238-126884-175486-220716-258924-177048
1818.56-156498-196110-173286-100582-172034-219122
1821.45-224708-167538-167294-207088-159142-113208
1824.34-182300-173632-171114-130292-129310-161386
1827.23-91770-61708-163132-221582-213092-126886
1830.13-132544-150462-70230-97840-215782-207306
1833.02-173388-79056-89342-119016-38528-90910
1835.91-197254-161818-157178-65794-99000-71814
1838.80 13266-79610-148096-174838-159880-73832
1841.70-87084-3010 29322-96534-134804-118862
1844.59-93302-48378-37468 51662-28592-125586
1847.48-133408-117898-8858 40362 65466 95006
1850.38-42504-100832-81878-44690 5690 89554
1853.27 159682 66408-7832-4018-50692 2758
1856.16 103848 169112 107982 15302-29624 1346
1859.05 44522 97620 190714 210454 72706 21318
1861.95 11960 742 50564 160818 141426 69878
1864.84 14228-7992 25716 55184 93534 97724
1867.73-24314-70550-62782-91616-129694-66330
1870.62-19462-68258-133782-126740-139214-162350
1873.52-135630-64100-20972 131776 294188 249206
1876.41 109136 36982-3490-54390-100514-126212
1879.30-112488-26474-13240-48720-53076-32588
1882.20-21438 13804 18546 107142 78542-28304
1885.09-57414-65794-59840 46700 210476 89252
1887.98-38184-17256-22064 3024 177900 260142
1890.87 87374 14776-41764-65448-3754 232340
1893.77 216592-4946-66158-53894-39008 99076
1896.66 217540 47194-108252-141462-136112-20410
1899.55 198134 165998-65834-150028-142062-110098
1902.44 90828 164858-26820-132252-158170-132406
1905.34 7986 118310 22532-115548-177092-154840
1908.23-8328 142994 48092-105134-205414-213938
1911.12-93952 76824 6462-116412-178234-171278
1914.02-102814 34438-10136-83872-172302-201208
1916.91-102290 11330-71302-99216-145088-173444
1919.80-129256-50274-87756-134226-223150-212434
1922.69-117338-64702-141772-167166-207250-142656
1925.59-73278-107462-171098-164518-187520-128656
1928.48-106422-133862-188404-224602-235336-137962
1931.37-129168-163262-185692-191302-207664-156880
1934.26-171264-171744-167424-186894-172094-154888
1937.16-182842-152996-192412-211904-157746-140826
1940.05-173744-165124-190166-168078-171920-193906
1942.94-215108-221290-199844-208630-231060-194524
1945.84-226766-236812-184528-144512-188446-222998
1948.73-239084-213750-225530-229218-206964-195362
1951.62-216044-191924-181276-213388-270594-255836
1954.51-238814-234124-207914-183096-231538-228974
1957.41-225828-213960-215642-209288-236038-193766
1960.30-172522-183572-218424-224948-199128-209382
1963.19-238720-237176-241462-212336-184992-196214
1966.08-200590-191150-224684-227632-234392-209688
1968.98-183712-199820-255856-271022-258862-215000
1971.87-182652-183132-198104-194750-222252-218614
1974.76-221344-218924-205318-201680-226442-223582
1977.66-238890-209268-220284-223630-245216-267116
1980.55-239590-173560-156632-195372-243356-247426
1983.44-233002-216216-211756-199468-215170-214582
1986.33-185466-191276-224186-231678-263518-223136
1989.23-211688-206898-190574-149638-159100-215432
1992.12-235814-208446-226240-230880-231276-219794
1995.01-205184-201984-204686-219410-243152-203002
1997.90-195042-217912-222162-209850-214712-175482
2000.80-191600-175090-190774-234398-246078-223150
2003.69-229760-237292-242288-218520-202042-173640
2006.58-178220-179392-210006-233888-230444-192006
2009.48-223764-245660-228934-207236-186082-149718
2012.37-165882-191600-209030-185702-177652-174054
2015.26-180918-202366-214944-219816-228188-203770
2018.15-179428-205494-255048-251946-246830-255206
2021.05-240304-199332-186860-167242-203484-226626
2023.94-203588-200760-203952-183078-204950-195882
2026.83-199276-192356-196718-221228-239184-214662
2029.72-184452-185028-185048-194744-179780-167654
2032.62-182512-157812-150550-152898-147894-106580
2035.51-100280-122994-135068-130380-105236-110310
2038.40-134610-92572-95488-72964-66806-42080
2041.29-28868-31240-44636-31284-30696-27932
2044.19-16394 18532 39532 45586 50574 57846
2047.08 63064 116262 73692 51598 82530 94000
2049.97 64824 73374 97754 110370 87934 77758
2052.87 62416 82172 33294 34722 48214 48672
2055.76 72644 112536 71400 42776-656 2838
2058.65-1254 32474 12066-54866-116788-130164
2061.54-152472-131962-133948-111598-39312 63674
2064.44 22052-3716 51398 79984 92792 131108
2067.33 91468 124408 218234 225328 206222 235984
2070.22 208526 190182 207862 202482 194494 288462
2073.11 252808 147798 111334 87032 54488 63908
2076.01 30478 54502 144094 91334-26880-52214
2078.90-91924-74950-77418-107288-87106 15772
2081.79-19740-143152-197374-213120-161180-133948
2084.69-181244-185902-31096-25258-172568-180566
2087.58-206514-220188-210870-208164-160968 47958
2090.47 12540-131596-154416-174522-214086-221648
2093.36-231704-105618 96956-38188-190126-178766
2096.26-166246-179584-200386-193196 3944 189514
2099.15-47160-211620-253372-217874-167294-172994
2102.04-167888 118574 147638-137272-226500-213786
2104.93-231832-239820-242566-62646 219916 47430
2107.83-166082-160830-176306-223764-243350-173728
2110.72 99072 184438-135304-219166-204958-172146
2113.61-204178-208542-40006 275684 60136-224186
2116.51-273566-223074-194164-167960-144602 123980
2119.40 162718-145628-236450-205576-211930-209334
2122.29-188504 12470 243440-4162-195272-203398
2125.18-193754-199632-200294-68996 163404 30472
2128.08-151876-174160-210308-235722-218660-137304
2130.97 55104 5366-199984-242340-254856-229730
2133.86-185486-149178-37468-55614-189418-191646
2136.75-195890-219056-210626-143468-101112-116390
2139.65-201204-225664-241756-226336-229916-248054
2142.54-247290-193330-208752-201440-188888-198686
2145.43-212778-196088-123372-146772-222182-201324
2148.33-218386-219428-233538-171416-51918-66936
2151.22-168700-165404-197096-219040-233452-74434
2154.11 102670-70194-221672-213992-215278-206514
2157.00-175240 108432 204960-91810-238628-211720
2159.90-203022-224012-112028 203064 73904-167394
2162.79-197408-206182-183590-174800 114362 336164
2165.68-23280-227364-215388-201588-186702-38842
2168.57 296728 163646-183998-234534-243840-223996
2171.47-189342 135874 250234-69358-207416-227204
2174.36-208730-180114 33820 315932 40692-213288
2177.25-239318-205674-229342-57752 299792 112092
2180.15-222780-237380-216528-204716-125386 199924
2183.04 132470-182082-237838-231590-218994-150140
2185.93 86082 85046-158146-228084-223350-159228
2188.82-127686 91066 42946-208252-228372-210058
2191.72-222634-155814 73376 51886-181854-229050
2194.61-261032-267830-202750-36-80026-252786
2197.50-258304-211576-196408-93206 14794-89162
2200.39-224214-232374-207892-197858-156380-113646
2203.29-200644-268686-262560-204702-192494-96030
2206.18-92150-144926-173908-178762-196150-176032
2209.07-146204-220500-242758-209140-221078-190762
2211.97-138688-171524-201176-205636-249908-269480
2214.86-220898-142704-188218-230840-231104-215848
2217.75-220370-189158-216102-222314-200028-199268
2220.64-199498-169994-226614-249482-257190-285978
2223.54-251744-195154-210702-204554-220318-206682
2226.43-223446-188910-197702-221206-207478-206686
2229.32-245830-212288-194044-188534-140546-120872
2232.21-147838-128316-130810-143578-139164-127526
2235.11-141990-160846-169490-143536-189776-190766
2238.00-147240-78180-70562-92374-110190-115024
2240.89-111734-121024-181418-199608-171970-148710
2243.79-166788-144708-104394-45236-31994-25322
2246.68-60120-54082-64070-91580-103146-85260
2249.57-95176-74250-85998-30900 50624 132340
2252.46 136620 129408 47820-13860-19686-19012
2255.36-18902-30736-78216-85158-80732-13166
2258.25 108864 214406 227674 201902 117574 146656
2261.14 153834 71390 60554 114274 54300-42834
2264.03-62608 98976 259532 341106 357072 340614
2266.93 276940 292278 336250 327428 383890 447472
2269.82 312730 188970 95568 100916 231886 439912
2272.71 533150 523798 358112 354928 525868 540210
2275.61 458280 549830 472152 307502 206266 208810
2278.50 353194 658908 846284 664894 298114 262062
2281.39 326890 320782 396932 739166 848190 603122
2284.28 290698 245364 255270 165998 387780 693722
2287.18 596296 374354 219554 224240 252994 305274
2290.07 371956 426630 273196 140744 93400 140768
2292.96 189090 146380 159144 226006 185138 231042
2295.85 243870 210266 156990 280526 344892 259344
2298.75 353358 680596 851860 1062120 961452 820946
2301.64 795612 873318 818530 883634 1037192 1213572
2304.53 999298 795234 847790 1275864 1609692 1456946
2307.43 1145938 1134148 1354380 1347638 1097884 1232910
2310.32 1502872 1397912 900386 880296 1312974 1852690
2313.21 1362730 1064146 1200068 1708946 1157640 713770
2316.10 1020568 1979240 1563146 782478 1004650 2091954
2319.00 1751792 708250 853486 2186404 1982220 766484
2321.89 923832 2384966 2214868 794222 1071704 2730920
2324.78 2385646 667246 1133452 3087688 2572718 763794
2327.67 1667146 3616364 2488144 651528 2191510 3912614
2330.57 2109146 711726 2937236 3911736 1464846 1098984
2333.46 3833946 3605318 954312 1896670 4275988 2634024
2336.35 838916 3017884 4012046 1428760 1354436 3754304
2339.24 2796552 803686 2502526 3609464 1564318 1351198
2342.14 3123758 2199124 842964 2037176 2322500 833496
2345.03 1025124 1743130 924896 486528 1023928 827606
2347.92 332306 227172 333658 584768 467258 547206
2350.82 1285888 1013578 685016 1922978 1817092 978132
2353.71 2563040 2705844 1431702 3010870 3133816 1578968
2356.60 3384110 3363916 1753982 3851856 3501692 2039928
2359.49 4210548 3200922 2395804 4532400 2858186 2878692
2362.39 4350380 2328930 3392504 3681008 2129800 3694548
2365.28 2665974 2340726 3385550 1945162 2883298 2515470
2368.17 1884784 2718032 1632882 2153382 1770712 1448754
2371.06 1766400 1006856 1409384 931046 1047806 881002
2373.96 739714 824094 560472 642678 393828 439474
2376.85 235076 272690 147114 112640-26502-74254
2379.74-83776-103004-113722-89528-151256-163326
2382.64-198888-244522-246080-196806-230704-301542
2385.53-326394-324544-270486-230794-255804-292394
2388.42-317304-311354-307368-265658-301460-308890
2391.31-325778-337162-307844-295726-304392-292142
2394.21-289926-265604-285886-277454-287218-279988
2397.10-256350-234364-312774-345012-309448-266506
2399.99-206284-222408-280790-272894-299044-331570
2402.88-317792-281784-311942-332130-310644-303002
2405.78-278850-287294-265898-266678-310906-284850
2408.67-267688-251246-265358-254948-250914-282360
2411.56-286716-274440-285632-281042-275282-270946
2414.46-250092-261992-275790-301648-280438-199546
2417.35-218890-239680-241770-227440-195416-213258
2420.24-285528-308262-265238-248448-231252-185552
2423.13-197386-211894-202892-163320-193168-193440
2426.03-164174-174950-172790-185620-193300-188354
2428.92-152828-100848-138496-164664-171494-122528
2431.81-106804-116256-131056-117238-80650-52672
2434.70-74980-71120-86826-126776-117766-65160
2437.60-40072-53808-40946-37730-25716 11850
2440.49 22418 46726 46380 54608 77118 118944
2443.38 106896 124906 162830 201986 212338 249878
2446.28 316330 325424 310332 409832 467584 478156
2449.17 510514 571126 564626 571960 635344 746714
2452.06 739434 794408 930218 980962 911912 960310
2454.95 1093928 1189136 1211930 1271544 1364204 1529452
2457.85 1600080 1574554 1767764 2054252 2034290 2001616
2460.74 2291668 2570452 2483824 2534994 2927658 3103690
2463.63 2984198 3187590 3610516 3768822 3665108 3860440
2466.52 4379142 4459966 4327706 4769610 5266784 5118130
2469.42 5185472 5945482 6299050 6100832 6530842 7463532
2472.31 7555910 7417248 8276964 8999346 8717444 8855552
2475.20 9556498 9404440 8928928 9777216 10613040 9976094
2478.10 10069050 11503090 11428570 10870070 12231430 12911800
2480.99 11976980 12754500 13965300 13042700 13067200 14598150
2483.88 14027180 13308040 14562250 14467530 13251420 14287820
2486.77 14575710 13176810 13895480 14345150 13019110 13316470
2489.67 13862710 12783190 12908300 13204140 11670620 11003740
2492.56 11228540 10524120 10853650 11588730 11501460 12494500
2495.45 13614000 14446990 16143870 17789860 19176110 20617290
2498.34 20644230 17274420 9604968 3774932 2412720 2523238
2501.24 3117242 3547810 4413276 5484886 6303040 7784836
2504.13 8974934 10359280 12265740 13041280 14887400 15716890
2507.02 16557780 17924350 17947120 19375490 19143790 20032610
2509.92 20074060 20106340 20433450 19822430 20274680 19385090
2512.81 19571790 18572020 18440060 17504990 17114030 16179890
2515.70 15541790 14647860 13890030 12936090 12061450 11165710
2518.59 10300000 9444260 8613276 7756740 6927946 6100106
2521.49 5431022 4790868 4197710 3590656 3011634 2521472
2524.38 2135132 1750218 1363554 1024226 819154 605500
2527.27 403338 262608 173600 115622 43162 7618
2530.16-40752-112856-131760-129474-130542-148362
2533.06-184366-202284-209232-199156-145406-152300
2535.95-166496-181588-192240-161572-96912-127404
2538.84-160582-166122-182358-183000-149520-142654
2541.74-146814-174354-189096-222676-237808-211022
2544.63-178898-144552-118998-122330-130816-112662
2547.52-142596-193320-201902-211066-262470-238350
2550.41-217202-211048-195798-226196-232348-196026
2553.31-110452-92236-155018-182028-205002-218190
2556.20-204018-186616-161772-170546-173726-212626
2559.09-224534-226340-215788-220028-210734-183090
2561.98-169352-179246-177366-139248-157826-184352
2564.88-202192-196754-178014-203346-200672-222970
2567.77-219992-213704-220198-169710-130016-176998
2570.66-232002-223486-226830-205454-130774-125578
2573.56-203432-240082-247154-208272-210988-213994
2576.45-187030-182524-198250-225476-239760-185644
2579.34-140014-138032-171814-179558-165986-150392
2582.23-203968-210846-168306-207202-234162-212664
2585.13-198314-177108-178568-188298-202392-191080
2588.02-199224-183158-142898-203580-241330-223516
2590.91-196008-173468-157424-147120-177806-214424
2593.80-223178-227356-222614-203672-174650-164470
2596.70-192596-272894-269736-194042-121378-157486
2599.59-215582-139112-144522-182560-164274-152744
2602.48-178232-238604-250136-242730-212926-191342
2605.37-194760-211970-199854-169266-153182-164892
2608.27-192260-210496-246722-247400-203946-213458
2611.16-246676-304434-312880-279860-269330-264608
2614.05-212004-155410-171020-209858-253576-275856
2616.95-285164-300460-310902-270712-246960-259586
2619.84-238578-294516-320682-250018-253936-272966
2622.73-267626-282892-277454-280778-276022-294750
2625.62-291086-290692-337882-324876-301602-286160
2628.52-307140-328560-342422-369810-336092-310034
2631.41-339226-339982-367466-439998-385222-370620
2634.30-414800-419908-427750-433230-443346-478014
2637.19-513716-485950-479754-498154-437508-440980
2640.09-515202-495082-518014-582404-570708-546584
2642.98-548216-548694-567072-635790-635606-583266
2645.87-640448-678508-740980-773634-756960-728896
2648.77-686842-626122-729052-841672-833786-844282
2651.66-845852-813570-847104-921116-933668-925172
2654.55-859476-802916-875544-966626-983526-994074
2657.44-999058-925260-948522-1042052-1085898-1102562
2660.34-1070202-1061726-1058458-993656-1007524-1059704
2663.23-1059108-1091426-1071978-1063148-1119240-1093870
2666.12-1072862-1195288-1175776-1154640-1233636-1233960
2669.01-1237414-1316304-1272132-1235934-1263154-1198700
2671.91-1235956-1316242-1303084-1281770-1244240-1233534
2674.80-1309268-1283640-1289904-1253286-1181110-1297228
2677.69-1397566-1386114-1444624-1372212-1259334-1304128
2680.59-1373106-1374654-1393938-1333790-1286908-1285914
2683.48-1305968-1338444-1338208-1332430-1361280-1377974
2686.37-1478860-1532522-1436914-1303972-1238086-1274862
2689.26-1390142-1479516-1478304-1449130-1423672-1341154
2692.16-1284382-1337244-1420878-1386852-1377372-1445024
2695.05-1400946-1390084-1361672-1256620-1227922-1292418
2697.94-1356942-1395920-1409286-1346462-1301038-1286978
2700.83-1316394-1364818-1413220-1360148-1324830-1376174
2703.73-1405264-1362144-1288234-1222518-1268070-1295330
2706.62-1308472-1323410-1283960-1259618-1279926-1286364
2709.51-1299238-1255868-1194634-1244918-1329662-1344666
2712.41-1355896-1348114-1285676-1255810-1228144-1276864
2715.30-1325074-1313468-1329706-1329194-1419034-1463258
2718.19-1418720-1398630-1432278-1483710-1473984-1420990
2721.08-1379632-1405324-1405706-1246288-964656-646020
2723.98-518016-589788-646456-657990-709690-783900
2726.87-878698-912330-878390-927166-980272-1150326
2729.76-1259172-1189178-1129740-1092316-1093396-1123198
2732.65-1137346-1164464-1143664-1187416-1279270-1240458
2735.55-1209950-1181854-1249506-1327192-1326402-1364510
2738.44-1410390-1367632-1345802-1453482-1441088-1390032
2741.33-1418720-1443028-1451466-1481156-1435350-1419030
2744.23-1468322-1457640-1419206-1385954-1425232-1507210
2747.12-1489284-1432608-1414650-1419866-1455586-1485898
2750.01-1493206-1498672-1465628-1461882-1500704-1484170
2752.90-1397592-1350366-1450046-1494244-1459374-1429758
2755.80-1437868-1463234-1473036-1450346-1419268-1427594
2758.69-1430254-1408984-1405860-1441736-1475086-1540860
2761.58-1453358-1339922-1365580-1452146-1423540-1315068
2764.47-1283956-1388092-1396672-1391072-1326964-1269470
2767.37-1263682-1325820-1319274-1265010-1228898-1250596
2770.26-1266358-1206376-1149658-1119964-1163810-1211472
2773.15-1155430-1098642-1124172-1106560-1067778-1024280
2776.05-1028842-1015322-1034860-1005924-953078-950320
2778.94-927460-820362-766726-806218-742024-629512
2781.83-650698-706946-660098-592914-595326-551802
2784.72-562614-616578-608360-487840-460038-446526
2787.62-380130-402150-453476-446254-384328-356058
2790.51-356584-361670-368384-366758-326804-305400
2793.40-279632-296724-329722-267214-254808-297110
2796.29-302540-248502-235810-218426-220672-246624
2799.19-267118-252884-233658-187226-210126-226962
2802.08-193430-136656-140426-181702-165472-129912
2804.97-196210-214338-201110-155360-222624-271140
2807.87-181248-192460-213152-190420-178626-169910
2810.76-228846-231914-126992-95012-154556-222628
2813.65-272876-245174-204460-161942-133064-158426
2816.54-207666-173738-152550-142656-108958-134140
2819.44-197778-208172-205620-131602-124246-195916
2822.33-184390-167486-188386-213064-160216-105706
2825.22-107862-151624-169960-160396-202270-239496
2828.11-269400-230228-174722-175548-226284-230280
2831.01-211264-219454-204608-183412-117544-122186
2833.90-137780-130972-134750-233422-244260-167738
2836.79-162368-196618-228480-167930-93630-118326
2839.69-204916-229144-247226-163214-175868-204960
2842.58-205876-176518-144350-172780-186400-184936
2845.47-172284-182230-257146-221982-141796-126310
2848.36-133886-194034-192180-195222-214984-220654
2851.26-179624-124210-118074-123956-201586-204302
2854.15-176222-211104-247000-222324-228968-226220
2857.04-175064-162882-226184-209830-185054-222920
2859.93-196922-99732-134710-220530-247568-260698
2862.83-220318-191210-210276-184414-130220-124018
2865.72-116192-166710-178380-175320-203496-162786
2868.61-171946-203902-181714-120668-80160-113360
2871.51-218678-246270-237418-190498-132032-172962
2874.40-235380-272594-214206-177420-180444-153436
2877.29-192490-211764-209580-230938-229684-184030
2880.18-150844-111338-158792-222746-191952-161088
2883.08-204742-171978-115052-172424-224098-216932
2885.97-172272-159168-214722-216356-176736-112664
2888.86-83840-96812-122576-205542-239928-141706
2891.75-110114-191202-197144-106542-90052-135018
2894.65-199450-185972-241948-304738-246994-214520
2897.54-263300-250842-200338-220068-200908-130132
2900.43-157742-179330-166748-156002-138696-115028
2903.32-128032-194790-209522-202222-186950-90132
2906.22-109294-176130-195624-132634-156948-240638
2909.11-273912-258650-153190-133394-132066-129016
2912.00-163702-198204-253028-171034-83258-92168
2914.90-117924-178856-212298-134400-111394-181172
2917.79-226908-204672-163196-183122-266952-231728
2920.68-119930-162576-246720-162868-76674-108044
2923.57-207538-275622-197330-172506-235254-209836
2926.47-151176-171676-175098-196728-232350-209812
2929.36-168066-220620-279698-237716-205888-183094
2932.25-114396-147538-207820-132742-141750-234906
2935.14-208356-167650-205914-200850-198968-261260
2938.04-264490-165012-129416-160428-176014-192578
2940.93-98656-70578-197838-223808-183278-119696
2943.82-130138-195928-189116-178878-209784-230032
2946.72-220478-244578-268466-220736-179064-239740
2949.61-219782-137762-213748-283806-219118-183366
2952.50-176722-179532-131368-150432-226644-246728
2955.39-249170-276674-298778-316476-227036-156480
2958.29-187200-167936-154424-175720-118372-73446
2961.18-163118-199020-151332-123784-111106-202308
2964.07-226472-151988-158644-124108-116292-194342
2966.96-168534-143312-176198-196580-195764-222316
2969.86-168564-119390-112168-124048-199800-193488
2972.75-147192-168564-120290-72132-128546-149654
2975.64-186284-244442-258406-188354-98920-95778
2978.54-121650-132576-150664-206148-168328-108306
2981.43-108366-105852-117198-189528-200124-119628
2984.32-69684-125806-156968-145928-138298-113676
2987.21-142132-158240-208276-273450-261426-164364
2990.11-83950-117972-182472-202760-190310-227338
2993.00-240200-180024-199026-247826-232662-265954
2995.89-287078-236458-137544-84336-75944-35094
2998.78-53570-176386-221092-254792-247290-157702
3001.68-172416-182882-185166-214746-263040-285180
3004.57-203114-121522-140294-216280-255946-210166
3007.46-238294-232120-199762-207684-255240-201846
3010.36-108002-86654-149148-245760-268652-199818
3013.25-131150-133806-102854-143958-231048-218088
3016.14-209258-259482-270342-259262-207078-168732
3019.03-148534-196096-210312-183708-139870-125560
3021.93-171234-217796-218542-202300-178016-218152
3024.82-287614-257770-187756-132736-93070-93744
3027.71-159502-206870-247938-223942-154702-102306
3030.60-95810-88938-95728-133462-156780-179886
3033.50-143596-125296-169776-220526-159998-162168
3036.39-186370-127332-155150-179332-143760-185440
3039.28-218962-165860-149266-158148-183148-177590
3042.18-169206-191474-167168-102876-102422-153480
3045.07-153414-151934-155676-177128-225576-206904
3047.96-196296-264326-297598-233454-166012-142678
3050.85-170502-179482-184120-208392-228202-197486
3053.75-169058-176194-150870-118256-126892-200148
3056.64-250318-198212-90934-65452-98214-133972
3059.53-121364-183760-237942-207558-214320-176196
3062.42-128080-149642-207978-238622-256464-260932
3065.32-194736-188520-172222-119596-153032-183832
3068.21-121422-74388-43034-59886-145614-208740
3071.10-162520-157538-184016-170732-175214-170558
3074.00-89648-117944-196078-171486-88126-130010
3076.89-113078-68400-77096-130024-206782-143704
3079.78-116914-140128-149966-133454-153526-146816
3082.67-198606-208006-185774-150738-139624-139754
3085.57-119726-140772-191644-152420-98924-149750
3088.46-198602-173714-141178-207536-269460-234654
3091.35-208422-186850-144352-141902-167502-181616
3094.24-172016-122540-54326-98552-117292-92826
3097.14-183506-239572-151076-83424-113536-184724
3100.03-188288-149614-99398-88070-172942-201318
3102.92-223546-187526-190426-246038-232416-226170
3105.82-165780-103842-181652-194624-179424-162460
3108.71-197798-207712-160540-158988-249460-208234
3111.60-209572-259520-240414-149874-74162-159154
3114.49-206166-209480-252120-230592-170850-164964
3117.39-207698-150744-109774-159256-141526-137424
3120.28-142596-96238-182546-195138-162694-195514
3123.17-148050-88062-85174-138428-151794-171258
3126.06-193926-211310-195110-133710-63338-100896
3128.96-127704-136626-238364-320838-240472-196096
3131.85-177448-111866-129438-141958-134362-184532
3134.74-201832-155146-186998-253434-212082-195504
3137.64-205468-170044-77244-87224-157532-133012
3140.53-156958-135354-116994-68052-108114-227830
3143.42-183528-111870-181936-254726-229502-172896
3146.31-189760-222002-117392-66084-53146-76490
3149.21-132560-205018-180066-183446-159346-84772
3152.10-64722-84624-78590-151062-231406-188628
3154.99-201302-214426-226586-230210-178770-165288
3157.88-193972-191060-212858-249112-211300-238522
3160.78-286238-216972-146070-115462-136782-143648
3163.67-203818-185180-115964-143122-250580-271808
3166.56-141918-150352-173186-166718-131640-102828
3169.46-133574-196106-225092-208806-229048-241334
3172.35-192174-162542-169924-193878-187116-189200
3175.24-205644-183718-184562-148796-61170-106252
3178.13-183796-195098-145904-91114-102116-130202
3181.03-205750-242878-222756-131960-93276-150148
3183.92-155418-146516-176124-208164-200388-168904
3186.81-197574-234868-159776-89632-102446-139174
3189.70-133052-155834-150942-106976-103242-172872
3192.60-165834-159258-141018-127166-136852-220704
3195.49-166438-51670-153926-190072-197238-161254
3198.38-106792-73814-55074-168738-218736-132234
3201.27-142238-131058-126618-157796-173720-162236
3204.17-174422-127964-164170-213152-208070-163170
3207.06-180190-210756-246306-205832-92636-127658
3209.95-120584-85824-79780-138164-200706-235732
3212.85-185076-139624-151942-210256-236886-213800
3215.74-110896-111300-156214-173388-109270-95704
3218.63-190492-163980-89420-75366-107010-98886
3221.52-135700-236132-228630-200226-170030-62760
3224.42-53576-178062-219302-132892-107614-154318
3227.31-185744-181614-99328-147348-159344-88522
3230.20-76326-125984-173162-179540-201654-231322
3233.09-190268-146198-159542-215790-224638-146150
3235.99-153500-105604-57898-112638-130222-201494
3238.88-239884-173070-124774-42272-43988-154998
3241.77-184658-137920-127520-93276-65372-157204
3244.67-235894-330078-317500-157652-114056-28304
3247.56 17686-98190-208184-193644-135840-147728
3250.45-137520-143090-142842-131392-124076-141924
3253.34-160578-190610-171068-111046-85534-122282
3256.24-167424-139268-190152-255742-138422-157004
3259.13-197556-180012-163842-158914-154542-149640
3262.02-155618-113778-127678-166490-197338-271124
3264.91-269766-178468-172176-122624-157198-182238
3267.81-84978-149836-213048-221306-161546-138276
3270.70-208032-181794-150364-196420-221112-211316
3273.59-236400-209108-177882-121772-127808-232780
3276.49-305744-264786-172316-173338-169116-144860
3279.38-159184-177574-177480-109860-91570-130624
3282.27-130092-167498-188298-232466-230216-123682
3285.16-54358-18920-47812-157840-267420-228776
3288.06-80716-99810-214738-246990-283538-285726
3290.95-217894-231026-184972-74394-120694-196604
3293.84-190120-160428-160760-186330-149528-134700
3296.73-147918-74762-57166-124798-176182-195694
3299.63-211248-164542-103714-75370-86180-112766
3302.52-171010-185140-126850-126346-86240-105180
3305.41-129934-171154-177138-192006-89180-76320
3308.31-142738-144842-178670-118256-87990-113996
3311.20-75022-75962-94130-113734-101782-136914
3314.09-196968-159374-195866-206570-151434-72440
3316.98-94554-114780-160144-219948-218628-220710
3319.88-169918-146374-191808-141946-101900-179800
3322.77-113990-32358-51012-99404-164286-157832
3325.66-62686-104974-247100-289984-165078-105820
3328.55-183248-108530-109328-255992-214676-126086
3331.45-80132-102012-135682-221134-343576-283910
3334.34-192974-248368-288148-118482-10866-50248
3337.23-91600-160774-241504-190618-120834-137792
3340.13-169688-166940-148352-158816-254758-243526
3343.02-135732-140400-171866-89368-53300-95484
3345.91-100122-77924-135486-168890-44990-39416
3348.80-156466-123642-90022-80694-189204-207092
3351.70-207428-120212-98234-213458-205880-75638
3354.59-16734-59058-120604-175354-198720-214084
3357.48-213650-204540-142932-169504-253580-259108
3360.37-182022-114304-139572-178586-177560-146668
3363.27-151698-146296-116000-136120-135010-69886
3366.16-87922-149564-214172-191500-136446-181468
3369.05-206004-31162 10536-112564-86808-80818
3371.95-114704-177164-205260-249238-233840-196612
3374.84-199482-217704-127732-43322-100566-144618
3377.73-179630-148450-92374-240400-344592-222412
3380.62-241612-226238-69222-38754-90390-94524
3383.52-26358-19278-145846-288874-270770-177602
3386.41-95212-123132-242566-212910-178632-229492
3389.30-187900-69994-66316-125610-136346-80672
3392.19-12332-69190-41960-29540-110496-225328
3395.09-354172-314810-136044-109576-238590-237972
3397.98-184502-241584-208168-82538-75834-138804
3400.87-106838-130506-129348-2600-70102-183668
3403.77-192592-179912-128304-156864-203176-130836
3406.66-45320-42498-156776-180156-52270-48730
3409.55-177294-260450-210828-111590-133424-208116
3412.44-195030-44188 6700-114292-215656-202768
3415.34-138082-180594-300098-291794-219830-176312
3418.23-181338-151922-154298-67124-29382-104406
3421.12-151110-141646-194218-224016-201628-136436
3424.01-50434-106504-135974-135926-163982-216394
3426.91-215836-180452-155588-163024-185284-148470
3429.80-156386-194300-137214-66942-51082-88930
3432.69-130032-118248-134062-83832-87486-138858
3435.59-111198-114040-114664-84550-80536-212944
3438.48-196146-159170-126768-95976-100886-57656
3441.37-114570-223482-140922-100332-120494-94956
3444.26-76276-180692-197062-186996-277080-253048
3447.16-112830-97920-144708-135780-191976-189732
3450.05-39322-34342-171366-176070-84080-155842
3452.94-201004-206642-257266-180538-22208-39824
3455.83-48380-71976-113756-96056-74910-96290
3458.73-82778-48010-123806-174732-3260 60018
3461.62-76928-201702-254246-196314-127192-117752
3464.51-145060-124902-71762-150216-207380-257182
3467.40-250216-304730-258330-139854-169928-236588
3470.30-200944-157650-189246-174654-137022-170422
3473.19-134374-109412-198408-178252-206544-257498
3476.08-216588-157214-57608-41852-115388-163106
3478.98-185600-228882-180854-149382-143870-136392
3481.87-131116-124336-122782-116434-83102-64538
3484.76-90346-103328-172760-324094-224118-114048
3487.65-166446-165936-197210-203858-226300-247208
3490.55-141776-157464-208418-161962-186026-214046
3493.44-243898-238248-155232-154092-230194-184022
3496.33-123112-147656-93540-144192-172696-95836
3499.22-108134-37976 46104-58178-204948-308690
3502.12-276142-205998-137722-117810-135484-222448
3505.01-232558-162426-153748-169984-155982-176166
3507.90-162912-84244-178246-281052-221716-147788
3510.80-209900-251590-176608-166608-214462-215198
3513.69-188694-272840-261064-174876-153464-74650
3516.58-15940-53790-50658-113996-236466-182332
3519.47-104746-92806-196332-226872-171680-205342
3522.37-155792-204360-217318-132946-90970-52282
3525.26-64468-146326-115286-109300-172612-157198
3528.15-189070-211238-206068-175184-186004-248736
3531.04-264050-193384-169290-129084-71410-111664
3533.94-228652-202234-162698-112836-99746-107406
3536.83-100642-148764-206712-249184-268970-163346
3539.72-39650-120258-181086-167502-159710-104802
3542.62-67092-94736-156060-176106-143564-229448
3545.51-289528-244828-111462-94412-95738-55208
3548.40-94896-150398-217912-164628-138004-170892
3551.29-137420-108754-77670-25112-74648-90786
3554.19-95658-141504-151580-148308-202592-259848
3557.08-297626-238144-131214-131098-205886-187588
3559.97-124100-89410-134610-136182-84000-127838
3562.86-195930-193844-151352-132732-79588-56182
3565.76-170054-192194-91642-89548-93034-110712
3568.65-189402-181790-222684-201528-118176-81922
3571.54-102326-258988-251978-109104-73268-141532
3574.44-225896-264494-204210-131292-98910-35148
3577.33-2396-94760-200522-263136-265090-227238
3580.22-158806-157018-149964-127184-106264-70066
3583.11-58652-74056-72552-80014-105182-170940
3586.01-186968-104420-51034-140570-223994-221460
3588.90-200636-173076-129382-189022-203836-195648
3591.79-186342-159844-138418-59776-16150-74972
3594.68-68980-20050-29964-51004-183410-202668
3597.58-85322-48454-89270-103340-101858-118092
3600.47-126328-145228-144744-128212-107122-63350
3603.36-88898-72436 2620-4360 36332 86624
3606.26 36260-102738-134560-79016-65768-95166
3609.15-89046-73062-111282-63046 10764-24820
3612.04-80858-37804-23482-65884-17734 42636
3614.93 9338-12748 7168-38142-28850-17434
3617.83-66580-56436-55252-72334-137192-111486
3620.72-30122 9640 41398 17588-3412 92976
3623.61 123718-38386-114898-23386 29802 40118
3626.50 6306 86684 196460 177114 91584 34550
3629.40-59392-155000-213028-151300 32594 118574
3632.29 6036-105900-111212-106576-107170-16270
3635.18 55368 102936 109416 20270 44378 91100
3638.08 131620 83780 51816 31884 86244 149684
3640.97 85916 67914 118616 96404 55634 36812
3643.86 46880 51922 41364 18088 28484-4760
3646.75-23564 49574 14068-43290-53390-63872
3649.65-70126-50318-51796-156308-208004-228620
3652.54-230198-185560-177762-194236-193124-119810
3655.43-48390-94144-137572-147280-89910-42704
3658.32-139566-196162-138808-139712-190782-171834
3661.22-165584-66320-836-68946-98708-135950
3664.11-145570-105548-67476-112752-102492-51244
3667.00-116456-193192-231402-234548-112180 17934
3669.90-72786-178288-166034-166684-126962-122780
3672.79-156970-116202-102230-123784-160732-203980
3675.68-155302-115008-107024-113242-83340-88168
3678.57-134466-169182-173504-159520-176604-68860
3681.47-61998-148346-155210-111376-67602-104938
3684.36-134316-161790-88534 4900 14840-7368
3687.25-110654-190232-131136-98428-150224-118594
3690.14-17424-78546-176734-121636-88736-155376
3693.04-125138-14672-82966-144304-66686-40530
3695.93-98938-211198-161400-87400-107726-113268
3698.82-51938-63432-161848-169220-128482-137668
3701.72-117628-152496-112982-139586-200710-152336
3704.61-93706-128250-120280 29492-7226-75450
3707.50-69208-48478-79802-97190-103270-145834
3710.39-167662-57382-7368-93706-126022-92770
3713.29-130882-219688-228078-191774-154830-131100
3716.18-159370-128352-73782-79058-88760-61948
3719.07-86390-137730-153578-94140-45840-87936
3721.96-70966-51542-68934-90606-79380-95038
3724.86-82468-16696-44878-65102-43972-88192
3727.75-55562-88032-165764-185178-193574-102306
3730.64-34074-93738-79562-89742-34662-55156
3733.54-101304-2392-77192-198214-141648-166720
3736.43-145938-114794-91098-39290-115132-212398
3739.32-184812-136798-134202-127918-72076-81184
3742.21-109710-43950-35562-96286-136490-133926
3745.11-146588-188202-235552-233520-120484-65174
3748.00-95110-134500-180988-222212-184370-161080
3750.89-113978-97716-115186-137660-129238-125080
3753.78-139322-112026-111380-153238-167360-161158
3756.68-168300-273096-269162-129914-108020-149036
3759.57-188438-211866-195466-109828-60026-121488
3762.46-118416-137560-127404-63214-41600-178500
3765.35-258472-227012-189512-119670-106776-108968
3768.25-102508-89442-118868-197380-159096-117736
3771.14-140754-140704-124882-150994-130868-90572
3774.03-71656-143772-192610-181202-189948-191200
3776.93-151846-101924-83350-39068-69178-169934
3779.82-187364-125242-109568-107276-104516-76818
3782.71-77954-139728-155276-177490-211754-187788
3785.60-141566-67000-70390-144236-165966-228416
3788.50-263190-254398-160352-59468-92720-169128
3791.39-187368-189434-193144-126390-59120-38124
3794.28-52292-114244-155888-168434-216200-240560
3797.17-134704-45100-114262-210420-249404-213274
3800.07-108188-126116-181050-145124-180440-171878
3802.96-77250-17986-28202-83756-126850-170518
3805.85-136758-117550-172828-186546-85826-47340
3808.75-77798-109008-109734-92704-117400-155470
3811.64-199332-151954-144814-166216-153484-119264
3814.53-111422-84332-70614-102866-109774-165938
3817.42-201098-199484-136080-151508-124306-91636
3820.32-110356-114560-121808-120820-86538-90550
3823.21-108592-107058-113452-121288-162978-223468
3826.10-134238-33052-110136-123736-38262-100050
3828.99-192682-149048-52682-65570-107368-123378
3831.89-94690-77898-117286-79452-32962-85112
3834.78-97546-55574-107990-200390-217830-163586
3837.67-45392 12676-81804-221380-221720-110386
3840.57-74970-140634-154286-169956-124238-48038
3843.46-4658-44180-40608-38200-91442-75356
3846.35-6696-58140-133202-145426-105318-102184
3849.24-51906-43160-124254-101740-75842-135020
3852.14-129194-71656-109436-131156-91796-142760
3855.03-219790-162154-82746-56016-62410-156370
3857.92-175766-125182-101108-115868-49418-14974
3860.81-25196-75502-51760-193798-235594-135906
3863.71-121570-231166-232254-162460-110418-155304
3866.60-111712-82860-145600-113648-113000-150084
3869.49-139142-37750-13718-47386-42594-90144
3872.39-189074-162024-127116-127002-113434-143208
3875.28-153584-169968-159046-140634-119880-55698
3878.17-19336-119336-166078-184162-196116-156016
3881.06-125082-78102-48952-101878-139698-204436
3883.96-200886-121318-95038-159064-202858-119178
3886.85-94608-64260-95602-189962-134212-45452
3889.74-60704-99592-128896-188352-150808-94202
3892.63-60294-158244-254822-223864-194712-187594
3895.53-134374-103110-95766-129186-149894-216058
3898.42-121422-14132-22618-92870-65888-62926
3901.31-71048-162196-213878-147616-165392-179388
3904.21-126280-176436-245420-257498-295548-318972
3907.10-282480-260976-234806-134300-52836-82312
3909.99-87074-28496-20008-70852-112494-145426
3912.88-168288-119606-75554-137696-147026-146136
3915.78-140250-92172-127496-179010-212948-309194
3918.67-274196-173006-168742-144356-92270-129840
3921.56-134394-171530-181808-152596-197664-227168
3924.45-132006-148984-181222-211280-215022-149724
3927.35-169180-183874-78984-102510-209616-201378
3930.24-142722-120912-95834-141460-206150-219110
3933.13-131804-86838-127534-160978-135212-175276
3936.03-244862-186892-184936-146834-118086-119620
3938.92-89568-163822-167962-130024-170662-145708
3941.81-81576-80612-142304-184112-144048-109208
3944.70-109428-184434-208086-189544-152056-120088
3947.60-116002-82504 336-109364-253916-279710
3950.49-198890-160274-222548-228366-172766-229760
3953.38-202434-190034-189444-132492-139476-170454
3956.27-239962-262144-170590-59268-26616-81790
3959.17-81156-22938-70920-198972-209970-244198
3962.06-235370-135244-128230-203676-199248-161528
3964.95-104554-136944-175232-229580-205426-167084
3967.85-206814-244168-236594-136330-101132-143088
3970.74-238076-278144-223012-157150-205412-239404
3973.63-245346-275850-244728
##END=
