##TITLE=Sulfur Dioxide
##JCAMP-DX=4.24
##DATA TYPE=INFRARED SPECTRUM
##CLASS=IUPAC A
##ORIGIN=NIST, Anayltical Chemistry Division, 301-975-3108
##OWNER=COPYRIGHT (C) 1998 by the U.S. Secretary of Commerce
##DATE=98/10/1
##$SPECTRA VERSION=1.00
##$UNCERTAINTY IN Y=2.1 % relative (B=1.1E-04,C=7.6E-10,D=2.7E-14)
##CAS NAME=Sulfur Dioxide
##CAS REGISTRY NO=7446-09-5
##MOLFORM=S O2
##MP=-72.7 C
##BP=-10 C
##$NIST SOURCE=QUANT-IR
##SPECTROMETER/DATA SYSTEM=IFS66V (Bruker)
##INSTRUMENT PARAMETERS=KBr Beam splitter; MCT Detector; Multipass cell
##STATE=gas
##SAMPLE DESCRIPTION=Sulfur Dioxide Primary Gas Standard
##PRESSURE=101.3 kPa
##TEMPERATURE=23 C
##SAMPLING PROCEDURE=1 L/min Flow
##RESOLUTION=1.9290
##DATA PROCESSING=3-Term B-H Apodization
##XUNITS=cm-1
##YUNITS=(micromol/mol)-1m-1 (base 10)
##XFACTOR=1.0
##YFACTOR=4.5474E-13
##DELTAX=0.9645
##FIRSTX=574.687
##LASTX=3974.595
##FIRSTY=.0000153
##MAXX=3973.63
##MINX=574.69
##MAXY=.0008819
##MINY=-1.34E-06
##NPOINTS=3527
##XYDATA=(X++(Y..Y))
574.69 33841940 30878070 24968190 23093130 25438290 25865250
579.51 22413940 19662120 19363300 19736600 18612910 16713500
585.29 15766720 16075110 15351680 13737840 12881640 12613420
591.08 12287030 11088840 9978988 9629062 9163336 8469338
596.86 7694886 7392952 7483638 7257954 6426944 5460292
602.65 4819306 4934730 5248120 4818520 3831342 3211162
608.44 3357260 3470962 3010606 2563086 2526002 2624992
614.22 2422968 2092854 1925614 1808872 1603626 1474402
620.01 1384858 1201000 914074 711502 611038 612334
625.79 687542 662442 541862 407422 436752 665196
631.58 506096 171012 45446-62412-189076-278320
637.36-329830-263670-215098-235612-261990-146222
643.15-2922-69646-343166-432438-207286-2500
648.93-161034-462380-537592-297356-40162-34784
654.72-165104-246074-333120-415080-391330-329206
660.50-275998-286676-469042-696466-689198 638674
666.29 3386578 4014976 1771924 64830-415706-476820
672.08-505354-458428-261474-171574-299588-448566
677.86-482738-436076-396634-219052-134764-242588
683.65-290236-216236-130252-165366-376626-547706
689.43-501106-254746-175206-351118-434828-419332
695.22-512750-490482-338726-248618-189474-262820
701.00-491696-515888-355290-285910-448868-680244
706.79-739096-605600-517586-589366-639130-617688
712.57-604350-564784-525364-598966-790412-741182
718.36-486626-432410-549358-546450-476080-476156
724.14-518948-597122-630628-519924-464088-544742
729.93-626532-619348-593388-570586-504304-453652
735.71-537708-564348-545126-534388-485004-461542
741.50-542010-581014-455508-358594-427148-541884
747.29-588838-494252-383280-311124-307432-386730
753.07-478062-545574-540188-461362-397342-364706
758.86-389750-456908-611054-670192-580490-509236
764.64-513606-541068-560978-545114-582686-602354
770.43-522442-415078-350360-369760-486722-619060
776.21-668454-641340-560768-463208-487044-494788
782.00-401812-370752-437954-498182-574864-698502
787.78-742390-667922-570600-492868-500382-511210
793.57-524076-495528-413990-431518-473044-491222
799.35-602952-666796-682398-642520-459932-320316
805.14-372720-415766-408916-458216-555396-583412
810.93-542748-497798-523314-540470-448274-350180
816.71-377768-501200-505638-370368-394926-501346
822.50-470522-433358-507144-540974-467748-440436
828.28-505566-519954-532232-515442-467234-557090
834.07-673518-581482-451530-435122-449102-417336
839.85-414530-450554-489582-576366-705450-687724
845.64-529256-479990-549446-569894-575736-568448
851.42-553746-564896-618836-637328-531836-456680
857.21-478956-428504-417744-490966-522822-443414
862.99-384756-433850-496894-501776-461236-451206
868.78-518394-561132-510872-454084-502268-545518
874.57-476834-394312-414300-473758-480442-412490
880.35-388688-461460-506442-464276-431880-394434
886.14-372610-441262-503438-502428-542782-609082
891.92-598244-527202-487008-463336-462634-461884
897.71-455360-440250-434368-448900-430048-349632
903.49-293694-351504-468894-515154-467758-396274
909.28-434482-507302-486690-447198-414282-342010
915.06-286942-327748-468930-580556-604412-576908
920.85-566618-584588-542180-456564-454404-499560
926.63-515166-543748-536302-443468-415968-454858
932.42-493988-524578-479324-416790-469580-535524
938.21-514410-495762-553752-609822-566942-476294
943.99-480590-531942-540932-511100-456364-424788
949.78-452846-482482-473454-441514-443276-467362
955.56-510354-545296-526858-511528-527108-518932
961.35-487708-446842-420750-457002-509356-495438
967.13-472856-489760-479778-388714-346562-413754
972.92-468368-447380-382528-339330-389296-460198
978.70-481048-477800-476320-462420-468360-472398
984.49-418160-398622-433330-438278-476098-534544
990.27-544332-518320-471634-447702-461432-472998
996.06-467346-441096-458528-474910-451974-477002
1001.85-504284-483482-458938-443826-459974-500650
1007.63-527540-505608-480690-472664-450448-429770
1013.42-472972-527944-531094-505434-480060-475718
1019.20-478744-424862-397616-489156-559442-507560
1024.99-447758-445426-456764-469578-443442-376256
1030.77-337522-342488-364068-415030-491302-520536
1036.56-425538-274076-211726-236330-216430-174812
1042.34-182420-209778-197494-143670-95592-83810
1048.13-53814 6280 94574 209850 297412 300164
1053.91 283928 331014 419810 537860 723834 896570
1059.70 1031276 1214578 1424852 1559940 1670830 1854198
1065.48 2101742 2340414 2631258 2984558 3302916 3525384
1071.27 3781770 4212548 4714380 5016446 5349976 5922450
1077.06 6433552 6784156 7343926 8143410 8806642 9272538
1082.84 9950280 10873040 11680990 12164750 12900910 14215770
1088.63 15236880 15577780 16496660 18196570 19172790 19553260
1094.41 20999850 22822720 23821950 24785450 26239470 27536650
1100.20 29062810 30628440 31342410 32876760 35995580 37189510
1105.98 37253060 40708860 44206580 42904360 43660810 49393880
1111.77 50878300 49145820 54268800 60157650 58706730 60122740
1117.55 66836850 67166050 66794200 75368340 79436060 75338630
1123.34 83555980 96432440 89474780 83303580 103121400 114553200
1129.12 97721180 97808530 125352500 127436100 105403800 112099200
1134.91 134617800 127952100 111706600 118241900 127399400 118690200
1140.70 105620700 103142100 104924200 93916790 79203440 75688400
1146.48 68928390 57354540 52450900 49631130 47655560 49836800
1152.27 54780830 61993760 75660190 92030060 104833300 116354500
1158.05 126787200 133346900 129621800 131211300 147737300 147896100
1163.84 138523400 147882900 151048500 135573800 130972900 138796400
1169.62 130576100 114279000 112812600 111522800 99590000 97170920
1175.41 101832400 90983520 77087910 77694150 76976330 68392870
1181.19 68939840 73445430 64781310 55431540 57972700 59745980
1186.98 54138050 52329820 54965310 52103530 47022840 46403180
1192.76 45828280 43618860 42770010 41830600 39132880 37711300
1198.55 37015280 34370730 32226600 32393000 31295860 28425650
1204.34 27012850 26712020 24992650 23000710 22163590 21552130
1210.12 20196000 18667010 17488310 16775860 15955460 14604020
1215.91 13401400 12914290 12131530 10905350 10158570 9906830
1221.69 9174150 8150814 7503226 7122746 6552236 5936198
1227.48 5484694 5158416 4652710 4118564 3728966 3468572
1233.26 3135932 2814396 2544748 2298956 1969952 1723002
1239.05 1576506 1429226 1182716 1018648 900130 802528
1244.83 662030 547068 417144 323816 258536 240310
1250.62 137006 19296-60876-80136-143390-204590
1256.40-249954-204516-175578-173928-247278-319562
1262.19-400092-404536-374460-340246-395824-411710
1267.98-420582-400124-424140-451076-468758-422318
1273.76-399480-396908-448230-453910-433392-352390
1279.55-338268-372118-427354-396372-375252-324248
1285.33-314432-303634-275798-207696-213092-150510
1291.12-75422-2384 66164 213236 380668 619558
1296.90 882178 1235160 1581742 2008126 2521436 3214812
1302.69 4032438 5057894 6241990 7640772 9309942 11398700
1308.47 13832140 16751340 20224260 24344300 29067180 34596840
1314.26 41025030 48578950 57326880 67477030 79206640 92772910
1320.04 108112100 125508400 145298400 167825300 192999400 221089200
1325.83 252511600 287561700 326136800 368500500 414728500 465084000
1331.61 519722900 578576800 641204800 707921600 778516200 852461000
1337.40 929569000 1009715000 1090994000 1172278000 1253091000 1328259000
1343.19 1379201000 1396049000 1403375000 1417495000 1426137000 1422276000
1348.97 1405317000 1374014000 1329056000 1273123000 1216723000 1182222000
1354.76 1185098000 1219860000 1288857000 1457015000 1756237000 1939362000
1360.54 1554627000 795889100 382411500 395761500 553125200 763146400
1366.33 1002723000 1237224000 1436639000 1591040000 1702470000 1773712000
1372.11 1807141000 1805018000 1771903000 1712802000 1631126000 1530849000
1377.90 1417268000 1294403000 1166668000 1037822000 911078800 789291300
1383.68 674920300 569474000 474147500 389493300 315600700 252015700
1389.47 198412800 153939900 117659500 88572810 65687800 47747980
1395.25 34003120 23816730 16557750 11387990 7751728 5206160
1401.04 3458386 2250108 1465350 899824 621520 501336
1406.83 351242 174978 167434 225384 293658 269836
1412.61 202436 77384-49234-88484-37742-28922
1418.40-26942-15120 37992-3922-103286-139088
1424.18-109096-154300-207266-232854-231754-212102
1429.97-170030-182910-226818-290250-337326-367216
1435.75-332344-286950-283704-348178-356468-345642
1441.54-329934-300612-273166-303478-364890-434286
1447.32-441188-416358-384816-380988-374610-369258
1453.11-367158-372198-361422-378666-410644-443690
1458.89-419666-344204-302492-371862-446696-463324
1464.68-430994-413764-414000-405994-367472-374738
1470.47-396502-417518-461200-489242-476668-467572
1476.25-453956-432518-380248-357614-373574-380460
1482.04-388616-443200-486668-483996-423448-400510
1487.82-442726-466828-437144-418434-418958-449106
1493.61-475750-464736-448420-462320-440746-409322
1499.39-408694-416718-395682-394902-427740-453766
1505.18-444162-439870-433704-429146-417882-389858
1510.96-376618-369796-335176-341042-362576-369168
1516.75-372538-371492-329746-287326-303098-322044
1522.53-260252-224778-260624-285040-284204-286404
1528.32-264952-260132-268790-253194-242024-269894
1534.11-297836-297118-279298-250246-224108-211598
1539.89-170950-162456-194052-229922-255090-271992
1545.68-305174-352730-413710-475768-494752-480780
1551.46-472254-491692-502140-481654-449532-452688
1557.25-470886-471474-473486-494710-505476-488388
1563.03-467276-467716-479094-492136-481498-455946
1568.82-439458-449938-456876-451924-456178-474172
1574.60-495820-505792-478236-464140-490610-509254
1580.39-501396-471320-429950-449824-484726-465470
1586.17-419034-381702-389826-434416-477136-506584
1591.96-499316-472272-459686-454496-448792-469098
1597.74-480534-456128-431596-432740-441012-456882
1603.53-476162-463622-435966-428890-422946-428260
1609.32-449832-468160-469648-465822-466404-451740
1615.10-439886-443032-444424-422516-372970-341886
1620.89-333620-342092-402436-481686-491348-456438
1626.67-449926-455570-429414-401316-414494-437666
1632.46-429774-410882-396104-405940-451350-466200
1638.24-437088-386456-343626-367724-394190-401512
1644.03-447686-468246-426876-392100-407710-445102
1649.81-436174-418996-412710-381670-374582-378122
1655.60-362386-364014-397052-423086-409740-392876
1661.38-396292-417834-419976-404784-402922-413944
1667.17-413620-386138-360642-367322-395554-400390
1672.96-383854-360202-331538-304942-282984-296192
1678.74-322366-323106-315236-321952-336600-329698
1684.53-311854-319136-345034-379644-398588-371916
1690.31-348668-346404-345052-369050-407058-413534
1696.10-385676-356284-375360-405334-374522-358602
1701.88-402152-422674-423608-395586-357206-369640
1707.67-389356-392926-410934-424840-395384-364150
1713.45-365926-382230-408602-413672-401436-375248
1719.24-348896-353912-362518-357384-356692-347568
1725.02-351546-387508-415926-400636-372084-372278
1730.81-373958-375794-401516-419020-408420-382662
1736.60-369160-368048-349466-336744-371158-407012
1742.38-401460-382814-394172-412108-404764-406404
1748.17-425138-436638-434870-417076-422526-443478
1753.95-435950-414142-389628-360404-362366-403724
1759.74-445932-442180-405920-381504-381210-407362
1765.52-422698-393062-365366-372456-376278-369958
1771.31-411606-466784-456398-393222-355858-360978
1777.09-382904-378466-371724-401944-433024-430646
1782.88-414790-399550-385586-380518-389694-392398
1788.66-392320-402916-412902-401308-382566-397726
1794.45-414322-383248-367636-383760-407260-421936
1800.24-435170-431794-403694-391046-402398-401474
1806.02-392326-396850-394460-372806-347238-328472
1811.81-340036-375678-414554-412842-384348-395316
1817.59-389892-344672-334292-368020-376502-345210
1823.38-323992-317800-294064-253616-266852-326198
1829.16-314552-260806-283698-313760-252264-195910
1834.95-233788-270090-212506-144118-181980-247048
1840.73-191724-105950-138174-178120-113466-76438
1846.52-141860-121810 9178 22790-70444-35482
1852.30 97546 104656 27922 76254 154600 98754
1858.09 76956 194348 233320 128480 100610 168512
1863.88 139784 75736 92378 60822-68784-154212
1869.66-154758-174500-241598-242704-77762 205996
1875.45 305652 127610-81786-162022-123794-79886
1881.23-49932 24418 71282 3176-34556 74372
1887.02 104084 42208 130420 216496 97844 54116
1892.80 157522 97362 12234 90188 32320-100270
1898.59-702 47610-100184-74824-1182-112762
1904.37-121234-40090-121642-127252-35126-139460
1910.16-214196-130292-169582-207800-138794-176836
1915.94-227006-178342-201790-242888-232476-280196
1921.73-309334-278474-292948-282002-271296-299700
1927.51-295238-316978-368176-349994-337068-360154
1933.30-357002-345416-345172-342024-351618-352386
1939.09-337138-339794-358672-387478-415732-424936
1944.87-429080-408582-386936-413386-442562-434212
1950.66-413978-407898-445214-477594-455834-432080
1956.44-438814-438384-426768-403222-398340-418168
1962.23-441098-452030-428790-402166-414804-433664
1968.01-428972-446386-477004-441836-398830-407096
1973.80-429092-429484-431324-442528-448938-463328
1979.58-460678-413348-413566-449652-443318-420706
1985.37-410076-420184-452674-449074-401276-368948
1991.15-397732-437356-448614-435170-423780-429446
1996.94-429086-423828-415484-390202-392124-431880
2002.73-461594-460414-429654-387196-392122-424426
2008.51-441482-442020-406780-362908-366268-372454
2014.30-372382-397962-422804-419694-440276-480216
2020.08-475776-423150-394518-405074-405926-395532
2025.87-394676-403652-423362-414790-385714-367552
2031.65-350516-324272-290020-252042-241148-241230
2037.44-229378-200186-151578-100544-74630-63504
2043.22-34582 24884 81912 125080 151006 154174
2049.01 155462 169534 178162 158984 121218 100040
2054.79 120154 136138 85266 30046-9432-109864
2060.58-225894-247822-152966-16822 68728 141698
2066.37 216846 306842 397866 426898 414448 428046
2072.15 433592 336646 196372 131578 134992 80786
2077.94-60360-148680-145010-134246-232056-331128
2083.72-322862-252954-233912-327142-394602-311116
2089.51-171448-198220-335952-354210-218498-178024
2095.29-293552-332302-195426-91736-247812-372696
2101.08-254790-85810-171102-377608-365372-138092
2106.86-71232-258954-348874-188574-87974-250518
2112.65-350092-191584-37844-207112-378900-254758
2118.43-73288-163678-355018-301962-81316-82980
2124.22-291210-314042-135490-98312-282758-360414
2130.01-239132-212116-364902-399544-285574-251580
2135.79-340328-376586-324554-323048-406836-460590
2141.58-463312-433508-405820-390120-361508-357526
2147.36-402864-403124-312400-258148-326492-336900
2153.15-212824-209464-343332-277474-74920-132484
2158.93-328510-250480-75702-166914-292398-107834
2164.72 32656-175392-271436-39506-8798-273006
2170.50-285352-48744-92038-283500-153814 14292
2176.29-174508-294234-84656-51774-279262-246430
2182.07-65312-177910-334404-209786-142608-275992
2187.86-259234-143568-243024-344416-224748-179422
2193.64-348680-392236-308344-351440-368942-252712
2199.43-258238-365468-373648-368960-427450-398960
2205.22-301200-289594-339810-366622-402662-417568
2211.00-381190-372208-426932-444664-412382-416874
2216.79-432142-422638-415686-402886-418324-473958
2222.57-496198-454242-425188-419466-413938-418134
2228.36-431048-412336-350622-290358-271700-272432
2234.14-283306-305874-329680-305246-230596-196444
2239.93-226852-283956-332674-319980-247986-145628
2245.71-97172-119784-161180-175254-138058-7274
2251.50 150326 162172 47218-36450-89568-95986
2257.28 57642 280996 345260 280442 203330 120442
2263.07 76012 252880 533570 634928 638646 691124
2268.86 659474 468670 447522 716512 881074 904016
2274.64 964994 916904 712444 728770 1052412 1064006
2280.43 779502 835068 1129566 1045486 687480 682236
2286.21 895388 798028 589420 611266 602232 420982
2292.00 309316 333828 386120 426456 448578 529160
2297.78 771840 1277772 1714934 1761222 1725322 1880732
2303.57 1998234 2049358 2390146 2629558 2545318 2518820
2309.35 2552120 2442796 2440906 2676206 2675748 2495894
2315.14 2437770 2611212 2705560 2765306 2765358 2871206
2320.92 2989838 3153082 3310614 3455982 3558396 3806866
2326.71 4094032 4312136 4440446 4576250 4678262 4782642
2332.50 4924056 5040836 5066132 5080954 5029424 4908800
2338.28 4756118 4652338 4555116 4323114 3924004 3443118
2344.07 2885498 2318162 1792490 1282592 901216 995364
2349.85 1497176 2131094 2843194 3642232 4402148 4967356
2355.64 5364888 5730556 6082998 6349348 6527918 6653966
2361.42 6631390 6467130 6214798 5888974 5530746 5197346
2367.21 4819570 4358824 3827636 3248810 2671482 2182260
2372.99 1789436 1452616 1112860 773910 463788 173252
2378.78-66366-184328-249982-339892-426216-480134
2384.56-552622-577136-549928-568420-598710-597802
2390.35-617828-629958-611772-583756-566512-557446
2396.14-547770-562050-587450-540108-509452-558280
2401.92-608084-618992-620294-597720-568560-561372
2407.71-555946-530816-525042-542458-559094-553708
2413.49-539334-538534-533172-488280-460194-453794
2419.28-485826-525754-493040-428456-397090-377468
2425.06-362892-355596-359838-333752-295330-286750
2430.85-269390-237608-203040-161036-166792-185802
2436.63-153200-99636-56408 7396 71750 132194
2442.42 199076 281500 388162 516446 647078 800632
2448.20 960024 1089738 1223532 1417722 1648394 1849406
2453.99 2043392 2306608 2615274 2965988 3372344 3833448
2459.77 4312828 4829836 5378190 5963770 6607662 7296494
2465.56 8002330 8766012 9579670 10491450 11563960 12815010
2471.35 14211040 15677200 17050420 18034930 18698630 19537520
2477.13 20618360 21855700 23213370 24565940 25764180 26765740
2482.92 27541020 27983710 28096090 28014230 27776630 27380200
2488.70 26863530 26174540 24828590 23038320 22192520 23059610
2494.49 25607700 29861320 35044880 36843770 28554970 14545480
2500.27 7257004 7791544 11134060 15673020 21012780 26428050
2506.06 31142160 34864130 37596900 39344290 40112660 39993470
2511.84 39076460 37416010 35143370 32398470 29274280 25879140
2517.63 22375750 18922050 15567380 12437790 9684656 7285224
2523.41 5234366 3566236 2249968 1287978 644044 257088
2529.20 12824-158504-255844-317234-369308-362926
2534.99-338898-334662-307118-289422-321416-329868
2540.77-320142-352786-406448-390078-313876-262010
2546.56-280994-354038-432066-453656-437038-414368
2552.34-350652-298096-344808-390654-375862-365142
2558.13-402516-432246-421360-382210-347802-334064
2563.91-356640-381734-400964-421008-412566-370926
2569.70-379224-410802-378096-360392-416166-435802
2575.48-410478-401022-409728-371794-329432-332128
2581.27-356044-382832-408838-408258-385252-378488
2587.05-381016-373038-396122-406322-365566-350842
2592.84-398230-426706-403074-400322-435098-399196
2598.63-343054-327794-329336-359970-424664-446982
2604.41-418706-389650-361138-364032-418330-452814
2610.20-483720-543152-555086-481414-409782-436438
2615.98-525788-570604-551812-530066-547364-547256
2621.77-540040-549840-562654-579086-609118-620856
2627.55-621248-650746-677938-677202-714410-770020
2633.34-800852-832414-882944-940528-969354-950640
2639.12-955344-1018178-1089214-1112346-1139660-1199286
2644.91-1266064-1370066-1460734-1440496-1442304-1562802
2650.69-1661274-1705656-1772856-1780466-1769916-1859624
2656.48-1940882-1963690-2048830-2131112-2115282-2071902
2662.27-2092102-2138582-2170870-2214644-2293662-2380620
2668.05-2467120-2521380-2510082-2499824-2540746-2549192
2673.84-2542014-2544356-2536370-2615864-2732706-2715572
2679.62-2680510-2703758-2671962-2625602-2647992-2707884
2685.41-2815246-2848272-2719248-2689314-2825042-2847920
2691.19-2747126-2719058-2775186-2798064-2732656-2620058
2696.98-2626394-2708180-2694626-2656384-2698288-2730060
2702.76-2726672-2664512-2577746-2572440-2588814-2569090
2708.55-2551216-2522300-2553046-2636006-2631798-2562536
2714.33-2567966-2636834-2733206-2820708-2864978-2885462
2720.12-2852748-2705746-2258154-1604536-1281958-1360936
2725.91-1570816-1754600-1942178-2190742-2307216-2257360
2731.69-2249894-2310142-2396572-2446802-2483496-2591540
2737.48-2707002-2766508-2812274-2843428-2875184-2896194
2743.26-2892428-2872686-2870826-2903110-2897972-2890772
2749.05-2937988-2962600-2949518-2896784-2860760-2887774
2754.83-2904280-2903146-2890162-2857518-2851186-2895436
2760.62-2908120-2837252-2780394-2729140-2717618-2698680
2766.40-2626004-2584630-2547596-2486000-2403550-2335104
2772.19-2312988-2261306-2180092-2098636-2043526-1980036
2777.97-1861866-1695682-1529558-1396294-1316732-1235338
2783.76-1171856-1135848-1029878-894136-843570-818268
2789.54-760894-722922-689730-631724-595540-574050
2795.33-555432-515548-476848-481176-476582-436864
2801.12-393182-342528-322280-342780-377420-405408
2806.90-422762-407458-387352-384938-357160-330966
2812.69-398860-430220-368294-336752-328578-296436
2818.47-314950-351534-338534-336936-360434-340788
2824.26-291138-294176-365302-435042-437902-414248
2830.04-425698-408988-341542-281518-303116-368180
2835.83-389210-370386-330938-329426-389746-398638
2841.61-379788-358504-348976-365438-395168-375492
2847.40-327490-344906-391414-374670-314408-312160
2853.18-372436-422134-443362-417728-395946-399764
2858.97-376662-343810-395304-447158-415730-342058
2864.76-291994-309746-350652-360516-339638-288500
2870.54-315574-395186-394498-396508-429324-396270
2876.33-371602-401830-418884-367942-328974-352876
2882.11-363496-341860-356882-380890-382082-353860
2887.90-277294-257788-323270-338884-313346-283328
2893.68-308106-410326-488936-492596-462934-406540
2899.47-349184-324192-303012-293942-340906-350032
2905.25-303542-302734-352508-419704-415344-326772
2911.04-312176-355680-319952-266054-297110-321450
2916.82-348988-385700-406354-395424-360118-315860
2922.61-326290-395636-414218-383808-367294-388614
2928.40-415394-442966-437848-365422-321734-335560
2934.18-371952-392936-417724-434544-384716-328498
2939.97-297982-297168-332802-328918-342622-389772
2945.75-438260-466314-452790-419130-416016-430748
2951.54-398058-346544-372624-462836-536608-513782
2957.32-414520-339294-293822-276724-297226-305894
2963.11-334394-332880-301950-310704-340032-369358
2968.89-360000-302544-300758-325432-289976-256372
2974.68-320240-396622-350502-265212-278594-307404
2980.46-272572-258142-291532-273800-256526-270782
2986.25-287166-355664-418142-357998-311430-366928
2992.04-417414-428910-461290-486478-400976-237432
2997.82-183828-300096-411592-398008-384956-436106
3003.61-440796-380834-397020-444620-446644-424384
3009.39-357308-318044-380668-373736-304254-331762
3015.18-422034-478396-460238-391782-364628-344252
3020.96-335554-376888-414974-447566-426992-316422
3026.75-286052-364138-368108-267704-218734-257232
3032.53-300372-320244-344238-337818-320058-327676
3038.32-352288-348632-339204-345682-327294-280830
3044.10-277912-314896-367618-426862-473028-437318
3049.89-363788-360718-394488-383764-332820-311128
3055.67-349286-319546-236976-254472-348774-394050
3061.46-362008-365222-436228-448222-378954-316548
3067.25-268650-199324-211388-299450-341932-334684
3073.03-302500-286104-278760-232846-210552-254144
3078.82-288738-282546-294142-332458-357430-323384
3084.60-287854-291278-297820-309882-350690-408182
3090.39-430406-373042-328668-309082-250980-214446
3096.17-271676-314722-293676-294728-286892-287456
3101.96-356764-409352-429860-394740-343182-345708
3107.74-365238-370530-391182-429808-425940-350460
3113.53-337692-404966-415822-365734-316874-286234
3119.31-277908-295152-333298-314900-258264-267074
3125.10-335902-352374-282450-248276-351700-452724
3130.89-406984-308202-291776-332134-377756-410548
3136.67-392142-307508-254978-265190-255758-251942
3142.46-304890-355714-399352-396940-319514-215358
3148.24-218042-305794-313406-229658-205606-293654
3154.03-386842-420476-410020-384628-403420-446716
3159.81-465326-402592-317148-310272-332578-366192
3165.60-390164-347436-300176-292552-356514-422264
3171.38-419424-378344-369366-378894-354728-287324
3177.17-272728-290728-270832-310294-370208-326792
3182.95-289944-324208-368364-384000-352406-279996
3188.74-259050-271404-269992-288130-301526-301998
3194.53-304302-294018-313718-285350-232748-268796
3200.31-301468-287236-303164-320626-333700-361986
3206.10-384480-394666-349068-257728-227206-291672
3211.88-359538-361892-376356-353662-296918-275848
3217.67-276098-256164-220842-260698-357308-347854
3223.45-268564-274782-303178-305206-303558-270218
3229.24-239616-269784-351816-383264-369098-365888
3235.02-324480-243850-252358-329738-307660-221132
3240.81-239052-262636-250008-349426-466482-358692
3246.59-185612-208782-300990-300698-281194-275298
3252.38-296554-307482-271688-266816-328470-364498
3258.17-357272-343058-323990-296840-290892-352148
3263.95-429826-398214-323882-296660-326390-358826
3269.74-356036-357896-389366-418104-388784-355288
3275.52-419124-446066-375174-328410-311730-270618
3281.31-265626-330862-365086-263386-185150-276268
3287.09-339236-349872-447030-491092-407222-315100
3292.88-317622-339068-322946-272742-224404-261196
3298.66-333418-299010-229190-248478-283276-252158
3304.45-249378-295042-288896-254558-267156-248974
3310.23-200424-184012-218108-284844-343578-324344
3316.02-257930-275170-365566-386904-343366-296956
3321.80-242162-184944-203464-251270-321228-377622
3327.59-331546-305036-335010-296050-292134-422142
3333.38-506444-445246-287784-201016-284054-335550
3339.16-315648-325372-372060-377882-306896-220700
3344.95-186680-206600-210022-197508-217872-270934
3350.73-328184-324734-295618-220214-198390-303866
3356.52-387140-387198-398630-398212-341446-316122
3362.30-310258-281130-247428-234278-288680-339832
3368.09-300318-194756-153170-215652-330220-418570
3373.87-416228-332276-249332-258530-324470-426692
3379.66-467936-344256-195396-139832-216360-360770
3385.44-374052-346874-385876-356830-261446-202690
3391.23-157706-115758-196854-392348-462112-403642
3397.02-408336-382346-284624-229706-209698-197770
3402.80-266916-323914-309756-245762-209076-219926
3408.59-265562-339104-344416-292700-220414-240782
3414.37-344236-430084-467966-401938-298290-210022
3420.16-217848-310446-352686-284964-240562-295714
3425.94-363830-365830-340242-327192-288712-212028
3431.73-194146-219658-220144-221496-221780-236656
3437.51-296838-297814-231856-225198-269322-253346
3443.30-237570-310612-403320-382466-302654-288244
3449.08-260118-226186-263630-328540-373394-284732
3454.87-156930-147398-175664-172814-179486-150618
3460.66-145640-275942-342930-283728-256570-325686
3466.44-450976-485738-425214-386628-367704-333122
3472.23-304952-314520-376924-396202-296934-222440
3478.01-292900-356548-327368-278848-248780-209998
3483.80-196016-285094-389702-373684-360474-400396
3489.58-398316-365088-374716-411370-409608-374124
3495.37-333734-282798-260924-208534-133202-223816
3501.15-407366-404540-334508-355168-361556-332500
3506.94-315646-333928-393050-412358-403692-398062
3512.72-423122-441516-356990-200536-149550-239490
3518.51-301584-313472-359388-378176-358322-277122
3524.30-198600-212472-272186-334862-381204-404588
3530.08-429852-385654-294046-293768-325160-272732
3535.87-244372-322804-397436-336204-279062-282806
3541.65-245896-242918-325526-410890-380082-249674
3547.44-207326-276790-323026-289006-212150-153720
3553.22-181128-257178-356864-446160-425840-351254
3559.01-307714-259812-246232-285586-311192-260022
3564.79-237996-250070-233654-271874-348486-330694
3570.58-297272-332328-321160-332934-378086-282758
3576.36-170224-244820-403692-415856-329212-245100
3582.15-177086-152418-198218-255766-261758-302558
3587.94-371682-363918-359738-362160-293796-178730
3593.72-111436-107264-182152-236890-202014-194600
3599.51-234764-259244-236930-173924-92440 6898
3605.29 22014-88378-168732-171870-159682-113646
3611.08-82384-81274-53746-7024-5928-39376
3616.86-76576-116920-160574-133362-29638 54668
3622.65 74956 8292-24784 61038 185154 213980
3628.43 29668-183286-155978-37070-99040-150472
3634.22-31440 105088 138900 157308 158284 154718
3640.00 182428 189386 156914 113636 82626 52538
3645.79 22292 3304-50526-106890-161186-280138
3651.57-391126-398492-347682-262838-218980-217816
3657.36-230934-281178-319530-289796-193970-161090
3663.15-212792-217234-193910-225860-320190-309854
3668.93-219908-245920-292374-273384-256524-277924
3674.72-304090-264894-217908-232420-291658-295052
3680.50-244352-229766-228188-223888-194236-102752
3686.29-118014-223892-247604-204332-204170-235308
3692.07-222036-183118-171990-200052-255072-243864
3697.86-196654-213520-265708-272982-272570-290922
3703.64-279202-199898-110606-96068-138524-192456
3709.43-223702-183330-174392-251920-346916-360168
3715.21-302582-234076-180770-180470-214110-196138
3721.00-152166-140622-155012-147830-115560-109800
3726.79-145360-223990-286002-235400-166000-139350
3732.57-126020-159432-248598-284370-234830-223228
3738.36-288012-294100-231560-174762-150674-189616
3744.14-278818-357318-341106-260978-283938-343100
3749.93-308442-250858-248130-254294-258188-289676
3755.71-357818-404066-359880-328198-335278-272750
3761.50-228746-222496-223702-310684-372588-299046
3767.28-228218-237792-282626-286656-273598-255160
3773.07-236764-279212-344168-324484-233080-189696
3778.85-244676-262838-219754-203832-260016-331974
3784.64-315980-247030-287054-397688-388610-290606
3790.43-296542-326176-246102-167682-224336-331586
3796.21-337026-290000-337832-356294-316114-306684
3802.00-247392-154348-176610-256856-289484-256658
3807.78-195322-188266-231946-289344-318262-298694
3813.57-250086-201582-221818-299870-331458-283366
3819.35-236018-224218-216256-205226-224404-274024
3825.14-286092-224024-192752-223004-227144-195266
3830.92-195246-187180-161110-154512-210406-289102
3836.71-251774-195138-264494-284948-267770-244754
3842.49-151606-88564-103120-119728-161268-207750
3848.28-186974-165740-193070-213664-216930-236436
3854.07-283612-264826-211560-235676-246588-173496
3859.85-109074-153338-275106-343096-363876-333968
3865.64-268468-236998-242852-224216-148604-118860
3871.42-203224-272240-271572-281542-299838-253910
3877.21-189318-227780-312508-289892-214524-232368
3882.99-303142-303280-287470-254198-222438-225200
3888.78-200052-215264-261378-261068-321372-388544
3894.56-340430-264040-267030-256806-168226-126498
3900.35-175530-268844-327726-336164-396270-506402
3906.13-559126-478958-308010-168552-118622-159676
3911.92-237768-253194-255244-265016-278408-366580
3917.70-456040-404726-299988-272052-312880-352078
3923.49-356278-350964-368416-350370-300082-295436
3929.28-312120-286228-304132-319070-280818-291858
3935.06-354452-366772-306570-258744-276142-291370
3940.85-259930-245950-272106-284780-322004-331082
3946.63-257224-195860-280396-402166-418738-410238
3952.42-407030-373164-339278-368556-359774-228918
3958.20-138436-173126-306236-394540-368566-340396
3963.99-319212-321884-372758-405780-402272-349648
3969.77-360956-423310-430792-455370-493346
##END=
