##TITLE=Sulfur Dioxide
##JCAMP-DX=4.24
##DATA TYPE=INFRARED SPECTRUM
##CLASS=IUPAC A
##ORIGIN=NIST, Anayltical Chemistry Division, 301-975-3108
##OWNER=COPYRIGHT (C) 1998 by the U.S. Secretary of Commerce
##DATE=98/10/1
##$SPECTRA VERSION=1.00
##$UNCERTAINTY IN Y=2.1 % relative (B=1.1E-04,C=7.6E-10,D=2.7E-14)
##CAS NAME=Sulfur Dioxide
##CAS REGISTRY NO=7446-09-5
##MOLFORM=S O2
##MP=-72.7 C
##BP=-10 C
##$NIST SOURCE=QUANT-IR
##SPECTROMETER/DATA SYSTEM=IFS66V (Bruker)
##INSTRUMENT PARAMETERS=KBr Beam splitter; MCT Detector; Multipass cell
##STATE=gas
##SAMPLE DESCRIPTION=Sulfur Dioxide Primary Gas Standard
##PRESSURE=101.3 kPa
##TEMPERATURE=23 C
##SAMPLING PROCEDURE=1 L/min Flow
##RESOLUTION=1.9290
##DATA PROCESSING=Triangular Apodization
##XUNITS=cm-1
##YUNITS=(micromol/mol)-1m-1 (base 10)
##XFACTOR=1.0
##YFACTOR=4.5474E-13
##DELTAX=0.9645
##FIRSTX=574.687
##LASTX=3974.595
##FIRSTY=.000016
##MAXX=3973.63
##MINX=574.69
##MAXY=.0008903
##MINY=-1.32E-06
##NPOINTS=3527
##XYDATA=(X++(Y..Y))
574.69 35193270 30709120 24359010 22286350 25869820 26560640
579.51 21856510 19461980 19256310 20164730 18623440 16722160
585.29 15399000 16455640 15572290 13456550 13070880 12481930
591.08 12668250 11072920 9879206 9885620 9226718 8667804
596.86 7724678 7422572 7614786 7415862 6495154 5601224
602.65 4845380 4971388 5498214 4938554 3931766 3164820
608.44 3527226 3696836 3085220 2596474 2610070 2778868
614.22 2527540 2117766 2021956 1929222 1665080 1544492
620.01 1486452 1305292 993198 796956 729700 654824
625.79 817848 722418 630670 486430 389474 839240
631.58 579446 139690 175406 1026-104284-182512
637.36-277106-173748-133308-157890-226008-109410
643.15 73846 25498-308886-423452-153796 107076
648.93-93922-432902-504530-251094 57672-1802
654.72-144890-196526-249896-392608-308304-277398
660.50-217588-181182-360986-540284-593882 52110
666.29 3586798 4379900 1206546 24536-315828-346786
672.08-397538-450272-168250-106694-253322-416438
677.86-441514-340128-409688-170958-46504-258586
683.65-255778-201760-92600-106596-344124-517456
689.43-498368-201014-80018-375586-421514-317894
695.22-498788-487162-257558-260806-159976-181420
701.00-514664-504440-309612-233550-400342-669590
706.79-711180-564640-429508-585474-606646-568404
712.57-575736-539520-489568-506912-792150-752272
718.36-388976-384236-557004-531874-413980-466928
724.14-470166-557958-633998-473184-405594-524558
729.93-602440-580406-543928-548708-491558-371848
735.71-543292-533400-489336-526968-446304-414608
741.50-496056-599130-407292-307320-402922-504088
747.29-579598-449602-350528-299986-260976-381632
753.07-430044-522356-511740-419470-378170-327462
758.86-384286-390094-587898-661452-517952-470842
764.64-482342-503760-544986-488106-538982-593432
770.43-476576-396904-317998-343610-444744-600206
776.21-621132-597132-545384-391148-461464-504472
782.00-350170-338706-420960-476400-506074-671864
787.78-707694-611558-545700-432704-484544-475156
793.57-480710-504758-339792-414090-469870-409858
799.35-590266-619814-612342-643956-419380-249342
805.14-372898-404538-362500-413264-529524-547726
810.93-502304-446016-471848-538110-404956-314384
816.71-317634-486386-515400-286792-342298-517906
822.50-422138-370596-474420-532392-416420-376768
828.28-500994-466618-488074-511872-385402-498594
834.07-680248-530238-385084-405858-431482-379424
839.85-371570-431838-442338-510482-671372-676512
845.64-449568-422018-539286-516548-533844-531450
851.42-502238-518112-555684-628540-476082-377810
857.21-489562-372148-362308-456284-500116-403088
862.99-316498-407426-453826-470336-412094-392290
868.78-473366-531914-466864-382756-453456-525246
874.57-430174-332092-369974-435184-450024-364986
880.35-319882-425344-477646-400042-389364-367806
886.14-299792-407178-472246-436960-475800-568120
891.92-549908-456576-444248-407006-416244-413466
897.71-403992-394976-370430-405612-389990-309126
903.49-231290-297076-430190-463914-425702-318376
909.28-369138-484292-414428-387860-375884-296580
915.06-237972-262522-424466-528762-539158-511532
920.85-484350-537348-494536-380498-390146-462712
926.63-437868-478028-506672-360258-352628-410774
932.42-415848-481416-428916-326882-409486-496934
938.21-443684-415530-481876-555250-511536-384912
943.99-410982-478978-466136-451288-388536-348498
949.78-390878-419040-412812-363656-378178-397478
955.56-429020-488760-443612-427088-458614-444648
961.35-411490-381934-335160-377384-450078-413658
967.13-381252-408910-425352-306080-246928-349470
972.92-395024-369230-309854-242692-311826-388722
978.70-393108-384982-395012-370940-368794-410486
984.49-320164-296928-372118-334328-375992-452948
990.27-438886-429198-371026-345414-372830-370780
996.06-384266-327274-356422-398726-324250-378420
1001.85-410156-370062-358658-332550-351086-386712
1007.63-426378-386518-361672-363376-346030-298688
1013.42-354934-417008-404808-379736-354866-338632
1019.20-373512-302198-240034-361354-449206-359232
1024.99-296690-314038-308584-328822-310292-222764
1030.77-191412-200022-212190-247062-324866-364352
1036.56-268614-92282-32938-90886-53198 13056
1042.34-6084-28876-17214 50278 108532 109988
1048.13 144878 217000 289472 420160 517416 526260
1053.91 492776 573760 665730 768584 969908 1163768
1059.70 1257710 1461384 1691836 1830504 1922560 2126082
1065.48 2394870 2621848 2896014 3280260 3605592 3829394
1071.27 4056990 4491974 5080562 5335710 5588964 6283226
1077.06 6803220 7084894 7617292 8517372 9183554 9562786
1082.84 10238770 11218880 12091130 12503990 13071910 14604100
1088.63 15757660 15811430 16595810 18729140 19698610 19578480
1094.41 21260890 23405650 24050790 24938150 26695800 27791830
1100.20 29174150 31292330 31592800 32556170 36754920 38004710
1105.98 36520710 40602610 45953230 42737280 42240490 50933850
1111.77 52318180 47297210 54014110 62797120 57708780 58263480
1117.55 69211830 67905960 63698480 76344220 82741390 71630900
1123.34 80733250 101555200 90128170 75265880 103962000 121882500
1129.12 92858650 88798850 130735900 132492600 95714560 107111800
1134.91 141107100 127382900 103565100 117444500 129627100 116788900
1140.70 102709700 100487300 107373300 94810030 74860420 78781980
1146.48 71658130 56320970 55717690 52140170 49667080 52204940
1152.27 57849830 62663910 76168000 93672630 103169700 115568600
1158.05 123762500 134183700 128478500 122640300 151163900 148709200
1163.84 128516900 147931500 153870200 130109900 125402200 141841300
1169.62 131030800 108204200 112796000 115062900 96261350 93845920
1175.41 106250100 91227650 72973690 79364950 80492720 65759740
1181.19 67520020 77604360 64828050 52793190 59410780 62281520
1186.98 53133610 51247890 57086210 52658560 45861930 47347180
1192.76 46748050 43305230 43084440 42818880 38982400 37748880
1198.55 38131560 34669800 31970350 33203900 32191290 28376100
1204.34 27248060 27663300 25481820 23212300 22727410 22218310
1210.12 20705860 19158750 18003120 17301810 16683500 15165370
1215.91 13803410 13615550 12885340 11391020 10679970 10653990
1221.69 9868496 8662368 8143496 7819376 7223896 6547852
1227.48 6123012 5858922 5332590 4753138 4404044 4166538
1233.26 3829736 3474940 3241308 3011328 2671234 2399582
1239.05 2301796 2165858 1884832 1736992 1638948 1538870
1244.83 1404054 1291494 1182226 1077040 1023182 1026316
1250.62 936662 796090 750216 741140 696260 632506
1256.40 593450 656382 702026 709354 654024 596274
1262.19 535446 537630 593964 663010 593222 609740
1267.98 623990 662108 677296 649404 668588 734598
1273.76 796828 821524 796940 822660 868894 995726
1279.55 1051338 1046282 1017960 1117800 1169426 1269600
1285.33 1342516 1381994 1469618 1631326 1647914 1787108
1291.12 1960018 2084540 2240414 2477640 2731494 3076112
1296.90 3419606 3912854 4360302 4920374 5559646 6412910
1302.69 7370878 8559098 9931436 11500530 13343250 15671800
1308.47 18295710 21427280 25121490 29507410 34437140 40236670
1314.26 46892620 54714040 63698290 74084230 85974540 99815660
1320.04 115280500 132813700 152634800 175291100 200419900 228376100
1325.83 259577200 294452100 332531700 374450500 419978200 469543700
1331.61 523129600 581050400 642095300 707356400 776172900 848176100
1337.40 922566700 1000568000 1078723000 1156552000 1232993000 1307229000
1343.19 1361169000 1372233000 1377885000 1397584000 1405478000 1402275000
1348.97 1387192000 1358779000 1317562000 1267693000 1212102000 1180814000
1354.76 1183330000 1224628000 1269910000 1403806000 1672960000 1957857000
1360.54 1600671000 717782700 398751500 473615600 597374700 791564700
1366.33 1010763000 1233030000 1415741000 1560698000 1664147000 1732469000
1372.11 1763656000 1762370000 1729956000 1674726000 1596414000 1500682000
1377.90 1391958000 1274342000 1151432000 1027867000 905431300 788057000
1383.68 677202600 575083400 482127000 399655300 327148200 264630300
1389.47 211495200 167383100 130866700 101548100 78138820 59656660
1395.25 45105720 34290280 26237090 20438090 16004300 12920700
1401.04 10502450 8823128 7531862 6557830 5824328 5472698
1406.83 4934594 4489124 4216864 4080982 3904738 3728888
1412.61 3439918 3236706 2882470 2771970 2675510 2590848
1418.40 2445616 2372108 2326134 2236006 1982302 1915352
1424.18 1872312 1769656 1608860 1575646 1470510 1463984
1429.97 1433626 1393452 1271844 1195590 1084612 1027454
1435.75 1004042 1035672 998482 880778 842558 848696
1441.54 792130 822258 804058 764098 664240 577920
1447.32 538426 559876 550746 546570 508162 520050
1453.11 480858 467576 455610 434292 372078 334590
1458.89 315182 401288 430962 337842 234920 226344
1464.68 238782 255330 224162 217708 258046 238562
1470.47 181624 192978 104412 83696 84796 88236
1476.25 84528 92490 135292 166690 108398 114464
1482.04 104474 37464-16128-24608 34736 70818
1487.82-13828-34368-4300 8142-4254-28220
1493.61-84098-58330-43358-81226-64042-19626
1499.39-42072-57064-36670-27712-81918-108958
1505.18-96466-96484-103736-88454-106440-57564
1510.96-60090-72516-16956-35976-72110-64278
1516.75-78028-84184-52664 11170-23370-70894
1522.53 13894 60610-14248-24078-19208-38848
1528.32-9960-1464-37660-5102 1678-27326
1534.11-70494-54630-52074-22488 8704-9652
1539.89 51036 55196 7342-15568-57756-54492
1545.68-105838-140718-204266-271560-291962-273002
1551.46-265270-292504-310672-289738-253378-260040
1557.25-294764-281802-287664-309484-331992-306304
1563.03-288442-292662-303902-322696-313724-286972
1568.82-270034-286944-301176-285146-297604-312576
1574.60-334626-356188-321684-296818-344794-356122
1580.39-348046-333922-267484-300170-355754-315576
1586.17-285934-236074-253066-300396-336002-370804
1591.96-364714-329270-326802-327624-309506-338362
1597.74-359728-324502-301800-309118-318660-324572
1603.53-360470-342146-306916-315528-304080-306924
1609.32-334490-350136-355186-340364-359576-332858
1615.10-324874-329576-333300-321020-261492-236966
1620.89-240474-231084-290200-387222-388254-336862
1626.67-342712-359254-330338-291026-314462-345346
1632.46-329300-312274-303430-294040-363958-369878
1638.24-338324-303994-233864-284408-317726-288174
1644.03-361754-385940-330470-297880-309756-370740
1649.81-344172-318230-344482-282002-292182-302960
1655.60-276810-276958-312570-349640-321396-310986
1661.38-307900-341384-341568-318458-321738-331754
1667.17-341416-305486-282246-283288-326152-321628
1672.96-304988-287470-254864-241190-205154-224836
1678.74-259444-251174-243014-247758-271464-264262
1684.53-236902-252168-274996-304608-340610-296438
1690.31-275970-288278-272814-297842-344752-346468
1696.10-322802-281662-302650-360864-306874-274088
1701.88-356164-348428-361724-341598-277390-315528
1707.67-332168-325660-343002-373810-332206-296398
1713.45-313380-314096-355718-349972-341666-321790
1719.24-282234-300214-311834-294698-307618-292174
1725.02-288574-331978-364196-347372-305226-323188
1730.81-323154-312554-349276-365350-354368-326744
1736.60-311494-323712-302552-274922-321698-362272
1742.38-350622-323994-339898-371218-347672-351648
1748.17-377212-381318-390742-359482-365440-401518
1753.95-382256-362808-348136-310388-311732-354356
1759.74-401764-397214-350584-337618-328192-360420
1765.52-384992-345442-311666-331908-342016-312468
1771.31-359748-427970-415772-338472-311200-314938
1777.09-348402-339236-317150-360022-392438-384148
1782.88-367538-357844-342762-335378-350488-352362
1788.66-345514-360786-371600-364786-331560-351418
1794.45-390872-331970-326562-343360-369146-376716
1800.24-390814-397280-356656-345976-366170-364188
1806.02-344752-358610-357986-331582-314538-286586
1811.81-303966-333054-377284-383368-322292-362520
1817.59-361190-298512-287294-335720-344878-299512
1823.38-283722-283250-268188-212250-215134-307788
1829.16-288632-199366-242618-301074-214056-140176
1834.95-199292-254038-181874-89864-136784-240362
1840.73-164550-40206-105502-173474-74646-8612
1846.52-127058-121754 69868 78706-71264-28250
1852.30 155950 152168 17040 92168 224844 114614
1858.09 62158 234356 289582 124820 96532 225516
1863.88 169142 64296 130928 109734-48664-132198
1869.66-104876-113488-203342-207720-85498 246092
1875.45 358076 124768-61334-141780-72052-36032
1881.23-34374 47148 124072 33698-55846 128184
1887.02 164940 10738 142338 299080 93308 17674
1892.80 245076 125796-36574 164476 96180-157870
1898.59 44068 148476-148338-62302 103010-133556
1904.37-129156 60218-126700-154554 70780-131384
1910.16-247988-36724-149204-232026-61344-153716
1915.94-243776-115624-176172-248376-171676-259552
1921.73-305768-216170-286970-258180-224142-300250
1927.51-258982-273986-367574-312896-296744-347752
1933.30-326352-315908-325012-311614-327098-336484
1939.09-305034-319710-332682-359934-394666-391098
1944.87-406384-389622-346594-391908-423528-406240
1950.66-392110-373678-416774-465028-424552-397334
1956.44-420614-410568-408324-377850-370530-399706
1962.23-410476-436724-404354-372192-390116-421906
1968.01-398152-409596-471694-415788-364668-387882
1973.80-412092-406370-402516-425472-418862-434854
1979.58-455802-375916-381544-444498-414452-398680
1985.37-388438-388688-436048-432698-379968-337098
1991.15-379720-420196-425152-414176-392438-413520
1996.94-404934-399356-402430-366700-362604-415528
2002.73-437806-437012-414216-356234-367834-411104
2008.51-410926-425950-390438-328808-354114-359632
2014.30-344446-377352-411306-389376-407746-462116
2020.08-457390-394488-362260-392556-384012-370818
2025.87-373964-372714-404074-393096-353086-345930
2031.65-327072-301280-273588-224950-220104-223204
2037.44-205692-182806-132660-79210-54876-48668
2043.22-24508 41364 94192 130984 164312 158896
2049.01 161682 174996 191800 169040 133402 103790
2054.79 126888 163368 93434 29618 31152-77966
2060.58-200634-219522-128070 28906 76952 156674
2066.37 223068 298360 408952 423520 401120 408606
2072.15 452280 338698 191470 126900 154766 118878
2077.94-61256-131230-136612-78440-211518-321336
2083.72-297032-232412-180018-311232-382806-314452
2089.51-112506-170218-327388-372104-173682-127038
2095.29-294416-335812-200522 1090-257108-383520
2101.08-260500-15142-137994-388384-389488-90778
2106.86-6526-268364-377564-169030-692-263140
2112.65-366426-202816 65224-207280-413076-251294
2118.43-64-132508-380132-322642-23978-25184
2124.22-324996-333472-97874-36252-298214-384898
2130.01-201492-144316-384428-405322-245986-212294
2135.79-339824-379758-294386-286312-401434-436920
2141.58-439982-410244-375404-382004-339470-325190
2147.36-385068-403924-291144-210828-316372-366142
2153.15-167650-149712-372174-307376 530-84364
2158.93-384602-255380 8440-135796-363120-95580
2164.72 140144-195302-349776 24710 82354-325962
2170.50-331638 45762-33758-365136-155218 128132
2176.29-180388-379836-15744 36732-346604-273026
2182.07 38126-156810-402114-167770-61270-317932
2187.86-277146-61334-227726-394514-191256-102244
2193.64-376304-407330-227728-341962-400856-199840
2199.43-221340-390774-348550-319168-428170-398258
2205.22-260336-271780-341844-339018-382380-413904
2211.00-356392-338458-415586-441412-371762-401148
2216.79-419648-396470-403454-383272-385770-456720
2222.57-485716-421550-399566-404852-388796-393184
2228.36-408932-398384-329592-267340-258142-258812
2234.14-262816-283860-308448-302300-199296-177124
2239.93-208680-256550-314548-292168-233622-118548
2245.71-71758-103670-139646-149140-123172-11374
2251.50 185762 186430 42572-10246-41490-91720
2257.28 61302 327956 359616 280980 226262 174014
2263.07 72664 250046 597974 637170 612098 694780
2268.86 724458 470302 396304 785628 908068 855540
2274.64 981844 966278 712562 632594 1147974 1137702
2280.43 699396 782198 1215916 1114860 611044 650328
2286.21 1009514 827212 537438 660198 687956 432736
2292.00 349392 399672 443648 500024 505674 597716
2297.78 765090 1283964 1808966 1734096 1686790 1876728
2303.57 2100084 1901472 2434768 2663722 2489872 2466240
2309.35 2621576 2427824 2359060 2760630 2688662 2504360
2315.14 2386164 2702950 2678898 2831920 2730830 2919114
2320.92 2987912 3172068 3308462 3491994 3517838 3794664
2326.71 4088090 4284266 4395364 4532022 4650240 4705072
2332.50 4880458 4989776 4988652 5015602 4977716 4842364
2338.28 4699876 4569676 4528268 4281248 3893974 3445714
2344.07 2927842 2373058 1919450 1462248 1019318 1134332
2349.85 1676756 2224096 2894702 3633966 4400350 4905716
2355.64 5275908 5612944 5983362 6225232 6373598 6524886
2361.42 6496808 6321650 6099796 5780314 5420738 5116220
2367.21 4758414 4300220 3801922 3240870 2677860 2204340
2372.99 1831694 1503440 1177634 826446 545024 255830
2378.78 414-105754-157696-266906-366492-393494
2384.56-489314-532378-463988-515846-553038-532506
2390.35-564144-586162-556540-539602-515504-522410
2396.14-501154-506948-569760-496740-449638-527532
2401.92-569272-569174-576978-558642-516020-522504
2407.71-520068-487480-478572-503366-515220-512960
2413.49-487804-489152-502294-433340-419512-406808
2419.28-424002-495970-439158-369740-350474-328782
2425.06-313192-297684-310152-286816-221452-240292
2430.85-208282-174638-151248-86688-93536-129354
2436.63-75122-15252 15190 90454 158370 214992
2442.42 291712 369768 481434 615202 741592 891244
2448.20 1073100 1191168 1327458 1519060 1776072 1972920
2453.99 2153654 2438572 2746918 3094408 3496120 3967220
2459.77 4432272 4949182 5500222 6069858 6714634 7410024
2465.56 8092144 8866222 9669258 10552340 11612050 12812830
2471.35 14177500 15568690 16969370 17966390 18497420 19398880
2477.13 20469220 21646240 22971040 24275730 25423980 26363360
2482.92 27146240 27581850 27671970 27626420 27412120 27063560
2488.70 26521260 26042320 24894080 22973150 22164880 23079730
2494.49 25211190 28986390 33603500 37136660 29301340 13333170
2500.27 7755836 9323086 12059010 16236370 21151580 26303950
2506.06 30641640 34120340 36670470 38341560 39046110 38931950
2511.84 38074900 36484700 34311630 31703590 28720380 25474660
2517.63 22099130 18817290 15591110 12542270 9918792 7587848
2523.41 5572716 3959004 2637396 1683304 1012768 611076
2529.20 343668 123268 8230-68088-165858-168942
2534.99-147056-188228-160582-138944-206760-217814
2540.77-197890-237984-314524-303766-219580-178528
2546.56-199970-276686-360744-382972-349282-360500
2552.34-295498-215658-296890-350154-317826-302002
2558.13-352806-386056-372478-334812-306212-288230
2563.91-318896-346048-352874-384118-384340-323966
2569.70-330656-402712-339880-305980-398716-407464
2575.48-371964-359764-394020-346262-292666-314326
2581.27-329668-357170-381820-390182-351718-354056
2587.05-367434-339710-371466-402518-336736-320222
2592.84-381398-418476-377064-358796-439414-379468
2598.63-315386-324022-314018-335992-413974-439342
2604.41-390230-384590-348654-340626-417572-442486
2610.20-448750-533362-547316-472814-382932-421284
2615.98-522652-564004-537718-502676-547306-537918
2621.77-524336-545924-554118-566748-602860-620656
2627.55-601822-644942-684144-659084-704014-774500
2633.34-786482-823822-867994-930772-970120-937968
2639.12-939634-1009868-1094188-1102974-1120544-1204146
2644.91-1242954-1347358-1474960-1424998-1395320-1566472
2650.69-1657462-1660292-1769866-1777614-1717788-1853364
2656.48-1944622-1914886-2023526-2127354-2093044-2039646
2662.27-2075532-2132664-2152974-2192110-2275544-2355310
2668.05-2434750-2506778-2481412-2454246-2531788-2528150
2673.84-2506136-2548706-2495258-2572702-2746180-2680630
2679.62-2625890-2707048-2652418-2590494-2640716-2670148
2685.41-2781000-2874850-2666766-2625076-2835714-2844868
2691.19-2697342-2686064-2760408-2778964-2733046-2578992
2696.98-2591812-2725026-2677656-2609266-2692968-2703216
2702.76-2706306-2663316-2533052-2564470-2587408-2542842
2708.55-2553402-2501974-2517626-2641280-2627216-2525422
2714.33-2551534-2617408-2696152-2798166-2801184-2843974
2720.12-2781144-2694242-2322100-1564886-1306772-1430466
2725.91-1620776-1793606-1904264-2207792-2323658-2213948
2731.69-2242272-2295214-2392966-2448354-2444526-2576908
2737.48-2697208-2729988-2790184-2810068-2845060-2872982
2743.26-2863094-2853626-2826928-2897612-2875482-2844928
2749.05-2925526-2930760-2928292-2877290-2813380-2882210
2754.83-2872356-2878350-2868038-2831282-2810988-2864044
2760.62-2903844-2780844-2768710-2689434-2684318-2699376
2766.40-2570746-2570362-2517662-2466680-2382342-2294356
2772.19-2303872-2236244-2157934-2068716-2017512-1965050
2777.97-1846352-1680182-1525290-1382372-1326526-1239268
2783.76-1150440-1158286-1038682-878672-848974-842550
2789.54-752212-728546-705432-627298-603204-577078
2795.33-562336-528424-463506-492630-484630-434446
2801.12-405612-346772-324676-351150-381144-402904
2806.90-425752-407722-375432-391740-372050-297546
2812.69-406392-452108-342770-333872-346524-283378
2818.47-307962-372272-324816-328588-364934-351272
2824.26-280044-289634-358166-441826-431852-388364
2830.04-424892-411276-340542-272424-291678-383438
2835.83-377608-373832-327672-301480-410766-384626
2841.61-375480-354434-341300-356024-394744-386270
2847.40-301200-341154-393702-385060-297202-302984
2853.18-376624-409918-444124-406486-378038-401548
2858.97-384686-313946-389354-455930-403320-342808
2864.76-275332-309554-354976-350460-354076-273222
2870.54-291022-426798-373416-371290-447218-380496
2876.33-352864-395406-426320-361180-305772-358728
2882.11-368646-324016-349498-382362-363426-371696
2887.90-265422-233270-346776-331562-315298-282316
2893.68-284722-411760-484064-472582-451156-401920
2899.47-332460-327464-308348-272542-345284-366430
2905.25-278500-305920-333290-418406-429806-298366
2911.04-291574-377254-324874-232294-319774-309826
2916.82-342344-378994-399346-388774-358228-312494
2922.61-299592-412778-404472-379446-348470-390678
2928.40-401074-429430-450034-346600-315130-331610
2934.18-372092-386738-393554-449546-366264-324122
2939.97-302952-277012-357344-314760-334988-387072
2945.75-424300-463590-442446-407060-397490-437728
2951.54-399550-329860-359656-453166-527356-515118
2957.32-386102-338984-295908-262994-315078-286150
2963.11-337212-341188-279146-314528-327250-363662
2968.89-370160-279618-288342-342302-287892-236098
2974.68-303388-417540-347854-234322-275694-325444
2980.46-262626-236484-313206-267172-243600-286766
2986.25-267642-338290-444384-344302-279414-375960
2992.04-414098-410782-434502-492592-409576-228292
2997.82-158994-307832-435168-382518-354840-437302
3003.61-454820-346282-385984-453384-421858-431282
3009.39-357658-277394-402414-391350-270702-329314
3015.18-416848-471462-461674-363946-365524-350360
3020.96-310494-387458-394446-435194-446470-293992
3026.75-254424-380818-382192-252518-205148-266114
3032.53-304102-305386-346424-333606-308852-318224
3038.32-352960-344382-322360-346410-333088-268856
3044.10-275912-313662-360146-408732-471496-438244
3049.89-333220-353166-394626-382810-327430-283468
3055.67-362562-337682-209464-249336-349504-406258
3061.46-342878-335656-437622-447830-359682-302816
3067.25-289736-187376-194050-318862-327970-335252
3073.03-288212-275638-289832-230894-193792-260318
3078.82-295492-270676-285468-322058-362842-316310
3084.60-270948-297808-293012-302584-339082-393514
3090.39-438760-351654-310838-323670-251144-194038
3096.17-273912-336486-264544-304080-292158-258208
3101.96-368732-390902-427334-393648-318594-346906
3107.74-363574-362512-375320-420552-439024-330750
3113.53-307930-420136-407526-355566-310736-283542
3119.31-277618-280634-339932-323434-240336-255462
3125.10-337262-366154-278016-217778-342022-472574
3130.89-398484-284772-285522-332924-363812-402862
3136.67-395864-297774-234274-283668-257374-233490
3142.46-313470-338086-391704-392922-325776-198958
3148.24-197254-326584-325054-223130-183862-301798
3154.03-385392-410302-406288-363586-392520-433342
3159.81-462842-407972-283766-322392-324044-353376
3165.60-403078-333358-302252-275660-350422-425378
3171.38-412228-359948-357222-374322-362738-273034
3177.17-256674-321636-244236-295052-396634-311212
3182.95-269764-324996-359342-375450-358416-261456
3188.74-250680-286694-251652-291538-299198-287482
3194.53-314666-266494-321116-300206-195632-279796
3200.31-311600-266778-303188-320528-315034-362900
3206.10-362690-394032-352724-247542-214418-285520
3211.88-379414-326274-378402-354164-276460-276018
3217.67-271922-270988-205390-239700-371222-361876
3223.45-225756-282446-303824-291314-309066-268518
3229.24-232800-252726-357274-381658-340918-364642
3235.02-333612-225514-228160-350016-323238-181370
3240.81-246528-289318-212908-320226-501924-365576
3246.59-130842-210892-327988-283992-279378-266250
3252.38-287408-322078-260768-248782-331956-364334
3258.17-341120-340310-318760-298938-276802-331568
3263.95-448070-387478-309840-289624-319674-368430
3269.74-342412-350272-374438-421382-391640-313054
3275.52-419338-461082-346030-319748-321976-266676
3281.31-247666-324692-387840-271098-132068-306440
3287.09-355466-298068-449218-494374-395294-285010
3292.88-316496-341910-314996-283028-204246-246740
3298.66-352862-302416-198430-247472-300126-240652
3304.45-226700-307934-289742-226548-276774-253090
3310.23-192614-184280-212606-277786-343000-334002
3316.02-233640-253592-375600-380786-325998-290776
3321.80-256436-164552-214438-250076-296550-406446
3327.59-307540-278398-359666-296046-241812-432476
3333.38-497876-446042-283968-153976-311996-342598
3339.16-296168-311414-361882-383864-294606-219050
3344.95-172568-221526-214022-190518-218886-252728
3350.73-343826-298490-310942-219586-164890-315702
3356.52-393702-361876-378220-412850-310558-311848
3362.30-312230-274244-254292-213468-285430-342424
3368.09-311216-182798-147500-214582-321312-418070
3373.87-406334-334164-222274-266706-305910-406724
3379.66-490740-326568-187950-143056-185380-400916
3385.44-360918-302610-396036-359196-239442-208596
3391.23-177626-112796-162014-413536-474684-342784
3397.02-408164-390776-261584-224634-232608-166072
3402.80-277330-320436-311572-237726-198464-232590
3408.59-233888-362602-321068-311932-197144-228738
3414.37-351540-401094-478036-377520-303172-198096
3420.16-202752-314604-368714-274158-216088-294126
3425.94-365512-356978-319240-321246-298886-196126
3431.73-184724-237502-207868-224568-223924-212236
3437.51-302632-309686-210120-209536-288926-252316
3443.30-214702-296208-408982-387312-257880-302444
3449.08-264132-201794-270498-298698-392548-287160
3454.87-122602-155886-191696-160450-189972-173574
3460.66-93032-300220-358960-262292-248596-299528
3466.44-455164-486640-391514-377168-365150-327772
3472.23-300370-296924-366684-416218-290854-184852
3478.01-300280-368962-312700-271180-251834-222338
3483.80-176910-272012-419476-351468-331752-408962
3489.58-391030-349516-356122-412502-399816-358320
3495.37-337686-266344-263860-242550-105324-193532
3501.15-454472-396758-286040-370266-354724-325522
3506.94-313240-312284-401138-400202-392710-382722
3512.72-398408-447922-364420-191618-123388-264010
3518.51-311698-281482-366014-359286-360882-282432
3524.30-175912-223222-268110-330090-377284-378154
3530.08-425078-396676-258482-284200-350366-263404
3535.87-222960-307558-425920-317232-246930-314152
3541.65-230010-231284-310542-413174-392526-224138
3547.44-186100-285296-324456-286062-215752-142514
3553.22-184416-258588-328708-456688-411644-322196
3559.01-315860-249662-236950-275444-331714-241362
3564.79-222826-274124-213676-253138-364834-330300
3570.58-250176-361638-300730-295372-411510-284258
3576.36-134962-222140-429904-403218-306376-247656
3582.15-173498-150282-188954-278784-240386-277092
3587.94-389118-333040-337348-360424-294842-162008
3593.72-119722-94324-176938-263258-172498-184878
3599.51-225378-252466-229114-162298-104628 4454
3605.29 48500-106018-173678-146798-164452-101176
3611.08-67652-86996-58544 2814-4410-40480
3616.86-70970-98584-152714-142988-6572 42540
3622.65 101302-92-40672 57132 171736 241226
3628.43 45472-220940-161314 39824-98076-172744
3634.22-20148 133906 116740 155914 160114 130394
3640.00 187880 180822 155570 101478 83788 53502
3645.79 11512 14418-49808-117316-130420-262644
3651.57-392174-365822-344144-241140-205832-226454
3657.36-205840-280224-304614-302764-174644-137118
3663.15-234524-213050-188542-193690-330278-331952
3668.93-162404-253286-297600-260752-243912-261154
3674.72-313886-256108-204242-216626-291460-302890
3680.50-213682-231040-221764-207730-227166-75746
3686.29-97802-247152-245536-187648-186128-244892
3692.07-216388-174292-169864-181204-264048-247136
3697.86-173104-203378-271250-262506-250432-284812
3703.64-276190-204124-93858-98792-141338-181110
3709.43-243126-169638-157240-239796-344070-353236
3715.21-280742-233412-167576-167846-223076-195326
3721.00-139172-137240-153214-158070-104638-112678
3726.79-135308-206416-303804-220010-149158-150754
3732.57-120872-143782-248594-296126-216632-192880
3738.36-296478-295752-215024-181508-140298-187128
3744.14-266148-356090-353006-219750-269034-361274
3749.93-297416-231978-249550-256738-247980-281160
3755.71-336064-419166-336182-295746-360108-254056
3761.50-215418-246626-187138-305128-394914-277500
3767.28-213864-227650-290222-278606-261992-264106
3773.07-214258-266822-346060-327456-222956-161370
3778.85-257718-271496-208344-195146-244104-341604
3784.64-322644-219118-257630-412840-397232-245748
3790.43-282070-352428-240960-145236-212464-345418
3796.21-346222-237878-343810-363048-275440-315358
3802.00-261052-124742-172652-264804-280616-264718
3807.78-173734-189274-221702-285500-311800-289126
3813.57-249932-189554-203542-301026-332410-269624
3819.35-219846-225432-213918-199894-208924-268132
3825.14-295250-208472-171532-228426-231528-173848
3830.92-197064-189878-155396-150704-182532-311658
3836.71-255844-133210-293154-270694-238152-267486
3842.49-135478-75664-118744-115082-145122-226618
3848.28-174208-150170-194640-210488-210588-212450
3854.07-286884-272456-170338-238742-256698-172338
3859.85-98290-134428-291006-322008-351012-330638
3865.64-246158-227904-234722-240052-144636-94178
3871.42-209868-283138-248382-266480-300864-260814
3877.21-161232-211250-328934-292480-187774-211996
3882.99-324732-277632-282938-256514-193616-250472
3888.78-182962-198852-289106-225882-303108-401974
3894.56-328594-233480-259866-284438-149452-127644
3900.35-170174-271074-336420-310552-368690-489834
3906.13-544244-473306-287962-166482-119876-151830
3911.92-260700-243486-244422-277010-249304-346090
3917.70-469612-395396-274014-264022-308166-350998
3923.49-348146-328556-364932-352214-280334-280254
3929.28-332372-257976-295970-337586-254670-278010
3935.06-349834-371350-292392-241250-271120-301194
3940.85-250278-228170-286252-260890-315990-339906
3946.63-260614-166468-266164-427702-386854-395824
3952.42-395544-371892-306294-357376-389782-208724
3958.20-137664-161030-304152-416534-333050-341482
3963.99-313630-299340-379406-385472-416630-326946
3969.77-335404-449582-397834-445990-482838
##END=
