##TITLE=Sulfur Dioxide
##JCAMP-DX=4.24
##DATA TYPE=INFRARED SPECTRUM
##CLASS=IUPAC A
##ORIGIN=NIST, Anayltical Chemistry Division, 301-975-3108
##OWNER=COPYRIGHT (C) 1998 by the U.S. Secretary of Commerce
##DATE=98/10/1
##$SPECTRA VERSION=1.00
##$UNCERTAINTY IN Y=2.1 % relative (B=1.1E-04,C=7.6E-10,D=2.7E-14)
##CAS NAME=Sulfur Dioxide
##CAS REGISTRY NO=7446-09-5
##MOLFORM=S O2
##MP=-72.7 C
##BP=-10 C
##$NIST SOURCE=QUANT-IR
##SPECTROMETER/DATA SYSTEM=IFS66V (Bruker)
##INSTRUMENT PARAMETERS=KBr Beam splitter; MCT Detector; Multipass cell
##STATE=gas
##SAMPLE DESCRIPTION=Sulfur Dioxide Primary Gas Standard
##PRESSURE=101.3 kPa
##TEMPERATURE=23 C
##SAMPLING PROCEDURE=1 L/min Flow
##RESOLUTION=1.9290
##DATA PROCESSING=NB Strong Apodization
##XUNITS=cm-1
##YUNITS=(micromol/mol)-1m-1 (base 10)
##XFACTOR=1.0
##YFACTOR=4.5474E-13
##DELTAX=0.9645
##FIRSTX=574.687
##LASTX=3974.595
##FIRSTY=.0000162
##MAXX=3973.63
##MINX=574.69
##MAXY=.0009334
##MINY=-1.34E-06
##NPOINTS=3527
##XYDATA=(X++(Y..Y))
574.69 35751380 31157470 24245410 22037830 25947890 26884890
579.51 21942970 19358130 19029780 20322980 18543840 16736010
585.29 15226240 16522170 15484280 13514910 12837040 12544500
591.08 12545120 11078210 9704674 9809792 9077706 8617836
596.86 7495494 7386806 7474734 7464468 6359160 5491498
602.65 4602924 4915758 5398682 4944864 3746246 3046220
608.44 3353846 3649842 2952600 2512076 2456144 2742488
614.22 2409904 2080448 1881798 1880192 1537920 1503970
620.01 1367210 1263560 856766 724908 574002 609650
625.79 693302 705674 507570 439214 299528 832910
631.58 495148 132674 36256-31676-233760-235610
637.36-405850-210182-245140-185922-337512-116984
643.15 28 20166-420374-467072-238872 112548
648.93-163542-484898-621674-285084 6540-1692
654.72-195814-233168-330378-442782-393722-324452
660.50-277942-240418-467722-711774-854410 163912
666.29 3841714 4762038 1386386-48120-537218-408828
672.08-560798-463260-271976-85494-342414-427916
677.86-549408-365234-490518-158934-113534-243046
683.65-336018-193140-139572-92716-419492-553342
689.43-580906-192168-131374-365036-488716-344626
695.22-571940-502260-326978-238004-192604-183332
701.00-577916-525152-358536-217686-451740-701892
706.79-792352-584532-484274-593270-669394-590412
712.57-633354-544842-533604-530992-870342-776884
718.36-444368-380052-602904-544876-466580-462340
724.14-525544-578520-695094-479536-455744-525266
729.93-671580-594322-615422-552024-543496-374674
735.71-596348-543922-557528-530692-497950-420268
741.50-559682-612416-460844-301762-446522-525754
747.29-647422-467928-395762-286954-300604-377308
753.07-493136-541034-579282-426792-425618-318154
758.86-425102-396158-660502-682218-589882-473318
764.64-534640-516162-598572-506422-601042-614772
770.43-533672-398804-346434-340634-493004-626506
776.21-694102-629968-594136-407226-508764-512754
782.00-393540-338286-457712-486258-568472-703090
787.78-785150-643768-597632-444042-529954-489606
793.57-541476-507904-393016-414024-512706-429598
799.35-649346-651574-699566-665198-471142-248018
805.14-408416-408944-412752-427270-590678-578678
810.93-559808-468090-530522-562494-454510-318702
816.71-362384-513130-564554-306318-388478-533188
822.50-478882-390286-531262-554858-471872-394148
828.28-549642-493644-550804-521918-443050-527820
834.07-749282-564024-439668-416074-479832-393596
839.85-418934-442828-494212-545262-749310-712548
845.64-510614-437282-589570-547528-596030-556276
851.42-562056-543654-631216-658470-540908-401630
857.21-536888-391016-417910-482368-564514-426598
862.99-367032-427802-515658-503046-466200-420560
868.78-535362-570464-526992-413268-515406-561864
874.57-491126-356572-421866-470532-511280-392256
880.35-374432-458654-540874-442520-444492-390726
886.14-353132-437782-531884-478160-545314-615880
891.92-624700-500278-503448-442572-476952-451564
897.71-466442-432106-433956-448506-451678-339124
903.49-277668-329096-496888-519284-488820-358748
909.28-432112-530546-488670-436294-434664-329862
915.06-280334-294484-487524-589762-619292-568556
920.85-559934-594624-561382-427936-450404-508000
926.63-512686-538294-574576-411566-411886-455060
932.42-492786-537844-495020-376826-476198-552524
938.21-518398-470322-560714-622912-589610-441246
943.99-480512-538002-550306-511584-459894-402122
949.78-463268-480968-488928-423038-448868-458398
955.56-512284-557502-527698-497424-540368-516900
961.35-493598-442754-411614-444902-535744-487388
967.13-469664-484770-510892-370834-324866-416128
972.92-488870-447172-390004-308292-394392-466586
978.70-489784-469266-486834-453582-466264-490046
984.49-411622-376710-457078-419896-474796-545320
990.27-549250-521814-470606-433090-471588-465822
996.06-484064-421682-460746-490480-434238-476308
1001.85-521464-473990-466878-429406-463386-493504
1007.63-548292-496426-482572-469926-460990-406400
1013.42-476460-536772-537810-501866-480626-465500
1019.20-498816-421738-365508-495496-589720-505338
1024.99-430956-451178-449534-480396-451570-370828
1030.77-325674-346478-354374-413034-492094-552028
1036.56-432320-260620-182738-261228-213254-168682
1042.34-172154-225430-198064-151396-75604-99238
1048.13-50320-4596 94836 205682 324376 296502
1053.91 275924 316454 430368 507736 739834 898896
1059.70 1028372 1193192 1459368 1549538 1671672 1821406
1065.48 2131694 2308456 2637282 2969236 3349868 3495580
1071.27 3773984 4156892 4804482 4984680 5306644 5919414
1077.06 6511278 6703430 7317842 8145058 8901212 9176038
1082.84 9941082 10848020 11812980 12082610 12785020 14231830
1088.63 15488190 15385000 16327770 18334210 19434460 19165550
1094.41 20994030 23003090 23869310 24552440 26432060 27396110
1100.20 29046440 30839920 31315330 32218640 36634800 37529290
1105.98 36397850 40396880 45810280 42296380 42193040 50560600
1111.77 52086300 46995010 54044430 62420330 57874220 58197280
1117.55 69113420 67448370 64103750 76283250 82637360 71552460
1123.34 81844640 101848600 90204700 75456060 105307200 122560500
1129.12 93457790 89598980 132552600 134089900 97063690 107962200
1134.91 143033200 129776400 105143900 118287600 131957400 118926200
1140.70 103464400 101520300 108369700 95188940 75109310 77519140
1146.48 70407470 54836810 52972770 49375850 46900560 49289220
1152.27 54859810 60592330 74799740 93626080 104151500 117215600
1158.05 126386900 136250500 129365200 125442700 152976000 151050100
1163.84 131545600 150393100 155957900 132511500 127030600 143714500
1169.62 132548200 109655200 113085500 115195000 96710780 94667340
1175.41 106556000 91623420 72753980 78641380 79602140 65682160
1181.19 67365630 77584680 64525110 52326420 58417860 62019980
1186.98 52746050 51129960 56575600 52713760 45421960 46903650
1192.76 46137090 43272500 42588880 42622390 38508800 37614260
1198.55 37503110 34406000 31376990 32946620 31626820 28123970
1204.34 26576430 27319780 24864240 22838240 22011500 21877530
1210.12 20070180 18729900 17270270 16899050 15985410 14702140
1215.91 13071530 13133540 12144420 10888810 9920060 10155250
1221.69 9138850 8142258 7356746 7279586 6461252 5998512
1227.48 5350428 5311170 4558116 4182748 3605084 3589696
1233.26 3037328 2895704 2442990 2420220 1856534 1794108
1239.05 1482204 1556396 1059216 1110186 800244 909078
1244.83 559416 645466 318186 412200 151896 353888
1250.62 49652 99440-164286 23448-236618-111554
1256.40-365994-103202-267112-63026-346110-218908
1262.19-512306-313010-477402-214296-511592-310560
1267.98-525638-294742-516862-358762-577788-320376
1273.76-493884-285220-560162-353778-552442-233128
1279.55-433614-260230-557464-279830-491858-208922
1285.33-418416-200974-398362-71106-344652-43426
1291.12-178756 107192-60946 326730 250462 738714
1296.90 740268 1365032 1445216 2118096 2366324 3322056
1302.69 3874426 5155110 6089188 7725324 9105898 11484010
1308.47 13622810 16795820 19981730 24398530 28793850 34602880
1314.26 40698430 48539980 56958480 67385380 78742950 92670520
1320.04 107628600 125296600 144680200 167591300 192382700 220727600
1325.83 251744100 287213400 325339500 368090200 413885700 464602300
1331.61 518824400 578248200 640315500 707508500 777791900 852213500
1337.40 928759900 1009802000 1090846000 1172458000 1253274000 1332035000
1343.19 1386520000 1397113000 1400466000 1419592000 1427681000 1424754000
1348.97 1407152000 1376802000 1330187000 1274747000 1211921000 1176773000
1354.76 1178241000 1219130000 1272023000 1429169000 1758052000 2052638000
1360.54 1651655000 693197600 313351500 381852700 546068000 756974500
1366.33 1004404000 1243014000 1444570000 1597267000 1709244000 1779230000
1372.11 1813207000 1809607000 1776178000 1716116000 1634430000 1532542000
1377.90 1419085000 1294860000 1167076000 1037262000 910506000 787881000
1383.68 673715500 567668000 472642100 387593800 314174700 250245800
1389.47 197139100 152494500 116680200 87430790 65077800 46953300
1395.25 33570550 23223280 16357280 11040400 7687768 4979692
1401.04 3481186 2074080 1545772 750008 680550 429924
1406.83 450932 44820 248430 138270 392390 201428
1412.61 279240 19504-7032-170572 40688-93394
1418.40 36428-92042 118976-44312-67244-208860
1424.18-33862-205508-167404-280614-189512-265418
1429.97-110402-224672-177696-339926-291066-428550
1435.75-286798-328122-216082-413786-313208-385036
1441.54-295658-339868-222174-337936-322592-486404
1447.32-409216-452650-344312-414930-343854-398958
1453.11-333730-409542-322914-407272-379052-482960
1458.89-403372-368264-246366-403234-430600-500130
1464.68-399272-436564-387884-443632-328380-396026
1470.47-380484-427276-446532-519092-451422-491602
1476.25-430814-463860-352818-367156-359586-402440
1482.04-353914-469632-471164-519882-395344-402326
1487.82-430946-498434-412434-435310-394914-465460
1493.61-468534-484014-418332-492618-424790-418160
1499.39-389728-442786-374094-402944-413526-479266
1505.18-424120-456128-419856-441242-411616-398622
1510.96-357510-398818-304854-355298-352804-382444
1516.75-357580-394488-319050-285546-285862-360138
1522.53-239034-217882-257202-301712-267226-307254
1528.32-248938-264628-268908-260130-224422-278402
1534.11-296894-306778-272114-262124-204218-236512
1539.89-150250-163622-188438-236180-254400-270900
1545.68-299558-355702-404830-492718-493056-487554
1551.46-456788-502246-500392-493020-433312-456052
1557.25-470984-476346-462552-502708-505830-495506
1563.03-454696-474866-469088-506034-475928-462784
1568.82-424876-458832-453914-455280-447394-480720
1574.60-488554-523298-468730-458982-488974-520530
1580.39-495794-486750-405960-451846-495758-469918
1586.17-417064-374794-379196-441442-472388-519410
1591.96-498830-472178-453446-462860-435436-475560
1597.74-485680-458672-421976-436114-437580-455806
1603.53-481878-470298-424994-435360-417376-426642
1609.32-449564-472094-471366-461618-472676-450184
1615.10-435604-445212-445308-433222-364466-339654
1620.89-332742-332404-393586-501032-498588-448454
1626.67-445852-465434-429518-391784-411602-447206
1632.46-429320-410424-394470-393530-460774-475140
1638.24-436086-394026-320590-372708-402632-386066
1644.03-454270-484430-421088-385536-397516-461694
1649.81-435236-411160-426746-370136-373490-385838
1655.60-355932-360038-394008-437840-403652-394300
1661.38-387032-426152-422228-401526-400608-414618
1667.17-421692-383820-356194-359884-403636-403244
1672.96-383362-363726-327316-309710-272062-294558
1678.74-329206-323808-312534-318724-342270-332944
1684.53-305018-316592-344678-377948-413692-366736
1690.31-344290-349394-339396-363714-416586-416948
1696.10-390092-343120-371414-422418-373404-336132
1701.88-419316-417746-431558-401370-340544-372366
1707.67-393880-388176-409850-435928-396620-352360
1713.45-370954-372428-419758-411546-406384-375770
1719.24-341312-352642-369570-350652-363314-343652
1725.02-344624-388332-425824-404096-362698-374018
1730.81-376894-366244-406530-422346-413212-378422
1736.60-366422-371962-352400-321650-374166-414490
1742.38-406076-373394-393310-419660-402218-400252
1748.17-431044-433746-444224-407966-419740-450544
1753.95-438716-411202-395766-351128-357018-400786
1759.74-457456-447758-402240-378032-376236-406270
1765.52-437196-388508-359892-369892-387588-351480
1771.31-413008-475886-473590-379158-354884-350960
1777.09-395274-376200-364570-399566-444148-428560
1782.88-417380-396528-387956-372806-395852-389996
1788.66-392446-399508-420738-400824-378382-389074
1794.45-436984-368624-368936-376788-415234-416638
1800.24-440542-436578-401368-382930-408600-402224
1806.02-388868-397070-401216-369480-350694-319046
1811.81-338498-372842-421622-424520-366430-403078
1817.59-400074-335920-323620-374510-386942-339314
1823.38-321992-319822-301930-241936-252258-345174
1829.16-327478-236818-281872-338456-251040-171090
1834.95-235538-291912-217158-117598-173834-277170
1840.73-202166-70338-139988-204938-109948-41814
1846.52-166284-152054 39204 53218-106884-58480
1852.30 128764 129778-10854 68132 194986 90404
1858.09 35564 216944 269808 107042 70432 202832
1863.88 145754 49002 104410 88488-85366-169978
1869.66-152800-154536-261284-262946-118316 248664
1875.45 365454 122164-103474-188116-118936-72424
1881.23-65844 28740 97754 5306-85118 103320
1887.02 133392-4230 124016 281320 72922 4678
1892.80 213778 107554-52330 139764 59454-173872
1898.59 11502 120706-169648-83960 62202-148686
1904.37-156886 27190-152602-165508 32950-149102
1910.16-274686-71366-179232-245076-100166-171372
1915.94-269444-141284-205412-261174-211926-280068
1921.73-339528-244706-316506-275678-259886-312556
1927.51-291790-297912-399170-338094-330910-366970
1933.30-360418-337566-352896-333176-356690-355626
1939.09-333088-335954-359936-382452-426152-418108
1944.87-438812-408672-375722-411230-455758-429638
1950.66-418852-392042-449564-487996-458964-417902
1956.44-449412-432452-436494-394546-396046-417112
1962.23-442678-458696-432462-389202-416916-438216
1968.01-428020-432416-503212-435440-391512-400800
1973.80-440108-423700-432464-441366-451092-457070
1979.58-483748-392620-409258-459828-447290-413862
1985.37-413458-406126-467886-451976-405386-347896
1991.15-403230-438800-456520-432330-420692-430086
1996.94-432928-418386-426484-379982-386726-432104
2002.73-471026-459746-440494-369814-391490-426398
2008.51-445006-445408-416778-342048-375446-369846
2014.30-370296-391920-438178-406988-439302-485550
2020.08-491212-412788-388214-406724-412006-387710
2025.87-400096-393012-435950-414718-385220-364162
2031.65-356888-319802-298426-239434-244368-240100
2037.44-235170-200680-156294-91098-75296-62998
2043.22-45690 30374 81600 128928 154890 155304
2049.01 150780 171488 182494 164398 116558 93708
2054.79 114706 158190 80500 23122 5608-102116
2060.58-249670-262402-170002 8270 58460 148936
2066.37 210038 304970 411276 436186 405902 424716
2072.15 458054 346720 176294 120498 140166 113760
2077.94-87260-153560-162584-94174-240396-352090
2083.72-332544-249388-199882-339588-418516-336296
2089.51-123730-179600-358912-393276-198272-129740
2095.29-328348-350616-221716 6500-287566-402168
2101.08-291448-6482-157856-416114-423220-98774
2106.86-5834-292914-396380-193836 4284-295902
2112.65-380378-228146 77066-236436-428558-285888
2118.43 8426-152600-403030-350078-24820-29710
2124.22-345092-354540-109766-33222-322348-399440
2130.01-226638-149038-413742-421514-274234-211830
2135.79-366046-389128-320770-291544-429144-458698
2141.58-477134-426716-405610-392138-361998-338836
2147.36-416026-421410-310938-220436-342020-375148
2153.15-185440-162656-399884-314152-11340-88230
2158.93-410988-267646-10206-146166-386168-95062
2164.72 126542-201274-370556 22360 67238-337750
2170.50-359010 37604-54116-372038-172716 124112
2176.29-200202-385902-37350 31374-365820-280952
2182.07 15370-161082-425426-180584-87382-319084
2187.86-297812-68962-251518-400336-213452-107570
2193.64-398680-420806-266578-352790-421320-206824
2199.43-239758-393896-379542-337922-458866-410660
2205.22-282718-271296-359128-352264-411980-426442
2211.00-380246-349608-441588-455670-401304-412384
2216.79-445382-411684-426818-391470-413514-474284
2222.57-519786-440096-427096-415962-417062-409506
2228.36-442376-416394-355812-274678-275804-265858
2234.14-285988-299606-341506-316152-223018-179386
2239.93-230912-274458-355488-318326-266658-124444
2245.71-91414-110370-173724-174754-161602-14316
2251.50 177894 195696 24236-32378-96092-123422
2257.28 28790 331522 356932 285634 195324 134374
2263.07 20274 228238 583460 650638 616644 704868
2268.86 705552 438910 363620 763686 911610 873712
2274.64 992918 954782 682966 621564 1148596 1137256
2280.43 688196 772714 1222970 1120068 587244 630160
2286.21 983954 824880 510528 634552 643496 402168
2292.00 274294 345466 374048 447802 423532 522916
2297.78 700964 1285244 1816132 1760938 1680496 1878758
2303.57 2061276 1935346 2424926 2724734 2487022 2531660
2309.35 2556832 2484614 2285096 2842212 2605322 2583494
2315.14 2255120 2779068 2565224 2922460 2602368 3002650
2320.92 2860874 3267316 3202182 3579328 3422728 3889996
2326.71 4029608 4404064 4364750 4645916 4625596 4820474
2332.50 4879692 5111730 5012486 5137886 5003054 4950230
2338.28 4714020 4672542 4556446 4380920 3903932 3485610
2344.07 2862188 2330772 1767976 1305702 779552 942462
2349.85 1475830 2130494 2813846 3654706 4432776 5007326
2355.64 5353966 5739770 6087696 6381552 6509896 6701602
2361.42 6639178 6492570 6213552 5911622 5503842 5222020
2367.21 4821152 4381874 3823646 3263636 2641206 2177954
2372.99 1768232 1466248 1104500 775852 452324 180466
2378.78-105722-180072-253090-327576-451042-455958
2384.56-574036-584120-540896-559080-619486-578014
2390.35-630326-627840-621000-573360-572842-550148
2396.14-554772-540710-623168-523500-499428-552276
2401.92-627030-607038-635710-590870-570824-552130
2407.71-571918-515962-529780-533628-573078-546122
2413.49-546202-525114-558740-468068-470068-437718
2419.28-486646-538782-504814-410674-405862-367724
2425.06-371166-342722-374106-333108-288624-287340
2430.85-277782-228174-217938-139752-170638-192266
2436.63-163634-85316-72934 17876 64740 138194
2442.42 189784 284636 375786 526442 634442 804358
2448.20 962492 1096256 1203796 1417212 1648178 1864878
2453.99 2012936 2316118 2594658 2971694 3345850 3850052
2459.77 4289358 4839984 5359736 5966902 6584056 7314760
2465.56 7972486 8776736 9551584 10475530 11524120 12800840
2471.35 14188800 15694530 17106220 18135340 18615910 19522940
2477.13 20579360 21846370 23200020 24607330 25785200 26806170
2482.92 27586670 28056550 28104270 28055190 27784810 27421980
2488.70 26844980 26310200 24958470 22855140 21874730 22839240
2494.49 25290750 29662450 35312460 38864380 30043500 12665400
2500.27 5989458 7511974 10960670 15525210 20997910 26562160
2506.06 31304770 35018600 37750470 39503840 40251630 40115530
2511.84 39198850 37512470 35213640 32461800 29315190 25902300
2517.63 22355590 18915610 15532510 12369690 9629454 7238320
2523.41 5160858 3524614 2180854 1248340 591434 244124
2529.20-1298-166958-268722-305316-392194-359132
2534.99-335440-338154-313336-265980-338962-327064
2540.77-317388-338156-429896-395664-314030-242610
2546.56-278238-345368-450908-455296-438382-418588
2552.34-361976-260134-359560-395488-383870-342408
2558.13-416008-430076-436594-370034-355970-315210
2563.91-367326-375110-406824-417190-432302-349482
2569.70-377884-424124-383244-327906-441074-433154
2575.48-417088-382552-433966-363528-325248-324220
2581.27-362000-375724-419684-408530-386130-368602
2587.05-395722-354670-404930-414660-365670-327866
2592.84-411974-430786-408780-373426-469132-390864
2598.63-339744-321762-331388-343100-440756-453734
2604.41-418064-388406-361708-343768-432744-450338
2610.20-475746-550142-576936-478118-392898-417994
2615.98-544016-575286-561376-507858-564774-539898
2621.77-542190-544140-569266-567972-619556-619990
2627.55-617650-644630-695720-658486-716548-773444
2633.34-803484-824124-886400-938190-989126-937416
2639.12-950094-1008786-1109468-1104352-1135064-1199480
2644.91-1261154-1360420-1498502-1429766-1414426-1568688
2650.69-1683936-1680992-1797910-1783770-1744326-1858836
2656.48-1969734-1931688-2057970-2146942-2127560-2047658
2662.27-2096146-2137074-2175658-2199086-2301480-2373034
2668.05-2476664-2530852-2517462-2474646-2561096-2546028
2673.84-2538356-2553216-2519592-2593468-2780266-2707938
2679.62-2663600-2720332-2679744-2600620-2655328-2688270
2685.41-2825844-2894596-2695984-2638134-2867142-2868370
2691.19-2732306-2693258-2794670-2801030-2761188-2579936
2696.98-2615780-2729194-2708970-2620218-2719180-2723212
2702.76-2744196-2670590-2557912-2565308-2608466-2552822
2708.55-2569270-2502038-2542374-2652880-2654592-2533962
2714.33-2565772-2628592-2734862-2831948-2863952-2895306
2720.12-2866316-2750112-2334472-1507720-1221014-1340070
2725.91-1583876-1757790-1916754-2216748-2354658-2226370
2731.69-2251748-2294336-2412486-2449032-2467272-2586026
2737.48-2729248-2755650-2825316-2834560-2881956-2897896
2743.26-2897024-2870708-2858648-2914478-2904044-2866680
2749.05-2955320-2960010-2962854-2893992-2842064-2896346
2754.83-2906834-2900780-2901388-2846092-2847336-2888006
2760.62-2946828-2808612-2800652-2707074-2722732-2715706
2766.40-2611276-2586138-2554932-2483982-2412578-2308354
2772.19-2336648-2252650-2192978-2080342-2054750-1980992
2777.97-1881178-1683654-1536428-1372282-1330340-1227376
2783.76-1163246-1151284-1043558-865100-845594-826030
2789.54-756876-715716-706408-615326-602876-564940
2795.33-566418-513266-468040-479832-491976-425638
2801.12-406664-327206-322726-332756-388208-396244
2806.90-439516-399962-389152-381526-375346-290106
2812.69-418714-448842-359398-325660-347440-275648
2818.47-313538-365698-334586-326832-373698-346638
2824.26-281570-277848-368638-445524-450512-393082
2830.04-441862-411738-348916-257466-298738-376098
2835.83-399802-367070-338032-294154-425100-384236
2841.61-393888-345526-353956-352262-412194-381042
2847.40-312632-335422-409724-381384-305848-291160
2853.18-388174-413296-465936-405602-397458-396660
2858.97-395442-308776-405606-459724-426434-334508
2864.76-281842-299478-367432-352550-361392-263212
2870.54-303102-419666-394100-375236-461954-381072
2876.33-367726-395314-444350-358112-317686-352818
2882.11-380024-323216-361714-383058-385582-366056
2887.90-271648-224376-353384-332148-324510-268306
2893.68-293626-412692-510564-488668-473912-403428
2899.47-344332-320482-311058-269942-355430-363812
2905.25-289458-295384-349162-426334-448300-295470
2911.04-306418-368328-339050-223120-324812-303076
2916.82-358946-378994-419970-393056-367460-305716
2922.61-307134-414614-419746-382720-356870-390144
2928.40-416678-439996-465080-347020-318958-325050
2934.18-382436-388284-415882-451940-385562-316358
2939.97-306988-269826-363692-308504-346392-382930
2945.75-446648-469582-462228-407566-413878-438442
2951.54-409894-322628-366640-460162-559084-527546
2957.32-407902-329938-300068-253570-319586-283744
2963.11-351468-335868-293330-306012-343648-367916
2968.89-383936-277752-300324-337176-296668-227654
2974.68-319606-421758-366208-229674-285488-317906
2980.46-275752-231144-321604-261300-254342-271642
2986.25-279912-342368-461700-344796-289904-369814
2992.04-431124-417914-461578-505766-425366-209730
2997.82-152204-295904-452450-384720-375250-437566
3003.61-472546-345380-401420-451436-451032-428776
3009.39-367130-273282-413756-383728-282456-316326
3015.18-436860-482106-483738-366726-374836-340556
3020.96-323082-380702-416906-446356-463100-287858
3026.75-265388-377080-401152-243910-208986-250592
3032.53-317526-303180-364370-329078-324686-312590
3038.32-370296-340586-341610-342208-346198-258680
3044.10-281742-303798-375858-416648-498086-442302
3049.89-348840-349412-410888-385418-336188-284218
3055.67-373080-332830-211924-238862-361004-411408
3061.46-356172-341184-457138-460666-378938-304354
3067.25-287864-176250-194030-316102-346430-341052
3073.03-299380-278192-295542-224154-197686-253682
3078.82-305716-269200-296640-325108-379892-316202
3084.60-282384-289164-302876-297210-355094-402548
3090.39-461344-357226-327178-316450-254830-183998
3096.17-281106-331332-282676-295416-298496-253882
3101.96-380284-398690-451430-393128-333152-339798
3107.74-375578-360976-392190-428754-454164-329178
3113.53-319690-420638-429326-358900-319500-276012
3119.31-282336-279128-353632-320010-247288-248348
3125.10-352264-367220-283362-208610-357240-482630
3130.89-421452-280930-289624-327466-384132-411776
3136.67-415854-293076-244024-268722-265230-223844
3142.46-324236-340226-419578-399510-339266-183618
3148.24-203108-321516-339148-211434-184376-291912
3154.03-405246-418686-424174-364022-408250-441846
3159.81-487920-407194-296498-307432-336652-353648
3165.60-421618-330088-310314-262396-368440-426524
3171.38-437774-358658-375652-375016-376980-266200
3177.17-266982-306550-256782-293854-410804-311210
3182.95-281456-318000-380930-381996-374278-256988
3188.74-258534-275428-265526-285380-313170-287446
3194.53-324630-269068-334504-292276-206980-271236
3200.31-320546-268324-311430-318948-330304-363834
3206.10-385720-401030-368070-236094-217616-278156
3211.88-394554-335336-398026-355220-290130-270570
3217.67-280702-263490-205722-241400-384756-367558
3223.45-238290-276394-313082-296000-319388-262970
3229.24-236152-247730-373332-387046-366168-367748
3235.02-345756-215300-240614-346834-337136-176128
3240.81-252244-272808-227120-327974-531936-367000
3246.59-139536-191446-338738-285930-291374-259632
3252.38-303986-315232-271556-241618-345338-366302
3258.17-362124-337964-332802-287570-286170-332356
3263.95-470370-392878-322186-278830-331140-364636
3269.74-357562-347200-393268-424306-404130-315582
3275.52-437774-466160-367466-316404-327948-257824
3281.31-254258-328484-403044-260392-137572-289712
3287.09-365704-305396-474830-506840-419656-279690
3292.88-327444-339566-333586-271786-210714-242444
3298.66-369106-300462-210594-239228-311304-235548
3304.45-242064-302620-306478-225464-289508-245942
3310.23-201190-167492-220356-276278-366502-330970
3316.02-245720-247312-395712-387964-350544-286892
3321.80-260900-152268-212378-242628-317174-408740
3327.59-323610-282856-363018-290336-253376-438198
3333.38-534724-458692-288148-142332-314158-341244
3339.16-313368-310832-384368-391252-311366-208070
3344.95-177336-208190-222480-178136-227398-249766
3350.73-363214-305046-323826-203604-170444-309542
3356.52-412016-374866-399594-417498-328000-311430
3362.30-321788-273288-256090-208250-297238-350682
3368.09-322648-174450-136974-206376-332900-438920
3373.87-426322-340512-220040-259530-312054-432288
3379.66-510326-342550-176226-124274-185644-406602
3385.44-376720-321178-408516-370132-248864-199654
3391.23-167100-89676-167978-418564-504394-360874
3397.02-432290-390472-280976-209822-232982-156594
3402.80-287962-325734-327782-235544-197970-224170
3408.59-243512-369344-340164-309372-197526-218816
3414.37-363848-417218-509942-386558-315252-177536
3420.16-210584-309950-390050-268564-225552-287354
3425.94-386980-362712-341470-323902-309872-189026
3431.73-189654-226818-219686-217764-229570-212530
3437.51-318600-309550-221272-204720-295592-248054
3443.30-221168-300540-431700-396992-277566-296700
3449.08-269970-197238-275714-311966-414974-289402
3454.87-126976-142590-189290-162584-188044-160168
3460.66-96390-300898-372224-267978-246074-303996
3466.44-477004-504128-415808-381078-376770-326754
3472.23-305252-295646-387630-420726-299910-176344
3478.01-307530-371784-332842-267496-258330-204118
3483.80-179230-268202-435512-357554-351676-408512
3489.58-410620-348658-373644-415174-423440-362284
3495.37-350488-262352-274396-218340-102316-185026
3501.15-471822-405972-309832-361986-374076-320124
3506.94-322830-308140-419050-403666-414010-383014
3512.72-426912-456766-381756-172404-122012-245468
3518.51-325800-283790-384708-367530-382496-272422
3524.30-180330-203770-277322-330204-396340-389538
3530.08-451278-396238-273566-278332-360446-256156
3535.87-230070-309562-444186-323848-260902-303304
3541.65-235902-223868-326146-428620-411864-220300
3547.44-188918-280008-344826-288252-219244-126360
3553.22-181844-250054-355402-468406-442504-328026
3559.01-326978-240166-247106-273364-345632-239732
3564.79-233408-262230-221628-255252-377808-334656
3570.58-269258-355770-317158-306282-428418-277924
3576.36-137168-213496-454336-420566-331608-238836
3582.15-175626-133482-197910-269204-257998-280032
3587.94-410486-343130-367424-366920-316206-153866
3593.72-115320-81050-188516-262282-189446-184382
3599.51-241284-263946-249432-168228-106276 24662
3605.29 50988-97002-192216-158548-180072-101154
3611.08-80370-82702-66196 11044-6160-35214
3616.86-81078-109004-175074-153272-17460 57578
3622.65 99358 2326-56454 64492 185680 272710
3628.43 29236-228580-194372 36488-123466-176396
3634.22-46568 148488 118234 174082 153466 148820
3640.00 185024 200614 154444 114684 76974 61958
3645.79 7096 22554-58142-107330-148804-272036
3651.57-426610-391126-368590-244292-214644-219492
3657.36-218628-285928-329180-307414-182708-131750
3663.15-239436-212294-193630-197914-349092-335076
3668.93-179172-248750-311432-265112-256040-265038
3674.72-331164-256308-213822-213486-310976-304620
3680.50-234730-224474-238386-209846-233008-62416
3686.29-105132-240968-267096-185870-201704-241956
3692.07-233828-167332-177588-178608-282356-244436
3697.86-187572-197638-287656-265336-272574-290312
3703.64-299238-197922-99326-79142-148806-179432
3709.43-257910-162192-167104-238166-373064-366580
3715.21-306590-228948-175934-164084-235414-195022
3721.00-148814-131106-163288-152054-111544-99616
3726.79-143530-212862-325280-226070-161062-136588
3732.57-123590-138138-266070-300038-231438-194330
3738.36-312094-302920-229718-169610-140762-177186
3744.14-283848-367996-370236-221946-283018-363646
3749.93-315780-230400-254878-252184-255572-280388
3755.71-358978-427166-358528-304164-370492-255130
3761.50-223860-229326-200770-308068-417426-281570
3767.28-222920-219608-304804-279180-279470-254858
3773.07-227234-265602-371096-330628-234590-152028
3778.85-268714-267396-220588-182636-260888-344242
3784.64-339766-212080-275988-418440-422186-247996
3790.43-300216-348234-253964-127744-223228-344792
3796.21-366256-243260-361576-365712-303258-315812
3802.00-267508-116942-172364-266718-299346-267146
3807.78-178746-182416-228682-293504-330362-298538
3813.57-257478-183408-211738-306676-353712-275796
3819.35-231850-220828-223426-193734-223054-272204
3825.14-314616-206222-185562-222490-247724-171670
3830.92-210214-182268-166014-136404-205638-309896
3836.71-274868-134766-306198-276170-268738-262558
3842.49-147762-63050-117190-107572-159308-224704
3848.28-188508-147444-204034-210388-222264-218260
3854.07-305068-274058-187740-238288-271494-165100
3859.85-96136-124382-304294-337102-379940-338414
3865.64-262534-226706-248830-237288-144942-84938
3871.42-215058-286748-267312-274024-318124-258828
3877.21-168160-209762-346702-294940-199202-208930
3882.99-337812-288698-298992-254248-207854-240728
3888.78-190848-197914-291924-232018-322448-414732
3894.56-347548-240306-269040-283446-150406-112644
3900.35-166952-273546-346562-317820-388222-513930
3906.13-586766-494478-302410-148300-110534-140042
3911.92-266774-243696-257452-267000-263722-354962
3917.70-498492-406026-288044-253244-321792-351700
3923.49-368082-332006-386870-350468-297702-276624
3929.28-342842-258338-312142-332536-269664-276114
3935.06-370046-378384-308382-236896-283916-297326
3940.85-263804-223162-294652-262420-336166-342474
3946.63-265424-156326-273376-434200-413870-409068
3952.42-414034-376042-323414-367162-403104-204590
3958.20-126048-146008-317676-423910-358902-340532
3963.99-322188-299118-391900-396060-429134-326644
3969.77-347842-446664-418828-452042-505178
##END=
