##TITLE=Ethylene
##JCAMP-DX=4.24
##DATA TYPE=INFRARED SPECTRUM
##CLASS=IUPAC A
##ORIGIN=NIST, Anayltical Chemistry Division, 301-975-3108
##OWNER=COPYRIGHT (C) 1998 by the U.S. Secretary of Commerce
##DATE=98/10/1
##$SPECTRA VERSION=1.00
##$UNCERTAINTY IN Y=2.1 % relative (B=1.1E-04,C=8.5E-10,D=2.7E-14)
##CAS NAME=Ethene
##CAS REGISTRY NO=74-85-1
##MOLFORM=C H2: C H2
##MP=-169.15 C
##BP=-103.71 C
##$NIST SOURCE=QUANT-IR
##SPECTROMETER/DATA SYSTEM=IFS66V (Bruker)
##INSTRUMENT PARAMETERS=KBr Beam splitter; MCT Detector; Multipass cell
##STATE=gas
##SAMPLE DESCRIPTION=Ethylene Primary Gas Standard
##PRESSURE=101.3 kPa
##TEMPERATURE=23 C
##SAMPLING PROCEDURE=1 L/min Flow
##RESOLUTION=1.9290
##DATA PROCESSING=3-Term B-H Apodization
##XUNITS=cm-1
##YUNITS=(micromol/mol)-1m-1 (base 10)
##XFACTOR=1.0
##YFACTOR=4.5474E-13
##DELTAX=0.9645
##FIRSTX=574.687
##LASTX=3974.595
##FIRSTY=-2.72E-07
##MAXX=3973.63
##MINX=574.69
##MAXY=.0007068
##MINY=-6.65E-07
##NPOINTS=3527
##XYDATA=(X++(Y..Y))
574.69-600074-497772-453352-647804-1052808-1160600
579.51-954360-788458-740302-728486-709920-726718
585.29-696866-710804-801918-917522-906810-812550
591.08-794144-836552-794986-655164-504650-582882
596.86-751712-801890-726266-709258-683492-592898
602.65-531990-590758-637200-648192-648884-637214
608.44-595728-567960-540908-499926-447520-488546
614.22-525054-456998-376760-414944-424580-453772
620.01-511106-504332-473610-474322-471088-530988
625.79-521606-494146-517390-527192-487464-473422
631.58-515870-552322-510300-465616-371786-389096
637.36-465046-471108-445866-461944-444780-408868
643.15-369120-340676-280482-261632-313372-386520
648.93-392900-381886-381494-370874-361698-397650
654.72-362548-311354-273396-240918-244066-315054
660.50-339638-352266-354642-345372-278016-151318
666.29 22444 18092-65286-104182-64278-47174
672.08 26136 88814 59814-8496-76374-138474
677.86-121282-72046-55264-84342-83642 11256
683.65 121378 178894 144320 61408 50980 80586
689.43 124842 155552 195472 237828 359358 492868
695.22 601644 662302 678762 411352 139172 88510
701.00 142504 205056 320700 436672 564278 638620
706.79 764650 808646 827860 717326 635078 662206
712.57 806400 817548 792692 922208 1371488 1762852
718.36 1761442 1550630 1474458 1349830 881454 605718
724.14 753130 955872 1225066 1483676 1659124 1574292
729.93 1430184 1427460 1542376 1616942 1517562 1513242
735.71 1890800 2434768 2887780 2762404 2117996 1696490
741.50 1664368 1833884 2017616 2163026 1955520 1897968
747.29 2257886 2284402 1768104 1276602 1251588 1448876
753.07 1784062 2158610 2658130 3324584 3907820 3937712
758.86 2949714 1674968 1215620 1249172 1398478 1687040
764.64 2101458 2670136 3419676 3443418 2183766 948580
770.43 628172 731178 994654 1491586 2297366 3365664
776.21 4447448 4370480 2691066 1084904 580800 544612
782.00 617642 882608 1519826 2470606 2972054 2368262
787.78 1319490 776862 581844 524726 653802 837390
793.57 1356560 2585344 3194810 2070642 898666 621662
799.35 682754 769702 783844 754634 932122 1212400
805.14 1261720 1095704 993100 987008 1020426 1035704
810.93 1082526 1121164 1216682 1319764 1397700 1516014
816.71 1682530 1809326 1926364 2106732 2310282 2467156
822.50 2767102 3089666 3303526 3549566 4006134 4382748
828.28 4564486 5045478 5515712 5905808 6713122 7973708
834.07 8993282 9661022 10397900 11043760 11580770 12370600
839.85 13012500 13333440 15144610 18208570 19527660 19282450
845.64 19766030 20935800 23077760 26658490 28682300 28336950
851.42 28857550 31358610 32622270 33798920 37683730 39991400
857.21 38504720 38387050 41331910 44483570 46521900 49471560
862.99 51588420 53956830 57696320 61399950 63784110 64996430
868.78 64488370 64298600 64905030 67153500 72914380 84254930
874.57 87513100 82020540 84319100 93313600 98242160 103286000
880.35 107683200 103664800 92899220 88173260 102117100 121651100
886.14 122704400 116279900 124509700 133339000 122726000 108112400
891.92 108832100 122383800 150163900 183882000 188863500 154748500
897.71 126364300 113390600 121490900 159553900 182050200 153647200
903.49 124968600 123629900 133254400 176635600 266134400 271883800
909.28 181005600 126848000 115820500 119590800 166478100 248912900
915.06 239082200 148889700 100905500 96870510 120267900 180743000
920.85 295343600 332689600 229677900 135891600 112136500 118556500
926.63 124612800 150065000 188864900 185927000 158926600 140716200
932.42 133231600 129267200 126360000 132913100 148638600 173541300
938.21 209730600 234120600 230572200 220124300 225552200 250488400
943.99 301674000 377418300 494139400 795251800 1358039000 1554335000
949.78 1069004000 585500800 366969500 266264500 241035400 240752500
955.56 229452000 212322600 194694900 179408200 161774600 151665300
961.35 156597500 162310600 167182700 177920900 174697400 165222300
967.13 182548300 229506300 254106600 204937000 142240000 128269500
972.92 133103700 135384300 143113500 172745900 245633300 281316000
978.70 212183400 140141600 120695500 120854300 121176000 137788600
984.49 210975800 328897400 402190900 329642700 186424100 126340200
990.27 126519500 130566100 137710800 139541000 151262100 212791600
996.06 262376400 214005800 155080300 148319700 150917100 140894300
1001.85 137778800 154694700 180538300 228649000 256314200 213946800
1007.63 158326800 131980400 126379000 128991400 125206200 125769300
1013.42 139930000 149354600 141079800 122162800 108383400 124433100
1019.20 144769900 134351800 122465300 120949600 112808200 103156600
1024.99 106730800 126734400 143008800 124153800 95560280 88027900
1030.77 90060630 87723250 82078040 76629740 77532860 88131270
1036.56 94420150 80528080 62883020 55662740 52968440 54656580
1042.34 64185580 70451140 69811480 73187350 82387520 82968310
1048.13 67625780 53291780 46856400 44177530 41786480 39058160
1053.91 39983440 45120880 47932440 49714320 47720240 40979210
1059.70 34949220 32104600 30067760 28380000 26273000 24398600
1065.48 24373010 30403270 38912810 39732240 33813590 28849520
1071.27 26254570 24425680 22713660 21167180 19689280 18544730
1077.06 17812430 18048540 19534990 20025180 18368710 16871260
1082.84 15577540 14423550 13201610 12250590 11367740 10842130
1088.63 10776700 10688270 9929750 10708100 12286650 12158840
1094.41 11216540 10296520 9452504 8786896 8143710 7642336
1100.20 7159082 6515504 5672614 5211842 5582976 6208598
1105.98 6022924 5514116 4979428 4541958 4195378 3986202
1111.77 3621900 3109534 2621870 2335838 2183424 2647436
1117.55 3413140 3578100 3284404 3022940 2812894 2626314
1123.34 2263934 1923500 1652316 1457988 1277036 1169144
1129.12 1159242 1355382 1393998 1267300 1093282 950252
1134.91 766206 631538 512956 426640 305236 227594
1140.70 137692 166652 390244 599746 544204 429942
1146.48 302998 220230 126770 85680 29002-18470
1152.27-96292-123926-139810-105370-110660-141234
1158.05-188974-188680-211130-227584-267406-279294
1163.84-316252-353658-408758-416102-402400-336808
1169.62-326132-323006-333532-331902-376890-410302
1175.41-442098-445474-467270-461938-471442-456138
1181.19-450264-431868-443966-447124-473012-478124
1186.98-500822-503990-522646-511982-510242-506990
1192.76-520398-503908-512182-514300-529874-517640
1198.55-515550-508186-526466-531324-541112-523152
1204.34-528958-532374-546898-533140-535390-526978
1210.12-544706-554658-554604-514716-514764-524856
1215.91-545244-538854-534798-512600-514510-513042
1221.69-540996-556614-564778-546810-540418-528724
1227.48-538738-536336-551010-548052-550468-540848
1233.26-540788-513406-505784-508908-524922-526732
1239.05-543208-540274-540322-520428-516618-514566
1244.83-527836-528310-533678-527056-531896-527328
1250.62-541032-524672-510776-513136-547632-563296
1256.40-563032-548326-561816-562498-556338-530854
1262.19-528144-527288-529332-516676-532834-542634
1267.98-535256-515128-525124-531602-540296-539192
1273.76-543654-523064-514092-511832-523076-517276
1279.55-527014-538420-555794-551644-545900-530130
1285.33-540710-548490-548104-533036-529086-516830
1291.12-512486-510926-527486-529382-522338-519574
1296.90-545014-544904-532478-518906-522262-515756
1302.69-506438-482548-468476-465258-491202-513118
1308.47-527192-524470-527268-526280-528406-525274
1314.26-537790-542062-545668-542092-528676-490634
1320.04-481888-489828-496020-481544-476292-488844
1325.83-506192-496558-498068-504724-503694-488400
1331.61-477790-444856-405568-389018-415310-440840
1337.40-468402-478520-472800-458956-458168-469426
1343.19-488044-477170-468562-464330-442942-400072
1348.97-367278-363356-396508-429726-444280-447636
1354.76-472112-488802-481938-472624-467630-455726
1360.54-461258-448986-396112-289132-169174-105148
1366.33-102398-157184-217150-195366-144404-99350
1372.11-34076 65808 166176 274214 408330 543998
1377.90 744054 1077584 1380762 1577126 1861706 2245308
1383.68 2639374 3128752 3695600 4281642 5046922 5947648
1389.47 6739334 7657526 8942944 10144810 11179960 12746310
1395.25 14587070 15858280 17422120 19984330 21947860 23301340
1401.04 26157460 29194900 30571520 32917480 36822480 38907240
1406.83 40478260 44445380 47566290 48323550 51016780 55105380
1412.61 56445990 57372510 60878250 63278970 62974910 63601160
1418.40 65553800 66048770 65176060 64443390 64251350 63677330
1424.18 61029900 57440040 55298390 52819830 47425690 42057350
1429.97 38883510 34668560 28294470 23282710 20221080 16222030
1435.75 11814890 9488582 9512380 11079090 13691300 26514140
1441.54 63555970 103630800 110765500 91934200 70404350 53881120
1447.32 42609810 34340060 30023000 29748920 29447670 29194920
1453.11 31473520 33972930 35675110 37559780 40158400 41533580
1458.89 43556040 46192760 46629550 45293280 48238780 50922580
1464.68 47767460 45361940 49114660 49815850 44732800 43296500
1470.47 45706320 44044620 39761360 39014180 38785230 36617290
1476.25 34082460 32591480 30607320 29293910 27615080 25127950
1482.04 23024280 22385350 20882720 18453090 16801390 15912200
1487.82 14742520 13159780 11723480 10512990 9871292 9137874
1493.61 7723960 6590954 6152808 5702692 4739976 4037506
1499.39 3670942 3289076 2794720 2371766 1953080 1612496
1505.18 1324980 1087502 847836 700612 578786 451450
1510.96 246774 116986 50028-12176-138006-224694
1516.75-260778-260286-360864-454710-490596-433434
1522.53-409898-440740-505060-503910-519380-515852
1528.32-520514-512454-527280-540922-594622-595340
1534.11-574394-552916-571844-595826-623934-595902
1539.89-604434-621334-617590-577914-587876-579132
1545.68-567538-558446-573258-566186-574344-560068
1551.46-571524-588942-601154-549020-526722-582870
1557.25-676870-688330-655606-583550-566334-558148
1563.03-557232-549448-549030-532886-550606-573956
1568.82-591598-560866-545916-518766-523324-559248
1574.60-619690-616356-586982-560470-560414-546608
1580.39-543688-524508-526278-533732-551872-538030
1586.17-533748-529450-529512-497096-502650-529242
1591.96-556268-550132-549290-538032-543452-541366
1597.74-546088-532986-538682-543962-555398-537250
1603.53-523834-507794-517296-521722-537176-536056
1609.32-539076-519994-513636-509958-532806-561748
1615.10-610234-604660-567318-531146-523904-519268
1620.89-534274-534402-529616-516346-531168-548894
1626.67-576494-558768-533898-519072-533626-531016
1632.46-544322-589406-637836-608546-575446-550114
1638.24-546348-538972-541204-535704-540178-540098
1644.03-576784-605698-607668-576376-553576-544104
1649.81-586738-658214-718540-678720-602596-543398
1655.60-538718-541064-550068-542904-548222-561180
1661.38-589184-576174-561460-546558-536024-533110
1667.17-575792-604318-598228-572904-572278-558172
1672.96-564388-587048-597762-559472-533276-524436
1678.74-553210-561288-561540-571690-621190-639088
1684.53-595512-533812-526140-515522-514232-503196
1690.31-499428-495066-505004-517448-569660-575260
1696.10-534890-511582-558404-599536-574556-501274
1701.88-468568-450444-456482-473390-453932-387326
1707.67-377650-382780-393138-382860-405082-414270
1713.45-390598-347870-367444-425524-411036-320012
1719.24-286868-251668-224998-236566-274226-261368
1725.02-221126-184860-171128-189370-203562-161152
1730.81-89616-73000-209544-273202-244086-150504
1736.60-77888-100636-172654-94204 108176 195744
1742.38 18898-138248-94206 25790-16176-134066
1748.17-32442 222672 177808-62378-82400 69310
1753.95 44920 7690 141840 144996-25240-89738
1759.74-153824-151556-149148-239520-314352-330432
1765.52-344526-354558-363548-312570-257118-235212
1771.31-228138-113940 6852 24954-12392 2632
1777.09 7516-3086-18188 26498 79768 76268
1782.88-14916-63808-59946-59886-121312-170602
1788.66-212854-286532-393960-428040-383184-296950
1794.45-329270-416308-470684-462550-467750-505728
1800.24-546882-544602-596214-615000-560622-462558
1806.02-445628-467220-474326-455822-478334-464996
1811.81-416276-382644-424642-425108-418226-317286
1817.59-149454-25324-1066 41758 86132 221808
1823.38 396880 463634 512930 759846 917468 995262
1829.16 1211934 1520874 1773296 2002286 2447954 3031220
1834.95 3177486 3440282 3798464 4343912 5007310 5484848
1840.73 5722012 6079542 7057150 8006810 8387028 8667434
1846.52 9914692 11307220 11667700 11961260 13015680 14473330
1852.30 14917750 15691710 16415010 17439860 18612140 19290870
1858.09 18973410 20039010 22392180 22338000 20886550 22195580
1863.88 24501430 23474700 21970210 23020530 23895820 22775840
1869.66 21757850 21509800 21036160 20264660 19150430 17255670
1875.45 15761720 14815450 13520880 11843800 10899050 9528370
1881.23 7435070 5617086 5056558 5796176 9505770 25178720
1887.02 62183570 79888940 47556630 16075080 8459410 6473938
1892.80 6295936 7399256 8018886 8859234 10914130 12684800
1898.59 14272390 16763800 19224750 20461000 21874700 24127870
1904.37 25785330 26522290 27620220 28953080 29689270 30138370
1910.16 30599620 30599870 30156050 29675410 29362040 28679590
1915.94 27683490 26877880 26177220 25114670 24036060 22981820
1921.73 21455480 19806900 18780760 17599530 15991390 15013100
1927.51 14400140 13241220 11815050 10654560 9477670 8320838
1933.30 7638526 6926826 5945000 5297764 4903288 4292542
1939.09 3630074 3084216 2819930 2607062 2149782 1725476
1944.87 1447486 1234970 1158918 985866 607146 329564
1950.66 220200 120328-5202-185288-359412-442988
1956.44-418574-341804-308578-374482-412710-317626
1962.23-239958-306516-382912-334468-197730-80022
1968.01-108648-284966-473720-509676-342926-190822
1973.80-112672-13102 68082 63680-19542-90350
1979.58-98196-16162 118464 122978 21036-95538
1985.37-148410 2872 295852 428872 269090 964
1991.15-202038-251642-32070 341864 418962 250552
1996.94 148928 189128 256440 285914 406490 538834
2002.73 618966 636848 617558 647376 608196 707320
2008.51 899964 925542 825462 750552 1000596 1335740
2014.30 1418508 1294046 1393194 1699192 1747420 1595052
2020.08 1592950 1866964 1973910 1894592 1845882 1966470
2025.87 1997716 1871860 1778976 1773186 1742752 1667560
2031.65 1667978 1518386 1355000 1321084 1367714 1142424
2037.44 799826 591928 573210 520562 490964 655360
2043.22 1245984 2825422 6030274 7838878 4851032 1069278
2049.01-118258-136874 152240 497500 581460 591506
2054.79 878726 1229592 1437998 1738504 2140450 2360260
2060.58 2571044 2902324 3165604 3391636 3629708 3753392
2066.37 3881670 4013750 4037946 4088414 4133492 4007056
2072.15 3919972 3810412 3617160 3601356 3538046 3288436
2077.94 3131366 2877678 2597610 2497774 2265924 1984172
2083.72 1851320 1612212 1328958 1121312 983992 867090
2089.51 698158 476396 337658 253764 131584-15960
2095.29-72326-45618-79492-144766-136988-126330
2101.08-141268-90190-19542-118012-270320-261324
2106.86-201532-257010-267664-174554-109014-69324
2112.65-64036-174982-266724-289518-296582-258348
2118.43-105662 52784 162600 313484 409086 210542
2124.22-53942-123418-76140-29844-5274 73628
2130.01 353144 598492 490436 251688 181244 97018
2135.79 12584 107860 266802 428310 816292 1199236
2141.58 1003650 499832 271106 285412 323780 338328
2147.36 356768 481566 767028 926364 760094 519722
2153.15 488770 522114 488556 513464 687138 940262
2158.93 960466 615460 371718 377278 349446 315820
2164.72 377434 378724 282746 255002 299518 254942
2170.50 197958 198828 183468 184264 336276 477762
2176.29 449198 469670 731136 1009590 1075998 1083258
2182.07 1007658 883372 903252 887698 1001234 1408002
2187.86 1642662 1460166 1208752 1129234 1106022 1172354
2193.64 1275278 1226906 1157044 1073158 930546 927124
2199.43 1175526 1360318 1203474 904754 851188 1051272
2205.22 1089332 911018 860076 834050 762466 810098
2211.00 861092 831688 837618 797682 639038 467642
2216.79 396870 408832 462124 503048 454150 375248
2222.57 400318 478160 502150 433154 339600 283812
2228.36 284564 323892 313480 272658 237934 158120
2234.14 106830 150248 195776 170412 118238 57464
2239.93 15704 32912 118720 182108 171002 131874
2245.71 112624 105850 129578 229778 501802 879758
2251.50 952840 644232 313284 109016-10496-93696
2257.28-134040-151016-167606-199934-215752-211058
2263.07-229232-258470-269994-271180-275400-284484
2268.86-273012-247962-194238-151146-169092-219310
2274.64-271112-319128-321236-297538-269848-195030
2280.43-138752-213986-294324-312806-317468-330040
2286.21-321202-216476 14534 128890-5060-171918
2292.00-269788-324178-335364-335036-274824-139380
2297.78-84176-176820-261166-264236-246744-235370
2303.57-228128-246926-249096-210324-152430-155332
2309.35-219532-264634-235352-159482-124460-173016
2315.14-211528-216732-209482-192944-174104-149360
2320.92-64736-11072-74246-126580-128892-128498
2326.71-113118-74634-16332 18638-1808-24556
2332.50-7940-17982-53690-72104-48358 28748
2338.28 52088-22042-69610-78922-86702-98604
2344.07-120816-158892-199742-220708-207646-174702
2349.85-146522-148448-131020-89898-60360-32832
2355.64 14766 72416 127862 134872 128314 131168
2361.42 122844 91880 74418 82962 78488 43068
2367.21 23632 24634 24586-8866-64192-129218
2372.99-171808-195300-200120-202554-195022-187620
2378.78-200442-210164-194368-193364-216474-245156
2384.56-260456-267618-259900-229780-192568-175376
2390.35-162922-168636-221718-281052-290370-274844
2396.14-266786-254786-215510-181706-174726-199400
2401.92-239110-266246-264786-281126-289940-269350
2407.71-191048-36774 46864-46024-189192-278958
2413.49-292320-270168-260952-272144-256894-178612
2419.28-101682-162156-262550-278480-261906-264414
2425.06-253428-239858-196370-135266-152314-264726
2430.85-343288-365778-365292-355318-344242-359746
2436.63-382656-384672-381376-393004-399680-416248
2442.42-427414-409238-354378-319694-281382-222066
2448.20-206260-249350-282480-278290-264916-270846
2453.99-285730-308662-283120-193418-127200-178004
2459.77-247850-261500-266206-268530-231700-220138
2465.56-229396-236238-247682-248512-242556-262618
2471.35-286026-307160-303936-300376-319122-332142
2477.13-316352-312116-330698-353824-356848-377018
2482.92-401490-404578-397770-405718-407246-404188
2488.70-403894-415376-414314-421916-438114-440900
2494.49-426070-426684-446214-467514-467384-478420
2500.27-482092-462840-445176-462504-485198-492980
2506.06-486370-483478-470638-452294-432918-430432
2511.84-437390-444560-451006-477042-499884-507690
2517.63-487820-467424-453284-448158-451208-471202
2523.41-484650-489594-489406-490244-469526-452856
2529.20-449654-451378-450364-466226-482832-493850
2534.99-492966-496154-508240-521244-502736-473756
2540.77-452010-440618-440100-465126-488174-505834
2546.56-501660-499540-495970-489764-493460-514042
2552.34-519634-513058-503504-508830-516760-520352
2558.13-506422-502448-506240-490322-451658-442434
2563.91-442814-421272-359590-273044-226420-287576
2569.70-358150-387128-403226-444382-487546-502860
2575.48-487226-480584-489118-504278-493314-489946
2581.27-493050-490110-478462-474938-476984-493724
2587.05-497164-497136-481956-458646-453196-472102
2592.84-484784-497812-492166-488976-494018-494158
2598.63-481056-485450-493112-490340-476830-479724
2604.41-478866-470942-454324-449162-469008-508232
2610.20-516804-504664-488934-483156-468758-459216
2615.98-459182-482242-492344-477858-453178-455114
2621.77-455868-451360-442888-436536-434876-458570
2627.55-467352-467378-467664-466130-452160-456898
2633.34-463824-471434-487678-500654-484482-477386
2639.12-471874-478070-485220-484204-459220-444676
2644.91-440190-456912-466000-465840-476176-489536
2650.69-483148-485856-481144-477544-476226-481270
2656.48-482862-491280-486982-488798-493808-488556
2662.27-469250-471856-483108-502818-510904-524076
2668.05-530066-527208-510686-521956-532768-519672
2673.84-500284-504738-508706-510210-509436-529780
2679.62-538884-539882-527512-524474-516884-515098
2685.41-513872-518870-526962-554358-566886-552922
2691.19-517696-503358-499216-509100-523782-552036
2696.98-548014-523112-521754-552186-561966-554932
2702.76-534170-527470-527242-543696-550004-557086
2708.55-553544-549132-532940-530628-540270-553154
2714.33-548178-555124-560840-561468-544610-541500
2720.12-547054-552750-532696-513328-505402-523108
2725.91-525968-534432-535084-528540-516510-530328
2731.69-546302-547152-528534-544024-562214-560470
2737.48-544274-546160-544636-554716-561598-558554
2743.26-538490-542542-539484-542348-544664-545832
2749.05-542460-564092-572190-561836-544474-555714
2754.83-553642-555492-548162-547676-549928-569264
2760.62-571898-566064-545006-538472-535374-550846
2766.40-575472-601684-588540-581510-577510-572244
2772.19-556114-575652-587830-581174-572562-600508
2777.97-606846-587536-579336-609430-600734-594658
2783.76-622100-655290-633418-631138-649742-657726
2789.54-655654-672244-650376-632266-626716-651612
2795.33-674106-705404-713260-713520-691214-685598
2801.12-697366-717802-725066-766536-784660-758728
2806.90-731336-776896-814554-838526-833298-796084
2812.69-751472-785988-832608-853732-866316-904444
2818.47-879114-853820-859556-905362-930800-953500
2824.26-977768-988330-948046-933346-910904-921358
2830.04-950558-993428-996164-967002-952918-1025946
2835.83-1042036-1034730-1073970-1114074-1055302-1029558
2841.61-1049930-1016376-949690-1002766-1034094-1011528
2847.40-999154-1021372-940564-882082-928314-893134
2853.18-714362-723098-826584-833782-809592-890454
2858.97-907678-837898-812756-884408-821172-707200
2864.76-718212-807138-725986-638060-690638-733572
2870.54-615740-575370-602356-587432-522518-552340
2876.33-556520-542756-542152-570530-550242-574208
2882.11-644730-886748-1234288-1464540-1399086-1293614
2887.90-1234862-1176698-1080116-1083284-1037774-990644
2893.68-981556-979656-862854-772986-763430-797108
2899.47-759438-765122-748198-754270-672002-624044
2905.25-630992-728638-730826-649108-518972-543558
2911.04-518514-404206-307414-366680-299184-113008
2916.82 76536 57054 179306 415030 619302 727768
2922.61 1064644 1452044 1809602 2034018 2394576 2878012
2928.40 3570524 4157986 4757810 5485414 6391842 7083318
2934.18 7959494 9096182 10262690 11376580 13143510 14615690
2939.97 15480510 17106050 19975250 21354140 22047500 25050670
2945.75 28993590 29584560 30226130 34819850 38918570 38451950
2951.54 39961170 45874440 48828940 47337930 50272520 56638840
2957.32 57797820 55924280 59937310 64555270 62108470 60354830
2963.11 65329290 68107030 66125290 64824900 65818730 65057010
2968.89 63152450 60940520 58314540 55547040 53529160 49616010
2974.68 44526960 41087770 38925620 35308820 33334740 34545810
2980.46 33611400 26976610 18637340 15597970 23225430 67667940
2986.25 188674000 269625500 172320000 48209360 13693120 12231780
2992.04 15302370 20259420 23865140 27476900 33804830 40232800
2997.82 44169430 49234330 56420210 61996270 65941980 70901900
3003.61 75682910 79827970 83775340 85662790 86854680 92015240
3009.39 94841520 90579990 89462420 93493140 90083250 84271020
3015.18 87389060 88917980 82352180 81120680 83886820 78017860
3020.96 70180040 69693780 68896040 64463130 62095380 64426020
3026.75 66467700 62118810 54866420 50218020 46561750 42990830
3032.53 40427020 41741120 46206720 46800850 41639600 38374360
3038.32 37314550 35673330 35002040 37257150 45568540 57220220
3044.10 55000620 43468080 38257720 37197400 38402660 41146740
3049.89 42772990 51242860 58594500 49817490 40958170 40708280
3055.67 42399550 43800020 49169540 71443620 101244600 92326090
3061.46 62205680 52277240 51330840 51747450 55532790 66336370
3067.25 89922140 101281700 83412500 64578970 59968660 64115100
3073.03 73316540 87643230 116532200 140905500 121784000 88341730
3078.82 76065870 75696810 76037180 76694280 84418100 93468260
3084.60 90443020 85602870 91521950 96466820 87405480 75881400
3090.39 75216940 84302020 102196200 112731500 92076140 65546590
3096.17 58578600 63567980 75967060 81031900 71808480 58879060
3101.96 51274560 48587360 46269330 41645160 38988420 44224620
3107.74 56482180 66310360 66496500 60984270 59700430 70885870
3113.53 91089320 94478740 80798900 76743500 91282220 110004800
3119.31 111138900 104199400 104660500 115364200 134261300 133883200
3125.10 110794100 95226780 89380500 90341080 99269530 120425200
3130.89 136403200 116306600 89166450 78838970 75372980 79111220
3136.67 100281300 141466000 151537200 105753100 67950350 61844030
3142.46 59653590 58341000 67320930 83541320 86702780 71473780
3148.24 58671860 53088040 50264820 53769510 67617950 87600130
3154.03 84695820 55264200 37505230 38467480 40900270 41554810
3159.81 47798720 55958380 50477730 36701990 30487160 29268260
3165.60 30976980 39700160 53199610 60061420 48890230 34221130
3171.38 29721500 28346580 27522670 30260730 36137170 37710080
3177.17 32696430 28054380 25949760 24995100 25026330 27236060
3182.95 29394470 26987860 24832620 24962560 24060580 22887020
3188.74 22653760 23261580 22585420 19669380 17229890 17217410
3194.53 18228680 18519430 19156290 19310370 16875600 13815830
3200.31 12268830 11540550 11826600 13877840 15206770 14280290
3206.10 12792970 11720430 10902700 10150570 9648464 9500920
3211.88 9713050 9551356 8813026 8095202 7477014 6886934
3217.67 6429148 5934830 5369446 5426182 6101546 6182792
3223.45 5781522 5370516 4964750 4471834 3994876 3604256
3229.24 3449484 3564802 3525134 3200256 2843010 2530214
3235.02 2267526 2013478 1813418 1801190 2054130 2145186
3240.81 1947902 1697710 1510642 1332354 1144428 989610
3246.59 917734 907432 884484 802412 704122 587544
3252.38 495724 417014 343340 311694 350638 335490
3258.17 272200 217128 176524 116810 38146-42710
3263.95-59298-34522-33496-59854-89952-147144
3269.74-202688-216716-195008-190724-177526-192202
3275.52-237776-268914-276612-295052-310382-335178
3281.31-349932-347214-326592-323200-332328-356704
3287.09-369374-352136-331562-353358-367158-352168
3292.88-329606-321690-332764-373218-372834-345766
3298.66-359228-406042-426132-421028-406148-390668
3304.45-360012-360790-393840-426948-434812-422168
3310.23-413072-415746-390820-386150-414236-452174
3316.02-462282-473208-490674-469344-422248-414560
3321.80-412218-395424-384194-413816-429856-421208
3327.59-422232-441016-452850-458850-452858-457838
3333.38-459284-435196-415002-414796-404672-397388
3339.16-401344-403862-393782-408912-439982-468172
3344.95-472620-472834-460764-407706-350574-341964
3350.73-356858-395408-431410-469976-499834-490438
3356.52-445336-415850-414734-425034-423344-412324
3362.30-406900-434906-447582-440394-426076-395722
3368.09-362458-385830-412314-410972-404874-418886
3373.87-466018-506922-474800-440326-444218-429150
3379.66-388922-390888-422172-440358-427482-407740
3385.44-389176-394556-402246-412722-442362-475288
3391.23-479280-473892-445076-449554-477608-462220
3397.02-424060-410614-410598-454030-500024-519980
3402.80-520714-533240-559338-553254-504696-462476
3408.59-453172-499314-543490-545008-522196-503556
3414.37-489512-499340-497424-468638-457330-494588
3420.16-518314-521216-554086-584732-550264-510074
3425.94-506780-506716-507468-516334-498832-470888
3431.73-444302-460212-503866-528870-515614-514264
3437.51-538844-547718-539016-569994-571826-513300
3443.30-449308-414792-427188-495228-540444-539672
3449.08-549536-574694-552086-519982-532906-546588
3454.87-517644-497664-520240-564930-572058-532676
3460.66-502162-510570-503494-484538-458012-432292
3466.44-424616-464766-506524-501574-462764-450808
3472.23-466492-471174-446070-454438-485894-485118
3478.01-456318-433154-395844-383282-393216-424098
3483.80-445832-448928-437940-442210-461316-465004
3489.58-462892-483836-494962-498556-504422-514806
3495.37-516390-497940-478942-480610-477328-461732
3501.15-389338-270310-209250-294798-432786-515530
3506.94-537332-524990-493212-457030-439998-454874
3512.72-468456-471936-463066-446058-423492-421238
3518.51-423946-428720-405976-376982-377326-364612
3524.30-325072-350196-402496-408280-393488-414176
3530.08-446646-446688-399970-361396-338982-341664
3535.87-371842-409346-427810-436818-448530-467814
3541.65-476048-472282-442512-425246-445592-498718
3547.44-531684-517492-487160-490834-507330-505312
3553.22-497082-499946-485954-474686-486916-504770
3559.01-519266-537794-531658-525284-530764-544096
3564.79-548872-539800-524026-520966-505362-503772
3570.58-512572-519238-508700-492452-479862-486254
3576.36-501998-510966-501706-492220-489476-473118
3582.15-440294-428396-434014-484838-543320-552506
3587.94-502670-467444-485432-508228-522850-539624
3593.72-526816-531560-539424-517948-478882-482564
3599.51-514034-516136-488352-484262-494234-497474
3605.29-482500-485224-519070-528612-486290-482330
3611.08-512884-514434-477424-457526-477174-505674
3616.86-503516-503774-508324-497036-464064-443668
3622.65-456436-477798-466884-462504-489474-546012
3628.43-561308-511934-466182-460432-469374-478022
3634.22-479574-491612-490858-492192-508576-525222
3640.00-506844-475918-448050-445728-458604-483832
3645.79-486880-476142-498070-532070-531106-518758
3651.57-509868-537998-567456-563786-534032-521008
3657.36-528764-526526-497020-467556-452268-463742
3663.15-480176-479806-449434-433730-461542-525694
3668.93-547782-513944-474588-484974-513528-536108
3674.72-530044-517560-513918-513024-480444-475810
3680.50-521888-529908-492068-474520-472200-521474
3686.29-594760-617950-585298-586960-596750-556664
3692.07-549654-576864-567844-577920-573878-534430
3697.86-551670-624966-618916-572598-612352-678218
3703.64-601478-499762-543272-639880-649472-618820
3709.43-599120-640526-676416-569308-484346-591072
3715.21-659026-557420-514064-628230-701000-656280
3721.00-620036-627636-605988-578124-559694-591892
3726.79-677902-715056-579282-488092-598492-652984
3732.57-584534-670246-812534-748098-545864-530750
3738.36-620490-596614-525742-572988-701180-755306
3744.14-646576-577350-604044-603522-581766-589726
3749.93-630330-634838-528072-506220-598968-595260
3755.71-479128-477468-574410-573482-472020-465294
3761.50-523246-497996-450384-486590-500582-434294
3767.28-359056-356046-384734-402958-423324-510060
3773.07-685440-923376-1153770-1072602-414168 90846
3778.85-55750-343692-464356-499914-489440-460584
3784.64-435328-443352-461652-441002-355508-341106
3790.43-427662-431524-354538-404576-453008-336394
3796.21-281454-419196-482138-405242-438952-529858
3802.00-402644-254632-348618-484708-370206-251012
3807.78-375736-448556-316792-337006-501738-459338
3813.57-336174-439202-512914-336736-233614-419930
3819.35-517418-421158-430950-511992-420660-329818
3825.14-394822-372716-263172-364092-511630-444994
3830.92-383608-487124-466042-379258-455688-547806
3836.71-482694-455398-520744-469420-414554-504132
3842.49-466024-321288-343466-396630-277830-289908
3848.28-449774-413698-315020-406044-461668-413922
3854.07-398606-350074-188558-175302-303844-296580
3859.85-226060-266870-271892-222454-247116-296112
3865.64-267898-245674-266580-282464-243028-215534
3871.42-224934-248124-258328-266868-277676-255476
3877.21-181328-163758-219544-275500-290156-289036
3882.99-280810-297192-329228-325958-243988-195570
3888.78-231504-283768-283800-261510-258286-289112
3894.56-318770-328216-289762-269596-292030-310888
3900.35-336586-371846-376280-375590-352090-308376
3906.13-281074-312874-324696-283318-253210-283582
3911.92-320720-350246-349058-326630-284676-218368
3917.70-136242-58352 8748-41988-149226-203618
3923.49-228648-263286-278668-299900-312842-299878
3929.28-299064-317534-320136-340336-348528-347926
3935.06-335018-330440-328278-333810-325774-313618
3940.85-330116-359312-368656-356680-316222-307396
3946.63-330380-385192-427862-421956-381750-316204
3952.42-236722-251596-324716-373186-360266-299346
3958.20-230590-228180-279478-321504-320036-310444
3963.99-247938-184054-188514-242976-293508-308106
3969.77-244054-185060-193378-261000-310474
##END=
