##TITLE=Bromomethane
##JCAMP-DX=4.24
##DATA TYPE=INFRARED SPECTRUM
##CLASS=IUPAC A
##ORIGIN=NIST, Anayltical Chemistry Division, 301-975-3108
##OWNER=COPYRIGHT (C) 1998 by the U.S. Secretary of Commerce
##DATE=98/10/1
##$SPECTRA VERSION=1.00
##$UNCERTAINTY IN Y=2.8 % relative (B=2.0E-04,C=3.3E-09,D=2.7E-14)
##CAS NAME=Bromomethane
##CAS REGISTRY NO=74-83-9
##MOLFORM=C H3 Br
##MP=-93.6 C
##BP=3.56 C
##$NIST SOURCE=QUANT-IR
##SPECTROMETER/DATA SYSTEM=IFS66V (Bruker)
##INSTRUMENT PARAMETERS=KBr Beam splitter; MCT Detector; Multipass cell
##STATE=gas
##SAMPLE DESCRIPTION=Bromomethane Primary Gas Standard
##PRESSURE=101.3 kPa
##TEMPERATURE=23 C
##SAMPLING PROCEDURE=1 L/min Flow
##RESOLUTION=0.9640
##DATA PROCESSING=Boxcar Apodization
##XUNITS=cm-1
##YUNITS=(micromol/mol)-1m-1 (base 10)
##XFACTOR=1.0
##YFACTOR=11.368E-14
##DELTAX=0.4820
##FIRSTX=575.169
##LASTX=3975.077
##FIRSTY=6.99E-06
##MAXX=3974.59
##MINX=575.17
##MAXY=.0001825
##MINY=-8.73E-06
##NPOINTS=7053
##XYDATA=(X++(Y..Y))
575.17 61556030 50662140 62854410 70727700 75891140 81204820
577.58 87604260 93327500 91948790 104379200 105183300 113713900
580.47 116196800 124071600 135310300 140851600 145931100 153328400
583.37 163133600 173086400 182128500 188251500 188936100 201946000
586.26 213933700 225931400 231729300 238828900 241849000 251970000
589.15 262636800 271721900 277961300 283883700 297190700 305534800
592.04 310519700 321817800 324803200 325673300 333208000 341174800
594.94 334586000 343661900 340233300 348238500 344149200 347032700
597.83 343777600 340929200 337198800 335063000 328674500 328550100
600.72 319612900 336394000 335551400 302274000 303849500 269134300
603.61 228479300 225480900 201884100 194367900 172966700 171320300
606.51 145454100 163227100 155128900 223961200 290932000 530819100
609.40 443089000 347690300 464152600 115859300 93189060 95835500
612.29 125128600 133650200 169303800 186566400 222269600 243792400
615.18 276988600 297405300 328380600 348375700 375457800 391110600
618.08 411764400 424107000 437563900 447477300 457752700 461849800
620.97 466480100 465269200 468449100 463050200 456863600 451255000
623.86 443322800 428451100 418364200 403700500 389653500 373696500
626.76 357385400 337556100 322230900 304403800 284259600 266350100
629.65 249593900 227897600 211026200 193341100 175548500 160057900
632.54 145983500 129211300 114851200 102283600 90037780 76167450
635.43 68413540 55848220 49977230 40682140 38138110 27869960
638.33 23032500 18915060 17799430 13558670 10220030 7439614
641.22 7179660 3876714 4129730 1408470 2058114 1387724
644.11 1686372 1621912 1058794 966040-494294 1854200
647.00-596778 630526 1381610 871070 2074790 874104
649.90 749268 108274 418564 232884 461508 169640
652.79 1552986-1386834 1722626-12328 1153478 2174652
655.68 1136998-269810 307064 791192-146912 559210
658.58 998020 189432 522352 785910 853614 110998
661.47 1123158 524002 1382224 857486 57108-288046
664.36 333232 77660 552452 789868 164234 1576906
667.25 4860646 1647090 838574 151440-56718-183310
670.15-138692-266996 1556102 650418 71178 383678
673.04-298910 795976 103466 751450 957820 1182390
675.93 1767860-100050 256418 761118-383306-205384
678.82 277152 833142 1341900 1039252 203550-1391522
681.72 2128566 574028 1568126-300058-767408-341322
684.61 1125170 219686 741434-78474 1296564 273060
687.50 524344 1417642-319806 47354-501738 1144790
690.40 918844-194806 783824-166396-110526 64660
693.29 1565890-338814-470370 467422 735124-50832
696.18 1144232-78320 182072-59754-700920 430146
699.07 1830082-89350 657630 220650 1592222 861072
701.97-243036 341624 335448-354840 734708 244334
704.86 426436-327008-1305118 258308 608672 115998
707.75 311152-376702 509432 309406 981552 301150
710.64 1025568 511882-385280 250764 1343988 207732
713.54 891176-474512-85422 68532 647936 758250
716.43 393614-955748 417778-347076 1156528 134854
719.32 332494 344076 1594848 242114 55164 41640
722.22 400512 64430 505686-280062 1330546 220708
725.11 418782-121358 94576 1194216-8692 59272
728.00 434170-225826 445236-352048 637644 133354
730.89 351970 807496 257582 322276 797444-315364
733.79 1012976-154004 202268 430298-390948 291938
736.68 805924 781208 1088400-589638 514308 850144
739.57 163942 660090 1097744 819784 174850 601768
742.46 28456-26742 511466 767606 1226354 83302
745.36 1338268 584210 435438 119732 737206 645880
748.25 423932-109550-526734 647602 641408 647816
751.14 491594 307942 987588 1014472 672576 344892
754.04 693964-128834 205932 360950 1205422 65604
756.93 799940 356516 26790-459038 1214846 81172
759.82 613092 104714 161788 707210-223072 996906
762.71 382880 934158-156324-700098-91652 270196
765.61 249934 1145172-90796-13956 221022 1443462
768.50-156384 945012 26078 219976-61870 918816
771.39 212218 682720-155680-357758 584822-258356
774.28 822886 526472 704884 114014 498634-286998
777.18 549252-798314 148716 81556 256594 788922
780.07 865932 15492 1010034 517736 1102742 1064086
782.96 401746-177744 797436-341134 762000-569592
785.86 150636-212354 174216 200180-211706 517366
788.75 167798 535788 574280 510514-233384 1353172
791.64 619540 171044 933124 854998 706168 445140
794.53 78344 218238-215336 317074-73752-316048
797.43-399752 656176-901562 284652 170120 454856
800.32 810352 865348 760504 125668 407052 1240474
803.21 407644-694330 711330 351280 506352 77302
806.10-85152-542276 448808 694566 1004394 1510036
809.00 125928-699144 236792 569506 101578 1283620
811.89 400576-571828 1005922-322334 806 639154
814.78 1615788 72394 1165736 250416 246108-587420
817.68-426674 61532 1154002 103746 394146 789170
820.57 379894 1066746 76346 846928 432648 537834
823.46 19566-458650 510312 845176-140782 128234
826.35 880386 84604 801026 238530 2418692 257048
829.25 628660 838676 260766 483248-88750 793724
832.14 589462-47542 1205546 29264 1179702-164374
835.03 21294 1320450 564656 510544 952318 732040
837.92 678148 215220 623980 1330056 1037244 1273830
840.82 953314 952778 498670 1106164 1335646 1118154
843.71 890282 960388 1546430 1983778 1164802 1400620
846.60 1287750 1363008 1689626 1378582 820774 1335440
849.50 1647578 2212736 1511680 1492120 1620120 2289750
852.39 1705208 1331886 1442476 2164886 2011514 1758694
855.28 2840940 2260960 2619354 2649326 2895410 2400292
858.17 3329418 3700488 3415682 3185938 3177664 3198060
861.07 3411804 3249728 4257028 4165686 4934634 5240746
863.96 5240870 5864396 5047968 4322538 4471490 4879342
866.85 4162806 5380842 4600214 4735600 5408864 6057642
869.74 6993916 7950540 9979992 12432400 12950700 6503716
872.64 7550832 6931272 7776324 7300148 7818816 8210358
875.53 8962562 9277466 10104090 11514130 12910850 16423980
878.42 15808880 11277930 9788040 9724474 10785530 10011090
881.31 11556390 11235150 11819610 13134540 14399220 15648060
884.21 19107380 24850120 25579590 15030140 17049840 17071740
887.10 13851560 12756310 12145260 13043220 14541380 15463970
889.99 19196350 23869200 32606450 47273170 60320810 23536000
892.89 18542050 19389610 21922470 20412740 16944880 17839190
895.78 19915370 20457640 23515350 25558600 32635810 41407740
898.67 59792130 41675720 22533040 27581730 26655110 31310520
901.56 30462500 27855190 23995980 27663470 28626620 33887900
904.46 39264920 50196130 69646490 83837620 35925570 33936310
907.35 34981100 40520810 44260380 39607240 36380790 34424290
910.24 28198170 41966620 45285540 74054300 97802280 183452900
913.13 148222000 24809670 42217160 30232680 43854620 39582320
916.03 42904970 34049340 44698600 36108120 44629960 48262720
918.92 72827060 91330000 157034000 100967600 33991220 47410070
921.81 41716500 50994780 52832860 51804670 45379790 50014140
924.71 50934000 59908210 62085140 91051700 119657100 199246400
927.60 118362400 37706040 58429840 46159150 63933570 67107350
930.49 69858570 45771530 63611200 55568940 85493850 93947610
933.38 157246100 212687500 418995400 248638800 23006800 63499170
936.28 35033870 59905910 48178070 68151020 44920590 57475020
939.17 49452030 70694400 70124480 113305600 138227300 256719300
942.06 221361500 49299970 62651700 47387000 62069920 57704320
944.95 74512110 63912650 62631360 57523990 70919200 74960620
947.85 106952700 137009500 234673400 295633600 88244690 53903410
950.74 59356200 54601050 68021400 69955580 92200690 62281000
953.63 63888210 57596130 88979600 98311660 192417900 279784200
956.53 611723000 348936700 17351550 88111460 32400400 75223700
959.42 45674180 79449600 59669270 74537450 51776700 80828730
962.31 71609640 118699300 138895200 252666100 298104500 95953060
965.20 61878940 68950560 56164660 71217590 61618060 79261250
968.10 70150220 75315580 57619100 84228770 77389030 128239500
970.99 147284300 282903400 214522000 52924130 64907870 52461340
973.88 61006360 63836520 65884360 74301270 76291850 69947560
976.77 60880410 89487130 101567300 178724700 249321500 464169100
979.67 233119700 27514240 66859350 34557760 52824170 54727870
982.56 67413780 59799520 71993050 61792360 64565760 70030540
985.45 82266440 108529000 149000000 226532800 113277100 47070800
988.35 64552450 47229180 53271720 46579020 59443210 58846960
991.24 64539510 61685530 57227180 63647760 70995770 91936990
994.13 122777100 183206700 88144420 39537130 49254970 40765090
997.02 42617430 39954990 40764480 44287820 54601160 58132410
999.92 50994390 58435530 68935780 101191300 141803000 236782800
1002.81 117216400 21936120 43813040 28000300 35784590 26182720
1005.70 32714990 26155610 32028730 46077260 49199520 45644360
1008.59 51824900 58900790 72120130 103824500 80993530 30133490
1011.49 41954980 32360450 36959590 29697420 35306620 27829320
1014.38 32680460 27184080 36270610 36248310 38473150 41309030
1017.27 49972430 65782080 70141720 26981110 29263170 23090280
1020.17 27057810 21421280 24881090 20351620 23109900 19090490
1023.06 24235660 21475990 29944290 30871840 43874750 54920000
1025.95 81252670 35391430 16326820 18296060 16370760 15526760
1028.84 15111330 13886050 14063800 12800040 13817570 12684440
1031.74 14091740 13478660 25620370 25816120 34987170 30615390
1034.63 17407020 16654690 16576880 15584700 14490610 13396860
1037.52 13864810 12617520 12906310 12220590 12471810 12416200
1040.41 12049500 13594000 19782650 22039350 15455410 9507940
1043.31 11745200 9255954 10528390 8508430 10014550 7587880
1046.20 8175676 6610448 8205444 7381634 8679350 9104342
1049.09 9972052 14019620 18043880 6708892 6775108 5625916
1051.99 6597656 4650488 5573294 4486698 4679504 3304116
1054.88 5116856 3689928 4073256 3661334 5141030 4420554
1057.77 6048298 5347116 6374258 4899810 5749144 4060252
1060.66 5308332 3975774 4615034 3309658 4279294 2999194
1063.56 3876626 2894560 3774352 3117064 4218716 3593704
1066.45 3171286 2189064 3503904 2395222 3082220 2011122
1069.34 2667926 2013130 2581978 1378598 3098002 1824838
1072.23 2093024 1109850 2080972 2051762 2894832 1567138
1075.13 1935024 954036 1167452 928900 2017594 746358
1078.02 1358302 1217350 1483460 651002 968732 516700
1080.91 1315490 369266 1404628 301998 1333328-24570
1083.81 1187112 587342 1761538 888946 1190422 644662
1086.70 1731140 770638 393238 905252 886012 309898
1089.59 1490682 110550 843236-58808 1346304 163730
1092.48 503490 356136 385578 154456 947202 400794
1095.38 793944 167608 1241644-520234 638052 473888
1098.27 672950 633902 941216-28824 574876 115176
1101.16 750118-115878 670058 103422 838878 211286
1104.05 648382-82230 242246-217296 1069704-2404
1106.95 1057828 212754 283344 489252 575048 126648
1109.84 587586-132168 523936-277626 410026 232974
1112.73 592616-50934 850616 225400 1147994-784106
1115.63 479486-180334 424420-100938 179784 247662
1118.52 385018-161424 485672 182138 977928-32070
1121.41 567290 249542 630796-181690 301980-655854
1124.30 724742-79308 499522-318234 398946-179026
1127.20 1318152 52218 412272-19542 278358 427918
1130.09 497288-337036 684866-289412 700938-433568
1132.98 284948-494510 404904-502892 466462-178892
1135.87 460118 549542 368526-225524 204558-214210
1138.77 409882-80226 627650 137378 200452-111672
1141.66 605490-85090 689922-363138 286554 373258
1144.55 442464-58384 280408-60228 610192-517618
1147.45 527730 131118 343148-21288 588390 340266
1150.34 255282 491026 421334-263118 757838-199024
1153.23 954832 87176 316908 433430 349166 295806
1156.12 928774 489992 755116 381538 296714-528432
1159.02 822852 306852 598228 228330 439426 43982
1161.91 655614 273466 956972 412000 645884 424426
1164.80 736560 137198 749698 248762 460336 261112
1167.69 680732 517284 915802 346570 367788 515726
1170.59 903666-1292 582430 55176 1191480 504484
1173.48 835602 480154 773904 907030 1145654 609076
1176.37 174098 860198 955374 1227328 938412 868216
1179.26 606674 773114 1338572 701354 1094890 433414
1182.16 1846386 393840 1481088 708724 1464754 787128
1185.05 1514176 519542 1928304 770562 1917696 1083054
1187.94 2041180 980190 2212408 1130270 1792148 1147116
1190.84 1409130 939700 1604476 1226622 1855550 1226528
1193.73 2162220 1526790 2224226 1952814 2326666 1703046
1196.62 1967098 1652698 2202502 1488122 2249350 1598610
1199.51 2347030 1639912 2566142 1877174 2068092 1743618
1202.41 2486782 2111518 2337226 1677840 2190476 1344688
1205.30 1949798 2135410 1941000 1527384 1941830 1676656
1208.19 2201012 1511324 1770538 1605354 1805584 1590060
1211.08 2388094 1593502 1981596 1455738 2499482 1987846
1213.98 2127234 906962 995014 718988 1783976 1049472
1216.87 1302456 1422534 1917316 1651068 1949110 1591350
1219.76 2834910 2176276 3079162 2803166 3208200 2892704
1222.66 3231492 3174468 3429646 2496130 3189182 3439382
1225.55 3779752 3008080 3015318 2635868 2992290 2760128
1228.44 3021342 2225670 2812582 1755224 2293144 1822078
1231.33 1418520 1686624 1634812 1354046 1596190 868070
1234.23 1612970 580846 628670 524380 1831972 297596
1237.12 657188-23370 932346 963130 1194634 580230
1240.01 1090382 1230188 1385212 836436 1966274 889030
1242.90 1247544 1308086 1643592 1337364 1820816 1140014
1245.80 1822718 2236500 2636750 1934658 2008392 1972348
1248.69 2258406 2158170 2911834 2626654 2770516 2662654
1251.58 3139236 2900698 4106634 3855976 4514548 4272522
1254.48 4914452 5639534 6372192 6389670 7449248 7800356
1257.37 9216470 9233478 10769730 11860310 13122610 13331030
1260.26 14714850 15633630 17462290 18190770 20480440 21531560
1263.15 23488920 25753380 27823080 29459710 32436360 34538980
1266.05 37878100 40262650 44312980 47199040 51461460 54907920
1268.94 59721660 63472540 68838370 73361370 79242070 85100740
1271.83 91452650 97756310 104071300 110380100 118018900 125295200
1274.72 133537300 142157500 151079300 160013800 169654900 179307400
1277.62 190184000 200547600 211522100 222363400 234889600 246444800
1280.51 259222100 271427300 285040100 297487600 311711000 324685900
1283.40 338622200 352795700 366369100 379817900 393093200 405562400
1286.30 419473400 430658900 444540300 455835400 468290000 478214400
1289.19 488850900 498781400 508267700 517994300 523719900 527337900
1292.08 529109000 532542100 533158200 534080800 532905100 530433800
1294.97 523299800 516284400 504539300 491441300 477929600 461286500
1297.87 440512500 421277100 395863400 373564900 351183300 321759200
1300.76 305784900 289086500 241679900 192791100 152350200 127765100
1303.65 105939000 126422400 165729300 377839400 910737200 734651500
1306.54 388733800 271382300 153151500 145697800 186344300 252249000
1309.44 292242800 328026000 351892000 376772800 412998600 445682200
1312.33 480615000 512603800 544750000 572275700 596440200 617582800
1315.22 636323700 650098200 661715100 667566000 670519400 671781100
1318.12 669870000 663179000 651025700 638835800 624309400 608835400
1321.01 590366500 569841600 549178000 525989300 502363400 476785400
1323.90 452356200 426083100 404193200 388066500 362702600 336016100
1326.79 309435400 283362000 258821500 234720800 213213600 191675200
1329.69 173152200 154704800 138061800 122850800 110618000 95211660
1332.58 74749780 66976400 56599220 50569440 42854140 38724360
1335.47 32969880 32602820 29180230 27773810 25099650 70086230
1338.36 86598600 67026190 55131530 41986640 34263320 27123320
1341.26 24254940 20127100 18535090 16688100 16466820 15466650
1344.15 15452250 15499830 16002270 13137830 9237944 11153220
1347.04 9796070 11968600 11015820 15287700 15275370 17986050
1349.94 13132180 42305580 81750420 59814880 47656960 34121660
1352.83 29870040 24754010 24653190 21327570 22556630 21043040
1355.72 22487520 22074170 22825800 22190990 24228150 24520470
1358.61 29032160 21536690 18700520 20494350 20595730 25218610
1361.51 27856060 28358170 24270960 47023080 134449700 102414500
1364.40 70870290 51126410 41579570 36496260 35122320 31825610
1367.29 31911260 31429220 32343090 32361010 33951170 34166540
1370.18 33856470 34784070 36381920 40026740 32402380 16406000
1373.08 22094400 31908610 39283810 27798340 28402590 59379080
1375.97 347865700 262269200 134805100 82622860 48516160 41365610
1378.86 31156450 28490960 25315960 26575500 25939850 27527310
1381.76 27387280 29953210 29281590 31043690 31847410 36229850
1384.65 35622920 36981460 30130460 42412450 37820920 35413260
1387.54 32306560 64718480 276375900 189899300 95966480 65015300
1390.43 45992710 45616990 37671280 40465230 37055640 41835680
1393.33 38365580 43677900 40864850 45339540 42225360 49617860
1396.22 43661430 54919960 52466110 55787160 58500970 69623070
1399.11 40642930 60208840 30377570 147551000 390115500 194297100
1402.00 109713800 66328640 59448380 51954440 49342860 49658520
1404.90 47947660 51076020 46921960 52738100 47008140 55922920
1407.79 48552340 59755450 43348430 64382160 47138560 79800310
1410.68 90718500 100017700 19629410 89265070-12795070 616363600
1413.58 795770400 209370400 161143600 34965250 80755380 17809770
1416.47 64147210 21084590 61233450 25567880 61789410 30246120
1419.36 63772190 34413160 64731040 35177860 68008940 46353900
1422.25 73997380 71350190 90397230 40739460 83346220 28098310
1425.15 179059500 578183900 271783300 104976500 83642450 55421450
1428.04 67536580 47921650 68319700 48918920 70379580 49252230
1430.93 72323100 50222130 76918100 56550280 78895930 49994080
1433.82 80689560 50525130 120608300 62278020 86350360 45191610
1436.72 102872700 61396690 635705200 403178500 120014000 87542920
1439.61 69574420 57295380 68108090 50853270 71609220 46524770
1442.50 74857130 46813370 80305590 34915720 83076060 27811270
1445.40 92729760 15140650 178499900 59407620 98089060-776864
1448.29 146812600-76586540 550837800 1606152000-76822460 173051000
1451.18-7288498 120046500 8006096 98888490 21942850 90351340
1454.07 30140060 86412190 39677750 82621870 42699370 84282900
1456.97 45123610 80794230 47564190 107069600 80431910 76355770
1459.86 63989420 68911060 70539430 99533580 637143500 338950300
1462.75 77075980 107755400 49207020 89711960 52880850 85184250
1465.64 54432380 82558150 57862410 79080420 56560800 78943390
1468.54 56246260 75073780 55631260 86525210 94822380 64650530
1471.43 76870380 61131880 79662970 37462940 245929600 628391200
1474.32 113267800 109678200 34291180 93163880 36905570 86459900
1477.21 36597270 86347120 36642940 79514650 32938400 79381920
1480.11 28247730 79542180 22669630 102855800 83742070 78717740
1483.00 19754330 87572530 10860120 112187900 9167528 979480800
1485.89 510044500 32141960 83975220 23998950 79897520 57077440
1488.79 72073340 63427640 65258650 66282210 62709960 67871700
1491.68 56978710 70770810 52334530 88634860 70655040 72940620
1494.57 46519900 80821870 41005810 97235620 12176010 383748600
1497.46 339339200 28724130 85605300 34866400 66797090 46480260
1500.36 75225520 54263420 68456940 54932450 62348950 55363360
1503.25 57717020 55053670 55287250 75241560 52771880 57781350
1506.14 40728970 62412750 38564570 72790790 9960330 314335500
1509.03 246825400 4467812 68636460 16694430 55404700 21132960
1511.93 47935340 35187980 53672110 33988540 49545550 33003890
1514.82 47105330 31444610 69682720 42866210 41800320 32468420
1517.71 35339640 33417440 37446410 37499480 54354440 526271200
1520.61 144200500 11436220 45254970 15907500 38126680 16634080
1523.50 35014860 17730110 55200730 39008160 54317210 37309580
1526.39 52563210 44903100 54261370 33853130 51695260 29209430
1529.28 52412210 24811310 61573950 8062102 154526200 167759400
1532.18 10765250 50640330 22661940 40609460 24806890 35018350
1535.07 24617080 31855970 25634600 40622770 31339440 40051530
1537.96 36073520 36812480 30570920 34567780 27240260 33456880
1540.85 22478030 38179330 16004380 69808290 138120700 7641082
1543.75 33786140 13002010 27933130 13272820 23609270 12283590
1546.64 21697100 11557700 19643570 14038970 34636070 17062660
1549.53 25857040 14175420 24483130 10885920 25965840 6167094
1552.43 32023660-4110108 84940060 147520000-9504660 29467130
1555.32 2893040 21229140 5704776 17879480 6583248 16119110
1558.21 7471986 14676660 7534356 19397610 18515440 22885430
1561.10 16882820 22137140 15473440 22794290 13071010 23941060
1564.00 8517292 56111310 35091480 8672684 17595210 11453290
1566.89 14977100 11941170 13404990 11890550 12204210 11796990
1569.78 12214930 11384540 9535370 11473540 12964280 12482770
1572.67 11305150 12272780 9785940 12814020 8078908 19628540
1575.57 34102300 5746412 11572080 7027992 9716292 7141866
1578.46 8429224 6936674 7038846 6234340 7732940 5506412
1581.35 5474278 5642036 5088442 7026176 7852898 7724480
1584.25 6994842 8250468 5829970 12993870 33594130 3521056
1587.14 7419654 3451804 5526398 3656782 5380228 3861574
1590.03 4855536 3939366 4820314 3648166 4483452 3829660
1592.92 4030170 3794564 4216984 6206354 6425042 5676846
1595.82 5231776 8236188 11592450 3610598 6229780 3641062
1598.71 6040298 4212062 5247742 4231398 5616736 4202478
1601.60 4685540 4036574 4435106 2965558 3899210 2996666
1604.49 3591220 2908130 4012430 3557228 4100614 6898550
1607.39 5499250 3063874 4631496 3770572 4183494 2836332
1610.28 4095172 2443656 3168434 2280214 3103646 2096282
1613.17 2821030 2050468 3081340 1742780 3398368 2138996
1616.07 4168038 2850930 4876764 4456102 2163506 2466354
1618.96 2433058 2209458 2108842 1871156 2589556 2259088
1621.85 2446916 2137868 2444008 2473222 2045052 1706074
1624.74 2365810 1771708 2360996 1759850 1977336 1845738
1627.64 2938226 1650008 2703432 1748134 2102134 1777792
1630.53 1633966 1571610 2580846 1716846 2058304 1694874
1633.42 1755012 1565784 2087586 1902870 2404042 230896
1636.31 1494292 1059896 1922144 655874 1196228 767118
1639.21 1213828 1164224 1415258 972996 1423596 800508
1642.10 1451080 716430 1436914 592042 1034296 373010
1644.99 1399724 1377798 1378396 393296 1610232 874170
1647.89 875754 661900 1354816 496648 1347766 682794
1650.78 968662 32336 2311422 1371000 2215208 1097714
1653.67 745408 1079456 515032 604834 788302 201440
1656.56 678340 433514 604934 481792 907062 377290
1659.46 471236-128326 578250 381298 287632 375764
1662.35 1291308 361564 665446 121356 245688 218782
1665.24 574374 11350 622402 735528 483144 247342
1668.13 495884 745336 1103032-86534 419004-58754
1671.03 669460 364074 560778 239990 520742 76108
1673.92 372254 307138 1499070 376530 324006 70010
1676.81 617070 291558 255916-27686 335002 195072
1679.71 365726 364420 421180 370802 446190-60188
1682.60 547400 352648 623192 899082 1857836-21876
1685.49 1002274-57644 381504 149634 401586 87962
1688.38 601118 257958 572432-6106 480022-240576
1691.28 75526-266840 288574-86092 454406 297586
1694.17 511768 25614 1476718 1344086 243122 113918
1697.06 240420-283296 685552-105834 533550 985822
1699.95 1011580 811204 516910-64908 187894 112066
1702.85 178748-107922 641156 266960 651782-71022
1705.74 390538 126060 163648-211262 262566 91530
1708.63 274182 152280 323908 252258 254336-110124
1711.53 308636 350364 331990-18772 372930-77496
1714.42 720852 497490 182302-181424 335650 1631650
1717.31 817114 171402 633564 852 594400 235002
1720.20 232714 76274 780194-126072 381028 74172
1723.10 494652 225992 17392-159296 307402-1724
1725.99 492558 127612 553782-6536 9464 158114
1728.88 367964 266162 425254 127458 494906 16634
1731.77 535044-49816 1006608 611002 512774 1101244
1734.67 572802 265782 190878 207748 128420 291958
1737.56 272360 281198 65104 209274 857840 319966
1740.45 543846 203228 357274-120620 480962 201288
1743.34 283202 244594 534824 154796 391154-60966
1746.24 685520 85300 267734 366250 531570 196276
1749.13 72296 106008 176508 383522 806286 96624
1752.02 73172 348152 242918 348324 704222 238908
1754.92 398000 226524 331292 464154 172192 91038
1757.81 445172-266902 471428 289128 201630-116866
1760.70 317400 460520 659036 180674 582706 421730
1763.59 421460 158200 373764 65146 161008 41270
1766.49 205800-11176 524842 416360 286304 104630
1769.38 512840-6590 541146 480028 347314 346608
1772.27 974048 395056 467548 230066 454246-54178
1775.16 488780 156608 190440 110974 425654 31080
1778.06 311848 318462 271362 202080 218166-32684
1780.95-82366 210296 281364-39292 55984-68442
1783.84 135748 245868 550086 310202 421050 198518
1786.74 198540-123106 298952-19716 228232-24286
1789.63 474366 329830 685150 59736 164750 587116
1792.52 852932-27526 134724-37324 416642-26952
1795.41 241160 250244 438162 172126 95642-164144
1798.31 270984 315220 384472 55884 412222-124988
1801.20 41794 87554 356412 82186 362198 144076
1804.09 316264 328 214918-42942 417302-123456
1806.98 315018-128274 391904 7116 372652 162344
1809.88 332100-38186 80364 169672 284018 169280
1812.77 377642 242850 403554-333632 393576 124840
1815.66 37372-39978 221414 48740 234234 215314
1818.56 352590 87208 508450-10380 433530 63134
1821.45 370952 2684 258192-18080 266792-449360
1824.34-96436 60162-173072-352982 28070 375430
1827.23 562886 241290 474038-19996 481032 118674
1830.13 411840 73242 275132 204944 491666 144686
1833.02-66946 202650 260108 103456 240390 212158
1835.91 719912 464538 856456 267116 199648-204068
1838.80-136218-77138 38966-328020 157640 132028
1841.70 399680-178594 393998-349782 1022856 316008
1844.59-42020-9702 261292 172644 71716 313624
1847.48 384060 34106 433062 101636 547626 394426
1850.38 289476 336308 352640-458740 234986-348624
1853.27-38000-387106-76242-46082 247344 492320
1856.16 651208 73570 380990 134622 421258 243898
1859.05 236220-69370 404576-150776 271556 536212
1861.95 562524 563964 595166 325780 973666 648766
1864.84 614802-48908 218506-141084 93012-364514
1867.73 16280-575384 391316-329648 583468 898288
1870.62 1052430 665010 1046948 581940 684358 797822
1873.52 631862 475608 620206 968442 944408 1258808
1876.41 1342346 1589788 1879270 2088146 2317768 2194712
1879.30 1226366 1511096 946926 1273832 1218204 1534398
1882.20 966176 1336732 1245886 1492460 1626506 1995466
1885.09 2323500 2573758 2445070 2352412 2500876 2320376
1887.98 2524530 2401512 2863242 2754496 3033676 2992092
1890.87 3179668 3327054 3395948 3935464 3996948 3273658
1893.77 3583510 3134736 3631578 3319628 2954190 2885274
1896.66 3119438 2883778 2789848 2740886 2805492 2780656
1899.55 4019914 3387514 3980160 3282916 3293004 2928558
1902.44 3181772 3110584 3521368 3187748 2953450 2839570
1905.34 2807912 2647656 2732194 3125472 3118994 1712040
1908.23 2032290 1694906 1755988 2028912 2253494 3313076
1911.12 4091314 3303288 3863204 2183440 1282058 736340
1914.02 1748836 3023136 3058244 2795506 2871422 2849594
1916.91 3458006 3682814 3901098 3813890 4070344 4390584
1919.80 5219986 4956484 5877978 6207322 5723452 4784048
1922.69 5445894 4982410 5254482 4894536 5098576 4703494
1925.59 4383798 4176486 3793612 3512146 3603290 2986990
1928.48 2882078 3054806 3362428 2758914 2374034 2052294
1931.37 2144420 1406382 1316608 816500 824550 762838
1934.26 766098 603230 656632 312104 210902 241260
1937.16 552130-21250 245546-141318 238136-216090
1940.05 52864-346872-137052-399042-100064-557770
1942.94-634512-745472-225682 478876 483226-188752
1945.84 180250 61988 126470 213578 8324-130286
1948.73 459986-18332 335652 249410 270010-173412
1951.62 9516-362624 86254-95952 297328-455856
1954.51 51222 19588-148436-548360-381624-954428
1957.41-647234-1093700-616706-904892-380634 568178
1960.30 502762 63358 697520 215264 355680 22932
1963.19 146652 291530 718246 705988 824944-135646
1966.08-15592-152380 48214-250904 416282-93808
1968.98 209538-35998 220166 57084 215874-34130
1971.87-350148-405732 85860-512368-267192-359952
1974.76 106470 336438 281932 129558 278044 37464
1977.66 530690-234632 464824 214020 494044-11576
1980.55 99786-17042 110888 83118 195496-68626
1983.44 497356 186692 303366-323852 210154-54008
1986.33 81496-272326-81676-331768-50464-598084
1989.23-210136-216104 305854 395906 162984 140134
1992.12-25258-26154 275284 270348 631462 90372
1995.01 459716-101896 271218-29490 207496-111296
1997.90 34088 176334 175956 197410 680010-36898
2000.80 343184-147506 113222-134068 35202-517294
2003.69-127338-692052-256184-575638 200704 428852
2006.58 385846 314838 571704 208894 242534 441044
2009.48 492206-117106 219874-225308 108272-54910
2012.37-46364-152140 569008-223384 99186-219024
2015.26 345824 66496 212764 183616-66212-197926
2018.15 137480-204520 352750-422710 152230-324410
2021.05-31962 227218 69422-61592 324406 32254
2023.94 234142-323124 417714 101150-30204-304634
2026.83 138224-211178-69446 26506 625494-126600
2029.72 116354 44068 211370-109644-30942-62324
2032.62 476260 265298-40858-420646 197520-272036
2035.51-89046-120112-205084-104228 406690 101448
2038.40 309994-42980 109226-118386 255786-111086
2041.29 120572 238236 215200-209032 219962-110906
2044.19 373662 222760 149206 111234 334074-21982
2047.08 34068-45208 273126-175342 24862-108902
2049.97 255758-222258 42362-888-43574-410186
2052.87 306322 13664 407472 146490 522032 349406
2055.76 538876 355938 342326 49286 521712-197992
2058.65 516244 97658 169368 235896 140786 1802
2061.54 247732 15916 434194 96612 463590 238642
2064.44 136744-151998-36628-224654 40150-255034
2067.33 175080 132136 606730 235066 156086 211280
2070.22 286660-22520 162010-45318-33974 338508
2073.11 443828 109500 154606 207810 300596-77012
2076.01 306544-392712 433720 398088 323760 243162
2078.90-5532 168118 465066 179392 372726 304786
2081.79 679674-254346 140374 58062 117686 85334
2084.69 130524 24642 888334 313520-282650-221922
2087.58 298532 273900-193798 4752 73904 639686
2090.47 748856 152458 450566-128500 570496-163050
2093.36 342322-147266 1314340 325908 101262-27556
2096.26 332234-95384 435046-932 180144 1254328
2099.15 194770-31036 62604-268530 81604-15268
2102.04-164742 918572 1202944-62218 628424-360864
2104.93 135924 30690 108436-64578 1750334 196272
2107.83 90122-43802 111866-117922 349154 18860
2110.72 669990 1459744 283016 223678 49544 65372
2113.61 3054 317682 76818 1594156 527540 75552
2116.51-107756 220784 36808 187454 139460 962472
2119.40 1302940-423790 457988-100338-27310-150692
2122.29 145350 205666 1647768-203918 362776-47812
2125.18 311150-6682 398836-205534 1044492 326554
2128.08 30672-104812 381344-66358 288388-258112
2130.97 908416 489774 181914-3594 188266 195162
2133.86 454318 10266 777202 177306 59352-32224
2136.75 221276 258982 320016 109646 496846 280842
2139.65 283294 554446 323504 39114 416190 156918
2142.54 208408-9272 317248-36898 92642-196222
2145.43 445848 173134 678348 341418 394400 335016
2148.33 434662 123264 112338-61196 917322 374998
2151.22 493688 383338 333928 72156 327418 408696
2154.11 1431800 369512 331526 287784 360710 143626
2157.00 587144 898228 1744354 192820 425576 88470
2159.90 444156 461780 577952 1688016 1465290-80206
2162.79 936474 8428 1319912 155812 1199734 1666640
2165.68 898830 533110 824108 650640 779042 243586
2168.57 2437224 1667506 425594 922738 932076 1074912
2171.47 775430 1106626 2612672 707768 1472652 670802
2174.36 1021202 730416 1280928 2647602 1320190 955612
2177.25 1126910 1052032 1441904 1098918 3057148 2028382
2180.15 1531290 1768732 1399522 1519450 1732100 2725676
2183.04 2459442 1136418 1900072 1282622 1859274 1333146
2185.93 2885672 2750368 2146316 2001346 2233230 2774108
2188.82 1825718 2975310 3022078 1548378 2283876 2004704
2191.72 2755618 2256612 3731984 3646502 3316996 3313184
2194.61 3512224 2842322 2436982 3160840 3404318 2150590
2197.50 2518622 2531500 2949662 2714758 3804476 3318350
2200.39 3970074 3814394 4106630 3430440 3554316 3814482
2203.29 3494662 3384026 3854778 3295820 3856990 3579972
2206.18 4458414 4558880 5217818 5218658 5854154 4327244
2209.07 4438804 3855024 4796938 4502004 5193046 5059236
2211.97 5651036 5344552 5864360 6596870 8293366 8151716
2214.86 9911180 7499858 3880496 3807444 4292530 4354338
2217.75 4284068 4647990 4872542 4962756 5138120 5549510
2220.64 6330512 7097406 8137664 8034578 5656898 4799434
2223.54 5241126 4707688 5078726 5322854 5467702 5676990
2226.43 6630558 6812746 7507792 8191802 9724978 10417210
2229.32 10042940 5423154 5316786 5337876 5945744 6296666
2232.21 6951748 7293640 8126608 9069122 10535900 11376590
2235.11 13665850 14695860 17807030 16925720 6405114 4338654
2238.00 4889320 4995090 5411184 5214198 6130774 6149658
2240.89 6719130 6925234 8060568 9064570 10993680 11861920
2243.79 13304920 6751442 4902858 5747838 5512214 5551178
2246.68 6289464 6171430 6276356 6935472 7371566 8605020
2249.57 9283724 11255740 12074250 15236600 11596010 4969334
2252.46 5570636 5734816 6341200 6172208 7294802 7284262
2255.36 8362398 9264582 10422580 12396720 14356270 17108100
2258.25 20250690 24047340 11007420 3409852 5642146 4452948
2261.14 5561384 4995458 6109072 5945866 6971724 6958934
2264.03 7945276 8417418 9582868 10504440 12761020 13194340
2266.93 6628814 4672204 5605800 5254774 5994168 5699652
2269.82 6375498 6289676 6939446 6741304 7496334 7896216
2272.71 9158048 9790674 11795030 12643090 6982402 4177372
2275.61 4503284 4682492 5526920 5355614 6205862 6351310
2278.50 7066176 7666636 8319946 9220792 10408560 12116660
2281.39 13747120 15697560 8654770 3041236 3947364 3311024
2284.28 4511986 4259114 5471090 4857688 5679068 5479880
2287.18 6395244 5957254 6671568 7012450 7553318 8454514
2290.07 7485334 3941080 4278492 3980274 4077918 3939362
2292.96 4377724 4513726 5907406 5878818 5954812 5398234
2295.85 5626448 5744500 6616332 6575978 7786962 5035986
2298.75 3746088 4017326 3504874 3605822 3324078 3193918
2301.64 3469554 4740036 4455224 4939362 6219338 7281794
2304.53 10188400 6948494 6862208 6997396 4603708 2659600
2307.43 2951722 2559714 3519064 2839478 3076332 2691540
2310.32 2738312 4289898 3773770 3864280 4159604 5815096
2313.21 4867604 5335742 6099746 8020250 3694864 3045036
2316.10 3004572 5177538 3801252 3303606 2645074 5210788
2319.00 4311480 3347018 3908662 5835208 5482002 3469822
2321.89 3810812 5808780 5637360 2851874 4271856 8676570
2324.78 9363722 2448906 3567264 5484364 5777736 2281258
2327.67 4574356 6590416 5585126 2652248 5522650 7474260
2330.57 5239634 1743672 5487658 5801238 3526758 1823688
2333.46 8237498 8791434 13849160 11194160 5887884 4768496
2336.35 967048 5087636 6912550 3287460 3064896 6884774
2339.24 5454732 1828578 5087782 6627632 3276202 3391144
2342.14 6428296 4611050 2588704 5911484 9570986 11819500
2345.03 6616274 4287340 4244760 2952514 4634344 3883940
2347.92 3808808 3120102 3833774 4006160 4236000 3210714
2350.82 5162868 4553252 3550522 5601038 5775438 3681580
2353.71 8734024 14347990 13713580 5813758 7632948 2465620
2356.60 8619228 7884654 4857536 8131222 7441494 2300796
2359.49 9427528 5451142 4114820 8905996 6369994 4696990
2362.39 10737530 3630696 11788370 16677170 33150320 21522390
2365.28 2904318 5727004 8089660 4155658 7163514 6940634
2368.17 3561310 8419012 3612334 7288978 5287196 4842696
2371.06 7383564 3937948 7898662 4186598 8013936 7823996
2373.96 16732890 20814090 3755200 6396054 3589262 6616292
2376.85 4920774 6444600 3811356 5281382 4301732 5309716
2379.74 4598612 5142730 4217518 5818934 5013688 5525978
2382.64 5262008 7604144 12299490 24885160 8571634 4286370
2385.53 4887688 4906954 5788838 5411606 5733226 4491048
2388.42 4287448 4144036 4698136 4607966 4236542 4485944
2391.31 5054878 5828574 7379208 10738050 17130360 23422050
2394.21 31170160 8626160 3031638 5443138 4239752 6095912
2397.10 4404710 4862158 3701728 5067306 4170812 5256024
2399.99 3607178 5341238 3885592 6268990 3891592 6904908
2402.88 5462402 22598590 18869180 2438726 5214922 4099362
2405.78 4856808 5728260 5269354 4351370 3954448 4078244
2408.67 3843338 4583312 3492492 4277140 3443114 5640938
2411.56 3730206 5935684 3926358 18690510 19154790 1513312
2414.46 4188710 2731020 4612364 5415102 4699152 2845394
2417.35 3390430 3419030 3412334 3390150 2388128 3717784
2420.24 2779962 4968146 1122200 6220226 2057346 29056960
2423.13 32935970-1727866 5278264 777900 4944710 2916562
2426.03 4940942 2034930 4094870 2607882 3694534 3002388
2428.92 3508492 3166634 3281140 3513042 2986988 3861774
2431.81 2118710 13744730 16746330 192974 4876966 1065680
2434.70 3843956 2460918 4023838 2585750 3229044 2469066
2437.60 3329710 2551090 3256188 2208290 2685244 3214672
2440.49 2690154 3247020 870264 10728300 13477270-615290
2443.38 3677310 453942 3166612 1937162 3676088 1118196
2446.28 3180460 1327872 2983888 1199066 2624752 1686288
2449.17 2555678 1585364 2244776 2251994 614902 10429890
2452.06 18723270 212390 3658378 254042 2893568 190862
2454.95 2732800-101230 3045292 1497374 2551998 789556
2457.85 2903598 1247132 2762116 1382948 2758006 1285716
2460.74 2575708 3142564 5551398 2741356 2835996 1175330
2463.63 2370732 1267708 2150098 693594 2103470 923344
2466.52 2579350 856500 2579930 1143210 2266994 1176344
2469.42 2085754 858266 2311256 1927238 3169568 1709826
2472.31 2702218 1458222 2303310 968378 2313176 908114
2475.20 1587074 993794 2613390 894238 2431124 570916
2478.10 2183386 593190 2159630 1124028 2337304 389018
2480.99 1624140 537746 2234132 646476 1569250 550566
2483.88 1845236 402352 2015826 845094 3336266 2383664
2486.77 2335932 1558882 2074202 746550 2321260 1131400
2489.67 1994828 706060 2051606 510410 1982530 741952
2492.56 1598234 978528 1795432 496648 1507522 476878
2495.45 1540232 509224 1803294 1019152 1646274 1032742
2498.34 1864638 376484 1775070 291192 1956246 367898
2501.24 1694888 287076 1228050 360656 900852 651974
2504.13 1614300 773354 1436172 658078 1576654 184180
2507.02 1245632 232506 906760 59596 1384844 91564
2509.92 1439182 684136 1300584 422568 1425926 488122
2512.81 1399764 757000 1317748 294742 1761432 627872
2515.70 1723692 1113798 1899656 963642 1308306 1161578
2518.59 1718936 1034474 2221340 1147224 1706422 785162
2521.49 1428726-58536 1352734 365768 576210-209458
2524.38 994280 123220 1021896-418410 609976-284632
2527.27 790540-313994 446466-194074 505088-303096
2530.16 148332-655100 612448-454582 340752-645898
2533.06 731496 210518 453540-565088 693154-719464
2535.95 238508-788094 741516-693776 20934-432372
2538.84 459664-712946 222610-202812 651072-1130420
2541.74 998956-586650-29422-642828 849076-958966
2544.63 414692-240254 133288-931668 985564-635938
2547.52-142164-334498 253536-818688 139018-279202
2550.41 426430-784478 474876-939400 286212-717000
2553.31 1083984-1003096 540206-548858 956240-1137574
2556.20 1336506-523670 900414-262380 1298180-1042298
2559.09 1082090 86838 1646586-303954 1983852-21336
2561.98 1013628 850512 1933608 161706 2304308 934036
2564.88 1801094 1012542 2277360 673538 2538224 2527508
2567.77 2178718 2216980 3712650 1699926 2895794 3300244
2570.66 3135744 2800520 4493630 3164122 3555478 4177324
2573.56 5107820 3691380 5756376 4439088 5117172 5468754
2576.45 6466840 4234398 6797536 5769164 5861408 6209322
2579.34 6841204 5859748 7336184 6562942 7228990 6640946
2582.23 8072872 6095776 7868906 7450190 6928822 7228510
2585.13 7897586 6243204 8184112 7593614 6838026 6534902
2588.02 7407270 5303802 7384412 5628524 5753574 5011918
2590.91 5313966 3453348 4660354 2890536 2903750 2599028
2593.80 2394238 43166 2415594 715944 2480118 5993832
2596.70 11242810 7277466 9403308 4495364 4806590 3967892
2599.59 4479318 3895258 5674560 4300694 6338092 5314262
2602.48 8110346 7955676 9783672 9990502 12065450 11947590
2605.37 14565690 13121330 14159200 14019350 15405380 14534360
2608.27 16357470 14826080 14720100 13380990 13686780 11759760
2611.16 11250760 10320340 11463350 10771100 12663410 10977400
2614.05 11992890 10014250 10084120 8532278 8250714 6415906
2616.95 5714332 3533870 3716392 1499566 1945056 149924
2619.84 424880-1038400-90270-1948258-404336-2588674
2622.73-1312350-2694680-1426418-2154562-2007442-2482554
2625.62-1614600-2974418-1654424-3381548-1574666-2680616
2628.52-1887006-2584416-2695872-2990036-2456554-3695660
2631.41-2480510-3706292-2114756-3227252-2123186-3072578
2634.30-2602756-3326920-2091774-3413468-2498922-3035406
2637.19-2588626-3103378-2873482-3631828-1959706-3116762
2640.09-2047544-3350704-761696-3449530-1650706-3372536
2642.98-1678692-3257252-1732832-3245080-1680416-3298322
2645.87-1261764-3347038-1527138-2958816-1940000-2491288
2648.77-1620346-2683288-1550806-2916768-1682418-2526960
2651.66-1467620-2248626-1229878-1795966-895556-1702646
2654.55-1285352-2122874-1093804-2325092-517650-2154396
2657.44-860660-1858652-707614-1243268-264584-1495242
2660.34-162216-1551760-105836-1038636-106946-1055912
2663.23 37150-1145132 57326-677330 932292-508994
2666.12 1330082-343088 411224-797564 468076-270624
2669.01 572736-987560 503918-502738 913578-214146
2671.91 752804-445766 785766-223218 572282-434468
2674.80 691808-916242 128966-897902 339586 109390
2677.69 727402 878714 1519798-485874 912580-472288
2680.59 643566-274452 1081116-828004 857530-313920
2683.48 303892-324382 1176292-391502 925904-387828
2686.37 1018896-507188 526128-117174 998278 80566
2689.26 1129292 280426 1832220 1130214 1014878-329474
2692.16 1138712-258538 802152-92768 857958-305518
2695.05 808572-274276 1086340 11756 1136416-58
2697.94 1169626-21536 681304 370722 664652-473470
2700.83 1095048-823634 1213374-80378 1556616 733976
2703.73 675870-206008 796950-167300 671088 123928
2706.62 1270566-20514 941382-436924 871740-66950
2709.51 1381846 19836 1415254 147590 1426260 303764
2712.41 1644292 208132 2220244 599980 1958020 2002194
2715.30 3313932-331104 1006068-83688 1182332-146494
2718.19 1219766-199596 900104-158624 1026250 12814
2721.08 898850 92358 1460102-227772 1114984-49188
2723.98 1153156 15430 1348356-10428 1016048-221652
2726.87 651612 358494 1051240-459260 998624-353008
2729.76 1229028-549250 916372-389590 995964-472042
2732.65 652630-229584 977328-436482 1399816 58800
2735.55 1274292-247196 1158002 94302 1163904 97234
2738.44 1930960 1027278 2038138 621030 751422-326916
2741.33 975526-463120 1572824-1120318 1504432 176102
2744.23 1366360 3866 1328314-374680 1182926-421368
2747.12 975436 144210 1215020 258918 1819026 779778
2750.01 2111164 930122 2455560 1306232-871888-3389876
2752.90-418018-1536500 1193274-596500 1561234-297998
2755.80 1071138-302308 988820-98224 1235662-489302
2758.69 1037948-554598 1492122-107252 1138616-331376
2761.58 1416936 5578 1872938 909708 2718298-42634
2764.47 1345654-480716 1181302-227080 1388500-80712
2767.37 1700180-448410 1150840-660764 1338752-189670
2770.26 1215666-344542 1059392-384166 903726-183310
2773.15 1564764 119882 2476452 188304 2502918 271076
2776.05 896932-1425148-1398930-2243058 44920-666974
2778.94 1171208-352554 1418820-647244 1276056-469378
2781.83 1245048-566782 1549042-948716 1082064-410056
2784.72 2032862-199716 2080680 479988 2626482 1368230
2787.62 1831904-806586 1625268-767836 1538606-59154
2790.51 976154 123772 1104250-358176 1438110-431888
2793.40 1271874-385750 1273022-214216 1216638-829074
2796.29 1659180-89608 2218156 21078 2158326 468048
2799.19 2212402 247290 1462392-1243010 553870-2529978
2802.08-2546008-2643388 623182 409792 1635560-199526
2804.97 1507326-162208 1843980-281522 1799040 51390
2807.87 2242312-282288 1926508 562732 2492422 914702
2810.76 2670336-334304 2137264-372300 1256634 290578
2813.65 2343128 899154 2333198 323168 2758844 1059836
2816.54 2417328 1007344 2860734 1194040 2805196 1698954
2819.44 4024432 1666514 4092848 1907732 3913414 2486602
2822.33 4782176 2155704 4881776 2780244 5094554 2272496
2825.22 4640944 2766154 3436100-2080492 2198716 2782816
2828.11 7478830 6529570 10380910 9218492 11507950 10500840
2831.01 13564330 12532720 16318800 15421240 18558660 17837270
2833.90 22663270 21538380 26013070 26531420 29885190 30534740
2836.79 35928000 36279290 42046620 42446170 48473860 49399230
2839.69 55384540 55613220 61853980 64354260 68587500 70057510
2842.58 75454820 76777160 82914780 83012840 86880470 88429630
2845.47 92774580 93780420 96209030 95496670 97892260 99200460
2848.36 105733400 95177860 96053500 92814700 97849960 87869840
2851.26 83782180 83604340 88832420 79448820 79602720 72407700
2854.15 70009100 59333720 54962040 54091050 58826390 44313740
2857.04 51515140 52783120 41764030 81582530 53263920 57024970
2859.93 49507930 52407320 72811860 56308470 31865820 20608440
2862.83 26919600 33366240 41423160 43957290 51991880 55361460
2865.72 61765100 64369070 70244800 72139690 76820460 78026740
2868.61 83432540 82234750 87215520 85297210 89839380 88237360
2871.51 90353960 88756980 91046850 88976200 90537460 87742420
2874.40 87716640 83331980 82291980 75698720 81766940 78994500
2877.29 80864350 76229960 76421520 71798310 73172420 67279660
2880.18 67914600 62176060 62275460 57530200 57783710 52541430
2883.08 53458890 47785340 48565000 43490740 44374480 39847580
2885.97 39394200 35023540 36459230 31806730 31893870 27213160
2888.86 29182670 24274640 25474950 21689060 23128670 19236670
2891.75 20464040 15092630 16946460 11485450 15408280 12830130
2894.65 13290250 9982452 11772050 7678722 9994726 6025042
2897.54 8213752 4314244 5037836 306510-1071780 974388
2900.43 8475498 3987460 6238726 2084558 5456734 1423922
2903.32 4518574 207960 4708688-26794 4280386 116324
2906.22 3114526-646630 2955702 129850 3381426-720422
2909.11 2542994-571478 3007778-428028 4043802-683506
2912.00 2917980-797900 3785512-1639766 1895314-1124912
2914.90 2997022-888816 3848846-1379542 3603134-1641884
2917.79 3278536 333662 3829810-270996 4977866 1094140
2920.68 4199840 825720 4340384 52690 4938562-539212
2923.57 810222-3366714 5517132 3193852 9111102 3170160
2926.47 10094680 5148370 9936788 6649394 11608770 7452190
2929.36 14421130 10056690 16498420 13168890 19564080 15419660
2932.25 23125830 19198450 27697280 24537130 33152400 30252970
2935.14 40110820 35933780 46660200 44853370 55945070 54625680
2938.04 65290880 65085150 78550610 79130600 90700560 91403900
2940.93 105247100 107737100 123923100 125627900 143067000 146924300
2943.82 164598000 169118200 189934800 192795800 215390900 221397600
2946.72 242812800 245199400 265094000 276659000 310382200 324675700
2949.61 349695000 347250600 380861700 381578600 404304800 409493100
2952.50 432641500 439339300 464306900 470968900 496681000 492390100
2955.39 521812700 512704800 532672200 524675000 547053700 538234200
2958.29 559807500 556515900 559286700 543500200 547061800 523972300
2961.18 544966800 497185900 515241100 509653700 525425600 488263100
2964.07 508130800 375979000 406848900 337774800 419566800 382635900
2966.96 433239900 232927700 403606000 163660200 554101700 377144700
2969.86 291245300 631573400 170277100 415258700 174227900 218594700
2972.75 482425700 383531800 219936300 327217200 347152400 417922300
2975.64 360553900 396140300 400987800 470674200 533924400 519464400
2978.54 524633900 551902600 544990300 578836400 576743100 601778000
2981.43 610357400 625815700 609608500 631986800 599383600 615700700
2984.32 596546500 607145900 583587100 596365500 564871600 608019300
2987.21 567540800 537152900 522856700 511134900 492281400 480553600
2990.11 458032700 443770500 425008200 411956400 387359600 372183500
2993.00 351777100 340266500 320472600 298011700 290491700 275836300
2995.89 298941600 312836000 228610400 233689900 202574300 209907600
2998.78 183955300 181923200 161639800 161864300 143272300 145869400
3001.68 123792500 120710800 104238200 110044100 90134340 102741100
3004.57 75472260 132851900 282123500 89641120 72317690 61048920
3007.46 70982390 67953740 53536000 53650900 49367380 51240190
3010.36 48090160 44885020 42598520 40639090 37024090 40067480
3013.25 35041860 38659620 46525880 182321700 65702720 31462600
3016.14 31640050 34318380 40055180 25418520 31129340 32118560
3019.03 34815770 35653870 32705350 31251670 33031660 32451930
3021.93 35524040 27753610 35270660 36458380 223583000 88552180
3024.82 19547720 34826200 28075400 45840100 24039910 34987790
3027.71 24115340 36166700 27519770 34423840 25420270 35601060
3030.60 26099370 40579580 20571130 38216060 52596720 526351700
3033.50 142746900 15365650 30900200 34441560 57713030 21039750
3036.39 31837860 24805540 34745540 28133800 29878160 28599850
3039.28 29211580 31236570 28500930 34601900 27999400 89343280
3042.18 346029100 55932820 42075220 23592570 51357790 41043760
3045.07 39529930 33404640 39179080 30115860 40413420 27730730
3047.96 43926160 25084490 52331630 29366670 60556980 3234266
3050.85 203086100 342185600 2969116 66119600 7758594 72873710
3053.75 23679820 48721750 16940080 49436280 14569390 50243760
3056.64 10700480 56095830 6681590 63534710-1383342 91022070
3059.53-30142200 687701400 363573700-34260200 77651410 9122334
3062.42 102992700 8987050 50181260 19083660 51342660 23068100
3065.32 45515140 28931290 43535500 31339470 40397570 46289730
3068.21 24417230 144285900 405724300 15220450 72858860 10033950
3071.10 80492360 28858140 58277330 20019200 57724040 19435920
3074.00 56151320 20991160 63602910 12818680 63342530 17290870
3076.89 71993290 9871922 383266500 135099400 26211390 30785890
3079.78 49009160 46173550 43875600 22335260 46346060 16558250
3082.67 49625660 10057250 57349300 1195768 64397020-10026130
3085.57 94613340-51722570 499379700 410386100-40061660 73958610
3088.46-795920 92981720 26660820 49647030 27914950 43513280
3091.35 33737630 38084310 40565230 32910710 42914990 26758350
3094.24 59278380 5200268 195654100 237628900-1552576 57539690
3097.14 14672860 59308750 24147600 46227390 30111920 41078940
3100.03 31316240 35698900 37378210 33821330 35557130 28040150
3102.92 49433100 11894860 163633900 171719300 7101326 43701620
3105.82 13182380 46048820 16661130 25443230 20613360 31583720
3108.71 27646770 25967040 30170660 21626890 33511250 13808920
3111.60 50867220-11968500 290804200 190018000-27151100 52448810
3114.49-2192518 57794870-1030134 35267450 473974 41164890
3117.39 18166260 40408010 18932600 37403340 17956780 38276120
3120.28 18785080 40556880 137289500 47448840 12552430 31521740
3123.17 17618360 34014300 11077330 29748180 10132100 26952690
3126.06 12654240 33371350 13098920 32118960 9515220 36311610
3128.96 1568498 72404400 75122460 10246060 19855290 15584570
3131.85 19595470 15945100 12249860 15063180 11625390 13845320
3134.74 9180438 17363100 14063360 15604140 14828070 14460260
3137.64 26683970 123496700 11485230 16528900 6120992 19513230
3140.53 8931186 12695310 6011134 12267070 5338790 10661710
3143.42 4892414 11347500 12314450 16110530 12379480 14074240
3146.31 42910670 23113300 6747860 15635870 7968000 16078310
3149.21 6256992 12161260 5670850 11959080 4017116 11982860
3152.10 5248480 11002400 5641148 13511960 5108460 29472050
3154.99 10722450 8717992 5940638 9305830 6300780 8559794
3157.88 4230572 7857136 3571336 7983720 3232740 7215452
3160.78 1957310 6621368 3261490 8450330 25615250 9315862
3163.67 2563224 6455728 3032768 6464332 1467332 6037066
3166.56 1587414 5406858 857614 5291944 1252180 4313618
3169.46 1069806 3671678 2389564 11507260 1281446 6832920
3172.35 1386240 6766252 2108530 5525768 2124208 5668316
3175.24 628528 5012516 818452 4870334 10002 5078680
3178.13 23948 7537180 1241402 4031406 1033932 4782736
3181.03 1410584 3518000 1240024 4423662 561264 3516568
3183.92-313698 3835456 867878 4462260 119514 5196328
3186.81 2054046 3329970 186244 3658964 356896 3451440
3189.70 440122 3003394 452830 3222938-287360 2785632
3192.60-344080 2912212-249398 3500658-324036 2607164
3195.49-17680 3251832 199938 2993198-326804 2989868
3198.38-474448 3114964-920396 2730738-493980 2537520
3201.27-370560 2483534-440646 2419752-684468 2656230
3204.17-592896 3293034-663918 2652394-515920 2636864
3207.06 520878 2940990 575464 2483916-262590 2861178
3209.95 282758 2414122 159768 2191030 183688 2391754
3212.85-181712 2216270-80166 3484704 1089980 2450752
3215.74 280624 2694794-223874 2034966-72720 2557772
3218.63 484658 2033398 342024 2864148 81426 3101670
3221.52-452652 1976250 349772 1766946-858270 1897934
3224.42-221874 1654654-578910 1302786-394860 1506858
3227.31-691868 891790-925472 1162626-831198 1453612
3230.20-1364578 1491940-25684 1254340-1155916 960882
3233.09-446280 1034916-727784 1287986-957570 975836
3235.99-511058 932288-818476 1224482-1175900 960584
3238.88-869592 1451290-212328 1681414-408994 1837666
3241.77-840490 956762-1051218 934406-1623442 1152686
3244.67-868864 107928-242050 1503532-671300 1328082
3247.56-554508 1348230-895394 1155936-1321150 1341630
3250.45-558884 1021334-180454 1706718-1254454 1615656
3253.34-529560 1303036-205510 904448-1029898 885358
3256.24-1137788 1149994-727918 1016184-796530 742176
3259.13-1316572 1150818-520298 2091636-1318724 1436974
3262.02-1276604 1070590-1017578 1200522-178678 879260
3264.91-1285300 1071302-681626 1501766-28798 837174
3267.81-1203232 1422018-828090 845476-930186 731904
3270.70-1060730 1343868-284610 1576080-770500 1214030
3273.59-559948 950594-614134 1145000-48558 885602
3276.49-992934 708004 233648 1210910-656016 826586
3279.38-542010 673982-887100 730874-254542 796948
3282.27-577170 1440786-460810 1559562-963938 962570
3285.16-371438 809438-1299708 1093260-107812 1209592
3288.06-258092 339720-916170 780008-574674 1389098
3290.95-168580 1310962-745956 813960-967930 898010
3293.84-361712 1071612-658608 1013106-88172 711550
3296.73 59832 678320-492504 1329298-988202 1048954
3299.63 125754 1014590-465288 1065022-1147010 717944
3302.52-455484 1489796-584364 508756-416158 1214724
3305.41-1003600 617648-153526 675024-782750-308944
3308.31-181032 682834-902478 996652-393206 692456
3311.20 87954 879368 25464 1611464-286750 784100
3314.09-435654 1356104-375198 1194190-632054 703688
3316.98-460352 1763452-856614 818652-861828 346470
3319.88-298068 1470894-1117564 868816-279282 984236
3322.77-399146 864292-637342 1399176-319466 758638
3325.66 158338 1158288-608290 1059546-108488 374950
3328.55-87232 624586-1303310 1920190-1019686 957626
3331.45-559628 1866130-267388 714564 232622 639388
3334.34-46204 1153942-731708 1289030-618482 989000
3337.23-16476 1492952-541246 1037168 396194 1613234
3340.13-988832 1042498 6436-1314-502256 1560100
3343.02-436572 1052784 326676 882486-1097694 491942
3345.91-637390 1384422-505086-115900 187804 783170
3348.80 42220 426036-59118 714596 39588 1013712
3351.70-345322 883066-752726 634362-1063006 896166
3354.59 27130 1555834-105836-103212-832714 583072
3357.48-74998 882846-1042118 948604-860956 801660
3360.37-308878 496160-73408 885390-302212 1039866
3363.27-970956 475952-348294 974914 202164 1034802
3366.16-1062028 646024-1068658 616868-818830 49266
3369.05 42116 1166874-201592 636836-425540 822736
3371.95 27484 544724 16788-18486 649602 1316674
3374.84-990392 716486-141042 971030-905980 1366292
3377.73-99958 961802 427636 115290-1130926 1003604
3380.62-505336-81986 187222 1507702 131328 1674240
3383.52-246934 849970-1078866 502798-844230 361172
3386.41-127836 1264558-263794 930906-201260 928790
3389.30 10782 1088342-366254 1892710-306428 212942
3392.19-505142 450666-93442 1246194 356390 732104
3395.09-855808 188952-239632 1913736-278182 1050964
3397.98-308732 905736-759756-100232-611564 1142596
3400.87-952162 699130 123196 950600 353012 310446
3403.77-582286 1044236-480268 1641900 44814 1112354
3406.66-82812 1015950 347638-150894-119540 1463772
3409.55-608568 79362-343544 619970 225764 904142
3412.44-410822 1152414-350868 67420-527748 743798
3415.34-338812 640016-409998 883652-172140 1384608
3418.23-276768 331078-431532 615066-74200 481224
3421.12-412888 1489662-686034 906080-577024 353768
3424.01 650892 1233678-913754 1076286-190106 866004
3426.91-5288-101582-927806 1290488-314190 759556
3429.80 255774 883672-459398 868076 191136 910064
3432.69-90616 1560018-764090 1138814-354698 773354
3435.59-247478 188494 239408 170158 536736 768170
3438.48-715428 1698274 614090 362210 311422 987538
3441.37 227688 791156 385698 1268654-31474 1382244
3444.26 769230 781200-589344 1049460 360398 219074
3447.16 220364 1184848 181958 1742762 737644 388236
3450.05 511488 1635262 643544 673272-464558 1160182
3452.94 1266896 1164650-209690 1474916 715094 1127032
3455.83-296236 1519802-207530 1359392 644860 1417174
3458.73 843138 1672536 514256 1405054 236792 723200
3461.62-615990 1134044 1103286 1161078 393284 1473148
3464.51-240682 1127278 790876 761458-74962 556500
3467.40 537374 852600 15678 63304 121558 1359698
3470.30 853652 1567168-185226 1395098-104998 1095282
3473.19 182988 1623520 1178320 1837690 70430 691552
3476.08-277894 1581728 1127222 1640062 608096 924050
3478.98 821482 1188422-99176 572598-121156 976014
3481.87 362816 1437564-454170 105598 483546 88930
3484.76 550374 1162072 104532 1236534 1000134 1065598
3487.65-51282 1001586-182596 661176 321116 681390
3490.55 573008 242766 509078 971674 269276 919744
3493.44 520818 297254 201490 977396-369538 1295680
3496.33-523512 424538 568560 599624-373054 1102316
3499.22 191482 1161026-523454 1419330-870720 587628
3502.12 426410 764724 324400 1716562 351966 713090
3505.01-707514 461930-224366 582826-124842 553238
3507.90 340996 1379200 29826 238994 180712 785756
3510.80-338392 1021746-192532 814336 789408 595452
3513.69 224694 860750-56054 770240-563518 254296
3516.58-540458 1408116 300736 1326062-77796 288636
3519.47 863334 334906 165826 645354 360164 973882
3522.37 494680 1242302 191560 1396768-186262-20154
3525.26 322088 990428-302158 595726-81098 654030
3528.15 202882 408802 415488 1617384 68760 1412220
3531.04 1119588 293808 636426 1200060 740512 875290
3533.94-124206 764176-260892 1067362 81766 1282358
3536.83 228998 1308370 202778 1176858-296874 1172364
3539.72 467778 1466436 667568 965384 307908 1449412
3542.62 796952 903974 878970 1745508 1112042 2070974
3545.51 995066 2104652 1186926 1116774 1017890 1367032
3548.40 1700142 1989194 845504 1896226 1778988 2497788
3551.29 1071048 2491356 1752788 3460956 1419924 2883870
3554.19 2250852 1928904 1924480 3678284 2480302 3315744
3557.08 2317540 3305134 2277260 2990868 3171972 3896074
3559.97 3344190 4690144 3520206 4631832 3975622 4417582
3562.86 4624634 4378454 4161426 4405740 3193988 4765848
3565.76 3788664 4866998 4443400 5455338 4884798 5599712
3568.65 4708030 5010018 5277010 4533728 4401732 5583528
3571.54 3633618 5072242 3904922 4470708 4220998 4637186
3574.44 4814892 4909972 4082128 4199002 2944784 4497732
3577.33 3612646 4360550 3774752 4359044 3855494 5361322
3580.22 3892888 4871990 3372104 6098186 3901382 6277538
3583.11 4654606 4698838 4163378 5790660 4408048 3349126
3586.01 4354434 5313476 3755984 5338498 4542262 5490046
3588.90 4726026 5645962 5038944 6076112 5121772 6167802
3591.79 5083660 5445390 5251728 6187080 6388114 6259098
3594.68 5649066 6847044 5187156 5214008 5684990 6604828
3597.58 4896314 6473580 5025378 5265830 4995342 5344890
3600.47 4497770 5243764 4216900 4031202 3602036 4149910
3603.36 3987976 4129290 3352200 3616528 3274056 3141950
3606.26 3393614 3546126 1796394 3433908 2588614 2897182
3609.15 2089022 1485924 1654278 997328 1233804 2042960
3612.04 723142 1816550 761764 861196 710756 1719686
3614.93 1515748 1253630 708862 2063328 1190996 1438012
3617.83 968708 1147236 992484 867754 554368 1187186
3620.72 819646 477860 546668 1751766 710238 1009570
3623.61 511702 1780914 924392 1315220 679120 1126212
3626.50 497902 1437752 158720 1809730 468900 2260066
3629.40 1233420 791190 1229658 1468352 1102568 839320
3632.29 375330 1160700 495064 1159758 947920 1528606
3635.18 1237556 1962872 922394 1725178 529040 690438
3638.08 351106 736536 940934 1031570 820356 1290246
3640.97 404194 1340944 808036 2282782 1267536 2435582
3643.86 1950526 2198738 1989344 2441752 1563938 2024828
3646.75 926416 1721118 868826 1576752 1701432 1543630
3649.65 702142 1337652 906194 2337336 531806 1609750
3652.54 1394182 2196160 1934844 2154992 676468 2649198
3655.43 986770 2172984 829852 2116606 1225838 1970658
3658.32 1259854 1912350 971252 1744322 1625006 2090664
3661.22 1595380 2192288 1759046 2703574 1974282 2367316
3664.11 2191290 2125682 1887816 1795588 1344658 2000782
3667.00 1284510 1576502 1553616 2643634 1181088 2126146
3669.90 2454782 3932700 2954114 3697984 3735838 3772532
3672.79 2904150 3260002 912692 2469288 1507218 2187330
3675.68 2271090 1902606 1345554 1375284 1474966 1880762
3678.57 1196968 2781594 1833278 2330252 2521772 3103036
3681.47 2291146 2883734 1508136 1341526 553880 2158696
3684.36 1213948 1660858 1021598 1522322 1238734 1470006
3687.25 1193976 3497704 2601120 2185472 1734956 2705410
3690.14 2161702 2644288 1967426 2527062 2293218 2507190
3693.04 760384 1714154 1212000 1987708 1767380 2200846
3695.93 1374992 2164138 1700450 2371722 2415572 3708798
3698.82 2222114 3074974 1929860 1102214 907572 2044078
3701.72 1738328 1610486 1437782 1719446 1128094 1601970
3704.61 1086070 1623648 980964 2011418 1654672 2319806
3707.50 551500 1538464 623890 1903942 1170390 1436632
3710.39 992478 1152142 1992880 2453236 1630942 1185504
3713.29 687760 1815070 1350354 1707830 924572 1288320
3716.18 1072524 2069202 1381886 1268742 583034 1532390
3719.07 552446 1110388 435668 1375328 746600 2210274
3721.96 920600 1444916 1604494 1914420 1377574 1925882
3724.86 1533438 946900 598998 1019844 731074 518456
3727.75-177750 980814 857384 1322766 420144 1310438
3730.64 585276 1340992 1999484 1481204 534194 1442058
3733.54 740998 1489322 214370 1559436 465158 1330552
3736.43 1729896 948140 340316 1186286 618254 824326
3739.32 1295504 1294182 665226 1266918 382852 1434920
3742.21 162426 616014 304614 1844656 2018580 1774614
3745.11 404726 1056064 317702 747388 848154 1099022
3748.00 166244 1711230 2302670 1198662 179136 287338
3750.89 372256 1492630 1915034 838458 100470 533110
3753.78-153562 1166076 136928 1301098 170750 1492936
3756.68 490996 726400 376554 385830 318450 1301580
3759.57 401808 331532 672850 642116 628636 781948
3762.46 456004 1726814 998984 612026 353938 800562
3765.35 930076 786276 633688 1070246 356906 1191004
3768.25 216142 477034 968620 772482 72454 763096
3771.14 716732 684466 917682 848334 44938 1165670
3774.03-213926 486148 238146 1026282-112564 1000354
3776.93-357578 758640 550162 1182802 838580 1138808
3779.82 197048 213586 193644 1436326 1030738 1235750
3782.71 225166 362412 541122 732960 331648 968338
3785.60 776220 686606 562026-101702 1440400 1574268
3788.50 461738 1464188 268586 1111612-50106 1274764
3791.39 763654 1348646 487158 1386534 389982 1579296
3794.28 493280 1199542 221664 1914622 666400 1286492
3797.17 1200676 1138940 38822 1780652 2303258 1628310
3800.07 775942 1662554 1861570 1326646 435842 1020598
3802.96 715044 1066918 866556 607512 1165786 373872
3805.85 2151504 5216416-114108 1442692 569234 1487906
3808.75 374840 1459202 625714 1233848 639196 814596
3811.64 699906 1630872 710866 2400330 988788 929418
3814.53 1146446 1782672 2684494 1284212 912448 906780
3817.42 558102 1063112 565608 1737818 1205740 2337738
3820.32 2429108 1038106 755732 1345196 655788 1837438
3823.21 802694 943490 1083526 1476472 508822 2160588
3826.10 979846 3826904 2421576 924160 1107694 1628306
3828.99 790526 1537736 847054 1436644 594464 1290092
3831.89 1176048 2009004 2342150 1261022 825226 1811840
3834.78 970752 2171352 849758 1365784 654208 2816712
3837.67 2668898 897452 1696116 1116578 1595820 1484214
3840.57 1311352 1878506 1297296 1418704 884658 2351096
3843.46 712254 1138660 1055228 1462290 1010878 1477212
3846.35 1856578 1674970 1708184 2190710 1268734 1276710
3849.24 1605688 2000694 1468820 2090074 1562856 4211968
3852.14 1034524 2011176 1447232 3653176 2392924 2279968
3855.03 1946198 2389072 2185580 2664474 1430720 2210322
3857.92 1774414 2385792 1820024 2476668 1100744 2268152
3860.81 1975196 2518434 2383590 2779402 2367672 3531642
3863.71 1946108 2895368 2713018 2293170 2275676 1846364
3866.60 2101646 2491570 2358494 2418748 1572988 3000076
3869.49 1995512 2677422 1673880 2388120 2182032 2592132
3872.39 1242604 1319920 2189718 3436688 2894068 2161340
3875.28 1868730 2274608 1922776 2569600 1862410 2621894
3878.17 2449128 3142092 3630042 4675384 3109234 3466932
3881.06 3121104 3637950 3660128 4359742 3499926 4467848
3883.96 4083668 4798226 5024470 5953592 5335332 5976956
3886.85 5476674 6530254 5349290 5590274 5648984 5025942
3889.74 4288194 4597784 4525164 5173196 3013298 2983426
3892.63 2046542 1482922 1555468 2027836 1093220 1682828
3895.53 1874286 1754922 1428016 2123976 1574906 2771538
3898.42 2180458 2141124 1775396 1269408 575380 578564
3901.31 1231184 1792728 841868 1887932 1342408 3124588
3904.21 1915696 2621716 1726116 2593786 2375536 3089546
3907.10 1629218 911464 809124 1394086 1302544 1840800
3909.99 1316678 1636528 1108256 2260942 2216978 1859204
3912.88 2032580 2646488 1638596 4145046 3398852 1909308
3915.78 1313786 1616786 1854954 1575280 1054114 1252026
3918.67 1129204 1366128 1057278 2275328 2465466 3726716
3921.56 5430726 6930198 2249950 1558522 1131288 1700480
3924.45 1493770 2656472 1089538 1600116 1547798 1809588
3927.35 1853376 2793752 2336962 4085476 2280040 1243744
3930.24 1370632 1174862 1192030 2242138 793950 1395656
3933.13 1236532 2118644 1567186 2439412 2079896 3418524
3936.03 2931100 2336224 1882980 3571224 1318174 1772794
3938.92 777938 1823698 1277368 2944830 2117310 3512160
3941.81 3474594 2587600 356720 780574 1691666 1276758
3944.70 1338790 1514256 942060 1694040 1281258 1965016
3947.60 1056914 1946158 836558 1992454 1986232 2809832
3950.49 2722006 2114804 1497594 2654868 1875556 1599550
3953.38 1410854 1924318 1688434 1396602 1313458 2660944
3956.27 2101188 2341674 2305318 2382428 1571774 1629932
3959.17 1530528 1262038 2146902 2181706 1722696 2281650
3962.06 2097752 3670414 4343970 3453498 2491086 1790478
3964.95 2779950 2537822 2612150 3176124 2232384 2444698
3967.85 3596018 3425414 4798816 5024170 3944556 3175652
3970.74 3980768 4149566 4139150 5094016 5303208 5042436
3973.63 5298584 7145000 6080552
##END=
