##TITLE=Bromomethane
##JCAMP-DX=4.24
##DATA TYPE=INFRARED SPECTRUM
##CLASS=IUPAC A
##ORIGIN=NIST, Anayltical Chemistry Division, 301-975-3108
##OWNER=COPYRIGHT (C) 1998 by the U.S. Secretary of Commerce
##DATE=98/10/1
##$SPECTRA VERSION=1.00
##$UNCERTAINTY IN Y=2.8 % relative (B=2.0E-04,C=3.3E-09,D=2.7E-14)
##CAS NAME=Bromomethane
##CAS REGISTRY NO=74-83-9
##MOLFORM=C H3 Br
##MP=-93.6 C
##BP=3.56 C
##$NIST SOURCE=QUANT-IR
##SPECTROMETER/DATA SYSTEM=IFS66V (Bruker)
##INSTRUMENT PARAMETERS=KBr Beam splitter; MCT Detector; Multipass cell
##STATE=gas
##SAMPLE DESCRIPTION=Bromomethane Primary Gas Standard
##PRESSURE=101.3 kPa
##TEMPERATURE=23 C
##SAMPLING PROCEDURE=1 L/min Flow
##RESOLUTION=1.9290
##DATA PROCESSING=Happ Genzel Apodization
##XUNITS=cm-1
##YUNITS=(micromol/mol)-1m-1 (base 10)
##XFACTOR=1.0
##YFACTOR=5.6843E-14
##DELTAX=0.9645
##FIRSTX=574.687
##LASTX=3974.595
##FIRSTY=6.18E-06
##MAXX=3973.63
##MINX=574.69
##MAXY=.000076
##MINY=-3.40E-07
##NPOINTS=3527
##XYDATA=(X++(Y..Y))
574.69 108877200 119252700 138399300 162917500 182807400 203066600
579.51 224830200 251401500 280204600 310227500 343834500 373958300
585.29 406278000 445442000 475700600 506240400 539962800 573752300
591.08 607678500 636589700 656403700 672170900 681485100 689033100
596.86 688990400 681378900 667239300 657976100 652731600 617301100
602.65 532807500 446898800 382709900 336342800 337838500 512558300
608.44 779047700 759361200 444489900 242775000 284379800 383408400
614.22 493190200 598394400 698225100 780742900 846235100 891687400
620.01 920913400 929930700 923068200 897755500 858351200 805809400
625.79 745772900 677430800 606858400 532875600 459288100 387202000
631.58 321831100 260546400 205657000 156840900 116981000 85231700
637.36 59894980 40388070 27674610 16795890 10010230 5027330
643.15 3588062 2529994 1803754 856366 1573942 2185638
648.93 2214580 821422 861654 690506 975942 1464356
654.72 2380860 1087170 832284 809226 1258874 1090318
660.50 1488440 1522986 1377348 213648 669790 1322014
666.29 3832696 3685778 1163454-177600 679648 978230
672.08 628406 572002 1504424 1929250 1405142 318630
677.86 393014 1242558 1351482 745064 1591148 359358
683.65 174628 785988 1156312 1209026 1040302 272822
689.43 858894 762006 404208 506240 521370 382526
695.22 938596 440392 79524 659706 1333318 1309196
701.00 1322976 400214 512900 334246-274822-263156
706.79 473056 269286 980648 1144880 918860 751018
712.57 1097160 201704 511888 589486 136360 269534
718.36 938748 1108532 1074156 330488 551220 681176
724.14 927880 472480 809118 377754 331416 220480
729.93 746528 800008 928422 603146 592008 197934
735.71 785574 1103798 910670 822178 1419962 1218322
741.50 775830 537130 1357806 1460926 1346100 891170
747.29 930404 196622 655984 1013780 1360994 1425144
753.07 1133498 530930 964284 1020358 687076 412888
758.86 849962 565444 745068 904722 730444-247838
764.64 380894 674472 733574 936576 922872 459762
770.43 834634 477850 230794 479168 1061834 659904
776.21 269708-198640 375218 937526 1292016 1461938
782.00 1495654 639296 434350-44998 48052 103496
787.78 550514 747794 981814 1074060 1387604 1294794
793.57 952214 194816 77920-302382-146204 34338
799.35 1009832 1253300 1218462 906708 618538 523576
805.14 327180 64118 1310374 1281328 401112 545718
810.93 1061000 461728 479660 1061236 1556794 632060
816.71-105498 196232 1010908 1032128 1283890 987998
822.50 700238 234060 682260 592658 1103540 1625020
828.28 1890584 1057522 876808 732442 1126424 950392
834.07 961892 1073360 1557978 1246828 1389980 1785682
839.85 2255130 1745884 2087326 2083696 2553454 2838972
845.64 2899672 2705494 2742070 2730282 3474928 3326888
851.42 3622632 3244216 3773696 4243908 5033826 5199700
857.21 5961156 6511606 6714770 6460908 7411484 8663624
862.99 10281990 10355560 9664062 9135298 9663204 10144860
868.78 12613040 17042870 21093340 17979710 14996060 15175610
874.57 16766480 19096640 23845330 27858310 24881380 20766500
880.35 21410330 23086870 26709510 34139130 42092480 38486620
886.14 31504700 27092800 27208340 34225030 54840780 79463660
891.92 66248010 42917900 39046040 37713550 43230500 57468470
897.71 81414700 78053040 58935700 57395510 55866180 56372520
903.49 71825440 105973100 115551400 85043940 78004270 77736470
909.28 71107680 87589070 166031600 234902900 155556100 80156210
915.06 79684850 78986440 84887960 119199900 189784400 177222900
920.85 106847600 96312500 99797290 102061100 124101600 199532000
926.63 248650000 166354900 113670100 123819100 119920700 140615200
932.42 249728100 453389800 404672700 158755400 103191000 108139800
938.21 113329100 138697400 247167700 339937600 236182700 120767800
943.99 126245400 126620200 134815700 179273600 321845700 353005800
949.78 195728700 121935300 144826600 138480100 152715700 295694000
955.56 615316700 562925700 208173100 116113500 128199700 133873100
961.35 152801400 256225300 385137600 297199700 148728900 132472500
967.13 140155400 143716800 163422900 270521300 360985200 242640000
972.92 126512700 128507500 139550800 146350800 195620700 397555800
978.70 519317600 281374700 107287400 112694000 126573300 132909900
984.49 154240700 240167900 281607300 179708400 108522500 107248700
990.27 117310500 123142700 137108600 200946800 228782100 143861100
996.06 87955470 84204930 93738080 107988600 132684200 225908500
1001.85 276594500 154878000 69927140 61070280 64197640 82228460
1007.63 99343570 128873400 149396900 108464800 72882880 66069260
1013.42 62323690 64220730 72993620 91341020 108033200 83550680
1019.20 54054060 47502180 44363980 44126680 50632370 73495570
1024.99 102513800 82829510 41599780 31544170 28310480 27372640
1030.77 27143660 36959830 52305390 52255840 37260810 31125000
1036.56 27650140 26417270 24729940 25715500 30658530 34442150
1042.34 25855390 20761430 18387250 16994780 15049430 16353020
1048.13 19406230 24700050 19845380 13193390 10638230 9654656
1053.91 8370888 8395510 8391836 10184020 10978790 11007910
1059.70 9585138 8983752 7681324 7306018 6679668 7279670
1065.48 6685164 6100294 5345554 5149570 4397000 4561760
1071.27 3968436 3841094 4006948 3998844 2612392 2627914
1077.06 2402160 2546240 1852908 1824514 1591786 1723880
1082.84 1367966 2084692 2121948 2262408 1712696 1610028
1088.63 1402472 1394832 1006638 1150750 685450 1027240
1094.41 1046906 1163132 675542 1096314 1121234 1012350
1100.20 607172 797840 727992 923364 363170 642114
1105.98 867226 1013496 724484 800940 350562 446344
1111.77 480314 899756 783188 472702 86664 365374
1117.55 284294 555018 665544 920892 599044 385688
1123.34 17192 397096 204582 737848 699618 597482
1129.12 471400 509214 245994 162316-185540 76742
1134.91 294298 681892 184908 219430 344344 528344
1140.70 315590 513152 295250 550980 343368 352720
1146.48 208744 468440 489480 770012 597594 581220
1152.27 588442 787900 667750 1058984 1138006 827148
1158.05 388916 821392 692030 772476 969086 1228846
1163.84 1012952 1001772 789148 974572 1115086 1139886
1169.62 951914 931388 979146 1419292 1386472 1691212
1175.41 1371412 1558212 1888664 1794252 1710292 1917076
1181.19 1908972 2136400 2108604 2265730 2312020 2733372
1186.98 2938094 3175830 3027858 2772090 2557144 2933044
1192.76 3256806 3775828 4011064 3939820 3700054 3801540
1198.55 3860630 4136712 4091016 4187730 4276728 3986400
1204.34 3658310 3792700 3639944 3669016 3522630 3449710
1210.12 3642884 3761014 3842786 3841302 2733456 2275078
1215.91 2578738 3035662 3528248 4146864 5099916 5807886
1221.69 6169440 6256632 6217774 6561984 6398384 5784904
1227.48 5624930 5103540 4417968 3646618 3244510 2893674
1233.26 2487268 1801496 1731796 1431086 1193938 1651832
1239.05 1993280 2239028 2587728 2532280 2760126 2943828
1244.83 3349720 4054828 4354124 4161288 4844776 5280636
1250.62 5803294 6614206 8083272 9186588 11262130 13377550
1256.40 16256760 19439160 23638600 27355970 31973210 37234390
1262.19 43911980 51251740 60093340 69804170 81874600 95206260
1267.98 110963500 127997700 148177900 170586500 195795900 221899300
1273.76 251937900 284621000 321118100 359559800 401959400 445960200
1279.55 494145500 543607500 596524800 649757800 705417900 758767500
1285.33 812047400 862084200 911855400 955606200 997363400 1030307000
1291.12 1052858000 1061844000 1065986000 1054229000 1027827000 979378100
1296.90 918449500 835965200 747690100 652004700 547306400 396292100
1302.69 278348300 369012000 906298500 1137281000 654704700 388728200
1308.47 482951100 643213600 762592800 893991600 1021099000 1139764000
1314.26 1228242000 1295263000 1328066000 1338681000 1317516000 1275447000
1320.04 1212369000 1138719000 1049175000 954550000 857016100 768740700
1325.83 670656600 569578100 471918700 387444900 311609100 248616700
1331.61 187694700 137158000 101230200 79023860 63493830 70354710
1337.40 113270300 128590900 89855360 59738550 41955680 35738660
1343.19 31096310 31095780 25074350 22526650 22466480 28460000
1348.97 40585200 86857250 108950000 79035500 53849850 46189760
1354.76 43722660 44845570 46280910 49465570 45400740 42887330
1360.54 47870110 64911880 130789000 172870800 118800900 79412460
1366.33 65557140 65269360 64483510 69081500 69538070 68165710
1372.11 52970860 57568940 88186540 275559300 391196600 218776600
1377.90 92329920 59174480 54168080 53690720 58895450 61856510
1383.68 69228170 70609970 72953310 93516640 230799500 301219400
1389.47 170882900 93863780 78620620 81024180 82035320 88623800
1395.25 91977740 103536300 111738000 112158700 141383400 332311100
1401.04 379894700 193738000 112256700 97863390 100521500 98234980
1406.83 105638000 103571500 117654400 143561000 141712200 271255800
1412.61 756231700 689175400 230561600 99481270 81798380 90669730
1418.40 89711220 101008800 101227700 124298400 136739700 138878400
1424.18 293235600 553097500 371838200 154714100 115836800 120400900
1429.97 118612600 128531000 128521500 136645100 148942300 157918500
1435.75 181592700 475470100 593591400 281425000 132739100 121039000
1441.54 121310100 121433900 117387100 120308100 157725300 170210900
1447.32 149698900 636506500 1105172000 487831100 123948400 114116300
1453.11 120136400 118119400 127632600 123901200 138843900 154224600
1458.89 152179000 180642600 468460400 551867300 255340800 144596500
1464.68 137514000 140326100 134972400 136116800 135367300 154625700
1470.47 150245400 148139000 332339500 539277900 305896400 137523000
1476.25 121793100 123895000 112907400 112432900 111686500 144474600
1482.04 131351900 110660000 346776800 796142800 514993000 142622300
1487.82 125168400 131249500 130495400 127522200 130434800 141367300
1493.61 135538300 125049800 207102100 397666300 304347100 128426600
1499.39 117355400 122436900 121545700 114518800 117141900 119437300
1505.18 110340000 100798800 166103200 305636000 222631200 86679640
1510.96 76941630 81067980 86610150 81477470 92625230 90651780
1516.75 76580900 70381650 201914600 385957300 221470900 61421740
1522.53 55929230 66135700 88676780 91588500 95497580 86743670
1528.32 82997260 83813810 148677200 180832900 101876500 63470860
1534.11 60768720 59624360 67674240 71958740 70487870 63302500
1539.89 59418440 71254940 119605200 101426200 49098140 38757840
1545.68 34767720 34364340 40519190 45337220 39557440 36250200
1551.46 37122310 85770790 120615500 57399250 25793280 24067850
1557.25 23446150 23917670 32311980 38633530 38888700 36644220
1563.03 43930740 58512370 45131290 27962320 26348470 24441420
1568.82 24169110 22246230 23324830 23744590 23158860 24698000
1574.60 34882900 30268480 18889060 15996100 14730580 13525610
1580.39 12257700 11488780 13353960 14692120 17556290 27805630
1586.17 24579680 11463430 9304438 8714154 8955160 8136940
1591.96 8294848 8422516 10948920 12291870 14931960 13034760
1597.74 10351430 9601202 9778472 9156726 8539126 7255318
1603.53 6893134 6773546 8418772 9865382 9190770 7731670
1609.32 7190900 6008538 5567390 4989640 5087534 5058852
1615.10 6142260 7258506 7238578 5192842 4580768 4282064
1620.89 4750724 4554374 4601184 4010864 4186400 3896278
1626.67 4363046 4334486 4229950 3578416 3860372 3817184
1632.46 3731562 3533930 3704956 2672830 2589240 2213162
1638.24 2185668 2250520 2474438 2172280 2210314 1743296
1644.03 1978164 2218904 2263304 1892686 1912568 1791620
1649.81 1808112 2076854 3170540 2556002 1785472 1198126
1655.60 1134390 985936 1252994 891902 705732 682606
1661.38 1210262 1137324 776842 524654 854030 946800
1667.17 1070604 1135826 910928 554434 893362 704900
1672.96 749568 1079792 1216282 650322 651170 351420
1678.74 596028 654704 771248 564800 1104500 1683460
1684.53 1566454 681778 589680 572814 793782 440196
1690.31 166430-66024 378484 623610 1367760 1500896
1696.10 706744 243520 770696 1397050 1416850 507060
1701.88 301752 387484 759198 508594 353180 111008
1707.67 351720 405050 485176 317334 525216 379782
1713.45 626660 601366 759504 1387430 1208094 654460
1719.24 636914 525886 566568 452182 411854 122106
1725.02 424722 499742 408732 323340 632702 545962
1730.81 614862 809574 1355804 1299340 864560 386030
1736.60 503046 431080 750954 866686 676664 404720
1742.38 566050 585802 632490 503160 634464 617756
1748.17 545192 342424 733602 591050 563074 726368
1753.95 820738 620178 632046 376924 407076 370702
1759.74 444276 701494 929348 774660 627944 315806
1765.52 287062 409876 682248 532512 665124 785150
1771.31 1064508 994450 731584 480002 480632 391408
1777.09 498126 491848 432516 141314 229326 132118
1782.88 174400 491852 742938 450330 255892 201634
1788.66 453410 692120 726190 794194 607434 248872
1794.45 386624 467926 408038 204002 495180 411524
1800.24 241672 227882 465596 398784 335516 232922
1806.02 283290 232532 418458 387318 307372 293372
1811.81 536102 449396 310112 179180 197814 260912
1817.59 477490 486730 514440 406080 358464 107928
1823.38-126072-283396-98472 425690 728874 524492
1829.16 541562 448424 545106 363744 320178 382620
1834.95 763444 1057696 729492-9310-164332-87584
1840.73 247774 255110 509772 538770 289334 308624
1846.52 475330 496568 640476 715892 510558 9874
1852.30-267478-336234 124876 671170 694924 537996
1858.09 497658 290588 388028 792582 1105648 1200246
1863.88 1180664 504272 19402-297482-234662 372574
1869.66 1386730 1684288 1531664 1335530 1325398 1710452
1875.45 2437816 3232222 4015704 3728778 2797960 2454880
1881.23 2531646 2548078 3045176 3959920 4750290 4850724
1887.02 4889648 5152712 5678080 6108706 6721960 7286018
1892.80 7171210 6785364 6494662 6024146 5808842 5654348
1898.59 6341652 7091338 6879050 6335556 6425012 6282316
1904.37 5800116 5592436 5567204 4557856 3768226 4366814
1910.16 6161284 6752178 4732610 3337014 4803762 5773966
1915.94 6245698 7161112 7952658 9056660 10594940 11332400
1921.73 10750870 10268710 10023470 9335108 8273336 7223360
1927.51 6415778 6068584 5500198 4328072 3142244 2043970
1933.30 1568180 1244814 838090 572972 402216 106670
1939.09-82438-368266-552628-924728-762898 115882
1944.87 322234 193474 207472 196566 397742 373382
1950.66 40286-193586-55692-124490-255186-792662
1956.44-1381430-1635836-1046296 159880 756066 626634
1962.23 447930 765592 1115042 445024-68946 8228
1968.01 187320 191220 206434-148302-456180-558074
1973.80-274036 290640 448670 390610 424364 511744
1979.58 342650 131286 204364 345326 398182 107718
1985.37-14950-236628-437444-559874-103618 377124
1991.15 265530 229654 593986 593314 342102 164910
1996.94 113300 252418 547140 451032 136510-157214
2002.73-511914-789454-372184 439998 773886 691464
2008.51 638160 313490 14912-46864 99584 101908
2014.30 95798 269308 165534-49696-28492-125458
2020.08-136340 71972 216678 199802 167434 97704
2025.87-118668-115340 199158 282044 149750 52796
2031.65 205560 236542-137044-239034-247018 44330
2037.44 326838 202004 84914 153096 229732 139448
2043.22 224608 386582 340338 194166 82480 22988
2049.01-11908-11668-118380-71168 283552 629786
2054.79 810512 739232 503006 418944 398346 336210
2060.58 259852 373578 525290 409096-9612-193246
2066.37-32736 425740 567230 408892 224474 153338
2072.15 391704 468344 360214 224294 220266 537272
2077.94 448664 437434 609012 654240 331872 155640
2083.72 236840 541022 420274 62260 129338 220196
2089.51 762680 762860 445506 358104 725884 801178
2095.29 332626 299402 561772 872816 330864-87406
2101.08 175608 983978 895266 213196 173558 843494
2106.86 909404 205712 184136 781166 1299770 646648
2112.65 214406 612588 1220590 639984 195192 514874
2118.43 1138642 746244 92718 119338 838502 839172
2124.22 346724 336056 613188 630830 257688 238210
2130.01 511900 720130 391282 457512 636790 511150
2135.79 261466 438380 562428 697676 684884 548704
2141.58 397082 291118 144060 229296 644972 833244
2147.36 692932 454144 586144 929522 739310 639424
2153.15 1125260 1188246 684696 908714 1617212 1368742
2158.93 699524 1242250 1951866 1547700 1150126 1717266
2164.72 2080716 1719702 1415298 2177612 2511180 1933432
2170.50 1966044 2653450 2691508 2032650 2334620 3086776
2176.29 2600434 2443838 3434756 3953496 3338588 3483326
2182.07 4106384 3685490 3223352 3992810 4697448 4573498
2187.86 4728676 5009326 4582208 4590052 5702048 6737874
2193.64 6649272 6056896 5772820 5408598 5310644 6186542
2199.43 7123634 7628296 7408026 7223124 7120456 7265980
2205.22 7923978 9350554 10246220 9578750 8814140 9505016
2211.00 10369630 11466950 13827400 16261840 13611790 9251202
2216.79 8559322 9253332 10053600 11616720 13963610 13854330
2222.57 11102220 10082780 10590920 11948190 13976650 17019630
2228.36 18191020 14293060 11511260 12802640 15043250 18668150
2234.14 23825400 29357500 25260880 13784420 10119410 11153840
2239.93 12561770 14764770 18835980 21508780 16715540 11689280
2245.71 11579640 12487890 14092750 17243220 22144500 23242130
2251.50 16201430 12001920 13160660 15341180 19098760 25397060
2257.28 34182220 32644460 17311610 10249340 10959310 12522720
2263.07 14552800 17489760 21350750 20066750 13276620 11097340
2268.86 11904990 12942180 14155670 16560840 20090170 19140360
2274.64 12322440 9927594 11248570 13118430 15449810 19068800
2280.43 23917470 22706810 12640300 8047924 9094286 10461130
2286.21 11453700 12667440 14175840 14388940 10837560 8371958
2292.00 8372970 9850530 11246910 11457910 12064050 12945260
2297.78 10829600 8028658 7015602 7113658 8462814 10974660
2303.57 14559630 15224000 11804760 7602730 5913982 6011136
2309.35 6054090 7156758 8312150 9875140 11321960 11081990
2315.14 8186484 7662498 7400004 7910730 8410852 9377054
2320.92 9184694 9342278 10026250 12454150 10882300 8994658
2326.71 9117218 9818864 10172750 10425170 9272728 8671818
2332.50 10738910 18015700 18405810 10611800 8562604 9296568
2338.28 9378470 9107192 9180190 9125380 9377226 13111010
2344.07 16265500 11338640 8042410 7630126 7446908 7658166
2349.85 8327586 8859486 9883858 13978310 20643680 17438440
2355.64 12791570 13461100 13283320 12271080 12351940 12919230
2361.42 13826070 19284530 35360670 33874290 16277210 12245090
2367.21 11956120 11837970 11416920 11584650 11579670 13594000
2372.99 21448450 24330470 14200370 10815930 10382370 9854484
2378.78 9507858 9924098 10073020 11748290 19516070 26098270
2384.56 16048820 10598300 10508830 9852336 8690478 9148980
2390.35 9404258 13530230 25424920 39127710 27536020 11833880
2396.14 9647116 9373422 8915806 9206886 9209424 10215170
2401.92 15810790 25678010 18607270 10109490 9905038 9269276
2407.71 8129942 8159118 8067484 9032982 13495940 22504020
2413.49 16465560 8506052 8624824 7690932 6615564 6492566
2419.28 6381000 6909772 14776940 32511170 23177370 7577028
2425.06 7044970 6830088 6540924 6531772 6620708 6532474
2430.85 9570822 17092170 13419740 6295266 6101124 6116220
2436.63 5867652 5685694 5516682 5539438 7551378 13062310
2442.42 10058980 4608088 4821510 4711256 4366728 4137134
2448.20 4166394 3974144 6606498 15006920 12697180 4390090
2453.99 3045158 3103900 3866078 3714758 4071682 3992456
2459.77 4672072 6457008 6537314 4247258 3460066 2974190
2465.56 3268782 3405622 3560804 3240632 3496990 4274650
2471.35 4617124 3889378 3399342 2904926 3129482 3243934
2477.13 3010164 2872572 3070184 2569864 2490268 2450472
2482.92 2317062 2511654 3724874 4562700 3863112 3197994
2488.70 3103758 2787580 2609772 2539090 2526110 2232024
2494.49 2056898 2268716 2636120 2629210 2334786 2177788
2500.27 2128448 1768756 1555380 1866674 2220222 2066418
2506.06 1694880 1296134 1285276 1585012 1871840 1860766
2511.84 1940186 1969652 2024730 2387858 2748548 2657970
2517.63 2669050 3003280 2955844 2274806 1588266 1131720
2523.41 830180 881658 559444 388346 325112 232916
2529.20-13552-139016-76712 135308 416298 141158
2534.99-215736-279140-275342-291976-190046-60380
2540.77-55294-205714-256080-163022-209504-195614
2546.56-242800-396500-396836-226458-284078-423674
2552.34-173194-42754 15328 235606 512952 613046
2558.13 591222 1143068 1566230 1653530 2042368 2532848
2563.91 2828760 3012566 3519010 4479580 5075056 5422022
2569.70 5957716 6748330 7335046 8279234 9255316 9999388
2575.48 10791130 11373950 11876020 12478860 13105420 13740500
2581.27 14134460 14407650 14542710 14559410 14661220 14587620
2587.05 13685150 12943340 11938000 10417310 8561760 6767928
2592.84 4808604 3204784 4738514 11849570 15857480 12244520
2598.63 9050272 9116586 10476000 12972940 16781840 20961100
2604.41 24915080 27359200 28798520 30204980 29847670 27510810
2610.20 24322280 22339620 22713490 22866870 20868310 17529950
2615.98 13200630 8500768 4497864 1453032-749772-2149612
2621.77-3323326-3885970-4056286-4288666-4620058-4740786
2627.55-4617116-4945138-5605660-5983570-5903904-5456026
2633.34-5514098-5612758-5655792-5659518-5896938-5787930
2639.12-5280220-4758376-4702536-4966174-4994320-4930814
2644.91-4792812-4683908-4645982-4386460-4317208-4370422
2650.69-4117384-3537592-2990966-2909018-3214556-3065866
2656.48-2853972-2507134-1947142-1673102-1572534-1247944
2662.27-1123640-912936-239258 528318 353176-54976
2668.05-63342-139676 142524 490408 412072 377310
2673.84 98108-370818-398534 640822 1434204 1002956
2679.62 396050 435750 304884 233526 399480 649826
2685.41 521756 427044 610924 1185826 1828542 2016570
2691.19 1101980 757374 635044 628156 705094 1074758
2696.98 1086294 1028502 779622 557898 549092 1293356
2702.76 1403822 827814 625436 1007676 956724 726282
2708.55 976988 1419208 1563052 1840076 2191940 3008026
2714.33 3623154 2387660 1047802 1057524 847654 885736
2720.12 939384 1206930 1103154 1132686 1185416 1131516
2725.91 802520 940502 732242 712488 562690 543048
2731.69 404758 562478 851948 1215208 1089138 1264796
2737.48 1832842 2616662 1861582 874074 631632 863606
2743.26 1239682 1342038 906768 859644 1142322 1908750
2749.05 2620838 3085360 895594-2197014-1405698 538376
2754.83 898772 850256 836250 766952 787816 1073244
2760.62 1087650 1855782 2631134 2088468 997232 1101222
2766.40 1254080 1052592 722416 968450 768060 746356
2772.19 1088074 2102552 2494488 1466810-1341490-2125642
2777.97-473084 774968 753350 799686 690220 663494
2783.76 1053534 1992266 2783822 2899568 1424534 999408
2789.54 1031466 1121376 930188 989622 863388 932028
2795.33 898144 1734180 2200020 2522984 1689254-286146
2801.12-3069432-2582724 437966 1537978 1440790 1694844
2806.90 1855912 2127378 2642780 3114036 2230964 1638532
2812.69 2069602 2981198 3094026 3530770 3649402 4213308
2818.47 4930154 5771908 5969270 6712534 7096950 7553870
2824.26 7223110 5574048 3286784 7667034 14892950 19858990
2830.04 23251330 27728540 32770380 38865100 46089700 54463530
2835.83 63909470 75432690 87877780 101214300 114749400 128945700
2841.61 142320500 155718800 167605400 178265200 187126800 193373100
2847.40 198492800 196236700 188805700 179171300 170096500 162335500
2853.18 145241700 124683700 110129800 103058300 105011800 117246500
2858.97 113651900 113519700 97654030 64608000 67736970 90538170
2864.76 111589600 129927600 145118400 157655500 167035200 173668700
2870.54 177623700 179398600 179190700 175902600 167672500 160585900
2876.33 158605600 154431400 146476400 137615200 127352300 117634900
2882.11 108106900 98996780 90014950 81622570 73247570 65771620
2887.90 58082050 51802960 45982490 40670340 33883470 28988640
2893.68 26104980 22760210 18599160 15159180 9991914 4257024
2899.47 5302704 9722370 8173640 6503036 4902736 4651582
2905.25 3437940 3024242 2691250 2656308 2134070 3090600
2911.04 2642536 2526712 1333410 1611660 2092668 2520956
2916.82 2168144 3580850 4302750 5451304 4875628 4666530
2922.61 1842604 2633032 8541432 13234260 14885280 17651450
2928.40 20671950 25872110 30848670 37437970 44818960 55440070
2934.18 66658480 80469180 96210790 115917300 137676800 163707200
2939.97 190359600 223258400 259696300 301667100 346559700 397116400
2945.75 448711200 502380400 568746200 648501400 713821500 773110300
2951.54 828293800 889081900 948125500 1000847000 1036721000 1065868000
2957.32 1091146000 1108233000 1094378000 1068125000 1036077000 1024431000
2963.11 975985200 853721200 775666200 761986400 677789500 695597400
2968.89 791941100 769602400 617614100 613088800 673691800 661102700
2974.68 740422100 805305100 930756100 1036819000 1089531000 1138451000
2980.46 1194644000 1228404000 1232041000 1214726000 1196229000 1176396000
2986.25 1154087000 1090448000 1018648000 953934500 886347600 816102500
2992.04 743950200 674151400 610646100 581772000 547710500 465283900
2997.82 402178000 356633500 315287500 277390200 238263200 207394100
3003.61 208314600 282580200 258488500 152290100 125438400 107562400
3009.39 100305000 89123430 82746090 75576700 115530400 166467200
3015.18 116319100 67681400 65594880 63344300 68838100 64308320
3020.96 65814300 77114070 164468600 174433300 86551210 65432330
3026.75 62277770 61307830 61327220 62021150 63602080 194318700
3032.53 384442600 221383800 76088110 68735800 58381100 60563290
3038.32 57998790 59632740 94662580 237665300 232428700 99425270
3044.10 80372240 72783220 72295190 68293350 76300790 86024500
3049.89 208206900 293872600 151224300 79110360 74538270 64660490
3055.67 64784000 64356600 68170540 231654500 534206900 341919400
3061.46 103420500 87256550 69075020 74032850 70666560 75689910
3067.25 120756500 288770300 260543400 111962100 90881300 79927120
3073.03 78756410 77379020 78977040 101758100 246112800 270251600
3078.82 117125400 82546100 70140220 67000470 60984050 62968940
3084.60 87170820 327868200 434027900 170281100 88347740 82694180
3090.39 76933270 73130140 76116080 81732900 179516700 231556800
3096.17 119423500 73637390 74798210 71887560 70597810 69307380
3101.96 75975310 148334600 184941300 92997500 56030550 49172090
3107.74 54368680 53580410 53689340 66478680 191673500 230688700
3113.53 90401500 47694520 41720030 50014410 56320670 57170640
3119.31 63979440 112516000 110176100 58353390 46150290 40895140
3125.10 41003040 43711940 44269930 53753420 85429540 68792890
3130.89 37323900 31415770 27066010 25819550 27717630 30856340
3136.67 59519010 91913870 51618040 25085830 21196540 18014920
3142.46 16599680 20933880 28320670 42167760 42401170 26933280
3148.24 22050680 18842810 17125360 16337570 17281030 22171520
3154.03 28808160 21526210 15438510 13625900 12187720 11016460
3159.81 9954720 11214030 21255380 21221240 11287600 8524484
3165.60 7530246 6810872 6125960 5654548 7262778 10416470
3171.38 9311098 8269258 7799532 6903928 5870646 5367506
3177.17 5716368 6795900 6083348 5565576 5269782 4871436
3182.95 4029764 4183836 5030890 5614890 4857400 3917206
3188.74 3796988 3537010 3169786 2630496 2736480 2864274
3194.53 2830364 3065620 2989334 2602990 2352152 2080354
3200.31 2128694 2032836 1959450 2097134 2390446 2250872
3206.10 2733000 3176948 2890228 2699222 2679432 2422024
3211.88 2331818 2486926 3430690 3305178 2599284 2195970
3217.67 2527020 2690900 2935708 2649736 2109698 1565698
3223.45 1337386 1188254 959636 740280 321680 255216
3229.24 387088 680762 629024 282212 447816 339938
3235.02 322212 272250 156772 151036 840690 1270486
3240.81 997968 176478-273556-332394 62078 638224
3246.59 789622 517576 218200 318686 785772 816988
3252.38 775356 805564 362376-69634 138252 149940
3258.17-87042 324032 771136 252052 105414 394860
3263.95 270016 236294 800222 478320 221702 20578
3269.74-27010 549056 889288 585450 506286 635882
3275.52 444000 471134 747126 293358 60462 138352
3281.31 510330 762820 741468 337778 140040 370564
3287.09 716104 54168 171912 769648 750022 134754
3292.88 273400 476898 640644 669164 600746 456608
3298.66 687748 735104 265446 188426 550618 351878
3304.45 266674 163868-23680-364670 1830 252480
3310.23 646012 988374 1145452 741760 798384 598400
3316.02 530202 606166 152282 58720 404748 357234
3321.80 546550 498904 721720 822906 847814 593004
3327.59 412080 161158 361738 569574 1004536 894510
3333.38 819180 679610 612854 789630 1043670 1122276
3339.16 1085808 465516 321582 664604 1016676 395522
3344.95 43942 242188 290394 536844 608452 667948
3350.73 756240 282668-41712 456170 894220 5046
3356.52 48556 207724 62836 159418 442696 568748
3362.30 307148 118326 704820 451188-229824-419182
3368.09 35708 628138 546632 511550 533168 635348
3373.87 737150 375436 494756 738514 904802 142690
3379.66-106604 304934 1305196 1319466 354168-343302
3385.44 114506 720416 824282 818830 1076692 967342
3391.23 293120 298224 1000416 463104 259484 994438
3397.02 920378 166628-247582 7642 499862 844874
3402.80 523448 554202 1160724 1173870 901290 532564
3408.59 465972 97016 459448 761970 504828 29032
3414.37 145978 339584 659660 768276 323060 247764
3420.16 471040 586260 388070 603686 847316 609342
3425.94 503332-15030 336908 777422 775864 760610
3431.73 1033962 912494 652294 406020 350068 574100
3437.51 838894 1162764 1208770 1080220 1250042 1385926
3443.30 1543326 1066488 767592 850274 1343048 1744856
3449.08 1596818 1638596 1207822 1410758 1732864 1589564
3454.87 1471450 1229502 1658172 2111044 2236264 1619474
3460.66 935104 1270060 1856326 1483376 1405872 1105452
3466.44 951302 820196 715042 1505256 1795186 1276086
3472.23 1404532 2124630 2089670 1187932 1823462 2236860
3478.01 1868570 1307586 805808 1035284 1025764 459212
3483.80 788992 1295250 1717558 1479784 934924 815244
3489.58 1005856 1008310 1218194 1163204 927542 797082
3495.37 697890 613374 769208 901414 1006106 564532
3501.15 638786 1217986 1575936 710896 171704 348852
3506.94 854826 1076384 740240 611556 765318 1046616
3512.72 1162704 847668 398342 144904 996910 1203542
3518.51 936296 843230 986352 1337954 1544984 1070978
3524.30 608508 639062 581314 626966 1028008 1571880
3530.08 1801148 1571856 1597868 1204320 749578 960416
3535.87 1385592 1434524 1220742 1353878 1796748 1682412
3541.65 1809274 2026430 2630498 3036786 2973288 2519722
3547.44 2783934 3099920 3389734 3755550 4158902 4692640
3553.22 4636336 4621276 5408316 5753846 5599214 6005552
3559.01 7087684 7938048 8380770 8700256 8697612 8215386
3564.79 8298738 9075888 9973952 10234420 9996646 9638574
3570.58 9315656 8874238 8735554 9116904 9032700 8024700
3576.36 7756240 8040024 8409120 8848558 8932094 9566748
3582.15 10090580 9691180 9297402 8686566 8976818 9556796
3587.94 10100260 10582190 11065590 11075080 11034320 11789290
3593.72 12310410 11823660 11334740 11510860 11244330 10525100
3599.51 10046180 9327116 8298060 7900018 7666072 6981056
3605.29 6591430 6055972 5602116 4952330 3582480 2788086
3611.08 2754374 2412586 2065342 2476798 2646904 2713218
3616.86 2574528 2108548 1805054 1634182 1624448 1905414
3622.65 1998758 2197036 2161560 1809212 1821486 2190976
3628.43 2664148 2453974 2306392 1797220 1602758 1963284
3634.22 2603910 2838844 2284134 1427792 1453500 1831816
3640.00 1896658 2191408 3164194 3921108 4229646 4016042
3645.79 3326770 2734468 2837748 2661572 2463718 2685578
3651.57 2941172 3581556 3580248 3316112 3186560 3128208
3657.36 3200072 3030808 3186364 3603404 3989440 4370050
3663.15 4452074 4092066 3557718 3211706 3320756 3698128
3668.93 4534394 6134786 7050398 6788322 5191278 3959894
3674.72 3978070 3620356 3063148 3332928 4041188 4743922
3680.50 5194822 4438856 2999302 2783844 2830210 2678588
3686.29 3241672 4571234 4723478 4556250 4702024 4588340
3692.07 3872730 3061208 3419006 3686788 3840052 4646056
3697.86 5530680 4778780 3274754 3077928 3267442 2953820
3703.64 2764408 2773606 3263456 3121870 2503230 2575758
3709.43 2598486 2996594 3561392 2841312 2700430 2730732
3715.21 2619486 2868290 2482164 1978030 1784944 2106692
3721.00 2704206 2961202 3281124 3102268 2269334 1535884
3726.79 1086242 1303478 1836586 1926276 2574222 2623544
3732.57 2172132 1953568 1953162 2282510 2075118 1647932
3738.36 1924912 2093318 1875168 1482296 1457582 2585128
3744.14 2744646 1632512 1447690 1756750 2613152 2212976
3749.93 1293330 2073632 1824694 848958 1058588 1461352
3755.71 1603876 1227646 1042344 1239436 1163452 1218666
3761.50 1555772 1940474 1600338 1409984 1595336 1523402
3767.28 1363700 1237340 1232044 1195480 1483510 1318262
3773.07 953048 751310 932848 770818 1062490 1654638
3778.85 1456876 976826 1687894 1659400 1087728 1127002
3784.64 1415222 1254416 1436784 2039000 1822506 1388668
3790.43 1621302 1901402 1897058 1865558 1837746 2092568
3796.21 2232784 2046890 2745418 3144774 2901718 2439780
3802.00 1759602 1748466 1720780 3061112 4221108 2684678
3807.78 1904330 1930516 1810062 1767434 2340748 2731728
3813.57 2621436 3265356 3008140 1863810 1803778 2672512
3819.35 3589894 2915304 2212256 2261310 2173280 2311924
3825.14 3260370 4362754 3421026 2478324 2356228 2164804
3830.92 2475600 3291626 3098222 2742184 2790654 2758886
3836.71 3664522 3438912 2851600 2942970 2980486 2817736
3842.49 2701944 2377096 2457316 2946198 3456632 3377630
3848.28 3112872 3374026 4054140 4525830 4231194 4820154
3854.07 4758000 4471876 4314716 4002792 4101202 3910072
3859.85 3986110 4640950 5222352 5416804 5232276 4765122
3865.64 4333574 4516832 4545954 4600736 4529692 4385120
3871.42 3993334 3914102 5082356 4820498 4278068 4422222
3877.21 4968624 6343220 7348268 6963596 7146372 7792120
3882.99 8382580 9520686 10831440 11476380 11620510 11093480
3888.78 10037270 9219894 8242478 5721966 3792000 3206626
3894.56 3275718 3419392 3769062 4313672 3962526 2546126
3900.35 1973188 2548800 3310428 4300986 4567528 4730922
3906.13 4391816 2812518 2499530 2939564 3120482 3678288
3911.92 4170988 4766190 5704144 4639488 3341944 2933438
3917.70 2479460 2713184 4351726 7810638 8552420 4743050
3923.49 3233974 3478012 3260224 3682286 4949656 5352412
3929.28 3712020 2738862 2835364 2803914 3437884 4440392
3935.06 5369670 5186292 4514390 3294384 3180026 4572176
3940.85 5724604 4305550 2502318 2623644 2678114 2849848
3946.63 3014270 3001192 3631504 4680340 4486538 4026342
3952.42 3548078 3282696 3339236 4039748 4538666 4120060
3958.20 3357472 3366968 3906190 4658470 6382450 6426822
3963.99 5086814 5165000 5359016 5864660 7616522 8552020
3969.77 7831706 8287132 9552918 10819560 12637860
##END=
