##TITLE=Ethylene
##JCAMP-DX=4.24
##DATA TYPE=INFRARED SPECTRUM
##CLASS=IUPAC A
##ORIGIN=NIST, Anayltical Chemistry Division, 301-975-3108
##OWNER=COPYRIGHT (C) 1998 by the U.S. Secretary of Commerce
##DATE=98/10/1
##$SPECTRA VERSION=1.00
##$UNCERTAINTY IN Y=2.1 % relative (B=1.1E-04,C=8.5E-10,D=2.7E-14)
##CAS NAME=Ethene
##CAS REGISTRY NO=74-85-1
##MOLFORM=C H2: C H2
##MP=-169.15 C
##BP=-103.71 C
##$NIST SOURCE=QUANT-IR
##SPECTROMETER/DATA SYSTEM=IFS66V (Bruker)
##INSTRUMENT PARAMETERS=KBr Beam splitter; MCT Detector; Multipass cell
##STATE=gas
##SAMPLE DESCRIPTION=Ethylene Primary Gas Standard
##PRESSURE=101.3 kPa
##TEMPERATURE=23 C
##SAMPLING PROCEDURE=1 L/min Flow
##RESOLUTION=0.9640
##DATA PROCESSING=NB Strong Apodization
##XUNITS=cm-1
##YUNITS=(micromol/mol)-1m-1 (base 10)
##XFACTOR=1.0
##YFACTOR=9.0949E-13
##DELTAX=0.4820
##FIRSTX=575.169
##LASTX=3975.077
##FIRSTY=-1.17E-07
##MAXX=3974.59
##MINX=575.17
##MAXY=.001032
##MINY=-7.26E-07
##NPOINTS=7053
##XYDATA=(X++(Y..Y))
575.17-128902-320558-244524-263402-121102-137200
577.58-359830-798608-767918-546360-434442-591300
580.47-409310-308918-292346-441898-412340-368700
583.37-274028-369024-357722-422602-336884-366332
586.26-261784-417338-298716-404248-440920-528590
589.15-418490-551850-460838-339822-278420-450670
592.04-434500-466758-351952-444514-402076-389994
594.94-234806-176510-120142-358844-351002-392818
597.83-405000-498258-385910-328726-248692-410180
600.72-394746-382340-270600-330304-256168-224422
603.61-192294-378318-314266-342868-301916-337776
606.51-271078-381332-337458-322710-232506-394014
609.40-257848-266504-253176-318336-245420-300614
612.29-184300-216876-172202-279346-236418-325802
615.18-273984-287592-105098-157834-143158-283970
618.08-232954-238488-117826-243380-219470-312234
620.97-299480-281678-126050-248338-288728-275930
623.86-152382-249590-197428-308628-303318-337258
626.76-164424-203736-225788-357174-248344-252770
629.65-234080-304660-186422-266658-145354-276294
632.54-324906-346068-214852-242538-193422-348660
635.43-237718-132420-41978-237338-233098-297036
638.33-212208-270156-171854-253532-195338-250526
641.22-207806-312344-154272-196058-181704-248834
644.11-115508-194384-149060-204634-58700-101052
647.00-109124-211564-162078-212624-161542-289308
649.90-162914-165098-129336-275980-199098-196122
652.79-103490-194530-173326-267362-180032-205046
655.68-138404-184336-67498-192778-141212-151380
658.58-11310-107382-154036-247822-90600-191806
661.47-173160-222230-108940-190366-190850-246294
664.36-100232-135044-126766-183826-10382 85158
667.25 188810-75830-60674-50310 57336-144524
670.15-100854-50690 158124-81186-124396-94342
673.04 257764 88678-20620-72660 139962 16728
675.93-46162-140932 39836-49302-127088-176320
678.82 29918 42188-12182-152048-3368 60504
681.72-9740-249520-63340 117706 159740-80688
684.61-4558 192824 298124-73714-30580 29718
687.50 181670-99702-22000 8150 245800-14058
690.40 672 10432 266014 110580-7864-1788
693.29 308248 211454 118662 114360 488146 385384
696.18 205594 142656 512492 542084 292488 117396
699.07 158150-9764-50334 4074 177650 96748
701.97-1494-17310 264922 222914 135966 30280
704.86 389268 415972 310130 57936 371008 584070
707.75 504694 181356 299272 639656 634604 91478
710.64 173324 453528 501012 56396 248830 490820
713.54 793612 243946 209296 325960 742082 286618
716.43 210866 605376 1268590 1025370 745096 746934
719.32 1170764 811476 450402 450824 1144402 945390
722.22 504014 224072 367342 94238 299160 385796
725.11 615518 360468 392048 623942 904570 720556
728.00 589358 888266 1175048 834996 450662 538758
730.89 976074 795890 527854 510184 1149638 1017290
733.79 640160 508862 1022828 655246 573344 738086
736.68 1437912 1326502 1095354 1275158 2003336 1917588
739.57 934336 523344 1059348 1233636 538024 349266
742.46 1025188 1433348 844370 437398 1176160 1643018
745.36 1180964 602068 844828 777142 1107854 1124486
748.25 1423042 1233398 1191976 798152 695928 435608
751.14 483036 624802 831718 648934 593060 883844
754.04 1236230 1087780 893068 1238908 1690808 1717422
756.93 1645492 2048694 2285804 2130146 2090402 1655948
759.82 1007668 382258 422394 589084 875906 488226
762.71 496870 673166 999494 613908 883992 1056162
765.61 1400682 1037622 1332798 1824434 2371248 1931416
768.50 1833006 1036622 372672 59790 402330 306184
771.39 309688 252786 491300 431790 576270 577056
774.28 959600 1106144 1391586 1528766 2016550 2330112
777.18 2746638 2810880 2247536 981812 498598 330872
780.07 275250 120052 344778 357524 279016 76406
782.96 360798 553944 520248 332620 989290 1580528
785.86 1558194 1463290 1887004 1491840 684412 205700
788.75 478318 459714 364394 183314 257688 146950
791.64 357114 286110 390582 379542 521774 380734
794.53 701414 1042142 2175228 2581310 1595544 569200
797.43 487090 262058 243582 215458 485650 259020
800.32 317382 377072 554368 358088 385636 252932
803.21 412892 370976 587504 597246 846766 668846
806.10 577386 392686 638456 443472 456384 434794
809.00 605978 443114 605776 433296 492878 545512
811.89 723224 412734 511248 608202 800574 577682
814.78 661912 651872 840736 661092 760712 822270
817.68 1089014 797542 836816 964274 1206196 836552
820.57 1036822 1281400 1436542 1010384 1034928 1403586
823.46 1881188 1483310 1307430 1620240 2231076 1513712
826.35 1364780 2110008 2742056 2080560 1940986 2294358
829.25 2486328 2194460 2781434 3171496 2851842 2299588
832.14 3116250 3699226 3472462 3444140 4696954 5334772
835.03 4391986 3893670 5270614 6143506 5097904 4540436
837.92 6297768 6648436 5068898 5089420 7654200 7576776
840.82 5597692 5807072 7254812 7213798 7308742 9766184
843.71 11679940 9789592 8755576 9544978 10041840 9295568
846.60 9857460 11011390 11176540 10061170 11071380 14722070
849.50 16366690 13779570 13343050 15257900 14933520 11605290
852.39 13153280 18714700 18843830 13538700 14919470 18847990
855.28 17006730 15472160 21906080 25997740 18593830 13603800
858.17 20502540 22717770 16345350 16672900 25898940 25928790
861.07 19466350 19901490 26182650 27328570 23605160 25390160
863.96 26824870 26193370 27506000 29456740 28963220 31585160
866.85 32948890 31283250 29639850 35487420 35357540 29787830
869.74 27822570 35718220 35746710 28351560 28641990 37336150
872.64 38637940 30585290 30393270 46438260 57947600 45567020
875.53 33304440 38031630 47787400 36512000 35495410 53944260
878.42 59733720 43917310 37308330 56070680 64750410 49718010
881.31 49969580 56280270 55922480 44108560 37463830 36865960
884.21 48860090 49292920 48959790 67731070 81110430 61041240
887.10 47064150 52637120 62908630 61647590 61772160 70171820
889.99 82961790 63146990 43017950 43799430 62209660 57527880
892.89 47073300 52102720 72196080 80014970 73472350 86693420
895.78 117246900 122285500 85387040 53990260 67644130 69775170
898.67 62029350 46898770 44312480 66463960 60383570 61253180
901.56 107580900 131187800 90156500 51154770 66787850 66894830
904.46 49119560 55812580 71553220 72463820 60278320 59058800
907.35 87512680 146349600 223438800 177085800 88037820 55521800
910.24 63677080 66570860 62329640 52205580 46365350 63991080
913.13 69972740 48445190 70805970 158876700 226656700 126547700
916.03 59115910 55046020 59803160 49123310 40589400 37629720
918.92 46676970 63868740 73588040 70780640 75046020 138603200
921.81 263545100 229629800 122235500 96279440 72416140 57886740
924.71 47281960 51525140 49599940 68141570 72364170 54487460
927.60 51874810 59915360 88904900 121795700 114260500 87672360
930.49 76494580 81923160 75746030 65470610 64160610 66994660
933.38 66181890 67253340 65804730 55780860 58811880 68443380
936.28 73276360 68371660 78589390 83394160 91890360 105749400
939.17 120017000 126200200 126261600 111181700 109822100 108516400
942.06 99937920 113774400 125184700 105088000 129867200 157874000
944.95 159722900 185737200 207987000 224906000 273229500 311543900
947.85 396200800 637593300 1134797000 1112047000 653504600 403640300
950.74 310244700 269792400 211677400 170881700 131396700 118565700
953.63 111908500 114594700 123805800 133340600 121221900 103977700
956.53 109492100 121883200 93604820 89640600 96985820 94990780
959.42 85295440 77709940 78357980 65196760 72411850 86782650
962.31 76388620 89743770 75185960 79414220 84548740 91578660
965.20 99791780 95356360 81135700 63393240 78474580 100580000
968.10 89918200 98033480 142924800 170641700 129140300 97380400
970.99 73905860 55541610 52194590 60681920 76926700 73731480
973.88 56025570 61725090 77228660 73467310 63577050 76145940
976.77 91436860 104406300 167948000 209043200 140002700 81650500
979.67 56458630 69179040 66247960 49807100 54070780 70040480
982.56 63314970 57287000 56518080 59537600 63969940 84370900
985.45 141511200 177791800 183802900 234265800 262522100 196345500
988.35 88265780 51477490 60096550 54510510 61246700 73821060
991.24 65228320 55424760 58654580 82674660 80215040 56072790
994.13 68272140 74351530 65632390 83253040 136567800 198335000
997.02 163125400 69100120 56626340 83271000 77778380 56341980
999.92 79785140 91299240 76749740 60907070 63590490 68146660
1002.81 62424890 76493540 98895780 85172040 69509000 110268900
1005.70 158809900 158256500 126313700 98954910 87759780 70765900
1008.59 61193830 70565160 63941620 51503730 61005170 78474370
1011.49 68210910 54004440 58278410 62576640 59914680 71627040
1014.38 79324860 78052510 78801300 72751840 59606210 65735640
1017.27 62608940 41718200 38395430 56374160 82606670 94066460
1020.17 73532790 56220390 56076120 67692160 57313820 55911340
1023.06 70113370 63644040 41436670 44661740 55372470 54896420
1025.95 48408110 54335010 75175030 93667030 75874460 60092940
1028.84 50175860 36123670 42457060 48845820 37896680 46367850
1031.74 55857980 38843540 34698780 50015680 43514710 27874860
1034.63 35612740 44500770 36187400 36339130 53210120 60877380
1037.52 46305420 37767320 34720530 24528920 27749090 32376790
1040.41 25536490 22266340 28735850 27293580 22876160 28009150
1043.31 45754650 42182100 27170290 29727400 39540720 39051030
1046.20 32366550 35478400 52417040 57191800 33444880 22620950
1049.09 33768690 32928110 15618770 17212070 31473470 25843580
1051.99 11960150 20367480 28852000 18694120 11173130 18871940
1054.88 23616530 25702760 24663640 19786410 23160730 29923430
1057.77 26557970 21245560 23433230 24552810 15655650 12133840
1060.66 19327370 20124220 12147470 11901020 17723800 16841580
1063.56 10609460 11291710 15652970 13620860 7816790 10770900
1066.45 15237620 12332020 12755710 26827050 26916230 15914850
1069.34 15963870 22349860 14817290 8143320 14946440 18263700
1072.23 9822138 8593672 14862230 13986540 7302278 9302488
1075.13 13705660 10123610 5897904 10218480 11801760 6969870
1078.02 6578796 11331750 9875448 6582874 10687080 15318280
1080.91 8357902 4593760 10667200 12354060 4936220 5320114
1083.81 10722860 8869968 3256030 6470974 9218258 5485240
1086.70 3272016 7400004 6980264 3329482 4314286 7663388
1089.59 5302948 3713562 6379740 6537376 2535652 2797680
1092.48 7908608 9636794 4009072 4308188 8190212 6721082
1095.38 2756648 5215442 6913390 4149600 2734946 5674678
1098.27 5218484 2774322 3263490 5311520 3579642 2497752
1101.16 3801180 4463150 2266596 2161326 3230642 3002782
1104.05 1516920 2383234 3613140 4084708 2515784 2706860
1106.95 3383962 3054350 1884514 2642578 2777480 2138116
1109.84 1638972 2505078 2140616 1752454 1806736 2350346
1112.73 1545938 1335716 1391812 1566260 958454 1166928
1115.63 1128936 1195082 775710 1079536 1281716 2539150
1118.52 2169504 1256206 1515764 2367400 1358952 1048412
1121.41 1626058 1841700 899850 1302272 1630854 1171170
1124.30 521174 1207028 1063652 639116 565294 1107124
1127.20 563724 442520 648432 867440 273674 496366
1130.09 591346 829082 749902 784396 540622 740950
1132.98 550542 567388 403386 633878 371064 375412
1135.87 269266 450438 167720 268772 232888 327838
1138.77 33434 217104 122736 149240-32422 212972
1141.66-11260 23848-29340 249456 345844 514250
1144.55 130376 303700 295584 283334-23904 269520
1147.45 159202 92164-47306 246124-35428-3702
1150.34 31240 170156-171462 41548 13488-16544
1153.23-227330 72112-100954-83196-120668 58260
1156.12-170548 64832-70918-83996-179920 52886
1159.02-187716-101866-103788 7370-240678-47270
1161.91-145304-92694-224028-44078-222718-108170
1164.80-184248-115074-307306-124590-247718-174926
1167.69-294326-122540-273170-105086-157990-109404
1170.59-276534-67046-202628-155214-213160-55544
1173.48-266614-134312-221634-168556-313618-129144
1176.37-263814-196080-283326-155506-312426-175400
1179.26-278054-180006-303286-163212-287942-178342
1182.16-260270-141590-304894-160280-249600-180040
1185.05-304946-159678-294326-198684-292366-184072
1187.94-322036-198192-302268-205186-328206-205634
1190.84-313020-186612-292894-207804-329506-199194
1193.73-308132-202198-307118-184314-313328-217122
1196.62-312878-201924-323370-218852-309340-187656
1199.51-310332-200948-315372-208266-308252-214556
1202.41-339734-218960-313902-200312-321536-214808
1205.30-297116-214240-344886-221944-315400-209912
1208.19-327644-215326-307348-215878-317632-214334
1211.08-323026-228064-349960-239714-314164-193786
1213.98-295546-198030-313080-222016-315778-216854
1216.87-332430-225866-314294-211844-328126-200282
1219.76-285350-214942-318694-195728-297794-220342
1222.66-335002-241544-328054-230016-335106-223562
1225.55-318168-222592-311602-210278-314034-226704
1228.44-321318-211198-312462-237112-328922-223248
1231.33-323310-225868-323494-219206-317436-227246
1234.23-326612-206306-286602-196450-300086-210518
1237.12-312650-215458-301064-218148-316660-224532
1240.01-322804-224576-316334-227262-311566-218116
1242.90-303860-197812-299742-222192-310356-207348
1245.80-304648-232638-317170-213188-305736-218374
1248.69-317284-225324-299534-214748-309188-232418
1251.58-325244-226224-294732-193962-294728-215920
1254.48-301350-228912-330554-244986-335718-241186
1257.37-311710-217318-323292-242518-324016-242778
1260.26-329272-237650-314026-220116-300478-213722
1263.15-309706-224000-313378-219934-306512-212398
1266.05-292124-215266-319760-247302-321144-217808
1268.94-296760-212466-299930-214488-308836-230636
1271.83-311428-225976-312182-221226-313532-247634
1274.72-313550-205862-298726-220530-289616-206174
1277.62-305630-229802-304434-209996-293110-225754
1280.51-306922-226982-315868-238024-330292-234606
1283.40-305676-237800-323968-211002-286318-235124
1286.30-325464-236838-317030-231124-312238-227752
1289.19-301282-224140-301828-222408-301828-204322
1292.08-289560-219790-302458-213940-306576-242356
1294.97-309714-208650-290266-216740-297746-239636
1297.87-333412-235758-300584-226020-305280-209290
1300.76-300108-228290-294660-222500-302540-209864
1303.65-287578-205150-273932-193196-260424-191010
1306.54-277308-200862-289328-230962-308026-211704
1309.44-304886-234668-295142-219714-302620-227610
1312.33-305310-227472-298898-214464-304380-238052
1315.22-307858-227670-319764-237948-298852-228566
1318.12-325462-242246-287428-193022-269016-202444
1321.01-277396-211284-293702-206692-287272-206790
1323.90-273240-190564-265158-209430-299000-222244
1326.79-295700-202224-278160-208874-290866-214122
1329.69-300104-224826-274846-195872-289368-212478
1332.58-267210-182634-266082-157654-207280-154336
1335.47-232856-170410-262060-187370-247850-193916
1338.36-301208-208762-259644-204036-281644-180176
1341.26-260496-195596-264798-191090-269512-224042
1344.15-305082-188242-254260-198962-274194-203678
1347.04-275502-182560-243346-172340-228802-126344
1349.94-209002-147044-217498-152052-254482-189808
1352.83-255730-187676-265640-172936-255176-202140
1355.72-290576-213818-289594-201650-261016-195356
1358.61-284208-206826-266794-168896-262498-203508
1361.51-277624-197120-256034-162424-224660-135404
1364.40-144954-5946-77654-25970-99262 17582
1367.29-67910-40194-156348-99006-170846-60078
1370.18-104094-23094-106012-41710-55312 37394
1373.08-92354 64740 101972 102620-8922 215894
1375.97 178878 150432 212862 426764 183014 251382
1378.86 498192 653892 449246 795082 954970 647284
1381.76 523138 1196014 1159688 817892 1185104 1759462
1384.65 1101814 1229996 2112900 2099460 1381254 2222732
1387.54 2795114 2077954 2265792 3798912 3335792 2607424
1390.43 3661682 4459820 3398812 4050756 5785732 5310906
1393.33 4432768 5676312 6440858 5652068 6325364 8472940
1396.22 8151694 7045802 7813212 9339298 8577192 9399376
1399.11 11822890 12270280 9953244 10712280 12788190 12486130
1402.00 13539040 16346080 16004760 13934130 14571530 16763060
1404.90 16641150 18999700 21102490 19503330 18549670 19286870
1407.79 20903050 21651940 24464230 26080280 23295400 23062530
1410.68 23468500 25514820 26232360 28491940 30428460 28180740
1413.58 26377570 27516820 30277690 30088830 31087180 34494250
1416.47 32579980 28590080 30523340 34181060 30797100 31645850
1419.36 35697420 34749240 29707830 32168460 35943320 30041890
1422.25 30103990 34626170 32677100 29932410 32401520 34199160
1425.15 26441870 26384070 31327940 27363090 23791220 29468730
1428.04 29452770 20777820 18463120 24032120 21306780 15370000
1430.93 19521120 22601180 14515420 10252590 13512230 14001050
1433.82 7988974 8799086 13076990 9102610 3550084 5488408
1436.72 6672380 4014610 2719112 5289800 5279092 5273918
1439.61 5888920 7033222 6334260 7236834 11190590 27347320
1442.50 50078110 65644320 61933590 59607460 55004360 42180430
1445.40 37718740 38841170 28890170 22827000 22938380 24803620
1448.29 18049710 13680890 16251480 14924290 13332380 13959250
1451.18 16602990 17015690 12760710 11463940 15237080 17872940
1454.07 16971450 15552370 15617490 21506250 19344310 14280590
1456.97 17368280 25756750 23497170 14419180 18209200 28942100
1459.86 22463230 16997600 25265600 30478490 21192900 16920990
1462.75 21860220 26063050 26546710 27726340 25386150 22537050
1465.64 24265810 20957480 17346500 24241860 35436130 26729080
1468.54 17156660 22350230 24637980 18073140 18558640 26298980
1471.43 27905620 21932310 18345080 17522840 19338240 21666030
1474.32 19743840 16901960 20722640 21788800 14957910 13514690
1477.21 18912810 18841150 14994190 12970270 14728060 16525600
1480.11 14875310 12948940 11994590 14382930 13203900 8459426
1483.00 9349810 14659960 12336480 8008182 10035340 10612790
1485.89 7530126 7436436 9418690 7692830 6947650 8697264
1488.79 7292212 5057622 6244912 7303868 4882158 4387900
1491.68 5392308 4926768 4819634 5263866 4209726 3195530
1494.57 3746146 3667138 2127614 2918032 4062160 2974496
1497.46 1979308 2559994 2404308 1471652 1822860 2233252
1500.36 1793202 1380632 1648840 1480288 1130398 1210024
1503.25 1154660 905620 884386 825286 626692 693322
1506.14 700096 473246 409224 496340 381132 262554
1509.03 328344 331414 281914 211672 185476 158468
1511.93 22550 12632 26688 75142 28728-13072
1514.82-46498-52028-100848-118412-184658-137806
1517.71-92594-87230-153034-173596-220904-230536
1520.61-292770-250524-224394-232822-204966-152032
1523.50-202946-215696-252166-274574-277940-224420
1526.39-244594-258734-285266-253718-256966-247074
1529.28-270198-249212-265084-253906-274546-246174
1532.18-278308-302910-335860-310516-289318-262132
1535.07-283990-270926-291274-268564-288396-280930
1537.96-328994-346718-309592-254258-316900-286592
1540.85-289566-325884-363420-287132-294956-275752
1543.75-281156-279600-331888-287188-290710-262098
1546.64-281398-267992-302418-285070-286870-264714
1549.53-303144-283962-289836-274364-284170-263338
1552.43-297492-286838-319724-317824-299894-261848
1555.32-275574-228576-220228-291000-356758-351074
1558.21-375206-310552-363000-358128-313926-244204
1561.10-281196-271872-303486-280294-286144-248482
1564.00-285116-283166-288672-256304-277932-256668
1566.89-275988-253360-287950-279000-315384-306578
1569.78-304322-253170-276640-270508-289078-249326
1572.67-251428-225738-286312-274894-287244-304486
1575.57-374146-307784-285968-277242-299320-267516
1578.46-286112-272084-290502-263420-278970-260824
1581.35-287676-249484-262350-248168-273534-253460
1584.25-289988-269074-292470-259338-268540-253236
1587.14-278984-247770-279644-269756-280586-223854
1590.03-232106-234722-273896-258754-287560-273858
1592.92-291032-260554-289628-263438-278240-257156
1595.82-287774-252702-277610-265388-289898-262032
1598.71-276516-255178-282400-249398-273134-268108
1601.60-295130-266622-287414-261482-276350-246020
1604.49-266814-237932-263838-249492-270730-246024
1607.39-278206-261568-279184-255934-282960-260914
1610.28-280724-251702-261558-238514-269172-244578
1613.17-261576-251994-284448-269722-294814-285314
1616.07-365394-318204-275452-261262-288720-259320
1618.96-268084-240622-272204-251922-270978-252784
1621.85-281838-260340-288862-256326-252740-244386
1624.74-276494-256988-270302-257756-294438-294688
1627.64-312622-266524-279098-251508-266124-242546
1630.53-272784-258418-281934-265774-268464-244496
1633.42-278128-278880-331136-344092-354096-271422
1636.31-282910-288490-299556-252112-280448-261332
1639.21-283710-262778-280580-254670-277432-263004
1642.10-279958-256758-281194-253222-278396-265660
1644.99-313016-325606-318506-280934-314150-281520
1647.89-297916-255154-271664-254530-287910-276514
1650.78-306118-303522-391360-375138-391636-328954
1653.67-319216-299236-278970-243572-272262-264732
1656.56-279298-259322-285126-266068-286588-261920
1659.46-278318-261566-280168-266586-296656-292306
1662.35-329594-279476-275090-262400-292844-274694
1665.24-283776-248868-264540-249878-282692-271134
1668.13-306836-319992-333990-276910-285452-273652
1671.03-307580-273532-289016-275554-290626-255882
1673.92-273876-295202-348378-289140-289726-273878
1676.81-283518-246796-268024-242722-269012-272466
1679.71-305100-279936-282982-266510-286366-259650
1682.60-312558-300298-320356-349624-360412-266706
1685.49-269584-243574-271678-255102-280018-248718
1688.38-255702-243082-277934-243752-255794-233294
1691.28-257746-238948-257112-246316-266050-233278
1694.17-259796-270678-353408-310404-260246-243502
1697.06-268176-237826-254768-252584-314014-327486
1699.95-334536-276658-264446-236372-242216-217804
1702.85-234958-220236-244070-201850-213304-238380
1705.74-300002-245024-185076-151174-189606-195292
1708.63-211954-154440-201838-213570-214592-165560
1711.53-169938-199116-238598-226188-205104-167820
1714.42-205872-178572-153820-123864-197236-270214
1717.31-263868-194780-197956-126202-121762-130702
1720.20-187850-142918-82956-70008-125380-138070
1723.10-123448-98374-189764-161156-126666-45284
1725.99-102064-131328-112888-28874-39922-123184
1728.88-161532-112028-46310-64556-138464-84458
1731.77 39824 116276-95384-187458-183832-106684
1734.67-125598-135836-158232-62978-15576-10934
1737.56-25088-39422-52088-111486-179902-79776
1740.45 15846 90802 91798 213792 158214-25030
1743.34-136318-120604-94538-34296-40914 36532
1746.24 109612 57404-86546-133038-167424-57232
1749.13 55334 178464 291950 200768-75044-117832
1752.02-121912-81386-29044 124636 154598 34080
1754.92-84400-80230-38402 113904 268480 165168
1757.81-71406-102864-65940 31594 4304-126330
1760.70-183712-93512 6048 30374-140536-170820
1763.59-140830-150026-181402-136610-205146-180732
1766.49-129702-158562-257340-170104-150486-186524
1769.38-167604-63790-120938-125348-98154-148948
1772.27-179454-14064 1936 1958 72144 66290
1775.16-84080-40400 60080 248-79260 91898
1778.06 38584-93812 11998 48762-94048 16180
1780.95 62890 31300 68018 95062-13434-6264
1783.84-22530-82810-65916 40746-29512-43890
1786.74-26170-38956-90416-107272-131648-42002
1789.63-89462-171450-174624-205360-230332-210452
1792.52-266028-186552-164590-123036-97580-127622
1795.41-217866-245920-233268-205416-265506-252380
1798.31-217404-192042-239262-252904-293746-288918
1801.20-284398-227418-261402-303024-352772-319612
1804.09-311324-281950-271400-199236-197270-195738
1806.98-236340-256648-259642-221328-234778-201432
1809.88-244512-231416-252134-254716-235786-208286
1812.77-167406-140714-208488-240292-258772-176620
1815.66-191698-222966-245128-204274-121190-6170
1818.56-25628-21158 26924 14736-46328 18922
1821.45 55026 76284-14208 69642 145286 280548
1824.34 308378 234108 152278 179984 272396 427132
1827.23 476388 560642 483438 359058 439700 633166
1830.13 808060 774054 646928 949170 1097188 1046946
1833.02 788326 986758 1513990 1950946 1708028 1320372
1835.91 1423892 1596826 2156508 2203464 1450022 1686554
1838.80 2878428 3142722 2000132 2394250 3440394 3204542
1841.70 2438388 2726876 2795620 4088998 4164846 3713356
1844.59 3869088 4802870 4715834 3218742 4199678 4975010
1847.48 5625100 6373646 6347550 4799124 5233014 7548996
1850.38 6244620 3979524 6905750 10296180 7635598 5053010
1853.27 6960874 9482576 8972786 7603360 6300420 9188468
1856.16 11767230 8252870 7014638 11174140 13025530 7394712
1859.05 6686142 10105120 12756090 11018910 11888250 11476970
1861.95 11402730 9818002 9080344 8648326 13421090 15986050
1864.84 12144930 8679754 13010610 11872740 7875526 9920460
1867.73 15996950 13527080 9005764 10689150 13135110 10959150
1870.62 8694250 10436980 12794370 11560230 7814966 9440208
1873.52 11836050 11368380 7225850 6874486 10199330 9198612
1876.41 4967590 6365992 10033960 8026060 3571658 4919270
1879.30 7550202 6138232 3538518 4881350 6040582 3487916
1882.20 1581778 2806582 3318356 2192650 1605218 2890152
1885.09 3391758 3553364 4558780 7398668 12811270 24242050
1887.98 53672280 74465220 37239910 8759810 5575822 5232194
1890.87 4851446 4114078 3977058 3075866 1842952 2161582
1893.77 4377578 4721660 2941196 3558846 5498928 4015486
1896.66 2236794 6306438 9220064 5085026 3647600 8954334
1899.55 9980348 5249480 7335274 14043010 11395100 5763348
1902.44 10107550 15038370 9987660 8353290 15400540 16601590
1905.34 9643624 10683710 17495850 14393830 10203570 15071110
1908.23 18998410 13197430 11195820 18195270 17131050 12095020
1911.12 14754790 18978070 14415920 11899690 17459350 16227830
1914.02 11722300 14641860 17882950 13056970 11482450 16792500
1916.91 14050170 10426220 14149750 15829210 10689750 11306230
1919.80 15268820 10971360 9509184 13876380 12513280 7704948
1922.69 10895730 12513350 6762206 8048308 12805670 8751534
1925.59 5239272 9786580 9018066 4558502 7606808 10097330
1928.48 5338934 5354112 8540662 5623554 3473420 6591292
1931.37 6196426 3408360 4236416 4954102 3487258 3281076
1934.26 4138712 4138792 2777200 2552170 2973024 2688198
1937.16 2273226 2576542 2757838 1945804 1602748 2108616
1940.05 1800426 1301106 1239548 1424836 1578604 1392912
1942.94 1147938 1085048 930494 747726 753354 902058
1945.84 585482 485636 588108 599310 627098 612094
1948.73 424716 222118 131438 133356 150334 143490
1951.62 50294 74560 36358 17700-43642-61146
1954.51-167726-213370-242444-201302-251036-239924
1957.41-210430-112238-149824-159212-132174-140678
1960.30-254688-292630-233780-85326-111756-106838
1963.19-93258-106244-237010-237224-231718-147478
1966.08-120868-132742-93986 49128 24892-42890
1968.98-104874-119918-191690-259762-317372-334098
1971.87-266356-121852-82606-63022-93992-72024
1974.76-74318 29766 41264 50568 20440 65742
1977.66 62462-2688-131830-43356 11438-68244
1980.55-123776-22580 33382 133350 109768 71978
1983.44 37946 10828-58074 6376-56776-183098
1986.33-169606 70848 81424 50780 307212 437842
1989.23 141788 71372 114106 47926-129620-177342
1992.12-114286-97852-225582-136796 80062 320008
1995.01 390360 255506 76814 59228 180906 47960
1997.90-36260 46994 214984 240624 32558 64140
2000.80 189998 196834 268670 301290 278870 279412
2003.69 346174 398248 310804 244522 189814 415470
2006.58 531802 267692-8226 249382 688922 612486
2009.48 310402 310292 652636 602964 200576 151256
2012.37 346114 653240 572124 630462 876206 749312
2015.26 725122 589070 533868 495602 810530 1059978
2018.15 1081834 728462 678128 1087056 765676 471338
2021.05 564002 1349848 1317222 762720 665944 1164748
2023.94 1286414 597192 535638 1188054 1507112 911518
2026.83 546858 1024568 1264994 806628 523878 882380
2029.72 1189868 1091116 495840 609184 1021920 1144960
2032.62 738046 493800 711718 1027942 517298 283546
2035.51 683398 1200972 687044 275608 423716 714552
2038.40 260884-19704 204886 617938 326708 56390
2041.29 158908 419252 218206 151712 301418 653104
2044.19 692486 1010680 1578304 2597288 4370470 6436090
2047.08 5026824 1549878 120924 10844-36304-133134
2049.97-212294-71378 19114-38160 50368 505970
2052.87 542672 76558 126900 502332 250388 82336
2055.76 730524 1062374 378354 453762 1108556 861640
2058.65 516124 1353002 1633154 803214 880320 1726338
2061.54 1333438 1075576 1793040 1925252 1219150 1498706
2064.44 2203318 1828456 1563592 2026652 2115590 1578412
2067.33 1945214 2459056 1863654 1757642 2316068 1963142
2070.22 1760236 2546386 2144488 1527122 2179534 2082918
2073.11 1611650 2279818 1998446 1288778 1884242 1972458
2076.01 1608342 2114810 1768374 1211406 1721848 1727952
2078.90 1414846 1645204 1284578 1018690 1325764 1354770
2081.79 1276068 1291232 829778 849338 1054946 988460
2084.69 958748 795792 581492 767880 611634 464852
2087.58 539928 503720 470212 427162 374208 459100
2090.47 281512 167060 152304 183424 157886 150594
2093.36 82148 92774 32252-13088-94274-71276
2096.26-32142 22674 6866-7492-119872-85356
2099.15-102308-30534-82848-42346-44962-69698
2102.04-150904-73592 30572 57278 11574-40072
2104.93-110026-188294-234982-156512-34058-31504
2107.83-120922-141528-174724-176868-141050-56416
2110.72-8522-28626-139652-40476 38084 31518
2113.61-53164-111834-153896-126694-172110-120190
2116.51-154360-128124-179036-164790-142150-35852
2119.40 18140 64630 33866 83090 75914 140638
2122.29 189002 339176 319328 90264-100558-61690
2125.18-58396-69556-117512-300 28920-50102
2128.08-63546 88842 22946-100552-25232 250824
2130.97 337960 333778 405444 378646 55992-9978
2133.86 87502 171900 93756 76442 22146-123706
2136.75-64310 139694 132068 87984 149986 277668
2139.65 154816 220210 594696 985002 738916 422906
2142.54 383964 228624-14514 73352 179006 193652
2145.43 110226 154294 174096 209798 162428 120762
2148.33 196028 230394 172570 400596 629686 524984
2151.22 438102 449916 280654 180224 143754 209638
2154.11 365320 341162 152354 236862 261906 239386
2157.00 196556 330632 439510 487590 502932 727234
2159.90 522874 169280 45578 174126 188780 225554
2162.79 210312 194716 153870 71986 111138 287912
2165.68 254620 167292 161474 186454 77208 14518
2168.57 163424 264748 176170 77822 61998 129610
2171.47 77862 96626 111660 116776 100344 18632
2174.36 21148 177972 304928 316012 237404 201890
2177.25 188356 193120 164510 352776 536156 596750
2180.15 562286 553312 454250 487386 693458 626696
2183.04 335592 315390 398080 568652 561688 361332
2185.93 356508 404202 483430 779816 1010142 845126
2188.82 849330 799274 577444 537754 471718 640878
2191.72 658688 470094 449152 580590 671002 722472
2194.61 675424 574156 536318 582676 613116 589680
2197.50 471320 440878 417090 387802 394866 626180
2200.39 778234 753176 686570 706044 495600 349590
2203.29 334932 389564 392988 545078 722532 687780
2206.18 426514 361280 350396 457736 515722 462656
2209.07 328856 357608 321756 386466 497672 523812
2211.97 365496 349394 433778 457312 385246 475860
2214.86 410398 274566 249762 253834 154778 172370
2217.75 199472 226850 194804 207442 244784 318698
2220.64 261616 230910 193770 164052 131320 189694
2223.54 247820 260022 243136 275242 263232 246086
2226.43 170176 117392 154584 207076 80934 81058
2229.32 171586 227020 155168 168058 136156 113048
2232.21 124098 170374 106482 76480 27216 35474
2235.11 19406 83998 120852 131320 83616 93840
2238.00 62290 71460 43566 37652-10558 2990
2240.89 3062-940-5232 72474 119750 125328
2243.79 59172 113796 81288 46462 46406 61628
2246.68 59184 68346 8522 67938 79554 80126
2249.57 127666 204414 267428 533060 717258 556020
2252.46 365060 342312 201058 122268 65544 55238
2255.36 4330 9688-43332-57382-76004-54884
2258.25-87604-65148-80410-78492-96570-76454
2261.14-128158-132544-114444-63966-100176-119192
2264.03-151098-114396-127470-137252-165734-117458
2266.93-121360-134560-159352-140596-152554-120826
2269.82-140318-131878-124690-91006-96758-29706
2272.71-57568-87428-120476-101200-109638-125628
2275.61-172954-164604-171380-168970-170980-119242
2278.50-139488-145202-162684-119674-44198 24804
2281.39-74616-122704-173614-154334-157070-141116
2284.28-172560-151062-163734-149530-188754-170108
2287.18-169978-131114-121658 8722 159686 189810
2290.07 37424-32396-88236-81788-108408-137914
2292.96-182692-164300-168214-163734-177374-149404
2295.85-192570-173064-140678-28588 9258 7524
2298.75-59118-93310-138742-149540-172236-112874
2301.64-109702-112070-155870-116694-100962-85048
2304.53-132786-130252-134004-123156-131894-117464
2307.43-98052-42998-54906-56846-96144-101998
2310.32-152424-148816-145294-108318-128148-79700
2313.21-38572 8180-98320-97336-111612-101872
2316.10-134800-79804-111746-116920-118070-69192
2319.00-100588-80664-95824-71864-78150-78630
2321.89 10096 121172-3706-97346-127110-10868
2324.78-29720-106472-106972-6038-40808-113070
2327.67-93944 35422-6010-79252-18220 126848
2330.57 38952-110730-18048 90262-74670-82206
2333.46 88198 89262-128934-91204 60968 7970
2336.35-155076-40570 59512-12628-2386 156636
2339.24 33646-121288-50978 55438-88054-81040
2342.14 20416-22660-131270-15644 9446-99910
2345.03-116136-14086-79476-140544-133336-74674
2347.92-120204-118746-111850-67424-77220-70454
2350.82-54622-68466-126224-45584-48238-70986
2353.71-3212 2958-104910 8194 26946-33272
2356.60 27420 58584-12074 144110 90418 7024
2359.49 105976 60446 3214 153070 30176 40850
2362.39 116894 6718 24326 71792-31284 91922
2365.28 45070 40528 61654-29750 26842 31454
2368.17-32266 39984-3652 42338 8872-7922
2371.06-18264-27320-28644-85430-104114-65598
2373.96-93164-98138-129718-81576-98244-90346
2376.85-123568-103494-94008-58306-101574-115064
2379.74-108054-94438-126096-96142-77784-68234
2382.64-128012-106810-111620-109482-153296-127788
2385.53-133950-114564-154174-139808-126988-107374
2388.42-111910-81354-99096-69714-92770-93046
2391.31-81280-45384-82612-113828-152402-144884
2394.21-153454-144966-163362-118282-122096-128836
2397.10-158482-135182-117762-84296-124302-83490
2399.99-61416-70936-126020-86068-85286-114612
2402.88-174920-128272-132066-118362-135766-128000
2405.78-161886-157560-157996-107162-131750-140918
2408.67-113148 17226 91350 65538 626 8010
2411.56-62632-130924-144702-121830-171398-169358
2414.46-142074-107624-133592-121762-142400-135130
2417.35-138912-135110-152424-101626-47700 5094
2420.24-8060-69422-154356-154912-169330-123020
2423.13-138180-109674-125906-149690-160198-90544
2426.03-114252-141270-136190-91432-83174-66110
2428.92-31790-7084-118304-157304-184692-172718
2431.81-182514-176534-199872-176800-185962-173948
2434.70-181554-157778-169460-171242-191346-197342
2437.60-214904-183686-185864-169046-208066-206154
2440.49-201226-175404-212016-209982-221068-200440
2443.38-228896-222906-208476-146320-156200-154554
2446.28-170298-158964-140794-72698-80036-99822
2449.17-115094-113254-149956-147516-168736-130792
2452.06-118836-122552-149082-133282-135716-118192
2454.95-166974-163060-161448-162276-141568-92678
2457.85-66308 2992-56532-78134-144736-149812
2460.74-127756-125878-138482-91918-161580-168492
2463.63-140358-76624-93930-113980-124070-107242
2466.52-136800-94410-113546-130112-148832-128998
2469.42-106136-90320-156220-123182-128036-149844
2472.31-154304-141502-182674-146952-151424-126240
2475.20-149356-163124-185862-164410-176136-135064
2478.10-162788-157800-140032-152002-206514-172952
2480.99-179456-171728-182916-162614-211980-218238
2483.88-207914-186790-217562-178968-198614-209484
2486.77-215912-187650-213988-203824-197598-184156
2489.67-218492-203674-223234-202804-200522-192870
2492.56-231726-217208-233114-220382-221360-200142
2495.45-217366-202032-216300-213174-242130-240246
2498.34-252280-208368-228846-243784-255370-237230
2501.24-257208-222204-218014-211248-227046-215084
2504.13-254590-240808-258648-241248-246208-239294
2507.02-250110-230444-252490-233138-238660-216046
2509.92-222908-213518-219116-197880-220768-218378
2512.81-235036-212408-225916-211970-233170-234130
2515.70-260672-237838-264484-257756-265714-230956
2518.59-241898-222966-237574-219404-233148-213146
2521.49-228528-212644-234186-233390-248234-238140
2524.38-254386-238388-250792-229002-256012-251320
2527.27-251088-227002-233184-206400-232318-222118
2530.16-236984-215010-231378-215886-230164-221600
2533.06-248140-243628-249840-236000-261094-240092
2535.95-252698-236856-249542-246588-273596-258888
2538.84-275942-244934-248114-231352-226318-213220
2541.74-244592-219822-200498-202356-244724-227340
2544.63-241246-237622-258756-249860-270874-246876
2547.52-240706-238022-267380-248852-252004-228290
2550.41-246204-237180-262322-247036-273082-263214
2553.31-264004-245300-261020-241390-259790-241982
2556.20-262798-255216-270982-255702-268726-243732
2559.09-257342-230842-257468-256014-270566-250922
2561.98-236858-203418-218516-215666-231642-216630
2564.88-237896-212654-206274-170010-182338-145324
2567.77-93616-44982-121026-154470-184890-182064
2570.66-201478-186770-200516-185904-218012-203952
2573.56-243362-251066-267138-253202-252466-227240
2576.45-254240-229984-237828-232168-261320-258566
2579.34-268518-232560-237212-233432-262834-244716
2582.23-249840-242480-250108-223218-248544-235206
2585.13-236424-224050-248632-244860-264994-243982
2588.02-247910-234930-266642-246940-242228-203074
2590.91-226380-219402-237104-229864-254652-230586
2593.80-245058-252070-265264-241046-245218-223112
2596.70-252334-253978-259394-233264-255550-236478
2599.59-233072-227440-263488-245860-253772-240206
2602.48-251066-225142-236708-231976-259560-232146
2605.37-246132-226258-241324-218320-232942-213424
2608.27-218728-214128-264320-262406-265106-251118
2611.16-279492-238100-245340-237172-254536-236766
2614.05-246440-223710-238576-225344-231528-207122
2616.95-240998-242726-255730-239334-268670-232776
2619.84-230472-211272-225228-223004-242280-223792
2622.73-235578-214694-228608-211150-239344-212148
2625.62-212794-196026-232030-227720-246216-235216
2628.52-240650-212320-239354-238574-243770-220582
2631.41-245574-216854-216864-217076-251276-227016
2634.30-239670-224480-235902-227872-277468-261116
2637.19-247040-221754-248690-232738-250332-222564
2640.09-236958-233756-252026-229648-258268-245516
2642.98-247156-217644-224574-206080-238174-215490
2645.87-212632-209320-259268-246940-230664-207166
2648.77-236766-235026-264366-239636-245954-232640
2651.66-249824-229474-255912-241992-244964-217206
2654.55-247246-237568-246164-232460-244740-231022
2657.44-256038-240524-252142-236272-257826-224072
2660.34-242620-250772-274078-237086-233700-215984
2663.23-252944-227118-229106-239644-262186-238560
2666.12-264670-251130-261754-249268-277588-264070
2669.01-272508-255972-278084-240722-243944-242454
2671.91-292098-276858-273536-241658-263658-234126
2674.80-254406-247046-265740-237350-271978-258492
2677.69-251590-227874-270896-267838-281420-253716
2680.59-282006-269320-275590-252754-265928-248652
2683.48-280456-254200-256088-243772-269578-252040
2686.37-265328-249404-264942-249974-276824-269278
2689.26-294560-284958-299728-272052-273420-244338
2692.16-252878-245996-261126-229968-263452-251742
2695.05-255804-246040-284142-267714-293468-287306
2697.94-283800-230236-240344-260452-284368-266158
2700.83-290542-279168-299072-265702-279736-252110
2703.73-274176-259966-261034-250388-277540-265856
2706.62-287818-263380-287546-266304-291258-271732
2709.51-284280-263530-282942-262334-266458-248504
2712.41-268002-264962-297524-266314-278814-270710
2715.30-278290-265686-287278-272130-305512-271204
2718.19-276610-267714-285120-247348-272456-267958
2721.08-303446-267446-273886-263240-276582-245714
2723.98-246020-231164-276722-258162-271666-258108
2726.87-268288-248642-284096-272426-275216-247628
2729.76-270686-246278-264768-250240-275190-271796
2732.65-303144-266514-266286-252268-268606-248466
2735.55-292532-290074-305842-259954-275548-264308
2738.44-286856-259412-276712-266070-289948-261194
2741.33-276174-280392-311374-273960-266932-252996
2744.23-282528-259010-282636-270688-275650-247328
2747.12-282618-268680-297022-259114-266688-257712
2750.01-288634-274706-291020-283324-314890-269332
2752.90-271528-246650-286334-282142-290190-263448
2755.80-280844-269554-292976-265796-277214-262640
2758.69-284196-256452-291572-277448-299332-279216
2761.58-302960-272006-279250-271468-280184-246982
2764.47-272978-266374-284250-254080-275342-281708
2767.37-324502-296134-310292-289354-294248-271322
2770.26-300648-282746-306356-282664-283046-256190
2773.15-286054-275604-302144-306250-313452-270214
2776.05-279364-275968-305352-278860-320566-319392
2778.94-325710-262072-277370-272196-316270-296228
2781.83-333094-308678-288156-257202-309540-309592
2784.72-335606-330624-360164-299310-295876-291368
2787.62-337040-324358-355762-322592-317894-292412
2790.51-363864-352550-337806-305962-337172-298674
2793.40-312432-301118-331952-312450-330616-341170
2796.29-362306-317502-381140-371582-362892-314982
2799.19-386014-369106-314882-305108-374724-348520
2802.08-346124-368396-379852-315218-379122-388154
2804.97-404472-386300-434116-375470-343644-319982
2807.87-392914-386676-409624-409304-432426-396512
2810.76-428640-419512-452696-394008-358802-338410
2813.65-393680-382282-402928-411180-484460-416736
2816.54-387282-402772-493956-463626-452882-444808
2819.44-444564-374980-425248-443000-451274-405562
2822.33-488330-497098-467440-437142-483326-501914
2825.22-520108-495224-506972-432792-475472-456664
2828.11-501282-432238-431500-462230-468992-465108
2831.01-508214-486530-504262-498736-554642-447370
2833.90-453378-440586-489990-512496-575284-557084
2836.79-497896-438050-539962-555984-560630-558230
2839.69-608766-525102-460644-463294-560028-520322
2842.58-587700-521916-464694-403922-450174-531854
2845.47-561802-514388-539090-464926-514620-454222
2848.36-518004-537900-556354-485388-397170-362660
2851.26-446064-459230-575220-516830-410712-242336
2854.15-261586-343500-430500-452316-484824-389232
2857.04-387472-350806-424052-437498-510236-502388
2859.93-450388-381344-381704-342106-431354-483644
2862.83-528544-409780-367704-292124-302712-324766
2865.72-411930-450358-483150-357802-298004-231130
2868.61-295746-340334-446944-426222-366218-245506
2871.51-250630-256984-310614-305654-363482-298784
2874.40-260130-212286-250628-269494-333374-290016
2877.29-278922-220876-273710-264902-308378-271934
2880.18-306462-258762-270136-256290-314706-299164
2883.08-328986-362432-526694-650612-791584-775620
2885.97-790450-704850-641832-597750-603450-647676
2888.86-689460-530386-553978-545662-500006-481638
2891.75-645634-574916-445018-396056-530848-529272
2894.65-502802-464742-512836-466032-388338-302406
2897.54-346842-397022-457768-385066-394750-340714
2900.43-394390-398604-380354-333284-403130-386854
2903.32-402748-333658-290318-271778-322242-287676
2906.22-329422-365092-428198-384804-378396-316738
2909.11-293516-219850-196480-244008-359180-325282
2912.00-243538-165562-130716-86246-187510-200054
2914.90-220368-195160-144674-67460 66104 121968
2917.79 56900 19672-55362-3374 159352 287030
2920.68 330888 274700 314194 370816 354684 419924
2923.57 680214 861284 824178 777394 1036602 1145750
2926.47 997102 955730 1390128 1624364 1410576 1560630
2929.36 2218460 2320920 2041410 2029014 2730962 2911810
2932.25 2730992 3101072 3654074 3768504 3471628 3448858
2935.14 4447134 4976710 4762312 4648848 5675254 6173576
2938.04 5276322 5658378 8175450 8775806 6394870 6321540
2940.93 9399874 9061908 6563966 9786296 14400900 11578950
2943.82 6985044 10120190 14547620 11511880 9549020 17366360
2946.72 20520210 12782680 9896810 15544340 18731540 14913280
2949.61 16601170 24475560 23230960 15853120 15221360 19728230
2952.50 23143420 22680750 24039150 27020440 26936070 22070440
2955.39 17737470 22779050 32550670 31086550 24980360 29929420
2958.29 35296710 25054650 16552660 31511810 43914440 30543440
2961.18 24654150 36790240 36635350 20113490 20182140 44264950
2964.07 44655350 23954280 26668730 45099720 36685710 18821730
2966.96 29019410 45748570 36917670 21024280 29279570 42853400
2969.86 31738910 22097670 27857330 38056740 30838770 18120050
2972.75 24631780 36206230 29162100 17383570 20087240 30627200
2975.64 22444890 11672030 18303030 29020690 19921240 10011490
2978.54 15512390 21724550 15353770 13740420 19127410 22130150
2981.43 15571690 11677200 11367420 10079440 5226992 5402016
2984.32 8012724 9630130 10142360 17810890 31891650 68962780
2987.21 152205300 242079700 170197200 44467020 11504270 7560532
2990.11 7023052 4864562 5565618 5934116 6751588 5365688
2993.00 8105556 13193950 12916730 8297506 12226270 17008740
2995.89 13712100 11033900 21928740 27386970 17631770 15825430
2998.78 27806160 28372140 19198030 25626330 38996720 33227210
3001.68 23233170 32139870 42258300 33274700 30845980 40748900
3004.57 44111160 37637700 34337990 46074380 48896180 40083660
3007.46 37141740 46718920 47220330 38868950 46784780 60270440
3010.36 47404820 34101370 45947920 49711000 37333660 46147970
3013.25 60951140 45972300 31861500 40774790 46775260 38438710
3016.14 45190830 54603480 44520590 33999600 35995240 41007880
3019.03 43663570 44244320 42610610 42544700 35993080 26773740
3021.93 32103930 41842680 36920630 28888600 36609080 36572410
3024.82 25205620 26744500 36973920 31666430 28311020 37291340
3027.71 38786360 29341760 25682760 27742420 27006010 24668460
3030.60 23390190 23434680 23259690 21637630 18915620 20361100
3033.50 19956120 18538110 21035790 24978340 25608110 25674130
3036.39 22997270 19619940 16839480 18582210 21061340 19599030
3039.28 16383370 17734080 18570410 17222430 14375760 19432610
3042.18 21855450 17731640 20180300 36383970 42483580 25710580
3045.07 18586300 20314860 21032120 17964150 17404870 19781880
3047.96 18719040 16967140 18727200 23197040 23386090 20534390
3050.85 16944580 18409020 34986520 43674100 28181230 18255060
3053.75 18649340 22520660 19401320 17147700 20766590 25807900
3056.64 21129130 17483970 21643960 27642960 23827100 23523970
3059.53 35563380 73000410 81274540 39389500 25804200 26832860
3062.42 24919600 23795430 29586150 27071780 21928510 23170830
3065.32 29175320 27772240 28588800 28321900 31543660 42650750
3068.21 65647470 63954200 44372770 41049700 33223700 26105230
3071.10 28653380 32213950 29350940 28059140 32585170 41912950
3074.00 36827800 39322140 47408920 51566260 64263670 95170800
3076.89 89248930 54302380 38674270 39909960 40403390 36749650
3079.78 33594320 38425760 41057150 39590990 35228810 34921620
3082.67 41228320 39801880 40117470 56811220 54804480 40515810
3085.57 38959760 40888910 42512070 45732160 46185660 54637150
3088.46 56561180 39537820 34001540 38199600 36181180 35598650
3091.35 35837890 42043770 47557220 44587950 55181200 72033060
3094.24 70630900 40379260 26072360 26480380 33349650 29183660
3097.14 26293430 28226100 32634310 40436660 46753720 43382780
3100.03 38956060 37788160 32203160 26054650 26092410 26100750
3102.92 22639480 24871560 24721810 23215650 23277130 21426070
3105.82 17480500 17250420 19626480 20375240 22254530 29181980
3108.71 34646980 35259570 33910460 36394800 33021170 28023540
3111.60 26009350 30506770 29879880 30353730 34127100 51249160
3114.49 64409460 51267740 37219310 37739830 37329840 33421140
3117.39 39242770 38874480 50814620 69532880 59577360 55277950
3120.28 51511750 47755850 52591760 51456520 52358980 55223480
3123.17 55397960 67867680 89663460 75978980 54345880 50030460
3126.06 48002280 46077870 48217950 44902940 38959500 41452200
3128.96 50064790 51270220 48182440 48476180 68398460 97500980
3131.85 76671980 44130500 43896480 44614620 38640620 38967230
3134.74 40761860 33493460 34244530 43629860 37561270 37849750
3137.64 58339480 70939760 89973850 112599000 73432260 29710260
3140.53 31556010 32492920 26286510 30706790 37028340 31076950
3143.42 23379000 25794860 31750910 31230910 34634340 41869670
3146.31 52382370 55071900 39821190 25935670 31722060 32651860
3149.21 23613530 25228010 29642300 23534420 19418740 26154280
3152.10 32353630 29503390 31906620 46597690 63912340 55901870
3154.99 28437490 19927520 19509190 13837840 13797280 22565230
3157.88 24767820 18437240 17953550 22573940 21359220 17920610
3160.78 25384230 35794520 35634370 24459450 18367690 17531140
3163.67 13470370 13245670 16264560 16860430 12648880 12227160
3166.56 14452280 20922800 25473600 23118350 27442860 41403570
3169.46 38776440 17830050 13322830 18549600 15579290 10649580
3172.35 16128380 17989920 11499110 10202460 15130890 16253900
3175.24 14285310 16066440 23369150 24936870 15344690 12539130
3178.13 16604860 15748320 10761060 11547260 14844090 13087630
3181.03 10222530 11974280 14235290 12384120 12320510 18036760
3183.92 19084570 11146130 8475328 12127680 15619880 12864280
3186.81 10173520 12380590 13732460 10474040 9041670 12383180
3189.70 12959800 9848638 11179160 14521140 11467350 7270284
3192.60 8388832 10197500 7859174 6187338 9100576 12132880
3195.49 9031126 6498526 9975338 11355490 8535060 9363730
3198.38 12137570 8881086 4990540 6395060 8120658 5534976
3201.27 4511180 6622754 6526624 4326456 4992528 7430202
3204.17 9594324 7957878 6291526 7593710 7952028 5464718
3207.06 4887068 6876602 6506104 4263616 4805698 6162708
3209.95 5003276 3684262 4863512 5551430 4397550 4020892
3212.85 5508546 6046722 3932834 3375316 5016496 4723856
3215.74 2954300 3358102 4595252 3470146 2280798 3417914
3218.63 4046772 2578658 2142748 3290356 2825432 1577660
3221.52 2411918 4395174 3798884 1945070 2849384 3954262
3224.42 2632732 1714032 3017220 3220194 1868412 1729280
3227.31 2708674 2192532 1308892 1726788 2274876 1474194
3230.20 1111642 2081732 2557376 1373348 1249302 2103536
3233.09 1788340 823764 1285900 1748576 1117182 696666
3235.99 1299834 1286624 682432 679010 1162338 888986
3238.88 539946 994448 1707620 1065220 591540 1140354
3241.77 1294286 523878 538118 1086888 864924 298310
3244.67 658936 859360 391322 232242 685164 564198
3247.56 215972 373200 758120 422792 197666 477562
3250.45 584826 195190 227434 446402 308752 58668
3253.34 270904 339264 142338 46702 248300 182776
3256.24 36226 149496 393128 139046 6396 182554
3259.13 247190-9442 49522 188758 107870-52040
3262.02 87306 85452-49034-91372 30048-49994
3264.91-88528 10084 99356-98370-63512 26074
3267.81 6690-119176-43604-21480-93358-170088
3270.70-86180-116492-109698-99982-46424-131028
3273.59-118430-76026-34992-125728-93714-113016
3276.49-149132-173688-83738-141660-158468-159794
3279.38-117370-172348-164068-165882-150056-214320
3282.27-175536-163266-162636-196882-121562-157396
3285.16-170096-189050-131386-188818-186876-213184
3288.06-166916-200480-145546-155136-151620-194426
3290.95-179208-204410-183156-183884-136938-183194
3293.84-164846-159546-136938-174788-152696-206352
3296.73-207692-215968-163534-155518-136516-198524
3299.63-194020-205830-200686-248444-202808-217058
3302.52-185302-217192-203810-200660-179192-198686
3305.41-144412-169742-174832-231746-194984-214222
3308.31-210756-244766-211276-221204-179032-204306
3311.20-203678-249390-192820-193230-162520-203720
3314.09-184548-215722-203028-246830-230914-252274
3316.98-205086-232094-229270-278038-256394-251166
3319.88-200476-204342-178206-232874-202802-215160
3322.77-196522-213804-176774-189068-161276-227254
3325.66-229636-239384-189402-213452-190912-230734
3328.55-200096-225822-216080-254414-206454-234302
3331.45-233166-239078-205860-226114-216348-274366
3334.34-235780-200396-169554-242162-206544-200460
3337.23-194992-228602-190232-195574-172922-219368
3340.13-211272-216812-168138-211220-191334-194136
3343.02-197802-249654-218254-235930-232678-267074
3345.91-217656-223642-232978-269112-226996-211222
3348.80-158298-162090-159662-199466-144858-177076
3351.70-179632-210878-195788-236480-210152-229628
3354.59-237120-284096-256340-253610-221172-238386
3357.48-195384-209730-181932-213046-222218-226730
3360.37-179990-226614-224822-216096-171148-200918
3363.27-194086-239988-227098-231502-213136-234068
3366.16-201458-218360-211764-231848-163648-152624
3369.05-161378-214982-201692-226210-210194-197232
3371.95-183274-230788-193238-199026-191324-242230
3374.84-255612-290196-254480-249552-201674-202242
3377.73-197590-256370-231436-235742-177622-188178
3380.62-177760-203462-176344-225276-233530-239558
3383.52-191940-224130-212008-219304-172930-197888
3386.41-181644-215090-182022-212732-205982-210104
3389.30-171532-235186-237816-266412-225788-235122
3392.19-227454-270078-237064-221670-170236-224086
3395.09-239834-269088-239230-251230-201546-198296
3397.98-197678-231278-198184-190282-177246-239872
3400.87-258790-271332-231698-266670-266452-284926
3403.77-226110-260048-268352-306364-287896-293278
3406.66-258894-252472-229078-246902-197730-220936
3409.55-214544-255252-266856-303942-271748-275524
3412.44-258630-277322-232658-270040-243270-238540
3415.34-224910-262538-254146-273712-237980-233466
3418.23-204718-227750-217748-256248-255626-298484
3421.12-256360-232128-230190-308016-296312-314352
3424.01-281756-301098-253038-226028-216974-300726
3426.91-267282-240548-222342-264500-266156-271924
3429.80-247616-258700-224484-266484-213542-208044
3432.69-204636-240186-217520-272528-267438-282138
3435.59-253658-266738-242320-252222-233460-297692
3438.48-285214-288258-257744-259340-240670-301288
3441.37-315722-325180-260140-248990-224234-244788
3444.26-200432-198820-183960-213750-208330-253600
3447.16-271324-314382-271558-247070-242150-301870
3450.05-273666-291916-299524-313894-242358-221264
3452.94-239520-307208-269604-281442-268238-278576
3455.83-228068-236884-234998-267414-267136-300644
3458.73-276714-318836-286848-272892-216564-242166
3461.62-250562-281122-251662-254574-234386-261204
3464.51-232354-221152-222932-236922-182044-202678
3467.40-207308-241228-237724-276984-264138-274406
3470.30-221260-228190-213460-233914-205700-234378
3473.19-250416-275882-198472-220854-209648-221080
3476.08-219966-269824-262348-256814-210894-228940
3478.98-216632-233844-223230-189766-144218-204670
3481.87-219756-195628-141164-241698-250670-225568
3484.76-191120-240394-236838-231740-178936-214340
3487.65-232234-257306-223392-236628-217726-248392
3490.55-201508-250458-264102-266932-216298-249348
3493.44-255442-268030-240256-252370-253308-292394
3496.33-251712-242270-229228-253518-216686-248768
3499.22-255790-234482-218586-252810-238144-229650
3502.12-138014-136432-100854-60124-57518-153924
3505.01-200572-246296-239870-273060-260488-293364
3507.90-264946-270962-234736-262714-248096-228686
3510.80-186108-217698-229666-247246-198150-243856
3513.69-256914-246906-196076-244146-252186-228690
3516.58-184838-218638-212366-206586-205276-231810
3519.47-182924-232038-230488-209484-176460-190068
3522.37-157390-193822-210266-225050-141660-138692
3525.26-140056-174556-182824-240602-217242-204650
3528.15-181034-203128-175366-214788-214382-227326
3531.04-231292-266520-198488-188480-187200-185536
3533.94-150616-197152-151980-150328-169712-205170
3536.83-189946-211688-197774-239186-212082-213548
3539.72-205610-240910-216760-247514-233174-239158
3542.62-232828-261288-225024-226792-196586-210136
3545.51-196892-230692-225122-246414-264248-301302
3548.40-273378-251592-226910-273590-218846-219556
3551.29-257106-291958-245702-247870-235360-265862
3554.19-234978-258742-248748-257164-233730-221014
3557.08-213298-271998-254130-252694-231320-273802
3559.97-258420-284780-272712-271796-240460-276982
3562.86-251984-264482-267820-287838-259204-275718
3565.76-281806-298344-235194-245960-269594-287646
3568.65-243426-253550-234998-253650-251706-273530
3571.54-241772-267864-256826-277394-234512-237054
3574.44-244034-257174-217726-236482-243504-276174
3577.33-241256-266456-240448-269878-248546-236486
3580.22-220788-270020-252394-250396-210028-208874
3583.11-213650-230974-199472-209774-202620-245142
3586.01-259944-299410-283812-286040-272408-272760
3588.90-206462-217004-206496-268308-269154-255176
3591.79-235760-252110-267382-317602-260814-241688
3594.68-240326-291440-262056-277218-275484-277114
3597.58-227070-247036-214122-223720-243806-294438
3600.47-262192-263432-243100-258886-208168-241896
3603.36-251790-260948-231168-262772-249684-247792
3606.26-217442-240582-225226-281294-271112-303284
3609.15-254036-226496-203766-239050-251408-273584
3612.04-265040-274894-237712-250760-213166-223460
3614.93-206830-249358-252810-268542-246108-267846
3617.83-231544-247984-249098-277820-250156-253254
3620.72-230926-253456-207964-214858-202722-231806
3623.61-242844-258652-231662-243018-211282-229934
3626.50-225334-249346-233658-290948-284582-331670
3629.40-277960-232608-219270-243188-223426-234692
3632.29-211036-242104-244570-258936-216364-227676
3635.18-251394-265716-228574-256534-238246-253626
3638.08-222770-261760-263572-285442-255158-260988
3640.97-232920-251176-224708-221098-199050-235642
3643.86-224944-227870-215288-260770-247326-263660
3646.75-235332-230290-200544-258020-277780-289154
3649.65-246714-272352-264090-274950-235334-253890
3652.54-241144-274934-266748-323672-287372-269040
3655.43-269562-308980-220666-242642-271418-284640
3658.32-247650-289970-252328-240354-243516-248692
3661.22-196458-228038-227798-241242-214704-252486
3664.11-246140-266116-224660-216568-204450-238298
3667.00-190518-207562-242410-301452-278510-281092
3669.90-265872-293186-218718-209884-220994-269860
3672.79-241942-251510-248940-311434-259726-260108
3675.68-258796-270582-235570-263060-258610-261536
3678.57-266328-259384-192784-201972-248500-291110
3681.47-288976-289482-227542-244604-220618-264910
3684.36-228288-223054-212748-264086-274180-325322
3687.25-315966-336668-294350-292498-267366-269396
3690.14-287534-379134-314386-223486-219322-297752
3693.04-292322-314194-290002-267128-260932-303444
3695.93-285446-334600-286362-235084-215004-281816
3698.82-280112-347086-357038-331114-267058-275254
3701.72-240062-289668-337478-411472-368642-321290
3704.61-228488-194572-196484-287346-318036-341982
3707.50-341746-367158-273536-291630-332636-315696
3710.39-239986-289338-355710-432638-359006-292632
3713.29-170416-169860-226256-340020-330542-408858
3716.18-396426-224346-136470-242004-295674-327238
3719.07-327832-413824-405642-304320-223642-311732
3721.96-352902-354770-267220-278596-334630-329358
3724.86-204404-275082-315818-287646-253008-336862
3727.75-407144-445810-340934-304164-192808-166872
3730.64-189768-326076-423980-442484-247808-187874
3733.54-244422-370386-375986-444670-472962-475614
3736.43-318978-154004-139278-291148-342040-320944
3739.32-328876-361318-255808-186712-224262-320264
3742.21-306032-327810-386258-498610-405446-258910
3745.11-220206-289002-289794-332244-314784-327908
3748.00-249792-282242-314720-296684-266706-295250
3750.89-342222-423806-316016-195962-179090-241218
3753.78-266494-317756-363982-378856-238110-198334
3756.68-167320-214802-266538-316072-346170-341348
3759.57-237992-209448-174362-208772-248252-310132
3762.46-319060-247050-172568-217442-212358-250204
3765.35-269536-287076-257602-209642-164462-182984
3768.25-153180-165362-173750-229014-202570-186050
3771.14-187246-234708-193850-231164-263408-355254
3774.03-388468-467102-507610-587252-666566-760894
3776.93-632978-179576 306858 261064 62660-75806
3779.82-136390-225742-228112-240676-235060-278370
3782.71-247626-251194-230614-243642-209700-216660
3785.60-192254-235760-226948-229700-229034-273996
3788.50-213190-159196-111352-140156-160824-252750
3791.39-285806-274850-155276-126542-121314-194848
3794.28-257096-324118-258466-139610-31222-91842
3797.17-150840-253098-254698-332102-269158-133604
3800.07-67150-213376-314372-344656-288230-253920
3802.96-87722-15848-69386-191522-247458-310742
3805.85-328522-242974-14020 1114-112218-245792
3808.75-260936-327242-267110-65880 9710-149274
3811.64-250302-297754-352286-339280-85630-23100
3814.53-140580-281288-283002-320440-345308-166156
3817.42 45722-24230-126978-241304-324328-406218
3820.32-222510-102458-127624-253498-223646-302024
3823.21-357206-239806-47524-98560-173596-224274
3826.10-260550-313482-104752 24750-89422-230864
3828.99-206698-327712-388882-231668-34898-124006
3831.89-233928-289376-327938-323068-107162-99028
3834.78-173816-257540-257660-343216-327006-237484
3837.67-123342-180794-253064-314936-341254-273828
3840.57-104944-106352-221186-353522-293646-296756
3843.46-194218-67062-55136-176054-245516-301200
3846.35-231650-83954 25072-96346-207584-313116
3849.24-330838-267732-64930-41792-153176-264234
3852.14-268340-282782-193216-184624-184876-189004
3855.03-194816-281970-201986 11916 47258-81836
3857.92-123674-199680-246698-196980-39146-51152
3860.81-110622-176362-150020-191528-118700-53006
3863.71-65656-143334-153398-189082-151004-131956
3866.60-94084-123530-106984-148932-139536-154862
3869.49-165496-124666-55578-118128-105388-121216
3872.39-108918-128086-118598-158682-119508-120784
3875.28-125062-163692-137680-167294-99892-95578
3878.17-26774-64230-90892-126080-125224-153248
3881.06-144668-155370-124664-174002-130502-130280
3883.96-135984-157082-132244-180524-176532-200164
3886.85-165646-119946-45094-90538-83330-132758
3889.74-124898-155996-166954-147528-120516-146328
3892.63-93950-133380-136070-145308-137338-190220
3895.53-152042-173168-175970-164938-101998-96196
3898.42-127220-209484-142692-134384-143554-176524
3901.31-178606-214656-180926-181282-178074-220892
3904.21-166412-186632-176104-160164-116578-135280
3907.10-111710-174526-182788-194358-137314-155496
3909.99-114642-99336-105168-180608-150254-151140
3912.88-154336-210004-171310-185918-161552-173186
3915.78-147386-157598-124356-134660-74864-49628
3918.67-40658-78540-8170 60544 67674-38244
3921.56-52922-112434-101614-102802-87216-128076
3924.45-108776-148776-137262-152858-118738-146492
3927.35-158976-188606-149694-160584-98768-154464
3930.24-166260-182942-154984-135484-142292-216606
3933.13-167298-170736-161678-192650-171544-176020
3936.03-138420-169980-173398-175404-139988-170082
3938.92-171006-191774-147688-142458-122952-185350
3941.81-192974-183652-154686-197990-198420-205840
3944.70-144738-153888-139354-158364-137448-183276
3947.60-154124-189610-209900-247442-223014-221366
3950.49-173326-205568-188734-191932-117760-89572
3953.38-63970-133676-138888-187750-174316-200564
3956.27-193108-201804-163536-171892-107850-102764
3959.17-87474-114354-103836-145558-160146-206142
3962.06-150902-135940-145168-207196-157156-125056
3964.95-74498-95762-47958-89534-114112-143036
3967.85-105074-152490-168668-201202-140806-125652
3970.74-75442-87082-71570-90242-81156-161474
3973.63-154180-165626-150710
##END=
