##TITLE=Ethylene
##JCAMP-DX=4.24
##DATA TYPE=INFRARED SPECTRUM
##CLASS=IUPAC A
##ORIGIN=NIST, Anayltical Chemistry Division, 301-975-3108
##OWNER=COPYRIGHT (C) 1998 by the U.S. Secretary of Commerce
##DATE=98/10/1
##$SPECTRA VERSION=1.00
##$UNCERTAINTY IN Y=2.1 % relative (B=1.1E-04,C=8.5E-10,D=2.7E-14)
##CAS NAME=Ethene
##CAS REGISTRY NO=74-85-1
##MOLFORM=C H2: C H2
##MP=-169.15 C
##BP=-103.71 C
##$NIST SOURCE=QUANT-IR
##SPECTROMETER/DATA SYSTEM=IFS66V (Bruker)
##INSTRUMENT PARAMETERS=KBr Beam splitter; MCT Detector; Multipass cell
##STATE=gas
##SAMPLE DESCRIPTION=Ethylene Primary Gas Standard
##PRESSURE=101.3 kPa
##TEMPERATURE=23 C
##SAMPLING PROCEDURE=1 L/min Flow
##RESOLUTION=1.9290
##DATA PROCESSING=Triangular Apodization
##XUNITS=cm-1
##YUNITS=(micromol/mol)-1m-1 (base 10)
##XFACTOR=1.0
##YFACTOR=4.5474E-13
##DELTAX=0.9645
##FIRSTX=574.687
##LASTX=3974.595
##FIRSTY=-2.62E-07
##MAXX=3973.63
##MINX=574.69
##MAXY=.0007401
##MINY=-6.23E-07
##NPOINTS=3527
##XYDATA=(X++(Y..Y))
574.69-577520-490128-449084-520882-1102094-1119602
579.51-887052-724622-722638-707346-664610-722750
585.29-662686-666910-761240-884516-893378-734228
591.08-753724-805546-768518-651120-433700-548804
596.86-741506-780852-658378-666338-675872-552388
602.65-483766-565334-618472-591886-622770-592366
608.44-563726-521342-516270-475000-398636-445560
614.22-521998-425952-311782-410764-395470-389404
620.01-509636-452776-430552-454004-403524-512648
625.79-493042-420314-499556-480496-457888-409346
631.58-477520-527650-440830-460568-307670-333762
637.36-457570-416758-393092-419392-407714-356186
643.15-329268-306084-250022-203356-281138-344794
648.93-357268-312336-351286-318638-296546-364670
654.72-318010-246454-248208-187230-186740-278848
660.50-286472-287200-297970-288660-219960-140648
666.29 110386 53620-28166-72982 9204-12980
672.08 56282 166328 82096 53614-24404-79324
677.86-76818 12658-7172 3260-67142 100166
683.65 150676 259300 192656 115778 105118 157722
689.43 183580 225766 262106 288304 411378 543970
695.22 650192 657468 789508 472908 154506 207322
701.00 224294 290730 399998 496604 659430 652708
706.79 863932 824114 932822 766536 713880 701638
712.57 934262 900016 875476 933680 1406736 1870308
718.36 1775300 1559468 1457468 1570666 904230 655078
724.14 932742 1018252 1330216 1516410 1774670 1636858
729.93 1472350 1513928 1607688 1763174 1613204 1528720
735.71 1980100 2425382 2949852 2900804 2061646 1800392
741.50 1718262 2006080 1996292 2391676 1991940 1846114
747.29 2415134 2431326 1879840 1309756 1460852 1565528
753.07 1939794 2254234 2660272 3341482 3841352 4077484
758.86 3058264 1598492 1420728 1468924 1556030 1831296
764.64 2220678 2617052 3437578 3739534 2199992 971402
770.43 905842 980552 1208532 1627736 2397686 3264430
776.21 4456368 4638056 2654026 1067224 879476 825988
782.00 859456 1079692 1578482 2573760 3182604 2525234
787.78 1312448 1027468 837610 752420 922890 1107270
793.57 1309736 2665588 3683522 2047076 948906 930268
799.35 933840 1044574 1061410 966316 1137408 1493562
805.14 1520804 1308508 1250620 1250312 1320630 1296750
810.93 1399646 1397920 1523756 1643654 1705118 1825470
816.71 2028516 2144186 2269312 2433594 2733878 2768972
822.50 3163534 3484828 3714760 3889174 4413274 4920630
828.28 4850252 5553068 6037722 6318346 7086200 8454882
834.07 9501162 9941448 10878040 11490780 12003880 12773150
839.85 13879530 13565590 15289450 18964630 20229180 19300850
845.64 20409580 21498240 23038620 27243970 29503280 28427920
851.42 28749070 32232070 33466140 33023340 38398470 41135410
857.21 38468630 38420190 41996480 45495970 46207970 50353280
862.99 51894630 53830720 57976470 61629440 63606690 65645400
868.78 64369610 65181600 65113410 68658830 70519130 85977860
874.57 89622340 79770180 83192530 95586020 96705360 102002200
880.35 108301200 104623900 93784260 86472020 100445700 125995200
886.14 123036200 111721400 122734300 137779500 122782000 106667100
891.92 110924900 122010800 145350000 182394000 194261600 146837500
897.71 127717500 116842300 115475200 159282300 192741200 149015200
903.49 122407600 129157900 138316800 151862600 274901800 286547900
909.28 156598500 131440500 121997900 124307900 144730200 264588000
915.06 249889700 129177300 111263000 98730240 132317500 156739500
920.85 294295100 354183700 206713600 131447900 115403100 130435000
926.63 126097000 143119400 200729900 184841600 156973100 143261600
932.42 136922200 136522600 129993800 138876100 154542500 174015100
938.21 213447900 241074300 235477100 223116200 237673800 256561300
943.99 316645800 384106200 501408900 664216600 1322875000 1627521000
949.78 937434900 537531200 385709300 268582800 258484800 253120900
955.56 237134400 217947200 199586600 186190100 168291900 153192900
961.35 163720400 167423500 165940800 183849300 180029000 162437300
967.13 178528500 223463700 266411000 202835400 132937100 135091500
972.92 141130900 137678500 150011400 159161700 239743000 300784200
978.70 199377300 133903600 128730500 128461800 131765700 132774800
984.49 202504800 313914600 409263000 332141400 158495600 130537300
990.27 137366700 132836800 143957900 146535500 140765700 202178100
996.06 283656400 203167900 143306800 153981800 155810200 144199900
1001.85 133864600 161913400 170473900 221137800 265918700 204963600
1007.63 152196300 134058400 126187700 134790400 125923200 123294100
1013.42 140271400 151593100 139765500 125756300 102506700 122395800
1019.20 153497000 129546200 118951300 124229500 113662800 102385200
1024.99 105205900 122199000 149188800 122713100 90116420 89313690
1030.77 92068490 88551630 83008420 77311150 76010140 86841000
1036.56 98360500 79621520 61304560 58009590 55227540 53638940
1042.34 65966090 72220140 68299060 70822110 81376500 85388140
1048.13 65058960 52736750 47835080 45204410 43479150 39780160
1053.91 39403810 47030940 46867760 49759300 48416120 40543580
1059.70 34876790 33041750 30627970 29413920 27114280 25646940
1065.48 24351630 29460620 40308540 39809850 32892230 28557390
1071.27 26740900 24708150 23221610 21551660 20264860 18940620
1077.06 18439480 17959800 19945340 20660110 18132140 17221450
1082.84 15782130 14856710 13488080 12716290 11767730 11220300
1088.63 11051500 11508990 9914714 10631900 13089050 12027390
1094.41 11430220 10394650 9700492 9008394 8421478 7847914
1100.20 7498066 6828654 6025916 5377708 5788374 6634628
1105.98 6161684 5695648 5198722 4756146 4409488 4231244
1111.77 3912308 3350996 2882940 2680894 2404572 2734962
1117.55 3797848 3689346 3416662 3149602 2964044 2826534
1123.34 2439810 2086926 1871024 1651664 1494390 1375026
1129.12 1292818 1560446 1581938 1390802 1258936 1107646
1134.91 939798 784000 695756 594948 483930 396020
1140.70 339068 262386 553868 767514 656008 547104
1146.48 434736 353840 262286 216926 172982 115016
1152.27 41092 3664-6282 13264 32582-33536
1158.05-64774-75788-82526-119948-145456-173856
1163.84-187580-245590-287284-306222-295594-223430
1169.62-215936-233646-228186-235136-269122-321702
1175.41-333602-348574-363626-367624-368018-369396
1181.19-349984-345390-348986-361540-380624-391958
1186.98-407466-418224-429608-433740-412432-427844
1192.76-435534-422354-423334-437904-443804-444460
1198.55-427406-435078-441254-458990-460968-448768
1204.34-445522-461486-469938-460248-457726-456864
1210.12-462682-487950-485226-439990-438370-461662
1215.91-470784-473684-463002-446450-445188-448022
1221.69-467054-497436-490582-484460-468922-465800
1227.48-472196-472462-483070-487634-480620-478554
1233.26-478290-455144-435198-455930-460082-466436
1239.05-479320-481162-476918-463898-450236-461074
1244.83-463186-474698-469582-470678-472048-465690
1250.62-484822-473386-444796-458404-485986-512696
1256.40-500548-486942-501642-508468-497428-474374
1262.19-466900-476812-473552-459650-470718-497356
1267.98-474820-458874-466880-481416-479816-483778
1273.76-489390-469174-454746-459470-470228-463204
1279.55-467780-485172-498412-496938-489686-472572
1285.33-480586-499368-487660-478884-470840-466438
1291.12-453338-457374-469012-480986-461832-458322
1296.90-490914-491586-469556-462428-463178-461970
1302.69-448458-430064-410774-409688-432656-460010
1308.47-465188-466916-463014-469608-466262-463344
1314.26-474546-482626-477354-480268-471142-423630
1320.04-415932-432376-432782-421666-404374-425686
1325.83-444182-427280-424050-440750-431874-415858
1331.61-409028-381378-334154-316104-349958-367360
1337.40-391712-406038-391350-381490-375236-384746
1343.19-410666-390448-374724-383916-354648-316064
1348.97-276622-273182-303882-338860-345458-339066
1354.76-363528-386268-362682-355148-352644-323184
1360.54-335054-319166-265774-167774-25548 19908
1366.33 42688-1986-77620-21022 37896 81986
1372.11 149966 266540 374246 476952 641408 778256
1377.90 949524 1324070 1666848 1803824 2119140 2551162
1383.68 2910282 3415214 4030132 4564872 5318328 6318328
1389.47 7051446 7871928 9273226 10546570 11344300 12917880
1395.25 15048790 16101680 17308300 20335880 22408050 22952270
1401.04 26104760 29816460 30281320 32263290 37285420 38931740
1406.83 39356270 44301830 47930290 47198500 49999510 55332600
1412.61 55835500 55734240 60349950 63024600 61591150 62288770
1418.40 64964060 65120160 64011240 63368060 63054610 63032890
1424.18 60278340 56152650 54408320 52984010 46912290 41222810
1429.97 39163120 35496660 28421990 23652440 21717290 17770520
1435.75 13110750 11440310 11608180 13998360 16767980 22956310
1441.54 59443750 105540900 107183500 86393060 67831710 52603530
1447.32 43243140 35055710 30246400 31336430 30553210 29193690
1453.11 32330930 34413460 35973140 37060020 40804300 40904700
1458.89 43081120 45834750 47311170 43210880 47687160 51679290
1464.68 47266230 42833290 49421690 50741620 42955080 41937350
1470.47 46319790 44270770 37949000 39116800 38689780 36496780
1476.25 33209370 33103020 29884280 29434520 27589120 25228560
1482.04 22499630 22748070 21153200 18236460 16936330 16026080
1487.82 15101450 13090460 12129250 10460700 10149150 9482990
1493.61 7899384 6676072 6415322 6084572 4871046 4217302
1499.39 3950238 3515600 2994162 2587666 2172430 1803020
1505.18 1545914 1285040 1040034 873118 764932 632118
1510.96 411184 253430 225688 136370 15186-100856
1516.75-127626-112156-228338-342816-371460-322164
1522.53-282148-339484-412978-398728-417618-430616
1528.32-421436-432092-438150-451942-512880-527180
1534.11-481178-485452-487870-525726-559434-521058
1539.89-521970-566748-551802-504574-524952-529970
1545.68-496088-505848-515066-510902-519036-509546
1551.46-507132-541308-554270-508366-454952-534296
1557.25-633252-632752-609082-524778-516808-525018
1563.03-502962-515648-503470-493784-500278-536032
1568.82-554182-514612-507970-485418-475732-519386
1574.60-582406-583826-533830-526180-520620-513304
1580.39-506508-493728-484702-502782-517710-506300
1586.17-492964-498848-502938-463936-462066-506252
1591.96-521360-519826-512712-509472-507172-514478
1597.74-513482-504790-502538-516850-524534-510666
1603.53-491526-481480-487460-496404-506856-509370
1609.32-510948-495658-484078-486550-503700-528444
1615.10-582338-584684-526518-509840-494198-497958
1620.89-504938-516940-501152-492278-504346-520874
1626.67-554554-537416-502206-496720-511204-515694
1632.46-506126-561944-623188-576770-543952-530212
1638.24-519080-522314-514880-517872-518318-515292
1644.03-546752-591818-577528-558426-527446-524264
1649.81-554124-628630-700150-652574-569462-519496
1655.60-517816-525548-528168-525824-522150-536748
1661.38-571344-555800-530564-535458-511514-509624
1667.17-548872-593660-568820-547290-551828-540452
1672.96-530166-570874-579440-535884-511116-500730
1678.74-534920-547638-532814-545386-589456-630290
1684.53-566250-501686-510782-496876-492140-489052
1690.31-475538-478596-487428-484690-549622-566624
1696.10-500112-484996-523686-591714-547228-472136
1701.88-443846-438738-419872-463644-443010-351496
1707.67-364142-363134-380904-354802-379732-404148
1713.45-365932-327886-320674-422652-397526-275488
1719.24-274458-243796-193460-221650-253446-255578
1725.02-182458-185604-129926-184006-182264-153908
1730.81-83154-7556-222350-247130-217670-137372
1736.60-35214-70230-167428-108380 130480 248340
1742.38 24868-158950-72424 67922 44774-161062
1748.17-57946 292434 234120-110692-86350 140298
1753.95 81250-62650 201568 193238-73124-28144
1759.74-148884-141844-77338-240932-273572-300160
1765.52-299282-316580-332124-282124-211726-195536
1771.31-218550-100440 55530 38370-6116 23744
1777.09 37372 17278 70 35780 109148 105380
1782.88 1386-56812-23932-30646-90994-157870
1788.66-161974-246308-354376-392424-352846-238818
1794.45-280156-394240-421880-425588-400730-464290
1800.24-505570-472944-535920-573574-502818-402012
1806.02-376796-431604-410804-390538-409838-417800
1811.81-340134-297294-364606-335706-334146-262728
1817.59-46666 57336 74536 125918 182690 272130
1823.38 540532 561106 560666 880852 1077740 1030876
1829.16 1355956 1614652 1929766 2085242 2436912 3333110
1834.95 3133478 3590378 3898246 4359066 5196286 5507256
1840.73 5963472 5894300 7281860 8027668 8655118 8387750
1846.52 9934606 11565300 11553910 11947170 12636400 15017410
1852.30 14321820 15928910 16081410 17373500 18309710 19555460
1858.09 18538490 19278490 22771860 22402120 20008320 21476440
1863.88 25201120 23075200 21014030 22877630 24074580 22246690
1869.66 21326060 21425390 20812480 19959120 19310320 17007700
1875.45 15741740 14924610 13982030 11647920 11549210 10027120
1881.23 8337908 6208970 6731030 6747472 11494440 17956130
1887.02 58862040 88504180 39586930 11737770 11762680 6980990
1892.80 7556216 8350720 8950648 8944162 11724960 13053050
1898.59 14296040 16766240 19590910 20245470 21472170 24037220
1904.37 25689200 25996060 27158070 28701170 29206260 29565540
1910.16 30187030 30139800 29693380 29120450 29024360 28329550
1915.94 27246240 26472640 25969230 24766410 23681860 22841490
1921.73 21334560 19450330 18720710 17728190 15725270 14935260
1927.51 14497030 13266640 11709630 10759300 9628856 8286550
1933.30 7787986 7172040 5971488 5393072 5136518 4396934
1939.09 3799584 3184638 2936836 2836306 2241282 1846492
1944.87 1614920 1318242 1289934 1165238 684702 434608
1950.66 361278 231422 124194-65038-249460-331138
1956.44-315244-239068-197164-282810-362656-232574
1962.23-137762-232898-333990-266490-148988-11596
1968.01-43236-222902-405140-476448-251940-116846
1973.80-89632 30522 104756 113808 12670-48046
1979.58-51334-6022 189384 157096 58370-35360
1985.37-123636 12766 336954 483304 287046 35562
1991.15-142808-203598-47542 448824 460274 250632
1996.94 174968 221620 337990 278224 452552 568956
2002.73 631094 693294 581944 749514 591170 704984
2008.51 980736 922776 916552 684920 1042998 1366902
2014.30 1484232 1251086 1331982 1785632 1743398 1612654
2020.08 1483574 1959906 1946680 1913180 1761472 2001346
2025.87 2005292 1852608 1761822 1772636 1789026 1589110
2031.65 1756964 1494452 1385756 1268730 1484288 1161122
2037.44 860140 616524 721772 620304 631974 747910
2043.22 1351258 2341724 5504332 8573094 4427820 501804
2049.01 211944 22058 300694 667800 704964 601800
2054.79 952818 1344850 1447738 1721978 2218210 2353276
2060.58 2512026 2924990 3129534 3321946 3620052 3681722
2066.37 3798500 3995898 3945932 3996314 4130560 3900498
2072.15 3852218 3828398 3483254 3572086 3560140 3162346
2077.94 3140622 2886714 2482026 2560744 2266836 1910474
2083.72 1915766 1614354 1334168 1145508 1002384 902160
2089.51 746976 491082 368612 310550 181380 24492
2095.29-54296 27334-37088-124182-98892-72568
2101.08-130246-82910 38376-75148-283170-232226
2106.86-129276-236982-268172-121614-97018-65252
2112.65-13352-164942-248674-240534-256028-245772
2118.43-78436 89326 143382 283086 466438 218154
2124.22-78638-84924-39022 8966 35412 46146
2130.01 336484 659398 495614 192022 235702 149660
2135.79 3416 149624 323582 386878 731848 1282870
2141.58 1002114 425366 277718 335452 351598 372498
2147.36 376414 445620 769194 965464 757376 473102
2153.15 505122 573646 486592 516174 651724 933356
2158.93 1027334 569668 327942 448638 368858 304212
2164.72 407206 420628 280442 250710 355228 272318
2170.50 205658 240058 231428 175682 357340 549076
2176.29 459030 445108 721198 1066506 1019464 1080298
2182.07 1043154 815624 974828 902360 910398 1426612
2187.86 1671864 1427664 1142986 1164530 1091374 1143096
2193.64 1322376 1191690 1149570 1109420 930248 883980
2199.43 1170334 1403990 1207240 874996 798922 1093726
2205.22 1143008 840356 875728 878688 719726 825646
2211.00 886686 797162 837128 818060 643486 469376
2216.79 412616 429460 465778 531404 473786 361980
2222.57 406568 489066 515732 439002 338966 300332
2228.36 277216 352616 320270 267712 266546 172590
2234.14 100520 168490 220376 175002 134796 75518
2239.93 33346 37974 136008 204618 178972 139464
2245.71 131518 127670 145044 229760 429450 888822
2251.50 961802 582478 291680 115366 14558-77350
2257.28-112030-130420-144128-181642-209238-182116
2263.07-215746-242826-255148-252388-254750-273694
2268.86-253526-241150-190594-130872-166600-211026
2274.64-252654-308804-308250-268940-272478-198380
2280.43-97274-218812-293008-289546-295988-306238
2286.21-304762-243436 16934 169514-37968-173854
2292.00-252394-311824-305738-316032-287902-121342
2297.78-55960-181538-268014-243110-233386-227982
2303.57-207170-239144-241444-208810-137694-136812
2309.35-215404-257718-231988-148154-98908-176618
2315.14-204402-200430-198494-181026-154438-158062
2320.92-67438 27572-91114-122188-112020-118818
2326.71-104502-70516-14156 32926-446-35308
2332.50 6090-6118-54224-56870-63142 39474
2338.28 75624-36798-66910-65486-82876-86348
2344.07-112272-142212-188586-205592-193882-161754
2349.85-124162-140764-127002-70138-53612-28524
2355.64 20166 66644 137476 131010 118898 133936
2361.42 124566 94164 66378 90044 86536 41032
2367.21 23704 26058 31952-6200-54594-124090
2372.99-158808-183628-185716-189656-189758-168278
2378.78-193512-206674-182992-179926-209106-234182
2384.56-249108-251622-253472-219656-182286-170980
2390.35-165214-150534-214828-276256-279926-254608
2396.14-255492-250272-207584-172972-169676-190356
2401.92-230506-264322-241512-267188-280064-249236
2407.71-213342-32600 66208-54798-193192-270970
2413.49-282838-248222-246458-258598-259078-186670
2419.28-70752-154436-280264-261804-242930-260794
2425.06-240008-234668-207724-124670-133550-272726
2430.85-338490-346396-355392-342346-331582-342750
2436.63-380834-369392-365900-384238-382692-399750
2442.42-413184-403228-333424-307648-291680-206772
2448.20-198770-245234-285218-266426-254082-262772
2453.99-269750-300312-287976-191146-103714-176764
2459.77-260718-243076-252832-274050-215560-210008
2465.56-233594-220656-248978-243346-230560-258322
2471.35-276460-301528-299436-281120-315200-328070
2477.13-307258-299778-323300-352100-343068-362520
2482.92-398970-391634-384294-396218-399896-393184
2488.70-391658-410042-404904-405564-434128-431404
2494.49-416368-412816-436648-462682-450664-464544
2500.27-478782-450342-431074-450862-479164-479952
2506.06-473222-471582-462974-441522-425694-419056
2511.84-433806-436390-438258-466144-488774-497798
2517.63-476304-453826-447524-437992-441354-461162
2523.41-477064-476158-475962-483216-460134-438512
2529.20-445032-443568-440130-455386-475586-481546
2534.99-484048-479634-495496-511946-493878-458084
2540.77-447390-432722-428764-458772-476202-497964
2546.56-488902-484592-491346-474232-481352-503184
2552.34-511008-498524-491474-494202-505934-508790
2558.13-493866-481866-499372-481746-433780-427120
2563.91-438128-410746-363286-274270-207756-293440
2569.70-365222-376214-391910-427214-481462-489440
2575.48-472926-464234-474688-498210-478456-472824
2581.27-486738-476254-468342-463400-462840-484604
2587.05-484856-482436-478606-441402-442768-464288
2592.84-471370-488074-481784-469938-486718-483084
2598.63-467272-470094-486072-478254-462390-466982
2604.41-471738-457746-448640-433126-455414-499108
2610.20-506072-486876-475468-471764-459050-446802
2615.98-444952-469156-485412-464908-436558-443512
2621.77-449522-435788-436020-425902-418780-450100
2627.55-458932-448654-458314-455522-438388-442322
2633.34-458958-450568-475912-492168-466138-464670
2639.12-459404-461604-473538-474546-444822-432698
2644.91-428454-442656-463522-442632-466378-478490
2650.69-466082-472084-471038-459728-466322-466304
2656.48-469298-478050-475540-467938-486260-475934
2662.27-453892-458786-470260-490292-495660-506258
2668.05-516638-514314-491046-501674-528682-499616
2673.84-485270-489026-498714-495652-490508-516132
2679.62-524006-523656-510910-507768-505430-496036
2685.41-503826-501250-509666-534652-555060-535686
2691.19-499778-487356-487728-493180-505506-536024
2696.98-541866-495736-504408-537050-547486-536104
2702.76-517198-510270-509940-527748-533498-536962
2708.55-537780-530544-518838-507074-527130-536322
2714.33-529494-532554-545982-542020-527522-516964
2720.12-531940-534724-517590-493206-485308-510310
2725.91-507672-512174-522668-507582-498374-506414
2731.69-533768-529968-504154-519400-551954-536070
2737.48-523700-525146-527194-528448-546094-539130
2743.26-513184-523616-523318-515208-531464-522608
2749.05-519464-539918-557538-537682-517338-538144
2754.83-532260-531586-530668-521752-528486-544756
2760.62-553136-540550-525584-512720-519426-521500
2766.40-553318-581356-563110-550212-559154-549778
2772.19-528008-548624-574474-551636-544074-573358
2777.97-594328-554384-547382-593166-581012-554274
2783.76-598384-637176-604320-589624-636502-623598
2789.54-621862-650996-623250-600656-601488-622480
2795.33-646694-672626-686046-679394-667558-644426
2801.12-676108-687504-689000-727954-767542-722050
2806.90-687132-746124-786798-790480-811312-760496
2812.69-710150-747168-813924-810290-817850-878938
2818.47-843024-805322-825794-862674-901728-894370
2824.26-941076-950202-897002-895170-873660-870226
2830.04-915832-941586-966918-919016-887442-992900
2835.83-1009428-955388-1027554-1075604-1002106-946470
2841.61-1028166-972230-869954-957100-1001788-938924
2847.40-932818-983182-899850-774964-902416-883850
2853.18-621260-653940-824038-769602-729538-831902
2858.97-878512-752022-726346-845874-784088-604620
2864.76-646678-777466-679114-518200-644186-701498
2870.54-532426-485670-568616-526762-439684-489676
2876.33-513676-454252-486044-510012-490226-506386
2882.11-573294-754616-1147300-1370976-1270052-1134330
2887.90-1141752-1068640-949254-978686-951600-839168
2893.68-886530-863910-769816-616888-668134-679740
2899.47-631930-631572-614786-622596-547154-456744
2905.25-486562-562246-595888-472888-330410-349310
2911.04-393480-179942-99406-160536-130170 122308
2916.82 338224 281726 369120 722716 886220 978378
2922.61 1314504 1774014 2095378 2348468 2677306 3198410
2928.40 3883502 4541728 5017728 5813448 6764888 7446824
2934.18 8195036 9501698 10664450 11526340 13450040 15168020
2939.97 15660240 16962110 20605520 21893750 21721540 24792340
2945.75 30010330 29792150 29215360 34822850 40119030 37900190
2951.54 38540000 46351120 49789300 45831080 48888860 57474010
2957.32 58038300 53670040 58845450 65926100 61177560 57771850
2963.11 65651060 68035420 64893960 63252370 65862640 64112600
2968.89 62492220 60306940 58197230 54533000 54012630 49724220
2974.68 44689890 41019730 40700740 35767270 33811720 35667900
2980.46 36455220 29139420 22597390 19052110 30391090 48051250
2986.25 170015600 300104800 153754500 26880750 24590900 15714290
2992.04 20178470 22981940 26986010 28187380 35504740 41812610
2997.82 44764340 48895100 57266450 62106540 65218360 70517260
3003.61 75313320 78583150 83229940 85307310 84378220 90781800
3009.39 95672930 88430180 86370720 94748570 90135830 80431600
3015.18 87181030 90718440 79606680 78832060 85872820 77633680
3020.96 67680590 70360420 69796980 63865030 61449950 63703200
3026.75 67421220 61942220 53977380 50820860 47205110 43913510
3032.53 40890080 41422520 47012220 48368930 40863610 38751360
3038.32 38707570 36453630 35826660 37915660 42821300 59913380
3044.10 55813910 40948940 39505730 38245320 38267820 43860390
3049.89 41103120 49479620 63295420 48016690 40314420 42568900
3055.67 44013600 45502040 48669960 63333270 108251700 93069260
3061.46 53953650 55581670 52821950 52745090 57832860 61904410
3067.25 89217590 105951500 79931680 63090930 62003520 64785340
3073.03 75497420 84150530 109375200 147325700 118588800 81730540
3078.82 77545440 76562900 78178850 75453660 83036300 96007150
3084.60 89971660 82057140 90602060 98679450 87164280 74028580
3090.39 75871150 82490080 97971260 117904700 90369380 61140920
3096.17 61701430 61463650 77250180 82254260 71141180 58254500
3101.96 51784380 49955280 48514880 43536600 40001590 44670070
3107.74 57437900 67824630 67514320 61003320 60111380 67283220
3113.53 93925310 97050120 77799700 75537030 88755390 113535500
3119.31 110010100 101072300 104583200 109321000 134505800 136657100
3125.10 104188100 96452950 89354730 91297980 97271160 114448100
3130.89 143426700 112442800 85024470 82386540 75963920 80821060
3136.67 91434700 139875200 160059200 96887020 62674950 67241880
3142.46 61405290 58768360 65217240 84282260 89366280 68328870
3148.24 58298920 55288220 50374450 54403200 63025740 88490460
3154.03 89034280 49981140 36284010 41263030 42738490 41134700
3159.81 45756840 58275130 51587670 34385710 31992200 31014310
3165.60 30661310 39274500 51370470 62552160 47793120 31452410
3171.38 31453290 29179770 27963860 29547190 36555820 38760220
3177.17 31668140 28067070 26312210 25503150 25071930 26633930
3182.95 30895660 26372740 24192930 25789010 23902530 23024340
3188.74 22370500 23417140 23070900 19697450 17134890 17351240
3194.53 18803750 18297700 18886000 19860330 16878150 13700390
3200.31 12688130 12035750 11575150 14146670 15594370 14108940
3206.10 12751960 11807630 11105230 10278840 9841996 9532246
3211.88 9877664 9768304 8802248 8243864 7624110 7039230
3217.67 6592056 6237898 5496466 5398010 6436588 6264654
3223.45 5815832 5460020 5088250 4602600 4128138 3776366
3229.24 3498956 3754212 3662608 3296984 2956420 2661960
3235.02 2415274 2167554 1966166 1858412 2205886 2283954
3240.81 2010668 1790628 1606986 1461048 1246372 1109828
3246.59 1012988 1025162 989740 897090 805562 684292
3252.38 591366 527634 441150 387700 456578 429712
3258.17 343920 303548 257446 207148 124924 39554
3263.95 11996 61980 38406 15072-14224-64650
3269.74-135558-145090-112968-129192-110806-115060
3275.52-182956-203048-208012-231520-244348-268996
3281.31-290014-286272-264838-262642-275762-294078
3287.09-322004-295310-268408-300004-322992-295218
3292.88-281238-273240-275062-331468-335554-283472
3298.66-311388-360430-381304-368614-358184-351832
3304.45-314876-310654-357576-379490-397468-373968
3310.23-365212-386282-347052-342406-375002-415248
3316.02-422376-417538-460064-431848-372600-379478
3321.80-381972-362592-339850-382606-403456-378144
3327.59-387514-405760-417792-423616-416610-415104
3333.38-437072-394228-381146-385900-376502-361912
3339.16-373982-379304-359754-376814-409860-436544
3344.95-439882-430572-442356-378378-317448-323808
3350.73-329218-372226-403842-431512-475704-459800
3356.52-415676-381670-392274-398334-400788-388330
3362.30-371882-413038-424736-407202-405060-378860
3368.09-326392-365798-399656-381478-386768-384814
3373.87-436714-494082-446768-397972-431932-411656
3379.66-360924-364534-406054-419420-404740-387656
3385.44-366192-374962-389106-384598-420280-458776
3391.23-448180-461232-417404-415878-472638-440576
3397.02-398840-401558-383848-435940-485624-494768
3402.80-500242-497020-544194-533112-482564-444844
3408.59-427394-479770-531764-520314-499394-485870
3414.37-465230-480716-489742-448398-432336-480492
3420.16-511660-485702-531790-574226-530312-476220
3425.94-499126-486072-485232-505304-479752-460254
3431.73-425032-440272-492564-516418-496562-486402
3437.51-526176-536684-501732-553158-565552-488308
3443.30-439398-402718-407006-484818-536362-511116
3449.08-524278-564864-539468-485832-520882-537718
3454.87-502046-473612-502852-547634-563854-509684
3460.66-476074-502482-487966-468842-448444-420950
3466.44-406344-447660-500740-487408-444132-430022
3472.23-456166-465720-425410-431190-481008-470666
3478.01-433784-431080-377904-375648-380342-413050
3483.80-436960-434668-426672-419888-457714-450470
3489.58-442910-472262-482762-477884-491144-492834
3495.37-507420-479004-458446-467828-457148-452944
3501.15-394014-267284-190802-288586-438326-494974
3506.94-521642-500818-482328-438758-424480-443040
3512.72-457328-456152-450194-435694-406072-411814
3518.51-408826-419768-401716-352712-373932-370470
3524.30-302142-336424-408000-396166-375468-397626
3530.08-436868-441050-383572-352496-335832-329038
3535.87-367634-400250-420160-421546-435284-456204
3541.65-461176-466264-431760-411352-432640-485546
3547.44-527242-502676-469734-474060-504410-490406
3553.22-482100-492302-479614-455638-482492-493398
3559.01-503204-531170-518658-508552-520296-528878
3564.79-539186-528010-505480-517626-490496-491206
3570.58-503392-508052-500540-479776-471522-471476
3576.36-496032-498276-494130-473518-484780-468434
3582.15-427396-428398-419570-471092-538458-544508
3587.94-493600-441272-487460-497878-504782-540112
3593.72-505300-516920-534170-510918-464128-464866
3599.51-514438-509134-473150-472386-488390-490160
3605.29-475456-463650-512864-531910-465022-464078
3611.08-512472-507572-468470-440840-469616-502958
3616.86-490602-487612-502842-487928-458550-428818
3622.65-449062-479072-457370-451086-473586-533762
3628.43-564914-490266-456054-451466-464806-472112
3634.22-466526-486340-483274-477006-497036-520018
3640.00-496152-468032-439092-439756-450772-476468
3645.79-489974-453998-489984-528840-518564-512180
3651.57-492552-525128-563124-551216-523200-501636
3657.36-524848-517652-490248-457910-445568-454602
3663.15-476136-477648-443624-423994-447248-521932
3668.93-545444-503604-457722-478464-505476-529486
3674.72-521212-504192-502732-514092-475378-447950
3680.50-530844-527388-475936-477470-460276-506046
3686.29-593282-614504-563036-563544-614294-529470
3692.07-534840-586698-545716-567930-585202-513134
3697.86-528524-634794-620576-539500-586674-700770
3703.64-601084-459142-536074-652134-635138-606938
3709.43-583478-606166-711834-559020-433234-592758
3715.21-700138-527252-478770-629320-717098-625324
3721.00-599880-630328-595386-573924-552210-570862
3726.79-659138-741834-574234-422520-623356-687718
3732.57-524230-639472-829822-766188-486318-509422
3738.36-655330-594054-501900-552046-690720-775776
3744.14-617458-538280-625410-586418-576300-569660
3749.93-613038-661628-500582-465992-617808-611838
3755.71-446270-446502-592152-583834-441836-438634
3761.50-548974-490282-420134-483986-511466-427716
3767.28-349826-355116-398268-405008-422942-489068
3773.07-661924-863028-1079948-1170326-382122 205790
3778.85-133690-379120-455920-486698-479190-448666
3784.64-422730-430358-454132-452096-344682-304152
3790.43-447286-450472-306954-387054-502780-314794
3796.21-234462-432746-517524-352486-398424-578308
3802.00-402056-196570-333080-539128-372018-173162
3807.78-393772-504492-268332-281020-558154-467994
3813.57-258080-432900-571434-320738-156894-448726
3819.35-560888-359310-398618-548876-417170-262938
3825.14-429058-406844-204238-343632-566436-426696
3830.92-311746-527906-478944-317970-449274-575630
3836.71-460312-396450-561264-459830-346054-530364
3842.49-492898-258130-330480-460408-241292-229358
3848.28-513748-412676-242938-420626-473786-369982
3854.07-383590-389908-156928-132886-354964-296322
3859.85-181022-278180-290112-187572-241106-309712
3865.64-255012-228148-260886-287616-234362-201604
3871.42-225906-240012-256826-248928-273892-263838
3877.21-170346-148166-225318-271528-282288-280202
3882.99-270570-280342-319172-334790-232976-175052
3888.78-232968-284012-281940-248622-249574-281860
3894.56-309200-328006-283306-246238-303016-294078
3900.35-325268-366864-358968-363614-347652-299926
3906.13-261226-307348-332440-270594-237622-280078
3911.92-310546-337212-339248-306678-281410-211832
3917.70-133178-80590 20520-38624-173118-193258
3923.49-217980-258584-268830-281976-318090-280252
3929.28-288234-317752-300956-335490-337430-338806
3935.06-325148-319468-321696-321822-329694-291192
3940.85-327230-348542-358708-355446-301676-299614
3946.63-320794-367216-426410-400258-371540-321942
3952.42-215384-239750-327032-359800-356900-290604
3958.20-220606-213414-278408-318782-297524-310858
3963.99-248520-163248-188352-234994-282700-311822
3969.77-235450-170232-183608-255594-302986
##END=
