##TITLE=Ethylene
##JCAMP-DX=4.24
##DATA TYPE=INFRARED SPECTRUM
##CLASS=IUPAC A
##ORIGIN=NIST, Anayltical Chemistry Division, 301-975-3108
##OWNER=COPYRIGHT (C) 1998 by the U.S. Secretary of Commerce
##DATE=98/10/1
##$SPECTRA VERSION=1.00
##$UNCERTAINTY IN Y=2.1 % relative (B=1.1E-04,C=8.5E-10,D=2.7E-14)
##CAS NAME=Ethene
##CAS REGISTRY NO=74-85-1
##MOLFORM=C H2: C H2
##MP=-169.15 C
##BP=-103.71 C
##$NIST SOURCE=QUANT-IR
##SPECTROMETER/DATA SYSTEM=IFS66V (Bruker)
##INSTRUMENT PARAMETERS=KBr Beam splitter; MCT Detector; Multipass cell
##STATE=gas
##SAMPLE DESCRIPTION=Ethylene Primary Gas Standard
##PRESSURE=101.3 kPa
##TEMPERATURE=23 C
##SAMPLING PROCEDURE=1 L/min Flow
##RESOLUTION=1.9290
##DATA PROCESSING=NB Strong Apodization
##XUNITS=cm-1
##YUNITS=(micromol/mol)-1m-1 (base 10)
##XFACTOR=1.0
##YFACTOR=4.5474E-13
##DELTAX=0.9645
##FIRSTX=574.687
##LASTX=3974.595
##FIRSTY=-2.49E-07
##MAXX=3973.63
##MINX=574.69
##MAXY=.0007895
##MINY=-7.40E-07
##NPOINTS=3527
##XYDATA=(X++(Y..Y))
574.69-549202-531456-390468-596932-1116158-1242118
579.51-906966-795816-702230-774818-650286-791382
585.29-640426-739920-750762-985192-888872-829420
591.08-737832-903466-758920-724656-391566-622754
596.86-725200-884482-651082-760492-656034-632718
602.65-457144-642438-604930-684730-613728-682498
608.44-552228-607718-500900-552732-377632-532656
614.22-506196-509648-290676-482822-373810-482088
620.01-491700-548810-416088-535480-394686-602590
625.79-481554-517040-485112-577614-441520-504030
631.58-466434-629594-439574-548364-286638-425052
637.36-441390-519668-387510-516908-403920-452032
643.15-321882-392784-232654-285150-270222-441562
648.93-356856-414676-345474-417562-296546-468378
654.72-314940-352770-228698-286260-170544-388402
660.50-280570-412808-293858-421182-215620-245924
666.29 141680-40586-9964-186224 8988-115512
672.08 68474 76702 93672-39342-44264-183310
677.86-103970-83802-29290-100996-94664-1408
683.65 146414 173346 186444 5532 87554 32596
689.43 179478 95642 262470 150626 431586 419320
695.22 698612 560114 842184 324896 163278 946
701.00 228932 100560 424142 320558 701692 490260
706.79 919918 671262 988426 587192 733582 517052
712.57 951282 726364 860188 769900 1444016 1799096
718.36 1840872 1475702 1490240 1434416 860692 460518
724.14 836182 864586 1300322 1420750 1778642 1534148
729.93 1434172 1379270 1566710 1643202 1529238 1399430
735.71 1898520 2417900 2992262 2909094 2004560 1677518
741.50 1578206 1902716 1939044 2308674 1908104 1765150
747.29 2370440 2364668 1802812 1114232 1292318 1366598
753.07 1832262 2104552 2643324 3316326 3998654 4123966
758.86 3065852 1408234 1210404 1200738 1409740 1629450
764.64 2127396 2564664 3548226 3740466 2160978 711522
770.43 626216 676832 993832 1399042 2298566 3285306
776.21 4657486 4733586 2642606 815236 565246 517944
782.00 602364 815066 1441876 2533838 3207830 2459746
787.78 1164852 743608 575166 468178 674960 794822
793.57 1188264 2613748 3704106 1940414 746744 564434
799.35 709366 751006 839612 670978 935918 1234270
805.14 1342528 1031678 1019234 936432 1074922 977654
810.93 1135968 1065098 1250784 1299198 1416604 1474760
816.71 1723692 1784116 1941554 2065362 2370256 2395512
822.50 2784160 3110316 3300714 3509076 3984514 4513480
828.28 4398212 5121744 5513246 5855734 6573844 8061696
834.07 9072372 9605698 10427540 11086150 11506390 12363740
839.85 13201860 13028460 14731020 18726510 19810870 19075110
845.64 19597890 21011210 22421490 27232930 29032730 28347780
851.42 28029700 32048990 32560710 33169020 37733780 41414840
857.21 37535890 38311620 40702620 45649630 45235520 50667750
862.99 50725230 54396140 56909740 62589380 62870370 66536280
868.78 63141700 65465610 63282630 68296440 69695860 87205670
874.57 89123720 80371100 82153820 95640310 97239160 103341000
880.35 109370600 105026400 92280130 84065740 100492800 126246400
886.14 124810500 111523500 124793000 137434000 124522300 102804500
891.92 109444800 117688600 150436800 185718500 202294400 146949700
897.71 127937000 107916500 116948300 158286000 199009900 147653100
903.49 122267500 120128100 133836400 156433800 286743600 296812000
909.28 162712800 124411100 112258200 116682400 149323700 272262700
915.06 259333300 129382700 101614700 86196910 123348600 159165800
920.85 311024300 368425500 218158800 124407300 106557900 121529700
926.63 121563300 142185400 202917900 187015600 157862800 137807400
932.42 133591400 129062200 125059400 130369700 149256900 168533300
938.21 213684100 238256300 234043200 213330500 227025500 241264200
943.99 302953200 368366800 479739100 711966300 1417634000 1736307000
949.78 1014033000 546548000 349741100 255814600 234339400 248030400
955.56 226176200 215960500 190686200 183150200 158672000 149538800
961.35 155775100 164837100 162660400 182844900 176410800 159496900
967.13 176852800 230423900 272977200 206240600 129435800 127289900
972.92 134638500 133526800 142107900 161157500 248479300 311060900
978.70 205293800 130135200 118693100 121128000 121279900 125346000
984.49 202774700 332774300 432761300 347332500 160115900 119927500
990.27 127762100 128723700 139587000 139866900 140196800 208708000
996.06 291833200 209887400 143194700 148994000 153569900 141000700
1001.85 130812300 157873600 172885800 230243200 274744900 212996500
1007.63 151896200 129889700 123432600 132433800 123679500 122764100
1013.42 140473100 153869300 141578000 123415300 100965900 122097800
1019.20 155012400 131391100 120691200 122436700 114333600 99198000
1024.99 105389600 123828300 153824700 124021900 91163000 86034320
1030.77 92249380 87250810 83038220 74845250 76192500 87318200
1036.56 100504700 79879560 60811200 55008220 53023400 52113030
1042.34 65275340 72409390 68330570 72186320 83006260 87960950
1048.13 65517400 52731610 45512240 44991450 41202630 39405600
1053.91 37646530 47372470 46520890 51394160 47986070 41432000
1059.70 33474830 32906410 29201990 29214870 25588170 24845750
1065.48 22735340 29828920 40546380 41251700 33053250 28660690
1071.27 25980430 24627640 22469470 21381720 19419690 18693750
1077.06 17484980 17943710 19423560 20953510 17729240 17332410
1082.84 15097540 14889290 12719940 12651220 10940700 11108600
1088.63 10376060 11311360 9275846 10625970 12698460 12273690
1094.41 11130390 10379070 9305710 8914694 7989528 7759846
1100.20 7058210 6708510 5469626 5197534 5328212 6622450
1105.98 5846798 5701036 4786810 4699166 3995808 4176870
1111.77 3507268 3246678 2433130 2482274 1941532 2649210
1117.55 3492886 3736114 3160846 3127636 2680384 2796566
1123.34 2130168 2029478 1520838 1580220 1138650 1292262
1129.12 968030 1527954 1304422 1384178 972038 1074262
1134.91 644870 736936 399884 542288 190040 333992
1140.70 28268 212752 293252 768210 434696 540786
1146.48 185874 332222 9132 193882-75418 90272
1152.27-206864-26464-246246-5116-194024-49972
1158.05-288790-94508-299830-136088-359960-189188
1163.84-400540-264402-504410-330692-503550-235440
1169.62-410844-238442-419158-240252-459588-332242
1175.41-526184-361688-552174-380064-553332-378274
1181.19-528642-349926-522188-366690-553122-399310
1186.98-579032-427148-600156-440778-578746-434042
1192.76-597672-428410-582222-443772-602470-449706
1198.55-581806-438032-594368-464598-613024-452330
1204.34-594484-464942-618608-463838-602874-457944
1210.12-608694-492892-628500-441094-575664-462166
1215.91-611112-477408-599152-447234-575692-448582
1221.69-600060-502706-624858-488848-597310-468236
1227.48-598132-476530-609758-492820-606308-484512
1233.26-600390-457688-553306-457462-578310-472404
1239.05-597914-489068-593890-468882-563490-465112
1244.83-576876-480870-582812-477064-582718-473690
1250.62-595520-478966-551670-462392-595616-522886
1256.40-610400-496400-609684-519464-604506-482356
1262.19-570312-484850-575502-468278-573814-507960
1267.98-577250-468048-566480-491884-581796-496740
1273.76-590296-480100-552410-469282-567374-474436
1279.55-565164-499034-598086-513740-586002-487646
1285.33-576242-516932-584082-497054-563830-483324
1291.12-544092-475116-561800-500858-553226-479748
1296.90-583794-516050-562590-484988-554566-486394
1302.69-538728-451752-495746-430656-520394-487450
1308.47-557326-496246-554384-499224-556860-494340
1314.26-566640-516038-572450-516512-562884-456360
1320.04-504414-466044-524558-456580-495044-464092
1325.83-537374-469436-519138-484660-529156-462932
1331.61-505366-424706-423692-356772-440576-417592
1337.40-492148-462268-492970-437714-475024-447426
1343.19-514736-458246-481842-453936-461398-384168
1348.97-376318-341872-410798-420282-460780-428202
1354.76-486054-483352-492424-458862-484192-436672
1360.54-477012-445270-414412-287150-161474-91166
1366.33-98928-143560-248618-187884-149184-96030
1372.11-48512 73100 162646 268504 410400 539632
1377.90 707600 1085284 1416712 1547650 1842092 2257042
1383.68 2616398 3110522 3710342 4242678 5008616 5993066
1389.47 6726264 7555056 8972980 10221240 11050840 12647800
1395.25 14784470 15816350 17123290 20142350 22220620 22834750
1401.04 26085590 29735530 30323910 32379240 37425570 39091070
1406.83 39721570 44653540 48340580 47685890 50601670 55914880
1412.61 56573880 56527690 61227860 63979520 62622690 63228540
1418.40 65987640 66284380 65082080 64371220 64191270 64179810
1424.18 61236650 57031050 55231780 53642350 47349780 41418040
1429.97 39173400 35255140 27923570 22756500 20618890 16326950
1435.75 11373460 9096250 9272054 11042980 12940150 21022680
1441.54 61911360 111472500 114976500 91471860 69764500 52629130
1447.32 42617860 33450180 29353610 29697670 29995020 27947620
1453.11 32185220 33493780 36383730 36459240 41450600 40484280
1458.89 44141650 45781320 48189480 43214250 48858440 51948350
1464.68 48115280 43159650 50211070 51333090 43536730 42449700
1470.47 46610190 45106660 38089720 39696920 38606620 37357230
1476.25 32973000 33674660 29574390 30088620 27186830 25666570
1482.04 22069610 23095030 20778590 18469020 16473980 16126050
1487.82 14760110 13138240 11697960 10406400 9813220 9425102
1493.61 7535350 6550020 6032928 5993396 4511684 4101180
1499.39 3567224 3436356 2650490 2495718 1825416 1710950
1505.18 1211248 1197608 724282 798468 478232 571380
1510.96 133602 194772-38300 92308-235754-144848
1516.75-362726-142596-453746-377890-596296-340888
1522.53-481684-349334-607596-412410-605400-435426
1528.32-600226-431318-606034-453440-681252-528558
1534.11-642548-476572-640858-522202-710654-515148
1539.89-670172-558848-695466-494690-661300-515432
1545.68-630048-488990-644308-496044-645216-491142
1551.46-632092-526304-678362-483578-569390-512674
1557.25-760750-627428-731482-504924-627748-499332
1563.03-614798-491138-610814-467936-607118-515688
1568.82-662996-494600-609074-456180-573106-497136
1574.60-688852-568056-636670-503150-616836-490838
1580.39-600398-468262-576754-479214-611524-483590
1586.17-584900-475688-590938-436916-547744-481242
1591.96-612088-498922-600588-485862-593518-491254
1597.74-598974-480342-587064-493832-610566-487070
1603.53-573314-453792-567708-470604-589330-485794
1609.32-592444-469242-561012-457738-580158-508278
1615.10-667566-567714-607558-483572-567138-471982
1620.89-580368-492368-575656-465198-577536-498604
1626.67-633106-514550-576012-468166-582772-485886
1632.46-580008-541460-703732-559828-618458-503036
1638.24-589866-495266-584686-491440-585076-489670
1644.03-618558-572146-652974-534380-592824-493230
1649.81-623320-614094-784984-640152-641792-489278
1655.60-581894-497336-595790-498658-588936-514080
1661.38-641362-534930-599172-508950-574158-483748
1667.17-616868-574672-639860-526292-617102-515194
1672.96-598380-549604-650468-512928-573882-472954
1678.74-600688-522764-599910-522470-665526-614128
1684.53-639374-477058-573518-470128-558234-460828
1690.31-540668-450368-549850-462892-620810-548026
1696.10-567502-460016-594532-578460-621502-451568
1701.88-506074-409566-489536-440664-511152-324016
1707.67-425056-334132-446034-329188-449276-382252
1713.45-433306-299340-390502-406256-469570-258280
1719.24-332256-214388-251284-196342-318680-235894
1725.02-247486-154018-193780-155272-255060-120970
1730.81-138766 28606-293656-232032-305922-101890
1736.60-103336-39952-250536-78442 83066 303848
1742.38-33954-142144-149028 100678-28144-146724
1748.17-118554 338236 186328-85228-160912 161288
1753.95 16276-17960 142846 236682-124016-17130
1759.74-222478-114594-155068-216998-359814-291692
1765.52-384896-310186-420806-269498-294032-181334
1771.31-301074-72292-11266 79232-74756 54462
1777.09-36196 46540-78612 70514 42952 145128
1782.88-74368-28918-104798 1744-172682-128268
1788.66-252676-227132-462216-386384-452770-211744
1794.45-373788-373170-534644-407694-512378-448640
1800.24-621030-465510-663852-570506-630528-383760
1806.02-496956-413908-541688-380464-550270-408832
1811.81-482204-289992-514292-346364-506502-266440
1817.59-205884 67134-82906 117888 114 272964
1823.38 357882 550908 371858 870238 867474 1029122
1829.16 1118708 1623650 1683138 2089078 2230536 3346192
1834.95 2945074 3582120 3657654 4382814 5005446 5555508
1840.73 5717592 5921820 7057724 8168820 8377010 8544042
1846.52 9665240 11874260 11285410 12251620 12348210 15393340
1852.30 14137660 16321510 15847130 17831720 18286070 19918040
1858.09 18459710 19708680 22980670 22739190 20187970 21782840
1863.88 25569740 23403370 21366900 23015380 24552340 22491450
1869.66 21725500 21447610 21275040 20028360 19661040 16829540
1875.45 15941050 14569150 14035720 11187710 11420870 9313784
1881.23 7765128 4973614 5309878 5031576 8692438 19406460
1887.02 64013190 94140940 43628190 11440300 8648140 5929640
1892.80 6150964 7491836 8144372 8346352 11227620 12626150
1898.59 14144750 16619540 19691270 20275950 21723070 24201910
1904.37 26101960 26295380 27626040 29050980 29795190 30011080
1910.16 30794540 30587420 30256900 29507010 29547350 28665830
1915.94 27705060 26755540 26365600 25027880 24056960 23043160
1921.73 21565490 19565790 18862490 17742310 15807670 14926450
1927.51 14559570 13281690 11733430 10661500 9534928 8152564
1933.30 7684986 7002062 5866190 5213588 5013614 4247888
1939.09 3654884 2996506 2816666 2675138 2134412 1681882
1944.87 1469470 1176798 1190000 1036146 580044 285980
1950.66 240062 107562 20504-195852-367938-469662
1956.44-421268-341480-279126-381642-444888-315714
1962.23-201850-308412-409730-348664-196656-53834
1968.01-76008-289736-489466-567326-322328-176254
1973.80-123840-9586 83860 79502-22052-105904
1979.58-103476-46164 162202 133182 23062-98380
1985.37-191004-27748 323252 497130 272694-2616
1991.15-235168-281930-100502 436746 452532 233302
1996.94 121204 180180 284098 248846 411652 554116
2002.73 613602 672710 565424 705414 560258 675754
2008.51 965072 910758 873054 635896 1013080 1371682
2014.30 1477814 1246534 1311548 1807992 1738848 1622322
2020.08 1455358 1981666 1953218 1935684 1762362 2012906
2025.87 2030180 1846458 1785910 1736276 1824052 1553026
2031.65 1800996 1428740 1420190 1197692 1527358 1079038
2037.44 846326 479714 654252 469272 499306 563484
2043.22 1147420 2446534 6055210 9130100 4812326 433508
2049.01-172956-216644 158524 540400 626798 492774
2054.79 891662 1259220 1429580 1680536 2222244 2337146
2060.58 2547092 2916826 3187618 3355140 3688332 3724626
2066.37 3887844 4034978 4040306 4055486 4213130 3959056
2072.15 3933932 3844952 3561444 3600100 3621464 3208486
2077.94 3188412 2882968 2535764 2540188 2297794 1901164
2083.72 1925724 1586266 1337148 1088174 999840 856020
2089.51 736236 433866 344226 249912 152640-44956
2095.29-85928-33720-61584-177594-123302-126516
2101.08-145236-117400 37642-117394-299700-287064
2106.86-148232-286784-281052-173060-90550-91206
2112.65-8716-207102-261566-307184-280016-307174
2118.43-84044 50122 168794 286248 505724 199624
2124.22-85628-153968-57002-42458 12984 6356
2130.01 365512 668382 531140 177300 215516 95028
2135.79-26848 94246 290992 371212 787972 1340884
2141.58 1063626 417868 238402 283896 334622 331534
2147.36 353950 425368 801860 987518 785060 452520
2153.15 491924 538872 479974 480846 672610 964690
2158.93 1068910 566418 318850 398758 358808 276060
2164.72 404626 393784 275848 219110 344282 240478
2170.50 192760 195334 200624 134206 342744 521718
2176.29 440664 413176 723290 1072290 1066620 1092780
2182.07 1047076 810020 950540 862728 920216 1448858
2187.86 1736466 1462840 1161140 1134724 1093142 1141256
2193.64 1339464 1201182 1169938 1084700 917428 856374
2199.43 1195690 1428322 1238720 846380 796210 1083492
2205.22 1162768 842508 875862 849332 729008 806254
2211.00 897294 799652 858242 815086 649402 437082
2216.79 392072 396134 466778 516728 471962 339338
2222.57 400548 481020 527848 431448 334134 274656
2228.36 273114 337054 323040 258328 260538 146662
2234.14 89908 144604 221510 161874 130218 45734
2239.93 15270 8298 131704 192038 180462 120578
2245.71 117024 98090 121386 202088 461868 942862
2251.50 1040388 622456 299242 85676-2880-112554
2257.28-128032-159880-155224-209464-217580-207960
2263.07-222590-268756-264736-278440-263882-299862
2268.86-263292-263742-186564-143536-157870-228976
2274.64-259480-339030-317314-301936-271954-210688
2280.43-88094-233324-296690-322800-305468-341558
2286.21-324932-259256 41266 186094-10010-188958
2292.00-268412-340996-326220-349542-291592-128752
2297.78-42114-191662-272370-271848-235834-247758
2303.57-208378-262906-244874-227980-128792-151712
2309.35-215084-288272-235142-163448-91528-191528
2315.14-207600-226138-203286-201864-163008-171628
2320.92-59810 21544-84506-138404-122252-136322
2326.71-112022-83982-8692 27070 4140-43668
2332.50 6970-17192-55356-78954-60698 33968
2338.28 85342-43400-68042-84004-80742-102724
2344.07-111654-164412-196112-235162-201790-185050
2349.85-126904-164108-127764-94088-50252-48696
2355.64 26546 56546 153364 123894 135440 123494
2361.42 138334 79432 77190 75680 98212 25618
2367.21 32628 10944 45566-19824-47628-148018
2372.99-161470-211046-188478-214140-188016-189592
2378.78-192844-226098-181606-196538-208202-255632
2384.56-254190-276198-258036-238390-180190-182316
2390.35-156118-162872-213868-299944-286752-279448
2396.14-258174-271382-203938-186724-159180-207180
2401.92-229282-287082-245490-293726-286740-282432
2407.71-205606-32980 97330-53566-188682-303702
2413.49-287966-276922-244778-288218-256590-199520
2419.28-52206-168768-273450-293836-241114-284790
2425.06-236764-258760-191406-133176-114896-291488
2430.85-340072-379870-355424-367986-327048-368244
2436.63-377994-396834-364010-409914-382434-430822
2442.42-417966-433068-333590-331128-280464-221182
2448.20-183860-263134-280234-290664-247464-284566
2453.99-267342-331448-283550-206174-83782-190786
2459.77-250630-272352-249612-296602-208354-229138
2465.56-221194-243636-239518-263784-221426-278130
2471.35-270862-326336-292266-305594-308406-352656
2477.13-299414-321302-314932-375326-336898-389162
2482.92-393956-419834-379230-422272-393838-418508
2488.70-385274-434550-398116-432234-428478-458360
2494.49-408750-436998-430586-489392-447642-493766
2500.27-474324-476392-423098-475844-475162-509326
2506.06-470604-499548-458058-466284-416124-441908
2511.84-424224-460100-430838-493508-486714-528930
2517.63-472234-480358-437934-461596-432524-487740
2523.41-471740-505362-472360-511362-453454-463744
2529.20-435222-467376-431518-480874-469800-510226
2534.99-478356-508194-492376-543340-489786-485854
2540.77-435908-455450-417194-484236-470600-528260
2546.56-483954-514496-483302-502028-474372-532928
2552.34-506896-528632-485052-523792-501736-540284
2558.13-488760-514494-495148-513058-426666-457056
2563.91-431202-444250-348218-287526-180480-308900
2569.70-350126-405758-380554-459806-476956-526270
2575.48-466744-496048-467750-530976-471732-505714
2581.27-478018-508962-458864-492948-454262-516142
2587.05-479084-516276-469030-470480-430988-492946
2592.84-464938-520324-474568-502490-479148-514636
2598.63-459412-501510-478866-510248-454756-498162
2604.41-463594-489100-436322-461406-445970-534238
2610.20-501868-523282-467326-505044-448278-477780
2615.98-433828-504522-478148-500058-426116-475996
2621.77-438392-470182-423608-456852-407202-483512
2627.55-449622-485168-448762-489572-427504-475830
2633.34-446582-487262-467544-529976-458262-500174
2639.12-447952-498858-464920-511782-434408-464602
2644.91-415588-477052-452140-479156-457238-514656
2650.69-459122-508172-461548-495968-455718-502350
2656.48-460218-515140-465610-506836-476100-513672
2662.27-441268-494052-457856-529388-485882-548304
2668.05-508346-554700-480750-543060-518604-541322
2673.84-472800-528032-486352-535436-478934-558050
2679.62-515164-567370-500630-549392-493056-537148
2685.41-490720-541724-499000-580316-548856-581236
2691.19-488140-526424-472760-533208-495272-582144
2696.98-531462-539240-491352-582176-539672-583064
2702.76-505012-553298-496782-573130-523102-584938
2708.55-527726-577222-505528-552342-514816-583408
2714.33-518930-580948-536078-591438-515550-565432
2720.12-520406-585528-504662-539848-469902-557648
2725.91-494934-563468-509624-557444-483354-556958
2731.69-521910-581048-491082-571286-540164-590756
2737.48-510972-576984-513234-583774-533892-594130
2743.26-499744-576962-507826-571516-515552-578430
2749.05-504280-599056-544048-597038-501920-595698
2754.83-517200-591428-513662-580632-512484-606358
2760.62-540034-602308-508744-571074-499658-582132
2766.40-539532-646852-550358-615296-542898-612192
2772.19-510650-612978-558068-616962-527318-641084
2777.97-578248-621262-530394-659570-562858-622870
2783.76-582288-708764-589170-661984-617810-698246
2789.54-607818-725116-606278-671794-579066-694894
2795.33-629984-751530-673108-758474-648862-720362
2801.12-656306-764210-673192-812608-753326-803588
2806.90-667588-827178-773034-884812-796892-845296
2812.69-685766-831582-793206-904146-804598-974356
2818.47-826282-897128-802358-959400-884042-999516
2824.26-928600-1055480-882668-993780-849682-971042
2830.04-894968-1053550-949384-1023594-868804-1102116
2835.83-993000-1074378-1016488-1197374-989292-1069542
2841.61-1009260-1089470-850804-1076598-985290-1069834
2847.40-921260-1113682-877058-909256-883108-1007228
2853.18-590496-771832-791292-906760-709296-976400
2858.97-860996-897754-708820-995878-761408-749046
2864.76-620860-930202-653136-672724-616504-860258
2870.54-506712-641892-533100-687320-406396-650046
2876.33-476486-623024-447008-675846-446530-664350
2882.11-521812-951662-1161162-1627602-1298898-1376462
2887.90-1137846-1295578-942164-1206610-936866-1079998
2893.68-875016-1113610-749374-863838-639606-941392
2899.47-614300-908302-599984-916848-523654-756088
2905.25-465320-896542-596220-817926-320428-713008
2911.04-385426-563174-94414-575398-141022-308536
2916.82 333400-182066 353196 222502 864624 447196
2922.61 1287514 1225634 2083034 1754666 2634524 2566708
2928.40 3870206 3887382 5016416 5134704 6778578 6718902
2934.18 8232892 8739380 10710610 10777640 13621930 14377700
2939.97 15798020 16221870 20894000 21091520 21994080 24154920
2945.75 30495960 29085430 29695630 34322960 40807580 37364700
2951.54 39284020 46065030 50714800 45502540 49899690 57448510
2957.32 59267370 53620830 60251480 65961910 62556020 57671760
2963.11 66969630 68373280 66612440 63326760 67275360 64350200
2968.89 63934520 60270580 59169480 54460180 54684890 49322170
2974.68 44632660 40259020 39881260 34738170 32587080 34983520
2980.46 34731950 27526120 17342910 14547590 19259270 51057390
2986.25 185945900 320496400 167546800 27836540 12173720 11342810
2992.04 15098910 20561390 24043790 26726140 33728830 41090580
2997.82 43707530 48767150 56748540 62597770 65269760 71287060
3003.61 75597560 79960060 83879060 86491680 85206380 92687830
3009.39 96563780 90021380 87304820 96102860 90586160 81779430
3015.18 87586500 91789800 80225700 80111370 86178580 78700020
3020.96 67632070 70550720 69528620 64192370 60882240 64530480
3026.75 67746950 62958220 53625830 50688790 46078330 43419960
3032.53 39259180 41379500 46452550 48907470 40175040 38554480
3038.32 37113060 36015250 33935040 37150970 43086740 61315260
3044.10 56667890 41339470 38040840 36880720 37750700 42120130
3049.89 41320040 49770340 64388760 47760900 40095160 39782030
3055.67 43563480 42379810 47821420 65560750 112480500 96149860
3061.46 55494320 52561160 50903740 51131280 55178360 62673860
3067.25 91436060 109385600 81336420 62410720 58340230 63738460
3073.03 72535300 85572740 113576800 153572200 122509100 83339820
3078.82 74533450 75905330 76299330 75311710 83112740 97248740
3084.60 90339220 83091330 91201020 100336700 87401300 73599880
3090.39 73809360 82923780 101488800 121141000 92576430 60065880
3096.17 58718490 60381810 78447130 83396260 72718780 57185960
3101.96 50874450 48100780 47380580 40978810 37917330 42337880
3107.74 57361060 67845940 68097580 59570520 58390920 67313490
3113.53 95405740 98544460 77673070 74004220 89032540 115294200
3119.31 111979400 102241700 103872200 112129300 138135800 140253300
3125.10 106382900 95064480 87770550 89373700 97444460 118252700
3130.89 147310300 115486200 85113820 79077460 73665380 77529420
3136.67 93889260 146492500 166504300 100571800 61214460 63140770
3142.46 59464060 56498460 65249640 85958560 91474220 69515060
3148.24 57466780 53274600 48805580 52626980 64894900 91966060
3154.03 91902540 50640000 34291840 38780430 41681760 40288610
3159.81 46564360 59303880 52396570 34155510 30110100 29200950
3165.60 29273850 39126950 53381690 64740600 49156420 31335570
3171.38 30059040 28100620 27117870 29203940 37103570 39281800
3177.17 32196280 27610050 25870460 24797310 24796020 26664710
3182.95 31050780 26481260 24268630 25466990 23959190 22797660
3188.74 22374790 23496220 23158740 19491340 16766720 16958090
3194.53 18594700 18307380 19123590 19990520 16926760 13436830
3200.31 12192810 11484250 11314160 14055620 15759290 14234440
3206.10 12758390 11618040 10982220 10025850 9676768 9333244
3211.88 9846968 9653552 8793426 8056376 7515744 6814696
3217.67 6471914 5941106 5315058 5163794 6376832 6172766
3223.45 5829876 5311296 5038174 4423434 4016422 3547598
3229.24 3395064 3588674 3612016 3160504 2872080 2481656
3235.02 2310072 1964020 1835548 1681614 2140306 2171594
3240.81 1975080 1657242 1534278 1315540 1159144 954382
3246.59 925948 888580 922478 775226 737016 554410
3252.38 519236 392646 364958 263224 394074 320174
3258.17 289886 193160 201054 100120 60592-74704
3263.95-51776-42652-12372-79232-65234-164842
3269.74-192154-245614-165356-217862-151792-202668
3275.52-224598-292996-252476-317546-287380-356630
3281.31-333814-370658-303198-339950-311722-374664
3287.09-359942-370926-302482-373414-357518-368736
3292.88-309932-337668-305490-400428-364990-349296
3298.66-337720-428294-415010-437974-388366-413018
3304.45-337052-368788-380808-445448-424524-437220
3310.23-390220-444068-366876-397250-395208-475490
3316.02-446948-482400-485892-491860-393626-432210
3321.80-399160-412678-356326-433658-422416-430478
3327.59-405784-456152-440494-474258-438792-466758
3333.38-457756-442776-399138-430038-392444-406248
3339.16-388952-421956-373534-419744-427304-486098
3344.95-460882-483492-459874-421572-324348-356114
3350.73-335910-411908-417504-481670-496266-509754
3356.52-429214-422178-400618-440964-410796-428312
3362.30-381086-455906-436570-454326-414272-415792
3368.09-330858-401956-406440-422308-390848-423668
3373.87-451138-539578-460760-440336-438972-449192
3379.66-364642-398906-411832-461146-412414-424174
3385.44-367778-410012-388662-422670-424754-500902
3391.23-458728-500436-420490-456362-476328-480788
3397.02-400380-429320-382950-469516-492638-535102
3402.80-507974-538060-556092-573954-489232-471748
3408.59-427176-512956-541292-560454-507708-517354
3414.37-470400-513314-493982-476092-434324-509086
3420.16-516734-519988-543618-611124-540766-508438
3425.94-500250-517346-490906-537794-484320-487628
3431.73-420824-467972-494722-551098-499466-519842
3437.51-529726-569296-510364-590316-574384-522008
3443.30-434110-419282-402268-511984-542206-544636
3449.08-533398-597500-545674-515778-524522-567536
3454.87-504782-499160-504808-583266-571242-542738
3460.66-477404-531872-489842-500006-444154-444874
3466.44-399400-477984-503170-522576-441782-459318
3472.23-453610-496072-421428-463480-479192-507336
3478.01-433352-458906-369990-398510-372010-441316
3483.80-435854-464140-423960-447584-456442-477390
3489.58-444498-498784-486028-507020-494648-524344
3495.37-512204-508304-461694-495646-464464-484100
3501.15-389786-272550-166776-296104-438758-532120
3506.94-535360-535080-486738-462666-422664-467390
3512.72-458880-485816-451388-462102-403618-436202
3518.51-407944-447870-397146-378930-367898-389506
3524.30-293292-357486-403136-424234-371708-424852
3530.08-439146-471534-381870-372240-323492-347040
3535.87-359664-424934-417964-447892-433778-483924
3541.65-462972-492600-426878-430478-427094-513336
3547.44-531522-530912-468642-497832-503374-516100
3553.22-482296-515712-475808-478264-476784-517860
3559.01-503186-558282-517524-535474-516696-558602
3564.79-537820-556730-503074-542632-485622-516368
3570.58-499490-535518-497572-503396-465328-494606
3576.36-493334-524922-491564-499938-480836-491286
3582.15-419268-443656-409108-496072-540640-576682
3587.94-488870-464092-476880-523574-503490-566640
3593.72-503436-546002-531350-537208-455418-488536
3599.51-509304-536002-468106-495050-482908-514526
3605.29-467588-488602-510626-557562-460872-487268
3611.08-508426-534606-461682-460840-462930-527068
3616.86-488702-513848-500322-513152-450542-448168
3622.65-441338-500446-451016-470190-469558-564584
3628.43-566974-518266-447202-470694-456546-494692
3634.22-460512-510736-475862-503162-492304-549304
3640.00-492158-491566-427328-458770-441284-501046
3645.79-480620-478332-482616-555572-515998-535638
3651.57-485602-551776-561806-581238-518396-527224
3657.36-519776-544746-483350-478868-432890-477344
3663.15-467792-502892-429960-442874-434944-552594
3668.93-541970-532448-444912-500966-496924-559068
3674.72-514872-530886-496282-536992-463048-471620
3680.50-522002-553412-468780-491570-446388-528474
3686.29-592958-643940-563314-591226-606902-554362
3692.07-528348-605784-543648-593418-574504-533528
3697.86-521198-661058-615752-564432-586412-730374
3703.64-595022-474634-522478-675798-641120-628294
3709.43-579366-637766-711674-573912-424016-610794
3715.21-697518-547688-465862-652210-718662-660854
3721.00-593154-656388-585462-598028-530938-600512
3726.79-658674-781696-552408-450572-597330-718054
3732.57-509592-683646-830744-813774-465224-535108
3738.36-630436-629234-474444-581214-687720-821638
3744.14-610230-570048-603372-621014-559064-602174
3749.93-608980-693030-483498-495344-605316-644720
3755.71-429194-471534-582048-616692-428506-464102
3761.50-533762-519080-408144-511510-501654-452776
3767.28-324854-368622-371832-421586-393712-512318
3773.07-655906-941694-1160760-1247160-359646 238314
3778.85-51746-390580-460974-520572-478690-474668
3784.64-413524-455876-451596-474890-327446-324642
3790.43-437238-471642-300906-413722-491052-332400
3796.21-217174-454734-509418-385300-398718-610052
3802.00-389832-211624-318710-568628-357936-195050
3807.78-377578-526312-255908-308848-547444-498886
3813.57-249978-464966-562122-340560-134246-469706
3819.35-554064-397998-393804-578150-407082-292444
3825.14-409358-422034-184442-369556-554272-461802
3830.92-305816-552984-465332-348294-437090-608416
3836.71-455588-434836-547282-490220-344072-562864
3842.49-479064-289546-312458-477738-220310-260806
3848.28-494042-448648-232340-449244-465704-417928
3854.07-377700-413244-129698-154094-331050-328042
3859.85-169224-301346-271204-216318-223486-338266
3865.64-242822-255516-247110-316938-219694-224914
3871.42-207054-267066-243336-280338-265284-289148
3877.21-149492-165270-205192-301768-273162-310006
3882.99-256948-312008-313918-366620-216446-194340
3888.78-212974-312772-270700-274164-233764-308178
3894.56-302754-357278-270526-271100-284940-322316
3900.35-316336-399256-354762-399548-337122-327184
3906.13-245070-337908-318840-299824-218282-306536
3911.92-300228-376192-333418-347336-270408-242126
3917.70-110536-87616 58352-49826-148426-223902
3923.49-206194-287690-258680-315920-305382-312444
3929.28-274546-346208-290294-367134-327582-371462
3935.06-313220-348704-309368-351690-314770-319600
3940.85-313200-380824-351718-385576-286844-323428
3946.63-304778-404326-421398-444498-364228-347334
3952.42-191656-262020-312018-402532-349634-322218
3958.20-196366-238202-260482-355784-291222-347422
3963.99-227964-188616-159836-266904-273358-351362
3969.77-217588-195444-157746-289974-294870
##END=
