##TITLE=Ethylene
##JCAMP-DX=4.24
##DATA TYPE=INFRARED SPECTRUM
##CLASS=IUPAC A
##ORIGIN=NIST, Anayltical Chemistry Division, 301-975-3108
##OWNER=COPYRIGHT (C) 1998 by the U.S. Secretary of Commerce
##DATE=98/10/1
##$SPECTRA VERSION=1.00
##$UNCERTAINTY IN Y=2.1 % relative (B=1.1E-04,C=8.5E-10,D=2.7E-14)
##CAS NAME=Ethene
##CAS REGISTRY NO=74-85-1
##MOLFORM=C H2: C H2
##MP=-169.15 C
##BP=-103.71 C
##$NIST SOURCE=QUANT-IR
##SPECTROMETER/DATA SYSTEM=IFS66V (Bruker)
##INSTRUMENT PARAMETERS=KBr Beam splitter; MCT Detector; Multipass cell
##STATE=gas
##SAMPLE DESCRIPTION=Ethylene Primary Gas Standard
##PRESSURE=101.3 kPa
##TEMPERATURE=23 C
##SAMPLING PROCEDURE=1 L/min Flow
##RESOLUTION=0.9640
##DATA PROCESSING=3-Term B-H Apodization
##XUNITS=cm-1
##YUNITS=(micromol/mol)-1m-1 (base 10)
##XFACTOR=1.0
##YFACTOR=4.5474E-13
##DELTAX=0.4820
##FIRSTX=575.169
##LASTX=3975.077
##FIRSTY=-1.74E-07
##MAXX=3974.59
##MINX=575.17
##MAXY=.0009507
##MINY=-6.92E-07
##NPOINTS=7053
##XYDATA=(X++(Y..Y))
575.17-383090-528256-542862-455420-306756-328378
577.58-808320-1425988-1486226-1118190-975580-1049260
580.47-862446-632036-652468-811036-832992-707338
583.37-625804-686202-757726-777522-732396-664198
586.26-637162-715012-696790-764738-918594-969894
589.15-941112-1010734-925378-686166-649878-820326
592.04-903956-865940-792030-826722-830440-718010
594.94-516668-334776-358660-614782-735586-762272
597.83-851712-913586-805292-633454-594782-744412
600.72-806310-716838-614186-600970-539764-433160
603.61-475576-653344-677748-647606-644038-624964
606.51-618572-694508-701466-600900-572376-664422
609.40-584778-509054-547652-574088-552302-525018
612.29-436740-389380-413212-489572-536034-586482
615.18-589742-488846-309642-271742-357880-485084
618.08-504338-414718-338506-416224-495358-575104
620.97-612404-500372-361990-454056-573310-499852
623.86-397042-428514-468450-560930-638316-586720
626.76-418024-383398-505934-616218-551798-482044
629.65-515112-525658-462906-441194-396300-507706
632.54-656076-626216-500232-439318-476044-589560
635.43-494492-252174-198238-386662-509500-525476
638.33-492420-467136-424500-440388-447348-448820
641.22-486982-513778-397200-353700-409860-409814
644.11-323670-326276-352472-321842-198732-173494
647.00-265418-356160-375120-372164-404488-471988
649.90-389106-297968-339114-457774-441936-344346
652.79-285976-332832-403916-456028-415726-361918
655.68-333362-292496-238536-304954-323638-232462
658.58-120360-179376-343636-389698-290926-322242
661.47-388362-371214-301378-336186-417718-407398
664.36-278544-239042-292394-273992-65180 195648
667.25 230532-33194-146160-45216-13642-182532
670.15-224608-20790 137730-68962-253030-50514
673.04 311024 224342-44796-33654 143538 76282
675.93-124438-167956-31010-77900-260556-251530
678.82-20412 77056-67874-192518-48686 90452
681.72-93700-338732-145080 204506 208532-38794
684.61 15260 375448 410018 21790-84962 119786
687.50 185094-44914-94238 120952 289396 97428
690.40-30974 131614 369168 254962 5364 120650
693.29 456660 445876 244468 380992 792174 765886
696.18 431112 449046 895822 1001414 603676 318744
699.07 230512 35492-81284 60364 257724 200364
701.97 9214 83934 400748 451922 241630 242746
704.86 641360 812768 545844 328678 689430 1085970
707.75 913526 522596 663254 1178282 1066554 418016
710.64 390580 851586 805820 363038 474028 1047086
713.54 1253678 708808 423084 798960 1145148 737620
716.43 546370 1333250 2200988 2070502 1557062 1669046
719.32 2043718 1653972 987414 1173142 1950798 1843680
722.22 1037054 621162 551506 388736 520944 854976
725.11 1037112 841356 832406 1280400 1640320 1465890
728.00 1319398 1780844 2130512 1665254 1047706 1211540
730.89 1722160 1586216 1110580 1276428 2004896 1984300
733.79 1330500 1278944 1696752 1451900 1186626 1695948
736.68 2568296 2638724 2307670 2754716 3727648 3535176
739.57 2062160 1366224 1996166 2165378 1252942 986778
742.46 1962660 2529086 1743742 1275244 2245506 2987422
745.36 2306674 1515894 1533358 1734552 2064168 2390166
748.25 2640990 2559790 2229226 1728324 1307836 994868
751.14 977982 1289264 1517266 1349910 1295096 1796134
754.04 2298258 2160314 1970122 2511236 3238208 3397660
756.93 3459818 4039424 4431884 4321980 4034542 3258106
759.82 2001344 1007566 854566 1253072 1487140 1147010
762.71 1013570 1437936 1708280 1501978 1683140 2222124
765.61 2509952 2343804 2686064 3716276 4359454 4044636
768.50 3384048 2154172 826512 370864 618340 678908
771.39 569618 634514 850286 963760 1070920 1313706
774.28 1808192 2287600 2704230 3202284 3947850 4718958
777.18 5364566 5440726 4232262 2257456 1072280 714290
780.07 493468 391086 596584 705240 493812 337624
782.96 671570 1050428 962124 972210 1940084 2965006
785.86 3078954 3133488 3474478 2867116 1460034 683904
788.75 829472 917112 679436 476722 422376 433120
791.64 588420 659768 715208 840466 912850 951232
794.53 1362606 2387732 4095782 4709086 3171978 1480066
797.43 886328 620808 453134 565030 768028 646716
800.32 606810 821306 954144 823534 685400 634820
803.21 724930 860626 1072018 1310806 1517862 1399884
806.10 1089290 967018 1090436 990218 871270 964794
809.00 1064796 1033666 1063586 974210 955388 1164706
811.89 1247294 996994 990518 1278530 1429998 1291716
814.78 1259864 1402702 1524608 1447766 1476128 1749546
817.68 1953244 1740712 1671276 2002500 2165422 1903544
820.57 2055852 2564084 2647206 2199808 2156474 2875612
823.46 3435070 3072936 2745656 3386490 3963998 3256620
826.35 3002800 4211604 5011248 4375814 4022938 4554602
829.25 4773710 4723064 5470502 6129660 5590656 5096854
832.14 6124650 7139374 6991090 7343248 9180642 10138810
835.03 8923956 8435634 10362730 11642620 10339310 9906474
837.92 12089450 12653880 10651900 11090100 14373620 14522010
840.82 11951510 12028470 13976640 14467020 15418210 19393530
843.71 22017880 19939840 18093670 19006400 19618670 19075270
846.60 19886090 21720470 21881320 20840400 23024970 28812800
849.50 31246280 28360550 27451450 29801900 28764440 24888430
852.39 27660530 35635420 35755700 29458780 30663900 35699690
855.28 34067550 33706680 43069540 48066320 37976200 31357160
858.17 39303940 42512320 34931650 36486460 48551110 49720910
861.07 41287780 41758180 50629720 52924470 49261260 50529560
863.96 52963130 53041580 55297940 57925110 59155540 62630580
866.85 65007100 62345900 62103490 68734890 69051860 60579800
869.74 59224650 68602380 69030800 59275180 60167760 72153580
872.64 74095460 63750690 66223840 91549700 107657900 91456720
875.53 72097900 78122710 87897220 76735530 77597860 103607400
878.42 112165000 90889380 83284480 108788300 121056200 105294300
881.31 101500800 110666700 107673600 90403700 76338220 78487220
884.21 93352220 98347280 104400200 134054100 150470500 124701500
887.10 100363500 106979600 121566300 124133300 125836500 142734100
889.99 154171700 126897100 92409020 94117190 115952400 113553100
892.89 99058140 109420900 140182800 154993400 153660400 179357400
895.78 226104500 230722600 172221900 124007100 130186800 136961400
898.67 121380900 97579000 97764500 122479400 122955000 138355500
901.56 207551400 240757300 180859700 121594100 127312000 127737200
904.46 106800700 114458700 138117100 140667900 123823200 128218200
907.35 183513500 301770900 403731300 341470100 194973700 124283900
910.24 124912200 131095900 122679200 105508100 100863600 124342400
913.13 129648000 112035100 162323400 314343100 393434700 267910200
916.03 137808600 113050600 113847900 99493660 82621660 79302020
918.92 95963180 125395400 142762500 143871200 167999200 301257500
921.81 471753000 435526400 274160900 190504400 149189000 115839600
924.71 100560200 99593130 107134400 131124700 137124300 114650500
927.60 106580700 126800800 179591600 229778200 222601900 180434700
930.49 158768100 159524800 150276100 133945100 129689700 132620200
933.38 133079500 133894300 128277000 116340500 119443400 135670800
936.28 142614700 142665700 154566800 168419000 185288000 211910200
939.17 237045600 251058100 246784200 227619200 219428300 214204300
942.06 207573000 227357900 238173800 226697400 260222200 306276400
944.95 328435100 370002500 413025800 462207600 540101600 640196800
947.85 835870400 1373460000 2090740000 2080273000 1384454000 853510400
950.74 638773800 531202200 430955900 340410300 272733200 238049100
953.63 227330800 230889100 248291900 259086600 240942000 215257600
956.53 222309800 228511300 196800300 182359300 190940300 187498400
959.42 171096100 158754000 151248400 137482800 147851900 163546400
962.31 163151900 167828000 158402000 158045300 170073600 183647800
965.20 195270000 187879200 160445400 138040600 159544000 189250400
968.10 186595400 208087600 281121600 316874100 263381600 196750800
970.99 149442100 115997300 107968200 124257300 147325600 142336900
973.88 120243500 126640700 147890900 144732500 134940500 153082500
976.77 180999600 226403400 329735500 379435000 286222800 172601700
979.67 126476900 132142700 128157000 106483700 112451900 131769000
982.56 127499200 116065700 114339200 119371400 132602900 181556400
985.45 275970900 344347300 384120400 461149900 494113700 378356400
988.35 201106200 117516300 114342100 113604800 124643200 140121200
991.24 130515100 114615700 124878500 156330000 152550700 125450200
994.13 133808500 143420600 140231200 177610400 277386300 364226200
997.02 306005500 166950200 125213900 155807000 149350000 129140400
999.92 154550400 174322100 152968900 128195500 127751900 132350000
1002.81 131682000 156148800 185359000 169266700 158370000 222937000
1005.70 301174900 306600800 254219100 203591900 173091300 143812100
1008.59 129223800 135251300 125974000 110328600 124995200 147221300
1011.49 135356200 114314300 116482200 122360800 125173600 141603600
1014.38 155679800 156995700 155491800 142603700 126322000 128153100
1017.27 119006600 89529060 83581910 115390000 160764800 177053700
1020.17 148767100 117613800 116727700 127139400 118059800 117209100
1023.06 133271200 121638500 91969760 91394990 107101100 107606500
1025.95 101094300 113294200 150294500 174475800 153223600 122145100
1028.84 98386380 79420640 84962990 91241060 82877180 93185130
1031.74 102318600 82263890 76238890 92326120 83896540 63923360
1034.63 71496660 82938580 75355010 78317620 103448100 114076900
1037.52 95005030 77489690 66501760 53948980 55834530 60810480
1040.41 52257820 48053190 54496200 53761320 48611720 60761370
1043.31 84025220 80580030 60431280 61761520 75577540 76024150
1046.20 67935780 75651180 101055100 104437300 71544760 52641960
1049.09 63432410 60039970 37840090 38724110 56122210 48743920
1051.99 31787180 40604760 51337750 38305360 27657690 36387710
1054.88 46522240 50441400 47881550 42424960 47525420 56321920
1057.77 52527620 45059090 46591710 45562000 33167910 27943090
1060.66 36444840 37203090 27022750 25819440 33175250 31821360
1063.56 23645680 23787230 29177940 25848980 18734300 21975080
1066.45 27977610 25543510 30541680 48660680 50190950 35600280
1069.34 34226430 39732350 30002340 20906510 28708970 32385820
1072.23 22251990 19692070 27298050 25914510 17681940 19371690
1075.13 24687160 19976650 14824300 19423970 21407550 15456580
1078.02 14983160 20443600 19147540 15658280 21702390 26522710
1080.91 17907320 12517000 19881150 21462910 12690120 12276270
1083.81 19006600 16356220 9683058 12668790 16262170 11435710
1086.70 8828728 13128250 12905630 8216978 9502450 13271110
1089.59 10933110 8885642 11920790 11598850 6557652 7180370
1092.48 14783210 16622000 10191380 9764330 14586770 12513320
1095.38 7829440 10077440 12340000 8716818 7045478 10094160
1098.27 9811956 6517866 7119162 9242542 7454948 5765976
1101.16 7434798 7876144 5326476 4664748 6062718 5513654
1104.05 3906034 4804594 7056760 7395128 5712234 5519100
1106.95 6474428 5760192 4500536 5006372 5341568 4271982
1109.84 3807576 4521734 4329662 3606848 3837838 4177830
1112.73 3356288 2709578 2872802 2808430 2256168 2191078
1115.63 2348670 2166830 1858152 2041314 3003982 4471190
1118.52 4193050 2881496 3279282 4040062 3009356 2361524
1121.41 3165908 3235690 2316280 2535918 3028162 2235240
1124.30 1551782 2077232 2072644 1360456 1386978 1790784
1127.20 1318746 957168 1342106 1408440 878574 899032
1130.09 1268804 1518632 1575154 1435894 1273598 1307574
1132.98 1211512 1032652 983402 1057686 873330 674508
1135.87 675582 702012 505334 454048 547392 483758
1138.77 270354 300630 323120 189624 121656 224920
1141.66 103394-17880 84052 404116 756464 799214
1144.55 493134 507060 626278 426976 198486 361498
1147.45 369136 123606 93060 254182 73836-40226
1150.34 133200 136726-112668-36266 60210-130526
1153.23-241184-57166-100714-218378-132484-63094
1156.12-139940-35402-65650-229948-211588-93842
1159.02-228162-266534-136020-143658-292552-230820
1161.91-205246-281518-306754-246828-310598-313540
1164.80-286764-353306-451220-389074-394588-449040
1167.69-454862-391090-403378-316734-250424-324610
1170.59-390418-285768-311470-376496-320804-271226
1173.48-381160-376038-364672-436250-482076-400072
1176.37-427208-474994-462780-440364-491756-464718
1179.26-456376-466692-485154-448404-465224-452314
1182.16-420900-411550-472532-431244-415310-456070
1185.05-487026-446134-479546-491542-486274-482344
1187.94-524260-504384-506066-515226-542706-520122
1190.84-516330-481700-491342-515468-543498-509960
1193.73-513274-505868-506732-484100-520672-528420
1196.62-526822-511640-541146-533014-517300-487976
1199.51-511752-507616-526500-515370-522082-532488
1202.41-566740-540702-527624-509248-537440-521162
1205.30-510730-529004-575034-546484-534376-524160
1208.19-548958-527626-525424-524094-538530-528100
1211.08-548926-557914-593502-569872-534840-490162
1213.98-495724-495438-529298-533590-539214-533872
1216.87-562030-545452-536108-526080-545418-499850
1219.76-491610-515164-533828-494674-507836-532046
1222.66-573604-570166-567456-555478-569898-543752
1225.55-545616-533656-532732-515932-537358-541168
1228.44-547196-519788-539588-556236-565354-542388
1231.33-553230-544366-552064-533410-544644-545334
1234.23-552452-506708-489554-483914-509102-511650
1237.12-532540-517704-520412-522358-543776-538898
1240.01-553788-538540-546824-537592-538640-521658
1242.90-517574-491090-513808-525206-531414-506888
1245.80-527848-542344-546342-517498-525736-524326
1248.69-545992-530468-521980-513204-537032-545952
1251.58-562062-533038-508084-479984-504818-510654
1254.48-526154-540090-574096-573664-585148-561894
1257.37-543672-526290-559546-563298-570118-565234
1260.26-575356-555274-547328-522350-520846-512938
1263.15-534016-531316-540932-524768-528216-506838
1266.05-508012-514758-556956-567090-559600-520282
1268.94-515082-506058-518128-512932-536394-537830
1271.83-543954-532950-541340-527074-551482-562076
1274.72-545872-502446-516798-513106-505410-496518
1277.62-529566-532960-529540-501922-513572-523242
1280.51-537638-533208-552768-556532-574350-547884
1283.40-542324-550088-557998-507852-508052-539474
1286.30-568756-553106-555594-540860-546634-530432
1289.19-530330-521870-529016-520634-521354-492840
1292.08-504404-513228-524842-511140-538550-550778
1294.97-540950-500796-506352-506664-527410-552214
1297.87-580484-548240-532516-525686-529092-503928
1300.76-523618-524122-521970-517460-525214-499032
1303.65-499658-482284-476906-456498-454316-455190
1306.54-478592-478408-508200-528960-535786-509350
1309.44-533242-534014-524216-513244-531166-527666
1312.33-537312-526358-523868-508996-534976-542934
1315.22-544062-534894-559596-544924-532622-534446
1318.12-569480-548536-507454-463602-469598-472570
1321.01-487058-493448-509008-491476-499002-484010
1323.90-475660-454208-466104-488244-521194-516620
1326.79-513630-482922-486070-489742-507130-504126
1329.69-525542-511914-486028-470394-500598-490048
1332.58-466700-443354-446168-388840-360612-371564
1335.47-398852-412740-448212-439936-437166-462814
1338.36-514382-486164-463786-472946-482022-442844
1341.26-451296-456332-461810-452740-477692-511328
1344.15-522474-459156-447250-461306-479806-475480
1347.04-475342-436954-422588-407590-383430-335808
1349.94-348602-358674-368982-381128-432288-443782
1352.83-446460-445084-452658-425824-443848-472590
1355.72-504832-500144-503406-473144-459660-463062
1358.61-491838-481156-458832-423744-452314-472464
1361.51-483230-461464-440566-397402-379046-323890
1364.40-219466-103294-92496-115264-112722-54484
1367.29-76160-149376-233862-262980-259586-192868
1370.18-145788-120682-144014-128262-54454-23070
1373.08-65922 69986 209424 147408 118054 322512
1375.97 376832 315654 498440 673948 492384 545922
1378.86 983182 1161240 1110554 1512218 1762484 1337766
1381.76 1343270 2126838 2227946 1865386 2468584 3060098
1384.65 2498958 2704934 3933982 3928178 3330770 4335148
1387.54 5150050 4449114 5031846 6874358 6601514 5819642
1390.43 7253884 8240358 7411362 8474848 10804520 10481760
1393.33 9613562 11172800 12340480 11795380 13190010 16065460
1396.22 16070440 14703810 15929640 17817680 17745850 19317690
1399.11 23023900 23540410 21009470 21857080 24713800 25449290
1402.00 27715860 31596800 31443320 28772980 29711390 32615460
1404.90 34216180 37918850 40910840 39297340 37612650 38902930
1407.79 41429200 44050440 48590880 50553080 47630700 46165260
1410.68 47609170 50452860 53053050 56916780 59394420 56574480
1413.58 53682370 55634050 59475060 60588070 63092480 67127220
1416.47 64472120 59162620 61740680 65748000 63207860 64319990
1419.36 69757770 68015040 62025160 64887770 68349540 62302620
1422.25 61709850 66953220 65159530 61583140 64768120 64874710
1425.15 55694880 54460510 59527820 54833570 50876180 56933000
1428.04 55965580 43708380 39699560 45116810 41497570 34258420
1430.93 38716360 41276510 30475420 22986390 26132580 25645880
1433.82 18413900 18782400 23307450 17658040 9746704 10600720
1436.72 12078700 8441438 6852612 9547220 10680870 10670130
1439.61 12060980 13309920 13336610 15179190 26545040 56696520
1442.50 98109070 124546400 124840400 118449500 107094000 87235290
1445.40 77509100 73555020 59410330 47478120 46677980 46487170
1448.29 36985650 29793800 30984030 29871620 27346530 28615770
1451.18 32505040 32397550 26551160 24614050 30080070 34522920
1454.07 33894040 31376000 33493930 40077760 37799830 31227820
1456.97 36642310 47871130 44656950 33160550 38993820 51718840
1459.86 45458470 38629200 49576620 55870850 44292440 36848080
1462.75 43422710 50814590 53496680 54223600 50529920 46820380
1465.64 46653240 41824240 38082990 50279190 63849870 53332480
1468.54 39400370 43607720 46172980 38623640 39547020 50524460
1471.43 53246930 44811760 37500900 35918040 38875260 41910750
1474.32 39087220 36176750 40515960 40820260 31782780 29393190
1477.21 35853050 36505750 30585030 27198800 29486510 31836530
1480.11 29760800 26102020 25235440 27517490 25176300 18802340
1483.00 20286600 26633570 24014060 18269400 19500790 19963730
1485.89 16101610 15615850 17489830 15755060 14794380 16267320
1488.79 14310930 11290150 12467260 13355460 10488040 9267330
1491.68 10247850 9996324 9850476 9996014 8438178 6929064
1494.57 7291622 6782684 5094416 5941826 7356828 5990046
1497.46 4511334 4853160 4528942 3406200 3647196 4182526
1500.36 3591572 3008666 3132786 2901892 2414092 2368006
1503.25 2241640 1894198 1754540 1596802 1350450 1363946
1506.14 1318804 1003640 871430 920140 761626 590582
1509.03 630894 648080 556128 437906 374036 274122
1511.93 93980 26458 70344 113738 63500-26736
1514.82-79982-123166-185554-259868-325926-280842
1517.71-194450-202138-285572-361606-423434-485394
1520.61-545116-510248-459014-454928-397916-343692
1523.50-387574-443314-496764-546452-532600-478190
1526.39-482492-525948-546778-523626-505134-509616
1529.28-520874-515596-516298-523514-527344-517298
1532.18-549856-612480-648986-626040-572988-544672
1535.07-551466-558042-563044-556382-562542-584682
1537.96-644936-678342-608342-554908-595204-589614
1540.85-586178-657434-682082-609972-574424-564694
1543.75-554444-583866-624076-597840-564216-546004
1546.64-545904-557742-582158-581746-560400-555326
1549.53-581428-581326-568206-561548-553090-550378
1552.43-574460-593120-624212-633670-589616-545424
1555.32-526564-472074-465292-582316-685410-719518
1558.21-712182-668864-700194-708628-613678-530676
1561.10-539346-564220-582476-576630-551284-527978
1564.00-551652-574026-559514-536382-535474-532938
1566.89-531668-532102-555018-579076-610434-620922
1569.78-586494-537326-537284-555162-552810-518952
1572.67-486442-487526-541538-563590-570240-633836
1575.57-695290-637386-571022-569510-575134-557594
1578.46-555756-560490-560246-546806-540702-543084
1581.35-547044-522402-509580-515480-525414-532688
1584.25-553848-559904-559620-538856-523008-526272
1587.14-532262-523304-539040-552874-532308-475360
1590.03-456550-486990-523854-538264-555092-564100
1592.92-559756-547812-553998-547114-537912-538540
1595.82-546334-532468-536242-549312-556186-544394
1598.71-534788-533134-537890-524188-530564-552920
1601.60-565526-556244-552834-542968-531150-515730
1604.49-510266-500666-507938-517036-519762-517530
1607.39-533772-540724-538624-534924-543204-542126
1610.28-539108-522324-506038-501188-513596-508964
1613.17-508534-523776-547046-559242-570370-609264
1616.07-680726-643772-556266-540656-553052-537296
1618.96-517876-507310-520622-523200-523384-527618
1621.85-540296-543980-551474-527372-499204-506998
1624.74-530632-530106-526762-537060-571462-601126
1627.64-597776-559234-538360-523140-513334-509086
1630.53-524738-535016-545728-542638-522960-513488
1633.42-539334-580542-643822-693748-670352-581216
1636.31-557742-584268-573368-536514-538036-542926
1639.21-546920-544478-540604-531410-536792-542070
1642.10-540720-535656-538380-530568-537766-556880
1644.99-609984-648992-621916-592018-598886-587038
1647.89-568698-537096-525222-532364-554286-573418
1650.78-593540-646130-738966-770240-749610-681638
1653.67-630634-601832-548786-513098-527360-541740
1656.56-542020-539396-549560-551144-552448-543020
1659.46-540296-540032-544272-553168-575864-605310
1662.35-623356-580472-541820-544348-564096-564120
1665.24-547264-520270-513084-521260-544804-563222
1668.13-601484-645566-638538-582042-557642-568940
1671.03-585906-569910-562702-566124-559096-534436
1673.92-543374-607556-652078-605508-567956-561730
1676.81-545630-519250-514098-508342-525002-559958
1679.71-585852-574388-554474-550610-550502-552932
1682.60-596782-616280-640016-698364-679210-573718
1685.49-521620-511882-521834-530554-535174-515998
1688.38-499034-508218-526258-509488-493890-488094
1691.28-495348-495602-499324-508432-508472-492530
1694.17-507244-572996-658424-623490-528160-504612
1697.06-512764-496842-497330-531828-606934-658224
1699.95-642616-573692-518758-488492-469474-454438
1702.85-453886-459242-460132-426788-425956-494594
1705.74-556086-493120-374792-330450-362998-400434
1708.63-392002-351122-385718-428474-408448-352282
1711.53-345120-404244-457274-453044-400510-366058
1714.42-384688-362606-301166-285720-391618-516808
1717.31-503152-420436-363554-280924-242098-282986
1720.20-337176-284216-178836-165518-233026-270980
1723.10-237640-243686-331046-328804-229700-143796
1725.99-189122-251296-200092-91912-102546-231908
1728.88-293662-219176-119374-150676-230678-150424
1731.77 72190 126632-140488-351114-337516-251908
1734.67-241942-282146-271528-146476-42730-28776
1737.56-49456-78332-118376-230568-298304-167636
1740.45 30814 149298 233942 362626 277364-27564
1743.34-228334-242962-172870-96686-49182 69782
1746.24 180110 81014-134720-269924-281552-118882
1749.13 116050 354972 519534 333544-62708-232224
1752.02-224322-165066-18290 204998 261618 67574
1754.92-125548-153010-38598 230320 451754 283436
1757.81-68284-190628-106814 18988-24218-229792
1760.70-316424-187972-6502-11698-226554-326314
1763.59-292474-311688-330156-319444-372884-356230
1766.49-282298-347026-444232-369674-316070-358316
1769.38-300452-189100-218220-242118-221196-296366
1772.27-285238-86564 3068 26702 122190 77974
1775.16-97198-64722 67886-11918-63900 100152
1778.06 51960-104696 1428 28944-92044 2980
1780.95 102020 85164 136428 138360 19098-24880
1783.84-58296-142900-95606 14168-33484-80412
1786.74-60322-93612-164980-223634-217774-135512
1789.63-187948-315600-359592-410556-440790-454332
1792.52-478396-399990-317748-253620-210932-277938
1795.41-412016-481690-457602-445408-501760-501322
1798.31-434430-412280-462252-519710-568002-583064
1801.20-545744-490332-520230-613542-673206-652774
1804.09-611164-575250-516672-427080-389678-409044
1806.98-462772-511088-501360-465638-447122-435112
1809.88-464098-478658-495752-503750-468210-413248
1812.77-336394-316888-399840-482296-477650-391622
1815.66-384258-446056-467200-398214-226958-62140
1818.56-39326-28812 35416 8762-44168 20976
1821.45 113246 105354 39896 126472 317782 521352
1824.34 586360 463172 343736 376136 570954 811966
1827.23 973114 1063516 951104 787472 914496 1260670
1830.13 1550662 1505310 1454172 1830888 2143432 2009282
1833.02 1739332 2072472 3008216 3671022 3367084 2817436
1835.91 2847134 3339436 4146038 4119484 3243980 3687544
1838.80 5463704 5773978 4558180 4989486 6456558 6208752
1841.70 5287772 5291804 6083302 7711476 8185004 7617338
1844.59 8005736 9292152 8882274 7365772 8242270 9943300
1847.48 11273770 12527040 12139890 10267380 11149900 13837390
1850.38 12136560 9738690 13998320 18488910 15351530 11608160
1853.27 14125230 17901890 17751930 15127040 14051440 18327070
1856.16 21374850 17347210 15809020 21679200 23339840 16655090
1859.05 14588640 20077680 23848740 23166720 23141930 23242880
1861.95 22152580 20069870 18046190 19210950 26021960 29898760
1864.84 24278870 20239330 23948490 22861730 17713840 21339600
1867.73 28968190 26436490 20135600 21611930 24681550 21900300
1870.62 18758420 21045060 24448270 22159850 17577530 19014050
1873.52 22819560 21410180 15776160 14998560 18930360 17250110
1876.41 11899010 13486130 18151690 15187640 9178632 10214520
1879.30 13745870 11849500 8464970 9682870 10809490 7202858
1882.20 4246996 5325832 6103310 4544354 3879524 5463256
1885.09 6690754 7364382 9705904 15590650 27391190 54404840
1887.98 105512300 128448300 78505340 25687460 11770010 10493180
1890.87 9538704 8478386 7669492 6043434 4175980 4988742
1893.77 8118810 8702194 6718198 7585100 9821506 7871966
1896.66 6510262 12240790 15993910 11100160 9630304 16432390
1899.55 17943560 12846330 16308300 24842870 21763460 14974660
1902.44 20435220 26566410 21190550 19703360 28802220 30364130
1905.34 22059190 23406180 31473320 28472670 23511600 29849880
1908.23 34616050 27678130 25607260 33472310 32965350 26828490
1911.12 30089310 34874070 29524320 26698990 32452170 31361680
1914.02 26020270 29416350 32939600 27216750 25474790 30642960
1916.91 27870270 23385480 27618250 29230340 23416410 23838060
1919.80 27539640 23006730 21039780 25767400 23775890 18263780
1922.69 21247190 22371280 16040140 17303320 22523360 17683940
1925.59 13362540 17639750 16745640 11765920 15031840 17599150
1928.48 12420790 11806300 14913160 11526340 8818736 11903240
1931.37 11581200 8108530 8398380 9138230 7443182 6897482
1934.26 8008122 7789672 5970194 5308084 5700748 5331442
1937.16 4794908 5118540 5167628 4052628 3509224 3916800
1940.05 3551442 2747364 2556002 2842582 3041590 2767282
1942.94 2362564 2133074 1854172 1551796 1568892 1629674
1945.84 1257238 1034394 1142250 1206714 1242226 1165100
1948.73 846268 480334 293678 268994 296960 251542
1951.62 148310 120114 86298 14694-65160-159454
1954.51-308432-428132-454580-440740-474962-480736
1957.41-390528-276922-284782-308990-272652-320966
1960.30-479634-559082-430684-237522-205226-215602
1963.19-189186-259568-422028-481058-431270-318556
1966.08-251740-252602-146674 35968 41122-87074
1968.98-190392-262314-379426-517996-620734-643036
1971.87-503350-284048-165538-148182-164010-160116
1974.76-104918 20860 88892 81876 72096 110524
1977.66 110102-34560-183234-103172-19890-131520
1980.55-189688-68762 89640 219398 220248 141858
1983.44 82660 506-63026-36292-131148-325268
1986.33-255688 56962 149686 200600 576722 722728
1989.23 371720 174246 194492 55058-212406-320994
1992.12-240246-251586-372398-237310 170908 583746
1995.01 714078 497448 204416 171656 267406 117998
1997.90-19596 122338 386050 396438 152194 157524
2000.80 335646 420710 521928 584836 565474 580176
2003.69 690634 745156 636000 482624 481380 792116
2006.58 937884 527662 163138 561926 1199958 1154562
2009.48 718482 741140 1171260 1083512 529574 370414
2012.37 741396 1163998 1196344 1333106 1610562 1553114
2015.26 1397580 1218204 1056798 1121822 1588622 2055154
2018.15 2032698 1553210 1532448 1899788 1566150 1043294
2021.05 1389780 2403128 2471424 1675890 1533228 2208992
2023.94 2285002 1418092 1303316 2270776 2700364 1903832
2026.83 1382262 1963910 2294490 1671844 1269596 1734312
2029.72 2262608 1993786 1250340 1301952 1958140 2103290
2032.62 1540788 1130294 1476494 1752774 1147710 761360
2035.51 1429550 2029726 1432038 723780 912802 1156408
2038.40 598438 114222 490044 979752 677480 226344
2041.29 383920 664918 498778 359512 686604 1179178
2044.19 1495098 2084976 3309530 5417688 8904398 11696600
2047.08 9367768 3821482 647044 30090-87132-265712
2049.97-345848-163520-10576-33868 233618 869978
2052.87 910906 332406 368998 781000 528476 444918
2055.76 1361996 1761674 1030376 1104696 1903568 1679776
2058.65 1454042 2510122 2882052 1919284 2037444 3003046
2061.54 2725654 2488384 3386360 3553006 2785214 3146124
2064.44 4022534 3706652 3375574 3928926 4001844 3478048
2067.33 3946014 4522068 3905688 3751364 4304746 3971458
2070.22 3887674 4663562 4213794 3512708 4082702 4025180
2073.11 3649002 4212738 3843050 3049194 3574908 3778318
2076.01 3550282 3915308 3462012 2807336 3252162 3343918
2078.90 3041120 3065966 2608174 2236512 2547238 2672764
2081.79 2603200 2397280 1839570 1753542 2013610 1997168
2084.69 1874102 1562642 1316356 1402824 1233938 1006312
2087.58 1036604 1011506 938738 844174 806708 817856
2090.47 593694 361564 323494 342704 328320 273758
2093.36 198508 154634 76294-44782-148360-142944
2096.26-53904 16140 22748-57910-179212-200460
2099.15-163008-114240-124432-106484-90752-165238
2102.04-243524-141942 37060 89944 23344-87120
2104.93-222104-368378-427724-298568-107548-95088
2107.83-214690-291202-337066-343842-263456-127750
2110.72-34440-95372-200730-94526 52188 34286
2113.61-93380-223472-278186-286824-301644-279288
2116.51-278782-290684-329126-334068-250226-95502
2119.40 40716 96356 102822 138726 183448 267290
2122.29 420274 618240 572142 190014-118722-143622
2125.18-115090-159334-171774-35630 24872-82710
2128.08-63640 97118 30562-138918 21472 432182
2130.97 649152 693156 785018 647650 208284 26312
2133.86 175304 283692 214188 139562 10540-178630
2136.75-77032 202222 257340 206924 330474 459768
2139.65 379514 535868 1206846 1746962 1463296 941386
2142.54 726564 420970 90370 143540 333478 348462
2145.43 270686 293404 358978 388660 327368 281074
2148.33 379912 422494 446748 801462 1144380 1059498
2151.22 914480 831290 590910 376996 321308 450148
2154.11 673134 619494 408290 442814 515336 464212
2157.00 459722 645270 865868 953018 1093704 1298196
2159.90 1004738 410144 180588 299872 392924 429176
2162.79 423842 380402 293270 181866 273754 499332
2165.68 495718 360418 335996 324856 169432 101560
2168.57 310242 464644 352644 179698 156752 211994
2171.47 185576 188346 221432 227354 177368 64404
2174.36 95046 343812 573680 600708 492594 407524
2177.25 387026 366900 408168 698668 1034908 1159530
2180.15 1139190 1070946 953076 1036058 1295292 1174012
2183.04 770414 655178 830664 1077938 1055150 794516
2185.93 725562 815952 1040208 1543596 1877600 1760048
2188.82 1678358 1534600 1227368 1051658 1033568 1225664
2191.72 1248016 998368 948574 1144268 1332334 1411652
2194.61 1333478 1168798 1101654 1157734 1212054 1143354
2197.50 977202 879642 835280 780802 871096 1220796
2200.39 1501372 1489008 1412128 1325102 1020160 737752
2203.29 696312 754730 840546 1096394 1379508 1293266
2206.18 928808 730036 746320 894260 999952 891680
2209.07 721502 683216 683096 784468 972422 979634
2211.97 784728 728196 850670 875470 835360 892258
2214.86 800506 585506 511864 466662 355080 342206
2217.75 403352 429596 408618 418476 507600 587622
2220.64 538022 456004 392836 323274 295956 376792
2223.54 482162 508126 506352 532124 528718 469818
2226.43 349620 262428 319408 346644 210768 187596
2229.32 335556 405676 346292 315354 278818 233916
2232.21 264934 297974 230878 140664 78992 56478
2235.11 71026 154126 237466 238642 192410 167838
2238.00 143622 125544 99502 56118 3974-2234
2240.89 7576-5786 20858 130680 230706 220332
2243.79 166834 191672 165822 102394 99710 114300
2246.68 127224 106806 63946 114300 158036 173926
2249.57 267634 397364 608020 1039086 1318806 1102738
2252.46 793388 635348 430330 245838 151472 90852
2255.36 33778-6238-68384-121350-133652-133582
2258.25-150994-148028-150538-168230-175000-182420
2261.14-235834-262092-213374-161904-189184-247932
2264.03-274102-250496-249162-285690-300688-257054
2266.93-241902-276476-300160-296356-285420-263632
2269.82-267062-268210-236158-201108-162214-97162
2272.71-110624-179868-219914-215112-218378-265278
2275.61-323596-337900-336686-343274-319238-267480
2278.50-269442-298476-302222-232382-84498-13368
2281.39-124120-252966-318698-321370-302838-303388
2284.28-321834-319080-312836-322702-352554-352012
2287.18-321870-278450-198566 21276 283874 313888
2290.07 109898-66568-151242-178808-214166-284742
2292.96-340418-340144-329954-337724-335380-328804
2295.85-358490-348146-249190-86912 10522-10258
2298.75-102992-194602-261922-308562-311476-250092
2301.64-215782-243414-278582-246424-196948-195946
2304.53-244292-266342-260296-255634-253480-236580
2307.43-180176-112736-101482-130640-176046-224170
2310.32-282070-302664-274348-241712-227538-168086
2313.21-67058-43998-151068-207804-208650-225400
2316.10-232142-196256-208304-238110-213436-171904
2319.00-177430-178666-174108-156986-153224-129976
2321.89 34006 155838 11586-181340-198172-73422
2324.78-74728-190758-175330-62444-90640-199276
2327.67-145670 8146-19420-116206-3782 171976
2330.57 57736-139212-27910 81164-90758-106266
2333.46 121972 99048-165520-147028 54566-25900
2336.35-209960-90514 61340 514 52956 210890
2339.24 60780-168838-85484 18116-117986-133134
2342.14-6236-72270-179702-66972-24574-170144
2345.03-187620-91100-152024-262236-244976-190230
2347.92-218932-240516-207022-156836-145876-139778
2350.82-116124-157198-199260-124662-101442-111418
2353.71-24322-40060-125870-22148 28742-25072
2356.60 47516 73648 65118 207894 173472 79112
2359.49 160270 112464 88468 199856 114696 103166
2362.39 166290 59852 62146 81510 28338 113858
2365.28 111302 90354 80002-3912 34224 35604
2368.17-9728 29990 32966 50604 28064-15758
2371.06-35858-50866-77168-158438-186496-157906
2373.96-173376-211236-226248-191500-182026-200002
2376.85-224366-215486-174174-147660-189278-226206
2379.74-210952-208100-227294-200292-153812-165114
2382.64-222868-227930-215756-239812-277648-271978
2385.53-253750-254220-285654-283994-248538-226490
2388.42-207472-184094-176904-161754-174200-185424
2391.31-150748-118914-159248-233594-286144-298864
2394.21-297476-303522-300580-257444-241010-269172
2397.10-295498-276672-225140-199078-215796-177698
2399.99-129224-161936-214676-190194-176024-244938
2402.88-307820-279950-252938-251576-258470-274504
2405.78-306630-321610-293724-244420-254402-273952
2408.67-188420 12936 152188 115586 30458-14586
2411.56-121658-246006-274224-272336-321706-333606
2414.46-278538-239396-249858-258534-272032-276898
2417.35-272410-280894-278958-205450-92870-13552
2420.24-29044-150242-275872-320804-312354-272916
2423.13-255928-238520-250862-299122-288478-217310
2426.03-225978-274302-256892-197846-161134-128796
2428.92-61866-65498-205944-316098-352604-356510
2431.81-355996-366964-379962-368578-361082-358078
2434.70-349014-330712-332492-351254-375176-402094
2437.60-409626-382942-360596-361308-398248-415294
2440.49-391284-376272-406364-428846-427108-421780
2443.38-442258-447374-396434-321358-304106-318294
2446.28-328674-319398-260770-174332-160958-200326
2449.17-221618-243134-282582-307702-313598-273704
2452.06-239912-255646-280552-276652-260168-263268
2454.95-312150-329780-322354-319216-271140-197626
2457.85-111160-44384-92498-177390-265036-293346
2460.74-260228-260374-250724-229872-296184-330290
2463.63-264618-184294-185042-227632-235366-235404
2466.52-243568-214524-222250-264010-282314-259964
2469.42-210256-213780-272942-263898-258976-296054
2472.31-299412-306360-333614-313362-287610-272910
2475.20-291586-333196-352652-345326-328828-298440
2478.10-310716-313648-287362-322342-378242-364754
2480.99-349674-354002-350312-353526-405276-434628
2483.88-408438-396074-405968-382628-390228-421024
2486.77-416322-397964-411732-412480-389056-388640
2489.67-415544-423854-428812-415540-395152-405748
2492.56-440732-449276-452782-449026-431548-417116
2495.45-419684-417840-422868-440924-469962-489856
2498.34-480910-442834-452000-489652-497268-491786
2501.24-491464-458800-431498-433608-440256-452552
2504.13-486036-497256-501304-493614-485150-487958
2507.02-486018-479316-486680-478864-464064-445450
2509.92-437076-435384-425478-414472-428982-447284
2512.81-452716-441324-438226-439812-455294-481466
2515.70-499754-497460-512988-525206-512402-482154
2518.59-468872-461788-459594-454062-450434-442640
2521.49-442128-441850-457178-475480-484664-488906
2524.38-493970-490626-485510-478808-497430-507798
2527.27-490684-468258-450502-435388-447562-457416
2530.16-457002-447488-447624-445870-448582-458842
2533.06-482246-494436-489186-489400-502080-496052
2535.95-491644-487092-489896-507374-528718-533370
2538.84-531158-505582-486042-469652-446474-445220
2541.74-466738-444444-405112-421794-465020-469604
2544.63-472682-487282-503546-513926-522930-503042
2547.52-479296-490328-514714-509320-490700-474860
2550.41-478716-490500-506246-512660-530006-533818
2553.31-517772-506226-505614-500274-502632-501474
2556.20-511742-522446-527400-525428-519942-505516
2559.09-495900-484400-501074-521276-526548-507052
2561.98-463734-426622-427152-441380-448840-449994
2564.88-455770-436250-397938-361032-344204-289604
2567.77-183120-136936-221940-312510-355062-375678
2570.66-387434-387496-386660-392694-414886-431024
2573.56-471646-508838-520952-514578-492408-476894
2576.45-486214-475284-466902-479878-508062-525668
2579.34-517508-482850-467388-482038-505702-501036
2582.23-492146-493574-484406-468512-479810-479068
2585.13-464678-464122-483780-501908-512182-500456
2588.02-485738-489530-511306-503934-467842-432106
2590.91-437588-451442-461572-475030-488408-478088
2593.80-484232-509460-514594-495630-477216-467596
2596.70-491468-513080-504214-487218-493014-481866
2599.59-461628-472980-504488-504724-496372-492670
2602.48-485556-467080-463438-479630-495480-483608
2605.37-475738-469234-464964-454026-450022-439204
2608.27-429640-451188-506684-530706-520346-521720
2611.16-529870-497926-480756-487084-493138-487082
2614.05-477656-464314-463558-461440-448110-438482
2616.95-466600-493624-497004-499442-510080-481836
2619.84-450966-437266-441324-457026-467872-462172
2622.73-455658-445772-441560-443030-454858-438632
2625.62-414816-414458-445768-467500-478678-480098
2628.52-465502-447660-465162-483152-473788-462246
2631.41-468246-447618-429626-449960-478050-471468
2634.30-465426-462208-460312-480362-527934-527602
2637.19-486054-465626-477752-482068-480344-463984
2640.09-463568-479124-485572-481504-497912-500400
2642.98-479610-451984-435574-434284-453092-441942
2645.87-420758-440930-493462-496560-455170-436142
2648.77-458184-485512-505792-494420-480894-479970
2651.66-482148-479680-493524-494376-474752-458736
2654.55-476404-485458-481106-477456-476544-479520
2657.44-493890-494786-490326-490332-491626-470662
2660.34-477156-511200-523388-490360-457440-455522
2663.23-479746-467648-457738-486776-504560-498800
2666.12-511216-514854-511306-516774-536600-540038
2669.01-532034-530110-530884-500102-481070-507244
2671.91-557242-563096-532318-507062-503918-490656
2674.80-494150-508208-509908-501744-522588-523926
2677.69-492672-483236-520930-546618-543722-531630
2680.59-545164-549714-536964-522258-516406-519290
2683.48-536106-522738-502864-504814-519934-519086
2686.37-516396-513802-514972-518662-537326-554216
2689.26-572978-582710-580850-558374-532254-505342
2692.16-496390-503926-501364-487304-506474-513364
2695.05-502384-513132-544532-554794-571876-580068
2697.94-546358-485772-480318-525472-550668-551410
2700.83-564000-574344-574594-553272-539624-526220
2703.73-531540-529030-514204-517680-537186-548382
2706.62-554394-549060-553784-554014-562050-559494
2709.51-552356-545460-547820-537334-521256-513726
2712.41-523734-547090-568320-552396-546444-550412
2715.30-545878-547308-556902-566588-582348-561276
2718.19-543388-549472-545846-521890-528686-555628
2721.08-576894-554754-537210-539066-533826-506562
2723.98-481638-488214-526070-532564-529594-528728
2726.87-521574-520972-547322-554688-535278-517668
2729.76-519694-512478-513098-518742-535674-560882
2732.65-578050-550494-523168-519426-519354-524338
2735.55-563538-592470-584952-546646-536170-545510
2738.44-551392-539288-538722-549052-556962-541950
2741.33-543994-574700-594954-563022-526748-525504
2744.23-541670-539402-548280-552100-534604-522062
2747.12-542112-558320-565500-539322-522402-533816
2750.01-557156-564600-568726-585922-597534-561240
2752.90-527546-520702-552552-573398-564054-546520
2755.80-546984-555976-563702-549838-540414-542982
2758.69-545586-540514-560192-573094-578714-579118
2761.58-581986-561792-549092-552874-541314-519092
2764.47-529670-546244-547078-530592-540238-581320
2767.37-619264-612566-603566-592328-573932-565672
2770.26-579590-585214-591604-578528-551760-536574
2773.15-553268-568202-592800-617858-605500-562814
2776.05-549358-568288-585710-587064-620664-647800
2778.94-621356-557470-540742-567586-604018-618574
2781.83-639920-623908-567336-548036-595252-633674
2784.72-655240-679510-683288-624342-585168-605340
2787.62-648052-670420-683582-661072-621750-624548
2790.51-693198-710014-664418-639314-644086-621312
2793.40-610450-621930-641638-642338-654098-691434
2796.29-695190-679710-729972-750736-705126-677528
2799.19-736490-729644-641134-641430-711696-709580
2802.08-697226-737644-727246-681702-731986-785392
2804.97-790856-802532-825160-766808-683100-679112
2807.87-751948-789566-806104-832236-838658-822704
2810.76-836394-860460-868368-801582-716888-707816
2813.65-758466-781540-794920-852396-913722-853222
2816.54-783212-837362-940310-940102-902120-897602
2819.44-858718-797558-832608-889246-877092-861992
2822.33-945504-985972-930886-903920-952736-1008490
2825.22-1020528-1010362-975782-914860-919896-944572
2828.11-955880-893508-869996-918334-931454-950764
2831.01-988784-992876-992980-1028346-1043234-943716
2833.90-891054-908724-964428-1044620-1118978-1105538
2836.79-989032-937816-1043144-1114400-1113484-1141384
2839.69-1165814-1062676-937134-966212-1062778-1089324
2842.58-1120838-1054814-921890-847366-908596-1050186
2845.47-1092094-1062606-1033258-984336-979036-961096
2848.36-1012614-1082338-1078528-969062-806968-771382
2851.26-857858-964894-1082452-1027978-791784-554186
2854.15-537004-693182-833820-916854-917658-820118
2857.04-752720-747566-818742-902878-988124-995110
2859.93-890518-792022-741238-735476-841814-974468
2862.83-993252-855458-715292-619544-602152-677214
2865.72-801030-907748-904974-747136-584012-514090
2868.61-575406-710182-844230-847454-704868-540326
2871.51-493626-536604-593722-641548-677768-614064
2874.40-510240-459494-487364-561910-623004-599686
2877.29-533036-488050-516994-556782-580652-577378
2880.18-576308-545564-523726-544534-596826-620582
2883.08-650914-776036-1031080-1316582-1522120-1571778
2885.97-1540360-1422816-1285794-1214706-1215258-1302910
2888.86-1300194-1134318-1088038-1084878-1000582-1035852
2891.75-1202082-1138620-909650-861628-1006822-1057968
2894.65-995566-965126-987940-927466-768098-653894
2897.54-688414-805480-861980-808374-757750-726284
2900.43-765066-795932-744074-714040-768462-793066
2903.32-770542-681512-583240-572824-608220-608008
2906.22-650058-746328-813860-789776-731844-652586
2909.11-564756-459984-411998-515814-663606-639740
2912.00-485154-349724-250580-229160-337304-408822
2914.90-422792-383886-281192-115052 107380 201440
2917.79 128516 21412-66710 29300 305518 549314
2920.68 625234 585080 632786 716298 734130 908042
2923.57 1331736 1652354 1639592 1666190 2016786 2208740
2926.47 2022820 2079366 2709276 3095128 2940954 3303878
2929.36 4236554 4526376 4157440 4316854 5270720 5703142
2932.25 5653082 6261762 7160058 7406416 7015584 7263418
2935.14 8715998 9719120 9540112 9701358 11172920 11859670
2938.04 10974240 12058790 15711440 16524630 13569190 13747230
2940.93 17618870 17337590 15104350 20073310 26267040 22540640
2943.82 16625650 20675560 26522200 23323250 22528370 33146310
2946.72 37289900 27305220 22626320 30265860 34996450 31723790
2949.61 35392290 45804530 44406750 34062230 32054780 39119410
2952.50 44910200 46052730 48621060 53048210 52291320 44249560
2955.39 38568660 47248850 61238510 60584720 53801400 60077490
2958.29 65242540 50546360 41146210 62245820 78840060 63840980
2961.18 55519320 69325100 67692710 45643580 48840630 80269940
2964.07 82162200 55956290 58812230 80872020 70142740 47306840
2966.96 60191720 82789080 71456540 50274320 60499510 76971940
2969.86 64358930 49164060 57384390 70131040 59781180 42809690
2972.75 51011070 65977960 56884210 39516110 43082490 54619750
2975.64 44163310 29144760 38163540 51091370 39746630 25203370
2978.54 31316060 38937710 32577270 29685400 37608720 40856950
2981.43 32275290 24430590 22512190 18767300 12312510 11457140
2984.32 15803320 18639050 22897550 37168710 71270740 152285800
2987.21 309583000 428616300 323302000 121381900 30680750 16514670
2990.11 13136620 10954050 10791680 12215090 12559610 12223670
2993.00 16965610 24666480 24199350 19666170 24657480 31319680
2995.89 27451700 26863160 41991550 49535660 37988300 36453250
2998.78 51622330 53351380 43769700 53711790 71362760 65047850
3001.68 52935180 64778260 77739580 69011820 65866090 79167680
3004.57 85043780 76105420 74086110 88881890 94001100 82046380
3007.46 78697100 90244970 91307700 83308530 95726940 111357600
3010.36 94685900 76990100 88979540 93634180 82123380 94532770
3013.25 111467600 92474990 71551340 80507520 88314560 82364410
3016.14 91303930 102457100 89070860 72217610 72843060 81200100
3019.03 86741260 87649880 85954580 82886820 70902420 58543470
3021.93 65684680 78713990 72642220 63479230 70383860 69242900
3024.82 54818940 56607820 68337040 64138220 60909220 71983700
3027.71 73846000 60781220 53247600 54450640 53527020 49681500
3030.60 47234990 46765950 46103920 42774400 39390710 39975560
3033.50 39574700 38383560 42595440 48740160 51200300 50343600
3036.39 45866650 39314700 35258990 37363070 40845800 38518260
3039.28 34453140 35142360 36563360 33697350 31644610 37865810
3042.18 41475380 37555650 45091750 69570520 76940940 55178950
3045.07 39860300 40316650 40708080 36815100 35842380 38319350
3047.96 37246990 35058550 38434880 44891540 45836490 40834300
3050.85 35306090 42054150 67500480 78923780 58722880 39659890
3053.75 38611580 42458050 39246420 36134710 42215910 48119150
3056.64 42780130 37440310 44125880 51641050 49137480 50480070
3059.53 80197470 136603000 144898400 89631070 55662600 52759600
3062.42 49843040 50292200 56062300 53450540 45842580 48176900
3065.32 55475760 56692490 56496850 57976400 65256880 89872600
3068.21 122841400 121789300 94934800 79982340 66811850 55400120
3071.10 57682380 62092380 59423590 57749720 67284150 78348030
3074.00 76694040 80297890 93473560 105497700 135545700 177633000
3076.89 168930800 115444000 82728920 79383740 79491950 73506260
3079.78 70063860 75919280 80883930 78166820 71748430 72216630
3082.67 79719840 79885100 86358960 106942100 105577700 85575200
3085.57 78837700 81591820 85740830 90219660 95308120 107283100
3088.46 106397300 83294160 71210270 74012700 73099320 71254500
3091.35 73717820 84027540 91805980 94078420 112272700 138528100
3094.24 131000000 86895000 56374110 55483330 62545610 59112390
3097.14 54068760 57214000 66375100 80521820 90172220 86518140
3100.03 79126020 73987380 64206740 54220580 52188860 50816900
3102.92 47463320 48739850 49056380 46993670 45925130 42084650
3105.82 36249180 35347050 38662500 41052680 46293130 57790970
3108.71 67777540 69733390 69404740 70577950 65710070 56802920
3111.60 54486720 58929820 60402930 61433280 72879080 101401100
3114.49 119781500 102499800 79383380 75061920 73159880 70614420
3117.39 75807700 81927810 104506700 128572400 121992200 110376100
3120.28 102893600 98701460 102787200 103815700 105354100 109377300
3123.17 114674400 139622800 166815500 149737800 114647400 100524500
3126.06 95951140 93696350 94494100 88904540 80709680 85035360
3128.96 97501720 101223200 97324820 103193700 140791900 177625400
3131.85 149733400 99562610 87521100 86968380 79474380 78547550
3134.74 78212420 69716750 71691750 81617340 77254000 82758900
3137.64 113490000 143900900 182509000 203594100 145743300 75193580
3140.53 61958720 62583560 56256900 62107070 69816860 61646830
3143.42 50127350 52831850 61054070 64002790 70336230 84961260
3146.31 102313300 104132400 79985940 58763880 61563240 61801580
3149.21 51036420 51390420 55588860 47790240 42486260 52150880
3152.10 61483850 60853940 67764460 94342060 119470800 105093200
3154.99 63710680 42267020 37076600 29543330 30642060 42872820
3157.88 46616930 38951220 37624930 43145010 41835610 39618360
3160.78 51691450 68168830 67527500 50767610 38526620 33744340
3163.67 28350190 27495420 31811790 31959920 26745050 25132820
3166.56 30394020 41247520 48499630 48450410 58335560 77326690
3169.46 71149110 41578610 29709920 34264600 30387650 25029080
3172.35 30927490 33115510 24817650 22512980 28890940 31489890
3175.24 29790990 34029780 44929480 45947650 33160440 27338790
3178.13 31515750 30051640 23544990 23928060 27938800 25808950
3181.03 22030080 24120390 27028580 25348180 26653120 34563710
3183.92 35016540 24227160 18939940 24267980 29067560 25794000
3186.81 22020270 24470290 25871510 21566620 19738660 23803140
3189.70 24624670 21244150 23089120 26817220 22579540 16356110
3192.60 17000780 18948300 15958670 13903680 18293880 22140890
3195.49 18256710 15091050 19193640 21249650 18350690 19447690
3198.38 22161640 17581330 11781280 12900550 14716830 11643440
3201.27 10093920 12482880 12305430 9678232 10496700 14848060
3204.17 17860930 15933020 13605000 14869040 14907790 11592530
3207.06 10658680 12936500 12357920 9508206 9876374 11459800
3209.95 9946662 8242770 9539456 10473590 9061916 8673526
3212.85 10718190 11163060 8412478 7508118 9357776 8939468
3215.74 6662696 7006488 8366034 6920916 5367774 6657592
3218.63 7366400 5518020 4842306 6008166 5384588 3854438
3221.52 5228746 7912416 7154602 4862516 5752270 7074382
3224.42 5400800 4208926 5636578 5914436 4152772 3853878
3227.31 4882938 4272356 3059390 3506338 4071194 3107558
3230.20 2669668 4012818 4522648 3133402 2825634 3808904
3233.09 3341404 2157278 2556570 3126846 2300844 1758558
3235.99 2372738 2378984 1565648 1534328 2050920 1761516
3238.88 1339488 2100348 2931186 2203216 1529692 2150124
3241.77 2258586 1330396 1252500 1912706 1602254 930672
3244.67 1251076 1493434 883752 685376 1159546 1059756
3247.56 597232 835950 1255878 894126 563166 901648
3250.45 988920 546692 511786 774642 571820 286154
3253.34 482842 594316 313308 203580 395898 343818
3256.24 154128 354868 604088 329602 112412 332812
3259.13 374916 99508 119120 307348 182034 7778
3262.02 117766 131464-71842-119746-17580-79264
3264.91-136408 26096 89282-105826-117054 21522
3267.81-29988-161482-112434-69264-194490-277618
3270.70-220708-212408-225576-176922-148246-221366
3273.59-233794-145206-122972-200618-212180-226026
3276.49-301140-300254-226528-261392-318290-298346
3279.38-274656-316482-337714-319396-334400-386760
3282.27-366360-324702-343984-348272-289192-299110
3285.16-349836-343910-310618-348582-391952-393364
3288.06-370116-362208-320484-298904-324976-363072
3290.95-378368-387414-380012-344686-312540-337778
3293.84-340062-307512-300514-321948-338080-388698
3296.73-424000-406082-347716-300818-306538-368306
3299.63-399422-400110-426184-457774-433820-411138
3302.52-398568-413506-416056-390204-378306-365340
3305.41-322814-325042-374698-424362-416178-414170
3308.31-440600-460254-444346-417720-387554-392572
3311.20-430834-456410-413048-368034-356688-379412
3314.09-393380-409438-432278-466406-482022-473920
3316.98-442462-446786-482730-526148-524858-480990
3319.88-425694-391040-391372-429386-427122-413606
3322.77-411362-402888-377056-356796-361704-425776
3325.66-469050-451718-411278-403116-410786-429840
3328.55-426710-432316-456084-471920-445724-452808
3331.45-473974-459776-435450-435276-462774-509742
3334.34-478954-395626-381332-440044-429796-395542
3337.23-408766-426882-401630-375072-375472-414036
3340.13-433848-408336-374548-394358-395808-383254
3343.02-417694-464800-459560-458658-484474-499574
3345.91-459776-443064-480218-506628-468910-404322
3348.80-340844-316010-340386-359274-326792-337020
3351.70-375156-399822-417202-443778-441676-449510
3354.59-493298-537396-527148-491462-465284-449788
3357.48-416758-398736-389114-413906-447912-430396
3360.37-397740-431040-452770-414612-373318-382826
3363.27-412124-454652-465242-450538-444746-444466
3366.16-425128-423260-438692-427986-352008-306514
3369.05-342664-402026-421638-434538-425334-389570
3371.95-392916-426510-407306-387582-407578-466304
3374.84-524280-551322-525426-479030-424886-396520
3377.73-423030-477600-480364-443498-384890-362854
3380.62-373730-382480-384710-431038-472180-455062
3383.52-417302-426800-437008-413960-376786-374580
3386.41-387266-400490-392414-406738-421752-398796
3389.30-384980-442042-491840-503012-474718-458192
3392.19-478148-508558-486772-424148-382556-428506
3395.09-490420-512616-499014-475798-423784-392568
3397.98-411614-435304-409778-373534-384826-459946
3400.87-520870-519594-494634-515128-546048-536580
3403.77-490622-504600-552528-588582-589160-568566
3406.66-531774-494250-477800-464564-426448-425374
3409.55-450374-495338-548008-579158-561284-538572
3412.44-535340-526194-500404-511782-499506-468998
3415.34-471984-504244-523340-523706-491708-453504
3418.23-431992-438594-457472-493260-532442-562750
3421.12-523928-466118-493256-578808-610074-605074
3424.01-587784-573632-518370-451940-471882-555264
3426.91-542800-479252-469106-510954-538124-529368
3429.80-512632-495292-482544-493280-449728-410842
3432.69-428088-453844-468418-518130-547768-544314
3435.59-526840-515376-501758-488192-501730-562928
3438.48-581784-560328-531186-506048-513566-581464
3441.37-635782-619966-544212-487540-469406-461912
3444.26-420726-387906-387744-410240-438808-492676
3447.16-556926-594992-554084-495698-511558-567728
3450.05-568910-575372-606602-593916-506356-450540
3452.94-501206-572368-562764-548676-550096-530982
3455.83-481512-464854-486158-518692-551572-575286
3458.73-583042-605990-586540-525140-466422-472698
3461.62-513852-537118-519382-496330-489546-499230
3464.51-474242-443462-454054-445344-395170-394306
3467.40-429346-464682-495454-530892-542324-521422
3470.30-468716-443250-444226-445710-435888-459044
3473.19-510662-509684-438420-423516-431978-432968
3476.08-462050-515594-530530-495136-448312-442714
3478.98-447144-455522-441950-371064-328950-389080
3481.87-431566-374286-342310-445210-495812-443104
3484.76-415690-457406-478912-441674-393122-417174
3487.65-472120-489526-468694-455906-459400-462570
3490.55-442768-482718-530306-510294-466446-484268
3493.44-517672-518272-498262-496134-524822-552640
3496.33-519146-478516-475996-480770-461642-485594
3499.22-504488-468194-457698-484498-484642-424848
3502.12-312896-256292-203086-128910-152308-285794
3505.01-406206-470246-498854-524764-542656-559974
3507.90-547792-521562-496778-506240-499070-445000
3510.80-401698-423726-466698-465854-434478-471394
3513.69-510944-474932-430808-470168-497682-446698
3516.58-400152-419424-428332-411188-424902-431504
3519.47-405804-441444-458810-411148-373288-358682
3522.37-343462-375582-426140-410886-316624-273040
3525.26-295654-335024-388208-448566-443390-400882
3528.15-382540-383372-379198-410922-437640-447206
3531.04-478966-492232-422160-375498-378186-354470
3533.94-335518-356546-323930-303534-348530-388868
3536.83-397654-405570-420376-449430-439192-418800
3539.72-431122-455778-458084-474560-477762-469740
3542.62-482364-495484-468474-437524-412800-406084
3545.51-414390-443602-463032-488110-538906-577046
3548.40-553198-497126-484106-506314-461488-447552
3551.29-517126-552118-513194-485252-490766-505068
3554.19-494124-501172-507930-500226-474352-439376
3557.08-454016-512616-519500-493126-489942-521886
3559.97-536734-551712-554114-527992-509678-527256
3562.86-521618-521620-545432-554934-537960-543606
3565.76-572180-564500-500194-491954-541248-549936
3568.65-510390-492272-486982-495826-516394-523518
3571.54-508874-517410-530122-528128-488848-471704
3574.44-494018-492132-459894-463794-501192-523376
3577.33-509732-508764-505906-517414-504790-466952
3580.22-468568-512156-515374-483634-436740-416352
3583.11-434962-441520-417454-408866-426264-476328
3586.01-532886-576138-577904-562840-554558-517154
3588.90-445154-419896-443194-511370-537172-505682
3591.79-486400-499616-552100-593504-539952-483978
3594.68-503644-549786-544810-544130-556922-531424
3597.58-483918-470152-447290-446230-502912-555632
3600.47-541534-514118-504380-488606-451042-470266
3603.36-508102-503960-488318-505376-508110-480936
3606.26-458542-461270-481670-532878-564006-573246
3609.15-520548-450068-430634-466424-509810-533278
3612.04-540844-528884-498208-478412-448226-431890
3614.93-438912-480434-514780-519284-512842-510236
3617.83-486276-485630-512478-531740-515922-492594
3620.72-482840-477914-439278-418100-423338-453774
3623.61-491246-498774-481296-466168-444670-446778
3626.50-465650-478928-498978-552750-595122-623486
3629.40-563388-472492-454246-467386-462088-452586
3632.29-445278-469922-497932-494234-454706-456164
3635.18-503090-509606-484850-491374-493968-485330
3638.08-475144-505134-539466-548236-527884-505204
3640.97-486686-482336-461816-431052-422734-450484
3643.86-459086-445666-455430-496002-510442-507314
3646.75-483646-446420-435886-497964-558072-555000
3649.65-522092-527600-540220-527218-496202-490938
3652.54-504086-528814-562850-609452-586466-539066
3655.43-559142-566612-486130-481512-542382-546924
3658.32-528808-546768-518044-482280-491614-472806
3661.22-426960-439576-465490-463526-456878-484204
3664.11-507076-506346-465592-426538-430140-442798
3667.00-408282-415960-497830-570306-571312-550606
3669.90-552798-545172-465748-420638-459988-508076
3672.79-502650-492300-527288-576860-543750-514540
3675.68-526442-520574-496970-511324-522432-521786
3678.57-531638-495158-414082-413482-497898-564384
3681.47-583916-552016-488692-467470-471888-495568
3684.36-473324-438608-451542-508156-568430-624338
3687.25-648506-646482-607690-572546-547604-538890
3690.14-606374-700344-624182-472786-469914-561666
3693.04-599586-609022-583722-536190-542840-579994
3695.93-600996-630454-576810-475522-464670-533124
3698.82-590258-669974-707094-644682-564402-528680
3701.72-514496-572434-690174-778258-742386-622336
3704.61-480922-395514-427476-549248-638792-671270
3707.50-699096-686618-591142-586526-649428-606820
3710.39-527414-577710-722060-808198-729198-558798
3713.29-387554-351354-478606-630338-698672-784946
3716.18-740140-475162-341172-460216-589088-639024
3719.07-690232-792336-783718-611166-509156-601154
3721.96-698904-674112-572410-568252-653768-610696
3724.86-483282-533216-612606-568980-550380-663416
3727.75-810904-836214-714616-574468-420782-342560
3730.64-422722-633568-830208-805472-548832-406920
3733.54-518016-692380-781228-869916-944268-894062
3736.43-638032-354290-337384-543958-662898-650198
3739.32-670296-671722-527444-405542-471696-598002
3742.21-629484-662360-797716-923134-797444-550790
3745.11-479912-548318-600772-637596-647776-617256
3748.00-543112-560362-614682-587260-555704-591990
3750.89-702696-778944-632156-423800-386310-465994
3753.78-545228-630520-723808-698524-518138-392304
3756.68-364910-427332-534642-623856-684936-644906
3759.57-507034-410716-375796-415270-506860-601454
3762.46-613106-490116-390084-411566-444016-490548
3765.35-541714-556418-511570-417096-354356-344510
3768.25-325128-324386-368502-425692-413000-373596
3771.14-395560-432682-420870-453566-552954-684330
3774.03-798284-916004-1032700-1170020-1344152-1447690
3776.93-1162452-339620 427760 482534 142238-122068
3779.82-288762-417090-465246-470166-492340-525956
3782.71-512606-489098-477698-466130-438738-416690
3785.60-413154-448566-462370-453620-479138-507124
3788.50-434076-315558-252694-271386-351058-480774
3791.39-563466-507356-347406-254280-273314-380806
3794.28-521628-599994-504468-276726-124996-174376
3797.17-324220-463616-544832-611108-518978-284610
3800.07-210742-404886-610886-655896-592050-456330
3802.96-211848-68858-164230-356568-501834-604174
3805.85-628458-430756-106112-33542-235644-445800
3808.75-546674-610072-487772-171458-62150-273280
3811.64-485804-596568-689252-589342-242546-100168
3814.53-291988-511470-582350-637822-623066-317250
3817.42-9056-50420-262898-466380-658844-714332
3820.32-474606-246290-295640-444854-492072-593008
3823.21-660526-448982-183454-197558-342910-439226
3826.10-536120-531154-240804-28942-190584-398156
3828.99-470898-632234-707948-445246-171802-247654
3831.89-452660-570712-649696-564978-294014-217012
3834.78-356144-479982-552308-646710-635216-461044
3837.67-309196-361050-505220-617254-655154-508512
3840.57-271860-243958-454922-634186-619120-552118
3843.46-383224-169224-157548-329408-492350-557884
3846.35-441218-174944-32632-181218-418992-593400
3849.24-641888-481680-195512-123154-309308-487942
3852.14-548042-523732-419832-367432-374088-374088
3855.03-422668-505872-359004-35780 37758-127844
3857.92-264204-387084-465944-351758-141834-111062
3860.81-228948-315080-331470-338294-244022-128632
3863.71-156526-258518-321828-348076-314032-251960
3866.60-216524-225000-239702-275432-291144-306176
3869.49-316602-234788-162358-203046-226920-227668
3872.39-233466-240958-260158-284538-258246-237238
3875.28-267320-298696-302776-293148-230396-160334
3878.17-96484-118496-189242-235888-264776-289614
3881.06-301206-290352-283824-309412-281576-257790
3883.96-281622-293090-295348-337168-368374-376158
3886.85-333044-223508-137862-154890-192964-240022
3889.74-267800-302206-326458-289094-264358-258982
3892.63-225966-248134-279464-279404-301740-342754
3895.53-330362-335580-351590-308384-227140-199270
3898.42-278382-361416-312078-269452-298918-338154
3901.31-374098-400500-378674-355746-378186-401666
3904.21-365144-357338-355192-306042-259992-248912
3907.10-259548-323942-373640-358992-307192-284702
3909.99-242890-200182-239940-318844-317524-297004
3912.88-332890-381060-367934-352382-340936-328308
3915.78-312476-294840-269598-240112-166200-99770
3918.67-102448-115762-21362 105810 91612-37712
3921.56-128962-195082-213054-194486-199420-229026
3924.45-244424-273830-289948-282974-263842-282310
3927.35-329564-347748-324260-287726-245268-286992
3930.24-339638-347170-316254-275106-313608-384126
3933.13-359778-331072-342266-362414-357404-332138
3936.03-305408-325670-350858-333494-307076-324992
3938.92-354194-356496-314000-274010-278956-347276
3941.81-384864-356204-338710-376060-405258-382614
3944.70-319408-293560-295778-296708-304626-333790
3947.60-336538-368380-430946-468968-459884-420540
3950.49-380444-387824-391158-351650-257216-172888
3953.38-166696-237886-299896-348054-368062-384600
3956.27-397024-382272-349412-312750-241640-196266
3959.17-194184-210490-230672-276160-337508-372128
3962.06-321098-274304-314216-370290-327372-237312
3964.95-180194-160096-133004-166964-235738-257088
3967.85-245710-287702-349808-364716-303952-232890
3970.74-177520-159044-160290-164192-199814-286236
3973.63-321304-316792-323320
##END=
