##TITLE=Bromomethane
##JCAMP-DX=4.24
##DATA TYPE=INFRARED SPECTRUM
##CLASS=IUPAC A
##ORIGIN=NIST, Anayltical Chemistry Division, 301-975-3108
##OWNER=COPYRIGHT (C) 1998 by the U.S. Secretary of Commerce
##DATE=98/10/1
##$SPECTRA VERSION=1.00
##$UNCERTAINTY IN Y=2.8 % relative (B=2.0E-04,C=3.3E-09,D=2.7E-14)
##CAS NAME=Bromomethane
##CAS REGISTRY NO=74-83-9
##MOLFORM=C H3 Br
##MP=-93.6 C
##BP=3.56 C
##$NIST SOURCE=QUANT-IR
##SPECTROMETER/DATA SYSTEM=IFS66V (Bruker)
##INSTRUMENT PARAMETERS=KBr Beam splitter; MCT Detector; Multipass cell
##STATE=gas
##SAMPLE DESCRIPTION=Bromomethane Primary Gas Standard
##PRESSURE=101.3 kPa
##TEMPERATURE=23 C
##SAMPLING PROCEDURE=1 L/min Flow
##RESOLUTION=1.9290
##DATA PROCESSING=Triangular Apodization
##XUNITS=cm-1
##YUNITS=(micromol/mol)-1m-1 (base 10)
##XFACTOR=1.0
##YFACTOR=5.6843E-14
##DELTAX=0.9645
##FIRSTX=574.687
##LASTX=3974.595
##FIRSTY=6.41E-06
##MAXX=3973.63
##MINX=574.69
##MAXY=.0000739
##MINY=-3.20E-07
##NPOINTS=3527
##XYDATA=(X++(Y..Y))
574.69 112921100 123261200 142110100 165946800 185229800 205583200
579.51 227197500 253173900 281506800 310143700 343460500 372455200
585.29 403741200 441896500 471159300 500768800 533928500 565538400
591.08 598290900 625524500 644855200 660134800 669375800 676438100
596.86 676817100 669655400 656639800 645735500 639879000 607126500
602.65 529943500 453501900 397711200 360668700 356830800 503668200
608.44 743496000 728810500 444475600 274199800 317643900 401671000
614.22 498284700 595701400 686214100 764332800 824246700 868190100
620.01 894752000 904205300 896905700 873919000 835937300 786980700
625.79 729394500 664993100 597125200 527124000 456218200 387652500
631.58 324304600 265632800 212072400 165178000 125632500 94785740
637.36 68929040 49535030 35943930 24811550 17106490 11831930
643.15 9273184 7950984 6317396 5324554 5203946 5751406
648.93 5180706 3957736 3541718 3526790 3242434 3813122
654.72 4289862 3208950 2643160 2830882 2831890 2878448
660.50 2848872 3114522 2686124 1810142 2023802 2606002
666.29 4639500 4720152 2126012 1166724 1732856 2108776
672.08 1552136 1636678 2271172 2785510 2128908 1321486
677.86 1144406 2132504 1982486 1480550 2250902 1168370
683.65 818980 1608746 1629330 1876116 1579746 949184
689.43 1392216 1425020 874912 1182040 1010402 962488
695.22 1388856 1055782 535812 1256550 1658226 1737828
701.00 1669860 908194 883604 928576 125092 331262
706.79 864156 745164 1249032 1591110 1156394 1180442
712.57 1403378 646620 808912 1090210 419284 764226
718.36 1160952 1465424 1291068 769434 808854 1097278
724.14 1132940 862438 1029548 803702 579252 662084
729.93 943226 1162170 1095964 976316 840128 605186
735.71 980388 1459606 1075650 1164100 1559366 1541650
741.50 978106 917758 1504850 1742072 1454460 1212712
747.29 1149088 582082 869204 1345962 1435020 1699834
753.07 1278774 862492 1121536 1334082 841094 751286
758.86 1025124 883936 863818 1191580 911134 107326
764.64 594954 1001430 822592 1225338 1052510 736878
770.43 993844 804470 405910 787502 1169174 926762
776.21 480518 187620 567106 1226312 1338798 1656290
782.00 1569204 900054 637664 322208 275336 455924
787.78 710454 1034230 1093936 1318886 1448794 1512324
793.57 1070516 517236 313972 91552 116800 366956
799.35 1136818 1464336 1291552 1194700 763758 864096
805.14 579774 362000 1448136 1544518 547710 879544
810.93 1244458 783296 678554 1324092 1655528 967284
816.71 153678 611006 1185156 1307348 1402306 1314094
822.50 908092 642496 932250 992588 1258050 1920058
828.28 1996458 1409598 1120038 1155680 1347146 1373372
834.07 1199220 1490668 1782490 1680206 1628514 2193300
839.85 2474416 2152404 2368448 2532902 2771616 3266180
845.64 3108084 3190982 3044466 3227990 3765910 3798724
851.42 3954682 3820958 4146316 4802822 5357852 5732126
857.21 6252532 7030506 7071152 7094490 7830332 9153746
862.99 10461560 10819080 10045210 9934398 10328300 11086980
868.78 13050500 17167830 20912260 18239890 15592870 16251460
874.57 17551560 19766550 23762740 27904730 25039920 21731480
880.35 22561560 24385750 27356310 34033240 41483170 38240980
886.14 32432830 29103050 29746330 35821840 53021120 76857700
891.92 64042670 43617170 41804070 40453160 45370080 57136680
897.71 79570140 76771650 58885540 59891090 58381340 59419620
903.49 71899990 103238600 113093900 83908740 80670670 81408460
909.28 77036970 89037570 156934400 224121800 148254800 82926930
915.06 87487600 84569090 90035680 116718200 183107800 172029800
920.85 106194700 102842800 105107100 108406400 124943400 191358000
926.63 240871800 162163500 118991100 133372800 129086900 149737400
932.42 234011200 426553200 381984000 154503000 118691300 122119000
938.21 122926100 144391200 234005500 327390800 225990600 126756600
943.99 137130600 136438800 143492900 177833600 304884700 340940600
949.78 189485800 134567000 156892400 153688900 166791600 276776700
955.56 575929100 529529300 198019000 138050600 144600000 145879600
961.35 160543900 244531200 368828600 284649800 150671800 145450500
967.13 148236100 153502700 165389900 258184000 346255600 234638600
972.92 132142700 142667500 147735200 160482700 191391800 371579000
978.70 490359000 265943200 115640100 130573900 132645200 141753900
984.49 152826000 230938000 270298100 175013000 113624700 116154500
990.27 120958700 128876500 135006300 193620400 220245500 141100600
996.06 93264170 93225540 97981140 115203300 128917500 213224400
1001.85 262504100 147996300 75051490 71938380 68401910 87121870
1007.63 98319710 124471000 144166800 106061100 74187420 70576610
1013.42 64638350 67287750 73429110 88879970 104665400 81995730
1019.20 55083620 51090800 46952950 47183000 52209450 70596510
1024.99 98179640 79524100 41971250 34822280 31159410 29638360
1030.77 29556390 36868210 51467370 50577340 37197080 31881600
1036.56 29098110 27123590 26256450 25951420 30793980 33806240
1042.34 26093980 21152520 19735560 17602560 16408940 16862370
1048.13 19628800 24144310 19949580 13412040 11851970 10303120
1053.91 9423900 9045928 9233468 10456590 11419130 11068440
1059.70 10063200 9236332 8310062 7658630 7279258 7521384
1065.48 7203194 6338196 5925848 5461810 4958192 4864050
1071.27 4544732 4083920 4496268 4232390 3136946 2954018
1077.06 2935722 2808062 2393812 2114390 2140130 2023902
1082.84 1873524 2321806 2526524 2437776 2153338 1830510
1088.63 1866740 1627118 1459560 1419712 1149766 1269878
1094.41 1468694 1390818 1103834 1310626 1519946 1213208
1100.20 1040294 1032870 1121070 1160124 784290 876886
1105.98 1255788 1192456 1089636 1031158 758246 705018
1111.77 867976 1082222 1140648 702460 506502 633390
1117.55 684296 772040 1021340 1090040 965266 628626
1123.34 433680 674008 580404 945120 1056402 787748
1129.12 854540 726094 637656 433834 254992 351868
1134.91 667572 905486 575550 474010 754504 758994
1140.70 705000 770752 685990 804648 749102 629158
1146.48 638634 749504 883314 1026432 1000558 861358
1152.27 1006482 1080572 1066928 1307236 1520638 1122834
1158.05 826720 1163216 1128354 1084916 1390764 1518574
1163.84 1421316 1342760 1246100 1315960 1559244 1470134
1169.62 1430758 1317410 1459370 1791934 1814102 2067694
1175.41 1845856 1928950 2373802 2161334 2208064 2332862
1181.19 2401318 2553740 2616800 2703698 2828922 3149812
1186.98 3413044 3560814 3537216 3252894 3149648 3448576
1192.76 3799844 4203026 4510836 4390594 4263200 4323174
1198.55 4428962 4648252 4661334 4686178 4868938 4542970
1204.34 4305470 4419992 4304644 4310824 4247328 4116884
1210.12 4384458 4419474 4523870 4574760 3583436 3199152
1215.91 3548514 3934820 4440748 4988618 5910652 6556696
1221.69 6921956 7062256 7005474 7394800 7243442 6689818
1227.48 6581674 6131886 5499708 4855878 4463692 4200480
1233.26 3832520 3236810 3215336 3025706 2769626 3333524
1239.05 3615412 3941372 4316762 4374980 4643552 4984696
1244.83 5341152 6216812 6532046 6565888 7295456 7987756
1250.62 8521852 9633444 11112510 12511870 14601000 17047830
1256.40 19893940 23392910 27566340 31685630 36340840 42063290
1262.19 48703540 56489490 65289730 75441370 87386110 101083200
1267.98 116611200 133986700 153742200 176322600 200972900 227239100
1273.76 256562000 289204500 324596900 362778100 403812800 447316800
1279.55 493755800 542432800 593164600 645308500 698413100 750637400
1285.33 801274200 850211000 897170500 939774800 978365800 1010706000
1291.12 1030875000 1040375000 1042618000 1032357000 1005355000 961278500
1296.90 902231400 827513100 742481100 656164500 561553000 431543000
1302.69 335883500 386188100 874919900 1094005000 641128500 425569900
1308.47 525928600 656659000 767846800 885344600 1007211000 1113416000
1314.26 1199029000 1258895000 1292403000 1300141000 1282946000 1241275000
1320.04 1184095000 1112477000 1029640000 937997600 846049900 759727600
1325.83 666965500 568749600 476942000 394336600 321821700 259605500
1331.61 201530500 151400700 117039400 93979780 79048870 79628890
1337.40 118321300 129603700 93270310 66238190 50913020 42820320
1343.19 38936420 37026910 32543640 28709550 30233080 35335720
1348.97 44622930 85708760 107082600 77585990 57693940 50604420
1354.76 48366840 48641300 50028670 52855080 50127980 47521790
1360.54 55592740 65813220 126640000 165213600 114773700 81094580
1366.33 71634460 68204110 69516530 71125780 73886040 72765100
1372.11 60648340 71967090 87717340 256737200 367054600 201764500
1377.90 96532300 71806950 60722700 61790540 63346500 67670070
1383.68 73442900 76538380 83196470 92635890 218492600 285375600
1389.47 161293900 98603930 88449420 85436550 88722370 91877500
1395.25 97828350 106294900 117986500 122742000 135826600 314671900
1401.04 358943200 183538300 120269800 110140200 105338600 108138600
1406.83 109439000 116283300 120436700 161961700 158808700 245760000
1412.61 707053600 639712800 212186200 125343000 101061200 100505900
1418.40 102437200 106253900 113329100 125943100 155172100 140957600
1424.18 275595800 521352100 349506300 151683100 136972100 126013600
1429.97 129449500 132182400 137748000 140913900 157547900 174955900
1435.75 174204800 446047600 560550300 261970000 145026200 140306800
1441.54 127725600 135243800 124587200 136575800 160046100 211152500
1447.32 141881700 585255900 1036125000 441360500 133311500 155779100
1453.11 123271600 137230700 130255600 137357500 141526900 165163000
1458.89 167395000 173744900 441203700 521939000 238413400 156262900
1464.68 152660000 143576400 145185400 138563600 145246900 154927900
1470.47 169326500 145676600 314857100 508685900 289203300 137779000
1476.25 143459300 124639900 127782500 114271800 126398900 143578800
1482.04 159057800 118187200 318988900 746340500 478059600 135279400
1487.82 156271400 134841300 141527500 130065200 138146900 142178800
1493.61 146707700 130518300 196728200 377700700 289252900 124908600
1499.39 130943200 125228900 126270400 116299300 121278000 120487700
1505.18 118355900 105460600 157409200 291326500 211599400 86476600
1510.96 88780360 84933690 91803170 83299590 97158020 92257510
1516.75 89345090 74462990 186494400 364975600 205125200 64304030
1522.53 71321650 69758460 92210710 91589160 96393320 88092280
1528.32 87679280 83211410 141903500 173990800 97182250 67295290
1534.11 65722020 61740140 69170220 72557180 70594000 65437460
1539.89 61854420 68920430 115149300 97647450 48538190 43193880
1545.68 37839650 36599770 41990590 46563720 40497300 40730780
1551.46 37018360 81086230 114989400 54044770 28170870 28767640
1557.25 25192160 26482900 32893440 39122330 39004130 37238970
1563.03 42379040 57184640 43711410 28540800 27803400 25491520
1568.82 24910770 23322040 23716290 24710410 23638590 24549860
1574.60 34050740 29811240 18896570 17259230 15480980 14432680
1580.39 13216270 12367340 14172660 15516770 16953780 27058160
1586.17 23783910 11701080 10348740 9728330 9428690 9064100
1591.96 8768454 9208484 11156920 12428720 14633150 13195750
1597.74 10390810 10163140 9921170 9554066 8762902 7788288
1603.53 7304786 7298136 8496062 10028510 9108404 7992124
1609.32 7385926 6427722 5853700 5494856 5383582 5520394
1615.10 6199488 7411444 7189746 5500850 4814460 4722024
1620.89 4887226 4893292 4717816 4369022 4342214 4240820
1626.67 4443728 4611878 4313956 3895722 3957532 4113592
1632.46 3785722 3777508 3795338 2950392 2752838 2569894
1638.24 2325658 2561050 2578554 2430874 2355318 2042054
1644.03 2104778 2470070 2342572 2151680 2028790 2087232
1649.81 1936072 2249906 3159046 2674646 1855150 1495236
1655.60 1283334 1241294 1368140 1143520 859982 929938
1661.38 1298636 1332144 898448 773244 984358 1145816
1667.17 1130784 1320260 1011662 760946 1016666 922368
1672.96 822552 1257060 1261414 831580 774884 585118
1678.74 698610 863000 867550 779412 1127676 1782298
1684.53 1554564 855516 700120 766004 853504 638906
1690.31 299754 183600 518034 770120 1346992 1602182
1696.10 765964 475878 839544 1477166 1412976 663942
1701.88 420908 573040 807932 661116 436822 311448
1707.67 432588 570378 552734 473128 617854 524122
1713.45 710718 760914 771472 1474710 1204452 768816
1719.24 724214 668530 629680 595426 501840 286614
1725.02 497710 649504 471108 478454 697732 691954
1730.81 676066 919480 1329504 1363194 891862 544158
1736.60 603170 575112 782220 975744 713010 548676
1742.38 628726 711152 677864 632874 671990 742450
1748.17 606098 467060 789586 710628 596068 842184
1753.95 840790 716178 689550 502506 481356 517338
1759.74 496828 799428 935836 848338 674614 458094
1765.52 368602 534974 732522 636120 713020 867378
1771.31 1056338 1058782 755096 596364 544506 505288
1777.09 540254 585404 487040 255758 311862 270112
1782.88 236770 576268 762424 528020 337844 325432
1788.66 506572 769378 724314 855564 648236 352932
1794.45 446592 561768 459494 300292 538858 507606
1800.24 290068 338530 501150 484482 376008 340498
1806.02 340758 329824 455642 479218 353460 383132
1811.81 565732 523566 353720 293606 262186 355652
1817.59 510880 549040 536952 472334 396766 213428
1823.38-30398-116640-20730 506958 730444 574920
1829.16 577192 523796 582864 461648 381692 482774
1834.95 746160 1076820 729844 112022-43630 46986
1840.73 320410 330460 533562 618580 331380 408838
1846.52 527878 560388 655308 754144 546216 124566
1852.30-121564-172244 201594 734654 704722 602916
1858.09 573926 413244 464800 877740 1099134 1205876
1863.88 1187962 601580 163114-55238-45860 520510
1869.66 1415768 1708764 1560748 1472436 1446432 1847924
1875.45 2478910 3184162 3899288 3693178 2830754 2610950
1881.23 2684732 2719794 3148958 4008284 4715420 4847398
1887.02 4896066 5190432 5668018 6079744 6596052 7171452
1892.80 7018436 6723122 6462768 6062306 5879328 5735348
1898.59 6299864 7032454 6774426 6309516 6383566 6290010
1904.37 5777876 5612518 5600544 4719726 3984798 4517934
1910.16 6044038 6690464 4829656 3597238 5048550 5872418
1915.94 6252492 7200702 7893868 8886928 10282780 10974520
1921.73 10414740 10003790 9784564 9124260 8137474 7180766
1927.51 6370512 6024862 5443546 4337786 3246514 2213586
1933.30 1732410 1422886 972140 732474 531968 247822
1939.09 56146-218824-369952-710360-620838 225154
1944.87 346212 245674 274136 252554 419342 422362
1950.66 87508-107210 2734-76116-201434-660396
1956.44-1182396-1384432-902556 211620 707216 630440
1962.23 451390 752904 1086966 471902-1754 113256
1968.01 226886 225126 241542-71578-343228-417844
1973.80-196202 337436 452020 412964 435884 541152
1979.58 370768 195612 245102 378582 410914 150126
1985.37 35906-141140-327650-435288-50844 424914
1991.15 278404 262520 601734 602312 359690 237474
1996.94 169272 289846 547010 459282 158096-71032
2002.73-383728-632418-280492 468982 732868 659768
2008.51 634894 351334 77492 28168 155364 156872
2014.30 121968 307988 198590-2110 40688-54000
2020.08-74950 122576 243446 224584 195196 152720
2025.87-49364-54432 241492 299524 191848 88114
2031.65 237070 272040-82822-143526-164392 84430
2037.44 357148 225524 132106 197878 277110 180484
2043.22 260506 410248 361604 230754 138650 82508
2049.01 49438 60540-30914 3372 335858 626662
2054.79 797160 735722 529644 455022 447306 380336
2060.58 316124 397592 545984 434070 70578-91034
2066.37 46598 452502 576990 427344 292732 201174
2072.15 443810 485134 409718 282202 273884 575878
2077.94 488038 457452 636222 667196 381278 231816
2083.72 283586 578298 456700 133418 228972 266096
2089.51 776784 774076 489384 404336 751650 817938
2095.29 389466 361334 592596 876680 402368 15840
2101.08 250898 978166 905388 282004 241786 874362
2106.86 918772 291362 262396 812772 1265772 704454
2112.65 271124 676142 1202430 696846 257248 583960
2118.43 1117484 788676 176288 214206 864650 859030
2124.22 394550 405314 658556 666192 337992 306194
2130.01 570538 751066 450204 494556 701594 551164
2135.79 345812 503382 618886 716854 729620 587782
2141.58 471640 379816 257410 312228 705016 856226
2147.36 754886 534076 655220 991870 815410 695152
2153.15 1180102 1244082 775300 964618 1658532 1424594
2158.93 802632 1307088 1997958 1584914 1246748 1772962
2164.72 2125770 1793570 1506706 2222406 2560714 1988636
2170.50 2054714 2682430 2761852 2111254 2421206 3157920
2176.29 2696868 2527144 3489036 3962642 3379598 3519960
2182.07 4171588 3761830 3348008 4078102 4746064 4576832
2187.86 4765864 5077056 4704274 4700446 5733472 6649950
2193.64 6588392 6046512 5895536 5563154 5492652 6279890
2199.43 7136460 7580830 7433876 7286110 7282682 7405462
2205.22 8024574 9265998 10180350 9559372 8957720 9639074
2211.00 10494710 11375140 13395340 15727440 13357030 9394594
2216.79 9026884 9584576 10260430 11535590 13721180 13672380
2222.57 11181110 10435870 10948010 12151930 13889880 16537040
2228.36 17863160 14271060 11965280 13334050 15270320 18490000
2234.14 22709540 27883450 24393390 13835530 11051090 11925540
2239.93 12990780 14807760 18268580 20920690 16507150 12042130
2245.71 12295370 12924540 14431590 16975730 21372010 22613480
2251.50 16173680 12616080 14019430 15706360 19255380 24199960
2257.28 32297050 31184600 17083160 11201520 12081090 12929710
2263.07 14893860 17025140 20730380 19573820 13401430 11620010
2268.86 12487630 13133430 14385030 16123050 19500650 18690550
2274.64 12513600 10515230 11919620 13279140 15559170 18278050
2280.43 22812580 21852400 12666020 8704260 9880516 10651650
2286.21 11667910 12485270 13902520 14106420 10928130 8717602
2292.00 8842948 9962954 11325450 11324850 11856410 12722960
2297.78 10795130 8273828 7520998 7543294 8769890 10811150
2303.57 14045700 14578860 11596470 7800330 6445490 6440200
2309.35 6471808 7351490 8520206 9638888 11162210 10839790
2315.14 8331240 7831086 7791570 7968384 8661166 9296686
2320.92 9398804 9330654 10018170 12200480 10893010 8983856
2326.71 9459264 9805488 10271130 10429510 9587448 9101366
2332.50 10568930 17291580 17763420 10371770 8996966 9656974
2338.28 9488642 9351610 9316274 9544828 9384774 12784610
2344.07 15793540 11136600 8271954 8223928 7732000 8152690
2349.85 8591126 9410512 10118900 13609750 19979910 16948480
2355.64 12625140 13838930 13355680 12606100 12683880 13489360
2361.42 14512510 18226860 33537510 32081380 15663060 13053830
2367.21 12699280 12036280 12008380 11783850 12376100 13199240
2372.99 20752310 23296280 13917990 11089630 11169740 9956504
2378.78 10235900 10074700 11019120 11526270 18831380 24889140
2384.56 15616960 10653400 11465890 9956982 9607100 9594458
2390.35 10628970 13502560 23922260 36679770 26128650 11584360
2396.14 11026490 9747382 9676898 9477134 10084800 10408110
2401.92 15197090 24481270 17933930 9875178 10799330 9336256
2407.71 8761426 8371140 8851486 9234654 12980510 21468240
2413.49 15923370 8276736 9518006 7772580 7354896 6767454
2419.28 7521692 7451390 13699960 30677900 21785870 7234240
2425.06 8314682 7087326 7054218 6767004 7165682 6867944
2430.85 9195954 16391740 12906450 6200536 6724816 6274906
2436.63 6159774 5849136 5902148 5811646 7266494 12588010
2442.42 9738522 4590470 5338422 4869834 4661000 4349240
2448.20 4607380 4425466 6187180 14289340 11974220 4301028
2453.99 3643210 3473472 4046342 3927060 4167904 4235090
2459.77 4567096 6377280 6316060 4285558 3608326 3229122
2465.56 3359086 3567452 3605452 3417666 3509362 4317596
2471.35 4520940 3921130 3455586 3056520 3175396 3362222
2477.13 3034566 2970514 3128672 2680600 2581406 2619516
2482.92 2457144 2632720 3673974 4493616 3773278 3235268
2488.70 3164786 2863422 2678554 2622092 2592272 2342136
2494.49 2154418 2356442 2658218 2662758 2368490 2243588
2500.27 2200498 1883684 1659230 1953820 2245076 2104734
2506.06 1775718 1437562 1410808 1690352 1936850 1922926
2511.84 2004786 2055390 2082720 2418228 2755216 2656286
2517.63 2653062 2949780 2908246 2258686 1669510 1240986
2523.41 941382 987504 668294 492568 443284 339938
2529.20 118592-398 54560 209852 483992 218116
2534.99-103528-141982-146420-171398-80222 30174
2540.77 43670-99196-139944-46774-101882-85822
2546.56-113490-258062-258146-87804-131040-272244
2552.34-4106 108312 174426 382262 660898 780136
2558.13 756626 1296084 1718028 1782618 2198698 2656194
2563.91 2982418 3170716 3670542 4576450 5167052 5501648
2569.70 6061228 6833310 7396140 8294204 9248396 9922870
2575.48 10727160 11277310 11791890 12365480 12971210 13557630
2581.27 13950270 14187030 14362430 14322400 14431510 14340890
2587.05 13487510 12771710 11876510 10418230 8778116 7139970
2592.84 5533366 4149050 5271214 11698870 15399520 12010460
2598.63 9451954 9762286 10989790 13296570 16806850 20574560
2604.41 24242220 26491080 27781140 29127880 28800220 26726860
2610.20 23894630 21968860 22208960 22142760 20122280 16999430
2615.98 13010010 8613768 4904946 1987440-155688-1553196
2621.77-2747504-3376492-3596460-3900358-4239258-4432678
2627.55-4320358-4677026-5265050-5637158-5580052-5200632
2633.34-5267784-5386052-5398408-5410888-5610306-5532228
2639.12-5063286-4615444-4541682-4797018-4774636-4735922
2644.91-4591468-4491518-4456786-4207498-4113118-4171472
2650.69-3903302-3405526-2878978-2796760-3053564-2881276
2656.48-2659028-2377530-1810186-1578334-1458534-1136164
2662.27-983646-811224-189202 523898 373016-636
2668.05 78426-44304 239494 547944 467354 440920
2673.84 243582-185772-208112 693740 1454684 1005564
2679.62 507928 561034 463866 352804 549414 740632
2685.41 677772 553228 789964 1222206 1846940 1998012
2691.19 1194688 875394 840116 749816 871902 1149748
2696.98 1205464 1099302 955832 715252 719100 1364360
2702.76 1516660 933182 811756 1143468 1135078 876282
2708.55 1168526 1546470 1695574 1947436 2275064 2913010
2714.33 3595956 2386060 1234372 1271938 1072110 1042676
2720.12 1141914 1316052 1286692 1222660 1366290 1237072
2725.91 994126 1076244 938646 851618 797842 708096
2731.69 670278 729568 1070736 1339992 1304332 1391770
2737.48 1932704 2622610 1983564 1042094 942636 1044004
2743.26 1439892 1485290 1141412 1080300 1366464 2001288
2749.05 2555702 3032630 1182924-1748480-873226 810574
2754.83 1047634 1011156 1082206 978126 1052402 1310438
2760.62 1333392 1945610 2755458 2186126 1263260 1332318
2766.40 1542250 1257710 1033432 1208688 1108724 998316
2772.19 1377358 2153996 2568084 1662448-793168-1576256
2777.97 48928 1007686 1039412 1058198 1093692 977512
2783.76 1453944 2165204 2964078 3038312 1765806 1342824
2789.54 1501058 1432948 1387620 1329408 1350216 1321020
2795.33 1376584 2039470 2513750 2683230 2051096 337838
2801.12-2109414-1771204 1131224 1905614 1933936 2188354
2806.90 2454196 2624348 3194252 3608224 2943604 2344940
2812.69 2919280 3669608 3895596 4265378 4573686 4998542
2818.47 5877852 6574916 6968436 7593538 8207658 8521300
2824.26 8638352 7408390 5579452 9712444 16686810 21181020
2830.04 24825840 29286730 34508790 40423030 47731080 55826060
2835.83 65163260 76197950 88296540 100991400 114062900 127598800
2841.61 140401100 153167000 164499100 174561100 183081900 188581000
2847.40 193705600 191365200 184925300 175876800 167316900 159949300
2853.18 144524700 125163100 112814700 105453700 106304600 117752600
2858.97 112360100 112899400 100424400 69136840 73840140 94248980
2864.76 112398800 129462400 143425000 155296400 164151900 170486300
2870.54 174339000 175989500 175821900 172977600 165467400 158629200
2876.33 156791000 152329800 144665000 136264100 126546800 117153000
2882.11 108125400 99136740 90607480 82283460 74305340 66883690
2887.90 59554620 53214690 47609920 42299890 35881020 30873700
2893.68 28167930 24553780 20602510 17150260 12761340 6893360
2899.47 7960620 11676920 10059990 8377034 7194782 6640760
2905.25 5818054 5054970 5141760 4752218 4574192 5197884
2911.04 5092592 4774986 4098908 4058766 4999708 5103826
2916.82 5239362 6336668 7432554 8321486 8258402 8249390
2922.61 6330634 6858792 13113580 17206240 19502960 22344790
2928.40 26066750 31144000 36867640 43355700 51515140 61890300
2934.18 73877260 87351070 103868900 123008800 145289700 170699700
2939.97 197828400 229823800 266405200 306855000 351550000 400048900
2945.75 451959500 503111700 567650400 643125800 706389800 763153200
2951.54 818078900 875140600 932705200 981632400 1017833000 1044130000
2957.32 1069540000 1084360000 1073284000 1048528000 1018754000 1003899000
2963.11 965371700 847450500 778127100 770894300 687388800 698091700
2968.89 787204900 769536000 624253200 630519900 688867300 670196000
2974.68 751227700 808175700 921187800 1024304000 1067626000 1119309000
2980.46 1168606000 1202723000 1204142000 1191056000 1171959000 1152827000
2986.25 1130505000 1070504000 1001857000 941976400 875644900 809322300
2992.04 739355400 674380700 610021300 580416200 546760100 466253200
2997.82 407712700 363629700 322388800 285751600 248638900 220403400
3003.61 211204900 281725900 256289200 155801700 136603600 117458600
3009.39 108074700 98065930 91952000 83802700 115115900 166399400
3015.18 114809000 74162640 73161900 70093180 73748310 71201140
3020.96 73601580 78185240 158962400 170454800 84276140 74439940
3026.75 67850990 69363050 65934500 77355090 68342300 180088200
3032.53 364650700 205190000 77859100 83780320 63695860 68879030
3038.32 65608320 70813340 90254260 227869000 220691600 96050920
3044.10 88545420 79942050 77177740 75240730 86258670 87503360
3049.89 195262100 282294000 140655400 86964700 83273720 74114790
3055.67 70866780 83847090 76988790 210583800 503846000 314575800
3061.46 100834000 106603800 76253160 82466960 80464200 85913180
3067.25 114602000 275274700 246783200 107222600 100589900 86491610
3073.03 83661890 84610480 88898190 98065790 233995300 257192600
3078.82 110928200 90717460 78965260 73134770 70131360 80637100
3084.60 82822940 305882100 408979700 154396600 96641860 95367010
3090.39 79169020 81553340 82963160 83182190 169610400 222945100
3096.17 112283000 78852880 80683740 74787460 74112920 75833700
3101.96 74814400 142038000 176781200 89531280 60181480 56370060
3107.74 57180540 58903850 61835780 63751860 180104400 218315700
3113.53 83574540 54218600 49287420 51550160 60496980 58960690
3119.31 63036490 107857500 106386500 56522400 49664270 43875000
3125.10 42456020 46412550 45581510 52208700 82692170 66465170
3130.89 37423550 34369280 29617210 27533550 31524810 31153190
3136.67 56560400 87702430 48979790 25890140 24874940 19427230
3142.46 19178490 22315480 28337520 40709340 41244580 26455990
3148.24 23054060 20055430 17928790 17767040 17774780 22117850
3154.03 28199850 21368160 15709910 14754680 12709490 12108970
3159.81 10987640 11441960 20803380 20726200 11204800 9422088
3165.60 8325832 7413064 6999688 6264720 7706052 10557490
3171.38 9426384 8410310 8201496 7165460 6398454 5771026
3177.17 6105370 7023152 6348370 5803424 5625572 5193434
3182.95 4456816 4524064 5270044 5759366 5057760 4178962
3188.74 4105148 3820042 3485810 2966826 3049388 3176352
3194.53 3053308 3316624 3189612 2858850 2615876 2378238
3200.31 2388654 2339408 2209752 2374412 2628106 2490812
3206.10 2885656 3366320 2998142 2916336 2847282 2673878
3211.88 2544128 2681214 3503024 3431446 2722204 2440128
3217.67 2682474 2829108 2993374 2767548 2232810 1771848
3223.45 1521694 1397672 1133022 975380 539986 518582
3229.24 570004 867062 787064 469882 626962 537438
3235.02 474676 493780 345966 356190 932954 1343410
3240.81 1061852 365724-42118-67782 225258 773760
3246.59 865602 667152 378744 481978 897822 918316
3252.38 836844 928244 492580 108764 296558 344524
3258.17 45736 460492 862310 384554 218170 576360
3263.95 378000 357526 890778 578562 339280 232878
3269.74 97742 678286 946462 684506 584290 779840
3275.52 523892 582574 828766 428550 192174 317224
3281.31 573968 857060 775714 494314 237090 498966
3287.09 798298 207234 251444 888194 788286 275508
3292.88 381416 611358 680762 773940 664544 569480
3298.66 723606 851854 331650 326924 620000 458950
3304.45 322758 313554 86464-172178 121096 400856
3310.23 664040 1049620 1143968 807184 848594 710930
3316.02 556372 751278 224036 218536 493916 465862
3321.80 608084 610650 746864 908928 853568 704582
3327.59 484760 324850 448390 672440 1019824 963240
3333.38 845718 806070 662170 897758 1046972 1158364
3339.16 1106170 583224 406218 740408 1041876 485308
3344.95 138118 398796 343984 633600 636528 715224
3350.73 782854 410610 30468 535636 931514 80060
3356.52 136668 347958 114164 281256 460650 643740
3362.30 365224 185500 737624 517502-123068-238360
3368.09 114296 704526 550100 594730 566052 698086
3373.87 770548 470838 531896 791836 915282 273530
3379.66 14214 410586 1244278 1321160 405178-157948
3385.44 223198 801592 828714 853294 1058042 1034448
3391.23 361964 371678 1067416 529268 299452 1040818
3397.02 919112 262358-100744 146650 535840 907264
3402.80 560118 618490 1157414 1177876 896878 609794
3408.59 547782 209888 495582 821382 535052 141624
3414.37 246978 419056 668516 822212 370446 347312
3420.16 522730 669272 422070 671530 862014 646536
3425.94 588084 107870 406940 860564 782832 810138
3431.73 1044034 952270 701196 524744 441860 685244
3437.51 870302 1207492 1224372 1130482 1279810 1395046
3443.30 1556688 1125784 875772 949800 1380066 1758486
3449.08 1572528 1700340 1249264 1468358 1757374 1609448
3454.87 1536544 1308638 1679898 2093628 2172016 1694418
3460.66 998340 1361180 1867718 1485624 1444568 1185810
3466.44 1021082 979922 770302 1568470 1796118 1342150
3472.23 1413646 2134006 2091616 1223092 1838896 2223884
3478.01 1804942 1409136 853114 1141854 1102356 575016
3483.80 878282 1332974 1666136 1512074 964534 923224
3489.58 1060616 1061008 1225166 1214150 944174 893390
3495.37 752180 718654 808564 958190 1037458 672282
3501.15 681330 1236598 1543544 776132 283154 486602
3506.94 876950 1126470 767344 714942 807642 1089734
3512.72 1151434 920176 512492 265612 1051770 1242822
3518.51 953642 947122 1023724 1355862 1537554 1125396
3524.30 687200 779738 690144 755296 1086118 1598012
3530.08 1791488 1575138 1627538 1311334 854498 1101428
3535.87 1439364 1535386 1296116 1469874 1868714 1784882
3541.65 1897768 2138904 2637508 3067568 3001640 2626536
3547.44 2889916 3213598 3449506 3843922 4164034 4738590
3553.22 4682952 4680978 5444850 5802102 5655672 6083150
3559.01 7068196 7863700 8239422 8591686 8625154 8228746
3564.79 8311174 9035612 9814600 10068260 9839316 9558464
3570.58 9268064 8895930 8708560 9079586 9011622 8075902
3576.36 7870124 8150472 8421898 8898214 8885022 9513544
3582.15 9977336 9612294 9316624 8775384 9041114 9597922
3587.94 10044120 10501880 10949710 11000360 10917770 11627030
3593.72 12099370 11637720 11170050 11356290 11073430 10367980
3599.51 9935354 9282376 8270590 7906366 7663414 6956254
3605.29 6603668 6050648 5585960 5016776 3717412 2966636
3611.08 2957482 2587784 2226034 2614340 2713724 2746606
3616.86 2643854 2188660 1941582 1779112 1743090 2019954
3622.65 2050192 2256568 2218350 1918628 1910032 2254996
3628.43 2662784 2462082 2345776 1924848 1711188 2068462
3634.22 2576736 2827252 2320662 1572920 1599050 1991320
3640.00 2007740 2289414 3165008 3841212 4091012 3950032
3645.79 3334920 2791378 2931074 2745932 2559720 2794100
3651.57 2966438 3582398 3561274 3328040 3243884 3174390
3657.36 3277576 3107190 3261282 3649164 3971358 4318836
3663.15 4402242 4085906 3645338 3334502 3485664 3814650
3668.93 4534184 5967160 6748642 6549600 5138556 4000986
3674.72 4096574 3726192 3201402 3455202 4076468 4622332
3680.50 5073154 4397212 3086514 2936436 3020376 2814808
3686.29 3308844 4546456 4633956 4478408 4635410 4542400
3692.07 3920704 3159472 3528600 3771712 3839734 4550130
3697.86 5355302 4698468 3286256 3189364 3329086 3010788
3703.64 2851626 2818462 3268758 3160552 2530950 2704242
3709.43 2643376 2982302 3557106 2818322 2741642 2793532
3715.21 2604508 2898610 2503938 2082862 1905146 2184942
3721.00 2723386 2904094 3188802 3055896 2268258 1683216
3726.79 1230666 1442542 1926370 1934516 2552830 2604886
3732.57 2166776 2031208 1969798 2309948 2108688 1692782
3738.36 1976190 2109630 1912264 1608094 1484232 2570876
3744.14 2699682 1653826 1576332 1765870 2579080 2236784
3749.93 1270054 2130656 1855198 917436 1179506 1489768
3755.71 1626476 1276982 1107638 1319720 1228682 1277196
3761.50 1562384 1944874 1601220 1444174 1622914 1553792
3767.28 1387226 1306996 1275762 1244318 1483332 1369844
3773.07 995534 857120 1013338 882738 1069392 1700690
3778.85 1472388 1017220 1707486 1697986 1117210 1221148
3784.64 1480028 1325452 1451114 2061628 1833496 1445924
3790.43 1684022 1940642 1910768 1929304 1871010 2134528
3796.21 2289410 2059320 2737628 3076072 2836056 2488976
3802.00 1828764 1945440 1781590 2979156 4115992 2606258
3807.78 1982276 2070768 1908946 1864672 2380628 2774120
3813.57 2556124 3235282 3005652 1962532 1943150 2675330
3819.35 3538178 2885632 2271192 2380174 2299544 2382130
3825.14 3199320 4255798 3350876 2516958 2509388 2274980
3830.92 2514290 3321088 3069568 2793832 2880254 2767508
3836.71 3647216 3437342 2846136 3027138 3000886 2868916
3842.49 2783050 2494396 2568282 2999598 3479970 3404250
3848.28 3206340 3423376 4067500 4510530 4180770 4791886
3854.07 4719734 4438712 4371156 4027632 4189968 3995216
3859.85 4059068 4660724 5166934 5328064 5190184 4787278
3865.64 4382718 4587376 4567678 4641728 4542360 4478634
3871.42 4117768 3991980 5135878 4877016 4375122 4651598
3877.21 5038624 6341506 7279474 6926506 7151624 7833472
3882.99 8303536 9380440 10536820 11110900 11209150 10786540
3888.78 9739464 8993624 8125278 5800764 4034006 3524388
3894.56 3494994 3592962 3812504 4308120 4009362 2714456
3900.35 2229764 2779658 3365170 4308976 4460764 4627052
3906.13 4408058 2924988 2686930 3147300 3189986 3784296
3911.92 4171310 4648324 5582432 4584408 3415198 3189512
3917.70 2729970 3025670 4277672 7433560 8188892 4605126
3923.49 3421986 3739882 3388402 3761014 4840244 5284174
3929.28 3707680 2926628 3050470 2988880 3526484 4433190
3935.06 5231064 5076548 4518426 3466782 3307688 4520494
3940.85 5587640 4274890 2633788 2862206 2843416 2959724
3946.63 3191364 3100334 3691268 4646838 4452668 4049742
3952.42 3686266 3437068 3491550 4096272 4571160 4209820
3958.20 3544300 3610784 4145798 4694398 6361742 6424088
3963.99 5181236 5420948 5646404 6005964 7707326 8603556
3969.77 7969356 8503218 9769696 10937700 12538060
##END=
