##TITLE=Ethylene
##JCAMP-DX=4.24
##DATA TYPE=INFRARED SPECTRUM
##CLASS=IUPAC A
##ORIGIN=NIST, Anayltical Chemistry Division, 301-975-3108
##OWNER=COPYRIGHT (C) 1998 by the U.S. Secretary of Commerce
##DATE=98/10/1
##$SPECTRA VERSION=1.00
##$UNCERTAINTY IN Y=2.1 % relative (B=1.1E-04,C=8.5E-10,D=2.7E-14)
##CAS NAME=Ethene
##CAS REGISTRY NO=74-85-1
##MOLFORM=C H2: C H2
##MP=-169.15 C
##BP=-103.71 C
##$NIST SOURCE=QUANT-IR
##SPECTROMETER/DATA SYSTEM=IFS66V (Bruker)
##INSTRUMENT PARAMETERS=KBr Beam splitter; MCT Detector; Multipass cell
##STATE=gas
##SAMPLE DESCRIPTION=Ethylene Primary Gas Standard
##PRESSURE=101.3 kPa
##TEMPERATURE=23 C
##SAMPLING PROCEDURE=1 L/min Flow
##RESOLUTION=0.9640
##DATA PROCESSING=Triangular Apodization
##XUNITS=cm-1
##YUNITS=(micromol/mol)-1m-1 (base 10)
##XFACTOR=1.0
##YFACTOR=4.5474E-13
##DELTAX=0.4820
##FIRSTX=575.169
##LASTX=3975.077
##FIRSTY=-1.51E-07
##MAXX=3974.59
##MINX=575.17
##MAXY=.0009674
##MINY=-6.65E-07
##NPOINTS=7053
##XYDATA=(X++(Y..Y))
575.17-334220-591600-536394-476856-351532-248980
577.58-753682-1454188-1504800-975780-893226-1106428
580.47-855496-563724-647666-806248-859734-664344
583.37-607720-669002-762212-753190-727966-659482
586.26-582230-766580-658670-717666-928382-955706
589.15-859500-998518-968116-604484-624900-823332
592.04-896566-844474-739666-799664-835714-691028
594.94-540390-319384-313902-657516-738106-690628
597.83-835084-893862-803670-592542-548114-741368
600.72-814874-678124-582870-587982-572404-390994
603.61-438532-683170-659784-596866-651784-595970
606.51-585630-669886-718042-561266-506276-708586
609.40-560342-448636-564506-545876-532558-519388
612.29-425908-363546-405680-475940-516092-548296
615.18-583774-489258-277236-254916-348970-473442
618.08-509402-397486-294386-416632-483268-520812
620.97-632392-484042-305722-417604-619748-462592
623.86-356066-433384-442204-520904-635574-581640
626.76-385150-337106-498442-616668-538110-412654
629.65-520248-519640-416272-464396-347108-457654
632.54-686582-580522-477276-407476-425868-593520
635.43-523690-193404-161984-397018-504948-487140
638.33-467566-448106-395092-414260-445862-401404
641.22-455796-526832-358688-299102-417304-401760
644.11-281626-299878-344322-322046-180772-127948
647.00-279134-326768-369582-331332-358682-479668
649.90-371094-244626-309194-450604-434776-300280
652.79-264764-302088-385644-428916-398948-308486
655.68-326652-281936-184562-290126-327312-212944
658.58-93646-126570-353052-391854-221204-286626
661.47-386768-341018-263944-278574-412220-382980
664.36-241264-168774-290008-249996-83784 231174
667.25 292106-58720-172192 9452 51898-162764
670.15-249856 4540 236070-41606-287358-76900
673.04 426340 262470-106134-29992 211430 127648
675.93-135404-171368 34658 6038-278244-236166
678.82 15078 163136-61134-197390-49332 205992
681.72-43948-371274-150424 319530 255926-42760
684.61-65006 470502 510950-31860-104450 188414
687.50 290506-57536-92134 143078 412100 101272
690.40-43706 148682 451162 346586-54200 128916
693.29 553016 529168 198930 329082 900298 843444
696.18 375198 380794 945396 1123784 510666 334076
699.07 317510 108118-88924 127268 322920 306658
701.97-8668 90404 487660 549292 250568 186240
704.86 720270 912706 585224 251062 691212 1238476
707.75 939254 501108 538862 1355802 1190496 328052
710.64 312856 1053222 925378 300126 446674 1106328
713.54 1458488 660392 373324 828142 1396858 783186
716.43 384824 1361430 2350694 2121852 1365274 1610596
719.32 2199990 1760222 856508 1055298 2145980 1968366
722.22 903978 664676 748800 397096 589170 921342
725.11 1183796 882068 766770 1361828 1738290 1549398
728.00 1134116 1843630 2245386 1765168 902872 1229156
730.89 1892424 1719800 1045072 1171342 2196104 2153258
733.79 1213278 1197748 2015604 1494630 1154514 1633782
736.68 2774688 2731686 2131316 2575848 3804152 3799116
739.57 1856738 1198864 2144754 2557022 1144166 869404
742.46 2042072 2914324 1697246 1026138 2300760 3318918
745.36 2244952 1380174 1737656 1731006 2149274 2348600
748.25 2699578 2535098 2285330 1748976 1411528 1104614
751.14 1013084 1414294 1676928 1462942 1237024 1880680
754.04 2464638 2281210 1828858 2571254 3343816 3463036
756.93 3197628 4088610 4395796 4159330 3998272 3363632
759.82 2026102 1065048 941906 1407560 1734828 1221758
762.71 982110 1589938 1948570 1461940 1711470 2314542
765.61 2693748 2300242 2523552 3729106 4428390 3810914
768.50 3445034 2291084 780840 483834 863052 887976
771.39 638792 779486 1000618 1111030 1179748 1391672
774.28 1909528 2388524 2725658 3169552 3881184 4612076
777.18 5124672 5458398 4283738 2116364 1111604 990188
780.07 661342 505874 747172 935036 627384 405312
782.96 772950 1317602 1115724 881574 1945952 3232326
785.86 2950110 2901190 3594148 3037472 1370302 688102
788.75 1035824 1138260 749524 620480 579810 539390
791.64 752944 814990 797644 1008692 1091718 1035068
794.53 1478010 2173748 4033092 5051300 2966714 1348056
797.43 1095186 832910 562084 695664 1007252 765916
800.32 654370 995336 1096334 946114 797670 777150
803.21 856734 997736 1169402 1395130 1637152 1550000
806.10 1152914 1038392 1295364 1148458 927728 1143244
809.00 1227120 1129498 1236660 1148452 1006712 1350242
811.89 1471758 1104924 1070304 1490726 1616712 1428376
814.78 1369214 1587506 1717484 1621216 1567550 1918478
817.68 2206354 1897094 1725460 2226074 2470190 1985356
820.57 2135456 2844122 2910350 2374654 2179006 3107128
823.46 3776088 3291022 2705900 3535348 4533752 3396318
826.35 2855744 4539506 5498070 4449952 4001666 4982242
829.25 5119058 4727704 5639556 6645120 5876428 5012048
832.14 6428346 7748680 7128086 7196966 9406978 10854280
835.03 8936740 8156540 10618930 12511870 10347180 9401826
837.92 12680840 13618350 10392810 10531410 15377280 15382580
840.82 11414100 12228350 14901890 14977880 14722190 19560750
843.71 23082450 19629570 17639980 19599510 20287930 19065800
846.60 19916020 22416340 22627160 20866240 22276770 29413410
849.50 32317540 27623440 26625460 30810910 30174760 24109560
852.39 26430010 37413860 37492080 27446340 30173800 38347680
855.28 34369790 31192450 43001530 51559530 37225970 27943900
858.17 41448200 46041280 33221100 33923280 51711350 51591240
861.07 39321870 40470650 52608580 54411670 47199060 51070610
863.96 54311590 52187310 55539890 58877090 58102200 62472220
866.85 66156920 62340160 59458570 70203220 70910610 59828260
869.74 56351020 71319030 71905380 57474290 58275540 74874640
872.64 77440200 63127870 61432050 91727430 112623900 90523700
875.53 66894160 77461900 96296100 74809990 70790070 107532100
878.42 117088900 89159900 74463740 112568300 126931200 98601600
881.31 98642380 112938900 109464700 90566530 77020340 77357130
884.21 98481670 101734800 95753530 133689900 157452200 121655700
887.10 94429420 109026100 124464900 124853800 120928300 138515600
889.99 161095400 127398500 87530260 92319680 124672000 117778300
892.89 96017460 107932500 143470400 160771700 145019900 170360400
895.78 224106900 237060000 166955300 110562300 138301400 140207900
898.67 125375100 99752900 90911030 138590900 123825800 121628500
901.56 207012500 253902800 174814900 104351600 137743900 138704000
904.46 99913900 117402600 143093200 149485300 123818500 129524600
907.35 174136000 277233500 421054300 337753700 170029800 122960400
910.24 132735000 138409600 126090900 113243200 94611400 135260600
913.13 142997600 110388500 137060000 302663600 428544900 241223100
916.03 117322800 124708300 121570300 106897800 86361050 86343300
918.92 97409870 134489700 148581700 153147500 154388100 260748700
921.81 500691000 431892100 230466800 198865300 152236300 121535800
924.71 104007600 109761200 103992100 137154400 147844800 111375800
927.60 112122800 123755600 174936600 236153300 221738100 172874200
930.49 154291800 165441200 153023100 133476600 131483700 137470200
933.38 133570800 137317700 134483100 117141500 120951400 142068700
936.28 148715900 141338800 160141600 171941700 184022400 213696000
939.17 236152000 250734000 250464700 224892500 221681000 226251300
942.06 202996400 235646200 258232300 219742700 266989000 329023000
944.95 321310300 386770300 421994300 468318200 554928900 654427100
947.85 794177900 1192492000 2127372000 2083152000 1218627000 812868700
950.74 642077500 552019800 439755800 355792300 283424300 251641100
953.63 240958700 236558800 254872800 266948800 248638300 209412600
956.53 223278700 245515500 190662800 181927800 198872700 190071800
959.42 174885500 156788100 165000900 132350000 151054800 174814800
962.31 154140400 180554900 154294900 159474400 173266100 180062600
965.20 199416900 188114700 167936200 130350900 161770500 202859800
968.10 183182400 191793400 277856100 326949100 248543700 192518600
970.99 155014000 117023600 113522500 123828900 156032700 149016300
973.88 116096200 126327900 158048400 149246100 132080500 156242400
976.77 190148400 200254700 320928500 397141900 268169100 164162400
979.67 123341000 142081800 140475600 102266200 114779000 142402400
982.56 130450500 118597900 121130400 126811900 138842400 170201600
985.45 280819700 345975400 349871600 441072900 497980000 375727400
988.35 179045400 115539200 134737800 114779100 127153000 150197200
991.24 133556200 115817000 119437200 165866200 162223800 113243700
994.13 141835500 154228900 136711000 168981700 258427000 377086900
997.02 312895700 138167200 120209100 173745300 156946100 115334800
999.92 159898800 182216500 152050600 125363700 130418600 141542900
1002.81 127273400 152731500 197963000 172997300 140936600 217136900
1005.70 305164200 301351600 243930100 195060200 177896900 144569700
1008.59 124971000 143721300 131455500 105160100 123664100 155999300
1011.49 136656300 108540100 120322600 126932900 120659600 142208300
1014.38 157488000 151581200 156029400 144645200 118763900 131113300
1017.27 128013700 86608300 83669430 113265700 161312800 181196100
1020.17 145096800 112303400 114234100 135487400 115855500 109171900
1023.06 140442200 126054000 85353410 91304450 113323800 109513800
1025.95 100182600 107931000 146524400 180547300 146194800 117761100
1028.84 104240500 73552620 87404380 99836740 75702180 91729250
1031.74 112506700 77311930 69585980 100579200 87684470 56524080
1034.63 73164080 90110780 73203460 72444840 104110900 118417100
1037.52 89385620 75431370 71599460 50619890 56521620 66614840
1040.41 51632460 46319920 58560490 56705860 47273880 55977280
1043.31 89769300 83383770 54209280 60766740 78955940 77618150
1046.20 65632650 69556380 101114100 110862300 66020930 45457240
1049.09 68614000 66234450 32842330 35135390 63782060 51739970
1051.99 24921650 41247860 58352340 37430940 24283690 39371840
1054.88 47099750 50208600 49856300 39517440 46148760 58875620
1057.77 52389430 41681630 46553350 49025360 32204710 24807170
1060.66 39292710 40204450 24961930 24288090 35943490 33558840
1063.56 22064230 22904370 32015040 27551380 16985440 22020160
1066.45 32067630 25111320 25268770 51885580 52770480 30318550
1069.34 31977540 44333100 30209950 16290760 30590040 36278460
1072.23 20045190 17316880 30229670 27771260 15136400 18688440
1075.13 27887140 20228040 12355420 20564300 24162710 13968790
1078.02 13793280 22736660 20371610 12939770 21250180 30066000
1080.91 17082780 9081136 21811800 24402270 10318270 10595960
1083.81 21927270 17474430 7023850 12954770 18951640 10806160
1086.70 7084728 14821420 14470700 6628226 9181700 15325810
1089.59 10952200 7236242 13185020 13072710 5975466 5696258
1092.48 15854890 18768480 8211342 8388728 16745110 13106770
1095.38 5872348 10336800 14208830 8090086 5894226 11260430
1098.27 10785560 5407202 6972204 10521710 7493040 4875268
1101.16 7985900 8780344 4926114 4313070 6957032 5954722
1104.05 3587068 4755678 7456624 7885242 5322374 5239486
1106.95 7107648 5942366 4108770 5183000 5906738 4158668
1109.84 3646354 4929734 4614502 3378798 3936340 4577566
1112.73 3412336 2602258 3177364 3068158 2292402 2294620
1115.63 2655778 2344448 2000818 2195446 2789680 4821000
1118.52 4563552 2336966 3291186 4616110 2962692 1998238
1121.41 3539224 3578784 2031642 2491956 3521980 2242558
1124.30 1318864 2363664 2406880 1195574 1415308 2159774
1127.20 1403100 820974 1585546 1675570 816576 979256
1130.09 1451628 1532832 1711846 1472458 1302640 1401438
1132.98 1332960 1061410 1036240 1191746 976392 685580
1135.87 779690 840562 575008 472654 700172 591926
1138.77 299726 377698 486768 241444 167192 381102
1141.66 220990 14904 206536 410440 860110 922860
1144.55 447824 514576 796894 483504 162882 462478
1147.45 533904 104352 117998 426358 144372-88006
1150.34 276424 266864-140356 8586 242680-106768
1153.23-243602 81684 8250-248162-26146 45708
1156.12-158744 46424 61680-248288-159612 36512
1159.02-178940-282932-10668-63746-295558-164902
1161.91-97038-264710-257974-157156-260054-297334
1164.80-178732-301326-425388-314062-304706-418640
1167.69-397466-305908-366024-293940-140120-295636
1170.59-380366-204666-228966-390790-253678-185148
1173.48-368760-342806-265536-407574-453510-325790
1176.37-356506-465834-391814-379040-456976-419438
1179.26-386138-431254-438528-395422-408062-431806
1182.16-358780-354506-450024-393964-337048-434700
1185.05-448892-387740-429244-469226-423478-437792
1187.94-485182-464996-445564-479616-496248-477250
1190.84-470794-447268-431524-485230-502004-466058
1193.73-462622-475290-463860-439612-474834-503192
1196.62-472780-473250-493816-505770-469200-446900
1199.51-475068-471322-481608-488426-468012-497056
1202.41-529308-503844-483362-470140-497802-501680
1205.30-449742-497012-543464-508154-488902-487708
1208.19-513238-498796-473216-501888-494688-496582
1211.08-506530-518774-554500-541950-489104-459574
1213.98-458930-466268-488260-511250-492872-499352
1216.87-525536-517186-491624-488550-521816-470010
1219.76-437462-499008-503934-459246-466584-506824
1222.66-532736-545276-520644-522828-537876-510430
1225.55-504932-511466-493714-487474-498444-516844
1228.44-513490-488410-495298-538344-525640-510052
1231.33-517506-515568-517548-503744-505236-516642
1234.23-523680-478760-450218-462414-476102-484266
1237.12-499398-495014-477386-500486-508250-509098
1240.01-521002-509698-507710-516464-498392-498482
1242.90-488318-459922-479442-505730-499360-477372
1245.80-487994-525266-512044-486952-494196-496106
1248.69-514194-510586-481084-491844-499902-521128
1251.58-528894-510366-475642-451656-476648-494278
1254.48-485776-516784-541482-543928-550438-540134
1257.37-508780-495086-531258-542038-528984-542130
1260.26-539898-531964-512154-501064-488022-488290
1263.15-504666-505788-510870-497886-499042-486300
1266.05-472950-490514-522124-547784-525028-493762
1268.94-482788-485112-489006-487172-504292-517602
1271.83-508596-507918-513270-498844-511704-548892
1274.72-514132-468326-488746-498988-470064-470130
1277.62-500726-512670-498492-477406-477720-508344
1280.51-502746-508722-520810-526980-547866-523374
1283.40-499720-528568-538286-478936-465884-526050
1286.30-537790-523890-524008-514430-514706-509448
1289.19-493018-503266-493736-497762-496408-464192
1292.08-472364-494040-496672-481128-502080-534682
1294.97-509226-471050-476142-489434-486292-527532
1297.87-553784-519976-491754-504186-504108-469440
1300.76-492828-508002-478866-494702-497364-467990
1303.65-469470-461118-442640-440736-418108-435290
1306.54-451262-452342-470222-508202-507718-469608
1309.44-501960-517120-481160-488772-497858-501708
1312.33-501546-502128-491624-477480-500358-522484
1315.22-506038-500018-529492-521124-489004-500968
1318.12-538094-525478-467298-436392-434862-454006
1321.01-446754-466932-478566-455812-465844-458390
1323.90-439210-430696-423302-463746-484798-483782
1326.79-480284-448646-447538-461676-470562-467720
1329.69-485152-490200-438238-433420-465868-463154
1332.58-422188-403554-424604-359906-310954-357686
1335.47-358800-379410-412886-413838-384806-422206
1338.36-485988-450872-403206-444644-449542-395340
1341.26-409294-427910-414440-419654-420428-475324
1344.15-490134-407308-394000-432322-426666-434442
1347.04-429992-395058-366756-377054-342400-288714
1349.94-304714-329920-317150-334538-384750-404756
1352.83-382856-400304-405940-372486-384018-426842
1355.72-446564-443712-444242-424124-389274-410462
1358.61-429876-427476-398368-354738-387316-416324
1361.51-407036-398926-365290-329372-298970-277898
1364.40-152442-35250-24426-67586-60248 18632
1367.29 2968-85602-149910-181264-173802-107956
1370.18-48870-36272-39940-67296 59240 104564
1373.08-9760 148314 379748 234502 162004 466988
1375.97 551834 331318 609400 905054 578362 558224
1378.86 1202740 1359342 1075314 1603478 2120206 1370188
1381.76 1266460 2455384 2558960 1681342 2582312 3618166
1384.65 2455698 2514374 4468306 4284750 2990174 4519310
1387.54 5899412 4246432 4734772 7670508 6906524 5277696
1390.43 7593538 9091006 7040182 8145530 11773410 10652600
1393.33 9090974 11491490 13217470 11395750 12835950 16865680
1396.22 16465270 14125800 15980560 18839880 17461090 18668430
1399.11 23620930 24415470 20117670 21599730 26042790 24894080
1402.00 26979900 32329870 31968980 27858400 29532760 33813310
1404.90 33137530 37550940 41898900 38650240 37317530 38731850
1407.79 42099480 42786500 48419180 51476760 46339650 46184900
1410.68 47195780 50899510 52161070 56024240 60241660 55848150
1413.58 52869420 54901040 60486680 59562520 61280990 67951600
1416.47 64847800 56671100 60991230 68011610 61177160 62390850
1419.36 70693500 68817390 58912040 63627200 71816470 59255640
1422.25 59884340 68703340 64821200 58864600 64049260 67848380
1425.15 52663340 52147690 62922770 54097710 47123780 57968020
1428.04 58509310 41248340 37271470 48075590 42968790 30318710
1430.93 39052530 44699620 29275980 20910280 27928510 28384140
1433.82 16756500 17722770 26873590 18377850 8336258 11994790
1436.72 14804510 8814636 7188066 11676690 12217990 11435770
1439.61 13899100 15501330 15908630 17600210 26024400 53881110
1442.50 96251530 124170700 116990300 112927500 107552200 81345770
1445.40 74621710 76763770 57947880 45887810 46650220 49645360
1448.29 36973480 28007920 34105790 30422580 27729530 28414360
1451.18 33389160 34175950 26483930 23632700 31391600 35279960
1454.07 34381250 31337230 31419600 42503520 39285360 28724410
1456.97 35105360 50297460 47338640 28799010 36711840 57370980
1459.86 44891270 33398650 50399930 59758030 42266500 34432290
1462.75 44619340 51445400 51729470 54618620 50178250 44630410
1465.64 48548220 43158700 35019920 47547730 69151180 52506270
1468.54 33797940 45522860 49319290 36498650 37074610 51974490
1471.43 54221670 43163540 37085620 35770760 38363810 43126160
1474.32 39347210 33473250 40807520 43451850 29867520 27349100
1477.21 37771500 37054200 29948220 26268120 29551000 32636930
1480.11 29521520 25986850 23985310 28418970 26760290 17210060
1483.00 18834370 29138090 24400500 15812200 20356890 21388020
1485.89 15088330 15022980 19113710 15339800 13792970 17446600
1488.79 14721670 10160790 12674110 14691590 9836438 8961794
1491.68 11136400 9798966 9631396 10534880 8576738 6448896
1494.57 7713646 7568660 4448368 5916464 8213594 5923574
1497.46 4068638 5308988 4983396 3072514 3804298 4580318
1500.36 3647776 2866372 3429002 3074172 2346412 2552488
1503.25 2424208 1901504 1895410 1776180 1359502 1485002
1506.14 1513868 1039978 929618 1098290 865294 617690
1509.03 764698 732330 651706 492932 462018 395904
1511.93 150606 110184 152350 204470 143732 27142
1514.82 708-48798-110624-170848-271132-223112
1517.71-107558-142056-230750-300430-357124-401454
1520.61-496178-448586-364358-429276-344330-273800
1523.50-349000-396996-428518-507120-484404-416314
1526.39-426776-484570-501594-476104-451602-467898
1529.28-479030-472654-470590-483272-493566-471166
1532.18-498892-576410-602920-591920-521124-506540
1535.07-516166-522238-529770-519888-526802-543812
1537.96-592840-671244-562438-493168-587018-562564
1540.85-520550-634382-665348-556368-539254-549086
1543.75-510582-548766-608304-560678-530774-520590
1546.64-515418-528748-553192-561208-526056-521506
1549.53-559068-558010-531522-542960-525784-519722
1552.43-553396-561608-588302-621700-553866-515064
1555.32-518714-465736-406992-582854-658408-680090
1558.21-700364-607082-669886-707510-578238-494682
1561.10-526064-544558-559212-559190-530216-499792
1564.00-526808-565626-531622-514286-515362-516130
1566.89-512342-509872-534814-556550-580454-608108
1569.78-563332-509916-513358-543428-533754-505284
1572.67-469146-460570-533672-556198-529036-602940
1575.57-696260-609838-528930-561604-557930-538140
1578.46-532504-547466-539652-531230-518186-525058
1581.35-535424-505194-486810-505564-508106-511994
1584.25-538534-539960-542082-525170-497350-514118
1587.14-519608-501152-517948-541640-521684-459332
1590.03-433082-481710-509620-522012-533080-551758
1592.92-540908-526476-539414-534504-516908-522120
1595.82-537322-513490-516536-538308-538500-531796
1598.71-514744-518558-528184-508314-508590-543652
1601.60-549036-538476-535108-530562-514942-501778
1604.49-498970-487140-491878-509134-505116-501012
1607.39-519116-530820-520350-519792-528482-528438
1610.28-523666-513248-489456-488274-504984-500930
1613.17-489224-516326-531956-549560-554088-568686
1616.07-684378-636766-511274-536638-542836-527222
1618.96-504654-492592-512168-513928-507976-514818
1621.85-529530-525536-542328-522384-474662-500568
1624.74-521146-522334-509526-524986-551926-591044
1627.64-586232-538520-526280-514738-502538-496964
1630.53-514962-525606-529186-541762-507070-503558
1633.42-528132-566328-618390-683104-665858-550578
1636.31-533262-588986-563722-515344-530822-534308
1639.21-533284-536468-528534-521314-522188-537554
1642.10-526964-524670-532350-518954-528794-542684
1644.99-585758-656406-595882-570152-594272-571692
1647.89-562548-527198-513896-528968-542874-571384
1650.78-578934-613940-736726-741268-735016-661418
1653.67-600600-612284-529842-503356-519452-540820
1656.56-528940-528770-540504-540596-542502-534252
1659.46-526762-535616-530304-544916-560072-587320
1662.35-622288-566228-520266-538218-552954-557532
1665.24-536818-511256-503578-513702-537426-552918
1668.13-575986-641986-628946-562222-542046-558244
1671.03-582738-556482-545644-562460-550402-528648
1673.92-517042-595730-657272-581532-545516-560886
1676.81-535988-506934-510462-501024-509038-554228
1679.71-574512-568374-533596-546174-545816-528958
1682.60-594026-609622-595194-698248-677346-540120
1685.49-514004-505142-512760-522162-526288-511278
1688.38-480632-498602-523718-497840-481972-480388
1691.28-485702-491158-482726-504654-502572-481890
1694.17-493172-542146-663450-620752-486132-502792
1697.06-510964-488020-486498-513882-589828-647800
1699.95-625774-554908-499556-484612-458182-447756
1702.85-443198-448228-461250-417028-400216-477528
1705.74-557660-491190-344900-324218-355892-398246
1708.63-399294-317890-377572-430636-399420-343350
1711.53-318462-404430-441030-450408-382638-339924
1714.42-386796-364498-291978-265042-361890-533146
1717.31-479738-383098-371454-265776-225238-268864
1720.20-342404-293604-146192-161558-224520-285954
1723.10-219112-201746-343108-318896-226782-106706
1725.99-179808-265052-201184-75424-65018-247270
1728.88-283766-225616-71464-135126-239184-180512
1731.77 76996 195370-171216-363452-312528-214796
1734.67-215872-265054-279112-130544-16120-43540
1737.56-32044-93544-72678-207894-308118-149146
1740.45 54870 157462 169962 377556 314278-62462
1743.34-215732-216882-148130-62436-57938 47084
1746.24 222532 91300-138040-231820-274886-99640
1749.13 130852 294868 554248 361894-122348-202672
1752.02-179402-146340-34816 216822 305316 53802
1754.92-125864-128082-43862 189548 512834 293752
1757.81-117952-176970-101600 45798 29782-246124
1760.70-313176-186652 17608 40916-255352-335816
1763.59-232970-302468-328880-265756-370066-367418
1766.49-221644-314654-473518-332168-256364-374698
1769.38-301820-129884-216260-260614-149270-286146
1772.27-321284-25004 23634-27008 156212 122082
1775.16-138176-86216 153446-4186-143368 180036
1778.06 107898-204880 64322 102368-167020 36310
1780.95 154218 35194 152184 176840-9830-15578
1783.84-952-163390-101240 78436-40532-97404
1786.74-21716-87838-147276-203722-238856-87336
1789.63-153930-346188-299698-400504-416362-396542
1792.52-489950-358428-298188-261604-176784-263052
1795.41-396664-476972-425020-398718-489332-494206
1798.31-398256-385814-444700-494988-537444-561586
1801.20-527284-452090-483812-590188-646988-615152
1804.09-568272-547692-501078-395272-364580-390774
1806.98-426654-498024-468142-427978-429974-388168
1809.88-446268-442376-449982-486186-415454-402568
1812.77-297536-272012-368742-446394-458410-326480
1815.66-327520-412166-410596-368228-190084 2772
1818.56-9012-33854 108670 50740-26870 65264
1821.45 171504 184578 50016 184688 351994 561338
1824.34 663092 493142 398398 421564 623614 883916
1827.23 986696 1137756 1047216 782904 994008 1291318
1830.13 1681182 1588350 1378892 1927692 2249166 2143362
1833.02 1724766 2054498 3040656 3841930 3427552 2702834
1835.91 3026668 3205634 4324828 4457340 3083396 3410430
1838.80 5782846 6229996 4103300 4763758 6994960 6279748
1841.70 5063914 5653656 5689540 8120254 8315810 7441010
1844.59 7695168 9583076 9486612 6590668 8605926 10087920
1847.48 10971870 12561590 12656970 9746000 10351160 15102970
1850.38 12702920 8105130 13702300 20240970 15078920 10293510
1853.27 14160340 18702650 17541030 15576510 12639410 18238370
1856.16 23158540 16728790 13689230 22346000 25385620 15236730
1859.05 13423540 20836340 24625600 21911970 22993150 23149050
1861.95 22085270 20306020 18292490 17874120 25688870 31709510
1864.84 23489300 17500950 25757870 24275780 15642610 19974070
1867.73 31248990 26658160 17694620 21559100 26020390 21754540
1870.62 17593760 20674860 25270080 22824740 15827990 18767060
1873.52 23359550 22302060 14779490 13642030 20496420 18298940
1876.41 10279610 12674530 20005370 15846510 7563164 10093300
1879.30 15296080 12194690 7395764 9838266 12418830 7173336
1882.20 3959962 6174480 7433596 4954428 4369382 6614326
1885.09 8226958 8199204 11457930 16119870 28558670 44543100
1887.98 98462340 139129100 68505730 17422010 15901610 11771520
1890.87 11462850 8910104 9010452 6952338 4796430 4932060
1893.77 9253336 9757592 6339664 7354178 11467370 8616252
1896.66 4919284 12587770 18539390 10372550 7598700 17986310
1899.55 20193540 10635980 14575300 27730720 22730020 11540150
1902.44 20321440 30028310 19958820 16544080 30454410 32884890
1905.34 19129670 21278890 34922670 28534280 20270320 29771410
1908.23 37719250 26094970 22175000 36223390 33959340 23791660
1911.12 29252720 37700950 28547300 23394450 34907430 32246600
1914.02 23141390 28966840 35682240 25750430 22666470 33582590
1916.91 28013210 20479220 28216100 31552990 21036870 22348250
1919.80 30688900 21738480 18667120 27720130 24949470 15067760
1922.69 21762050 25272760 13407960 15875130 25731940 17259030
1925.59 10352910 19766910 18288030 8829148 15300960 20218190
1928.48 10455120 10556830 17369850 11139090 6947002 13327650
1931.37 12399840 6672916 8751914 9991056 7046894 6629866
1934.26 8331026 8222300 5653428 5215406 6126772 5424588
1937.16 4640532 5146068 5597080 3931614 3310150 4308214
1940.05 3674492 2694068 2652290 2895496 3208754 2793890
1942.94 2366098 2228424 1981670 1563054 1594630 1866036
1945.84 1259396 1040676 1288326 1216938 1294102 1235936
1948.73 913552 508196 377178 328884 385188 330158
1951.62 177426 188302 148796 62258-11988-87334
1954.51-243172-376134-388116-356434-410398-436922
1957.41-347420-202928-240074-306720-205466-262202
1960.30-426944-539012-395024-157650-180244-218552
1963.19-139316-201758-407152-434034-391396-279858
1966.08-182994-254748-152460 85536 63576-94604
1968.98-170818-226786-329002-484218-546890-617880
1971.87-463896-232130-132698-129998-141464-133426
1974.76-105304 52530 110820 87322 73224 112004
1977.66 154398 2178-211182-78016 72912-130000
1980.55-186032-28530 92744 242818 237498 123160
1983.44 113912 27156-77872 18054-49456-326758
1986.33-275250 158966 205830 67700 603530 826430
1989.23 272988 136760 263532 97768-195970-317416
1992.12-163732-149672-375926-221116 181562 593648
1995.01 735532 494710 174336 136734 392484 122682
1997.90-23198 123220 430388 494356 87852 166828
2000.80 419960 391948 549424 602450 573892 558410
2003.69 700368 782638 639028 522974 410828 809498
2006.58 1060722 570542 60426 526508 1355672 1190394
2009.48 645244 625628 1301408 1193598 451790 392180
2012.37 731462 1329512 1124130 1241574 1730316 1464466
2015.26 1435390 1223830 1117458 1042306 1613642 2041950
2018.15 2145854 1434588 1367742 2152914 1583294 996182
2021.05 1177166 2613576 2591982 1503646 1372964 2278700
2023.94 2569654 1223878 1130608 2330786 2943486 1800576
2026.83 1133992 2035344 2520936 1586180 1137216 1738394
2029.72 2350812 2128928 1072398 1217768 2069578 2175550
2032.62 1542612 967046 1477498 1997650 1132934 562882
2035.51 1418630 2282458 1409828 521654 946856 1387328
2038.40 636936-5792 529216 1197758 744228 130890
2041.29 463784 858134 583202 373718 786694 1376350
2044.19 1563108 2089020 3301454 4959012 8021180 11907440
2047.08 9396212 2896544 613876 358810 159392-81494
2049.97-251024-26808 171812 18360 159824 1000730
2052.87 1127280 179556 329024 1069172 607228 186254
2055.76 1481586 2121532 789750 910684 2296532 1740578
2058.65 1039116 2654294 3284034 1570152 1793278 3477126
2061.54 2668796 2094882 3580230 3828256 2421594 2980402
2064.44 4391646 3595652 3081166 4032588 4232738 3109838
2067.33 3839820 4897476 3668654 3449134 4675504 3885510
2070.22 3419760 5065144 4265730 2951826 4420762 4145212
2073.11 3105676 4548512 4016710 2500510 3846912 3919488
2076.01 3088538 4207312 3547920 2353712 3508342 3401284
2078.90 2750184 3292498 2602188 2015512 2718666 2634464
2081.79 2507734 2580856 1691728 1704610 2156648 1896510
2084.69 1935028 1589190 1179740 1550090 1256880 919346
2087.58 1140240 986778 975618 849924 763142 908666
2090.47 598508 341686 370250 364276 355420 295602
2093.36 203680 181576 111002-16512-121318-131582
2096.26-12324 25030 47898-24400-185878-164480
2099.15-155208-67440-125848-99186-51996-135606
2102.04-253710-146432 76670 83430 27718-87836
2104.93-185612-346400-415826-302446-53094-78366
2107.83-223334-269414-303334-338448-242562-128266
2110.72-3204-63186-249088-90704 88952 24746
2113.61-78270-229586-259160-250886-300582-243070
2116.51-266020-258628-300642-321672-229568-86004
2119.40 62556 102616 93382 149278 180320 257780
2122.29 371314 601998 624388 152294-146688-104410
2125.18-66078-128514-190648-9078 96212-104472
2128.08-93824 171978 91662-180736-624 476942
2130.97 663338 587588 780722 718600 141792 18
2133.86 218620 327948 199746 144288 107544-219872
2136.75-71122 282204 294178 167536 333574 557596
2139.65 367660 426688 1141482 1839462 1399574 769146
2142.54 805216 470728 35604 177044 398836 377234
2145.43 253648 312392 373142 411660 363694 243376
2148.33 430626 483604 364790 765862 1233474 974324
2151.22 852672 881818 578066 379744 350678 403796
2154.11 746982 661096 331644 475368 565902 471108
2157.00 444602 636298 899484 919600 964382 1364054
2159.90 1036968 328178 172224 369518 405996 434944
2162.79 441410 374530 351688 157590 246632 562096
2165.68 508514 319872 338782 377598 193890 41868
2168.57 347178 506372 358304 161832 155900 271824
2171.47 176978 199446 247404 230606 238792 67142
2174.36 88126 358778 605774 603546 488940 408370
2177.25 419410 417612 373142 699800 1062344 1138168
2180.15 1100340 1091898 925680 938614 1368958 1223730
2183.04 690716 677344 814142 1117026 1127074 732288
2185.93 765158 865672 967690 1516706 1966192 1597630
2188.82 1661088 1573822 1154752 1108564 962408 1265338
2191.72 1332400 936250 939950 1162510 1325782 1402834
2194.61 1342826 1135596 1092290 1150046 1224356 1160022
2197.50 963576 887104 885876 800214 828848 1219356
2200.39 1536026 1430648 1344476 1373956 1015648 709838
2203.29 737780 796818 824170 1043492 1420624 1314468
2206.18 869168 736394 749476 886004 1043296 896162
2209.07 688472 723448 687202 748120 1000174 1011616
2211.97 752112 683548 891742 887028 765024 918710
2214.86 833010 526800 535890 511892 346272 351486
2217.75 432622 445058 420682 407110 503406 613734
2220.64 529120 447132 416278 333782 297262 375710
2223.54 510522 499528 492148 529238 528198 472726
2226.43 369280 229666 331522 409604 192558 159870
2229.32 367886 428912 318758 320438 300458 211076
2232.21 269238 320634 230888 145724 92500 74986
2235.11 74324 154346 257970 238362 183986 174722
2238.00 146686 130074 111166 70558 11020 4848
2240.89 42216-678 22400 129828 250818 230534
2243.79 129660 215818 184946 81380 126192 113644
2246.68 142528 138584 46316 140108 196364 159052
2249.57 291644 413520 528422 982146 1369690 1015758
2252.46 705386 662144 416468 235930 168734 105738
2255.36 39806 14330-51192-117566-116364-113922
2258.25-146010-138738-132194-167806-168214-160600
2261.14-224206-269134-202056-144074-180138-246122
2264.03-273008-237414-228882-280314-303836-244092
2266.93-219824-279898-289624-285322-279990-249704
2269.82-253374-273146-222320-193428-181626-81818
2272.71-104852-191322-217970-215008-200250-259674
2275.61-318574-330606-311272-340590-317184-247362
2278.50-256718-295966-289616-255024-83642 13278
2281.39-143270-255924-310586-315072-283662-292746
2284.28-315894-311162-298678-305616-342154-339696
2287.18-301202-258034-212280-19122 296548 316158
2290.07 65440-79300-149514-174730-190406-280588
2292.96-331454-330066-304350-333740-325858-300742
2295.85-348918-343066-255144-84898 14790-22984
2298.75-106978-200590-245696-299092-313280-236082
2301.64-199104-235746-284988-243684-184390-185718
2304.53-244366-267052-241364-253978-236382-243112
2307.43-178450-107300-101212-135622-173296-214082
2310.32-271102-302346-255928-226826-224660-182748
2313.21-64888-14780-176814-210810-186896-218434
2316.10-239878-174986-192668-247858-205826-152380
2319.00-178402-172646-164884-156490-119382-176252
2321.89 23976 202058-560-197874-220738-36828
2324.78-35990-222984-186408-26258-58420-228852
2327.67-164740 56690 5484-166188-28620 225726
2330.57 91452-233420-17056 174590-131262-178586
2333.46 184864 159678-235084-187354 141982 5718
2336.35-284118-83762 144256-50492-6798 284754
2339.24 80952-254252-72830 103900-158944-177500
2342.14 65714-57936-245340-44030 39260-216276
2345.03-208746-38026-138982-286228-234184-154842
2347.92-216196-240486-197292-145234-133642-158224
2350.82-87862-140248-231420-94310-69392-164850
2353.71 14708 638-195330 9812 81168-94926
2356.60 82644 109248-26786 272030 195274-23464
2359.49 246978 102534 7476 305250 65034 54122
2362.39 268788-19226 73752 143270-60420 180930
2365.28 96318 54852 153880-83836 79610 53648
2368.17-54936 76730-1156 67920 29986-32088
2371.06-18414-72058-35864-177348-184414-135870
2373.96-166338-200718-234106-171858-175780-191816
2376.85-219782-216520-170022-132514-182960-241164
2379.74-191030-198076-229046-206176-139484-153136
2382.64-235608-225322-200154-231050-280080-263690
2385.53-245084-238718-281690-287194-227480-227772
2388.42-205168-175390-184340-153826-166832-200478
2391.31-149402-111724-153930-237800-278034-293714
2394.21-280428-293650-303854-246998-224968-268092
2397.10-288554-278594-215374-180846-230526-186108
2399.99-107950-160848-232940-189248-151512-241258
2402.88-322034-261632-241302-251732-249106-265698
2405.78-294724-317046-290432-220818-235582-278790
2408.67-203742 4930 169742 89396-5228-3768
2411.56-109064-266576-261500-242354-315482-338554
2414.46-260830-225144-252642-250334-263836-276590
2417.35-254660-270642-279988-211570-90960-26332
2420.24-18128-157710-282386-305792-310880-251812
2423.13-258212-234648-228296-305564-299782-190990
2426.03-211526-290330-248590-194442-152108-157932
2428.92-66432-40932-227530-317762-338258-350326
2431.81-340082-358168-376460-358774-350746-355684
2434.70-345092-326722-323084-353764-360844-399008
2437.60-406064-374640-355582-348966-393658-419578
2440.49-380842-361382-402746-425690-417250-405928
2443.38-428860-446766-393782-304150-298508-320398
2446.28-316280-323288-267956-164878-154810-219940
2449.17-215754-237284-281330-296872-315540-271602
2452.06-222046-258554-279000-275536-256994-244718
2454.95-313630-329602-291870-330724-256218-200854
2457.85-130662-23632-113104-172078-261126-309128
2460.74-225312-265640-261448-193174-298746-340724
2463.63-257016-173174-174346-245528-227070-224014
2466.52-258538-202244-210150-272130-271166-271886
2469.42-198506-194112-298360-257328-234002-315980
2472.31-285070-290878-344022-302076-285396-270596
2475.20-278922-338022-345736-335668-334474-281940
2478.10-307132-334210-261440-316866-392156-352644
2480.99-337972-357928-348858-337226-399804-444512
2483.88-389904-382900-417514-369058-376258-429918
2486.77-409398-384762-407338-419368-375880-381090
2489.67-418234-414782-424140-418258-383094-398134
2492.56-443526-440870-442578-450012-422564-412148
2495.45-417894-417004-414946-437706-461066-485150
2498.34-484064-427726-438488-497464-485520-479168
2501.24-492904-455168-418112-438774-437166-440386
2504.13-488848-487210-493614-491568-469710-488356
2507.02-479372-468212-484354-473434-457422-443526
2509.92-427308-439412-421720-409060-424214-446952
2512.81-449626-436130-434026-438334-445978-478268
2515.70-498294-483482-503374-522166-505834-472238
2518.59-463732-458632-454824-450994-447224-438906
2521.49-439990-438272-448988-477134-474098-484660
2524.38-486820-484960-482276-467136-489238-510354
2527.27-477764-465160-449144-426062-446482-455324
2530.16-453582-441760-444372-444758-442486-454708
2533.06-474572-496332-477784-480578-501644-488258
2535.95-485106-485642-478726-502080-523606-520986
2538.84-528520-496430-475546-475076-436360-436256
2541.74-471072-452314-386830-419136-472974-462340
2544.63-463316-484462-496112-504422-518862-502934
2547.52-462248-486470-512850-504752-484088-469316
2550.41-474422-485272-504160-501906-521678-534440
2553.31-504120-501188-501704-492954-499562-494636
2556.20-503134-519628-516808-519396-513936-496414
2559.09-495488-472138-493206-517826-513056-508084
2561.98-453710-420474-420218-442252-441056-439396
2564.88-450458-431690-390722-350782-343384-311356
2567.77-185640-123254-238184-324382-345040-374426
2570.66-379698-385780-381858-384950-418536-418408
2573.56-462468-507766-503818-512836-481826-463194
2576.45-488666-470568-456164-475682-498312-521520
2579.34-512980-475156-456696-476804-503682-496812
2582.23-476734-494234-480636-455358-477826-480766
2585.13-453434-460434-476830-496786-505538-496826
2588.02-474400-479080-508168-501022-464150-421018
2590.91-436370-452714-453394-468904-488582-470864
2593.80-467952-512028-505658-489722-472748-457364
2596.70-483370-515128-495714-474198-490302-484452
2599.59-446934-465806-504868-498350-483600-489924
2602.48-480086-463058-452762-474596-495264-473102
2605.37-469540-463988-460866-449004-445296-443208
2608.27-420438-441708-503470-531514-501828-508416
2611.16-534438-484872-468720-486406-484672-483056
2614.05-470668-458928-455278-463018-444116-427996
2616.95-460236-495044-485104-484172-512206-473558
2619.84-440204-437942-429812-457224-460688-456860
2622.73-448442-441366-436100-432758-455732-436694
2625.62-406866-407276-443132-464508-465772-478848
2628.52-459374-435872-456016-486422-463062-449706
2631.41-469452-446818-413482-446816-479164-462756
2634.30-456128-462828-450860-464440-526274-528206
2637.19-468102-456720-475306-474694-477352-457644
2640.09-450868-479082-479996-467636-490418-498530
2642.98-468426-448060-430110-424046-454852-444270
2645.87-406468-430186-492404-500632-438302-429254
2648.77-453598-477542-502434-487280-467436-476600
2651.66-476730-468370-486572-493036-467458-445872
2654.55-472656-484920-467548-476312-466960-472032
2657.44-487774-490344-479398-481584-493174-460404
2660.34-461380-509780-519190-483588-447396-444000
2663.23-484958-466896-435288-491758-500156-484604
2666.12-505502-511676-498916-508058-528250-536296
2669.01-517476-520122-530578-495120-466626-497526
2671.91-553516-559824-517614-495670-503942-482530
2674.80-483370-507134-505978-485488-516200-529088
2677.69-478834-470916-516514-543800-534674-516510
2680.59-536476-547464-522970-517322-508030-506496
2683.48-535002-518430-488124-499776-514682-513530
2686.37-506088-510022-506968-510522-529192-545580
2689.26-559942-573374-569338-549920-522068-501508
2692.16-482722-504036-500382-470566-503664-515548
2695.05-487236-503036-543312-540608-555724-577948
2697.94-542230-475136-461376-533810-541176-539096
2700.83-552996-563624-568920-538572-534844-514812
2703.73-522312-532572-496484-514014-528664-540280
2706.62-547674-535508-547928-541282-553570-552102
2709.51-540552-536124-538558-534964-508066-510618
2712.41-511672-537008-567554-539224-530192-552660
2715.30-528402-542096-547134-549986-581006-551286
2718.19-523402-547216-542306-507460-518610-543980
2721.08-575064-542688-517906-537156-523550-504832
2723.98-469530-475232-527238-524158-513250-527338
2726.87-509650-507036-538146-552258-520492-505980
2729.76-515476-504200-503152-513236-520986-549432
2732.65-573340-541324-503874-519464-511420-508752
2735.55-553260-584620-577656-529830-522894-539844
2738.44-543638-529542-524694-541314-550554-532976
2741.33-523116-566726-588552-555232-506188-518388
2744.23-537506-526864-533542-551830-521428-506940
2747.12-536202-544188-561650-529304-505004-528646
2750.01-545448-559200-548138-571980-595120-546450
2752.90-516618-506818-541858-571800-547084-537058
2755.80-531906-547398-554032-541102-523720-536564
2758.69-539030-522708-552138-562526-564626-563984
2761.58-572956-552380-526440-552886-531350-504850
2764.47-518142-541692-538698-520440-522020-569926
2767.37-613118-594264-585118-586864-557052-551864
2770.26-570724-570832-578612-572742-537382-523486
2773.15-545286-559356-568968-615604-591972-550192
2776.05-530212-563190-579324-565358-602334-641806
2778.94-613354-537736-527056-558458-597818-597086
2781.83-625048-626746-544996-531072-588294-627490
2784.72-629656-662484-680000-608606-561138-598100
2787.62-637166-652842-669312-654468-603526-595052
2790.51-687348-708510-634216-621474-641206-607914
2793.40-593122-614032-629324-636690-622182-690776
2796.29-687818-639572-721192-746000-688476-634964
2799.19-732020-746108-595498-622722-717014-702910
2802.08-650782-744824-724856-638344-722982-782086
2804.97-761790-772012-821222-759148-655840-658034
2807.87-750918-779112-772950-822420-820398-796394
2810.76-814306-836306-856890-795774-685104-695422
2813.65-753108-775696-765198-821224-920750-839156
2816.54-738482-814024-939806-922724-853954-894476
2819.44-851804-760848-813704-892482-863600-813754
2822.33-931596-992154-888480-882510-922186-1002200
2825.22-983248-986664-968510-870736-911196-913048
2828.11-958416-872808-821240-938224-890892-932906
2831.01-967880-975090-956066-991678-1058800-898536
2833.90-870464-899372-933870-1022366-1084188-1109598
2836.79-952364-885702-1035862-1107776-1058446-1104320
2839.69-1153502-1054736-876682-940800-1070306-1024760
2842.58-1111466-1041070-885704-834370-852854-1066792
2845.47-1052842-1020512-1023042-929428-982266-912438
2848.36-974546-1065406-1035258-976268-749576-749236
2851.26-848926-902618-1067570-1011942-772042-521834
2854.15-501944-710798-795758-889588-902384-776786
2857.04-731396-713442-797450-865436-942096-988876
2859.93-832292-768858-722702-693962-800848-944258
2862.83-974710-804870-685424-605206-564628-660564
2865.72-753118-873914-883866-706912-552582-486222
2868.61-547224-672504-808342-825540-663790-500274
2871.51-458562-523380-561310-596596-655782-588716
2874.40-465020-437548-448498-534108-594986-570344
2877.29-497502-447174-490032-527734-550286-537952
2880.18-550092-520906-486420-519924-575536-608716
2883.08-611676-730998-977472-1251472-1461030-1475890
2885.97-1464496-1365810-1196062-1182384-1119476-1255590
2888.86-1290448-1026888-1028624-1083000-923210-933546
2891.75-1193752-1114492-813096-781842-980756-1018928
2894.65-911820-892514-930628-896502-701164-597828
2897.54-622822-761794-819542-728256-706558-650982
2900.43-694728-760980-666794-627916-712396-718990
2903.32-701350-627316-493634-509484-558626-531368
2906.22-560214-667018-736866-691748-641912-566546
2909.11-487086-393756-302614-418230-591406-556026
2912.00-364766-267912-170970-102370-266324-296730
2914.90-301292-277138-151216-43608 232458 322818
2917.79 217502 171422 44762 139890 449532 679026
2920.68 777292 678388 766110 907258 870760 1005942
2923.57 1481184 1853692 1775944 1708382 2199262 2456988
2926.47 2169440 2116150 2925772 3447496 2981496 3312382
2929.36 4544688 4792948 4260094 4277588 5624932 6017660
2932.25 5600936 6409480 7393774 7719696 7176326 7165844
2935.14 9039848 10101580 9695870 9501254 11459430 12601360
2938.04 10858260 11473420 16261010 17585430 13049030 12848100
2940.93 19028390 18508750 13418550 19417020 28463740 23158630
2943.82 14451810 20562160 29370210 23435370 19042440 34230300
2946.72 40402970 25627250 20566920 31592630 37636440 29961530
2949.61 32697920 48255780 45643290 32069060 31469660 39957220
2952.50 46026180 44962710 47357750 53145510 53128520 44932460
2955.39 36672680 45642340 64253220 61363710 49193920 58815950
2958.29 70070800 51227140 34024100 62406760 86586520 59654500
2961.18 48865040 72787330 73522860 41576020 40860800 86922160
2964.07 88025820 47113510 53301690 89142890 73121590 38012340
2966.96 58455130 89591590 73177940 41905060 58927190 84378380
2969.86 62855020 44471820 56061500 74439340 62012420 36387460
2972.75 49923700 70841500 58109240 34931780 40930560 60541740
2975.64 45804550 23815680 37622700 57097290 40451680 20475880
2978.54 32942500 43483620 31679580 27589310 39038980 43363800
2981.43 32037690 23926040 25310830 21840290 14330720 13635670
2984.32 21215120 23042490 27770390 41630460 72888280 132338000
2987.21 276823800 449686600 315130500 82938130 36464480 25303670
2990.11 19648030 15231130 14338530 15439920 15893660 13671630
2993.00 17362530 27872690 26786820 18191170 25249650 35412300
2995.89 28674890 23105250 43618480 55012940 35598420 32426690
2998.78 55932420 57368840 38744540 51244260 77180860 66279160
3001.68 46582140 64441760 84308260 65894000 61903920 80926060
3004.57 87413380 75068140 68689620 90973630 96876800 79465580
3007.46 74490780 92868940 94782020 76927180 91754680 118698600
3010.36 93928720 67801940 92571510 100129200 73605680 90687860
3013.25 120105800 90926620 63961940 83096020 94022470 75933370
3016.14 88755090 107789800 87611550 68789130 73482330 81897880
3019.03 86126790 87272280 83387700 84333900 72818460 54947780
3021.93 64353520 83515420 73128480 57315510 72898420 73859870
3024.82 50527630 54235660 74320280 63179120 55741830 73879270
3027.71 76137080 57984230 51864520 56008030 54076570 49475490
3030.60 47379860 46964020 46965460 43727520 38586620 41371880
3033.50 41100220 37474630 42734900 49388550 50479900 50326240
3036.39 46077760 39608570 34897690 37337100 42657340 39145340
3039.28 33624960 35796120 38015010 35296200 29754860 39342240
3042.18 44725650 36721330 39746980 70244360 81954690 49723000
3045.07 37904760 42076400 42505390 36742040 35424880 40320190
3047.96 38203840 34767140 38054540 46305240 46621440 41756880
3050.85 36478900 36595440 68010760 84028980 54890550 37188500
3053.75 39413820 45463520 40429760 34850770 42606890 51484810
3056.64 43674720 35909400 45042980 56190800 49772110 50466010
3059.53 67686660 138401700 154716400 74633840 53142670 58090180
3062.42 50385670 49476730 59040540 55960110 44312850 48633550
3065.32 58782030 56772180 57873950 59361360 64237090 82630920
3068.21 126397300 122818900 85176060 82592410 68576290 53351250
3071.10 60080000 65013480 61191380 57090960 66770400 84043740
3074.00 75052870 78424620 97436060 101858900 123134500 181160500
3076.89 171311300 104715600 80293890 81853260 82449460 74643660
3079.78 68759760 77376880 82273740 79162710 72008480 70059580
3082.67 84100380 80121950 78797980 111580600 107732000 79779010
3085.57 79862400 82591620 85069460 91798860 90489420 106376700
3088.46 111566100 78363500 69325050 78550940 72795030 73279720
3091.35 72185690 84779940 94891960 89124630 105759600 138768000
3094.24 135205800 80483500 54336690 56910190 67502640 60351840
3097.14 53646310 59158400 65160920 79772170 91122310 84674620
3100.03 76170900 75168800 64738520 52676380 53544890 53263360
3102.92 46006140 50476520 50236590 46459610 47467460 43824270
3105.82 36800150 36150910 41452810 42120410 45848390 58007280
3108.71 68909680 69008020 67179620 71696460 66691430 56577060
3111.60 53998560 62178960 61593730 62668850 68641350 99074080
3114.49 124943100 99639020 74136660 77716350 76572200 67891300
3117.39 81836180 78243700 99587930 136594800 114976400 109344300
3120.28 103863000 95314540 106064800 103192600 104317000 112310000
3123.17 109755900 131469700 173546800 147228500 106578000 102452100
3126.06 97044310 92760780 96977800 91304620 79647060 84353280
3128.96 100780000 102306400 98563310 97130220 131042200 187858800
3131.85 147769400 86698370 91072300 91109980 78097020 79028980
3134.74 83680190 68698580 69872520 89803730 77703830 76582540
3137.64 118339900 136485500 167876500 215269700 141273800 59831340
3140.53 69207300 68562340 54138060 62868860 74316070 63286010
3143.42 48349720 54008270 64828640 63382200 69455150 82340690
3146.31 100239200 106940700 78396020 52437440 64655410 66499570
3149.21 47449590 51529930 60255930 48504010 40376740 53696360
3152.10 65304680 59728640 63721090 89017620 121407400 107061000
3154.99 55444340 42103100 42407100 30017320 29372640 45728520
3157.88 49638150 37226380 36555760 46009980 43549390 36567040
3160.78 50017260 69037000 68693150 47659680 37341250 36544450
3163.67 28368730 27423080 33440320 34235500 26534940 26227550
3166.56 30070740 41653760 50921620 45858680 52180180 79292980
3169.46 74704590 35046970 27790350 38839530 31728440 21983110
3172.35 32564950 36507100 23382000 21513130 30936170 32760620
3175.24 29014650 31632590 45310930 48655180 30280100 25325000
3178.13 33660440 31559040 21945080 23515620 29969800 26363770
3181.03 20834310 24367140 28733600 25156960 24172820 35327020
3183.92 37352100 22463620 17709610 24692390 30815010 25705600
3186.81 20309790 24886640 27410760 21189420 18258370 24875380
3189.70 25960620 19569770 22067310 28686990 22769860 14774080
3192.60 17239430 20650380 16156440 12814280 18184620 24099300
3195.49 18091150 13119230 20050000 22687550 16701180 18377320
3198.38 23914880 17729970 10177710 13253600 16427290 11360360
3201.27 9205090 13671870 13191810 9157500 10340380 14771020
3204.17 18703730 15754430 12348280 15176910 15826930 11076910
3207.06 9839284 13860970 13011260 8653422 9726382 12453570
3209.95 10071210 7546452 9867334 11177830 8889750 8114478
3212.85 10899260 12034550 7910878 6838352 10102800 9485114
3215.74 5986876 6814290 9263328 7032738 4678076 6936526
3218.63 8160350 5233158 4409684 6746984 5842804 3409414
3221.52 4875326 8705814 7526958 3920476 5723298 7958882
3224.42 5248766 3530638 6061062 6491426 3735258 3591840
3227.31 5463096 4487718 2671698 3608004 4600828 3121402
3230.20 2276564 4225476 5075530 2813716 2499876 4314210
3233.09 3574624 1757078 2617516 3608168 2247722 1519476
3235.99 2644488 2685834 1403460 1508308 2373422 1931106
3238.88 1132812 2045720 3368728 2183688 1169542 2371524
3241.77 2589368 1137878 1101842 2269284 1736322 680544
3244.67 1349038 1820020 802436 572894 1405446 1224914
3247.56 458150 833768 1523646 919656 407096 1042180
3250.45 1179988 463794 475442 981646 634438 201330
3253.34 567350 757180 301808 182672 523004 458110
3256.24 91468 363212 788056 344354 23510 444884
3259.13 505140 49956 113244 450126 221300-37354
3262.02 189990 242818-84196-101376 84348-18776
3264.91-167918 83608 205592-134002-116936 119862
3267.81 14780-173368-79736 23414-178228-265838
3270.70-151578-163660-212814-138254-87262-196308
3273.59-231040-93164-71332-198738-184202-158542
3276.49-289834-285722-160600-226548-311454-258206
3279.38-230194-286688-322672-272892-291590-367218
3282.27-344402-265278-322230-339062-243314-260140
3285.16-341194-320376-264072-321068-369990-363638
3288.06-328470-346864-294732-261168-307442-334432
3290.95-353338-350818-362272-318956-273780-318384
3293.84-331024-271202-279098-307136-304156-359922
3296.73-406948-376566-329756-272596-280004-351470
3299.63-387976-359618-397442-444618-399758-387298
3302.52-371688-384322-409392-350956-361538-355472
3305.41-298374-300616-354444-414678-391188-379006
3308.31-423550-436240-422728-395578-367900-363230
3311.20-409904-446908-389864-344234-338542-365310
3314.09-378704-385882-412194-443026-462390-456496
3316.98-417080-420690-461268-501312-509950-451646
3319.88-410596-371080-365582-423364-410864-384194
3322.77-401898-383604-365582-342856-335238-409052
3325.66-462134-429130-388532-386850-392060-418526
3328.55-409998-407630-437650-465354-418384-424538
3331.45-473288-433228-421324-414144-434682-499716
3334.34-476188-363292-350204-446756-419480-360192
3337.23-399986-416270-388686-356658-357670-398170
3340.13-427808-395560-345320-388040-395652-351550
3343.02-404526-459486-440234-431352-467240-492596
3345.91-440910-408934-469288-491884-454148-386182
3348.80-334686-295236-333638-368166-303158-323366
3351.70-373660-384390-398902-435576-429136-421084
3354.59-477886-521936-512002-465402-448520-442128
3357.48-399992-390168-377418-389918-451796-418928
3360.37-367864-418210-455554-397238-355692-375296
3363.27-396304-442628-458298-424802-432316-433892
3366.16-410384-401986-426598-430186-341326-283552
3369.05-339040-399456-406360-415228-429764-363204
3371.95-376104-431628-395994-370828-397098-448686
3374.84-510908-534454-508710-461962-419256-376210
3377.73-407922-474120-465630-435028-371452-347838
3380.62-373972-377932-366994-413390-474314-440134
3383.52-395118-413130-435244-403422-362714-366022
3386.41-378902-397684-379198-389202-428236-388944
3389.30-360472-437276-482504-491068-463310-435190
3392.19-465588-499248-483108-415034-360926-419812
3395.09-488136-497186-481878-469176-417710-370734
3397.98-409834-432748-410766-359642-373576-448954
3400.87-523214-506190-473334-499262-539476-536768
3403.77-464628-491402-545256-572020-578068-547830
3406.66-528170-473806-471532-469016-412684-420480
3409.55-447674-478830-539960-568242-549766-515286
3412.44-527650-524226-474492-510004-500270-448384
3415.34-465678-494334-514696-513068-487064-440918
3418.23-428702-432504-452000-483092-517120-559724
3421.12-526854-438186-477834-581904-594258-588432
3424.01-568362-565474-523574-429124-449050-569902
3426.91-541858-452648-463066-498652-541670-507796
3429.80-507140-488382-459098-504484-445280-390650
3432.69-432936-454966-448920-512628-543224-527526
3435.59-519402-502106-501522-479562-479940-562970
3438.48-576132-540656-530596-494368-496076-567766
3441.37-630366-609204-528626-471876-463798-465242
3444.26-419412-379304-391614-408878-434376-479418
3447.16-545910-590826-552420-468494-498478-576072
3450.05-553984-548858-602674-593260-502018-422626
3452.94-495870-584002-544434-530144-546772-528334
3455.83-473576-451790-490132-505498-545104-568264
3458.73-557806-600106-579740-517498-452934-461690
3461.62-513560-530246-512036-482716-478548-495384
3464.51-477794-415688-459596-452138-380986-388016
3467.40-432866-455296-484782-519270-532176-516422
3470.30-455990-431758-444654-442752-430088-438156
3473.19-508970-520794-408730-420084-439684-416952
3476.08-452738-506398-527962-483942-432816-435838
3478.98-444186-436652-459576-361092-309532-386104
3481.87-454144-371138-299694-457676-509860-419148
3484.76-399266-452010-483694-437164-377968-405084
3487.65-478358-480880-460374-445206-450430-473272
3490.55-418754-470906-538504-502854-446760-473384
3493.44-521718-505650-493226-478802-513274-553728
3496.33-510818-459120-470504-485954-442284-469988
3499.22-521554-439692-446896-474756-475960-434194
3502.12-290328-261194-237650-120856-153082-295512
3505.01-411460-458412-484550-512354-524382-551164
3507.90-534738-512430-479454-494946-507548-433452
3510.80-392684-413644-471320-470430-408264-460224
3513.69-522190-467276-403868-462138-512342-431614
3516.58-383878-416736-439626-386870-423018-442932
3519.47-374562-436814-471150-389188-370186-362414
3522.37-333718-361642-427986-422082-301982-264480
3525.26-307838-328794-376500-449304-442370-381546
3528.15-379028-386758-365948-405140-442496-423002
3531.04-466456-502144-406988-352216-395080-349968
3533.94-315662-377184-324216-282034-361100-385102
3536.83-392998-399706-406516-451310-437502-402130
3539.72-426816-457594-443724-468032-479066-450422
3542.62-475820-494894-459808-432206-411262-403934
3545.51-410782-442010-464694-467338-534156-568192
3548.40-553008-479062-464310-528114-454198-416990
3551.29-527556-553156-500314-473536-484248-509176
3554.19-480682-493214-508736-487434-485334-424120
3557.08-442882-519984-518720-481496-478022-524176
3559.97-527078-539140-556872-518350-493812-532638
3562.86-517426-504064-547436-549752-529918-525242
3565.76-569988-572076-484258-470948-551526-547874
3568.65-497436-487466-487012-483948-516144-522366
3571.54-495230-511432-522552-529306-484004-451048
3574.44-503760-491050-452826-451830-501132-525326
3577.33-492718-509072-492486-511896-512248-450804
3580.22-456060-515550-510796-477070-437478-400130
3583.11-443826-443154-415404-406668-423968-470144
3586.01-526748-567006-572272-539404-552524-522440
3588.90-430950-424102-430884-511960-548494-483748
3591.79-490912-482310-540978-605322-532146-462692
3594.68-497592-557966-533928-523984-562246-527280
3597.58-468318-476244-451522-427118-502800-558020
3600.47-533322-498582-500868-497098-434924-461254
3603.36-519592-494694-476782-499108-514454-470078
3606.26-456144-461922-467010-535402-546682-573100
3609.15-521230-434064-431856-458584-516114-517196
3612.04-538350-522402-486912-480502-445286-430380
3614.93-434102-474714-518318-508114-503290-511858
3617.83-478830-472598-511552-526404-511888-481156
3620.72-474980-485502-432818-413600-426862-440616
3623.61-498530-489822-475470-465056-441846-439118
3626.50-471056-476422-481914-554702-569082-626284
3629.40-565484-441302-460814-466902-461720-451850
3632.29-438592-463078-499192-495400-449554-433660
3635.18-517618-505558-469348-490942-490922-485668
3638.08-462528-498768-537802-539736-521128-497044
3640.97-480096-478810-466836-423896-417814-450670
3643.86-467404-434638-447352-497384-505040-499140
3646.75-487896-443508-423398-491850-566096-547284
3649.65-507248-518272-542866-522812-490526-485788
3652.54-503766-524408-544376-612520-589424-505654
3655.43-553550-593332-459834-462216-562710-538894
3658.32-505166-553996-519898-453210-505788-476306
3661.22-412248-437454-474124-459316-446660-480358
3664.11-503350-503246-467422-412594-429080-459266
3667.00-405436-397330-501878-569012-564948-529926
3669.90-540962-559700-458606-402532-466378-513448
3672.79-501774-478976-510026-594920-529960-494288
3675.68-533774-519284-483930-506472-529644-496802
3678.57-540940-502670-407258-393956-514698-550112
3681.47-581754-551668-471016-472812-459526-507060
3684.36-478844-428472-453308-507242-561280-617654
3687.25-635742-640416-599666-560818-558184-520172
3690.14-579484-722974-638348-430986-466958-578692
3693.04-589930-598770-596050-512024-541658-585324
3695.93-576308-637792-590590-453584-460968-549532
3698.82-572014-656092-718878-627500-553788-538468
3701.72-508714-558028-679768-775466-732304-612868
3704.61-489104-389250-428516-555548-647612-645846
3707.50-685192-707094-562646-557278-683992-606490
3710.39-507606-558224-714920-812506-715018-564076
3713.29-387082-342430-483608-656550-652352-763430
3716.18-799852-434310-316726-486032-607116-628124
3719.07-655636-781976-811892-586118-475150-606432
3721.96-710428-678526-555460-530574-684134-637724
3724.86-429780-534426-655374-550508-534342-641066
3727.75-810124-837056-681494-587504-431284-338142
3730.64-425900-614182-835660-835956-522212-375804
3733.54-529516-714492-750830-836804-922592-896510
3736.43-657256-319056-325576-574074-689708-606244
3739.32-656448-697324-533098-372522-480160-624832
3742.21-625080-628700-761296-942334-808416-498064
3745.11-478416-567764-593094-635360-635500-635510
3748.00-516854-544352-646566-568968-553978-570930
3750.89-675094-806990-636426-384982-397450-476722
3753.78-548230-599270-717200-721414-485480-397548
3756.68-371374-420438-548608-593902-683552-649548
3759.57-484366-416398-377806-410458-506236-582822
3762.46-637698-473840-364594-432746-438900-478678
3765.35-542052-540482-522154-402074-350406-359488
3768.25-331680-321550-366724-437176-425114-355170
3771.14-399918-457136-414710-452428-550192-683676
3774.03-779396-889502-1000968-1100460-1266208-1385530
3776.93-1214844-362210 498798 427504 38792-142578
3779.82-288270-418998-462568-448748-478382-524910
3782.71-503348-473122-475388-461570-436592-414720
3785.60-402566-447642-469238-431186-465042-515006
3788.50-438790-304372-260102-275528-343616-468800
3791.39-566274-512726-332090-250232-279886-367016
3794.28-513186-593080-521624-265974-115000-187632
3797.17-329796-473708-502320-610596-551476-257662
3800.07-180110-408604-625110-629020-562918-482974
3802.96-214940-46524-186568-365402-493052-561650
3805.85-639490-462588-73342-19588-261968-463658
3808.75-502046-599212-544002-134646-33068-302538
3811.64-507720-537080-678448-646042-202012-63856
3814.53-317490-533702-551852-576404-686626-319538
3817.42 34708-75416-295032-440826-627802-753826
3820.32-459468-195754-297268-489384-451644-546110
3823.21-711344-449700-134694-202254-379710-408628
3826.10-507378-591656-245580 40956-230052-448162
3828.99-408112-595872-768058-436620-113054-253750
3831.89-493230-522242-643922-613508-244910-199884
3834.78-387222-485472-515408-635606-652510-452724
3837.67-280976-356370-520394-577352-673130-520878
3840.57-248762-214314-459596-662916-565970-552100
3843.46-415084-134826-157502-339212-484392-548070
3846.35-471070-168802-4720-199358-425500-565686
3849.24-640284-504222-167970-91566-339362-490338
3852.14-524532-530102-394290-348974-389082-356920
3855.03-381404-521138-417242 20746 41138-173426
3857.92-256710-355242-485260-364230-107050-100676
3860.81-247224-323316-299516-352268-259970-94232
3863.71-164788-266326-311940-344032-312624-241904
3866.60-210416-232174-230322-275130-292218-273994
3869.49-345190-228360-133022-223798-229416-217388
3872.39-239636-231322-252630-289790-258740-214682
3875.28-271816-294232-286010-302398-217612-176274
3878.17-89000-114976-209600-223852-267346-275314
3881.06-304200-284262-261938-323338-278928-235030
3883.96-294332-289390-279656-332230-360326-359556
3886.85-344742-220096-121160-173746-189848-244350
3889.74-265876-278960-348934-264942-257622-276158
3892.63-207176-246348-293688-264640-288816-354964
3895.53-314718-315166-364400-303056-232426-179192
3898.42-271116-393070-297672-247712-311654-325840
3901.31-367848-397672-375862-334362-369068-413156
3904.21-343858-342456-370634-292720-258832-254866
3907.10-246596-319610-376250-354374-289276-286366
3909.99-258304-180634-234692-334264-316940-273790
3912.88-324674-387276-351340-339548-337552-314592
3915.78-308560-285406-260106-242860-172334-81922
3918.67-103156-135194-49966 120930 89820-68186
3921.56-121992-193222-220138-177162-195920-231788
3924.45-234120-268118-289822-277646-259216-264366
3927.35-334216-341884-312758-300584-219724-286214
3930.24-348186-330966-332888-247976-301378-405966
3933.13-344872-315282-341134-355844-356448-328704
3936.03-295388-315530-362032-325692-297922-316966
3938.92-354246-355530-313006-269436-267208-344780
3941.81-398512-339068-326386-367398-405794-381432
3944.70-308198-286634-303984-294726-295378-344648
3947.60-328294-349906-432618-453704-453798-410368
3950.49-362088-379650-389120-351582-263132-167958
3953.38-164226-250454-295736-343718-361424-364242
3956.27-397100-367756-337932-318000-238824-189154
3959.17-204964-210634-232076-264728-329792-376906
3962.06-317844-244726-306024-376660-325462-222888
3964.95-177062-177884-127858-157804-251438-257154
3967.85-229850-273574-346010-361344-293270-225976
3970.74-179578-155330-174588-163148-183956-294092
3973.63-319576-296002-313692
##END=
