##TITLE=Bromomethane
##JCAMP-DX=4.24
##DATA TYPE=INFRARED SPECTRUM
##CLASS=IUPAC A
##ORIGIN=NIST, Anayltical Chemistry Division, 301-975-3108
##OWNER=COPYRIGHT (C) 1998 by the U.S. Secretary of Commerce
##DATE=98/10/1
##$SPECTRA VERSION=1.00
##$UNCERTAINTY IN Y=2.8 % relative (B=2.0E-04,C=3.3E-09,D=2.7E-14)
##CAS NAME=Bromomethane
##CAS REGISTRY NO=74-83-9
##MOLFORM=C H3 Br
##MP=-93.6 C
##BP=3.56 C
##$NIST SOURCE=QUANT-IR
##SPECTROMETER/DATA SYSTEM=IFS66V (Bruker)
##INSTRUMENT PARAMETERS=KBr Beam splitter; MCT Detector; Multipass cell
##STATE=gas
##SAMPLE DESCRIPTION=Bromomethane Primary Gas Standard
##PRESSURE=101.3 kPa
##TEMPERATURE=23 C
##SAMPLING PROCEDURE=1 L/min Flow
##RESOLUTION=0.9640
##DATA PROCESSING=3-Term B-H Apodization
##XUNITS=cm-1
##YUNITS=(micromol/mol)-1m-1 (base 10)
##XFACTOR=1.0
##YFACTOR=5.6843E-14
##DELTAX=0.4820
##FIRSTX=575.169
##LASTX=3975.077
##FIRSTY=6.52E-06
##MAXX=3974.59
##MINX=575.17
##MAXY=.0000911
##MINY=-3.47E-07
##NPOINTS=7053
##XYDATA=(X++(Y..Y))
575.17 114865900 114951200 124489600 139347600 151752200 163080200
577.58 174288400 183036600 191472400 202837700 214035000 224499800
580.47 235717800 250325500 267113100 281132500 293536700 308431500
583.37 326482600 345355900 361839300 373680600 385445300 404198400
586.26 427301900 447899800 463498300 475647400 488076000 504735200
589.15 524053900 541426800 556074200 572193200 591444700 608973000
592.04 624256100 638515400 648088400 655585000 666074400 674076700
594.94 677304000 681267700 686018400 690001500 691428200 690623200
597.83 687265900 681438500 675036900 667958800 660423100 653852600
600.72 654002100 660695600 651191600 621966600 586183700 534480200
603.61 479557600 441706200 411585100 382466100 355873600 331774400
606.51 315566100 319033400 358523900 466488900 669189400 859820700
609.40 871978200 796932700 666010800 410501500 230885000 209509900
612.29 240891300 281995900 330153200 382649100 437622400 493106600
615.18 547355100 599854700 650956200 699625200 744375800 783938100
618.08 818561300 848006000 872920400 894422100 911523600 923097300
620.97 929518500 932276400 931556200 924950000 913860000 900482000
623.86 882288400 859128600 834154000 807291700 778074900 746730800
626.76 712791600 677589800 642993900 607266500 569892800 533242400
629.65 496420800 458504400 421892200 386729500 352710500 321013300
632.54 290500500 259933100 231094700 204791500 179519800 155837200
635.43 134685600 115435300 98773320 84909690 72174370 58747460
638.33 47205190 39608690 33858110 27505790 21077320 16335740
641.22 12844520 9609394 6857098 4687982 3594084 3277784
644.11 3171816 2925224 2278312 1373942 1021380 1153164
647.00 801380 1140086 2033706 2576258 2793382 2222600
649.90 1320516 760388 619952 657030 747094 1054510
652.79 881974 468288 976404 1482964 2278768 2958108
655.68 2025894 725012 597758 772346 650898 974506
658.58 1247038 1023354 1074106 1373674 1299166 1181252
661.47 1443778 1766824 1950884 1460684 467536 24452
664.36 225680 546160 938684 1156254 1745352 4027982
667.25 5798028 4366784 1985198 633142-8436-261550
670.15-222694 516216 1502652 1369468 674338 326034
673.04 347740 666456 909692 1320838 1921186 2408638
675.93 2131172 1076420 655632 556956-5702-100396
678.82 622870 1576856 2105590 1604432 271910 110206
681.72 1535398 2191214 1571532 162830-755404-117288
684.61 889870 1081440 889692 986602 1294604 1243204
687.50 1362424 1327172 459980-165712 215874 1164910
690.40 1272802 759754 547808 183836 41930 738834
693.29 1143100 300414-151926 496536 882924 922862
696.18 976970 584844 120534-280866-249664 914120
699.07 1715284 1213668 893070 1367314 1918852 1444714
701.97 545352 375260 316320 278496 627288 730548
704.86 274660-674184-1056972-144570 622744 546474
707.75 222234 123098 500136 997764 1256240 1318614
710.64 1319886 795594 240994 746272 1405870 1270226
713.54 721322 21110-152402 360364 984246 1089806
716.43 319336-372758-171794 424478 932826 854778
719.32 737668 1280066 1672390 1056462 345918 286250
722.22 436226 486534 457880 699128 1169988 1025410
725.11 516804 264760 646334 1048710 658190 338572
728.00 319228 223196 174260 233454 494092 641340
730.89 836964 1022912 871198 836712 779104 647144
733.79 703126 483382 357954 281294 108264 549552
736.68 1271392 1580226 1121208 427510 664164 1062684
739.57 1017874 1318780 1692376 1427066 944500 673362
742.46 364550 354462 900954 1518902 1607976 1453608
745.36 1596578 1393116 883230 782230 1073036 1125264
748.25 642376-41432-93792 647880 1184698 1187782
751.14 1020692 1128298 1586162 1736466 1378870 1042018
754.04 764516 394590 440250 1002752 1312284 1110128
756.93 984768 681966 131248 263868 891034 950136
759.82 720504 536624 571816 655410 702190 1053392
762.71 1254852 926988 7194-620620-284066 342722
765.61 901332 1068854 523276 258010 878764 1327784
768.50 1075574 866866 584426 316024 533106 924076
771.39 959252 650488 93030-55710 241346 495068
774.28 932120 1194364 1020024 714290 435356 224232
777.18-23784-344766-166908 269956 730676 1234018
780.07 1233564 1049992 1276222 1574978 1832318 1676230
782.96 931576 503454 509030 427934 266990-71914
785.86-187390-47384 136578 174958 204894 474394
788.75 694754 904176 1001516 751374 824272 1391564
791.64 1338232 1092212 1405392 1588182 1324764 852146
794.53 435258 176948 84426 116816-110638-426038
797.43-246406-94504-313246-34970 504724 963952
800.32 1416536 1560068 1233266 854086 1116814 1410364
803.21 705382 95072 503844 854342 691462 259876
806.10-227774-216960 528492 1387636 1992632 1840264
809.00 608362-246638 153958 696732 1058488 1336240
811.89 780954 291890 438406 233374 365968 1325578
814.78 1814182 1515686 1294874 873646 99190-562378
817.68-511936 375658 1056512 925480 899402 1145860
820.57 1282252 1259584 1081128 1097260 1062818 711026
823.46 130648-15062 614690 873124 475296 550182
826.35 903432 937250 1100142 1830940 2407220 1819116
829.25 1289558 1211102 921218 623948 627568 955520
832.14 958692 918042 1151520 1194764 1028558 565316
835.03 731390 1436710 1466100 1349508 1522812 1488386
837.92 1170206 993382 1432914 2070366 2298512 2249502
840.82 2036472 1717462 1627842 2013050 2347334 2217698
843.71 2016070 2271034 2936680 3215228 2894380 2670962
846.60 2691196 2855294 2961338 2629738 2309462 2643016
849.50 3344796 3668908 3381792 3177912 3507878 3816446
852.39 3487960 3046388 3255242 3795878 3994174 4253604
855.28 4771598 4979786 5114720 5355694 5434546 5631922
858.17 6353632 6930910 6833076 6523784 6406990 6495454
861.07 6685022 7149734 7954154 8772012 9609572 10293500
863.96 10752380 10840830 10110830 9246350 9093006 9194868
866.85 9347250 9676426 9685592 9894642 10867040 12303540
869.74 14108920 16639920 20169210 23077920 21772850 17239560
872.64 14717970 14586610 14880780 15138160 15661600 16612590
875.53 17707370 18902170 20630350 23233360 26881940 29997490
878.42 28963010 24353480 20841630 20154240 20639860 21250610
881.31 22143880 22974420 24186130 26292720 28959140 32925710
884.21 39490600 45699260 44359140 37253540 33527960 32026880
887.10 28878540 26118070 25366250 26554080 28975290 32799940
889.99 39554050 50948600 69296050 90006940 90343310 64441100
892.89 43567340 40027180 41171550 39566350 36689670 36677650
895.78 39117390 42363460 46963200 54473140 67543340 86364020
898.67 96321300 81703240 60380020 53602090 56062620 59313810
901.56 59235930 55345990 52615810 54489580 59867600 68632040
904.46 82857070 106003800 131599000 130158800 97295900 73856130
907.35 73008390 79552060 82985940 79586170 73369450 67732120
910.24 68346080 80678160 106039600 151733700 226237600 285530700
913.13 240178900 132678100 78336030 73516720 78601060 81764740
916.03 79967910 78404620 79676970 81530090 89066100 109388300
918.92 147074400 203496800 237065900 191501100 118340100 89836670
921.81 91150750 98067940 102768800 100718300 97292330 99105610
924.71 106318700 118117400 141176000 188026400 260018200 297284800
927.60 232192800 139317500 105626100 108256800 120636000 130655400
930.49 125399700 114869500 116572900 132292100 164254500 221547600
933.38 325630500 493878400 598482800 452258600 210736900 107067400
936.28 96693900 102539300 110829700 113307600 108262800 106604400
939.17 114743400 132864000 165773700 225510000 324200100 409102300
942.06 355549300 207127600 123589600 110643000 115693800 125618000
944.95 133461300 131463800 124956500 126141000 139382000 167361400
947.85 220204300 315305200 429369800 426038500 271896200 146807200
950.74 116607800 119406100 131556700 148192800 154289200 140484900
953.63 128075900 137533500 173192700 249950300 406497800 672351700
956.53 847245600 637494700 283151200 132934200 113685400 115793800
959.42 122912600 131528800 134844200 131240000 131528700 145116900
962.31 174993900 231628600 331628500 448309100 441698800 285804000
965.20 162487000 130339200 127065000 130626900 137034500 144261400
968.10 145735300 140274700 139841000 154594600 187451700 249418000
970.99 352358400 433839900 365486600 210390800 129201400 116304500
973.88 119864700 127211700 135375600 144231400 146391700 140432800
976.77 144948600 176271600 243993300 369724300 557425500 649285100
979.67 467007300 212043200 110127500 95314990 99774350 113624500
982.56 123934400 129210500 131892900 130534600 132460900 145826700
985.45 175395400 230424400 308324500 334577600 248932600 150006800
988.35 114753400 106019900 101589400 103911700 112104000 120076000
991.24 123843900 122503400 121536900 129842100 151765500 193787400
994.13 253431700 270439800 199064600 119570200 92005180 86514450
997.02 83367520 82044750 84121940 92707360 104446300 109883800
999.92 110949300 121755500 153046100 213893000 302937200 339061100
1002.81 242648200 119660100 74051530 67116890 63311510 60534750
1005.70 59105010 60077020 69539460 85105980 93924620 97216970
1008.59 105494800 123366400 152532700 171120100 144246200 97467020
1011.49 75950790 71395600 68282330 65861940 64024980 61889500
1014.38 60704870 62392900 67899210 73297600 77986640 87055100
1017.27 104187200 120855600 111804400 79337120 57382670 51401890
1020.17 49339390 47415920 45819230 44314100 43077010 43029640
1023.06 44901240 49093700 56787870 68912280 88632600 113994700
1025.95 118482300 84308070 48264870 35789090 33176260 31356160
1028.84 29836490 28514120 27473840 26812010 26606300 26704930
1031.74 28069640 34217720 45125810 55500830 61101790 55348260
1034.63 42338190 34666000 32599320 31030160 29097060 27682300
1037.52 26849850 26029600 25369250 24954280 24791910 24755410
1040.41 25695860 30074320 36653720 38018600 31276370 24060780
1043.31 21336220 20344280 19474330 18757550 17967390 16671100
1046.20 15428120 14931760 15242590 15894200 16989320 18681830
1049.09 22063170 27059280 26913910 19583700 13823980 12315620
1051.99 11675930 10793220 10157150 9529272 8684184 8318708
1054.88 8504518 8247726 7918064 8326242 9174650 10022720
1057.77 10891800 11445340 11428520 10924750 10249990 9641600
1060.66 9312672 8886558 8290836 7779418 7433932 7088172
1063.56 6851852 6741400 6827226 7129420 7460174 7139206
1066.45 6173346 5648614 5742242 5637134 5290286 4912544
1069.34 4709272 4584668 4329864 4297028 4586584 4324600
1072.23 3642078 3323296 3729646 4424542 4569120 3967738
1075.13 3214144 2548918 2238156 2505704 2741452 2481456
1078.02 2404134 2555074 2369644 1908502 1622702 1654708
1080.91 1742346 1730820 1732792 1645208 1471962 1303684
1083.81 1530016 2032744 2413968 2318816 2047366 2130772
1086.70 2295010 1832086 1374000 1488366 1503814 1525308
1089.59 1608010 1274708 964240 1061346 1298506 1082512
1092.48 822032 769026 695334 853824 1171486 1231086
1095.38 1128244 1145226 989016 545676 668692 1062436
1098.27 1245912 1374974 1196620 789262 663554 745286
1101.16 733224 625832 686856 845874 971114 920518
1104.05 698690 373048 192110 462116 899156 1056156
1106.95 1107270 885956 718460 868126 862194 713958
1109.84 581684 429200 318630 237668 413302 670054
1112.73 692066 711270 944708 1119068 799134 149578
1115.63 50566 226986 271536 220512 289298 469884
1118.52 421528 330610 529376 867068 985872 775866
1121.41 715826 790414 636572 278122-53730-65002
1124.30 311190 464844 314044 157188 234260 681726
1127.20 1116964 889448 491694 365110 510854 719912
1130.09 542460 313852 362950 383484 310434 61424
1132.98-132970-149534-93992-45482 124148 313284
1135.87 640036 845446 525814 120794 16018 100170
1138.77 266378 442228 608078 513114 280142 310608
1141.66 485164 534896 431650 201274 337290 645298
1144.55 576112 335036 261720 346510 293022 133626
1147.45 329926 501612 433520 482802 704172 745008
1150.34 709676 758412 550294 387096 520564 669726
1153.23 837734 725114 630570 728636 757060 959378
1156.12 1264638 1306242 1169892 843264 303062 164248
1159.02 657176 943038 872654 737354 606770 621812
1161.91 823520 1069946 1254208 1201534 1097034 1090608
1164.80 1013466 908944 921448 844176 756654 849442
1167.69 1072520 1280364 1288078 1013840 884474 1096520
1170.59 1096164 783530 685778 969170 1399354 1478016
1173.48 1352904 1319054 1502222 1809142 1799210 1312194
1176.37 1044818 1435574 1935480 2118078 1960714 1662140
1179.26 1510534 1746610 2001482 1900022 1743684 1917056
1182.16 2178582 2079428 2064568 2159172 2221402 2245750
1185.05 2200618 2275970 2546006 2692784 2859984 3025202
1187.94 3081534 3121400 3226462 3117724 2936994 2727772
1190.84 2500140 2482880 2694606 2931438 3089612 3255368
1193.73 3523350 3726708 3969604 4173154 4120446 3863550
1196.62 3693512 3726334 3761076 3732218 3800202 3887892
1199.51 3979476 4108016 4271840 4162766 3952360 4058158
1202.41 4372084 4458562 4234298 3946782 3697630 3500286
1205.30 3709242 3970956 3773696 3526752 3565978 3721224
1208.19 3743354 3515318 3366788 3383862 3447672 3685902
1211.08 3905444 3764266 3581672 3745488 4154584 4171854
1213.98 3517778 2535604 1961048 2146262 2571988 2593640
1216.87 2625622 3020056 3409800 3560070 3639568 4030496
1219.76 4672574 5132810 5562648 5902618 6049524 6126174
1222.66 6279898 6428230 6233118 5929996 6223846 6814760
1225.55 6898886 6408388 5896962 5677194 5695856 5713562
1228.44 5497996 5144314 4782452 4346734 4056136 3661724
1231.33 3257630 3198464 3135516 2956116 2714014 2484784
1234.23 2262494 1717298 1354926 1737752 2061572 1530076
1237.12 911692 870944 1403472 1917666 1939356 1801792
1240.01 2028106 2385284 2442920 2543420 2731468 2521448
1242.90 2435128 2722110 2950558 3049684 3048472 3060920
1245.80 3575960 4355516 4610788 4282222 4031736 4116692
1248.69 4356564 4763588 5243844 5432524 5456184 5632100
1251.58 5970082 6576902 7444228 8121668 8580370 9060138
1254.48 9954062 11233980 12358390 13350160 14600660 16132380
1257.37 17719870 19317400 21381050 23714500 25660620 27312770
1260.26 29289810 31740120 34398620 37220380 40343870 43583800
1263.15 47235640 51369030 55452790 59694890 64503460 69744220
1266.05 75359920 81450160 88103190 95144070 102605000 110563900
1268.94 118982300 127853500 137359300 147544800 158616300 170519400
1271.83 182913600 195515700 208244800 221603400 235981800 251225200
1274.72 267423000 284543800 302246800 320493000 339470200 359378000
1277.62 380176800 401444700 423138600 445744500 469372500 493569000
1280.51 518277200 543640300 569567900 595948900 622819800 649922300
1283.40 677428500 705206600 732595100 759448200 785758000 811790800
1286.30 837486700 862665500 887689500 912026000 935068500 956639600
1289.19 977259900 997234500 1016341000 1033216000 1045594000 1053429000
1292.08 1058939000 1063392000 1066128000 1066707000 1064425000 1057716000
1294.97 1045934000 1029369000 1007784000 982256000 953445100 919737000
1297.87 881217600 838870000 793274200 746764200 698805600 651725600
1300.76 609727700 557854700 480623900 392261700 315988400 261946800
1303.65 241340400 282229200 471701700 923612700 1368352000 1319837000
1306.54 913865700 569061200 382706800 333721600 391013800 489168000
1309.44 578727200 647981600 704404200 760787100 824750100 892325800
1312.33 959489200 1024711000 1086215000 1141741000 1190442000 1232957000
1315.22 1269028000 1297931000 1319247000 1332641000 1339448000 1340968000
1318.12 1335921000 1322393000 1301410000 1276061000 1247575000 1215468000
1321.01 1179136000 1139229000 1096654000 1051337000 1003503000 954023600
1323.90 903940900 855351700 811782300 770425400 723814200 672036800
1326.79 619333200 567804400 518258100 471175000 426850900 385331800
1329.69 346735600 310712600 277441700 247517200 218989700 187860600
1332.58 157216000 133594100 115710400 100661600 87798040 77093670
1335.47 69102990 63787740 59340530 58650660 79106920 122411300
1338.36 147879900 136131500 110480500 87476750 69677000 56995080
1341.26 48222910 41797650 37232540 34360710 32629560 31523140
1344.15 31059260 31036270 29750020 25790370 21949190 20900030
1347.04 21400730 22580520 24871920 28394640 31398410 33920850
1349.94 48799150 89182140 124825800 121072700 95920150 74155450
1352.83 60305580 52473910 47949020 45170180 43909240 43662080
1355.72 44082940 44655560 45046050 45886670 47857580 50719450
1358.61 50891350 45545390 40673110 40603380 43866040 49323880
1361.51 53790640 55662590 70906310 129133300 195698600 196623700
1364.40 150327600 110229800 87188420 75626950 69545050 65672660
1367.29 63828590 63658180 64333550 65573500 67083440 67977580
1370.18 68536250 70267980 73267060 72160420 60137970 46700010
1373.08 48419450 61050310 66960090 64438680 98080720 260445900
1375.97 467424500 473406400 317105900 185199700 115903500 83457440
1378.86 66978560 57596460 53350300 52435170 53051020 54311880
1381.76 56156290 58189820 59827240 61934940 65571210 69626030
1384.65 71489660 70248940 70824620 75445030 75682460 73354110
1387.54 102053000 226211600 370792800 356281100 233599700 144320400
1390.43 104562100 88595940 81296360 78360500 78338520 79603900
1393.33 81195040 83298740 85265500 87110500 89684270 92675070
1396.22 96471750 102666100 107586100 112299400 119293000 117451800
1399.11 106041100 103503600 163201600 354270100 511408500 430097800
1402.00 258152400 159817100 121772100 107294800 100832000 98602890
1404.90 98332310 98548060 98892640 99852060 101418200 103794400
1407.79 105811500 105836400 106037800 110574100 122259000 149162200
1410.68 171549100 152958300 116964600 135699900 404816000 934942800
1413.58 1096188000 704911100 327395700 167946900 112460700 91611180
1416.47 84898000 83666600 85020190 86918500 89975400 92826910
1419.36 96174770 98248980 99856890 102219500 109123000 118330800
1422.25 133748300 149089900 144753000 128808000 126144000 203363100
1425.15 481344400 724275700 590767200 315884900 177483700 134242800
1428.04 120623600 116424700 116938600 118115800 119560300 120545600
1430.93 122380900 125147500 130212300 133332100 132279000 130202100
1433.82 134117900 151817000 171449100 163271100 144266900 142197300
1436.72 197301000 454947800 786907500 729081200 401604100 204904700
1439.61 145858100 127965600 122644500 120786200 120390400 119992700
1442.50 121838600 123278600 121151300 116756700 115238100 114978400
1445.40 120583500 154673200 203303100 189041200 137969700 119830000
1448.29 137177300 409401100 1232754000 1602945000 863136800 241334200
1451.18 134207600 123513000 116868400 115273100 115751900 117071700
1454.07 118342500 121585000 123458900 124445000 125904700 127984200
1456.97 127480000 129664300 143678600 166764800 168183600 150429800
1459.86 138401500 139198300 199050700 468650900 769182300 658684900
1462.75 341859100 187997400 150195800 142015900 139991300 139146000
1465.64 138308000 138767500 138194400 136663800 135540900 135161700
1468.54 133129300 132319800 139460200 159167700 165978700 151846700
1471.43 141473400 137718100 142056900 248319200 554741100 722286900
1474.32 485287500 223407200 141845100 129821000 126226600 123976700
1477.21 122784700 122678500 119049900 115054900 112080600 110237100
1480.11 107388400 107099500 118811600 152546200 164589100 133210900
1483.00 106952400 104481700 110873400 189437900 592133600 1098845000
1485.89 942424900 402225200 145741400 108915300 120332100 130852900
1488.79 132463900 131791000 130453500 130177500 129513500 127859000
1491.68 126325600 126691600 133722100 147604600 148030500 133465600
1494.57 124727200 125442100 127952000 145564800 279738800 509706300
1497.46 500212400 268896700 136270800 111297900 109755800 117067800
1500.36 124515500 125455000 123175200 120265200 117649100 115314800
1503.25 113112300 113172200 120379800 126393200 118461400 106335600
1506.14 101513500 102626200 103929600 115599900 223645600 399961100
1509.03 373777300 186955700 92567060 77875570 74953690 73414860
1511.93 77238720 84706900 87572680 85527980 83254000 81208660
1514.82 81384060 90734570 103000900 96816300 81184660 71907100
1517.71 68973030 70043860 74086790 121746300 340890200 548139300
1520.61 397479800 146884300 66353800 57175020 54822860 53136240
1523.50 54129710 64302090 82032600 91870020 92486350 91406680
1526.39 93999130 96797020 93374670 87245090 83585400 81170580
1529.28 80215970 80668140 84868350 129596400 224013600 228896000
1532.18 131810200 76001980 67401710 64778260 62372100 59973210
1535.07 58106630 57959640 62193240 68429650 71555590 73577820
1537.96 73683180 70230560 66407980 63590930 61105980 58820240
1540.85 58095080 59644490 79996660 139405600 159396000 98558370
1543.75 52022810 43370850 41264160 38882970 36631560 34906820
1546.64 33654440 32437390 33825570 41157520 48397600 46776410
1549.53 42112790 39259740 37298650 35926870 34940240 34609540
1552.43 36915470 66888250 145037300 164414700 86969760 35019680
1555.32 27371710 25998200 25038080 24206870 23532320 23216450
1558.21 22765580 22703140 25389730 32356050 38645040 40274440
1561.10 39384210 38455780 37826230 37147060 36217780 37256860
1564.00 50854380 71778390 64006050 38906950 28873560 27534110
1566.89 26773280 26078520 25357570 24687260 24145710 23979280
1569.78 23595680 22301910 21438950 22797340 24544270 24522620
1572.67 23688750 22886300 22300930 22262350 26456650 39072680
1575.57 43049070 29700810 19622220 17561950 16859160 16179890
1578.46 15467120 14627430 13791670 13612570 13378570 12173040
1581.35 11196340 11024060 11665950 13445260 14943640 15136190
1584.25 14953130 15005930 18719960 31546970 37703590 24689440
1587.14 12848560 9931730 9228728 9101284 9117366 8963248
1590.03 8799452 8743666 8595218 8332572 8216792 8067226
1592.92 7894044 8110336 9373690 11298750 12099600 11749170
1595.82 12778140 16078360 16615090 12864500 10278120 9806684
1598.71 9929454 9805370 9566500 9653932 9737552 9338120
1601.60 8861760 8522644 7918140 7214120 6902872 6728736
1604.49 6604506 6764000 7222552 7824544 9426768 11140400
1607.39 10303490 8479136 8087918 8044976 7519750 7012174
1610.28 6675894 6087794 5602594 5410438 5279128 5065316
1613.17 4941072 4976498 4988264 5031048 5382254 5939144
1616.07 6666378 7435888 8265240 7696096 5854624 4902714
1618.96 4724398 4473662 4213240 4275534 4607876 4735726
1621.85 4657680 4617988 4718864 4631552 4191484 3975018
1624.74 4081986 4126074 4099686 3934754 3887480 4278214
1627.64 4597232 4488374 4378400 4142286 3877304 3626722
1630.53 3420546 3704226 4113280 4020226 3783258 3592012
1633.42 3436314 3522268 3822368 3987878 3380360 2369728
1636.31 2249794 2667274 2693862 2251444 1968988 1992642
1639.21 2195274 2431434 2470274 2391722 2314498 2241728
1642.10 2209646 2153670 2064220 1816996 1580360 1682818
1644.99 2247066 2609244 2286412 1998278 2172214 2060456
1647.89 1740434 1778688 1899390 1871584 1911736 1772416
1650.78 1465604 1822046 2907010 3502268 3345580 2596348
1653.67 1930478 1675736 1395464 1261914 1162972 982488
1656.56 1000482 1059574 1093054 1224346 1280496 1033142
1659.46 640414 473628 675456 773186 768232 1162522
1662.35 1535428 1319018 925310 602028 475408 603730
1665.24 669462 680650 982228 1193174 986576 813780
1668.13 1039300 1439198 1333958 738416 422784 513810
1671.03 796206 934644 869514 776124 671978 552072
1673.92 665774 1226918 1664258 1255672 664054 580412
1676.81 748176 684510 423330 309118 416096 540446
1679.71 647852 744826 786644 769540 608958 500712
1682.60 693582 947388 1340832 2021698 2137842 1471170
1685.49 986218 649820 479900 518692 535984 605640
1688.38 758100 808744 695500 519856 334918 51148
1691.28-127656-70594 110646 299228 553270 727834
1694.17 746970 1141080 1991314 2004518 1067234 421038
1697.06 192794 221546 448004 572618 1023904 1659140
1699.95 1833606 1520120 903882 368858 237614 263598
1702.85 219036 346608 687646 855108 730932 489614
1705.74 422556 360086 147862 50464 197366 339868
1708.63 399852 453714 517324 504580 336112 234618
1711.53 427228 605114 499994 356454 351174 516526
1714.42 863140 849978 395254 272770 1084840 1953946
1717.31 1665554 996178 733812 643882 689118 616568
1720.20 460740 577164 684262 482960 397688 506396
1723.10 599624 439328 111432 44522 220488 394050
1725.99 547792 627974 568776 297340 156434 342196
1728.88 557008 642590 624164 588116 566688 532680
1731.77 555328 774588 1214296 1356456 1411084 1541770
1734.67 1220768 708630 452722 378900 394026 485276
1737.56 531052 445640 388662 683974 1037710 1000930
1740.45 816920 636172 424700 346998 497994 560418
1743.34 542032 642260 704852 606298 474450 503106
1746.24 644582 570678 547702 730024 756786 504006
1749.13 267682 259452 462566 829688 941188 577318
1752.02 366340 487222 613732 812600 939060 796176
1754.92 650498 610296 669244 668564 483494 399856
1757.81 340310 260232 461348 549228 318866 218692
1760.70 507830 880706 948188 840646 878562 883454
1763.59 721064 568142 473650 337022 235144 221716
1766.49 243504 390316 684850 763434 583764 518640
1769.38 548434 565138 761764 875326 825302 1020156
1772.27 1258080 1097354 819934 680388 547774 453966
1775.16 515774 475012 366770 415344 470776 427268
1778.06 493100 578220 530682 437260 283928 72560
1780.95 58210 271324 321164 145822 26822 53822
1783.84 251190 568510 786416 780970 668824 491140
1786.74 262610 157480 215800 233934 232552 353582
1789.63 625916 858924 824424 546060 583122 1005888
1792.52 1024144 511652 182332 238420 350474 321338
1795.41 382942 561324 607726 418118 141098 82066
1798.31 342580 584380 564208 458768 348322 131454
1801.20 77632 268852 418152 445462 472454 466064
1804.09 385274 272578 218824 268458 312424 246298
1806.98 205504 233928 325928 389128 457108 485612
1809.88 378774 199194 182246 335308 445342 505180
1812.77 579186 581238 357522 143316 264198 290504
1815.66 122568 108666 213296 281854 375122 485004
1818.56 507808 518462 530888 471800 462880 453104
1821.45 401544 318872 261410 210522 6074-292286
1824.34-267856-146714-297612-336440 65804 602984
1827.23 823098 748324 594058 486778 526452 548922
1830.13 504000 429434 442872 572266 606640 366080
1833.02 175690 287304 386218 369452 438144 702376
1835.91 1032966 1215512 1161852 772208 257416-126134
1838.80-236324-155828-166906-175496 70668 348930
1841.70 358850 226468 183296 419750 876914 727040
1844.59 218540 139590 304604 335904 353764 508628
1847.48 538098 468322 507918 607918 767606 785068
1850.38 679920 599074 279130-96922-177868-264094
1853.27-385658-415788-263492 54456 476940 865998
1856.16 882570 625504 511036 538260 593810 538756
1859.05 352204 267480 273154 245754 498242 901624
1861.95 1092212 1121674 1068168 1152396 1404922 1361448
1864.84 913310 413420 146494 2824-154230-310928
1867.73-415504-339240-71548 231532 891178 1600896
1870.62 1797828 1724712 1644216 1469884 1398776 1414000
1873.52 1271788 1165462 1368334 1735626 2063044 2405968
1876.41 2777252 3213750 3710640 4155582 4338886 3906266
1879.30 3140510 2635176 2380826 2396766 2579960 2592464
1882.20 2441558 2471886 2667648 2956440 3394954 3976534
1885.09 4562728 4895638 4902858 4839790 4835530 4841102
1887.98 4911232 5115496 5429318 5692866 5905822 6105916
1890.87 6344908 6636714 7056524 7532476 7523084 7102770
1893.77 6826120 6765610 6803284 6563598 6122654 5955630
1896.66 5965922 5826876 5629412 5552746 5661430 6235178
1899.55 7009250 7328198 7267260 6897984 6445276 6206918
1902.44 6237846 6452670 6600480 6391226 6000268 5732428
1905.34 5557370 5470158 5654636 5902252 5424476 4394042
1908.23 3801562 3615880 3678666 4109030 5028600 6383684
1911.12 7239706 7189322 6425688 4728244 2982486 2543710
1914.02 3694672 5230562 5849788 5781824 5755470 6074474
1916.91 6713784 7306770 7628508 7834066 8250078 9033646
1919.80 9857258 10556810 11396980 11798230 11210510 10493240
1922.69 10338700 10308120 10197320 10061510 9854794 9417888
1925.59 8833380 8254746 7669350 7220710 6812544 6275388
1928.48 5997466 6147922 6155190 5594080 4839582 4315316
1931.37 3828412 3139746 2455648 1928306 1648734 1549612
1934.26 1445498 1303648 1088640 762722 549592 606908
1937.16 612990 386810 189558 102232 47386-76798
1940.05-227346-384234-490882-527416-621878-928288
1942.94-1211340-1065274-335666 459510 549798 213172
1945.84 137798 207048 259100 242452 94938 138186
1948.73 342674 389786 456918 497284 293712-16680
1951.62-230432-280642-130846 44800-11976-218506
1954.51-161912-111324-414910-801958-1133776-1449884
1957.41-1645996-1701950-1597848-1303834-498762 475070
1960.30 764904 712886 797068 713074 486458 309488
1963.19 365660 734842 1181258 1377774 1037736 331714
1966.08-87350-143376-128104-776 201284 209244
1968.98 163196 180416 230552 259718 183860-123312
1971.87-491352-518230-433016-584582-644964-398596
1974.76 79594 459794 500964 417902 382828 425776
1977.66 409962 316620 464378 638752 563650 301262
1980.55 118140 96062 150128 216016 220872 308006
1983.44 519264 525346 244590-8128 20372 52172
1986.33-83206-261168-367248-415528-528478-679330
1989.23-562750-151318 344628 562388 426896 216434
1992.12 70038 134772 402538 685086 772220 632758
1995.01 454910 282242 217058 196334 129776 37618
1997.90 91584 260594 391462 604036 696604 481808
2000.80 261580 88680-14284-92294-295404-549160
2003.69-727004-863204-841786-535724 107132 634204
2006.58 757818 793452 794296 641822 612946 746180
2009.48 614448 272252 63314-41076-34026-45574
2012.37-88622 109212 299002 113968-63700 23584
2015.26 241554 331412 326694 217938-35428-133738
2018.15-61164 21630 9468-148462-217460-230256
2021.05-57858 180404 164334 164364 284052 274738
2023.94 112256 61374 259300 228706-82778-212838
2026.83-147528-166568-90180 272344 483390 267528
2029.72 123712 181652 153060-4486-57292 181138
2032.62 498452 402954-58512-278660-187732-219136
2035.51-271090-277820-260064 10602 351186 430800
2038.40 332360 170858 56982 69194 120546 102716
2041.29 202630 343376 223668 49656 73650 202562
2044.19 401194 448744 348536 350518 341714 169790
2047.08 43500 98946 126132-12366-78488 15946
2049.97 57052-48504-58360-51446-213798-215478
2052.87 90832 345830 490218 615236 763586 863420
2055.76 875560 771320 575400 484132 435640 360472
2058.65 441812 426796 361368 361880 270476 214778
2061.54 264060 360560 479870 548636 604452 496318
2064.44 192678-77744-204400-220654-193716-116124
2067.33 138292 499260 722524 605722 424966 415972
2070.22 361768 217316 123400 50368 165100 495552
2073.11 608158 433714 347712 404968 356056 222246
2076.01 83938 61320 419738 702018 627028 409016
2078.90 262426 404420 595660 606154 647082 775684
2081.79 641076 221450 84318 164160 192424 202282
2084.69 244888 559384 908172 551124-99682-133426
2087.58 240828 266764 4092 16730 427162 963308
2090.47 1069572 766314 497818 398414 400660 294308
2093.36 284664 712510 1236596 966364 364580 210618
2096.26 262542 298760 360924 397092 825998 1245788
2099.15 792746 179866-74164-159224-80216-2802
2102.04 411724 1287984 1481088 902702 427496 72332
2104.93 9142 113862 224330 888140 1562896 1073276
2107.83 299644 69626 49020 127584 308196 629318
2110.72 1352890 1729042 1134146 475604 208412 124386
2113.61 203184 440100 1058284 1681286 1274868 416568
2116.51 100924 172424 236788 340102 796312 1513672
2119.40 1418270 585696 227940 83844-100232-60486
2122.29 278736 1038172 1435940 840230 336994 278158
2125.18 296594 327530 339396 569478 978388 786794
2128.08 249224 136884 262908 248306 184832 410514
2130.97 921480 936356 482750 235392 305072 485450
2133.86 563256 650934 791908 564576 201510 146904
2136.75 330178 494680 511180 542000 662648 678490
2139.65 720378 796590 624572 457488 491968 445964
2142.54 307968 263198 269420 156430 22872 112614
2145.43 426986 717400 896784 863002 758572 732896
2148.33 636092 398190 233058 499968 980636 1044996
2151.22 894318 771692 574332 452864 656258 1256238
2154.11 1651398 1245298 749648 628674 592748 687122
2157.00 1182118 1947028 2099648 1321020 673544 559472
2159.90 729234 1040152 1710098 2475732 2160270 1261468
2162.79 977608 1135784 1368212 1518216 2098062 2509506
2165.68 2015634 1492062 1419470 1409926 1362688 1990052
2168.57 3109368 2928304 1915900 1673814 1878048 1920210
2171.47 2022578 2763694 3292418 2772550 2220318 1922554
2174.36 1779712 2026550 2950474 3668904 3101018 2319502
2177.25 2171592 2331376 2622162 3412708 4379332 4227116
2180.15 3538466 3236448 3079190 3200320 3884016 4603122
2183.04 4291166 3448518 3154052 3151790 3254390 3808774
2185.93 4791712 5095936 4586494 4310732 4581038 4761966
2188.82 4822318 5272956 5134422 4345102 4158738 4505734
2191.72 4929308 5585708 6577166 7035106 6844374 6716406
2194.61 6491480 5878802 5597578 5977426 5916934 5218274
2197.50 4964830 5248994 5607958 6121874 6770304 7194318
2200.39 7536126 7781950 7676860 7319784 7215464 7275884
2203.29 7126650 7084430 7168876 7178452 7344402 7789870
2206.18 8542260 9370352 10098450 10630230 10469900 9502910
2209.07 8672112 8557802 8981490 9487472 9980588 10457960
2211.97 10835750 11176820 12010040 13697330 15607920 17074550
2214.86 17141400 14157830 10035750 8228364 8341152 8622904
2217.75 8831448 9228310 9652670 9989422 10467080 11359050
2220.64 12702700 14282450 15366840 14606970 12233740 10494230
2223.54 10017150 9921390 10137980 10575640 11028760 11786210
2226.43 12854690 13899940 15116220 16873140 18881120 19731970
2229.32 17574010 13480750 11121140 11050400 11793510 12747690
2232.21 13761040 14893280 16405490 18441230 20817370 23554050
2235.11 26785260 30340920 32396520 27881850 17799590 11028400
2238.00 9718670 10109940 10532990 11039190 11804510 12560600
2240.89 13317110 14420820 16181860 18641540 21410270 23383480
2243.79 21782660 16169080 11859640 11021940 11174350 11515010
2246.68 12090270 12465180 12916230 13831700 15204560 17011740
2249.57 19280500 22042910 25055770 25959880 21266930 14408780
2252.46 11462050 11663660 12311110 13040480 14034850 15178960
2255.36 16715870 18747670 21399620 24911260 29262040 34587090
2258.25 39627830 37533460 25029820 13427740 10000490 10009430
2261.14 10339470 10858880 11607810 12488310 13435450 14450260
2264.03 15687310 17229570 19166410 21720860 23877450 22018360
2266.93 15955460 11503560 10684220 11041180 11473360 11893600
2269.82 12386500 12934390 13456460 14012560 14903470 16279870
2272.71 18080280 20339730 22424700 21151310 15570460 10623070
2275.61 9211008 9709268 10521160 11245050 12075420 13011250
2278.50 14106590 15378480 16829180 18690610 21175010 24248950
2281.39 26985680 25634490 18051150 10350130 7544842 7589916
2284.28 8331866 9219380 9974474 10431120 10890610 11502830
2287.18 12082290 12533600 13205290 14155050 15210700 15506720
2290.07 13440830 10174070 8478838 8151164 8077948 8214504
2292.96 8702422 9715840 10989760 11663490 11565130 11252430
2295.85 11302500 11902470 12793130 13586730 13189880 10840220
2298.75 8569870 7692818 7319728 7021206 6749418 6744824
2301.64 7500638 8599568 9354694 10444440 12505090 15269210
2304.53 16740800 15496340 13919180 12389110 9479142 6767496
2307.43 5738836 5821864 6142678 6101054 5851660 5736120
2310.32 6334130 7390700 7797920 8018692 9021476 10142600
2313.21 10481070 11069290 12486840 12326180 9354302 6956226
2316.10 7228208 8271822 7884996 6826648 7117930 8398882
2319.00 8426650 7798044 8652952 10151700 9881602 8483068
2321.89 8723088 10118730 9721266 8491720 10540220 14548870
2324.78 14082690 9628390 8166128 9666718 9399442 8038122
2327.67 9186242 11024340 10126170 8885764 10570690 12029850
2330.57 9893752 7864844 9093564 9678370 7866246 8552836
2333.46 13630780 19462150 22785830 20369940 14099760 8736760
2336.35 6736356 8865204 10337790 8695352 8635146 10472060
2339.24 9598440 7863542 9205680 10185160 8670242 8589200
2342.14 9887516 9126428 8694010 12355450 17652880 18866880
2345.03 14708840 10203110 8086440 7564272 7962292 7969590
2347.92 7379698 7068638 7428112 7907724 7889068 8072192
2350.82 8850012 8887568 8924110 10033600 10480410 11915660
2353.71 17907500 24066330 22936240 16873960 12349500 11258350
2356.60 13435180 14218980 13352630 13809130 12621050 11416560
2359.49 12752610 12239970 11877780 13559360 13336670 13480760
2362.39 14670900 15974010 23559050 38468520 48231380 37931990
2365.28 19282770 12351730 12562360 12110270 12507620 12207300
2368.17 11510290 11822930 11574140 11648420 11382600 11292850
2371.06 11663320 11652250 11948080 12392810 14710540 20915880
2373.96 29345290 28939100 18326720 11241060 10199730 10851840
2376.85 11250000 10742320 9791004 9438306 9577088 9748628
2379.74 9768064 9621178 9785406 10363670 10639530 10853520
2382.64 12358410 17583270 27672130 32391300 23131380 12684730
2385.53 9848936 10233910 10875430 11058040 10578280 9544266
2388.42 8751886 8699348 9006628 9029586 8883352 9246880
2391.31 10330910 12326220 16246320 23601170 34550340 45392190
2394.21 43927780 26605270 12371050 9391500 9919146 10277420
2397.10 9809732 9033314 8753102 9007820 9245826 9143522
2399.99 8964212 9162174 9659720 10146140 10589260 12785480
2402.88 21106060 31975750 29275600 16161970 9546628 9128110
2405.78 9831384 10556530 10173470 9049418 8263326 8039652
2408.67 8152740 8191462 7942000 7881182 8421370 9152998
2411.56 9501212 10761200 17388960 27895370 26909530 14592210
2414.46 7539952 7239504 8661388 9658460 8721658 7133274
2417.35 6629300 6772776 6734106 6321022 6048536 6380474
2420.24 6952924 6934162 6899806 9542316 21991180 42363170
2423.13 42058600 19913820 6995688 5839042 6833248 7610238
2426.03 7362056 6655878 6460272 6482146 6520998 6582730
2428.92 6591806 6574764 6615396 6649156 6625474 7176204
2431.81 12116530 21342250 21664430 12095040 6385410 5451368
2434.70 5713522 6286976 6477326 6187966 5830814 5760214
2437.60 5830006 5806758 5600774 5282134 5442204 5827814
2440.49 5773804 5624420 8970606 16428480 16800310 8900078
2443.38 4350814 3894136 4452628 5168898 5134688 4616624
2446.28 4436774 4374640 4242912 4044314 4096196 4225494
2449.17 4176854 4042398 4060568 4280800 8491124 18645700
2452.06 21482620 12161950 5041022 3506892 3176952 2973066
2454.95 2828272 2922912 3691044 4106966 3769284 3600162
2457.85 3892126 4046736 4095126 4117804 4085200 4100580
2460.74 5041746 7022758 8055388 6835678 4976860 3903050
2463.63 3617256 3470472 3150262 2877026 2959670 3234314
2466.52 3439906 3455700 3562698 3540316 3442630 3320004
2469.42 3140510 3160066 3758630 4561780 4889722 4637006
2472.31 4297144 3937000 3554330 3304082 3199866 2864694
2475.20 2679944 3073934 3469862 3390794 3166840 2897034
2478.10 2791028 2797244 3040568 3266726 3031016 2431938
2480.99 2198010 2456896 2733314 2525808 2247048 2248000
2483.88 2320056 2372200 2737446 3598962 4775268 5030362
2486.77 4367492 3761772 3271730 3031992 3221586 3220244
2489.67 2949184 2741016 2656948 2553930 2590392 2527596
2492.56 2508148 2614938 2499780 2179068 2024682 1999754
2495.45 2056660 2213118 2539302 2701170 2704992 2731604
2498.34 2550546 2234488 2137416 2161964 2258716 2173846
2501.24 2012802 1755020 1567408 1438906 1491522 1893126
2504.13 2260764 2276164 2180654 2131930 1966100 1630672
2507.02 1458436 1287046 1121246 1216304 1433280 1541510
2509.92 1816904 1983008 1878504 1807126 1874028 1912542
2512.81 2021710 2054900 1889138 1891230 2190980 2377074
2515.70 2615634 2871672 2881820 2592058 2451480 2647732
2518.59 2827274 3019026 3237154 3069498 2695032 2310756
2521.49 1813236 1425522 1456740 1248140 751422 642822
2524.38 925318 1057724 845218 444970 310094 397878
2527.27 455012 311762 227758 260288 227294 1282
2530.16-262674-236020 5046-13580-152654-32580
2533.06 465492 671902 320338 51884 2432-252650
2535.95-434556-291440-89068-304584-447456-238294
2538.84-161462-314344-179222 117020-15466-198450
2541.74 40516-154654-490262-258750-47722-252914
2544.63-167830-80470-359356-301362 53606-218968
2547.52-505040-342946-359402-546302-374722-81978
2550.41-119642-312128-399292-535438-458396-79046
2553.31 127206-141258-153300 110400 119008 92858
2556.20 451846 558814 579772 747774 606778 288100
2559.09 673830 1324532 1528632 1554216 1728166 1516624
2561.98 1580864 2197468 2403208 2386800 2791570 2926302
2564.88 2856018 3013670 3110368 3246526 4094204 4715372
2567.77 4699980 5142738 5493508 5163992 5481522 6151078
2570.66 6275090 6678620 7301500 7235912 7422894 8389482
2573.56 8976340 9212658 9727902 9893306 10229420 11079860
2576.45 11245630 11074160 11707780 12009190 12001770 12497380
2579.34 12841290 13025810 13505350 13792490 13909340 14237570
2582.23 14366590 14207930 14588950 14724470 14417350 14580330
2585.13 14585100 14460240 14979410 14914280 14052880 13641020
2588.02 13287020 12812620 12732620 12118350 11170270 10468530
2590.91 9534948 8511862 7752228 6689712 5748084 5068434
2593.80 3762640 2692230 2808544 3520056 6519648 12534680
2596.70 17061300 17263570 15088580 11766100 9379194 8643566
2599.59 8534164 9004274 9738148 10346830 11240890 12658050
2602.48 14744710 16849780 18808920 20904330 23057170 25194410
2605.37 26879880 27455850 27863320 28767560 29664470 30391500
2608.27 30840820 30223820 28874510 27566460 26151530 24239460
2611.16 22501620 21822020 22091770 22808780 23398270 23206300
2614.05 22397970 21006640 19367320 17646340 15672930 13335010
2616.95 10735490 8310586 6256936 4377996 2795184 1342598
2619.84 64502-854948-1560798-2182560-2710712-3413174
2622.73-3884630-4019384-3883134-3942394-4247344-4309844
2625.62-4371896-4608786-4815468-4916992-4629668-4464004
2628.52-4555198-4917034-5399634-5592038-5815914-6115160
2631.41-6144638-5972044-5604538-5377346-5305388-5471422
2634.30-5721126-5665696-5528424-5677496-5694662-5616916
2637.19-5671124-5872728-6143730-5971726-5406402-5185166
2640.09-5166662-4754162-4321142-4652802-4984916-5042574
2642.98-4987640-4978786-4968120-4964424-4915312-4778010
2645.87-4628524-4716454-4683782-4692108-4603190-4327182
2648.77-4222708-4277528-4360646-4490384-4371754-4115474
2651.66-3849090-3587978-3240644-2890736-2698034-2836774
2654.55-3148994-3299758-3281786-3108730-2821756-2840828
2657.44-2822280-2622738-2231476-1801776-1655410-1699446
2660.34-1682690-1647618-1399760-1191606-1138114-1101512
2663.23-1067614-1059618-781456-211984 308810 613962
2666.12 808364 472480-77010-286242-57320 147386
2669.01-64206-361526-197212 184530 516188 572710
2671.91 443498 353536 437242 417026 274230 170924
2674.80-30892-472744-711768-590844-37040 621960
2677.69 1254640 1832102 1611848 831130 467104 314248
2680.59 331140 522804 485522 217072 267426 220860
2683.48 100740 406006 736938 658132 569882 568160
2686.37 532178 299396 294478 625490 957936 1139704
2689.26 1359736 1806780 2422650 2369408 1492804 861660
2692.16 815260 713380 662366 702784 655662 541492
2695.05 549968 687372 943012 1094156 1146468 1146546
2697.94 1123304 932058 895736 944290 652194 438876
2700.83 430322 407486 787346 1303068 1792496 1709398
2703.73 1021218 603302 595554 582302 710246 1056100
2706.62 1254690 1058398 738952 525338 671226 1031562
2709.51 1327418 1414874 1503718 1564360 1674218 1813062
2712.41 1935394 2170562 2566814 2761842 3390490 4339196
2715.30 3871436 2021090 1001372 980168 1062602 1048720
2718.19 1025260 861618 761590 809390 938648 963434
2721.08 1010128 1234854 1328094 1091844 1013002 1070054
2723.98 1154446 1252966 1315670 1151248 903008 669686
2726.87 783406 1096788 970434 631584 621790 729670
2729.76 743120 543690 484810 540806 538640 371636
2732.65 359642 544686 658460 799742 1175356 1326126
2735.55 1187532 1013064 1097282 1223212 1325192 1710992
2738.44 2447658 2901298 2757838 1969116 1021100 595018
2741.33 616780 761274 739968 560012 1036492 1489004
2744.23 1470522 1328280 1141822 899234 787730 698954
2747.12 877724 1199070 1450414 1801946 2320040 2709718
2750.01 2976408 3224738 3289464 1698850-1613384-3529534
2752.90-2779512-1230648 39370 720270 1055864 986292
2755.80 810000 737648 820448 960946 914182 665338
2758.69 575274 742122 1106158 1147962 975998 982954
2761.58 1275850 1687406 2368356 3051496 2987356 2019906
2764.47 1187556 829000 864352 1041914 1250436 1414948
2767.37 1377048 980220 663002 628824 897546 1030772
2770.26 953196 794852 702060 609748 690490 1052094
2773.15 1560724 2112580 2571816 2667848 2614454 1823098
2776.05 272476-1612332-2934704-2738122-1427900-165086
2778.94 600086 886142 897404 727848 735584 760894
2781.83 762140 798102 741532 428654 523602 1111758
2784.72 1667912 1883172 2269768 2840906 3452768 3350600
2787.62 2166894 1084900 859380 855644 1096990 1150134
2790.51 1067780 1106828 1009330 937354 1012448 923840
2793.40 884546 888504 976188 961178 743026 704992
2796.29 1219442 1789316 2145916 2225334 2421290 2592112
2799.19 2515474 1976342 961584-229804-1494230-3440612
2802.08-4635958-3362232-655918 1245556 1657850 1414456
2804.97 1371550 1492032 1602014 1565500 1732022 2009618
2807.87 2078296 1883882 2145318 2725078 3209002 3361110
2810.76 2915886 2151994 1768638 1370020 1377934 2078764
2813.65 2859718 3136446 2987298 2962266 3399716 3577930
2816.54 3519868 3657326 3930530 4044180 4359318 5062800
2819.44 5627492 5735108 5871640 5927340 6202012 6753220
2822.33 7054468 7050240 7370544 7667908 7580728 7206846
2825.22 7111164 6375466 3791510 1481978 3075144 7523074
2828.11 11960500 15363900 18126640 20043060 21449300 23086380
2831.01 25146440 27530330 30266500 32812660 35345070 38536430
2833.90 42305900 45965160 50099030 54395210 58596820 63567620
2836.79 69353370 75286780 81446950 87754890 94447340 101257500
2839.69 107869900 114417900 121867800 129330100 135810800 142149600
2842.58 148929100 155911800 162547800 167836400 172760100 178245100
2845.47 183693000 187980900 190716600 192697100 195731200 200388500
2848.36 201576700 196174700 190968800 189541700 186972500 178725300
2851.26 171023900 169907100 169263800 163414400 155520200 146724000
2854.15 135468200 122424100 113163700 110612300 107190800 100876500
2857.04 99884850 101063000 110505300 125037400 121280600 110017900
2859.93 106341800 114199000 122171300 105530100 73143260 53796140
2862.83 55447100 67362040 79786800 90715730 101599700 112042700
2865.72 121537200 130268000 138358100 145516300 151915100 158010000
2868.61 163355400 167452900 170906600 173799100 176454700 178133200
2871.51 178874400 179424100 179828900 179644400 178724400 176611100
2874.40 173058300 168072800 162209000 158562800 159105300 159818800
2877.29 158212100 154729000 150542000 146573700 142570100 137760800
2880.18 132627900 127293000 122231300 117520400 112846200 108166100
2883.08 103593400 98818020 94273100 89997480 85994340 81628410
2885.97 77001350 73063340 69760140 65862620 61562350 57866220
2888.86 54864490 51616440 48576850 45988620 43579380 40886500
2891.75 37577300 33822700 30410200 28032030 27536070 26839900
2894.65 24753280 22544200 20596530 18597890 16861720 15109670
2897.54 13287830 10746790 7129208 2651654 800362 4848632
2900.43 10052450 10938690 9405658 8012240 7216748 6350128
2903.32 5442024 4877716 4772922 4475514 4287490 3724468
2906.22 2945694 2492374 2759358 3154680 3004026 2302884
2909.11 2015886 2187074 2570454 3046788 3339342 2788150
2912.00 2353086 2475890 2372774 1286150 766004 1281678
2914.90 1989982 2455420 2652156 2339514 2111232 1951292
2917.79 2713066 3667692 3927022 4265950 5259256 5536486
2920.68 5248398 5038990 4834948 4684036 4346330 2141384
2923.57-429414 508532 5370006 9966274 12115410 12900090
2926.47 14192620 15102460 16000390 17346670 18772220 20582590
2929.36 23145120 25530210 28213430 31108090 33923470 36856610
2932.25 40543360 44703110 49663620 54962990 60694720 66850550
2935.14 73206180 79539290 87301140 96191940 105719800 115268700
2938.04 125482900 137256400 150602100 163588900 176184200 189667100
2940.93 205172400 222412000 240678100 259354100 279565400 300794000
2943.82 322952900 346462200 370945200 395800200 422683900 450081500
2946.72 475750700 499716400 527865800 565654100 610623800 652672900
2949.61 685080300 713371400 744745100 773599900 800271200 828075200
2952.50 857361600 887910000 919562000 950607600 977860400 1001467000
2955.39 1023324000 1039215000 1051710000 1064589000 1078456000 1091964000
2958.29 1106192000 1113569000 1108413000 1096111000 1081666000 1069304000
2961.18 1053526000 1030238000 1021880000 1027253000 1022337000 997702200
2964.07 933971500 838935900 772999600 757191700 780138400 793413400
2966.96 738205100 656809800 617170400 663356900 793149300 802834600
2969.86 805791900 827005000 701846200 590254500 514549600 575019900
2972.75 739173600 717344500 605511900 622619400 710582300 763179700
2975.64 769498200 784614900 841562400 936106300 1017919000 1047400000
2978.54 1062611000 1086362000 1111162000 1139475000 1167131000 1195455000
2981.43 1221416000 1234461000 1237665000 1234839000 1223693000 1214365000
2984.32 1207095000 1197120000 1184798000 1172480000 1168575000 1167894000
2987.21 1136351000 1085864000 1048112000 1018360000 987817200 955245800
2990.11 920271400 885695400 852491300 817538100 779570000 742386800
2993.00 708319100 675592800 639723100 605047600 580477100 575147200
2995.89 587060400 567652900 505162400 453755900 424866100 402921100
2998.78 379519200 355393200 333796000 314688300 296999100 278736400
3001.68 257030100 235906800 219992700 207559800 196402900 188605400
3004.57 210589900 305615500 361220400 267588200 164159400 135458400
3007.46 134239300 128561100 115354300 106055300 102026800 99668860
3010.36 95819100 90394160 85353240 80745450 77645620 76053940
3013.25 75450780 90923160 157311300 215726300 168175200 92224360
3016.14 67888830 69227320 68600130 62196460 60908430 64836250
3019.03 68247400 68795040 66347440 64556010 65060780 66253670
3021.93 65435860 64174990 82327190 168864300 255800400 201572700
3024.82 97865840 63819410 67353290 70262850 64699160 60071820
3027.71 59900080 61803520 62341040 61164060 60605860 61710090
3030.60 63639400 63417630 62850940 113655600 338347000 546977500
3033.50 396968300 143819500 66815530 76127110 81427590 67058420
3036.39 57084020 58020920 60639980 60198470 58585110 58312060
3039.28 59122770 60162300 61414900 66952370 115033600 268892600
3042.18 370738600 249388300 106658200 74139310 82097100 84478860
3045.07 77674390 73074610 71101210 69936260 69573480 69809030
3047.96 70807180 73649090 79666090 83268940 87711610 163339300
3050.85 348801500 397668200 222359800 94180960 77833870 86424940
3053.75 82500700 71140360 66207630 65363300 64117870 63462410
3056.64 63650220 65144660 65915870 68069890 73869540 120860900
3059.53 390602000 752505000 636625500 245711700 90176810 95598490
3062.42 106317500 86052560 68668640 69206130 72013270 71521490
3065.32 71915180 73106580 73644700 74247470 78202450 85342790
3068.21 150822800 341019800 430502200 263218500 112749000 88284260
3071.10 97873140 95853290 84597350 78487640 77556880 76359200
3074.00 77255580 79907210 80125630 77044600 79339500 83769740
3076.89 109828900 246934400 404334200 321311300 138960400 77843610
3079.78 85327870 89507940 78779260 68765090 65988600 64332740
3082.67 63463240 63144830 63175560 61589240 62153910 66625440
3085.57 94017350 283454400 605480100 577670200 246553200 82144100
3088.46 81324820 101367300 95680630 79991000 74765420 74457570
3091.35 74581420 75260530 75732940 74529970 73923640 76515260
3094.24 84975250 152182200 291009000 302692800 162202800 78753320
3097.14 72347600 77738280 76497260 74079060 73321700 71825460
3100.03 70055260 70330140 71526800 69966820 67753870 69643340
3102.92 77491130 131900900 234348500 234710400 127197100 64333320
3105.82 57695920 59305180 52351050 46232250 49332140 54819100
3108.71 56059440 54962460 54063540 53142310 52416660 54436250
3111.60 69661070 176006800 336626300 295231500 120512700 49425100
3114.49 50763120 54266930 45294720 37414920 39787200 50113980
3117.39 57501180 58886520 57602360 56248070 55841890 56856070
3120.28 67420880 118775100 162483300 120427100 62186600 48146570
3123.17 49392740 47923230 43299770 40563190 38667840 39151900
3126.06 42565880 45740780 45428680 43959310 43263760 44530890
3128.96 62122730 103134600 106410000 62898180 37161500 34895290
3131.85 34817890 31769440 28270410 26989500 25921600 24640170
3134.74 25333590 28595160 30208990 30104180 30737750 43912110
3137.64 93311710 125983900 81989420 34078520 24731150 26321630
3140.53 24546470 20698140 18638670 17881080 16791070 15985950
3143.42 16490280 20287310 25453830 27937370 29871660 42529940
3146.31 56341170 46625900 29021460 23661660 23554250 22889470
3149.21 20427330 18449790 17615150 16855820 16177620 16572130
3152.10 16644090 16750870 17792600 19991990 27006970 34585220
3154.99 28953010 18741790 15344770 15336480 15028210 13845040
3157.88 12531300 11843150 11495850 11337340 10736720 9846922
3160.78 9055716 9442340 12443620 22783000 30984020 23086570
3163.67 12285960 9498862 9314816 8700518 7828086 7570468
3166.56 7221798 6690692 6274058 6299218 5991870 5516696
3169.46 5167110 6082334 9761248 12399330 10508930 8558664
3172.35 8208202 8445258 8178790 7768382 7584530 7002480
3175.24 6079364 5797702 5660598 5334160 5025314 5298684
3178.13 6396400 7731296 6890572 5520434 5470742 5862756
3181.03 5504190 5025950 5157226 5197990 4499138 3754078
3183.92 3505648 4154370 4847798 4983900 5138224 6097280
3186.81 6005212 4634824 3825958 3904638 3889502 3845858
3189.70 3648298 3515274 3493330 3269034 2754928 2529768
3192.60 2501184 2667776 2926690 3115124 2743498 2571746
3195.49 2890348 3286902 3249176 2964962 2678494 2616028
3198.38 2537056 2395882 2052714 2055524 2100820 2130828
3201.27 2110522 2091310 1983064 1895588 1864294 2065400
3204.17 2351372 2582664 2308318 2127874 2183616 2677568
3207.06 3220898 3440594 3206746 2717838 2505144 2819944
3209.95 2855936 2663868 2463482 2406220 2433918 2374658
3212.85 2147104 2211196 2840596 3821852 3891722 3245926
3215.74 2866312 2664644 2180250 1991036 2244214 2692322
3218.63 2715928 2562008 2771132 3041886 3028454 2824216
3221.52 2177502 2007306 2054678 1549552 1107072 1340164
3224.42 1465944 1255730 932584 868702 963042 908658
3227.31 503210 161618 118136 295886 416724 348216
3230.20 242584 785670 1145036 668156 86328 197522
3233.09 466040 470010 428506 410982 217668 271174
3235.99 376110 301936 246654 194136-41912 7324
3238.88 353970 899452 1277672 1374664 1321320 1142842
3241.77 563242 88230-144052-372732-487876-181750
3244.67-256020-250994 474902 932024 777528 740180
3247.56 738124 616612 339442 88698 9134 372716
3250.45 583668 738134 1060966 939644 534922 718388
3253.34 888290 936876 800856 324258-87674-166362
3256.24-89664 195786 308398 251568 38684-251492
3259.13-276904 284672 964126 1060512 497044 175544
3262.02-18042-26320 153356 575470 701150 195820
3264.91-185632 116790 599158 1068920 990074 327238
3267.81 37664 326316 258244 11458-152170-197622
3270.70 38682 651000 1066856 1011766 669104 565824
3273.59 493346 407350 474608 784942 841934 378222
3276.49-32950 387588 1021936 936422 434020 252910
3279.38 165578-17176-115026 167156 428724 432794
3282.27 568156 889812 980686 801630 373002 338026
3285.16 387952 16534-191464 385040 931138 955350
3288.06 471284-139102-284368 55428 506864 971668
3290.95 1096112 829182 335790 11226-55286 247938
3293.84 544968 550818 444112 627258 736042 722188
3296.73 696190 520560 508458 525322 317744 644464
3299.63 1018044 857342 559960 236556-156750 12766
3302.52 575762 840882 430682 147058 379470 411068
3305.41 17036 96782 371724 130006-506944-633504
3308.31-100688 93380 26206 307918 443054 582868
3311.20 827390 983288 1245126 1365842 916692 539346
3314.09 643652 901180 866728 672858 343080 286396
3316.98 719930 958068 454884 5086-241278-102482
3319.88 495138 637006 172382 234902 565444 632862
3322.77 509258 404686 529764 836872 765256 764572
3325.66 1014318 900614 592520 661700 566814 353398
3328.55 311660 18626 75234 594938 421144 324730
3331.45 829294 1300626 1031780 786020 845738 781978
3334.34 813630 742490 543468 589096 550632 741602
3337.23 1129092 1146756 830776 1051806 1532894 1235442
3340.13 516210 521346 405390-41672 316348 936778
3343.02 916578 1029958 1117902 485744-269952-267314
3345.91 267090 633246 167992-84292 454316 801956
3348.80 647576 470856 523960 709216 861400 832524
3351.70 594946 331710 6272-225510-195782 416672
3354.59 1150382 1340646 569358-384934-480452 103682
3357.48 517386 312816-45038-10464 35046 210978
3360.37 310262 363408 576850 684244 619372 354598
3363.27-119234-93922 366158 872208 1059362 576512
3366.16-131334-382448-425232-361876-443004-203472
3369.05 559922 962744 696422 384632 352202 591970
3371.95 671272 546830 329672 463340 1118684 1000278
3374.84 213520 224752 570030 465990 376938 809140
3377.73 1035842 1094540 800408-96662-406768 38056
3380.62-43956-28774 838226 1560864 1689614 1546448
3383.52 971840 232270-326608-435292-380340-37940
3386.41 612910 977920 842986 730338 734886 851372
3389.30 967802 967884 1149772 1370538 719258-37938
3392.19-129090 199226 753394 1279404 1210802 484902
3395.09-256914-175528 753526 1460530 1196172 820928
3397.98 630006 310374-315238-604910-134648 236600
3400.87 71670 345146 877654 1121574 889896 306712
3403.77 171040 509898 887370 1344008 1363714 1133206
3406.66 1019920 1067906 708656 182160 531364 871134
3409.55 215958-241504 26826 544094 889682 813652
3412.44 665572 673480 235580-229896-97736 254492
3415.34 327440 298098 370570 618720 928462 1044916
3418.23 571542 86220 77668 333356 415768 331702
3421.12 570892 824098 532870 284562 135606 505690
3424.01 1222734 1026776 412330 528146 732670 713046
3426.91 287318-379448-219144 526546 700810 786096
3429.80 972828 775622 518104 743416 1002946 1012690
3432.69 1106902 1057566 660732 592160 571026 460152
3435.59 259948 230270 404018 605976 883508 709330
3438.48 712724 1476686 1513018 979824 1001858 1195528
3441.37 1132944 1153598 1366890 1422292 1383786 1699486
3444.26 1678398 943384 501440 853672 907010 651368
3447.16 928018 1358528 1686538 2057378 1739614 1217698
3450.05 1549160 2042998 1697084 880386 670306 1526858
3452.94 2175734 1720588 1292796 1681478 1859848 1399622
3455.83 1106370 1232786 1284478 1600928 1977692 2180120
3458.73 2342802 2314692 2052104 1752804 1251298 624620
3461.62 508780 1351654 2058222 1933962 1711894 1504182
3464.51 1183894 1404970 1584212 1134132 697500 828986
3467.40 1151288 1045980 521172 297090 879770 1765330
3470.30 2173830 1877364 1376376 1247416 1150028 1205040
3473.19 1592650 2283920 2739636 2360270 1389360 753002
3476.08 990694 1946176 2583340 2450174 1944870 1717514
3478.98 1786748 1483912 847712 546506 688834 1105640
3481.87 1462428 1257102 450384 224906 513728 690108
3484.76 1134906 1414516 1404720 1772786 1996250 1551390
3487.65 1049868 868238 694112 761900 970740 1093256
3490.55 1010618 874818 1101890 1301860 1250590 1272172
3493.44 1083676 761268 816744 869914 792648 763484
3496.33 428506 531896 919842 725780 591210 982210
3499.22 1217204 1017352 786954 646282 253814 449340
3502.12 990544 1203398 1570818 1906632 1476466 599268
3505.01-4166 30004 263966 400012 468808 731258
3507.90 1242610 1414734 871704 478534 638398 686538
3510.80 611938 727472 786286 1114392 1372218 1141284
3513.69 972822 920692 737214 432052-14502-161486
3516.58 348824 1197860 1565992 1367816 829738 766724
3519.47 1048024 869528 725008 911654 1162842 1399220
3522.37 1565104 1580806 1499650 1281790 567946 239594
3525.26 716720 893894 552504 443838 545304 693786
3528.15 727036 833624 1381352 1754276 1687170 1938072
3531.04 1852412 1329312 1429336 1793532 1700000 1203144
3533.94 748564 609128 687076 976486 1235792 1428296
3536.83 1505400 1517138 1402798 1145868 970662 1286790
3539.72 1738266 1975536 1836480 1533484 1578120 1924698
3542.62 1939548 1852112 2213492 2703814 2988656 3106406
3545.51 3101986 3119706 2766980 2317318 2326126 2755544
3548.40 3256638 3208886 2924466 3266346 3843940 3879908
3551.29 3668712 3985870 4642586 4933998 4675926 4694468
3554.19 4564816 4229988 4793642 5720636 5915420 5747034
3557.08 5632814 5583422 5495050 5813376 6556890 7148480
3559.97 7632952 8060998 8197734 8371728 8512974 8732156
3562.86 8935676 8776672 8512458 8113376 7896686 8242910
3565.76 8604806 9025298 9584154 10088150 10360210 10341920
3568.65 10069040 10011600 9936970 9492472 9465630 9485234
3571.54 9035526 8840752 8675698 8596496 8795322 9164134
3574.44 9483600 9282824 8602258 7795790 7429254 7747896
3577.33 7997728 8068262 8125240 8256336 8707322 9124660
3580.22 8959338 8646440 8930004 9664082 10095780 10426090
3583.11 10040140 9320768 9461116 9803888 8953526 8074272
3586.01 8642698 9221248 9183954 9503472 9904538 10128730
3588.90 10300130 10553910 10877730 11134540 11229250 11211260
3591.79 10903050 10730410 11141890 11955760 12463470 12319730
3594.68 12219660 12096250 11289570 10888500 11491410 11781370
3597.58 11500160 11356580 10878340 10379360 10262150 10080110
3600.47 9805358 9517414 8825870 8046708 7769468 7935618
3603.36 8045910 7762648 7266726 6934166 6668442 6544446
3606.26 6601922 6104894 5467364 5598876 5649014 5169472
3609.15 4285212 3428760 2899060 2560696 2745402 2925900
3612.04 2690490 2506534 2090710 1741734 2066158 2731000
3614.93 2874882 2467672 2464784 2905056 2883132 2546118
3617.83 2279236 2129542 1963324 1689080 1635234 1795162
3620.72 1609476 1317090 1693274 2226040 2058940 1742372
3623.61 1951026 2406192 2417290 2141408 1902258 1757004
3626.50 1763530 1776288 1826712 2137082 2532108 2966122
3629.40 2696768 2190546 2350156 2532488 2208622 1654038
3632.29 1439364 1573922 1678418 1912686 2277234 2628662
3635.18 2932904 2993954 2755710 2392664 1750584 1217344
3638.08 1123630 1402714 1769002 1910076 1956186 1889370
3640.97 1780270 2021244 2619388 3264178 3639070 4017804
3643.86 4214870 4207802 4271202 4169382 3777148 3282792
3646.75 2840682 2635396 2584446 2872120 3117224 2733402
3649.65 2234476 2239928 2693308 2927462 2596240 2679988
3652.54 3269164 3813570 3966750 3507216 3194352 3412866
3655.43 3353874 3120748 3011996 3142694 3236794 3224014
3658.32 3172466 3023118 2870028 3085378 3486942 3683830
3661.22 3749492 3904474 4207686 4507212 4507120 4458992
3664.11 4396298 4158650 3829112 3455100 3278388 3268872
3667.00 3096762 3114464 3610136 3891732 3690468 4129668
3669.90 5420058 6481492 6787604 7069186 7343312 7048246
3672.79 6325560 5153016 3972590 3725712 3844916 4077726
3675.68 4183360 3692172 3066620 2867174 3069974 3250714
3678.57 3595004 4195826 4389794 4605482 5164664 5434332
3681.47 5237342 4683418 3604242 2560930 2425992 2944704
3684.36 3052800 2809750 2642830 2661238 2712894 2852350
3687.25 3786508 5138558 5261474 4498712 4279322 4611426
3690.14 4784850 4707250 4591264 4667040 4662038 3977560
3693.04 3021616 2788394 3068020 3475054 3784990 3755330
3695.93 3610386 3724278 3996462 4520732 5380808 5878352
3698.82 5600442 5049808 3959854 2750230 2624228 3261618
3701.72 3475572 3241624 3100914 2986588 2807394 2722500
3704.61 2691302 2689054 2856084 3326348 3677044 3342544
3707.50 2566992 2221654 2377268 2740058 2780852 2534288
3710.39 2378716 2768736 3688600 4064826 3403354 2495258
3713.29 2311250 2779670 3023586 2823356 2465280 2383364
3716.18 2761100 3175284 2961678 2336888 2040444 2050552
3719.07 1863242 1661876 1708448 2015454 2523428 2923872
3721.96 2784136 2806164 3211656 3371250 3325386 3305246
3724.86 2883950 2095850 1664962 1641130 1417596 872636
3727.75 721310 1314234 1891112 1936824 1780064 1820504
3730.64 2006296 2642296 3185400 2734888 2123720 2090442
3733.54 2145046 1973778 1793904 1881498 1985662 2417062
3736.43 2661906 2031970 1536044 1621504 1653292 1846438
3739.32 2252358 2236710 1970316 1810064 1733932 1635090
3742.21 1212384 1013584 1654906 2906740 3565664 2937662
3745.11 1936044 1453148 1265474 1383422 1674966 1629760
3748.00 1788524 2858938 3424366 2407774 1102864 730736
3750.89 1366604 2490706 2818338 1873008 906988 583624
3753.78 734240 1124076 1344810 1465062 1584442 1753598
3756.68 1563204 1195348 936252 833026 1170786 1516960
3759.57 1231198 969284 1135618 1279292 1330092 1389206
3762.46 1763154 2296074 2073472 1391400 1155230 1427282
3765.35 1655060 1591802 1562058 1555434 1494512 1415846
3768.25 1117882 1148800 1464486 1270110 958848 1154012
3771.14 1405368 1520228 1599784 1343598 1095848 1008348
3774.03 663194 597182 928238 1048962 903606 754248
3776.93 607158 910920 1469772 1842488 1924152 1589868
3779.82 921442 579150 1082078 1939824 2235174 1813396
3782.71 1110266 843976 1047162 1160092 1231558 1483346
3785.60 1551266 1315690 942338 1089282 2033052 2386928
3788.50 2038000 1815532 1541546 1266614 1226682 1628966
3791.39 1986322 1974746 1864638 1842018 1883420 1981158
3794.28 1848612 1647858 1828940 2259476 2269472 2259824
3797.17 2278992 1823746 1763032 2891788 3710352 3183122
3800.07 2624072 2953676 3159060 2478590 1740888 1626132
3802.96 1747078 1819014 1715618 1639558 1714164 2428276
3805.85 4685974 5573244 3432132 1978690 1960620 1959068
3808.75 1878278 1948604 1949906 1853892 1665274 1582716
3811.64 1916138 2337088 2741218 3080312 2640824 2180444
3814.53 2610800 3590428 3961408 3089746 2119338 1685170
3817.42 1569616 1668482 2012088 2621748 3285638 4007260
3820.32 3891230 2755068 2069872 2068756 2262072 2462320
3823.21 2200888 1999622 2225128 2287952 2403758 2989660
3826.10 4040604 5176148 4579080 2970356 2462048 2517798
3828.99 2399262 2359218 2306624 2157312 2020134 2245880
3831.89 2869574 3653142 3768126 2946000 2489846 2699156
3834.78 2936234 2995510 2607916 2299502 2913474 4216994
3837.67 4293342 3243028 2775618 2771712 2883080 2940062
3840.57 3012318 3117996 2912610 2621558 2783684 2987284
3843.46 2492890 2145314 2323824 2472996 2548880 2925634
3846.35 3355312 3482010 3616872 3569368 3061662 2842870
3849.24 3206702 3489954 3529668 3769714 4656798 5182564
3852.14 4210448 3560198 4314834 5342930 5246400 4567474
3855.03 4333160 4469714 4631936 4419038 3950196 3865738
3857.92 4046296 4179196 4187676 3918320 3593152 3846040
3860.81 4329526 4700334 4997602 5195922 5487204 5585294
3863.71 5247534 5230404 5212490 4798838 4367312 4119838
3866.60 4304414 4666050 4730622 4438522 4372512 4718688
3869.49 4771190 4518892 4268166 4357404 4555994 4191838
3872.39 3344558 3302562 4547872 5714296 5556552 4651644
3875.28 4170486 4186612 4333372 4446290 4505816 4817008
3878.17 5376064 6262422 7402632 7834264 7217868 6693086
3881.06 6713186 7073402 7601934 7894986 7968166 8280564
3883.96 8742296 9418836 10348770 11047630 11284090 11427730
3886.85 11705190 11830440 11439900 11119610 10827250 10005600
3889.74 9224042 9084888 9270374 8730294 7129564 5570162
3892.63 4316478 3444374 3312152 3285142 3043294 3200594
3895.53 3496714 3430102 3411940 3650548 4054712 4552380
3898.42 4555392 4100738 3418044 2459580 1644648 1631136
3901.31 2334276 2744334 2747786 3074382 3848726 4623194
3904.21 4723734 4484166 4395998 4688752 5104372 4885474
3907.10 3622064 2339868 2064254 2448734 2880486 3101454
3909.99 3035648 2916710 3157196 3845216 4175402 4076856
3912.88 4267748 4542388 5196376 6375970 6123286 4417348
3915.78 3282644 3221194 3345964 3008088 2535384 2379112
3918.67 2425758 2523682 2991498 4082160 5587190 7812500
3921.56 10272890 10106490 6647862 3685200 2875662 3079386
3924.45 3608166 3795430 3281056 3020424 3239790 3572068
3927.35 4166950 4916708 5728362 6075300 4875246 3285850
3930.24 2638612 2545658 2880618 3089672 2674410 2537072
3933.13 2982266 3492160 3857148 4318116 5031516 5765224
3936.03 5658306 4926458 4869738 4941198 3985494 2970878
3938.92 2653528 2940020 3683176 4604422 5381338 6193460
3941.81 6172106 4436654 2386986 1985996 2589902 2770328
3944.70 2730550 2651942 2601254 2815776 3063464 3115048
3947.60 3008414 2902956 2908824 3467772 4352562 5046396
3950.49 5030344 4322454 4004998 4219828 3934790 3351850
3953.38 3229860 3408278 3297348 3038978 3430818 4247512
3956.27 4554314 4574122 4592824 4260322 3630660 3211930
3959.17 3029016 3199906 3788440 4052788 4015184 4295776
3962.06 5217684 6766304 7585094 6756666 5282072 4612764
3964.95 4910950 5224460 5451136 5493600 5178048 5492206
3967.85 6521576 7667998 8863496 9126014 8114238 7358006
3970.74 7654616 8207632 8838232 9738132 10280020 10512690
3973.63 11450710 12684610 13554090
##END=
