##TITLE=Bromomethane
##JCAMP-DX=4.24
##DATA TYPE=INFRARED SPECTRUM
##CLASS=IUPAC A
##ORIGIN=NIST, Anayltical Chemistry Division, 301-975-3108
##OWNER=COPYRIGHT (C) 1998 by the U.S. Secretary of Commerce
##DATE=98/10/1
##$SPECTRA VERSION=1.00
##$UNCERTAINTY IN Y=2.8 % relative (B=2.0E-04,C=3.3E-09,D=2.7E-14)
##CAS NAME=Bromomethane
##CAS REGISTRY NO=74-83-9
##MOLFORM=C H3 Br
##MP=-93.6 C
##BP=3.56 C
##$NIST SOURCE=QUANT-IR
##SPECTROMETER/DATA SYSTEM=IFS66V (Bruker)
##INSTRUMENT PARAMETERS=KBr Beam splitter; MCT Detector; Multipass cell
##STATE=gas
##SAMPLE DESCRIPTION=Bromomethane Primary Gas Standard
##PRESSURE=101.3 kPa
##TEMPERATURE=23 C
##SAMPLING PROCEDURE=1 L/min Flow
##RESOLUTION=0.9640
##DATA PROCESSING=Triangular Apodization
##XUNITS=cm-1
##YUNITS=(micromol/mol)-1m-1 (base 10)
##XFACTOR=1.0
##YFACTOR=5.6843E-14
##DELTAX=0.4820
##FIRSTX=575.169
##LASTX=3975.077
##FIRSTY=6.73E-06
##MAXX=3974.59
##MINX=575.17
##MAXY=.000103
##MINY=-3.46E-07
##NPOINTS=7053
##XYDATA=(X++(Y..Y))
575.17 118545200 114693600 126779000 142290600 153221200 163969700
577.58 176069900 184591600 191659700 204823800 215219400 226027300
580.47 236521400 250656400 268755700 281828600 293635600 308280200
583.37 326400100 344826800 361971000 373461900 383499200 402818200
586.26 426219200 446204800 461388400 473505500 485109500 501892900
589.15 521640300 538677900 552464100 567262300 587794400 604281000
592.04 618139600 633687400 642857200 648147600 660623700 669088300
594.94 670170000 675403600 679516500 684098900 684886300 684273700
597.83 681521800 675095400 669671000 662610000 655414000 648420700
600.72 644263900 655935400 646977200 611173600 586041200 533909900
603.61 476946200 446858700 417999900 389737300 366136200 344351000
606.51 328859500 333960200 367073200 456077700 639018700 874870500
609.40 833601400 752394400 701630000 390610700 229061700 241223300
612.29 261568400 299273300 342017400 392060500 442889400 496574300
615.18 547532900 598090600 646761900 693980200 736937000 775128400
618.08 808497200 837394400 860789300 882348600 898757200 910234800
620.97 916101500 918598600 918712200 912097800 900296200 888565100
623.86 870834900 847514500 823721000 797735200 768914900 738875800
626.76 705606500 670729400 637518700 603023200 565439300 530234900
629.65 494680500 456787200 421292400 387234000 353157000 322479100
632.54 292793000 262356700 233690000 208588900 183327100 159757900
635.43 139358400 119919700 103325500 89457820 77479760 63387060
638.33 51411490 44224360 38510210 31943230 24849950 20294560
641.22 16832930 13188780 10492860 7911024 6749268 6272020
644.11 5909198 5574876 4782164 3729784 3016642 3761220
647.00 2547686 3029736 3973850 4093496 4540384 3765674
649.90 2777476 2278372 2062468 2187898 1958504 2461696
652.79 2381662 1294898 2459514 2466290 3095398 4336522
655.68 2989394 1469912 1635216 1999274 1383234 1944138
658.58 2283858 1783368 1831084 2326040 2093368 1841340
661.47 2244886 2394962 2710354 2301290 1065906 738578
664.36 1053134 1247124 1661536 2000834 1835526 4323282
667.25 6817278 4593200 2231496 1301030 604574 495260
670.15 315942 911592 2290546 1863102 1051118 921394
673.04 753126 1322850 1289648 1752744 2255664 2779118
675.93 2739926 1224314 1034840 1292158 328808 311032
678.82 1012450 1962476 2450224 2206678 510406 84060
681.72 2221264 2480520 1999482 578416-637916 333244
684.61 1427358 1404680 1156118 1174322 1777532 1395530
687.50 1542456 1914068 641986 153354 340250 1686700
690.40 1619308 811542 992652 520320 140988 999386
693.29 1756444 462860-140792 994556 1159394 1012172
696.18 1377586 778596 409334 167112-294926 1237326
699.07 2235890 1231046 1011738 1462304 2279890 1739258
701.97 474318 752190 609172 352744 935476 940838
704.86 623964-360108-1099746 278690 956646 721006
707.75 447292 257790 719406 1204364 1444260 1370994
710.64 1574880 1115984 138884 962080 1733144 1342854
713.54 1003200 167936-25002 600318 1110574 1447674
716.43 487446-319416 118612 562384 1238248 1042048
719.32 689996 1397160 2005640 1174074 356808 546468
722.22 622368 718334 609866 703176 1491266 1157256
725.11 665866 352836 697480 1486404 645748 466526
728.00 571988 355308 410798 312440 745754 765264
730.89 886612 1315710 861482 997544 995874 620748
733.79 1033132 553048 489614 637490 82810 715846
736.68 1403836 1740022 1390336 282926 857068 1401044
739.57 960026 1392262 1911922 1540186 951142 952406
742.46 499206 455922 1018616 1709624 1765898 1335080
745.36 1812782 1557222 917766 846530 1235860 1311018
748.25 844626 98654-91612 927842 1344080 1308790
751.14 1099380 1127832 1716142 1907636 1388444 1130800
754.04 992364 496592 478492 1167634 1535118 1067648
756.93 1113874 957098 146072 267550 1241590 986100
759.82 860888 612696 679624 882192 640290 1215918
762.71 1312028 1160556 160108-638156-9766 464338
765.61 974224 1345156 590538 173516 1034428 1602010
768.50 981480 1035370 743332 346926 616168 1120282
771.39 1004660 877446 152960 5492 534200 479344
774.28 1059000 1331944 1061834 807572 548444 334762
777.18 265482-310852 15514 478506 707572 1461644
780.07 1338778 986198 1416854 1582192 1857480 1909796
782.96 886908 543616 744302 472172 531664-9820
785.86-24460 100892 307156 360516 226986 678364
788.75 766412 970408 1212730 829066 698840 1714370
791.64 1440234 953468 1570448 1669324 1406850 924726
794.53 541752 327324 169300 326052 120236-405050
797.43-82160 285990-360120 153856 672392 980982
800.32 1515144 1652236 1365040 791198 1112786 1784554
803.21 799052-49534 772282 1018180 799396 462476
806.10-74508-171370 713646 1444052 1991182 2150686
809.00 649440-338454 437882 911722 953092 1708424
811.89 844520 184764 875222 341068 268504 1545466
814.78 2035338 1374448 1441508 1049362 276470-373326
817.68-455296 571408 1400904 902038 957638 1321016
820.57 1322100 1467450 1053876 1254452 1192890 928394
823.46 301102-36888 875838 1236058 418616 693900
826.35 1185012 1051192 1139620 1782810 2841588 1727018
829.25 1284422 1511644 1015200 852846 643350 1289678
832.14 1111824 934008 1443690 1230702 1396178 621584
835.03 723822 1884838 1540620 1398150 1747466 1681174
837.92 1388834 1070306 1581458 2323114 2395860 2391820
840.82 2214888 1908002 1711910 2210922 2616780 2392078
843.71 2159220 2341836 3148134 3480528 2944992 2835780
846.60 2870860 2983280 3267454 2856868 2422086 2820504
849.50 3569680 3961434 3529268 3271216 3685304 4160744
852.39 3731468 3184096 3451144 4193428 4200468 4351418
855.28 5126892 5152098 5272750 5639108 5688168 5700960
858.17 6565484 7241518 6990850 6732074 6643682 6817892
861.07 6971374 7347934 8273560 8913470 9786090 10430370
863.96 10783620 11143300 10335170 9348676 9459046 9623480
866.85 9558534 10254310 10065630 10228030 11305060 12689670
869.74 14306110 16544520 19699000 23313900 22247490 16614530
872.64 14927980 15200930 15400790 15626110 16048700 17100650
875.53 18152900 19237490 20828970 23193360 26375710 30268430
878.42 29286190 24112240 20906220 20813750 21404380 21738200
881.31 22867430 23594120 24585910 26940000 29289070 32598900
884.21 38451100 46077470 44914600 35610930 33614030 33376440
887.10 29406710 27169270 26430470 28021690 30314500 33905940
889.99 39982370 50308620 65282090 88799860 93145950 60213240
892.89 41371850 41942700 42917410 41338280 37299890 38134340
895.78 40679820 43700770 47911600 54668330 65435800 83823120
898.67 98839520 80742260 56993860 54818580 57233500 60557970
901.56 60954480 56392790 53681720 56308520 61560180 69352340
904.46 82095740 100985400 130917400 133934500 91832350 71976770
907.35 75292250 80872190 85563780 80525130 76129120 70702900
910.24 70802130 83970180 106171000 144458000 209350800 291525900
913.13 241806500 113106000 79697870 79621390 82284760 86179410
916.03 82201860 80689340 83574780 84752780 90613120 110150200
918.92 140782600 193430200 244593200 189162300 106171200 93691100
921.81 95134370 100992200 106599500 103239000 99520010 102019700
924.71 110208200 120536800 140333600 178803300 247878100 307939400
927.60 227318700 124966700 111824300 113034800 123833800 137174100
930.49 130083600 117759300 122642300 138345600 167605200 220019000
933.38 301834500 457401800 619759600 443419500 169342300 116625400
936.28 109279300 110710200 117887700 120712900 113008200 111659500
939.17 120650900 137558000 166358500 217227000 300922600 415706800
942.06 360322700 181198900 124689300 120348000 121466400 130320500
944.95 139108700 136489100 128718300 131016000 144961600 169074300
947.85 216247800 290811200 423423700 442652100 246788100 137182900
950.74 129464600 126849100 137294600 153261200 163762000 146816800
953.63 134197000 148336700 180409900 249621200 372246400 617457300
956.53 882877600 621688500 219104400 147780400 129915900 128295500
959.42 130992400 139184300 142637600 137289300 136645000 151786600
962.31 176876300 227633200 306264900 443306600 456775900 258454500
965.20 152987600 142160200 133187800 137368800 140690100 148814100
968.10 151328000 144314700 143410700 159138900 187713300 239464000
970.99 328258800 443659200 367425000 183691500 133066000 125821500
973.88 127058400 133364800 139420000 148870700 154418100 145229300
976.77 150452000 180175600 240954300 341619700 521999600 674371600
979.67 449533200 170579900 124699200 107244900 107940400 121555700
982.56 129382300 131900700 137080200 133582700 135612300 147815900
985.45 174485300 217582500 296828700 346407900 238066900 135496700
988.35 122833400 111234500 106188800 106576000 115685900 122171500
991.24 126694300 124827600 123044700 130889000 150976100 183172800
994.13 244906000 280071300 190495400 108892500 98662270 91231850
997.02 88003080 85917140 87141570 94501540 108459800 113379300
999.92 112814400 122089500 151379100 199195200 287120200 351696700
1002.81 232714200 100330300 81593410 73589490 68511250 64523220
1005.70 63785010 62496870 70409120 88668580 95686580 96552720
1008.59 104927800 119347500 145595300 174479800 143479000 89298140
1011.49 77586410 74361530 69896720 67540750 65868560 63501180
1014.38 62260840 63112590 69229100 74707250 77389260 85545000
1017.27 99322990 121024700 113779700 74223540 56725940 53877420
1020.17 50948360 49017600 47140910 46018350 44387760 44611920
1023.06 46303340 50203730 57212940 68098270 83516890 110196600
1025.95 122294800 80154400 43580830 38625360 35065570 33144940
1028.84 31144920 29955200 28635590 28151710 27821010 28312880
1031.74 28678940 33852650 45381260 53743560 60984100 55585900
1034.63 40111920 34608660 33457240 31727700 29533730 28177380
1037.52 27499080 26558390 25906630 25519370 25347890 25492780
1040.41 25566090 29280110 36578410 38839810 30583810 23281440
1043.31 22016160 20884420 19909380 19164370 18541740 17178160
1046.20 15883770 15430310 15816820 16365710 17291240 18916210
1049.09 20899720 27087530 27987250 18488520 13493320 13075250
1051.99 12208570 11195990 10546460 10137440 9026046 8634794
1054.88 9093254 8737880 8144360 8724128 9505366 10206450
1057.77 11032670 11599160 11521510 11026820 10395490 9732950
1060.66 9531988 9139570 8473500 8002640 7713730 7338858
1063.56 7103972 6994152 7011714 7269316 7651000 7480560
1066.45 6223054 5763570 6062228 5861386 5496918 5127050
1069.34 4886358 4905468 4526956 4367176 4927438 4596986
1072.23 3803560 3497266 3852604 4666068 4785788 4075968
1075.13 3403344 2814670 2353734 2754170 3094598 2598982
1078.02 2506768 2852458 2566594 2115200 1771782 1907878
1080.91 1976460 1903628 1957728 1843336 1740946 1445980
1083.81 1707662 2201176 2619088 2501468 2090188 2214780
1086.70 2594368 2024132 1325684 1850208 1625342 1616474
1089.59 1910798 1411772 1100238 1172222 1612204 1237530
1092.48 913518 1078750 799524 1018126 1371714 1422904
1095.38 1199300 1299552 1323594 548584 832324 1337804
1098.27 1271878 1585006 1372082 883494 804260 955984
1101.16 929888 752908 844106 1000292 1120536 1087598
1104.05 858388 589990 296832 607726 1154968 1101886
1106.95 1311596 1040454 721172 1129516 977052 856484
1109.84 752726 578626 532906 372626 539376 918348
1112.73 803774 808338 1042242 1283870 1064906 133202
1115.63 248824 455910 439210 403650 365664 735796
1118.52 564246 450980 646702 1019324 1183848 842916
1121.41 789910 997970 774538 465408 114190 21254
1124.30 556142 666382 450998 336254 335606 760668
1127.20 1396626 989458 567730 547016 563854 1008102
1130.09 656312 389470 569582 507782 521622 217030
1132.98 24366 42364 127930 89236 332434 431156
1135.87 716380 1119122 622452 252046 194050 282322
1138.77 443668 566106 788758 722434 354222 474996
1141.66 676740 669860 678988 283266 441514 925382
1144.55 706870 490254 388452 554450 552140 185906
1147.45 543556 748114 553980 611668 903768 943328
1150.34 749694 1050470 698754 489612 787108 749676
1153.23 1112384 882786 720150 1020966 851564 1098142
1156.12 1460940 1438934 1296098 1119462 472742 228272
1159.02 965270 1165316 1004736 962542 776498 807488
1161.91 1020790 1227348 1463766 1373896 1213710 1312724
1164.80 1210554 1052704 1162138 1068076 923316 1061678
1167.69 1249260 1475534 1524520 1208182 972140 1379434
1170.59 1377182 953358 901302 1130568 1701734 1675660
1173.48 1532758 1517600 1645770 2035246 2090462 1528924
1176.37 1133386 1721610 2144022 2360796 2137480 1919360
1179.26 1639496 1993926 2289480 2139730 1909886 2095126
1182.16 2550696 2217506 2289328 2424658 2423530 2535198
1185.05 2427120 2459736 2858800 2885500 3069082 3267774
1187.94 3297024 3274024 3508836 3326060 3158984 3048992
1190.84 2727312 2772688 2969930 3238482 3352168 3472650
1193.73 3810106 3938368 4162100 4440964 4352468 4112762
1196.62 3896466 4029286 4055348 3976630 4089132 4161434
1199.51 4255640 4322508 4591788 4472596 4152788 4314018
1202.41 4662650 4769050 4483764 4224188 4075268 3738204
1205.30 3986874 4429166 4044286 3817862 3888070 4058002
1208.19 4132934 3835552 3680332 3807172 3745504 4017908
1211.08 4327628 4108998 3882864 4020686 4523094 4572648
1213.98 3933002 2946902 2341834 2612206 3180366 3059204
1216.87 2987262 3529440 3871750 4055014 4034454 4409932
1219.76 5187456 5475990 5940358 6308840 6403210 6502204
1222.66 6604228 6893136 6702644 6230626 6574988 7304088
1225.55 7343370 6804340 6296088 6143626 6147314 6236624
1228.44 5984200 5600486 5379918 4812172 4673114 4327962
1231.33 3733702 3910890 3743652 3610910 3367996 3095106
1234.23 3068178 2468332 1929016 2473952 3016722 2253816
1237.12 1673608 1644330 2219178 2836202 2757468 2563624
1240.01 2813438 3350208 3248216 3319218 3775176 3387686
1242.90 3282868 3758338 3909336 4052146 4128484 4017176
1245.80 4542108 5488578 5735658 5346150 5125518 5364736
1248.69 5561724 5978880 6571754 6775094 6757634 7075468
1251.58 7410876 7989412 9017374 9674334 10188190 10676340
1254.48 11545320 13043750 14128450 15107320 16413760 18015730
1257.37 19707560 21184330 23286130 25817740 27753290 29388790
1260.26 31431910 34029330 36742570 39525140 42836210 46048360
1263.15 49641970 54068480 58067970 62316060 67253900 72538160
1266.05 78183110 84260580 91006050 98039140 105494600 113490200
1268.94 121948200 130768400 140332800 150437900 161440300 173357300
1271.83 185634100 198298400 210876000 224160200 238585400 253691900
1274.72 269717400 286817500 304303100 322409200 341163400 360866000
1277.62 381519700 402606600 423936900 446270700 469723000 493573700
1280.51 517888400 542927400 568511000 594392100 620966000 647529400
1283.40 674473500 701993200 728718100 755241100 780957200 806557000
1286.30 831936100 856339200 881059400 904839000 927469200 948399200
1289.19 968485800 987882900 1006323000 1023171000 1035142000 1042513000
1292.08 1047712000 1052397000 1054771000 1055127000 1052867000 1046266000
1294.97 1034315000 1018563000 997265700 972196800 944786200 912096300
1297.87 874401300 834324100 789249700 745222700 699261600 650843500
1300.76 612646700 568212400 492229300 408535700 339373600 294102700
1303.65 273817500 316356200 438331200 863359200 1406270000 1302668000
1306.54 848421500 569977700 400475600 357293300 417556100 511634200
1309.44 592090400 655901400 708170900 761115500 824498000 889394900
1312.33 953751300 1016412000 1075759000 1129348000 1175920000 1217160000
1315.22 1252110000 1280021000 1300966000 1313807000 1320112000 1321909000
1318.12 1317421000 1304396000 1283570000 1259265000 1231710000 1200768000
1321.01 1165294000 1126306000 1085091000 1040978000 994429800 946209300
1323.90 897633300 849022100 806148100 767166100 720608500 669371100
1326.79 618121900 567874800 519563900 473411500 430108500 389131800
1329.69 351360300 315742700 282675500 252845200 226001900 195102400
1332.58 163405700 141330500 123773200 108488900 95706980 84730390
1335.47 76662130 71585450 68284660 64079600 77440090 126743400
1338.36 152425500 133839200 110039000 89240110 72715230 60734560
1341.26 52496720 45992180 41322120 38344990 36486550 35093290
1344.15 34299160 34220350 33502980 29146710 24904330 24701470
1347.04 25037910 26230700 28131360 32163720 35788280 37967760
1349.94 44896600 87439170 129207700 117926600 92406950 73964730
1352.83 61419530 54718450 50331390 47529090 46202620 45940640
1355.72 46113990 46913930 46852920 47762940 49157520 52284800
1358.61 53819020 47490590 42394560 43970260 46235980 52926020
1361.51 57807900 61151410 64744730 119908400 202550800 192689900
1364.40 140822500 108402200 87462460 78116970 71983220 68192830
1367.29 65903490 66091420 66172350 67546220 68762800 70031460
1370.18 69728280 71718340 74125030 76698280 63906610 49213280
1373.08 51489800 69785060 75303310 77843170 81745610 223923900
1375.97 487294800 465460000 282993400 177965500 116255000 90068820
1378.86 72413150 63218900 57804780 57045040 56662820 57843080
1381.76 58938290 61367620 62300720 64388920 67595060 72356410
1384.65 74260700 73622370 71959310 82034660 81313150 83332270
1387.54 88564890 200609800 389098600 349090300 209171300 141465800
1390.43 106681700 94342100 85237640 82611890 81607390 83085930
1393.33 83650380 86103130 87683760 89456260 91842100 95530800
1396.22 97622300 105601400 110082800 112941600 123086400 125169300
1399.11 110768500 115985100 132744200 330838300 540753900 406708100
1402.00 230792500 160282400 126451200 114565700 105622100 103829100
1404.90 102379100 102679500 102301900 103465200 104736200 107196600
1407.79 110043500 110412100 110103500 116602400 124652300 150377100
1410.68 186749700 165418800 135964700 140037700 292800600 949165400
1413.58 1142084000 606522400 295103100 177129800 127783600 104689300
1416.47 96008110 92714010 92486580 93065520 95514580 97423200
1419.36 100889500 102466900 104709700 105329100 114283600 121243000
1422.25 135238000 156311400 153928500 133897400 147238200 159007200
1425.15 437666800 776772700 558394900 268611300 182568800 142235200
1428.04 130908800 122674800 123741900 122692700 124194400 124219300
1430.93 125980300 128034100 132959600 137840600 135041400 135089400
1433.82 135456100 152993500 180686200 172017100 147679100 164819500
1436.72 174352600 378786300 836968000 725877600 331012300 205110600
1439.61 155756300 139731600 130834900 128404400 126585500 124991900
1442.50 126542600 128505500 126940400 120903700 122847500 121868800
1445.40 127480100 145557800 227908600 196402800 151774600 136118100
1448.29 198914500 214738000 1186268000 1812035000 652727700 172699200
1451.18 193130600 133625100 139828000 121513300 129326000 121448300
1454.07 126797300 124978100 130444600 126961700 131086000 132150900
1456.97 132603600 132938900 142796100 174803900 174206700 155595400
1459.86 146379100 161886000 167993300 398961500 832524000 640186500
1462.75 275907400 196609100 157873400 152974600 145886200 145195400
1465.64 141966300 142638400 141891900 139316500 138628500 138676400
1468.54 136885800 135767100 138998900 162301500 175310400 150188600
1471.43 151541100 146876700 160461300 184247000 532482200 785413300
1474.32 426980600 188609400 156949900 137933500 136152400 127901800
1477.21 128589300 126241900 124198300 117329600 117422600 113941700
1480.11 113428600 111759000 117399200 155107600 181177600 130828400
1483.00 119294700 117099600 146964400 150919700 464358800 1200103000
1485.89 934199500 282171900 162014300 121498000 140051200 138152300
1488.79 140040400 135342100 135174700 132683700 133850800 129978000
1491.68 130183700 128764500 133427600 150912400 153742200 133009800
1494.57 129609600 131249200 140670100 143251300 218997900 538346900
1497.46 519697600 210677100 138396800 120659600 115964200 121144400
1500.36 129320100 126753300 125291400 121407300 119706200 116733500
1503.25 115747600 112858800 120830600 130297800 120193100 107041100
1506.14 105701500 106611900 115126000 111461500 175024200 428735800
1509.03 385435800 140456800 98119920 84910820 82367770 76655050
1511.93 80015940 88117140 90180850 86640870 85552520 83424500
1514.82 82699140 88491160 109417800 97479040 83367590 74643420
1517.71 77378190 74234110 94904930 87821870 288411200 615177700
1520.61 368139700 97065720 84610700 62951680 64714740 57487120
1523.50 59180150 64297390 86689220 92739930 93076140 90668320
1526.39 93677140 98346820 93849900 87187170 85389560 82662250
1529.28 82778810 84146090 88153210 102530100 233169200 242642700
1532.18 105169300 76542290 72078440 67369880 64943880 61743160
1535.07 60363170 58807360 62849450 70172860 71230010 73471860
1537.96 74480880 70031770 66739310 64570380 62121760 60773960
1540.85 59114160 64458640 64536140 137813800 174677900 82087280
1543.75 48792760 47904490 42929580 41179380 37851340 36718500
1546.64 35154280 34321300 33742090 41295020 50736740 46561150
1549.53 42051030 40273560 38526120 37213410 37613520 36387400
1552.43 42221250 46000070 146644600 181693700 64780370 33024990
1555.32 32418120 27687610 27484190 25430940 25203160 24363470
1558.21 24488730 23655460 25697170 32701490 39763560 39848440
1561.10 39412080 38250280 38312240 37487080 37348420 36661180
1564.00 44234570 76788350 64808180 32619900 30695460 28250100
1566.89 27784630 26563330 26002040 25149060 24561600 24345550
1569.78 24276250 22863530 21429890 23131770 25225450 24697560
1572.67 23875900 23428420 22596430 23383610 23246130 38897100
1575.57 46469750 26196630 19129710 18635140 17295250 16790610
1578.46 15816370 15254230 13976750 14031030 14071410 12571290
1581.35 11578960 11746070 11773570 13996230 15375300 15560590
1584.25 15114850 16156680 15697500 30444750 41581150 21459420
1587.14 11775510 11221740 9601436 9829344 9507870 9465726
1590.03 9046462 9180586 8924674 8650770 8558506 8507468
1592.92 8236030 8419430 9358018 11753300 12359830 11808190
1595.82 11883570 16291560 17422440 12014440 10338970 10029140
1598.71 10222520 10052840 9605180 9801002 9947534 9467508
1601.60 8887530 8789816 8136720 7344558 7179950 7024292
1604.49 6843316 6954406 7557418 7817114 9073824 11709900
1607.39 10303230 8059086 8270370 8271578 7589178 7055884
1610.28 6948484 6220816 5740506 5634354 5496800 5277586
1613.17 5094350 5218542 5220330 5143360 5598178 5967548
1616.07 6830370 7168986 8388278 8006444 5534036 5060188
1618.96 4962926 4692662 4350918 4384712 4815240 4876314
1621.85 4755026 4689626 4809034 4867346 4229860 4060844
1624.74 4275706 4224916 4260384 4093448 3888300 4389824
1627.64 4800370 4438382 4522388 4220958 3952134 3848866
1630.53 3413906 3782416 4328572 4058062 3833870 3743260
1633.42 3464120 3609786 3814528 4150712 3614608 2252970
1636.31 2359464 2870000 2895486 2311930 2074308 2150506
1639.21 2266570 2602862 2537946 2483412 2407692 2322638
1642.10 2320936 2229778 2211678 1951352 1693168 1713812
1644.99 2328148 2840178 2317430 1923396 2372130 2221652
1647.89 1708504 1914476 2050986 1906302 2032526 1992574
1650.78 1506756 1704860 3113860 3463192 3408876 2601890
1653.67 1843220 1918362 1400906 1396294 1329178 1027246
1656.56 1127870 1191200 1133498 1305974 1397764 1143878
1659.46 736682 511068 837576 961648 721938 1210684
1662.35 1721352 1320718 999176 710374 519694 756014
1665.24 817750 673664 1055252 1372108 1011778 852804
1668.13 1022190 1568302 1487754 712738 512768 585832
1671.03 907652 1043610 906314 865968 773172 654224
1673.92 649174 1227780 1878032 1277772 620866 646982
1676.81 874316 809500 473106 381570 524612 637084
1679.71 697564 843610 816706 891348 698242 526158
1682.60 805250 1048576 1210898 2082574 2307096 1293146
1685.49 1100006 719262 514912 672268 585230 664006
1688.38 818918 885588 742006 563852 458808 140818
1691.28-46996 42830 231914 365732 618190 866608
1694.17 764032 962832 2113486 2182734 899786 514604
1697.06 315452 252948 676338 548810 990094 1760978
1699.95 1799898 1564564 932174 380712 321756 423760
1702.85 272962 363194 781702 907616 801064 476558
1705.74 484578 486340 203368 88926 295736 425170
1708.63 441630 508442 553886 603372 399058 239022
1711.53 485306 732450 536554 399902 442200 480426
1714.42 973930 992434 443938 190934 1012448 2232262
1717.31 1608508 888460 845646 638070 783614 726816
1720.20 428278 623940 842280 465644 437714 553238
1723.10 668286 560908 109546 108052 319870 434202
1725.99 603356 650812 672818 347712 149550 446992
1728.88 608374 705920 657958 631686 640506 581962
1731.77 635556 703528 1350142 1356000 1279222 1676704
1734.67 1224966 697252 515244 465722 436520 565396
1737.56 597666 549052 358822 699912 1158252 987856
1740.45 828346 703902 480808 345278 599286 638364
1743.34 527840 701604 763128 654630 509272 491352
1746.24 782658 590364 519612 804518 829914 551028
1749.13 287410 342982 454658 871064 1086110 552584
1752.02 347384 617672 604628 834532 1029968 784418
1754.92 681000 637648 683084 788326 458910 455276
1757.81 467516 201060 549646 676202 342110 223820
1760.70 533296 969088 988100 789518 904390 945700
1763.59 724652 592620 542338 394338 276130 310740
1766.49 298090 387442 752378 855550 557632 552144
1769.38 648818 534286 813512 981336 753490 1003434
1772.27 1354322 1091666 791156 739796 607626 439408
1775.16 604322 547016 357604 469084 555790 421172
1778.06 516736 647044 533142 480508 356636 113772
1780.95 48202 371972 401620 171730 83658 109430
1783.84 269088 608246 823590 781198 675600 550790
1786.74 290712 181060 304420 299112 271942 371000
1789.63 650704 890094 908548 525458 480496 1104808
1792.52 1127396 470018 181418 302110 453424 336790
1795.41 381438 615866 646818 481026 164140 87312
1798.31 384430 667888 567314 457112 442200 156680
1801.20 77430 349022 466142 455550 493380 507920
1804.09 413114 314794 237000 307436 386614 265010
1806.98 253684 254812 383286 407342 473088 533670
1809.88 427312 225068 185224 415400 464218 522888
1812.77 575734 645474 419264 68350 360456 391004
1815.66 104370 160046 274604 319402 379564 546430
1818.56 512154 524500 586484 459666 494870 479640
1821.45 428686 344404 272814 265356 116880-311842
1824.34-225208 34356-253834-323564 81478 688280
1827.23 833476 737620 618596 462862 578810 575692
1830.13 543048 453920 442510 597902 688720 409684
1833.02 132086 386142 447316 406962 439118 703592
1835.91 1046124 1174118 1189422 777556 278930-70046
1838.80-206064-22028-86072-164296 103092 443996
1841.70 393930 246524 234654 296432 1042930 802504
1844.59 113704 194964 387208 401242 311488 596158
1847.48 579364 455144 558898 587804 797722 828080
1850.38 603692 690830 343200-143776-43194-185822
1853.27-300136-336554-204252 120098 452670 934524
1856.16 920866 581864 535704 566242 626014 620896
1859.05 365970 301782 409302 241698 507112 1001562
1861.95 1069704 1165238 1048638 1084148 1440502 1403994
1864.84 920282 418802 212480 113338-62390-187720
1867.73-297164-274236 129942 212542 895048 1717516
1870.62 1773100 1671204 1706622 1468414 1405364 1536160
1873.52 1343214 1201750 1434236 1842082 2087876 2446324
1876.41 2777138 3173022 3665246 4040550 4341918 3910540
1879.30 3045238 2720354 2425846 2446436 2686412 2719398
1882.20 2464312 2568366 2765384 3016852 3430822 3974742
1885.09 4564328 4912006 4859838 4810742 4861038 4852068
1887.98 4931506 5105174 5465948 5684336 5900352 6084766
1890.87 6312684 6601046 6897362 7532720 7493520 6956518
1893.77 6794796 6676654 6828220 6608792 6041584 5963232
1896.66 6034264 5883516 5638338 5659574 5629616 6167614
1899.55 7087246 7212154 7234562 6859974 6392986 6203028
1902.44 6212196 6426606 6624362 6392414 5941676 5763086
1905.34 5585392 5463240 5555444 6009564 5562616 4308542
1908.23 3943930 3795256 3787130 4239596 4901136 6402022
1911.12 7206486 6959282 6551416 4830716 3054152 2610480
1914.02 3819944 5519590 5906086 5771826 5768224 6068338
1916.91 6744696 7351548 7622124 7815550 8150124 8976490
1919.80 9813568 10275380 11175460 11766200 10989510 10197590
1922.69 10270440 10193730 10061440 9914036 9751896 9325360
1925.59 8699752 8237510 7586120 7184960 6874336 6249562
1928.48 5894488 6137722 6194700 5563262 4745210 4319158
1931.37 3915014 3172042 2535692 2010826 1721996 1671582
1934.26 1512934 1382076 1188112 851880 560234 704376
1937.16 734326 420584 251738 162894 138230-15970
1940.05-148492-308778-427544-450172-482260-799014
1942.94-1120604-1017100-330904 617442 599634 118568
1945.84 177088 255964 257230 350770 73378 130326
1948.73 443854 361492 439666 559024 305444 7594
1951.62-184104-255274-104552 99914 66424-287640
1954.51-155226 4664-420774-752816-1026510-1360914
1957.41-1505720-1586170-1422012-1267880-550324 655234
1960.30 731108 577826 842192 707944 495080 336644
1963.19 331150 739392 1137096 1384154 1081232 274656
1966.08-85822-31462-89856 2558 294746 215608
1968.98 167166 200962 233456 272314 218068-33228
1971.87-528684-466518-273146-545366-598278-365572
1974.76 96602 542026 466240 425212 365168 439764
1977.66 487992 242928 481108 673612 588344 305058
1980.55 118494 153474 156904 285212 223806 273648
1983.44 551506 567224 257474-53586 66528 116446
1986.33-62898-222596-335582-342828-420676-650320
1989.23-516862-133118 374112 618784 381964 264912
1992.12 62312 155164 404452 698402 794240 594192
1995.01 486668 271778 245182 237812 178842 63000
1997.90 84668 347948 334432 601640 756796 425978
2000.80 281014 104242-11848-19018-246364-508500
2003.69-617932-785416-747272-537804 141172 720218
2006.58 680094 759206 821254 614490 526958 814206
2009.48 642194 233154 117832-22006 6706 52588
2012.37-130804 115520 423394 101190-65932 30290
2015.26 292406 339894 303156 308036-72544-101790
2018.15-22180 37456 99410-175700-134182-215048
2021.05-79978 307568 128338 149532 316786 313604
2023.94 129866-10026 329602 314440-118170-198086
2026.83-53128-114032-145550 301018 589102 216462
2029.72 91266 240946 192866 29760-79842 164290
2032.62 548042 484598-103600-306056-59908-190786
2035.51-247324-171816-290194 26688 409752 424526
2038.40 338066 188400 61580 89998 187928 99612
2041.29 176490 438294 238544 30626 128904 187088
2044.19 435186 498068 293658 367206 391420 188286
2047.08 23318 138276 197644 1270-81352 60050
2049.97 131248-52588-48234 72538-193904-231586
2052.87 177390 372716 494574 604148 753478 861620
2055.76 849900 809542 538586 495098 512974 296994
2058.65 519106 457400 323944 452070 266146 241438
2061.54 295520 364132 513650 518684 614746 544192
2064.44 189594-37660-159064-152512-120742-96322
2067.33 153520 500142 774966 604176 362412 465602
2070.22 401192 218658 188712 86378 119616 568978
2073.11 656818 412818 317790 471646 380078 244204
2076.01 178312-19922 478020 771682 603870 465178
2078.90 209628 441820 655952 596890 597598 801770
2081.79 743848 150712 111848 255920 203546 279958
2084.69 216922 480320 1052630 622222-200008-133140
2087.58 370770 378206-30424 57028 375772 1042910
2090.47 1091986 717964 510350 392476 496176 337548
2093.36 261416 609794 1410352 988002 245768 279042
2096.26 339920 295692 480136 327170 708536 1484824
2099.15 709422 145468 35524-136082 49454 67338
2102.04 217704 1422390 1563006 733742 529982 71838
2104.93 45092 294684 125664 759448 1836242 1009772
2107.83 186944 187986 111904 175646 413006 504754
2110.72 1313142 1914302 1013414 443140 300856 166888
2113.61 294506 429606 906714 1888636 1272040 308274
2116.51 140648 290088 299066 372540 638588 1618990
2119.40 1564784 352476 322746 211914-92064 63230
2122.29 186838 1015440 1670322 693404 297202 381914
2125.18 307868 418916 351718 466266 1116466 865136
2128.08 137818 194104 350326 318856 209768 314702
2130.97 1033606 1020366 407814 274166 318774 564888
2133.86 584748 583378 901212 608876 171930 197210
2136.75 368702 573318 525744 526126 726730 688184
2139.65 668206 902418 620792 427244 560476 503200
2142.54 315700 297596 346090 233126 56728 134906
2145.43 497354 720380 935734 882018 721492 787038
2148.33 683582 483954 224060 476724 1122188 1051144
2151.22 859924 865026 608176 513056 615766 1241270
2154.11 1827440 1210198 691514 763026 656332 724026
2157.00 1099662 1977166 2275118 1221946 685186 662378
2159.90 823526 1091654 1523120 2702436 2218290 1095352
2162.79 1091690 1156576 1565282 1390054 2056730 2749166
2165.68 1916880 1477136 1497316 1583382 1361354 1745172
2168.57 3399864 3051232 1651598 1782380 1974328 2075054
2171.47 1866262 2736726 3568544 2599430 2278396 2012536
2174.36 1883358 1977044 2867882 3994922 3010690 2274098
2177.25 2272714 2473216 2639216 3229894 4632324 4211998
2180.15 3376508 3382128 3114396 3201260 3775826 4801870
2183.04 4358250 3300874 3289712 3276690 3334130 3685678
2185.93 4924128 5222502 4485692 4254398 4639404 4930308
2188.82 4565852 5432682 5333334 4207740 4253916 4641508
2191.72 5013630 5444778 6638194 7079544 6643754 6674120
2194.61 6585480 5886100 5425580 6149648 6127068 5166314
2197.50 5020756 5435802 5675086 6118968 6873058 7148232
2200.39 7482114 7789900 7709888 7269880 7179474 7449036
2203.29 7108906 7141814 7310024 7236024 7431012 7817958
2206.18 8557398 9368326 9956106 10574730 10546030 9444702
2209.07 8672540 8624714 9122024 9570362 10016690 10516050
2211.97 10901050 11185530 11806480 13521620 15320780 16481220
2214.86 17224580 14190870 9569676 8359236 8747488 8892538
2217.75 8959768 9407290 9816930 10108790 10511090 11343520
2220.64 12577620 14010560 15287480 14725670 11974190 10435660
2223.54 10332120 10087560 10312930 10834540 11129840 11859980
2226.43 12973940 13909530 14920270 16553330 18450650 19684150
2229.32 17763580 13094140 11195190 11498980 12098560 13040500
2232.21 13961640 15029460 16400110 18400740 20603590 23012780
2235.11 26021480 28886290 32009620 28321150 16666780 10813280
2238.00 10541760 10723270 11005650 11315670 12135850 12818220
2240.89 13466600 14485560 16043060 18357880 20771290 22989550
2243.79 22217880 15615920 11520660 11670440 11538780 11760790
2246.68 12469760 12707080 13080780 14015660 15280160 16977310
2249.57 19007540 21478070 24140970 26258650 21334220 13591210
2252.46 11764550 12356060 12766480 13349340 14419520 15379060
2255.36 16901180 18818240 21234940 24505090 28441580 32812890
2258.25 38336570 38383260 23894850 12194150 11069230 10805710
2261.14 10948910 11286550 11985730 12756060 13660960 14553580
2264.03 15710990 17125740 18813690 20921820 23635480 22468790
2266.93 15301410 11253360 11266130 11404270 11799480 12093930
2269.82 12569850 13085600 13608180 14063210 14898690 16168080
2272.71 17821220 19594130 22081770 21568350 15150260 10368390
2275.61 9676356 10183430 10941610 11455560 12306500 13140840
2278.50 14183080 15416170 16723990 18400130 20649510 23269580
2281.39 26154000 26066960 17586690 9680992 8146088 8173282
2284.28 8769396 9508302 10252270 10548470 10960470 11564020
2287.18 12162900 12461200 13077570 13963560 14799100 15617080
2290.07 13551650 9830226 8631738 8539608 8303680 8469380
2292.96 8819360 9727418 11087660 11710760 11515710 11206500
2295.85 11198570 11829540 12578980 13349650 13432980 10686970
2298.75 8389732 8012056 7528888 7312874 7034488 6903630
2301.64 7629396 8972892 9366366 10374340 12166100 14878520
2304.53 16909730 14770840 13393810 12701360 9432962 6731810
2307.43 6027090 6065194 6506558 6289846 6128402 5863666
2310.32 6367454 7737874 7940016 7888356 8992386 10329210
2313.21 10348530 10548620 12364760 12780180 9118924 6653940
2316.10 7344796 8726824 8140750 6730638 6983984 8860852
2319.00 8680214 7516774 8510462 10488790 10149230 8161708
2321.89 8478006 10617910 10157080 7949580 9791814 15123270
2324.78 14723760 8660792 7767584 10424800 9861392 7492724
2327.67 9052718 11767430 10245560 8167096 10494800 12896810
2330.57 9881074 7147562 9548920 10729490 7720710 7980268
2333.46 13766040 18645710 22742360 20132410 13417600 9023126
2336.35 6172974 9381888 11422630 8244524 8093382 11387790
2339.24 9973900 6980030 9514934 11076310 8233566 8289360
2342.14 10810660 9399690 8032344 11919270 17608940 19222500
2345.03 14016360 9814144 8381794 7610546 8362250 8277536
2347.92 7525358 7212104 7592408 8274426 8072826 7991750
2350.82 9302700 9223514 8640500 10725390 10897020 10974130
2353.71 17062310 24666290 22769860 15855340 12559190 10608490
2356.60 14120950 14874410 12260360 14699020 12936260 10398770
2359.49 14021540 12455410 11024180 15026310 13162760 13461970
2362.39 16098200 15130140 21838430 36165840 49653670 37728830
2365.28 15499500 12707200 14192530 11740160 13258710 12678360
2368.17 11076070 12744730 11204800 12216520 11503950 11253880
2371.06 12315460 11482120 12699190 12267880 14655030 18961350
2373.96 29437170 30263620 16029170 10975050 10721910 11197850
2376.85 11614100 11009790 9875238 9616990 9877130 9915034
2379.74 10104450 9777342 9962874 10705910 11098340 11047970
2382.64 12539620 15886120 26499200 34376190 21550280 11134840
2385.53 10595080 10566930 11290470 11207830 10925190 9711698
2388.42 8976102 8974710 9428278 9480262 9218194 9736294
2391.31 10816870 12764630 15968340 22779030 32186650 43969360
2394.21 45469770 23993760 10717940 10710020 10440490 10952670
2397.10 10142070 9297810 8987438 9308860 9566236 9419552
2399.99 9171064 9432978 9976490 10603970 11008540 12246650
2402.88 18360520 33378600 30089040 13162130 9712662 9766916
2405.78 9984172 10972250 10384700 9107688 8451970 8227860
2408.67 8389234 8498688 8171298 8060734 8641854 9618334
2411.56 9897002 10533760 14694360 28871260 28244920 11818660
2414.46 7487214 7815936 8835650 10225540 8897302 7066472
2417.35 6874424 7066798 7079192 6610634 6287194 6704508
2420.24 7496680 7687696 7418928 9572760 16842840 43963360
2423.13 44721670 14467520 6749918 7000172 7273598 8210024
2426.03 7628932 6755940 6688968 6739482 6647252 6825496
2428.92 6725360 6797630 6786278 6990536 7019244 7294662
2431.81 9728478 22171610 22952260 9633402 6460536 5908476
2434.70 5905072 6612812 6602072 6365322 5833278 5923002
2437.60 5925950 5947494 5794984 5347274 5529050 6147506
2440.49 6104316 5814500 6883000 17204500 18005970 6888074
2443.38 4441448 4325428 4548240 5527948 5269364 4616772
2446.28 4563540 4528348 4397970 4158778 4202104 4480390
2449.17 4357590 4289082 4496020 4717474 5992332 18859330
2452.06 23309130 9754466 4501714 4158236 3415088 3325534
2454.95 3082316 2937378 3858058 4415874 3714692 3631334
2457.85 4029794 4145970 4124670 4237318 4213528 4139602
2460.74 4709284 6991536 8201454 6660058 4769180 3925070
2463.63 3697030 3665652 3230774 2959036 3030814 3330786
2466.52 3552814 3428342 3640846 3600036 3448554 3452828
2469.42 3200284 3165636 3714878 4631392 4884638 4556220
2472.31 4246694 3987182 3548728 3312562 3328054 2983432
2475.20 2579688 3171434 3576670 3365646 3226576 2898408
2478.10 2864898 2811582 3018692 3369454 3116918 2433744
2480.99 2192360 2524568 2879662 2600218 2223722 2382132
2483.88 2437376 2429718 2772484 3430280 4837718 5094528
2486.77 4108556 3824352 3267314 2966860 3310392 3301140
2489.67 2926104 2762888 2747464 2532782 2678064 2583478
2492.56 2447274 2728496 2550626 2194950 2076666 2082964
2495.45 2113872 2216070 2579298 2771980 2602256 2814174
2498.34 2579188 2205658 2200480 2146322 2351484 2167438
2501.24 2083138 1794286 1623388 1565802 1438712 1981196
2504.13 2307900 2296436 2124580 2171698 2037928 1611208
2507.02 1529876 1415760 1128930 1287604 1568350 1511580
2509.92 1855652 2089768 1853710 1829048 1932624 1933086
2512.81 2025232 2180960 1887934 1862904 2310814 2357890
2515.70 2581776 2897956 2907004 2603526 2348926 2748300
2518.59 2783298 2937596 3261934 3037758 2609430 2366686
2521.49 1859160 1336104 1575142 1414980 702334 679948
2524.38 1003178 1136054 924636 445428 350624 470326
2527.27 550634 355546 230786 350910 276878 123052
2530.16-255074-197268 141296 76180-119514-64676
2533.06 505870 834162 245026 41416 142274-193300
2535.95-418994-259208 89252-251436-505220-91424
2538.84-61782-297834-228240 304828 45300-351660
2541.74 254020-34610-617854-150604 147168-329552
2544.63-148352 151558-416560-361762 311400-172866
2547.52-612560-133228-267238-526610-366256 93970
2550.41-83394-275908-272838-443422-455186 17758
2553.31 324016-146150-158834 306406 224414 18062
2556.20 642262 647230 525644 919018 787086 232976
2559.09 727234 1530398 1592084 1478066 1967144 1579214
2561.98 1449664 2473224 2501674 2266618 2966462 3049226
2564.88 2811110 3164770 3299056 3123276 4183506 5024418
2567.77 4447934 5190888 5803878 4993250 5437338 6491900
2570.66 6147454 6618664 7570718 7246304 7193702 8606654
2573.56 9031950 8991492 9884596 9876438 9940254 11259790
2576.45 11322460 10680410 11857540 12087550 11687970 12610350
2579.34 12800220 12839850 13483710 13770380 13687970 14165500
2582.23 14429680 13860290 14548660 14833530 14015190 14623560
2585.13 14585140 14051440 14960460 15015390 13634860 13633210
2588.02 13318890 12487180 12844100 12116770 10953860 10616400
2590.91 9596164 8477018 8028198 6902436 5782596 5700246
2593.80 4178980 2961356 3639246 3943498 6000130 12627420
2596.70 17280780 16516430 15051860 11539630 9278464 9164072
2599.59 8709308 9359436 10114760 10584830 11506190 12738320
2602.48 14899510 16946660 18620670 20779670 22712220 24770800
2605.37 26652410 26978420 27228170 28378270 29123980 29720440
2608.27 30384550 29729410 28240640 27167760 25934850 24103250
2611.16 22210180 21715530 21897570 22513940 23163280 22744350
2614.05 22029730 20616810 18958730 17425810 15438280 13309280
2616.95 10663200 8359756 6454564 4552150 3057170 1674970
2619.84 290800-518516-1238772-1947358-2300628-3183670
2622.73-3596056-3787400-3637780-3591232-4205168-4045468
2625.62-4159652-4453838-4563384-4879840-4409724-4318852
2628.52-4464870-4671992-5415710-5326566-5617050-5978832
2631.41-5929910-5866542-5412868-5268354-5194004-5284546
2634.30-5703142-5543052-5309648-5610460-5617604-5416004
2637.19-5607440-5605974-6101854-5880692-5203876-5005690
2640.09-5203324-4761300-4031634-4694140-4929700-4927912
2642.98-4884258-4857320-4884210-4836714-4836088-4717372
2645.87-4432340-4714386-4542372-4564612-4617954-4134550
2648.77-4170284-4186690-4221058-4421122-4268244-3976500
2651.66-3771218-3505262-3222746-2821570-2666200-2718940
2654.55-3161370-3174196-3188758-3082332-2613286-2793910
2657.44-2751942-2522694-2232470-1662252-1620332-1679756
2660.34-1584684-1642384-1339062-1079538-1133754-1015098
2663.23-984226-993532-793508-148714 343322 502052
2666.12 884778 504628-117150-258760-38294 309670
2669.01 1588-380668-130136 238304 560058 625064
2671.91 442948 351234 477780 501766 252448 238514
2674.80 118766-411492-589784-507534 27426 743476
2677.69 1068176 1963216 1663658 683514 562712 398844
2680.59 321552 640694 627766 147774 392778 398130
2683.48 18566 501540 877374 662148 608498 619858
2686.37 675740 362266 305382 759486 1022302 1200276
2689.26 1346364 1716212 2425842 2531620 1381716 813716
2692.16 993450 779606 698068 833684 729992 620836
2695.05 622402 742446 1018840 1153676 1178000 1168398
2697.94 1215304 975522 844744 1188460 644932 497490
2700.83 649750 366136 919348 1276910 1828344 1892224
2703.73 925154 667550 734570 697180 707456 1165406
2706.62 1350688 1129184 825546 600336 742222 1146934
2709.51 1427576 1456382 1566658 1640192 1702398 1920370
2712.41 1975838 2143480 2709850 2700220 3073772 4475776
2715.30 4081698 1764530 996442 1210188 1168936 1143016
2718.19 1151476 966100 825178 923376 1030636 1096474
2721.08 992116 1335446 1470764 1097380 1075378 1176300
2723.98 1196768 1310012 1405794 1218652 995412 751996
2726.87 745808 1334408 1044070 643706 721226 820054
2729.76 895076 593660 564364 662700 675642 484242
2732.65 398198 737432 754748 812882 1296740 1436760
2735.55 1259986 1063638 1185944 1391380 1352466 1692978
2738.44 2477800 2927348 2758344 2096572 960562 760252
2741.33 733580 901876 1023590 446146 1184058 1679136
2744.23 1451356 1434228 1241730 975818 957400 802314
2747.12 954510 1398316 1478674 1843096 2351056 2708096
2750.01 2890870 3017574 3306598 2256970-1651066-3502174
2752.90-2275094-939806 283182 755512 1169168 1063132
2755.80 841908 872292 850458 1132832 1035428 776422
2758.69 687004 817720 1282156 1321498 1034444 1109826
2761.58 1400128 1752018 2308100 3132486 3133724 1988270
2764.47 1255928 986614 993626 1222204 1321728 1538272
2767.37 1544426 1083986 786898 734258 1060526 1209376
2770.26 1054248 949902 846674 814974 764062 1238028
2773.15 1621048 2137650 2671598 2522460 2702330 1947054
2776.05 444448-1223228-2785400-2391828-1093410 115312
2778.94 729094 1003486 1039758 807654 873802 957738
2781.83 869188 971768 1020720 571058 636874 1326324
2784.72 1905916 1937872 2343540 2858298 3450782 3651048
2787.62 2186812 1095586 1202760 975878 1346676 1421164
2790.51 1105388 1436486 1136084 1111146 1266108 1107590
2793.40 1079998 1108626 1149202 1282184 949606 844888
2796.29 1457378 1978718 2344264 2296164 2503824 2723536
2799.19 2592376 2176908 1143126-50350-844448-2824228
2802.08-4441844-2905450-180310 1692730 1796086 1550098
2804.97 1563356 1750388 1901486 1794314 1958952 2316154
2807.87 2448064 2076716 2366528 3057824 3371682 3691720
2810.76 3248150 2318310 2274656 1792728 1642784 2546350
2813.65 3232824 3584764 3312504 3225682 3861444 4054768
2816.54 3822266 4106676 4398244 4525510 4661870 5553888
2819.44 6131606 6082936 6367214 6409856 6556418 7334590
2822.33 7602894 7445884 7879230 8267662 8192166 7717658
2825.22 7719398 7675524 5105436 2193768 4190994 8883640
2828.11 12989110 16060040 18843070 20837620 22042330 23897630
2831.01 25941430 28306270 31141310 33753370 36077530 39304570
2833.90 43308260 46640150 50809460 55355060 59099510 64173270
2836.79 69968580 75682140 81801800 87885740 94489460 101213700
2839.69 107787200 113852400 121285000 128966800 134845400 141166100
2842.58 147774800 154529400 161340000 166269000 170822800 176436300
2845.47 181668700 186089100 188483600 190488100 192524300 197883300
2848.36 200263400 193190700 187938800 187431700 186386700 177246900
2851.26 168110000 168708000 168977200 161604900 154291700 146305600
2854.15 136011300 122877100 112924800 112142900 110573400 99820140
2857.04 103051800 101705200 106513400 130715900 119539800 109157500
2859.93 105063600 111021800 126204600 107832700 72896540 55494630
2862.83 59466730 71371070 82565290 92061160 102620700 112583800
2865.72 121518900 129934500 137741600 144767100 150692600 156791400
2868.61 162130600 165842900 169457500 172009500 174880200 176570900
2871.51 177021700 177739000 178090000 177941900 176979400 175165900
2874.40 171593400 167329100 161295100 156989400 158535200 159084200
2877.29 157074100 153703000 149332100 145639400 141907800 137010700
2880.18 132107700 126882900 121820500 117430600 112698000 108099400
2883.08 103722700 98894890 94459050 90208250 86319140 82193320
2885.97 77257080 73482470 70414180 66594880 62072670 58478210
2888.86 55771790 52376080 49241720 46831920 44287860 41814600
2891.75 38496110 34772460 31569310 28713220 28608430 28165030
2894.65 25416240 23501020 21598820 19516900 17894430 16074320
2897.54 14395620 12042760 8790624 4491584 1260942 6208732
2900.43 11935460 11758510 10016570 8860884 8221424 7466630
2903.32 6442118 5867526 5987304 5427852 5418562 4912704
2906.22 3986486 3605230 3790788 4411188 4160176 3406590
2909.11 3069150 3457568 3618934 4147190 4612432 3907846
2912.00 3337770 3703730 3863424 2508944 1874824 2807660
2914.90 3266946 3794886 4086086 3623188 3682162 3266994
2917.79 4078028 5443100 5280858 5556734 6865572 7184970
2920.68 6576480 6819150 6433558 6351330 6578766 4720994
2923.57 1466004 2463804 7824192 12414910 14196820 14597170
2926.47 16481160 17431870 18092870 20050370 21213270 23109620
2929.36 25960250 28273480 30895790 34185040 36868260 39922600
2932.25 43763420 47936870 52967230 58426580 63989020 70384030
2935.14 76943700 82991310 90938980 99968650 109465000 119165800
2938.04 129028600 140842000 154364000 167502700 179653800 193354400
2940.93 208617400 226040400 244186600 262462400 282531900 303884600
2943.82 325295300 348883600 373256900 397238600 423992400 451628600
2946.72 477296100 500869300 527274400 564690300 608934600 651325100
2949.61 681735100 707479700 741375900 769223900 794618600 823133300
2952.50 851062000 881652900 911545200 943062800 969094600 991075900
2955.39 1014424000 1029319000 1041090000 1054192000 1067999000 1079905000
2958.29 1093859000 1103686000 1095252000 1086051000 1069676000 1059683000
2961.18 1048235000 1019343000 1009139000 1021620000 1008868000 991751600
2964.07 935958500 832056200 773201000 757377500 777670900 807098600
2966.96 746429100 652117900 640141700 619214600 849503600 782226900
2969.86 759166700 891268000 654764900 628965000 512397600 541101800
2972.75 802322000 728158100 578700500 631415600 724635800 775137400
2975.64 768892000 784469200 837160700 930828000 1022229000 1033523000
2978.54 1050903000 1078970000 1099923000 1130286000 1155483000 1181200000
2981.43 1210190000 1219991000 1222471000 1223444000 1209099000 1201568000
2984.32 1196104000 1185145000 1173921000 1160300000 1150971000 1161748000
2987.21 1126734000 1070245000 1040485000 1010710000 981026600 948963700
2990.11 914527300 879875400 848468400 814317400 776620500 739972000
2993.00 706824300 676046800 641116700 604874000 582135200 567274100
2995.89 588965600 574710100 497179800 454110800 427939000 406858300
2998.78 383116800 358192300 337442000 318240300 300521900 283831200
3001.68 261566800 240666200 225329200 215355700 202250700 200327400
3004.57 192879200 297010900 391750800 250609100 153561800 144057000
3007.46 140797200 136455500 118081700 111080200 106259700 104349800
3010.36 100328700 93979780 90248700 84674900 83040100 80930000
3013.25 83695100 83078080 145679400 237271900 161677800 80891340
3016.14 73622990 73890480 75316100 63721360 64377930 68285140
3019.03 71107500 72261540 68617370 67724220 67746390 71267100
3021.93 69382850 72612290 72218520 148505000 282626400 194552200
3024.82 78607280 69917620 71911140 76694210 66674060 63067350
3027.71 63265580 64921660 66800960 63612190 66036670 64626470
3030.60 72693710 69494550 82008540 80161500 288318300 612741000
3033.50 369873900 95126300 80161790 83202220 94457180 67055480
3036.39 61540230 61859570 65442740 63786520 61688280 62807440
3039.28 62591260 67143200 65813760 79238470 86914040 248909000
3042.18 412473000 221362600 85036870 83395730 87367890 91355080
3045.07 77970260 77129320 73643140 73327260 72744740 73020860
3047.96 75121670 76056700 85988580 90376140 95919060 116877200
3050.85 352892100 433445500 177149100 85492690 86790260 93821440
3053.75 88917190 71660060 71856670 68732270 69741960 66949480
3056.64 70228710 70212860 76509950 75079630 98272820 100349000
3059.53 291055500 831540200 637451800 152073700 104140100 104708200
3062.42 125059300 86780260 72015540 75554810 77194000 75641980
3065.32 75162010 78598950 77382170 80977200 83579450 99545430
3068.21 107569200 330254200 476896800 219982200 94921500 98917540
3071.10 103551700 102999800 83926420 83231440 79854360 80808130
3074.00 78147340 84985160 83283220 81879700 82303350 98283810
3076.89 93304130 204808400 447725200 312920300 99099100 87270500
3079.78 90264050 99279190 78775350 72854290 69179560 69247340
3082.67 66588660 68357070 68330870 69072970 69419720 83116410
3085.57 92797770 194641900 651914900 605938400 161264100 86928740
3088.46 89775880 115805300 98936590 81135630 78889780 77975570
3091.35 77713110 77832760 79481730 77755270 77747420 82507150
3094.24 89757410 114452100 302801800 323939600 125365000 77469420
3097.14 78581950 83477800 78557620 75610920 75835650 73583330
3100.03 71789460 71551940 74390260 72642790 69683860 74697860
3102.92 79389660 103584100 245513600 247318000 100750700 64039350
3105.82 61873780 65599450 54794830 47315410 51895090 58003860
3108.71 57872020 57107080 56314370 57558310 55237410 64185270
3111.60 65381550 129036500 369906000 301519400 76539790 56573440
3114.49 55495810 62645700 46682500 40142860 40839760 53106190
3117.39 59290640 59703370 58405990 58041420 56485780 62297540
3120.28 58414410 107326200 179858800 111834000 51550380 52452420
3123.17 51290090 50652000 43389450 42667860 39776990 39902650
3126.06 43533210 47192350 46128320 44936150 44587770 46767490
3128.96 50252380 106673800 113687500 51325830 37114060 36937680
3131.85 36993950 32776990 29063720 28262080 27663740 25559940
3134.74 26234270 29923040 32491830 30479910 35311970 33804980
3137.64 85982460 141327000 71545800 26658450 28586610 28006980
3140.53 26738240 20783370 20129980 18993370 18117060 17163390
3143.42 17213430 20760280 26591010 29262040 27932690 38282470
3146.31 61082390 45147060 25438840 24826260 24003700 23912330
3149.21 20666460 18743500 18377970 17499000 16471040 17256650
3152.10 17421140 16815270 18764040 19421320 24702960 37207530
3154.99 28453410 16732350 16182650 15660090 15766660 14058250
3157.88 12920090 12228120 11870680 11870470 11171130 10599650
3160.78 9367986 10592860 11094960 20878750 34343760 21473970
3163.67 10519020 10391610 9848582 9270250 7966546 8056506
3166.56 7607738 7050304 6514152 6740484 6466664 5819154
3169.46 5864148 5570852 9811420 13474660 9899230 8455184
3172.35 8345872 8657592 8430522 7634858 7942910 7200314
3175.24 6170864 5991622 6036870 5548518 5267244 5467630
3178.13 6181334 8367658 6985932 5256640 5717696 6096320
3181.03 5791362 4878582 5433560 5432668 4708656 3939672
3183.92 3632416 4332150 5157380 5138898 4873362 6301802
3186.81 6378480 4440400 3908420 4155282 4036854 3979402
3189.70 3848074 3524908 3734238 3445162 2885508 2686166
3192.60 2714018 2791844 3040506 3383036 2859678 2577582
3195.49 3072694 3398964 3408992 3013614 2789208 2735196
3198.38 2661322 2619262 2096966 2216390 2290744 2214046
3201.27 2298466 2181938 2179490 2004138 2013156 2182082
3204.17 2420646 2835122 2353760 2266508 2271082 2717944
3207.06 3386372 3437292 3380520 2731080 2497976 3001462
3209.95 2990564 2694108 2616578 2435572 2616508 2511556
3212.85 2283668 2266276 2782316 3990986 4040548 3083024
3215.74 2939176 2857100 2255088 2053208 2337598 2821226
3218.63 2894216 2442694 2877334 3112818 2972586 3048310
3221.52 2096346 1972894 2375964 1593402 1075866 1501494
3224.42 1626730 1325984 1025650 899242 1112620 1033486
3227.31 641370 208042 277904 399000 565388 541652
3230.20 150684 861056 1407946 707562 71586 278434
3233.09 689560 484422 510768 565090 255570 317916
3235.99 578640 309468 355380 367270 25242 94974
3238.88 438628 939238 1371248 1339054 1309914 1259770
3241.77 600632 109052 40088-208366-513276 88870
3244.67-46610-448568 717532 1047756 734352 762498
3247.56 826884 676954 428056 212278-3502 525082
3250.45 722390 605192 1242908 1064998 377398 858384
3253.34 948584 895098 991730 313638-3140-47854
3256.24-38634 301956 412700 276756 212414-198006
3259.13-229000 291284 1064576 1217254 378810 302474
3262.02 55510 55630 195352 584010 949304 192016
3264.91-199336 233366 616694 1090618 1195638 247594
3267.81-15554 540524 343364 38118 7044-136426
3270.70 60510 714808 1146400 1067334 619106 627418
3273.59 597778 432052 493778 810612 1015788 438740
3276.49-85824 362046 1243590 971276 386236 309064
3279.38 307384 60584-77524 217046 619586 392200
3282.27 577778 958410 976558 932244 304768 348862
3285.16 619260 85672-279764 481110 1032606 960262
3288.06 611446-178318-191094 149668 528394 1010654
3290.95 1136132 869050 358896 93562-19070 308264
3293.84 666588 614254 403332 684162 840256 639280
3296.73 875712 455384 546050 734674 191574 654080
3299.63 1203206 783682 604918 387618-177456 25718
3302.52 650038 994532 442876 32076 500734 598562
3305.41-80834 93694 545154 237180-431398-750290
3308.31 181368 202050-65596 468160 489796 530270
3311.20 967032 884292 1240320 1482728 917814 474074
3314.09 689744 989212 879562 741424 409656 200822
3316.98 767666 1163220 389058 77120-108190-210684
3319.88 665800 838854 33306 259816 712692 631594
3322.77 591910 410914 498606 992328 782508 635620
3325.66 1174892 946250 488668 751690 707844 208652
3328.55 596968 12348-60868 962618 381874 266042
3331.45 827806 1488162 1002810 653058 1064346 659414
3334.34 927142 824276 480206 747876 558894 691926
3337.23 1236428 1248410 735040 934454 1707788 1351446
3340.13 283746 640028 706300-248828 361832 1179026
3343.02 790920 939818 1319164 526910-317326-206516
3345.91 283296 900366 186268-272260 657706 846264
3348.80 690540 417128 592614 686920 910194 852212
3351.70 595310 405562 62850-106368-232710 433678
3354.59 1158840 1432560 664320-513092-411770 155768
3357.48 682360 358388-135352 155270 19532 273702
3360.37 412956 267082 679738 660654 637874 497650
3363.27-164528-80700 438344 811898 1175330 609550
3366.16-210438-241572-390528-183528-354624-327782
3369.05 700670 1040436 671166 378932 334420 659510
3371.95 731134 560588 437402 205098 1349622 1170242
3374.84-8852 259384 757512 522776 218820 958474
3377.73 1003996 1007736 1079188-195168-498766 371648
3380.62 73372-250348 988664 1581078 1562350 1575524
3383.52 962536 290600-312538-280682-265974-82862
3386.41 722520 1054918 805246 723922 774924 819900
3389.30 1060124 919586 1005824 1604204 737872-125836
3392.19 21588 202324 767718 1291830 1317256 509560
3395.09-232280-254356 804752 1653384 1072822 759532
3397.98 672704 429388-211330-699688 5626 490844
3400.87-52294 342430 967474 1069224 1067140 196990
3403.77 193644 639222 779364 1455310 1341524 1091450
3406.66 959988 1112922 923370-83570 579618 1180516
3409.55 157498-292190 145080 533106 1001992 794346
3412.44 552896 829570 318834-314122-8088 363380
3415.34 382810 306130 393324 616132 891066 1164972
3418.23 588818 26574 153214 375062 568398 235816
3421.12 555188 1025314 433618 400182 158874 314972
3424.01 1495026 1089364 180246 644950 760406 722172
3426.91 525728-494782-253722 802402 669686 689452
3429.80 1122670 792522 448258 762050 1131320 911480
3432.69 1103388 1221454 502826 700870 603658 535634
3435.59 329868 201396 588906 469244 1114400 758572
3438.48 418428 1727480 1631666 757402 1085934 1274130
3441.37 1152442 1096256 1436346 1488730 1229512 1718936
3444.26 1859798 917784 357544 1047366 1103590 499198
3447.16 1034402 1438922 1531540 2195358 1840174 970238
3450.05 1570174 2172806 1793422 872684 537330 1562134
3452.94 2448392 1652728 1101108 1763394 2029486 1350888
3455.83 1045076 1434438 1220664 1619114 2050196 2073696
3458.73 2353846 2293574 1998860 1782766 1368392 700252
3461.62 400638 1412266 2270888 1788548 1683942 1653324
3464.51 1021364 1424278 1774548 1116102 678254 824566
3467.40 1293868 1139902 615414 220286 938574 1797424
3470.30 2235616 1891346 1249378 1383714 1182536 1225932
3473.19 1561416 2219008 2806282 2397854 1376448 761360
3476.08 932530 2020388 2646304 2408862 1890924 1583388
3478.98 1909614 1559844 836340 587450 734848 1118422
3481.87 1489408 1472632 343056 203596 803044 548186
3484.76 1244106 1523152 1233212 1747008 2120542 1500860
3487.65 973650 1017936 676220 801300 1038626 1103564
3490.55 1135318 745404 1177402 1369572 1172614 1303538
3493.44 1205990 621828 918790 954314 694114 1003714
3496.33 353616 445972 1207218 680470 510758 1042650
3499.22 1301820 1013862 704326 911856 149066 428052
3502.12 1222722 1053788 1500130 1985796 1497136 600510
3505.01-21508 131996 383704 460986 523516 653688
3507.90 1267796 1549400 852094 349894 804232 757764
3510.80 551988 880594 715172 1077886 1548084 1010996
3513.69 992144 961124 762640 555134 61724-134866
3516.58 324284 1334842 1534674 1463222 756014 657790
3519.47 1326108 804286 748598 951992 1198104 1380614
3522.37 1574518 1574666 1410282 1478250 580054 83112
3525.26 923504 1043464 497564 517466 612860 766376
3528.15 856672 720448 1438594 1924442 1449836 1992640
3531.04 2051638 1086614 1478194 1847226 1775104 1210064
3533.94 777560 717062 722240 1074944 1269048 1469194
3536.83 1521726 1544322 1470110 1246198 932128 1359688
3539.72 1797906 2017406 1935232 1504712 1573800 2067496
3542.62 2062932 1756316 2293702 2745536 2973788 3140188
3545.51 3002082 3221588 2858430 2269476 2436952 2714638
3548.40 3444382 3302738 2836950 3254694 4015380 3954816
3551.29 3589134 3972696 4664568 5103012 4487072 4750518
3554.19 4823212 4022686 4800518 5904240 5882588 5717052
3557.08 5640810 5698810 5527944 5750054 6701428 7107078
3559.97 7547508 8110582 8052922 8351182 8451084 8576056
3562.86 9024948 8614922 8578868 8144452 7781898 8385328
3565.76 8590476 8968448 9539248 10007200 10260690 10300100
3568.65 9925562 9853960 10117960 9231944 9427786 9663966
3571.54 8829586 8940476 8697872 8546002 8832972 9034802
3574.44 9551440 9225092 8655074 7820638 7363072 7916884
3577.33 8083664 8063388 8237164 8170042 8710210 9217722
3580.22 9000128 8571368 8807842 9832734 9836860 10491640
3583.11 10104690 9045464 9368032 10072210 9099458 7688980
3586.01 8889868 9440676 9009100 9557736 9932930 10092960
3588.90 10274020 10482210 10834470 11093190 11119120 11239870
3591.79 10882210 10616040 11073320 11848070 12518430 12069780
3594.68 12011570 12233240 11184770 10563010 11585810 11810860
3597.58 11185130 11411510 10804400 10179360 10297480 10015060
3600.47 9682708 9563998 8853008 7965578 7768372 7932704
3603.36 8100886 7759192 7208208 6939842 6723564 6383686
3606.26 6758938 6193730 5197884 5717426 5664424 5194302
3609.15 4358290 3385512 3163674 2504454 2873306 3146330
3612.04 2611198 2701110 2227452 1727968 2114904 2845064
3614.93 3054834 2382710 2373058 3076952 2896766 2523446
3617.83 2323712 2146354 2107860 1699472 1650968 1936208
3620.72 1786762 1208148 1722998 2436304 2097176 1680626
3623.61 1934352 2527148 2449166 2111336 1985186 1758490
3626.50 1856380 1876450 1783056 2257176 2378046 3117248
3629.40 2773288 1948270 2454686 2580310 2309390 1629772
3632.29 1476344 1726324 1718608 1931678 2335514 2576968
3635.18 2927432 3002166 2667910 2496776 1795754 1248472
3638.08 1238090 1436598 1940392 1900158 2047504 1990372
3640.97 1805072 2064898 2625444 3363806 3523106 3981814
3643.86 4218616 4033236 4259376 4132600 3749010 3306502
3646.75 2828060 2734680 2577978 2833606 3325860 2730228
3649.65 2255508 2230802 2751714 3166518 2502200 2642282
3652.54 3348888 3728214 4104708 3443224 3027682 3588160
3655.43 3346084 3150434 2992088 3194402 3293142 3213108
3658.32 3239376 3097026 2870162 3085608 3599764 3684762
3661.22 3757454 3876102 4161778 4550756 4443338 4380992
3664.11 4443312 4098118 3915180 3446116 3310162 3417558
3667.00 3193372 3058482 3725510 4135398 3628458 4011064
3669.90 5446524 6530106 6559532 6802898 7316504 6819914
3672.79 6283270 5247932 3760668 3896714 3891560 4035812
3675.68 4377290 3688078 3131130 2866114 3263216 3311282
3678.57 3506082 4370838 4354926 4413466 5185176 5349394
3681.47 5113666 4725612 3681894 2513624 2417404 3178410
3684.36 3144194 2833364 2728828 2728474 2920892 2788090
3687.25 3609544 5338234 5317458 4257642 4209356 4649624
3690.14 4782792 4661616 4522794 4556024 4767386 4072578
3693.04 2918844 2878534 3170428 3486872 3891760 3785546
3695.93 3588574 3766436 4028006 4365040 5314828 5899184
3698.82 5339084 5067428 4090148 2596062 2626846 3431896
3701.72 3580886 3150236 3158606 3030118 2832796 2760750
3704.61 2765652 2721704 2820880 3287680 3741332 3425738
3707.50 2471580 2278440 2374252 2855004 2851376 2559446
3710.39 2418072 2598782 3762132 4120760 3418528 2391636
3713.29 2258312 2889146 3079958 2843070 2479880 2328952
3716.18 2740490 3245282 3031708 2248724 2031932 2192454
3719.07 1929600 1698952 1778422 2045110 2484816 3089158
3721.96 2705400 2664522 3292560 3320414 3195790 3294312
3724.86 2975540 2001050 1667288 1732990 1610854 922470
3727.75 690848 1417206 2024016 1975540 1732286 1923338
3730.64 1926248 2517804 3411934 2646006 1991002 2146040
3733.54 2206108 2042732 1713326 2035746 1888618 2339274
3736.43 2918664 1925354 1453130 1787712 1681652 1737870
3739.32 2404812 2214894 1939190 1846040 1707468 1813686
3742.21 1274224 997468 1575954 2891166 3692070 2864428
3745.11 1795404 1553178 1322658 1366308 1859514 1704894
3748.00 1514994 2834966 3672270 2320782 1044132 754578
3750.89 1313692 2515658 3031556 1735550 894710 671790
3753.78 758156 1265888 1336578 1515420 1488204 1846718
3756.68 1581886 1163370 1061946 773394 1172124 1709330
3759.57 1228098 877298 1276798 1279488 1407382 1360846
3762.46 1630356 2435138 2119796 1291918 1145854 1457824
3765.35 1768700 1524178 1576486 1595942 1434558 1563648
3768.25 1078654 1051138 1671016 1302268 862400 1214812
3771.14 1484204 1407802 1726846 1313088 1022714 1203780
3774.03 646000 556878 1054776 1119320 881636 904574
3776.93 559624 922678 1535716 1790512 1943172 1645932
3779.82 972302 510548 1073988 2020964 2253978 1841782
3782.71 1073840 802550 1197254 1211220 1184212 1545480
3785.60 1604300 1372744 1039166 824948 2259446 2448748
3788.50 1864740 1899970 1554660 1342868 1178816 1677352
3791.39 2083888 1946458 1864530 1866740 1856746 2056096
3794.28 1911788 1629094 1760286 2434646 2229354 2165362
3797.17 2502936 1860024 1513830 2917094 3960296 3051638
3800.07 2391694 2938350 3345730 2443380 1667280 1723370
3802.96 1824576 1908862 1827398 1642926 1997820 1843898
3805.85 4657960 6213208 2806110 1844606 2183558 2018340
3808.75 1889532 2020548 2010392 1898964 1792752 1524522
3811.64 2015424 2390774 2587850 3297856 2638480 2045024
3814.53 2564378 3516912 4187070 2926006 2101072 1774162
3817.42 1673374 1773446 2005840 2709348 3110324 3979026
3820.32 4097754 2520196 2073972 2181262 2228034 2650198
3823.21 2249124 1896714 2441960 2342202 2360960 3037406
3826.10 3677750 5393856 4682930 2544616 2560972 2661350
3828.99 2392294 2432264 2375166 2263138 2041482 2274616
3831.89 2823588 3623228 3994714 2762310 2433862 2818142
3834.78 2898534 3155186 2652940 2286848 2662256 4417908
3837.67 4477706 2898048 2894112 2752732 2979080 2944854
3840.57 2979596 3196236 2976280 2550676 2728640 3261344
3843.46 2447978 2106742 2476402 2569648 2543680 2906898
3846.35 3495190 3372312 3612216 3701534 3063000 2747802
3849.24 3373364 3539698 3601956 3610944 4532140 5584544
3852.14 4036334 3375884 4264100 5526024 5263990 4367870
3855.03 4369918 4410614 4707246 4489372 3883104 3879934
3857.92 4127714 4169172 4261374 4038604 3513568 3913296
3860.81 4425430 4648676 5052172 5086322 5417332 5714554
3863.71 5029196 5205702 5325284 4715852 4480246 4055002
3866.60 4360250 4696810 4838634 4418414 4258330 4853778
3869.49 4775038 4557372 4234628 4328004 4673762 4393282
3872.39 3368326 3162058 4613904 5872460 5619812 4508872
3875.28 4222712 4285144 4429040 4590874 4547478 4899174
3878.17 5432988 6113536 7408408 7950908 7068160 6627036
3881.06 6777866 7029344 7670096 7949046 7878918 8298966
3883.96 8721678 9259482 10277240 10947040 11087690 11189250
3886.85 11463870 11765980 11164030 10843210 10859720 9831614
3889.74 9053162 8879692 9201400 8834618 6946804 5610572
3892.63 4521236 3437528 3537394 3556468 3064992 3273290
3895.53 3738106 3446592 3455270 3723004 3962070 4623794
3898.42 4545080 4029200 3553192 2560288 1763114 1631892
3901.31 2603636 2926588 2741160 3098176 3788834 4745892
3904.21 4665162 4426902 4314262 4573042 5066854 5004256
3907.10 3670708 2247574 2209800 2580990 2992526 3197090
3909.99 3124724 2966900 3095702 3947464 4329240 3905758
3912.88 4356900 4552976 4776286 6524434 6260118 4160528
3915.78 3231454 3290588 3567652 3093316 2616658 2505938
3918.67 2657588 2666276 3053658 4181956 5475234 7238830
3921.56 10129650 10369320 6164052 3423558 3130716 3165540
3924.45 3725962 4059264 3260156 3031800 3443184 3539100
3927.35 4206468 4835144 5485422 6272064 4852512 3057464
3930.24 2877384 2549334 2980324 3375590 2677790 2550588
3933.13 3125152 3586394 3878532 4274964 4899042 5766684
3936.03 5759710 4606204 4751868 5226504 3946868 2987966
3938.92 2793332 3030174 3704700 4678658 5147582 6023200
3941.81 6333588 4477414 2177726 2003804 2972630 2775030
3944.70 2843384 2749476 2621182 2891902 3149904 3197914
3947.60 3044964 3061296 2876164 3491408 4351244 5009454
3950.49 5151880 4176096 3862470 4407326 4030154 3295282
3953.38 3284398 3549060 3491546 3000370 3401038 4441340
3956.27 4542294 4483678 4654142 4352334 3639108 3337454
3959.17 3201212 3178258 4033552 4209924 4049972 4392040
3962.06 5035544 6758980 7717734 6735012 5220814 4549364
3964.95 5188802 5317674 5514512 5818398 5178770 5530002
3967.85 6737570 7508150 8915236 9325890 8072306 7257654
3970.74 7905812 8373122 8833758 9891774 10503570 10401370
3973.63 11420090 13017180 13207190
##END=
