##TITLE=Bromomethane
##JCAMP-DX=4.24
##DATA TYPE=INFRARED SPECTRUM
##CLASS=IUPAC A
##ORIGIN=NIST, Anayltical Chemistry Division, 301-975-3108
##OWNER=COPYRIGHT (C) 1998 by the U.S. Secretary of Commerce
##DATE=98/10/1
##$SPECTRA VERSION=1.00
##$UNCERTAINTY IN Y=2.8 % relative (B=2.0E-04,C=3.3E-09,D=2.7E-14)
##CAS NAME=Bromomethane
##CAS REGISTRY NO=74-83-9
##MOLFORM=C H3 Br
##MP=-93.6 C
##BP=3.56 C
##$NIST SOURCE=QUANT-IR
##SPECTROMETER/DATA SYSTEM=IFS66V (Bruker)
##INSTRUMENT PARAMETERS=KBr Beam splitter; MCT Detector; Multipass cell
##STATE=gas
##SAMPLE DESCRIPTION=Bromomethane Primary Gas Standard
##PRESSURE=101.3 kPa
##TEMPERATURE=23 C
##SAMPLING PROCEDURE=1 L/min Flow
##RESOLUTION=1.9290
##DATA PROCESSING=Boxcar Apodization
##XUNITS=cm-1
##YUNITS=(micromol/mol)-1m-1 (base 10)
##XFACTOR=1.0
##YFACTOR=5.6843E-14
##DELTAX=0.9645
##FIRSTX=574.687
##LASTX=3974.595
##FIRSTY=6.35E-06
##MAXX=3973.63
##MINX=574.69
##MAXY=.0001075
##MINY=-3.94E-06
##NPOINTS=3527
##XYDATA=(X++(Y..Y))
574.69 111752600 115276100 136035000 167041300 180174200 204720200
579.51 222099000 251315400 280904900 307459400 346011300 375128800
585.29 399173300 454011600 471707900 506709700 539677800 573881300
591.08 607525400 641833000 653414800 677951200 677434200 694474800
596.86 687929400 685982500 664082500 655864700 656798100 640107300
602.65 524570800 444735400 374276700 340369800 289008700 449284900
608.44 883813600 864277700 390027600 151844200 307774200 362308300
614.22 508296600 588811700 710862300 778141400 856697500 889907900
620.01 930831700 928767600 931745300 897114400 865262500 803455900
625.79 751851000 673903100 611246000 529572700 462216000 382169700
631.58 323935100 256581900 206412400 152969100 116307300 82565280
637.36 60380140 36092070 30423860 12839660 12402680 1596172
643.15 5661116 740878 3575156-1268296 3097070 860782
648.93 4366808-1455450 2590824-857576 2403836-523640
654.72 5165378-1214352 2381292-736888 2846212-450616
660.50 2931368 59320 3531206-2332262 2838868-1391338
666.29 6138766 3673840 1260752-1574116 1643824 682790
672.08 1002312-298792 2174346 1743872 2116916-595050
677.86 653098 773932 2925954-1746172 4379308-1579728
683.65 865708 315788 1803876 485240 2303696-1353708
689.43 2038650 317662 522598 214364 1171220-688544
695.22 2093972-131174 121012 193334 2287048 247062
701.00 2810644-1073678 1430198-41730 115962-1420150
706.79 2058430-1334380 2223492 394572 1817712-655018
712.57 2966368-1513828 1441498 367648 255346-372712
718.36 1782902 279740 2368792-1153424 1756000-556406
724.14 2495200-1246344 2461918-993466 1494378-1058364
729.93 1931728-215138 2037916-517856 1785084-1083070
735.71 1600956 750900 1430434-142842 2466520 539846
741.50 1553888-804392 2651816 499468 2514348-534254
747.29 2595296-1491198 1737724 278104 2007106 935678
753.07 1985744-658040 1851466 515706 1367268-729308
758.86 2124682-546270 1601234 37886 2231654-2081178
764.64 1552106 109066 1116666 463820 1860048-805680
770.43 2013326-276404 703008-364306 2224220-225312
776.21 1161920-1317928 1053482 485110 1877650 731884
782.00 2750376-669400 1583036-1143216 890476-727118
787.78 1255384 182794 1559064 433370 2084596 714882
793.57 1858676-926366 1148072-1415796 846142-1193016
799.35 2087480 697186 1717252 575428 869474 75870
805.14 1222752-1512002 2584512 1158622 264614-37828
810.93 2188974-473122 916650 412366 2720458-15030
816.71 54150-568678 2123816-7298 2366732 47454
822.50 1804744-1225182 2069610-648712 2013384 731966
828.28 3321292-290418 1940180-438158 2257192 51512
834.07 1741818 51710 2789698 189112 2172936 763204
839.85 3785162 175588 3372060 1000166 3324570 2306746
845.64 3595754 1867752 3770748 1215182 5226434 1646226
851.42 5350430 1565930 5055534 2989316 6360824 3980784
857.21 6883840 5787738 7829098 5040676 8407880 7456426
862.99 11737280 9710534 10479540 7714022 11108660 8238314
868.78 13631380 14610650 26131800 15815180 14880160 14447390
874.57 17170900 18141540 23251770 30934600 25284240 17887760
880.35 22968340 21296120 27385460 30544940 49282540 36856980
886.14 31494790 26175490 24831970 33788110 44637660 99709930
891.92 67031160 30958380 46720600 29219450 48533700 44862400
897.71 95828680 84322090 45644450 64573780 52390880 55270790
903.49 62925580 109154100 141596300 61155000 84253620 80265980
909.28 65315090 75470440 138149400 321679000 129106300 51175600
915.06 98852100 63453580 95378220 81834970 230240400 203303100
920.85 63330750 111969800 92746380 104083400 106654900 184843300
926.63 326698000 130279600 90221260 151794400 92117090 152947100
932.42 160326300 555198800 508820800 11058310 153456400 77992090
938.21 133196100 102291100 229178700 434038400 231051000 50310100
943.99 174948800 88496340 167282800 105348500 363824100 440361800
949.78 138287300 85179540 191379000 95810700 185182800 133832300
955.56 784044500 702979400 14921420 164476500 104414000 147445500
961.35 131650500 207527100 494477100 307533500 75807920 160138300
967.13 124558700 156579200 132850900 241627100 475641900 212716700
972.92 79491610 150065000 127203700 157857700 138638100 366392500
978.70 729229300 182283300 64838700 131372500 116950300 144236300
984.49 122431300 238494400 361814000 137504400 96119270 108490700
990.27 115479100 130404900 113854900 198090500 294708000 105591200
996.06 82346540 83410980 87916750 117653200 105501400 211164400
1001.85 380735500 98943020 59589390 65039980 53285340 88826550
1007.63 95770480 118200500 186889700 93077950 65956770 68854160
1013.42 59681360 61960750 74035440 81594300 131397900 79934500
1019.20 44144830 51303530 41986380 42974220 48957040 62200790
1024.99 124398700 91743420 20453930 40815010 20993950 32884580
1030.77 20885080 36011660 55247580 61731840 27145110 36402120
1036.56 22786700 30250690 21099620 27683330 25737770 45120090
1042.34 18221910 24409060 14786340 20770940 10388680 20207250
1048.13 13320520 32810720 17147510 13177650 9275850 11279010
1053.91 6241784 10432640 5794040 12414930 9366510 13306180
1059.70 7284570 11234210 5429798 9384078 4331504 9456460
1065.48 5146674 7505124 3774660 6852860 2548564 6255856
1071.27 2620504 4827448 2759246 6098930 336334 4438726
1077.06 692590 4356172 175058 3266170 108764 3379164
1082.84-524856 3775084 748438 3674946 479158 2629844
1088.63 360370 2607648-401734 2693126-897058 2371746
1094.41-186882 2602058-845668 2299902 228812 2025734
1100.20-569614 1935534-490374 2364432-1026700 1606210
1105.98 60472 2011432-362922 1975822-777662 1358862
1111.77-459702 1796014 167120 1208442-939130 1359348
1117.55-650298 1390824-190654 1938862-343758 1459982
1123.34-1392540 1865064-1239866 1915800-34064 1196060
1129.12-168216 1239786-518696 1037196-1198864 957074
1134.91-702578 1958496-913532 975356-412148 1479190
1140.70-750680 1640944-855558 1635834-574800 1194148
1146.48-683868 1306932-336508 1600106-61114 1132684
1152.27-63710 1566504-177942 1743056 699116 1557464
1158.05-749564 1877854-73686 1293584 402228 1967792
1163.84 330584 1650938 157638 1401456 795040 1575798
1169.62 467194 1459496 162838 2404258 376594 2725988
1175.41 590420 1839860 1868550 1984446 1275980 2449934
1181.19 1314346 2756016 1512110 2853558 1647208 3322312
1186.98 2444802 3705344 2670840 3183756 1912396 3435526
1192.76 2780772 4189270 3805808 4312000 3205066 4243532
1198.55 3366292 4631632 3751866 4342064 4263328 4242692
1204.34 3111218 4350970 3171048 4023440 3339676 3448892
1210.12 3561632 4026550 3340564 4831338 2031086 2275058
1215.91 2519092 3021646 3584940 3902518 5279136 5878976
1221.69 6170698 6456968 5874938 6778828 6742882 5213810
1227.48 6159986 4787108 4785730 3190374 3572484 2533062
1233.26 3056628 1112454 2154740 1363886 864296 1793422
1239.05 2108874 1923306 3106156 2042020 3102792 2678366
1244.83 3404524 3893128 5082600 3114680 5683002 4618242
1250.62 6424480 5538322 9315316 7752326 12405770 12102360
1256.40 17325950 17915390 25109210 25929030 32933570 35775620
1262.19 44940330 49647880 61306940 67705930 83199210 92951270
1267.98 112477000 125442700 149482300 167868200 198036100 218494600
1273.76 253709800 281245200 323412500 355635500 404867500 441495400
1279.55 497475000 539024100 600439000 644889000 710442000 754219700
1285.33 817709000 856659600 919121900 950089500 1004968000 1026886000
1291.12 1063634000 1053677000 1079118000 1047644000 1044711000 968600000
1296.90 939205400 819850700 770341900 622656200 602176100 343882000
1302.69 312749500 132512500 977341600 1514324000 417184000 349571800
1308.47 451664200 689366700 727033900 918824200 1002986000 1165655000
1314.26 1216108000 1319156000 1318646000 1358964000 1311372000 1290412000
1320.04 1204589000 1152488000 1040711000 965618900 842552600 782175700
1325.83 663569600 575682400 461338500 392852500 300929100 255296100
1331.61 180713200 136390300 95394710 79691340 61094780 52896070
1337.40 120366400 157082000 70311660 68248570 29300620 45202820
1343.19 20084860 42693360 15035120 30889520 10496960 41983340
1348.97 14856170 99244330 129944800 69650400 50033110 46958200
1354.76 40552560 47886870 42039370 54575730 44963570 37246300
1360.54 53978330 44236060 124106400 232942700 81416460 91924090
1366.33 48202460 79700470 48650270 86225540 49494200 99638380
1372.11 13372880 98734710 5674878 270239100 557873500 123107300
1377.90 103003000 36636600 67955260 39516480 72512680 46488300
1383.68 87073700 50312240 101526300 28898550 236339700 419774900
1389.47 89372440 112259600 55413110 99154040 64315460 106279500
1395.25 71719290 124964500 85334400 160144800 26972430 389685800
1401.04 503735600 81043180 146802500 62830660 130700200 67767730
1406.83 136888700 70561340 147309300 95523900 251947000-69412300
1412.61 1085817000 812621000 4435656 176354400 15086910 142964800
1418.40 44183580 142731600 60443020 154926200 116660400 165426000
1424.18 99122930 874177400 257639800 136089300 95257860 143621800
1429.97 91340160 157264900 98649890 169506700 97932820 247448000
1435.75 8924594 518790500 840923100 91097740 166218000 96229330
1441.54 133773400 117297500 118750800 114292500 135907600 252084900
1447.32 13409070 365435800 1892489000 7359256 204872900 51630820
1453.11 169221900 74062490 169858800 82635580 174269000 112360600
1458.89 231903100 5904376 537268500 770427600 56326840 204818400
1464.68 92292580 175769300 105626000 162678300 104605800 179862100
1470.47 145737200 131154700 190179900 865383600 127212400 163526600
1476.25 87129270 160975900 74103660 155418300 50422830 210961500
1482.04 83329960 163841700 13843810 1306932000 386246700 23641520
1487.82 176721900 106360900 143872300 123405900 120779800 160001400
1493.61 118457800 150946600 71189860 580518600 297341200 44540940
1499.39 155319100 101554700 138298700 102431800 118952400 127626200
1505.18 100807200 115306600 66923830 448413000 211085300 23807750
1510.96 109029800 55174830 113547000 55168950 110817900 87616120
1516.75 77571410 63234680 79870550 625488400 132948800 24099490
1522.53 77009740 38552970 119646000 66511950 122065900 62466760
1528.32 108089700 44956200 150239600 248753400 52888310 69350200
1534.11 60328780 53214460 73881890 67643970 80107500 50877230
1539.89 75501270 30418160 162331200 109062100 22698710 50755770
1545.68 26811030 37352530 34942280 56703790 29200160 46587350
1551.46 19171120 69558270 190215800 9213006 37061640 16069600
1557.25 29744340 16120940 36290420 39216330 39616470 36862330
1563.03 33162660 76134220 42729350 19735200 32399000 18838420
1568.82 29562640 16909970 27385940 20260020 28237200 14203530
1574.60 45655260 30417410 14534340 17525380 13888200 13902090
1580.39 12284220 10551390 12881360 17259740 10509440 34301650
1586.17 29938950 2348140 14264930 4681716 12576110 4776378
1591.96 11542190 4233176 15081790 8017538 19479300 11231840
1597.74 10798760 8426726 11145200 7939938 10008570 5708268
1603.53 8113264 5229898 9037064 10164370 9995864 6337868
1609.32 8720948 4472430 6881782 3594216 6354774 3622784
1615.10 7115064 6390934 9427134 2977618 6129410 2568972
1620.89 6433510 3004426 6293218 2248308 5842764 2258120
1626.67 5773662 3175236 5601318 2083542 5044916 2872166
1632.46 4795386 2107708 5601634 874902 3940824 1148638
1638.24 2970380 1390966 3537096 1077398 3363198 652114
1644.03 2670478 1688164 3006230 1104258 2619538 1070620
1649.81 2646708 588090 4982132 1524322 2538082 289820
1655.60 1978384 8852 2274246 113286 1327046-152144
1661.38 1986680 760322 1168002-119714 1385426 587364
1667.17 1347200 908188 1455842-358300 1783568 67070
1672.96 1115094 578808 2213934-475002 1713492-702378
1678.74 1449174-97030 1614980-329952 1603190 1374874
1684.53 2484082-383928 1367092-251386 1702436-282070
1690.31 863920-1013196 1214952-182358 1913590 1643780
1696.10 754716-342288 1099734 1115608 2351348-463238
1701.88 927680-394340 1672264-218578 1042334-683722
1707.67 1034784-207286 1204680-501858 1342186-354714
1713.45 1131872 428752 473792 1757154 1438078 122200
1719.24 1113260 39718 1073348-89536 1095532-682628
1725.02 1027126 125914 844986-326788 1319258-10392
1730.81 1071342 174566 2030070 963146 1353390-375088
1736.60 1195304-234720 1221006 639408 1042908-140992
1742.38 1040358 165934 1111326-18676 1113096 170356
1748.17 1166766-530880 1556582 77054 825324 436926
1753.95 1303060 78692 1201262-143288 766898 117526
1759.74 565488 488076 1335680 422140 1036510-119952
1765.52 612272-65050 1316088-49982 1108626 344982
1771.31 1489136 792848 970370 112930 846470-5622
1777.09 863118 149892 918794-419954 673966-159296
1782.88 270508 283740 1198992 137606 431642-36068
1788.66 526482 772314 670576 809876 881216-234078
1794.45 743848 173472 879348-457548 1072876 99430
1800.24 478692-169358 904334 76432 645688-129426
1806.02 665974-197274 802364 138062 554110-99270
1811.81 949158 207306 514734-64722 412962-41862
1817.59 815618 207570 809478 132612 641022-75244
1823.38 2412-476824-117698 324740 1204732 22244
1829.16 1016622-48030 1039080-14814 572062 67200
1834.95 929446 1072190 1152132-599750 207462-596786
1840.73 805966-210616 791372 572838 206660 198798
1846.52 666950 304572 774354 663872 778872-269062
1852.30-108014-638128 140226 852048 779920 339396
1858.09 759652 44362 396276 712430 1375994 867812
1863.88 1800486 46710 276116-607142-148258-63888
1869.66 1912218 1610752 1628030 1227630 1294898 1494344
1875.45 2630450 2931630 4535648 3886126 2554636 2277752
1881.23 2768584 2232476 3064262 3813314 5197800 4642678
1887.02 4989278 4904044 5896600 5942040 6709852 7530142
1892.80 7292364 6529470 6875682 5570460 6231626 5060340
1898.59 6463610 7338274 7142688 5804432 6768186 6244548
1904.37 5884622 5158414 6313364 4234298 3557616 3793736
1910.16 6513690 7706246 4763716 1686344 5763304 5681402
1915.94 6000710 7381834 7806308 8865090 10754170 11953140
1921.73 10461730 10223530 10181170 9455284 8208526 7242674
1927.51 6193112 6108622 5850598 4073870 3398914 1611484
1933.30 1698540 1220582 847656 433258 624416-147488
1939.09 182192-635104-295858-1069506-1215660 600544
1944.87 316132 58170 386646-61462 608780 364332
1950.66 159124-561164 311712-407836 100708-933278
1956.44-1357796-1884760-1332840 461010 949714 599112
1962.23 367800 483778 1821212 97960-121034-114284
1968.01 423476-62318 550786-328606-426522-652992
1973.80-468066 557828 425682 393174 349556 630172
1979.58 397502-72908 341710 161036 779126-253882
1985.37 280374-465382-219662-917864-64464 619226
1991.15 253608-60344 882622 574580 347748 96442
1996.94 141890 63414 804124 431010 144678-177056
2002.73-412788-1078158-492226 613986 966110 485098
2008.51 898528 183466 31958-193434 216436 119844
2014.30-54482 422536 235436-254634 143534-203906
2020.08-211340 106282 275202 190462 146206 193958
2025.87-175468-298716 372824 291666 168810-36654
2031.65 145576 587796-492390-32428-467948 54090
2037.44 533824 116448 69890 88448 387202 3446
2043.22 209154 481840 341658 195758 42950 61474
2049.01-86808 89542-172778-199330 329590 658978
2054.79 861842 842238 376188 459792 366346 411604
2060.58 130092 410992 529732 629226-225374-144810
2066.37-274186 642936 618690 371408 286588-67444
2072.15 535446 515334 291562 365350-172236 991376
2077.94 186806 517196 501868 950934 114064 221228
2083.72 44114 702316 661448-424720 599796-414762
2089.51 1322732 632840 506494 115808 775282 1220658
2095.29-152080 576008 105210 1613264-87944 26066
2101.08-351764 1556156 984142 26938-122988 1012372
2106.86 1415796-375584 352502 350834 2214338 113908
2112.65 322506 62546 2186610 123734 298410 25688
2118.43 1873220 536938 107850-386848 1312380 957726
2124.22 89244 336728 581290 964116-97590 380566
2130.01 241706 1273936-94154 641754 579106 766486
2135.79-152820 723484 364078 864370 642164 605122
2141.58 323546 360694 96286 38940 806634 873656
2147.36 765528 342750 402770 1257572 690544 334878
2153.15 1299168 1509710 326968 694688 1990032 1669506
2158.93 45402 1256390 2406088 1587116 597302 2003542
2164.72 2168998 1951844 728526 2481814 2916630 1594156
2170.50 1742162 2860510 3081422 1612370 1964882 3919916
2176.29 2263956 2066364 3504796 4639674 2800516 3293466
2182.07 4609296 3745420 2621792 4105438 5100930 4347660
2187.86 4573208 5472588 4364100 4200938 5724262 7151314
2193.64 6786446 5827048 5863854 5506106 4725732 6480488
2199.43 6961206 8145944 7087080 7419272 6901306 7333192
2205.22 7473750 9565694 10725180 9808808 7895306 9964220
2211.00 10042830 11537900 12725430 18689150 14132460 7319122
2216.79 8879780 9051478 10098060 10951940 14687120 15286500
2222.57 9678558 10241050 10117540 12045770 13551060 16900900
2228.36 20765370 13472110 9737028 13691810 13792710 19313730
2234.14 22036600 32512530 29314010 8548452 10476620 10856460
2239.93 12525240 14352320 17967030 25347970 16089100 9545378
2245.71 12293690 11947160 13944270 16584910 22078750 27857660
2251.50 13631970 10542860 13777530 14338560 19245130 23517270
2257.28 35936740 40751960 10427700 9939784 10793380 12366180
2263.07 14617420 16588570 22465610 23510730 9628966 11556900
2268.86 11492900 13215040 13754520 16032680 20599930 22957880
2274.64 8769932 9979334 10964380 13181200 15125900 18474500
2280.43 24398840 28236960 8106324 7626926 8972078 10846950
2286.21 11049560 13003850 13500010 16925420 9357208 8205178
2292.00 7775940 9934366 11729410 11433230 11243990 14609070
2297.78 10762860 7205908 7214898 6360078 8771426 9845158
2303.57 15814390 16345260 12016410 6770238 5132218 6882530
2309.35 4856006 8022258 7437208 10644390 10517430 13877590
2315.14 5121010 9650908 5562526 9438246 6693306 11392660
2320.92 7355884 11245650 6885698 16137630 9424568 9029710
2326.71 8482836 10685550 9131806 12089780 7832938 9816504
2332.50 6838668 20765260 22774770 5848368 9567652 8930758
2338.28 9879410 8656852 9386188 9222666 8637514 11258330
2344.07 21909160 8099216 8329678 7314954 7666302 7066700
2349.85 9030676 7947268 10817670 9640620 27264100 16193340
2355.64 10519220 14693850 13525490 11307510 13265860 11263010
2361.42 16438650 10290650 43123980 42309770 4934616 16720650
2367.21 9108482 13838720 9897154 12542690 11035820 11886170
2372.99 20138430 34068830 5791154 13960930 8499384 11199250
2378.78 8070480 11171720 8865406 11793280 14525880 38887290
2384.56 7818438 12422020 9120932 11835480 5954510 11931930
2390.35 5847294 15179430 17363280 54488260 25037600 6415928
2396.14 11276540 9074916 8167034 10504550 7217618 12563720
2401.92 7730454 37919270 15051970 7594326 11037690 9571984
2407.71 6794204 9805866 5680062 11901980 5688822 33313500
2413.49 14087660 5168354 10715140 7202130 5807644 7914926
2419.28 3857280 10738150 1025682 50914290 21040120 429574
2425.06 10797330 4901568 7364436 6258024 6338076 7643176
2430.85 4134138 24188880 13485060 2498248 7968402 5345374
2436.63 6063364 5933106 4730492 6935444 3089710 18581830
2442.42 10151250 1320832 6738000 3848688 4697948 4111628
2448.20 3635836 5459644 844880 21202190 14707990-501374
2453.99 5489858 885164 5897008 2106318 5287004 3200180
2459.77 4547282 6435192 8417726 2250146 4738504 1685782
2465.56 4217338 2637610 4386654 2556258 3692104 3982248
2471.35 5539758 3098362 4085430 2098820 3606066 3047670
2477.13 3339958 2202824 3968534 1840588 2873496 2245394
2482.92 2506162 1947310 3834434 5246700 3694390 2873350
2488.70 3459382 2504060 2777582 2323772 2803204 2081654
2494.49 2011846 2137292 2832362 2676874 2314812 2039320
2500.27 2363980 1667792 1409204 1784162 2516752 1964124
2506.06 1854870 1052178 1306850 1468008 2136290 1658392
2511.84 2057630 1947836 1932598 2316674 3009276 2571836
2517.63 2507716 3142846 3173066 2261808 1406876 1338132
2523.41 374742 1385324 212904 542472 204012 390436
2529.20-105868-202062-25008-72058 779670 56474
2534.99-299672-292030-228520-367944-178102-40028
2540.77 9832-222580-381894 4098-334246-131926
2546.56-205640-440408-484874-147766-151726-729326
2552.34 17832-62968-56158 260488 469290 867338
2558.13 163226 1314138 1723596 1451002 2056200 2601446
2563.91 2849376 3007960 3186498 4806210 5010236 5495216
2569.70 5662948 7108270 6993534 8358992 9378754 9863514
2575.48 10937180 11377840 11801650 12547800 12995140 13920460
2581.27 14065810 14508730 14513560 14644740 14406050 15273350
2587.05 13168530 13302860 11878930 10711060 8270014 7093468
2592.84 4505950 3230212 1844194 13002710 19163300 10995890
2598.63 8240308 8995228 10276130 12423270 16952790 20741390
2604.41 25482260 27764880 28289230 31020950 30216110 27814390
2610.20 24096910 21356240 22877710 23687420 20940720 17880220
2615.98 13301600 8285376 4202700 1399320-1171276-1914988
2621.77-3675622-3909332-4041802-4237042-4656030-4919106
2627.55-4409306-4800188-5819314-5912420-6313924-4938302
2633.34-5806608-5407100-5898972-5336840-6173268-5812018
2639.12-5346382-4593978-4554100-5157574-4931486-4977732
2644.91-4820630-4542956-4876204-4211622-4304826-4451692
2650.69-4246324-3482106-2958384-2575868-3637300-2866464
2656.48-2959886-2594252-1851038-1524352-1842386-990824
2662.27-1253684-952894-478934 1033840 355584-333104
2668.05 183664-370150 74954 812926 153038 615864
2673.84 44740-295062-963226 816098 1835734 1115076
2679.62-91534 815162 77398 325622 174668 998114
2685.41 312002 535024 290024 1435884 1497918 2992970
2691.19 256084 1185510 259278 961720 218402 1584524
2696.98 741202 1393602 463562 903406-154280 1836610
2702.76 1472918 809772 224802 1376268 930168 599180
2708.55 819062 1723436 1309220 1995176 2008894 2815974
2714.33 4455444 2487632 86508 1851838 174428 1414946
2720.12 361728 1812214 639252 1476964 822478 1741068
2725.91 17708 1695912 99986 1244416 83332 999912
2731.69-63672 903046 393650 1870644 506828 1666894
2737.48 1084150 3746416 1512082 792578 426270 950056
2743.26 1099134 1857402 381966 1181142 586852 2400104
2749.05 2083708 4095362 1729486-4250642-1329960 1262434
2754.83 716634 960274 727064 967098 339638 1654686
2760.62 449630 2009902 2902170 2619750 34630 1621638
2766.40 953028 1589278-100606 1776690 150882 1200084
2772.19 282696 2856012 2163644 2905274-2587704-2679324
2777.97-371224 1495420 239472 1210802 400244 846524
2783.76 499480 2553844 2174174 4436896 36494 1652186
2789.54 438556 1794764 232332 1694590 101330 1811026
2795.33-289078 2756528 1371028 3578600 1210888 916572
2801.12-4590602-3504728 1577256 1721358 1070658 2024196
2806.90 1550240 2401146 2065452 4232044 1552936 1812572
2812.69 1317828 4081462 2076288 4482238 2764280 4882664
2818.47 4099870 6915752 4773934 7813004 6082352 8749244
2824.26 6235078 8003344-757532 8010500 15289790 20849190
2830.04 22116830 28301650 32002430 39031670 45338940 54900210
2835.83 62568780 76048230 86859720 102083700 113539300 130239600
2841.61 141331900 156709200 167794100 178061100 189212500 191324000
2847.40 202316700 196735700 188991800 180441500 166385800 168413100
2853.18 144098700 124738500 105140600 107167000 91385050 134664400
2858.97 102450800 118785200 112298100 42340850 68894000 90431970
2864.76 112430400 130784600 145424600 158737600 167360300 174574200
2870.54 177863400 180113700 179264600 178095100 167423200 157831800
2876.33 160177100 155711200 145698400 139057900 126164300 118419700
2882.11 107273700 99739060 88987150 82689990 71766340 67262660
2887.90 56296420 53069540 44352970 42699170 32251970 28876070
2893.68 25988010 23606980 17555850 16026700 10737510 2216816
2899.47 2538666 14840490 4959284 9009904 2195108 7115848
2905.25 1355838 4620200 967236 4786616-627306 5927262
2911.04 187046 5089562-1115952 3294688 410618 4817022
2916.82-728308 6280304 1588794 8660274 1823292 8215910
2922.61-775312 1580130 8498910 15602100 12442520 19870490
2928.40 17680560 28456080 28031980 39816120 41292710 58052920
2934.18 63488360 82663920 92326870 118823700 132723500 168091900
2939.97 184456000 226407800 254709600 304625000 341720000 399791800
2945.75 446267700 503334700 556265700 663290800 706216300 782105700
2951.54 819007500 896158700 942637800 1012903000 1030915000 1074094000
2957.32 1081621000 1130430000 1083031000 1084814000 1014263000 1038261000
2963.11 1002318000 852246700 708567200 855710900 596635500 689302300
2968.89 809252500 854175000 532548000 579618200 771759400 538857200
2974.68 835799000 719358500 975433300 1037870000 1095752000 1126671000
2980.46 1208645000 1229935000 1244590000 1204856000 1207901000 1160357000
2986.25 1182328000 1081894000 1018535000 955664200 885297100 819483600
2992.04 739016700 679933300 595790600 576034600 581146000 441342200
2997.82 405308100 355707500 310120900 286927800 222396900 226634500
3003.61 147479500 331997500 302333400 82639380 164828200 76292390
3009.39 123288900 70667500 98038790 59127940 91509060 228004700
3015.18 97786380 47893820 83764470 40883850 95352460 34901620
3020.96 101907000 12478170 203196500 226062200 25160440 90340510
3026.75 47562770 68563300 58117170 61583480 66948170 57806060
3032.53 640357900 113742000 53686120 90721740 32466590 86530630
3038.32 28046400 99383400-1568354 314569000 297396300-1354124
3044.10 136698500 30620460 107286900 32290760 113338900 33855810
3049.89 180482300 447280000 49187610 93351750 75788880 52805980
3055.67 81203570 38433960 108021400 4881480 884663200 245538300
3061.46 24180450 146263400 12599330 123714800 19497500 137060600
3067.25-11371230 412875100 299234500 17906100 144238700 39308650
3073.03 110429500 44271440 121610300 14166840 286364800 384108900
3078.82-11620170 150668900 17698420 112024900 11204830 126140800
3084.60-32723390 328062100 688027900-52868000 173437900 30942890
3090.39 112753100 39310800 112450800 28107830 176187600 338700500
3096.17 36835900 92927990 65409010 78585680 62730840 80973380
3101.96 48653040 134752100 279723900 13891680 90924990 16716700
3107.74 83178670 24771080 91230670-5022322 208626000 348804600
3113.53-22948660 96588400 4207448 74415940 38861950 78979080
3119.31 24572980 140963600 134057500 23645790 63664460 27772580
3125.10 48757120 36133300 56357460 24191080 120154800 65612490
3130.89 24855450 38138960 22282680 27158540 26230650 31748040
3136.67 33399660 148259400 18906760 31333130 16681410 21599710
3142.46 10980400 24716430 22057880 46543650 52063570 15704790
3148.24 28012750 14479620 19857670 13393110 19690650 15544150
3154.03 40122290 15662590 16617260 12462770 13349650 9200372
3159.81 12922530 3781428 26854790 25659260 5228594 11058900
3165.60 5904418 7796684 5416166 6112100 4824814 14104240
3171.38 7400102 8978692 7482378 7360726 5259182 5807876
3177.17 4447860 8585862 4965778 6189518 4708922 5659244
3182.95 3195020 4348764 4787650 6280806 4887756 3363142
3188.74 4239954 3196852 3628086 2072940 2934366 2938102
3194.53 2621856 3209322 3173966 2338378 2649686 1671404
3200.31 2465608 1799538 2144646 1687052 3006852 1655006
3206.10 2885774 3454376 2820570 2488662 3069374 1959974
3211.88 2853216 1486574 4455688 2982230 2908530 1494462
3217.67 3120890 2173340 3469028 2453186 2289252 1347076
3223.45 1352454 1292518 780680 1044480-10184 373528
3229.24 244452 733584 993786-326970 992610-49072
3235.02 595320 55990 453992-436240 1218912 1234758
3240.81 1405484-190056-196944-535900 7176 788206
3246.59 919192 488592 183620 28512 1131086 736992
3252.38 689626 1013828 435386-459498 335366 275898
3258.17-329482 115908 1463360-189428 71266 479948
3263.95 519864-523134 1725404-35994 431778-10970
3269.74-316964 633744 1217408 378932 435552 798742
3275.52 456078 61052 1443416-192100 276478-191224
3281.31 769546 606810 1120272-8090 362636-231440
3287.09 1783728-828420 384774 675346 1374674-633384
3292.88 687846 212762 882514 503936 841512 135548
3298.66 821134 928594 197442-238982 1177080-122084
3304.45 633030-199736 543466-1171488 610492-245622
3310.23 1057168 577898 1877744 3668 1328652 355330
3316.02 435536 926034 30172-336456 1009706-266158
3321.80 1159920-72496 1171684 465606 1308166 155442
3327.59 899228-468412 892660-47420 1686710 464140
3333.38 1106908 502584 665546 600114 1356096 757940
3339.16 1738912-110820 537430 250122 1759288 49814
3344.95-161276 517078 4010 732188 613714 472426
3350.73 1178578 54224-79990-48332 2169980-1141122
3356.52 515530 148198 38886 33358 574210 545046
3362.30 618632-657834 1429754 375326-350276-553826
3368.09-173802 1114284 295316 565600 601624 340932
3373.87 1356312-311900 998970 124448 1911454-664590
3379.66 258316-400464 1998118 1393426 468210-951304
3385.44 264384 830458 919604 595594 1239140 1178600
3391.23 202442-380714 1978800 97800-199890 1493432
3397.02 1024024 105402-547858 100330 346790 1256700
3402.80 381680 121108 1737664 853636 1357596-116190
3408.59 1221886-716346 870722 675220 855732-484658
3414.37 401404 180390 649360 1162978-34118 316876
3420.16 368320 864978 153616 458420 1392848-37186
3425.94 1334990-897428 694654 736166 956510 393884
3431.73 1420736 771224 734020 342590 226086 646936
3437.51 752104 1233438 1408468 717962 1597570 970904
3443.30 2143046 715874 808342 724180 1186526 2327280
3449.08 943678 2390932 577394 1496268 2044516 1241994
3454.87 1945920 593380 1997936 1929868 2647074 1583742
3460.66 675296 892888 2745242 744840 1945428 807456
3466.44 961068 1072340 90766 1814926 2196920 837720
3472.23 1378488 2032110 3086760-180202 2482622 2288492
3478.01 1870602 1443900 426386 1053348 1602028-346944
3483.80 1198144 969864 2151890 1451424 873896 560858
3489.58 1350392 646628 1510476 1107502 945972 704554
3495.37 864182 303050 1086938 493706 1667584-25538
3501.15 838842 836114 2488526 185576 159490 186316
3506.94 917614 1376780 533982 585144 750784 979414
3512.72 1499324 560248 866934-857374 1762414 1064338
3518.51 969622 730450 980096 1256844 1885150 1039112
3524.30 331194 825204 512438 498188 1042090 1524948
3530.08 2211230 1120126 1986922 1167474 507736 896182
3535.87 1563040 1460798 1244690 924774 2464692 1109586
3541.65 2237244 1509970 3021156 2839128 3513814 1845736
3547.44 3098862 2987016 3364532 3851276 3923122 5016890
3553.22 4705300 4094806 5766138 5886596 5431696 5702846
3559.01 7285984 8009646 8422994 8653326 9087074 7832812
3564.79 8236710 8909430 10303620 10268960 10084590 9519052
3570.58 9471560 8748348 8570776 9107376 9685290 7434746
3576.36 7741188 8112850 8168866 9266196 8553396 9481944
3582.15 10778060 9094480 9997142 7866972 9289104 9357702
3587.94 10289230 10401720 11296440 11190600 10584050 11929030
3593.72 12668360 11856270 10902860 11821280 11394270 10317380
3599.51 10140770 9554176 7983460 7776278 8105414 6530350
3605.29 6908748 5911820 5539674 5438164 3230956 2547328
3611.08 2907180 2604750 1469430 2916914 2456838 2820552
3616.86 2719058 1991146 1772078 1695936 1352136 2188594
3622.65 1797688 2278266 2406780 1472456 1997708 1759156
3628.43 3392218 1869658 2879672 1404962 1630390 1736036
3634.22 2826630 2951906 2587170 909010 1479354 1937634
3640.00 1937290 1760832 3450586 3899052 4443128 4061928
3645.79 3481860 2229588 3165568 2680712 2112902 3065604
3651.57 2371182 4147224 3471540 3267026 3275254 2899062
3657.36 3516036 2763554 3169406 3648754 3931548 4465264
3663.15 4586304 4125566 3519634 3078770 3214068 3811774
3668.93 3916902 6698374 7037130 7433420 5033730 3316884
3674.72 4386962 3684814 2703292 3281450 4082720 4703984
3680.50 5498348 4977186 2122788 3067382 2783042 2703160
3686.29 2516760 5472284 4522466 4443886 4852306 4609372
3692.07 4275296 2196408 3865740 3598826 3713168 4377432
3697.86 6205968 5107680 2583882 3054452 3626772 2641678
3703.64 3009480 2315080 3608024 3407538 1968914 2846114
3709.43 2551536 2460436 4693170 2020546 2905302 2902086
3715.21 2156194 3418306 2296538 1979320 1656510 1890348
3721.00 3061864 2683216 3509420 3346146 2125860 1527420
3726.79 965660 926506 2521236 1148542 3146722 2663564
3732.57 2006962 2066236 1637178 2577656 2238914 1190244
3738.36 2125280 2191878 1831304 1660854 716490 2984160
3744.14 3522360 689790 1943176 1048998 3222364 2755292
3749.93-62288 2995652 2057372 110630 1363948 1293762
3755.71 1949960 1106160 788908 1570104 918114 1329480
3761.50 1260548 2471188 1381610 1240048 1835020 1391148
3767.28 1520498 970244 1577646 687118 1999948 1074414
3773.07 1205786 241714 1486352 331976 1079642 1752944
3778.85 2000192-107418 2484326 1624160 916758 950356
3784.64 1749582 1099618 1120572 2512048 1853246 1061212
3790.43 1688430 2024698 1826578 1933928 1744950 1958160
3796.21 2753930 1290940 3104388 3361982 2678164 2963284
3802.00 979412 2377048 1050264 2629612 6079182 1475482
3807.78 2112704 1846756 1943854 1461060 2306150 3301202
3813.57 1828032 3793634 3469580 1145562 1934582 2156642
3819.35 4614602 2631270 1879008 2571102 1920488 2365538
3825.14 2578190 5747568 2914884 2275940 2514150 2067906
3830.92 2041628 3896272 3130268 2225360 3560482 1558988
3836.71 4758120 3217364 2636864 2987056 3146176 2587158
3842.49 3027526 2056752 2474418 2817954 3717332 3486792
3848.28 2783120 3508664 3650638 5541502 3030218 5724232
3854.07 4499768 4394548 4624472 3511848 4527076 3696472
3859.85 3791656 4729638 5283230 5572972 5185846 4999964
3865.64 3796220 4921478 4292904 4761108 4534222 4287696
3871.42 4463446 2601608 6428408 4421128 4144824 4445998
3877.21 4644124 6248680 8263008 6312668 7183592 7893184
3882.99 8164754 9380414 11204040 11412730 11897290 11182200
3888.78 10082590 8786546 9368744 5069472 3598260 2966728
3894.56 3374968 3353032 3618716 4536030 4489610 2158710
3900.35 1506942 2875968 2826972 4873380 4438918 4561876
3906.13 5417526 1827536 2506664 3154852 2869954 3670890
3911.92 4503906 3893968 7064436 4339118 2915680 3339740
3917.70 2002798 2731806 3380084 8239634 11239890 2592136
3923.49 3266902 3798900 2940116 3468732 4922928 6492984
3929.28 3119582 2313924 3350024 2155470 3771416 3941740
3935.06 6273352 4688210 5261894 2595726 2957696 4283252
3940.85 6861078 4513214 1265292 3378886 2219088 3048818
3946.63 3016160 2975326 3046578 5653032 4043632 4353900
3952.42 3244446 3451004 2928064 4187224 4807190 4263334
3958.20 3098506 3056082 4361106 3694412 7206144 7147836
3963.99 3964516 5645464 5243970 5341120 7707374 9679880
3969.77 6764008 8475764 9369918 11057250 11714380
##END=
