##TITLE=Bromomethane
##JCAMP-DX=4.24
##DATA TYPE=INFRARED SPECTRUM
##CLASS=IUPAC A
##ORIGIN=NIST, Anayltical Chemistry Division, 301-975-3108
##OWNER=COPYRIGHT (C) 1998 by the U.S. Secretary of Commerce
##DATE=98/10/1
##$SPECTRA VERSION=1.00
##$UNCERTAINTY IN Y=2.8 % relative (B=2.0E-04,C=3.3E-09,D=2.7E-14)
##CAS NAME=Bromomethane
##CAS REGISTRY NO=74-83-9
##MOLFORM=C H3 Br
##MP=-93.6 C
##BP=3.56 C
##$NIST SOURCE=QUANT-IR
##SPECTROMETER/DATA SYSTEM=IFS66V (Bruker)
##INSTRUMENT PARAMETERS=KBr Beam splitter; MCT Detector; Multipass cell
##STATE=gas
##SAMPLE DESCRIPTION=Bromomethane Primary Gas Standard
##PRESSURE=101.3 kPa
##TEMPERATURE=23 C
##SAMPLING PROCEDURE=1 L/min Flow
##RESOLUTION=0.9640
##DATA PROCESSING=NB Strong Apodization
##XUNITS=cm-1
##YUNITS=(micromol/mol)-1m-1 (base 10)
##XFACTOR=1.0
##YFACTOR=5.6843E-14
##DELTAX=0.4820
##FIRSTX=575.169
##LASTX=3975.077
##FIRSTY=6.60E-06
##MAXX=3974.59
##MINX=575.17
##MAXY=.0001098
##MINY=-3.56E-07
##NPOINTS=7053
##XYDATA=(X++(Y..Y))
575.17 116254100 112116100 123886700 140111900 151834300 162921800
577.58 174817800 183416800 190270800 203460200 213848000 224691100
580.47 234939800 249740300 267938600 281439700 292992700 307833200
583.37 326357700 345703300 362791100 374015400 383680600 403546000
586.26 427790700 448916000 463963000 475807500 487047300 504263600
589.15 524492300 542060900 555827700 571227400 592062100 609482000
592.04 623917800 639715500 648584500 654501200 666538500 675584800
594.94 676337000 681669400 685642000 690914000 691421900 691215000
597.83 687676900 681453000 675107500 668181400 660183600 653275300
600.72 651187600 664300900 655841200 620368100 590735600 535441200
603.61 474623200 441751200 411050400 382499600 354945700 331776800
606.51 311180100 315431700 346657200 449990700 660455900 907334600
609.40 881166800 790994200 712827100 381950300 202513300 204517800
612.29 240820300 279867100 330310000 381588000 438093900 492864600
615.18 548118800 599589800 651714900 699885500 745594600 784388900
618.08 819628100 848617700 873449500 895023100 912564000 923820500
620.97 930229600 932470800 932844700 925637700 913964700 901333000
623.86 883361200 859054800 834606900 807623600 778396400 747164000
626.76 713139300 677193700 643291500 607701600 569569700 533220900
629.65 496899000 458030800 421717300 386649500 352207900 320788100
632.54 290721400 259564700 230586100 204725200 179370700 155180900
635.43 134675800 114797400 98473100 84458550 72727290 58252710
638.33 46502840 39237920 34148090 27520840 20743180 16055520
641.22 12975400 9381186 6919372 4376382 3535582 3218924
644.11 3204568 3006836 2320704 1329266 756742 1505584
647.00 499864 1061746 2176488 2516626 3035222 2227930
649.90 1274936 660268 614088 654098 696570 1084064
652.79 1131752 6836 1236930 1303146 2245766 3362766
655.68 2095580 402672 575754 922192 470398 996048
658.58 1410586 908608 1022174 1468798 1337836 1031790
661.47 1514550 1709170 2117430 1573588 338614-119160
664.36 267224 491424 988316 1190492 1312146 3995542
667.25 6670330 4367926 1768336 535388-69196-285008
670.15-335596 363410 1836828 1434916 560200 324032
673.04 217360 775554 820328 1308232 1923814 2507950
675.93 2395822 834364 590128 752784-152316-248320
678.82 591718 1636334 2288164 1807340 96902-408822
681.72 1923998 2272698 1814494 47968-1082400-201308
684.61 1145158 1078326 884404 847182 1488868 1134250
687.50 1339004 1612280 322582-291590 11362 1411220
690.40 1416772 576036 683038 126768-137526 724508
693.29 1541506 142448-418832 616734 981384 803962
696.18 1174996 517506 135654-293510-559246 971796
699.07 2109350 1041626 802574 1266622 2196552 1540712
701.97 307298 414154 357496 113380 744502 780024
704.86 411140-741668-1415054-41606 808088 540446
707.75 227148-24758 528366 1007166 1343748 1243326
710.64 1471018 845562-39420 712914 1649704 1234400
713.54 845684-137442-258912 333590 1069578 1274548
716.43 342064-647274-127672 334946 1147040 821688
719.32 603524 1248450 1973918 1013462 209778 256518
722.22 480980 478622 462038 538116 1405630 1025438
725.11 508924 120784 591626 1315856 564808 268594
728.00 393208 154338 226060 114268 591182 597832
730.89 812530 1146584 800184 830048 870002 486534
733.79 881476 388620 347946 377032-79632 515748
736.68 1356108 1691250 1266100 116188 682320 1217696
739.57 879068 1298130 1848998 1468612 845160 745026
742.46 298822 232992 897094 1610244 1718392 1269386
745.36 1752364 1432412 808454 675372 1145136 1217564
748.25 698790-148372-306674 750786 1272830 1217848
751.14 978524 1020032 1669130 1846010 1355024 999918
754.04 849232 279776 346760 1026510 1492942 989852
756.93 1059748 753038 4374 78900 1134054 912272
759.82 755886 472962 545754 741044 541414 1157354
762.71 1281658 1103994-56352-848206-290756 364776
765.61 908240 1298320 423158 73130 883518 1581858
768.50 920946 969266 555432 239176 454736 1060262
771.39 951330 762058-9628-182824 353232 364940
774.28 1015724 1255670 1058186 672474 467914 161686
777.18 101232-538214-158060 272420 679674 1355236
780.07 1304564 883870 1344210 1525848 1911834 1825848
782.96 852366 364106 629472 335024 411538-200398
785.86-183622-83274 179332 200994 103078 541678
788.75 662090 920706 1088648 722170 610508 1629412
791.64 1362528 912760 1479550 1664354 1357252 844140
794.53 390834 179654 13370 205582-84414-542414
797.43-283564 109796-539078-15156 517046 943914
800.32 1477104 1644088 1277184 689300 1068204 1689514
803.21 696178-215322 615192 921220 742380 272270
806.10-291458-405490 559470 1413768 2080508 2127370
809.00 517244-558714 197002 769428 956198 1601012
811.89 763680 38590 673580 113908 174008 1415518
814.78 2062388 1351422 1413620 903442 117194-704874
817.68-679404 390600 1307986 823380 844850 1208516
820.57 1253732 1366528 959814 1154958 1092350 783990
823.46 68548-233904 719228 1067782 306676 484834
826.35 1044030 858748 1040926 1720786 2826542 1671042
829.25 1199978 1309836 883570 614988 493496 1081610
832.14 981100 773870 1301160 1111080 1213826 385878
835.03 566808 1682422 1445110 1258708 1596610 1530456
837.92 1173508 844962 1388452 2192970 2309130 2291610
840.82 2047746 1704956 1494558 2038814 2453692 2229062
843.71 1929298 2168398 3013434 3378474 2814304 2649294
846.60 2664592 2840118 3075472 2643930 2148532 2589492
849.50 3398974 3831612 3336042 3068736 3486186 3989264
852.39 3502394 2904432 3172110 3917930 3980680 4134158
855.28 4915028 4946836 5094946 5389798 5455734 5465590
858.17 6401130 7082576 6852000 6479274 6373260 6484606
861.07 6659802 7040314 8013468 8723592 9654878 10337820
863.96 10758780 11049930 10133270 9065736 9064222 9247262
866.85 9212308 9841096 9620468 9737952 10815620 12252100
869.74 14012190 16420710 20150600 23866990 22641600 16484200
872.64 14410170 14527520 14948170 15059930 15591450 16586890
875.53 17725950 18800630 20491790 23054840 26783200 30857840
878.42 29736060 23978870 20305120 19980960 20733890 21086360
881.31 22258840 22890100 23996240 26254010 28813340 32381500
884.21 39270250 47204160 45865330 35904800 33255340 32598890
887.10 28680650 25789220 25020400 26384480 28844230 32274920
889.99 38911370 49770750 68067530 93266790 97211420 61733920
892.89 40261230 39610740 41898120 39902050 35957280 36279180
895.78 39137120 42087930 46627460 53531400 66255020 86996080
898.67 102268100 82718780 56528940 52663190 55836040 60034890
901.56 60011740 55175200 51541670 54168020 59277090 67931030
904.46 81299810 104454200 136166100 138510200 93081480 69906490
907.35 72131130 80116600 84527340 79799340 73345560 67045240
910.24 65773210 79453220 102530400 146763700 223667200 308927200
913.13 254596900 115451400 72359660 72130310 79517220 82471700
916.03 80287820 77063010 80618640 80120410 87335510 106406600
918.92 143561600 203697100 256383400 196254700 105991100 86829490
921.81 90249510 98568370 104162200 101115200 95945320 98460650
924.71 105602600 116943400 136890200 182853600 261764100 322520700
927.60 236146700 123409200 102659100 106088000 121219200 133561400
930.49 127359100 110969500 115758200 128743400 161732900 213768500
933.38 313180000 492880400 659375200 469620500 171555200 97858400
936.28 94240980 103290600 110602400 116426600 106214200 105847300
939.17 112408200 131781700 160665100 219533800 319096300 439527700
942.06 377863600 185151100 114175300 108502100 115597800 125007700
944.95 136272200 131929800 123741200 123732400 137902400 163088100
947.85 214149100 305830800 449495400 464814400 256397700 128713000
950.74 114520100 117573500 131021900 148871000 160088200 138941100
953.63 124754600 132882000 168725200 236798600 385525100 669242300
956.53 941721100 662803500 224422500 121779500 109421900 117730800
959.42 120176100 134411900 134872800 132068200 127435600 144610900
962.31 169318100 226341500 321355500 470912700 479255700 269684100
965.20 145154700 129223200 125049500 131319600 135650100 146214800
968.10 146565000 140364600 135761400 153626800 181564800 243355500
970.99 347457500 468725100 384231000 187288900 120469100 114550500
973.88 119496500 127321000 134724400 145501400 148518700 138897600
976.77 139551900 172190900 233975000 356790100 562205400 717542700
979.67 476060200 171362200 103035400 92137480 98535210 114201100
982.56 125473800 128569400 133674200 129545200 130646300 143459100
985.45 171491200 224449300 313622100 363013600 247760300 134222500
988.35 113762800 105016400 100965700 102191200 112758300 120441800
991.24 125053200 122629300 119642900 127995400 148628400 189104900
994.13 257980600 293101300 197332600 107231800 90643310 86164380
997.02 83246060 81542810 82946300 91763790 105926300 111249500
999.92 108870800 118714000 148413800 207272900 307144000 372110500
1002.81 244892400 99622900 71305830 66579740 63728650 59719000
1005.70 59502190 58197700 67966250 86963910 95193450 95864120
1008.59 104260900 120976900 152485700 181526300 148700200 89610820
1011.49 74585020 71107510 68555410 65264280 64646220 61279910
1014.38 60726020 61109570 68379770 73478160 77315820 85511800
1017.27 103277800 125641200 117995500 75004660 55133270 50818900
1020.17 49736320 46993880 46126960 44020880 43164710 42393970
1023.06 44923500 48141460 56540920 67414840 87129220 116279300
1025.95 128540300 82982820 42951540 35004460 33197450 31267620
1028.84 29853870 28418250 27479120 26651030 26658700 26536510
1031.74 27392500 32883090 45794480 55620340 63511350 57006840
1034.63 40659350 33770350 32720710 31108800 28998740 27519140
1037.52 26946700 25936910 25375780 24874290 24802350 24702670
1040.41 25061250 29383350 37638040 39823970 31205160 22877250
1043.31 21372070 20214220 19567750 18618660 18225210 16546280
1046.20 15392960 14678110 15315380 15739730 16967110 18452710
1049.09 21463180 27889370 28888740 18667800 13126100 12219100
1051.99 11854910 10617300 10232530 9545186 8660022 8076030
1054.88 8743456 8198918 7807576 8193002 9278928 9911306
1057.77 11030510 11465320 11599560 10852360 10346060 9464790
1060.66 9439914 8842188 8349120 7658450 7534390 6982108
1063.56 6910634 6639880 6855608 7037520 7634224 7259474
1066.45 6102706 5441410 5897306 5600074 5364760 4813220
1069.34 4742044 4576268 4364732 4098250 4818266 4337348
1072.23 3627670 3128208 3715600 4484518 4782188 3904004
1075.13 3258450 2458714 2146990 2459700 2945062 2356430
1078.02 2382764 2608930 2459036 1830860 1596452 1602646
1080.91 1834128 1640696 1835228 1571304 1579428 1129936
1083.81 1558646 1978094 2578788 2306140 2008070 2035702
1086.70 2509948 1807502 1209820 1562684 1518910 1423200
1089.59 1803198 1181568 956780 935424 1500966 1019566
1092.48 792694 789644 659104 780424 1276694 1223996
1095.38 1130866 1102848 1182748 305644 681970 1104572
1098.27 1238752 1417124 1293842 667362 672198 724030
1101.16 814602 524642 727790 797944 1053472 902718
1104.05 762534 317934 141454 363504 1057800 963968
1106.95 1240916 843242 639004 918124 902910 668452
1109.84 637436 362332 384594 129608 429522 701886
1112.73 728960 607920 1007106 1139750 987654-97556
1115.63 91818 208514 332008 168850 266664 519416
1118.52 457056 228924 543406 857726 1124562 673466
1121.41 722468 809706 713386 226032-43032-236596
1124.30 448746 461220 364652 66554 220334 586304
1127.20 1359600 840170 472726 300012 491548 807044
1130.09 582426 179410 460420 311982 430824-23370
1132.98-105522-224756-12678-148660 198010 231286
1135.87 668406 960228 547418 24152 27148 47130
1138.77 313320 385290 702798 521748 238998 248370
1141.66 567204 492272 543560 59486 322918 726266
1144.55 620990 270820 257010 334022 398496-35070
1147.45 398848 530070 428686 406550 779704 753264
1150.34 660704 834172 564452 258200 615816 563020
1153.23 981680 674178 588984 771360 717586 907928
1156.12 1361580 1296888 1216000 885762 267968-47832
1159.02 788568 970386 895960 720442 606700 550892
1161.91 860278 1030392 1348314 1177094 1088760 1088552
1164.80 1057612 829880 989724 820524 739268 806850
1167.69 1096236 1285368 1382382 966126 804754 1133434
1170.59 1209364 680668 670754 870738 1543306 1466324
1173.48 1362208 1261076 1479458 1853806 1923474 1270856
1176.37 877360 1453724 1981456 2191794 1972172 1653146
1179.26 1419432 1728390 2118776 1869424 1721386 1812350
1182.16 2377692 1946120 2120434 2110572 2277166 2210082
1185.05 2249010 2138008 2684752 2590044 2935318 2977150
1187.94 3164472 3006068 3365786 3052286 2989794 2705054
1190.84 2491256 2401572 2734822 2908178 3139540 3167928
1193.73 3607334 3661228 4007996 4191946 4193860 3812712
1196.62 3677274 3697578 3827686 3650468 3857162 3832684
1199.51 4033654 4024722 4389504 4150646 3911686 3979028
1202.41 4458032 4487600 4271836 3889602 3762528 3361856
1205.30 3710940 4083014 3781528 3440450 3577528 3708560
1208.19 3842244 3457232 3352834 3376396 3427728 3641476
1211.08 4040694 3723136 3558148 3632990 4281488 4253586
1213.98 3627168 2419454 1846092 2053552 2735218 2548624
1216.87 2556342 3014756 3480974 3556080 3609512 3917926
1219.76 4798088 5062660 5621004 5910296 6086954 6085920
1222.66 6284358 6480238 6313794 5750292 6186370 6904468
1225.55 7038034 6371346 5862944 5612514 5716932 5737536
1228.44 5559364 5080322 4874780 4241298 4123412 3673386
1231.33 3153462 3226940 3161616 2944496 2752038 2407834
1234.23 2406482 1655858 1212542 1688960 2344942 1454714
1237.12 858154 712502 1443298 2002516 1999876 1684274
1240.01 2016060 2456240 2453372 2440802 2914896 2434806
1242.90 2371818 2737662 2992188 3031308 3110380 2914764
1245.80 3532180 4451286 4755546 4226248 3976492 4093278
1248.69 4345442 4707864 5342188 5443804 5431772 5593832
1251.58 5959978 6466084 7544962 8118928 8619364 8958358
1254.48 9877880 11276260 12414210 13260940 14584200 16084930
1257.37 17794480 19171370 21345520 23786080 25756780 27206350
1260.26 29231040 31683950 34427450 37099800 40397700 43485590
1263.15 47131410 51413380 55451530 59544490 64484580 69647370
1266.05 75333260 81296400 88104410 95032760 102564100 110447300
1268.94 118969600 127694100 137308000 147361000 158494100 170436700
1271.83 182887000 195517800 208154500 221390500 235890800 251051400
1274.72 267268900 284463700 302175300 320365300 339336900 359193400
1277.62 380143400 401379600 423006200 445518600 469348400 493455400
1280.51 518200500 543506800 569560100 595794900 622857200 649819600
1283.40 677360600 705307700 732668200 759543700 785815500 811772900
1286.30 837693800 862543600 887890900 912165600 935394000 956732000
1289.19 977368300 997346900 1016599000 1034058000 1046368000 1053790000
1292.08 1058959000 1063763000 1066408000 1067149000 1065116000 1058630000
1294.97 1046550000 1030299000 1008377000 982633200 954315800 920584400
1297.87 881639600 839663600 793140700 747041000 699166700 649849200
1300.76 611026400 563496400 482388300 389786700 312369900 257546300
1303.65 232149500 264365500 417922200 902502000 1484941000 1382681000
1306.54 884553000 546416900 359599000 315887900 384991200 492348100
1309.44 582042100 650326300 704270800 758926300 824467400 892359600
1312.33 959853300 1025198000 1087258000 1142863000 1191373000 1233931000
1315.22 1270227000 1299046000 1320623000 1333666000 1340164000 1341976000
1318.12 1337361000 1323698000 1301946000 1276548000 1248106000 1216208000
1321.01 1179717000 1139565000 1097145000 1051719000 1003804000 954073100
1323.90 903897200 854303800 811079700 771777600 724667100 672073900
1326.79 619133100 567465100 517899800 470682600 426476200 384788400
1329.69 346394900 310286100 276864300 247099400 219697800 188118600
1332.58 155465600 132905600 115224000 100420200 87385060 76770660
1335.47 68464000 63820220 59269380 55522300 72598340 126720200
1338.36 155739500 137279500 109831800 86552130 68913110 56277620
1341.26 47984620 41447110 36994860 34140580 32590820 31395720
1344.15 30951770 31177180 30392250 25808570 21202230 20851580
1347.04 21203080 22544370 24442440 28621010 31700250 32796950
1349.94 42533070 89197780 134445100 123565900 94882500 72658540
1352.83 59481010 51858870 47871760 44762860 43887540 43447680
1355.72 44132260 44670370 45029880 45624820 47702480 50895630
1358.61 52436560 45212660 39641260 40292710 43298270 49529500
1361.51 54585430 54828230 62047990 123837400 212650500 203816000
1364.40 147492400 107336700 85426640 74798060 69400820 65239500
1367.29 63603180 63509920 64290420 65448030 67256150 68082660
1370.18 68301770 69935230 73610260 74609250 60917240 43130230
1373.08 46353730 62530780 69573340 61542380 74440860 237655200
1375.97 519723700 501102800 305234200 175155500 109999700 81677650
1378.86 65856690 56877350 52718910 52321720 52899100 54285990
1381.76 56009540 58418950 59677710 61697520 65337270 70140560
1384.65 72028200 70299350 69084270 77053060 76404900 70961650
1387.54 83649940 211918900 412485100 373511900 222029100 136738000
1390.43 100879500 87966140 80300690 78186840 77855140 79925000
1393.33 80738930 83656490 85034180 87254650 89229310 93179940
1396.22 95232180 103549600 107540000 111435000 120549900 120785600
1399.11 103316100 99187820 131784000 351551200 573799000 437047100
1402.00 240817200 150619700 118995400 106291700 100093400 98448010
1404.90 98094240 98844140 98391830 100238400 100700700 104436700
1407.79 105484900 106954900 103829400 111462600 117474900 149685700
1410.68 179499700 158812500 107725500 107015600 316044900 1017724000
1413.58 1227137000 665682800 293486800 149851500 112687300 85594550
1416.47 87743630 80062180 87994020 83857950 92753420 90098830
1419.36 98916810 95939520 102252700 98847800 111260500 115305600
1422.25 134315700 151936000 149343800 123439700 123549400 156372900
1425.15 470697800 824246800 603624000 280945400 166256900 129521400
1428.04 120873900 114111400 118563200 116410700 121386100 118618500
1430.93 124123100 122712700 132379900 132410500 134443500 127208600
1433.82 134110700 146789600 181929400 161807300 143415700 135784600
1436.72 166708900 406152500 892895100 775814900 359107600 185235900
1439.61 142099300 125399200 123480100 119033500 122350100 117416500
1442.50 124074200 121503600 124674400 112466400 119153300 110227900
1445.40 121556100 140422800 226752400 189278600 135323600 109589100
1448.29 129978500 253174600 1283999000 1932866000 731777500 166805100
1451.18 124948400 130987200 108682800 121334400 110099000 122136000
1454.07 113362700 125906500 120126400 127570200 122497400 131758800
1456.97 124286700 130606900 137617200 174354500 170519900 149284000
1459.86 135931000 136835200 160071600 432322000 881814400 688896200
1462.75 293116800 177642900 143605200 144460500 137155700 141717000
1465.64 135666900 141075100 136563500 138296900 133560900 137341000
1468.54 131362300 132936400 134595200 162382900 171545100 148719800
1471.43 141367600 137362700 133874100 195759800 567437600 836362300
1474.32 459409700 192551900 130676300 133890800 122003300 127707800
1477.21 118556000 127341500 115388200 118383900 108209200 114355900
1480.11 103082800 110146000 108462800 159927000 172615500 133093900
1483.00 98022320 109282800 102835500 141421400 511403900 1284216000
1485.89 1005551000 315483400 122484600 100763800 124052800 131009800
1488.79 133414500 131585000 130195900 130458400 129362100 128447600
1491.68 125199300 127058100 129823800 152186000 150084800 133034800
1494.57 120937800 127964800 125349500 133544300 235745600 571206100
1497.46 551109400 228405800 125204400 107276700 110120100 115253100
1500.36 127656500 124443900 124309500 119391900 118162900 114960200
1503.25 113185100 111654200 119540900 130762600 117943500 105749700
1506.14 99240900 104115200 103198200 104271900 189659800 453462600
1509.03 409458800 151789300 86571700 74407470 77684480 70169140
1511.93 78008240 84432340 89852620 84023680 84497120 79944460
1514.82 80968980 87523510 109239700 97166670 80112890 70568900
1517.71 68698020 69367830 73400240 88252150 316115700 653212600
1520.61 399381000 104482300 63074310 54996890 56505180 51365820
1523.50 54097420 60572130 85770860 92076640 93922730 89412910
1526.39 94725050 97356040 94917770 85190260 85072950 79215330
1529.28 81807740 78692980 83178650 108939200 245820800 255042800
1532.18 112678800 71767800 66054960 65899020 61442590 60667100
1535.07 57287910 57714240 60971710 70102100 70852570 74296410
1537.96 74186680 70451220 65831000 63994270 60620710 59178500
1540.85 57006160 59529150 67967020 145127700 183361800 87169080
1543.75 47410390 42195030 42385180 37929900 37371950 34019770
1546.64 34482290 31455770 33244420 40003190 51644300 46051190
1549.53 42478980 38359540 38115150 34801580 36135580 32960370
1552.43 36505100 50462300 156162200 192217500 71195760 30468330
1555.32 26090580 27074910 24017490 25078750 22658490 23958380
1558.21 22153160 22891290 23842430 32976850 39286630 40994420
1561.10 38898970 38860250 37306550 37831170 35478960 36305580
1564.00 46005890 80145170 67228900 33958920 28545810 27252530
1566.89 26988660 25921890 25458740 24613330 24093480 23966130
1569.78 23830410 22313070 20861150 22754020 24975340 24633540
1572.67 23587180 22987900 22063210 22188760 23866350 40347320
1575.57 48196870 27185800 18677370 17332420 17037320 16043020
1578.46 15587610 14597260 13686370 13516560 13738680 12020190
1581.35 11059330 10972930 11342510 13541700 15227810 15178990
1584.25 14874850 14894860 16339940 31926490 43555810 22575020
1587.14 11547580 9660308 9267196 8955250 9276626 8867882
1590.03 8845420 8693560 8702548 8215088 8288062 8045608
1592.92 7868310 7917782 9167490 11576190 12368220 11531490
1595.82 12114620 16551110 17899440 12089410 10154290 9555640
1598.71 10149670 9722036 9573842 9555776 9944556 9267366
1601.60 8862746 8540370 8016864 7036532 6966024 6672654
1604.49 6609952 6636580 7312028 7601000 9238006 11810180
1607.39 10500360 7999104 8164810 8101134 7570530 6863892
1610.28 6857576 5970512 5612656 5339380 5371240 4982856
1613.17 4967154 4917984 5085352 4854978 5476946 5775564
1616.07 6815738 7230972 8601802 8022360 5538306 4801864
1618.96 4771732 4473858 4164746 4184960 4695458 4747742
1621.85 4669574 4561056 4756834 4726862 4138102 3875988
1624.74 4158014 4080364 4176076 3893828 3810472 4245108
1627.64 4780846 4367236 4490004 4090998 3896300 3636320
1630.53 3320060 3634766 4293460 3979694 3798292 3581998
1633.42 3402660 3461536 3852802 4094906 3578646 2052136
1636.31 2232334 2695238 2863080 2139298 1959710 1936516
1639.21 2202988 2459486 2512258 2352762 2358916 2181308
1642.10 2271792 2094100 2157508 1768336 1575370 1527984
1644.99 2317394 2743982 2311174 1804466 2321490 2076358
1647.89 1666342 1737552 1998368 1774856 2001254 1789010
1650.78 1401082 1548664 3143880 3534010 3523152 2547116
1653.67 1815428 1747070 1331734 1253636 1222124 893366
1656.56 1029100 1054392 1079844 1211580 1371270 1033608
1659.46 633478 348734 740736 804420 671970 1127894
1662.35 1725412 1280986 947774 550942 430506 608248
1665.24 727946 567026 1016106 1291616 974696 727082
1668.13 998338 1524966 1488026 606978 402020 435202
1671.03 864574 950698 886486 753626 709764 494066
1673.92 594640 1183740 1919992 1235092 573022 510710
1676.81 829470 709054 403836 244848 440774 530946
1679.71 653138 754008 792704 794182 628630 395720
1682.60 729230 919384 1261028 2092284 2402010 1285470
1685.49 1060536 569100 464346 517200 547144 555142
1688.38 809830 810372 737892 472324 407732-7274
1691.28-141596-122876 153444 246580 590012 756568
1694.17 715844 949736 2208288 2219866 940598 354760
1697.06 190208 117594 564950 448760 988990 1764194
1699.95 1908376 1572332 904792 261798 229682 284728
1702.85 201870 261976 766566 870698 797060 402570
1705.74 451148 383698 143122-29176 230852 341232
1708.63 410066 438872 535472 533004 343330 145350
1711.53 445240 664346 512684 303540 366938 419504
1714.42 967374 938688 350340 66710 1027980 2267800
1717.31 1702536 861190 771804 563150 751808 628420
1720.20 405144 543410 817742 394636 398056 478708
1723.10 668648 473910 57344-19454 260730 361408
1725.99 593270 611718 652186 252612 88984 344082
1728.88 590168 648584 642630 557906 604890 486632
1731.77 574064 653984 1342612 1355504 1343220 1680650
1734.67 1240612 646062 427244 373310 369476 499812
1737.56 553198 459908 305122 649922 1163952 983438
1740.45 832514 629140 430730 256812 557528 564124
1743.34 516182 637776 759974 588558 474450 426754
1746.24 750966 527918 504854 758134 826940 489826
1749.13 222280 233430 420846 858482 1082608 511166
1752.02 292028 521242 584364 809366 1026662 762398
1754.92 648660 581728 673650 729042 444506 380216
1757.81 403264 135454 521162 610520 302212 120192
1760.70 504648 936638 1005530 767556 908460 910990
1763.59 724374 536242 507200 315142 226636 211652
1766.49 241216 325494 750108 814912 554030 479842
1769.38 601924 478570 802732 921022 763454 981144
1772.27 1386710 1083906 799580 668928 575912 375148
1775.16 575894 476930 335096 400954 524900 373298
1778.06 499826 608190 532222 441766 312044 31746
1780.95-1826 314492 377810 112942 15604 16520
1783.84 232360 577276 846534 778016 689252 496112
1786.74 254316 96818 259126 216980 232384 297220
1789.63 655874 879720 915990 461100 487004 1090530
1792.52 1168456 425866 128994 210138 419924 272788
1795.41 368620 578120 663386 427754 113682-2868
1798.31 363272 633684 586934 424032 413780 74602
1801.20 36092 274412 462094 417316 497178 463530
1804.09 409616 243382 218200 240344 375960 199130
1806.98 231216 183080 371212 355744 483066 493642
1809.88 416028 150834 152208 348814 462154 486768
1812.77 598186 612674 398808 9870 330612 325178
1815.66 84996 77412 243202 261496 376332 498744
1818.56 522230 487022 586976 418782 496988 433242
1821.45 433672 289774 275794 214210 74458-402020
1824.34-279150-66956-319342-437440 44256 668700
1827.23 886942 733258 618928 416758 568816 533218
1830.13 535568 394420 430508 569996 686262 352594
1833.02 94464 307612 418452 342964 411282 669660
1835.91 1089130 1218060 1257952 768386 249860-186464
1838.80-271208-132240-142702-259988 83876 389098
1841.70 411492 167602 197446 271330 1081468 779462
1844.59 108376 95682 352800 339784 304404 545018
1847.48 573812 412438 535214 559054 818406 807494
1850.38 650764 650980 326864-223298-112026-292708
1853.27-373356-469596-276452 30398 472964 935024
1856.16 959792 554906 513886 512246 628594 560568
1859.05 340800 218144 338072 151504 476000 957234
1861.95 1109972 1139004 1057482 1074994 1496718 1418256
1864.84 942680 332726 154680-13316-128438-347382
1867.73-404474-437518 13734 94652 897720 1707578
1870.62 1852758 1681632 1704998 1425234 1377040 1462750
1873.52 1268378 1097330 1336730 1765476 2043250 2413240
1876.41 2760868 3200304 3721406 4180722 4458150 3996234
1879.30 3031300 2641694 2305172 2379166 2599638 2661464
1882.20 2365086 2467758 2646394 2937440 3363664 3973082
1885.09 4605076 4966276 4905690 4816668 4851878 4816788
1887.98 4904024 5071800 5465364 5683906 5921284 6089558
1890.87 6341514 6622236 7009528 7639640 7625538 7022570
1893.77 6828074 6702660 6887124 6608256 6052312 5913688
1896.66 6019324 5830734 5603338 5536174 5583622 6142270
1899.55 7175246 7323316 7366778 6884806 6421850 6144464
1902.44 6220946 6439180 6693866 6416048 5966148 5718630
1905.34 5557710 5414884 5609488 6047806 5584948 4224440
1908.23 3775408 3574890 3616144 4047904 4900698 6484190
1911.12 7447514 7205928 6682318 4716444 2760464 2224068
1914.02 3625444 5454924 5963356 5748488 5707410 5994472
1916.91 6739924 7354800 7659796 7789556 8180554 9012422
1919.80 9937828 10459530 11477140 12015170 11238030 10314530
1922.69 10381570 10295640 10222080 10044430 9918244 9437840
1925.59 8819538 8272200 7637564 7195226 6878956 6213242
1928.48 5903958 6166990 6293694 5612764 4785294 4293578
1931.37 3904658 3107886 2450564 1870244 1621988 1554334
1934.26 1455808 1303458 1128276 737714 490190 608128
1937.16 694780 341020 197404 66302 95142-103942
1940.05-198502-415512-486150-544186-550746-942698
1942.94-1274046-1187608-364546 618236 647432 105966
1945.84 142160 206074 261826 289312 53038 75938
1948.73 427912 343314 471708 539964 326386-59110
1951.62-229682-346588-113040 62526 68414-329252
1954.51-142208-34070-403376-836804-1099944-1505882
1957.41-1633552-1764236-1578884-1425364-561816 653710
1960.30 827186 622202 881924 709348 497638 259016
1963.19 311288 713434 1231268 1457428 1148390 229446
1966.08-137924-151924-127632-59602 290966 180954
1968.98 171940 156740 249336 258720 238990-100846
1971.87-570920-559594-332552-638750-679582-459268
1974.76 102672 533912 516640 397830 381866 406380
1977.66 485900 204540 498918 661744 625844 260184
1980.55 100040 78938 151184 227546 222052 244922
1983.44 590450 558962 269696-110854 56958 68340
1986.33-60274-294862-361800-424248-479934-763642
1989.23-591500-189558 407596 635580 420356 217098
1992.12 29360 90732 411720 701736 846852 594334
1995.01 496228 224084 237492 183780 160852-6962
1997.90 69654 285608 365338 601794 805306 426040
2000.80 291840 48278-3274-82776-259042-603626
2003.69-688318-926106-848952-642956 148734 722270
2006.58 758474 779148 855698 602190 566144 806566
2009.48 678004 200970 86242-93378-10288-34120
2012.37-136438 72100 437712 60710-84608-33372
2015.26 303406 324914 343456 262106-74050-178662
2018.15-33018-2868 95340-228434-173136-293774
2021.05-76558 256230 151984 116728 336390 283924
2023.94 126508-47382 347474 277328-118844-277128
2026.83-88366-197076-149732 277358 623148 202742
2029.72 96236 193696 196412-34958-103544 137892
2032.62 599738 476118-106734-378188-105146-247548
2035.51-273832-265630-317986-19562 434248 432428
2038.40 363488 144676 49608 37744 171432 54068
2041.29 191472 403962 246646-23994 96470 151372
2044.19 453990 476018 318810 341166 399192 144844
2047.08 12570 89284 191948-53426-96744 6810
2049.97 123290-102868-54244-8186-229822-318418
2052.87 151140 335986 517340 583392 793478 861636
2055.76 905428 785954 561440 447292 499734 261530
2058.65 513904 416630 339336 394898 262480 181784
2061.54 279102 328006 523162 514182 653902 527492
2064.44 189874-116264-208620-242876-173712-175576
2067.33 138576 496230 818652 602014 379444 429694
2070.22 395484 181648 145106 13632 103514 548928
2073.11 678790 395470 317568 429658 385494 191404
2076.01 122810-79806 473108 768034 641458 411682
2078.90 189416 393628 658618 578034 631176 802956
2081.79 755008 104950 69814 177824 193164 205458
2084.69 200918 493716 1100988 607884-246802-222866
2087.58 336828 337794-76594-38154 377466 1059526
2090.47 1165594 713966 507304 326766 485558 237798
2093.36 246222 597354 1490170 989868 261876 170996
2096.26 304892 245980 427260 292094 768360 1511114
2099.15 765844 95278-65508-222602-43058-45788
2102.04 248088 1453056 1679342 771670 494990-38364
2104.93 2440 140176 121438 778206 1932340 1044610
2107.83 186454 46846 50288 83068 337418 498482
2110.72 1394592 1995864 1075016 407618 188190 98852
2113.61 179372 394776 956486 1982508 1321878 291940
2116.51 26628 206194 224800 294750 686216 1681074
2119.40 1643980 356646 266144 82358-137846-104528
2122.29 197882 1030622 1767146 697398 295296 253846
2125.18 314898 313524 344836 440086 1175434 834478
2128.08 148928 79338 332376 229534 175504 272906
2130.97 1080966 1016086 427034 173238 294632 500946
2133.86 589716 574712 921504 569380 140392 98682
2136.75 343206 523804 517520 494444 715164 662378
2139.65 691080 872264 622966 386204 539740 451892
2142.54 297896 230674 320994 144776 1490 36824
2145.43 474562 697502 967904 858464 740950 740592
2148.33 677668 383854 163542 408150 1129588 1045552
2151.22 885900 791474 572176 387380 588294 1240936
2154.11 1890892 1204058 672960 628670 590786 598672
2157.00 1124324 2022922 2371056 1203006 607734 497428
2159.90 735030 979660 1614488 2737510 2312524 1025130
2162.79 1000424 1034234 1509598 1330824 2134274 2743382
2165.68 1981438 1380306 1436596 1432494 1276624 1747384
2168.57 3486368 3095820 1669224 1635810 1915438 1948656
2171.47 1859736 2742060 3642102 2631804 2242044 1865952
2174.36 1758964 1865266 2928864 4031128 3073932 2176098
2177.25 2147442 2314410 2566388 3252656 4721876 4284540
2180.15 3411794 3262926 3025514 3098812 3822618 4847508
2183.04 4423706 3240796 3178842 3106294 3229972 3626320
2185.93 4984176 5263022 4510462 4191960 4600270 4866308
2188.82 4621770 5431644 5331082 4121646 4121052 4474772
2191.72 4949170 5423376 6738590 7162990 6788390 6717600
2194.61 6614458 5814660 5409760 6088684 6106770 5054042
2197.50 4890782 5245332 5606836 6036458 6884962 7152672
2200.39 7572754 7822528 7765026 7233778 7175410 7357074
2203.29 7088260 7036662 7237370 7104812 7339832 7693288
2206.18 8564412 9368840 10134500 10708540 10701860 9404082
2209.07 8581670 8416580 9031592 9451530 10011380 10445700
2211.97 10890110 11076610 11849760 13635730 15743280 17141120
2214.86 17839940 14416670 9445116 7918320 8387072 8645304
2217.75 8772356 9232972 9680204 9967220 10394090 11277790
2220.64 12662260 14312090 15706260 14988620 12027730 10225410
2223.54 10042380 9833792 10105870 10598030 10973010 11701410
2226.43 12906920 13861600 15025250 16780830 19045420 20267090
2229.32 18099590 12952840 10753110 10954780 11777410 12732800
2232.21 13762290 14819930 16316420 18382790 20795510 23421690
2235.11 26774630 30324110 33620920 29304420 16762260 10020250
2238.00 9599960 10123450 10546940 10942230 11852130 12547830
2240.89 13280960 14289240 16078210 18559030 21498340 23893240
2243.79 22855270 15687170 11132410 11015670 11148810 11429740
2246.68 12181100 12445280 12817410 13779710 15114890 16968640
2249.57 19165120 22005110 25174180 27219730 21772310 13347910
2252.46 11022430 11665680 12330990 12939350 14076040 15072770
2255.36 16656170 18658250 21237690 24803040 29097850 34421420
2258.25 40621540 40132610 24530240 11534350 9793612 9939592
2261.14 10369290 10759370 11640820 12433300 13472170 14377340
2264.03 15664100 17156640 19074090 21622740 24585550 23082190
2266.93 15408620 10763030 10644680 11001480 11518860 11841980
2269.82 12406730 12912260 13493160 13923920 14843810 16191890
2272.71 18042750 20216080 22978180 22200770 15287660 9880972
2275.61 8980618 9667522 10588600 11178770 12093740 12964940
2278.50 14084700 15359910 16762000 18586510 21069080 24207650
2281.39 27540830 27125000 17962380 9192806 7255846 7462654
2284.28 8367358 9180396 10103520 10368240 10899710 11464970
2287.18 12170100 12445030 13179700 14122060 15258060 15991710
2290.07 13764740 9697666 8303030 8139698 8052766 8148822
2292.96 8631644 9608310 11151330 11784370 11617240 11163470
2295.85 11216970 11837910 12820490 13692610 13714830 10741630
2298.75 8244646 7686672 7287926 7037768 6720838 6594800
2301.64 7399970 8758888 9267094 10266150 12365610 15369360
2304.53 17502270 15334000 13836680 12797540 9416444 6384726
2307.43 5618212 5736952 6282296 6089738 5871726 5599454
2310.32 6175654 7617080 7815946 7848438 8941656 10418330
2313.21 10386050 10841530 12683840 13114230 9079728 6448222
2316.10 7033226 8694380 7980172 6577322 6787900 8803242
2319.00 8569936 7437104 8461022 10578010 10173070 8063380
2321.89 8414586 10570680 10049250 7717512 9972950 15525900
2324.78 15148270 8654306 7589688 10159670 9792638 7280864
2327.67 9047140 11714190 10280850 8043814 10623710 12926450
2330.57 9911146 6890834 9389510 10335680 7387248 7461328
2333.46 13825960 19573750 24040030 21083720 13709440 8401000
2336.35 5655198 9106904 11237750 8181946 8038236 11285070
2339.24 9880556 6897516 9378416 10941150 8183632 8160856
2342.14 10571650 9127858 7731074 12030550 18384880 20100700
2345.03 14544180 9685338 7954696 7280256 8150188 8055176
2347.92 7347830 6897666 7424632 8019646 7907996 7798256
2350.82 9132236 8926534 8529390 10316790 10527360 10757170
2353.71 17743790 25640160 23996770 16102150 12177220 10172500
2356.60 14052070 14674660 12642020 14398230 12853620 10274070
2359.49 13729960 12107340 11092130 14405600 13148640 12936020
2362.39 15462960 14356290 22331900 38520020 52939220 39638460
2365.28 15949560 11415980 13246950 11507800 12833990 12431440
2368.17 10903460 12422880 11092170 11986210 11286060 11057910
2371.06 12032080 11250310 12309720 11831730 14309110 19885820
2373.96 31022540 31713420 16602160 10489730 9847378 11076780
2376.85 11280330 10985890 9508082 9461064 9506834 9833300
2379.74 9762148 9625574 9598428 10530860 10622700 10719420
2382.64 11793000 16451340 28057000 36210610 22605220 11036670
2385.53 9569342 10197340 10997640 11122800 10740880 9460172
2388.42 8623726 8614420 9092940 9081928 8768846 9134826
2391.31 10217540 12053020 15659790 22950400 34264870 47185700
2394.21 48100540 25081880 10039100 9292838 9849390 10560990
2397.10 9775476 9004884 8566270 9104664 9232128 9266292
2399.99 8763650 9240032 9515640 10366890 10249880 11965170
2402.88 19495860 35307610 31660800 13846380 8824010 9045446
2405.78 9771472 10819970 10309100 8952286 8160010 8001614
2408.67 8127612 8324214 7842032 7836270 8269710 9400314
2411.56 9326574 10107740 15640280 30541890 29740870 12460700
2414.46 6684612 6994346 8726254 10083260 8863468 6817404
2417.35 6562218 6813934 6806586 6337542 5854448 6412842
2420.24 6959838 7191624 6329544 8498956 18603360 46997640
2423.13 47695700 15844950 5656588 5487728 7068814 7647528
2426.03 7626604 6346748 6580598 6385304 6581214 6548206
2428.92 6630160 6543210 6614922 6681588 6598774 6653278
2431.81 10481710 23305410 24306100 10194660 6024830 5130790
2434.70 5806252 6250326 6669048 6117614 5828334 5678698
2437.60 5911388 5771808 5710230 5124656 5401380 5939348
2440.49 5845812 5255504 7457902 18013750 19047130 7260196
2443.38 4051216 3610216 4548578 5201376 5384568 4350322
2446.28 4583496 4247878 4400630 3865746 4177030 4188564
2449.17 4271636 3921694 4170604 3854190 6651928 19959930
2452.06 24890000 10513770 4371872 3256402 3358948 2767548
2454.95 3024402 2539938 3945018 4154130 3830476 3356708
2457.85 4086100 3933508 4208884 4016514 4217790 3851506
2460.74 4857036 7098000 8664820 6790364 4899078 3669390
2463.63 3697670 3431722 3237478 2700668 3034456 3133318
2466.52 3616754 3284134 3719114 3448564 3527472 3259186
2469.42 3203450 2952082 3793496 4580218 5094734 4534952
2472.31 4387686 3864428 3619378 3160620 3366760 2766750
2475.20 2614068 2992968 3694200 3266644 3316808 2724998
2478.10 2912546 2628390 3137312 3257288 3225952 2236390
2480.99 2207126 2340974 2959706 2433112 2265220 2153608
2483.88 2443544 2201322 2779114 3367470 5079874 5153390
2486.77 4346592 3707474 3315204 2826714 3378642 3187752
2489.67 3014696 2613070 2789070 2395788 2727690 2438296
2492.56 2530702 2603346 2622430 2049334 2089964 1906856
2495.45 2130400 2081526 2656072 2675654 2731186 2716472
2498.34 2670008 2072366 2242610 2015894 2428268 2059576
2501.24 2143778 1644386 1634444 1365104 1453376 1853906
2504.13 2397594 2228578 2220166 2084036 2096916 1490270
2507.02 1547362 1230564 1130150 1109748 1574168 1390368
2509.92 1919666 1983018 1923730 1705020 1966992 1820134
2512.81 2091172 2053868 1920742 1730656 2335250 2271108
2515.70 2674022 2855502 3006932 2514594 2403294 2640808
2518.59 2873518 2922830 3402960 3032176 2741702 2276920
2521.49 1890786 1215222 1606706 1265420 711916 497056
2524.38 1040066 1041480 975022 293650 352054 324832
2527.27 583560 222276 259778 219350 318982-35258
2530.16-265258-361836 154738-66730-121396-204398
2533.06 591240 751102 338212-87118 163670-359902
2535.95-414604-411948 120722-407422-477044-258060
2538.84-28256-457128-167332 160690 102796-466300
2541.74 293262-205108-570664-330426 182464-459228
2544.63-92150-27576-375474-496094 339834-309708
2547.52-580096-321658-254868-701796-343964-58208
2550.41-22222-441132-269216-673392-430596-164154
2553.31 384322-346282-106760 71166 274960-184308
2556.20 692668 443050 632500 703052 814688-32004
2559.09 753622 1319170 1693890 1326888 2000716 1347520
2561.98 1501912 2251886 2561844 2119956 3001452 2878130
2564.88 2859458 2954526 3248098 2949002 4215632 4878820
2567.77 4553002 5094830 5804130 4882176 5443048 6319668
2570.66 6205142 6533396 7586938 7118650 7242580 8479414
2573.56 9137912 8978970 9960744 9789598 10106640 11206990
2576.45 11453560 10679370 11948530 12036280 11858580 12540980
2579.34 12942200 12849300 13642350 13773990 13897810 14193220
2582.23 14584820 13917370 14732500 14837820 14250030 14617830
2585.13 14731240 14146810 15198620 15086500 13901130 13603880
2588.02 13455080 12526350 13007060 12102140 11124980 10489370
2590.91 9641526 8312608 7954616 6596242 5674630 5219932
2593.80 3817730 2269894 2979444 3061416 5851500 12733270
2596.70 18176670 17275420 15580050 11389630 9136402 8558164
2599.59 8474384 8872356 9908454 10159280 11297040 12383860
2602.48 14877200 16807180 18835340 20831230 23135660 25130350
2605.37 27251310 27368750 27800540 28729600 29780520 30291340
2608.27 31160280 30281220 28885670 27508950 26341290 24167400
2611.16 22338500 21606130 22102710 22714530 23679040 23169530
2614.05 22610470 20954760 19430780 17636400 15785720 13339720
2616.95 10761390 8152276 6344150 4217618 2873396 1244012
2619.84 69430-976162-1454690-2346798-2510316-3598092
2622.73-3824580-4176200-3767314-3919066-4288830-4354594
2625.62-4247896-4729530-4692296-5144386-4477806-4504026
2628.52-4458926-4906066-5464984-5605560-5722960-6267444
2631.41-6066166-6126350-5463148-5450022-5186274-5503312
2634.30-5738108-5760596-5356612-5804798-5654552-5627504
2637.19-5618494-5871694-6183982-6145742-5218184-5228804
2640.09-5158818-4930016-3947044-4857330-4892756-5190486
2642.98-4847042-5103342-4846664-5090550-4804644-4934616
2645.87-4405358-4913596-4534824-4801320-4587326-4341604
2648.77-4124204-4368100-4240208-4643894-4306566-4188946
2651.66-3772526-3676156-3180014-2928296-2576814-2853118
2654.55-3135944-3393566-3211362-3264498-2611446-2975022
2657.44-2758222-2735366-2180312-1806496-1538548-1822150
2660.34-1562980-1807564-1294518-1234560-1068484-1183120
2663.23-962684-1198624-757420-291412 471726 473520
2666.12 1048160 411018-59990-457540 23976 164994
2669.01 49786-573384-122888 94444 663208 518980
2671.91 522506 219314 549146 370102 328004 98426
2674.80 132392-620508-675480-754580 12632 603690
2677.69 1245158 1957380 1819800 591548 563596 195098
2680.59 369398 476974 670176-9426 411706 181070
2683.48 55776 319894 943926 529946 659240 460128
2686.37 697188 155796 299928 564238 1067154 1055918
2689.26 1401952 1660452 2621336 2502238 1480600 637808
2692.16 969242 601708 718910 650300 752464 428042
2695.05 621386 565844 1062330 1020578 1244178 1048658
2697.94 1259378 823964 905348 1004316 681700 289772
2700.83 601466 162756 915640 1172706 1979936 1797274
2703.73 986974 457360 695746 488640 719552 1013952
2706.62 1421480 980758 821162 357466 727480 949120
2709.51 1479576 1294530 1618648 1454314 1761890 1725588
2712.41 2029570 1989808 2778822 2567186 3335360 4539456
2715.30 4332216 1632250 936808 901156 1181850 933486
2718.19 1168168 747986 823040 705336 1048874 889562
2721.08 1034802 1169564 1520160 928358 1094018 977084
2723.98 1243306 1153848 1466404 1061960 1001524 526844
2726.87 779858 1150996 1094306 442348 722798 624574
2729.76 923712 380922 576462 442572 688684 239656
2732.65 398970 486852 763288 613322 1348348 1271362
2735.55 1303594 844526 1193810 1155674 1364272 1524454
2738.44 2609308 2910700 2955130 1941416 968410 439718
2741.33 707846 647558 988560 198896 1210540 1481854
2744.23 1571412 1228704 1277934 737408 927048 529468
2747.12 941714 1149460 1511304 1667486 2451998 2633552
2750.01 3080566 3094646 3650908 2089708-1857554-4208342
2752.90-2682408-1334552 317582 594888 1285808 869488
2755.80 898488 611054 898324 899038 1074236 504656
2758.69 664256 551896 1316432 1072576 1048310 808140
2761.58 1397984 1509762 2462080 3059584 3333150 1807608
2764.47 1242762 633658 969204 921086 1374226 1311592
2767.37 1603082 809660 758608 419836 1068940 948530
2770.26 1081382 661252 822656 477914 735096 925252
2773.15 1679428 1965992 2831282 2469350 2920214 1822088
2776.05 443874-1770480-3153284-3033134-1279218-187810
2778.94 802874 787138 1087746 525616 884158 632654
2781.83 889234 650056 990672 173052 577342 966350
2784.72 1928718 1658458 2401658 2667810 3687380 3486890
2787.62 2258464 717804 1058552 608282 1295974 1074666
2790.51 1099414 1075818 1098286 770994 1202984 763020
2793.40 1016446 739182 1113284 890966 856936 419660
2796.29 1392542 1658600 2380312 2017678 2576536 2491784
2799.19 2727442 1927484 1140102-436638-1137058-3650562
2802.08-5059812-3719122-362382 1433676 1865168 1220196
2804.97 1483892 1345858 1804104 1355522 1862054 1886780
2807.87 2331174 1601910 2237264 2619418 3383568 3328322
2810.76 3167728 1835004 2005544 1145984 1353926 1955204
2813.65 3081922 3094852 3104598 2683272 3628264 3501556
2816.54 3583760 3502790 4113612 3883806 4387622 4953510
2819.44 5905544 5511902 6085348 5726364 6276062 6657154
2822.33 7316286 6757054 7568876 7556522 7844730 6918906
2825.22 7341520 6630054 4057972 403364 2790788 7423524
2828.11 12361940 15231420 18460580 19992710 21525230 22863120
2831.01 25273060 27266920 30500540 32673350 35382580 38211970
2833.90 42611960 45638050 50231110 54343650 58562390 63248220
2836.79 69563020 75026500 81655300 87461260 94632280 101091100
2839.69 108146300 113989700 122008200 129464900 135917000 141914500
2842.58 149063100 155738000 163043800 167731200 172727200 178132500
2845.47 184000300 188169700 190965400 192435000 195357400 200688700
2848.36 203499800 195570500 190369200 189362100 188689400 178431400
2851.26 169554100 169672200 170858500 163199600 155862100 146928600
2854.15 136188900 121627700 111729100 110670100 108795100 98677740
2857.04 100321600 100221500 106849800 131620200 120907000 109157900
2859.93 104079900 112844900 128132300 108545600 70135590 49760900
2862.83 54117960 67436710 80289140 90424940 101853900 112076400
2865.72 121786400 130214000 138655800 145527500 152059400 157945700
2868.61 163830100 167265600 171281900 173530700 176860300 178140100
2871.51 179019100 179280500 180095500 179589600 179065600 176711700
2874.40 173417900 168150200 162114700 157277100 159511100 160031500
2877.29 158728200 154639300 150664800 146324700 143016800 137521600
2880.18 132925700 127013900 122358400 117332100 113068200 107887700
2883.08 103913400 98510920 94475270 89699530 86277360 81536590
2885.97 77028010 72707590 70129690 65754610 61639300 57470090
2888.86 55225800 51331910 48696030 45758540 43826540 40784370
2891.75 37916240 33476810 30589940 27293850 27852280 26997330
2894.65 24870090 22292090 20864590 18279760 17131040 14850190
2897.54 13643050 10705540 7557772 2196292-413804 4458580
2900.43 11365050 10982620 9581434 7607910 7541932 6084764
2903.32 5680694 4434930 5209868 4063250 4698946 3481268
2906.22 3164214 2075472 2992228 3007210 3402356 1922026
2909.11 2197972 1903580 2829720 2736958 3878376 2423796
2912.00 2529450 2171416 2986838 812484 840542 998600
2914.90 2346352 2137718 3152336 1887068 2554062 1365804
2917.79 2987378 3570352 4209008 3733980 5779188 5350824
2920.68 5459808 4781976 5135766 4280926 5107780 2003780
2923.57-795660-684982 5923240 10061260 12799370 12214360
2926.47 14777280 14721010 16217230 17045790 19081330 19986240
2929.36 23678310 25035480 28561230 30753960 34337410 36248250
2932.25 40970380 44067720 50099340 54436960 61081940 66309290
2935.14 73832700 78682990 87649740 95584780 106242700 114712700
2938.04 125679000 136431000 151225300 163242400 176481700 188833800
2940.93 205373700 221722800 241263100 258452200 279980200 300146900
2943.82 323252000 345667300 371703200 394623500 423257900 449751100
2946.72 476906900 498453600 526652700 563592300 611850600 653945900
2949.61 686809800 711026400 746682600 773094600 800680400 827188400
2952.50 857825900 887021100 920284700 950494600 979633800 1000099000
2955.39 1025944000 1038540000 1052663000 1063186000 1079899000 1090352000
2958.29 1108142000 1115461000 1109972000 1095755000 1082106000 1067908000
2961.18 1058346000 1024771000 1020139000 1028711000 1026409000 1001459000
2964.07 946175000 826928100 769509700 745194000 785018000 802983600
2966.96 751851100 635299300 622947100 616613700 845949700 796069300
2969.86 777554600 893967200 662413600 610123600 481750900 540719000
2972.75 793810400 734893200 567493500 616486000 716052500 776306700
2975.64 763667800 779409600 832536400 938064800 1030973000 1047607000
2978.54 1059685000 1088212000 1108622000 1141295000 1165852000 1196065000
2981.43 1223480000 1237016000 1236657000 1238726000 1221094000 1215352000
2984.32 1206527000 1198711000 1183640000 1172874000 1163898000 1177096000
2987.21 1139139000 1082104000 1047082000 1018952000 987768300 956125600
2990.11 919839000 885547500 852563500 818571300 779025100 742081500
2993.00 707644700 676646400 639756100 603011100 578227300 569476400
2995.89 592804500 579766700 498286400 451586100 422710200 404616100
2998.78 378760100 355621300 332663500 315209400 296171700 280410700
3001.68 256225000 235495700 218659200 208466000 194951700 187881100
3004.57 191927300 306568400 404271600 258955700 149811300 132188500
3007.46 135811000 130532700 113797900 105460100 101555600 100152800
3010.36 96111940 90201790 85358990 80547620 77147170 76396390
3013.25 74212140 80923060 151222300 246630700 168189400 80321680
3016.14 64961980 69827880 70683660 60242690 60268000 64977300
3019.03 68712030 69507040 66104540 64055870 64989040 66538920
3021.93 66011920 62654110 69861380 157822800 296365500 205848200
3024.82 79812380 60466910 67071880 73472690 63001740 60194860
3027.71 58699790 62871400 62072100 61613620 59643360 62225890
3030.60 63146550 65184060 58839290 80615460 314417900 651861700
3033.50 399481600 101709300 58155250 77260080 87674340 63796430
3036.39 55932080 57311460 61874020 60041280 58417070 58105560
3039.28 59028330 60383900 60873970 64161920 90494840 266368500
3042.18 436590700 237296400 85660300 68873740 85031650 85880960
3045.07 77035900 72314620 71598230 69066290 70387080 68600380
3047.96 71969360 71206580 81849000 82875600 82621730 127387900
3050.85 374655300 460060900 190979700 80374900 71779510 93327780
3053.75 80937780 71811720 63230800 68176420 61259020 66275160
3056.64 60103610 68987150 61797190 71704820 68557060 91749400
3059.53 325454200 887054500 685815700 171666400 77261380 91272590
3062.42 119756900 79538820 68095710 66941040 75040020 69253150
3065.32 73297510 72034980 74831680 72559920 79017170 81143820
3068.21 117674100 350287900 507121900 235368400 94934410 81009270
3071.10 104984900 94363080 85940370 74748000 80818180 73057730
3074.00 79665530 77294140 84580770 71943580 82724420 80341150
3076.89 94401750 219053700 476528300 330841800 108225900 69361000
3079.78 87939860 92234460 79025780 65636950 68200150 61726400
3082.67 66227880 59640060 67579640 56730530 66376770 60918640
3085.57 79739820 218963800 697206300 647441000 182739300 66542640
3088.46 74687930 112467300 93653890 79346900 72899480 75462980
3091.35 73926970 75313730 76470950 73846870 74094100 75382340
3094.24 80733260 124302200 320061400 342820400 134764100 70946840
3097.14 69004430 82134620 74311060 75152750 72506850 72711330
3100.03 69131990 70202690 72282130 70018250 67071060 69055980
3102.92 73342010 111719300 258933800 261686700 107424200 58488460
3105.82 55104060 63520520 50694890 44989030 48455660 56253530
3108.71 56259660 54643530 54520280 52557800 52748200 53190960
3111.60 59040570 144624200 391961700 323243100 84381420 45697900
3114.49 47335920 61267590 41198530 38521300 35472740 53273400
3117.39 56730690 60894960 56018100 57620540 53973870 58499620
3120.28 57696870 115163200 187090900 119543800 51087830 48345960
3123.17 48837130 50084840 41129900 42103740 36878590 39847750
3126.06 41220590 48002930 44031980 45366000 41419980 45057480
3128.96 52022840 112727500 118086900 55060180 34084760 34854570
3131.85 35622940 31860320 27532140 27281930 25801980 24612520
3134.74 24290000 29433840 30307660 30103180 30028140 35887730
3137.64 91473700 149669700 76239080 27299850 23192640 27964600
3140.53 24350270 20691950 17946430 18516790 16254140 16303970
3143.42 15433330 20247530 25824740 28722860 27587700 40587610
3146.31 62979940 47582830 25400830 23850210 23062890 23957400
3149.21 19678040 18725380 17144500 17445920 15304130 17264380
3152.10 16174720 16978060 17296310 19780540 25174070 38935470
3154.99 28937490 17319550 14747570 15686870 14974770 14119460
3157.88 12098050 12123980 11102400 11790570 10424380 10235250
3160.78 8446564 9628394 10654360 22318680 35519460 22915370
3163.67 10237820 9624352 9151436 9094168 7302732 7970800
3166.56 6925786 7013122 5814382 6718722 5730322 5757458
3169.46 4822302 5668490 9481302 14079380 9747346 8718754
3172.35 7704592 8950700 7885672 7961580 7394114 7420800
3175.24 5564182 6127432 5378298 5688658 4546432 5579538
3178.13 5775302 8728062 6599150 5476712 5146166 6300384
3181.03 5310470 5062840 4961160 5620232 4222004 3960132
3183.92 3026076 4436360 4698886 5316170 4553276 6624376
3186.81 6076662 4671902 3406994 4229644 3622518 4122010
3189.70 3416702 3686446 3318876 3580648 2428198 2755532
3192.60 2219076 2909874 2643224 3538958 2429816 2703336
3195.49 2646372 3616424 3051648 3207332 2370538 2896170
3198.38 2256256 2756170 1665210 2335724 1855342 2373382
3201.27 1879426 2336912 1749504 2128428 1567398 2319164
3204.17 2057576 3004780 1982382 2362320 1854126 2879448
3207.06 3095792 3694548 3086512 2859160 2160766 3119352
3209.95 2700602 2834824 2272086 2548370 2281604 2603336
3212.85 1903548 2313784 2517568 4232294 3866904 3308496
3215.74 2651040 2953244 1914670 2097036 2014906 2962968
3218.63 2610620 2606384 2600702 3308536 2798190 3198704
3221.52 1831136 2117126 2062932 1697688 752600 1573710
3224.42 1362976 1437856 721146 982858 842910 1138408
3227.31 338374 245612-69780 468078 276520 583888
3230.20-127192 990908 1194030 828530-230980 322162
3233.09 411088 595314 264144 631278-6458 398138
3235.99 303520 414276 88732 421452-280754 125272
3238.88 153506 1086308 1184796 1549116 1152438 1423398
3241.77 357582 191738-289654-194730-806496 108784
3244.67-373880-362492 459380 1204882 562552 892562
3247.56 608018 807556 161938 256682-291298 601492
3250.45 462566 786704 1028976 1199414 162832 948454
3253.34 745938 1083932 768914 426898-299836-17678
3256.24-308908 400452 187002 411714-72434-145526
3259.13-558366 424488 889646 1426508 175804 390282
3262.02-249088 128930-68754 758008 730888 297324
3264.91-494366 276190 428050 1300656 1013304 365554
3267.81-266548 613618 123082 126550-296008-100216
3270.70-201520 848636 1003722 1231754 436914 719468
3273.59 371450 506984 291390 941010 854186 492258
3276.49-332490 433406 1104558 1117374 223204 358828
3279.38 86560 86776-316524 276652 407894 495944
3282.27 394196 1092960 854588 1044946 108560 446476
3285.16 384584 126884-527684 550040 915174 1139970
3288.06 419138-150272-477392 173834 360896 1168572
3290.95 1033424 1008450 157308 114426-267074 374926
3293.84 491544 701606 239970 761816 684750 763968
3296.73 691574 549288 376690 766316 21698 753960
3299.63 1057694 951328 438262 423352-424284 66706
3302.52 498254 1131190 275970 117980 321970 664130
3305.41-244940 154658 404276 297224-671360-754726
3308.31-40898 243686-206978 491302 339176 620632
3311.20 806290 1015354 1158390 1620414 778944 541836
3314.09 501264 1101230 747402 839666 179898 287162
3316.98 613914 1301570 244258 116040-401822-133444
3319.88 486800 940454-136084 320174 528306 760558
3322.77 405232 478116 340574 1077248 635470 764484
3325.66 1031554 1052254 359730 822254 530460 327566
3328.55 347938 59674-247798 1013388 197608 347794
3331.45 671916 1635288 885258 773640 863438 786002
3334.34 762138 899954 321598 787166 367248 798138
3337.23 1098678 1362792 577928 1075780 1611564 1476860
3340.13 156084 684106 465240-199434 168680 1250964
3343.02 719962 1101290 1212708 608134-550304-237388
3345.91 153468 963420 32936-244824 500584 942764
3348.80 597512 463350 457512 769584 824332 961130
3351.70 485988 462214-129832-128030-447408 510824
3354.59 1130998 1633714 539712-514296-671246 217144
3357.48 566076 451930-291058 167500-139220 339932
3360.37 251136 373252 544740 790964 541172 547072
3363.27-355004-69296 280416 990106 1115046 731856
3366.16-379732-259638-588814-191996-582026-281854
3369.05 587840 1180410 600798 417648 207216 710918
3371.95 646912 609562 267310 301990 1274396 1258710
3374.84-127694 276896 595230 584498 92044 1024178
3377.73 946966 1191032 934618-175560-699734 328116
3380.62-130612-205446 845966 1771840 1586690 1762268
3383.52 873280 329488-549228-324388-521358-37580
3386.41 591294 1186198 713400 806896 628968 926680
3389.30 923412 1032424 960526 1730654 620402-116110
3392.19-240626 224214 671206 1462840 1270268 569832
3395.09-492502-267072 687524 1822380 1044588 887468
3397.98 548888 490906-454010-708616-198048 516100
3400.87-185402 393414 876158 1240934 947476 248162
3403.77-6520 654464 701530 1580556 1293532 1200742
3406.66 884518 1214568 764520-31076 467068 1231516
3409.55 45930-324680-51998 618084 926600 901252
3412.44 494836 895392 169782-306970-201428 407370
3415.34 257368 360818 249812 701696 839762 1288168
3418.23 478156 53318-33196 434302 411302 315244
3421.12 446784 1107624 344436 414324-42266 433352
3424.01 1401854 1213422 79346 672116 669910 845376
3426.91 331238-509588-453576 821168 588930 808486
3429.80 1012780 868476 311914 824312 1007804 1043892
3432.69 1020246 1301200 405048 734842 478860 566696
3435.59 172824 206504 424554 542940 995710 760786
3438.48 369074 1781500 1588196 836858 957438 1311664
3441.37 1060568 1148812 1350962 1540672 1184836 1834500
3444.26 1798566 943470 215834 1027702 958428 521810
3447.16 880938 1470664 1535614 2297256 1765362 1019698
3450.05 1483294 2282728 1737416 832262 359734 1623680
3452.94 2403322 1753490 999474 1830404 1941604 1427410
3455.83 892896 1422752 1091028 1683504 1959540 2222976
3458.73 2319672 2434628 1961372 1868680 1219564 628712
3461.62 202124 1453140 2220640 1948684 1627938 1669228
3464.51 938162 1479356 1700420 1156790 535264 822260
3467.40 1214468 1168048 441674 154124 787842 1913030
3470.30 2242100 2008942 1157242 1388518 1020026 1238952
3473.19 1444796 2385012 2835976 2555736 1235838 683042
3476.08 750504 2101576 2672772 2568128 1838706 1667754
3478.98 1844566 1613812 703034 535680 578064 1175020
3481.87 1477652 1506808 225998 142492 608012 577252
3484.76 1164328 1553876 1219560 1848076 2115904 1594422
3487.65 894254 983572 563440 788314 958278 1143350
3490.55 1042986 768784 1106092 1404788 1159078 1355482
3493.44 1116106 665882 797464 985656 633960 994758
3496.33 225304 494042 1064644 744764 385296 1113950
3499.22 1223838 1117608 605764 902694-18738 449246
3502.12 1066026 1182342 1484712 2157024 1476326 624510
3505.01-219582 83956 226380 474284 385544 710752
3507.90 1242058 1650120 774272 374472 656504 781318
3510.80 459730 868792 634162 1158522 1486064 1114260
3513.69 911716 1010868 678002 553248-142508-205728
3516.58 175538 1413300 1556432 1537246 664922 682776
3519.47 1208454 834352 637790 942734 1128692 1449772
3522.37 1542424 1666032 1407278 1508268 433386 66170
3525.26 780746 1072686 401080 480960 480684 764250
3528.15 705036 742540 1368050 1969162 1467272 2070214
3531.04 1980662 1139898 1381856 1919796 1740766 1236928
3533.94 618460 662996 553632 1081508 1155650 1537240
3536.83 1426456 1620828 1346170 1242010 758772 1359610
3539.72 1704044 2105632 1828326 1507056 1443814 2070884
3542.62 1935436 1762508 2166140 2802566 2944008 3214094
3545.51 2986752 3276120 2755540 2233400 2250816 2729468
3548.40 3363652 3318354 2709494 3268850 3920028 4012424
3551.29 3452856 4012284 4605984 5200456 4446348 4809164
3554.19 4631900 4030878 4659666 5990184 5876746 5801968
3557.08 5539464 5690028 5357746 5752158 6583984 7209860
3559.97 7551330 8227386 8080216 8458388 8453416 8728882
3562.86 9032590 8769018 8527966 8153178 7670658 8370474
3565.76 8512236 9056416 9537586 10185850 10347040 10460620
3568.65 9968028 10003660 10080640 9360854 9402478 9726474
3571.54 8818006 8959802 8598156 8578526 8749384 9165552
3574.44 9578738 9387852 8589840 7786158 7186006 7882232
3577.33 7962294 8115026 8082230 8233456 8625300 9352290
3580.22 8893060 8636010 8677180 9947386 9883422 10716780
3583.11 10054160 9163480 9319294 10171420 8961820 7684362
3586.01 8683618 9460142 8954614 9597676 9870628 10201160
3588.90 10220050 10600040 10823350 11242790 11151590 11357790
3591.79 10827300 10654300 11028900 12031200 12606210 12304790
3594.68 12123210 12369640 11152700 10663040 11560570 11997280
3597.58 11296010 11560280 10816880 10312900 10268530 10142980
3600.47 9722456 9668808 8812678 7966300 7660386 7974932
3603.36 8102464 7835312 7184394 6957036 6647318 6466858
3606.26 6723350 6221972 5158678 5735718 5686346 5276412
3609.15 4273230 3331178 2935608 2416668 2727352 3104256
3612.04 2548480 2648882 2047240 1628922 1959218 2871798
3614.93 2987540 2392888 2295814 3098438 2882456 2554052
3617.83 2235456 2142178 1994082 1656134 1547224 1907258
3620.72 1645688 1164226 1615348 2459036 2025892 1673932
3623.61 1833980 2581030 2408858 2165782 1852764 1767944
3626.50 1707710 1867202 1656342 2261370 2365824 3217362
3629.40 2724780 2005554 2368996 2645518 2245756 1597806
3632.29 1328366 1658128 1598672 1924816 2255062 2660904
3635.18 2930760 3115456 2681526 2532870 1677676 1165030
3638.08 1041374 1392328 1823350 1924368 1947734 1961274
3640.97 1646540 2023942 2529142 3424934 3530040 4114826
3643.86 4228172 4193612 4275520 4270486 3734368 3342102
3646.75 2719820 2695342 2457622 2888452 3255044 2772944
3649.65 2090620 2203618 2652222 3184010 2388298 2645944
3652.54 3248916 3899598 4069866 3543024 2939850 3635176
3655.43 3262884 3200732 2862148 3241480 3192052 3279608
3658.32 3136550 3098402 2733100 3088070 3509026 3740778
3661.22 3690108 3920762 4144932 4636720 4458914 4476540
3664.11 4427822 4170916 3840058 3433676 3198302 3370104
3667.00 3031730 3026256 3606064 4108654 3475500 3998384
3669.90 5423474 6725066 6695112 7077516 7454656 7125400
3672.79 6352116 5288670 3628256 3800318 3762956 4102378
3675.68 4318876 3715170 2971304 2792924 3085134 3270630
3678.57 3434980 4396800 4324380 4534698 5211538 5560674
3681.47 5214970 4857196 3564460 2427228 2213880 3143350
3684.36 3050838 2831504 2567222 2687574 2709586 2732808
3687.25 3577078 5502630 5395268 4375200 4131684 4715240
3690.14 4783126 4760354 4503896 4693594 4769414 4114038
3693.04 2770870 2778648 3006564 3520932 3822070 3825726
3695.93 3492806 3760850 3922196 4470308 5389022 6131978
3698.82 5506146 5226324 3996546 2524374 2442172 3416240
3701.72 3545112 3206012 3082888 3038862 2743866 2755148
3704.61 2650736 2714376 2732146 3390674 3754090 3520778
3707.50 2368794 2225946 2250648 2882890 2787296 2551566
3710.39 2274172 2630776 3798398 4293218 3427062 2368742
3713.29 2132686 2897978 3062046 2893124 2377704 2326442
3716.18 2698560 3354176 3012894 2288694 1918672 2179524
3719.07 1803340 1667592 1610732 2043984 2442506 3150940
3721.96 2671844 2737390 3267930 3438044 3253230 3412426
3724.86 2966850 2013550 1560412 1709846 1485244 827748
3727.75 510070 1377280 1965756 2019566 1661914 1887278
3730.64 1858534 2637656 3432872 2764138 1931414 2153610
3733.54 2132294 2059500 1627870 2007272 1832914 2446274
3736.43 2894252 1981250 1360832 1723078 1593192 1777640
3739.32 2362664 2296308 1894332 1860888 1646134 1802010
3742.21 1113532 907394 1469554 3052530 3810116 3029526
3745.11 1745856 1485104 1173782 1351914 1751004 1663184
3748.00 1490868 2975974 3786834 2430108 897818 588484
3750.89 1230630 2645926 3111682 1833444 751890 567870
3753.78 610842 1258940 1267674 1560194 1459410 1918448
3756.68 1540048 1190460 918290 750394 1116092 1725910
3759.57 1182888 864122 1174172 1288880 1332198 1355462
3762.46 1645480 2522080 2139226 1297190 1042890 1453798
3765.35 1726782 1571164 1535844 1616224 1417998 1550764
3768.25 1004382 1069632 1606714 1311890 794700 1190296
3771.14 1435582 1490996 1686914 1364196 971332 1183758
3774.03 525670 554538 939110 1169484 799662 875326
3776.93 422630 922248 1476522 1915274 1960338 1702218
3779.82 837654 434582 971210 2107052 2320158 1911236
3782.71 985370 757240 1082696 1194530 1142376 1554520
3785.60 1591304 1350776 893174 825356 2221082 2560992
3788.50 1893492 1927232 1461898 1317882 1043354 1713188
3791.39 2014164 2038174 1777816 1912380 1776438 2117046
3794.28 1797652 1645672 1665572 2476962 2183682 2256402
3797.17 2393914 1814432 1408846 2997634 4019460 3177376
3800.07 2372984 3007908 3361234 2491448 1561918 1640936
3802.96 1727070 1876792 1709270 1586118 1729562 1971288
3805.85 4850846 6520722 2933356 1825700 1943934 2049518
3808.75 1754926 2043536 1904928 1917428 1630536 1509882
3811.64 1875438 2420038 2609992 3366432 2590338 2010796
3814.53 2500408 3669004 4286434 3035962 2008378 1663536
3817.42 1508042 1676788 1896608 2701036 3174358 4179974
3820.32 4153052 2596692 1926846 2111270 2164120 2651796
3823.21 2142012 1901344 2274002 2334888 2220112 3046396
3826.10 3800166 5669032 4771174 2651340 2382228 2628906
3828.99 2305824 2421890 2272458 2221882 1897388 2222004
3831.89 2789932 3772614 4012634 2828660 2316842 2790916
3834.78 2865838 3183314 2533316 2200426 2639184 4544886
3837.67 4566696 2985574 2778014 2714618 2921466 2940864
3840.57 2962104 3225134 2909678 2555448 2680872 3266868
3843.46 2368736 2062930 2329538 2530180 2449666 2916158
3846.35 3447888 3450452 3617598 3726576 2969452 2717066
3849.24 3237460 3570894 3465968 3680936 4561870 5726956
3852.14 3967312 3366234 4160136 5695380 5292558 4474974
3855.03 4255228 4484696 4670774 4541730 3789450 3874844
3857.92 4022332 4234618 4187416 4025974 3375678 3877452
3860.81 4326016 4727316 5004992 5196646 5446746 5798554
3863.71 5057198 5276904 5305156 4769492 4368666 4015178
3866.60 4270402 4736320 4793480 4433054 4192692 4884970
3869.49 4748744 4588994 4138658 4363058 4627910 4367006
3872.39 3155860 3038316 4548700 6020476 5682650 4537900
3875.28 4068144 4206396 4298096 4521030 4398854 4824848
3878.17 5299520 6201746 7494442 8132484 7098936 6629556
3881.06 6641302 7056168 7620878 8003370 7839134 8323414
3883.96 8671464 9383022 10362110 11190230 11241870 11440970
3886.85 11656350 12028050 11350110 11101100 10970480 9999842
3889.74 9071846 9032990 9357668 9039184 7000458 5562304
3892.63 4269170 3277030 3293574 3405808 2893446 3188992
3895.53 3594190 3417880 3328164 3685528 3948002 4716294
3898.42 4600428 4130544 3478796 2454364 1490002 1472830
3901.31 2409946 2884448 2601766 3065736 3743468 4869846
3904.21 4693170 4520434 4264130 4699472 5159292 5159708
3907.10 3595862 2132082 1946670 2479414 2886244 3190954
3909.99 3014520 2897180 2995648 3965598 4277866 3971774
3912.88 4263734 4564762 4897936 6769850 6416108 4246156
3915.78 3067420 3206002 3459624 3037038 2445556 2362808
3918.67 2420488 2492900 2825510 4088750 5437284 7673806
3921.56 10698450 10954480 6335830 3299950 2733890 3055810
3924.45 3601594 4049322 3133322 2958052 3238048 3527220
3927.35 4117290 4956314 5669296 6509040 4900402 3046224
3930.24 2605172 2457904 2851290 3327076 2529030 2463182
3933.13 2945726 3580204 3784050 4326298 4936154 5982204
3936.03 5793442 4762032 4745520 5316448 3867068 2907408
3938.92 2496214 2934980 3565044 4749334 5251240 6355594
3941.81 6512602 4553922 1971406 1808142 2762606 2765590
3944.70 2729712 2687674 2494544 2859518 3054778 3202942
3947.60 2930738 2984706 2718324 3465378 4345702 5186828
3950.49 5186806 4238636 3820172 4411412 3970186 3254186
3953.38 3150090 3497350 3344624 2908190 3290400 4437194
3956.27 4559328 4561514 4651834 4352270 3546178 3192432
3959.17 2992482 3061862 3896386 4129230 3916538 4241526
3962.06 5014578 6914222 7930272 6857360 5126492 4375842
3964.95 4995562 5218068 5443426 5652688 5009108 5335628
3967.85 6590368 7558850 9052496 9416156 8040364 7098794
3970.74 7674040 8217138 8728382 9837420 10380030 10344250
3973.63 11328070 12944960 13223600
##END=
