##TITLE=Ethylene
##JCAMP-DX=4.24
##DATA TYPE=INFRARED SPECTRUM
##CLASS=IUPAC A
##ORIGIN=NIST, Anayltical Chemistry Division, 301-975-3108
##OWNER=COPYRIGHT (C) 1998 by the U.S. Secretary of Commerce
##DATE=98/10/1
##$SPECTRA VERSION=1.00
##$UNCERTAINTY IN Y=2.1 % relative (B=1.1E-04,C=8.5E-10,D=2.7E-14)
##CAS NAME=Ethene
##CAS REGISTRY NO=74-85-1
##MOLFORM=C H2: C H2
##MP=-169.15 C
##BP=-103.71 C
##$NIST SOURCE=QUANT-IR
##SPECTROMETER/DATA SYSTEM=IFS66V (Bruker)
##INSTRUMENT PARAMETERS=KBr Beam splitter; MCT Detector; Multipass cell
##STATE=gas
##SAMPLE DESCRIPTION=Ethylene Primary Gas Standard
##PRESSURE=101.3 kPa
##TEMPERATURE=23 C
##SAMPLING PROCEDURE=1 L/min Flow
##RESOLUTION=1.9290
##DATA PROCESSING=Happ Genzel Apodization
##XUNITS=cm-1
##YUNITS=(micromol/mol)-1m-1 (base 10)
##XFACTOR=1.0
##YFACTOR=4.5474E-13
##DELTAX=0.9645
##FIRSTX=574.687
##LASTX=3974.595
##FIRSTY=-2.54E-07
##MAXX=3973.63
##MINX=574.69
##MAXY=.0007946
##MINY=-7.35E-07
##NPOINTS=3527
##XYDATA=(X++(Y..Y))
574.69-559096-524238-388736-590240-1124440-1246384
579.51-909748-787820-707792-768032-657288-784412
585.29-647550-730510-757312-981336-897162-821010
591.08-743554-897116-770448-715120-396480-610950
596.86-737510-878012-658410-752196-665580-624398
602.65-462008-635524-612600-678448-620222-676792
608.44-558460-600770-508554-545500-383114-525054
614.22-516546-501508-296720-475046-381184-474460
620.01-499804-542162-423500-526632-402374-595632
625.79-489552-509086-491728-572394-447820-495066
631.58-475252-621516-450132-539018-293858-415144
637.36-450820-512916-393938-510114-411792-444744
643.15-328776-386614-238544-277034-276212-436710
648.93-363558-407862-352684-409900-303682-461566
654.72-323514-344406-236816-276854-178348-379698
660.50-290874-402704-304614-411026-229112-234358
666.29 132890-26592-22702-177068-318-108076
672.08 61398 84664 89252-34496-49030-180672
677.86-108472-79896-30676-99626-98580 320
683.65 144726 179236 182394 10028 79670 40198
689.43 171120 105164 251828 160484 418792 433582
695.22 684486 576408 833088 339394 144908 12060
701.00 215082 114918 406982 339228 682358 510772
706.79 899150 694136 969380 607786 710756 533914
712.57 936034 744576 841642 775678 1434540 1816272
718.36 1838816 1476340 1488132 1445544 851528 459398
724.14 824528 875912 1287786 1434064 1774042 1543760
729.93 1424584 1381202 1563992 1651196 1523000 1396088
735.71 1890366 2421550 3006202 2915142 2007308 1659342
741.50 1584916 1891460 1950162 2309432 1907412 1756954
747.29 2372686 2384038 1793588 1113636 1277670 1373902
753.07 1823968 2107898 2635478 3319808 4006702 4151456
758.86 3063442 1400518 1189548 1208692 1399598 1634280
764.64 2117568 2563538 3561724 3769202 2158282 695328
770.43 611418 682186 982322 1400026 2285978 3287478
776.21 4680522 4768260 2639586 793258 551686 521512
782.00 596560 808256 1433414 2543568 3232186 2467164
787.78 1155672 734154 573508 465654 673460 790482
793.57 1164812 2638168 3727818 1954826 715646 564280
799.35 704856 758132 834976 671998 927932 1245054
805.14 1341106 1036916 1009574 943516 1067440 985054
810.93 1128474 1070834 1244600 1305198 1410738 1478578
816.71 1719688 1789590 1934472 2071102 2365280 2397682
822.50 2779842 3114862 3300578 3500494 3993990 4507418
828.28 4403098 5111626 5524514 5839986 6568754 8064516
834.07 9080722 9604568 10428160 11090010 11497380 12372150
839.85 13209010 12991610 14711370 18754570 19855950 19046310
845.64 19603380 20961020 22426020 27227600 29127400 28282780
851.42 28028690 32040530 32598460 33067560 37820480 41428020
857.21 37597470 38134110 40824590 45536980 45365350 50535100
862.99 50865620 54225300 57053990 62458710 63070750 66377930
868.78 63344420 65222360 63505560 67960260 69801490 87203460
874.57 89455500 80081440 82120010 95617250 97337910 103276200
880.35 109566600 105204100 92135520 83650690 100375600 126689100
886.14 124921900 111256700 124655400 138020900 124411800 102756400
891.92 108842200 117791500 149776300 186966100 202396900 147561200
897.71 126947200 108060300 115697000 159295100 199389500 148404400
903.49 120899400 120806000 132228900 156028700 288345900 298593100
909.28 162603400 122519100 113024100 114846300 149157800 274053800
915.06 260718100 129342900 99367400 87143750 121356600 158646100
920.85 312517800 371112400 218565700 122158000 106359800 121586400
926.63 120904200 142319200 203270200 188047600 157270700 137777600
932.42 133410500 129171600 124732100 130396200 148799000 168583500
938.21 213594900 239242100 233728500 213579700 225909400 241632400
943.99 301393600 369583200 474089100 705983400 1427280000 1747530000
949.78 1017831000 536984700 349380100 253650600 234454400 247749200
955.56 226919200 215358200 191161000 182791300 158849800 148944300
961.35 156051300 164556000 162812900 182944700 176677300 158983600
967.13 175908500 231210800 274340700 206640400 128346600 126824700
972.92 134761600 133610900 141522200 159990100 249738300 312683900
978.70 205974600 128505800 118398700 121384900 120769100 124439700
984.49 201383500 333852000 436050800 348403100 158804500 118086700
990.27 128088200 128625900 139733600 139808100 138651400 209592800
996.06 293251500 210712000 141662000 148807800 154132700 140526500
1001.85 130811600 157324200 172532100 230741000 276013100 213516300
1007.63 151118800 129358700 123490900 132410700 123743800 122330200
1013.42 140690100 154087300 142029900 123139100 100315500 122170600
1019.20 155422300 131717400 120183500 122780600 114207400 99181140
1024.99 104639800 124325100 154206400 124538000 90469220 85968020
1030.77 92236780 87474390 82892540 74862680 75787970 87613700
1036.56 100746100 80123720 60452000 55013120 52863120 52009170
1042.34 65319480 72552940 68307210 71909770 83369290 88099300
1048.13 65706010 52354020 45600150 44851150 41376320 39138460
1053.91 37774120 47193510 46755120 51288080 48238430 41280940
1059.70 33533550 32759120 29328330 29101700 25700000 24723550
1065.48 22660560 29734560 40741690 41366850 33063340 28561900
1071.27 26006950 24592590 22500500 21346730 19446570 18655190
1077.06 17497980 17873790 19500410 20931170 17803090 17244430
1082.84 15174220 14816670 12784890 12583460 10998420 11033450
1088.63 10441570 11271190 9283660 10582740 12746950 12286500
1094.41 11134750 10364890 9318656 8895642 8006658 7738140
1100.20 7083798 6690704 5486946 5150676 5354868 6606032
1105.98 5888344 5667740 4815320 4668490 4020122 4154166
1111.77 3535780 3221548 2452942 2458646 1946192 2627920
1117.55 3518932 3732726 3175018 3107798 2699876 2779860
1123.34 2150358 2007514 1539540 1559526 1158876 1267872
1129.12 985976 1509534 1328790 1365364 990052 1056718
1134.91 662074 718614 416932 525712 206012 318356
1140.70 41506 192562 310154 756486 454010 522502
1146.48 202994 314722 25554 176954-58574 74230
1152.27-191460-42814-231668-19464-178568-64294
1158.05-275318-108498-285532-149856-346466-202704
1163.84-386470-278108-491102-345628-490116-248636
1169.62-396520-252072-405882-252594-446646-345362
1175.41-513794-374218-539830-392546-541176-390640
1181.19-516428-361736-509938-378650-541194-411222
1186.98-567290-438752-589066-452132-567302-445122
1192.76-586900-439280-571038-454620-592104-460338
1198.55-571158-448188-583930-475256-602862-462576
1204.34-583758-475466-608482-474204-592478-467908
1210.12-598328-503654-618846-450686-565094-472122
1215.91-601668-487316-589608-456588-566040-457504
1221.69-590960-512072-616294-497698-588264-476972
1227.48-589214-485308-601082-501662-597668-493084
1233.26-592344-465754-544730-465456-570382-480354
1239.05-590042-497206-586242-476466-555656-472480
1244.83-569510-488434-575326-484664-574988-481176
1250.62-588420-486526-543902-468966-588788-530536
1256.40-603368-503118-602578-526958-597692-488984
1262.19-563202-491810-568942-474398-567302-514908
1267.98-571012-473908-559998-498440-575378-503258
1273.76-584178-486508-545626-475586-561234-480576
1279.55-558720-505218-592286-519994-580096-493026
1285.33-570514-522744-578894-502222-558644-488490
1291.12-538774-479914-556956-506286-547846-484420
1296.90-579066-521540-557504-489592-549844-491344
1302.69-534214-456346-490778-434712-515886-492154
1308.47-553236-500506-550066-503576-552546-498428
1314.26-562412-520434-568154-521204-558932-460158
1320.04-499734-470224-521086-460252-490754-467910
1325.83-534060-473068-515186-488588-525704-466548
1331.61-502098-428640-419422-359666-436846-421212
1337.40-489048-465880-489974-440582-471556-450462
1343.19-512308-461052-479062-456738-459552-386290
1348.97-373384-343394-408518-423022-458752-429874
1354.76-484160-485836-490478-460852-482138-438454
1360.54-475314-447792-414276-288418-159468-90874
1366.33-96388-145144-248558-190246-147364-97742
1372.11-48182 72338 163050 267592 411004 537784
1377.90 704946 1086264 1418626 1546300 1839806 2256886
1383.68 2614536 3109378 3709846 4238844 5006176 5995918
1389.47 6723240 7547366 8975466 10225590 11037740 12644000
1395.25 14797020 15809730 17100300 20160540 22228970 22804850
1401.04 26081500 29773640 30298380 32350860 37461970 39103950
1406.83 39666730 44676460 48386540 47648810 50565590 55979720
1412.61 56578260 56475450 61244460 64043700 62600220 63197770
1418.40 66015360 66318500 65079620 64348080 64208010 64218220
1424.18 61261940 56987420 55247750 53698560 47353380 41364610
1429.97 39196440 35306360 27889830 22718280 20634390 16346470
1435.75 11326910 9051218 9226188 11094760 12700880 20480700
1441.54 61879820 112110900 115579500 91487500 69599860 52580910
1447.32 42516140 33414990 29228790 29758140 29924830 27987880
1453.11 32069050 33637780 36244340 36587150 41329480 40618600
1458.89 43972670 45989610 48073500 43255040 48743640 52183760
1464.68 48009380 43086060 50237600 51478330 43465310 42327210
1470.47 46755050 45092000 38107400 39567350 38775860 37236390
1476.25 33084620 33545340 29695870 29971010 27319570 25554700
1482.04 22127460 23038900 20858790 18409510 16485310 16113760
1487.82 14781550 13129260 11696770 10387680 9826526 9425222
1493.61 7548228 6512864 6056770 5981188 4530352 4070262
1499.39 3589514 3418668 2668914 2476038 1842776 1691678
1505.18 1228024 1180406 739518 780890 495190 556822
1510.96 147804 178010-23366 79016-221706-161104
1516.75-348310-155494-438798-393874-584010-354204
1522.53-466394-362710-595016-425940-592178-448444
1528.32-587614-443622-593356-465070-670180-540912
1534.11-630974-487158-629138-533912-700092-526010
1539.89-658394-570786-684838-504926-650526-526462
1545.68-619250-499156-634042-506496-635034-501126
1551.46-621492-536698-669690-493056-557454-522250
1557.25-751822-639368-721296-514392-617290-509068
1563.03-605406-500424-601734-476726-597312-525628
1568.82-654120-504158-599580-465108-563040-505776
1574.60-681258-577430-627884-511168-608510-499296
1580.39-592110-476428-568026-487572-603650-491972
1586.17-576228-484254-583092-444552-538978-489394
1591.96-604752-506848-592744-493526-585666-499120
1597.74-591372-487932-579050-501708-603186-495010
1603.53-565320-461288-559788-478416-581638-493716
1609.32-584940-476904-553082-465070-572172-515544
1615.10-661232-575640-600458-489898-560120-478612
1620.89-573592-499676-568540-472062-569836-506060
1626.67-626456-522254-568326-474850-575970-492830
1632.46-571872-548950-697720-567582-610740-509812
1638.24-582928-502024-577914-498214-578256-495694
1644.03-612010-579302-647156-540786-585870-499018
1649.81-615558-621578-779788-648268-634100-495258
1655.60-574690-504278-589172-505376-581734-520746
1661.38-635364-541654-592652-515268-567686-489046
1667.17-610876-581770-633852-532212-610894-521290
1672.96-591440-556526-644694-519716-566350-479222
1678.74-594222-529798-593024-528064-659716-622078
1684.53-632932-482886-566408-477126-551438-467584
1690.31-533764-457138-542682-468990-615080-555506
1696.10-560996-464346-588736-585934-616402-456888
1701.88-499488-415366-482786-448394-504762-330608
1707.67-416658-342096-438748-335842-442520-389594
1713.45-427594-303822-383664-414140-464570-263854
1719.24-325492-220718-244478-201344-314512-241492
1725.02-242608-158322-187912-161184-249436-129900
1730.81-128158 21864-285032-243722-298524-109528
1736.60-93372-46408-246268-89104 93416 302044
1742.38-26976-153820-144234 98452-20086-158390
1748.17-115318 338308 197252-96674-158630 159670
1753.95 22046-27482 152132 232428-116846-26992
1759.74-215212-121618-147224-222584-355730-297656
1765.52-378348-317094-414948-277004-285562-188650
1771.31-295908-79910-1614 72966-68356 46768
1777.09-27826 38786-72118 62362 52180 139076
1782.88-67404-38024-96888-4584-165302-136306
1788.66-243948-234680-454886-397456-444168-218514
1794.45-363456-382758-527492-415986-502598-458148
1800.24-612016-474488-654216-582272-621520-391790
1806.02-486268-424270-532128-389886-540336-420784
1811.81-470214-300482-502732-358708-496684-279368
1817.59-193466 57684-71524 106244 9352 260840
1823.38 372392 538380 380852 859046 882110 1013646
1829.16 1129752 1609942 1702926 2060292 2255702 3325474
1834.95 2972042 3555068 3672292 4367862 5016306 5559028
1840.73 5714630 5908674 7058966 8178022 8390852 8499744
1846.52 9697606 11847240 11353430 12152430 12433990 15312940
1852.30 14235530 16223230 15929360 17749370 18364020 19890740
1858.09 18459680 19661910 23042350 22772710 20113430 21778570
1863.88 25621950 23437870 21286450 23039030 24574720 22515800
1869.66 21677880 21483020 21245790 20078380 19628520 16873700
1875.45 15871520 14639290 13977490 11240890 11358860 9400846
1881.23 7689352 5022970 5201150 5102964 8371262 18839460
1887.02 64647500 94918550 43893460 10698830 8596702 5943752
1892.80 6087730 7535330 8110958 8350692 11204970 12658280
1898.59 14099800 16643000 19697120 20291160 21686140 24230280
1904.37 26107830 26300690 27606880 29075800 29789050 30023350
1910.16 30788060 30614220 30239170 29519960 29538970 28688130
1915.94 27685450 26767520 26359780 25040100 24044830 23064340
1921.73 21557700 19560110 18861520 17753520 15794530 14917390
1927.51 14571490 13288950 11725140 10665460 9529902 8147790
1933.30 7681352 7011878 5855640 5212522 5012120 4256914
1939.09 3645794 2994572 2813684 2681478 2132996 1680488
1944.87 1465364 1176600 1190252 1041832 576996 283492
1950.66 237974 110624 19460-194002-371372-470602
1956.44-423620-339358-277662-381764-448312-314996
1962.23-198908-307854-412586-350728-196270-50414
1968.01-73644-287986-494688-569722-323316-173670
1973.80-124628-9536 85850 81250-22784-106130
1979.58-107188-45208 163018 136814 22906-99702
1985.37-194992-31614 327672 502056 276600-6118
1991.15-235474-291280-99896 439638 460548 230438
1996.94 117660 181126 283328 248460 410658 554316
2002.73 617760 668994 569410 702828 559258 674468
2008.51 964892 919764 865702 635130 1005794 1381068
2014.30 1481374 1239608 1311216 1806798 1752710 1608162
2020.08 1460354 1974252 1967896 1926120 1764804 2011096
2025.87 2034700 1847668 1778756 1745192 1813664 1565076
2031.65 1788958 1445298 1400708 1212010 1517706 1096472
2037.44 829694 487686 644706 478336 488188 562518
2043.22 1126758 2396324 6105004 9211710 4844724 369844
2049.01-202850-211496 151200 551234 624032 490622
2054.79 886668 1266102 1423872 1682266 2222202 2340838
2060.58 2541724 2920576 3185582 3358452 3686782 3727842
2066.37 3885028 4039688 4036512 4059600 4212258 3961768
2072.15 3932446 3847428 3556608 3603660 3621016 3211512
2077.94 3186536 2885342 2531270 2544150 2295970 1902818
2083.72 1921952 1593222 1330612 1090644 995720 860984
2089.51 733720 435504 339902 253462 151342-45480
2095.29-88988-30978-62368-177460-125258-123750
2101.08-149116-115454 38970-113806-305814-285538
2106.86-148234-285092-285736-170108-92848-86984
2112.65-10250-203506-266894-303730-284428-306120
2118.43-87482 54786 163680 291498 507928 204738
2124.22-92976-153956-59390-38548 8634 4608
2130.01 363608 678758 530802 176612 212936 97494
2135.79-32128 94232 290694 365610 788676 1352482
2141.58 1070590 412222 231664 285158 334080 333364
2147.36 349472 423888 802342 996830 784438 449674
2153.15 488902 541890 478118 478462 668698 972562
2158.93 1073908 566434 311664 400734 358136 275306
2164.72 404140 398048 271950 220084 343546 243398
2170.50 189084 198028 198360 132424 341968 526170
2176.29 439724 407140 723998 1075772 1068140 1095746
2182.07 1044826 810992 948384 861734 913226 1452236
2187.86 1746004 1463792 1157492 1133676 1090168 1143040
2193.64 1339324 1204894 1167404 1088460 912596 852358
2199.43 1195498 1437148 1241080 841460 789284 1089492
2205.22 1164582 842750 872712 851946 725568 807306
2211.00 897282 800990 856896 819580 648130 436308
2216.79 389088 396380 466016 519966 471146 338700
2222.57 397642 483702 528752 432682 332970 273402
2228.36 272412 338352 322968 259276 260266 147338
2234.14 86624 145828 221604 164106 128626 47114
2239.93 12392 8296 130892 194814 180032 120976
2245.71 116046 98096 120104 197682 459770 949560
2251.50 1047494 624502 294074 86060-5334-111594
2257.28-130192-158346-156076-208888-218780-206780
2263.07-223068-268216-266154-276926-265352-298572
2268.86-265220-262934-187594-141110-158412-227580
2274.64-261086-338466-319258-300368-275068-207828
2280.43-87984-230568-300420-321200-306850-340052
2286.21-328766-260856 43148 191514-9286-190450
2292.00-270038-340692-327344-349960-294184-125992
2297.78-40090-190560-275594-270866-237194-245826
2303.57-209840-261098-247912-226464-129270-148688
2309.35-217044-288336-237964-160484-91850-189686
2315.14-210264-224728-204954-200382-164374-172270
2320.92-59282 23802-84422-139604-122662-135830
2326.71-113330-83690-8936 29152 3110-43458
2332.50 6490-15786-56130-79592-62446 36168
2338.28 86028-42376-70494-82720-81684-101548
2344.07-112314-163240-197736-234484-203816-183144
2349.85-128018-162828-129890-92246-51838-47212
2355.64 24104 58916 152124 126270 133260 125456
2361.42 137236 80722 74930 77772 96956 27390
2367.21 29896 13268 43922-16968-49818-146180
2372.99-164066-209378-190304-212794-189402-187798
2378.78-194288-225256-182736-194604-209398-254708
2384.56-255492-275358-259642-237390-180862-181256
2390.35-156712-160894-214754-299898-288550-277816
2396.14-259722-270406-205512-184454-160274-204976
2401.92-231646-285560-247112-292076-288584-282626
2407.71-208492-30032 99290-50452-191992-303452
2413.49-290444-274770-246138-286628-260558-196842
2419.28-51792-165534-277528-292444-242860-282594
2425.06-239216-257166-194136-129118-115330-289738
2430.85-343710-378142-357554-366140-328262-366320
2436.63-380284-394990-365840-407690-384638-428414
2442.42-421096-431432-335262-329360-282596-218772
2448.20-184096-261722-282894-288888-249180-282028
2453.99-269498-330042-287554-203066-83752-188024
2459.77-254192-270226-252056-294860-210328-226450
2465.56-223176-241768-241646-261818-223210-275582
2471.35-273326-324646-294334-303062-310584-351154
2477.13-301462-318354-317364-373280-338954-386702
2482.92-396704-417774-381218-419996-396430-415924
2488.70-387538-432378-400276-429780-430968-456552
2494.49-410714-434134-433118-487278-449914-491458
2500.27-477194-474072-424604-473438-477800-507342
2506.06-472780-497456-460460-464074-417982-439460
2511.84-426584-457702-432932-490966-489632-526968
2517.63-474710-477788-440162-459026-434596-485428
2523.41-474426-502900-474892-509280-455856-461022
2529.20-437526-465060-433568-478450-472288-508172
2534.99-480592-505592-494762-541586-492438-483232
2540.77-438236-452564-419492-481334-473684-525858
2546.56-486592-511978-485814-499398-476442-530768
2552.34-509686-526176-487242-521172-504412-538126
2558.13-491044-511738-498232-510836-428782-454030
2563.91-434390-442312-351878-283366-181572-305394
2569.70-354268-403138-382694-457004-480336-524094
2575.48-469500-492564-470830-528352-474682-502554
2581.27-481050-506280-461658-489758-457060-513362
2587.05-482074-513830-471902-467376-433306-490112
2592.84-467970-517766-477344-499532-482006-512172
2598.63-461818-498602-481958-507618-457254-495382
2604.41-466550-486562-438874-457974-448536-531840
2610.20-505436-520180-470260-502026-451476-474280
2615.98-436598-501518-482000-496954-428820-472762
2621.77-441720-467096-426824-453386-410074-480452
2627.55-453122-481904-452018-486618-430306-472648
2633.34-449700-483856-471000-527012-461782-496404
2639.12-451364-495204-468716-508682-437778-460908
2644.91-418394-474212-455244-476014-460200-511870
2650.69-462256-504980-464812-492686-458832-499118
2656.48-463424-512076-468784-503418-479750-510428
2662.27-444516-490016-461594-525748-489650-544544
2668.05-512440-551164-483834-539484-522632-537980
2673.84-475838-524314-490334-531458-482590-554110
2679.62-519512-563548-504420-545594-496732-533412
2685.41-494338-537898-502368-576764-553342-577728
2691.19-491680-522170-476552-529078-498892-579044
2696.98-535674-534956-494494-578620-544210-579096
2702.76-509022-548778-500848-568952-527446-580852
2708.55-531966-573336-509334-547966-518914-579600
2714.33-522918-576672-540470-587558-519534-560888
2720.12-524800-581606-509288-534812-474222-553110
2725.91-499618-558938-514372-553050-487296-552326
2731.69-526922-576788-494994-566574-545222-586456
2737.48-515250-572302-517796-578950-539128-589344
2743.26-504442-571914-512808-566512-520618-573422
2749.05-508932-594012-549942-591546-507056-590148
2754.83-522928-585942-519108-575038-517618-601210
2760.62-545710-597170-513858-565600-504744-576334
2766.40-545232-641872-556090-609290-548890-606480
2772.19-515810-607224-564396-611138-532338-635668
2777.97-584850-614824-535836-654106-569176-615758
2783.76-588506-703664-595002-655296-624304-691998
2789.54-614154-718956-613288-664494-585380-688050
2795.33-636676-745200-679974-752372-655010-713432
2801.12-662844-757684-679336-806080-761484-796290
2806.90-673442-819872-780702-878132-804954-837940
2812.69-691718-823506-801872-895976-812578-967022
2818.47-834964-888004-809660-951884-892126-991200
2824.26-937472-1047570-891380-984652-858144-961720
2830.04-903444-1045538-959380-1013568-876708-1093702
2835.83-1003028-1063960-1025712-1190308-997780-1059076
2841.61-1020264-1079972-858834-1066218-997370-1058770
2847.40-931078-1105618-886740-896388-896014-998872
2853.18-598186-758048-804944-896262-718194-966186
2858.97-874878-884500-718952-986462-775148-733566
2864.76-631716-921536-665862-656762-629814-850332
2870.54-518918-626204-548314-674078-418878-635972
2876.33-491458-608226-461068-661882-461070-648232
2882.11-533366-933836-1179448-1617864-1315930-1358514
2887.90-1154920-1278960-957810-1189970-954358-1061934
2893.68-891970-1098796-766678-843460-658216-922402
2899.47-635128-886070-622594-895450-546540-731082
2905.25-487350-874056-623338-793178-342878-687900
2911.04-414210-535326-119232-548488-174804-276302
2916.82 305222-151734 316590 258200 831128 479256
2922.61 1248146 1265646 2045932 1793296 2589158 2606048
2928.40 3828090 3933568 4965290 5181412 6731162 6769746
2934.18 8169516 8801324 10646300 10831200 13558230 14467510
2939.97 15699840 16278130 20842990 21196550 21848050 24229300
2945.75 30478640 29178450 29508990 34433030 40814510 37416510
2951.54 39084170 46234220 50714420 45503240 49717500 57671560
2957.32 59233480 53583050 60139050 66225560 62423900 57653300
2963.11 66868500 68634400 66444980 63420680 67162800 64524190
2968.89 63797430 60415080 59037160 54570500 54608400 49454850
2974.68 44499230 40315680 39851180 34749360 32488580 35032100
2980.46 34866900 27553530 17240670 14420810 18685020 48645770
2986.25 187813700 323223600 169035100 25294350 11521820 11508020
2992.04 14955670 20650610 24016170 26675950 33731740 41133600
2997.82 43701880 48696100 56811440 62598580 65289940 71242320
3003.61 75656530 79910540 83991140 86431880 85178610 92685960
3009.39 96774900 89880170 87260340 96205880 90689820 81533680
3015.18 87674860 91908910 80166590 79966620 86414020 78695560
3020.96 67532660 70480540 69683940 64106020 60799540 64510240
3026.75 67924870 62964790 53637460 50578730 46173590 43321320
3032.53 39253440 41221190 46641910 48917040 40249460 38390800
3038.32 37232510 35896880 34014060 36845540 43175050 61492280
3044.10 56929260 41192420 37926610 36843960 37744420 42159620
3049.89 41068830 49973940 64498860 48015200 39675300 39930880
3055.67 43402200 42582820 47070360 65752100 113052300 96716180
3061.46 55085620 52221650 51010890 51065790 55003610 62353970
3067.25 91802700 109845300 81550060 61921040 58273140 63575470
3073.03 72594320 84955440 114010900 154164700 123079100 82718720
3078.82 74294880 75943370 76315200 75093540 83169480 97423500
3084.60 90470590 82755840 91289320 100585600 87515840 73322310
3090.39 73669900 82593530 101806300 121686700 92731480 59739480
3096.17 58253810 60463030 78418100 83840860 72694550 57142780
3101.96 50684580 48182680 47363470 41021220 37674990 42254740
3107.74 57339740 68138600 68124150 59618970 57952610 67245160
3113.53 95708490 98910060 77572280 73401060 89139860 115535000
3119.31 112237100 102097100 103556600 111989200 138610700 140576200
3125.10 106444100 94623380 87783920 89241700 96967580 118658400
3130.89 147779500 115857100 84652470 78873210 73730460 76993560
3136.67 93444230 147287800 167503300 100589900 60370720 63086710
3142.46 59562770 56210390 65083340 86292530 91789840 69533940
3148.24 57256720 53215030 48770130 52302170 64776920 92518250
3154.03 92354380 50527430 33741580 38841810 41735370 40130430
3159.81 46541600 59589790 52559980 34021740 29973810 29152560
3165.60 29182120 38913160 53629860 65050520 49255230 31129020
3171.38 29932270 28179040 26983750 29163990 37188000 39415220
3177.17 32203450 27536170 25848550 24805780 24696930 26731860
3182.95 31086240 26520620 24198020 25482110 23989350 22756600
3188.74 22364030 23523750 23203000 19491660 16698840 16953300
3194.53 18599550 18304420 19133360 20039870 16946930 13398030
3200.31 12183070 11457010 11282540 14068900 15803390 14256520
3206.10 12733800 11625890 10968780 10034940 9655606 9336880
3211.88 9846696 9671440 8788974 8057308 7510802 6817286
3217.67 6466640 5952744 5288468 5166480 6372438 6199700
3223.45 5815904 5321116 5031740 4430096 4009952 3545830
3229.24 3386670 3595012 3614272 3166314 2864618 2487366
3235.02 2302900 1971236 1822966 1684212 2136288 2184178
3240.81 1971038 1659680 1530398 1319430 1155176 955942
3246.59 921158 892700 919608 779994 732790 558402
3252.38 514494 397250 359276 266516 390608 325542
3258.17 285790 196310 198062 103932 57474-73120
3263.95-55432-39416-14506-76350-67646-161690
3269.74-196410-242786-168656-214428-154618-198818
3275.52-228020-290356-255540-314192-290558-353494
3281.31-337466-367824-305976-336642-314272-372114
3287.09-363444-368100-304438-370702-360978-366118
3292.88-312508-334236-307826-398546-368192-345948
3298.66-339376-426400-418186-435402-391152-410616
3304.45-339044-365586-383178-443654-427486-434284
3310.23-393026-441496-369662-393452-397874-473506
3316.02-449318-479842-489196-489768-395584-429116
3321.80-402540-409630-358216-431366-425360-428066
3327.59-407488-454188-442732-472540-440278-465254
3333.38-459822-441118-400404-428410-394370-403924
3339.16-391174-419984-375322-417076-429582-484570
3344.95-462796-481890-462694-419514-325750-353006
3350.73-338086-409542-419638-479772-499048-508584
3356.52-430834-419510-402498-438992-413506-425506
3362.30-383100-453526-439612-451858-417318-413088
3368.09-332366-399348-409330-420458-392350-420784
3373.87-453546-538914-462926-437404-441402-447724
3379.66-365942-395914-414518-459384-415098-421520
3385.44-369848-407482-391130-419644-427502-498414
3391.23-462166-497848-422502-453360-479648-478814
3397.02-402602-426118-384890-466868-495480-533606
3402.80-509372-536054-558530-572940-491288-468738
3408.59-428242-510862-544298-558914-509698-515090
3414.37-471958-511610-496502-473888-434966-507856
3420.16-518684-517832-545126-611018-542400-506130
3425.94-501732-515560-492860-535902-487170-485042
3431.73-422372-464998-497428-549770-501332-517002
3437.51-532512-567144-511950-588606-577700-520352
3443.30-435268-416424-402962-510734-544938-542668
3449.08-534660-596970-547410-513282-525976-566946
3454.87-506320-496436-506054-582306-574236-540306
3460.66-478940-529654-492700-497646-446634-442082
3466.44-400728-475594-506532-520998-443536-456170
3472.23-456516-494110-423304-460326-482598-505028
3478.01-436384-455856-372830-394890-374428-438960
3483.80-438544-462444-425372-445602-458474-475752
3489.58-445844-497128-487970-505364-495988-523078
3495.37-514208-506554-463200-493602-466770-483292
3501.15-392884-269430-165402-293438-441376-532256
3506.94-537094-534256-488174-460744-423668-465600
3512.72-461058-484000-453768-459864-405648-433604
3518.51-410240-446372-399226-376248-370432-387762
3524.30-294274-354584-406332-422670-372980-422294
3530.08-442224-470150-384018-369690-325014-344580
3535.87-361360-423500-420104-445776-435748-481866
3541.65-465562-490866-428860-427576-428294-511976
3547.44-534306-529560-469486-495948-505426-514560
3553.22-483756-514364-477450-476080-478452-515950
3559.01-505280-556524-519812-532988-518686-556560
3564.79-540520-554252-505558-540114-488036-513612
3570.58-501844-533760-499704-501432-466704-492686
3576.36-495158-523680-493222-497950-483172-489342
3582.15-421398-440692-410642-493550-543814-576116
3587.94-490214-461232-478680-521522-506124-564350
3593.72-505948-543118-534596-535234-456696-485754
3599.51-512114-534522-469764-492492-485236-512928
3605.29-469188-485768-513464-556338-462386-484198
3611.08-511166-533534-463258-457904-464878-525626
3616.86-490746-511672-502594-511772-452192-445380
3622.65-443352-498906-453240-467244-470864-563738
3628.43-569982-516584-448010-468432-458830-492426
3634.22-462806-508466-478380-500244-494886-547390
3640.00-495138-488810-429392-455980-443288-499532
3645.79-482832-475652-484470-553928-518914-532862
3651.57-487346-549348-564740-579786-519918-524838
3657.36-521938-543326-485506-476300-434664-474770
3663.15-470744-500882-432488-438990-437088-550546
3668.93-546206-529530-446832-497540-500048-556858
3674.72-517740-527962-498778-535454-464410-468656
3680.50-524750-552228-470894-488586-447838-525560
3686.29-596286-643174-564118-589714-609244-552164
3692.07-529590-604148-545740-591408-577510-530030
3697.86-522272-660444-619212-559794-588360-731158
3703.64-597880-469294-523306-675714-644102-626378
3709.43-578830-637336-715636-572370-420944-610364
3715.21-702710-545132-463642-651526-723214-658450
3721.00-594636-654004-589036-594410-533422-595412
3726.79-663602-782056-554542-442836-602412-716550
3732.57-511058-676844-840800-811608-465914-528156
3738.36-637266-626570-475764-574946-693930-821004
3744.14-612914-564906-606450-619264-561180-597794
3749.93-613934-691356-485494-489114-610904-644064
3755.71-429796-466062-587394-616072-429046-460020
3761.50-538266-516928-409094-508888-506542-450030
3767.28-326122-365064-375074-418780-395332-507296
3773.07-658386-936180-1173040-1254970-359500 254086
3778.85-49312-394224-464202-519196-481376-472182
3784.64-415286-452946-455166-473926-328010-320242
3790.43-441498-471000-300288-411694-496690-329190
3796.21-214772-454420-514888-380048-400334-611700
3802.00-393796-202746-320824-571758-360372-187124
3807.78-381324-528360-255094-302972-554766-497884
3813.57-247868-462212-571396-335344-131236-468524
3819.35-561332-392978-394488-579738-409178-286832
3825.14-413770-421250-182864-365262-562538-457812
3830.92-306220-551664-470514-341574-439352-609612
3836.71-456758-430814-552138-487340-344316-562116
3842.49-484876-282314-315522-477910-220796-254578
3848.28-501280-446742-232098-445612-472254-412998
3854.07-382528-411808-129972-147978-336888-326556
3859.85-169920-298784-275612-211718-225936-336716
3865.64-246238-250900-250710-314840-222630-221104
3871.42-209522-264788-245970-277420-269004-287234
3877.21-151342-160684-208116-299792-276520-307016
3882.99-259600-308248-318132-364982-218970-189402
3888.78-215512-311184-274030-270828-235960-305172
3894.56-306188-355576-272522-268040-287126-319886
3900.35-318832-396804-358140-396620-341050-323334
3906.13-247190-334986-323402-296216-220410-302846
3911.92-303936-373464-337034-344512-274226-238792
3917.70-114492-83438 57116-45318-152606-221748
3923.49-208780-285162-261348-313430-308600-309284
3929.28-277418-342868-293836-363452-331530-368200
3935.06-316312-345618-311932-349556-317164-316672
3940.85-315418-378370-355436-382702-289734-319318
3946.63-307288-401590-425390-441966-368344-343872
3952.42-193454-257124-315928-400654-353874-319080
3958.20-198340-233460-264554-352660-295454-344594
3963.99-231734-183646-162286-263218-278166-348906
3969.77-221672-189834-160554-286238-300262
##END=
