##TITLE=Bromomethane
##JCAMP-DX=4.24
##DATA TYPE=INFRARED SPECTRUM
##CLASS=IUPAC A
##ORIGIN=NIST, Anayltical Chemistry Division, 301-975-3108
##OWNER=COPYRIGHT (C) 1998 by the U.S. Secretary of Commerce
##DATE=98/10/1
##$SPECTRA VERSION=1.00
##$UNCERTAINTY IN Y=2.8 % relative (B=2.0E-04,C=3.3E-09,D=2.7E-14)
##CAS NAME=Bromomethane
##CAS REGISTRY NO=74-83-9
##MOLFORM=C H3 Br
##MP=-93.6 C
##BP=3.56 C
##$NIST SOURCE=QUANT-IR
##SPECTROMETER/DATA SYSTEM=IFS66V (Bruker)
##INSTRUMENT PARAMETERS=KBr Beam splitter; MCT Detector; Multipass cell
##STATE=gas
##SAMPLE DESCRIPTION=Bromomethane Primary Gas Standard
##PRESSURE=101.3 kPa
##TEMPERATURE=23 C
##SAMPLING PROCEDURE=1 L/min Flow
##RESOLUTION=0.9640
##DATA PROCESSING=Happ Genzel Apodization
##XUNITS=cm-1
##YUNITS=(micromol/mol)-1m-1 (base 10)
##XFACTOR=1.0
##YFACTOR=5.6843E-14
##DELTAX=0.4820
##FIRSTX=575.169
##LASTX=3975.077
##FIRSTY=6.60E-06
##MAXX=3974.59
##MINX=575.17
##MAXY=.0001107
##MINY=-3.55E-07
##NPOINTS=7053
##XYDATA=(X++(Y..Y))
575.17 116269800 111976600 123715800 140205100 151851600 162910600
577.58 174896600 183377900 190269400 203393600 213931900 224637100
580.47 234881500 249695200 267991700 281490100 292931600 307767700
583.37 326335300 345752600 362910200 373993600 383559300 403420200
586.26 427872100 449002000 464059300 475775400 486974500 504191700
589.15 524543800 542130800 555776300 571174800 592091400 609519600
592.04 623952500 639800100 648630500 654421700 666615500 675633300
594.94 676400100 681553700 685742600 690896300 691515900 691232800
597.83 687743000 681451500 675133500 668163600 660239500 653033600
600.72 651092700 664656300 656136800 620629900 590953700 535527600
603.61 474334000 441456900 411188400 382328600 355049000 331464500
606.51 311044500 314515700 345755200 447060600 661648600 910468300
609.40 882638500 793138800 713851800 381963400 198056000 203967300
612.29 240671900 279820100 330121000 381642000 437995600 492971400
615.18 548080100 599682800 651694500 700021700 745641700 784529000
618.08 819693800 848728300 873492800 895121800 912654500 923945700
620.97 930264800 932564500 932939700 925737000 913993900 901438000
623.86 883443500 859110000 834616400 807685600 778425700 747229700
626.76 713147300 677190500 643307300 607738500 569550300 533232400
629.65 496908300 458021500 421676800 386632500 352159000 320769200
632.54 290722100 259535600 230529400 204715700 179325900 155157200
635.43 134606900 114785400 98374380 84479430 72712080 58245810
638.33 46397130 39215250 34156840 27533640 20697580 16042250
641.22 12955180 9394264 6887020 4372372 3507100 3222602
644.11 3205190 3013740 2334642 1301024 768904 1493806
647.00 503692 1041298 2181084 2533150 3040130 2244652
649.90 1260348 655506 608258 656962 682816 1112306
652.79 1111130 17632 1209892 1313848 2240192 3399358
655.68 2103656 375682 571328 926146 464846 995080
658.58 1420466 905584 1012684 1481468 1333316 1031700
661.47 1502802 1720488 2126314 1587806 324246-130156
664.36 261858 492334 995370 1181516 1268944 4017188
667.25 6723320 4403952 1733118 523900-75816-287610
670.15-357198 366434 1853090 1451476 553818 308190
673.04 222350 767202 825474 1299124 1924036 2531324
675.93 2403680 826274 581224 761306-156458-270220
678.82 588192 1644502 2309398 1832578 56664-422784
681.72 1915560 2324106 1815508 46282-1122612-202558
684.61 1155848 1097958 863770 855866 1486378 1134340
687.50 1344928 1621406 331508-328096 9630 1425590
690.40 1428086 575814 677624 131456-166030 741208
693.29 1560210 140550-447352 625672 984056 812438
696.18 1172912 527638 132396-303764-584122 984376
699.07 2128534 1051658 768920 1275824 2214202 1550070
701.97 293142 410632 355224 111578 740398 798980
704.86 421192-757688-1437536-43110 828356 549386
707.75 214850-27122 517668 1021274 1338996 1250530
710.64 1479844 846832-63132 712494 1659240 1255138
713.54 836818-139318-279368 333390 1079414 1297378
716.43 332832-655082-151170 352594 1147818 832354
719.32 579104 1259966 1988376 1022164 190324 255126
722.22 480342 487562 445180 545624 1405806 1044940
725.11 496920 106148 596910 1325998 569020 260170
728.00 390810 162538 212926 120466 585920 600284
730.89 813248 1151072 798748 833968 862146 495684
733.79 874544 394864 345352 376446-87868 505940
736.68 1363276 1715586 1260762 104388 674184 1228712
739.57 873440 1293188 1865302 1470238 844276 742010
742.46 295978 220320 892770 1628720 1713590 1273112
745.36 1749516 1447734 793832 670058 1147352 1231500
748.25 704118-165448-319116 750480 1288642 1220594
751.14 970526 1014228 1673978 1858798 1351702 1002064
754.04 847194 276464 328902 1040052 1495240 996000
756.93 1056422 765518-18476 78472 1134214 930906
759.82 746156 470342 548914 733488 546042 1147548
762.71 1303478 1110766-60378-868560-297084 364068
765.61 922316 1306954 424178 45020 897706 1584644
768.50 933664 957778 565666 220406 458836 1059072
771.39 967592 761482-17752-187346 345646 371268
774.28 1010078 1272064 1054788 678158 457268 174396
777.18 90824-537838-170554 274882 678036 1367770
780.07 1303908 882308 1333992 1532580 1917706 1840414
782.96 841702 361882 619520 352126 400542-192410
785.86-198568-78832 182038 198328 103050 537018
788.75 666702 919532 1101394 707184 608556 1635758
791.64 1370660 900662 1478562 1677378 1360570 841472
794.53 390492 171856 15060 208140-78954-558940
797.43-273634 106338-536994-30906 524486 942356
800.32 1482054 1656948 1276460 674092 1068824 1712124
803.21 691090-231590 607914 940270 743170 277630
806.10-306286-416318 553700 1418700 2099148 2148116
809.00 509802-585738 195246 769578 964488 1614380
811.89 759910 33040 670940 117338 147022 1434432
814.78 2068770 1361456 1404612 921220 109580-716052
817.68-702274 401900 1319306 826104 836562 1207218
820.57 1265578 1359562 965256 1147124 1105002 787994
823.46 57610-249550 728042 1080910 297494 479402
826.35 1046514 866992 1011898 1742612 2833972 1683014
829.25 1182734 1313798 890850 599898 493618 1086012
832.14 979238 777054 1290110 1132152 1208370 377112
835.03 556362 1692716 1453084 1249894 1599152 1540862
837.92 1167554 832648 1385148 2199208 2318774 2290598
840.82 2054284 1696260 1487186 2037902 2465060 2231518
843.71 1918056 2158832 3024260 3387862 2816312 2640340
846.60 2662310 2841998 3085032 2643300 2136408 2577418
849.50 3411918 3841214 3337826 3052314 3490168 4000802
852.39 3507886 2887048 3167258 3925676 3977136 4133422
855.28 4914890 4954920 5087156 5398384 5448804 5457762
858.17 6401332 7098356 6856768 6474068 6368552 6485342
861.07 6650188 7039038 8007112 8728336 9655704 10340310
863.96 10769400 11064370 10137930 9048520 9062450 9239858
866.85 9218274 9839454 9623104 9719378 10806430 12247950
869.74 13997210 16396100 20155120 23972440 22687470 16465380
872.64 14332550 14538380 14942980 15059360 15578950 16587140
875.53 17723340 18791050 20477370 23022100 26798250 30943150
878.42 29810930 23959060 20234160 19967890 20724110 21092570
881.31 22251500 22888230 23976250 26245900 28791110 32316060
884.21 39268340 47387140 45954860 35859940 33177780 32647580
887.10 28683590 25736030 24986780 26363400 28817140 32224440
889.99 38826570 49613790 67948670 93799640 97647950 61741000
892.89 39779100 39556940 41979600 39922010 35902490 36223720
895.78 39122930 42075990 46562540 53439990 66053410 87251020
898.67 102742200 82877950 56228290 52406170 55885960 60081620
901.56 60113340 55132660 51464950 54079010 59236530 67829100
904.46 81092640 104322900 136866800 139019600 93040890 69272090
907.35 72036350 80210950 84648330 79872750 73347650 66878300
910.24 65622300 79111260 102314200 145791100 224167500 311129500
913.13 255754900 114595600 70871140 72281200 79452080 82669500
916.03 80190310 77098880 80519300 80112460 87003570 106183900
918.92 142856500 204439900 257881000 196901100 105077700 86000820
921.81 90341500 98556360 104343400 101119100 95862600 98314140
924.71 105584600 116679700 136531600 181935900 262839600 324447600
927.60 236829500 122190000 101634700 106182100 121129700 134020300
930.49 127333000 110889200 115279300 128657200 161079500 213202000
933.38 310864300 494987000 664190000 471768900 168805100 95178120
936.28 94679530 102923100 110984200 116366600 106353500 105454600
939.17 112408100 131323500 160436800 218184800 319629400 442450100
942.06 379644400 184151800 112097700 108593000 115349900 125178900
944.95 136377700 132125200 123497000 123585500 137522100 162818200
947.85 213011800 305213000 452412000 467444600 256335200 126166800
950.74 114002300 117588700 130742500 149283500 160331200 139109600
953.63 124130700 132577000 167783000 235740100 381721600 672415200
956.53 949025200 666119400 220346400 117863900 110267900 117051700
959.42 120568800 134186600 135327000 131711300 127461400 143997500
962.31 169201700 224988200 320966900 473803000 481965600 269458300
965.20 142741800 128738400 125174900 131059700 135806800 146177200
968.10 146888400 140081700 135682400 153022400 181398000 241801600
970.99 348358200 471677300 386031400 185940400 118542000 114608900
973.88 119375600 127312100 134707600 145637200 148738100 138638300
976.77 139144500 171347500 233162700 354419300 565202800 722591100
979.67 477975500 168049700 100658200 92449110 98097680 114431300
982.56 125460400 128739000 133652800 129571300 130373200 143185200
985.45 171005000 223613200 315101700 365032100 248263200 132755800
988.35 113044900 105240100 100666800 102182100 112675400 120595800
991.24 125135500 122630700 119474100 127723200 148263800 188440700
994.13 259208000 294666400 197723900 105985700 90108410 86302370
997.02 83151580 81511990 82781120 91708620 106073100 111341800
999.92 108716000 118282200 147909900 206237200 308693000 374569900
1002.81 245638000 97929520 70234740 66889120 63546540 59810280
1005.70 59389040 58047840 67829610 87113040 95317980 95780940
1008.59 104062800 120636100 152769600 182485800 149053700 89189310
1011.49 74027680 71270490 68445840 65334190 64574640 61347450
1014.38 60586130 61097140 68338060 73533650 77228100 85307010
1017.27 103242100 126281400 118356500 74930470 54624570 50859820
1020.17 49683900 47039990 46075580 44066130 43092260 42409860
1023.06 44823660 48132950 56408890 67315650 86845780 116894400
1025.95 129193600 83147500 42358600 34795130 33240430 31251310
1028.84 29848930 28419530 27462410 26652770 26642720 26541170
1031.74 27251080 32842700 45728510 55773760 63725450 57153500
1034.63 40561430 33620550 32731870 31122390 28981350 27514340
1037.52 26938150 25943840 25362930 24873510 24802020 24688870
1040.41 24980810 29330880 37751060 39999570 31204470 22792470
1043.31 21309430 20247690 19537530 18643930 18214380 16566750
1046.20 15357840 14679130 15294750 15742220 16955970 18412980
1049.09 21411270 28028600 29000680 18678590 12989270 12230550
1051.99 11848420 10625290 10219360 9563788 8635360 8079336
1054.88 8738826 8215190 7779518 8195536 9266816 9924666
1057.77 11021940 11491770 11594190 10871910 10327050 9475728
1060.66 9425862 8861432 8332730 7669094 7520474 6993956
1063.56 6895204 6648256 6839428 7045770 7640692 7280926
1066.45 6084232 5438064 5889516 5619046 5353186 4819564
1069.34 4730618 4590912 4346174 4105862 4815140 4360928
1072.23 3608608 3121476 3700340 4506050 4788010 3916682
1075.13 3247624 2459218 2126324 2470246 2946248 2361678
1078.02 2369176 2622556 2459998 1832746 1582252 1610584
1080.91 1825766 1652910 1822708 1588688 1564178 1136548
1083.81 1538344 1993266 2578622 2319664 1989882 2042496
1086.70 2517750 1810350 1196848 1565392 1515054 1430490
1089.59 1799682 1196032 932134 946984 1498572 1029924
1092.48 782192 793872 650906 781362 1276474 1235148
1095.38 1117446 1119836 1174714 306978 665868 1115404
1098.27 1236012 1427648 1293018 668526 659052 735470
1101.16 807648 530502 715984 807684 1048796 913868
1104.05 757936 322402 122698 371324 1050840 979126
1106.95 1236486 848034 629106 923100 903592 672900
1109.84 630356 370534 375252 131920 421036 713618
1112.73 722316 611096 996720 1165032 978742-93626
1115.63 71432 222862 327358 170082 261338 527404
1118.52 454502 227890 532682 871554 1122608 678470
1121.41 711382 821646 710754 234720-61212-232682
1124.30 441414 479506 354600 71810 200244 599494
1127.20 1361326 854732 459134 297638 488250 818860
1130.09 577572 182452 448624 327728 421392-12080
1132.98-121332-214322-24104-139600 187838 234866
1135.87 666628 974322 546456 21518 17418 52794
1138.77 305628 392340 702434 530104 227758 251608
1141.66 561398 506098 536312 59424 313312 738464
1144.55 621878 270672 247292 346088 390620-32478
1147.45 390088 543100 420284 406912 780964 755820
1150.34 658542 841134 558990 260690 603044 575902
1153.23 976876 680730 581562 774228 712580 908310
1156.12 1363012 1304796 1215508 896336 251806-52600
1159.02 784084 986270 891314 724762 598964 552664
1161.91 852660 1038666 1347086 1183398 1081648 1095080
1164.80 1052522 833590 985620 826308 731106 807784
1167.69 1092412 1293888 1385056 965596 794030 1142214
1170.59 1210750 684340 652208 877974 1541638 1478768
1173.48 1354392 1259872 1473682 1862750 1933616 1265032
1176.37 865478 1447732 1992326 2195862 1977748 1648142
1179.26 1410818 1730356 2122194 1878342 1702946 1824052
1182.16 2370536 1959628 2104078 2122716 2267960 2222438
1185.05 2233898 2148096 2672336 2604680 2920924 2993370
1187.94 3150664 3018550 3356894 3065298 2981234 2712788
1190.84 2480732 2402768 2727840 2917820 3130632 3175070
1193.73 3599470 3668614 4001384 4203390 4193062 3815700
1196.62 3667264 3704180 3821662 3657142 3847164 3842846
1199.51 4022418 4033508 4386978 4160370 3898348 3979884
1202.41 4457484 4500360 4266034 3896496 3754130 3358862
1205.30 3706018 4095490 3780842 3436862 3570054 3717634
1208.19 3841826 3460506 3345234 3379334 3419314 3647816
1211.08 4041302 3732742 3541450 3635744 4281262 4276120
1213.98 3627078 2417630 1822008 2056766 2737616 2554608
1216.87 2543564 3017980 3483466 3562530 3595598 3921602
1219.76 4792090 5073094 5614344 5920594 6083918 6087322
1222.66 6280334 6493014 6310792 5742802 6174006 6920392
1225.55 7046378 6375580 5852194 5611296 5712982 5747930
1228.44 5554998 5089312 4866446 4246558 4120710 3675318
1231.33 3146948 3225640 3163972 2949386 2744664 2415842
1234.23 2405968 1660024 1187118 1700258 2352586 1469136
1237.12 834398 708286 1437888 2018900 1998936 1679364
1240.01 2009862 2467420 2445658 2447440 2914142 2440568
1242.90 2357576 2743064 2991062 3039120 3104408 2909188
1245.80 3521334 4466778 4764852 4227308 3966116 4093332
1248.69 4338556 4710360 5344316 5451292 5424866 5594996
1251.58 5948482 6467922 7541150 8131510 8613526 8952930
1254.48 9867256 11282580 12414370 13260200 14571570 16092150
1257.37 17787350 19167980 21333800 23799880 25758930 27204420
1260.26 29215090 31687110 34416910 37101920 40389370 43481290
1263.15 47119530 51416910 55446320 59537740 64469400 69648530
1266.05 75315720 81293940 88088710 95033180 102546400 110446700
1268.94 118952900 127690300 137287800 147349200 158474000 170429100
1271.83 182883000 195517800 208139700 221373800 235870500 251036100
1274.72 267249100 284454100 302164400 320353600 339315000 359179600
1277.62 380131300 401377100 422982700 445504300 469331100 493453500
1280.51 518180200 543504100 569542500 595794600 622845900 649815400
1283.40 677353800 705314400 732680600 759555700 785814400 811790100
1286.30 837689200 862561900 887887200 912205800 935412500 956757400
1289.19 977376100 997357800 1016646000 1034142000 1046467000 1053824000
1292.08 1058985000 1063784000 1066458000 1067193000 1065212000 1058716000
1294.97 1046654000 1030387000 1008454000 982691700 954414300 920666800
1297.87 881734800 839703300 793164200 747091500 699117000 649724200
1300.76 611235700 564003700 482675700 389479800 312016300 256803000
1303.65 231399800 261529700 411186600 903679600 1494327000 1390935000
1306.54 882923800 542355300 357416400 313588600 384342800 492541800
1309.44 582542900 650553200 704252200 758780200 824362500 892402100
1312.33 959871400 1025280000 1087368000 1143000000 1191486000 1234057000
1315.22 1270356000 1299201000 1320770000 1333795000 1340258000 1342098000
1318.12 1337535000 1323838000 1302035000 1276594000 1248182000 1216289000
1321.01 1179784000 1139619000 1097191000 1051777000 1003826000 954100900
1323.90 903861500 854188600 811045600 771870700 724794900 672080800
1326.79 619104600 567431200 517845800 470638200 426412700 384741700
1329.69 346339200 310242200 276784300 247075800 219771700 188090500
1332.58 155354300 132751200 115204500 100361100 87362760 76698960
1335.47 68425670 63795660 59290900 54962280 72190690 127033800
1338.36 156547400 137595200 109686000 86474900 68795700 56217650
1341.26 47928700 41424300 36952500 34126350 32574230 31388160
1344.15 30933080 31209560 30451040 25797870 21159120 20796430
1347.04 21220860 22495060 24442440 28598520 31807290 32481520
1349.94 41964840 89350620 135178900 124141700 94678090 72527050
1352.83 59341070 51822210 47818300 44756830 43847670 43451050
1355.72 44117740 44685940 45011800 45614930 47651100 50987940
1358.61 52523960 45223340 39537320 40207780 43277720 49521150
1361.51 54726820 54598840 60925260 123888100 213777300 205056400
1364.40 147185000 106957900 85218490 74704140 69357340 65211960
1367.29 63560500 63502590 64272700 65447530 67267940 68090700
1370.18 68283970 69877440 73708310 74853880 60941610 42817790
1373.08 46092140 62692220 69864580 61175820 70816630 237575200
1375.97 523119200 505221300 304344400 173585500 109470000 81319820
1378.86 65793640 56746790 52678070 52276520 52905480 54257520
1381.76 56023150 58412540 59686140 61645130 65346130 70157500
1384.65 72152840 70174810 69089240 77039200 76649440 70504290
1387.54 81000050 212142900 415185600 376359200 220992300 135534300
1390.43 100589300 87740940 80298090 78067910 77890230 79864480
1393.33 80783660 83606480 85092550 87177260 89298870 93076080
1396.22 95266320 103512600 107597000 111293900 120882000 120741900
1399.11 103686200 97624310 128583200 352957200 577950500 439920100
1402.00 238434500 149501400 118613100 106161900 100036300 98381980
1404.90 98128270 98791670 98444520 100148400 100773900 104331100
1407.79 105675400 106770500 103973300 111101700 117304900 149566800
1410.68 180691600 158650000 108484800 99300450 311790100 1025183000
1413.58 1238173000 667049600 286312000 149281600 111335200 86046610
1416.47 87041500 80566100 87483020 84307200 92309390 90517710
1419.36 98526700 96363520 101835200 99141980 110875900 115455900
1422.25 134017200 152711600 149091900 124052200 121539500 151341300
1425.15 472618200 830818500 607974100 277072600 164106500 129454900
1428.04 120431800 114306600 118274800 116692800 121107400 118899200
1430.93 123802100 122961000 132119000 132810500 134144000 127488800
1433.82 133295400 147307900 181962300 162580300 142599100 135992800
1436.72 159985700 406917000 899107100 782989600 355695300 181776900
1439.61 141773400 125246300 123264500 119246200 122065800 117698100
1442.50 123700000 122021900 124211900 112998800 118427700 111079400
1445.40 119700600 141460800 226667800 191617500 132707800 112166700
1448.29 122439800 239384700 1299038000 1948668000 738099300 147570100
1451.18 127398800 129632400 109649400 120333000 110958300 121351600
1454.07 114030400 125292500 120737000 127005400 123008900 131307700
1456.97 124776700 129794700 137919300 174390200 171275000 148885900
1459.86 135955500 136303600 153701000 433741000 888619600 694653400
1462.75 289136100 174337500 144120100 143738200 137662800 141272400
1465.64 136033100 140742400 136911300 137978500 133841200 137085200
1468.54 131653600 132488200 134489200 162623500 171894800 148861200
1471.43 140840200 138076400 131303300 190581900 572137900 842605300
1474.32 462559900 186220600 130535300 133201000 122637500 127044400
1477.21 119159700 126802000 116004200 117754000 108799900 113737300
1480.11 103760000 109171500 108582400 159890500 173988000 132544200
1483.00 98010640 108451500 103876500 130073700 513557000 1294592000
1485.89 1016164000 308698300 116357100 101465200 123472100 131604300
1488.79 133237800 131689400 130144900 130443600 129450300 128334900
1491.68 125348200 126670000 129926300 152223000 150662100 132634400
1494.57 121059600 127442500 126331200 129273300 235046200 575550200
1497.46 555843600 227013600 121549800 107879400 109484900 115599600
1500.36 127514400 124748900 124123800 119527800 118052300 115036100
1503.25 113119100 111443800 119674300 130907500 118223800 105382100
1506.14 99332350 103815000 103927500 100794500 189353400 457073100
1509.03 412971200 150369800 83694750 75218970 77132780 70447620
1511.93 77620740 84787550 89732260 84238360 84279540 80147660
1514.82 80477110 87759640 109347600 97614650 79786300 70567460
1517.71 68467810 69580100 73059860 82746540 318676500 658483800
1520.61 403431100 99732180 61363900 55608990 56083490 51666970
1523.50 53572280 60725880 85639630 92552480 93722310 89505610
1526.39 94553040 97659420 94787330 85356330 84781650 79501270
1529.28 81381570 79322330 81491780 108396300 247576700 256972300
1532.18 112369000 69970120 66515930 65645240 61617720 60525110
1535.07 57374060 57500690 61056020 70045900 70982610 74247370
1537.96 74323800 70403820 65866220 63910060 60730280 58979160
1540.85 57267060 58881540 67066000 146311700 184514000 87552120
1543.75 45916590 42484660 42211480 38080210 37222690 34137100
1546.64 34371670 31525290 32969590 40168350 51659130 46292420
1549.53 42265560 38497600 37935580 35004530 35837380 33401050
1552.43 35442980 49541180 157666600 193709100 71427130 28688220
1555.32 26509610 26833570 24191080 24928460 22779290 23847830
1558.21 22258670 22732980 23838500 32913950 39454640 40984500
1561.10 38960060 38774780 37399940 37723710 35644630 35748970
1564.00 46112500 80562690 67692120 33652260 28239240 27366640
1566.89 26927330 25958680 25435710 24624650 24075770 23974740
1569.78 23853880 22298990 20818280 22740610 25018560 24644330
1572.67 23600190 22951560 22116620 22045900 23671750 40606550
1575.57 48442110 27265040 18359020 17393340 17004130 16065730
1578.46 15575670 14609250 13659270 13531430 13747000 12025390
1581.35 11040760 10951230 11326410 13539720 15265080 15171560
1584.25 14905700 14804740 16082100 32187820 43806480 22717550
1587.14 11209200 9691902 9232722 8971576 9264410 8882588
1590.03 8829642 8708010 8693246 8222638 8279782 8053540
1592.92 7859086 7892756 9156972 11595700 12403950 11493560
1595.82 12055140 16634820 17953230 12112800 10056410 9583750
1598.71 10129890 9745658 9548580 9571030 9941644 9280460
1601.60 8848702 8556524 8008210 7040030 6951128 6684156
1604.49 6592880 6641020 7305260 7575222 9241512 11860450
1607.39 10520430 7974816 8142378 8128968 7554812 6875164
1610.28 6847412 5983822 5592558 5350256 5362492 4991830
1613.17 4952056 4932194 5069334 4867162 5451666 5795380
1616.07 6792052 7244392 8624660 8048484 5524588 4777596
1618.96 4778308 4475672 4154426 4183476 4695134 4757342
1621.85 4664552 4559606 4760232 4735412 4131246 3872984
1624.74 4153058 4089474 4172686 3897454 3793570 4256320
1627.64 4777926 4380526 4479974 4100430 3891248 3638896
1630.53 3305504 3637692 4297332 3989936 3791342 3585208
1633.42 3394944 3459668 3849150 4122260 3574074 2047504
1636.31 2205148 2718128 2862122 2145384 1945098 1938376
1639.21 2198628 2467188 2510600 2357998 2351752 2188732
1642.10 2262968 2104314 2151518 1778016 1559370 1524916
1644.99 2315566 2766022 2301948 1802672 2319292 2088732
1647.89 1652074 1742224 1993910 1782022 1995954 1804360
1650.78 1373340 1548356 3137272 3565504 3525230 2548516
1653.67 1807502 1744348 1331932 1252894 1221152 893730
1656.56 1023650 1059106 1073938 1216646 1373440 1042394
1659.46 622458 346036 739584 810272 659132 1133328
1662.35 1731154 1292366 939604 551148 421576 614070
1665.24 724870 564450 1015044 1302418 973932 718174
1668.13 992176 1540638 1492116 609100 384270 438966
1671.03 861980 959840 882760 757556 706764 494042
1673.92 577794 1194324 1930188 1246808 555028 509658
1676.81 831510 716884 397408 242846 438078 533462
1679.71 652100 755642 792918 799648 623930 393638
1682.60 724570 920008 1248828 2113282 2405928 1296172
1685.49 1042886 576434 453362 522532 542188 557434
1688.38 807100 819382 732794 479064 403218-2780
1691.28-152796-119410 147972 250104 587042 766380
1694.17 700368 945124 2222668 2241384 934622 345830
1697.06 180802 122118 558882 448528 980750 1774856
1699.95 1918816 1579082 901142 255296 224142 289904
1702.85 194438 262080 763998 884168 792468 404456
1705.74 446052 391514 136948-30890 227570 346270
1708.63 407830 440008 535558 538546 339536 141148
1711.53 443294 673008 510600 305052 357270 421226
1714.42 970260 952624 342200 43558 1030712 2289472
1717.31 1712130 854002 761920 567538 749080 634798
1720.20 394282 549552 817402 400024 386462 483968
1723.10 671314 479710 49496-21712 256812 367274
1725.99 588638 620276 652368 252860 80124 344476
1728.88 592122 652716 639682 561886 599566 493172
1731.77 560998 657700 1343212 1359230 1342402 1687130
1734.67 1247778 638664 424102 371108 368904 499414
1737.56 557844 458612 296434 651294 1168230 991434
1740.45 827210 634718 422944 256860 555284 569432
1743.34 510780 640932 760368 594018 464614 431140
1746.24 749632 531744 496734 763334 832144 490062
1749.13 217350 228994 416000 866604 1090048 509882
1752.02 284040 520872 583026 812236 1029518 765938
1754.92 643464 580518 675544 732292 441648 382936
1757.81 398364 135448 518048 622016 296662 113612
1760.70 500450 946614 1005740 767588 905620 917624
1763.59 721564 537348 505654 316936 222526 213718
1766.49 235556 325100 752294 822778 548782 481456
1769.38 597640 479238 801346 927034 755528 983064
1772.27 1391418 1090734 792056 673166 570442 376780
1775.16 573746 482110 328592 403826 524040 373784
1778.06 497190 612148 532486 443556 313160 27452
1780.95-6774 318348 381976 113338 10586 14748
1783.84 228082 581304 849108 782248 688266 499736
1786.74 248646 96956 256106 222026 225524 298042
1789.63 651942 890320 917762 456512 475918 1102012
1792.52 1176946 426082 115178 214218 419122 274500
1795.41 362788 583014 666856 431724 106694-7638
1798.31 361594 641996 585364 427818 412134 74866
1801.20 27734 278062 462228 420118 494538 468260
1804.09 407290 245462 211824 245476 372708 204938
1806.98 223154 188028 366224 360460 479588 500070
1809.88 415006 149192 147226 350904 462328 487654
1812.77 596940 622064 392792 8444 327592 333336
1815.66 79402 76352 242534 262754 374140 502710
1818.56 519376 491250 583120 423478 491308 439224
1821.45 429932 293204 270998 222776 71680-405422
1824.34-283472-59542-321544-447126 40588 677090
1827.23 890882 738376 612712 419160 563668 539834
1830.13 532162 395886 424714 574584 690928 351828
1833.02 88148 307418 421420 342382 404560 671640
1835.91 1087694 1227764 1260134 775048 244134-190540
1838.80-276494-127954-144984-262604 79358 399394
1841.70 409018 173862 180572 277010 1086184 792988
1844.59 96056 90728 356636 339628 301618 548136
1847.48 574140 413784 529102 561998 818768 811126
1850.38 648978 658556 323346-222982-119430-284616
1853.27-380428-469682-282020 29316 472324 944932
1856.16 962564 555534 506440 515192 628412 566104
1859.05 334964 220960 334202 149578 470348 962458
1861.95 1113568 1141670 1051626 1074816 1498462 1431794
1864.84 939014 331832 147684-8214-133118-342194
1867.73-416172-431690 3890 94714 890854 1722454
1870.62 1854964 1685028 1703092 1425710 1373810 1466720
1873.52 1268202 1090032 1334374 1765112 2044980 2411090
1876.41 2760322 3198972 3721350 4185864 4472816 3999386
1879.30 3030932 2630478 2305022 2371144 2607988 2660702
1882.20 2365532 2460556 2647472 2932992 3361410 3972048
1885.09 4611118 4972666 4906764 4816086 4849958 4818246
1887.98 4898090 5072844 5463250 5687998 5919342 6089928
1890.87 6340790 6617892 7009046 7650364 7631782 7024036
1893.77 6816962 6705808 6889960 6614586 6045192 5910398
1896.66 6022088 5832960 5600438 5534182 5569698 6144604
1899.55 7176196 7340310 7365126 6892226 6413178 6142128
1902.44 6213848 6443570 6699250 6421334 5962458 5717082
1905.34 5556484 5408268 5606840 6066506 5591776 4221052
1908.23 3761120 3573680 3609718 4035518 4892264 6496348
1911.12 7459920 7228566 6692968 4726058 2728202 2191662
1914.02 3618466 5474500 5979062 5747278 5697734 5989996
1916.91 6739004 7362626 7661232 7786358 8170110 9016116
1919.80 9935676 10459760 11482720 12039430 11236700 10306950
1922.69 10372520 10304240 10217330 10049320 9920700 9441782
1925.59 8819448 8271968 7634010 7196228 6880148 6209950
1928.48 5892254 6171864 6304442 5618720 4777192 4295562
1931.37 3905780 3111896 2443870 1867480 1616902 1555662
1934.26 1455536 1306256 1129646 736488 482498 611964
1937.16 696240 345184 189466 70970 91582-98476
1940.05-202832-412472-491820-539232-549284-939748
1942.94-1284826-1199906-366114 634676 654378 102826
1945.84 135658 208306 263378 292262 47390 75754
1948.73 426894 347386 468164 548132 325900-57804
1951.62-237100-346402-118700 73652 65640-330192
1954.51-146138-23740-403886-835244-1104500-1502796
1957.41-1642236-1761288-1586494-1434904-565378 668386
1960.30 832956 622088 879894 717856 493022 256496
1963.19 303056 713112 1233934 1472538 1151756 227344
1966.08-149714-149074-134162-55922 289334 187734
1968.98 165798 159506 246872 262696 243118-98712
1971.87-580138-558978-331150-635564-690328-461880
1974.76 103830 541624 518700 397948 376554 413536
1977.66 480646 206624 491164 672994 625566 261544
1980.55 94268 78858 149924 230914 217258 245782
1983.44 590200 570584 263470-111882 52004 76410
1986.33-62804-293414-366734-418328-483422-764472
1989.23-602046-188606 412416 642794 422898 214498
1992.12 25376 87194 409194 709612 846620 600852
1995.01 489858 227520 231506 189134 158534-8406
1997.90 66720 286866 361978 607614 806534 432390
2000.80 284560 51720-7978-75912-262646-599708
2003.69-695196-922402-860908-645646 148452 732604
2006.58 758766 780972 857474 600724 561134 814110
2009.48 679648 202434 78830-91268-12680-30570
2012.37-145496 77290 439628 67712-97314-30574
2015.26 302118 329382 344582 265416-77932-180306
2018.15-37620 5916 90534-222304-180774-293938
2021.05-79286 262046 151194 115380 335890 292484
2023.94 117980-47266 347512 287776-126440-278288
2026.83-89124-195726-160032 285136 627564 205944
2029.72 87236 198698 197414-34844-112692 138350
2032.62 606660 486686-115704-380810-106864-242964
2035.51-276872-265092-324434-19238 436782 439980
2038.40 360880 147148 43184 40912 169630 54008
2041.29 188536 411564 245272-24360 89296 154454
2044.19 454098 481220 314822 342820 401028 146196
2047.08 5682 93058 192426-51362-104386 12190
2049.97 122678-101840-57342-1502-236628-320590
2052.87 146982 344092 512800 586698 791120 865902
2055.76 905908 790018 555706 451788 493336 265676
2058.65 509768 421560 336336 397218 261320 181218
2061.54 275014 331810 519608 518332 654046 534072
2064.44 187266-117526-213260-240356-178100-175392
2067.33 131870 503086 822976 605190 374074 431882
2070.22 395872 182770 143204 10264 98680 553748
2073.11 684794 394082 312940 433892 384134 197204
2076.01 113442-81430 469656 778334 644624 408764
2078.90 183806 393132 661294 579816 624884 813918
2081.79 755382 104422 60622 181626 192926 206456
2084.69 191330 496674 1112914 617196-262208-231718
2087.58 345554 343364-80178-50206 376962 1068694
2090.47 1172146 717670 496368 332740 479968 245584
2093.36 225520 605808 1498172 1004266 246720 170352
2096.26 301130 251304 424166 282852 772386 1524112
2099.15 774256 85320-70794-222706-43052-54808
2102.04 239336 1468512 1690900 778026 481672-36006
2104.93-5956 145830 101138 788132 1946146 1060664
2107.83 167404 46030 45862 85712 330378 490566
2110.72 1403950 2012120 1081626 394374 186746 94678
2113.61 180050 379032 964920 1996020 1338700 275060
2116.51 20666 205078 228024 283248 680814 1702308
2119.40 1652026 356048 251462 90660-145268-107840
2122.29 181904 1048944 1775700 708076 274584 259484
2125.18 309994 320424 331664 444604 1180914 847876
2128.08 135334 77224 331772 237566 160900 274214
2130.97 1085394 1030686 420270 166942 291176 506734
2133.86 584148 579318 923712 577004 130862 94780
2136.75 342974 528738 514794 495028 715358 662490
2139.65 690568 877224 622342 383446 538752 457240
2142.54 292604 232570 320414 149398-7790 37118
2145.43 469584 705234 968106 862760 736942 743422
2148.33 679656 385184 149628 409196 1132888 1055016
2151.22 881682 794808 569858 382890 574538 1251986
2154.11 1901354 1211674 660380 629414 587594 592076
2157.00 1113164 2043360 2382374 1208966 588186 496620
2159.90 732316 969036 1614498 2761080 2320218 1021842
2162.79 975580 1050252 1497514 1330466 2133208 2763582
2165.68 1983186 1369246 1433892 1440588 1251742 1746444
2168.57 3507098 3117152 1653610 1620390 1925754 1945736
2171.47 1841848 2755372 3651452 2647456 2222356 1873296
2174.36 1746534 1849020 2938454 4052112 3084656 2158480
2177.25 2140222 2318520 2545630 3259680 4736034 4302108
2180.15 3401498 3257544 3024742 3081676 3824534 4870068
2183.04 4431256 3235680 3162854 3116250 3209678 3625438
2185.93 4992540 5284468 4504456 4176574 4609046 4861034
2188.82 4619486 5441762 5342582 4116130 4099538 4484732
2191.72 4934476 5424256 6743750 7180428 6784264 6719978
2194.61 6623502 5806722 5394986 6100038 6117794 5049500
2197.50 4873348 5250022 5597970 6040740 6881812 7161746
2200.39 7567580 7835484 7766402 7230054 7171512 7361358
2203.29 7085838 7036324 7234416 7108504 7327204 7693110
2206.18 8557838 9375470 10131960 10730190 10710520 9410534
2209.07 8556734 8414050 9023148 9458978 10005470 10453300
2211.97 10887570 11070380 11826840 13638560 15738560 17180680
2214.86 17897900 14442320 9397302 7872404 8389756 8647736
2217.75 8768480 9231672 9683100 9964804 10385140 11269570
2220.64 12654510 14320950 15747790 15019630 12015250 10198310
2223.54 10032300 9832726 10098890 10599910 10965130 11697410
2226.43 12905180 13862150 15010470 16775430 19061920 20342370
2229.32 18126900 12928890 10692340 10946520 11772920 12733690
2232.21 13758970 14813880 16303750 18380160 20782900 23421590
2235.11 26750640 30352010 33771940 29403710 16711120 9884820
2238.00 9573356 10133380 10539470 10942220 11847330 12553380
2240.89 13270580 14279240 16060510 18556020 21497830 23989120
2243.79 22920120 15673830 11048520 10997070 11151130 11425040
2246.68 12183800 12445740 12808420 13768030 15111060 16954050
2249.57 19164220 21979200 25230020 27334240 21814190 13273770
2252.46 10939520 11673700 12324610 12940390 14066740 15070870
2255.36 16643600 18647200 21221740 24786690 29078130 34396460
2258.25 40803280 40326020 24526050 11355300 9705502 9966108
2261.14 10350150 10765910 11628970 12440410 13464180 14378900
2264.03 15653280 17154750 19053190 21624870 24680800 23159300
2266.93 15384260 10677960 10618840 11012710 11511260 11847060
2269.82 12399530 12918790 13487640 13922430 14828780 16190160
2272.71 18025760 20214280 23056560 22282950 15282460 9799380
2275.61 8938858 9671940 10585150 11182600 12086510 12965370
2278.50 14079560 15357660 16754110 18573970 21057210 24197480
2281.39 27641940 27245520 17969020 9090726 7182956 7469842
2284.28 8353116 9194168 10099890 10377440 10887200 11474060
2287.18 12166010 12446220 13170810 14117190 15272900 16046040
2290.07 13782470 9673240 8263658 8143226 8046834 8144936
2292.96 8615914 9607782 11158540 11805920 11617730 11158600
2295.85 11202050 11836820 12811740 13729380 13745800 10746160
2298.75 8212494 7673040 7292786 7035060 6718102 6575066
2301.64 7398152 8762432 9265254 10245940 12338280 15414560
2304.53 17540680 15352160 13826590 12827950 9414850 6351034
2307.43 5587748 5742988 6281882 6101834 5865820 5582204
2310.32 6170980 7625710 7827476 7823038 8946836 10429110
2313.21 10388430 10807960 12733180 13158520 9085738 6371176
2316.10 7030494 8717368 8007968 6532930 6777894 8822742
2319.00 8592924 7398180 8447116 10618510 10198540 8025424
2321.89 8386166 10616590 10068540 7644208 9920878 15637870
2324.78 15219750 8604476 7503006 10219570 9806740 7233940
2327.67 9020840 11786790 10280800 7982232 10621330 13016980
2330.57 9897228 6827994 9392430 10408370 7317100 7392674
2333.46 13771070 19661080 24139540 21165020 13707680 8299376
2336.35 5589462 9115996 11310410 8144886 7995030 11347170
2339.24 9896140 6834164 9382220 10998370 8151836 8130638
2342.14 10616700 9127462 7643716 11978300 18490980 20200660
2345.03 14558810 9629622 7912874 7277338 8146388 8079496
2347.92 7334478 6887302 7417768 8038860 7892836 7795294
2350.82 9143678 8925128 8509846 10336430 10504230 10660580
2353.71 17727090 25812990 24074730 16112130 12042040 10155000
2356.60 14060060 14711550 12622330 14433710 12829160 10262070
2359.49 13731810 12120510 11056930 14431150 13138130 12953240
2362.39 15408490 14304820 22068160 38699740 53334360 39819500
2365.28 15701650 11241670 13273940 11514430 12836310 12424800
2368.17 10923400 12378620 11139110 11957770 11292970 11062910
2371.06 12004800 11293390 12256870 11852090 14174130 19846340
2373.96 31238330 31873730 16600320 10278260 9870474 11053410
2376.85 11327110 10970980 9516100 9432374 9520648 9826170
2379.74 9776452 9607438 9600910 10527350 10635360 10693720
2382.64 11726560 16293940 28239900 36435670 22693450 10827330
2385.53 9506822 10211930 10996700 11145690 10744880 9461322
2388.42 8602654 8609922 9098994 9086162 8759538 9119326
2391.31 10204220 12015640 15592700 22875810 34214180 47516350
2394.21 48362980 25073170 9757222 9218288 9891268 10554980
2397.10 9800890 8977754 8569040 9090806 9256074 9250450
2399.99 8775350 9210614 9542670 10341170 10270660 11753630
2402.88 19497420 35569460 31877960 13739720 8633994 9063010
2405.78 9766198 10842690 10326890 8943160 8149168 7990960
2408.67 8136528 8321838 7850396 7807344 8285232 9386052
2411.56 9359790 9926436 15592320 30782890 29955300 12401220
2414.46 6470172 7002798 8727000 10129500 8873286 6797640
2417.35 6542552 6821778 6817538 6328162 5852166 6389256
2420.24 7002402 7151934 6371440 8167058 18493600 47445840
2423.13 48087580 15771630 5246846 5555200 7030800 7703170
2426.03 7606812 6361326 6553046 6403350 6568248 6557708
2428.92 6625694 6543860 6616444 6676346 6620374 6515552
2431.81 10406110 23510130 24469630 10185350 5833846 5172038
2434.70 5767698 6281242 6662894 6131946 5810542 5685958
2437.60 5902996 5786832 5703484 5120192 5394688 5943038
2440.49 5879306 5140354 7385840 18176460 19183520 7252758
2443.38 3886426 3647008 4514150 5244092 5369464 4368300
2446.28 4554454 4274756 4380040 3879582 4158584 4206808
2449.17 4262440 3922746 4188602 3745260 6513876 20157850
2452.06 25078490 10556240 4155640 3296992 3321998 2801822
2454.95 2984914 2557172 3924392 4195704 3804068 3367864
2457.85 4067342 3957702 4188750 4036810 4202136 3846050
2460.74 4817682 7135118 8694672 6823052 4861994 3668552
2463.63 3680874 3451580 3220932 2709842 3011804 3155394
2466.52 3599574 3303240 3701650 3467944 3512156 3275608
2469.42 3185454 2953398 3774832 4604956 5092306 4551164
2472.31 4372476 3880440 3600668 3173284 3357468 2777884
2475.20 2587056 3008704 3686166 3290938 3294702 2744256
2478.10 2888938 2642970 3118568 3285796 3215750 2246976
2480.99 2177026 2359578 2952894 2451368 2242618 2168612
2483.88 2427260 2215022 2746904 3379912 5083468 5184908
2486.77 4335302 3714128 3297976 2832346 3366848 3210280
2489.67 2996542 2627694 2771164 2411272 2713322 2451482
2492.56 2515376 2619980 2614604 2059058 2073004 1920012
2495.45 2114042 2091326 2647624 2689532 2720048 2732478
2498.34 2658718 2085014 2220062 2035418 2411258 2081046
2501.24 2127838 1657972 1621644 1370838 1437572 1862856
2504.13 2396506 2240610 2207442 2099074 2086906 1500688
2507.02 1533972 1243644 1111464 1121628 1561408 1401730
2509.92 1908116 2001150 1911556 1713276 1956128 1829652
2512.81 2082260 2069364 1904682 1738316 2323020 2284462
2515.70 2660296 2871660 3004780 2518242 2389842 2648064
2518.59 2864842 2932448 3399390 3048130 2729696 2292406
2521.49 1874206 1220400 1598838 1284086 692754 499066
2524.38 1031170 1063076 964500 302320 332600 339672
2527.27 575284 232590 246446 230050 314626-24948
2530.16-282390-354574 147640-49792-140780-200946
2533.06 587012 773604 324890-79546 153880-345046
2535.95-438754-396656 114928-395456-497120-243934
2538.84-33374-453108-182804 184724 86082-456242
2541.74 283698-184502-599054-314176 175448-449790
2544.63-106698-5894-397224-487256 338250-295804
2547.52-600954-308880-259034-700694-356880-39792
2550.41-31510-429084-283960-660652-456056-140026
2553.31 373882-331004-134282 99348 251802-167366
2556.20 673034 468152 607120 731918 796278-24360
2559.09 724646 1352678 1673390 1347810 1986774 1360170
2561.98 1474378 2276110 2549814 2129690 2987656 2900476
2564.88 2838204 2972598 3231028 2947546 4211068 4899062
2567.77 4535992 5106472 5806434 4880386 5426378 6338000
2570.66 6192682 6536980 7592544 7122314 7217268 8497106
2573.56 9132684 8989200 9952062 9798922 10083640 11235870
2576.45 11443010 10681610 11937840 12055450 11840750 12549710
2579.34 12937950 12853650 13634290 13790040 13879270 14213990
2582.23 14572710 13922010 14726420 14853050 14236460 14627500
2585.13 14723050 14145370 15200160 15111090 13884790 13612240
2588.02 13441390 12538260 12998550 12125000 11107190 10505470
2590.91 9629996 8322200 7947106 6603838 5660756 5244218
2593.80 3798090 2265890 2952194 3030202 5767408 12788440
2596.70 18233910 17365640 15561010 11399020 9082502 8558812
2599.59 8453102 8881068 9894134 10175470 11263610 12391160
2602.48 14859100 16826250 18819260 20843040 23119050 25157660
2605.37 27256840 27388060 27774920 28742810 29769270 30311890
2608.27 31167080 30309930 28871170 27521010 26343270 24173860
2611.16 22307020 21597430 22079820 22734820 23675670 23201380
2614.05 22604180 20973770 19419910 17650730 15784700 13354750
2616.95 10746230 8158106 6325634 4227620 2856198 1255074
2619.84 47652-964078-1475394-2326754-2529022-3580478
2622.73-3851514-4166282-3774058-3905220-4302036-4345352
2625.62-4257178-4712270-4714900-5132392-4493416-4484694
2628.52-4462030-4898430-5476084-5598148-5731052-6258842
2631.41-6087360-6112574-5477250-5431694-5193918-5490264
2634.30-5756484-5749738-5363360-5795056-5667414-5617082
2637.19-5620954-5863128-6203002-6142154-5224894-5206220
2640.09-5189818-4905420-3958294-4828758-4925988-5168946
2642.98-4867402-5082666-4866908-5070348-4829400-4910336
2645.87-4425488-4892092-4554678-4786874-4604528-4326286
2648.77-4133068-4353520-4254488-4633658-4324124-4175392
2651.66-3784454-3666774-3191068-2915224-2579018-2840300
2654.55-3149742-3384426-3230630-3248008-2624566-2956560
2657.44-2778820-2725658-2193548-1787746-1548648-1807506
2660.34-1580730-1795134-1309310-1216914-1081710-1169548
2663.23-975632-1189854-779222-272912 456782 495690
2666.12 1039496 433966-83416-453334 11264 188796
2669.01 36330-566928-144902 112580 653240 538280
2671.91 506348 229808 537670 386232 312924 115330
2674.80 121902-608174-698210-750952 1918 610194
2677.69 1239426 1983466 1818296 599022 540828 209354
2680.59 348608 500226 655788 2684 396742 197810
2683.48 32762 333620 936686 548334 637694 479668
2686.37 684490 166626 278580 577218 1058374 1068528
2689.26 1382956 1668602 2624460 2531180 1462620 638846
2692.16 955210 617110 701900 666126 740338 439920
2695.05 603386 578954 1048986 1038334 1229454 1064032
2697.94 1249872 830894 894956 1020420 668484 302002
2700.83 580980 178016 889814 1191598 1978270 1820772
2703.73 971594 457716 686154 497208 702814 1029452
2706.62 1416282 998584 802898 366016 706452 967784
2709.51 1466680 1312056 1601658 1470162 1744522 1744074
2712.41 2007308 2007422 2764386 2574260 3309734 4589342
2715.30 4340666 1636730 892232 919684 1167296 950630
2718.19 1154140 763202 804216 718040 1038112 902130
2721.08 1016686 1188004 1510236 942896 1073168 993630
2723.98 1226506 1170918 1454658 1079796 987314 530774
2726.87 764988 1171934 1085814 451196 700826 647694
2729.76 907486 398356 553820 462794 675186 252278
2732.65 379188 504848 745348 626750 1333504 1297284
2735.55 1285632 856088 1176754 1173004 1342036 1532816
2738.44 2598780 2938018 2955924 1956154 945056 444754
2741.33 686198 677072 963486 213206 1184764 1514404
2744.23 1554770 1247600 1259648 755202 906830 542080
2747.12 922760 1166110 1494734 1678914 2438608 2653466
2750.01 3062994 3109114 3676904 2137826-1900664-4246600
2752.90-2723474-1297262 301068 628532 1268892 893702
2755.80 876730 624928 880244 920678 1059852 522092
2758.69 636292 570094 1301802 1098412 1024014 822296
2761.58 1375874 1524084 2439720 3098466 3328068 1829330
2764.47 1207924 648242 945790 941220 1353548 1338306
2767.37 1587152 832576 727770 437062 1049578 974422
2770.26 1062908 678688 804832 492070 711548 941616
2773.15 1656166 1993902 2809670 2500492 2907948 1860826
2776.05 433570-1766692-3199528-3040856-1294418-157224
2778.94 791086 815402 1066900 546352 859212 657766
2781.83 862932 678812 969208 192200 538504 995672
2784.72 1908280 1683020 2370470 2689074 3681882 3531076
2787.62 2232334 726452 1024124 632862 1275664 1096708
2790.51 1081230 1093324 1081236 787342 1184458 785294
2793.40 992668 758818 1094344 918106 829044 433984
2796.29 1363222 1692638 2357610 2042178 2550478 2520982
2799.19 2713112 1962074 1115710-408504-1144384-3644344
2802.08-5129640-3734538-359404 1483718 1858724 1235330
2804.97 1456646 1371708 1781442 1377794 1831584 1920200
2807.87 2308710 1619580 2204478 2645214 3366380 3367568
2810.76 3144106 1858302 1976052 1165060 1315806 1974072
2813.65 3072826 3126360 3077158 2697742 3609796 3530078
2816.54 3557616 3520542 4097166 3900614 4356452 4981452
2819.44 5887778 5540662 6057800 5749266 6242918 6690878
2822.33 7293136 6781266 7535904 7598146 7818994 6940084
2825.22 7323882 6706624 4017504 359052 2692300 7463056
2828.11 12352730 15274330 18448290 20029840 21494710 22880020
2831.01 25239010 27288500 30476390 32704400 35336690 38234310
2833.90 42580600 45660610 50200520 54371250 58522500 63258400
2836.79 69529430 75057740 81616340 87489380 94593300 101133300
2839.69 108112800 114000600 121981900 129508200 135899900 141927200
2842.58 149029300 155776300 163042700 167765100 172691100 178149400
2845.47 184008400 188217400 190968700 192427500 195282600 200811900
2848.36 203581700 195630400 190208300 189447400 188771400 178458700
2851.26 169368200 169703200 170922700 163298600 155814400 147028700
2854.15 136199100 121576200 111539200 110769100 108771300 98646740
2857.04 100292600 99896380 106985800 131725000 121330500 108845700
2859.93 103822200 112891800 128593900 108953800 69815330 49323180
2862.83 53901570 67475580 80297940 90452670 101831200 112123000
2865.72 121776900 130247900 138652700 145564900 152037600 157991300
2868.61 163818000 167320500 171247600 173575500 176843600 178190700
2871.51 178994300 179307500 180081600 179628300 179064800 176762700
2874.40 173421900 168207400 162021400 157239800 159454500 160131200
2877.29 158727400 154686800 150621300 146364000 142991600 137571500
2880.18 132888200 127046000 122315400 117367000 113031400 107925200
2883.08 103876400 98548440 94428770 89730730 86252280 81574870
2885.97 76980780 72726340 70109150 65800540 61587640 57494960
2888.86 55191800 51367910 48649050 45789380 43797120 40835650
2891.75 37883150 33519260 30517560 27300890 27816750 27062310
2894.65 24841800 22317050 20829490 18314950 17088990 14891810
2897.54 13618170 10761790 7558584 2160244-563610 4465890
2900.43 11418890 11084730 9521710 7642058 7496514 6136750
2903.32 5620052 4481804 5155446 4119034 4651818 3537618
2906.22 3109998 2104534 2945168 3064094 3369698 1957770
2909.11 2142952 1945808 2778512 2792838 3842784 2476218
2912.00 2459406 2233826 2952658 855112 765702 1045874
2914.90 2298932 2201598 3098980 1952686 2486822 1406934
2917.79 2927694 3639518 4154066 3772284 5741618 5413508
2920.68 5409600 4830224 5080436 4338414 5094978 2071972
2923.57-929756-706776 5862874 10190290 12750400 12276900
2926.47 14711720 14788740 16147030 17104210 19011060 20038120
2929.36 23612610 25099780 28487970 30825180 34264750 36307640
2932.25 40883470 44130830 50014630 54507910 60991440 66392660
2935.14 73745410 78744560 87537040 95658620 106163200 114781500
2938.04 125565400 136478700 151155300 163332400 176386800 188871000
2940.93 205255300 221794000 241164000 258516200 279866800 300224000
2943.82 323126300 345756200 371584200 394697600 423127200 449905300
2946.72 476845100 498477600 526344100 563542500 611798800 654301100
2949.61 686717300 711138300 746544800 773313200 800516700 827273700
2952.50 857691900 887109100 920166800 950728400 979517500 1000337000
2955.39 1025846000 1038826000 1052440000 1063367000 1079711000 1090493000
2958.29 1108141000 1115830000 1110010000 1095929000 1081825000 1068287000
2961.18 1058198000 1024751000 1019572000 1029164000 1026425000 1002843000
2964.07 946114400 827180700 767578600 745164000 784349400 805666200
2966.96 750696500 637040100 617732700 618190100 846386600 796302800
2969.86 779158000 893247200 666441000 606252600 480143400 538447700
2972.75 797483300 737207100 564858500 614128500 717762800 776717800
2975.64 763999900 778095500 831893600 938377800 1031992000 1047986000
2978.54 1059465000 1088033000 1108788000 1141089000 1166004000 1195963000
2981.43 1223890000 1237020000 1237022000 1238603000 1221341000 1215033000
2984.32 1206823000 1198530000 1183942000 1172302000 1164185000 1177451000
2987.21 1139738000 1081730000 1046902000 1018979000 987850900 956126800
2990.11 919876200 885464300 852651500 818585500 779066200 741953400
2993.00 707658900 676710800 639714600 602917400 577690800 569095600
2995.89 593633800 580397100 498428100 450677600 422890300 404455900
2998.78 378948300 355424400 332742700 315045900 296322000 280353400
3001.68 256350100 235242400 218756400 208222100 195272700 187082700
3004.57 190001300 308104700 406553200 260103700 147426900 131881500
3007.46 135983500 130652600 113777500 105272200 101575400 100162700
3010.36 96154960 90193830 85348060 80514100 77120700 76411430
3013.25 74072480 79277980 152081300 248173200 169417200 78804690
3016.14 64434190 70047980 70709700 60225760 60079920 65025280
3019.03 68773700 69560590 66100380 63995500 64974320 66589180
3021.93 66044700 62561860 67618770 158711400 298515500 207570500
3024.82 77983590 59487360 67463070 73423860 63190820 59906740
3027.71 58808620 62782350 62215580 61507040 59693180 62119470
3030.60 63265460 65244100 58518270 74920300 317151300 657088300
3033.50 403716000 96670090 56266840 77986920 87766470 63983810
3036.39 55448030 57442660 61853640 60123450 58361440 58071940
3039.28 59075100 60276710 61078880 63342760 87347360 268820400
3042.18 439757000 239326500 82012660 68526050 85144200 86148890
3045.07 76931480 72300460 71511360 69165590 70222820 68786900
3047.96 71684900 71435830 81493650 83722570 80270920 125130500
3050.85 378139100 463662100 191595500 76166860 72493790 93000830
3053.75 81615300 71222180 63540680 67788300 61689430 65778790
3056.64 60595100 68442350 62399390 70878330 69829460 83490000
3059.53 326832300 894595300 693127700 166676000 72040360 93180900
3062.42 119293400 80359390 67003750 67402610 74752770 69541100
3065.32 73019700 72254180 74704090 72486640 79333700 79768950
3068.21 114232300 353894300 510621100 237219800 90127840 81570240
3071.10 104646100 95118080 85324910 75090860 80381620 73481580
3074.00 79135950 77869620 84108980 72384850 82120580 81074590
3076.89 90076390 220697200 479724300 334465000 104772200 67870330
3079.78 88300540 92596250 78871380 65689660 67867110 62120490
3082.67 65734010 60195340 66964490 57466420 65288040 62574130
3085.57 73414590 218355500 703395100 653983000 180323800 60807990
3088.46 76174340 112088700 94531170 78658830 73055620 75317990
3091.35 73991870 75307630 76453700 73969820 73758220 75977910
3094.24 78597070 123230400 322796800 345525000 134522600 68030540
3097.14 69722780 81796230 74708300 74829860 72720860 72592340
3100.03 69159690 70150260 72340380 70084950 66844460 69420520
3102.92 71672930 111124800 260983200 263749400 107047900 56431100
3105.82 55613210 63371550 50935160 44605040 48517550 56288800
3108.71 56335100 54648910 54459090 52680280 52446790 53809790
3111.60 55638220 144759000 395395500 326333000 82630230 42953480
3114.49 48508610 60765580 41832530 37730490 35779000 52941030
3117.39 57208320 60643190 56297870 57310200 54262840 58182640
3120.28 56609010 115702100 188490400 120250000 49958870 47875000
3123.17 49217950 49879050 41353900 41829340 37077420 39545720
3126.06 41466030 47828610 44328910 45031030 41825490 44226610
3128.96 51853380 113377700 119056000 54860910 33305650 34990610
3131.85 35655880 31869470 27502960 27241840 25861540 24513630
3134.74 24289180 29427780 30360510 30138920 29844960 34729190
3137.64 92399770 150636700 76982690 25926590 23224550 27963740
3140.53 24482440 20569180 17993400 18450400 16330790 16205010
3143.42 15425560 20162490 25934460 28747880 27262360 40672190
3146.31 63380910 47810200 25148090 23632290 23216640 23882360
3149.21 19770350 18603080 17238290 17351790 15374630 17182520
3152.10 16259590 16875730 17388160 19514200 25336650 39050560
3154.99 29171790 17079000 14715740 15672140 15030670 14079490
3157.88 12132250 12063180 11156350 11739120 10495540 10166840
3160.78 8493040 9540238 10467450 22426690 35789520 23036820
3163.67 10038240 9535864 9228482 9039418 7349090 7912250
3166.56 6990518 6952072 5860584 6673620 5781152 5717716
3169.46 4837076 5550994 9578018 14088870 9843068 8590826
3172.35 7768334 8900708 7943188 7905030 7453460 7375686
3175.24 5605538 6066770 5441930 5628210 4601632 5486008
3178.13 5847196 8702440 6675350 5392174 5180876 6279594
3181.03 5349682 5012356 5000276 5596020 4268490 3901994
3183.92 3054598 4386964 4763730 5262022 4585532 6600074
3186.81 6146890 4620492 3425564 4191784 3665442 4085394
3189.70 3452592 3647040 3360848 3547852 2463062 2709082
3192.60 2258594 2862940 2690514 3506050 2469360 2650522
3195.49 2684536 3586720 3097076 3165486 2408812 2850718
3198.38 2305970 2711570 1706040 2288684 1898912 2334272
3201.27 1917784 2300734 1787948 2087184 1605000 2271650
3204.17 2106596 2967076 2028320 2312522 1884954 2842498
3207.06 3134912 3673692 3123130 2819836 2183576 3091156
3209.95 2738808 2804490 2297098 2518476 2312546 2577120
3212.85 1930596 2266336 2544284 4219444 3912924 3272178
3215.74 2676626 2928820 1941348 2055030 2040938 2945122
3218.63 2640604 2571650 2628334 3280440 2840560 3169606
3221.52 1855566 2081168 2104046 1668564 766632 1545890
3224.42 1400332 1412746 741122 953910 871180 1121614
3227.31 361608 214244-48852 441688 311940 552510
3230.20-110654 965480 1239614 805832-222890 295662
3233.09 440264 572958 287968 609638 13188 373400
3235.99 330030 390674 113624 398642-258320 90786
3238.88 176274 1063972 1216864 1524380 1183306 1402842
3241.77 384144 157624-259622-227722-785604 91554
3244.67-354160-396420 482902 1198042 583536 864866
3247.56 637692 783164 191074 222284-270584 577584
3250.45 488392 758912 1064486 1176232 181838 917056
3253.34 776404 1064326 797288 404118-283440-46618
3256.24-286352 377776 215510 391104-46568-175666
3259.13-544614 391956 935786 1404374 207788 350214
3262.02-217972 94526-48076 741102 767272 271518
3264.91-484378 246306 453120 1289772 1048294 333206
3267.81-253568 594376 154360 99332-274048-130346
3270.70-184702 826718 1040832 1210768 457532 693736
3273.59 395716 482128 305488 927508 884718 473310
3276.49-334180 412228 1137168 1109404 233558 337512
3279.38 108618 66506-307268 260434 430846 474608
3282.27 410894 1072944 888128 1022420 125512 420600
3285.16 417616 100724-521994 528094 946518 1134036
3288.06 436932-175956-470144 152226 381914 1153268
3290.95 1064344 990066 177030 85874-252618 353714
3293.84 519264 683442 252556 746646 700866 753332
3296.73 705814 530964 395906 748582 32974 731878
3299.63 1087684 936150 458444 403190-412758 33846
3302.52 528132 1124886 292776 86284 347042 653294
3305.41-235494 131330 431146 295054-674198-777538
3308.31-22434 235526-197120 475650 355888 604990
3311.20 820060 999506 1176800 1615196 796538 511206
3314.09 518322 1086538 772672 821506 194956 253854
3316.98 642584 1291784 268792 88826-390656-162064
3319.88 517566 931128-124148 291254 554268 747080
3322.77 423060 452660 357944 1065592 651596 742770
3325.66 1055122 1039994 368172 810516 545096 313520
3328.55 367302 31086-229598 996404 229594 302704
3331.45 700200 1628460 902818 753602 875362 774692
3334.34 777758 883982 339126 765426 384984 772264
3337.23 1127540 1350748 584490 1050204 1649784 1464202
3340.13 160322 669588 487412-230256 178290 1247240
3343.02 735428 1083256 1244916 594764-548160-270762
3345.91 179274 964044 41300-271288 510220 949716
3348.80 603458 451080 462662 760690 840162 950818
3351.70 503292 444490-110580-154564-438760 487286
3354.59 1160684 1639530 556312-544294-675512 209182
3357.48 595674 435454-277406 143624-119724 323680
3360.37 266176 358000 558446 780342 562872 532588
3363.27-346398-96106 294338 982666 1145146 717838
3366.16-368356-287328-568338-206508-574602-305372
3369.05 606562 1183294 615162 396560 215134 702512
3371.95 660612 607160 260922 287538 1298776 1260990
3374.84-128634 249650 626788 562782 102648 1007504
3377.73 966606 1187172 957672-200374-701876 326002
3380.62-119034-235148 859566 1770984 1609726 1750030
3383.52 898790 303742-537866-345814-510668-59544
3386.41 612496 1181382 728930 788098 641356 912516
3389.30 942412 1008240 981054 1728318 641568-145154
3392.19-237876 209198 682352 1463648 1296766 558110
3395.09-496810-301984 712154 1822426 1068382 861182
3397.98 570360 482556-446656-740780-177734 509180
3400.87-175776 370524 893966 1243648 962164 228562
3403.77-2098 634476 722162 1567614 1319194 1180602
3406.66 892874 1216508 773650-57332 477056 1240728
3409.55 56542-353884-47332 613428 946482 888476
3412.44 506452 889838 184956-332836-194118 401302
3415.34 273606 343838 261460 683176 861246 1284270
3418.23 493570 29752-28222 429132 425966 293552
3421.12 464708 1097492 366526 393140-40188 415100
3424.01 1433650 1207538 81640 649938 691484 842626
3426.91 347066-540022-450772 816942 607542 791164
3429.80 1033776 857860 313480 811234 1026402 1026618
3432.69 1042190 1285960 422298 710400 500294 555130
3435.59 177270 199288 423390 541394 1011146 744958
3438.48 367458 1782530 1612262 817174 958276 1312474
3441.37 1066010 1135200 1365932 1529956 1189302 1829282
3444.26 1826886 924442 209908 1024770 973566 503920
3447.16 885194 1461884 1546886 2301536 1777878 994532
3450.05 1484660 2294378 1758440 807774 345606 1619888
3452.94 2437418 1742294 992102 1821888 1970914 1407216
3455.83 902250 1404574 1105016 1666028 1975824 2213078
3458.73 2333888 2427884 1974034 1859982 1237124 603990
3461.62 193472 1446362 2247474 1941182 1639148 1657196
3464.51 940662 1468096 1723438 1150524 527402 812784
3467.40 1229050 1173562 439524 131482 787562 1914570
3470.30 2270080 1996476 1167370 1368782 1036056 1215732
3473.19 1451656 2376888 2866360 2555652 1242944 649136
3476.08 749630 2095638 2700838 2567294 1838172 1654956
3478.98 1859636 1613384 705766 515078 584084 1162796
3481.87 1504526 1506310 222850 127274 610634 572848
3484.76 1170098 1553910 1219382 1841638 2139590 1585612
3487.65 898626 970924 570572 776084 965400 1146522
3490.55 1043658 760778 1108738 1405786 1162808 1355264
3493.44 1122574 653452 805214 975240 650828 983546
3496.33 229866 478042 1085038 736066 383496 1103550
3499.22 1250660 1097380 626834 885496-11812 427908
3502.12 1083356 1170132 1494380 2161074 1500258 604012
3505.01-219896 67546 240426 466632 389754 695630
3507.90 1259006 1656706 778822 354548 667528 773598
3510.80 469544 855572 639844 1152554 1500854 1109300
3513.69 913976 1004954 692226 543756-134220-235524
3516.58 184946 1406120 1585590 1531222 661272 673348
3519.47 1217684 835612 630942 937836 1135122 1443446
3522.37 1555472 1654774 1424096 1506964 434586 40926
3525.26 794676 1076026 406436 464820 489334 760666
3528.15 708972 725644 1382502 1965602 1472008 2069498
3531.04 1993196 1126716 1374844 1927994 1755284 1227176
3533.94 622718 645410 564122 1067030 1172326 1524658
3536.83 1442126 1608514 1365204 1224202 764232 1341640
3539.72 1721506 2103428 1841202 1489944 1445924 2071032
3542.62 1944372 1747000 2169340 2798860 2958880 3203004
3545.51 2998594 3273840 2764966 2220268 2242522 2726652
3548.40 3379984 3317274 2703574 3253500 3943784 4005548
3551.29 3455814 3986514 4634600 5191916 4457154 4800124
3554.19 4645278 4004280 4660270 5994532 5898908 5785368
3557.08 5551402 5680260 5358102 5735996 6594526 7203356
3559.97 7564114 8219378 8093204 8447924 8457986 8726756
3562.86 9040160 8770344 8535750 8139594 7672416 8355482
3565.76 8525820 9040940 9549218 10180460 10362760 10458090
3568.65 9966860 10003870 10087880 9349492 9409700 9721998
3571.54 8830808 8942014 8609566 8565102 8749276 9164314
3574.44 9591684 9394072 8600196 7765320 7184878 7870474
3577.33 7978824 8105670 8089442 8216096 8638198 9350222
3580.22 8915174 8600062 8694212 9924794 9912884 10709770
3583.11 10078530 9130144 9324720 10192480 8965478 7650690
3586.01 8687548 9465754 8960860 9579354 9889288 10190200
3588.90 10229100 10587320 10836580 11233270 11166590 11352670
3591.79 10834500 10634480 11024420 12035320 12623970 12296220
3594.68 12132410 12375390 11152630 10632910 11577130 11996860
3597.58 11308790 11551120 10829970 10295870 10276810 10137590
3600.47 9730658 9669480 8821954 7950040 7654910 7972286
3603.36 8115896 7834796 7184944 6953054 6645192 6460964
3606.26 6741506 6214498 5155750 5722172 5709674 5279072
3609.15 4272676 3327802 2927750 2406886 2731870 3103554
3612.04 2559820 2641860 2056134 1607068 1956484 2879720
3614.93 3004676 2376814 2294086 3099152 2898508 2545480
3617.83 2236354 2140678 1998836 1648446 1545346 1912780
3620.72 1651192 1145152 1617660 2466880 2039202 1651262
3623.61 1838794 2580950 2424368 2156568 1858074 1756180
3626.50 1719420 1851630 1669460 2238924 2383004 3219914
3629.40 2736530 1988728 2367150 2657782 2252466 1585996
3632.29 1327156 1651858 1603988 1915044 2261550 2654954
3635.18 2944112 3110950 2695334 2527992 1684496 1149806
3638.08 1036644 1389526 1829394 1923848 1955010 1954812
3640.97 1649490 2003724 2542478 3416604 3542520 4108364
3643.86 4239426 4186304 4284082 4269692 3745608 3330134
3646.75 2726378 2682252 2457588 2884362 3272552 2771776
3649.65 2085822 2182948 2671866 3181178 2394136 2622608
3652.54 3257912 3901668 4091888 3526142 2945452 3621020
3655.43 3288012 3178830 2873228 3228422 3206408 3269630
3658.32 3148794 3089356 2733480 3076854 3519958 3737912
3661.22 3694742 3909220 4153846 4634796 4466448 4472040
3664.11 4433546 4171870 3842846 3425646 3200148 3368298
3667.00 3034274 3007684 3620778 4109444 3473116 3967824
3669.90 5439900 6731902 6703030 7070172 7471172 7127422
3672.79 6373224 5272676 3626752 3776376 3772200 4099472
3675.68 4333530 3718190 2961870 2782828 3091202 3258742
3678.57 3440654 4394418 4333468 4519532 5223408 5563224
3681.47 5230376 4859288 3574154 2396456 2211716 3140948
3684.36 3070068 2820508 2569230 2682726 2715060 2705898
3687.25 3578326 5518708 5424190 4354824 4125594 4712134
3690.14 4796984 4753560 4505418 4687974 4793104 4109614
3693.04 2766890 2756482 3013658 3515802 3836464 3820596
3695.93 3495200 3750168 3924618 4453908 5407664 6134868
3698.82 5523772 5228022 4006232 2496478 2429372 3422660
3701.72 3558768 3200256 3085234 3036050 2747724 2747216
3704.61 2658260 2702674 2733972 3382726 3780900 3516746
3707.50 2374368 2199480 2260458 2878744 2802134 2545456
3710.39 2263580 2618528 3810260 4314632 3435790 2346848
3713.29 2125364 2895530 3080110 2889284 2378414 2309200
3716.18 2704530 3361362 3028734 2273264 1920542 2174540
3719.07 1814534 1651970 1616272 2026936 2458710 3150076
3721.96 2678238 2721508 3278386 3438108 3255874 3417674
3724.86 2977334 2003896 1552718 1712250 1497308 813754
3727.75 500338 1370068 1986488 2014288 1667598 1875452
3730.64 1853872 2637108 3456010 2764568 1924280 2141702
3733.54 2150806 2045034 1637700 1993282 1834570 2446044
3736.43 2914836 1976522 1351450 1720112 1593708 1770962
3739.32 2373008 2298748 1898316 1848252 1659104 1797216
3742.21 1121328 879014 1463538 3058942 3844374 3029688
3745.11 1742102 1470870 1174382 1342984 1765592 1651866
3748.00 1475782 2982468 3823058 2436300 878628 563914
3750.89 1222296 2663204 3138432 1833136 741102 549720
3753.78 618652 1248344 1285934 1543424 1473182 1913448
3756.68 1552956 1182732 918832 736268 1121644 1734346
3759.57 1186374 852966 1174038 1292188 1334246 1342742
3762.46 1648796 2531410 2155274 1283498 1033050 1454796
3765.35 1734054 1568486 1539234 1609890 1427850 1547302
3768.25 1002496 1060498 1619928 1312452 786598 1186114
3771.14 1439984 1491420 1695774 1357944 977730 1177614
3774.03 531774 534798 954420 1163386 813914 860574
3776.93 426494 906008 1488464 1914842 1974548 1704524
3779.82 836292 410312 969904 2112094 2343246 1910586
3782.71 979974 743938 1088316 1192218 1142258 1554240
3785.60 1599748 1357080 875272 814398 2231026 2573420
3788.50 1899390 1914122 1477872 1298158 1047178 1702338
3791.39 2033110 2029826 1786846 1898214 1788604 2108676
3794.28 1813594 1621946 1675740 2472096 2194910 2247236
3797.17 2412496 1798724 1388982 2998716 4053974 3174742
3800.07 2354286 3007828 3384510 2489070 1552546 1630374
3802.96 1733452 1879016 1706040 1592148 1708574 1933342
3805.85 4897038 6558994 2949778 1763938 1965448 2038288
3808.75 1763654 2033438 1916654 1912682 1633734 1495310
3811.64 1882326 2407640 2625826 3369778 2601522 1986348
3814.53 2486320 3687902 4306766 3043004 1993818 1655276
3817.42 1510126 1663624 1901674 2689224 3179334 4195306
3820.32 4174244 2587738 1913754 2100276 2174944 2652170
3823.21 2147830 1886604 2283780 2325110 2226328 3014154
3826.10 3818238 5691658 4800702 2623908 2370934 2629808
3828.99 2312420 2411978 2284880 2212618 1898522 2206562
3831.89 2789074 3787382 4031750 2819798 2306792 2780318
3834.78 2883610 3178888 2547464 2165090 2634588 4567400
3837.67 4588636 2980802 2756290 2721706 2919012 2940160
3840.57 2964172 3227124 2918816 2534940 2692406 3269336
3843.46 2377480 2042042 2336802 2528452 2445232 2914286
3846.35 3454326 3449054 3623702 3733348 2966578 2701516
3849.24 3241862 3573688 3469746 3650174 4591386 5735412
3852.14 3985882 3311422 4172588 5706954 5315272 4458016
3855.03 4250774 4479874 4686056 4538678 3790466 3859754
3857.92 4032096 4228400 4204126 4015440 3375056 3862434
3860.81 4336256 4723966 5012060 5186162 5462432 5794586
3863.71 5061842 5268570 5316470 4771988 4361336 4008606
3866.60 4265426 4741812 4806216 4419420 4194736 4878116
3869.49 4769234 4577116 4140402 4351556 4648416 4372326
3872.39 3143592 3005478 4553486 6047628 5700438 4525742
3875.28 4059766 4199580 4306372 4514412 4401592 4813608
3878.17 5297738 6189562 7517306 8145762 7106192 6609216
3881.06 6640282 7047630 7632866 7999914 7843228 8311786
3883.96 8674338 9371112 10373290 11193180 11252030 11426990
3886.85 11670360 12029430 11354710 11096430 10983420 9998946
3889.74 9059658 9019188 9382882 9050746 7009452 5548316
3892.63 4265330 3259362 3295436 3406452 2889758 3181926
3895.53 3605172 3414066 3328018 3673450 3955332 4718176
3898.42 4615524 4131632 3486088 2452040 1472468 1456770
3901.31 2420364 2887588 2605182 3041438 3758902 4869010
3904.21 4715010 4504380 4265866 4686478 5181268 5175802
3907.10 3601096 2106868 1935394 2476008 2895710 3191384
3909.99 3022804 2881694 2992152 3969716 4289178 3963472
3912.88 4268452 4544620 4898796 6789250 6454744 4231116
3915.78 3042164 3203650 3470980 3039124 2440030 2356048
3918.67 2424418 2480408 2819112 4076336 5425176 7657696
3921.56 10767130 11008950 6340448 3238892 2722372 3042916
3924.45 3619448 4053418 3137706 2940474 3240554 3518564
3927.35 4120478 4942798 5691528 6531082 4915002 3024178
3930.24 2592394 2447960 2860702 3331498 2533786 2440218
3933.13 2953538 3575788 3791316 4310446 4943374 5994458
3936.03 5812654 4737762 4754116 5323832 3885762 2876724
3938.92 2497490 2912734 3576260 4738396 5260096 6363358
3941.81 6557288 4555090 1938382 1785950 2771506 2773582
3944.70 2729932 2683514 2495138 2850614 3068508 3195492
3947.60 2943190 2969982 2718484 3448656 4355384 5199106
3950.49 5204386 4224970 3813980 4416148 3983368 3239366
3953.38 3145706 3502866 3351068 2889478 3287048 4441840
3956.27 4571642 4555594 4663008 4355218 3544442 3187156
3959.17 2983036 3056252 3901576 4135556 3915106 4220516
3962.06 5006018 6925964 7966288 6873812 5102960 4360788
3964.95 4991612 5221666 5450236 5656562 4998190 5322668
3967.85 6582068 7563268 9067902 9446222 8032474 7077580
3970.74 7667928 8216440 8723702 9843962 10389580 10323370
3973.63 11330960 12946860 13198410
##END=
