##TITLE=Ethylene
##JCAMP-DX=4.24
##DATA TYPE=INFRARED SPECTRUM
##CLASS=IUPAC A
##ORIGIN=NIST, Anayltical Chemistry Division, 301-975-3108
##OWNER=COPYRIGHT (C) 1998 by the U.S. Secretary of Commerce
##DATE=98/10/1
##$SPECTRA VERSION=1.00
##$UNCERTAINTY IN Y=2.1 % relative (B=1.1E-04,C=8.5E-10,D=2.7E-14)
##CAS NAME=Ethene
##CAS REGISTRY NO=74-85-1
##MOLFORM=C H2: C H2
##MP=-169.15 C
##BP=-103.71 C
##$NIST SOURCE=QUANT-IR
##SPECTROMETER/DATA SYSTEM=IFS66V (Bruker)
##INSTRUMENT PARAMETERS=KBr Beam splitter; MCT Detector; Multipass cell
##STATE=gas
##SAMPLE DESCRIPTION=Ethylene Primary Gas Standard
##PRESSURE=101.3 kPa
##TEMPERATURE=23 C
##SAMPLING PROCEDURE=1 L/min Flow
##RESOLUTION=0.9640
##DATA PROCESSING=Boxcar Apodization
##XUNITS=cm-1
##YUNITS=(micromol/mol)-1m-1 (base 10)
##XFACTOR=1.0
##YFACTOR=9.0949E-13
##DELTAX=0.4820
##FIRSTX=575.169
##LASTX=3975.077
##FIRSTY=2.68E-07
##MAXX=3974.59
##MINX=575.17
##MAXY=.0012863
##MINY=-6.40E-06
##NPOINTS=7053
##XYDATA=(X++(Y..Y))
575.17 294908-763852 116136-595488 149110-288098
577.58-32156-1206144-624314-701366-77260-1008656
580.47-125100-494970-29032-712938-214472-595676
583.37 24728-659430-66556-757656 21798-778642
586.26 237456-935122 161480-760766-107322-929664
589.15 6804-917498-243858-536590 50356-795408
592.04-131986-806814 12216-762436-140608-676008
594.94 41854-457690 291790-755110-70012-627266
597.83-146854-802828-130198-586696 99864-734048
600.72-149822-652992 34428-612732-21478-467418
603.61 165628-766198-3684-610020-37994-628832
606.51 60688-702464-57442-652592 209094-862352
609.40 112822-542008 23930-631154 86624-655258
612.29 158200-532418 169352-628328 106454-666074
615.18 56430-680918 306224-506768 222274-653860
618.08 90690-595620 289950-607674 95566-586736
620.97-62380-591118 238278-518172-86126-559464
623.86 213386-612930 157496-629954-3476-704060
626.76 200638-491660 92724-724840 62554-517196
629.65 74250-693124 243384-707124 276308-584474
632.54-86278-650152 118214-574018 197198-743102
635.43 37844-404156 362004-633150 106582-654524
638.33 155138-650206 214410-615778 146516-596166
641.22 184922-761412 256790-527814 154476-646800
644.11 296264-565196 206280-589046 299732-381552
647.00 178378-527046 150476-548228 232020-715376
649.90 200704-483682 242576-661950 121944-511322
652.79 244768-524546 158668-619156 144356-519430
655.68 202202-575920 366564-591310 200870-519244
658.58 376864-423520 174096-680198 357268-565036
661.47 156884-579346 251578-495940 104092-599162
664.36 241282-413794 163686-540450 312116-258408
667.25 695958-560214 302952-448452 557190-621152
670.15 288960-533002 768976-590690 290476-680030
673.04 914404-348154 322676-537784 636752-356216
675.93 300304-578508 454444-322778 113082-520470
678.82 344492-164868 252656-495820 248674-116028
681.72 318512-685098 196810-75880 526728-467094
684.61 217544-97322 886534-688190 418856-472822
687.50 857570-764476 525370-611368 980576-634592
690.40 475514-523290 819980-249132 274228-468732
693.29 826506-132686 436184-415782 1043760 89790
696.18 458182-309078 880010 476594 394732-148854
699.07 464266-257506 106522-236556 474656-103044
701.97 207898-420150 706450-90692 510704-550772
704.86 915740 81162 749956-518620 708802 447612
707.75 825290-191176 393886 534958 1179484-533380
710.64 456404 166808 1176800-757168 849136-217656
713.54 1856696-694172 863914-504706 1783132-452752
716.43 551762-11066 2131820 546222 1091522 66050
719.32 2015176 304708 845466-410400 2079558 518472
722.22 880456-447582 1158706-702126 921334-206920
725.11 1282316-134824 614932 352216 1289620 572164
728.00 505512 763728 1574046 686180 462810 132296
730.89 1566064 451212 877742-279320 1995052 603236
733.79 1078452-422096 2139474-159186 1130068-84242
736.68 2293998 962444 1262446 772540 2450420 2237266
739.57 705390 126086 1200528 1691832 246930 38924
742.46 1107218 1844204 869968-238000 1520916 1780918
745.36 1533786-266756 1698184-93648 1940518 309612
748.25 2267266 529268 1902456 159128 1221188-31118
751.14 754206 325096 1219130 438134 578268 744734
754.04 1521386 1090036 653080 1221050 1854920 1810924
756.93 1360428 2123812 2570376 1798218 2486296 1460008
759.82 1328212-228690 851708 11272 1724374-253588
762.71 1017334-42386 2059096-464292 1727120 183428
765.61 2497350 22044 1981456 1037700 3581890 859642
768.50 2859096 379506 803088-723194 1152170-250670
771.39 807766-338188 1105762-144358 1141140-65650
774.28 1538622 598432 1897546 966704 2491964 1926376
777.18 3139712 2647428 2951292 208856 810522-9026
780.07 669184-389338 770434 64282 671024-448642
782.96 707208 335410 961006-353256 1281578 1627126
785.86 1834656 822614 2595302 1314946 867636-430714
788.75 1011074 121194 743526-307612 791876-459880
791.64 947384-234814 876146-155732 1172154-356526
794.53 1339742 196618 2717620 2913938 1787424-184328
797.43 1080484-273026 728434-422978 1227734-360908
800.32 771318-112402 1163456-222300 943500-349772
803.21 1000200-234596 1190532-38928 1529172 115560
806.10 1149046-345944 1390620-162912 952738-131474
809.00 1276662-255632 1278430-136546 952206 2408
811.89 1449900-273796 1004712 91890 1460874-54558
814.78 1202342 69946 1499018 47390 1288958 188802
817.68 1878580 125844 1318112 362594 2066692 18830
820.57 1537902 825982 2146400 382318 1354736 868214
823.46 2746020 884600 1656142 821506 3502016 689214
826.35 1473920 1671192 3829904 1306114 2161108 1982302
829.25 3207922 1285130 3299716 3034328 3460580 1208960
832.14 3645060 3759132 3701468 2604398 5087492 5908264
835.03 4361886 2900046 5632718 6817752 5228522 3001672
837.92 7343338 7202462 4825394 3342812 9328054 8180568
840.82 4568754 5278962 8187700 7133012 6418696 9386528
843.71 14103340 8487258 8560612 9286816 11194520 8128412
846.60 10095810 10934820 12228000 9004818 10224560 14905110
849.50 19002620 11875270 12958060 15474710 17290610 8988166
852.39 11745260 20296820 22449270 9203956 14446970 21494540
855.28 17456010 11394030 22514620 31209670 18069250 6978652
858.17 23951150 26144260 14117200 11209850 31552230 27827180
861.07 16432790 17710260 28046320 30705790 18911410 27344150
863.96 27130400 25792240 26029010 32743500 25141580 34155270
866.85 31896710 34664940 22398150 41446110 34700180 31517460
869.74 20219840 41568820 37831800 25692350 24485090 40764210
872.64 42668920 27772560 24454390 45649920 70864660 41441380
875.53 30337420 30411180 63818470 28417440 27813940 59094590
878.42 68907880 40529390 26067030 58668000 80880730 34154730
881.31 54839860 53138580 66166780 35016240 43675420 24018320
884.21 60024950 47811080 42220800 64403370 101946000 50769510
887.10 44528740 47309180 73190000 54806930 66626710 55893140
889.99 108100000 52343040 44661170 27238210 81392880 52993650
892.89 45430930 43386000 78292340 87617700 64776020 78353530
895.78 126867600 135612100 89949410 23312680 87904900 63674050
898.67 67834140 47067860 23964600 88622760 58009830 37219980
901.56 117925400 155245000 93139740 17464040 85236560 72813070
904.46 36199970 54270600 77986440 74982040 62190940 39804040
907.35 99628420 101936000 299672800 172646100 70294700 40293480
910.24 73166380 64692440 65331400 53448560 35362620 63635690
913.13 94694880 19353710 68170030 120968200 344794900 62713700
916.03 60761760 44052000 75126380 40187340 44552920 30809820
918.92 45872430 63730180 82898190 62353070 78583900 71928280
921.81 354869500 249976000 63155860 129586800 47442480 75593910
924.71 24522220 72991500 26734020 79763220 82828830 41824390
927.60 55524850 51660900 82135650 142235000 116107200 83979130
930.49 66422760 91718880 74838460 62493610 62331040 69840580
933.38 65106150 64953080 75302800 44442640 62465710 63496930
936.28 87082620 50423020 91813740 75056070 94924080 100750300
939.17 128673100 119070400 141850100 97060500 113410200 113924900
942.06 91117600 105013700 158169600 68304980 136808100 174202900
944.95 141798000 186677600 227435100 182739000 321600600 247067500
947.85 454707700 383153400 1414376000 1262851000 491462000 416962900
950.74 264167200 311128400 176550200 196182000 103278300 132280100
953.63 99773100 120061200 115418900 147879300 118363100 102026600
956.53 91748460 159585300 64485870 96102080 97628200 97352290
959.42 87597650 67166180 92883620 55423890 59223400 120789600
962.31 33959340 133187300 42337200 95472700 77112130 91516400
965.20 106173700 93738380 89814750 47576800 71938860 124529700
968.10 74550600 90707820 135102600 216277200 102497200 106059800
970.99 70001290 50718990 51311420 54353220 84724010 82656140
973.88 42608000 59477120 85196080 77758060 51984340 75077000
976.77 102842900 80023660 159801500 278312400 101514400 94728210
979.67 25781960 88886460 66375260 44780030 43227480 88444300
982.56 54517160 59628820 53706040 59830790 64672180 64432340
985.45 148704600 203454500 147592100 247484900 290974700 218905800
988.35 51381070 39539740 75640550 44329560 57001340 87786000
991.24 58929040 58321860 43203670 94412110 96557240 28469570
994.13 78984020 82503260 51613120 80163250 118065900 237328800
997.02 194391100 19253600 56266700 90304430 96967390 20198390
999.92 98892610 93974020 80224620 51196960 63095450 77091900
1002.81 52499040 69737150 116032100 90390820 41792990 109891200
1005.70 178712900 164740600 125566700 89042220 94758040 70054040
1008.59 47675980 83227500 64346880 44376260 53531960 94971700
1011.49 66316020 46514630 57880970 71006260 47492660 77546700
1014.38 81750100 76165880 78755990 82320240 44138360 72496650
1017.27 71876860 32097420 33172910 54922240 82219140 112925800
1020.17 63479840 58347350 41715410 87616590 47528670 49855630
1023.06 77325420 75076440 23885920 47743590 57041180 60213790
1025.95 40531540 54383560 66272440 118048200 65567100 58661040
1028.84 57473460 24250400 41540750 62909330 23749650 45242660
1031.74 71621380 30979420 23824160 62730570 47654370 15251540
1034.63 36250530 54266890 30907150 30050360 55165920 72682420
1037.52 40257180 34018110 43809920 14008100 29459380 37145540
1040.41 24949970 14978100 36242990 25073110 24156750 16401200
1043.31 58799660 45675840 18340820 28231390 43893450 41433250
1046.20 29138920 30024290 53529660 73515480 24230260 14399480
1049.09 38550130 42853740 4986112 12161560 40322980 31464900
1051.99-1410642 22544160 36814070 17859900 2321770 24364610
1054.88 22321260 26358660 27855590 15577100 21071930 35447160
1057.77 26449620 18157950 22702320 30622960 12733920 7203794
1060.66 22348520 24803250 7492462 9968290 20325620 19898320
1063.56 6518262 10504330 17566960 16865370 2192200 11483180
1066.45 17454980 14436980 1666096 36609440 29684460 11736370
1069.34 11074360 31393980 13150900 2209114 16086050 25292440
1072.23 4638718 6181246 17571070 17751910 1881376 9085724
1075.13 16977530 11255640 580838 12538810 14507720 5192006
1078.02 3269426 15447440 10068180 4042438 8443990 22753730
1080.91 5364058 904436 11702840 18403670-716186 4374062
1083.81 13086610 12135350-2886002 8359162 11269250 5815802
1086.70-1278850 11109610 7543938 1846882 2203968 11661370
1089.59 4018728 1988756 7135158 9203438-76132 1748898
1092.48 7672028 15045680-772004 3969512 9801228 9090858
1095.38-1854666 6941812 8157374 4360122-524204 8564302
1098.27 5209282 2123350 1593778 8298614 2171748 2223882
1101.16 3218184 6873828 152300 2580646 3012498 4560072
1104.05-659814 3517838 2611070 6246574 511324 3475670
1106.95 2970842 4414792-85396 3941366 2271626 2936916
1109.84 39546 4088356 1246892 2377374 682084 3924580
1112.73 330338 2066586 526910 2813812-348810 2200268
1115.63 188734 2340188-537400 2336904-365780 4130714
1118.52 1745146 1302772 521920 4085178 233396 1300526
1121.41 1146376 3163622-556922 2038100 1373676 1941026
1124.30-888158 2388588 512682 1116058-438440 2393790
1127.20-363768 949540-26158 1992352-892314 1309436
1130.09-86072 1510048 120036 1512304-295564 1558974
1132.98-174598 1288662-430798 1509402-382238 1040994
1135.87-478956 1291014-618666 919802-416984 1117104
1138.77-809246 951966-518428 844734-857082 1054896
1141.66-718746 620022-677524 864096-302044 1400756
1144.55-771034 996902-293164 1031996-933882 1072676
1147.45-441242 706328-865226 1146156-773754 549266
1150.34-583446 1001478-1050486 737906-538592 636684
1153.23-1068098 902608-760856 484216-783698 867894
1156.12-1029866 836188-681274 497576-896448 853786
1159.02-898456 468158-686296 732848-1028664 658958
1161.91-756666 525512-916532 681126-900820 494986
1164.80-765656 538682-1030180 568372-875630 446604
1167.69-969426 579540-952682 496266-699770 498186
1170.59-977320 616254-785154 379260-817550 644904
1173.48-961324 478590-778352 420902-974762 527940
1176.37-850904 354192-866432 477628-957394 438354
1179.26-864248 413464-919014 452726-880460 390716
1182.16-843236 488798-946584 432624-794448 379762
1185.05-909640 455372-879008 356800-852514 402506
1187.94-919164 380996-864914 364810-911552 374596
1190.84-889732 380288-840536 348622-909498 379210
1193.73-873354 359664-878460 394692-874692 323086
1196.62-856094 353294-876202 323398-862708 384392
1199.51-881076 361654-868566 332494-844096 336674
1202.41-905422 336590-864004 354650-864388 301084
1205.30-802616 319434-903962 326468-853956 334750
1208.19-869934 307316-812958 290936-833548 309454
1211.08-849356 305978-885574 275008-829102 331268
1213.98-814666 321910-826168 280636-823520 305030
1216.87-859450 291096-831902 322082-870200 316976
1219.76-768586 273954-834598 321888-794584 274612
1222.66-832206 245068-817914 273378-847644 282768
1225.55-811880 264256-800494 284006-803032 259634
1228.44-816682 283418-788766 233932-815974 274374
1231.33-821600 272742-824964 281262-811924 269384
1234.23-833170 288782-764982 286164-783756 272118
1237.12-793404 253212-760474 246610-789396 252132
1240.01-801414 248090-779742 229624-770032 245876
1242.90-778246 282418-765868 235390-776510 259830
1245.80-755528 211976-777024 254552-768638 243412
1248.69-774068 215148-732622 224552-748510 209706
1251.58-776028 218184-742058 264928-742990 219188
1254.48-732058 211254-780166 203672-784764 199818
1257.37-755220 240504-774072 191880-752692 187742
1260.26-764386 195292-748360 217256-739476 234184
1263.15-760402 225798-765580 230438-753080 225920
1266.05-721726 220454-751516 173560-753528 219240
1268.94-727992 221146-735750 223022-740594 193428
1271.83-737556 204822-746322 210242-728284 156888
1274.72-739226 235170-726090 190976-702596 220340
1277.62-729874 183896-722342 207952-697432 175376
1280.51-716074 190922-738618 190244-763434 184994
1283.40-710910 176914-759368 215136-681250 161654
1286.30-741202 181646-734636 184724-723610 175948
1289.19-699112 175144-705916 189484-726136 222388
1292.08-703264 190648-720794 205986-711338 150880
1294.97-718126 207296-693542 178688-687398 160912
1297.87-752120 172384-697024 178214-724200 213812
1300.76-705868 157786-677174 170582-709812 198728
1303.65-687864 184936-657280 185666-636786 196346
1306.54-672852 195836-678288 158150-718010 206850
1309.44-705500 142602-669702 165666-692128 161672
1312.33-695776 163004-695238 188820-698148 145686
1315.22-699050 176324-722714 147844-678578 166330
1318.12-723302 133224-662952 192506-644534 169570
1321.01-652096 174012-693956 196302-684074 179408
1323.90-655400 189760-635926 169834-691946 172276
1326.79-698406 200316-669332 181622-684354 178980
1329.69-684754 141174-643810 194860-681856 164912
1332.58-649280 217502-673634 223302-553488 195256
1335.47-593254 202376-639742 176280-607152 191986
1338.36-704238 166542-612938 164312-678988 221846
1341.26-642014 171898-630842 175418-628328 147136
1344.15-711338 211854-620958 160838-640204 167360
1347.04-656430 192558-606654 192414-613768 271472
1349.94-588852 221166-588892 234778-640174 178518
1352.83-623446 192202-662422 225526-636136 178580
1355.72-681296 175116-678216 175524-628796 185710
1358.61-674264 178918-665330 242382-654630 172410
1361.51-654736 175102-631990 212966-591100 214678
1364.40-522752 400442-457000 356116-513500 434834
1367.29-446826 341330-548402 283126-567550 322742
1370.18-469362 346238-459278 286754-416784 472992
1373.08-546518 418202-173008 461100-484006 642208
1375.97-94522 381500-178850 983150-273470 461536
1378.86 242882 1168932-151436 1132456 940004 866978
1381.76-202606 1859612 1056878 744706 676412 2844670
1384.65 333368 1145274 2247298 2855256 186798 2644232
1387.54 3262256 1951990 1097562 5278864 3114458 1963916
1390.43 3466696 5866396 2231064 3586122 6882334 5558018
1393.33 3185500 6106482 7174898 5159888 5165116 10152880
1396.22 7962204 6703636 6747660 11441210 7060334 9237816
1399.11 11944490 14341640 7851062 10345230 14325260 11744300
1402.00 12311300 18123280 16403420 13110510 13162140 19307940
1404.90 14402720 19167640 23210820 18303750 18665960 18300020
1407.79 22239460 20326170 24074510 29689990 19759650 25265940
1410.68 20885900 27815320 24668470 28290070 32850860 27115500
1413.58 26078970 26011740 32464820 29534400 28929350 37631200
1416.47 33008980 26716830 28062090 40156980 26500140 31462970
1419.36 36849750 37706600 25889520 30160640 43229320 25005800
1422.25 28505630 38571030 31860910 28878280 29952940 42010950
1425.15 20438950 24659830 35972970 27663370 17989000 33014920
1428.04 32940730 18371450 13756040 29143850 22789230 10210230
1430.93 19400680 29237580 10879150 8242686 13655010 18765970
1433.82 3458658 7486538 16953510 10135200-1075030 7391914
1436.72 7491484 4397500-548510 8573606 3406662 6557594
1439.61 3940310 9906530 3333172 9921650 4261614 27993850
1442.50 48091910 77853730 55534070 61460920 59420380 38653440
1445.40 32635820 48548090 22597680 24199960 18953460 31236990
1448.29 15928810 9759634 20240170 13414170 13372340 12875390
1451.18 16961960 19715970 11008430 9743502 15549970 20081840
1454.07 15222040 18199630 9218628 28018120 18803040 12336240
1456.97 13570370 31043730 26289500 9894132 12117920 40616590
1459.86 19223740 12118830 25095860 39172200 16298950 14598750
1462.75 22149120 28508170 24429650 29684430 26629440 18099560
1465.64 28767310 20018370 15494800 17963140 47858960 24831260
1468.54 10333230 24457470 29535180 13907240 15971630 28689370
1471.43 31488280 19241980 18675380 16317470 19011050 23111370
1474.32 21281580 12716270 21978310 25984780 12250230 9934376
1477.21 22736320 19168540 14602340 11553560 14364020 18791760
1480.11 13542550 14260040 9021668 16612630 14713530 6516666
1483.00 6299284 19132300 12971020 4219540 11572860 12252810
1485.89 6076690 6011240 12042980 6836672 5325242 10734500
1488.79 7452010 3558504 5929206 9720106 3172186 4005346
1491.68 6364740 4568812 4328380 6202504 4080010 2527476
1494.57 3763188 4998862 482774 3010270 5085066 2871712
1497.46 1105360 3038952 2929736 575760 2056668 2489080
1500.36 1884778 869584 2046876 1505362 873484 1334728
1503.25 1256056 749764 909988 960778 425186 755138
1506.14 816934 386502 322894 625428 377634 145928
1509.03 411568 313748 301504 203880 135882 288514
1511.93-124462 101866-71456 187570-41892 41536
1514.82-118308 37312-198826-3178-313916-63372
1517.71-143164 5986-250586-79232-324108-114530
1520.61-414412-185838-242410-215444-269374-40386
1523.50-295484-143852-308636-224300-365236-125038
1526.39-317786-186106-375598-170584-330726-164822
1529.28-360418-160410-350590-164038-373092-150032
1532.18-347102-239538-412280-252486-349674-179650
1535.07-370274-181692-385712-175108-374836-193834
1537.96-393018-311674-391948-108542-458974-188936
1540.85-348860-241728-508076-144950-403742-182458
1543.75-372650-157432-478616-159096-403096-151528
1546.64-385564-160802-406530-195892-379052-155566
1549.53-409898-196710-368086-194498-372618-161450
1552.43-396630-196524-392536-269224-363414-177832
1555.32-359392-175930-221500-253034-453232-233284
1558.21-533330-140650-489538-282798-415060-101234
1561.10-410118-151710-422406-171166-401256-125096
1564.00-388362-197626-385776-147158-386968-147478
1566.89-388324-135024-400802-170366-417116-217308
1569.78-413072-131546-381568-169036-404248-134726
1572.67-369388-83264-420144-170950-380646-174908
1575.57-538696-187098-366428-186980-404698-160830
1578.46-384874-174112-394654-157954-384688-145772
1581.35-412696-131806-367690-138906-390800-127136
1584.25-418060-146662-413886-148370-370730-142164
1587.14-402136-121712-393930-163288-403130-106506
1590.03-323540-135288-384356-149220-395380-167608
1592.92-408118-134090-414900-145672-394776-130416
1595.82-423062-122334-393782-153544-405734-149592
1598.71-387852-135790-408400-128322-379452-161762
1601.60-412616-148118-404208-146958-393638-124602
1604.49-388970-116510-377028-139498-386356-124998
1607.39-394588-152924-389808-140106-399018-148126
1610.28-393320-144086-368288-122288-386300-136514
1613.17-361808-145158-398002-152062-424236-125248
1616.07-527198-224888-336400-174254-393376-154528
1618.96-376648-120718-390616-140524-380706-137804
1621.85-400208-142586-402276-165270-329236-154204
1624.74-374872-164702-360540-158676-391094-198478
1627.64-431088-144810-392444-141198-375130-129294
1630.53-380308-158910-375012-182430-357648-140020
1633.42-379724-172114-432696-246686-493622-131386
1636.31-380318-197346-418498-118174-404054-146314
1639.21-394712-155100-389200-145988-379778-163410
1642.10-385670-143092-399900-135426-388168-157744
1644.99-399534-261380-410332-155172-450368-147980
1647.89-433280-124026-390394-133424-408364-153694
1650.78-439770-135836-566592-230502-533376-215560
1653.67-395116-239112-349762-148168-362706-179868
1656.56-371358-157974-389450-162690-390576-161782
1659.46-372978-167670-375198-164520-402092-175268
1662.35-463578-166692-365524-163710-395148-177928
1665.24-387256-142070-365412-144244-386818-172122
1668.13-391586-237372-449818-156028-391610-157944
1671.03-433076-158578-388954-178832-394878-153878
1673.92-359690-184064-498432-159086-390570-176000
1676.81-393166-128750-381984-134426-361944-179428
1679.71-406616-189748-369970-166224-403738-125192
1682.60-434880-208802-385112-273050-502900-111850
1685.49-397704-117606-390984-139608-396342-143010
1688.38-354632-129220-404030-126694-364000-124670
1691.28-362342-140574-351302-147190-379702-113536
1694.17-372562-132266-498702-234124-308946-163932
1697.06-367246-137122-348902-144746-412300-248780
1699.95-435468-181320-345242-152270-328834-124332
1702.85-330156-116786-358540-99436-289112-140482
1705.74-422386-174158-241018-56702-283464-97240
1708.63-345480-8816-307238-141352-297496-91344
1711.53-208412-152134-302958-174190-277178-61836
1714.42-308712-106136-225210-27918-244656-251248
1717.31-350764-71524-331526-6526-205824-29986
1720.20-295982-93574-111720 2800-197686-82470
1723.10-217146 63238-361090-37660-264024 114796
1725.99-201826-78352-195698 47028-36154-128250
1728.88-202382-105856-37920 1914-246578-29782
1731.77-64170 369268-288724-101104-308422 29424
1734.67-226088-36128-287816 22716-41820 14738
1737.56-40032-29376-62824-43628-324510 17786
1740.45-72926 233654-86532 371730 148470-17236
1743.34-225246-53246-181252 72326-140092 78148
1746.24 112230 148532-209330-32750-303266 13606
1749.13 15966 191144 311596 367582-296564-2906
1752.02-224646 5676-152120 224964 170652 61834
1754.92-170274-35012-104478 106480 350604 258818
1757.81-233684-28520-161956 124570 12614-124928
1760.70-276402-33564-57978 210938-300294-117934
1763.59-177258-70510-314142 23180-336436-123558
1766.49-167518-34494-444536-44340-194972-141662
1769.38-293816 104894-227304-93304-104842-78082
1772.27-368292 158190-63562 7366 46366 208224
1775.16-243570-9466 81008 96980-314848 291472
1778.06 36940-201788 12708 231390-340670 154486
1780.95 42054 31034 13852 237894-157004 72610
1783.84-45284-57302-191210 221244-148090 3080
1786.74-58024 25358-172032-10840-277564 91290
1789.63-116402-200914-162712-175288-321422-67932
1792.52-439440-55268-248176-71992-120508-61398
1795.41-289092-207896-300104-97098-365116-199056
1798.31-272320-100706-326346-169168-380744-211094
1801.20-387058-113064-336614-225254-458340-232088
1804.09-391554-197032-377544-93632-270834-121376
1806.98-297160-205500-342652-115918-351602-73368
1809.88-355710-150268-301412-236030-255442-189204
1812.77-208732-43462-299336-155570-390038-52592
1815.66-255100-174138-310766-163318-202410 115630
1818.56-91890-8276 13572 101038-188730 139378
1821.45-64448 264644-230668 216278 12336 392190
1824.34 288682 283608 60236 232730 163828 570492
1827.23 351764 682826 489682 273506 415476 650324
1830.13 812578 978430 246536 1244938 945474 1344320
1833.02 445482 1018232 1412326 2269056 1790556 960082
1835.91 1677562 1255698 2308020 2745184 868734 1460264
1838.80 2946562 4238558 823344 2458186 3735754 3845274
1841.70 1171348 4008990 1167474 5428732 3870356 3686600
1844.59 3547602 4745650 6321694 915932 5468232 4400192
1847.48 5905138 6151414 7475060 3965576 3925332 9482698
1850.38 6867208 1596594 6314558 13604650 6891690 3478172
1853.27 6541438 11397460 8090006 8821152 4115278 8642594
1856.16 15631390 6156132 5731936 10381730 18818650 2379732
1859.05 7659116 8137020 17450500 6414262 15535160 8593870
1861.95 14420000 7020454 11954280 4090180 15867730 17042210
1864.84 14252500 2050616 18406650 11416680 6792344 6281168
1867.73 21472990 13320880 6320180 10536800 15333930 10902960
1870.62 6736866 10796940 13186520 14255650 3630010 10988800
1873.52 11363200 14180410 4927604 5438508 11913670 11267100
1876.41 1810358 5725672 12224420 9646196 153848 5175894
1879.30 8907124 7081512 1202256 5242198 7703334 3201170
1882.20-95124 3692356 3630008 2373194 254508 3917502
1885.09 3113922 3575672 3869076 6981384 11760100 20472870
1887.98 43813130 112016800 19897610 3911502 6512398 4605730
1890.87 5600938 3253896 4686056 3041892 1599386 1053900
1893.77 5215434 5870864 1665272 2848348 7035400 4797624
1896.66-884302 6625370 12854150 3749012 268778 11017550
1899.55 13100600 1986202 4580036 18880850 12769630 894418
1902.44 9497250 20747480 7785524 4217482 18013120 20882340
1905.34 5672758 7178208 23598480 14041430 6191142 15105770
1908.23 23983690 11835630 5291102 23955160 17943590 8796546
1911.12 13403910 23837410 13696820 6505734 22363330 17199730
1914.02 8110310 14202390 22215980 11906740 6325988 22876510
1916.91 13307400 7153814 14685050 20078560 7374102 8735950
1919.80 21142650 8388580 6795802 16580570 15014800 2725370
1922.69 11642350 17427540 2219418 6392428 17521370 8710274
1925.59 20240 13594060 10860560 365230 7642054 14824020
1928.48 1835086 3869948 12133180 5131346 235052 9120870
1931.37 7166410 1180488 4682276 6206108 2424900 3221354
1934.26 4154338 5120662 1879708 2495944 3287196 2763960
1937.16 1921856 2554444 3302078 1744124 1028638 2767174
1940.05 1671070 1174532 1189694 1396228 1735984 1413936
1942.94 1005812 1207358 876596 788760 496284 1330878
1945.84 312304 483682 640534 574000 619352 702764
1948.73 403518 199780 83002 170316 92344 274696
1951.62-116130 219168-81070 138240-173066 85376
1954.51-296694-112920-377120-51136-381602-138954
1957.41-347054 43972-243258-119038-177126-32114
1960.30-356594-237356-374664 103800-237868-23046
1963.19-181524 54964-411182-118284-354552-54202
1966.08-161060-85374-225710 207010-42620 12688
1968.98-179712-45328-235490-231860-352716-321642
1971.87-354990-3582-165406 42740-213238 54490
1974.76-237138 182538-65980 162174-100806 165702
1977.66-6082 133764-325294 50002 14800-20312
1980.55-270524 112986-100678 276444 31950 134310
1983.44-40312 131690-228446 152960-102064-148446
1986.33-364912 260338 70920-67922 288092 743004
1989.23-109202 128214 99346 148568-235718-164242
1992.12-163424 61370-404736-98992 23616 394554
1995.01 453470 255350 62974-87258 398430-53980
1997.90-57800 14194 221808 416600-144852 55244
2000.80 283806 108920 318144 311026 267628 271164
2003.69 303804 526326 195412 375774-29250 507200
2006.58 648212 316232-229832 146914 958412 631454
2009.48 247424 106598 832142 804916-79086 240264
2012.37 133600 961498 462520 435146 1254266 434542
2015.26 1003560 346362 759912 166414 996388 1005954
2018.15 1283834 706006 192394 1785360 357640 743724
2021.05-128392 1998186 1337096 648730 413880 1228240
2023.94 1806616 165502 372168 1220434 1964686 781274
2026.83 149548 1185420 1534378 766932 156746 1102640
2029.72 1075414 1605082-92950 744118 946948 1515404
2032.62 501160 518548 373252 1720316 87106 333552
2035.51 284218 1994850 297566 318390 84452 1340734
2038.40-97856 37128-138500 1189342 60676 110668
2041.29-122892 876466-101080 324092-41178 1092510
2044.19 311078 1192084 1241528 2737926 3517162 8054518
2047.08 5795728 354062-6490 42972-51162-71188
2049.97-369576 6104 43322-9108-208110 698800
2052.87 797864-180040-77070 894324 197630-274726
2055.76 745014 1737624-153630 231126 1538602 1039474
2058.65-238178 1698618 2164748 395956 332304 2615572
2061.54 1089724 632470 2030578 2440930 656684 1257986
2064.44 2880028 1618956 1277458 2121438 2589140 1023850
2067.33 1818562 3160034 1513242 1367282 2880386 1990206
2070.22 961428 3370710 2252074 678926 2732028 2413924
2073.11 667146 2989488 2265230 403566 2329396 2332532
2076.01 786950 2794610 1876554 501468 2161896 1921298
2078.90 859210 2205486 1127378 737786 1532494 1437794
2081.79 987812 1808858 382224 890794 1194026 908512
2084.69 976658 979012 172430 1139196 494002 370910
2087.58 640876 472864 443888 531902 155396 736028
2090.47 115548 225692 64034 288736 52828 281184
2093.36-63548 229830-77504 100936-222698 11842
2096.26-124030 145844-122880 184296-349388 120054
2099.15-317596 191588-272086 94308-141474 53982
2102.04-293282-26416 28110 102012-14126-16054
2104.93-122356-172998-294802-165472-998 30076
2107.83-201846-82266-224518-149084-200966 7240
2110.72-62926 116512-338748 66646-1626 115954
2113.61-132006-33528-284334 36302-358894 64870
2116.51-323994 34010-319360-56960-274084 84896
2119.40-86102 206516-122226 233238-71898 271712
2122.29 34748 470906 341702 136308-277486 67970
2125.18-158292 61426-296722 122164 7440 332
2128.08-238276 280070-25846-108218-179158 410402
2130.97 313440 335074 342214 641266-192758 49528
2133.86 8152 321296-10526 113312 78448-196942
2136.75-169476 308010 62520 130146-2078 533910
2139.65-39386 229036 421912 1380958 653592 312260
2142.54 431240 352566-265524 193712 115872 329512
2145.43-49316 266078 87370 292162 141082 83392
2148.33 178854 355526-13196 410528 790406 493590
2151.22 334674 623448 161558 221598 90822 182614
2154.11 385268 519368-119422 418142 156662 368612
2157.00 9260 460974 337284 674732 183788 1086942
2159.90 440554 177070-147116 355604 65604 320540
2162.79 159414 223700 163082 65622-17124 454248
2165.68 210506 169200 109666 276626 58958-83396
2168.57 185548 361002 131118 102356-45294 274734
2171.47-36762 153462 91350 120216 136960-2000
2174.36-58350 220524 313940 380420 171122 250946
2177.25 110336 314750-17512 434412 524074 681440
2180.15 473198 657762 388908 394432 793764 778224
2183.04 115118 401446 292316 643876 681820 207356
2185.93 395302 404902 407912 721464 1302678 627598
2188.82 900928 950020 348572 745138 221238 784652
2191.72 726434 390480 389934 634236 645324 774862
2194.61 682934 563454 484666 625310 578586 691438
2197.50 362998 505588 360096 468712 213952 737046
2200.39 777008 842338 516046 937312 357180 384868
2203.29 240952 506562 259150 588606 722082 881380
2206.18 206472 486846 202968 560526 467594 600738
2209.07 129704 524944 184198 443046 445392 689376
2211.97 219386 381684 389324 601454 184008 642040
2214.86 379562 261780 188636 383216 15194 254050
2217.75 128850 317304 111090 271396 144784 458284
2220.64 166522 294180 141490 220102 50418 229448
2223.54 232242 309238 171122 347106 208834 312632
2226.43 127948 127752 71436 382820-66076 123788
2229.32 113384 365546 16964 272518 69224 162028
2232.21 33696 302608-3192 174334-80700 137152
2235.11-93708 168542 58622 227900-25066 197996
2238.00-36854 164062-42124 129802-102662 66748
2240.89-45198 57450-98818 150890 55906 249398
2243.79-100426 245172 16960 74646 3698 120058
2246.68-20690 192114-137310 167764 34864 101578
2249.57 68018 296230 118244 579356 844564 582784
2252.46 205782 516744 66038 208624-35062 162848
2255.36-112408 124402-141566 24258-171876 53208
2258.25-195596 28906-159948 2374-192114 33302
2261.14-220462-69720-200478 47052-188514-33708
2264.03-257162-17404-202684-54254-272326-25802
2266.93-180298-72128-239724-55490-245682-27222
2269.82-218566-65712-206392 12762-224624 97796
2272.71-135520-22310-197886-35884-160558-58380
2275.61-251152-103144-226164-107000-262484-17706
2278.50-215716-76852-239906-67206-131078 191632
2281.39-207680-21616-284438-63032-244384-40214
2284.28-278634-52096-261186-40522-297876-77174
2287.18-267106-29898-238632 58096 133326 339144
2290.07-97620 56044-184982-3318-166144-72414
2292.96-267582-93178-231822-89084-275742-30246
2295.85-305928-85012-256768 78048-52298 95056
2298.75-138854-22684-218668-63666-288606-6022
2301.64-191666-12524-270832-28012-176450 10422
2304.53-219468-70208-186762-70894-184506-67380
2307.43-173050 50174-132778 28942-186178-5292
2310.32-248702-70786-239216 5536-248602 24262
2313.21-163862 203992-280656 32454-229304 28990
2316.10-288998 67802-221014-27640-231162 61828
2319.00-217964 17812-179814-9182-112718-64074
2321.89-89872 325582-140194-2770-293364 138056
2324.78-76364-77114-216816 119386-85634-87278
2327.67-214056 180040-48538-84448-112870 269276
2330.57 46002-202078-71936 295724-217828-113448
2333.46 109052 258396-318228-83580 104048 123990
2336.35-358692 31052 104610-2570-163796 374716
2339.24-23188-164970-138564 272824-252734-64006
2342.14 38240 77762-321118 97462 24102-99150
2345.03-236154 146094-163928-99150-226178 53282
2347.92-223646-46336-191392 12508-132112-35280
2350.82-95384 28882-274426 64968-77032-89348
2353.71-29902 154966-322676 142192 22594-69216
2356.60-14330 229110-273938 361330 55144-91598
2359.49 180350 137148-245260 453514-152602 38556
2362.39 233190-69284-47072 288452-322244 335574
2365.28-71188 34132 165892-154488 64346 121258
2368.17-212738 240252-184496 185074-71070 26104
2371.06-28210-39372 3160-90158-166180 26632
2373.96-182674 3330-258684 43336-202324 11688
2376.85-222846-22544-180574 42846-173866-73138
2379.74-160704-15436-215574-25526-147746 41776
2382.64-249436-10578-196236-6802-268146-27284
2385.53-229294-10630-246834-77794-183752-38642
2388.42-195816 15616-198278 23090-161778-42814
2391.31-148206 40700-144276-56188-223156-81294
2394.21-219834-65494-261070-29908-185690-58760
2397.10-240254-64816-201142 31124-240946-4194
2399.99-117488 21782-245430 6654-148544-19328
2402.88-309796-13340-221686-33902-217646-40792
2405.78-246338-81192-254702-4502-201632-90004
2408.67-208644 84930 84464 125740-95998 103032
2411.56-111058-110350-207104-30982-249916-126000
2414.46-197530-23590-215994-46680-207222-83082
2417.35-188728-74046-228014-54076-91550 65530
2420.24-38040-3324-259384-58510-284398-5722
2423.13-241274-23862-182396-89270-265986 18018
2426.03-169504-111268-189762-35206-125698-28710
2428.92-99746 132146-239146-81666-261660-104266
2431.81-248188-102346-282588-100768-252952-110010
2434.70-248768-92680-221552-120402-242756-138584
2437.60-293908-103928-264450-78030-289498-144010
2440.49-274826-81192-298818-135338-301926-113024
2443.38-306666-158842-296524-48552-226616-93292
2446.28-229974-104792-220906 13056-125190-61658
2449.17-167998-41534-229134-69402-254016-66558
2452.06-161338-65732-219694-65006-211548-23388
2454.95-248870-116666-189944-136836-198544-10752
2457.85-184314 161656-183024 30234-232886-111758
2460.74-162140-57972-253554 55288-276700-104222
2463.63-221330 17020-150994-65602-196008-10052
2466.52-250550 6146-176910-78892-207782-79668
2469.42-170738 25970-284744-35730-170812-114226
2472.31-217412-42552-300974-42526-243550-38708
2475.20-217042-96050-271744-71082-281250-30386
2478.10-236634-118852-175204-72258-318458-77510
2480.99-255960-96150-269910-60926-295542-164076
2483.88-274898-89506-330304-78192-267110-152830
2486.77-290570-100828-290302-145134-260076-98460
2489.67-311972-115866-305868-133444-266924-106174
2492.56-325162-135240-305896-156604-288892-123896
2495.45-293060-129846-283804-140040-317332-164142
2498.34-347438-114420-291306-191522-324100-154918
2501.24-346878-146876-277848-143512-307356-117722
2504.13-354742-152860-338074-174572-304480-177150
2507.02-323648-147086-336006-158652-309312-149444
2509.92-281882-154420-287588-119832-293612-146782
2512.81-315744-130750-304256-133034-308312-152246
2515.70-356920-139738-352610-177854-356270-137392
2518.59-328812-137646-321580-136202-316686-130010
2521.49-308542-135304-301214-172118-313196-168760
2524.38-329324-160770-333738-142170-330674-191278
2527.27-317872-150732-318778-110450-322334-138476
2530.16-323304-128934-312466-139530-302284-147426
2533.06-317858-182350-317628-154198-349610-157110
2535.95-329360-164418-317852-169792-359342-172766
2538.84-365152-166702-311774-176498-283400-137808
2541.74-321962-169032-240940-130926-333472-148688
2544.63-309708-168612-331180-175524-346546-186702
2547.52-291948-169358-347934-174292-329300-144072
2550.41-328142-151352-351924-159100-352094-198336
2553.31-331352-167628-344826-153886-347286-156198
2556.20-341688-180116-349304-174282-357576-150556
2559.09-353072-134880-336920-189292-336032-196086
2561.98-298830-128732-284664-148994-307244-133286
2564.88-325302-134392-288938-79726-265802-86950
2567.77-169028 84146-222094-84292-258542-109580
2570.66-279724-106408-286680-87480-320222-104154
2573.56-325302-186184-334062-188358-328934-132728
2576.45-350374-146844-308970-156718-335480-188598
2579.34-350940-152494-304984-157444-343590-176578
2582.23-309406-179214-328218-134266-329442-169728
2585.13-299124-151718-321220-171670-344364-169318
2588.02-322962-145234-360740-164168-333566-101162
2590.91-314304-140422-314510-147678-342182-153554
2593.80-302554-197194-334648-168356-321606-138600
2596.70-325076-191664-334550-147260-336358-171350
2599.59-293758-146974-352744-168266-325458-166754
2602.48-331376-143650-313478-144250-360960-133552
2605.37-339372-134872-332294-130048-315478-138370
2608.27-291684-122226-354568-192168-341082-154460
2611.16-392316-136950-325374-160084-334166-158736
2614.05-326608-142218-315362-150776-315106-111796
2616.95-325150-168494-340206-140040-375698-143340
2619.84-304412-139096-290380-154388-320496-143664
2622.73-319142-127254-319754-110966-341972-123442
2625.62-295760-101580-320822-150394-320682-163708
2628.52-322342-122086-316182-172326-321948-127622
2631.41-340628-137638-283152-134314-349104-136134
2634.30-322550-144084-319624-125564-379284-188362
2637.19-320220-128424-345092-138514-346644-132188
2640.09-314248-155150-342646-132352-348314-169090
2642.98-327564-132576-311190-108010-334652-139070
2645.87-280636-120272-349202-185948-293882-122010
2648.77-322174-146628-360180-154334-323746-149954
2651.66-339868-134200-346312-161534-332188-118942
2654.55-335522-164620-315524-161094-320472-146608
2657.44-343142-157508-337446-141628-361934-126156
2660.34-319286-173140-369946-147944-317998-115202
2663.23-353866-151522-281616-177734-347242-144390
2666.12-354070-171190-340598-162530-364926-184316
2669.01-355320-161410-383018-145408-326500-141506
2671.91-398952-189318-367036-132744-376022-126154
2674.80-350148-152096-372772-123458-372736-180074
2677.69-334852-121890-371904-178622-379706-148948
2680.59-377062-187740-358464-164586-358090-145754
2683.48-384860-166872-333504-157998-358994-167922
2686.37-346840-167144-349140-160736-363876-184346
2689.26-378240-204490-385258-191042-353206-164624
2692.16-325628-165428-360522-119408-362012-172022
2695.05-334274-149648-387660-172124-376326-216124
2697.94-371704-142720-294976-203710-363806-176114
2700.83-383344-182440-407654-156548-384978-150628
2703.73-361328-189252-329262-167874-368408-169930
2706.62-393638-152582-398178-157486-394890-177076
2709.51-375976-171476-371134-183802-342280-166724
2712.41-349976-171768-403452-171892-354670-203038
2715.30-349924-181246-383536-162498-422914-169576
2718.19-363042-174342-397246-128538-380378-156150
2721.08-424054-164410-357472-181370-365914-159008
2723.98-333510-121200-390440-161896-357226-175716
2726.87-357294-147100-381488-188786-365834-143934
2729.76-376762-143898-360854-154888-367842-172578
2732.65-413960-170982-348002-163822-368876-132898
2735.55-402834-188136-424150-141704-377426-163736
2738.44-392840-157022-370776-169990-391942-167022
2741.33-355260-193562-414320-185804-345220-157806
2744.23-388148-155528-377044-183416-375344-128388
2747.12-402446-149804-420446-150404-357960-162164
2750.01-385990-182812-384112-174770-443048-150840
2752.90-379596-131372-387778-198754-378522-170142
2755.80-370932-175014-394912-167960-371002-160560
2758.69-399344-132324-409510-168424-407512-170872
2761.58-410400-179072-355962-194066-373858-142560
2764.47-368192-174692-385572-152030-365788-179568
2767.37-442844-188618-407018-199876-387082-165272
2770.26-408470-178172-407588-192812-374306-153640
2773.15-381944-189070-376158-237266-404142-174222
2776.05-364468-178276-422224-153510-433710-216240
2778.94-456038-124994-393774-147854-448692-168654
2781.83-448648-222524-378410-134856-425018-208448
2784.72-438046-216208-498516-176684-392902-178404
2787.62-459822-202698-480766-211058-433486-144858
2790.51-500522-258732-433914-184274-467786-179192
2793.40-415352-197292-435412-220100-410262-247882
2796.29-498496-151710-529050-257532-492798-155306
2799.19-513426-315860-358800-201932-493898-267884
2802.08-396940-297776-513288-144880-518496-279176
2804.97-523172-243846-589576-257016-447534-175710
2807.87-533626-275766-507034-308492-554778-264530
2810.76-552700-294442-586832-294050-442358-218108
2813.65-519306-270454-514584-264074-659580-293334
2816.54-470876-271972-645282-360586-531004-354328
2819.44-578412-216086-545806-343708-583922-240988
2822.33-614360-436458-532062-341192-567136-424570
2825.22-625134-364344-680684-234960-655160-283590
2828.11-674074-309900-481014-429310-525704-372304
2831.01-625086-366552-636302-321978-786158-240080
2833.90-602320-304928-602990-402606-685098-489578
2836.79-598216-261490-690474-460846-655054-430752
2839.69-766164-418248-542384-296012-782090-296954
2842.58-792318-393444-564294-293728-499480-483340
2845.47-687674-342248-753126-223982-751808-237964
2848.36-670960-429552-668920-419422-463900-206636
2851.26-628788-247188-796038-383352-569224-58206
2854.15-343320-259010-548844-321006-674822-199166
2857.04-557326-164700-586544-293428-633192-436458
2859.93-536846-255764-524172-164648-578688-342368
2862.83-734514-230194-514834-149846-406828-200680
2865.72-537770-321772-677272-188490-444326-51032
2868.61-442842-183714-613004-319312-504664-82218
2871.51-370416-126756-456094-145994-537812-169264
2874.40-372876-77082-371646-131308-499342-142578
2877.29-436908-34882-446338-98100-484836-96862
2880.18-478352-105830-405728-106470-464152-166868
2883.08-451868-191008-676556-501050-988046-619876
2885.97-939904-607540-704256-522550-668218-522390
2888.86-933362-283518-709610-448006-624490-245030
2891.75-895552-462772-535012-198264-718860-420192
2894.65-608870-327804-644652-387238-482966-159850
2897.54-454632-270302-647640-196634-573490-163388
2900.43-528626-303566-502902-161460-569774-247596
2903.32-540312-231876-372224-146298-469670-148142
2906.22-437684-247010-577658-256526-500934-207202
2909.11-395520-136886-240826-139958-493286-268166
2912.00-301832-76308-242304 86430-335868-108734
2914.90-286674-175228-154500-93906 78340 204684
2917.79-22886 101314-133396-35388 192158 277718
2920.68 414768 190072 330362 397058 355510 301498
2923.57 750710 896130 911920 538696 1190600 1175458
2926.47 1058610 656076 1529402 1808440 1320436 1191834
2929.36 2642464 2272904 2162316 1481822 3151304 3013610
2932.25 2464502 3038158 3866574 3803688 3632078 2714972
2935.14 4942304 5022080 4988784 3935724 5918120 6884782
2938.04 4853402 4553618 8913230 10217990 5460024 4584598
2940.93 11064310 10547880 3679344 8965332 17735190 12550380
2943.82 3255330 9633094 18029260 11831370 4079960 19502940
2946.72 25963820 9494336 7084362 16168740 22781700 12213820
2949.61 12993350 29094830 25707140 12035750 14548860 19447720
2952.50 25738530 20944050 23654210 27878400 28631880 22417900
2955.39 14598650 19640560 38093160 33218760 19401630 29080420
2958.29 42473590 25809460 5581336 31389840 58058560 24835500
2961.18 16130050 43176430 43278930 15793570 5552488 57562000
2964.07 53224510 13255010 18106910 59171720 40832710 5165602
2966.96 26940940 57161580 39671280 10741590 24704040 58390090
2969.86 25880110 19278260 23377670 46870570 33249300 9521150
2972.75 21804210 46035670 28768190 13800510 13054920 42661390
2975.64 20968240 6140244 13875400 40804240 17681940 4590840
2978.54 13813180 30492820 9685684 13515990 17523450 28927910
2981.43 11239880 12475570 9755912 14298280 534444 7018854
2984.32 6074372 13826070 3127464 22740960 19888890 67826900
2987.21 115231300 326350800 181363400-7038146 22847810-1204694
2990.11 13627180-704260 9362332 2617522 10546000 1891698
2993.00 8174326 13898090 17103280 2212168 13364610 19362590
2995.89 15849510 2762146 24854880 34583790 14084820 8430932
2998.78 34029380 33311420 11773930 21420010 48943170 34494790
3001.68 14900250 30134420 54160230 27485770 25815040 45038120
3004.57 45957880 39844290 23521740 53543850 51388630 39521700
3007.46 29461130 52068320 51990830 31729130 41301120 74603060
3010.36 47257080 20606570 51021960 59842120 25505820 41288860
3013.25 77957540 42484430 22428370 41612500 57437490 27537000
3016.14 44350920 64570350 42728880 28931690 36195730 42221390
3019.03 43144400 46624960 39739710 45441050 39020850 19458690
3021.93 30722820 47623140 40542150 17707360 42741520 41420620
3024.82 19866580 20551620 47758560 28834130 22280410 41095330
3027.71 43850040 25377680 23851260 29792350 26952860 24545070
3030.60 22561470 24099340 22714520 23924430 15088680 22787050
3033.50 19922290 17321210 19692230 27855720 23615630 28291600
3036.39 21641310 21099020 13922740 19176680 21719480 21782550
3039.28 12353530 20297410 16904130 21190270 7999060 22243460
3042.18 24295030 16295840 13902340 37807840 56566020 15338080
3045.07 19127990 19443050 23774830 16377620 15722760 22216080
3047.96 18280020 16392740 16640550 25855870 23738410 20401270
3050.85 17788140 10800090 35909610 57814180 19645330 18791610
3053.75 14323700 28693330 16472100 17153650 17137100 33071710
3056.64 17869380 17022110 17328030 36606260 17169710 27040400
3059.53 19744570 79853740 112879800 11127220 31802310 24044160
3062.42 29074040 15607830 37680320 24777150 22347920 17344360
3065.32 37665970 21120530 33883560 23244670 34815480 30883050
3068.21 77913260 73254290 29270610 50573670 30006120 23701280
3071.10 26997620 37490210 25336250 30823510 23343770 56408870
3074.00 26704020 41111450 46961040 55270690 46103170 115543600
3076.89 98649500 43291720 34677510 41805500 40672040 38845890
3079.78 27634020 42001940 40714530 41430560 34327460 30710120
3082.67 45100900 43177290 26019420 69665100 58298980 32818920
3085.57 40108870 41840770 39410390 50625860 40361170 55060320
3088.46 68648210 30653480 30856400 43903060 32295190 37879680
3091.35 33165720 39672940 56804570 33836050 57071940 71149040
3094.24 91253860 23007350 30151340 17434210 44217610 24003550
3097.14 26646990 27198250 32001670 39254200 51917290 42743840
3100.03 36512780 40760470 32304510 23464620 25430160 30348470
3102.92 16780960 28616870 24065660 22586860 23729740 23065780
3105.82 15372090 16610310 20409550 20914640 18912160 31166370
3108.71 34780630 38351580 28401040 42479650 30190720 30672600
3111.60 19034330 37654280 25089660 33742980 26937370 50524350
3114.49 77808340 48540310 31497550 38187190 43017320 22945840
3117.39 48415400 33765260 40413150 92571740 45513300 60417200
3120.28 52344910 40555760 59848650 47527030 52452050 56778750
3123.17 54495860 54774190 112200900 73494910 46754430 51760560
3126.06 48773270 42406720 51877800 45715450 36257900 37828350
3128.96 54814800 51512900 47699700 45651830 53804960 125833100
3131.85 77626660 26531580 49935610 46337370 35944540 36781450
3134.74 47178980 30102220 27157450 54748290 34712320 26591360
3137.64 66272840 71571460 73242330 148918600 70179560 6452254
3140.53 40862220 33968560 21461010 29161530 43477040 30577060
3143.42 20091030 23051090 37804620 26407720 36024960 39004580
3146.31 54306280 61972100 41024840 14551000 36411820 38001930
3149.21 16970040 24251330 35522380 21898500 15322750 25688660
3152.10 38195430 25798800 29299120 42914430 72593080 66614130
3154.99 15219210 20403510 22518550 11908910 9247422 25773890
3157.88 28807360 14875150 16090760 24987870 23846700 11918310
3160.78 25409090 38424380 40986260 21009970 15770290 21469350
3163.67 10042320 13428640 15617140 20969290 8610262 13783000
3166.56 11724950 21299190 29441590 20755660 21773680 46864160
3169.46 49599150 6331438 12278700 21724580 18035850 3668044
3172.35 19114170 21710600 8736204 7452508 17657880 17077270
3175.24 13219050 13649050 24174570 31794240 10210540 10666980
3178.13 18637770 18150680 7476022 10725450 17336670 13457850
3181.03 8067040 11715200 16456520 11817170 9479504 19098720
3183.92 24534280 6784348 7823340 11011610 19190540 12230430
3186.81 8070820 12688980 16031800 9699458 6592396 13817950
3189.70 14991690 7562604 9776174 17989020 11528340 4932056
3192.60 8108770 12448080 7274936 4624928 8378242 15334270
3195.49 8773570 3287624 11376620 13482460 6623400 7835108
3198.38 15610580 8648298 2796800 6079166 10728660 4293080
3201.27 3193002 7590270 7938552 2263190 5429434 6439756
3204.17 11890970 7573612 4961214 7918416 9538760 4442324
3207.06 3665026 8022712 7559996 2632278 4630770 7311026
3209.95 5181492 2278920 5332082 6358206 4016172 3278874
3212.85 5618516 7583546 3023566 2324164 6041030 5428988
3215.74 1856474 2908860 5861298 3461808 1107666 3695866
3218.63 5108398 2046398 1229648 4286888 3101978 783654
3221.52 1749328 5527150 4574648 317832 2973100 5054338
3224.42 2529092 418450 3806376 3815180 1360504 1022626
3227.31 3694108 2160694 811684 1521328 3127692 1103164
3230.20 675800 2030416 3671148 554164 954128 2552716
3233.09 2289938-125308 1510834 2147532 1137962 12558
3235.99 1807370 1418912 510764 296762 1723462 746132
3238.88 412564 550932 2631108 764052 215012 1221292
3241.77 1912588-35260 409810 1363606 1176640-355050
3244.67 908722 1081332 344620-219472 1151998 516012
3247.56 120610 90318 1290500 208688 65112 452436
3250.45 970830-167918 257578 527810 477142-308120
3253.34 482514 349680 201114-219940 508786 111742
3256.24 39400-77018 797958-68354-27360 128204
3259.13 537770-306190 131604 195620 254262-328022
3262.02 280986 45968 1420-277484 251106-178586
3264.91-42120-127454 399346-373780 50078-37132
3267.81 168840-332844 90966-76510 10910-363934
3270.70 103676-258868 6842-245464 143294-294628
3273.59-17192-192726 150170-314280 44592-204818
3276.49-44756-349416 113302-282296-57868-282014
3279.38 31482-304738-60402-275228-6504-366046
3282.27-63686-254814-38204-370134 54822-290926
3285.16-46252-350890 54424-352342-39546-377978
3288.06 7368-372330 1200-269672-33526-316344
3290.95-64614-316904-75054-310714 11478-314860
3293.84-63872-259746-12732-310400-12620-328382
3296.73-108106-329170-54580-258654-6058-323550
3299.63-93552-307748-71300-403432-57720-349780
3302.52-57466-325570-117798-290454-66726-337604
3305.41-22-294732-36504-386848-59016-328610
3308.31-92850-376268-83522-353062-43064-329144
3311.20-63792-414416-43748-328694-15522-347000
3314.09-49142-346842-67322-383934-98494-396884
3316.98-60834-357000-101868-406548-148680-367040
3319.88-76162-331058-26594-386390-73990-328794
3322.77-82592-338014-48210-323718-5812-367666
3325.66-113202-374908-41620-356146-42240-381586
3328.55-59012-356596-77376-408774-64418-342172
3331.45-144334-339900-92524-342198-79778-416128
3334.34-133948-303642-14214-402962-89894-291542
3337.23-88708-353202-72752-308992-44756-341776
3340.13-101430-347402-19458-341424-92368-280150
3343.02-86016-382680-98146-341446-118402-398610
3345.91-104252-307136-138938-385134-125142-314310
3348.80-50066-259866-36236-356070 8978-299476
3351.70-67624-329962-68764-365280-97472-324800
3354.59-130924-404002-153224-357398-104032-365248
3357.48-69842-325590-71604-300746-143112-337186
3360.37-46634-337620-141144-317058-48788-315418
3363.27-77648-351056-137934-318668-115012-342512
3366.16-94614-315546-107460-359608-54416-227832
3369.05-65028-325006-104070-312210-143232-271036
3371.95-71344-361704-80274-295746-83180-344160
3374.84-156838-405654-149732-355356-96144-299974
3377.73-70478-398284-105260-369396-46962-296964
3380.62-66306-326512-46372-334658-141906-356192
3383.52-58720-343652-102874-344530-36218-326918
3386.41-49228-354060-49300-326574-102692-336184
3389.30-14676-378192-113426-398214-105578-340968
3392.19-108350-398784-126328-343676-23246-343680
3395.09-137324-384704-125320-366984-101652-274580
3397.98-108582-334182-110580-273074-68592-337886
3400.87-177028-379910-106604-380266-153354-426784
3403.77-78830-374572-164506-412246-196324-384072
3406.66-173394-338952-122536-374592-67110-331656
3409.55-107816-352582-168530-418070-168804-372432
3412.44-148090-410678-88072-398436-145780-323564
3415.34-124934-364268-157196-377392-143498-325532
3418.23-101582-329698-108928-365940-140186-422114
3421.12-164786-311970-102156-451838-172934-438736
3424.01-157694-421640-158082-313782-77702-449642
3426.91-173518-313086-129646-350660-194074-356770
3429.80-146330-381580-76098-421206-89794-302630
3432.69-95242-369186-76908-400314-162968-387286
3435.59-149682-368860-138982-364102-95568-430092
3438.48-185248-382552-165038-355426-121578-407520
3441.37-226944-441160-148786-344740-116974-360444
3444.26-97718-286256-88088-310550-107288-346946
3447.16-175168-427446-187500-318644-129728-432768
3450.05-164486-375828-215648-427040-145988-286994
3452.94-131696-449672-146896-383544-169430-391440
3455.83-119260-323416-144720-362838-161108-426368
3458.73-139684-454174-175834-388610-92262-338604
3461.62-158690-384202-158852-341918-139692-352582
3464.51-166210-271278-152512-344928-65604-294864
3467.40-116502-338096-133848-385954-160000-393928
3470.30-104216-327462-112344-342218-96878-328154
3473.19-144436-430432-41516-338540-116590-305374
3476.08-121430-369048-182644-349938-108216-315216
3478.98-142596-295168-178902-261812-26406-301912
3481.87-150826-310528 36844-388898-171132-310616
3484.76-73548-348802-148766-340044-55822-308190
3487.65-145896-366060-110152-351636-85926-400172
3490.55-48934-364554-177378-376590-94984-342474
3493.44-179560-352766-154496-332338-156366-406572
3496.33-158772-320182-135892-362002-113224-316036
3499.22-223192-277954-139490-346244-143570-360482
3502.12-5418-229144-45066-109240 48660-253506
3505.01-119268-346184-135396-384022-144962-413870
3507.90-154424-382030-121088-357500-177944-310314
3510.80-83068-304758-142128-367746-65688-341154
3513.69-188140-343262-75118-332778-201444-298986
3516.58-86798-300934-154426-264948-115934-360572
3519.47-41732-339014-166864-279354-83148-295826
3522.37-44250-287254-117500-360004-14256-225202
3525.26-51516-267250-74434-357250-131292-285712
3528.15-81436-314262-59206-312414-136690-304336
3531.04-131044-399366-89440-257118-119130-283368
3533.94-16918-335128-50862-210772-100044-296572
3536.83-93250-315070-81714-357588-115394-299330
3539.72-103404-356454-103096-348320-151026-316108
3542.62-140984-369660-124424-321678-101110-299648
3545.51-103710-316240-153472-305680-195280-388664
3548.40-201696-332282-104664-412072-115900-270662
3551.29-194376-396732-143246-339184-131122-381284
3554.19-125700-349314-174530-327030-173238-286578
3557.08-108376-388504-159922-347964-115040-391342
3559.97-152176-380082-189174-367912-123246-391490
3562.86-158150-337274-194260-375852-172328-349320
3565.76-200620-411338-129318-309040-207218-382940
3568.65-142672-343604-147896-334724-163952-380150
3571.54-128912-372414-155638-384766-144304-299118
3574.44-178024-349132-118118-322674-145828-399910
3577.33-112018-391472-121282-374104-169896-313812
3580.22-114830-378978-166792-333034-136720-261286
3583.11-152676-313226-114198-289104-113682-327632
3586.01-178408-388398-209580-358150-188380-390144
3588.90-78064-327814-87524-367570-213804-307230
3591.79-170550-318992-170700-447800-158790-318690
3594.68-134474-414446-157346-360124-196690-382700
3597.58-105694-359802-119160-295382-152300-411958
3600.47-159266-359784-134752-386916-77970-337690
3603.36-174728-353992-124656-361120-166076-340894
3606.26-105642-360784-86384-420764-142910-429822
3609.15-163904-295732-119762-309966-188226-345640
3612.04-186786-373186-128400-363450-103662-324910
3614.93-98644-346078-168540-363730-140564-381080
3617.83-125308-335352-159184-379064-155874-347798
3620.72-122680-373294-99318-302000-119904-300732
3623.61-177814-342868-138958-342272-109762-322306
3626.50-127382-364206-95374-432662-147362-465682
3629.40-200204-278902-148702-327286-137660-325364
3632.29-114334-326576-166872-350886-133166-278530
3635.18-196934-358022-115188-368486-129688-369404
3638.08-100068-367794-168810-388350-156856-357736
3640.97-132830-347092-140570-305044-98894-330754
3643.86-145748-310826-109320-371778-147932-362096
3646.75-144192-328386-79816-357420-197946-393920
3649.65-130820-374520-168394-385032-118640-363790
3652.54-124492-398036-129536-463024-188342-351234
3655.43-146968-482814-61060-335720-196210-392420
3658.32-115764-415752-166252-295926-177362-352088
3661.22-74362-329300-138104-343750-98724-361436
3664.11-145264-374074-130522-301114-96722-365558
3667.00-78582-281334-154524-415074-180580-377932
3669.90-147118-438942-94990-293092-119458-392312
3672.79-130330-359730-109680-470958-136532-343428
3675.68-180426-363926-138302-337466-209974-297366
3678.57-225672-335626-114026-233370-209352-359268
3681.47-211908-406340-88734-378922-76846-405854
3684.36-117996-316402-100960-374846-161648-443546
3687.25-207160-450600-195186-375420-190304-344254
3690.14-163854-524386-257666-245722-125306-412876
3693.04-198828-396880-233074-321604-166620-424876
3695.93-150566-467798-204460-305160-91206-417204
3698.82-149706-453586-290988-425554-145200-397738
3701.72-111298-387246-229948-547218-274818-419474
3704.61-133360-262916-85138-391622-242138-430320
3707.50-228806-526106-130854-356546-291482-415498
3710.39-103476-383230-244028-599698-230306-431778
3713.29-21534-258798-94532-509246-186066-494356
3716.18-433548-225404-3672-349306-224456-418830
3719.07-209688-515270-381192-366136-74364-426246
3721.96-274792-474960-151632-329950-275308-491228
3724.86-1698-390336-270398-359956-129698-432994
3727.75-311112-619332-172872-465276-50394-258492
3730.64-54540-437920-329046-650784-71564-259810
3733.54-115202-536848-232968-557182-385854-604106
3736.43-270100-153886-21370-393376-323320-344404
3739.32-257974-483336-182704-202554-139986-444984
3742.21-208868-400356-265022-661996-356816-273400
3745.11-113672-414564-165788-463268-185144-479788
3748.00-109902-348792-292340-340574-195930-358592
3750.89-237682-577308-256578-201190-111070-313708
3753.78-199238-380206-284308-545960-82688-298730
3756.68-67550-270678-225646-361914-297148-453806
3759.57-122060-296972-83664-265512-194968-358076
3762.46-314728-299428-51846-327018-120958-316296
3765.35-220152-343212-222676-258956-76112-278340
3768.25-62610-244500-75252-338076-126008-252634
3771.14-81630-374400-56798-339238-142080-477188
3774.03-277410-565712-420534-657466-582720-877522
3776.93-679776-311156 638280 175764 109424-172026
3779.82-35392-343476-138632-329894-126962-398474
3782.71-145034-343280-135344-346574-106116-321064
3785.60-75862-339856-147618-306264-125314-399650
3788.50-128024-233788-7718-233134-46758-358778
3791.39-206528-411362-22158-213888-15104-279060
3794.28-170516-445508-196726-227884 133980-218658
3797.17-8222-426810-84838-488646-213128-194608
3800.07 102358-329018-252238-459430-166444-411814
3802.96 29166-38392 8146-281646-179304-378222
3805.85-282568-402718 170362-51424-25040-384046
3808.75-142318-421246-297260-55032 152794-247834
3811.64-217850-337900-278584-554364 98066-44144
3814.53-72050-401952-212224-331824-402820-240952
3817.42 248890-131504-31812-353838-179290-649052
3820.32-70278-160532 23906-453534-60374-379786
3823.21-356552-355510 150520-195106-109452-311556
3826.10-127406-532712 5850 62346-20668-405958
3828.99-32674-415532-414982-323242 170414-214972
3831.89-194416-355256-225604-555310 122802-197292
3834.78-71220-400094-105480-476768-266366-333668
3837.67 23344-251486-211058-357856-318550-390210
3840.57 43084-161620-107784-556158-125824-433934
3843.46-144588-78282 50366-274090-169290-404288
3846.35-195800-155260 206266-210904-120478-417604
3849.24-260450-425026 93094-70130-92456-384376
3852.14-155004-427896-67706-255880-126610-255770
3855.03-88122-384740-244404 69618 147106-199864
3857.92-32874-265310-209358-330154 128170-137324
3860.81-14570-318048-2460-334602-44266-83526
3863.71 21254-252208-50086-303840-56218-227386
3866.60 23168-239504 7786-248150-69408-198802
3869.49-134134-214176 99960-261872 6400-218802
3872.39-13850-227338-3420-285268-14108-206220
3875.28-18834-299086 14582-341814 66282-256952
3878.17 129484-166116-10658-210234-40662-242828
3881.06-51628-271336 19426-320862-19322-206620
3883.96-54398-262532-7782-297416-73852-302978
3886.85-82278-232950 114946-234526 49806-251104
3889.74-32886-218530-129282-210168-14100-284568
3892.63 50182-244984-48606-239914-13036-331342
3895.53-33136-256280-112460-251924-11478-166250
3898.42-5702-379246-15584-209930-66794-261612
3901.31-82384-326364-82340-272164-58724-370232
3904.21-29416-288560-98602-253186 1898-261988
3907.10 32024-302582-74574-326858 1612-278278
3909.99-19760-179584 19198-326290-36962-247200
3912.88-30500-357816-39352-300944-56066-275458
3915.78-45070-264858-13246-250084 17610-121352
3918.67 59982-200056 66896 836 206816-192388
3921.56 82728-239718-4768-198386 30416-256666
3924.45 20456-269658-28724-266690-4958-241228
3927.35-58770-319180-7454-322046 72580-280778
3930.24-78040-266298-90006-200770-18868-377432
3933.13-35646-272796-57934-299196-73322-280704
3936.03-28008-257682-101218-265330-34514-264524
3938.92-78452-301142-45508-239310-4558-286254
3941.81-126212-264432-46344-300950-103242-327446
3944.70-19360-260042-32042-276826-16-326108
3947.60-26308-286826-117448-356402-118742-341404
3950.49-36258-330720-74884-322344 456-196462
3953.38 81562-276032-8674-314788-63766-298994
3956.27-101132-309648-44636-302346 11104-197056
3959.17 12278-216492 3826-247930-48118-342214
3962.06-43608-216808-28184-352932-43324-237174
3964.95 64912-244102 97816-197540-15238-271452
3967.85 34854-270442-55410-341498-15064-241854
3970.74 43366-191874 34916-207280 67144-306984
3973.63-44752-266400-43582
##END=
