##TITLE=Ethylene
##JCAMP-DX=4.24
##DATA TYPE=INFRARED SPECTRUM
##CLASS=IUPAC A
##ORIGIN=NIST, Anayltical Chemistry Division, 301-975-3108
##OWNER=COPYRIGHT (C) 1998 by the U.S. Secretary of Commerce
##DATE=98/10/1
##$SPECTRA VERSION=1.00
##$UNCERTAINTY IN Y=2.1 % relative (B=1.1E-04,C=8.5E-10,D=2.7E-14)
##CAS NAME=Ethene
##CAS REGISTRY NO=74-85-1
##MOLFORM=C H2: C H2
##MP=-169.15 C
##BP=-103.71 C
##$NIST SOURCE=QUANT-IR
##SPECTROMETER/DATA SYSTEM=IFS66V (Bruker)
##INSTRUMENT PARAMETERS=KBr Beam splitter; MCT Detector; Multipass cell
##STATE=gas
##SAMPLE DESCRIPTION=Ethylene Primary Gas Standard
##PRESSURE=101.3 kPa
##TEMPERATURE=23 C
##SAMPLING PROCEDURE=1 L/min Flow
##RESOLUTION=0.9640
##DATA PROCESSING=Happ Genzel Apodization
##XUNITS=cm-1
##YUNITS=(micromol/mol)-1m-1 (base 10)
##XFACTOR=1.0
##YFACTOR=9.0949E-13
##DELTAX=0.4820
##FIRSTX=575.169
##LASTX=3975.077
##FIRSTY=-1.19E-07
##MAXX=3974.59
##MINX=575.17
##MAXY=.001038
##MINY=-7.28E-07
##NPOINTS=7053
##XYDATA=(X++(Y..Y))
575.17-131044-316550-251080-259508-123556-128164
577.58-362066-801050-776340-539588-436142-589918
580.47-414292-302128-294324-440142-417434-364582
583.37-276258-364792-362796-418370-342714-359530
586.26-267510-411582-304306-397222-447818-523874
589.15-422508-548822-466824-333624-280196-447210
592.04-440748-462152-355474-440240-407606-386854
594.94-239026-169512-122664-355508-356648-387852
597.83-409042-496294-390712-322968-250936-406856
600.72-400710-378298-273484-327004-260782-218470
603.61-195416-375284-319506-338146-306292-333426
606.51-274470-377570-343578-316470-236914-390162
609.40-263250-260348-257786-314406-250148-296410
612.29-188820-211164-176600-274758-241312-321140
615.18-280388-283044-109100-150988-148072-279936
618.08-239438-232956-121464-238324-224106-308332
620.97-305354-277770-127604-243960-295022-271942
623.86-155570-244530-201934-303732-309658-333692
626.76-167818-197100-230734-354546-252874-246974
629.65-239258-300006-191986-260928-149186-270928
632.54-331324-342776-218774-236370-197680-345978
635.43-244318-125404-44362-232878-239692-292116
638.33-217474-264912-176612-248360-200712-244598
641.22-213626-308158-159150-189368-187814-244346
644.11-120072-188444-155212-200490-62510-95174
647.00-113566-207972-167048-207002-166580-285438
649.90-168554-158214-133676-272398-205024-190768
652.79-107172-189418-178422-263540-184950-199784
655.68-143822-178942-71882-187538-148048-146348
658.58-14548-100970-160890-243734-94886-185680
661.47-179542-217772-112598-185030-196604-243000
664.36-103762-129414-132010-181288-16222 93416
667.25 185948-71244-69564-43064 53304-139304
670.15-110668-42966 154888-73686-136748-88252
673.04 255248 97918-30628-68270 136670 24356
675.93-53930-137428 36804-42892-133658-174734
678.82 27408 48986-16364-151364-7240 68380
681.72-13296-250078-69582 126076 158402-79842
684.61-13068 202326 296226-69458-42294 39854
687.50 176388-92650-34492 18192 240640-5820
690.40-11058 17070 263400 118286-17946 1516
693.29 306370 219872 108362 117522 486924 394892
696.18 196158 142282 512592 550796 288194 118018
699.07 156282-6990-56628 6690 177278 101986
701.97-8752-15322 262608 231982 127042 32474
704.86 384836 428026 302966 57244 365346 595024
707.75 503634 178322 291436 651130 635596 90162
710.64 161214 466662 497576 59630 232392 507070
713.54 789580 253834 188654 338906 739434 294868
716.43 190124 613194 1271600 1037870 729098 752344
719.32 1170848 824118 430934 453820 1144918 962174
722.22 490520 229420 358780 101760 286456 396986
725.11 611764 365118 381324 629112 907818 722322
728.00 580448 891114 1182252 839500 438072 539346
730.89 978058 806846 512364 512364 1149204 1034010
733.79 622590 515100 1018142 668612 552434 744618
736.68 1438090 1338884 1080184 1272680 2014134 1933038
739.57 925146 507616 1065992 1245140 532288 333374
742.46 1030780 1449422 839104 423418 1175088 1663942
745.36 1175378 601996 831428 789076 1094916 1137560
748.25 1414612 1247078 1183418 806382 687218 439002
751.14 474004 630374 832674 650658 584330 885518
754.04 1242686 1088748 884918 1236256 1698530 1717144
756.93 1640474 2050726 2289200 2135120 2090762 1666394
759.82 999406 379776 408526 600426 872784 495988
762.71 479596 686968 992058 623492 865352 1073458
765.61 1392390 1045212 1311622 1842444 2366834 1949022
768.50 1825702 1049330 353198 61624 395828 317198
771.39 299162 259354 484186 440658 566116 582912
774.28 951564 1115086 1383048 1533372 2009562 2336812
777.18 2746190 2831136 2248462 980388 482608 336540
780.07 268482 122460 339928 367200 272706 76356
782.96 354746 565540 513444 327140 984108 1595306
785.86 1553270 1465094 1890920 1507162 671268 201476
788.75 473116 470098 357418 188578 249396 153604
791.64 349944 294264 381746 388712 513088 387526
794.53 684636 1041986 2181276 2608780 1592398 562392
797.43 476386 270312 231716 223522 480358 266848
800.32 306192 385858 549370 366394 376140 260074
803.21 403840 379100 578064 606522 841234 680158
806.10 565672 399632 631534 452922 445178 443562
809.00 598248 451832 598030 441114 481864 555514
811.89 718250 418866 499122 618352 795384 585070
814.78 651078 660928 834386 668764 748668 832494
817.68 1084330 805312 822564 976224 1201050 841782
820.57 1023160 1294892 1434752 1013678 1018112 1413714
823.46 1883322 1492080 1285544 1632516 2234630 1519222
826.35 1338354 2123746 2749584 2085656 1922568 2306346
829.25 2481528 2193542 2773678 3193928 2842744 2290476
832.14 3109322 3719538 3461646 3430382 4703968 5362166
835.03 4381372 3867756 5275652 6177734 5081392 4517094
837.92 6309158 6686590 5031720 5065710 7682456 7612052
840.82 5565854 5786184 7273296 7211552 7268162 9790062
843.71 11719430 9799892 8711180 9559432 10046990 9289710
846.60 9835444 11039640 11186010 10029850 11022950 14770640
849.50 16412920 13769450 13288800 15313100 14956180 11539690
852.39 13082010 18820550 18896820 13469360 14863220 18936940
855.28 16989140 15358150 21954980 26172090 18542040 13452970
858.17 20541340 22863620 16221070 16573690 25999590 26057840
861.07 19356220 19800090 26275310 27371110 23578000 25349240
863.96 26871070 26155520 27523540 29440480 28975030 31554540
866.85 33056600 31196040 29622790 35495040 35522430 29645070
869.74 27751690 35781120 35893380 28214380 28519270 37447900
872.64 38792780 30443680 30109650 46577080 58258980 45667790
875.53 32915850 38101540 47943350 36445430 35169460 54141820
878.42 60096640 43739730 36924500 56271220 64975440 49706970
881.31 49674620 56537180 55973900 44200880 37142080 36860510
884.21 48899580 49339420 48627770 67946980 81477060 61136390
887.10 46609520 52638810 62977510 61775340 61422860 70414140
889.99 83190670 63434340 42413030 43751700 62346130 57801060
892.89 46703510 51910870 72390250 80196570 73177930 86413140
895.78 117691900 123060100 85108540 53587420 67411470 70224460
898.67 62083200 46528310 44211260 66642160 60275740 60634540
901.56 107914100 132306700 90006300 50557500 66733560 67232350
904.46 48815460 55572830 71821660 72724530 59976390 58770800
907.35 86356790 147017100 224739200 178333800 86983060 54798960
910.24 63626780 66795240 62442280 52017510 46057450 64278620
913.13 70145840 47997560 69085530 160416900 228059500 127328900
916.03 57355020 55076960 59895600 49255620 40374540 37455780
918.92 46516780 64032720 73735560 70838140 73302280 138726900
921.81 265379200 231064800 121577200 95306740 72888460 57315040
924.71 47487300 51135900 49640140 68235400 72661420 54444980
927.60 51472380 59582820 88969380 122341100 114722800 87340380
930.49 76309120 81988180 75884890 65304040 64101030 67015820
933.38 66163010 67376350 65794940 55720500 58545060 68700820
936.28 73182820 68429940 78397620 83506260 91683980 105848400
939.17 120015100 126541700 126260600 111165900 109756600 108544500
942.06 99584820 114071200 125171500 104840500 129629200 158099600
944.95 159627400 185726300 207718600 225085600 272362800 312162900
947.85 390282300 637386200 1141322000 1119719000 652122400 398889500
950.74 310250200 269241200 212125900 170216300 131402300 118088400
953.63 111953800 114308900 123979100 133580200 121404000 103423500
956.53 109770200 121992100 93719360 89159190 97212860 95165360
959.42 85134290 77812980 78307900 64942130 72550540 86550870
962.31 76883490 89331140 75555450 78976600 84671700 91574400
965.20 99923340 95702150 80974920 62941380 78450910 100865000
968.10 89808750 97221150 143586800 171296500 129567500 96917970
970.99 73871620 55303930 51876470 60658000 77240180 73893400
973.88 55739040 61518420 77546620 73527620 63258060 76154760
976.77 91172350 103692000 168733600 210175600 140732900 80385000
979.67 56246750 69132890 66586960 49403400 54017540 70184400
982.56 63523940 57082750 56485650 59534610 63499760 83928420
985.45 141891500 177934200 183524600 234469300 264314400 196875700
988.35 87292940 50599710 60087820 54476560 61179940 74025860
991.24 65446630 54973630 58505420 83092450 80353020 55831220
994.13 68141140 74564660 65326250 82319860 136833200 199906000
997.02 163884700 68193370 55578770 83989360 77717340 56063920
999.92 79600780 91937240 76699300 60638860 63579320 68188940
1002.81 62149570 76440260 99435610 85093750 68714580 110055700
1005.70 159611100 158926300 126177100 98787170 87739810 70590260
1008.59 61040660 70669210 64095440 51095560 60979940 78799710
1011.49 68358700 53704970 58286860 62553080 59851150 71582360
1014.38 79492220 78051630 78980960 72688580 59489580 65810900
1017.27 62842260 41522590 37942340 56201620 83005780 94433330
1020.17 73703260 55693680 56142380 67777380 57314140 55655810
1023.06 70469270 63784530 41199880 44383960 55628400 54940710
1025.95 48268290 53930130 75474510 93994350 76081400 59980160
1028.84 50082400 35903960 42481530 48944580 37742510 46369510
1031.74 56158940 38704680 34450660 50276120 43656760 27571470
1034.63 35562220 44721010 36098690 36042120 53412660 61160310
1037.52 46298340 37716580 34675060 24448310 27667690 32558790
1040.41 25462810 22184700 28759790 27438890 22578580 27972000
1043.31 45989860 42397150 26928840 29562780 39712520 39164430
1046.20 32179510 35242660 52717650 57533660 33332280 22238940
1049.09 33971290 33124210 15377680 17002870 31782320 25923560
1051.99 11700380 20309480 29149110 18647780 10991940 18807520
1054.88 23724250 25772540 24677470 19677470 23120670 30054830
1057.77 26612490 21119230 23481300 24668390 15585160 11973530
1060.66 19420840 20243130 12057360 11786510 17837580 16909950
1063.56 10524760 11214020 15775790 13641900 7720940 10717280
1066.45 15381120 12186680 12674090 26949760 27141460 15724180
1069.34 15915010 22497110 14835350 7934820 15008530 18403370
1072.23 9759550 8452956 14985140 14048640 7204924 9244224
1075.13 13836820 10112870 5802396 10234180 11904330 6897574
1078.02 6522556 11396770 9919092 6447978 10729940 15440310
1080.91 8347136 4424436 10757570 12446510 4869286 5209612
1083.81 10857200 8889146 3173910 6436068 9339822 5437054
1086.70 3216090 7428772 7052288 3243528 4303524 7716190
1089.59 5313658 3644332 6425062 6585348 2485814 2694250
1092.48 8006770 9695140 3971204 4220908 8292016 6729432
1095.38 2700004 5192740 7000968 4109240 2699478 5693408
1098.27 5271436 2713044 3262864 5338174 3597352 2441172
1101.16 3832242 4479668 2263300 2119966 3269974 2998698
1104.05 1508326 2344738 3659090 4084592 2518450 2675232
1106.95 3420512 3043366 1881892 2627072 2810402 2114918
1109.84 1642138 2498654 2163312 1725384 1821328 2347232
1112.73 1560180 1310744 1409788 1556506 968978 1148036
1115.63 1149228 1179886 789666 1050178 1295184 2542914
1118.52 2193510 1224628 1524186 2374422 1368274 1018714
1121.41 1647384 1839820 900170 1286070 1657906 1157370
1124.30 520568 1199782 1084720 618170 573654 1104134
1127.20 575458 421398 664674 861104 281204 479472
1130.09 604162 821082 761970 773966 549420 731126
1132.98 562976 554340 413554 625324 382568 361936
1135.87 280094 442050 176888 256418 245388 318712
1138.77 41540 206368 135334 137578-23312 204554
1141.66-650 11764-22470 239356 359880 506816
1144.55 137928 291356 310228 272686-17372 260434
1147.45 172822 78964-38576 239136-25546-17330
1150.34 43570 162380-164448 30772 27088-27806
1153.23-220098 64136-89796-95588-110106 48990
1156.12-161486 55544-59174-96042-171006 45698
1159.02-178874-113508-92510-990-232886-57020
1161.91-134224-103022-215214-52468-213794-117912
1164.80-173860-124222-299398-133604-237402-185168
1167.69-285342-131348-264868-113986-147424-118636
1170.59-269226-74746-193166-165526-204002-63098
1173.48-258522-143630-211654-177798-306054-136886
1176.37-254736-205472-274706-163560-304280-184208
1179.26-268916-188760-295098-171352-279580-187268
1182.16-251210-149698-297204-168696-240420-188644
1185.05-297214-167430-286014-207338-283940-191986
1187.94-314256-206432-293734-213394-320330-213850
1190.84-305006-194398-284502-216014-321894-207110
1193.73-299880-210478-299058-191920-305468-225326
1196.62-305002-209406-315762-227032-301318-195306
1199.51-302384-208904-307620-216076-300204-222330
1202.41-332290-226968-305836-207774-314234-222460
1205.30-289088-221706-337816-229762-307350-217452
1208.19-320374-222768-299796-223196-310394-221620
1211.08-315436-235494-342890-247502-306640-200842
1213.98-288044-205204-305920-229476-308390-224018
1216.87-325328-233456-306556-219248-321212-207388
1219.76-277588-222346-312008-202528-290306-227438
1222.66-328292-248732-320878-237046-328192-230596
1225.55-311036-229690-304618-217010-307052-233872
1228.44-314540-217770-305434-244258-322174-230054
1231.33-316250-233006-316474-226186-310224-234476
1234.23-319932-213198-279336-203208-293292-217330
1237.12-306092-222140-294240-224770-310068-231244
1240.01-316198-231192-309720-233898-305000-224798
1242.90-297244-204158-292996-229086-303940-213536
1245.80-298042-239428-310836-219522-299066-224840
1248.69-311084-231754-293112-220792-302924-238802
1251.58-319214-232746-288178-199948-288448-222276
1254.48-294944-235126-324434-251370-329548-247690
1257.37-305140-223312-317126-248916-317782-248910
1260.26-323292-243842-307852-226268-294096-219928
1263.15-303394-230468-307048-226280-300288-218596
1266.05-285704-221178-313830-253770-315192-223740
1268.94-290462-218614-293766-220510-302770-236866
1271.83-305332-232050-306176-226992-307520-254090
1274.72-307662-211422-292722-226774-283490-211832
1277.62-299816-236016-298616-215574-287166-231672
1280.51-301134-232802-309848-244094-324580-240530
1283.40-299368-243942-318512-216514-279960-241128
1286.30-319974-242678-311116-236960-306492-233490
1289.19-295508-229842-296050-228354-296040-210020
1292.08-283454-225882-296680-219484-300760-248548
1294.97-304116-214056-284458-222376-291850-245464
1297.87-328164-241506-294498-231926-299576-214794
1300.76-294418-234118-288936-228136-297068-215444
1303.65-281936-210752-268478-198574-254808-196416
1306.54-271886-206264-283626-236980-302478-217030
1309.44-299328-240486-289550-224980-297228-233146
1312.33-299808-233148-293254-219790-298818-243902
1315.22-302186-233068-314432-243682-292968-233862
1318.12-320428-248088-281886-197986-263582-207834
1321.01-271920-216844-288298-212216-281730-212420
1323.90-267798-195738-259516-214900-293722-228000
1326.79-290168-207682-272354-214506-285366-219488
1329.69-294914-230496-269200-200912-284214-218304
1332.58-261444-188084-261092-162860-201514-159420
1335.47-227760-175484-257176-192746-242020-199166
1338.36-296556-214204-253766-209580-276582-185302
1341.26-254918-201096-259612-196042-263970-229846
1344.15-300272-193288-248434-204354-269066-209026
1347.04-270486-187714-237898-177948-223522-131262
1349.94-203470-152618-211958-157126-249416-195400
1352.83-250230-193162-260376-178142-249360-207782
1355.72-285314-219354-284360-207024-255298-200626
1358.61-279004-212712-261118-174002-256856-209244
1361.51-272436-202570-250830-167496-219676-141372
1364.40-139612-10384-71568-32124-94062 12618
1367.29-61564-45792-151272-104992-165874-65420
1370.18-98430-27784-101302-47692-49172 32484
1373.08-88720 59216 109702 96742-6116 212392
1375.97 185288 142380 218530 425136 186032 241498
1378.86 506996 650644 449404 791832 967578 637042
1381.76 519942 1198626 1170076 800946 1192426 1765036
1384.65 1100078 1212180 2133340 2099338 1369398 2219844
1387.54 2817410 2057128 2259364 3814838 3348388 2576028
1390.43 3673644 4474048 3382398 4033942 5816358 5316180
1393.33 4406756 5679066 6463546 5625946 6314644 8496734
1396.22 8177286 7004108 7820378 9347622 8573436 9359852
1399.11 11873130 12291140 9923928 10688000 12811600 12470550
1402.00 13521370 16385610 16040530 13882070 14568140 16758330
1404.90 16633720 19001110 21145930 19519430 18497930 19293320
1407.79 20889170 21632330 24505310 26103370 23321080 22984960
1410.68 23495160 25490560 26230040 28506730 30475460 28199570
1413.58 26302550 27516040 30299960 30070860 31076540 34557200
1416.47 32623760 28478740 30542170 34215720 30795910 31560670
1419.36 35804740 34782570 29601150 32190300 36009860 30017530
1422.25 30020300 34700760 32720930 29814210 32486990 34252060
1425.15 26389570 26295950 31445900 27348420 23687530 29531130
1428.04 29596650 20667760 18370920 24127640 21353220 15232510
1430.93 19549830 22732610 14506340 10099480 13585570 14055220
1433.82 7919442 8741290 13196430 9121870 3464660 5461402
1436.72 6754802 3970124 2697184 5276886 5325776 5226698
1439.61 5920708 7013410 6369852 7095610 11042660 27154940
1442.50 50321380 65837800 62050890 59622650 55100080 42055990
1445.40 37695310 38889750 28954390 22619650 22997920 24871220
1448.29 18037250 13600800 16247370 14979370 13267300 13932830
1451.18 16654560 17071670 12725510 11374860 15255960 17915050
1454.07 17030310 15440510 15627900 21554760 19437200 14112750
1456.97 17316900 25915580 23603840 14189510 18179700 29105970
1459.86 22520120 16751680 25349510 30647490 21183730 16732790
1462.75 21874310 26100100 26582960 27767310 25366280 22528650
1465.64 24287620 20993280 17107690 24290860 35648840 26799060
1468.54 16936440 22370350 24758180 17988970 18429330 26401050
1471.43 28017200 21936600 18262040 17482910 19335570 21743290
1474.32 19727580 16829170 20765780 21891790 14884540 13422140
1477.21 18959650 18938250 14952380 12905300 14737150 16559180
1480.11 14919180 12885890 11981540 14423160 13260620 8357518
1483.00 9310106 14750140 12373440 7935014 10033230 10671080
1485.89 7486442 7417912 9450260 7689110 6921894 8729236
1488.79 7311058 5003672 6256876 7334834 4875074 4357434
1491.68 5406084 4927672 4816232 5280446 4211512 3170726
1494.57 3763198 3671862 2107794 2905808 4095772 2974832
1497.46 1958962 2567660 2411850 1460502 1814760 2249914
1500.36 1789974 1375412 1650328 1484518 1125674 1210166
1503.25 1157402 903534 884742 825492 624876 693272
1506.14 703376 471130 407366 498464 381346 260670
1509.03 327714 333492 281806 210712 186786 158018
1511.93 23034 9658 28294 74866 30298-14592
1514.82-45522-53074-99204-120010-184418-139588
1517.71-90340-87620-151854-175264-219258-232072
1520.61-292488-251628-223132-234110-204100-152072
1523.50-201644-216856-251158-276276-277302-224926
1526.39-242934-260208-284578-254834-255500-248228
1529.28-269144-250434-263670-255312-273394-246964
1532.18-276816-304212-335558-311778-288022-262858
1535.07-282784-272274-290050-269780-286994-281550
1537.96-328294-348966-308040-254778-315822-288136
1540.85-287242-327898-362846-288436-292978-277394
1543.75-279112-281190-330794-289110-288758-263566
1546.64-279710-269354-301238-286750-285230-265808
1549.53-302032-285436-288494-275644-282802-264432
1552.43-296202-287916-318862-319408-298864-262538
1555.32-275174-228772-218258-291950-356296-353256
1558.21-373506-311742-361344-361016-312138-244904
1561.10-279232-273784-301984-282220-284454-249552
1564.00-283614-285044-287312-257540-276384-258302
1566.89-274316-254786-286316-280462-314086-308574
1569.78-302952-254184-274848-272340-287796-251052
1572.67-249232-227002-284926-276826-284796-306308
1575.57-373644-309594-283650-278616-298202-268786
1578.46-284556-273624-289160-264878-277254-262480
1581.35-286304-251036-260480-249808-271850-255090
1584.25-288322-270932-290972-260932-266692-254880
1587.14-277456-249216-277910-271838-279356-225016
1590.03-230032-236186-272640-260266-286034-275650
1592.92-289404-262102-287996-265262-276308-258928
1595.82-286160-254346-275726-267158-288452-263660
1598.71-274724-256842-280884-250882-271286-269866
1601.60-293714-268228-285770-263226-274652-247668
1604.49-265114-239478-262118-251256-269100-247498
1607.39-276632-263334-277542-257454-281396-262582
1610.28-279246-253318-259802-239958-267758-246124
1613.17-259842-253480-282922-271602-292458-286968
1616.07-364714-320366-273260-262220-287712-260882
1618.96-266352-242038-270644-253640-269248-254388
1621.85-280228-261940-287680-257782-251022-245500
1624.74-275470-258376-268782-258874-293030-296586
1627.64-311372-267994-277342-253138-264438-243928
1630.53-271314-259850-280720-267290-267010-245536
1633.42-276520-280134-329658-346576-353076-272394
1636.31-280668-290586-298182-253422-278630-263090
1639.21-282118-264394-279074-256042-275916-264610
1642.10-278422-258310-279630-254758-276692-266692
1644.99-311872-327624-317096-282150-312494-283572
1647.89-296104-256832-269650-256148-286172-278456
1650.78-303642-305342-389668-377924-390172-330314
1653.67-317694-300636-277720-244178-271024-266234
1656.56-277946-260612-283726-267586-285210-263296
1659.46-276882-262920-278710-267940-294946-294118
1662.35-328562-281064-273086-263670-291634-276342
1665.24-282390-250168-262854-251238-281318-272292
1668.13-305370-321970-333020-278164-283344-275334
1671.03-306266-275062-287322-277158-289428-256966
1673.92-271684-297116-347610-290788-287656-275610
1676.81-282056-248182-266442-244036-267340-273954
1679.71-304164-281366-281380-268032-284672-260908
1682.60-311270-301642-318576-351938-359648-268024
1685.49-267128-245304-269914-256840-278660-250284
1688.38-253798-244630-276640-245432-254030-234724
1691.28-256340-240360-255590-247928-264646-234708
1694.17-257358-272250-353116-312432-258222-244298
1697.06-267244-239078-252936-253578-312842-329580
1699.95-333758-277776-262898-237530-240914-219002
1702.85-233440-221792-242982-202978-211056-239814
1705.74-300076-246856-183064-151546-188180-197480
1708.63-210532-155342-200114-215652-213908-165918
1711.53-168416-199918-238450-227662-203732-168478
1714.42-205016-180348-152218-123442-196170-272690
1717.31-263378-195936-196556-127492-119272-131926
1720.20-187914-144462-81108-69878-124846-140126
1723.10-121382-99350-188570-164508-124396-45652
1725.99-100286-133916-112622-28162-38208-124108
1728.88-163008-112454-44400-64608-139228-87738
1731.77 43766 117460-93626-192226-182642-107474
1734.67-123308-138026-158104-63818-13878-10948
1737.56-24934-39554-50674-112862-180734-82116
1740.45 18738 89046 93066 214492 161754-27000
1743.34-137572-122464-93212-35186-40730 35658
1746.24 112746 57590-86026-135904-167746-58958
1749.13 55840 178514 296728 201436-75586-121820
1752.02-120346-83870-28714 125434 158082 33386
1754.92-85516-82248-39780 114130 273110 166368
1757.81-72724-106642-65064 32634 6714-128146
1760.70-185428-95226 9700 30946-140272-173698
1763.59-138940-151350-180106-137614-204352-182818
1766.49-126680-159788-257602-171426-147916-189070
1769.38-166722-63736-119744-126886-96002-151214
1772.27-179870-14438 3966-2 74716 66644
1775.16-85324-42606 63824-1722-79948 92862
1778.06 40590-97228 13676 48954-94450 14304
1780.95 65456 29608 69508 95096-12918-7566
1783.84-20854-85428-65156 40874-28000-45898
1786.74-24684-39420-89300-109568-130926-41726
1789.63-87980-172606-174424-206104-229222-212130
1792.52-265094-188410-163018-123836-95674-127568
1795.41-217826-247906-231992-205772-264968-254274
1798.31-215820-192360-238022-254246-292788-290834
1801.20-283244-227856-259342-304724-352362-321082
1804.09-309882-283560-270392-200020-195466-196416
1806.98-235454-258292-258696-222606-233032-202702
1809.88-243170-232540-251454-255596-235680-208994
1812.77-166094-140626-207132-242836-258088-177168
1815.66-189696-224342-245224-206358-120012-5624
1818.56-24718-22530 28714 14002-46174 16650
1821.45 58506 74440-13274 66106 147030 280670
1824.34 311396 233240 151570 177034 273550 426204
1827.23 478610 561884 484370 356130 436906 633572
1830.13 813414 771304 645738 945500 1106594 1044924
1833.02 784996 977004 1519066 1961008 1709354 1317210
1835.91 1414700 1595806 2166104 2211410 1438122 1666674
1838.80 2901758 3152548 1988448 2375732 3466306 3203082
1841.70 2442946 2698712 2806180 4086060 4187520 3696912
1844.59 3856060 4832886 4710896 3213368 4171522 4993838
1847.48 5614724 6400000 6360006 4765948 5216738 7597160
1850.38 6254648 3901002 6907964 10374030 7652910 4972370
1853.27 6955050 9514064 9021784 7566752 6245424 9210494
1856.16 11832960 8244326 6902430 11255550 13079450 7390400
1859.05 6551192 10175600 12755490 11064820 11829290 11539570
1861.95 11368570 9866000 9001524 8621752 13421380 16127800
1864.84 12080860 8639218 13020370 11962570 7741140 9904012
1867.73 16087270 13586560 8908038 10670730 13204950 10964060
1870.62 8634702 10411500 12881960 11557490 7779200 9377338
1873.52 11926870 11395700 7180182 6814452 10270680 9234490
1876.41 4895392 6321634 10130340 8051008 3502432 4878034
1879.30 7625170 6146270 3490698 4877926 6096878 3479344
1882.20 1539164 2804136 3354478 2174312 1588418 2886982
1885.09 3405892 3536780 4519462 7365738 12667780 23847020
1887.98 54162880 75027020 37460800 8199174 5472556 5275176
1890.87 4829870 4125780 3976328 3088416 1806324 2139834
1893.77 4406560 4749382 2908478 3541370 5553166 4003002
1896.66 2159080 6329838 9316506 5046686 3551478 9018292
1899.55 10055850 5148742 7280882 14171620 11439810 5618784
1902.44 10108000 15161510 9952746 8223338 15492300 16711400
1905.34 9528970 10619130 17605260 14435200 10058860 15097280
1908.23 19132840 13128320 11106890 18262200 17220260 11969710
1911.12 14748040 19090800 14377230 11823220 17513510 16294030
1914.02 11612740 14645680 17988770 12997560 11431840 16850410
1916.91 14095420 10310930 14191880 15903180 10619260 11284070
1919.80 15337800 10963580 9420628 13961940 12540720 7617818
1922.69 10919810 12584170 6690768 7997154 12921060 8738142
1925.59 5156664 9831780 9069850 4465346 7620168 10170390
1928.48 5301186 5306840 8611420 5617084 3414682 6619906
1931.37 6236334 3369360 4225940 4982190 3481014 3252826
1934.26 4162056 4149994 2769602 2536304 2983942 2690390
1937.16 2262078 2580986 2770166 1938482 1594804 2113192
1940.05 1809404 1292578 1233844 1426962 1583304 1394076
1942.94 1146470 1084546 932648 741540 756316 903330
1945.84 586842 480324 589000 599810 628136 614480
1948.73 425556 219840 130090 132180 152408 142454
1951.62 51398 72538 38800 15816-41614-62402
1954.51-166142-216278-240954-202592-249374-242952
1957.41-208824-112512-148328-161104-130264-140434
1960.30-254220-296550-232594-85416-109474-109176
1963.19-90394-107144-236058-240374-230744-148152
1966.08-118940-135216-93496 49582 27736-44464
1968.98-104316-120206-190778-260582-317662-336508
1971.87-266220-121994-80046-64342-92408-74564
1974.76-73028 28372 43998 48858 21356 64578
1977.66 65820-4412-132796-44706 14826-69942
1980.55-124314-24792 35626 133026 111976 70402
1983.44 39662 8914-57360 6124-53922-187692
1986.33-170716 72384 82592 46240 310914 441436
1989.23 142186 66774 117368 48552-130566-180548
1992.12-111746-98028-226660-141248 80910 322568
1995.01 394172 256676 72694 59456 182000 49514
1997.90-40312 45482 218852 242126 30844 61810
2000.80 190728 197538 268232 302656 278456 277876
2003.69 347614 398640 313372 240714 187958 415966
2006.58 539094 266838-16934 247214 695762 618290
2009.48 303530 306476 658474 607250 198540 141970
2012.37 349216 655374 571322 630442 876164 754946
2015.26 720652 593402 527568 494828 807106 1067862
2018.15 1086418 720812 678408 1088448 776118 453424
2021.05 563444 1355036 1330816 753350 655940 1173800
2023.94 1294560 591802 520180 1196442 1519960 908552
2026.83 534274 1026940 1276822 803206 515750 878122
2029.72 1203910 1091120 491928 597776 1031316 1150252
2032.62 739178 480998 717568 1032728 520776 265290
2035.51 690276 1208600 693966 259592 428274 718990
2038.40 265196-34552 208376 622592 332618 45232
2041.29 161564 420364 222552 141712 304658 650660
2044.19 694632 1000218 1575366 2572444 4384208 6486594
2047.08 5061420 1526304 88086 9842-34062-135412
2049.97-214060-71984 22644-42928 47034 512422
2052.87 549402 69320 123282 509480 249388 69502
2055.76 738762 1072288 371466 443996 1121814 859856
2058.65 503422 1359320 1649142 789336 873762 1736772
2061.54 1336264 1060506 1802702 1934618 1207046 1493478
2064.44 2214870 1831114 1550950 2034634 2120110 1568320
2067.33 1944704 2470616 1859496 1750038 2325934 1958224
2070.22 1754622 2556786 2147216 1515528 2184972 2084312
2073.11 1605930 2286608 2002822 1277368 1885814 1975226
2076.01 1606718 2119618 1771116 1201782 1723314 1731772
2078.90 1414846 1646154 1286230 1011008 1327304 1355822
2081.79 1281058 1290290 828700 843412 1058204 990102
2084.69 961486 792376 581564 767296 614462 461588
2087.58 539834 504940 470882 424728 376222 458914
2090.47 284116 162978 153176 182464 159944 148962
2093.36 83674 91234 34574-14902-93916-73620
2096.26-30414 21578 9992-9704-117950-89228
2099.15-99144-32866-80574-44624-41976-71232
2102.04-151592-75408 32584 58166 12224-40136
2104.93-109512-189418-236862-157366-31772-30600
2107.83-120748-142676-174292-178460-140958-56986
2110.72-5334-29922-140182-42638 41256 31616
2113.61-52074-114116-152490-128852-169944-122618
2116.51-151678-130116-177290-167598-141166-37380
2119.40 20864 63156 35632 80824 77780 137762
2122.29 190048 340468 324130 88222-102316-63934
2125.18-55392-71898-117448-948 32274-53080
2128.08-63634 89900 25732-105588-26772 252012
2130.97 340806 331726 409568 379850 55560-15922
2133.86 89948 172492 94602 76696 22960-127074
2136.75-65650 141210 134764 84032 152090 277982
2139.65 154810 211596 598682 991886 742660 418452
2142.54 385644 228114-16970 69796 183126 192818
2145.43 110850 152078 175852 210056 162630 118722
2148.33 197592 229696 169628 400410 634290 525402
2151.22 437962 450260 281976 177570 142172 208188
2154.11 369458 341050 151978 233788 265894 236800
2157.00 196386 328216 443680 483606 505428 729442
2159.90 528902 163056 43662 172710 191332 224546
2162.79 211422 194880 154584 69012 110718 289262
2165.68 257214 164992 161922 187888 76334 11490
2168.57 163980 267486 177520 74924 62606 129032
2171.47 78992 95242 112342 117418 101038 17056
2174.36 18988 177734 307728 316794 237828 200086
2177.25 189940 190928 163408 350830 539698 597088
2180.15 563824 553152 452210 485284 698054 628824
2183.04 334162 310206 398604 571522 563604 360180
2185.93 354154 403382 479554 783220 1012840 846406
2188.82 849194 799932 578826 532772 472096 641232
2191.72 662362 467858 446422 580430 672654 723766
2194.61 676580 572840 535292 582080 615404 589624
2197.50 471672 439120 418726 384872 393412 625578
2200.39 782866 751982 688520 706276 497416 345272
2203.29 335438 388198 392242 543386 728046 688918
2206.18 426870 356662 350958 456588 519758 461344
2209.07 329568 355140 322536 383862 501146 524652
2211.97 365264 345996 436508 456200 385992 475806
2214.86 412950 272074 250406 253414 155210 170054
2217.75 201218 226248 195654 205196 246326 318640
2220.64 263290 229498 194858 162816 130872 188786
2223.54 249364 259606 243590 274602 264684 246074
2226.43 170514 114800 156272 207412 81294 77578
2229.32 173966 226944 156348 166652 137540 111004
2232.21 125348 170012 108320 74534 28404 33624
2235.11 20060 82674 123040 130480 84762 92346
2238.00 63684 70134 45112 36500-9942 1832
2240.89 4314-2288-5152 71362 122464 124044
2243.79 60018 112784 82924 44966 46914 60736
2246.68 60880 67012 9078 66714 80920 78440
2249.57 128414 202512 265692 534156 722988 556198
2252.46 364504 341016 202922 119502 66822 53678
2255.36 5734 8400-41942-59252-74692-56126
2258.25-86394-66462-78924-79948-95232-77252
2261.14-127134-134670-113198-64406-98446-120980
2264.03-150290-115468-125688-138814-165136-118324
2266.93-119694-135754-158550-141878-151398-121772
2269.82-139154-133438-123370-92570-95466-30420
2272.71-55568-88940-120000-102026-108218-126430
2275.61-172528-165676-170286-170368-170136-119864
2278.50-137992-146512-162440-121790-41884 25050
2281.39-72624-125184-172718-155956-155436-142328
2284.28-171358-152604-162032-150810-187580-171916
2287.18-168556-132786-122014 6990 163458 190890
2290.07 38600-35018-87458-82798-106950-139070
2292.96-182314-165404-166900-165084-176036-150492
2295.85-191354-175610-139892-29272 11774 7090
2298.75-58082-94704-137688-151326-171512-114050
2301.64-107502-113452-155212-118282-99086-85732
2304.53-131990-131538-133138-123840-131270-118784
2307.43-97166-43536-53254-58002-94810-103186
2310.32-151494-150696-143886-109566-127012-82096
2313.21-35584 7306-96598-100178-109316-103968
2316.10-133312-81152-109762-119214-116606-70322
2319.00-99012-82182-94848-72438-77604-81252
2321.89 11932 122270-1024-101524-126784-10948
2324.78-27064-109176-107016-5480-38708-116152
2327.67-93882 36380-4084-82724-18144 129598
2330.57 40280-114824-17136 92418-75262-86202
2333.46 92178 90906-131058-94432 65366 8026
2336.35-157412-41898 62916-15042-2356 158672
2339.24 35904-126174-49740 56658-87936-83962
2342.14 23774-23384-132520-16036 12596-102326
2345.03-116354-13622-77452-143406-132392-75084
2347.92-118844-120714-110882-67902-76404-71490
2350.82-52844-69766-126144-46096-47110-72796
2353.71-960 2114-105226 7346 29008-35376
2356.60 29174 56882-11312 144124 91932 4992
2359.49 107646 58886 4182 152458 31340 39354
2362.39 118506 5618 25214 70144-29580 89958
2365.28 46956 40228 61580-30088 26990 31068
2368.17-31168 37744-1232 40710 10446-8848
2371.06-18252-26986-28178-86170-104154-66142
2373.96-91468-100036-128552-83022-96268-91798
2376.85-122520-105218-92564-58698-100626-116584
2379.74-106984-95128-125552-97574-75820-69136
2382.64-127140-108522-109694-110806-152278-129464
2385.53-132236-115576-153336-141242-125824-108386
2388.42-110772-82514-97854-70634-91678-94580
2391.31-80306-45560-81274-115034-151902-145990
2394.21-152260-146226-162614-119182-120462-129920
2397.10-157904-136746-116100-85234-123552-84956
2399.99-59214-72000-125620-87314-82922-116158
2402.88-174384-129808-130290-119620-134448-129020
2405.78-160812-159328-156944-107708-130394-143134
2408.67-113540 17088 94098 65056 1080 7718
2411.56-61498-132840-144146-122128-170814-171094
2414.46-140894-108112-132538-122784-141540-136100
2417.35-137894-136030-152360-102854-46662 5392
2420.24-6132-70412-153962-156972-167986-124364
2423.13-136766-110600-124332-151528-159690-90770
2426.03-112802-142816-135992-91744-82442-67478
2428.92-29854-7016-117150-159528-183818-173786
2431.81-181334-177580-199054-177830-184860-175004
2434.70-180742-158426-168480-171968-190490-198454
2437.60-214240-184796-184404-169830-207142-207760
2440.49-199968-176076-210890-211492-219906-201284
2443.38-227882-224714-207546-146846-154772-155588
2446.28-169556-160464-140138-72818-78634-100852
2449.17-114286-113994-148998-148850-168172-131676
2452.06-117410-123312-148482-134506-134326-118822
2454.95-166346-164076-160782-163328-140978-94124
2457.85-64448 2312-54298-79674-144232-151330
2460.74-126480-127130-137174-92560-160310-171036
2463.63-139318-76734-92528-115392-123018-108442
2466.52-135838-95312-112060-131246-148486-130240
2469.42-104340-91100-155606-124348-126588-151090
2472.31-153262-142518-181724-148534-149908-127114
2475.20-147980-164502-184910-165868-174882-135850
2478.10-161874-159030-138448-152814-206066-174274
2480.99-177916-173112-181604-163272-211080-219978
2483.88-206554-187836-216582-179946-197156-210978
2486.77-215014-188320-213094-205148-196268-185008
2489.67-217464-204948-222250-204024-199038-193786
2492.56-230818-218432-232078-221570-220302-200994
2495.45-216374-203024-215114-214114-241082-241776
2498.34-251388-208992-227472-245134-254478-238240
2501.24-256446-223238-216636-212308-225802-216158
2504.13-253480-242170-257618-242268-245128-240328
2507.02-249112-231410-251500-234332-237668-216884
2509.92-221918-214552-218160-198632-219642-219642
2512.81-234080-213464-224720-212978-231864-235476
2515.70-259590-238960-263176-259338-264606-232056
2518.59-240542-224188-236372-220612-231974-214270
2521.49-227382-213552-233150-234452-247322-239130
2524.38-253390-239566-249632-229860-255020-252648
2527.27-250102-228066-231940-207400-231028-223538
2530.16-235814-216122-230222-216980-229004-222478
2533.06-247272-244826-248710-236990-260112-241266
2535.95-251562-237874-248292-247686-272564-260200
2538.84-274980-245960-247092-232374-225144-213886
2541.74-244192-220908-198966-203040-244108-228472
2544.63-240004-238674-257760-250896-270210-247864
2547.52-239380-238844-266672-250118-250800-229276
2550.41-244886-238418-261160-248116-272092-264502
2553.31-262888-246286-259890-242562-258578-243082
2556.20-261614-256430-269888-256952-267524-245044
2559.09-256008-231836-256244-257210-269888-252080
2561.98-235880-203954-217386-216808-230596-217724
2564.88-236954-214096-205012-170926-181606-147154
2567.77-91678-44918-119646-156290-183970-183204
2570.66-200480-187988-199128-187138-216674-205028
2573.56-242182-252400-266326-254410-251232-228212
2576.45-253200-231208-236436-233090-260348-259942
2579.34-267700-233462-235760-234432-262110-245758
2582.23-248722-243630-249092-224044-247562-236432
2585.13-235260-224834-247608-246018-264134-245154
2588.02-246508-235960-265666-248604-240862-203958
2590.91-225010-220706-235852-231046-253788-231452
2593.80-243866-253216-264568-242082-244024-223846
2596.70-251272-255412-258372-234100-254658-237664
2599.59-231650-228316-262708-247096-252574-241352
2602.48-250082-226146-235250-233294-258494-233506
2605.37-244702-227604-240082-219492-231832-214606
2608.27-217214-214930-263494-263996-263666-252394
2611.16-278520-239340-243764-238384-253526-237942
2614.05-245334-224708-237440-226664-230284-207928
2616.95-239782-244256-254406-240594-267720-234112
2619.84-229108-212142-224100-224088-241374-224950
2622.73-234384-215940-227170-212434-238256-213618
2625.62-211202-196964-230918-229004-245176-236526
2628.52-239540-213070-238210-240038-242592-221600
2631.41-244650-218046-215238-218210-250412-228280
2634.30-238364-225762-234350-228874-276696-262834
2637.19-245546-222664-247442-234196-249146-223672
2640.09-235536-235116-250868-230698-257136-247004
2642.98-246014-218774-223102-207178-237238-216858
2645.87-210974-210090-258718-248518-229324-207846
2648.77-235490-236400-263416-240914-244562-233868
2651.66-248600-230590-254742-243540-243614-218110
2654.55-246122-238868-245076-233496-243586-232066
2657.44-254968-241852-250750-237636-256706-225112
2660.34-241008-252266-273320-238400-231974-217054
2663.23-252118-228222-227632-240812-261332-239568
2666.12-263498-252470-260428-250312-276560-265440
2669.01-271128-257278-277068-242012-242036-243586
2671.91-291188-278690-271978-242928-262244-235484
2674.80-252774-248706-264336-238492-270772-260236
2677.69-250006-228706-269628-269610-280072-254818
2680.59-280750-270810-274342-253964-264456-249910
2683.48-279400-255612-254564-244864-268536-253286
2686.37-264100-250594-263680-251072-275586-270502
2689.26-293418-286284-298742-273266-272282-245282
2692.16-251520-247402-259880-231010-262204-253292
2695.05-254242-247158-283018-268966-292250-288982
2697.94-282978-230678-238790-261706-283566-267230
2700.83-289180-280754-297758-267186-278206-253310
2703.73-273014-261256-259722-251378-276348-267336
2706.62-286408-264862-285982-267792-289862-273220
2709.51-282902-264722-281848-263588-265210-249508
2712.41-266580-266338-296574-267488-277514-271912
2715.30-277116-266836-285866-273578-304380-272662
2718.19-274868-269308-283822-248638-270540-269694
2721.08-302338-268858-272298-264578-275598-247006
2723.98-244264-232302-275592-259694-270282-259488
2726.87-266904-249674-282950-274096-273788-248848
2729.76-269318-247680-263278-251542-273658-273320
2732.65-302208-267884-264666-253626-267120-249622
2735.55-291020-292124-304532-261254-273738-265898
2738.44-285574-260748-275132-267524-288840-262346
2741.33-274522-281802-310664-275308-265198-254190
2744.23-281334-260306-281262-272372-274084-248596
2747.12-280926-270536-295700-260596-264898-258978
2750.01-287472-276134-289368-284966-313734-271036
2752.90-269546-247800-285008-283842-288968-264546
2755.80-279404-270952-291816-267168-275602-264206
2758.69-282646-257882-289934-279210-297752-280734
2761.58-301764-273256-277796-272902-279012-247982
2764.47-271490-267990-283034-255230-273504-283276
2767.37-323446-297662-308836-290860-292714-272558
2770.26-299226-284236-305104-284240-281520-257226
2773.15-284770-276734-300948-307814-312594-271162
2776.05-277616-277518-303944-280154-318888-321742
2778.94-324334-263384-275022-274002-314674-297864
2781.83-331878-310664-286250-257994-308106-311388
2784.72-333890-332524-359130-300822-293526-292822
2787.62-335570-326178-354382-324604-315574-293508
2790.51-362678-354938-335898-307282-335790-300262
2793.40-310554-302542-330796-313650-328922-343170
2796.29-360666-318778-379346-374458-360650-315796
2799.19-385220-371352-312698-305486-374392-349806
2802.08-344284-370380-378568-316076-377080-390688
2804.97-402430-388058-433082-377702-340862-321002
2807.87-391554-388618-407868-411124-430990-397982
2810.76-426628-421488-451822-395820-356400-339340
2813.65-392398-384196-400460-413122-483832-418798
2816.54-384020-403994-493470-465592-450922-446792
2819.44-443116-375752-423104-445760-449378-406252
2822.33-487170-499564-465966-437360-482112-503738
2825.22-518690-497500-504862-434744-472484-459410
2828.11-499960-433402-429602-463482-468070-466018
2831.01-507114-488438-501544-501594-553076-449644
2833.90-450128-442310-487988-514016-574812-559756
2836.79-495460-438152-538520-558636-558494-559890
2839.69-608508-527162-456898-465002-558014-523172
2842.58-586002-524892-462450-403624-448282-534212
2845.47-560834-516742-536246-467844-511476-456416
2848.36-515362-540478-556128-487252-394278-363390
2851.26-443348-461860-574194-521452-408438-241886
2854.15-258084-345334-429406-455206-483448-391542
2857.04-384104-352614-421590-439446-509410-505012
2859.93-448832-382542-379296-343122-428636-487368
2862.83-527684-412222-364952-293348-299974-326016
2865.72-410162-453630-482482-360288-294558-232170
2868.61-292656-342546-446198-429840-364434-246176
2871.51-247704-258960-308562-307940-362382-301274
2874.40-257652-213290-248232-271672-332118-292800
2877.29-276244-222566-271062-267674-306096-274392
2880.18-304386-260970-267490-258040-313038-301214
2883.08-325926-363218-524038-653902-790744-778656
2885.97-789386-706538-640016-598084-600960-650856
2888.86-688616-531754-550944-549084-496220-482664
2891.75-645618-579292-440646-396066-529842-532634
2894.65-500490-465754-512160-468718-386328-302410
2897.54-344090-399892-456528-387636-391924-342274
2900.43-392432-401484-378132-334442-401236-389464
2903.32-401616-335420-287714-273032-320880-289128
2906.22-326888-367290-427280-387006-376774-318420
2909.11-292400-220540-193570-244750-359830-327874
2912.00-242030-166640-128160-86842-186032-202192
2914.90-219906-196160-145300-68148 67752 123030
2917.79 58272 18508-56634-5504 159400 289598
2920.68 331310 274278 313382 372088 352632 417596
2923.57 680620 866228 822166 775204 1036702 1152000
2926.47 992694 950430 1392292 1631484 1403346 1556180
2929.36 2222524 2332664 2030820 2023988 2734368 2918700
2932.25 2723526 3096934 3660940 3778616 3460072 3440426
2935.14 4446832 4996010 4753502 4636030 5683780 6193118
2938.04 5252884 5628568 8208456 8819278 6355736 6281470
2940.93 9450254 9082392 6483462 9769056 14515760 11602090
2943.82 6871126 10098720 14662330 11472910 9426410 17435270
2946.72 20673590 12737940 9736104 15598580 18817930 14831720
2949.61 16528180 24598510 23334590 15769610 15099180 19768890
2952.50 23181030 22675460 24003470 27077710 27024450 22047520
2955.39 17565730 22734440 32711410 31155580 24822240 29937290
2958.29 35539150 24987020 16202100 31588020 44240860 30491680
2961.18 24378070 36960140 36914210 19771560 19913770 44561810
2964.07 45003790 23595210 26461170 45466560 36834690 18417660
2966.96 28888980 46154220 37031940 20636800 29254240 43117770
2969.86 31857320 21746840 27851910 38307920 30917480 17828970
2972.75 24560680 36461400 29298810 17081370 20057380 30825880
2975.64 22552110 11345450 18303510 29256810 19996220 9738478
2978.54 15533690 21844110 15369830 13556630 19230150 22215850
2981.43 15605840 11562850 11431490 10074700 5206000 5304734
2984.32 8080858 9569160 10120920 17557460 31606530 67701600
2987.21 152992900 244185400 171334500 43316160 10402840 7766552
2990.11 6898594 4924762 5483574 6002934 6720054 5337852
2993.00 8045258 13317160 12928180 8220652 12175290 17168440
2995.89 13640500 10878410 22002290 27610000 17509530 15640960
2998.78 27957870 28508160 18968060 25544220 39259910 33307450
3001.68 22935290 32162600 42463090 33254240 30635270 40815300
3004.57 44335390 37488750 34213770 46119990 49148240 39938230
3007.46 36997800 46834670 47334170 38611800 46775620 60610920
3010.36 47417210 33771820 46039580 49885410 37068470 46107020
3013.25 61313520 46041000 31481090 40837480 46888020 38314280
3016.14 45136370 54866530 44584650 33790580 35909970 41044160
3019.03 43734500 44233440 42643570 42644540 35988770 26570470
3021.93 32022960 42090560 36907390 28751030 36661000 36752720
3024.82 24997090 26670360 37115480 31688150 28133010 37390080
3027.71 38952760 29287180 25574020 27766590 27052490 24642900
3030.60 23373930 23425010 23313220 21606730 18903290 20349970
3033.50 19983180 18468240 21028640 24994030 25672730 25678450
3036.39 23050560 19568400 16790540 18551110 21147490 19592550
3039.28 16361670 17681700 18675980 17157930 14328710 19430350
3042.18 21976310 17589040 19969530 36620260 42726380 25723930
3045.07 18326080 20369850 21068800 17933140 17371880 19809920
3047.96 18752730 16885260 18709440 23241270 23457060 20568310
3050.85 16778730 18205050 35170090 43954430 28254170 17957490
3053.75 18669820 22558410 19449010 16992390 20817280 25887980
3056.64 21181330 17287940 21705210 27674180 23931280 23079620
3059.53 35294760 73604740 81783370 39370940 25241850 26994840
3062.42 24806500 23807060 29610840 27193790 21753730 23187230
3065.32 29160120 27882450 28484250 28368820 31238420 42640300
3068.21 65987820 64181380 44332610 40913420 33296740 25916140
3071.10 28657970 32265290 29406420 27831570 32697940 41926760
3074.00 36881240 39136700 47528870 51238140 64238090 95624620
3076.89 89775190 54075070 38309250 39899450 40512350 36680380
3079.78 33535530 38389980 41176860 39626570 35131640 34864650
3082.67 41337110 39662380 40047110 56973020 55042760 40379040
3085.57 38826520 40880460 42558660 45670100 46120500 54803940
3088.46 56747420 39465770 33819430 38215000 36261650 35503690
3091.35 35754450 42124160 47552830 44495860 54958390 72540060
3094.24 70869410 40400140 25568620 26547540 33374490 29277140
3097.14 26164110 28179340 32566580 40502500 46879380 43422690
3100.03 38930290 37829620 32215920 25957440 26111440 26083520
3102.92 22641800 24836100 24774570 23191650 23312930 21443920
3105.82 17432760 17201100 19649610 20336050 22201320 29172940
3108.71 34770780 35231910 33944890 36396230 33137240 27876130
3111.60 26015280 30459470 29984990 30176270 33949100 51377020
3114.49 64761190 51360610 36972610 37758250 37272110 33452530
3117.39 39159230 38678740 50912510 69680690 59808500 55116130
3120.28 51487380 47726610 52554740 51506070 52313880 55253990
3123.17 55086460 67958440 90021540 76255180 54078320 49916410
3126.06 47993590 46060620 48271000 44955250 38802040 41384900
3128.96 50134060 51394980 48107010 48004940 68540690 98093020
3131.85 76959250 43718550 43705730 44769890 38535230 38987180
3134.74 40840390 33362460 34202180 43760210 37461110 37619410
3137.64 58340160 70734260 90315300 113292100 73640630 29092390
3140.53 31332760 32673490 26123040 30687640 37198160 31133990
3143.42 23193000 25771970 31771360 31255950 34493440 41847400
3146.31 52544570 55370920 39749450 25702040 31735060 32782840
3149.21 23502010 25171740 29778900 23524540 19231210 26182570
3152.10 32449950 29466380 31632540 46620160 64366620 56135760
3154.99 28272090 19695230 19582930 13742520 13674170 22660910
3157.88 24893240 18369840 17862880 22672010 21357930 17782680
3160.78 25299220 36012780 35786470 24409730 18293930 17518140
3163.67 13459920 13152180 16347120 16883080 12655040 12114680
3166.56 14408620 20968820 25559170 22994390 27327210 41706600
3169.46 38985590 17685480 13085640 18694440 15571970 10546340
3172.35 16149540 18118330 11433270 10103090 15169440 16321130
3175.24 14208340 15978100 23504220 25056690 15295340 12400500
3178.13 16686520 15800290 10688400 11501000 14916550 13109020
3181.03 10152370 11967400 14292330 12348180 12237990 18133560
3183.92 19185120 11119110 8319070 12163050 15697810 12876550
3186.81 10095870 12394760 13799670 10443540 8976184 12421750
3189.70 13006950 9787210 11160240 14603720 11497060 7186720
3192.60 8376990 10253480 7857050 6102178 9117142 12215860
3195.49 9021504 6419442 9996242 11414200 8485358 9349424
3198.38 12210450 8904576 4904002 6394584 8171228 5524032
3201.27 4461246 6656162 6548824 4303040 4931982 7464350
3204.17 9637260 7966980 6246134 7610008 7989142 5438780
3207.06 4849686 6910620 6529878 4230206 4788040 6201388
3209.95 5003136 3652952 4864420 5581158 4386392 3988734
3212.85 5532102 6078172 3914228 3343018 5042322 4745988
3215.74 2923464 3347214 4626570 3472270 2247892 3424630
3218.63 4076094 2564388 2123406 3308188 2840498 1541282
3221.52 2398106 4435840 3812310 1912502 2840652 3991604
3224.42 2624732 1687014 3026776 3246852 1848850 1716914
3227.31 2723998 2203250 1286614 1728218 2290010 1471652
3230.20 1086896 2096442 2573492 1365562 1230642 2123300
3233.09 1793334 809386 1280240 1767740 1111226 686282
3235.99 1303662 1299028 670896 675294 1168824 894666
3238.88 521424 998936 1720438 1068140 573820 1148634
3241.77 1303708 516812 527166 1100436 866392 289890
3244.67 656972 871556 384434 227082 688852 571528
3247.56 204830 374208 764018 425156 187584 482684
3250.45 588508 192972 221748 453784 307656 55456
3253.34 269454 346060 138240 45330 249054 186662
3256.24 29220 151712 396220 140976-938 186812
3259.13 248564-10470 45362 194390 106388-53174
3262.02 86254 89920-52654-91180 30016-47960
3264.91-93300 13778 99432-97616-67838 30514
3267.81 5570-119316-45454-17694-95744-169566
3270.70-87854-113916-112676-97556-47434-129582
3273.59-121704-73112-36096-124324-95750-110342
3276.49-151978-172368-84726-139244-161366-157968
3279.38-118418-170792-166340-163662-151456-213334
3282.27-177544-160738-164764-195506-122992-154702
3285.16-172990-187090-132936-186324-189798-210988
3288.06-169142-198546-147476-152692-153262-193014
3290.95-180902-202896-185226-182006-138148-181660
3293.84-166972-157562-138400-173018-154176-204708
3296.73-209934-214814-165018-153290-137588-197234
3299.63-196038-203774-202482-247040-204866-214954
3302.52-186766-215776-205572-199000-180842-197220
3305.41-145904-167158-176914-230380-196854-212014
3308.31-212636-243336-213254-219352-180592-201918
3311.20-205910-248000-195010-190696-164256-201800
3314.09-186548-213664-204860-245028-233196-250506
3316.98-206698-229804-231028-276758-258556-249548
3319.88-202084-202002-179852-231302-204856-213202
3322.77-198326-212218-178638-186806-162644-225470
3325.66-232294-237630-191082-211154-192958-228868
3328.55-202094-223516-218258-252866-207950-232442
3331.45-235102-237704-207202-224046-217926-273422
3334.34-238206-197712-170682-241040-208650-198218
3337.23-196530-227472-191962-193522-174248-217796
3340.13-213634-214990-169404-209678-193156-192034
3343.02-199254-248588-219928-233850-234512-266048
3345.91-218976-221518-234548-268346-228772-209698
3348.80-159436-159864-161624-198054-146410-174816
3351.70-181644-209172-197438-235080-211710-227618
3354.59-238660-283138-258192-251834-222756-236824
3357.48-197004-207984-183070-211508-224260-225374
3360.37-180804-225152-227062-214576-172200-199044
3363.27-195586-238804-228806-229982-214488-232828
3366.16-202782-216562-213646-231020-164840-150258
3369.05-162572-214050-203066-225200-211706-195474
3371.95-184408-229782-194920-196988-192436-240728
3374.84-257464-289202-256220-248108-202976-199996
3377.73-199058-255048-233808-234064-179034-186066
3380.62-179558-201844-177518-223672-235820-238120
3383.52-193092-222360-214182-217642-174422-195778
3386.41-183628-213416-183586-210948-208220-208134
3389.30-172724-233236-240220-264992-227404-232988
3392.19-229028-268914-239336-219600-171104-222140
3395.09-242012-267784-240922-250010-202766-196382
3397.98-198932-230542-199660-188404-177902-238642
3400.87-260952-270044-232800-264772-268792-283420
3403.77-227342-257872-270132-305270-289460-292146
3406.66-260200-250822-230622-245496-199088-218976
3409.55-215934-253646-268570-302986-273296-273690
3412.44-260434-275662-234110-268538-245092-236716
3415.34-225982-261274-255776-272626-239462-231862
3418.23-205882-226130-219162-254556-257318-297698
3421.12-258116-229602-231242-306812-298608-312568
3424.01-283432-299934-254814-223390-217984-300124
3426.91-269428-238560-222962-263540-267740-270680
3429.80-249160-256822-226200-265122-215364-205676
3432.69-206296-238548-218958-270938-269484-280710
3435.59-255070-265254-243960-250206-234704-296422
3438.48-287260-286844-259150-257546-241502-299884
3441.37-318032-324280-261452-246978-225698-243656
3444.26-201834-197034-185136-212326-209478-252018
3447.16-273006-313880-273118-244798-243232-300954
3450.05-275144-290110-301378-313424-243366-218628
3452.94-240890-306454-271352-279544-270052-277420
3455.83-229160-235084-236274-265970-268852-299024
3458.73-278386-317396-289144-271146-217470-240258
3461.62-252230-280180-253082-253024-235468-260466
3464.51-233452-219634-224308-236088-182944-200818
3467.40-208780-239846-239138-275656-266104-273114
3470.30-222564-226322-215014-232576-206842-232406
3473.19-252810-274718-199774-218802-211356-219378
3476.08-221000-268912-264250-255570-211744-227630
3478.98-217624-233140-224858-188370-144282-203488
3481.87-222532-193534-141524-240428-253558-223736
3484.76-191750-239144-239050-230336-179624-212518
3487.65-234138-256220-224910-234616-219734-246634
3490.55-202790-248548-266528-265656-217056-247784
3493.44-257110-267058-241274-250706-254694-291674
3496.33-253186-240422-230580-252436-217414-247822
3499.22-257250-233372-219138-251782-240378-228518
3502.12-138954-135056-102344-58000-57484-152818
3505.01-202594-245196-241392-271504-262160-291970
3507.90-266796-269312-235836-261528-249914-227344
3510.80-186646-216086-231706-246002-198934-242296
3513.69-259236-245606-196430-243030-254252-227524
3516.58-185158-217726-213728-205066-206758-230568
3519.47-183880-230706-232538-208130-177486-188714
3522.37-158360-192022-212618-224284-142696-136458
3525.26-141364-172988-184172-239866-219054-202952
3528.15-182284-201698-176472-213452-215914-225674
3531.04-232934-265954-199632-186594-188862-184000
3533.94-151810-196126-153342-148328-170936-204318
3536.83-191338-210052-199202-238060-213710-211688
3539.72-206992-239616-218128-246222-234634-237614
3542.62-234150-260320-226514-225278-197806-208634
3545.51-197952-229652-226144-245090-265370-300910
3548.40-274964-249636-228104-272816-219938-217352
3551.29-258666-291562-246936-245974-236844-264600
3554.19-236260-257396-250042-256362-234872-219312
3557.08-214122-271136-256046-250838-232528-272414
3559.97-259938-283454-274460-270224-241584-275766
3562.86-253314-262950-269154-286998-260120-274176
3565.76-283544-297654-235850-244080-271254-286964
3568.65-244464-252090-236154-252218-253234-272304
3571.54-243058-266220-258518-276424-235502-235458
3574.44-245442-256354-218612-234676-245252-274866
3577.33-242916-264660-241950-268658-250216-234698
3580.22-221682-269080-254102-249384-210754-207486
3583.11-214778-230264-200472-208276-203518-243840
3586.01-261286-298692-285116-284702-274100-271590
3588.90-207688-214752-207574-267482-270838-254138
3591.79-236334-250528-268846-317188-262362-239294
3594.68-241572-290534-263448-275630-277314-275872
3597.58-228230-245654-215338-221710-245220-293750
3600.47-263830-261602-244852-257458-209172-240168
3603.36-253688-259720-232124-261562-251412-246282
3606.26-218786-238608-226840-279510-273212-302274
3609.15-255672-224716-204246-237994-252634-272670
3612.04-266444-273702-239108-249282-214646-221660
3614.93-207936-248028-254536-267206-247544-266578
3617.83-232780-246244-250560-276838-251650-251578
3620.72-232440-252262-209292-213224-203638-230650
3623.61-244256-257740-232912-241720-212446-228294
3626.50-226996-247542-235218-289020-286628-330990
3629.40-279612-230702-219946-242332-224718-233368
3632.29-211992-240760-246176-258198-216936-226164
3635.18-252928-264830-229654-254950-240090-251956
3638.08-223978-260116-265372-284288-256612-259498
3640.97-234156-250008-226166-219534-199952-234576
3643.86-226520-226248-216366-259578-248990-262408
3646.75-236964-228538-201214-256578-279956-288002
3649.65-247748-270736-265936-273588-236662-252018
3652.54-242814-272976-268426-322708-289300-266522
3655.43-271582-308024-221734-240162-273670-283320
3658.32-248806-288976-253736-238650-245032-247700
3661.22-197258-226368-229664-239770-215868-250948
3664.11-247930-265090-226074-214596-205904-237322
3667.00-191572-205296-243896-300858-280216-279146
3669.90-267702-292258-220052-207324-222472-268914
3672.79-243700-249110-250724-310448-261426-258084
3675.68-260372-269534-236308-262100-259554-260660
3678.57-267582-259130-192688-200292-249484-290680
3681.47-290766-288204-228964-242276-222448-263532
3684.36-230186-220918-213858-262466-275876-323968
3687.25-317866-335504-295698-291126-268534-267112
3690.14-288656-379670-316450-220692-219436-297144
3693.04-293908-313392-291294-265418-261962-302004
3695.93-287046-333850-288452-232562-215784-280274
3698.82-281534-345960-359552-329824-268148-273386
3701.72-241052-287286-339440-411172-371042-320086
3704.61-229264-192006-196866-286422-320046-340408
3707.50-343892-366324-274116-289460-335110-314896
3710.39-240008-286566-358204-432414-362016-290644
3713.29-170926-166156-228114-339002-331756-409198
3716.18-399560-222264-134570-240758-298110-325732
3719.07-328444-413832-408656-302290-222864-310116
3721.96-355920-354180-267370-276200-337734-328468
3724.86-204304-272998-318736-286166-252798-334896
3727.75-410348-445214-343342-302092-194128-163422
3730.64-190048-324346-428400-442920-248632-183010
3733.54-245848-369458-377882-442850-475740-476692
3736.43-320352-150120-137772-291386-344352-319596
3739.32-329910-361982-256646-183534-224790-320140
3742.21-307524-324950-387834-500000-407984-255788
3745.11-219944-287746-291820-330466-317292-326470
3748.00-250356-280650-316496-296072-266832-293166
3750.89-343936-424954-317798-193172-178614-240544
3753.78-267402-316326-366802-378708-239416-195546
3756.68-167752-213422-267478-315530-348236-341122
3759.57-238954-207402-174834-207278-248876-310442
3762.46-321202-245836-172454-215990-213568-249046
3765.35-270728-287010-258858-208398-164954-181910
3768.25-154350-163486-174940-228510-204152-183964
3771.14-188632-233578-195238-228584-264884-353780
3774.03-390020-465700-508696-585556-667982-763884
3776.93-640362-177150 312526 267172 59790-75566
3779.82-137998-225134-230022-238946-236426-277358
3782.71-249246-249566-232054-242360-211188-214898
3785.60-193342-234594-228576-227912-230358-273688
3788.50-215096-157226-111884-138126-161748-251662
3791.39-288916-274308-156190-123788-121868-193116
3794.28-259006-324664-261316-137204-30866-88744
3797.17-153350-251336-256902-331914-272426-130362
3800.07-65680-211776-317758-344030-290652-253462
3802.96-88162-12062-69452-191174-248812-310258
3805.85-332362-242778-13024 5836-113958-245448
3808.75-262442-328288-269986-62964 12416-148484
3811.64-252468-296514-355900-340214-85268-17766
3814.53-141728-282066-283592-320608-349100-165282
3817.42 48114-20738-129112-239268-327946-407140
3820.32-224636-97150-128800-252672-224776-300728
3823.21-361678-239000-45968-95600-175846-222438
3826.10-263406-314948-105370 30166-90410-230944
3828.99-207128-327072-393950-230512-32392-121312
3831.89-236270-288230-331588-322792-107498-94348
3834.78-176186-256244-259114-342562-330440-235770
3837.67-122430-178748-254256-314916-344156-273708
3840.57-104110-101966-223654-353428-296196-296092
3843.46-196050-63894-54172-175052-247690-301968
3846.35-234552-81200 26608-93792-209896-312794
3849.24-334682-267516-64102-37616-154658-264106
3852.14-270886-281834-194224-182638-186236-187290
3855.03-195236-283930-204336 15050 49178-81284
3857.92-125028-198772-250140-196540-38824-47746
3860.81-112912-175220-151904-190986-120312-50290
3863.71-66012-142482-155266-188164-152842-130086
3866.60-95242-121844-108316-147862-140502-154026
3869.49-167524-123230-55996-116494-107454-119556
3872.39-110394-126420-120110-157678-120994-118660
3875.28-126728-162056-140012-165430-102448-93218
3878.17-27872-62046-92574-125064-126430-152070
3881.06-146432-153560-126168-172782-132108-128284
3883.96-137540-155736-133382-179012-178296-199194
3886.85-167962-117920-45948-88294-85220-131330
3889.74-126066-155106-168538-146268-121740-144934
3892.63-95150-131574-138054-143430-138820-189102
3895.53-153422-171614-177822-164272-102664-93498
3898.42-128928-209162-144326-132064-144768-175312
3901.31-180028-213772-182438-179122-179840-219730
3904.21-167838-184942-178096-158666-117838-133270
3907.10-113008-172776-185388-192866-138746-154056
3909.99-116282-96844-106374-179826-152222-148696
3912.88-156016-208824-173182-184092-163182-171684
3915.78-148934-156096-125940-133678-76214-47452
3918.67-41850-78470-9936 63604 67188-36810
3921.56-55140-111116-103648-100924-88608-126494
3924.45-110416-147134-139216-151400-119856-144618
3927.35-160950-187178-151958-158416-99992-152476
3930.24-168252-182188-156236-133244-143564-215850
3933.13-169216-168506-163170-191418-173282-174554
3936.03-139300-168592-175182-174212-140834-168526
3938.92-172762-190784-149202-140434-123712-184336
3941.81-195028-182224-155404-196592-200586-204636
3944.70-145970-151908-141124-156484-139116-181702
3947.60-155584-187640-211660-246438-224948-219628
3950.49-174598-203756-191006-190774-119452-86882
3953.38-65084-131842-140986-186246-175954-199070
3956.27-194892-200396-165238-170568-109240-100730
3959.17-88800-112878-105090-143744-162072-205466
3962.06-152462-133326-146628-206574-159482-122750
3964.95-76080-93920-49214-87334-116414-141668
3967.85-106252-150392-171030-200178-142704-123722
3970.74-76714-85274-73288-88084-82488-160164
3973.63-156392-163852-151994
##END=
