##TITLE=Bromomethane
##JCAMP-DX=4.24
##DATA TYPE=INFRARED SPECTRUM
##CLASS=IUPAC A
##ORIGIN=NIST, Anayltical Chemistry Division, 301-975-3108
##OWNER=COPYRIGHT (C) 1998 by the U.S. Secretary of Commerce
##DATE=98/10/1
##$SPECTRA VERSION=1.00
##$UNCERTAINTY IN Y=2.8 % relative (B=2.0E-04,C=3.3E-09,D=2.7E-14)
##CAS NAME=Bromomethane
##CAS REGISTRY NO=74-83-9
##MOLFORM=C H3 Br
##MP=-93.6 C
##BP=3.56 C
##$NIST SOURCE=QUANT-IR
##SPECTROMETER/DATA SYSTEM=IFS66V (Bruker)
##INSTRUMENT PARAMETERS=KBr Beam splitter; MCT Detector; Multipass cell
##STATE=gas
##SAMPLE DESCRIPTION=Bromomethane Primary Gas Standard
##PRESSURE=101.3 kPa
##TEMPERATURE=23 C
##SAMPLING PROCEDURE=1 L/min Flow
##RESOLUTION=1.9290
##DATA PROCESSING=3-Term B-H Apodization
##XUNITS=cm-1
##YUNITS=(micromol/mol)-1m-1 (base 10)
##XFACTOR=1.0
##YFACTOR=5.6843E-14
##DELTAX=0.9645
##FIRSTX=574.687
##LASTX=3974.595
##FIRSTY=6.17E-06
##MAXX=3973.63
##MINX=574.69
##MAXY=.0000757
##MINY=-3.35E-07
##NPOINTS=3527
##XYDATA=(X++(Y..Y))
574.69 108583900 120841500 139370800 162036800 182925800 203290300
579.51 225712600 251786400 280399400 310900500 343191000 374310900
585.29 407601300 443734200 475832200 506777000 539980200 573773000
591.08 606820700 634918400 655771300 670942300 681266400 687616300
596.86 687713000 680162000 668142300 658710100 647464300 608401700
602.65 532736300 450672700 385945500 344476100 368597000 529632900
608.44 727729000 706492400 465052000 286446300 293750300 385694600
614.22 492088800 597671600 694988800 777874100 842576200 888938800
620.01 917236900 927228700 919719400 895349500 855951400 804571800
625.79 744220000 677121400 606181200 533012300 459484600 388459800
631.58 322488600 261727100 206683900 158459300 118387500 86388260
637.36 60885730 41644040 27932230 17581160 10269810 5707318
643.15 3610246 2624300 1728820 1186552 1523980 2113236
648.93 1925516 1115026 789280 801200 980992 1579338
654.72 1943298 1313544 839760 922648 1119614 1219764
660.50 1395908 1522596 1157616 544878 658190 1697704
666.29 3328306 3278208 1364228 228954 563614 873076
672.08 670980 759940 1403298 1770202 1293732 537004
677.86 520668 1125186 1195812 1046422 1176226 579586
683.65 296882 754420 1088270 1186112 911140 539148
689.43 717022 726484 480682 497412 481374 524182
695.22 733484 475898 240222 685478 1193626 1337868
701.00 1131142 608740 443740 268198-176406-114618
706.79 278592 459866 860780 1093538 910090 868602
712.57 844990 444492 452558 503000 234536 374966
718.36 835388 1090776 925364 527026 510494 727046
724.14 774632 644328 642772 472472 296056 356526
729.93 640662 834058 827378 680472 501366 393210
735.71 722304 1023372 917788 960138 1260874 1191130
741.50 794580 747004 1207610 1443572 1263330 1005756
747.29 762946 436688 615972 1027316 1298912 1374274
753.07 1062334 733594 880998 964044 683028 558836
758.86 699476 668330 723774 865482 561082 66318
764.64 298912 646016 750284 909238 826158 630038
770.43 684422 512428 305996 554162 868538 680392
776.21 237670 3646 359080 911288 1248106 1453788
782.00 1316658 778442 363268 76190 24016 188056
787.78 492928 765892 945426 1125424 1303296 1264016
793.57 862080 328176 10364-187042-162730 196432
799.35 861666 1217124 1160512 917670 646472 515504
805.14 297046 356134 1064836 1137758 579906 621534
810.93 846110 587200 567308 1060008 1288670 677698
816.71 69598 300258 851460 1093400 1167270 1009022
822.50 646558 421496 560978 721658 1086372 1599720
828.28 1672110 1197648 860858 849296 1004964 1001346
834.07 962780 1158744 1395654 1346896 1417000 1819680
839.85 2055174 1924702 2001272 2187580 2505730 2811480
845.64 2841388 2762592 2712300 2891766 3285116 3438150
851.42 3470834 3435110 3736772 4324978 4898996 5327388
857.21 5905676 6467090 6613052 6697328 7442464 8751690
862.99 9986402 10237670 9674984 9346370 9625098 10525700
868.78 12928570 17028500 19758230 18047190 15541550 15433110
874.57 16884970 19531790 23731400 26594060 24677600 21643570
880.35 21555120 23458360 27349000 34304050 39957910 37941010
886.14 31946140 27889230 28442750 36568880 55741640 72544890
891.92 64495170 46508140 39321860 39066750 44617090 59398280
897.71 76425580 75217210 62230770 57247580 56288200 58961600
903.49 75220730 101688500 108125800 89571480 79036470 76591620
909.28 75196220 98479620 164970100 207645300 156785500 93624940
915.06 79245900 80443700 89546660 126207000 174665300 166752900
920.85 118029200 98392750 99734820 105414200 133631800 195321000
926.63 224459800 172191200 124947000 120823600 124723100 155537800
932.42 267825600 407935600 368642700 194517400 112531200 108810200
938.21 116378900 153724300 244847400 304233600 234287700 142993300
943.99 124353000 128758500 140363800 197660700 301841900 318831100
949.78 211259900 139301500 138835500 142904200 174141100 329397500
955.56 547926100 508091200 257304700 132984300 127595100 135865500
961.35 167749200 261617200 345626100 286591200 172949500 136005200
967.13 139773300 146220200 179064600 268268200 322743200 243644900
972.92 147773500 129611100 139080000 153402100 223019500 384441000
978.70 453181200 294404500 138989100 113758900 125479200 135247800
984.49 165994600 232564900 255324600 185861900 120784000 109168900
990.27 116622600 124387600 146156100 194825200 208047800 149641100
996.06 97026680 86502110 94669460 109580200 145016600 218912900
1001.85 244822500 162357100 83206900 63044960 66984040 81933550
1007.63 101549500 127549800 138063500 109704400 77966450 66537890
1013.42 63347580 65448370 74615660 91260240 100476600 82765290
1019.20 58200080 48008940 44911640 45308400 53475650 74787960
1024.99 93695630 78944460 47393120 32521920 28857330 27379320
1030.77 28998860 37928910 49600900 49492180 38992880 31471720
1036.56 28136550 26259250 25264600 26353870 30562160 32095520
1042.34 26614340 21152250 18630940 16821060 15704480 16572970
1048.13 19917900 22788460 19593110 13897080 10936480 9569222
1053.91 8639948 8348140 8754368 9966228 10880990 10710680
1059.70 9774166 8816432 7887482 7219552 6939216 7029166
1065.48 6718924 6041814 5474266 5018468 4593064 4396256
1071.27 4076568 3870848 4003120 3718378 2900586 2548702
1077.06 2501330 2364700 2002080 1759348 1685368 1605554
1082.84 1591622 1932762 2168330 2114440 1815188 1570738
1088.63 1458542 1304188 1127416 1013936 857038 943880
1094.41 1089232 1029438 863238 1003236 1116886 940334
1100.20 734028 729372 798952 763574 536240 612754
1105.98 870526 917940 809920 685974 467872 416690
1111.77 566110 789028 762752 444376 222196 282862
1117.55 364196 510072 708274 800552 637344 336634
1123.34 175098 268188 359330 615150 703958 580880
1129.12 512886 442286 292776 98704-59642 50692
1134.91 344294 503384 299082 219174 370274 440386
1140.70 408286 418288 400580 448792 399778 308838
1146.48 296676 409968 551268 674924 638130 573764
1152.27 635056 716782 773194 991108 1080230 790040
1158.05 562160 702888 744030 781546 991758 1131764
1163.84 1062338 953640 870664 957952 1101898 1094258
1169.62 990778 932090 1063548 1317536 1465500 1562394
1175.41 1474686 1576998 1816142 1792078 1769272 1869064
1181.19 1961818 2079652 2152800 2234434 2390286 2683890
1186.98 2954056 3098560 3016802 2770508 2672038 2913606
1192.76 3300262 3718478 3962730 3903120 3768970 3785038
1198.55 3908200 4071140 4122542 4183184 4211884 3974568
1204.34 3749128 3731752 3680946 3631498 3539062 3495410
1210.12 3631696 3749230 3838974 3630698 2859616 2405908
1215.91 2606296 3042076 3548702 4209380 5054098 5746928
1221.69 6122310 6230810 6290696 6470276 6313958 5874682
1227.48 5551716 5081956 4395566 3719532 3246468 2891658
1233.26 2427424 1921644 1683310 1443400 1320144 1628886
1239.05 1974438 2263292 2507524 2591148 2745396 2987514
1244.83 3399946 3988530 4254430 4333580 4784770 5309362
1250.62 5839820 6749652 7994768 9383434 11245110 13535290
1256.40 16286500 19645570 23525150 27540240 32063720 37508010
1262.19 44004200 51543050 60217250 70253060 82063490 95669740
1267.98 111151100 128591100 148533200 171124100 195902600 222645900
1273.76 252354900 285346200 321404000 360321200 402173600 446771700
1279.55 494295200 544296300 596497300 650276000 704916300 758850400
1285.33 811372400 862151700 910670100 955379000 995691600 1028594000
1291.12 1050304000 1061183000 1062983000 1051852000 1023689000 977460400
1296.90 914315500 835307100 745945000 651069600 538209300 403063100
1302.69 313444900 450622300 852224700 1006904000 696844500 451385100
1308.47 494941700 635231000 765398000 892736200 1020027000 1134041000
1314.26 1224812000 1288889000 1324453000 1332802000 1314055000 1271527000
1320.04 1210716000 1135703000 1048479000 953819300 858907300 766776200
1325.83 670290200 570037500 474403000 388814900 314036900 248832700
1331.61 189623300 139682100 103707700 80156140 67388060 76909030
1337.40 108384600 118715800 91742860 61678490 44205440 35811500
1343.19 32123030 29820070 25880240 22779200 23755590 29230500
1348.97 46984550 82447530 99583060 80043190 56938340 47065280
1354.76 44405160 44835740 46669750 48114320 45676220 44292030
1360.54 49812990 73727540 126843100 155109500 122101600 83534970
1366.33 68248640 64882700 65738250 68012710 69642360 65135820
1372.11 57195340 61177050 116820400 263353900 338263300 228665400
1377.90 108123600 64477580 54657930 54962050 58226080 62934450
1383.68 67827400 71198650 75485150 114903800 219204300 264278600
1389.47 181737400 104085800 82134610 80406780 83362650 87700030
1395.25 93809100 102512800 110953200 116102500 171532300 306503600
1401.04 337180700 214060400 123053600 101522000 99042830 100534300
1406.83 103360100 107033000 119065400 139798400 161969600 339384400
1412.61 654577000 619373100 291510300 117345500 87749530 87890780
1418.40 92765500 98236100 106002100 121834400 135390000 164457600
1424.18 315398800 470663200 368063000 185704400 123724500 118825700
1429.97 121191600 126227000 130541200 136675800 149436700 158573700
1435.75 231584700 444390500 514555800 313462400 155558500 123612100
1441.54 121024700 120804200 118554900 126356000 153900200 162837300
1447.32 239639300 639043500 902289500 541367100 183043100 118142000
1453.11 117732200 121018300 124477500 127968400 138179800 152106500
1458.89 155753300 228815200 431929600 482077200 291388600 161136800
1464.68 140156500 138184500 136700400 135237300 139444300 150040700
1470.47 150730000 180479000 339209000 456876400 320785200 163186400
1476.25 125578000 120873900 115522100 111489200 118722300 135204900
1482.04 131054600 153639600 390333300 660064300 502016100 206037300
1487.82 128133200 130595400 129835300 128618600 132013200 138100700
1493.61 135094800 140397100 228567600 345112000 290311600 158478800
1499.39 119336300 121847300 120142700 116427800 117047900 117310500
1505.18 110462800 113345800 180916400 264450200 213781800 109660300
1510.96 78652330 81851420 84215320 84821580 89992870 88638200
1516.75 77911710 94177010 213476000 321121600 224079400 88735210
1522.53 58184630 68828960 84660460 92283040 92769100 88110000
1528.32 83257020 95620460 143029200 160339300 109860600 69477860
1534.11 61045370 61336630 66898240 71060680 69306030 64128590
1539.89 61781790 78375920 107291600 95403980 56857620 39597690
1545.68 35549560 35427920 40406060 43280540 40198080 36752020
1551.46 45699310 83739180 102327600 63831720 30688120 24424270
1557.25 23502400 25440590 31873100 37579870 38444370 38275990
1563.03 45407900 53343890 44531090 30804560 26171870 24839010
1568.82 23773180 22872890 23126970 23644680 23417690 26401340
1574.60 32117300 29103930 20436920 16243590 14758560 13506950
1580.39 12342810 11960570 13273340 14900530 18971260 25356580
1586.17 22769830 13534830 9470244 8941024 8697744 8374656
1591.96 8221890 8921766 10659500 12603770 14058080 12937420
1597.74 10673980 9784948 9612774 9182830 8394084 7445830
1603.53 6909322 7108750 8371770 9494962 9039284 7918418
1609.32 7048820 6167848 5516508 5134758 5039358 5279748
1615.10 6127596 7081548 6845108 5485206 4602250 4449558
1620.89 4601436 4628466 4456490 4179132 4071888 4060410
1626.67 4248570 4345634 4107420 3769876 3779830 3829620
1632.46 3690132 3626984 3458814 2873198 2510820 2295224
1638.24 2185148 2295768 2361944 2253534 2099546 1886570
1644.03 1964724 2196272 2176548 1976182 1873636 1830262
1649.81 1833920 2249552 2839460 2550750 1801216 1306976
1655.60 1102232 1077662 1123840 938182 720758 794586
1661.38 1090948 1095824 787272 637946 802320 959630
1667.17 1054774 1090768 876964 692874 784240 758236
1672.96 790964 1056986 1074864 771118 577394 466868
1678.74 546302 680326 698188 711574 1100834 1570414
1684.53 1415508 840090 586374 630846 676178 468972
1690.31 158966 69964 326798 726104 1251468 1338714
1696.10 762558 425780 780856 1298788 1237754 648256
1701.88 338656 452898 633302 540112 323904 210496
1707.67 305294 422430 427590 398934 447508 462464
1713.45 569390 636462 846122 1241120 1139034 757606
1719.24 610924 562078 529370 476202 354764 240598
1725.02 373076 479040 400592 404680 550370 584292
1730.81 626936 883176 1238260 1241404 846846 504158
1736.60 456154 512248 706096 818936 654956 490494
1742.38 531844 599188 592278 558796 599064 617502
1748.17 509868 462618 624794 621448 590440 720576
1753.95 760038 667948 574330 436758 388146 394862
1759.74 473276 700906 855192 783384 591016 373554
1765.52 306296 445464 596552 593142 653708 821690
1771.31 995658 965556 728538 530962 457572 433334
1777.09 471110 489876 382560 218130 188248 162148
1782.88 219636 484802 640078 473710 276292 259136
1788.66 449642 655314 733176 750128 572226 344160
1794.45 369478 449832 373454 302828 418772 403238
1800.24 263518 279350 404158 406118 322292 266744
1806.02 257942 282136 373180 384142 313546 345642
1811.81 470924 445420 307276 209948 200958 293580
1817.59 434838 495726 484922 422214 317728 114588
1823.38-115590-220602-39828 389858 631802 572992
1829.16 512728 491374 487062 395302 333122 443864
1834.95 745116 950528 650178 103234-132300-32558
1840.73 179808 307290 465152 490256 337196 336226
1846.52 446356 521636 625922 668778 454252 54038
1852.30-234992-238964 139180 577684 662130 562158
1858.09 463566 348006 440582 778548 1062500 1187580
1863.88 1054966 546702 42886-225830-142998 451544
1869.66 1252736 1608534 1522182 1369716 1393882 1773730
1875.45 2445306 3236620 3821082 3614948 2903944 2530658
1881.23 2516344 2637188 3116482 3941626 4622500 4844504
1887.02 4926050 5202936 5657254 6143538 6713768 7164374
1892.80 7122148 6807038 6455840 6077430 5810460 5811266
1898.59 6349816 6921030 6816686 6455308 6377994 6224816
1904.37 5845484 5632816 5382676 4602330 4010956 4584086
1910.16 5947294 6284094 4839086 3862878 4698490 5690318
1915.94 6326984 7135240 8009356 9135216 10454130 11093000
1921.73 10773970 10310330 9944100 9268490 8276714 7264572
1927.51 6499466 6029772 5389234 4331024 3151918 2159866
1933.30 1591628 1231008 862202 592088 376156 130246
1939.09-104566-345278-590218-830040-630360-9674
1944.87 264828 220808 199458 238360 354616 320566
1950.66 54840-122088-98844-129204-332450-798534
1956.44-1324518-1485748-934450 48870 627448 618748
1962.23 534820 776932 925280 479056 33630 28282
1968.01 152314 198452 135732-136494-421434-489834
1973.80-221804 215250 412050 406320 435132 465240
1979.58 334248 184382 213152 334046 331290 144072
1985.37-38112-228272-428530-453052-100232 270376
1991.15 278778 304414 525298 550692 354692 187898
1996.94 145448 283076 474678 413952 139910-167268
2002.73-500736-664140-301878 354252 698400 700770
2008.51 586136 320682 55212-8056 72402 100086
2014.30 129772 218506 144940-4828-52370-109042
2020.08-97142 60336 187716 197338 161462 70520
2025.87-79764-58090 155770 244900 155420 97536
2031.65 185904 159754-83000-227206-191016 42608
2037.44 252584 205118 117036 155896 197788 172408
2043.22 238118 348846 323154 200052 92266 26408
2049.01-4312-32142-90818-15700 281134 600762
2054.79 766176 708764 531776 428986 391882 332196
2060.58 295194 379320 479202 352564 35248-135172
2066.37 23458 366786 514680 405196 242628 211082
2072.15 360938 435642 356876 243994 283574 458158
2077.94 467414 467154 589556 584938 361506 198468
2083.72 279144 464702 374506 145404 123604 310984
2089.51 657888 711058 483712 441308 674638 699054
2095.29 417480 344378 579656 710918 360838 27190
2101.08 280242 818022 791542 327378 301568 736268
2106.86 766708 334950 286828 776682 1079518 695688
2112.65 354722 660090 996366 674074 324286 577290
2118.43 948854 705780 209172 248800 705260 752038
2124.22 434810 385452 569304 556784 325820 285572
2130.01 506300 616366 469242 473076 585644 484524
2135.79 343350 423354 568490 668780 664592 544876
2141.58 406456 282612 184938 290000 602558 775988
2147.36 674510 520126 626262 831068 755836 746338
2153.15 1049034 1084272 817074 996358 1445136 1290230
2158.93 921246 1270608 1751170 1548010 1327288 1676322
2164.72 1954496 1724576 1612768 2097656 2346260 2045300
2170.50 2083134 2537646 2563722 2206378 2419626 2856760
2176.29 2664068 2648724 3352230 3744548 3480234 3569408
2182.07 3916660 3677158 3447350 3979332 4546774 4626132
2187.86 4753462 4878146 4661436 4787738 5688508 6536200
2193.64 6559920 6114622 5757160 5452278 5490044 6190914
2199.43 7052782 7493034 7420796 7233150 7167640 7352562
2205.22 8065326 9254916 9967862 9557272 9083198 9525262
2211.00 10416400 11682330 13863100 15338260 13307260 9921378
2216.79 8790570 9275788 10183640 11765150 13526830 13370710
2222.57 11429400 10341740 10746580 12061390 14159700 16700780
2228.36 17266970 14501820 12247590 12947050 15307010 18917750
2234.14 23927080 27638560 23909300 15234780 10918770 11224170
2239.93 12699030 15094120 18614020 20146860 16688600 12578120
2245.71 11739500 12618770 14361200 17557540 21492850 21748590
2251.50 16742830 12952290 13323210 15632860 19531910 25863230
2257.28 32373320 30106870 18875190 11590170 11109300 12606110
2263.07 14707150 17667200 20444170 19049570 14144350 11600560
2268.86 11953000 12966750 14368630 16764860 19310530 18053240
2274.64 13155950 10564460 11348730 13196350 15677630 19292310
2280.43 22867130 21071000 13674740 9024790 9151858 10388820
2286.21 11500110 12711010 13967560 13689710 11054860 8798916
2292.00 8638930 9834844 11033330 11526260 12128390 12396020
2297.78 10713340 8352776 7202204 7344178 8655990 11182470
2303.57 14032030 14499510 11665950 8051592 6236908 5983648
2309.35 6261028 7147748 8400386 9839142 11049160 10567740
2315.14 8657608 7665898 7571100 7877034 8526714 9136086
2320.92 9282938 9392930 10391190 11690590 10858500 9339044
2326.71 9229876 9741072 10177050 10149240 9397464 9105984
2332.50 11714720 16775990 16909550 11697490 9019454 9192254
2338.28 9307380 9175698 9153950 9176000 9990454 13050220
2344.07 14760290 11686190 8531542 7676032 7510054 7749168
2349.85 8289304 8963074 10391450 14510210 18810900 17216920
2355.64 13751730 13289900 13135000 12478860 12416380 13012090
2361.42 14552990 21295090 32183460 30932310 18842780 12794330
2367.21 12044870 11744210 11549720 11535010 11937700 14632290
2372.99 20622100 21893280 15533970 11256920 10405470 9857540
2378.78 9668826 9852170 10360270 12793330 19416660 22976000
2384.56 17010130 11480650 10440450 9724188 9025764 9056014
2390.35 10143020 14829580 25903570 34464510 26882460 14267310
2396.14 9941560 9348076 9059970 9130268 9423226 10954160
2401.92 16712780 22514580 18436460 11585800 9807354 9176504
2407.71 8358430 8104012 8298800 9573566 14439180 19695190
2413.49 16185370 9962612 8400480 7676844 6795930 6464846
2419.28 6543604 8089762 16757910 27479980 22146100 10313160
2425.06 7021122 6857580 6571812 6554326 6596190 7046078
2430.85 10453930 15022280 12825720 7564328 6098082 6087040
2436.63 5875004 5682754 5566014 5851816 8245204 11485360
2442.42 9636844 5649156 4725948 4689036 4379548 4182108
2448.20 4139438 4428084 7717014 13038870 11625570 5687454
2453.99 3235130 3270970 3666864 3835582 3971440 4139270
2459.77 4864440 6164806 6091120 4546950 3485118 3135072
2465.56 3221904 3424798 3461958 3353894 3582418 4206038
2471.35 4414130 3946696 3384274 3045184 3100634 3188246
2477.13 3019794 2944096 2931614 2657314 2489104 2438680
2482.92 2369428 2698312 3658138 4284476 3872550 3302780
2488.70 3058232 2817252 2624662 2553490 2472066 2255586
2494.49 2124270 2298170 2567762 2578854 2358798 2199160
2500.27 2070250 1795982 1648508 1875650 2126930 2031172
2506.06 1686870 1367820 1338150 1585238 1815176 1880526
2511.84 1929158 1974504 2079540 2388924 2665632 2677220
2517.63 2727896 2934842 2842532 2274132 1631538 1154024
2523.41 900292 806990 592620 403648 322666 203142
2529.20 9146-105464-52088 151476 313236 128890
2534.99-163596-267334-279826-270034-185534-82194
2540.77-83350-188184-228830-190466-196536-207428
2546.56-261862-369254-365690-267244-300914-350326
2552.34-197790-54754 44666 244884 483432 586808
2558.13 698642 1117404 1505284 1709526 2059530 2498012
2563.91 2809084 3068054 3603914 4410084 5033744 5452896
2569.70 6007632 6705814 7403546 8283046 9212908 10010410
2575.48 10752210 11360010 11894870 12481490 13109180 13695350
2581.27 14115160 14381830 14523000 14572240 14636430 14431010
2587.05 13723510 12890590 11850760 10353690 8578444 6732722
2592.84 4875954 3742920 5756448 11292740 14480110 12342460
2598.63 9626960 9341124 10675460 13209650 16841860 20927010
2604.41 24644030 27178230 28803510 29885140 29500120 27358260
2610.20 24534010 22764720 22672210 22480290 20636780 17352510
2615.98 13134910 8624920 4668508 1598714-603120-2115686
2621.77-3211064-3818126-4067244-4306742-4583140-4695104
2627.55-4699000-5005248-5552682-5906496-5832132-5553694
2633.34-5514962-5607500-5643968-5706372-5831694-5718978
2639.12-5276412-4841812-4760484-4921750-4979896-4917046
2644.91-4797228-4699036-4603134-4422774-4338492-4316148
2650.69-4058596-3544444-3071424-2982496-3127750-3059176
2656.48-2828594-2468722-1998242-1705988-1528442-1287696
2662.27-1106092-832618-218136 355918 313120 19462
2668.05-80166-73312 155210 410502 424958 330366
2673.84 66648-296650-203550 594934 1215576 970458
2679.62 517238 398548 319848 272346 418660 577590
2685.41 531860 472622 684754 1192250 1757378 1806892
2691.19 1217490 786600 662706 635586 765506 1002636
2696.98 1081592 988076 790880 587242 693060 1173206
2702.76 1284524 892336 734166 925612 926462 811540
2708.55 1013164 1361634 1591214 1849690 2275460 2977532
2714.33 3288064 2367656 1299564 1003248 904272 877364
2720.12 988160 1130548 1135722 1129484 1174684 1071566
2725.91 899070 865294 777800 679060 595038 513144
2731.69 465354 577990 874182 1117520 1153092 1323772
2737.48 1885510 2328882 1828972 1003690 717368 886542
2743.26 1195622 1238982 984358 909556 1236966 1889168
2749.05 2589542 2608584 723188-1487352-1209368 251374
2754.83 832370 853886 829036 778254 842590 1014580
2760.62 1230368 1853806 2399196 1983200 1222520 1098752
2766.40 1199528 1019298 838518 874940 811618 799282
2772.19 1220384 1979948 2257666 1131088-967970-1695744
2777.97-544656 541952 775740 764358 710476 731226
2783.76 1159298 1955278 2680518 2594376 1633752 1064278
2789.54 1053772 1059064 987778 943034 912748 896084
2795.33 1072272 1649290 2192790 2302370 1503230-449944
2801.12-2476282-2128438 84442 1328610 1508816 1672008
2806.90 1881244 2163544 2647248 2858188 2295010 1810618
2812.69 2167788 2821102 3170874 3456300 3744320 4225598
2818.47 4968926 5637406 6087938 6627960 7130572 7393692
2824.26 7017398 5413784 4515886 8148422 14496690 19568150
2830.04 23461260 27813510 32967160 39055610 46302670 54638480
2835.83 64294080 75578110 88052060 101230200 114888100 128777700
2841.61 142345200 155438600 167390800 177960700 186634300 193222400
2847.40 197146600 195337800 188423600 179240900 170399500 160606400
2853.18 144670800 125713300 111518500 104522000 107061200 114165400
2858.97 114480100 110708600 94398850 71283330 71090230 90239970
2864.76 111106200 129369400 144656400 157090800 166557000 173189900
2870.54 177244400 179043300 178660300 175008400 167874000 161520000
2876.33 158196100 153755600 146337100 137344400 127470700 117651000
2882.11 108196000 99003320 90137590 81603270 73432820 65703830
2887.90 58361470 51855270 46103770 40374820 34242350 29336270
2893.68 26028260 22602400 18744730 14844530 9878902 5463714
2899.47 5939644 8590888 8219794 6462792 5190866 4434912
2905.25 3618728 3004792 2778398 2528192 2445576 2790258
2911.04 2750818 2288244 1637166 1611348 2118720 2338940
2916.82 2531700 3405916 4432636 5088316 5002260 4143538
2922.61 2517762 3533676 8333624 12662620 15127710 17648810
2928.40 21108590 25779800 31184330 37524260 45448820 55488090
2934.18 67169690 80754890 96972550 116209100 138513400 163722500
2939.97 191555200 223800300 260750200 302106900 347633100 397238700
2945.75 449118200 504540200 571305300 645714400 712944600 772217700
2951.54 829449700 888634700 947154600 997702900 1035688000 1065032000
2957.32 1089938000 1102457000 1092487000 1066782000 1040035000 1017825000
2963.11 962762200 861341600 788118500 747923800 696995600 709212000
2968.89 771203900 745578600 644706000 624968700 659079400 679432800
2974.68 735953100 817497000 926494800 1027637000 1088750000 1139945000
2980.46 1190500000 1223200000 1228182000 1214729000 1195756000 1176305000
2986.25 1146402000 1089225000 1019867000 953404900 885913000 815704400
2992.04 744457200 675111200 616901600 581001100 538709200 469100500
2997.82 405127700 357373600 315987400 276980000 240012000 212450400
3003.61 222176200 264662600 243477000 167366000 126157400 110038000
3009.39 99151650 90333380 82290990 84010210 117917200 147828400
3015.18 116965100 76086380 65187560 65142600 66563900 65958240
3020.96 66742550 91520180 150373700 156557100 99294400 67996730
3026.75 62959930 61326270 61510010 62182620 85702580 207366200
3032.53 318466000 226679200 100238000 67761580 61074280 59206460
3038.32 59344680 64536750 115207700 210610000 209137300 121091600
3044.10 81165010 74882230 70961700 71106480 75822560 106420300
3049.89 202515900 251473200 165462900 90408950 73601310 66624930
3055.67 64346760 65625810 94751420 260261400 441936800 335995900
3061.46 143244800 85678860 74226240 71566940 73174780 81283980
3067.25 144621500 252488900 239072800 135814400 91506420 82454440
3073.03 78059940 78580780 81724170 124458000 224633500 237441900
3078.82 140164400 84931310 72825470 65566980 63396580 65465000
3084.60 126841000 304765500 365219900 206151500 99668010 83755780
3090.39 76521870 75001490 75809540 98675430 171732600 201134900
3096.17 132537600 81294850 74295180 72026060 70761870 70430270
3101.96 87823560 142479800 160893200 104086800 60471480 51919060
3107.74 52739950 54335660 55082970 87268820 176523900 197440400
3113.53 109519600 52980560 44952620 49163850 55748260 57738570
3119.31 71965740 103187700 101182300 65879680 46977660 42089740
3125.10 41287760 43500820 45550040 58180440 76410360 66312770
3130.89 41972460 31543020 27698620 26331470 27961670 35219770
3136.67 60704810 78258210 54663630 28842870 21412270 18243370
3142.46 17704030 21379030 29560490 39739190 39503870 28984920
3148.24 22213790 19189750 17227950 16696250 17908390 22609610
3154.03 26182460 21853600 16147870 13714460 12209300 11073170
3159.81 10291280 12876870 19408730 19429040 12645100 8775284
3165.60 7611364 6796216 6177428 6002040 7578986 9608302
3171.38 9361884 8352676 7733036 6870758 5974422 5504592
3177.17 5868284 6450876 6140110 5590664 5263880 4778884
3182.95 4218138 4299368 4990804 5370682 4825400 4069544
3188.74 3763750 3525696 3130680 2752914 2736094 2834972
3194.53 2880926 3009134 2932250 2631776 2342344 2143850
3200.31 2096906 2041562 1991822 2132410 2303264 2370042
3206.10 2723256 3045714 2908114 2733010 2630498 2460372
3211.88 2363054 2643202 3225722 3212274 2644778 2336688
3217.67 2485926 2715596 2833452 2610218 2105270 1624458
3223.45 1350666 1172432 964962 699726 389062 286798
3229.24 417844 620358 570754 382898 389494 363534
3235.02 310978 265514 169410 282678 788182 1150656
3240.81 895214 247900-207992-250322 94414 562172
3246.59 714218 513488 287572 387682 703734 806150
3252.38 789478 719944 362772 48360 100454 104620
3258.17 29278 334560 590812 325208 180996 321958
3263.95 280446 354748 628834 500262 226846 47596
3269.74 86110 506800 771864 628332 543604 577292
3275.52 481350 522416 607308 341408 109310 195720
3281.31 484406 719062 667922 380354 208920 402874
3287.09 520858 206444 249876 665624 634724 280218
3292.88 275886 475584 612380 655970 582722 527738
3298.66 653412 642302 334274 272750 441242 381262
3304.45 256008 156908-61858-226368-30760 287404
3310.23 628646 965130 1033896 836192 743264 626098
3316.02 556928 508524 216692 142436 324558 410904
3321.80 493068 557262 691448 817268 790184 614820
3327.59 389896 251812 351904 621444 896734 909448
3333.38 802146 695806 653566 806850 1007030 1110122
3339.16 971946 559326 400680 674808 834092 449018
3344.95 142620 210692 330406 502750 606262 676972
3350.73 650964 313048 100254 456426 639734 189092
3356.52 58668 156764 104792 194102 412958 502690
3362.30 313142 267632 545456 379398-142900-305764
3368.09 63692 502288 559846 520158 545570 641426
3373.87 644650 472366 505598 738030 724404 247578
3379.66-766 420728 1121456 1149746 397770-132270
3385.44 136806 631928 803524 868696 1010258 865954
3391.23 411642 432072 767196 528016 430208 845130
3397.02 801524 226198-126384 46396 477784 721864
3402.80 586870 662090 1046812 1131498 875260 597974
3408.59 398286 239558 440578 667694 459966 141516
3414.37 153810 364620 623570 664956 394024 297582
3420.16 454632 526636 464006 611528 753248 645490
3425.94 415182 152798 344648 702386 769742 817812
3431.73 958106 891624 652980 440020 400724 579578
3437.51 850848 1113584 1174634 1139006 1236962 1398280
3443.30 1421922 1104354 832252 923312 1330698 1638302
3449.08 1643036 1541766 1329776 1429432 1646458 1601140
3454.87 1440288 1357912 1655236 2058572 2100300 1608618
3460.66 1115528 1321078 1673094 1549512 1356342 1136782
3466.44 955054 819390 881790 1412904 1647906 1396406
3472.23 1506652 1996928 1920050 1480406 1771570 2101578
3478.01 1835444 1314906 939270 993876 918106 629920
3483.80 810752 1287626 1595168 1427654 1009194 873826
3489.58 966362 1051470 1166620 1133348 945220 804382
3495.37 696938 661114 758522 905198 898516 665404
3501.15 721302 1187970 1346924 777802 294942 408698
3506.94 804688 974368 780162 660598 787518 1019654
3512.72 1081662 830612 422194 355608 870136 1125090
3518.51 965504 886134 1022274 1314826 1420964 1073624
3524.30 698940 620018 600504 690668 1052236 1518846
3530.08 1713862 1625114 1517718 1194584 868894 998556
3535.87 1317294 1388872 1279802 1416008 1687146 1735776
3541.65 1815844 2103634 2588390 2960256 2895040 2657018
3547.44 2786252 3097784 3403308 3759996 4186208 4584572
3553.22 4641978 4769970 5325050 5665206 5699020 6127892
3559.01 7043756 7866568 8358730 8645930 8607148 8320470
3564.79 8419146 9100120 9857606 10148160 9974156 9647104
3570.58 9292058 8928840 8828274 9037176 8860482 8163978
3576.36 7851366 8053150 8426210 8778740 9034614 9549490
3582.15 9917728 9704596 9245534 8858372 9020042 9554682
3587.94 10085750 10586210 10979410 11064040 11180330 11746230
3593.72 12129900 11822610 11457930 11428390 11163480 10570690
3599.51 10002970 9269156 8412960 7930774 7579464 7041176
3605.29 6559772 6072990 5569780 4818568 3688612 2923706
3611.08 2698294 2407638 2208034 2426178 2633050 2675782
3616.86 2515322 2138894 1828512 1660558 1680040 1867292
3622.65 2020970 2155210 2102042 1878840 1879136 2217788
3628.43 2531634 2476914 2232350 1859436 1697464 2016114
3634.22 2529612 2700916 2226026 1590052 1513498 1775790
3640.00 1935282 2316802 3121156 3844590 4135548 3933420
3645.79 3340180 2864424 2782930 2657452 2543098 2683440
3651.57 3019130 3459584 3537392 3340242 3196934 3155346
3657.36 3152080 3092152 3231612 3597136 3989716 4316800
3663.15 4373382 4061436 3590848 3292606 3369050 3774542
3668.93 4678468 6005458 6848484 6545666 5257344 4187842
3674.72 3905002 3584760 3212638 3409282 4039372 4701520
3680.50 4981288 4310262 3227750 2822878 2797204 2800780
3686.29 3388392 4350304 4672824 4612332 4654344 4484560
3692.07 3847864 3280008 3394230 3668962 3954764 4665158
3697.86 5235624 4642788 3513596 3144746 3173562 2981658
3703.64 2793392 2865694 3147858 3034006 2633042 2561566
3709.43 2663912 3036400 3317182 2957878 2725544 2702856
3715.21 2690968 2747806 2465778 2031406 1876012 2158550
3721.00 2638282 2977806 3190728 2984884 2289408 1584786
3726.79 1203250 1365576 1746172 2038350 2459502 2536740
3732.57 2215554 1988670 2016368 2184200 2033964 1778376
3738.36 1902090 2024896 1846086 1541776 1670872 2410606
3744.14 2510094 1811390 1522142 1865488 2384706 2112474
3749.93 1613472 1877688 1695060 1067874 1085374 1420172
3755.71 1507592 1262962 1113284 1185654 1191096 1264750
3761.50 1570104 1804956 1630618 1478032 1546162 1511094
3767.28 1366152 1263698 1219462 1261816 1394912 1289020
3773.07 975840 827746 862312 857868 1113718 1516972
3778.85 1397074 1203948 1544304 1566882 1196184 1173428
3784.64 1331154 1316562 1515464 1888570 1784550 1509924
3790.43 1628050 1849994 1893866 1864764 1888206 2075696
3796.21 2165922 2214506 2686564 3029950 2868804 2391386
3802.00 1890746 1732506 1969638 3039154 3719400 2839718
3807.78 2038450 1907088 1820632 1879574 2310166 2633784
3813.57 2767478 3099622 2846208 2064956 1960502 2691628
3819.35 3295194 2916344 2348334 2231310 2217472 2449836
3825.14 3301034 3982914 3431420 2623432 2341032 2253048
3830.92 2571396 3105706 3069630 2822416 2760814 2944864
3836.71 3447484 3381436 2972600 2932804 2942646 2830610
3842.49 2659258 2453324 2527120 2952574 3349996 3343462
3848.28 3210044 3443144 4026778 4373070 4407956 4689502
3854.07 4724936 4495630 4281682 4083484 4042606 3960398
3859.85 4089538 4626492 5154648 5348480 5184722 4766334
3865.64 4450340 4481924 4555640 4575786 4516974 4344712
3871.42 4037184 4155664 4808740 4780662 4398724 4490786
3877.21 5117582 6281746 7090586 7074600 7225080 7780520
3882.99 8481148 9553254 10709360 11391730 11499500 11000780
3888.78 10077330 9201462 7954050 5836970 4026888 3323994
3894.56 3286452 3456142 3805668 4155244 3768640 2699020
3900.35 2180106 2573908 3359820 4164740 4552502 4648178
3906.13 4157490 3050478 2628664 2890586 3190416 3667266
3911.92 4181638 4843236 5331940 4605772 3503472 2917152
3917.70 2607476 2953980 4684530 7335198 7714978 5182858
3923.49 3534268 3392028 3376756 3831868 4801774 4977834
3929.28 3838936 2931372 2802658 2931688 3494196 4438226
3935.06 5159788 5112814 4404690 3498786 3443308 4537048
3940.85 5259406 4235260 2858548 2596406 2707826 2844440
3946.63 2983758 3112192 3715564 4446700 4450044 4016404
3952.42 3590962 3334452 3458376 4002060 4375538 4058014
3958.20 3495430 3464402 3933276 4845414 6076900 6174100
3963.99 5353714 5174860 5414920 6089540 7474470 8244208
3969.77 8055842 8422320 9556884 10909310 12857160
##END=
