##TITLE=Bromomethane
##JCAMP-DX=4.24
##DATA TYPE=INFRARED SPECTRUM
##CLASS=IUPAC A
##ORIGIN=NIST, Anayltical Chemistry Division, 301-975-3108
##OWNER=COPYRIGHT (C) 1998 by the U.S. Secretary of Commerce
##DATE=98/10/1
##$SPECTRA VERSION=1.00
##$UNCERTAINTY IN Y=2.8 % relative (B=2.0E-04,C=3.3E-09,D=2.7E-14)
##CAS NAME=Bromomethane
##CAS REGISTRY NO=74-83-9
##MOLFORM=C H3 Br
##MP=-93.6 C
##BP=3.56 C
##$NIST SOURCE=QUANT-IR
##SPECTROMETER/DATA SYSTEM=IFS66V (Bruker)
##INSTRUMENT PARAMETERS=KBr Beam splitter; MCT Detector; Multipass cell
##STATE=gas
##SAMPLE DESCRIPTION=Bromomethane Primary Gas Standard
##PRESSURE=101.3 kPa
##TEMPERATURE=23 C
##SAMPLING PROCEDURE=1 L/min Flow
##RESOLUTION=1.9290
##DATA PROCESSING=NB Strong Apodization
##XUNITS=cm-1
##YUNITS=(micromol/mol)-1m-1 (base 10)
##XFACTOR=1.0
##YFACTOR=5.6843E-14
##DELTAX=0.9645
##FIRSTX=574.687
##LASTX=3974.595
##FIRSTY=6.19E-06
##MAXX=3973.63
##MINX=574.69
##MAXY=.000076
##MINY=-3.39E-07
##NPOINTS=3527
##XYDATA=(X++(Y..Y))
574.69 108914500 119373600 138476500 162902000 182748800 203145800
579.51 224884500 251451000 280258000 310241100 343805800 374039500
585.29 406276400 445428000 475611100 506326600 539967600 573750400
591.08 607557900 636485200 656235500 672148900 681349400 688972300
596.86 688781600 681318300 667303400 658023700 652082700 616622500
602.65 532575700 447396000 382901500 337625600 341038400 513338700
608.44 774390000 754515700 445986200 246718900 286365900 383116500
614.22 493420500 598057900 698076400 780282500 845974200 891262100
620.01 920641000 929524300 922811300 897403500 858184600 805577500
625.79 745707100 677298900 606872600 532812400 459389300 387252800
631.58 321976900 260613100 205818800 156974900 117158400 85331000
637.36 60044920 40456420 27781810 16804320 10108640 5036580
643.15 3642610 2499034 1836230 851212 1604040 2142592
648.93 2227476 805774 894528 668302 1011914 1430226
654.72 2389878 1060428 872470 787270 1277760 1071268
660.50 1510510 1486498 1400806 194736 725758 1305000
666.29 3819208 3628766 1192648-153362 686706 956142
672.08 643188 577634 1506336 1902458 1406248 328266
677.86 416058 1214912 1370104 722006 1605836 340032
683.65 208888 771790 1160902 1188104 1054630 268444
689.43 869048 746468 416386 499038 531844 375020
695.22 938926 431548 102148 652934 1337166 1285564
701.00 1334640 391936 525726 316792-252352-270962
706.79 486220 255022 994982 1119384 939868 731578
712.57 1110056 191728 526642 573240 151120 270152
718.36 944460 1085134 1085904 320804 576002 656282
724.14 946050 452860 827754 356410 355556 207972
729.93 760944 779600 941842 585660 609652 193328
735.71 796508 1084510 923802 818156 1423300 1197604
741.50 797944 533274 1369060 1434238 1363906 870810
747.29 949776 187174 677782 997972 1367116 1406528
753.07 1144554 529904 974490 1000208 703120 404902
758.86 860920 552118 763360 877052 745174-250578
764.64 399250 656992 743988 921962 932646 451506
770.43 843382 463940 252878 469008 1063630 640040
776.21 288024-198010 389426 923424 1299554 1442710
782.00 1502330 625174 454052-55904 65872 94860
787.78 559540 736764 990532 1065948 1392598 1276162
793.57 962230 185214 95762-314688-122840 25806
799.35 1016248 1234410 1221786 901466 627486 511450
805.14 346480 64472 1308152 1258522 421776 542654
810.93 1058848 455648 503466 1044676 1547640 622804
816.71-77290 192402 1016138 1014428 1294656 967330
822.50 720648 223424 700398 579766 1123640 1599244
828.28 1895536 1043212 901684 719554 1137248 935522
834.07 981176 1060074 1565638 1234818 1413162 1764760
839.85 2265860 1730706 2108202 2071352 2565054 2823184
845.64 2907316 2693640 2763444 2714652 3493024 3299156
851.42 3645478 3228636 3800834 4223894 5047798 5187730
857.21 5975702 6487774 6727826 6458850 7441304 8645790
862.99 10275920 10323620 9684974 9130332 9693178 10151540
868.78 12685290 16975680 21034640 17931930 15070890 15195390
874.57 16791820 19137610 23809130 27760870 24859820 20818420
880.35 21471230 23093620 26820940 34065420 41978510 38360360
886.14 31571370 27179100 27322640 34564940 54682470 79016420
891.92 66007260 43117950 39300060 37669190 43585660 57401890
897.71 81079030 77816570 59044640 57582430 55815140 56733660
903.49 72075960 105427700 115191700 85037260 78346570 77604170
909.28 71560590 88870700 165085200 233320700 154992800 81342860
915.06 80162940 78725700 85894710 119183400 188684100 176418900
920.85 107267400 97084210 99547810 102622000 125039300 198477500
926.63 247292200 166185100 114705100 124136900 119787700 143250200
932.42 249858200 449561000 402267700 159905200 106005600 107358100
938.21 114268400 139997400 246238400 337380400 235700100 122136100
943.99 127299900 125835700 136539700 179977400 319998500 350492900
949.78 196329600 123576500 145143700 137890600 156874500 296120700
955.56 610098600 558786500 209979800 120050100 127362400 134477000
961.35 154512800 255597200 382413800 295904300 150272200 133804900
967.13 139580900 144461000 164907000 269359300 358571000 241945800
972.92 128333900 129320000 138995200 147801600 198063600 394756100
978.70 515439600 280531300 110778700 113431900 126004600 133644800
984.49 155067500 239011700 279972900 179437100 109988100 107588900
990.27 117087500 123577500 137776400 199978800 227563300 143646600
996.06 89133120 84548820 93629110 108557000 133721900 224482300
1001.85 274818800 154423200 71589180 61509210 64229130 82410330
1007.63 99554220 128389300 148773100 108224600 73429790 66235340
1013.42 62368840 64353390 73259950 91058730 107571500 83339360
1019.20 54382350 47695040 44358620 44268780 51016790 73361870
1024.99 101834300 82501380 41868300 31949420 28183220 27512760
1030.77 27259720 37061330 52002880 52101770 37244980 31315910
1036.56 27595540 26484880 24722270 25852110 30518390 34384030
1042.34 25764890 20910460 18334970 17059750 15027060 16484690
1048.13 19319700 24637150 19741110 13288830 10653030 9678684
1053.91 8356714 8440002 8377872 10209030 10924720 11023130
1059.70 9554232 9016898 7653578 7346544 6657024 7298790
1065.48 6651864 6126330 5325096 5173690 4378150 4580516
1071.27 3951068 3868752 3975718 4012094 2595162 2663132
1077.06 2372872 2565794 1832298 1851024 1568046 1748838
1082.84 1351680 2106096 2093844 2276546 1697026 1629148
1088.63 1385128 1411962 988254 1170536 669674 1049374
1094.41 1021730 1180522 663870 1113152 1098736 1026874
1100.20 596120 816720 706984 937414 352566 661986
1105.98 847960 1024556 709296 814418 338592 465178
1111.77 469124 906002 765356 486784 80254 378690
1117.55 272198 569366 650542 928932 580984 405980
1123.34 3390 416862 189252 750316 682284 609210
1129.12 462250 517352 233748 175118-193084 95364
1134.91 275924 688980 173432 238108 329546 539402
1140.70 301836 528484 280826 563986 328270 367502
1146.48 198940 481190 477488 777204 587152 593614
1152.27 578910 797342 661592 1066196 1119062 840336
1158.05 384356 831750 679930 786626 958414 1233506
1163.84 1002658 1011408 785000 982498 1105828 1143596
1169.62 945796 944646 970226 1430536 1371032 1699924
1175.41 1366272 1567264 1879062 1797614 1708298 1923670
1181.19 1901270 2144160 2099644 2276284 2306242 2741294
1186.98 2928004 3177930 3017520 2782152 2557132 2943134
1192.76 3250978 3777820 3999366 3943746 3697388 3810628
1198.55 3854560 4140038 4087198 4190362 4267812 3990934
1204.34 3657144 3798752 3633424 3672608 3520900 3455310
1210.12 3640030 3766052 3828644 3837578 2732696 2293970
1215.91 2581494 3035476 3533248 4148974 5098430 5800860
1221.69 6162368 6259000 6218524 6555012 6395234 5782622
1227.48 5628766 5092070 4424118 3645604 3253052 2883948
1233.26 2493776 1800440 1735764 1431752 1202300 1653352
1239.05 1992900 2234350 2589936 2527834 2766574 2944142
1244.83 3357202 4041940 4358322 4158998 4857532 5268300
1250.62 5823602 6606420 8101988 9177894 11288570 13367870
1256.40 16287780 19429850 23659510 27346170 32009550 37237190
1262.19 43949890 51253040 60140780 69815020 81934230 95215070
1267.98 111027300 128017900 148260000 170594300 195866700 221919200
1273.76 252040400 284639500 321214800 359569100 402062100 445962900
1279.55 494249500 543590300 596618400 649709800 705471800 758666500
1285.33 812093200 861958700 911869700 955440000 997313400 1029985000
1291.12 1052765000 1061552000 1065888000 1053736000 1027658000 978848900
1296.90 918370800 835489600 748007100 651123800 547418900 395702600
1302.69 284606000 374410600 900309500 1128580000 654276100 396911000
1308.47 483913200 643103700 762128300 894424700 1020516000 1139587000
1314.26 1227467000 1294956000 1327328000 1338354000 1316884000 1275262000
1320.04 1211950000 1138633000 1048867000 954728900 856917000 768802600
1325.83 670426000 569791400 472007900 387776100 311678600 248815700
1331.61 187790300 137494000 101434800 79182820 64020030 70814920
1337.40 112766000 127916300 89602960 60253200 41952910 35983770
1343.19 30965370 31203260 24939130 22771270 22332280 28941940
1348.97 40824340 86540580 108173200 78906240 54218580 46331860
1354.76 43731740 44928690 46220150 49405280 45438280 42901580
1360.54 48363980 65609120 130045800 171912200 118266500 80348300
1366.33 65513280 65551510 64283030 69350180 69038140 68572490
1372.11 52437940 59302400 90094370 273618900 388059500 217561900
1377.90 94963100 59381480 54520660 53549410 59119420 61632160
1383.68 69491540 70099390 74166270 94850400 229261000 299080600
1389.47 170215400 95880410 78539410 81347040 81809430 88907800
1395.25 91754740 103923200 110867700 114128600 142613200 330131800
1401.04 377050900 193593000 114817900 97477740 101016300 97856160
1406.83 106009800 103366800 118452800 141737000 147822300 271781500
1412.61 750462500 682374700 233161700 104411100 80742960 91602590
1418.40 89022210 101611700 100983500 124533500 136182100 143273800
1424.18 291198900 549815000 368209700 158628500 116639300 120586500
1429.97 118372900 128870400 128096700 137489700 147540000 160599900
1435.75 184120400 472108500 588875500 280800200 137083700 120777000
1441.54 121462600 121338300 117472500 121253900 156093500 171841900
1447.32 158912500 629504600 1097127000 482440400 134758100 113349200
1453.11 120632000 117669200 128088700 123551500 139589300 152745800
1458.89 154988600 182849000 465012700 547694200 255082200 148747900
1464.68 136700000 140833200 134552300 136591200 135274300 154408300
1470.47 150411300 152291200 329514400 536125400 303227400 141890500
1476.25 121622000 124188500 112443300 113267100 111289200 144593000
1482.04 130226700 118370000 344010500 790250600 509614200 148487800
1487.82 127336000 130160600 130900700 127492700 130479900 141296900
1493.61 135050900 128037900 206479800 395012800 302114600 130466300
1499.39 118807200 121671400 121833200 114447000 117213900 119288000
1505.18 110119800 103069900 165508700 303558200 221011100 88292000
1510.96 78150860 80393370 87030030 81217050 92794860 90162060
1516.75 76878500 73684170 200212900 383093800 219388800 64386090
1522.53 56932710 65661920 88978340 90994020 95829190 86258180
1528.32 83747470 84478420 147873200 179731100 101663400 64541580
1534.11 60797800 59677760 67736720 71717790 70559830 63088020
1539.89 60219750 71165240 118979600 100761700 49491520 39235970
1545.68 34648310 34597420 40353710 45354560 39333630 36645420
1551.46 37870660 85028350 119858100 57009420 26820580 23923490
1557.25 23588170 23951500 32343200 38500490 38837120 36902600
1563.03 43839610 58250160 44970250 28155290 26492530 24341990
1568.82 24254770 22199980 23396760 23641340 23333540 24661600
1574.60 34771450 30106450 18989640 16082960 14705730 13532590
1580.39 12273340 11529030 13327370 14799750 17563570 27630790
1586.17 24459530 11516640 9466340 8638374 9009434 8087242
1591.96 8365746 8386732 11015370 12224670 14924190 12976470
1597.74 10405520 9601616 9786866 9130486 8555490 7242804
1603.53 6926702 6782960 8425800 9822524 9187852 7723460
1609.32 7210122 5991590 5593614 4975006 5112142 5055174
1615.10 6163626 7211902 7238092 5177744 4623692 4262632
1620.89 4771542 4525984 4623284 3990136 4212142 3878362
1626.67 4381984 4307210 4246772 3568396 3878060 3796110
1632.46 3751868 3510918 3718866 2654822 2612604 2198506
1638.24 2204364 2236132 2484912 2155960 2224004 1736168
1644.03 1993254 2203048 2268860 1885474 1924024 1779480
1649.81 1833222 2062894 3170250 2528622 1806504 1191328
1655.60 1150804 974258 1260430 878792 723576 677586
1661.38 1212632 1122182 787878 524794 859812 940126
1667.17 1074458 1124344 919780 550688 900620 696648
1672.96 763996 1064464 1221362 638488 668234 340844
1678.74 610552 639356 781974 563636 1115892 1660160
1684.53 1567870 677264 609240 560106 799866 426076
1690.31 183110-71034 392884 617662 1364368 1482508
1696.10 714672 255774 779968 1375930 1415148 502276
1701.88 323282 376842 764360 494632 366416 105260
1707.67 362178 392122 495308 307736 535574 372326
1713.45 631242 603026 763004 1377446 1203258 655744
1719.24 645606 518536 574134 441700 421364 118366
1725.02 432568 487616 418298 318610 638332 537322
1730.81 628116 804172 1355868 1282806 874316 383426
1736.60 514266 425626 756178 854614 682386 403424
1742.38 573060 577176 638688 498166 641248 606470
1748.17 556196 336868 739372 582414 573106 718814
1753.95 824042 613114 638578 372072 413326 368218
1759.74 450888 696486 928840 767016 632974 313142
1765.52 297966 402804 686318 526088 674958 779264
1771.31 1065176 985616 736820 478236 486498 387404
1777.09 503444 482842 437962 137714 234848 129222
1782.88 182960 485758 739882 445500 263418 203952
1788.66 454262 689636 724998 788798 609276 250102
1794.45 393382 457696 415342 200954 499162 402474
1800.24 250552 225402 467814 391754 341360 228644
1806.02 289416 228656 421662 380686 314416 290890
1811.81 537304 442750 314666 177660 203552 257924
1817.59 480022 480868 517798 401428 359782 104352
1823.38-121696-278762-91180 418344 727116 518326
1829.16 550012 441578 549550 358576 328234 383886
1834.95 764422 1043234 728718-8396-149880-93216
1840.73 252738 250436 510388 533298 293396 310216
1846.52 475922 495322 641752 707900 509396 8824
1852.30-258546-329980 126920 662910 692062 536420
1858.09 499572 292596 395390 788968 1106254 1189718
1863.88 1178984 498326 29254-294950-219468 372598
1869.66 1381132 1671598 1532418 1338192 1333966 1714088
1875.45 2444114 3224816 4001236 3716912 2806376 2461560
1881.23 2535384 2552642 3055896 3953516 4743494 4844416
1887.02 4897510 5153480 5680688 6109708 6719914 7275624
1892.80 7166810 6782050 6499186 6019510 5820404 5661540
1898.59 6345508 7073826 6876564 6339208 6427020 6273404
1904.37 5808652 5586910 5560130 4555550 3797700 4383998
1910.16 6138348 6710392 4748862 3368740 4814852 5758852
1915.94 6250256 7164042 7956686 9063106 10578740 11314520
1921.73 10746460 10273770 10016410 9328448 8272008 7230220
1927.51 6421684 6064220 5493422 4321502 3150722 2049186
1933.30 1574772 1242500 841340 572362 404208 103262
1939.09-78376-372394-551212-914538-756404 111292
1944.87 313236 193922 211338 195690 396948 365756
1950.66 45314-192854-52072-132810-256902-797288
1956.44-1372814-1620320-1038220 152272 742008 625206
1962.23 458468 759610 1106472 440676-55664 8288
1968.01 188242 185518 205476-151514-450434-550456
1973.80-271998 287110 442506 393198 423796 508334
1979.58 342678 133730 209218 338816 398618 103404
1985.37-10482-241524-430458-553666-102548 368528
1991.15 266828 232930 591768 586672 343832 166700
1996.94 118608 251842 543472 445258 137062-159118
2002.73-507796-778834-365452 432452 767930 687340
2008.51 637704 311014 21204-45120 98616 102360
2014.30 96402 266292 164370-48810-27194-125242
2020.08-132732 71310 213962 199294 165872 96430
2025.87-114544-112030 197692 276616 151360 56802
2031.65 201086 234958-139060-231496-244840 44152
2037.44 321810 199980 89338 151676 229376 140540
2043.22 226172 383720 337812 195086 82866 24550
2049.01-12916-11928-115810-66678 284634 626204
2054.79 805512 737594 503830 421460 396600 337498
2060.58 261706 375274 518842 406646-8876-183416
2066.37-31120 423006 561010 407146 229172 155424
2072.15 391464 464502 358036 231014 218792 538012
2077.94 444440 443726 603560 651962 330256 163944
2083.72 237482 534496 419958 61084 141572 215994
2089.51 762616 751746 452800 363716 719768 797490
2095.29 331962 313506 552134 868900 324116-67718
2101.08 176844 974940 882586 224944 184178 832556
2106.86 901890 209140 203576 769158 1291740 640062
2112.65 237286 605274 1213270 631540 216378 511400
2118.43 1130138 735042 109948 124760 831674 829718
2124.22 352544 343450 605912 628790 258306 248774
2130.01 503928 719748 389844 464376 628242 513712
2135.79 262478 443758 558122 697708 681072 549496
2141.58 396542 291646 148834 232848 643366 825736
2147.36 692324 460898 586830 924076 740522 646632
2153.15 1118930 1181664 694522 915570 1602230 1365346
2158.93 714330 1246598 1935116 1548412 1161410 1718930
2164.72 2064526 1726836 1425560 2174026 2498284 1940270
2170.50 1977546 2641652 2683774 2046488 2336966 3075796
2176.29 2600610 2463412 3424758 3941468 3344858 3490558
2182.07 4092572 3685630 3239844 3993806 4686596 4574838
2187.86 4728170 5002746 4587734 4608392 5700866 6719390
2193.64 6640356 6058718 5773412 5417216 5321052 6195088
2199.43 7108998 7622364 7401604 7229474 7121688 7279978
2205.22 7933112 9341632 10219290 9581256 8829044 9519578
2211.00 10367830 11501060 13802220 16193380 13581810 9295728
2216.79 8602976 9249552 10074430 11620160 13919570 13823050
2222.57 11110590 10125600 10599880 11967340 13993050 16968220
2228.36 18127900 14299850 11570860 12848020 15045230 18725800
2234.14 23790350 29192490 25175750 13851360 10248450 11153890
2239.93 12579260 14804250 18777870 21416150 16694080 11760050
2245.71 11624340 12488580 14130080 17271600 22046380 23151330
2251.50 16209500 12100730 13202820 15350540 19172340 25411920
2257.28 33966050 32496780 17350580 10438090 10978120 12524100
2263.07 14582650 17488180 21250320 20011900 13303780 11183510
2268.86 11901690 12949140 14180210 16574000 19991360 19085390
2274.64 12347370 10021530 11257020 13126530 15479530 19083130
2280.43 23778120 22618880 12667790 8178686 9101556 10456180
2286.21 11452810 12681680 14127890 14355570 10829200 8429138
2292.00 8397046 9848090 11230240 11467080 12051100 12911070
2297.78 10810250 8053530 7048446 7125700 8500022 10974260
2303.57 14517280 15148430 11790980 7645282 5940444 6029554
2309.35 6052262 7177136 8304112 9888098 11262800 11081070
2315.14 8173804 7714846 7377970 7943350 8385142 9392526
2320.92 9152576 9399506 9995852 12440900 10841780 9042392
2326.71 9120628 9827474 10147560 10428200 9250944 8769146
2332.50 10773820 17909270 18308020 10638210 8659370 9271310
2338.28 9378794 9108094 9177690 9139438 9444694 13052300
2344.07 16199750 11301180 8120438 7631882 7456972 7659680
2349.85 8336200 8852594 9983544 13936900 20556800 17373850
2355.64 12866420 13475680 13262310 12279010 12383110 12884460
2361.42 14011800 19326540 35111780 33675730 16338640 12453430
2367.21 11890320 11872840 11401550 11594100 11627250 13692210
2372.99 21296030 24238680 14166640 10964700 10339860 9882372
2378.78 9501304 9936184 10092440 11896250 19368640 25989360
2384.56 15967550 10772100 10470670 9875464 8674722 9199830
2390.35 9422668 13764110 25275000 38865010 27376320 12034950
2396.14 9746560 9349400 8923296 9223670 9190950 10387120
2401.92 15721130 25550080 18488290 10250290 9932330 9253048
2407.71 8134362 8188716 8040254 9190372 13419650 22388610
2413.49 16363210 8620840 8660316 7663710 6629448 6516776
2419.28 6340462 7190028 14686130 32281730 22970030 7774660
2425.06 7157196 6769634 6572860 6524252 6609742 6640786
2430.85 9548304 16985470 13335210 6373986 6157494 6085666
2436.63 5876556 5689878 5502570 5625580 7528404 12984030
2442.42 10000470 4667730 4864736 4679920 4380230 4140728
2448.20 4147062 4085228 6607328 14891610 12594580 4444724
2453.99 3143220 3065682 3891056 3690468 4087364 3995828
2459.77 4693610 6416446 6521526 4237808 3497766 2963804
2465.56 3285960 3389150 3566996 3240430 3513130 4258218
2471.35 4611368 3877098 3415134 2904470 3136898 3231756
2477.13 3019434 2865590 3073908 2563234 2499920 2443590
2482.92 2329332 2524232 3717386 4541464 3859276 3204992
2488.70 3106714 2784110 2616436 2535520 2525430 2231622
2494.49 2065270 2269744 2631148 2623422 2337626 2177316
2500.27 2126122 1770172 1564772 1866036 2214444 2058594
2506.06 1697912 1300214 1293326 1581994 1870622 1858246
2511.84 1941588 1970008 2030066 2386120 2743508 2658472
2517.63 2673406 2997016 2945468 2274008 1589994 1140486
2523.41 827932 884438 554914 394616 321672 232646
2529.20-12698-135920-71508 131806 411266 137064
2534.99-210494-277604-274890-290814-189012-63092
2540.77-57556-203618-255560-162388-211072-195624
2546.56-244548-393670-394760-230280-282858-421468
2552.34-171398-45238 17756 237640 507292 616324
2558.13 595118 1143940 1561796 1655834 2045676 2529264
2563.91 2826570 3020458 3522482 4478104 5067438 5428318
2569.70 5957084 6751898 7335714 8281812 9252844 9996878
2575.48 10789820 11371800 11876880 12481100 13103060 13738680
2581.27 14130120 14406180 14539700 14563220 14651010 14583340
2587.05 13677070 12945130 11924440 10415250 8557302 6770326
2592.84 4809204 3285148 4807964 11799320 15747070 12223700
2598.63 9113546 9146270 10498100 12992430 16795540 20949730
2604.41 24891230 27344500 28785520 30181500 29806790 27496540
2610.20 24347860 22374540 22712280 22832850 20836540 17513970
2615.98 13194210 8512526 4514908 1472406-740192-2138480
2621.77-3316664-3876930-4057390-4290264-4615256-4739308
2627.55-4623034-4950420-5603476-5970492-5904510-5456416
2633.34-5521970-5606616-5660400-5657912-5894746-5778664
2639.12-5281264-4766350-4706686-4965146-4990180-4930298
2644.91-4794222-4682198-4646044-4387078-4319856-4365032
2650.69-4111878-3537388-3001708-2910682-3213402-3059538
2656.48-2852866-2504400-1951556-1674112-1573294-1246926
2662.27-1124486-902294-242692 516924 347548-52050
2668.05-58464-136750 142708 487566 406938 376822
2673.84 92116-358120-385026 638402 1413662 1000844
2679.62 400916 440420 301088 241266 396704 648126
2685.41 518110 435822 613936 1192838 1809688 2012140
2691.19 1096336 772678 629678 637306 701536 1077342
2696.98 1077012 1031726 773280 571168 551428 1290040
2702.76 1388800 836242 630984 1005220 951928 734842
2708.55 978338 1418876 1560112 1845642 2199988 2997312
2714.33 3597966 2386720 1058860 1071090 837676 898292
2720.12 931638 1211220 1096450 1140410 1175112 1138392
2725.91 796060 949356 722492 721122 555406 549952
2731.69 401970 572958 843702 1217698 1083498 1283898
2737.48 1820674 2604842 1847986 889848 639814 868170
2743.26 1230124 1340400 904230 875322 1141084 1919944
2749.05 2601420 3042640 894154-2150394-1374068 515668
2754.83 883696 854012 832696 773586 783788 1080184
2760.62 1091852 1858822 2605596 2086652 1004876 1114264
2766.40 1238718 1061286 718020 975722 758582 765210
2772.19 1086988 2104360 2451376 1456176-1319826-2079112
2777.97-479570 759088 743602 804950 686398 676858
2783.76 1055494 2000994 2753012 2896132 1418272 1025526
2789.54 1020128 1128654 921422 1000322 851274 949324
2795.33 892498 1748516 2177852 2518718 1649344-277940
2801.12-3023234-2543000 418802 1510660 1441770 1700068
2806.90 1851944 2139484 2628506 3106082 2223026 1667096
2812.69 2064890 2986316 3078726 3544350 3640968 4231338
2818.47 4915166 5781426 5956136 6727894 7077320 7560554
2824.26 7167024 5615452 3357128 7744618 14847730 19840260
2830.04 23253350 27754880 32779460 38895120 46101530 54498850
2835.83 63930040 75468870 87876390 101239000 114737200 128956500
2841.61 142297000 155706000 167579500 178215100 187115500 193293500
2847.40 198405600 196116300 188758700 179217000 170042400 162244000
2853.18 145134900 124822600 110205800 103380000 104931800 117285000
2858.97 113461400 113246600 97590820 64958580 68267280 90488330
2864.76 111532000 129877100 145057000 157605700 166974600 173624600
2870.54 177576200 179368000 179115000 175832100 167696900 160645800
2876.33 158591200 154366100 146435400 137615800 127337900 117657300
2882.11 108099100 99015500 90007010 81646520 73236040 65800070
2887.90 58076020 51843340 45956910 40680480 33893340 29033910
2893.68 26092700 22758260 18594360 15132440 9999950 4373534
2899.47 5323168 9694500 8093638 6563780 4874964 4682282
2905.25 3412448 3059706 2661860 2691124 2108328 3120448
2911.04 2595006 2557548 1315862 1652308 2055610 2551846
2916.82 2146950 3624720 4251682 5482836 4813426 4682872
2922.61 1874712 2729886 8515666 13209360 14858080 17708190
2928.40 20657840 25923940 30825180 37509610 44819700 55511360
2934.18 66652270 80562450 96222380 116031000 137668800 163820900
2939.97 190378300 223414200 259720500 301800800 346595000 397189100
2945.75 448716800 502708400 568790000 648487900 713495200 773212900
2951.54 828229700 889193100 947856300 1000696000 1036440000 1065954000
2957.32 1090738000 1107978000 1093811000 1068373000 1036117000 1023769000
2963.11 974848600 854749700 775656900 762479200 678393800 697409100
2968.89 789359500 768439900 619192300 613954900 674230700 660369200
2974.68 742411800 804754800 931285100 1035596000 1089503000 1138433000
2980.46 1194375000 1227728000 1231791000 1214490000 1196472000 1175955000
2986.25 1153732000 1090047000 1018815000 953922600 886240100 816149400
2992.04 743866100 674470700 611144600 581497100 547321200 465165800
2997.82 402713800 356706800 315249500 277580100 238058100 208712800
3003.61 208629400 281339300 257489800 152568200 126658400 107052600
3009.39 100748900 88797580 83085590 76396330 115174400 165477000
3015.18 115860200 68401550 66026250 62992880 69216060 63730920
3020.96 66970600 77438210 163458000 173269900 86675990 66563350
3026.75 61914560 61567840 61145300 62122980 66927710 192445500
3032.53 381862200 219174400 78996740 69292510 57957580 61110380
3038.32 57320580 61520750 94969110 235850800 230802500 99805140
3044.10 82083730 71915340 73040300 67687040 77284850 87589300
3049.89 206567600 291952800 150425700 81234750 74395380 64668720
3055.67 65024940 63921900 73187610 229547400 530396900 338377400
3061.46 107039700 88788300 68151670 75035450 69617850 78239750
3067.25 120588500 286881800 258482500 112824000 92512590 79148920
3073.03 79496880 76621210 80614430 102629700 244098700 268580300
3078.82 116942300 84793540 69114500 67976250 59903020 65188620
3084.60 89623460 324502100 430969900 169349400 92386100 81493750
3090.39 77713750 72543780 77045090 82772420 178245400 230096000
3096.17 119028000 75323630 74479660 72053880 70390200 69835200
3101.96 76930200 147123800 184016100 92453490 57627870 48728430
3107.74 54862070 52887000 54975080 67530870 189928700 229082800
3113.53 90056820 49838260 41194010 50477950 55809560 57829150
3119.31 64083960 111918600 109533100 58481080 46772510 40712060
3125.10 41227650 43494450 44783260 53590980 85063540 68346940
3130.89 37652540 31632450 27026530 25901680 27743900 31503920
3136.67 58982070 91461220 51170140 25795610 21133070 18111160
3142.46 16624020 21097260 28333050 41929930 42246570 26922430
3148.24 22240700 18777570 17203040 16320520 17431440 22058940
3154.03 28730390 21418140 15568250 13617090 12212140 10978370
3159.81 10086580 11252150 21139020 21082440 11316740 8635084
3165.60 7496886 6831306 6118180 5714930 7244094 10398010
3171.38 9267622 8298998 7784440 6907924 5871816 5397754
3177.17 5705098 6793294 6062202 5585202 5254910 4878006
3182.95 4035434 4204770 5018700 5597026 4853874 3924224
3188.74 3804590 3525622 3176692 2633230 2741462 2862592
3194.53 2831310 3062026 2985542 2600260 2358670 2078754
3200.31 2132696 2028318 1968704 2091360 2394306 2252416
3206.10 2735082 3166354 2889826 2699530 2682020 2415536
3211.88 2350228 2483018 3427996 3283592 2613436 2198378
3217.67 2536526 2680892 2934850 2639098 2113584 1568662
3223.45 1339488 1189008 955176 742986 322030 263534
3229.24 387274 673576 630390 280342 454076 333128
3235.02 327380 265942 166156 154810 842962 1252378
3240.81 993702 177248-262188-325624 64850 631618
3246.59 781712 516468 227382 320810 783166 813440
3252.38 774770 799072 364248-62876 137754 147164
3258.17-77060 320180 763432 251086 114874 387320
3263.95 277778 233066 800552 467464 227724 24476
3269.74-19154 545684 880724 586452 509336 632406
3275.52 449264 467760 745496 287304 73060 138482
3281.31 512770 753042 740048 335594 155486 359312
3287.09 716124 53064 188306 752800 749272 135748
3292.88 284576 470110 642358 663350 604204 458882
3298.66 685572 727650 272884 189742 551206 343806
3304.45 274388 153744-14622-365756 12830 244932
3310.23 653724 974614 1148638 735796 804398 596650
3316.02 530292 601906 157244 60920 409094 348328
3321.80 555022 492574 728698 813374 850912 585240
3327.59 421200 158010 374104 560906 1006794 885656
3333.38 823696 678148 619194 787928 1046162 1111054
3339.16 1086494 463976 338788 654954 1010002 394184
3344.95 52284 245862 287512 537844 607958 664258
3350.73 751788 281646-22582 442734 891740 704
3356.52 62466 199448 67118 162264 440982 558944
3362.30 316444 118988 701374 438548-220678-405692
3368.09 33402 623614 540982 515022 536402 628550
3373.87 740048 371434 509584 722318 905088 136614
3379.66-81722 303476 1296306 1297370 363014-328316
3385.44 121270 710796 823420 820702 1070746 958786
3391.23 307902 299000 993272 462536 271746 986730
3397.02 905358 173718-237958 16032 491872 838596
3402.80 528492 558576 1159520 1159282 909542 524834
3408.59 476294 96172 467272 746456 507250 31790
3414.37 154004 339066 653718 764342 323354 257326
3420.16 465374 585630 392228 601404 848252 596858
3425.94 513212-14330 347202 766044 779168 759564
3431.73 1033162 905786 654326 409638 353592 577394
3437.51 837746 1157918 1208920 1079138 1257684 1376298
3443.30 1542056 1062226 778378 857402 1336888 1745462
3449.08 1585210 1645594 1208086 1415932 1728894 1581364
3454.87 1480094 1230920 1666900 2098892 2226694 1617950
3460.66 953616 1267722 1853660 1472658 1413600 1102096
3466.44 951324 827972 721450 1500852 1783984 1282352
3472.23 1418384 2103568 2092086 1193264 1833986 2218960
3478.01 1862590 1313840 813902 1030266 1025406 462140
3483.80 803428 1285534 1710856 1472182 943456 817402
3489.58 1009138 1004960 1218304 1157880 929950 796346
3495.37 701570 612496 775838 891248 1007824 563832
3501.15 655878 1203594 1566944 706590 189152 353706
3506.94 848468 1070250 739862 618630 767692 1041354
3512.72 1159524 837570 414614 148370 999102 1188586
3518.51 940804 847212 991040 1332514 1536024 1070712
3524.30 613870 641696 581758 633072 1031748 1562908
3530.08 1799704 1567298 1596670 1202204 759892 964908
3535.87 1379668 1429166 1229544 1351700 1798568 1674830
3541.65 1821462 2024372 2634272 3020752 2976232 2521666
3547.44 2792660 3096764 3390460 3759564 4155792 4686030
3553.22 4639020 4628608 5405912 5744484 5608976 6015532
3559.01 7086358 7929866 8378502 8691312 8694814 8220418
3564.79 8314526 9075144 9965614 10223090 9995630 9636866
3570.58 9316054 8879264 8744322 9105020 9025418 8028688
3576.36 7769834 8044242 8404086 8850724 8936012 9562498
3582.15 10083970 9676684 9309048 8689424 8991210 9551446
3587.94 10102880 10578200 11058920 11077010 11043260 11786910
3593.72 12293760 11824480 11341020 11507380 11236680 10526010
3599.51 10042440 9325104 8305934 7901266 7665564 6977076
3605.29 6595902 6054580 5595366 4946272 3588412 2801016
3611.08 2750612 2416766 2069864 2481610 2639690 2710384
3616.86 2570354 2109290 1807876 1639652 1624868 1907948
3622.65 1996158 2193434 2159238 1810498 1834468 2183388
3628.43 2664444 2441586 2310878 1796092 1616696 1965606
3634.22 2598474 2822144 2283650 1437732 1462536 1826758
3640.00 1902950 2198280 3165612 3909636 4221422 4005518
3645.79 3333098 2739400 2838976 2661178 2465580 2696058
3651.57 2936592 3579426 3570978 3318172 3190894 3125488
3657.36 3201916 3032302 3192460 3603906 3987762 4365006
3663.15 4444334 4088294 3561866 3219388 3325034 3712200
3668.93 4538656 6131644 7020346 6770468 5197252 3975166
3674.72 3978912 3616422 3075094 3342658 4042506 4736144
3680.50 5172262 4434690 3008976 2796874 2824368 2696702
3686.29 3243438 4563636 4710450 4561610 4699368 4573442
3692.07 3880324 3069424 3427404 3681886 3853250 4641878
3697.86 5505590 4768404 3290340 3087652 3263156 2949026
3703.64 2775806 2774378 3255728 3117448 2506572 2582076
3709.43 2606390 2987414 3557318 2835306 2709890 2731860
3715.21 2616474 2866416 2474158 1986032 1794820 2108058
3721.00 2704628 2955956 3274124 3092252 2267616 1543544
3726.79 1099510 1302216 1842300 1921110 2573268 2612162
3732.57 2173412 1962606 1953174 2276344 2073682 1654220
3738.36 1927496 2085760 1869214 1496814 1467782 2570938
3744.14 2731516 1632280 1473320 1752568 2596104 2214106
3749.93 1301992 2071098 1811750 860318 1071744 1450058
3755.71 1599436 1229534 1045740 1240630 1160686 1228572
3761.50 1549662 1935292 1598704 1415386 1594696 1518070
3767.28 1368036 1234274 1239298 1191718 1484124 1307918
3773.07 962720 749066 936984 772442 1069442 1637938
3778.85 1462612 980620 1688506 1645232 1098396 1129434
3784.64 1411700 1259572 1439330 2030226 1817610 1397456
3790.43 1624274 1897266 1894262 1867842 1842280 2086284
3796.21 2237660 2050214 2747184 3133788 2890486 2447820
3802.00 1756142 1764446 1738464 3045734 4199290 2673640
3807.78 1930004 1925024 1814694 1775786 2334780 2733854
3813.57 2620322 3256170 2996740 1873416 1830930 2660632
3819.35 3575030 2907588 2223160 2265254 2172802 2333698
3825.14 3247532 4345192 3408872 2493526 2359000 2174732
3830.92 2477318 3281754 3094148 2739992 2807802 2752826
3836.71 3662676 3424972 2862522 2943806 2978718 2813566
3842.49 2704480 2379464 2468104 2943454 3448352 3375116
3848.28 3118730 3387344 4039238 4531394 4223960 4826060
3854.07 4746284 4472598 4319306 4000288 4104712 3911350
3859.85 3995896 4641362 5214202 5410910 5224264 4771752
3865.64 4335798 4523072 4540010 4602030 4527356 4376774
3871.42 4012824 3913174 5079342 4803882 4291012 4434348
3877.21 4980454 6332002 7335546 6962014 7158666 7793734
3882.99 8390278 9522182 10823580 11462750 11609920 11083290
3888.78 10044160 9205570 8231010 5720884 3820764 3217556
3894.56 3279144 3423450 3770184 4296496 3948782 2557590
3900.35 1990722 2561772 3303508 4297544 4561718 4713924
3906.13 4386200 2820012 2518342 2939110 3122396 3677368
3911.92 4181748 4753208 5687474 4626296 3353478 2942954
3917.70 2483216 2750718 4373196 7752598 8504298 4747848
3923.49 3279418 3474400 3267320 3699436 4926432 5329630
3929.28 3713696 2755914 2844352 2804782 3454962 4427040
3935.06 5363298 5162310 4518228 3305710 3212514 4558952
3940.85 5687592 4301092 2520382 2640786 2669720 2853560
3946.63 3010930 3015900 3628398 4672508 4469352 4033510
3952.42 3546514 3294378 3345828 4038040 4522116 4115012
3958.20 3370428 3372368 3923406 4658602 6360656 6409870
3963.99 5094594 5179748 5364574 5882242 7598900 8537400
3969.77 7835408 8311872 9548342 10839420 12644470
##END=
