##TITLE=METHYL IODIDE
##JCAMP-DX=4.24
##DATA TYPE=INFRARED SPECTRUM
##CLASS=COBLENTZ
##ORIGIN=WYANDOTTE CHEMICALS CORP., WYANDOTTE, MICHIGAN, USA
##OWNER=COBLENTZ SOCIETY
Collection (C) 2018 copyright by the U.S. Secretary of Commerce
on behalf of the United States of America. All rights reserved.
##DATE=Not specified, most likely prior to 1970
##NAMES=iodomethane
##CAS REGISTRY NO=74-88-4
##MOLFORM=C H3 I
##SOURCE REFERENCE=COBLENTZ NO. 1310
##$NIST SOURCE=COBLENTZ
##$NIST IMAGE=cob1310
##SPECTROMETER/DATA SYSTEM=Not specified, most likely a prism, grating, or hybrid spectrometer.
##STATE=LIQUID
##PATH LENGTH=0.003 CM
##SAMPLING PROCEDURE=TRANSMISSION
##RESOLUTION=4
##DATA PROCESSING=DIGITIZED BY NIST FROM HARD COPY
##XUNITS=MICROMETERS
##YUNITS=TRANSMITTANCE
##XFACTOR=1.000000
##YFACTOR=1
##DELTAX=000.006790
##FIRSTX=2.02
##LASTX=15.9933
##FIRSTY=0.937
##MAXX=15.9933
##MINX=2.02
##MAXY=0.933
##MINY=0.034
##NPOINTS=2059
##XYDATA=(X++(Y..Y))
2.020000 0.9370 0.9350 0.9330 0.9330 0.9330
2.053964 0.9330 0.9330 0.9330 0.9310 0.9280
2.088000 0.9280 0.9280 0.9230 0.9110 0.9010
2.121964 0.8910 0.8770 0.8570 0.8550 0.8380
2.156000 0.8570 0.8600 0.8740 0.8820 0.8890
2.189964 0.8970 0.9030 0.9030 0.9030 0.8990
2.224000 0.8920 0.8890 0.8820 0.8820 0.8890
2.257964 0.8920 0.9010 0.9090 0.9110 0.9130
2.292000 0.9180 0.9200 0.9210 0.9210 0.9200
2.325964 0.9200 0.9200 0.9200 0.9210 0.9210
2.360000 0.9210 0.9200 0.9180 0.9180 0.9160
2.393964 0.9160 0.9140 0.9140 0.9140 0.9130
2.428000 0.9130 0.9130 0.9110 0.9090 0.9030
2.461964 0.9010 0.8870 0.8770 0.8690 0.8690
2.496000 0.8790 0.8820 0.8920 0.8970 0.8990
2.529964 0.9030 0.9040 0.9090 0.9130 0.9130
2.564000 0.9130 0.9130 0.9130 0.9130 0.9160
2.597964 0.9200 0.9230 0.9300 0.9280 0.9280
2.631000 0.9250 0.9230 0.9210 0.9200 0.9180
2.664964 0.9180 0.9180 0.9130 0.9130 0.9140
2.699000 0.9140 0.9140 0.9140 0.9180 0.9180
2.732964 0.9180 0.9180 0.9130 0.9110 0.9110
2.767000 0.9110 0.9110 0.9090 0.9080 0.9030
2.800964 0.9030 0.9030 0.9030 0.9030 0.9030
2.835000 0.9060 0.9060 0.8990 0.8990 0.8960
2.868964 0.8920 0.8860 0.8860 0.8870 0.8870
2.903000 0.8840 0.8820 0.8800 0.8790 0.8790
2.936964 0.8800 0.8800 0.8800 0.8800 0.8800
2.971000 0.8800 0.8790 0.8790 0.8770 0.8770
3.004964 0.8770 0.8770 0.8770 0.8770 0.8740
3.039000 0.8700 0.8690 0.8690 0.8690 0.8690
3.072964 0.8690 0.8630 0.8600 0.8580 0.8570
3.107000 0.8530 0.8500 0.8480 0.8430 0.8400
3.140964 0.8400 0.8330 0.8310 0.8280 0.8260
3.175000 0.8240 0.8240 0.8230 0.8190 0.8180
3.208964 0.8160 0.8120 0.8120 0.8090 0.8020
3.242000 0.8010 0.7990 0.7920 0.7840 0.7820
3.275964 0.7820 0.7840 0.7840 0.7870 0.7840
3.310000 0.7800 0.7730 0.7610 0.7480 0.7310
3.343964 0.6800 0.6020 0.5680 0.4470 0.4470
3.378000 0.4820 0.5680 0.6070 0.7290 0.7630
3.411964 0.7780 0.7840 0.7890 0.7940 0.7990
3.446000 0.8010 0.8020 0.8120 0.8120 0.8120
3.479964 0.8120 0.8110 0.8110 0.8110 0.8090
3.514000 0.8020 0.7990 0.7940 0.7900 0.7870
3.547964 0.7840 0.7840 0.7890 0.7920 0.8090
3.582000 0.8230 0.8290 0.8360 0.8410 0.8430
3.615964 0.8520 0.8530 0.8530 0.8530 0.8530
3.650000 0.8580 0.8600 0.8630 0.8630 0.8630
3.683964 0.8620 0.8620 0.8620 0.8630 0.8630
3.718000 0.8650 0.8690 0.8690 0.8690 0.8690
3.751964 0.8690 0.8690 0.8690 0.8690 0.8700
3.786000 0.8700 0.8700 0.8690 0.8690 0.8700
3.819964 0.8700 0.8700 0.8720 0.8700 0.8700
3.854000 0.8700 0.8700 0.8700 0.8700 0.8700
3.887964 0.8700 0.8720 0.8720 0.8720 0.8720
3.921000 0.8720 0.8720 0.8700 0.8700 0.8700
3.954964 0.8700 0.8700 0.8690 0.8690 0.8700
3.989000 0.8700 0.8690 0.8670 0.8670 0.8670
4.022964 0.8630 0.8600 0.8530 0.8500 0.8380
4.057000 0.8120 0.7940 0.7870 0.7770 0.7720
4.090964 0.7770 0.8010 0.8210 0.8330 0.8410
4.125000 0.8430 0.8520 0.8580 0.8600 0.8600
4.158964 0.8620 0.8630 0.8630 0.8630 0.8650
4.193000 0.8650 0.8650 0.8650 0.8630 0.8630
4.226964 0.8620 0.8620 0.8630 0.8690 0.8720
4.261000 0.8740 0.8790 0.8800 0.8820 0.8820
4.294964 0.8820 0.8820 0.8800 0.8790 0.8790
4.329000 0.8790 0.8770 0.8740 0.8740 0.8700
4.362964 0.8690 0.8630 0.8600 0.8550 0.8530
4.397000 0.8520 0.8500 0.8500 0.8480 0.8500
4.430964 0.8500 0.8500 0.8520 0.8530 0.8530
4.465000 0.8530 0.8530 0.8530 0.8580 0.8620
4.498964 0.8630 0.8630 0.8630 0.8630 0.8690
4.532000 0.8700 0.8700 0.8700 0.8700 0.8690
4.565964 0.8700 0.8690 0.8690 0.8690 0.8690
4.600000 0.8670 0.8650 0.8630 0.8620 0.8620
4.633964 0.8620 0.8620 0.8630 0.8650 0.8670
4.668000 0.8670 0.8630 0.8630 0.8620 0.8600
4.701964 0.8600 0.8600 0.8530 0.8480 0.8380
4.736000 0.8330 0.8260 0.8230 0.8210 0.8230
4.769964 0.8280 0.8330 0.8330 0.8380 0.8430
4.804000 0.8430 0.8460 0.8480 0.8500 0.8530
4.837964 0.8530 0.8520 0.8520 0.8500 0.8480
4.872000 0.8480 0.8520 0.8570 0.8620 0.8620
4.905964 0.8650 0.8650 0.8650 0.8650 0.8620
4.940000 0.8620 0.8620 0.8620 0.8620 0.8620
4.973964 0.8620 0.8620 0.8620 0.8620 0.8620
5.008000 0.8600 0.8600 0.8600 0.8600 0.8580
5.041964 0.8580 0.8580 0.8580 0.8580 0.8600
5.076000 0.8600 0.8600 0.8600 0.8580 0.8570
5.109964 0.8580 0.8580 0.8580 0.8620 0.8620
5.144000 0.8600 0.8600 0.8570 0.8570 0.8600
5.177964 0.8620 0.8620 0.8620 0.8550 0.8550
5.211000 0.8570 0.8570 0.8580 0.8570 0.8570
5.244964 0.8550 0.8550 0.8550 0.8550 0.8550
5.279000 0.8550 0.8530 0.8530 0.8530 0.8530
5.312964 0.8530 0.8530 0.8530 0.8530 0.8530
5.347000 0.8520 0.8520 0.8500 0.8500 0.8500
5.380964 0.8500 0.8500 0.8520 0.8520 0.8500
5.415000 0.8500 0.8500 0.8500 0.8500 0.8500
5.448964 0.8520 0.8520 0.8520 0.8500 0.8500
5.483000 0.8500 0.8480 0.8480 0.8480 0.8460
5.516964 0.8460 0.8450 0.8460 0.8460 0.8460
5.551000 0.8480 0.8460 0.8460 0.8460 0.8450
5.584964 0.8430 0.8430 0.8410 0.8360 0.8290
5.619000 0.8290 0.8290 0.8290 0.8290 0.8290
5.652964 0.8290 0.8230 0.8190 0.8180 0.8180
5.687000 0.8180 0.8190 0.8210 0.8230 0.8230
5.720964 0.8230 0.8210 0.8210 0.8190 0.8180
5.755000 0.8160 0.8140 0.8140 0.8120 0.8120
5.788964 0.8110 0.8140 0.8160 0.8210 0.8210
5.823000 0.8210 0.8230 0.8230 0.8280 0.8280
5.856964 0.8290 0.8290 0.8290 0.8310 0.8290
5.890000 0.8290 0.8290 0.8290 0.8290 0.8290
5.923964 0.8290 0.8290 0.8290 0.8290 0.8290
5.958000 0.8280 0.8280 0.8260 0.8260 0.8260
5.991964 0.8240 0.8210 0.8210 0.8190 0.8190
6.026000 0.8190 0.8190 0.8190 0.8190 0.8180
6.059964 0.8180 0.8180 0.8180 0.8180 0.8180
6.094000 0.8180 0.8180 0.8180 0.8180 0.8180
6.127964 0.8180 0.8160 0.8160 0.8140 0.8140
6.162000 0.8140 0.8120 0.8120 0.8110 0.8110
6.195964 0.8110 0.8110 0.8110 0.8110 0.8110
6.230000 0.8110 0.8110 0.8110 0.8090 0.8090
6.263964 0.8090 0.8090 0.8090 0.8070 0.8060
6.298000 0.8040 0.8020 0.8010 0.7970 0.7970
6.331964 0.7950 0.7950 0.7940 0.7940 0.7940
6.366000 0.7920 0.7900 0.7870 0.7820 0.7800
6.399964 0.7800 0.7800 0.7780 0.7780 0.7780
6.434000 0.7770 0.7730 0.7720 0.7700 0.7680
6.467964 0.7630 0.7600 0.7580 0.7580 0.7580
6.501000 0.7550 0.7530 0.7530 0.7530 0.7560
6.534964 0.7560 0.7530 0.7430 0.7320 0.7290
6.569000 0.7290 0.7270 0.7270 0.7270 0.7220
6.602964 0.7170 0.7120 0.7100 0.7090 0.7070
6.637000 0.7040 0.7020 0.7000 0.6930 0.6930
6.670964 0.6900 0.6900 0.6870 0.6850 0.6830
6.705000 0.6830 0.6810 0.6800 0.6750 0.6710
6.738964 0.6700 0.6630 0.6530 0.6470 0.6440
6.773000 0.6420 0.6340 0.6270 0.6240 0.6200
6.806964 0.6190 0.6190 0.6020 0.5930 0.5810
6.841000 0.5730 0.5690 0.5680 0.5640 0.5610
6.874964 0.5490 0.5340 0.5230 0.5200 0.5110
6.909000 0.5010 0.4890 0.4720 0.4590 0.4430
6.942964 0.4330 0.4300 0.4230 0.4110 0.4010
6.977000 0.3990 0.4030 0.4110 0.4160 0.4210
7.010964 0.4310 0.4420 0.4520 0.4690 0.4740
7.045000 0.4810 0.4890 0.4940 0.5030 0.5080
7.078964 0.5110 0.5130 0.5180 0.5220 0.5230
7.113000 0.5300 0.5300 0.5320 0.5340 0.5390
7.146964 0.5420 0.5490 0.5520 0.5620 0.5730
7.180000 0.5740 0.5830 0.5910 0.6000 0.6070
7.213964 0.6130 0.6220 0.6290 0.6390 0.6420
7.248000 0.6440 0.6510 0.6530 0.6630 0.6680
7.281964 0.6730 0.6780 0.6810 0.6900 0.6920
7.316000 0.6930 0.6950 0.6980 0.7000 0.7020
7.349964 0.7040 0.7040 0.7100 0.7120 0.7140
7.384000 0.7170 0.7170 0.7220 0.7240 0.7290
7.417964 0.7310 0.7310 0.7320 0.7320 0.7320
7.452000 0.7320 0.7320 0.7340 0.7380 0.7390
7.485964 0.7390 0.7410 0.7430 0.7440 0.7440
7.520000 0.7440 0.7430 0.7430 0.7430 0.7440
7.553964 0.7440 0.7440 0.7440 0.7440 0.7440
7.588000 0.7440 0.7440 0.7430 0.7440 0.7430
7.621964 0.7430 0.7430 0.7410 0.7390 0.7390
7.656000 0.7390 0.7410 0.7410 0.7410 0.7390
7.689964 0.7360 0.7320 0.7320 0.7310 0.7290
7.724000 0.7290 0.7290 0.7290 0.7270 0.7270
7.757964 0.7260 0.7260 0.7220 0.7210 0.7190
7.791000 0.7170 0.7120 0.7070 0.7020 0.7020
7.824964 0.7020 0.7000 0.6980 0.6930 0.6880
7.859000 0.6810 0.6800 0.6780 0.6700 0.6610
7.892964 0.6510 0.6410 0.6300 0.6200 0.6080
7.927000 0.5930 0.5790 0.5610 0.5400 0.5130
7.960964 0.5030 0.4420 0.4160 0.3940 0.3670
7.995000 0.3210 0.1780 0.1170 0.0780 0.0540
8.028964 0.0420 0.0370 0.0340 0.0350 0.0400
8.063000 0.0490 0.0570 0.0710 0.0910 0.1290
8.096964 0.1810 0.2410 0.3090 0.3620 0.3990
8.131000 0.4420 0.4820 0.5110 0.5320 0.5610
8.164964 0.5810 0.6000 0.6130 0.6290 0.6440
8.199000 0.6580 0.6630 0.6730 0.6780 0.6830
8.232964 0.6920 0.7000 0.7020 0.7020 0.7120
8.267000 0.7170 0.7190 0.7220 0.7290 0.7310
8.300964 0.7320 0.7380 0.7380 0.7390 0.7410
8.335000 0.7430 0.7510 0.7580 0.7600 0.7600
8.368964 0.7600 0.7610 0.7610 0.7650 0.7670
8.403000 0.7700 0.7720 0.7730 0.7770 0.7780
8.436964 0.7800 0.7780 0.7770 0.7770 0.7780
8.470000 0.7780 0.7800 0.7800 0.7800 0.7800
8.503964 0.7780 0.7780 0.7780 0.7780 0.7780
8.538000 0.7770 0.7730 0.7700 0.7670 0.7670
8.571964 0.7680 0.7700 0.7750 0.7780 0.7820
8.606000 0.7840 0.7850 0.7870 0.7870 0.7870
8.639964 0.7890 0.7890 0.7920 0.7970 0.7970
8.674000 0.7970 0.7970 0.7990 0.7990 0.8010
8.707964 0.8010 0.7990 0.7990 0.7990 0.7990
8.742000 0.7990 0.7990 0.7940 0.7920 0.7870
8.775964 0.7820 0.7820 0.7870 0.7870 0.7890
8.810000 0.7900 0.7920 0.7920 0.7950 0.7970
8.843964 0.7940 0.7970 0.7970 0.7970 0.7970
8.878000 0.7970 0.7970 0.7990 0.7990 0.7990
8.911964 0.7970 0.7970 0.7970 0.7990 0.7990
8.946000 0.7990 0.8010 0.8020 0.8020 0.8020
8.979964 0.8020 0.8020 0.8040 0.8060 0.8070
9.014000 0.8090 0.8090 0.8090 0.8090 0.8020
9.047964 0.8020 0.8010 0.7990 0.7920 0.7900
9.081000 0.7900 0.7900 0.7900 0.7900 0.7870
9.114964 0.7840 0.7840 0.7840 0.7840 0.7840
9.149000 0.7840 0.7840 0.7870 0.7890 0.7890
9.182964 0.7900 0.7900 0.7890 0.7870 0.7840
9.217000 0.7840 0.7870 0.7870 0.7870 0.7870
9.250964 0.7840 0.7840 0.7840 0.7840 0.7840
9.285000 0.7840 0.7840 0.7840 0.7840 0.7840
9.318964 0.7840 0.7840 0.7890 0.7920 0.7940
9.353000 0.7970 0.7940 0.7920 0.7900 0.7900
9.386964 0.7900 0.7890 0.7890 0.7890 0.7890
9.421000 0.7890 0.7890 0.7900 0.7900 0.7900
9.454964 0.7870 0.7870 0.7890 0.7890 0.7890
9.489000 0.7890 0.7840 0.7820 0.7820 0.7820
9.522964 0.7820 0.7840 0.7820 0.7800 0.7730
9.557000 0.7730 0.7720 0.7720 0.7720 0.7730
9.590964 0.7750 0.7770 0.7780 0.7780 0.7780
9.625000 0.7780 0.7780 0.7800 0.7820 0.7840
9.658964 0.7870 0.7870 0.7850 0.7840 0.7840
9.693000 0.7840 0.7840 0.7840 0.7870 0.7870
9.726964 0.7850 0.7840 0.7840 0.7840 0.7890
9.760000 0.7890 0.7890 0.7890 0.7870 0.7870
9.793964 0.7850 0.7870 0.7870 0.7890 0.7890
9.828000 0.7890 0.7890 0.7890 0.7890 0.7890
9.861964 0.7890 0.7890 0.7900 0.7920 0.7970
9.896000 0.7970 0.7940 0.7920 0.7920 0.7900
9.929964 0.7890 0.7890 0.7890 0.7900 0.7920
9.964000 0.7990 0.7990 0.7940 0.7940 0.7920
9.997964 0.7890 0.7890 0.7890 0.7890 0.7890
10.032000 0.7890 0.7890 0.7890 0.7890 0.7850
10.065964 0.7840 0.7840 0.7840 0.7840 0.7840
10.100000 0.7820 0.7820 0.7820 0.7800 0.7800
10.133964 0.7800 0.7780 0.7780 0.7780 0.7780
10.168000 0.7780 0.7780 0.7780 0.7770 0.7750
10.201964 0.7730 0.7730 0.7720 0.7700 0.7700
10.236000 0.7700 0.7700 0.7720 0.7700 0.7680
10.269964 0.7670 0.7650 0.7630 0.7630 0.7630
10.304000 0.7610 0.7600 0.7600 0.7600 0.7580
10.337964 0.7560 0.7560 0.7550 0.7550 0.7530
10.371000 0.7530 0.7510 0.7510 0.7500 0.7480
10.404964 0.7430 0.7410 0.7410 0.7390 0.7380
10.439000 0.7320 0.7310 0.7290 0.7290 0.7310
10.472964 0.7310 0.7320 0.7310 0.7310 0.7310
10.507000 0.7310 0.7310 0.7270 0.7270 0.7270
10.540964 0.7220 0.7220 0.7220 0.7220 0.7210
10.575000 0.7210 0.7210 0.7210 0.7190 0.7150
10.608964 0.7120 0.7120 0.7090 0.7070 0.7020
10.643000 0.7020 0.7020 0.7020 0.7020 0.7020
10.676964 0.7000 0.6980 0.6980 0.6970 0.6920
10.711000 0.6920 0.6900 0.6830 0.6800 0.6800
10.744964 0.6780 0.6780 0.6780 0.6760 0.6760
10.779000 0.6730 0.6710 0.6700 0.6680 0.6660
10.812964 0.6610 0.6590 0.6580 0.6530 0.6530
10.847000 0.6530 0.6490 0.6470 0.6420 0.6420
10.880964 0.6410 0.6410 0.6410 0.6390 0.6320
10.915000 0.6300 0.6290 0.6290 0.6240 0.6220
10.948964 0.6200 0.6190 0.6100 0.6070 0.6050
10.983000 0.6020 0.6000 0.5900 0.5880 0.5860
11.016964 0.5830 0.5790 0.5780 0.5710 0.5680
11.050000 0.5620 0.5590 0.5590 0.5520 0.5470
11.083964 0.5370 0.5300 0.5220 0.5170 0.5010
11.118000 0.5010 0.4980 0.4880 0.4810 0.4720
11.151964 0.4620 0.4520 0.4470 0.4420 0.4310
11.186000 0.4210 0.4110 0.4030 0.3920 0.3820
11.219964 0.3800 0.3630 0.3520 0.3500 0.3400
11.254000 0.3310 0.3230 0.3210 0.3110 0.3020
11.287964 0.2970 0.2900 0.2890 0.2890 0.2890
11.322000 0.2890 0.2900 0.2900 0.2920 0.2970
11.355964 0.2990 0.3010 0.3020 0.3110 0.3120
11.390000 0.3260 0.3400 0.3480 0.3580 0.3630
11.423964 0.3700 0.3790 0.3820 0.3920 0.4010
11.458000 0.4200 0.4280 0.4330 0.4430 0.4520
11.491964 0.4620 0.4670 0.4720 0.4810 0.4880
11.526000 0.4930 0.5080 0.5110 0.5220 0.5280
11.559964 0.5340 0.5390 0.5420 0.5420 0.5490
11.594000 0.5560 0.5620 0.5680 0.5710 0.5730
11.627964 0.5730 0.5810 0.5830 0.5880 0.5900
11.661000 0.5930 0.6000 0.6020 0.6130 0.6190
11.694964 0.6190 0.6190 0.6200 0.6240 0.6290
11.729000 0.6320 0.6340 0.6390 0.6390 0.6390
11.762964 0.6410 0.6420 0.6490 0.6530 0.6560
11.797000 0.6580 0.6590 0.6580 0.6580 0.6590
11.830964 0.6590 0.6630 0.6680 0.6700 0.6700
11.865000 0.6710 0.6730 0.6730 0.6730 0.6750
11.898964 0.6750 0.6780 0.6800 0.6800 0.6810
11.933000 0.6810 0.6850 0.6870 0.6870 0.6880
11.966964 0.6900 0.6900 0.6920 0.6920 0.6920
12.001000 0.6920 0.6920 0.6920 0.6920 0.6930
12.034964 0.6930 0.6930 0.6930 0.6970 0.6980
12.069000 0.6980 0.7020 0.7020 0.7020 0.7020
12.102964 0.7020 0.7020 0.7020 0.7070 0.7090
12.137000 0.7090 0.7090 0.7120 0.7190 0.7190
12.170964 0.7150 0.7150 0.7150 0.7170 0.7170
12.205000 0.7170 0.7190 0.7190 0.7190 0.7190
12.238964 0.7190 0.7190 0.7190 0.7190 0.7210
12.273000 0.7220 0.7240 0.7240 0.7220 0.7220
12.306964 0.7220 0.7220 0.7240 0.7240 0.7240
12.340000 0.7240 0.7290 0.7290 0.7310 0.7310
12.373964 0.7310 0.7320 0.7320 0.7320 0.7340
12.408000 0.7320 0.7320 0.7320 0.7320 0.7320
12.441964 0.7320 0.7340 0.7380 0.7380 0.7380
12.476000 0.7380 0.7380 0.7380 0.7380 0.7380
12.509964 0.7380 0.7380 0.7380 0.7380 0.7380
12.544000 0.7380 0.7340 0.7340 0.7340 0.7320
12.577964 0.7320 0.7320 0.7320 0.7310 0.7290
12.612000 0.7290 0.7320 0.7380 0.7380 0.7390
12.645964 0.7380 0.7380 0.7380 0.7390 0.7390
12.680000 0.7390 0.7390 0.7390 0.7390 0.7390
12.713964 0.7390 0.7390 0.7390 0.7410 0.7410
12.748000 0.7430 0.7430 0.7410 0.7410 0.7410
12.781964 0.7410 0.7430 0.7430 0.7460 0.7480
12.816000 0.7480 0.7480 0.7480 0.7500 0.7500
12.849964 0.7500 0.7500 0.7500 0.7500 0.7500
12.884000 0.7510 0.7510 0.7530 0.7530 0.7550
12.917964 0.7560 0.7560 0.7560 0.7560 0.7580
12.952000 0.7580 0.7580 0.7600 0.7610 0.7610
12.985964 0.7610 0.7610 0.7630 0.7610 0.7610
13.019000 0.7600 0.7600 0.7600 0.7600 0.7600
13.052964 0.7600 0.7600 0.7600 0.7600 0.7610
13.087000 0.7610 0.7630 0.7650 0.7650 0.7650
13.120964 0.7650 0.7630 0.7630 0.7630 0.7630
13.155000 0.7650 0.7650 0.7650 0.7670 0.7670
13.188964 0.7670 0.7670 0.7630 0.7630 0.7630
13.223000 0.7630 0.7630 0.7630 0.7670 0.7680
13.256964 0.7680 0.7680 0.7680 0.7680 0.7680
13.291000 0.7680 0.7670 0.7670 0.7670 0.7680
13.324964 0.7680 0.7680 0.7680 0.7670 0.7670
13.359000 0.7670 0.7670 0.7680 0.7680 0.7700
13.392964 0.7700 0.7700 0.7700 0.7700 0.7700
13.427000 0.7700 0.7700 0.7700 0.7680 0.7680
13.460964 0.7680 0.7680 0.7700 0.7700 0.7700
13.495000 0.7700 0.7700 0.7720 0.7720 0.7720
13.528964 0.7720 0.7720 0.7720 0.7720 0.7720
13.563000 0.7720 0.7730 0.7730 0.7770 0.7770
13.596964 0.7780 0.7770 0.7770 0.7770 0.7770
13.630000 0.7770 0.7770 0.7770 0.7770 0.7780
13.663964 0.7780 0.7780 0.7780 0.7780 0.7780
13.698000 0.7770 0.7770 0.7770 0.7770 0.7770
13.731964 0.7770 0.7770 0.7780 0.7780 0.7780
13.766000 0.7780 0.7780 0.7770 0.7770 0.7770
13.799964 0.7780 0.7780 0.7780 0.7780 0.7800
13.834000 0.7800 0.7800 0.7780 0.7780 0.7780
13.867964 0.7780 0.7780 0.7780 0.7800 0.7780
13.902000 0.7770 0.7750 0.7750 0.7720 0.7720
13.935964 0.7720 0.7720 0.7730 0.7730 0.7750
13.970000 0.7750 0.7770 0.7770 0.7770 0.7770
14.003964 0.7750 0.7750 0.7750 0.7750 0.7750
14.038000 0.7750 0.7750 0.7750 0.7750 0.7770
14.071964 0.7770 0.7770 0.7770 0.7770 0.7770
14.106000 0.7770 0.7770 0.7770 0.7770 0.7770
14.139964 0.7770 0.7770 0.7770 0.7770 0.7770
14.174000 0.7770 0.7770 0.7770 0.7770 0.7770
14.207964 0.7780 0.7770 0.7770 0.7770 0.7770
14.242000 0.7770 0.7770 0.7770 0.7770 0.7770
14.275964 0.7770 0.7770 0.7780 0.7780 0.7780
14.309000 0.7780 0.7780 0.7780 0.7780 0.7780
14.342964 0.7770 0.7770 0.7750 0.7750 0.7750
14.377000 0.7770 0.7770 0.7770 0.7780 0.7780
14.410964 0.7780 0.7770 0.7770 0.7750 0.7750
14.445000 0.7770 0.7780 0.7780 0.7770 0.7770
14.478964 0.7770 0.7750 0.7730 0.7730 0.7750
14.513000 0.7730 0.7730 0.7720 0.7720 0.7720
14.546964 0.7720 0.7720 0.7720 0.7720 0.7720
14.581000 0.7720 0.7730 0.7720 0.7720 0.7700
14.614964 0.7700 0.7700 0.7680 0.7680 0.7680
14.649000 0.7700 0.7720 0.7720 0.7700 0.7680
14.682964 0.7680 0.7670 0.7630 0.7600 0.7580
14.717000 0.7580 0.7600 0.7600 0.7600 0.7600
14.750964 0.7610 0.7610 0.7630 0.7630 0.7650
14.785000 0.7670 0.7670 0.7670 0.7680 0.7680
14.818964 0.7680 0.7680 0.7680 0.7680 0.7680
14.853000 0.7680 0.7680 0.7670 0.7670 0.7650
14.886964 0.7670 0.7670 0.7670 0.7610 0.7600
14.920000 0.7560 0.7580 0.7600 0.7600 0.7610
14.953964 0.7610 0.7600 0.7580 0.7580 0.7530
14.988000 0.7500 0.7500 0.7480 0.7440 0.7440
15.021964 0.7440 0.7440 0.7440 0.7430 0.7410
15.056000 0.7410 0.7410 0.7410 0.7430 0.7440
15.089964 0.7480 0.7500 0.7530 0.7530 0.7530
15.124000 0.7530 0.7550 0.7550 0.7550 0.7550
15.157964 0.7550 0.7550 0.7550 0.7550 0.7550
15.192000 0.7530 0.7510 0.7500 0.7460 0.7460
15.225964 0.7510 0.7510 0.7510 0.7500 0.7500
15.260000 0.7500 0.7480 0.7480 0.7480 0.7480
15.293964 0.7460 0.7460 0.7460 0.7460 0.7440
15.328000 0.7410 0.7410 0.7410 0.7430 0.7410
15.361964 0.7410 0.7410 0.7410 0.7390 0.7390
15.396000 0.7390 0.7410 0.7430 0.7430 0.7430
15.429964 0.7430 0.7410 0.7390 0.7390 0.7380
15.464000 0.7360 0.7320 0.7320 0.7340 0.7340
15.497964 0.7360 0.7380 0.7380 0.7380 0.7380
15.532000 0.7360 0.7360 0.7340 0.7320 0.7320
15.565964 0.7340 0.7340 0.7340 0.7340 0.7340
15.599000 0.7340 0.7340 0.7320 0.7310 0.7240
15.632964 0.7220 0.7220 0.7220 0.7220 0.7240
15.667000 0.7270 0.7310 0.7310 0.7310 0.7310
15.700964 0.7310 0.7290 0.7260 0.7260 0.7260
15.735000 0.7260 0.7270 0.7270 0.7270 0.7270
15.768964 0.7240 0.7220 0.7210 0.7210 0.7210
15.803000 0.7210 0.7210 0.7220 0.7210 0.7210
15.836964 0.7190 0.7190 0.7190 0.7190 0.7190
15.871000 0.7170 0.7150 0.7150 0.7150 0.7150
15.904964 0.7150 0.7150 0.7170 0.7170 0.7170
15.939000 0.7190 0.7170 0.7150 0.7150 0.7150
15.972964 0.7170 0.7170 0.7170 0.7170
##END=
