##TITLE=ETHANE, BROMO-
##JCAMP-DX=4.24
##DATA TYPE=INFRARED SPECTRUM
##CLASS=COBLENTZ III
##ORIGIN=DOW CHEMICAL COMPANY
##OWNER=COBLENTZ SOCIETY
Collection (C) 2018 copyright by the U.S. Secretary of Commerce
on behalf of the United States of America. All rights reserved.
##DATE=1962/09/12
##NAMES=1-bromoethane
##CAS REGISTRY NO=74-96-4
##MOLFORM=C2 H5 Br
##SOURCE REFERENCE=COBLENTZ NO. 10001
##$NIST SOURCE=COBLENTZ
##$NIST IMAGE=cob10001
##SPECTROMETER/DATA SYSTEM=DOW KBr FOREPRISM-GRATING
##INSTRUMENT PARAMETERS=BLAZED AT 3.5, 12.0, 20.0 MICRON, CHANGED AT 5.0, 7.5, 14.9 MICRON
##STATE=LIQUID (NEAT)
##PATH LENGTH=0.011 CM
##SAMPLING PROCEDURE=TRANSMISSION
##RESOLUTION=4
##DATA PROCESSING=DIGITIZED BY NIST FROM HARD COPY (FROM TWO SEGMENTS)
##XUNITS=1/CM
##YUNITS=TRANSMITTANCE
##XFACTOR=1.000000
##YFACTOR=1
##DELTAX=0.869566
##FIRSTX=449.565
##LASTX=3801.74
##FIRSTY=0.985
##MAXX=3801.74
##MINX=449.565
##MAXY=1.024
##MINY=0
##NPOINTS=3856
##XYDATA=(X++(Y..Y))
449.565000 0.9850 0.9850 0.9830 0.9830 0.9850
453.912830 0.9850 0.9850 0.9850 0.9850 0.9850
458.260660 0.9850 0.9850 0.9850 0.9850 0.9850
462.608490 0.9850 0.9850 0.9860 0.9860 0.9860
466.956320 0.9860 0.9860 0.9860 0.9870 0.9870
471.304150 0.9860 0.9860 0.9850 0.9850 0.9850
475.651980 0.9850 0.9850 0.9850 0.9850 0.9850
479.999810 0.9830 0.9820 0.9810 0.9810 0.9790
484.347640 0.9790 0.9790 0.9790 0.9780 0.9780
488.695470 0.9780 0.9760 0.9750 0.9710 0.9700
493.043299 0.9680 0.9660 0.9640 0.9630 0.9600
497.391129 0.9570 0.9560 0.9530 0.9510 0.9470
501.738959 0.9410 0.9360 0.9330 0.9320 0.9260
506.086789 0.9250 0.9240 0.9220 0.9190 0.9190
510.434619 0.9130 0.9090 0.9050 0.8990 0.8950
514.782449 0.8910 0.8840 0.8770 0.8710 0.8680
519.130279 0.8580 0.8490 0.8390 0.8310 0.8240
523.478109 0.8200 0.8120 0.8000 0.7920 0.7761
527.825939 0.7670 0.7610 0.7430 0.7240 0.7080
532.173769 0.6901 0.6751 0.6591 0.6331 0.6091
536.521599 0.5910 0.5690 0.5540 0.5291 0.5001
540.869429 0.4581 0.4132 0.3891 0.3512 0.3122
545.217259 0.2600 0.2150 0.1471 0.1200 0.1040
549.565089 0.0960 0.0880 0.0442 0.0251 0.0121
553.912919 0.0090 0.0060 0.0020 0.0010 0.0010
558.260749 0.0000 0.0000 0.0000 0.0000 0.0000
562.608579 0.0010 0.0040 0.0060 0.0060 0.0080
566.956409 0.0080 0.0080 0.0090 0.0100 0.0140
571.304239 0.0180 0.0310 0.0430 0.0520 0.1119
575.652069 0.1469 0.2108 0.2419 0.2569 0.3247
579.999898 0.3550 0.3980 0.4399 0.4610 0.4879
584.347728 0.5498 0.5869 0.6109 0.6349 0.6599
588.695558 0.6720 0.7100 0.7290 0.7510 0.7610
593.043388 0.7760 0.7880 0.7970 0.8079 0.8189
597.391218 0.8380 0.8430 0.8610 0.8730 0.8870
601.739048 0.8950 0.9000 0.9100 0.9130 0.9180
606.086878 0.9220 0.9260 0.9320 0.9370 0.9430
610.434708 0.9470 0.9510 0.9560 0.9570 0.9640
614.782538 0.9680 0.9720 0.9760 0.9810 0.9830
619.130368 0.9860 0.9900 0.9910 0.9930 0.9940
623.478198 0.9970 0.9980 1.0000 1.0010 1.0020
627.826028 1.0050 1.0060 1.0090 1.0100 1.0120
632.173858 1.0120 1.0140 1.0160 1.0170 1.0170
636.521688 1.0180 1.0210 1.0210 1.0230 1.0240
640.869518 1.0240 1.0240 1.0230 1.0230 1.0230
645.217348 1.0230 1.0230 1.0230 1.0230 1.0210
649.565178 1.0210 1.0200 1.0200 1.0180 1.0180
653.913008 1.0160 1.0160 1.0130 1.0120 1.0100
658.260838 1.0080 1.0060 1.0050 1.0040 1.0010
662.608667 1.0010 1.0000 1.0000 0.9980 0.9980
666.956497 0.9940 0.9940 0.9940 0.9940 0.9900
671.304327 0.9860 0.9790 0.9780 0.9790 0.9790
675.652157 0.9810 0.9820 0.9830 0.9850 0.9850
679.999987 0.9860 0.9890 0.9910 0.9930 0.9930
684.347817 0.9930 0.9940 0.9940 0.9940 0.9940
688.695647 0.9930 0.9930 0.9930 0.9910 0.9910
693.043477 0.9910 0.9900 0.9900 0.9890 0.9890
697.391307 0.9870 0.9870 0.9860 0.9850 0.9830
701.739137 0.9820 0.9810 0.9790 0.9780 0.9760
706.086967 0.9720 0.9700 0.9680 0.9670 0.9660
710.434797 0.9630 0.9630 0.9600 0.9570 0.9560
714.782627 0.9550 0.9510 0.9480 0.9450 0.9440
719.130457 0.9410 0.9370 0.9330 0.9320 0.9300
723.478287 0.9250 0.9220 0.9170 0.9110 0.9100
727.826117 0.9060 0.9050 0.8990 0.8920 0.8860
732.173947 0.8810 0.8760 0.8710 0.8610 0.8540
736.521777 0.8500 0.8490 0.8410 0.8340 0.8260
740.869607 0.8180 0.8120 0.8050 0.7921 0.7771
745.217436 0.7660 0.7590 0.7420 0.7360 0.7210
749.565266 0.7000 0.6671 0.6451 0.6241 0.6051
753.913096 0.5840 0.5670 0.5480 0.5270 0.5031
758.260926 0.4771 0.4351 0.3812 0.3203 0.2712
762.608756 0.2510 0.1461 0.1200 0.1000 0.0801
766.956586 0.0561 0.0460 0.0321 0.0290 0.0290
771.304416 0.0310 0.0320 0.0350 0.0400 0.0470
775.652246 0.0590 0.0660 0.1089 0.1299 0.1877
780.000076 0.2490 0.2870 0.3330 0.3749 0.3940
784.347906 0.4269 0.4529 0.4759 0.4999 0.5338
788.695736 0.5380 0.5690 0.5900 0.6030 0.6170
793.043566 0.6320 0.6469 0.6629 0.6769 0.6889
797.391396 0.7060 0.7120 0.7270 0.7400 0.7530
801.739226 0.7630 0.7670 0.7760 0.7840 0.7930
806.087056 0.7960 0.8000 0.8120 0.8160 0.8240
810.434886 0.8330 0.8410 0.8520 0.8580 0.8650
814.782716 0.8710 0.8720 0.8770 0.8830 0.8910
819.130546 0.8960 0.9020 0.9070 0.9130 0.9140
823.478376 0.9210 0.9250 0.9280 0.9320 0.9330
827.826206 0.9360 0.9380 0.9440 0.9470 0.9510
832.174035 0.9520 0.9520 0.9550 0.9560 0.9570
836.521865 0.9620 0.9630 0.9640 0.9660 0.9660
840.869695 0.9660 0.9660 0.9660 0.9660 0.9660
845.217525 0.9660 0.9660 0.9660 0.9660 0.9660
849.565355 0.9670 0.9680 0.9710 0.9720 0.9740
853.913185 0.9750 0.9750 0.9760 0.9790 0.9810
858.261015 0.9810 0.9820 0.9830 0.9860 0.9890
862.608845 0.9890 0.9900 0.9900 0.9900 0.9900
866.956675 0.9910 0.9930 0.9930 0.9940 0.9940
871.304505 0.9940 0.9930 0.9930 0.9910 0.9910
875.652335 0.9900 0.9900 0.9890 0.9890 0.9870
880.000165 0.9860 0.9830 0.9820 0.9810 0.9790
884.347995 0.9760 0.9760 0.9700 0.9670 0.9640
888.695825 0.9640 0.9620 0.9570 0.9550 0.9530
893.043655 0.9490 0.9480 0.9470 0.9470 0.9470
897.391485 0.9450 0.9450 0.9440 0.9430 0.9410
901.739315 0.9400 0.9380 0.9360 0.9340 0.9320
906.087145 0.9280 0.9250 0.9220 0.9190 0.9150
910.434975 0.9110 0.9020 0.8950 0.8920 0.8870
914.782804 0.8830 0.8760 0.8710 0.8620 0.8540
919.130634 0.8490 0.8390 0.8300 0.8180 0.8100
923.478464 0.7970 0.7930 0.7800 0.7730 0.7620
927.826294 0.7460 0.7350 0.7170 0.6940 0.6601
932.174124 0.6331 0.6141 0.5951 0.5761 0.5521
936.521954 0.4930 0.4380 0.4130 0.4080 0.3900
940.869784 0.3272 0.2762 0.2670 0.1844 0.1691
945.217614 0.1220 0.0920 0.0620 0.0520 0.0440
949.565444 0.0290 0.0140 0.0090 0.0080 0.0080
953.913274 0.0080 0.0080 0.0080 0.0080 0.0080
958.261104 0.0080 0.0080 0.0080 0.0080 0.0080
962.608934 0.0080 0.0080 0.0080 0.0080 0.0080
966.956764 0.0100 0.0120 0.0160 0.0250 0.0320
971.304594 0.0460 0.0610 0.0660 0.0750 0.1179
975.652424 0.1689 0.1840 0.2019 0.2369 0.2589
980.000254 0.2910 0.3200 0.3410 0.3620 0.3850
984.348084 0.3970 0.4090 0.4259 0.4539 0.4649
988.695914 0.4690 0.4870 0.5000 0.5120 0.5220
993.043744 0.5290 0.5370 0.5440 0.5500 0.5609
997.391573 0.5640 0.5680 0.5730 0.5820 0.5910
1001.739403 0.5970 0.6020 0.6060 0.6110 0.6160
1006.087233 0.6200 0.6250 0.6300 0.6320 0.6370
1010.435063 0.6440 0.6470 0.6480 0.6510 0.6520
1014.782893 0.6550 0.6590 0.6600 0.6630 0.6670
1019.130723 0.6710 0.6750 0.6810 0.6860 0.6900
1023.478553 0.6930 0.6980 0.7060 0.7100 0.7190
1027.826383 0.7270 0.7380 0.7440 0.7579 0.7670
1032.174213 0.7690 0.7760 0.7810 0.7880 0.7950
1036.522043 0.7970 0.8030 0.8120 0.8150 0.8220
1040.869873 0.8240 0.8260 0.8260 0.8260 0.8260
1045.217703 0.8240 0.8230 0.8220 0.8200 0.8190
1049.565533 0.8180 0.8140 0.8120 0.8070 0.8030
1053.913363 0.7990 0.7950 0.7860 0.7770 0.7670
1058.261193 0.7580 0.7540 0.7340 0.7170 0.7080
1062.609023 0.7080 0.7090 0.7170 0.7230 0.7608
1066.956853 0.7780 0.8000 0.8110 0.8230 0.8380
1071.304683 0.8500 0.8620 0.8690 0.8720 0.8770
1075.652513 0.8810 0.8900 0.8940 0.8980 0.9000
1080.000343 0.9030 0.9060 0.9130 0.9130 0.9150
1084.348172 0.9180 0.9190 0.9220 0.9240 0.9260
1088.696002 0.9290 0.9300 0.9320 0.9330 0.9340
1093.043832 0.9360 0.9360 0.9380 0.9380 0.9400
1097.391662 0.9400 0.9430 0.9440 0.9450 0.9470
1101.739492 0.9470 0.9470 0.9470 0.9470 0.9470
1106.087322 0.9480 0.9480 0.9480 0.9480 0.9480
1110.435152 0.9490 0.9490 0.9490 0.9490 0.9490
1114.782982 0.9490 0.9490 0.9490 0.9510 0.9530
1119.130812 0.9530 0.9550 0.9570 0.9590 0.9600
1123.478642 0.9620 0.9630 0.9640 0.9640 0.9640
1127.826472 0.9640 0.9630 0.9630 0.9620 0.9620
1132.174302 0.9590 0.9590 0.9570 0.9570 0.9560
1136.522132 0.9550 0.9550 0.9530 0.9520 0.9510
1140.869962 0.9480 0.9470 0.9450 0.9430 0.9410
1145.217792 0.9400 0.9370 0.9340 0.9330 0.9330
1149.565622 0.9290 0.9240 0.9210 0.9180 0.9150
1153.913452 0.9140 0.9140 0.9140 0.9140 0.9140
1158.261282 0.9130 0.9130 0.9130 0.9110 0.9110
1162.609112 0.9060 0.9050 0.9030 0.9000 0.8960
1166.956941 0.8940 0.8910 0.8910 0.8860 0.8800
1171.304771 0.8750 0.8720 0.8710 0.8620 0.8560
1175.652601 0.8500 0.8430 0.8380 0.8330 0.8270
1180.000431 0.8120 0.8040 0.7960 0.7930 0.7860
1184.348261 0.7800 0.7760 0.7690 0.7650 0.7580
1188.696091 0.7530 0.7470 0.7340 0.7200 0.7150
1193.043921 0.7060 0.6960 0.6900 0.6771 0.6700
1197.391751 0.6600 0.6480 0.6400 0.6170 0.5990
1201.739581 0.5910 0.5790 0.5640 0.5600 0.5381
1206.087411 0.5250 0.5140 0.4960 0.4840 0.4680
1210.435241 0.4391 0.4121 0.4070 0.3901 0.3791
1214.783071 0.3630 0.3390 0.3130 0.2980 0.2760
1219.130901 0.2401 0.2021 0.1661 0.1351 0.1131
1223.478731 0.1030 0.0930 0.0820 0.0660 0.0590
1227.826561 0.0480 0.0360 0.0280 0.0180 0.0120
1232.174391 0.0100 0.0090 0.0090 0.0090 0.0090
1236.522221 0.0080 0.0080 0.0080 0.0080 0.0080
1240.870051 0.0080 0.0080 0.0090 0.0090 0.0090
1245.217881 0.0090 0.0090 0.0090 0.0090 0.0090
1249.565710 0.0090 0.0090 0.0090 0.0090 0.0100
1253.913540 0.0100 0.0100 0.0100 0.0100 0.0100
1258.261370 0.0100 0.0100 0.0100 0.0100 0.0100
1262.609200 0.0100 0.0100 0.0120 0.0120 0.0140
1266.957030 0.0140 0.0170 0.0200 0.0230 0.0250
1271.304860 0.0320 0.0360 0.0390 0.0480 0.0520
1275.652690 0.0650 0.1110 0.1410 0.1700 0.1960
1280.000520 0.2190 0.2360 0.2450 0.2490 0.2649
1284.348350 0.2790 0.3130 0.3480 0.3660 0.3820
1288.696180 0.3930 0.4299 0.4539 0.4769 0.4879
1293.044010 0.5020 0.5140 0.5310 0.5440 0.5630
1297.391840 0.5750 0.5830 0.5990 0.6159 0.6290
1301.739670 0.6400 0.6490 0.6590 0.6660 0.6750
1306.087500 0.6820 0.6910 0.6960 0.7040 0.7080
1310.435330 0.7100 0.7190 0.7240 0.7280 0.7320
1314.783160 0.7380 0.7400 0.7460 0.7500 0.7570
1319.130990 0.7580 0.7610 0.7670 0.7730 0.7760
1323.478820 0.7780 0.7800 0.7820 0.7820 0.7820
1327.826650 0.7820 0.7820 0.7820 0.7810 0.7800
1332.174480 0.7780 0.7780 0.7770 0.7760 0.7740
1336.522309 0.7740 0.7730 0.7700 0.7690 0.7660
1340.870139 0.7630 0.7580 0.7570 0.7510 0.7470
1345.217969 0.7430 0.7380 0.7320 0.7270 0.7240
1349.565799 0.7080 0.6930 0.6900 0.6900 0.6810
1353.913629 0.6750 0.6620 0.6450 0.6320 0.6170
1358.261459 0.6030 0.5940 0.5751 0.5591 0.5251
1362.609289 0.5150 0.4920 0.4570 0.4201 0.3980
1366.957119 0.3810 0.3621 0.3311 0.2792 0.1984
1371.304949 0.1449 0.0900 0.0860 0.0630 0.0520
1375.652779 0.0330 0.0230 0.0180 0.0160 0.0160
1380.000609 0.0160 0.0170 0.0180 0.0210 0.0250
1384.348439 0.0310 0.0370 0.0520 0.0620 0.0769
1388.696269 0.1030 0.1040 0.1530 0.1770 0.1910
1393.044099 0.2070 0.2220 0.2270 0.2370 0.2450
1397.391929 0.2490 0.2560 0.2570 0.2570 0.2570
1401.739759 0.2570 0.2560 0.2560 0.2520 0.2510
1406.087589 0.2450 0.2410 0.2380 0.2370 0.2290
1410.435419 0.2230 0.2140 0.2040 0.2000 0.1871
1414.783249 0.1850 0.1790 0.1720 0.1610 0.1510
1419.131078 0.1410 0.1091 0.1000 0.0960 0.0920
1423.478908 0.0850 0.0800 0.0710 0.0650 0.0620
1427.826738 0.0520 0.0500 0.0430 0.0390 0.0320
1432.174568 0.0270 0.0230 0.0170 0.0120 0.0100
1436.522398 0.0090 0.0090 0.0090 0.0080 0.0080
1440.870228 0.0080 0.0080 0.0090 0.0090 0.0090
1445.218058 0.0100 0.0100 0.0100 0.0120 0.0130
1449.565888 0.0130 0.0140 0.0160 0.0160 0.0160
1453.913718 0.0170 0.0180 0.0200 0.0230 0.0250
1458.261548 0.0290 0.0320 0.0360 0.0390 0.0440
1462.609378 0.0500 0.0610 0.0700 0.0800 0.1258
1466.957208 0.1470 0.1620 0.1770 0.1920 0.2040
1471.305038 0.2259 0.2340 0.2460 0.2609 0.2749
1475.652868 0.2910 0.3120 0.3170 0.3320 0.3390
1480.000698 0.3620 0.3730 0.3890 0.3960 0.4070
1484.348528 0.4160 0.4270 0.4360 0.4510 0.4650
1488.696358 0.4700 0.4770 0.4910 0.5069 0.5140
1493.044188 0.5250 0.5350 0.5380 0.5480 0.5520
1497.392018 0.5640 0.5680 0.5780 0.5860 0.5910
1501.739847 0.5990 0.6030 0.6110 0.6160 0.6200
1506.087677 0.6290 0.6300 0.6370 0.6400 0.6440
1510.435507 0.6480 0.6490 0.6510 0.6520 0.6520
1514.783337 0.6540 0.6550 0.6550 0.6580 0.6590
1519.131167 0.6590 0.6620 0.6640 0.6710 0.6740
1523.478997 0.6780 0.6850 0.6900 0.6910 0.6960
1527.826827 0.7060 0.7100 0.7130 0.7240 0.7290
1532.174657 0.7380 0.7400 0.7420 0.7460 0.7510
1536.522487 0.7570 0.7580 0.7590 0.7610 0.7630
1540.870317 0.7660 0.7700 0.7730 0.7740 0.7760
1545.218147 0.7780 0.7820 0.7890 0.7950 0.7970
1549.565977 0.8030 0.8110 0.8180 0.8260 0.8310
1553.913807 0.8350 0.8430 0.8500 0.8560 0.8640
1558.261637 0.8710 0.8720 0.8830 0.8910 0.8920
1562.609467 0.8940 0.8940 0.8960 0.8960 0.9000
1566.957297 0.9030 0.9070 0.9100 0.9110 0.9130
1571.305127 0.9140 0.9150 0.9170 0.9190 0.9210
1575.652957 0.9220 0.9240 0.9250 0.9260 0.9290
1580.000787 0.9320 0.9320 0.9330 0.9330 0.9340
1584.348617 0.9340 0.9360 0.9360 0.9370 0.9370
1588.696446 0.9370 0.9370 0.9370 0.9370 0.9370
1593.044276 0.9360 0.9360 0.9360 0.9340 0.9330
1597.392106 0.9320 0.9300 0.9300 0.9290 0.9280
1601.739936 0.9250 0.9220 0.9210 0.9190 0.9180
1606.087766 0.9170 0.9170 0.9170 0.9170 0.9170
1610.435596 0.9170 0.9180 0.9180 0.9190 0.9190
1614.783426 0.9210 0.9210 0.9250 0.9260 0.9260
1619.131256 0.9280 0.9290 0.9300 0.9300 0.9320
1623.479086 0.9320 0.9330 0.9340 0.9370 0.9400
1627.826916 0.9430 0.9430 0.9440 0.9470 0.9490
1632.174746 0.9520 0.9530 0.9550 0.9560 0.9590
1636.522576 0.9600 0.9630 0.9660 0.9680 0.9710
1640.870406 0.9720 0.9750 0.9760 0.9780 0.9780
1645.218236 0.9780 0.9780 0.9780 0.9760 0.9760
1649.566066 0.9750 0.9740 0.9700 0.9660 0.9640
1653.913896 0.9600 0.9590 0.9560 0.9550 0.9530
1658.261726 0.9510 0.9490 0.9470 0.9440 0.9430
1662.609556 0.9400 0.9370 0.9340 0.9320 0.9280
1666.957386 0.9250 0.9240 0.9220 0.9220 0.9210
1671.305215 0.9190 0.9180 0.9180 0.9180 0.9180
1675.653045 0.9170 0.9170 0.9170 0.9170 0.9150
1680.000875 0.9150 0.9130 0.9130 0.9130 0.9110
1684.348705 0.9110 0.9100 0.9090 0.9070 0.9060
1688.696535 0.9050 0.9030 0.9030 0.9020 0.9020
1693.044365 0.9020 0.9020 0.9020 0.9030 0.9030
1697.392195 0.9030 0.9050 0.9060 0.9070 0.9070
1701.740025 0.9100 0.9100 0.9100 0.9110 0.9110
1706.087855 0.9110 0.9110 0.9130 0.9140 0.9140
1710.435685 0.9170 0.9170 0.9190 0.9220 0.9240
1714.783515 0.9250 0.9250 0.9260 0.9280 0.9320
1719.131345 0.9320 0.9330 0.9340 0.9370 0.9380
1723.479175 0.9380 0.9400 0.9400 0.9400 0.9410
1727.827005 0.9410 0.9410 0.9410 0.9410 0.9430
1732.174835 0.9440 0.9440 0.9440 0.9450 0.9450
1736.522665 0.9450 0.9450 0.9450 0.9450 0.9450
1740.870495 0.9470 0.9480 0.9480 0.9480 0.9490
1745.218325 0.9490 0.9490 0.9490 0.9510 0.9510
1749.566155 0.9530 0.9530 0.9560 0.9560 0.9570
1753.913984 0.9570 0.9590 0.9590 0.9600 0.9600
1758.261814 0.9620 0.9630 0.9640 0.9660 0.9660
1762.609644 0.9660 0.9660 0.9660 0.9670 0.9670
1766.957474 0.9670 0.9670 0.9670 0.9670 0.9670
1771.305304 0.9670 0.9670 0.9670 0.9670 0.9670
1775.653134 0.9660 0.9660 0.9660 0.9660 0.9660
1780.000964 0.9660 0.9660 0.9640 0.9640 0.9630
1784.348794 0.9620 0.9620 0.9600 0.9600 0.9590
1788.696624 0.9590 0.9570 0.9570 0.9570 0.9560
1793.044454 0.9560 0.9560 0.9560 0.9560 0.9560
1797.392284 0.9570 0.9570 0.9570 0.9590 0.9600
1801.740114 0.9600 0.9600 0.9620 0.9620 0.9630
1806.087944 0.9640 0.9660 0.9660 0.9670 0.9670
1810.435774 0.9670 0.9670 0.9670 0.9680 0.9680
1814.783604 0.9680 0.9680 0.9680 0.9700 0.9700
1819.131434 0.9700 0.9700 0.9710 0.9710 0.9710
1823.479264 0.9710 0.9710 0.9720 0.9720 0.9720
1827.827094 0.9720 0.9720 0.9720 0.9720 0.9740
1832.174924 0.9740 0.9740 0.9740 0.9750 0.9750
1836.522754 0.9750 0.9750 0.9760 0.9760 0.9760
1840.870583 0.9760 0.9750 0.9750 0.9750 0.9750
1845.218413 0.9760 0.9760 0.9760 0.9760 0.9760
1849.566243 0.9760 0.9760 0.9760 0.9760 0.9760
1853.914073 0.9760 0.9760 0.9760 0.9760 0.9760
1858.261903 0.9760 0.9760 0.9760 0.9760 0.9760
1862.609733 0.9760 0.9760 0.9750 0.9750 0.9750
1866.957563 0.9750 0.9750 0.9750 0.9750 0.9750
1871.305393 0.9760 0.9760 0.9740 0.9740 0.9720
1875.653223 0.9720 0.9720 0.9710 0.9710 0.9710
1880.001053 0.9700 0.9700 0.9680 0.9670 0.9670
1884.348883 0.9670 0.9660 0.9640 0.9640 0.9640
1888.696713 0.9620 0.9620 0.9590 0.9570 0.9560
1893.044543 0.9560 0.9560 0.9550 0.9530 0.9490
1897.392373 0.9450 0.9410 0.9400 0.9360 0.9320
1901.740203 0.9260 0.9220 0.9180 0.9130 0.9110
1906.088033 0.9030 0.8960 0.8920 0.8910 0.8711
1910.435863 0.8640 0.8580 0.8530 0.8410 0.8340
1914.783693 0.8230 0.8190 0.7971 0.7811 0.7740
1919.131523 0.7700 0.7690 0.7700 0.7730 0.7840
1923.479352 0.7920 0.7970 0.8080 0.8289 0.8260
1927.827182 0.8460 0.8720 0.8830 0.8910 0.8990
1932.175012 0.9070 0.9130 0.9170 0.9210 0.9240
1936.522842 0.9280 0.9320 0.9320 0.9330 0.9360
1940.870672 0.9370 0.9400 0.9410 0.9410 0.9430
1945.218502 0.9440 0.9450 0.9490 0.9530 0.9530
1949.566332 0.9550 0.9560 0.9560 0.9570 0.9570
1953.914162 0.9570 0.9570 0.9570 0.9570 0.9590
1958.261992 0.9600 0.9600 0.9600 0.9630 0.9680
1962.609822 0.9720 0.9760 0.9710 0.9600 0.9570
1966.957652 0.9560 0.9560 0.9560 0.9550 0.9550
1971.305482 0.9530 0.9530 0.9520 0.9520 0.9520
1975.653312 0.9520 0.9510 0.9490 0.9490 0.9480
1980.001142 0.9480 0.9470 0.9470 0.9450 0.9450
1984.348972 0.9440 0.9440 0.9440 0.9440 0.9430
1988.696802 0.9430 0.9430 0.9430 0.9440 0.9450
1993.044632 0.9470 0.9470 0.9380 0.9320 0.9220
1997.392462 0.9140 0.9110 0.8920 0.8910 0.8925
2001.740292 0.8940 0.8980 0.9020 0.9055 0.9090
2006.088121 0.9115 0.9140 0.9145 0.9150 0.9185
2010.435951 0.9220 0.9250 0.9280 0.9290 0.9300
2014.783781 0.9310 0.9320 0.9320 0.9320 0.9330
2019.131611 0.9340 0.9360 0.9380 0.9410 0.9440
2023.479441 0.9465 0.9490 0.9510 0.9530 0.9540
2027.827271 0.9550 0.9560 0.9570 0.9585 0.9600
2032.175101 0.9600 0.9600 0.9585 0.9570 0.9570
2036.522931 0.9570 0.9565 0.9560 0.9560 0.9560
2040.870761 0.9565 0.9570 0.9580 0.9590 0.9595
2045.218591 0.9600 0.9610 0.9620 0.9625 0.9630
2049.566421 0.9635 0.9640 0.9650 0.9660 0.9660
2053.914251 0.9660 0.9665 0.9670 0.9670 0.9670
2058.262081 0.9670 0.9670 0.9670 0.9670 0.9670
2062.609911 0.9670 0.9665 0.9660 0.9660 0.9660
2066.957741 0.9660 0.9660 0.9660 0.9660 0.9660
2071.305571 0.9660 0.9660 0.9660 0.9660 0.9660
2075.653401 0.9660 0.9660 0.9650 0.9640 0.9640
2080.001231 0.9640 0.9640 0.9640 0.9635 0.9630
2084.349061 0.9630 0.9630 0.9635 0.9640 0.9640
2088.696891 0.9640 0.9635 0.9630 0.9630 0.9630
2093.044720 0.9625 0.9620 0.9620 0.9620 0.9620
2097.392550 0.9620 0.9610 0.9600 0.9600 0.9600
2101.740380 0.9600 0.9600 0.9595 0.9590 0.9580
2106.088210 0.9570 0.9565 0.9560 0.9555 0.9550
2110.436040 0.9540 0.9530 0.9485 0.9440 0.9400
2114.783870 0.9360 0.9345 0.9330 0.9310 0.9290
2119.131700 0.9275 0.9260 0.9260 0.9260 0.9290
2123.479530 0.9320 0.9350 0.9380 0.9415 0.9450
2127.827360 0.9465 0.9480 0.9495 0.9510 0.9515
2132.175190 0.9520 0.9520 0.9520 0.9505 0.9490
2136.523020 0.9490 0.9490 0.9485 0.9480 0.9465
2140.870850 0.9450 0.9440 0.9430 0.9415 0.9400
2145.218680 0.9390 0.9380 0.9380 0.9380 0.9380
2149.566510 0.9380 0.9375 0.9370 0.9370 0.9370
2153.914340 0.9370 0.9370 0.9370 0.9370 0.9370
2158.262170 0.9370 0.9365 0.9360 0.9350 0.9340
2162.610000 0.9335 0.9330 0.9315 0.9300 0.9280
2166.957830 0.9260 0.9255 0.9250 0.9220 0.9190
2171.305660 0.9165 0.9140 0.9100 0.9060 0.9045
2175.653489 0.9030 0.9005 0.8980 0.8960 0.8940
2180.001319 0.8885 0.8830 0.8770 0.8710 0.8621
2184.349149 0.8531 0.8471 0.8411 0.8361 0.8311
2188.696979 0.8216 0.8122 0.8075 0.8030 0.7940
2193.044809 0.7850 0.7605 0.7360 0.7210 0.7061
2197.392639 0.7010 0.6960 0.6836 0.6711 0.6675
2201.740469 0.6640 0.6610 0.6580 0.6570 0.6560
2206.088299 0.6560 0.6560 0.6575 0.6590 0.6635
2210.436129 0.6680 0.6765 0.6850 0.6950 0.7050
2214.783959 0.7090 0.7130 0.7170 0.7210 0.7220
2219.131789 0.7230 0.7368 0.7508 0.7658 0.7808
2223.479619 0.8032 0.8256 0.8295 0.8330 0.8390
2227.827449 0.8450 0.8485 0.8520 0.8605 0.8690
2232.175279 0.8710 0.8730 0.8804 0.8879 0.8895
2236.523109 0.8910 0.8915 0.8920 0.8940 0.8960
2240.870939 0.8980 0.9000 0.9015 0.9030 0.9045
2245.218769 0.9060 0.9060 0.9060 0.9065 0.9070
2249.566599 0.9070 0.9070 0.9070 0.9070 0.9070
2253.914429 0.9070 0.9070 0.9070 0.9070 0.9070
2258.262258 0.9070 0.9070 0.9080 0.9090 0.9090
2262.610088 0.9090 0.9090 0.9090 0.9095 0.9100
2266.957918 0.9105 0.9110 0.9120 0.9130 0.9135
2271.305748 0.9140 0.9160 0.9180 0.9195 0.9210
2275.653578 0.9215 0.9220 0.9230 0.9240 0.9245
2280.001408 0.9250 0.9265 0.9280 0.9285 0.9290
2284.349238 0.9295 0.9300 0.9310 0.9320 0.9320
2288.697068 0.9320 0.9320 0.9320 0.9320 0.9320
2293.044898 0.9320 0.9320 0.9320 0.9320 0.9320
2297.392728 0.9320 0.9320 0.9320 0.9310 0.9300
2301.740558 0.9300 0.9300 0.9290 0.9280 0.9280
2306.088388 0.9280 0.9270 0.9260 0.9260 0.9260
2310.436218 0.9255 0.9250 0.9245 0.9240 0.9230
2314.784048 0.9220 0.9215 0.9210 0.9195 0.9180
2319.131878 0.9165 0.9150 0.9140 0.9130 0.9080
2323.479708 0.9030 0.8985 0.8941 0.8920 0.8900
2327.827538 0.8826 0.8751 0.8676 0.8600 0.8525
2332.175368 0.8450 0.8390 0.8330 0.8315 0.8300
2336.523198 0.8305 0.8310 0.8365 0.8420 0.8514
2340.871028 0.8609 0.8758 0.8908 0.8969 0.9029
2345.218857 0.9069 0.9109 0.9125 0.9140 0.9145
2349.566687 0.9150 0.9170 0.9190 0.9205 0.9220
2353.914517 0.9230 0.9240 0.9245 0.9250 0.9250
2358.262347 0.9250 0.9250 0.9250 0.9250 0.9250
2362.610177 0.9250 0.9250 0.9250 0.9250 0.9245
2366.958007 0.9240 0.9240 0.9240 0.9240 0.9240
2371.305837 0.9240 0.9240 0.9230 0.9220 0.9205
2375.653667 0.9190 0.9190 0.9190 0.9185 0.9180
2380.001497 0.9180 0.9180 0.9160 0.9140 0.9115
2384.349327 0.9090 0.9075 0.9060 0.9030 0.9000
2388.697157 0.8980 0.8960 0.8915 0.8870 0.8816
2393.044987 0.8761 0.8725 0.8690 0.8680 0.8670
2397.392817 0.8660 0.8650 0.8650 0.8650 0.8650
2401.740647 0.8650 0.8650 0.8650 0.8660 0.8670
2406.088477 0.8670 0.8670 0.8670 0.8670 0.8660
2410.436307 0.8650 0.8645 0.8640 0.8625 0.8610
2414.784137 0.8595 0.8580 0.8550 0.8520 0.8510
2419.131967 0.8500 0.8460 0.8420 0.8375 0.8330
2423.479797 0.8240 0.8150 0.8056 0.7961 0.7886
2427.827626 0.7811 0.7770 0.7730 0.7374 0.7015
2432.175456 0.6847 0.6683 0.6680 0.6680 0.6710
2436.523286 0.6740 0.6875 0.7010 0.7125 0.7239
2440.871116 0.7414 0.7589 0.7769 0.7949 0.8034
2445.218946 0.8119 0.8140 0.8160 0.8175 0.8190
2449.566776 0.8190 0.8190 0.8165 0.8140 0.8110
2453.914606 0.8080 0.8055 0.8030 0.7995 0.7960
2458.262436 0.7925 0.7890 0.7875 0.7860 0.7860
2462.610266 0.7860 0.7875 0.7890 0.7910 0.7930
2466.958096 0.7964 0.7999 0.8060 0.8120 0.8215
2471.305926 0.8310 0.8345 0.8380 0.8405 0.8430
2475.653756 0.8480 0.8530 0.8545 0.8560 0.8570
2480.001586 0.8580 0.8600 0.8620 0.8630 0.8640
2484.349416 0.8645 0.8650 0.8650 0.8650 0.8660
2488.697246 0.8670 0.8680 0.8690 0.8690 0.8690
2493.045076 0.8700 0.8710 0.8710 0.8710 0.8715
2497.392906 0.8720 0.8720 0.8720 0.8725 0.8730
2501.740736 0.8740 0.8750 0.8770 0.8790 0.8810
2506.088566 0.8830 0.8835 0.8840 0.8870 0.8900
2510.436396 0.8920 0.8940 0.8950 0.8960 0.8980
2514.784225 0.9000 0.9015 0.9030 0.9045 0.9060
2519.132055 0.9080 0.9100 0.9105 0.9110 0.9120
2523.479885 0.9130 0.9150 0.9170 0.9175 0.9180
2527.827715 0.9185 0.9190 0.9190 0.9190 0.9200
2532.175545 0.9210 0.9215 0.9220 0.9235 0.9250
2536.523375 0.9255 0.9260 0.9260 0.9260 0.9270
2540.871205 0.9280 0.9280 0.9280 0.9280 0.9280
2545.219035 0.9285 0.9290 0.9290 0.9290 0.9295
2549.566865 0.9300 0.9300 0.9300 0.9295 0.9290
2553.914695 0.9290 0.9290 0.9285 0.9280 0.9280
2558.262525 0.9280 0.9280 0.9280 0.9280 0.9280
2562.610355 0.9280 0.9280 0.9270 0.9260 0.9260
2566.958185 0.9260 0.9260 0.9260 0.9260 0.9260
2571.306015 0.9260 0.9260 0.9260 0.9260 0.9260
2575.653845 0.9260 0.9260 0.9260 0.9260 0.9260
2580.001675 0.9260 0.9260 0.9260 0.9260 0.9260
2584.349505 0.9260 0.9260 0.9260 0.9260 0.9260
2588.697335 0.9255 0.9250 0.9250 0.9250 0.9250
2593.045165 0.9250 0.9245 0.9240 0.9240 0.9240
2597.392994 0.9230 0.9220 0.9220 0.9220 0.9215
2601.740824 0.9210 0.9200 0.9190 0.9185 0.9180
2606.088654 0.9180 0.9180 0.9175 0.9170 0.9170
2610.436484 0.9170 0.9160 0.9150 0.9145 0.9140
2614.784314 0.9135 0.9130 0.9120 0.9110 0.9105
2619.132144 0.9100 0.9095 0.9090 0.9060 0.9030
2623.479974 0.9025 0.9020 0.8990 0.8960 0.8950
2627.827804 0.8940 0.8930 0.8920 0.8915 0.8910
2632.175634 0.8910 0.8910 0.8915 0.8920 0.8920
2636.523464 0.8920 0.8930 0.8940 0.8945 0.8950
2640.871294 0.8955 0.8960 0.8960 0.8960 0.8955
2645.219124 0.8950 0.8950 0.8950 0.8945 0.8940
2649.566954 0.8930 0.8920 0.8915 0.8910 0.8895
2653.914784 0.8880 0.8855 0.8830 0.8800 0.8770
2658.262614 0.8760 0.8750 0.8735 0.8720 0.8705
2662.610444 0.8690 0.8630 0.8570 0.8500 0.8430
2666.958274 0.8385 0.8340 0.8320 0.8300 0.8231
2671.306104 0.8161 0.8086 0.8011 0.7971 0.7931
2675.653934 0.7871 0.7811 0.7790 0.7770 0.7750
2680.001763 0.7730 0.7695 0.7660 0.7645 0.7630
2684.349593 0.7625 0.7620 0.7615 0.7610 0.7600
2688.697423 0.7590 0.7590 0.7590 0.7600 0.7610
2693.045253 0.7610 0.7610 0.7615 0.7620 0.7635
2697.393083 0.7650 0.7690 0.7730 0.7765 0.7800
2701.740913 0.7865 0.7930 0.7980 0.8030 0.8070
2706.088743 0.8110 0.8115 0.8120 0.8135 0.8150
2710.436573 0.8170 0.8190 0.8205 0.8220 0.8220
2714.784403 0.8220 0.8220 0.8220 0.8205 0.8190
2719.132233 0.8190 0.8190 0.8155 0.8120 0.8080
2723.480063 0.8040 0.7995 0.7950 0.7886 0.7821
2727.827893 0.7756 0.7691 0.7516 0.7340 0.7085
2732.175723 0.6830 0.6800 0.6770 0.6675 0.6580
2736.523553 0.6565 0.6550 0.6555 0.6560 0.6714
2740.871383 0.6868 0.7172 0.7476 0.7638 0.7798
2745.219213 0.7938 0.8078 0.8100 0.8120 0.8140
2749.567043 0.8160 0.8180 0.8200 0.8220 0.8240
2753.914873 0.8265 0.8290 0.8335 0.8380 0.8380
2758.262703 0.8380 0.8385 0.8390 0.8400 0.8410
2762.610533 0.8410 0.8410 0.8400 0.8390 0.8390
2766.958362 0.8390 0.8390 0.8390 0.8390 0.8390
2771.306192 0.8385 0.8380 0.8375 0.8370 0.8355
2775.654022 0.8340 0.8340 0.8340 0.8335 0.8330
2780.001852 0.8330 0.8330 0.8320 0.8310 0.8285
2784.349682 0.8260 0.8240 0.8220 0.8205 0.8190
2788.697512 0.8185 0.8180 0.8160 0.8140 0.8110
2793.045342 0.8080 0.8045 0.8010 0.7985 0.7960
2797.393172 0.7955 0.7950 0.7905 0.7860 0.7820
2801.741002 0.7780 0.7740 0.7700 0.7640 0.7580
2806.088832 0.7510 0.7440 0.7420 0.7400 0.7321
2810.436662 0.7241 0.7161 0.7081 0.6996 0.6911
2814.784492 0.6826 0.6741 0.6710 0.6680 0.6655
2819.132322 0.6630 0.6550 0.6470 0.6395 0.6320
2823.480152 0.6191 0.6061 0.5931 0.5801 0.5716
2827.827982 0.5631 0.5610 0.5590 0.5590 0.5590
2832.175812 0.5669 0.5749 0.5815 0.5880 0.5880
2836.523642 0.5880 0.5895 0.5910 0.5910 0.5910
2840.871472 0.5865 0.5820 0.5750 0.5680 0.5591
2845.219302 0.5501 0.5441 0.5381 0.5207 0.5032
2849.567131 0.4848 0.4663 0.4461 0.4259 0.3940
2853.914961 0.3620 0.3275 0.2931 0.2741 0.2551
2858.262791 0.1948 0.1343 0.1141 0.0942 0.0747
2862.610621 0.0552 0.0441 0.0331 0.0266 0.0201
2866.958451 0.0200 0.0200 0.0205 0.0210 0.0225
2871.306281 0.0240 0.0320 0.0400 0.0515 0.0630
2875.654111 0.0819 0.1009 0.1139 0.1269 0.1359
2880.001941 0.1449 0.1495 0.1540 0.1555 0.1570
2884.349771 0.1555 0.1540 0.1520 0.1500 0.1485
2888.697601 0.1470 0.1470 0.1470 0.1480 0.1490
2893.045431 0.1515 0.1540 0.1560 0.1580 0.1590
2897.393261 0.1600 0.1590 0.1580 0.1555 0.1530
2901.741091 0.1496 0.1461 0.1415 0.1370 0.1335
2906.088921 0.1300 0.1245 0.1190 0.1115 0.1040
2910.436751 0.0940 0.0841 0.0731 0.0621 0.0471
2914.784581 0.0321 0.0261 0.0201 0.0185 0.0170
2919.132411 0.0136 0.0101 0.0090 0.0080 0.0070
2923.480241 0.0060 0.0070 0.0080 0.0090 0.0100
2927.828071 0.0120 0.0140 0.0170 0.0200 0.0215
2932.175900 0.0230 0.0260 0.0290 0.0344 0.0399
2936.523730 0.0469 0.0539 0.0580 0.0620 0.0635
2940.871560 0.0650 0.0650 0.0650 0.0635 0.0620
2945.219390 0.0590 0.0560 0.0555 0.0550 0.0515
2949.567220 0.0480 0.0440 0.0400 0.0360 0.0321
2953.915050 0.0276 0.0231 0.0185 0.0140 0.0130
2958.262880 0.0120 0.0100 0.0080 0.0065 0.0050
2962.610710 0.0050 0.0050 0.0045 0.0040 0.0040
2966.958540 0.0040 0.0040 0.0040 0.0040 0.0040
2971.306370 0.0040 0.0040 0.0040 0.0040 0.0045
2975.654200 0.0050 0.0050 0.0050 0.0055 0.0060
2980.002030 0.0060 0.0060 0.0060 0.0060 0.0070
2984.349860 0.0080 0.0080 0.0080 0.0085 0.0090
2988.697690 0.0090 0.0090 0.0095 0.0100 0.0110
2993.045520 0.0120 0.0125 0.0130 0.0130 0.0130
2997.393350 0.0145 0.0160 0.0185 0.0210 0.0250
3001.741180 0.0290 0.0310 0.0330 0.0345 0.0360
3006.089010 0.0375 0.0390 0.0390 0.0390 0.0380
3010.436840 0.0370 0.0360 0.0350 0.0340 0.0330
3014.784670 0.0325 0.0320 0.0320 0.0320 0.0325
3019.132499 0.0330 0.0345 0.0360 0.0375 0.0390
3023.480329 0.0449 0.0509 0.0589 0.0671 0.0935
3027.828159 0.1200 0.1380 0.1560 0.1735 0.1909
3032.175989 0.2248 0.2588 0.2684 0.2779 0.2879
3036.523819 0.2979 0.3089 0.3199 0.3393 0.3587
3040.871649 0.3782 0.3977 0.4104 0.4230 0.4345
3045.219479 0.4460 0.4515 0.4570 0.4645 0.4720
3049.567309 0.4840 0.4959 0.5094 0.5229 0.5334
3053.915139 0.5439 0.5524 0.5609 0.5645 0.5680
3058.262969 0.5749 0.5819 0.5904 0.5990 0.6085
3062.610799 0.6180 0.6250 0.6320 0.6380 0.6440
3066.958629 0.6475 0.6510 0.6550 0.6590 0.6635
3071.306459 0.6680 0.6729 0.6779 0.6820 0.6859
3075.654289 0.6899 0.6939 0.6980 0.7020 0.7050
3080.002119 0.7080 0.7115 0.7150 0.7195 0.7240
3084.349949 0.7290 0.7340 0.7370 0.7400 0.7400
3088.697779 0.7400 0.7415 0.7430 0.7450 0.7470
3093.045609 0.7490 0.7510 0.7540 0.7570 0.7575
3097.393439 0.7580 0.7595 0.7610 0.7630 0.7650
3101.741268 0.7670 0.7690 0.7710 0.7730 0.7750
3106.089098 0.7770 0.7775 0.7780 0.7795 0.7810
3110.436928 0.7815 0.7820 0.7830 0.7840 0.7840
3114.784758 0.7840 0.7850 0.7860 0.7870 0.7880
3119.132588 0.7895 0.7910 0.7920 0.7930 0.7930
3123.480418 0.7930 0.7940 0.7950 0.7950 0.7950
3127.828248 0.7955 0.7960 0.7965 0.7970 0.7980
3132.176078 0.7990 0.7990 0.7990 0.7995 0.8000
3136.523908 0.8000 0.8000 0.8000 0.8000 0.8000
3140.871738 0.8000 0.8000 0.8000 0.8000 0.8000
3145.219568 0.8000 0.8000 0.8000 0.8000 0.8000
3149.567398 0.8000 0.8000 0.8000 0.7995 0.7990
3153.915228 0.7990 0.7990 0.7980 0.7970 0.7970
3158.263058 0.7970 0.7970 0.7970 0.7965 0.7960
3162.610888 0.7960 0.7960 0.7960 0.7960 0.7960
3166.958718 0.7960 0.7960 0.7960 0.7960 0.7960
3171.306548 0.7955 0.7950 0.7950 0.7950 0.7950
3175.654378 0.7950 0.7940 0.7930 0.7930 0.7930
3180.002208 0.7930 0.7930 0.7925 0.7920 0.7920
3184.350037 0.7920 0.7915 0.7910 0.7895 0.7880
3188.697867 0.7870 0.7860 0.7850 0.7840 0.7825
3193.045697 0.7810 0.7790 0.7770 0.7755 0.7740
3197.393527 0.7735 0.7730 0.7690 0.7650 0.7620
3201.741357 0.7590 0.7565 0.7540 0.7490 0.7440
3206.089187 0.7410 0.7380 0.7345 0.7310 0.7295
3210.437017 0.7280 0.7235 0.7190 0.7170 0.7150
3214.784847 0.7140 0.7130 0.7140 0.7150 0.7155
3219.132677 0.7160 0.7175 0.7190 0.7215 0.7240
3223.480507 0.7300 0.7360 0.7370 0.7380 0.7380
3227.828337 0.7380 0.7385 0.7390 0.7425 0.7460
3232.176167 0.7480 0.7500 0.7500 0.7500 0.7540
3236.523997 0.7580 0.7580 0.7580 0.7595 0.7610
3240.871827 0.7615 0.7620 0.7625 0.7630 0.7630
3245.219657 0.7630 0.7630 0.7630 0.7625 0.7620
3249.567487 0.7615 0.7610 0.7600 0.7590 0.7585
3253.915317 0.7580 0.7580 0.7580 0.7580 0.7580
3258.263147 0.7585 0.7590 0.7600 0.7610 0.7620
3262.610977 0.7630 0.7665 0.7700 0.7749 0.7799
3266.958807 0.7830 0.7860 0.7905 0.7950 0.7980
3271.306636 0.8010 0.8065 0.8120 0.8155 0.8190
3275.654466 0.8215 0.8240 0.8275 0.8310 0.8330
3280.002296 0.8350 0.8385 0.8420 0.8460 0.8500
3284.350126 0.8530 0.8560 0.8585 0.8610 0.8625
3288.697956 0.8640 0.8660 0.8680 0.8695 0.8710
3293.045786 0.8715 0.8720 0.8725 0.8730 0.8740
3297.393616 0.8750 0.8775 0.8800 0.8805 0.8810
3301.741446 0.8820 0.8830 0.8845 0.8860 0.8865
3306.089276 0.8870 0.8875 0.8880 0.8890 0.8900
3310.437106 0.8900 0.8900 0.8910 0.8920 0.8930
3314.784936 0.8940 0.8940 0.8940 0.8940 0.8940
3319.132766 0.8940 0.8940 0.8940 0.8940 0.8940
3323.480596 0.8940 0.8940 0.8940 0.8940 0.8940
3327.828426 0.8940 0.8940 0.8940 0.8940 0.8940
3332.176256 0.8940 0.8940 0.8940 0.8940 0.8940
3336.524086 0.8940 0.8940 0.8940 0.8940 0.8940
3340.871916 0.8940 0.8940 0.8940 0.8940 0.8940
3345.219746 0.8940 0.8940 0.8945 0.8950 0.8950
3349.567576 0.8950 0.8950 0.8950 0.8955 0.8960
3353.915405 0.8960 0.8960 0.8960 0.8960 0.8955
3358.263235 0.8950 0.8950 0.8950 0.8945 0.8940
3362.611065 0.8940 0.8940 0.8930 0.8920 0.8915
3366.958895 0.8910 0.8910 0.8910 0.8910 0.8910
3371.306725 0.8910 0.8910 0.8915 0.8920 0.8920
3375.654555 0.8920 0.8920 0.8920 0.8930 0.8940
3380.002385 0.8945 0.8950 0.8955 0.8960 0.8960
3384.350215 0.8960 0.8960 0.8960 0.8960 0.8960
3388.698045 0.8960 0.8960 0.8960 0.8960 0.8960
3393.045875 0.8960 0.8955 0.8950 0.8945 0.8940
3397.393705 0.8940 0.8940 0.8940 0.8940 0.8930
3401.741535 0.8920 0.8920 0.8920 0.8910 0.8900
3406.089365 0.8900 0.8900 0.8890 0.8880 0.8875
3410.437195 0.8870 0.8855 0.8840 0.8825 0.8810
3414.785025 0.8810 0.8810 0.8805 0.8800 0.8795
3419.132855 0.8790 0.8790 0.8790 0.8780 0.8770
3423.480685 0.8765 0.8760 0.8760 0.8760 0.8760
3427.828515 0.8760 0.8755 0.8750 0.8750 0.8750
3432.176345 0.8750 0.8750 0.8740 0.8730 0.8730
3436.524174 0.8730 0.8730 0.8730 0.8730 0.8730
3440.872004 0.8730 0.8730 0.8730 0.8730 0.8730
3445.219834 0.8730 0.8730 0.8730 0.8725 0.8720
3449.567664 0.8720 0.8720 0.8720 0.8720 0.8720
3453.915494 0.8720 0.8720 0.8720 0.8715 0.8710
3458.263324 0.8710 0.8710 0.8710 0.8710 0.8710
3462.611154 0.8710 0.8710 0.8710 0.8700 0.8690
3466.958984 0.8680 0.8670 0.8660 0.8650 0.8650
3471.306814 0.8650 0.8645 0.8640 0.8630 0.8620
3475.654644 0.8620 0.8620 0.8615 0.8610 0.8610
3480.002474 0.8610 0.8610 0.8610 0.8610 0.8610
3484.350304 0.8610 0.8610 0.8610 0.8610 0.8610
3488.698134 0.8610 0.8610 0.8610 0.8610 0.8610
3493.045964 0.8610 0.8610 0.8610 0.8610 0.8605
3497.393794 0.8600 0.8600 0.8600 0.8600 0.8600
3501.741624 0.8600 0.8600 0.8600 0.8600 0.8585
3506.089454 0.8570 0.8570 0.8570 0.8565 0.8560
3510.437284 0.8545 0.8530 0.8515 0.8500 0.8480
3514.785114 0.8460 0.8445 0.8430 0.8425 0.8420
3519.132944 0.8415 0.8410 0.8395 0.8380 0.8360
3523.480773 0.8340 0.8325 0.8310 0.8305 0.8300
3527.828603 0.8295 0.8290 0.8280 0.8270 0.8270
3532.176433 0.8270 0.8265 0.8260 0.8260 0.8260
3536.524263 0.8265 0.8270 0.8270 0.8270 0.8285
3540.872093 0.8300 0.8305 0.8310 0.8325 0.8340
3545.219923 0.8340 0.8340 0.8355 0.8370 0.8380
3549.567753 0.8390 0.8400 0.8410 0.8410 0.8410
3553.915583 0.8415 0.8420 0.8420 0.8420 0.8420
3558.263413 0.8420 0.8415 0.8410 0.8400 0.8390
3562.611243 0.8385 0.8380 0.8365 0.8350 0.8345
3566.959073 0.8340 0.8335 0.8330 0.8315 0.8300
3571.306903 0.8295 0.8290 0.8280 0.8270 0.8255
3575.654733 0.8240 0.8235 0.8230 0.8230 0.8230
3580.002563 0.8235 0.8240 0.8255 0.8270 0.8285
3584.350393 0.8300 0.8305 0.8310 0.8325 0.8340
3588.698223 0.8345 0.8350 0.8370 0.8390 0.8405
3593.046053 0.8420 0.8440 0.8460 0.8475 0.8490
3597.393883 0.8495 0.8500 0.8500 0.8500 0.8510
3601.741713 0.8520 0.8525 0.8530 0.8535 0.8540
3606.089542 0.8540 0.8540 0.8540 0.8540 0.8550
3610.437372 0.8560 0.8560 0.8560 0.8560 0.8560
3614.785202 0.8560 0.8560 0.8560 0.8560 0.8550
3619.133032 0.8540 0.8540 0.8540 0.8540 0.8540
3623.480862 0.8535 0.8530 0.8530 0.8530 0.8530
3627.828692 0.8530 0.8525 0.8520 0.8520 0.8520
3632.176522 0.8520 0.8520 0.8520 0.8520 0.8510
3636.524352 0.8500 0.8495 0.8490 0.8490 0.8490
3640.872182 0.8485 0.8480 0.8470 0.8460 0.8455
3645.220012 0.8450 0.8440 0.8430 0.8420 0.8410
3649.567842 0.8395 0.8380 0.8360 0.8340 0.8325
3653.915672 0.8310 0.8305 0.8300 0.8280 0.8260
3658.263502 0.8250 0.8240 0.8230 0.8220 0.8205
3662.611332 0.8190 0.8185 0.8180 0.8170 0.8160
3666.959162 0.8160 0.8160 0.8155 0.8150 0.8150
3671.306992 0.8150 0.8150 0.8150 0.8155 0.8160
3675.654822 0.8160 0.8160 0.8170 0.8180 0.8185
3680.002652 0.8190 0.8195 0.8200 0.8220 0.8240
3684.350482 0.8265 0.8290 0.8300 0.8310 0.8320
3688.698311 0.8330 0.8330 0.8330 0.8335 0.8340
3693.046141 0.8340 0.8340 0.8335 0.8330 0.8330
3697.393971 0.8330 0.8330 0.8330 0.8335 0.8340
3701.741801 0.8355 0.8370 0.8375 0.8380 0.8380
3706.089631 0.8380 0.8385 0.8390 0.8390 0.8390
3710.437461 0.8390 0.8390 0.8385 0.8380 0.8380
3714.785291 0.8380 0.8375 0.8370 0.8360 0.8350
3719.133121 0.8345 0.8340 0.8340 0.8340 0.8335
3723.480951 0.8330 0.8320 0.8310 0.8305 0.8300
3727.828781 0.8295 0.8290 0.8265 0.8240 0.8230
3732.176611 0.8220 0.8210 0.8200 0.8190 0.8180
3736.524441 0.8170 0.8160 0.8160 0.8160 0.8170
3740.872271 0.8180 0.8185 0.8190 0.8205 0.8220
3745.220101 0.8230 0.8240 0.8265 0.8290 0.8310
3749.567931 0.8330 0.8335 0.8340 0.8355 0.8370
3753.915761 0.8375 0.8380 0.8380 0.8380 0.8380
3758.263591 0.8380 0.8375 0.8370 0.8360 0.8350
3762.611421 0.8345 0.8340 0.8340 0.8340 0.8335
3766.959251 0.8330 0.8330 0.8330 0.8320 0.8310
3771.307081 0.8310 0.8310 0.8310 0.8310 0.8310
3775.654910 0.8310 0.8320 0.8330 0.8335 0.8340
3780.002740 0.8345 0.8350 0.8360 0.8370 0.8380
3784.350570 0.8390 0.8400 0.8410 0.8415 0.8420
3788.698400 0.8420 0.8420 0.8420 0.8420 0.8415
3793.046230 0.8410 0.8400 0.8390 0.8390 0.8390
3797.394060 0.8385 0.8380 0.8380 0.8380 0.8375
3801.741890 0.8370
##END=
