##TITLE=METHANE, BROMOCHLORO-
##JCAMP-DX=4.24
##DATA TYPE=INFRARED SPECTRUM
##CLASS=COBLENTZ III
##ORIGIN=DOW CHEMICAL COMPANY
##OWNER=COBLENTZ SOCIETY
Collection (C) 2018 copyright by the U.S. Secretary of Commerce
on behalf of the United States of America. All rights reserved.
##DATE=1960/02/03
##NAMES=bromo(chloro)methane
##CAS REGISTRY NO=74-97-5
##MOLFORM=C H2 Br Cl
##SOURCE REFERENCE=COBLENTZ NO. 10020
##$NIST SOURCE=COBLENTZ
##$NIST IMAGE=cob10020
##SPECTROMETER/DATA SYSTEM=DOW KBr FOREPRISM-GRATING
##INSTRUMENT PARAMETERS=BLAZED AT 3.5, 12.0, 20.0 MICRON, CHANGED AT 5.0, 7.5, 14.9 MICRON
##STATE=SOLUTION (10% IN CCl4 FOR 3800-1333, AND 10% IN CS2 FOR 1333-430 CM^-^1)
##PATH LENGTH=0.011, 0.011 CM
$$SPECTRAL CONTAMINATION DUE TO CCl4 AROUND 1550, AND CS2 AROUND 850 CM^-^1
##SAMPLING PROCEDURE=TRANSMISSION
##RESOLUTION=4
##DATA PROCESSING=DIGITIZED BY NIST FROM HARD COPY (FROM TWO SEGMENTS)
##XUNITS=1/CM
##YUNITS=TRANSMITTANCE
##XFACTOR=1.000000
##YFACTOR=1
##DELTAX=0.869093
##FIRSTX=416.513
##LASTX=3799.89
##FIRSTY=0.927
##MAXX=3799.89
##MINX=416.513
##MAXY=1.03499
##MINY=0.009
##NPOINTS=3894
##XYDATA=(X++(Y..Y))
416.513000 0.9270 0.9270 0.9270 0.9290 0.9290
420.858467 0.9290 0.9290 0.9290 0.9290 0.9290
425.203934 0.9290 0.9270 0.9270 0.9270 0.9260
429.549401 0.9260 0.9260 0.9270 0.9270 0.9270
433.894868 0.9290 0.9290 0.9290 0.9290 0.9300
438.240335 0.9300 0.9330 0.9330 0.9340 0.9340
442.585801 0.9340 0.9350 0.9350 0.9370 0.9380
446.931268 0.9400 0.9410 0.9420 0.9420 0.9440
451.276735 0.9450 0.9450 0.9450 0.9460 0.9480
455.622202 0.9480 0.9480 0.9490 0.9500 0.9520
459.967669 0.9530 0.9530 0.9550 0.9550 0.9560
464.313136 0.9570 0.9570 0.9590 0.9600 0.9600
468.658603 0.9610 0.9640 0.9670 0.9680 0.9700
473.004070 0.9710 0.9740 0.9750 0.9790 0.9800
477.349537 0.9820 0.9820 0.9830 0.9830 0.9850
481.695004 0.9860 0.9860 0.9870 0.9890 0.9900
486.040470 0.9910 0.9940 0.9950 1.0010 1.0040
490.385937 1.0050 1.0060 1.0060 1.0080 1.0080
494.731404 1.0090 1.0090 1.0090 1.0090 1.0090
499.076871 1.0090 1.0120 1.0120 1.0130 1.0130
503.422338 1.0130 1.0130 1.0130 1.0130 1.0130
507.767805 1.0130 1.0140 1.0200 1.0230 1.0250
512.113272 1.0250 1.0250 1.0270 1.0250 1.0250
516.458739 1.0250 1.0250 1.0270 1.0280 1.0310
520.804206 1.0310 1.0320 1.0310 1.0310 1.0320
525.149673 1.0340 1.0340 1.0320 1.0320 1.0350
529.495140 1.0340 1.0340 1.0320 1.0320 1.0310
533.840606 1.0310 1.0310 1.0310 1.0320 1.0320
538.186073 1.0290 1.0280 1.0270 1.0270 1.0270
542.531540 1.0270 1.0280 1.0280 1.0290 1.0310
546.877007 1.0320 1.0320 1.0310 1.0290 1.0280
551.222474 1.0280 1.0280 1.0280 1.0280 1.0270
555.567941 1.0270 1.0250 1.0250 1.0250 1.0270
559.913408 1.0250 1.0230 1.0200 1.0190 1.0170
564.258875 1.0140 1.0130 1.0130 1.0130 1.0130
568.604342 1.0120 1.0100 1.0080 1.0060 1.0050
572.949809 1.0040 1.0020 1.0000 0.9970 0.9950
577.295275 0.9950 0.9950 0.9910 0.9870 0.9830
581.640742 0.9820 0.9790 0.9680 0.9610 0.9570
585.986209 0.9460 0.9370 0.9350 0.9300 0.9121
590.331676 0.8950 0.8840 0.8560 0.8400 0.8180
594.677143 0.7950 0.7691 0.7351 0.6961 0.6532
599.022610 0.5809 0.5020 0.4300 0.3651 0.1683
603.368077 0.1640 0.1371 0.1280 0.1061 0.1100
607.713544 0.1380 0.2160 0.2970 0.3629 0.4519
612.059011 0.5678 0.6448 0.7068 0.7608 0.8028
616.404478 0.8390 0.8670 0.8920 0.9110 0.9260
620.749945 0.9380 0.9460 0.9520 0.9600 0.9670
625.095411 0.9680 0.9720 0.9740 0.9750 0.9780
629.440878 0.9800 0.9830 0.9850 0.9860 0.9860
633.786345 0.9850 0.9860 0.9860 0.9860 0.9870
638.131812 0.9870 0.9860 0.9830 0.9800 0.9790
642.477279 0.9780 0.9780 0.9720 0.9710 0.9700
646.822746 0.9670 0.9640 0.9630 0.9590 0.9590
651.168213 0.9590 0.9610 0.9630 0.9630 0.9640
655.513680 0.9680 0.9680 0.9700 0.9750 0.9790
659.859147 0.9790 0.9790 0.9590 0.9590 0.9790
664.204614 0.9820 0.9830 0.9830 0.9850 0.9860
668.550081 0.9870 0.9870 0.9860 0.9860 0.9870
672.895547 0.9870 0.9850 0.9780 0.9710 0.9710
677.241014 0.9820 0.9830 0.9850 0.9850 0.9820
681.586481 0.9790 0.9760 0.9750 0.9750 0.9750
685.931948 0.9750 0.9780 0.9800 0.9820 0.9700
690.277415 0.9680 0.9700 0.9700 0.9670 0.9600
694.622882 0.9570 0.9550 0.9520 0.9490 0.9460
698.968349 0.9420 0.9370 0.9330 0.9230 0.9140
703.313816 0.9080 0.8960 0.8920 0.8850 0.8740
707.659283 0.8560 0.8470 0.8281 0.8051 0.8020
712.004750 0.7840 0.7600 0.7410 0.7190 0.6930
716.350216 0.6740 0.6381 0.5981 0.5532 0.5022
720.695683 0.4490 0.3920 0.3310 0.2671 0.1981
725.041150 0.1261 0.0991 0.0840 0.0691 0.0391
729.386617 0.0350 0.0280 0.0140 0.0120 0.0100
733.732084 0.0090 0.0090 0.0090 0.0090 0.0100
738.077551 0.0211 0.1620 0.3089 0.3330 0.3460
742.423018 0.3610 0.3740 0.4547 0.5686 0.6148
746.768485 0.6640 0.7080 0.7390 0.7670 0.7900
751.113952 0.8110 0.8290 0.8370 0.8559 0.8779
755.459419 0.8880 0.8930 0.9000 0.9110 0.9220
759.804886 0.9270 0.9340 0.9400 0.9450 0.9480
764.150352 0.9500 0.9500 0.9570 0.9610 0.9650
768.495819 0.9680 0.9720 0.9750 0.9780 0.9790
772.841286 0.9790 0.9780 0.9790 0.9800 0.9820
777.186753 0.9830 0.9830 0.9850 0.9860 0.9860
781.532220 0.9860 0.9850 0.9870 0.9890 0.9890
785.877687 0.9890 0.9890 0.9900 0.9910 0.9930
790.223154 0.9930 0.9930 0.9930 0.9930 0.9930
794.568621 0.9930 0.9930 0.9940 0.9940 0.9940
798.914088 0.9940 0.9980 0.9970 0.9970 0.9970
803.259555 0.9950 0.9950 0.9940 0.9940 0.9940
807.605021 0.9940 0.9930 0.9910 0.9910 0.9930
811.950488 1.0020 1.0040 1.0010 1.0010 1.0000
816.295955 1.0000 1.0000 0.9980 0.9970 0.9970
820.641422 0.9950 0.9940 0.9940 0.9910 0.9910
824.986889 0.9890 0.9890 0.9870 0.9870 0.9850
829.332356 0.9830 0.9800 0.9790 0.9780 0.9710
833.677823 0.9700 0.9610 0.9570 0.9560 0.9490
838.023290 0.9440 0.9350 0.9230 0.9140 0.9011
842.368757 0.8850 0.8690 0.8500 0.8290 0.8100
846.714224 0.7900 0.7710 0.7531 0.7311 0.7081
851.059691 0.7070 0.7080 0.7170 0.7300 0.7410
855.405157 0.7460 0.7580 0.7610 0.7670 0.7760
859.750624 0.7840 0.7940 0.8010 0.8070 0.8130
864.096091 0.8170 0.8200 0.8240 0.8260 0.8360
868.441558 0.8440 0.8520 0.8610 0.8670 0.8730
872.787025 0.8740 0.8770 0.8880 0.8920 0.8930
877.132492 0.8960 0.8990 0.9100 0.9150 0.9180
881.477959 0.9200 0.9230 0.9330 0.9350 0.9380
885.823426 0.9490 0.9570 0.9600 0.9630 0.9640
890.168893 0.9700 0.9750 0.9780 0.9800 0.9870
894.514360 0.9910 0.9940 0.9940 0.9950 1.0020
898.859826 1.0050 1.0050 1.0060 1.0060 1.0090
903.205293 1.0090 1.0100 1.0120 1.0120 1.0130
907.550760 1.0130 1.0140 1.0140 1.0160 1.0160
911.896227 1.0170 1.0170 1.0190 1.0170 1.0170
916.241694 1.0170 1.0170 1.0170 1.0190 1.0200
920.587161 1.0200 1.0200 1.0200 1.0200 1.0200
924.932628 1.0160 1.0160 1.0190 1.0200 1.0230
929.278095 1.0230 1.0210 1.0210 1.0200 1.0200
933.623562 1.0200 1.0200 1.0200 1.0200 1.0200
937.969029 1.0250 1.0250 1.0240 1.0240 1.0240
942.314496 1.0240 1.0240 1.0240 1.0230 1.0230
946.659962 1.0230 1.0240 1.0250 1.0250 1.0250
951.005429 1.0250 1.0240 1.0240 1.0210 1.0200
955.350896 1.0200 1.0200 1.0200 1.0200 1.0210
959.696363 1.0210 1.0210 1.0210 1.0210 1.0210
964.041830 1.0200 1.0200 1.0200 1.0200 1.0240
968.387297 1.0250 1.0240 1.0240 1.0250 1.0250
972.732764 1.0210 1.0200 1.0210 1.0240 1.0250
977.078231 1.0250 1.0250 1.0230 1.0230 1.0230
981.423698 1.0240 1.0240 1.0240 1.0240 1.0240
985.769165 1.0250 1.0250 1.0250 1.0250 1.0250
990.114632 1.0250 1.0250 1.0250 1.0250 1.0250
994.460098 1.0230 1.0230 1.0210 1.0210 1.0250
998.805565 1.0250 1.0250 1.0250 1.0250 1.0250
1003.151032 1.0250 1.0250 1.0210 1.0200 1.0200
1007.496499 1.0200 1.0200 1.0250 1.0250 1.0250
1011.841966 1.0210 1.0200 1.0200 1.0190 1.0190
1016.187433 1.0190 1.0190 1.0190 1.0210 1.0210
1020.532900 1.0200 1.0200 1.0200 1.0200 1.0200
1024.878367 1.0200 1.0200 1.0210 1.0230 1.0230
1029.223834 1.0230 1.0200 1.0190 1.0190 1.0170
1033.569301 1.0170 1.0160 1.0170 1.0190 1.0190
1037.914767 1.0190 1.0200 1.0200 1.0200 1.0200
1042.260234 1.0190 1.0190 1.0170 1.0170 1.0170
1046.605701 1.0170 1.0170 1.0170 1.0190 1.0190
1050.951168 1.0190 1.0190 1.0190 1.0190 1.0190
1055.296635 1.0190 1.0190 1.0190 1.0190 1.0170
1059.642102 1.0170 1.0170 1.0160 1.0140 1.0140
1063.987569 1.0140 1.0160 1.0160 1.0160 1.0170
1068.333036 1.0170 1.0160 1.0160 1.0140 1.0130
1072.678503 1.0120 1.0100 1.0100 1.0100 1.0120
1077.023970 1.0120 1.0130 1.0130 1.0140 1.0130
1081.369437 1.0130 1.0130 1.0130 1.0130 1.0140
1085.714903 1.0140 1.0140 1.0140 1.0160 1.0170
1090.060370 1.0190 1.0200 1.0200 1.0160 1.0130
1094.405837 1.0120 1.0120 1.0120 1.0120 1.0120
1098.751304 1.0120 1.0120 1.0120 1.0120 1.0130
1103.096771 1.0130 1.0140 1.0140 1.0140 1.0140
1107.442238 1.0130 1.0140 1.0120 1.0120 1.0100
1111.787705 1.0100 1.0100 1.0120 1.0120 1.0120
1116.133172 1.0100 1.0100 1.0100 1.0080 1.0080
1120.478639 1.0060 1.0060 1.0040 1.0010 1.0000
1124.824106 0.9970 0.9940 0.9940 0.9940 0.9940
1129.169572 0.9940 0.9940 0.9950 0.9970 0.9970
1133.515039 0.9980 1.0000 1.0000 0.9980 0.9980
1137.860506 0.9980 0.9970 0.9970 0.9970 0.9950
1142.205973 0.9950 1.0010 1.0040 1.0050 1.0050
1146.551440 1.0060 1.0060 1.0060 1.0080 1.0100
1150.896907 1.0120 1.0120 1.0120 1.0120 1.0120
1155.242374 1.0120 1.0120 1.0120 1.0120 1.0120
1159.587841 1.0120 1.0120 1.0120 1.0120 1.0100
1163.933308 1.0100 1.0100 1.0100 1.0100 1.0100
1168.278775 1.0090 1.0090 1.0080 1.0050 1.0040
1172.624242 1.0040 1.0020 1.0000 0.9970 0.9940
1176.969708 0.9900 0.9870 0.9860 0.9850 0.9830
1181.315175 0.9850 0.9860 0.9890 0.9900 0.9930
1185.660642 0.9940 0.9950 0.9940 0.9930 0.9900
1190.006109 0.9860 0.9850 0.9830 0.9830 0.9820
1194.351576 0.9820 0.9800 0.9790 0.9760 0.9740
1198.697043 0.9680 0.9640 0.9600 0.9550 0.9520
1203.042510 0.9480 0.9440 0.9350 0.9330 0.9200
1207.387977 0.9120 0.9030 0.8970 0.8780 0.8630
1211.733444 0.8460 0.8290 0.8051 0.7641 0.7351
1216.078911 0.7050 0.6700 0.6180 0.5440 0.4381
1220.424377 0.3252 0.2282 0.1263 0.0991 0.0721
1224.769844 0.0290 0.0190 0.0200 0.0250 0.2387
1229.115311 0.2899 0.2980 0.3987 0.5186 0.6057
1233.460778 0.6700 0.7040 0.7600 0.7920 0.8060
1237.806245 0.8260 0.8519 0.8729 0.8879 0.8950
1242.151712 0.9040 0.9150 0.9250 0.9330 0.9340
1246.497179 0.9370 0.9380 0.9440 0.9520 0.9550
1250.842646 0.9560 0.9560 0.9560 0.9550 0.9560
1255.188113 0.9630 0.9710 0.9740 0.9760 0.9780
1259.533580 0.9790 0.9790 0.9790 0.9790 0.9790
1263.879047 0.9710 0.9710 0.9830 0.9870 0.9870
1268.224513 0.9890 0.9890 0.9900 0.9890 0.9900
1272.569980 0.9900 0.9900 0.9910 0.9930 0.9930
1276.915447 0.9930 0.9930 0.9930 0.9950 0.9950
1281.260914 0.9970 0.9970 0.9970 0.9970 0.9970
1285.606381 0.9970 0.9980 0.9980 0.9980 0.9980
1289.951848 1.0000 1.0010 1.0010 1.0010 1.0010
1294.297315 1.0000 1.0000 1.0000 1.0020 1.0020
1298.642782 1.0020 1.0010 1.0000 0.9980 0.9970
1302.988249 0.9950 0.9950 0.9950 0.9950 0.9980
1307.333716 1.0010 1.0010 1.0020 1.0010 1.0010
1311.679182 1.0020 1.0020 1.0010 1.0000 0.9980
1316.024649 0.9980 0.9970 0.9970 0.9970 0.9970
1320.370116 0.9970 0.9980 1.0000 1.0000 1.0000
1324.715583 1.0000 1.0000 0.9980 0.9980 0.9970
1329.061050 0.9950 0.9930 0.9910 0.9890 0.9890
1333.406517 0.9860 0.9850 0.9830 0.9830 0.9830
1337.751984 0.9850 0.9850 0.9870 0.9890 0.9900
1342.097451 0.9910 0.9910 0.9910 0.9910 0.9910
1346.442918 0.9910 0.9910 0.9910 0.9930 0.9940
1350.788385 0.9930 0.9930 0.9910 0.9910 0.9910
1355.133852 0.9910 0.9910 0.9910 0.9910 0.9930
1359.479318 0.9930 0.9860 0.9860 0.9830 0.9830
1363.824785 0.9830 0.9830 0.9850 0.9850 0.9860
1368.170252 0.9850 0.9830 0.9830 0.9830 0.9850
1372.515719 0.9860 0.9870 0.9890 0.9900 0.9870
1376.861186 0.9860 0.9850 0.9850 0.9860 0.9870
1381.206653 0.9890 0.9890 0.9900 0.9910 0.9910
1385.552120 0.9900 0.9870 0.9860 0.9830 0.9820
1389.897587 0.9790 0.9790 0.9780 0.9790 0.9830
1394.243054 0.9830 0.9800 0.9790 0.9760 0.9750
1398.588521 0.9740 0.9720 0.9710 0.9700 0.9670
1402.933988 0.9640 0.9590 0.9570 0.9560 0.9550
1407.279454 0.9520 0.9490 0.9480 0.9460 0.9480
1411.624921 0.9480 0.9490 0.9530 0.9560 0.9560
1415.970388 0.9560 0.9560 0.9440 0.9440 0.9520
1420.315855 0.9600 0.9610 0.9630 0.9630 0.9650
1424.661322 0.9680 0.9680 0.9700 0.9700 0.9700
1429.006789 0.9700 0.9670 0.9630 0.9630 0.9610
1433.352256 0.9610 0.9610 0.9610 0.9610 0.9610
1437.697723 0.9640 0.9650 0.9640 0.9640 0.9640
1442.043190 0.9630 0.9630 0.9630 0.9630 0.9610
1446.388657 0.9600 0.9600 0.9590 0.9570 0.9550
1450.734123 0.9500 0.9480 0.9450 0.9440 0.9420
1455.079590 0.9410 0.9350 0.9410 0.9450 0.9450
1459.425057 0.9480 0.9500 0.9500 0.9500 0.9520
1463.770524 0.9520 0.9520 0.9530 0.9560 0.9560
1468.115991 0.9560 0.9560 0.9560 0.9560 0.9560
1472.461458 0.9400 0.9560 0.9570 0.9500 0.9500
1476.806925 0.9490 0.9490 0.9450 0.9370 0.9340
1481.152392 0.9330 0.9330 0.9300 0.9290 0.9290
1485.497859 0.9270 0.9250 0.9250 0.9230 0.9150
1489.843326 0.9080 0.9050 0.8990 0.8960 0.8950
1494.188793 0.8930 0.8920 0.8920 0.8890 0.8780
1498.534259 0.8710 0.8650 0.8580 0.8540 0.8510
1502.879726 0.8500 0.8400 0.8350 0.8330 0.8280
1507.225193 0.8200 0.8110 0.8050 0.7980 0.7920
1511.570660 0.7860 0.7800 0.7770 0.7720 0.7670
1515.916127 0.7620 0.7600 0.7520 0.7470 0.7420
1520.261594 0.7370 0.7270 0.7230 0.7190 0.7150
1524.607061 0.7110 0.7090 0.7070 0.6980 0.6930
1528.952528 0.6890 0.6810 0.6740 0.6640 0.6600
1533.297995 0.6510 0.6360 0.6230 0.6061 0.6030
1537.643462 0.5960 0.5880 0.5730 0.5580 0.5430
1541.988928 0.5390 0.5310 0.5230 0.5130 0.5020
1546.334395 0.4910 0.4860 0.4850 0.4850 0.4850
1550.679862 0.4860 0.4870 0.4870 0.4890 0.4910
1555.025329 0.5000 0.5020 0.5040 0.5080 0.5360
1559.370796 0.5550 0.5590 0.5640 0.5640 0.5650
1563.716263 0.5770 0.5990 0.6140 0.6180 0.6250
1568.061730 0.6340 0.6440 0.6530 0.6600 0.6640
1572.407197 0.6680 0.6710 0.6750 0.6770 0.6830
1576.752664 0.6880 0.6890 0.6900 0.6900 0.6920
1581.098131 0.6920 0.6920 0.6930 0.6960 0.7000
1585.443598 0.7070 0.7080 0.7090 0.7130 0.7230
1589.789064 0.7270 0.7380 0.7460 0.7520 0.7600
1594.134531 0.7710 0.7790 0.7860 0.7970 0.8020
1598.479998 0.8110 0.8210 0.8330 0.8440 0.8560
1602.825465 0.8650 0.8730 0.8770 0.8860 0.8920
1607.170932 0.8960 0.9050 0.9120 0.9160 0.9220
1611.516399 0.9270 0.9290 0.9330 0.9350 0.9410
1615.861866 0.9450 0.9500 0.9550 0.9590 0.9630
1620.207333 0.9630 0.9640 0.9640 0.9650 0.9650
1624.552800 0.9680 0.9700 0.9700 0.9710 0.9750
1628.898267 0.9760 0.9760 0.9780 0.9780 0.9780
1633.243733 0.9780 0.9780 0.9790 0.9800 0.9820
1637.589200 0.9830 0.9860 0.9800 0.9800 0.9860
1641.934667 0.9860 0.9860 0.9870 0.9890 0.9820
1646.280134 0.9820 0.9910 0.9930 0.9950 0.9950
1650.625601 0.9940 0.9900 0.9900 0.9890 0.9860
1654.971068 0.9860 0.9890 0.9890 0.9890 0.9900
1659.316535 0.9900 0.9900 0.9900 0.9800 0.9870
1663.662002 0.9910 0.9910 0.9910 0.9910 0.9930
1668.007469 0.9930 0.9940 0.9900 0.9890 0.9890
1672.352936 0.9890 0.9890 0.9910 0.9910 0.9910
1676.698403 0.9910 0.9910 0.9910 0.9910 0.9910
1681.043869 0.9900 0.9870 0.9860 0.9860 0.9890
1685.389336 0.9890 0.9890 0.9890 0.9900 0.9910
1689.734803 0.9910 0.9910 0.9910 0.9910 0.9910
1694.080270 0.9900 0.9850 0.9900 0.9900 0.9900
1698.425737 0.9900 0.9900 0.9900 0.9890 0.9860
1702.771204 0.9860 0.9890 0.9910 0.9910 0.9910
1707.116671 0.9910 0.9910 0.9910 0.9930 0.9930
1711.462138 0.9900 0.9900 0.9860 0.9900 0.9900
1715.807605 0.9890 1.0140 1.0010 0.9860 0.9860
1720.153072 0.9900 0.9900 0.9900 0.9900 0.9900
1724.498539 0.9900 0.9900 0.9910 0.9910 0.9930
1728.844005 0.9930 0.9930 0.9940 0.9940 0.9930
1733.189472 0.9930 0.9900 0.9900 0.9890 0.9890
1737.534939 0.9890 0.9900 0.9900 0.9910 0.9910
1741.880406 0.9930 0.9930 0.9930 0.9940 0.9940
1746.225873 0.9910 0.9900 0.9900 0.9890 0.9910
1750.571340 0.9970 0.9950 0.9930 0.9900 0.9900
1754.916807 0.9900 0.9900 0.9900 0.9910 0.9900
1759.262274 0.9900 0.9900 0.9900 0.9900 0.9900
1763.607741 0.9900 0.9900 0.9900 0.9900 0.9900
1767.953208 0.9910 0.9930 0.9930 0.9940 0.9900
1772.298674 0.9900 0.9930 0.9910 0.9910 0.9900
1776.644141 0.9900 0.9890 0.9890 0.9890 0.9890
1780.989608 0.9890 0.9890 0.9900 1.0010 1.0010
1785.335075 0.9970 0.9910 0.9900 0.9890 0.9890
1789.680542 0.9870 0.9870 0.9870 0.9930 0.9910
1794.026009 0.9900 0.9890 0.9890 0.9860 0.9850
1798.371476 0.9850 0.9900 0.9900 0.9860 0.9860
1802.716943 0.9860 0.9870 0.9900 0.9890 0.9870
1807.062410 0.9870 0.9860 0.9860 0.9850 0.9850
1811.407877 0.9860 0.9860 0.9860 0.9860 0.9860
1815.753344 0.9860 0.9850 0.9860 0.9860 0.9860
1820.098810 0.9860 0.9850 0.9850 0.9850 0.9850
1824.444277 0.9830 0.9830 0.9830 0.9830 0.9830
1828.789744 0.9830 0.9820 0.9820 0.9820 0.9820
1833.135211 0.9820 0.9820 0.9820 0.9820 0.9820
1837.480678 0.9820 0.9830 0.9830 0.9830 0.9830
1841.826145 0.9830 0.9830 0.9850 0.9830 0.9820
1846.171612 0.9820 0.9820 0.9820 0.9820 0.9860
1850.517079 0.9820 0.9800 0.9800 0.9800 0.9800
1854.862546 0.9800 0.9820 0.9820 0.9830 0.9820
1859.208013 0.9820 0.9820 0.9820 0.9820 0.9850
1863.553479 0.9850 0.9850 0.9860 0.9860 0.9860
1867.898946 0.9860 0.9860 0.9860 0.9870 0.9890
1872.244413 0.9890 0.9890 0.9890 0.9890 0.9890
1876.589880 0.9890 0.9890 0.9890 0.9890 0.9900
1880.935347 0.9900 0.9870 0.9870 0.9870 0.9870
1885.280814 0.9870 0.9890 0.9890 0.9890 0.9890
1889.626281 0.9900 0.9900 0.9900 0.9900 0.9900
1893.971748 0.9900 0.9900 0.9890 0.9890 0.9890
1898.317215 0.9890 0.9890 0.9900 0.9900 0.9890
1902.662682 0.9890 0.9890 0.9870 0.9870 0.9870
1907.008149 0.9870 0.9860 0.9860 0.9860 0.9870
1911.353615 0.9890 0.9930 0.9930 0.9900 0.9900
1915.699082 0.9910 0.9940 0.9940 0.9910 0.9910
1920.044549 0.9900 0.9900 0.9970 0.9940 0.9940
1924.390016 0.9940 1.0080 1.0000 0.9910 0.9910
1928.735483 0.9900 0.9910 0.9910 0.9900 0.9890
1933.080950 0.9900 0.9900 0.9900 0.9910 0.9910
1937.426417 0.9910 0.9910 0.9900 0.9900 0.9900
1941.771884 0.9900 0.9900 0.9900 0.9900 0.9900
1946.117351 0.9910 0.9910 0.9910 0.9910 0.9910
1950.462818 0.9890 0.9890 1.0040 1.0020 0.9950
1954.808284 0.9890 0.9820 0.9820 0.9900 1.0050
1959.153751 1.0060 1.0000 0.9910 0.9900 0.9900
1963.499218 0.9900 0.9890 0.9890 0.9870 0.9870
1967.844685 0.9870 0.9870 0.9890 0.9890 0.9860
1972.190152 0.9860 0.9860 0.9860 0.9860 0.9850
1976.535619 0.9860 0.9860 0.9860 0.9860 0.9870
1980.881086 0.9870 0.9860 0.9860 0.9860 0.9860
1985.226553 0.9870 0.9870 0.9870 0.9890 0.9890
1989.572020 0.9870 0.9860 0.9860 0.9860 0.9860
1993.917487 0.9860 0.9860 0.9860 0.9860 0.9860
1998.262954 0.9860 0.9870 0.9900 0.9905 0.9910
2002.608420 0.9905 0.9900 0.9905 0.9910 0.9910
2006.953887 0.9910 0.9910 0.9910 0.9920 0.9930
2011.299354 0.9935 0.9940 0.9940 0.9940 0.9940
2015.644821 0.9940 0.9906 0.9870 0.9870 0.9870
2019.990288 0.9885 0.9900 0.9905 0.9910 0.9910
2024.335755 0.9910 0.9920 0.9930 0.9930 0.9930
2028.681222 0.9935 0.9940 0.9935 0.9930 0.9949
2033.026689 0.9969 0.9989 1.0010 1.0010 1.0010
2037.372156 1.0015 1.0020 1.0020 1.0020 1.0015
2041.717623 1.0010 1.0010 1.0010 1.0010 1.0010
2046.063089 1.0005 1.0000 1.0010 1.0020 1.0011
2050.408556 1.0000 0.9986 0.9970 0.9970 0.9970
2054.754023 0.9970 0.9970 0.9970 0.9970 0.9970
2059.099490 0.9970 0.9970 0.9970 0.9970 0.9970
2063.444957 0.9970 0.9970 0.9970 0.9970 0.9975
2067.790424 0.9980 0.9980 0.9980 0.9975 0.9970
2072.135891 0.9960 0.9950 0.9950 0.9950 0.9959
2076.481358 0.9969 0.9970 0.9970 0.9994 1.0019
2080.826825 1.0011 1.0001 0.9986 0.9971 0.9970
2085.172292 0.9970 0.9993 1.0019 1.0011 1.0001
2089.517759 0.9986 0.9971 0.9970 0.9970 0.9956
2093.863225 0.9941 0.9935 0.9930 0.9930 0.9930
2098.208692 0.9930 0.9930 0.9935 0.9940 0.9977
2102.554159 1.0017 1.0020 1.0020 1.0020 1.0020
2106.899626 1.0020 1.0020 1.0020 1.0020 1.0015
2111.245093 1.0010 1.0010 1.0010 1.0010 1.0010
2115.590560 1.0010 1.0010 1.0015 1.0020 0.9970
2119.936027 0.9915 1.0015 1.0131 1.0052 0.9957
2124.281494 0.9863 0.9768 0.9668 0.9568 0.9651
2128.626961 0.9751 0.9888 1.0028 1.0045 1.0050
2132.972428 1.0050 1.0050 1.0000 0.9945 0.9976
2137.317895 1.0016 1.0015 1.0010 1.0010 1.0010
2141.663361 1.0005 1.0000 1.0000 1.0000 1.0005
2146.008828 1.0010 1.0010 1.0010 1.0010 1.0010
2150.354295 1.0010 1.0010 0.9997 0.9982 0.9962
2154.699762 0.9942 0.9940 0.9940 0.9972 1.0007
2159.045229 1.0010 1.0010 1.0010 1.0010 1.0006
2163.390696 1.0000 1.0000 1.0000 1.0000 1.0000
2167.736163 1.0004 1.0009 1.0010 1.0010 1.0010
2172.081630 1.0010 1.0006 1.0000 1.0005 1.0009
2176.427097 1.0010 1.0010 0.9997 0.9982 0.9967
2180.772564 0.9952 0.9946 0.9941 0.9940 0.9940
2185.118030 0.9940 0.9940 0.9940 0.9940 0.9940
2189.463497 0.9940 0.9936 0.9931 0.9930 0.9930
2193.808964 0.9930 0.9930 0.9930 0.9930 0.9930
2198.154431 0.9930 0.9930 0.9930 0.9934 0.9939
2202.499898 0.9940 0.9940 0.9940 0.9940 0.9940
2206.845365 0.9940 0.9940 0.9940 0.9936 0.9931
2211.190832 0.9921 0.9911 0.9906 0.9901 0.9900
2215.536299 0.9900 0.9900 0.9900 0.9896 0.9891
2219.881766 0.9881 0.9871 0.9870 0.9870 0.9870
2224.227233 0.9870 0.9870 0.9870 0.9870 0.9870
2228.572700 0.9870 0.9870 0.9866 0.9861 0.9847
2232.918166 0.9832 0.9826 0.9821 0.9812 0.9802
2237.263633 0.9813 0.9828 0.9826 0.9821 0.9807
2241.609100 0.9793 0.9773 0.9753 0.9716 0.9676
2245.954567 0.9598 0.9513 0.9483 0.9463 0.9460
2250.300034 0.9460 0.9468 0.9478 0.9509 0.9544
2254.645501 0.9550 0.9550 0.9575 0.9605 0.9635
2258.990968 0.9665 0.9687 0.9707 0.9727 0.9747
2263.336435 0.9763 0.9777 0.9784 0.9789 0.9790
2267.681902 0.9790 0.9790 0.9790 0.9786 0.9781
2272.027369 0.9764 0.9744 0.9724 0.9704 0.9692
2276.372835 0.9682 0.9668 0.9653 0.9658 0.9668
2280.718302 0.9674 0.9679 0.9680 0.9680 0.9680
2285.063769 0.9680 0.9680 0.9680 0.9680 0.9680
2289.409236 0.9688 0.9698 0.9700 0.9700 0.9700
2293.754703 0.9700 0.9700 0.9700 0.9700 0.9700
2298.100170 0.9688 0.9673 0.9670 0.9670 0.9670
2302.445637 0.9670 0.9706 0.9751 0.9768 0.9778
2306.791104 0.9780 0.9780 0.9780 0.9780 0.9780
2311.136571 0.9780 0.9780 0.9780 0.9780 0.9780
2315.482038 0.9708 0.9618 0.9680 0.9780 0.9800
2319.827505 0.9800 0.9709 0.9594 0.9566 0.9561
2324.172971 0.9560 0.9560 0.9564 0.9569 0.9570
2328.518438 0.9570 0.9621 0.9687 0.9732 0.9772
2332.863905 0.9780 0.9780 0.9772 0.9762 0.9760
2337.209372 0.9760 0.9760 0.9760 0.9768 0.9778
2341.554839 0.9780 0.9780 0.9738 0.9683 0.9670
2345.900306 0.9670 0.9670 0.9670 0.9740 0.9830
2350.245773 0.9842 0.9832 0.9795 0.9750 0.9705
2354.591240 0.9660 0.9650 0.9650 0.9646 0.9641
2358.936707 0.9663 0.9693 0.9746 0.9806 0.9866
2363.282174 0.9925 0.9856 0.9745 0.9705 0.9685
2367.627640 0.9680 0.9680 0.9711 0.9751 0.9813
2371.973107 0.9883 0.9915 0.9935 0.9940 0.9940
2376.318574 0.9940 0.9940 0.9921 0.9896 0.9890
2380.664041 0.9890 0.9890 0.9890 0.9890 0.9890
2385.009508 0.9890 0.9890 0.9890 0.9890 0.9890
2389.354975 0.9890 0.9890 0.9890 0.9894 0.9899
2393.700442 0.9900 0.9900 0.9900 0.9900 0.9900
2398.045909 0.9900 0.9904 0.9909 0.9918 0.9927
2402.391376 0.9934 0.9939 0.9940 0.9940 0.9940
2406.736843 0.9940 0.9944 0.9949 0.9950 0.9950
2411.082310 0.9946 0.9941 0.9936 0.9931 0.9930
2415.427776 0.9930 0.9930 0.9930 0.9930 0.9930
2419.773243 0.9930 0.9930 0.9923 0.9913 0.9910
2424.118710 0.9910 0.9910 0.9910 0.9910 0.9910
2428.464177 0.9910 0.9910 0.9906 0.9901 0.9889
2432.809644 0.9874 0.9866 0.9861 0.9860 0.9860
2437.155111 0.9856 0.9851 0.9850 0.9850 0.9843
2441.500578 0.9833 0.9837 0.9847 0.9850 0.9850
2445.846045 0.9857 0.9867 0.9881 0.9896 0.9904
2450.191512 0.9909 0.9917 0.9927 0.9930 0.9930
2454.536979 0.9930 0.9930 0.9930 0.9930 0.9930
2458.882446 0.9930 0.9934 0.9939 0.9944 0.9949
2463.227912 0.9950 0.9950 0.9950 0.9950 0.9950
2467.573379 0.9950 0.9947 0.9941 0.9936 0.9931
2471.918846 0.9930 0.9930 0.9930 0.9930 0.9930
2476.264313 0.9930 0.9930 0.9930 0.9933 0.9938
2480.609780 0.9943 0.9948 0.9950 0.9950 0.9950
2484.955247 0.9950 0.9950 0.9950 0.9950 0.9950
2489.300714 0.9950 0.9950 0.9950 0.9950 0.9947
2493.646181 0.9942 0.9940 0.9940 0.9940 0.9940
2497.991648 0.9940 0.9940 0.9943 0.9948 0.9950
2502.337115 0.9950 0.9947 0.9942 0.9940 0.9940
2506.682581 0.9940 0.9940 0.9940 0.9940 0.9940
2511.028048 0.9940 0.9937 0.9932 0.9930 0.9930
2515.373515 0.9923 0.9913 0.9910 0.9910 0.9910
2519.718982 0.9910 0.9917 0.9927 0.9933 0.9938
2524.064449 0.9940 0.9940 0.9940 0.9940 0.9943
2528.409916 0.9948 0.9950 0.9950 0.9950 0.9950
2532.755383 0.9950 0.9950 0.9950 0.9950 0.9950
2537.100850 0.9950 0.9950 0.9950 0.9950 0.9950
2541.446317 0.9943 0.9933 0.9930 0.9930 0.9933
2545.791784 0.9938 0.9940 0.9940 0.9943 0.9948
2550.137251 0.9969 0.9999 1.0010 1.0010 1.0007
2554.482717 1.0002 1.0000 1.0000 1.0000 1.0000
2558.828184 0.9984 0.9959 0.9947 0.9942 0.9943
2563.173651 0.9948 0.9950 0.9950 0.9950 0.9950
2567.519118 0.9950 0.9950 0.9950 0.9950 0.9956
2571.864585 0.9966 0.9964 0.9954 0.9947 0.9942
2576.210052 0.9943 0.9948 0.9947 0.9942 0.9930
2580.555519 0.9916 0.9910 0.9910 0.9907 0.9902
2584.900986 0.9903 0.9908 0.9916 0.9926 0.9936
2589.246453 0.9946 0.9956 0.9966 0.9970 0.9970
2593.591920 0.9970 0.9970 0.9970 0.9970 0.9964
2597.937386 0.9954 0.9950 0.9950 0.9950 0.9950
2602.282853 0.9950 0.9950 0.9947 0.9942 0.9940
2606.628320 0.9940 0.9943 0.9948 0.9947 0.9942
2610.973787 0.9940 0.9940 0.9937 0.9932 0.9930
2615.319254 0.9930 0.9924 0.9914 0.9907 0.9902
2619.664721 0.9903 0.9908 0.9898 0.9878 0.9858
2624.010188 0.9838 0.9815 0.9790 0.9771 0.9756
2628.355655 0.9741 0.9726 0.9726 0.9736 0.9755
2632.701122 0.9780 0.9808 0.9838 0.9862 0.9882
2637.046589 0.9896 0.9906 0.9916 0.9926 0.9933
2641.392056 0.9938 0.9940 0.9940 0.9940 0.9940
2645.737522 0.9940 0.9940 0.9937 0.9932 0.9954
2650.082989 0.9994 1.0010 1.0010 1.0001 0.9986
2654.428456 0.9971 0.9956 0.9947 0.9942 0.9940
2658.773923 0.9940 0.9940 0.9940 0.9940 0.9940
2663.119390 0.9937 0.9932 0.9933 0.9938 0.9940
2667.464857 0.9940 0.9940 0.9940 0.9937 0.9932
2671.810324 0.9933 0.9938 0.9940 0.9940 0.9940
2676.155791 0.9940 0.9937 0.9932 0.9930 0.9930
2680.501258 0.9933 0.9938 0.9943 0.9948 0.9950
2684.846725 0.9950 0.9950 0.9950 0.9950 0.9950
2689.192191 0.9956 0.9966 0.9970 0.9970 0.9962
2693.537658 0.9947 0.9940 0.9940 0.9940 0.9940
2697.883125 0.9943 0.9948 0.9950 0.9950 0.9950
2702.228592 0.9950 0.9947 0.9942 0.9937 0.9932
2706.574059 0.9930 0.9930 0.9930 0.9930 0.9930
2710.919526 0.9930 0.9930 0.9930 0.9933 0.9938
2715.264993 0.9940 0.9940 0.9943 0.9948 0.9955
2719.610460 0.9965 0.9973 0.9978 0.9988 1.0003
2723.955927 1.0010 1.0010 1.0010 1.0010 1.0007
2728.301394 1.0002 0.9995 0.9985 0.9969 0.9949
2732.646861 0.9940 0.9940 0.9940 0.9940 0.9940
2736.992327 0.9940 0.9940 0.9940 0.9943 0.9948
2741.337794 0.9950 0.9950 0.9945 0.9935 0.9930
2745.683261 0.9930 0.9930 0.9930 0.9933 0.9938
2750.028728 0.9940 0.9940 0.9943 0.9948 0.9955
2754.374195 0.9965 0.9970 0.9970 0.9970 0.9970
2758.719662 0.9970 0.9970 0.9973 0.9978 0.9977
2763.065129 0.9972 0.9965 0.9955 0.9947 0.9942
2767.410596 0.9940 0.9940 0.9943 0.9948 0.9945
2771.756063 0.9935 0.9930 0.9930 0.9933 0.9938
2776.101530 0.9940 0.9940 0.9937 0.9932 0.9935
2780.446996 0.9945 0.9950 0.9950 0.9940 0.9920
2784.792463 0.9910 0.9910 0.9910 0.9910 0.9915
2789.137930 0.9925 0.9932 0.9937 0.9942 0.9947
2793.483397 0.9948 0.9943 0.9940 0.9940 0.9940
2797.828864 0.9940 0.9938 0.9933 0.9930 0.9930
2802.174331 0.9930 0.9930 0.9930 0.9930 0.9930
2806.519798 0.9930 0.9930 0.9930 0.9930 0.9930
2810.865265 0.9930 0.9930 0.9930 0.9930 0.9930
2815.210732 0.9930 0.9930 0.9930 0.9932 0.9937
2819.556199 0.9940 0.9940 0.9942 0.9947 0.9950
2823.901666 0.9950 0.9950 0.9950 0.9950 0.9950
2828.247132 0.9950 0.9950 0.9950 0.9950 0.9950
2832.592599 0.9950 0.9950 0.9950 0.9950 0.9950
2836.938066 0.9950 0.9950 0.9950 0.9950 0.9950
2841.283533 0.9950 0.9948 0.9943 0.9938 0.9933
2845.629000 0.9930 0.9930 0.9930 0.9930 0.9925
2849.974467 0.9915 0.9917 0.9932 0.9940 0.9940
2854.319934 0.9940 0.9940 0.9940 0.9940 0.9940
2858.665401 0.9940 0.9940 0.9940 0.9938 0.9933
2863.010868 0.9930 0.9930 0.9930 0.9930 0.9930
2867.356335 0.9930 0.9930 0.9930 0.9932 0.9937
2871.701802 0.9938 0.9933 0.9930 0.9930 0.9930
2876.047268 0.9930 0.9926 0.9916 0.9908 0.9903
2880.392735 0.9902 0.9907 0.9934 0.9989 1.0024
2884.738202 1.0034 1.0042 1.0047 1.0048 1.0043
2889.083669 1.0031 1.0011 0.9989 0.9964 0.9948
2893.429136 0.9943 0.9942 0.9947 0.9950 0.9950
2897.774603 0.9950 0.9950 0.9948 0.9943 0.9942
2902.120070 0.9947 0.9948 0.9943 0.9938 0.9933
2906.465537 0.9930 0.9930 0.9930 0.9930 0.9926
2910.811004 0.9916 0.9914 0.9924 0.9930 0.9930
2915.156471 0.9930 0.9930 0.9930 0.9930 0.9932
2919.501937 0.9937 0.9940 0.9940 0.9934 0.9919
2923.847404 0.9910 0.9910 0.9910 0.9910 0.9910
2928.192871 0.9910 0.9910 0.9910 0.9910 0.9910
2932.538338 0.9908 0.9903 0.9900 0.9900 0.9900
2936.883805 0.9900 0.9900 0.9900 0.9900 0.9900
2941.229272 0.9900 0.9900 0.9898 0.9893 0.9890
2945.574739 0.9890 0.9890 0.9890 0.9886 0.9876
2949.920206 0.9874 0.9884 0.9886 0.9876 0.9868
2954.265673 0.9863 0.9858 0.9853 0.9850 0.9850
2958.611140 0.9850 0.9850 0.9846 0.9836 0.9820
2962.956607 0.9795 0.9772 0.9752 0.9736 0.9726
2967.302073 0.9720 0.9720 0.9720 0.9720 0.9716
2971.647540 0.9706 0.9691 0.9665 0.9638 0.9608
2975.993007 0.9576 0.9541 0.9506 0.9472 0.9423
2980.338474 0.9353 0.9295 0.9255 0.9215 0.9175
2984.683941 0.9148 0.9143 0.9142 0.9147 0.9159
2989.029408 0.9184 0.9213 0.9248 0.9295 0.9360
2993.374875 0.9440 0.9545 0.9629 0.9679 0.9716
2997.720342 0.9731 0.9744 0.9754 0.9764 0.9774
3002.065809 0.9782 0.9787 0.9795 0.9810 0.9820
3006.411276 0.9820 0.9822 0.9827 0.9836 0.9851
3010.756742 0.9862 0.9867 0.9870 0.9870 0.9870
3015.102209 0.9870 0.9870 0.9870 0.9870 0.9870
3019.447676 0.9870 0.9870 0.9868 0.9863 0.9860
3023.793143 0.9860 0.9858 0.9853 0.9846 0.9836
3028.138610 0.9830 0.9830 0.9828 0.9823 0.9815
3032.484077 0.9800 0.9788 0.9783 0.9780 0.9780
3036.829544 0.9777 0.9767 0.9750 0.9720 0.9690
3041.175011 0.9660 0.9633 0.9613 0.9595 0.9580
3045.520478 0.9561 0.9536 0.9503 0.9453 0.9411
3049.865945 0.9387 0.9346 0.9276 0.9212 0.9157
3054.211412 0.9105 0.9060 0.9025 0.9010 0.9002
3058.556878 0.9007 0.9028 0.9083 0.9137 0.9187
3062.902345 0.9242 0.9307 0.9360 0.9390 0.9423
3067.247812 0.9463 0.9500 0.9530 0.9556 0.9576
3071.593279 0.9596 0.9616 0.9636 0.9656 0.9672
3075.938746 0.9677 0.9683 0.9693 0.9710 0.9740
3080.284213 0.9765 0.9780 0.9792 0.9797 0.9800
3084.629680 0.9800 0.9803 0.9813 0.9825 0.9840
3088.975147 0.9850 0.9850 0.9852 0.9857 0.9865
3093.320614 0.9880 0.9890 0.9890 0.9890 0.9890
3097.666081 0.9890 0.9890 0.9892 0.9897 0.9898
3102.011547 0.9893 0.9892 0.9897 0.9900 0.9900
3106.357014 0.9900 0.9900 0.9900 0.9900 0.9901
3110.702481 0.9906 0.9913 0.9923 0.9932 0.9937
3115.047948 0.9940 0.9940 0.9940 0.9940 0.9941
3119.393415 0.9946 0.9949 0.9944 0.9940 0.9940
3123.738882 0.9940 0.9940 0.9939 0.9934 0.9927
3128.084349 0.9917 0.9913 0.9923 0.9930 0.9930
3132.429816 0.9933 0.9943 0.9959 0.9989 1.0009
3136.775283 1.0004 0.9996 0.9981 0.9974 0.9989
3141.120750 1.0000 1.0000 1.0000 1.0000 1.0000
3145.466217 1.0000 1.0001 1.0006 1.0010 1.0010
3149.811683 1.0009 1.0004 1.0000 1.0000 1.0000
3154.157150 1.0000 1.0000 1.0000 0.9997 0.9987
3158.502617 0.9984 0.9999 1.0010 1.0010 1.0010
3162.848084 1.0010 1.0010 1.0010 1.0010 1.0010
3167.193551 1.0011 1.0016 1.0020 1.0020 1.0017
3171.539018 1.0007 0.9996 0.9981 0.9970 0.9970
3175.884485 0.9971 0.9976 0.9984 0.9999 1.0011
3180.229952 1.0016 1.0023 1.0033 1.0041 1.0046
3184.575419 1.0051 1.0056 1.0060 1.0060 1.0059
3188.920886 1.0054 1.0046 1.0031 1.0020 1.0020
3193.266353 1.0020 1.0020 1.0020 1.0020 1.0020
3197.611819 1.0020 1.0019 1.0014 1.0010 1.0010
3201.957286 1.0010 1.0010 1.0010 1.0010 1.0010
3206.302753 1.0010 1.0010 1.0010 1.0010 1.0010
3210.648220 1.0009 1.0004 1.0001 1.0006 1.0011
3214.993687 1.0016 1.0020 1.0020 1.0022 1.0032
3219.339154 1.0042 1.0052 1.0060 1.0060 1.0059
3223.684621 1.0054 1.0050 1.0050 1.0050 1.0050
3228.030088 1.0050 1.0050 1.0049 1.0044 1.0040
3232.375555 1.0040 1.0040 1.0040 1.0040 1.0040
3236.721022 1.0040 1.0040 1.0041 1.0046 1.0049
3241.066488 1.0044 1.0040 1.0040 1.0040 1.0040
3245.411955 1.0040 1.0040 1.0041 1.0046 1.0051
3249.757422 1.0056 1.0060 1.0060 1.0060 1.0060
3254.102889 1.0060 1.0060 1.0060 1.0060 1.0062
3258.448356 1.0072 1.0080 1.0080 1.0078 1.0068
3262.793823 1.0060 1.0060 1.0060 1.0060 1.0060
3267.139290 1.0060 1.0060 1.0060 1.0060 1.0060
3271.484757 1.0060 1.0060 1.0060 1.0060 1.0060
3275.830224 1.0060 1.0060 1.0060 1.0060 1.0060
3280.175691 1.0060 1.0060 1.0059 1.0054 1.0050
3284.521158 1.0050 1.0050 1.0050 1.0051 1.0056
3288.866624 1.0060 1.0060 1.0059 1.0054 1.0050
3293.212091 1.0050 1.0050 1.0050 1.0050 1.0050
3297.557558 1.0050 1.0050 1.0050 1.0050 1.0050
3301.903025 1.0050 1.0050 1.0050 1.0050 1.0050
3306.248492 1.0050 1.0050 1.0050 1.0050 1.0050
3310.593959 1.0050 1.0050 1.0050 1.0050 1.0050
3314.939426 1.0050 1.0050 1.0050 1.0050 1.0051
3319.284893 1.0056 1.0060 1.0060 1.0060 1.0060
3323.630360 1.0059 1.0054 1.0050 1.0050 1.0050
3327.975827 1.0050 1.0051 1.0056 1.0060 1.0060
3332.321293 1.0060 1.0060 1.0060 1.0060 1.0060
3336.666760 1.0060 1.0060 1.0060 1.0060 1.0060
3341.012227 1.0059 1.0054 1.0050 1.0050 1.0050
3345.357694 1.0050 1.0050 1.0050 1.0050 1.0050
3349.703161 1.0050 1.0050 1.0050 1.0050 1.0050
3354.048628 1.0050 1.0050 1.0050 1.0050 1.0050
3358.394095 1.0050 1.0050 1.0050 1.0050 1.0049
3362.739562 1.0044 1.0040 1.0040 1.0040 1.0040
3367.085029 1.0040 1.0040 1.0041 1.0046 1.0050
3371.430496 1.0050 1.0050 1.0050 1.0049 1.0044
3375.775963 1.0040 1.0040 1.0041 1.0046 1.0050
3380.121429 1.0050 1.0049 1.0044 1.0040 1.0040
3384.466896 1.0040 1.0040 1.0041 1.0046 1.0050
3388.812363 1.0050 1.0051 1.0056 1.0060 1.0060
3393.157830 1.0059 1.0054 1.0050 1.0050 1.0051
3397.503297 1.0056 1.0060 1.0060 1.0059 1.0049
3401.848764 1.0039 1.0029 1.0020 1.0020 1.0020
3406.194231 1.0020 1.0020 1.0020 1.0021 1.0031
3410.539698 1.0040 1.0040 1.0040 1.0040 1.0040
3414.885165 1.0040 1.0040 1.0040 1.0040 1.0046
3419.230632 1.0050 1.0050 1.0050 1.0045 1.0040
3423.576098 1.0040 1.0040 1.0040 1.0040 1.0040
3427.921565 1.0040 1.0040 1.0039 1.0029 1.0020
3432.267032 1.0020 1.0020 1.0020 1.0020 1.0020
3436.612499 1.0020 1.0020 1.0020 1.0020 1.0020
3440.957966 1.0015 1.0010 1.0010 1.0010 1.0005
3445.303433 1.0000 1.0006 1.0011 1.0026 1.0040
3449.648900 1.0045 1.0049 1.0034 1.0020 1.0020
3453.994367 1.0020 1.0020 1.0020 1.0020 1.0020
3458.339834 1.0015 1.0010 1.0010 1.0011 1.0026
3462.685301 1.0040 1.0040 1.0040 1.0040 1.0040
3467.030768 1.0040 1.0041 1.0051 1.0060 1.0060
3471.376234 1.0060 1.0055 1.0050 1.0050 1.0050
3475.721701 1.0050 1.0050 1.0050 1.0050 1.0050
3480.067168 1.0050 1.0045 1.0039 1.0029 1.0020
3484.412635 1.0020 1.0020 1.0015 1.0010 1.0015
3488.758102 1.0020 1.0015 1.0010 1.0010 1.0010
3493.103569 1.0010 1.0010 1.0005 1.0000 1.0000
3497.449036 0.9999 0.9989 0.9981 1.0001 1.0020
3501.794503 1.0015 1.0009 0.9994 0.9980 0.9980
3506.139970 0.9980 0.9980 0.9980 0.9975 0.9970
3510.485437 0.9970 0.9970 0.9970 0.9970 0.9970
3514.830903 0.9971 0.9996 1.0020 1.0031 1.0040
3519.176370 1.0040 1.0040 1.0040 1.0040 1.0040
3523.521837 1.0040 1.0040 1.0040 1.0030 1.0020
3527.867304 1.0020 1.0020 1.0020 1.0020 1.0030
3532.212771 1.0040 1.0040 1.0040 1.0040 1.0040
3536.558238 1.0040 1.0040 1.0050 1.0060 1.0060
3540.903705 1.0060 1.0040 1.0020 1.0020 1.0020
3545.249172 1.0015 1.0010 1.0010 1.0010 1.0005
3549.594639 1.0000 0.9990 0.9980 0.9980 0.9980
3553.940106 0.9980 0.9980 0.9980 0.9980 0.9980
3558.285573 0.9980 0.9990 1.0000 1.0000 1.0000
3562.631039 1.0000 1.0000 1.0005 1.0010 1.0015
3566.976506 1.0020 1.0030 1.0040 1.0040 1.0040
3571.321973 1.0025 1.0010 1.0005 1.0000 0.9990
3575.667440 0.9980 0.9975 0.9970 0.9955 0.9940
3580.012907 0.9935 0.9930 0.9920 0.9910 0.9920
3584.358374 0.9930 0.9955 0.9980 0.9995 1.0010
3588.703841 1.0010 1.0010 1.0010 1.0010 1.0010
3593.049308 1.0010 1.0005 1.0000 1.0000 1.0000
3597.394775 0.9985 0.9970 0.9970 0.9970 0.9970
3601.740242 0.9970 0.9970 0.9970 0.9975 0.9980
3606.085709 0.9995 1.0010 1.0025 1.0040 1.0040
3610.431175 1.0040 1.0025 1.0010 1.0010 1.0010
3614.776642 1.0010 1.0010 1.0010 1.0010 1.0025
3619.122109 1.0040 1.0040 1.0040 1.0020 1.0000
3623.467576 0.9971 0.9941 0.9989 1.0039 1.0040
3627.813043 1.0040 1.0030 1.0020 1.0015 1.0010
3632.158510 1.0010 1.0010 1.0005 1.0000 1.0005
3636.503977 1.0010 1.0015 1.0020 1.0020 1.0020
3640.849444 1.0020 1.0020 1.0020 1.0020 1.0015
3645.194911 1.0010 1.0005 1.0000 0.9986 0.9971
3649.540378 0.9960 0.9950 0.9950 0.9950 0.9945
3653.885844 0.9940 0.9945 0.9950 0.9960 0.9970
3658.231311 0.9975 0.9980 0.9994 1.0009 1.0010
3662.576778 1.0010 1.0010 1.0010 1.0010 1.0010
3666.922245 1.0015 1.0020 1.0030 1.0040 1.0040
3671.267712 1.0040 1.0026 1.0011 1.0010 1.0010
3675.613179 1.0005 1.0000 0.9986 0.9971 0.9961
3679.958646 0.9951 0.9945 0.9940 0.9940 0.9940
3684.304113 0.9973 1.0008 1.0010 1.0010 1.0005
3688.649580 1.0000 1.0000 1.0000 1.0000 1.0000
3692.995047 1.0000 1.0000 0.9991 0.9981 0.9980
3697.340514 0.9980 0.9980 0.9980 0.9980 0.9980
3701.685980 0.9980 0.9980 0.9989 0.9999 1.0000
3706.031447 1.0000 1.0000 1.0000 1.0000 1.0000
3710.376914 0.9986 0.9971 0.9961 0.9951 0.9950
3714.722381 0.9950 0.9950 0.9950 0.9959 0.9969
3719.067848 0.9970 0.9970 0.9970 0.9970 0.9975
3723.413315 0.9980 0.9989 0.9999 1.0000 1.0000
3727.758782 1.0000 1.0000 1.0000 1.0000 0.9991
3732.104249 0.9981 0.9980 0.9980 0.9975 0.9970
3736.449716 0.9961 0.9951 0.9950 0.9950 0.9959
3740.795183 0.9969 0.9993 1.0018 1.0020 1.0020
3745.140649 1.0029 1.0039 1.0040 1.0040 1.0040
3749.486116 1.0040 1.0031 1.0021 1.0011 1.0001
3753.831583 0.9978 0.9953 0.9946 0.9940 0.9940
3758.177050 0.9940 0.9976 1.0016 1.0029 1.0039
3762.522517 1.0027 1.0012 1.0006 1.0001 0.9987
3766.867984 0.9972 0.9970 0.9970 0.9961 0.9951
3771.213451 0.9950 0.9950 0.9950 0.9950 0.9990
3775.558918 1.0035 1.0022 1.0002 0.9978 0.9953
3779.904385 0.9946 0.9941 0.9940 0.9940 0.9971
3784.249852 1.0006 1.0010 1.0010 1.0014 1.0019
3788.595319 1.0020 1.0020 1.0020 1.0020 1.0029
3792.940785 1.0039 1.0031 1.0021 1.0020 1.0020
3797.286252 1.0016 1.0011 1.0010 1.0010
##END=
