##TITLE=Dichloromethane
##JCAMP-DX=4.24
##DATA TYPE=INFRARED SPECTRUM
##CLASS=IUPAC A
##ORIGIN=NIST, Analytical Chemistry Division, 301-975-3108
##OWNER=COPYRIGHT (C) 2001 by the U.S. Secretary of Commerce
##DATE=01/06/01
##$SPECTRA VERSION=1.10
##$UNCERTAINTY IN Y=2.1 % relative (B=1.12E-04,C=8.08E-10,D=1.49E-14)
##CAS NAME=Dichloromethane
##CAS REGISTRY NO=75-09-2
##MOLFORM=C H2 Cl2
##MP=-95.1 C
##BP=40 C
##$NIST SOURCE=QUANT-IR
##SPECTROMETER/DATA SYSTEM=IFS66V (Bruker)
##INSTRUMENT PARAMETERS=KBr Beam Splitter; MCT Detector; Multipass cell
##STATE=gas
##SAMPLE DESCRIPTION=Dichloromethane Primary Gas Standard
##PRESSURE=101.3 Pa
##TEMPERATURE=23 C
##SAMPLING PROCEDURE=1 L/min Flow
##RESOLUTION=0.9640
##DATA PROCESSING=Happ Genzel Apodization
##XUNITS=cm-1
##YUNITS=(micromol/mol)-1m-1 (base 10)
##XFACTOR=1.0
##YFACTOR=9.0949E-13
##DELTAX=0.4820
##FIRSTX=575.17
##LASTX=3974.606
##FIRSTY=5.69E-07
##MAXX=3974.12
##MINX=575.17
##MAXY=.0008523
##MINY=-8.14E-07
##NPOINTS=7052
##XYDATA=(X++(Y..Y))
575.17 625805 772487 63286 106761-30646-474857
577.58-354648 108103 165789 632361 85172 26136
580.47 158645 241993-80434-895353-618888-316522
583.37 69831 328026-62310 185112 581750 452236
586.26-31535-96961-59008-90219-17472-91496
589.15 188355-95449-563880-654296-8125 562052
592.04 604269 514540 259732 67663 317084 725925
594.94 636008 124017-171237-470924-469442-26902
597.83 84801-101782 60572 428902 339175-17851
600.72-52455 264835 566367 654362 449408-34410
603.62 215577 330740 52975-57692-50453-384665
606.51-54838 448120 135092-124217-195756-370298
609.40-257586-63907-93174-150536 81586-86005
612.29-97598-29440-148918-422821-467236-56568
615.19 163889-730-76758 5363 8592 104608
618.08 303639 152879-179206-168065 28320 56590
620.97 148390 147952 14788-291048-390454-225486
623.86 102593 30175-51471 277733 17731-200030
626.76 228943 377897 210269-149842-212065-119936
629.65-250052-316967-446768-301066 32874-34357
632.54 86550 204464 145739 118244 400575 615708
635.44 430948 102619 136175 256234 238702 149533
638.33 139852 228100 310537 266737 170938 374081
641.22 461805 252719 136744 403124 536435 392937
644.11 424295 275145 202827 222596 289599 466908
647.01 520028 453003 441027 426457 354709 421252
649.90 542921 770339 969316 872000 682502 688112
652.79 1063663 1339970 1364216 1545144 1606838 1323181
655.68 1287865 1317402 1231490 1351509 1712947 1980375
658.58 2175716 2335983 2424191 2322958 2285636 2501522
661.47 2809371 2987800 2852603 2937617 3342863 3536312
664.36 3499721 3629678 3880171 4246709 4555666 5290683
667.26 6228121 6129321 5602584 5380721 5780725 6397586
670.15 6504290 6418182 6747999 7205933 7674193 7986057
673.04 7824829 7734016 8188995 8807822 9381006 9603012
675.93 9577002 9813968 10298395 10654858 10688059 10702282
678.83 10967706 11410359 11989056 12509206 12924847 13470460
681.72 13818524 13979423 14362632 14933339 15561052 16050415
684.61 16440563 17005879 17546500 17797888 18092759 18717592
687.50 19258024 19498729 19920250 20501015 21245120 21655823
690.40 22096569 22771007 22996544 23254937 24216070 25026668
693.29 25310529 25619492 26395579 27153303 27246192 27686516
696.18 28699244 29668013 29874780 30113553 31502471 32459605
699.08 32279919 32803219 34225628 34991457 35090735 36262408
701.97 37819628 38417537 37408171 36403387 38261097 41632034
704.86 41451071 39750369 39120650 38654881 40281240 43053752
707.75 41991171 38500783 36066310 37794219 40716403 39558760
710.65 34642639 32930490 34354529 36877564 34696029 31348716
713.54 32823680 35457160 35045025 34135782 35065156 38385572
716.43 42596717 44557128 46237481 48855678 52111171 57115315
719.32 64216797 68348609 68593484 68996683 72694932 77081770
722.22 79570770 81664172 82878855 84298106 84869710 83828824
725.11 82890144 80961817 78725657 80128659 82921078 80560114
728.00 75621581 73023835 72618646 74638055 77789920 80607423
730.90 83076594 86050459 90009053 95893140 102920896 111047876
733.79 120279993 129427361 138556623 149383196 161709932 176151877
736.68 193241448 211796438 229537009 247211997 268199671 292735788
739.57 318999643 347299413 376807260 407485527 440771544 475962729
742.47 512143692 549314782 586151984 622744993 660488359 699303534
745.36 736915737 772816464 805863543 834282360 861049318 888416494
748.25 913154293 929948732 937151850 934416356 925260351 916690019
751.14 912059239 898187232 866958137 826312460 787618320 754239602
754.04 732841217 732422250 736896322 735503302 712914124 691414507
756.93 678986154 688031103 744991761 773526426 728442532 622323926
759.82 564656704 590323839 644891723 698595970 740231550 770438848
762.72 790965128 802801227 806046161 802264112 791419014 774379186
765.61 751541350 723536109 691118700 653908890 613690183 572716685
768.50 530068793 486195074 442356789 399213830 357662206 318546856
771.39 281822211 247308413 215284882 186291675 160177987 136574256
774.29 115488362 97040635 80956991 67057908 55178917 45039402
777.18 36445053 29454086 23648970 18901474 14840906 11707123
780.07 9183085 7171779 5592192 4425742 3583498 2906795
782.96 2211575 1652588 1350149 1295338 862836 517614
785.86 354681 281652 457267 496489 327600 237954
788.75 121262 190534 374801 356204 262300 398517
791.64 272581 47204 128299 30354 64087 151245
794.54 112926 57481 91418 183947 241083 195695
797.43 145958 183156 71284-36637-130088-93263
800.32 6779 99036 252360 263218 111291 50900
803.21-9358-76935-134659 15598 125022 123304
806.11 15447-59134 51185 72595 11716-13820
809.00-78457-17504 57910 104748-151665-334168
811.89-123422 198857 212664 108906 62265 120822
814.78 145511 79762-22439-97788-74177 163693
817.68 193935 3231-126010-56779-63852 20941
820.57 81037 54722 47662 60502 2006-15808
823.46-166978-121266 50011 7839-38322 122359
826.36 93787 67199 142346 21553-175455-195819
829.25-83476-42030-60569-65024-43846-24541
832.14 26795 107168-66951-223497-265445-260713
835.03-248650-175252-140644-56657 102263 131173
837.93-42-55978-141457-145550-67200 45204
840.82-392-19246-108541-119383-73345-69345
843.71 46376 38025-74560-58908 12257 56713
846.60 54391-101403-129963 51982 170729 324096
849.50 264650 109172-48057-147498-95467 36754
852.39 110940-3129-14144 124343 187132 155827
855.28 117811 181039 279483 219995 34970 42218
858.18 40508 15898 33578 90123 184650 357771
861.07 438470 416981 451671 539276 542887 522327
863.96 478988 387539 464860 507827 404214 476440
866.85 736063 826376 659728 697592 817772 728442
869.75 724469 872873 1076107 1009176 974296 1189007
872.64 1327637 1326680 1309080 1416062 1460296 1424705
875.53 1559388 1697588 1665743 1607823 1797838 2000934
878.42 1813303 1690804 2031334 2289345 2249429 2161008
881.32 2300833 2324877 2131386 2100421 2385276 2495400
884.21 2370407 2526663 2782550 2714569 2421584 2466553
887.10 3032884 2941770 2466345 2445852 2951534 3040743
890.00 2505769 2268760 2616188 2888347 2669266 2661557
892.89 3075231 3471887 3612244 4089882 4789405 5595750
895.78 6646486 7958441 9395901 10490377 9154619 6237067
898.67 4511105 3862196 3615922 3472328 3340129 3128190
901.57 2992695 2990954 3042811 3020062 2944527 2956801
904.46 3237876 3082768 2843511 3210169 3707489 3414569
907.35 3011473 3295553 3717391 3568021 3290589 3468742
910.24 3866040 3755388 3313373 3372737 3940318 4026816
913.14 3582657 3580017 3849383 3820342 3507486 3507152
916.03 3830076 3898809 3504042 3527601 3850315 3831693
918.92 3470893 3460262 3628993 3659582 3309177 3159031
921.82 3302419 3249038 2905038 2911009 3053469 2975308
924.71 2733583 2634009 2752079 2811648 2541244 2502011
927.60 2538344 2522754 2293497 2159129 2216651 2225153
930.49 2032253 1841718 1905050 2025010 1854673 1715292
933.39 1770766 1835307 1673494 1471126 1394585 1471219
936.28 1417088 1382428 1387730 1410622 1374503 1306490
939.17 1251752 1196102 1183911 1069544 958569 980166
942.06 999628 875132 834578 807954 844443 793964
944.96 725404 701628 622981 647442 649988 624488
947.85 590969 554572 551478 576836 553457 452873
950.74 350126 391097 393857 370820 328461 289180
953.64 354287 416402 370757 232347 160983 262126
956.53 309814 305696 208011 132105 209783 288905
959.42 278005 243704 187361 111528 145274 186100
962.31 218903 177111 84595 129683 217339 246398
965.21 210457 236165 279800 207742 167456 267901
968.10 312669 256959 211201 232163 270801 264033
970.99 228434 220037 325164 354093 302182 329674
973.88 336128 302108 303022 373383 452009 486732
976.78 427207 401403 384598 448064 448223 401249
979.67 427986 459013 376168 293366 257336 333634
982.56 422351 428483 350508 379581 446789 396500
985.46 346466 336642 319995 333625 395135 393992
988.35 376128 380436 327916 346487 332111 257558
991.24 259733 350039 426720 386485 354023 380413
994.13 396952 426263 419306 414401 380462 317686
997.03 261067 261641 250669 305645 415682 352568
999.92 317629 381152 448979 447451 425428 362525
1002.81 293227 315400 310885 209440 209811 317785
1005.70 338005 215041 101441 103413 171002 241969
1008.60 275843 255926 216347 224261 192483 106810
1011.49 33767 123944 156556 87184 63606 150756
1014.38 240530 218605 230767 261643 203077 237969
1017.28 293711 226446 136408 196972 240109 221162
1020.17 161716 125684 151850 235152 274926 264820
1023.06 305093 394506 355380 351410 393643 383075
1025.95 305929 195036 195857 372631 361688 305733
1028.85 278406 324816 377767 332011 325268 395178
1031.74 381399 330546 391057 466857 367873 333441
1034.63 293251 347183 412091 348633 316946 243008
1037.52 243470 286788 482541 561931 410707 386325
1040.42 385887 352281 243652 293682 413798 431604
1043.31 455026 389908 262042 334402 421765 427256
1046.20 319701 301494 317301 250956 177168 170200
1049.10 253157 282782 103917 56442 155136 251091
1051.99 280456 171710 130337 13538-72485-58316
1054.88 4531 48217 23310-4505-38030-75702
1057.77-166135-101058-22279-38471-20304 87187
1060.67 92480-54122-135574-201024-235519-215041
1063.56-118849-24491-71430-147068-71364-70803
1066.45-74858 18026 30926-38859-53044-59110
1069.34-90463-111761-114093-32218-4512-74236
1072.24-165553-160602-212789-108370-61016-79334
1075.13-71488-39632-3840 29028-73318-120767
1078.02-98309-23240-48730-86159-114678-155435
1080.92-70529-51259-75140-89995-72226-17425
1083.81-91786-145233-75599 18545 13276-88250
1086.70-105377-25786-19483 13919 50448 58376
1089.59-11936-112501-128955-67403-78786-12921
1092.49 65141 4860-122911-199301-136608 78233
1095.38 61399-37099-44802-61715-79744-23279
1098.27 4451-13369-87630-85958-32308-116567
1101.16-155116-124264-110758-12214-33021-93442
1104.06-63248-38888-61274-130919-125958-61648
1106.95-44493 43480-8505-22877 24889 18748
1109.84-63803-59233 26308-45192-154505-82905
1112.74-36225-87434-113849-151929-131501-1992
1115.63 18561-126894-197224-157516-101601-97382
1118.52-89991-20465-25628-65199-56859-36477
1121.41-38823-96080-125528-15331-20549-102659
1124.31-150300-97695-58662-60393-112441-82085
1127.20 1153-15183-100615-65762 34843 77119
1130.09 35499-42539-43949-11753-11866-81822
1132.98-111230-101495-66987-56857-87398-48192
1135.88 3137 7116-57005-76213-31689-21171
1138.77-20284-14198-61018-56909 3537 61532
1141.66 31998-20442-27077-27014-72163-58080
1144.56 7732 62022 8608-61361-38357 12142
1147.45-42791-87057-60552-26981-3064 76754
1150.34 86102 48467 25121 16001-19670-48230
1153.23-113316-162044-70739 25788 35027 32225
1156.13-36731-84132 37445 124088 101468 103807
1159.02 126259 168542 118205 35427-5788-8134
1161.91-6413-1967-23787-51104-48218-35392
1164.80-6727-27894-119024-69820 31643 107657
1167.70 141819 125625 78827 27846-27767 10985
1170.59 31426 27407 35120-9250-46114-29601
1173.48-16306 4941-3570 31233 75852 59229
1176.38 42280-18413-28304-5697 20118 33928
1179.27-27490-6358 7459 44667 16690-7760
1182.16 36911 49465-9272-29213 30281 83398
1185.05 60416 44583 38026 27479-68439-58541
1187.95 22945-19416-13200 52646 46888 78406
1190.84 76165 48077 7974 15114 43286 86084
1193.73 87869 11705 24720 101365 54807-42490
1196.62-74302-29088-34586-45721 34033-16844
1199.52-72484-20898-3930-15323-7277 24472
1202.41-20726-42138-33304-24959-59718-45109
1205.30 32777 38225-78800-71289-35013-40466
1208.20-39828 20273 48082 27614 11294 77825
1211.09 110623 52366-29605 28946 96925 37393
1213.98-645 84585 175828 76549-38784-2944
1216.87 50508 100057 65038-63263-98522-10920
1219.77 81217 122604 99204 83163 5960-29192
1222.66 51795 8658-52081 1916 19676-5672
1225.55 625 28082 28595 7931 58762 136708
1228.44 116610 38742-4014 69254 62232 36438
1231.34 73697 170236 85010 65025 161287 205644
1234.23 181725 203954 190996 117666 209689 344070
1237.12 419858 544377 692364 852417 974218 1125784
1240.02 1317529 1601031 1920772 2354603 2854140 3438720
1242.91 4050777 4871998 5870594 7093717 8473774 10103189
1245.80 11946860 14068650 16559797 19407448 22587852 26341834
1248.69 30609037 35367208 40686811 46663992 53344338 60676680
1251.59 68585604 77229768 86590291 96628617 107226669 118378916
1254.48 130023579 142093396 154323676 166630085 178859706 190864366
1257.37 201705930 211222604 219800946 227549487 233877946 238146984
1260.26 241046056 244058791 243649033 235398019 223727847 212636414
1263.16 200523497 186300126 170634782 157425838 150116084 152348535
1266.05 167045652 198365265 248896254 289314718 233833358 105061673
1268.94 46879961 56125712 81265853 112947934 146445541 176857946
1271.84 203816674 226890493 245606173 260060052 270390713 276576145
1274.73 278988192 277879073 273643465 266557657 257030006 245450800
1277.62 232340659 217951520 202771513 186883209 170810265 154861754
1280.51 139417137 124381750 110140132 96807831 84381490 72967343
1283.41 62696397 53358049 45043079 37792172 31524853 25995533
1286.30 21281498 17279406 13867122 11037043 8814630 6896189
1289.19 5389780 4175445 3279147 2517787 1850793 1356131
1292.08 1033225 772605 594469 483963 312173 162591
1294.98 138160 134811 149198 157586 121186 43485
1297.87 34311-1152-17502 35140 67635 8054
1300.76-15495-57477-82416-50812 3694-17558
1303.66-47693-48948-59067-108050-104946-61490
1306.55-28724-44226-40650-47491-45177-27095
1309.44-10840-60966-30012 1958-18850-18499
1312.33-3331-45223 2656 3369-47686-61178
1315.23-12724-5969 13345 21378-2113 17394
1318.12 89542 88410 36739-16528-10273-61903
1321.01-24579-18774-92567-61802-5646-28432
1323.90 18545 20800 46809 58213-470-38072
1326.80 62648 98094 50925-14595-38019-48419
1329.69-33248-48353-69050-10363 49659 12733
1332.58-24270-36921-21484-56520-64732-43918
1335.48-34491-22185 49390 64859-13783-55237
1338.37-62287 8541 1691-43399-22791 17003
1341.26 17330-13812 15567 97637 151441 66349
1344.15 666 34734 111912 52233-51649-14209
1347.05 11409-138144-160757-132345-4230 66855
1349.94-109458-198861-95014-48467-110952-45321
1352.83 189427 73477-149422-190986-65837-25697
1355.72-49906 76248-70226-165744-206377-145211
1358.62-42199-48918 49359 41093-5709 41784
1361.51 40022-145112-176448-165291-127975-58704
1364.40-135778-206196-129547-56223 18857-46591
1367.29-26489-2370 87 91094 71314-23537
1370.19-71692-24094-64144-94508-138163-133585
1373.08 28277 36137-19167-31069-40781 59154
1375.97 65252 10292 117240 146906 41459-11476
1378.87-14018-29210-34117 12605 126175 108846
1381.76 20872 31831 29160 63195 55374 41989
1384.65 112967 49669 38313 91732 15263-129670
1387.54-9756 121864 139741 53733 450 24434
1390.44 182633 209581 111389 37904 97455 73605
1393.33 56998 85882 57238 49785 51594 25449
1396.22 115341 196399 133035 95033 110269 121626
1399.11 155736 247887 235444 137360 179516 263894
1402.01 240344 187658 197962 266201 322048 329474
1404.90 285125 317769 391546 372802 399502 413437
1407.79 402173 332976 328587 411876 511447 448465
1410.69 319603 321819 479984 567301 560779 555162
1413.58 582006 624652 583914 618082 710352 702439
1416.47 568538 566796 771101 793559 548934 511059
1419.36 719934 987659 851564 686762 828533 1035924
1422.26 925084 814270 925282 1161920 1111235 1043922
1425.15 1223893 1342708 1277847 1172338 1193166 1322158
1428.04 1386641 1333642 1347392 1330079 1352147 1428481
1430.93 1398741 1290430 1308253 1269464 1248489 1275001
1433.83 1310499 1330922 1458872 1535904 1529013 1571126
1436.72 1703413 1809599 1898408 2084451 2218933 2275531
1439.61 2344861 2441860 2623202 2803699 2838789 2860500
1442.51 3035222 3206918 3255162 3367228 3573108 3668945
1445.40 3764067 3962707 4186287 4240420 4187280 4368660
1448.29 4631203 4812955 4933235 5177680 5483926 5578571
1451.18 5593920 5792532 6039279 6151443 6278573 6587084
1454.08 6835607 6962275 7079972 7256739 7334732 7393470
1456.97 7637320 7953980 8112602 8218931 8344446 8428389
1459.86 8244797 7926650 7881434 7978050 8144806 8542832
1462.75 8849102 8992754 8937606 8669498 7978609 6879717
1465.65 6247539 6188153 6587861 7226268 8073691 8696471
1468.54 8877709 8850204 8381338 7318847 6602560 6631247
1471.43 7009557 7585112 8057112 8364615 8639731 8755380
1474.33 8656178 8259691 7639921 7145487 6798765 6480511
1477.22 6124405 5726858 5323391 4890785 4284323 3386731
1480.11 2432107 1640718 991276 563045 350056 262945
1483.00 247878 295575 324776 329210 300229 275773
1485.90 222080 139567 127191 226008 284646 194147
1488.79 76031 49189 174971 174294 131386 167487
1491.68 184187 218138 160769 111323 81071 88865
1494.57 90039 81675-20747 10240 129200 142316
1497.47 91897 50797 54042 66066 122932 153986
1500.36 144127 116186 3031-35024-32885 32926
1503.25 33731-35937-23243-57189-99367-39488
1506.15-111788-151100-99004-93641-44121 3161
1509.04-37111-57834-22116 2026-8847-56894
1511.93-64581-39182-54638-57133-51101-53294
1514.82-42509-45924-56758-68574-44065-38286
1517.72-27311 8949 6466-12993-64017-135807
1520.61-225415-183854-120523-144936-107523-39412
1523.50 7139 30277-53975-115612-41036-11153
1526.39-35781-31676-11097-15624-174 47014
1529.29 83252 56508 12954-9951 16534 65866
1532.18 45071-43273-36726 48017 170429 225282
1535.07 244777 285124 319373 342003 325057 321334
1537.97 310969 211307 275075 327740 323242 428044
1540.86 479168 369560 286908 392869 491607 547771
1543.75 577004 554037 463406 408813 343413 327047
1546.64 394757 533424 678505 522326 261102 201113
1549.54 198433 272817 403387 730885 821262 498232
1552.43 322949 351904 364849 344669 409877 444502
1555.32 510463 540127 556415 549869 539553 474638
1558.21 428269 473760 418452 312757 313077 404395
1561.11 430247 386042 298038 278955 307507 261938
1564.00 125584 117179 117977 118070 139256 144404
1566.89 104452 43313 11362-8523-48317-63337
1569.79 7779 46483 26639 18653 21013 30831
1572.68 22495 9155-301-29614 4592-48908
1575.57-219546-185832-56776-24858-43854-37111
1578.46 13059 19555 7770-3953 18264 39447
1581.36 21413 7928-31212 34506 33391-17931
1584.25 8316 8474-42253-26164 11633 32843
1587.14 73059 100160 83792 42978 37507 51184
1590.03 30570-16610-52640 7555 33930 2408
1592.93 13775 18853 29984 37077 75293 67479
1595.82 17404 11746 49939 53427 45965 52224
1598.71 94164 63036 43996-4864-10590 40178
1601.61 54556 81685 66399 52563 80935 67686
1604.50 89191 54703 49501 50034 32905 88629
1607.39 99489 90103 83445 92673 68463 33180
1610.28 29684 58331 62704 33299-35941 6738
1613.18 41468 40271 32154 50898 52706-60687
1616.07-210345-145443-42779-16397 21604 84728
1618.96 93188 11781-5397 37548 44000 50645
1621.85 23480-63403-78789 13687 94214 82814
1624.75 41569 10448 28764 36801 5203-9108
1627.64 8297 1938 21708 52227 4177-25221
1630.53-23013-71635-11457 50802 34117-8977
1633.43-5284-26487-89250-152885-128502-39722
1636.32-26914-26715-15487 5153 5655 27628
1639.21 42764 18234-52755-43609-28801-37966
1642.10 35880 54557-59346-107980-91582-83516
1645.00-104049-95810-32581-18956-55991-74866
1647.89-67593-13437 37536 7604-28957-38746
1650.78-48797-61409-188645-269219-257978-165752
1653.67-103939-80800-22267 5904 18331-4982
1656.57-50306-71451-39706-29715-75816-51843
1659.46 22652 25561-22668-25755 5720-25072
1662.35-67377-65554-44260-23674-28714-71075
1665.25-87427-33424 4443-3177-8983 137
1668.14-35115-154119-143603-56171-20792-63085
1671.03-77709-7418 50085 42815 23267-24195
1673.92-62223-134029-158166-101652-52226-5413
1676.82 5010 4729 13811-19515-32393-30067
1679.71-77410-39374 32717 43682 26219-50883
1682.60-107499-151810-148405-316938-330148-109409
1685.49-43373-37921-70924-49407 19524 41046
1688.39 3913-17922-2793 5851 26515 8988
1691.28-37567-13396 18583 21486 2604 15661
1694.17 1132 7597-138687-183943-52391-15431
1697.07-3206 21811-61955-72721-102099-159522
1699.96-165697-120672-42625-53603-26337 2866
1702.85-17635-33586-8824 21485 7571-20151
1705.74-10796 9697 28513 52488 107522 59088
1708.64-14880-40635-36671-17731-26138-5838
1711.53 9350 20395 51800-82-6779 6863
1714.42-54074-71259-38192 2910-14620-139947
1717.31-100927 3576 36779 30259 8489 48293
1720.21 70213 28612 38353 52309 45130 48062
1723.10 81348 92448 27430 9859 87342 80812
1725.99 43569 71274 92785 123127 91692 64347
1728.89 63834 43557 24238 27546 60152 83541
1731.78 46184-37287-102720-50259-39446-46009
1734.67 24485 31985 39803 28047 6668 25518
1737.56 18601 15187 34135 17255 7472 26452
1740.46 53027 93299 109101 73418 26808-3807
1743.35 9503-6815 19052 9903-6682 4113
1746.24 29914 40137 27975 16985-21898-34779
1749.13 14120 51928 8204-39413-48297-14031
1752.03 13808 3125 26452-6442 9621 60653
1754.92 13255-38939-36143-14860 33765 47461
1757.81 49781 36717 10020-4044-2471-10946
1760.71 21513-16565-80640-75154-31215 5050
1763.60 15980 54347 69244 41027 41868 38769
1766.49 17299 53539-16977-71045 5692 43765
1769.38 27205 9130-45124-39445-708-45732
1772.28-67894 8180 60850 28102 26317 14569
1775.17 20843 62343 57132 50326 19754 18932
1778.06 49519 31445 20987 23371 24064 10492
1780.95 37570 58822 83903 101886 97747 109691
1783.85 79837 51970 78525 59603-1581-37485
1786.74-54255-64616-38711-12122 52036 90100
1789.63 74026 12835 11389 52532 9392-133048
1792.53-141048-73192-39532-6941 11831 23087
1795.42 38619 60442 64454 52684 67033 91467
1798.31 92655 70644 55966 79265 63251 25655
1801.20-2994 23336 4511 25246 77481 67276
1804.10 22917-24511-21203 11020-3180-22421
1806.99 30624 105835 133958 82291 3623 5812
1809.88 2822-12556 778 30132 45268 44548
1812.77 15596-15196 24996 57526 59621 31211
1815.67 24241 4914-34467-41324-33559-20342
1818.56-27265-46982-6221 10046 45600 60326
1821.45 59368 49295 32622 6829-20776-34290
1824.35-70064-35399 37408 30524-1991-5655
1827.24 716-7359-19979-20720-533-39172
1830.13-16887 5398 22327 11746-23165-1937
1833.02-17763-33766 2373 36713 33120 16442
1835.92 14647 13501 17645-14198-25081 11008
1838.81 21569 18171 11642 12233 18238 40334
1841.70 59270 55383-12177-112047-179160-106800
1844.59 6962 15202 6910 57384 61361 2568
1847.49-1463 29461-29753-82233-49684 3717
1850.38 10229-8941-33135-23853 1311 3846
1853.27-4015-43532-20192 44538 52044-950
1856.17-48727-46789-56088-37379-45893-47522
1859.06-39025 413 8999-41678-52395-6193
1861.95 26510 25153 15085 6895 3475-2586
1864.84 8455 51662 11212-46828-46931-11905
1867.74 6362-11384-36859-39708-68073-60351
1870.63-22382-25094-7387 18379-10278-30725
1873.52-29373-55904-116397-87657-30813-36459
1876.41-49241-23817-1058 1590-5327-24222
1879.31-39392-11230-1130-16058-30827-4226
1882.20 11303 14142 3832-13300-28205-63778
1885.09-53640 17425 38343 36054 60191 35929
1887.99-329 27621-10950-68225-54128-35742
1890.88-21271-5018-31569-6653 8025-50822
1893.77-63820-35783-7020 11201 21626 23539
1896.66 29802 19511 26242 52076 22258 726
1899.56-1680-43928-55653-18793-12357-12969
1902.45-8597-26850-35803 11991 22401-21990
1905.34-21517 8563 33538 4411-61455-55578
1908.23 6199 16292 11748 4057 8793 1644
1911.13-3600 7434-13156-30336-29478-54210
1914.02-37317 11321 10211-59045-95846-35093
1916.91 11346-10054-23775-23405-54831-14623
1919.81 15463 22 35412 10075-10319 15671
1922.70 5707-25694-8794-1315 3912-5747
1925.59-46157-50443-43735-38770-27232-31343
1928.48-30904-1459 32651 3449-45410-2452
1931.38 34686 1461-31373-41042-18342-19888
1934.27-27160-21384-41299-37463-23937-65569
1937.16-90138-89147-96560-50005-51368-87368
1940.05-52070-38301-71620-51955-23462-31039
1942.95-35952-54943-84839-65695-19599-3608
1945.84 1660-11949-39665-25427 15465-49243
1948.73-92341-50928-21809-9416 48133 90592
1951.63 33860-47959-27967-17092-31252-48322
1954.52-77196-66702-2946 42449 25982-25160
1957.41-29047-6774 25818 8607-3152 24689
1960.30 42698 20228 27600 75477 71343 52877
1963.20 70601 99504 90084 69667 72126 85622
1966.09 74512 52275 58895 73572 86011 95814
1968.98 112217 146911 215912 231115 188148 180029
1971.87 210396 215596 235136 286571 353786 282819
1974.77 132320 90075 135877 192876 228435 225586
1977.66 246113 243615 214845 173311 169977 210717
1980.55 250195 220657 203356 191364 216251 251940
1983.45 260195 249336 156937 142534 245464 314108
1986.34 334579 343135 331739 316946 326130 340258
1989.23 375184 392130 360612 331416 308100 286925
1992.12 237799 231978 197171 162669 175215 148906
1995.02 94777 38287 62415 63481 74426 82091
1997.91 80009 41820 27297 46624 32421 25420
2000.80-1488 12013 70522 84800 32753 554
2003.69 59157 107743 51755 5259 6567 57854
2006.59 90427 90562 85151 84657 66638 55707
2009.48 61914 59526 48597 63469 59449 48917
2012.37 65948 90206 98180 96269 56041 69117
2015.27 87346 15138 9120 21992 42345 67833
2018.16 28797 13679 27862 63986 89081 53692
2021.05 41675 32781 41101 9837-2500-558
2023.94 43105 96338 99853 80840 60005 45190
2026.84 86619 96176 82931 111103 120575 72923
2029.73 34537 35861 35965 38371 62628 108288
2032.62 184185 134754 56618 51197 69896 107685
2035.51 117515 100565 106389 126175 181608 192475
2038.41 141928 95967 130121 191822 229158 229595
2041.30 240767 276114 251667 292359 361200 385223
2044.19 451438 482693 432274 460611 563437 597603
2047.09 628734 711192 770039 714845 707361 788041
2049.98 846703 866379 866777 847679 848588 851071
2052.87 792730 742578 720554 759142 755224 649734
2055.76 591214 594045 600630 571037 605520 648107
2058.66 734921 761294 600003 363955 222945 251393
2061.55 325774 407073 563239 677240 733416 821105
2064.44 857239 873286 878354 848800 824815 799872
2067.33 818261 849027 761121 671430 616677 587814
2070.23 565455 486835 436469 429116 384138 309217
2073.12 240927 224753 236038 194931 174306 149159
2076.01 58786-3727-7641 4916 51489 60090
2078.91 29795 12000 10349 69 3430-41168
2081.80-37334 11313 23689-28267-83466-34928
2084.69 32322 28632-74642-71981 5391 40408
2087.58 3400-11435 5518 22227-1304-62670
2090.48-70407-58713-64497-59199-57252-13464
2093.37 24353 25407-13733 26662 15707-12675
2096.26-25755 10718 40661-11859-53405-47969
2099.15 2513 6929 35369-15652-24385-6055
2102.05-29407-102045-141904-26839 4785 8907
2104.94 28195 23618 42570 35858-38915 7186
2107.83 48810 2211 10661 51524 51172 81666
2110.73-39865-127628 11180 38374 57277 101547
2113.62 66820 47223 36295-14709 56164 70413
2116.51 66990 61885 79697 114226 110565 12177
2119.40-43046 56643 63507 41681 40057 69030
2122.30 124463 92881-10517 37331 68307 68422
2125.19 149866 195632 153507 85832 18980 51192
2128.08 167277 172491 176112 223155 249522 193594
2130.97 143602 169901 190332 196444 232573 260159
2133.87 248950 228625 206289 202851 243265 263152
2136.76 259423 224807 230857 225676 220272 276380
2139.65 333697 283264 243693 238563 231960 266425
2142.55 312293 325656 294153 241017 270700 248053
2145.44 206373 226396 193233 146386 205677 228451
2148.33 223434 232938 289255 292990 270608 382108
2151.22 431378 436533 425362 409161 443096 389583
2154.12 334207 393374 434386 422278 445883 456051
2157.01 400717 291075 270288 368757 394861 377881
2159.90 377036 388001 327052 203547 262506 365542
2162.79 396398 406105 382818 354723 303751 305123
2165.69 420512 442509 407397 436159 439900 349611
2168.58 228388 307739 443275 432118 475752 524203
2171.47 504042 450843 471145 591021 638076 589656
2174.37 535216 528051 451718 316429 449903 625087
2177.26 662418 652081 677025 616963 517277 613003
2180.15 736254 711466 628007 544940 473416 404373
2183.04 402274 445068 507213 503052 465779 432798
2185.94 382169 442232 530254 491284 458193 511792
2188.83 476778 330000 309868 314828 324392 259038
2191.72 227812 286254 239736 218560 282432 329320
2194.61 354707 317046 231767 135917 174734 250720
2197.51 251571 199910 187838 195169 178683 178157
2200.40 126727 167175 227061 150097 55810 36732
2203.29 66451 58361 48825 26464-3404-32933
2206.19-54878-39389-10038 19687 23706 9346
2209.08 22031 1672-7236-9449-12283-6057
2211.97-28170-17019-23339-14082-28565-91930
2214.86-58909 8914 20893 13378-26312-13193
2217.76-25195-49860-23394-14051-25404-10626
2220.65 9327 26592 20979-24812-44183-18686
2223.54-25261-86928-40478-7611 1139-88
2226.43 17484-4221 15693 38131-10329-17795
2229.33 40172 55005 41673 51007 56476 74679
2232.22 61984 34541 19524 48066 82428 31549
2235.11 46099 91339 43182 64402 86767 48240
2238.01 6572-37676-6615 49022 34918-13010
2240.90 4037 43448 63112 57746 29218 82674
2243.79 144605 128657 105891 119394 107718 81553
2246.68 49369 69649 120622 130819 104512 119881
2249.58 131389 68809 21625 113425 191498 192237
2252.47 170345 128963 116216 89930 82537 107196
2255.36 148967 142387 109140 97177 117285 109059
2258.25 127154 138691 114624 136795 133000 143731
2261.15 177497 166047 191161 232819 165981 120629
2264.04 197084 260611 225206 203065 214298 259281
2266.93 202590 121258 159307 221204 259055 252975
2269.83 246806 249803 264740 308459 325086 309356
2272.72 345648 390842 402201 353829 343889 392628
2275.61 425209 463411 443333 474973 549869 574685
2278.50 522512 550429 617174 617152 554205 586324
2281.40 682287 738960 750254 735112 785847 858941
2284.29 874511 849151 872074 908241 957324 1010384
2287.18 1067475 1057456 1045778 1064665 1103349 1109328
2290.07 1059969 1133614 1284707 1315013 1313462 1358763
2292.97 1426942 1440311 1398285 1411467 1503777 1502246
2295.86 1504533 1627283 1731655 1685068 1615397 1744589
2298.75 1833636 1726646 1684857 1906302 2030290 1886653
2301.65 1830265 2046592 2169540 2049621 1918998 2096422
2304.54 2189583 1907783 1728054 1993484 2192933 1908125
2307.43 1668670 1930248 2235544 1995010 1720716 1914383
2310.32 2238127 2141812 1833779 1954096 2338999 2510100
2313.22 2199916 2161334 2394749 2727636 2625852 2657607
2316.11 3126249 3917193 4162168 4400784 5352386 6367084
2319.00 5622226 3928391 3101245 3084575 2818940 2310301
2321.89 2265787 2671303 2530225 2029297 2213809 2624680
2324.79 2365528 2023249 2402630 2822685 2486440 2137352
2327.68 2619020 2996317 2485255 2189517 2819844 3059378
2330.57 2391481 2235442 3084265 3064014 2143356 2327575
2333.47 3274147 2890615 1941216 2480791 3356318 2550766
2336.36 1847139 2722187 3084157 2159305 2177580 2999205
2339.25 2603129 1837070 2401454 2730964 1983699 1864727
2342.14 2427788 2187616 1729168 1968998 2003240 1668164
2345.04 1711221 1741906 1402581 1372235 1502196 1252014
2347.93 1130334 1178943 1152951 1152955 1155154 1172458
2350.82 1307496 1195730 1136438 1509542 1416121 1127902
2353.71 1612170 1557675 1143344 1648635 1609039 1132126
2356.61 1754120 1703258 1237798 1898824 1654400 1193753
2359.50 1952804 1553064 1308918 1948875 1381730 1434208
2362.39 1817934 1162699 1578023 1616295 1118594 1605518
2365.29 1228048 1199158 1511288 954504 1229033 1118371
2368.18 960110 1175816 835846 1017855 904576 752920
2371.07 825969 651220 812351 613000 656754 616688
2373.96 583817 579165 481285 494909 405048 384492
2376.86 353671 347373 309376 306273 263359 247161
2379.75 240648 254437 261371 258650 199278 182710
2382.64 200836 233065 230903 229275 189805 217287
2385.53 249954 223321 225391 256514 262801 214248
2388.43 224908 284390 316537 338429 303245 265393
2391.32 284832 332045 287509 216282 272178 295369
2394.21 282016 219185 242553 318894 369447 331331
2397.11 261210 290525 379157 369649 271110 282055
2400.00 392211 453334 371920 271329 352426 474028
2402.89 426133 306899 284106 350027 429194 327646
2405.78 367186 470974 440965 366053 298345 313838
2408.68 377682 347075 284565 296286 360220 365659
2411.57 323299 320868 376788 388814 396424 549142
2414.46 987220 1528395 1513164 895102 523078 440909
2417.35 401647 401559 376607 363378 404736 387776
2420.25 323451 269940 336198 429340 408189 309235
2423.14 299973 324581 325096 331336 433224 451199
2426.03 370438 345195 356272 342861 319975 362819
2428.93 437270 357870 284118 341748 339174 271164
2431.82 297095 372259 379533 362865 394819 369301
2434.71 244764 272889 299380 226270 191768 266859
2437.60 324797 315616 298357 247944 202260 238947
2440.50 220787 205853 248645 257432 243562 253301
2443.39 188266 139964 164599 240739 222417 175720
2446.28 153672 110786 199779 245985 177989 168939
2449.17 194779 205391 230969 184935 75684 43284
2452.07 54393 59047 91729 93715 69243-10636
2454.96 14172 127926 131281 74538 51526 41752
2457.85 19340 32341 54414 62050 35671 25073
2460.75 18251-5275-9052-7854 17439-47705
2463.64-56861-26820 26197 81936 85177 63694
2466.53 10524-42965-47596-14094 20940 60489
2469.42 26027-39877-35411-16108 639 28216
2472.32 26267-14858-31984-29136-27368 15170
2475.21 36823-10687-24685-24895-15137 511
2478.10 33645 73128 78849 30946 12125 42113
2480.99 77525 60419 3005-17630-27066-30234
2483.89 1853 25123 19264 18300 75268 71848
2486.78 4560-5712 5237 39440 79486 45370
2489.67 35732 78662 89072 69060 66367 49999
2492.57 90944 89167 72959 82489 117665 80103
2495.46 23164-43322-47541-1781-10602-3064
2498.35 23010-19503-20039 25438-15912-27906
2501.24-7075-71731-40890 1064 31312-64009
2504.14-160543-153045-132865-128330-169801-157876
2507.03-61314-25900-62883-72627-129025-141218
2509.92-155071-199440-137657-43890-72891-147729
2512.81-203562-201645-79952-132074-257506-256446
2515.71-163019-174898-259282-249916-183308-191888
2518.60-219331-231012-234303-190145-225691-250013
2521.49-248654-264924-287727-342913-384577-349845
2524.39-338797-354669-370974-361999-293741-276980
2527.28-290857-242941-198350-224856-210007-137038
2530.17-15574 4766-19045-40560-89791-73026
2533.06-61836-155526-322748-384428-417084-377454
2535.96-198397 99222 374884 428222 348415 196201
2538.85 26951-111881-145686-160002-269218-259671
2541.74-186595-193278-289880-318422-261180-275902
2544.63-321185-318556-290518-300955-340101-358625
2547.53-407717-485816-497755-477130-513144-516481
2550.42-458828-509512-597924-594992-539086-526569
2553.31-514868-496028-493629-499860-463891-425873
2556.21-436934-487610-492192-436142-378884-370803
2559.10-395871-406801-358757-308117-340433-384985
2561.99-394568-340459-254264-183348-235141-279314
2564.88-287344-262212-168323-174244-205515-162868
2567.78-179556-175998-168544-184030-193981-172307
2570.67-182325-160043-85903-120903-187567-122020
2573.56-17586-41036-116386-150527-114003-74309
2576.45-17169-5221-42407-75046-64318-38890
2579.35-34288-76488-68675-53174-43474 8559
2582.24-8522-33991-54336-51506-13695 9529
2585.13-5659-11793-9723 7563 26727 3788
2588.03-42807-107902-84841-11418 33774 143
2590.92-17934-1337 42537 7704-64478-102564
2593.81-85665-81712-33903 6504 15052 99408
2596.70 87690 62078 56005 35839 11252-25609
2599.60-17549 5979 34876 14532 41057 41774
2602.49 17017 17898 9981-27298-78253-75286
2605.38-24597-449-1942-44555 316-7537
2608.27-76710-97943-41941-25767-20299 22651
2611.17 16361-16812-64943-94430-85869-80942
2614.06-59409 5949 50795 29204-18269-1328
2616.95 25961-19692-71393-60342-6963-6417
2619.85-2169 12061-1649 80344 133095 101032
2622.74 113497 99152 84764 69679 78627 57491
2625.63 18431-42849-87327-100889-137852-176937
2628.52-122251-64718-37936-55440-28369-1926
2631.42 17544-8587-18909 12054 50199-31229
2634.31-68063 24784 58503 7838-8412-24503
2637.20-20798 5622 7736 10017 29507-5618
2640.09-61988 9658 31858 29201 33170-6633
2642.99-72315-88300-43795-39001 40892 87311
2645.88 54883 2013-43750-67697-49448-22395
2648.77-32545-63432-15103 44604 70134 90198
2651.67 88474 59220 32742-4400-49015-73244
2654.56-88776-66092-25464-50287-37572 9264
2657.45 45254 42257 55100 52489-35207-64478
2660.34-14912 6994 17795-52137-43215 56590
2663.24 120127 53405 56428 49779-9159-79764
2666.13-71400-23835 35714 21702-19633-22474
2669.02 18442 33246 24689 78823 197595 185617
2671.91 93392 76524 124677 120565 117803 126530
2674.81 137392 196651 216635 231154 345069 374355
2677.70 360301 400859 458287 432924 441333 493971
2680.59 559638 673811 780937 819811 891580 945764
2683.49 1037771 1199466 1352404 1496559 1590029 1737040
2686.38 1910564 1980192 2083365 2264724 2333794 2381950
2689.27 2493333 2617046 2714115 2817338 2880412 2794635
2692.16 2719906 2787507 2848185 2761505 2608754 2462528
2695.06 2374653 2292272 2141639 2010461 2060836 2171825
2697.95 2167218 2206017 2225680 2139483 1773155 1147780
2700.84 825875 958549 1352558 1770591 2189184 2516529
2703.73 2803375 3015688 3129143 3228366 3318084 3398427
2706.63 3394909 3306356 3213914 3085406 2893520 2708706
2709.52 2451512 2242597 2063469 1880772 1702551 1434032
2712.41 1207510 1017687 844766 756576 701542 539477
2715.31 446716 415751 365862 279896 202731 121246
2718.20 90484 93150 119100 104485 65416 33298
2721.09 27406-989-45380-44284 13760 25082
2723.98 30397 54424 110335 76965 6848 102
2726.88-9272-4186 43941 44036 28870 13714
2729.77-9320 50749 55539 14356 58274 29140
2732.66-34875-47321-22902 15968 68809 54621
2735.55-142-34123 13632-19255-36874 16165
2738.45 49424-51597-15568 25494 73983 97360
2741.34-8558-58961-41226-54955-1532 66211
2744.23 94059 51387-13346-90472-58977 55441
2747.13 92550 29976 33292 88790 80172 27005
2750.02 27736 3788-28364-63447-44945 55517
2752.91 84314 102022 99982 17684-722 42417
2755.80 85271 87166 103516 48358-1306 30095
2758.70-5917-37601 30387 18858-33979-559
2761.59 21986-20958-2715 9209-45752-92445
2764.48-112485-72595-30509-27656-54977-58779
2767.37-75625-12891 90402 48622 13569 2959
2770.27 36750 109930 155199 76435 55074 39254
2773.16-15387-51115 7192-34263-93349-81383
2776.05-15260 78578 134985 75825-22629-31368
2778.95 25108 9314 18893 76868 74613 17830
2781.84 20990-20361-41138 18820 24156-1774
2784.73 20866 57778 45812 36794 79760 54853
2787.62-6379-1570 57069 49628-24361-9736
2790.52 61955 873-5542 42855 38731-40094
2793.41-84581-9016 62164 43054-3275-48062
2796.30-11568 23784 20114 22006 86633 141492
2799.19 141828 5594-26854 9582 13682-585
2802.09 43891 7565 21504 7021 90727 131922
2804.98 108678 149107 132187 76637 57010 103963
2807.87 179853 192681 213435 168317 148212 140304
2810.77 111072 58563 136522 141060 163532 267159
2813.66 361006 325503 276402 283903 315724 268302
2816.55 182983 150764 212927 189302 196030 264653
2819.44 340681 408743 411120 309022 338617 486259
2822.34 442103 353740 390147 487932 538423 479200
2825.23 417821 455418 556924 533164 505491 550119
2828.12 593555 476253 421199 571694 590072 583529
2831.01 674955 624646 602959 639330 642829 698828
2833.91 870191 881584 754048 699819 821536 920081
2836.80 824908 750069 867802 1016320 886659 825112
2839.69 956413 1049645 926536 943162 1093522 1241686
2842.59 1123340 1044647 1240075 1399341 1350890 1186170
2845.48 1154216 1208572 1260172 1183145 1104712 1050191
2848.37 1090436 1126080 999613 860991 960564 945131
2851.26 751407 666089 639193 591183 640705 687186
2854.16 678676 706830 835425 895952 1010313 1045060
2857.05 1117727 1227430 1206069 1111950 1128131 1200872
2859.94 1210649 1200063 1319301 1394194 1272720 1234530
2862.83 1378583 1594514 1465062 1214854 1271005 1330106
2865.73 1161681 1124249 1320993 1334620 1133312 1041214
2868.62 1065105 1042930 935418 897678 971563 868762
2871.51 745064 738827 859125 834055 743982 744486
2874.41 782520 680380 673644 766311 782176 733647
2877.30 767838 689210 490835 540443 623062 521858
2880.19 453604 550349 593056 512266 472474 518941
2883.08 543169 531801 503190 437475 373127 360298
2885.98 482175 461949 327419 336586 350511 276651
2888.87 279526 242169 233494 300517 285768 179166
2891.76 165972 271348 335226 264539 198506 158249
2894.65 197290 162362 164312 174167 168541 128775
2897.55 102198 102689 113385 97494 98652 127794
2900.44 135317 116161 107299 139121 209263 218620
2903.33 154031 62283 71157 121402 163277 87746
2906.23 14016 16764 91907 89324 116711 25779
2909.12-4757 49061 105602 93042 55395 83307
2912.01 194371 150370 41637 66602 201987 195437
2914.90 204837 130026 23016 82385 181233 225213
2917.80 253574 185698 115325 121292 137698 87260
2920.69 150215 209207 206846 143332 161418 164523
2923.58 152224 185742 231912 265694 327671 183528
2926.47 154049 193306 282791 372834 413318 269502
2929.37 220140 325292 450214 404834 317654 336223
2932.26 439538 401603 407902 409969 406577 523991
2935.15 621997 591504 611370 587970 649975 657197
2938.05 695635 786606 892215 852719 811737 827246
2940.94 1023175 1075833 1022310 1081575 1251022 1222896
2943.83 1101757 1146377 1422119 1565275 1477324 1465759
2946.72 1662436 1947159 1896392 1804784 2100802 2296445
2949.62 2134227 2066212 2300163 2623788 2634485 2550202
2952.51 2801189 3054921 3133580 3182877 3438606 3651931
2955.40 3516550 3448469 4047623 4565292 4024237 3793428
2958.29 4534557 5383776 4952234 4336242 4903464 6081709
2961.19 5851364 5077834 5572531 7060103 7434657 6030749
2964.08 6090012 7841997 8549092 7060062 6597671 8284738
2966.97 9960324 8245085 7354927 9090003 11013427 9344858
2969.87 8312437 9797002 12198420 10924848 9331852 10358188
2972.76 13276621 12626224 10265267 10833881 14353069 14509969
2975.65 11766533 11276896 15000175 16543829 14480787 12673690
2978.54 15590423 17443454 16800833 14973701 16782218 18601952
2981.44 19052710 18676847 18981632 20155097 19990900 21535031
2984.33 21819480 22281928 21370035 23889465 25452288 25003198
2987.22 22956515 24674980 27763080 27119540 23844843 24435496
2990.11 27329242 27392394 24223302 23280192 24585938 25004565
2993.01 22532885 20657647 19543808 18708877 16989060 14445412
2995.90 13143976 12700244 12319239 12177749 12674136 13628698
2998.79 15367688 17086906 18865842 20072302 21345245 23038707
3001.69 24379104 25436377 26274405 27365381 28239467 27729695
3004.58 27433737 28215930 28896603 27990591 26421145 27169879
3007.47 28112439 26882472 25044279 24990558 25655368 24654357
3010.36 22541864 22193848 23364805 22971113 20609358 19974297
3013.26 21289369 21029833 18219568 17645700 19667529 19200328
3016.15 16077678 16421984 18753444 17200446 14508211 15667446
3019.04 16985946 14746433 13499445 15378423 15295074 12940560
3021.93 13378317 15116019 13367542 11243978 12571916 13750191
3024.83 11797038 10989980 12480097 12129847 10207010 10330117
3027.72 11504106 10515311 9160741 10103096 10258613 8643369
3030.61 8260098 9059747 8505435 7536495 7776414 7731666
3033.51 6839437 6685380 6941526 6536041 6085489 6075707
3036.40 5884584 5651303 5366810 5160142 5092831 4797387
3039.29 4451890 4461250 4161772 3777405 3775177 3799786
3042.18 3472646 3330499 3324062 3049717 2740752 2756159
3045.08 2672867 2441630 2364381 2378285 2305155 2240371
3047.97 2090243 1950337 1875072 1814270 1668170 1653469
3050.86 1586335 1439764 1379627 1397702 1262997 1075265
3053.75 1028594 1043185 896171 881685 921120 876862
3056.65 804204 712969 653148 697875 718943 664177
3059.54 571656 599136 596606 532867 458761 449586
3062.43 327131 308892 233574 263193 292699 344529
3065.33 299700 172494 200536 333914 369192 261738
3068.22 139907 183706 239433 201193 147699 174823
3071.11 228976 185046 119627 185404 177363 225584
3074.00 138879 127392 163587 241611 216198 178921
3076.90 183125 118952 66893 103088 39927-38365
3079.79-52860 20273 16674 73448 81970 22647
3082.68-29227-28714-67534-6082 82131 104185
3085.57 11856-9466-30617-92776-72120 40518
3088.47 36387-6416-27902-6711-43054-39276
3091.36-17969-40939-46413 9534-35639 5834
3094.25 59438 15515-1390-18552-178396-222586
3097.15-36754 113914 109643 1445-104514-69199
3100.04 14845 71430-19159-46645-74713-72281
3102.93-39462-91350-38915 46369-13373-51955
3105.82-46544-52391 1512 5824-24788-86247
3108.72-111941-96884-107153-98705-30317-5365
3111.61-99747-107768-29654 79000 20392 22089
3114.50-2183-55347-15105 46137-11757-60229
3117.39 1431 6673-25712 10382 24994 22357
3120.29 6877-36856-59739-58667-1182 35598
3123.18 10452 61914 90676 42702-23730 21317
3126.07 99810 93326 39701-67477-102307-83054
3128.97-141698-141749-85919-19049 31201 71059
3131.86 59761-22293-62490-2050 6510-24987
3134.75-79080-144438-161330-54481 115829 165345
3137.64 99007 41822-30832-44690 41705 82897
3140.54 43730 14725 5024-32414-48172 10354
3143.43 94615 47394-54408-38178 7132 84606
3146.32 66335 55716 4292 86474 158392-9990
3149.21-184605-35321 47828-2815 10380 39171
3152.11-11828-13202-6648-31809 1604 15961
3155.00 58469 53109-23583-45102-2278 9379
3157.89-642 710 6765 56777 28327-24315
3160.79-13997 23605-76567-113265-49635-4720
3163.68-11711-28993 49784 113968 104712 28653
3166.57-63881-73812-17952 47400 27609-23367
3169.46-65418-22297 9752 21407 20319 39826
3172.36 92484 59996 15066 55907-50277-138789
3175.25-123352-44672-70918-97913 1474 68389
3178.14 36153-13155-52017-17966 49626 65090
3181.03-13481-76423-48028-61927-68481-25773
3183.93-26356-103937-102419 63224 96772-9326
3186.82-17237 42088 35389 64840 44075 36294
3189.71-18419 1058 19982-16669-108015-163879
3192.61-130069-20151 12958 82443 63489-60164
3195.50-48418 17949-22376-20676 25797 38733
3198.39-3533 196 62087 115988 109059-25685
3201.28-66508-42228-102707-134851-82422 72212
3204.18 41175-50457-16546-28318-11439 2873
3207.07-9035-65711-43369 26027 61554 92213
3209.96 49860 8307-26443-81425-53330 29449
3212.85 80245-6254 41489 187796 120032 122709
3215.75 47842-65214 43509 89911 26771 11133
3218.64 41506 33386-45323-13063-55661-90093
3221.53-59436-182 8487-13321-92204-86833
3224.43-2748 53820 19770 8454-68649-74151
3227.32-79474 15054 36748-51661-86540-124592
3230.21-120034-25357 47534-10647 67216 154069
3233.10 76301 58411 85099 84726 29020 17301
3236.00 1864-2807 80518 28286-134361-194980
3238.89-115773-75746-2583 6358-25500 69987
3241.78 45455 17329-2870-53536-81977-88837
3244.67-3331 55859 71961 72203 57062 94171
3247.57 120650 57155-71783-66702 8804 62554
3250.46 52483-11949-34902 47799 100978 123821
3253.35 27417-128262-170464-7807 10613-23730
3256.25 14333 106885 154675 31766-33452 47257
3259.14 107561 138891 151378 134874 27266 2294
3262.03 133731 111421 42153 111204 169929 134901
3264.92 80167 31357 20008 39397 30405 33999
3267.82 35092 71538 85028 97340 47333 41159
3270.71 98617 93753 39144 43952 210228 200885
3273.60-4171 7408 67557 85601 105575 92776
3276.49 1672-79181-21463 76673 84232 47513
3279.39-6760-3327-54330 37826 136411 175259
3282.28 147985 120981 150104 95163-30557-118832
3285.17-34338 97507 50879-51698 19991 171774
3288.07 180901 102454 44493 32210-19313 1037
3290.96 46559 46458 36215 50617 9801-26552
3293.85 32841 74631-20663-144185-23739 65800
3296.74 11839 147481 180652 134052 89153 23599
3299.64-57671-51903 22819 57512 8284 22286
3302.53 63221 42499 20795 30355-44776-82657
3305.42 13059 49736 57480 92168 26619 5284
3308.31 15887 47522 78525 95498 28214 15232
3311.21 42306 27421 38637-1284-132616-130760
3314.10-183087-40517 128934 99794 96940 42363
3316.99 18190 49025 29429 89791 114368-36528
3319.89-23692 10976 20094 126934 109331 62924
3322.78 31116 38031-14872-57809-65289-80604
3325.67-77397-9304 80300 120311 30568-98489
3328.56-91857-8527 39876 59402-33919-28115
3331.46 31097 15652-23096 6693-12865 22595
3334.35 108658 40471-53538-72983-50403-78504
3337.24-103862-134289-90078-5167 16485 34133
3340.13 50610 17109 25307-24272-65050 48824
3343.03-8559-88852-38250 121710 78974-33138
3345.92-54241 23475 86984 7073-62284-5274
3348.81-11862-78518-78500-44100-11161 16842
3351.71-102603-161580-16681 31663-56814-85112
3354.60-79714 19059 19863 71452 13884 50757
3357.49 41882-78114-123164-88911-42371-29150
3360.38-30682-92293-149043-27043-38224-18314
3363.28 29433-47534-93831-163362-215271-117798
3366.17 34189-24048-180802-89761 6784 3536
3369.06-7046 117738 91864-164607-151279 19962
3371.95-31641-54068-11071 65468 47589-16424
3374.85 12463 38310 20022-23363-79971-125892
3377.74-55867 67193 9446-22086 29302-14999
3380.63-30014-11253 58259 53017 47585 86010
3383.53 92983 41960-62171-85965 36899 97916
3386.42-27839-6456 33942 104652 52155-27273
3389.31-35263-71787-34940 34305-23530-90977
3392.20-53664 62020 106972 39724 51918 70838
3395.10 70742 121292 96536 128961 169048 175497
3397.99 94941-42137-99768-131853-74463-49505
3400.88-43367-51069 25798 42084-15142 81956
3403.77 97627-44444-87651-121471-136850-87631
3406.67 4278 29037-9453-14045 52698 100302
3409.56-29688-236509-195425-73701-119281-113408
3412.45 19340 75021 39087 42089 80585 119288
3415.35 161405 66795-75478 4498 37008 37410
3418.24 109070 68332-72254-17003 88069 5530
3421.13-4808 43442-48785-109876-62973-1481
3424.02 5295 1985-12200-70459-89137-84985
3426.92-45054 108536 140539 38270-21260-23529
3429.81 18087 31186 50050-14633-117179-77019
3432.70 49410 117100 107561 42904 16525-1277
3435.59-77116-74539 63598 115178 17072-85590
3438.49-79118-21088 78259 95357 40476 76033
3441.38 44181 39299 150197 152367-9795-47515
3444.27 37847 75638 66562 45373 99874 101144
3447.17 4087-109181-30267 55872 15100 14786
3450.06 36504 27399 54178 26223 32107 97298
3452.95 91362 15768-91910-94181-34387-28908
3455.84-40658-5165 26218-75571-61131 6411
3458.74-54097-82756-2977 68607 126285 115589
3461.63 54916 27455 4702-34495-37770 5993
3464.52-1366-9458 17844 19351 78856-2399
3467.41 57714 144099 84010 52194 16660-30490
3470.31 36988 56810-64873-128188-102045-76513
3473.20 68518 42580-126370-211461-106043-6691
3476.09-11721 13759 67842 40165-68280-190295
3478.99-188511-88298-67698-102688-72261 49654
3481.88 175102 179124-51498-47407 1162-118764
3484.77-129381-44470-64569-91614-95894-120342
3487.66-89301-121490-20730-44940-190340-170397
3490.56-80288-65035-87951-166172-85520-1064
3493.45-67459-159681-132660-66312-137015-87214
3496.34-22207-15703 27256-53488-115431-71571
3499.23-79276-68275-121641-140647-5611 66476
3502.13 56360 83541 24696-65268-4237-88324
3505.02-154262-70357 30532-16090-51118-26502
3507.91-81313-137552-79208-28156-22988-39191
3510.81 24230 42334-18421-16290 16800-48804
3513.70-49268 55317-39666-138207-133899-172179
3516.59-206012-222147-200518-52234 24380-5280
3519.48-112204-172814 16052 135103 61129-1468
3522.38-1734 24359-42979-22-11189-144322
3525.27-164059-86654-15466-5392-20100-106496
3528.16-152691-85255 12612-32145-88759-489
3531.05 114457 89079 52137 46793 45619 51549
3533.95 17585-28172-34081-23901 32245 81812
3536.84 81055 43370-27925-52172-15464 57051
3539.73 60152 23157-44510 79697 89311 75217
3542.63 186010 101635-36014 85597 96403 17922
3545.52 54365 103770 36784 55511 184588 176034
3548.41 165111 190442 128518 111478 141988 238525
3551.30 203349 91397 30456 36408 70003 182233
3554.20 210701 209519 197026 155707 84868-14476
3557.09 12553 105591 186617 211175 149849 173046
3559.98 262585 166149 112003 85901 32895 49977
3562.87 25617 90957 179014 217627 191538 117156
3565.77 128077 195422 129655-15287 6263 53282
3568.66 30154-16434 13895 151352 133128 66787
3571.55 76706 45989 18864-11834-102400-114399
3574.45 22044 96607 127549 128251 90167 17604
3577.34 41628 19233 6975 31413-65350-92354
3580.23-62520 40641 61476-16260-16052 82165
3583.12 106559 61066 59203 63067 61380 58563
3586.02 58489-24065-89798-115556-105064-48364
3588.91 22861 111241 174062 141949 108221 86588
3591.80 38572 29723 26649-56939-8078-5434
3594.69-78354 3107 95328 104811 145346 209971
3597.59 77174 15616 29032 93742 81583-15805
3600.48-32932 22382 43062 105058 69576-60490
3603.37-4704 65434 26637-43181-28702-40699
3606.27 12061 68082 65382-54013-142950-112286
3609.16-49811-23354-18677 16727 44480-14060
3612.05-127758-65459-8433 25637 81690 85393
3614.94 12145 36421 19065-53626-65860-30179
3617.84-67348-17120 19841 54611 79009-30000
3620.73-64403-16493 15178 38619 23054 74611
3623.62 24323-38591 32329 67150-33512-88261
3626.51-23556 93720 79357-20415-100869-148999
3629.41-126830-127 20794 25596 13835-19693
3632.30 7043 6496-142339-169958-97183-23815
3635.19 47715 53362 45837 8622-53586-30707
3638.09-29784-77879-74161-78752-28327 9096
3640.98-28332 13616 46026 8570 25254 73775
3643.87 86442 95645 87969 36632 19725-41959
3646.76-71491-102688-140625-88611-49251 8168
3649.66 42613-39236-94617-116360-131056-2546
3652.55 207128 221053 87855 7378 25689 18766
3655.44-27447-113765-134106-94194-47030 32834
3658.33 61547-16807-115520-140500-67128 50808
3661.23 121166 82998 102561 159150 115565 25470
3664.12 1776-750 21916 26356 11710 40076
3667.01 118803 23187-78261-33962 71705 36264
3669.91-92615-60088 57166 4779 7917 22582
3672.80 63491 119072 80585 1469 23923-40817
3675.69-34693 31900 108047 155942 108256 178377
3678.58 206054 121642 69837 104749 111714 134908
3681.48 205793 255396 247485 241893 296065 227600
3684.37 156489 134403 207696 315191 273789 138367
3687.26 172993 152233 121319 213221 345213 309876
3690.15 190975 188402 206914 304275 429960 384668
3693.05 346733 393230 377130 266622 294979 414184
3695.94 406366 346349 357954 369340 394202 424476
3698.83 482313 451567 436116 418360 410780 431641
3701.73 435507 454472 458366 483764 503947 517715
3704.62 469404 429574 414825 433889 468821 471120
3707.51 460144 451956 375366 413399 457256 388366
3710.40 329079 318505 286215 288945 387367 396528
3713.30 402383 506266 535853 613368 692325 604334
3716.19 636724 729600 721296 717774 686493 719262
3719.08 776893 747052 690325 673274 662074 626712
3721.97 625052 668751 648436 632453 678642 637377
3724.87 599666 592422 526647 524795 528760 500229
3727.76 500353 601229 636796 547235 518680 593106
3730.65 547134 343858 337951 510425 603152 613878
3733.55 576026 453058 391881 490740 580225 503756
3736.44 536967 609139 637596 633777 669856 777923
3739.33 713707 670042 770088 769457 736006 719683
3742.22 655227 631735 666648 542370 518608 686290
3745.12 834508 852058 854793 895391 864287 878204
3748.01 960021 813906 699442 776207 789317 771244
3750.90 803915 767322 715953 814568 858127 878399
3753.79 866496 830077 866834 901555 828103 696341
3756.69 728139 826885 799907 717525 672880 699735
3759.58 741278 732400 726838 766882 780534 708937
3762.47 709124 796751 795305 741196 638298 670064
3765.37 663390 693501 792546 800709 783896 778808
3768.26 806415 811026 816776 797062 712626 658340
3771.15 668274 609235 523573 487761 425641 351040
3774.04 271449 195818 176645 199758 220244 254191
3776.94 268778 253034 368570 427625 375127 410234
3779.83 413119 399193 315893 200872 283490 323514
3782.72 319354 270376 269897 310953 386720 379806
3785.61 339358 345642 412238 476304 326489 156077
3788.51 138251 170271 227906 311630 333701 213198
3791.40 165700 146060 51564 60553 117736 149584
3794.29 166243 151780 206601 290859 199729 63427
3797.19 62564 101754 161261 109205 70202 43292
3800.08 70608 18671-97137 76094 188805 90390
3802.97-60521-68558-5094 101921 202112 185808
3805.86 148666-3215-59316-11294-4578 37231
3808.76 67495 111671 62042 41074 79109 116157
3811.65 96694 43702 41941 89527 53025 17575
3814.54 99760 7052-154343-105719 31143 68617
3817.43-55627-104533-6727 89484 88724-105348
3820.33-134175-19765-55116-34979 6845 49910
3823.22 11601-79988-103994-20181 34486-19009
3826.11-30163-77516-101673-54840 34691 138734
3829.01 135449 72846 58852-45901-92451-60868
3831.90-31802-109550-51832 26433-27526-74772
3834.79-25434 24978-2166-45408-102085-200762
3837.68-85136 17275 20199-31529-6148-29319
3840.58-48957 6969 97499 141800 123995 80617
3843.47 174068 230874 29215-91531-36559-20284
3846.36 28389 64702 53798 29718 15077 75636
3849.25 79855 8931 19598-22883-150671-174454
3852.15-47166 28199-79526-308273-282215-26136
3855.04 53963 79629 61717 5919-24935-3182
3857.93 99118 10498-50403 29909 73192 9999
3860.83-86274-116581-64674 33056 68538 82567
3863.72 64334 23977-46689-56620 39209 100550
3866.61 74981-512 29034 130319 40307-58236
3869.50-107461-94224-82873-20790 91291 28767
3872.40-32711-10286 11850-19873 6788 51116
3875.29 97728 92283-39960-146992-61669-64991
3878.18-93812-17618 43532 29043 3033 6603
3881.07 831 2337 37247 52666 1972 51702
3883.97 64632-23104-120388-20902 61282 59994
3886.86 119161 112217 109902 129537 72235 17951
3889.75 41202 41869 27258 92838 116774 61401
3892.65-43328-11662 78447 101015 93502 69465
3895.54-41378-23948 20413 66882 157624 67175
3898.43-41833 16676 83877 113781 134501 139474
3901.32 71513-8450 9146 23610-43387-81841
3904.22-32459-21066 9297-9363 2383 128002
3907.11 209779 207155 222570 78177-9591 18202
3910.00 5294 75852 120076 138961 119278 105604
3912.89 214468 219163 207724 192319 60152 68664
3915.79 219306 241565 155753 250805 230162 237926
3918.68 295777 183482 86915 189721 235596 196533
3921.57 286370 261256 204220 239407 299108 248761
3924.47 175402 211709 277464 294651 282185 268663
3927.36 302063 338731 276457 267310 332440 357251
3930.25 365752 384508 445394 384633 375130 546253
3933.14 658628 551463 486281 601349 574525 375333
3936.04 339551 574415 647331 585816 493680 483588
3938.93 576599 624272 546879 604429 657756 693133
3941.82 619830 546416 540070 571610 532140 391979
3944.71 410072 485105 441811 414655 361128 365804
3947.61 329451 340034 374682 343604 347955 480831
3950.50 553189 544220 554885 571281 549977 608434
3953.39 714130 713279 718417 627756 490389 528104
3956.29 678309 755580 745538 689855 680597 628618
3959.18 647200 721959 716371 580828 523983 549435
3962.07 592586 571461 481828 512870 522511 461195
3964.96 418911 373181 301918 317884 288564 284922
3967.86 418970 435743 360242 322121 278576 349491
3970.75 322310 261857 258075 219145 270254 264813
3973.64 307921 383542
##END=
