##TITLE=Acetonitrile
##JCAMP-DX=4.24
##DATA TYPE=INFRARED SPECTRUM
##CLASS=IUPAC A
##ORIGIN=NIST, Anayltical Chemistry Division, 301-975-3108
##OWNER=COPYRIGHT (C) 1998 by the U.S. Secretary of Commerce
##DATE=98/10/1
##$SPECTRA VERSION=1.00
##$UNCERTAINTY IN Y=2.0 % relative (B=1.0E-04,C=3.1E-10,D=2.7E-14)
##CAS NAME=Nitrile-Acetic Acid
##CAS REGISTRY NO=75-05-8
##MOLFORM=C H3 C N
##MP=-45.72 C
##BP=81.6 C
##$NIST SOURCE=QUANT-IR
##SPECTROMETER/DATA SYSTEM=IFS66V (Bruker)
##INSTRUMENT PARAMETERS=KBr Beam splitter; MCT Detector; Multipass cell
##STATE=gas
##SAMPLE DESCRIPTION=Acetonitrile Primary Gas Standard
##PRESSURE=101.3 kPa
##TEMPERATURE=23 C
##SAMPLING PROCEDURE=1 L/min Flow
##RESOLUTION=1.9290
##DATA PROCESSING=Happ Genzel Apodization
##XUNITS=cm-1
##YUNITS=(micromol/mol)-1m-1 (base 10)
##XFACTOR=1.0
##YFACTOR=5.6843E-14
##DELTAX=0.9645
##FIRSTX=574.687
##LASTX=3974.595
##FIRSTY=-1.38E-07
##MAXX=3973.63
##MINX=574.69
##MAXY=.0000902
##MINY=-4.23E-07
##NPOINTS=3527
##XYDATA=(X++(Y..Y))
574.69-2442918-3611064-4519322-4399928-4038738-3429292
579.51 607184 1716558-2821756-7444910-6899908-4878948
585.29-4819062-1198222-1428506-2497830-5713972-6858284
591.08-5059158-2414940-2576402-3020696-3985088-5266372
596.86-3968828-2495836-3772354-2850888-1188590-1715208
602.65-3845796-4607754-5197740-3181148-1353704 675730
608.44-1538512-3972380-3397638-2002382-3415138-3727342
614.22-4091208-2953462-725468-545304-1043998-1360366
620.01-3350606-4104642-3289144-1296774-1205158-1832802
625.79-984858-338344-1984928-2030654-1103912-1101726
631.58-1447364-885068-1317962-2006372-2613702-2350344
637.36-153982 171060-951086-950894-789684 109194
643.15-972308-581528 185108 537072 1001812 1036596
648.93-54524-368710-558812 1154920 1657260 1157240
654.72-49042-112888 55148 88954 363412 616934
660.50 43232 1074702 1336840 2140698 2674116 3250910
666.29 4677320 4339728 3227244 4411254 3826838 3878724
672.08 4197566 4657528 4711522 6184116 5656128 6021078
677.86 7757740 8748210 10104480 12309810 13058970 15813990
683.65 20001620 24149950 27710770 32252730 36753540 42787720
689.43 50043640 57742050 65028420 74114880 81899700 89955180
695.22 97577400 104887700 109957900 115492600 120689900 125256000
701.00 124903300 124322600 120404000 116225600 110951700 104431400
706.79 94660860 90759600 83000630 68990100 64702150 80084990
712.57 67827500 41897040 53178920 100807400 96288450 63212630
718.36 62070840 70739810 79526770 85941700 93055740 97416720
724.14 100836800 102116100 102207600 101116000 98681810 95091260
729.93 91491150 86328630 81318330 75764030 69978160 64746770
735.71 59671010 53048620 47200080 42782520 39356230 35529350
741.50 30760520 26220750 22819660 19431860 16568910 14102050
747.29 11393740 9631240 8577506 7449674 5938476 4332700
753.07 2859172 2347496 1938918 1156920 346270-162074
758.86-384314-324898-324126-254546-1191852-2393462
764.64-2035986-1050330-1165968-2053738-1914422-753236
770.43-1594486-2093464-1978232-1923718-1913528-1435386
776.21-1385832-2164978-2361348-2108558-1950788-1573148
782.00-2059222-2075540-1849350-1070416-1234364-2211412
787.78-2865072-2671988-2152536-2268248-2859800-2854334
793.57-1836230-1313060-1815538-2538306-3279164-2977500
799.35-1991756-2110562-2453560-2497792-2743736-2523138
805.14-2863216-2737410-3228326-2974260-2417878-2447590
810.93-2179800-2605870-2610956-2382834-2836822-2735450
816.71-2039138-1867664-2688930-2516056-2155182-1664350
822.50-2041186-1803112-2034652-2156716-2001952-1683516
828.28-1724188-2359992-2607056-2773026-2902212-1694280
834.07-2245864-2236868-1982976-2420782-2938156-2521152
839.85-2322232-1803978-1336890-1055078-1787948-2537566
845.64-2747178-2423802-2797058-2042710-1359148-1454822
851.42-1720258-1918898-2633590-1901604-1709996-2387704
857.21-2473932-2176780-2328896-1953300-1753630-1713198
862.99-1462672-1741638-1815718-1492400-1224686-1491948
868.78-1797344-1600386-1209620-914160-659980-298922
874.57-125988 774594 1637398 2069444 2153804 2878060
880.35 3869810 4783736 5753462 7240890 8648816 10581110
886.14 12694920 15199870 17655960 20367110 23449690 27191640
891.92 30384880 34194780 37667960 41625040 46273550 51746570
897.71 56998960 61642210 66649250 71673090 76201260 80620500
903.49 83857900 86913980 89023490 90232960 90730260 90689360
909.28 89496680 87168950 81378410 74838910 67252420 59297280
915.06 50944600 43553380 44439610 75033930 95075220 49545040
920.85 20424550 26161120 43938560 56082970 50783110 52282820
926.63 61683400 70333820 73678610 75646880 78385500 79802520
932.42 78920420 76847580 73644560 69721540 65035760 59762470
938.21 54348920 49101370 43062740 37213660 32034130 27196110
943.99 22329770 17946600 14560680 11855350 9171566 7288886
949.78 4966846 3349128 2408476 1718888 1079028 415084
955.56 18546-371480-604982-125856 98892 24550
961.35-389838-116242 236754 1198216 1466364 1494062
967.13 1737118 2182182 2642518 2576344 2254520 3109804
972.92 3749782 4484144 4796012 5096208 6093054 7729120
978.70 9777656 10379490 9359318 9789250 10554720 12953520
984.49 14376960 13870310 14156340 16270910 18535870 19543160
990.27 20491950 22360790 22447100 32948570 37516630 25889580
996.06 24018150 26261050 33733920 44014380 35780760 34839900
1001.85 37692380 41342260 57429310 53147390 41472220 36569180
1007.63 43758530 92442720 103687500 60766520 46420220 47949310
1013.42 74159800 93836580 67947830 52804470 65890180 81218750
1019.20 110068100 100320100 65662600 66844540 66047380 137860200
1024.99 217797100 134277100 69804870 59798500 70754090 137449400
1030.77 150820300 83305600 68694170 70080150 106527300 168805800
1036.56 140986000 93960110 74579060 73324900 199187600 291040200
1042.34 150855700 75745940 77271930 85480770 156288400 164350400
1048.13 89693230 78739800 80925400 95284120 158820700 142790900
1053.91 80820960 88187290 94973290 131602300 228138600 177953300
1059.70 78752120 74923730 80611070 99185660 129460600 103202100
1065.48 64386050 69681050 71584990 84054640 108136400 86933540
1071.27 61488110 59624280 58998140 97952070 121606100 80721140
1077.06 56441380 57126920 52431100 53041480 59991660 67949320
1082.84 53188140 39306440 36156840 39235080 48954230 55063230
1088.63 40441800 31180110 27895610 30084250 41744230 52280080
1094.41 35356990 22533570 19425300 18893830 20336270 25753920
1100.20 23701460 19326930 16674950 16932080 17329900 18586120
1105.98 16922820 13831340 11718610 11201040 10081060 12054600
1111.77 12789680 9836822 6960446 6858210 5569434 6141942
1117.55 5850892 5279616 4448722 4847092 3663586 3924582
1123.34 3751928 3730052 2122176 2164360 1732606 2297682
1129.12 2019728 2235352 978848 777204 231158 913856
1134.91 634746 932340 195814 263694-68950 623290
1140.70 219622 422628 122662 433870-301748 56346
1146.48-422360 237274 77248 143120-489720-265742
1152.27-699482-160968-697030-447664-834778-279910
1158.05-918432-614448-924032-290166-1000050-809184
1163.84-805798-329690-962044-271798-669284-369108
1169.62-909232-436382-824170-601096-928994-492014
1175.41-1103024-518130-1075222-799182-1186114-807502
1181.19-1179332-921350-1323936-709614-1112366-602788
1186.98-1128918-551286-805364-577046-1105398-294554
1192.76-411110 348158-232916-291130-744046-195908
1198.55-730444-88416-381098-67494-497120-16928
1204.34-338342 51496-559794-27548-52034 503416
1210.12-270078 100760-173790 423838 705702 1561426
1215.91 507040 310020 207866 1143704 570822 477572
1221.69-537002-142452-241882 538674 5014 813604
1227.48 397200 435612-230688 327798 130700 529404
1233.26 102368 854806 135648 1065938 1644480 3952982
1239.05 3558762 2575684 1262674 1459862 1123806 1477310
1244.83 784608 1359548 781202 1081928 823964 1740788
1250.62 1191440 2969302 5096892 5167000 2690512 2793090
1256.40 2819474 4557058 3456668 2710618 2552880 6040398
1262.19 6431996 5018184 3598502 4821580 7064440 9657694
1267.98 7585554 7764020 7253458 8455792 8544600 9293010
1273.76 8062316 8505606 8533896 10407700 10052870 11012090
1279.55 13582160 24145400 23712540 17440420 17700520 29255560
1285.33 30651420 23013770 16741430 12171730 8784140 8793026
1291.12 8541614 10604910 14360940 35130040 42866940 26091690
1296.90 18307080 16747550 16841970 17823180 18823970 18375080
1302.69 16183690 17510710 17132330 14970600 18651410 42279800
1308.47 58022600 39391540 26176190 24170940 24261900 25932580
1314.26 28204860 30081970 30268150 27787900 26725870 27093220
1320.04 30207540 48337480 83091210 77335780 52887380 48012970
1325.83 50162390 54909300 54794440 55450480 61464960 73354360
1331.61 57970660 36584130 37359210 74998540 168123000 180854800
1337.40 97193260 64852970 51045390 49277790 47524560 51075560
1343.19 52483940 60474250 61128990 56341560 57131330 91110840
1348.97 155652400 171997900 113577400 84164100 93741270 138196200
1354.76 111848200 75998970 74006800 85685350 98246860 113392400
1360.54 125984900 160358600 205970700 218956400 170629600 146083700
1366.33 167070300 202325600 223189700 243891200 267462000 275343800
1372.11 272225100 293390000 322778600 414294800 533219500 521975200
1377.90 374339000 266197400 234389600 228431700 241975300 259334400
1383.68 282643900 315698100 333886700 344773500 340252300 349201900
1389.47 348719700 341341300 368783700 445380400 489044300 484709500
1395.25 460359700 442202400 428334200 431782700 456101900 446390200
1401.04 388731600 363332900 345019800 339956500 398539800 566268800
1406.83 600630000 512762500 453252300 416424000 370073800 349429800
1412.61 320506800 308365100 329535300 379245400 350120700 294540700
1418.40 352736300 776318200 1105485000 987877300 723482800 508682500
1424.18 386150200 305627000 278961900 255654900 243548700 234850100
1429.97 234424900 235502400 255521200 442407800 752904500 667233200
1435.75 433244700 353744500 330407600 293819800 257608500 238314200
1441.54 258376300 391472800 442731800 326444100 259414000 288048500
1447.32 539733300 782943700 571175100 344461400 291807200 327935000
1453.11 306760700 264621900 270400300 303494500 263266800 238387100
1458.89 220736900 259933900 456570300 1268877000 1587730000 790587100
1464.68 378784800 322301800 313410000 292147600 306239600 291575900
1470.47 269532600 263571700 271606500 292754500 340601400 312243800
1476.25 315583700 529020800 666366700 468158500 469694500 784861600
1482.04 764570800 445272600 311720700 255562100 260945200 243673300
1487.82 237485400 225802000 238461600 259784900 284729400 265081400
1493.61 368816700 523645100 416522700 330817300 516706100 490326400
1499.39 311618200 258244500 234010700 210325100 206753400 205187500
1505.18 206493600 214871500 241485100 225597000 204625900 184848100
1510.96 184045800 441544100 830420200 578383700 235216300 176663100
1516.75 196781400 241372500 250549600 198771200 189359400 229930100
1522.53 241955600 174277700 159545200 218295800 523791200 604075800
1528.32 299642600 147759700 133154800 168205600 224737500 267325500
1534.11 213403700 168261900 176843800 187218300 186891100 188753700
1539.89 280029200 304353800 180414800 116674300 107013700 111516300
1545.68 115194000 114486500 104609700 107366200 119765900 107142900
1551.46 84221450 139837200 217264900 169031400 98663910 77403480
1557.25 85015980 96226070 100416300 86221110 72014860 80064150
1563.03 90800720 75674450 104679100 203958200 163368700 68005180
1568.82 52819320 44412260 43057350 56692450 74253890 71695270
1574.60 81240250 91856090 102438200 105164800 107440600 88944300
1580.39 59127080 47591390 45467060 42002190 40822760 44313660
1586.17 45657240 43272780 43224750 39918400 47282060 56698530
1591.96 39794800 25427110 22805810 21881340 19899210 17480010
1597.74 20253370 25111250 32184910 31162340 29753400 43529100
1603.53 39705020 19576270 14026660 12474720 12238230 11758400
1609.32 11946590 13927150 18311090 18713060 18727250 21751090
1615.10 33078200 30165140 15838730 10508940 9898900 8834704
1620.89 8893938 12511170 17522390 13499320 10859840 11336800
1626.67 13300950 9306054 6189272 5228380 5101618 4426698
1632.46 4971258 10142600 19413530 15015640 9004622 7568434
1638.24 7085132 4911192 3290250 2833262 2583058 2254506
1644.03 7181002 14160460 13525860 10926870 7627764 4736572
1649.81 5568406 17230230 33648580 27524420 12846050 4679010
1655.60 2328624 1812556 1783810 1560320 1975890 3118374
1661.38 6394012 5497794 1733854 1108352 1119174 1081376
1667.17 3930326 8866482 6927360 4740052 3753650 1227026
1672.96 2686732 8811988 8132544 1716714 505136 957172
1678.74 2524356 2283414 1945784 5309160 13763030 23841440
1684.53 16306980 2438544 1606466 1864720 2290714 1490656
1690.31 1022566 600844 1589754 2972736 15363140 21413010
1696.10 8565742 2628744 9082962 21823250 18334100 5445728
1701.88 2052292 3549338 4945832 5357850 5195360 2197192
1707.67 1481854 1382804 1937088 1159416 1635794 2693140
1713.45 6292746 6694894 9042214 17612680 15093030 7010796
1719.24 3112648 2283034 2568660 2613876 2843044 2181776
1725.02 2568012 2477624 2894060 3619576 5454304 4733554
1730.81 5019804 11706050 20090090 18360010 9055524 3611360
1736.60 4243726 6175434 11746790 10449580 5899924 5519340
1742.38 6237848 5023892 5193954 5122122 5402426 6239192
1748.17 6757078 7160594 12152040 9699460 5144058 4108906
1753.95 4356786 5891900 7930490 6121966 5351010 5067864
1759.74 6898342 10157840 8339898 5105540 5020578 4581686
1765.52 5068112 7777088 9601838 6003250 6463878 9822164
1771.31 15306880 13084770 6412434 5753386 6063908 5194750
1777.09 5471318 5656232 6500052 6653664 5599088 4791628
1782.88 5524870 6807344 6378444 5513114 5093580 4797076
1788.66 5745336 7254476 9546808 12450760 9622166 5734266
1794.45 6159522 6053214 5882268 6001552 7979100 8131412
1800.24 8002360 7809800 7592548 7192752 7451506 7494374
1806.02 7986472 8026532 8407956 9302930 10202250 9231588
1811.81 9115426 9149222 9482922 9374524 9925534 10174430
1817.59 10573380 10304330 10470710 10584820 10735740 10510150
1823.38 11911380 12562260 10392050 8731306 9386912 11547650
1829.16 13865370 11765840 8753788 7615892 8162382 7653842
1834.95 8189176 9315266 10404610 10364440 11694960 12468910
1840.73 12197140 12070700 16745130 17901230 13089280 11218480
1846.52 11708710 11300080 10667940 10323240 9930220 9310104
1852.30 8621560 7882502 7903614 7472588 7144064 6636628
1858.09 6507360 6425486 6451232 5874500 5512374 5165118
1863.88 5708552 5911064 5933360 6347620 7760882 7689078
1869.66 5207880 3989512 4055322 3771718 3787278 3431432
1875.45 3276892 3438020 4154138 4702032 4482586 3744626
1881.23 3903608 3769306 3843756 3742636 3961790 4224170
1887.02 4609878 5652346 6455956 5280330 5098000 5351984
1892.80 5421596 5522266 5932136 5609030 5831512 6042866
1898.59 6506466 6601686 6914242 6730816 6986978 7101954
1904.37 7085902 6042464 5390398 4570812 4025010 3793246
1910.16 3478766 3145112 3552116 3511302 3635244 3668972
1915.94 4774860 6719234 5486018 3338112 3087906 2762190
1921.73 3069896 2650642 2487320 2375410 2333926 2026484
1927.51 2099990 1996526 2234692 1766634 1589562 1420482
1933.30 1444904 1116862 1095266 1087586 1398798 1359266
1939.09 1472748 1661506 2725468 2557000 1285782 738276
1944.87 973376 913180 872302 764096 946882 743120
1950.66 967322 1098012 1039298 583822 788444 662646
1956.44 671766 765138 956066 718370 618550 446186
1962.23 264588 109590 417632 543796 1080206 897520
1968.01 567180 233724 203404 253454 674144 622520
1973.80 226304-178122 182904 158826 236696 383388
1979.58 628430 332698 252720 128172 203630 25146
1985.37 458374 1114588 1045216 210644 271118 580708
1991.15 854550 332794 213440-91472-76762-107976
1996.94-16950-204714-136250-71954 191288 392334
2002.73 441560-154952 111220 317660 128828-78808
2008.51 47396 2286-21070-12014 295564 80026
2014.30 48754 428642 791474 166508-357828-447302
2020.08 12766 105106 280788 474142 641680 397576
2025.87 364182 55776 249594 63290 242400 445732
2031.65 712152 594222 577654 537870 610028 517164
2037.44 961046 882750 719212 1128108 2257950 3000210
2043.22 2570266 2088626 2570298 2745076 2808820 2734782
2049.01 2890454 2706014 3709028 4759306 5183328 5425690
2054.79 5684114 5890098 6432918 6596224 6640560 6936380
2060.58 7783662 7908240 7888882 7715796 7551548 6909256
2066.37 6414974 6059958 5813944 5344698 4380622 2815904
2072.15 2964698 5351278 6577794 6347730 6746578 6043452
2077.94 6728930 7574968 7984010 7733614 7655258 7278700
2083.72 8281234 9482574 9463524 8459254 7944448 7843774
2089.51 7789028 7388558 7234550 6386108 5301890 4910170
2095.29 5412868 5131208 4800034 5518920 5202654 3366494
2101.08 3188004 2962468 2230620 1211562 850716 1249064
2106.86 1895180 1459524 946800 722488 1027922 589156
2112.65 663892 685868 809336 162254 246700 1453728
2118.43 1792574 589118 514300 796880 878360 396112
2124.22 529604 395882 509812 338482 113518 256630
2130.01 903736 788508 439144 369458 548380 687520
2135.79 1214806 1441086 963574 443492 647410 651626
2141.58 595984 384978 627512 461772 405894 288564
2147.36 422790 219072 218926 73494 368038 590190
2153.15 826068 619622 1415980 2403664 1657648 692786
2158.93 649002 787998 1185986 885562 690194 825228
2164.72 1110586 858318 689434 719470 791264 676764
2170.50 1006588 992378 601114 338110 1452042 2015408
2176.29 1256466 542486 900360 1105122 1161934 1087240
2182.07 1159578 730198 936156 1231640 1457734 967512
2187.86 1121998 1615060 1642224 1386582 1637434 1648376
2193.64 1799908 2031382 2192708 2060910 1969580 1791436
2199.43 2127256 1722652 1656780 1836906 2111272 2194172
2205.22 2218402 1857020 1896232 1648840 1614092 1558454
2211.00 2016204 2285610 2542070 3251794 3948208 3150974
2216.79 2987316 3200808 3516432 3799036 4628686 5355510
2222.57 6265254 6574274 7486466 8418422 9075942 9823928
2228.36 11428050 12819080 14342180 15887590 17800480 19937020
2234.14 22498850 24640950 27481480 30278220 33594370 36932900
2239.93 40610080 44035620 47991500 51558680 55492360 59125460
2245.71 62875650 66066350 69471540 72463110 75013630 75667410
2251.50 76369340 76242370 76542740 77809950 76483280 68646170
2257.28 62965090 58566630 60355470 68748820 59617410 39694870
2263.07 36053030 50350860 96447330 94991540 52302240 48864160
2268.86 60229280 71696250 81895240 92569360 101161100 108384900
2274.64 113274500 117177800 119087800 119943800 118974500 116925000
2280.43 114011800 110772900 107080100 103076200 98321120 93499520
2286.21 89025420 85291560 82090120 79009430 75554300 73117650
2292.00 71333080 67642930 63025750 60249470 57437690 52448780
2297.78 49329970 48023690 43798870 36518260 35952560 44090600
2303.57 67191580 86726020 79368090 70503900 72873620 78115920
2309.35 80655570 85174690 89776560 91150340 90157370 89358730
2315.14 88291650 86573680 82322970 77170580 71409820 65723750
2320.92 59465350 53445260 47712610 42990860 38133110 34172480
2326.71 30505700 27567940 25288870 23523090 21615310 19843390
2332.50 18227350 17201670 16509780 15425400 14127640 13470310
2338.28 12997100 12620310 11850560 10722790 10342330 10138130
2344.07 10126770 9792528 8718574 8275234 7728570 7787226
2349.85 8114416 8310370 8544412 9281036 10624770 11026670
2355.64 10581140 10691230 10716030 10742520 10796930 11295610
2361.42 11888190 12754760 13352140 13305570 12819560 12110440
2367.21 11662070 11285090 11383160 12625810 14899790 15692520
2372.99 13430650 11602940 11753260 12658670 14008890 16514090
2378.78 18279710 15774900 13410300 13716080 14131080 14429890
2384.56 16030740 19723590 20424450 17367380 15369980 15242700
2390.35 17227060 20704810 23931770 24613750 20525710 18255620
2396.14 19076530 22702500 30330020 37715900 31013590 19532460
2401.92 17699590 20236120 23847090 26108870 24479750 20205600
2407.71 22665500 25292290 25512190 28288520 28455800 24097500
2413.49 22536920 26523590 32981490 40916580 40628960 26243040
2419.28 20763270 22928160 25255620 26354450 25565620 21498210
2425.06 22385890 24276950 26235470 27306170 27809340 26792090
2430.85 25250150 23081830 24640430 26024460 20946620 24134380
2436.63 32986490 31786940 20448710 17431060 19724540 22412900
2442.42 22641980 20443180 19226410 19218130 18831210 19043590
2448.20 17046050 14638080 13350040 12740620 13087140 14888870
2453.99 15281740 15688840 16885690 17885120 16195270 14534710
2459.77 14605990 17566450 20458340 18706630 15540840 14490330
2465.56 14385130 15134960 15758450 15405600 15833860 18433400
2471.35 17894540 15924570 16312970 18103930 17468720 16314360
2477.13 16513190 16562360 17218750 20353960 21497960 18911090
2482.92 17652170 17399010 17371390 16754370 16573480 15992450
2488.70 15706890 18995900 23606630 21097740 16844560 15242200
2494.49 14429890 13827500 13955720 13778260 12877590 12522280
2500.27 14159550 17089910 17315720 15354650 13423340 12454560
2506.06 12581120 13003470 13110920 12785200 12399690 13160890
2511.84 14679590 14959410 13130030 11389010 10544950 10185690
2517.63 9813970 9673166 10953360 14163230 14556300 11945410
2523.41 10476930 9550144 9093472 9323030 9923410 10030470
2529.20 10089790 10183770 9727382 9788432 9947212 8849966
2534.99 7810436 7901042 7948184 8151046 8082500 7850820
2540.77 8490336 9134816 8826144 7690710 6209194 6022364
2546.56 6220562 6763054 6823198 7007552 6826136 6676956
2552.34 7622970 9141028 8616060 6698454 6045226 5964174
2558.13 6184970 5743574 5338272 5486044 5954138 6231124
2563.91 6950116 7051768 6047894 4728474 4180774 4257144
2569.70 4380700 4610446 4527542 4618584 5009878 5341954
2575.48 5387756 4943566 4646672 4381276 4526088 5004556
2581.27 5366874 5457540 5646362 6436516 7463092 8375984
2587.05 7928116 7393500 7532320 8377980 9500128 10628460
2592.84 11271150 11876070 12354610 13353500 14660050 15520870
2598.63 15779780 16948800 18550810 19454770 19985470 20565780
2604.41 21333820 22286760 24976160 27947070 29240790 31338460
2610.20 32023370 32227590 32138280 34555220 40250770 43821000
2615.98 46833630 49007250 50078740 54332890 56026050 65591370
2621.77 67682850 57702170 47465790 37374240 29738040 23875170
2627.55 22522340 22805760 23431120 23094650 22779320 22581880
2633.34 22469730 22285440 21898320 20543680 19156680 18053320
2639.12 16811700 15270380 14037520 12623890 11193690 9489564
2644.91 8024586 7309578 7098310 6748748 5860966 5128372
2650.69 5052256 4808218 4574106 4242190 4296740 4626878
2656.48 4872608 4922892 5030280 5314368 5790092 6908080
2662.27 8194128 8882166 7822894 6321448 5645192 4648742
2668.05 4126066 4191364 3804786 2569600 1879158 2108590
2673.84 3540162 4940250 5368776 4603188 3746760 3647808
2679.62 3960978 3695768 3319752 3199696 3265866 3296138
2685.41 3167710 2839912 2840832 2559838 2598440 2944346
2691.19 2787378 2655356 2461228 2068206 1932928 1774900
2696.98 1791956 1206454 709666 1011074 1413014 1835392
2702.76 1796042 1919852 2288432 1809612 1629910 1089244
2708.55 1129750 1928600 2414868 2354912 1926968 1935170
2714.33 1759558 1764008 2583510 4126898 5039492 4031930
2720.12 3264668 3776044 4226266 4234268 4510924 4592100
2725.91 4700384 5477152 6182588 6011024 6323506 6807876
2731.69 7527896 7679632 7213126 7207826 7377208 7333184
2737.48 7299664 6935464 6567422 6689436 7080170 7347376
2743.26 7912114 7634878 7069146 6892926 7165268 7614262
2749.05 8271192 9219502 9383400 8876208 8729836 9967866
2754.83 11492180 12584980 13377890 12876060 11093990 10008490
2760.62 9192412 8539396 8042818 7044218 6462986 6589776
2766.40 6517396 5520704 4700468 4101920 3746064 3986646
2772.19 3900012 3732114 3860426 3848502 3415628 3384306
2777.97 3710326 4226504 5220696 5453836 4734412 3936238
2783.76 3607444 2983974 2480028 2465250 2728916 3109556
2789.54 2860224 3272274 4700714 6985078 9315534 8690662
2795.33 5435072 3601864 2611610 2234150 1998302 2600240
2801.12 3683950 4247978 4222908 4348120 4900694 6220970
2806.90 7755318 9093016 7658134 5949208 4833584 3035966
2812.69 2639488 4730660 6079462 5563114 5347222 5795928
2818.47 6258058 7047660 8239086 10233970 10153390 8123212
2824.26 7857402 9396154 9996748 9460056 8684864 8532660
2830.04 8817104 9147772 10882820 12673380 14510940 15962230
2835.83 17724280 22741360 21005710 14957940 11375230 11989050
2841.61 15569520 19007660 21539150 23843360 25794740 27628590
2847.40 30507450 32466480 32857900 34228980 37174920 39436660
2853.18 38565500 38518480 38671140 38582640 37742850 38462010
2858.97 39296200 38029840 34958830 32802520 33400650 35432690
2864.76 37745170 47747740 60125880 66079210 55848500 49568880
2870.54 51408520 53162750 57187190 62107030 66473060 70176960
2876.33 74506480 76715160 77135910 76650580 75389630 73843540
2882.11 71542270 66474820 58935980 52155380 47799400 46877960
2887.90 47288220 45857440 45087710 47469320 50606540 50075500
2893.68 48395960 46669460 46184660 47904410 50217790 50967490
2899.47 51722760 52927320 53499630 52153530 51318060 51817710
2905.25 51563900 51221800 49521650 46466760 45987960 45716760
2911.04 42998950 41845680 42906300 40275720 38862960 38561110
2916.82 37715030 38809690 40234800 40958680 43582650 44397410
2922.61 41790790 39075720 36938530 38833020 50884380 66278850
2928.40 74273030 75139540 79918380 84475300 88299910 95376680
2934.18 104164800 113329700 127045500 140719200 146812100 152056900
2939.97 153920500 155574500 158086300 160226500 165237800 168599200
2945.75 166881900 151073900 125258100 106138200 91177320 79391750
2951.54 89572820 132075300 151956400 123781200 85962750 88506080
2957.32 86336940 94140670 115597800 128323500 142401700 153398100
2963.11 160370800 174316600 205831000 214212100 193095000 180062800
2968.89 173033200 166921000 159333200 150926800 141979300 146688500
2974.68 170468200 154142700 113930700 96267740 85912530 78324280
2980.46 70544120 64984820 63753800 114794400 184962700 131291600
2986.25 59422330 40933200 33937690 31071690 30280120 35581400
2992.04 45247870 93523040 119892900 70378930 36699860 33488600
2997.82 35534150 37168230 36701570 38750680 62878880 127474200
3003.61 121880700 59802740 39585040 34906220 35102230 33129050
3009.39 34407170 48132440 145770000 247086600 156076400 58958280
3015.18 38375620 34483200 36822930 36774950 39472140 60172400
3020.96 132237500 140994500 70949790 43569640 36507040 32816360
3026.75 32768850 38943360 45651980 95009260 145237200 96438470
3032.53 45149500 36497170 33393050 33496480 30582020 33578520
3038.32 80404240 203274300 189669300 75239220 42334680 37571740
3044.10 38201410 37038460 40290260 49758830 98412460 116365000
3049.89 66968280 39631700 37393520 35392860 31718720 31191330
3055.67 39126830 70664380 100276200 66274560 34520060 27627670
3061.46 28325300 29605610 30280950 34125300 76366140 112383600
3067.25 77952550 39728250 25253970 24548810 28848330 30319140
3073.03 31488700 44622870 64839660 51642160 29710940 24925020
3078.82 23118780 23112400 22556010 23647790 33737640 47858100
3084.60 38348400 21955400 17764490 16180440 16096110 17077270
3090.39 19766870 30841690 47861880 35732670 17267470 13155490
3096.17 11802210 11790360 13115780 16395340 22436400 27118740
3101.96 21345400 15525470 13812830 12374130 10339070 8804716
3107.74 11172310 16788770 17320140 13165060 10811390 9516900
3113.53 8218830 7426710 7255974 9265036 13607100 12402800
3119.31 8086528 7068074 6791112 6318432 6215758 6477480
3125.10 7084740 7781190 7517904 7362834 7079918 6939660
3130.89 6061196 4637306 4049372 6704336 8956784 8803106
3136.67 7694866 7898906 8748664 9405920 10049670 10092260
3142.46 10554640 11036960 10879790 10752250 11973380 13861820
3148.24 15380180 16243050 17134600 18258480 20083900 22077780
3154.03 22954220 24407420 26546870 28160030 29890580 32685120
3159.81 34677530 36187570 38360640 39755440 40527020 41041090
3165.60 42030620 42470830 41587950 40499460 39488510 37461720
3171.38 34762550 31591260 28034730 24413710 23932050 33113210
3177.17 47766060 42341720 27580530 19035770 19005480 25038030
3182.95 33677200 42919400 50529100 56972040 62298860 66989390
3188.74 70090800 72177990 72374580 70418470 66840700 62236310
3194.53 57241320 51995950 46076150 39734780 33252970 27842370
3200.31 23339620 19800780 17254950 15357090 13820000 12618740
3206.10 11647100 10949260 11304880 10985510 10006450 9888238
3211.88 9767972 8536230 8302342 10917850 13637120 14342070
3217.67 14627350 14030020 14146870 15365830 16825850 17292130
3223.45 18037130 18440230 18645130 18914390 18239660 17225710
3229.24 16363580 14548710 13114060 11629010 10105000 9812152
3235.02 8902708 7196638 6186412 5609882 5789966 5059714
3240.81 4279590 5130634 4830344 4149986 3891148 3688656
3246.59 3801932 3356976 2796656 3192322 3795144 3865484
3252.38 3365058 2957182 3456868 3846322 4044826 4044038
3258.17 3275006 3390892 3416070 2554396 2764334 3315600
3263.95 3257982 3492942 4075572 3836260 3032022 2861378
3269.74 3196130 3672994 4097788 3893326 3332146 2918350
3275.52 2961734 3135488 3134130 3519298 3660316 3283050
3281.31 2875216 2961724 3454794 3788684 4232694 4128978
3287.09 3814068 3996096 4028696 3807004 3602590 4201594
3292.88 4426190 4113838 3529448 3676038 3725270 3617130
3298.66 4104154 4317052 3751674 3653338 4197208 4767828
3304.45 4600918 3672380 3792580 4177904 4657268 5671796
3310.23 5708528 5554990 5029348 4187698 3972452 4340746
3316.02 5611454 6488930 7432450 6650950 5752792 5788014
3321.80 5065206 4768152 4980472 4994018 5322028 5668290
3327.59 5539762 6664640 7697824 6641294 5191720 5120354
3333.38 5191960 5314750 5767632 5784866 5766414 6277286
3339.16 6187224 6055014 5374326 5107114 5351098 5816420
3344.95 5912140 5829560 5861638 5344170 5454136 6001140
3350.73 6242538 6272436 6076462 5976622 6591346 7404656
3356.52 7111074 6550218 6122510 6722162 6991946 7130862
3362.30 7080556 7356214 6541646 5703496 5943492 6467292
3368.09 5852028 6078010 6989752 7255700 6335220 5951584
3373.87 5769694 5916370 6300110 6688888 6836574 6385504
3379.66 6383440 7329812 7397314 7236326 7114564 7094976
3385.44 7305664 7075278 7296208 7723850 7083044 6444760
3391.23 7365648 7647956 6050008 5495472 6127574 6523044
3397.02 6299818 5843168 5993394 5835292 5571946 6005464
3402.80 6032686 6176202 6812700 6852190 6119510 5792140
3408.59 6115176 6045078 6566420 6469106 5883432 5971814
3414.37 6357624 6039384 5111458 5327432 5988442 6435924
3420.16 5964756 6074498 6149812 6332746 5258366 4629132
3425.94 4615774 4594606 4955944 5430820 5258314 5676424
3431.73 5311064 5399218 5326490 4666116 4271920 4682764
3437.51 5234496 5075548 4646984 4736102 4763612 5036258
3443.30 4924430 4468718 5162216 5898036 5070760 4819910
3449.08 5038418 5092620 4949634 4834284 4969096 5011708
3454.87 4106098 3486570 4535940 4951290 4518396 4463496
3460.66 3772236 3320492 3875898 4237594 3715220 4054264
3466.44 4437064 3598660 3829808 4387364 4345462 4069316
3472.23 3762386 3833322 3658780 3935328 4029394 4538556
3478.01 4338708 3919384 3854654 3628196 3494384 3767828
3483.80 4369494 4198748 4273342 4313468 4026192 4350976
3489.58 4381592 3326194 3376332 4710104 5218072 4406280
3495.37 4439192 4641510 4248582 4483464 4540608 4337928
3501.15 4315724 4572082 5102840 4870732 4153330 3578664
3506.94 4325196 5779822 5829868 4517478 3771298 4194434
3512.72 4536712 4771626 4690242 4781112 5046468 5153782
3518.51 5492422 4752502 4093570 4939282 5964642 5528454
3524.30 4989950 5372086 5852254 5414816 5588278 5775716
3530.08 5056432 4543522 4956026 5731758 5634266 5570542
3535.87 5999770 5993568 5808590 5673572 5901216 5685722
3541.65 5415002 5412214 5429906 6115130 6516150 5916994
3547.44 4845348 4859378 5587718 5783482 5966020 5821486
3553.22 5414074 5732538 5831052 5367040 5117938 4863950
3559.01 5213364 5276662 5075652 5798806 6483750 6721078
3564.79 7922418 8267808 8549698 7965078 5500594 4285452
3570.58 4260068 4976492 5588816 5564626 5087040 5044758
3576.36 5039318 5033648 5758670 5642770 5169122 5166580
3582.15 5476818 6243070 6419794 8264896 9247290 9119008
3587.94 9328084 6566364 5515078 5094328 5330330 5596956
3593.72 6223674 6623906 6315664 6026698 5823058 5752452
3599.51 6415456 6609512 6303094 6088856 5512574 5494332
3605.29 6794336 7519328 9030300 12571870 9670792 6936002
3611.08 9244560 9884460 8241712 8327186 7718184 8639602
3616.86 10237370 11313880 12352580 9484320 7845086 7522072
3622.65 7565410 7500138 8494212 8615356 11607830 17643870
3628.43 19065910 13300510 8706858 8434556 9083650 9307042
3634.22 8600610 8395100 8685920 8862558 8626306 8971078
3640.00 9141822 9516104 9881936 9224278 9092906 11158350
3645.79 15363960 16572180 19785170 21760120 17981600 15099810
3651.57 11193340 10495430 10805370 14595880 17409240 13146980
3657.36 10144200 9923598 10094570 10498250 10406080 10220550
3663.15 9725246 9867012 9799592 9843408 12393660 14548940
3668.93 17932650 21764770 13437710 9605262 12787380 19852170
3674.72 24958990 19614770 11887570 11773510 13160600 12769610
3680.50 11549830 11339690 10658880 11231760 10483030 10094770
3686.29 13776860 23273400 18708780 12324660 13887780 11415080
3692.07 8231598 7670884 7886158 8568158 8466528 8350534
3697.86 8444252 8834744 9251370 10770100 9802890 8027280
3703.64 7639082 7775528 7647716 8291210 9843616 11673250
3709.43 10036490 14149290 18278670 11713750 7544600 7463946
3715.21 7850442 7763870 8091292 8372376 7747656 8716700
3721.00 10394060 9486656 8000258 9192268 10501910 10663500
3726.79 8199754 6962178 6527500 7932534 13574010 14573990
3732.57 9765264 12656680 14536160 16273740 13300290 9485138
3738.36 7914322 8089712 9118968 8962484 14064560 30120900
3744.14 27545730 11109160 7676300 11070270 20987050 20187330
3749.93 14136840 22921940 20071690 9578622 7389202 8396224
3755.71 9640680 8679954 9179614 11322190 9898224 7203218
3761.50 7035712 7111076 7814592 10056100 9760078 7685270
3767.28 7741514 10508190 11952460 8306228 6734756 6828614
3773.07 7410044 7495370 7307644 6885888 7128008 9190008
3778.85 10084720 7637100 6952528 7136008 7597254 7831670
3784.64 7960284 7086336 7133182 7791110 7452648 6943242
3790.43 7316686 7305870 7344244 7437214 9039274 11228050
3796.21 10373220 7996676 7368104 10683960 20676470 19133510
3802.00 10372470 8714962 8527944 11582940 17619850 13915210
3807.78 7698956 7406800 7313236 7252606 6664344 7306482
3813.57 9834432 19888320 21332420 11022200 8123790 9314232
3819.35 14215810 17963340 13848240 8683526 7933800 8138426
3825.14 9969132 10392900 8940202 8170150 8467090 10444060
3830.92 11860610 8678536 9523944 12642360 11214150 13719510
3836.71 22939320 17514980 10855770 12122190 11183910 9761210
3842.49 11009400 10463550 8649788 7983946 7964116 8501580
3848.28 8949696 9694672 16336350 22874230 24346590 33357010
3854.07 22929670 10819380 10252130 9767028 9422160 9280090
3859.85 10416460 11975130 11024130 12215170 16585840 14720980
3865.64 10037010 9751770 12570350 19450500 18884430 11972820
3871.42 9515602 11206440 13443820 11034310 9547822 9297028
3877.21 9025710 10379490 13628540 13120850 10213090 9911574
3882.99 10215120 14784510 17878000 11808480 8768340 9929712
3888.78 11141730 13947390 14999550 10793280 9527674 9519224
3894.56 10487670 10863480 10931930 13042030 15307720 12871350
3900.35 15467720 16351430 14499420 16547310 15052840 13220260
3906.13 11943630 11136070 11893550 12717240 12853760 12120150
3911.92 12777450 14092370 14182410 14864780 18397460 17389360
3917.70 13979870 14698420 15710680 14859130 14150920 15330000
3923.49 16596100 15978970 13877000 12651180 13688140 15391900
3929.28 15102930 15448150 16867290 15960480 14838520 14896570
3935.06 14195740 13652010 14410810 15916300 15398580 14299200
3940.85 14784850 16081900 16676340 18042520 16621340 14594670
3946.63 14660050 14643950 16122480 16048380 14966080 15214680
3952.42 17846670 22395160 18188880 13748240 14412200 14729370
3958.20 15025040 14851050 18190890 18283500 15071280 15038990
3963.99 15769770 16462760 21147650 22078330 16763560 14861960
3969.77 14863740 15208720 23366440 28434720 19363380
##END=
