##TITLE=Acetonitrile
##JCAMP-DX=4.24
##DATA TYPE=INFRARED SPECTRUM
##CLASS=IUPAC A
##ORIGIN=NIST, Anayltical Chemistry Division, 301-975-3108
##OWNER=COPYRIGHT (C) 1998 by the U.S. Secretary of Commerce
##DATE=98/10/1
##$SPECTRA VERSION=1.00
##$UNCERTAINTY IN Y=2.0 % relative (B=1.0E-04,C=3.1E-10,D=2.7E-14)
##CAS NAME=Nitrile-Acetic Acid
##CAS REGISTRY NO=75-05-8
##MOLFORM=C H3 C N
##MP=-45.72 C
##BP=81.6 C
##$NIST SOURCE=QUANT-IR
##SPECTROMETER/DATA SYSTEM=IFS66V (Bruker)
##INSTRUMENT PARAMETERS=KBr Beam splitter; MCT Detector; Multipass cell
##STATE=gas
##SAMPLE DESCRIPTION=Acetonitrile Primary Gas Standard
##PRESSURE=101.3 kPa
##TEMPERATURE=23 C
##SAMPLING PROCEDURE=1 L/min Flow
##RESOLUTION=1.9290
##DATA PROCESSING=NB Strong Apodization
##XUNITS=cm-1
##YUNITS=(micromol/mol)-1m-1 (base 10)
##XFACTOR=1.0
##YFACTOR=5.6843E-14
##DELTAX=0.9645
##FIRSTX=574.687
##LASTX=3974.595
##FIRSTY=-1.43E-07
##MAXX=3973.63
##MINX=574.69
##MAXY=.0000895
##MINY=-4.17E-07
##NPOINTS=3527
##XYDATA=(X++(Y..Y))
574.69-2516770-3637928-4478302-4419816-3993148-3414386
579.51 578348 1613348-2822448-7353504-6901720-4833868
585.29-4865376-1159662-1534176-2468480-5721982-6774658
591.08-5074218-2430056-2609216-3022118-3982780-5226618
596.86-3980854-2506058-3771520-2817178-1242380-1717880
602.65-3864014-4550518-5208588-3123428-1413684 654008
608.44-1575568-3899862-3412602-2004822-3444158-3692978
614.22-4078546-2938404-751770-556690-1061908-1359278
620.01-3356992-4051402-3292580-1309962-1226454-1803826
625.79-1003992-349348-1983850-2000426-1125452-1096820
631.58-1450592-884572-1332878-2004872-2584730-2337536
637.36-173014 151532-956182-912440-821232 123346
643.15-986604-551950 168972 545162 979964 1040952
648.93-73788-326454-566594 1169490 1611340 1167810
654.72-49156-94582 44758 103280 342912 635752
660.50 30802 1099544 1319006 2149584 2675618 3256966
666.29 4645464 4351242 3218618 4434814 3793852 3916614
672.08 4168682 4690346 4688028 6194002 5645698 6050854
677.86 7747212 8763084 10093290 12322110 13062520 15860980
683.65 19985290 24161350 27701560 32280180 36758730 42830440
689.43 50027220 57773340 65012060 74140700 81862310 89984250
695.22 97530200 104893800 109916500 115538900 120608200 125251800
701.00 124806000 124343400 120327300 116271500 110843300 104490400
706.79 94637420 90784250 82810400 69346900 64735020 79878320
712.57 67454000 42744510 53431540 100245200 95750950 63531900
718.36 62485700 70616460 79578580 85868640 93075150 97345100
724.14 100833600 102069700 102199900 101077100 98679410 95063220
729.93 91492340 86305190 81325220 75750410 69997120 64732810
735.71 59665330 53045330 47236380 42794190 39352880 35511420
741.50 30768880 26231550 22830850 19437070 16572810 14107290
747.29 11402630 9648664 8573748 7446666 5930990 4343370
753.07 2868040 2354908 1930658 1157632 349400-153090
758.86-384328-318500-331902-267422-1193958-2370646
764.64-2024534-1066354-1182742-2026632-1919124-758624
770.43-1611552-2071734-1983996-1919064-1910412-1442908
776.21-1395410-2159228-2355444-2099686-1964036-1567942
782.00-2070704-2053356-1855368-1076642-1253126-2204738
787.78-2850148-2667430-2161760-2277482-2846764-2841200
793.57-1842418-1328726-1826068-2532382-3261830-2971138
799.35-2002660-2117378-2455482-2486310-2756146-2508786
805.14-2880128-2726292-3227972-2968632-2417244-2459112
810.93-2176446-2607082-2608586-2386088-2835132-2719058
816.71-2058202-1867170-2694040-2490216-2175814-1654332
822.50-2055456-1792018-2044398-2145746-2001812-1690580
828.28-1731656-2354246-2613828-2748626-2915656-1685358
834.07-2265596-2218180-2002578-2411966-2936992-2507770
839.85-2330980-1792486-1353574-1059976-1800322-2515358
845.64-2755676-2411828-2799092-2030510-1379730-1450528
851.42-1734506-1904364-2632456-1895852-1728986-2377112
857.21-2472550-2173278-2330952-1950230-1755268-1716750
862.99-1463284-1744118-1805622-1495966-1231728-1492924
868.78-1790246-1594732-1213224-910798-665868-290744
874.57-124760 782992 1622474 2071428 2156972 2888938
880.35 3864036 4791798 5752512 7252076 8646496 10595570
886.14 12691960 15209050 17650800 20387010 23443130 27205210
891.92 30372460 34208660 37663200 41647520 46281680 51745210
897.71 56990880 61645510 66646730 71674080 76182550 80617980
903.49 83835860 86909780 88996650 90229570 90705020 90689700
909.28 89441720 87144850 81326150 74848750 67219260 59318440
915.06 50920120 43798470 44967450 74522880 94471760 49365090
920.85 21226470 26394690 43748440 55932910 50751590 52500680
926.63 61635110 70271510 73631300 75661530 78360440 79766790
932.42 78888180 76833740 73624830 69711380 65021000 59765700
938.21 54341360 49098480 43058800 37229140 32037810 27199640
943.99 22336160 17968550 14565120 11871520 9166348 7300784
949.78 4966394 3367854 2411600 1719664 1080500 418080
955.56 18094-362604-602212-119100 81656 32920
961.35-394688-95972 229530 1200218 1453958 1501030
967.13 1739320 2183896 2627912 2584782 2256726 3124718
972.92 3737528 4484734 4793744 5107394 6108078 7734030
978.70 9744260 10373080 9351648 9830618 10555940 12949360
984.49 14343020 13883260 14183600 16282610 18498710 19579640
990.27 20429760 22450460 22532400 32821330 37379080 25882790
996.06 24190080 26396570 33600130 43942150 35711450 34941800
1001.85 37861190 41294590 57293970 52952700 41446410 37159660
1007.63 44069680 91898610 103049200 60719250 47164330 48181330
1013.42 73960430 93287980 67984190 53179430 66281440 81088290
1019.20 109501500 100174900 65646480 67511550 67233010 137074200
1024.99 216417100 133405700 71085500 60560770 71266400 136513800
1030.77 150036400 83294440 69637890 70696810 106416200 167903200
1036.56 140325700 94134920 75683900 75197170 197652200 288925300
1042.34 150198000 77660920 77927050 85855070 155387500 163431700
1048.13 89949260 79444040 81423420 95433480 157906500 142149300
1053.91 81412390 88584820 95983140 131393000 226683300 176841600
1059.70 79828350 75774820 80662970 99164040 128717200 103024600
1065.48 64796880 69996320 71722720 83981850 107670300 86753390
1071.27 61664420 60108890 59357360 97620730 120857800 80636720
1077.06 56948620 57185240 52365360 53324250 59776190 67795660
1082.84 53028280 39562500 36258230 39407170 48735060 54924970
1088.63 40317560 31420760 27927940 30357630 41500350 52086810
1094.41 35185840 22822940 19420280 19006830 20298570 25727660
1100.20 23584500 19403720 16684320 16984480 17295630 18573910
1105.98 16869380 13873180 11710100 11243980 10086040 12060620
1111.77 12711300 9860602 6960608 6903270 5539542 6178676
1117.55 5802892 5319460 4416346 4880544 3629270 3971794
1123.34 3699550 3761450 2089980 2214614 1696088 2335666
1129.12 1974034 2264696 942658 824574 200682 948632
1134.91 594552 962562 162892 303644-98596 651598
1140.70 184846 457868 86850 466108-335922 95294
1146.48-452968 268740 38840 172760-519160-229486
1152.27-732776-128258-734528-407202-871802-245876
1158.05-956304-571454-961652-260640-1032964-767532
1163.84-844022-296536-995944-234074-711342-331630
1169.62-942172-403110-859492-564500-965410-455720
1175.41-1139532-481820-1113086-762302-1218676-775684
1181.19-1213740-884898-1357698-672806-1152564-564618
1186.98-1164236-514178-847338-537692-1137500-253578
1192.76-452192 377722-273520-249448-777874-159598
1198.55-765490-51832-420332-32096-529796 18324
1204.34-376442 85778-591230 13490-93844 534086
1210.12-303790 139896-204742 464730 665014 1580950
1215.91 470800 360670 175352 1171182 523544 517368
1221.69-568538-93752-285610 578366-34912 851206
1227.48 350818 475318-261038 366528 88150 572812
1233.26 57666 900296 92266 1133988 1600658 3971978
1239.05 3492356 2617620 1241150 1501258 1083338 1515734
1244.83 746762 1399436 738286 1131346 781852 1779738
1250.62 1178446 3015272 5019086 5179714 2661436 2873372
1256.40 2765966 4588780 3386754 2799422 2534974 6058180
1262.19 6345938 5062850 3597252 4900880 6988036 9678618
1267.98 7516396 7849160 7198436 8516106 8476428 9339866
1273.76 8008308 8585392 8472630 10471540 9959878 11197290
1279.55 13532480 24117910 23496690 17661220 17762960 29192850
1285.33 30442490 23035310 16759780 12238690 8773096 8891646
1291.12 8446848 10835070 14470600 34942390 42560600 26057720
1296.90 18537220 16736230 16873780 17825070 18773740 18396720
1302.69 16176900 17540200 17048900 15167300 18941350 42042130
1308.47 57654280 39252090 26471340 24203420 24290030 25942680
1314.26 28204510 30030970 30253760 27773470 26792450 27087110
1320.04 30664680 48288050 82675120 76921390 53102510 48306440
1325.83 50076880 54950470 54684380 55712200 61324800 73070030
1331.61 57838090 36806190 38486610 75414980 166813100 179723100
1337.40 97118770 65964520 50793400 49631330 47337910 51294590
1343.19 52373380 60510310 60920100 56546600 57725860 91603010
1348.97 154573500 171276700 113265700 85732420 93371390 137887500
1354.76 111118300 76759340 74210600 85824860 98116170 113585900
1360.54 126173900 160717600 205065400 218338400 170644000 147094600
1366.33 167216900 202243100 223063300 243982600 267069000 275443800
1372.11 272204200 294055000 323697900 414565800 530923400 519895100
1377.90 374553300 267646600 235085000 228638200 242128500 259517500
1383.68 282594600 315744700 333380400 344902300 340096300 349288200
1389.47 348484500 342200300 369257800 445162400 487981800 484439000
1395.25 460325600 442394900 428653200 432100600 455320100 446064400
1401.04 388579400 364102800 344689700 342170400 398964000 565064800
1406.83 598119200 513038300 453585100 416726400 369907800 349918900
1412.61 320264400 309662100 329008600 379061000 348264700 298872700
1418.40 356954100 775225900 1098591000 983745900 725033700 509718200
1424.18 387745400 305886700 279670200 255423700 243914900 234797400
1429.97 234585900 235718600 259781300 441631400 748927600 663139600
1435.75 435636600 355287500 330045000 294003500 257521900 239862900
1441.54 259519300 390051300 440737400 325924300 262318000 292094600
1447.32 537283000 778451500 567945500 348918800 292553100 327835600
1453.11 305796400 266019600 269869500 303701200 261806400 240501100
1458.89 219032800 267597600 463090700 1258674000 1575566000 788362200
1464.68 390172800 321359400 314572600 291573800 306620200 290935800
1470.47 270106100 263525300 272393300 292443700 339798800 313178500
1476.25 318774000 526748200 662595200 470821200 473682800 780296400
1482.04 760244200 445792500 315649600 254892700 262019800 242726900
1487.82 238310700 225456500 239412400 258866400 285062800 266910800
1493.61 368704100 520211100 417551100 332880400 515392600 487160400
1499.39 312861100 259647600 233793400 210620100 206974400 205009800
1505.18 207014500 214601200 241337800 225093600 204730700 185228500
1510.96 190377000 439119300 824606700 573487000 240350100 179054300
1516.75 196777500 240695000 249923600 198981200 190724200 228586000
1522.53 242049200 173134300 163690100 219992300 520343500 599221800
1528.32 299456400 152002500 133349600 169224700 223655300 266461000
1534.11 213067100 169147800 177245200 186529100 187757300 189535900
1539.89 278785000 302712500 180254400 118363700 106998800 111695600
1545.68 114940700 114491800 104739500 107524600 119273400 107214700
1551.46 85558060 139648500 215940900 168000300 99693460 77902030
1557.25 85176640 95993660 100166000 86222700 72368100 80081900
1563.03 90347700 77013400 104676600 202614300 162133100 68847440
1568.82 53625400 44161200 43592060 56443620 74316160 71498200
1574.60 81577780 91604290 102530900 104923600 107187600 88769290
1580.39 59347420 47826190 45450120 42044500 40894440 44264720
1586.17 45652470 43208340 43274680 40092480 47165680 56470330
1591.96 39662530 25680370 22860830 21830670 19946370 17504280
1597.74 20367600 25082430 32054010 31263220 29827070 43322520
1603.53 39489230 19651160 14254530 12413090 12290090 11728330
1609.32 12030020 13897890 18325940 18614930 18904150 21745120
1615.10 32920280 29973230 15924500 10638590 9894014 8840160
1620.89 8999844 12443620 17484920 13412530 11000810 11274870
1626.67 13287590 9250700 6267702 5216068 5123670 4410796
1632.46 5133618 10072870 19327410 14880870 9122896 7568258
1638.24 7078228 4902422 3323338 2822344 2606328 2345496
1644.03 7175062 14094780 13428760 10942200 7626872 4806572
1649.81 5816942 17168690 33412830 27270190 12979880 4778186
1655.60 2380518 1806814 1799406 1547440 2025506 3111796
1661.38 6345962 5455240 1757718 1146246 1105054 1163776
1667.17 3901290 8823006 6870374 4765556 3744970 1301730
1672.96 2737188 8707526 8066742 1736232 601332 932884
1678.74 2517026 2284234 1990724 5456620 13690710 23600640
1684.53 16221850 2546856 1755568 1782554 2331702 1440708
1690.31 1084432 546158 1710238 3078336 15224650 21214380
1696.10 8531148 2979292 9067724 21628660 18162590 5549546
1701.88 2194552 3522602 4958978 5297720 5208166 2173000
1707.67 1549270 1343558 1966720 1128046 1703824 2681850
1713.45 6267638 6768316 9042890 17520660 14947680 7076836
1719.24 3184824 2291082 2584668 2589658 2861232 2163458
1725.02 2594674 2454966 2934314 3599304 5441890 4744028
1730.81 5139672 11705670 19939730 18215470 9128292 3679270
1736.60 4353962 6139362 11701470 10364180 5968004 5532918
1742.38 6235996 5008566 5222964 5104280 5437512 6190030
1748.17 6839110 7123128 12124650 9608908 5212952 4135370
1753.95 4396250 5859170 7919568 6087326 5391954 5103708
1759.74 6897450 10095780 8313736 5130836 5051394 4574148
1765.52 5135048 7703160 9597516 5978134 6602540 9782658
1771.31 15213040 13018160 6469582 5804136 6046568 5194858
1777.09 5492638 5650078 6496196 6630758 5603730 4820434
1782.88 5526654 6788710 6364412 5517170 5105282 4812900
1788.66 5754056 7289072 9515896 12383360 9604364 5771328
1794.45 6199424 6012044 5928602 5988058 7990488 8094790
1800.24 8020148 7794122 7606118 7185248 7468554 7481952
1806.02 7997198 8017016 8434004 9277228 10203030 9212400
1811.81 9146136 9130486 9499760 9361522 9943780 10154230
1817.59 10583670 10291580 10488060 10566270 10752030 10520020
1823.38 11900560 12521300 10396230 8764970 9436012 11514060
1829.16 13826470 11719010 8808054 7619590 8178958 7641530
1834.95 8225350 9287318 10419640 10351010 11717620 12416520
1840.73 12250140 12100690 16702910 17819530 13104220 11274320
1846.52 11698500 11290970 10674220 10320830 9930306 9300940
1852.30 8633760 7878674 7913944 7458170 7155114 6630536
1858.09 6520908 6413246 6456516 5861144 5531024 5163004
1863.88 5717398 5897690 5950628 6355434 7733022 7659576
1869.66 5217156 4011924 4061638 3762306 3793904 3424844
1875.45 3291176 3440624 4157290 4680286 4487072 3741174
1881.23 3917974 3756954 3853508 3738912 3968646 4223350
1887.02 4627926 5630182 6448448 5271216 5122270 5339528
1892.80 5432836 5511374 5939816 5597946 5850006 6029934
1898.59 6518002 6586110 6925348 6719486 7002366 7080022
1904.37 7088608 6029258 5402328 4566922 4035870 3786184
1910.16 3489332 3142768 3560640 3501090 3641444 3692806
1915.94 4770156 6681318 5469552 3350292 3116690 2744834
1921.73 3082328 2635520 2502706 2363790 2343554 2016926
1927.51 2115210 1982320 2242510 1753810 1604670 1410020
1933.30 1452792 1108608 1109054 1079346 1407192 1346806
1939.09 1491960 1657872 2716156 2534000 1298732 747350
1944.87 977754 903314 882338 755666 955404 736124
1950.66 978254 1081768 1047966 577678 798790 652982
1956.44 682766 757346 958472 711440 624880 438644
1962.23 274868 104728 430960 533126 1083422 882402
1968.01 576530 230272 215012 249136 675892 606642
1973.80 238098-179748 191620 148266 248428 373498
1979.58 631902 323416 264018 119718 211472 26484
1985.37 468320 1094338 1044436 210142 291480 563770
1991.15 859082 320484 227190-99720-65622-116846
1996.94-10980-210354-127086-76886 199498 376652
2002.73 447116-156528 121482 304760 133512-79652
2008.51 51906-4712-11788-17716 297634 74638
2014.30 63224 418454 786208 156696-339890-448246
2020.08 17850 96802 289442 463896 646912 385660
2025.87 377178 45636 261206 54624 254960 436198
2031.65 715474 586430 586314 529548 620246 512152
2037.44 963720 874466 734078 1137090 2252250 2979270
2043.22 2573878 2093996 2578802 2730656 2819156 2722654
2049.01 2904320 2709516 3720350 4744722 5181674 5421824
2054.79 5690190 5886952 6435092 6586282 6654592 6932862
2060.58 7785350 7893142 7895882 7705958 7552616 6903966
2066.37 6423134 6057318 5814396 5328762 4378784 2845360
2072.15 2998206 5332984 6567644 6325316 6766224 6033848
2077.94 6756040 7549992 7988868 7716736 7671934 7285318
2083.72 8294570 9455308 9452756 8458922 7959388 7836946
2089.51 7793638 7379952 7232638 6375206 5321384 4915758
2095.29 5408480 5129510 4814276 5495490 5196516 3367744
2101.08 3208804 2940518 2235292 1215030 873192 1241518
2106.86 1890940 1443300 966868 712896 1037522 576370
2112.65 682066 669708 811660 166586 269342 1430990
2118.43 1783182 586790 538556 778300 885822 387422
2124.22 543088 385616 515208 330386 127784 255096
2130.01 900730 777400 448062 369352 554582 687616
2135.79 1213422 1425650 968610 445972 655862 638970
2141.58 606162 378058 635322 450244 417326 279940
2147.36 430636 208722 230302 68006 379584 577174
2153.15 832034 629194 1416448 2380856 1650936 702598
2158.93 664116 779240 1186744 877264 703514 820046
2164.72 1109706 852544 698446 713838 797472 673478
2170.50 1010382 976126 616810 347280 1452162 1988024
2176.29 1262390 550816 909852 1092354 1170140 1075762
2182.07 1167720 724756 952586 1215750 1460324 966810
2187.86 1134218 1602940 1644192 1384874 1643898 1642998
2193.64 1807006 2024284 2195076 2051076 1982536 1781916
2199.43 2133442 1713496 1671332 1830900 2116138 2182434
2205.22 2224910 1848762 1906220 1639004 1626766 1555784
2211.00 2022306 2279192 2558022 3235462 3944176 3140954
2216.79 3008596 3192232 3527828 3794896 4642732 5341194
2222.57 6273202 6568868 7497682 8405846 9087794 9825704
2228.36 11438510 12809880 14352810 15884250 17816900 19928660
2234.14 22511630 24632480 27500670 30270110 33611680 36921720
2239.93 40625150 44023960 48006140 51544740 55506200 59108360
2245.71 62885080 66049980 69484980 72428400 75009810 75636740
2251.50 76379080 76233340 76577100 77717950 76437990 68610930
2257.28 63030140 58704480 60390160 68463560 59548760 39715340
2263.07 36805020 50427870 95848820 94438040 52573880 49456940
2268.86 60091870 71757840 81836660 92583580 101092400 108377700
2274.64 113222200 117169100 119043000 119928800 118940000 116919000
2280.43 113996500 110772500 107065500 103070800 98313260 93511090
2286.21 89034600 85306140 82086020 79011350 75569430 73122900
2292.00 71305570 67629300 63052620 60239440 57424480 52460340
2297.78 49373080 47946460 43803650 36566740 36194700 44324260
2303.57 67047040 86403430 79217880 70733300 72914330 78109930
2309.35 80650740 85192710 89712300 91117250 90141340 89373290
2315.14 88255550 86552880 82282700 77177770 71392740 65731200
2320.92 59452570 53469120 47709910 43011520 38129590 34193910
2326.71 30508570 27588320 25290820 23528440 21611340 19851790
2332.50 18234800 17208570 16501990 15426040 14132370 13479690
2338.28 12995670 12612000 11850970 10726860 10353010 10139430
2344.07 10115580 9792436 8712468 8289634 7728654 7797356
2349.85 8111116 8310780 8556732 9285886 10610670 11016660
2355.64 10579860 10700080 10708110 10750690 10797350 11304690
2361.42 11887770 12751820 13341130 13294740 12819230 12110350
2367.21 11667570 11292430 11406460 12641770 14866720 15651940
2372.99 13427530 11638640 11770850 12667600 14033550 16480400
2378.78 18229870 15764200 13449850 13732860 14119580 14469220
2384.56 16045440 19679990 20367490 17366620 15416440 15279680
2390.35 17249690 20713490 23854240 24572670 20517630 18335060
2396.14 19117550 22803920 30256660 37523450 30928270 19648870
2401.92 17834270 20227580 23843790 26002510 24497580 20252910
2407.71 22705100 25266850 25519860 28255470 28387830 24137780
2413.49 22629380 26588170 33006920 40697530 40515400 26263370
2419.28 20973220 22909080 25260500 26267700 25586070 21502020
2425.06 22469520 24237960 26248970 27268080 27807770 26754350
2430.85 25266460 23144260 24585350 26011260 21013830 24257720
2436.63 32781470 31686690 20492790 17593600 19706210 22378110
2442.42 22599990 20457790 19236790 19237900 18807700 19033600
2448.20 17021890 14663700 13357750 12773320 13088020 14891760
2453.99 15261680 15718480 16859410 17863680 16174230 14580910
2459.77 14652630 17554050 20393050 18675460 15566480 14523240
2465.56 14390810 15137990 15735580 15439420 15835280 18411710
2471.35 17854180 15972020 16322930 18080830 17451030 16333650
2477.13 16514320 16584610 17245820 20318210 21455340 18901810
2482.92 17693710 17386210 17378320 16746300 16575130 15998240
2488.70 15783110 18976230 23532840 21035650 16891320 15262800
2494.49 14436280 13835580 13952100 13767990 12884860 12565750
2500.27 14166080 17058010 17268780 15353920 13442600 12472820
2506.06 12587990 12998510 13100640 12789130 12416450 13175460
2511.84 14652920 14930910 13122000 11409300 10551310 10189510
2517.63 9813918 9711882 10967070 14123520 14512200 11943400
2523.41 10503070 9551468 9110920 9324390 9920062 10028070
2529.20 10085560 10181980 9731566 9787194 9930492 8851434
2534.99 7822084 7911456 7943486 8148232 8083596 7861032
2540.77 8491182 9121758 8802282 7698512 6214758 6047160
2546.56 6211130 6769340 6812738 7008706 6824464 6699534
2552.34 7625320 9108918 8598200 6704742 6071540 5956276
2558.13 6184754 5736722 5353202 5485400 5960930 6228504
2563.91 6944666 7029572 6044066 4740374 4191212 4262814
2569.70 4376660 4610494 4527714 4623714 5011112 5332448
2575.48 5385118 4939056 4653292 4385416 4532988 5002944
2581.27 5360994 5462810 5651112 6449584 7448464 8364930
2587.05 7916704 7411028 7541170 8388240 9493962 10627470
2592.84 11261930 11881870 12357990 13362740 14647190 15518690
2598.63 15788610 16957490 18542080 19444090 19989820 20563260
2604.41 21346660 22314520 24968510 27948530 29215090 31347070
2610.20 31989770 32236780 32190110 34586590 40245130 43800740
2615.98 46788780 49065040 50007810 54455460 56007120 65532500
2621.77 67481340 57629340 47528920 37366200 29825110 23910980
2627.55 22589530 22787460 23433880 23080360 22790130 22577290
2633.34 22474800 22272680 21890410 20535990 19164930 18047230
2639.12 16813080 15266970 14042800 12616320 11193980 9492120
2644.91 8038314 7318998 7095262 6740086 5866038 5133290
2650.69 5058010 4800786 4578888 4244748 4303796 4624674
2656.48 4869726 4924232 5031240 5322808 5796246 6916536
2662.27 8175852 8856258 7816322 6325014 5652772 4649450
2668.05 4139760 4178966 3798208 2569628 1905576 2122074
2673.84 3545912 4917796 5351452 4598286 3762248 3651002
2679.62 3956828 3689600 3326190 3201426 3267764 3289060
2685.41 3171078 2836608 2844114 2562260 2601110 2941326
2691.19 2783356 2654070 2462024 2065782 1941048 1768810
2696.98 1788046 1207466 719022 1020102 1406928 1831390
2702.76 1800606 1913374 2290476 1796370 1638080 1093162
2708.55 1142484 1927472 2399530 2355718 1925318 1939346
2714.33 1760318 1779462 2597492 4108740 5015824 4029686
2720.12 3286068 3776916 4222134 4232526 4511916 4592148
2725.91 4712542 5470116 6179346 6005678 6337894 6804212
2731.69 7520432 7671226 7216812 7212146 7376166 7328758
2737.48 7297488 6933674 6577844 6689830 7087436 7340074
2743.26 7907732 7623868 7078008 6900450 7168350 7621738
2749.05 8269550 9211520 9367026 8888416 8747884 9977200
2754.83 11485950 12575710 13352190 12862170 11094050 10020850
2760.62 9195068 8537116 8041448 7046732 6478038 6581888
2766.40 6508582 5516820 4706376 4110298 3749606 3987690
2772.19 3895596 3737850 3855898 3845466 3419298 3390386
2777.97 3719522 4226714 5213090 5433494 4736162 3937982
2783.76 3608674 2984106 2486842 2475912 2721956 3109582
2789.54 2864450 3293768 4719050 6978588 9261104 8658936
2795.33 5435518 3637140 2609566 2248554 2006290 2611552
2801.12 3673424 4240946 4219556 4364238 4903458 6241604
2806.90 7726596 9068528 7638240 5957010 4830876 3061534
2812.69 2675082 4723400 6050632 5562060 5358110 5803190
2818.47 6254970 7068606 8236474 10204950 10123270 8148226
2824.26 7886120 9387856 9971958 9456548 8697100 8534002
2830.04 8832854 9157074 10894510 12676110 14483160 16020540
2835.83 17701950 22685970 20900690 15002490 11456280 12037800
2841.61 15575350 18989600 21533920 23833720 25802250 27635300
2847.40 30494080 32446450 32865050 34267360 37140220 39417380
2853.18 38541100 38550380 38643170 38594490 37749620 38473480
2858.97 39253300 38004910 34965960 32867950 33390220 35513420
2864.76 37800020 47873250 59894090 65927260 55819590 49723580
2870.54 51452870 53164550 57229030 62079300 66483460 70159400
2876.33 74490250 76670670 77120620 76636500 75384380 73824380
2882.11 71491940 66437090 58939420 52208700 47859980 46893840
2887.90 47273070 45860520 45150460 47463560 50571160 50028060
2893.68 48408730 46687720 46227360 47906800 50205310 50954600
2899.47 51738030 52905360 53477490 52158620 51331500 51821190
2905.25 51549890 51194020 49517340 46490360 45997070 45680760
2911.04 43035890 41842040 42900180 40254530 38893570 38564610
2916.82 37736110 38814680 40244190 40964900 43560840 44343270
2922.61 41775230 39086880 37042660 38983100 50962730 66126690
2928.40 74199540 75131620 79961980 84456050 88352280 95404400
2934.18 104194500 113403400 127006200 140661800 146706500 152056700
2939.97 153889500 155578900 158120700 160225000 165256700 168455700
2945.75 166634200 150939700 125297300 106266400 91210640 79936760
2951.54 89907180 131855900 150952100 123890900 86190450 88892460
2957.32 86314830 94353700 115600400 128192900 142444900 153247700
2963.11 160640800 174428000 205503600 213779100 193050300 180289900
2968.89 172997400 166924400 159306800 150890100 142396300 146702300
2974.68 170005000 153721000 114118300 96608230 85832660 78435130
2980.46 70464660 65190700 64891960 114337600 183740100 130399400
2986.25 60326730 41391810 33834720 31297960 30149580 36008120
2992.04 45678280 92981510 119037400 70177060 37419790 33607710
2997.82 35478510 37218600 36584750 39556900 62983400 126597200
3003.61 121025000 60033290 40308070 34727600 35289080 32956830
3009.39 34924470 49757090 144774600 245179600 154899100 60483520
3015.18 38916100 34394910 36999280 36545500 40302450 60476970
3020.96 131316400 139988300 71010330 44423060 36340140 33068570
3026.75 32667260 39215160 46384780 94542750 144199400 95913410
3032.53 45900750 36828930 33229070 33694180 30336100 35179160
3038.32 80531100 201646300 188058200 75799350 43605140 37256470
3044.10 38492310 36791570 40829860 50074260 97872270 115547600
3049.89 66903980 40286900 37374120 35382260 31758360 31363460
3055.67 39665690 70215700 99712060 65874250 35122480 27727680
3061.46 28409590 29468280 30561960 34681740 76035970 111582300
3067.25 77496590 40283290 25496500 24636380 28823350 30290770
3073.03 31800940 44513450 64485960 51395750 29930990 25103520
3078.82 23071550 23155140 22555730 23879390 33653630 47592840
3084.60 38172920 22107370 17898020 16156850 16154000 17065980
3090.39 20037460 30707550 47585270 35507820 17480760 13285530
3096.17 11783390 11841960 13134060 16474560 22343720 27016440
3101.96 21284980 15609180 13826580 12358340 10354680 8882634
3107.74 11204310 16717480 17244330 13170380 10846280 9514184
3113.53 8229112 7433944 7317568 9264618 13541000 12348340
3119.31 8116950 7105132 6779770 6327764 6219934 6489606
3125.10 7075046 7779460 7503584 7374822 7068608 6938382
3130.89 6038588 4674474 4081360 6714994 8906698 8792244
3136.67 7709628 7913478 8750776 9395368 10050960 10089820
3142.46 10559290 11023450 10885800 10769840 11990060 13852560
3148.24 15372360 16238980 17141910 18272340 20078380 22071470
3154.03 22954890 24421050 26538670 28167850 29897840 32679120
3159.81 34671890 36186790 38359460 39734130 40530720 41041890
3165.60 42022360 42449440 41582960 40494780 39477940 37442240
3171.38 34759340 31575480 28047320 24457730 24166900 33072320
3177.17 47553560 42094510 27700180 19195960 19116130 25098940
3182.95 33674440 42906370 50491330 56965590 62270050 66976070
3188.74 70057360 72150190 72331340 70388400 66820750 62229850
3194.53 57232500 51989120 46061360 39741190 33263950 27865490
3200.31 23355580 19819760 17267500 15363780 13828040 12618330
3206.10 11662510 10955310 11300820 10975240 10016880 9886990
3211.88 9753666 8556420 8347066 10918030 13617020 14311360
3217.67 14631550 14028610 14176900 15358270 16824680 17281020
3223.45 18040160 18435120 18641410 18901370 18235870 17216390
3229.24 16362200 14543030 13115990 11636810 10113970 9808258
3235.02 8892884 7197480 6208420 5610008 5780386 5068154
3240.81 4286106 5132132 4813038 4156918 3898246 3686742
3246.59 3796806 3356452 2808998 3199000 3785442 3853600
3252.38 3371536 2965906 3460510 3843852 4032358 4044198
3258.17 3279036 3389862 3411044 2561758 2774534 3307724
3263.95 3261334 3496266 4063402 3827844 3039548 2872258
3269.74 3200348 3668538 4089750 3884826 3335680 2926438
3275.52 2961924 3138254 3134460 3518436 3650458 3282130
3281.31 2885468 2965084 3458996 3783174 4226988 4126670
3287.09 3816854 4000110 4017412 3817158 3604404 4206242
3292.88 4407226 4118754 3532490 3679940 3723920 3623810
3298.66 4099106 4308252 3755264 3666058 4199138 4749078
3304.45 4598514 3678716 3803122 4185094 4653256 5669514
3310.23 5693932 5550830 5028480 4189316 3997444 4338616
3316.02 5627134 6465590 7419922 6643726 5759086 5790210
3321.80 5062812 4779126 4979816 4999128 5316064 5673128
3327.59 5550660 6663586 7665226 6635040 5207298 5131472
3333.38 5191584 5317800 5761508 5789142 5763420 6282486
3339.16 6170104 6059298 5371772 5122280 5351558 5811264
3344.95 5912042 5822512 5863560 5346842 5464460 5997432
3350.73 6236310 6269644 6078218 5991386 6586960 7397548
3356.52 7091922 6568450 6122774 6734154 6974204 7143112
3362.30 7068114 7352550 6532272 5728686 5937078 6465380
3368.09 5851350 6099242 6969318 7248028 6329636 5966084
3373.87 5770244 5922900 6300348 6682288 6827766 6397690
3379.66 6388082 7328522 7383958 7239380 7119120 7092128
3385.44 7306514 7078468 7297832 7708002 7086898 6464636
3391.23 7353068 7627468 6055862 5520178 6125806 6508598
3397.02 6301424 5845966 5992328 5837200 5574702 6007488
3402.80 6031948 6182168 6804390 6838172 6129466 5793436
3408.59 6124990 6038994 6565140 6459432 5892178 5979650
3414.37 6340200 6040062 5116810 5349850 5969216 6439332
3420.16 5952894 6095600 6128828 6332098 5251302 4645762
3425.94 4615322 4604780 4947056 5439074 5243364 5687194
3431.73 5300726 5404848 5314274 4671876 4284700 4685572
3437.51 5222024 5074214 4648186 4744182 4761160 5030790
3443.30 4923176 4485382 5156134 5886732 5065264 4835990
3449.08 5033246 5090200 4949458 4839836 4963786 4997322
3454.87 4117118 3503500 4533494 4939460 4512844 4463362
3460.66 3772274 3338380 3869342 4231218 3723454 4049476
3466.44 4432440 3600794 3843012 4378012 4335872 4076872
3472.23 3756972 3844712 3649632 3949958 4020010 4537690
3478.01 4330680 3922920 3856796 3625398 3508044 3763104
3483.80 4368820 4193186 4274958 4311796 4032780 4342312
3489.58 4372916 3338014 3400494 4692992 5204526 4410138
3495.37 4443640 4639862 4247962 4487954 4534254 4339178
3501.15 4325602 4569210 5097108 4855406 4161998 3599596
3506.94 4335032 5758200 5805566 4527860 3786100 4202318
3512.72 4527386 4771034 4691780 4780376 5053244 5144068
3518.51 5484732 4750650 4119464 4938798 5947382 5520322
3524.30 5009254 5366866 5848752 5414606 5590496 5763918
3530.08 5056160 4563126 4956922 5723538 5632424 5574506
3535.87 5999458 5983524 5816386 5671938 5899862 5683160
3541.65 5415724 5421046 5433146 6115194 6494688 5913464
3547.44 4860992 4869864 5585948 5776646 5961012 5821898
3553.22 5419822 5731178 5825492 5361730 5128636 4865234
3559.01 5212728 5274908 5087806 5795192 6491060 6715512
3564.79 7927784 8255880 8527170 7950998 5501896 4321318
3570.58 4266022 4979502 5573722 5560952 5090332 5045060
3576.36 5047686 5033414 5754216 5634350 5171046 5185784
3582.15 5463846 6261796 6423016 8257994 9246526 9076944
3587.94 9335810 6541324 5565456 5082310 5347614 5593466
3593.72 6222578 6612862 6313794 6026558 5832284 5756468
3599.51 6413220 6600750 6299338 6087252 5523954 5513082
3605.29 6780918 7566636 8998164 12525270 9646948 7010082
3611.08 9229462 9861064 8232254 8355216 7722438 8651800
3616.86 10253870 11262430 12342900 9455256 7900430 7506220
3622.65 7591456 7484804 8513286 8653550 11655020 17557150
3628.43 18959940 13301630 8779116 8467932 9063250 9303564
3634.22 8597966 8411664 8676472 8866386 8623996 8977400
3640.00 9143726 9507784 9878344 9217028 9161176 11147780
3645.79 15371430 16569350 19745940 21720770 17909240 15167780
3651.57 11176160 10575210 10838860 14559010 17335370 13122850
3657.36 10208210 9937182 10089060 10500530 10392380 10226830
3663.15 9727746 9863082 9816502 9870324 12387340 14622550
3668.93 17811480 21713270 13387320 9795902 12845420 19793130
3674.72 24799700 19579810 11976060 11843760 13107470 12777660
3680.50 11532460 11376450 10630770 11259690 10434180 10265040
3686.29 13725630 23168620 18624980 12410760 13894850 11362950
3692.07 8280850 7698016 7879838 8569672 8452708 8366958
3697.86 8432776 8862108 9235440 10756000 9773786 8054798
3703.64 7643462 7785308 7641278 8340354 9791924 11686280
3709.43 10094430 14112340 18183200 11670080 7655554 7462990
3715.21 7850214 7767512 8083808 8371366 7765890 8725548
3721.00 10353810 9486774 8021480 9224490 10448920 10652170
3726.79 8190926 6989186 6575732 7987528 13467100 14571340
3732.57 9754658 12777170 14425160 16264240 13244110 9538260
3738.36 7944204 8108142 9078434 9150328 14100580 29886290
3744.14 27348940 11182920 7967152 11057910 20839390 20203520
3749.93 14178300 22890260 19893570 9677946 7503824 8361314
3755.71 9635022 8692118 9194770 11277600 9875490 7230512
3761.50 7054472 7128754 7820894 10027200 9728328 7715372
3767.28 7801630 10452100 11917790 8286986 6799328 6819582
3773.07 7413642 7482118 7307140 6900782 7158440 9153234
3778.85 10062160 7626706 6997534 7122880 7609532 7811064
3784.64 7961716 7089662 7146458 7775180 7454132 6946126
3790.43 7325204 7293270 7357268 7460172 9042232 11178890
3796.21 10358840 7989062 7521550 10685780 20554820 19007140
3802.00 10431370 8798234 8592234 11573010 17512480 13856520
3807.78 7760080 7469040 7265846 7291886 6627356 7428226
3813.57 9877358 19754660 21200460 11031500 8291570 9339854
3819.35 14190820 17846170 13824560 8731874 7995238 8133222
3825.14 9961970 10358560 8945722 8192238 8509438 10392810
3830.92 11842950 8701416 9569172 12572480 11336740 13693180
3836.71 22837680 17417950 10972290 12130940 11164940 9787416
3842.49 10999810 10435580 8663716 8002276 7973636 8492482
3848.28 8973940 9807998 16245450 22995570 24174100 33277560
3854.07 22774410 11007850 10318880 9727586 9449540 9296424
3859.85 10412030 11949220 11068350 12230270 16511830 14675950
3865.64 10069100 9879260 12565530 19362490 18780920 12009240
3871.42 9632728 11168340 13420330 11002600 9591176 9291328
3877.21 9068178 10388490 13575900 13094050 10216150 9972382
3882.99 10268850 14722360 17793620 11794180 8863432 9943606
3888.78 11166010 13884180 14971360 10772440 9604418 9503568
3894.56 10498330 10845590 10992500 12982350 15324600 12863580
3900.35 15477360 16337700 14485500 16566290 14994460 13249870
3906.13 11953710 11154110 11907090 12691730 12854980 12130330
3911.92 12795850 14063970 14220100 14867860 18350490 17352050
3917.70 14021680 14726490 15672090 14866640 14176030 15336050
3923.49 16560640 15955540 13889760 12695320 13689070 15373850
3929.28 15108330 15452490 16846010 15949120 14849690 14897920
3935.06 14189000 13684910 14408160 15897310 15379220 14332790
3940.85 14784940 16099270 16652160 18019200 16609760 14606630
3946.63 14697430 14634130 16116360 16031410 14968850 15306630
3952.42 17795910 22325220 18146280 13817140 14455460 14676620
3958.20 15079770 14848750 18168940 18230230 15104420 15056570
3963.99 15801720 16491060 21089620 22000610 16782480 14900140
3969.77 14913120 15316820 23260650 28308690 19328200
##END=
