##TITLE=Dichloromethane
##JCAMP-DX=4.24
##DATA TYPE=INFRARED SPECTRUM
##CLASS=IUPAC A
##ORIGIN=NIST, Analytical Chemistry Division, 301-975-3108
##OWNER=COPYRIGHT (C) 2001 by the U.S. Secretary of Commerce
##DATE=01/06/01
##$SPECTRA VERSION=1.10
##$UNCERTAINTY IN Y=2.1 % relative (B=1.12E-04,C=8.08E-10,D=1.49E-14)
##CAS NAME=Dichloromethane
##CAS REGISTRY NO=75-09-2
##MOLFORM=C H2 Cl2
##MP=-95.1 C
##BP=40 C
##$NIST SOURCE=QUANT-IR
##SPECTROMETER/DATA SYSTEM=IFS66V (Bruker)
##INSTRUMENT PARAMETERS=KBr Beam Splitter; MCT Detector; Multipass cell
##STATE=gas
##SAMPLE DESCRIPTION=Dichloromethane Primary Gas Standard
##PRESSURE=101.3 Pa
##TEMPERATURE=23 C
##SAMPLING PROCEDURE=1 L/min Flow
##RESOLUTION=1.9290
##DATA PROCESSING=Happ Genzel Apodization
##XUNITS=cm-1
##YUNITS=(micromol/mol)-1m-1 (base 10)
##XFACTOR=1.0
##YFACTOR=9.0949E-13
##DELTAX=0.9645
##FIRSTX=575.652
##LASTX=3974.606
##FIRSTY=3.28E-07
##MAXX=3973.64
##MINX=575.65
##MAXY=.0008461
##MINY=-4.83E-07
##NPOINTS=3526
##XYDATA=(X++(Y..Y))
575.65 361374 72590-208459-4163 270256 154840
580.47-2003-447896-280532 80018 271003 264281
586.26 1275-68139-9476-201634-269205 287330
592.04 428390 303648 462222 170549-273080-166529
597.83 49672 205812 145287 273520 463993 254140
603.62 162583-29213-90104 91100-38565-245536
609.40-150344-73977-40855-134687-269098-147277
615.19 20450-7386 129875 56679-46563 44031
620.97 64063-188702-158110 15685 68875 64143
626.76 182000-21096-192153-311952-221014-2657
632.54 136154 252239 410761 258616 201527 183109
638.33 226797 258156 323747 300687 361898 413279
644.11 306467 266447 411262 457895 420360 473367
649.90 736222 813890 876176 1227350 1469878 1401453
655.68 1300990 1475073 1933724 2272414 2364665 2554684
661.47 2856235 3082652 3427577 3709642 4298684 5300761
667.26 5850028 5730025 6170605 6592969 7219520 7742101
673.04 8030933 8751312 9488161 9935551 10496187 10826864
678.83 11500155 12456044 13382663 14071897 14976896 15999090
684.61 16988475 17815666 18689838 19561116 20563081 21651805
690.40 22600538 23563243 24770574 25832544 26885559 27983833
696.18 29318040 30591578 31974734 33212635 34742173 36447810
701.97 37548126 37923938 39980118 40063358 39824313 41064766
707.75 39238495 38325267 37700762 34886026 34694858 33542939
713.54 34154011 35185837 38851153 44213970 49538056 57914648
719.32 66214903 70630038 76252383 81205391 83776341 83505258
725.11 81221115 80543127 79033114 74594274 75454928 80372331
730.90 86858949 96719481 111725574 129524189 150593242 177736275
736.68 211613701 249082527 294266133 348139154 409117361 476691633
742.47 549299305 623299605 698786608 770614681 833200553 886300593
748.25 923446729 930301864 917757264 887709346 826774637 762919835
754.04 736586542 724522212 698767021 709893404 728026743 647727502
759.82 614085940 691020958 763459985 797230423 797286327 770570569
765.61 720175142 652027417 571588683 486255718 400207292 320294493
771.39 248962949 188353460 138244207 98768968 68367116 46207084
777.18 30240724 19507078 12092945 7534538 4586240 2983427
782.96 1764139 1205998 575737 436891 346928 301266
788.75 198645 363346 255172 193994 41148 134274
794.53 68962 195923 158357 155505-45653-18194
800.32 79092 210036 31814-20768-20319 91430
806.11-5873 53617-38728 25033-58299-103174
811.89 28493 157895 83497 76562-44350 87002
817.68 4541-34538-12608 75538 12705-28202
823.46-87172 24313 40973 109139-35590-100293
829.25-97338-32217-25589 11784-181455-227190
835.03-197146-15009 31908-33964-111053-6396
840.82-56345-71234-54469 6737-35312 27520
846.60-51366 68830 199312 118454-73480 10619
852.39 25957 110207 140134 202759 152519 70460
858.17 24070 133878 300096 447866 493390 514515
863.96 443894 469926 550688 723566 722096 776425
869.75 869954 1037041 1151274 1332220 1376098 1511884
875.53 1598847 1738722 1811132 1922619 2118100 2264995
881.32 2213450 2262038 2383079 2581776 2600311 2684250
887.10 2728710 2708123 2724287 2576494 2666570 2885535
892.89 3381687 4250483 5746005 8024346 9108753 6746596
898.67 4189193 3487393 3152574 3041943 2980906 3055463
904.46 3052450 3262817 3337143 3387897 3483362 3573525
910.24 3593850 3617968 3768655 3728093 3685571 3665791
916.03 3700412 3676243 3670202 3569747 3487945 3294140
921.81 3132288 2989118 2888949 2743870 2678521 2555857
927.60 2428279 2252874 2126233 1965840 1900755 1809905
933.39 1724946 1542761 1430092 1405163 1380051 1311160
939.17 1201607 1078118 975882 901918 826639 783071
944.96 690468 649197 612414 577850 543301 463674
950.74 383170 362643 334302 358252 268787 256023
956.53 253044 211109 240395 232216 158218 177486
962.31 157424 162315 212968 240618 223063 249443
968.10 254650 245397 247016 268478 315616 325432
973.88 320643 381117 439551 420135 421458 430754
979.67 404912 330192 340427 393994 394369 388770
985.45 340842 354141 378194 368138 328899 299751
991.24 337654 385515 381832 414061 393790 326492
997.03 269303 320414 354641 390545 421220 368838
1002.81 299544 261179 269671 218528 146045 221131
1008.60 242754 207475 122783 106412 106974 154653
1014.38 220174 236598 240900 220892 197589 198689
1020.17 162273 218208 284334 348121 367750 343199
1025.95 261858 302267 319598 326697 345783 362875
1031.74 377591 394993 349131 348908 341830 281078
1037.52 347426 456937 405777 333976 331664 411654
1043.31 372740 357168 372433 319848 244488 214106
1049.09 193366 141543 202816 178000 31682-25058
1054.88 12448-8910-81925-88492-22727 32120
1060.67-39822-177944-172377-94838-88294-70335
1066.45-16490-23031-68454-91276-59958-86272
1072.24-156730-125278-73102-35406-28369-76091
1078.02-65372-85016-105395-78256-69061-71469
1083.81-81753-37437-48638-45396 15524 13133
1089.59-66985-83067-14354-39552-107893-23189
1095.38-6052-54624-32848-36806-68030-105155
1101.16-112380-63853-56182-67492-94303-69621
1106.95-7982 1060-9769-33188-57031-86799
1112.73-87403-114787-56641-102336-138854-98457
1118.52-48970-48175-50308-75160-60092-86655
1124.31-95412-80369-58973-46058-26061 24908
1130.09-5264-32051-65196-89808-68486-42529
1135.88-22630-47597-26854-35065-21844 14217
1141.66 1646-43212-25215 4628-13510-35756
1147.45-49254-27285 48170 47206 9787-66065
1153.23-90522-19755 6575-10921 75849 114494
1159.02 127530 51112 3239-19279-31526-38383
1164.80-44992-36382 83551 98839 42402 5233
1170.59 28676-11242-18050-8845 39852 40403
1176.37 10675-8247 12797-3974 23712 13785
1182.16 24151 4579 55156 40624 8360-35697
1187.95 3077 23165 71680 35628 42061 49501
1193.73 61346 35735 324-52823-10490-31605
1199.52-16850-18146 4559-36294-28308-30159
1205.30-1756-59693-24177-6157 46666 46908
1211.09 61424 19859 62864 63246 80232 7394
1216.87 64670-33708 18444 67439 80398-4457
1222.66 18916-25895 26388-5575 64308 63875
1228.44 85212 19068 93797 75060 146055 146239
1234.23 213696 163804 357085 531928 869381 1126130
1240.01 1674638 2372453 3519775 4966935 7258512 10222352
1245.80 14352713 19625348 26746246 35711441 47188919 61051165
1251.59 77777725 96972394 118779606 142161375 166649940 190065902
1257.37 210627841 226448808 237448226 241417600 233109573 211835846
1263.16 185811949 161265852 161535683 208316789 234275069 137268578
1268.94 72906452 113792806 174272272 224136757 256987695 274125431
1274.73 275541332 265009180 244231643 217477493 186623655 155260303
1280.51 124807798 97538366 73637397 54139944 38382256 26607808
1286.30 17636265 11483310 7095278 4429715 2541148 1515930
1292.08 774424 514563 178519 190790 87210 109699
1297.87-27397 63426-27918-5800-79366 8716
1303.65-89245-48799-100873-9413-74244-1808
1309.44-62282 11391-45203 13193-49544-4315
1315.23-34445 38388 11718 82471-20519-6272
1321.01-71213-22035-34700 48677 4437 43731
1326.80 27751 26702-60257-23450-32735 24802
1332.58-46850-26381-64610 18415-1257-6177
1338.37-42157 3026-21029 35892 55800 89627
1344.15 32278 50859-41320-75266-104458-26278
1349.94-125143-69407-12966 23522-120247-29979
1355.72-48330-102459-146006-6617 4253 28164
1361.51-109532-124450-141131-118354-89793-5417
1367.29-17803 57661-17694-35424-110212-56177
1373.08-23726 5455 5223 84420 65677 32626
1378.87-34880 49627 55908 57469 32423 79386
1384.65 51436 46578-27021 72430 52834 95013
1390.44 125479 107078 59064 80742 39974 88125
1396.22 118022 135154 125670 209010 184096 228652
1402.01 207304 274068 296047 348352 369064 405883
1407.79 355963 422015 402344 414410 503018 583125
1413.58 586289 651381 638302 666022 661104 667653
1419.36 791740 842408 885529 940980 1031621 1159368
1425.15 1234276 1251007 1280761 1357268 1341356 1388282
1430.93 1321141 1289214 1272435 1384152 1485585 1626941
1436.72 1798657 2073927 2263616 2496316 2722843 2940566
1442.51 3146315 3415908 3657907 3976342 4187391 4434683
1448.29 4779851 5204405 5529970 5828910 6155789 6573896
1454.08 6942236 7222674 7479238 7889682 8210258 8288933
1459.86 8046914 8063715 8500895 8864091 8388118 7126028
1465.65 6494588 7331864 8432747 8554283 7490526 6918515
1471.43 7529336 8318634 8594808 8142464 7227629 6467639
1477.22 5710418 4778015 3336743 1760383 696617 323996
1483.00 284339 317347 252057 189912 195064 182329
1488.79 109059 156581 161892 186015 117068 96278
1494.57 44673 62337 92702 82189 77803 136276
1500.36 75430 7657-5449-5195-61528-77566
1506.15-117985-71895-42318-23278-27454-31421
1511.93-59733-45522-57268-43469-61437-27493
1517.72-15322-26174-137624-161535-130309-41599
1523.50-26218-48546-44286-17666-10969 43896
1529.29 37737 24693 21611 8410 61495 208820
1535.07 277382 330430 303436 281083 308811 400880
1540.86 379758 412944 517985 524405 409585 386496
1546.64 503436 465049 256111 338057 586671 547862
1552.43 361324 382894 444526 535084 531201 495376
1558.21 424051 374053 368739 372918 292294 233160
1564.00 129074 133021 111168 63419-20456-16901
1569.79 9462 32863 15757 15776-21241-81731
1575.57-135872-50495-25912 13616 4302 28350
1581.36 1424 17273 765-2788-16874 44807
1587.14 68578 66111 26689 4093-10679 21460
1592.93 14190 52577 40833 40410 39420 69053
1598.71 49802 25208 25128 69533 61792 78772
1604.50 56203 57553 67563 96278 71611 56663
1610.28 39920 29971 5531 42650 24370-58450
1616.07-118422-10174 43888 46131 20586 34601
1621.85-31521 18047 51174 41161 12382 11702
1627.64 5601 26167-20894-19820 5177 13369
1633.43-55759-97366-75920-15969-6876 28155
1639.21-5385-26987-16221 752-77573-87755
1645.00-79391-40096-60782-12647-8600-29553
1650.78-116861-205027-181109-66495-15355-9737
1656.57-53452-42998-35735 5829-18864-25304
1662.35-58290-33249-62408-30301-13332-21522
1668.14-100911-73691-56065-3907 19689-21040
1673.92-111925-89650-30198 8835-19864-34504
1679.71-26708 21764-51090-143271-242460-155138
1685.49-63275-21390 5100 5452 1101 4137
1691.28-9656 15994 2810-43369-106559-31973
1697.07-23968-71064-138351-103680-51808-13576
1702.85-18663 4992-8534 17141 49596 46164
1708.64-24498-20065-10647 25292 7465-14092
1714.42-46950-31168-73227-21081 20504 44796
1720.21 40466 49499 55595 65302 44705 68994
1725.99 72234 100785 69249 50029 37774 53085
1731.78-25821-51710-25358 27576 21265 24051
1737.56 16238 24749 30563 82058 59250 20902
1743.35 29 10974 7701 32546 2340 853
1749.13 6492-11324-21084 12609 9051 23662
1754.92-16872 1342 30993 35258-581 2899
1760.71-33241-45130-9158 46032 44190 40698
1766.49 8602-8901 8816 4368-32159-28354
1772.28-5401 35487 21445 49427 37368 36431
1778.06 25749 27784 22316 63868 87768 97459
1783.85 67106 42365-29418-41814-2156 61043
1789.63 36513 11063-77780-75197-19211 29015
1795.42 47102 68267 74911 79920 58457 37163
1801.20 9843 40930 39177 6725-11987 17802
1806.99 72362 73928 7472 5295 19021 33900
1812.77 12543 43665 31402 2611-34371-26234
1818.56-27209 18220 45579 48233 1874-29911
1824.35-23233 16497-3143-5166-20704-12861
1830.13-4785 8136-17000-5518 12819 26701
1835.92 7152 1418-1229 19720 13449 42581
1841.70 13516-78652-88312 6230 30812 29355
1847.49-12581-34120-24381-5015-20082-2588
1853.27-17541 20462-5217-37878-51234-33649
1859.06-22260-18704-13996 21601 4288 13743
1864.84 9146-12820-24706-12281-49035-42120
1870.63-24547 272-28599-59182-76521-38029
1876.41-27527-2083-23652-12661-19334-984
1882.20 886-11257-41953 3378 34675 36726
1887.99-2055-32754-41508-13746-19030-28720
1893.77-36014 10005 17692 32563 24920 10131
1899.56-33251-23057-19499-13533-9858 719
1905.34-1713-5423-31965 8054 2901 8514
1911.13-10274-19430-38799-11585-45163-33024
1916.91-18765-22914-20302 14781 6984 6566
1922.70-11172-1212-21555-37135-42189-23023
1928.48-8112 2254-6948 358-30398-19349
1934.27-33445-31935-66553-78278-74892-56802
1940.05-60674-40923-41211-50639-55356-10460
1945.84-19285-16488-46074-43584 3311 43756
1951.63-8077-26569-52939-35595 3364 14
1957.41-8355 13826 16241 37869 50479 73184
1963.20 77579 84425 70064 69449 69002 105305
1968.98 154275 206114 194776 228611 275986 246840
1974.77 141363 184293 224142 232256 190509 212144
1980.55 213839 215880 232721 223031 197926 290507
1986.34 327358 333459 343503 372578 329405 284069
1992.12 218838 184737 126487 78235 60529 77700
1997.91 47803 40328 17239 36728 46572 48545
2003.69 54085 39084 46709 88744 73667 67892
2009.48 52885 61577 57172 86365 79630 71435
2015.27 33177 32938 36636 37139 50020 62341
2021.05 32576 20221 17547 76084 73578 72919
2026.84 82520 104885 70504 44675 48052 113593
2032.62 111149 78022 89316 113707 135605 162755
2038.41 133750 183356 228105 263461 303814 398587
2044.19 446618 500248 590792 696218 730685 787597
2049.98 846896 857927 820598 767392 730837 670184
2055.76 595968 601551 659530 660334 415866 298473
2061.55 432795 652634 795343 864809 843977 825020
2067.33 791119 694311 583466 502297 409156 319027
2073.12 233706 201518 117299 33702 13421 43556
2078.91 15973 4054-22777-4063-28967-19095
2084.69-17602-26263 713 9326-4046-37033
2090.48-66208-51368-19643 14814 6081 2114
2096.26-515-6558-29959 7497-5691-24284
2102.05-78782-46346 5243 31577 12773 11920
2107.83 17394 42529 16472-29042 22110 72422
2113.62 46647 32781 53809 77390 84080 41530
2119.40 26121 53466 70973 69879 41233 100998
2125.19 143402 99616 85036 167835 205075 199612
2130.97 170808 211631 235531 233424 219089 250491
2136.76 234171 236937 266985 283348 243454 276820
2142.55 294370 274891 236594 211680 185735 217400
2148.33 245841 294259 359859 426950 416937 396887
2154.12 388117 435529 412094 345770 338766 386760
2159.90 342883 292687 329050 392818 344480 359085
2165.69 407140 425287 343205 345757 435569 493329
2171.47 489828 560733 577485 498134 436922 564484
2177.26 647737 616291 628261 669222 547171 446418
2183.04 446839 483888 434776 457196 484889 472368
2188.83 375201 315031 272965 254401 256093 312623
2194.61 283426 205475 211138 216981 184652 171260
2200.40 166531 138369 61004 55475 17108-20377
2206.19-32928 10125 11362 8673-12524-10013
2211.97-23814-24958-52928-11007-2391-15706
2217.76-34226-18358-9155 14366-15555-30331
2223.54-48684-16881-752 14311 7173 15843
2229.33 35523 57332 55784 47945 42257 58495
2235.11 56823 69244 35068 4447 11701 19607
2240.90 29834 57847 82985 124239 106044 87673
2246.68 80475 118930 108479 89043 109535 174919
2252.47 133138 107381 107210 132773 105792 122826
2258.25 120669 138218 144396 185489 181121 184198
2264.04 208022 230422 206316 183466 201269 255230
2269.83 253419 302310 324041 376107 364466 399609
2275.61 435924 501385 535758 576257 584225 629968
2281.40 702543 772889 822917 875639 909463 1012546
2287.18 1044494 1081463 1086358 1178436 1282427 1377693
2292.97 1406004 1452402 1498903 1623412 1671268 1734326
2298.75 1756589 1868358 1919553 2013818 2045775 2053918
2304.54 1959726 1961319 1929254 1946982 1969868 1979936
2310.32 2045178 2099549 2292985 2326821 2553096 2908961
2316.11 3702260 4740737 5435993 4318610 3035531 2554219
2321.89 2418404 2341819 2318966 2367029 2459920 2524479
2327.68 2582578 2612695 2641664 2668926 2668597 2657879
2333.47 2647614 2611314 2590543 2514782 2544620 2481016
2339.25 2388999 2271184 2170359 2061273 1926469 1784991
2345.04 1615314 1433077 1289101 1165813 1164174 1191985
2350.82 1247491 1322264 1395659 1435127 1464367 1496095
2356.61 1569756 1594964 1589186 1588852 1578541 1534637
2362.39 1487449 1441186 1365802 1292386 1193767 1097177
2368.18 1023466 933093 824952 737851 678349 613969
2373.96 553087 465630 390831 337531 295695 255992
2379.75 252784 235081 206286 217176 220473 219614
2385.53 233982 241118 242143 275331 310947 293825
2391.32 291102 267537 269832 259946 302780 317897
2397.11 317825 329786 335183 379030 358180 391936
2402.89 354032 346400 379418 411218 374691 333723
2408.68 331320 320925 343376 344592 400140 713886
2414.46 1208461 970763 504793 394203 382390 360960
2420.25 330333 370544 344967 319970 365638 402433
2426.03 365175 344909 365403 359230 320577 314006
2431.82 342783 376146 333448 279283 243624 265912
2437.60 297873 256893 223402 228846 244993 223499
2443.39 181354 199784 181279 164865 194811 191179
2449.17 201044 156355 72350 68042 70320 43447
2454.96 79354 84569 41246 39758 45145 27669
2460.75 2413-5978-28048-9845 54086 45901
2466.53-15783-7967 22189-8927-13836 10992
2472.32-6508-21511 1649-1632-17647 10748
2478.10 50915 44942 43619 40069-7696-13617
2483.89 10899 39067 40845 15099 34900 54870
2489.67 66117 72669 69358 82166 88249 62089
2495.46-10381-17566-2564-1644-6378-18492
2501.24-35896-17055-67559-136200-145463-119785
2507.03-63830-86226-140019-150388-102596-136525
2512.81-160090-170627-211393-209058-221996-206784
2518.60-221325-218538-240910-272558-332805-353604
2524.39-356460-336582-290432-245209-206896-118752
2530.17-28445-44027-81193-190588-350591-288152
2535.96 75742 331486 183533-56184-188815-225351
2541.74-237502-278225-293213-305387-316332-374218
2547.53-454574-495118-497614-529068-563811-531739
2553.31-503725-480383-453974-462762-434618-390193
2559.10-377520-347976-363014-319471-242689-256481
2564.88-238668-189265-178995-175052-181304-177918
2570.67-146915-131198-104048-75117-112392-69866
2576.45-34665-50307-53901-56618-51082-18673
2582.24-31480-32799-10656-3453 4080-13557
2588.03-63190-26994 1615 7238-15601-73221
2593.81-64749 109 61367 67862 30120-2973
2599.60 4102 28204 29612 13900-31645-48509
2605.38-20861-14306-36453-60427-31574 1296
2611.17-25291-74846-68053-6958 17418 1941
2616.95-23019-39654-10040 11440 68947 107178
2622.74 97685 76924 43444-34470-107504-133649
2628.52-83078-40166-10099-1039 5721-8806
2634.31 3102 13353-12606-1657 9442-5742
2640.09-1749 23850-18520-57089-13697 45278
2645.88 4734-43296-42084-26767 28891 76971
2651.67 54975-5929-62614-60399-37192 5204
2657.45 41518 19171-24220-11051-13676 36571
2663.24 68286 24152-39359-22227 4758-696
2669.02 27745 100092 142274 109793 116313 134040
2674.81 184922 265219 352432 404755 444394 511131
2680.59 669055 823340 971272 1201048 1479564 1741708
2686.38 1994030 2218083 2411230 2606590 2781891 2798981
2692.16 2785338 2712653 2492051 2263423 2103633 2131121
2697.95 2190661 1962105 1313940 1139077 1761659 2476445
2703.73 2961498 3220112 3350169 3288502 3054032 2679944
2709.52 2263763 1869982 1448139 1040227 769895 565357
2715.31 411698 277899 149583 102719 89635 43010
2721.09-4613-18734 20534 59738 57718 7711
2726.88 12918 29190 21690 28596 40320 9551
2732.66-20150 14480 32194-4433-10796-1578
2738.45-914 24965 43079-26944-22623 38625
2744.23 33377-32844 19700 52375 62949 41734
2750.02-1654-30645 32562 79328 47393 44388
2755.80 81271 50519 11641-3092 2839-4511
2761.59 542-23953-69330-71801-42351-53682
2767.37 285 34650 35324 84808 90689 24112
2773.16-15522-47852-41040 47564 56850-495
2778.95 20378 46596 35672-8220 1679 15884
2784.73 40043 50610 40521 20868 24351 8998
2790.52 20447 12647-14790-11082 23385-13774
2796.30 10582 47498 102607 42341 5947 11276
2802.09 22602 41208 108410 121123 100501 114860
2807.87 184760 170217 134508 103155 156223 252248
2813.66 315643 287675 253679 185092 206844 269327
2819.44 370240 365723 412235 407516 465781 471927
2825.23 487600 520972 543184 505662 537737 603601
2831.01 632133 635493 742776 802755 792509 825044
2836.80 848813 894970 920336 957041 1024382 1117892
2842.59 1176929 1280412 1249433 1199157 1174062 1092769
2848.37 1054592 950811 867252 698658 638685 660405
2854.16 756850 897290 1065097 1155754 1167782 1170219
2859.94 1258747 1299771 1345692 1419901 1349363 1235197
2865.73 1233430 1218105 1110186 999991 942868 847189
2871.51 800659 792546 761312 715384 741316 743786
2877.30 656286 557136 540420 523890 533483 507817
2883.08 522151 433325 419654 401326 354239 288468
2888.87 268645 252228 234143 242397 262338 181668
2894.65 181432 154519 144171 97450 115986 107156
2900.44 133643 144116 184181 101369 119149 73236
2906.23 63172 68410 62331 41014 93459 98569
2912.01 131342 105786 187818 112222 129318 183999
2917.80 197689 113405 146820 158428 187911 145240
2923.58 213945 235436 238749 210241 344332 293567
2929.37 351163 359851 390933 385672 441257 495741
2935.15 613700 597276 693737 760898 865203 877861
2940.94 1048925 1096484 1203761 1230207 1479220 1551579
2946.72 1829386 1933483 2163995 2193158 2514606 2655796
2952.51 3013098 3226049 3540333 3705637 4150311 4240245
2958.29 4830526 4878350 5490468 5665745 6505446 6650154
2964.08 7352271 7492074 8181143 8510180 9107669 9498103
2969.87 10116421 10652797 11135954 11769221 12152971 13045645
2975.65 13247972 14656678 14784015 16039003 16534953 17879252
2981.44 18985754 19828807 21140251 22052633 23580367 24466264
2987.22 25291809 25920624 25612077 25825210 24461927 23639894
2993.01 21088803 18254986 15000095 12884077 12538660 14059706
2998.79 17037099 20086885 22894659 25330734 27131537 27797946
3004.58 28105490 27770825 27274516 26551472 25335995 24155927
3010.36 22911843 22087295 20875263 19948872 18780582 18126953
3016.15 17243784 16719665 15721071 15214629 14507163 14185385
3021.93 13537739 12851628 12347731 12035745 11365070 10859421
3027.72 10309240 9845910 9099700 8564353 7977199 7421990
3033.51 6861452 6506994 6017867 5655226 5178951 4815753
3039.29 4323213 3971249 3637195 3406926 3014847 2756478
3045.08 2480909 2372910 2180170 2003190 1771552 1654364
3050.86 1459570 1349126 1121094 1010352 893624 868086
3056.65 721239 706719 634348 608598 510652 431525
3062.43 290703 292617 276161 263423 268255 272574
3068.22 182736 207686 169423 193708 156911 192292
3074.00 147061 212482 172451 142402 50093 13421
3079.79-12243 63417 8630-13821-4912 64962
3085.57-20133-34335-21785 16774-37120-18469
3091.36-45612-5706-3666 28162-83459-92110
3097.15 10468 20366-46070 18534-48362-51801
3102.93-62137-1429-42959-18894-32394-55986
3108.72-113159-62735-68079-42649-501 24562
3114.50-24616 6292-26463 2034-4488 21648
3120.29-38479-21144 2673 61135 27719 51260
3126.07 43915-23601-115617-98272-36176 46326
3131.86-8368-9194-52716-97855-33881 106108
3137.64 34366 12926 31850 30376-24452 23309
3143.43 11561 1666 34541 62857 58158 5695
3149.21-51483 19854 847 2779-20478 31154
3155.00 11239-2384-13248 19082 12932 13581
3160.79-38808-52358-41652 22817 60307 32174
3166.57-41026 13277-22302-10525 6378 56316
3172.36 44974 8246-90390-77337-51773 24304
3178.14-9565 8308 8568-28854-64895-42573
3183.93-63564 11658 19589 31008 39328 31081
3189.71-3935-38953-115648-35495 25188 3536
3195.50-26325 7251 7100 40137 63772 17960
3201.28-77970-72890-17157 2801-27539-6788
3207.07-36555 23412 49440 16510-45013 12061
3212.85 43368 115941 82844 32597 31246 39769
3218.64 1694-27491-62482-18431-39818-37369
3224.43 3799-6143-59286-14873-47133-86750
3230.21-45944 43119 80728 88310 54112 29671
3236.00 15975-20215-127351-67244-11913 35747
3241.78 8927-36945-52504 36869 63609 90139
3247.57 25209-13342 15833 20031 37398 61487
3253.35-63913-51341 4288 77082 50756 57619
3259.14 116648 104912 61177 93202 106986 120088
3264.92 47539 37367 31644 70746 67134 74165
3270.71 65868 109775 109139 56685 71363 58169
3276.49-12268 37827 34893 13 45276 141910
3282.28 132417 61760-32639 17799 27387 109611
3288.07 100744 33556 10521 43382 24049 21165
3293.85 1256-34078 13790 116923 116467 29542
3299.64-19053 25425 30426 42358-4970-18340
3305.42 26959 58799 22788 52022 56204 40726
3311.21 22649-31122-120453-24627 76909 61829
3316.99 39040 65039 17239 18143 72774 73195
3322.78 12850-38483-68179 6092 44981-26737
3328.56-23290 18561-4547 6723-3948 37111
3334.35 15680-46060-87486-92140-32578 29932
3340.13 20406-5808-18819-15761 28165 16371
3345.92 7590 13651-30621-46778-46256-39935
3351.71-76149-32390-56107-6662 33052 30366
3357.49-50864-72891-51985-73581-65982-14985
3363.28-54450-134653-104455-62533-73371 8263
3369.06 31373-43477-65786-12009 14288 26671
3374.85 9288-26142-69760-2075 2582-2886
3380.63 3098 54594 64214 25524-21692 25558
3386.42 17702 52369-6503-31008-28415-27877
3392.20 19511 69390 63093 104856 128995 129775
3397.99-13999-84421-68691-16103 14967 48579
3403.77-21892-97727-72785-367 17496 9979
3409.56-125312-130251-62844 31805 60849 106707
3415.35 50930 10217 46655 37059 3828 26354
3421.13-14411-50284-30859-5017-59940-46162
3426.92 43708 53483-2799 24185-29618-21105
3432.70 62053 59366-21068-8373 29747-23702
3438.49-10077 66045 55746 85892 73979 23340
3444.27 42978 76647 44435-17698-112 29205
3450.06 30689 46292 59302 8111-62551-33822
3455.84-20788-27382-46300-25187 48482 92581
3461.63 27452-10140-16531 9107 22684 54674
3467.41 78648 57095 10697-3282-82287-37735
3473.20-37839-109042-55661 24023-12382-118730
3478.99-123911-64358 42421 87440-23451-72895
3484.77-86949-79114-108235-77255-100690-121167
3490.56-103629-93011-77723-99791-114912-68299
3496.34-25671-42204-84965-87857-77169 29732
3502.13 41083-12436-81760-57644-25786-52252
3507.91-88478-49423-13277 11553-9530-15154
3513.70-28143-93236-177298-182696-88037-44417
3519.48-62759 42453 26483 2555-32917-89182
3525.27-89152-28733-86471-69939-41875 17677
3531.05 65828 58063 28469-5613-4257 56129
3536.84 25079-9693 18493 29939 44109 107968
3542.63 81725 58473 56466 66110 97560 165183
3548.41 156489 150136 171302 116765 63213 152514
3554.20 192780 139110 45896 104131 171949 195418
3559.98 163690 87965 47105 108132 172882 160891
3565.77 128712 58242 18253 31943 83086 94333
3571.55 38903-26552-46561 68883 99721 57011
3577.34 18850-9419-52230 1309 16975 54565
3583.12 70468 64683 47403-19150-90351-31317
3588.91 87305 133434 79028 30613-14047-23923
3594.69 13886 113326 126226 68184 49850 22578
3600.48 17700 55786 13727 16715-13579-9146
3606.27 23904-36285-90158-30842 1715-25459
3612.05-53057 29044 51171 26071-31779-44119
3617.84-16417 36096-4102-11836 23559 36633
3623.62 14535 7514-22735 30280-21134-97141
3629.41-41570 15126-564-49103-110757-30258
3635.19 32728 6869-39203-57985-58667-14471
3640.98 6912 32041 57927 85605 39172-29310
3646.76-98681-77754-18130-34801-92565 30888
3652.55 132455 60533-9820-79027-80193 456
3658.33-32015-77879 19296 102480 110970 54402
3664.12 10124 23134 45411 20217-7339-1928
3669.91-23597 14449 35861 76353 29690-6219
3675.69 35955 125963 154591 137031 100654 159964
3681.48 223105 259522 213778 193790 235527 202032
3687.26 155012 228673 260849 225976 302905 380463
3693.05 361062 333385 357273 375918 374252 430928
3698.83 444697 429823 425619 454379 480067 491179
3704.62 443913 444053 457549 437462 413213 386798
3710.40 317366 328791 392807 493034 596484 650241
3716.19 688196 715587 724834 731710 675096 647522
3721.97 642625 654096 629043 579836 527248 525024
3727.76 564181 576959 526413 442496 481997 573447
3733.55 488031 490633 535057 594294 652617 712793
3739.33 723703 747041 703166 646185 591720 687373
3745.12 830285 876242 884928 826174 765630 782531
3750.90 768199 806379 854595 863571 842107 775789
3756.69 767665 738839 706931 736003 746987 745712
3762.47 755706 729971 670060 721471 776653 796797
3768.26 802341 771158 680476 597516 477190 350164
3774.04 224553 208305 240629 306095 377020 406093
3779.83 358678 287176 290721 295768 320093 362075
3785.61 377072 375475 227960 194975 266418 234929
3791.40 125787 94074 133150 186142 205297 128365
3797.19 101412 106424 56686 17915 52820 59009
3802.97-14832 94304 143613 45402-17869 40635
3808.76 68266 76272 80966 73359 54140 53542
3814.54-22984-48298-13802-22949 17906-32359
3820.33-67316-16539 1606-38004-36446-13898
3826.11-65398-20647 79866 80720-22155-61401
3831.90-60233-28153-31918-9975-60960-103854
3837.68-38829-5504-26294 29633 101817 138972
3843.47 113766-2212-13382 41327 39938 51866
3849.25 28553-53669-98438-78104-177340-85157
3855.04 44691 22557 16315 19612 15799-9573
3860.83-66463 9051 58786 17461-6157 51703
3866.61 48912 50476-32258-78152-15120 20951
3872.40-8019 5524 45319 33815-68481-70684
3878.18-24703 21316 3352 19389 28196 36534
3883.97-19865-11268 66242 112513 94723 53372
3889.75 39906 74617 42852 26470 73155 44095
3895.54 3860 65816 56002 38602 100854 103543
3901.32 34217-10102-42266-22576 12540 113313
3907.11 184602 100177 23291 69637 118519 152279
3912.89 197140 156457 134106 196680 222703 242336
3918.68 194200 179245 230809 245530 248698 237635
3924.47 233349 274406 290464 299685 303079 347050
3930.25 389809 417666 512939 567546 533934 464952
3936.04 512499 567067 532205 579959 612043 642911
3941.82 579134 534493 457078 441727 407293 361832
3947.61 345331 370127 456351 544982 562934 630365
3953.39 688126 618980 591264 702292 698973 667008
3959.18 672884 614936 556870 549061 505833 463226
3964.96 367790 314560 334066 385779 334941 316111
3970.75 277069 253504 282461 355090
##END=
