##TITLE=Dichloromethane
##JCAMP-DX=4.24
##DATA TYPE=INFRARED SPECTRUM
##CLASS=IUPAC A
##ORIGIN=NIST, Analytical Chemistry Division, 301-975-3108
##OWNER=COPYRIGHT (C) 2001 by the U.S. Secretary of Commerce
##DATE=01/06/01
##$SPECTRA VERSION=1.10
##$UNCERTAINTY IN Y=2.1 % relative (B=1.12E-04,C=8.08E-10,D=1.49E-14)
##CAS NAME=Dichloromethane
##CAS REGISTRY NO=75-09-2
##MOLFORM=C H2 Cl2
##MP=-95.1 C
##BP=40 C
##$NIST SOURCE=QUANT-IR
##SPECTROMETER/DATA SYSTEM=IFS66V (Bruker)
##INSTRUMENT PARAMETERS=KBr Beam Splitter; MCT Detector; Multipass cell
##STATE=gas
##SAMPLE DESCRIPTION=Dichloromethane Primary Gas Standard
##PRESSURE=101.3 Pa
##TEMPERATURE=23 C
##SAMPLING PROCEDURE=1 L/min Flow
##RESOLUTION=0.9640
##DATA PROCESSING=3-Term B-H Apodization
##XUNITS=cm-1
##YUNITS=(micromol/mol)-1m-1 (base 10)
##XFACTOR=1.0
##YFACTOR=9.0949E-13
##DELTAX=0.4820
##FIRSTX=575.17
##LASTX=3974.606
##FIRSTY=4.23E-07
##MAXX=3974.12
##MINX=575.17
##MAXY=.0008507
##MINY=-6.25E-07
##NPOINTS=7052
##XYDATA=(X++(Y..Y))
575.17 465576 614420 207629 67237-82444-377925
577.58-285027 20424 259058 431141 188207 51496
580.47 152526 173415-178289-688288-624366-298110
583.37 50183 204533 59671 207023 490690 385866
586.26 46593-79664-73988-66116-51998-18289
589.15 79228-122501-501312-519176-23717 467104
592.04 583218 484029 270528 146872 345656 637400
594.94 558720 166600-175194-417235-388888-87774
597.83 31371-38838 98334 345914 291489 40472
600.72 9536 262802 526228 607072 391904 105226
603.62 185480 263035 81001-32172-118273-261595
606.51-23242 298202 148379-90509-217025-316240
609.40-245184-101740-102178-92107 2803-52574
612.29-86012-61724-177067-382748-384266-91716
615.19 94791 15922-48138-9756 25084 124491
618.08 240046 120527-117667-133988-4605 71202
620.97 129300 127140-18970-251577-346060-193690
623.86 29375 26860 27372 167483 25617-80505
626.76 173891 325503 173045-94912-184021-162271
629.65-235625-330612-397712-264263-44303 4476
632.54 83016 174593 149379 175648 387382 545308
635.44 403702 169568 149916 232183 225647 163882
638.33 157438 226634 289063 255185 227104 351819
641.22 409314 268549 206224 379446 484243 428918
644.11 387709 291674 218044 230668 310197 444047
647.01 498748 463016 441072 414880 380877 429695
649.90 562178 766108 915235 856851 715712 755677
652.79 1045158 1293997 1393629 1524777 1542313 1370735
655.68 1297931 1296504 1268017 1395586 1694526 1968733
658.58 2168761 2324328 2389433 2334485 2331378 2516728
661.47 2788156 2929504 2893263 2994973 3304768 3494072
664.36 3531667 3648765 3902999 4234064 4631139 5331638
667.26 6037639 6057426 5654927 5492256 5819762 6305527
670.15 6469195 6494699 6768727 7208217 7647631 7900400
673.04 7837130 7833127 8215656 8801411 9317909 9558246
675.93 9624894 9857714 10275892 10596679 10684859 10747559
678.83 10998286 11434894 11978932 12489032 12950262 13434249
681.72 13784532 14020323 14394931 14944039 15536245 16032048
684.61 16472736 17001723 17494036 17805798 18152085 18703285
687.50 19201703 19534694 19944732 20534118 21182331 21661925
690.40 22140662 22688596 23001324 23383615 24186985 24932632
693.29 25315522 25702224 26395558 27028938 27312720 27786194
696.18 28693455 29530766 29877635 30324258 31424029 32252255
699.08 32409658 32963286 34109266 34866123 35290030 36326402
701.97 37652908 38128553 37407957 36910276 38545435 40981024
704.86 41187809 39949317 39138284 39026883 40502161 42350055
707.75 41576027 38672910 36822577 37997837 40002493 38861409
710.65 35249462 33455261 34583586 36012187 34492137 32218750
713.54 33028429 34902584 34964349 34461901 35484837 38556357
716.43 42177961 44519768 46399990 48970395 52410712 57508003
719.32 63675170 67660998 68618872 69590170 72818710 76729481
722.22 79519505 81492702 82927129 84146780 84575626 83858854
725.11 82710525 80898542 79378019 80389033 81986748 80104148
728.00 76050748 73398742 73056734 74833484 77731880 80541103
730.90 83171817 86216506 90358531 96088403 103116943 111244348
733.79 120265266 129416006 138866898 149640093 162086687 176618999
736.68 193504769 211646656 229519748 247802750 268831786 293029911
739.57 319366960 347508965 377009176 407951648 441107277 476131808
742.47 512325545 549249084 586108595 622947002 660685023 699082971
745.36 736614662 772319765 805030809 833996706 861159707 887961427
748.25 911736080 928266950 935382247 933290155 925346384 917436332
751.14 910406039 895100369 865295537 826663888 788576980 756280902
754.04 736680991 733158592 735994747 731599218 713172397 693092988
756.93 682506903 696969042 739612478 760746342 717256455 631155074
759.82 579473773 595312508 644768007 696417309 738239227 768714287
762.72 789446923 801268875 804821165 801006157 790332932 773352629
765.61 750628219 722761901 690267726 653373230 613568422 572411789
768.50 529853558 486201272 442478377 399493203 358094101 318967392
771.39 282211986 247745943 215821599 186799143 160620501 137017530
774.29 115955548 97456448 81343247 67413682 55487168 45309247
777.18 36732032 29659031 23840259 19017324 15009406 11811235
780.07 9275716 7246373 5666378 4481913 3614211 2901195
782.96 2237928 1694966 1398927 1222700 881878 549055
785.86 369513 327466 432336 458328 344062 230728
788.75 155793 210654 338884 341212 306143 350252
791.64 253313 106131 91415 57258 72118 129182
794.54 109728 73594 101806 177555 223152 193897
797.43 163576 154143 74147-35746-105886-82388
800.32 4871 110668 227068 233101 129513 49151
803.21-8984-77431-95275 6524 106228 104162
806.11 20809-24959 34451 57614 19533-23023
809.00-53648-17494 55828 47974-137123-264730
811.89-102428 141988 193335 118182 81898 114056
814.78 129924 72712-16678-82133-33369 124456
817.68 156035 12697-88152-73490-45030 15107
820.57 66357 57459 52653 45564 12210-42678
823.46-129901-99278 11701 6159 1092 86063
826.36 95158 86108 106433 8251-143936-171922
829.25-96676-52521-57923-60669-43756-19997
832.14 34266 59238-61830-204127-256437-260500
835.03-236523-183315-131298-43389 79695 101150
837.93 15705-63537-125120-132732-58882 14356
840.82 7122-33881-93533-109034-82278-47620
843.71 23182 19418-51163-49218 7072 49365
846.60 26077-78853-90856 37885 179964 283850
849.50 249100 108398-38003-120129-81864 27479
852.39 75970 16137 12645 110266 170799 154213
855.28 136310 187048 252072 195883 71634 38716
858.18 37317 22916 40956 96047 199619 340693
861.07 420351 427051 461510 523771 538763 518940
863.96 469008 419002 458393 480786 436293 509738
866.85 706384 779038 697620 712721 778413 745647
869.75 749845 884738 1025930 1015454 1019798 1174181
872.64 1303553 1322960 1332257 1404575 1445162 1456324
875.53 1559400 1667462 1660490 1652588 1800893 1930040
878.42 1824434 1775586 2014523 2237360 2239494 2203774
881.32 2278965 2286185 2159887 2157975 2353479 2452258
884.21 2422072 2544518 2723894 2675572 2478829 2565276
887.10 2910147 2875905 2546041 2541829 2876231 2928139
890.00 2560428 2372569 2603831 2797650 2709599 2735225
892.89 3073949 3422375 3676024 4126796 4809234 5637624
895.78 6695122 7976661 9343610 10053981 8870605 6456927
898.67 4697610 3934722 3632382 3475741 3324443 3142853
901.57 3015653 3001413 3028188 3012423 2956994 3009441
904.46 3156053 3068935 2951285 3235859 3563191 3396070
907.35 3134811 3320588 3613599 3546114 3371679 3509068
910.24 3774219 3695990 3403020 3464609 3853958 3929861
913.14 3664826 3626905 3797007 3767882 3565087 3563682
916.03 3786815 3812024 3582653 3579035 3790979 3767476
918.92 3537386 3488943 3607565 3588067 3347581 3210312
921.82 3268659 3194107 2970800 2933518 3014913 2945142
924.71 2760128 2671425 2744309 2748421 2587132 2511910
927.60 2531979 2482116 2312019 2192799 2208307 2188660
930.49 2032863 1886790 1916384 1971101 1861827 1749169
933.39 1773554 1793339 1667838 1491942 1424031 1445397
936.28 1422425 1388411 1391636 1399667 1368834 1309380
939.17 1250640 1205162 1164499 1070764 981781 980869
942.06 971920 892459 834907 820976 827786 790889
944.96 734375 690120 643128 642208 645703 622760
947.85 590597 560295 556921 567752 540301 451381
950.74 377272 382881 390022 367235 328618 308299
953.64 353525 397223 354422 243561 193097 251009
956.53 301834 288360 211856 159950 209675 272831
959.42 273912 240229 182910 132203 145531 185244
962.31 205672 167319 110116 136515 207379 234261
965.21 221869 239572 258714 213312 193234 257386
968.10 294873 258804 223090 235436 262383 259354
970.99 232496 241242 311053 339313 317262 325239
973.88 329213 308006 315870 374187 445153 468663
976.78 434760 401424 400359 435772 440155 414290
979.67 429334 437740 377214 300697 278187 335149
982.56 408307 412629 370301 386472 425195 397071
985.46 353568 335319 325206 342598 383606 390864
988.35 380959 369009 341811 340039 321252 271501
991.24 275191 347999 405338 388143 364846 377947
994.13 400028 419016 420401 408746 375728 318306
997.03 271817 259115 262087 316791 383056 358870
999.92 334600 382321 436092 444346 417998 361123
1002.81 309919 310722 292923 228077 229024 302077
1005.70 312354 216804 122185 114823 171707 235235
1008.60 266565 251896 225661 216383 183726 107762
1011.49 64394 112599 138655 95297 83374 151491
1014.38 219984 225040 234700 244415 220908 241201
1017.28 272054 221580 164560 192714 229744 213498
1020.17 166261 136336 162490 226957 266310 273274
1023.06 315087 370023 362817 359220 384425 371025
1025.95 300350 213631 229540 336544 355582 309787
1028.85 292050 326038 359742 339071 339474 379602
1031.74 375062 350035 395112 433462 381791 330570
1034.63 310847 349557 387702 356410 307287 258192
1037.52 249156 315339 461855 519189 435740 388631
1040.42 381647 337120 273195 305923 394902 433334
1043.31 439487 377313 299699 335312 408626 405669
1046.20 336854 307142 302541 249691 189111 185916
1049.10 244755 243840 128722 82175 153970 240585
1051.99 253893 186130 114986 20002-54996-49724
1054.88 1418 35394 23648-6453-37439-86920
1057.77-136800-99459-39177-32415-4028 69150
1060.67 64480-41123-133780-194968-226216-201326
1063.56-119125-49593-77368-118479-86183-71292
1066.45-57101 3412 16009-28470-51737-63922
1069.34-88078-109363-97900-42959-20741-79695
1072.24-145885-173983-181900-120673-71633-75238
1075.13-66554-39957-2737 3010-61770-109772
1078.02-87595-42326-50304-84165-118152-131377
1080.92-83604-58303-73531-84707-64517-41667
1083.81-87413-123426-71189 839-4031-73301
1086.70-87303-40242-13456 13686 46025 43982
1089.59-17001-98030-114011-81952-63865-11060
1092.49 40532-7370-113132-175944-107334 34791
1095.38 47959-20897-46504-62432-65632-29222
1098.27-2934-24012-73981-75930-58091-107781
1101.16-142330-128767-93834-34832-39668-76942
1104.06-64716-46890-69950-117807-114362-72097
1106.95-29234 16046-115-12528 15742 4574
1109.84-48083-44242-2270-52270-121248-87956
1112.74-53944-82312-116441-141619-111586-21460
1115.63-11615-112780-177929-154600-110854-97165
1118.52-78114-34487-31501-56569-54770-40583
1121.41-48269-92202-98865-37614-33082-97433
1124.31-131425-101132-65026-70253-97126-72794
1127.20-16501-28025-78559-54269 24315 62496
1130.09 28527-28242-38526-16932-25041-73918
1132.98-104679-96974-71111-64757-74192-46614
1135.88-4794-5518-48710-64756-37986-22977
1138.77-18775-24457-51249-47394 3630 45411
1141.66 28280-12463-25456-35851-60899-49447
1144.56 6314 42232 5993-44977-32913-7496
1147.45-40289-74709-58996-29490 7976 63305
1150.34 78278 50729 28067 10755-17902-54942
1153.23-110787-136571-69989 9819 33581 20151
1156.13-33358-53193 30794 104196 106775 106530
1159.02 130766 151214 112935 42615 1327-7714
1161.91-5655-6818-24771-45598-46590-32602
1164.80-15036-41587-92711-61425 27487 100020
1167.70 133145 119844 78732 26036-9918 6977
1170.59 27214 29805 25540-7941-36203-30807
1173.48-14232-1002 4485 33210 64241 60164
1176.38 33547-8741-22662-5566 19041 18885
1179.27-10904-9398 13072 32019 17740 4598
1182.16 31243 36422-2068-15231 29495 69135
1185.05 62546 45418 38401 11023-48915-45417
1187.95-129-10261-2039 38625 54903 71345
1190.84 72362 45260 16959 18422 46066 79022
1193.73 73412 27919 36468 78714 46205-31060
1196.62-60261-38285-36285-28038 9381-17270
1199.52-52863-27827-8432-12448-2091 9612
1202.41-15513-37436-32743-33384-50393-34174
1205.30 20644 14911-54935-67266-41926-39959
1208.20-28484 13858 40018 27667 26918 71153
1211.09 94945 47386-3807 30497 73715 41572
1213.98 21143 86236 141175 73742-11102-753
1216.87 50419 84933 48093-46456-76504-10574
1219.77 72683 110440 101371 71752 13128-7346
1222.66 28506 5759-31059-5125 12112 64
1225.55 4372 23326 24586 20765 63974 118580
1228.44 107115 43874 18302 53185 60267 46218
1231.34 86367 135492 98187 85267 152157 193067
1234.23 190441 197881 179181 148211 216820 333063
1237.12 429355 547729 695373 844591 980532 1131751
1240.02 1335087 1605880 1942508 2364615 2870920 3441390
1242.91 4089853 4901457 5911977 7119702 8519243 10139909
1245.80 11996547 14133376 16623670 19464437 22690882 26431361
1248.69 30696111 35465857 40803277 46787738 53460200 60776958
1251.59 68716787 77355079 86711042 96726098 107325662 118464425
1254.48 130100492 142119442 154339431 166613481 178824548 190655123
1257.37 201472914 211056309 219656539 227298076 233514476 237899611
1260.26 241075367 243462966 242241104 234800045 223843287 212446421
1263.16 200157747 186030967 171079952 158456261 151812178 154534125
1266.05 169993937 201741850 247280491 272278807 220462824 118052555
1268.94 58667129 58888548 82427059 113271371 145886537 176255900
1271.84 203127162 226122212 244852529 259334431 269656426 275912542
1274.73 278364623 277329315 273138487 266128633 256665433 245183771
1277.62 232111154 217816201 202641979 186854446 170828466 154954887
1280.51 139485188 124524683 110299084 96968692 84558570 73171393
1283.41 62858627 53540248 45229617 37967560 31652851 26141237
1286.30 21405959 17384491 13968153 11147121 8864944 6971851
1289.19 5438869 4233651 3301568 2534925 1880898 1387056
1292.08 1043618 787323 606797 472620 315909 185540
1294.98 141049 138535 147681 150228 112876 56905
1297.87 28584 2758-5515 32157 50154 15751
1300.76-19760-53878-72825-46104-10529-18597
1303.66-42838-50115-66649-98148-98262-62875
1306.55-38040-40004-43221-45258-43041-26408
1309.44-24037-45227-30593-7138-15479-14867
1312.33-15097-27493-7010-5156-41591-49296
1315.23-21148-2975 10983 15888 5219 27520
1318.12 75566 80373 35314-4296-22518-44467
1321.01-30879-33185-73647-56781-21183-14129
1323.90 8879 26259 43562 46223 2327-12013
1326.80 49750 84186 47102-6456-36362-43319
1329.69-38991-49382-54833-9784 31639 13563
1332.58-20681-31053-31412-51064-59911-45738
1335.48-34385-11178 39441 47440-6099-50327
1338.37-47174-6242-4856-31509-19570 10187
1341.26 11272-2508 24397 93472 125617 70716
1344.15 17757 43257 86731 44603-26528-15257
1347.05-22060-113056-153643-113620-14051 21657
1349.94-93303-164028-105925-67532-89348-12358
1352.83 123968 56137-117648-161107-80539-39527
1355.72-18833 23087-57585-157988-187762-136898
1358.62-63940-27536 28327 35297 10502 34420
1361.51 4942-115224-170479-160304-121776-85321
1364.40-134914-178665-132101-53645-8560-29427
1367.29-26505-6834 17284 70011 58938-16216
1370.19-53167-41319-61312-97138-130518-103749
1373.08-861 25551-10933-31873-19941 41805
1375.97 53689 40576 102622 122763 51219-2522
1378.87-16592-27073-25504 25370 102339 95884
1381.76 39695 28097 36591 55532 53530 58907
1384.65 86880 60435 49237 69395 1087-79939
1387.54-9753 103000 119994 60986 12492 50303
1390.44 157522 188552 114540 63350 80917 75683
1393.33 65231 75132 61292 51719 45768 46839
1396.22 113843 169909 138318 104230 109650 125283
1399.11 166708 229039 219636 163123 186856 244345
1402.01 235383 198790 208437 263727 313757 319874
1404.90 298904 325838 373606 382465 395970 410112
1407.79 390705 345444 343378 415765 481588 437231
1410.69 342509 350307 466665 550698 561288 560424
1413.58 585769 608527 598208 628079 692878 679343
1416.47 592300 603886 739099 744030 588228 552539
1419.36 733437 912507 848415 740469 841901 976676
1422.26 927124 852217 949751 1108574 1108870 1088905
1425.15 1212154 1310264 1270409 1195167 1212170 1311185
1428.04 1364456 1347256 1340438 1337819 1361618 1410062
1430.93 1383374 1315040 1296143 1273965 1256037 1277503
1433.83 1306465 1351485 1448912 1521177 1537641 1587446
1436.72 1698639 1805917 1916662 2074680 2205070 2278160
1439.61 2349334 2457119 2623273 2777435 2836282 2888282
1442.51 3034570 3184455 3266638 3384722 3552414 3669347
1445.40 3782401 3967308 4156409 4219992 4230788 4381916
1448.29 4617359 4801335 4955733 5189186 5445615 5564283
1451.18 5627290 5800839 6015169 6153509 6312203 6575255
1454.08 6814516 6960125 7091521 7238337 7331331 7426514
1456.97 7650821 7924763 8104196 8221888 8337924 8380496
1459.86 8220091 7976414 7906289 7988954 8188117 8524618
1462.75 8821408 8957176 8900064 8596226 7902352 6966525
1465.65 6346209 6271431 6627648 7265439 8033001 8617661
1468.54 8841820 8773223 8273110 7381859 6735634 6691122
1471.43 7045859 7565893 8027635 8359955 8610819 8717858
1474.33 8603691 8219189 7663300 7171283 6803848 6473711
1477.22 6117009 5725936 5318327 4860382 4232081 3376708
1480.11 2461745 1664951 1030908 600875 372444 275240
1483.00 259545 291699 320883 322822 301473 270411
1485.90 216857 151993 147118 219088 257421 190106
1488.79 91113 77964 151025 167052 146286 162676
1491.68 188861 200303 163547 113631 88890 86505
1494.57 89832 63214 4162 25753 109899 131429
1497.47 93255 59150 54989 74513 118247 146267
1500.36 142046 99488 17952-29225-20575 20978
1503.25 20739-20392-31918-59421-79439-64851
1506.15-105053-134549-108198-85164-44507-12806
1509.04-33390-47651-24443-3926-15756-49569
1511.93-58457-46938-51977-55674-52760-50657
1514.82-45385-46881-57381-61612-47761-37388
1517.72-22393 1474 4090-19197-66945-140001
1520.61-201258-180073-136874-133191-102316-43458
1523.50 3537 10725-50143-90522-49800-20603
1526.39-30679-28551-15925-11806 5302 45342
1529.29 71698 53832 16401-1023 20536 53669
1532.18 32301-25494-23623 55375 157857 219185
1535.07 248656 283840 317506 334908 327078 321353
1537.97 293044 242399 272088 317182 343632 418058
1540.86 450629 373814 321668 390379 484682 542614
1543.75 568346 541160 470822 406103 352372 342094
1546.64 406718 535906 623919 503324 298588 209256
1549.54 213873 280603 440494 688445 746094 526505
1552.43 358502 349360 357859 361474 402700 451593
1555.32 502817 538664 551686 549801 529558 477554
1558.21 445673 454827 409868 331381 329854 391933
1561.11 418555 377505 310997 286956 295061 244334
1564.00 150089 117517 118405 121636 136523 136335
1566.89 100615 48674 13425-12019-44288-47431
1569.79 1626 36012 29022 20286 22497 27539
1572.68 21463 10296-4563-17606-10860-71025
1575.57-181825-169355-74358-33618-39543-28846
1578.46 4685 16741 7518 2162 18382 31714
1581.36 23415 1767-10870 21511 24588-3711
1584.25 3531-994-29826-22542 8526 36470
1587.14 70614 92512 79316 49374 41044 44785
1590.03 26240-15276-34764 1171 23278 10804
1592.93 11891 20605 28558 43334 66639 60105
1595.82 25179 19971 43120 52137 47577 59782
1598.71 79765 66486 37777 3111-224 32982
1601.61 57535 73777 66437 60958 72200 75348
1604.50 77937 60698 50480 46167 46997 79581
1607.39 96634 90046 86834 86244 66810 38516
1610.28 35900 53326 57656 24843-14532 4201
1613.18 35673 38634 37295 47762 32579-68271
1616.07-170748-139576-56414-14119 26038 75303
1618.96 76596 23692 5362 30629 44361 44735
1621.85 12443-50436-59613 11654 77482 77976
1624.75 42972 19644 26709 29749 8212-3151
1627.64 3642 6758 23894 37834 7511-18810
1630.53-33511-50866-11938 37160 28984-8
1633.43-10169-33651-89587-137327-116469-54149
1636.32-28407-25268-13272 940 10086 25920
1639.21 36315 9124-37682-42905-33491-22608
1642.10 26130 30189-46876-96800-92958-88742
1645.00-99022-85658-41698-27994-52531-70456
1647.89-59158-13829 22833 6522-23817-39557
1650.78-47996-83267-179175-253709-243031-171470
1653.67-111098-73820-28331 3651 11668-8724
1656.57-46170-61867-43499-40167-62979-42770
1659.46 9676 16492-14621-19283-5801-26942
1662.35-59457-62202-44343-28187-35427-66560
1665.25-74618-36484-3756-2613-6582-7042
1668.14-51276-129906-130532-65171-34930-58016
1671.03-62496-9645 38136 41323 17611-21757
1673.92-68870-125388-143546-103452-52237-12153
1676.82 3128 6711 5897-15783-29238-39770
1679.71-61589-33287 21208 39657 14410-45796
1682.60-107051-141046-181266-288626-287246-139129
1685.49-52360-45923-60512-41187 11135 30492
1688.39 6698-11142-4307 8281 19756 3316
1691.28-24220-12704 14063 16687 9633 9042
1694.17 7011-21612-119831-152025-70107-19769
1697.07 164 754-47306-76952-107001-150069
1699.96-157280-113721-59839-45669-26470-5907
1702.85-16861-26242-7843 13586 4966-13218
1705.74-9199 9811 28741 59060 88170 55016
1708.64-6272-35610-33631-23131-20603-6827
1711.53 8187 24971 35856 8697-3085-7008
1714.42-45826-62372-37110-6553-35454-109147
1717.31-89965-9232 30080 27102 19879 45133
1720.21 58326 38484 38660 48683 46837 53549
1723.10 77556 78602 35787 27450 71717 75318
1725.99 55797 69271 95287 111345 92867 69112
1728.89 60158 43812 28214 32743 58698 72453
1731.78 38412-34830-80757-58335-42861-31209
1734.67 12043 32954 35942 26239 14237 20543
1737.56 19290 19447 27381 18714 12601 27670
1740.46 55546 89077 99633 71959 28983 4983
1743.35 2987 1896 11921 9040-1983 6850
1746.24 27179 35951 28571 11642-17116-23818
1749.13 12357 37014 7834-32625-40705-14804
1752.03 6105 10373 15309 2860 16041 42613
1754.92 12627-28912-33386-9394 26954 45909
1757.81 46782 34490 11997-762-5072-2680
1760.71 8243-21028-68078-68549-32359 133
1763.60 21312 50005 61462 46318 41472 34575
1766.49 28970 33339-13772-47264-1693 33999
1769.38 27456 2080-34144-33293-16200-41432
1772.28-50314 4167 44972 34465 24021 17773
1775.17 27594 53307 57556 45604 25168 24871
1778.06 40237 33357 22868 23499 20927 18362
1780.95 36027 59735 82711 97622 101109 101916
1783.85 80105 62124 70032 52188 2935-33926
1786.74-53573-57555-39370-4682 46806 81025
1789.63 65393 24004 18704 38030-9339-108075
1792.53-127957-79534-39396-9609 10624 23767
1795.42 39832 57258 61533 57458 68843 87212
1798.31 88726 71558 63390 71543 60093 26437
1801.20 7842 14219 12146 30873 66062 61523
1804.10 22120-15345-15976 2584-4187-9318
1806.99 34462 97445 119962 76995 18781 4288
1809.88 790-7473 3674 27532 42475 39696
1812.77 14775-1864 22993 52601 53736 35467
1815.67 21871 1218-28463-38865-32621-23641
1818.56-30255-35173-11700 14394 41281 57897
1821.45 57604 48174 31090 6236-17771-38904
1824.35-57174-28452 22795 26239 3089-3745
1827.24-2119-7797-18478-15966-12367-27051
1830.13-17760 4854 17490 6888-12331-9238
1833.02-17568-24404 1969 29976 30704 19346
1835.92 14423 14855 10871-10407-16436 6054
1838.81 19391 17404 13117 12951 21355 39512
1841.70 55584 43713-17559-106742-153955-99411
1844.59-12209 12346 17751 48889 50060 12399
1847.49 5202 12735-28220-67123-45905-4876
1850.38 5912-10010-27104-20887-3086 2547
1853.27-10288-31931-12828 34165 41487-369
1856.17-39177-49735-50155-43077-44013-46245
1859.06-33123-5152-1778-34375-42220-8708
1861.95 20439 23667 15427 7698 3139 36
1864.84 14948 36018 8468-36611-40600-15022
1867.74 89-13011-32344-44788-61410-54800
1870.63-30039-21224-5755 8260-8441-27033
1873.52-34013-62606-99899-82853-42085-37695
1876.41-42261-24450-4577-139-7311-23913
1879.31-31176-14910-5228-16437-22972-6616
1882.20 9282 11742 2562-12686-32147-55673
1885.09-42435 8088 34266 41052 51450 33407
1887.99 11955 15059-14144-55258-53586-36586
1890.88-20451-13357-21828-8459-5602-42090
1893.77-56824-35551-9019 9975 19928 24547
1896.66 26677 22488 30033 41674 23990 4310
1899.56-9131-38393-46753-24603-13390-12085
1902.45-12619-25431-25315 5193 12354-13560
1905.34-16558 7865 23851-2270-48631-45296
1908.23-3616 14216 10826 6579 6487 1955
1911.13-462 1559-12535-26807-34540-46470
1914.02-31718 2499-2019-53373-78124-37890
1916.91-779-8692-20819-29868-41390-16530
1919.81 6688 10205 23605 11425-2042 9232
1922.70 1585-16552-10946-1500 1373-11577
1925.59-39327-48718-44055-37467-30167-30482
1928.48-25768-498 21350-397-28524-3686
1931.38 21911 1919-27605-34906-22973-20863
1934.27-24589-26302-36905-35537-34134-62354
1937.16-85332-91318-86191-58957-57726-74166
1940.05-56115-46983-61761-50516-30054-30324
1942.95-38513-57028-76006-60799-25247-5225
1945.84-1845-14370-32495-19903-4289-44889
1948.73-77259-53259-24996-1054 45378 73023
1951.63 28911-28965-30306-21291-31731-50556
1954.52-70220-57038-6419 31676 19417-16189
1957.41-24961-4370 16411 9870 3851 23020
1960.30 35294 25550 35167 65762 69018 59261
1963.20 72741 92472 88234 73730 74142 81208
1966.09 72410 57634 60126 73306 85388 97172
1968.98 115141 153462 206065 220772 194360 187183
1971.87 205371 218630 240280 290147 328701 268598
1974.77 151934 105612 137620 189424 221038 230442
1977.66 241481 239365 212177 180455 177449 211054
1980.55 237123 223621 203731 198194 218245 246629
1983.45 257605 233927 171228 163612 238942 305672
1986.34 332553 339582 331017 321442 326731 344131
1989.23 372074 383188 361474 332013 309090 281131
1992.12 246351 226292 197157 171615 167562 144743
1995.02 93342 53866 57106 66106 73250 80852
1997.91 73207 46104 33689 39997 34410 21268
2000.80 5996 20040 62620 72912 36257 16832
2003.69 57624 88457 54131 13256 15886 54166
2006.59 84836 89460 86253 81300 68045 58702
2009.48 60484 57723 53590 59786 58400 53792
2012.37 67361 87016 96892 88925 65772 70526
2015.27 70125 28049 11827 23372 43693 55677
2018.16 33608 18640 31694 62466 77532 58791
2021.05 41329 36774 33124 13980-558 7197
2023.94 44741 87424 95840 80776 60565 55827
2026.84 80503 92120 90541 107731 110256 74682
2029.73 41669 35577 36194 42633 65732 114745
2032.62 160916 130042 69756 55112 73548 102635
2035.51 112545 105037 108322 133106 173270 181794
2038.41 142443 110589 134765 187543 222625 231229
2041.30 245829 264435 263991 297300 352699 393306
2044.19 445162 467742 446534 474244 550491 597509
2047.09 637643 707554 748902 723882 723076 783900
2049.98 839813 863078 863207 851220 849250 839641
2052.87 794782 747058 731714 751697 736491 658851
2055.76 601563 595344 593153 583582 605906 656668
2058.66 724212 727626 586976 380614 253408 259264
2061.55 326579 420977 555492 666570 739863 811235
2064.44 854059 871377 871971 850084 824440 807453
2067.33 821167 826947 761544 677395 621196 589329
2070.23 554929 492140 444251 422172 378947 310335
2073.12 250112 230019 226089 199030 173552 137233
2076.01 63885 6902-5238 11520 44321 53373
2078.91 31872 15233 8196 3336-6007-31968
2081.80-29492 4789 12434-29376-64224-32343
2084.69 20566 9698-54664-59288-1802 27112
2087.58 7800-5969 5526 15187-8383-52759
2090.48-67013-62148-62002-60490-49060-15255
2093.37 18697 16978 1996 16190 13436-10436
2096.26-16742 9839 25297-9119-45900-38802
2099.15-7240 12967 19608-7016-19948-13532
2102.05-37777-97338-112569-43406 817 11421
2104.94 23871 27778 38600 22501-16116 5831
2107.83 32893 12210 16865 43082 58156 53635
2110.73-34419-85278-10966 38138 61675 87226
2113.62 69497 49600 27441 9095 44233 68475
2116.51 65986 66359 82501 107634 93658 19153
2119.40-13894 38402 59468 44788 45688 73688
2122.30 109429 78846 18028 33272 62788 83416
2125.19 143249 179916 149245 85779 36333 67043
2128.08 146257 173089 183486 219828 234525 194704
2130.97 157480 168571 187723 201974 231005 253181
2133.87 247418 228329 209343 211168 239005 259599
2136.76 253195 232804 228332 225780 231092 277123
2139.65 313716 285807 249731 238057 239444 268479
2142.55 306291 318163 289436 256916 260524 244796
2145.44 217736 216744 190220 166390 198122 224135
2148.33 225570 241655 279973 287324 296062 369634
2151.22 424214 433643 423951 419028 426737 389323
2154.12 355038 389861 424645 429149 443216 444627
2157.01 390806 306747 292226 354982 387644 380686
2159.90 379139 375690 314655 237399 269635 352563
2162.79 393071 399880 382312 350512 312603 326385
2165.69 403050 432404 419303 431302 423608 343252
2168.58 264772 318061 415732 443295 475949 512225
2171.47 498033 463756 489419 577546 621259 588601
2174.37 543684 516363 439367 366356 456056 600853
2177.26 653694 658976 661754 609133 553074 617578
2180.15 709513 701554 627805 547399 473239 416848
2183.04 409687 449029 495035 497201 467010 428872
2185.94 402401 447367 507024 492645 473807 496330
2188.83 455595 354320 312795 316784 310286 265074
2191.72 244749 266326 244810 233909 278819 326154
2194.61 342907 309310 228912 160805 180834 237484
2197.51 242059 207110 191549 190192 182618 167849
2200.40 143904 170720 202084 147524 68909 45840
2203.29 59085 58636 46247 25262-3329-31750
2206.19-48033-37088-9920 15236 20050 14813
2209.08 15500 4127-6133-9799-10128-11890
2211.97-21391-20850-20156-18188-37889-74196
2214.86-52763-1534 18222 6734-15977-18245
2217.76-27435-40452-26673-17801-20552-9852
2220.65 8872 22706 13501-19801-36458-23783
2223.54-36364-66085-44237-10986-1435 4176
2226.43 9572 3794 16131 25129-2838-5935
2229.33 32214 49933 46083 49842 59234 68809
2232.22 59558 36686 27128 49668 66383 43695
2235.11 52012 73528 56647 64192 75730 48199
2238.01 5485-23796-2402 36625 28654-1069
2240.90 7852 39793 59045 52975 44433 83970
2243.79 130641 127407 112754 114421 105588 80036
2246.68 59023 74984 113459 124015 112323 119094
2249.58 118223 71074 47135 110494 177626 188705
2252.47 166301 134749 113155 93739 87849 110681
2255.36 139937 137957 112623 103378 111637 114119
2258.25 126097 131741 123707 131469 135836 148059
2261.15 169001 172719 194575 212803 170077 142427
2264.04 194926 242326 228395 208243 221162 240585
2266.93 198067 143162 162893 217350 250881 253246
2269.83 248342 251845 269985 303706 318900 319187
2272.72 346791 385218 391196 360749 354762 388889
2275.61 427290 451884 453433 482149 541537 560056
2278.50 537687 556850 605668 605304 571696 597579
2281.40 675014 731287 745023 747369 789540 848924
2284.29 866763 858414 873802 911032 957482 1011811
2287.18 1054848 1057617 1051055 1068185 1097834 1098793
2290.07 1082248 1147797 1262353 1309914 1321596 1363085
2292.97 1416996 1430515 1407812 1426374 1486180 1503091
2295.86 1526337 1623829 1704932 1680142 1652112 1736798
2298.75 1798668 1737716 1733008 1888274 1982382 1901932
2301.65 1880164 2028757 2127030 2046427 1975638 2080969
2304.54 2122005 1925960 1808284 1981896 2105222 1916755
2307.43 1758236 1939065 2136135 1989833 1804608 1937554
2310.32 2163210 2102412 1912832 1998628 2304373 2419058
2313.22 2254076 2204527 2418135 2643863 2654762 2730575
2316.11 3189451 3813847 4164266 4525223 5370140 6048145
2319.00 5455083 4084137 3246442 3037625 2775789 2392464
2321.89 2348356 2571972 2464565 2154024 2254381 2503324
2324.79 2350347 2153859 2409886 2686337 2483386 2288195
2327.68 2600081 2835793 2523427 2358189 2748242 2896290
2330.57 2481995 2419765 2925808 2901112 2342948 2466679
2333.47 3032584 2788359 2210182 2543473 3049691 2570280
2336.36 2133606 2628950 2849122 2332491 2322965 2778196
2339.25 2534663 2081271 2356955 2535161 2098835 1988888
2342.14 2280333 2148634 1857579 1929856 1935993 1738198
2345.04 1708883 1673507 1459505 1402021 1431110 1277475
2347.93 1160136 1164961 1158032 1153608 1156531 1195547
2350.82 1262082 1203817 1216956 1424718 1377711 1272785
2353.71 1512129 1490017 1314995 1548004 1525365 1338813
2356.61 1628037 1624687 1450370 1729499 1611612 1425745
2359.50 1732226 1583521 1476845 1718650 1500449 1498180
2362.39 1617550 1369107 1504847 1513510 1310039 1436128
2365.29 1296454 1265980 1341346 1119298 1149483 1111414
2368.18 1033907 1064610 941173 957178 899415 797347
2371.07 773030 722130 736946 665522 635776 620766
2373.96 588765 560665 504203 473150 420331 380267
2376.86 360029 339890 317319 297649 269341 247915
2379.75 245062 252425 260591 247510 207869 188074
2382.64 204121 226031 232051 221454 202544 217991
2385.53 239071 228838 230304 252441 252498 225152
2388.43 233687 279048 315324 327787 303017 275479
2391.32 289980 315736 281936 240420 264804 290206
2394.21 271927 235563 251352 314681 353484 325504
2397.11 279131 301130 361711 353292 291151 299535
2400.00 383570 427916 368093 304316 359510 443673
2402.89 413154 324933 298630 354321 394438 354789
2405.78 378071 446761 433515 366996 313206 322818
2408.68 360313 341645 297689 305862 349456 357305
2411.57 330224 331702 368494 388096 421908 599776
2414.46 1006454 1429800 1403718 941749 573638 448044
2417.35 409005 396862 378469 373773 393624 379974
2420.25 324652 291927 340638 409263 393688 326136
2423.14 305293 320802 325237 349484 417624 433559
2426.03 380713 351541 351823 341185 331422 369285
2428.93 408928 359096 308122 330514 327334 288241
2431.82 305895 359867 375378 371555 385212 350155
2434.71 273659 271668 281754 232991 211697 263504
2437.60 312759 314443 292514 248203 217939 228210
2440.50 221741 216217 242551 252976 248719 238946
2443.39 192020 152296 174523 223261 217438 180873
2446.28 148566 135638 191551 225337 189044 175017
2449.17 191749 208523 218089 173394 89751 51004
2452.07 52732 64763 85486 89900 58455 8429
2454.96 30346 107623 120909 80554 54032 39089
2457.85 26074 33603 52160 55681 38682 25874
2460.75 14802-1029-9202-2128-291-36422
2463.64-50659-22499 26792 72306 81151 57847
2466.53 10541-34345-40645-14213 22234 47048
2469.42 20283-26908-33123-16521 2644 23007
2472.32 19106-10400-28409-29586-19923 11657
2475.21 23898-3994-22760-22805-14361 3805
2478.10 34653 67365 68945 36417 20692 43145
2480.99 68199 53027 9891-15802-26106-23685
2483.89 31 20160 19716 29216 64232 60215
2486.78 15246-2308 9330 40930 65637 50144
2489.67 45048 72923 83244 72968 62804 61454
2492.57 82248 87359 76874 87935 103782 77473
2495.46 20890-32046-38396-12014-7483 598
2498.35 10191-11771-11447 9350-10617-21073
2501.24-24118-52793-40560 427 7887-63846
2504.14-141706-151352-135135-137042-160112-142640
2507.03-72218-39361-56899-82088-120330-141712
2509.92-160964-180119-131860-66111-80954-143823
2512.81-194558-178397-112650-144295-235309-239439
2515.71-182337-187798-242403-239512-197154-195083
2518.60-216182-230320-224678-205543-222903-245664
2521.49-251866-265920-293528-340826-370390-354585
2524.39-343411-354649-366872-350834-303413-282361
2527.28-279773-243212-211801-216632-200546-127419
2530.17-34425-2735-18262-46256-77240-74520
2533.06-79926-169602-302688-380323-403963-352794
2535.96-177538 96021 334428 405504 335174 193521
2538.85 32058-93193-141570-178342-246797-248983
2541.74-200486-209696-277582-302727-274618-281088
2544.63-312655-313966-297429-306198-336118-364162
2547.53-413103-473827-491853-487533-507441-504867
2550.42-478917-515914-581714-585302-547350-526308
2553.31-513781-498779-495482-492000-463723-434441
2556.21-444241-479199-481479-435880-387733-376623
2559.10-393426-396295-357991-323434-342073-379235
2561.99-382774-335378-256082-206184-233064-272974
2564.88-281983-249079-186795-178885-191341-174688
2567.78-174989-175819-172348-183383-187865-178389
2570.67-176632-150171-105968-126484-163864-114791
2573.56-41028-49695-109492-137367-114207-70531
2576.45-25643-13710-41807-67028-62046-42145
2579.35-43254-67027-67425-54721-34969-4757
2582.24-9251-33494-50069-45307-16208 2459
2585.13-3786-10463-7076 8198 18772 233
2588.03-46931-91449-76489-15848 18975 3710
2590.92-12484 4343 27766 1590-58841-92206
2593.81-88668-73551-34955-261 30210 80789
2596.70 86119 65368 53328 35451 8445-16891
2599.60-15606 7878 24964 23978 35795 37404
2602.49 21712 16234 4822-29828-68737-66392
2605.38-30056-4001-10620-27468-10118-18001
2608.27-68521-83651-49538-27696-13115 13322
2611.17 12014-19690-61598-87535-86690-78070
2614.06-51392 2169 39072 24375-6532 594
2616.95 12635-20523-60428-52424-16863-5597
2619.85 21 6174 16265 74946 117323 110115
2622.74 107678 99985 83897 74693 72637 54826
2625.63 14108-39654-81887-104883-138893-159328
2628.52-122656-69361-46769-46475-29381-2339
2631.42 8645-5110-12203 14276 27895-22908
2634.31-44644 13975 43163 14636-8891-20810
2637.20-16667 1088 7868 13094 20100-10455
2640.09-37645-490 28070 30362 25259-11087
2642.99-63900-76596-52315-24284 34154 73565
2645.88 51211 3397-40076-59995-48055-28780
2648.77-36766-48724-13424 38506 69296 86340
2651.67 83466 59896 30784-5809-45249-71821
2654.56-82138-62325-38004-42850-31943 7657
2657.45 37970 45288 52641 36795-24608-49965
2660.34-20869 6353 1958-36936-27876 51209
2663.24 95299 67573 53567 41208-12000-64902
2666.13-65234-20951 21970 17255-13047-14350
2669.02 13466 29230 35470 91189 173515 171657
2671.91 106718 88534 114693 121220 119829 126589
2674.81 146409 189573 214953 250175 328789 367281
2677.70 369671 404542 442595 439661 448918 496209
2680.59 568240 672968 767940 826655 887735 952622
2683.49 1050498 1197269 1351569 1486799 1599962 1742036
2686.38 1891503 1986198 2098134 2243688 2330622 2393151
2689.27 2495541 2612170 2715230 2810741 2853275 2796827
2692.16 2745463 2786370 2821499 2750277 2609616 2473169
2695.06 2375616 2280000 2144831 2042934 2072128 2149869
2697.95 2176300 2201943 2207319 2090414 1725316 1203314
2700.84 905586 1005549 1355471 1771877 2171965 2510112
2703.73 2790040 2997887 3127115 3226299 3316878 3383330
2706.63 3379794 3305821 3207849 3073347 2896039 2694563
2709.52 2460995 2247646 2062433 1882518 1685284 1442501
2712.41 1213512 1020789 859493 763411 681010 553037
2715.31 457050 412772 358920 282131 201230 130911
2718.20 95804 97863 111369 100515 66334 38359
2721.09 23060-3636-37652-33469 4583 24735
2723.98 33043 60926 93840 70493 18512-694
2726.88-6823 3928 34933 41467 29196 11553
2729.77 6342 40541 46774 30761 44189 23436
2732.66-25869-40558-20819 19161 56135 48186
2735.55 2507-18046-2361-15344-25287 14222
2738.45 23113-24715-16414 27511 69804 73590
2741.34 1817-46504-47824-42050 308 59724
2744.23 80893 48241-16370-70632-44363 41823
2747.13 74254 42317 42405 77481 71738 37467
2750.02 22590 2780-29063-54252-29552 41840
2752.91 82799 98866 84856 29891 9633 42902
2755.80 77196 90695 90141 49328 13761 17498
2758.70-5344-18980 15461 11573-18307-2449
2761.59 9708-9380-3995-3023-43781-88234
2764.48-101341-72600-37162-33464-50186-61660
2767.37-61493-4726 63066 51222 16963 11518
2770.27 43054 106093 131555 88237 55029 33082
2773.16-13104-32820-12030-36629-80964-71700
2776.05-10459 72244 114107 69000-6824-19164
2778.95 11304 14415 27388 66356 64210 29586
2781.84 12219-16586-26284 8565 18703 6987
2784.73 23424 49008 46076 46725 67084 48583
2787.62 5302 8277 45086 37709-8744 1459
2790.52 36681 11877 3707 33737 25210-34029
2793.41-62956-9806 45643 38917-3807-32750
2796.30-12441 17282 20470 34091 83794 133327
2799.19 115619 25818-15717 4668 9055 11920
2802.09 27069 18974 14136 26314 82279 120221
2804.98 120905 138203 125534 83106 68505 109865
2807.87 167384 195627 200235 174067 149322 137739
2810.77 105057 84091 121350 145468 177302 266222
2813.66 337027 323867 285979 288889 300877 262236
2816.55 191525 168973 196059 195713 206627 266081
2819.44 339130 397572 391751 332689 360590 450751
2822.34 434832 376076 400828 479840 518396 479298
2825.23 434867 467858 533269 533429 517785 550761
2828.12 564078 487133 459213 546742 585613 602522
2831.01 647773 631080 612824 633616 651423 720777
2833.91 840551 857337 766839 731468 817652 884680
2836.80 829272 783659 874991 964232 900758 858357
2839.69 951172 1008551 953947 965001 1095124 1192388
2842.59 1130885 1094357 1232660 1363095 1329177 1211217
2845.48 1168292 1209373 1235799 1184295 1107833 1067864
2848.37 1089329 1097493 996232 905407 938856 913186
2851.26 771387 676523 634474 609635 639324 677980
2854.16 684137 726550 820887 907955 994175 1052913
2857.05 1124212 1204064 1192740 1132191 1137931 1189725
2859.94 1206537 1223700 1311861 1357805 1289001 1265603
2862.83 1393238 1531531 1443427 1270731 1271142 1288684
2865.73 1185303 1166897 1287597 1296030 1153486 1061768
2868.62 1056691 1027858 947107 919392 937893 866728
2871.51 764505 763136 831495 823519 759397 752511
2874.41 755682 698728 690875 752840 770019 749362
2877.30 747763 666435 536791 545600 589999 527706
2880.19 483678 540242 570917 519749 488038 514714
2883.08 536794 529123 496065 438417 381104 385814
2885.98 455877 441413 353737 337463 333750 291881
2888.87 271112 247715 247143 285912 268965 196266
2891.76 186824 264473 310183 266818 201518 174219
2894.65 182158 170473 164718 172115 161896 131553
2897.55 106706 104817 108295 100717 103646 123928
2900.44 130459 118176 114197 146501 197844 206155
2903.33 148276 81312 77354 121186 141004 89329
2906.23 26328 31421 75689 97330 93223 38231
2909.12 9294 50206 92643 89174 66198 99565
2912.01 165308 139740 64554 87945 174387 200375
2914.90 188813 124201 53169 89219 170915 223428
2917.80 235534 185911 128400 124107 124084 109300
2920.69 148031 199528 194579 159338 157653 162352
2923.58 159855 188942 227882 273689 287413 207131
2926.47 163968 203834 281367 365979 378307 288089
2929.37 246470 329993 418535 398501 335412 353058
2932.26 412115 411372 406195 409056 428125 521266
2935.15 597307 603002 600965 605824 637876 664508
2938.05 703442 791091 864220 854666 819348 862064
2940.94 995453 1058067 1041504 1102773 1214243 1207203
2943.83 1130493 1188583 1397996 1523486 1491917 1501764
2946.72 1679817 1885856 1888773 1875602 2082288 2231637
2949.62 2152092 2119438 2316923 2567361 2616603 2612164
2952.51 2799948 3024514 3127422 3220664 3431269 3588970
2955.40 3528119 3567478 4037117 4369248 4085288 3962858
2958.29 4559579 5148490 4923370 4544395 5018499 5823943
2961.19 5755826 5305515 5748465 6866972 7105450 6302668
2964.08 6386621 7663146 8143038 7257757 6967055 8305249
2966.97 9325118 8417452 7804197 9149651 10338363 9488186
2969.87 8736581 9991331 11508400 10894436 9776972 10723817
2972.76 12612708 12336933 10773572 11384584 13728910 14007341
2975.65 12150923 12057744 14581911 15924479 14494010 13561845
2978.54 15356840 17034596 16550720 15662714 16755312 18369579
2981.44 18904913 18787565 19165158 19869415 20352675 21250566
2984.33 21914477 21967510 22049163 23665067 25137334 24676116
2987.22 23662409 24902518 27109217 26628518 24558566 24833754
2990.11 26834458 26796247 24643186 23665845 24443759 24466681
2993.01 22662213 20779632 19600994 18549787 16836627 14674340
2995.90 13291537 12712473 12357926 12296456 12747039 13777131
2998.79 15354258 17106391 18757290 20086519 21422551 22972122
3001.69 24331959 25395400 26319589 27332656 27985095 27772248
3004.58 27626439 28197371 28617126 27861281 26848342 27198693
3007.47 27724699 26771699 25367555 25117962 25357988 24451373
3010.36 22861409 22464758 23087565 22610626 20926176 20320116
3013.26 21013574 20560855 18628329 18111068 19223413 18712040
3016.15 16709956 16781261 18048600 16994379 15208113 15695253
3019.04 16338652 14927290 14068834 15019841 14882154 13447982
3021.93 13617236 14479815 13302729 11867385 12546556 13177827
3024.83 12009328 11406767 12144191 11845664 10578578 10519942
3027.72 11112413 10445606 9583964 9955375 9938813 8867470
3030.61 8475256 8811172 8431593 7757725 7723439 7576116
3033.51 6976068 6758132 6821146 6528034 6167647 6038894
3036.40 5880336 5640338 5381187 5185491 5052233 4785958
3039.29 4519819 4402109 4148036 3845404 3781323 3733970
3042.18 3508202 3354221 3276113 3042329 2801044 2736674
3045.08 2646734 2469235 2381246 2361236 2308475 2223596
3047.97 2093286 1960764 1879180 1796805 1693907 1642608
3050.86 1572765 1454648 1394684 1369256 1254255 1099752
3053.75 1041061 1011896 921876 890358 906286 871914
3056.65 801060 717942 672685 692705 706430 656043
3059.54 594820 592157 587174 529126 473193 425787
3062.43 349532 295093 255224 260876 298256 326675
3065.33 284762 200547 219382 316089 344178 258470
3068.22 170418 185160 222860 198240 162443 179368
3071.11 212019 179684 145727 168793 191098 198021
3074.00 155173 133654 172870 221743 214828 186349
3076.90 170868 120508 84037 83744 38603-28415
3079.79-35421 4339 29486 63471 70821 23041
3082.68-18511-37508-48097-2543 71572 82360
3085.57 25970-10257-37662-78582-54543 18245
3088.47 30725-3616-19102-18277-34896-36705
3091.36-25452-38697-33844-10508-18635 7440
3094.25 41933 20375-625-45160-157392-181254
3097.15-43446 86268 91672 1013-78181-61928
3100.04 11620 43209-5989-47929-69063-66212
3102.93-55775-71928-32860 19675-8986-43923
3105.82-49432-40619-8335 394-30796-79652
3108.72-104549-101761-103628-88222-37285-28091
3111.61-82672-94191-22040 46599 33491 16167
3114.50-7014-38752-10988 24367-10061-39990
3117.39-9145-216-12846 5962 22183 20174
3120.29 1559-32795-55849-48448-4586 23651
3123.18 25234 57125 77481 38875-3420 27306
3126.07 84169 85671 29557-54392-92115-98083
3128.97-130307-132388-83650-22314 29656 61913
3131.86 47158-15153-43776-12165-63-29199
3134.75-81010-136029-139288-42961 94155 144498
3137.64 101336 38547-20374-26485 33350 68552
3140.54 45676 18332-218-28441-35073 15262
3143.43 71090 37016-31978-34775 14801 65417
3146.32 69928 46302 29720 84093 115881-12515
3149.21-124477-49024 24437 8686 13545 24118
3152.11-2297-11811-13009-20306-2906 21842
3155.00 49631 40264-13581-33544-8012 5389
3157.89 1866 724 15704 41766 24741-13795
3160.79-7894-2500-64235-95613-53190-13651
3163.68-14172-11077 46650 101099 92951 25376
3166.57-48704-62671-15588 31421 22925-22686
3169.46-49294-25076 6569 18930 23946 46023
3172.36 77286 56934 32274 27586-45602-121323
3175.25-111082-64286-70913-74944-4568 50511
3178.14 33623-11796-38669-12193 40510 48234
3181.03-10929-59397-56393-60317-59582-33558
3183.93-40094-90398-71982 38731 72019 8251
3186.82-4552 28767 43712 54019 48276 26106
3189.71-3659-80 10843-27112-101008-148829
3192.61-115246-35508 20911 66205 44428-35510
3195.50-38419-2088-13991-13123 20114 28516
3198.39 4864 10708 60195 106067 85152-8163
3201.28-54672-58360-96581-121105-62570 37858
3204.18 30378-26770-26358-21891-12834-963
3207.07-17867-51070-35007 19455 61495 78523
3209.96 50397 9715-30735-65915-44304 24697
3212.85 54648 17922 60598 146862 135236 107790
3215.75 40309-24049 31198 70476 35722 18794
3218.64 35617 19024-23227-28463-52916-79335
3221.53-53542-10152 4217-24715-76168-73636
3224.43-6665 36122 25975-5596-53598-76312
3227.32-59974 1319 16841-41191-87950-116603
3230.21-104382-28313 22567 14942 68845 123560
3233.10 88309 65528 80906 74143 37495 16508
3236.00 3072 14173 55348 9059-116617-169110
3238.89-124167-68848-14071-2114-600 46416
3241.78 46222 18353-8531-49012-79030-71469
3244.67-8692 48369 69399 68950 66980 91835
3247.57 105227 44501-46852-54888 5257 50981
3250.46 43072-5162-15041 41247 96894 101578
3253.35 17765-109470-131845-35661 2313-11077
3256.25 23920 99572 123340 42480-7056 42851
3259.14 102925 135166 146814 118155 41657 31471
3262.03 104967 103359 67292 109066 153078 131693
3264.92 81121 37884 25906 33621 33463 32642
3267.82 42375 66427 85864 85364 55502 52771
3270.71 86995 85380 48840 73920 178703 164588
3273.60 36612 14576 60478 85875 99973 78650
3276.49 3369-54348-14008 59717 77508 42934
3279.39 5555-15527-26636 37494 126523 163241
3282.28 147842 131731 134433 83040-24429-87719
3285.17-25699 65212 40907-20437 34603 145597
3288.07 165967 105599 53531 24006-5565 5035
3290.96 38598 44391 41125 40393 10475-9061
3293.85 29450 50539-26696-99563-29164 38057
3296.74 48768 126732 167812 133845 85954 20159
3299.64-41673-39974 16115 41785 20300 26838
3302.53 52203 42126 27052 14594-38188-58174
3305.42 1905 44367 63459 72766 35888 9967
3308.31 20353 46655 77017 79397 38698 22166
3311.21 34642 32044 30531-19757-105843-143628
3314.10-146346-35932 92191 106381 86418 48262
3316.99 28323 39225 44079 84303 81046-5270
3319.89-20681 5616 39347 102802 105775 64356
3322.78 39187 26323-12472-51682-66676-77530
3325.67-65583-5728 71832 97012 23458-74148
3328.56-77943-15716 36226 37568-14819-19279
3331.46 18089 10874-9809-3120-2838 32414
3334.35 80010 36749-40768-64853-60333-77136
3337.24-105539-120595-82783-16777 15923 34309
3340.13 41003 25247 15000-24040-34944 15629
3343.03-10762-67101-16795 83657 67756-17319
3345.92-36525 21148 61053 8838-38952-17335
3348.81-22473-66484-72280-44963-10927-10484
3351.71-91678-124574-34230 6427-44282-81459
3354.60-60207-1797 32486 48698 33286 41443
3357.49 22069-64387-109259-86688-48392-31788
3360.38-40756-93166-114510-53449-31242-13181
3363.28 6134-40814-98685-160256-188583-107840
3366.17-3205-42899-134488-90520-10032 1162
3369.06 18325 90835 49429-115413-122408-21987
3371.95-24421-43695-4156 48117 39208 779
3374.85 11409 30654 15508-25598-78288-105447
3377.74-45455 33668 14669-6505 10740-8332
3380.63-25297-951 43856 53499 55478 80161
3383.53 83056 32015-47584-60141 27035 62156
3386.42 1398-5712 41446 81284 47835-14062
3389.31-41184-58346-28797 10964-24853-72432
3392.20-39661 49669 86171 54823 52860 66749
3395.10 81177 106184 108130 129500 163468 160181
3397.99 84115-26676-96856-114344-81706-51649
3400.88-46996-35001 14799 28049 13719 67083
3403.77 68565-25244-87196-117639-125775-79587
3406.67-8013 17846-3412-1276 49458 68786
3409.56-44227-191376-181073-104504-109588-90479
3412.45 5217 58622 46321 48383 80342 120327
3415.35 137226 56958-33749-5702 31722 50499
3418.24 89039 49707-36520-7817 53309 19337
3421.13 6013 17353-42531-90837-60292-11482
3424.02 3665 279-20470-63102-85001-79435
3426.92-23631 86165 116537 46525-11729-15021
3429.81 12130 33082 34773-21602-91442-61655
3432.70 38594 103773 97383 50065 18134-11971
3435.59-63298-49734 47632 88726 16036-65603
3438.49-70660-13256 63669 81644 58137 62721
3441.38 49331 60264 130886 122306 13104-25525
3444.27 28703 68020 63482 60020 89456 84487
3447.17 11-73733-29457 32785 22864 18804
3450.06 30306 34799 43544 32539 43049 84044
3452.95 79597 9400-72670-83139-44464-31628
3455.84-32708-4746 808-53573-51814-16976
3458.74-48223-63020-5142 66700 113896 106624
3461.63 61126 28154 1723-28198-29093-3337
3464.52-1866-1967 11227 32462 50726 25033
3467.41 61754 117435 89823 51427 13930-9210
3470.31 28194 31351-54469-111340-104145-52845
3473.20 36295 18013-112049-176817-107563-25560
3476.09-5966 19047 53002 26092-71007-168190
3478.99-170622-103079-77294-91379-55321 49209
3481.88 155549 134343-6890-40445-29576-98608
3484.77-112135-63873-65588-86879-100985-108264
3487.66-103328-95133-44484-66516-160385-157798
3490.56-94538-70435-99531-136338-85445-28093
3493.45-71818-138791-124475-92785-113746-85170
3496.34-33193-7899 4116-49943-95713-82162
3499.23-74636-80530-115702-112375-17509 51771
3502.13 63524 68368 17743-35830-32595-83710
3505.02-128212-66575 3215-13391-40299-40957
3507.91-81883-116334-81358-35637-27640-24069
3510.81 15703 28142-6996-10477-1287-37505
3513.70-29001 17920-39352-119646-142100-171132
3516.59-202654-216326-176763-65930 5879-18769
3519.48-105082-126860 2802 100334 64130 8656
3522.38 4386 5718-21520-10304-33467-123280
3525.27-147353-87338-27010-8846-33738-98783
3528.16-132909-79114-13652-33919-62966 4701
3531.05 88576 87736 57613 47407 47112 44311
3533.95 15363-20727-31701-15388 31004 72674
3536.84 74943 36799-18907-42122-8020 43267
3539.73 54880 15159-7445 57130 85481 98498
3542.63 150575 91083 12594 63816 81100 38488
3545.52 57010 82244 52258 76016 158859 176099
3548.41 172285 173530 137965 118446 155364 213724
3551.30 190494 99986 43072 40074 85467 165989
3554.20 206251 207329 191781 150978 78864 8876
3557.09 23762 103535 176782 195577 164701 186254
3559.98 227456 175187 116754 80237 46868 40839
3562.87 42933 94276 170438 206274 182559 132646
3565.77 138258 171748 114711 15620 10031 40854
3568.66 26167-3428 34313 122327 124959 80961
3571.55 68703 47072 18265-22685-88838-86878
3574.45 9686 89838 121503 122238 82788 36229
3577.34 32363 20985 14754 7908-51082-83792
3580.23-48248 25303 43966-2357 1769 68689
3583.12 93899 69447 59678 62528 60612 59936
3586.02 42856-20359-83020-109119-96789-45919
3588.91 25880 107086 156614 142144 110312 81805
3591.80 45324 31721 10570-31621-17016-19609
3594.69-49618 4164 80958 109592 151579 172237
3597.59 92156 27390 39208 79514 66386-1453
3600.48-19595 15270 51252 87791 51453-25623
3603.37-3390 46755 20138-26639-35149-27768
3606.27 11637 58550 43828-48215-121588-106835
3609.16-56137-27502-12760 14965 29911-25453
3612.05-94450-67992-11778 29170 73128 70340
3614.94 31158 27851 9749-43406-56186-44907
3617.84-50126-20531 19615 53568 54020-15840
3620.73-49783-20056 14747 30234 36722 55208
3623.62 22364-14447 25989 42304-24608-67594
3626.51-13434 69499 64640-17128-94791-137461
3629.41-106710-20650 19165 22126 10078-9128
3632.30 3126-21537-119374-152649-97316-23644
3635.19 35466 51431 40634 3630-37756-34853
3638.09-39001-67758-76566-68423-30497-5054
3640.98-13294 11640 33211 18661 30810 67276
3643.87 85813 93101 79331 43945 10625-35479
3646.76-71936-104470-123707-91728-45686 4462
3649.66 21151-33859-88736-115530-105546 12592
3652.55 171477 195284 97080 25543 20428 12456
3655.44-35238-101595-123449-93268-40835 23697
3658.33 42349-20271-102541-122859-59514 42898
3661.23 100977 94025 109076 141240 106998 37973
3664.12 4801 4331 18154 23420 18534 50585
3667.01 86134 23080-52709-22521 46115 19562
3669.91-63945-43757 24681 16834 8529 27997
3672.80 65802 102806 72130 21630 6194-26752
3675.69-24506 33356 104020 137207 131095 169774
3678.58 186386 127212 85895 99054 114840 143538
3681.48 201762 245517 247074 254096 272532 228432
3684.37 164327 151862 213602 289179 255561 170921
3687.26 161273 151134 142899 220864 315053 294629
3690.15 212743 191155 221115 310098 398294 386807
3693.05 361651 382380 359436 292066 311211 391182
3695.94 396909 359908 356957 372625 394105 430745
3698.83 465118 455446 435102 420249 416160 428012
3701.73 438907 451024 462943 482112 503619 505876
3704.62 471550 433628 421050 436588 463188 468258
3707.51 461738 438251 397081 413996 436924 390344
3710.40 337850 314511 291985 306932 370640 395812
3713.30 420890 491786 544879 614477 660886 627142
3716.19 647398 710673 723352 711784 698534 723652
3719.08 761065 742383 697511 674285 657659 632611
3721.97 633543 656949 649036 644364 662179 638307
3724.87 605672 580878 539115 525134 523347 504743
3727.76 519027 589308 614230 558339 537243 571891
3730.65 518010 379953 369646 495740 588661 605791
3733.55 560228 464407 420099 489990 548790 525139
3736.44 542928 601592 631970 640195 684141 745785
3739.33 717694 696631 750866 764330 739018 711104
3742.22 661922 643720 636304 561384 552480 682832
3745.12 810934 849571 861995 882178 871929 891908
3748.01 917617 820180 734243 763824 784060 780536
3750.90 791631 763676 744374 803114 854980 872405
3753.79 861863 843588 866220 882612 816973 726190
3756.69 740029 803999 790416 724103 685688 702401
3759.58 732055 733094 735011 762377 764947 721679
3762.47 725606 779430 787672 730466 664485 661463
3765.37 670504 706237 775477 797048 785393 785244
3768.26 801744 811606 812253 785388 717917 670289
3771.15 655502 604476 532947 482568 423712 350100
3774.04 272005 205965 184144 199175 222569 251249
3776.94 262264 277608 358166 406913 392194 403360
3779.83 410667 387262 308616 238434 273650 317307
3782.72 310051 280145 276278 318083 371267 374093
3785.61 347837 355860 412921 437062 323267 183633
3788.51 146499 175068 232294 301401 307201 227127
3791.40 170772 131718 70957 68675 113116 147230
3794.29 160262 164261 212369 259110 191428 88650
3797.19 68208 106980 139708 112985 71358 53461
3800.08 57048 5088-42785 63305 152165 80296
3802.97-34168-56483 2512 101553 179965 184011
3805.86 126527 14752-40562-19790 2985 33794
3808.76 71499 93541 68120 51126 79194 105919
3811.65 90758 52755 51059 74354 52525 40115
3814.54 67395-5268-116145-90664 13995 39076
3817.43-41828-78016-7912 73600 52646-75026
3820.33-107808-48590-43221-32514 8076 34847
3823.22 2291-68023-84759-24992 14135-10028
3826.11-37707-72897-89159-47430 37559 119653
3829.01 124183 83139 40822-34034-79752-59880
3831.90-52794-83747-48770 2702-26258-57290
3834.79-25455 11264-5409-46530-111859-160048
3837.68-89530 956 9092-16166-16111-28052
3840.58-35826 13455 88854 131284 118679 105588
3843.47 168098 183507 44385-59669-44776-13553
3846.36 25788 56288 51750 30873 29056 65501
3849.25 65789 24553 9571-38145-132252-147049
3852.15-56924-3813-101918-262700-240068-59586
3855.04 45849 71381 54865 10991-16879 13228
3857.93 62968 16566-25266 23099 54304 3975
3860.83-74225-102438-55887 21147 65490 76322
3863.72 60877 18222-35950-37377 32644 85328
3866.61 65947 17861 43206 94299 40417-50442
3869.50-95713-94966-74254-10520 58514 30159
3872.40-18313-9783 1315-8517 9216 51954
3875.29 88404 69889-36429-110959-79106-69049
3878.18-74842-20527 30054 26965 8598 4580
3881.07 2378 7949 34587 39432 21545 43918
3883.97 47673-26130-83894-24717 45848 72053
3886.86 106255 113585 113985 115480 72816 32027
3889.75 37093 38551 42560 84473 103593 51477
3892.65-17989-1824 66601 95223 91757 52300
3895.54-16978-19940 20393 76033 124206 64056
3898.43-11308 17470 77517 112025 131983 126373
3901.32 69102 9446 8313 9101-38667-65223
3904.22-40562-16451-312-3738 22814 120385
3907.11 193703 212286 192353 89026 11576 9392
3910.00 21697 70053 116085 132251 119355 129085
3912.89 194392 216895 207727 170092 86275 93575
3915.79 197065 220294 191096 227415 236568 247076
3918.68 264797 186215 123164 179354 219191 221741
3921.57 263963 256539 220277 244249 279022 244668
3924.47 195276 216751 268725 289498 281933 276924
3927.36 303193 320280 286365 280796 324564 355102
3930.25 366606 393419 422379 394192 407566 535843
3933.14 619044 558840 519600 575037 544159 403554
3936.04 389805 543240 624957 579487 508925 501362
3938.93 569632 599875 573450 601499 656329 672444
3941.82 620631 558045 546884 559370 513177 421009
3944.71 420477 462646 446492 408152 373272 356927
3947.61 338779 344012 362988 349426 371775 469285
3950.50 538911 547791 556127 564126 564220 617606
3953.39 693794 715796 700667 619294 521810 548325
3956.29 664646 740826 736475 699503 671541 642180
3959.18 656657 708326 692198 595817 538164 552586
3962.07 581605 558124 504742 508159 510105 464544
3964.96 418750 367637 318637 309018 292830 310517
3967.86 397281 419130 368094 319393 300870 330662
3970.75 316550 272995 249984 237262 258273 274612
3973.64 313368 370407
##END=
