##TITLE=Dichloromethane
##JCAMP-DX=4.24
##DATA TYPE=INFRARED SPECTRUM
##CLASS=IUPAC A
##ORIGIN=NIST, Analytical Chemistry Division, 301-975-3108
##OWNER=COPYRIGHT (C) 2001 by the U.S. Secretary of Commerce
##DATE=01/06/01
##$SPECTRA VERSION=1.10
##$UNCERTAINTY IN Y=2.1 % relative (B=1.12E-04,C=8.08E-10,D=1.49E-14)
##CAS NAME=Dichloromethane
##CAS REGISTRY NO=75-09-2
##MOLFORM=C H2 Cl2
##MP=-95.1 C
##BP=40 C
##$NIST SOURCE=QUANT-IR
##SPECTROMETER/DATA SYSTEM=IFS66V (Bruker)
##INSTRUMENT PARAMETERS=KBr Beam Splitter; MCT Detector; Multipass cell
##STATE=gas
##SAMPLE DESCRIPTION=Dichloromethane Primary Gas Standard
##PRESSURE=101.3 Pa
##TEMPERATURE=23 C
##SAMPLING PROCEDURE=1 L/min Flow
##RESOLUTION=1.9290
##DATA PROCESSING=3-Term B-H Apodization
##XUNITS=cm-1
##YUNITS=(micromol/mol)-1m-1 (base 10)
##XFACTOR=1.0
##YFACTOR=9.0949E-13
##DELTAX=0.9645
##FIRSTX=575.652
##LASTX=3974.606
##FIRSTY=2.10E-07
##MAXX=3973.64
##MINX=575.65
##MAXY=.000843
##MINY=-5.01E-07
##NPOINTS=3526
##XYDATA=(X++(Y..Y))
575.65 231711 77082-123702 11501 194898 155645
580.47-62543-331082-250562 50874 236795 216805
586.26 37541-45706-53931-182671-152401 208911
592.04 380977 357985 379319 142449-171494-150851
597.83 41867 164658 179900 286950 387950 280424
603.62 141211-5089-45497 34028-52730-189489
609.40-156113-80044-64187-142076-223432-137537
615.19-18181 26822 88557 53370-13042 33547
620.97 11709-134492-135075-3976 55525 90885
626.76 119566-10875-186371-272377-199646-15865
632.54 130051 263739 350673 279997 205087 196706
638.33 222207 266615 305688 317351 359683 384950
644.11 317891 300843 392088 444142 434837 513077
649.90 701277 811057 929052 1207265 1414291 1396036
655.68 1349463 1526450 1911842 2228082 2382315 2575876
661.47 2840027 3107110 3412969 3765830 4371682 5223282
667.26 5722979 5840394 6158350 6634825 7199184 7698802
673.04 8110025 8754635 9432649 9962035 10448451 10893117
678.83 11546731 12454016 13336242 14114215 14994873 15995631
684.61 16957012 17826615 18687206 19585590 20578081 21627298
690.40 22601013 23610496 24740380 25834944 26889189 28031010
696.18 29301114 30617654 31941652 33271424 34766278 36353142
701.97 37395629 38253670 39608305 40002857 40116752 40484592
707.75 39418092 38394236 37262631 35416306 34460359 33908064
713.54 34186822 35676322 39147417 44193079 50089675 57915089
719.32 65487029 70884674 76112886 80792427 83272607 83141228
725.11 81513654 80413027 78466377 75579406 76150126 80654059
730.90 87443404 97648686 112200006 130109380 151653300 178954231
736.68 212207873 250470439 295790493 349396996 410271542 477598063
742.47 549515231 623587180 698128328 768981085 831511454 883546455
748.25 918005882 926914037 914720863 882170521 826207654 769684922
754.04 739126793 721933682 705277813 711686138 709717052 656382689
759.82 633943823 689866799 756738963 791204744 792621443 766343158
765.61 717077226 649820127 570760133 486089835 401323086 321782370
771.39 250877184 190186862 140138929 100353453 69837933 47284170
777.18 31179810 20077083 12611398 7804632 4837424 3036552
782.96 1895150 1179275 674573 436107 362506 282979
788.75 255238 305611 272260 169070 93887 96859
794.53 111998 158500 172279 112776 1765-11819
800.32 91262 148352 60627-17343 5910 46918
806.11 29684 19276-4423-6204-48300-74005
811.89 31055 117111 101402 49437 7897 42251
817.68 17361-27657 3048 44583 20783-35879
823.46-51915 2180 55508 66229-17142-91640
829.25-83047-46445-15379-34492-150271-218096
835.03-166173-42482 14800-39252-74493-38292
840.82-46417-68840-42991-16005-11600-2922
846.60-11582 67780 164212 95028-19422-6632
852.39 42399 97002 149056 180219 148773 75072
858.17 53441 142371 298334 427840 491433 495516
863.96 463922 476571 570633 688666 735503 780354
869.75 886112 1024064 1167204 1303533 1396574 1499612
875.53 1611295 1724281 1819742 1936276 2111391 2226864
881.32 2234349 2271972 2400062 2546449 2614390 2676578
887.10 2715954 2717678 2690920 2622847 2686007 2936579
892.89 3446072 4361448 5885210 7821107 8483246 6718279
898.67 4525329 3542922 3198610 3044996 3010422 3035878
904.46 3095857 3234371 3335366 3394873 3482748 3561432
910.24 3592989 3643411 3731307 3730588 3687338 3677763
916.03 3687447 3682200 3650604 3576046 3465267 3302243
921.81 3133502 2998926 2878468 2760663 2665868 2557280
927.60 2417490 2264001 2117604 1985360 1893786 1813164
933.39 1705675 1556438 1445118 1405309 1372155 1303974
939.17 1199224 1081659 981422 900790 833477 772963
944.96 700808 649166 613235 577674 535539 462815
950.74 395126 359389 345920 335618 284328 256926
956.53 246001 224130 233953 219364 176488 168960
962.31 162769 169990 209338 231815 231777 245034
968.10 252362 247282 250412 273308 308772 322743
973.88 332403 381015 425009 424569 422397 425016
979.67 395528 345780 348292 383770 394355 380107
985.45 352716 355481 372382 362820 330698 311627
991.24 339845 375384 389432 403730 386261 327291
997.03 289747 316390 355351 389822 406021 366218
1002.81 304778 269763 259227 213559 174186 209787
1008.60 234117 197326 136237 108386 115871 157748
1014.38 211237 234648 236676 219805 202976 190482
1020.17 180269 218653 285049 339190 361279 331278
1025.95 285531 296550 318686 328327 345848 361904
1031.74 378909 382750 358015 347618 331687 304058
1037.52 355712 427050 403379 345104 347970 388679
1043.31 378068 362429 360187 315951 252301 216474
1049.09 186477 163224 186665 156280 47904-8115
1054.88 1687-18240-69863-75753-24495 9556
1060.67-52076-151775-159629-107938-86081-63616
1066.45-27664-29642-64729-81211-70365-94627
1072.24-137829-122095-75685-40370-39012-64601
1078.02-71522-85044-96545-82059-70433-73788
1083.81-70906-48301-45681-34975 4170-919
1089.59-55473-67671-31181-48114-79118-36275
1095.38-17774-41403-38028-41390-69076-100164
1101.16-101819-71871-58940-70715-84977-62775
1106.95-17897-1883-12551-32542-59114-80146
1112.73-94167-97250-77177-99459-125786-96271
1118.52-58461-47676-55475-66826-68595-82782
1124.31-91504-79183-60341-45320-19568 9358
1130.09-3772-33578-63757-81247-68280-42770
1135.88-31735-38212-33057-30651-17958 5693
1141.66-4468-31585-23248-4041-14141-34080
1147.45-43462-16842 33522 41659 2295-56668
1153.23-73545-27438-2379 9458 65407 111702
1159.02 110071 57445 6945-16909-31155-37539
1164.80-43688-14696 63211 87310 44756 17484
1170.59 15710-3851-16505-626 30255 35866
1176.37 11683 153 4391 5795 15107 19359
1182.16 16703 19296 41509 39310 4395-18924
1187.95-2420 30447 54438 45112 40731 51596
1193.73 53386 35504-4783-33437-24314-22920
1199.52-21821-11714-9031-25293-32404-22167
1205.30-20072-40095-30032 2554 34827 52087
1211.09 48535 38089 51909 69987 59713 35866
1216.87 31441-2061 14003 64485 59206 19117
1222.66 2210-3972 6687 17123 47429 72152
1228.44 64857 49344 71811 96290 128115 163986
1234.23 186271 213897 346795 567746 847601 1185134
1240.01 1693478 2459686 3563943 5125164 7367908 10437437
1245.80 14544587 19961537 27061567 36165332 47599220 61567806
1251.59 78201886 97446024 119044761 142370412 166448768 189573362
1257.37 209776561 225611255 236200506 239267896 230765767 211066197
1263.16 185976446 165718698 169678165 205151612 211612869 143511912
1268.94 91708831 116998200 172491382 221051528 254274019 271298674
1274.73 273475375 263162540 243210638 216723844 186560504 155397572
1280.51 125392075 98112665 74434215 54781882 39103107 27085585
1286.30 18149500 11780008 7413177 4553571 2705668 1554152
1292.08 871216 489106 251521 159730 119309 71698
1297.87 22697 21916 686-30925-42433-32582
1303.65-56701-72935-67680-44957-42154-32945
1309.44-31129-18813-18001-14776-24251-23598
1315.23-10285 14667 35378 45125 6593-26210
1321.01-45453-38325-12429 20946 23920 29803
1326.80 34380 7214-33804-36189-16163-3059
1332.58-25565-41620-38438-4023 4998-15084
1338.37-24248-12869-3190 26045 61631 69723
1344.15 49893 26991-26886-78738-80352-63385
1349.94-92301-74053-11549-14377-72441-54590
1355.72-50446-104826-108640-34590 11643-5425
1361.51-83336-128292-131249-120252-76450-26753
1367.29 2525 26079-2916-49732-83640-63083
1373.08-21723-2448 22343 63986 66142 23212
1378.87-4256 32303 58028 49857 48407 62619
1384.65 59334 29984 8507 46812 67226 90632
1390.44 118592 99838 73941 66834 58465 82506
1396.22 118026 127679 145638 185856 200396 213147
1402.01 226463 262997 304182 340107 374827 387152
1407.79 380027 403861 409873 426795 502841 567500
1413.58 599670 635251 647251 659440 662731 689848
1419.36 777225 842023 887272 947240 1038588 1149458
1425.15 1224545 1252267 1291081 1338000 1355861 1364736
1430.93 1330341 1289150 1297878 1379838 1494792 1630043
1436.72 1819642 2056020 2273509 2493511 2722768 2936719
1442.51 3159771 3408470 3674263 3954653 4195730 4450554
1448.29 4795583 5185091 5526644 5832564 6173457 6563716
1454.08 6927918 7216572 7509062 7871518 8169831 8228989
1459.86 8094962 8137742 8489023 8714685 8247267 7236973
1465.65 6759549 7375201 8261784 8338866 7580869 7129955
1471.43 7559211 8227685 8466453 8058369 7258795 6465342
1477.22 5682288 4685224 3313651 1850756 820337 381396
1483.00 298150 298634 253497 201266 192963 169499
1488.79 133253 146225 168042 166721 128213 88593
1494.57 58636 63525 86196 82186 90674 113305
1500.36 75474 16503-1990-16811-52517-83894
1506.15-100734-76382-43014-28430-26294-37054
1511.93-50671-51749-51053-50890-50426-33081
1517.72-17511-46192-120045-153447-118622-55855
1523.50-32151-44366-39537-22361-1050 31850
1529.29 37296 26100 20050 19471 79625 193030
1535.07 276419 314663 305588 288639 321979 378879
1540.86 390593 425454 500635 502333 426155 411791
1546.64 475942 433203 309307 367706 535132 520588
1552.43 400626 387685 451627 516578 526961 488003
1558.21 428712 381115 371723 356003 298357 222706
1564.00 150698 126401 108220 55371-3388-14118
1569.79 10015 24500 20076 7963-24027-82578
1575.57-108508-64048-20755 2610 12536 17065
1581.36 11112 9672 4746-6379-1680 36559
1587.14 65156 58431 30841 4173-778 12625
1592.93 24189 41948 44289 39040 46124 59197
1598.71 49836 28550 34351 58676 67808 70266
1604.50 61718 57968 72050 85598 74425 55397
1610.28 42138 26127 17911 31552 14027-56007
1616.07-86346-21944 36425 39399 29941 17645
1621.85-8431 13302 44684 36823 18504 9445
1627.64 11866 12503-10934-16613 3196-1466
1633.43-49907-87036-67966-26538-539 14363
1639.21-1935-22428-13550-18228-63353-86413
1645.00-71915-52962-46389-22228-11693-42254
1650.78-116537-185594-164115-79011-22139-19947
1656.57-42153-45343-27718-8001-13509-32208
1662.35-45625-45307-49299-34916-15851-36456
1668.14-79567-77501-48329-10147 9361-31327
1673.92-90347-84249-32785-4379-16078-31974
1679.71-17541-1989-52296-146882-207077-155907
1685.49-71507-24339 659 4298 3034 197
1691.28-1446 7846-1644-48320-79729-45911
1697.07-32140-76179-118708-101942-53092-22551
1702.85-12099-3055-324 17333 44366 32673
1708.64-9389-20866-4338 14173 8354-17792
1714.42-36258-43791-54318-24621 18610 38738
1720.21 43759 48087 57273 58612 54192 63647
1725.99 78405 88469 72953 49772 44454 34392
1731.78-14757-43698-19433 15739 24117 21075
1737.56 20228 23010 40139 67484 57541 23158
1743.35 6636 7271 14033 21431 8500 1468
1749.13 2804-10612-12227 4531 13923 12165
1754.92-4952 2280 27433 27004 7728-5351
1760.71-28080-37286-4988 34981 44785 34961
1766.49 11560-2780 5120-1930-24165-25929
1772.28-978 24156 30605 40790 40613 33637
1778.06 29011 25365 31794 59670 86281 89233
1783.85 69436 32567-17553-33815 3488 43666
1789.63 38325-2121-60003-66675-20000 23057
1795.42 48287 65088 75271 74531 59264 35161
1801.20 21225 34316 34144 8865-3099 21977
1806.99 63402 60900 20101 6997 20359 26072
1812.77 23409 34588 29606 57-25159-29131
1818.56-17788 14024 42058 38714 5211-23849
1824.35-16328 4663 1241-8653-15608-13692
1830.13-2998 343-9526-5090 12759 19972
1835.92 10431 1110 3936 13775 20813 31600
1841.70 2493-64372-68779-7556 27384 21205
1847.49-8164-29260-21799-12383-12739-10114
1853.27-6315 7607-5393-35175-45116-35338
1859.06-23081-19268-7415 10942 10179 10440
1864.84 6654-11705-19374-22304-40036-41307
1870.63-22210-10328-27878-57930-65289-44491
1876.41-23324-12007-16355-17145-13725-4905
1882.20-629-15722-27191-154 30275 28780
1887.99 43-29543-34193-20542-18902-29342
1893.77-25282 1885 20138 27556 24677 3919
1899.56-22591-25186-18374-14546-7984-2357
1905.34-924-10880-18434-1684 6333 2836
1911.13-7238-22719-28811-24159-35584-33608
1916.91-21398-22418-13559 6036 9416 2409
1922.70-5181-7537-19985-35862-37318-24380
1928.48-8233-2112-2831-7819-21462-25255
1934.27-29340-39551-61503-76405-71486-61600
1940.05-55558-45317-42033-50812-45195-21501
1945.84-15810-23441-39470-36459 3196 25960
1951.63-712-29104-44480-32017-4092-1146
1957.41-2323 9533 20441 35519 52995 69225
1963.20 78739 79927 73245 68708 76293 106726
1968.98 155811 193647 203954 230180 263473 231437
1974.77 169989 181812 220038 221847 203321 207387
1980.55 214666 217970 228760 218896 220690 278911
1986.34 323093 333157 348125 358389 330340 279346
1992.12 225514 179440 129055 82852 67767 68055
1997.91 53071 36368 25791 34342 45484 49110
2003.69 50481 42769 53633 77485 76450 65187
2009.48 58190 58058 64397 78768 80507 65039
2015.27 40831 33012 36448 38959 50536 53981
2021.05 36723 20678 29913 63751 75088 73786
2026.84 85820 93715 73011 48871 60206 100579
2032.62 106114 85807 91889 112636 137630 151244
2038.41 149315 181201 227404 263316 314691 389120
2044.19 448437 506144 594291 682584 735502 787678
2049.98 838464 849287 817797 770431 726700 667171
2055.76 610983 609828 651171 614350 440153 342450
2061.55 448483 638067 783245 847989 845012 822146
2067.33 780014 691609 589255 499532 410384 318964
2073.12 244290 191168 118165 44231 23436 31868
2078.91 20252-110-13113-13302-21665-21166
2084.69-19377-19651-2816 5555-7503-36582
2090.48-58008-48850-18576 6442 7635 1683
2096.26-266-10897-17536-3178-5027-32296
2102.05-61885-43998 1531 22785 16723 12397
2107.83 21455 33159 12734-11343 21807 58610
2113.62 49013 39021 54072 74703 74952 46522
2119.40 33925 51252 68334 63991 57985 97349
2125.19 128231 104372 103339 158604 198498 194362
2130.97 184421 207549 231801 230243 228476 240751
2136.76 238527 241047 265466 272041 257877 272975
2142.55 288474 270940 239719 210572 196950 215889
2148.33 250115 296613 361021 412226 416170 397868
2154.12 399270 421973 404995 355835 349460 369332
2159.90 342493 307448 335098 371108 357354 363779
2165.69 403085 405985 359454 360588 430519 481236
2171.47 504550 550018 561218 500120 472113 555453
2177.26 627663 623667 634707 638488 552369 463381
2183.04 454647 466721 449283 456773 478971 456024
2188.83 383029 317276 277915 257096 266843 296716
2194.61 274707 220815 210964 209926 188484 172290
2200.40 163177 128329 75358 48211 18349-16995
2206.19-21853 1436 11810 4303-7180-14100
2211.97-20252-31254-38930-18241-5311-17514
2217.76-27142-20626-5395 3572-11595-32184
2223.54-38615-20690-110 9670 10534 17381
2229.33 36292 52776 55088 47832 46807 54525
2235.11 60171 60265 36064 11104 11858 19760
2240.90 33464 56625 86816 112613 107022 88654
2246.68 89725 109125 107789 95127 119021 154074
2252.47 137583 110600 113208 121775 115287 117903
2258.25 125515 134891 151901 176263 183257 187334
2264.04 208347 221503 207171 189912 208931 243549
2269.83 264422 295448 331519 362704 374653 398221
2275.61 442508 494559 538058 569375 591810 634093
2281.40 702745 768471 824540 870670 923823 997738
2287.18 1047460 1073745 1103714 1178937 1282393 1364141
2292.97 1411048 1450328 1515242 1607094 1676703 1724202
2298.75 1775561 1854530 1930081 2000133 2044226 2032911
2304.54 1979519 1953160 1939308 1947773 1966490 1991985
2310.32 2039628 2129220 2258641 2366939 2569777 2992682
2316.11 3738926 4690974 5101669 4297150 3176536 2615447
2321.89 2427964 2351788 2331133 2375480 2454238 2523934
2327.68 2577141 2612827 2641212 2664196 2666381 2658744
2333.47 2641750 2615904 2578329 2536314 2525613 2477705
2339.25 2383283 2275000 2168484 2056853 1925255 1780175
2345.04 1612579 1440711 1291545 1188650 1168319 1197529
2350.82 1250446 1322464 1389139 1433849 1464161 1504347
2356.61 1560489 1589794 1590073 1587215 1572436 1534083
2362.39 1487853 1435624 1366600 1287589 1194228 1101355
2368.18 1020387 929956 828614 742997 677084 615057
2373.96 547887 468249 394383 339827 295675 262877
2379.75 249998 232949 213697 215534 219794 222401
2385.53 232622 240022 247766 276230 300716 297460
2391.32 286286 273268 266503 270340 297225 315227
2397.11 320515 327515 343692 365414 370153 377219
2402.89 360773 352822 379813 398608 373951 341078
2408.68 329018 327835 338379 355360 443591 750927
2414.46 1073399 932106 569140 410261 381568 358146
2420.25 344356 357617 345642 332403 364311 388775
2426.03 368555 352126 360701 353166 326668 319870
2431.82 344202 361913 332001 282176 254099 267837
2437.60 284411 258588 230229 230755 238444 219298
2443.39 192939 192595 181660 173664 188031 194325
2449.17 191039 149128 86964 69138 64602 55317
2454.96 73560 75728 49125 40693 41239 26056
2460.75 5774-8783-20819-1434 41034 36215
2466.53-3128-3868 10798-3936-8461 3224
2472.32-6063-14443-3313-3898-9679 12972
2478.10 42419 45914 43503 31636 262-8486
2483.89 11607 34518 35531 23738 34558 53424
2489.67 65380 70666 72574 80611 83059 53058
2495.46 2035-14137-4841-2856-7339-20027
2501.24-28628-30019-70695-125274-139910-113548
2507.03-78630-91144-132973-139013-118247-134057
2512.81-157624-176769-202630-213010-215741-213294
2518.60-217120-223965-241672-278493-325068-350928
2524.39-352204-332017-290524-246627-198013-117875
2530.17-48087-47034-94213-200038-311063-234120
2535.96 56811 258492 168321-37294-171802-220865
2541.74-243113-273057-293239-304680-325015-378096
2547.53-447539-488204-502884-529923-551434-532866
2553.31-504512-479559-460663-455946-431517-396495
2559.10-373607-356801-352170-313206-259634-250246
2564.88-233079-196521-179809-177031-179599-172863
2570.67-149745-129388-102941-88163-96954-71834
2576.45-43625-48049-53710-55466-45717-27363
2582.24-29038-28699-13368-3437 7-20116
2588.03-46883-29107-2168 2302-22215-61052
2593.81-54967-392 51516 60057 30936 4188
2599.60 7226 23929 26882 8310-26462-40407
2605.38-24888-19188-37067-50741-30922-9356
2611.17-29398-64824-58204-13705 10319 525
2616.95-22025-30735-12320 18539 65140 98830
2622.74 95612 74982 35123-33187-99700-119371
2628.52-85131-41917-14297-945 1470-3809
2634.31 2894 6463-5531-1912 4848-2528
2640.09 2625 11158-17562-42626-10530 26978
2645.88 3715-34405-39921-19380 27614 64264
2651.67 48387-5554-51689-57113-33529 4019
2657.45 31281 14863-13159-15039-3301 32738
2663.24 55099 20279-24478-20724-1201 5545
2669.02 35395 95144 128173 117693 117523 140429
2674.81 189751 266839 345796 402922 448621 527998
2680.59 667928 822133 985965 1209743 1476365 1740258
2686.38 1988807 2212814 2411249 2603997 2752684 2794325
2692.16 2775157 2685510 2491713 2274396 2138155 2135844
2697.95 2141317 1884558 1399179 1282076 1775930 2436475
2703.73 2920622 3198514 3315468 3258530 3028954 2672696
2709.52 2267889 1864999 1450051 1065424 780863 574655
2715.31 415184 278514 164367 108677 83411 43066
2721.09 1050-8892 20147 52860 48529 18209
2726.88 14544 24961 24286 29586 32624 9620
2732.66-8416 11425 22176 1386-8258-3025
2738.45 3323 24349 26201-12662-13096 27453
2744.23 21197-9974 14691 49415 56678 38326
2750.02 236-13558 29309 65220 52540 52016
2755.80 68490 49661 15532 1014-61-1769
2761.59-5080-27484-61977-65450-50707-41031
2767.37-3723 28519 44453 76938 77486 29390
2773.16-14465-41171-25893 33114 44594 14280
2778.95 20599 40609 29023 2245 1657 18228
2784.73 37196 47345 38306 25698 20172 14555
2790.52 16416 9614-9917-4384 8895-1007
2796.30 11065 52583 80274 47965 12572 12907
2802.09 23111 50830 97824 115858 105974 125912
2807.87 168415 167617 134248 119058 163077 247348
2813.66 298158 288231 245699 203052 212042 278514
2819.44 348693 377739 400353 421211 454508 475021
2825.23 489760 520020 531326 519143 543017 597580
2831.01 626646 655141 733772 789965 800982 822530
2836.80 853700 890441 923044 961719 1030110 1110218
2842.59 1186704 1255005 1246589 1204304 1162547 1102532
2848.37 1040586 956957 849576 720040 651673 674627
2854.16 763749 903040 1050621 1142465 1165234 1186693
2859.94 1249336 1300858 1351332 1393566 1341533 1255859
2865.73 1230599 1201733 1109474 1010280 934929 856724
2871.51 807038 788787 758032 728971 736627 728143
2877.30 653529 573009 538912 530252 525132 517433
2883.08 501156 448993 417252 397267 349984 297534
2888.87 268488 252567 237912 246085 242136 198532
2894.65 174329 159642 135476 111336 108840 115680
2900.44 128334 152377 158840 122805 104834 81784
2906.23 64340 67799 57828 56432 82330 106584
2912.01 117283 129215 155473 132219 133455 179067
2917.80 177414 137525 139852 164655 171750 168508
2923.58 202260 235539 228960 244366 305821 317918
2929.37 338387 367151 381476 399417 437857 510813
2935.15 585420 621836 684181 772048 843628 912004
2940.94 1020651 1113717 1181906 1278372 1438277 1597985
2946.72 1788473 1966312 2117183 2256590 2471070 2705272
2952.51 2976532 3255566 3500363 3771967 4066756 4353250
2958.29 4707221 5007240 5382699 5815183 6350207 6779827
2964.08 7223976 7614788 8096223 8574282 9058785 9546022
2969.87 10099913 10638849 11174286 11705009 12272471 12884128
2975.65 13508916 14379208 15031217 15864579 16714121 17821995
2981.44 18940396 19920454 21055421 22176804 23456087 24456862
2987.22 25268620 25729918 25740998 25503358 24602126 23295192
2993.01 21068597 18158498 15214967 13190852 12870181 14320026
2998.79 17044813 20047550 22825327 25224565 26922271 27743629
3004.58 27985227 27745735 27236009 26458555 25350925 24133387
3010.36 23000639 22001929 20943425 19887505 18891073 18066459
3016.15 17327723 16614739 15828145 15161148 14590883 14115599
3021.93 13539138 12877268 12389650 11962869 11403309 10843388
3027.72 10332893 9787137 9145081 8548638 7988343 7415350
3033.51 6904424 6476177 6047145 5628399 5205511 4786542
3039.29 4353853 3969077 3661128 3372283 3044330 2747941
3045.08 2515824 2353094 2187257 1989176 1796487 1635721
3050.86 1479564 1323151 1146774 1004620 914592 841466
3056.65 749636 692085 646440 592335 517318 417176
3062.43 319255 286751 278698 264795 270472 252661
3068.22 206921 192525 184423 178888 173881 173604
3074.00 171113 189734 177748 128202 62959 12246
3079.79 9220 36704 17469-11118 9181 33844
3085.57-4289-32322-14411-2764-20945-29834
3091.36-30600-15477 4789-374-62991-73467
3097.15-4853 4403-19084-8926-33299-56507
3102.93-46032-23099-28127-28191-31833-64468
3108.72-91340-75159-60654-41286-1708 8938
3114.50-7425-8122-12582-7067 4236 3332
3120.29-21914-22532 11329 42265 40100 44168
3126.07 34515-29446-94459-92230-30290 19278
3131.86 3789-18697-51721-79953-17886 65301
3137.64 46040 18270 29855 18860-3960 10867
3143.43 12950 8771 34134 56454 50609 3103
3149.21-26010 849 7304-4296-4589 16106
3155.00 14246-3512-3962 10613 15773 2572
3160.79-30478-49359-30858 16822 50097 21966
3166.57-15364-5826-11248-11809 14285 43432
3172.36 42619-5225-67873-77815-40052 1991
3178.14 1996 3548 3105-30017-52586-52736
3183.93-43875-2562 21839 29361 37369 25186
3189.71-2348-48515-85560-40534 11446 1184
3195.50-13801-84 14069 37793 52085 8085
3201.28-58945-64744-22638-7570-16425-18127
3207.07-18322 15526 40590 9460-21524 4951
3212.85 53056 95268 80998 40599 33778 30413
3218.64 4576-30111-46599-31791-34443-31093
3224.43-4582-15172-40069-30151-47530-73005
3230.21-36702 33120 76261 80069 56721 30609
3236.00 13521-35244-94876-70505-11392 20951
3241.78 6952-33156-31849 23559 65593 72272
3247.57 30861-1622 11619 21505 40589 31994
3253.35-36448-46061 9285 57749 57741 66580
3259.14 104290 98425 76044 88303 108754 102736
3264.92 60755 36229 41366 61520 70461 70147
3270.71 76248 101297 99836 68908 66755 46647
3276.49 11008 26903 29966 13624 55557 121500
3282.28 123353 55244-4010 7465 42994 91487
3288.07 91494 40623 21474 32935 27897 17681
3293.85-1463-19389 24141 97873 101551 35747
3299.64-1328 16889 33149 30507 2003-8552
3305.42 25393 45414 35880 46405 53487 39649
3311.21 17281-39115-85760-24675 56504 59998
3316.99 48826 50606 26768 27423 63292 61985
3322.78 15119-35488-48920-382 24779-12910
3328.56-16069 5823 3073 1247 6744 24942
3334.35 9005-42547-81054-80652-31933 16839
3340.13 17592-3284-16436-7788 17595 17110
3345.92 10685 3820-24615-44890-43813-49520
3351.71-59428-47006-40869-10023 26839 15197
3357.49-39475-65459-59753-68418-57804-31459
3363.28-61857-114642-102193-72985-55591-2903
3369.06 14044-34188-51742-17698 12611 20579
3374.85 7148-29179-47972-15195 2216-2037
3380.63 12386 46031 56778 22422-2687 13201
3386.42 27826 33503 1173-26978-28525-19819
3392.20 20641 58143 73209 100082 126834 101902
3397.99 859-70333-61191-21062 16734 28921
3403.77-22140-80318-63453-11604 15190-15401
3409.56-99609-119422-56264 18260 65789 87098
3415.35 54385 23909 38451 32298 14851 13968
3421.13-12796-40978-28941-20468-46947-32875
3426.92 29827 40551 13961 7889-17408-8090
3432.70 46897 45003-3914-3769 12834-11554
3438.49 1767 49276 64280 77734 67050 36191
3444.27 45302 65042 38694-2934 1651 24176
3450.06 33366 45801 48080 3940-43762-37642
3455.84-23584-30122-38802-16165 43878 72107
3461.63 33444-5439-10114 6218 26585 52773
3467.41 71150 51662 18151-17010-58335-46654
3473.20-50793-86139-51332 3563-25391-99955
3478.99-112967-55908 32175 58207-10757-68076
3484.77-81662-87315-95886-88227-99542-114441
3490.56-105129-91826-84623-98626-103617-69293
3496.34-35886-47498-76763-87070-58119 10970
3502.13 30922-16426-64045-56993-35728-54635
3507.91-74179-50853-14483 2644-6177-16702
3513.70-37278-96853-163159-164997-96563-57195
3519.48-38082 18278 26989-592-35877-80207
3525.27-76608-52147-71059-69493-35310 15205
3531.05 56032 54120 27895 113 7253 38807
3536.84 24945 1480 15574 29797 54165 90586
3542.63 83298 61622 59014 69317 104930 150666
3548.41 157442 155037 157916 116087 90125 142351
3554.20 177314 130562 74517 104581 164705 185348
3559.98 156001 93943 65478 108848 158724 158041
3565.77 121261 64107 27508 38772 76049 82091
3571.55 37831-19681-20834 52345 87555 57195
3577.34 21577-13513-33292-7178 22187 49904
3583.12 67031 62525 38849-20569-66543-21130
3588.91 74754 114949 80923 30585-7293-16163
3594.69 25676 97359 113621 75622 48120 26072
3600.48 26556 39818 23464 9474-6751-4002
3606.27 7089-35494-69102-36570-8075-26729
3612.05-31901 16815 44001 19204-22685-38041
3617.84-10743 18193 2758-4773 20136 29514
3623.62 18503 1702-6046 10325-25200-73403
3629.41-41468 1786-5493-52785-83996-34366
3635.19 17325 2997-33850-55463-49885-19380
3640.98 8320 31457 59151 71493 36164-30350
3646.76-81904-71314-31219-43265-59030 26666
3652.55 100876 61836-10208-66990-64971-20355
3658.33-34603-51537 16001 89664 99117 56742
3664.12 20362 24750 36994 19420-549-8137
3669.91-11398 9857 40897 59417 32564 6985
3675.69 45239 114124 147346 132539 118949 159522
3681.48 219296 244138 218689 205061 221837 199272
3687.26 177243 220975 248302 246764 302662 363056
3693.05 359745 342584 356537 371592 385640 422418
3698.83 440184 431259 432022 453199 478279 479837
3704.62 453200 445976 451778 436430 413503 378142
3710.40 332655 337493 399476 493614 587507 647506
3716.19 686550 711884 725255 719415 681184 650843
3721.97 646142 647090 625145 578908 536389 532375
3727.76 559447 565770 520309 464182 492707 539489
3733.55 506048 496460 538724 593174 654040 702759
3739.33 727383 733727 702109 645333 619349 695571
3745.12 812573 870225 872747 825484 780385 775763
3750.90 778386 807869 847439 858736 833277 787089
3756.69 763400 738229 718234 732302 745059 747573
3762.47 749803 722893 691054 721260 770838 793950
3768.26 796326 759839 682846 589929 476952 349311
3774.04 245005 216109 246905 306892 369691 392564
3779.83 354017 301182 290453 299215 323732 356254
3785.61 375824 347527 249737 213254 247992 220859
3791.40 139937 106582 135333 180750 187326 137965
3797.19 107038 96349 58864 30778 48632 42725
3802.97 20110 82161 117879 51143 4773 34080
3808.76 65444 75271 79248 70623 58433 39077
3814.54-13536-37061-22962-12351 273-29003
3820.33-51987-22504-8753-30742-31992-28352
3826.11-47205-11218 62590 61366-9620-55347
3831.90-53627-35809-26045-23864-59359-84284
3837.68-44663-15583-12020 32238 95472 128493
3843.47 96682 17161-1606 30603 43139 45051
3849.25 18572-48016-84799-102243-141004-79190
3855.04 17077 26163 17757 18171 12661-16528
3860.83-41348 3369 43162 19834 9748 39182
3866.61 51398 34145-25093-58785-19870 8840
3872.40 248 9602 37093 16229-49108-63433
3878.18-23494 8548 10815 16847 29375 23770
3883.97-7466 672 60818 100893 90854 57881
3889.75 49235 62020 45812 38057 59374 41648
3895.54 23180 52010 54890 53157 90044 90417
3901.32 39368-8734-32288-20635 24711 108230
3907.11 156404 101662 45625 69706 115654 154864
3912.89 181370 159671 149998 189049 222696 229379
3918.68 200480 191320 223761 243810 246121 238549
3924.47 241990 269310 289790 298181 310601 346896
3930.25 386544 430526 505071 552336 527059 486160
3936.04 514135 549653 548901 575190 613848 624014
3941.82 584611 526798 469686 437256 405838 366747
3947.61 352722 380891 457238 531575 572451 628624
3953.39 665303 625943 617335 680452 694573 673905
3959.18 661263 614732 566588 541670 507170 452607
3964.96 376318 326483 341148 365785 342316 311308
3970.75 280537 262286 290794 342069
##END=
