##TITLE=Acetonitrile
##JCAMP-DX=4.24
##DATA TYPE=INFRARED SPECTRUM
##CLASS=IUPAC A
##ORIGIN=NIST, Anayltical Chemistry Division, 301-975-3108
##OWNER=COPYRIGHT (C) 1998 by the U.S. Secretary of Commerce
##DATE=98/10/1
##$SPECTRA VERSION=1.00
##$UNCERTAINTY IN Y=2.0 % relative (B=1.0E-04,C=3.1E-10,D=2.7E-14)
##CAS NAME=Nitrile-Acetic Acid
##CAS REGISTRY NO=75-05-8
##MOLFORM=C H3 C N
##MP=-45.72 C
##BP=81.6 C
##$NIST SOURCE=QUANT-IR
##SPECTROMETER/DATA SYSTEM=IFS66V (Bruker)
##INSTRUMENT PARAMETERS=KBr Beam splitter; MCT Detector; Multipass cell
##STATE=gas
##SAMPLE DESCRIPTION=Acetonitrile Primary Gas Standard
##PRESSURE=101.3 kPa
##TEMPERATURE=23 C
##SAMPLING PROCEDURE=1 L/min Flow
##RESOLUTION=0.9640
##DATA PROCESSING=NB Strong Apodization
##XUNITS=cm-1
##YUNITS=(micromol/mol)-1m-1 (base 10)
##XFACTOR=1.0
##YFACTOR=11.368E-14
##DELTAX=0.4820
##FIRSTX=575.169
##LASTX=3975.077
##FIRSTY=-2.48E-07
##MAXX=3974.59
##MINX=575.17
##MAXY=.0001319
##MINY=-6.54E-07
##NPOINTS=7053
##XYDATA=(X++(Y..Y))
575.17-2189792-2394534-1619534-2538204-2517920-1564312
577.58-3107570-1543730-771006-3749030-1709670 1396428
580.47 2451000 1258028-766140-1021570-2021146-4725422
583.37-5760386-3704258-618022-1906398-4315286-2818698
586.26-1452106 388346 229082-1297772-1154794-785252
589.15-1235494-3180798-4549884-3431872-2758076-3312904
592.04-1715590-121054-1129674-1672724-1090410-1752160
594.94-1814958-1388206-1984972-3871716-3005798-1561274
597.83-972220-908890-1413830-2415188-2153648-1465276
600.72-1020966-149590-123154-427436-2055618-2180854
603.61-1931922-2026526-2697710-3420054-2399348-757486
606.51-1232156-1562620 370656 1181072 474864-741936
609.40-2023264-2372506-2366666-1751482-1182146-103390
612.29-1103262-2433312-1957026-1710440-1820136-1929598
615.18-2460940-1924466-798188 420492 88260-421992
618.08-831426-640848 120154-603200-1285050-1722872
620.97-1985230-2358728-2495120-1167672-1271538-778654
623.86-107182 42352-1067282-1695204-896416-30604
626.76-85040-113802-99034-1140358-1738600-1438084
629.65-336214-66370-771248-525246-647950-803930
632.54-795922-422430 34436-630790-1227970-852490
635.43-1414078-800066-1470618-2181886-789558 628626
638.33 923586-89670-740128-280982-651416-198818
641.22-675140-869656-33532 873262-8214-1232402
644.11-624198-168464-203396 428542 360124-74886
647.00 83228 860504 869824 598946 107722-356968
649.90 230552-134434-697282-285342-304300 831040
652.79 1250832 854678 675348 671614 364714-161276
655.68-289356-185056-4740 358426 49112-147548
658.58-239130 402700 582054 381896 30622-318562
661.47 92574 757882 876150 651240 549958 795658
664.36 1650300 1753098 1003274 1210332 1981268 2705908
667.25 2876788 2618200 1148094 610426 2481866 2844700
670.15 1937436 1716774 1915922 1768422 2007570 2149176
673.04 2220490 2689720 2097244 1774334 2804792 3650174
675.93 3266290 2731898 2479346 2573622 3272932 4414548
678.82 4774594 3780356 3958826 5382340 6108226 5977506
681.72 6310720 6816378 6367474 7656402 8815692 10385760
684.61 11295300 11819870 12771720 14066280 14861980 16096790
687.50 17029840 18344910 20094670 20708450 22674460 25638750
690.40 27246590 28600970 30310040 32646790 34442360 37340490
693.29 39262340 40829620 43053000 44931390 46542630 49096040
696.18 51165800 52426390 53541360 55408470 56322260 57468050
699.07 58874870 60535810 61935010 63445570 63014660 62230680
701.97 62026010 62735190 62018220 60068580 58795770 58455750
704.86 56585900 55609670 54756380 52686150 49533200 46746670
707.75 44857380 45141510 46025190 43127790 37348520 34437640
710.64 30310970 27817540 32635080 46358180 48192700 33206270
713.54 22735220 18506400 17296260 18881440 31050220 63700150
716.43 71037000 44829400 31907810 28400720 28885580 30280280
719.32 33219030 35468520 38176750 39942990 41189670 42740290
722.22 45125810 46716560 48006280 48759860 49884660 50262650
725.11 51077480 51481200 51299120 50747020 50939320 50973680
728.00 50468090 49142000 48306200 47536080 47003250 45881980
730.89 44525130 43111290 41994100 40494330 39412950 38111940
733.79 36492120 34634710 33574160 32314130 31342590 30171860
736.68 28212800 26468950 24793920 23312790 22361360 21449610
739.57 20319130 19699300 18930210 17883790 16806330 15291370
742.46 13926280 12989230 12328500 11264380 10639580 9854980
745.36 8727504 7979440 7873366 7374292 6248774 5298398
748.25 5239074 4796702 4507302 4178982 4151026 3863808
751.14 3315002 2845282 2735276 2119474 1856754 1069920
754.04 1174384 1346862 1030746 1041750 865076 559024
756.93 250992 197392 135994-342822-62472-179422
759.82-295522-109774-61536-319248-109124-67410
762.71 13136-509134-1082808-1542298-1351576-964448
765.61-778480-409254-189130-623376-778062-942740
768.50-1476704-1341216-539984 292292-183978-1244898
771.39-1288172-888168-948126-1112542-854224-1041144
774.28-897430-1024346-982198-748982-425666-466180
777.18-896850-1302122-1205548-1373940-935288-898318
780.07-1216412-1166286-744508-488308-763760-1391070
782.96-1153794-842918-941140-1268480-807328-195992
785.86-386212-610752-657614-1285222-1581408-1185412
788.75-1476960-1770610-1050926-703892-1066616-1350330
791.64-1105786-1324122-1709136-1738218-1247062-660544
794.53-573760-663524-724334-782064-1094820-1393848
797.43-1372472-1680096-1834138-1810378-1135904-647842
800.32-696664-1254628-1416712-1092766-1111520-1321978
803.21-1220164-1672152-1314108-922660-1305710-1734406
806.10-1497642-1109260-1327248-1608434-2015986-1845880
809.00-754832-879314-1636368-1411444-918546-1065322
811.89-887376-1374088-1902744-1123962-927494-1236716
814.78-1260292-1562308-1431094-1409098-1426780-1035242
817.68-408182-860830-1261308-1563960-1434600-1153454
820.57-1111240-1300414-1006898-292144-927156-1440540
823.46-967094-778338-712112-1063434-1308088-1044662
826.35-978464-1109808-824476-872416-898656-633744
829.25-719328-1488226-1622530-1135080-1043922-1231744
832.14-1906056-1882996-954340-425166-658920-1224848
835.03-1680842-1204890-645738-764166-1404178-993692
837.92-1287194-1921146-1378096-1085884-1094484-1323356
840.82-1208492-725262-700434-914182-415042-230148
843.71-705114-992900-1011518-1252900-1651824-1541038
846.60-985072-1085022-1380218-1480328-1536962-1111798
849.50-513518-508132-697038-717254-976544-827644
852.39-686714-960806-1174472-1323296-1733092-1001028
855.28-104738-732506-1365482-1242578-1338640-1144830
858.17-1199170-1189820-768248-1261454-1502998-953608
861.07-422920-952192-1113458-888198-768264-515326
863.96-633716-1159834-981736-805616-814902-877778
866.85-759060-282136-518954-1020110-841398-841038
869.74-926392-873310-774396-536614-305436-620716
872.64-542008-226194-148852-121488-212176-187142
875.53 208840 240114 627280 1058364 988476 948748
878.42 1077262 1101010 1044942 1385668 1707688 1968856
881.31 2316446 2302628 2437760 2927696 3253916 3609660
884.21 3920696 4333680 4700916 5262512 5790548 6311474
887.10 7008010 7511654 8226732 8874830 9402630 10291330
889.99 10705870 11509130 12850290 13747730 14356010 15087980
892.89 15978580 17144550 18273040 18686000 19590000 20721510
895.78 21957210 23116330 24342760 25735520 27416230 28782340
898.67 29677320 30488010 32032160 33402430 34713730 35935160
901.56 36881410 37955820 39434040 40635520 41014400 41954620
904.46 42794100 43432680 44187250 44676650 44999320 45025880
907.35 45273930 45427540 45594750 45488040 45072950 44647310
910.24 44533700 44242520 42693420 40393740 38918030 37648670
913.13 35917290 33519280 31567360 29703580 27602920 25611330
916.03 23233350 21368940 20069330 20001460 22514740 32411030
918.92 53524120 66418780 40981980 14417610 9183120 8839018
921.81 10112810 12097460 15636660 20923920 29141100 33004560
924.71 26771160 22374490 23869910 25964490 28209020 30720230
927.60 33659420 35789550 37166920 36777470 36754010 37677350
930.49 38700870 39306010 39972740 40031980 40014420 39557880
933.38 39035490 38438520 37901450 36888730 35883580 34861990
936.28 33852040 32616960 31286280 29839970 28465600 27115300
939.17 25947030 24652220 23183710 21511910 19983640 18374380
942.06 17258280 16104140 14816850 13465420 12438380 11179380
944.95 9972550 8813018 7902916 7138278 6822796 5970534
947.85 5024696 4468456 4108036 3682138 3294752 2379974
950.74 1749520 1532070 1544484 1290874 911508 700052
953.63 826196 676494 278816 96030 72474-28
956.53 102010-235682-409548-532714-27594 16578
959.42-98098 5296 366158-14812-242648-252154
962.31-202284-2630 63334-123780 343762 680102
965.20 926836 790934 591996 665414 841214 850318
968.10 1046914 988762 1138970 1393284 1626580 1379224
970.99 911178 821988 1474826 1572170 1685836 1969156
973.88 2086000 1971210 2668148 2517404 2290176 2322148
976.77 2778588 2976144 3505212 3854664 3988502 4802694
979.67 6495758 4986432 4407146 4776420 4763466 4530448
982.56 5315924 5244048 5196566 6323624 8017936 7220562
985.45 7036146 6948454 6614776 6543232 7870600 8417338
988.35 8059792 8925226 11660480 9338670 7945098 10856700
991.24 12353620 10118910 11602280 10992760 10206860 13728990
994.13 25246830 23995170 12330010 10492720 11216110 12052630
997.02 13149390 13764480 12656750 13349840 20999330 29578440
999.92 21383120 14302390 13559900 17314980 21406820 20546580
1002.81 16816150 16140910 21746290 36989340 34923180 21913770
1005.70 21287840 21881460 19745450 17267400 17679280 17131770
1008.59 20654840 46141500 82311280 55234440 31605120 27783450
1011.49 23146480 22339240 22217660 22791590 26234900 30141490
1014.38 49161110 65322790 40284660 26587850 25058150 25617080
1017.27 26662420 32149700 41425380 39376130 34007060 61450080
1020.17 79610750 46868700 30580710 28004480 31979310 36062730
1023.06 35243430 31097220 29126060 39224960 115820500 171002100
1025.95 88477030 44189280 39699230 34341940 30200720 30195000
1028.84 28747770 29232950 32921800 69721740 115862000 85704340
1031.74 45143210 32279900 31200130 35327790 35059940 36708800
1034.63 36248540 35706280 62962400 123729100 100518900 46295760
1037.52 50271220 56409460 42445230 29888740 32198110 32738930
1040.41 38150620 62747110 175896200 231059300 101359600 37531030
1043.31 34437660 42456240 40632930 36396170 37956210 37948770
1046.20 39185130 75285860 131310300 97111040 42512040 34197660
1049.09 33270090 41763340 46363530 41059240 35359170 39042840
1051.99 49332100 92900890 117805900 69881450 35885890 33172690
1054.88 35545220 44114820 55944330 51103000 37710880 49575550
1057.77 76495090 149771500 160441900 71458820 37562340 33117820
1060.66 33432650 35817980 43098640 42241820 38383290 43716340
1063.56 52446180 82773380 77930260 41364480 32395020 30054480
1066.45 30438350 33237650 40499260 37840630 33817590 32613470
1069.34 46209190 73826330 59520620 32575850 31119610 30828700
1072.23 31656830 29034340 28412720 26893500 30076910 38956130
1075.13 75726900 79133700 47647980 33916260 26957450 26486880
1078.02 29694680 30517400 26531630 25778310 25323710 26063090
1080.91 26593240 29727950 31610180 39596640 35628320 23394600
1083.81 20035580 18898460 18319990 17795040 18356100 18670520
1086.70 20464480 23356280 28939340 33847390 24343950 17314210
1089.59 16188290 15533100 14505590 13742060 13655180 14045890
1092.48 15592430 19415930 25611080 33946340 25445580 13459060
1095.38 11456820 10910300 10456600 9665358 9504570 9020902
1098.27 9175964 9589052 11122190 13832840 15099160 11539670
1101.16 9832758 9330628 9022580 8233072 7979492 8058916
1104.05 8930596 8806062 8731138 9075146 10047290 8954712
1106.95 7407816 6447180 5955422 5987998 5964190 5510534
1109.84 5086070 4874080 5181108 5541366 6677788 7896146
1112.73 6261358 3908758 3675432 3449976 3518062 3557186
1115.63 3128456 2558046 2718792 2995892 3187372 3284004
1118.52 2918452 2368060 2139650 2154100 2675466 2466382
1121.41 2087924 1811678 1746774 1792762 2027008 1887550
1124.30 2158240 2014750 1362896 882908 976288 1085452
1127.20 907706 877230 1120726 968714 1080442 1129000
1130.09 1204422 1114730 864672 484402 397658 258682
1132.98 123086 189260 320664 285022 470732 481052
1135.87 440380 278370 336756 306018 92578-211304
1138.77 122266 35192 96730 285938 264440 223102
1141.66 255950-49026 42910 175928 426086 72262
1144.55-117186-25906-57570-75816-88448-140242
1147.45-87438-120718 193326 335602 144374-200272
1150.34-158372-121438-15434-324384-417884-267952
1153.23 3888-242636-318138-77448-286772-451544
1156.12-322896-375954-211478-149298-290344-396804
1159.02-404550-448626-394124-413474-283056-191556
1161.91-137262-433068-579084-603650-553516-178252
1164.80-21546-315158-410612-456034-391054-146164
1167.69-89346-291396-313466-238748-282800-432924
1170.59-341994-376614-246306-215122-355012-495244
1173.48-469496-373314-178310-321618-436618-595478
1176.37-445992-203060-322894-518086-436996-613764
1179.26-525572-340438-475714-671886-550562-258424
1182.16-480812-731024-621632-534338-455974-491474
1185.05-378472-522320-458678-330814-362634-500886
1187.94-622002-307696-225286-336756-236534-388200
1190.84-536616-539344-385876-210200-63404-196986
1193.73-99024 203176 197502 15372-183422-326270
1196.62-342614-311936-160966-123480-217632-388634
1199.51-253188-150804 4736-50704-104148-234820
1202.41-140796-77456-172126-150950-63784-75308
1205.30 6058-49122-157930-235026-133458-230078
1208.19-43834 104802 287642 182840 34388-16026
1211.08-134272-167178 37026 132712 12028-39892
1213.98 128740 511842 875214 704292 589912 459512
1216.87 126052-174938-118914 312550 547626 403506
1219.76 467730 526796 325974 82864-81076-209598
1222.66-191466-248250-235882 63078 177276 179890
1225.55 211520-1260 38778 349312 571906 293888
1228.44 244422 24074-59060 50346 94810-185660
1231.33 114206 392576 211172 109252 46934 7568
1234.23 371188 560048 229774-68614 138944 539710
1237.12 649894 609860 1274662 2147874 2515956 2159684
1240.01 1275678 994546 994518 709076 575290 553366
1242.90 580102 731696 846036 597998 399446 525944
1245.80 543262 570762 568674 554066 482854 324272
1248.69 381962 424162 752754 959450 676868 553266
1251.58 849088 936394 1546034 3772944 3634334 1920826
1254.48 1842980 1376248 1142866 1243364 1256912 1331550
1257.37 1891018 2379186 2535112 1962056 1244530 1043132
1260.26 1161622 997670 1451334 3290548 4367882 3544106
1263.15 2742860 2164566 1936402 1740738 1997916 2174282
1266.05 2470986 3049558 5465054 5722914 3904576 3540234
1268.94 3622514 3866104 3803408 3707628 3699220 4086932
1271.83 4356650 4470134 4608920 4586806 4324070 4192280
1274.72 4052802 3968098 4009338 4400998 4830216 5219902
1277.62 5184234 5131306 5230052 5482770 5365062 5519606
1280.51 7400758 14337910 16599780 11406970 9087836 8316998
1283.40 7552010 7176128 9375768 16395250 20135750 15704610
1286.30 12399540 10847590 9874732 8786644 7219572 5492114
1289.19 4654124 4235390 4598146 4091566 4082720 4164164
1292.08 4913402 5103040 5834510 5890526 7211916 15093450
1294.97 31998650 27058980 12408700 10724310 10904970 8938830
1297.87 8029740 8283420 8345922 8326236 8577802 9029618
1300.76 8940044 9466954 9996796 9814898 8239410 7172234
1303.65 7949566 9222672 9346834 9048044 7870002 7060536
1306.54 6888592 7364916 10547930 19478970 31900610 38662770
1309.44 25766020 14332890 14034760 13542330 11715230 11839170
1312.33 12097230 11893940 12383430 12808810 13582880 14315810
1315.22 14544230 14974240 15566320 15916620 14652010 13209670
1318.12 13359270 13397360 13288180 13372930 13696120 14687780
1321.01 16125160 19660410 29030090 50238830 56936030 35633700
1323.90 24716480 26074120 25708320 22448390 22735020 24868060
1326.79 28082460 28028210 26870680 27121010 28359560 27592440
1329.69 27242610 27937080 33079380 43431940 40677510 26492320
1332.58 19956800 16074260 15895620 16906980 21105770 29006480
1335.47 48284850 86912520 132533700 109355400 51333040 35995810
1338.36 38931100 34283840 25505200 24678350 24643170 24175310
1341.26 23687990 24211860 24408000 25076680 25634350 26464780
1344.15 27119440 29899500 32685050 32703070 29644650 26745750
1347.04 25507660 26517040 31704050 40026660 55668860 82205900
1349.94 102878600 102551600 68208140 43971080 46832920 45203460
1352.83 35480250 33153080 56606900 91306980 78417620 49557870
1355.72 37037020 34726320 35647060 37062840 39197890 41995250
1358.61 45336900 49731800 53273030 57338860 59271410 60624570
1361.51 67012120 77950110 91580140 105325200 116532500 120411300
1364.40 103956000 78583140 67874170 68859110 74032710 83339270
1367.29 93288950 102461500 108587700 113244200 115273900 118639100
1370.18 127316000 137599200 142354700 138583200 131981000 133381400
1373.08 139343300 146387000 153160100 161139800 163037400 193820300
1375.97 250466200 284622000 292407400 274850700 239457400 176775600
1378.86 135840700 126389000 122956500 118843400 111285900 108664200
1381.76 116628600 122839200 126429600 128826000 132254100 137693700
1384.65 150978600 165044200 161360000 162378700 176055600 177218800
1387.54 168267800 167361800 171552700 173616300 178696700 179755100
1390.43 168757300 167457900 168451100 174886800 200763500 230024800
1393.33 242876800 250579100 248933000 241080500 236893700 230846600
1396.22 224319900 219687800 215862800 214377200 214520000 210807400
1399.11 211175800 235733500 248120300 224701300 203326200 190943600
1402.00 184517100 179971900 176843900 173749700 169927700 167004100
1404.90 166908800 175235200 225547300 312488100 339026500 309380700
1407.79 275253500 246497000 231670300 229498500 221666300 207788100
1410.68 193890900 182806800 176802000 174830600 170828900 160891800
1413.58 152807400 149069100 149788800 160843800 182602600 195960900
1416.47 200340300 182932500 151653500 140646500 137129200 142217600
1419.36 176255400 376601100 627124600 611214100 509067000 515672200
1422.25 466914800 328156000 276324700 259988100 224210400 182966200
1425.15 161971000 148626800 144626800 138331900 134340100 127168900
1428.04 123915500 119249300 119747000 117483400 116955400 115598400
1430.93 118229000 115758100 119313200 124976900 132498400 154605500
1433.82 311388200 486458700 439620900 314245600 238768300 208229200
1436.72 183166800 162072700 173545700 178397500 156991800 137673600
1439.61 137847600 132488600 119469500 115793300 117609700 116675900
1442.50 129905600 195697700 274295300 246367800 187088600 147958700
1445.40 132224300 125184000 129141200 129337100 144252900 222335800
1448.29 415310000 499586800 376338100 254418600 192597200 160056000
1451.18 141838700 135883000 147383200 174367500 180630800 153981900
1454.07 135332500 125346400 122588900 126130800 156590800 166616100
1456.97 144535000 126505900 123841000 115904500 113254000 104397600
1459.86 113343400 126642000 144227400 173903000 253693900 555459400
1462.75 1160283000 1018147000 503036800 294304700 204005200 172558000
1465.64 162646300 167113400 158508200 155861000 149084800 145046300
1468.54 141945800 156637500 159052300 149958800 135558600 130420900
1471.43 128600300 131943900 136278800 138487400 132810500 133300500
1474.32 159011600 193248800 179291100 151499900 129758600 142205700
1477.21 171850900 224076200 391595300 429433800 274566000 187202800
1480.11 180690100 199950100 236485500 463519300 563928500 381771500
1483.00 245714100 206893700 177745300 147280700 131093400 124625600
1485.89 125807600 131924900 130821200 123318800 118027400 115583700
1488.79 114601300 114910300 114728700 115148700 117521400 130059100
1491.68 148624800 147075100 134676200 130794200 130301800 139313200
1494.57 232996300 350827100 284321700 180291900 133068600 130806100
1497.46 172355500 295633200 357149000 254804000 160422900 127939900
1500.36 137208700 139145500 123651900 111783200 107560300 106973400
1503.25 103056300 99974010 101918700 105814500 105713100 98344340
1506.14 101525600 106335200 111250300 129370200 127635100 111055800
1509.03 102074500 100273000 99697410 96433560 86443400 81846420
1511.93 88183680 129593400 353062400 602806200 462293200 234581000
1514.82 131283500 95929740 85481340 85885580 92536430 95982640
1517.71 98580220 122104400 149274600 133923200 104641100 93220340
1520.61 93335240 90460070 85946240 116324700 152137900 131232600
1523.50 94306450 79374220 75650160 80474420 82113940 83801590
1526.39 104141000 261587600 457832200 360582700 187761500 113824600
1529.28 85289060 69018160 59888160 59811130 72780810 86247070
1532.18 94466340 102234900 132672900 162584300 130050400 96726130
1535.07 83125100 79338210 80724660 92783760 94760050 89363460
1537.96 94261630 103094900 89676860 81139740 86992560 139098500
1540.85 207035900 175044300 112192800 75288630 60879570 55960170
1543.75 52773900 53476620 54388560 54677100 56680800 58523500
1546.64 59983140 58174520 53725820 52196780 50797940 50358200
1549.53 53350780 66851670 67753510 51568540 41406940 39686860
1552.43 39794010 47043920 101637800 157307100 101704700 71551370
1555.32 66995850 45606870 33804580 36075660 39728090 44080710
1558.21 46015250 45423510 51356560 55424200 49865790 40715580
1561.10 36366620 35756670 34766830 34994590 46017000 55009030
1564.00 43237900 35126990 31296310 33142370 61319100 140954200
1566.89 142730600 69764510 34907880 26064170 27413590 28147720
1569.78 25283150 21560910 20437630 19237410 20316610 27832660
1572.67 37932950 39472930 37455480 34746880 34029760 37823230
1575.57 48610040 49020460 41364920 50978570 63001190 48709640
1578.46 43928310 62674670 59153820 40837920 35221170 27160080
1581.35 23973020 23011090 23313710 23269380 22357960 20569880
1584.25 20016150 19418820 20625680 22693680 24025630 23202680
1587.14 22060230 20712890 21187760 22775290 22068140 19036450
1590.03 18047610 19507040 30080420 36862220 26119200 16370760
1592.92 13312320 12310180 11938640 11108940 10650250 11334020
1595.82 11355670 9913994 8689530 8085086 8423828 10268930
1598.71 11866540 11630260 13083620 17776840 18898270 16194040
1601.60 12786230 11783280 14809540 24336170 31366630 20557180
1604.49 10876750 7941806 7163478 6683252 6932804 6435874
1607.39 5858884 5673674 6119308 6292154 6034900 5437854
1610.28 5521748 6574926 8995474 9470336 9392638 9534818
1613.17 9749002 8989396 8838644 9445510 12900900 16900610
1616.07 22312430 17706300 8426050 6065792 5535120 5479360
1618.96 5128908 4814132 4537868 4583458 4370344 4125086
1621.85 4247844 5059756 8627698 11472850 8483646 5532790
1624.74 5062478 5835418 5219866 4823986 6076302 8565426
1627.64 6712624 3785808 3013420 2975506 2788614 2728778
1630.53 2583562 2442174 2334374 2306810 2226018 2300786
1633.42 2224210 3696704 7355234 12889750 12661100 5672924
1636.31 3710304 4753748 4640958 3074580 3487852 4205406
1639.21 3386592 2165366 1777254 1372002 1439886 1545814
1642.10 1603088 1096658 1025480 1038452 1331144 1626900
1644.99 5881092 11050370 6897878 5041110 7154652 5489808
1647.89 5196518 3419338 2606860 2077420 2384094 2204598
1650.78 2431200 5771964 16135800 19642220 20732310 13813260
1653.67 7180192 7041348 3211644 1626072 1084332 1268922
1656.56 863290 996130 812626 986144 695028 835842
1659.46 770264 970214 1031326 1465480 1497320 3567900
1662.35 5398298 2869752 737928 538416 412038 619886
1665.24 589406 774480 399420 314162 467770 1520962
1668.13 2578270 6395974 6394694 2132432 1231252 2531684
1671.03 3630142 1795904 578228 486204 439480 534580
1673.92 1290524 5626900 8313626 3933390 896114 413852
1676.81 255634 116868 162822 405290 807454 1406280
1679.71 1695202 1408308 639810 587182 659778 2281694
1682.60 5111276 5895772 7087506 15871550 17933900 5836976
1685.49 1145876 408804 525804 355380 1152144 1480598
1688.38 1020008 503570 1293778 1231810 608100 34668
1691.28 140826 366976 896702 538808 843286 859594
1694.17 1693188 5110868 15770790 16717560 5373526 1574330
1697.06 1656100 1245304 1021468 2154110 7603140 14514080
1699.95 14447420 10186820 3734434 1279870 875218 927302
1702.85 816236 1550286 3246598 2835590 1289576 2574592
1705.74 4302664 2870776 1099194 1018646 812464 630504
1708.63 408142 680688 1158030 1173518 526526 518626
1711.53 676306 820132 610146 1125462 2252414 2690472
1714.42 4544936 4825916 1874974 1606690 5662884 14275970
1717.31 10321460 5499516 5978250 3473960 1581670 977232
1720.20 1075396 1327534 1399190 1138120 996706 1353286
1723.10 1893914 1342448 977500 1105182 1242098 1216590
1725.99 1231266 1285346 1460126 1247738 1400446 1706428
1728.88 2169740 3199050 3158460 2223968 1983468 1833286
1731.77 2418516 4719478 11000340 10171320 9946954 12790670
1734.67 6548214 2822944 1817116 1678850 1767056 2207410
1737.56 2090428 2583234 3493400 6998016 8452182 5167982
1740.45 3047968 2308860 2133780 2940280 3431930 3364910
1743.34 2702746 2374106 2329580 2473354 2868554 2618592
1746.24 2458372 2759702 2359656 3077174 4179492 3642390
1749.13 2695090 2451146 3752560 8113178 8421534 3865698
1752.02 2440638 2477518 2092430 2006836 2117298 2102024
1754.92 2138464 2387732 3912554 5347666 3554984 2477488
1757.81 2553832 2727412 2695376 2603654 2421904 2618116
1760.70 3957566 6990194 6062590 3283346 2683990 2456420
1763.59 2435320 2433490 2523398 2382924 2210966 2234008
1766.49 2556594 3243552 6148776 6142094 3301290 2469626
1769.38 2243510 2742316 4008598 5535902 4687104 7810742
1772.27 11714540 6773590 2783056 2460796 2485892 2951310
1775.16 3542726 3153612 2575854 2450554 2508056 2822724
1778.06 2852102 2852330 2762266 3046780 3868622 3706126
1780.95 2866662 2709676 2458328 2406402 2300258 2493426
1783.84 2868862 4300406 3746028 2600088 2824546 3059846
1786.74 2668750 2368184 2342844 2435378 2423074 2744834
1789.63 2977848 3954380 4547272 3634022 4772450 8602046
1792.52 7262416 3730966 2839400 2616458 2835386 3095722
1795.41 3325726 3036162 2984540 2941640 2686702 2800016
1798.31 3154446 4315472 4858258 3854334 3609902 4178814
1801.20 4006298 3901856 4065584 3560528 3653626 3657118
1804.09 3626636 3626890 3768466 3786676 3841434 3883694
1806.98 4163674 4077498 3977616 4115316 4286860 4407818
1809.88 5351870 5577370 4702394 4434544 4522838 4506492
1812.77 4508432 4623396 4730768 4748382 4612622 4709690
1815.66 4827070 4860424 5003604 5283926 5170646 5191136
1818.56 5357648 5236658 5055546 5084666 5304944 5421182
1821.45 5407152 5331848 5215920 5219642 5404010 5414834
1824.34 6645538 7488684 5750402 4687956 4391894 4349482
1827.23 4398840 4425354 4870356 5658746 6574590 8030646
1830.13 6877358 5732228 5162706 4062498 3460516 3662944
1833.02 4227320 4204400 3926622 3805184 3746800 3920128
1835.91 4227440 4770688 5296758 5190000 5129498 5126776
1838.80 5280554 5707040 6305464 6610314 6361438 5888754
1841.70 5872524 5696898 5853162 7859430 11840920 10185830
1844.59 6694840 5936340 5570870 5571130 5592920 5922834
1847.48 6144492 5722598 5253946 5171340 5346596 5297316
1850.38 5008834 4963030 4765950 4726044 4598088 4295770
1853.27 3954522 3861978 3936960 3991278 3951074 3752508
1856.16 3577616 3568606 3473060 3326866 3228538 3209046
1859.05 3129224 3330946 3293764 3173116 3180038 2955752
1861.95 2800092 2692790 2680294 2524004 2504652 2843790
1864.84 3155992 2991752 3036260 2743660 2751904 3547444
1867.73 3350286 3212162 5011588 4607564 2888098 2274602
1870.62 1906698 1958560 2073950 2149192 1864488 1844508
1873.52 1870706 2014962 1781020 1694308 1743698 1530610
1876.41 1460292 1769128 2045696 1904626 2013634 2787282
1879.30 2599840 2061326 1935008 1842308 1839732 1948210
1882.20 1986864 1971748 1797236 1823160 2009140 1958402
1885.09 1789822 1818678 2157178 2212452 2141202 2282792
1887.98 2228592 2592114 3770300 3575574 2774354 2517606
1890.87 2425392 2396568 2568812 2946946 2793046 2542602
1893.77 2537446 2764696 3163870 2920240 2821046 2876928
1896.66 2779268 2795322 2982640 3107410 3128358 3209908
1899.55 3308114 3334196 3356730 3493800 3466350 3359382
1902.44 3321482 3450470 3575896 3631908 3546052 3678748
1905.34 3488332 2919886 2677228 2644638 2693696 2366608
1908.23 1952572 1838580 1940904 2114080 1855826 1653938
1911.12 1520648 1592506 1533064 1844470 1947998 1730440
1914.02 1638116 1817624 1891772 1876274 1853730 1928290
1916.91 2573078 4495316 4059118 2258626 1662916 1566280
1919.80 1684624 1544358 1375184 1296022 1486984 1508168
1922.69 1681808 1325322 1133680 1113618 1250242 1387098
1925.59 1100960 1092712 1169706 976388 980234 1089810
1928.48 1017878 921112 1057644 1231332 1124046 845922
1931.37 714188 775268 744230 779148 705498 697514
1934.26 661758 611926 523942 426852 513712 630158
1937.16 637660 582800 749852 823818 627128 642310
1940.05 750068 825040 929062 1200860 2038178 1595276
1942.94 689782 437648 345200 428160 400306 407024
1945.84 568270 558800 372890 401102 404756 377050
1948.73 389386 542744 496912 296386 310198 496906
1951.62 568428 580772 612920 576292 387028 175622
1954.51 225878 457704 507906 353846 199698 273562
1957.41 402702 387096 484762 464112 420038 499278
1960.30 251192 175766 339280 330812 166792 102196
1963.19-28878 40318 167592 215158 204340 288002
1966.08 242114 650606 818172 339112 308632 300640
1968.98 157500 162724 35086 93406 87516 52658
1971.87 230678 436910 328742 373656 375458 76454
1974.76-206730-127664 3016 77844 190484 163534
1977.66-44516 83162 174130 170592 296434 399652
1980.55 282684 134920 71986 169626 73518 28038
1983.44 112628 125948 88352-60672-9150 181812
1986.33 336880 684542 885448 581872 194584-51414
1989.23 31510 195338 115688 192628 614784 566628
1992.12 232352 97858 99806 141318 44192-33324
1995.01-111550-93300-21636 10948-76270 16534
1997.90-38872-113246-94334-89642-169798 67670
2000.80 101622-30526 52884 319290 368256 250234
2003.69 55486-109432-249356-47068 320816 372688
2006.58 40586-56314-6026 56200-91808-25026
2009.48 74846 55220 10884-81592-70312 2216
2012.37 64972 206022 190194 53978-65992-66074
2015.26 37304 198956 467956 561954 293062 31336
2018.15-51658-224360-399566-273544 1082-7396
2021.05 26300 129106 73354 98660 129702 202682
2023.94 490888 412834 33612 195724 388956 148856
2026.83-3662 40944 2532 166572 209530-11826
2029.72-102400 157330 198406 215412 345398 351950
2032.62 314724 406680 258720 196422 255150 360414
2035.51 286090 282232 317672 143156 271408 569238
2038.40 645420 478292 320034 267868 234994 613394
2041.29 884970 955040 1353362 1982162 1569640 1115072
2044.19 937546 995838 1136850 1322014 1390720 1372038
2047.08 1453716 1442920 1248668 1332804 1509150 1543376
2049.97 1323936 1273766 1263276 1763776 2447026 2501346
2052.87 2479816 2549774 2599604 2762010 2912180 2777452
2055.76 2718396 3041448 3087004 3189184 3300524 3406628
2058.65 3324484 3250414 3245396 3386664 3711762 4029218
2061.54 4044378 3922678 3945436 3966580 3887278 3831000
2064.44 3909636 3839020 3567238 3540010 3305532 3085192
2067.33 3068548 3114396 3069196 2762016 2781110 2827728
2070.22 2621250 2192640 1786580 1362716 951090 1102582
2073.11 1761930 2881796 3771950 3633036 2675348 2781524
2076.01 3825558 3592372 3145002 2810124 2751288 3427862
2078.90 3902836 3674502 3932158 4199200 3942358 3684856
2081.79 3927868 3957854 3704610 3524050 3414100 4095022
2084.69 4813912 4794268 4955112 4883152 4458938 4146838
2087.58 4025486 3894834 3890862 3895242 4061568 3968718
2090.47 3671016 3649566 3718150 3669446 3533792 3265390
2093.36 2927084 2532920 2311408 2310994 2632284 2844164
2096.26 2746206 2658324 2430656 2153186 2201982 2867180
2099.15 3568162 2782728 1771618 1414152 1485162 1629644
2102.04 1655794 1604706 1389772 1057016 816324 601622
2104.93 437676 328120 243240 607296 1083420 1035638
2107.83 866702 722168 702652 429650 181178 215732
2110.72 634850 733712 296504 203504 280454 349348
2113.61 319018 336888 374868 584324 291740 33606
2116.51-24948-197486 110560 1103902 1326090 929750
2119.40 596086 109460 102024 154838 334098 560304
2122.29 484138 433994 375050 123768 72884 291102
2125.18 405168 207596 26350 244086 404012 247804
2128.08 36944-69474-10294 151912 263514 471406
2130.97 621036 566216 159434 75112 191014 224700
2133.86 269580 234878 190472 392264 533512 462088
2136.75 650846 1053126 821132 256916 130484 304312
2139.65 328260 145922 359620 521958 285658 220870
2142.54 249574 159608 219416 323400 374094 266250
2145.43 160074 129260 205580 188094 100132 236106
2148.33 236076 140094-22426 123564 198430-75814
2151.22-22874 276696 230976 288524 426020 404152
2154.11 427892 333604 164782 395768 1166632 1876188
2157.00 1213040 474332 531346 361664 176786 333116
2159.90 339686 346054 484694 700554 670786 448046
2162.79 256032 267406 355198 413588 562466 541192
2165.68 586924 482534 315686 251392 303350 392372
2168.57 528270 350384 252536 363864 386460 513022
2171.47 526286 619318 524170 245724 50936-15198
2174.36 326686 689282 1094622 1433858 905780 429364
2177.25 329972 192578 251668 430804 635046 593142
2180.15 548814 608322 523674 474056 609328 762974
2183.04 481832 158128 331136 530292 551622 520918
2185.93 803158 889940 614430 401766 386348 414582
2188.82 668078 1049656 968712 718350 657282 712590
2191.72 732434 791654 875268 857806 870672 795100
2194.61 829162 1198584 1192722 991200 978160 1093636
2197.50 1186474 913680 779092 837238 1062546 1138472
2200.39 1054652 891286 710120 642708 914808 1093228
2203.29 922440 971422 1112480 1157432 1153330 1169616
2206.18 965046 860558 966496 938086 937930 818186
2209.07 803020 755854 779722 747954 886190 889956
2211.97 1144260 1315166 1173394 1128864 1223898 1621076
2214.86 2147164 2118020 1938940 1452272 1265462 1454860
2217.75 1593694 1619388 1759006 1667064 1743156 1908166
2220.64 2077306 2306682 2473940 2646250 2979638 3167662
2223.54 3325726 3195746 3355212 3675738 4033092 4387188
2226.43 4461884 4392084 4577708 4881856 5312230 5624482
2229.32 6111170 6545340 6734618 7032054 7559810 7982542
2232.21 8447108 8802240 9277136 9927136 10769180 11314580
2235.11 11664620 12245660 13020710 13727600 14368270 15161480
2238.00 15968830 16693240 17562550 18500960 19494170 20231000
2240.89 21084130 22022750 23036580 23944980 24925110 25817650
2243.79 26721100 27677750 28711870 29599800 30556030 31428360
2246.68 32258600 33013540 34002920 34679470 35417670 36288540
2249.57 37175310 37727990 37855380 37687950 38024190 38277810
2252.46 38274990 38101490 38177720 38090800 38164000 38677200
2255.36 40230420 39700450 36122770 33657530 32438150 31367410
2258.25 30413660 29194890 28445410 28201070 30336210 37485610
2261.14 40740530 29296770 20609910 18518340 17995410 16975310
2264.03 17943260 20771050 28751590 50595890 75872110 53152310
2266.93 24044880 20538400 21767490 24341490 27023890 30330400
2269.82 33291890 35873810 38080070 41144940 43751610 46446560
2272.71 48548640 50831960 52810000 54301220 55496090 56842350
2275.61 57865540 58729640 59185210 59786690 59922130 60034060
2278.50 59997530 59701740 59082740 58459630 57726860 57188130
2281.39 56270680 55323170 54475690 53630040 52622700 51629200
2284.28 50432380 49098560 48007900 46738180 45446130 44422510
2287.18 43568380 42616640 41712500 40931540 40406160 39745560
2290.07 38560610 37530320 36977320 36501730 36092260 35774410
2292.96 35511200 34025940 32172950 31267510 30651270 29976380
2295.85 29590280 29457670 27803390 25610210 24649080 24606510
2298.75 24749230 23499600 24169040 23083390 19759630 16763900
2301.64 16590300 17746250 19077530 20795580 23833760 31449720
2304.53 45335170 48172290 42981420 39413080 35399960 33501770
2307.43 34627880 36644140 37996750 39749460 40067160 39572270
2310.32 40638800 43169390 43801460 45152260 46264500 45718840
2313.21 44947020 45305530 44856430 44706270 44327040 44197920
2316.10 43956970 43689290 42560370 41267020 39636660 38778660
2319.00 37392180 35538070 34036800 33216830 31522870 29448280
2321.89 27997180 27032910 25296570 23428040 22360310 21992770
2324.78 20479810 18588000 17586280 17552010 16436840 14712860
2327.67 14123360 14274820 13216150 12100200 12053620 12453240
2330.57 11249400 10114870 10583990 10535240 9041062 8575138
2333.46 9298330 8900668 7724644 8166688 8897210 7681226
2336.35 6521968 7317250 7395006 6248764 6218412 7130914
2339.24 6513214 5659872 6365662 6646398 5260894 4822616
2342.14 5477098 5357882 4901752 5128536 5026890 4872584
2345.03 5304446 5234706 4427124 4063224 4278356 4323622
2347.92 4001070 3706088 3678114 3981022 3982710 4020152
2350.82 4263628 4084034 3999800 4512266 4379594 4163832
2353.71 5117310 5620098 5403716 5898162 5401854 4674074
2356.60 5637036 5604378 4794998 5771962 5468318 4837376
2359.49 5881418 5287140 4953024 6272130 5589672 5649330
2362.39 6579398 5929254 6828964 7038968 6216828 7061154
2365.28 6458296 6345578 6591956 5548468 6072694 5990756
2368.17 5540424 5784460 5322376 5775476 5728024 6144196
2371.06 6858404 7309010 8496304 8215360 7551432 6649838
2373.96 5758080 5601098 5619204 5908910 6091554 6278512
2376.85 6466880 7087268 7362376 7922236 9151974 10261490
2379.74 9099976 7544752 6658564 6393062 6622854 7027226
2382.64 6959160 7112190 7159494 7114692 7239312 7622292
2385.53 8663906 10213240 11167590 10925480 9314540 8284632
2388.42 7934324 7633644 7383432 7436128 7767902 8241544
2391.31 9532794 10761740 10912140 11776250 13147150 13510970
2394.21 11449430 9615564 9047676 8887570 9066860 9456022
2397.10 9890602 10932320 12506220 14935900 17423150 20473570
2399.99 21711830 15853780 9762308 8637942 8698092 8614554
2402.88 8864206 10171800 11227490 11986300 12625810 13182870
2405.78 13897190 13248990 10378520 8931846 9166976 11343180
2408.67 13854790 12980770 11936430 12326410 13090370 14186100
2411.56 15652540 15206670 12739470 11737930 10996860 10545530
2414.46 11203240 13349970 15200210 16289620 17687800 19885780
2417.35 24277580 24457720 15698090 10844030 9690710 9773142
2420.24 10850440 11771330 12288110 12555600 12801680 13356300
2423.13 13756960 13450020 11844450 9950822 9386020 11062220
2426.03 13035730 12405890 11124800 13085050 15229010 13260150
2428.92 12626580 14474710 15082210 12764390 12389410 12763240
2431.81 13189900 11379750 9656356 10898040 15936600 15221930
2434.70 10186140 9269676 9436670 11509100 14234430 17089270
2437.60 19757800 18360010 11869560 8204438 8040812 8625420
2440.49 9181330 9807526 10655690 11339480 11770830 11883440
2443.38 11042300 9760082 9376874 9509676 9909276 9925600
2446.28 9046808 9165540 9736428 9885316 9348634 8645424
2449.17 7726574 7032852 6719146 6867772 6611830 6148236
2452.06 6071156 6382152 6935142 7713094 7979776 7596964
2454.95 7304034 7879216 8228778 8051114 9001416 9552376
2457.85 8913954 7984936 7227736 7171776 7150324 7038440
2460.74 7365962 8413406 10371090 11001900 10422220 9476226
2463.63 8174534 7422796 7272082 7258816 7177108 7113306
2466.52 7080998 7689260 7917506 7837080 8104186 7818870
2469.42 7260452 7242546 8452590 10088210 9889992 9029258
2472.31 8032046 7690360 7648092 8056638 8332808 9609186
2475.20 9816240 8458592 7994218 7993728 8213938 8362416
2478.10 8285836 8347750 8196978 8250964 8757124 10237920
2480.99 11861350 11481950 9808808 8954112 9012378 8892286
2483.88 8602530 8570844 8815742 8905898 8489640 8283272
2486.77 8193716 8289122 8478798 8029618 7556918 7679586
2489.67 7818838 8743518 11033660 13616470 12574320 10115830
2492.56 8702274 8282974 7912176 7495000 7318732 7371018
2495.45 7084114 6616936 6763048 7154264 7204414 6875162
2498.34 6668940 6443176 6167372 6137696 6181368 6719076
2501.24 7941108 9099884 9160842 8863292 8178664 7653178
2504.13 7121972 6603434 6318600 6102826 6038858 6332146
2507.02 6504338 6515852 6468164 6641998 6680482 6353340
2509.92 6112180 6195618 6164654 6368250 6949430 7558604
2512.81 7760466 7731314 7295638 6466696 5885914 5631210
2515.70 5354834 5303274 5127074 5066284 5031876 4946846
2518.59 4788150 4722296 4827416 5147176 5904868 7550796
2521.49 8266214 7700008 6606878 5301632 5517324 5593062
2524.38 4734918 4697236 4667400 4483020 4418868 4648960
2527.27 4781740 5101648 5131412 4947760 4948250 5015382
2530.16 5129054 5207816 5122240 4776852 4511402 4888910
2533.06 5293596 4962156 4913342 4620352 3802546 3609066
2535.95 3900814 4167736 4004802 3766392 3986834 4224112
2538.84 4143706 4010620 4022176 3817012 3752654 4211006
2541.74 4798140 4708352 4316238 4526290 4493812 3909426
2544.63 3203202 2941184 2885086 3061174 3051120 3052576
2547.52 3165960 3420454 3657514 3411686 3140932 3495324
2550.41 3946056 3366614 3031356 3243808 3544348 3685042
2553.31 4030916 4811532 5235844 4575796 3421444 3015042
2556.20 3192568 3151042 2812574 2786548 3169558 3322222
2559.09 3000456 2791898 2749350 2677212 2496936 2654484
2561.98 2998004 3106470 2887084 3072596 3240504 3467578
2564.88 3778654 3748734 3253716 3079254 2688660 2348136
2567.77 1907962 1995852 2236634 2157180 2063562 2140188
2570.66 2270418 2426806 2325386 2182968 2236190 2264848
2573.56 2356138 2586486 2638018 2574708 2730452 2973590
2576.45 2522154 2349934 2383286 2352240 2333900 2146188
2579.34 1947738 2314196 2491494 2453466 2529558 2774712
2582.23 2847010 2682688 2629968 2739376 2962832 3358072
2585.13 3316850 3601666 4126390 4565314 4196082 3811186
2588.02 3855676 3602728 3517536 3784606 3975774 4014962
2590.91 4504290 4797180 4995022 5431074 5560502 5574072
2593.80 5760786 6003656 6059374 6187318 6175150 6638798
2596.70 7115434 7337644 7609234 7954072 7867326 7711970
2599.59 7870594 8430078 9024838 9413660 9574182 9738562
2602.48 9801466 10140400 10022650 10245440 10422320 10718120
2605.37 10982230 10976120 11099210 12268180 13999840 14470700
2608.27 13986830 14221190 15127150 16126200 16180290 15910870
2611.16 15793570 16432870 16171450 15830400 16000790 16676200
2614.05 17999130 20988890 22576110 21140870 21441110 24014130
2616.95 25304290 24660150 23766540 24066390 26218560 28438840
2619.84 28512680 26055800 26999560 33515750 39817830 34974020
2622.73 29116050 28801820 27987080 23512020 19861730 18624120
2625.62 17263810 14640760 12508610 11493180 11193340 11084740
2628.52 11171590 11519030 11709560 11601360 11797150 11771420
2631.41 11292670 11156380 11456980 11426990 11201460 11160930
2634.30 11185680 11165120 11203710 11058400 10642720 10377830
2637.19 9871268 9425730 9213696 9181114 8857050 8319676
2640.09 8011926 7631258 7258690 7058998 6734768 6278802
2642.98 5935554 5681884 5166624 4761264 4354276 3809496
2645.87 3676840 3701886 3625680 3482218 3442428 3508554
2648.77 3448724 2729964 2489636 2634352 2537060 2465538
2651.66 2555814 2441600 2260886 2306926 2277284 2057746
2654.55 2021192 2089854 2218084 2436848 2356290 2374972
2657.44 2543462 2495588 2432234 2391034 2624278 2775128
2660.34 2633920 2771440 3068784 3476934 3880802 4047000
2663.23 4330848 4757052 4578878 3995570 3176144 2916398
2666.12 3171454 2968828 2470688 2333102 2076656 1891880
2669.01 2083672 2129646 2162202 2199880 1467526 1162664
2671.91 1044730 898712 794580 886148 1247874 1863872
2674.80 2192574 2540524 2815166 2830580 2571718 2337868
2677.69 2012806 1782620 1645148 1750632 2042054 2076520
2680.59 1883914 1960410 1765428 1479498 1583006 1729626
2683.48 1559696 1552610 1719422 1645838 1647340 1711244
2686.37 1397966 1334568 1443466 1421682 1459044 1343372
2689.26 1049930 1122674 1516794 1721486 1425118 1253838
2692.16 1336736 1417430 1316012 1213286 1200214 947846
2695.05 875768 1086878 1037132 665462 834678 1100782
2697.94 967396 532438 275284 251690 349074 596800
2700.83 615534 665068 733470 1011308 1163674 867294
2703.73 597610 879904 1300536 1338502 1033270 799912
2706.62 691794 914838 988862 466712 60018 519676
2709.51 911120 1053562 1023622 1226698 1380950 1308106
2712.41 977528 793686 933294 1079862 1010612 853396
2715.30 712270 829022 970960 1254660 1482330 2112688
2718.19 2593334 2868070 2469104 1982300 1480116 1436082
2721.08 1703164 1937920 2090184 2245236 2065438 2065918
2723.98 2088784 2286148 2482542 2243392 2164166 2392492
2726.87 2358900 2632458 3155642 3347576 3049520 2815014
2729.76 2949778 3178334 3428376 3378846 3276896 3903258
2732.65 4171862 3951032 3469592 3594580 3654450 3463572
2735.55 3600016 3915736 3691932 3493816 3653194 3832342
2738.44 3644118 3338022 3376154 3260760 3204898 3286540
2741.33 3394386 3739142 3633278 3430380 3672506 4292808
2744.23 4252164 3592586 3512854 3664118 3458802 3371172
2747.12 3282100 3687626 3855788 3649126 3833564 4161978
2750.01 4397112 4647786 4895672 4745448 4594836 4455050
2752.90 4180496 4227466 4438544 4907542 5563988 5853206
2755.80 5971268 6284182 6517266 6863510 6879540 6629644
2758.69 6077758 5332598 4994318 5065776 4980988 4576022
2761.58 4206566 4227968 4258410 4207168 3752316 3410870
2764.47 3289590 3159154 3119694 3350150 3395292 3447276
2767.37 3122294 2680908 2388558 2299680 2331456 2116430
2770.26 1741750 1716988 1920832 2202166 1999250 1872710
2773.15 1908478 1941106 1658452 1962296 2177788 1897880
2776.05 1808624 1707234 1543838 1621916 1829058 1863510
2778.94 1953634 1993280 2160720 2834654 3057740 2686414
2781.83 2458540 2586456 2182432 1670420 1781850 2041798
2784.72 1818142 1414798 1054274 1300794 1357500 1127324
2787.62 1121386 1371182 1584394 1683606 1547760 1286226
2790.51 1361524 1575402 1728574 2424306 2860768 3310298
2793.40 4026902 5061440 5547260 4526432 3404628 2527344
2796.29 1850924 1811406 1619646 1246396 942848 1224226
2799.19 1166730 826106 929118 1185084 1657826 1967450
2802.08 2076934 2199922 2068112 2179396 2066568 2154166
2804.97 2176784 2340406 2732088 3140492 3505134 3690494
2807.87 4249992 5119190 4994388 3506446 2892908 3019662
2810.76 2833752 2599750 2071390 1350892 870484 1012370
2813.65 1652046 2372668 3176034 3477190 2929762 2575106
2816.54 2571978 2635808 2802938 2936354 2934814 3076996
2819.44 3333784 3581666 3556682 4045370 4578358 5121276
2822.33 5870558 5711328 4172386 3685300 3715108 3775548
2825.22 4083654 4783310 5481400 5007668 4673924 4942112
2828.11 4554294 4258614 4093624 4126128 4428854 4616746
2831.01 4427122 4182866 4586800 5711940 6277400 6168262
2833.90 6419610 7220594 8168994 8402606 7792510 7584212
2836.79 9784582 12910950 13244880 10417230 8326138 7274518
2839.69 6456492 5285752 4624224 5890976 7018344 7677022
2842.58 8690084 9765844 10349540 10563370 11265760 12138400
2845.47 12487650 12879280 13340860 13708880 14092120 15312260
2848.36 16594040 16361110 16037150 16450230 16605510 16952440
2851.26 17414100 18494340 19854040 20518690 19427380 18965510
2854.15 19035510 19296210 19392340 19429600 19322330 19287740
2857.04 19285350 18947330 18156300 19093330 20086790 20096040
2859.93 19299160 19107620 18810820 17238710 16367060 16402520
2862.83 15946510 16121580 17780460 18272640 17628670 17812420
2865.72 19576560 22934980 30155280 28841660 29990870 40430280
2868.61 32791520 24120370 23487080 24974820 26039770 25201050
2871.51 25853590 26606040 27243190 28223820 29932040 31255120
2874.40 32361960 33300180 34062500 34828810 36244370 37485260
2877.29 38399300 38554010 38517660 38436580 38680620 38609590
2880.18 37957010 37599580 37408100 36960940 36523790 35983890
2883.08 35214550 33541080 31412840 29425000 27325860 25840590
2885.97 24747800 23619820 22889560 23030730 24047190 24232710
2888.86 23296240 22628700 22542720 22493710 22284540 22989970
2891.75 25582940 26271190 24994730 25060240 24853830 24186990
2894.65 23569630 23325240 22982090 22851830 23079800 23584740
2897.54 25145100 25587020 24927380 25480620 25986800 25658700
2900.43 25641610 26891190 26964060 26942780 26412510 26239240
2903.32 25690610 25162160 25370880 26631360 26484310 24955740
2906.22 25333310 26339510 25875430 24545580 23784720 23327650
2909.11 22316190 22563110 23688960 23562360 22168170 21359810
2912.00 20486250 20299080 21042910 22982430 21498250 19249000
2914.90 18955840 19423900 19908280 19494910 18767330 18480920
2917.79 18850970 19277890 20015270 20672060 20025900 19901860
2920.68 20702270 22281790 22805540 22487320 21917480 20787130
2923.57 19883870 19435970 19169020 18730430 17406880 17571960
2926.47 21288620 25402110 29455690 33517690 37367000 39170820
2929.36 36114680 36826820 38115980 39726530 42453140 42494170
2932.25 42308190 43740160 45447290 47611500 49933290 52199060
2935.14 54103870 56430960 58844020 62833650 67553280 73638520
2938.04 72298700 71296080 74770380 78010490 77276660 75851310
2940.93 76747300 78266440 78837380 78670490 79548480 80088970
2943.82 80188500 82661710 85259930 84364060 84224060 83441970
2946.72 85498340 76561950 67030960 61816640 56958780 52996850
2949.61 48841880 45240020 42539970 39399510 35772160 37301480
2952.50 52524160 72454590 79662780 76777110 77107140 68476970
2955.39 45284600 32549880 35761490 54281720 50214620 35934240
2958.29 38467930 46631140 55842880 58783460 60924640 63645910
2961.18 67453740 71200050 74921260 77638660 79486070 78858700
2964.07 80852870 85681040 91763810 101885800 119353600 112466500
2966.96 96140110 96125330 92355200 89465560 87775010 86703850
2969.86 84783460 84102620 81595000 79684890 77367850 76038900
2972.75 73160330 70734330 68215890 69253350 74123820 93410540
2975.64 99670980 73600330 61755270 55087600 50269080 48093180
2978.54 44897200 43018160 40983270 39273530 36556950 35398050
2981.43 33904350 32546560 30135410 30739090 31701500 40960110
2984.32 78672780 134857100 98110690 50595250 38101190 25364530
2987.21 22642470 18613320 19037810 16758080 16719710 14310580
2990.11 14566830 14451880 16895330 17359800 19403070 19418390
2993.00 24686670 38151040 76634090 80365530 43475700 29347340
2995.89 19782620 17069020 15405120 16620320 17155360 18291910
2998.78 18199710 18948230 18270300 18454050 18232840 19004240
3001.68 19758690 24547080 35672800 73195100 101161500 60153010
3004.57 33110130 25752180 21326830 18631840 17838130 17571770
3007.46 17546550 17363300 16928290 16937950 16513510 16424140
3010.36 17421010 19211680 29084340 50960050 113797800 189152900
3013.25 118802600 55093000 37584500 26055410 20422900 17401740
3016.14 17096510 17205560 18000420 18192980 18629980 18367210
3019.03 18815790 19167330 20710840 23123500 33022390 68766870
3021.93 111016000 78831590 41017400 28531130 22841530 21435960
3024.82 19507300 18929120 17166340 15586300 14309230 16446560
3027.71 18332000 19705060 20158560 21406230 23805910 35408810
3030.60 70544550 104949800 70017620 36893900 25697680 20669940
3033.50 18670740 17500350 17209390 17026690 16707600 16713290
3036.39 15951070 15530460 14760840 15643010 17998240 25199720
3039.28 49356310 124870900 166741500 91773920 45681500 27743450
3042.18 22007940 19418550 20265650 18820540 19152020 18064470
3045.07 18711300 18521300 19948340 19135990 20807120 21111740
3047.96 27233500 44206900 78453530 74256340 40607760 26589710
3050.85 20599220 19232660 18060810 19052840 18768030 18038790
3053.75 16781870 15858930 14046500 14941180 16958160 18475970
3056.64 21059910 28721170 50170660 69367850 47096330 26364100
3059.53 19240500 15539420 14550170 13322470 13460920 13999040
3062.42 14562920 14761370 15721210 15392590 14767660 14413310
3065.32 16679290 29979570 65695580 71023520 50621180 36134710
3068.21 24486220 18366250 13482140 11922000 10716280 11507400
3071.10 13437680 15607450 14980920 15340020 14792870 15480380
3074.00 15987720 19019770 26546860 41313940 38336340 22746610
3076.89 15816820 13418700 12800920 12570210 12044610 11347120
3079.78 11118920 11494730 11947470 11615260 10376430 11168070
3082.67 12717810 14932100 19947290 29592330 28268420 17328140
3085.57 12028310 9765466 9261048 8796264 8583646 7993300
3088.46 7721968 7851130 8102850 8703562 8871392 9419356
3091.35 11041560 12350080 17976490 32978830 28478930 14410900
3094.24 9703920 7407112 7102610 6478092 6223550 5690324
3097.14 5765992 5689686 6127664 6113618 7363644 8121484
3100.03 8926516 10413850 13647240 16285210 13295770 9723266
3102.92 8260128 7230886 7274566 7009690 6690986 6136532
3105.82 5764840 5163388 4747952 4067934 3734816 5050288
3108.71 7329710 8659726 10240820 9508084 7250010 6037444
3111.60 5655356 5461796 5120358 4795616 4397922 3977430
3114.49 3837094 3710476 3572312 3566262 3523420 4157918
3117.39 5209730 7788182 8909800 5908464 4289452 3804812
3120.28 3371866 3459766 3701578 3475426 3159794 3103478
3123.17 3095114 2958198 3290396 3302852 3143604 3274490
3126.06 4139090 4212728 3571848 3687990 3860516 3772328
3128.96 3412236 3516128 3682802 3459646 3328198 3204580
3131.85 2649202 2444824 1813306 1359942 2204542 3563456
3134.74 4455848 4741222 4692080 4425592 4192150 3721066
3137.64 3448712 3747782 4493990 4576870 4273894 4468818
3140.53 5204600 5212654 5004248 4807686 5116622 5419784
3143.42 5325736 5556100 5797562 5365546 5191720 5352702
3146.31 5291538 5943768 6642052 6831354 7393686 7853776
3149.21 8022964 8031804 8178128 8679940 8884034 9018490
3152.10 9279084 10011530 10848960 11063480 11494620 11492110
3154.99 11332520 12064890 13053890 13283650 13635760 14230640
3157.88 14473830 14533240 15481300 16587450 17276470 17405820
3160.78 17375200 17905880 18805810 19326660 19566960 20009400
3163.67 20147640 20180920 20495990 20466510 20543870 21031310
3166.56 21496180 21421180 21060480 20880110 20366240 20164670
3169.46 20117320 19957080 19351810 18737060 18158340 17474760
3172.35 16545320 15763930 15145530 14138770 12835610 11930780
3175.24 11515710 11381890 12003500 14634660 19988670 28525060
3178.13 28855360 18765450 16117460 15000020 10086660 7892916
3181.03 8548504 9213212 10508530 12218890 14305590 16813580
3183.92 19467480 21574000 23509440 25511450 26970420 28530430
3186.81 30005900 31167150 32367350 33708920 34630740 35071940
3189.70 35543100 36228830 36742170 36330350 35911000 35316590
3192.60 34492850 33646180 32369680 30957360 29971030 28701050
3195.49 27320530 26055490 24626770 23114130 21504210 19789440
3198.38 18338130 16538150 14888440 13818240 12895180 11610210
3201.27 10499610 9678588 9284496 8757870 7848498 7544210
3204.17 7459506 7045388 6276218 6114294 6406066 5973200
3207.06 5193838 5266460 5633504 5729476 5764900 5678572
3209.95 5245336 4715634 4784724 5033618 5003492 5110388
3212.85 4820718 4045714 3813138 3833398 4414932 5183256
3215.74 6700976 7416452 7031374 6641372 7537510 7828578
3218.63 7049484 6687600 6951482 7166044 7015764 7560572
3221.52 8301560 8653298 8615800 8454894 8681714 9102458
3224.42 9446132 9128000 9170356 9260238 9466900 9604696
3227.31 9518084 9138682 8805762 8383198 8487428 8536336
3230.20 7861686 7116112 6540024 6671628 6586512 5689092
3233.09 5224616 4999794 4613264 5013726 5205862 4530256
3235.99 3858782 3415986 3251168 3267482 2850318 2521788
3238.88 2738830 3123072 3067912 2651738 1986630 1669996
3241.77 2161648 3056510 3031974 2059552 2089896 2111274
3244.67 2075794 1917880 1835610 1804894 1806080 1969550
3247.56 2028110 1729806 1390230 1159078 1416830 1621046
3250.45 1834334 1856684 2074308 2042484 1765500 1774762
3253.34 1486916 1327426 1350684 1780666 2259036 1689372
3256.24 1883472 2110868 2010848 2364044 1911004 1294136
3259.13 1397130 1782852 1951528 1918336 1532890 978560
3262.02 1026726 1372150 1765732 1771732 1553478 1619382
3264.91 1731386 1412778 2021584 2236978 2056470 2140922
3267.81 1589636 1317200 1562630 1204724 1500410 1751126
3270.70 1580426 1771594 2116800 1994884 2226018 2049670
3273.59 1561386 1779152 1611678 1345578 1253818 1550038
3276.49 1671996 1534732 1545372 1467434 1681088 1697538
3279.38 1903108 2042302 1682874 1591600 1523500 1507714
3282.27 1269346 1297514 1749768 1784228 1839136 1787444
3285.16 1930528 2230700 2389932 1996474 1829348 1886878
3288.06 1871964 2091860 2091412 1893030 2068972 2054278
3290.95 1700028 1532530 1921442 2222886 2382040 2122798
3293.84 2111772 2335244 1863700 1483826 1699168 1876256
3296.73 2115628 1776558 1798272 1721114 1776148 2073718
3299.63 2370492 2262924 2006712 1839174 1692582 1709734
3302.52 1895268 2228790 2287608 2178060 2688548 2638754
3305.41 1947482 1479756 1681720 1988900 2137852 2044822
3308.31 2142208 2109378 2483498 3206192 3211724 2535444
3311.20 2660792 3033212 2755430 2584514 2268654 1824006
3314.09 1991194 2226578 1838508 1747088 2578282 3113264
3316.98 3079560 2980202 3323120 4199592 4110106 3179642
3319.88 2668168 2565344 3176970 3210254 2522170 2586274
3322.77 2308542 2173764 2552764 2541652 2573432 2444070
3325.66 2379478 2558714 3043446 3001754 2672706 2515214
3328.55 2903928 3138074 3913978 4270476 3926486 3165666
3331.45 2898894 2372878 2200090 2813386 2742142 2369600
3334.34 2675758 2623394 2631392 2950040 3193116 2897686
3337.23 2606996 2773944 3040520 3416306 3185680 2829954
3340.13 3142972 3254436 2868248 2673384 2356288 2481038
3343.02 2771202 2555034 2712708 2976480 3078114 3079076
3345.91 2799478 2670994 3176296 3064962 2841462 2557124
3348.80 2430752 2637676 3116982 2973176 2965268 3298184
3351.70 3068562 3215660 3088514 2984280 3059958 2946580
3354.59 2853006 3153142 3809924 3911326 3684064 3510160
3357.48 3337732 3490910 3180852 2502070 3094964 3879022
3360.37 3445546 3118986 3697822 3892988 3354648 3251122
3363.27 3705364 4010582 3686760 3108368 2981782 2775328
3366.16 2653594 2851648 3247322 3652108 3116154 2705846
3369.05 2621842 3087492 3332664 3416572 3807182 3888184
3371.95 3503080 3018492 2672696 3171822 3145052 2680670
3374.84 2669614 3143304 3054416 3079682 3272794 3339318
3377.73 3446486 3544992 3387060 3168536 3025010 2841110
3380.62 3408284 4044368 3864884 3615096 3461018 3726580
3383.52 3675406 3554274 3400978 3489334 3682596 3691274
3386.41 3763110 3462916 3303950 3559890 4002856 4039988
3389.30 3750738 3611464 3378306 2831972 2969420 3999358
3392.19 4264390 3995642 3517994 2961278 2376952 2539028
3395.09 3063512 3162666 3115422 3297872 3401450 3210314
3397.98 2943800 2833150 2738088 3106796 3293480 2856498
3400.87 2623950 2722040 2842660 3079180 3201620 2979916
3403.77 2937070 2883688 3238572 3708586 3405524 3452496
3406.66 3543628 2870058 2764170 2859674 2802468 3385578
3409.55 3253036 2571416 2903416 3607692 3641866 3215198
3412.44 2785200 2951058 3049994 2790686 2991186 3340344
3415.34 3369588 3230104 2539128 2304534 2583548 2615446
3418.23 2824062 2914210 3184020 3645572 3094034 2583702
3421.12 2983668 3250732 3139632 2711336 3179794 3565894
3424.01 3215018 2354378 2090520 2390290 2431258 2156330
3426.91 2391444 2371946 2075484 2321940 3024730 2779044
3429.80 2634456 2425448 2560822 3156626 3071324 2440586
3432.69 2254368 2772162 3131174 2700774 2289274 2353718
3435.59 2321954 1941212 1980872 2456402 2560418 2630524
3438.48 2810942 2547246 2298602 2321746 2206460 2379976
3441.37 2580670 2285730 2222652 2571720 2843952 2479626
3444.26 2210540 2130204 2120160 2442068 3106744 3297722
3447.16 2923894 2263106 2160608 2469560 2544370 2618070
3450.05 2355666 2676450 2535300 2501056 2410558 2278018
3452.94 2503926 2497222 2540538 2478308 2676126 2167056
3455.83 1390826 1444604 1878846 2467520 2694542 2569350
3458.73 2325352 2090830 2145530 2471020 2295774 1758860
3461.62 1600630 1405172 1831914 1983462 2013216 2401090
3464.51 2181776 1621792 1474704 2054984 2502554 2495094
3467.40 2030628 1536526 1444090 1995440 2340124 2184226
3470.30 2153582 2237986 2115170 2114678 1960104 1593724
3473.19 1882040 2312522 1771266 1480576 1965984 2187694
3476.08 1942262 1903966 2009220 2252338 2766932 2234486
3478.98 1549244 1949870 2241236 1960790 1545246 2025596
3481.87 1830356 1619144 1669546 1859048 1970118 2476090
3484.76 2360776 1815982 1951658 2264578 2290272 2149436
3487.65 2066690 2005386 1898478 1959178 2658732 2515566
3490.55 1770988 1483148 1415270 1546612 1892212 2385742
3493.44 2953262 2852420 2311808 2099084 1924080 2124640
3496.33 2586140 2425674 2273114 1859502 1975328 2420912
3499.22 2523864 2137544 2131268 2223414 2181260 2115650
3502.12 2117168 2216462 2438586 2691640 2703216 2394388
3505.01 2294002 2015086 2034684 1563238 1530094 2200540
3507.90 2607708 2957268 3386618 3012220 2597024 2306246
3510.80 1772818 1646888 1909682 2270060 2322584 2040956
3513.69 2357678 2565154 2390036 2304684 2264544 2241934
3516.58 2675314 2579904 2465192 2442170 2644820 2970600
3519.47 2934536 2281054 1893686 1929754 2025682 2438902
3522.37 2813556 3307378 3199342 2599344 2397952 2503000
3525.26 2556168 2417098 2931526 3324158 2965414 2332330
3528.15 2438296 3078664 2961396 2850796 3014596 2404626
3531.04 2206054 2193430 2325318 2356322 2539924 3253984
3533.94 3115772 2498400 2741094 2807562 2752216 3119626
3536.83 3274310 2790354 2910762 3059032 2894920 2540070
3539.72 2932740 3079252 3057908 2827410 2637456 2614560
3542.62 2748018 2880932 2640180 2395672 2852724 3283602
3545.51 3172678 3247356 3496390 2938744 2647900 2261094
3548.40 2194014 2312588 2607862 2977068 3045460 2732072
3551.29 2715590 3232238 3130778 2818632 2811328 2580460
3554.19 2689642 2734804 3192340 3180182 2597034 2455976
3557.08 2829830 2645246 2357112 2332384 2398786 2663924
3559.97 2827160 2704490 2497728 2410446 2464230 2825044
3562.86 3482222 3373812 3055442 3154316 3595812 4001584
3565.76 4471116 4513706 3265596 4198724 5401778 4003700
3568.65 3113284 2673316 2233982 1903628 2062276 2203158
3571.54 2143834 2329274 2963300 2833486 2806116 2859230
3574.44 2759630 2409452 2398672 2507776 2591426 2709684
3577.33 2453078 2093960 2607260 3322494 3100238 2641044
3580.22 2625708 2612310 2431274 2714456 2666448 2258240
3583.11 3090736 3564852 3101538 2858890 3235786 3817510
3586.01 5603912 5130022 3827880 3583398 5522674 6147344
3588.90 3374210 2683926 2791088 2872862 2759658 2512492
3591.79 2170772 2746810 3084062 2612182 2745108 2995538
3594.68 3653376 3398352 3131962 3193056 2998678 3051732
3597.58 2995828 2942600 2705774 2881810 2930448 3067654
3600.47 3670376 3484536 3037674 2922798 3275858 3272130
3603.36 2870816 2536746 2668020 2709544 2749074 3239708
3606.26 4115082 4348602 3263612 3220664 5315334 8826126
3609.15 6894668 3529204 3311594 3303890 3221006 4419470
3612.04 6582620 5395478 3684236 3514368 4434598 4466000
3614.93 4131772 3662760 3480054 3887194 5322250 5836012
3617.83 4808300 4604746 6742052 7919182 5050442 4212300
3620.72 4091962 3756414 3910970 3695292 3707948 3963702
3623.61 3667354 3514844 3852584 4357216 4709938 4385616
3626.50 3775252 4483128 7959270 10617030 8268946 11293100
3629.40 10141460 5034420 4345810 4188980 4232408 4146152
3632.29 4162686 4408440 5265632 4690480 4241400 4277682
3635.18 4325512 4053136 4087910 4419858 4551998 4563784
3638.08 4296210 4132876 4252504 4640632 4830794 4244678
3640.97 4519758 4846504 5073284 4929390 4920808 4670346
3643.86 4406916 4088150 4776210 5275410 6354006 7910500
3646.75 9618046 8388474 6537922 8740038 14555030 11948340
3649.65 7802186 8951574 9136656 8129232 5729228 5125398
3652.54 5171758 5275286 5164500 5327534 5622960 6106050
3655.43 9351282 11353000 7680176 5461954 5020634 5286084
3658.32 4988908 4794688 4802606 5151424 5297100 5229980
3661.22 5177466 5294876 5186912 5123816 5106268 4665672
3664.11 4628604 5213438 4986262 4860010 4888780 4716336
3667.00 4777066 5690240 8007902 8504736 6014030 6428806
3669.90 12273570 15695810 8456488 4771928 4153414 4746162
3672.79 4988924 6077758 7210484 10675490 11286820 13725590
3675.68 15150070 8623320 5875598 5747196 5324096 5168242
3678.57 6524236 7466050 6679896 6176968 5806268 5769322
3681.47 5905142 5723236 5249922 5249316 5333168 5878714
3684.36 5670454 5237364 4837326 5116312 5075292 5000140
3687.25 7561208 15951050 15452240 7214258 5035368 5395772
3690.14 6362356 8241498 7696864 5050730 4150742 3965040
3693.04 4015884 3637596 3826376 3824802 4165422 4462792
3695.93 4307296 4297096 4127970 4067768 4208772 4217674
3698.82 4237574 4482336 4789806 3963212 4562070 6413238
3701.72 5922862 4454588 4268542 3992598 3671726 3595228
3704.61 4078530 4147594 3660262 3424030 4144454 4359964
3707.50 4162732 4126926 5785664 7560956 5358926 3957218
3710.39 4569046 5499522 10376400 12791550 7358656 4354868
3713.29 3839598 3743236 3650212 3629448 3754096 4078798
3716.18 4119914 3836018 3575084 3869184 4605924 4661694
3719.07 3525454 3665810 4063798 4129384 4434940 5952950
3721.96 5948124 4435660 3857774 3645574 3898912 5098986
3724.86 4993050 4530788 6214368 6256642 4198582 3911516
3727.75 3656682 3339696 3236672 3364388 3395408 3282072
3730.64 3872960 6837222 10956030 8321644 4120944 3540578
3733.54 4753166 6923246 8010166 7292066 5796866 9395332
3736.43 10232420 5481594 4515050 4910748 4347018 3976090
3739.32 3569088 3541184 4418880 5215456 4738552 4226236
3742.21 4075900 4812934 8767508 17490350 23435950 14891070
3745.11 5905186 3689624 3415232 3908780 4395084 4477528
3748.00 5365548 11883170 17064370 10140940 5017096 4936060
3750.89 6374998 13860180 17954180 9114846 4605888 4035550
3753.78 3926712 3612298 3561106 3744084 4981650 5728346
3756.68 4387344 3998478 4184602 4183244 4847026 6417680
3759.57 6738482 4628070 3731628 3161200 3427810 3702180
3762.46 3569358 3462618 3617690 3606136 4001556 5342038
3765.35 6467720 4821020 3810480 3461914 3923212 3731914
3768.25 3737770 4558186 7485016 7356960 4463168 3647390
3771.14 3354664 3241850 3462896 3235270 3525002 3938162
3774.03 3677170 3758232 3873160 3578320 3522214 3445748
3776.93 3399350 3384754 3568720 4164844 6262398 5896170
3779.82 3817194 3509946 3417934 3434140 3501484 3511864
3782.71 3797372 3778678 3705680 4096584 4003642 3996442
3785.60 4052350 3475032 3087556 3355592 3928514 4222592
3788.50 3923684 3684276 3449058 3295276 3572426 3745872
3791.39 3730298 3638540 3647532 3630386 3655862 3734358
3794.28 3657172 4349876 4839452 6503186 6475186 4701136
3797.17 4289444 4108168 3578710 3472060 3660382 4263642
3800.07 5736362 12176720 16304350 8867818 4912198 4765994
3802.96 4424174 4088262 4430108 4475492 4168740 4317142
3805.85 6544526 12046830 11111390 5178716 4057178 3697676
3808.75 3453282 3465574 3987584 3784560 3588616 3554896
3811.64 3594620 3115842 3433382 3513686 3864374 4356404
3814.53 5099118 9122002 17216040 12802150 5411822 4220110
3817.42 3940126 4259798 4044682 4235762 4854130 7033138
3820.32 9527974 9374878 10174340 6702190 4029662 3952052
3823.21 4076536 4132012 3826794 3655182 4362004 5075532
3826.10 5817096 5515274 4678196 4433898 3966608 3904644
3828.99 4259822 4343778 4031480 4377434 6893008 7614912
3831.89 4634722 3592718 3522976 4357240 5455258 7925938
3834.78 6957002 4835540 4599862 4875216 7898420 16309020
3837.67 14665060 6075946 4531686 5209654 5714322 5934560
3840.57 7328322 5527890 4389078 4470816 4747090 6191360
3843.46 6316492 4763926 4760404 4261144 3898042 3926570
3846.35 4171586 3622108 4136020 4382730 4320156 4457048
3849.24 4754014 4539540 4759476 6112176 12365360 16022680
3852.14 9362318 7138500 13823370 23573270 19492040 8429414
3855.03 4805776 4786048 5144892 5334870 5323676 4721380
3857.92 4547600 4686176 4900232 4561302 4480036 4771116
3860.81 5827832 7086298 5916534 4902456 5132092 5574184
3863.71 6763366 8978048 10989690 7011746 4628468 4654564
3866.60 5019364 4657234 4791968 5544956 7730746 9711684
3869.49 13325800 10744490 5710998 5504656 5067068 4594922
3872.39 4300598 5093178 6822122 8159102 6529624 4711342
3875.28 4650660 4743488 4957942 4742952 4270828 4492674
3878.17 4665330 4578660 5524416 7811434 8050532 6580460
3881.06 5387508 4610792 4704294 5134190 5308820 4625700
3883.96 4952236 6140312 10673570 11733170 7117732 4584358
3886.85 4335828 4135522 4347718 5045996 5734584 5545704
3889.74 5052478 6430094 9684052 8502454 5740476 4911020
3892.63 4466584 4780176 4981912 4568200 4726836 5220872
3895.53 5743554 5625320 5236430 5271638 5549490 5723774
3898.42 7754786 9732694 7032238 5018844 5360118 7802072
3901.31 10794720 8791564 6307752 5702828 7670078 10478390
3904.21 8184162 6692404 6782100 6917666 6467612 5803022
3907.10 5433488 5479608 5612254 5816396 6400248 6423456
3909.99 6449774 6550804 6471664 5813198 5720620 6207134
3912.88 7022984 7326718 7156116 7162774 6903634 6891682
3915.78 7546448 9771994 11603610 8472184 6658892 6538734
3918.67 6849046 7277792 8092598 7955176 7908608 7647164
3921.56 6728032 6666960 7392246 7671514 8034374 8453220
3924.45 8673082 8258594 7353160 6701170 6564870 6149520
3927.35 6053508 6498580 7648830 8407344 7668752 7186480
3930.24 7516968 7528388 7784792 8956138 9286496 7608154
3933.13 6936270 7432050 7713138 7517000 7266380 7125704
3936.03 6905678 6743574 6572784 7019268 7800082 8259538
3938.92 8359900 7574042 7246098 7057176 7037754 6888960
3941.81 7925178 8794468 7853292 7869380 8467566 9694084
3944.70 9835748 7995606 7177160 6863830 7486390 7597812
3947.60 7148950 7159012 7113106 8225030 9157388 8228018
3950.49 7045698 7084374 7792088 7850214 7555696 7571096
3953.38 9819890 14160670 12420130 7589214 6364232 6612584
3956.27 7282502 7185916 7207512 7404490 7646518 7499328
3959.17 7523094 7135372 6900622 9009446 12035840 9452264
3962.06 7209160 6941304 7344764 7534228 7951080 8007040
3964.95 7771444 7791874 8491826 9957662 13659500 12859670
3967.85 8541794 7313762 7580508 7531872 7379750 7520510
3970.74 7474862 7037018 7439722 9492738 17632710 18810200
3973.63 10405940 7772726 7682612
##END=
