##TITLE=ETHANETHIOL
##JCAMP-DX=4.24
##DATA TYPE=INFRARED SPECTRUM
##CLASS=COBLENTZ III
##ORIGIN=DOW CHEMICAL COMPANY
##OWNER=COBLENTZ SOCIETY
Collection (C) 2018 copyright by the U.S. Secretary of Commerce
on behalf of the United States of America. All rights reserved.
##DATE=1949/11/04
##NAMES=ethyl hydrosulfide
##CAS REGISTRY NO=75-08-1
##MOLFORM=C2 H6 S
##MP=35 C
##SOURCE REFERENCE=COBLENTZ NO. 6431
##$NIST SOURCE=COBLENTZ
##$NIST IMAGE=cob6431
##SPECTROMETER/DATA SYSTEM=BAIRD (PRISM)
##INSTRUMENT PARAMETERS=NaCl PRISM
##STATE=SOLUTION (10% CCl4 FOR 2-7.6, 10% CS2 FOR 7.6-16.0 MICRON) VS SOLVENT
##PATH LENGTH=0.012 CM, 0.010 CM
$$SPECTRAL CONTAMINATION DUE TO CCl4 AROUND 1550 CM^-^1
##SAMPLING PROCEDURE=TRANSMISSION
##RESOLUTION=2
##DATA PROCESSING=DIGITIZED BY NIST FROM HARD COPY
##XUNITS=MICROMETERS
##YUNITS=TRANSMITTANCE
##XFACTOR=1.000000
##YFACTOR=1
##DELTAX=000.004870
##FIRSTX=1.977
##LASTX=15.9794
##FIRSTY=0.93
##MAXX=15.9794
##MINX=1.977
##MAXY=0.953
##MINY=0.224
##NPOINTS=2876
##XYDATA=(X++(Y..Y))
1.977000 0.9300 0.9300 0.9300 0.9300 0.9300
2.001359 0.9300 0.9300 0.9300 0.9300 0.9300
2.026000 0.9310 0.9310 0.9310 0.9310 0.9300
2.050359 0.9310 0.9310 0.9330 0.9330 0.9330
2.075000 0.9330 0.9330 0.9330 0.9330 0.9330
2.099359 0.9330 0.9330 0.9330 0.9330 0.9330
2.123000 0.9330 0.9340 0.9340 0.9340 0.9330
2.147359 0.9330 0.9330 0.9340 0.9330 0.9330
2.172000 0.9300 0.9290 0.9260 0.9230 0.9190
2.196359 0.9150 0.9120 0.9110 0.9080 0.9040
2.221000 0.9030 0.9030 0.9020 0.9020 0.9020
2.245359 0.9030 0.9060 0.9070 0.9080 0.9090
2.269000 0.9090 0.9110 0.9120 0.9120 0.9120
2.293359 0.9120 0.9120 0.9120 0.9120 0.9130
2.318000 0.9130 0.9130 0.9130 0.9150 0.9170
2.342359 0.9180 0.9190 0.9200 0.9220 0.9230
2.367000 0.9230 0.9230 0.9230 0.9230 0.9230
2.391359 0.9230 0.9240 0.9240 0.9240 0.9240
2.416000 0.9250 0.9250 0.9250 0.9250 0.9250
2.440359 0.9250 0.9250 0.9250 0.9250 0.9250
2.464000 0.9250 0.9250 0.9250 0.9250 0.9260
2.488359 0.9260 0.9260 0.9260 0.9280 0.9290
2.513000 0.9290 0.9290 0.9300 0.9300 0.9300
2.537359 0.9300 0.9310 0.9330 0.9330 0.9330
2.562000 0.9330 0.9330 0.9340 0.9340 0.9340
2.586359 0.9310 0.9290 0.9260 0.9260 0.9250
2.610000 0.9240 0.9250 0.9280 0.9340 0.9350
2.634359 0.9360 0.9360 0.9350 0.9350 0.9340
2.659000 0.9310 0.9310 0.9300 0.9290 0.9290
2.683359 0.9300 0.9300 0.9290 0.9290 0.9290
2.708000 0.9290 0.9290 0.9300 0.9310 0.9330
2.732359 0.9330 0.9340 0.9340 0.9340 0.9360
2.756000 0.9360 0.9360 0.9360 0.9360 0.9360
2.780359 0.9350 0.9350 0.9350 0.9340 0.9340
2.805000 0.9340 0.9340 0.9340 0.9340 0.9340
2.829359 0.9340 0.9340 0.9330 0.9330 0.9330
2.854000 0.9330 0.9330 0.9310 0.9310 0.9300
2.878359 0.9300 0.9290 0.9290 0.9300 0.9300
2.903000 0.9310 0.9330 0.9330 0.9330 0.9340
2.927359 0.9340 0.9330 0.9310 0.9310 0.9300
2.951000 0.9300 0.9280 0.9240 0.9240 0.9220
2.975359 0.9200 0.9190 0.9170 0.9140 0.9120
3.000000 0.9110 0.9090 0.9080 0.9040 0.9030
3.024359 0.9020 0.9010 0.9000 0.9000 0.8940
3.049000 0.8910 0.8890 0.8860 0.8830 0.8830
3.073359 0.8800 0.8780 0.8760 0.8740 0.8730
3.097000 0.8730 0.8730 0.8700 0.8690 0.8680
3.121359 0.8670 0.8660 0.8660 0.8640 0.8630
3.146000 0.8630 0.8640 0.8640 0.8660 0.8670
3.170359 0.8670 0.8670 0.8670 0.8670 0.8660
3.195000 0.8640 0.8630 0.8630 0.8620 0.8610
3.219359 0.8590 0.8550 0.8520 0.8510 0.8500
3.244000 0.8400 0.8340 0.8230 0.8140 0.8090
3.268359 0.8000 0.7720 0.7530 0.7340 0.7210
3.292000 0.7010 0.6730 0.6540 0.6210 0.5560
3.316359 0.5120 0.4730 0.4420 0.4060 0.3430
3.341000 0.3140 0.2850 0.2530 0.2280 0.2260
3.365359 0.2240 0.2250 0.2260 0.2370 0.2630
3.390000 0.2820 0.3140 0.3580 0.3930 0.4090
3.414359 0.4250 0.4540 0.4830 0.5010 0.5100
3.438000 0.5150 0.5200 0.5220 0.5310 0.5400
3.462359 0.5510 0.5710 0.5870 0.6010 0.6340
3.487000 0.7010 0.7340 0.7620 0.7800 0.7940
3.511359 0.7990 0.8030 0.8120 0.8230 0.8300
3.536000 0.8400 0.8440 0.8510 0.8530 0.8590
3.560359 0.8630 0.8670 0.8690 0.8720 0.8730
3.584000 0.8740 0.8750 0.8780 0.8800 0.8800
3.608359 0.8800 0.8800 0.8800 0.8800 0.8800
3.633000 0.8800 0.8800 0.8800 0.8800 0.8800
3.657359 0.8800 0.8800 0.8810 0.8810 0.8830
3.682000 0.8830 0.8840 0.8840 0.8840 0.8860
3.706359 0.8890 0.8900 0.8910 0.8910 0.8920
3.731000 0.8920 0.8920 0.8940 0.8940 0.8940
3.755359 0.8940 0.8940 0.8940 0.8940 0.8940
3.779000 0.8940 0.8940 0.8940 0.8950 0.8940
3.803359 0.8940 0.8920 0.8910 0.8900 0.8860
3.828000 0.8840 0.8830 0.8810 0.8790 0.8790
3.852359 0.8780 0.8780 0.8760 0.8780 0.8780
3.877000 0.8790 0.8790 0.8800 0.8810 0.8830
3.901359 0.8830 0.8830 0.8860 0.8870 0.8890
3.925000 0.8890 0.8900 0.8910 0.8920 0.8920
3.949359 0.8940 0.8940 0.8940 0.8960 0.8970
3.974000 0.8980 0.9000 0.8980 0.9000 0.9000
3.998359 0.9010 0.9020 0.9030 0.9030 0.9030
4.023000 0.9030 0.9040 0.9030 0.9040 0.9040
4.047359 0.9060 0.9060 0.9070 0.9060 0.9070
4.071000 0.9070 0.9070 0.9070 0.9070 0.9070
4.095359 0.9070 0.9070 0.9070 0.9070 0.9060
4.120000 0.9030 0.9030 0.9020 0.9020 0.9020
4.144359 0.9020 0.9080 0.9090 0.9120 0.9130
4.169000 0.9170 0.9180 0.9190 0.9200 0.9200
4.193359 0.9200 0.9200 0.9200 0.9200 0.9200
4.218000 0.9220 0.9220 0.9220 0.9220 0.9220
4.242359 0.9220 0.9220 0.9220 0.9220 0.9230
4.266000 0.9230 0.9230 0.9230 0.9230 0.9230
4.290359 0.9220 0.9220 0.9200 0.9190 0.9190
4.315000 0.9190 0.9190 0.9180 0.9180 0.9180
4.339359 0.9180 0.9170 0.9170 0.9170 0.9170
4.364000 0.9170 0.9170 0.9150 0.9140 0.9140
4.388359 0.9140 0.9130 0.9120 0.9110 0.9090
4.412000 0.9080 0.9080 0.9070 0.9060 0.9060
4.436359 0.9040 0.9040 0.9040 0.9040 0.9060
4.461000 0.9080 0.9080 0.9090 0.9090 0.9090
4.485359 0.9090 0.9090 0.9110 0.9110 0.9110
4.510000 0.9110 0.9110 0.9110 0.9110 0.9110
4.534359 0.9090 0.9090 0.9080 0.9080 0.9070
4.558000 0.9070 0.9070 0.9070 0.9060 0.9060
4.582359 0.9060 0.9060 0.9040 0.9040 0.9040
4.607000 0.9040 0.9040 0.9060 0.9040 0.9040
4.631359 0.9060 0.9060 0.9060 0.9070 0.9080
4.656000 0.9080 0.9080 0.9080 0.9080 0.9080
4.680359 0.9080 0.9080 0.9090 0.9090 0.9090
4.705000 0.9090 0.9090 0.9090 0.9090 0.9090
4.729359 0.9090 0.9090 0.9090 0.9090 0.9080
4.753000 0.9080 0.9070 0.9060 0.9020 0.9020
4.777359 0.9020 0.9020 0.9040 0.9060 0.9080
4.802000 0.9090 0.9090 0.9110 0.9110 0.9110
4.826359 0.9110 0.9110 0.9090 0.9090 0.9090
4.851000 0.9090 0.9090 0.9090 0.9080 0.9080
4.875359 0.9080 0.9080 0.9070 0.9040 0.9020
4.899000 0.9020 0.9020 0.9020 0.9020 0.9020
4.923359 0.9040 0.9040 0.9040 0.9040 0.9040
4.948000 0.9040 0.9030 0.9030 0.9020 0.9020
4.972359 0.9020 0.9020 0.9020 0.9020 0.9020
4.997000 0.9030 0.9030 0.9020 0.9020 0.9020
5.021359 0.9010 0.9010 0.9010 0.9010 0.9010
5.045000 0.9020 0.9020 0.9020 0.9010 0.9010
5.069359 0.9010 0.9000 0.9000 0.9010 0.9010
5.094000 0.9010 0.9010 0.9010 0.9020 0.9020
5.118359 0.9020 0.9020 0.9020 0.9020 0.9010
5.143000 0.9010 0.9010 0.9010 0.9020 0.9020
5.167359 0.9020 0.9020 0.9030 0.9030 0.9030
5.192000 0.9030 0.9030 0.9030 0.9020 0.9020
5.216359 0.9020 0.9020 0.9020 0.9020 0.9020
5.240000 0.9020 0.9020 0.9020 0.9020 0.9020
5.264359 0.9020 0.9020 0.9020 0.9020 0.9020
5.289000 0.9020 0.9020 0.9020 0.9040 0.9040
5.313359 0.9040 0.9060 0.9060 0.9060 0.9040
5.338000 0.9040 0.9040 0.9030 0.9020 0.9020
5.362359 0.9020 0.9020 0.9030 0.9040 0.9040
5.386000 0.9030 0.9030 0.9020 0.9060 0.9030
5.410359 0.9030 0.9030 0.9000 0.9000 0.9010
5.435000 0.9020 0.9030 0.9030 0.9020 0.9010
5.459359 0.9000 0.8980 0.8980 0.8980 0.8970
5.484000 0.8980 0.8980 0.8980 0.8980 0.8980
5.508359 0.8970 0.8970 0.8980 0.9000 0.9000
5.532000 0.9000 0.9010 0.9010 0.9010 0.9010
5.556359 0.9000 0.9000 0.8980 0.8940 0.8940
5.581000 0.8920 0.8920 0.8940 0.8960 0.8970
5.605359 0.8980 0.8980 0.8980 0.8970 0.8970
5.630000 0.8960 0.8940 0.8920 0.8900 0.8890
5.654359 0.8890 0.8870 0.8870 0.8870 0.8890
5.679000 0.8890 0.8890 0.8890 0.8890 0.8890
5.703359 0.8890 0.8850 0.8840 0.8830 0.8830
5.727000 0.8870 0.8860 0.8870 0.8860 0.8840
5.751359 0.8790 0.8760 0.8760 0.8750 0.8760
5.776000 0.8760 0.8780 0.8790 0.8790 0.8800
5.800359 0.8800 0.8800 0.8790 0.8780 0.8760
5.825000 0.8740 0.8730 0.8740 0.8750 0.8760
5.849359 0.8780 0.8790 0.8810 0.8810 0.8780
5.873000 0.8740 0.8730 0.8730 0.8720 0.8700
5.897359 0.8720 0.8720 0.8730 0.8740 0.8750
5.922000 0.8750 0.8740 0.8740 0.8740 0.8740
5.946359 0.8760 0.8760 0.8780 0.8780 0.8780
5.971000 0.8760 0.8750 0.8750 0.8740 0.8730
5.995359 0.8730 0.8730 0.8740 0.8800 0.8830
6.019000 0.8840 0.8840 0.8850 0.8830 0.8830
6.043359 0.8830 0.8800 0.8790 0.8800 0.8800
6.068000 0.8800 0.8790 0.8780 0.8780 0.8750
6.092359 0.8740 0.8720 0.8700 0.8690 0.8680
6.117000 0.8680 0.8680 0.8680 0.8680 0.8680
6.141359 0.8680 0.8690 0.8690 0.8680 0.8670
6.166000 0.8660 0.8640 0.8640 0.8640 0.8640
6.190359 0.8640 0.8640 0.8660 0.8680 0.8670
6.214000 0.8680 0.8680 0.8670 0.8670 0.8670
6.238359 0.8670 0.8670 0.8670 0.8640 0.8630
6.263000 0.8630 0.8630 0.8630 0.8630 0.8630
6.287359 0.8640 0.8670 0.8680 0.8690 0.8700
6.312000 0.8700 0.8700 0.8700 0.8700 0.8700
6.336359 0.8700 0.8700 0.8700 0.8720 0.8730
6.360000 0.8730 0.8730 0.8750 0.8780 0.8780
6.384359 0.8790 0.8790 0.8780 0.8790 0.8790
6.409000 0.8790 0.8790 0.8790 0.8790 0.8790
6.433359 0.8800 0.8800 0.8810 0.8810 0.8810
6.458000 0.8810 0.8810 0.8800 0.8790 0.8790
6.482359 0.8790 0.8760 0.8740 0.8740 0.8740
6.506000 0.8740 0.8740 0.8740 0.8740 0.8730
6.530359 0.8730 0.8720 0.8700 0.8690 0.8640
6.555000 0.8620 0.8590 0.8590 0.8550 0.8530
6.579359 0.8550 0.8530 0.8520 0.8510 0.8500
6.604000 0.8440 0.8390 0.8310 0.8270 0.8240
6.628359 0.8220 0.8190 0.8170 0.8130 0.8120
6.653000 0.8110 0.8090 0.8090 0.8030 0.8020
6.677359 0.8010 0.8010 0.7900 0.7810 0.7740
6.701000 0.7710 0.7620 0.7600 0.7530 0.7530
6.725359 0.7510 0.7510 0.7450 0.7410 0.7330
6.750000 0.7180 0.7040 0.6850 0.6680 0.6540
6.774359 0.6390 0.6240 0.6090 0.5800 0.5760
6.799000 0.5700 0.5660 0.5540 0.5260 0.5120
6.823359 0.4940 0.4770 0.4560 0.4380 0.4190
6.847000 0.3870 0.3750 0.3650 0.3640 0.3620
6.871359 0.3640 0.3710 0.3830 0.3930 0.4030
6.896000 0.4190 0.4330 0.4490 0.4650 0.4840
6.920359 0.5040 0.5210 0.5350 0.5510 0.5660
6.945000 0.5830 0.5980 0.6010 0.6040 0.6160
6.969359 0.6280 0.6400 0.6450 0.6540 0.6610
6.994000 0.6690 0.6780 0.6830 0.6860 0.6910
7.018359 0.6940 0.6960 0.7000 0.7010 0.7020
7.042000 0.7020 0.7040 0.7050 0.7100 0.7100
7.066359 0.7120 0.7130 0.7130 0.7160 0.7190
7.091000 0.7190 0.7220 0.7230 0.7240 0.7270
7.115359 0.7290 0.7300 0.7330 0.7340 0.7350
7.140000 0.7340 0.7330 0.7320 0.7300 0.7290
7.164359 0.7220 0.7170 0.7120 0.7060 0.6900
7.188000 0.6800 0.6710 0.6520 0.6430 0.6260
7.212359 0.6130 0.6040 0.5890 0.5880 0.5870
7.237000 0.5880 0.5890 0.5960 0.6010 0.6050
7.261359 0.6220 0.6380 0.6470 0.6620 0.6770
7.286000 0.6960 0.7040 0.7210 0.7300 0.7400
7.310359 0.7510 0.7610 0.7690 0.7730 0.7800
7.334000 0.7810 0.7900 0.7920 0.7960 0.8000
7.358359 0.8010 0.8020 0.8030 0.8090 0.8090
7.383000 0.8110 0.8130 0.8160 0.8170 0.8180
7.407359 0.8190 0.8190 0.8200 0.8200 0.8200
7.432000 0.8220 0.8200 0.8200 0.8200 0.8190
7.456359 0.8190 0.8180 0.8190 0.8190 0.8180
7.481000 0.8160 0.8130 0.8120 0.8110 0.8090
7.505359 0.8080 0.8060 0.8030 0.8030 0.8020
7.529000 0.8010 0.8010 0.8010 0.7900 0.7850
7.553359 0.7810 0.7800 0.7670 0.7620 0.7600
7.578000 0.7570 0.7550 0.7520 0.7520 0.7510
7.602359 0.7490 0.7460 0.7440 0.7440 0.7440
7.627000 0.7440 0.7420 0.7410 0.7400 0.7400
7.651359 0.7380 0.7350 0.7340 0.7340 0.7330
7.675000 0.7320 0.7300 0.7280 0.7240 0.7230
7.699359 0.7210 0.7160 0.7130 0.7100 0.7040
7.724000 0.7020 0.7000 0.6910 0.6850 0.6800
7.748359 0.6720 0.6630 0.6540 0.6430 0.6300
7.773000 0.6180 0.6040 0.5620 0.5430 0.5200
7.797359 0.5160 0.5050 0.4920 0.4560 0.4330
7.821000 0.4060 0.3580 0.3410 0.3060 0.2870
7.845359 0.2640 0.2460 0.2360 0.2310 0.2300
7.870000 0.2280 0.2300 0.2310 0.2470 0.2660
7.894359 0.2820 0.3060 0.3320 0.3620 0.3840
7.919000 0.3980 0.4110 0.4340 0.4610 0.4840
7.943359 0.5000 0.5110 0.5200 0.5260 0.5310
7.968000 0.5400 0.5420 0.5480 0.5540 0.5610
7.992359 0.5700 0.5780 0.5880 0.5990 0.6040
8.016000 0.6070 0.6180 0.6320 0.6430 0.6540
8.040359 0.6710 0.6800 0.6930 0.7020 0.7100
8.065000 0.7130 0.7210 0.7300 0.7350 0.7410
8.089359 0.7510 0.7530 0.7600 0.7630 0.7690
8.114000 0.7720 0.7740 0.7790 0.7800 0.7810
8.138359 0.7840 0.7890 0.7900 0.7910 0.7940
8.162000 0.7970 0.8000 0.8010 0.8020 0.8030
8.186359 0.8030 0.8060 0.8090 0.8090 0.8110
8.211000 0.8120 0.8130 0.8130 0.8130 0.8140
8.235359 0.8140 0.8140 0.8170 0.8170 0.8180
8.260000 0.8180 0.8190 0.8190 0.8200 0.8200
8.284359 0.8220 0.8220 0.8220 0.8230 0.8230
8.308000 0.8240 0.8240 0.8240 0.8240 0.8270
8.332359 0.8270 0.8270 0.8280 0.8280 0.8280
8.357000 0.8290 0.8290 0.8290 0.8290 0.8290
8.381359 0.8290 0.8290 0.8290 0.8300 0.8300
8.406000 0.8310 0.8310 0.8310 0.8310 0.8310
8.430359 0.8310 0.8330 0.8330 0.8310 0.8310
8.455000 0.8310 0.8330 0.8330 0.8330 0.8310
8.479359 0.8310 0.8330 0.8330 0.8330 0.8330
8.503000 0.8310 0.8310 0.8310 0.8310 0.8300
8.527359 0.8300 0.8290 0.8280 0.8280 0.8240
8.552000 0.8240 0.8230 0.8220 0.8190 0.8170
8.576359 0.8140 0.8120 0.8110 0.8090 0.8060
8.601000 0.8030 0.8020 0.8010 0.8000 0.7970
8.625359 0.7960 0.7950 0.7940 0.7920 0.7920
8.649000 0.7920 0.7920 0.7920 0.7920 0.7920
8.673359 0.7940 0.7940 0.7950 0.7960 0.7970
8.698000 0.7970 0.7970 0.7990 0.7990 0.8000
8.722359 0.8000 0.8000 0.8010 0.8010 0.8010
8.747000 0.8010 0.8010 0.8010 0.8010 0.8010
8.771359 0.8010 0.8010 0.8010 0.8010 0.8010
8.795000 0.8010 0.8010 0.8010 0.8000 0.8000
8.819359 0.8000 0.7970 0.7990 0.7990 0.7990
8.844000 0.7990 0.7990 0.7970 0.7950 0.7950
8.868359 0.7940 0.7940 0.7920 0.7920 0.7910
8.893000 0.7900 0.7890 0.7890 0.7860 0.7840
8.917359 0.7840 0.7830 0.7830 0.7810 0.7800
8.942000 0.7800 0.7790 0.7790 0.7780 0.7770
8.966359 0.7740 0.7730 0.7730 0.7710 0.7690
8.990000 0.7670 0.7660 0.7630 0.7610 0.7600
9.014359 0.7580 0.7570 0.7550 0.7520 0.7510
9.039000 0.7510 0.7440 0.7410 0.7380 0.7330
9.063359 0.7300 0.7240 0.7210 0.7140 0.7110
9.088000 0.7040 0.7010 0.6910 0.6830 0.6760
9.112359 0.6710 0.6610 0.6550 0.6520 0.6450
9.136000 0.6410 0.6380 0.6330 0.6300 0.6260
9.160359 0.6240 0.6240 0.6260 0.6260 0.6270
9.185000 0.6290 0.6320 0.6340 0.6390 0.6430
9.209359 0.6460 0.6520 0.6560 0.6620 0.6660
9.234000 0.6720 0.6760 0.6820 0.6850 0.6900
9.258359 0.6940 0.7020 0.7050 0.7110 0.7130
9.282000 0.7170 0.7220 0.7240 0.7300 0.7330
9.306359 0.7350 0.7400 0.7420 0.7450 0.7510
9.331000 0.7520 0.7530 0.7550 0.7610 0.7620
9.355359 0.7630 0.7640 0.7670 0.7710 0.7710
9.380000 0.7720 0.7730 0.7740 0.7750 0.7800
9.404359 0.7810 0.7810 0.7810 0.7810 0.7810
9.429000 0.7830 0.7830 0.7840 0.7860 0.7890
9.453359 0.7900 0.7910 0.7920 0.7920 0.7940
9.477000 0.7990 0.8000 0.8000 0.8000 0.8010
9.501359 0.8010 0.8030 0.8050 0.8050 0.8060
9.526000 0.8060 0.8070 0.8070 0.8090 0.8120
9.550359 0.8120 0.8130 0.8130 0.8140 0.8140
9.575000 0.8170 0.8170 0.8180 0.8190 0.8190
9.599359 0.8190 0.8200 0.8220 0.8230 0.8230
9.623000 0.8230 0.8230 0.8240 0.8240 0.8240
9.647359 0.8270 0.8270 0.8280 0.8290 0.8290
9.672000 0.8290 0.8290 0.8290 0.8290 0.8290
9.696359 0.8290 0.8290 0.8280 0.8250 0.8240
9.721000 0.8240 0.8240 0.8240 0.8230 0.8230
9.745359 0.8220 0.8220 0.8220 0.8220 0.8220
9.769000 0.8220 0.8220 0.8220 0.8230 0.8230
9.793359 0.8230 0.8240 0.8240 0.8250 0.8240
9.818000 0.8250 0.8270 0.8270 0.8270 0.8280
9.842359 0.8280 0.8280 0.8290 0.8290 0.8290
9.867000 0.8300 0.8300 0.8300 0.8310 0.8310
9.891359 0.8310 0.8310 0.8310 0.8330 0.8330
9.916000 0.8330 0.8330 0.8310 0.8310 0.8310
9.940359 0.8300 0.8300 0.8300 0.8290 0.8290
9.964000 0.8270 0.8250 0.8250 0.8230 0.8220
9.988359 0.8190 0.8170 0.8140 0.8120 0.8110
10.013000 0.8060 0.8030 0.8010 0.7940 0.7910
10.037359 0.7860 0.7790 0.7730 0.7710 0.7710
10.062000 0.7720 0.7780 0.7830 0.7840 0.7850
10.086359 0.7860 0.7860 0.7860 0.7860 0.7850
10.110000 0.7840 0.7840 0.7810 0.7810 0.7800
10.134359 0.7780 0.7750 0.7740 0.7720 0.7710
10.159000 0.7670 0.7640 0.7630 0.7610 0.7570
10.183359 0.7550 0.7520 0.7490 0.7450 0.7410
10.208000 0.7360 0.7330 0.7290 0.7220 0.7190
10.232359 0.7120 0.7070 0.7020 0.7000 0.6910
10.256000 0.6850 0.6800 0.6730 0.6710 0.6620
10.280359 0.6570 0.6550 0.6500 0.6450 0.6440
10.305000 0.6430 0.6410 0.6430 0.6440 0.6450
10.329359 0.6500 0.6510 0.6570 0.6620 0.6660
10.354000 0.6740 0.6840 0.6940 0.7020 0.7120
10.378359 0.7220 0.7330 0.7420 0.7520 0.7610
10.403000 0.7690 0.7780 0.7840 0.7940 0.7970
10.427359 0.8010 0.8030 0.8120 0.8190 0.8220
10.451000 0.8300 0.8300 0.8350 0.8400 0.8420
10.475359 0.8510 0.8520 0.8560 0.8590 0.8620
10.500000 0.8640 0.8690 0.8720 0.8730 0.8750
10.524359 0.8790 0.8800 0.8830 0.8840 0.8860
10.549000 0.8890 0.8900 0.8920 0.8940 0.8950
10.573359 0.8960 0.8970 0.8980 0.9000 0.9000
10.597000 0.9010 0.9020 0.9020 0.9040 0.9040
10.621359 0.9040 0.9060 0.9060 0.9070 0.9080
10.646000 0.9080 0.9090 0.9090 0.9110 0.9120
10.670359 0.9120 0.9120 0.9130 0.9130 0.9140
10.695000 0.9140 0.9150 0.9170 0.9170 0.9180
10.719359 0.9180 0.9180 0.9190 0.9190 0.9190
10.744000 0.9200 0.9200 0.9200 0.9220 0.9220
10.768359 0.9220 0.9230 0.9230 0.9230 0.9240
10.792000 0.9240 0.9240 0.9240 0.9240 0.9250
10.816359 0.9240 0.9250 0.9250 0.9260 0.9280
10.841000 0.9280 0.9290 0.9290 0.9290 0.9290
10.865359 0.9290 0.9290 0.9300 0.9300 0.9300
10.890000 0.9300 0.9300 0.9300 0.9300 0.9300
10.914359 0.9300 0.9300 0.9300 0.9300 0.9300
10.938000 0.9300 0.9300 0.9300 0.9300 0.9300
10.962359 0.9300 0.9300 0.9300 0.9300 0.9300
10.987000 0.9300 0.9300 0.9300 0.9300 0.9300
11.011359 0.9300 0.9300 0.9290 0.9290 0.9280
11.036000 0.9290 0.9280 0.9280 0.9280 0.9260
11.060359 0.9250 0.9240 0.9240 0.9230 0.9230
11.084000 0.9230 0.9230 0.9230 0.9230 0.9220
11.108359 0.9220 0.9200 0.9190 0.9190 0.9180
11.133000 0.9170 0.9150 0.9140 0.9130 0.9130
11.157359 0.9130 0.9120 0.9120 0.9110 0.9090
11.182000 0.9060 0.9040 0.9040 0.9030 0.9020
11.206359 0.9020 0.9010 0.9010 0.9000 0.9010
11.231000 0.9010 0.9000 0.9000 0.8950 0.8940
11.255359 0.8940 0.8920 0.8900 0.8890 0.8860
11.279000 0.8850 0.8840 0.8830 0.8810 0.8790
11.303359 0.8750 0.8740 0.8720 0.8700 0.8640
11.328000 0.8630 0.8610 0.8560 0.8550 0.8510
11.352359 0.8510 0.8450 0.8410 0.8400 0.8330
11.377000 0.8300 0.8250 0.8220 0.8180 0.8160
11.401359 0.8110 0.8050 0.8020 0.7910 0.7880
11.425000 0.7840 0.7800 0.7740 0.7710 0.7630
11.449359 0.7610 0.7550 0.7520 0.7510 0.7460
11.474000 0.7420 0.7410 0.7360 0.7340 0.7330
11.498359 0.7320 0.7320 0.7290 0.7280 0.7250
11.523000 0.7250 0.7250 0.7270 0.7280 0.7280
11.547359 0.7290 0.7320 0.7320 0.7330 0.7350
11.571000 0.7350 0.7390 0.7410 0.7450 0.7500
11.595359 0.7520 0.7550 0.7570 0.7620 0.7660
11.620000 0.7720 0.7720 0.7750 0.7800 0.7830
11.644359 0.7850 0.7910 0.7920 0.7970 0.8020
11.669000 0.8020 0.8050 0.8070 0.8120 0.8160
11.693359 0.8200 0.8230 0.8270 0.8310 0.8350
11.718000 0.8410 0.8420 0.8450 0.8470 0.8510
11.742359 0.8530 0.8560 0.8610 0.8630 0.8680
11.766000 0.8720 0.8740 0.8800 0.8830 0.8840
11.790359 0.8850 0.8870 0.8910 0.8920 0.8960
11.815000 0.9000 0.9000 0.9010 0.9020 0.9030
11.839359 0.9040 0.9090 0.9110 0.9130 0.9130
11.864000 0.9170 0.9180 0.9200 0.9220 0.9230
11.888359 0.9240 0.9240 0.9240 0.9280 0.9290
11.912000 0.9300 0.9300 0.9300 0.9310 0.9310
11.936359 0.9310 0.9330 0.9330 0.9330 0.9340
11.961000 0.9340 0.9340 0.9340 0.9350 0.9350
11.985359 0.9350 0.9350 0.9350 0.9340 0.9350
12.010000 0.9350 0.9340 0.9340 0.9340 0.9340
12.034359 0.9350 0.9350 0.9360 0.9370 0.9390
12.058000 0.9400 0.9400 0.9410 0.9410 0.9420
12.082359 0.9420 0.9430 0.9430 0.9450 0.9460
12.107000 0.9460 0.9470 0.9470 0.9480 0.9480
12.131359 0.9480 0.9500 0.9500 0.9510 0.9510
12.156000 0.9510 0.9520 0.9520 0.9520 0.9520
12.180359 0.9520 0.9520 0.9520 0.9520 0.9520
12.205000 0.9530 0.9520 0.9520 0.9530 0.9520
12.229359 0.9520 0.9520 0.9520 0.9520 0.9520
12.253000 0.9520 0.9510 0.9510 0.9520 0.9520
12.277359 0.9520 0.9520 0.9520 0.9520 0.9510
12.302000 0.9510 0.9510 0.9500 0.9500 0.9500
12.326359 0.9500 0.9500 0.9500 0.9480 0.9480
12.351000 0.9470 0.9470 0.9450 0.9450 0.9450
12.375359 0.9450 0.9450 0.9450 0.9450 0.9450
12.399000 0.9460 0.9460 0.9450 0.9450 0.9450
12.423359 0.9450 0.9450 0.9450 0.9450 0.9430
12.448000 0.9430 0.9430 0.9430 0.9430 0.9430
12.472359 0.9420 0.9410 0.9410 0.9410 0.9410
12.497000 0.9410 0.9400 0.9410 0.9410 0.9410
12.521359 0.9390 0.9390 0.9360 0.9350 0.9350
12.545000 0.9350 0.9350 0.9350 0.9350 0.9340
12.569359 0.9340 0.9330 0.9330 0.9310 0.9310
12.594000 0.9310 0.9310 0.9310 0.9310 0.9300
12.618359 0.9290 0.9280 0.9280 0.9260 0.9240
12.643000 0.9240 0.9230 0.9230 0.9220 0.9200
12.667359 0.9190 0.9180 0.9170 0.9170 0.9140
12.692000 0.9140 0.9130 0.9130 0.9120 0.9120
12.716359 0.9120 0.9110 0.9110 0.9090 0.9090
12.740000 0.9080 0.9060 0.9040 0.9030 0.9020
12.764359 0.9020 0.9020 0.9010 0.9010 0.9010
12.789000 0.9010 0.9010 0.9010 0.9000 0.9010
12.813359 0.9010 0.9000 0.8980 0.8980 0.8970
12.838000 0.8970 0.8960 0.8960 0.8960 0.8950
12.862359 0.8950 0.8950 0.8950 0.8950 0.8950
12.886000 0.8950 0.8950 0.8940 0.8940 0.8940
12.910359 0.8940 0.8940 0.8940 0.8940 0.8940
12.935000 0.8940 0.8940 0.8940 0.8940 0.8940
12.959359 0.8940 0.8950 0.8950 0.8950 0.8960
12.984000 0.8970 0.8980 0.8980 0.9000 0.9000
13.008359 0.9010 0.9020 0.9020 0.9020 0.9020
13.032000 0.9020 0.9020 0.9020 0.9020 0.9000
13.056359 0.9000 0.8980 0.8980 0.8970 0.8970
13.081000 0.8960 0.8950 0.8940 0.8940 0.8940
13.105359 0.8940 0.8940 0.8940 0.8940 0.8920
13.130000 0.8920 0.8920 0.8920 0.8910 0.8910
13.154359 0.8910 0.8900 0.8900 0.8900 0.8890
13.179000 0.8900 0.8900 0.8890 0.8890 0.8870
13.203359 0.8860 0.8850 0.8840 0.8840 0.8840
13.227000 0.8840 0.8840 0.8840 0.8830 0.8830
13.251359 0.8810 0.8810 0.8800 0.8800 0.8800
13.276000 0.8790 0.8790 0.8780 0.8750 0.8750
13.300359 0.8740 0.8730 0.8720 0.8720 0.8720
13.325000 0.8700 0.8700 0.8690 0.8680 0.8670
13.349359 0.8640 0.8640 0.8620 0.8610 0.8610
13.373000 0.8560 0.8550 0.8550 0.8530 0.8520
13.397359 0.8520 0.8510 0.8450 0.8440 0.8420
13.422000 0.8400 0.8400 0.8350 0.8330 0.8310
13.446359 0.8300 0.8290 0.8240 0.8230 0.8220
13.471000 0.8190 0.8140 0.8130 0.8110 0.8090
13.495359 0.8060 0.8030 0.8020 0.8020 0.8010
13.519000 0.8000 0.8000 0.7940 0.7910 0.7900
13.543359 0.7890 0.7880 0.7860 0.7840 0.7840
13.568000 0.7830 0.7810 0.7800 0.7800 0.7790
13.592359 0.7780 0.7780 0.7780 0.7780 0.7780
13.617000 0.7780 0.7780 0.7780 0.7790 0.7800
13.641359 0.7800 0.7810 0.7830 0.7840 0.7840
13.666000 0.7840 0.7850 0.7860 0.7880 0.7890
13.690359 0.7900 0.7910 0.7940 0.7960 0.7990
13.714000 0.7990 0.8000 0.8000 0.8010 0.8020
13.738359 0.8020 0.8030 0.8050 0.8060 0.8090
13.763000 0.8110 0.8120 0.8120 0.8130 0.8140
13.787359 0.8170 0.8170 0.8170 0.8180 0.8180
13.812000 0.8190 0.8190 0.8200 0.8200 0.8220
13.836359 0.8220 0.8230 0.8230 0.8240 0.8240
13.860000 0.8240 0.8250 0.8250 0.8280 0.8300
13.884359 0.8300 0.8300 0.8310 0.8310 0.8330
13.909000 0.8330 0.8340 0.8340 0.8340 0.8350
13.933359 0.8350 0.8350 0.8350 0.8350 0.8360
13.958000 0.8360 0.8360 0.8360 0.8360 0.8350
13.982359 0.8350 0.8350 0.8330 0.8330 0.8340
14.006000 0.8340 0.8340 0.8340 0.8340 0.8340
14.030359 0.8340 0.8340 0.8340 0.8340 0.8330
14.055000 0.8330 0.8330 0.8330 0.8310 0.8310
14.079359 0.8300 0.8300 0.8300 0.8290 0.8280
14.104000 0.8280 0.8280 0.8250 0.8250 0.8250
14.128359 0.8250 0.8240 0.8240 0.8240 0.8240
14.153000 0.8240 0.8230 0.8230 0.8230 0.8230
14.177359 0.8230 0.8230 0.8220 0.8220 0.8220
14.201000 0.8220 0.8200 0.8200 0.8200 0.8190
14.225359 0.8190 0.8180 0.8170 0.8170 0.8140
14.250000 0.8140 0.8140 0.8130 0.8130 0.8120
14.274359 0.8120 0.8120 0.8110 0.8110 0.8090
14.299000 0.8090 0.8090 0.8080 0.8090 0.8080
14.323359 0.8080 0.8070 0.8060 0.8060 0.8030
14.347000 0.8050 0.8050 0.8050 0.8050 0.8050
14.371359 0.8030 0.8030 0.8020 0.8010 0.8010
14.396000 0.8010 0.8010 0.8000 0.8000 0.8000
14.420359 0.8000 0.8000 0.8010 0.8000 0.8000
14.445000 0.8000 0.7990 0.8000 0.8000 0.8000
14.469359 0.8000 0.7990 0.7970 0.7960 0.7960
14.494000 0.7950 0.7940 0.7940 0.7940 0.7940
14.518359 0.7940 0.7920 0.7920 0.7920 0.7920
14.542000 0.7910 0.7910 0.7900 0.7900 0.7880
14.566359 0.7850 0.7840 0.7840 0.7840 0.7840
14.591000 0.7840 0.7830 0.7810 0.7810 0.7810
14.615359 0.7810 0.7800 0.7790 0.7790 0.7780
14.640000 0.7750 0.7740 0.7740 0.7740 0.7740
14.664359 0.7730 0.7730 0.7730 0.7720 0.7710
14.688000 0.7710 0.7690 0.7680 0.7670 0.7660
14.712359 0.7640 0.7640 0.7640 0.7630 0.7630
14.737000 0.7630 0.7620 0.7610 0.7610 0.7600
14.761359 0.7560 0.7550 0.7530 0.7530 0.7520
14.786000 0.7510 0.7510 0.7500 0.7510 0.7500
14.810359 0.7450 0.7440 0.7440 0.7420 0.7420
14.834000 0.7410 0.7400 0.7400 0.7360 0.7340
14.858359 0.7350 0.7340 0.7330 0.7330 0.7320
14.883000 0.7320 0.7300 0.7300 0.7300 0.7300
14.907359 0.7290 0.7280 0.7270 0.7250 0.7250
14.932000 0.7240 0.7240 0.7240 0.7230 0.7230
14.956359 0.7220 0.7220 0.7210 0.7190 0.7190
14.981000 0.7180 0.7170 0.7170 0.7140 0.7110
15.005359 0.7060 0.7040 0.7000 0.6970 0.6940
15.029000 0.6910 0.6900 0.6850 0.6820 0.6790
15.053359 0.6760 0.6730 0.6690 0.6690 0.6650
15.078000 0.6610 0.6600 0.6560 0.6540 0.6510
15.102359 0.6500 0.6450 0.6430 0.6400 0.6380
15.127000 0.6320 0.6320 0.6300 0.6280 0.6270
15.151359 0.6260 0.6230 0.6220 0.6210 0.6180
15.175000 0.6170 0.6150 0.6130 0.6120 0.6110
15.199359 0.6090 0.6070 0.6060 0.6040 0.6020
15.224000 0.6010 0.5990 0.5990 0.5980 0.5960
15.248359 0.5950 0.5940 0.5930 0.5930 0.5930
15.273000 0.5930 0.5930 0.5910 0.5910 0.5900
15.297359 0.5900 0.5900 0.5900 0.5900 0.5900
15.321000 0.5900 0.5900 0.5900 0.5900 0.5900
15.345359 0.5900 0.5900 0.5900 0.5900 0.5910
15.370000 0.5910 0.5910 0.5910 0.5910 0.5930
15.394359 0.5930 0.5950 0.5960 0.5960 0.5980
15.419000 0.5980 0.5990 0.5990 0.6000 0.6000
15.443359 0.5990 0.6000 0.6010 0.6010 0.6010
15.468000 0.6020 0.6040 0.6040 0.6050 0.6050
15.492359 0.6060 0.6060 0.6070 0.6090 0.6090
15.516000 0.6090 0.6100 0.6100 0.6110 0.6120
15.540359 0.6120 0.6130 0.6130 0.6130 0.6150
15.565000 0.6150 0.6150 0.6150 0.6150 0.6150
15.589359 0.6160 0.6170 0.6190 0.6210 0.6210
15.614000 0.6210 0.6210 0.6220 0.6220 0.6230
15.638359 0.6230 0.6230 0.6230 0.6240 0.6240
15.662000 0.6260 0.6260 0.6280 0.6280 0.6290
15.686359 0.6290 0.6290 0.6290 0.6290 0.6300
15.711000 0.6300 0.6300 0.6300 0.6320 0.6320
15.735359 0.6320 0.6320 0.6330 0.6330 0.6340
15.760000 0.6340 0.6340 0.6340 0.6340 0.6340
15.784359 0.6340 0.6350 0.6350 0.6350 0.6370
15.808000 0.6370 0.6380 0.6370 0.6370 0.6370
15.832359 0.6370 0.6370 0.6370 0.6370 0.6370
15.857000 0.6370 0.6370 0.6370 0.6370 0.6370
15.881359 0.6370 0.6370 0.6370 0.6370 0.6370
15.906000 0.6370 0.6370 0.6370 0.6370 0.6370
15.930359 0.6370 0.6370 0.6380 0.6380 0.6380
15.955000 0.6390 0.6390 0.6390 0.6390 0.6390
15.979359 0.6390
##END=
