##TITLE=Dichloromethane
##JCAMP-DX=4.24
##DATA TYPE=INFRARED SPECTRUM
##CLASS=IUPAC A
##ORIGIN=NIST, Analytical Chemistry Division, 301-975-3108
##OWNER=COPYRIGHT (C) 2001 by the U.S. Secretary of Commerce
##DATE=01/06/01
##$SPECTRA VERSION=1.10
##$UNCERTAINTY IN Y=2.1 % relative (B=1.12E-04,C=8.08E-10,D=1.49E-14)
##CAS NAME=Dichloromethane
##CAS REGISTRY NO=75-09-2
##MOLFORM=C H2 Cl2
##MP=-95.1 C
##BP=40 C
##$NIST SOURCE=QUANT-IR
##SPECTROMETER/DATA SYSTEM=IFS66V (Bruker)
##INSTRUMENT PARAMETERS=KBr Beam Splitter; MCT Detector; Multipass cell
##STATE=gas
##SAMPLE DESCRIPTION=Dichloromethane Primary Gas Standard
##PRESSURE=101.3 Pa
##TEMPERATURE=23 C
##SAMPLING PROCEDURE=1 L/min Flow
##RESOLUTION=0.9640
##DATA PROCESSING=Boxcar Apodization
##XUNITS=cm-1
##YUNITS=(micromol/mol)-1m-1 (base 10)
##XFACTOR=1.0
##YFACTOR=9.0949E-13
##DELTAX=0.4820
##FIRSTX=575.17
##LASTX=3974.606
##FIRSTY=8.73E-07
##MAXX=3974.12
##MINX=575.17
##MAXY=.0008551
##MINY=-1.67E-06
##NPOINTS=7052
##XYDATA=(X++(Y..Y))
575.17 960721 1306190-661635 512655-72323-476730
577.58-872918 977231-939703 1934955-836316 386473
580.47 47485 190281 557196-1839648-143490-507873
583.37-42869 910613-661092 362583 617066 718422
586.26-333983-75437 89816-389985 429497-688339
589.15 780761-317852-452532-1069782 113871 768754
592.04 527666 618608 258465-96180 259363 865113
594.94 867527-133567-18180-566196-701254 168483
597.83 191319-247555-54571 637507 425374-160392
600.72-128319 232610 733198 510686 910875-689097
603.62 548617 342831 84579-310613 390434-819503
606.51-144655 919521-59598-194836-23978-597671
609.40-185836-84966 107140-568967 568559-404643
612.29 3238-25919-70364-455294-699464 62967
615.19 307269-69914-147223 80902-18395-709
618.08 473469 211520-304622-277131 223093-120902
620.97 304415 53474 212010-484284-343024-407312
623.86 316506 113120-449780 713772-12678-607316
626.76 563418 284400 410601-331512-286185 80420
629.65-421416-180488-531122-516106 430976-347479
632.54 231255 182803 228206-83817 479980 699618
635.44 555520-128516 189297 276872 274978 115848
638.33 102726 250530 301117 392519-61261 491420
641.22 535511 260109-47316 443076 760285 107232
644.11 692536 115182 231163 224340 209956 540786
647.01 551389 426052 417535 510839 238396 470108
649.90 490066 739125 1123475 839627 696082 493696
652.79 1134005 1469420 1243727 1540297 1857861 1087381
655.68 1338960 1369085 1175177 1225371 1822306 1945237
658.58 2220458 2301754 2531404 2296343 2176646 2529370
661.47 2761401 3201342 2715696 2823464 3426043 3668069
664.36 3339000 3706564 3740889 4378919 4443889 4993380
667.26 6831509 6054271 5602290 5151618 5693998 6612307
670.15 6599890 6173099 6808619 7181403 7660506 8198929
673.04 7814648 7474505 8259216 8739580 9515726 9707925
675.93 9445374 9753366 10324050 10783526 10685286 10599064
678.83 10960242 11353783 11992555 12616153 12776195 13580559
681.72 13907702 13848299 14357254 14889535 15611682 16114372
684.61 16339842 17001889 17681229 17776582 17964284 18708879
687.50 19491224 19262780 20057030 20258448 21511244 21610543
690.40 21906099 23027250 23037710 22869743 24371406 25199775
693.29 25277797 25497689 26245564 27643648 26916361 27618695
696.18 28615046 29976333 30001194 29478121 31709346 33043864
699.08 31845909 32529156 34400389 35514070 34362527 36367365
701.97 37917348 39043686 37455987 35660993 37084062 43608955
704.86 41564946 39027241 39623982 38039037 39123590 45225900
707.75 41913146 38938350 34067174 37861205 41365130 42056828
710.65 31920916 33582140 32419221 39644649 34876299 29326478
713.54 32542237 36977940 34821823 33633113 34623280 37528886
716.43 44147772 44043709 46164943 48600712 52141590 55550801
719.32 65741428 69323681 68679312 67662970 72427695 78350805
722.22 78773361 82652152 82248654 84576686 85697222 83230894
725.11 83356253 81461260 77401459 79081515 85300431 81206000
728.00 74311963 73094504 71570898 74588748 77820436 80919812
730.90 82665200 86193737 89101367 95943393 102567794 110722823
733.79 120287021 129820903 137649199 149410900 161052920 175543134
736.68 192672586 212268487 229819015 246147784 267090220 292842787
739.57 318133047 347181123 376743790 406583455 440335336 475980531
742.47 511551283 549692661 586199075 622504116 659856141 699951654
745.36 737241022 773123204 807678273 834369328 860684765 888581980
748.25 915763307 931636766 940193334 935566499 925954127 913335077
751.14 915258009 903315846 869144447 825499335 785382590 754959046
754.04 721420267 737386101 731837518 748215327 709494084 685599159
756.93 686910408 653877956 768890074 780328871 762277459 597593177
759.82 540132856 588977457 643664570 703677430 741669721 773430294
762.72 792225680 805557366 806942585 804441935 792501520 775869176
765.61 752779161 724325101 692452915 654799984 613287829 573523059
768.50 530266677 486156499 442217593 398886038 356979156 318036442
771.39 281309199 246808325 214477507 185648297 159609482 136036211
774.29 114796234 96557169 80414390 66624038 54714715 44817754
777.18 35881790 29387423 23182170 19000302 14390173 11733754
780.07 8961973 7148600 5435741 4401015 3473502 3022750
782.96 2069416 1732243 1049852 1669064 668394 510505
785.86 383453 131687 529949 613163 190660 361707
788.75-3631 172375 427108 455104 54431 554757
791.64 377859-255352 422848-175640 118728 176274
794.54 125316 20659 75608 199088 256940 246051
797.43 16906 347123-33356 39712-218137-94346
800.32 34147 44013 292378 367278-8861 135787
803.21-87484 27858-311007 114488 111361 167433
806.11 32230-175715 121661 113559-72094 105517
809.00-234117 100935-77360 330647-240485-426647
811.89-211931 386412 171810 134266-13184 166390
814.78 148460 117735-77571-33923-267074 335866
817.68 192544 55223-307429 116253-210050 97314
820.57 73659 81963-27789 189484-152290 174705
823.46-324057-141976 129890 55507-225477 304744
826.36 44434-1964 251431 31994-232702-249257
829.25-34180-32777-71484-62883-63558 21201
832.14-92292 310381-167754-208978-313114-210642
835.03-325187-107996-182314-76024 114224 252614
837.93-135367 63196-254779-81582-185626 223620
840.82-140452 102539-182333-147366 8898-191316
843.71 137144 72176-140822-66607 40980 24071
846.60 148645-135326-272252 207562 13038 502003
849.50 219845 131877-54496-212963-87670 3833
852.39 238023-78622-68046 176169 195747 177974
855.28 64212 182772 293827 342692-140262 136313
858.18 5049 27469-255 118665 113879 415843
861.07 466098 396593 415462 591276 541696 497277
863.96 561431 268242 492144 597786 313499 422415
866.85 765512 980955 526378 649808 980355 606196
869.75 761896 755390 1258097 971978 847087 1273589
872.64 1333475 1368046 1223323 1450311 1528845 1310257
875.53 1587740 1742338 1702954 1502281 1759082 2183873
878.42 1815703 1437140 2158080 2329655 2326481 1989339
881.32 2396288 2389499 2102592 1940503 2471578 2628580
884.21 2208311 2490653 2929079 2732379 2458456 2024753
887.10 3506003 2936546 2389689 2175133 3134006 3301950
890.00 2337678 2101995 2589183 3193407 2475363 2597772
892.89 2996691 3736016 3330503 4146170 4717890 5599570
895.78 6464726 8117703 9080406 11410573 9752111 5503807
898.67 4433827 3698880 3671813 3402510 3435815 3054383
901.57 2992855 2930654 3129806 2951895 3069427 2645619
904.46 3570600 3053415 2663434 3054033 4121385 3394708
907.35 2754100 3229104 3992125 3564310 3152563 3339108
910.24 4087549 3875854 3141989 3151000 4121144 4307482
913.14 3277276 3570731 3904465 3999420 3318176 3457483
916.03 3812115 4244565 3178363 3523793 3885770 4094026
918.92 3165226 3561308 3519455 3952351 3116268 3116323
921.82 3301529 3490560 2632741 2955172 3086208 3075312
924.71 2630965 2631399 2643176 3126955 2244071 2649246
927.60 2416273 2712383 2186569 2124218 2213210 2317101
930.49 2022447 1770286 1827765 2220221 1766545 1694844
933.39 1711798 1984332 1610927 1508698 1243635 1632844
936.28 1321507 1424444 1345278 1450109 1383785 1277224
939.17 1297514 1119457 1273607 1038977 936830 928925
942.06 1143111 735384 933374 703153 927179 792592
944.96 663952 801670 505768 717915 624607 641303
947.85 585121 554285 524701 611176 548807 506584
950.74 231565 470440 365414 383665 346241 231749
953.64 366196 449023 390453 246505 41200 355088
956.53 266042 366712 202914 61207 226809 318615
959.42 281638 228913 240292 22249 191181 161135
962.31 239295 229064-6351 152439 212602 293289
965.21 170731 220361 338494 202213 89902 313751
968.10 338868 250420 190316 220737 300683 251109
970.99 257550 137793 374521 397313 232766 369100
973.88 334549 306835 258640 402815 419424 577261
976.78 342712 474394 289712 516302 447124 382699
979.67 398689 541661 326404 326836 182206 363221
982.56 416003 496289 282674 363083 515005 371244
985.46 336952 343902 319384 297517 432158 406321
988.35 327047 460509 246901 384446 357464 220588
991.24 243959 335707 489573 371002 319542 417539
994.13 354619 475187 383700 446537 370083 338611
997.03 216446 287690 246023 224499 554694 282350
999.92 314353 360567 496002 427619 445192 377101
1002.81 245831 320000 374226 153899 174313 348597
1005.70 389323 207608 58113 96425 165029 259522
1008.60 277932 287281 160728 275250 168768 165067
1011.49-91133 194041 175390 75093 27209 137090
1014.38 306203 190651 196268 351413 117458 254610
1017.28 319641 272268 26291 257610 226104 255291
1020.17 136553 126877 112037 269763 277474 274132
1023.06 230438 510325 288208 357239 401014 412829
1025.95 295680 222945 29259 557676 284033 346967
1028.85 231187 320072 429521 314637 275063 453096
1031.74 380086 312758 322547 629278 232008 423627
1034.63 224352 323718 524792 237370 432202 127475
1037.52 323512 172623 516578 712996 254628 472771
1040.42 316235 461588 133164 283641 477649 394890
1043.31 471267 477237 104691 414171 377909 531721
1046.20 232742 310677 348819 250342 154527 156845
1049.10 217058 433729-3872 25735 188451 206767
1051.99 417190 34954 245469-43039-86320-69623
1054.88-3917 98408-16814 41875-100463 27798
1057.77-292549-64966 6184-46049-65436 110801
1060.67 184677-141070-89951-236577-229106-249425
1063.56-120709 16073-22979-272037 20578-85322
1066.45-128294 60355 65528-79285-48874-36540
1069.34-122032-70695-197347 36854-28326 9693
1072.24-316061 10536-404637 11730-92455-60389
1075.13-110425 8296-80717 163471-175067-72595
1078.02-178908 64122-71512-108402-48883-274544
1080.92 16063-68660-77964-75026-136967 81703
1083.81-129293-177722-85319 49211 50818-110307
1086.70-175821 63998-85345 50779 27144 104512
1089.59-18091-114023-203345 29766-158290-1746
1092.49 106370 35772-168807-174460-287766 254104
1095.38 33674-66596-39002-36555-143157 25097
1098.27-16330 32315-117055-138884 68692-161521
1101.16-196881-51213-222175 89788-40372-138680
1104.06-40898-39993-34302-145527-193426 51103
1106.95-193071 206744-101087-7637 19767 69364
1109.84-100429-111470 103912-17084-259914-45851
1112.74 7606-128929-85610-164694-188445 34632
1115.63 98957-185196-216639-163921-83438-81683
1118.52-147968 37045-27217-84597-57894-26709
1121.41-37861-53189-254418 103013-52506-69526
1124.31-230147-44682-88992-1846-168463-92258
1127.20 28048 31773-168036-75612 59511 87710
1130.09 69995-97242-27372-29347 44934-126984
1132.98-103152-114330-69875-12903-146446-24049
1135.88-6290 52327-85021-100939-9678-13825
1138.77-49810 42177-110190-49427-21085 113977
1141.66 21720-25990-49647 24519-124680-46251
1144.56-19086 124316-2293-81656-73044 85912
1147.45-74882-96584-76980 13826-72238 141523
1150.34 74553 57636 983 48951-45896-27073
1153.23-99956-230747-63740 72930 5263 66602
1156.13-21066-176631 68741 178460 52502 138783
1159.02 73470 236965 103888 32864-27044 5178
1161.91-20297 14405-21859-66482-44446-38760
1164.80-18471 52714-225492-42222 21432 129339
1167.70 143268 150910 48957 76467-106762 52407
1170.59 32040 9010 65724-10218-81963 1675
1173.48-50252 44951-33263 17224 128431 11739
1176.38 100885-63986-31325 14430-27052 135914
1179.27-143163 79129-69107 114519-4618-31398
1182.16 44284 88005-35324-45733 15472 140860
1185.05 17185 80884-12752 113701-133567-98543
1187.95 109870-58491-57479 135453-30531 139049
1190.84 45784 84193-33936 29589 30379 87111
1193.73 139388-31643-14777 173292 49595-51516
1196.62-113499-5580 438-145353 140701-35589
1199.52-130634 26373-21511 6800-60777 103531
1202.41-74833-18679-64199 24186-100442-48559
1205.30 18289 147925-197921-27449-46990-14627
1208.20-94253 62018 37353 59184-55815 120065
1211.09 112862 95945-109855 32184 160194 13961
1213.98-30705 54930 269102 78976-121669 36951
1216.87 22650 129096 109673-103221-142914 9809
1219.77 72682 172544 55947 126845 8406-120630
1222.66 146666 2746-115552 41265 27526-20239
1225.55-4864 34306 46498-18913 32036 198823
1228.44 96377 81621-118977 178716 1960 86434
1231.34-45781 339864-9725 51302 171826 246663
1234.23 143708 205535 260508 14185 216398 389531
1237.12 365617 576802 647450 912766 916511 1170375
1240.02 1230974 1666732 1817728 2415354 2749677 3536779
1242.91 3898868 4919391 5734516 7139462 8346154 10106013
1245.80 11853657 14005298 16431571 19413656 22368876 26273275
1248.69 30474905 35257977 40514586 46517784 53154833 60613403
1251.59 68346397 77116385 86378037 96559909 107039852 118329805
1254.48 129832932 142162712 154192381 166791441 178691443 191321055
1257.37 201971426 211471160 219893681 227914345 234353607 238731106
1260.26 240576731 244456665 246611875 235924588 222955041 213335470
1263.16 200686137 187332052 169505647 156573958 147335270 150150280
1266.05 162494237 194567835 243105660 316750267 271476350 63080225
1268.94 36690179 54472094 79422369 112365516 147835419 177283231
1271.84 204889080 227847933 246657462 260910701 271476941 277335010
1274.73 279903650 278504185 274395051 267028199 257621813 245650466
1277.62 232813895 217926503 203147931 186738321 170957212 154539760
1280.51 139518471 124058498 110000104 96549120 84219866 72591531
1283.41 62592404 53044292 44856327 37478021 31461503 25719698
1286.30 21173553 17095375 13814900 10760846 8903966 6659908
1289.19 5439996 4002462 3314709 2472834 1825799 1287118
1292.08 1047566 745863 560072 523379 315835 92424
1294.98 173145 102236 172514 141736 179647-35829
1297.87 92475-31318-24365 12343 147853-64332
1300.76 37231-89737-76884-87996 62055-40851
1303.66-42805-65939-15434-154049-93289-83048
1306.55 20624-89596-3171-79189-17823-75013
1309.44 75486-148182 6174 3689-6310-70654
1312.33 91052-156332 77872-13932-30757-120949
1315.23 47924-46072 33749 25139 218-34800
1318.12 156410 57792 91874-113009 100288-165627
1321.01 18034 16994-139093-93506 89494-139878
1323.90 113796-45377 82282 56197 38839-148894
1326.80 143717 84948 83146-58310-10292-82449
1329.69-7110-45060-97286-27116 115664-27647
1332.58 4063-87032 39067-97285-56948-50343
1335.48-15893-62052 64591 125344-76073-7502
1338.37-145827 77945 890-72696-19296 18958
1341.26 48735-57609 25877 64684 246313 16725
1344.15 2221-19011 192708 54221-92892-61226
1347.05 174222-296028-81947-209448-2753 197540
1349.94-168622-278336-43565-31794-92303-233625
1352.83 441236 24646-180303-251386-60661 107614
1355.72-301930 380893-256737-85965-260977-199328
1358.62 96884-209749 180719 1823-6871-10511
1361.51 212507-312095-112927-189072-162145 12898
1364.40-122428-315615-34535-165265 176625-165314
1367.29 7335 33377-95528 190005 46816 9799
1370.19-171702 80282-120145-77844-107772-269423
1373.08 157709 23826-56703 25465-137412 118552
1375.97 117055-108979 181965 192366 5716-26004
1378.87 5244-46997-22146-49175 191582 148833
1381.76-67237 98601-24965 86072 97945-74696
1384.65 258425-38922 47714 93619 131322-334012
1387.54 86357 90143 231399-24622 58969-111065
1390.44 306207 187864 163633-87032 203828 33628
1393.33 36699 127764 37290 33284 100796-44952
1396.22 114455 277705 88532 92254 108023 133524
1399.11 107454 290662 288460 56462 175118 312843
1402.01 238399 172385 172571 282812 321053 363605
1404.90 258216 269467 490077 283613 463726 365474
1407.79 475102 268629 341056 359449 605076 444874
1410.69 300228 239572 535412 591002 543857 570057
1413.58 531702 711378 515147 616978 723603 772785
1416.47 517057 484473 808729 969872 366800 553167
1419.36 557051 1266922 766345 635126 727753 1257188
1422.26 827569 820608 786200 1354626 1087780 922592
1425.15 1283314 1386477 1299915 1117703 1172308 1317332
1428.04 1483264 1230392 1425044 1283126 1344717 1438522
1430.93 1488792 1148750 1422802 1200359 1277437 1229056
1433.83 1379810 1230150 1517277 1551259 1518677 1530903
1436.72 1717477 1843091 1823537 2128506 2242518 2254296
1439.61 2358112 2404495 2612839 2866101 2848878 2787926
1442.51 3041547 3267751 3230269 3300690 3659519 3643805
1445.40 3737058 3947385 4224128 4336839 4031630 4401079
1448.29 4630021 4864077 4876549 5134725 5579090 5610961
1451.18 5502438 5790447 6087499 6175534 6159153 6660393
1454.08 6843884 6991486 7012482 7326007 7339294 7332801
1456.97 7589290 8053960 8085270 8235041 8314988 8522613
1459.86 8321821 7787167 7857105 8032499 7971896 8660764
1462.75 8838465 9062258 8984781 8702823 8276389 6559248
1465.65 6231162 5974110 6644818 7068679 8175599 8840808
1468.54 8880373 8908386 8684186 7147289 6354015 6638077
1471.43 6892556 7654174 8116447 8321528 8713365 8786038
1474.33 8725816 8363739 7550663 7124472 6789379 6494966
1477.22 6137898 5722342 5326361 4917508 4392820 3397848
1480.11 2354690 1647101 911855 520860 312729 266390
1483.00 205125 329170 307604 360464 277859 292214
1485.90 235306 121071 87010 227117 362415 160628
1488.79 104118-74121 282123 173923 67329 238386
1491.68 102141 321510 92825 158629 19401 147470
1494.57 21531 192527-116953-9438 183381 141348
1497.47 103508 15344 80850 30160 135104 187285
1500.36 95135 215329-94200 17707-98935 70709
1503.25 76586-103293 8780-17957-214738 88545
1506.15-163125-192283-42932-136627-44002 48108
1509.04-54603-81498-5820-778 16417-75899
1511.93-85840-3632-75515-56908-39275-72901
1514.82-21540-61067-34958-103334-21044-38536
1517.72-54941 48414-19285 24631-94531-81441
1520.61-303994-185949-58824-199134-104523-22912
1523.50-12822 83792-51554-197391 11242-6722
1526.39-43899-45885 13714-34228-1537 37065
1529.29 118788 46482 17629-31481 12728 73440
1532.18 101314-114591-21374 5307 217109 226580
1535.07 230423 296484 313303 356434 337010 265782
1537.97 435332 65843 326857 363429 245306 464998
1540.86 524515 387469 172805 452715 473229 573392
1543.75 562509 614448 404541 449778 317460 297631
1546.64 405307 467260 815996 568773 120226 282298
1549.54 92495 361865 245277 814010 1022435 358870
1552.43 299363 342109 427304 241797 502173 362506
1555.32 578236 500215 595181 522122 569326 487478
1558.21 349980 551824 415304 292420 257698 463012
1561.11 414258 434799 244009 287401 294194 358678
1564.00 3854 176658 91662 120722 138291 160040
1566.89 114015 26540 11771-4769-37582-116922
1569.79 36001 66599 10001 25518 11281 39228
1572.68 30777-13568 40579-82467 23577 47329
1575.57-346057-191084-13339-23875-38674-75921
1578.46 55051 4012 20341-17814 4113 87376
1581.36-37103 92046-143402 107423 42199-61209
1584.25 22973 43622-88075-21159 24066 15402
1587.14 82333 109065 97198 27224 25538 75733
1590.03 19525 11187-117635 35260 68067-47092
1592.93 52302-15292 65113-6738 111322 73222
1595.82 10225-21646 91218 25167 81600-16414
1598.71 183074-2807 96702-32230-42545 85652
1601.61 16745 111728 76491-2485 157137-13526
1604.50 167817 8364 49760 90035-43070 153135
1607.39 69746 115268 51720 125678 56581 38981
1610.28-3753 98444 26780 110819-141137 62864
1613.18 23598 61780 6738 61855 69484 4377
1616.07-342746-115980-16912-29971 15806 86717
1618.96 149003-30639-26411 68905 28307 55731
1621.85 61108-96611-110391 12811 139807 69181
1624.75 57644-23563 42649 48679 3222-33646
1627.64 35842-14059 5380 95595-2170-72417
1630.53 61901-171833 28731 55107 62812-53856
1633.43 23999-25072-80278-174374-175321 26667
1636.32-59104-5359-44175 41350-30013 53224
1639.21 25524 72544-115837-30795-1291-91031
1642.10 49239 131601-119982-108745-94184-68347
1645.00-108261-129917-3736-2585-72394-71105
1647.89-86114-20842 76524 4896-54992-2034
1650.78-108194 43091-258572-257149-308030-141965
1653.67-79004-124121 18533-15659 43613-6697
1656.57-49576-95614-36915 9685-114495-71020
1659.46 55577 39462-36907-51555 45624-30157
1662.35-83898-66028-46103-18189-14049-73477
1665.25-122495-19510 23162-15302-1216-20789
1668.14 50338-248927-137254-53091 17712-78383
1671.03-108172-5914 89820 13328 64641-63375
1673.92-21572-155967-195272-73737-73199 18241
1676.82 7151-13217 44203-30107-58507 26283
1679.71-133174-50922 81381 2758 101511-126077
1682.60-27752-275072 11867-395883-461447 42102
1685.49-111067 29163-121376-53241 31518 64288
1688.39-3681-38729 16412-11694 36253 41989
1691.28-95314 17680-4018 72239-71479 105904
1694.17-107851 150767-211169-258942 18375-11050
1697.07-59462 135960-163383-23099-97895-190915
1699.96-147863-182103 49921-119189-4026 14436
1702.85-17255-50590-10222 36205 18825-47332
1705.74 4323-9552 60005-6930 183679 44189
1708.64-30726-36953-59138 16060-55209-472
1711.53 31005-31374 130638-49067-16450 58088
1714.42-89406-83754-23944-25885 96980-263875
1717.31-87571 30847 31056 56071-30793 52613
1720.21 117294-22096 58309 52219 46517 34805
1723.10 80555 129742 17276-51176 144929 91425
1725.99-8078 116283 45561 179525 69040 56738
1728.89 77422 39207 19848 19516 53991 115167
1731.78 39264-6650-185357-5878-18766-121292
1734.67 102491-11833 63765 35503-25077 51944
1737.56 14424-4989 63056 5748-1684 30577
1740.46 44960 94309 139275 53453 54163-63689
1743.35 78010-77219 72709-9928-6609-3603
1746.24 32850 56580 9041 43569-37128-51813
1749.13 7337 95885-6096-46093-57136-29863
1752.03 66026-64415 97891-49447-10383 115392
1754.92 3898-67037-16182-51841 72788 28275
1757.81 66918 31283 19199-32664 39518-70296
1760.71 77135-16519-110374-75345-39486 32223
1763.60-13845 69362 87491 26527 28414 88613
1766.49-67230 143310-35254-134600 41535 62310
1769.38 2699 49303-78222-62283 52646-63688
1772.28-102192 7975 119030-22094 54354 9279
1775.17-12864 111094 23745 81109 5049-7271
1778.06 93989 2499 36471 3332 57047-32197
1780.95 63595 46589 82607 124241 68976 138419
1783.85 83340 13080 111387 67258-10052-50643
1786.74-34203-104673-1523-59558 88010 79657
1789.63 116561-30896 11194 54135 90120-223804
1792.53-144350-50575-54834 7233 7862 25695
1795.42 32224 66470 74586 38785 63230 104157
1798.31 90081 87160 12654 125880 37059 61757
1801.20-70022 88721-35938 14727 110991 62004
1804.10 35867-46399-33794 33386 3620-55623
1806.99 29049 120551 148267 113955-57600 36214
1809.88-1742-19915-6191 37745 48684 44817
1812.77 39783-70084 57956 43140 90672 3617
1815.67 36164 17031-54624-38908-33666-27960
1818.56 10759-115330 54828-39624 81214 47691
1821.45 68931 48725 30988 20332-48851 3654
1824.35-108310-54497 82095 24992-8135-14630
1827.24 17774-23756 5780-76332 82596-118793
1830.13 24924-12583 27845 44358-80483 43115
1833.02-28562-53432 6941 47513 41271-299
1835.92 30694-7865 46184-23465-52950 38359
1838.81 11116 29179-467 22375 1262 53732
1841.70 48135 90798-20044-96795-239651-120309
1844.59 57589 16044-29150 81959 86548-18036
1847.49-33306 89444-47799-106826-59249 29785
1850.38 5830 941-46784-35347 25908-19448
1853.27 36162-82374-32550 70843 60218 14155
1856.17-97378 1959-109995 11700-79333-25429
1859.06-67279 13334 37942-62906-71741 3279
1861.95 37239 24691 14145 7670-2160 12435
1864.84-38075 113095-2011-59805-61347-408
1867.74 10697 3008-67062-6219-90530-77503
1870.63 9871-42557-19292 55574-30776-28283
1873.52-36369-14136-172941-86660-4695-35940
1876.41-69436-15396 2144 5800-8789-8378
1879.31-76639 16543-10654 3421-66932 19206
1882.20 3779 20963 8581-24382-9309-76140
1885.09-89386 52306 42810 13950 80899 58087
1887.99-60764 82336-11719-102443-44846-27485
1890.88-45910 42456-74952-4322 56202-92096
1893.77-61496-40963 2019 5818 32948 11005
1896.66 43387 16887 1764 92741 7456-13671
1899.56 27609-58066-82462 9344-20812-14324
1902.45-1961-18363-71551 30210 53003-56849
1905.34-15607 20 52675 22379-85801-88450
1908.23 51381-4623 30027-14549 21524 2417
1911.13-20040 28762-14881-51047 2557-82697
1914.02-44478 24780 35697-63858-142552-18798
1916.91 34326-12158-49522 24709-109608-6497
1919.81 61392-69794 101631-13963-25365 28453
1922.70 26865-66429 16837-10994 3122 20662
1925.59-76269-42681-42735-47124-15301-35192
1928.48-38400-9117 53360 26070-99267 8836
1931.38 68010-17258-21388-68794 4091-20261
1934.27-42997 2912-56491-50045 10934-79236
1937.16-110166-54288-149502-15244-31657-133510
1940.05-35363-9631-108170-48283-4308-43355
1942.95-29018-44738-104693-78588 3401-14305
1945.84 14348-11994-38147-70877 93390-80103
1948.73-119839-40377-6652-38622 55998 116531
1951.63 64624-120627 9093-21821-32242-38370
1954.52-87639-91643 12460 49787 55304-66271
1957.41-9655-37085 66863-7093-12996 23772
1960.30 64516 10689-1789 113119 64867 44683
1963.20 60020 121221 88292 63130 66302 94719
1966.09 83704 32850 66194 67906 94176 85058
1968.98 122561 115233 245212 248193 177145 153794
1971.87 244156 188189 251013 245026 419108 310050
1974.77 82955 69834 144451 181906 266903 185162
1977.66 278630 231157 237677 145236 174484 184202
1980.55 308843 179281 229056 167437 209527 280760
1983.45 227072 316949 113761 97721 275927 322091
1986.34 333651 349232 338384 298734 338024 325762
1989.23 376335 421919 338382 351195 278282 334608
1992.12 184258 265977 200328 120993 222297 119530
1995.02 144082-45068 127077 18956 103821 61283
1997.91 108931 31216-534 88348-3617 60622
2000.80-27715-2371 85327 108852 28122-32535
2003.69 50237 171672 16009 15281-28881 80602
2006.59 91485 97779 72797 101363 57520 53199
2009.48 59751 75677 21598 84544 56145 42067
2012.37 57685 109118 78581 132990 28233 44013
2015.27 168604-59010 34767 17385 19972 119534
2018.16-5000 16958 24704 46139 144927 1654
2021.05 83931-16942 97702-32980 21922-29028
2023.94 43419 114511 106829 68914 82688-1853
2026.84 117511 102979 58959 118847 145170 64886
2029.73 19438 39438 43930 13900 89935 47618
2032.62 268269 124464 25257 61987 51950 119700
2035.51 135371 73648 128595 87296 214515 199100
2038.41 154965 54324 134184 196434 238691 239625
2041.30 197088 343874 196959 287173 399870 344953
2044.19 464583 527237 396813 420100 618978 577115
2047.09 624050 691293 844782 674301 679557 805333
2049.98 856156 866003 877480 842564 829820 898421
2052.87 761788 759272 684400 766238 817317 599255
2055.76 599990 562695 661279 496990 653649 601702
2058.66 750892 830857 609296 347452 157143 252054
2061.55 344101 356710 587619 712851 683730 869971
2064.44 844404 874468 899412 833079 834890 793030
2067.33 780831 930869 726165 672975 613091 568751
2070.23 607039 465084 417410 452351 386581 310221
2073.12 229510 198287 281778 167012 173257 184051
2076.01 43602-31031 12684-31698 82622 62000
2078.91 33094-10108 42514-44274 61137-83576
2081.80-44475 25582 33793-1795-152122-4863
2084.69 12088 116731-160483-65628 1697 85029
2087.58-25044-11828 3095 28519 26668-96431
2090.48-73191-37883-92858-24906-105589 23236
2093.37-7007 98672-113202 106060-18813 5936
2096.26-49980-893 98523-52858-26538-116661
2099.15 90947-84748 136920-81570-14348 9373
2102.05-33783-57980-273166 80594-31307 13226
2104.94 39046 17826 21716 115990-137060 35292
2107.83 85829-24094-19991 116971-29741 174258
2110.73-23083-293162 154255-18471 55188 137910
2113.62 63010 4629 130861-152789 162053 17934
2116.51 101273 36024 82866 115978 141493 32948
2119.40-165619 167097 21064 58987 21906 63496
2122.30 129079 174646-134187 93018 78856 18964
2125.19 173448 225718 147580 95133 2373-18394
2128.08 262459 130753 179953 212509 291206 189224
2130.97 106184 185334 197589 178389 237449 275375
2133.87 247343 226275 215390 165062 278524 239161
2136.76 303780 176141 259437 218858 207826 250750
2139.65 404764 250740 237685 250673 211167 261790
2142.55 332501 315623 342225 160469 327843 247537
2145.44 169462 251379 225001 60927 267268 206648
2148.33 240523 200330 301475 349648 152244 467880
2151.22 411744 440701 451589 348797 507651 386697
2154.12 278251 412346 464206 386809 463151 464647
2157.01 428882 271038 200049 433510 386302 376189
2159.90 373413 386341 406458 82396 283459 393711
2162.79 381862 433017 367525 368320 310175 224191
2165.69 489003 456945 362313 463097 447122 399836
2168.58 134854 275299 556356 347270 505950 533746
2171.47 520171 436685 414568 637684 658539 590697
2174.37 518342 519130 558572 134868 498130 652365
2177.26 688351 611933 709533 666224 409397 620175
2180.15 799867 703824 640900 522096 502308 357296
2183.04 416337 414430 545318 511044 442129 475725
2185.94 323255 426147 598760 474434 423143 523782
2188.83 572442 206452 375969 258985 384040 250556
2191.72 153838 377758 205059 182664 315859 304171
2194.61 401485 296045 281627 51099 188211 266913
2197.51 275422 180550 169593 237716 121423 253314
2200.40 59442 157213 298166 130911 46811 1725
2203.29 108375 33308 66828 22315-4215-27230
2206.19-74965-35632-12585 21503 47718-30141
2209.08 63153-21791-5035 2180-41012 40318
2211.97-79359 22834-47714-12613 16120-148837
2214.86-67130 50211-11445 67063-87115 22250
2217.76-22009-80082-7157-4612-42979-5168
2220.65 8983 24626 48788-47582-45260-38264
2223.54 53580-196306 27894-44254 42412-49809
2226.43 73475-45925 15435 77916-32052-47863
2229.33 66653 66387 16787 75053 29097 101814
2232.22 56918 33979 13476 19190 150062-12222
2235.11 15221 176504-31356 83865 114729 24388
2238.01 37432-83279-6326 69380 56841-50723
2240.90 5175 56142 52088 95814-25460 90267
2243.79 173084 132452 75371 150576 90628 104753
2246.68 18322 66463 128417 156580 73084 125811
2249.58 152834 86899-57444 140940 220063 175370
2252.47 203786 87259 151495 62818 91653 80980
2255.36 183934 135325 117323 63858 154810 83112
2258.25 123880 178837 59783 178433 116609 125830
2261.15 212641 147120 163642 299442 146466 78076
2264.04 194136 322970 181512 229441 163052 318785
2266.93 216598 53691 183655 208089 289367 239261
2269.83 248598 250168 250157 313355 355331 266212
2272.72 364099 382014 438192 338365 305568 438870
2275.61 371744 536355 384801 486948 537197 642365
2278.50 454182 562167 619284 667246 498079 572187
2281.40 707576 733351 783432 689707 792790 865783
2284.29 909115 802461 898179 880750 982477 975186
2287.18 1120455 1036086 1044340 1058831 1098608 1158933
2290.07 1004246 1091095 1362241 1297319 1309088 1339822
2292.97 1452652 1454041 1395915 1348066 1575026 1493158
2295.86 1450681 1641629 1770398 1731228 1491985 1787669
2298.75 1896631 1732531 1542933 1968500 2124473 1872198
2301.65 1682587 2133084 2208693 2114573 1738930 2143789
2304.54 2343342 1876417 1545451 2005985 2412329 1867690
2307.43 1498314 1867361 2508986 1965371 1550223 1874086
2310.32 2372625 2288160 1569365 1996655 2239520 2913525
2313.22 1838926 2328983 2092440 3166191 2339084 2754913
2316.11 2749046 4378115 4009364 4302891 5020806 7175906
2319.00 5825170 3594724 2810603 3286276 2887688 2191092
2321.89 2011234 2934733 2716389 1691111 2131713 2928167
2324.79 2409144 1701067 2389500 3134849 2527101 1743112
2327.68 2667969 3380660 2427395 1724940 3036201 3409672
2330.57 2264763 1669145 3528145 3463149 1668077 1933137
2333.47 3907897 3135656 1301267 2240782 4220611 2454153
2336.36 1106460 2969279 3761064 1618789 1819383 3572609
2339.25 2840383 1079791 2601631 3255819 1635001 1525628
2342.14 2886090 2260039 1320063 2153359 2187546 1422852
2345.04 1721465 1975676 1216607 1263648 1781355 1089056
2347.93 1103084 1235242 1123368 1139725 1213423 1034564
2350.82 1453394 1239828 835125 1736467 1654189 540027
2353.71 1973995 1839641 483108 1988367 2021052 267888
2356.61 2260744 2057653 318449 2564149 1926006 110617
2359.50 2990041 1373615 535002 3050909 790096 1093703
2362.39 2873209 78693 1982749 2132547 44683 2611627
2365.29 817662 802493 2506640-103485 1872164 1060234
2368.18 500283 1933423 82781 1496235 836199 472534
2371.07 1324172 16416 1460135 96125 972432 480495
2373.96 578853 698738 300339 686230 242864 502459
2376.86 250749 445130 215801 392055 196506 290717
2379.75 196149 294451 219326 326433 139748 211086
2382.64 159442 287213 180291 292737 130117 226207
2385.53 283637 195067 228964 247378 305387 178807
2388.43 205845 315511 290284 378846 292224 253373
2391.32 266624 358801 334998 105361 356501 242158
2394.21 358442 143468 256680 308667 404977 347281
2397.11 220450 270296 407827 421084 211397 260537
2400.00 402952 498810 397546 185211 346154 534288
2402.89 461215 236082 317898 253262 608036 187636
2405.78 374098 530611 428622 380134 270615 281293
2408.68 433035 344852 266299 266925 394812 372763
2411.57 319917 281736 413171 386909 368901 470197
2414.46 913685 1675917 1798693 683844 484684 451963
2417.35 371325 422118 383795 314317 457488 372011
2420.25 354858 201582 344600 451209 463016 237178
2423.14 323665 307469 365435 248560 490474 484242
2426.03 334779 339881 368017 345247 312134 313014
2428.93 529769 345588 214640 384845 368248 225628
2431.82 280386 407568 381701 346432 382396 472198
2434.71 116002 317916 324670 221798 138316 286520
2437.60 349507 305387 305607 274397 128530 302237
2440.50 201618 184080 260924 284543 190654 326087
2443.39 146038 149020 112759 301195 227587 131569
2446.28 226920 4788 242098 295980 133152 164672
2449.17 214687 178414 259069 217923 33789 31249
2452.07 80874 15721 138357 58888 130365-63088
2454.96-29190 192664 133912 63751 40352 65384
2457.85-12014 46492 43663 87430 21188 17722
2460.75 46115-46262 39011-84037 123115-127770
2463.64-31623-44858 20088 111515 74731 83224
2466.53 7063-54096-67008 4221-3936 95732
2469.42 42637-82451-23001-17337-6345 34923
2472.32 47118-31062-39010-16506-48749 11684
2475.21 87224-55695-3534-43048-3885-13493
2478.10 37599 71558 112316 8013 3112 37279
2480.99 92397 83054-24397-13070-21508-54036
2483.89 16604 23309 37874-28221 107326 103919
2486.78-38498 5721 381 16089 133005 17943
2489.67 21759 86148 118083 24274 124582-27430
2492.57 156167 57067 97094 32520 184530 46720
2495.46 53599-71435-74618 39562-25464-26068
2498.35 73038-44700-53226 82096-28167-85310
2501.24 106352-193628 34738-64690 120882-81777
2504.14-207429-129853-152797-89349-194865-191743
2507.03-41822 23605-125546-3092-182033-131216
2509.92-123753-252039-152334 10989-63567-178537
2512.81-159974-330327 57082-149473-280622-311563
2515.71-103603-153183-296892-277578-138362-193968
2518.60-240559-195140-305199-107967-266927-247156
2521.49-239763-270911-276105-331673-435957-317535
2524.39-339159-359214-359570-409351-253888-271165
2527.28-313651-257332-138641-278752-185258-199026
2530.17 55887 1052-37685 4368-148319-47322
2533.06-57735-85937-415767-342412-451167-412189
2535.96-222647 72011 484612 421597 387286 184491
2538.85 32449-143420-182582-61824-366611-249254
2541.74-177042-146247-319307-364814-209235-278811
2544.63-335780-329483-275825-285853-361338-344773
2547.53-388252-516100-512684-444558-517619-571280
2550.42-387420-513077-623288-623552-500026-545802
2553.31-508217-499458-475835-529334-455077-419019
2556.21-412673-511484-506815-438760-359357-364595
2559.10-396742-425113-374108-256565-362471-372858
2561.99-435806-320014-292833-98483-271975-285815
2564.88-271472-325924-104222-160368-276658-84585
2567.78-231823-152517-174984-169545-226890-141595
2570.67-189421-206490-22237-113944-235818-148544
2573.56 53693-53030-107773-199843-78156-111840
2576.45 17144-2599-33714-102503-52281-54230
2579.35 10308-118455-65315-26738-102743 78147
2582.24-42584-15682-68137-60772-13240 32318
2585.13-20902-8054-11412-7449 61581-20460
2588.03 2594-171139-70778-31364 94497-42836
2590.92 6115-49169 102865-6585-54105-146578
2593.81-48276-112035-44361 68639-87676 201275
2596.70 48694 65133 68334 18095 44764-73817
2599.60 16549-40878 104789-52569 80915 41642
2602.49 2935 25268 15653-18545-90689-108923
2605.38 18638-41198 75577-143647 66629-10516
2608.27-74759-147453-5547-21389-56210 64623
2611.17 3530-1950-71848-111816-76422-81976
2614.06-83047 18339 66022 47698-50786-8324
2616.95 64463-29635-80641-91556 32822-15248
2619.85-25040 64297-72776 98451 191196 32108
2622.74 171763 58873 120562 27096 118196 37790
2625.63 42771-57744-93702-102021-105439-249342
2628.52-79413-95153 21015-118333 14918-39453
2631.42 68825-45164-620-35341 135366-63077
2634.31-123479 56326 99411-34818 15843-38625
2637.20-31882 22904 2781 4132 30996 51399
2640.09-175335 89225 8912 28052 52173-6073
2642.99-66751-151536 37767-126451 88371 97403
2645.88 62684-5845-40313-89674-43779-22455
2648.77-875-116563-1955 55666 65335 95807
2651.67 101963 49653 38809 1666-61774-69910
2654.56-92498-98949 37015-97832-26600-2920
2657.45 73572 27325 45798 104593-62458-111387
2660.34 43005-53635 112512-131878-30642 16110
2663.24 238308-51734 113937 30348 30970-142343
2666.13-44419-63435 89185 10040-18560-51804
2669.02 42079 33511 23786 17982 275884 194444
2671.91 74735 35902 173141 100317 115256 141238
2674.81 103468 212744 252261 137361 428998 356853
2677.70 360562 363150 529180 387930 441701 493885
2680.59 546438 656209 842268 762494 931154 928287
2683.49 1001173 1232692 1320196 1547301 1554468 1715773
2686.38 1969263 1968321 2018835 2349053 2313751 2365321
2689.27 2488974 2631522 2711323 2803227 2956292 2780455
2692.16 2666077 2785026 2914724 2756006 2621117 2432645
2695.06 2373704 2318880 2148722 1947867 2018335 2273021
2697.95 2089079 2243821 2234706 2186463 1934573 983026
2700.84 745601 856148 1410552 1713594 2263677 2490879
2703.73 2829252 3055463 3109266 3249224 3298776 3432015
2706.63 3419666 3300003 3207877 3141913 2831025 2791012
2709.52 2394251 2245683 2083740 1833933 1787141 1373702
2712.41 1221754 1008072 836061 701790 804977 459836
2715.31 459891 402852 401715 245177 239120 75344
2718.20 110523 58850 155844 93575 78591 6507
2721.09 50543-5702-41525-94052 69133-7686
2723.98 57521 5167 166310 84832-30749 16638
2726.88-7649-38968 80471 41575 13343 52411
2729.77-76250 85192 97343-71700 132262 15533
2732.66-42223-68123-3860-22128 124726 29220
2735.55 43803-132082 116622-81066-10850-53416
2738.45 205600-212306 66362-10079 67665 172798
2741.34-49058-95366 16119-120952 28031 48878
2744.23 144848 20681 29603-147633-77108 72013
2747.13 149295-19378 25871 103291 117849-30899
2750.02 71336-15403-18960-63277-108326 121349
2752.91 65677 90784 164597-41658 9301 16821
2755.80 135279 36985 156193 47076-56485 79123
2758.70 2218-109950 91474 28119-75382 580
2761.59 71598-72425 6628 45181-72188-74975
2764.48-153480-54294-34431 2425-91105-28043
2767.37-98204-70491 206882-20616 51987-41920
2770.27 58691 64212 267884-16862 102774 15668
2773.16 30781-154208 107647-65906-102315-99851
2776.05-17339 74188 184738 79634-41986-79696
2778.95 92067-26397 9925 85124 124529-52420
2781.84 75123-31965-88758 60861 28253-22114
2784.73 15679 75956 57439-11469 128815 56472
2787.62-22892-30678 87701 73309-43733-76800
2790.52 180810-76747 2130 47760 72125-48251
2793.41-133273-7232 111071 17394 34934-113135
2796.30 20848 14331 48779-41010 142335 84255
2799.19 274248-109717 6122-20956 84321-116563
2802.09 185237-125601 140747-109737 145853 162513
2804.98 46569 199840 133209 62148 53886 59173
2807.87 258594 116726 304067 98578 195359 87798
2810.77 207806-91459 259530 77360 171282 231630
2813.66 445967 292048 283128 245066 375335 247229
2816.55 210453 54624 315504 131775 197387 257128
2819.44 349481 403693 479786 258246 256797 609995
2822.34 426860 309792 383221 486678 595565 456773
2825.23 415185 385031 659958 488293 511114 509572
2828.12 683775 466920 290520 680552 598741 479355
2831.01 811503 551795 607849 642716 662898 596102
2833.91 974563 900629 744132 630620 817057 1022903
2836.80 783070 724576 776598 1223929 771395 818456
2839.69 894392 1239136 762550 996741 998719 1411602
2842.59 1087990 917598 1297906 1427554 1434901 1078112
2845.48 1189692 1147518 1369969 1116516 1151852 982873
2848.37 1105677 1162429 1061615 692065 1054717 1009272
2851.26 685799 646713 691613 509309 681881 675990
2854.16 718615 588141 972109 763640 1128656 980729
2857.05 1111633 1268960 1246266 1049342 1123789 1217063
2859.94 1240152 1135362 1311023 1522557 1177706 1244683
2862.83 1267673 1771393 1508432 1057479 1288674 1443284
2865.73 1107319 1006991 1414922 1415717 1064990 1010405
2868.62 1089365 1063173 949229 775434 1131493 794350
2871.51 779728 614879 987266 804242 750426 668695
2874.41 915465 585997 665623 780026 834972 661077
2877.30 801732 795467 328634 564860 695258 512716
2880.19 369806 590119 638052 490947 436249 538570
2883.08 555811 518255 539407 403584 414655 245735
2885.98 573378 505705 248364 333692 431561 178127
2888.87 351735 212361 202183 327731 335317 128135
2891.76 142144 259443 428334 193658 266202 45339
2894.65 313868 77108 209869 145178 206129 104163
2897.55 108871 84663 138581 83290 89562 135237
2900.44 148648 104279 111409 100731 256450 207645
2903.33 206400-21827 114513 62943 264747 26744
2906.23 53138-90019 229658-47719 268891-74100
2909.12 15815 16578 158126 72017 77029-11715
2912.01 311401 127262 43267-47772 356929 90053
2914.90 279946 144291-53200 79678 224290 182277
2917.80 326361 154960 116780 72307 240147-36064
2920.69 222258 168330 291565 47600 218570 141829
2923.58 163439 136453 323091 114536 561142-4203
2926.47 244143 102007 355583 293665 574880 155824
2929.37 229486 262663 567287 364470 336592 226650
2932.26 591635 297376 454869 408798 367791 494918
2935.15 748044 454838 753985 434995 779046 563666
2938.05 753671 692143 1040041 747210 911681 642975
2940.94 1172968 1053702 1030338 972197 1388141 1209756
2943.83 1088310 1025167 1487406 1666661 1406453 1453432
2946.72 1553855 2124917 1925486 1599947 2162278 2458144
2949.62 2053119 1999655 2234693 2753510 2710038 2339089
2952.51 2883204 3071842 3187120 3070340 3441352 3800460
2955.40 3515766 3234465 3880800 5250191 3650916 3669756
2958.29 4224729 6122601 4818056 4095055 4417553 6846212
2961.19 5961133 4600244 5309482 7158978 8579799 5037074
2964.08 5801363 7816969 9940904 6032149 6578730 7207689
2966.97 12504873 6772959 7421715 7781350 13813046 7710101
2969.87 8692694 8027485 15031946 9754805 9548887 8402626
2972.76 15732517 12417576 10006727 8716864 16603060 14736905
2975.65 11886768 8515833 17112572 16553470 15952128 8973705
2978.54 18032619 16506321 19041536 11864831 18163316 18475726
2981.44 19335105 18970404 17333462 22840236 16708755 24803251
2984.33 18732325 26042028 17054342 26772516 23994779 27534018
2987.22 20103901 25038184 28398542 29004136 21441188 24296769
2990.11 27753967 29369926 22414449 23299304 24101605 27003011
2993.01 21242326 21075398 19097917 19053061 17516360 13694080
2995.90 13128460 12630155 12435622 11736673 12949528 12968783
2998.79 15848381 16644508 19358141 19937951 21100081 23324890
3001.69 24309251 25596363 26190020 27149462 29044767 27449504
3004.58 27068708 28270160 29236576 28729286 25020204 27383480
3007.47 28820983 27187203 24232601 24796230 26202226 25237792
3010.36 21744487 21707424 23778849 24055511 19631891 19445087
3013.26 21552271 22519791 17029145 16698389 20473881 20754132
3016.15 14299473 15552492 20574413 17703279 12652639 15645052
3019.04 18734566 14244638 11929790 16418665 16398613 11595237
3021.93 12623245 16924122 13387769 9763726 12555948 15417366
3024.83 11052412 9915044 13437049 12811121 9232194 9878642
3027.72 12482047 10846509 7775438 10708962 11016399 8039159
3030.61 7680913 9833152 8633069 6879738 7973143 8213818
3033.51 6364607 6573538 7267273 6549033 5774491 6347953
3036.40 5741397 5755450 5318102 5091867 5161586 4933263
3039.29 4116012 4754599 4121692 3662487 3701422 4060027
3042.18 3290634 3310151 3417884 3118924 2520003 2877908
3045.08 2708107 2385544 2306097 2479272 2214734 2342106
3047.97 2028523 1982445 1797216 1949432 1515808 1742579
3050.86 1583119 1437582 1301519 1504004 1245734 1062277
3053.75 935136 1213072 754651 909633 943491 880369
3056.65 802053 733053 577008 750985 694768 743320
3059.54 448841 686685 545070 626813 301375 658095
3062.43 111068 500530 59373 373260 210089 404973
3065.33 337875 105299 163989 381090 393711 300041
3068.22 40356 212169 260621 217224 104345 179376
3071.11 234686 265229-51756 374096-17902 436443
3074.00-23144 219527 62870 342749 184260 164194
3076.90 207971 144043-28628 212723-21120 9627
3079.79-167626 152555-100615 154585 58115 65025
3082.68-111733 69113-174054 44474 43884 209059
3085.57-80326 29842-30358-91691-157711 147250
3088.47-10402 34741-98501 74254-103920-18282
3091.36-23634-4442-143435 138097-137613 28669
3094.25 95984 4881-40122 82751-233469-310975
3097.15-5350 164152 115899 40519-204218-16800
3100.04-56490 213007-131147 10094-94589-113126
3102.93 45376-163854-58818 132487-49485-74931
3105.82-786-124971 65436-21227 9359-108064
3108.72-130922-71509-122080-107954-53729 101961
3111.61-207544-49822-143243 255665-111160 92211
3114.50-8346-82201-39649 109282-15484-124097
3117.39 44126 27287-78900 45451 17799 21333
3120.29 29308-59941-49130-84304-8354 98678
3123.18-67701 104669 91729 74218-79893 9434
3126.07 150270 72386 85264-99347-145818-3696
3128.97-205546-130654-103847 662 19734 88506
3131.86 81654-20097-131361 55891-7998-9008
3134.75-79278-148694-199658-84488 160747 211284
3137.64 62696 71491-48310-92353 70201 109238
3140.54 34096 712 28069-44461-64773-13128
3143.43 140302 95694-158264 37926-95741 216478
3146.32-42880 171131-115103 116169 218744 59706
3149.21-401416 77216 68065-28818-12985 104120
3152.11-60290-14646 37258-101147 60988-34267
3155.00 88190 81823-49007-69637 16081 22218
3157.89-27292 38705-59976 130625 1140-10514
3160.79-81975 141202-145335-133808-33230-3762
3163.68 21549-97304 79932 126497 118752 50146
3166.57-111616-66476-53124 112674-4450 17379
3169.46-137398 19812-5491 35271 15948 15568
3172.36 120339 104367-103921 203526-128864-120634
3175.25-191081 32032-77326-158915 23915 109476
3178.14 16947 7662-91853-18703 57644 99234
3181.03-7174-140917 4884-78661-89675-8824
3183.93-1436-102068-210794 150224 134145-43935
3186.82-71994 137282-66046 170281-50403 138408
3189.71-115374 51076 737 33801-151892-147409
3192.61-214300 83894-68883 133072 115583-127713
3195.50-78215 100435-78443-14309 22233 74219
3198.39-27605-25093 87038 91023 203211-92700
3201.28-98136 33520-163151-97837-192946 191000
3204.18 60062-152741 77799-100593 34276-29002
3207.07 45872-117247-56984 62297 24367 147620
3209.96 30714-3206 12781-141248-35976-5914
3212.85 177424-60457-63391 388270-29006 199711
3215.75 94674-213355 120731 120102-11393 22534
3218.64 7054 140891-191235 109076-120011-70192
3221.53-106619 61454-37623 63150-167531-71722
3224.43-41398 156437-90503 140516-200867 30824
3227.32-192483 74031 84916-112988-45073-156891
3230.21-128713-62907 165647-117751 63087 261822
3233.10-6494 84060 63452 136666-15247 24714
3236.00 32546-92606 171467 41324-145342-284401
3238.89-35868-133676 19609 76695-171086 212161
3241.78-20828 33476 17798-87468-45658-161265
3244.67 37064 60302 64280 101549 11621 118650
3247.57 119582 125132-163955-53528-194 92137
3250.46 56245 4037-117454 118868 47156 208720
3253.35 2302-95269-335829 140369-25688-34410
3256.25 3168 89141 252024-7051-97869 90527
3259.14 91375 162375 131588 186575 17465-109156
3262.03 247305 111485-24616 128699 206185 126518
3264.92 83187 26765-9746 82711-12565 78408
3267.82-23100 127616 35275 158578 16453 8177
3270.71 142863 85768 63280-63820 276217 330220
3273.60-176371 63428 60426 88326 104418 125521
3276.49 4691-129226-46218 144084 42201 122484
3279.39-122177 133416-203688 106581 118849 207229
3282.28 157039 67603 209535 93867-16187-188526
3285.17-58773 176894 68457-116175-21328 252617
3288.07 176151 120265-12815 102501-86849 16527
3290.96 52771 62084 3670 86318 14225-77043
3293.85 50540 101411 36198-275480-18054 214721
3296.74-197986 298780 139761 157966 72527 59144
3299.64-108301-56296 14756 120749-47352 25700
3302.53 83964 52312-21868 88873-54028-156827
3305.42 61867 69001-7364 197330-53788 43608
3308.31-25096 83833 35383 173922-27458 12467
3311.21 64384 20595 6403 131914-319909 40063
3314.10-340375-39060 255945 422 175617 9792
3316.99-14857 103740-14823 58430 267612-187434
3319.89 11613 57632-98574 259576 42802 114380
3322.78-37061 107000-47873-59713-63292-75529
3325.67-109758-3718 78115 169416 47869-148670
3328.56-127695 48615-22753 177332-133735-12163
3331.46 40276 52919-95961 70985-40737-31651
3334.35 212564 6404-52098-116834 8498-121472
3337.24-65204-176495-104847 30816 10507 16108
3340.13 99838-29809 43915 36977-235434 230667
3343.03-91407-54400-166701 277752 45856-42504
3345.92-90256 18096 149766 9301-140818 49461
3348.81 2491-106702-93724-14761-62962 113359
3351.71-128665-257727 29968 115449-162230 16997
3354.60-246341 212535-167178 263806-138937 120701
3357.49 77184-119360-137120-94387-27914-24108
3360.38-42151-10494-333377 142719-117003-35273
3363.28 119971-117221-52362-167246-265292-146517
3366.17 96745 68845-361695-8166-8297 56928
3369.06-109263 167598 228344-302485-235675 196946
3371.95-137558-12981-66482 120187 69680-76583
3374.85 37911 42102 29853-25009-72737-151823
3377.74-118504 186307-25179-86582 131571-93550
3380.63 21792-87407 133471 28350 30142 107544
3383.53 91608 81628-100289-116989 796 275052
3386.42-218470 114273-76262 210865 37624-72639
3389.31 13740-112284-62772 107376-39200-117861
3392.20-79991 71993 180744-30269 62102 110333
3395.10-12619 225751 11355 166167 159717 193709
3397.99 148757-129455-29196-234814 5840-101567
3400.88 16670-125313 54505 109893-128636 124774
3403.77 192586-151198-32267-153390-136169-121891
3406.67 40882 44996-20066-39124 50522 149603
3409.56 34981-359950-219827 26068-160489-168432
3412.45 62129 107221 12739 32463 93911 97598
3415.35 195301 146071-246771 102847 26186-3576
3418.24 144324 139411-173593-47340 210411-62125
3421.13-41409 137954-92341-133849-71439 27666
3424.02 429-5719 21528-97418-99513-56635
3426.92-136632 180312 186146-5709-6938-70237
3429.81 68910-12226 94802 7854-176569-103565
3432.70 84504 120462 141844 14627 9975 33716
3435.59-94225-148004 116647 151361 29230-145597
3438.49-60326-56503 100824 160343-61815 159403
3441.38 19261-12867 181127 241049-83420-88761
3444.27 84681 55124 114474-33840 161188 90460
3447.17 66028-226876-9637 118186-24093 3513
3450.06 79982-31996 113473 1934-4325 147334
3452.95 82115 56973-146770-112722 1694-40285
3455.84-32956-59000 148291-173533-70748 73727
3458.74-73581-136433 33377 45613 157511 134061
3461.63 30539 32679 12176-40721-66630 32555
3464.52 16602-77227 122673-131786 268837-153987
3467.41 80228 216869 38080 58378 51868-107246
3470.31 66334 112718-83238-199584-6471-227606
3473.20 206154 43344-122795-304419-83119 38820
3476.09-36514-4383 106385 50091-49231-231122
3478.99-236043-34938-65122-106478-131397 99999
3481.88 113189 394716-258225-15122 88055-185411
3484.77-169995 21462-72867-131228-17891-242644
3487.66 62698-290778 89503-8010-265609-196946
3490.56-13211-120213 11940-288876-57841 53224
3493.45-71029-179810-201334 74801-260708-60081
3496.34 22943-89740 118484-68714-189917 11735
3499.23-147699-10564-123575-228202 46679 94907
3502.13 19897 102941 101887-233735 160847-160113
3505.02-169921-111842 126043-50057-78935 12764
3507.91-65743-211735-36186-47109 24112-108817
3510.81 60038 73686-48566-40152 71690-54387
3513.70-156258 205611-83959-181550-91265-185778
3516.59-221346-190450-296937 14499 36683 5534
3519.48-72496-322633 76619 213346 10925 26105
3522.38-78221 148970-163951 47467 53046-219806
3525.27-165474-105001 34991-43718 43688-145391
3528.16-165886-129175 97898-44698-132892-29784
3531.05 200297 58307 49694 51676 32492 70206
3533.95 27049-57127-15800-53710 37584 105737
3536.84 70188 81737-73011-32342-77616 146494
3539.73-17071 154065-242193 218385 77839-12991
3542.63 278527 169021-232559 217771 95206-22180
3545.52 34267 177827 391-19298 285278 153414
3548.41 119595 283059 45084 168740 44211 343483
3551.30 187825 99443-23802 88129-24108 271569
3554.20 180031 221421 211224 139484 138057-93910
3557.09 18426 105314 193401 252082 133447 85913
3559.98 416048 81006 115010 135982-60114 146931
3562.87-66258 118777 183233 229395 224546 76626
3565.77 104384 234842 194427-126737 35172 71781
3568.66 28204-6924-83266 261533 128756 14925
3571.55 125891 23669 18191 15632-105988-212048
3574.45 105146 62145 168506 97345 160135-80339
3577.34 103717 18651-63892 160730-175158-35097
3580.23-143199 98390 89673-41270-63803 120640
3583.12 138314 18346 83544 43240 88869 15351
3586.02 129128-63271-85740-125793-121474-46021
3588.91 19278 100111 229185 119330 107514 98764
3591.80 37235-18492 134760-180586 40005 52177
3594.69-185369 40937 103278 131146 44878 394070
3597.59-54698 68115-36608 143179 108688-43296
3600.48-76116 78243-9518 130629 159935-202411
3603.37 50388 64400 82878-142407 62389-127637
3606.27 59157 41825 138291-81260-182713-111808
3609.16-42971-3783-49423 38201 32756 78117
3612.05-276052 12545-36953 37154 61354 173686
3614.94-96674 104631 10294-46038-135250 76299
3617.84-173667 37191 12642 19292 179028-94767
3620.73-87831 20653-31867 119520-79746 166562
3623.62 14319-94566 39178 143229-82481-95942
3626.51-76097 171480 82013-18974-126201-123632
3629.41-231004 113156-33698 55634 14778-30172
3632.30-29692 130009-245646-173526-85930-47111
3635.19 92682 37566 50917 42245-112162-12674
3638.09 8650-136618-27287-121125-31298 71405
3640.98-95968 29824 85364-29606 20900 90283
3643.87 88112 78705 142716-30565 87412-87990
3646.76-63879-72759-211362-43357-71500-3208
3649.66 114396-79140-99719-98180-175443-60304
3652.55 305185 245647 79498-50420 70183-2065
3655.44 15973-154190-149135-78933-74881 49890
3658.33 100730-18268-130937-176775-65381 38444
3661.23 195855 29531 94954 193355 143489-27410
3664.12 30898-37013 52248 10046 38532-49227
3667.01 250087-19637-103747-77373 137160 67979
3669.91-138677-145667 218272-116085 73429-20998
3672.80 73463 124712 151499-129076 156182-131818
3675.69-25387 40715 68610 267436-16998 241476
3678.58 226460 122985 13695 147751 95419 113718
3681.48 223867 255677 286262 148777 414892 165966
3684.37 184178 82383 206063 336829 373792-22696
3687.26 278932 121381 97544 176772 413985 353105
3690.15 104850 229904 175072 258264 540886 342703
3693.05 326408 398220 448397 189671 264485 471480
3695.94 430119 285801 403919 322809 443377 350808
3698.83 577538 391524 465754 411524 386922 465731
3701.73 396782 495682 415963 520034 466901 574337
3704.62 436350 441630 394659 435094 470309 499066
3707.51 406698 545981 277723 432692 504043 372591
3710.40 309518 331233 297779 214205 454585 403608
3713.30 321942 588944 497583 572101 825488 501685
3716.19 622811 804246 662131 776458 636427 713405
3719.08 815775 749608 672363 672972 674891 621254
3721.97 591278 707693 655313 573127 748088 622036
3724.87 562479 664106 455025 556382 520833 519640
3727.76 434319 635219 688791 516985 476299 619320
3730.65 648710 237822 286547 558090 623025 601820
3733.55 632872 417529 356183 449580 721373 381371
3736.44 571835 611175 641685 654471 577567 900685
3739.33 691694 578118 862986 745192 732568 734851
3742.22 671381 537902 811132 458105 470313 691865
3745.12 889249 849357 821173 938715 868467 780108
3748.01 1116937 773620 604920 845932 784726 743414
3750.90 822736 820471 587842 910501 817347 900942
3753.79 886827 784588 879521 919465 881773 611451
3756.69 709084 889312 798948 712736 647285 692776
3759.58 768429 726394 710389 765684 826171 688840
3762.47 638623 893987 727891 853981 491222 765948
3765.37 625077 650268 862855 770692 808630 739365
3768.26 841061 792589 824027 824037 707123 614066
3771.15 712915 618268 484467 520168 415400 355018
3774.04 277394 174003 165170 206078 219591 235939
3776.94 331396 155442 402499 502495 277970 474568
3779.83 392314 400236 403628 26746 404597 257528
3782.72 396457 201201 305771 254859 447076 377686
3785.61 317480 352104 358724 597292 311439 90817
3788.51 153069 151101 232223 294636 430700 146325
3791.40 151811 217500-26466 67786 130692 137442
3794.29 196820 123665 172378 369433 225904-31074
3797.19 121559 18491 276312 35454 114258 2109
3800.08 68467 144097-323917 191031 207800 142218
3802.97-148003-59036-11336 63424 305043 100516
3805.86 265670-76320-101441 56029-78309 106928
3808.76-9921 208778 6576 44784 66921 141882
3811.65 105338 31323 10970 124861 85591-94831
3814.54 211966 32411-257065-101290 35294 153880
3817.43-97104-168307 36920 52963 227295-199002
3820.33-219356 129504-168637 25262-41943 102315
3823.22 19429-97390-138779-29386 119899-101029
3826.11 33548-108023-117368-58676 16642 170198
3829.01 187365-20489 176205-135751-58267-128934
3831.90 95411-231635-29517 75886-33071-117989
3834.79-15584 44129 20826-102130 20759-388800
3837.68 16672-19125 102833-133371 71842-60983
3840.58-56572-19142 131467 134848 168353 9594
3843.47 158683 374455-32128-172818 38831-76294
3846.36 51349 79478 43557 52022-36185 97805
3849.25 135702-68467 62841 6717-177714-244922
3852.15-6687 56096-2047-396020-409644 129071
3855.04-4952 116384 78412-31924 21765-126957
3857.93 260806-52258-93313 51632 102418 26521
3860.83-120988-118034-108778 91640 38132 116413
3863.72 47995 50391-61703-108720 70093 115041
3866.61 97173-16888-59959 282702-35129-25991
3869.50-156605-74208-78568-101580 225581-29331
3872.40-32425-36747 73619-83740 35721 29779
3875.29 116319 122281-1793-291294 44673-80290
3878.18-138946-1963 67164 33855-20312 26707
3881.07-13410 8199 4409 142946-109824 121976
3883.97 49189 43327-250472 19570 114185-20509
3886.86 193736 84741 94835 170239 69221-18731
3889.75 52323 75169-46316 151099 95993 130948
3892.65-135537-2350 90482 131142 41225 177890
3895.54-155400 5526 38699-7388 268444 63928
3898.43-126517 50097 81852 122381 125635 167318
3901.32 88308-63496 23296 48758-34789-155599
3904.22 43286-86139 66481-28754-39945 132343
3907.11 285811 109729 355927 24099-73332 105518
3910.00-94093 137084 102858 143257 165034-11508
3912.89 319568 195094 174941 296880-34392 44133
3915.79 229004 371825-49949 419878 156880 211510
3918.68 380648 181907-10006 218192 322981 49007
3921.57 414474 224686 193399 209026 356334 255597
3924.47 125227 212344 296710 297652 285586 258780
3927.36 274815 408952 238716 232067 378178 326041
3930.25 409175 304104 547536 348241 306684 561814
3933.14 749493 543314 372460 694956 611718 367250
3936.04 157836 736056 613661 637187 438059 480011
3938.93 537482 764487 383746 710087 578476 790483
3941.82 580537 540896 525191 573977 612500 302705
3944.71 379871 587939 350284 509337 258008 453637
3947.61 268570 347379 394357 356046 263814 536287
3950.50 568394 534589 542530 604022 523598 557516
3953.39 812132 641968 780892 649023 424966 484490
3956.29 733056 744326 804363 609435 763077 559219
3959.18 656162 714270 805692 509958 521402 544038
3962.07 590067 647008 376498 562531 533314 457264
3964.96 398255 428772 218338 370176 295359 191089
3967.86 493536 472775 291500 408176 151858 444788
3970.75 324658 194350 356644 91705 379139 194625
3973.64 314330 406263
##END=
