##TITLE=METHANE, DICHLORO-
##JCAMP-DX=4.24
##DATA TYPE=INFRARED SPECTRUM
##CLASS=COBLENTZ
##ORIGIN=STANDARD OIL OF OHIO
##OWNER=COBLENTZ SOCIETY
Collection (C) 2018 copyright by the U.S. Secretary of Commerce
on behalf of the United States of America. All rights reserved.
##DATE=Not specified, most likely prior to 1970
##NAMES=dichloromethane
##CAS REGISTRY NO=75-09-2
##MOLFORM=C H2 Cl2
##SOURCE REFERENCE=COBLENTZ NO. 4354
##$NIST SOURCE=COBLENTZ
##$NIST IMAGE=cob4354
##SPECTROMETER/DATA SYSTEM=PERKIN-ELMER 521 (GRATING)
##STATE=LIQUID (NEAT)
##PATH LENGTH=0.003 CM
##SAMPLING PROCEDURE=TRANSMISSION
##RESOLUTION=4
##DATA PROCESSING=DIGITIZED BY NIST FROM HARD COPY (FROM TWO SEGMENTS)
##XUNITS=1/CM
##YUNITS=TRANSMITTANCE
##XFACTOR=1.000000
##YFACTOR=1
##DELTAX=1.351358
##FIRSTX=601.351
##LASTX=3893.26
##FIRSTY=0.511
##MAXX=3893.26
##MINX=601.351
##MAXY=0.928
##MINY=0.0760017
##NPOINTS=2437
##XYDATA=(X++(Y..Y))
601.351000 0.5110 0.5110 0.5180 0.5250 0.5280
608.107789 0.5350 0.5420 0.5490 0.5520 0.5550
614.864578 0.5620 0.5690 0.5720 0.5790 0.5840
621.621367 0.5910 0.5999 0.6030 0.6080 0.6100
628.378155 0.6110 0.6160 0.6200 0.6270 0.6300
635.134944 0.6330 0.6380 0.6420 0.6450 0.6470
641.891733 0.6490 0.6520 0.6520 0.6540 0.6540
648.648522 0.6540 0.6540 0.6540 0.6520 0.6520
655.405311 0.6500 0.6490 0.6470 0.6440 0.6400
662.162100 0.6370 0.6370 0.6330 0.6270 0.6131
668.918888 0.6100 0.6080 0.6060 0.6010 0.5890
675.675677 0.5840 0.5691 0.5352 0.5251 0.5032
682.432466 0.4910 0.4720 0.4520 0.4271 0.4081
689.189255 0.3881 0.3542 0.3232 0.2813 0.2542
695.946044 0.2080 0.1910 0.1371 0.1131 0.1130
702.702833 0.1150 0.1160 0.1160 0.1180 0.1180
709.459622 0.1200 0.1200 0.1200 0.1200 0.1180
716.216410 0.1160 0.1110 0.1060 0.0941 0.0930
722.973199 0.0890 0.0880 0.0860 0.0860 0.0840
729.729988 0.0830 0.0830 0.0810 0.0810 0.0810
736.486777 0.0810 0.0810 0.0830 0.0830 0.0840
743.243566 0.0860 0.0880 0.0890 0.0910 0.0930
750.000355 0.0980 0.1000 0.1030 0.1050 0.1100
756.757143 0.1150 0.1220 0.1369 0.1569 0.1828
763.513932 0.2050 0.2400 0.2769 0.3179 0.3439
770.270721 0.3788 0.4227 0.4498 0.4768 0.5048
777.027510 0.5370 0.5440 0.5500 0.5719 0.6009
783.784299 0.6159 0.6329 0.6568 0.6739 0.6839
790.541088 0.7010 0.7220 0.7380 0.7540 0.7660
797.297877 0.7769 0.7889 0.8009 0.8099 0.8159
804.054665 0.8230 0.8270 0.8300 0.8370 0.8420
810.811454 0.8520 0.8590 0.8660 0.8690 0.8720
817.568243 0.8760 0.8810 0.8840 0.8860 0.8880
824.325032 0.8880 0.8880 0.8890 0.8940 0.8980
831.081821 0.9000 0.9010 0.9010 0.9010 0.9030
837.838610 0.9030 0.9030 0.9030 0.9030 0.9030
844.595398 0.9030 0.9030 0.9030 0.9030 0.9030
851.352187 0.9030 0.9030 0.9030 0.9030 0.9030
858.108976 0.9010 0.9010 0.9010 0.9000 0.9000
864.865765 0.9000 0.8980 0.8960 0.8940 0.8910
871.622554 0.8890 0.8860 0.8860 0.8830 0.8790
878.379343 0.8740 0.8720 0.8670 0.8660 0.8501
885.136132 0.8380 0.8250 0.8080 0.7910 0.7691
891.892920 0.7321 0.7012 0.6553 0.6183 0.5724
898.649709 0.5720 0.5890 0.6160 0.7058 0.7229
905.406498 0.7608 0.8097 0.8229 0.8349 0.8419
912.163287 0.8520 0.8570 0.8660 0.8720 0.8790
918.920076 0.8830 0.8860 0.8880 0.8910 0.8910
925.676865 0.8930 0.8930 0.8940 0.8940 0.9000
932.433653 0.9000 0.9010 0.9030 0.9060 0.9060
939.190442 0.9060 0.9080 0.9080 0.9080 0.9060
945.947231 0.9060 0.9080 0.9080 0.9100 0.9100
952.704020 0.9100 0.9100 0.9100 0.9110 0.9110
959.460809 0.9110 0.9110 0.9110 0.9110 0.9110
966.217598 0.9110 0.9110 0.9100 0.9100 0.9100
972.974387 0.9100 0.9100 0.9100 0.9100 0.9100
979.731175 0.9100 0.9100 0.9110 0.9110 0.9100
986.487964 0.9100 0.9100 0.9100 0.9100 0.9110
993.244753 0.9110 0.9130 0.9130 0.9150 0.9150
1000.001542 0.9150 0.9160 0.9160 0.9160 0.9150
1006.758331 0.9150 0.9130 0.9130 0.9130 0.9110
1013.515120 0.9110 0.9110 0.9110 0.9110 0.9110
1020.271908 0.9110 0.9110 0.9130 0.9130 0.9130
1027.028697 0.9110 0.9110 0.9110 0.9110 0.9110
1033.785486 0.9110 0.9110 0.9110 0.9110 0.9110
1040.542275 0.9110 0.9110 0.9100 0.9100 0.9100
1047.299064 0.9080 0.9080 0.9080 0.9080 0.9080
1054.055853 0.9080 0.9060 0.9060 0.9060 0.9060
1060.812642 0.9060 0.9060 0.9060 0.9050 0.9050
1067.569430 0.9050 0.9030 0.9030 0.9030 0.9030
1074.326219 0.9030 0.9030 0.9030 0.9030 0.9030
1081.083008 0.9030 0.9030 0.9030 0.9010 0.9010
1087.839797 0.9010 0.9000 0.9000 0.9000 0.9000
1094.596586 0.9000 0.9000 0.9000 0.9000 0.9000
1101.353375 0.9000 0.9000 0.9000 0.8980 0.8980
1108.110163 0.8960 0.8940 0.8930 0.8910 0.8910
1114.866952 0.8890 0.8890 0.8890 0.8890 0.8880
1121.623741 0.8880 0.8880 0.8860 0.8860 0.8840
1128.380530 0.8830 0.8830 0.8810 0.8810 0.8810
1135.137319 0.8810 0.8810 0.8810 0.8810 0.8810
1141.894108 0.8810 0.8810 0.8810 0.8810 0.8790
1148.650897 0.8720 0.8670 0.8620 0.8610 0.8610
1155.407685 0.8590 0.8590 0.8610 0.8610 0.8620
1162.164474 0.8620 0.8640 0.8660 0.8660 0.8670
1168.921263 0.8670 0.8670 0.8690 0.8690 0.8670
1175.678052 0.8670 0.8670 0.8670 0.8670 0.8670
1182.434841 0.8670 0.8690 0.8690 0.8690 0.8690
1189.191630 0.8670 0.8670 0.8660 0.8640 0.8620
1195.948418 0.8610 0.8590 0.8570 0.8540 0.8520
1202.705207 0.8520 0.8520 0.8520 0.8520 0.8500
1209.461996 0.8450 0.8420 0.8400 0.8380 0.8370
1216.218785 0.8330 0.8300 0.8250 0.8160 0.8110
1222.975574 0.8060 0.8050 0.8010 0.8010 0.7930
1229.732363 0.7880 0.7830 0.7790 0.7740 0.7591
1236.489152 0.7420 0.7320 0.7230 0.7100 0.6890
1243.245940 0.6710 0.6610 0.6371 0.6151 0.5276
1250.002729 0.4809 0.4330 0.3880 0.3420 0.3101
1256.759518 0.2571 0.2112 0.1543 0.0844 0.0770
1263.516307 0.0760 0.0770 0.0840 0.0890 0.0980
1270.273096 0.1050 0.1349 0.1519 0.1759 0.2634
1277.029885 0.3830 0.4051 0.4690 0.5369 0.5570
1283.786673 0.5769 0.6099 0.6349 0.6589 0.6888
1290.543462 0.7050 0.7280 0.7350 0.7570 0.7620
1297.300251 0.7760 0.7810 0.7890 0.7960 0.8010
1304.057040 0.8060 0.8160 0.8220 0.8300 0.8330
1310.813829 0.8370 0.8400 0.8440 0.8500 0.8520
1317.570618 0.8540 0.8550 0.8570 0.8610 0.8610
1324.327407 0.8620 0.8640 0.8660 0.8670 0.8710
1331.084195 0.8720 0.8720 0.8740 0.8760 0.8760
1337.840984 0.8760 0.8770 0.8770 0.8770 0.8770
1344.597773 0.8770 0.8770 0.8770 0.8770 0.8770
1351.354562 0.8770 0.8770 0.8760 0.8760 0.8760
1358.111351 0.8760 0.8760 0.8740 0.8740 0.8740
1364.868140 0.8740 0.8720 0.8710 0.8710 0.8710
1371.624928 0.8690 0.8690 0.8690 0.8660 0.8660
1378.381717 0.8660 0.8640 0.8620 0.8550 0.8520
1385.138506 0.8520 0.8500 0.8500 0.8450 0.8420
1391.895295 0.8400 0.8370 0.8350 0.8330 0.8330
1398.652084 0.8270 0.8200 0.8130 0.8060 0.8030
1405.408873 0.7940 0.7890 0.7810 0.7740 0.7641
1412.165662 0.7500 0.7400 0.7230 0.7130 0.6830
1418.922450 0.6660 0.6251 0.5961 0.5880 0.5880
1425.679239 0.6051 0.6320 0.6520 0.6790 0.6890
1432.436028 0.7010 0.7050 0.7100 0.7130 0.7160
1439.192817 0.7180 0.7200 0.7220 0.7280 0.7350
1445.949606 0.7420 0.7490 0.7590 0.7640 0.7759
1452.706395 0.7860 0.7910 0.8030 0.8150 0.8250
1459.463183 0.8280 0.8320 0.8370 0.8420 0.8450
1466.219972 0.8470 0.8470 0.8500 0.8540 0.8570
1472.976761 0.8610 0.8690 0.8720 0.8760 0.8770
1479.733550 0.8790 0.8790 0.8810 0.8830 0.8830
1486.490339 0.8840 0.8860 0.8860 0.8880 0.8890
1493.247128 0.8910 0.8930 0.8930 0.8930 0.8940
1500.003917 0.8940 0.8960 0.8960 0.8980 0.8980
1506.760705 0.8980 0.8980 0.8980 0.8980 0.8980
1513.517494 0.8980 0.8980 0.8960 0.8960 0.8960
1520.274283 0.8960 0.8960 0.8940 0.8940 0.8940
1527.031072 0.8930 0.8930 0.8910 0.8910 0.8890
1533.787861 0.8880 0.8880 0.8880 0.8880 0.8860
1540.544650 0.8860 0.8860 0.8840 0.8830 0.8810
1547.301438 0.8810 0.8790 0.8790 0.8790 0.8790
1554.058227 0.8810 0.8880 0.8910 0.8940 0.8980
1560.815016 0.9000 0.9000 0.9010 0.9010 0.9010
1567.571805 0.9010 0.9010 0.9030 0.9030 0.9010
1574.328594 0.9010 0.9010 0.9000 0.9000 0.8980
1581.085383 0.9000 0.9000 0.9000 0.9000 0.9000
1587.842172 0.9000 0.9000 0.9000 0.9000 0.9000
1594.598960 0.9000 0.9000 0.9010 0.9010 0.9030
1601.355749 0.9030 0.9030 0.9030 0.9030 0.9050
1608.112538 0.9050 0.9080 0.9100 0.9100 0.9100
1614.869327 0.9110 0.9110 0.9130 0.9130 0.9130
1621.626116 0.9130 0.9130 0.9130 0.9130 0.9130
1628.382905 0.9130 0.9130 0.9130 0.9130 0.9150
1635.139693 0.9160 0.9160 0.9160 0.9160 0.9160
1641.896482 0.9160 0.9160 0.9160 0.9160 0.9160
1648.653271 0.9180 0.9180 0.9160 0.9160 0.9160
1655.410060 0.9160 0.9160 0.9160 0.9160 0.9160
1662.166849 0.9160 0.9180 0.9180 0.9180 0.9180
1668.923638 0.9180 0.9180 0.9160 0.9160 0.9160
1675.680427 0.9150 0.9150 0.9150 0.9150 0.9150
1682.437215 0.9150 0.9150 0.9150 0.9150 0.9150
1689.194004 0.9150 0.9150 0.9150 0.9150 0.9150
1695.950793 0.9150 0.9160 0.9150 0.9150 0.9150
1702.707582 0.9130 0.9130 0.9110 0.9110 0.9110
1709.464371 0.9110 0.9110 0.9110 0.9110 0.9130
1716.221160 0.9130 0.9130 0.9130 0.9130 0.9130
1722.977949 0.9130 0.9130 0.9130 0.9130 0.9130
1729.734737 0.9150 0.9130 0.9130 0.9130 0.9130
1736.491526 0.9130 0.9150 0.9150 0.9150 0.9150
1743.248315 0.9150 0.9130 0.9130 0.9130 0.9130
1750.005104 0.9130 0.9130 0.9130 0.9130 0.9130
1756.761893 0.9130 0.9130 0.9150 0.9150 0.9150
1763.518682 0.9150 0.9150 0.9160 0.9180 0.9180
1770.275470 0.9160 0.9150 0.9150 0.9150 0.9150
1777.032259 0.9150 0.9160 0.9160 0.9160 0.9180
1783.789048 0.9180 0.9180 0.9180 0.9180 0.9200
1790.545837 0.9200 0.9200 0.9200 0.9200 0.9180
1797.302626 0.9180 0.9180 0.9180 0.9200 0.9200
1804.059415 0.9200 0.9200 0.9200 0.9200 0.9200
1810.816204 0.9200 0.9200 0.9200 0.9200 0.9200
1817.572992 0.9200 0.9200 0.9200 0.9200 0.9200
1824.329781 0.9200 0.9200 0.9220 0.9220 0.9220
1831.086570 0.9220 0.9220 0.9220 0.9220 0.9220
1837.843359 0.9220 0.9220 0.9220 0.9220 0.9220
1844.600148 0.9220 0.9220 0.9220 0.9220 0.9220
1851.356937 0.9220 0.9220 0.9220 0.9200 0.9200
1858.113725 0.9200 0.9200 0.9200 0.9200 0.9200
1864.870514 0.9200 0.9200 0.9200 0.9200 0.9200
1871.627303 0.9200 0.9200 0.9200 0.9200 0.9180
1878.384092 0.9180 0.9180 0.9180 0.9180 0.9180
1885.140881 0.9180 0.9180 0.9180 0.9180 0.9200
1891.897670 0.9200 0.9180 0.9180 0.9180 0.9180
1898.654459 0.9180 0.9180 0.9180 0.9180 0.9200
1905.411247 0.9200 0.9200 0.9200 0.9200 0.9200
1912.168036 0.9200 0.9200 0.9200 0.9200 0.9180
1918.924825 0.9180 0.9180 0.9180 0.9180 0.9180
1925.681614 0.9180 0.9200 0.9200 0.9200 0.9200
1932.438403 0.9200 0.9200 0.9200 0.9200 0.9200
1939.195192 0.9200 0.9200 0.9200 0.9200 0.9200
1945.951980 0.9200 0.9200 0.9200 0.9200 0.9200
1952.708769 0.9200 0.9220 0.9220 0.9230 0.9230
1959.465558 0.9230 0.9220 0.9220 0.9220 0.9200
1966.222347 0.9200 0.9200 0.9200 0.9220 0.9220
1972.979136 0.9220 0.9220 0.9220 0.9230 0.9230
1979.735925 0.9230 0.9230 0.9230 0.9230 0.9230
1986.492714 0.9250 0.9250 0.9250 0.9250 0.9250
1993.249502 0.9250 0.9270 0.9270 0.9270 0.9270
2000.006291 0.9270 0.9260 0.9250 0.9250 0.9250
2006.763080 0.9250 0.9250 0.9250 0.9250 0.9250
2013.519869 0.9250 0.9250 0.9250 0.9250 0.9250
2020.276658 0.9250 0.9250 0.9250 0.9250 0.9250
2027.033447 0.9250 0.9240 0.9230 0.9230 0.9230
2033.790235 0.9225 0.9220 0.9220 0.9220 0.9210
2040.547024 0.9200 0.9200 0.9200 0.9200 0.9200
2047.303813 0.9200 0.9200 0.9200 0.9200 0.9200
2054.060602 0.9200 0.9200 0.9200 0.9209 0.9219
2060.817391 0.9225 0.9230 0.9230 0.9230 0.9239
2067.574180 0.9249 0.9241 0.9231 0.9230 0.9230
2074.330969 0.9225 0.9220 0.9220 0.9220 0.9211
2081.087757 0.9201 0.9200 0.9200 0.9200 0.9200
2087.844546 0.9200 0.9200 0.9200 0.9200 0.9200
2094.601335 0.9200 0.9200 0.9200 0.9200 0.9200
2101.358124 0.9191 0.9181 0.9180 0.9180 0.9189
2108.114913 0.9199 0.9200 0.9200 0.9191 0.9181
2114.871702 0.9180 0.9180 0.9180 0.9180 0.9180
2121.628490 0.9180 0.9180 0.9180 0.9180 0.9180
2128.385279 0.9180 0.9180 0.9180 0.9180 0.9180
2135.142068 0.9180 0.9180 0.9180 0.9189 0.9199
2141.898857 0.9209 0.9219 0.9220 0.9220 0.9220
2148.655646 0.9220 0.9220 0.9220 0.9220 0.9220
2155.412435 0.9224 0.9229 0.9238 0.9248 0.9250
2162.169224 0.9250 0.9258 0.9268 0.9270 0.9270
2168.926012 0.9270 0.9270 0.9270 0.9270 0.9270
2175.682801 0.9270 0.9270 0.9270 0.9270 0.9270
2182.439590 0.9270 0.9270 0.9270 0.9270 0.9270
2189.196379 0.9270 0.9270 0.9270 0.9270 0.9270
2195.953168 0.9270 0.9270 0.9270 0.9270 0.9270
2202.709957 0.9270 0.9270 0.9270 0.9270 0.9270
2209.466745 0.9270 0.9270 0.9270 0.9270 0.9262
2216.223534 0.9252 0.9250 0.9250 0.9242 0.9232
2222.980323 0.9230 0.9230 0.9230 0.9230 0.9226
2229.737112 0.9221 0.9212 0.9202 0.9200 0.9200
2236.493901 0.9200 0.9200 0.9193 0.9183 0.9180
2243.250690 0.9180 0.9180 0.9180 0.9180 0.9180
2250.007479 0.9180 0.9180 0.9180 0.9180 0.9180
2256.764267 0.9180 0.9169 0.9154 0.9135 0.9116
2263.521056 0.9099 0.9084 0.9062 0.9037 0.9023
2270.277845 0.9013 0.8973 0.8923 0.8899 0.8884
2277.034634 0.8848 0.8803 0.8779 0.8764 0.8735
2283.791423 0.8700 0.8665 0.8630 0.8592 0.8552
2290.548212 0.8509 0.8464 0.8433 0.8408 0.8313
2297.305000 0.8187 0.8143 0.8133 0.8137 0.8147
2304.061789 0.8213 0.8302 0.8389 0.8473 0.8582
2310.818578 0.8702 0.8815 0.8924 0.9034 0.9144
2317.575367 0.9187 0.9197 0.9207 0.9217 0.9220
2324.332156 0.9220 0.9220 0.9220 0.9223 0.9228
2331.088945 0.9230 0.9230 0.9230 0.9230 0.9230
2337.845734 0.9230 0.9230 0.9230 0.9230 0.9230
2344.602522 0.9230 0.9230 0.9230 0.9230 0.9230
2351.359311 0.9230 0.9230 0.9230 0.9227 0.9222
2358.116100 0.9220 0.9220 0.9220 0.9220 0.9220
2364.872889 0.9220 0.9220 0.9220 0.9220 0.9220
2371.629678 0.9214 0.9204 0.9200 0.9200 0.9200
2378.386467 0.9200 0.9194 0.9184 0.9174 0.9164
2385.143255 0.9145 0.9120 0.9107 0.9102 0.9094
2391.900044 0.9084 0.9080 0.9080 0.9074 0.9064
2398.656833 0.9057 0.9052 0.9044 0.9034 0.9024
2405.413622 0.9014 0.9010 0.9010 0.9016 0.9026
2412.170411 0.9036 0.9046 0.9065 0.9089 0.9109
2418.927200 0.9124 0.9139 0.9154 0.9166 0.9176
2425.683989 0.9186 0.9196 0.9200 0.9200 0.9206
2432.440777 0.9216 0.9223 0.9228 0.9230 0.9230
2439.197566 0.9230 0.9230 0.9236 0.9246 0.9250
2445.954355 0.9250 0.9250 0.9250 0.9250 0.9250
2452.711144 0.9250 0.9250 0.9250 0.9250 0.9250
2459.467933 0.9250 0.9245 0.9235 0.9235 0.9245
2466.224722 0.9250 0.9250 0.9250 0.9250 0.9255
2472.981510 0.9265 0.9270 0.9270 0.9273 0.9278
2479.738299 0.9277 0.9272 0.9270 0.9270 0.9270
2486.495088 0.9270 0.9270 0.9270 0.9270 0.9270
2493.251877 0.9270 0.9270 0.9270 0.9270 0.9272
2500.008666 0.9277 0.9280 0.9280 0.9280 0.9280
2506.765455 0.9280 0.9280 0.9280 0.9280 0.9280
2513.522244 0.9280 0.9280 0.9280 0.9280 0.9280
2520.279032 0.9280 0.9280 0.9280 0.9280 0.9280
2527.035821 0.9280 0.9280 0.9280 0.9280 0.9280
2533.792610 0.9280 0.9280 0.9280 0.9280 0.9280
2540.549399 0.9280 0.9280 0.9280 0.9280 0.9280
2547.306188 0.9280 0.9280 0.9280 0.9280 0.9280
2554.062977 0.9280 0.9280 0.9280 0.9278 0.9273
2560.819765 0.9270 0.9270 0.9270 0.9270 0.9270
2567.576554 0.9270 0.9270 0.9270 0.9270 0.9270
2574.333343 0.9270 0.9270 0.9270 0.9270 0.9270
2581.090132 0.9270 0.9270 0.9270 0.9270 0.9270
2587.846921 0.9270 0.9270 0.9270 0.9270 0.9270
2594.603710 0.9270 0.9272 0.9277 0.9278 0.9273
2601.360499 0.9270 0.9270 0.9270 0.9270 0.9270
2608.117287 0.9270 0.9270 0.9270 0.9270 0.9270
2614.874076 0.9270 0.9270 0.9270 0.9270 0.9270
2621.630865 0.9270 0.9270 0.9270 0.9270 0.9270
2628.387654 0.9270 0.9270 0.9270 0.9270 0.9270
2635.144443 0.9270 0.9270 0.9270 0.9270 0.9270
2641.901232 0.9270 0.9270 0.9270 0.9270 0.9267
2648.658020 0.9256 0.9250 0.9250 0.9250 0.9250
2655.414809 0.9247 0.9237 0.9230 0.9230 0.9230
2662.171598 0.9230 0.9228 0.9223 0.9205 0.9161
2668.928387 0.9122 0.9097 0.9069 0.9034 0.8994
2675.685176 0.8944 0.8905 0.8890 0.8882 0.8887
2682.441965 0.8901 0.8936 0.8971 0.9006 0.9042
2689.198754 0.9082 0.9118 0.9142 0.9166 0.9186
2695.955542 0.9204 0.9219 0.9230 0.9230 0.9230
2702.712331 0.9230 0.9230 0.9230 0.9230 0.9230
2709.469120 0.9229 0.9224 0.9220 0.9220 0.9217
2716.225909 0.9207 0.9200 0.9200 0.9203 0.9213
2722.982698 0.9220 0.9220 0.9220 0.9220 0.9220
2729.739487 0.9220 0.9220 0.9220 0.9220 0.9220
2736.496275 0.9220 0.9220 0.9220 0.9220 0.9220
2743.253064 0.9220 0.9218 0.9208 0.9200 0.9200
2750.009853 0.9200 0.9200 0.9198 0.9188 0.9178
2756.766642 0.9168 0.9159 0.9154 0.9148 0.9138
2763.523431 0.9130 0.9130 0.9130 0.9130 0.9130
2770.280220 0.9130 0.9130 0.9130 0.9130 0.9130
2777.037009 0.9130 0.9130 0.9130 0.9130 0.9128
2783.793797 0.9118 0.9110 0.9110 0.9110 0.9110
2790.550586 0.9112 0.9122 0.9130 0.9130 0.9128
2797.307375 0.9118 0.9107 0.9092 0.9078 0.9068
2804.064164 0.9055 0.9030 0.9010 0.9010 0.9010
2810.820953 0.9010 0.9009 0.9004 0.9000 0.9000
2817.577742 0.8998 0.8988 0.8980 0.8980 0.8980
2824.334530 0.8980 0.8980 0.8980 0.8982 0.8992
2831.091319 0.9000 0.9000 0.9000 0.9000 0.9001
2837.848108 0.9006 0.9010 0.9010 0.9010 0.9010
2844.604897 0.9012 0.9022 0.9030 0.9030 0.9029
2851.361686 0.9019 0.9010 0.9010 0.9009 0.9004
2858.118475 0.8999 0.8989 0.8980 0.8980 0.8980
2864.875264 0.8980 0.8980 0.8980 0.8979 0.8969
2871.632052 0.8960 0.8960 0.8959 0.8949 0.8939
2878.388841 0.8934 0.8929 0.8919 0.8910 0.8910
2885.145630 0.8909 0.8899 0.8890 0.8885 0.8880
2891.902419 0.8880 0.8879 0.8869 0.8859 0.8849
2898.659208 0.8839 0.8835 0.8829 0.8819 0.8809
2905.415997 0.8799 0.8789 0.8779 0.8770 0.8765
2912.172785 0.8758 0.8739 0.8719 0.8704 0.8689
2918.929574 0.8679 0.8670 0.8665 0.8659 0.8649
2925.686363 0.8640 0.8640 0.8640 0.8640 0.8639
2932.443152 0.8629 0.8620 0.8620 0.8619 0.8604
2939.199941 0.8589 0.8564 0.8539 0.8519 0.8499
2945.956730 0.8468 0.8438 0.8408 0.8378 0.8348
2952.713519 0.8319 0.8294 0.8268 0.8213 0.8159
2959.470307 0.8134 0.8109 0.8079 0.8048 0.7978
2966.227096 0.7909 0.7869 0.7829 0.7744 0.7659
2972.983885 0.7578 0.7496 0.7371 0.7246 0.7101
2979.740674 0.6957 0.6838 0.6718 0.6608 0.6500
2986.497463 0.6485 0.6470 0.6485 0.6500 0.6665
2993.254252 0.6829 0.6989 0.7148 0.7318 0.7487
3000.011040 0.7749 0.8010 0.8055 0.8100 0.8115
3006.767829 0.8130 0.8145 0.8160 0.8170 0.8180
3013.524618 0.8180 0.8180 0.8180 0.8180 0.8180
3020.281407 0.8180 0.8166 0.8151 0.8150 0.8150
3027.038196 0.8126 0.8101 0.8032 0.7962 0.7911
3033.794985 0.7862 0.7768 0.7674 0.7507 0.7337
3040.551774 0.7201 0.7066 0.6875 0.6680 0.6448
3047.308562 0.6214 0.5604 0.4971 0.4911 0.4891
3054.065351 0.4909 0.4929 0.5163 0.5407 0.5533
3060.822140 0.5653 0.5768 0.5883 0.6119 0.6363
3067.578929 0.6589 0.6813 0.7111 0.7416 0.7555
3074.335718 0.7679 0.7758 0.7833 0.7903 0.7973
3081.092507 0.8012 0.8047 0.8073 0.8098 0.8146
3087.849295 0.8196 0.8214 0.8229 0.8239 0.8249
3094.606084 0.8282 0.8316 0.8342 0.8367 0.8401
3101.362873 0.8436 0.8453 0.8468 0.8479 0.8489
3108.119662 0.8494 0.8499 0.8509 0.8519 0.8529
3114.876451 0.8539 0.8540 0.8540 0.8544 0.8549
3121.633240 0.8559 0.8569 0.8570 0.8570 0.8579
3128.390029 0.8589 0.8599 0.8609 0.8610 0.8610
3135.146817 0.8610 0.8610 0.8610 0.8610 0.8610
3141.903606 0.8610 0.8614 0.8619 0.8650 0.8685
3148.660395 0.8711 0.8736 0.8748 0.8758 0.8764
3155.417184 0.8769 0.8778 0.8788 0.8798 0.8808
3162.173973 0.8818 0.8828 0.8834 0.8839 0.8840
3168.930762 0.8840 0.8857 0.8877 0.8880 0.8880
3175.687550 0.8884 0.8889 0.8890 0.8890 0.8898
3182.444339 0.8908 0.8918 0.8928 0.8930 0.8930
3189.201128 0.8930 0.8930 0.8942 0.8957 0.8968
3195.957917 0.8978 0.8980 0.8980 0.8980 0.8980
3202.714706 0.8980 0.8980 0.8988 0.8998 0.9000
3209.471495 0.9000 0.9000 0.9000 0.9000 0.9000
3216.228284 0.9000 0.9000 0.9000 0.9000 0.9000
3222.985072 0.9000 0.9000 0.9000 0.9000 0.9000
3229.741861 0.9000 0.9000 0.9004 0.9009 0.9010
3236.498650 0.9010 0.9010 0.9010 0.9010 0.9010
3243.255439 0.9010 0.9010 0.9010 0.9010 0.9010
3250.012228 0.9010 0.9010 0.9010 0.9010 0.9010
3256.769017 0.9010 0.9010 0.9010 0.9010 0.9010
3263.525805 0.9010 0.9010 0.9010 0.9010 0.9010
3270.282594 0.9010 0.9010 0.9010 0.9010 0.9010
3277.039383 0.9010 0.9010 0.9010 0.9010 0.9010
3283.796172 0.9010 0.9010 0.9010 0.9010 0.9010
3290.552961 0.9010 0.9010 0.9010 0.9010 0.9010
3297.309750 0.9010 0.9010 0.9010 0.9010 0.9010
3304.066539 0.9010 0.9010 0.9010 0.9010 0.9010
3310.823327 0.9010 0.9010 0.9010 0.9010 0.9010
3317.580116 0.9010 0.9010 0.9010 0.9010 0.9010
3324.336905 0.9010 0.9010 0.9010 0.9010 0.9010
3331.093694 0.9010 0.9010 0.9010 0.9010 0.9010
3337.850483 0.9010 0.9010 0.9010 0.9010 0.9010
3344.607272 0.9010 0.9010 0.9010 0.9010 0.9010
3351.364060 0.9010 0.9010 0.9010 0.9010 0.9010
3358.120849 0.9010 0.9010 0.9010 0.9010 0.9010
3364.877638 0.9010 0.9010 0.9010 0.9010 0.9010
3371.634427 0.9010 0.9007 0.9002 0.9000 0.9000
3378.391216 0.9003 0.9008 0.9010 0.9010 0.9010
3385.148005 0.9010 0.9010 0.9010 0.9010 0.9010
3391.904794 0.9010 0.9010 0.9010 0.9010 0.9016
3398.661582 0.9026 0.9030 0.9030 0.9030 0.9030
3405.418371 0.9030 0.9030 0.9030 0.9030 0.9030
3412.175160 0.9030 0.9030 0.9030 0.9030 0.9030
3418.931949 0.9030 0.9030 0.9030 0.9030 0.9024
3425.688738 0.9014 0.9010 0.9010 0.9010 0.9010
3432.445527 0.9010 0.9010 0.9010 0.9010 0.9010
3439.202315 0.9010 0.9010 0.9010 0.9010 0.9010
3445.959104 0.9010 0.9010 0.9015 0.9025 0.9030
3452.715893 0.9030 0.9030 0.9030 0.9030 0.9030
3459.472682 0.9030 0.9030 0.9030 0.9030 0.9030
3466.229471 0.9030 0.9025 0.9015 0.9010 0.9010
3472.986260 0.9010 0.9010 0.9010 0.9010 0.9010
3479.743049 0.9010 0.9010 0.9010 0.9010 0.9010
3486.499837 0.9007 0.9002 0.9000 0.9000 0.8995
3493.256626 0.8985 0.8980 0.8980 0.8980 0.8980
3500.013415 0.8980 0.8980 0.8980 0.8980 0.8980
3506.770204 0.8980 0.8980 0.8980 0.8980 0.8980
3513.526993 0.8985 0.8995 0.9000 0.9000 0.9000
3520.283782 0.9000 0.8995 0.8985 0.8980 0.8980
3527.040570 0.8980 0.8980 0.8980 0.8980 0.8980
3533.797359 0.8980 0.8980 0.8980 0.8984 0.8994
3540.554148 0.9002 0.9007 0.9010 0.9010 0.9010
3547.310937 0.9010 0.9010 0.9010 0.9010 0.9010
3554.067726 0.9010 0.9010 0.9014 0.9024 0.9030
3560.824515 0.9030 0.9026 0.9016 0.9010 0.9010
3567.581304 0.9008 0.9003 0.9000 0.9000 0.9000
3574.338092 0.9000 0.9000 0.9000 0.9000 0.9000
3581.094881 0.9000 0.9000 0.9002 0.9007 0.9010
3587.851670 0.9010 0.9010 0.9010 0.9010 0.9010
3594.608459 0.9010 0.9010 0.9014 0.9024 0.9030
3601.365248 0.9030 0.9030 0.9030 0.9030 0.9030
3608.122037 0.9030 0.9030 0.9030 0.9030 0.9030
3614.878825 0.9030 0.9026 0.9016 0.9010 0.9010
3621.635614 0.9010 0.9010 0.9008 0.9003 0.8996
3628.392403 0.8986 0.8980 0.8980 0.8976 0.8966
3635.149192 0.8960 0.8960 0.8960 0.8960 0.8960
3641.905981 0.8960 0.8960 0.8960 0.8960 0.8960
3648.662770 0.8957 0.8946 0.8938 0.8933 0.8930
3655.419559 0.8930 0.8927 0.8917 0.8910 0.8910
3662.176347 0.8910 0.8910 0.8907 0.8897 0.8888
3668.933136 0.8883 0.8869 0.8834 0.8804 0.8784
3675.689925 0.8768 0.8763 0.8757 0.8747 0.8735
3682.446714 0.8720 0.8707 0.8697 0.8690 0.8690
3689.203503 0.8693 0.8703 0.8715 0.8730 0.8744
3695.960292 0.8759 0.8776 0.8796 0.8814 0.8829
3702.717080 0.8846 0.8866 0.8882 0.8887 0.8890
3709.473869 0.8890 0.8890 0.8890 0.8890 0.8890
3716.230658 0.8893 0.8903 0.8910 0.8910 0.8907
3722.987447 0.8897 0.8890 0.8890 0.8890 0.8890
3729.744236 0.8890 0.8890 0.8893 0.8903 0.8910
3736.501025 0.8910 0.8910 0.8910 0.8910 0.8910
3743.257814 0.8910 0.8910 0.8910 0.8910 0.8910
3750.014602 0.8910 0.8910 0.8910 0.8910 0.8910
3756.771391 0.8910 0.8910 0.8913 0.8922 0.8930
3763.528180 0.8930 0.8930 0.8930 0.8930 0.8930
3770.284969 0.8931 0.8936 0.8940 0.8940 0.8940
3777.041758 0.8940 0.8939 0.8934 0.8930 0.8930
3783.798547 0.8931 0.8936 0.8940 0.8940 0.8940
3790.555335 0.8940 0.8940 0.8940 0.8940 0.8940
3797.312124 0.8940 0.8940 0.8940 0.8940 0.8940
3804.068913 0.8940 0.8940 0.8940 0.8940 0.8940
3810.825702 0.8940 0.8940 0.8940 0.8940 0.8940
3817.582491 0.8940 0.8940 0.8940 0.8940 0.8940
3824.339280 0.8940 0.8940 0.8940 0.8940 0.8940
3831.096069 0.8940 0.8942 0.8952 0.8960 0.8960
3837.852857 0.8962 0.8972 0.8980 0.8980 0.8980
3844.609646 0.8980 0.8980 0.8980 0.8980 0.8980
3851.366435 0.8981 0.8991 0.9000 0.9000 0.9000
3858.123224 0.9000 0.9000 0.9000 0.9000 0.9000
3864.880013 0.9000 0.9000 0.9000 0.9000 0.9000
3871.636802 0.9000 0.8999 0.8989 0.8980 0.8980
3878.393591 0.8980 0.8980 0.8979 0.8969 0.8960
3885.150379 0.8960 0.8959 0.8949 0.8940 0.8940
3891.907168 0.8940 0.8934
##END=
