##TITLE=Acetonitrile
##JCAMP-DX=4.24
##DATA TYPE=INFRARED SPECTRUM
##CLASS=IUPAC A
##ORIGIN=NIST, Anayltical Chemistry Division, 301-975-3108
##OWNER=COPYRIGHT (C) 1998 by the U.S. Secretary of Commerce
##DATE=98/10/1
##$SPECTRA VERSION=1.00
##$UNCERTAINTY IN Y=2.0 % relative (B=1.0E-04,C=3.1E-10,D=2.7E-14)
##CAS NAME=Nitrile-Acetic Acid
##CAS REGISTRY NO=75-05-8
##MOLFORM=C H3 C N
##MP=-45.72 C
##BP=81.6 C
##$NIST SOURCE=QUANT-IR
##SPECTROMETER/DATA SYSTEM=IFS66V (Bruker)
##INSTRUMENT PARAMETERS=KBr Beam splitter; MCT Detector; Multipass cell
##STATE=gas
##SAMPLE DESCRIPTION=Acetonitrile Primary Gas Standard
##PRESSURE=101.3 kPa
##TEMPERATURE=23 C
##SAMPLING PROCEDURE=1 L/min Flow
##RESOLUTION=0.9640
##DATA PROCESSING=Boxcar Apodization
##XUNITS=cm-1
##YUNITS=(micromol/mol)-1m-1 (base 10)
##XFACTOR=1.0
##YFACTOR=11.368E-14
##DELTAX=0.4820
##FIRSTX=575.169
##LASTX=3975.077
##FIRSTY=-4.58E-07
##MAXX=3974.59
##MINX=575.17
##MAXY=.0001847
##MINY=-8.94E-07
##NPOINTS=7053
##XYDATA=(X++(Y..Y))
575.17-4036162-2438494-759166-2708370-4011218 1228548
577.58-5675618-1512702 2606476-7864926-599630 1589506
580.47 3162136 1839516-1988748-581788-1048924-5634598
583.37-6363060-4781210 1480098-1082428-7180124-985930
586.26-2938360 1674262 798078-2455474-749772-882166
589.15-482854-3254762-5768712-3148400-1733620-4729248
592.04-1678792 1209388-1520422-2563306 217818-2671142
594.94-1544232-1679530-399244-6019338-2407906-1521598
597.83-713598-992600-836424-3191938-2236046-965028
600.72-1887286 993012-1114644 1228068-3641054-1632974
603.61-2104890-1770334-2500194-4106158-2862752 370392
606.51-1163020-3022734 1349160 1492850 430632-379998
609.40-2793896-1887564-3176800-930230-2334156 1326774
612.29-1130476-3432878-1494108-1594886-2160894-1213750
615.18-3399982-1531956-1479886 1594866-375630-261666
618.08-872804-1373878 1324640-1167832-1147502-1774872
620.97-2186542-1689016-4198530 701340-2546330-191988
623.86-469980 922854-1448994-2182918-911716 419636
626.76-142620-454800 744288-1686816-1733488-1911540
629.65-74500 696600-1814460 204742-982656-675898
632.54-954098-578730 489712-342664-2461760 794596
635.43-3170864 545306-1572216-3234976-451238 813682
638.33 1396510 20598-1887054 1177280-2149616 1094696
641.22-1306078-933492-396362 1742044 230488-2308758
644.11-269850 208086-928214 1080792 268916-93078
647.00-444014 1477896 742320 606180 465862-1276936
649.90 956406 67414-1693304 865168-1647226 1683004
652.79 1305656 777680 568982 807272 481934-342430
655.68-403774 14482-461446 1071640-489140 331966
658.58-992794 949424 514030 423772 167168-699250
661.47 41238 979660 995798 519634 615836 376040
664.36 1933118 2319440 286722 1330334 1773116 3149366
667.25 2613116 3301156 1093266-981280 3745440 3026440
670.15 1649478 1471698 2333290 1379970 2111414 2392016
673.04 1598402 3527420 1853684 1232834 2862726 4254988
675.93 3101542 2697496 2412748 2386158 3123786 4471130
678.82 5660546 3065434 3515782 5787394 6344350 5947224
681.72 5632196 8313480 4448382 8920114 7785192 11185330
684.61 11110820 11895370 12299020 14762130 14189480 16558430
687.50 16909710 17746830 21201450 19860260 22140600 26674760
690.40 26762040 29033890 29338130 33893110 32967950 38472360
693.29 39058200 40587990 43121940 45383070 45672600 49716520
696.18 51060070 52964730 52493690 56590230 55545250 57925620
699.07 58245600 61329570 60916510 65014120 62362900 62647500
701.97 61012250 63771190 62095900 60211530 57614580 60159250
704.86 55308400 56032790 54861210 53357940 48998720 46969170
707.75 43857140 44929160 46884330 45449370 34023260 37046150
710.64 28616990 27565010 26777510 50993960 55978720 28262010
713.54 22024140 18184920 15466950 20648660 16685630 74247290
716.43 87810700 30650040 35007100 24433380 31085220 27886800
719.32 35135580 33961680 39418890 39475120 41658880 41731410
722.22 46182790 46033410 48950780 47732500 51035090 49311040
725.11 51762790 51217800 51906700 49941420 51465850 50670050
728.00 51283410 48368740 48832120 46950980 47640970 45566800
730.89 44917110 42533410 42682140 39818290 39909350 37820160
733.79 37064080 33792870 34173370 31912160 31404380 30646550
736.68 27865390 26606820 24725700 23126510 22295500 21754120
739.57 19883450 19892910 19056660 17690550 17186640 15042150
742.46 13988520 12608850 12889500 10722950 10912350 9908750
745.36 8704650 7561202 8199160 7437430 6466098 4509400
748.25 5956756 4258608 4936060 3712950 4523676 3711776
751.14 3601898 2210336 3598142 1207372 2834204 173602
754.04 1395922 1627650 663876 1298524 807270 592774
756.93 225104-55502 789832-1224714 595382-463428
759.82-260966-244158 382744-927446 411088-544396
762.71 615946-834372-832998-1954352-1319966-845306
765.61-878844-486478 265974-930990-792392-589190
768.50-1914816-1366602-786096 886556 67852-1802826
771.39-1312548-764018-714052-1691404-144582-1702552
774.28-356742-1383442-834144-962692-155562-503748
777.18-643018-1912588-525586-2131794-437834-908412
780.07-1294652-1372250-581544-493792-320778-2076514
782.96-885284-896890-619406-1745032-845208 207438
785.86-442346-838686-243070-1422936-2030048-720564
788.75-1398918-2422126-666872-576708-968484-1806926
791.64-677368-1399028-1766870-1918576-1329676-382598
794.53-614920-642636-769560-694424-980598-1775706
797.43-910456-2061250-1533404-2362982-811228-681194
800.32-341822-1519396-1569498-993210-822122-1914692
803.21-406662-2453584-1118554-657488-1286092-1994520
806.10-1626536-700682-1524098-1461654-2037932-2584620
809.00 47836-747634-2055582-1613290-305030-1651860
811.89-426472-1173472-2810452-558184-758770-1647846
814.78-742298-2109830-1091918-1567746-1334720-1557406
817.68 513244-1388824-948344-1911652-1379234-1109562
820.57-1007056-1339012-1559484 631678-1131158-1999158
823.46-497850-1052666-370240-1160294-1533832-960430
826.35-739746-1556886-434156-1008664-979868-624900
829.25-268158-1838584-1924020-741306-1265068-770410
832.14-2271278-2229404-750332-134828-719614-997754
835.03-2297788-963604-711560-85832-2419642-358266
837.92-1041512-2777736-838520-1273854-834662-1525310
840.82-1360208-561370-438258-1453164-154830 22290
843.71-846698-1107358-892760-1178328-1776632-1879692
846.60-527692-1134140-1499074-1357754-1766792-1209214
849.50-237780-424902-959530-346698-1354708-728312
852.39-541858-953032-1405428-836868-2401064-1128120
855.28 692276-856682-1851634-772964-1759988-901910
858.17-1097322-1753796 50944-1681546-1574036-1243656
861.07 378812-1439952-1133348-781912-893698-460266
863.96-230108-1747656-731998-828060-801676-825902
866.85-1105468 116190-352040-1531622-515336-929140
869.74-940400-903922-738330-748558 184788-998832
872.64-546678-100708-187042-94980-108870-595558
875.53 692616-129270 650980 1320486 881586 915310
878.42 1076696 1253910 760128 1487802 1763482 1797314
881.31 2585566 2217344 2212302 3168422 3072900 3780006
884.21 3734066 4506934 4514358 5329410 5851418 6102530
887.10 7264760 7305142 8241406 9119906 8920928 10824910
889.99 10409710 11267630 13137080 13782100 14308390 15033020
892.89 15981920 16884910 18947110 18094480 19816020 20506030
895.78 22141740 22968540 24443230 25453830 27681350 28767610
898.67 29973570 29871470 32426440 33247840 34763980 36067000
901.56 36815580 37841700 39327110 41321520 40358270 42249380
904.46 42838780 43253450 44451880 44501990 45348960 44674020
907.35 45538250 45237340 45779750 45531410 45124750 44490040
910.24 44514450 44644850 43130160 39759600 39111970 37575250
913.13 36421490 33100380 31591680 29961950 27212320 26185900
916.03 22652300 21639820 19370490 20063130 20238160 29674430
918.92 49934380 87114380 36667550 5533656 11418930 6788580
921.81 11163670 10775570 16103020 19151540 29727300 38205280
924.71 24711420 20168630 24742110 25374660 28627830 29986170
927.60 34556810 35228590 38479290 36098240 36690980 37457240
930.49 39187140 38807550 40633890 39590390 40516760 39260870
933.38 39330400 38098190 38369940 36614720 36075140 34686460
936.28 34074760 32500300 31453510 29677790 28613420 26890540
939.17 26144220 24537210 23459820 21179210 20360610 17876260
942.06 17548990 15935220 15086910 13046900 12828430 10904260
944.95 10196050 8490868 8188662 6600164 7351982 5814538
947.85 4980114 4301344 4340616 3355054 3818790 2013962
950.74 1803696 1305614 1786814 1223684 972924 430472
953.63 1045958 718410 231056-66188 336872-427966
956.53 688506-751092 82236-1276650 598544-254566
959.42 114684-486524 1067398-409362-151008-322988
962.31-190316-124424 496776-778826 782490 407648
965.20 1254056 691516 575222 504596 1135116 479802
968.10 1449608 659180 1309186 1191518 1970250 1279586
970.99 1055370 147668 2151080 1214894 1862576 1707858
973.88 2731348 914024 3701626 1993398 2622238 1747938
976.77 3373190 2391258 3964110 3526806 4566340 2958412
979.67 9448984 3178074 4838564 4473598 5493324 3303094
982.56 6443524 4678676 5419672 5036316 10307380 5689720
985.45 7803432 6497568 7219184 5234042 8895440 8104768
988.35 8802320 6056220 15845750 7622860 6908534 10316270
991.24 16278530 5232892 15473300 8745372 12057950 6615948
994.13 31878160 29132240 4737076 12977660 9847272 12813000
997.02 12381430 15394190 11400830 12765630 15917340 41560430
999.92 15855180 14610090 11259910 17594120 22690940 22618090
1002.81 13691610 18323260 12483690 46742340 39620260 12879690
1005.70 24865790 20785670 21900800 13517090 21395630 12995590
1008.59 22488620 21235210 129542600 35070800 29889910 30006840
1011.49 20268550 23020600 22610690 20376600 28628420 26138500
1014.38 39681380 95727620 21284170 30059900 21934370 27466610
1017.27 24807900 29819350 44761110 46266130 17453040 58442200
1020.17 113874800 22800070 36907020 21210320 34993190 35424290
1023.06 39237910 25618890 36378160 13343520 97657180 265276000
1025.95 29473560 51719720 35692870 37593100 25119390 34639740
1028.84 24600330 32868240 24624860 49344780 163658300 74148370
1031.74 37299680 32028080 26494500 41391660 29835630 41244080
1034.63 32822420 39714400 25422220 174247400 108104000 11820770
1037.52 62069410 59492340 45688540 17289020 43188670 20355250
1040.41 52449140 18476140 171074500 351861600 16682290 50587030
1043.31 19105320 54630870 37421160 34614740 39120190 38661760
1046.20 34996410 45746480 185639600 94271900 17933290 45497180
1049.09 21876160 47989860 46844880 44698840 26410310 46934590
1051.99 31551820 91338270 160261300 48734360 29691700 34472580
1054.88 32955440 42279680 59384740 63127210 14361970 66739650
1057.77 40815900 168234800 220784100 16410230 50552070 23324100
1060.66 39258580 29130010 48119440 45766450 28048860 55347480
1063.56 30378850 101117200 94300740 18342680 41589390 23107170
1066.45 35298100 25599110 49347580 34881980 33763990 32605340
1069.34 29659470 98768030 61742280 16340620 40147070 23645570
1072.23 39012630 22091300 35767560 16884750 42030500 13294150
1075.13 95461580 93710900 31136840 39965440 21017880 27805410
1078.02 28325820 35188510 21865790 28889090 22065430 29578360
1080.91 21503070 35772960 23281090 47123050 38875300 17127870
1083.81 22240680 17255500 19552140 16356200 19444070 17712390
1086.70 20095720 23983620 24752470 44227700 19191520 16786810
1089.59 16036710 15895170 14223910 13750530 13185220 14638010
1092.48 13350440 21774590 19405570 44394960 24850720 8353512
1095.38 13403670 9609208 11626020 8476346 10539180 8044630
1098.27 9812586 8733824 11318150 12897790 18798240 8807552
1101.16 10748240 8477498 9974240 7308120 8684830 6893396
1104.05 10187800 8013446 9355142 7873132 11660270 8514996
1106.95 7374750 6316618 5779802 5969830 6244036 5326212
1109.84 5224326 4482590 5424472 5280716 6199860 9237692
1112.73 6635936 2452242 4499420 2879914 3765514 3554814
1115.63 3406966 2039514 2891506 2964096 3185882 3427810
1118.52 3079848 2038316 2424706 1515546 3387496 2178318
1121.41 2268306 1546360 1976968 1373758 2611648 1293104
1124.30 2569218 2066116 1392134 570494 1068468 1158292
1127.20 955958 523484 1631296 514916 1386200 905204
1130.09 1414780 1009354 1089406 186238 573562 186650
1132.98 118298 49978 592014-51762 775336 268880
1135.87 710672-33710 581306 121354 502700-928712
1138.77 756142-328206 185018 293506 388936-63818
1141.66 748276-588326 427180-271588 1006388-225458
1144.55-154072 50762-73814-124362 37808-355474
1147.45 195904-502026 454242 271126 411874-617540
1150.34 162074-482004 468960-684902-261168-562650
1153.23 432176-416100-515016 226900-334742-686120
1156.12-29106-657690-58142-128512-268840-507446
1159.02-267008-632828-191324-642418-93150-384118
1161.91 185488-639704-563854-568214-740276-117974
1164.80 260612-563270-306746-517960-466930-98318
1167.69 78262-459376-272220-279112-93170-737630
1170.59-55128-633684-88618-232424-281014-656756
1173.48-334978-618640 176800-567780-220876-827700
1176.37-439130-90030-202866-840218-77120-884848
1179.26-517328-197872-475524-745468-727212 58252
1182.16-505852-954172-452870-699314-210210-801678
1185.05-30182-778388-411516-262066-400604-355860
1187.94-960332-108946-115410-587804 31752-513474
1190.84-501314-662600-294270-335600 184432-365064
1193.73-194550 377458 208850 11424-167916-422088
1196.62-264888-458010-16208-204286-18390-708942
1199.51-11136-385448 277246-247202 101502-454954
1202.41-59562-20346-218226-222898 83288-252056
1205.30 186790-161340-5276-530920 238148-621764
1208.19 227642-126144 542736 111250 1562 27702
1211.08-133684-306380 111634 211160-13582-131038
1213.98 130460 359568 1268550 489468 658722 523114
1216.87 127800-277060-270258 366942 785352 190550
1219.76 518014 621884 332618 19230-20786-333088
1222.66-112678-233118-429674 203850 231282 32368
1225.55 485292-250092 91106 168760 1058954-158430
1228.44 608384-222904 27112-127268 515642-674574
1231.33 241406 594950 100386 91020 156888-268152
1234.23 485834 750184 229194-291946 120070 594206
1237.12 861446 205416 1266854 2337400 2622600 2518366
1240.01 877490 937670 1218084 537870 602878 531630
1242.90 552018 682464 1036374 585770 183576 704084
1245.80 444260 624950 567044 517916 636388 81508
1248.69 582780 191818 801324 1208602 565606 397196
1251.58 875700 1264798 127254 5115280 4404486 450542
1254.48 2846446 819572 1246040 1176256 1413062 952222
1257.37 2120076 2277676 2923760 1926574 1102320 850796
1260.26 1417522 884604 780822 3499696 5373860 2995752
1263.15 3050850 1709276 2350992 1149650 2521770 1576684
1266.05 3279700 1348974 6769178 6638504 2674952 4013400
1268.94 3189164 4278644 3569598 3903382 3357608 4283898
1271.83 4349792 4462566 4607192 4776066 4132198 4325156
1274.72 3929120 4076334 3729692 4584970 4619328 5594080
1277.62 4956700 5329504 4806694 6144434 4586038 6476118
1280.51 3900712 16305900 20499350 8207454 9814534 7993744
1283.40 7619968 6922788 7040396 16990290 24668360 13133090
1286.30 12899730 10228550 10241280 8650470 7710644 4615628
1289.19 5308992 3048584 5971346 2896440 5071178 2850450
1292.08 6381566 3466574 7743568 3641260 9410614 4609556
1294.97 45394720 29127430 4776854 12864250 11182850 8559832
1297.87 7497564 8659894 8178052 8451006 8139032 9754164
1300.76 8211808 9835102 9818996 10673500 7875878 6631982
1303.65 7581104 10108280 8833862 9885666 7316956 7156806
1306.54 6509954 7468904 7684350 19962540 29661590 49977340
1309.44 22238120 10005960 15720150 13955780 10542470 12110200
1312.33 12457190 11259090 12808410 12470980 13598780 14659950
1315.22 14248760 15129840 15294420 16697070 14816070 12223510
1318.12 13834810 13340580 13122700 13616510 13001760 15401360
1321.01 14577390 20447870 22104510 53176870 72860790 24952840
1323.90 23335720 26405330 28215070 19258570 24056800 22769730
1326.79 30684600 27417320 26984090 25885830 30159990 26663650
1329.69 27253550 27700650 28645850 48720600 46767740 19060360
1332.58 23505070 11859330 18539630 13368310 23545510 22534240
1335.47 49033830 69859540 165700100 121980000 26119860 37412360
1338.36 40221920 38286290 19055490 27559710 23170880 25381810
1341.26 22246240 25388360 23351710 25947970 24690960 27594760
1344.15 25501460 30350400 33193920 34086500 29187320 26291020
1347.04 25244900 25094740 30834110 40085760 48267590 88082420
1349.94 102373400 121344100 60658220 32328660 52655830 47567180
1352.83 33059330 28450030 41721000 119908400 76384150 43756230
1355.72 35002920 34070320 35769880 36854140 38805280 42418160
1358.61 44094160 51177390 51925860 58604070 59909180 58445760
1361.51 66109470 77258920 91190580 106841100 115998700 128349200
1364.40 107735800 71328260 65498050 68884780 71721340 84383400
1367.29 92326620 104642000 107604100 115102800 114646900 116819500
1370.18 126480200 139646200 144356600 141138000 126890800 134340800
1373.08 137016000 149931900 147086100 171198700 151288000 180335200
1375.97 266334000 284351100 306589800 268532200 260592900 161795000
1378.86 127107600 127664100 121847500 121162100 110540500 102682500
1381.76 120205400 122026600 127785400 127640700 132666300 135633400
1384.65 146825300 176426600 157459800 155280100 183183200 180822500
1387.54 163640500 166072700 173664900 172097800 176942300 190052000
1390.43 158746800 170854700 167624100 167453800 198130700 240112100
1393.33 239125800 255402000 251268500 237432900 239406100 230390800
1396.22 223480200 220081600 214849000 213846100 215021100 214481400
1399.11 197095400 239519500 266495200 215884100 204254900 187391200
1402.00 185662100 178659500 177324100 173858600 170004700 165678600
1404.90 167036600 166936900 198851600 345252200 352875400 305370800
1407.79 276145800 242218600 225768900 234112100 222604200 207642200
1410.68 193325800 181197900 175647000 174767500 174409200 158823100
1413.58 152217000 147759900 148637400 153448000 189952100 194665500
1416.47 206191500 194166800 133765100 150608400 122168900 159808000
1419.36 115993700 320728700 768210900 619110100 444642900 543721700
1422.25 524228700 260565800 287384000 260806900 232963000 167014300
1425.15 169526200 137668000 153439100 130367000 142396000 119027400
1428.04 131361400 110801600 127162900 110925300 123600400 106873400
1430.93 128436300 105257400 128053800 111683200 154606400 97545940
1433.82 278513600 603551000 433357500 300182300 223390800 209716800
1436.72 189096900 141641700 181325600 187151100 157137200 126229600
1439.61 143898600 135349200 114958100 113605000 121254100 113256300
1442.50 118806200 167591400 339844300 232881200 189474500 133065300
1445.40 140063100 111420200 142628400 114480000 151009100 150067800
1448.29 457100800 590818700 342663400 244080100 184164200 158519600
1451.18 138265800 132558100 139618900 179431700 199091400 140480000
1454.07 140930800 115486200 133107200 103274300 171892500 174911200
1456.97 144637900 113554800 138092700 100036500 131795800 82087510
1459.86 129161400 106000600 173397000 110857100 323404000 199180100
1462.75 1624771000 1070693000 326112800 332734400 153589300 193375300
1465.64 138000000 190653500 140239300 170287400 136744400 157707200
1468.54 122329400 172059300 154673500 158045000 126114900 135041200
1471.43 123109400 134959700 133338500 144974400 128787800 129747900
1474.32 143564100 225098500 170480900 156778400 118761800 125737100
1477.21 204452700 135181000 448042000 524595700 200385700 198125700
1480.11 137659200 266352200 97622910 524259600 695422700 314300400
1483.00 228046600 208519600 180920300 139613200 130710700 122443000
1485.89 123005200 135489000 132946300 121699900 117389900 115577900
1488.79 113632800 115855400 113926200 115525100 115247200 123870800
1491.68 159340600 149438200 130345300 129365700 134679900 119395900
1494.57 182780700 466669100 256623800 174140000 112281400 137844300
1497.46 127211000 307749500 441577200 218762600 155386400 106972800
1500.36 147061500 144369700 120427000 110461000 105409000 109562100
1503.25 102580900 97645020 102471800 104595600 112648600 90656250
1506.14 101672500 111856900 97449000 142904700 130434100 107232200
1509.03 100167600 100691000 99264740 100039700 85653660 73945940
1511.93 96811980 77186900 269281700 830946000 422948400 200087200
1514.82 115843000 92199940 82909500 83701160 93615620 99105940
1517.71 90854980 114462700 171639300 134237500 97079140 91419530
1520.61 92396340 98046510 70152980 108408000 181237600 131185900
1523.50 83218070 81967990 67830760 87644930 75753100 92670500
1526.39 67977100 187982500 630883300 337963100 154437000 107387100
1529.28 83507040 66627540 59509630 53111140 75011820 86916350
1532.18 96564320 96894470 118286200 203713200 113418400 97183880
1535.07 76591930 83906140 70417190 101476600 95116220 87990310
1537.96 85764520 120875100 79432470 83168570 76200020 111782300
1540.85 267059000 166853700 106684900 67894640 59322900 56744310
1543.75 50457790 54075340 54988740 53318540 57498010 58044220
1546.64 60775070 60349970 50561530 54494980 48202580 53369880
1549.53 44734350 73177420 74965790 46614300 39661360 39355760
1552.43 40584810 37387920 71587180 239378300 54951700 75534380
1555.32 75332220 39950680 28837600 38052030 38400820 44561920
1558.21 48891980 40694740 52779360 58724170 51118510 38348810
1561.10 35546930 35937050 35638520 31287080 42195690 70294120
1564.00 32859510 41096700 22349540 42869840 16969920 182340000
1566.89 172635400 38551680 38883430 18352550 31090270 27599110
1569.78 26936910 19048310 22002100 18046370 19116640 24793370
1572.67 43673720 38022570 39218740 32655130 35169190 32090890
1575.57 53679290 53970890 33166840 46786720 78776710 43696630
1578.46 29768780 76086720 65298990 28937310 44009720 20242320
1581.35 26723800 20722370 24736890 22493060 23777930 18866750
1584.25 21375140 17858020 21066840 22222200 25550900 22350910
1587.14 22969030 19576420 21016070 23097900 24005470 16565720
1590.03 19905220 14686210 29842540 46499850 22309050 14956510
1592.92 13094460 11966900 12318700 11028800 10056150 11590210
1595.82 12062260 9560560 8607086 7948938 7790790 10270970
1598.71 12777590 11449500 10725600 20111470 19517820 16621730
1601.60 11890870 10890030 13388170 21443940 42654840 15717240
1604.49 10173240 6963876 7849412 5682390 7869086 5988630
1607.39 6100006 5100654 6568916 6076752 6585558 4693000
1610.28 6030650 4996656 10820040 8760242 9914818 8727548
1613.17 11108880 7568970 10268920 6530472 15435240 12986960
1616.07 27781500 19408470 3997094 7487348 4427406 6262194
1618.96 4650592 5159126 4132204 4868750 4370720 3869948
1621.85 4475150 3982780 7961470 14982370 7072336 5432382
1624.74 3947276 7273404 4380308 5193606 4168570 11481820
1627.64 6330276 3000398 2915150 3175242 2574812 2907352
1630.53 2457854 2564656 2125496 2603846 1768412 2952192
1633.42 1258106 3695538 5871212 14427650 16811960 1514880
1636.31 4125136 4532834 6066774 1438184 3847140 4627684
1639.21 3703796 1422094 2342852 754432 1856690 1103058
1642.10 2322508 409030 1504326 454772 1983406 613108
1644.99 3275206 17441530 4243456 2597838 11343260 1893772
1647.89 8292544 1087096 4135516 371778 4071196 358040
1650.78 4802316-1651094 24102240 15192230 26367620 13391550
1653.67 2236840 12334230-700422 3432832-598494 2768560
1656.56-452216 2104616-222904 2006022-239814 1615620
1659.46 32750 1695426 150206 2484752 333464 3114620
1662.35 7944798 1946372 15834 1063784-229550 1295606
1665.24-156330 1680134-441474 1139498-975074 3232154
1668.13-180906 8358520 8609716-496928 1704218 1532230
1671.03 5840256 658796 461236 653956 90158 1084508
1673.92-454354 5351068 12573490 1665230 690952 323782
1676.81 321822 33800 90012 450046 592342 1667732
1679.71 1615610 1984258-154724 1160278-84822 1801348
1682.60 5680982 7293548 2615808 16943830 27274520-2299828
1685.49 3460288-1550736 2066562-1111750 2102760 1159346
1688.38 1725036-829410 2383040 857272 1055984-734870
1691.28 808786-623418 2307384-925290 2269538-839196
1694.17 3536090-605246 19832960 23331020-1170130 2561516
1697.06 1430882 1373040 756354 1147174 5527968 18955650
1699.95 13433970 12902980 535586 1927702 209026 1402426
1702.85 516674 853354 4183848 3589026-221396 2352804
1705.74 5862702 2800448 93216 1658470 393210 993662
1708.63-14630 796906 1070266 1785622-142652 829634
1711.53 398980 1204620 345142 573296 3201150 1672326
1714.42 4521258 7639474-1361616 3727974-1142598 23744610
1717.31 7968384 2752892 9138822 1790918 1889528 455644
1720.20 1263818 1221628 1667816 962178 1022520 910590
1723.10 2745780 919856 951000 1043408 1407418 1058650
1725.99 1405562 973102 1915558 877620 1443084 1805310
1728.88 1703522 3615714 3790842 1264466 2916632 415282
1731.77 4148684-32806 16486450 9413582 5635812 20677310
1734.67 1675278 4074354 582184 2478306 814442 3333386
1737.56 918418 3648210 1591986 7685440 10963280 3613142
1740.45 3049350 2309768 1506580 3383912 3321462 3817598
1743.34 2367526 2369028 2362018 2186036 3263194 2657242
1746.24 1869090 3650312 1551536 2916322 4953294 3734270
1749.13 2159306 2892156 1475460 9833148 11010790 1232926
1752.02 2802684 2583472 1949852 1920314 2249842 2004256
1754.92 2193814 2109536 3113024 7683554 2237824 2567562
1757.81 2361504 2996152 2468326 2949788 1909396 3106946
1760.70 1992044 9424414 6487082 1875664 3271830 2004546
1763.59 2730930 2140826 2838834 2164858 2460416 1626880
1766.49 3465046 1213294 7736832 7531222 1476004 3305970
1769.38 1342464 3311044 2653946 8007632 2638148 5912242
1772.27 17542230 4269076 2034080 2694698 2274392 2757532
1775.16 4082100 3122946 2321768 2597978 2196328 3153550
1778.06 2671330 2997212 2691296 2653664 4305074 4126210
1780.95 2159904 3254872 1937290 2912816 1645968 3254836
1783.84 1454382 5822204 3653364 1962632 2950292 3371538
1786.74 2485938 2399722 2142692 2761348 1944028 3219524
1789.63 2395756 4068438 5286634 3392504 2328204 11822770
1792.52 7588684 2160512 3408242 2042420 3189022 2756260
1795.41 3837636 2701998 3024294 3169382 2324814 3052092
1798.31 2627194 4453832 5737630 3289332 3264242 4682650
1801.20 3944396 3476678 4867036 2769914 4120938 3403642
1804.09 3816888 3383008 4014430 3568912 4086178 3517338
1806.98 4548904 3911380 4012578 3931888 4664202 3723396
1809.88 5730530 6136902 4181398 4473478 4548738 4522520
1812.77 4424390 4685552 4671704 4930850 4396542 4795588
1815.66 4811126 4907132 4782658 5625024 4995874 5128314
1818.56 5522928 5215348 5010660 4980546 5391364 5430370
1821.45 5443000 5303708 5294286 4920554 5861934 4783200
1824.34 6371950 9221934 4660600 4869300 4180260 4401684
1827.23 4388566 4417802 4439338 6336214 5202674 10110110
1830.13 6067314 5625334 5591428 3709258 3347684 3390816
1833.02 4605172 4207138 3826440 3873290 3608624 3934488
1835.91 4180132 4609252 5758246 4927594 5258406 5009588
1838.80 5263060 5565410 6474276 6669196 6662704 5345464
1841.70 6385640 5170738 6261146 5314862 15458980 10161510
1844.59 5184400 6607374 4991838 5922634 5284868 5981220
1847.48 6431380 5678446 5129390 5086934 5391368 5522684
1850.38 4679538 5272844 4505116 4879354 4581998 4375928
1853.27 3818896 3835480 3951476 4004602 4010356 3770020
1856.16 3449368 3679212 3427800 3383262 3082610 3422320
1859.05 2819772 3561916 3303774 3010830 3424894 2776024
1861.95 2919204 2526724 2861386 2409372 2450030 2693050
1864.84 3609348 2563992 3396952 2667058 2238214 4007462
1867.73 3846654 1468472 6622032 4864088 2120376 2662264
1870.62 1447890 2230126 1797130 2599578 1441862 2132174
1873.52 1537674 2410596 1568706 1652386 1908194 1461576
1876.41 1307966 1785152 2197118 1984558 1386188 3501346
1879.30 2551374 1857926 2021430 1794746 1771676 2037738
1882.20 1913416 2122736 1678604 1738914 2154950 1950252
1885.09 1796278 1589968 2364836 2250222 1980358 2403640
1887.98 2312144 1799518 4718108 3578808 2496346 2586046
1890.87 2350818 2443202 2303300 3321634 2733844 2422154
1893.77 2617154 2429484 3714610 2623698 2835224 2965410
1896.66 2719408 2727860 3015592 3164524 3071704 3223400
1899.55 3313270 3388506 3222678 3639274 3428186 3395880
1902.44 3193774 3539658 3489594 3832086 3299566 3837692
1905.34 3706054 2649642 2758452 2479560 2927078 2379496
1908.23 1785808 1898354 1720136 2515618 1575950 1873804
1911.12 1186108 1962610 1109168 2096912 1987360 1738408
1914.02 1441620 1984234 1801166 2028508 1582980 2332326
1916.91 1214768 5991406 4385284 1487060 1880298 1245046
1919.80 2017770 1339832 1573706 915656 1917046 1025518
1922.69 2263188 976030 1223566 1051876 1134822 1733920
1925.59 837410 1081884 1363996 813430 965432 1170116
1928.48 1039408 816072 1032490 1355848 1158642 826938
1931.37 562714 949672 571836 953578 571724 777312
1934.26 631112 622566 571708 309212 548856 628498
1937.16 728922 430418 783264 999142 465518 627912
1940.05 841342 654752 1223376 460772 2925272 1591242
1942.94 328966 595988 137876 584796 347794 339880
1945.84 613176 705882 165454 522316 342912 442660
1948.73 245942 670224 551242 208378 232334 582118
1951.62 566812 565538 629284 627670 415746 78690
1954.51 142440 556146 553078 373370 106346 227810
1957.41 547162 240006 574996 521504 215176 806104
1960.30 70160 119252 392350 448456 456 280002
1963.19-223052 113860 117902 351548-14426 582672
1966.08-116840 727186 1259502-97932 438322 392818
1968.98-45928 403770-204330 231424 61416 10270
1971.87 123612 709384 120176 439960 469758 114714
1974.76-411438-69980 10106 64590 174144 372198
1977.66-336786 215102 184746 117900 271098 538242
1980.55 215320 195376-103836 360736-2168-34098
1983.44 195272 64542 213954-182884-59246 271960
1986.33 205914 700278 1140710 503950 223768-203028
1989.23 5942 320672 106624-85648 919516 623262
1992.12 109030 119508 17296 278100-53208 46136
1995.01-207234-47008-98000 194756-315754 217384
1997.90-124902-83292-184784 117178-490374 290478
2000.80 104616-75590-79608 482990 343692 332166
2003.69-34762-4166-443320-60342 363128 634434
2006.58-213060 39296-150904 302408-314530 33852
2009.48 116758 26396 68242-140586-98258 61174
2012.37-40498 317918 196436 61276-108228-103892
2015.26 57470 122270 515390 717678 269128-74142
2018.15 30344-218762-491900-389518 211936-91566
2021.05-25550 262976-26172 118662 174202 25966
2023.94 639062 635752-324102 243646 594642 81060
2026.83-140330 222466-212030 284044 272092 12356
2029.72-369794 396142 126126 179856 379406 440818
2032.62 112724 667538 90074 253042 149754 510052
2035.51 225930 200426 535176-73762 248080 652708
2038.40 712624 501254 186786 452644-104798 800582
2041.29 888020 984464 911878 2774898 1232804 1193688
2044.19 772526 1057086 1061972 1393392 1422474 1318760
2047.08 1441158 1629272 1010832 1417232 1437446 1793100
2049.97 1067336 1464212 1009588 1623758 2840648 2378562
2052.87 2472396 2587124 2538432 2748154 3021648 2840918
2055.76 2369392 3405626 2854328 3331826 3173504 3579970
2058.65 3238038 3278948 3185930 3340132 3680424 4160550
2061.54 4091954 3827022 3970594 4001806 3889070 3764780
2064.44 3919520 4047700 3270344 3785724 3231326 3006486
2067.33 3107784 3026674 3347574 2460048 2877948 2860988
2070.22 2725712 2151182 1757700 1495402 642324 1099574
2073.11 1511940 2983208 4027708 4056090 2296542 2096642
2076.01 4834356 3232718 3257304 2769482 2428094 3441746
2078.90 4416318 3189766 4061560 4355774 4014916 3351638
2081.79 4111296 4079944 3538064 3731184 2992876 4037902
2084.69 5332814 4404884 5187796 4961128 4427858 4020932
2087.58 4150456 3726430 4037328 3695464 4223154 4062824
2090.47 3506966 3649468 3780768 3647966 3620216 3223064
2093.36 3022010 2405446 2336654 2130166 2690796 3004650
2096.26 2639472 2748526 2470764 2023106 2116024 2518284
2099.15 4468432 2586110 1604652 1289154 1479200 1690120
2102.04 1644830 1657542 1453504 979446 839764 592770
2104.93 379114 421424 45410 498020 1423048 898522
2107.83 997932 509476 952290 314526 187130-280
2110.72 728328 1078872-43568 306392 178692 504350
2113.61 153636 532106 39628 1018236 125364-32714
2116.51 82656-266932-363156 1568490 1521934 676214
2119.40 950526-336088 305796 34116 284742 750742
2122.29 403220 413112 516254 13932-22566 333462
2125.18 513452 248762-201322 314530 523778 236976
2128.08 5298-98716-91026 263830 127550 584268
2130.97 545166 867360-109194 71338 245856 185510
2133.86 299344 289518 38082 435406 648552 375184
2136.75 457290 1374930 934652 28736 86014 305654
2139.65 538596-140252 407306 748974 126706 192272
2142.54 373206 18602 274222 280346 484352 216228
2145.43 170662 68592 224398 307492-132218 435418
2148.33 131776 304086-245552 160396 412198-246898
2151.22-182476 562854 75674 267630 543138 315076
2154.11 479056 428024-32200 337678 901236 2653200
2157.00 1108250 36660 819468 345928-53260 530610
2159.90 253308 361322 385548 841372 699308 452980
2162.79 180576 220564 460120 236728 789728 351132
2165.68 749906 441382 322468 162446 384144 242054
2168.57 763732 274004 115024 543428 182924 717024
2171.47 355646 744202 598734 142374 137456-268460
2174.36 407036 722504 884146 1990298 720248 269914
2177.25 484398 16414 311170 326322 803958 558826
2180.15 466114 729214 471110 443684 528492 971164
2183.04 538392-140694 451224 505942 690946 261954
2185.93 947648 1013412 571934 312160 428044 354126
2188.82 522864 1322674 961494 652312 614250 754004
2191.72 714306 750512 967268 785644 922248 839948
2194.61 544684 1476576 1214550 879386 1018890 961564
2197.50 1494926 698732 842836 680890 1194728 1138656
2200.39 1099460 870330 736702 471564 928260 1336474
2203.29 703316 1019414 1110706 1221478 1052556 1329810
2206.18 919528 700706 1167962 754942 1153302 607868
2209.07 984958 557508 1003384 461496 1174164 621852
2211.97 1232156 1462302 1072454 1123044 1181352 1395178
2214.86 2598188 1858800 2289688 1196120 1205914 1438780
2217.75 1747976 1385552 2049270 1449018 1798878 1891600
2220.64 2056178 2309784 2555276 2439748 3223084 2940332
2223.54 3672440 2895830 3419410 3639816 4014314 4474346
2226.43 4577484 4184396 4684756 4695552 5521046 5432004
2229.32 6177876 6634226 6722556 6853236 7751480 7810046
2232.21 8631016 8647194 9339214 9735024 10962540 11365300
2235.11 11564750 12182020 13058950 13775200 14286820 15143790
2238.00 16077080 16539690 17668120 18319170 19772220 20019030
2240.89 21194520 21869780 23216000 23777580 25074220 25719000
2243.79 26800080 27524980 28919080 29409890 30735900 31272780
2246.68 32505410 32649630 34384190 34460380 35502740 36152760
2249.57 37401660 37684060 38209140 37195740 38310800 38161950
2252.46 38556790 37719720 38549300 37746730 38459320 37804180
2255.36 40906730 41243960 35064090 33466760 32566140 31084980
2258.25 30847040 28716350 28654070 27633050 28846680 36097820
2261.14 49965220 24509660 20015040 17402860 19556150 14879660
2264.03 19254350 17662630 29298190 36837910 105180000 48707760
2266.93 12740780 24065440 19118210 25896500 25728670 31250170
2269.82 32726550 36755290 36912130 42159040 42951220 47290760
2272.71 47946470 51253900 52723180 54629700 55112880 57277680
2275.61 57545560 59252450 58681770 60330860 59614420 60266380
2278.50 59903560 59985120 58845570 58759060 57353710 57584510
2281.39 56096850 55384810 54387420 53781510 52520850 51710910
2284.28 50561280 48853240 48208520 46691980 45384140 44321260
2287.18 43688830 42532960 41744520 40799460 40411090 40017660
2290.07 38474020 37298870 37096700 36356070 36257060 35411840
2292.96 36172530 34133100 31659270 31360270 30614540 30043860
2295.85 29134630 30225310 28073020 24791130 25003460 23535520
2298.75 26813710 21070010 25905080 23221770 20179600 15241050
2301.64 16738060 17441210 19472640 19725830 24594590 25537350
2304.53 52052780 49959430 40839940 41048930 34014620 32915110
2307.43 34077310 37588140 36983930 40831830 40037080 39466080
2310.32 39188850 45188770 42431440 45679440 46612300 46182900
2313.21 43721690 46571800 43886980 45477680 43667340 44756740
2316.10 43378460 44569760 41948070 42065100 38672890 39473350
2319.00 37249170 35712770 33360820 33931580 31429020 29386000
2321.89 27549130 27644570 25114150 23409410 21695240 22855190
2324.78 20316120 18549080 16851680 18306090 16537410 14390890
2327.67 13545390 15181500 12930240 11957820 11492040 13471530
2330.57 11112530 9351916 10797500 11352800 8444402 8067570
2333.46 9808726 9412482 6833036 8026542 9810348 7761080
2336.35 5350356 7919864 7894550 5792334 5589030 8072910
2339.24 6549010 4892436 6465846 7642458 4585462 4421086
2342.14 5914808 5552536 4365256 5483710 5060948 4492792
2345.03 5545622 5582548 4159732 3873790 4362636 4496392
2347.92 3906000 3735006 3403668 4255468 3922396 3852226
2350.82 4506016 4130676 3536222 4934328 4532110 3459902
2353.71 5384024 6174140 4581724 6563336 5702098 3528946
2356.60 6255638 6346380 3225084 6882286 5747870 3405598
2359.49 7242908 5210246 3489696 8090814 4828482 4869600
2362.39 8281114 4297748 7400564 8036852 4350326 8781380
2365.28 5718662 5893378 8040908 3884512 6957588 6157272
2368.17 4661958 6996936 4013710 6753594 5195816 5954876
2371.06 7523704 6158798 9829198 7734496 7825166 6723954
2373.96 5290496 5854622 5270424 6207324 5830924 6612316
2376.85 5910448 7631464 6976394 8003372 8590814 11685100
2379.74 8711312 7509230 6388598 6394320 6342034 7517830
2382.64 6567616 7332354 7130720 7066266 7201448 7473862
2385.53 8333366 10601640 11209790 11768060 8735288 8209828
2388.42 7938244 7644160 7301190 7287018 7908700 7885844
2391.31 9352338 11628130 10177970 11908980 12985690 14896230
2394.21 10926850 9252316 9047758 8794506 8922112 9668848
2397.10 9465812 11085650 11960330 15171500 17326260 19832920
2399.99 25398500 15382380 7490758 9122134 8464108 8878050
2402.88 8081938 10641840 11142390 12054320 12681300 13063910
2405.78 13955620 14744540 9136340 8894860 8621594 10548460
2408.67 15977290 12354440 11539800 12318600 13091670 13820030
2411.56 16131680 16532420 11268770 12375440 10615640 10523480
2414.46 10405230 13661820 15572220 15910960 17914910 18797710
2417.35 24260140 30286390 11417420 11137870 9115712 9513328
2420.24 10969360 11904990 12300650 12664750 12547580 13522460
2423.13 13774350 14028690 11859010 9660920 8599258 10776370
2426.03 14189630 12782360 9771020 12402250 18046100 11646800
2428.92 12262560 14207130 17481850 10432700 13522260 11485180
2431.81 15121970 10434810 9945300 7817328 18951610 17345350
2434.70 6793230 10858840 7720840 12008200 14008960 16984900
2437.60 20444590 21312940 9637096 7560792 7940450 8684702
2440.49 9180234 9668466 10751710 11425270 11745080 12214120
2443.38 11322920 9232900 9386244 9435420 9786004 10730570
2446.28 8198534 9323624 9692294 10305270 9131384 8939532
2449.17 7465702 7125674 6329768 7211580 6613164 6032402
2452.06 5923844 6425138 6708606 7972788 8140532 7670222
2454.95 6861382 7920436 8824948 7138106 9381910 9976372
2457.85 8822794 8109976 6816762 7273136 7274092 6738446
2460.74 7489068 7606528 11208810 11236410 10359650 9802030
2463.63 7833748 7319024 7197004 7393278 7001366 7390084
2466.52 6543062 8015188 8082406 7450098 8500248 7848726
2469.42 7102130 6995416 7846006 11344140 9469026 9541262
2472.31 7351586 8110066 6970200 8796028 7347640 10163590
2475.20 10638770 7633814 8197228 7798540 8246418 8558846
2478.10 8022384 8642860 7974194 8276094 8415088 9960210
2480.99 12723260 11883650 9407258 8619052 9214444 8933680
2483.88 8491140 8512984 8759620 9274444 8208396 8369192
2486.77 8134686 8139080 8802718 8097102 7096746 8072090
2489.67 7305620 8732618 10046970 15713740 12471520 9848434
2492.56 8291036 8443772 7882012 7459944 7166496 7522660
2495.45 7245346 6271940 6762182 7226756 7409856 6722276
2498.34 6700276 6540366 5954730 6286874 5949530 6586144
2501.24 7735600 9805236 8864314 9282512 7878804 7789008
2504.13 7097302 6512298 6308200 6141528 5786886 6511132
2507.02 6453772 6640280 6280328 6728472 6808674 6360380
2509.92 5871310 6415434 5996578 6298700 6866720 7798862
2512.81 7709596 7871138 7457940 6366568 5692846 5839334
2515.70 5063608 5557930 4934274 5154450 4980242 5040330
2518.59 4695038 4751756 4659646 5291236 5230260 8067678
2521.49 8711132 7522270 7187362 4289126 5720774 6263728
2524.38 3933048 5075274 4532900 4608292 4113838 4941122
2527.27 4480856 5336848 5180684 4829228 4984532 4969576
2530.16 5153810 5231298 5222748 4798866 4266942 4747406
2533.06 5855400 4548604 5048424 4974742 3385750 3580110
2535.95 3844916 4362810 4063930 3510272 4042134 4325930
2538.84 4194348 3843028 4220070 3742520 3581404 4119954
2541.74 5048972 4941400 3831960 4804876 4566166 4069856
2544.63 2874760 3088186 2624556 3293724 2950546 3053802
2547.52 3138822 3327276 3932010 3373142 2988020 3209334
2550.41 4691698 2977646 2965882 3180766 3666130 3631292
2553.31 3810874 4917558 5592332 4807550 3048794 2859594
2556.20 3293972 3304144 2669758 2633168 3231302 3581302
2559.09 2834936 2810466 2684058 2851410 2258404 2685748
2561.98 2953370 3446456 2466260 3309804 3101792 3501946
2564.88 3741256 4184008 2745656 3528342 2338190 2701866
2567.77 1504814 2038426 2366904 2151892 1964076 2197496
2570.66 2170104 2585776 2324680 2070646 2294396 2261348
2573.56 2237844 2723082 2623020 2602124 2433412 3575626
2576.45 2120676 2418870 2387042 2344144 2338242 2331602
2579.34 1502244 2588484 2477104 2455022 2413350 2866882
2582.23 2932320 2644098 2516476 2873448 2621698 3867632
2585.13 2898346 3753102 3904774 5052198 4128170 3506276
2588.02 4191152 3418028 3448280 3745460 4226484 3609942
2590.91 4743408 4835636 4768028 5682298 5514336 5565034
2593.80 5636280 6253524 5781888 6536452 5754536 6787754
2596.70 7158268 7366774 7440912 8253018 7786738 7686354
2599.59 7664900 8510248 8997506 9628044 9333350 10107260
2602.48 9253352 10805170 9453200 10594660 10188960 10805570
2605.37 11038860 11051150 10718630 11954320 14522530 14910530
2608.27 13455800 14276540 14773280 16831800 15864070 16338550
2611.16 14892220 17365560 15797140 15902140 15630810 16950230
2614.05 16976310 21355050 24270790 20000090 20601080 24670390
2616.95 25967490 24546050 23656190 23123470 26563790 28464140
2619.84 30496680 24014720 26212840 31252770 46383420 33608910
2622.73 27013720 29115410 29870940 22691630 19058030 18717740
2625.62 17975040 14222850 12271630 11246200 11237780 11014410
2628.52 11080650 11522390 11967370 11300320 11935730 11980660
2631.41 11147570 10920370 11691300 11459050 11107450 11151890
2634.30 11229190 11117780 11210360 11294020 10360450 10664790
2637.19 9720320 9440956 9066468 9325570 8977012 8118556
2640.09 8128610 7627364 7143186 7152402 6760668 6269334
2642.98 5806290 5908334 5032744 4740308 4541330 3526660
2645.87 3722738 3696656 3705402 3369166 3522208 3307584
2648.77 4002002 2311896 2425480 2780092 2514418 2347906
2651.66 2684532 2473052 2129138 2344742 2400946 1929236
2654.55 2008540 2131754 2061376 2678618 2254434 2272078
2657.44 2729696 2383366 2539634 2214370 2643290 2997668
2660.34 2396030 2821032 3006718 3455260 4002374 4035200
2663.23 4106982 5156468 4498144 4246358 2906492 2699468
2666.12 3399024 3139274 2156578 2528286 2046432 1689886
2669.01 2190724 2230044 1825138 2918432 904322 1345856
2671.91 951030 975410 657166 925888 988312 2175334
2674.80 2011364 2649982 2810242 3020794 2417518 2495894
2677.69 1882258 1838174 1537778 1685644 2102246 2280628
2680.59 1577300 2205914 1774316 1313714 1545504 1938680
2683.48 1439900 1454250 1886558 1602616 1502464 2039404
2686.37 1160118 1310178 1548876 1333072 1505478 1488324
2689.26 848144 1062800 1505926 2019830 1265094 1207402
2692.16 1325818 1493524 1344294 1068746 1425716 808032
2695.05 790750 1118742 1335630 262820 917690 1191082
2697.94 1109834 430002 184924 314776 150394 852936
2700.83 442544 798634 558334 1071490 1332234 894916
2703.73 332750 883226 1403420 1510126 893628 889276
2706.62 473262 989242 1193064 557498-494178 817636
2709.51 812736 1275232 772120 1358892 1363670 1470736
2712.41 885666 690642 917678 1211992 945430 977608
2715.30 456748 1041308 680568 1594626 1004770 2491040
2718.19 2312156 3405996 2185566 2234698 1164508 1443352
2721.08 1656790 2078780 1885380 2601470 1771868 2227314
2723.98 1962620 2237284 2731498 2167334 1923754 2713518
2726.87 2106476 2587100 3239686 3556298 3002500 2648920
2729.76 2992688 3132670 3475684 3642528 2643142 4377026
2732.65 4044634 4335764 2945682 3813480 3717294 3370042
2735.55 3401772 4292998 3569928 3386752 3637276 3955906
2738.44 3768890 3039140 3599888 3181970 3109346 3445908
2741.33 3069762 4110574 3551562 3368300 3408720 4576838
2744.23 4560552 3242652 3414680 3994738 3146714 3675118
2747.12 2849938 3890226 4057596 3370564 3878012 4170048
2750.01 4438088 4521390 5167224 4650358 4556420 4632000
2752.90 3935800 4292258 4342022 4790932 5738204 5952018
2755.80 5747012 6516248 6261688 7131004 6847738 6735250
2758.69 6188650 5170032 4828562 5175474 5054162 4644454
2761.58 3926850 4407272 4089152 4533458 3573864 3393384
2764.47 3266662 3242038 2840040 3650024 3147498 3746006
2767.37 3059400 2665100 2325244 2241376 2404812 2269424
2770.26 1473922 1828166 1661764 2638402 1732208 2003574
2773.15 1673964 2388356 1150294 2103836 2438606 1669704
2776.05 1894858 1736280 1456856 1536178 1982460 1765758
2778.94 1978622 2086340 1765208 3143850 3199658 2693220
2781.83 2138874 2963302 2175132 1431474 1679084 2364572
2784.72 1672194 1650156 575430 1559878 1415010 1047636
2787.62 1009848 1437042 1576594 1762926 1625092 1156060
2790.51 1228370 1877094 1191352 2833480 2685130 3318650
2793.40 3883592 5045574 6342918 4272052 3345090 2652374
2796.29 1380918 2127560 1485582 1463074 467838 1517342
2799.19 1303406 514114 1063310 995274 1749354 2113644
2802.08 1851430 2590156 1621766 2611200 1705202 2383914
2804.97 2048840 2266332 2788042 3057872 3701726 3492846
2807.87 4117910 5292292 5812640 2850634 2703626 3311648
2810.76 2657396 2795144 2095792 1311264 676198 833496
2813.65 1731360 2266684 3263652 3928314 2684006 2509864
2816.54 2584940 2594278 2778330 3074456 2773602 3171950
2819.44 3135144 3983190 3077742 4242314 4528496 5031856
2822.33 5909130 6718724 3207024 3867280 3657010 3704164
2825.22 4043598 4511206 6192784 4843730 4207666 5574552
2828.11 4203272 4385062 3988694 4035748 4454870 4770030
2831.01 4449040 4037780 4195970 6009210 6565496 5920068
2833.90 6336378 7058182 8483770 8592948 7955384 6550502
2836.79 9460138 13703660 14744710 9479090 8297434 7117236
2839.69 6613202 5459446 3472916 6387164 7111052 7480116
2842.58 8683862 9904542 10568040 10301070 11143860 12508350
2845.47 12288540 12949540 13288530 13872920 13727180 15104380
2848.36 17401200 16281200 15528860 16948620 16182650 17276640
2851.26 16918450 18690040 19559420 21817830 18502150 19226410
2854.15 18728860 19571330 19214010 19652190 19121450 19470540
2857.04 19005150 19825180 16794620 19619690 20095550 20648510
2859.93 18837540 19003760 19645910 16721410 16015970 16768930
2862.83 15950100 15046800 18746240 18291400 17881740 16254670
2865.72 21391050 18238050 35568900 29801270 19457810 54894980
2868.61 28062620 22414250 23404530 24498310 27802470 23469410
2871.51 26674330 26211620 27520370 27559470 30465770 31046380
2874.40 32577320 33172170 34353910 34241660 36663670 37241290
2877.29 38940380 38320530 38759590 38127220 38830730 38905030
2880.18 37730600 37530220 37616960 36805200 36685190 35856220
2883.08 35621000 33681020 31169230 29725390 26956970 25760620
2885.97 24874770 23430930 22785030 22502390 24468470 24658030
2888.86 23085410 22419800 22612270 22494420 22398220 21685820
2891.75 26557030 27315850 23655460 25795000 24692430 24364820
2894.65 23240300 23536210 22906860 22587490 23407630 22732910
2897.54 25728260 26257620 23934120 25883530 26047740 26037570
2900.43 24308660 28357990 26020660 27890270 25604020 26868350
2903.32 25382120 25265650 24603840 27228230 27366380 23739260
2906.22 25302760 26923210 26122630 24321690 23447650 24038100
2909.11 21537390 22352220 24005210 24392970 21237900 22146100
2912.00 19569130 20994070 19217040 25422580 21172380 18459680
2914.90 19032240 19170250 20442870 19438780 18723040 18150400
2917.79 18975330 19239700 19638720 21721220 19288840 20076490
2920.68 19977900 23011120 22923950 22403990 22284080 20594250
2923.57 19738670 19475370 19013310 19267590 17240930 15780090
2926.47 21887670 25280450 29238090 34150720 36265990 43518710
2929.36 31985320 38387410 37778310 38629600 44244770 42187860
2932.25 41531580 44134120 44957570 47905880 49532990 52938820
2935.14 53107350 57649030 56777540 64912310 63710120 79443740
2938.04 70219680 70199450 74533560 79936760 77249310 74756010
2940.93 76862700 78381610 79503640 77749360 79961540 80391580
2943.82 79511460 81385390 88899860 80646500 88836870 76561320
2946.72 94562260 73516320 66078480 62383580 56103540 53557210
2949.61 48526640 44844870 42809410 39633550 35502740 31991290
2952.50 50514830 77420690 83742770 73035170 78575480 78576660
2955.39 35375080 35075480 21638100 69287010 52830840 25928840
2958.29 41588580 42670970 61302140 56372780 62247590 62176880
2961.18 68495690 70208980 76313680 76351980 82198580 76286740
2964.07 81491050 83555660 94953200 91648280 133042700 116352000
2966.96 83464700 105058600 87319810 91919960 85467190 89185260
2969.86 81992910 87045300 79238950 81826570 74948900 78699990
2972.75 70806770 73328150 64317020 72302610 66235490 93572940
2975.64 121705900 55540340 68077820 51833830 49876470 49401900
2978.54 43194660 44433020 39387100 41400810 34086020 37554980
2981.43 31504420 36067380 25162460 35937740 23713460 46060370
2984.32 42314060 198192200 83060300 36133940 49407950 12332950
2987.21 32246000 9535982 26710830 10088450 22843480 8676228
2990.11 19220850 9154616 22310200 11656720 26150890 10898170
2993.00 33013120 17060600 92021740 102550000 19082960 41483750
2995.89 9285244 23056520 10115930 20330890 14170550 21178550
2998.78 15520200 21656820 15928530 20505480 16006460 21315120
3001.68 16310170 26313130 27664180 61535100 148387000 33132690
3004.57 36458520 22532830 22582710 16966470 18473390 17138480
3007.46 17683650 17647590 16377300 17491840 16227460 16134970
3010.36 17321250 18708830 21694250 56076660 62837400 294852100
3013.25 73520510 52845810 36713920 23651820 20901140 15577130
3016.14 18153200 15941900 19296800 16948860 20102360 16801670
3019.03 20357820 17108870 22818020 19193130 32159620 45902840
3021.93 160597900 63341650 35641020 28859750 19778770 23963530
3024.82 16919310 21258780 15366090 17461930 11191990 18377030
3027.71 17029990 21504320 18128990 23626990 19253820 34015460
3030.60 52201530 152058300 50386210 35816880 23447230 20331100
3033.50 18509700 17246910 17058620 17502440 15863450 17931430
3036.39 14674110 17058810 12680840 17392900 14103630 27827030
3039.28 27752260 117788600 243198700 42031410 58765090 13911290
3042.18 29181260 12384000 26353430 13625340 23716280 13740060
3045.07 22737990 13977170 25192090 13391350 26812140 13738320
3047.96 32827240 25722120 98822570 85768590 24898630 31623210
3050.85 14959030 22924240 14464880 21734320 17247420 19553990
3053.75 15198920 17830260 11816380 15389920 16867590 18773590
3056.64 19318120 26989290 40734470 96713700 35840630 24855500
3059.53 18966980 13882480 15930220 11840650 14202840 13217370
3062.42 15701740 13175940 17591680 13865280 16929370 10396460
3065.32 21468930 9918920 85007540 77689140 43698460 39793240
3068.21 19217660 21492220 9725582 14287990 8310490 12788420
3071.10 11457930 18887070 12071210 18064050 12062390 18043520
3074.00 12674730 21761330 18112290 51129720 42542510 16694070
3076.89 16765650 12058180 13234010 12441960 12254970 11154650
3079.78 10857420 11649910 11745960 12828180 8625852 11969930
3082.67 11669140 15973970 15301240 34752020 32517720 12491840
3085.57 13321640 8027632 10281240 7998706 9232976 7626332
3088.46 7614036 8036274 7623216 9298072 8393806 9548650
3091.35 10031090 15060100 7502922 45451170 30166780 8487352
3094.24 12063700 4834352 8857736 5110840 7399902 4497570
3097.14 6821884 4474910 7468636 4553748 8429490 7623056
3100.03 9032682 9894494 12850600 19424950 12676540 8753114
3102.92 8893140 6167132 8056088 6503998 7207464 5642602
3105.82 6250384 4727708 5117566 3901716 3382318 4245040
3108.71 8578556 7465488 11633600 9871508 6666840 5936216
3111.60 5554654 5604762 5035848 4841134 4452848 3822038
3114.49 3851528 3814184 3317938 3939524 2903188 4556280
3117.39 4383540 7706666 11561880 4094712 4535542 3745806
3120.28 3213874 3331194 3997518 3406174 3130422 2956800
3123.17 3429046 2432286 3719448 3135778 3317076 2691534
3126.06 4573332 4616226 2947072 3968972 3732000 4099292
3128.96 3044154 3570334 3850128 3428914 3135004 3698504
3131.85 2113672 2871120 1782810 811148 2131588 3716430
3134.74 4676110 4726234 4879320 4223668 4461076 3531470
3137.64 3422272 3365348 4956012 4571504 4254734 3965478
3140.53 5850634 4947452 5249848 4457810 5161672 5668540
3143.42 5113724 5464354 6221326 5171278 4955368 5753280
3146.31 4794264 5966508 7032162 6421410 7592160 7889120
3149.21 8063754 8075936 7874292 8984080 8774278 9063572
3152.10 9136490 9788966 11420420 10580800 11862830 11558040
3154.99 10977380 11874180 13588020 13016730 13617000 14272040
3157.88 14784020 13939220 15633090 16632810 17478990 17490410
3160.78 17142800 17763720 18973710 19482240 19330120 20208040
3163.67 20236780 19880770 20827690 20338360 20408450 21031500
3166.56 21656750 21629950 20706900 21334900 19978590 20310430
3169.46 19975870 20282650 19193980 18806620 18105480 17650770
3172.35 16442830 15671790 15291930 14305100 12614750 11859430
3175.24 11367110 11507340 11005630 14731470 17691550 30495220
3178.13 35491220 12165120 17327520 16918440 8425928 7023642
3181.03 9143860 8628138 10646610 12004280 14273950 16637120
3183.92 19768060 21625950 23270890 25969210 26692290 28641060
3186.81 30106350 31161160 32237570 33873620 34824590 34969930
3189.70 35563720 36039210 37377850 35994870 36103800 35374440
3192.60 34411560 33814260 32517260 30579690 30272000 28658390
3195.49 27247030 26150000 24649130 23060090 21721670 19427660
3198.38 18712270 16374180 14748140 13679720 13210160 11383060
3201.27 10547570 9464288 9285168 9120060 7388612 7632982
3204.17 7455592 7335484 5967736 5899508 6734382 6193828
3207.06 4713260 5270922 5774326 5684134 5802308 5766720
3209.95 5379962 4405640 4740046 5254272 4817326 5194446
3212.85 5240770 3477038 4179092 3225696 4912300 4366712
3215.74 7363546 7507508 7373968 5716248 8020856 8246868
3218.63 6737266 6568440 6853882 7582740 6500584 7630464
3221.52 8424770 8717238 8770094 8151190 8837010 8809714
3224.42 10093640 8574554 9474706 9016096 9628364 9532256
3227.31 9782060 8892070 9093786 8024252 8489872 8950970
3230.20 7650602 7299896 6109584 6751462 7065280 5342388
3233.09 5112492 5353524 4040128 5185510 5590044 4385870
3235.99 3824848 3386154 3048348 3592422 2742256 2363098
3238.88 2626272 3370228 3065586 2813404 1870384 1406504
3241.77 2018534 3221514 3797748 1077324 2608946 1831452
3244.67 2306346 1771608 1876142 1797272 1746282 1944372
3247.56 2264366 1576304 1575108 739554 1713320 1374974
3250.45 2131102 1588552 2215492 2243936 1402794 2143876
3253.34 1274528 1339004 1329300 1366420 3243724 859664
3256.24 2079784 2421790 1416860 3004006 1835328 1024452
3259.13 1328962 1903614 1966756 1985508 1745658 579472
3262.02 1118710 1214744 2004582 1779676 1542456 1322152
3264.91 2419176 506130 2519242 2364450 1685742 2629310
3267.81 1469470 814240 2336232 486638 1756414 1893204
3270.70 1445778 1556838 2604562 1535694 2469496 2366736
3273.59 889026 2321240 1384826 1471788 976014 1670824
3276.49 1849184 1269166 1854278 1073584 2013330 1496758
3279.38 1851408 2444118 1305930 1815086 1324634 1715006
3282.27 1209004 940492 2211236 1477294 2107148 1557318
3285.16 2007554 2097148 2796722 1751434 1768880 2030382
3288.06 1660336 2206462 2267288 1569412 2266366 2107742
3290.95 1750968 1146880 2192856 2041650 2713976 1958876
3293.84 1900950 2755954 1817680 1076916 2074700 1406960
3296.73 2820650 1164780 2187964 1490176 1803390 1968880
3299.63 2598794 2261580 1945948 1891122 1601622 1700210
3302.52 1819742 2259562 2594676 1582998 3144888 2741814
3305.41 1954728 1110868 1827760 1885084 2422532 1722008
3308.31 2435016 1862170 2340212 3415126 3644290 2028694
3311.20 2572630 3480080 2474612 2706990 2410374 1498788
3314.09 1962378 2546532 1781766 1235080 2858396 3269416
3316.98 3053700 2961594 2897550 4665296 4472532 2765164
3319.88 2854480 2063920 3423148 3755740 1743264 3110834
3322.77 2181648 1802784 3014560 2216438 2860848 2245886
3325.66 2503964 2181786 3497890 2856592 2892168 1933486
3328.55 3497936 2440334 4421540 4194274 4385566 2582936
3331.45 3313214 2233576 1730088 3229370 2955778 1768834
3334.34 3174494 2402842 2606824 2882940 3465712 2899370
3337.23 2324584 2953624 2770230 3777642 3248860 2452080
3340.13 3258922 3572318 2529614 2972604 2096798 2324904
3343.02 3229178 2154782 2818204 2999814 3094448 3130832
3345.91 2967680 2039456 3846186 2744684 3080882 2359852
3348.80 2497404 2299784 3574790 2885340 2570700 3972102
3351.70 2438876 3665326 2921736 2917330 3190564 2904018
3354.59 2806902 2867478 4158180 3963624 3574410 3667338
3357.48 3058236 3655144 3577078 1779358 3048120 4502642
3360.37 3326650 2667190 3909518 4255274 3076326 3085000
3363.27 3765632 4196000 3875742 2742360 3185576 2730028
3366.16 2469422 2990168 2871326 4424010 2652072 2930478
3369.05 2171140 3352284 3384480 3202280 3939882 4118928
3371.95 3328072 3326610 1937988 3718656 3129836 2659370
3374.84 2231504 3694702 2772208 3091476 3339124 3305300
3377.73 3419054 3654798 3431962 3015384 3273694 2429140
3380.62 3331430 4566246 3575082 3881628 2989580 4146180
3383.52 3473136 3708604 3261216 3406942 3908030 3426432
3386.41 4116546 3277106 3248700 3417474 4197568 4159546
3389.30 3627020 3625402 3574124 2688916 2361272 4634546
3392.19 4171376 4183692 3382238 3193042 1977918 2450386
3395.09 3276598 3204262 2965336 3365110 3475324 3290722
3397.98 2757144 3036442 2409232 3190908 3619892 2669148
3400.87 2528402 2774004 2785792 3037866 3486788 2706150
3403.77 3124262 2710144 3019730 4291674 3057746 3329990
3406.66 4142294 2378510 2737694 3191038 2187114 3847256
3409.55 3536664 2028746 2817588 3942340 3657814 3356882
3412.44 2424126 3027734 3299778 2501916 2936598 3595288
3415.34 3156164 3687550 2246532 2054446 2916084 2326162
3418.23 3005472 2891038 2856346 4259042 3048444 2038290
3421.12 3345896 3057786 3674166 1949666 3507096 3618216
3424.01 3581442 1976582 1979070 2414164 2772670 1651392
3426.91 2714056 2373866 2056290 1761996 3904318 2244170
3429.80 2952498 2253694 2276812 3511630 3244392 2273546
3432.69 1992460 2793704 3518192 2613774 2093410 2387506
3435.59 2543338 1756356 1742240 2739498 2520800 2482166
3438.48 3090284 2506664 2101786 2541670 2018356 2299244
3441.37 2935460 2052028 2181296 2445562 3279908 2249686
3444.26 2230170 2102206 2090800 2172668 3412286 3346474
3447.16 3130946 2025572 1913232 2852228 2117620 3282490
3450.05 1529094 3386014 2138780 2643762 2521000 1910416
3452.94 2895174 2164910 2909352 2022770 3132398 2294814
3455.83 919884 1545178 1677358 2690106 2754162 2593050
3458.73 2340094 2020790 1978086 2649846 2583350 1279942
3461.62 2063994 789192 2184664 2043130 1649532 2832182
3464.51 2166260 1610780 1056108 2278164 2523692 2727266
3467.40 1951480 1530728 1089542 2150240 2547900 2079004
3470.30 2063622 2434096 1956268 2170492 2155734 1294838
3473.19 1686892 2930532 1539040 1151708 2135684 2395830
3476.08 1785320 1848840 2141500 1827112 3374894 2338272
3478.98 859816 2318948 2149974 2454850 577430 2899414
3481.87 1414314 1781150 1398566 2203882 1485678 2874960
3484.76 2563358 1399588 2009726 2339364 2370860 2063956
3487.65 2128476 1916824 2105478 1352704 3223380 2680046
3490.55 1474540 1535466 1336242 1468412 1924310 2219352
3493.44 3245714 3048768 2027482 2234836 1831750 1797964
3496.33 3186342 1976620 2764260 1397642 2022714 2399998
3499.22 2909144 1763022 2236802 2230360 2207848 2071758
3502.12 2121276 2143474 2473912 2645420 3048568 1953642
3505.01 2794306 1429032 2636960 1224424 1266736 2401878
3507.90 2670146 2668780 3940048 2841610 2506114 2560796
3510.80 1510174 1583832 1890796 2271700 2681990 1531904
3513.69 2575812 2662798 2358374 2186694 2532652 1684846
3516.58 3262050 2290636 2608394 2279464 2646266 2992834
3519.47 3282016 2097122 1699472 2116740 1695726 2708186
3522.37 2525230 3611312 3414444 2317972 2426192 2372384
3525.26 2907840 1901640 3111648 3533570 3111892 2072176
3528.15 2100126 3573458 2932296 2420764 3789126 1800932
3531.04 2452500 1984670 2429104 2427240 2088172 3699368
3533.94 3426846 1827154 3112142 2768018 2613394 3028636
3536.83 3871044 2135736 3239638 2878092 3357532 1802920
3539.72 3438742 2853116 3292184 2714802 2631394 2557936
3542.62 2715694 3019252 2750492 1992826 2943398 3496276
3545.51 3164474 2848470 4284448 2308524 3105604 1877332
3548.40 2319092 2185328 2595592 3052994 3206522 2689914
3551.29 2323342 3641664 3208478 2456158 3279366 2046256
3554.19 3151930 2207952 3558316 3337168 2482598 2086408
3557.08 3272610 2555396 2250120 2390684 2260168 2724720
3559.97 2929488 2713030 2467320 2344040 2500194 2460234
3562.86 4009088 3302624 2938680 3043748 3602864 4134218
3565.76 4064886 5858268 1816056 3968806 7111430 2950582
3568.65 3417990 2472730 2420682 1530008 2240726 2164130
3571.54 2282734 1756468 3724610 2396054 3000462 2730834
3574.44 3048766 2111546 2458610 2526688 2512010 2847520
3577.33 2613716 1678084 2489920 3800202 3094952 2441032
3580.22 2622804 2819518 2112060 2772476 3213102 1265342
3583.11 3587588 3743870 3209404 2174916 4108564 2135702
3586.01 7504436 4678762 3963684 2515794 5558768 8599336
3588.90 1124618 3417054 2350448 3249200 2500826 2917386
3591.79 1544554 2850150 3724300 1844704 3311218 2241352
3594.68 4482126 3141266 2944910 3542928 2612428 3373738
3597.58 2713248 3311438 2288730 3074640 3017948 2561010
3600.47 4304070 3318784 3102470 2558470 3579202 3293370
3603.36 2959536 2222512 2829640 2727896 2549016 3204096
3606.26 3974480 5441298 2207322 3553720 3160744 12190650
3609.15 6885256 1788044 4065410 2965392 3389922 2910956
3612.04 9027306 4660788 3622246 2679598 5319074 4134370
3614.93 4464098 3333098 3635450 3178768 5753140 6516362
3617.83 4440068 3900242 6218360 10980510 2593100 4901784
3620.72 4056116 3394208 4295888 3520902 3499986 4373104
3623.61 3491168 3375662 3824846 4372962 4874918 4712632
3626.50 3147196 4209068 6171914 16191380 1980564 15121580
3629.40 11708190 1783674 5817416 3225700 4911488 3593310
3632.29 4719036 3345876 6625476 4024830 4368580 4090922
3635.18 4640244 3831096 3971362 4597576 4453906 4763410
3638.08 4214192 4021204 4288978 4365000 5689608 3285620
3640.97 5046048 4460778 5600352 4442964 5427060 4192442
3643.86 5080944 2983190 5679354 4388402 6971850 6755176
3646.75 11647980 7865868 6482162 4862248 20076410 11708720
3649.65 4588124 11142680 8050250 9946984 3913838 5745494
3652.54 4746594 5631362 4964180 5147836 6131606 4820706
3655.43 8908226 15106500 5267746 5990826 4148854 6103140
3658.32 4498396 5058140 4427128 5422320 5240306 5332906
3661.22 4967596 5514056 5113658 5030898 5359184 4609874
3664.11 4062760 5960190 4630222 4872532 5041544 4551944
3667.00 4776852 4894482 8393418 10380200 4395332 5256532
3669.90 10698400 23424910 3015144 6388416 2214070 6519556
3672.79 3003720 8211456 3923522 13996170 9621784 12430910
3675.68 21122730 4154674 6637816 5412650 5718988 4249358
3678.57 6682422 8465134 6000962 6525918 5480264 5845292
3681.47 5855820 6119078 4659658 5768028 4561778 6729740
3684.36 5204184 5773336 3961574 5955806 4264780 6196582
3687.25 2485348 20673320 18887910 2714250 5856120 5038872
3690.14 5751250 9082380 8945380 3504220 4734180 3285510
3693.04 4835096 2793378 4439922 3380924 4254760 4739206
3695.93 4042682 4509974 4045234 3938388 4381850 4072880
3698.82 4406454 3960102 5832664 3200014 3792844 7663286
3701.72 6242446 3517114 4808182 3708812 3880400 3096424
3704.61 4463188 4169838 3841988 2676606 4724486 4248992
3707.50 4322050 3666704 4854720 10175200 4325926 2977696
3710.39 5765558 3182726 10452380 17664610 4109454 4726720
3713.29 3390770 4005846 3465296 3731580 3532292 4291782
3716.18 4140158 3933286 3295734 3831422 4485732 5753042
3719.07 2305952 4132674 3853844 4550402 3346418 6839664
3721.96 6567534 3711972 3969518 3685758 3169928 5788428
3724.86 5495968 3002866 7057720 7548794 2537194 4711050
3727.75 3318962 3442254 3084244 3377594 3621954 2883656
3730.64 3839274 4658874 15037110 8040762 2480178 3792586
3733.54 3775426 8002894 7550594 9364094 2038468 10836290
3736.43 13547690 2157912 5119346 5221002 4062074 4154380
3739.32 3452866 3228830 4286028 5946478 4499328 4125588
3742.21 4152972 3757076 7681714 15867080 31594790 12705420
3745.11 3584862 3990810 2828134 4215310 4228104 5055992
3748.00 3207974 10294370 24604170 6778312 3695788 5921114
3750.89 3569982 13011490 26610650 3205640 5582468 3144314
3753.78 4619724 3057794 3921686 3162222 4860532 7161432
3756.68 3324058 4110470 4326030 3942214 4550452 6371500
3759.57 8541846 2972158 4627036 2259512 3805528 3676858
3762.46 3702478 3139412 3976356 3246958 4061966 4501110
3765.35 8701104 3291922 4607044 2303200 5055134 2856632
3768.25 4530380 2581240 9177452 8603486 2800334 4156392
3771.14 3179008 2969018 3936792 2846282 3427398 4428680
3774.03 3324644 3751062 4202716 3237472 3759734 3229094
3776.93 3656602 2939164 4184066 2639316 7706724 6635008
3779.82 2473942 4083804 3110182 3498922 3595012 3278592
3782.71 3970862 3925354 3233666 4588556 3809998 3882594
3785.60 4454370 3310290 2879628 3296388 3941158 4563382
3788.50 3737204 3733550 3509974 3005820 3740528 3738190
3791.39 3793970 3573162 3633656 3755936 3317886 4375664
3794.28 2599718 5442450 3444466 7515050 7282136 3658122
3797.17 4518190 4328398 3203692 3702196 3134496 4883686
3800.07 3761070 10842620 24127880 3949328 5246606 4601210
3802.96 4714306 3554030 4681374 4729394 3689626 4743426
3805.85 3641288 15078880 13771510 1211980 5734984 2698660
3808.75 4103182 2593400 4894962 3254054 3963748 2992584
3811.64 4507208 2030564 4280900 2800588 4445456 3512360
3814.53 6304930 3339256 25625210 11952110 2404866 5511936
3817.42 2747582 5250890 3393830 4399698 4618222 5711340
3820.32 12647040 6006546 14241300 4874958 3542274 4082688
3823.21 4008414 4261674 3972540 3024076 4780488 4673226
3826.10 6353044 5769392 4114732 4899074 3638400 3792846
3828.99 4396256 4421894 4157318 3246532 7117578 10192740
3831.89 2235960 4719572 2079318 5758964 3176304 10563550
3834.78 6626324 4280312 4198674 5849388 2836572 21715930
3837.67 17705460 980816 6095184 3986628 7356846 3454488
3840.57 10442760 3950850 4392760 4686222 3985482 6551046
3843.46 7660346 2991400 6022688 3497992 4350832 3148424
3846.35 5378472 2336962 4884964 4136012 4517168 4002180
3849.24 5489670 3761444 5465266 3885000 11640600 22917840
3852.14 4733308 6637266 9704512 30737880 21519030 4081920
3855.03 5116984 4334642 5540818 5008708 5947268 4183076
3857.92 4761734 4351840 5420710 4239032 4462906 4721472
3860.81 5106064 8683876 5430268 4329320 5623984 4718192
3863.71 7530530 6807206 15761850 4185806 4989778 3909930
3866.60 6093236 3606074 5724320 3634198 9880450 6577378
3869.49 17027820 11727950 2332268 7408656 4031682 5280072
3872.39 3462746 5243266 6247960 9849822 6277138 3845804
3875.28 5061738 4427146 5192330 4963230 3784474 4687480
3878.17 4731566 4515322 4458240 8987944 8518880 6166638
3881.06 5618892 3994490 5009336 4632720 6513828 3137444
3883.96 6272718 3427718 12256270 14450570 5209752 4217982
3886.85 4578824 3863304 4315268 4854722 6242310 5480242
3889.74 5046104 4416816 12525590 8508312 4647892 5423176
3892.63 3868134 4896924 5417752 4072610 4866996 4996538
3895.53 6121386 5640528 5123474 5056462 5925898 5131826
3898.42 6750292 12845800 5630718 4580330 5202800 6274262
3901.31 14089940 7815142 5953088 5441594 5788506 14417190
3904.21 6112994 6931930 6495736 7324932 6419662 5747472
3907.10 5290332 5421174 5803946 5325630 6986466 6105094
3909.99 6638470 6323332 7039666 5298690 5780720 5928486
3912.88 7276858 7558248 6860454 7461382 6757894 6686354
3915.78 7444612 8471718 15328290 6192028 7044136 5985080
3918.67 7336856 6514740 9036684 7472560 8039618 8052644
3921.56 6334560 6271370 7874136 7387952 8153770 8381002
3924.45 8949500 8363716 7364966 6284464 6997316 5820318
3927.35 6073794 6174484 7632568 9211022 7386606 6787694
3930.24 7865902 7432844 7395948 8980020 10555520 6720016
3933.13 6717898 7549342 7884926 7514850 7158200 7270392
3936.03 6746690 6926644 6291814 6838030 8149784 7943530
3938.92 9184228 6859824 7659030 6603454 7551008 6229932
3941.81 7701206 10190790 6676248 8293528 7948252 9841576
3944.70 11205660 6702602 7836526 5972972 7967514 7882984
3947.60 6592518 7729386 6331598 8276880 10010930 8164354
3950.49 6632562 6791946 8177446 7921980 7395836 7549524
3953.38 7528754 17458990 13419370 5296066 6950614 5819834
3956.27 8176690 6648306 7493394 7050082 8172798 7005578
3959.17 8005714 6920376 6767870 6933354 16224500 7536748
3962.06 7328670 6358354 7897508 7016620 8402092 7831468
3964.95 8067994 6963264 9468806 7533834 16118600 14288050
3967.85 6508210 7418074 7679242 7551826 7344446 7263112
3970.74 8344366 5605760 9157938 4855674 20474940 24257240
3973.63 4918418 9321776 6519346
##END=
