##TITLE=Dichloromethane
##JCAMP-DX=4.24
##DATA TYPE=INFRARED SPECTRUM
##CLASS=IUPAC A
##ORIGIN=NIST, Analytical Chemistry Division, 301-975-3108
##OWNER=COPYRIGHT (C) 2001 by the U.S. Secretary of Commerce
##DATE=01/06/01
##$SPECTRA VERSION=1.10
##$UNCERTAINTY IN Y=2.1 % relative (B=1.12E-04,C=8.08E-10,D=1.49E-14)
##CAS NAME=Dichloromethane
##CAS REGISTRY NO=75-09-2
##MOLFORM=C H2 Cl2
##MP=-95.1 C
##BP=40 C
##$NIST SOURCE=QUANT-IR
##SPECTROMETER/DATA SYSTEM=IFS66V (Bruker)
##INSTRUMENT PARAMETERS=KBr Beam Splitter; MCT Detector; Multipass cell
##STATE=gas
##SAMPLE DESCRIPTION=Dichloromethane Primary Gas Standard
##PRESSURE=101.3 Pa
##TEMPERATURE=23 C
##SAMPLING PROCEDURE=1 L/min Flow
##RESOLUTION=0.9640
##DATA PROCESSING=Triangular Apodization
##XUNITS=cm-1
##YUNITS=(micromol/mol)-1m-1 (base 10)
##XFACTOR=1.0
##YFACTOR=9.0949E-13
##DELTAX=0.4820
##FIRSTX=575.17
##LASTX=3974.606
##FIRSTY=5.94E-07
##MAXX=3974.12
##MINX=575.17
##MAXY=.0008386
##MINY=-7.29E-07
##NPOINTS=7052
##XYDATA=(X++(Y..Y))
575.17 653651 727772 77635 140421 82404-418942
577.58-222513 148085 170268 639221 114394 63883
580.47 201790 231934 21245-801713-454296-245415
583.37 90608 374073-29687 217638 583839 460469
586.26 11477-11677 5090-26336 45638-51396
589.15 220988-19874-445655-511667 54208 578094
592.04 574790 539478 314033 144826 349929 725557
594.94 630884 162229-67796-337784-368385 55544
597.83 143216-31436 111423 465428 371293 68291
600.72 30371 337326 564990 667101 491508 37455
603.62 270523 399684 89791 26823 52654-281793
606.51-1791 501540 147497-42448-98670-262830
609.40-178702 25881-32031-80297 148664-16576
612.29-37930 48925-72535-295480-361978 28939
615.19 216381 64615 1700 98692 83024 166168
618.08 350873 228525-89465-53900 114510 130824
620.97 205161 215999 93513-167424-259397-119173
623.86 187598 121198 6835 376330 107776-99807
626.76 315940 423571 280973-40947-100779 4608
629.65-149976-167580-309707-172372 147036 64074
632.54 179892 314050 246911 233933 475772 687630
635.44 513357 224665 262299 374635 348938 276397
638.33 268941 347633 425769 395612 294293 490857
641.22 575220 390032 274754 536644 649752 503249
644.11 561118 420880 358341 392229 434665 608674
647.01 654875 594727 595555 594715 526863 605750
649.90 709014 915261 1105333 1028685 874968 884566
652.79 1231364 1495859 1491703 1683591 1756523 1491954
655.68 1481728 1536227 1448374 1575353 1910816 2156900
658.58 2338387 2497790 2599818 2523980 2506593 2714283
661.47 2996695 3185166 3073860 3160024 3561227 3742920
664.36 3728028 3884306 4123819 4505207 4776730 5438218
667.26 6331854 6246442 5816356 5663536 6021196 6617029
670.15 6716942 6663704 7005173 7430456 7854681 8191227
673.04 8067782 8021288 8472621 9034630 9575830 9816846
675.93 9818115 10070611 10532528 10884954 10946946 10999666
678.83 11286813 11708715 12267375 12775571 13170631 13718868
681.72 14079521 14261127 14663793 15214558 15821830 16313299
684.61 16696823 17259269 17798315 18074388 18371626 19001196
687.50 19530821 19791311 20231063 20791732 21525487 21938393
690.40 22362132 23069721 23316082 23577354 24525876 25296287
693.29 25612218 25933008 26701487 27459999 27586728 28041936
696.18 29018629 29954010 30228507 30438270 31814194 32742040
699.08 32623064 33142621 34554073 35279062 35415893 36514382
701.97 37986602 38551809 37836683 36896381 38591564 41710702
704.86 41513448 39962129 39727222 39129485 40581814 43075505
707.75 42156050 39044229 36979643 38311754 41061791 39911241
710.65 35569270 34093196 35303878 37600765 35753337 32585385
713.54 34195643 36601826 36249008 35652939 36664061 39743983
716.43 43767800 45675443 47437159 50212042 53335186 57969783
719.32 64631033 68616890 69127916 69777787 73417327 77562409
722.22 79867822 82037343 83238022 84668227 85379050 84436992
725.11 83827472 82303512 80246019 81501430 84221940 82084497
728.00 77841087 75887071 75692023 77683028 80823750 83643045
730.90 86351310 89557179 93708616 99654594 106706098 114716329
733.79 123971347 133161306 142457375 153441463 165841224 180141982
736.68 196965999 215242159 232986700 250702702 271634974 295825766
739.57 321547162 349335425 378356446 408420768 441036940 475362691
742.47 510574614 546823208 582781017 618480803 655152779 692784162
745.36 729049911 763767435 795880778 823600532 849451845 875663954
748.25 898999871 914984491 922150498 920399268 912302113 904014893
751.14 899157477 885705405 856691687 819278692 784265625 753350738
754.04 732573984 731136721 732889732 731832770 709800556 692061243
756.93 680745018 686033944 735641412 759790792 720413280 626549925
759.82 575730831 600735075 646898303 694714130 731923942 759739185
762.72 778673046 789666597 792444057 788671860 778046826 761541959
765.61 739443131 712335458 681083421 645216283 606372124 566820063
768.50 525510107 483045731 440638761 398827294 358463502 320368756
771.39 284507380 250758453 219378791 190888702 165145760 141810739
774.29 120915520 102562257 86495243 72526413 60554573 50258447
777.18 41496344 34283920 28253815 23268521 18991647 15622610
780.07 12890093 10644934 8880689 7491411 6471169 5604403
782.96 4783657 4078610 3637852 3452579 2918206 2489495
785.86 2263677 2064802 2155877 2098718 1870092 1739703
788.75 1569838 1564200 1689421 1616578 1464702 1573652
791.64 1408078 1151679 1219482 1074150 1069702 1128871
794.54 1053182 981758 985291 1038555 1070321 999801
797.43 931713 949940 824593 711169 612773 621997
800.32 704496 748377 884397 871751 721919 654922
803.21 595252 517325 450405 571037 657457 637771
806.11 544015 448542 558087 549479 491505 459553
809.00 395185 432475 491186 527423 302869 114497
811.89 312672 582348 588762 483363 449664 483881
814.78 511045 430377 351900 268964 282912 483747
817.68 517268 322861 218811 274963 262039 321131
820.57 389160 337626 345588 341466 287629 273537
823.46 133625 155635 331953 267975 223166 377665
826.36 340764 299024 383640 261551 85098 61557
829.25 164406 187275 173195 160632 187463 189955
832.14 232016 305545 145418-3315-27525-38478
835.03-24649 35031 72062 127546 285068 297483
837.93 183177 133216 64269 45014 121405 214129
840.82 168954 155379 75707 59316 112689 93051
843.71 209944 199209 92091 111770 173930 201319
846.60 217242 65158 45466 212420 301340 442928
849.50 387677 246408 117225 20557 67663 176656
852.39 252372 140441 134047 261485 314850 285224
855.28 255578 302266 399119 342009 171288 185616
858.18 187034 155315 183130 230036 314761 471336
861.07 550089 526735 563246 647014 645177 629287
863.96 601507 507317 585809 633085 532563 597719
866.85 834903 925504 760421 810113 929327 842903
869.75 845465 977885 1173505 1113000 1078368 1290303
872.64 1409532 1416312 1399102 1509316 1555088 1517803
875.53 1646521 1779806 1754084 1703113 1870791 2080209
878.42 1902536 1794805 2113433 2348088 2306050 2231763
881.32 2364953 2402366 2221126 2197061 2461075 2573052
884.21 2437395 2598791 2823266 2784062 2513719 2542284
887.10 3076426 2992766 2557368 2546705 3004183 3093546
890.00 2607355 2403311 2734778 2986568 2795917 2798206
892.89 3211653 3585104 3732717 4197242 4880766 5609330
895.78 6593595 7755357 8969046 9992754 8802885 6157029
898.67 4673994 4061863 3767750 3606396 3451385 3252182
901.57 3103533 3105267 3126186 3117483 3034998 3034049
904.46 3301726 3174481 2926686 3270335 3726824 3462812
907.35 3085087 3364861 3742844 3605364 3352297 3515509
910.24 3879586 3784854 3386070 3429500 3959082 4028822
913.14 3615819 3621459 3879741 3836859 3566250 3544682
916.03 3855139 3909124 3549179 3555030 3873814 3828667
918.92 3510991 3488900 3649611 3660256 3351616 3187189
921.82 3343010 3272801 2957567 2949890 3093073 2990528
924.71 2793020 2673512 2794049 2833762 2582163 2538257
927.60 2576359 2544292 2345465 2201029 2264958 2251384
930.49 2088278 1893946 1957560 2057195 1899450 1758306
933.39 1817054 1858505 1717235 1523051 1457867 1521479
936.28 1466243 1426056 1432943 1444738 1410551 1343416
939.17 1294126 1234045 1223846 1119725 1005768 1029761
942.06 1041843 920335 887223 854127 887350 835676
944.96 768365 753889 670885 694462 694617 662991
947.85 638733 596856 595832 609524 592529 497666
950.74 401907 440616 438215 411990 381156 334269
953.64 396811 444189 408400 281085 215647 308780
956.53 342658 339676 256721 181339 255854 323071
959.42 306704 279374 232463 158414 193878 222916
962.31 253514 220104 132412 176426 254688 279516
965.21 246168 267212 316009 246050 208120 302787
968.10 341185 289252 250826 270201 304684 298590
970.99 270897 256090 358555 382352 331558 361727
973.88 371843 336308 344431 401095 476079 503593
976.78 454023 431683 417114 471163 478566 422965
979.67 455977 479267 407113 332452 303337 365254
982.56 447452 452028 380092 405187 472806 418282
985.46 377340 371045 355344 361940 423608 415646
988.35 400021 409345 354629 374425 365879 293667
991.24 299127 375853 449321 407307 382350 408060
994.13 420079 446458 438810 432799 404684 347761
997.03 294894 302228 286005 330926 438997 375867
999.92 344660 406843 463116 459424 440437 388097
1002.81 318078 341170 339709 241805 240664 337018
1005.70 353513 241403 143125 144980 204708 261460
1008.60 295291 273617 239719 243816 220325 141245
1011.49 72270 154883 187096 118428 103314 176818
1014.38 266147 234461 252713 284833 227558 255485
1017.28 316063 247984 168837 223975 264145 240528
1020.17 196457 159482 188363 257638 302054 284338
1023.06 326061 409106 372991 363663 412743 390478
1025.95 337229 229058 229584 392758 377951 325507
1028.85 310287 342087 402759 349749 349371 411724
1031.74 405765 347943 409795 479675 381927 361897
1034.63 320722 366263 430100 362306 345332 275174
1037.52 284714 309244 490148 564152 418115 405051
1040.42 406471 376752 277821 317929 437311 430992
1043.31 467644 407600 289729 355710 433630 433964
1046.20 337421 316764 339470 268770 210201 193724
1049.10 267344 300924 129492 93645 180128 257929
1051.99 287086 178856 152342 44841-35469-21971
1054.88 29414 65912 42493 15016-12856-42538
1057.77-130533-70662 4682-17422-3927 94984
1060.67 99868-38304-103440-161305-195052-176144
1063.56-98047-5949-50707-123198-42140-46021
1066.45-56945 34185 44738-24343-28219-38747
1069.34-62637-85498-85579-20719 14518-60346
1072.24-132720-126485-177413-86618-33610-66870
1075.13-41424-26526 12319 39965-48646-94195
1078.02-71179-5890-30573-65811-81103-131382
1080.92-43366-34087-52615-65573-53206 2536
1083.81-65220-116653-48428 28732 32501-66091
1086.70-74599-1532 819 27044 64585 65068
1089.59 12344-86048-94474-38719-53221-1830
1092.49 79732 13949-85804-158940-107082 90027
1095.38 72016-25445-14160-38234-53104-4275
1098.27 20235 4885-61641-66779-4535-95003
1101.16-121383-91141-89139 6055-12050-74271
1104.06-35660-23491-32774-105108-91069-35620
1106.95-26387 59710 11945-7437 45761 35319
1109.84-36646-41256 47875-22649-126082-54558
1112.74-13864-68334-81846-117557-106357 12565
1115.63 33154-102682-158518-124057-72610-71862
1118.52-67006-651-4299-44886-29303-19240
1121.41-12138-68360-96717 4669 1512-78018
1124.31-113057-70456-32556-35926-79753-57949
1127.20 24587 7918-69306-35756 54373 89167
1130.09 54766-15954-15965 11675 12397-53105
1132.98-75796-69324-37923-27291-57262-21286
1135.88 25645 29013-26437-46693 888 2562
1138.77 6121 13868-27227-25981 30869 79441
1141.66 56740 4526 5645 4097-35092-25974
1144.56 35091 80956 38047-30848-4448 39759
1147.45-8544-52320-19251 5852 26115 98462
1150.34 109184 70529 55037 44792 11807-12387
1153.23-65283-116916-29143 55095 57909 63036
1156.13 6982-44166 75258 148826 127019 132067
1159.02 151297 189481 145993 68324 36776 30620
1161.91 32247 33775 17138-11711-2978 498
1164.80 31692 15358-68557-21550 72532 132028
1167.70 169572 150377 114760 69947 18166 54324
1170.59 73376 61917 77966 33026 2840 18706
1173.48 29015 50958 41032 72075 116008 94360
1176.38 88652 28210 25856 41274 66146 79908
1179.27 23130 44780 57180 89133 69923 39175
1182.16 88999 96095 47931 25668 85180 128513
1185.05 109826 93421 90019 85092-3585 1139
1187.95 89267 35998 49231 111599 101778 132127
1190.84 133771 107044 75192 80953 106957 141775
1193.73 152183 76508 90145 162548 118095 32245
1196.62 3843 49133 42810 23811 110011 57595
1199.52 7747 60320 75574 61777 72974 102703
1202.41 64065 42240 57402 62009 37129 41404
1205.30 121165 125281 19586 29484 70795 58537
1208.20 66014 118039 150572 130130 119742 178977
1211.09 214296 163759 90619 145990 214311 157733
1213.98 126927 202273 293217 201569 100722 142643
1216.87 185226 230502 208815 92615 69136 149703
1219.77 232558 272761 251738 249178 183264 147736
1222.66 236746 195458 141580 202650 220923 200895
1225.55 215442 244706 256502 238034 294592 368083
1228.44 362595 297008 270554 344773 352812 330369
1231.34 378513 481451 414781 404788 516840 564362
1234.23 558147 598263 616809 560273 678141 823096
1237.12 918098 1062533 1235447 1415748 1576710 1759070
1240.02 1995928 2309357 2674325 3136746 3684343 4308332
1242.91 4980356 5845727 6896770 8155116 9585015 11252084
1245.80 13151480 15306721 17843845 20722778 23932408 27696903
1248.69 31964917 36702179 42000435 47917030 54519712 61745606
1251.59 69532556 78019904 87192634 96998732 107346739 118203636
1254.48 129527493 141229833 153078928 164969266 176744275 188306485
1257.37 198763682 207967149 216256753 223704462 229788911 233938093
1260.26 236527269 239190203 238815670 231113619 220380397 210205516
1263.16 198897335 185872624 171630206 159889806 153466709 155773554
1266.05 168790761 195779554 237060450 274490373 226039689 109406053
1268.94 60542272 69587992 89215149 117919263 147951248 176163255
1271.84 201093552 222968480 240521379 254397175 264191653 270245822
1274.73 272567136 271665934 267640950 260999514 251892980 240903213
1277.62 228324180 214571067 199958485 184720298 169204413 153844313
1280.51 138875120 124331558 110465717 97524547 85365256 74224481
1283.41 64124239 54960687 46729477 39564599 33301551 27794092
1286.30 23039153 19027139 15541401 12666031 10352699 8367850
1289.19 6768541 5484464 4486850 3666083 2916584 2371784
1292.08 1972833 1658766 1408638 1259512 1035849 858646
1294.98 788460 750243 715689 701660 632441 541645
1297.87 506857 461279 412175 451841 455288 388483
1300.76 349825 306950 260558 284001 314413 289665
1303.66 243773 242730 218282 171308 158709 197678
1306.55 211686 196500 187562 184203 169922 188793
1309.44 194102 146043 163135 199094 160343 168062
1312.33 173241 131339 167486 173615 112615 106829
1315.23 141933 148362 154973 171729 136301 158822
1318.12 213488 216752 159285 115758 118456 67515
1321.01 93417 111056 22684 64383 106677 83300
1323.90 124381 128220 139834 163256 99266 67527
1326.80 153691 187158 134794 83238 56196 48527
1329.69 56025 48457 18065 76441 124842 92011
1332.58 55303 46480 57945 26504 14626 37897
1335.48 42727 49503 114538 128951 54242 23226
1338.37 9295 77342 67913 25202 44697 81759
1341.26 79486 54463 75451 150908 196933 123254
1344.15 59039 92969 156526 109436-711 44508
1347.05 65797-76172-89507-68201 33916 115346
1349.94-59615-130827-38765 10275-57972-5577
1352.83 218932 105361-91884-127908-9545 18537
1355.72-18861 117001-31880-106764-143088-93259
1358.62 6609-14347 81961 79558 20420 76256
1361.51 73214-99334-122688-108016-94167-12456
1364.40-95791-151256-82377-20770 52085-12981
1367.29 10521 37822 26656 117634 97291 10790
1370.19-33475 15656-29837-50704-87050-95476
1373.08 63070 61155 10887 13205-9608 91907
1375.97 96465 36104 141382 168874 65691 26954
1378.87 23234 11057 5141 41827 148285 132700
1381.76 46560 71262 55634 96158 83053 68494
1384.65 138800 80326 57238 124815 47377-81993
1387.54 24216 148660 150255 89140 34769 60564
1390.44 195695 228087 130377 71080 126734 104658
1393.33 80712 120089 82674 82627 88069 57808
1396.22 139764 218498 154302 126127 143898 153678
1399.11 178439 267225 259076 165532 208622 287630
1402.01 262854 219503 229859 293067 339684 354843
1404.90 308767 344517 412914 392889 417268 434631
1407.79 423036 367334 358728 435436 523639 473113
1410.69 357054 362154 507589 582658 578355 576336
1413.58 602650 646605 608890 635788 726946 718782
1416.47 606401 589699 791193 805834 592484 558002
1419.36 747541 989149 875191 713626 862239 1044934
1422.26 951019 848356 955344 1176051 1130474 1061966
1425.15 1241204 1343967 1287861 1201296 1218381 1340904
1428.04 1396377 1347586 1367125 1356717 1364471 1448290
1430.93 1414311 1318338 1341051 1310339 1284886 1322092
1433.83 1352563 1373026 1492435 1572344 1566490 1615006
1436.72 1743097 1848100 1927337 2110451 2238094 2297107
1439.61 2375486 2469114 2638925 2816419 2856612 2884198
1442.51 3055468 3225179 3271842 3383950 3589408 3681260
1445.40 3779485 3965785 4183818 4248086 4208220 4391289
1448.29 4641781 4815811 4937742 5165153 5466049 5560238
1451.18 5588655 5783997 6028361 6136408 6263894 6558420
1454.08 6796730 6917659 7039890 7215680 7305200 7360599
1456.97 7596555 7889841 8036443 8137004 8253216 8337702
1459.86 8187112 7896445 7879752 7969323 8102309 8467807
1462.75 8723765 8847447 8774776 8536891 7928350 6938880
1465.65 6385611 6339456 6680785 7238351 7983951 8549089
1468.54 8680093 8669233 8276200 7320364 6690349 6732476
1471.43 7039271 7550460 7966096 8229296 8478766 8566128
1474.33 8468498 8106740 7529681 7070063 6731507 6408268
1477.22 6053570 5656602 5251186 4816604 4237030 3388739
1480.11 2498517 1760786 1141638 721721 504309 395773
1483.00 360663 385830 399027 392487 358571 330766
1485.90 281034 202030 182892 268235 315757 232179
1488.79 128049 94727 216185 204273 163775 199243
1491.68 208126 238033 187063 137188 115796 113748
1494.57 115896 111133 15124 38799 151977 153561
1497.47 112783 74361 82670 84879 140304 161178
1500.36 151966 129830 25524-6667-8368 46627
1503.25 52515-24905 738-36523-82065-16461
1506.15-89305-127676-69651-76791-29948 15927
1509.04-23772-41122-7339 11212 3980-41225
1511.93-48022-22242-40846-41400-35590-39470
1514.82-28954-32331-40909-53872-28325-25824
1517.72-17272 15814 11421-7581-52105-112325
1520.61-198158-159266-97545-128782-89612-28269
1523.50 7199 36967-40158-97375-24256 857
1526.39-25358-16416 2133-564 11177 55648
1529.29 86961 65047 26134 9469 27760 77056
1532.18 58605-18425-9034 67928 177462 229643
1535.07 245207 289660 316027 344493 323366 324215
1537.97 323887 223509 290722 341438 325360 425567
1540.86 477116 376897 304940 405407 492030 534992
1543.75 566855 545581 464179 420122 362619 346513
1546.64 408129 515518 659226 511852 279726 238630
1549.54 233286 303780 401669 698756 789184 486961
1552.43 341086 377382 378195 359277 420284 449407
1555.32 507271 536101 548194 542354 535582 476787
1558.21 428397 474486 424199 323006 326766 403445
1561.11 424908 381808 305987 279928 310741 265504
1564.00 138168 133720 133854 124734 146267 145836
1566.89 111191 53172 24965 7523-28560-46974
1569.79 19446 52177 31442 27323 27571 37153
1572.68 27975 14376 10019-26946 8608-32694
1575.57-196576-159831-43029-20784-35237-29676
1578.46 19519 22000 15376 1911 25374 41831
1581.36 26303 17870-23511 39812 41238-15025
1584.25 18485 16950-31118-13638 21902 36587
1587.14 74506 98196 85268 47082 43375 55003
1590.03 36105-3310-41367 17897 39419 8297
1592.93 21968 27092 35867 42202 75087 73418
1595.82 22443 23233 54255 60570 49440 56980
1598.71 95253 64644 50547 8523-1342 51869
1601.61 54398 86943 69068 57489 86623 68611
1604.50 94258 58609 56320 59982 38294 92748
1607.39 101293 89800 87137 92344 75202 37597
1610.28 39617 58754 66383 39155-24395 14041
1613.18 47861 39212 36563 44435 54241-47118
1616.07-185542-122103-29044-13409 23051 79279
1618.96 91964 15074 2212 44156 42793 50466
1621.85 29937-48475-63638 20951 89971 79047
1624.75 43872 16643 32145 41802 9502-1723
1627.64 15338 7646 20892 56202 4404-17851
1630.53-11105-61692-7200 51438 30752-6930
1633.43-2881-21958-76365-134845-113573-32115
1636.32-23580-24239-9853 6844 8931 25094
1639.21 41830 20236-45573-35527-17431-38375
1642.10 33670 51318-55701-96029-79634-74803
1645.00-92504-89173-28459-18592-51411-65258
1647.89-59545-14521 35670 2148-26175-37980
1650.78-49716-57383-173302-243853-233203-151856
1653.67-95736-79578-21196 1396 14010-4441
1656.57-44435-64103-35068-22696-68657-46143
1659.46 22332 24083-20867-22784 7847-21660
1662.35-60406-56208-39923-21868-25213-61862
1665.25-79317-27261 3140-2652-11976-575
1668.14-28766-138965-129199-47979-20826-54709
1671.03-71912-3200 43758 36561 20028-23293
1673.92-53961-118270-142479-87447-49464-4765
1676.82 3581 2147 15088-17944-30101-19949
1679.71-71968-32860 28197 35785 19132-48087
1682.60-100298-146564-128208-288670-305528-93478
1685.49-49794-38519-64259-47563 19585 35889
1688.39 5077-15487 3384 4059 28042 10450
1691.28-30445-10846 22690 17757 5515 13915
1694.17-2602 11254-121042-171416-35904-21137
1697.07-7908 21373-62822-66160-91248-145286
1699.96-148300-111506-36554-52020-26125 5682
1702.85-16730-27180-7290 23596 8386-13607
1705.74-6012 15476 29467 48291 101202 56537
1708.64-10904-29116-30150-8989-22811 320
1711.53 11464 18436 52726 719-6354 14450
1714.42-49885-58544-34934 2667-6676-126008
1717.31-86537 10346 31967 34114 9104 50143
1720.21 70970 29794 42104 56133 47709 50767
1723.10 78847 93947 33158 14269 91941 80571
1725.99 46448 75727 90347 120113 90784 64298
1728.89 68291 46415 31105 30939 59748 78195
1731.78 45905-26367-90670-35774-29943-41643
1734.67 29813 30156 39292 32269 8028 31544
1737.56 21387 18219 37860 22067 12477 33363
1740.46 51983 90822 101879 73191 29242 3870
1743.35 16056-1788 22077 15623-2887 9971
1746.24 30491 40777 27019 21297-14306-27542
1749.13 15705 51100 8481-29801-40206-7343
1752.03 16389 3289 30429-1992 8001 62955
1754.92 12371-29528-26368-8728 34134 46541
1757.81 46038 39195 10989 1869 2332-9487
1760.71 22838-10767-70578-61884-23932 9139
1763.60 16389 51834 68993 37773 44486 40998
1766.49 15067 56291-8802-63958 13931 41140
1769.38 24041 14361-38509-33710 6061-36862
1772.28-59641 12883 59795 25647 30659 19591
1775.17 22385 64291 53988 53160 23438 22478
1778.06 52327 33932 23913 28958 28951 16330
1780.95 42141 60894 81713 101186 92086 108691
1783.85 79217 51880 77257 60366 828-26006
1786.74-43836-51918-29531-6170 48108 85181
1789.63 68914 16749 9555 50998 12980-118656
1792.53-122378-58489-35830-2856 13745 25087
1795.42 39418 59902 65539 53211 68448 88560
1798.31 91894 70095 57618 77727 64943 29069
1801.20 3379 30425 10381 25676 76923 62638
1804.10 27044-16619-13907 16976 4120-15157
1806.99 34536 98415 124674 79564 7036 13474
1809.88 9853-6581 6218 32465 43270 45469
1812.77 19825-8901 27896 56475 56582 31192
1815.67 24459 10374-29969-31282-29508-13866
1818.56-21708-39782-458 12261 43314 58566
1821.45 55075 48245 32062 10218-17097-23410
1824.35-60879-29784 37178 28787-1780-598
1827.24 1558-2170-17401-16514 4111-34528
1830.13-12090 7319 20457 15249-22194 4057
1833.02-12361-28395 5847 36107 31848 17536
1835.92 17104 13960 20901-9341-19856 14617
1838.81 22296 18623 14881 14195 20487 37390
1841.70 53932 48812-9295-96084-157511-94785
1844.59 11012 12361 4904 53187 59401 1583
1847.49-362 30789-24301-73144-40959 4477
1850.38 9022-6559-28334-19713 3292 2868
1853.27 982-38138-16413 40649 47795-1899
1856.17-42046-39719-49829-33308-39771-42686
1859.06-34395-1207 11449-37924-44447-3370
1861.95 25977 22490 16604 7281 7789-301
1864.84 7630 48810 12391-42138-38092-10986
1867.74 7084-11523-33721-33529-60420-55822
1870.63-16236-25393-7422 16670-10082-30640
1873.52-25925-49114-105804-80146-25482-35575
1876.41-44638-21836-20-701-3036-21039
1879.31-34372-9447 1162-13893-26151-2152
1882.20 11680 12477 5342-12430-20469-54836
1885.09-46610 19656 36928 30290 58896 34611
1887.99-1627 28921-6618-62661-43453-31686
1890.88-19806-1221-30566-6269 10877-46625
1893.77-54810-28818-5122 11818 21540 22733
1896.66 30871 20339 24557 51448 21002 892
1899.56 3723-38096-48849-13524-10592-12150
1902.45-5249-21516-32858 13131 22640-19592
1905.34-16838 8913 29899 7869-54691-47175
1908.23 8988 15063 11358 5367 9651 4044
1911.13-4025 9927-11938-27107-23144-48177
1914.02-34391 9722 9415-52036-86360-30082
1916.91 11626-11531-21886-15786-51428-9981
1919.81 17211-3071 35880 11409-10893 18889
1922.70 6598-22782-5013-681 2709-2792
1925.59-42605-43463-38166-35362-23330-27163
1928.48-27142-2138 30512 5776-42428 51
1931.38 32609 188-26788-36783-15133-18142
1934.27-26771-17877-39362-36971-20978-63051
1937.16-82988-79288-92453-46484-46900-85076
1940.05-47568-34597-68977-47873-21989-31625
1942.95-34215-48356-77820-58599-17913-4599
1945.84-855-8175-37143-24449 16402-43483
1948.73-84579-39931-18158-7590 41064 84257
1951.63 31137-42955-21431-12637-29784-38859
1954.52-68100-56879-2418 40182 24045-19330
1957.41-22218-2174 27281 12795 246 28384
1960.30 45297 24475 30124 77306 71812 55244
1963.20 72353 99276 90142 72416 74611 88303
1966.09 77789 58492 65219 80070 90133 102351
1968.98 116794 147695 209991 227745 185765 183899
1971.87 211586 217306 232674 276153 337668 277729
1974.77 138307 108831 145454 196087 226121 223373
1977.66 241545 242207 214337 181556 174601 213142
1980.55 247774 219934 207349 196628 218060 250860
1983.45 253708 252902 167469 154530 251517 308678
1986.34 326177 337446 328222 315254 326121 335630
1989.23 367418 382082 352559 325829 304309 286044
1992.12 235685 234227 199027 164766 175690 151274
1995.02 100867 48943 71385 70299 76498 84343
1997.91 82193 47228 32628 52794 35588 32844
2000.80 8033 17048 71943 83123 39269 6580
2003.69 61986 105351 53483 13864 16545 60533
2006.59 90896 88058 85609 85069 70018 58072
2009.48 66252 62696 52006 66566 63925 52129
2012.37 69565 90160 95153 98392 56490 69653
2015.27 90867 18327 18453 29297 42194 71690
2018.16 30609 22645 31953 65277 87236 55258
2021.05 44339 37848 44316 17825 6044 10440
2023.94 44818 97508 95382 83175 65124 50434
2026.84 89419 99270 81894 111423 118788 76744
2029.73 40884 46964 43418 48750 68920 106193
2032.62 178856 133961 62065 65454 75931 113335
2035.51 120543 107140 114078 130799 180352 193152
2038.41 148262 109398 142020 197172 232197 233203
2041.30 243869 284593 258206 299244 367230 383088
2044.19 447666 483946 435195 466306 564085 594885
2047.09 621699 700420 758528 708935 703898 782458
2049.98 831453 849723 853152 834581 835041 839693
2052.87 783711 742050 716098 751005 747021 649530
2055.76 596135 601556 604791 575644 608429 640903
2058.66 711991 738828 591272 385550 258866 288220
2061.55 354099 419869 567054 670114 718396 805465
2064.44 837281 852237 861825 831931 815588 788155
2067.33 801217 831286 745237 665153 615001 582180
2070.23 563130 485489 436488 429336 382731 315074
2073.12 249467 231755 241172 196905 175116 155945
2076.01 67985 13810 9300 15866 55759 64234
2078.91 32424 19900 16363 4877 11405-32157
2081.80-29267 13699 25147-21434-70714-29300
2084.69 31864 29129-64346-62542 10758 37254
2087.58 5294-8774 8073 19633 2879-57889
2090.48-59298-51756-55971-52007-48396-13202
2093.37 25369 24444-12391 27706 17431-8758
2096.26-20278 10974 39329-8246-46242-38816
2099.15 5362 4744 35388-14043-21895-4572
2102.05-24277-87478-128929-17674 6072 5088
2104.94 32887 19299 42565 39438-33814 10441
2107.83 54026 1556 15505 53843 41291 84077
2110.73-28977-114792 25141 39036 49917 104138
2113.62 59482 52069 42896-8134 60578 72206
2116.51 66041 66262 78038 108389 110148 20428
2119.40-32930 64742 65402 43569 49522 65804
2122.30 123290 95635-3073 49064 77964 68547
2125.19 148142 187598 147739 96081 33641 61779
2128.08 171045 170990 173208 219428 243104 195125
2130.97 147996 177906 193653 198177 230730 257727
2133.87 244546 231452 209911 208161 242926 261824
2136.76 257732 227681 233459 233928 221828 275281
2139.65 327525 280381 245187 247707 234854 269859
2142.55 306054 320912 292560 241809 272425 253016
2145.44 206064 235286 201054 156402 214856 233769
2148.33 229632 237204 293066 299677 271782 383158
2151.22 421737 427317 422405 401746 440869 391864
2154.12 337156 397473 431360 416217 438865 447264
2157.01 401067 302206 280430 374275 390255 375796
2159.90 372417 385407 335939 217729 276362 369060
2162.79 388101 403121 378903 360878 315127 311040
2165.69 421484 437780 401514 432185 434906 361986
2168.58 245168 322298 448446 427157 471621 519413
2171.47 501073 458049 471521 584765 621264 581368
2174.37 526910 530080 466511 336130 461263 620791
2177.26 644690 637624 665153 618979 518337 611185
2180.15 718152 690445 615593 544748 479826 417438
2183.04 413329 448758 502930 497985 462037 441731
2185.94 387421 442935 523344 485319 447379 504450
2188.83 469572 332476 319077 318754 326861 267881
2191.72 230823 296638 243742 226756 284998 322825
2194.61 342884 311584 237225 149058 182885 250946
2197.51 247965 200044 191140 197826 177673 184421
2200.40 129611 164712 221946 147462 63241 47179
2203.29 72365 60876 51252 31564 2921-21364
2206.19-43969-28265-5434 22323 25365 10317
2209.08 25765 4129-2292-4784-8738-1076
2211.97-24539-11501-20111-12807-18780-83794
2214.86-48721 10387 17958 14896-24052-8597
2217.76-18340-45389-16892-9662-21954-5596
2220.65 9069 25907 20221-18137-41000-11744
2223.54-19445-77226-33450-1505 650 3591
2226.43 20143 68 15504 43422-5787-10954
2229.33 44278 55211 42554 54215 56469 74788
2232.22 62865 39891 25752 49065 86886 32819
2235.11 48108 95939 41760 65927 86584 47992
2238.01 16397-26440 623 52233 38752-5621
2240.90 13632 47371 64990 63896 35822 84322
2243.79 144037 124546 106826 120058 109814 87013
2246.68 59312 74921 123506 130717 106473 119603
2249.58 135172 79022 33155 120522 187113 185221
2252.47 168930 131406 121935 99406 90267 113303
2255.36 149134 144980 113679 104286 125249 113740
2258.25 131859 144966 118665 144766 139869 146982
2261.15 184863 168051 191535 234398 174217 129689
2264.04 204579 259232 226146 208752 216262 260966
2266.93 211033 134844 175529 227761 261986 257454
2269.83 253805 260188 271102 314217 330823 315326
2272.72 351436 390826 406207 360893 356708 401898
2275.61 430317 468543 452677 478301 552978 574938
2278.50 529677 555035 620902 622084 566486 599009
2281.40 688148 737955 753334 741437 788565 859680
2284.29 873315 854457 878648 915407 958633 1008549
2287.18 1063350 1056596 1048536 1069160 1104293 1119892
2290.07 1071378 1141570 1284083 1309049 1310979 1357046
2292.97 1419505 1437883 1401092 1413756 1507370 1504655
2295.86 1507199 1620011 1720889 1680651 1617091 1737786
2298.75 1829438 1728348 1692358 1894323 2017536 1879326
2301.65 1835214 2031425 2147015 2037759 1916100 2077427
2304.54 2175207 1913070 1748760 1989265 2177888 1914840
2307.43 1698604 1933557 2223935 1993076 1756278 1925740
2310.32 2236053 2136397 1878305 1974203 2344409 2485945
2313.22 2229741 2188695 2431230 2723289 2672206 2686652
2316.11 3145132 3859774 4118514 4287008 5141037 6054991
2319.00 5397253 3848720 3151358 3116854 2862542 2366916
2321.89 2311139 2679612 2551650 2063332 2242663 2626440
2324.79 2380033 2056278 2406520 2800857 2488091 2157989
2327.68 2603902 2968713 2484143 2207126 2793771 3030851
2330.57 2399503 2241777 3042751 3040764 2156679 2332867
2333.47 3222379 2873512 1962018 2473424 3307230 2541170
2336.36 1861588 2718077 3048983 2151597 2166757 2973051
2339.25 2578047 1837474 2394181 2711991 1969202 1871801
2342.14 2419284 2167313 1719842 1978997 1997566 1656698
2345.04 1710694 1753728 1406190 1387032 1517943 1263973
2347.93 1156438 1213807 1167408 1177916 1176957 1179693
2350.82 1319574 1222922 1130541 1516689 1427645 1113646
2353.71 1615455 1571939 1114396 1662893 1624044 1102471
2356.61 1765372 1713822 1181774 1919680 1653292 1147093
2359.50 1985559 1536045 1260810 1994185 1335465 1414718
2362.39 1857471 1106572 1588311 1628056 1057841 1653133
2365.29 1198691 1178265 1542806 910061 1256955 1119509
2368.18 934069 1210805 802445 1038709 897968 755316
2371.07 845480 646685 824094 616246 659781 630184
2373.96 576932 593658 479334 507855 414319 394403
2376.86 368761 354000 322977 313621 279440 256442
2379.75 257116 259498 270397 263564 213750 194023
2382.64 215063 238032 237544 237433 200266 224227
2385.53 258347 228570 233145 260391 269725 222944
2388.43 234696 289917 313234 337335 304945 272702
2391.32 285639 334780 290807 225428 278869 298454
2394.21 286321 232244 250808 321708 363313 334984
2397.11 268775 296792 376661 371292 279070 292942
2400.00 388440 445892 373676 282819 353509 469336
2402.89 416728 318462 294827 354085 431701 330817
2405.78 366033 469308 428688 372901 307510 322298
2408.68 379925 352978 294115 308720 364782 373299
2411.57 333730 336934 391794 411993 424231 565585
2414.46 935095 1427299 1417494 854071 539043 473662
2417.35 414957 418986 385875 372145 406636 392423
2420.25 332745 286194 339095 427636 402897 316358
2423.14 307929 335280 331456 333629 426756 445790
2426.03 365904 350862 358525 349071 324117 359423
2428.93 432815 357387 286511 346986 342990 276539
2431.82 303426 370247 376580 353904 388916 368324
2434.71 247728 276963 305440 231448 203449 269335
2437.60 322213 305717 298040 250649 207127 244150
2440.50 226662 206105 252764 253454 240306 252189
2443.39 193802 149006 169297 239869 218467 176406
2446.28 165602 115820 200150 244346 173951 173071
2449.17 195222 198583 222505 183980 79798 56594
2452.07 63820 64334 92921 92689 75803 1428
2454.96 20200 127688 124330 72911 55826 47640
2457.85 24758 37044 54569 63077 35311 29265
2460.75 20699 1274-4776-4716 21577-39740
2463.64-46628-16774 24491 78284 76272 60626
2466.53 14095-33984-37378-7573 18409 57090
2469.42 26224-34679-26682-10233 814 27356
2472.32 25545-11676-26487-20239-24984 16032
2475.21 35757-8830-19020-17086-10512 5824
2478.10 32023 69460 74902 32706 15655 42863
2480.99 72602 58936 4164-9610-19321-23256
2483.89 4935 27562 21573 18124 71697 70986
2486.78 5132 4392 9718 39900 78131 47293
2489.67 34968 81314 83690 69818 66970 52047
2492.57 87743 90005 68552 80820 109455 75888
2495.46 24662-32480-42189 6055-11163-2909
2498.35 23907-17018-22567 29863-20596-25901
2501.24-4072-68009-39324-4679 22128-61698
2504.14-153057-139512-128425-120805-159182-152757
2507.03-61181-33544-70411-71435-127563-136534
2509.92-144107-191190-137058-48437-83665-142783
2512.81-193262-199253-84405-132112-250920-244945
2515.71-162926-172591-253927-242532-180465-194368
2518.60-216311-225772-233538-189211-225584-249125
2521.49-244179-265375-281614-332462-372869-338306
2524.39-331703-344906-357453-351832-287232-269792
2527.28-287231-237211-195778-218431-202232-138497
2530.17-25833-10900-31598-44835-93664-81220
2533.06-68995-154084-305394-351535-378067-341934
2535.96-181286 80092 329465 371776 305318 172549
2538.85 24534-106171-138196-148737-258020-250519
2541.74-185309-194441-283084-311462-255688-274501
2544.63-316890-314600-290868-302056-341780-356532
2547.53-400747-474453-487017-464617-504108-510188
2550.42-454499-500994-583896-576616-527594-518077
2553.31-509079-488131-486621-491564-459983-423912
2556.21-433180-476762-480105-428903-378026-370428
2559.10-389279-400479-355585-309406-337330-375752
2561.99-379371-333756-257312-190270-238400-274075
2564.88-274790-261919-166777-177976-206999-160477
2567.78-179878-176481-165304-181671-190059-166206
2570.67-177001-160723-87423-117611-182136-118584
2573.56-25571-46927-114262-139731-107295-73264
2576.45-23980-9445-45232-70289-62641-39165
2579.35-33239-74534-63076-48788-45295 7021
2582.24-11722-32728-48008-48319-12865 8078
2585.13-7513-9421-10017 6414 21397 2485
2588.03-38168-94760-77542-8623 27642 511
2590.92-17835-1178 36026 7311-59910-91016
2593.81-73018-74421-28699 10309 9255 95451
2596.70 79003 57272 54307 35360 13912-18326
2599.60-13120 9152 34563 14033 38255 42264
2602.49 13106 19542 7554-20291-71392-64326
2605.38-23559-403-1922-43106-1421-4012
2608.27-71922-87537-36148-22793-22960 21137
2611.17 11032-16076-58401-85498-75185-71550
2614.06-54476 4867 44746 27525-17495-65
2616.95 25311-15958-62507-52004-1744-4389
2619.85-541 21105-1815 80063 125856 93454
2622.74 108536 96918 80353 69037 72707 55474
2625.63 15840-34822-82546-87153-125686-159178
2628.52-112841-57936-38276-49761-28113 265
2631.42 13879-3594-18253 11824 48642-23711
2634.31-63598 29362 53564 6349-3515-18057
2637.20-16932 9018 9685 8044 30922 217
2640.09-56904 15833 30187 25181 31396-2102
2642.99-63372-75420-32368-34698 37111 81956
2645.88 46640 6384-36755-55782-43413-15851
2648.77-25539-53752-9164 46494 64001 85775
2651.67 82761 56962 32551 1563-42318-58843
2654.56-78120-56467-18525-42080-31518 14190
2657.45 43754 41960 49220 57958-30419-49255
2660.34-8065 11216 21707-36305-36703 61974
2663.24 113385 53170 54072 57029-3755-59449
2666.13-56792-11393 37507 30586-10594-6249
2669.02 27440 48188 35369 85467 193700 186695
2671.91 99880 92482 136653 132796 129874 146437
2674.81 149021 214309 230482 243187 352587 383399
2677.70 366998 413466 468405 449483 460268 519937
2680.59 575281 687633 789682 828101 905759 962608
2683.49 1051182 1208626 1349661 1493546 1583460 1723020
2686.38 1896930 1961240 2061202 2240440 2305445 2356004
2689.27 2466075 2582640 2670208 2764989 2830165 2755132
2692.16 2685253 2749111 2798873 2715788 2578272 2444569
2695.06 2360283 2285434 2148757 2022724 2066045 2165673
2697.95 2143605 2178565 2180307 2101192 1783006 1224445
2700.84 944978 1072830 1419476 1794317 2177119 2480282
2703.73 2747536 2954268 3061194 3161800 3243402 3317703
2706.63 3315333 3227952 3144306 3021347 2835403 2666992
2709.52 2417948 2221523 2045580 1863462 1693751 1436502
2712.41 1219382 1045371 867073 780987 721980 564657
2715.31 470113 441861 381617 303194 226382 152556
2718.20 116734 117809 133151 120985 79031 52375
2721.09 41821 20689-25980-22516 27301 38031
2723.98 39287 60622 110836 82838 13697 16737
2726.88 3205 5741 50939 48408 33659 26976
2729.77-4492 58751 58879 16647 61350 36374
2732.66-27597-29178-15242 22717 63752 58778
2735.55 2515-22755 17882-5775-35032 23980
2738.45 51580-42866-6739 32338 62668 100297
2741.34-9242-44023-27830-42425 1896 66160
2744.23 84896 51585-5086-70678-49285 59306
2747.13 88102 32952 33604 90208 76824 28794
2750.02 32100 9963-18235-46653-37019 61926
2752.91 77474 96346 98976 23787 7243 49141
2755.80 83499 82400 100181 52305-440 39340
2758.70 227-32457 34457 23265-31564 5201
2761.59 25167-19722-832 11398-41663-79206
2764.48-99447-63628-27116-23435-50880-44161
2767.37-66935-8988 86782 46883 15735 15916
2770.27 35064 107302 144319 74243 51308 47894
2773.16-11247-41594 11558-23562-82545-61666
2776.05-11783 74887 122008 75578-17225-19703
2778.95 31317 15736 18038 78113 71359 18629
2781.84 27110-9424-35440 27258 26493 4331
2784.73 23546 61347 46385 37856 78414 58498
2787.62-1300 6779 55552 55667-20346-2586
2790.52 65568 5147-3134 46821 37625-26125
2793.41-73857 1682 58237 44076 1868-33993
2796.30-5863 34471 21677 32390 80870 136188
2799.19 133922 16334-20323 28012 14974 10985
2802.09 47627 18175 30828 19154 90775 138256
2804.98 100950 154503 130352 89775 66340 115381
2807.87 177551 191448 207373 174567 146479 153453
2810.77 119504 75218 146951 157380 165263 270313
2813.66 347326 322999 272226 288199 309422 275274
2816.55 192074 167665 225689 204799 206836 277905
2819.44 337258 402913 411772 318404 341101 487949
2822.34 438925 364154 399226 487266 530847 483580
2825.23 425954 463213 556133 534530 506235 549427
2828.12 594299 490260 430408 587462 589632 581786
2831.01 677654 627498 607448 654599 651105 698925
2833.91 858448 870224 758152 710406 822904 912655
2836.80 830880 757785 870171 1008060 891195 828852
2839.69 962654 1044143 934021 950493 1086725 1226728
2842.59 1121426 1046240 1230732 1369982 1324643 1181453
2845.48 1152653 1202897 1242862 1174792 1101734 1055867
2848.37 1078178 1121337 998578 866348 959013 948311
2851.26 754683 694258 664766 619742 659495 712666
2854.16 694803 729559 847399 900668 1008708 1045339
2857.05 1102204 1216782 1193235 1113920 1130372 1201385
2859.94 1211376 1195224 1307795 1381347 1269607 1239193
2862.83 1359327 1561542 1444431 1207179 1270876 1328625
2865.73 1163469 1125072 1306830 1315598 1122965 1049283
2868.62 1063345 1047585 937925 903602 970314 877648
2871.51 757775 756235 857928 839504 744172 754048
2874.41 787747 692679 679873 771614 777659 725804
2877.30 761566 698553 502541 555391 631695 531435
2880.19 467223 558844 594393 518323 481769 527759
2883.08 541379 532244 503501 449037 389232 370501
2885.98 481446 466976 328928 352060 359141 285959
2888.87 293070 260569 240204 310680 290711 199791
2891.76 179796 281991 329294 270232 207462 175168
2894.65 207704 176825 171158 187584 173740 145017
2897.55 114140 120228 124973 114528 109287 142291
2900.44 142770 132589 118965 151939 207383 222685
2903.33 158796 84566 84547 135277 163227 106562
2906.23 28282 43430 101136 100128 123588 49705
2909.12 11064 74022 110110 113400 68055 100241
2912.01 195744 167503 56810 91049 210119 198725
2914.90 206974 155344 42568 113484 189986 231285
2917.80 253952 202951 128455 148038 156110 113562
2920.69 163497 227274 214736 167380 176680 195454
2923.58 165495 217096 240973 280165 336384 212130
2926.47 179649 234063 291914 387611 417828 301937
2929.37 246310 356780 455225 429842 338678 370662
2932.26 460151 429232 430120 454633 428967 557861
2935.15 634151 616751 634001 624168 674466 699340
2938.05 717722 819426 904222 887244 845890 870321
2940.94 1044285 1109027 1047290 1117315 1270525 1259373
2943.83 1150221 1199257 1451350 1590926 1512705 1519572
2946.72 1691136 1971039 1928617 1840653 2129614 2318381
2949.62 2170765 2130365 2341121 2653320 2667054 2596738
2952.51 2845086 3085110 3163835 3216527 3459392 3674050
2955.40 3579466 3498237 4059172 4564838 4078029 3878417
2958.29 4562066 5352476 4981369 4436668 4948745 6075543
2961.19 5848915 5201993 5616113 7019262 7366960 6145174
2964.08 6135758 7852909 8410366 7199677 6666250 8323163
2966.97 9791355 8357297 7401713 9177077 10813748 9449895
2969.87 8373348 9900751 11967173 10986485 9397026 10497092
2972.76 13032527 12652904 10336077 11035687 14110380 14459514
2975.65 11816808 11570849 14816072 16404902 14402656 12922342
2978.54 15551779 17311806 16700132 15090932 16848554 18466799
2981.44 18923850 18558870 18996542 20051766 19956473 21299660
2984.33 21746728 22112212 21400503 23538013 25201056 24652700
2987.22 23010151 24315304 27406837 26629017 23806102 24200829
2990.11 26981657 26846718 24056242 23100947 24349507 24569930
2993.01 22284562 20551551 19539076 18644481 17130835 14705374
2995.90 13572320 13143309 12757148 12646916 13126271 13999880
2998.79 15620489 17188981 18881420 20040233 21239705 22881549
3001.69 24119608 25164213 25950436 26955567 27855994 27381832
3004.58 27158370 27844510 28495030 27701224 26215132 26892723
3007.47 27766641 26569676 24912674 24806187 25416840 24451775
3010.36 22522786 22118811 23190684 22777543 20599853 19938186
3013.26 21150402 20891129 18280812 17654072 19564262 19111262
3016.15 16143301 16414381 18648325 17112397 14566489 15667395
3019.04 16931244 14734203 13544597 15342592 15260852 12941644
3021.93 13363130 15017171 13354493 11317697 12598800 13682417
3024.83 11777418 10995246 12452277 12065608 10246448 10343358
3027.72 11475213 10488520 9168690 10087444 10233430 8643521
3030.61 8313870 9064462 8501682 7540829 7815319 7748089
3033.51 6873737 6724226 6976575 6536196 6120889 6109293
3036.40 5904518 5667421 5412073 5173119 5130184 4823576
3039.29 4486396 4494095 4215432 3819117 3829622 3829491
3042.18 3510945 3356999 3367594 3085279 2795781 2801806
3045.08 2724528 2480602 2421207 2411975 2337241 2263693
3047.97 2131647 1981536 1919637 1848746 1708385 1682175
3050.86 1628168 1469157 1419019 1420424 1303146 1111176
3053.75 1076234 1082324 939306 915765 959551 895614
3056.65 842875 746933 697214 722779 748913 684336
3059.54 607221 617328 627621 546059 491639 472425
3062.43 363915 341182 277904 291498 323849 355460
3065.33 333241 199433 236871 343700 380903 277794
3068.22 172622 206667 264016 215589 178445 187379
3071.11 253707 196225 147484 201432 194996 234220
3074.00 164360 142039 185914 242662 230446 178030
3076.90 203398 126789 87207 113373 64409-19244
3079.79-21403 36624 34592 75289 97483 27677
3082.68-4822-10480-40311 2912 91714 102057
3085.57 24124-966-4404-76613-50046 45427
3088.47 45579-1549-11321 2513-25483-32230
3091.36 1129-32772-31999 20607-23603 8238
3094.25 69099 12709 4715-5235-147522-195921
3097.15-18723 101529 104028 5794-82024-55249
3100.04 20806 70111-14939-35338-57705-64819
3102.93-21011-82205-31785 50903-12154-41875
3105.82-32579-46101 6992 5808-18502-75204
3108.72-96814-83412-89875-91900-22286-3187
3111.61-83264-94769-20334 76402 19489 21756
3114.50 11734-49700-6025 47658-3251-54058
3117.39 12815 11454-19741 16546 27848 22753
3120.29 13828-29166-43220-48794 6969 40121
3123.18 13062 61061 89884 45925-13632 25330
3126.07 97692 82412 43456-59279-88240-67245
3128.97-124770-124620-70951-16330 30340 62128
3131.86 60035-17617-52524 3060 7972-23103
3134.75-64792-123250-136146-46529 109636 149564
3137.64 89892 46396-16946-35066 46607 79586
3140.54 43332 17329 13988-22886-34283 9392
3143.43 94888 44561-40701-27182 15643 79577
3146.32 66762 56804 12814 72655 157334-5144
3149.21-163375-21820 53900-8021 15754 41348
3152.11-8663-7509 2650-27455 10262 15429
3155.00 55698 53405-17360-36965 6289 10256
3157.89 5079 4510 9178 53589 32193-22784
3160.79-10042 27342-66186-100506-37508-2825
3163.68-3775-25678 50802 102963 96614 29365
3166.57-50077-61589-10535 43311 28405-18520
3169.46-53353-16217 15152 20366 26512 32876
3172.36 93024 53605 12229 55271-41253-125265
3175.25-106815-38328-58710-93086 6605 60240
3178.14 32518-8749-42108-14558 45754 59198
3181.03-10174-70620-36234-55556-61861-24491
3183.93-17908-91587-92111 58710 94320-14475
3186.82-6318 41847 35771 59111 44789 34202
3189.71-10991-2147 23603-19517-89743-147531
3192.61-112019-15040 8668 70062 65952-59169
3195.50-37633 22548-18453-17504 28195 38697
3198.39 1039 4364 59931 101888 104892-25720
3201.28-57148-32017-90015-116686-78302 69785
3204.18 36375-50321-6621-24969-9724 4574
3207.07-3917-56393-35105 29374 53782 87263
3209.96 45415 10413-15421-68532-41465 27421
3212.85 85507-5102 40281 184128 102499 117243
3215.75 59198-62775 53693 84180 28297 10037
3218.64 44470 32263-41191-9129-43165-85355
3221.53-46388-5060 9652-14203-76215-82423
3224.43 4791 43256 17647 6952-59197-63755
3227.32-71451 10376 36270-54113-72443-107976
3230.21-107264-21984 52311-13779 63609 148182
3233.10 68538 57717 82984 82059 28206 22051
3236.00 8270-6333 73823 27801-121575-173354
3238.89-95548-73428-198 8507-29258 69930
3241.78 39471 14146 2935-47508-65193-78929
3244.67 3763 52130 67849 69990 56400 85836
3247.57 114274 56506-58191-54504 16586 54418
3250.46 55333-8699-23740 46329 93291 107492
3253.35 33959-111839-149276 1780 14830-20987
3256.25 21040 94999 150589 32555-21135 55503
3259.14 105230 130853 141559 134117 36568 6476
3262.03 137761 110308 43364 111797 163004 126101
3264.92 83383 36453 28646 43849 36610 38009
3267.82 40812 71651 83463 96747 52490 42900
3270.71 100799 93047 50253 39690 201158 192572
3273.60-2135 20159 74780 78509 102299 87526
3276.49 13948-67735-7594 71751 82151 44597
3279.39 1548 8823-40691 41303 132749 161113
3282.28 143111 110644 144620 91318-15536-99405
3285.17-24431 95240 54378-43008 27299 160809
3288.07 168143 94181 48283 38753-9676 5151
3290.96 51254 44057 36123 50945 16343-22629
3293.85 33405 69526-6641-133857-7783 70354
3296.74 6795 140645 169876 117413 90684 26230
3299.64-41149-43598 28533 55645 11234 21285
3302.53 65601 38623 20614 33503-32109-75651
3305.42 24436 44857 53210 88641 29117 8229
3308.31 25085 43901 76284 89592 31389 13214
3311.21 49979 17664 39887 872-121367-103911
3314.10-162942-37438 126456 79844 95417 42632
3316.99 19318 57170 26053 82391 116691-37686
3319.89-8760 19198 17280 120992 101682 57120
3322.78 32905 36740-8529-53176-51321-70832
3325.67-64831-8671 71592 105246 32698-89830
3328.56-74036-6361 34812 56401-29272-26643
3331.46 35651 13563-20927 12941-9795 16333
3334.35 101810 34495-49583-64194-44633-73025
3337.24-91788-120556-82185-2371 12505 27401
3340.13 50996 8136 30845-20510-61586 48311
3343.03-1625-82456-31655 110378 73707-32475
3345.92-41073 17242 84441 3359-57284-3547
3348.81-7098-76520-66196-43018-15014 14300
3351.71-88110-156746-6408 20654-50372-79095
3354.60-67639 15980 16677 63784 11749 38052
3357.49 46193-79166-104690-84513-35918-37526
3360.38-25752-85099-141330-19855-39487-28098
3363.28 29663-56281-84012-147579-194673-116316
3366.17 30718-25590-169608-80027 9434-39
3369.06-12998 99329 94249-158895-132998 26599
3371.95-32909-49231-8583 58092 46485-18675
3374.85 15541 33960 17326-21351-66113-111647
3377.74-53083 67716 4067-21866 33421-12868
3380.63-22632-7972 57928 50608 44213 80182
3383.53 85954 40674-45642-79417 40638 92681
3386.42-26216-168 33233 94354 51571-28987
3389.31-19912-65408-30879 34745-18939-78065
3392.20-43873 58497 103738 34058 56607 72007
3395.10 67296 121296 91347 123203 155163 161129
3397.99 88810-34588-82657-115074-65436-42519
3400.88-38077-47339 23067 46171-24175 77086
3403.77 89229-46360-75783-104635-123895-78374
3406.67 1508 26244-10699-12787 40779 87735
3409.56-24593-217383-175262-59046-110955-105474
3412.45 20916 68312 35496 41703 79784 103909
3415.35 151930 67549-68258 15825 41554 28080
3418.24 103901 68917-65721-13409 90790-587
3421.13-5956 45848-44137-98082-53230-781
3424.02 2569-1109-8168-64770-75500-69647
3426.92-44347 100418 126571 33431-14104-16634
3429.81 20343 26776 45901-5919-103623-62526
3432.70 47775 105172 97829 40046 16106 8152
3435.59-64852-65316 59385 105411 15619-72458
3438.49-61590-16932 74985 91468 34891 79516
3441.38 48648 35291 141251 146288-6788-33764
3444.27 42753 73777 64374 44521 91464 96735
3447.17 9889-94562-22788 60411 9872 18996
3450.06 38264 25532 55787 28006 29110 91774
3452.95 80603 19008-81707-80882-28583-23756
3455.84-39986-6162 28476-70522-57928 14929
3458.74-50433-70910 2725 62784 113480 107821
3461.63 48948 30346 8107-24890-34930 14493
3464.52-3046-2563 19238 17716 81126-334
3467.41 50866 142623 68493 54549 20180-26693
3470.31 30970 57932-65387-110395-87723-75963
3473.20 56670 37841-118709-188481-96027-3488
3476.09-18401 8052 56312 30380-62088-172583
3478.99-171001-80540-60858-96525-61296 38561
3481.88 151424 165405-56182-44304 10743-115495
3484.77-120988-37544-68979-85994-91749-114645
3487.66-81410-121612-27635-38944-187219-152917
3490.56-80118-67565-82287-158707-84870-5407
3493.45-68316-151220-125794-56722-134704-81746
3496.34-20526-28367 25414-53890-110454-61906
3499.23-80243-61264-108665-131661-4015 60491
3502.13 38324 78894 20652-65973 394-76793
3505.02-145551-61763 24493-18199-55817-20068
3507.91-76805-125667-72598-25880-22661-39189
3510.81 19630 39827-21128-18121 19918-47646
3513.70-53780 52137-43350-135021-119281-164101
3516.59-188620-201455-189165-51506 12418-10891
3519.48-95907-162787 17820 119603 50005-2633
3522.38-1747 27011-46210-2463-6722-134703
3525.27-147102-77670-19042-11291-21167-94476
3528.16-139687-77316 11661-26374-82052 2788
3531.05 106831 79586 48670 48275 42595 51054
3533.95 19853-21952-22481-18638 34025 74447
3536.84 75949 41144-16327-43963-4797 51569
3539.73 61282 28466-37240 82414 94149 58430
3542.63 186401 99124-30785 91604 100864 17326
3545.52 61499 107479 45094 55532 187777 163969
3548.41 160618 186907 131318 114938 141708 225358
3551.30 199035 90484 48412 49326 76859 178592
3554.20 201665 198008 190589 151157 95179 1164
3557.09 28797 110724 177021 208152 145768 165467
3559.98 257457 155798 114779 94857 39421 64552
3562.87 35072 94526 173853 204048 186942 116968
3565.77 123721 188629 129247-8283 18680 57810
3568.66 36233-4268 15278 148214 124165 61640
3571.55 79083 46068 18701 906-86007-96568
3574.45 28267 91394 114241 120901 88094 17322
3577.34 47844 20769 5963 36807-57118-76503
3580.23-52558 37867 62270-12770-10235 81275
3583.12 100532 57786 59152 63690 58169 54797
3586.02 56635-18774-77150-95512-90400-35256
3588.91 23413 103330 161346 131609 100797 88799
3591.80 37786 31879 35811-53315 1058 5686
3594.69-68413 9476 98707 93927 134485 198959
3597.59 74771 21702 36285 86964 83875-12235
3600.48-22012 30536 36510 99004 70381-54510
3603.37-374 66426 22413-36068-20130-33225
3606.27 9428 60513 57830-47072-127691-97447
3609.16-42743-22622-16215 9686 42352-10743
3612.05-114587-54774 270 16425 78828 77271
3614.94 11228 32625 25734-52234-54274-22097
3617.84-60666-12632 21190 42501 80394-30306
3620.73-51400-10965 16804 37838 19429 70481
3623.62 29775-39621 35497 61989-26165-77925
3626.51-17938 82124 71650-24599-83037-132585
3629.41-113277 1404 17030 17139 18138-24969
3632.30 5384 8953-130098-151183-81516-26065
3635.19 44180 43106 40489 10893-51281-25210
3638.09-24692-73176-61645-71993-25700 13789
3640.98-28937 15450 47248 9285 26340 73484
3643.87 78072 89574 82279 32616 22085-37846
3646.76-63429-87160-129609-74512-47420 2982
3649.66 39097-38194-84101-93299-114994-1130
3652.55 187539 199874 77545 12015 27216 18933
3655.44-22659-99356-118602-78567-45533 28495
3658.33 53203-13613-100768-117677-56810 49982
3661.23 113903 78576 93462 153451 107098 30541
3664.12 8945 8970 22689 34773 12713 38702
3667.01 112418 28684-69342-22246 65154 44053
3669.91-86116-45963 60635 7065 11533 32936
3672.80 55151 119543 76118 6036 35705-27201
3675.69-20446 41744 104701 157643 103461 174123
3678.58 202754 122541 79156 116734 118930 140887
3681.48 203022 252848 241025 236684 289545 228568
3684.37 163245 151313 202598 310799 267659 143174
3687.26 184105 168423 130854 217385 335123 306740
3690.15 194186 209258 216596 302554 421732 377414
3693.05 340457 391758 377842 276732 299310 416314
3695.94 399262 349940 362477 375805 394382 422328
3698.83 476669 446847 435320 422266 412973 434974
3701.73 436425 454764 458944 479915 498917 510862
3704.62 469251 432197 423336 433824 470654 465798
3707.51 457670 455652 379576 414146 458512 388598
3710.40 338499 333770 304497 300871 400234 405098
3713.30 406567 515373 531978 602754 689464 597229
3716.19 635348 724101 708328 714336 683796 711390
3719.08 767812 736246 686621 672063 663862 629471
3721.97 625150 668860 646966 626743 677509 631370
3724.87 598090 596820 530975 530685 537236 509038
3727.76 505266 596948 630976 546517 517451 588912
3730.65 552162 363833 360239 520990 590716 602210
3733.55 572868 468508 406533 501539 584414 507379
3736.44 543968 612379 635886 637289 660742 774631
3739.33 707971 667152 767342 760586 725428 723249
3742.22 656060 635073 677028 561998 537400 696296
3745.12 823802 840808 840305 890591 854890 861844
3748.01 950663 810749 704524 785828 789933 766265
3750.90 806764 771540 720324 817590 850213 867629
3753.79 863129 824229 858551 889592 827242 702995
3756.69 733193 822971 792434 720859 681921 704418
3759.58 743228 731937 727001 760844 781116 707880
3762.47 712143 789152 786045 740199 643841 680695
3765.37 672142 691252 789379 789331 777377 772557
3768.26 797972 799015 800593 786435 705365 652792
3771.15 663552 604544 521126 491059 428328 359490
3774.04 287466 216935 197267 219336 231286 264360
3776.94 281795 258347 368623 425267 364875 411153
3779.83 401461 396851 322963 213598 293040 326717
3782.72 317629 280787 276247 314720 381176 376489
3785.61 338562 346165 395853 462468 321560 169831
3788.51 159765 184732 228132 301755 325402 208961
3791.40 169786 160103 63578 77322 126762 151216
3794.29 170416 154477 197052 282744 193419 73714
3797.19 75996 105213 159909 107708 77356 46286
3800.08 76210 35771-85059 79351 179513 85658
3802.97-44496-45536 7538 98354 190777 166544
3805.86 147311 4282-42946 4283 3129 41746
3808.76 66545 109313 65007 43691 82033 110855
3811.65 96593 47030 43186 91225 55178 12036
3814.54 99174 13405-137387-87980 28772 65765
3817.43-49829-90341-2094 74841 87572-98510
3820.33-119623-6359-53342-29855 6079 43331
3823.22 12495-69223-92889-15406 32446-21140
3826.11-24454-63953-89797-40032 27652 131067
3829.01 119000 65465 56923-35005-85177-49253
3831.90-25349-99064-51090 31438-30504-63982
3834.79-26567 27370-11248-37995-88127-179902
3837.68-77231 20726 12848-26714-3587-16759
3840.58-42730 16362 90652 134648 120777 77049
3843.47 157455 222309 26984-74996-17776-14268
3846.36 29316 63804 50413 35208 13574 73619
3849.25 75935 4406 18320-15007-135942-156896
3852.15-46138 18074-68909-278087-254731-13937
3855.04 39076 69033 55709 9089-17138-5041
3857.93 98056 12024-46495 33094 66341 10435
3860.83-72772-98838-53394 33751 62482 75136
3863.72 60654 27224-33652-47352 42761 91332
3866.61 75347 1647 27253 124651 35047-48881
3869.50-91803-77080-71242-21395 87296 26827
3872.40-30466-1480 14748-13704 9168 50562
3875.29 82979 89085-33415-133252-46330-53564
3878.18-86858-11311 41373 26750 5960 10018
3881.07 8274 3106 40077 53441 4021 48555
3883.97 66010-13431-103894-8667 66727 52779
3886.86 119686 106729 104329 127118 74932 21770
3889.75 51005 46867 31734 89532 113223 63493
3892.65-28852-3638 84299 91924 89751 74170
3895.54-31621-9705 31231 58221 154785 68047
3898.43-31126 29795 85373 109054 126311 134001
3901.32 73173-875 14826 32262-34757-66577
3904.22-19520-13328 16766 6107 7052 130576
3907.11 197950 188605 217098 81143 3213 39691
3910.00 14183 85144 120178 139766 127485 105353
3912.89 217314 209941 201011 198300 76278 77231
3915.79 226010 238653 153558 255529 230061 227540
3918.68 297206 189534 97754 202625 239958 193349
3921.57 287463 263007 206768 243533 296993 253612
3924.47 184611 222679 280188 293855 286176 273138
3927.36 302356 342986 281382 276939 338533 359963
3930.25 368721 383105 448684 393518 380591 537624
3933.14 644547 541111 483321 590811 576140 387225
3936.04 359151 572564 634459 572698 507031 483858
3938.93 580893 617443 547084 599826 649238 675630
3941.82 616127 543558 542690 562325 539046 395718
3944.71 422596 485842 441646 418868 370839 375419
3947.61 344408 346537 390361 355880 360869 483532
3950.50 549791 538126 553542 575209 551398 605574
3953.39 704854 694626 705249 633394 501893 543894
3956.29 672833 741744 729836 682581 678354 631387
3959.18 640304 711259 704481 579741 531787 551529
3962.07 587184 570218 480746 512207 521342 455740
3964.96 423483 381711 310805 331453 304842 287587
3967.86 420444 425637 357210 332099 280237 354381
3970.75 321985 266373 270513 227005 279917 272244
3973.64 304057 381982
##END=
