##TITLE=Dichloromethane
##JCAMP-DX=4.24
##DATA TYPE=INFRARED SPECTRUM
##CLASS=IUPAC A
##ORIGIN=NIST, Analytical Chemistry Division, 301-975-3108
##OWNER=COPYRIGHT (C) 2001 by the U.S. Secretary of Commerce
##DATE=01/06/01
##$SPECTRA VERSION=1.10
##$UNCERTAINTY IN Y=2.1 % relative (B=1.12E-04,C=8.08E-10,D=1.49E-14)
##CAS NAME=Dichloromethane
##CAS REGISTRY NO=75-09-2
##MOLFORM=C H2 Cl2
##MP=-95.1 C
##BP=40 C
##$NIST SOURCE=QUANT-IR
##SPECTROMETER/DATA SYSTEM=IFS66V (Bruker)
##INSTRUMENT PARAMETERS=KBr Beam Splitter; MCT Detector; Multipass cell
##STATE=gas
##SAMPLE DESCRIPTION=Dichloromethane Primary Gas Standard
##PRESSURE=101.3 Pa
##TEMPERATURE=23 C
##SAMPLING PROCEDURE=1 L/min Flow
##RESOLUTION=1.9290
##DATA PROCESSING=Triangular Apodization
##XUNITS=cm-1
##YUNITS=(micromol/mol)-1m-1 (base 10)
##XFACTOR=1.0
##YFACTOR=9.0949E-13
##DELTAX=0.9645
##FIRSTX=575.652
##LASTX=3974.606
##FIRSTY=3.89E-07
##MAXX=3973.64
##MINX=575.65
##MAXY=.0008226
##MINY=-4.94E-07
##NPOINTS=3526
##XYDATA=(X++(Y..Y))
575.65 428474 173458-109766 117561 329052 227468
580.47 110385-298881-147446 188888 321599 351369
586.26 96528 43555 119603-53498-146255 396254
592.04 504952 354868 554208 283330-126533 114
597.83 170679 327903 251362 373820 562277 347033
603.62 289652 123436 36923 239125 95910-84889
609.40 7752 75141 93641 39410-110039 30691
615.19 171094 140998 270602 226787 100257 220500
620.97 226396 10859 23575 217236 228284 242550
626.76 347775 179668 19427-53955-1929 235904
632.54 326133 455452 599224 477163 421887 436890
638.33 458073 511043 563489 561488 605258 688932
644.11 577904 566749 699956 766426 733145 799799
649.90 1055904 1150644 1196422 1555508 1779704 1754053
655.68 1683807 1874999 2299615 2649945 2733660 2967588
661.47 3262899 3514169 3861797 4186102 4696219 5695632
667.26 6213521 6147800 6626740 7061942 7645926 8235627
673.04 8476697 9251410 9940713 10417456 10998273 11387502
678.83 12036569 13015543 13895230 14626496 15501492 16547910
684.61 17496737 18368045 19230905 20152073 21113208 22252538
690.40 23167649 24182928 25353285 26469943 27488486 28658712
696.18 29929413 31262252 32572352 33897036 35275584 37046590
701.97 38124347 38469642 40562089 40728959 40325889 41989936
707.75 39974559 39497938 39051332 36516694 36637389 35774243
713.54 36532571 37851918 41255547 46792916 51497423 59664707
719.32 67527659 71782641 77286698 82264090 84778024 85276994
725.11 83342396 83506893 82794181 79371450 80990985 86619504
730.90 93308904 103702905 118730477 136864740 157810422 184929645
736.68 218286959 255208603 299189004 351642103 410064435 474981547
742.47 544152664 614593997 685865539 754049675 812497692 862362651
748.25 897625582 904507128 893262263 868164614 813315548 755390211
754.04 730791809 721380018 692814124 700800381 722311287 646327355
759.82 615300768 687342548 746682096 774578914 773313477 747427490
765.61 700099622 635855341 560428158 479966810 398782283 322778188
771.39 254742278 196190646 147604820 108652457 78465818 55852746
777.18 39389751 27797078 19688417 14240768 10655675 8299631
782.96 6597476 5484293 4528468 3948379 3636281 3235464
788.75 2977514 2860733 2645056 2369740 2153225 2056659
794.53 1931413 1885523 1810859 1671924 1466833 1361110
800.32 1434072 1438341 1267570 1118101 1120216 1128566
806.11 1030561 1012890 922456 909511 850684 718040
811.89 864245 902088 843966 787449 676477 750359
817.68 686422 586180 631699 649361 613680 524606
823.46 489777 542479 566280 587005 475482 367910
829.25 400181 403529 426297 426855 267963 192719
835.03 238132 356363 425507 322571 275450 341445
840.82 314672 260162 305563 323175 302194 338595
846.60 280718 349018 503504 390562 238045 299127
852.39 324039 371547 417007 447030 427137 330228
858.17 313356 386970 556825 663336 725790 729827
863.96 690966 696051 789069 930356 950557 981302
869.75 1098414 1227818 1354421 1508010 1568008 1682126
875.53 1784543 1899028 1993930 2072374 2277338 2401868
881.32 2372035 2416121 2535746 2721542 2734306 2822177
887.10 2871078 2853295 2898911 2771893 2886623 3118947
892.89 3583938 4407405 5666705 7666635 8727257 6544781
898.67 4291752 3746240 3370309 3230763 3164778 3211023
904.46 3196985 3381659 3450304 3483165 3577761 3658293
910.24 3675359 3691175 3833055 3793845 3745431 3739666
916.03 3751979 3735646 3711586 3624152 3532941 3364545
921.81 3193919 3073389 2957598 2827065 2744523 2636640
927.60 2496179 2342097 2207928 2061657 1983284 1897535
933.39 1806951 1640244 1522396 1499552 1458903 1391489
939.17 1284432 1166220 1068709 993766 917725 873757
944.96 782602 737891 704028 657404 632424 546695
950.74 477720 451210 420687 441910 355135 337772
956.53 345019 286464 324921 309922 240126 260545
962.31 243011 238658 291552 310813 295106 319439
968.10 326164 315262 320753 336211 382179 391714
973.88 384298 440987 495164 473463 476252 484482
979.67 465165 392295 404749 451467 447571 445416
985.45 400491 410555 435199 420099 391971 358078
991.24 398080 436689 431209 458359 445119 381214
997.03 331201 377533 406526 430253 465157 409851
1002.81 354329 310116 326573 274221 205631 273461
1008.60 292175 255313 183996 167585 171885 205641
1014.38 273174 276433 290970 265831 251724 252141
1020.17 221587 268005 334164 380042 407997 382866
1025.95 312140 348654 369453 365584 393468 400014
1031.74 417786 432856 391062 388247 394538 324709
1037.52 390977 487721 441260 374786 373809 448302
1043.31 407008 388870 407866 355259 285193 258467
1049.09 241126 181518 239375 218336 77602 29130
1054.88 62109 40556-28965-34094 18998 68777
1060.67 5750-121650-114183-40974-43542-27173
1066.45 23027 16369-24137-46603-15784-37280
1072.24-106970-71416-29744 2944 12895-35695
1078.02-18855-38385-58536-31714-24338-25525
1083.81-37418 7431-3575-5948 54438 51387
1089.59-20170-38550 31009 6725-63875 23189
1095.38 35682-15244 12566 4978-21537-53411
1101.16-63148-15517-13584-18304-45506-20887
1106.95 32742 42356 27540 14994-14082-33441
1112.73-38039-63665-10417-46410-89923-40213
1118.52-6607 616-5160-23910-10841-31667
1124.31-42779-24336-7717 7060 19040 73484
1130.09 38510 21682-9366-29044-12306 13686
1135.88 30011 8617 28363 24855 29466 71216
1141.66 54999 18520 31684 65995 41177 31833
1147.45 14100 37230 102297 104209 68150 11641
1153.23-22898 57537 70497 59583 135311 174725
1159.02 180560 122482 70235 65664 39648 50088
1164.80 33634 47624 149493 174931 110551 93655
1170.59 106839 81771 65287 87202 117766 135537
1176.37 93354 95106 102133 101074 113960 122306
1182.16 118567 116705 148959 156090 111063 93128
1187.95 113510 148682 179703 166022 156098 187115
1193.73 177060 180391 131626 104996 130563 132871
1199.52 127480 154031 155721 147685 134784 163821
1205.30 172293 148972 163125 214159 236859 277007
1211.09 266736 270706 283500 329478 319561 294604
1216.87 333103 285876 305506 409917 388648 372294
1222.66 372331 391919 418164 455777 495414 574524
1228.44 573655 599475 655690 736572 789625 909578
1234.23 977570 1070475 1271680 1602623 1962086 2421277
1240.01 3020646 3956447 5173623 6884128 9243856 12469807
1245.80 16631245 22124856 29160459 38189278 49324848 62963983
1251.59 78960068 97529106 118120847 140440930 163263498 185495738
1257.37 204455294 219601245 229271519 233698195 225821924 207844637
1263.16 184473074 164419037 160613717 201180971 228597038 139090129
1268.94 82497461 123635932 173915593 218179266 247453750 263128232
1274.73 264542865 254914312 235878910 211039259 182416961 152967894
1280.51 124395651 98443065 75700772 56798560 41520629 29785424
1286.30 20857419 14445819 9902087 6873337 4796490 3433077
1292.08 2543298 2009620 1575736 1369044 1212988 1063277
1297.87 908850 858831 768618 671055 611473 592845
1303.65 516794 464797 438466 441312 404107 398636
1309.44 368909 369152 345324 335638 310210 289742
1315.23 295599 302812 306986 322215 256032 222827
1321.01 195400 191055 207909 239682 227088 217381
1326.80 236590 192252 143465 137568 155442 170457
1332.58 131248 116998 106415 146849 157454 115367
1338.37 113572 121210 125697 140866 188678 182674
1344.15 157822 142679 91153 21719 25911 65837
1349.94 1959 12813 100829 97977-8455 44589
1355.72 64889-27620-31412 60228 93519 87251
1361.51-8522-52830-30973-51973 7989 51757
1367.29 62898 108430 63586 24848-16377 2925
1373.08 62712 56156 82561 127617 137310 83198
1378.87 45000 98786 128906 100211 106465 120975
1384.65 121940 96063 46504 122308 121680 131794
1390.44 191841 144646 127803 129150 111777 132356
1396.22 187174 176209 191203 249968 245540 270191
1402.01 272553 312944 358069 381071 424891 443112
1407.79 412382 464442 466516 456136 561865 618903
1413.58 632378 691051 685956 710302 721523 713779
1419.36 848650 882599 937514 985160 1078271 1188196
1425.15 1273758 1277891 1324466 1388078 1384439 1424322
1430.93 1383628 1347871 1357952 1450370 1570632 1689533
1436.72 1872424 2121804 2320252 2528931 2772751 2967107
1442.51 3190394 3439710 3687858 3987758 4215237 4444104
1448.29 4795027 5185564 5516641 5795428 6128812 6511537
1454.08 6882581 7139878 7399111 7768464 8079095 8161078
1459.86 7965230 7965685 8358912 8656852 8276210 7137648
1465.65 6583124 7309018 8266919 8372946 7426846 6904827
1471.43 7475194 8102488 8328444 7886948 7042328 6320583
1477.22 5592728 4698760 3380637 1911211 938004 545975
1483.00 471144 449054 377506 284973 297049 259793
1488.79 193734 220943 227780 232920 177249 145264
1494.57 108261 103877 147430 116258 120186 163314
1500.36 116042 37883 41291 25538-17262-40313
1506.15-70248-40517-3159-2704 7923-9067
1511.93-23011-21896-21772-21188-26887-10685
1517.72 11291-7339-97894-127445-90437-22636
1523.50 3111-30340-10902 4309 16072 61228
1529.29 64459 43042 59575 35756 94147 221675
1535.07 287900 331105 321587 293218 327859 409937
1540.86 394970 414043 522538 520825 426107 391747
1546.64 512416 475975 285431 349775 593000 538309
1552.43 378218 400750 457927 527029 532105 487152
1558.21 438669 374872 382951 370369 304903 242529
1564.00 154114 144377 135028 76347 12447 703
1569.79 36713 39939 36923 20834 5327-63800
1575.57-101424-34286-3261 17882 24155 32887
1581.36 22215 22861 23673 7022 6160 49076
1587.14 82863 65879 46550 13072 12366 30886
1592.93 32019 57590 58159 45647 56681 71831
1598.71 67733 32326 44700 74871 75096 82177
1604.50 72775 62083 82066 96761 84678 59012
1610.28 57155 36016 22250 43096 42403-45450
1616.07-89147-1438 57949 42514 34627 40859
1621.85-12959 21783 65861 38729 29371 15380
1627.64 19901 29983-4129-15466 18787 14192
1633.43-35408-85459-52738-11296 3604 26552
1639.21 9078-26337-1738 2063-58771-78813
1645.00-58946-35295-46997-13759-413-31713
1650.78-91651-186645-150742-61659-6382-12689
1656.57-37820-39717-20772 3168-5621-24744
1662.35-40755-29897-44116-31825-3-20661
1668.14-81009-65209-38506-9481 28514-20385
1673.92-89809-80969-15196 4194-7271-34397
1679.71-16797 16071-39863-127226-209905-138546
1685.49-46165-26362 14697 1684 11445 4186
1691.28 688 12559 13390-37907-88859-28886
1697.07-12234-66559-113602-93974-34867-14263
1702.85-7436 5757 4813 13822 57689 42859
1708.64-10142-15158 3875 22229 19904-13028
1714.42-29919-22623-53966-16193 33642 40935
1720.21 52166 47136 66726 64106 56269 68363
1725.99 80334 95526 78815 48313 47948 53876
1731.78-8472-42821-6897 28120 32037 24241
1737.56 29881 26955 39374 78277 66734 21269
1743.35 15078 14681 17989 34213 13556 2022
1749.13 20817-8630-7016 15240 17634 26001
1754.92-3947 2928 40681 33514 8527 7161
1760.71-16966-37675 3538 45097 47913 39989
1766.49 19782-6504 20636 7228-17289-21508
1772.28 6925 36877 28934 49024 46551 36112
1778.06 38190 30462 34489 61821 92630 89964
1783.85 72341 43200-11211-34100 11208 56893
1789.63 40214 14880-57862-63688-2393 28418
1795.42 53807 64881 79200 76287 64846 40537
1801.20 19617 42853 47859 10661 3167 18982
1806.99 76893 70884 16844 9663 29948 34751
1812.77 20541 42012 39398 3984-19422-19093
1818.56-14013 17760 50217 43665 12735-25273
1824.35-10814 17826 4826-3010-8517-10641
1830.13 4883 9678-6360-3429 21310 25267
1835.92 15840 3434 8150 21090 18062 37753
1841.70 24429-70483-70268 9346 33042 25326
1847.49-1706-31656-11393-4252-10815-446
1853.27-10462 18903 3488-35539-36174-31039
1859.06-10609-17374-5911 21331 10098 11292
1864.84 18042-13465-14739-9827-37159-39032
1870.63-14952-2702-18201-55220-60670-34866
1876.41-18456-3099-14496-12111-8887-3004
1882.20 9851-9147-30090 3697 39050 31125
1887.99 6900-29310-28658-12095-8559-25435
1893.77-24585 10490 23498 27858 30631 10030
1899.56-22000-19664-7863-13649 543-1273
1905.34 7432-4319-21787 8104 10579 5080
1911.13 220-18743-28109-9094-33738-31905
1916.91-6283-22990-10690 13319 12829 5623
1922.70-3480-1204-11462-34288-29262-22116
1928.48 457-14-255 52-22110-18530
1934.27-24880-31053-53561-73673-60789-53770
1940.05-49736-40450-30045-48026-44528-9584
1945.84-12510-15514-31826-41167 10557 40350
1951.63-2697-20776-37777-31687 14712 1327
1957.41 2089 18209 25721 40146 58502 72601
1963.20 84311 84504 80489 74059 83318 107511
1968.98 160380 201137 198899 217825 275383 241157
1974.77 151787 186573 230686 227191 198594 210925
1980.55 223966 210937 242485 224465 207028 286621
1986.34 327282 320143 340016 357039 324675 275367
1992.12 223917 183669 139878 84046 75557 82655
1997.91 59275 47410 31208 41985 58163 49308
2003.69 66237 42335 56248 89253 79948 68959
2009.48 63570 64159 66074 85529 85555 72260
2015.27 44628 37098 50000 38827 60006 63159
2021.05 44548 27603 30487 78628 82617 73282
2026.84 91483 104593 82316 53040 61648 116279
2032.62 121935 82264 106991 119164 147452 170387
2038.41 149052 192034 243559 268928 315285 399350
2044.19 452916 495922 588246 682070 717964 766034
2049.98 828074 831128 806001 749962 726814 664927
2055.76 603837 597233 650526 654585 437488 328680
2061.55 461440 644119 774123 832092 818514 794580
2067.33 772369 673581 578106 495917 414219 322469
2073.12 245330 208306 136543 47879 36072 53389
2078.91 30587 13327-7682 5445-15558-11812
2084.69-3368-21676 10911 10409 4397-29289
2090.48-50616-42092-9797 15562 13347 2396
2096.26 9524-3301-19857 9274 2180-18162
2102.05-61762-38859 14736 30447 19793 15811
2107.83 23457 44182 27361-21853 31184 74634
2113.62 50670 38433 60768 77035 89607 46246
2119.40 37845 59317 78277 76912 51722 102618
2125.19 151215 102552 97318 168678 207413 197355
2130.97 178689 210375 240789 230397 225120 249595
2136.76 242182 234823 272729 281218 248860 274365
2142.55 298282 270556 246824 218878 202377 226033
2148.33 259716 294199 361451 415735 414765 391735
2154.12 389640 427088 415335 344490 347170 384899
2159.90 353374 296289 340309 392554 352285 358427
2165.69 411975 422572 357306 350590 445843 487199
2171.47 488748 547128 575830 497284 447741 558213
2177.26 643535 596086 618180 651666 546959 445912
2183.04 458047 481750 439198 449800 482094 460196
2188.83 379079 317527 287787 261193 263058 309027
2194.61 288182 204981 221566 216936 191214 170100
2200.40 172194 139483 71440 61984 33919-10913
2206.19-14455 14950 22562 10253 819-6799
2211.97-10215-18525-38592-7784 8849-14051
2217.76-19581-14591 893 15012-4763-23629
2223.54-33270-11026 9879 16923 18315 19420
2229.33 44567 57467 63193 50426 51314 61688
2235.11 62529 71287 46021 11591 28144 26964
2240.90 43605 62703 90328 123065 113918 91191
2246.68 92719 120397 121643 92687 120524 173664
2252.47 142821 110784 123029 137019 120562 128863
2258.25 137254 144282 158602 189219 195157 187932
2264.04 221741 232553 224230 193220 222790 264249
2269.83 271072 309643 339725 381437 382784 407896
2275.61 454604 505324 549621 581057 602919 636409
2281.40 719221 772468 834922 876737 919635 1009839
2287.18 1052039 1081740 1103073 1177759 1290216 1365343
2292.97 1411787 1446000 1505636 1611267 1670925 1721396
2298.75 1757383 1853462 1911599 1988575 2029411 2037243
2304.54 1954468 1967189 1934153 1962161 1978097 2005721
2310.32 2058833 2129141 2305430 2370117 2568969 2933626
2316.11 3592247 4514322 5161967 4155179 2997137 2633214
2321.89 2455304 2391896 2340582 2392474 2459141 2523324
2327.68 2565582 2601771 2616615 2652798 2638888 2639696
2333.47 2618007 2591704 2565551 2493494 2514314 2455868
2339.25 2358723 2256593 2148992 2053155 1912528 1787925
2345.04 1620498 1457069 1320727 1206383 1198974 1224413
2350.82 1264128 1336332 1396066 1437119 1460856 1491078
2356.61 1556537 1580466 1570281 1572323 1559571 1517650
2362.39 1470376 1427513 1351213 1283586 1187934 1095053
2368.18 1023089 937033 831491 749399 688702 624771
2373.96 564494 482177 408733 359473 317030 276987
2379.75 272040 255446 223646 236602 235945 234935
2385.53 246823 256173 252064 285269 315580 299834
2391.32 298538 278036 282141 269986 312223 323171
2397.11 325216 335948 340678 382892 359768 395008
2402.89 361422 351575 383840 412386 378169 344373
2408.68 343536 338143 357153 376292 413263 675808
2414.46 1143652 915931 492593 421943 397355 374654
2420.25 339461 378904 354455 325505 370971 401334
2426.03 367341 346229 368980 359763 326403 318105
2431.82 343104 372202 332251 284748 252221 268573
2437.60 300224 257839 229629 232354 247006 227361
2443.39 184276 206588 186181 168034 198936 187742
2449.17 198438 160467 78264 79238 80837 48826
2454.96 84715 88537 45352 46034 50463 32842
2460.75 9510 4550-16838-4429 55895 48100
2466.53-10713-1192 28501-4201-8567 17305
2472.32-1258-15660 8040 4959-11123 14884
2478.10 53031 43564 43649 44048-1821-4802
2483.89 16312 40462 44548 18043 40052 55800
2489.67 66267 71973 69166 78080 84813 61492
2495.46-5026-11889 3434-2143-3622-16528
2501.24-36382-15888-63708-126003-132636-114557
2507.03-64106-84404-134664-145640-98010-136688
2512.81-155615-164227-203838-201274-213920-202851
2518.60-215142-217017-234219-265279-317073-336941
2524.39-336092-321695-276811-234981-202039-123722
2530.17-38354-59328-85905-173324-315317-267110
2535.96 57044 285029 143401-63259-177401-214115
2541.74-227868-270847-285624-300950-312739-365452
2547.53-440315-478147-479749-509414-544024-511734
2553.31-488498-469845-439751-451861-422192-380419
2559.10-371649-337082-352948-314014-235775-255063
2564.88-234188-186514-178785-172549-174716-174124
2570.67-139364-130231-102754-72320-109976-68997
2576.45-32667-53570-48652-53948-48124-17193
2582.24-28568-32091-6490-6387 4934-9637
2588.03-57460-21335 2506 5109-9318-63821
2593.81-53471 3203 56934 62854 30556 1387
2599.60 8191 29206 27997 16566-25440-41143
2605.38-15600-10952-30106-52689-27380 3572
2611.17-20957-63894-59317-1507 16136 5169
2616.95-16538-30175-1735 15749 65439 103040
2622.74 88584 73668 42035-24849-91736-114134
2628.52-70354-32398-7778 1851 9495-4512
2634.31 6732 18920-8030 3482 15913-1406
2640.09 2509 27876-9268-47164-6523 47414
2645.88 9170-33792-26378-18386 32732 74220
2651.67 55461 1888-46624-44503-22766 9628
2657.45 48193 24897-11720 4014-869 42378
2663.24 75523 34775-20929-1841 24796 19844
2669.02 45495 114771 155138 127873 140312 162955
2674.81 209347 289692 370868 428756 472486 541894
2680.59 695447 848378 988059 1211800 1472853 1720564
2686.38 1958248 2174810 2355072 2536543 2706296 2716412
2692.16 2709458 2648767 2449808 2247213 2099615 2108607
2697.95 2156535 1975036 1392356 1240895 1814652 2435327
2703.73 2861222 3094918 3213230 3157259 2939791 2599652
2709.52 2208749 1847892 1450702 1066352 809570 608153
2715.31 452498 324592 192443 145038 124164 77022
2721.09 28704 14222 43094 77296 73058 26142
2726.88 30034 46845 33678 41333 50748 24928
2732.66-7620 28023 41065 7649 310 14314
2738.45 6050 33679 49879-12357-14783 50341
2744.23 39006-20081 28132 59653 61238 51292
2750.02 8376-15182 37605 86392 47892 50403
2755.80 82676 55851 17206 8808 9656 4209
2761.59 4921-10929-58400-55447-28443-42254
2767.37 7463 43077 33891 86026 89147 28650
2773.16-3398-28863-32607 55728 58854 7312
2778.95 26636 53794 39701 3905 10648 27500
2784.73 41992 58853 42879 31521 30396 20919
2790.52 24311 27998-8471 4773 30995 2261
2796.30 18102 57012 102012 54692 14073 33761
2802.09 32830 57242 111298 133626 105406 127940
2807.87 185897 180517 143260 127846 163827 262633
2813.66 306993 294470 258333 211491 219907 289291
2819.44 370615 375660 413407 419461 465201 484754
2825.23 486253 531876 546079 521110 545041 616132
2831.01 639258 643138 744931 803595 790763 830758
2836.80 851542 897540 925094 958447 1023332 1111310
2842.59 1155587 1261572 1224170 1184252 1161553 1086036
2848.37 1048670 955304 879277 732228 673142 704313
2854.16 778959 913305 1056458 1149464 1157665 1166593
2859.94 1249642 1289254 1318965 1399970 1327564 1225877
2865.73 1221319 1210606 1101053 1004919 949934 862649
2871.51 810098 809186 769355 729793 741763 753034
2877.30 659203 579878 553894 545861 540427 522269
2883.08 528264 451621 427163 423488 363160 316968
2888.87 283003 283684 245875 267481 272714 207836
2894.65 195562 186305 158648 133778 131869 143619
2900.44 144520 172343 193775 130455 134461 112475
2906.23 77834 111735 79410 84791 110124 137972
2912.01 146959 141492 203784 154989 143721 227138
2917.80 210800 161794 169460 208990 209584 200169
2923.58 234122 291429 263041 266828 371842 349278
2929.37 376838 425692 418834 460947 475484 568247
2935.15 645780 673768 727117 843520 897896 965584
2940.94 1080274 1190756 1240457 1336819 1518216 1656164
2946.72 1854875 2038082 2191146 2312380 2545156 2782018
2952.51 3021405 3355520 3538321 3839662 4152371 4370559
2958.29 4831500 5013988 5493923 5786382 6488095 6735600
2964.08 7336625 7570918 8175738 8564237 9116127 9519147
2969.87 10143308 10631034 11180670 11726158 12207819 13009372
2975.65 13274684 14605670 14780883 15967158 16523485 17714596
2981.44 18913232 19563051 21008753 21676316 23297006 23946863
2987.22 24847151 25339479 25085551 25254403 23968906 23174634
2993.01 20903675 18271620 15476931 13492372 13303043 14558852
2998.79 17322336 20013322 22602945 24813555 26537494 27117215
3004.58 27507779 27160361 26762680 26052199 24973422 23816548
3010.36 22702625 21837696 20749916 19773560 18743883 18000332
3016.15 17225286 16611666 15728633 15142228 14523677 14090804
3021.93 13559429 12777746 12373746 11966182 11373950 10803863
3027.72 10326108 9802875 9136317 8551338 8045265 7433087
3033.51 6943475 6530781 6094563 5680220 5261082 4852486
3039.29 4424242 4023621 3739943 3458639 3118898 2821734
3045.08 2589647 2426033 2274165 2049919 1865581 1703889
3050.86 1547762 1398626 1215707 1065544 984721 917349
3056.65 803373 750356 708281 641601 579601 473829
3062.43 367662 336497 348412 293272 328859 299720
3068.22 240026 236567 225367 215802 208500 211830
3074.00 191872 222995 211737 152750 101084 36134
3079.79 36381 78572 52811 1860 35738 74817
3085.57 18995-20648 18645 25522-1146-6215
3091.36-8472 2458 23430 35356-43888-83121
3097.15 45579 20659-20239 25521-18590-43448
3102.93-30506 2424-16178-18059-4183-49157
3108.72-80531-52642-37133-41217 23575 22856
3114.50-2711 9885-1928 3383 17292 22731
3120.29-12499-16272 23841 58644 42851 44583
3126.07 61026-20616-82316-85565-15694 43965
3131.86 4796-8471-22490-88834-14110 102124
3137.64 44413 10951 50173 31428-7478 27188
3143.43 29827 1470 51530 54738 71375 7997
3149.21-31931 23866 16055 4143-3272 29447
3155.00 26903-2927 4841 17215 25518 12477
3160.79-18885-46134-20146 16681 70610 27998
3166.57-25488 16323-4620-11586 22543 45312
3172.36 54639 5366-66182-69279-33480 21077
3178.14 2222 1414 24409-31302-44591-36017
3183.93-47518 11225 30124 22784 49584 23570
3189.71 8059-30801-94943-31547 36273-301
3195.50-13136 9377 16939 32840 68478 16188
3201.28-58495-66183-1292 273-15674-3231
3207.07-22466 18600 59240 14195-27415 15743
3212.85 49466 104862 88508 26401 43358 35282
3218.64 12902-23173-47916-14274-25429-39274
3224.43 15183-6549-49253-11210-30791-79599
3230.21-28747 38544 81360 76959 60433 22870
3236.00 26006-14630-106162-58233 200 26678
3241.78 21173-34172-35119 35770 65264 81319
3247.57 36592-15015 34013 14728 43293 61776
3253.35-47879-41300 18154 72665 60584 50470
3259.14 125049 97325 70559 89960 110862 114192
3264.92 57699 40441 45213 69374 75724 73239
3270.71 72880 103287 116395 50184 80939 60688
3276.49-1841 41366 49745 990 56319 128856
3282.28 132333 59452-15786 26087 35627 100197
3288.07 105912 29746 23097 44451 31573 21490
3293.85 16837-27680 22862 107420 115342 28057
3299.64-5947 29215 35497 41434 7710-16097
3305.42 36657 56589 27631 49159 61523 33857
3311.21 30815-20794-100981-19003 81866 53250
3316.99 41574 65493 24411 17100 75692 66330
3322.78 18310-28211-55597 6665 51469-28235
3328.56-13378 20765-916 9700-1082 33876
3334.35 19082-42408-70011-81812-25301 28205
3340.13 19946-4142-10158-15454 33326 12783
3345.92 10362 12971-22434-44963-34768-37143
3351.71-66019-27495-46697-10501 33566 23982
3357.49-42462-69685-38829-70447-60095-16089
3363.28-45073-127946-88564-54484-68667 4512
3369.06 34377-44053-52582-10745 18232 19406
3374.85 15911-23072-57291-244 11456-5158
3380.63 13035 45523 69349 21195-10252 26073
3386.42 21731 48278 3444-29802-9307-27720
3392.20 30341 63967 66218 93811 122539 118610
3397.99-3146-75293-47580-16416 17978 40192
3403.77-9947-93156-54078-5208 18032 8615
3409.56-106022-117264-44938 26846 58272 96008
3415.35 55579 5367 55580 33412 8116 26419
3421.13-4847-46833-20693-1499-46655-44763
3426.92 49596 48043-1464 29176-18893-20633
3432.70 65354 56165-14659-5624 40531-20640
3438.49-2354 68998 52288 82343 76873 23790
3444.27 46576 74440 48215-12829 8938 31890
3450.06 32769 42027 60024 10532-52412-26051
3455.84-12523-23531-32848-23116 49376 84821
3461.63 29221-6471-5370 10936 28491 47461
3467.41 78694 49775 12696 3294-74800-32960
3473.20-25439-104071-48045 19424-9263-110490
3478.99-103405-61606 37101 76016-23950-68626
3484.77-75131-74133-100216-73377-90830-116931
3490.56-91588-92292-69426-94849-103947-67533
3496.34-21780-44909-73913-79524-69650 23136
3502.13 38181-15845-69890-55966-17384-51150
3507.91-76722-46227-10047 6433-8039-20486
3513.70-22864-88374-153337-171330-71974-43097
3519.48-60585 37634 25350-6331-18834-86223
3525.27-75454-23760-75402-62410-29581 12642
3531.05 67446 49496 35559-1679 2554 56626
3536.84 32000-7658 31667 32180 47879 105705
3542.63 84647 59179 68464 69126 101715 160346
3548.41 156489 140934 175628 117929 72420 149949
3554.20 190719 138332 57436 108825 171906 183770
3559.98 164236 93377 58401 110753 169927 151437
3565.77 129667 63122 30966 37236 85939 89609
3571.55 46316-14573-33151 68559 99678 49611
3577.34 28912-2264-38409 8601 23901 50949
3583.12 73099 57314 53250-10321-70057-22987
3588.91 88173 121768 77358 33234 465-13260
3594.69 21068 107137 123560 60994 59115 24703
3600.48 23663 57513 16668 19967-3575-11497
3606.27 33087-32736-75275-26375 9966-22591
3612.05-42676 27549 52423 21689-18692-38867
3617.84-7314 34942 3724-12326 32063 31662
3623.62 19844 10179-18678 29962-9339-92181
3629.41-27399 11311 2867-40738-96343-26320
3635.19 35985 2094-28463-49928-45681-10513
3640.98 13593 29108 57191 77327 40405-23040
3646.76-80460-69204-8096-24391-82341 30810
3652.55 126771 49837 69-63942-69720 10519
3658.33-21167-67495 27616 96263 105998 55357
3664.12 18760 27422 52922 22720 4109 7304
3669.91-10102 21334 42821 76949 43600 3704
3675.69 51900 124717 157759 139317 112316 163755
3681.48 223142 254200 217953 193575 243213 209339
3687.26 164708 236809 270390 229307 307456 376460
3693.05 360354 334129 363763 378389 376826 428831
3698.83 445350 427432 431104 451749 478757 487265
3704.62 446668 443271 462775 435725 420292 397431
3710.40 337030 348437 410553 494517 595649 637919
3716.19 680436 702091 714061 720711 671920 644601
3721.97 643512 648094 629162 581241 538389 529680
3727.76 569197 572307 539265 451027 494091 578653
3733.55 497456 500503 551650 592782 655973 702885
3739.33 718630 736807 704925 655132 609207 690725
3745.12 826682 854173 874250 818770 766163 787051
3750.90 769433 802947 847566 850245 837468 770242
3756.69 770349 741361 710204 737159 747325 738943
3762.47 754379 729563 674150 719482 771136 777327
3768.26 787608 751767 670713 590513 484409 366084
3774.04 253225 234870 263604 313429 377926 400335
3779.83 362677 292180 305051 300773 325500 357764
3785.61 367967 373328 235509 200913 272957 235741
3791.40 138440 110341 144613 184516 207647 129509
3797.19 109830 113232 70325 26157 65712 70801
3802.97-4848 95421 147095 46845-1455 49419
3808.76 75106 74828 85568 73839 55496 60028
3814.54-13457-36716-109-20895 25722-23785
3820.33-57395-8638 8719-33224-27230-3769
3826.11-52694-18037 79971 73220-14656-51002
3831.90-45875-21765-26285-5630-46023-93919
3837.68-24419 2024-18591 34008 98511 126557
3843.47 114983 1634-1051 46286 41236 46860
3849.25 36067-48707-84110-57431-157375-75752
3855.04 53362 13735 23872 18524 22530-1248
3860.83-53294 11831 65866 16179 3533 52608
3866.61 49219 50062-16893-69746 28 22026
3872.40 1359 5282 49868 34729-52864-58999
3878.18-10246 22650 12206 21140 35309 40646
3883.97-5007-4027 74017 106545 97619 56839
3889.75 47172 79680 52029 28958 83011 50210
3895.54 12012 74063 64755 39866 105930 101947
3901.32 41883 4490-22783-3974 25140 110773
3907.11 183766 103406 37811 84768 127736 151144
3912.89 202570 160943 143547 203490 222648 244468
3918.68 202943 186247 241130 246925 255936 245498
3924.47 242923 282048 297265 307741 312275 354000
3930.25 397864 416629 508822 555520 534176 464106
3936.04 518506 564688 532268 574141 606413 628029
3941.82 575252 531743 466287 446437 423547 373478
3947.61 370127 383004 467006 545051 561422 617676
3953.39 684454 613053 590313 695423 689407 650928
3959.18 670255 605262 558033 545337 506870 463070
3964.96 383473 324352 347215 386850 340277 319806
3970.75 292573 260969 291840 346676
##END=
