##TITLE=Acetonitrile
##JCAMP-DX=4.24
##DATA TYPE=INFRARED SPECTRUM
##CLASS=IUPAC A
##ORIGIN=NIST, Anayltical Chemistry Division, 301-975-3108
##OWNER=COPYRIGHT (C) 1998 by the U.S. Secretary of Commerce
##DATE=98/10/1
##$SPECTRA VERSION=1.00
##$UNCERTAINTY IN Y=2.0 % relative (B=1.0E-04,C=3.1E-10,D=2.7E-14)
##CAS NAME=Nitrile-Acetic Acid
##CAS REGISTRY NO=75-05-8
##MOLFORM=C H3 C N
##MP=-45.72 C
##BP=81.6 C
##$NIST SOURCE=QUANT-IR
##SPECTROMETER/DATA SYSTEM=IFS66V (Bruker)
##INSTRUMENT PARAMETERS=KBr Beam splitter; MCT Detector; Multipass cell
##STATE=gas
##SAMPLE DESCRIPTION=Acetonitrile Primary Gas Standard
##PRESSURE=101.3 kPa
##TEMPERATURE=23 C
##SAMPLING PROCEDURE=1 L/min Flow
##RESOLUTION=1.9290
##DATA PROCESSING=Boxcar Apodization
##XUNITS=cm-1
##YUNITS=(micromol/mol)-1m-1 (base 10)
##XFACTOR=1.0
##YFACTOR=11.368E-14
##DELTAX=0.9645
##FIRSTX=574.687
##LASTX=3974.595
##FIRSTY=0
##MAXX=3973.63
##MINX=574.69
##MAXY=.000127
##MINY=-5.94E-07
##NPOINTS=3527
##XYDATA=(X++(Y..Y))
574.69-150288-2432296-1997776-2698334-1238836-3162348
579.51 1188776 1703342-1444736-4446050-4311212-443458
585.29-5226904 2200796-2506948 555312-4202382-3128798
591.08-3357036 1140-1879072-1198288-1870054-3072688
596.86-2370466 5012-3049988-1060766-652178 7340
602.65-3082028-1147444-4225134-254206-2075434 2165148
608.44-1514120-1964938-2507932 455976-2895812-1097472
614.22-2620036-1652872 77696-100626-1024560 229732
620.01-2459752-1749244-2352368 112266-719942-1043448
625.79-816338 814686-1818546-871350-548206-241290
631.58-1276140 83492-836794-986386-1208800-1856188
637.36 448074 476610-1189882 239736-1430436 1387908
643.15-1572618 175848-98118 454360 201408 1246576
648.93-864786 653888-1460602 1544486 358252 1210778
654.72-676626 262348-180418 278328-276510 1154692
660.50-1081844 1464276-7120 1449442 1262914 1397758
666.29 2519462 2857570 214988 3634402 861170 2648648
672.08 1361882 3269042 1100794 4371872 2095942 2993210
677.86 3965546 4562242 4343482 7196662 5534630 8184532
683.65 9631480 12679220 13108000 16776120 17628010 21725200
689.43 24386270 29801990 31182670 38334560 39951100 45896480
695.22 47859160 53850720 53744460 58988880 58847720 65195930
701.00 60414150 64463370 58534750 59832520 53676460 55319390
706.79 43510240 48258710 40529260 37008800 22592980 50470950
712.57 33149850 19140060 12968060 65834300 51821480 21871060
718.36 34115170 33010870 42131220 40988820 48437020 47610500
724.14 51542390 50602750 51636600 50361130 49939090 46924380
729.93 46602320 42566930 41120750 37673940 35128990 31977620
735.71 30541590 26045240 23625310 21095850 19846770 17866680
741.50 15444500 12743900 11631680 9557918 8169026 7280426
747.29 5397562 4811968 4242190 3874230 2858762 2322128
753.07 1110312 1282296 983800 623152 68790-33316
758.86-342262-614-360400 139454-516746-1516126
764.64-1131196-255616-548314-991258-1588568 550564
770.43-1328914-904004-1097726-820694-1155506-628922
776.21-487090-1237340-1316444-807086-1369122-224640
782.00-1515708-699912-1348478-160182-597332-1120500
787.78-1579552-1401404-939756-1069772-1478700-1676122
793.57-794528-448580-1003924-1142506-1830006-1692168
799.35-672678-1053994-1440890-899778-1871826-676936
805.14-2015984-822206-1997078-1512308-918416-1583708
810.93-689058-1531740-1382732-898882-1682938-1320466
816.71-1162836-384234-1987714-803200-1590028-155824
822.50-1653086-408970-1299840-966218-1118646-761054
828.28-753256-1217168-1519978-884628-2424572 254712
834.07-1841680-822840-1085186-941398-1963500-842658
839.85-1533178-611082-949854-68918-1175752-1061284
845.64-1846182-582742-2046226-702440-740914-513506
851.42-1213220-382542-2052312-534188-821768-1253354
857.21-1427060-776846-1476932-822638-835866-1026568
862.99-480586-1021402-909554-790358-479772-743772
868.78-1017316-776634-638068-355344-513566 123878
874.57-423396 591392 721578 1272718 792322 1545358
880.35 1837532 2551748 2572996 3910706 3990350 5517878
886.14 6060120 7847772 8561226 10430870 11228570 14177250
891.92 14605880 17576800 18469850 20941150 22854940 25990260
897.71 28618570 30730740 33234550 36128760 37756420 40875990
903.49 41543520 43881620 44379280 45451080 45072640 45961910
909.28 44175960 44870860 39990290 38138980 33169080 30180480
915.06 24886760 22130880 17839890 32532070 68830280 12842080
920.85 8563364 11430960 21448290 33723780 21371110 26443910
926.63 30205500 36724550 36492450 37763720 39293820 40385890
932.42 39377470 38727660 36760800 35060430 32494690 30029470
938.21 26921750 24909330 21342460 18594380 15900230 13712470
943.99 11028800 8934970 7007252 6263164 4064990 4124052
949.78 2104374 1727580 1120986 875228 561052 153530
955.56-19898-66880-629034 224124-166874 379722
961.35-666286 330720-357612 1017108 580118 806550
967.13 774998 1148964 1272084 1608352 556880 1977560
972.92 1566336 2492464 2333330 2454522 2981304 3790780
978.70 4920020 5914088 3768690 5571638 4440240 6937102
984.49 7438738 6855732 6616932 8377246 9089562 10575030
990.27 8578136 13810060 7644438 16991400 24097120 8063416
996.06 13186620 13206050 12898060 29792200 12944540 17533240
1001.85 21630900 13659010 36079170 26580080 17053390 23488420
1007.63 7368796 54140580 66589360 15128100 29786170 15941910
1013.42 36913280 58606890 29640070 19457040 39375870 31422240
1019.20 63287700 59380460 15510300 46713090 20310800 49008250
1024.99 164053100 40049050 33458680 33125100 18810100 76299500
1030.77 100959100 14885030 44828720 29342510 38550600 111528700
1036.56 66938840 37754190 48556240 10526100 85775780 220919500
1042.34 29271230 37679420 46925470 20243350 91068050 105879300
1048.13 17952980 46589840 43933810 26233230 101323300 81438950
1053.91 18024760 51634900 52559880 31495930 159119500 91488140
1059.70 12973290 48893540 35266480 43479790 78188300 54567560
1065.48 18089510 42739010 33154800 35002910 67296340 42256580
1071.27 22462180 38563140 16735320 50228220 78294260 30550290
1077.06 25326330 32646940 22268890 28996590 24993250 42672330
1082.84 22653900 19713200 16512320 20099340 21597950 35575670
1088.63 14688760 17779490 11380520 16108860 16213500 36509800
1094.41 11861410 12425730 7966702 11075110 7126422 16361250
1100.20 10494370 10506370 6864950 9605816 7406584 10661430
1105.98 7985434 7372492 4779512 6866626 3466118 6889474
1111.77 6575948 5477538 1955700 5041508 1138766 4369974
1117.55 1970966 3708940 813006 4034242 274324 3264870
1123.34 609694 3442870-562726 2469698-511740 2479618
1129.12-296956 2590572-905798 1645086-1249960 1773592
1134.91-909612 1725260-1097082 1259968-1272556 1561080
1140.70-1020648 1297334-1091780 1516994-1509012 1351498
1146.48-1523614 1289694-972662 1148170-1397308 1052218
1152.27-1634742 1247824-1626838 1039080-1768792 1280664
1158.05-1827204 994138-1824964 1263300-1752722 660768
1163.84-1543302 1195438-1961636 1298642-1658744 1122874
1169.62-1762236 1020212-1564900 846594-1713928 1140910
1175.41-2015502 1173388-1846336 806290-1767690 749494
1181.19-1731788 737186-1985682 1028768-1953546 1120670
1186.98-1968704 1028276-1626270 1022536-2011128 1276408
1192.76-1606672 1583046-1334052 1026222-1692342 1311692
1198.55-1794040 1293082-1415956 1186240-1499306 1236202
1204.34-1422998 1352214-1621814 1220370-1286552 1670012
1210.12-1520708 1294410-1282418 1322460-886040 2275142
1215.91-1040896 1253404-1213032 2028602-1043682 1644674
1221.69-1760448 1300904-1584916 1874508-1623284 1925512
1227.48-1108166 1522030-1500618 1480866-1245728 1710240
1233.26-1599128 2244378-1787338 2221688-1088630 3883246
1239.05 590786 2450028-727958 1985594-743226 2184734
1244.83-1154980 2211632-1061220 1958500-1165752 2548300
1250.62-1010112 2391550 1862444 4306706-717828 3199556
1256.40-697776 4539388-22560 3004334-1116088 5133288
1262.19 2224028 3614270 214352 3683790 1635676 7807684
1267.98 1068712 6136514 1432714 6238340 2330176 6839694
1273.76 1843374 6329478 1814718 7928556 2232828 8645328
1279.55 1451350 17401030 10256550 10045790 4089484 18767440
1285.33 15503220 11469790 7597050 7077602 2259676 6684068
1291.12 1193612 9040476 685860 20480260 27639500 7900682
1296.90 10462090 7351858 8670848 8906862 9163360 10497480
1302.69 6154006 10209540 7962300 8332382 5030978 20343690
1308.47 39107520 14112410 13316900 11529530 12151760 12683740
1314.26 14440370 14732270 16362250 12669040 14284890 11904710
1320.04 16640940 14714520 53764870 39854660 20800980 26203900
1325.83 22082630 30957880 24649320 30250880 24905600 44815390
1331.61 29452580 12064770 21667300 18320220 98099440 117036700
1337.40 20644660 45403300 13917140 32732450 16468190 31818430
1343.19 19946700 35360300 28568770 30427410 22505080 40850670
1348.97 79587330 110691800 34772680 54276700 20925620 100026800
1354.76 45076800 37142240 32922450 46390640 44480890 62693200
1360.54 54912980 82151070 100842900 128821300 72963020 70640370
1366.33 78725540 107656900 108441400 122893800 133236400 145723100
1372.11 123314100 156376600 147476600 198877100 286123600 288794900
1377.90 170945600 123415900 117853100 109437100 121733200 130798200
1383.68 134961000 166693900 160091400 183187300 159471200 181936200
1389.47 172608600 170871700 168262600 235561300 247074200 247526600
1395.25 225563100 223609900 210783300 212623000 228627800 242133100
1401.04 173557400 195170400 158253600 183127300 151008900 328066900
1406.83 310381000 249069000 219449700 220935000 167275800 190597600
1412.61 145079900 165328200 137267900 228399100 151465700 176798600
1418.40 74148750 414548400 640592700 485883600 366093200 227444600
1424.18 205374100 129997100 153511900 116213100 129254000 109876200
1429.97 123217400 110531200 129138900 141770500 498696900 325802600
1435.75 186784300 177090800 166450000 150408100 119204200 129609000
1441.54 94712460 209241400 265239400 131083200 136225200 113115700
1447.32 223969200 533766400 226843800 174541800 112221100 195889100
1453.11 141202100 139299700 107105000 196682400 91501730 160262800
1458.89 51020460 199008800 47755860 678987600 1117215000 154066900
1464.68 236536500 114669000 194268100 111059600 179612400 133340100
1470.47 141020800 121592300 146345500 125405500 195362400 156697000
1476.25 115539800 257511700 429825100 183280700 156913700 468333800
1482.04 450786800 136351800 195901400 81903740 166750800 94359940
1487.82 141060900 91029290 135795600 108765500 173305200 103742600
1493.61 158997500 324391300 218604000 67992820 339608900 259052300
1499.39 118302600 140114800 114282900 100250500 107508000 96859210
1505.18 111065600 91383100 141277000 102170100 109130100 86542150
1510.96 89449150 103507400 625845100 235278500 78408110 91437780
1516.75 91004680 122583400 145940400 79728240 98716140 100208000
1522.53 165662000 37446010 124612200 17433580 307771300 399286000
1528.32 69318940 88276390 44834410 95631980 96459020 166243400
1534.11 94817010 74902790 94984880 86621540 108544400 65025580
1539.89 148721500 194681600 56419730 64602620 45628720 60800550
1545.68 54117340 62516040 48061280 51999150 63235550 59941370
1551.46 29038810 54792090 146108000 74998590 45139600 33450650
1557.25 44521020 46866320 54615280 43262980 31250060 39856470
1563.03 49223860 42019830 16686900 145881700 84795660 10226260
1568.82 38708490 13884820 25127810 20770990 49247220 25191490
1574.60 47322070 40404740 57426900 47542900 59501440 46403410
1580.39 24935150 23527200 23282920 20657480 19521360 22242710
1586.17 24591880 19298710 24137560 18031730 20279860 37096080
1591.96 16001930 11791700 11576880 10608040 11080920 6650412
1597.74 11276650 10918650 17655670 17617460 8753518 26428690
1603.53 23888650 3855240 9536254 4282254 7502180 4727530
1609.32 6944548 4951848 11678480 7470116 11437970 6415060
1615.10 20724880 16892680 5215222 5258020 5285428 3856612
1620.89 4858198 4077338 12737550 4163390 6798774 3501134
1626.67 9596964 2922054 3749630 1738234 3523478 1092902
1632.46 3518650 1466942 15037370 5503840 4656104 3141688
1638.24 4412170 1913570 1764254 1098572 1811444 270880
1644.03 2441982 9591008 5857820 6047600 3705490 1833160
1649.81 2280190 4911586 23594930 12932980 5865248 1214944
1655.60 1438726 473094 1385000 159698 1623634 332328
1661.38 4358496 3350534-265028 1025528 273122 762336
1667.17 290826 7076270 2406282 2319308 2452126 91488
1672.96-6614 5746352 5689984-1403876 1307260-552908
1678.74 2057664 1220424 42010 2898218 4698394 15960700
1684.53 9713010-3293932 3260290-834968 2729826-572866
1690.31 1837838-1501088 2968170-1982128 8100724 16366950
1696.10 99718 1963200 1014352 15352870 10442180 4908
1701.88 1347780 1296564 3317592 1677582 4377650-637080
1707.67 1871022-519000 2337170-738614 1899532-150404
1713.45 4287876 3778658 1400450 12547820 7478864 2703182
1719.24 1404434 763982 1759854 694684 2283178 137050
1725.02 2125086 467672 2152576 779454 3872044 2002412
1730.81 1712036 4879700 12266000 10026270 4118738-16058
1736.60 3744962 471058 8538350 5055160 2307250 2344920
1742.38 4180232 1415584 3402832 1897290 3268712 2180412
1748.17 5162802 411746 9393914 3995608 2299326 1784922
1753.95 2438752 1964082 5745072 1811896 3292558 2098748
1759.74 2791120 6335598 4433410 1389318 3387880 1582744
1765.52 2846696 2755530 7575152 370632 4569438 2971150
1771.31 9780982 7369612 1372922 3322070 3340856 2020796
1777.09 3199754 2367210 3532336 3473858 2778152 2175154
1782.88 2528532 3895688 3130352 2620172 2701110 2113186
1788.66 2762032 3890398 3878162 7746098 5022954 1381514
1794.45 4179052 2212000 3775664 1722254 5210256 3407428
1800.24 4457748 3529170 4229114 3053016 4231976 3216832
1806.02 4500384 3585828 4523902 4075324 6123890 3739556
1811.81 5153048 3986198 5369682 4030296 5538362 4551648
1817.59 5886222 4622270 5655026 4868810 5918584 4581422
1823.38 6164024 6843650 5085238 3806988 4950110 4980800
1829.16 8448654 5345974 4570570 2955684 5034702 2980972
1834.95 4593792 4042914 6156396 4134612 6653406 5679116
1840.73 7111834 4152804 9353116 10303510 5390220 5480416
1846.52 6128942 5587356 5317466 5119104 5105022 4484522
1852.30 4603144 3454580 4415360 3366984 3919290 2966488
1858.09 3538586 2875820 3673362 2530260 3151150 2060164
1863.88 3233356 2763520 3125922 2798122 4098632 4453458
1869.66 2169120 1769370 2346488 1541736 2228494 1463906
1875.45 1790726 1457514 2257690 2275006 2621786 1319416
1881.23 2413426 1506652 2238230 1598652 2140876 1989692
1887.02 2368994 2470644 4113250 1918890 2850704 2474840
1892.80 2970832 2339760 3535024 2264294 3335012 2588560
1898.59 3718292 2832340 3977000 2868372 3914022 3136968
1904.37 4154338 2521810 3053896 2031292 2110084 1765930
1910.16 1988242 1131930 2185392 1464706 2005048 1733040
1915.94 1900716 4177904 2908484 921852 2173760 695930
1921.73 2187770 850122 1572106 870514 1543712 583978
1927.51 1484782 501106 1672230 438350 1133072 361550
1933.30 1101346 198918 854706 179552 1083110 323564
1939.09 1107312 283318 1832030 1346702 565788 119036
1944.87 756284 225036 697402 37434 871104-18796
1950.66 783204 286904 926624-197586 799806 39296
1956.44 544504 145484 774050 119602 503564 45420
1962.23 357362-306202 594886-177350 997566 189730
1968.01 504602-138454 325102-179616 643438 138626
1973.80 382064-540032 492488-213176 349318-89276
1979.58 689934-159314 402944-233586 420072-305676
1985.37 347944 486832 931138-395222 447898-62742
1991.15 957034-319290 509476-407404 243274-326818
1996.94 285606-376598 149826-268412 320782-65830
2002.73 683128-571836 315866 75546 196210-254370
2008.51 226766-172246 180260-294196 480428-186714
2014.30 128842-8388 819670-189690-16036-548348
2020.08 326656-186480 336418 9690 668496-179526
2025.87 612162-460186 582896-359534 393508-33706
2031.65 651134 57118 503296 19904 615880-135512
2037.44 821196 301344 388422 350588 1237962 1652954
2043.22 1405480 636384 1635340 1116478 1707446 984976
2049.01 1919988 797266 2083246 2377836 2680316 2598550
2054.79 3012170 2688474 3476834 3136660 3496262 3093102
2060.58 4315658 3701246 4182856 3631110 4062320 3251568
2066.37 3320926 2898602 3045704 2591504 2487714 1094910
2072.15 1058894 2858196 3866278 2371854 4353530 2086610
2077.94 3872696 3455970 4476122 3397990 4351826 3033660
2083.72 4340690 4780540 5050280 3939486 4086228 3738830
2089.51 4184850 3372482 3954860 3074062 2709010 2092274
2095.29 3048040 2523204 2182146 2785370 3276316 841712
2101.08 2054504 1271362 1397872 299686 528190 310974
2106.86 1452794 404938 764952-138708 1124548-258626
2112.65 755924-67154 887202-249854 47648 673236
2118.43 1531280-362880 592450 94494 913922-324300
2124.22 701494-165442 542620 3656 182382-183384
2130.01 801832 270224 276196 36734 438718 127594
2135.79 753384 746452 627242-122410 619592 79146
2141.58 607818-206376 708214-86872 495290-189638
2147.36 572732-231020 441286-324610 475710 11764
2153.15 775844-32582 643000 1600256 830676 53064
2158.93 546800 77028 981082 203068 464030 209496
2164.72 835326 247426 447202 202770 638664 21192
2170.50 778496 343004 571460-374250 1034844 1105422
2176.29 752486-139000 747602 345102 841786 208008
2182.07 1028858-96664 779210 306556 1174332 111354
2187.86 662454 773810 1031326 377718 1091874 622094
2193.64 1028238 878356 1323720 783618 1313370 418964
2199.43 1590918 477468 1027748 713950 1286526 858360
2205.22 1464896 529758 1322906 491616 1102782 432146
2211.00 1265844 982418 1394156 1272242 2683162 1020868
2216.79 1762424 1339070 2048410 1499968 2683270 2267548
2222.57 3629766 2837260 3994628 4062378 4766548 4479994
2228.36 6065694 6127170 7412522 7651434 9157518 9548488
2234.14 11759940 11758680 14192370 14668570 17184200 18022400
2239.93 20785240 21466780 24536640 25262150 28229300 29102480
2245.71 31970520 32529720 35271020 35692400 38450620 37118160
2251.50 38887040 37611670 38544690 38293020 40693780 32466450
2257.28 32286220 28622650 27822540 37230270 34260320 11996130
2263.07 23761280 10670430 60447500 57244350 11789270 28581500
2268.86 27389050 38010050 39260730 47822840 49718180 55351190
2274.64 55961970 59499640 59089940 60647840 59276140 58819500
2280.43 56815600 55636460 53373710 51831980 49016630 46825120
2286.21 44306990 42680510 40903490 39740070 37556570 36329090
2292.00 36097310 33998500 31132410 29915330 29605860 25451880
2297.78 24646120 23922090 23587100 15937400 18350570 19141410
2303.57 32518230 50565530 37395740 34144020 35694170 40463120
2309.35 39141800 42960800 45161120 46178930 44579920 45142690
2315.14 43697290 44195950 40754340 39077430 35267490 33353450
2320.92 29308790 27101340 23252450 22020810 18512050 17406660
2326.71 14912480 13893550 12399650 11966700 10644550 10029340
2332.50 8947558 8585770 8289268 7843762 6830204 6829176
2338.28 6420626 6349824 6107078 5076388 5280976 5009620
2344.07 4995904 5274672 3913332 4484860 3551352 3974164
2349.85 4047842 4162118 4246344 4442658 5496528 5752286
2355.64 4972372 5571608 5191340 5533470 5172548 5790790
2361.42 5789302 6458722 6775592 6661106 6510548 5923234
2367.21 5907966 5559256 5571522 6104124 7541626 8581558
2372.99 6434574 5504418 5861740 6283582 6903714 7960426
2378.78 10302770 7604812 6131868 7143626 6917584 7332826
2384.56 7237118 10514500 10962940 8157646 7632318 7335260
2390.35 8278158 10674620 11674510 13937310 9133452 9224678
2396.14 8896014 11351010 13807000 22148930 16227150 7183240
2401.92 9334506 9384870 12613050 12852740 13966670 7596284
2407.71 12089660 13302400 11670830 14743000 15220110 11396790
2413.49 10399210 13169090 16340780 20162380 25266640 8907222
2419.28 10813490 10847880 13553080 12247920 14970630 8210814
2425.06 12452510 11234920 13933580 13096160 14672620 12920610
2430.85 13229260 10919240 11303650 16094110 7527072 11729650
2436.63 17395100 19151840 6786140 9322406 9228252 11882110
2442.42 11607490 10091150 9140116 10239560 8606290 10480790
2448.20 8198802 7322090 6432138 6594906 5784200 8264776
2453.99 7189816 8069852 7972796 9913062 7646968 7334168
2459.77 6731750 8605214 11250210 9469842 7184438 7438798
2465.56 6853888 7736878 7885650 8006604 6810774 10409270
2471.35 8838920 7738210 7608652 9853512 8624298 7872132
2477.13 8355412 8410402 7905306 10451770 11807240 8576006
2482.92 9156898 8303946 9165440 7947598 8591682 7914056
2488.70 7592586 8401686 13962250 10165560 8030252 7594038
2494.49 7275120 6695370 7062108 7063704 6308662 6117646
2500.27 6548540 9281926 8821138 7652690 6591020 6052268
2506.06 6272048 6572064 6567260 6511310 5940832 6492964
2511.84 7424236 7989528 6345146 5653720 5139050 5202682
2517.63 4790258 4883756 4772778 7712642 7917518 5351252
2523.41 5478488 4565392 4561098 4494548 5151670 4985444
2529.20 4948346 5329702 4680314 4825718 5268002 4434318
2534.99 3560166 4181538 3801630 4169214 4130716 3704454
2540.77 4235852 4807632 4338230 4193226 2540466 3332770
2546.56 2731222 3772606 3118958 3733686 3351930 3235164
2552.34 3566172 4960416 4664756 2822976 3262080 2663272
2558.13 3446286 2695848 2707974 2551752 3224536 2824738
2563.91 3685434 3634312 3113250 2205126 1986616 2217868
2569.70 2062090 2462220 2181890 2256446 2560044 2624802
2575.48 2889696 2305874 2441140 2065816 2231498 2533902
2581.27 2699240 2796088 2601158 3368522 3484596 4671010
2587.05 3763920 3724280 3565300 4276888 4607496 5556032
2592.84 5456540 6133028 5964368 6718628 7291374 8031652
2598.63 7596414 8433160 9448638 9713290 10039030 10164110
2604.41 10803990 10849740 12168170 14873170 13678930 16565220
2610.20 15568100 16493600 15772930 16336060 20980030 21919820
2615.98 22819200 26308830 21974250 30924610 23586220 35434580
2621.77 35845420 27570620 24845640 17297760 15771700 10333200
2627.55 11848460 10818230 12322010 11197300 11589680 11115100
2633.34 11402660 10962940 11302430 10110760 9617240 8955110
2639.12 8603092 7396184 7225186 6159486 5754578 4666018
2644.91 3918836 3576706 3573000 3465944 2962010 2321426
2650.69 2733018 2247900 2439832 1969582 2156018 2309298
2656.48 2480524 2460088 2445534 2732664 2692646 3529870
2662.27 4038424 4801142 4003298 2807352 3142994 2089958
2668.05 2052920 2059700 2222444 998020 1016566 701420
2673.84 1915708 2498810 2957594 2232248 1807466 1668358
2679.62 2203418 1772254 1668886 1526456 1702122 1577902
2685.41 1757806 1183762 1633432 1159838 1206698 1654560
2691.19 1311920 1323678 1352772 852406 1139558 676480
2696.98 1127796 574364 146030 622682 591596 1058554
2702.76 915006 697832 1616630 487880 1166184 322180
2708.55 442284 1093716 1184230 1375318 708824 1146078
2714.33 809700 777060 1199262 2022336 3023606 1841044
2720.12 1416626 1927116 2268166 1937266 2385954 2269058
2725.91 2269156 2620472 3483682 2646194 3366066 3200390
2731.69 3916936 3970396 3457900 3589732 3783026 3567072
2737.48 3782458 3423010 3257396 3205826 3756246 3369772
2743.26 4300540 3738242 3519204 3366768 3559740 3851934
2749.05 3949934 4852630 4702634 4505252 4016828 5037090
2754.83 5826950 6266346 6819062 6807830 5193820 5110556
2760.62 4566510 4151170 4249554 3359110 3175138 3235410
2766.40 3553476 2593918 2355720 2093736 1646344 2181464
2772.19 1901142 1832610 1909038 2077246 1582342 1631258
2777.97 1944104 1871454 2846806 2797300 2442754 1760762
2783.76 1977494 1441058 1125358 1306602 1167204 1882746
2789.54 1176798 1568768 2252718 3359854 5042068 5058666
2795.33 1983524 2089748 944160 1366022 708880 1309838
2801.12 1868662 2311826 1940858 2309296 2091578 3428848
2806.90 3386248 5473544 3542872 2852644 2691006 1340880
2812.69 758342 2609024 3403484 2621376 2533520 3052846
2818.47 2900872 3737782 3647366 5603466 5451064 3676080
2824.26 3572028 5013860 5087018 4775984 4265762 4087840
2830.04 4683528 4087410 5599770 6425758 6865692 8995028
2835.83 6729818 13706570 10559080 7167954 5124790 5521014
2841.61 7969514 9617252 10773410 11912950 13090330 13431390
2847.40 15432020 16659890 16038570 17109250 18202600 20964040
2853.18 18326310 19834020 18850460 19969480 18149180 19459240
2858.97 19780040 19529020 17049770 16432710 15679290 19351300
2864.76 15937000 25246180 28607400 38277380 25245800 23823240
2870.54 26566630 25572340 28951410 30779630 33794920 34390000
2876.33 38012440 38344340 38733640 38404820 37731290 36899680
2882.11 36163850 33725940 29170670 25904050 23390010 23085050
2887.90 24314080 22639320 22218870 23206930 26482290 24647530
2893.68 24504090 23033890 22867600 23675300 25683150 25202030
2899.47 25941930 26332690 27291110 25903450 25266970 26329740
2905.25 25568300 25732860 25368840 22369560 23114250 23337660
2911.04 21483820 19697800 23221360 19081120 19521030 19572770
2916.82 18358010 19308200 20677280 19619720 22287930 22803750
2922.61 20697210 19449640 18584460 17219950 25375770 33819450
2928.40 39315860 35366540 40966490 42200570 43595390 47393780
2934.18 52468860 55868990 62718500 73053910 71711500 77713620
2939.97 76411750 77487220 79863080 78685120 83696990 84036140
2945.75 85517250 77999440 59808800 53841860 44525550 39817100
2951.54 34582970 73572800 79903820 69220970 26766870 54590060
2957.32 37610320 44720930 62014220 61037520 73601970 75759470
2963.11 81989490 80400030 108102400 113323900 91596200 91328430
2968.89 85439040 84220000 79709140 75013980 72266760 63984180
2974.68 96270230 80723730 49347300 50989000 40255860 41226920
2980.46 33248780 34039940 28123890 38473550 130843600 56945000
2986.25 20758770 23373710 13388580 18921120 9781032 23868210
2992.04 11614070 47078890 81168700 23277440 17015810 16536190
2997.82 16958570 20885210 14838340 24015310 13081320 81715660
3003.61 72427820 13351510 26005920 11729870 22259710 12381420
3009.39 20633630 14019330 50949560 182955300 57459810 21157850
3015.18 20921360 13171330 23062700 12794560 26767480 10264510
3020.96 79673140 90335060 15016610 28369150 13183410 19972860
3026.75 11312020 24636190 15576250 37937910 101764400 39267780
3032.53 15569340 22233540 11625990 22995410 7288054 26267630
3038.32 4165230 138255900 113635500 7530190 31839430 9893136
3044.10 26490240 11059260 27961680 10985260 54229100 75703220
3049.89 21239550 19846760 18319720 18426910 15368070 14438520
3055.67 18524320 27113440 71324850 23708940 16957940 11515890
3061.46 16033740 12441760 19083160 8636074 34711340 75834240
3067.25 31823300 18815290 10352880 11746900 15427190 14760160
3073.03 15824310 16541750 42266340 25314260 10559010 14425410
3078.82 9784136 12837230 10338020 11912960 13101740 30617930
3084.60 19143240 7802834 10222890 6832260 8893938 7289304
3090.39 11099610 9638590 33239210 16495980 5692328 7637220
3096.17 4990106 6291470 5875192 8417894 10006050 16847990
3101.96 9436398 7383228 6974862 6269834 5206068 3983962
3107.74 4575240 9548026 9520718 5763216 5556784 4695484
3113.53 4107098 3528742 3750542 3441132 8295438 6683614
3119.31 2981794 3880588 3277342 3186470 2977462 3333712
3125.10 3278318 4367386 3389932 4011904 3201458 3858160
3130.89 2831744 2667222 991906 3792874 4683716 4684664
3136.67 3458546 3917942 4513908 4504920 5354284 4775736
3142.46 5369136 5564586 5560214 5034346 5989818 6931712
3148.24 7870130 8028212 8590726 9051696 9848742 11483200
3154.03 11191940 12136660 13371980 14180190 14554210 16623230
3159.81 17475750 17734540 19550370 19762320 20474470 20272270
3165.60 21146130 21452980 20816880 20081490 20075310 18634260
3171.38 17611900 15589940 14459510 11412710 11807930 12888240
3177.17 29868100 20907520 13088470 8311094 8764182 12418290
3182.95 16508930 22028430 25082930 28924620 30865320 34037450
3188.74 34857160 36492740 36378410 35435740 33511350 31192540
3194.53 28551310 26210660 22948170 20075350 16301190 13936930
3200.31 11504420 9788754 8556936 7630834 6911522 6185612
3206.10 5996086 5058732 5923962 5612356 4782376 4909584
3211.88 5186476 4152314 3620052 5389748 7459268 6751826
3217.67 7861328 6597182 7143994 7384970 8917310 8263524
3223.45 9267766 9191902 9238316 9649868 9226350 8341146
3229.24 8633584 6967856 6630568 5974552 4624866 5128630
3235.02 4667800 3268848 3297892 2439774 3164362 2721406
3240.81 1448230 3172438 2265252 2007856 2041436 1659530
3246.59 2078576 1727824 1163240 1617568 1979106 1987262
3252.38 1759120 1199012 1850652 1972574 1880326 2403916
3258.17 1272284 1723586 2052926 887438 1411246 1809010
3263.95 1551398 1630088 2213204 2036028 1347862 1388486
3269.74 1612024 1775058 2204382 1959788 1658308 1390480
3275.52 1420384 1712434 1377364 1864494 1897200 1639336
3281.31 1390958 1344766 1888444 1734106 2274262 2129982
3287.09 1701836 2163058 1909084 2111352 1412744 2398204
3292.88 2094630 2304522 1441240 1980004 1903368 1650188
3298.66 2083438 2380764 1714866 1746644 2125258 2388344
3304.45 2632236 1438134 1969282 2184060 1986618 3271548
3310.23 2668280 2871110 2668190 1799894 2205662 1660330
3316.02 3325638 2737528 4346600 3223494 2542396 3308916
3321.80 2277132 2352614 2564448 2454634 2528474 3176770
3327.59 2340048 3366310 4245250 3406398 2195880 2718954
3333.38 2553848 2571356 2961678 3014536 2538164 3557284
3339.16 2761916 3404198 2413812 2608188 2565766 2999168
3344.95 3038336 2720948 3243672 2410426 2711262 3080596
3350.73 3103080 3204402 3010192 2937508 3085002 4145596
3356.52 3284968 3597060 2513728 3803498 3175722 3935998
3362.30 3090138 4195292 3058846 2841168 2669324 3808250
3368.09 2456708 3139242 3387310 4101610 2762526 3179168
3373.87 2714320 2988578 3131098 3355784 3531314 3216966
3379.66 2797656 4086304 3548524 3661458 3586736 3384348
3385.44 3889040 3369954 3577646 4090716 3612164 2827434
3391.23 3754468 4370986 2616664 2632170 3148550 3297550
3397.02 3290400 2674328 3129910 3008118 2494194 3244894
3402.80 2946010 2951964 3547960 3530190 3061254 2585812
3408.59 3455092 2601498 3572784 3288994 2769248 2997012
3414.37 3176634 3365708 2055066 2914408 2687178 3790754
3420.16 2411714 3506068 2568438 3825964 2224670 2376630
3425.94 2259566 2351946 2207474 3235410 2009542 3469232
3431.73 2193936 2919306 2692452 2339020 1959734 2344246
3437.51 2716334 2658970 2076310 2564988 2200090 2622788
3443.30 2591868 1999012 2426184 3524836 2127772 2497372
3449.08 2488080 2613716 2447196 2400390 2426184 2704944
3454.87 2120814 1242972 2533582 2672976 1957098 2550582
3460.66 1762168 1510978 1906734 2437790 1586264 1910802
3466.44 2739538 1310126 2001022 2318654 2094630 2209114
3472.23 1567462 2285594 1404680 2364556 1604206 2623016
3478.01 2108644 1857404 2049498 1712076 1816840 1619724
3483.80 2567664 1855956 2199272 2271254 1846884 2142904
3489.58 2580154 1329846 1523914 2429870 3011554 1848642
3495.37 2222194 2584480 1803724 2412368 2281436 2102258
3501.15 2212196 2086632 2825350 2376796 2182102 1530416
3506.94 2000918 3172168 3120066 2178888 1583796 2296990
3512.72 2144318 2529256 2292478 2283858 2737688 2262024
3518.51 3151066 2285382 1813548 2352594 3398948 2639556
3524.30 2420520 2524174 3329406 2386736 2833926 3108664
3530.08 2426386 2185456 2318576 3142726 2766966 2608636
3535.87 3215878 2886958 3034054 2618740 3148482 2820592
3541.65 2589220 2870500 2439260 3202926 3336558 3130034
3547.44 2180032 2281680 3024826 2766912 3050032 3042664
3553.22 2463522 2939820 3097332 2466858 2775446 2145772
3559.01 2756564 2717732 2334764 2831894 3621628 2765428
3564.79 4488570 3926014 4264498 4647854 2147596 2259570
3570.58 1865098 2618916 2806376 2941972 2385568 2513758
3576.36 2679312 2152892 3203824 2848352 2375998 2807598
3582.15 2266986 3769626 2463296 4392884 5193696 3523772
3587.94 6342952 1885366 3486234 1928748 3051628 2499474
3593.72 3243276 3417384 3134542 2952640 3033866 2584848
3599.51 3398724 3384786 3023982 3216074 2664210 2511426
3605.29 3380368 4322146 2825974 8651066 4225198 2444080
3611.08 5100796 5683548 3053274 5050128 3204540 4195914
3616.86 5724238 4627940 7991564 3487386 4421690 3192542
3622.65 4427394 2867996 5131710 3561344 5225744 9396030
3628.43 11078120 6063172 3592770 4419194 4370458 5064470
3634.22 3977342 4290010 4201926 4725120 3974736 4691126
3640.00 4516456 4577804 5420388 4185062 4800788 4314134
3645.79 9310438 7248662 9683292 13025060 7069932 9440296
3651.57 3617266 6373426 4250470 7121448 10757390 5496252
3657.36 4904094 5040080 4836772 5545878 4968776 5407032
3663.15 4559066 5026784 5090202 4328374 6138124 8202350
3668.93 6244880 16082810 3381016 5146200 5422164 9908936
3674.72 14470020 10403850 3752462 6598716 6359140 7078176
3680.50 4791960 6766120 3988744 7022276 3960124 6451868
3686.29 2856162 16737230 8511574 3938938 9002884 5142736
3692.07 3730576 3988034 3584110 4736040 3929058 4440584
3697.86 3802144 4984012 3709916 6404974 4679454 3916118
3703.64 3575434 4292774 3254690 4683518 3780876 7823302
3709.43 3255038 6328852 12635100 3790030 3903130 3449128
3715.21 4221050 3710774 3942342 4621656 3413562 4200352
3721.00 5671922 5085232 3016640 5210700 4741068 6481424
3726.79 3238826 3728228 3146444 3073100 6870860 10305270
3732.57 657800 9321692 5011674 10481500 5789166 4828554
3738.36 3495202 4164100 4316120 5522986 2214620 19787010
3744.14 16873610 521052 5984854 2144290 13000360 12991370
3749.93 423124 16657000 10370230 2634272 4238644 3484992
3755.71 5822166 3817214 4078024 6556992 5152984 2865356
3761.50 3768788 3584622 3274396 5707284 5196236 3314728
3767.28 3721272 4775672 7903690 2677696 3846494 2938652
3773.07 4092418 3567106 3824476 3342180 3296624 4409920
3778.85 6325436 2679826 3969702 3120876 4210022 3516074
3784.64 4554798 3102830 3559388 4047146 3877896 3051688
3790.43 4045564 3361130 3941452 3354422 4345846 6090492
3796.21 5770074 2920788 4741862 1978082 13794170 10631550
3802.00 2853952 5184918 3929588 4123518 11546700 7108186
3807.78 2017036 4868052 2671192 4745414 1969134 5100586
3813.57 1958884 11639200 13972930 1974704 5303960 3249768
3819.35 7295334 10528530 7057372 3008656 4737896 3125442
3825.14 5603504 5398942 4316756 3899178 4287326 4442334
3830.92 7976748 2641444 4664878 7109080 6138426 2864698
3836.71 16906430 7384096 3814404 7237798 5561140 4018028
3842.49 6213490 5336922 4004622 4060440 3819494 4283148
3848.28 4606536 4359200 6227444 16507350 4811680 25022950
3854.07 9067666 3502370 6203652 4234458 5078402 4330296
3859.85 4924692 6748008 5275422 4828474 9925434 7946782
3865.64 3427016 5805092 4155736 11735820 10601720 4442146
3871.42 4975732 4564704 8654862 4367196 5063710 4504136
3877.21 4570346 4387344 7682106 7215502 3909680 5791316
3882.99 4051582 6888632 11908510 4057926 4209664 5117686
3888.78 5363338 6508418 9670164 3424982 5725402 3858140
3894.56 5898086 5102332 5734348 5203078 10384070 3731748
3900.35 8798828 9250104 5044766 10396110 6548286 6939932
3906.13 5902114 5166394 6171454 6202698 6909758 5523922
3911.92 6461894 7082706 7545244 6039866 10569980 9156820
3917.70 5740662 7739088 8047684 7522636 6594184 7751676
3923.49 8533494 8294866 6732662 6062590 6532386 8353082
3929.28 7325642 7276970 9166136 7880538 7027058 7873456
3935.06 6877070 6837688 6747648 8641624 7573274 7051122
3940.85 6955770 8752984 7464074 9963692 8378622 6499044
3946.63 8079416 6411760 8689156 8245026 6843738 8213332
3952.42 6956370 14224680 8372936 5648362 8236442 6358786
3958.20 8840940 5565398 10352060 9692300 6646382 7454666
3963.99 8543928 6776748 11314230 12642670 7021208 7296740
3969.77 8154062 5881262 11076660 18901100 6425262
##END=
