##TITLE=Dichloromethane
##JCAMP-DX=4.24
##DATA TYPE=INFRARED SPECTRUM
##CLASS=IUPAC A
##ORIGIN=NIST, Analytical Chemistry Division, 301-975-3108
##OWNER=COPYRIGHT (C) 2001 by the U.S. Secretary of Commerce
##DATE=01/06/01
##$SPECTRA VERSION=1.10
##$UNCERTAINTY IN Y=2.1 % relative (B=1.12E-04,C=8.08E-10,D=1.49E-14)
##CAS NAME=Dichloromethane
##CAS REGISTRY NO=75-09-2
##MOLFORM=C H2 Cl2
##MP=-95.1 C
##BP=40 C
##$NIST SOURCE=QUANT-IR
##SPECTROMETER/DATA SYSTEM=IFS66V (Bruker)
##INSTRUMENT PARAMETERS=KBr Beam Splitter; MCT Detector; Multipass cell
##STATE=gas
##SAMPLE DESCRIPTION=Dichloromethane Primary Gas Standard
##PRESSURE=101.3 Pa
##TEMPERATURE=23 C
##SAMPLING PROCEDURE=1 L/min Flow
##RESOLUTION=0.9640
##DATA PROCESSING=NB Strong Apodization
##XUNITS=cm-1
##YUNITS=(micromol/mol)-1m-1 (base 10)
##XFACTOR=1.0
##YFACTOR=9.0949E-13
##DELTAX=0.4820
##FIRSTX=575.17
##LASTX=3974.606
##FIRSTY=5.56E-07
##MAXX=3974.12
##MINX=575.17
##MAXY=.0008521
##MINY=-8.11E-07
##NPOINTS=7052
##XYDATA=(X++(Y..Y))
575.17 612223 763445 65046 111524-38402-462066
577.58-357545 118515 149231 638651 75066 39594
580.47 155256 229635-76353-891868-605935-319334
583.37 63500 326396-61129 193392 569353 449809
586.26-28504-93535-57407-94863-10214-97059
589.15 188432-105354-551963-645533-7449 554173
592.04 598744 513219 261125 74933 319596 716829
594.94 631088 123084-167557-465604-464213-30370
597.83 79770-96454 62961 422538 334329-12981
600.72-45713 264051 564678 643678 453607-31723
603.62 219963 321631 57475-60692-48341-378453
606.51-52999 439619 131166-120868-194279-368503
609.40-254102-69706-89244-153333 83373-89750
612.29-93286-33820-151257-417536-461636-58352
615.19 157629-160-74514 5284 10226 104693
618.08 298882 149897-173823-165864 28671 53973
620.97 149789 142480 15056-290477-382605-225924
623.86 97640 32303-51297 273941 17848-193730
626.76 230345 367362 210411-146653-210181-120335
629.65-253119-314859-442065-301610 32561-37273
632.54 89901 199706 148247 121437 400611 607834
635.44 430255 106208 139614 253286 237695 150746
638.33 141472 228438 307101 268547 172805 374044
641.22 456058 255339 141781 400845 534923 390265
644.11 426443 273140 205699 224022 290248 465671
647.01 517780 453699 440423 427089 355236 423910
649.90 544273 768870 965633 868818 687805 692707
652.79 1062704 1337008 1365045 1542159 1604305 1323650
655.68 1290682 1315870 1235075 1354631 1713168 1977727
658.58 2175953 2333354 2422053 2323866 2289390 2504558
661.47 2804846 2985087 2854930 2942755 3339725 3533571
664.36 3499986 3634745 3879354 4248626 4563698 5288490
667.26 6216950 6116575 5610234 5391126 5783690 6390124
670.15 6501632 6422675 6752782 7205682 7669712 7979530
673.04 7826232 7741405 8194944 8804909 9375398 9599425
675.93 9580364 9818844 10295743 10649833 10687528 10706014
678.83 10972073 11412269 11987623 12509296 12924413 13468233
681.72 13816002 13981711 14367337 14933648 15558708 16049586
684.61 16442477 17005237 17542382 17798626 18097771 18715438
687.50 19255985 19497540 19927684 20499139 21243122 21655766
690.40 22097470 22766173 22998304 23263148 24216284 25017330
693.29 25310535 25628319 26391426 27148469 27246819 27699430
696.18 28696110 29655908 29879190 30126701 31496862 32444955
699.08 32287260 32819013 34213558 34986974 35100301 36274734
701.97 37798467 38391021 37410344 36457270 38270438 41590856
704.86 41416177 39758083 39139170 38691098 40282914 43009723
707.75 41928445 38536730 36125193 37823481 40631410 39522916
710.65 34658191 33025644 34335200 36824513 34673024 31419160
713.54 32847563 35416640 35025934 34170444 35114589 38386469
716.43 42577704 44537890 46258121 48866236 52155298 57130443
719.32 64179234 68274396 68599921 69047421 72705777 77065074
722.22 79540617 81667377 82868889 84283258 84850710 83816263
725.11 82876330 80966572 78785250 80137793 82850169 80510234
728.00 75648459 73081125 72653309 74664255 77782663 80605170
730.90 83079491 86078106 90035076 95922091 102940234 111066489
733.79 120278291 129435693 138576738 149420684 161746602 176202726
736.68 193264258 211786013 229542026 247268135 268261183 292780981
739.57 319028331 347325745 376834894 407527570 440808565 475987376
742.47 512153600 549315108 586146814 622768000 660499712 699289943
745.36 736881183 772753009 805792063 834244632 861056555 888357785
748.25 913019930 929752823 936977441 934285521 925295465 916710027
751.14 911908763 897875662 866779852 826337616 787699407 754552017
754.04 733087370 732671534 736613196 735295206 712840167 691504437
756.93 679716314 688410847 744867315 771839747 727723735 622952001
759.82 566136506 591024940 644812861 698420774 739982191 770272791
762.72 790782901 802655483 805895582 802142489 791293208 774271742
765.61 751445131 723445537 691033020 653856167 613662292 572695050
768.50 530043021 486194512 442370905 399244828 357706040 318593276
771.39 281864083 247357403 215340223 186346946 160226035 136623001
774.29 115536768 97086991 80997860 67096853 55210752 45071777
777.18 36471207 29481463 23663848 18920502 14853088 11722520
780.07 9190638 7181466 5598969 4432824 3585200 2908726
782.96 2211737 1660816 1349077 1294884 860324 521777
785.86 358000 283858 455846 493995 326232 240309
788.75 122976 192838 371020 356821 262850 395913
791.64 272612 47405 131144 28567 66678 148856
794.54 112629 58919 92530 183347 238968 196775
797.43 145045 183402 68824-34460-128872-91878
800.32 7451 99038 249920 261566 110765 52906
803.21-11400-74216-133670 16944 121953 121566
806.11 16910-57534 50871 71353 10660-11974
809.00-79006-14303 53986 102432-151778-326718
811.89-122578 195484 208812 110880 63256 120898
814.78 143499 79557-22954-93853-73351 162488
817.68 188536 5853-125262-54619-64978 21962
820.57 78968 55591 46567 61734-694-14597
823.46-165684-118863 46806 8762-37654 122077
826.36 92675 67984 140205 19781-172357-193801
829.25-84038-43398-60385-64432-44269-22669
832.14 24665 105684-68887-220386-265280-259473
835.03-248879-174729-140238-55427 99480 129966
837.93-1319-53946-142017-142097-69088 45497
840.82-3103-18061-108306-118773-72227-69650
843.71 45526 36257-73021-57634 12337 54586
846.60 52979-99153-128102 54228 167698 323121
849.50 261199 109603-46680-145361-93195 34395
852.39 109347-2397-11676 123720 184940 156157
855.28 119184 181863 275930 219789 35567 44250
858.18 39137 17091 33837 91701 184950 356808
861.07 436624 417879 452132 538474 542228 521100
863.96 479885 388815 464652 506321 406409 479899
866.85 732429 823776 661547 698578 816431 727547
869.75 729301 871339 1073716 1009121 977416 1189267
872.64 1324141 1327355 1310107 1415305 1459979 1426177
875.53 1560199 1694360 1665962 1611637 1797067 1995652
878.42 1814901 1696361 2032328 2282813 2250047 2162719
881.32 2300141 2321016 2134728 2104551 2382842 2492859
884.21 2373353 2528607 2777675 2709447 2431021 2468952
887.10 3027795 2931950 2475895 2452735 2945325 3031366
890.00 2509207 2279449 2613664 2883182 2670021 2670446
892.89 3073027 3471613 3613979 4096538 4790604 5601483
895.78 6648815 7965982 9379592 10451961 9129666 6249015
898.67 4536628 3868113 3619422 3471086 3340213 3128516
901.57 2995823 2991100 3042742 3017248 2949734 2956053
904.46 3234786 3080148 2854217 3209857 3697452 3411440
907.35 3022429 3297601 3709482 3564725 3298767 3471193
910.24 3858524 3749913 3321972 3380081 3932629 4020202
913.14 3586423 3586648 3843318 3817238 3511078 3513880
916.03 3823385 3895332 3506913 3534806 3842883 3829094
918.92 3472573 3467091 3623021 3656820 3309878 3165094
921.82 3297688 3247356 2907407 2915360 3048965 2973231
924.71 2735053 2639153 2748143 2810848 2539959 2507408
927.60 2534229 2521744 2293527 2162914 2215550 2222062
930.49 2032269 1846252 1904693 2022333 1853403 1719600
933.39 1769747 1833033 1671097 1475107 1394853 1471771
936.28 1415294 1384400 1387216 1410047 1373953 1306098
939.17 1252877 1195333 1183448 1069009 961238 978984
942.06 999418 873845 837369 806969 844262 793511
944.96 724962 702772 622656 648612 648717 624594
947.85 590863 555307 551647 576358 551453 454106
950.74 350857 392074 392525 370565 329073 290316
953.64 354607 414395 368946 234366 162402 263078
956.53 307411 304795 208503 134189 210257 287380
959.42 277463 242822 188171 112064 146624 185263
962.31 217494 177138 85812 131335 215728 245884
965.21 211104 236172 278360 208381 169114 267641
968.10 310747 257054 212383 232346 270362 262967
970.99 229881 220844 324469 353117 302476 330113
973.88 335102 303009 303795 374216 450193 486498
976.78 426051 403375 384370 448019 447143 402529
979.67 427505 458079 374994 295307 258400 334606
982.56 420134 428004 351590 380103 445547 395841
985.46 347265 336645 320757 333896 394522 393840
988.35 375476 381014 327698 346577 331235 258533
991.24 261633 349284 425354 386264 354695 381072
994.13 396231 426541 418523 414426 379503 318365
997.03 261358 262030 252201 305025 414735 351560
999.92 320002 380825 448328 446493 424836 362793
1002.81 294329 314846 309978 210640 211678 316332
1005.70 335634 215090 103314 104867 170966 241406
1008.60 274600 256152 216265 224442 190578 108527
1011.49 34858 124167 154471 87975 65603 150384
1014.38 239412 218715 230429 261580 203374 238839
1017.28 291324 226910 137577 197978 238252 220884
1020.17 161782 127198 152400 234787 273825 266254
1023.06 304555 394061 354685 352626 392670 381919
1025.95 304975 198453 196254 372401 358669 307396
1028.85 279259 324700 376670 332474 326063 394384
1031.74 380536 332829 389834 466429 366103 335580
1034.63 293915 346863 411660 346662 318744 241984
1037.52 246571 287801 480434 559854 410061 389095
1040.42 383336 352999 245035 295060 412980 430652
1043.31 453327 390397 263277 336713 418654 426896
1046.20 319930 302485 316114 250597 178422 172107
1049.10 250892 281277 104499 59458 155860 248294
1051.99 280380 170043 131265 12942-70355-57324
1054.88 3814 47697 22311-3544-39653-74512
1057.77-165291-99879-23949-37811-19131 85203
1060.67 90916-54614-134048-201105-234064-213867
1063.56-119052-26994-70975-146328-70997-71251
1066.45-73782 17106 29684-38489-52652-59276
1069.34-90932-110352-113885-32050-7369-72890
1072.24-166690-157942-213449-107024-63234-78461
1075.13-71590-38527-5674 28815-74352-117874
1078.02-98918-23663-49569-86533-113283-155283
1080.92-69989-52823-74986-88744-72930-18239
1083.81-92178-142957-75129 16672 11859-86723
1086.70-104618-25471-20392 14861 49263 57409
1089.59-12729-110504-128771-66914-78719-12432
1092.49 62826 3732-122623-195223-136469 76659
1095.38 58743-35648-44742-61244-79370-22819
1098.27 2776-13678-86369-86046-33193-116629
1101.16-154357-122866-111411-12706-34160-92347
1104.06-62708-40249-61672-129519-126032-60109
1106.95-46346 43925-9743-21026 23504 17951
1109.84-62386-58557 24293-45471-152544-82590
1112.74-37617-87883-113426-150741-130175-3821
1115.63 16342-126453-194874-157301-102476-96902
1118.52-89847-20941-26504-64535-56459-36935
1121.41-40106-94376-125111-15398-23207-101079
1124.31-149606-96831-60382-60300-111644-81067
1127.20-658-15813-99226-64319 33968 75251
1130.09 35429-41919-42707-12992-12250-81911
1132.98-110028-101191-67694-56798-87085-47286
1135.88 1720 6471-56502-75277-31935-21295
1138.77-20843-14177-60915-55335 2924 60539
1141.66 31248-19482-27402-26959-71916-56518
1144.56 6838 60753 8002-59566-38455 11223
1147.45-43249-85580-60707-26284-3309 76532
1150.34 84690 49001 24944 16122-20124-48679
1153.23-112529-160253-70414 24764 33955 31401
1156.13-35751-82214 37397 122613 100905 105202
1159.02 125481 167852 117084 36361-5276-7749
1161.91-6662-2261-23834-50788-47788-35139
1164.80-8248-27701-118088-67859 30818 107035
1167.70 140701 125407 78033 28905-27321 11511
1170.59 30881 27171 34639-9141-45626-28907
1173.48-16977 5199-3218 31135 75639 57994
1176.38 42686-18320-27495-5172 18684 34505
1179.27-28219-4470 6221 44640 16371-6696
1182.16 36377 48517-8861-27672 29821 82816
1185.05 59595 45697 36678 27423-67312-57828
1187.95 22082-19274-12715 52864 45928 79029
1190.84 74813 48605 8178 15967 43388 84998
1193.73 87231 12864 25377 100031 53356-41007
1196.62-73357-29793-33835-45939 33421-17459
1199.52-71202-20603-5072-14324-7935 24412
1202.41-21389-40869-33989-24963-59341-43702
1205.30 30676 37760-78517-69557-36276-39797
1208.20-39548 20392 46667 28428 11820 77960
1211.09 108397 52821-27993 29236 95264 37323
1213.98 1798 83969 173329 76190-37018-1469
1216.87 49705 98597 63837-61959-96464-10325
1219.77 79711 122240 98298 82707 7127-28580
1222.66 51042 8047-50768 2014 18746-5238
1225.55 1066 27492 28554 9016 58880 135667
1228.44 114737 40603-3798 69771 60402 39153
1231.34 72349 169724 84417 67529 160332 204860
1234.23 182007 203043 191258 119192 210984 343647
1237.12 419766 545729 691635 852816 973661 1127741
1240.02 1317833 1603365 1921250 2357545 2853834 3441593
1242.91 4052408 4877399 5872967 7098538 8476965 10108355
1245.80 11951621 14076079 16565562 19415685 22596777 26352752
1248.69 30617952 35378224 40699005 46677679 53355888 60689205
1251.59 68598028 77244587 86601995 96640536 107235977 118389682
1254.48 130029677 142098776 154322533 166632119 178850317 190846426
1257.37 201679664 211205381 219783329 227523152 233837866 238128225
1260.26 241039179 243983110 243526078 235325355 223725485 212628884
1263.16 200474223 186288020 170668011 157550096 150284278 152601520
1266.05 167343909 198783292 248495863 287576764 232914470 105806300
1268.94 48330796 56480760 81356055 112988944 146396494 176785382
1271.84 203744915 226807841 245525329 259980030 270314214 276502086
1274.73 278923194 277817676 273591025 266509318 256993415 245418334
1277.62 232320313 217931778 202762793 186875469 170816641 154866701
1280.51 139429341 124393789 110158835 96824188 84402232 72986663
1283.41 62716602 53375837 45064614 37808999 31541252 26009142
1286.30 21296179 17289697 13879987 11045519 8824110 6900707
1289.19 5398085 4179261 3283129 2519139 1854318 1358813
1292.08 1035016 774077 595210 483450 312736 164055
1294.98 139500 134508 149534 156149 121520 43326
1297.87 34991-1311-16046 34175 67208 7247
1300.76-14732-57759-80944-51066 3134-18275
1303.66-46911-49514-59059-107795-103713-62216
1306.55-28811-44774-40085-47931-44206-28243
1309.44-10464-60976-29216 817-18158-19294
1312.33-2523-45617 3224 1745-46440-60980
1315.23-12371-6554 13453 20792-1085 17561
1318.12 89226 86487 37973-17333-9066-62133
1321.01-24470-19722-91262-61794-5388-29371
1323.90 19706 19892 47162 56532 913-37207
1326.80 62920 95760 51167-14513-37073-48557
1329.69-33459-48327-67820-10665 48773 11785
1332.58-22985-37404-21320-56801-63854-44347
1335.48-33956-21686 48383 63948-14383-53163
1338.37-62389 8265 724-42480-22197 16052
1341.26 17259-13303 17113 96166 150195 65687
1344.15 3174 34597 110291 51330-49224-15556
1347.05 10931-138852-157522-131629-5801 63983
1349.94-108856-195788-95336-50760-107267-45661
1352.83 186797 69498-145509-188336-67816-24070
1355.72-52325 76936-73590-162403-205081-145616
1358.62-41451-50262 49843 39323-3524 39406
1361.51 39547-145299-173886-165056-128240-60428
1364.40-135460-205061-127328-58882 19210-47353
1367.29-25584-1966-84 90753 68835-21563
1370.19-71710-23722-65323-94462-136109-133071
1373.08 27669 34197-19049-29486-40507 58270
1375.97 65020 11402 116924 144627 41847-10483
1378.87-13919-29408-32477 12735 124498 108069
1381.76 21131 33258 28625 62771 56262 41255
1384.65 113109 48937 40007 88670 16213-127864
1387.54-7227 118378 139148 52836 3687 24651
1390.44 182192 206027 113194 38289 97888 72880
1393.33 57531 85592 57191 49619 52129 26621
1396.22 115100 194771 132560 96317 110115 122496
1399.11 156014 246279 234615 138887 180508 262360
1402.01 239531 188892 198798 266321 320731 329086
1404.90 286346 317671 391591 371800 400712 411708
1407.79 402383 333132 331032 411087 509550 446766
1410.69 322405 323757 479549 565480 560413 556366
1413.58 581161 624650 584168 619479 708219 700838
1416.47 570802 569819 767600 790936 549816 518262
1419.36 717533 984090 848983 693038 827963 1033071
1422.26 922820 819974 925105 1159289 1110321 1047117
1425.15 1223923 1339080 1277323 1174291 1195300 1320468
1428.04 1385997 1332836 1348449 1330063 1353159 1426214
1430.93 1398856 1290219 1309558 1268319 1250249 1274213
1433.83 1311725 1331229 1458956 1534211 1529950 1572446
1436.72 1703055 1810013 1898981 2084271 2217544 2275286
1439.61 2345928 2443076 2622902 2801566 2838696 2862607
1442.51 3035267 3205315 3256141 3367964 3572475 3668244
1445.40 3766094 3962938 4182931 4240074 4189383 4371506
1448.29 4629117 4812585 4935087 5178114 5480979 5577307
1451.18 5596372 5793645 6037089 6152349 6280282 6587330
1454.08 6832775 6962729 7079891 7255853 7334431 7396570
1456.97 7638049 7952395 8110631 8219880 8342741 8423880
1459.86 8243419 7929961 7884460 7981105 8146289 8543542
1462.75 8844662 8989690 8933435 8659754 7975579 6883607
1465.65 6261388 6194431 6595007 7227797 8070358 8689229
1468.54 8872538 8840634 8373862 7323273 6615145 6640249
1471.43 7011399 7584193 8054485 8362724 8637715 8750749
1474.33 8650446 8256692 7640889 7148723 6799251 6479858
1477.22 6123716 5726627 5322818 4887060 4279713 3385555
1480.11 2434313 1644403 994831 567315 352300 264747
1483.00 248423 295901 323747 329128 299826 275419
1485.90 221664 140900 128985 225071 282737 192633
1488.79 79074 49953 174454 173166 131823 168763
1491.68 182617 218318 159399 112846 80651 90040
1494.57 88155 81981-19698 11924 127927 140615
1497.47 92474 51007 54969 66244 122649 153737
1500.36 142494 116466 2533-32719-32864 32113
1503.25 33146-35658-23526-56450-99679-39625
1506.15-112229-149872-98712-93655-44158 2079
1509.04-37078-56967-21993 1041-9145-56338
1511.93-64286-39313-54859-56893-51021-53448
1514.82-42354-46486-56236-68532-43955-38176
1517.72-27338 8936 5436-12877-65296-134914
1520.61-224034-183403-121175-144778-106637-39508
1523.50 5993 28929-53351-114187-40877-12418
1526.39-35290-31560-11166-15550 571 46528
1529.29 82507 55866 13549-9165 16957 64324
1532.18 44701-42613-34389 47930 169825 224474
1535.07 244897 285346 318832 341463 325634 319796
1537.97 311815 211809 276052 327221 324045 427622
1540.86 476236 370638 288910 394112 490131 547653
1543.75 575420 553787 462882 409538 343997 328382
1546.64 396937 531837 674402 520749 262756 204552
1549.54 197659 276481 404486 726916 815838 498519
1552.43 327532 351327 365394 344376 411317 443336
1555.32 511144 538883 556760 549118 538885 475461
1558.21 428648 473121 417125 314869 314101 404111
1561.11 428140 386057 298577 280263 305382 261966
1564.00 125855 118836 117359 118593 138901 143604
1566.89 104181 43639 11668-8946-47424-62492
1569.79 7659 45504 26505 19128 20932 30598
1572.68 22576 8653 279-29343 2824-49462
1575.57-217552-183518-58172-26164-43033-36977
1578.46 13009 18673 8126-3478 17942 39593
1581.36 20097 9361-31317 34563 32424-17129
1584.25 8093 8015-41697-25493 11529 32871
1587.14 72986 99264 83525 43472 37723 50908
1590.03 29604-15608-51845 7405 33290 2274
1592.93 14565 18178 30716 36839 74949 66631
1595.82 18266 12123 49987 52526 47129 51491
1598.71 94482 61733 44514-4396-10035 40478
1601.61 53841 81437 66640 52288 81781 66528
1604.50 89746 54288 49634 50605 32845 89087
1607.39 98273 90741 83146 92555 67976 34030
1610.28 29780 58614 61026 34150-35648 7853
1613.18 40195 40519 32351 50646 50255-60029
1616.07-208179-143785-44065-16479 22160 83364
1618.96 92316 12354-4407 37437 43585 49931
1621.85 22884-62409-76860 13390 92982 81742
1624.75 42222 10888 28806 36124 5564-8899
1627.64 8360 2243 21508 51403 4420-25556
1630.53-22218-71341-10453 48971 34097-8839
1633.43-5202-27519-89050-151196-128026-40028
1636.32-28003-25947-15893 5467 5391 28038
1639.21 41371 18380-52261-43211-28651-37245
1642.10 34863 53096-59201-106335-91858-83910
1645.00-103389-95285-33101-19845-55947-74101
1647.89-66848-13746 36518 7299-28846-37870
1650.78-50307-61754-189182-266626-257148-165987
1653.67-104271-81001-21989 4975 18043-5566
1656.57-49682-70694-40220-30147-75012-51021
1659.46 21645 24608-21865-25510 5126-25493
1662.35-66680-65054-44333-24190-29304-70460
1665.25-86538-33456 3703-3370-8437-1482
1668.14-35152-153160-141531-57370-21893-62683
1671.03-76373-7643 49382 41808 23595-24926
1673.92-62087-133355-157084-101105-52853-5732
1676.82 4820 4489 13532-19266-32694-29871
1679.71-76708-38724 32321 42016 26508-52151
1682.60-105213-153701-148787-314959-327534-109495
1685.49-46665-37225-70717-48370 18681 40086
1688.39 4156-17540-2425 5661 25837 9020
1691.28-37142-12512 17392 22066 1692 17153
1694.17-1004 7206-137813-181493-52860-16088
1697.07-4217 21917-62646-71947-102711-159031
1699.96-163937-121384-42588-54234-25770 1954
1702.85-17578-32910-8766 20769 7455-19835
1705.74-10192 9212 29405 51823 106784 58088
1708.64-14077-39746-36912-17539-26184-5799
1711.53 9785 19603 51672-137-6552 6324
1714.42-53953-70196-37678 702-14577-138858
1717.31-98955 2494 35534 30609 9031 47966
1720.21 69770 28648 38960 51775 45396 48548
1723.10 80726 91457 28398 10718 86686 80249
1725.99 43950 72253 91825 122951 91272 64798
1728.89 63719 43416 24740 28060 59807 82760
1731.78 44845-36040-101827-50197-39382-45955
1734.67 24875 30884 39886 28044 6838 25568
1737.56 18564 15254 33951 17148 7946 26790
1740.46 53125 92765 108490 72710 27838-4135
1743.35 10410-7458 19450 9270-6035 4343
1746.24 29565 40002 27526 16931-21606-33645
1749.13 13677 50958 7721-38553-47462-14569
1752.03 14122 2302 26799-6225 9944 59600
1754.92 12821-38194-35202-15077 33821 46747
1757.81 49760 36313 10501-4316-1699-11371
1760.71 21092-17208-79641-74163-31641 5082
1763.60 15958 54088 68675 41331 41487 39539
1766.49 16649 53049-16973-69380 5678 42799
1769.38 26548 9245-44433-39184-1516-45590
1772.28-66273 7604 60124 27621 26787 14895
1775.17 20873 62411 56222 50516 20139 19075
1778.06 49385 30934 21670 22863 24488 10477
1780.95 38057 58631 83661 101931 97400 109372
1783.85 79971 52389 78182 58750-1201-37269
1786.74-53657-64661-37820-12291 52215 88534
1789.63 73864 13363 12406 50471 8845-131878
1792.53-139233-73472-39995-6902 11534 23264
1795.42 38630 60124 64325 52977 67233 91152
1798.31 92042 71201 55911 79367 62106 26736
1801.20-3238 23781 4540 25746 76787 66230
1804.10 23189-23764-20797 10391-3144-21428
1806.99 31188 104980 132306 82401 4158 6426
1809.88 2396-12035 1023 29974 44927 43862
1812.77 16129-14738 25600 56416 59597 31109
1815.67 24188 4750-34205-40827-33490-20998
1818.56-26684-47120-5352 9331 45919 59663
1821.45 59346 49141 32339 7137-21150-33896
1824.35-69239-34908 36499 29744-1434-5562
1827.24 696-7811-19095-21531 9-39591
1830.13-15860 4843 21721 11996-23207-1738
1833.02-18042-32945 2457 36014 32986 16414
1835.92 15073 13087 17448-13900-24585 11041
1838.81 20959 18346 11554 12584 18261 40562
1841.70 58461 54626-13187-110859-177105-106134
1844.59 5563 14782 7544 56798 60417 3433
1847.49-1345 28644-30026-80707-49365 3153
1850.38 9465-8807-32635-23728 1352 2982
1853.27-3806-42913-19430 43722 50740-473
1856.17-48631-45904-56686-36896-46511-46755
1859.06-38891-97 8252-41223-51408-6314
1861.95 25920 24903 15149 6994 3296-1793
1864.84 8131 51047 10462-45722-46342-12101
1867.74 5591-11235-37030-39530-67703-60052
1870.63-22567-25047-7449 17908-10552-30129
1873.52-30238-55753-115518-86949-31720-36669
1876.41-48735-23697-1459 1418-5682-23763
1879.31-39188-11031-1975-15600-30646-3944
1882.20 10813 13957 3817-13558-28242-62937
1885.09-52990 17012 37895 36138 59521 36168
1887.99-202 27290-11422-67321-53732-35672
1890.88-21850-4893-31352-6858 7373-50708
1893.77-62716-35882-7093 10889 21694 23330
1896.66 29727 19887 26102 51693 22105 832
1899.56-1934-43532-55082-18866-12742-12888
1902.45-8999-26398-35260 11503 21766-21726
1905.34-20603 8237 32598 3966-60274-54952
1908.23 5991 15404 12120 3930 8783 1745
1911.13-3632 7197-13130-30396-29330-53866
1914.02-36682 10395 9101-58334-94522-35074
1916.91 10217-9927-24061-22980-54424-14657
1919.81 15460-446 35526 9637-9572 15134
1922.70 5648-25472-8387-1611 3497-5843
1925.59-46013-49962-43753-38826-27324-31336
1928.48-30335-1537 31549 3531-44434-2298
1931.38 33718 994-30515-40921-18405-20029
1934.27-27247-21407-41074-37552-24430-65511
1937.16-89984-88475-96531-50366-51724-86743
1940.05-52176-38788-71199-51625-23894-31285
1942.95-36139-54953-84113-65314-19809-4118
1945.84 1455-12259-38587-25864 14699-49434
1948.73-90927-50933-21918-8937 47911 88757
1951.63 33966-47161-27291-17822-31405-48325
1954.52-76509-65928-3063 41097 25797-24945
1957.41-27924-7247 25539 8388-2411 24428
1960.30 42200 20756 27896 75092 70818 53588
1963.20 70641 99057 89765 70091 72261 85224
1966.09 74449 52534 59266 73392 86113 95733
1968.98 112922 147023 215241 230110 188714 180403
1971.87 210545 215295 236341 285975 351872 281528
1974.77 133776 91866 136308 192078 228395 225219
1977.66 246303 242693 215017 173651 171147 210068
1980.55 249874 219949 204129 191706 216347 251996
1983.45 258850 248964 157842 144369 245375 313060
1986.34 334262 342802 331815 317086 326572 340404
1989.23 374781 391622 360150 332040 307426 287405
1992.12 237549 232104 197240 162850 175371 147505
1995.02 95892 38311 63376 62674 75028 81367
1997.91 79787 42174 27451 46827 31688 25780
2000.80-1088 12768 69806 83660 33192 2006
2003.69 58714 106646 51123 6704 6987 57893
2006.59 89672 90570 85008 84598 66623 56047
2009.48 61668 59690 48597 63492 59227 49412
2012.37 65955 90263 97412 96254 56684 68621
2015.27 87096 14934 10254 22089 41865 67541
2018.16 28504 14554 28306 63291 88900 53038
2021.05 42761 32037 41442 9301-1592-144
2023.94 43286 95600 99402 80533 60713 45450
2026.84 86556 95796 83358 110859 119712 72984
2029.73 35137 35960 36156 38347 63846 107554
2032.62 183091 133799 57635 52144 69866 107312
2035.51 117252 100487 107286 126139 181269 191107
2038.41 142343 96977 130921 191292 228475 230124
2041.30 240278 276300 251947 292916 361069 385266
2044.19 450872 481760 433352 461525 563038 597037
2047.09 629911 710126 768978 715070 708885 787944
2049.98 845925 865880 866582 848049 848176 850709
2052.87 792141 743740 721179 758252 754166 649708
2055.76 592945 593404 601155 570839 606903 648132
2058.66 733765 758326 598294 365991 225567 252522
2061.55 326408 407664 562812 676659 732975 821047
2064.44 856424 873018 878059 848487 825092 800786
2067.33 817648 848069 760196 672357 617279 587455
2070.23 565088 487003 437083 428767 383396 309436
2073.12 241957 224779 235850 194771 174139 148420
2076.01 59058-2894-6741 4881 51264 59208
2078.91 30135 11921 10897-679 3637-40990
2081.80-36367 10744 22312-27726-82482-33752
2084.69 30057 28234-74020-69984 4282 39622
2087.58 3305-10655 5486 21315-1518-62198
2090.48-69934-58690-64886-58491-57309-12794
2093.37 22723 26145-14127 27294 14431-11852
2096.26-25071 10265 39972-12545-51617-48458
2099.15 3477 5300 35850-16183-23453-6728
2102.05-30786-100110-141242-26310 3243 9294
2104.94 28007 23964 41456 36098-38255 7708
2107.83 47579 2854 10772 52159 49853 80171
2110.73-38599-126037 11929 36775 57752 100643
2113.62 66936 46504 37557-15007 57308 68724
2116.51 67714 61904 80185 113284 108952 13773
2119.40-42151 57012 61754 42529 40531 69443
2122.30 122440 93066-9746 38258 67825 69190
2125.19 149612 194158 152662 86140 21044 51593
2128.08 166808 171430 177298 222416 248422 193679
2130.97 144574 170156 190124 196766 232473 259582
2133.87 248640 228557 206953 203063 243582 261993
2136.76 259707 224681 231209 225567 221466 275818
2139.65 332707 282758 244378 238883 232406 266671
2142.55 311920 324299 294797 241133 270752 247633
2145.44 206921 225752 193617 146972 206278 227184
2148.33 224248 233301 288217 293751 271028 382704
2151.22 429757 436195 425967 408878 442497 389479
2154.12 335679 393423 433751 422309 446013 454575
2157.01 400042 292839 271543 368551 393508 378305
2159.90 377245 386116 327450 205143 264139 364439
2162.79 395436 406029 382263 354490 305254 305967
2165.69 419865 441409 407909 436246 437621 350124
2168.58 231114 308352 442370 431373 476659 522717
2171.47 503547 452411 472224 590382 636097 589633
2174.37 535945 526090 452839 318746 452118 622309
2177.26 661809 652057 675621 617230 519499 613930
2180.15 734059 709803 628349 544695 474147 404911
2183.04 403742 444800 506472 502444 465249 433468
2185.94 383478 442554 528701 491079 459467 509924
2188.83 476255 330169 312155 313549 323924 259774
2191.72 228155 285946 239441 219855 282830 328171
2194.61 354252 315349 232704 137256 175981 249224
2197.51 250826 200431 187901 195620 177629 178758
2200.40 127392 167409 225380 149160 57502 37116
2203.29 66505 57714 48938 26196-3447-32576
2206.19-54464-38916-10121 19097 23840 9043
2209.08 22236 1356-6996-9183-12769-5618
2211.97-28608-16466-23524-14708-28627-90972
2214.86-58174 8496 19592 13916-26477-12976
2217.76-25398-49363-23391-14356-25195-10326
2220.65 9225 25996 20601-24628-43153-19916
2223.54-24775-86837-39199-9050 1822-771
2226.43 17826-4141 15687 37372-9863-16876
2229.33 39751 54549 41639 51520 56113 74576
2232.22 61474 34843 20505 47441 81999 32093
2235.11 46100 91130 43040 64950 85933 47525
2238.01 7299-36897-6003 47768 34595-12304
2240.90 4657 43246 62190 58109 29958 83043
2243.79 143383 128530 106105 119509 106938 81944
2246.68 49969 70306 119811 130500 104841 119898
2249.58 130051 69641 23172 113785 190226 191254
2252.47 170696 128671 116709 89772 83526 107032
2255.36 148556 141580 109860 97170 117505 109068
2258.25 126904 138810 114402 137185 132982 143811
2261.15 177284 166475 190916 231697 166071 122618
2264.04 196741 259592 224477 204590 213881 258162
2266.93 202326 122582 160542 220249 258682 252662
2269.83 247048 250159 265065 307918 324999 309609
2272.72 346355 389738 401608 354384 344461 393338
2275.61 424043 463691 443273 476288 548362 574332
2278.50 522924 551661 615565 616759 555239 587591
2281.40 681922 737650 750406 735694 786544 857702
2284.29 874275 849272 873003 907932 958005 1009654
2287.18 1067064 1056904 1046504 1065066 1102328 1109201
2290.07 1061672 1134535 1283562 1313759 1314539 1358934
2292.97 1426124 1439286 1399621 1411893 1503159 1502095
2295.86 1506286 1627163 1728784 1685615 1617449 1744574
2298.75 1830257 1728380 1688123 1905273 2025903 1888411
2301.65 1833660 2046294 2164351 2050947 1922457 2095393
2304.54 2183883 1909565 1734890 1992118 2185992 1908296
2307.43 1677219 1929785 2228447 1993330 1728531 1916571
2310.32 2230921 2139775 1838446 1961548 2331466 2507408
2313.22 2198349 2171938 2390291 2726790 2622673 2670566
2316.11 3125590 3914037 4158725 4416234 5346338 6342270
2319.00 5603618 3941901 3114985 3082787 2814430 2319103
2321.89 2270955 2663803 2525769 2038288 2217578 2615114
2324.79 2364427 2033717 2403302 2811155 2487102 2148836
2327.68 2617466 2983307 2489209 2201742 2815101 3045024
2330.57 2401352 2247085 3072979 3051139 2159579 2337372
2333.47 3255795 2882432 1963199 2483436 3334868 2551110
2336.36 1868780 2715407 3068070 2170008 2189023 2982601
2339.25 2599514 1852144 2400428 2716709 1990861 1873735
2342.14 2418793 2183824 1736682 1968478 1998420 1671605
2345.04 1711177 1738430 1405660 1373668 1499519 1251151
2347.93 1133939 1178603 1152662 1152765 1157037 1171941
2350.82 1304772 1198428 1139633 1503424 1417275 1132657
2353.71 1607498 1555925 1149748 1643496 1608434 1138024
2356.61 1749840 1701997 1242674 1893020 1655774 1197032
2359.50 1949932 1552480 1311334 1946801 1382006 1433979
2362.39 1818735 1161883 1578966 1615972 1115791 1609729
2365.29 1226116 1197754 1514748 948412 1235814 1115705
2368.18 957668 1181296 829675 1022734 901688 751653
2371.07 832150 643915 819226 606526 662168 613851
2373.96 584054 580057 479450 497079 402845 387003
2376.86 351934 348787 308131 307212 262545 248316
2379.75 240220 255114 260209 258779 198996 184182
2382.64 200270 233449 229714 229856 190061 217594
2385.53 249325 223312 226255 255631 262479 214854
2388.43 225675 284487 315602 338006 302883 266599
2391.32 285027 330434 287952 216810 273403 293160
2394.21 282581 219569 244184 318052 368009 330959
2397.11 262714 291544 377358 368662 272395 284079
2400.00 391215 450829 372065 273853 353238 471313
2402.89 425057 307720 287131 347968 429016 327800
2405.78 368923 469188 439378 366688 299731 314269
2408.68 376636 346222 285974 296925 359544 364651
2411.57 324206 321408 376527 388619 399296 554578
2414.46 987964 1518038 1505018 896140 529480 442318
2417.35 401679 401541 377013 363597 404531 386210
2420.25 324444 271365 337006 427059 407499 309809
2423.14 301350 323580 326197 331753 432479 449571
2426.03 370903 346060 355873 342699 321460 362369
2428.93 435666 357730 285705 341312 338215 272395
2431.82 297974 371350 379053 363641 393097 369323
2434.71 245469 273922 297530 227053 193295 266852
2437.60 323774 315090 297763 248695 202526 239095
2440.50 220446 206687 248186 257463 242900 253175
2443.39 187664 142025 164618 239854 221823 175217
2446.28 155016 111467 199725 244383 178302 169771
2449.17 194885 205098 229843 184194 76536 44136
2452.07 54840 58698 92113 92167 69344-9257
2454.96 15318 126761 129808 75127 51614 41988
2457.85 19466 32924 53770 61841 35680 25037
2460.75 18457-5734-7778-9097 17730-48242
2463.64-55293-26625 26048 81401 84272 63385
2466.53 10444-42031-47108-13595 20427 59492
2469.42 25656-39166-34719-16203 726 27650
2472.32 25788-14642-31681-28813-26906 14583
2475.21 36307-10944-23826-25068-14761 654
2478.10 33875 72259 78302 31125 13139 42142
2480.99 76542 59987 3236-17216-26789-29923
2483.89 1981 24339 19859 18620 74523 71057
2486.78 4882-4839 5678 39007 78920 45351
2489.67 36656 78113 88928 68458 67411 49595
2492.57 91392 88097 74122 81991 117426 78821
2495.46 23636-42383-47027-2082-10591-3160
2498.35 22515-19030-19779 24761-15582-28424
2501.24-6477-72309-38749-814 30288-64411
2504.14-159130-152087-133815-128546-169021-156634
2507.03-62317-26540-63737-72058-129215-141063
2509.92-155031-198074-137229-45563-73923-147938
2512.81-201033-201780-81010-134311-254936-255378
2515.71-164306-176158-257856-249142-184075-192473
2518.60-219416-229912-234865-190132-226402-249338
2521.49-248800-265312-288219-342305-383926-349626
2524.39-339514-354799-370034-361675-294092-277561
2527.28-289915-243315-198734-225125-207923-137344
2530.17-16359 3568-19453-40133-89538-72563
2533.06-64342-155698-322366-382689-416142-374834
2535.96-195974 97981 372020 424721 347597 195479
2538.85 27882-110027-146129-159989-268626-257805
2541.74-188363-194436-288837-317423-261698-276778
2544.63-320321-318168-291146-301286-340108-359052
2547.53-407974-484878-497337-477734-512447-516273
2550.42-459821-510538-596276-594314-539268-527038
2553.31-514551-496495-493442-499487-463638-426929
2556.21-437362-487017-491029-436169-379650-371507
2559.10-395504-405779-359043-308974-341256-383854
2561.99-393923-339181-255587-184352-235850-278596
2564.88-286028-262156-169188-174578-205398-162415
2567.78-180331-175356-169233-183566-193990-172360
2570.67-181661-159893-87102-121514-185446-121630
2573.56-19114-42611-115164-149914-113086-74755
2576.45-17511-6340-42133-74569-63679-39799
2579.35-34353-76289-68379-52665-43884 8548
2582.24-9570-33442-54041-50896-14028 9114
2585.13-5822-11463-9407 7276 26495 2621
2588.03-42205-107176-83290-12553 33194-448
2590.92-16512-1759 41969 6460-63392-102260
2593.81-85051-81401-34337 7255 14398 99533
2596.70 86370 62641 55982 35275 11747-25627
2599.60-16363 4991 35325 14098 41346 41189
2602.49 17253 17936 9303-27366-77268-74837
2605.38-24268-2067-1095-44734 559-9102
2608.27-75509-97171-42082-25912-20260 22485
2611.17 15344-16823-64618-93932-85718-80567
2614.06-58874 5742 49478 29022-17438-1228
2616.95 25052-20098-70019-60063-7303-6547
2619.85-2524 12719-1060 80103 132368 100465
2622.74 114252 98195 85571 69307 78784 56616
2625.63 18398-42699-86797-101437-137191-176287
2628.52-121191-66179-37687-55770-27396-2939
2631.42 17554-8998-17462 11104 49220-30821
2634.31-66217 24134 57333 7659-7788-24356
2637.20-20508 5420 7665 10253 28201-4762
2640.09-61559 10384 30668 29330 32543-7261
2642.99-70949-88325-42801-39245 41185 85641
2645.88 54485 2074-43171-67128-49129-23323
2648.77-32305-62728-14509 44040 69846 89822
2651.67 88107 59066 32612-4411-48867-72898
2654.56-87938-66438-25595-50497-36457 8716
2657.45 44934 42355 54406 51715-34502-63559
2660.34-14235 5255 18000-51987-40733 54793
2663.24 119639 52691 57511 48093-8601-79206
2666.13-69828-24440 35094 20796-18697-22013
2669.02 18274 32712 26218 79004 196176 183851
2671.91 94800 77211 124518 120112 117980 127034
2674.81 137678 196115 217342 231375 344966 372884
2677.70 361625 400429 457883 432711 442385 494379
2680.59 560452 673241 780721 819207 892124 946281
2683.49 1038602 1200096 1351340 1496541 1590548 1737118
2686.38 1909453 1980712 2083765 2263981 2332757 2383136
2689.27 2493553 2616722 2714232 2815979 2878520 2794591
2692.16 2722167 2787319 2846080 2759706 2609245 2463295
2695.06 2374754 2291155 2142327 2013469 2061305 2171417
2697.95 2166326 2206609 2223256 2133571 1770568 1151365
2700.84 835267 962617 1354430 1769221 2188703 2514943
2703.73 2802118 3014242 3128274 3228695 3317397 3397116
2706.63 3393457 3306057 3212935 3085196 2892149 2708947
2709.52 2451290 2243438 2063897 1879700 1702366 1433634
2712.41 1208694 1017976 846580 756120 701322 539315
2715.31 448529 415052 365725 279344 203446 121449
2718.20 91757 92951 118914 103660 65863 33370
2721.09 27331-1449-44200-44018 13887 24152
2723.98 31523 54051 109422 76285 7462 493
2726.88-8889-3977 43664 43573 28456 14544
2729.77-8947 50243 55406 14378 58255 27960
2732.66-33844-46800-22170 15483 68386 53082
2735.55 1366-34354 13980-20228-34605 14081
2738.45 49787-52049-13472 24925 73025 96127
2741.34-8279-58064-40655-54867-482 64851
2744.23 93469 50127-12662-89068-57398 53944
2747.13 91367 30494 34385 87576 79935 26961
2750.02 28203 3087-28231-62045-44510 55399
2752.91 83533 101266 99550 17843 1052 41809
2755.80 85447 86310 102986 48535-703 29659
2758.70-5632-36873 29885 18060-32854-779
2761.59 21556-20703-2613 8400-46213-91336
2764.48-111968-72116-31586-27662-55326-58293
2767.37-74213-13260 89587 47124 15045 3112
2770.27 38149 108212 154746 75707 56269 37814
2773.16-13880-51195 7074-35428-91877-80367
2776.05-14691 77594 133229 74991-20875-30878
2778.95 24877 9125 19837 75613 74439 17616
2781.84 21195-20098-40328 18525 23422-1017
2784.73 21081 57003 46166 36937 79235 53993
2787.62-5151-856 56058 48608-22650-9913
2790.52 61505 357-3989 41716 37564-39340
2793.41-82820-9009 61021 41775-2331-47539
2796.30-10902 22671 20818 22191 87649 138809
2799.19 141521 5538-24492 8220 14741-1785
2802.09 45211 5629 23653 6711 90890 131196
2804.98 108614 149052 131120 77267 58543 103659
2807.87 180124 191098 213897 167397 149505 138627
2810.77 112733 58265 137568 140072 165628 266198
2813.66 359689 324459 277906 283693 315057 266927
2816.55 184929 150835 213221 188697 197541 264756
2819.44 340647 406953 410184 311130 339546 484509
2822.34 440540 355845 391546 486709 537002 478655
2825.23 420220 455342 556234 531999 507461 549102
2828.12 591661 477689 423038 571165 589576 583441
2831.01 674774 623593 604452 638679 644572 699269
2833.91 868706 878526 755672 702582 820862 917611
2836.80 824492 754243 866432 1014246 885705 829670
2839.69 954104 1048640 926149 947825 1091177 1239039
2842.59 1123539 1048423 1240638 1394770 1349965 1186974
2845.48 1157197 1207081 1259522 1181558 1106378 1051089
2848.37 1090536 1122971 1000790 862907 959916 942307
2851.26 752381 667227 639839 591702 641515 685656
2854.16 680429 706558 836999 894096 1011137 1044577
2857.05 1118383 1225270 1205126 1113263 1129438 1199634
2859.94 1210905 1201717 1318028 1392332 1272480 1239452
2862.83 1377668 1590071 1463177 1218677 1271559 1327085
2865.73 1163649 1127311 1318679 1331186 1134341 1043519
2868.62 1064407 1041349 937452 897582 970932 866484
2871.51 748779 739123 858425 831838 746302 743684
2874.41 782146 680546 675882 764760 781844 733962
2877.30 765798 688848 493073 541882 620203 522407
2880.19 455769 549946 591032 512774 473764 518899
2883.08 542528 531093 503097 436689 375458 360896
2885.98 480759 460252 328978 336750 350241 276149
2888.87 280273 242228 234543 299220 284551 180371
2891.76 168292 270118 333992 263023 200750 157554
2894.65 198191 161291 165528 173183 168488 128598
2897.55 102977 102554 113278 97623 99087 127490
2900.44 134902 116184 108371 139225 208811 216571
2903.33 154530 62874 73154 119887 162630 86482
2906.23 16721 16141 93191 86821 117340 25003
2909.12-2299 48532 104932 92054 57468 83206
2912.01 193176 148310 44923 66685 202159 193296
2914.90 204462 129719 25163 83460 180808 223830
2917.80 252862 185006 117158 120468 138403 87202
2920.69 151774 206780 207244 143201 162263 163792
2923.58 153387 185107 233650 262840 328069 181969
2926.47 157770 192597 284339 369856 412435 269281
2929.37 224101 324454 448556 402983 320647 335796
2932.26 439604 400261 408769 410045 408410 523020
2935.15 621667 589557 613663 586529 651533 655935
2938.05 698129 784926 891936 850274 815468 827449
2940.94 1023026 1072790 1025195 1081855 1249262 1220266
2943.83 1105585 1149283 1420343 1561903 1477474 1470841
2946.72 1661915 1942999 1896172 1809471 2099880 2291303
2949.62 2134545 2072352 2300726 2619056 2633944 2553481
2952.51 2803326 3050833 3134169 3185374 3437682 3646471
2955.40 3518554 3459874 4041686 4555017 4023146 3814804
2958.29 4530071 5368964 4944588 4360204 4907075 6064805
2961.19 5839905 5098709 5590999 7034570 7417076 6044390
2964.08 6124731 7816430 8525552 7062854 6649978 8259838
2966.97 9934541 8232338 7420607 9065482 10988026 9323624
2969.87 8383000 9779704 12171724 10890735 9401111 10361014
2972.76 13243357 12580439 10330571 10859712 14320050 14444672
2975.65 11823699 11319331 14993397 16455621 14520415 12705653
2978.54 15620895 17359018 16824197 14990638 16816107 18563706
2981.44 19039561 18700013 18965097 20184647 19956566 21579949
2984.33 21751825 22335397 21355366 23931813 25369650 25020481
2987.22 22986519 24714615 27687649 27095903 23886744 24488247
2990.11 27270165 27356712 24237504 23336210 24553018 24979273
2993.01 22517226 20686885 19540802 18693784 16982015 14457737
2995.90 13165237 12700141 12327240 12183337 12691872 13632375
2998.79 15378753 17077614 18863234 20071126 21349412 23037466
3001.69 24369656 25435245 26278947 27354414 28224672 27727852
3004.58 27452692 28214548 28864627 27992132 26445586 27179892
3007.47 28075207 26873877 25070387 25003622 25626827 24639925
3010.36 22567668 22219956 23335666 22947209 20629844 20010393
3013.26 21256154 21001115 18247857 17687659 19624407 19170919
3016.15 16122302 16450550 18700115 17183580 14560518 15670751
3019.04 16938845 14759084 13540205 15354104 15264841 12978015
3021.93 13392993 15071944 13358637 11294896 12567882 13711658
3024.83 11807853 11021651 12457386 12106250 10235268 10345392
3027.72 11473490 10514135 9184859 10098084 10232592 8659328
3030.61 8276122 9044351 8498164 7550706 7774352 7721921
3033.51 6846406 6692941 6933065 6534862 6089180 6077843
3036.40 5879975 5652375 5367968 5161576 5089046 4799325
3039.29 4452677 4460525 4158840 3783970 3774271 3797101
3042.18 3473014 3333258 3319792 3050368 2743641 2756545
3045.08 2670121 2443927 2365456 2378431 2303244 2240588
3047.97 2089168 1952578 1873664 1815320 1667858 1654186
3050.86 1584416 1441725 1379865 1396276 1261392 1078380
3053.75 1027933 1043202 896090 883642 919721 876039
3056.65 803840 714128 654041 698448 716562 665013
3059.54 571873 600300 594054 534648 456784 451650
3062.43 324612 311985 232106 265720 291432 343355
3065.33 298749 174599 202451 332499 366226 262288
3068.22 141709 184637 237654 201060 148865 175411
3071.11 226847 186262 118912 188041 174120 227183
3074.00 136992 130664 162370 241272 215344 179385
3076.90 182224 119706 66916 103138 38175-35728
3079.79-53329 21446 15462 74053 79880 23682
3082.68-29769-27458-67484-4296 79651 103756
3085.57 11528-8648-31496-90814-71771 40081
3088.47 34359-4960-28446-6292-43406-38477
3091.36-19069-39721-47186 10102-35895 6593
3094.25 58019 15844-2295-19716-176796-219030
3097.15-36747 111111 107269 2391-103304-66756
3100.04 12437 71166-20298-45287-74352-72659
3102.93-39402-90551-38591 44902-13818-51355
3105.82-45701-52692 1855 4272-24733-85860
3108.72-111386-96945-106977-97506-31881-5872
3111.61-100097-104262-31594 79042 18771 23047
3114.50-2925-53769-15095 44614-11552-59075
3117.39 1109 6199-25305 10740 24371 21992
3120.29 6757-36959-58814-57923-1870 35583
3123.18 10476 62395 88768 42989-22268 21848
3126.07 98959 91542 39551-66462-102017-83071
3128.97-141809-140088-86042-19041 30734 70133
3131.86 58573-21216-61619-1943 5156-25195
3134.75-79344-143374-159108-53658 113913 163557
3137.64 98340 42179-29772-43358 41280 81505
3140.54 43757 14876 4892-32210-46627 10338
3143.43 92515 47092-53876-35663 5511 85319
3146.32 63942 57400 4944 86730 153970-8551
3149.21-181673-34295 45017-1952 10298 38735
3152.11-11790-13025-6353-32086 2628 15435
3155.00 57964 52048-22831-44089-2576 9080
3157.89-963 1737 6282 56535 27133-22441
3160.79-14937 22984-76644-111257-49663-6083
3163.68-11104-28276 50202 112404 103382 28752
3166.57-62941-72011-18529 46792 26085-22182
3169.46-64988-21595 8913 21334 20869 39925
3172.36 91144 60707 14356 55788-51728-135773
3175.25-123349-45547-71006-96305 1299 66842
3178.14 35260-12372-51152-17131 48496 63552
3181.03-12903-75732-47770-62183-67728-26482
3183.93-27683-101901-100899 61951 94270-7837
3186.82-16725 42637 33897 66081 42183 37500
3189.71-18787 2132 18266-16986-108054-161323
3192.61-130171-19564 11918 81364 62262-58518
3195.50-47696 17243-22697-19381 24873 38192
3198.39-2970 1059 62533 113773 108223-25003
3201.28-65608-42528-103532-131733-82622 70480
3204.18 40107-49827-15328-29394-10400 1457
3207.07-8849-64961-42548 26119 60448 91806
3209.96 49383 8201-25993-80822-51465 27662
3212.85 79257-4232 41368 187441 118042 122646
3215.75 48154-63429 43987 87761 27115 12524
3218.64 39749 34187-46046-12036-56921-88128
3221.53-59692-98 6713-13025-91763-84655
3224.43-4210 53890 17772 9946-70031-71621
3227.32-79666 14581 35253-51901-85568-124300
3230.21-118000-26861 47176-9876 67352 152599
3233.10 75727 60216 83874 84611 29020 17394
3236.00 2915-2795 79312 25853-132095-193650
3238.89-114752-76427-3625 7098-25928 70528
3241.78 43710 17906-3066-53898-80476-88343
3244.67-2969 54863 71371 72539 57307 94471
3247.57 118388 57125-70618-64659 8122 61539
3250.46 51320-10609-34173 48725 99007 122756
3253.35 25429-124668-169309-7859 8402-22223
3256.25 15573 105194 152840 32220-31332 47815
3259.14 106396 139041 150125 133856 29148 3451
3262.03 132669 110222 43981 111431 168439 134161
3264.92 80452 32144 20088 39697 29705 34979
3267.82 34601 72311 83789 97252 47714 41931
3270.71 98163 92206 41359 45307 207444 199135
3273.60-2975 10046 66344 85633 104824 91503
3276.49 2099-77018-20935 75917 82190 48835
3279.39-8079-1402-54344 39621 134544 174286
3282.28 148321 121041 149495 93285-29248-116161
3285.17-33761 94920 49910-48901 21062 170097
3288.07 178620 103383 44285 32901-19124 1994
3290.96 45617 46547 36062 50084 10031-25369
3293.85 32865 71725-19844-141384-24309 65814
3296.74 11440 148637 177716 134554 88378 23938
3299.64-56620-50350 21654 56896 8570 23000
3302.53 62232 42685 20549 29628-44006-81215
3305.42 12882 49394 56609 92211 25796 6952
3308.31 15518 48298 77188 95228 28317 16030
3311.21 41987 27722 36696-363-133915-127880
3314.10-182044-39891 127199 97857 97683 42348
3316.99 18646 49241 30275 88103 113806-36239
3319.89-22188 11467 19601 127083 106992 64510
3322.78 30505 38129-15350-57051-65365-80094
3325.67-76510-8638 79036 118178 30090-96396
3328.56-90706-8070 37619 59431-33799-26461
3331.46 29525 15918-23155 7048-12159 22523
3334.35 107340 38984-51645-72942-50287-79484
3337.24-103064-133403-89478-5825 16216 33627
3340.13 50683 16860 24421-22604-65286 48893
3343.03-11096-84800-38513 120311 76488-31164
3345.92-52479 22843 84983 7356-60987-5562
3348.81-12989-77613-77923-43440-12559 15434
3351.71-101591-158965-17764 30048-57714-81889
3354.60-81312 21203 16653 73329 12668 51144
3357.49 40138-77434-121338-88881-42721-29535
3360.38-32389-90177-149103-26193-39364-18112
3363.28 28670-48604-93334-163067-212665-117196
3366.17 30458-24294-178948-87636 3888 4636
3369.06-6023 115005 89565-161328-149273 18659
3371.95-33569-51366-11542 64348 47043-15617
3374.85 13074 37259 19647-23770-79511-123573
3377.74-56150 65642 9189-21536 29407-16220
3380.63-27882-11827 58184 52437 48249 85780
3383.53 91492 41504-60937-83166 34559 97459
3386.42-28765-3015 32052 104047 51261-26740
3389.31-34641-71013-34785 32899-24201-88962
3392.20-52317 60420 106027 39927 52416 71308
3395.10 69934 122003 95849 130111 167965 173765
3397.99 94824-42260-97422-132091-73377-51224
3400.88-42267-50707 24871 42040-14162 81052
3403.77 95959-44596-86037-121783-135264-87335
3406.67 3427 27867-8897-12774 52133 97007
3409.56-30009-233286-194017-75468-119040-111534
3412.45 18469 73467 39439 42726 81013 118745
3415.35 158837 67546-74106 5710 35989 38116
3418.24 107154 67546-69784-16536 86409 5625
3421.13-4197 42242-49117-107724-62800-2173
3424.02 4947 1493-12425-70184-88821-83346
3426.92-44488 107280 138250 38269-19436-23587
3429.81 18621 30279 48995-14984-115102-75441
3432.70 48765 115225 107029 43220 16526-1856
3435.59-75592-72889 62702 112297 17240-84312
3438.49-77313-20977 76747 95175 40205 76388
3441.38 44294 40895 148243 150396-8500-45361
3444.27 37755 73946 67414 45414 99983 98424
3447.17 5169-107172-29655 54287 15048 15146
3450.06 36795 26800 54284 26479 32698 96783
3452.95 89319 16011-90617-93051-34922-29588
3455.84-39285-6597 25863-75016-60092 4919
3458.74-53875-81291-2283 67678 125319 114827
3461.63 55128 27735 4424-33682-37392 5479
3464.52-1083-10121 19728 17088 79972-2497
3467.41 58809 142377 83414 52365 17193-29440
3470.31 36425 54734-63997-127593-99743-77183
3473.20 67538 39050-124249-208833-105737-8155
3476.09-11612 14101 66738 38332-68127-188189
3478.99-187173-89064-68981-101252-71245 50899
3481.88 170523 178531-50621-45565-849-117762
3484.77-127937-45425-65085-91893-94550-121944
3487.66-87149-122252-21293-46919-188221-169086
3490.56-80637-67359-86870-165164-84749-3546
3493.45-68202-157138-133396-66259-137072-86164
3496.34-22470-16750 26505-53441-114609-70746
3499.23-80573-68475-120786-138955-5920 65185
3502.13 56276 81982 25759-65580-3884-89572
3505.02-150964-70836 29045-16526-50388-27441
3507.91-81063-136424-78369-29776-22384-38853
3510.81 23926 41149-17571-16134 15701-47303
3513.70-49269 54014-40845-136737-133802-172531
3516.59-205913-220406-199731-52343 21976-7025
3519.48-109947-170294 15856 132085 60213 810
3522.38-2975 25091-43177-241-12649-143374
3525.27-161617-87245-15810-6909-20398-106377
3528.16-150194-85517 11022-32691-86228-488
3531.05 112995 88040 52867 47076 45418 51035
3533.95 17507-27900-33197-23515 32250 81100
3536.84 79906 43394-27750-50272-15941 57352
3539.73 57325 25568-44491 80109 88633 75959
3542.63 183559 101853-34280 86043 94150 19765
3545.52 54267 102594 38108 56366 183716 175304
3548.41 164987 190480 127617 114054 141335 237669
3551.30 201163 92740 30930 38291 69700 182297
3554.20 209225 209515 196703 154508 85485-13268
3557.09 14348 105341 185238 210120 151556 172558
3559.98 261744 165040 112827 86486 32291 51361
3562.87 25595 92201 177925 216215 191173 118341
3565.77 128900 193033 129252-13847 7668 51913
3568.66 29483-14191 14151 150171 131800 67414
3571.55 76946 45535 18688-12601-100581-113009
3574.45 22477 94717 127731 126577 91020 17591
3577.34 42036 19452 6144 31557-66322-89515
3580.23-62595 39885 59751-14948-14719 81244
3583.12 105555 61139 59932 62472 61997 57602
3586.02 58126-24584-88736-114845-104386-47887
3588.91 23173 110346 173015 141400 108445 86318
3591.80 39462 28676 27333-56701-8049-5922
3594.69-77096 4255 93538 106136 143586 209460
3597.59 75767 18747 28828 92863 80219-14536
3600.48-32150 22937 42740 103261 69400-59258
3603.37-3038 62746 27114-43388-27212-41133
3606.27 13242 66025 64163-53863-140939-111463
3609.16-50561-23473-18557 16983 42077-13240
3612.05-126908-63764-9587 26317 80014 85528
3614.94 12032 36937 17585-52050-66269-29441
3617.84-67767-16128 19689 53359 78237-29825
3620.73-62816-16034 13804 39645 22233 74242
3623.62 23860-36695 31700 65494-33510-85460
3626.51-23460 92227 77371-20009-100563-146690
3629.41-126717-53 19115 25803 13470-18534
3632.30 5504 5770-141832-167532-96837-24532
3635.19 47244 52614 45207 8873-52933-30787
3638.09-30074-78073-73157-78429-28765 8800
3640.98-28042 13798 45234 8984 25941 73327
3643.87 86334 94854 88210 35835 20289-42291
3646.76-71382-102068-140185-87751-49362 7292
3649.66 41489-39559-93942-115695-128584-1870
3652.55 204567 217980 88955 8524 26109 17259
3655.44-27409-113072-133007-93590-46932 32005
3658.33 59790-17342-114073-138872-66001 49306
3661.23 120245 83201 103262 157542 114996 25910
3664.12 2974-938 22085 25573 13397 39212
3667.01 117563 22047-75278-33345 69570 34837
3669.91-89791-59957 56781 3238 9737 22349
3672.80 63907 117007 81211 854 24981-41301
3675.69-32940 32394 106288 156337 108146 178837
3678.58 203784 122432 70688 105085 111693 135628
3681.48 205653 254003 248464 241163 295853 226063
3684.37 158293 135708 208346 312082 273814 138744
3687.26 174155 151252 123775 213409 342619 308896
3690.15 191701 190046 208076 303843 428384 383847
3693.05 348351 391808 376439 268297 296455 412470
3695.94 405529 346754 359018 368587 395492 423406
3698.83 482396 450496 436768 418479 410879 432061
3701.73 434940 455074 457914 484481 502928 517491
3704.62 468860 430434 415270 434213 468129 471415
3707.51 458914 452549 375873 413986 455611 388178
3710.40 329845 318254 287407 289461 386796 396632
3713.30 402790 506533 536084 612339 691491 604761
3716.19 637954 728917 719881 718569 686894 719708
3719.08 775688 746396 690923 673396 661774 627443
3721.97 625335 668107 648736 632508 678223 637039
3724.87 599530 592726 526492 525692 527762 501402
3727.76 501308 600389 634913 548059 520261 590689
3730.65 545643 346239 341158 509647 601493 612427
3733.55 575214 453829 394971 489520 579481 503503
3736.44 538834 608092 636815 635405 669299 776666
3739.33 713662 671394 769872 768045 736266 718965
3742.22 656595 630915 666151 542849 522200 686006
3745.12 832460 851717 854839 894729 865532 877459
3748.01 958177 813700 701914 776354 788416 771768
3750.90 802707 768212 716581 815565 856531 878096
3753.79 866443 830780 867130 899225 827966 698387
3756.69 729360 825260 798436 718391 674067 699908
3759.58 740675 732320 727638 766113 779584 710163
3762.47 709700 796830 792342 742734 638085 671419
3765.37 663422 694096 792063 799285 784825 778676
3768.26 806669 810643 816267 796133 713247 658868
3771.15 667645 608782 523854 487933 425052 351003
3774.04 271699 196701 177393 199884 220529 253230
3776.94 269608 253903 367983 426713 374832 411175
3779.83 412065 397517 317230 201597 285356 320839
3782.72 319997 270020 271744 310510 386072 378923
3785.61 339976 347407 410796 473925 325579 158320
3788.51 139874 170434 228666 309645 332532 213391
3791.40 166042 145977 52175 61985 117422 148844
3794.29 166234 152891 206435 288455 199140 64584
3797.19 65014 100210 161271 107695 71663 43609
3800.08 68520 20178-95433 77400 183972 90268
3802.97-59015-66525-4172 100786 201774 183117
3805.86 148724-2630-57728-10680-5533 38659
3808.76 65970 111642 61464 42594 78863 115289
3811.65 96089 44715 42390 88275 53900 17732
3814.54 98141 5913-151593-103300 28651 66658
3817.43-54774-102365-5633 86009 87362-103529
3820.33-132648-19847-56578-32919 5727 49081
3823.22 10478-78710-102133-21142 33858-19964
3826.11-29511-77649-100370-53724 34472 136927
3829.01 135156 71858 59371-46543-89747-62527
3831.90-31459-109042-50863 24428-27635-73249
3834.79-25293 23638-2147-47039-100210-199892
3837.68-83078 13990 20716-31944-5575-29907
3840.58-47357 7315 97097 140061 124461 82383
3843.47 172689 227966 29676-89076-35646-20917
3846.36 28662 63905 53147 30591 15659 74777
3849.25 79348 9089 19308-24291-148767-172312
3852.15-47461 24172-80629-304002-279584-26696
3855.04 51038 79520 61155 5614-22416-4238
3857.93 98278 9674-47931 29588 71163 9568
3860.83-85440-114566-64594 32902 67275 82585
3863.72 63395 23823-45487-55282 39174 98603
3866.61 74350 1714 28676 129243 38212-56175
3869.50-107108-93800-81467-21537 90188 27402
3872.40-30646-10853 11912-19911 7882 50772
3875.29 96745 89911-38415-145683-61307-66002
3878.18-92322-17547 42172 28864 3248 6802
3881.07 742 3241 36013 53159 1836 52441
3883.97 61746-21743-118602-20378 60530 59443
3886.86 119420 111642 110071 128616 72251 18959
3889.75 40957 42241 27528 93189 114293 61802
3892.65-42059-10072 77161 100896 91848 69954
3895.54-40977-22565 21007 66051 155865 66592
3898.43-39700 17757 82841 113782 133894 138320
3901.32 71620-7307 9362 22224-42526-81391
3904.22-31573-22178 9385-8953 4081 127109
3907.11 209506 205178 221891 78255-8294 19407
3910.00 4838 76774 118977 138064 120641 105712
3912.89 214528 218124 206810 191933 61451 71526
3915.79 216412 241968 155269 252054 229152 238416
3918.68 293668 183816 89518 189039 235572 196144
3921.57 286634 259577 206228 239361 297659 248392
3924.47 176904 212502 276697 293946 282274 269621
3927.36 301433 338005 276819 268362 332515 356074
3930.25 367096 383588 444801 385064 378004 545148
3933.14 655320 552309 488134 599967 571150 379166
3936.04 342023 574218 643187 586141 494631 485888
3938.93 574645 624426 546370 606865 655443 692672
3941.82 618966 547901 540771 569726 531713 393653
3944.71 410871 484584 439984 416306 360105 366846
3947.61 329250 340683 373607 344723 349178 480638
3950.50 551533 544470 554718 571168 551303 608384
3953.39 713887 711676 717490 627184 493079 529985
3956.29 677713 753161 745797 689109 681477 628777
3959.18 648764 719807 715242 581077 526028 549740
3962.07 590862 571622 482285 513525 521060 461486
3964.96 418380 373898 302035 317995 289459 285966
3967.86 417977 434243 359490 324193 278249 349432
3970.75 321488 261614 259660 218235 271484 264389
3973.64 308771 382389
##END=
