##TITLE=Acetonitrile
##JCAMP-DX=4.24
##DATA TYPE=INFRARED SPECTRUM
##CLASS=IUPAC A
##ORIGIN=NIST, Anayltical Chemistry Division, 301-975-3108
##OWNER=COPYRIGHT (C) 1998 by the U.S. Secretary of Commerce
##DATE=98/10/1
##$SPECTRA VERSION=1.00
##$UNCERTAINTY IN Y=2.0 % relative (B=1.0E-04,C=3.1E-10,D=2.7E-14)
##CAS NAME=Nitrile-Acetic Acid
##CAS REGISTRY NO=75-05-8
##MOLFORM=C H3 C N
##MP=-45.72 C
##BP=81.6 C
##$NIST SOURCE=QUANT-IR
##SPECTROMETER/DATA SYSTEM=IFS66V (Bruker)
##INSTRUMENT PARAMETERS=KBr Beam splitter; MCT Detector; Multipass cell
##STATE=gas
##SAMPLE DESCRIPTION=Acetonitrile Primary Gas Standard
##PRESSURE=101.3 kPa
##TEMPERATURE=23 C
##SAMPLING PROCEDURE=1 L/min Flow
##RESOLUTION=0.9640
##DATA PROCESSING=Triangular Apodization
##XUNITS=cm-1
##YUNITS=(micromol/mol)-1m-1 (base 10)
##XFACTOR=1.0
##YFACTOR=11.368E-14
##DELTAX=0.4820
##FIRSTX=575.169
##LASTX=3975.077
##FIRSTY=-2.65E-07
##MAXX=3974.59
##MINX=575.17
##MAXY=.0001235
##MINY=-6.08E-07
##NPOINTS=7053
##XYDATA=(X++(Y..Y))
575.17-2339508-2389094-1483120-2571288-2495352-1381798
577.58-3177452-1530272-597812-3691174-1631238 1195474
580.47 1983222 1020934-964548-1034924-1904014-4401182
583.37-5356160-3615506-623562-1937038-4179190-2584892
586.26-1518422 164400 94218-1431798-1177552-895862
589.15-1266588-3007348-4354884-3192028-2581072-3256224
592.04-1769662-165700-1295070-1689140-1089156-1724164
594.94-1897390-1344856-1914446-3680756-2864774-1487910
597.83-1118906-971434-1390302-2345546-2018590-1435624
600.72-1051128-301542-247532-505998-1992868-2124592
603.61-1827570-2004466-2490736-3261340-2305412-720028
606.51-1212626-1618230 299650 926708 299658-779328
609.40-1885636-2232434-2179558-1704576-1230472-204118
612.29-1078330-2422938-1785576-1694576-1748338-1838714
615.18-2290320-1851064-800316 287068-17578-461900
618.08-794012-704402 98788-683284-1228410-1670190
620.97-1811180-2228924-2350476-1096842-1217092-860338
623.86-135972-47904-981736-1625016-813506-60290
626.76-158598-196872-89624-1085904-1578734-1367092
629.65-311432-103280-784368-506242-587980-791680
632.54-715494-498420 76342-680792-1143358-773736
635.43-1367130-742986-1269134-2097112-660920 481728
638.33 861730-168996-655666-228102-601360-180864
641.22-539478-850684-12476 797090 43498-1185462
644.11-455854-114176-191620 421356 403764-57800
647.00 129528 838054 821652 574984 195082-346640
649.90 344172-86886-579104-141900-234930 802302
652.79 1241540 775124 703754 664026 439738-102974
655.68-143380-110524 77112 385666 138496-63266
658.58-126894 443266 627380 410720 171860-192472
661.47 212336 819224 923348 731284 682696 851526
664.36 1695926 1797576 1099964 1318782 2041468 2659030
667.25 2790498 2673804 1320390 753338 2585576 2867388
670.15 1963068 1859276 2068380 1882258 2152904 2271808
673.04 2303616 2820598 2286784 1935288 2954878 3711164
675.93 3356806 2910512 2753840 2837954 3465448 4519812
678.82 4953400 3992122 4239936 5568978 6312038 6090672
681.72 6587542 7082310 6716936 7949496 9107146 10495230
684.61 11530210 11943370 13016910 14233480 15054330 16285070
687.50 17251620 18474710 20365200 20858190 22841380 25667200
690.40 27271030 28553010 30372360 32585920 34349560 37110590
693.29 39090600 40482330 42846160 44572220 46213120 48594540
696.18 50719580 51835450 53062540 54822270 55832450 56826280
699.07 58346580 59750160 61147410 62493640 62242290 61412010
701.97 61342900 61865120 61338660 59317760 58262090 57873610
704.86 56079060 54987930 54288150 52159310 49347880 46662680
707.75 44912410 44762800 45722950 42782860 37471900 34962620
710.64 31454960 28871310 32630360 45177540 46986200 32733050
713.54 24079940 20460990 19725470 21218160 30349180 61160070
716.43 67782480 42933070 32592450 30009020 29683420 31240050
719.32 33498620 35807370 38036770 40004740 40942870 42654250
722.22 44726410 46394130 47460200 48353600 49319990 49800880
725.11 50432680 50982910 50682160 50290850 50338060 50463210
728.00 49858570 48706340 47818600 47149860 46496280 45507000
730.89 44085640 42823210 41652960 40251950 39090690 37912210
733.79 36263520 34518950 33445340 32195820 31152810 30059820
736.68 28096750 26480600 24856470 23395500 22443840 21539490
739.57 20354590 19752170 18928340 17894110 16836030 15412750
742.46 14045940 13169490 12466510 11422180 10754860 10055300
745.36 8883982 8193090 7989662 7557568 6398016 5547552
748.25 5429658 5017238 4644214 4376132 4231844 4038986
751.14 3395688 3030502 2844230 2290702 2021790 1286042
754.04 1321266 1538680 1109832 1192522 957514 717572
756.93 358386 361020 263360-191342 55024-14344
759.82-230068 37608-326-202472-59450 3604
762.71 26256-402270-959178-1339758-1210408-813548
765.61-732612-365764-161606-588074-712168-809470
768.50-1339054-1204556-527466 266052-189790-1157366
771.39-1190348-766364-912024-1025848-800238-962178
774.28-856164-918672-953178-679706-462794-421616
777.18-886830-1192728-1120648-1282844-908386-811522
780.07-1186498-1069880-752524-464370-745478-1304368
782.96-1100328-771532-896584-1192370-797014-184268
785.86-438120-623466-622866-1211840-1530392-1074820
788.75-1399336-1694574-1018092-683248-1070442-1304788
791.64-1064890-1250866-1621996-1623330-1205388-650098
794.53-611184-670098-746798-755418-1081890-1331524
797.43-1318942-1573640-1741298-1700770-1132832-654514
800.32-735114-1199556-1400260-1017516-1116790-1283266
803.21-1162616-1608806-1304630-883018-1291666-1662732
806.10-1457924-1071718-1331674-1511116-1911954-1792580
809.00-751786-857342-1631526-1333924-896898-1094008
811.89-873434-1287980-1872824-1042566-939026-1224736
814.78-1215032-1491380-1389956-1303106-1411956-1012074
817.68-450206-863174-1232082-1462078-1384548-1099140
820.57-1065882-1251420-1026550-275898-925830-1391842
823.46-907532-779214-714632-1009618-1278192-973854
826.35-949186-1083524-799010-842490-914356-639962
829.25-695804-1434604-1541844-1086314-1037942-1172658
832.14-1784588-1801098-908674-487768-670616-1178852
835.03-1579114-1177932-627588-762746-1400958-936394
837.92-1202610-1857428-1285006-1047884-1064220-1248780
840.82-1179844-681964-682886-910304-428672-241716
843.71-720962-955812-966706-1167670-1562730-1467080
846.60-935560-1055516-1324106-1369396-1446300-1072266
849.50-496756-532176-689994-676970-934774-808262
852.39-640934-945804-1103358-1196554-1636348-982844
855.28-93144-751592-1306336-1125496-1280724-1055510
858.17-1137792-1147892-710950-1162478-1437302-877036
861.07-400852-901272-1053584-780968-756736-468072
863.96-582618-1078594-890694-719036-748978-781516
866.85-724704-223798-468524-937544-732270-727080
869.74-836670-736996-687794-446816-218214-514280
872.64-442566-105214-80122 2726-94360-54314
875.53 344988 352350 708186 1150760 1064666 1054182
878.42 1205486 1247602 1193184 1543886 1848478 2080658
881.31 2460824 2447392 2601728 3090790 3406332 3757060
884.21 4083488 4496970 4864404 5423074 5948918 6449170
887.10 7163252 7633644 8364308 9006512 9513354 10440530
889.99 10845530 11621510 12941920 13805950 14411370 15196030
892.89 16030910 17192240 18299310 18742840 19643430 20797800
895.78 21959750 23144990 24308800 25687700 27270950 28648910
898.67 29526790 30363170 31875810 33202200 34452010 35681560
901.56 36614670 37642540 39081300 40261630 40611840 41575710
904.46 42391390 42989670 43728620 44205340 44524830 44571220
907.35 44807330 44952950 45080100 44992880 44574640 44150440
910.24 43960840 43682850 42199670 40017790 38626990 37383220
913.13 35729420 33399130 31598150 29777770 27824120 25927190
916.03 23833470 22068580 21189070 21102560 23763940 31484240
918.92 50323670 62967970 39086330 15094010 11731600 10686410
921.81 11605910 13345110 16516110 21010850 28463730 32354480
924.71 26457740 22758550 24470920 26291380 28277900 30663480
927.60 33310930 35341440 36654080 36423460 36386680 37405670
930.49 38255280 38865860 39436290 39538370 39465200 39105890
933.38 38537100 38018360 37443300 36509930 35486510 34543790
936.28 33501430 32343720 31007580 29653940 28272480 26987560
939.17 25778960 24551480 23064230 21497810 19981170 18450490
942.06 17292600 16206900 14874080 13602920 12544570 11365420
944.95 10130360 9070482 8113938 7373476 6999218 6205178
947.85 5217760 4741104 4296794 3892974 3481972 2642350
950.74 1992306 1811914 1742832 1527414 1109498 929460
953.63 994236 887086 439784 335810 240070 205064
956.53 244900-12848-230896-302872 104434 210286
959.42 3220 168062 463426 146852-112710-30034
962.31-80084 186572 200130 55750 460400 804556
965.20 977798 930184 682772 835766 941704 993520
968.10 1143764 1142996 1218182 1517226 1665996 1540924
970.99 1040840 1034284 1595368 1746780 1740560 2154416
973.88 2161052 2122522 2727598 2693928 2372208 2566892
976.77 2877884 3189758 3533786 4097004 3985442 4855436
979.67 6420230 5073222 4415426 5071954 4818964 4766942
982.56 5391034 5540490 5244690 6481036 7946804 7291966
985.45 7009154 7237880 6714368 6852686 7889396 8721660
988.35 8053632 9015922 11594030 9635740 7908826 11222410
991.24 12266390 10273480 11700260 11609400 10582440 13363180
994.13 24342050 23236610 12074780 11206590 11925660 12245870
997.02 13581920 13942870 13500340 13392800 20553130 28665800
999.92 20973450 14577770 14586740 17366280 21567330 20436950
1002.81 17584780 16970910 21268930 36018060 33833600 21570500
1005.70 21719630 22711190 19936430 18725500 18409910 20091940
1008.59 20628860 43809120 78436910 52085300 30456880 29953380
1011.49 23687100 23796320 23366650 23737900 27936660 29570630
1014.38 47189520 63053880 38909550 27104380 27186020 26636150
1017.27 28048070 32207260 41598560 40525790 32989380 59359480
1020.17 76951660 45055440 31764560 30479600 32893320 37218900
1023.06 36529800 33156980 34738740 37363640 108875800 161988000
1025.95 81931770 43894930 44458590 35144960 33007070 31859540
1028.84 31194670 32654660 34026260 66056240 110852300 80806480
1031.74 44725160 35226040 33510250 36868740 36816520 37657040
1034.63 39843180 37248050 59743360 118608000 96309470 44327510
1037.52 52432590 57453380 43441600 32696790 35972280 36672000
1040.41 44993490 58114460 164424900 217964900 93534300 39769070
1043.31 41576880 43741790 43585880 37582650 40544220 41329030
1046.20 40591280 70941940 125845400 91934770 42012220 38248060
1049.09 35673480 42586230 47485820 41855980 37534630 42047960
1051.99 48412620 88134840 112952400 66664230 37498040 37080820
1054.88 37772860 44573320 56618730 52078620 40172800 53140340
1057.77 71838940 140897100 152133100 67006470 40325950 37895920
1060.66 35166930 37635620 43795760 43137560 39312630 45184780
1063.56 50166380 79730220 75082670 40359830 34202200 32332670
1066.45 31350690 34103580 40578530 38156400 34947140 33744860
1069.34 44182890 71693020 57076720 32383250 32530050 32080190
1072.23 31824410 30420050 28909080 28969870 31426030 37636290
1075.13 72209980 75534060 45032360 34914200 28457780 27115530
1078.02 30399260 30465510 27013020 26014950 26104720 26174190
1080.91 27081940 29632760 30812910 38362740 34958560 23089790
1083.81 20894290 19574400 18915910 18313210 18954930 18999640
1086.70 20942810 22987740 27987380 32819260 23839290 17377170
1089.59 16989510 15816290 15103980 14099450 14368620 14405440
1092.48 16177140 19188760 24390690 32522860 24545800 13352830
1095.38 12295250 11435130 10817280 10090410 9820784 9458342
1098.27 9459140 9986110 11028820 13643990 14742190 11462090
1101.16 9865876 9646750 9095486 8538390 8112124 8293076
1104.05 8950100 8942556 8691942 9067434 9895942 8927148
1106.95 7414856 6677988 6090424 6166900 6059046 5669792
1109.84 5242324 5070956 5339180 5617932 6506514 7770648
1112.73 6162246 4018128 3895096 3645712 3596942 3702472
1115.63 3231484 2735240 2847762 3120484 3200544 3352806
1118.52 2952668 2508364 2252760 2273000 2714400 2546584
1121.41 2131132 1964444 1823674 1911710 2078966 1945636
1124.30 2154356 2083734 1418702 1030874 1070654 1219288
1127.20 974328 988812 1188402 1055176 1121698 1202394
1130.09 1209000 1176032 902964 585426 476494 390678
1132.98 200818 312640 385708 374444 506048 557672
1135.87 468818 368348 359968 404112 148590-100628
1138.77 194128 137034 120664 382120 271068 298180
1141.66 293232 47684 88312 240508 441904 143674
1144.55-77056 77834-21130 10896-42276-52146
1147.45-31426-45392 199438 381376 151408-114380
1150.34-114108-48320 14846-231802-363584-192296
1153.23 39200-179672-293668 2418-252484-376448
1156.12-255412-313184-181496-91532-262878-320792
1159.02-353140-370648-343710-341024-253122-150426
1161.91-111714-369636-512042-496566-507940-131412
1164.80-3646-275498-352126-371668-352762-97398
1167.69-68128-240246-279908-174864-247858-366902
1170.59-292228-315204-225200-157702-325948-412122
1173.48-422326-314610-157604-272216-388642-511976
1176.37-415830-145504-303024-463400-374326-546214
1179.26-485436-283030-429752-601672-510644-204856
1182.16-443992-656790-555396-466116-416062-438802
1185.05-330724-462830-416414-279274-323618-424342
1187.94-570986-243848-191478-304354-193114-323620
1190.84-474128-447850-332270-160662-24158-146640
1193.73-74662 232956 195212 51136-137406-247358
1196.62-279326-239244-128212-64328-175406-306552
1199.51-201428-88364 24426 1188-65444-164528
1202.41-100524-5626-136462-79544-23352-18808
1205.30 33132 19494-117124-150332-73804-147934
1208.19 164 154864 299326 229126 65738 64926
1211.08-67166-87810 90544 198674 68430 53670
1213.98 181734 539308 869004 702222 594040 512392
1216.87 193360-59456-36492 375554 574654 427944
1219.76 487164 563236 353252 151882-1938-118340
1222.66-100464-142916-165492 145474 213478 232560
1225.55 264758 91244 87696 413234 584100 339710
1228.44 289404 128532-2892 149404 172726-94168
1231.33 172882 468154 244824 202978 142340 95304
1234.23 423348 625110 305700 58850 245288 640352
1237.12 743224 692248 1304892 2092642 2410128 2122652
1240.01 1293714 1071720 1085900 792770 674806 662972
1242.90 662664 798128 913144 678536 490670 631714
1245.80 625088 657546 647318 646374 582924 441392
1248.69 511218 534166 833758 1052784 790808 676902
1251.58 1032420 1098580 1505400 3701102 3510072 1875152
1254.48 1965222 1522940 1246566 1427566 1372632 1469858
1257.37 1942044 2401134 2522592 2049614 1370412 1244266
1260.26 1371814 1250162 1550416 3304894 4243734 3490460
1263.15 2776126 2349762 2085772 1977464 2150730 2413194
1266.05 2652068 3075968 5370398 5633882 3865850 3694548
1268.94 3760638 3954672 3925438 3822784 3835928 4183976
1271.83 4450336 4518412 4684716 4657280 4436136 4319948
1274.72 4231520 4142232 4213282 4552596 4975336 5318228
1277.62 5349372 5276186 5469982 5700550 5757376 5975698
1280.51 7320948 13873290 15999180 10991110 9231550 8715782
1283.40 7952222 7796256 9335448 15920840 19284270 15064550
1286.30 12178570 11008760 9837328 9003980 7354600 5933036
1289.19 4983258 4730714 4885328 4597720 4370742 4739104
1292.08 5173816 5730518 6141092 6948598 7614946 14222300
1294.97 30377600 25712780 11671200 11405060 11275480 9212908
1297.87 8427266 8632296 8655236 8567800 8828216 9230276
1300.76 9134442 9562630 10093340 9919664 8572980 7515228
1303.65 8348006 9413542 9560852 9284234 8397588 7626462
1306.54 7886972 8233688 11383820 18915980 30107800 36717540
1309.44 24737380 14316120 14922550 13994000 12161990 12323340
1312.33 12548610 12250090 12782460 13115110 13839540 14537430
1315.22 14733320 15139290 15655150 16069970 14925330 13612010
1318.12 13881870 13925990 13877530 14072960 14502200 15633510
1321.01 17192300 20758880 28022210 47894720 54451910 34320300
1323.90 24945360 27172120 26014070 23219860 23268450 25371380
1326.79 28062470 28255430 26926690 27484550 28569100 28003100
1329.69 27756360 28551280 32318140 42530940 39658960 26782540
1332.58 21341760 18344190 17811980 19695410 23304430 31758870
1335.47 47885300 81164160 124598800 103334000 49285240 38029490
1338.36 40719630 35057980 26847590 25994810 26010430 25023940
1341.26 24809880 25010440 25385990 25780510 26536880 27196110
1344.15 27911360 30279240 33056710 32990310 30550190 28027660
1347.04 27545100 28369700 34042500 41278180 55575050 78840680
1349.94 97564620 98153300 66993540 44653360 49253300 46617030
1352.83 38628380 35109400 55809550 88270580 75652810 48989690
1355.72 39655480 36905000 37870350 38702660 40925690 43351320
1358.61 46658700 50754740 54178030 58185860 60507280 61888540
1361.51 68301170 78309380 90862860 103071500 112957300 117129500
1364.40 102707900 79654700 70984790 71991660 76454400 84873440
1367.29 94078820 102520700 108454100 113122400 115568100 118701600
1370.18 127031100 136348100 141258200 138128600 132737800 134454400
1373.08 140620000 147080800 153809500 163254500 164176700 192322800
1375.97 243935600 273944500 279746600 264576700 233702500 176664700
1378.86 138911700 131242100 125906400 122143400 114448300 111851200
1381.76 119145500 124621900 127759700 130328200 133928000 138653900
1384.65 150722800 164659100 160754100 161469800 175295200 176132100
1387.54 167889900 167640000 172119600 173065000 178338300 179837200
1390.43 169628800 169520400 171602600 176391400 200780400 227404300
1393.33 238454400 246103800 245315500 237932700 234960000 229324000
1396.22 223376000 219260800 215717300 214066500 214743900 211566600
1399.11 210058800 232936000 244368400 221749500 203139100 192467900
1402.00 186072300 181858900 178751500 176139300 173097100 171005700
1404.90 173248500 179700100 223668100 304055000 326954700 299071500
1407.79 271141700 245034100 231185600 228955700 220907200 207683600
1410.68 194916600 184508700 178412400 176379800 172441500 163322800
1413.58 155954100 153327600 153557300 163407800 183373000 194457100
1416.47 199590200 184888000 157258100 150144500 149633600 161352900
1419.36 184895900 364106300 599724600 578897100 479842300 500132900
1422.25 454074100 322720800 277301000 263999500 225033100 188308300
1425.15 166546800 154658900 148068800 142885000 136962700 131400200
1428.04 126694300 123454200 122419000 121683100 119789000 120112400
1430.93 121866800 121467800 124542800 132920300 144443800 157800300
1433.82 298257200 462698800 413853300 301828800 238915400 211242800
1436.72 187400000 165109200 175185700 179549300 157850100 140469000
1439.61 140657600 136272000 122703900 121246400 122450500 124606000
1442.50 132236900 192259900 264583600 238296000 183523200 153550200
1445.40 137142800 133304400 135782900 140810700 153577800 217884900
1448.29 394282300 473231500 354695600 250524600 197572600 166541800
1451.18 148570000 142254300 149622200 174815700 178945900 155014700
1454.07 137446800 130960200 126391600 129763500 155702800 167770900
1456.97 143566400 131701100 126873100 123663000 118050000 116604800
1459.86 119626200 144806800 152507300 204422100 259640000 512844600
1462.75 1087102000 948843800 463589200 312074000 219628100 186307300
1465.64 173310400 173541400 164212800 159393200 154044000 148382600
1468.54 145436900 157622700 160364800 150563000 138646600 133250300
1471.43 132405300 134159500 139059200 140572700 137179600 135760000
1474.32 159575000 191624200 178402200 155540600 136596000 151019100
1477.21 180692300 215867400 375852200 410784200 267001100 192467500
1480.11 195448100 211751300 231349000 440335100 537436800 358561000
1483.00 244055300 212970200 182228800 152582500 136938200 129766100
1485.89 129381300 134314100 132732200 125241300 120672000 118130600
1488.79 117236900 117324400 117417900 117999400 120189600 130760200
1491.68 149093600 147034100 137146200 134167500 139226100 140254000
1494.57 224770400 335987400 272405300 178113200 143968600 140408800
1497.46 171821700 282966100 341250300 243297500 161182900 133861600
1500.36 140211600 141117100 124820100 114408700 109958300 109293100
1503.25 105199800 102112200 103672800 107008400 107501400 99742260
1506.14 103910600 107929800 111316600 128474200 127318200 111186600
1509.03 104874600 102575300 103223300 100308000 93995760 90395180
1511.93 106220700 129718700 330119800 565685100 429267900 222460200
1514.82 142862500 104834800 95109070 91414000 97746690 99789860
1517.71 100928200 120994800 147072600 131710500 105373600 95903930
1520.61 96337520 94420190 88015650 115102900 149227900 128621700
1523.50 95477020 84349180 80347220 86422550 87866430 96671750
1526.39 105492000 245326800 431189700 335871200 177912000 121870500
1529.28 91662500 76542260 66053680 65424690 76592070 88423460
1532.18 96677230 101373000 129002200 157591200 126643800 96380540
1535.07 86730790 81564150 82813640 93143440 95764660 89194810
1537.96 94459570 103482900 90647940 85335600 88183830 133435600
1540.85 197589800 165863400 108666000 78338560 63987770 59360650
1543.75 55048600 55570910 55934620 55808360 57612420 58836680
1546.64 60350440 58434750 54564370 52981080 52272110 51398470
1549.53 53686020 65835250 67518710 51541450 44227700 42086140
1552.43 45417650 46592090 97151670 150454900 95584690 68953570
1555.32 69823570 45973100 37011540 38175210 41375870 44605190
1558.21 46879150 45340400 51146370 54636820 49680610 41116840
1561.10 37723450 36879930 36697240 35387830 46293560 54215820
1564.00 43950960 36239990 35830000 36089920 57988340 132879400
1566.89 134476200 64969240 37636910 29482890 29243630 29821520
1569.78 26327180 23158540 21959510 21240360 21622360 28639550
1572.67 37692070 39139150 37215320 35508690 34679170 37919680
1575.57 48028090 49068640 40699120 49998240 62211470 47983050
1578.46 42515610 61738810 57049650 39851690 35819710 28188140
1581.35 24722870 24184040 23662830 23947390 22637820 21242190
1584.25 20527570 20129060 20907010 22957460 23918600 23297030
1587.14 22180510 21085100 21243340 22933280 22134840 19491870
1590.03 18873860 19516840 29030930 35600810 25147440 16590050
1592.92 14191070 12917400 12526690 11617040 11066190 11673840
1595.82 11656590 10284210 9225828 8723464 8954300 10638800
1598.71 12229850 11918380 13099610 17569090 18472960 16161310
1601.60 13138590 12622800 14647770 23271640 29927030 19701100
1604.49 10917760 8917724 7660616 7281040 7246960 6900198
1607.39 6157680 6123884 6351648 6650232 6265522 5922746
1610.28 5847702 6901246 9021512 9574004 9296886 9722022
1613.17 9748248 9339708 9046990 9814066 12750170 16050850
1616.07 21220730 17068640 8310594 6697262 6026782 5795236
1618.96 5468636 5076070 4841402 4841288 4691714 4427640
1621.85 4702332 5148400 8448452 11094920 8309050 5583542
1624.74 5389228 5957688 5496092 4913894 6055884 8359408
1627.64 6645952 3843720 3372782 3210756 3032430 2920158
1630.53 2817824 2639114 2589212 2540114 2519308 2660660
1633.42 2616510 3990320 6971678 12206090 12062100 5511362
1636.31 3900962 5064032 4698568 3264142 3541508 4343752
1639.21 3385434 2377412 1976588 1659676 1609560 1786306
1642.10 1769220 1373658 1296770 1378712 1810956 1854338
1644.99 5549394 10852450 6415342 5001940 7178560 5429500
1647.89 5149840 3782648 2727956 2681182 2566840 3069912
1650.78 2821430 5940460 15370670 18171150 19394770 13210900
1653.67 6896328 7409810 3470852 1946046 1589190 1468450
1656.56 1208484 1135126 1090048 1101128 943080 952964
1659.46 1008770 1089600 1223708 1647768 1561946 3360592
1662.35 5254342 2710052 900372 787172 637008 752550
1665.24 777562 876228 653656 487288 756534 1718582
1668.13 2419510 6062874 6142936 2079726 1421716 2618376
1671.03 3583176 1856760 741330 806674 679794 939204
1673.92 1257244 5296688 7866058 3653174 1005262 785264
1676.81 463184 371334 362558 603356 933886 1480986
1679.71 1758966 1540672 849740 947822 989546 2444824
1682.60 5171384 6083640 6297246 14860870 16838470 5352260
1685.49 1471490 1170146 726120 773228 1176416 1727502
1688.38 1047694 722378 1323542 1413216 658560 345200
1691.28 280176 650584 1014378 858656 1060814 1385964
1694.17 2124320 4622228 14709440 15738740 4862488 2027018
1697.06 2338446 1607008 1746058 2358388 7371606 13506070
1699.95 13415940 9559808 3888940 1622506 1396568 1200852
1702.85 1154198 1587162 3316238 2872856 1367056 2536086
1705.74 4257490 2752336 1200028 1181488 990060 753492
1708.63 605998 751936 1272626 1221330 677226 641018
1711.53 860926 963548 833414 1216882 2487850 2507764
1714.42 4548180 4694338 2316158 1826058 5344742 13580330
1717.31 9635892 4969800 6193060 3436020 1807772 1272288
1720.20 1266354 1483200 1498254 1283522 1100216 1431606
1723.10 1941096 1414958 1063290 1241960 1317608 1325118
1725.99 1311742 1386992 1559912 1371464 1518968 1855508
1728.88 2159486 3236642 3127560 2383266 2158560 2252462
1731.77 2709260 4498614 10787880 9460554 9156074 12365680
1734.67 6271460 2920116 2388774 1851208 2128714 2335666
1737.56 2369522 2770002 3469400 6627116 8121120 4869996
1740.45 3183654 2547192 2303286 3016528 3438380 3350548
1743.34 2764424 2462944 2457504 2510362 2956202 2651894
1746.24 2531878 2878792 2450124 3059964 4195290 3602490
1749.13 2876370 2691972 3603396 7727048 8050842 3653442
1752.02 2622060 2705590 2209834 2152598 2259078 2209520
1754.92 2333704 2407382 3826502 5199940 3492854 2509280
1757.81 2736414 2753322 2820372 2660488 2636298 2717398
1760.70 3817026 6716128 5822022 3188870 2858842 2597442
1763.59 2527220 2545388 2582980 2517946 2305324 2423490
1766.49 2721502 3145118 5952282 5938968 3252340 2685816
1769.38 2543502 2881408 4037112 5670490 4496412 7310100
1772.27 11259270 6381340 2845760 2863306 2630560 3042778
1775.16 3567768 3177884 2651628 2561166 2592986 2876574
1778.06 2898600 2900336 2840400 3012606 3854332 3636348
1780.95 2892922 2754868 2581192 2453446 2457732 2552678
1783.84 2864886 4210570 3734984 2563108 2931470 3072418
1786.74 2738974 2428976 2475074 2518116 2547396 2840292
1789.63 3053598 3892258 4657188 3631448 4556794 8285250
1792.52 6935192 3627862 3070172 2792744 2936012 3162210
1795.41 3361218 3076972 3039938 3035428 2780062 2933578
1798.31 3178178 4256230 4801068 3820994 3612088 4236796
1801.20 3965126 3908976 4082160 3594494 3679438 3728402
1804.09 3637484 3693440 3780140 3842018 3855726 3920774
1806.98 4165862 4122954 3990700 4181026 4329538 4385442
1809.88 5277748 5515510 4656034 4472234 4572376 4527676
1812.77 4541102 4633684 4744850 4758830 4639360 4726584
1815.66 4861396 4863750 5004716 5277206 5161100 5172374
1818.56 5357484 5233448 5076610 5104398 5309752 5410046
1821.45 5394934 5344152 5241756 5238558 5486016 5346674
1824.34 6507476 7328446 5661332 4732534 4559890 4419476
1827.23 4560684 4478014 4991708 5607948 6400916 7799284
1830.13 6685212 5610094 5247678 4150744 3627218 3777442
1833.02 4293858 4239522 3982196 3907454 3842570 4028670
1835.91 4279726 4785036 5275334 5181676 5136554 5189484
1838.80 5295156 5722498 6216696 6565186 6287548 5943120
1841.70 5900854 5912934 5890420 7592746 11404800 9795698
1844.59 6511082 6114478 5660340 5649948 5626636 5890460
1847.48 6112530 5691708 5277016 5183340 5353710 5278038
1850.38 5002254 4965270 4771088 4712310 4609042 4310398
1853.27 4004824 3904130 3971946 3993012 3963944 3765096
1856.16 3605386 3590846 3506460 3351018 3272696 3250372
1859.05 3152190 3351922 3299940 3176038 3196496 2984940
1861.95 2832212 2747424 2725016 2605390 2542194 2884686
1864.84 3152440 2986322 3060642 2819816 2730610 3606624
1867.73 3349348 3094554 4887516 4456844 2822726 2384356
1870.62 2017826 2021380 2139236 2170358 1924568 1878854
1873.52 1919258 2035800 1826584 1719528 1816964 1585456
1876.41 1536590 1800050 2097372 1924660 2005260 2757054
1879.30 2566766 2046204 1996410 1881638 1883480 1975104
1882.20 2005814 2002666 1834738 1857572 2037938 1995052
1885.09 1836590 1864510 2186888 2244416 2148388 2357772
1887.98 2267100 2555420 3693634 3487084 2732152 2570424
1890.87 2479396 2441476 2576538 2950288 2785828 2576846
1893.77 2572182 2767186 3155670 2908160 2819256 2909598
1896.66 2795864 2818964 2995214 3107930 3125502 3200612
1899.55 3304218 3318816 3342300 3468922 3454432 3345110
1902.44 3326018 3428126 3549362 3591664 3488632 3619136
1905.34 3454302 2907138 2703662 2645916 2700184 2377394
1908.23 2008718 1885082 1982320 2117526 1893164 1680822
1911.12 1595670 1638466 1584664 1845254 1983696 1733626
1914.02 1695700 1832744 1942866 1882002 1950964 1970754
1916.91 2467042 4307436 3881848 2180082 1751426 1638094
1919.80 1711088 1596198 1398752 1356712 1498086 1514166
1922.69 1672714 1348454 1163320 1161526 1252222 1412024
1925.59 1104428 1114206 1201292 995586 1003770 1113550
1928.48 1039712 940636 1066302 1220172 1125794 859688
1931.37 752552 804544 767872 796462 727782 714974
1934.26 685344 636176 563336 466940 546464 657272
1937.16 661644 601420 759238 847522 637278 687184
1940.05 766864 864696 936188 1137050 1953072 1529114
1942.94 676070 514260 396614 472832 441846 420876
1945.84 590138 568332 394628 425002 437806 397244
1948.73 408588 548568 518598 318876 343826 513458
1951.62 572508 573910 608678 575852 413188 212528
1954.51 259038 468026 510114 370432 229144 300226
1957.41 426502 384214 497624 462542 417570 509348
1960.30 275092 185706 367868 328432 190670 132134
1963.19 20946 64420 206886 222140 229184 317004
1966.08 242506 623030 809276 308812 335178 318080
1968.98 174364 191614 66782 116146 133666 64412
1971.87 249472 431116 320930 352038 386396 91996
1974.76-154342-83882 44548 77740 205964 176818
1977.66-18982 105458 203432 167006 303030 386076
1980.55 289452 146964 94572 190558 96450 46980
1983.44 136216 137492 119086-24152 30060 216622
1986.33 327010 647038 836832 553612 217502-2448
1989.23 66114 234212 137082 188480 600592 539586
1992.12 231326 119924 123788 151252 66400-14342
1995.01-69842-77320 9228 20232-54624 24704
1997.90-6390-106844-52550-65896-140666 75918
2000.80 130530-25214 76392 303454 357558 231606
2003.69 82182-72504-190262-37162 322962 348116
2006.58 55210-39754 26990 71960-64948-10938
2009.48 96594 56008 37640-60372-36644 23982
2012.37 74636 204500 194548 68648-30122-29534
2015.26 68540 197014 441006 532942 278940 43170
2018.15-15844-170248-344056-228360 34074 3800
2021.05 38526 149464 85962 120690 157432 191896
2023.94 485258 415594 43906 206982 407866 147132
2026.83 32958 78004 30928 171216 240538 10960
2029.72-58010 186300 225376 213250 370840 349542
2032.62 326258 415488 286726 216924 286224 378214
2035.51 307740 299078 365256 176660 307386 574374
2038.40 653076 485306 376346 329054 305006 639804
2041.29 937396 934856 1322934 1912934 1533698 1110880
2044.19 1007858 1026988 1175406 1320870 1409104 1360890
2047.08 1470786 1453846 1285044 1350198 1537368 1555362
2049.97 1371768 1351574 1337498 1779160 2442024 2454952
2052.87 2462620 2547012 2595426 2736076 2912840 2768470
2055.76 2728734 3040022 3081694 3160876 3288638 3375408
2058.65 3321490 3251136 3270960 3384234 3686444 3974928
2061.54 3993444 3875004 3913698 3930486 3860724 3789332
2064.44 3877306 3803718 3534848 3531508 3306754 3095412
2067.33 3075770 3109460 3070056 2764534 2778250 2820424
2070.22 2614694 2219518 1864770 1499526 1123964 1276738
2073.11 1852534 2845702 3657214 3591736 2671448 2796212
2076.01 3804034 3534676 3137292 2909136 2782612 3454526
2078.90 3877288 3635930 3881478 4173986 3905134 3676206
2081.79 3919312 3948886 3705684 3598482 3445478 4092812
2084.69 4751966 4684356 4848720 4817044 4394114 4144542
2087.58 4020950 3905058 3886562 3878794 4023926 3950552
2090.47 3644850 3645304 3687264 3633456 3493988 3254058
2093.36 2938266 2587086 2377636 2363664 2641838 2836196
2096.26 2711002 2661134 2446652 2217680 2210870 2797682
2099.15 3455274 2712930 1783680 1505920 1533360 1655786
2102.04 1643216 1599390 1392506 1083386 864166 665352
2104.93 506562 426724 310168 646024 1074786 1017282
2107.83 856630 735524 720564 477682 245898 257410
2110.72 648162 736920 318532 243864 334058 364798
2113.61 359758 351808 386508 587566 319700 67900
2116.51 80180-113240 135994 1076402 1239656 870898
2119.40 616292 156426 168052 208644 343708 573128
2122.29 472736 437134 401344 160184 111212 309792
2125.18 417964 232398 58060 264302 413550 253980
2128.08 81974-20310 44612 183282 285102 456038
2130.97 605200 560968 186774 113420 239434 240446
2133.86 300276 267290 220238 410176 556644 465206
2136.75 626346 1018794 799664 278710 176180 343736
2139.65 361596 166378 372440 538012 286812 249550
2142.54 283476 188060 242858 337312 380748 282318
2145.43 190332 154054 236674 211688 125322 252116
2148.33 257338 167254 14004 145590 246856-43896
2151.22 22786 314544 249380 302154 452898 405780
2154.11 458294 377048 240712 419962 1105582 1787238
2157.00 1155528 464038 599368 402808 221240 383108
2159.90 380208 372632 500980 694894 668440 469650
2162.79 294288 318462 387630 437400 572954 548350
2165.68 587760 509876 340688 303022 336732 411222
2168.57 550480 375240 289690 405490 410812 532998
2171.47 531906 621826 543272 288350 136502 59048
2174.36 391974 692498 1036576 1388342 878314 458108
2177.25 403730 258126 308708 466702 654552 610510
2180.15 564596 639638 555094 506112 619190 783158
2183.04 516590 219040 388710 577248 582382 546268
2185.93 808798 902238 634490 459292 462258 473524
2188.82 690828 1055852 972094 744432 705810 760970
2191.72 771086 825590 909222 883770 915338 846472
2194.61 854990 1223534 1200928 1020714 1010002 1119554
2197.50 1206866 959690 833086 898212 1086972 1163472
2200.39 1073310 946936 784374 711884 966644 1139832
2203.29 960114 1020084 1155794 1187772 1175720 1217866
2206.18 1010816 928998 1022372 1000990 986810 900340
2209.07 864566 854016 851884 846770 967696 977144
2211.97 1194264 1394760 1229294 1247714 1299640 1681732
2214.86 2148328 2125738 1971912 1564718 1365344 1593964
2217.75 1677930 1722992 1854488 1789948 1851042 2045812
2220.64 2171138 2431908 2564738 2757986 3055680 3258272
2223.54 3413572 3325142 3473724 3812484 4108846 4490144
2226.43 4553994 4536142 4719570 5038684 5441518 5758094
2229.32 6208972 6675614 6841040 7175484 7679814 8112034
2232.21 8560842 8950432 9402862 10049710 10851730 11415630
2235.11 11758050 12366550 13114130 13828550 14439760 15251360
2238.00 16028810 16768210 17600280 18541750 19494140 20253140
2240.89 21071110 22030990 22990290 23913040 24846610 25767370
2243.79 26618410 27597610 28572710 29479290 30374710 31282900
2246.68 32055670 32834940 33770040 34475500 35140240 36031850
2249.57 36810880 37411380 37514920 37428300 37717940 38029490
2252.46 37963720 37877740 37906330 37895480 37891870 38264690
2255.36 39634650 39241780 35774540 33691240 32500800 31527960
2258.25 30536490 29544040 28736120 28797690 29951300 36652760
2261.14 39699400 29130210 21148320 20065610 18987190 18643180
2264.03 19116760 22866350 28552550 47816800 72294860 50833020
2266.93 24035270 23085580 23219680 25426880 27794440 30759320
2269.82 33612800 35994730 38169880 41068890 43600720 46136970
2272.71 48218460 50354940 52351620 53737340 54977460 56244580
2275.61 57291340 58094820 58585440 59150870 59327740 59394130
2278.50 59419550 59097320 58559160 57944900 57260080 56725500
2281.39 55858580 54918100 54118120 53273850 52283710 51321710
2284.28 50165920 48865090 47820940 46598860 45329880 44346080
2287.18 43488950 42557530 41659670 40879270 40319380 39692140
2290.07 38519040 37549500 36983670 36503570 36027980 35656730
2292.96 35388660 33990140 32206810 31398190 30755630 30065510
2295.85 29561240 29508450 27858590 25909870 24896130 24921460
2298.75 24931270 23666730 24215280 23403970 20205770 17703290
2301.64 17485490 18791730 19852110 21895200 24487200 31106200
2304.53 44130060 46575780 41665570 39148570 35524550 33782290
2307.43 34948700 36665510 37869080 39471550 39966560 39373660
2310.32 40523140 42865080 43405500 44547910 45814800 45124420
2313.21 44559620 44856930 44490930 44232680 43985880 43688490
2316.10 43536850 43126720 42142880 40823900 39330560 38406940
2319.00 37170260 35263560 33877760 32996000 31421540 29327840
2321.89 27993870 26976190 25361660 23471580 22462390 22012670
2324.78 20600180 18708670 17771680 17648700 16620390 14864340
2327.67 14345740 14420600 13418530 12265740 12222550 12563490
2330.57 11422200 10241580 10751040 10666450 9219734 8730888
2333.46 9468800 9038310 7873926 8252818 9009186 7781642
2336.35 6673404 7457376 7548408 6359196 6352210 7230820
2339.24 6629890 5727834 6460564 6722720 5377010 4961324
2342.14 5643932 5447166 4998744 5248402 5144112 4924278
2345.03 5364528 5287438 4528426 4189356 4408952 4413104
2347.92 4126362 3845710 3821580 4104012 4096010 4095276
2350.82 4380338 4186528 4090192 4621308 4510434 4228908
2353.71 5198332 5634466 5349720 5914936 5484448 4679832
2356.60 5736852 5668716 4785470 5867560 5549070 4818528
2359.49 6026844 5349712 4966928 6407648 5598340 5663422
2362.39 6702224 5853860 6847156 7046570 6133212 7122496
2365.28 6432196 6325056 6698842 5535858 6179326 6046436
2368.17 5594936 5911546 5408912 5905434 5828444 6212984
2371.06 6903096 7204588 8376662 8056148 7478034 6710756
2373.96 5882566 5761490 5779032 6003914 6222458 6349674
2376.85 6572458 7124724 7444374 7842006 9002042 10010400
2379.74 8966338 7527338 6851728 6524490 6772548 7101550
2382.64 7043256 7171568 7275762 7204762 7404614 7707744
2385.53 8679722 10030370 10916400 10708750 9263372 8342708
2388.42 8094732 7774684 7577372 7612820 7989478 8338390
2391.31 9583586 10719150 10844470 11575500 12876850 13221270
2394.21 11356640 9697266 9312014 9093954 9306146 9665884
2397.10 10104320 11092200 12519040 14779480 16861660 19503120
2399.99 20912440 15460550 9947612 9155936 9128172 8924144
2402.88 9137992 10308920 11278130 11905250 12556870 12937110
2405.78 13663500 13140110 10498240 9317310 9489352 11356170
2408.67 13771570 12853020 11954210 12432190 13095860 13960510
2411.56 15392210 14976550 12703600 11898110 11333320 10845860
2414.46 11499210 13430960 15194620 16093130 17558870 19106930
2417.35 23276590 23592960 15378080 11182580 10372840 10094100
2420.24 11155720 11825590 12338810 12530350 12773310 13228610
2423.13 13587780 13317690 11904100 10227660 9671408 11173800
2426.03 12994590 12479930 11097490 13059560 15073520 13199440
2428.92 12471770 14438470 14839100 12740150 12341170 12803160
2431.81 13071070 11619890 9912808 10866090 15664760 14953190
2434.70 10185380 9746792 9850470 11619130 14146680 16385180
2437.60 18959050 17754600 11794760 8563314 8557134 8892224
2440.49 9383698 9871916 10663040 11233100 11603970 11722170
2443.38 10986980 9778934 9496564 9537548 9907940 9922222
2446.28 9079620 9164276 9715452 9759422 9289162 8620994
2449.17 7822184 7144310 6858886 6969234 6748834 6283932
2452.06 6260212 6517240 7004516 7702938 7971266 7632626
2454.95 7346322 7930940 8268264 8007884 8922882 9428608
2457.85 8808946 8021342 7319066 7311380 7285228 7201388
2460.74 7496834 8386138 10196330 10722400 10173700 9390194
2463.63 8205082 7516096 7401080 7337540 7278154 7208668
2466.52 7153014 7726300 7941136 7799102 8132166 7848672
2469.42 7409634 7327800 8445796 9911994 9729138 8921296
2472.31 8124360 7763598 7787166 8127202 8309304 9482064
2475.20 9736442 8392502 8088068 8063482 8259890 8389340
2478.10 8313296 8399320 8283674 8355410 8793210 10076310
2480.99 11599660 11236590 9710294 8976226 9065198 8910812
2483.88 8640584 8583118 8816072 8886202 8496550 8312332
2486.77 8247704 8276036 8524518 8062214 7688244 7819330
2489.67 8016220 8729060 10783100 13157790 12192940 9910454
2492.56 8765504 8334694 7997490 7548202 7381570 7413872
2495.45 7158418 6687352 6831024 7170048 7208758 6878524
2498.34 6725518 6513758 6276760 6261330 6332136 6760762
2501.24 7897726 8919002 8965134 8696484 8104978 7608192
2504.13 7160710 6636328 6415482 6180984 6120930 6368844
2507.02 6533316 6518432 6482082 6622814 6692926 6361196
2509.92 6166322 6253956 6233828 6387120 6933024 7458098
2512.81 7628834 7586330 7229030 6435224 5938146 5688122
2515.70 5423256 5358372 5199150 5111850 5106032 5002518
2518.59 4891724 4815868 4962236 5240040 5873850 7391222
2521.49 8010358 7479282 6579634 5301632 5571962 5636644
2524.38 4763410 4766232 4758676 4532106 4505302 4696408
2527.27 4807282 5091558 5136794 4942756 4972540 5018240
2530.16 5117158 5182042 5112708 4813758 4535994 4889732
2533.06 5271342 4895286 4882390 4648402 3861224 3702980
2535.95 3959184 4192026 4039814 3803884 4018416 4237366
2538.84 4145156 4022516 4062392 3872780 3803196 4202448
2541.74 4761978 4653126 4274406 4477276 4464176 3896506
2544.63 3278474 3034234 2978828 3126482 3114514 3106928
2547.52 3210268 3428874 3659456 3450838 3164616 3507980
2550.41 3947268 3390006 3090206 3324122 3586454 3712410
2553.31 3995162 4695924 5092690 4493070 3443108 3083740
2556.20 3260478 3196012 2879772 2830152 3198106 3315486
2559.09 3020838 2819842 2813880 2729024 2578708 2687650
2561.98 3041112 3111608 2922868 3087840 3272194 3407002
2564.88 3747484 3674724 3237824 3068250 2738600 2405770
2567.77 2016518 2059888 2319618 2192114 2135450 2189056
2570.66 2312646 2449520 2370356 2220340 2307706 2308862
2573.56 2403272 2601712 2679474 2575480 2742858 2974842
2576.45 2551016 2383710 2461162 2374744 2409808 2217776
2579.34 2037458 2378504 2559300 2490244 2590916 2800612
2582.23 2902514 2724184 2730214 2806354 3033608 3403278
2585.13 3375906 3615328 4113942 4523954 4189072 3829836
2588.02 3938852 3689256 3608060 3887096 4067764 4081050
2590.91 4577286 4841586 5016938 5448870 5589590 5587056
2593.80 5811470 6023174 6108352 6240324 6249094 6669780
2596.70 7160496 7322282 7615936 7941528 7908356 7762230
2599.59 7964860 8452564 9046450 9366346 9581954 9713974
2602.48 9822728 10143100 10068040 10271660 10493510 10735990
2605.37 11069720 11077130 11228290 12259140 13934270 14341220
2608.27 13959880 14195580 15088280 15971010 16096360 15829540
2611.16 15784290 16407460 16229690 15909140 16203730 16851430
2614.05 17971340 20771070 22362820 20980660 21306330 23818260
2616.95 24919230 24447500 23663190 24059310 25890030 28083520
2619.84 28162560 26135100 26679410 32623310 38471770 33874600
2622.73 28304210 28452100 27492900 23282130 19802550 18741770
2625.62 17325620 14849450 12816860 11884660 11501950 11362460
2628.52 11342020 11657060 11783820 11646760 11811630 11812290
2631.41 11321350 11199350 11473860 11424650 11190140 11158880
2634.30 11168210 11111580 11144340 10989710 10581180 10341780
2637.19 9864492 9425792 9210528 9158150 8839282 8304438
2640.09 8028702 7649660 7272094 7074472 6754976 6301026
2642.98 5964110 5726524 5206350 4831150 4453532 3921616
2645.87 3782696 3803316 3688776 3564570 3481394 3542612
2648.77 3495890 2809882 2579474 2744864 2602444 2532506
2651.66 2617828 2507846 2319204 2375178 2348390 2130596
2654.55 2112396 2168950 2270078 2490366 2397706 2415188
2657.44 2588460 2533216 2493782 2442324 2671944 2822532
2660.34 2684384 2828860 3111360 3463282 3866484 3981536
2663.23 4244276 4630388 4465440 3943320 3206400 2931130
2666.12 3201688 2964964 2495136 2384372 2155830 1929174
2669.01 2154684 2122356 2160058 2205416 1519020 1231680
2671.91 1172756 987398 940268 986744 1339132 1885610
2674.80 2191240 2479272 2767192 2754848 2541700 2323758
2677.69 2048392 1825660 1716056 1772040 2064614 2068834
2680.59 1881676 1967884 1804190 1504810 1626680 1756548
2683.48 1586442 1567512 1752584 1644098 1653368 1729986
2686.37 1423494 1364050 1485518 1424910 1480886 1378000
2689.26 1107970 1159762 1527546 1708340 1428734 1273764
2692.16 1358728 1427408 1321898 1223416 1228786 989224
2695.05 898180 1117366 1066740 699476 859986 1106302
2697.94 973190 572866 359700 331816 415530 638882
2700.83 657848 698276 766074 1000970 1176344 888456
2703.73 654608 901314 1299714 1305312 1046764 834022
2706.62 739622 913016 1033384 521374 165750 589330
2709.51 956426 1050878 1047418 1212124 1381312 1296190
2712.41 1025558 830874 994112 1093372 1060896 894726
2715.30 809298 889948 1065418 1293384 1532044 2065756
2718.19 2536468 2752694 2435268 1980570 1575228 1493478
2721.08 1786078 1941154 2108272 2241342 2092174 2091300
2723.98 2132040 2278942 2515840 2254076 2212154 2444528
2726.87 2405670 2633436 3141782 3303976 3054260 2834752
2729.76 3002420 3166646 3447358 3379156 3285672 3855466
2732.65 4128260 3898552 3481508 3593576 3694570 3453862
2735.55 3608988 3900718 3693014 3493870 3658652 3816490
2738.44 3647194 3345146 3424638 3291530 3256078 3326694
2741.33 3411368 3739702 3660448 3450004 3675544 4242096
2744.23 4231168 3573286 3559842 3693396 3497360 3431948
2747.12 3335284 3715950 3895476 3670174 3876034 4181604
2750.01 4383056 4607734 4860902 4705408 4591622 4488944
2752.90 4237880 4302380 4505160 4904730 5544774 5783456
2755.80 5910916 6204688 6412650 6718662 6734798 6489152
2758.69 6025294 5312778 5014710 5052412 4979472 4570690
2761.58 4243010 4235432 4258372 4188124 3780520 3434694
2764.47 3367320 3196964 3170068 3353886 3384086 3411522
2767.37 3132940 2699622 2461500 2332476 2390982 2160164
2770.26 1836794 1784648 1984950 2216136 2046508 1891896
2773.15 1969410 1988294 1707826 1984104 2213046 1898688
2776.05 1860896 1768638 1612902 1682150 1891050 1893172
2778.94 2012334 2039572 2174058 2791726 3017486 2634048
2781.83 2446898 2579362 2224010 1702398 1845324 2047546
2784.72 1852178 1473846 1145434 1369078 1442470 1188804
2787.62 1216812 1427728 1628008 1706810 1624754 1357934
2790.51 1484018 1677696 1810540 2473830 2885964 3282124
2793.40 3925160 4835906 5325792 4334040 3373168 2588538
2796.29 1943600 1895870 1721878 1346664 1055630 1322724
2799.19 1280574 928836 1076452 1270012 1728234 1983826
2802.08 2103558 2219132 2111424 2224028 2135762 2219190
2804.97 2268384 2404332 2788002 3153316 3512344 3672182
2807.87 4136356 4955794 4873384 3463476 2945758 3087008
2810.76 2847514 2638232 2168738 1515186 1092892 1215744
2813.65 1806916 2406896 3149864 3442036 2941224 2639414
2816.54 2682234 2707054 2889946 2999448 3028020 3137718
2819.44 3417782 3643766 3634614 4080140 4612254 4999834
2822.33 5759338 5629662 4203466 3812552 3890064 3893728
2825.22 4181516 4769102 5482460 4981538 4695808 5000602
2828.11 4616100 4355250 4242136 4238314 4541602 4712604
2831.01 4580934 4365876 4733640 5799788 6328158 6239058
2833.90 6503394 7256548 8123848 8416414 7910704 7714322
2836.79 9637116 12523730 12796570 10181620 8381830 7466298
2839.69 6736038 5678768 5017420 6244592 7265014 7814712
2842.58 8801244 9808110 10402220 10596780 11308930 12149630
2845.47 12491250 12879770 13378370 13753010 14111450 15217150
2848.36 16504650 16231430 16016230 16452720 16642050 16950220
2851.26 17453290 18344200 19667290 20267570 19304380 18888090
2854.15 19057950 19208620 19367250 19336030 19318200 19198420
2857.04 19302210 18980880 18238460 19078610 20022610 19966890
2859.93 19232450 19055930 18883190 17374930 16598180 16758830
2862.83 16270240 16420020 17990780 18557240 17924880 18349340
2865.72 20064140 22624970 30187760 28274490 28892580 39587200
2868.61 32033310 24020840 24228110 25145020 26259860 25292260
2871.51 26034220 26787140 27334240 28307170 29890820 31163760
2874.40 32170740 33155790 33868530 34637730 35945820 37123640
2877.29 37955760 38153110 38131220 38079170 38294120 38262880
2880.18 37601740 37293070 37089030 36627820 36171640 35605090
2883.08 34863410 33266780 31265310 29448370 27446170 26045440
2885.97 25013240 23930870 23214300 23255660 24157220 24301770
2888.86 23393840 22820910 22751000 22749560 22549830 23053110
2891.75 25537820 26116370 24851930 25030700 24867070 24195720
2894.65 23679590 23457090 23156860 23030370 23296560 23628690
2897.54 25166310 25539210 24912840 25439990 26038760 25603460
2900.43 25661830 26787330 26870960 26784220 26388120 26168900
2903.32 25779410 25207380 25383650 26534560 26464710 24905620
2906.22 25337340 26230210 25780930 24491970 23877510 23463390
2909.11 22507180 22606600 23739760 23472350 22256160 21486920
2912.00 20813390 20481590 21114250 22928000 21562220 19405740
2914.90 19320160 19616820 20090490 19668930 19047620 18772480
2917.79 19185130 19483850 20196960 20826240 20269840 20151700
2920.68 20921580 22337690 22827650 22485210 22092800 21034650
2923.57 20284420 19882390 19682670 19432000 18341850 18480080
2926.47 22143610 25786280 29655950 33213300 36977850 38850490
2929.36 36032650 36992680 38397800 39612540 42544520 42460430
2932.25 42517990 43965950 45703300 47663370 50077590 52115510
2935.14 54226890 56322620 58939920 62442460 66856180 72703200
2938.04 71612890 70565740 74208320 77114060 76532580 75262510
2940.93 76255250 77705220 78202510 78111070 78906480 79687230
2943.82 79351100 81959240 83999120 83355530 82854550 81949920
2946.72 83952790 75627130 66516620 62268380 57222410 53656020
2949.61 49579900 46232630 43749060 41158410 38114920 39182320
2952.50 52849460 70951140 77356490 73712520 75102490 67438980
2955.39 46552070 35033050 37283060 54747640 50700960 37020570
2958.29 40580330 47686650 56006850 58829060 60778720 63834600
2961.18 67195150 71039700 74301900 77215010 79005610 78892510
2964.07 80637940 85801910 90968340 99267830 116480200 109684900
2966.96 94325460 95671140 91850800 88644230 87592290 85967390
2969.86 84444430 83406380 81318650 79140250 77246450 75685870
2972.75 73277340 70913350 68750570 70035340 72728660 90689940
2975.64 96847340 71508790 61904930 56111690 50718620 48939340
2978.54 45491620 43563290 41735450 39748890 37569300 35906310
2981.43 35294170 33268270 32357740 31998760 35556580 40853050
2984.32 73827890 127876200 91834500 48178430 40785260 26847410
2987.21 24456390 20381750 20046570 18265670 17493000 15901250
2990.11 15399700 16016860 17564510 18810370 20269190 21296850
2993.00 26132310 36089890 72633040 75999140 40790250 30163210
2995.89 21689480 18130360 17180020 17287910 18303890 18692270
2998.78 19026990 19413200 19122080 19222690 19308060 20429220
3001.68 21105730 27027450 34199520 68755510 95797660 56248080
3004.57 32678680 28178110 22202030 20255850 18855270 18675800
3007.46 18530530 18242840 18151410 17873330 18417830 17625390
3010.36 20874870 20776740 34385140 48549980 105237400 177572600
3013.25 110063500 51869820 42225980 27173910 23447080 18889060
3016.14 19029900 18342680 19177040 19150300 19529000 19526250
3019.03 19764290 20887580 21956080 26108990 32488270 64471360
3021.93 104836300 73737860 39364980 30866340 23995860 22868890
3024.82 20468670 19795630 18235970 16555780 15612670 17261270
3027.71 19494010 20243610 21726500 22400430 26511430 34244480
3030.60 66316060 98965280 65664340 35666580 28205410 21696430
3033.50 20401580 18418950 18391680 17857410 17661810 17664720
3036.39 17042870 17007920 16437080 18195030 20555350 29607150
3039.28 45758100 116597300 155941900 84603340 44755560 32054490
3042.18 23059200 22326710 20764430 20629800 19435900 19567950
3045.07 18969680 19850170 20247440 20553910 21470360 23083000
3047.96 27802880 41922940 74080160 70242620 38355820 27704590
3050.85 22050200 20179880 19065650 19470250 19405870 18297230
3053.75 17480680 16459050 15058900 15646750 18107450 19100570
3056.64 22525890 27843990 47351650 65717740 44408610 25815490
3059.53 20798840 16364190 15673070 14132490 14185100 14709590
3062.42 15021120 15394020 16075680 16339090 15449940 16387200
3065.32 18026410 28765700 62308260 66628390 47190030 35603570
3068.21 24908660 19171040 14688180 12830690 11905840 12046750
3071.10 14108750 15692610 15383090 15457130 15435480 15748680
3074.00 16839710 19133200 25439690 39250740 36601070 21781880
3076.89 16484780 14081400 13313940 12968380 12412590 11681040
3079.78 11499370 11708300 12231160 11883840 10846010 11554010
3082.67 13235850 15039210 19108920 28222480 26992920 16696090
3085.57 12432300 10342770 9672490 9193178 8905782 8338582
3088.46 8087458 8177222 8458606 8948870 9340526 9568302
3091.35 11711030 12486670 16867020 31352820 26911910 13660660
3094.24 10363780 7975274 7507438 6931706 6483538 6106730
3097.14 6010104 6059098 6375798 6404734 7534698 8308890
3100.03 9013102 10308990 13104070 15727090 12789450 9646400
3102.92 8445584 7414552 7392488 7142108 6741750 6282518
3105.82 5867520 5364836 4943406 4449044 4012264 5300284
3108.71 7313380 8398854 9874398 9273128 7128100 6151190
3111.60 5757166 5562044 5194476 4896750 4520824 4112436
3114.49 3994798 3864176 3739544 3767816 3706156 4367474
3117.39 5117566 7508562 8610758 5729692 4356966 4042562
3120.28 3483750 3611118 3771624 3583182 3237720 3244082
3123.17 3200308 3072274 3369164 3414726 3238980 3336322
3126.06 4158574 4227948 3593058 3745810 3906896 3812866
3128.96 3477086 3559984 3747754 3476266 3384980 3278536
3131.85 2735518 2607556 2060420 1612040 2406892 3635022
3134.74 4406586 4686268 4646180 4437338 4238672 3855256
3137.64 3576456 3870836 4538770 4655906 4327998 4552476
3140.53 5228132 5243072 5052398 4903052 5176868 5504132
3143.42 5359584 5601720 5864600 5445276 5315842 5534994
3146.31 5423186 6067210 6734832 6873444 7433778 7877580
3149.21 8051372 8095074 8236484 8750364 8940052 9114676
3152.10 9350106 10058040 10851730 11034510 11483940 11564680
3154.99 11377140 12126890 13054940 13273860 13600130 14244350
3157.88 14481990 14560040 15459940 16503820 17137720 17323820
3160.78 17312590 17838730 18694860 19182250 19394430 19864260
3163.67 19996700 20027890 20372560 20342320 20411070 20855520
3166.56 21295050 21196690 20873320 20728350 20246160 20026880
3169.46 19986410 19796500 19228230 18626470 18091920 17435650
3172.35 16556830 15798020 15235840 14299390 13110110 12306750
3175.24 11998650 11936660 12540210 15005210 19298750 27357780
3178.13 27791360 18088460 16157600 15492880 10490310 8745512
3181.03 9345556 9889350 11058510 12713030 14615910 16993770
3183.92 19492270 21493200 23334770 25308210 26692370 28221190
3186.81 29667880 30788340 31934620 33239620 34113870 34571130
3189.70 35000920 35660080 36133400 35730030 35335520 34802130
3192.60 33960350 33198720 31952810 30597990 29647690 28412910
3195.49 27036160 25838330 24406460 22966080 21390220 19734130
3198.38 18336270 16622460 14990870 13967950 13034000 11782850
3201.27 10709010 9884930 9472260 8955134 8040552 7728834
3204.17 7625380 7213444 6465160 6271586 6558108 6127624
3207.06 5370104 5455116 5769490 5811234 5822122 5758344
3209.95 5357578 4860964 4916752 5163936 5047886 5203054
3212.85 4916146 4240568 4029134 4105604 4596488 5296430
3215.74 6641818 7376912 6981400 6643218 7497782 7805040
3218.63 7037916 6760154 7022322 7245682 7062388 7593950
3221.52 8262968 8593408 8560436 8452524 8635454 9052350
3224.42 9353846 9069974 9101204 9218956 9347286 9508756
3227.31 9386110 9056416 8752230 8332478 8404356 8452862
3230.20 7789500 7128576 6549868 6657888 6589716 5684872
3233.09 5290050 5097234 4651752 5016122 5188092 4509672
3235.99 3923300 3502812 3324416 3345840 2944074 2615484
3238.88 2809894 3140364 3061654 2705994 2099856 1819896
3241.77 2200558 3057758 3001448 2085968 2148670 2184938
3244.67 2095044 1988832 1873068 1882830 1827590 2006264
3247.56 2027168 1782932 1456732 1266616 1483954 1678418
3250.45 1853026 1867158 2068090 2055946 1761704 1829282
3253.34 1531332 1426066 1403562 1798984 2280010 1681758
3256.24 1906106 2140546 1955614 2362164 1927594 1348588
3259.13 1467546 1810928 1920278 1917384 1566872 1071034
3262.02 1109756 1433884 1754402 1804492 1542540 1669760
3264.91 1772760 1434956 2020430 2232976 1975082 2175806
3267.81 1589994 1371942 1635900 1255602 1525108 1814006
3270.70 1572440 1796026 2118238 1952228 2206634 2053854
3273.59 1556800 1813396 1644150 1392642 1305756 1586076
3276.49 1686122 1553322 1581004 1497088 1712022 1702336
3279.38 1884308 2041522 1676464 1623952 1548924 1563674
3282.27 1322128 1349998 1776910 1796176 1841492 1825530
3285.16 1916638 2217766 2358958 1998618 1844306 1938890
3288.06 1867090 2109474 2090632 1899018 2061454 2085636
3290.95 1725850 1599544 1940742 2214880 2353142 2122610
3293.84 2070558 2362308 1860514 1556036 1734128 1903108
3296.73 2105842 1803780 1815646 1790884 1782588 2090808
3299.63 2332374 2252570 2000610 1890518 1734858 1777212
3302.52 1904510 2251260 2280160 2157236 2634652 2626600
3305.41 1951450 1576886 1738434 2041382 2142542 2078066
3308.31 2179264 2161554 2449212 3161190 3161524 2511360
3311.20 2651522 3026698 2702284 2587314 2317720 1879710
3314.09 2040356 2299238 1913642 1819114 2610858 3088120
3316.98 3054794 2984902 3251818 4099040 3997546 3144456
3319.88 2731818 2587072 3167072 3201596 2491138 2652596
3322.77 2354898 2217928 2587412 2559104 2572846 2506982
3325.66 2397710 2597984 3003844 3024134 2667074 2596800
3328.55 2925752 3140466 3792566 4177652 3806240 3147026
3331.45 2928312 2471274 2220698 2879656 2744562 2391860
3334.34 2715476 2663264 2631866 2948648 3170856 2901804
3337.23 2636374 2812176 3017152 3385966 3176522 2809644
3340.13 3142412 3233610 2848030 2725680 2399542 2522256
3343.02 2810152 2575442 2722148 2990978 3029386 3096252
3345.91 2801076 2689134 3164324 3056222 2831248 2627652
3348.80 2477306 2666882 3135570 2961258 2956744 3306586
3351.70 3045056 3214168 3103518 2983258 3093176 2984918
3354.59 2898040 3154698 3774382 3843812 3634722 3510392
3357.48 3312300 3492992 3241414 2550128 3117794 3877150
3360.37 3423942 3109580 3690012 3868728 3346598 3263362
3363.27 3677140 3947478 3650628 3101334 3041148 2824492
3366.16 2729630 2873988 3235478 3606568 3125792 2746932
3369.05 2701198 3105064 3355108 3354372 3774092 3800192
3371.95 3494100 3040978 2720362 3177266 3189838 2691780
3374.84 2730430 3165694 3072534 3073788 3297014 3317684
3377.73 3429824 3522722 3380402 3182476 3103242 2875216
3380.62 3419108 3994112 3819580 3594868 3471116 3712190
3383.52 3669728 3551136 3421502 3495254 3680148 3660580
3386.41 3755962 3481336 3328894 3561872 3962890 3987774
3389.30 3710894 3593578 3438600 2893048 3011080 3959576
3392.19 4171326 3890574 3509784 3008514 2475182 2601916
3395.09 3108332 3151346 3110786 3273266 3385228 3189972
3397.98 2964756 2877936 2760474 3096852 3289898 2858076
3400.87 2666118 2776680 2853894 3077082 3196532 2979198
3403.77 2979214 2905824 3215906 3693372 3343668 3405316
3406.66 3551994 2860942 2817578 2921270 2787668 3375414
3409.55 3273630 2586072 2934128 3567944 3579836 3202828
3412.44 2803552 2973570 3085068 2792850 3002384 3308278
3415.34 3306206 3225886 2570048 2366268 2653136 2635692
3418.23 2849452 2920792 3116822 3624540 3066676 2614922
3421.12 2987662 3247308 3121098 2725642 3127166 3521618
3424.01 3153814 2408814 2126114 2464282 2443634 2192310
3426.91 2398610 2446346 2087628 2355782 3000698 2752180
3429.80 2632248 2477728 2532588 3135260 3031168 2465278
3432.69 2281988 2766730 3089382 2680792 2294064 2385164
3435.59 2363266 1993552 2022486 2489080 2542494 2595246
3438.48 2794778 2537020 2305500 2369680 2219502 2388902
3441.37 2587668 2308402 2231364 2570678 2813384 2475016
3444.26 2232378 2204504 2163290 2447442 3048990 3210952
3447.16 2898084 2276362 2221080 2480254 2551236 2609372
3450.05 2355850 2671484 2530180 2491554 2435100 2281494
3452.94 2510068 2489428 2523164 2437572 2649732 2198834
3455.83 1464262 1556582 1920062 2442992 2642364 2524104
3458.73 2324080 2112186 2129536 2461600 2271482 1785250
3461.62 1676496 1460008 1874512 2001874 1978154 2376972
3464.51 2183650 1661250 1542258 2059218 2461268 2432140
3467.40 2046840 1596376 1511392 2009910 2334278 2148750
3470.30 2147480 2233072 2101146 2107304 2004774 1613034
3473.19 1889812 2321628 1791188 1509064 2000252 2184260
3476.08 1939466 1933410 2032048 2190280 2741320 2213664
3478.98 1583898 1958712 2265704 1945064 1578556 2036544
3481.87 1875688 1620994 1745000 1875210 1962648 2437218
3484.76 2359792 1814196 1982268 2265376 2265334 2150752
3487.65 2065000 2044442 1928750 1945686 2615316 2485576
3490.55 1769014 1575852 1498234 1624550 1923622 2349306
3493.44 2876198 2796564 2275068 2159932 1949258 2146930
3496.33 2558062 2404700 2273046 1921670 1976916 2437598
3499.22 2490226 2147722 2134426 2256322 2176208 2153984
3502.12 2128198 2249342 2402106 2675784 2644124 2392852
3505.01 2287846 2043760 2078058 1666804 1579774 2274656
3507.90 2562956 2881516 3297126 2938856 2553834 2355038
3510.80 1823272 1739302 1943524 2290570 2328230 2055974
3513.69 2350656 2578944 2354344 2346020 2278586 2260362
3516.58 2663076 2582966 2455136 2474354 2608480 2928216
3519.47 2897972 2296074 1962040 2021470 2080662 2468066
3522.37 2766568 3239516 3145542 2597954 2423024 2549066
3525.26 2587724 2434714 2894694 3284086 2940452 2376344
3528.15 2446172 3102974 2901202 2818886 3007412 2424834
3531.04 2248668 2265622 2362268 2418942 2501464 3242610
3533.94 3077860 2499498 2763188 2854020 2710114 3125472
3536.83 3234458 2797726 2881016 3088786 2878314 2578566
3539.72 2921632 3079350 3010626 2853200 2642972 2659734
3542.62 2734018 2906568 2661142 2444224 2845242 3292512
3545.51 3096964 3213052 3439402 2923288 2660606 2346406
3548.40 2247004 2390760 2603936 2969514 3024496 2750718
3551.29 2693378 3239240 3081554 2821030 2824428 2621180
3554.19 2709330 2743872 3135526 3183994 2581930 2490192
3557.08 2841702 2662596 2379792 2400258 2423122 2679564
3559.97 2816986 2719194 2525666 2487450 2513552 2832400
3562.86 3457868 3356532 3068126 3181438 3605056 3917494
3565.76 4353474 4515416 3192560 4112406 5284376 3861888
3568.65 3095330 2777078 2295148 2029078 2119244 2309570
3571.54 2172650 2372092 2947680 2827922 2762702 2875138
3574.44 2749590 2451512 2426870 2553358 2578446 2733130
3577.33 2501512 2151672 2613588 3301820 3054814 2645774
3580.22 2655288 2677326 2432728 2777630 2720404 2312480
3583.11 3077806 3602536 3056236 2984340 3275048 3751326
3586.01 5437316 5020112 3830242 3540130 5356784 5988480
3588.90 3285302 2774882 2933758 2873508 2831774 2587546
3591.79 2235476 2793818 3109394 2638622 2793762 2993998
3594.68 3622296 3367266 3110652 3221380 3005838 3065380
3597.58 3017266 2977138 2739946 2937718 2966936 3052994
3600.47 3643402 3467708 3043408 2960328 3275828 3283944
3603.36 2908172 2607544 2768394 2792976 2854656 3234274
3606.26 4110782 4316864 3426622 3301082 5103768 8480052
3609.15 6617302 3484616 3536672 3540050 3290976 4374788
3612.04 6398706 5305912 3668420 3663114 4434754 4475310
3614.93 4124812 3787596 3605184 3930818 5268914 5756636
3617.83 4858036 4512552 6578832 7695394 4907848 4255096
3620.72 4264816 3763556 4042812 3731132 3781934 4015800
3623.61 3767852 3586934 3975560 4341880 4802264 4437242
3626.50 4130700 4430990 7856236 10323800 7678666 10829990
3629.40 9927840 4844862 4653974 4386328 4308878 4308224
3632.29 4203494 4448382 5228884 4705162 4234146 4362962
3635.18 4353144 4126962 4121538 4467652 4530714 4594368
3638.08 4313392 4223678 4264834 4681456 4830694 4309932
3640.97 4532702 4912724 5018578 4985778 4891828 4803402
3643.86 4482600 4306086 4879106 5468466 6282532 7806390
3646.75 9322952 8482806 6550852 8472650 14135240 11490730
3649.65 7556762 8975910 8979848 8021752 5857904 5273014
3652.54 5400000 5364492 5334614 5416408 5878506 5956902
3655.43 9052342 10924790 7446326 5480608 5264912 5327662
3658.32 5132108 4835910 4925776 5154486 5353946 5214792
3661.22 5221512 5293438 5228328 5108060 5196838 4706680
3664.11 4711410 5255848 5050342 4895804 5044240 4828038
3667.00 5016044 5621764 7957770 8370450 6311554 6191648
3669.90 11857670 14942710 8198630 4881212 4822788 4891560
3672.79 5430280 6185058 7245486 10549580 10787400 12933200
3675.68 14705500 8303572 6050782 6130148 5512542 5327674
3678.57 6534424 7403604 6598232 6182988 5888514 5766786
3681.47 5971812 5719304 5356502 5293134 5418752 5840984
3684.36 5755642 5254632 5049100 5201622 5460946 5259560
3687.25 7169418 15165790 14731640 6831214 5420146 5721158
3690.14 6245118 8103434 7494084 5060636 4283712 4162252
3693.04 4108584 3774644 3917068 3925056 4179648 4507756
3695.93 4289248 4347266 4158088 4124940 4240012 4280430
3698.82 4247562 4488300 4850660 4025584 4485970 6334576
3701.72 5760198 4415740 4329692 4088760 3741306 3688098
3704.61 4097380 4211080 3726782 3517708 4218356 4401472
3707.50 4290998 4153664 5649048 7446942 5306056 4095100
3710.39 4972426 5283292 9885152 12204570 6983130 4424382
3713.29 4168376 3838674 3835736 3694972 3858232 4081992
3716.18 4179668 3864636 3695064 3858514 4616778 4640104
3719.07 3596818 3727356 4195344 4157266 4401490 5815232
3721.96 5855690 4370512 4005024 3790186 3935168 5122644
3724.86 5019992 4400728 6126878 6141950 4139344 4025440
3727.75 3790976 3453666 3380568 3525664 3557478 3583166
3730.64 3967946 6529852 10530500 8003666 4203186 3918828
3733.54 4943050 6794944 7870572 7287920 5592988 9117662
3736.43 10008780 5284214 4694966 5123844 4403520 4177088
3739.32 3769644 3738568 4509734 5329056 4824402 4558378
3742.21 4470406 5341558 8452170 16330380 22020770 14009120
3745.11 5897576 4454576 3867054 4349572 4696382 5042354
3748.00 5287434 11334090 16329420 9727878 5182446 5842560
3750.89 6123100 13239470 17067550 8627786 4710350 4609768
3753.78 4052554 3937356 3718008 3906316 4923750 5754214
3756.68 4337378 4132262 4295084 4308798 4746306 6288162
3759.57 6523628 4590426 3809762 3367562 3471958 3847136
3762.46 3570128 3600666 3654212 3783196 3934000 5276408
3765.35 6248858 4791494 3805580 3662396 3945134 3923448
3768.25 3807036 4477856 7189114 7137466 4288806 3811576
3771.14 3474970 3329992 3563578 3297024 3546732 3986048
3774.03 3651504 3784264 3878428 3612762 3544822 3534762
3776.93 3433562 3511176 3640180 4067506 6080048 5747892
3779.82 3733630 3635758 3502576 3487716 3570610 3527730
3782.71 3834020 3795872 3700788 4108962 3980468 3961688
3785.60 4067966 3517418 3174038 3418300 3923314 4193774
3788.50 3895532 3711834 3511042 3349162 3620114 3765036
3791.39 3756594 3661268 3713176 3659898 3744450 3798614
3794.28 3750840 4416562 4745928 6322468 6352090 4614934
3797.17 4386708 4253456 3722784 3730768 3878254 4703562
3800.07 5471926 11495760 15500270 8348124 4926138 5202544
3802.96 4513966 4302726 4540280 4647946 4382614 4571172
3805.85 6171660 11554260 10560930 4997522 4271258 4017302
3808.75 3521862 3679848 3989500 3940680 3576442 3741904
3811.64 3635738 3343648 3509046 3825824 3903694 4840864
3814.53 5089084 8538282 16327470 12124310 5149232 4762334
3817.42 4146434 4546948 4195312 4555500 4873626 7011228
3820.32 9156760 8884286 9788040 6667660 4063588 4304088
3823.21 4140444 4306440 3926684 3810906 4426376 5042688
3826.10 5715896 5457102 4653632 4524548 4069898 3992430
3828.99 4357108 4422648 4222372 4294446 6771890 7391932
3831.89 4648856 3748840 3891848 4442176 5443342 7701704
3834.78 6959964 4820770 5102552 5160218 7411080 15551380
3837.67 13932130 5837668 4886782 5589600 5698704 5927494
3840.57 7219872 5579028 4428524 4770654 4672928 6208308
3843.46 6191878 4767974 4797284 4437208 3933486 4109450
3846.35 4256100 3778180 4216202 4548744 4386900 4627542
3849.24 4932964 4792788 5232826 6010730 11919130 15524450
3852.14 9353692 7267376 13256850 22249460 18443900 8083596
3855.03 5392850 5268738 5353722 5493498 5415186 4870566
3857.92 4660418 4818286 4987582 4687724 4624436 4884536
3860.81 5741782 7065982 5843524 5066654 5252162 5798420
3863.71 6582946 8674508 10579430 6928626 4655664 5054992
3866.60 5075938 4980732 4899934 5789700 7637338 9217936
3869.49 12732140 10391440 5571968 5794694 5266372 4758582
3872.39 4557018 5137164 6692446 7946750 6423292 4747064
3875.28 4825760 4810802 5016566 4826586 4363240 4606376
3878.17 4819288 4691854 5468974 7640804 7783994 6460520
3881.06 5433856 4791210 4778568 5271690 5357568 4835946
3883.96 5155542 6011082 10174750 11302630 6806266 4778270
3886.85 4615974 4356782 4482882 5146272 5722114 5688502
3889.74 5103996 6285098 9396854 8227992 5629452 5128832
3892.63 4586176 4898904 5076200 4662330 4817232 5267754
3895.53 5738162 5654994 5297680 5363320 5729062 5703566
3898.42 7545450 9543390 6923350 5254424 5583890 7616512
3901.31 10546240 8524920 6451174 5860278 7568494 10273430
3904.21 7987122 6633716 6894076 6869480 6509890 5861700
3907.10 5546402 5598064 5693652 5862740 6402514 6429786
3909.99 6405398 6560880 6479058 5911034 5810564 6283666
3912.88 6989764 7309530 7087800 7228640 6921376 7071874
3915.78 7432120 9518896 11265830 8327616 6676798 6814918
3918.67 6872814 7334062 8011990 7903780 7800640 7709712
3921.56 6755966 6777186 7426988 7665738 7947360 8361026
3924.45 8513742 8194462 7323916 6773318 6659256 6287742
3927.35 6185970 6575812 7581040 8344474 7599680 7205308
3930.24 7564272 7574350 7696740 8824950 9155466 7571814
3933.13 6980114 7497956 7680438 7503442 7262402 7163998
3936.03 6942322 6845700 6640318 7082184 7744262 8170510
3938.92 8262712 7563072 7266210 7141042 7141128 6934070
3941.81 7890538 8770408 7794658 7917688 8375212 9508966
3944.70 9667328 7933418 7276084 6968428 7523242 7638912
3947.60 7167100 7283584 7138808 8152254 9054144 8172786
3950.49 7113800 7183138 7865228 7878960 7728782 7666236
3953.38 9478638 13694060 11984100 7520964 6635548 6845086
3956.27 7338134 7290118 7199606 7494710 7609400 7573810
3959.17 7507710 7400728 6882438 8879322 11716060 9286474
3962.06 7173110 7229748 7384750 7657972 7910322 8127002
3964.95 7780664 7989070 8539592 9693830 13185320 12531530
3967.85 8371526 7554828 7746794 7674836 7447866 7696388
3970.74 7606594 7355176 7822294 9120208 16874320 18029770
3973.63 9952110 8016612 8041676
##END=
