##TITLE=ACETONITRILE
##JCAMP-DX=4.24
##DATA TYPE=INFRARED SPECTRUM
##CLASS=COBLENTZ III
##ORIGIN=DOW CHEMICAL COMPANY
##OWNER=COBLENTZ SOCIETY
Collection (C) 2018 copyright by the U.S. Secretary of Commerce
on behalf of the United States of America. All rights reserved.
##DATE=1967/04/28
##CAS REGISTRY NO=75-05-8
##MOLFORM=C2 H3 N
##SOURCE REFERENCE=COBLENTZ NO. 10255
##$NIST SOURCE=COBLENTZ
##$NIST IMAGE=cob10255
##SPECTROMETER/DATA SYSTEM=BECKMAN IR-9 (GRATING)
##INSTRUMENT PARAMETERS=ORDER CHANGES AT 670, 1200, 2000 CM^-^1
##STATE=LIQUID (NEAT)
##PATH LENGTH=0.011 CM CELL
##SAMPLING PROCEDURE=TRANSMISSION
##RESOLUTION=4
##DATA PROCESSING=DIGITIZED BY NIST FROM HARD COPY (FROM TWO SEGMENTS)
##XUNITS=1/CM
##YUNITS=TRANSMITTANCE
##XFACTOR=1.000000
##YFACTOR=1
##DELTAX=0.853728
##FIRSTX=401.821
##LASTX=3797.95
##FIRSTY=0.576
##MAXX=3797.95
##MINX=401.821
##MAXY=1.008
##MINY=0
##NPOINTS=3979
##XYDATA=(X++(Y..Y))
401.821000 0.5760 0.5750 0.5750 0.5750 0.5740
406.089641 0.5740 0.5740 0.5740 0.5740 0.5750
410.358283 0.5760 0.5780 0.5820 0.5860 0.5870
414.626924 0.5910 0.5990 0.6050 0.6140 0.6210
418.895566 0.6270 0.6330 0.6350 0.6410 0.6540
423.164207 0.6590 0.6620 0.6680 0.6770 0.6850
427.432849 0.6860 0.6920 0.6980 0.7050 0.7120
431.701490 0.7170 0.7240 0.7300 0.7370 0.7410
435.970132 0.7440 0.7480 0.7510 0.7560 0.7590
440.238773 0.7630 0.7670 0.7680 0.7750 0.7760
444.507415 0.7770 0.7850 0.7880 0.7890 0.7920
448.776056 0.7950 0.7990 0.8010 0.8070 0.8110
453.044698 0.8130 0.8130 0.8160 0.8210 0.8270
457.313339 0.8310 0.8310 0.8320 0.8350 0.8440
461.581981 0.8510 0.8520 0.8540 0.8540 0.8550
465.850622 0.8590 0.8630 0.8640 0.8660 0.8710
470.119264 0.8720 0.8780 0.8840 0.8880 0.8900
474.387905 0.8910 0.8920 0.8960 0.8990 0.9000
478.656547 0.9020 0.9040 0.9060 0.9070 0.9110
482.925188 0.9120 0.9140 0.9150 0.9180 0.9210
487.193830 0.9220 0.9230 0.9250 0.9260 0.9270
491.462471 0.9300 0.9310 0.9330 0.9330 0.9350
495.731112 0.9370 0.9380 0.9390 0.9390 0.9410
499.999754 0.9410 0.9410 0.9420 0.9430 0.9450
504.268395 0.9450 0.9450 0.9450 0.9460 0.9470
508.537037 0.9470 0.9490 0.9490 0.9490 0.9500
512.805678 0.9530 0.9540 0.9540 0.9540 0.9540
517.074320 0.9550 0.9570 0.9570 0.9570 0.9570
521.342961 0.9580 0.9610 0.9620 0.9620 0.9630
525.611603 0.9650 0.9660 0.9660 0.9670 0.9670
529.880244 0.9690 0.9690 0.9700 0.9700 0.9700
534.148886 0.9700 0.9700 0.9710 0.9710 0.9710
538.417527 0.9710 0.9710 0.9710 0.9710 0.9730
542.686169 0.9730 0.9730 0.9740 0.9770 0.9770
546.954810 0.9780 0.9790 0.9810 0.9810 0.9810
551.223452 0.9820 0.9830 0.9850 0.9850 0.9850
555.492093 0.9860 0.9860 0.9870 0.9870 0.9870
559.760735 0.9890 0.9890 0.9900 0.9900 0.9900
564.029376 0.9900 0.9900 0.9900 0.9900 0.9900
568.298018 0.9900 0.9900 0.9900 0.9910 0.9910
572.566659 0.9910 0.9910 0.9910 0.9910 0.9910
576.835301 0.9910 0.9910 0.9910 0.9910 0.9910
581.103942 0.9910 0.9930 0.9930 0.9930 0.9930
585.372583 0.9930 0.9930 0.9930 0.9940 0.9940
589.641225 0.9940 0.9950 0.9950 0.9970 0.9970
593.909866 0.9980 0.9980 0.9980 0.9980 0.9980
598.178508 0.9980 0.9980 0.9980 0.9980 0.9970
602.447149 0.9970 0.9970 0.9970 0.9950 0.9940
606.715791 0.9940 0.9940 0.9940 0.9940 0.9940
610.984432 0.9940 0.9940 0.9940 0.9950 0.9950
615.253074 0.9950 0.9950 0.9950 0.9950 0.9950
619.521715 0.9950 0.9950 0.9970 0.9980 0.9980
623.790357 0.9980 0.9980 0.9980 0.9980 0.9980
628.058998 0.9980 0.9970 0.9950 0.9970 0.9970
632.327640 0.9950 0.9950 0.9950 0.9940 0.9940
636.596281 0.9930 0.9930 0.9930 0.9910 0.9910
640.864923 0.9910 0.9890 0.9870 0.9860 0.9850
645.133564 0.9810 0.9790 0.9770 0.9770 0.9770
649.402206 0.9750 0.9740 0.9710 0.9690 0.9660
653.670847 0.9630 0.9590 0.9570 0.9550 0.9500
657.939489 0.9460 0.9430 0.9430 0.9420 0.9410
662.208130 0.9410 0.9410 0.9410 0.9420 0.9420
666.476771 0.9430 0.9430 0.9450 0.9450 0.9460
670.745413 0.9470 0.9490 0.9500 0.9540 0.9550
675.014054 0.9570 0.9570 0.9550 0.9540 0.9540
679.282696 0.9540 0.9540 0.9540 0.9540 0.9540
683.551337 0.9550 0.9550 0.9570 0.9570 0.9580
687.819979 0.9580 0.9580 0.9580 0.9590 0.9590
692.088620 0.9590 0.9590 0.9590 0.9590 0.9590
696.357262 0.9590 0.9590 0.9580 0.9580 0.9580
700.625903 0.9570 0.9570 0.9570 0.9550 0.9550
704.894545 0.9540 0.9510 0.9510 0.9500 0.9470
709.163186 0.9470 0.9470 0.9430 0.9420 0.9410
713.431828 0.9390 0.9370 0.9350 0.9340 0.9340
717.700469 0.9330 0.9300 0.9230 0.9210 0.9140
721.969111 0.9100 0.9080 0.9060 0.8990 0.8940
726.237752 0.8910 0.8760 0.8720 0.8670 0.8580
730.506394 0.8420 0.8290 0.8091 0.7961 0.7831
734.775035 0.7450 0.7100 0.6940 0.6690 0.6490
739.043677 0.6221 0.5781 0.5342 0.4972 0.4472
743.312318 0.4160 0.3890 0.3540 0.3250 0.2871
747.580960 0.2790 0.2660 0.2481 0.2341 0.2230
751.849601 0.2200 0.2140 0.2140 0.2180 0.2360
756.118242 0.2649 0.3088 0.3458 0.3838 0.3979
760.386884 0.4600 0.5020 0.5479 0.5680 0.6009
764.655525 0.6329 0.6460 0.6769 0.6919 0.7159
768.924167 0.7420 0.7520 0.7760 0.7920 0.8050
773.192808 0.8210 0.8310 0.8400 0.8500 0.8580
777.461450 0.8630 0.8710 0.8760 0.8800 0.8910
781.730091 0.8940 0.8990 0.9040 0.9110 0.9140
785.998733 0.9150 0.9190 0.9250 0.9250 0.9270
790.267374 0.9300 0.9340 0.9390 0.9410 0.9430
794.536016 0.9450 0.9470 0.9490 0.9530 0.9540
798.804657 0.9550 0.9550 0.9580 0.9620 0.9650
803.073299 0.9660 0.9660 0.9690 0.9700 0.9700
807.341940 0.9710 0.9710 0.9710 0.9730 0.9730
811.610582 0.9730 0.9730 0.9740 0.9740 0.9750
815.879223 0.9770 0.9770 0.9770 0.9770 0.9770
820.147865 0.9770 0.9780 0.9790 0.9790 0.9790
824.416506 0.9790 0.9810 0.9820 0.9830 0.9830
828.685148 0.9830 0.9830 0.9850 0.9860 0.9860
832.953789 0.9870 0.9870 0.9870 0.9870 0.9870
837.222431 0.9870 0.9870 0.9870 0.9870 0.9870
841.491072 0.9860 0.9860 0.9860 0.9870 0.9870
845.759713 0.9870 0.9860 0.9860 0.9860 0.9850
850.028355 0.9850 0.9850 0.9830 0.9830 0.9820
854.296996 0.9810 0.9810 0.9810 0.9790 0.9810
858.565638 0.9810 0.9790 0.9790 0.9790 0.9780
862.834279 0.9780 0.9780 0.9770 0.9770 0.9770
867.102921 0.9750 0.9750 0.9740 0.9730 0.9710
871.371562 0.9700 0.9690 0.9670 0.9660 0.9650
875.640204 0.9620 0.9590 0.9570 0.9550 0.9540
879.908845 0.9530 0.9510 0.9490 0.9470 0.9460
884.177487 0.9460 0.9430 0.9380 0.9350 0.9330
888.446128 0.9310 0.9260 0.9250 0.9220 0.9190
892.714770 0.9190 0.9170 0.9140 0.9100 0.8991
896.983411 0.8940 0.8910 0.8910 0.8870 0.8740
901.252053 0.8581 0.8391 0.8211 0.8110 0.7991
905.520694 0.7910 0.7321 0.6980 0.6930 0.6770
909.789336 0.6610 0.6191 0.5264 0.5001 0.3428
914.057977 0.2860 0.1861 0.1510 0.1081 0.0821
918.326619 0.0571 0.0261 0.0260 0.0499 0.0609
922.595260 0.1150 0.1610 0.2030 0.2360 0.3228
926.863902 0.3659 0.4348 0.4769 0.5139 0.5797
931.132543 0.6220 0.6690 0.6920 0.7329 0.7769
935.401184 0.7840 0.7920 0.8000 0.8129 0.8229
939.669826 0.8290 0.8340 0.8470 0.8550 0.8580
943.938467 0.8620 0.8640 0.8660 0.8700 0.8710
948.207109 0.8720 0.8750 0.8790 0.8820 0.8830
952.475750 0.8860 0.8860 0.8870 0.8900 0.8900
956.744392 0.8900 0.8900 0.8880 0.8880 0.8880
961.013033 0.8880 0.8870 0.8860 0.8860 0.8840
965.281675 0.8830 0.8820 0.8760 0.8740 0.8710
969.550316 0.8700 0.8630 0.8550 0.8520 0.8500
973.818958 0.8480 0.8390 0.8320 0.8310 0.8250
978.087599 0.8230 0.8160 0.8130 0.8090 0.7961
982.356241 0.7920 0.7870 0.7800 0.7650 0.7610
986.624882 0.7590 0.7590 0.7560 0.7520 0.7460
990.893524 0.7320 0.7130 0.7100 0.7050 0.7010
995.162165 0.6980 0.6930 0.6920 0.6840 0.6770
999.430807 0.6680 0.6590 0.6500 0.6390 0.6310
1003.699448 0.6290 0.6270 0.6150 0.6021 0.5901
1007.968090 0.5700 0.5640 0.5560 0.5380 0.5160
1012.236731 0.5060 0.4960 0.4811 0.4691 0.4551
1016.505372 0.4400 0.4200 0.4000 0.3880 0.3371
1020.774014 0.2981 0.2731 0.2581 0.2530 0.2341
1025.042655 0.1920 0.1880 0.1840 0.1650 0.1510
1029.311297 0.1390 0.1081 0.0951 0.0801 0.0740
1033.579938 0.0640 0.0520 0.0440 0.0370 0.0320
1037.848580 0.0280 0.0280 0.0250 0.0220 0.0200
1042.117221 0.0180 0.0170 0.0170 0.0180 0.0200
1046.385863 0.0240 0.0290 0.0340 0.0360 0.0479
1050.654504 0.0640 0.1040 0.1210 0.1310 0.1589
1054.923146 0.1680 0.1829 0.1940 0.2069 0.2219
1059.191787 0.2360 0.2530 0.2690 0.2820 0.2950
1063.460429 0.3050 0.3180 0.3300 0.3449 0.3559
1067.729070 0.3660 0.3760 0.3820 0.3930 0.4010
1071.997712 0.4170 0.4240 0.4360 0.4440 0.4510
1076.266353 0.4600 0.4680 0.4760 0.4800 0.4870
1080.534995 0.4990 0.5110 0.5180 0.5230 0.5260
1084.803636 0.5310 0.5360 0.5420 0.5480 0.5580
1089.072278 0.5620 0.5680 0.5790 0.5909 0.5950
1093.340919 0.5990 0.6030 0.6090 0.6140 0.6260
1097.609561 0.6310 0.6330 0.6370 0.6380 0.6509
1101.878202 0.6620 0.6700 0.6740 0.6770 0.6820
1106.146843 0.6890 0.6930 0.7000 0.7040 0.7060
1110.415485 0.7090 0.7210 0.7280 0.7340 0.7400
1114.684126 0.7480 0.7520 0.7560 0.7590 0.7640
1118.952768 0.7650 0.7770 0.7800 0.7810 0.7880
1123.221409 0.7930 0.7950 0.7960 0.7990 0.8080
1127.490051 0.8090 0.8150 0.8160 0.8200 0.8230
1131.758692 0.8270 0.8290 0.8310 0.8320 0.8340
1136.027334 0.8360 0.8390 0.8420 0.8440 0.8460
1140.295975 0.8500 0.8500 0.8520 0.8540 0.8550
1144.564617 0.8560 0.8600 0.8630 0.8640 0.8670
1148.833258 0.8700 0.8710 0.8710 0.8750 0.8780
1153.101900 0.8780 0.8790 0.8800 0.8820 0.8830
1157.370541 0.8840 0.8840 0.8860 0.8870 0.8880
1161.639183 0.8880 0.8900 0.8910 0.8910 0.8920
1165.907824 0.8920 0.8940 0.8940 0.8960 0.8960
1170.176466 0.8990 0.8990 0.9020 0.9040 0.9070
1174.445107 0.9070 0.9080 0.9080 0.9080 0.9100
1178.713749 0.9110 0.9110 0.9120 0.9140 0.9150
1182.982390 0.9150 0.9170 0.9180 0.9180 0.9180
1187.251032 0.9190 0.9180 0.9180 0.9180 0.9180
1191.519673 0.9180 0.9180 0.9180 0.9180 0.9190
1195.788314 0.9190 0.9190 0.9190 0.9180 0.9180
1200.056956 0.9180 0.9180 0.9180 0.9190 0.9220
1204.325597 0.9230 0.9250 0.9260 0.9260 0.9260
1208.594239 0.9260 0.9270 0.9270 0.9270 0.9270
1212.862880 0.9270 0.9270 0.9270 0.9270 0.9270
1217.131522 0.9270 0.9270 0.9260 0.9260 0.9250
1221.400163 0.9230 0.9230 0.9230 0.9220 0.9220
1225.668805 0.9210 0.9210 0.9210 0.9190 0.9180
1229.937446 0.9180 0.9170 0.9150 0.9140 0.9140
1234.206088 0.9140 0.9120 0.9110 0.9110 0.9100
1238.474729 0.9100 0.9080 0.9080 0.9070 0.9070
1242.743371 0.9060 0.9030 0.9000 0.8990 0.8980
1247.012012 0.8980 0.8950 0.8940 0.8940 0.8920
1251.280654 0.8910 0.8900 0.8900 0.8860 0.8840
1255.549295 0.8820 0.8820 0.8780 0.8750 0.8720
1259.817937 0.8710 0.8630 0.8580 0.8550 0.8540
1264.086578 0.8520 0.8500 0.8420 0.8360 0.8350
1268.355220 0.8320 0.8320 0.8250 0.8210 0.8170
1272.623861 0.8160 0.8120 0.8110 0.8030 0.7950
1276.892503 0.7870 0.7840 0.7810 0.7790 0.7730
1281.161144 0.7680 0.7640 0.7600 0.7570 0.7560
1285.429785 0.7520 0.7410 0.7380 0.7330 0.7260
1289.698427 0.7180 0.7140 0.7090 0.7050 0.7020
1293.967068 0.7000 0.6960 0.6920 0.6810 0.6770
1298.235710 0.6740 0.6690 0.6610 0.6490 0.6410
1302.504351 0.6330 0.6310 0.6270 0.6111 0.6060
1306.772993 0.6030 0.6010 0.5990 0.5900 0.5850
1311.041634 0.5740 0.5590 0.5580 0.5480 0.5420
1315.310276 0.5360 0.5300 0.5240 0.5180 0.5120
1319.578917 0.5100 0.4881 0.4800 0.4750 0.4670
1323.847559 0.4650 0.4530 0.4470 0.4440 0.4350
1328.116200 0.4250 0.4170 0.4160 0.4060 0.3891
1332.384842 0.3880 0.3840 0.3800 0.3760 0.3720
1336.653483 0.3610 0.3540 0.3530 0.3490 0.3371
1340.922125 0.3250 0.3140 0.3070 0.2990 0.2980
1345.190766 0.2860 0.2830 0.2790 0.2730 0.2700
1349.459408 0.2620 0.2530 0.2440 0.2360 0.2310
1353.728049 0.2260 0.2190 0.2100 0.2000 0.1881
1357.996691 0.1820 0.1740 0.1640 0.1560 0.1400
1362.265332 0.1290 0.1131 0.1070 0.1010 0.0960
1366.533973 0.0800 0.0700 0.0640 0.0540 0.0281
1370.802615 0.0210 0.0180 0.0130 0.0120 0.0100
1375.071256 0.0080 0.0060 0.0050 0.0050 0.0050
1379.339898 0.0050 0.0040 0.0020 0.0010 0.0010
1383.608539 0.0020 0.0040 0.0040 0.0050 0.0080
1387.877181 0.0100 0.0100 0.0140 0.0170 0.0200
1392.145822 0.0210 0.0210 0.0220 0.0220 0.0220
1396.414464 0.0220 0.0220 0.0220 0.0220 0.0220
1400.683105 0.0210 0.0210 0.0180 0.0180 0.0170
1404.951747 0.0170 0.0160 0.0160 0.0140 0.0130
1409.220388 0.0120 0.0100 0.0100 0.0090 0.0090
1413.489030 0.0090 0.0080 0.0080 0.0060 0.0060
1417.757671 0.0050 0.0050 0.0040 0.0040 0.0040
1422.026313 0.0040 0.0050 0.0040 0.0040 0.0040
1426.294954 0.0040 0.0040 0.0040 0.0040 0.0040
1430.563596 0.0040 0.0040 0.0040 0.0020 0.0020
1434.832237 0.0020 0.0020 0.0020 0.0020 0.0020
1439.100879 0.0010 0.0010 0.0010 0.0010 0.0010
1443.369520 0.0010 0.0010 0.0010 0.0010 0.0010
1447.638162 0.0000 0.0000 0.0000 0.0000 0.0000
1451.906803 0.0000 0.0000 0.0000 0.0000 0.0000
1456.175444 0.0000 0.0000 0.0000 0.0000 0.0000
1460.444086 0.0000 0.0010 0.0010 0.0040 0.0040
1464.712727 0.0040 0.0060 0.0080 0.0080 0.0100
1468.981369 0.0180 0.0200 0.0220 0.0280 0.0290
1473.250010 0.0300 0.0330 0.0360 0.0370 0.0380
1477.518652 0.0450 0.0480 0.0490 0.0490 0.0560
1481.787293 0.0610 0.0620 0.0650 0.0680 0.0700
1486.055935 0.0760 0.0770 0.0810 0.0840 0.0850
1490.324576 0.0880 0.0910 0.0990 0.1010 0.1040
1494.593218 0.1070 0.1080 0.1090 0.1120 0.1150
1498.861859 0.1170 0.1210 0.1240 0.1250 0.1270
1503.130501 0.1270 0.1290 0.1350 0.1350 0.1410
1507.399142 0.1430 0.1440 0.1450 0.1480 0.1510
1511.667784 0.1520 0.1550 0.1560 0.1570 0.1570
1515.936425 0.1610 0.1630 0.1700 0.1710 0.1740
1520.205067 0.1780 0.1790 0.1820 0.1840 0.1870
1524.473708 0.1900 0.1920 0.1960 0.1990 0.2000
1528.742350 0.2030 0.2040 0.2110 0.2140 0.2160
1533.010991 0.2200 0.2240 0.2300 0.2360 0.2380
1537.279633 0.2420 0.2440 0.2480 0.2510 0.2550
1541.548274 0.2580 0.2620 0.2650 0.2730 0.2740
1545.816915 0.2790 0.2820 0.2860 0.2870 0.2910
1550.085557 0.3030 0.3110 0.3140 0.3180 0.3210
1554.354198 0.3270 0.3290 0.3300 0.3370 0.3400
1558.622840 0.3440 0.3450 0.3450 0.3460 0.3659
1562.891481 0.3840 0.3860 0.3880 0.3960 0.4080
1567.160123 0.4140 0.4230 0.4270 0.4360 0.4440
1571.428764 0.4530 0.4590 0.4650 0.4680 0.4690
1575.697406 0.4869 0.4930 0.5020 0.5110 0.5150
1579.966047 0.5240 0.5300 0.5360 0.5380 0.5390
1584.234689 0.5500 0.5600 0.5640 0.5720 0.5740
1588.503330 0.5800 0.5870 0.5990 0.5990 0.6060
1592.771972 0.6170 0.6170 0.6230 0.6340 0.6350
1597.040613 0.6370 0.6430 0.6490 0.6550 0.6610
1601.309255 0.6680 0.6760 0.6840 0.6890 0.6920
1605.577896 0.6960 0.7000 0.7050 0.7090 0.7100
1609.846538 0.7170 0.7240 0.7399 0.7410 0.7420
1614.115179 0.7480 0.7520 0.7550 0.7590 0.7610
1618.383821 0.7640 0.7670 0.7690 0.7720 0.7770
1622.652462 0.7790 0.7810 0.7850 0.7890 0.7930
1626.921104 0.7950 0.7970 0.8010 0.8040 0.8110
1631.189745 0.8120 0.8170 0.8200 0.8210 0.8240
1635.458386 0.8270 0.8290 0.8310 0.8320 0.8320
1639.727028 0.8390 0.8420 0.8460 0.8500 0.8500
1643.995669 0.8520 0.8540 0.8560 0.8580 0.8580
1648.264311 0.8590 0.8590 0.8620 0.8630 0.8670
1652.532952 0.8680 0.8700 0.8700 0.8710 0.8720
1656.801594 0.8750 0.8800 0.8820 0.8830 0.8840
1661.070235 0.8860 0.8880 0.8900 0.8900 0.8910
1665.338877 0.8920 0.8920 0.8940 0.8960 0.8960
1669.607518 0.8990 0.9000 0.9020 0.9030 0.9040
1673.876160 0.9060 0.9080 0.9100 0.9100 0.9110
1678.144801 0.9120 0.9120 0.9120 0.9140 0.9150
1682.413443 0.9170 0.9170 0.9170 0.9170 0.9170
1686.682084 0.9180 0.9180 0.9190 0.9190 0.9190
1690.950726 0.9190 0.9220 0.9220 0.9230 0.9230
1695.219367 0.9230 0.9250 0.9250 0.9260 0.9260
1699.488009 0.9260 0.9260 0.9260 0.9290 0.9300
1703.756650 0.9310 0.9310 0.9310 0.9310 0.9310
1708.025292 0.9310 0.9310 0.9330 0.9330 0.9310
1712.293933 0.9310 0.9310 0.9310 0.9310 0.9310
1716.562574 0.9310 0.9310 0.9310 0.9310 0.9310
1720.831216 0.9310 0.9310 0.9310 0.9310 0.9310
1725.099857 0.9310 0.9330 0.9330 0.9340 0.9340
1729.368499 0.9340 0.9340 0.9340 0.9340 0.9340
1733.637140 0.9340 0.9340 0.9340 0.9340 0.9340
1737.905782 0.9340 0.9340 0.9340 0.9340 0.9330
1742.174423 0.9330 0.9310 0.9310 0.9310 0.9310
1746.443065 0.9310 0.9310 0.9310 0.9300 0.9290
1750.711706 0.9250 0.9230 0.9220 0.9210 0.9190
1754.980348 0.9180 0.9170 0.9170 0.9150 0.9140
1759.248989 0.9140 0.9140 0.9150 0.9170 0.9170
1763.517631 0.9180 0.9180 0.9180 0.9190 0.9210
1767.786272 0.9210 0.9210 0.9210 0.9220 0.9220
1772.054914 0.9210 0.9210 0.9210 0.9220 0.9220
1776.323555 0.9220 0.9210 0.9210 0.9190 0.9190
1780.592197 0.9180 0.9170 0.9170 0.9170 0.9150
1784.860838 0.9150 0.9150 0.9140 0.9140 0.9140
1789.129480 0.9140 0.9140 0.9120 0.9110 0.9110
1793.398121 0.9110 0.9110 0.9110 0.9100 0.9100
1797.666763 0.9100 0.9100 0.9100 0.9120 0.9120
1801.935404 0.9100 0.9100 0.9100 0.9100 0.9100
1806.204045 0.9100 0.9080 0.9080 0.9080 0.9070
1810.472687 0.9070 0.9060 0.9060 0.9060 0.9040
1814.741328 0.9030 0.9020 0.8990 0.8960 0.8960
1819.009970 0.8940 0.8940 0.8910 0.8760 0.8660
1823.278611 0.8580 0.8510 0.8460 0.8420 0.8360
1827.547253 0.8320 0.8310 0.8270 0.8270 0.8310
1831.815894 0.8390 0.8430 0.8500 0.8510 0.8520
1836.084536 0.8540 0.8550 0.8560 0.8590 0.8600
1840.353177 0.8700 0.8710 0.8790 0.8790 0.8820
1844.621819 0.8840 0.8900 0.8910 0.8920 0.8950
1848.890460 0.8990 0.9030 0.9060 0.9100 0.9120
1853.159102 0.9120 0.9140 0.9150 0.9170 0.9180
1857.427743 0.9210 0.9220 0.9230 0.9250 0.9250
1861.696385 0.9270 0.9290 0.9290 0.9300 0.9310
1865.965026 0.9310 0.9310 0.9330 0.9330 0.9330
1870.233668 0.9330 0.9330 0.9310 0.9310 0.9300
1874.502309 0.9290 0.9270 0.9270 0.9270 0.9290
1878.770951 0.9300 0.9300 0.9310 0.9330 0.9350
1883.039592 0.9380 0.9410 0.9420 0.9430 0.9430
1887.308234 0.9460 0.9470 0.9490 0.9490 0.9510
1891.576875 0.9530 0.9540 0.9540 0.9550 0.9550
1895.845516 0.9570 0.9570 0.9580 0.9570 0.9580
1900.114158 0.9590 0.9610 0.9620 0.9630 0.9630
1904.382799 0.9650 0.9650 0.9660 0.9660 0.9670
1908.651441 0.9670 0.9670 0.9690 0.9670 0.9690
1912.920082 0.9700 0.9700 0.9700 0.9700 0.9690
1917.188724 0.9690 0.9690 0.9690 0.9690 0.9690
1921.457365 0.9710 0.9710 0.9730 0.9730 0.9730
1925.726007 0.9740 0.9740 0.9740 0.9740 0.9740
1929.994648 0.9740 0.9750 0.9750 0.9750 0.9750
1934.263290 0.9770 0.9770 0.9780 0.9780 0.9780
1938.531931 0.9780 0.9790 0.9780 0.9780 0.9790
1942.800573 0.9810 0.9810 0.9810 0.9810 0.9820
1947.069214 0.9820 0.9820 0.9820 0.9820 0.9830
1951.337856 0.9830 0.9820 0.9820 0.9820 0.9820
1955.606497 0.9820 0.9820 0.9820 0.9820 0.9820
1959.875139 0.9820 0.9830 0.9830 0.9830 0.9830
1964.143780 0.9830 0.9830 0.9850 0.9850 0.9850
1968.412422 0.9830 0.9830 0.9830 0.9850 0.9850
1972.681063 0.9850 0.9860 0.9870 0.9870 0.9890
1976.949705 0.9890 0.9890 0.9890 0.9890 0.9890
1981.218346 0.9900 0.9900 0.9900 0.9900 0.9900
1985.486987 0.9900 0.9900 0.9900 0.9900 0.9900
1989.755629 0.9900 0.9900 0.9900 0.9900 0.9910
1994.024270 0.9910 0.9910 0.9910 0.9910 0.9910
1998.292912 0.9910 0.9900 0.9900 0.9900 0.9900
2002.561553 0.9905 0.9910 0.9930 0.9950 0.9980
2006.830195 1.0010 1.0015 1.0020 1.0030 1.0040
2011.098836 1.0050 1.0060 1.0070 1.0080 1.0080
2015.367478 1.0080 1.0080 1.0080 1.0080 1.0080
2019.636119 1.0080 1.0080 1.0080 1.0080 1.0080
2023.904761 1.0080 1.0080 1.0080 1.0080 1.0080
2028.173402 1.0071 1.0060 1.0060 1.0060 1.0060
2032.442044 1.0060 1.0055 1.0050 1.0045 1.0040
2036.710685 1.0031 1.0020 1.0020 1.0020 1.0015
2040.979327 1.0010 1.0010 1.0010 1.0005 1.0000
2045.247968 0.9991 0.9981 0.9966 0.9951 0.9932
2049.516610 0.9912 0.9892 0.9871 0.9833 0.9793
2053.785251 0.9753 0.9713 0.9682 0.9652 0.9618
2058.053893 0.9583 0.9539 0.9494 0.9422 0.9347
2062.322534 0.9268 0.9188 0.9166 0.9152 0.9101
2066.591175 0.9046 0.8977 0.8906 0.8868 0.8833
2070.859817 0.8830 0.8830 0.8843 0.8858 0.8896
2075.128458 0.8936 0.9011 0.9091 0.9118 0.9138
2079.397100 0.9224 0.9319 0.9370 0.9414 0.9472
2083.665741 0.9532 0.9544 0.9549 0.9563 0.9578
2087.934383 0.9593 0.9608 0.9628 0.9647 0.9676
2092.203024 0.9706 0.9736 0.9766 0.9770 0.9770
2096.471666 0.9770 0.9770 0.9774 0.9779 0.9793
2100.740307 0.9808 0.9827 0.9847 0.9854 0.9859
2105.008949 0.9864 0.9869 0.9883 0.9898 0.9900
2109.277590 0.9900 0.9900 0.9900 0.9913 0.9928
2113.546232 0.9934 0.9939 0.9940 0.9940 0.9940
2117.814873 0.9940 0.9940 0.9940 0.9940 0.9940
2122.083515 0.9940 0.9940 0.9940 0.9940 0.9940
2126.352156 0.9940 0.9944 0.9949 0.9946 0.9941
2130.620798 0.9940 0.9940 0.9940 0.9940 0.9940
2134.889439 0.9940 0.9940 0.9940 0.9936 0.9931
2139.158081 0.9930 0.9930 0.9930 0.9930 0.9930
2143.426722 0.9930 0.9930 0.9930 0.9930 0.9930
2147.695364 0.9930 0.9930 0.9930 0.9930 0.9922
2151.964005 0.9912 0.9906 0.9901 0.9900 0.9900
2156.232646 0.9900 0.9900 0.9896 0.9891 0.9882
2160.501288 0.9872 0.9847 0.9817 0.9798 0.9783
2164.769929 0.9776 0.9771 0.9762 0.9752 0.9750
2169.038571 0.9750 0.9735 0.9715 0.9706 0.9701
2173.307212 0.9696 0.9691 0.9682 0.9672 0.9662
2177.575854 0.9652 0.9627 0.9597 0.9571 0.9546
2181.844495 0.9510 0.9470 0.9456 0.9451 0.9443
2186.113137 0.9433 0.9415 0.9395 0.9383 0.9373
2190.381778 0.9288 0.9178 0.9135 0.9115 0.9081
2194.650420 0.9041 0.8990 0.8935 0.8858 0.8773
2198.919061 0.8678 0.8578 0.8226 0.7777 0.7421
2203.187703 0.7102 0.7010 0.7010 0.7170 0.7389
2207.456344 0.7493 0.7553 0.7613 0.7673 0.7772
2211.724986 0.7887 0.8005 0.8125 0.8156 0.8151
2215.993627 0.8143 0.8133 0.8109 0.8079 0.8015
2220.262269 0.7935 0.7764 0.7553 0.7367 0.7192
2224.530910 0.7095 0.7030 0.6916 0.6782 0.6671
2228.799552 0.6571 0.6447 0.6313 0.5885 0.5321
2233.068193 0.5076 0.4981 0.4802 0.4582 0.4343
2237.336835 0.4093 0.3735 0.3321 0.2489 0.1461
2241.605476 0.1083 0.1013 0.0933 0.0848 0.0696
2245.874117 0.0512 0.0397 0.0317 0.0267 0.0232
2250.142759 0.0181 0.0121 0.0093 0.0084 0.0067
2254.411400 0.0047 0.0034 0.0023 0.0017 0.0012
2258.680042 0.0013 0.0018 0.0072 0.0152 0.0486
2262.948683 0.0960 0.1313 0.1597 0.1834 0.2043
2267.217325 0.2196 0.2316 0.2520 0.2775 0.2967
2271.485966 0.3121 0.3243 0.3343 0.3415 0.3470
2275.754608 0.3528 0.3588 0.3632 0.3667 0.3683
2280.023249 0.3688 0.3690 0.3690 0.3460 0.3086
2284.291891 0.2757 0.2458 0.2055 0.1586 0.1319
2288.560532 0.1184 0.1067 0.0961 0.0850 0.0735
2292.829174 0.0654 0.0594 0.0531 0.0466 0.0407
2297.097815 0.0352 0.0330 0.0330 0.0691 0.1299
2301.366457 0.1838 0.2327 0.2533 0.2538 0.2780
2305.635098 0.3194 0.3614 0.4037 0.4334 0.4543
2309.903740 0.4750 0.4955 0.5188 0.5443 0.5677
2314.172381 0.5896 0.6033 0.6108 0.6185 0.6265
2318.441023 0.6342 0.6417 0.6526 0.6660 0.6776
2322.709664 0.6875 0.6934 0.6959 0.6981 0.7001
2326.978306 0.7024 0.7049 0.7068 0.7083 0.7123
2331.246947 0.7183 0.7224 0.7249 0.7268 0.7283
2335.515588 0.7301 0.7321 0.7341 0.7361 0.7381
2339.784230 0.7401 0.7418 0.7433 0.7451 0.7471
2344.052871 0.7483 0.7488 0.7495 0.7505 0.7513
2348.321513 0.7518 0.7528 0.7543 0.7587 0.7656
2352.590154 0.7721 0.7781 0.7838 0.7893 0.7923
2356.858796 0.7928 0.7935 0.7945 0.7953 0.7958
2361.127437 0.7968 0.7983 0.7995 0.8005 0.8015
2365.396079 0.8025 0.8030 0.8030 0.8035 0.8045
2369.664720 0.8055 0.8065 0.8085 0.8115 0.8147
2373.933362 0.8182 0.8202 0.8207 0.8217 0.8232
2378.202003 0.8247 0.8262 0.8275 0.8285 0.8297
2382.470645 0.8312 0.8320 0.8320 0.8318 0.8313
2386.739286 0.8305 0.8295 0.8278 0.8253 0.8196
2391.007928 0.8101 0.8020 0.7954 0.7889 0.7824
2395.276569 0.7738 0.7628 0.7570 0.7570 0.7494
2399.545211 0.7329 0.7157 0.6978 0.6794 0.6604
2403.813852 0.6466 0.6391 0.6319 0.6249 0.6183
2408.082494 0.6124 0.6066 0.6010 0.5960 0.5915
2412.351135 0.5877 0.5847 0.5828 0.5823 0.5822
2416.619776 0.5827 0.5839 0.5859 0.5909 0.5999
2420.888418 0.6131 0.6321 0.6483 0.6608 0.6682
2425.157059 0.6687 0.6707 0.6747 0.6794 0.6849
2429.425701 0.6899 0.6944 0.6993 0.7048 0.7109
2433.694342 0.7179 0.7228 0.7248 0.7283 0.7337
2437.962984 0.7376 0.7391 0.7402 0.7407 0.7440
2442.231625 0.7515 0.7568 0.7588 0.7602 0.7607
2446.500267 0.7622 0.7652 0.7688 0.7733 0.7768
2450.768908 0.7788 0.7818 0.7863 0.7904 0.7938
2455.037550 0.7973 0.8008 0.8038 0.8058 0.8079
2459.306191 0.8104 0.8129 0.8155 0.8182 0.8211
2463.574833 0.8234 0.8244 0.8254 0.8264 0.8274
2467.843474 0.8284 0.8290 0.8290 0.8290 0.8290
2472.112116 0.8290 0.8290 0.8288 0.8283 0.8278
2476.380757 0.8273 0.8270 0.8270 0.8266 0.8256
2480.649399 0.8246 0.8236 0.8226 0.8216 0.8208
2484.918040 0.8203 0.8198 0.8193 0.8192 0.8197
2489.186682 0.8202 0.8207 0.8213 0.8223 0.8240
2493.455323 0.8270 0.8293 0.8303 0.8315 0.8330
2497.723965 0.8342 0.8347 0.8365 0.8410 0.8450
2501.992606 0.8480 0.8506 0.8526 0.8543 0.8553
2506.261247 0.8563 0.8573 0.8586 0.8606 0.8623
2510.529889 0.8633 0.8649 0.8679 0.8716 0.8766
2514.798530 0.8803 0.8813 0.8823 0.8833 0.8843
2519.067172 0.8853 0.8866 0.8886 0.8900 0.8900
2523.335813 0.8906 0.8926 0.8940 0.8940 0.8946
2527.604455 0.8966 0.8981 0.8986 0.8994 0.9009
2531.873096 0.9023 0.9033 0.9049 0.9078 0.9101
2536.141738 0.9106 0.9110 0.9110 0.9111 0.9116
2540.410379 0.9120 0.9120 0.9123 0.9133 0.9141
2544.679021 0.9146 0.9150 0.9150 0.9153 0.9163
2548.947662 0.9170 0.9170 0.9171 0.9176 0.9180
2553.216304 0.9180 0.9181 0.9186 0.9190 0.9190
2557.484945 0.9190 0.9190 0.9190 0.9190 0.9192
2561.753587 0.9202 0.9210 0.9210 0.9211 0.9216
2566.022228 0.9220 0.9220 0.9220 0.9220 0.9220
2570.290870 0.9220 0.9220 0.9220 0.9220 0.9220
2574.559511 0.9220 0.9220 0.9220 0.9220 0.9221
2578.828153 0.9226 0.9230 0.9230 0.9230 0.9230
2583.096794 0.9232 0.9242 0.9251 0.9256 0.9260
2587.365436 0.9260 0.9261 0.9266 0.9270 0.9270
2591.634077 0.9270 0.9270 0.9270 0.9270 0.9270
2595.902718 0.9270 0.9270 0.9270 0.9269 0.9264
2600.171360 0.9257 0.9242 0.9229 0.9224 0.9217
2604.440001 0.9202 0.9186 0.9166 0.9147 0.9132
2608.708643 0.9116 0.9096 0.9069 0.9004 0.8942
2612.977284 0.8898 0.8838 0.8707 0.8578 0.8453
2617.245926 0.8327 0.8197 0.8040 0.7751 0.7454
2621.514567 0.7120 0.6818 0.6683 0.6549 0.6420
2625.783209 0.6291 0.6166 0.6040 0.5905 0.5790
2630.051850 0.5790 0.5839 0.6181 0.6553 0.7082
2634.320492 0.7590 0.7984 0.8324 0.8354 0.8389
2638.589133 0.8449 0.8510 0.8580 0.8655 0.8765
2642.857775 0.8863 0.8888 0.8911 0.8916 0.8921
2647.126416 0.8931 0.8941 0.8951 0.8964 0.8994
2651.395058 0.9023 0.9043 0.9061 0.9071 0.9082
2655.663699 0.9097 0.9111 0.9116 0.9120 0.9120
2659.932341 0.9120 0.9120 0.9120 0.9120 0.9120
2664.200982 0.9120 0.9120 0.9114 0.9110 0.9110
2668.469624 0.9110 0.9110 0.9108 0.9088 0.9068
2672.738265 0.9048 0.9027 0.8992 0.8959 0.8949
2677.006907 0.8939 0.8929 0.8920 0.8915 0.8910
2681.275548 0.8910 0.8910 0.8915 0.8920 0.8920
2685.544189 0.8921 0.8936 0.8950 0.8955 0.8961
2689.812831 0.8971 0.8980 0.8985 0.8990 0.8995
2694.081472 0.9000 0.9000 0.9000 0.9000 0.9000
2698.350114 0.9000 0.9000 0.8995 0.8990 0.8985
2702.618755 0.8979 0.8969 0.8960 0.8955 0.8950
2706.887397 0.8945 0.8940 0.8940 0.8940 0.8930
2711.156038 0.8920 0.8915 0.8909 0.8894 0.8880
2715.424680 0.8870 0.8859 0.8839 0.8820 0.8810
2719.693321 0.8799 0.8779 0.8759 0.8729 0.8700
2723.961963 0.8685 0.8669 0.8634 0.8600 0.8590
2728.230604 0.8580 0.8580 0.8580 0.8565 0.8550
2732.499246 0.8535 0.8520 0.8515 0.8510 0.8510
2736.767887 0.8510 0.8505 0.8500 0.8500 0.8500
2741.036529 0.8500 0.8500 0.8470 0.8440 0.8440
2745.305170 0.8440 0.8440 0.8440 0.8435 0.8430
2749.573812 0.8430 0.8430 0.8430 0.8430 0.8425
2753.842453 0.8420 0.8420 0.8420 0.8410 0.8400
2758.111095 0.8400 0.8400 0.8400 0.8400 0.8400
2762.379736 0.8400 0.8395 0.8390 0.8390 0.8390
2766.648378 0.8385 0.8380 0.8370 0.8360 0.8350
2770.917019 0.8340 0.8325 0.8310 0.8300 0.8290
2775.185660 0.8290 0.8290 0.8280 0.8270 0.8270
2779.454302 0.8270 0.8251 0.8231 0.8202 0.8172
2783.722943 0.8161 0.8151 0.8150 0.8150 0.8131
2787.991585 0.8111 0.8101 0.8091 0.8052 0.8012
2792.260226 0.7987 0.7962 0.7955 0.7950 0.7941
2796.528868 0.7931 0.7925 0.7920 0.7897 0.7872
2800.797509 0.7833 0.7793 0.7762 0.7732 0.7711
2805.066151 0.7691 0.7681 0.7671 0.7661 0.7651
2809.334792 0.7641 0.7631 0.7603 0.7573 0.7552
2813.603434 0.7532 0.7498 0.7463 0.7442 0.7422
2817.872075 0.7402 0.7382 0.7340 0.7294 0.7200
2822.140717 0.7100 0.7072 0.7052 0.7037 0.7022
2826.409358 0.7011 0.7001 0.6956 0.6906 0.6860
2830.678000 0.6815 0.6775 0.6735 0.6695 0.6655
2834.946641 0.6633 0.6613 0.6575 0.6535 0.6504
2839.215283 0.6474 0.6413 0.6348 0.6327 0.6312
2843.483924 0.6301 0.6291 0.6273 0.6253 0.6233
2847.752566 0.6213 0.6197 0.6182 0.6159 0.6134
2852.021207 0.6113 0.6093 0.6073 0.6053 0.6041
2856.289848 0.6031 0.6026 0.6021 0.6007 0.5992
2860.558490 0.5952 0.5907 0.5858 0.5808 0.5783
2864.827131 0.5763 0.5743 0.5723 0.5703 0.5683
2869.095773 0.5676 0.5671 0.5608 0.5532 0.5512
2873.364414 0.5502 0.5475 0.5445 0.5419 0.5394
2877.633056 0.5378 0.5363 0.5344 0.5324 0.5300
2881.901697 0.5275 0.5266 0.5261 0.5244 0.5224
2886.170339 0.5180 0.5130 0.5084 0.5038 0.4985
2890.438980 0.4930 0.4908 0.4893 0.4854 0.4809
2894.707622 0.4788 0.4773 0.4750 0.4725 0.4692
2898.976263 0.4657 0.4611 0.4561 0.4511 0.4461
2903.244905 0.4427 0.4397 0.4366 0.4336 0.4306
2907.513546 0.4276 0.4246 0.4216 0.4175 0.4130
2911.782188 0.4073 0.4013 0.3973 0.3938 0.3915
2916.050829 0.3895 0.3863 0.3828 0.3782 0.3732
2920.319471 0.3648 0.3553 0.3443 0.3327 0.3273
2924.588112 0.3238 0.3169 0.3089 0.3024 0.2965
2928.856754 0.2882 0.2792 0.2680 0.2560 0.2339
2933.125395 0.2085 0.1964 0.1889 0.1785 0.1670
2937.394037 0.1555 0.1441 0.1333 0.1227 0.1159
2941.662678 0.1104 0.1046 0.0986 0.0893 0.0788
2945.931319 0.0760 0.0760 0.0880 0.1045 0.1191
2950.199961 0.1331 0.1467 0.1602 0.1737 0.1871
2954.468602 0.1924 0.1944 0.1964 0.1984 0.2008
2958.737244 0.2033 0.2069 0.2109 0.2145 0.2180
2963.005885 0.2208 0.2233 0.2247 0.2257 0.2274
2967.274527 0.2294 0.2303 0.2308 0.2313 0.2318
2971.543168 0.2317 0.2312 0.2300 0.2285 0.2280
2975.811810 0.2280 0.2266 0.2246 0.2205 0.2156
2980.080451 0.2092 0.2022 0.1966 0.1916 0.1873
2984.349093 0.1833 0.1800 0.1770 0.1706 0.1626
2988.617734 0.1547 0.1467 0.1400 0.1339 0.1279
2992.886376 0.1219 0.1163 0.1108 0.1060 0.1015
2997.155017 0.0987 0.0967 0.0947 0.0927 0.0894
3001.423659 0.0854 0.0814 0.0774 0.0747 0.0727
3005.692300 0.0710 0.0695 0.0700 0.0715 0.0733
3009.960942 0.0753 0.0776 0.0801 0.0894 0.1024
3014.229583 0.1099 0.1144 0.1189 0.1234 0.1298
3018.498225 0.1372 0.1463 0.1563 0.1656 0.1746
3022.766866 0.1805 0.1845 0.1866 0.1876 0.1899
3027.035508 0.1929 0.1956 0.1981 0.2040 0.2120
3031.304149 0.2175 0.2215 0.2264 0.2319 0.2364
3035.572790 0.2404 0.2444 0.2484 0.2515 0.2540
3039.841432 0.2568 0.2598 0.2634 0.2674 0.2714
3044.110073 0.2754 0.2782 0.2802 0.2816 0.2826
3048.378715 0.2842 0.2862 0.2900 0.2950 0.2994
3052.647356 0.3033 0.3068 0.3097 0.3119 0.3134
3056.915998 0.3143 0.3148 0.3159 0.3174 0.3203
3061.184639 0.3243 0.3289 0.3339 0.3366 0.3376
3065.453281 0.3386 0.3396 0.3414 0.3439 0.3453
3069.721922 0.3458 0.3480 0.3515 0.3533 0.3538
3073.990564 0.3546 0.3556 0.3574 0.3599 0.3610
3078.259205 0.3610 0.3618 0.3633 0.3654 0.3679
3082.527847 0.3720 0.3775 0.3816 0.3846 0.3860
3086.796488 0.3860 0.3865 0.3875 0.3883 0.3888
3091.065130 0.3909 0.3944 0.3960 0.3960 0.3963
3095.333771 0.3968 0.3973 0.3978 0.3999 0.4034
3099.602413 0.4071 0.4111 0.4140 0.4160 0.4178
3103.871054 0.4193 0.4203 0.4208 0.4218 0.4233
3108.139696 0.4240 0.4240 0.4243 0.4248 0.4266
3112.408337 0.4295 0.4320 0.4340 0.4353 0.4358
3116.676979 0.4373 0.4398 0.4420 0.4440 0.4465
3120.945620 0.4495 0.4525 0.4555 0.4590 0.4629
3125.214261 0.4660 0.4680 0.4700 0.4720 0.4737
3129.482903 0.4752 0.4770 0.4790 0.4817 0.4852
3133.751544 0.4872 0.4877 0.4880 0.4880 0.4897
3138.020186 0.4932 0.4952 0.4957 0.4967 0.4982
3142.288827 0.4992 0.4997 0.5005 0.5015 0.5020
3146.557469 0.5020 0.5015 0.5005 0.4998 0.4993
3150.826110 0.4983 0.4968 0.4939 0.4895 0.4798
3155.094752 0.4638 0.4422 0.4138 0.3847 0.3547
3159.363393 0.3250 0.2956 0.2658 0.2356 0.2050
3163.632035 0.1741 0.1570 0.1570 0.1627 0.1757
3167.900676 0.1891 0.2031 0.2205 0.2425 0.2705
3172.169318 0.3064 0.3491 0.4010 0.4371 0.4516
3176.437959 0.4650 0.4770 0.4871 0.4947 0.5048
3180.706601 0.5182 0.5279 0.5324 0.5367 0.5407
3184.975242 0.5438 0.5458 0.5480 0.5505 0.5532
3189.243884 0.5562 0.5588 0.5608 0.5622 0.5627
3193.512525 0.5628 0.5623 0.5614 0.5599 0.5558
3197.781167 0.5478 0.5376 0.5241 0.5114 0.5000
3202.049808 0.4920 0.4895 0.4880 0.4880 0.4915
3206.318449 0.5004 0.5090 0.5170 0.5244 0.5309
3210.587091 0.5417 0.5596 0.5780 0.5972 0.6115
3214.855732 0.6180 0.6248 0.6323 0.6381 0.6411
3219.124374 0.6448 0.6498 0.6567 0.6666 0.6752
3223.393015 0.6812 0.6852 0.6857 0.6867 0.6887
3227.661657 0.6905 0.6920 0.6939 0.6964 0.6994
3231.930298 0.7034 0.7065 0.7080 0.7095 0.7110
3236.198940 0.7122 0.7127 0.7139 0.7164 0.7190
3240.467581 0.7220 0.7253 0.7293 0.7330 0.7360
3244.736223 0.7383 0.7393 0.7403 0.7413 0.7425
3249.004864 0.7440 0.7455 0.7470 0.7488 0.7513
3253.273506 0.7536 0.7556 0.7570 0.7570 0.7573
3257.542147 0.7583 0.7592 0.7597 0.7608 0.7633
3261.810789 0.7655 0.7670 0.7685 0.7700 0.7713
3266.079430 0.7723 0.7733 0.7743 0.7753 0.7763
3270.348072 0.7770 0.7770 0.7773 0.7783 0.7793
3274.616713 0.7803 0.7810 0.7810 0.7813 0.7823
3278.885355 0.7831 0.7836 0.7841 0.7846 0.7859
3283.153996 0.7889 0.7911 0.7916 0.7921 0.7926
3287.422638 0.7930 0.7930 0.7930 0.7930 0.7933
3291.691279 0.7943 0.7951 0.7956 0.7965 0.7985
3295.959920 0.8001 0.8006 0.8013 0.8023 0.8031
3300.228562 0.8036 0.8047 0.8072 0.8093 0.8103
3304.497203 0.8111 0.8116 0.8121 0.8126 0.8130
3308.765845 0.8130 0.8132 0.8142 0.8150 0.8150
3313.034486 0.8151 0.8156 0.8160 0.8160 0.8160
3317.303128 0.8160 0.8160 0.8160 0.8159 0.8154
3321.571769 0.8148 0.8138 0.8129 0.8124 0.8119
3325.840411 0.8114 0.8103 0.8073 0.8049 0.8044
3330.109052 0.8040 0.8040 0.8041 0.8046 0.8057
3334.377694 0.8087 0.8112 0.8122 0.8134 0.8154
3338.646335 0.8174 0.8194 0.8213 0.8228 0.8247
3342.914977 0.8282 0.8311 0.8316 0.8320 0.8320
3347.183618 0.8322 0.8332 0.8340 0.8340 0.8341
3351.452260 0.8346 0.8353 0.8368 0.8381 0.8386
3355.720901 0.8390 0.8390 0.8391 0.8396 0.8400
3359.989543 0.8400 0.8400 0.8400 0.8403 0.8423
3364.258184 0.8442 0.8452 0.8462 0.8472 0.8480
3368.526826 0.8480 0.8482 0.8492 0.8500 0.8500
3372.795467 0.8498 0.8488 0.8480 0.8480 0.8480
3377.064109 0.8480 0.8479 0.8474 0.8469 0.8464
3381.332750 0.8459 0.8449 0.8440 0.8440 0.8439
3385.601391 0.8434 0.8430 0.8430 0.8430 0.8430
3389.870033 0.8431 0.8436 0.8442 0.8457 0.8471
3394.138674 0.8476 0.8481 0.8491 0.8500 0.8500
3398.407316 0.8501 0.8506 0.8511 0.8516 0.8521
3402.675957 0.8531 0.8541 0.8551 0.8561 0.8571
3406.944599 0.8581 0.8586 0.8590 0.8590 0.8591
3411.213240 0.8596 0.8601 0.8611 0.8620 0.8620
3415.481882 0.8620 0.8625 0.8630 0.8630 0.8631
3419.750523 0.8636 0.8641 0.8651 0.8661 0.8665
3424.019165 0.8671 0.8686 0.8700 0.8700 0.8700
3428.287806 0.8705 0.8710 0.8715 0.8721 0.8731
3432.556448 0.8740 0.8745 0.8750 0.8750 0.8750
3436.825089 0.8755 0.8760 0.8760 0.8760 0.8760
3441.093731 0.8761 0.8771 0.8780 0.8785 0.8790
3445.362372 0.8790 0.8790 0.8790 0.8790 0.8795
3449.631014 0.8801 0.8811 0.8820 0.8825 0.8830
3453.899655 0.8835 0.8840 0.8840 0.8840 0.8840
3458.168297 0.8840 0.8840 0.8840 0.8840 0.8840
3462.436938 0.8840 0.8840 0.8840 0.8840 0.8840
3466.705580 0.8840 0.8840 0.8840 0.8850 0.8860
3470.974221 0.8865 0.8870 0.8875 0.8880 0.8890
3475.242862 0.8900 0.8900 0.8900 0.8900 0.8900
3479.511504 0.8890 0.8880 0.8890 0.8900 0.8900
3483.780145 0.8900 0.8900 0.8900 0.8890 0.8880
3488.048787 0.8880 0.8880 0.8890 0.8900 0.8900
3492.317428 0.8900 0.8900 0.8900 0.8900 0.8900
3496.586070 0.8900 0.8900 0.8900 0.8900 0.8905
3500.854711 0.8910 0.8910 0.8910 0.8905 0.8900
3505.123353 0.8905 0.8910 0.8905 0.8900 0.8900
3509.391994 0.8900 0.8900 0.8900 0.8890 0.8880
3513.660636 0.8880 0.8880 0.8880 0.8880 0.8880
3517.929277 0.8880 0.8880 0.8880 0.8875 0.8870
3522.197919 0.8870 0.8870 0.8875 0.8880 0.8890
3526.466560 0.8900 0.8900 0.8900 0.8900 0.8900
3530.735202 0.8891 0.8881 0.8889 0.8899 0.8900
3535.003843 0.8900 0.8900 0.8900 0.8900 0.8900
3539.272485 0.8900 0.8900 0.8891 0.8881 0.8880
3543.541126 0.8880 0.8880 0.8880 0.8880 0.8880
3547.809768 0.8889 0.8899 0.8900 0.8900 0.8900
3552.078409 0.8900 0.8900 0.8900 0.8900 0.8900
3556.347050 0.8891 0.8881 0.8880 0.8880 0.8880
3560.615692 0.8880 0.8889 0.8899 0.8905 0.8910
3564.884333 0.8910 0.8910 0.8915 0.8919 0.8920
3569.152975 0.8920 0.8929 0.8939 0.8940 0.8940
3573.421616 0.8940 0.8940 0.8940 0.8940 0.8944
3577.690258 0.8949 0.8954 0.8959 0.8960 0.8960
3581.958899 0.8960 0.8960 0.8960 0.8960 0.8960
3586.227541 0.8960 0.8969 0.8979 0.8980 0.8980
3590.496182 0.8984 0.8989 0.8990 0.8990 0.8986
3594.764824 0.8981 0.8980 0.8980 0.8980 0.8980
3599.033465 0.8980 0.8980 0.8980 0.8980 0.8972
3603.302107 0.8962 0.8956 0.8951 0.8946 0.8941
3607.570748 0.8940 0.8940 0.8927 0.8912 0.8880
3611.839390 0.8845 0.8781 0.8711 0.8671 0.8636
3616.108031 0.8592 0.8547 0.8528 0.8513 0.8498
3620.376673 0.8483 0.8472 0.8462 0.8452 0.8442
3624.645314 0.8440 0.8440 0.8469 0.8504 0.8531
3628.913956 0.8556 0.8568 0.8578 0.8605 0.8634
3633.182597 0.8664 0.8694 0.8708 0.8718 0.8732
3637.451239 0.8747 0.8750 0.8750 0.8762 0.8777
3641.719880 0.8780 0.8780 0.8768 0.8753 0.8750
3645.988521 0.8750 0.8734 0.8714 0.8694 0.8674
3650.257163 0.8638 0.8598 0.8562 0.8528 0.8512
3654.525804 0.8502 0.8488 0.8473 0.8466 0.8461
3658.794446 0.8452 0.8442 0.8440 0.8440 0.8456
3663.063087 0.8476 0.8496 0.8515 0.8535 0.8555
3667.331729 0.8572 0.8586 0.8605 0.8625 0.8649
3671.600370 0.8674 0.8706 0.8741 0.8765 0.8785
3675.869012 0.8801 0.8816 0.8828 0.8838 0.8848
3680.137653 0.8858 0.8860 0.8860 0.8864 0.8869
3684.406295 0.8881 0.8896 0.8900 0.8900 0.8900
3688.674936 0.8900 0.8904 0.8909 0.8914 0.8919
3692.943578 0.8920 0.8920 0.8920 0.8920 0.8920
3697.212219 0.8920 0.8920 0.8920 0.8920 0.8920
3701.480861 0.8920 0.8920 0.8927 0.8937 0.8944
3705.749502 0.8949 0.8950 0.8950 0.8954 0.8959
3710.018144 0.8967 0.8977 0.8987 0.8997 0.9007
3714.286785 0.9017 0.9020 0.9020 0.9020 0.9020
3718.555427 0.9020 0.9020 0.9020 0.9020 0.9023
3722.824068 0.9028 0.9030 0.9030 0.9030 0.9030
3727.092710 0.9030 0.9030 0.9030 0.9030 0.9033
3731.361351 0.9038 0.9047 0.9057 0.9060 0.9060
3735.629992 0.9060 0.9060 0.9067 0.9077 0.9080
3739.898634 0.9080 0.9080 0.9080 0.9080 0.9080
3744.167275 0.9080 0.9080 0.9080 0.9080 0.9077
3748.435917 0.9072 0.9067 0.9062 0.9060 0.9060
3752.704558 0.9063 0.9068 0.9070 0.9070 0.9070
3756.973200 0.9070 0.9073 0.9078 0.9077 0.9072
3761.241841 0.9070 0.9070 0.9070 0.9070 0.9067
3765.510483 0.9062 0.9054 0.9044 0.9040 0.9040
3769.779124 0.9040 0.9040 0.9040 0.9040 0.9037
3774.047766 0.9032 0.9030 0.9030 0.9030 0.9030
3778.316407 0.9030 0.9030 0.9030 0.9030 0.9030
3782.585049 0.9030 0.9030 0.9030 0.9030 0.9030
3786.853690 0.9030 0.9030 0.9030 0.9030 0.9030
3791.122332 0.9030 0.9030 0.9030 0.9030 0.9030
3795.390973 0.9027 0.9022 0.9020 0.9020
##END=
