##TITLE=Acetonitrile
##JCAMP-DX=4.24
##DATA TYPE=INFRARED SPECTRUM
##CLASS=IUPAC A
##ORIGIN=NIST, Anayltical Chemistry Division, 301-975-3108
##OWNER=COPYRIGHT (C) 1998 by the U.S. Secretary of Commerce
##DATE=98/10/1
##$SPECTRA VERSION=1.00
##$UNCERTAINTY IN Y=2.0 % relative (B=1.0E-04,C=3.1E-10,D=2.7E-14)
##CAS NAME=Nitrile-Acetic Acid
##CAS REGISTRY NO=75-05-8
##MOLFORM=C H3 C N
##MP=-45.72 C
##BP=81.6 C
##$NIST SOURCE=QUANT-IR
##SPECTROMETER/DATA SYSTEM=IFS66V (Bruker)
##INSTRUMENT PARAMETERS=KBr Beam splitter; MCT Detector; Multipass cell
##STATE=gas
##SAMPLE DESCRIPTION=Acetonitrile Primary Gas Standard
##PRESSURE=101.3 kPa
##TEMPERATURE=23 C
##SAMPLING PROCEDURE=1 L/min Flow
##RESOLUTION=0.9640
##DATA PROCESSING=3-Term B-H Apodization
##XUNITS=cm-1
##YUNITS=(micromol/mol)-1m-1 (base 10)
##XFACTOR=1.0
##YFACTOR=5.6843E-14
##DELTAX=0.4820
##FIRSTX=575.169
##LASTX=3975.077
##FIRSTY=-1.97E-07
##MAXX=3974.59
##MINX=575.17
##MAXY=.000117
##MINY=-5.98E-07
##NPOINTS=7053
##XYDATA=(X++(Y..Y))
575.17-3472040-4483600-3840840-4761944-4641424-4114042
577.58-5057018-3333178-2956494-5653032-3173004 2143230
580.47 4177822 2220776-890306-2304458-4642370-8882254
583.37-10534500-7008800-2737238-4209094-7222544-5822144
586.26-2650318 79784-5238-1991770-2270344-1812320
589.15-2983352-6184834-8244618-7030250-5976892-5854696
592.04-3430126-1145630-2076384-2933704-2662748-3257112
594.94-3486222-3077016-4481548-6745570-5878402-3396504
597.83-2111958-1984774-3023664-4385714-4176822-3042614
600.72-1849042-632190-276316-1377326-3538594-4284138
603.61-3961502-4244400-5433698-6255044-4572168-2254128
606.51-2424038-2318534 322858 1879706 803800-1528768
609.40-3710748-4672300-4497298-3573818-2119704-946298
612.29-2308044-4233006-4027000-3536642-3614250-4041902
615.18-4532554-3694576-1520460 284770 159020-825154
618.08-1477416-1051396-303338-1149828-2503754-3387546
620.97-3997778-4691652-4420312-2911200-2271794-1534632
623.86-350642-361698-1962942-2916064-1775142-378286
626.76-151478-185994-584116-2107484-3204690-2596100
629.65-948570-485368-1171196-1216748-1285518-1565398
632.54-1470916-801624-314448-1254156-2071366-2113832
635.43-2336960-2091606-2955998-3637518-1600592 904496
638.33 1412034-68938-1061024-923542-942130-773414
641.22-1227034-1412560-18412 1135292-139624-1819476
644.11-1328874-517216-144518 595960 610384 36748
647.00 393252 1440090 1667032 1130172 195168-319920
649.90 110580-342190-1024080-791074-157230 1384826
652.79 2244138 1788266 1411820 1240702 652322-185892
655.68-503338-360474 79066 461612 169124-296248
658.58-200866 625330 1052964 717464 48424-377062
661.47 266538 1331024 1640954 1349110 1198930 1811412
664.36 3048992 3203022 2352200 2584144 3959478 5215120
667.25 5648466 4810232 2583322 2078016 4405294 5284936
670.15 4115784 3576412 3691840 3685616 3975452 4259328
673.04 4612298 4990624 4290930 4006632 5546214 6880632
675.93 6502478 5553050 5064816 5342350 6695544 8587204
678.82 9067310 7973060 8331648 10518730 11933560 12110060
681.72 12717840 13230440 13402790 15182010 17825910 20518670
684.61 22479780 23772050 25678350 27929040 29908280 32064830
687.50 34185630 36869260 39751220 41894740 45694240 50784090
690.40 54449010 57286820 60874680 65037410 69329800 74302360
693.29 78425550 81887820 85988300 89748610 93437880 98003510
696.18 102086200 104777300 107388100 110440900 112767000 114989900
699.07 117864100 120941400 123980300 126191100 125965000 124616200
701.97 124403600 124965200 123647000 120346300 117959700 116316200
704.86 113538000 111237200 109128500 105000700 99213670 93744190
707.75 90443060 90500510 90823490 85220880 75826050 68308970
710.64 61186970 57868250 68454250 88763020 90684600 68213060
713.54 47411720 37920990 35480210 40797480 69519520 118904700
716.43 130616800 94868720 66457060 58203190 57900880 61179220
719.32 66098900 71178200 75988680 79750820 82448210 85803540
722.22 89937390 93386520 95789720 97704810 99461740 100725700
725.11 101988300 102797400 102446500 101777900 101797700 101801200
728.00 100631800 98488210 96597540 95183890 93785240 91711740
730.89 89010180 86352040 83822770 81163580 78728180 76142890
733.79 72873160 69572660 67042010 64745460 62623360 60066680
736.68 56519970 52948200 49647860 46802180 44736540 42808140
739.57 40827920 39338030 37767060 35774760 33451820 30644090
742.46 27981080 26087150 24491840 22702980 21212860 19596290
745.36 17574300 16184880 15604680 14548460 12538850 10924540
748.25 10307970 9675840 8974678 8480962 8199668 7654018
751.14 6638808 5843028 5256050 4411258 3481790 2476194
754.04 2354912 2519248 2192382 2007032 1694770 1113892
756.93 584364 407944 96602-388600-294058-342242
759.82-495494-256250-247050-452562-305228-89372
762.71-198028-1012196-2148416-2858588-2645898-2002886
765.61-1490046-857422-612484-1135192-1557716-2027694
768.50-2719010-2477102-1050562 142070-564674-2135670
771.39-2439378-1931828-1941546-2054338-1895860-1934176
774.28-1914934-1974700-1913994-1456812-978310-1051486
777.18-1800508-2409178-2542792-2507334-2027448-1908498
780.07-2311398-2206160-1548674-1140100-1666570-2467978
782.96-2303268-1810554-1975872-2260480-1564588-669668
785.86-774718-1147242-1526852-2458992-2914974-2620578
788.75-2961428-3180894-2244080-1636812-2112260-2504930
791.64-2385160-2695474-3305282-3305858-2459160-1494258
794.53-1196902-1318138-1443056-1650158-2192148-2662278
797.43-2878890-3288578-3635654-3384032-2349852-1457826
800.32-1572818-2369754-2670908-2302690-2299266-2505156
803.21-2671378-3039540-2628832-2105298-2625598-3245094
806.10-2940430-2434462-2656252-3269776-3855244-3353020
809.00-1941692-1964312-2935082-2730212-2079370-1982970
811.89-2013510-2778910-3334492-2471822-2021298-2353064
814.78-2644562-2953260-2918586-2824922-2730582-1961232
817.68-1212264-1666880-2513506-2974170-2825592-2384002
820.57-2303516-2448294-1841386-1068412-1800858-2536130
823.46-2058778-1573238-1575382-2088998-2441460-2159428
826.35-2034552-2057928-1780198-1730182-1697856-1375444
829.25-1682700-2755274-3033730-2420882-2155314-2646946
832.14-3574806-3462274-2048364-1101108-1414088-2432900
835.03-3034292-2398808-1498122-1735280-2408024-2252172
837.92-2700010-3416016-2874266-2251624-2273406-2528578
840.82-2290454-1605932-1493312-1567882-944766-682246
843.71-1339572-1894400-2100738-2562190-3137928-2920820
846.60-2205668-2224878-2690528-2959862-2910336-2162158
849.50-1230268-1078632-1322278-1536264-1800538-1663090
852.39-1513846-1899574-2313342-2767156-3066646-1939288
855.28-738362-1452586-2462792-2590556-2556724-2385244
858.17-2385584-2209824-1877710-2418644-2753802-1894666
861.07-1229000-1754760-2105638-1820942-1482546-1149114
863.96-1422098-2060116-1982898-1667864-1647078-1704398
866.85-1380268-813552-1130622-1792458-1762946-1703718
869.74-1807378-1733294-1507028-1059770-814768-1092828
872.64-1010014-536946-307620-282780-395692-231456
875.53 268594 616494 1268422 1942568 1995516 1953052
878.42 2120740 2165676 2232534 2756704 3392276 3978742
881.31 4501054 4657450 5000558 5786712 6529350 7194472
884.21 7884964 8640592 9474650 10509110 11574090 12692400
887.10 13936760 15104510 16430540 17695020 18952280 20395940
889.99 21550960 23202640 25541700 27405050 28755240 30225230
892.89 32043310 34295710 36277920 37564940 39234190 41486630
895.78 43879090 46261240 48729740 51578760 54719950 57419740
898.67 59309040 61244950 63981200 66797210 69399270 71775410
901.56 73805680 76046980 78790220 80969340 82251520 83857140
904.46 85521920 86916220 88275710 89315190 89884630 90144840
907.35 90500920 90872940 91095060 90878280 90139580 89402780
910.24 89020340 88071990 85128330 81087920 77886740 75159620
913.13 71595180 67208380 63158820 59316190 55267710 51063360
916.03 46660220 42889480 40543360 40754840 47367570 68522380
918.92 104884300 119618900 81994990 36047040 19585400 18274160
921.81 20368870 24742520 31760050 42893970 56934450 62540760
924.71 54276130 46713980 47828740 52006110 56474720 61620580
927.60 67014830 71393980 73704190 73714850 73807640 75393260
930.49 77241580 78667720 79716030 80072790 79863060 79115220
933.38 78031020 76919270 75625680 73799050 71751120 69739070
936.28 67621310 65212740 62527010 59712310 56928580 54301340
939.17 51843160 49258360 46288120 43090200 39915200 36933640
942.06 34485560 32176260 29597010 27059160 24778580 22392080
944.95 19945560 17721190 15830060 14452280 13443350 11921240
947.85 10174880 9004852 8180648 7399936 6390586 4871414
950.74 3622458 3148086 2990896 2546452 1870964 1522710
953.63 1552380 1272362 629624 249550 112126 83174
956.53 29370-387326-837348-821606-239594-272
959.42-139698 123718 454918 45308-422740-485510
962.31-356328-40114 18006-340 616366 1351438
965.20 1715974 1567778 1271278 1370890 1611028 1784354
968.10 1987380 2063004 2299896 2793854 3084580 2694628
970.99 1929918 1917942 2729928 3172360 3417580 3900016
973.88 4057292 4267592 5004012 5044672 4641560 4809926
976.77 5436500 6092640 6928962 7653456 8154468 10008640
979.67 11796610 10387620 9086390 9440830 9412932 9460120
982.56 10290070 10523510 10748150 12909410 15109180 14740870
985.45 14057500 13839850 13270660 13604970 15435610 16560370
988.35 16456500 18635870 21463690 19070850 17318010 21287580
991.24 23288870 21737460 22297290 22039500 21600440 30460770
994.13 46101320 44429980 28266450 21564190 22523610 24153170
997.02 26198200 26889840 25903000 28909210 42662550 53157250
999.92 43521400 30543740 28607630 34734130 41191540 40092970
1002.81 34746140 34027680 47163150 67962700 66161340 48336040
1005.70 42671620 42954330 39270270 35659870 34818400 35587740
1008.59 48022900 97424900 141820000 113070800 69546590 54957960
1011.49 47699170 44811920 44604880 46636220 52311100 65309500
1014.38 98177440 115817000 85482300 56706380 50840200 51249540
1017.27 54784880 65695820 79093420 77109220 79435980 120283000
1020.17 141121400 100629900 64929880 58339810 63831020 70629060
1023.06 69239580 63171400 61022240 101023800 226506400 292958600
1025.95 193229400 100192100 78975170 68919380 61978300 59641120
1028.84 58352480 58966560 76660620 143925500 204883600 169196900
1031.74 99462740 68003500 64274700 68868220 71069150 72512220
1034.63 72441340 79665330 139137200 218015900 191016100 113188600
1037.52 100204100 106280200 85214460 65179960 63061800 67647530
1040.41 80688820 156333400 334546000 396731500 229417200 92822860
1043.31 72808570 81117610 80692580 74773370 75309450 75968400
1046.20 89423370 159029100 230999900 188313900 101158200 69587900
1049.09 70162990 81959110 89595500 81803770 74157550 79343510
1051.99 110290900 180330400 210203200 145728300 81836900 67559470
1054.88 73139790 89463560 106461500 98764130 84708460 102273100
1057.77 170085400 279152800 285997000 164064500 83158040 68035690
1060.66 67145820 73605470 83328440 83329470 80269580 87555780
1063.56 113254700 153465600 144961900 92977790 66093250 61295640
1066.45 61315990 68377800 77334700 75489470 68416900 69742180
1069.34 98035470 132959800 115065300 74222780 61859520 62445560
1072.23 61793030 59117090 56088460 55803750 60987920 88421800
1075.13 139842700 146532700 102093100 69404630 56220440 54040540
1078.02 58716740 59250070 54382190 51442170 51203650 51836860
1080.91 54309300 58638970 65734310 75005140 68481150 50005850
1083.81 40561730 38052690 36575860 36017540 36550370 37861480
1086.70 41257260 47522090 58002960 62531910 49833840 36499690
1089.59 32482500 30929970 29105150 27695470 27469910 28407510
1092.48 31999430 39405440 52374940 61985950 49879500 30381980
1095.38 23172570 21920600 20736180 19601700 18839370 18298850
1098.27 18385580 19565430 22609630 27291620 28459800 23849360
1101.16 19977380 18763020 17836430 16687520 16014520 16438810
1104.05 17469630 17676470 17553880 18429880 19349310 17802630
1106.95 15003460 13039270 12084340 11958040 11777440 11042560
1109.84 10226910 9932898 10354350 11340480 13426990 14818570
1112.73 12281020 8575962 7285580 7025822 7015298 6967430
1115.63 6194692 5376562 5459364 5965926 6350070 6415342
1118.52 5771118 4855744 4332962 4508732 5077080 4900488
1121.41 4198206 3702558 3512906 3670838 3897716 3944794
1124.30 4163322 3867528 2778396 1962580 1950584 2074388
1127.20 1859812 1862940 2083046 2050386 2121252 2280606
1130.09 2346268 2186816 1674524 1079788 766700 520944
1132.98 310190 406406 571026 661762 867520 960198
1135.87 826038 645196 631784 565844 129764-176196
1138.77 69158 140138 230046 502974 517432 488448
1141.66 373574 60266 72734 418918 626226 215730
1144.55-143476-98118-108312-147318-197068-234234
1147.45-221844-108162 317766 571768 225104-253878
1150.34-340116-197200-191470-559118-770422-478398
1153.23-182620-420034-522378-318026-554940-795948
1156.12-724370-664664-463992-363758-569746-756462
1159.02-829812-854802-824978-765888-590066-380760
1161.91-404424-805188-1122240-1189868-992070-428138
1164.80-201274-550126-813966-875792-719980-354014
1167.69-269776-515256-599048-512874-610674-770482
1170.59-743362-684764-532572-482864-713840-929834
1173.48-926384-699364-484666-617108-902068-1081128
1176.37-861900-527742-675460-927762-980632-1127008
1179.26-1020394-790618-970462-1240510-1035234-698818
1182.16-967434-1335486-1262758-1060954-963020-915264
1185.05-860954-962922-900144-715744-755216-1007750
1187.94-1085050-702198-517910-588494-569908-767320
1190.84-1030306-1023980-770850-420130-231212-310742
1193.73-127368 298622 341570 26504-350904-608008
1196.62-676702-577174-365684-282570-472110-661516
1199.51-533438-269608-72928-87370-246194-385438
1202.41-296150-209124-303876-277394-168300-109418
1205.30-41388-108276-315244-395580-354312-346606
1208.19-117572 236086 470166 357192 102856-57740
1211.08-242854-251400 35454 192884 47540-7564
1213.98 323538 1028838 1558764 1443156 1172012 850972
1216.87 261372-234912-111724 560048 961800 888108
1219.76 931270 966268 639926 194304-156334-365302
1222.66-412776-477416-368886 57948 317712 380268
1225.55 328000 91014 158966 682710 956940 691182
1228.44 411280 104874-62248 91230 58798-157310
1231.33 213524 627462 457826 230940 91102 159424
1234.23 681670 946426 469998 33128 338410 984490
1237.12 1236910 1465014 2613512 4129524 4805836 4132648
1240.01 2766536 2078450 1882504 1477696 1182662 1121294
1242.90 1201188 1456508 1566554 1212656 914434 1004276
1245.80 1096774 1128978 1134224 1093136 928014 731806
1248.69 743186 953214 1466052 1749840 1410572 1249250
1251.58 1623070 2006278 3700332 6720676 6733166 4459142
1254.48 3488990 2858820 2385160 2459060 2521780 2837526
1257.37 3745156 4665606 4821990 3881794 2658832 2196596
1260.26 2212520 2187176 3380272 6332068 8084224 7140166
1263.15 5535350 4462906 3853932 3657872 3937124 4419066
1266.05 4967790 6792384 10175860 10743090 8352916 7179692
1268.94 7319896 7611706 7611132 7429004 7543016 8123720
1271.83 8664712 8951660 9168442 9087210 8702298 8373266
1274.72 8128822 7966944 8143658 8801132 9662808 10285170
1277.62 10377410 10298900 10533510 10809630 10851050 11482740
1280.51 16623960 27106050 30635450 23954830 18596010 16639550
1283.40 15206930 15133190 20414940 31747330 37448790 31964880
1286.30 25308100 21897540 19694840 17430250 14359180 11311630
1289.19 9391016 8788120 8834794 8413248 8130478 8615172
1292.08 9559960 10476560 11342180 12256990 16280010 33765640
1294.97 56335760 51002930 29417660 21815250 21097900 18245080
1297.87 16447760 16477260 16674660 16730750 17245750 17840520
1300.76 18120210 18914520 19789970 19143380 16655370 14950540
1303.65 16069940 18032110 18605770 17771440 15888520 14312310
1306.54 13975810 15532700 23018170 40029580 62276800 70501730
1309.44 52263430 32419860 27825500 26632090 24125010 23691790
1312.33 24021790 24048560 24712860 25748370 27153290 28451170
1315.22 29171830 29990100 31084130 31281900 29238270 26981450
1318.12 26643340 26752030 26646320 26800970 27637670 29457180
1321.01 32956940 40991730 62268660 95859580 104148500 75288030
1323.90 53312390 51502690 50357570 46204950 45940170 50207890
1326.79 54987480 55755310 54181940 54627620 55972020 55380940
1329.69 54776500 57231890 68134620 82467270 77443460 55896790
1332.58 40453560 33526610 31972260 34979720 43146480 61778770
1335.47 102466200 177421900 241665600 207190800 117725200 77371350
1338.36 75289370 67048570 53912930 49381580 49226260 48276490
1341.26 47776730 48243820 49027040 50064860 51410260 52791040
1344.15 55002110 59780660 64490540 64377950 59376260 54025260
1347.04 51690540 54401890 64353860 82253380 115178600 162298300
1349.94 199485600 193370000 140085200 97123700 91747740 87726630
1352.83 73281830 74554400 117800200 165983500 152166400 104655600
1355.72 77235340 70437880 71413300 74359790 78615860 84125700
1358.61 91080080 99097380 106814100 113934000 118299700 122935300
1361.51 135448700 156755000 183214700 209812100 230966600 234077300
1364.40 204922100 162192900 139420300 138916900 149470400 166796000
1367.29 186406600 203854200 216813200 225555200 230981000 239036600
1370.18 255183000 273395500 281968900 276132200 266762300 268079200
1373.08 279122800 292471200 307120400 319532800 335714100 396521000
1375.97 492919600 561311000 576347600 544848400 469049100 361238100
1378.86 281906600 254345600 245769000 236431800 224117100 220989100
1381.76 232433300 244924900 252419800 258042300 265043300 277957000
1384.65 302530900 323782200 324467100 329225800 347723300 351079300
1387.54 339381900 336358200 342238200 348330500 356296200 355062800
1390.43 341238000 335328900 338484000 356279700 402716400 454301700
1393.33 484555300 498014900 495808400 483597000 473023100 461570000
1396.22 449285600 439573300 432499700 429320100 427755600 422513800
1399.11 430865700 467497300 483960500 450778700 409362500 383877800
1402.00 369512600 360450100 353669100 347256300 340119100 334932800
1404.90 336102800 363825900 464343600 604172500 660044900 617993200
1407.79 552039100 497492800 467612900 456892800 441421400 415607600
1410.68 388659100 367253300 354920400 349040800 339582100 322500800
1413.58 306977400 299500700 302787500 325479000 362100600 389416500
1416.47 393642600 360853000 310781100 282865100 277644200 291105400
1419.36 407795300 773107600 1162295000 1195991000 1057318000 1011991000
1422.25 901904300 688103000 562649400 513535400 446252500 373195300
1425.15 325701800 300780000 287951300 277878700 267180600 256065200
1428.04 246897900 240634600 238156600 235905400 233237000 232990900
1430.93 234198000 234026700 238753500 251239000 267176500 354716900
1433.82 631150200 896588500 856235000 645279000 492098900 417750800
1436.72 366942500 335635700 344504600 348040400 314696900 282176000
1439.61 273508500 262362000 242179300 233383800 234030400 237584400
1442.50 276824600 397479800 511346300 484306700 380475400 303869900
1445.40 266509900 254576000 256184500 263716300 306953900 485452800
1448.29 794653600 929259900 756251600 528083800 394297900 324441800
1451.18 287511400 277238000 300136600 342038300 349921800 311451700
1454.07 272964200 253412000 246295300 262173900 305915100 322724400
1456.97 290512900 258572800 245061200 234458700 223347200 215644600
1459.86 227089500 255548500 290521100 365191700 570420500 1231405000
1462.75 2058532000 1919058000 1115140000 620445200 428534900 350225400
1465.64 331161200 328628200 320058100 309551700 299743000 289515300
1468.54 290707400 308478400 314850900 297813700 274581800 261520000
1471.43 259099800 264016300 272102400 274106400 267637600 274650500
1474.32 321782500 369491000 355090500 304411900 270792700 290374500
1477.21 347779700 490582000 739594500 793085000 575599100 398551500
1480.11 371230400 399743500 541979600 884338400 1031681000 783554700
1483.00 522576600 415943000 354775900 299446900 265103800 251672600
1485.89 253339700 261376100 259542600 247458300 236957300 231596400
1488.79 229660100 229596900 229689200 230803500 238311100 262462800
1491.68 290317300 290688700 272342800 262662900 262577600 306227500
1494.57 477306800 636902400 559430900 378835600 280673900 274010900
1497.46 373254000 571749100 658137800 515044200 340224700 269795700
1500.36 271387300 272518200 248728100 225981500 216363500 212711700
1503.25 206394800 201641900 204413500 210486700 208672800 200519100
1506.14 203466000 212257900 227630100 251703600 250519000 224800800
1509.03 206436400 200878400 198618200 190520800 174601900 167417100
1511.93 185258700 319152900 720931600 1069752000 901500800 510558000
1514.82 283552300 199412600 174291900 173834500 183963400 191371000
1517.71 204178300 245977200 283917100 263638300 215365000 190057200
1520.61 185727000 179699100 183778100 235001500 284773400 257705900
1523.50 196225200 161871900 154400100 159463100 164596600 171788400
1526.39 253146400 540938900 813327600 700204800 408892500 241335900
1529.28 174214100 140269700 122505700 124050600 145529200 170822700
1532.18 188506000 211938300 266326600 303097600 261153600 199585600
1535.07 169496200 159905000 165444700 181875100 187154500 182091500
1537.96 190344800 198070000 181588900 166263900 188943700 285212500
1540.85 379182800 341426500 232957200 157779100 124676700 112315500
1543.75 106904300 106956700 108531900 109981800 113249100 116983700
1546.64 118911400 115394800 108572500 104276700 102019000 101530100
1549.53 110586300 129420000 129744800 105404300 85499580 79894000
1552.43 81349870 109536300 205868000 274533300 214835800 150885900
1555.32 127864100 94643940 72229220 72358890 79767080 87390860
1558.21 91028000 93214970 102064400 107664400 98565870 83079860
1561.10 73922650 71354140 69772640 73624580 91685300 102580200
1564.00 88349950 71220370 64642760 73549390 141860200 255135000
1566.89 260461800 153769400 77363060 55589950 54394170 55196120
1569.78 50216440 44089150 40728680 39207170 42698790 56669590
1572.67 72843910 77979070 74608720 70207260 69342730 78232340
1575.57 93671580 95143630 88698450 103037700 116688500 100727600
1578.46 96208490 117460600 113373200 86511300 69011810 56261590
1581.35 48448490 46530380 46441360 46314370 44358660 41632430
1584.25 39918180 39488090 41491550 45190280 47293800 46371580
1587.14 43992330 42055800 42743110 44815250 43296210 38863150
1590.03 36664000 42178790 59048080 67657580 52862760 34906400
1592.92 27222750 24832340 23702810 22334210 21697610 22446800
1595.82 22212380 19924550 17570120 16458210 17353910 20464530
1598.71 23089720 23792340 27340210 34295180 36589590 32153020
1601.60 26360280 24810860 31740990 48143660 56462660 41839060
1604.49 23896710 16556970 14365630 13656730 13572880 12873710
1607.39 11824620 11576720 12126600 12464630 11931050 11126840
1610.28 11304580 13679240 17266770 18819110 18830720 19141480
1613.17 19110540 18252090 17810150 19945190 25790480 34550280
1616.07 41174280 33862180 19316570 12562830 11273760 10819320
1618.96 10297320 9618658 9201772 9067128 8729460 8378214
1621.85 8672068 11052410 17090030 20908250 17087240 11844030
1624.74 10570190 11141890 10553660 10135340 12673830 15591970
1627.64 13125210 8300776 6245664 5887262 5631518 5419678
1630.53 5175436 4887918 4705542 4578510 4529344 4503794
1633.42 4977632 8052000 15418340 23911580 22955150 13201310
1636.31 8313040 9141874 8737796 6875628 7048516 7900812
1639.21 6635570 4638588 3506548 2928104 2865384 3105240
1642.10 2984534 2373666 2044234 2201234 2588814 4552890
1644.99 12248680 18759360 14720460 11485650 12829690 11664690
1647.89 9728704 7283226 5205806 4512416 4517268 4616750
1650.78 5653234 14215400 29608550 38901210 38628010 27748190
1653.67 16726240 12537860 7381714 3455816 2487570 2259380
1656.56 1976786 1823804 1801744 1762518 1583882 1557758
1659.46 1668032 1850966 2235996 2724952 3709402 7106304
1662.35 9270978 5939336 2122192 1050928 968470 1122058
1665.24 1295094 1317656 939584 648852 1300410 2913130
1668.13 6218484 11485820 11320240 5494426 3102234 5063578
1671.03 6205396 3866122 1513308 965996 941824 1212452
1673.92 3820424 10777290 14153060 8458782 2595890 912552
1676.81 512188 294814 389336 855238 1690204 2703100
1679.71 3219304 2630518 1554826 1162820 1839450 4978780
1682.60 9534512 11786710 16883760 29610240 30855020 14564440
1685.49 3337220 1166960 865226 1102358 2103958 2732150
1688.38 1979680 1501610 2251354 2312864 1207586 324278
1691.28 275206 891236 1426442 1378144 1506062 2056964
1694.17 4025220 12896350 28283020 29190140 13576460 4254724
1697.06 3136082 2544264 2445354 5707950 15805450 26593150
1699.95 27703250 19526880 8912938 3135318 1917182 1768482
1702.85 1907666 3456440 5775292 5263538 3564680 5304530
1705.74 7516580 5651628 2792936 1946412 1658638 1223964
1708.63 994426 1419936 2178452 2101878 1296836 1066656
1711.53 1365916 1501054 1461916 2477602 4212510 5908372
1714.42 8605996 8466560 4770850 4395510 13224990 24009100
1717.31 20562300 12864500 10777520 7257254 3541198 2193244
1720.20 2186098 2605028 2679434 2321932 2146928 2794786
1723.10 3391334 2772746 2110788 2213372 2423898 2455454
1725.99 2463892 2629506 2767958 2634052 2843094 3449668
1728.88 4553792 6037534 6002986 4726932 3933518 3964412
1731.77 5238960 11017680 19398030 20610570 21180850 22209130
1734.67 14225740 6406152 3950274 3379482 3699878 4169118
1737.56 4441718 5209974 7927738 13327660 15269560 10822130
1740.45 6515868 4776194 4612792 5751962 6701546 6517782
1743.34 5532402 4834060 4711782 5047384 5507166 5265166
1746.24 5101838 5233344 5120950 6290010 7795840 7159958
1749.13 5633992 5331268 8623558 14862940 15165320 8899992
1752.02 5297846 4801254 4291574 4078456 4185340 4226706
1754.92 4328626 5193440 7858698 9536832 7428340 5307698
1757.81 5139966 5376296 5386096 5158500 4983092 5551264
1760.70 8586252 12591130 11530530 7348498 5430288 5001620
1763.59 4858234 4913660 4956522 4767592 4468598 4592910
1766.49 5153938 7325888 11291350 11316910 7360580 5059568
1769.38 4755776 5687284 8193414 10142010 10758630 16017760
1772.27 20285140 14035610 6756226 4981252 5122434 5957684
1775.16 6745332 6253972 5309080 4944272 5116318 5534522
1778.06 5708690 5665246 5642318 6291552 7401774 7177434
1780.95 5995220 5351306 5010074 4764126 4730644 4989630
1783.84 6167128 7883058 7314756 5675182 5637678 5904290
1786.74 5379204 4820070 4732534 4815876 4980850 5425510
1789.63 6226814 7789970 8561440 7919146 10560930 15381850
1792.52 13835480 8398554 5829864 5400780 5660974 6205038
1795.41 6456408 6170706 5969438 5800056 5511048 5651236
1798.31 6597048 8434316 9176096 7986922 7496472 8086382
1801.20 8042604 7917380 7866710 7361622 7247800 7317954
1804.09 7252018 7312416 7483066 7598048 7662934 7866252
1806.98 8188226 8160726 8028750 8250148 8528792 9121212
1809.88 10457450 10775740 9632872 8974714 9008042 9018290
1812.77 9056984 9240790 9437854 9436776 9312104 9419910
1815.66 9627196 9752592 10065510 10421700 10395530 10433310
1818.56 10614160 10456400 10178910 10234700 10571670 10801960
1821.45 10794540 10651720 10464050 10514910 10714200 11256050
1824.34 13195480 14060060 11792030 9599644 8868064 8724984
1827.23 8785732 8982442 9868188 11311610 13419050 15112920
1830.13 13820030 11657160 10123230 8301624 7174046 7454250
1833.02 8246826 8331804 7910036 7622878 7573584 7877662
1835.91 8531280 9548446 10366940 10414350 10268380 10306620
1838.80 10646000 11476000 12512320 13045910 12636380 11954870
1841.70 11661350 11513730 12247320 16520190 21692710 19817030
1844.59 14351700 11930220 11289060 11123710 11301120 11811330
1847.48 12070230 11435460 10634710 10427830 10619470 10506230
1850.38 10116350 9857132 9598322 9415852 9142886 8574304
1853.27 7994138 7776624 7865836 7953660 7849176 7511468
1856.16 7215362 7102728 6932898 6665630 6490354 6383784
1859.05 6367746 6571436 6561490 6398482 6271282 5944984
1861.95 5607366 5425688 5303360 5095638 5125150 5688398
1864.84 6134032 6080924 5941354 5581910 5789260 6747360
1867.73 6682486 7154400 9228880 8794364 6178788 4590872
1870.62 3970114 3919108 4153154 4157598 3838936 3684166
1873.52 3800330 3885884 3622360 3435354 3392468 3109680
1876.41 3047754 3528020 3948850 3881500 4279006 5227338
1879.30 5096120 4267392 3870916 3715050 3718218 3868728
1882.20 3963012 3883216 3664520 3701960 3934918 3880468
1885.09 3639958 3748952 4211626 4383058 4362322 4491152
1887.98 4579042 5495012 7050682 6966336 5740348 5077744
1890.87 4872402 4851724 5220742 5703324 5561716 5168234
1893.77 5140078 5606558 6090452 5907106 5690458 5697768
1896.66 5598052 5648076 5943110 6178842 6279756 6424454
1899.55 6592952 6663858 6758594 6927104 6910480 6737942
1902.44 6702196 6894088 7136024 7206096 7179080 7247602
1905.34 6844740 5959666 5412416 5326090 5255298 4705870
1908.23 4008196 3739038 3918518 4068190 3748170 3315118
1911.12 3125510 3117848 3210068 3608834 3792582 3500882
1914.02 3372590 3591442 3760774 3742788 3748584 4001532
1916.91 5642470 8160500 7678160 4949382 3458170 3217304
1919.80 3267706 3092230 2766002 2699262 2892496 3097794
1922.69 3160394 2725574 2313862 2278462 2509928 2618040
1925.59 2307780 2212878 2240418 2025936 1994504 2117066
1928.48 2026324 1921740 2128730 2368046 2193174 1739066
1931.37 1497346 1509412 1520868 1512960 1440442 1381298
1934.26 1321306 1211518 1041012 918372 1034176 1226358
1937.16 1249400 1245650 1468908 1550924 1332272 1312748
1940.05 1484148 1667770 1888944 2632090 3620154 3049818
1942.94 1609338 909130 757810 810796 813964 868064
1945.84 1080020 1053220 826870 786044 802980 762148
1948.73 832724 1015544 941652 665450 678536 951672
1951.62 1119062 1169662 1204188 1102298 764500 438098
1954.51 513172 852634 950362 706244 476284 566574
1957.41 749896 820842 926002 917456 893796 875082
1960.30 567920 430434 620178 606678 376240 170804
1963.19 16528 94086 312558 404236 452690 513356
1966.08 651430 1222480 1404708 850558 613878 551976
1968.98 375996 266716 144302 157586 165850 175270
1971.87 477082 757446 720582 731218 650556 155426
1974.76-288012-244718-12920 170288 338862 256294
1977.66 35550 145254 316870 386276 587634 722448
1980.55 560526 292058 205678 265392 167924 100898
1983.44 197220 241060 133004-51182 27422 344168
1986.33 743698 1324248 1598800 1144870 429962 7744
1989.23 89732 304590 280494 512816 1062934 1042020
1992.12 536060 235410 216892 230662 101238-72226
1995.01-187832-172582-50868-27508-79878-26404
1997.90-78656-198092-188292-220324-218616 57250
2000.80 150330 9718 170822 560564 687456 472810
2003.69 125878-219868-381356-41060 541036 610042
2006.58 171668-73622 486 30202-101644-43700
2009.48 109306 105938 2418-127004-120488-3208
2012.37 162112 356402 343172 112710-92706-98662
2015.26 90040 437142 880058 1001658 591230 125758
2018.15-137692-451552-699848-493598-100944 5202
2021.05 78368 199018 179502 196984 267966 486372
2023.94 858326 716222 260908 397626 628132 331576
2026.83 62534 41914 82966 288924 331716 15722
2029.72-78238 229318 394114 470066 648900 685126
2032.62 684068 720926 555070 426796 531472 654594
2035.51 598998 582902 553588 394838 596884 1064368
2038.40 1211828 959360 680870 527066 619960 1181204
2041.29 1703776 2012076 2810344 3588538 3151540 2311710
2044.19 1955564 2012476 2292040 2603808 2751804 2780528
2047.08 2879450 2815856 2599448 2688884 2978686 2992324
2049.97 2717982 2543448 2700558 3594546 4671730 4990456
2052.87 4989588 5089172 5238482 5522632 5727364 5574532
2055.76 5579038 5970804 6207402 6372802 6607850 6744080
2058.65 6657322 6519950 6538160 6832988 7423852 7956686
2061.54 8044016 7897556 7888440 7899374 7781262 7709574
2064.44 7771996 7601694 7232216 6998214 6619930 6238560
2067.33 6153590 6206888 6037710 5646246 5564674 5575134
2070.22 5168262 4396724 3568998 2717452 2093820 2357362
2073.11 3681118 5689866 7213472 6982424 5707208 5900070
2076.01 7183758 7147890 6318894 5701760 5753540 6790844
2078.90 7551894 7535874 7860152 8223684 7880740 7548474
2081.79 7775988 7820568 7444046 7050856 7101562 8204908
2084.69 9362838 9675988 9824574 9651182 8956798 8359918
2087.58 8038504 7839394 7773554 7855124 8032540 7867018
2090.47 7439812 7325984 7395730 7314668 7021974 6512592
2093.36 5830380 5126390 4687130 4733078 5226694 5581900
2096.26 5505600 5267424 4842262 4411852 4600380 5772870
2099.15 6616878 5512346 3757542 2964324 2991838 3218424
2102.04 3290246 3156114 2739204 2148344 1638262 1219184
2104.93 895638 654350 638648 1256746 1982086 2044946
2107.83 1733430 1497678 1309952 873492 447870 565610
2110.72 1164546 1278204 724194 451988 563364 658692
2113.61 663032 667180 827016 983576 606150 135314
2116.51-97954-243876 467270 1936682 2451680 1900192
2119.40 1118610 396844 206448 355544 687696 1013218
2122.29 983842 867748 679632 316560 235302 547320
2125.18 706586 417200 192000 465158 702250 480934
2128.08 107552-86550 15620 279960 565910 918884
2130.97 1185190 1003060 437268 211776 350972 456880
2133.86 512234 462142 468000 762852 991540 1011190
2136.75 1383258 1888422 1532602 665268 355876 560674
2139.65 577286 435440 700344 903818 637392 472284
2142.54 452592 375308 448794 633340 692310 536576
2145.43 342314 296106 380116 346074 285922 416800
2148.33 449566 247990 66328 223218 271982-37414
2151.22 41378 424954 505830 603974 793626 830400
2154.11 815716 636352 463042 962278 2336226 3275384
2157.00 2412752 1227712 967592 718980 476004 604710
2159.90 684522 732388 1000216 1316482 1280802 905340
2162.79 579810 560112 693866 867530 1056828 1116984
2165.68 1117196 947864 663224 543216 612468 810590
2168.57 942794 731380 579058 686746 819260 976910
2171.47 1089996 1172884 986998 524492 133284 112162
2174.36 651378 1390400 2187462 2561644 1842646 986792
2177.25 634194 456952 535976 876622 1182516 1188570
2180.15 1136418 1162994 1061142 1007606 1231280 1376910
2183.04 946542 490278 661056 1006166 1077746 1157364
2185.93 1536762 1659386 1252636 870096 780560 902376
2188.82 1386948 1937890 1886614 1500670 1352402 1410392
2191.72 1478490 1593918 1712724 1731142 1709242 1620060
2194.61 1782900 2261398 2324156 2048752 1993050 2189698
2197.50 2238982 1884714 1612918 1735686 2070482 2228202
2200.39 2083234 1777848 1451876 1402366 1799410 2061200
2203.29 1929018 1968096 2194232 2296372 2321178 2259132
2206.18 1964532 1796894 1877106 1897640 1824848 1682396
2209.07 1584412 1545924 1527376 1567502 1710008 1876032
2211.97 2257924 2522692 2385322 2298356 2543676 3297692
2214.86 4093286 4210664 3759482 3012926 2651592 2892104
2217.75 3142718 3290904 3425958 3400792 3510028 3817020
2220.64 4175802 4592704 4944290 5356080 5898434 6342434
2223.54 6538588 6501020 6755136 7363474 8068672 8682058
2226.43 8871962 8876778 9183672 9814302 10572850 11316310
2229.32 12202820 13007470 13504540 14146810 15073350 15989950
2232.21 16848040 17650510 18603530 19926830 21433850 22565010
2235.11 23408030 24554730 26016860 27430800 28790010 30327720
2238.00 31904190 33441040 35139350 37031060 38890280 40512080
2240.89 42187600 44077910 46028670 47923550 49813620 51644350
2243.79 53454080 55389170 57364800 59233590 61075420 62853230
2246.68 64477940 66124900 67883050 69392100 70872070 72590740
2249.57 74235990 75328900 75596900 75565700 76004170 76482860
2252.46 76480570 76305850 76279980 76249740 76439100 77745900
2255.36 79780970 78356910 72673120 67707520 64905110 62789560
2258.25 60714800 58563640 57020050 57134200 62354740 73899260
2261.14 76320450 59803330 43302520 37539820 35726570 34683010
2264.03 36359510 43204790 61773140 103349100 134926700 104725700
2266.93 56838090 42131620 44088840 48616000 54318730 60499700
2269.82 66500270 71576100 76503620 82080090 87584750 92656090
2272.71 97194990 101546700 105474800 108493600 111065900 113558200
2275.61 115704400 117300700 118451900 119394200 119858700 120010700
2278.50 119921500 119287800 118180700 116866000 115540100 114232800
2281.39 112543800 110674900 108957200 107200200 105258600 103190500
2284.28 100813600 98290690 95945920 93471220 90979590 88902820
2287.18 87097500 85253070 83459500 81951280 80771850 79309610
2290.07 77175700 75222500 73968060 73031260 72202660 71596210
2292.96 70601090 67931730 64675340 62613630 61281700 60037920
2295.85 59297440 58392310 55424970 51651770 49557410 49336640
2298.75 48923240 47769180 47687880 45462450 39596550 34490480
2301.64 33570300 35550000 38249600 42027460 49004940 65272360
2304.53 86808340 93782910 86668770 78555490 71527640 67969900
2307.43 69548420 73015640 76194620 78988630 79876480 79639770
2310.32 81824900 85605980 87925140 90207990 91986710 91345790
2313.21 90328060 90272240 89870750 89292730 88771960 88327980
2316.10 87945010 87058800 85112670 82377280 79578490 77349220
2319.00 74645340 71176540 68330810 66115080 62932390 59096670
2321.89 56174130 53785130 50561180 47105670 44982050 43572760
2324.78 40851200 37454630 35521050 34717670 32674740 29801820
2327.67 28513760 28110890 26431570 24542940 24284580 24338260
2330.57 22527890 20783840 20990620 20563560 18442820 17555670
2333.46 18210240 17522420 16014810 16435530 17124490 15375920
2336.35 13733390 14367590 14371620 12878610 12773710 13719210
2339.24 12949390 11861670 12591920 12705530 10864370 10011920
2342.14 10678150 10599520 10055560 10127560 10032840 9956902
2345.03 10437630 10217150 9010956 8317730 8496360 8522868
2347.92 8017054 7491764 7476880 7848244 7980742 8118652
2350.82 8376952 8193930 8219532 8792472 8719466 8742386
2353.71 10072800 10978700 11093990 11441050 10706560 9959296
2356.60 10915890 10913910 10262650 11062690 10813370 10304140
2359.49 11149530 10661000 10528040 11785890 11468020 11625980
2362.39 12539710 12462660 13402060 13685710 13089510 13546530
2365.28 13123660 12837960 12675570 11705160 11891960 11855240
2368.17 11360150 11262030 11019910 11324910 11635120 12392060
2371.06 13585960 14931550 16448650 16351480 15015290 13293780
2373.96 11774060 11234690 11343650 11765360 12199810 12535280
2376.85 13104530 14029440 14833130 16050210 18310580 19728680
2379.74 18110620 15301430 13517890 12937070 13316650 13874190
2382.64 14015240 14177510 14290700 14285220 14555230 15455280
2385.53 17505840 20221930 21970940 21375180 18850950 16783000
2388.42 15877960 15280510 14864550 14966120 15562940 16761690
2391.31 19058390 21128250 22095710 23706770 26000800 26183290
2394.21 23009740 19646780 18210170 17884020 18205290 18908100
2397.10 19993110 22011950 25310610 29862970 35041960 40466080
2399.99 40986600 31678450 21215140 17581680 17354200 17313070
2402.88 18106330 20231220 22368950 23934950 25220070 26434280
2405.78 27377460 25709770 21283820 18368200 18961240 22851380
2408.67 26516860 25960220 24346800 24756100 26278970 28523750
2411.56 30686650 29702440 26040520 23507240 22096080 21429230
2414.46 22915520 26583410 30138760 32700930 35589020 40555330
2417.35 47281030 45759580 32918860 22796690 19764500 19871370
2420.24 21638430 23412060 24499710 25097800 25716110 26657360
2423.13 27301050 26465270 23597400 20321560 19510930 22238320
2426.03 25188050 24577630 23354900 26273700 28986630 27046560
2428.92 26057750 28574330 29100060 26292210 24934090 25626820
2431.81 25565640 22834020 20198750 23195250 29887830 28971270
2434.70 21895960 18738330 19560730 23181850 28514810 34159120
2437.60 38234140 34952500 24772050 17521800 16294880 17234550
2440.49 18383110 19694200 21253790 22597870 23452300 23452850
2443.38 21929420 19834150 18905720 19107350 19710150 19517340
2446.28 18460710 18460080 19343400 19535560 18663880 17205730
2449.17 15537490 14175000 13606700 13586470 13158070 12424250
2452.06 12267870 12833370 13956430 15253500 15748870 15215790
2454.95 14908970 15682200 16249160 16518670 17854800 18710380
2457.85 17750290 16012720 14699140 14343610 14262000 14227980
2460.74 14940700 17165670 20277170 21621740 20745280 18819130
2463.63 16540340 15035980 14587310 14487770 14370330 14215090
2466.52 14398240 15237100 15727940 15813630 16010000 15550990
2469.42 14692290 14879160 17078930 19527600 19610700 17986550
2472.31 16307530 15443300 15476080 16016960 17047780 18853850
2475.20 19091950 17256480 16113040 16065460 16403800 16641760
2478.10 16634330 16608610 16470030 16633570 17836100 20545360
2480.99 23050160 22542010 19901850 18210000 17950940 17728630
2483.88 17291890 17231450 17587750 17630320 17065030 16595180
2486.77 16446990 16621070 16736140 16048900 15328170 15331840
2489.67 15903180 17909810 22234390 25977330 24727940 20580410
2492.56 17731670 16565380 15809250 15066770 14719120 14626100
2495.45 14099840 13446800 13601160 14197880 14279010 13801260
2498.34 13329090 12863240 12424740 12284420 12525530 13658720
2501.24 15876970 17816200 18237400 17581650 16427500 15295710
2504.13 14247090 13285870 12656230 12248170 12204680 12614330
2507.02 12962320 13005430 13018310 13237740 13238310 12733990
2509.92 12340850 12338130 12410880 12857760 13912450 14976430
2512.81 15457290 15331420 14458590 13018350 11883750 11239290
2515.70 10798720 10549940 10302280 10135590 10050830 9865146
2518.59 9609884 9495048 9727366 10415060 12133120 14780650
2521.49 16114210 15256540 13103880 11145060 10973940 10847150
2524.38 9783142 9369524 9292466 8996410 8947568 9246606
2527.27 9642974 10098550 10193240 9961916 9913296 10047870
2530.16 10246560 10364810 10157680 9574152 9239116 9795366
2533.06 10319590 10045590 9743728 9051330 7826864 7367728
2535.95 7796734 8189718 7982024 7692774 7974628 8342338
2538.84 8269348 8078740 7962318 7680336 7677752 8469354
2541.74 9369560 9308448 8854540 8959506 8812044 7772498
2544.63 6564480 5933538 5858372 6048474 6112308 6139196
2547.52 6377022 6843646 7147480 6816124 6487482 7040726
2550.41 7521394 6836702 6236690 6515704 7029436 7435464
2553.31 8212664 9509632 10115910 8984928 7099400 6218948
2556.20 6308022 6199234 5730868 5710384 6263276 6480958
2559.09 6048496 5634510 5492514 5308140 5113242 5365400
2561.98 5925294 6088806 5928838 6122450 6506490 6962670
2564.88 7454232 7326122 6642972 6061574 5415752 4640108
2567.77 4005010 4036322 4363210 4311940 4185964 4292368
2570.66 4556582 4763274 4638234 4434918 4458944 4548912
2573.56 4763802 5108798 5239904 5217390 5509322 5690310
2576.45 5159496 4759240 4743614 4711620 4613768 4275202
2579.34 4101022 4550178 4916376 4943490 5119246 5490402
2582.23 5614638 5403914 5315332 5504604 6002144 6545268
2585.13 6762042 7268354 8242964 8848410 8393962 7778188
2588.02 7593052 7268698 7149848 7545724 7886184 8198414
2590.91 8929758 9561724 10081750 10749790 11088010 11204110
2593.80 11546100 11933160 12160170 12305930 12525540 13271740
2596.70 14147130 14691030 15254010 15754900 15718490 15522120
2599.59 15876280 16865610 17987360 18745160 19165450 19421930
2602.48 19725840 20093620 20189450 20452910 20895610 21423160
2605.37 21875080 21982820 22544170 24734240 27574530 28619860
2608.27 28232610 28644480 30305670 31916440 32282340 31841820
2611.16 31883310 32522890 32342030 31815960 32172840 33522830
2614.05 36589470 41525980 44097550 42901310 43643530 47581720
2616.95 49974260 49253760 47903430 48759400 52442580 56218630
2619.84 56106170 53273900 55776520 67139480 75750880 69749800
2622.73 60115050 57408160 54711160 47341470 40525300 37194000
2625.62 34086750 29462020 25373730 23215810 22438050 22231510
2628.52 22430800 22988570 23308710 23320160 23517750 23386590
2631.41 22702090 22464010 22794160 22791730 22467840 22341760
2634.30 22353360 22353720 22350460 22018120 21353440 20661140
2637.19 19770480 18922380 18492880 18262340 17640210 16725940
2640.09 15991970 15264510 14579610 14072990 13426490 12594100
2642.98 11908060 11266330 10377980 9523504 8650900 7765318
2645.87 7398404 7371238 7226024 7002836 6913998 6993476
2648.77 6654718 5637164 5102798 5180248 5084604 4990294
2651.66 5038892 4860138 4602182 4587428 4486622 4181580
2654.55 4074194 4194462 4475984 4763562 4751052 4804080
2657.44 5006692 4994598 4862948 4879410 5221698 5443642
2660.34 5370818 5587218 6174712 6955264 7678290 8132658
2663.23 8723118 9302324 9041514 7900908 6541706 6007358
2666.12 6183328 5835618 5076724 4613872 4175366 3915552
2669.01 4111438 4250806 4351728 4111702 3107080 2370798
2671.91 2083662 1805768 1655882 1852018 2590970 3617116
2674.80 4404300 5053734 5551128 5565724 5162904 4636958
2677.69 4063008 3588834 3370584 3564206 3999682 4069520
2680.59 3874490 3819572 3500476 3092094 3181066 3345700
2683.48 3178852 3166576 3350948 3319522 3325220 3281814
2686.37 2890294 2724030 2837388 2869782 2868016 2620662
2689.26 2225776 2348782 2975894 3268302 2900888 2589438
2692.16 2672816 2773052 2630726 2465196 2309754 1960052
2695.05 1846740 2089802 1953314 1526560 1693900 2071910
2697.94 1833368 1127470 626916 534908 758002 1105210
2700.83 1252482 1326448 1543676 1981798 2176690 1740774
2703.73 1383060 1801964 2475930 2561596 2098914 1630822
2706.62 1500544 1781056 1777842 962760 424746 995782
2709.51 1751294 2040410 2136582 2430446 2693522 2526454
2712.41 2005798 1694360 1868496 2085064 1998598 1703662
2715.30 1519930 1651062 2003362 2468156 3120388 4155054
2718.19 5143978 5495290 4931956 3942572 3120092 2967168
2721.08 3396460 3842444 4196180 4362848 4207210 4126748
2723.98 4239390 4577474 4811528 4542976 4440100 4678784
2726.87 4829402 5346538 6203668 6530890 6122630 5754988
2729.76 5923018 6368426 6759520 6722592 6823166 7664536
2732.65 8201454 7796946 7162928 7153576 7223564 7036870
2735.55 7269496 7637924 7400496 7106150 7313530 7542536
2738.44 7243936 6804290 6687376 6545332 6458000 6568948
2741.33 6885826 7313722 7240604 7002408 7481070 8362980
2744.23 8291500 7391858 7101910 7194052 6975986 6719116
2747.12 6747194 7287936 7580210 7439924 7707434 8292662
2750.01 8797652 9305054 9649820 9499474 9196406 8854546
2752.90 8476680 8498328 8961048 9882288 11001590 11648380
2755.80 12018830 12527110 13088210 13608510 13681830 13161880
2758.69 12086930 10801380 10125220 10075490 9857678 9158988
2761.58 8551922 8446012 8503982 8268114 7551858 6891828
2764.47 6574666 6340616 6341244 6622298 6811484 6759392
2767.37 6213068 5409340 4842308 4641580 4580914 4173238
2770.26 3608508 3496408 3882948 4225548 4040118 3788892
2773.15 3830506 3752260 3534536 3887954 4182976 3873658
2776.05 3607168 3391310 3168530 3288970 3593122 3752454
2778.94 3888330 4017674 4506656 5510076 5921940 5419690
2781.83 5050648 4981538 4330252 3551388 3614778 3913098
2784.72 3591592 2825984 2328768 2524446 2620724 2330672
2787.62 2328030 2725938 3135420 3290686 3050136 2686640
2790.51 2772026 3108868 3662180 4738790 5735888 6701532
2793.40 8164110 9960450 10577760 9046232 6888600 5103514
2796.29 3929800 3553152 3190480 2499098 2099826 2322302
2799.19 2235348 1811762 1892874 2450060 3258518 3864734
2802.08 4174604 4294866 4242444 4259664 4219484 4272110
2804.97 4403940 4756034 5464582 6273596 6939772 7508692
2807.87 8610402 9923254 9512162 7331772 6025504 5917830
2810.76 5668030 5097170 4081248 2776582 1942650 2186816
2813.65 3320130 4781154 6194692 6662866 5938538 5262760
2816.54 5160336 5306830 5596732 5821576 5924104 6183924
2819.44 6677364 7050202 7304874 8089596 9159496 10320830
2822.33 11461210 10927940 8739460 7514360 7437080 7630592
2825.22 8290578 9588836 10550230 10073760 9568782 9634636
2828.11 9162624 8549010 8251932 8342444 8820630 9107388
2831.01 8833586 8573034 9423130 11229820 12327260 12465610
2833.90 13012990 14497950 16100630 16531020 15690020 15976020
2836.79 19883330 24912760 25422320 21137680 16972850 14626660
2839.69 12787810 10709330 9921088 11697600 13881980 15480990
2842.58 17400810 19371240 20569500 21297720 22592350 24088550
2845.47 25003870 25777060 26654700 27406970 28468360 30661990
2848.36 32663070 32704980 32338530 32782850 33297220 33916720
2851.26 35047470 37066980 39517040 40409300 39116070 38077490
2854.15 38144920 38524790 38778070 38801500 38678780 38578320
2857.04 38483990 37690140 36939240 38168300 39868370 39909090
2859.93 38822500 38193820 37165700 34731440 33039860 32615650
2862.83 32084860 32777080 35135590 36186970 35504200 36192880
2865.72 39502740 47426550 57246140 58397520 63651270 74247630
2868.61 65614760 50869250 47577830 49849820 51367380 50988010
2871.51 51680200 53194180 54575310 56714940 59708360 62457790
2874.40 64662360 66552680 68106220 69897110 72407050 74888460
2877.29 76532330 77067130 77006040 76996020 77255620 77018260
2880.18 76023970 75254760 74722060 73936830 73007150 71910740
2883.08 70125500 66936520 62888790 58791020 54864830 51805240
2885.97 49471320 47369860 46049660 46367920 47810160 48091270
2888.86 46694170 45449720 45090660 44929650 44836210 46659730
2891.75 50508730 51866540 50508620 49984080 49573300 48380790
2894.65 47275940 46602550 46034030 45828600 46215640 47559510
2897.54 49903660 50787000 50303740 50920670 51703570 51391580
2900.43 51765630 53317480 53965880 53668900 52990060 52322160
2903.32 51401700 50542350 51123180 52787650 52477110 50589630
2906.22 50862250 52183600 51470730 49288150 47684530 46427130
2909.11 45071200 45416640 46966260 46683600 44584480 42644870
2912.00 41233680 40837000 42588550 44740670 42785360 39161710
2914.90 38129510 38870010 39505030 38897720 37673490 37184480
2917.79 37704320 38656660 40034800 40869250 40262090 40074740
2920.68 41692790 44189170 45348550 44911780 43636120 41658300
2923.57 39916190 38924020 38300110 37140530 35271820 36354530
2926.47 42638740 50792030 58925800 66949050 74192420 76542010
2929.36 73692290 73712020 76336580 79892110 83945260 84944920
2932.25 85170850 87527640 91063400 95254290 99871700 104241400
2935.14 108398100 112806900 118294500 125754700 135813100 144586700
2938.04 144844800 144068800 149472500 154666400 154349500 152498200
2940.93 153672800 156228500 157403300 157731600 158964400 160000700
2943.82 161172400 165440000 169205900 169209500 167949400 168269000
2946.72 166987200 153162700 135485200 123663600 114254700 105887400
2949.61 97871660 90786160 84925520 78599410 73081380 79149540
2952.50 106643000 140654300 155971400 154940800 151382600 131773300
2955.39 94429480 69769460 77228110 100534600 97103240 77794390
2958.29 78376060 93832450 109395200 117495600 121957000 127709300
2961.18 134824200 142453300 149455900 155102200 158024600 158685200
2964.07 162542200 171820100 184541800 206852300 230241500 221794200
2966.96 198268500 190401100 185302200 179164600 175866400 172989200
2969.86 170135200 167448900 163527800 159109400 155197900 151428500
2972.75 146609400 141262600 137756700 139379200 153332900 182844500
2975.64 187852400 152957800 124641400 110876800 101403100 95750570
2978.54 90321510 85892700 82168420 78095780 73752890 70560300
2981.43 67991760 64546250 61499440 61244050 66215710 90385700
2984.32 165801900 236657200 194162500 113170800 75070860 54683680
2987.21 44205870 39181840 36738000 34637950 32311190 29797550
2990.11 28718400 30023500 32833730 35567350 37740580 40936670
2993.00 51216030 85637960 141533800 146724600 95841070 59178850
2995.89 42284400 34066220 32008210 32797270 34678740 36025710
2998.78 36834420 37281200 36958250 36650550 36910580 37830480
3001.68 40962680 50715370 80170960 144390900 177788600 126674100
3004.57 72099730 52417810 43119770 37931580 35795740 35239090
3007.46 35037200 34628420 34032790 33704880 33136550 33217450
3010.36 35002460 40968380 61922280 114362000 235334300 326058900
3013.25 243113500 124807100 76617960 54106680 41556800 35753300
3016.14 34232720 34704080 35729410 36543530 36949880 37050940
3019.03 37504380 38815600 41536900 48591690 74138580 141299100
3021.93 195668900 157177600 90331100 58918580 47187720 42513700
3024.82 39606000 37340070 34499270 31134680 29871490 32684130
3027.71 36581060 39023450 40674960 42997220 50548630 78261340
3030.60 142284200 185289100 142119800 80708410 53241120 42288600
3033.50 37573510 35292930 34452030 33982310 33571760 33110170
3036.39 32091710 30848460 30154940 31604770 37640090 55087680
3039.28 116321800 240049900 292234900 196250300 99151840 59843200
3042.18 44526620 40295250 39438580 38515070 37579510 36930410
3045.07 36911960 37828090 38866670 39405530 40790000 44400800
3047.96 57372340 95156950 143696600 138701600 88496490 55208930
3050.85 42920430 38271220 37015120 37540840 37492280 35829650
3053.75 33768260 31302330 29070970 30198310 33742320 37252470
3056.64 43684260 61872440 100398300 124073500 95553860 57069170
3059.53 39429920 32020950 28910550 27162110 26995590 28048820
3062.42 28941640 29863520 30930100 30779820 29495770 29789320
3065.32 36355040 68350040 120708900 133738200 103698700 72844150
3068.21 50991490 36877170 28215370 23783690 22184440 23288670
3071.10 27073490 30138320 30466110 30223810 30136000 30735980
3074.00 32923880 39217700 55972200 76505490 72520040 48644850
3076.89 32915420 27441140 25691090 25052610 24022380 22850060
3079.78 22438100 23007410 23665090 22865740 21494580 22511480
3082.67 25676430 30641540 41690840 55464220 53299200 36769900
3085.57 24876000 20161850 18463320 17719990 17007260 16107890
3088.46 15573230 15724420 16345580 17232810 17880770 19179430
3091.35 21994370 25828550 39642270 59081640 53922730 32179030
3094.24 19930970 15578690 13987850 13154390 12286520 11642430
3097.14 11416580 11615120 12022330 12723020 14501040 16285510
3100.03 18047420 21405950 27185260 30621060 26472770 20168440
3102.92 16593650 14861930 14399170 14035340 13277740 12361970
3105.82 11426840 10414040 9388496 8242566 8001312 10444850
3108.71 14277580 17494120 19681270 18523000 14869940 12331550
3111.60 11371080 10867300 10252790 9565724 8783578 8052704
3114.49 7675168 7410594 7201464 7093078 7294594 8404798
3117.39 10957750 15142460 16365250 12382480 8910656 7614676
3120.28 6917532 6974326 7238538 6927842 6403990 6229000
3123.17 6126538 6098198 6453196 6561258 6364082 6818224
3126.06 8003410 8176916 7424052 7373184 7647998 7438638
3128.96 6993408 7048774 7230994 6953724 6672360 6241226
3131.85 5447430 4726260 3677488 3156000 4568642 6971680
3134.74 8714228 9383912 9307034 8876658 8292354 7512802
3137.64 7074312 7659144 8752256 9033178 8705106 9138610
3140.53 10139950 10378180 9995764 9794582 10228520 10696770
3143.42 10769480 11123840 11355580 10826890 10502670 10603200
3146.31 10838950 11899120 13097330 13809420 14742570 15615920
3149.21 15994320 16102620 16487370 17245970 17754290 18070650
3152.10 18713550 20070280 21465510 22231910 22830970 22926460
3154.99 22966780 24220340 25834600 26625300 27351390 28347110
3157.88 28867790 29381260 30999770 33043810 34369820 34755910
3160.78 34939140 35935000 37481620 38557150 39216320 39910160
3163.67 40257120 40471980 40860770 40973710 41224100 42056600
3166.56 42814970 42743210 42203080 41624740 40854590 40368240
3169.46 40209120 39756280 38712610 37482480 36288100 34861580
3172.35 33143570 31586710 30160970 28174700 25807950 24015540
3175.24 23119130 22978530 24672840 30075130 41161020 54405340
3178.13 54042340 40332960 32616560 28654770 21141490 16710700
3181.03 17038360 18657480 21132710 24561860 28742280 33684440
3183.92 38744990 43094810 47059430 50823260 53993840 57029540
3186.81 59906860 62348300 64789690 67278370 69101980 70160840
3189.70 71153730 72419680 73156970 72686410 71757390 70558260
3192.60 68989010 67147770 64688010 62074340 59832480 57370910
3195.49 54684280 52053010 49228290 46201900 42961400 39686620
3198.38 36541550 33131080 29965890 27688910 25655800 23289420
3201.27 21082750 19503150 18527080 17370270 15915810 15150340
3204.17 14816530 13960030 12760610 12385400 12563620 11823540
3207.06 10684760 10620680 11171480 11445750 11492450 11244370
3209.95 10450350 9637458 9626366 9963338 10067110 10093020
3212.85 9463320 8297044 7676682 7875202 8850054 10654350
3215.74 13114330 14486300 14039990 13746260 14854610 15296810
3218.63 14252540 13576180 13891160 14187860 14282150 15176260
3221.52 16474800 17184350 17183900 17048540 17413440 18201040
3224.42 18644090 18406390 18334550 18570920 18904280 19145030
3227.31 18930330 18309290 17561750 16954450 16958850 16821350
3230.20 15718120 14269380 13328520 13271530 12886830 11540100
3233.09 10529030 9919456 9511316 9952388 10117110 9075894
3235.99 7788870 6918026 6572734 6377436 5733918 5222928
3238.88 5535740 6094856 6027812 5215754 4085562 3603518
3241.77 4460282 5817604 5720168 4499808 4139188 4221558
3244.67 4100244 3868060 3684820 3618038 3667814 3908596
3247.56 3931548 3457236 2800620 2495936 2795944 3261090
3250.45 3589642 3793976 4062148 3995378 3647032 3430664
3253.34 3028176 2707024 2829192 3606112 4123394 3676448
3256.24 3762348 4095802 4209054 4433954 3775426 2830288
3259.13 2882956 3489580 3843398 3724498 2998274 2169158
3262.02 2136728 2769120 3397512 3472244 3199372 3271344
3264.91 3279182 3177534 3885902 4342018 4227530 4047334
3267.81 3275790 2829570 2880362 2662670 2970436 3357686
3270.70 3285816 3604680 4053538 4135312 4308770 3979944
3273.59 3390332 3400298 3207182 2736686 2645942 3037114
3276.49 3252284 3134364 3041198 3052180 3276650 3468510
3279.38 3790884 3902174 3476178 3174718 3076880 2930606
3282.27 2624710 2750702 3337418 3596964 3627704 3648638
3285.16 3906066 4427652 4581374 4081108 3732002 3738392
3288.06 3833182 4107062 4108938 3925918 4066292 3998154
3290.95 3454708 3261722 3796332 4415622 4612068 4334322
3293.84 4313928 4423548 3760584 3177976 3359448 3804212
3296.73 4004852 3707476 3539312 3495518 3626740 4154104
3299.63 4601686 4481376 4046096 3679706 3440886 3470268
3302.52 3842946 4369138 4501458 4591844 5174266 5071604
3305.41 3965420 3188788 3384518 3934816 4182992 4171336
3308.31 4221760 4359110 5088196 6176638 6182552 5356632
3311.20 5403244 5832204 5567790 5116320 4484376 3860476
3314.09 4005920 4235050 3771616 3814844 5043812 6041492
3316.98 6141066 6096476 6843620 8069706 7938574 6519224
3319.88 5444378 5387006 6157398 6159616 5336042 5026400
3322.77 4668356 4533358 4950954 5120176 5079006 4918744
3325.66 4826214 5237224 5895178 5923402 5385602 5235614
3328.55 5716448 6491400 7668256 8330256 7696974 6526074
3331.45 5685450 4860360 4679122 5382098 5377362 4993514
3334.34 5203384 5278920 5362530 5881734 6201274 5797536
3337.23 5373808 5563992 6135556 6620696 6327264 5895760
3340.13 6213770 6333684 5821916 5285242 4866816 5024062
3343.02 5351632 5254620 5451116 5899802 6127994 6065566
3345.91 5634322 5581986 6115190 6118356 5650146 5172614
3348.80 4959594 5383408 6007304 5996866 6064302 6373712
3351.70 6299510 6315518 6194300 6030992 6050932 5900446
3354.59 5829680 6436718 7424110 7720112 7394064 7007886
3357.48 6798500 6826850 6215554 5448710 6252624 7335402
3360.37 6934408 6551776 7260790 7533458 6864142 6685020
3363.27 7360872 7815396 7283532 6383312 5921916 5578630
3366.16 5416160 5755074 6525120 6961998 6303564 5496334
3369.05 5441960 6087620 6610178 6946690 7509410 7619924
3371.95 6987264 6056848 5657354 6143424 6153006 5505840
3374.84 5517884 6072624 6164330 6212032 6499632 6694774
3377.73 6893498 7003104 6753972 6370768 6015770 5943122
3380.62 6843034 7801464 7730166 7242078 7083136 7326412
3383.52 7343218 7088220 6885552 7016130 7292414 7422478
3386.41 7386814 6980686 6739402 7186768 7867740 7971972
3389.30 7559196 7194228 6641452 5883524 6256060 7717766
3392.19 8373458 7919742 7020380 5895278 5009586 5195310
3395.09 5978610 6278666 6313504 6567518 6706688 6393564
3397.98 5948060 5654228 5642900 6152774 6370962 5790940
3400.87 5355868 5444268 5726274 6126502 6277576 6035328
3403.77 5854884 5905316 6529572 7135122 6947776 6929494
3406.66 6805708 5953018 5589880 5644634 5850230 6517968
3409.55 6313756 5495844 5925814 6985560 7143202 6419704
3412.44 5779740 5874922 5969104 5745330 6030808 6565068
3415.34 6705766 6257078 5239548 4784044 5063996 5307048
3418.23 5597128 5885366 6454890 6933600 6204964 5486424
3421.12 5900286 6397082 6144398 5752178 6313706 6900668
3424.01 6249882 4917584 4363154 4695150 4741576 4507042
3426.91 4682666 4653298 4322636 4822980 5694962 5629336
3429.80 5226752 4965460 5286658 6078220 5962908 5029544
3432.69 4743436 5493770 5992230 5414964 4740540 4674150
3435.59 4518492 4025110 4112804 4775748 5114632 5308446
3438.48 5464222 5103096 4695568 4582130 4516090 4774904
3441.37 4982448 4658674 4576510 5128084 5461944 5006082
3444.26 4478488 4279668 4343714 5008764 6048108 6420864
3447.16 5744986 4715324 4462192 4840362 5117520 5087124
3450.05 4949398 5160574 5131356 4975898 4798650 4692834
3452.94 4908532 5032142 5023736 5071556 5103056 4241352
3455.83 3070214 2995068 3818134 4809822 5278210 5102766
3458.73 4651300 4274354 4388266 4774048 4462202 3668130
3461.62 3154302 3045162 3552652 3924026 4166638 4585374
3464.51 4258614 3371564 3200394 4053168 4864948 4836912
3467.40 4056660 3195128 3110122 3915876 4510782 4417422
3470.30 4349082 4397118 4281170 4178578 3837540 3411992
3473.19 3822914 4279512 3636668 3225142 3836222 4216602
3476.08 3961966 3853292 4050448 4622952 5167028 4414694
3478.98 3482620 3840130 4308972 3848350 3435106 3780836
3481.87 3682524 3311482 3396318 3669410 4098392 4733640
3484.76 4573514 3873072 3952344 4434140 4525550 4322876
3487.65 4136920 3999792 3832916 4160516 5018614 4834842
3490.55 3706754 3026840 2894898 3162684 3826670 4808788
3493.44 5681622 5557228 4747258 4195814 3970038 4352278
3496.33 4939284 4887018 4431370 3911496 4051086 4735762
3499.22 4871250 4419494 4285630 4403148 4354622 4254110
3502.12 4263746 4474392 4886334 5311546 5286118 4883576
3505.01 4498728 4163702 3874046 3282172 3296892 4300326
3507.90 5195562 5963310 6486898 6026892 5241052 4516512
3510.80 3688760 3415610 3850900 4444944 4516542 4303596
3513.69 4666696 5003570 4813820 4628900 4515318 4663984
3516.58 5146496 5173832 4949802 4962476 5329820 5829670
3519.47 5654908 4658436 3929454 3861688 4170672 4846284
3522.37 5686598 6410326 6232588 5342086 4888190 4996360
3525.26 5026624 5072494 5815064 6402404 5836124 4910230
3528.15 5065448 5884648 5931044 5819074 5734472 4978920
3531.04 4452060 4443738 4611000 4752412 5279726 6212450
3533.94 6062404 5312388 5399144 5576444 5649440 6178446
3536.83 6309926 5813638 5809492 6030660 5700120 5361578
3539.72 5754166 6121934 6037906 5673914 5326752 5279878
3542.62 5500010 5635914 5270252 5035964 5691154 6381992
3545.51 6408006 6577182 6689232 6005366 5234572 4644134
3548.40 4436028 4685668 5241126 5857318 5961276 5558622
3551.29 5625058 6242588 6193678 5757652 5519906 5301444
3554.19 5326340 5634084 6217340 6170674 5341038 5096348
3557.08 5454620 5265560 4803848 4685996 4868628 5292804
3559.97 5559776 5383208 5034764 4865542 5019722 5768500
3562.86 6691754 6688444 6248106 6420282 7175902 8019752
3565.76 8841848 8526840 7311942 8499130 9877070 8246746
3568.65 6346660 5353056 4488844 3981682 4107304 4342870
3571.54 4355490 4836974 5637392 5729710 5627232 5678444
3574.44 5422464 4944020 4829384 5004734 5202082 5293744
3577.33 4860376 4486326 5285568 6321846 6130124 5435494
3580.22 5249984 5155466 5032364 5319950 5180318 4970904
3583.11 6037888 6823480 6271194 5947786 6471202 8128732
3586.01 10382350 10034900 7969544 7919176 10638790 11074500
3588.90 7557164 5559994 5593574 5665890 5493612 4965418
3591.79 4670144 5411324 5873116 5465312 5485928 6169768
3594.68 6967722 6812516 6380482 6280132 6100932 6048530
3597.58 6011140 5802582 5568716 5708118 5880864 6317328
3600.47 7053618 6899930 6174834 6013900 6421486 6419832
3603.36 5757260 5238650 5294644 5415100 5648100 6605042
3606.26 8042600 8217020 6909080 7075614 11229310 15740770
3609.15 13355750 8162490 6620250 6591752 6830326 9246308
3612.04 11964260 10681890 7854708 7413620 8533316 8843556
3614.93 8203500 7430600 7126608 8142210 10333410 11148360
3617.83 9889456 9990454 13224750 14376220 10911040 8596182
3620.72 8106774 7695818 7675528 7474452 7507144 7726482
3623.61 7390804 7190276 7755662 8670866 9199336 8660334
3626.50 7978024 9855356 15780820 19293220 18672430 21034850
3629.40 18939720 11682900 8733176 8494558 8384872 8353864
3632.29 8361000 9080100 9995488 9466098 8628254 8567494
3635.18 8530086 8215864 8275704 8764528 9076080 9027646
3638.08 8630532 8357678 8587564 9238512 9362148 8821810
3640.97 9019872 9685262 10000220 9932992 9736512 9365306
3643.86 8750890 8558668 9429896 10780670 12818500 15953090
3646.75 18200240 16599180 14332690 18880430 26116220 23450810
3649.65 17481260 17435640 17981000 15710400 12134380 10406390
3652.54 10381680 10461290 10426930 10706150 11248960 13167980
3655.43 18358390 20697110 15990240 11436320 10302840 10343820
3658.32 10040400 9635434 9733428 10222990 10531240 10459410
3661.22 10422020 10504390 10393240 10271230 10060080 9460646
3664.11 9489430 10121490 10030370 9769348 9701858 9511906
3667.00 9807750 11878690 15431360 15953790 13012820 14637010
3669.90 23913470 27574500 18408590 10381280 8773256 9271236
3672.79 10358150 12022530 15370600 20222080 23277320 27257200
3675.68 27420220 18742400 12505080 11395510 10703430 10866550
3678.57 12910980 14329730 13501890 12370070 11733400 11589800
3681.47 11712900 11331550 10683910 10488400 10861030 11469850
3684.36 11301290 10452250 9939256 10082630 10167130 10713040
3687.25 17306700 28839830 28285610 16645470 10766260 10974940
3690.14 13066760 15677120 14665150 10752140 8477154 8041138
3693.04 7844052 7507360 7550340 7784574 8313648 8765086
3695.93 8681418 8529104 8294996 8206510 8364616 8445874
3698.82 8535874 9022706 9149238 8418578 9572042 12011990
3701.72 11528220 9376164 8467120 7986298 7405006 7396470
3704.61 8005026 8119218 7386364 7194778 8091702 8600254
3707.50 8355750 8812198 11681470 13707320 11047250 8599608
3710.39 9116128 12398330 20002580 22824650 15715840 9449270
3713.29 7815092 7472082 7331438 7297606 7584466 8057472
3716.18 8137804 7672612 7336352 7882134 9009560 8879898
3719.07 7531132 7379162 8030200 8303428 9325258 11376820
3721.96 11388790 9218518 7812154 7424666 8146904 9741338
3724.86 9836476 9844348 11860540 11774920 9069468 7772140
3727.75 7311384 6740412 6553750 6696814 6729610 6789840
3730.64 8480586 14200880 19548030 16191540 9477162 7593598
3733.54 9859176 13451720 15492930 14189830 13447310 17840320
3736.43 18500210 12386230 9399642 9487704 8782186 7924974
3739.32 7257540 7383698 8823102 9987304 9488398 8565794
3742.21 8402256 10652180 19097880 34277240 41853340 29831460
3745.11 14068200 7909172 7095750 7795616 8670060 9128914
3748.00 12636730 23489320 29868540 21102730 11678560 10194700
3750.89 14842260 26753340 31319440 20010790 10358530 8233816
3753.78 7749184 7337684 7165318 7855802 9824820 10710380
3756.68 9149726 8165246 8292248 8583766 10002700 12455140
3759.57 12606440 9751690 7497736 6634906 6834720 7275660
3762.46 7141906 7026490 7158464 7353154 8297582 10678320
3765.35 11929460 9946976 7773236 7244042 7570130 7574248
3768.25 7667830 9913012 13914220 13775980 9697810 7409972
3771.14 6769852 6608358 6749120 6659336 7096056 7630862
3774.03 7488448 7527674 7595822 7255068 7022516 6912614
3776.93 6793484 6853900 7217380 8908730 11665460 11214370
3779.82 8284054 7037944 6886210 6881112 6976150 7127736
3782.71 7486486 7530506 7589642 8007176 8048876 8024142
3785.60 7879254 7019768 6389696 6807676 7770866 8240038
3788.50 7881812 7365766 6916606 6743682 7100314 7434220
3791.39 7433396 7313834 7285742 7267690 7348146 7376824
3794.28 7621238 8556078 10145390 12419260 12354160 9905870
3797.17 8628828 8088944 7313640 7017090 7476854 8716908
3800.07 13167630 23753920 28497240 19181520 10979970 9445228
3802.96 8834594 8422304 8749784 8825584 8495614 9231684
3805.85 14327880 21899580 20505620 12139430 8216118 7480762
3808.75 6948314 7143798 7691880 7604616 7207984 7166488
3811.64 6967592 6550224 6736572 7151500 7742488 8808328
3814.53 11127840 19938300 29989600 24764750 12972170 8591976
3817.42 8140102 8285556 8257886 8578968 10210540 14249140
3820.32 18029620 19301240 18751510 13773920 8900836 7936470
3823.21 8140022 8141286 7683862 7622604 8694266 10191810
3826.10 11278060 10850150 9582544 8761970 8078644 7946516
3828.99 8426096 8556470 8246512 9515524 13218050 13912880
3831.89 10040760 7405600 7402380 8700348 11499490 14614410
3834.78 13578820 10309200 9343664 10510870 17851120 29144020
3837.67 26987710 14707990 9616132 10418970 11239730 12409060
3840.57 13454870 11370550 9158588 8967244 9919428 11947890
3843.46 12024950 10136110 9278294 8608660 7892892 7968078
3846.35 8013604 7661746 8139490 8681216 8694620 8992222
3849.24 9300408 9259342 9787588 13912750 23997170 28380020
3852.14 20402420 17051720 28890040 42403630 36714180 19485930
3855.03 10662410 9692028 10215380 10630360 10423690 9610596
3857.92 9177710 9417136 9593606 9224542 9069874 9781284
3860.81 11775640 13310050 11921250 10226280 10288790 11420990
3863.71 13802850 18056590 19803530 14717050 9982862 9441222
3866.60 9746060 9529860 9713174 11647030 15246570 20172630
3869.49 24489030 20667970 13163650 10784870 10185030 9200484
3872.39 8981256 10468300 13569850 15289550 13023580 10027890
3875.28 9309358 9547162 9768104 9389660 8791250 8955812
3878.17 9236940 9477728 11541900 14911050 15549470 13282520
3881.06 10883510 9524730 9493794 10219780 10273540 9656172
3883.96 10062980 13513670 20179630 21528080 15031940 9891336
3886.85 8651196 8414106 8847572 10102450 11167690 10989870
3889.74 10682270 13589530 17801510 16526240 12164460 9889580
3892.63 9206342 9517508 9740732 9348208 9546176 10466120
3895.53 11265460 11165780 10613460 10631080 11025860 12069030
3898.42 15574160 17803290 14383450 10781820 11366790 15891970
3901.31 19820810 17515790 13209590 12209190 15736330 19105670
3904.21 16769800 13863370 13584720 13630810 12871870 11701040
3907.10 11003340 10985970 11232440 11784900 12586840 12869640
3909.99 12914100 13061430 12725210 11834470 11613340 12533530
3912.88 13871360 14492550 14391940 14220040 13892720 13988370
3915.78 15593020 19521910 21418800 17517920 13816700 13228010
3918.67 13703540 14727230 15826740 15975570 15747500 15056950
3921.56 13749500 13601160 14609120 15389050 16080440 16851780
3924.45 17136160 16358650 14785640 13589140 13010310 12417180
3927.35 12268180 13236800 15182080 16296510 15440400 14652880
3930.24 14904690 15134240 15885880 17654230 17864590 15592020
3933.13 14246930 14783550 15268760 15019750 14574640 14216530
3936.03 13840050 13468100 13354440 14151530 15479060 16433600
3938.92 16391910 15339320 14507460 14194280 13993710 14192500
3941.81 15815990 16930240 16087750 15883480 17167570 19048600
3944.70 18967280 16400710 14458890 14074610 14781310 15002510
3947.60 14480990 14253190 14638620 16396390 17681320 16385540
3950.49 14496510 14392150 15354160 15590280 15202350 15826630
3953.38 20464650 26219060 23827980 16461940 13124860 13399070
3956.27 14269050 14443740 14453680 14844000 15139190 15086300
3959.17 14888990 14312660 14541010 18453930 22050020 19151420
3962.06 15027740 14110760 14585830 15173270 15764500 15931230
3964.95 15606060 15836770 17143980 20791520 25767190 24536940
3967.85 18193910 15068120 15045870 15030410 14857320 14996270
3970.74 14773410 14413340 15239840 21219370 32931890 34290930
3973.63 23008660 16206550 15484280
##END=
