##TITLE=Dichloromethane
##JCAMP-DX=4.24
##DATA TYPE=INFRARED SPECTRUM
##CLASS=IUPAC A
##ORIGIN=NIST, Analytical Chemistry Division, 301-975-3108
##OWNER=COPYRIGHT (C) 2001 by the U.S. Secretary of Commerce
##DATE=01/06/01
##$SPECTRA VERSION=1.10
##$UNCERTAINTY IN Y=2.1 % relative (B=1.12E-04,C=8.08E-10,D=1.49E-14)
##CAS NAME=Dichloromethane
##CAS REGISTRY NO=75-09-2
##MOLFORM=C H2 Cl2
##MP=-95.1 C
##BP=40 C
##$NIST SOURCE=QUANT-IR
##SPECTROMETER/DATA SYSTEM=IFS66V (Bruker)
##INSTRUMENT PARAMETERS=KBr Beam Splitter; MCT Detector; Multipass cell
##STATE=gas
##SAMPLE DESCRIPTION=Dichloromethane Primary Gas Standard
##PRESSURE=101.3 Pa
##TEMPERATURE=23 C
##SAMPLING PROCEDURE=1 L/min Flow
##RESOLUTION=1.9290
##DATA PROCESSING=Boxcar Apodization
##XUNITS=cm-1
##YUNITS=(micromol/mol)-1m-1 (base 10)
##XFACTOR=1.0
##YFACTOR=9.0949E-13
##DELTAX=0.9645
##FIRSTX=575.652
##LASTX=3974.606
##FIRSTY=7.05E-07
##MAXX=3973.64
##MINX=575.65
##MAXY=.0008503
##MINY=-9.09E-07
##NPOINTS=3526
##XYDATA=(X++(Y..Y))
575.65 776068-79005-277019-177889 674214-224530
580.47 521015-1000326-127308 81596 283669 430843
586.26-143898-89424 57301-85398-731896 627007
592.04 513676 30701 730738 266973-614710-15696
597.83-70427 395384 39550 142002 814484-32137
603.62 362037-108270-235925 268434 4194-445380
609.40-28788-139049 32730-114429-349386-236363
615.19 262781-288393 378383-31929-58185-34077
620.97 328580-455236-83831-34376 232063-208797
626.76 533332-247290-47529-474606-196701-24181
632.54 241633 50274 734282 16076 349099 42508
638.33 345316 134431 459802 195477 387158 469354
644.11 308512 138803 522331 424459 471510 296861
649.90 887228 823100 719054 1296004 1575396 1397451
655.68 1236854 1354231 1995363 2369340 2323222 2456723
661.47 3014809 2885597 3610471 3542640 4198636 5288252
667.26 6432100 5053117 6608011 6267081 7338630 7893926
673.04 7791185 8727559 9766893 9598138 10891815 10470747
678.83 11593175 12312423 13654165 13819150 15079604 15894895
684.61 17161800 17677475 18792107 19463477 20558042 21674445
690.40 22692732 23311427 25021559 25643864 27083964 27664126
696.18 29629981 30243805 32364973 32794747 35035759 36004287
701.97 38895182 35947622 41565888 40311098 37982564 43636592
707.75 38143822 37395615 40676764 31059295 38027856 30550456
713.54 36043249 33347625 38619262 44895988 48216775 57264320
719.32 69130795 68359259 77429876 81397043 84533630 84387974
725.11 80416485 79932412 82095361 70985930 75515950 79781441
730.90 86608073 94522103 111960401 128381445 149756158 174760009
736.68 212665754 246014256 292664694 346261276 408003946 474580929
742.47 550316789 621653924 700135595 772782418 836043621 886989238
748.25 934955459 933042341 919251786 898984390 829853670 747389798
754.04 732242491 735923203 690191436 681629376 795580294 616766104
759.82 572176534 709244140 767350133 808601154 800570369 778306708
765.61 722516558 656586220 570909214 488192134 397097985 319495208
771.39 245368632 186829845 134901005 97466515 65679542 45542517
777.18 28286517 19500840 10742300 7837837 3618794 3592903
782.96 925382 1893242-117584 876620-35077 708943
788.75-314015 885026-177021 634175-462484 623731
794.53-411481 635672-223154 571593-437087 250806
800.32-227222 622396-315256 251386-361564 504531
806.11-419852 450054-398296 311811-221049-48504
811.89-112921 435593-219502 438681-472649 472374
817.68-252898 137639-218091 316795-193984 191087
823.46-374300 304799-231797 413866-261231 41658
829.25-270709 168358-261924 332127-462262-39562
835.03-430093 189028-76202 127149-367809 250073
840.82-243649 74449-238887 247091-308683 320401
846.60-319930 203760 142626 327191-392961 271593
852.39-194979 296047-18403 354288 70212 142876
858.17-98333 190985 232785 566332 386420 670144
863.96 279334 601766 352767 961610 538714 910642
869.75 700834 1224036 936752 1579258 1151042 1698274
875.53 1437647 1875702 1720051 1959171 2039860 2459662
881.32 2035731 2382075 2208144 2792425 2463705 2727068
887.10 2804847 2552629 2974360 2312216 2795516 2719929
892.89 3362114 4089126 5515495 7940940 10727918 6497120
898.67 3347640 3845626 2790945 3303651 2682048 3355770
904.46 2727887 3506737 3228381 3421427 3469143 3578487
910.24 3666328 3440032 3984952 3592388 3788002 3539651
916.03 3838022 3539957 3832592 3421390 3653206 3168740
921.81 3227791 2872905 3021716 2595081 2813334 2447275
927.60 2551839 2120863 2262056 1814558 2022755 1702175
933.39 1848523 1459259 1431914 1396672 1398235 1320983
939.17 1201159 1083278 943030 945172 759840 864030
944.96 617324 687643 591328 586407 544398 497636
950.74 303673 454272 207727 509788 155056 293260
956.53 270066 173096 240879 306566 50001 262474
962.31 106591 171034 197688 290572 166943 286549
968.10 245330 244507 247544 248292 336532 334119
973.88 294054 369233 495923 378286 442030 416608
979.67 452497 282142 320046 446285 345881 455636
985.45 275577 378391 376098 382888 325749 282265
991.24 314565 446938 313087 477190 367674 371351
997.03 180598 374311 334420 382173 466211 355247
1002.81 303189 235331 279503 281060 11588 324881
1008.60 188496 287279 40171 151125 68280 153145
1014.38 244546 230317 243310 245860 140191 283297
1020.17 59691 280701 230848 412819 314374 447274
1025.95 129089 386357 279157 347239 326286 389840
1031.74 336519 461214 298892 354319 386293 225558
1037.52 305457 567260 350898 372396 227369 534380
1043.31 309470 358788 401084 319201 240122 179967
1049.09 267780 33066 268518 219204-8696-61586
1054.88 43843 13201-113277-103869-27815 70291
1060.67 2958-249796-191128-51189-100435-97062
1066.45 22153-26123-61000-128183-35404-49047
1072.24-224029-107320-68445-49754 31124-145857
1078.02-20455-89731-138570-43623-98784-25117
1083.81-152348 26394-71526-70247 38740 47105
1089.59-91770-123222 19367 15802-227682 48023
1095.38 15078-109453 3652-41445-66434-98339
1101.16-159787-15761-80175-40596-117590-93655
1106.95 34446-21347 19978-67629-5959-165649
1112.73 16416-251497 73120-164681-132263-128414
1118.52 5277-96153 10365-146092 4885-125767
1124.31-86901-84926-63199-23153-82381 102493
1130.09-48899-11165-63954-122126-40222-80821
1135.88 44548-121253 32189-70279-20122 22571
1141.66 29056-83261-22000 25323-17045-44091
1147.45-35008-87669 121388 13105 52626-93526
1153.23-120656-17182 75139-129712 180304 37589
1159.02 228201-17519 34230-48343-4946-76756
1164.80 17753-159693 197320 61235 88139-83192
1170.59 128736-93018 39663-77802 103607 8686
1176.37 51236-82019 104470-106375 126608-86382
1182.16 134780-123549 173460-42290 101334-158013
1187.95 112784-91916 202174-69326 114075-14649
1193.73 134674-33822 99166-196254 129989-152640
1199.52 89330-128912 132932-161625 87035-164235
1205.30 165613-229961 112449-137319 181401-83855
1211.09 217652-157974 237177-123187 324505-286542
1216.87 376407-311790 205288-87463 291179-243757
1222.66 258493-277642 277356-255402 294653-153665
1228.44 340897-272746 378413-204024 423165-150711
1234.23 562477-236040 698470 153329 1249137 698986
1240.01 2000187 1890369 3870027 4331598 7546880 9512300
1245.80 14555281 18720300 26808089 34627929 47144177 59854633
1251.59 77751624 95762363 119018548 141240140 167455828 190179848
1257.37 212411130 226913963 239401191 243423994 238750875 209627876
1263.16 190076186 152043965 153982627 188657975 308554298 106541466
1268.94 37750227 121339210 172230018 231979037 257742115 280236815
1274.73 276243881 269206188 243978414 219849575 185441422 156159510
1280.51 122982235 97719169 71673772 54140168 36606167 26770529
1286.30 16229780 11785180 6032222 4886824 1760192 2018420
1292.08 98720 1107692-454109 726061-413769 617778
1297.87-552814 553886-465188 410976-519278 457157
1303.65-510064 346650-510613 408043-482664 396824
1309.44-451463 387059-402658 356925-373313 299745
1315.23-345072 356449-320584 442667-355260 297664
1321.01-366750 249767-311780 327607-241958 256417
1326.80-167045 253795-309641 207817-277097 297114
1332.58-308940 220970-321203 248759-179648 165139
1338.37-232603 195098-209687 203219-109112 293331
1344.15-187128 283375-253903 130205-376259 295329
1349.94-427009 159016-245005 356692-485651 255755
1355.72-241286 97995-431549 276520-242599 308206
1361.51-354759 45149-290033 20163-270015 220935
1367.29-269184 330245-251770 180760-323710 97170
1373.08-146598 142196-161680 257848-74303 200259
1378.87-251744 236191-84490 203355-141105 266553
1384.65-137015 276218-305864 320624-128619 208603
1390.44 53497 210383-80483 233488-114578 207226
1396.22 12816 274397-67535 427933-25463 429424
1402.01 14116 436135 155713 483533 225444 589843
1407.79 156913 586715 302665 450651 441556 698856
1413.58 454551 781233 545104 712915 677480 571069
1419.36 883275 798751 903445 930485 1003010 1199540
1425.15 1221952 1297780 1170881 1520230 1163260 1578203
1430.93 1169984 1416919 1110348 1506301 1372831 1728066
1436.72 1644999 2227925 2143386 2579956 2654009 3026411
1442.51 3026737 3545344 3502945 4132190 4085951 4479379
1448.29 4679080 5315547 5470300 5883682 6059667 6652266
1454.08 6905187 7318690 7316037 8020734 8157421 8523124
1459.86 7873793 7974811 8461152 9119752 8670266 6997902
1465.65 5880858 7423844 8568164 9125575 7206890 6517550
1471.43 7566068 8455384 8751999 8367324 7008057 6600470
1477.22 5617161 5038055 3331882 1646789 454031 312688
1483.00 220351 405352 208917 199465 148605 299111
1488.79-56544 305568 21936 344910-20803 211053
1494.57-54552 109910 68175 132750-21819 255403
1500.36 16300 33480-61266 85913-161795 25078
1506.15-232937 7275-95656 32595-81326 38248
1511.93-144141 39313-144933 50783-162018 61120
1517.72-99818 105472-259825-95473-217451 38264
1523.50-52169-30125-87926 43419-89994 119106
1529.29 2230 39253 13170 23673-31982 317517
1535.07 195900 427446 238501 331004 207134 523955
1540.86 307341 404603 538013 584618 370245 326380
1546.64 543070 587982 100076 288457 691809 639475
1552.43 190071 482916 342242 644894 471603 556627
1558.21 376173 403233 303817 485789 178550 364305
1564.00-18354 237978 39401 151883-119058 37367
1569.79-41422 100336-50350 85490-80825 11115
1575.57-299364 98768-150046 139168-115790 149764
1581.36-110916 115316-83392 82663-121651 128161
1587.14 16697 130104-33847 64583-99167 120611
1592.93-89352 149461-31644 101386-29870 139199
1598.71 4238 66765-50826 160791-23122 161007
1604.50-11286 108940 6443 168857 16694 102554
1610.28-10489 94955-81255 118691-10940 12479
1616.07-271528 108062-24816 140092-102249 187810
1621.85-186173 110142 7292 94642-49807 75292
1627.64-75220 124571-102143 23294-38143 88182
1633.43-109747-73678-140282 72075-97174 124947
1639.21-72449 20827-93138 126271-198348 501
1645.00-183177 82977-184298 83774-66068 33171
1650.78-139452-214159-249289 11089-64803 73622
1656.57-149256 43102-137720 123486-125260 87141
1662.35-187826 98644-186549 66315-99583 108354
1668.14-246626 29954-142693 60123-14590 59277
1673.92-214973-42589-74178 84855-85599 28860
1679.71-131318 161907-152278-27889-403595-80907
1685.49-79955-6704 2893 22060-30755 54505
1691.28-78540 86973-55152 53949-258752 88185
1697.07-85673 7915-240816-45440-102492 60134
1702.85-96719 84740-79448 63721 5002 139569
1708.64-130703 59341-94784 115762-65811 70217
1714.42-159176 97844-204308 61675-31030 99629
1720.21-7371 92970 4895 136565-40636 152052
1725.99-15255 196637-6914 119646-55529 173698
1731.78-119839-5878-90568 107378-40555 79460
1737.56-40678 85875-52507 169160 13307 56583
1743.35-54789 71438-64400 112271-56603 29998
1749.13-9724 20844-88014 93219-74929 120916
1754.92-104760 50488-7275 100829-75264 72338
1760.71-81022-27288-50887 106378 2090 80275
1766.49-13076-12464 3587 42304-83400 12984
1772.28-69802 126540-71761 133919-26606 90154
1778.06-25931 81983-45016 119820 42147 162209
1783.85 1628 124848-109431 3083-79005 171987
1789.63-57876 121371-177480-44208-45252 66573
1795.42 15614 101134 44199 120380 21197 83510
1801.20-55058 87673 27807 17223-38862 21536
1806.99 65752 138619-68898 54592-35580 110907
1812.77-76370 121727-18512 57593-104605 37605
1818.56-96882 70606 11041 101175-38152-3993
1824.35-82173 95108-68328 50764-72558 28866
1830.13-50569 68432-73903 30394-20964 74104
1835.92-36282 41591-54653 80654-48140 90011
1841.70 22588-84152-167057 91337-19140 86889
1847.49-56446-9663-68883 64782-104073 91110
1853.27-119821 112553-54217-8609-89863-3691
1859.06-47366 17773-75193 97084-57799 56421
1864.84-14337 16687-80182 63396-121032 6589
1870.63-76910 66543-77235-10212-155439 41383
1876.41-105987 86707-105439 56898-82255 51307
1882.20-41776 50054-123857 57225 4925 81573
1887.99-36156-6082-91613 40023-61393 20803
1893.77-111650 83722-40413 87294-22216 72576
1899.56-103283 24393-53594 16194-42865 41135
1905.34-50035 68235-132749 103090-72980 79839
1911.13-76483 54162-134160 90835-128086 12401
1916.91-43998 8972-76262 81048-48858 63270
1922.70-70369 52565-57586-11570-76362 6959
1928.48-39674 50492-68417 79096-114656 56785
1934.27-101758 35785-120191-43686-117113-7544
1940.05-111472 4767-77029-3582-134094 76663
1945.84-90196 50288-98653-19705-44258 137368
1951.63-86740 30094-98666-29234 12625 14347
1957.41-46054 56938-26925 76307 12940 112275
1963.20 42179 125516 30755 106372 21958 141447
1968.98 104288 283783 126642 264811 246081 356968
1974.77-9465 277826 159720 320836 98024 276066
1980.55 177053 237481 204281 294349 75306 387726
1986.34 278777 380394 278583 458153 266821 346743
1992.12 155022 239898 85690 108305 588 152669
1997.91-20183 101638-42272 71757 33964 50821
2003.69 57814 48649-1975 158413 16840 121568
2009.48-6347 122465-12626 154807 25594 130589
2015.27-20803 61771 19375 51796 20690 116709
2021.05-22914 77972-71447 164859 16393 115781
2026.84 29392 173273 20743 83889-22929 177907
2032.62 99994 70430 73770 144493 81780 252356
2038.41 34580 246629 184435 311520 230304 467698
2044.19 405548 521407 545553 765775 684520 803355
2049.98 853887 874120 824169 758739 730811 702997
2055.76 532965 636005 589711 846031 297499 261998
2061.55 384586 716124 772481 927927 809803 839797
2067.33 805741 708313 550196 536279 375073 361590
2073.12 163626 269404 80946 50052-51708 128820
2078.91-60202 80942-111165 79822-92771 11176
2084.69-16082-49927 18790 9159 254-27293
2090.48-97058-33112-48293 60700-29185 33785
2096.26-40514 58552-124584 102407-81963 64248
2102.05-173265-1267-24654 81546-28828 41109
2107.83-15465 70383 35505-81865 29710 108347
2113.62 31280 20819 62204 67201 116360 25610
2119.40 3859 78596 44412 125352-34142 133060
2125.19 161299 111971 9091 235373 168929 259153
2130.97 91309 268030 200305 285260 145544 324590
2136.76 182472 264432 227217 362368 155029 330948
2142.55 272264 309394 196977 256272 122292 263290
2148.33 205387 322823 316456 498211 371107 442644
2154.12 315857 502262 399432 351483 278769 466094
2159.90 309567 297440 264708 510849 245416 409351
2165.69 355420 525656 260869 352945 413864 568860
2171.47 396488 628675 566385 552210 303656 632710
2177.26 666058 620004 557854 800865 473304 465902
2183.04 374050 597684 328099 520877 437646 559180
2188.83 304451 356368 229118 291914 192117 369608
2194.61 300112 158294 220969 241037 156840 193188
2200.40 134493 214661-35838 133399-35104 22694
2206.19-106192 82463-42414 65788-73558 51630
2211.97-90360 56075-148709 61640-42885 28099
2217.76-90782 35461-71565 91905-80699 29045
2223.54-118563 36698-40267 54036-23838 32702
2229.33 16169 83523 37360 71051 4597 101373
2235.11 12304 116190 16603-2949 9557 31356
2240.90 2229 92748 31997 192239 57752 132577
2246.68 12778 186394 67603 125978 24263 292137
2252.47 51959 163630 31505 227504 12917 200872
2258.25 50557 204125 72036 253575 140014 204624
2264.04 180704 275188 175645 209038 131595 356138
2269.83 143319 407702 215290 494234 261185 475780
2275.61 360230 572758 475938 638392 531537 653044
2281.40 674534 817425 767284 958270 791111 1136918
2287.18 943668 1187425 971916 1252425 1212247 1476247
2292.97 1313086 1552653 1357706 1774740 1535882 1883819
2298.75 1583814 2032657 1769387 2156977 1924080 2218641
2304.54 1799254 2075388 1857119 1951498 2026304 1856505
2310.32 2221690 1821828 2625677 1987558 2819889 2495868
2316.11 3962295 4301659 6544104 3983761 2874747 2462592
2321.89 2447570 2306132 2319370 2330855 2499127 2497465
2327.68 2612890 2596935 2649289 2668594 2689341 2620179
2333.47 2714420 2519106 2723447 2351750 2686672 2405906
2339.25 2450686 2228098 2192256 2061506 1929750 1783775
2345.04 1643074 1382056 1342178 1072252 1207839 1154173
2350.82 1264394 1301350 1428953 1412249 1494704 1445671
2356.61 1615188 1587791 1591483 1585220 1594699 1534147
2362.39 1475718 1468136 1343749 1314945 1188369 1085192
2368.18 1033962 937241 822543 718286 698826 590614
2373.96 583630 444266 397501 321824 314225 226313
2379.75 267036 245989 177666 233389 218840 211368
2385.53 239637 243396 237285 252226 367312 238098
2391.32 350419 205645 329128 195607 340948 320862
2397.11 287923 384585 243734 499244 233716 507646
2402.89 280062 373082 350452 453368 373594 298574
2408.68 375899 260009 408142 275562 442175 426592
2414.46 1656210 945190 345015 437349 342679 420125
2420.25 241134 448751 317401 305528 356245 447676
2426.03 343014 334402 371328 382576 292635 323800
2431.82 312515 432418 308424 292890 218380 253283
2437.60 342925 237304 216588 225404 249138 254904
2443.39 124552 240390 180233 124609 243464 151444
2449.17 231645 179215 27704 69699 104511-8866
2454.96 104495 108891 7870 51509 44216 40949
2460.75-19874 15904-43160-36727 86215 69903
2466.53-50437-20580 63946-32510-26753 34989
2472.32-7276-46215 21918 2201-34132 982
2478.10 78425 36631 30859 80391-44841-9080
2483.89 7015 39947 69064-24125 52694 52390
2489.67 62838 87502 47877 101355 71664 113857
2495.46-68325 633-9292 9941-21040 11527
2501.24-86018 33675-66508-171249-124078-169592
2507.03 768-108858-120392-216996-24908-169537
2512.81-171082-124986-276708-145341-290138-139590
2518.60-280276-165451-280719-223443-379041-334241
2524.39-373365-339218-293649-234139-222611-142972
2530.17 41642-77519-51521-154128-414761-397269
2535.96 93155 508111 157537-80361-213473-239712
2541.74-203709-314173-268831-329166-286438-373279
2547.53-464191-513424-483314-515184-607234-511080
2553.31-504466-494641-423021-485557-449294-349425
2559.10-426254-291858-400691-346222-175808-295269
2564.88-246615-163518-192013-164084-183693-192945
2570.67-137065-123878-142418 5347-195639-35814
2576.45-23577-59395-55825-43914-87065 25742
2582.24-53957-36235-3623-1493-7858 37522
2588.03-138488 11857-6189 9591 15172-112629
2593.81-69629-5480 82895 77964 29248-15688
2599.60-5517 46348 19574 36309-44081-70574
2605.38-1434-16496-22063-89999-29766 22629
2611.17-17435-91551-93265 14294 29740-8217
2616.95-2145-86544 32289-32344 92797 114567
2622.74 104311 65338 76583-55805-95724-186701
2628.52-47737-61951 18256-24437 34281-30787
2634.31-588 45606-47987 11766 13336-1971
2640.09-33626 72879-33114-75852-37267 103475
2645.88-8018-64237-29692-48857 27720 109375
2651.67 50583 10829-101561-45146-54843 11961
2657.45 49481 52491-88914 50078-75881 67767
2663.24 76205 50323-88990-13194 23447-20912
2669.02 22350 88996 203734 52088 150548 100627
2674.81 195525 244466 383354 388217 464758 453037
2680.59 693107 828929 940529 1185375 1498153 1730359
2686.38 2011752 2216332 2428503 2565807 2879874 2769261
2692.16 2787463 2796455 2442233 2303935 1990049 2168461
2697.95 2185030 2226012 1123164 847178 1836341 2501813
2703.73 3057340 3197468 3435744 3303122 3107136 2680986
2709.52 2250322 1877915 1471127 964705 785614 538393
2715.31 408039 293543 111243 95116 111944 32080
2721.09-410-51121 38538 50163 103287-41095
2726.88 26059 36259 15820 20824 59515 15011
2732.66-53159 21737 65183-34351-4217-2599
2738.45 3445-9408 126722-99676-10837 26915
2744.23 115422-151672 96261 12359 101895 22627
2750.02 26174-90896 53174 107906 38776 6992
2755.80 137289 24793 23802-29900 32588-33859
2761.59 26892-26563-68707-113554 22565-122680
2767.37 31129 51254-585 103216 127234-7142
2773.16-6053-46005-93964 87461 95965-65062
2778.95 53757 27903 83068-67189 38137-14551
2784.73 64675 37140 67989-20213 69644-36806
2790.52 55271-3584 7915-79000 128455-119486
2796.30 90752-46483 223624-30782 31747-17548
2802.09 58092-20091 167413 99186 126042 42196
2807.87 273293 120666 182806 35610 181170 218603
2813.66 401864 211422 351479 67645 292854 145272
2819.44 535374 209747 560158 269436 577189 402073
2825.23 529725 474796 620008 432245 562690 584981
2831.01 687980 548924 785076 837892 738417 873387
2836.80 798826 940920 883855 984906 965182 1202044
2842.59 1074173 1391672 1226944 1159686 1263502 979665
2848.37 1186051 822662 1014703 567659 688395 593673
2854.16 788184 846882 1124062 1145673 1210982 1089050
2859.94 1318925 1287975 1308153 1491031 1365615 1169758
2865.73 1257526 1240855 1125581 943579 1006081 794600
2871.51 811050 782462 797582 655496 772979 753227
2877.30 692561 474670 614206 433934 643556 376092
2883.08 679556 300792 496458 359235 404447 232045
2888.87 304195 222260 270216 161818 402670 35289
2894.65 302352 45319 261588-31057 233283-10771
2900.44 256303-8263 387623-98255 281087-41450
2906.23 133096 4574 152736-90942 237315-57936
2912.01 325148-131772 440948-83458 240262 83120
2917.80 363215-74120 301326 7103 368761-53429
2923.58 385466 80944 446032-87296 668978 18161
2929.37 561024 194295 545132 227627 595131 295705
2935.15 863289 349093 910586 532197 1145059 544952
2940.94 1387759 761973 1586045 753201 1987824 1018029
2946.72 2360778 1400338 2750687 1558164 3117868 2062883
2952.51 3577741 2645289 4230008 2825495 5235747 2941450
2958.29 6276464 3344433 7060792 3970986 8226705 5022076
2964.08 8873954 6130495 9288468 7647027 9746712 9076629
2969.87 10233316 10883357 10534090 12793461 10613524 15105952
2975.65 10668523 17411091 12215409 18152723 14928685 18666619
2981.44 18991914 19290531 21922150 21164854 24255389 24420245
2987.22 24784543 27347478 23726092 28279049 22196517 25932858
2993.01 19730978 19414296 14072897 12750223 12007668 13566543
2998.79 17262892 19980628 23158929 25191842 27826766 27448422
3004.58 28585002 27643277 27254374 26952778 24911832 24709321
3010.36 22108262 22990126 19958905 20899417 17720032 19137343
3016.15 16175373 17844172 14639087 16123599 13668411 14848591
3021.93 13154271 13122013 11917826 12576962 10890329 11261346
3027.72 9890316 10335012 8659820 8891182 7705982 7696312
3033.51 6497656 6875787 5655475 6005866 4836494 5151420
3039.29 4011482 4222667 3344138 3735792 2702059 3024028
3045.08 2186363 2625334 1970236 2225047 1518271 1909281
3050.86 1195418 1626457 855473 1235759 639069 1145686
3056.65 449112 932002 438454 793960 346057 611553
3062.43 96761 422561 185149 342207 157792 452154
3068.22-31830 414171-34783 401345-62478 424589
3074.00-95177 434979 776 310659-108729 160261
3079.79-207192 270309-148910 114693-178721 281197
3085.57-196099 89287-161143 192440-215358 149372
3091.36-213367 150985-163803 215483-217126-70389
3097.15-17801 157319-261147 252582-248106 116945
3102.93-249398 195893-214060 117582-142302 74183
3108.72-273519 73818-170704 29576-83191 162443
3114.50-189532 173280-187675 150104-153887 189653
3120.29-194983 98708-127074 209503-96979 137017
3126.07-679 54911-229795-19628-150325 213727
3131.86-147775 94944-113698-58027-174984 319633
3137.64-111216 88923-40329 143267-162435 129911
3143.43-39779 13056 16521 98090 26950 91075
3149.21-214859 187315-136324 134574-165760 163591
3155.00-81073 74371-102865 108321-67276 104775
3160.79-118428 3462-116591 88159 9702 150585
3166.57-221752 189221-162391 93175-100724 169589
3172.36-51048 144501-250513 48483-197862 188979
3178.14-137920 91501-39657 38209-174599 88075
3183.93-215515 139485-59548 84422-3120 93320
3189.71-79998 76359-267076 45810 6296 48666
3195.50-104571 81328-53836 75115 52461 78834
3201.28-158635-46485-48781 85992-139803 120977
3207.07-172011 122098-11523 119092-194909 140772
3212.85-81411 237230 30174 51403-8882 104761
3218.64-63287 50310-173307 83417-101293-19556
3224.43-15028 71105-177579 86443-88666-83762
3230.21-91812 98942 47748 139497 9386 73131
3236.00-51489 116302-307605 49751-99981 131995
3241.78-53191 30864-178986 159366-33215 193865
3247.57-28628-17775 12288 57719-60201 244899
3253.35-244950 49855-93954 188047-10900 57388
3259.14 126675 152508-27953 177901 16650 246940
3264.92-72575 128518-65459 161437-4741 140607
3270.71-2019 149598 128614 23225 62856 139360
3276.49-136036 125006 8194 7107-24729 246857
3282.28 63577 178667-212946 176935-122917 228690
3288.07 64183 58144-54468 114602-25009 48011
3293.85 4672-53471-27563 177581 119822 47524
3299.64-102715 109655-43048 122707-59788-4688
3305.42-8759 141983-67814 115080 24665 70949
3311.21-13760 59342-259652 24673 95319 86178
3316.99-28496 149551-38692 15487 81177 110447
3322.78-21741-3999-135719 25295 103080-70948
3328.56-53359 94554-86900 88584-90736 106103
3334.35 3913-47275-93198-114364-39210 64687
3340.13 17947-18134-792-61584 76231 5718
3345.92-18622 70651-87126 2-115627 69415
3351.71-219494 112887-184399 74362-18058 111048
3357.49-109541-75811-29425-80818-100844 30228
3363.28-34663-185315-116389 4261-164591 61926
3369.06 55858-56331-112811 34527-19837 73710
3374.85-36618 52027-198136 108111-63219 50651
3380.63-67527 120405 23097 104001-155236 164336
3386.42-117587 186869-91626-1176-40026-28549
3392.20-14161 146175-26294 188665 40378 276180
3397.99-122570-50750-124869 44500-48802 134292
3403.77-54111-102866-129349 89332-80766 175032
3409.56-284546-53965-154028 141123-37537 210235
3415.35 9295-11187 61101 70781-65696 99164
3421.13-51550-41295-69999 70939-117338-56840
3426.92 49935 129722-120931 140423-102026-30640
3432.70 82072 108021-76910-19809 86858-54005
3438.49-63531 158625-20479 130795 87452-14281
3444.27 47047 90739 73353-69369 11857 41202
3450.06 18552 48505 68867 47772-145223 20100
3455.84-48292 2522-76278-25145 25804 175047
3461.63-33136 21289-60509 48303-12767 79819
3467.41 63420 113025-79786 119581-213571 22289
3473.20-2009-181603-46701 49366 35593-186118
3478.99-115755-80741 25279 205599-126209-12641
3484.77-160229 9797-205543 870-131331-130726
3490.56-88692-111397-54413-98459-148281-53476
3496.34-22920-4286-149998-13841-198488 142689
3502.13-5715 48718-161909-25149-29232-18378
3507.91-154344-4830-48592 60710-43044-1542
3513.70-19038-75993-207683-207678-99400 58128
3519.48-228801 203934-63227 58439-62107-56133
3525.27-193403 121177-213990 3537-97404 42330
3531.05 75209 67429 19053 11489-70205 133935
3536.84 849-27215 20659 59146-28957 199629
3542.63 30937 82371 30224 91815 41995 233007
3548.41 130056 141670 189975 157349-51179 236095
3554.20 161111 223389-79619 161387 154231 223869
3559.98 170193 88332 4878 104444 219994 131350
3565.77 170742 27969 16409 12843 92059 132383
3571.55 7787 18054-165020 165333 77650 85633
3577.34-30438 67119-167059 96456-52416 99471
3583.12 56725 73545 51955 10640-159795-29245
3588.91 92322 192146 37500 62846-51516-3477
3594.69-44056 166501 146587 38423 59248 39344
3600.48-53230 161624-82247 89858-55055-20200
3606.27 62564-22229-167945 23485-20553 31927
3612.05-164320 121674 6190 85666-93157-5954
3617.84-84169 131270-65792 4524 3925 88425
3623.62-51556 94921-137443 127362-28609-152181
3629.41-37201 58840-34584 19444-223631 22514
3635.19 39928 26139-71171-29923-110302 33115
3640.98-29720 66222 14014 152135 1902 13206
3646.76-159769-67976-18565 32732-208678 53170
3652.55 218446 11023 18189-96047-136516 67129
3658.33-18198-163412 62089 102116 143720 43380
3664.12-9186 21942 58237 38942-61512 72830
3669.91-116850 97652-48465 170912-19551 3411
3675.69-15368 188304 121778 197475 11194 212654
3681.48 185743 320768 190338 161502 272609 222995
3687.26 82521 256236 310485 149604 319736 416920
3693.05 356095 316800 349388 416152 308535 485753
3698.83 425347 448812 389974 485631 445834 554414
3704.62 388921 461778 457811 452708 381526 447686
3710.40 249941 344430 371132 491778 617867 651278
3716.19 680192 743798 685131 798546 622277 674940
3721.97 608765 689348 617140 596523 503580 513218
3727.76 574025 592166 544397 418684 396177 745637
3733.55 348789 555451 481175 640437 599703 788314
3739.33 649599 832069 646006 707690 502793 683326
3745.12 881396 857942 913803 844516 695729 849910
3750.90 712056 817540 874648 844842 896214 713074
3756.69 801754 742686 666943 764516 738507 749254
3762.47 744648 787972 579906 762588 767056 813122
3768.26 788430 824033 630462 653665 433506 402686
3774.04 144224 233929 212573 312819 383922 425112
3779.83 383870 233440 315914 289197 290962 418986
3785.61 300343 514263 126643 178152 302572 270294
3791.40 84738 77100 143031 166134 275954 79528
3797.19 94772 138793 42521 7643 17286 180944
3802.97-183891 184013 163101 57727-101067 100735
3808.76 42049 96994 62124 108922 1580 122044
3814.54-54393-94700 66109-119435 113210-67214
3820.33-96568 860 22876-47294-77202 69534
3826.11-145348-13710 87858 154791-99315-18990
3831.90-122484 43833-101856 55582-71122-153782
3837.68-20044 32277-79155 38523 117668 128109
3843.47 185636-68334-35720 93709-3895 88485
3849.25 22149-16430-216417 94947-343731-61234
3855.04 117570-19498 25712 30196-11194 64413
3860.83-180658 69214 58323 49440-98047 152737
3866.61-34382 139517-72508-110080-9271 66190
3872.40-54425 26094 17456 129582-173367-21716
3878.18-82304 106763-74515 81706-32172 115601
3883.97-79318-16555 69119 142324 86322 66734
3889.75-10767 131362 27548-9934 110366 69389
3895.54-81219 136929 46860-3583 128812 140031
3901.32-6897 24375-93787 11353-30566 114346
3907.11 254783 91043-33107 87185 131421 119739
3912.89 249094 153271 71256 261647 170455 305717
3918.68 166271 147878 265436 232912 255077 249593
3924.47 192280 312967 266524 323844 276455 344461
3930.25 423690 356073 555414 570658 572416 407385
3936.04 491862 665785 411840 679585 515526 769796
3941.82 474114 633616 363497 498982 386310 364585
3947.61 330926 359701 433662 605963 513958 634227
3953.39 737756 626180 483396 808137 674121 647820
3959.18 704682 623725 504673 611858 446868 537449
3964.96 306328 341598 259675 500179 244845 380007
3970.75 238228 264797 242419 393592
##END=
