##TITLE=Acetaldehyde
##JCAMP-DX=4.24
$$ By DXEDIT 1.05 (RS McDonald)
##DATA TYPE=INFRARED SPECTRUM
##CLASS=COBLENTZ III
##ORIGIN=DOW CHEMICAL COMPANY
##OWNER=COPYRIGHT (C) 1988 by COBLENTZ SOCIETY INC.
Collection (C) 2018 copyright by the U.S. Secretary of Commerce
on behalf of the United States of America. All rights reserved.
##DATE=1964/09/14
##CAS REGISTRY NO=75-07-0
##MOLFORM=C2 H4 O
##SOURCE REFERENCE=COBLENTZ NO. 5645
##$NIST SOURCE=COBLENTZ
##$NIST IMAGE=cob5645
##SPECTROMETER/DATA SYSTEM=DOW KBr FOREPRISM-GRATING
$$SPECTRAL CONTAMINATION DUE TO CCl4 AROUND 1550 CM^-^1 HAS BEEN SUBTRACTED
##INSTRUMENT PARAMETERS=BLAZED AT 3.5, 12.0, 20.0 AND CHANGED AT 5.0, 7.5, 14.9 MICRON
##STATE=SOLUTION (10% CCl4 FOR 2.6-7.5, 10% CS2 FOR 7.5-22)
##PATH LENGTH=0.011 CM, 0.011 CM
##SAMPLING PROCEDURE=TRANSMISSION
##RESOLUTION=2
##DATA PROCESSING=DIGITIZED BY COBLENTZ SOCIETY (BATCH I) FROM HARD COPY
##XUNITS=1/CM
##YUNITS=TRANSMITTANCE
##XFACTOR=1
##YFACTOR=1
##DELTAX=1
##FIRSTX=3800
##LASTX=454
##FIRSTY=0.9245
##MAXX=3800
##MINX=454
##MAXY=0.9313
##MINY=0.0021
##NPOINTS=3347
##XYDATA=(X++(Y..Y))
3800.000000 0.9245 0.9245 0.9245 0.9247 0.9257
3795.000000 0.9248 0.9260 0.9260 0.9260 0.9260
3790.000000 0.9261 0.9261 0.9261 0.9261 0.9261
3785.000000 0.9261 0.9253 0.9247 0.9247 0.9258
3780.000000 0.9263 0.9251 0.9261 0.9263 0.9263
3775.000000 0.9249 0.9263 0.9263 0.9263 0.9263
3770.000000 0.9263 0.9262 0.9262 0.9262 0.9262
3765.000000 0.9262 0.9262 0.9262 0.9262 0.9261
3760.000000 0.9269 0.9268 0.9261 0.9261 0.9261
3755.000000 0.9262 0.9264 0.9265 0.9266 0.9267
3750.000000 0.9268 0.9269 0.9271 0.9272 0.9273
3745.000000 0.9274 0.9276 0.9277 0.9278 0.9280
3740.000000 0.9281 0.9286 0.9298 0.9298 0.9299
3735.000000 0.9299 0.9293 0.9285 0.9294 0.9301
3730.000000 0.9302 0.9302 0.9313 0.9303 0.9305
3725.000000 0.9305 0.9306 0.9303 0.9299 0.9294
3720.000000 0.9290 0.9270 0.9267 0.9275 0.9270
3715.000000 0.9265 0.9261 0.9255 0.9254 0.9254
3710.000000 0.9242 0.9244 0.9237 0.9230 0.9223
3705.000000 0.9215 0.9208 0.9201 0.9193 0.9186
3700.000000 0.9179 0.9170 0.9163 0.9154 0.9133
3695.000000 0.9123 0.9114 0.9105 0.9096 0.9089
3690.000000 0.9082 0.9074 0.9067 0.9057 0.9039
3685.000000 0.9033 0.9025 0.9022 0.9018 0.9014
3680.000000 0.9010 0.9011 0.9012 0.9014 0.9016
3675.000000 0.9018 0.9021 0.9023 0.9025 0.9027
3670.000000 0.9042 0.9036 0.9039 0.9043 0.9048
3665.000000 0.9052 0.9056 0.9061 0.9066 0.9070
3660.000000 0.9074 0.9077 0.9083 0.9085 0.9088
3655.000000 0.9091 0.9093 0.9095 0.9098 0.9100
3650.000000 0.9103 0.9105 0.9108 0.9108 0.9107
3645.000000 0.9106 0.9105 0.9104 0.9103 0.9101
3640.000000 0.9100 0.9099 0.9098 0.9096 0.9095
3635.000000 0.9093 0.9092 0.9093 0.9104 0.9102
3630.000000 0.9094 0.9083 0.9086 0.9094 0.9091
3625.000000 0.9089 0.9087 0.9085 0.9083 0.9081
3620.000000 0.9079 0.9077 0.9075 0.9072 0.9070
3615.000000 0.9068 0.9066 0.9063 0.9061 0.9059
3610.000000 0.9057 0.9053 0.9040 0.9049 0.9048
3605.000000 0.9045 0.9042 0.9036 0.9029 0.9037
3600.000000 0.9029 0.9017 0.9022 0.9026 0.9023
3595.000000 0.9020 0.9017 0.9013 0.9011 0.9008
3590.000000 0.9005 0.9002 0.8999 0.8992 0.8986
3585.000000 0.8980 0.8973 0.8967 0.8961 0.8934
3580.000000 0.8908 0.8852 0.8795 0.8791 0.8782
3575.000000 0.8774 0.8779 0.8787 0.8788 0.8788
3570.000000 0.8797 0.8807 0.8817 0.8827 0.8836
3565.000000 0.8843 0.8849 0.8852 0.8855 0.8854
3560.000000 0.8853 0.8851 0.8850 0.8849 0.8848
3555.000000 0.8858 0.8841 0.8838 0.8845 0.8839
3550.000000 0.8831 0.8818 0.8823 0.8818 0.8812
3545.000000 0.8801 0.8794 0.8796 0.8790 0.8785
3540.000000 0.8772 0.8771 0.8762 0.8762 0.8762
3535.000000 0.8757 0.8752 0.8747 0.8743 0.8738
3530.000000 0.8734 0.8714 0.8709 0.8705 0.8701
3525.000000 0.8696 0.8692 0.8688 0.8684 0.8680
3520.000000 0.8675 0.8671 0.8667 0.8663 0.8659
3515.000000 0.8654 0.8650 0.8646 0.8642 0.8638
3510.000000 0.8633 0.8629 0.8625 0.8620 0.8615
3505.000000 0.8609 0.8604 0.8599 0.8594 0.8588
3500.000000 0.8583 0.8578 0.8573 0.8567 0.8562
3495.000000 0.8556 0.8552 0.8545 0.8541 0.8533
3490.000000 0.8525 0.8517 0.8508 0.8499 0.8492
3485.000000 0.8484 0.8476 0.8468 0.8460 0.8451
3480.000000 0.8444 0.8434 0.8425 0.8409 0.8394
3475.000000 0.8379 0.8363 0.8346 0.8331 0.8316
3470.000000 0.8300 0.8268 0.8234 0.8200 0.8167
3465.000000 0.8131 0.8096 0.8060 0.8025 0.7993
3460.000000 0.7962 0.7930 0.7899 0.7859 0.7819
3455.000000 0.7778 0.7738 0.7693 0.7649 0.7583
3450.000000 0.7518 0.7305 0.7093 0.7040 0.6988
3445.000000 0.6949 0.6909 0.6897 0.6884 0.6873
3440.000000 0.6860 0.6853 0.6845 0.6845 0.6844
3435.000000 0.6834 0.6832 0.6842 0.6852 0.6897
3430.000000 0.6942 0.7001 0.7061 0.7137 0.7217
3425.000000 0.7353 0.7510 0.7668 0.7826 0.7942
3420.000000 0.8059 0.8117 0.8176 0.8225 0.8274
3415.000000 0.8316 0.8358 0.8390 0.8425 0.8458
3410.000000 0.8491 0.8517 0.8543 0.8572 0.8593
3405.000000 0.8609 0.8631 0.8653 0.8675 0.8694
3400.000000 0.8713 0.8724 0.8736 0.8747 0.8759
3395.000000 0.8770 0.8782 0.8793 0.8806 0.8817
3390.000000 0.8829 0.8839 0.8850 0.8854 0.8859
3385.000000 0.8863 0.8867 0.8871 0.8878 0.8881
3380.000000 0.8885 0.8886 0.8887 0.8887 0.8888
3375.000000 0.8889 0.8890 0.8890 0.8891 0.8892
3370.000000 0.8906 0.8894 0.8894 0.8895 0.8897
3365.000000 0.8898 0.8899 0.8901 0.8903 0.8904
3360.000000 0.8905 0.8906 0.8908 0.8909 0.8910
3355.000000 0.8911 0.8912 0.8913 0.8915 0.8916
3350.000000 0.8916 0.8918 0.8919 0.8919 0.8919
3345.000000 0.8931 0.8936 0.8923 0.8934 0.8922
3340.000000 0.8922 0.8922 0.8938 0.8938 0.8936
3335.000000 0.8923 0.8923 0.8923 0.8925 0.8925
3330.000000 0.8926 0.8926 0.8926 0.8926 0.8926
3325.000000 0.8926 0.8928 0.8928 0.8929 0.8929
3320.000000 0.8930 0.8930 0.8931 0.8931 0.8932
3315.000000 0.8932 0.8932 0.8932 0.8948 0.8948
3310.000000 0.8949 0.8949 0.8947 0.8938 0.8951
3305.000000 0.8951 0.8947 0.8937 0.8938 0.8938
3300.000000 0.8938 0.8937 0.8936 0.8934 0.8933
3295.000000 0.8932 0.8931 0.8930 0.8929 0.8928
3290.000000 0.8926 0.8926 0.8925 0.8923 0.8975
3285.000000 0.8920 0.8919 0.8933 0.8930 0.8915
3280.000000 0.8917 0.8926 0.8921 0.8909 0.8912
3275.000000 0.8919 0.8918 0.8916 0.8915 0.8914
3270.000000 0.8913 0.8911 0.8910 0.8909 0.8908
3265.000000 0.8907 0.8906 0.8905 0.8904 0.8903
3260.000000 0.8902 0.8901 0.8900 0.8898 0.8885
3255.000000 0.8897 0.8896 0.8894 0.8893 0.8892
3250.000000 0.8891 0.8889 0.8887 0.8887 0.8886
3245.000000 0.8877 0.8877 0.8883 0.8882 0.8880
3240.000000 0.8880 0.8879 0.8876 0.8876 0.8875
3235.000000 0.8874 0.8873 0.8872 0.8871 0.8869
3230.000000 0.8868 0.8867 0.8866 0.8863 0.8849
3225.000000 0.8852 0.8862 0.8861 0.8861 0.8860
3220.000000 0.8862 0.8862 0.8862 0.8861 0.8861
3215.000000 0.8860 0.8860 0.8859 0.8859 0.8858
3210.000000 0.8858 0.8858 0.8846 0.8843 0.8843
3205.000000 0.8842 0.8842 0.8841 0.8841 0.8841
3200.000000 0.8843 0.8851 0.8843 0.8849 0.8843
3195.000000 0.8852 0.8852 0.8852 0.8852 0.8852
3190.000000 0.8844 0.8844 0.8851 0.8851 0.8841
3185.000000 0.8836 0.8836 0.8835 0.8835 0.8832
3180.000000 0.8830 0.8827 0.8825 0.8822 0.8820
3175.000000 0.8816 0.8814 0.8811 0.8809 0.8806
3170.000000 0.8803 0.8796 0.8790 0.8783 0.8776
3165.000000 0.8770 0.8770 0.8771 0.8758 0.8752
3160.000000 0.8752 0.8745 0.8729 0.8728 0.8715
3155.000000 0.8704 0.8711 0.8707 0.8700 0.8693
3150.000000 0.8687 0.8679 0.8659 0.8649 0.8639
3145.000000 0.8629 0.8618 0.8607 0.8598 0.8592
3140.000000 0.8591 0.8581 0.8571 0.8561 0.8550
3135.000000 0.8540 0.8529 0.8519 0.8508 0.8498
3130.000000 0.8487 0.8477 0.8466 0.8456 0.8445
3125.000000 0.8435 0.8424 0.8412 0.8402 0.8392
3120.000000 0.8382 0.8372 0.8361 0.8359 0.8358
3115.000000 0.8357 0.8355 0.8354 0.8352 0.8351
3110.000000 0.8350 0.8348 0.8346 0.8351 0.8357
3105.000000 0.8354 0.8353 0.8350 0.8348 0.8346
3100.000000 0.8355 0.8355 0.8353 0.8364 0.8375
3095.000000 0.8387 0.8385 0.8383 0.8379 0.8365
3090.000000 0.8359 0.8343 0.8332 0.8333 0.8337
3085.000000 0.8320 0.8308 0.8304 0.8301 0.8297
3080.000000 0.8292 0.8288 0.8292 0.8302 0.8302
3075.000000 0.8298 0.8303 0.8302 0.8287 0.8281
3070.000000 0.8277 0.8260 0.8269 0.8252 0.8248
3065.000000 0.8243 0.8237 0.8221 0.8217 0.8210
3060.000000 0.8210 0.8213 0.8209 0.8198 0.8185
3055.000000 0.8186 0.8181 0.8167 0.8161 0.8159
3050.000000 0.8153 0.8141 0.8131 0.8118 0.8118
3045.000000 0.8109 0.8111 0.8107 0.8104 0.8097
3040.000000 0.8090 0.8068 0.8047 0.8024 0.7990
3035.000000 0.7947 0.7913 0.7862 0.7815 0.7777
3030.000000 0.7735 0.7687 0.7646 0.7597 0.7552
3025.000000 0.7512 0.7472 0.7437 0.7401 0.7364
3020.000000 0.7328 0.7270 0.7206 0.7106 0.6997
3015.000000 0.6906 0.6818 0.6717 0.6617 0.6501
3010.000000 0.6385 0.6280 0.6173 0.6086 0.6010
3005.000000 0.5937 0.5859 0.5775 0.5691 0.5612
3000.000000 0.5538 0.5530 0.5546 0.5523 0.5527
2995.000000 0.5553 0.5580 0.5683 0.5782 0.5897
2990.000000 0.6014 0.6131 0.6247 0.6363 0.6480
2985.000000 0.6509 0.6538 0.6556 0.6575 0.6592
2980.000000 0.6611 0.6631 0.6639 0.6647 0.6667
2975.000000 0.6671 0.6676 0.6678 0.6682 0.6684
2970.000000 0.6685 0.6693 0.6695 0.6693 0.6692
2965.000000 0.6690 0.6688 0.6674 0.6661 0.6616
2960.000000 0.6573 0.6579 0.6576 0.6562 0.6560
2955.000000 0.6557 0.6556 0.6578 0.6593 0.6614
2950.000000 0.6635 0.6651 0.6667 0.6681 0.6694
2945.000000 0.6700 0.6713 0.6715 0.6722 0.6724
2940.000000 0.6733 0.6742 0.6747 0.6754 0.6763
2935.000000 0.6761 0.6768 0.6778 0.6791 0.6800
2930.000000 0.6810 0.6817 0.6824 0.6828 0.6834
2925.000000 0.6834 0.6834 0.6835 0.6831 0.6824
2920.000000 0.6824 0.6823 0.6822 0.6734 0.6645
2915.000000 0.6601 0.6558 0.6554 0.6550 0.6548
2910.000000 0.6546 0.6544 0.6551 0.6550 0.6540
2905.000000 0.6545 0.6550 0.6558 0.6565 0.6571
2900.000000 0.6578 0.6582 0.6587 0.6589 0.6590
2895.000000 0.6586 0.6581 0.6555 0.6530 0.6500
2890.000000 0.6469 0.6420 0.6371 0.6323 0.6274
2885.000000 0.6232 0.6190 0.6147 0.6105 0.6050
2880.000000 0.5996 0.5938 0.5880 0.5816 0.5769
2875.000000 0.5713 0.5657 0.5595 0.5534 0.5461
2870.000000 0.5390 0.5317 0.5245 0.5171 0.5099
2865.000000 0.5040 0.4982 0.4928 0.4874 0.4578
2860.000000 0.4282 0.4177 0.4072 0.3967 0.3861
2855.000000 0.3756 0.3646 0.3540 0.3437 0.3332
2850.000000 0.3227 0.3121 0.3016 0.2912 0.2811
2845.000000 0.2705 0.2600 0.2423 0.2250 0.2213
2840.000000 0.2174 0.2154 0.2136 0.2118 0.2097
2835.000000 0.2078 0.2060 0.2043 0.2026 0.2007
2830.000000 0.1988 0.1980 0.1969 0.1968 0.1967
2825.000000 0.1964 0.1967 0.1988 0.2003 0.2044
2820.000000 0.2082 0.2114 0.2144 0.2178 0.2212
2815.000000 0.2247 0.2283 0.2320 0.2359 0.2450
2810.000000 0.2540 0.2618 0.2699 0.2743 0.2786
2805.000000 0.2820 0.2854 0.2887 0.2921 0.2983
2800.000000 0.3046 0.3170 0.3295 0.3427 0.3560
2795.000000 0.3692 0.3825 0.3957 0.4087 0.4139
2790.000000 0.4198 0.4213 0.4235 0.4254 0.4273
2785.000000 0.4293 0.4317 0.4331 0.4345 0.4365
2780.000000 0.4385 0.4401 0.4418 0.4439 0.4460
2775.000000 0.4472 0.4486 0.4488 0.4488 0.4486
2770.000000 0.4483 0.4472 0.4462 0.4423 0.4385
2765.000000 0.4333 0.4282 0.4201 0.4120 0.3859
2760.000000 0.3601 0.3502 0.3404 0.3306 0.3209
2755.000000 0.3138 0.3066 0.2983 0.2903 0.2823
2750.000000 0.2744 0.2686 0.2628 0.2610 0.2593
2745.000000 0.2577 0.2560 0.2544 0.2529 0.2507
2740.000000 0.2486 0.2462 0.2438 0.2397 0.2355
2735.000000 0.2308 0.2262 0.2148 0.2036 0.1962
2730.000000 0.1888 0.1817 0.1745 0.1701 0.1657
2725.000000 0.1623 0.1590 0.1583 0.1577 0.1570
2720.000000 0.1551 0.1564 0.1563 0.1572 0.1583
2715.000000 0.1600 0.1617 0.1639 0.1662 0.1773
2710.000000 0.1887 0.2087 0.2288 0.2528 0.2768
2705.000000 0.3007 0.3246 0.3486 0.3727 0.3966
2700.000000 0.4207 0.4467 0.4728 0.4916 0.5104
2695.000000 0.5177 0.5249 0.5321 0.5394 0.5482
2690.000000 0.5571 0.5662 0.5752 0.5846 0.5940
2685.000000 0.6025 0.6111 0.6179 0.6247 0.6315
2680.000000 0.6384 0.6485 0.6588 0.6697 0.6807
2675.000000 0.6898 0.6989 0.7042 0.7095 0.7141
2670.000000 0.7188 0.7234 0.7280 0.7318 0.7356
2665.000000 0.7389 0.7422 0.7455 0.7488 0.7520
2660.000000 0.7554 0.7584 0.7617 0.7657 0.7686
2655.000000 0.7714 0.7743 0.7770 0.7800 0.7823
2650.000000 0.7845 0.7867 0.7898 0.7927 0.7952
2645.000000 0.7966 0.7985 0.8008 0.8041 0.8058
2640.000000 0.8077 0.8099 0.8121 0.8142 0.8164
2635.000000 0.8185 0.8221 0.8237 0.8255 0.8259
2630.000000 0.8277 0.8303 0.8321 0.8337 0.8353
2625.000000 0.8370 0.8386 0.8401 0.8418 0.8432
2620.000000 0.8447 0.8458 0.8473 0.8486 0.8500
2615.000000 0.8512 0.8527 0.8540 0.8553 0.8567
2610.000000 0.8581 0.8596 0.8612 0.8627 0.8643
2605.000000 0.8657 0.8672 0.8688 0.8704 0.8717
2600.000000 0.8732 0.8740 0.8750 0.8758 0.8767
2595.000000 0.8774 0.8784 0.8792 0.8802 0.8810
2590.000000 0.8818 0.8827 0.8835 0.8843 0.8850
2585.000000 0.8857 0.8865 0.8871 0.8878 0.8886
2580.000000 0.8893 0.8900 0.8909 0.8916 0.8924
2575.000000 0.8931 0.8938 0.8942 0.8947 0.8950
2570.000000 0.8954 0.8958 0.8962 0.8967 0.8971
2565.000000 0.8973 0.8976 0.8977 0.8980 0.8983
2560.000000 0.8987 0.8988 0.8992 0.8994 0.8995
2555.000000 0.8995 0.8994 0.8992 0.8990 0.8988
2550.000000 0.8986 0.8983 0.8980 0.8975 0.8968
2545.000000 0.8962 0.8957 0.8951 0.8945 0.8937
2540.000000 0.8927 0.8919 0.8909 0.8902 0.8895
2535.000000 0.8892 0.8892 0.8892 0.8893 0.8894
2530.000000 0.8896 0.8896 0.8897 0.8898 0.8900
2525.000000 0.8902 0.8904 0.8905 0.8907 0.8908
2520.000000 0.8910 0.8912 0.8914 0.8915 0.8917
2515.000000 0.8920 0.8922 0.8923 0.8924 0.8926
2510.000000 0.8927 0.8930 0.8931 0.8933 0.8934
2505.000000 0.8936 0.8967 0.8940 0.8944 0.8947
2500.000000 0.8950 0.8952 0.8955 0.8958 0.8961
2495.000000 0.8964 0.8967 0.8969 0.8972 0.8974
2490.000000 0.8976 0.8976 0.8979 0.8979 0.8982
2485.000000 0.8983 0.8986 0.8987 0.8989 0.8999
2480.000000 0.9005 0.9005 0.9006 0.9006 0.9006
2475.000000 0.9006 0.9007 0.9007 0.9008 0.9009
2470.000000 0.9010 0.9003 0.8996 0.8982 0.8968
2465.000000 0.8943 0.8918 0.8894 0.8871 0.8839
2460.000000 0.8810 0.8774 0.8730 0.8712 0.8642
2455.000000 0.8677 0.8669 0.8676 0.8680 0.8686
2450.000000 0.8682 0.8704 0.8723 0.8739 0.8756
2445.000000 0.8771 0.8788 0.8806 0.8824 0.8846
2440.000000 0.8868 0.8887 0.8908 0.8917 0.8928
2435.000000 0.8937 0.8948 0.8957 0.8968 0.8973
2430.000000 0.8979 0.8984 0.8990 0.8996 0.9002
2425.000000 0.9008 0.9014 0.9018 0.9023 0.9028
2420.000000 0.9032 0.9036 0.9040 0.9044 0.9049
2415.000000 0.9053 0.9057 0.9061 0.9065 0.9070
2410.000000 0.9074 0.9082 0.9092 0.9091 0.9103
2405.000000 0.9106 0.9110 0.9113 0.9117 0.9117
2400.000000 0.9120 0.9120 0.9120 0.9120 0.9120
2395.000000 0.9119 0.9119 0.9119 0.9126 0.9115
2390.000000 0.9109 0.9121 0.9118 0.9113 0.9110
2385.000000 0.9108 0.9117 0.9114 0.9116 0.9125
2380.000000 0.9122 0.9125 0.9132 0.9136 0.9142
2375.000000 0.9139 0.9145 0.9150 0.9149 0.9147
2370.000000 0.9147 0.9135 0.9131 0.9131 0.9131
2365.000000 0.9132 0.9136 0.9137 0.9140 0.9144
2360.000000 0.9161 0.9166 0.9183 0.9190 0.9210
2355.000000 0.9226 0.9230 0.9234 0.9235 0.9229
2350.000000 0.9217 0.9210 0.9210 0.9202 0.9185
2345.000000 0.9160 0.9126 0.9097 0.9073 0.9055
2340.000000 0.9037 0.9011 0.9010 0.9002 0.8979
2335.000000 0.8970 0.8977 0.8981 0.8986 0.8993
2330.000000 0.9010 0.9015 0.9019 0.9027 0.9042
2325.000000 0.9051 0.9064 0.9067 0.9071 0.9074
2320.000000 0.9078 0.9078 0.9080 0.9080 0.9081
2315.000000 0.9081 0.9081 0.9078 0.9074 0.9069
2310.000000 0.9065 0.9061 0.9056 0.9051 0.9047
2305.000000 0.9042 0.9038 0.9034 0.9029 0.9024
2300.000000 0.9020 0.9021 0.9027 0.9022 0.9018
2295.000000 0.9014 0.9010 0.9006 0.9003 0.8999
2290.000000 0.8995 0.8992 0.8977 0.8970 0.8966
2285.000000 0.8962 0.8960 0.8944 0.8939 0.8936
2280.000000 0.8933 0.8929 0.8912 0.8909 0.8903
2275.000000 0.8889 0.8887 0.8885 0.8879 0.8868
2270.000000 0.8868 0.8863 0.8856 0.8856 0.8857
2265.000000 0.8850 0.8845 0.8848 0.8851 0.8844
2260.000000 0.8844 0.8848 0.8840 0.8836 0.8835
2255.000000 0.8834 0.8818 0.8816 0.8814 0.8810
2250.000000 0.8795 0.8793 0.8791 0.8789 0.8787
2245.000000 0.8780 0.8768 0.8766 0.8764 0.8762
2240.000000 0.8762 0.8762 0.8762 0.8764 0.8766
2235.000000 0.8758 0.8755 0.8756 0.8757 0.8759
2230.000000 0.8762 0.8766 0.8770 0.8774 0.8778
2225.000000 0.8782 0.8786 0.8790 0.8791 0.8783
2220.000000 0.8788 0.8793 0.8797 0.8802 0.8808
2215.000000 0.8815 0.8821 0.8827 0.8834 0.8839
2210.000000 0.8845 0.8852 0.8858 0.8864 0.8871
2205.000000 0.8878 0.8884 0.8892 0.8900 0.8907
2200.000000 0.8915 0.8922 0.8931 0.8937 0.8943
2195.000000 0.8939 0.8957 0.8958 0.8952 0.8952
2190.000000 0.8952 0.8952 0.8952 0.8952 0.8952
2185.000000 0.8951 0.8959 0.8957 0.8951 0.8952
2180.000000 0.8954 0.8957 0.8972 0.8978 0.8981
2175.000000 0.8984 0.8988 0.8991 0.8996 0.9000
2170.000000 0.9004 0.9007 0.8999 0.9003 0.9007
2165.000000 0.9011 0.9014 0.9014 0.9014 0.9013
2160.000000 0.9013 0.9013 0.9013 0.9013 0.9013
2155.000000 0.9013 0.9013 0.9013 0.9013 0.9012
2150.000000 0.9011 0.9010 0.9009 0.9008 0.9007
2145.000000 0.9006 0.9005 0.9004 0.9004 0.9003
2140.000000 0.9002 0.9001 0.9000 0.8999 0.8998
2135.000000 0.8997 0.8995 0.8994 0.8993 0.8992
2130.000000 0.8991 0.8990 0.8989 0.8988 0.8987
2125.000000 0.8986 0.8985 0.8984 0.8969 0.8980
2120.000000 0.8981 0.8978 0.8978 0.8977 0.8976
2115.000000 0.8974 0.8974 0.8973 0.8973 0.8971
2110.000000 0.8971 0.8970 0.8970 0.8969 0.8968
2105.000000 0.8968 0.8968 0.8968 0.8969 0.8969
2100.000000 0.8969 0.8969 0.8958 0.8954 0.8967
2095.000000 0.8970 0.8957 0.8968 0.8970 0.8971
2090.000000 0.8971 0.8973 0.8974 0.8974 0.8976
2085.000000 0.8977 0.8978 0.8978 0.8978 0.8978
2080.000000 0.8978 0.8977 0.8977 0.8974 0.8973
2075.000000 0.8968 0.8964 0.8960 0.8956 0.8950
2070.000000 0.8946 0.8942 0.8938 0.8933 0.8928
2065.000000 0.8924 0.8920 0.8914 0.8910 0.8905
2060.000000 0.8901 0.8895 0.8891 0.8889 0.8896
2055.000000 0.8890 0.8886 0.8881 0.8870 0.8863
2050.000000 0.8866 0.8853 0.8843 0.8837 0.8832
2045.000000 0.8827 0.8823 0.8817 0.8812 0.8807
2040.000000 0.8801 0.8796 0.8792 0.8787 0.8781
2035.000000 0.8776 0.8772 0.8767 0.8761 0.8756
2030.000000 0.8751 0.8744 0.8743 0.8742 0.8728
2025.000000 0.8728 0.8731 0.8726 0.8720 0.8714
2020.000000 0.8709 0.8704 0.8698 0.8692 0.8686
2015.000000 0.8678 0.8673 0.8668 0.8662 0.8657
2010.000000 0.8653 0.8647 0.8642 0.8637 0.8633
2005.000000 0.8627 0.8622 0.8616 0.8612 0.8586
2000.000000 0.8561 0.8530 0.8489 0.8428 0.8382
1995.000000 0.8265 0.8261 0.8260 0.8270 0.8291
1990.000000 0.8348 0.8397 0.8440 0.8464 0.8456
1985.000000 0.8452 0.8452 0.8452 0.8458 0.8464
1980.000000 0.8469 0.8473 0.8465 0.8471 0.8475
1975.000000 0.8484 0.8497 0.8510 0.8522 0.8535
1970.000000 0.8548 0.8560 0.8572 0.8583 0.8603
1965.000000 0.8612 0.8619 0.8635 0.8645 0.8650
1960.000000 0.8656 0.8661 0.8666 0.8672 0.8677
1955.000000 0.8682 0.8673 0.8675 0.8677 0.8678
1950.000000 0.8677 0.8667 0.8667 0.8670 0.8671
1945.000000 0.8671 0.8673 0.8673 0.8673 0.8673
1940.000000 0.8673 0.8674 0.8674 0.8674 0.8674
1935.000000 0.8677 0.8678 0.8680 0.8682 0.8683
1930.000000 0.8684 0.8685 0.8687 0.8687 0.8685
1925.000000 0.8683 0.8682 0.8680 0.8704 0.8676
1920.000000 0.8674 0.8673 0.8671 0.8670 0.8669
1915.000000 0.8666 0.8665 0.8660 0.8655 0.8650
1910.000000 0.8644 0.8639 0.8633 0.8637 0.8635
1905.000000 0.8628 0.8622 0.8616 0.8610 0.8604
1900.000000 0.8596 0.8589 0.8583 0.8575 0.8569
1895.000000 0.8561 0.8553 0.8545 0.8536 0.8522
1890.000000 0.8505 0.8495 0.8487 0.8476 0.8466
1885.000000 0.8454 0.8451 0.8447 0.8435 0.8423
1880.000000 0.8411 0.8401 0.8388 0.8369 0.8353
1875.000000 0.8349 0.8333 0.8315 0.8297 0.8277
1870.000000 0.8258 0.8239 0.8219 0.8197 0.8175
1865.000000 0.8154 0.8133 0.8109 0.8085 0.8060
1860.000000 0.8036 0.8010 0.7986 0.7973 0.7951
1855.000000 0.7926 0.7905 0.7886 0.7866 0.7846
1850.000000 0.7826 0.7804 0.7781 0.7758 0.7734
1845.000000 0.7712 0.7688 0.7659 0.7628 0.7595
1840.000000 0.7564 0.7531 0.7500 0.7457 0.7409
1835.000000 0.7356 0.7312 0.7267 0.7233 0.7196
1830.000000 0.7162 0.7126 0.7090 0.7054 0.7019
1825.000000 0.6983 0.6946 0.6911 0.6869 0.6821
1820.000000 0.6773 0.6737 0.6693 0.6651 0.6609
1815.000000 0.6567 0.6525 0.6484 0.6437 0.6388
1810.000000 0.6338 0.6283 0.6227 0.6177 0.6127
1805.000000 0.6077 0.6011 0.5946 0.5887 0.5827
1800.000000 0.5765 0.5695 0.5625 0.5555 0.5484
1795.000000 0.5414 0.5344 0.5270 0.5195 0.5120
1790.000000 0.5045 0.4971 0.4890 0.4796 0.4702
1785.000000 0.4607 0.4506 0.4321 0.4145 0.4040
1780.000000 0.3934 0.3831 0.3759 0.3685 0.3611
1775.000000 0.3537 0.3468 0.3401 0.3334 0.3267
1770.000000 0.3187 0.3086 0.2985 0.2885 0.2720
1765.000000 0.2601 0.2525 0.2448 0.2346 0.2219
1760.000000 0.2093 0.1966 0.1843 0.1715 0.1589
1755.000000 0.1461 0.1335 0.1208 0.1081 0.0954
1750.000000 0.0828 0.0701 0.0601 0.0523 0.0449
1745.000000 0.0381 0.0326 0.0278 0.0227 0.0189
1740.000000 0.0159 0.0124 0.0082 0.0053 0.0030
1735.000000 0.0024 0.0021 0.0021 0.0022 0.0023
1730.000000 0.0023 0.0024 0.0025 0.0026 0.0026
1725.000000 0.0026 0.0026 0.0026 0.0026 0.0028
1720.000000 0.0035 0.0043 0.0055 0.0068 0.0089
1715.000000 0.0130 0.0181 0.0234 0.0309 0.0392
1710.000000 0.0490 0.0600 0.0741 0.1072 0.1207
1705.000000 0.1340 0.1642 0.1921 0.2157 0.2444
1700.000000 0.2729 0.3184 0.3411 0.3578 0.3691
1695.000000 0.3794 0.3881 0.3967 0.4038 0.4087
1690.000000 0.4134 0.4169 0.4205 0.4239 0.4357
1685.000000 0.4572 0.4717 0.4837 0.5008 0.5209
1680.000000 0.5458 0.5599 0.6075 0.6168 0.6254
1675.000000 0.6341 0.6418 0.6494 0.6575 0.6635
1670.000000 0.6672 0.6709 0.6745 0.6784 0.6820
1665.000000 0.6862 0.6914 0.6965 0.7009 0.7054
1660.000000 0.7108 0.7136 0.7169 0.7213 0.7245
1655.000000 0.7285 0.7330 0.7361 0.7377 0.7412
1650.000000 0.7439 0.7466 0.7493 0.7520 0.7562
1645.000000 0.7630 0.7660 0.7684 0.7721 0.7704
1640.000000 0.7704 0.7705 0.7709 0.7710 0.7712
1635.000000 0.7697 0.7668 0.7649 0.7618 0.7596
1630.000000 0.7564 0.7542 0.7504 0.7480 0.7442
1625.000000 0.7400 0.7370 0.7343 0.7351 0.7341
1620.000000 0.7362 0.7376 0.7398 0.7449 0.7517
1615.000000 0.7590 0.7636 0.7674 0.7714 0.7778
1610.000000 0.7790 0.7827 0.7864 0.7863 0.7881
1605.000000 0.7869 0.7907 0.7911 0.7935 0.7920
1600.000000 0.7945 0.7959 0.7979 0.7984 0.7977
1595.000000 0.7960 0.7943 0.7933 0.7953 0.7977
1590.000000 0.7966 0.7975 0.7968 0.7928 0.7889
1585.000000 0.7836 0.7784 0.7774 0.7726 0.7733
1580.000000 0.7731 0.7731 0.7715 0.7713 0.7699
1575.000000 0.7692 0.7699 0.7694 0.7675 0.7671
1570.000000 0.7624 0.7584 0.7543 0.7528 0.7510
1565.000000 0.7506 0.7510 0.7488 0.7450 0.7369
1560.000000 0.7349 0.7340 0.7312 0.7268 0.7263
1555.000000 0.7269 0.7308 0.7332 0.7352 0.7405
1550.000000 0.7420 0.7393 0.7322 0.7311 0.7270
1545.000000 0.7249 0.7231 0.7225 0.7208 0.7155
1540.000000 0.7095 0.7034 0.7161 0.7170 0.7182
1535.000000 0.7213 0.7194 0.7172 0.7155 0.7130
1530.000000 0.7108 0.7099 0.7095 0.7097 0.7118
1525.000000 0.7135 0.7144 0.7144 0.7150 0.7150
1520.000000 0.7155 0.7157 0.7147 0.7149 0.7149
1515.000000 0.7139 0.7136 0.7127 0.7123 0.7109
1510.000000 0.7095 0.7085 0.7067 0.7050 0.7032
1505.000000 0.7016 0.7009 0.6999 0.6986 0.6980
1500.000000 0.6973 0.6965 0.6948 0.6937 0.6926
1495.000000 0.6925 0.6910 0.6906 0.6902 0.6898
1490.000000 0.6892 0.6887 0.6905 0.6859 0.6840
1485.000000 0.6820 0.6804 0.6797 0.6795 0.6786
1480.000000 0.6761 0.6717 0.6664 0.6612 0.6575
1475.000000 0.6538 0.6493 0.6458 0.6422 0.6382
1470.000000 0.6341 0.6301 0.6255 0.6212 0.6160
1465.000000 0.6114 0.6047 0.5990 0.5923 0.5840
1460.000000 0.5758 0.5666 0.5569 0.5481 0.5416
1455.000000 0.5347 0.5274 0.5207 0.5112 0.4972
1450.000000 0.4695 0.4625 0.4560 0.4491 0.4434
1445.000000 0.4378 0.4300 0.4215 0.4086 0.3942
1440.000000 0.3802 0.3500 0.3303 0.3180 0.3039
1435.000000 0.2885 0.2735 0.2653 0.2519 0.2319
1430.000000 0.2115 0.1912 0.1708 0.1529 0.1467
1425.000000 0.1439 0.1389 0.1417 0.1442 0.1484
1420.000000 0.1539 0.1608 0.1684 0.1786 0.1883
1415.000000 0.1976 0.2115 0.2201 0.2275 0.2343
1410.000000 0.2438 0.2499 0.2539 0.2574 0.2625
1405.000000 0.2664 0.2641 0.2633 0.2618 0.2533
1400.000000 0.2477 0.2388 0.2300 0.2212 0.2056
1395.000000 0.2080 0.2106 0.2240 0.2345 0.2453
1390.000000 0.2640 0.2903 0.3079 0.3227 0.3355
1385.000000 0.3468 0.3558 0.3625 0.3684 0.3738
1380.000000 0.3783 0.3821 0.3850 0.3881 0.3910
1375.000000 0.3937 0.3962 0.3981 0.4032 0.4033
1370.000000 0.4034 0.4021 0.3978 0.3959 0.3959
1365.000000 0.3961 0.3962 0.3959 0.3842 0.2761
1360.000000 0.2571 0.2452 0.2340 0.2132 0.1835
1355.000000 0.1542 0.1249 0.0955 0.0661 0.0473
1350.000000 0.0425 0.0400 0.0363 0.0392 0.0465
1345.000000 0.0625 0.0736 0.0902 0.1226 0.3366
1340.000000 0.3562 0.3705 0.3861 0.4051 0.4359
1335.000000 0.4748 0.4971 0.5197 0.5415 0.5530
1330.000000 0.5610 0.5687 0.5750 0.5812 0.5873
1325.000000 0.5926 0.5987 0.6051 0.6108 0.6191
1320.000000 0.6322 0.6465 0.6608 0.6756 0.6905
1315.000000 0.7046 0.7189 0.7284 0.7343 0.7400
1310.000000 0.7454 0.7504 0.7554 0.7603 0.7647
1305.000000 0.7687 0.7719 0.7767 0.7816 0.7869
1300.000000 0.7901 0.7928 0.7948 0.7961 0.7965
1295.000000 0.7976 0.7978 0.7982 0.7997 0.8012
1290.000000 0.8040 0.8078 0.8100 0.8121 0.8142
1285.000000 0.8162 0.8183 0.8205 0.8224 0.8239
1280.000000 0.8255 0.8269 0.8284 0.8297 0.8328
1275.000000 0.8340 0.8353 0.8364 0.8379 0.8391
1270.000000 0.8404 0.8415 0.8429 0.8442 0.8456
1265.000000 0.8463 0.8474 0.8489 0.8493 0.8499
1260.000000 0.8506 0.8511 0.8516 0.8521 0.8527
1255.000000 0.8531 0.8534 0.8526 0.8529 0.8533
1250.000000 0.8536 0.8538 0.8544 0.8547 0.8547
1245.000000 0.8553 0.8552 0.8564 0.8578 0.8592
1240.000000 0.8607 0.8631 0.8660 0.8676 0.8680
1235.000000 0.8679 0.8678 0.8685 0.8689 0.8688
1230.000000 0.8687 0.8685 0.8685 0.8687 0.8700
1225.000000 0.8756 0.8780 0.8789 0.8796 0.8759
1220.000000 0.8792 0.8779 0.8748 0.8718 0.8692
1215.000000 0.8690 0.8689 0.8692 0.8700 0.8699
1210.000000 0.8698 0.8696 0.8692 0.8689 0.8686
1205.000000 0.8680 0.8671 0.8661 0.8652 0.8639
1200.000000 0.8623 0.8608 0.8563 0.8517 0.8460
1195.000000 0.8382 0.8323 0.8285 0.8234 0.8168
1190.000000 0.8101 0.7878 0.7391 0.7298 0.7216
1185.000000 0.7133 0.6960 0.6726 0.6516 0.6312
1180.000000 0.6121 0.5928 0.5736 0.5620 0.5512
1175.000000 0.5468 0.5453 0.5447 0.5447 0.5446
1170.000000 0.5461 0.5573 0.5735 0.5877 0.6063
1165.000000 0.6298 0.6560 0.6666 0.6737 0.6768
1160.000000 0.6776 0.6773 0.6773 0.6747 0.6711
1155.000000 0.6673 0.6634 0.6593 0.6545 0.6492
1150.000000 0.6429 0.6356 0.6261 0.6171 0.6090
1145.000000 0.6025 0.5957 0.5859 0.5796 0.5742
1140.000000 0.5717 0.5711 0.5718 0.5735 0.5752
1135.000000 0.5778 0.5785 0.5772 0.5731 0.5619
1130.000000 0.5533 0.5407 0.5279 0.5158 0.5035
1125.000000 0.4914 0.4791 0.4670 0.4227 0.3916
1120.000000 0.3136 0.3003 0.2878 0.2760 0.2623
1115.000000 0.2412 0.2182 0.1935 0.1687 0.1440
1110.000000 0.1192 0.0944 0.0809 0.0786 0.0793
1105.000000 0.0812 0.0840 0.0888 0.0943 0.1006
1100.000000 0.1096 0.1319 0.1579 0.2551 0.2960
1095.000000 0.3369 0.3836 0.4144 0.4361 0.4536
1090.000000 0.4703 0.4860 0.5009 0.5140 0.5331
1085.000000 0.5634 0.5799 0.5940 0.6040 0.6132
1080.000000 0.6248 0.6361 0.6442 0.6510 0.6575
1075.000000 0.6648 0.6726 0.6808 0.6893 0.6976
1070.000000 0.7062 0.7148 0.7232 0.7313 0.7394
1065.000000 0.7487 0.7611 0.7701 0.7789 0.7860
1060.000000 0.7927 0.7973 0.8039 0.8087 0.8116
1055.000000 0.8151 0.8177 0.8203 0.8230 0.8260
1050.000000 0.8297 0.8325 0.8352 0.8380 0.8408
1045.000000 0.8433 0.8459 0.8485 0.8501 0.8517
1040.000000 0.8536 0.8555 0.8573 0.8591 0.8622
1035.000000 0.8611 0.8604 0.8593 0.8576 0.8557
1030.000000 0.8507 0.8476 0.8449 0.8421 0.8385
1025.000000 0.8338 0.8305 0.8278 0.8259 0.8239
1020.000000 0.8261 0.8268 0.8291 0.8340 0.8402
1015.000000 0.8463 0.8525 0.8585 0.8637 0.8681
1010.000000 0.8725 0.8761 0.8785 0.8813 0.8835
1005.000000 0.8858 0.8856 0.8867 0.8877 0.8887
1000.000000 0.8894 0.8901 0.8904 0.8900 0.8904
995.000000 0.8925 0.8913 0.8917 0.8928 0.8933
990.000000 0.8933 0.8931 0.8924 0.8916 0.8902
985.000000 0.8886 0.8869 0.8834 0.8799 0.8765
980.000000 0.8732 0.8698 0.8662 0.8625 0.8581
975.000000 0.8532 0.8471 0.8367 0.8270 0.8235
970.000000 0.8206 0.8179 0.8144 0.8080 0.8023
965.000000 0.7973 0.7953 0.7957 0.7963 0.7968
960.000000 0.7974 0.7979 0.7979 0.7979 0.7977
955.000000 0.7975 0.7969 0.7960 0.7951 0.7881
950.000000 0.7728 0.7576 0.7425 0.7273 0.7121
945.000000 0.7078 0.7085 0.7096 0.7140 0.7218
940.000000 0.7290 0.7350 0.7413 0.7490 0.7546
935.000000 0.7556 0.7567 0.7564 0.7543 0.7511
930.000000 0.7481 0.7449 0.7417 0.7384 0.7353
925.000000 0.7315 0.7279 0.7244 0.7245 0.7247
920.000000 0.7252 0.7256 0.7267 0.7261 0.7271
915.000000 0.7272 0.7266 0.7262 0.7261 0.7262
910.000000 0.7254 0.7245 0.7244 0.7240 0.7231
905.000000 0.7230 0.7225 0.7216 0.7220 0.7235
900.000000 0.7295 0.7344 0.7394 0.7432 0.7454
895.000000 0.7477 0.7502 0.7517 0.7539 0.7560
890.000000 0.7567 0.7576 0.7586 0.7589 0.7596
885.000000 0.7594 0.7598 0.7593 0.7570 0.7552
880.000000 0.7535 0.7510 0.7491 0.7479 0.7465
875.000000 0.7449 0.7435 0.7432 0.7430 0.7434
870.000000 0.7439 0.7447 0.7478 0.7531 0.7572
865.000000 0.7620 0.7679 0.7732 0.7798 0.7818
860.000000 0.7863 0.7891 0.7905 0.7889 0.7854
855.000000 0.7831 0.7810 0.7823 0.8078 0.8174
850.000000 0.8284 0.8398 0.8475 0.8477 0.8476
845.000000 0.8474 0.8459 0.8467 0.8478 0.8498
840.000000 0.8500 0.8499 0.8459 0.8446 0.8584
835.000000 0.8632 0.8687 0.8716 0.8754 0.8784
830.000000 0.8815 0.8847 0.8865 0.8878 0.8891
825.000000 0.8909 0.8935 0.8958 0.8977 0.8977
820.000000 0.8981 0.8981 0.8981 0.8976 0.8975
815.000000 0.8957 0.8939 0.8922 0.8901 0.8946
810.000000 0.8960 0.8985 0.8990 0.8987 0.9000
805.000000 0.9019 0.9027 0.9030 0.9031 0.9031
800.000000 0.9031 0.9031 0.9024 0.9016 0.9009
795.000000 0.9001 0.8980 0.8968 0.8959 0.8961
790.000000 0.8936 0.8920 0.8908 0.8889 0.8870
785.000000 0.8851 0.8829 0.8794 0.8762 0.8720
780.000000 0.8668 0.8623 0.8567 0.8513 0.8472
775.000000 0.8430 0.8388 0.8339 0.8292 0.8252
770.000000 0.8210 0.8159 0.8112 0.8074 0.8038
765.000000 0.7992 0.7962 0.7931 0.7915 0.7900
760.000000 0.7887 0.7872 0.7874 0.7899 0.7954
755.000000 0.8031 0.8111 0.8175 0.8222 0.8271
750.000000 0.8303 0.8330 0.8355 0.8384 0.8411
745.000000 0.8437 0.8461 0.8483 0.8504 0.8525
740.000000 0.8546 0.8566 0.8588 0.8606 0.8624
735.000000 0.8642 0.8660 0.8676 0.8693 0.8707
730.000000 0.8733 0.8746 0.8760 0.8773 0.8791
725.000000 0.8813 0.8827 0.8842 0.8860 0.8874
720.000000 0.8884 0.8886 0.8886 0.8892 0.8893
715.000000 0.8892 0.8906 0.8915 0.8919 0.8921
710.000000 0.8921 0.8924 0.8924 0.8926 0.8928
705.000000 0.8928 0.8931 0.8946 0.8946 0.8951
700.000000 0.8964 0.8965 0.8973 0.8967 0.8967
695.000000 0.8971 0.8978 0.8974 0.8973 0.8969
690.000000 0.8964 0.8960 0.8965 0.8962 0.8955
685.000000 0.8947 0.8940 0.8945 0.8939 0.8928
680.000000 0.8923 0.8901 0.8913 0.8921 0.8946
675.000000 0.8956 0.8943 0.8941 0.8937 0.8943
670.000000 0.8972 0.9083 0.9160 0.9074 0.9004
665.000000 0.9002 0.9003 0.8950 0.8898 0.8839
660.000000 0.8779 0.8743 0.8700 0.8677 0.8659
655.000000 0.8553 0.8592 0.8600 0.8602 0.8619
650.000000 0.8621 0.8621 0.8645 0.8663 0.8665
645.000000 0.8681 0.8692 0.8697 0.8713 0.8728
640.000000 0.8742 0.8749 0.8745 0.8742 0.8753
635.000000 0.8763 0.8758 0.8763 0.8767 0.8765
630.000000 0.8774 0.8786 0.8788 0.8799 0.8802
625.000000 0.8815 0.8831 0.8829 0.8841 0.8836
620.000000 0.8832 0.8832 0.8836 0.8825 0.8806
615.000000 0.8800 0.8793 0.8784 0.8791 0.8796
610.000000 0.8795 0.8793 0.8791 0.8778 0.8765
605.000000 0.8758 0.8750 0.8742 0.8735 0.8726
600.000000 0.8719 0.8712 0.8702 0.8690 0.8679
595.000000 0.8668 0.8656 0.8644 0.8633 0.8622
590.000000 0.8611 0.8600 0.8589 0.8572 0.8557
585.000000 0.8548 0.8530 0.8519 0.8508 0.8497
580.000000 0.8488 0.8477 0.8467 0.8446 0.8432
575.000000 0.8422 0.8423 0.8415 0.8403 0.8393
570.000000 0.8383 0.8373 0.8361 0.8336 0.8327
565.000000 0.8319 0.8294 0.8264 0.8244 0.8223
560.000000 0.8203 0.8181 0.8159 0.8136 0.8113
555.000000 0.8086 0.8058 0.8032 0.7992 0.7965
550.000000 0.7937 0.7904 0.7874 0.7840 0.7800
545.000000 0.7762 0.7724 0.7672 0.7609 0.7545
540.000000 0.7463 0.7382 0.7308 0.7223 0.7132
535.000000 0.7015 0.6900 0.6798 0.6688 0.6599
530.000000 0.6519 0.6310 0.5987 0.5662 0.5343
525.000000 0.5022 0.4697 0.4372 0.4049 0.3724
520.000000 0.3399 0.3074 0.2750 0.2426 0.2101
515.000000 0.1776 0.1718 0.1741 0.1748 0.1837
510.000000 0.2078 0.3313 0.4324 0.4581 0.4749
505.000000 0.4946 0.5202 0.5462 0.5663 0.5808
500.000000 0.5940 0.6021 0.6103 0.6185 0.6277
495.000000 0.6369 0.6447 0.6505 0.6576 0.6658
490.000000 0.6734 0.6793 0.6853 0.6903 0.6950
485.000000 0.6998 0.7036 0.7064 0.7090 0.7117
480.000000 0.7142 0.7165 0.7187 0.7202 0.7219
475.000000 0.7228 0.7234 0.7240 0.7246 0.7251
470.000000 0.7255 0.7261 0.7264 0.7268 0.7267
465.000000 0.7267 0.7259 0.7250 0.7243 0.7235
460.000000 0.7228 0.7220 0.7212 0.7201 0.7190
455.000000 0.7171 0.7156
##END=
