##TITLE=Acetonitrile
##JCAMP-DX=4.24
##DATA TYPE=INFRARED SPECTRUM
##CLASS=IUPAC A
##ORIGIN=NIST, Anayltical Chemistry Division, 301-975-3108
##OWNER=COPYRIGHT (C) 1998 by the U.S. Secretary of Commerce
##DATE=98/10/1
##$SPECTRA VERSION=1.00
##$UNCERTAINTY IN Y=2.0 % relative (B=1.0E-04,C=3.1E-10,D=2.7E-14)
##CAS NAME=Nitrile-Acetic Acid
##CAS REGISTRY NO=75-05-8
##MOLFORM=C H3 C N
##MP=-45.72 C
##BP=81.6 C
##$NIST SOURCE=QUANT-IR
##SPECTROMETER/DATA SYSTEM=IFS66V (Bruker)
##INSTRUMENT PARAMETERS=KBr Beam splitter; MCT Detector; Multipass cell
##STATE=gas
##SAMPLE DESCRIPTION=Acetonitrile Primary Gas Standard
##PRESSURE=101.3 kPa
##TEMPERATURE=23 C
##SAMPLING PROCEDURE=1 L/min Flow
##RESOLUTION=1.9290
##DATA PROCESSING=Triangular Apodization
##XUNITS=cm-1
##YUNITS=(micromol/mol)-1m-1 (base 10)
##XFACTOR=1.0
##YFACTOR=5.6843E-14
##DELTAX=0.9645
##FIRSTX=574.687
##LASTX=3974.595
##FIRSTY=-1.37E-07
##MAXX=3973.63
##MINX=574.69
##MAXY=.0000843
##MINY=-4.05E-07
##NPOINTS=3527
##XYDATA=(X++(Y..Y))
574.69-2412714-3890448-4360160-4271408-3756918-3596964
579.51 229952 1108320-2754018-7141762-6209436-4629916
585.29-4749312-1449148-1632856-2710416-5213426-6592344
591.08-4668272-2581692-2607586-3181898-3628374-5193332
596.86-3703442-2496528-3619784-2983602-1147588-1973272
602.65-3572880-4376554-4718578-3136278-1417126 269594
608.44-1430440-3963528-3062636-2011534-3239678-3537906
614.22-3683854-2974722-633972-820466-1074462-1365266
620.01-3046870-3816800-2984922-1319510-1077364-1891610
625.79-892088-358920-1825772-1938976-903348-1099906
631.58-1332256-842678-1176164-1847058-2203454-2246578
637.36 12454 87272-784870-816408-609366 200248
643.15-730314-489440 465512 455500 1160848 1003374
648.93 222878-148476-226214 1178938 1787172 1163670
654.72 305710 78316 488620 241872 753436 860004
660.50 449578 1366528 1726772 2321578 3097572 3274386
666.29 4995006 4456912 3612420 4720308 4334036 4200566
672.08 4852432 5071316 5324574 6676696 6441774 6607324
677.86 8707962 9368630 10995740 13109640 14123940 16665850
683.65 20999540 24753800 28544900 32846550 37585650 43141870
689.43 50489790 57581910 64859080 73309040 81096330 88412220
695.22 96143710 102723200 108093900 112852900 118211100 122014200
701.00 122128400 121185600 118215400 113536500 109409700 102686100
706.79 94069050 89513850 83811540 69726470 65484010 79530910
712.57 69701100 44918600 54396800 98669380 93705220 62799090
718.36 64769550 71681090 79345900 85158280 91626140 95736000
724.14 98761920 100149200 100017100 99187770 96715340 93393700
729.93 89910420 85010050 80147320 74941380 69232070 64229530
735.71 59291580 52962440 47318310 43017340 39487340 35747360
741.50 31087150 26706610 23419450 20037870 17208300 14797210
747.29 12111000 10319020 9218930 7979836 6516566 4939018
753.07 3506966 2917968 2492904 1640184 902404 340196
758.86 119096 78170 20104 43298-754410-1962436
764.64-1581828-798912-842322-1762770-1613076-534170
770.43-1359386-1850410-1637434-1699926-1661994-1305306
776.21-1160654-1994132-2051350-1903612-1751174-1424382
782.00-1845488-1888414-1677100-1031412-1122988-2065800
787.78-2580892-2474466-1974716-2115858-2610720-2666664
793.57-1708212-1295040-1745618-2349862-3002992-2809360
799.35-1822392-2069944-2297670-2363332-2575680-2381298
805.14-2706806-2559098-3010302-2824372-2229294-2407520
810.93-2010902-2509320-2447198-2240500-2628046-2623186
816.71-1886362-1809494-2490716-2381606-1979884-1612982
822.50-1910064-1734598-1848182-2075060-1819628-1674170
828.28-1552888-2305468-2331910-2592254-2706758-1581960
834.07-2090424-2192420-1754002-2323984-2653716-2350000
839.85-2087360-1749812-1224658-1073302-1598620-2387574
845.64-2448034-2206680-2524054-1927114-1173696-1433018
851.42-1526382-1726048-2382892-1736654-1466816-2220084
857.21-2166258-1922734-2067874-1717928-1497662-1522612
862.99-1192106-1487534-1507486-1225022-934602-1182954
868.78-1399532-1217462-792700-550918-230782 127148
874.57 348486 1176476 2074804 2480114 2697830 3387764
880.35 4467842 5314452 6383268 7820554 9296656 11142270
886.14 13308850 15679220 18217320 20792830 23896830 27487800
891.92 30659120 34368520 37877330 41692640 46266660 51434650
897.71 56586480 60959750 65896330 70639980 75005010 79213630
903.49 82339980 85214490 87320570 88372580 88926640 88753760
909.28 87545740 85380820 79880150 73946140 66850340 59833030
915.06 52061560 46698860 44798360 71972050 91780560 48687860
920.85 24178250 30332590 44517480 56291550 50605450 52779580
926.63 61488270 69136000 72278380 74049460 76777820 77927040
932.42 77114150 75129240 72150210 68366040 63977120 58888370
938.21 53735320 48682640 42929460 37272920 32343720 27598200
943.99 22974170 18653000 15408510 12666930 10012100 8135584
949.78 5877738 4220042 3313246 2485388 1891138 1125854
955.56 801944 335580 124632 472808 709868 572064
961.35 261630 478592 820104 1652038 1970086 1923572
967.13 2280630 2583380 3139710 3050576 2824902 3637842
972.92 4266764 4924870 5365442 5602364 6695358 8037838
978.70 10085200 10633300 9829044 10374270 11108350 13259390
984.49 14813210 14259680 14839790 16675180 19046070 19863980
990.27 20931940 23261480 22524480 32348250 37292470 25760100
996.06 25681800 27333250 33423540 44152720 35453220 35848640
1001.85 39056480 40676160 57048220 52411370 42686050 40635340
1007.63 43183340 89307430 99586410 59152150 50212180 50333960
1013.42 72336160 92792430 67062060 55459940 68623250 79321120
1019.20 107008500 99519240 65663100 75117540 67260210 130225700
1024.99 208311000 126521600 72730910 69879030 70335690 134310400
1030.77 146217600 81875350 75607140 75189130 103464400 164252300
1036.56 135964300 94804860 86858860 74082870 188144300 277247600
1042.34 140978300 80920740 89000090 83857500 152896600 159542300
1048.13 87956950 84752220 86610910 92634860 154982500 139884500
1053.91 80225970 95592940 98405850 123697300 218374200 169603000
1059.70 77970990 82874250 83345880 96706510 126774000 101270100
1065.48 65529650 73699100 73192980 81825100 106516400 84961460
1071.27 62801840 64069280 59527680 94356030 117707000 77241060
1077.06 57938680 59087360 53768580 53508470 59403190 66455680
1082.84 53161460 40001490 38778070 39385990 48621050 53605400
1088.63 40528500 31835560 30393290 30186280 41072350 50308690
1094.41 34892000 22943970 21589430 19557260 21211480 25430770
1100.20 23948150 19311580 17638490 17186310 17800340 18363410
1105.98 17276330 13909090 12463990 11617670 10687600 11982190
1111.77 13088770 9791884 7615696 7240532 6211288 6312566
1117.55 6427820 5375128 5019206 4987022 4219428 4005144
1123.34 4242818 3780300 2685652 2330566 2313070 2345144
1129.12 2471874 2251872 1496432 919074 797466 994972
1134.91 1096246 965748 689610 355540 419758 661178
1140.70 659282 434164 556690 459076 137134 126452
1146.48 22376 233684 476634 119104-47968-230504
1152.27-265306-150940-267324-433570-405078-279632
1158.05-486392-596268-504762-301082-556730-809152
1163.84-367450-347136-563414-286308-281466-393166
1169.62-494004-460364-402520-627920-512600-500080
1175.41-707596-522614-664490-805290-748264-822812
1181.19-740156-915996-883980-707202-701572-605240
1186.98-700570-576260-376188-579938-653380-295304
1192.76-41168 259678 155600-314898-294194-181006
1198.55-306358-97950 35404-87486-61122-27604
1204.34 80916 56204-103698-18520 356746 482256
1210.12 162656 137394 313426 408900 1064146 1462652
1215.91 912272 331580 668272 1082710 963178 485478
1221.69 7364-62430 271032 560318 460062 793080
1227.48 865124 450150 328422 370000 680748 564072
1233.26 649914 940304 733144 1171102 2060654 3729326
1239.05 3833466 2471550 1845610 1544976 1702172 1561392
1244.83 1366682 1472288 1414458 1238850 1475928 1948258
1250.62 1882854 2913904 5469312 4977018 3279360 3007444
1256.40 3455020 4565816 4132420 2985360 3311212 5993460
1262.19 6924996 5048080 4590422 5018600 7624150 9493356
1267.98 8084866 7853116 8056976 8472154 9273910 9303722
1273.76 8973960 8710806 9561536 10562500 11227120 11493950
1279.55 14109310 23370240 23809000 17439870 18253460 28286470
1285.33 29922850 22103330 17712060 12925860 10453950 10046320
1291.12 10281710 12438010 14733390 33684090 41327710 24941400
1296.90 19489110 17927820 17843860 18577220 19530570 19214840
1302.69 17151970 18660170 18619970 17343650 19545600 40899410
1308.47 55855240 37954200 27150920 26140590 25466130 27302470
1314.26 28972790 30986000 31111010 29382330 28477220 30032790
1320.04 32614350 47402620 80553890 74499260 52670740 49943700
1325.83 51667580 55582810 56144850 56236090 61340050 73107720
1331.61 59889330 41315610 45348610 72160890 159812500 170101100
1337.40 92820990 68076060 56502700 51888460 52300330 53100860
1343.19 56265420 61668030 65261730 59733410 63905470 89268820
1348.97 151200000 163830800 113590600 87401660 96400940 136216000
1354.76 113327500 78416900 82591690 89424910 103831800 116303000
1360.54 130208100 158348800 201866600 214041900 172660900 151153900
1366.33 173689500 203592800 224476800 241636700 267147100 274234300
1372.11 274081200 296477700 322862800 399444500 509098700 498209800
1377.90 365968400 272175400 247036900 236825500 250519900 263624000
1383.68 285704200 314710800 332434400 342370500 340045100 348155500
1389.47 352348200 344077600 370334300 438473300 478856400 473061400
1395.25 455185000 438131700 428732600 426429400 452160200 440512000
1401.04 390582400 367188500 357591400 349254100 398460900 549632300
1406.83 581969900 495162200 452644100 415333000 375504300 353842500
1412.61 332591100 315856300 338841100 382138100 365175800 323372000
1418.40 363681700 744141400 1040533000 922251100 695982800 509306900
1424.18 397530700 321433100 292325500 270601100 254323000 250861400
1429.97 245865800 259871700 268665800 427138900 717549100 632615600
1435.75 419800600 363894500 336949200 302352900 269815800 255440200
1441.54 264938700 386165400 437439600 325661000 285562800 296146000
1447.32 517929600 745234400 544666600 344877600 309923700 331782600
1453.11 317771600 269321300 282615100 308662800 277326600 257316300
1458.89 251997700 310312200 433464700 1179376000 1484351000 727540500
1464.68 397317800 360695700 323090600 310147200 309860800 304432600
1470.47 274094000 278148500 278509900 300429700 344707600 328751000
1476.25 316438200 516229800 649776400 464288000 451551000 758706800
1482.04 722739300 433115500 324621500 273656600 268543300 256651600
1487.82 242575100 239082200 243179800 267550600 291359100 273391500
1493.61 354953200 515254800 406046300 321642000 504260600 474465400
1499.39 302229200 270588200 239874800 219553400 212176900 213910800
1505.18 209935300 220706500 241043400 233573900 207836600 213468500
1510.96 192430800 414491700 782030000 541699600 230968600 206769500
1516.75 202195300 247728600 248647000 206579500 190961700 234882600
1522.53 241552100 184812900 179398800 213759800 492573800 571614500
1528.32 281605000 164125500 152129800 174396200 223087900 261738200
1534.11 211701800 171036000 181990900 188482200 191836500 184266100
1539.89 269239400 292930600 175201700 123372100 115336600 115082500
1545.68 118483800 116708500 107698800 109025900 121067000 112308600
1551.46 87523740 136555100 208987700 161774200 99598100 83909940
1557.25 88196460 97333380 100699100 88038310 75213860 81723640
1563.03 94992060 79147910 99177540 195640600 154696200 67207420
1568.82 60189860 50219320 46803040 60005000 74935100 72605310
1574.60 80779420 91314530 99458280 101855000 103470200 87897230
1580.39 59518460 50464240 47568930 44105040 42184940 45501150
1586.17 46265220 43697960 44386070 40419340 46334440 55907180
1591.96 39272840 26837310 24783970 23412060 21565940 19179010
1597.74 21790470 25644920 32299500 31657760 28703380 42540970
1603.53 38561150 19861850 15739560 14236910 13254500 13361790
1609.32 12814060 15039740 18555340 19409840 19106040 21468440
1615.10 31721040 29462630 15627340 12038410 10855590 10188880
1620.89 9555248 12980740 17326060 13780980 11036690 11888200
1626.67 13238240 9918006 6610960 6428974 5641194 5776942
1632.46 5575492 10225570 18688050 14624520 8914592 8338318
1638.24 7375494 5667364 3911602 3772056 3558236 3193454
1644.03 7359032 14034960 12912250 11102430 8170716 6209394
1649.81 6421998 16421790 31512880 25614590 12332300 5846770
1655.60 3240698 2838570 2411044 2333374 2546380 3395472
1661.38 6407668 5635428 2075762 1776256 1876030 1642438
1667.17 4043000 8766480 6698396 4808578 4340924 1873754
1672.96 2866480 8682986 7914074 2002156 1314152 1590690
1678.74 3018464 2960052 2660554 5821286 12529990 22408340
1684.53 15255010 2720130 2653470 2620456 2622514 2205886
1690.31 1547730 1429452 2697786 3109494 14450340 20444230
1696.10 8356592 3693260 8984792 20616870 17301970 5444990
1701.88 3009390 4259158 5058162 5492582 5264750 2626154
1707.67 1874074 1968278 2280446 1744856 2174460 3033462
1713.45 6577114 6913918 8368322 16810380 14097420 6898020
1719.24 3699830 2914070 2962314 3021476 3112932 2606262
1725.02 2854118 2975952 3186274 3992822 5655218 5378822
1730.81 5245148 11372250 18680610 17439220 8765610 4524406
1736.60 4961672 6343116 11335740 10355050 5748538 6047612
1742.38 6336938 5375574 5312780 5605586 5389692 6651368
1748.17 6809002 7043154 11690980 9582500 5088772 4879428
1753.95 4547996 6108408 7853280 6235294 5564828 5508106
1759.74 6674476 10101330 8061494 5380364 5324174 5156428
1765.52 5131086 7883710 9482534 6276158 6725692 9621556
1771.31 14479020 12744380 6248736 6301112 6299572 5446076
1777.09 5709644 5831970 6510728 6749100 5726588 5075614
1782.88 5639444 6897144 6386322 5692456 5393164 5113722
1788.66 6012284 7390076 9108920 12121360 9347420 5924822
1794.45 6461862 6369516 6059630 6251180 7953032 8189396
1800.24 7881142 7982292 7584464 7423246 7507458 7705520
1806.02 8000040 8248398 8367776 9368264 10064680 9306130
1811.81 9098004 9332692 9454818 9529038 9871410 10259840
1817.59 10477910 10399010 10404110 10678210 10723680 10556770
1823.38 11664510 12516800 10311440 9105886 9509158 11438500
1829.16 13437830 11657960 8787486 8041520 8376004 8032072
1834.95 8304278 9559222 10368530 10478840 11545460 12503220
1840.73 12214110 11933240 16175210 17435720 12692790 11374440
1846.52 11742790 11294750 10613110 10371880 9875470 9384310
1852.30 8655436 8018088 7951664 7598430 7184608 6815558
1858.09 6557552 6566730 6471992 6032466 5631438 5370450
1863.88 5787034 6046494 5974322 6336840 7524050 7598326
1869.66 5171574 4234076 4243236 3944952 3913812 3648888
1875.45 3425636 3651724 4162404 4768224 4472468 3880824
1881.23 3994410 3936584 3919804 3942276 4030050 4436742
1887.02 4594526 5656466 6348966 5318626 5108962 5514020
1892.80 5385698 5622326 5900754 5708780 5809796 6135526
1898.59 6417272 6625918 6798600 6744118 6835078 7037502
1904.37 6913268 6034816 5362328 4726054 4070692 3991500
1910.16 3578172 3324066 3653894 3638936 3733892 3816720
1915.94 4577844 6575462 5255730 3407718 3225116 2898962
1921.73 3097608 2784548 2493840 2533178 2339524 2179076
1927.51 2118620 2108992 2223500 1890176 1609442 1577494
1933.30 1473434 1287970 1152476 1253068 1424178 1495748
1939.09 1511312 1707196 2597700 2559270 1263996 926206
1944.87 1037390 1045146 905378 893102 980414 866720
1950.66 962980 1189236 1036788 697494 821704 789826
1956.44 681512 868290 939592 810164 620692 584800
1962.23 310704 268194 465390 621868 1036682 953432
1968.01 558128 382578 250280 371690 646152 704240
1973.80 249618-29506 233718 285816 242858 479370
1979.58 608860 426756 272696 258552 252090 174936
1985.37 431750 1154188 984672 322088 300418 665470
1991.15 810088 409302 233502 52860-45506 27068
1996.94 8182-65966-98526 62510 181122 455274
2002.73 448618-52556 135144 417298 128142 42706
2008.51 78084 121310 14300 91572 315268 196806
2014.30 64782 494640 748838 261446-277926-263652
2020.08 67686 227572 277404 566808 616258 490462
2025.87 393800 188100 306240 216572 283676 570254
2031.65 713556 709526 607614 679974 680574 649174
2037.44 1021778 1044340 829800 1289362 2211502 3006292
2043.22 2530812 2197582 2612278 2839774 2824078 2865080
2049.01 3002258 2878532 3746116 4807262 5078220 5443826
2054.79 5626902 5899840 6348040 6602226 6571942 6917126
2060.58 7636920 7799310 7707568 7632836 7415450 6898816
2066.37 6365312 6113458 5773182 5423012 4543030 3232018
2072.15 3187762 5538122 6447082 6295272 6734236 6132340
2077.94 6683190 7595288 7803082 7730232 7621186 7352692
2083.72 8137048 9338654 9182156 8388028 7842602 7839512
2089.51 7670934 7332394 7118532 6433874 5343142 5037166
2095.29 5419102 5216298 4694146 5494470 5110030 3415810
2101.08 3238724 3086718 2275076 1481428 1000622 1440640
2106.86 1891112 1582386 998316 905910 1090776 752828
2112.65 720620 831060 864480 396098 282878 1538742
2118.43 1725710 692658 573752 938186 885790 527630
2124.22 584628 533388 539246 505790 190454 394638
2130.01 916966 877374 481732 528770 619500 789460
2135.79 1180392 1485848 962294 576740 703002 771620
2141.58 634306 514020 665502 591094 448024 435442
2147.36 472536 370934 302754 252150 444866 715180
2153.15 907746 745020 1364322 2405696 1593270 832880
2158.93 774020 908980 1228584 1006518 757554 959366
2164.72 1147380 985944 754512 880912 868774 818560
2170.50 1050194 1136972 727092 522346 1464712 2074174
2176.29 1271836 742016 1011908 1266360 1207250 1238870
2182.07 1249606 930088 1041186 1390676 1536596 1164184
2187.86 1219122 1794058 1709860 1562608 1751500 1837200
2193.64 1881286 2201976 2245976 2236810 2079760 1983170
2199.43 2255770 1954656 1810778 2100702 2221318 2410170
2205.22 2351144 2114588 2094232 1972984 1871128 1928834
2211.00 2262252 2658038 2748496 3522544 4127984 3487042
2216.79 3312560 3689696 3877750 4298508 4994026 5798334
2222.57 6614342 7045822 7852020 8932606 9495696 10389660
2228.36 11875000 13355870 14753610 16448910 18206700 20439460
2234.14 22842590 25076780 27759700 30642700 33724140 37134090
2239.93 40558790 44040000 47739040 51353460 54996030 58683680
2245.71 62124780 65394320 68447280 71482980 73761060 74620390
2251.50 75180090 75397920 75215090 76578800 75279270 68201800
2257.28 63209400 59574040 59623990 68543990 59649210 42467710
2263.07 40473410 50160220 93439000 92460200 52264650 52646270
2268.86 62533300 72097740 81915800 91412500 99802540 106314200
2274.64 111252200 114793800 116852500 117566800 116891500 114888300
2280.43 112327000 109171000 105758000 101888400 97457220 92838860
2286.21 88631430 84962050 81843930 78834970 75440320 72945620
2292.00 71159790 67625070 63130350 60532660 57858410 53134630
2297.78 50065400 48993550 45362040 38846030 39164930 45694740
2303.57 66255400 84483770 77456570 70028990 73104820 77598480
2309.35 79884460 83847660 88276780 89257740 88541620 87645170
2315.14 86659640 84821560 80870000 75873740 70555640 65003630
2320.92 59174390 53299290 47901010 43247310 38609630 34672660
2326.71 31185200 28173630 25964330 24078630 22222610 20409840
2332.50 18852060 17717030 17030840 15894830 14640890 13960660
2338.28 13438600 12998980 12290480 11142740 10832210 10509470
2344.07 10480020 10137640 9112274 8739200 8218968 8226058
2349.85 8558100 8688448 8948980 9528438 10816860 11142940
2355.64 10751610 10899050 10952400 10968940 11055370 11509530
2361.42 12045410 12807180 13364770 13306600 12917560 12279200
2367.21 11936050 11616550 11723630 12757780 14781930 15567630
2372.99 13508600 11967100 12193330 13015010 14122840 16301300
2378.78 18065560 15731360 13687780 14121750 14491830 14764190
2384.56 16078870 19467790 20175130 17357610 15882550 15749070
2390.35 17595480 20557220 23468070 24238670 20638480 18775620
2396.14 19819390 22764740 29213610 36258810 30143530 19854140
2401.92 18701980 20816240 23646590 25860270 24489900 20497800
2407.71 22949940 25489650 25117170 28035780 28195210 24447410
2413.49 23011480 27011200 31934340 39257960 39281530 26105300
2419.28 21415670 23799970 25004310 26314080 25483430 21867430
2425.06 22671550 24505500 25942300 27058300 27401040 26517580
2430.85 25352440 23105060 24587040 26211120 21246650 23777270
2436.63 32142050 30811770 20513330 18092330 20218840 22115370
2442.42 22559880 20239250 19399430 19218370 18796680 18917610
2448.20 17174520 14823340 13905460 13149700 13496240 15058510
2453.99 15461550 15668650 16849990 17726520 16277920 14821850
2459.77 14922270 17368520 20135260 18374140 15650300 14790600
2465.56 14695160 15232650 15954610 15514860 15850950 18290570
2471.35 17843430 15945700 16419230 18046060 17444390 16353910
2477.13 16717420 16766460 17153900 20082390 21107810 18686560
2482.92 17662800 17489860 17368870 16848390 16635150 16346590
2488.70 15824450 18697650 22965170 20541940 16685030 15508360
2494.49 14620390 14018020 14093830 13937070 13142760 12801950
2500.27 14174300 16822960 16951970 15182940 13554770 12646980
2506.06 12759700 13066730 13162700 12873690 12524780 13131240
2511.84 14486990 14703860 13044430 11489430 10779850 10401060
2517.63 10117610 9963674 10950530 13896100 14215090 11764360
2523.41 10613560 9766974 9298272 9480638 10003890 10052620
2529.20 10080570 10209910 9732986 9751144 9959062 8900896
2534.99 7966902 8082666 8064584 8223946 8212526 7900168
2540.77 8526678 9019910 8766670 7740262 6426140 6256856
2546.56 6423960 6867034 6918172 7074802 6979356 6789360
2552.34 7589930 8992068 8491214 6743250 6228212 6117666
2558.13 6287272 5905316 5489536 5672852 6063100 6267246
2563.91 6889838 6998198 6079752 4915274 4429980 4500650
2569.70 4558322 4792456 4696748 4786100 5139520 5426250
2575.48 5490022 5081968 4869382 4630282 4779802 5212804
2581.27 5583380 5670740 5903998 6610998 7555162 8415726
2587.05 8077076 7625134 7879850 8620168 9711842 10736090
2592.84 11408110 12008990 12549790 13462440 14764990 15603660
2598.63 15915740 17031340 18611880 19437660 20077850 20662530
2604.41 21613460 22407180 25048470 27797180 28985970 31061980
2610.20 31851140 32204990 32440390 34450380 40133620 42949690
2615.98 46188290 48131680 49223130 53523920 54259800 63026320
2621.77 64921520 55305350 46611640 37318070 30372560 24818280
2627.55 23326300 23388120 23638110 23287530 22809740 22659580
2633.34 22368720 22174270 21708260 20446480 19057520 18052000
2639.12 16785790 15320250 14099530 12744230 11353060 9777754
2644.91 8342282 7656596 7341510 7007706 6115524 5431884
2650.69 5333700 5071510 4834746 4529888 4546160 4851932
2656.48 5051764 5106964 5214816 5505156 5907770 6910870
2662.27 7991634 8657196 7658020 6306014 5750524 4810560
2668.05 4249446 4337672 3932740 2843246 2223750 2434518
2673.84 3647934 4903414 5244306 4615096 3817992 3766718
2679.62 4018778 3776146 3399290 3329204 3332402 3379822
2685.41 3236642 2930800 2951416 2683648 2671294 3036456
2691.19 2809770 2728048 2535032 2172512 2048106 1871484
2696.98 1906108 1384102 899912 1231532 1513460 1954778
2702.76 1859562 1986884 2354666 1871414 1780750 1297326
2708.55 1301848 2058372 2452564 2436310 2031992 2116868
2714.33 1969058 1997384 2709712 4085240 4960092 4054216
2720.12 3377252 3935760 4302650 4313866 4592320 4730906
2725.91 4772796 5544426 6192980 6037002 6362486 6808534
2731.69 7443788 7646140 7171736 7243040 7375708 7333732
2737.48 7308132 7020750 6656498 6816880 7150402 7357006
2743.26 7900628 7661052 7161122 7049984 7311146 7720480
2749.05 8290264 9173912 9361808 8946828 8844948 9981370
2754.83 11356790 12238270 12994550 12557620 10908240 9986218
2760.62 9211822 8548998 8113774 7150874 6576064 6657176
2766.40 6567282 5599008 4880488 4333842 3950164 4179388
2772.19 4067678 3878132 4007710 4007232 3594314 3596792
2777.97 3899118 4300938 5205492 5407540 4751194 4030762
2783.76 3786828 3188816 2754052 2731822 2966768 3352062
2789.54 3152608 3537004 4875602 6741024 8934862 8339346
2795.33 5421006 3865504 3012320 2602578 2428166 2869828
2801.12 3938632 4363704 4456664 4544828 5144904 6258552
2806.90 7609340 8860832 7552144 5982596 5212226 3494948
2812.69 3132930 5014434 6258810 5701256 5655548 6079430
2818.47 6555620 7276856 8304296 10142140 10195180 8302580
2824.26 8185534 9587224 10112500 9645178 9042336 8936154
2830.04 9361780 9550246 11363570 12841940 14749750 16061910
2835.83 17413990 22201350 20696420 15255140 12482230 12946760
2841.61 16307980 19325990 21729290 23918790 25921070 27551580
2847.40 30419800 32251150 32812840 34022320 36887900 38941900
2853.18 38240480 38225760 38593790 38429020 37816590 38286260
2858.97 39303950 37966250 35640200 33511600 34605220 36452040
2864.76 38713010 47421730 58584110 64354270 55136540 49837480
2870.54 52307220 53399220 57321700 61798420 65851970 69200670
2876.33 73279460 75300490 75688550 75338950 74101260 72568440
2882.11 70377220 65732280 58817140 52747370 48611460 47620420
2887.90 47882860 46507910 45636030 47773410 50542460 49971130
2893.68 48517870 47155250 46607700 48238040 50275640 50947660
2899.47 51588390 52729540 53277450 52064370 51251920 51828890
2905.25 51349860 51107570 49583680 46703960 46209870 46145400
2911.04 43367480 42325470 43447030 40849460 39590900 39593990
2916.82 38552040 39780800 41078360 41638930 44102810 45078750
2922.61 42719040 40928060 39399930 41320410 52229400 66479990
2928.40 73937100 75000240 80196620 84928080 88685580 95749940
2934.18 104371200 112720200 125622000 138448400 143998400 149426000
2939.97 151505700 153150000 155946800 157408000 162094800 164116300
2945.75 162795300 148167800 125076000 107700000 95606100 83897780
2951.54 92216760 129061700 147869900 121737900 88138470 93026850
2957.32 90234580 96306860 117491000 127654700 141470500 152216700
2963.11 159146300 170698600 200004700 207734500 187822600 177597000
2968.89 170929600 165150100 157722200 150639300 141922200 143781700
2974.68 166210000 150404800 112834200 98810710 87986700 81261190
2980.46 73155740 70986060 66367220 109223800 176186200 123906300
2986.25 59832220 47216540 38188340 35559540 34160480 40539940
2992.04 45682870 89096750 114809900 67276380 39663810 37582500
2997.82 38452990 39658760 40409880 42587660 60357700 121205000
3003.61 115720000 57802790 44183000 38697010 39367410 37163340
3009.39 42934560 49706710 134777700 231782500 143893000 59351390
3015.18 46363180 38659530 41173320 40698800 44654910 57946660
3020.96 125472500 133343800 67480900 47073340 40884780 36002840
3026.75 36398490 43446370 47007450 89169690 138432700 90471980
3032.53 46776640 40967230 37383850 36778510 37002070 39701750
3038.32 74636590 190481500 176815200 70399690 48334070 42386770
3044.10 40908020 40593360 43722120 49519610 93212770 111232500
3049.89 63499730 41984840 40088860 37622250 33830840 34744800
3055.67 39714680 67337900 95442450 63336980 35377500 31343580
3061.46 30255330 32009780 33630220 34834210 72130780 106252100
3067.25 72847380 40288350 28481660 26833660 30483600 31823880
3073.03 32294140 42967730 62354720 49544120 29725930 26711280
3078.82 24328750 24152440 23961830 24352290 32707490 46102120
3084.60 36939450 22184030 19225300 17554060 17065950 18600760
3090.39 20287090 29412090 45648170 34100480 17317190 14863090
3096.17 12925240 12844940 14037820 16618620 21835040 26256850
3101.96 20804680 15613040 14376590 12796740 11107300 9570640
3107.74 11468200 16558850 16908800 13030140 11115470 9964582
3113.53 8663450 8062534 7806934 9331302 13406630 12213780
3119.31 8204030 7543978 7223324 6679288 6652176 6782542
3125.10 7352300 7935296 7708980 7528532 7323424 7125240
3130.89 6470210 5191704 4637018 7022402 9078614 8894454
3136.67 7982972 8245468 9055350 9614620 10287050 10326450
3142.46 10789450 11329640 11239560 11201680 12369070 14141930
3148.24 15566930 16436280 17385760 18484110 20215660 22190310
3154.03 23035780 24477460 26594120 28150140 29762800 32500890
3159.81 34350630 35787230 37880110 39219830 39959910 40498240
3165.60 41356020 41856220 40919930 40006610 38975190 37194150
3171.38 34563080 31927060 28584080 25870280 24944370 32706130
3177.17 46221670 41078890 27959030 21190630 21086730 26651740
3182.95 34292470 42803410 49780070 55838110 60842560 65264070
3188.74 68134710 70057860 70261590 68401360 65132460 60793230
3194.53 56103150 51106890 45503560 39529170 33403160 28280110
3200.31 23956470 20494810 17965240 16054020 14463080 13263490
3206.10 12269950 11485950 11749880 11423350 10396700 10329430
3211.88 10233160 9171980 8851760 11306460 13674900 14274420
3217.67 14624590 14187080 14255040 15448220 16728120 17142640
3223.45 17817800 18231600 18295840 18628730 17899250 16955970
3229.24 16183100 14430590 13104120 11760710 10181830 9945490
3235.02 9019592 7391528 6499648 5835666 6027916 5308676
3240.81 4464942 5334906 4949172 4299324 4114180 3836644
3246.59 3975332 3558178 3010246 3384230 3888616 3945366
3252.38 3515414 3113968 3611502 3906698 4054092 4127572
3258.17 3339740 3489908 3567212 2690802 2930376 3449836
3263.95 3335264 3538724 4088374 3875190 3138526 3027030
3269.74 3314588 3702518 4093704 3898600 3415606 3041138
3275.52 3090664 3251784 3206892 3566546 3699372 3362400
3281.31 3013920 3091856 3559902 3797630 4249046 4139560
3287.09 3861320 4032802 4090096 3871044 3688032 4216636
3292.88 4434220 4136504 3619658 3764162 3844430 3664524
3298.66 4152922 4355384 3826594 3765600 4239840 4743054
3304.45 4645912 3756466 3959216 4299660 4653398 5651656
3310.23 5594610 5519462 5066672 4341350 4169546 4494524
3316.02 5642958 6340942 7269056 6548990 5700134 5872396
3321.80 5132424 4870982 5124092 5054936 5392140 5744808
3327.59 5559546 6543098 7558668 6535044 5268096 5256958
3333.38 5322264 5339942 5841308 5781862 5785918 6249940
3339.16 6151248 6046812 5461928 5198528 5442910 5831636
3344.95 5927526 5811480 5935174 5405790 5545826 6031964
3350.73 6244674 6262612 6163244 6002082 6609936 7296018
3356.52 7079164 6546968 6224292 6713376 7013414 7042832
3362.30 7047796 7259000 6619752 5738146 6068322 6495036
3368.09 5951732 6075224 6985988 7152212 6352892 6014998
3373.87 5907616 5969168 6369194 6639590 6874238 6415748
3379.66 6422590 7317840 7337948 7195350 7132554 7066240
3385.44 7328076 7055486 7245954 7674530 7100710 6433572
3391.23 7316130 7598086 6075850 5622290 6205132 6499798
3397.02 6320544 5857318 6060274 5901266 5619332 6077972
3402.80 6066974 6162326 6757728 6808420 6123068 5846234
3408.59 6191212 6020328 6549992 6448192 5909006 5963166
3414.37 6361960 6034300 5232958 5379792 6034738 6353278
3420.16 5977832 6015870 6123424 6249276 5331860 4673984
3425.94 4821676 4622432 5056224 5412374 5256974 5649806
3431.73 5318770 5340026 5382476 4693658 4411528 4705920
3437.51 5261746 5052066 4699082 4788052 4803792 5023710
3443.30 5014568 4481398 5168526 5849370 5044354 4840350
3449.08 5082224 5067084 4974164 4828012 4941014 5010490
3454.87 4212446 3564394 4604504 4908408 4458678 4493940
3460.66 3867406 3409820 3946634 4288162 3732622 4063420
3466.44 4498986 3612050 3905080 4382578 4333522 4079288
3472.23 3827182 3892700 3731052 3984650 4037580 4510082
3478.01 4337760 3925156 3925646 3710632 3583226 3814374
3483.80 4391100 4189544 4264792 4368264 4013196 4358548
3489.58 4429034 3451838 3473250 4716460 5164066 4369756
3495.37 4462638 4693460 4245548 4530334 4559338 4381386
3501.15 4369192 4572358 5063332 4852680 4250110 3732768
3506.94 4361094 5679466 5716548 4535446 3895120 4317882
3512.72 4563828 4805286 4707440 4815286 5058944 5109074
3518.51 5473040 4840432 4181332 5000682 5906434 5515428
3524.30 5001866 5400832 5845770 5390234 5557838 5785020
3530.08 5099696 4667920 5016288 5759186 5616124 5567058
3535.87 5987334 5966272 5807834 5672294 5909684 5697278
3541.65 5453564 5495090 5452878 6069426 6430680 5914180
3547.44 4942036 4970502 5651178 5750274 5938312 5848448
3553.22 5411860 5761122 5824592 5394692 5212280 4958984
3559.01 5285602 5406010 5132420 5888138 6502886 6633022
3564.79 7821248 8013022 8261136 7844680 5541622 4536890
3570.58 4498478 5065942 5613406 5578346 5138046 5140126
3576.36 5157588 5070554 5812054 5668020 5268560 5320970
3582.15 5560288 6407192 6344556 8206224 8957096 8778896
3587.94 9153464 6555314 5669340 5368742 5443264 5749930
3593.72 6195796 6659292 6284064 6115774 5929818 5832022
3599.51 6466558 6618566 6341522 6201718 5771266 5629552
3605.29 7054232 7554812 8723152 12271000 9562472 6901002
3611.08 9413746 9774218 8188630 8556438 7831496 8767146
3616.86 10133930 10975610 12082080 9433994 7964128 7882308
3622.65 7762758 7782928 8785012 8922530 11325650 16865390
3628.43 18145830 12916900 8934136 8815382 9229540 9396634
3634.22 8730088 8529946 8828124 8976284 8737772 9120252
3640.00 9244850 9606050 10015820 9523192 9464424 11231060
3645.79 15372290 15977720 19062640 20927190 17330550 15060120
3651.57 11497970 10975720 11074880 14183480 17085070 12792350
3657.36 10410650 10218400 10291510 10578050 10536530 10313540
3663.15 9969886 10008810 10282320 9910262 12801990 14193560
3668.93 17202410 21162300 13450460 10160510 13361850 18843500
3674.72 24037930 18801710 12117730 12051550 13431130 12593510
3680.50 11812910 11354800 11002010 11224040 11081710 10352240
3686.29 13352340 22392210 18003380 11784290 14208680 11277540
3692.07 8575526 8041058 8190860 8674934 8662302 8407432
3697.86 8661858 8878990 9245076 10596870 9828048 8048200
3703.64 7977576 7933484 7975848 8425952 9814066 11820860
3709.43 9852528 13537220 17738640 11250140 7852248 7901620
3715.21 8069318 7930574 8212198 8530752 7917670 8677076
3721.00 10413180 9423154 8191382 9202158 10430990 10498580
3726.79 8415998 7251740 7303884 7808594 13530850 14211560
3732.57 9762944 12648900 14255190 15593400 13304330 9520384
3738.36 8700412 8387948 9967954 9650308 13324420 28567680
3744.14 26189970 10904030 9232260 11132030 20612260 19809840
3749.93 13183020 22397440 19409420 9492256 8278652 8721856
3755.71 9909358 8830268 9142650 11254390 9837336 7362224
3761.50 7405076 7416210 7824874 10026000 9657506 7894174
3767.28 7801768 10340140 11664810 8256458 6928562 7139352
3773.07 7446920 7643776 7350048 7172484 7113752 9128932
3778.85 9893546 7649854 7077436 7361464 7587300 7895016
3784.64 7957884 7234468 7160776 7934034 7471870 7111022
3790.43 7427508 7493244 7502656 7689570 8903272 11185680
3796.21 10204470 8444552 7933660 10371760 19765120 18343560
3802.00 10038310 9507810 8940970 11219660 17125590 13426570
3807.78 7840704 7932492 7704344 7597674 7195966 8003296
3813.57 9569494 18970640 20443460 10700380 8886248 9749308
3819.35 13693920 17438020 13348060 8952876 8414826 8448722
3825.14 9956472 10497500 8940524 8608010 8570346 10478240
3830.92 11866420 8947046 9516460 13109410 11185660 13166750
3836.71 22194480 16858810 10624310 12611980 11234760 9866890
3842.49 11151930 10530990 8926006 8350344 8504460 8783948
3848.28 9875002 9767860 16488790 22151140 22498730 31748170
3854.07 22079650 10710150 11406740 10019510 9981266 9583150
3859.85 10613460 12142580 11206720 11969730 16349970 14440470
3865.64 10326300 10382330 12379440 18782180 18220490 11898300
3871.42 9938050 11348530 13365750 11036320 9709562 9737888
3877.21 9287296 10428180 13419850 13010960 10214670 10479450
3882.99 10234700 14376810 17418510 11666940 9073560 10546670
3888.78 10993490 13755500 14672200 10830470 9782758 9959330
3894.56 10536210 11253240 10910160 13027740 15282220 12634790
3900.35 15341810 16254590 14055570 16471110 14790540 13230350
3906.13 12205240 11356910 12074330 12775920 12925720 12281530
3911.92 12835940 14201600 14213480 14626360 18070760 17147080
3917.70 13895230 14813250 15682010 14844400 14220430 15250640
3923.49 16394270 15809330 14008610 12885820 13821320 15408340
3929.28 15043170 15277410 16759990 15782280 14813630 14944030
3935.06 14329100 13765800 14471320 15813060 15414810 14325630
3940.85 14917730 16048700 16417860 17803730 16512220 14611100
3946.63 14943940 14627030 16169030 15992310 15154480 15355790
3952.42 17388630 21920460 17829800 13876460 14803560 14857090
3958.20 15250480 14802040 17975500 18174220 15004200 15352140
3963.99 16073810 16262060 20689190 21621520 16626280 15201430
3969.77 15685850 15106390 22685110 27514930 18840250
##END=
