##TITLE=Acetonitrile
##JCAMP-DX=4.24
##DATA TYPE=INFRARED SPECTRUM
##CLASS=IUPAC A
##ORIGIN=NIST, Anayltical Chemistry Division, 301-975-3108
##OWNER=COPYRIGHT (C) 1998 by the U.S. Secretary of Commerce
##DATE=98/10/1
##$SPECTRA VERSION=1.00
##$UNCERTAINTY IN Y=2.0 % relative (B=1.0E-04,C=3.1E-10,D=2.7E-14)
##CAS NAME=Nitrile-Acetic Acid
##CAS REGISTRY NO=75-05-8
##MOLFORM=C H3 C N
##MP=-45.72 C
##BP=81.6 C
##$NIST SOURCE=QUANT-IR
##SPECTROMETER/DATA SYSTEM=IFS66V (Bruker)
##INSTRUMENT PARAMETERS=KBr Beam splitter; MCT Detector; Multipass cell
##STATE=gas
##SAMPLE DESCRIPTION=Acetonitrile Primary Gas Standard
##PRESSURE=101.3 kPa
##TEMPERATURE=23 C
##SAMPLING PROCEDURE=1 L/min Flow
##RESOLUTION=0.9640
##DATA PROCESSING=Happ Genzel Apodization
##XUNITS=cm-1
##YUNITS=(micromol/mol)-1m-1 (base 10)
##XFACTOR=1.0
##YFACTOR=11.368E-14
##DELTAX=0.4820
##FIRSTX=575.169
##LASTX=3975.077
##FIRSTY=-2.51E-07
##MAXX=3974.59
##MINX=575.17
##MAXY=.0001327
##MINY=-6.62E-07
##NPOINTS=7053
##XYDATA=(X++(Y..Y))
575.17-2209180-2419678-1596276-2559278-2501746-1573194
577.58-3122340-1522776-759726-3772886-1770810 1447318
580.47 2494182 1261444-780942-1014154-1999102-4744704
583.37-5830090-3701610-555608-1898036-4344262-2865482
586.26-1423702 407934 249614-1311334-1173852-759478
589.15-1214478-3195252-4584210-3426520-2751146-3334364
592.04-1716238-86710-1131242-1681062-1090340-1744618
594.94-1835472-1352898-1991258-3889520-3036656-1539636
597.83-964390-892182-1415902-2427970-2163344-1471052
600.72-1009976-157786-87856-435804-2054392-2205166
603.61-1918806-2015910-2702314-3448800-2403698-729284
606.51-1238304-1585052 373672 1214652 488686-749902
609.40-2027874-2394132-2361030-1772466-1165618-84756
612.29-1094734-2454418-1964648-1702224-1811780-1936668
615.18-2464610-1950946-782498 430866 105294-428964
618.08-847418-635696 127026-588094-1296938-1725116
620.97-1976762-2382802-2489082-1178410-1253854-799330
623.86-84472 54294-1071098-1720336-897832-17232
626.76-84926-106128-93232-1136698-1763814-1446644
629.65-320408-60632-769272-535070-637922-810868
632.54-803308-418840 51196-639546-1221564-871582
635.43-1398604-800604-1467280-2209150-801642 656324
638.33 944630-102102-739946-297272-633538-207710
641.22-666210-895562-26916 899966-6602-1252548
644.11-629978-164336-202552 429978 372726-90544
647.00 80360 864784 880626 605218 96148-359602
649.90 236060-133708-696810-304756-299254 827610
652.79 1270928 851328 672112 677234 366810-166402
655.68-293120-191826 2068 357840 60404-163128
658.58-239056 400874 593670 385390 26478-328526
661.47 86900 766884 882222 651686 538312 790592
664.36 1663022 1761344 996464 1191700 1988488 2708128
667.25 2895584 2633044 1124012 587832 2489054 2874666
670.15 1926128 1711494 1914568 1768662 2007402 2144176
673.04 2226548 2696226 2096600 1752084 2807908 3667672
675.93 3274442 2725012 2472306 2562464 3264448 4434706
678.82 4787424 3768046 3935956 5391806 6124254 5966140
681.72 6323502 6803132 6371802 7626558 8831510 10383670
684.61 11309040 11807470 12774180 14061740 14868150 16092930
687.50 17021800 18350720 20095010 20695770 22660580 25648810
690.40 27266070 28579910 30318850 32628750 34451350 37337570
693.29 39276010 40819640 43059020 44928180 46538790 49093490
696.18 51189560 52416600 53547500 55404000 56335550 57450230
699.07 58883310 60522730 61957200 63457070 63040270 62204530
701.97 62026060 62748150 62047700 60047090 58800830 58453000
704.86 56594690 55595340 54784720 52699030 49536220 46719400
707.75 44822450 45132880 46102270 43144280 37356830 34403980
710.64 30319040 27625890 32546130 46557090 48434270 33217370
713.54 22577450 18443560 17289530 18538670 30879820 64096590
716.43 71494060 44842800 31562130 28407620 28812530 30297160
719.32 33192300 35491610 38172780 39966020 41171750 42741690
722.22 45121310 46740990 47996610 48775550 49875360 50274480
725.11 51071380 51502500 51294320 50746550 50930520 50995190
728.00 50469440 49148120 48291190 47544190 47003230 45895470
730.89 44517030 43117680 41987080 40500040 39406320 38127740
733.79 36483800 34635380 33563890 32316710 31346690 30179750
736.68 28216670 26463190 24790740 23303730 22362320 21447440
739.57 20317220 19697800 18934420 17889480 16808130 15293830
742.46 13913280 12991910 12324890 11266500 10637100 9862506
745.36 8718630 7972196 7876230 7389092 6238746 5294762
748.25 5231038 4806704 4497560 4182194 4149304 3873760
751.14 3306180 2851586 2726362 2134300 1845026 1069446
754.04 1167368 1351846 1032644 1038770 871122 557440
756.93 245178 204276 130014-340008-68826-172422
759.82-303816-103386-64176-316342-118182-56234
762.71 13626-499434-1092036-1549280-1356824-962546
765.61-780590-403394-183774-622860-777488-941906
768.50-1482504-1359164-534124 311786-174844-1258134
771.39-1299120-879028-951076-1109038-860906-1032604
774.28-904122-1019828-990546-746810-422114-455532
777.18-903806-1299676-1216168-1370398-937228-888940
780.07-1223458-1171920-743730-474106-765770-1396612
782.96-1162804-830178-943126-1277740-809956-185320
785.86-383876-609830-652690-1290798-1587876-1179172
788.75-1478484-1781110-1051030-687882-1071544-1352884
791.64-1104466-1317390-1717014-1747714-1247042-654694
794.53-567714-665524-722944-777776-1098022-1392638
797.43-1375588-1673958-1846592-1813576-1139244-632882
800.32-691802-1259272-1424996-1086682-1113672-1314694
803.21-1226838-1673324-1320198-908872-1304512-1746186
806.10-1497832-1104254-1319720-1609012-2031118-1851158
809.00-743020-865852-1651800-1413496-917592-1058416
811.89-881522-1378800-1913172-1124080-917608-1233802
814.78-1266732-1559474-1436552-1404192-1439876-1028294
817.68-403310-848358-1272228-1566566-1439860-1148124
820.57-1107290-1313302-1003092-280544-924710-1452540
823.46-972226-767212-709960-1064196-1315372-1041798
826.35-979188-1109334-825732-869470-904624-624482
829.25-712772-1495986-1631448-1135010-1030098-1230802
832.14-1915352-1897840-949560-411744-648858-1233526
835.03-1690044-1213280-625326-768640-1405624-991480
837.92-1284442-1929778-1386362-1072080-1095334-1327878
840.82-1214006-717258-700814-919476-413508-219048
843.71-706354-997712-1008152-1250476-1662382-1543994
846.60-979524-1078416-1382278-1484728-1543786-1113736
849.50-505064-505076-694796-720648-977630-829816
852.39-679728-962548-1169876-1328922-1746512-1001820
855.28-85054-728868-1373230-1249546-1334302-1144960
858.17-1203700-1185962-765136-1257028-1522638-945544
861.07-415118-949598-1123016-888776-767916-507154
863.96-633326-1163216-988492-799804-813354-884814
866.85-759120-273678-516156-1025012-845278-836262
869.74-929392-874130-778900-530856-303620-621438
872.64-548112-223510-145886-119420-217958-186074
875.53 205798 240362 625426 1064770 990626 944760
878.42 1080352 1099102 1041930 1383520 1707686 1971368
881.31 2318756 2301132 2434052 2925794 3258080 3606266
884.21 3922978 4330334 4700688 5261800 5788918 6312736
887.10 7005936 7511830 8228082 8871316 9406108 10289850
889.99 10703430 11500990 12854600 13754710 14354140 15084770
892.89 15971320 17152360 18274620 18688380 19578020 20724220
895.78 21955110 23118020 24336150 25734590 27418040 28795240
898.67 29671780 30484480 32026480 33408130 34714800 35939090
901.56 36879610 37947660 39444550 40639160 41016810 41949060
904.46 42798470 43434270 44186950 44685840 44997830 45029130
907.35 45269430 45431900 45597310 45494890 45072140 44642100
910.24 44538900 44265330 42701990 40387810 38906840 37663610
913.13 35921460 33518520 31563760 29703570 27609890 25607450
916.03 23233970 21349820 20053870 19943650 22374810 32171330
918.92 53838180 66898100 41123260 14074110 8992794 8866264
921.81 10064710 12094230 15577210 20888130 29243370 33136210
924.71 26776520 22271790 23832880 25979280 28190650 30727300
927.60 33657280 35823610 37179980 36784340 36730980 37679580
930.49 38700440 39316500 39971780 40044880 40013280 39566680
933.38 39030060 38445180 37902290 36895190 35879230 34865720
936.28 33852630 32622050 31285330 29841920 28461490 27115850
939.17 25945640 24659410 23182210 21516520 19976290 18373930
942.06 17252170 16111830 14811960 13467160 12434900 11184810
944.95 9966026 8814562 7891884 7140110 6823816 5976744
947.85 5016010 4467012 4104166 3689434 3295400 2381854
950.74 1737278 1531552 1545870 1295760 905618 697624
953.63 828386 681550 274906 95388 67412 6086
956.53 98778-226684-423552-530498-30920 27466
959.42-109230 10702 368176-9040-250304-252692
962.31-205734 3702 59150-124308 335782 689418
965.20 928988 794482 585746 666368 838450 854746
968.10 1043492 991514 1132062 1398340 1631236 1387216
970.99 897662 819304 1472870 1580328 1677432 1979708
973.88 2075918 1976450 2664368 2532614 2275418 2324634
976.77 2771660 2980698 3500318 3867566 3955490 4826868
979.67 6504746 5007978 4371212 4793106 4752716 4532964
982.56 5311792 5256842 5160216 6340894 8025920 7242764
985.45 7014452 6965376 6594660 6536788 7868260 8448180
988.35 8007756 8948378 11690070 9355230 7859420 10905720
991.24 12354560 10143880 11558420 11061940 10038020 13699730
994.13 25416460 24137600 12266440 10354150 11253780 12029140
997.02 13176140 13777760 12637080 13177700 21106460 29713800
999.92 21498530 14124240 13494240 17308570 21498350 20575420
1002.81 16819680 15907260 21734760 37195460 35094130 21814290
1005.70 21159000 21984430 19709170 17269110 17639770 17124000
1008.59 20008600 46512280 82758960 55671460 31111620 27733320
1011.49 23150100 22291130 22189810 22795780 26150240 29837110
1014.38 49487600 65622140 40483880 26160160 25085550 25576740
1017.27 26577510 32110290 41661270 39271400 33556720 61774630
1020.17 80073950 47066680 30030490 28011770 31912620 36204840
1023.06 35215950 31243270 28581510 38108700 116876600 172201300
1025.95 89007620 42888420 39829450 34276500 30193870 30126910
1028.84 28824130 29058880 32229320 70014860 116634100 86298060
1031.74 44584360 31967530 31208140 35288510 35133960 36668830
1034.63 36355810 34826220 63054840 124651800 101150500 45626500
1037.52 49881690 56902630 42320900 29816470 31945170 33027780
1040.41 37206460 61518480 177577700 232820700 101832200 35499790
1043.31 34565350 42463820 40744500 36301440 37975040 37922000
1046.20 38321560 75540880 132285300 97739250 41904140 33687980
1049.09 33350630 41700800 46614220 40974410 35364930 38650230
1051.99 48893760 93446270 118629700 70071300 35187520 33019600
1054.88 35456610 44074680 56302180 51012860 37696800 48674070
1057.77 76193060 150961800 161508700 71437600 36392380 33282610
1060.66 33245190 35848000 43195510 42221640 38434660 43288560
1063.56 52459360 83224620 78349100 41230120 31961690 30184050
1066.45 30247580 33315960 40531100 37961530 33754580 32192750
1069.34 46283110 74281890 59809900 32307500 30847340 30998250
1072.23 31563090 29150760 28255500 27042930 29598840 38880760
1075.13 76100740 79678580 47610040 33556930 26955340 26359340
1078.02 29789210 30531440 26559940 25694300 25373170 25981830
1080.91 26658480 29598560 31663770 39719610 35760880 23324740
1083.81 19910900 18935530 18284900 17805960 18332140 18661750
1086.70 20442870 23263910 29068350 33958430 24412920 17168390
1089.59 16177170 15542210 14500310 13729280 13650860 14005710
1092.48 15591100 19284350 25717530 34120620 25553780 13324600
1095.38 11363080 10949970 10434020 9678958 9487708 9028066
1098.27 9155780 9578964 11086300 13894710 15131960 11560290
1101.16 9776544 9346746 9013784 8240880 7953862 8066784
1104.05 8926068 8824674 8703640 9088810 10060880 8977606
1106.95 7393670 6436898 5947480 5989260 5969018 5514468
1109.84 5076694 4871022 5173996 5525934 6688662 7936610
1112.73 6270962 3889766 3653456 3457886 3512570 3569334
1115.63 3125580 2551568 2711680 2998526 3190524 3291728
1118.52 2919828 2367762 2125792 2157190 2676638 2478068
1121.41 2080968 1812280 1738440 1798534 2021838 1891732
1124.30 2158726 2026708 1358058 874944 974296 1090900
1127.20 902852 878854 1118142 973502 1074202 1133752
1130.09 1203672 1121370 862558 483974 394930 260152
1132.98 118296 190802 318426 287592 467660 487662
1135.87 436998 279928 333288 315468 84462-209744
1138.77 117244 40384 91628 290506 262452 228008
1141.66 252536-45656 31660 184482 427336 75220
1144.55-123294-25228-56738-75280-90346-137522
1147.45-92332-120376 191364 345860 141894-200168
1150.34-166400-113996-16654-320922-428498-263568
1153.23 6948-243210-321034-73838-286236-453472
1156.12-325712-374342-212704-144646-291518-396920
1159.02-406884-446564-397262-411616-287010-185566
1161.91-136310-431818-582364-606902-557012-174196
1164.80-16808-314006-414664-457454-393666-142616
1167.69-86516-292156-316996-234616-284758-431480
1170.59-346076-374446-247554-210448-356498-495826
1173.48-474668-369672-178504-315954-440918-598048
1176.37-448242-196594-323882-517116-439532-613702
1179.26-528422-335626-473746-678980-550210-253102
1182.16-479140-735084-625388-529608-459518-487220
1185.05-380800-521124-461682-328506-358318-505644
1187.94-624452-306860-222904-335876-236978-384874
1190.84-541336-540408-388788-206082-62320-198948
1193.73-101924 206594 202202 15598-185184-327178
1196.62-345716-311522-161534-117998-220604-388628
1199.51-258494-146190 3352-45746-107334-235348
1202.41-141740-75042-173656-151176-64724-73436
1205.30 5220-45008-162562-232206-137682-227396
1208.19-49956 109804 288864 185498 32894-15558
1211.08-136296-170096 38152 136352 11166-43608
1213.98 122980 516428 879094 708264 588384 463202
1216.87 125596-182086-124822 316470 551594 403328
1219.76 466426 531188 327050 82300-83608-210184
1222.66-191316-250678-238168 64020 179060 182758
1225.55 211132-1708 30292 356234 572706 299354
1228.44 239674 26572-66198 56686 92712-188648
1231.33 111640 399292 212324 108380 43626 3860
1234.23 372868 569006 229156-76658 134396 546480
1237.12 648436 601650 1268950 2156216 2532762 2163848
1240.01 1269938 988476 996458 709802 571438 552772
1242.90 577406 734022 850766 596938 396450 524052
1245.80 545892 569902 569068 556586 481036 325176
1248.69 376926 422636 754668 966296 675098 546438
1251.58 855082 912568 1540482 3800520 3656266 1915518
1254.48 1826046 1385600 1131532 1247002 1252096 1327984
1257.37 1886990 2390386 2544640 1966478 1234444 1039576
1260.26 1163822 983608 1432020 3304828 4392822 3557134
1263.15 2728602 2166858 1925760 1743392 1987144 2187654
1266.05 2441326 3044916 5488538 5754240 3898174 3514426
1268.94 3630692 3863696 3810202 3700448 3697232 4085390
1271.83 4360614 4469910 4612792 4588556 4325268 4189264
1274.72 4054458 3962388 4006992 4395566 4836296 5222138
1277.62 5189772 5122860 5235960 5476246 5381666 5445834
1280.51 7356862 14411400 16696050 11414100 9023636 8327612
1283.40 7545338 7110752 9308742 16466210 20235670 15740600
1286.30 12337240 10847790 9871296 8800692 7213390 5489674
1289.19 4627480 4244434 4587580 4107636 4057040 4177516
1292.08 4894316 5125916 5810284 5918872 6971682 15126820
1294.97 32232160 27262670 12260490 10610440 10965660 8919892
1297.87 8010798 8280560 8352202 8316042 8583648 9025686
1300.76 8942168 9456856 10019880 9830916 8234348 7137902
1303.65 7945190 9231202 9370574 9050358 7872658 7044484
1306.54 6880460 7297300 10467360 19367370 32111130 38890620
1309.44 25815800 14146220 13994780 13575360 11691640 11828560
1312.33 12100730 11892950 12373110 12809020 13583410 14320260
1315.22 14546910 14964530 15580060 15939510 14651910 13193380
1318.12 13349040 13404340 13286890 13360740 13697210 14657620
1321.01 16121880 19475610 28890870 50549610 57266720 35632620
1323.90 24416740 26114780 25731130 22431980 22652760 24892780
1326.79 28104720 28071230 26830600 27125340 28367230 27606420
1329.69 27220580 27815520 33059170 43638750 40825910 26478220
1332.58 19792650 16087450 15805180 16909500 20964010 28881380
1335.47 47724310 87166200 133502300 109950800 50840580 35454920
1338.36 39127380 34296020 25454280 24585030 24693610 24148240
1341.26 23694620 24193510 24420620 25058940 25650950 26441830
1344.15 27103130 29887690 32743880 32750280 29649430 26717840
1347.04 25451610 26453440 31644470 39838770 55565650 82193610
1349.94 103453400 102966600 68123060 43553930 46792200 45394110
1352.83 35343060 32574730 56697910 91828260 78898340 49264020
1355.72 36807210 34677520 35627950 37054110 39188690 41971260
1358.61 45341690 49715860 53293940 57364440 59270470 60551430
1361.51 66913620 77900760 91587140 105343100 116735400 120744200
1364.40 104091900 78382590 67624370 68757800 73988180 83294660
1367.29 93335380 102484100 108650800 113267600 115253300 118547000
1370.18 127288900 137695400 142527400 138593600 131896600 133239100
1373.08 139378800 146295400 153305800 161042000 162582800 193474200
1375.97 250649700 285325600 292678700 275481300 239630600 176585700
1378.86 135238300 126193800 123031300 118869800 111178000 108538100
1381.76 116582800 122935100 126423400 128833600 132191400 137530800
1384.65 151072600 165221500 161332700 162220400 176201100 177403200
1387.54 168165600 167263100 171551800 173576900 178849300 179804900
1390.43 168762700 167315800 168330200 174570300 200738700 230199000
1393.33 243108600 250693300 249030200 241080200 236870900 230876400
1396.22 224290400 219658400 215824800 214348500 214625600 210594700
1399.11 210894000 235955400 248595300 224877700 203047000 190883000
1402.00 184445400 179967000 176832700 173769000 169895800 166989900
1404.90 166700300 174322300 225264000 313234600 340157500 309588000
1407.79 275060800 246250700 231488800 229532300 221807400 207791100
1410.68 193830600 182715200 176724700 174887800 170896000 160894900
1413.58 152712700 148990700 149544600 160760000 182617600 196237400
1416.47 200758400 183005600 151586400 140160800 137414200 141015400
1419.36 173333800 376726300 630570500 613257600 507750600 516366600
1422.25 467894700 327581300 275064000 260515500 224171200 182809100
1425.15 161596100 148656900 144477200 138465600 134229100 127264700
1428.04 123772100 119320000 119641700 117596100 116816700 115707600
1430.93 118113600 115864700 119017100 125363300 131538600 152459500
1433.82 311748300 489295100 441898100 313189000 237952300 208114300
1436.72 182905500 161745400 173514000 178883000 156930800 137436700
1439.61 137849600 132617400 119350100 115682000 117644000 116382100
1442.50 128779900 196076400 275425800 247545000 186473600 147694200
1445.40 131839800 125228900 128933600 129402300 142362900 221118000
1448.29 417112900 502717000 377169600 252999800 192070800 159763100
1451.18 141621600 135503800 147174800 174782500 181033300 154106500
1454.07 134955900 125422300 122158500 125988200 156757600 167231200
1456.97 144450500 126387500 123650900 116144400 112999400 104417000
1459.86 112956100 126894700 143416700 174324900 245699100 556696400
1462.75 1168000000 1026723000 499406200 289873600 204098800 171419400
1465.64 162923900 166874000 158803300 155615700 149319900 144708300
1468.54 141964900 156574600 159462900 149900200 135541100 130228700
1471.43 128596400 131851500 136397300 138555300 132743900 132713400
1474.32 159187500 193686700 179920800 151168600 129141500 142288500
1477.21 170309400 223340400 393522000 432134300 274661100 184694400
1480.11 181301500 197731000 234975800 465313800 568004200 382325700
1483.00 243439500 206657400 177757600 147089200 130857000 124480100
1485.89 125755600 132022300 130938300 123300200 117966200 115547200
1488.79 114594400 114897500 114740200 115092000 117300800 130064400
1491.68 148872900 147317900 134524200 130817600 129928000 137544000
1494.57 233651800 352711800 286053700 178896700 132450700 129492600
1497.46 171315100 296972100 359296000 255545900 158837000 127391200
1500.36 137191400 139467200 123651500 111594600 107532700 106993300
1503.25 103052800 99897350 101848200 105963700 105716800 98271580
1506.14 101480600 106183000 111260200 129540400 127958500 110955000
1509.03 101918300 100241100 99772740 96541840 86271650 81922210
1511.93 87008980 126029200 354537100 607228500 465657700 232063600
1514.82 129824100 95510690 85235670 85805680 92595060 95935620
1517.71 98204880 122207300 149819300 134293800 104346000 92950460
1520.61 93474660 90307560 85413760 116384500 152887900 131666800
1523.50 93996060 78994610 75663710 80329980 82399680 83070590
1526.39 101358100 262473200 461118200 363200000 185920800 112732500
1529.28 85121830 68879720 59675400 59640020 72705520 86395800
1532.18 94414700 101753100 133060000 163172200 130505200 96177940
1535.07 83030390 79106300 80695100 92843300 94939870 89120510
1537.96 94378570 103213400 89855770 80698760 86016200 139396700
1540.85 208116400 176090900 111616400 74866280 60705410 55888880
1543.75 52742720 53451470 54392670 54668110 56659780 58548230
1546.64 60047020 58189710 53727370 52135660 50846580 50185240
1549.53 53288780 67027900 68012420 51551030 41194960 39709660
1552.43 39563950 46014520 102408400 158116900 102249500 70738140
1555.32 67216490 45549350 33527350 36006520 39741850 44139460
1558.21 46001830 45373920 51362840 55598020 49927150 40648420
1561.10 36283340 35778140 34703520 34807500 46161760 55174840
1564.00 43396750 34870680 31409380 32159370 61097350 141948200
1566.89 143940100 69562130 34069670 26028090 27345940 28251930
1569.78 25269620 21549810 20407930 19205970 20179270 27839640
1572.67 38014020 39602450 37428390 34749510 33878840 37781760
1575.57 48765940 49104000 41108580 51024920 63303090 48576570
1578.46 43667850 62912000 59398840 40803700 35048780 27221190
1581.35 23843680 23033260 23292930 23307250 22348380 20578570
1584.25 19984930 19409800 20593030 22723660 24044640 23231830
1587.14 22043680 20691290 21164180 22827040 22079630 19052640
1590.03 17930610 19386940 30188880 37075860 26193850 16223110
1592.92 13263920 12308200 11939950 11101990 10634460 11345200
1595.82 11376200 9917754 8675212 8064286 8399466 10277070
1598.71 11892910 11588860 13058020 17809100 18986680 16198440
1601.60 12751390 11697280 14670240 24479080 31546490 20653060
1604.49 10711700 7908658 7145104 6686874 6930722 6448200
1607.39 5843718 5669978 6116602 6307718 6031512 5438270
1610.28 5483438 6578754 9001276 9501882 9374482 9550908
1613.17 9742742 9008628 8783434 9447450 12815880 16965120
1616.07 22436530 17784700 8357846 5976094 5556704 5467050
1618.96 5139752 4804862 4539064 4583914 4370094 4125102
1621.85 4221928 5014258 8663374 11537660 8518952 5468038
1624.74 5057306 5838538 5235452 4769422 6092332 8606062
1627.64 6750594 3748928 2994828 2976704 2790066 2726920
1630.53 2586206 2438688 2337184 2300732 2234280 2288224
1633.42 2211292 3635114 7343298 13003760 12732700 5646294
1636.31 3616898 4792730 4644988 3061834 3471418 4234490
1639.21 3390518 2160948 1763934 1375218 1428492 1558292
1642.10 1599692 1103204 1009466 1049600 1314590 1543364
1644.99 5929378 11128320 6908718 4995148 7145464 5550210
1647.89 5153822 3452856 2563788 2093686 2360946 2240158
1650.78 2287932 5779422 16104920 19826300 20795600 13811770
1653.67 7139896 6997376 3260460 1549082 1108452 1248624
1656.56 880786 977698 828356 973612 706424 822334
1659.46 781560 955300 1045334 1449804 1471420 3587354
1662.35 5446556 2884878 702986 523612 420722 608736
1665.24 602364 766938 412782 286854 483466 1474026
1668.13 2576666 6446358 6450794 2111890 1156650 2565858
1671.03 3650924 1808656 551248 479426 449640 500062
1673.92 1240004 5678026 8390578 3957130 830960 408056
1676.81 255814 113222 160102 399810 807618 1407600
1679.71 1712700 1405714 642150 569622 637586 2261242
1682.60 5157974 5842298 7000536 16021720 18068010 5852250
1685.49 975102 440004 498666 363194 1143436 1507564
1688.38 1005146 501100 1289852 1255168 596936 34464
1691.28 122184 383214 885364 557648 815182 887506
1694.17 1571120 5065482 15924770 16871380 5343450 1439632
1697.06 1678440 1244076 988816 2067618 7615218 14583820
1699.95 14585500 10172140 3710076 1209936 880908 922722
1702.85 798708 1544040 3278264 2847154 1251584 2568668
1705.74 4346472 2882352 1078918 1005424 823668 622490
1708.63 405232 672726 1172260 1175698 526548 505942
1711.53 684222 820452 596070 1126922 2242172 2682288
1714.42 4583442 4843382 1889328 1429882 5722920 14363100
1717.31 10404940 5429378 5970300 3508926 1535930 972920
1720.20 1067618 1334312 1402074 1138904 982760 1359822
1723.10 1901120 1348310 965120 1106076 1242968 1219158
1725.99 1225744 1290318 1458654 1247546 1396188 1698258
1728.88 2168158 3214974 3167566 2228522 1958330 1853756
1731.77 2322548 4743096 11043520 10173780 9977648 12823080
1734.67 6612820 2715060 1825382 1656924 1779504 2195042
1737.56 2105406 2543984 3472202 7035860 8511334 5178824
1740.45 3008770 2295088 2125002 2936376 3450350 3368584
1743.34 2702424 2367056 2323034 2475146 2874892 2615198
1746.24 2461880 2755148 2350616 3071390 4202122 3652146
1749.13 2691752 2396198 3730498 8176672 8483274 3850932
1752.02 2389914 2487880 2089212 2003154 2117158 2104646
1754.92 2130644 2360466 3936004 5372696 3570308 2443910
1757.81 2555482 2727942 2701198 2598662 2425734 2573398
1760.70 3964004 7032028 6100880 3261658 2657328 2464518
1763.59 2427190 2438018 2522292 2388554 2199902 2243290
1766.49 2521430 3237846 6184364 6181676 3295200 2430740
1769.38 2249662 2705232 4040728 5533684 4632270 7840054
1772.27 11796840 6815730 2702058 2445330 2482814 2951662
1775.16 3555226 3159396 2570330 2441582 2509838 2821450
1778.06 2857774 2851446 2753192 3043336 3882824 3713824
1780.95 2866182 2698254 2466356 2395454 2309450 2468238
1783.84 2877488 4314120 3763692 2580542 2819620 3070036
1786.74 2670372 2360302 2344732 2430042 2426874 2735188
1789.63 2971718 3963576 4568618 3583910 4764246 8655446
1792.52 7313228 3700688 2805250 2622074 2824632 3105600
1795.41 3326142 3038364 2983408 2941058 2687456 2786264
1798.31 3146642 4328600 4876606 3848390 3597262 4185096
1801.20 4006806 3905364 4062428 3565450 3643738 3664484
1804.09 3621434 3628794 3765960 3791046 3835590 3886578
1806.98 4163820 4081820 3970604 4119466 4278186 4403516
1809.88 5361220 5592002 4699936 4423448 4525330 4505928
1812.77 4507284 4622102 4734692 4747788 4611878 4707104
1815.66 4829696 4856260 5005722 5285528 5171584 5188796
1818.56 5360928 5239088 5050934 5082274 5305584 5424288
1821.45 5407948 5333672 5210232 5223968 5395872 5398600
1824.34 6662946 7512070 5761112 4662156 4390326 4347560
1827.23 4398348 4416008 4872016 5637036 6596418 8045190
1830.13 6898084 5719462 5165024 4060072 3441042 3661030
1833.02 4233180 4211142 3925078 3801420 3744864 3915980
1835.91 4222456 4775340 5301520 5195564 5124672 5125476
1838.80 5274328 5705344 6309556 6622744 6360290 5889358
1841.70 5865348 5702626 5791202 7873556 11896450 10235460
1844.59 6660936 5906346 5579312 5560740 5592666 5924418
1847.48 6153822 5725484 5246264 5166960 5351434 5297862
1850.38 5010948 4958834 4768586 4724406 4603064 4294954
1853.27 3951236 3858412 3936974 3993674 3953584 3751488
1856.16 3576374 3568180 3475532 3324168 3230352 3204926
1859.05 3130008 3331138 3295746 3173946 3179662 2958764
1861.95 2795616 2694488 2679888 2523042 2496708 2848390
1864.84 3156768 2997346 3036382 2736516 2745326 3562196
1867.73 3335066 3206124 5027478 4636682 2878390 2257064
1870.62 1908538 1949746 2082172 2147338 1868232 1835742
1873.52 1876234 2014964 1782250 1692092 1746142 1529174
1876.41 1453496 1770102 2053042 1895538 2012230 2794188
1879.30 2610566 2055626 1931410 1841720 1838382 1947672
1882.20 1990394 1971978 1794984 1820982 2011742 1961958
1885.09 1784198 1816336 2159622 2214408 2140270 2284882
1887.98 2214972 2591138 3781912 3591934 2766768 2511080
1890.87 2426404 2389606 2570518 2951086 2797544 2539052
1893.77 2528860 2769280 3166432 2924190 2816452 2878624
1896.66 2778110 2792292 2983570 3108750 3128116 3209136
1899.55 3309896 3332888 3357050 3494458 3469436 3356700
1902.44 3320202 3448306 3580166 3630208 3546576 3683172
1905.34 3492702 2918470 2669000 2647152 2697500 2368860
1908.23 1948744 1831264 1944786 2115294 1861468 1646416
1911.12 1523924 1586554 1533956 1843748 1955210 1727364
1914.02 1635282 1816806 1895862 1873260 1858664 1901588
1916.91 2574628 4518844 4087204 2246426 1643002 1569888
1919.80 1683080 1550206 1367918 1298516 1480318 1516758
1922.69 1680676 1330110 1126838 1110624 1253906 1388870
1925.59 1100646 1090566 1171890 975520 977584 1092740
1928.48 1018038 917526 1057162 1235750 1127616 842502
1931.37 712950 773224 747082 777404 707256 696148
1934.26 662872 612804 522880 425060 511940 633296
1937.16 636884 580690 751664 826226 626094 639688
1940.05 749050 828996 916236 1205306 2048912 1607806
1942.94 681784 428688 346678 427006 400650 404754
1945.84 571516 559810 372470 398590 407320 374258
1948.73 389214 544886 499594 293004 307506 497888
1951.62 570050 580538 614206 579150 386876 171156
1954.51 223176 459992 512328 353224 195972 273464
1957.41 402620 388156 485372 463170 422186 499980
1960.30 251278 170926 342292 332150 168312 99442
1963.19-29258 37058 170880 213204 207770 283524
1966.08 239268 655272 823520 338960 304102 302092
1968.98 159048 159720 36500 91664 88842 48212
1971.87 232610 438302 329892 373054 380978 75234
1974.76-211270-130284 4202 77292 194568 162932
1977.66-45886 80768 176332 168662 297388 402106
1980.55 285224 130942 72378 169826 74192 26184
1983.44 112192 129176 87928-62804-11358 180310
1986.33 335204 687838 892194 586220 189938-56350
1989.23 30340 198682 111644 190610 619266 572976
1992.12 230086 93506 101050 141492 46150-35242
1995.01-111810-95742-18688 9428-74968 15408
1997.90-36326-116314-91696-92662-170050 67444
2000.80 105928-34946 51116 321052 373176 250168
2003.69 56954-112546-253646-51006 328030 376312
2006.58 40690-62814-2432 55484-91816-27398
2009.48 76786 56898 10410-82642-71240 932
2012.37 65650 207200 193284 53352-68122-67664
2015.26 35190 198016 471364 567526 293416 29158
2018.15-51232-224304-405268-274376 3154-6314
2021.05 25782 129700 73952 98060 127188 201612
2023.94 496856 415068 28328 193636 395180 148468
2026.83-5550 38518 2664 166834 214934-15890
2029.72-104916 157134 200822 213494 347540 350952
2032.62 316424 406306 260904 191608 256712 361376
2035.51 285596 283540 317458 140976 267176 573180
2038.40 650040 477466 320678 262694 232694 611868
2041.29 890108 945454 1358452 1989300 1579570 1105534
2044.19 935348 992556 1137310 1323638 1391840 1370922
2047.08 1456324 1443188 1247276 1328128 1514844 1543602
2049.97 1326346 1267756 1256168 1762810 2453294 2506822
2052.87 2477214 2549420 2598050 2762866 2916860 2773822
2055.76 2717250 3039360 3091688 3185128 3303812 3407304
2058.65 3326368 3248046 3242968 3383062 3712686 4033956
2061.54 4046658 3921266 3944672 3968596 3886404 3829152
2064.44 3913396 3838782 3568594 3538914 3307362 3081728
2067.33 3065698 3119426 3068774 2761226 2777618 2833698
2070.22 2624372 2192952 1787968 1359100 944628 1089210
2073.11 1756238 2884748 3793290 3643604 2656354 2774380
2076.01 3833222 3607920 3139076 2803268 2740704 3432736
2078.90 3908496 3673880 3928300 4209266 3940526 3679922
2081.79 3928800 3962162 3707636 3516290 3404302 4095556
2084.69 4819982 4799600 4954872 4890400 4457002 4144698
2087.58 4022742 3895988 3886724 3896082 4064420 3971574
2090.47 3668082 3646882 3719836 3672206 3534990 3268308
2093.36 2926144 2531824 2304880 2307148 2633862 2847994
2096.26 2748882 2659286 2431566 2147824 2187380 2875406
2099.15 3584244 2793958 1758284 1405786 1484012 1631010
2102.04 1658212 1607538 1391208 1056590 815004 600462
2104.93 438168 324912 236578 607014 1088620 1042476
2107.83 862298 724334 702988 432278 173278 211052
2110.72 641108 739040 296130 196182 283294 348298
2113.61 321874 331160 379030 586464 294894 30366
2116.51-24608-208486 104692 1112102 1337564 934622
2119.40 590398 108838 95020 154620 334430 563058
2122.29 485680 434626 376568 121402 67990 292848
2125.18 410864 205988 21526 243792 409338 249694
2128.08 34750-72946-10928 150516 264364 469872
2130.97 628528 567722 157758 69946 191674 225694
2133.86 270816 233776 187756 392914 536312 457192
2136.75 650056 1061650 827228 250952 123468 308726
2139.65 328234 142690 359804 526586 285394 218888
2142.54 249652 159388 216658 326002 375426 267576
2145.43 157624 128086 207626 186872 100188 234400
2148.33 241590 137520-25088 124832 202048-79978
2151.22-25384 278500 232360 286904 426960 405524
2154.11 429452 333616 159312 382350 1175422 1892574
2157.00 1217464 464480 529616 363082 173540 331926
2159.90 342208 341988 485124 703434 675256 446962
2162.79 252646 266608 353310 415852 560952 544326
2165.68 586722 485132 312980 250514 300210 395194
2168.57 530390 350310 250538 361416 389322 510424
2171.47 528668 620998 527010 246528 44938-18968
2174.36 323972 687012 1102060 1442086 909368 423290
2177.25 326944 192386 246658 433024 637208 593992
2180.15 548202 608966 524330 469574 611056 769194
2183.04 481562 152536 327282 536008 549288 519124
2185.93 804622 896390 613852 398828 384254 410106
2188.82 668458 1054824 973494 714858 655274 712602
2191.72 731818 792168 875358 859064 871746 790812
2194.61 827802 1201128 1197678 988896 973474 1097848
2197.50 1188182 915674 772220 836804 1063242 1142554
2200.39 1055640 892366 706358 638096 917076 1096220
2203.29 922320 967546 1115204 1156948 1155496 1171190
2206.18 963698 858992 964870 942142 935552 820710
2209.07 799334 759002 775488 750944 882314 890084
2211.97 1144446 1319270 1174064 1124826 1217224 1623400
2214.86 2150052 2128808 1937974 1450682 1257370 1456398
2217.75 1593020 1622300 1757654 1668224 1739548 1908182
2220.64 2076714 2307916 2471980 2647130 2977118 3174480
2223.54 3324356 3195802 3349456 3675370 4034044 4392014
2226.43 4462996 4390526 4571802 4883516 5310048 5624632
2229.32 6111076 6549326 6732322 7030324 7557752 7985946
2232.21 8445336 8803124 9270868 9926910 10772260 11318400
2235.11 11661140 12241930 13021880 13727990 14366490 15161400
2238.00 15968490 16693300 17557970 18504210 19493920 20233290
2240.89 21079100 22024580 23034970 23947170 24923820 25819660
2243.79 26717900 27679380 28710670 29602590 30553830 31433310
2246.68 32254290 33016550 34001580 34683290 35412210 36290940
2249.57 37178670 37740060 37854180 37686810 38019190 38287400
2252.46 38272560 38104250 38172730 38096310 38143750 38671120
2255.36 40268760 39740420 36121320 33627490 32432190 31371820
2258.25 30410340 29193570 28432850 28148620 30239480 37624390
2261.14 40893010 29345650 20449170 18502380 17980360 16967950
2264.03 17877700 20714430 28352840 50865810 76384070 53438660
2266.93 23651110 20311270 21823450 24293910 27041290 30316890
2269.82 33315440 35861970 38086480 41131260 43769660 46440840
2272.71 48558270 50829800 52824070 54301310 55500860 56840030
2275.61 57877580 58726980 59193910 59785100 59930140 60032250
2278.50 60006100 59703390 59088520 58454780 57731200 57188040
2281.39 56275800 55318970 54477740 53630450 52624840 51632540
2284.28 50432440 49098560 48007380 46740140 45440650 44420570
2287.18 43568060 42617730 41708380 40927890 40409920 39752300
2290.07 38559030 37523340 36972460 36504100 36084900 35782350
2292.96 35526520 34032880 32161010 31257200 30654930 29965750
2295.85 29596030 29477140 27812410 25597290 24615760 24630540
2298.75 24732230 23510680 24170480 23139040 19742040 16725800
2301.64 16554870 17747690 19062340 20790730 23688700 31437240
2304.53 45452460 48338540 42992100 39377800 35383840 33436860
2307.43 34619180 36638740 38011100 39760710 40088740 39533810
2310.32 40637080 43168360 43816960 45145280 46298050 45714110
2313.21 44947090 45294810 44873420 44692990 44336370 44187390
2316.10 43971320 43690040 42579950 41255450 39640200 38775520
2319.00 37407880 35524590 34035140 33222530 31535060 29433540
2321.89 27994940 27038750 25304660 23407210 22358340 22001780
2324.78 20494260 18565120 17578840 17562480 16450260 14691020
2327.67 14117930 14284640 13225300 12074680 12056200 12470600
2330.57 11250590 10091600 10592110 10553700 9028456 8556196
2333.46 9315622 8908796 7703486 8162724 8926042 7677680
2336.35 6499338 7321210 7415406 6230414 6208990 7148280
2339.24 6518408 5637606 6374310 6665728 5252818 4803610
2342.14 5486622 5362196 4897212 5128134 5027406 4866764
2345.03 5311248 5245776 4422018 4052534 4280718 4329324
2347.92 4002764 3698006 3676634 3982104 3983054 4019248
2350.82 4268590 4080120 3995924 4518978 4377538 4151176
2353.71 5122404 5624464 5406292 5907464 5399428 4659376
2356.60 5647508 5605326 4788950 5776812 5469208 4831284
2359.49 5888654 5282248 4948168 6276636 5590622 5647184
2362.39 6575036 5932604 6831514 7039530 6223144 7052478
2365.28 6465578 6348526 6586522 5552430 6063950 5996930
2368.17 5545654 5769954 5334108 5762062 5730342 6141696
2371.06 6846850 7320508 8499122 8238704 7550180 6647302
2373.96 5751358 5589682 5621366 5904322 6098054 6270098
2376.85 6469446 7083262 7364476 7901940 9169190 10285130
2379.74 9120084 7528000 6648466 6380922 6625376 7027330
2382.64 6963282 7109394 7162376 7112318 7233112 7609298
2385.53 8658386 10218620 11198300 10939570 9313756 8268384
2388.42 7933058 7632876 7377046 7433712 7759998 8229440
2391.31 9539060 10768510 10911910 11758000 13178090 13539680
2394.21 11456310 9591434 9036526 8882366 9064956 9449718
2397.10 9886372 10913720 12499380 14927770 17407430 20538680
2399.99 21803680 15872530 9687768 8593920 8711442 8598858
2402.88 8856210 10166710 11237310 11988570 12624930 13181360
2405.78 13931940 13268660 10374500 8887500 9129168 11356410
2408.67 13888990 13002340 11907400 12317280 13081350 14185310
2411.56 15690840 15225580 12738480 11714090 11000400 10517430
2414.46 11183840 13351230 15209630 16295130 17656250 19854230
2417.35 24390310 24542810 15706220 10735740 9674006 9757488
2420.24 10849310 11780410 12293380 12553710 12799530 13355650
2423.13 13774930 13469450 11852460 9923092 9346452 11061560
2426.03 13077500 12412300 11072770 13097320 15267620 13265270
2428.92 12569060 14514070 15100000 12771840 12339420 12794250
2431.81 13201510 11403300 9567214 10877070 16012270 15281470
2434.70 10165690 9196836 9433972 11480620 14233970 17096490
2437.60 19846810 18418880 11851810 8127350 8024572 8627314
2440.49 9178554 9805736 10657190 11343660 11779520 11900310
2443.38 11046340 9750462 9362206 9504952 9923056 9928476
2446.28 9042276 9149092 9748674 9893016 9357962 8643758
2449.17 7727290 7020486 6716840 6870072 6617244 6141336
2452.06 6064544 6374876 6934870 7719828 7993336 7592116
2454.95 7292316 7884788 8227092 8044946 9001386 9573096
2457.85 8924486 7976066 7220406 7168066 7150290 7035204
2460.74 7342974 8410516 10384100 11027780 10433280 9476574
2463.63 8169098 7409614 7270440 7257572 7181472 7104976
2466.52 7078116 7691060 7921022 7838256 8107658 7826794
2469.42 7249758 7216254 8456836 10104470 9918330 9019394
2472.31 8031772 7672072 7654434 8040612 8331474 9623552
2475.20 9835880 8457070 7975250 7993852 8215170 8362996
2478.10 8289306 8345436 8198118 8238502 8739488 10241200
2480.99 11892110 11506040 9796732 8938254 9012308 8896358
2483.88 8598278 8564840 8821500 8909720 8491446 8277986
2486.77 8189804 8291172 8486826 8029096 7552566 7670222
2489.67 7811686 8706594 11051140 13658350 12614390 10094270
2492.56 8685582 8278922 7914246 7489612 7316368 7376512
2495.45 7084752 6609614 6756256 7161822 7208984 6875832
2498.34 6668460 6442144 6166474 6132410 6174234 6704446
2501.24 7947906 9110666 9177894 8862170 8181944 7650134
2504.13 7121924 6600172 6316838 6098156 6035798 6330804
2507.02 6510042 6514202 6466766 6643582 6686752 6350968
2509.92 6109680 6193260 6162918 6360036 6950730 7563212
2512.81 7767466 7738540 7301484 6462920 5882080 5626564
2515.70 5356628 5299994 5128962 5063456 5034302 4946800
2518.59 4787790 4717412 4826616 5131442 5898948 7561512
2521.49 8288408 7719298 6595968 5288068 5515742 5600754
2524.38 4734286 4686606 4675438 4476812 4418784 4644062
2527.27 4784536 5103330 5135632 4946140 4945250 5015532
2530.16 5129182 5211450 5126930 4773940 4500502 4892188
2533.06 5298282 4965410 4916112 4625148 3797186 3596354
2535.95 3903308 4174374 4005150 3760710 3984902 4230104
2538.84 4143650 4011070 4022906 3815526 3742818 4210038
2541.74 4809830 4710256 4312382 4525336 4506748 3908634
2544.63 3199724 2931974 2885910 3060162 3053546 3049592
2547.52 3162684 3423318 3663556 3413232 3127918 3500278
2550.41 3954252 3370388 3018160 3243172 3546114 3680760
2553.31 4024762 4817914 5255610 4582846 3410902 3003452
2556.20 3196108 3155440 2807674 2779600 3174060 3328360
2559.09 3001488 2786942 2751838 2675982 2493812 2648890
2561.98 3005396 3106548 2887022 3067190 3242110 3464828
2564.88 3788206 3750010 3258084 3073174 2696688 2341780
2567.77 1904102 1991092 2241522 2158162 2061262 2137320
2570.66 2272328 2429638 2326312 2180872 2235152 2263548
2573.56 2355218 2588044 2641290 2568012 2735864 2976428
2576.45 2525152 2342720 2384494 2352674 2338078 2141786
2579.34 1944196 2312176 2497714 2450496 2527600 2777344
2582.23 2850732 2681146 2628280 2733000 2967238 3356550
2585.13 3319180 3590880 4134514 4574294 4197878 3807758
2588.02 3854776 3603378 3509856 3787880 3973262 4013688
2590.91 4503182 4798762 4994558 5432614 5564788 5569768
2593.80 5762254 6002302 6064794 6181962 6173312 6634854
2596.70 7120900 7335768 7611174 7958078 7871160 7704556
2599.59 7864882 8427626 9030572 9414576 9579900 9731694
2602.48 9808394 10135220 10028470 10237700 10424830 10717130
2605.37 10987880 10971590 11080420 12261740 14019550 14485400
2608.27 13980780 14201770 15133610 16133610 16196830 15895380
2611.16 15796540 16433070 16183230 15815300 15997820 16651830
2614.05 17980500 21017530 22612820 21124030 21401230 24030830
2616.95 25340310 24668700 23738560 24040090 26208470 28494690
2619.84 28532280 26017320 26868360 33580870 39945440 35034610
2622.73 29020090 28804870 28040300 23509670 19817800 18624910
2625.62 17280720 14638360 12485200 11480830 11188180 11081230
2628.52 11167270 11523140 11710810 11600810 11799500 11778100
2631.41 11287350 11150650 11459860 11431520 11198820 11159470
2634.30 11185650 11164840 11208310 11059330 10646050 10376670
2637.19 9873772 9419004 9212644 9185378 8859374 8318930
2640.09 8010648 7631302 7257016 7059898 6737692 6275858
2642.98 5936664 5682784 5167284 4761870 4353140 3805992
2645.87 3671478 3704696 3625808 3482052 3437376 3517318
2648.77 3451864 2728028 2481080 2636992 2537294 2463986
2651.66 2558080 2442500 2258222 2307968 2279152 2056360
2654.55 2018670 2087088 2220018 2438350 2356368 2373584
2657.44 2544216 2499324 2428536 2388366 2626094 2777106
2660.34 2632888 2765814 3067362 3478000 3883726 4044182
2663.23 4332552 4762458 4591948 3995324 3167848 2908618
2666.12 3177708 2972482 2469054 2331358 2075346 1887688
2669.01 2084254 2127550 2170800 2201516 1470874 1152886
2671.91 1047754 896356 792590 878284 1247774 1863640
2674.80 2196536 2539614 2821852 2833032 2574788 2336234
2677.69 2013664 1779036 1641198 1747640 2047294 2077206
2680.59 1884596 1961310 1767630 1473450 1582740 1732898
2683.48 1558286 1550674 1721314 1645016 1649450 1712666
2686.37 1397600 1330624 1444020 1422636 1461748 1344584
2689.26 1045364 1115504 1522260 1727142 1425912 1248028
2692.16 1337192 1420406 1315150 1214676 1200852 946552
2695.05 870402 1093116 1038082 661414 829674 1109270
2697.94 971736 530302 271424 246888 350406 596168
2700.83 619386 661036 732166 1013254 1171192 866110
2703.73 589444 876234 1308030 1343276 1034860 794294
2706.62 688284 917220 999420 461488 51102 513848
2709.51 920582 1052450 1023572 1224614 1387276 1311050
2712.41 975656 788010 933204 1082590 1014360 850008
2715.30 711786 823206 974688 1247644 1483764 2106858
2718.19 2605804 2872062 2478480 1976448 1475750 1428252
2721.08 1704912 1936796 2095216 2244856 2068348 2061164
2723.98 2087058 2287934 2487326 2241292 2162160 2391258
2726.87 2357414 2626766 3162180 3355488 3048694 2809800
2729.76 2945674 3179508 3435048 3373458 3273740 3900304
2732.65 4188506 3947880 3466604 3591070 3659378 3457468
2735.55 3600070 3920562 3694490 3486804 3652990 3839252
2738.44 3643676 3336870 3374100 3261632 3203750 3281472
2741.33 3396672 3741474 3638258 3419896 3668892 4303588
2744.23 4260262 3586386 3508818 3665262 3464278 3362822
2747.12 3280322 3688832 3860482 3646140 3828312 4164516
2750.01 4395464 4651174 4898978 4747932 4595530 4453940
2752.90 4178660 4221496 4434108 4905906 5568992 5855390
2755.80 5971784 6280042 6520984 6865088 6887146 6635096
2758.69 6079754 5326252 4987378 5067448 4987634 4573414
2761.58 4203250 4223032 4265060 4209560 3753620 3405778
2764.47 3290222 3154966 3119662 3347206 3401526 3449514
2767.37 3126844 2677654 2384304 2298428 2335878 2117126
2770.26 1739184 1708036 1925484 2204008 2003892 1864910
2773.15 1914838 1937896 1655922 1961074 2183984 1899042
2776.05 1806326 1708400 1539620 1620840 1829504 1864862
2778.94 1954366 1987394 2157364 2838658 3069954 2682160
2781.83 2456974 2591258 2185408 1660160 1780110 2046682
2784.72 1826858 1407280 1050506 1299328 1363684 1123670
2787.62 1117124 1370678 1587390 1688138 1548686 1280946
2790.51 1361360 1569212 1728422 2420392 2865524 3302822
2793.40 4021332 5076810 5565846 4535966 3399130 2518846
2796.29 1846516 1807184 1628512 1238646 939582 1225852
2799.19 1170670 822914 920906 1184944 1659428 1969100
2802.08 2082366 2196298 2073466 2173894 2070820 2150016
2804.97 2176326 2336514 2729930 3144166 3504990 3685244
2807.87 4244636 5141414 5009230 3500080 2877810 3020430
2810.76 2840122 2602016 2076146 1345744 859000 1004348
2813.65 1647718 2373188 3186992 3487898 2930906 2567354
2816.54 2569776 2634582 2804190 2936724 2934920 3071548
2819.44 3339298 3578634 3555322 4039650 4578610 5118110
2822.33 5893536 5721754 4169542 3666424 3716408 3771592
2825.22 4073164 4791286 5493594 5008222 4669768 4942826
2828.11 4561590 4251666 4091000 4121582 4430888 4623266
2831.01 4428218 4169150 4577802 5719222 6288254 6165022
2833.90 6406850 7220556 8180062 8420682 7778344 7545890
2836.79 9767860 12964850 13289710 10421310 8297750 7273238
2839.69 6463310 5267304 4603568 5881816 7029202 7672678
2842.58 8687768 9775998 10353370 10557100 11264220 12142840
2845.47 12491760 12875240 13345150 13704470 14078540 15316550
2848.36 16612920 16366020 16029990 16444340 16611780 16941590
2851.26 17409820 18481870 19879910 20531820 19434230 18944500
2854.15 19038030 19294510 19397550 19428640 19324450 19282620
2857.04 19301740 18936790 18145580 19077680 20113360 20103120
2859.93 19293700 19113560 18823050 17233370 16352430 16406310
2862.83 15930600 16108700 17787800 18301860 17600830 17815100
2865.72 19478530 22963890 30239920 28745460 30019920 40528710
2868.61 32950130 23945680 23428420 25008280 26040490 25208510
2871.51 25828140 26620340 27227430 28220970 29929200 31265650
2874.40 32361350 33307590 34055360 34826340 36238140 37500040
2877.29 38405370 38564840 38512390 38435420 38685560 38616940
2880.18 37955320 37596460 37409660 36964800 36521620 35993210
2883.08 35227700 33549100 31415620 29419790 27319660 25832250
2885.97 24746040 23615030 22868830 23021190 24058620 24251490
2888.86 23294660 22617760 22540670 22499420 22256040 22974010
2891.75 25608280 26296300 24993570 25046990 24871240 24180950
2894.65 23568010 23322740 22978380 22850390 23062740 23579630
2897.54 25159340 25599440 24919930 25471650 26007540 25641010
2900.43 25641780 26884500 26991280 26931440 26423200 26233750
2903.32 25698160 25139810 25362000 26654640 26497710 24936780
2906.22 25315890 26364670 25891850 24535520 23785530 23324930
2909.11 22302330 22545570 23713340 23575590 22175360 21342000
2912.00 20492440 20255290 21058730 23010330 21527130 19217590
2914.90 18931980 19432020 19917620 19505310 18756050 18472830
2917.79 18846000 19270750 20027130 20679580 20031750 19872000
2920.68 20700450 22291210 22824120 22496290 21921890 20786720
2923.57 19875310 19429510 19178590 18741360 17371460 17526180
2926.47 21261330 25410760 29458440 33505300 37451340 39184520
2929.36 36123260 36769790 38115270 39728660 42474770 42511000
2932.25 42283420 43723640 45447810 47601040 49943390 52191910
2935.14 54116320 56400090 58855440 62758070 67617470 73685710
2938.04 72343170 71203940 74780240 78070180 77294120 75817260
2940.93 76727090 78290070 78840040 78664470 79550370 80089340
2943.82 80146780 82686790 85261990 84440370 84115000 83546560
2946.72 85553660 76655960 66941900 61787180 56964930 52984070
2949.61 48837810 45224690 42546310 39413260 35645570 37074860
2952.50 52448640 72671890 79813940 76783650 77297710 68609270
2955.39 45273100 32044050 35731380 54497300 50421010 35748130
2958.29 38225270 46719760 55866420 58865520 60875800 63651060
2961.18 67433080 71222180 74914040 77692100 79485740 78851410
2964.07 80766570 85708960 91561000 101960900 119642000 112615300
2966.96 96034020 95983980 92473800 89369780 87813830 86668020
2969.86 84818010 84078570 81637050 79642740 77401160 76013440
2972.75 73209620 70667380 68238390 69060400 73942090 93756700
2975.64 99950190 73698010 61437330 55130040 50218470 48079330
2978.54 44912460 42983120 41015900 39248540 36574040 35358600
2981.43 33953220 32498590 30164520 30631180 31689770 40039460
2984.32 79141130 135666900 98796220 50022210 37791800 25480800
2987.21 22412130 18738060 18913200 16866350 16632010 14377710
2990.11 14465490 14512320 16816990 17458770 19287730 19519510
2993.00 24230180 38035170 77156570 80864380 43507750 28886660
2995.89 19891220 16893520 15458350 16552760 17208770 18256170
2998.78 18241530 18919370 18306140 18411490 18269250 18935620
3001.68 19772630 24317060 35166320 73758650 101758700 60490480
3004.57 32477780 25757390 21275300 18609940 17817690 17572250
3007.46 17549550 17362820 16927540 16942940 16497910 16429860
3010.36 17367890 19077060 28938330 49702630 114805800 190258600
3013.25 119814100 53892540 37422570 26030490 20307540 17399680
3016.14 17048720 17226080 17981080 18218130 18613270 18383670
3019.03 18787720 19175710 20664390 23021130 32338140 69193640
3021.93 111698300 79389110 40466760 28329240 22839260 21372860
3024.82 19545690 18898050 17209200 15531770 14296250 16408490
3027.71 18373150 19693210 20176290 21349420 23668600 34804850
3030.60 71044100 105563200 70481980 36323760 25582280 20629660
3033.50 18638640 17494750 17204490 17021880 16718710 16702800
3036.39 15975810 15498560 14778020 15546880 18028600 24643570
3039.28 48540800 125950000 167853100 92303300 44554980 27783000
3042.18 21782480 19482550 20193720 18890190 19086330 18117810
3045.07 18640640 18585990 19881920 19210440 20699300 21158830
3047.96 26783570 44226380 78945920 74737140 40493230 26226930
3050.85 20641410 19134770 18093780 19021920 18814840 18017000
3053.75 16810830 15835650 14028340 14906310 16966480 18459400
3056.64 20962390 28390280 50478530 69754610 47350470 26031010
3059.53 19152530 15527910 14514270 13329140 13430460 14017940
3062.42 14545790 14777480 15713140 15432020 14715100 14458380
3065.32 16249320 29907290 65995330 71535880 50639420 35947080
3068.21 24489480 18252630 13492940 11856210 10722740 11448250
3071.10 13478960 15600520 15026410 15296690 14827050 15424850
3074.00 16009850 18822890 26571680 41531140 38560300 22674000
3076.89 15663000 13415530 12779980 12581570 12044260 11339920
3079.78 11108830 11489220 11973520 11608960 10366910 11128970
3082.67 12731760 14825510 19943940 29749120 28413090 17303440
3085.57 11908730 9768980 9234666 8810096 8577532 7994170
3088.46 7714284 7843550 8104934 8703020 8868898 9393452
3091.35 11080130 12156150 18001530 33169870 28691510 14314030
3094.24 9570638 7430520 7064994 6503450 6202146 5703454
3097.14 5744124 5707106 6105416 6120446 7349234 8134348
3100.03 8906278 10377650 13685380 16351280 13328310 9690578
3102.92 8231896 7231866 7262182 7024402 6684118 6143872
3105.82 5758848 5168966 4747100 4062406 3701154 5045802
3108.71 7321952 8683936 10265440 9538718 7237612 6016740
3111.60 5654244 5461948 5122180 4796476 4396894 3974374
3114.49 3836110 3708308 3575838 3557016 3523670 4135032
3117.39 5190052 7829454 8949696 5919186 4251602 3805300
3120.28 3363648 3457862 3707358 3478992 3153974 3105816
3123.17 3090120 2959218 3287818 3312278 3130916 3270004
3126.06 4149082 4221244 3567926 3678528 3871422 3771116
3128.96 3408982 3513484 3688406 3458280 3332826 3202856
3131.85 2654066 2445282 1809724 1339948 2192582 3572204
3134.74 4466268 4749996 4692732 4429712 4191828 3720752
3137.64 3434318 3745470 4500316 4587146 4261066 4467144
3140.53 5207330 5225606 4997340 4802932 5116220 5423604
3143.42 5322616 5558104 5804432 5363720 5189266 5347936
3146.31 5285964 5941916 6645398 6832422 7390564 7860904
3149.21 8026276 8026600 8176852 8679636 8889428 9013650
3152.10 9270192 10014830 10850310 11070300 11496730 11494400
3154.99 11318230 12062690 13060820 13287030 13629630 14239040
3157.88 14470990 14524920 15472940 16597400 17286400 17407580
3160.78 17366250 17899620 18811880 19329820 19567760 20012130
3163.67 20148020 20181370 20496330 20467420 20536020 21032010
3166.56 21506320 21423170 21064750 20877100 20368070 20156670
3169.46 20123840 19960700 19355790 18734220 18162340 17476990
3172.35 16543630 15762030 15151900 14142790 12830470 11920100
3175.24 11513050 11359220 11980960 14554760 19962520 28694020
3178.13 28957040 18737710 16042050 15053570 10061680 7836302
3181.03 8535710 9212810 10494140 12214690 14295510 16814260
3183.92 19474350 21576820 23513910 25513500 26975070 28529510
3186.81 30011650 31166140 32366680 33715570 34638720 35073390
3189.70 35536420 36238360 36749940 36339080 35910400 35320570
3192.60 34495900 33652840 32369470 30955720 29970710 28705060
3195.49 27319550 26056830 24628780 23117920 21501200 19791870
3198.38 18337890 16538460 14876780 13817890 12896960 11611840
3201.27 10490400 9672886 9288404 8758688 7844454 7535670
3204.17 7468816 7047640 6267546 6107858 6417066 5976958
3207.06 5183496 5258400 5637380 5732208 5766832 5685708
3209.95 5244404 4707574 4781528 5034830 5005136 5118138
3212.85 4823166 4045930 3797142 3834786 4397288 5183998
3215.74 6705348 7443514 7022308 6630398 7541298 7846458
3218.63 7046592 6673236 6956188 7164918 7010922 7553038
3221.52 8308994 8661964 8615108 8452208 8672474 9112240
3224.42 9446946 9132708 9161212 9263168 9464926 9612072
3227.31 9519092 9143946 8800488 8378428 8488828 8544586
3230.20 7869704 7106184 6532286 6675778 6595396 5686834
3233.09 5221140 4994898 4607392 5014588 5218908 4534252
3235.99 3853068 3409426 3251808 3270756 2850924 2511282
3238.88 2737194 3128308 3077694 2654022 1980922 1654722
3241.77 2154862 3076936 3037168 2058322 2076192 2120406
3244.67 2073404 1919102 1833824 1803708 1803742 1972502
3247.56 2031794 1734778 1382602 1156988 1410592 1627490
3250.45 1831476 1858370 2077412 2043314 1767830 1772332
3253.34 1489972 1321890 1340092 1790980 2260578 1691192
3256.24 1877188 2111040 2014880 2368210 1917882 1281774
3259.13 1391284 1785606 1956514 1925852 1531940 972932
3262.02 1016448 1374818 1770466 1776844 1546346 1626086
3264.91 1724710 1411942 2019076 2243586 2060014 2144038
3267.81 1585882 1316554 1558364 1206318 1495012 1758432
3270.70 1574616 1772942 2116238 1997734 2230352 2049520
3273.59 1560378 1774766 1620940 1337336 1250696 1551676
3276.49 1674218 1537978 1539166 1470514 1677338 1697760
3279.38 1906332 2044782 1685992 1584460 1527854 1508204
3282.27 1263790 1295616 1748728 1791946 1834974 1788050
3285.16 1924340 2237886 2394162 1996620 1825182 1884678
3288.06 1871704 2094502 2092246 1891216 2068972 2062038
3290.95 1693902 1527570 1916646 2231658 2384652 2119722
3293.84 2111568 2342236 1863242 1478020 1690434 1887184
3296.73 2112458 1782880 1790904 1723434 1769298 2076034
3299.63 2375666 2266564 2006116 1836982 1691156 1705042
3302.52 1893632 2235414 2283950 2176750 2691546 2653234
3305.41 1941620 1470950 1675582 1995864 2136912 2048132
3308.31 2138350 2104624 2477908 3220014 3218686 2526916
3311.20 2656494 3038756 2760198 2584946 2268496 1816052
3314.09 1990192 2235330 1832074 1735716 2578706 3124830
3316.98 3082220 2968062 3320162 4212996 4123104 3179680
3319.88 2651472 2559896 3186298 3214710 2523076 2580946
3322.77 2308614 2169760 2550850 2549256 2570288 2447316
3325.66 2370080 2559764 3046290 3012772 2662766 2515612
3328.55 2892984 3141432 3912008 4290862 3925536 3167312
3331.45 2895640 2366504 2192138 2820358 2745056 2366978
3334.34 2672158 2627940 2623458 2953694 3200602 2897422
3337.23 2602318 2766180 3044964 3423228 3187032 2822046
3340.13 3145082 3259454 2872382 2668340 2351478 2480904
3343.02 2772678 2555718 2707038 2979754 3081006 3084806
3345.91 2791158 2670446 3175218 3076390 2836958 2557944
3348.80 2420066 2639538 3121572 2971810 2966612 3295048
3351.70 3075570 3210810 3092280 2981380 3061420 2947724
3354.59 2843276 3151280 3815518 3918718 3685646 3505370
3357.48 3336474 3499426 3180336 2486820 3090974 3895766
3360.37 3445820 3105944 3702674 3903514 3350320 3240020
3363.27 3707896 4022830 3688146 3106096 2978220 2775002
3366.16 2649690 2842596 3256976 3656980 3125122 2691044
3369.05 2618836 3087204 3335024 3414482 3811024 3895158
3371.95 3510204 3006564 2669182 3171982 3157156 2669182
3374.84 2667798 3144294 3058704 3074946 3274190 3339346
3377.73 3447200 3549000 3387264 3171090 3019250 2832148
3380.62 3408150 4052690 3874488 3605088 3462232 3724054
3383.52 3682748 3551056 3398054 3488928 3681312 3696764
3386.41 3763660 3464224 3294184 3558512 4008822 4045462
3389.30 3749506 3613944 3381734 2817540 2961330 4003216
3392.19 4281090 3995940 3523500 2956344 2367262 2531992
3395.09 3069300 3165828 3112690 3298304 3407312 3210206
3397.98 2944686 2827296 2734276 3109538 3301580 2856022
3400.87 2617532 2720060 2841226 3083284 3203116 2982718
3403.77 2932254 2877106 3241758 3713546 3405234 3454588
3406.66 3547966 2868300 2759416 2854828 2801742 3392590
3409.55 3260436 2558624 2895084 3617210 3654036 3211110
3412.44 2778580 2951238 3052942 2786272 2988278 3342010
3415.34 3380078 3232496 2534672 2297548 2581192 2618990
3418.23 2822346 2909434 3187966 3656136 3094686 2573020
3421.12 2977738 3266478 3134088 2706848 3173404 3584114
3424.01 3219664 2347418 2078864 2396506 2431262 2155256
3426.91 2390394 2379096 2061644 2324158 3027040 2790616
3429.80 2627848 2420252 2556356 3165096 3082068 2432678
3432.69 2242156 2776000 3142392 2702380 2281308 2355610
3435.59 2325822 1934660 1975572 2458966 2562344 2631378
3438.48 2815340 2547902 2296680 2319450 2203892 2381224
3441.37 2584862 2285672 2212432 2577092 2849732 2482872
3444.26 2205144 2129100 2112312 2439774 3111110 3311942
3447.16 2925650 2254668 2155788 2466102 2555866 2609200
3450.05 2362044 2669840 2543046 2498930 2408454 2278480
3452.94 2499494 2505150 2533048 2483322 2683156 2170846
3455.83 1381352 1431404 1880518 2471232 2702220 2571860
3458.73 2324786 2084602 2142918 2479530 2297978 1761546
3461.62 1588984 1405256 1830058 1984978 2013188 2405698
3464.51 2191750 1610956 1466016 2052864 2514022 2501316
3467.40 2033396 1526004 1436040 1997268 2347984 2183632
3470.30 2152644 2238384 2115934 2117664 1960524 1583898
3473.19 1883364 2322584 1770712 1468074 1968692 2194964
3476.08 1940824 1901706 2001444 2256736 2778654 2236334
3478.98 1537546 1943316 2259318 1951354 1546288 2021066
3481.87 1841594 1608232 1672640 1852378 1971904 2482548
3484.76 2366760 1808840 1945008 2270584 2292786 2149650
3487.65 2064756 2009186 1888270 1957964 2666444 2527284
3490.55 1766714 1475444 1412696 1543098 1887196 2388076
3493.44 2963488 2858588 2310938 2094002 1916944 2126078
3496.33 2586926 2437448 2267238 1857152 1965532 2430434
3499.22 2527252 2136756 2126002 2226660 2181640 2114584
3502.12 2114968 2214592 2437240 2698872 2702938 2400216
3505.01 2285358 2022710 2032382 1560078 1518850 2201888
3507.90 2607934 2962396 3393334 3017634 2596128 2305792
3510.80 1769554 1637654 1907850 2278488 2321990 2038084
3513.69 2355032 2572506 2388992 2306126 2257228 2244330
3516.58 2674050 2588074 2459186 2439982 2641592 2979602
3519.47 2941934 2278746 1887480 1923336 2026446 2432386
3522.37 2818014 3315326 3206900 2595906 2388802 2508342
3525.26 2552156 2412944 2929822 3338954 2969304 2318492
3528.15 2433586 3085630 2962198 2854482 3014728 2409962
3531.04 2194230 2195146 2326136 2349442 2538112 3264784
3533.94 3120654 2492680 2736280 2811748 2744854 3127200
3536.83 3276330 2790780 2901528 3072136 2888240 2538996
3539.72 2926218 3089540 3057670 2828774 2633682 2611282
3542.62 2749328 2887220 2637692 2386932 2851640 3292182
3545.51 3168108 3252682 3497278 2948300 2638318 2262636
3548.40 2186302 2310846 2606462 2982894 3051916 2724526
3551.29 2712060 3237578 3134848 2819656 2804942 2585850
3554.19 2679038 2737290 3195746 3191046 2588340 2451486
3557.08 2833472 2650440 2352974 2328142 2397454 2664786
3559.97 2832308 2706284 2495562 2408512 2454940 2826794
3562.86 3488764 3381654 3046878 3148498 3596462 3995624
3565.76 4494652 4511932 3245286 4197180 5426452 4018384
3568.65 3092050 2678818 2227188 1899472 2059074 2209178
3571.54 2133940 2331964 2964018 2842024 2798800 2866404
3574.44 2759184 2407848 2394238 2507600 2592800 2716180
3577.33 2451796 2081236 2604914 3335206 3106796 2633830
3580.22 2626252 2610918 2427636 2721778 2662066 2250480
3583.11 3087864 3584532 3094022 2859716 3207256 3829510
3586.01 5613888 5165734 3794590 3551864 5558240 6173352
3588.90 3378018 2642048 2803904 2869174 2769604 2504544
3591.79 2162492 2750614 3088982 2616696 2726030 3005166
3594.68 3655800 3405324 3128176 3190280 3002752 3045706
3597.58 3003648 2937472 2706000 2880242 2925602 3068574
3600.47 3674610 3496206 3026858 2919474 3277760 3282304
3603.36 2866510 2532620 2666096 2710098 2741420 3230682
3606.26 4135178 4356764 3264084 3152368 5334726 8883364
3609.15 6933314 3489408 3286194 3317146 3181434 4432590
3612.04 6608792 5428626 3644324 3506046 4436782 4483788
3614.93 4127078 3663798 3460316 3878060 5335296 5861268
3617.83 4794550 4559556 6782264 7946762 5060822 4174000
3620.72 4098534 3754932 3909072 3694868 3706252 3968194
3623.61 3667998 3505930 3847676 4362306 4721690 4388894
3626.50 3753364 4416850 8030746 10601140 8290956 11302270
3629.40 10206070 5003960 4288818 4212596 4218414 4157170
3632.29 4142486 4419340 5268826 4704154 4225192 4281728
3635.18 4326824 4050140 4083470 4419960 4558460 4565296
3638.08 4296374 4127510 4244726 4653080 4829368 4246408
3640.97 4504846 4858742 5070400 4937048 4915156 4682296
3643.86 4391954 4089220 4759450 5282298 6325786 7934028
3646.75 9646572 8419264 6427566 8746070 14635860 11996470
3649.65 7743082 8916988 9201362 8117444 5728354 5092416
3652.54 5181202 5273296 5160484 5332424 5602206 6066134
3655.43 9395242 11406590 7704508 5398976 5024722 5282008
3658.32 4997790 4783398 4802324 5150716 5303676 5227252
3661.22 5177958 5295600 5186946 5125724 5110582 4656510
3664.11 4626748 5215590 4992976 4855610 4889604 4716782
3667.00 4752100 5674558 8044588 8541048 5974812 6313212
3669.90 12379160 15780000 8502226 4646954 4170544 4715010
3672.79 5016416 6020620 7236712 10663060 11279090 13788140
3675.68 15202740 8642296 5782188 5766026 5309228 5149748
3678.57 6532382 7485342 6690594 6163546 5805732 5763490
3681.47 5914144 5721624 5252090 5233996 5340266 5877586
3684.36 5687486 5224004 4839684 5105542 5100658 4894586
3687.25 7537718 16065300 15568460 7170508 4942652 5391790
3690.14 6355400 8282284 7721654 5043326 4116156 3977266
3693.04 4006522 3644316 3815706 3826860 4164916 4466750
3695.93 4311186 4294946 4127802 4065352 4208252 4221130
3698.82 4226502 4495114 4793262 3944160 4549008 6442554
3701.72 5941490 4443736 4256670 4002050 3659926 3592628
3704.61 4080174 4161894 3648746 3417942 4142312 4375560
3707.50 4154000 4091958 5808142 7598234 5364370 3931914
3710.39 4526476 5455752 10439180 12873380 7379208 4276020
3713.29 3840922 3739210 3651456 3624154 3753500 4081572
3716.18 4127424 3833914 3566418 3858772 4627182 4665368
3719.07 3522688 3646876 4078902 4111904 4430124 5970956
3721.96 5971528 4430190 3844630 3632208 3893046 5116850
3724.86 4988256 4513532 6235536 6279276 4194956 3888328
3727.75 3668592 3331202 3234520 3366296 3395236 3274474
3730.64 3807838 6864176 11028640 8372042 4065812 3485808
3733.54 4754722 6923200 8073396 7255564 5758298 9432106
3736.43 10294440 5468878 4459522 4930198 4350738 3971240
3739.32 3563020 3524416 4425206 5229534 4746972 4218136
3742.21 4055294 4753866 8664610 17607260 23608320 14959240
3745.11 5782624 3628906 3416406 3898226 4416160 4438636
3748.00 5269146 11960950 17190170 10179800 4920268 4865296
3750.89 6290560 13970800 18073400 9153840 4471466 4047280
3753.78 3918934 3617488 3547136 3729258 4999560 5745282
3756.68 4390812 3978760 4187748 4171094 4830236 6452124
3759.57 6756128 4638966 3698986 3162430 3419136 3712478
3762.46 3566644 3462424 3614966 3603288 3975210 5368818
3765.35 6484148 4843330 3772056 3469658 3912980 3750040
3768.25 3694494 4552754 7523224 7397088 4452024 3618028
3771.14 3356056 3240740 3461924 3231944 3524332 3942968
3774.03 3677732 3756886 3875820 3580662 3516808 3450162
3776.93 3392436 3391914 3540436 4164816 6290374 5922280
3779.82 3805346 3487754 3424502 3431400 3499844 3511304
3782.71 3800654 3776270 3705834 4096346 4006370 3997758
3785.60 4058508 3474882 3075130 3348988 3935962 4229224
3788.50 3926972 3682812 3445240 3291638 3570482 3751602
3791.39 3730158 3638058 3647916 3626652 3663004 3721874
3794.28 3665314 4325620 4844560 6522190 6499792 4692638
3797.17 4275968 4112710 3578182 3456206 3669026 4221130
3800.07 5653774 12273970 16407440 8904076 4798300 4776252
3802.96 4420496 4081818 4432356 4478434 4172642 4245988
3805.85 6534316 12138540 11175540 5153098 3990904 3723260
3808.75 3430776 3472750 3985364 3796396 3575922 3566114
3811.64 3586348 3121160 3420160 3521642 3850640 4371980
3814.53 4976314 9165132 17329090 12904070 5324260 4157322
3817.42 3962898 4244900 4054338 4218056 4819954 7059332
3820.32 9514816 9438494 10180500 6728458 3974352 3940892
3823.21 4083968 4136552 3820412 3648124 4350504 5085534
3826.10 5830840 5522304 4677434 4427262 3964886 3896418
3828.99 4262964 4354942 4008226 4349718 6934000 7647550
3831.89 4644700 3537376 3537436 4314122 5476510 7950854
3834.78 6993486 4802672 4598384 4773382 7887320 16435070
3837.67 14772220 6019276 4428694 5250710 5678920 5967128
3840.57 7332708 5550600 4358466 4456866 4739026 6215104
3843.46 6327230 4767946 4740830 4277262 3876626 3940360
3846.35 4162240 3626544 4124296 4396766 4310396 4464188
3849.24 4747758 4553266 4707576 6038812 12453150 16120710
3852.14 9367984 6905460 13849530 23758440 19623070 8343572
3855.03 4697632 4793434 5139762 5348026 5323704 4723608
3857.92 4533646 4693020 4901478 4563314 4470904 4750536
3860.81 5842780 7107810 5926908 4882012 5116288 5576038
3863.71 6714746 9040092 11025180 7042066 4555070 4662826
3866.60 5015668 4668636 4753342 5557538 7677254 9750500
3869.49 13394070 10783030 5671098 5458342 5098840 4572746
3872.39 4292822 5064242 6847178 8194590 6540470 4687250
3875.28 4634796 4750092 4962940 4744134 4264756 4489314
3878.17 4671516 4552024 5516456 7834688 8084428 6582958
3881.06 5370478 4603402 4688284 5153632 5300840 4639786
3883.96 4892954 6120930 10725690 11812420 7112880 4530014
3886.85 4330496 4132658 4335440 5050406 5746358 5555922
3889.74 5001034 6432790 9727992 8544532 5717374 4885538
3892.63 4464248 4779734 4987254 4566224 4713598 5226172
3895.53 5750934 5632184 5227296 5272510 5542114 5688392
3898.42 7783216 9774924 7052994 4966244 5306356 7830242
3901.31 10839130 8833232 6264656 5639590 7699232 10510590
3904.21 8217836 6642304 6787700 6924764 6473446 5797078
3907.10 5425982 5479300 5605276 5819162 6399944 6431504
3909.99 6442694 6561318 6472732 5811568 5703584 6205484
3912.88 7030692 7332348 7160078 7160444 6903682 6877808
3915.78 7506590 9816688 11638570 8496490 6603146 6541316
3918.67 6835284 7286274 8093970 7964264 7911788 7653272
3921.56 6716348 6655724 7392188 7676812 8029502 8459744
3924.45 8683194 8268452 7346094 6698214 6561302 6150350
3927.35 6038532 6487646 7660342 8425958 7669340 7174618
3930.24 7517236 7524246 7769906 8978062 9307152 7604422
3933.13 6910188 7434950 7722124 7517950 7266366 7123684
3936.03 6909032 6738664 6564286 7014650 7799556 8277376
3938.92 8361712 7580486 7231092 7065610 7027602 6874148
3941.81 7936148 8805576 7860220 7840726 8464718 9719494
3944.70 9852050 8003126 7144948 6863086 7487846 7604768
3947.60 7152530 7144606 7102874 8228146 9184860 8236984
3950.49 7022718 7074818 7798864 7859532 7552690 7509230
3953.38 9824558 14236040 12477250 7551898 6307968 6624494
3956.27 7280306 7195914 7196122 7411404 7644468 7505632
3959.17 7524552 7135622 6841166 9038786 12076570 9493152
3962.06 7152746 6937344 7339152 7539516 7950780 8017714
3964.95 7758522 7796218 8444284 9960860 13715690 12915530
3967.85 8512988 7268392 7589598 7533384 7373512 7531356
3970.74 7463056 7057146 7345772 9451748 17744090 18923000
3973.63 10395990 7659228 7711318
##END=
