##TITLE=Acetonitrile
##JCAMP-DX=4.24
##DATA TYPE=INFRARED SPECTRUM
##CLASS=IUPAC A
##ORIGIN=NIST, Anayltical Chemistry Division, 301-975-3108
##OWNER=COPYRIGHT (C) 1998 by the U.S. Secretary of Commerce
##DATE=98/10/1
##$SPECTRA VERSION=1.00
##$UNCERTAINTY IN Y=2.0 % relative (B=1.0E-04,C=3.1E-10,D=2.7E-14)
##CAS NAME=Nitrile-Acetic Acid
##CAS REGISTRY NO=75-05-8
##MOLFORM=C H3 C N
##MP=-45.72 C
##BP=81.6 C
##$NIST SOURCE=QUANT-IR
##SPECTROMETER/DATA SYSTEM=IFS66V (Bruker)
##INSTRUMENT PARAMETERS=KBr Beam splitter; MCT Detector; Multipass cell
##STATE=gas
##SAMPLE DESCRIPTION=Acetonitrile Primary Gas Standard
##PRESSURE=101.3 kPa
##TEMPERATURE=23 C
##SAMPLING PROCEDURE=1 L/min Flow
##RESOLUTION=1.9290
##DATA PROCESSING=3-Term B-H Apodization
##XUNITS=cm-1
##YUNITS=(micromol/mol)-1m-1 (base 10)
##XFACTOR=1.0
##YFACTOR=5.6843E-14
##DELTAX=0.9645
##FIRSTX=574.687
##LASTX=3974.595
##FIRSTY=-1.91E-07
##MAXX=3973.63
##MINX=574.69
##MAXY=.0000785
##MINY=-3.75E-07
##NPOINTS=3527
##XYDATA=(X++(Y..Y))
574.69-3364876-3540288-4353822-4337614-4028694-2780504
579.51 67702 711672-2834908-6527422-6610562-5298940
585.29-4090118-1976258-1497734-2941706-5302120-6365478
591.08-4879534-2947072-2600300-3123012-4044604-4805286
596.86-3922594-3020174-3346422-2738920-1561976-2026684
602.65-3562446-4626494-4682358-3269398-1260654-129104
608.44-1545128-3456738-3223000-2545290-3176598-3768190
614.22-3809430-2758934-1095430-669034-991722-1685718
620.01-3105630-3847828-3057552-1654850-1323744-1574166
625.79-1005922-773094-1675608-1869706-1262800-1174362
631.58-1268430-1077880-1354408-1993152-2468310-1990056
637.36-497170-93720-728584-953100-619816-286452
643.15-674194-536474 121872 548678 940496 812900
648.93 113816-382392-182656 906582 1504802 1009602
654.72 174310-86382 40784 120508 378942 439596
660.50 364868 903934 1458038 2078446 2684658 3406278
666.29 4366924 4177988 3679888 4048012 3979998 3894952
672.08 4252550 4548586 5007450 5787234 5839988 6257302
677.86 7626014 8803160 10279830 12016330 13444870 16048360
683.65 20010290 24023870 27910410 32218540 37048040 42983640
689.43 50146130 57632450 65393040 73838100 81987850 89842440
695.22 97562630 104444400 110089200 115382800 120644000 124304300
701.00 124949200 123653400 120429000 115965700 110812800 103743900
706.79 95827980 89977140 81967870 70554390 68486570 74904340
712.57 65511960 48361260 59987520 91210480 91232200 69101480
718.36 63626660 70858530 79020700 86144450 92503390 97301010
724.14 100422400 101931200 101982200 100893800 98458330 95115540
729.93 91187150 86379700 81205660 75732960 70067520 64790010
735.71 59376010 53201470 47444700 42965040 39280420 35363380
741.50 30797170 26431540 22812680 19528570 16641730 14051030
747.29 11568620 9753076 8566728 7377620 5926850 4348904
753.07 3037632 2360666 1874210 1150134 402526-114946
758.86-329692-341720-304036-438544-1240534-2112462
764.64-1923412-1250654-1299976-1878892-1712634-1135720
770.43-1513534-1993972-1984122-1937220-1824892-1512672
776.21-1536696-2058462-2278568-2135188-1896606-1744888
782.00-1958284-2048006-1736766-1247946-1374788-2155274
787.78-2713564-2613226-2267282-2352628-2755266-2670090
793.57-1926360-1497826-1849346-2546698-3092232-2851564
799.35-2194878-2149106-2393330-2546994-2642772-2643798
805.14-2758842-2866100-3084444-2921306-2530626-2381492
810.93-2315654-2524044-2567694-2512150-2730434-2635282
816.71-2123264-2061040-2491404-2502762-2111482-1841542
822.50-1909218-1904296-2004066-2113868-1968940-1748538
828.28-1830904-2291700-2584100-2787658-2632022-2042348
834.07-2119624-2207160-2097818-2445670-2757102-2576036
839.85-2251878-1824904-1356954-1248424-1779064-2453516
845.64-2635948-2569662-2576434-2068172-1490370-1492896
851.42-1694052-2031574-2354522-2011766-1860630-2283674
857.21-2400178-2266914-2225254-1989932-1782678-1670034
862.99-1564044-1700178-1747420-1500104-1322066-1498586
868.78-1706146-1568096-1224594-925492-633968-342628
874.57 13978 759590 1567498 1999818 2275542 2919546
880.35 3860512 4786642 5855020 7215126 8752784 10602790
886.14 12774070 15181140 17710890 20420550 23583610 27073170
891.92 30515230 34116960 37766240 41738380 46426870 51703810
897.71 56889410 61708440 66655890 71575790 76196930 80393980
903.49 83842860 86733750 88874500 90096730 90650060 90465860
909.28 89325700 86520750 81278990 74629130 67208200 59206820
915.06 51134100 44959710 49722800 73430180 82928970 52860220
920.85 26477760 28297200 42993200 52850910 52118280 53626640
926.63 61581160 69357910 73456760 75781620 78154380 79387570
932.42 78719440 76640860 73523520 69582260 64935870 59732200
938.21 54387960 48950580 43103170 37329130 32097640 27186470
943.99 22418400 18119410 14688930 11845050 9330838 7193438
949.78 5103588 3463158 2455056 1726768 1073994 463248
955.56 20882-349568-469006-181508 56572-49164
961.35-252048-118838 361084 1061740 1431470 1528550
967.13 1775706 2182388 2554176 2519090 2480416 3055200
972.92 3778864 4401158 4796708 5219718 6205520 7803014
978.70 9527978 10070790 9646298 9818600 10870070 12766860
984.49 14035150 14009710 14489520 16286640 18327390 19499580
990.27 20719520 21945010 24384590 31908310 34513370 27768190
996.06 24675370 27155800 34381580 40510900 37239230 35486430
1001.85 37713060 43770180 53624920 51877820 42788590 38428070
1007.63 51488100 85684440 93772690 66309000 48871310 52521960
1013.42 73045000 85525870 69973500 57940810 66006860 83923470
1019.20 103097100 95658700 72538550 65950080 79043860 140086300
1024.99 187432200 138677800 79216000 63262730 81015080 127978300
1030.77 135867200 93505370 71003220 76337380 111576100 152205200
1036.56 137836900 99091320 77220960 96239480 193925100 248056200
1042.34 163954100 88911090 78073340 97166850 144976600 149159500
1048.13 101752500 80694250 82870470 104620600 144245900 134484500
1053.91 93659130 87772940 99885100 143319100 201068600 169433100
1059.70 96227930 76080340 83033920 101449500 119193000 100922300
1065.48 72547810 68769220 73509040 86341400 99809650 86255650
1071.27 65882340 59471550 66326090 95273030 109795800 83981390
1077.06 60848310 56032610 53506810 54026590 60373420 63685850
1082.84 53503580 41146460 37291430 40355110 48454590 51168420
1088.63 41592870 32114920 28942420 31665800 41745660 47133020
1094.41 36303620 24153130 19940570 19164760 21145700 24326000
1100.20 23359410 19587490 17235860 16908670 17529790 18027780
1105.98 16697490 13980310 12037540 11044770 10677880 11805990
1111.77 12148960 9826616 7500350 6587206 5957682 5939468
1117.55 5842618 5190422 4718672 4508286 3976588 3795766
1123.34 3830664 3391908 2473238 2025082 1961260 2097404
1129.12 2159010 1921138 1218184 665634 499108 693776
1134.91 784966 702248 383792 147846 158678 382994
1140.70 370960 290948 275718 199886-57290-142548
1146.48-172148 47676 158238-21770-294520-428124
1152.27-478930-400894-508832-609648-616652-544088
1158.05-699524-774102-705172-579648-793122-885836
1163.84-677042-576768-673178-518416-494242-567942
1169.62-680746-635826-671180-743568-745530-729822
1175.41-836606-773976-877564-963332-1005656-984474
1181.19-1023536-1084754-1094102-941974-897412-839956
1186.98-880812-748500-671476-761674-814610-513194
1192.76-202268 59236-92332-407800-517076-440620
1198.55-468814-304704-225864-246012-288718-206500
1204.34-163900-175742-307460-174640 100140 216062
1210.12-15782-61962 25844 323276 855932 1171118
1215.91 708262 280464 441038 823882 708638 260718
1221.69-232808-284528-29700 246050 303310 539906
1227.48 529824 260190 37404 143110 287710 327306
1233.26 373744 526324 496260 935068 2021240 3409386
1239.05 3507272 2470534 1578682 1315906 1296664 1237340
1244.83 1066820 1097612 992718 926846 1091506 1419040
1250.62 1658006 2991492 4772288 4657870 3219402 2704758
1256.40 3201220 3975462 3590580 2742798 3278568 5420686
1262.19 6163438 4971050 4118370 4943530 7203752 8732396
1267.98 8085640 7551630 7639106 8180708 8738900 8861694
1273.76 8441024 8347684 8953088 9911360 10395070 11157630
1279.55 15177320 22035160 22776800 18506570 19838370 27338620
1285.33 29093110 23249720 17066040 12333290 9456260 8652862
1291.12 9067446 10739520 17552870 32770950 38399580 27849970
1296.90 19321210 17074160 16983790 17826740 18585460 18021250
1302.69 16868620 17157230 16851360 15938320 22255330 40959190
1308.47 51699780 40554350 28091230 24554030 24532240 26047660
1314.26 28122910 29804550 29759110 28082510 26932790 27633360
1320.04 32721320 51586080 75626450 74076950 56483410 49127140
1325.83 50733490 53928400 55041480 56265020 62716780 68332350
1331.61 56920560 40648830 43563510 85324790 153734900 163195000
1337.40 107170800 67493120 53596850 48942460 48739640 50445570
1343.19 53876700 59001030 60277950 57204900 63082420 96554130
1348.97 147304300 158131200 119476300 90349170 100812000 124749600
1354.76 110669700 81847430 76524180 85688860 98884250 112703800
1360.54 130061600 162205700 200458700 207622700 175227900 154001100
1366.33 169720800 199583900 223293400 244344200 264789100 273119100
1372.11 276928400 294397800 334025400 419345200 510057000 497398100
1377.90 381796300 279706700 238800200 231979300 242599300 260308800
1383.68 284582400 312776700 332919100 341677400 343009700 347276400
1389.47 347608800 347311000 377895800 439189000 480697100 481057400
1395.25 461615500 442834000 431448400 435502200 450235200 437368100
1401.04 395138500 363985700 347889600 350334800 419292300 541496100
1406.83 579225200 517936000 457445900 414258200 375228400 347345500
1412.61 324021200 313619000 335582900 364092400 346563500 312841700
1418.40 419731700 759004000 1025113000 963011500 731814300 525645400
1424.18 392849000 315825800 278952800 258062600 243821600 236585600
1429.97 234432300 239055700 284111900 466943500 679786100 642094900
1435.75 461012500 363377700 328080600 293738400 260913500 244634800
1441.54 279221200 376858800 412135500 336242000 275566100 327632100
1447.32 540192600 698891700 571060000 374247600 308455500 316764900
1453.11 303669700 272556800 276262600 289030800 267576800 237914200
1458.89 232973700 284081900 569798600 1182291000 1382631000 866803300
1464.68 437818000 332412600 309718400 299678800 300197000 290828400
1470.47 272032600 266400000 273417800 298213500 326472300 317661800
1476.25 353417000 516248500 604723700 504571200 526791600 724100200
1482.04 710376100 480762100 323336500 268042600 255541600 246723100
1487.82 235610400 230894200 239257600 261288300 275782300 287466200
1493.61 378648700 476060800 419767700 381511100 476871600 463594100
1499.39 334701100 262788500 234218400 213983300 206925400 205920000
1505.18 207381400 218672300 233331200 225167900 204546200 188351500
1510.96 228498600 468991300 711593500 564986000 285714800 190040100
1516.75 201291200 235213300 239222000 206865300 197772100 225645300
1522.53 226406800 185441600 170289700 264484800 483210400 533966400
1528.32 329191600 170727000 142587400 171412300 223007500 249396500
1534.11 215407000 177870500 176877600 185672700 186636900 205329400
1539.89 268171300 277125200 192159800 125697400 109774100 111164200
1545.68 114586400 112692200 106955800 109092100 115330000 105109000
1551.46 98250540 144213200 194126800 165628500 107269700 82579660
1557.25 85549610 95072910 97075910 86212860 76034330 80532830
1563.03 86200940 83076440 118232000 178112600 153834900 82762610
1568.82 53469840 45970320 45480670 57682700 70293740 74218020
1574.60 81144380 92080820 100830400 105297800 103633100 86920070
1580.39 62458880 49218380 45213990 42408900 41661720 43941410
1586.17 44943600 43771470 42559960 41830710 47774770 51814720
1591.96 40392780 27482250 23089870 21713640 19776950 18458700
1597.74 20563260 25559990 30729680 31011020 32615910 40312840
1603.53 36737320 22326880 14607700 12782160 12138730 11921160
1609.32 12213770 14423740 17522150 18725220 19157380 23362790
1615.10 30458690 28130100 17496160 11319100 9806910 9050984
1620.89 9487626 12841410 15805390 13844800 11337750 11682580
1626.67 12154900 9529058 6532066 5408146 4966912 4682828
1632.46 5722486 10996860 16844330 14822330 9783626 7758846
1638.24 6758582 5028754 3485110 2882040 2547910 3192454
1644.03 7581396 12748460 13226380 10782290 7702320 5398094
1649.81 7448774 18201410 29495810 26090410 13987210 5724572
1655.60 2632096 1914302 1729796 1695932 2074158 3535806
1661.38 5629296 4980342 2319916 1197926 1122784 1567732
1667.17 4358546 7575798 6928882 4948344 3465210 1933202
1672.96 3544072 7587790 7079930 2704616 746732 1191676
1678.74 2180728 2263528 2620040 6172946 14133050 20648980
1684.53 15154440 4865038 1691112 1967282 2014088 1602668
1690.31 975160 918216 1566706 5007290 14257080 17932430
1696.10 9926712 4729034 10309390 18851550 16667180 7189288
1701.88 2878486 3552032 4741558 5301008 4634230 2661558
1707.67 1540494 1545490 1651292 1429740 1690392 3192082
1713.45 5696154 7010850 10240870 15552530 14140850 7762614
1719.24 3645806 2490260 2507540 2671012 2654208 2401426
1725.02 2451080 2596822 2917676 3853012 4967786 4921648
1730.81 6151880 12038160 18260970 17024280 9735346 4730636
1736.60 4399060 6909512 10456340 9898268 6642510 5725348
1742.38 5861780 5307262 5118792 5210282 5474274 6223646
1748.17 6662974 8080510 10735540 9374086 5759808 4340432
1753.95 4566916 6019318 7195718 6352232 5409006 5448902
1759.74 7171144 9233674 8085726 5694798 4923186 4770102
1765.52 5436638 7672570 8554952 6809960 6905536 10268200
1771.31 13894950 12286210 7521332 5901258 5848484 5415516
1777.09 5436212 5788592 6369772 6440102 5642406 5065352
1782.88 5628926 6492994 6305974 5595342 5108262 5022692
1788.66 5846250 7377954 9689176 11403100 9431458 6536770
1794.45 6022382 6076116 5897266 6373948 7614788 8110580
1800.24 7972400 7821242 7543144 7328492 7393314 7593636
1806.02 7887698 8102980 8482772 9327722 9838518 9414862
1811.81 9116324 9225270 9380802 9515152 9849642 10222540
1817.59 10433670 10401200 10444220 10608820 10648110 10817560
1823.38 11773860 12054450 10484140 9152304 9634606 11607700
1829.16 13043730 11631590 9067466 7940644 7941454 7868366
1834.95 8269764 9334614 10170870 10643490 11565770 12312560
1840.73 12179800 12973500 16100160 16820150 13642410 11629210
1846.52 11542930 11264320 10717980 10316720 9885392 9305474
1852.30 8600684 8033322 7806642 7505600 7098854 6716238
1858.09 6503606 6458024 6329108 5928330 5498442 5339838
1863.88 5634200 5888138 5994008 6534812 7496814 7250010
1869.66 5442834 4219392 3982028 3837442 3709538 3476502
1875.45 3324730 3544218 4117718 4573464 4377684 3921692
1881.23 3833990 3820922 3800410 3809002 3962534 4250452
1887.02 4719960 5626176 6079206 5480966 5160316 5328726
1892.80 5416074 5592936 5782550 5725246 5812102 6104240
1898.59 6423812 6658554 6807392 6827032 6945186 7096738
1904.37 6883998 6130500 5346666 4628422 4074852 3784500
1910.16 3465088 3290662 3458150 3551732 3611934 3857280
1915.94 4939128 6139540 5322072 3695102 3048656 2899536
1921.73 2917842 2714414 2482438 2400740 2272540 2109802
1927.51 2051460 2075928 2090286 1835164 1576816 1468258
1933.30 1368578 1184478 1084838 1157538 1322566 1400398
1939.09 1470190 1834612 2494292 2364828 1413248 883074
1944.87 911426 926160 849840 828438 863922 832886
1950.66 938766 1076434 954194 717580 714788 697998
1956.44 677524 791782 870124 752040 597986 452016
1962.23 259760 204152 370292 632978 937656 882982
1968.01 557420 296424 207880 329874 580268 570564
1973.80 213672-27882 100050 188540 238872 412000
1979.58 519906 383332 233524 174934 146750 143450
1985.37 491700 992958 896794 385200 300852 589308
1991.15 695848 422150 164772-21504-96402-75602
1996.94-77088-149278-146062-28096 171214 377204
2002.73 311400 13788 90102 253274 120098-12520
2008.51 9508 13258-23468 51264 191870 121124
2014.30 114984 435010 604192 195176-289968-339402
2020.08-63732 129390 275640 479200 556498 449540
2025.87 299016 162370 165214 142352 235192 467272
2031.65 633850 621642 564716 567482 568722 625764
2037.44 857178 873960 816288 1260792 2186860 2792582
2043.22 2556368 2271036 2502992 2736700 2772518 2790180
2049.01 2812248 2933074 3707596 4651864 5148440 5433218
2054.79 5668012 5958636 6356894 6582538 6676392 7046712
2060.58 7641896 7894082 7852538 7726778 7457516 6943142
2066.37 6434148 6084156 5769828 5263118 4265090 3123152
2072.15 3366564 5144494 6303624 6489176 6516476 6320880
2077.94 6735282 7513778 7850590 7782718 7582184 7540748
2083.72 8307014 9271414 9281082 8555396 8010788 7859300
2089.51 7717556 7444302 7101236 6350594 5418358 5078870
2095.29 5263948 5124476 4989406 5340120 4913542 3686212
2101.08 3160708 2884302 2169518 1337342 976764 1304688
2106.86 1688372 1459848 984146 834302 874670 700404
2112.65 637138 720408 656906 301660 442588 1306914
2118.43 1501284 810326 561664 775040 761762 523626
2124.22 465502 453566 448830 336184 171468 356168
2130.01 758250 753486 484796 418316 534684 763180
2135.79 1157034 1319176 950194 582154 600776 651644
2141.58 556380 479490 540954 493896 383142 345690
2147.36 349690 268236 180134 164114 343436 604372
2153.15 734986 806078 1451540 2089388 1619998 863162
2158.93 671104 845692 1049882 913602 741956 859514
2164.72 1006598 880218 719308 733190 749138 766286
2170.50 936036 934038 611828 597184 1344630 1784310
2176.29 1259000 743628 861660 1088380 1128470 1126490
2182.07 1054698 858548 938540 1232634 1316162 1093742
2187.86 1175892 1536480 1584898 1486710 1584844 1680948
2193.64 1808278 2025070 2132894 2078160 1940960 1899572
2199.43 1978130 1796828 1690694 1861622 2068764 2194062
2205.22 2137354 1942438 1831384 1699238 1598162 1661080
2211.00 1973110 2290082 2614750 3264270 3662180 3282896
2216.79 3040850 3229250 3498652 3909630 4595636 5404034
2222.57 6141370 6696604 7479366 8377434 9081932 9988942
2228.36 11376790 12853540 14335930 15962880 17828140 20027570
2234.14 22405480 24784310 27455110 30387030 33582060 37009580
2239.93 40546840 44149670 47902190 51643190 55420590 59164770
2245.71 62757360 66124180 69378180 72409890 74648600 75705540
2251.50 76197710 76337010 76697320 77390160 75263200 69093820
2257.28 63151760 59656460 61587650 65620910 57578950 42817690
2263.07 38893640 56415530 87773180 87505530 59640420 51232450
2268.86 60360530 71388330 82047220 92147640 100962200 107935800
2274.64 113133400 116797600 118925800 119602200 118797900 116761800
2280.43 113963800 110684500 107033600 102935000 98315710 93556030
2286.21 89161100 85381520 82116760 78935330 75738360 73239190
2292.00 70987940 67476380 63357680 60252110 57026890 52802080
2297.78 49641940 47526370 43203800 37768010 37431230 46780690
2303.57 66624220 81808430 79204990 72478820 73397800 77593280
2309.35 81044910 85173300 89210950 90718820 90211540 89293300
2315.14 88198620 86100910 82185160 77045600 71440900 65604970
2320.92 59523950 53478800 47911370 42945580 38310280 34209550
2326.71 30645070 27676450 25387210 23490150 21645440 19865660
2332.50 18335640 17259600 16440960 15383300 14247340 13497990
2338.28 13016910 12551190 11781510 10862990 10368010 10173720
2344.07 10074150 9649738 8845454 8243002 7845554 7829968
2349.85 8092276 8316620 8631778 9393524 10455390 10871210
2355.64 10689810 10667160 10723270 10740540 10882630 11305760
2361.42 11941690 12705150 13237430 13229770 12777050 12160710
2367.21 11671110 11370120 11584670 12811590 14641660 15137410
2372.99 13516910 11954940 11883520 12736940 14211390 16399500
2378.78 17498010 15810770 13892690 13722910 14117310 14648510
2384.56 16422380 19182670 19747940 17571260 15693250 15617180
2390.35 17497450 20648310 23507000 23726760 20884960 18782250
2396.14 19584920 23389510 30345210 35159830 30163080 21296710
2401.92 18429520 20451180 23586670 25449280 23953570 21466340
2407.71 22662560 24851680 25996380 27815600 27637420 24605040
2413.49 23525570 26951730 33241350 39517220 38001820 27947970
2419.28 22057710 22981790 25006070 26069160 24911430 22454860
2425.06 22505580 24326250 26048990 27231980 27516260 26721850
2430.85 25117390 23747630 24652890 24786440 22488660 25120940
2436.63 31223140 29910300 22020720 18317570 19818800 21962480
2442.42 22213190 20617220 19453630 19126810 18967880 18624160
2448.20 16989120 14830230 13476690 12895370 13368670 14612760
2453.99 15303010 15815020 16871420 17382910 16219100 14829250
2459.77 15125860 17562110 19618490 18458990 15928460 14644540
2465.56 14546060 15106200 15590560 15527020 16252800 17844810
2471.35 17653360 16338810 16576630 17653940 17384190 16558580
2477.13 16483370 16661220 17673710 20000630 20813260 19175790
2482.92 17811030 17454240 17250170 16847170 16492050 16046610
2488.70 16331470 19268570 22294200 20814270 17316020 15378970
2494.49 14463420 13962050 13899730 13646810 12976650 12870360
2500.27 14403730 16594830 16933450 15360790 13593630 12649920
2506.06 12632680 12946470 13036060 12769980 12607370 13294590
2511.84 14463370 14576020 13154370 11544710 10633750 10178970
2517.63 9858486 9915158 11314030 13653290 14013880 12167480
2523.41 10559910 9639606 9210688 9393664 9830788 10023520
2529.20 10099770 10079360 9823870 9808068 9719286 8859484
2534.99 8018864 7883938 7982118 8100540 8050758 8009612
2540.77 8491578 8961150 8687326 7616774 6455016 6075044
2546.56 6295494 6663920 6856736 6935160 6834222 6869296
2552.34 7731418 8774000 8362078 6937492 6133466 6029304
2558.13 6056516 5757114 5431606 5549022 5911000 6319146
2563.91 6835348 6857442 5989992 4867606 4292248 4261518
2569.70 4404284 4550216 4560822 4672338 4997410 5294732
2575.48 5295460 4975778 4647164 4456912 4584688 4983294
2581.27 5319576 5471582 5758868 6470834 7453880 8122204
2587.05 7921576 7507968 7662056 8421780 9507140 10534990
2592.84 11272140 11846240 12452830 13404570 14585140 15406210
2598.63 15948280 17024860 18423730 19391280 19992060 20602970
2604.41 21359850 22597140 25037850 27621580 29418110 31058520
2610.20 31959360 32161350 32580920 35157400 39850220 43724880
2615.98 46714530 48742690 50753080 53736360 57562330 64198090
2621.77 65526610 57711710 47444210 37853780 30004820 24716440
2627.55 22778750 22888870 23240680 23112890 22791210 22603860
2633.34 22450340 22258120 21717470 20544850 19203750 18032570
2639.12 16752010 15333310 13997870 12627410 11140080 9533910
2644.91 8157244 7399320 7073572 6652522 5886292 5251210
2650.69 5014792 4816442 4550938 4314864 4343734 4612560
2656.48 4837208 4932752 5063522 5344120 5908806 6933768
2662.27 8093906 8567154 7743146 6477868 5576848 4739864
2668.05 4227434 4115286 3645736 2675092 2033872 2329706
2673.84 3528678 4772250 5152364 4590486 3879558 3725054
2679.62 3852376 3679900 3363320 3234730 3256814 3271820
2685.41 3126222 2906206 2783542 2619718 2655060 2850398
2691.19 2795072 2644860 2421982 2120040 1921798 1813764
2696.98 1678832 1222888 855418 1023444 1421318 1750242
2702.76 1823344 1972814 2123230 1878368 1553280 1198306
2708.55 1265062 1869534 2322058 2283476 2012476 1896162
2714.33 1793398 1908320 2711650 4020316 4688802 4080486
2720.12 3493192 3763914 4143874 4287900 4471918 4597882
2725.91 4818534 5469834 6015644 6109122 6344488 6856828
2731.69 7423946 7568040 7298512 7238408 7336628 7339140
2737.48 7237356 6936670 6652656 6741368 7049940 7411142
2743.26 7753184 7588654 7136660 6973262 7196552 7648092
2749.05 8328966 9074694 9267728 8935352 8982044 10014800
2754.83 11414720 12534590 13150170 12640830 11228320 10050310
2760.62 9221646 8571200 7947108 7122676 6586894 6558064
2766.40 6346404 5557944 4738298 4141800 3857924 3922616
2772.19 3888100 3784364 3837234 3769846 3489804 3448198
2777.97 3739260 4318662 5080166 5287358 4717738 4025476
2783.76 3549600 3006620 2568796 2509966 2757230 2987712
2789.54 2984346 3449584 4851738 6998528 8792112 8209238
2795.33 5709906 3734532 2731910 2248072 2154252 2682546
2801.12 3593614 4139000 4255828 4415848 5047470 6244436
2806.90 7742066 8578318 7623030 6056158 4705054 3283912
2812.69 3090008 4593036 5744064 5621382 5467170 5791770
2818.47 6323802 7107718 8396732 9857342 9803048 8442214
2824.26 8182102 9221908 9797794 9417192 8795022 8615076
2830.04 8813564 9409184 10885740 12677730 14460890 15973270
2835.83 18372110 21484530 20263040 15394130 12119200 12518140
2841.61 15537370 18847270 21499970 23783150 25766510 27823980
2847.40 30342090 32179540 33042380 34499570 37073520 38846800
2853.18 38746910 38528770 38649980 38425350 38040640 38472230
2858.97 38930060 37698560 35133800 33274100 33689440 35412600
2864.76 39187960 48098310 59083590 63082070 56638630 51002940
2870.54 51357870 53594620 57325980 62023380 66336080 70313520
2876.33 74110670 76408760 76973440 76514100 75339160 73714820
2882.11 71050980 66030130 59078570 52578900 48410330 47121360
2887.90 46944180 45983010 45642310 47621080 49927550 49894610
2893.68 48375120 46895200 46572520 48017880 49925360 50980200
2899.47 51796540 52824240 53147680 52248430 51563640 51670790
2905.25 51557660 50983560 49263680 46945080 46018580 45276720
2911.04 43268210 42276900 42198780 40528900 39049940 38455480
2916.82 38069070 38870460 40091050 41320770 43251310 43784760
2922.61 41780440 39178620 37625900 40668470 51461110 64979960
2928.40 72958360 75903180 79838240 84351130 88881400 95682780
2934.18 104213400 114144200 127071800 139305200 146737200 151406000
2939.97 153907400 155734300 157988300 160779000 164909500 167738300
2945.75 164376100 149253000 126525400 106820000 91766850 83158020
2951.54 95547710 127877100 143542100 121819700 93568940 87265610
2957.32 88281110 96582780 113922800 128686100 141772400 152746500
2963.11 161492700 177614900 201642900 208888200 194689700 181039200
2968.89 173235700 166636000 159190900 150852700 144270700 150353300
2974.68 163122200 149889300 118119900 97403190 86500280 78205150
2980.46 71009860 65663350 72884610 118868100 162100300 128530300
2986.25 68960410 42785150 34796090 31286540 31549840 36077190
2992.04 52335840 89748960 105979100 73594640 41986360 34399810
2997.82 35497250 36711520 37280090 42347640 70592570 114673500
3003.61 111703700 67680140 41993490 35982030 34533290 33861840
3009.39 36401010 62958040 147316900 211587400 155886400 72445360
3015.18 41168730 35723040 36218870 37479690 42269510 69818130
3020.96 120802700 126637500 79128380 46783020 37297560 33293050
3026.75 34048780 38819530 53276610 95557940 127019400 96384470
3032.53 52761870 37283400 34155360 32717620 31930880 40707680
3038.32 94963690 178315300 171574400 90491500 46720730 38868740
3044.10 37585230 38107760 41031350 57066130 92931910 104071000
3049.89 71266650 43939390 37450040 35075070 32279470 32692570
3055.67 43222280 70676770 88470560 67053840 38801080 29026670
3061.46 28347240 29600290 30660470 41069030 75442540 99468930
3067.25 77599820 43849500 27712830 25430050 28320820 30284090
3073.03 33539490 46079640 58692000 50163870 32833820 25354670
3078.82 23501880 22964500 22878210 25188890 34586850 43522010
3084.60 37167940 24182800 18156100 16490420 16243730 17422730
3090.39 21155720 32103740 42468900 34702070 19854440 13584900
3096.17 12070540 12003410 13479770 16860250 22253720 25186410
3101.96 21389000 16246460 13857000 12268290 10423510 9492080
3107.74 11772280 15867590 16479630 13508530 10986930 9518914
3113.53 8305790 7541098 7625096 9715298 12592610 11848400
3119.31 8697010 7180914 6762446 6380818 6283762 6532838
3125.10 7111072 7596520 7551884 7327092 7118538 6796714
3130.89 5975854 4766278 4649230 6616838 8535122 8627406
3136.67 7936394 8011082 8709788 9411866 9932708 10175620
3142.46 10554230 10925250 10879860 10998060 12087810 13798250
3148.24 15260130 16251870 17173510 18382160 20120890 21867390
3154.03 23065140 24528040 26452400 28176000 30089570 32535690
3159.81 34589000 36316390 38211580 39653260 40474010 41133080
3165.60 41930850 42234600 41551690 40519800 39300290 37350310
3171.38 34671860 31533710 28005210 24985830 25597590 34205710
3177.17 44069340 40749720 28677080 20547940 20077200 25489750
3182.95 33794490 42615390 50336360 56762110 62201480 66693910
3188.74 69924530 71836550 71997020 70130600 66660640 62166140
3194.53 57201230 51871280 46007530 39701990 33450460 27997570
3200.31 23512010 19975920 17369140 15421020 13877600 12663320
3206.10 11686900 11147480 11177660 10867260 10163460 9889326
3211.88 9564524 8712378 8813704 10938550 13264550 14287510
3217.67 14452960 14170070 14333140 15419650 16634190 17355950
3223.45 17968030 18407380 18659690 18744280 18176970 17263110
3229.24 16181160 14626780 13102340 11615640 10334220 9697004
3235.02 8756906 7329854 6252328 5755022 5622432 5043156
3240.81 4588498 4907630 4771350 4225156 3896822 3750582
3246.59 3698680 3335112 2970594 3226994 3700322 3765216
3252.38 3377750 3124664 3432842 3811476 4016540 3896204
3258.17 3442176 3374146 3249418 2754642 2821720 3204754
3263.95 3311452 3557488 3927138 3734352 3147818 2949908
3269.74 3219946 3666618 3983266 3831536 3357774 2999706
3275.52 2986640 3099384 3208408 3473006 3568538 3277892
3281.31 2962034 3037204 3420744 3814276 4132068 4089986
3287.09 3907948 3963554 3989430 3801296 3756742 4124902
3292.88 4338950 4056800 3668446 3653398 3696552 3725920
3298.66 4055782 4174160 3838576 3766934 4200688 4641022
3304.45 4456312 3869044 3835050 4190080 4763422 5485742
3310.23 5683624 5487198 4968688 4307510 4063478 4516964
3316.02 5522242 6521426 7109982 6635178 5926978 5640556
3321.80 5148964 4856916 4943250 5049774 5330692 5572476
3327.59 5772892 6647480 7322512 6570234 5445030 5138274
3333.38 5202506 5375012 5689588 5773644 5871692 6156642
3339.16 6193832 5945126 5456722 5192598 5393680 5749168
3344.95 5878096 5857334 5754232 5462810 5529828 5945334
3350.73 6206986 6230812 6094136 6101422 6634234 7196120
3356.52 7076480 6559640 6321742 6647064 6982844 7082910
3362.30 7155306 7147454 6546444 5889038 6004838 6247750
3368.09 6016044 6191560 6883370 7032236 6444294 5977732
3373.87 5833222 5955802 6301766 6647024 6729060 6461580
3379.66 6562718 7161338 7364352 7241254 7130876 7141320
3385.44 7220080 7159760 7334638 7530866 7080530 6728928
3391.23 7253024 7302316 6246186 5704022 6083410 6415320
3397.02 6253878 5957678 5934900 5813446 5703764 5925602
3402.80 6055588 6266522 6704294 6715276 6189032 5916752
3408.59 6031090 6164192 6448122 6382990 6006354 6022414
3414.37 6236842 5920270 5328744 5393374 5964598 6254300
3420.16 6088306 6049020 6189426 6089356 5351674 4732276
3425.94 4616450 4657996 4986726 5297972 5385574 5515578
3431.73 5408190 5362428 5224382 4711566 4417488 4706832
3437.51 5108348 5024200 4746178 4717306 4813282 4965882
3443.30 4859980 4675840 5175948 5605646 5186734 4896844
3449.08 5011510 5055952 4955530 4877932 4955702 4840604
3454.87 4152384 3793974 4416004 4797424 4595900 4340936
3460.66 3818530 3499632 3843944 4072500 3874436 4066630
3466.44 4205658 3802702 3882252 4279232 4308506 4056750
3472.23 3840354 3775780 3753950 3887434 4117792 4402066
3478.01 4303562 3984532 3821790 3648360 3561396 3835204
3483.80 4220902 4251028 4264812 4252478 4138210 4301832
3489.58 4178890 3529906 3603566 4565204 4974692 4566098
3495.37 4468168 4528308 4369746 4445828 4495536 4371698
3501.15 4361280 4627516 4960436 4789860 4173434 3816298
3506.94 4453512 5526898 5587398 4618020 3984648 4172214
3512.72 4523456 4711336 4722012 4815522 5010384 5206640
3518.51 5290354 4770200 4361628 4975010 5696328 5516090
3524.30 5151116 5395672 5677884 5533082 5589016 5610830
3530.08 5096112 4706002 5025040 5570286 5642158 5662546
3535.87 5915998 5967458 5811752 5744936 5816878 5677170
3541.65 5465938 5408868 5556016 6060268 6341160 5828716
3547.44 5041868 4988192 5486644 5786420 5907070 5770848
3553.22 5548858 5691706 5726888 5412980 5108064 4979490
3559.01 5157986 5227972 5242790 5795064 6391052 6911422
3564.79 7753456 8265582 8401364 7614568 5740240 4484838
3570.58 4398482 4953166 5479038 5480122 5168368 5051444
3576.36 5032616 5174284 5600754 5580224 5258708 5210918
3582.15 5574784 6114810 6737388 8105914 9032812 9220154
3587.94 8747974 6918358 5592918 5232892 5319458 5671258
3593.72 6179304 6497872 6319946 6043880 5840792 5890562
3599.51 6326974 6520248 6324244 6019534 5612224 5730492
3605.29 6696318 7630792 9449420 11367060 9724808 7844596
3611.08 8938108 9461626 8582976 8170954 8008250 8760890
3616.86 10122600 11350330 11606050 9747692 8050226 7608696
3622.65 7519856 7718826 8307424 9139468 12154490 16827760
3628.43 17767450 13526180 9480512 8584318 9017716 9130256
3634.22 8700090 8476454 8672204 8779408 8740184 8932620
3640.00 9179040 9522176 9686210 9332458 9459448 11578580
3645.79 14781390 16959660 19581350 20682820 18215720 14844990
3651.57 11826810 10621480 11451020 14435490 16108800 13408170
3657.36 10628870 9987558 10143310 10400730 10399830 10154980
3663.15 9847290 9827206 9810744 10298490 12328300 14721110
3668.93 18123220 19460190 14348670 10795210 13494520 19516730
3674.72 23081640 19180750 13286080 12001520 12864570 12598380
3680.50 11764200 11213130 10930070 10946160 10598400 10734960
3686.29 14943400 20646450 18431580 13781870 13108960 11316620
3692.07 8697962 7797742 7981268 8414758 8476758 8375464
3697.86 8512732 8815582 9478804 10300740 9673366 8269546
3703.64 7739344 7713254 7803892 8424804 9938828 10995210
3709.43 11097180 14183260 16296730 12211330 8241068 7555954
3715.21 7756876 7842090 8087648 8198690 8040488 8844900
3721.00 9930476 9372982 8501144 9186812 10326090 10164790
3726.79 8446204 7089708 6848246 8697138 12773640 13450760
3732.57 11263580 12358010 14605980 15367080 13191720 9866864
3738.36 8233398 8231328 8925556 9821816 16146290 26724900
3744.14 25036540 13551770 8758764 12331650 19042570 19164920
3749.93 16961220 20707480 18745580 11094160 7915276 8466752
3755.71 9220274 8952498 9483036 10672480 9671498 7667878
3761.50 7066936 7217706 8105054 9592096 9441492 8073170
3767.28 8213090 10301120 10998060 8724008 7000668 6932174
3773.07 7308702 7456028 7260342 7004070 7451612 8997328
3778.85 9457346 7987314 7080964 7202358 7541140 7830190
3784.64 7764176 7262800 7238396 7613720 7416974 7112340
3790.43 7234554 7326494 7342376 7711500 9147256 10685630
3796.21 10087620 8341750 8001150 11970630 18551780 17849840
3802.00 11689370 8932892 9098502 12164500 15833160 13477720
3807.78 8792504 7392288 7360020 7115312 6932474 7569840
3813.57 11249980 18339410 19176380 12442280 8773942 10010110
3819.35 14009860 16548900 13662480 9497146 8065470 8456986
3825.14 9701750 10062290 9063800 8361096 8753280 10380390
3830.92 10985690 9440850 9918232 11828890 11867300 15039010
3836.71 20198250 17360290 12283810 11694570 11102030 10255760
3842.49 10671810 10241480 8860232 8092000 8066580 8484890
3848.28 8995168 10727410 16399530 21792950 25948000 29671600
3854.07 22740780 12880730 10221260 9818192 9441646 9512506
3859.85 10500800 11512530 11401760 12814440 15447160 14212510
3865.64 10858620 10245860 13356530 18088190 17746610 12802020
3871.42 10218660 11343620 12565350 11240770 9747874 9299530
3877.21 9302312 10738360 12947350 12681460 10710490 9980582
3882.99 10991560 14552140 16180920 12405630 9496954 9932032
3888.78 11424000 13665760 14006180 11380430 9703374 9724566
3894.56 10358620 10824460 11271250 13123750 14386510 13848240
3900.35 15129240 15836910 15260990 15850560 15035620 13301940
3906.13 12027070 11421520 11895540 12605770 12684220 12381330
3911.92 12887300 13880550 14265160 15412250 17560650 16957790
3917.70 14740720 14732570 15382670 14879850 14495020 15341320
3923.49 16262950 15711300 14036010 13050640 13815630 15022360
3929.28 15221240 15651190 16437390 15927700 15057480 14748540
3935.06 14231930 13875150 14558110 15540420 15303980 14575440
3940.85 14942380 15931550 16845320 17524640 16514550 14987160
3946.63 14614790 14938540 15829710 15866070 15221260 15598580
3952.42 18257800 20765770 18178760 14675770 14309660 14767660
3958.20 14888960 15531960 17580950 17693140 15654340 15172700
3963.99 15735780 17208810 20472210 20939160 17406330 15194340
3969.77 14892520 16621960 22861350 25811690 20352030
##END=
