##TITLE=Dichloromethane
##JCAMP-DX=4.24
##DATA TYPE=INFRARED SPECTRUM
##CLASS=IUPAC A
##ORIGIN=NIST, Analytical Chemistry Division, 301-975-3108
##OWNER=COPYRIGHT (C) 2001 by the U.S. Secretary of Commerce
##DATE=01/06/01
##$SPECTRA VERSION=1.10
##$UNCERTAINTY IN Y=2.1 % relative (B=1.12E-04,C=8.08E-10,D=1.49E-14)
##CAS NAME=Dichloromethane
##CAS REGISTRY NO=75-09-2
##MOLFORM=C H2 Cl2
##MP=-95.1 C
##BP=40 C
##$NIST SOURCE=QUANT-IR
##SPECTROMETER/DATA SYSTEM=IFS66V (Bruker)
##INSTRUMENT PARAMETERS=KBr Beam Splitter; MCT Detector; Multipass cell
##STATE=gas
##SAMPLE DESCRIPTION=Dichloromethane Primary Gas Standard
##PRESSURE=101.3 Pa
##TEMPERATURE=23 C
##SAMPLING PROCEDURE=1 L/min Flow
##RESOLUTION=1.9290
##DATA PROCESSING=NB Strong Apodization
##XUNITS=cm-1
##YUNITS=(micromol/mol)-1m-1 (base 10)
##XFACTOR=1.0
##YFACTOR=9.0949E-13
##DELTAX=0.9645
##FIRSTX=575.652
##LASTX=3974.606
##FIRSTY=3.21E-07
##MAXX=3973.64
##MINX=575.65
##MAXY=.0008457
##MINY=-4.83E-07
##NPOINTS=3526
##XYDATA=(X++(Y..Y))
575.65 353198 69471-198320-6090 269913 144641
580.47 3451-445858-272124 76107 265921 262205
586.26 2610-65554-14144-195608-264940 285210
592.04 424009 303749 457860 168859-267622-159870
597.83 44918 205137 147444 271829 462689 249908
603.62 164985-27626-87924 87903-39688-242741
609.40-147816-76609-42502-134879-264928-148076
615.19 21326-10009 130471 54100-42328 40687
620.97 63329-187772-153050 11819 71039 60866
626.76 182313-25617-187649-310205-217735-4738
632.54 137800 248652 410668 255285 205866 181531
638.33 229088 256209 324651 300466 362024 410894
644.11 307997 268155 411366 454998 423870 474350
649.90 735155 813832 879489 1226470 1464485 1400552
655.68 1306351 1479352 1932023 2268755 2365894 2555315
661.47 2858073 3080899 3430073 3713855 4306059 5289504
667.26 5847148 5727648 6180877 6590376 7219148 7740702
673.04 8035177 8751754 9487351 9930265 10499890 10827065
678.83 11509126 12452181 13382846 14071525 14982039 15996037
684.61 16988305 17813737 18691977 19562387 20564689 21649239
690.40 22602734 23563635 24772627 25828150 26890945 27982621
696.18 29323374 30586654 31979427 33211260 34752501 36422279
701.97 37563369 37917162 39969482 40063186 39812994 41055347
707.75 39230839 38312186 37717791 34858174 34751874 33514448
713.54 34208282 35209750 38883124 44233767 49578798 57898654
719.32 66188029 70605225 76264883 81152663 83720312 83480741
725.11 81239654 80508446 79033128 74639166 75556184 80398017
730.90 86933099 96796376 111796979 129578591 150721397 177831730
736.68 211725325 249199791 294439892 348271771 409250340 476766270
742.47 549356396 623299559 698725171 770442796 833036148 885923027
748.25 922974695 929895913 917354446 887215428 826771411 763498338
754.04 736807116 724478013 699484210 709358966 727210703 648129931
759.82 615835305 691380202 762551751 796672883 796713935 770167973
765.61 719799620 651829977 571455572 486281684 400286678 320484404
771.39 249143278 188572731 138427820 98958759 68507081 46341610
777.18 30323886 19586814 12132045 7579891 4597301 3006162
782.96 1761252 1219602 572312 447505 339938 308560
788.75 193963 368201 246757 201492 35959 141350
794.53 62921 201692 150741 159820-48610-10662
800.32 73236 211527 27268-13504-25151 95608
806.11-11488 58987-43038 27676-60582-98150
811.89 25714 158915 78284 82156-48049 90548
817.68-114-29400-15316 77013 8755-23811
823.46-89411 28346 36028 110764-38574-95674
829.25-99446-29293-30157 13406-184229-221102
835.03-198538-13947 26905-30737-112324-4439
840.82-59613-67350-57379 9593-39016 30748
846.60-52459 71888 193103 120306-73967 14968
852.39 22566 113059 137444 203279 150024 72800
858.17 25316 136382 298277 447904 490456 515719
863.96 442602 474236 548460 724657 719364 780305
869.75 868074 1039896 1148037 1334513 1373197 1514931
875.53 1596548 1740006 1810270 1925290 2115272 2264492
881.32 2211818 2266695 2380808 2582390 2598575 2684371
887.10 2728957 2705188 2726294 2575992 2672751 2888584
892.89 3389829 4262918 5760324 7992076 9062137 6735432
898.67 4215576 3505619 3148867 3049317 2977283 3060548
904.46 3050113 3265133 3334088 3389689 3482990 3571839
910.24 3595737 3616842 3769059 3724864 3688440 3664359
916.03 3702019 3673634 3671572 3566846 3488915 3292164
921.81 3134806 2987636 2890793 2742493 2680126 2553339
927.60 2429840 2251112 2128484 1964731 1902929 1807553
933.39 1725375 1542598 1432226 1405057 1379313 1310406
939.17 1201263 1078746 975830 902903 825823 783783
944.96 690017 650167 612084 577901 542356 464327
950.74 382855 364617 332551 359063 268012 257038
956.53 252676 211772 239608 232302 157947 178537
962.31 156876 163580 212107 240635 222837 249798
968.10 254082 245606 247575 268603 315175 325303
973.88 321609 380802 438954 419645 422179 429503
979.67 404866 331127 341046 393929 393009 389351
985.45 340811 354965 377350 367662 329179 300922
991.24 337405 385666 381112 414232 392021 327794
997.03 269892 321274 354234 390144 420319 367985
1002.81 300531 261625 268474 219461 146519 222288
1008.60 240040 208107 122563 107849 107298 154949
1014.38 219663 236011 240474 221331 196863 199741
1020.17 162164 219878 283120 348439 365463 344224
1025.95 261762 303649 318462 327355 345397 363382
1031.74 376704 394995 349108 348756 341692 282803
1037.52 347590 455510 403954 336652 331213 411629
1043.31 371814 357952 371470 319240 245514 213499
1049.09 194434 141726 202237 175987 32900-23520
1054.88 11698-9683-81038-86994-23145 29839
1060.67-40425-176080-171041-95542-88346-70052
1066.45-17061-24108-67669-90821-60829-86444
1072.24-155871-124251-73386-36550-28236-76376
1078.02-64997-85171-105008-77862-70085-70529
1083.81-82105-37298-48786-44599 14551 11941
1089.59-65900-81971-15876-39275-107005-23117
1095.38-7175-54261-32506-37675-68120-104229
1101.16-112151-63682-57287-67201-93587-69261
1106.95-8299 68-9442-33917-56055-87898
1112.73-85604-115916-56179-103506-136912-98791
1118.52-49015-49325-49450-75844-59590-87135
1124.31-94632-80306-59310-45292-26689 24810
1130.09-6282-31677-64962-89433-67696-43605
1135.88-22132-48229-26174-35323-21298 13258
1141.66 1453-42562-24881 3988-13787-35670
1147.45-48054-27385 48020 45488 9784-65304
1153.23-89018-20685 7029-11117 77146 112041
1159.02 127639 50294 4480-19554-30933-39178
1164.80-43186-36482 83575 96255 43859 4760
1170.59 29383-12291-16368-9377 40018 39050
1176.37 11756-8864 13915-5192 25104 12027
1182.16 25916 3419 56195 38370 10104-36378
1187.95 5089 21246 72551 34340 43627 48299
1193.73 61938 34025 2082-53726-8863-33439
1199.52-14906-19979 5812-37840-26013-32406
1205.30-116-61224-21579-8151 48272 44446
1211.09 63441 18061 65624 59529 83550 3853
1216.87 67982-36272 22431 63287 82543-7068
1222.66 22583-29141 29902-8585 67612 59673
1228.44 88685 16064 97794 71139 150368 141348
1234.23 218549 160846 364202 527497 875729 1123825
1240.01 1685321 2372722 3534680 4973306 7281044 10234867
1245.80 14384615 19650082 26791990 35748366 47245283 61094209
1251.59 77836515 97009146 118822698 142168673 166640819 190000935
1257.37 210549967 226347994 237315698 241170535 232912820 211677592
1263.16 185920210 161694790 162521508 207300561 232998924 137332632
1268.94 74685626 114494501 173916763 223909680 256619400 273882344
1274.73 275267585 264854737 244081847 217430903 186585686 155302072
1280.51 124844879 97623595 73700695 54230189 38439319 26679000
1286.30 17673275 11532464 7113463 4458343 2544861 1533701
1292.08 771163 525799 172951 199761 79246 116998
1297.87-33446 69803-34758 1003-85098 14068
1303.65-95158-42335-106417-3981-79968 3808
1309.44-67647 16538-50298 17799-53998 481
1315.23-38729 42982 6692 86287-25142-1446
1321.01-74960-17541-38494 51728 1078 46988
1326.80 23919 29545-62716-19448-36550 27732
1332.58-50488-22248-67380 20995-4782-3230
1338.37-44321 5537-23166 38608 52571 91872
1344.15 29289 53276-44555-70616-107918-23391
1349.94-128094-64344-18612 26613-122763-26260
1355.72-53400-97873-147827-3402-1031 30516
1361.51-111968-120849-143263-115353-92318-2732
1367.29-21355 60180-21612-31952-111782-53403
1373.08-26401 7652 3543 85829 62232 35526
1378.87-36007 51856 52731 59959 30426 81673
1384.65 47760 50153-29200 75204 50293 97108
1390.44 122899 108484 57730 82608 38738 90234
1396.22 115483 137537 123612 211340 181005 231597
1402.01 205133 276540 293752 350512 366263 407953
1407.79 354239 423636 400977 416932 501558 583834
1413.58 584728 652556 637084 666268 661908 668113
1419.36 792252 841043 886328 941577 1031923 1158903
1425.15 1232668 1252311 1279437 1358773 1338752 1389863
1430.93 1318551 1292451 1271977 1386563 1484089 1629909
1436.72 1797731 2075304 2261992 2497940 2721221 2942084
1442.51 3145227 3418192 3656210 3977243 4186020 4438023
1448.29 4779605 5204404 5528023 5830763 6155968 6574332
1454.08 6939313 7224227 7479364 7890526 8202992 8286412
1459.86 8049379 8072078 8498442 8848825 8375403 7138519
1465.65 6516835 7340730 8411227 8538250 7496229 6938309
1471.43 7535127 8308654 8580578 8136360 7226390 6471040
1477.22 5703883 4771348 3333388 1770225 708201 331807
1483.00 284619 316791 251295 191620 193694 183452
1488.79 108222 159010 159107 187380 115092 98114
1494.57 44212 63573 91292 83400 77110 136040
1500.36 73971 9488-6282-4569-62837-75794
1506.15-118486-70537-43707-22690-28572-30505
1511.93-60558-44266-58607-42143-62398-26044
1517.72-17804-25650-138267-158665-130849-41668
1523.50-27633-47585-44650-16775-11611 44115
1529.29 36819 25135 21309 10298 61697 209403
1535.07 275101 330659 302114 283452 308030 400940
1540.86 379458 414462 516098 522688 411085 388477
1546.64 500520 463680 259736 340927 582145 546204
1552.43 362499 386304 442824 535254 529119 495787
1558.21 423643 375678 367594 373366 290197 235099
1564.00 128350 134763 108934 64473-20471-15190
1569.79 8327 33293 14794 16331-23084-79501
1575.57-136174-48564-28384 15247 2433 29820
1581.36-26 18642-769-1154-17345 45714
1587.14 66835 66552 25829 5592-11510 22752
1592.93 12940 53541 39497 41732 38666 69364
1598.71 48719 26685 24537 70323 60456 79659
1604.50 55297 58886 66685 96563 70663 57591
1610.28 39004 31049 5130 42934 22046-56315
1616.07-117746-8841 41097 47531 18762 36177
1621.85-32235 19707 49221 41772 11777 12963
1627.64 4425 26739-21534-18295 3845 13082
1633.43-56225-95356-76378-15236-8297 28641
1639.21-6533-25190-17755 1232-78636-85297
1645.00-80991-38758-61920-11528-10469-29885
1650.78-117247-202614-180323-66360-17568-9094
1656.57-54249-41151-37174 6832-20796-23426
1662.35-59792-31608-63669-28548-15859-20339
1668.14-101615-71572-57117-3264 17421-20518
1673.92-111426-87722-31618 8785-20919-32553
1679.71-28063 21985-53943-140734-241591-153353
1685.49-64789-21604 4583 5587 644 4821
1691.28-10204 16607 693-41545-106671-30850
1697.07-26725-69818-138099-102003-53230-13025
1702.85-19697 5857-9110 18281 47773 46589
1708.64-25048-18149-11862 25950 5781-12494
1714.42-48318-29613-73925-19478 18982 45224
1720.21 39830 50313 54609 66126 43893 70358
1725.99 70883 101448 67872 51753 36338 53505
1731.78-26639-49428-26123 27868 20137 24991
1737.56 15398 26052 29803 82195 57868 22074
1743.35-369 11977 6738 33013 1743 1600
1749.13 5662-10491-21492 13538 7542 24549
1754.92-17415 2695 29556 35728-1306 3493
1760.71-33696-43598-9596 45991 43188 40870
1766.49 8545-8213 8243 4368-32290-26959
1772.28-6432 36236 20322 50381 36214 37356
1778.06 24947 28778 21992 64655 86439 97902
1783.85 65786 43048-29728-39564-3290 61419
1789.63 34283 12064-77800-73231-19910 29032
1795.42 46533 68609 74220 80157 57620 38089
1801.20 9787 41179 38197 7225-11302 18411
1806.99 70958 73704 7321 6810 17811 34761
1812.77 11808 44366 29892 3617-34831-25020
1818.56-27636 18936 44235 48161 1395-28424
1824.35-23738 16826-4204-4237-21269-11948
1830.13-5680 8549-17369-4565 11986 26907
1835.92 6542 2389-1868 20460 12928 42156
1841.70 12270-76828-87511 6471 29003 29642
1847.49-12996-32884-25082-4310-21213-1195
1853.27-18619 21008-6473-36811-51254-33218
1859.06-22952-17884-14630 22040 3535 14321
1864.84 8266-11971-25338-11775-49598-40767
1870.63-25515 396-29688-57791-76907-36923
1876.41-28951-1215-24706-11536-20097-264
1882.20-385-10339-41935 4245 33319 36673
1887.99-2562-31660-41703-13381-20075-27550
1893.77-36419 10739 16563 33224 23701 10833
1899.56-33512-22173-20154-13003-10342 1237
1905.34-2800-4312-32640 9121 1457 9483
1911.13-11486-18029-39840-10725-45917-32006
1916.91-19691-22113-20722 15217 5894 7433
1922.70-11827-759-22214-36360-42293-22524
1928.48-8876 2828-7929 1230-31309-18216
1934.27-34616-31311-67162-77180-75433-56272
1940.05-61199-40437-42193-49486-55926-9774
1945.84-20632-15795-46409-42013 2098 43637
1951.63-9100-25446-52861-35017 2639 134
1957.41-8427 14321 15726 38514 49895 73597
1963.20 76865 84806 69542 70248 68885 106401
1968.98 153226 206299 194409 229688 273472 247474
1974.77 141541 186388 221885 233022 189996 213049
1980.55 213126 216592 231512 224262 197996 291370
1986.34 325522 334567 342555 372725 327940 284995
1992.12 218188 185338 125872 79609 60051 78253
1997.91 46772 41369 16930 37251 46174 48564
2003.69 53779 39788 46469 88936 72588 68882
2009.48 52136 62631 56413 87041 78362 72034
2015.27 32917 33626 36257 37683 49413 62496
2021.05 31752 21793 17000 76613 72336 74112
2026.84 81672 105005 69596 46294 47964 113355
2032.62 110214 78820 89413 114275 134498 163462
2038.41 133382 184679 226905 264644 303495 398989
2044.19 445853 501606 590137 696070 730182 787998
2049.98 845934 857025 820391 767514 730321 670526
2055.76 596546 603667 656418 658620 416236 303810
2061.55 433891 652102 793023 864039 843293 824932
2067.33 789998 694209 583495 502747 408463 320120
2073.12 233408 201758 116536 35565 13225 44066
2078.91 14593 5483-23724-3173-29591-18646
2084.69-17729-26038 782 8702-4388-36742
2090.48-65812-50545-20220 14771 5442 2812
2096.26-1464-5513-30634 8450-7608-23127
2102.05-78791-44874 3980 31561 12282 12760
2107.83 17124 41861 16506-27943 22302 71377
2113.62 46552 33386 54102 76671 83673 41780
2119.40 26700 53801 69859 70522 41674 101260
2125.19 141761 100546 85740 168255 203184 200393
2130.97 170733 212469 234126 234274 218551 250988
2136.76 233510 238173 265778 283767 243229 277656
2142.55 293011 275137 236076 212646 185715 218335
2148.33 245454 295286 358947 426652 415652 398223
2154.12 387862 435263 410815 347300 338802 386252
2159.90 342031 294865 328282 392761 343749 361066
2165.69 405233 425073 343470 347987 434360 493502
2171.47 489557 560919 574887 499813 438539 564894
2177.26 645443 617337 627426 668210 546021 449317
2183.04 446115 484352 434093 458778 482852 472230
2188.83 374530 316386 272567 255760 255965 311786
2194.61 282694 206330 211489 216510 184531 171943
2200.40 165232 138924 60524 56457 15959-18829
2206.19-33185 10706 10076 9467-13270-9055
2211.97-25005-23764-53395-10194-3798-14917
2217.76-34594-17338-10206 14807-16667-29066
2223.54-49034-16061-1657 14630 6905 16448
2229.33 35188 57303 55250 48501 41943 59056
2235.11 56124 69171 34774 5134 11757 19853
2240.90 29685 58562 82217 124323 104949 88958
2246.68 80091 119201 107394 90818 108717 174950
2252.47 131693 109259 106163 133611 104767 124115
2258.25 119583 139416 143627 185886 180431 185093
2264.04 207464 230187 205752 184963 200621 256146
2269.83 252136 304072 322289 377234 363277 401338
2275.61 434970 502192 534591 576812 584040 631041
2281.40 701980 773281 821789 877038 908460 1013652
2287.18 1042305 1083062 1085964 1180320 1280730 1378160
2292.97 1404437 1454621 1497660 1624932 1668582 1736707
2298.75 1754870 1870600 1917223 2015528 2042395 2055253
2304.54 1958270 1963274 1928670 1947331 1970736 1978526
2310.32 2048942 2096572 2296646 2323815 2562124 2910568
2316.11 3714483 4721731 5417253 4306676 3051404 2561285
2321.89 2419904 2342562 2320532 2367416 2460047 2523742
2327.68 2582533 2612392 2641691 2668369 2668696 2657129
2333.47 2648457 2609558 2592331 2513539 2545660 2478578
2339.25 2389732 2270717 2170548 2060776 1926256 1784370
2345.04 1615583 1432839 1290862 1166608 1165905 1191818
2350.82 1248290 1321811 1395537 1434369 1465140 1495954
2356.61 1569618 1594045 1589357 1588545 1578084 1534553
2362.39 1487184 1441137 1365295 1292316 1193692 1097459
2368.18 1023300 932755 825400 738089 678710 613496
2373.96 553143 465453 391503 337451 296188 256184
2379.75 252752 235090 206550 217410 220306 219812
2385.53 233905 241066 242780 274883 310954 292862
2391.32 292002 266689 270973 259682 303046 317542
2397.11 317441 330923 333949 380316 356543 392908
2402.89 353055 348014 378731 410504 374542 333875
2408.68 332143 320375 344186 344402 407694 711384
2414.46 1201021 964419 509767 397942 380994 362197
2420.25 329939 370763 344360 321332 365253 401613
2426.03 365111 345641 364927 358921 320742 315118
2431.82 342177 375595 332545 280080 244495 265805
2437.60 297173 256561 224258 229016 244132 223779
2443.39 181447 199882 181294 165017 195212 190518
2449.17 200404 155977 73211 68270 70432 43713
2454.96 79218 83942 41471 40235 44546 27793
2460.75 2287-5794-27384-9368 53057 45146
2466.53-14882-7709 21670-8851-13410 10532
2472.32-6480-21148 1475-1861-16931 10796
2478.10 50447 44843 43251 39961-7581-12716
2483.89 10893 38400 40870 15259 35368 54571
2489.67 65926 72773 69269 82445 87051 62168
2495.46-10126-16603-3028-1571-6881-17886
2501.24-36226-17536-68017-135560-144049-120236
2507.03-64262-87535-138456-150555-102727-137108
2512.81-160007-170276-211903-207908-222910-205954
2518.60-222249-217947-242044-272141-332891-352737
2524.39-356261-336028-290536-245110-206020-119299
2530.17-29345-45395-82303-191008-346551-283215
2535.96 73441 325655 180567-54007-186983-225136
2541.74-237400-278468-292534-305926-316805-374743
2547.53-453811-494606-498010-528805-563218-531317
2553.31-503857-480701-454044-462438-434545-389976
2559.10-378340-347688-362454-319333-243274-256685
2564.88-238043-189601-179498-175040-181082-177655
2570.67-146990-130778-104933-74805-112417-69245
2576.45-35606-50317-53848-56137-51274-18739
2582.24-31712-32346-10781-3462 3184-13114
2588.03-62885-26217 856 6536-15685-72554
2593.81-63430-118 60505 66999 30224-2270
2599.60 4296 28086 28915 13711-31230-47926
2605.38-20913-15101-36142-59807-31435 322
2611.17-25700-73807-67329-7328 16671 1486
2616.95-22313-39634-9223 11300 69001 106226
2622.74 97510 76391 43084-34836-106076-132984
2628.52-82451-40994-9959-1650 5883-8669
2634.31 2952 13250-12550-1340 8903-5191
2640.09-1959 23305-18757-55497-13864 44179
2645.88 4243-42598-41378-26338 28707 75983
2651.67 53900-5422-62064-59539-37085 5141
2657.45 40309 19405-24352-9970-13833 36822
2663.24 66612 24272-38517-21769 4378-325
2669.02 28705 99083 141873 109382 117402 134100
2674.81 185854 264950 352245 404059 445550 512019
2680.59 669499 823342 972517 1201933 1479566 1741213
2686.38 1993716 2217314 2411725 2605076 2780390 2797464
2692.16 2783974 2710978 2490632 2266092 2105683 2132857
2697.95 2183173 1957954 1321150 1151949 1765832 2471148
2703.73 2958173 3216471 3347482 3284615 3051802 2679028
2709.52 2263941 1869513 1449007 1041820 771924 565960
2715.31 412039 278457 150639 103411 89301 42719
2721.09-3691-18148 20941 58478 57613 7928
2726.88 13495 28793 21879 28555 39690 9744
2732.66-19366 14259 31605-4377-10291-1746
2738.45-240 23980 42841-26761-20998 36758
2744.23 33755-32690 21020 50920 62998 40797
2750.02-680-29725 32569 78119 47845 44542
2755.80 80901 49716 12506-3176 3182-4862
2761.59 372-24468-68297-71993-41798-53729
2767.37 514 34274 35612 84213 89754 24009
2773.16-15115-46772-40347 46596 56085-70
2778.95 21315 45233 35946-8251 2621 15462
2784.73 40214 49853 40872 20519 24915 8642
2790.52 20691 11896-13589-11844 24029-14708
2796.30 12769 45764 102540 41291 7481 10869
2802.09 23511 41056 108357 119863 101900 114599
2807.87 184698 168563 135670 103786 157746 250779
2813.66 315280 285835 255014 184695 209758 267459
2819.44 371426 363367 414406 405905 466994 470668
2825.23 488887 519726 543414 505743 539097 602262
2831.01 632833 635998 742628 801851 792241 826027
2836.80 848175 895495 919817 958400 1023646 1119094
2842.59 1175488 1279833 1248343 1198882 1174815 1091134
2848.37 1056108 948259 868605 698302 641783 660795
2854.16 758548 896893 1064474 1153621 1168556 1170437
2859.94 1258988 1299687 1345399 1418088 1348609 1236484
2865.73 1233650 1216372 1110451 999998 943398 847188
2871.51 801800 791792 761736 715839 741387 741883
2877.30 656727 557355 542073 522488 535150 505725
2883.08 523284 432121 421253 399756 354796 288446
2888.87 269388 251664 235485 240902 263070 180286
2894.65 183528 152489 145865 96225 117868 105460
2900.44 135956 141390 185844 99237 121261 71634
2906.23 64918 66919 63802 39982 95461 95735
2912.01 134345 102949 189747 110115 132598 180902
2917.80 198867 112161 149697 155530 190121 143621
2923.58 216492 231647 242599 207435 347266 289930
2929.37 354635 356862 393248 383867 444491 492922
2935.15 615924 594577 697727 756859 869065 874431
2940.94 1053325 1090623 1210197 1225045 1486256 1544705
2946.72 1836930 1924755 2172083 2186232 2523444 2648278
2952.51 3021500 3216342 3551366 3693284 4165744 4223298
2958.29 4849895 4857412 5515448 5643411 6527741 6626507
2964.08 7373349 7474398 8197634 8496961 9117391 9493676
2969.87 10117653 10656067 11126527 11786117 12130080 13076756
2975.65 13216944 14690214 14750979 16070057 16518714 17890565
2981.44 18981349 19825129 21151721 22044102 23582993 24461730
2987.22 25276268 25930783 25580360 25844838 24421593 23651266
2993.01 21050236 18270730 15007574 12923232 12573527 14082824
2998.79 17044721 20077913 22891977 25311608 27120424 27780301
3004.58 28101729 27763437 27268880 26548438 25327229 24167034
3010.36 22903829 22098335 20861411 19964433 18769259 18144177
3016.15 17228286 16733624 15708450 15230376 14497822 14191815
3021.93 13528926 12861398 12343338 12038826 11358570 10867281
3027.72 10302031 9849919 9095080 8570196 7972213 7427707
3033.51 6858507 6511904 6012840 5660287 5174081 4820011
3039.29 4319804 3977175 3633268 3410267 3011114 2762027
3045.08 2478489 2376347 2176011 2006656 1768801 1658120
3050.86 1455730 1352428 1118062 1015203 890168 871349
3056.65 718351 710338 631177 610882 507491 434012
3062.43 289904 294946 274432 265369 265940 274231
3068.22 180721 210798 166373 196851 153750 195569
3074.00 144302 214889 168913 144522 48025 16907
3079.79-14101 64818 5950-10231-7279 65996
3085.57-22307-30983-24179 18386-39327-15829
3091.36-47721-3100-6572 28828-83775-89171
3097.15 7834 21440-47736 20694-51383-48148
3102.93-64609 494-45160-16828-35019-53945
3108.72-114097-61085-69514-40782-2634 25774
3114.50-26367 8518-28596 4497-7038 23296
3120.29-40078-18308 615 62209 26362 52330
3126.07 41574-22579-115402-95437-38276 46785
3131.86-10209-7982-53968-94390-35205 105806
3137.64 32262 15605 29790 31595-25085 24263
3143.43 10527 2803 34246 62634 56408 7485
3149.21-52075 21510-1819 5179-21927 32364
3155.00 9365-665-14125 20094 11327 14290
3160.79-39590-50594-41887 23481 57650 33737
3166.57-42049 15131-24333-8115 4891 57253
3172.36 42261 9757-91251-74164-53877 25345
3178.14-11157 9638 6725-27450-65895-40636
3183.93-64719 12928 17940 32011 38124 31721
3189.71-5649-37303-115279-34142 22807 4265
3195.50-26491 8091 6575 40625 61884 18037
3201.28-77237-71136-18662 3393-28851-5075
3207.07-37430 24762 46683 18080-45509 14420
3212.85 41495 116072 81331 34082 30731 39993
3218.64 467-25840-63104-17716-40563-36136
3224.43 2214-5461-59629-14422-48230-84795
3230.21-45695 43045 79304 88358 53464 30827
3236.00 13907-18805-127424-64643-14074 35988
3241.78 7160-34722-52787 38159 61353 90220
3247.57 24769-11997 15381 21068 35327 62096
3253.35-64772-47883 2448 77110 50299 58714
3259.14 115330 105064 61080 94685 104885 120894
3264.92 46317 39564 30547 71736 65765 75300
3270.71 65646 109477 108490 57388 70582 58633
3276.49-12196 38520 33576 2013 45088 141597
3282.28 129367 63870-33268 20544 25672 110051
3288.07 98580 35090 10494 43699 23353 21278
3293.85 1060-32561 14282 115692 114464 30858
3299.64-18658 26417 28865 42724-5315-16669
3305.42 25870 59014 22314 52828 55087 41256
3311.21 20959-29888-119112-23384 74539 62115
3316.99 38713 65187 17162 19351 71717 72489
3322.78 12265-37101-67174 5578 43729-26048
3328.56-22951 18728-5690 8175-4736 37177
3334.35 14444-45668-86621-91118-32654 28972
3340.13 19913-5779-17927-15923 28011 16122
3345.92 7385 13710-31199-45338-47675-38457
3351.71-77544-30638-57284-5044 30858 30240
3357.49-50682-71998-52410-73094-65686-16218
3363.28-54921-133189-104403-62251-73257 8062
3369.06 29585-42578-64899-11669 13212 26949
3374.85 7832-24540-69994-1087 847-1458
3380.63 2731 54934 62192 27047-22425 27455
3386.42 15558 53186-7563-29796-28534-26931
3392.20 18927 69696 62258 106368 126351 129592
3397.99-14669-81586-68977-15320 13615 47898
3403.77-22635-95516-72760 280 14580 10670
3409.56-125781-126727-64229 32676 58994 106558
3415.35 50454 11468 46008 37170 3610 26473
3421.13-15120-48752-31576-5300-59494-44634
3426.92 41964 53604-3558 24966-29755-19545
3432.70 60464 58523-20011-8095 28926-22838
3438.49-9782 66163 54863 85933 73371 24152
3444.27 43472 75297 44406-16970 494 28773
3450.06 30779 46250 57954 8560-62041-32926
3455.84-21918-27057-45915-23952 47262 91778
3461.63 26727-8645-16721 9651 22405 54955
3467.41 77266 57747 9334-1902-82386-37449
3473.20-38679-107760-54697 21664-12940-117899
3478.99-121982-63643 40487 86368-24359-70584
3484.77-88119-77949-109045-76773-101294-120537
3490.56-103329-93441-78030-99639-114109-68109
3496.34-27003-42045-85465-85769-77641 30008
3502.13 38392-11445-81225-56788-27231-51784
3507.91-88101-48467-14377 11540-9875-15078
3513.70-29145-93424-175908-180951-89483-43560
3519.48-63645 43298 24218 3428-33916-87156
3525.27-90046-28139-87661-67934-42316 17847
3531.05 64803 57607 28230-4352-4352 55680
3536.84 24467-8647 18240 30635 43626 107902
3542.63 80618 59502 56217 67204 97173 164850
3548.41 156014 150495 169975 117672 64113 153253
3554.20 189688 140105 46717 105713 170473 194635
3559.98 162804 88824 48651 108129 172116 159634
3565.77 128807 58244 19586 32386 82351 93517
3571.55 37933-24348-45994 69024 97450 57681
3577.34 18041-8021-52551 2620 15901 55018
3583.12 69722 64495 46360-18622-88702-29826
3588.91 85662 132273 78234 31444-14049-22262
3594.69 14060 112386 125034 68335 49989 23460
3600.48 17085 56348 12516 17623-13606-8841
3606.27 22636-35907-89098-30282-261-24157
3612.05-52909 29707 48987 26564-31986-42295
3617.84-17353 35978-4671-10486 22676 36869
3623.62 13387 9037-23406 29941-21818-95325
3629.41-41267 14247-2179-47776-109893-29475
3635.19 30757 6713-39183-56927-58734-13964
3640.98 6191 32821 56990 85297 37767-28369
3646.76-97802-76627-20048-34189-90830 30871
3652.55 130254 59265-9040-77699-79589-720
3658.33-32047-76375 20037 100558 110132 54455
3664.12 11124 23287 44593 20534-7759-852
3669.91-24315 16005 34363 76354 28881-4151
3675.69 36050 125811 152715 137958 100951 161303
3681.48 221557 258887 213950 194477 234582 202194
3687.26 156264 228297 260395 226880 303384 378881
3693.05 360753 334257 356981 376359 374140 431155
3698.83 443558 430476 425670 454999 478910 491210
3704.62 443826 444748 456805 437648 412436 387168
3710.40 317759 330459 393236 493001 595843 649794
3716.19 687813 715787 723838 731718 674572 648724
3721.97 642267 653982 628188 580108 527992 525721
3727.76 563845 575595 526153 444925 481268 573152
3733.55 486882 493179 534264 595214 651533 713280
3739.33 722320 747352 701485 647694 593388 688372
3745.12 829210 874736 884036 826558 765848 783427
3750.90 768108 806916 854124 862299 842368 775674
3756.69 767999 738854 707470 736241 746510 746027
3762.47 754581 730492 670689 722521 775619 796731
3768.26 801191 770883 679532 597892 476001 351422
3774.04 225373 210094 240811 306357 376177 404592
3779.83 358752 287678 291458 296002 319883 362790
3785.61 374754 375202 228407 197141 264776 233762
3791.40 126753 95454 133755 184746 204660 128399
3797.19 102095 105781 56685 19444 51264 59952
3802.97-14319 94928 140471 46455-16713 41241
3808.76 67196 76614 80274 73920 53298 53350
3814.54-22499-47936-12890-24122 17969-32810
3820.33-65898-16920 677-37215-36897-13757
3826.11-64877-19140 77651 79810-22343-59410
3831.90-60924-27342-32943-10273-60915-102447
3837.68-39112-5975-25675 30300 101342 137071
3843.47 113321-1249-12230 41168 39246 51783
3849.25 27040-51899-99677-76876-176581-83708
3855.04 42800 21735 16971 19593 14633-8591
3860.83-65859 9773 56600 18555-6235 52594
3866.61 47025 50447-32191-76326-15525 20280
3872.40-7961 6603 43435 33766-68424-68373
3878.18-26002 21661 2425 20647 26785 36745
3883.97-19592-9754 65630 111526 93994 54383
3889.75 39892 74298 42928 27082 72228 44402
3895.54 4345 65748 55625 39504 100133 102555
3901.32 33868-8954-42242-21367 13181 112541
3907.11 182443 100121 25020 70137 118472 151694
3912.89 196331 156795 134720 197381 221222 242183
3918.68 194391 180093 230806 244853 248536 238089
3924.47 233483 274730 289682 300147 303440 346939
3930.25 390286 417836 513001 565333 534071 466401
3936.04 512249 567149 531404 581938 609761 643516
3941.82 577166 535994 456464 442523 406619 362481
3947.61 346136 371326 455893 544658 563056 630129
3953.39 686233 620148 592146 701994 697688 667394
3959.18 672199 615025 556953 549648 504471 463603
3964.96 367470 316933 333157 385906 333619 317075
3970.75 276609 254990 282711 354105
##END=
