##TITLE=CARBON DISULFIDE
##JCAMP-DX=4.24
##DATA TYPE=INFRARED SPECTRUM
##CLASS=COBLENTZ III
##ORIGIN=DOW CHEMICAL COMPANY
##OWNER=COBLENTZ SOCIETY
Collection (C) 2018 copyright by the U.S. Secretary of Commerce
on behalf of the United States of America. All rights reserved.
##DATE=1958/11/21
##NAMES=dithioxomethane
##CAS REGISTRY NO=75-15-0
##MOLFORM=C S2
##SOURCE REFERENCE=COBLENTZ NO. 10113
##$NIST SOURCE=COBLENTZ
##$NIST IMAGE=cob10113
##SPECTROMETER/DATA SYSTEM=DOW KBr FOREPRISM-GRATING
##INSTRUMENT PARAMETERS=BLAZED AT 3.5, 12.0, 20.0 MICRON, CHANGED AT 5.0, 7.5, 14.9 MICRON
##STATE=LIQUID (NEAT)
##PATH LENGTH=0.104 CM
##SAMPLING PROCEDURE=TRANSMISSION
##RESOLUTION=4
##DATA PROCESSING=DIGITIZED BY NIST FROM HARD COPY (FROM TWO SEGMENTS)
##XUNITS=1/CM
##YUNITS=TRANSMITTANCE
##XFACTOR=1.000000
##YFACTOR=1
##DELTAX=0.868558
##FIRSTX=453.966
##LASTX=3782.28
##FIRSTY=0.767
##MAXX=3782.28
##MINX=453.966
##MAXY=1.023
##MINY=0
##NPOINTS=3833
##XYDATA=(X++(Y..Y))
453.966000 0.7670 0.7690 0.7760 0.7780 0.7820
458.308792 0.7850 0.7860 0.7930 0.7950 0.8030
462.651584 0.8100 0.8110 0.8120 0.8150 0.8190
466.994376 0.8240 0.8310 0.8340 0.8350 0.8370
471.337169 0.8380 0.8420 0.8460 0.8500 0.8540
475.679961 0.8580 0.8620 0.8670 0.8710 0.8750
480.022753 0.8790 0.8830 0.8870 0.8910 0.8920
484.365545 0.8940 0.8980 0.9000 0.9030 0.9050
488.708337 0.9060 0.9090 0.9110 0.9140 0.9180
493.051129 0.9220 0.9260 0.9280 0.9320 0.9330
497.393921 0.9340 0.9370 0.9410 0.9440 0.9450
501.736713 0.9480 0.9510 0.9530 0.9560 0.9570
506.079506 0.9570 0.9570 0.9600 0.9620 0.9640
510.422298 0.9660 0.9660 0.9680 0.9710 0.9720
514.765090 0.9720 0.9760 0.9780 0.9780 0.9790
519.107882 0.9810 0.9810 0.9810 0.9820 0.9830
523.450674 0.9830 0.9850 0.9850 0.9850 0.9860
527.793466 0.9860 0.9860 0.9860 0.9860 0.9860
532.136258 0.9860 0.9860 0.9860 0.9860 0.9860
536.479051 0.9860 0.9860 0.9860 0.9860 0.9860
540.821843 0.9860 0.9870 0.9870 0.9860 0.9860
545.164635 0.9850 0.9850 0.9850 0.9850 0.9830
549.507427 0.9830 0.9830 0.9820 0.9820 0.9830
553.850219 0.9830 0.9830 0.9820 0.9810 0.9810
558.193011 0.9790 0.9790 0.9790 0.9790 0.9790
562.535803 0.9780 0.9780 0.9780 0.9780 0.9750
566.878596 0.9750 0.9740 0.9720 0.9720 0.9710
571.221388 0.9710 0.9700 0.9700 0.9700 0.9700
575.564180 0.9680 0.9680 0.9670 0.9660 0.9630
579.906972 0.9630 0.9630 0.9600 0.9590 0.9570
584.249764 0.9570 0.9560 0.9550 0.9490 0.9480
588.592556 0.9470 0.9470 0.9470 0.9450 0.9440
592.935348 0.9440 0.9410 0.9380 0.9360 0.9360
597.278140 0.9340 0.9330 0.9330 0.9300 0.9300
601.620933 0.9280 0.9240 0.9220 0.9210 0.9150
605.963725 0.9140 0.9130 0.9070 0.9050 0.9030
610.306517 0.9000 0.8980 0.8960 0.8920 0.8910
614.649309 0.8840 0.8800 0.8760 0.8720 0.8670
618.992101 0.8620 0.8580 0.8530 0.8490 0.8420
623.334893 0.8410 0.8350 0.8270 0.8200 0.8150
627.677685 0.8070 0.8010 0.7970 0.7890 0.7800
632.020478 0.7670 0.7570 0.7441 0.7321 0.7240
636.363270 0.7130 0.7020 0.6970 0.6910 0.6790
640.706062 0.6631 0.6471 0.6211 0.6051 0.5951
645.048854 0.5760 0.5610 0.5490 0.5370 0.5260
649.391646 0.5220 0.5100 0.4990 0.4920 0.4890
653.734438 0.4890 0.4910 0.4930 0.5000 0.5030
658.077230 0.5140 0.5269 0.5399 0.5629 0.5988
662.420022 0.6330 0.6480 0.6590 0.6640 0.6770
666.762815 0.7149 0.7190 0.7200 0.7210 0.7240
671.105607 0.7270 0.7280 0.7290 0.7310 0.7360
675.448399 0.7430 0.7500 0.7590 0.7660 0.7720
679.791191 0.7730 0.7760 0.7780 0.7810 0.7840
684.133983 0.7840 0.7850 0.7860 0.7860 0.7860
688.476775 0.7880 0.7890 0.7910 0.7920 0.7920
692.819567 0.7930 0.7930 0.7930 0.7930 0.7950
697.162360 0.7950 0.7950 0.7960 0.7960 0.7960
701.505152 0.7960 0.7960 0.7970 0.7970 0.7970
705.847944 0.8000 0.8000 0.8000 0.8010 0.8030
710.190736 0.8040 0.8050 0.8070 0.8070 0.8070
714.533528 0.8080 0.8120 0.8140 0.8150 0.8190
718.876320 0.8200 0.8220 0.8230 0.8260 0.8290
723.219112 0.8310 0.8330 0.8340 0.8380 0.8410
727.561904 0.8420 0.8450 0.8500 0.8500 0.8520
731.904697 0.8540 0.8580 0.8580 0.8600 0.8610
736.247489 0.8640 0.8670 0.8690 0.8710 0.8720
740.590281 0.8730 0.8750 0.8770 0.8800 0.8810
744.933073 0.8830 0.8840 0.8840 0.8870 0.8880
749.275865 0.8900 0.8910 0.8910 0.8920 0.8940
753.618657 0.8940 0.8960 0.8980 0.8980 0.8960
757.961449 0.8960 0.8960 0.8960 0.8960 0.8950
762.304242 0.8950 0.8950 0.8950 0.8950 0.8950
766.647034 0.8940 0.8920 0.8920 0.8910 0.8910
770.989826 0.8900 0.8870 0.8840 0.8800 0.8760
775.332618 0.8720 0.8690 0.8640 0.8600 0.8560
779.675410 0.8500 0.8430 0.8350 0.8300 0.8270
784.018202 0.8220 0.8150 0.8120 0.8120 0.8110
788.360994 0.8110 0.8120 0.8120 0.8140 0.8140
792.703787 0.8150 0.8150 0.8160 0.8190 0.8200
797.046579 0.8200 0.8220 0.8220 0.8240 0.8240
801.389371 0.8240 0.8230 0.8230 0.8220 0.8190
805.732163 0.8160 0.8140 0.8110 0.8050 0.8040
810.074955 0.8040 0.8070 0.8120 0.8190 0.8220
814.417747 0.8260 0.8300 0.8300 0.8310 0.8310
818.760539 0.8310 0.8310 0.8290 0.8260 0.8230
823.103331 0.8190 0.8150 0.8070 0.7990 0.7950
827.446124 0.7860 0.7760 0.7720 0.7580 0.7430
831.788916 0.7310 0.7190 0.7051 0.6911 0.6771
836.131708 0.6510 0.6200 0.6010 0.5761 0.5411
840.474500 0.5041 0.4622 0.4202 0.4081 0.3961
844.817292 0.3540 0.2981 0.2601 0.2211 0.1692
849.160084 0.1451 0.1221 0.1051 0.0960 0.0861
853.502876 0.0820 0.0810 0.0800 0.0810 0.0820
857.845669 0.0850 0.0880 0.0900 0.1039 0.1110
862.188461 0.1190 0.1270 0.1350 0.1420 0.1530
866.531253 0.1580 0.1650 0.1760 0.1879 0.1940
870.874045 0.2060 0.2180 0.2300 0.2360 0.2520
875.216837 0.2590 0.2710 0.2830 0.2940 0.3030
879.559629 0.3120 0.3280 0.3400 0.3560 0.3740
883.902421 0.4129 0.4339 0.4539 0.4659 0.4879
888.245213 0.5120 0.5310 0.5490 0.6009 0.6180
892.588006 0.6519 0.6749 0.7079 0.7249 0.7459
896.930798 0.7620 0.7780 0.7920 0.8030 0.8180
901.273590 0.8310 0.8430 0.8540 0.8580 0.8640
905.616382 0.8720 0.8800 0.8900 0.8920 0.8990
909.959174 0.9030 0.9110 0.9150 0.9180 0.9190
914.301966 0.9240 0.9260 0.9320 0.9330 0.9360
918.644758 0.9380 0.9400 0.9410 0.9440 0.9470
922.987551 0.9490 0.9510 0.9560 0.9590 0.9600
927.330343 0.9600 0.9620 0.9630 0.9640 0.9640
931.673135 0.9670 0.9680 0.9700 0.9700 0.9710
936.015927 0.9710 0.9710 0.9720 0.9740 0.9750
940.358719 0.9760 0.9760 0.9760 0.9760 0.9760
944.701511 0.9780 0.9790 0.9790 0.9790 0.9790
949.044303 0.9790 0.9810 0.9810 0.9820 0.9810
953.387096 0.9820 0.9820 0.9820 0.9820 0.9820
957.729888 0.9820 0.9820 0.9830 0.9830 0.9830
962.072680 0.9830 0.9830 0.9830 0.9830 0.9830
966.415472 0.9830 0.9830 0.9830 0.9830 0.9830
970.758264 0.9830 0.9830 0.9830 0.9830 0.9830
975.101056 0.9830 0.9830 0.9830 0.9830 0.9830
979.443848 0.9830 0.9830 0.9830 0.9830 0.9820
983.786640 0.9820 0.9820 0.9820 0.9830 0.9820
988.129433 0.9820 0.9820 0.9820 0.9810 0.9810
992.472225 0.9790 0.9790 0.9790 0.9780 0.9780
996.815017 0.9780 0.9780 0.9780 0.9780 0.9780
1001.157809 0.9780 0.9760 0.9760 0.9750 0.9750
1005.500601 0.9750 0.9750 0.9740 0.9720 0.9710
1009.843393 0.9710 0.9710 0.9700 0.9680 0.9680
1014.186185 0.9670 0.9660 0.9640 0.9640 0.9640
1018.528978 0.9630 0.9620 0.9600 0.9570 0.9560
1022.871770 0.9550 0.9530 0.9530 0.9530 0.9510
1027.214562 0.9490 0.9480 0.9480 0.9470 0.9470
1031.557354 0.9450 0.9440 0.9430 0.9430 0.9430
1035.900146 0.9410 0.9410 0.9410 0.9430 0.9430
1040.242938 0.9440 0.9450 0.9470 0.9480 0.9490
1044.585730 0.9490 0.9490 0.9490 0.9490 0.9490
1048.928522 0.9490 0.9530 0.9550 0.9560 0.9590
1053.271315 0.9600 0.9600 0.9620 0.9630 0.9640
1057.614107 0.9660 0.9660 0.9670 0.9670 0.9680
1061.956899 0.9700 0.9710 0.9710 0.9710 0.9710
1066.299691 0.9720 0.9720 0.9740 0.9740 0.9750
1070.642483 0.9760 0.9760 0.9760 0.9760 0.9760
1074.985275 0.9780 0.9780 0.9780 0.9790 0.9790
1079.328067 0.9790 0.9790 0.9790 0.9790 0.9790
1083.670860 0.9790 0.9790 0.9790 0.9790 0.9790
1088.013652 0.9810 0.9820 0.9820 0.9820 0.9830
1092.356444 0.9830 0.9830 0.9830 0.9830 0.9830
1096.699236 0.9850 0.9850 0.9850 0.9860 0.9860
1101.042028 0.9870 0.9870 0.9870 0.9860 0.9860
1105.384820 0.9860 0.9860 0.9860 0.9860 0.9860
1109.727612 0.9860 0.9860 0.9860 0.9860 0.9860
1114.070404 0.9870 0.9870 0.9890 0.9890 0.9890
1118.413197 0.9890 0.9900 0.9900 0.9910 0.9930
1122.755989 0.9930 0.9940 0.9940 0.9950 0.9950
1127.098781 0.9940 0.9940 0.9940 0.9930 0.9930
1131.441573 0.9930 0.9910 0.9910 0.9900 0.9900
1135.784365 0.9900 0.9900 0.9900 0.9900 0.9900
1140.127157 0.9890 0.9890 0.9890 0.9890 0.9890
1144.469949 0.9890 0.9890 0.9890 0.9890 0.9890
1148.812742 0.9890 0.9900 0.9900 0.9910 0.9930
1153.155534 0.9930 0.9930 0.9940 0.9940 0.9940
1157.498326 0.9940 0.9940 0.9940 0.9940 0.9940
1161.841118 0.9930 0.9910 0.9910 0.9910 0.9900
1166.183910 0.9900 0.9900 0.9900 0.9900 0.9900
1170.526702 0.9890 0.9890 0.9870 0.9870 0.9870
1174.869494 0.9890 0.9890 0.9890 0.9900 0.9900
1179.212287 0.9900 0.9900 0.9910 0.9910 0.9930
1183.555079 0.9940 0.9940 0.9940 0.9940 0.9940
1187.897871 0.9940 0.9940 0.9930 0.9930 0.9930
1192.240663 0.9930 0.9930 0.9930 0.9930 0.9930
1196.583455 0.9930 0.9930 0.9930 0.9910 0.9910
1200.926247 0.9930 0.9930 0.9930 0.9930 0.9930
1205.269039 0.9930 0.9940 0.9940 0.9950 0.9950
1209.611831 0.9950 0.9950 0.9970 0.9970 0.9970
1213.954624 0.9970 0.9970 0.9980 0.9980 0.9980
1218.297416 1.0000 1.0000 1.0000 1.0000 1.0000
1222.640208 1.0000 1.0000 1.0000 1.0000 1.0000
1226.983000 1.0000 1.0000 1.0000 0.9980 0.9980
1231.325792 0.9980 0.9980 0.9980 0.9980 0.9980
1235.668584 0.9980 0.9980 0.9980 0.9980 0.9970
1240.011376 0.9970 0.9970 0.9970 0.9970 0.9970
1244.354169 0.9970 0.9970 0.9970 0.9970 0.9950
1248.696961 0.9930 0.9910 0.9900 0.9890 0.9870
1253.039753 0.9870 0.9870 0.9860 0.9860 0.9860
1257.382545 0.9860 0.9860 0.9860 0.9860 0.9860
1261.725337 0.9860 0.9860 0.9860 0.9850 0.9850
1266.068129 0.9830 0.9830 0.9830 0.9830 0.9820
1270.410921 0.9820 0.9820 0.9820 0.9820 0.9820
1274.753713 0.9820 0.9820 0.9820 0.9820 0.9820
1279.096506 0.9820 0.9810 0.9810 0.9790 0.9790
1283.439298 0.9780 0.9760 0.9760 0.9750 0.9750
1287.782090 0.9750 0.9750 0.9750 0.9740 0.9720
1292.124882 0.9700 0.9680 0.9670 0.9660 0.9660
1296.467674 0.9640 0.9630 0.9630 0.9620 0.9620
1300.810466 0.9600 0.9600 0.9590 0.9570 0.9570
1305.153258 0.9560 0.9550 0.9530 0.9530 0.9530
1309.496051 0.9520 0.9530 0.9520 0.9510 0.9490
1313.838843 0.9470 0.9450 0.9450 0.9440 0.9440
1318.181635 0.9430 0.9410 0.9380 0.9360 0.9340
1322.524427 0.9330 0.9320 0.9300 0.9280 0.9240
1326.867219 0.9220 0.9190 0.9180 0.9180 0.9170
1331.210011 0.9140 0.9110 0.9050 0.8900 0.8830
1335.552803 0.8750 0.8710 0.8690 0.8620 0.8600
1339.895596 0.8540 0.8490 0.8410 0.8380 0.8340
1344.238388 0.8300 0.8290 0.8200 0.8150 0.8110
1348.581180 0.8080 0.8030 0.7930 0.7840 0.7770
1352.923972 0.7730 0.7650 0.7570 0.7470 0.7400
1357.266764 0.7340 0.7270 0.7190 0.7090 0.7020
1361.609556 0.6960 0.6890 0.6741 0.6640 0.6541
1365.952348 0.6410 0.6280 0.6170 0.6050 0.5881
1370.295140 0.5750 0.5601 0.5411 0.5311 0.5111
1374.637933 0.4990 0.4780 0.4540 0.4430 0.4300
1378.980725 0.4130 0.4050 0.3960 0.3741 0.3501
1383.323517 0.3360 0.3140 0.2980 0.2701 0.2550
1387.666309 0.2341 0.2220 0.1951 0.1701 0.1501
1392.009101 0.1340 0.1190 0.1050 0.0970 0.0890
1396.351893 0.0750 0.0620 0.0580 0.0540 0.0480
1400.694685 0.0370 0.0330 0.0280 0.0270 0.0200
1405.037478 0.0160 0.0140 0.0120 0.0090 0.0080
1409.380270 0.0060 0.0040 0.0020 0.0010 0.0010
1413.723062 0.0010 0.0010 0.0010 0.0000 0.0000
1418.065854 0.0000 0.0000 0.0000 0.0000 0.0000
1422.408646 0.0000 0.0000 0.0000 0.0000 0.0000
1426.751438 0.0000 0.0000 0.0000 0.0000 0.0000
1431.094230 0.0000 0.0000 0.0000 0.0000 0.0000
1435.437022 0.0000 0.0000 0.0000 0.0000 0.0000
1439.779815 0.0000 0.0000 0.0000 0.0000 0.0000
1444.122607 0.0000 0.0000 0.0000 0.0000 0.0000
1448.465399 0.0000 0.0000 0.0000 0.0000 0.0000
1452.808191 0.0000 0.0000 0.0000 0.0000 0.0000
1457.150983 0.0010 0.0020 0.0020 0.0020 0.0020
1461.493775 0.0010 0.0010 0.0000 0.0000 0.0000
1465.836567 0.0000 0.0000 0.0000 0.0000 0.0000
1470.179360 0.0000 0.0000 0.0000 0.0000 0.0000
1474.522152 0.0000 0.0000 0.0000 0.0000 0.0000
1478.864944 0.0000 0.0000 0.0000 0.0000 0.0010
1483.207736 0.0010 0.0010 0.0010 0.0010 0.0010
1487.550528 0.0010 0.0010 0.0000 0.0010 0.0010
1491.893320 0.0010 0.0010 0.0010 0.0010 0.0010
1496.236112 0.0010 0.0010 0.0010 0.0010 0.0010
1500.578904 0.0010 0.0010 0.0020 0.0020 0.0020
1504.921697 0.0020 0.0020 0.0020 0.0040 0.0040
1509.264489 0.0040 0.0040 0.0040 0.0040 0.0040
1513.607281 0.0040 0.0040 0.0040 0.0040 0.0040
1517.950073 0.0040 0.0040 0.0040 0.0040 0.0040
1522.292865 0.0040 0.0040 0.0040 0.0040 0.0040
1526.635657 0.0040 0.0040 0.0040 0.0040 0.0040
1530.978449 0.0050 0.0050 0.0050 0.0050 0.0050
1535.321242 0.0050 0.0050 0.0050 0.0050 0.0060
1539.664034 0.0060 0.0060 0.0060 0.0060 0.0060
1544.006826 0.0060 0.0060 0.0060 0.0050 0.0050
1548.349618 0.0050 0.0050 0.0050 0.0050 0.0050
1552.692410 0.0050 0.0050 0.0050 0.0050 0.0050
1557.035202 0.0050 0.0050 0.0050 0.0060 0.0060
1561.377994 0.0060 0.0060 0.0060 0.0060 0.0050
1565.720787 0.0050 0.0050 0.0050 0.0050 0.0040
1570.063579 0.0040 0.0040 0.0040 0.0040 0.0040
1574.406371 0.0040 0.0040 0.0040 0.0040 0.0040
1578.749163 0.0040 0.0040 0.0040 0.0040 0.0040
1583.091955 0.0040 0.0040 0.0040 0.0040 0.0040
1587.434747 0.0040 0.0040 0.0040 0.0040 0.0040
1591.777539 0.0040 0.0050 0.0050 0.0050 0.0050
1596.120331 0.0050 0.0060 0.0060 0.0060 0.0060
1600.463124 0.0060 0.0060 0.0060 0.0060 0.0060
1604.805916 0.0060 0.0080 0.0080 0.0080 0.0080
1609.148708 0.0080 0.0090 0.0100 0.0100 0.0120
1613.491500 0.0120 0.0140 0.0160 0.0170 0.0200
1617.834292 0.0280 0.0320 0.0360 0.0370 0.0420
1622.177084 0.0470 0.0500 0.0630 0.0989 0.0990
1626.519876 0.1050 0.1230 0.1270 0.1350 0.1490
1630.862669 0.1659 0.1889 0.1980 0.2099 0.2229
1635.205461 0.2510 0.2780 0.3050 0.3120 0.3170
1639.548253 0.3210 0.3359 0.3519 0.3669 0.3779
1643.891045 0.4040 0.4170 0.4350 0.4540 0.4779
1648.233837 0.4890 0.4990 0.5100 0.5180 0.5299
1652.576629 0.5460 0.5750 0.5950 0.5970 0.5980
1656.919421 0.5980 0.6020 0.6070 0.6170 0.6289
1661.262213 0.6410 0.6520 0.6590 0.6710 0.6810
1665.605006 0.6870 0.7000 0.7050 0.7090 0.7199
1669.947798 0.7290 0.7360 0.7420 0.7480 0.7510
1674.290590 0.7550 0.7620 0.7759 0.7820 0.7840
1678.633382 0.7910 0.7930 0.7970 0.8000 0.8030
1682.976174 0.8100 0.8190 0.8270 0.8300 0.8310
1687.318966 0.8330 0.8330 0.8370 0.8420 0.8480
1691.661758 0.8520 0.8530 0.8560 0.8570 0.8610
1696.004551 0.8710 0.8790 0.8810 0.8810 0.8830
1700.347343 0.8860 0.8860 0.8860 0.8860 0.8870
1704.690135 0.8920 0.8990 0.9030 0.9030 0.9070
1709.032927 0.9090 0.9100 0.9110 0.9130 0.9150
1713.375719 0.9170 0.9180 0.9210 0.9240 0.9280
1717.718511 0.9300 0.9320 0.9320 0.9340 0.9360
1722.061303 0.9370 0.9370 0.9380 0.9400 0.9410
1726.404096 0.9430 0.9440 0.9440 0.9440 0.9450
1730.746888 0.9450 0.9480 0.9480 0.9510 0.9520
1735.089680 0.9530 0.9530 0.9530 0.9530 0.9530
1739.432472 0.9530 0.9550 0.9570 0.9590 0.9600
1743.775264 0.9600 0.9600 0.9600 0.9600 0.9620
1748.118056 0.9620 0.9620 0.9630 0.9640 0.9660
1752.460848 0.9680 0.9680 0.9660 0.9660 0.9660
1756.803640 0.9640 0.9640 0.9660 0.9680 0.9680
1761.146433 0.9710 0.9710 0.9710 0.9720 0.9720
1765.489225 0.9710 0.9710 0.9700 0.9680 0.9680
1769.832017 0.9670 0.9670 0.9680 0.9700 0.9720
1774.174809 0.9740 0.9740 0.9740 0.9740 0.9720
1778.517601 0.9720 0.9710 0.9720 0.9740 0.9740
1782.860393 0.9750 0.9750 0.9760 0.9760 0.9760
1787.203185 0.9760 0.9760 0.9760 0.9750 0.9720
1791.545978 0.9740 0.9740 0.9750 0.9760 0.9760
1795.888770 0.9750 0.9750 0.9750 0.9760 0.9760
1800.231562 0.9760 0.9760 0.9760 0.9760 0.9760
1804.574354 0.9750 0.9750 0.9750 0.9750 0.9750
1808.917146 0.9750 0.9750 0.9750 0.9750 0.9750
1813.259938 0.9750 0.9750 0.9740 0.9740 0.9740
1817.602730 0.9740 0.9740 0.9740 0.9740 0.9720
1821.945522 0.9710 0.9710 0.9670 0.9710 0.9720
1826.288315 0.9720 0.9720 0.9720 0.9720 0.9720
1830.631107 0.9720 0.9720 0.9710 0.9700 0.9700
1834.973899 0.9700 0.9700 0.9700 0.9700 0.9700
1839.316691 0.9700 0.9680 0.9680 0.9680 0.9680
1843.659483 0.9700 0.9700 0.9670 0.9660 0.9660
1848.002275 0.9660 0.9660 0.9660 0.9660 0.9660
1852.345067 0.9640 0.9630 0.9630 0.9630 0.9620
1856.687860 0.9600 0.9600 0.9560 0.9560 0.9570
1861.030652 0.9570 0.9560 0.9560 0.9560 0.9560
1865.373444 0.9560 0.9560 0.9560 0.9560 0.9550
1869.716236 0.9530 0.9530 0.9510 0.9510 0.9490
1874.059028 0.9490 0.9480 0.9480 0.9470 0.9470
1878.401820 0.9450 0.9440 0.9440 0.9430 0.9410
1882.744612 0.9380 0.9370 0.9370 0.9340 0.9340
1887.087404 0.9340 0.9340 0.9330 0.9330 0.9330
1891.430197 0.9320 0.9320 0.9320 0.9300 0.9300
1895.772989 0.9300 0.9300 0.9290 0.9290 0.9280
1900.115781 0.9280 0.9280 0.9280 0.9290 0.9300
1904.458573 0.9300 0.9300 0.9300 0.9320 0.9320
1908.801365 0.9320 0.9330 0.9330 0.9330 0.9330
1913.144157 0.9330 0.9330 0.9340 0.9340 0.9360
1917.486949 0.9370 0.9370 0.9370 0.9380 0.9400
1921.829742 0.9410 0.9430 0.9430 0.9430 0.9440
1926.172534 0.9440 0.9440 0.9450 0.9450 0.9480
1930.515326 0.9510 0.9520 0.9530 0.9530 0.9530
1934.858118 0.9530 0.9550 0.9550 0.9550 0.9550
1939.200910 0.9550 0.9550 0.9560 0.9570 0.9590
1943.543702 0.9590 0.9600 0.9600 0.9590 0.9590
1947.886494 0.9590 0.9590 0.9600 0.9620 0.9640
1952.229287 0.9640 0.9640 0.9640 0.9630 0.9600
1956.572079 0.9510 0.9190 0.9190 0.9430 0.9620
1960.914871 0.9680 0.9710 0.9720 0.9720 0.9740
1965.257663 0.9750 0.9750 0.9750 0.9760 0.9760
1969.600455 0.9760 0.9760 0.9760 0.9780 0.9780
1973.943247 0.9790 0.9790 0.9790 0.9790 0.9790
1978.286039 0.9780 0.9780 0.9780 0.9790 0.9790
1982.628831 0.9790 0.9790 0.9790 0.9810 0.9810
1986.971624 0.9810 0.9810 0.9810 0.9820 0.9820
1991.314416 0.9790 0.9790 0.9790 0.9790 0.9790
1995.657208 0.9810 0.9820 0.9820 0.9820 0.9820
2000.000000 0.9820 0.9765 0.9710 0.9631 0.9551
2004.342792 0.9668 0.9788 0.9790 0.9790 0.9785
2008.685584 0.9780 0.9766 0.9751 0.9736 0.9721
2013.028376 0.9710 0.9700 0.9700 0.9700 0.9690
2017.371169 0.9680 0.9675 0.9670 0.9656 0.9641
2021.713961 0.9621 0.9601 0.9581 0.9561 0.9546
2026.056753 0.9531 0.9521 0.9511 0.9501 0.9491
2030.399545 0.9485 0.9480 0.9475 0.9470 0.9456
2034.742337 0.9441 0.9426 0.9411 0.9396 0.9381
2039.085129 0.9362 0.9342 0.9336 0.9331 0.9326
2043.427921 0.9321 0.9311 0.9301 0.9291 0.9281
2047.770713 0.9250 0.9215 0.9167 0.9117 0.9041
2052.113506 0.8960 0.8911 0.8866 0.8834 0.8804
2056.456298 0.8744 0.8679 0.8610 0.8541 0.8484
2060.799090 0.8429 0.8365 0.8301 0.8236 0.8171
2065.141882 0.8139 0.8114 0.8028 0.7928 0.7820
2069.484674 0.7709 0.7595 0.7480 0.7353 0.7224
2073.827466 0.7127 0.7037 0.6959 0.6885 0.6806
2078.170258 0.6726 0.6571 0.6396 0.6226 0.6056
2082.513051 0.5816 0.5557 0.5329 0.5110 0.4873
2086.855843 0.4632 0.4462 0.4313 0.4218 0.4138
2091.198635 0.4058 0.3978 0.3834 0.3669 0.3501
2095.541427 0.3331 0.3034 0.2695 0.2251 0.1773
2099.884219 0.1491 0.1276 0.1150 0.1055 0.0978
2104.227011 0.0908 0.0834 0.0760 0.0622 0.0463
2108.569803 0.0300 0.0135 0.0086 0.0081 0.0066
2112.912596 0.0046 0.0033 0.0023 0.0016 0.0011
2117.255388 0.0007 0.0002 0.0000 0.0000 0.0000
2121.598180 0.0000 0.0000 0.0000 0.0000 0.0000
2125.940972 0.0000 0.0000 0.0000 0.0000 0.0000
2130.283764 0.0000 0.0000 0.0000 0.0000 0.0000
2134.626556 0.0000 0.0000 0.0000 0.0000 0.0000
2138.969348 0.0000 0.0000 0.0000 0.0000 0.0000
2143.312140 0.0000 0.0000 0.0000 0.0000 0.0000
2147.654933 0.0000 0.0000 0.0000 0.0000 0.0000
2151.997725 0.0000 0.0000 0.0000 0.0000 0.0000
2156.340517 0.0000 0.0000 0.0000 0.0000 0.0000
2160.683309 0.0000 0.0000 0.0000 0.0000 0.0000
2165.026101 0.0000 0.0000 0.0000 0.0000 0.0000
2169.368893 0.0000 0.0000 0.0000 0.0000 0.0000
2173.711685 0.0000 0.0000 0.0000 0.0000 0.0000
2178.054478 0.0000 0.0000 0.0000 0.0000 0.0000
2182.397270 0.0000 0.0000 0.0000 0.0000 0.0000
2186.740062 0.0000 0.0000 0.0000 0.0000 0.0000
2191.082854 0.0000 0.0000 0.0000 0.0000 0.0000
2195.425646 0.0000 0.0000 0.0000 0.0000 0.0003
2199.768438 0.0008 0.0012 0.0017 0.0025 0.0035
2204.111230 0.0052 0.0077 0.0100 0.0120 0.0159
2208.454022 0.0219 0.0277 0.0332 0.0442 0.0611
2212.796815 0.0814 0.1054 0.1203 0.1253 0.1363
2217.139607 0.1543 0.1686 0.1785 0.1876 0.1956
2221.482399 0.2031 0.2101 0.2210 0.2370 0.2506
2225.825191 0.2612 0.2739 0.2894 0.2982 0.2987
2230.167983 0.3038 0.3147 0.3406 0.3865 0.4191
2234.510775 0.4335 0.4445 0.4505 0.4585 0.4695
2238.853567 0.4816 0.4956 0.5076 0.5165 0.5238
2243.196360 0.5283 0.5318 0.5338 0.5356 0.5371
2247.539152 0.5380 0.5380 0.5374 0.5359 0.5331
2251.881944 0.5281 0.5233 0.5188 0.5149 0.5119
2256.224736 0.5073 0.4998 0.4916 0.4822 0.4688
2260.567528 0.4482 0.4300 0.4160 0.4043 0.3969
2264.910320 0.3894 0.3819 0.3685 0.3435 0.3127
2269.253112 0.2704 0.2198 0.1525 0.1049 0.0984
2273.595904 0.0919 0.0855 0.0780 0.0686 0.0605
2277.938697 0.0554 0.0487 0.0382 0.0268 0.0133
2282.281489 0.0035 0.0020 0.0009 0.0004 0.0000
2286.624281 0.0000 0.0000 0.0000 0.0000 0.0000
2290.967073 0.0000 0.0000 0.0000 0.0000 0.0000
2295.309865 0.0000 0.0000 0.0000 0.0000 0.0000
2299.652657 0.0001 0.0006 0.0011 0.0016 0.0020
2303.995449 0.0020 0.0024 0.0039 0.0051 0.0056
2308.338242 0.0062 0.0072 0.0085 0.0104 0.0121
2312.681034 0.0126 0.0131 0.0136 0.0145 0.0164
2317.023826 0.0186 0.0210 0.0240 0.0285 0.0331
2321.366618 0.0386 0.0458 0.0598 0.0733 0.0847
2325.709410 0.0956 0.1041 0.1135 0.1269 0.1409
2330.052202 0.1570 0.1736 0.1926 0.2115 0.2305
2334.394994 0.2462 0.2472 0.2510 0.2685 0.2859
2338.737787 0.3034 0.3249 0.3678 0.4073 0.4287
2343.080579 0.4484 0.4579 0.4684 0.4854 0.5024
2347.423371 0.5200 0.5386 0.5630 0.5875 0.6119
2351.766163 0.6404 0.6947 0.7436 0.7555 0.7672
2356.108955 0.7772 0.7875 0.7999 0.8114 0.8149
2360.451747 0.8181 0.8191 0.8215 0.8364 0.8501
2364.794539 0.8517 0.8532 0.8547 0.8568 0.8653
2369.137331 0.8731 0.8741 0.8755 0.8810 0.8867
2373.480124 0.8952 0.9031 0.9051 0.9070 0.9070
2377.822916 0.9071 0.9091 0.9112 0.9147 0.9183
2382.165708 0.9233 0.9282 0.9307 0.9331 0.9351
2386.508500 0.9372 0.9401 0.9431 0.9456 0.9481
2390.851292 0.9501 0.9521 0.9541 0.9560 0.9575
2395.194084 0.9590 0.9605 0.9620 0.9650 0.9680
2399.536876 0.9700 0.9720 0.9730 0.9740 0.9745
2403.879669 0.9750 0.9750 0.9750 0.9750 0.9750
2408.222461 0.9755 0.9760 0.9770 0.9780 0.9785
2412.565253 0.9790 0.9790 0.9790 0.9800 0.9810
2416.908045 0.9810 0.9810 0.9815 0.9820 0.9835
2421.250837 0.9850 0.9850 0.9850 0.9855 0.9860
2425.593629 0.9860 0.9860 0.9860 0.9860 0.9860
2429.936421 0.9860 0.9860 0.9860 0.9865 0.9870
2434.279213 0.9870 0.9870 0.9865 0.9860 0.9860
2438.622006 0.9860 0.9865 0.9870 0.9879 0.9889
2442.964798 0.9890 0.9890 0.9890 0.9890 0.9890
2447.307590 0.9890 0.9890 0.9890 0.9890 0.9890
2451.650382 0.9890 0.9890 0.9890 0.9890 0.9894
2455.993174 0.9899 0.9900 0.9900 0.9900 0.9900
2460.335966 0.9900 0.9900 0.9900 0.9900 0.9900
2464.678758 0.9900 0.9900 0.9900 0.9900 0.9900
2469.021551 0.9900 0.9900 0.9900 0.9900 0.9900
2473.364343 0.9900 0.9900 0.9900 0.9900 0.9900
2477.707135 0.9900 0.9900 0.9896 0.9891 0.9890
2482.049927 0.9890 0.9890 0.9890 0.9894 0.9899
2486.392719 0.9904 0.9909 0.9910 0.9910 0.9910
2490.735511 0.9910 0.9910 0.9910 0.9906 0.9901
2495.078303 0.9900 0.9900 0.9900 0.9900 0.9900
2499.421096 0.9900 0.9900 0.9900 0.9896 0.9891
2503.763888 0.9890 0.9890 0.9894 0.9899 0.9900
2508.106680 0.9900 0.9900 0.9900 0.9900 0.9900
2512.449472 0.9900 0.9900 0.9900 0.9900 0.9900
2516.792264 0.9900 0.9900 0.9900 0.9900 0.9900
2521.135056 0.9900 0.9900 0.9900 0.9900 0.9900
2525.477848 0.9900 0.9900 0.9900 0.9900 0.9900
2529.820640 0.9900 0.9900 0.9900 0.9900 0.9900
2534.163433 0.9900 0.9900 0.9900 0.9900 0.9900
2538.506225 0.9900 0.9900 0.9900 0.9900 0.9900
2542.849017 0.9900 0.9897 0.9892 0.9890 0.9890
2547.191809 0.9890 0.9890 0.9884 0.9874 0.9870
2551.534601 0.9870 0.9876 0.9886 0.9890 0.9890
2555.877393 0.9890 0.9890 0.9890 0.9890 0.9893
2560.220185 0.9898 0.9900 0.9900 0.9900 0.9900
2564.562978 0.9900 0.9900 0.9900 0.9900 0.9900
2568.905770 0.9900 0.9897 0.9892 0.9890 0.9890
2573.248562 0.9890 0.9890 0.9890 0.9890 0.9890
2577.591354 0.9890 0.9890 0.9890 0.9890 0.9890
2581.934146 0.9890 0.9890 0.9890 0.9890 0.9890
2586.276938 0.9890 0.9890 0.9890 0.9890 0.9890
2590.619730 0.9890 0.9890 0.9893 0.9898 0.9900
2594.962522 0.9900 0.9900 0.9900 0.9900 0.9900
2599.305315 0.9900 0.9900 0.9900 0.9900 0.9900
2603.648107 0.9900 0.9900 0.9900 0.9900 0.9900
2607.990899 0.9892 0.9877 0.9870 0.9870 0.9875
2612.333691 0.9885 0.9890 0.9890 0.9890 0.9890
2616.676483 0.9890 0.9890 0.9890 0.9890 0.9885
2621.019275 0.9875 0.9870 0.9870 0.9870 0.9870
2625.362067 0.9870 0.9870 0.9870 0.9870 0.9870
2629.704860 0.9870 0.9870 0.9870 0.9870 0.9870
2634.047652 0.9870 0.9870 0.9870 0.9870 0.9870
2638.390444 0.9870 0.9870 0.9870 0.9870 0.9870
2642.733236 0.9870 0.9870 0.9870 0.9870 0.9870
2647.076028 0.9870 0.9870 0.9870 0.9874 0.9884
2651.418820 0.9890 0.9890 0.9890 0.9890 0.9890
2655.761612 0.9890 0.9886 0.9876 0.9870 0.9870
2660.104404 0.9870 0.9870 0.9870 0.9870 0.9870
2664.447197 0.9870 0.9870 0.9870 0.9870 0.9870
2668.789989 0.9870 0.9870 0.9870 0.9870 0.9870
2673.132781 0.9870 0.9870 0.9870 0.9870 0.9870
2677.475573 0.9870 0.9870 0.9870 0.9870 0.9870
2681.818365 0.9870 0.9870 0.9870 0.9868 0.9863
2686.161157 0.9860 0.9860 0.9860 0.9860 0.9858
2690.503949 0.9854 0.9850 0.9850 0.9850 0.9850
2694.846742 0.9850 0.9850 0.9850 0.9850 0.9850
2699.189534 0.9850 0.9847 0.9837 0.9829 0.9824
2703.532326 0.9820 0.9820 0.9819 0.9814 0.9807
2707.875118 0.9797 0.9789 0.9784 0.9780 0.9780
2712.217910 0.9780 0.9780 0.9780 0.9780 0.9778
2716.560702 0.9768 0.9760 0.9760 0.9760 0.9760
2720.903494 0.9755 0.9735 0.9718 0.9708 0.9698
2725.246287 0.9688 0.9678 0.9668 0.9656 0.9636
2729.589079 0.9617 0.9602 0.9587 0.9572 0.9559
2733.931871 0.9554 0.9547 0.9532 0.9516 0.9496
2738.274663 0.9473 0.9439 0.9405 0.9381 0.9356
2742.617455 0.9337 0.9315 0.9285 0.9256 0.9231
2746.960247 0.9204 0.9169 0.9132 0.9087 0.9038
2751.303039 0.8963 0.8889 0.8819 0.8749 0.8680
2755.645831 0.8616 0.8586 0.8543 0.8418 0.8299
2759.988624 0.8220 0.8141 0.8071 0.8005 0.7965
2764.331416 0.7928 0.7908 0.7882 0.7817 0.7752
2768.674208 0.7687 0.7623 0.7563 0.7501 0.7422
2773.017000 0.7337 0.7207 0.7078 0.6948 0.6804
2777.359792 0.6515 0.6225 0.5920 0.5639 0.5624
2781.702584 0.5610 0.5610 0.5610 0.5610 0.5608
2786.045376 0.5588 0.5567 0.5527 0.5487 0.5447
2790.388169 0.5405 0.5331 0.5257 0.5197 0.5136
2794.730961 0.5062 0.4987 0.4912 0.4826 0.4427
2799.073753 0.4035 0.3864 0.3693 0.3518 0.3350
2803.416545 0.3350 0.3354 0.3473 0.3598 0.3922
2807.759337 0.4244 0.4463 0.4683 0.4952 0.5221
2812.102129 0.5445 0.5670 0.6009 0.6348 0.6454
2816.444921 0.6559 0.6788 0.7020 0.7150 0.7279
2820.787713 0.7389 0.7499 0.7594 0.7688 0.7714
2825.130506 0.7739 0.7774 0.7809 0.7887 0.7967
2829.473298 0.8042 0.8117 0.8177 0.8237 0.8287
2833.816090 0.8337 0.8383 0.8428 0.8478 0.8528
2838.158882 0.8587 0.8647 0.8697 0.8747 0.8811
2842.501674 0.8876 0.8913 0.8947 0.9019 0.9094
2846.844466 0.9118 0.9138 0.9158 0.9178 0.9243
2851.187258 0.9313 0.9347 0.9377 0.9407 0.9437
2855.530051 0.9454 0.9469 0.9506 0.9546 0.9568
2859.872843 0.9588 0.9612 0.9637 0.9658 0.9678
2864.215635 0.9680 0.9680 0.9689 0.9699 0.9700
2868.558427 0.9700 0.9704 0.9709 0.9710 0.9710
2872.901219 0.9710 0.9710 0.9710 0.9710 0.9710
2877.244011 0.9710 0.9706 0.9701 0.9700 0.9700
2881.586803 0.9688 0.9673 0.9666 0.9661 0.9652
2885.929596 0.9642 0.9640 0.9640 0.9632 0.9622
2890.272388 0.9599 0.9575 0.9562 0.9552 0.9542
2894.615180 0.9532 0.9526 0.9521 0.9488 0.9448
2898.957972 0.9400 0.9351 0.9293 0.9233 0.9169
2903.300764 0.9105 0.9032 0.8956 0.8940 0.8940
2907.643556 0.8917 0.8887 0.8853 0.8818 0.8775
2911.986348 0.8731 0.8682 0.8632 0.8586 0.8541
2916.329140 0.8429 0.8294 0.8112 0.7912 0.7728
2920.671933 0.7548 0.7408 0.7282 0.7187 0.7102
2925.014725 0.7080 0.7080 0.7168 0.7287 0.7418
2929.357517 0.7552 0.7708 0.7873 0.8027 0.8176
2933.700309 0.8266 0.8331 0.8409 0.8494 0.8579
2938.043101 0.8664 0.8763 0.8869 0.8935 0.8985
2942.385893 0.9035 0.9085 0.9114 0.9134 0.9150
2946.728685 0.9165 0.9207 0.9262 0.9293 0.9313
2951.071478 0.9333 0.9353 0.9373 0.9393 0.9400
2955.414270 0.9400 0.9410 0.9425 0.9443 0.9463
2959.757062 0.9490 0.9519 0.9536 0.9546 0.9553
2964.099854 0.9558 0.9563 0.9568 0.9579 0.9594
2968.442646 0.9619 0.9649 0.9672 0.9692 0.9712
2972.785438 0.9732 0.9746 0.9756 0.9760 0.9760
2977.128230 0.9766 0.9776 0.9783 0.9788 0.9802
2981.471022 0.9822 0.9836 0.9846 0.9850 0.9850
2985.813815 0.9853 0.9858 0.9860 0.9860 0.9860
2990.156607 0.9860 0.9863 0.9868 0.9870 0.9870
2994.499399 0.9870 0.9870 0.9876 0.9886 0.9890
2998.842191 0.9890 0.9890 0.9890 0.9890 0.9890
3003.184983 0.9890 0.9890 0.9890 0.9890 0.9890
3007.527775 0.9890 0.9890 0.9890 0.9890 0.9890
3011.870567 0.9890 0.9890 0.9890 0.9890 0.9890
3016.213360 0.9890 0.9890 0.9890 0.9890 0.9890
3020.556152 0.9890 0.9890 0.9890 0.9890 0.9890
3024.898944 0.9890 0.9890 0.9890 0.9890 0.9890
3029.241736 0.9890 0.9890 0.9890 0.9890 0.9890
3033.584528 0.9890 0.9890 0.9890 0.9892 0.9897
3037.927320 0.9900 0.9900 0.9902 0.9907 0.9910
3042.270112 0.9910 0.9910 0.9910 0.9910 0.9910
3046.612904 0.9910 0.9910 0.9914 0.9924 0.9930
3050.955697 0.9930 0.9930 0.9930 0.9932 0.9937
3055.298489 0.9940 0.9940 0.9940 0.9940 0.9938
3059.641281 0.9933 0.9926 0.9916 0.9910 0.9910
3063.984073 0.9910 0.9910 0.9910 0.9910 0.9910
3068.326865 0.9910 0.9910 0.9910 0.9914 0.9924
3072.669657 0.9930 0.9930 0.9930 0.9930 0.9926
3077.012449 0.9917 0.9910 0.9910 0.9908 0.9903
3081.355242 0.9895 0.9880 0.9870 0.9870 0.9868
3085.698034 0.9863 0.9860 0.9860 0.9858 0.9853
3090.040826 0.9850 0.9850 0.9850 0.9850 0.9850
3094.383618 0.9850 0.9850 0.9850 0.9850 0.9850
3098.726410 0.9852 0.9857 0.9860 0.9860 0.9860
3103.069202 0.9860 0.9860 0.9860 0.9861 0.9866
3107.411994 0.9874 0.9889 0.9901 0.9906 0.9915
3111.754787 0.9935 0.9953 0.9963 0.9971 0.9976
3116.097579 0.9980 0.9980 0.9983 0.9993 1.0000
3120.440371 1.0000 1.0001 1.0006 1.0010 1.0010
3124.783163 1.0010 1.0010 1.0011 1.0016 1.0022
3129.125955 1.0032 1.0040 1.0040 1.0041 1.0046
3133.468747 1.0050 1.0050 1.0050 1.0050 1.0050
3137.811539 1.0050 1.0050 1.0050 1.0050 1.0050
3142.154331 1.0051 1.0056 1.0060 1.0060 1.0060
3146.497124 1.0060 1.0062 1.0072 1.0080 1.0080
3150.839916 1.0080 1.0080 1.0080 1.0080 1.0080
3155.182708 1.0080 1.0080 1.0080 1.0081 1.0086
3159.525500 1.0090 1.0090 1.0090 1.0090 1.0090
3163.868292 1.0090 1.0090 1.0090 1.0090 1.0090
3168.211084 1.0090 1.0090 1.0090 1.0090 1.0091
3172.553876 1.0096 1.0100 1.0100 1.0100 1.0100
3176.896669 1.0100 1.0100 1.0100 1.0100 1.0100
3181.239461 1.0100 1.0100 1.0100 1.0100 1.0100
3185.582253 1.0100 1.0100 1.0101 1.0111 1.0120
3189.925045 1.0120 1.0120 1.0120 1.0120 1.0120
3194.267837 1.0120 1.0120 1.0120 1.0120 1.0120
3198.610629 1.0125 1.0130 1.0125 1.0120 1.0120
3202.953421 1.0120 1.0120 1.0120 1.0120 1.0120
3207.296213 1.0120 1.0120 1.0120 1.0120 1.0120
3211.639006 1.0120 1.0120 1.0120 1.0120 1.0120
3215.981798 1.0125 1.0130 1.0130 1.0130 1.0130
3220.324590 1.0130 1.0130 1.0130 1.0130 1.0130
3224.667382 1.0130 1.0130 1.0135 1.0140 1.0140
3229.010174 1.0140 1.0135 1.0130 1.0130 1.0130
3233.352966 1.0130 1.0130 1.0130 1.0130 1.0130
3237.695758 1.0130 1.0135 1.0140 1.0140 1.0140
3242.038551 1.0135 1.0130 1.0130 1.0130 1.0130
3246.381343 1.0130 1.0130 1.0130 1.0135 1.0140
3250.724135 1.0140 1.0140 1.0140 1.0140 1.0140
3255.066927 1.0140 1.0140 1.0140 1.0135 1.0130
3259.409719 1.0130 1.0130 1.0135 1.0140 1.0140
3263.752511 1.0140 1.0140 1.0140 1.0140 1.0140
3268.095303 1.0149 1.0159 1.0164 1.0170 1.0170
3272.438096 1.0170 1.0170 1.0170 1.0170 1.0170
3276.780888 1.0174 1.0179 1.0180 1.0180 1.0180
3281.123680 1.0180 1.0180 1.0180 1.0180 1.0180
3285.466472 1.0180 1.0180 1.0180 1.0180 1.0180
3289.809264 1.0180 1.0180 1.0180 1.0180 1.0180
3294.152056 1.0180 1.0180 1.0180 1.0180 1.0180
3298.494848 1.0180 1.0180 1.0180 1.0180 1.0180
3302.837640 1.0180 1.0180 1.0180 1.0180 1.0180
3307.180433 1.0180 1.0180 1.0180 1.0180 1.0180
3311.523225 1.0180 1.0180 1.0180 1.0180 1.0180
3315.866017 1.0180 1.0188 1.0198 1.0200 1.0200
3320.208809 1.0200 1.0200 1.0200 1.0200 1.0200
3324.551601 1.0200 1.0200 1.0200 1.0200 1.0200
3328.894393 1.0200 1.0200 1.0200 1.0200 1.0200
3333.237185 1.0200 1.0193 1.0183 1.0180 1.0180
3337.579978 1.0180 1.0180 1.0176 1.0171 1.0170
3341.922770 1.0170 1.0174 1.0179 1.0180 1.0180
3346.265562 1.0180 1.0180 1.0187 1.0197 1.0204
3350.608354 1.0208 1.0210 1.0210 1.0210 1.0210
3354.951146 1.0210 1.0210 1.0217 1.0227 1.0230
3359.293938 1.0230 1.0223 1.0213 1.0210 1.0210
3363.636730 1.0210 1.0210 1.0210 1.0210 1.0210
3367.979522 1.0210 1.0210 1.0210 1.0210 1.0210
3372.322315 1.0210 1.0210 1.0216 1.0226 1.0224
3376.665107 1.0214 1.0210 1.0210 1.0210 1.0210
3381.007899 1.0210 1.0210 1.0210 1.0210 1.0210
3385.350691 1.0210 1.0210 1.0210 1.0210 1.0210
3389.693483 1.0210 1.0210 1.0210 1.0210 1.0210
3394.036275 1.0210 1.0210 1.0210 1.0207 1.0202
3398.379067 1.0200 1.0200 1.0200 1.0200 1.0200
3402.721860 1.0200 1.0200 1.0200 1.0200 1.0200
3407.064652 1.0200 1.0200 1.0195 1.0185 1.0177
3411.407444 1.0172 1.0170 1.0170 1.0167 1.0162
3415.750236 1.0155 1.0145 1.0140 1.0140 1.0137
3420.093028 1.0132 1.0130 1.0130 1.0130 1.0130
3424.435820 1.0130 1.0130 1.0128 1.0123 1.0120
3428.778612 1.0120 1.0115 1.0105 1.0100 1.0100
3433.121404 1.0097 1.0093 1.0090 1.0090 1.0083
3437.464197 1.0068 1.0048 1.0023 1.0010 1.0010
3441.806989 1.0008 1.0003 0.9995 0.9985 0.9980
3446.149781 0.9980 0.9985 0.9995 1.0002 1.0007
3450.492573 1.0010 1.0010 1.0017 1.0032 1.0042
3454.835365 1.0047 1.0050 1.0050 1.0050 1.0050
3459.178157 1.0050 1.0050 1.0050 1.0050 1.0050
3463.520949 1.0050 1.0050 1.0050 1.0052 1.0057
3467.863742 1.0060 1.0060 1.0058 1.0053 1.0050
3472.206534 1.0050 1.0050 1.0050 1.0052 1.0057
3476.549326 1.0058 1.0053 1.0050 1.0050 1.0050
3480.892118 1.0050 1.0050 1.0050 1.0050 1.0050
3485.234910 1.0050 1.0050 1.0048 1.0043 1.0040
3489.577702 1.0040 1.0040 1.0040 1.0040 1.0040
3493.920494 1.0040 1.0040 1.0037 1.0027 1.0020
3498.263287 1.0020 1.0020 1.0020 1.0020 1.0020
3502.606079 1.0018 1.0013 1.0010 1.0010 1.0010
3506.948871 1.0010 1.0010 1.0010 1.0010 1.0010
3511.291663 1.0010 1.0010 1.0010 1.0010 1.0010
3515.634455 1.0010 1.0010 1.0010 1.0009 1.0004
3519.977247 0.9997 0.9987 0.9980 0.9980 0.9980
3524.320039 0.9980 0.9980 0.9980 0.9980 0.9980
3528.662831 0.9980 0.9980 0.9980 0.9980 0.9979
3533.005624 0.9974 0.9970 0.9970 0.9970 0.9970
3537.348416 0.9970 0.9970 0.9970 0.9970 0.9967
3541.691208 0.9952 0.9940 0.9940 0.9939 0.9934
3546.034000 0.9930 0.9930 0.9930 0.9930 0.9930
3550.376792 0.9930 0.9928 0.9918 0.9910 0.9910
3554.719584 0.9909 0.9904 0.9900 0.9900 0.9900
3559.062376 0.9900 0.9899 0.9894 0.9890 0.9890
3563.405169 0.9890 0.9890 0.9890 0.9890 0.9890
3567.747961 0.9890 0.9890 0.9890 0.9890 0.9890
3572.090753 0.9890 0.9890 0.9890 0.9890 0.9890
3576.433545 0.9890 0.9890 0.9890 0.9890 0.9890
3580.776337 0.9890 0.9890 0.9889 0.9879 0.9870
3585.119129 0.9870 0.9870 0.9870 0.9870 0.9870
3589.461921 0.9870 0.9870 0.9869 0.9865 0.9860
3593.804713 0.9855 0.9850 0.9850 0.9849 0.9839
3598.147506 0.9830 0.9830 0.9830 0.9830 0.9830
3602.490298 0.9825 0.9820 0.9820 0.9820 0.9815
3606.833090 0.9810 0.9810 0.9810 0.9815 0.9820
3611.175882 0.9820 0.9820 0.9825 0.9830 0.9840
3615.518674 0.9850 0.9855 0.9860 0.9860 0.9860
3619.861466 0.9865 0.9870 0.9870 0.9870 0.9880
3624.204258 0.9890 0.9890 0.9890 0.9890 0.9890
3628.547051 0.9890 0.9890 0.9890 0.9890 0.9890
3632.889843 0.9890 0.9890 0.9890 0.9890 0.9890
3637.232635 0.9890 0.9890 0.9890 0.9890 0.9890
3641.575427 0.9890 0.9890 0.9890 0.9890 0.9890
3645.918219 0.9890 0.9890 0.9890 0.9890 0.9890
3650.261011 0.9890 0.9890 0.9890 0.9880 0.9870
3654.603803 0.9870 0.9870 0.9870 0.9870 0.9870
3658.946596 0.9870 0.9870 0.9870 0.9870 0.9870
3663.289388 0.9870 0.9870 0.9870 0.9870 0.9865
3667.632180 0.9860 0.9860 0.9860 0.9860 0.9860
3671.974972 0.9860 0.9860 0.9860 0.9860 0.9860
3676.317764 0.9860 0.9860 0.9860 0.9860 0.9860
3680.660556 0.9860 0.9860 0.9856 0.9851 0.9850
3685.003348 0.9850 0.9841 0.9831 0.9830 0.9830
3689.346140 0.9830 0.9830 0.9830 0.9830 0.9830
3693.688933 0.9830 0.9830 0.9830 0.9838 0.9848
3698.031725 0.9850 0.9850 0.9854 0.9859 0.9860
3702.374517 0.9860 0.9860 0.9860 0.9864 0.9869
3706.717309 0.9870 0.9870 0.9870 0.9870 0.9878
3711.060101 0.9888 0.9890 0.9890 0.9890 0.9890
3715.402893 0.9890 0.9890 0.9890 0.9890 0.9890
3719.745685 0.9890 0.9882 0.9872 0.9870 0.9870
3724.088478 0.9870 0.9870 0.9870 0.9870 0.9878
3728.431270 0.9888 0.9894 0.9899 0.9900 0.9900
3732.774062 0.9900 0.9900 0.9900 0.9900 0.9904
3737.116854 0.9909 0.9910 0.9910 0.9910 0.9910
3741.459646 0.9917 0.9927 0.9930 0.9930 0.9930
3745.802438 0.9930 0.9930 0.9930 0.9930 0.9930
3750.145230 0.9930 0.9930 0.9923 0.9913 0.9910
3754.488022 0.9910 0.9910 0.9910 0.9910 0.9910
3758.830815 0.9906 0.9902 0.9897 0.9892 0.9890
3763.173607 0.9890 0.9890 0.9890 0.9890 0.9890
3767.516399 0.9893 0.9898 0.9900 0.9900 0.9900
3771.859191 0.9900 0.9900 0.9900 0.9900 0.9900
3776.201983 0.9900 0.9900 0.9900 0.9900 0.9900
3780.544775 0.9900 0.9900 0.9900
##END=
