##TITLE=CYCLOPROPANE
##JCAMP-DX=4.24
##DATA TYPE=INFRARED SPECTRUM
##CLASS=COBLENTZ
##ORIGIN=DOW CHEMICAL COMPANY
##OWNER=COBLENTZ SOCIETY
Collection (C) 2018 copyright by the U.S. Secretary of Commerce
on behalf of the United States of America. All rights reserved.
##DATE=Not specified, most likely prior to 1982
##CAS REGISTRY NO=75-19-4
##MOLFORM=C3 H6
##SOURCE REFERENCE=COBLENTZ NO. 10488
##$NIST SOURCE=COBLENTZ
##$NIST IMAGE=cob-r10488
##SPECTROMETER/DATA SYSTEM=DOW KBr FOREPRISM-GRATING
##INSTRUMENT PARAMETERS=GRATING: BLAZED AT 3.5, 12.0, 20.0 MICRON, CHANGED AT 5.0, 7.5, 14.9 MICRON
##STATE=GAS (100 mmHg, N2 ADDED, TOTAL PRESSURE 600 mmHg)
##PATH LENGTH=5 CM CELL
##SAMPLING PROCEDURE=TRANSMISSION
##RESOLUTION=2
##DATA PROCESSING=DIGITIZED BY NIST FROM HARD COPY (FROM TWO SEGMENTS)
##XUNITS=1/CM
##YUNITS=TRANSMITTANCE
##XFACTOR=1.000000
##YFACTOR=1
##DELTAX=1.255890
##FIRSTX=462.794
##LASTX=3792.16
##FIRSTY=0.918
##MAXX=3792.16
##MINX=462.794
##MAXY=1.003
##MINY=0.009
##NPOINTS=2652
##XYDATA=(X++(Y..Y))
462.794000 0.9180 0.9180 0.9180 0.9160 0.9160
469.073451 0.9160 0.9140 0.9120 0.9120 0.9120
475.352902 0.9120 0.9120 0.9120 0.9100 0.9080
481.632354 0.9080 0.9080 0.9060 0.9060 0.9060
487.911805 0.9040 0.9040 0.9020 0.9020 0.9020
494.191256 0.9020 0.9020 0.9020 0.9020 0.9000
500.470707 0.9000 0.9000 0.8980 0.8980 0.8980
506.750158 0.8980 0.8980 0.8980 0.8980 0.8980
513.029610 0.8960 0.8960 0.8940 0.8940 0.8940
519.309061 0.8940 0.8940 0.8940 0.8940 0.8940
525.588512 0.8940 0.8960 0.8960 0.8960 0.8960
531.867963 0.8960 0.8960 0.8960 0.8960 0.8980
538.147414 0.9000 0.9000 0.9000 0.9020 0.9040
544.426866 0.9040 0.9060 0.9080 0.9080 0.9100
550.706317 0.9100 0.9100 0.9100 0.9100 0.9100
556.985768 0.9080 0.9080 0.9080 0.9080 0.9080
563.265219 0.9080 0.9080 0.9100 0.9100 0.9120
569.544671 0.9120 0.9100 0.9100 0.9100 0.9120
575.824122 0.9120 0.9140 0.9140 0.9160 0.9180
582.103573 0.9200 0.9220 0.9220 0.9240 0.9240
588.383024 0.9240 0.9240 0.9260 0.9260 0.9260
594.662475 0.9260 0.9260 0.9260 0.9280 0.9280
600.941927 0.9280 0.9280 0.9280 0.9280 0.9280
607.221378 0.9280 0.9280 0.9280 0.9300 0.9300
613.500829 0.9300 0.9320 0.9320 0.9340 0.9340
619.780280 0.9360 0.9360 0.9360 0.9380 0.9380
626.059731 0.9380 0.9380 0.9380 0.9400 0.9420
632.339183 0.9440 0.9440 0.9440 0.9440 0.9440
638.618634 0.9440 0.9460 0.9480 0.9500 0.9500
644.898085 0.9500 0.9500 0.9520 0.9520 0.9520
651.177536 0.9540 0.9540 0.9540 0.9540 0.9540
657.456987 0.9540 0.9540 0.9540 0.9560 0.9560
663.736439 0.9560 0.9560 0.9560 0.9560 0.9580
670.015890 0.9580 0.9580 0.9580 0.9580 0.9580
676.295341 0.9580 0.9580 0.9580 0.9580 0.9560
682.574792 0.9560 0.9560 0.9580 0.9580 0.9580
688.854243 0.9580 0.9580 0.9620 0.9620 0.9640
695.133695 0.9640 0.9660 0.9660 0.9660 0.9660
701.413146 0.9660 0.9660 0.9640 0.9640 0.9640
707.692597 0.9640 0.9640 0.9640 0.9640 0.9660
713.972048 0.9660 0.9680 0.9680 0.9700 0.9700
720.251499 0.9700 0.9720 0.9740 0.9740 0.9760
726.530951 0.9780 0.9780 0.9780 0.9800 0.9800
732.810402 0.9800 0.9800 0.9820 0.9820 0.9820
739.089853 0.9820 0.9820 0.9800 0.9800 0.9800
745.369304 0.9800 0.9820 0.9820 0.9840 0.9840
751.648756 0.9840 0.9840 0.9820 0.9820 0.9820
757.928207 0.9820 0.9820 0.9820 0.9800 0.9800
764.207658 0.9800 0.9800 0.9780 0.9740 0.9720
770.487109 0.9700 0.9640 0.9620 0.9600 0.9580
776.766560 0.9560 0.9500 0.9440 0.9420 0.9280
783.046012 0.9220 0.9140 0.9021 0.8940 0.8801
789.325463 0.8750 0.8710 0.8390 0.8330 0.8131
795.604914 0.7971 0.7771 0.7511 0.7421 0.7102
801.884365 0.6840 0.6620 0.6360 0.6111 0.5931
808.163816 0.5512 0.5271 0.5051 0.5010 0.4583
814.443268 0.4200 0.4000 0.3800 0.3551 0.3251
820.722719 0.2871 0.2770 0.2690 0.2143 0.1763
827.002170 0.1640 0.1500 0.1360 0.1300 0.1131
833.281621 0.0951 0.0890 0.0810 0.0810 0.0790
839.561072 0.0790 0.0770 0.0770 0.0790 0.0790
845.840524 0.0810 0.0830 0.0830 0.0890 0.0950
852.119975 0.0990 0.1050 0.0770 0.0930 0.0990
858.399426 0.1030 0.0811 0.0671 0.0610 0.0411
864.678877 0.0310 0.0290 0.0270 0.0270 0.0270
870.958328 0.0290 0.0330 0.0370 0.0628 0.0650
877.237780 0.0870 0.1090 0.1520 0.2339 0.2809
883.517231 0.2810 0.1804 0.1442 0.0913 0.0831
889.796682 0.0790 0.0730 0.0730 0.0630 0.0570
896.076133 0.0530 0.0510 0.0510 0.0510 0.0530
902.355584 0.0530 0.0570 0.0610 0.0650 0.0650
908.635036 0.0710 0.0750 0.0790 0.0830 0.0949
914.914487 0.1070 0.1250 0.1360 0.1520 0.1660
921.193938 0.2019 0.2139 0.2279 0.2707 0.3326
927.473389 0.3550 0.3920 0.4180 0.4500 0.4819
933.752841 0.5309 0.5669 0.6317 0.6499 0.6798
940.032292 0.7260 0.7590 0.8070 0.8370 0.8609
946.311743 0.8750 0.8840 0.8940 0.9039 0.9139
952.591194 0.9260 0.9340 0.9380 0.9480 0.9560
958.870645 0.9580 0.9600 0.9600 0.9600 0.9600
965.150097 0.9600 0.9580 0.9520 0.9440 0.9380
971.429548 0.9360 0.9181 0.9021 0.8921 0.8751
977.708999 0.8550 0.8250 0.8030 0.7790 0.7630
983.988450 0.6982 0.6482 0.5953 0.5552 0.5172
990.267901 0.4700 0.4380 0.3960 0.3451 0.2832
996.547353 0.2302 0.2081 0.1841 0.1582 0.1421
1002.826804 0.1250 0.1130 0.0870 0.0810 0.0810
1009.106255 0.0790 0.0790 0.0810 0.0810 0.0870
1015.385706 0.0970 0.1010 0.1050 0.1050 0.1050
1021.665157 0.1050 0.0851 0.0751 0.0710 0.0511
1027.944609 0.0490 0.0510 0.0530 0.0570 0.0610
1034.224060 0.0690 0.0869 0.1049 0.1149 0.1259
1040.503511 0.1320 0.1340 0.1320 0.1250 0.0891
1046.782962 0.0790 0.0750 0.0750 0.0730 0.0730
1053.062413 0.0750 0.0770 0.0790 0.0830 0.0930
1059.341865 0.0990 0.1050 0.1209 0.1359 0.1658
1065.621316 0.2160 0.2480 0.2830 0.3749 0.3999
1071.900767 0.4299 0.4818 0.5646 0.6515 0.6778
1078.180218 0.7120 0.7610 0.8010 0.8350 0.8629
1084.459669 0.8819 0.8999 0.9139 0.9200 0.9339
1090.739121 0.9380 0.9460 0.9540 0.9600 0.9620
1097.018572 0.9680 0.9700 0.9740 0.9760 0.9760
1103.298023 0.9800 0.9840 0.9880 0.9920 0.9980
1109.577474 1.0000 1.0010 1.0030 1.0030 1.0030
1115.856926 1.0030 1.0000 1.0000 0.9980 0.9960
1122.136377 0.9920 0.9860 0.9840 0.9840 0.9860
1128.415828 0.9880 0.9880 0.9860 0.9860 0.9840
1134.695279 0.9840 0.9820 0.9820 0.9800 0.9800
1140.974730 0.9780 0.9760 0.9740 0.9740 0.9720
1147.254182 0.9700 0.9700 0.9680 0.9680 0.9680
1153.533633 0.9680 0.9720 0.9720 0.9740 0.9740
1159.813084 0.9740 0.9760 0.9760 0.9760 0.9760
1166.092535 0.9760 0.9760 0.9760 0.9760 0.9780
1172.371986 0.9780 0.9800 0.9800 0.9820 0.9820
1178.651438 0.9820 0.9820 0.9820 0.9820 0.9840
1184.930889 0.9840 0.9840 0.9840 0.9840 0.9840
1191.210340 0.9840 0.9820 0.9820 0.9820 0.9820
1197.489791 0.9820 0.9820 0.9820 0.9840 0.9840
1203.769242 0.9840 0.9840 0.9860 0.9860 0.9860
1210.048694 0.9860 0.9860 0.9860 0.9860 0.9880
1216.328145 0.9880 0.9880 0.9880 0.9880 0.9880
1222.607596 0.9900 0.9900 0.9900 0.9900 0.9900
1228.887047 0.9900 0.9900 0.9880 0.9880 0.9880
1235.166498 0.9880 0.9880 0.9880 0.9860 0.9860
1241.445950 0.9840 0.9840 0.9820 0.9820 0.9820
1247.725401 0.9820 0.9800 0.9800 0.9800 0.9800
1254.004852 0.9780 0.9780 0.9780 0.9780 0.9760
1260.284303 0.9760 0.9740 0.9740 0.9740 0.9740
1266.563754 0.9740 0.9720 0.9700 0.9680 0.9660
1272.843206 0.9640 0.9640 0.9620 0.9600 0.9600
1279.122657 0.9600 0.9600 0.9600 0.9600 0.9620
1285.402108 0.9620 0.9620 0.9620 0.9620 0.9640
1291.681559 0.9640 0.9640 0.9640 0.9640 0.9640
1297.961011 0.9640 0.9620 0.9620 0.9600 0.9600
1304.240462 0.9600 0.9600 0.9600 0.9620 0.9620
1310.519913 0.9620 0.9620 0.9620 0.9620 0.9620
1316.799364 0.9620 0.9640 0.9640 0.9640 0.9640
1323.078815 0.9640 0.9640 0.9640 0.9640 0.9640
1329.358267 0.9620 0.9620 0.9600 0.9600 0.9620
1335.637718 0.9620 0.9620 0.9620 0.9620 0.9600
1341.917169 0.9600 0.9600 0.9600 0.9620 0.9640
1348.196620 0.9640 0.9640 0.9640 0.9620 0.9620
1354.476071 0.9600 0.9600 0.9600 0.9600 0.9600
1360.755523 0.9600 0.9600 0.9600 0.9600 0.9600
1367.034974 0.9600 0.9600 0.9600 0.9600 0.9600
1373.314425 0.9620 0.9620 0.9620 0.9620 0.9620
1379.593876 0.9620 0.9640 0.9660 0.9660 0.9700
1385.873327 0.9700 0.9680 0.9620 0.9600 0.9560
1392.152779 0.9480 0.9440 0.9360 0.9280 0.9180
1398.432230 0.9140 0.9060 0.8980 0.8940 0.8841
1404.711681 0.8750 0.8530 0.8310 0.8190 0.8010
1410.991132 0.7850 0.7671 0.7590 0.7261 0.7101
1417.270583 0.6900 0.6780 0.6680 0.6640 0.6620
1423.550035 0.6620 0.6640 0.6779 0.6860 0.6940
1429.829486 0.7000 0.7100 0.7260 0.7300 0.7300
1436.108937 0.7260 0.7160 0.7100 0.6941 0.6920
1442.388388 0.6778 0.5930 0.5930 0.6740 0.6820
1448.667839 0.6860 0.6960 0.7020 0.7040 0.7060
1454.947291 0.7060 0.7080 0.7080 0.7100 0.7100
1461.226742 0.7120 0.7200 0.7439 0.7669 0.8008
1467.506193 0.8150 0.8210 0.8370 0.8490 0.8510
1473.785644 0.8530 0.8530 0.8630 0.8650 0.8749
1480.065096 0.8820 0.8920 0.8960 0.9040 0.9160
1486.344547 0.9260 0.9340 0.9360 0.9380 0.9420
1492.623998 0.9440 0.9440 0.9520 0.9540 0.9540
1498.903449 0.9560 0.9560 0.9580 0.9580 0.9600
1505.182900 0.9600 0.9600 0.9600 0.9600 0.9620
1511.462352 0.9620 0.9620 0.9640 0.9660 0.9660
1517.741803 0.9660 0.9640 0.9620 0.9620 0.9600
1524.021254 0.9600 0.9620 0.9640 0.9640 0.9640
1530.300705 0.9640 0.9620 0.9620 0.9640 0.9640
1536.580156 0.9620 0.9620 0.9620 0.9600 0.9600
1542.859608 0.9600 0.9600 0.9600 0.9620 0.9620
1549.139059 0.9620 0.9620 0.9600 0.9600 0.9600
1555.418510 0.9600 0.9600 0.9600 0.9600 0.9580
1561.697961 0.9580 0.9580 0.9600 0.9580 0.9580
1567.977412 0.9580 0.9580 0.9600 0.9580 0.9580
1574.256864 0.9580 0.9580 0.9580 0.9580 0.9580
1580.536315 0.9580 0.9580 0.9580 0.9580 0.9580
1586.815766 0.9580 0.9580 0.9580 0.9580 0.9560
1593.095217 0.9540 0.9520 0.9460 0.9300 0.9300
1599.374668 0.9360 0.9520 0.9560 0.9560 0.9560
1605.654120 0.9540 0.9540 0.9540 0.9540 0.9540
1611.933571 0.9540 0.9540 0.9540 0.9520 0.9520
1618.213022 0.9500 0.9500 0.9480 0.9460 0.9460
1624.492473 0.9460 0.9440 0.9380 0.9380 0.9360
1630.771924 0.9340 0.9320 0.9320 0.9320 0.9340
1637.051376 0.9340 0.9360 0.9380 0.9380 0.9400
1643.330827 0.9420 0.9440 0.9460 0.9480 0.9480
1649.610278 0.9480 0.9480 0.9480 0.9480 0.9500
1655.889729 0.9520 0.9520 0.9520 0.9520 0.9500
1662.169181 0.9500 0.9500 0.9500 0.9500 0.9500
1668.448632 0.9500 0.9500 0.9500 0.9500 0.9500
1674.728083 0.9500 0.9500 0.9500 0.9500 0.9480
1681.007534 0.9460 0.9460 0.9460 0.9460 0.9440
1687.286985 0.9440 0.9420 0.9380 0.9360 0.9340
1693.566437 0.9300 0.9280 0.9220 0.9220 0.9200
1699.845888 0.9160 0.9060 0.9000 0.8960 0.8940
1706.125339 0.8940 0.8920 0.8900 0.8750 0.8670
1712.404790 0.8610 0.8550 0.8430 0.8370 0.8330
1718.684241 0.8330 0.8190 0.8150 0.8030 0.7970
1724.963693 0.7910 0.7830 0.7810 0.7750 0.7690
1731.243144 0.7630 0.7590 0.7570 0.7570 0.7550
1737.522595 0.7550 0.7550 0.7550 0.7550 0.7550
1743.802046 0.7570 0.7590 0.7590 0.7610 0.7610
1750.081497 0.7610 0.7610 0.7630 0.7630 0.7650
1756.360949 0.7690 0.7770 0.7830 0.8010 0.8290
1762.640400 0.8430 0.8570 0.8959 0.9060 0.9060
1768.919851 0.8730 0.8550 0.8370 0.8190 0.8070
1775.199302 0.7830 0.7770 0.7750 0.7750 0.7790
1781.478753 0.7890 0.7970 0.8010 0.8090 0.8190
1787.758205 0.8270 0.8350 0.8390 0.8470 0.8550
1794.037656 0.8590 0.8650 0.8730 0.8750 0.8780
1800.317107 0.8820 0.8880 0.8940 0.8940 0.8960
1806.596558 0.8980 0.9020 0.9040 0.9080 0.9100
1812.876009 0.9120 0.9120 0.9140 0.9140 0.9140
1819.155461 0.9140 0.9140 0.9140 0.9140 0.9140
1825.434912 0.9140 0.9140 0.9140 0.9140 0.9120
1831.714363 0.9120 0.9120 0.9100 0.9100 0.9100
1837.993814 0.9100 0.9080 0.9080 0.9080 0.9080
1844.273266 0.9080 0.9080 0.9080 0.9060 0.9020
1850.552717 0.9000 0.8960 0.8940 0.8880 0.8800
1856.832168 0.8670 0.8550 0.8270 0.8010 0.7630
1863.111619 0.7400 0.7121 0.7120 0.7628 0.7610
1869.391070 0.7590 0.7440 0.7300 0.7200 0.7100
1875.670522 0.6840 0.6621 0.6500 0.6341 0.5952
1881.949973 0.5710 0.5530 0.5390 0.5270 0.5030
1888.229424 0.4880 0.4521 0.4261 0.3921 0.3781
1894.508875 0.3760 0.3781 0.4080 0.4400 0.4840
1900.788326 0.5150 0.5549 0.5869 0.6049 0.6229
1907.067778 0.6481 0.6661 0.6940 0.7100 0.7440
1913.347229 0.7510 0.7650 0.7770 0.7810 0.7929
1919.626680 0.8171 0.8610 0.8760 0.8780 0.8820
1925.906131 0.8840 0.8840 0.8840 0.8760 0.8352
1932.185582 0.8351 0.8731 0.9000 0.9220 0.9340
1938.465034 0.9360 0.9360 0.9360 0.9380 0.9380
1944.744485 0.9380 0.9380 0.9360 0.9360 0.9360
1951.023936 0.9360 0.9360 0.9380 0.9380 0.9400
1957.303387 0.9400 0.9420 0.9420 0.9400 0.9400
1963.582838 0.9400 0.9400 0.9400 0.9420 0.9440
1969.862290 0.9440 0.9460 0.9480 0.9480 0.9500
1976.141741 0.9500 0.9520 0.9520 0.9540 0.9540
1982.421192 0.9560 0.9560 0.9560 0.9560 0.9580
1988.700643 0.9580 0.9580 0.9580 0.9580 0.9580
1994.980094 0.9580 0.9580 0.9580 0.9580 0.9580
2001.259546 0.9580 0.9580 0.9580 0.9580 0.9571
2007.538997 0.9561 0.9524 0.9484 0.9471 0.9461
2013.818448 0.9434 0.9405 0.9392 0.9382 0.9332
2020.097899 0.9273 0.9229 0.9190 0.9165 0.9145
2026.377351 0.9073 0.8984 0.8909 0.8840 0.8796
2032.656802 0.8761 0.8723 0.8684 0.8599 0.8491
2038.936253 0.8382 0.8274 0.8159 0.8041 0.7956
2045.215704 0.7897 0.7838 0.7779 0.7714 0.7644
2051.495155 0.7577 0.7513 0.7441 0.7362 0.7279
2057.774607 0.7190 0.7097 0.6998 0.6892 0.6773
2064.054058 0.6681 0.6632 0.6579 0.6520 0.6461
2070.333509 0.6402 0.6357 0.6347 0.6343 0.6353
2076.612960 0.6376 0.6435 0.6499 0.6578 0.6672
2082.892411 0.6820 0.6940 0.6940 0.6884 0.6544
2089.171863 0.6184 0.5701 0.5267 0.5237 0.5177
2095.451314 0.4767 0.4380 0.4380 0.4420 0.5901
2101.730765 0.7339 0.7320 0.7300 0.7290 0.7280
2108.010216 0.7145 0.7007 0.6888 0.6770 0.6742
2114.289667 0.6722 0.6729 0.6739 0.6868 0.7016
2120.569119 0.7106 0.7185 0.7476 0.7816 0.7945
2126.848570 0.8015 0.8216 0.8453 0.8592 0.8701
2133.128021 0.8798 0.8892 0.8948 0.8987 0.9013
2139.407472 0.9033 0.9066 0.9105 0.9102 0.9072
2145.686923 0.9054 0.9044 0.9006 0.8947 0.8898
2151.966375 0.8858 0.8835 0.8825 0.8802 0.8768
2158.245826 0.8740 0.8721 0.8705 0.8696 0.8694
2164.525277 0.8704 0.8724 0.8759 0.8806 0.8875
2170.804728 0.8958 0.9067 0.9162 0.9231 0.9280
2177.084179 0.9280 0.9256 0.9178 0.9065 0.8863
2183.363631 0.8681 0.8563 0.8337 0.7720 0.7220
2189.643082 0.7220 0.7324 0.7971 0.8538 0.8597
2195.922533 0.8655 0.8705 0.8751 0.8766 0.8781
2202.201984 0.8791 0.8800 0.8800 0.8801 0.8820
2208.481436 0.8840 0.8879 0.8919 0.8978 0.9037
2214.760887 0.9059 0.9078 0.9053 0.9023 0.8994
2221.040338 0.8964 0.8951 0.8942 0.8948 0.8958
2227.319789 0.8992 0.9032 0.9064 0.9094 0.9131
2233.599240 0.9170 0.9195 0.9215 0.9242 0.9271
2239.878692 0.9301 0.9330 0.9347 0.9357 0.9373
2246.158143 0.9393 0.9412 0.9432 0.9446 0.9456
2252.437594 0.9466 0.9476 0.9480 0.9480 0.9480
2258.717045 0.9480 0.9475 0.9465 0.9460 0.9460
2264.996496 0.9455 0.9446 0.9427 0.9398 0.9380
2271.275948 0.9380 0.9376 0.9366 0.9357 0.9347
2277.555399 0.9337 0.9327 0.9320 0.9320 0.9317
2283.834850 0.9307 0.9295 0.9275 0.9258 0.9248
2290.114301 0.9238 0.9228 0.9218 0.9208 0.9197
2296.393752 0.9177 0.9157 0.9138 0.9119 0.9109
2302.673204 0.9099 0.9089 0.9077 0.9037 0.8990
2308.952655 0.8808 0.8630 0.8630 0.8630 0.8940
2315.232106 0.9251 0.9298 0.9338 0.9349 0.9359
2321.511557 0.9369 0.9379 0.9380 0.9380 0.9397
2327.791008 0.9417 0.9428 0.9438 0.9440 0.9440
2334.070460 0.9440 0.9440 0.9440 0.9440 0.9447
2340.349911 0.9457 0.9460 0.9460 0.9453 0.9443
2346.629362 0.9440 0.9440 0.9440 0.9440 0.9440
2352.908813 0.9440 0.9440 0.9440 0.9440 0.9440
2359.188265 0.9440 0.9440 0.9435 0.9425 0.9420
2365.467716 0.9420 0.9420 0.9420 0.9416 0.9406
2371.747167 0.9396 0.9386 0.9380 0.9380 0.9380
2378.026618 0.9380 0.9380 0.9380 0.9383 0.9393
2384.306069 0.9403 0.9413 0.9420 0.9420 0.9423
2390.585521 0.9433 0.9445 0.9464 0.9480 0.9480
2396.864972 0.9484 0.9503 0.9522 0.9531 0.9540
2403.144423 0.9540 0.9541 0.9551 0.9560 0.9560
2409.423874 0.9560 0.9560 0.9560 0.9550 0.9540
2415.703325 0.9540 0.9540 0.9530 0.9520 0.9510
2421.982777 0.9501 0.9491 0.9481 0.9453 0.9423
2428.262228 0.9402 0.9383 0.9380 0.9380 0.9363
2434.541679 0.9343 0.9315 0.9286 0.9280 0.9280
2440.821130 0.9280 0.9280 0.9265 0.9245 0.9233
2447.100581 0.9223 0.9213 0.9203 0.9193 0.9184
2453.380033 0.9142 0.9083 0.9029 0.8979 0.8948
2459.659484 0.8928 0.8920 0.8920 0.8931 0.8951
2465.938935 0.9002 0.9081 0.9120 0.9120 0.9101
2472.218386 0.9062 0.9009 0.8940 0.8892 0.8872
2478.497837 0.8860 0.8860 0.8864 0.8874 0.8887
2484.777289 0.8907 0.8920 0.8920 0.8920 0.8920
2491.056740 0.8920 0.8920 0.8923 0.8932 0.8942
2497.336191 0.8952 0.8964 0.8984 0.9004 0.9023
2503.615642 0.9046 0.9086 0.9123 0.9143 0.9160
2509.895093 0.9160 0.9160 0.9160 0.9161 0.9171
2516.174545 0.9181 0.9201 0.9220 0.9220 0.9220
2522.453996 0.9230 0.9240 0.9240 0.9240 0.9268
2528.733447 0.9297 0.9309 0.9319 0.9320 0.9320
2535.012898 0.9346 0.9376 0.9405 0.9435 0.9448
2541.292350 0.9458 0.9460 0.9460 0.9460 0.9460
2547.571801 0.9467 0.9477 0.9480 0.9480 0.9494
2553.851252 0.9513 0.9533 0.9553 0.9573 0.9593
2560.130703 0.9600 0.9600 0.9606 0.9616 0.9626
2566.410154 0.9636 0.9646 0.9655 0.9660 0.9660
2572.689606 0.9655 0.9645 0.9640 0.9640 0.9636
2578.969057 0.9626 0.9612 0.9592 0.9576 0.9566
2585.248508 0.9556 0.9546 0.9525 0.9486 0.9443
2591.527959 0.9394 0.9354 0.9334 0.9314 0.9295
2597.807410 0.9264 0.9205 0.9155 0.9136 0.9112
2604.086862 0.9072 0.9036 0.9017 0.8998 0.8988
2610.366313 0.8982 0.8991 0.9031 0.9268 0.9481
2616.645764 0.9491 0.9500 0.9500 0.9493 0.9355
2622.925215 0.9219 0.9149 0.9080 0.9070 0.9060
2629.204666 0.9070 0.9079 0.9099 0.9118 0.9156
2635.484118 0.9197 0.9209 0.9219 0.9229 0.9239
2641.763569 0.9282 0.9332 0.9373 0.9412 0.9436
2648.043020 0.9456 0.9468 0.9478 0.9487 0.9497
2654.322471 0.9514 0.9534 0.9547 0.9557 0.9567
2660.601922 0.9577 0.9587 0.9596 0.9613 0.9632
2666.881374 0.9646 0.9656 0.9666 0.9676 0.9680
2673.160825 0.9680 0.9680 0.9680 0.9680 0.9680
2679.440276 0.9675 0.9665 0.9660 0.9660 0.9664
2685.719727 0.9674 0.9680 0.9680 0.9680 0.9680
2691.999178 0.9680 0.9680 0.9677 0.9667 0.9660
2698.278630 0.9660 0.9660 0.9660 0.9657 0.9648
2704.558081 0.9640 0.9640 0.9640 0.9640 0.9638
2710.837532 0.9628 0.9618 0.9608 0.9598 0.9589
2717.116983 0.9580 0.9580 0.9580 0.9580 0.9581
2723.396435 0.9591 0.9600 0.9600 0.9600 0.9600
2729.675886 0.9600 0.9590 0.9580 0.9580 0.9580
2735.955337 0.9580 0.9580 0.9599 0.9618 0.9629
2742.234788 0.9639 0.9649 0.9659 0.9660 0.9660
2748.514239 0.9652 0.9642 0.9632 0.9622 0.9620
2754.793691 0.9620 0.9620 0.9620 0.9613 0.9603
2761.073142 0.9600 0.9600 0.9600 0.9600 0.9600
2767.352593 0.9600 0.9600 0.9600 0.9600 0.9600
2773.632044 0.9600 0.9600 0.9600 0.9600 0.9600
2779.911495 0.9600 0.9600 0.9600 0.9600 0.9600
2786.190947 0.9600 0.9600 0.9600 0.9600 0.9600
2792.470398 0.9600 0.9596 0.9586 0.9580 0.9580
2798.749849 0.9577 0.9567 0.9560 0.9560 0.9557
2805.029300 0.9547 0.9537 0.9528 0.9518 0.9508
2811.308751 0.9492 0.9452 0.9418 0.9408 0.9395
2817.588203 0.9365 0.9335 0.9306 0.9270 0.9191
2823.867654 0.9112 0.9033 0.8954 0.8875 0.8799
2830.147105 0.8779 0.8758 0.8645 0.8531 0.8442
2836.426556 0.8353 0.8273 0.8193 0.8142 0.8093
2842.706007 0.8025 0.7956 0.7941 0.7931 0.7921
2848.985459 0.7911 0.7885 0.7855 0.7817 0.7778
2855.264910 0.7699 0.7610 0.7495 0.7371 0.7266
2861.544361 0.7168 0.6967 0.6727 0.6436 0.6125
2867.823812 0.6030 0.6030 0.6500 0.7205 0.7520
2874.103263 0.7614 0.7650 0.7650 0.7359 0.6861
2880.382715 0.6596 0.6517 0.6470 0.6450 0.6425
2886.662166 0.6396 0.6375 0.6365 0.6351 0.6331
2892.941617 0.6304 0.6270 0.6229 0.6180 0.6134
2899.221068 0.6095 0.6055 0.6016 0.5973 0.5924
2905.500520 0.5871 0.5812 0.5747 0.5668 0.5607
2911.779971 0.5598 0.5595 0.5615 0.5653 0.5752
2918.059422 0.5836 0.5866 0.5904 0.5983 0.6020
2924.338873 0.5823 0.5623 0.5406 0.5208 0.5188
2930.618324 0.5171 0.5191 0.5224 0.5539 0.5850
2936.897776 0.5840 0.5830 0.5790 0.5750 0.5730
2943.177227 0.5711 0.5710 0.5710 0.5719 0.5729
2949.456678 0.5739 0.5749 0.5811 0.5880 0.5983
2955.736129 0.6091 0.6187 0.6281 0.6308 0.6318
2962.015580 0.6312 0.6303 0.6259 0.6204 0.6109
2968.295032 0.6000 0.5864 0.5716 0.5435 0.5094
2974.574483 0.4570 0.3954 0.3516 0.3181 0.2888
2980.853934 0.2621 0.2358 0.2096 0.1654 0.1067
2987.133385 0.0738 0.0639 0.0580 0.0560 0.0456
2993.412836 0.0268 0.0161 0.0141 0.0126 0.0116
2999.692288 0.0110 0.0110 0.0110 0.0110 0.0110
3005.971739 0.0110 0.0113 0.0123 0.0130 0.0130
3012.251190 0.0124 0.0105 0.0090 0.0090 0.0090
3018.530641 0.0090 0.0090 0.0090 0.0090 0.0090
3024.810092 0.0090 0.0090 0.0091 0.0101 0.0111
3031.089544 0.0121 0.0130 0.0130 0.0129 0.0119
3037.368995 0.0110 0.0110 0.0110 0.0100 0.0090
3043.648446 0.0090 0.0090 0.0100 0.0110 0.0119
3049.927897 0.0129 0.0130 0.0130 0.0157 0.0186
3056.207348 0.0242 0.0301 0.0310 0.0310 0.0318
3062.486800 0.0328 0.0361 0.0401 0.0449 0.0499
3068.766251 0.0510 0.0510 0.0517 0.0527 0.0551
3075.045702 0.0581 0.0624 0.0673 0.0755 0.0854
3081.325153 0.0909 0.0938 0.0968 0.0998 0.1271
3087.604605 0.1720 0.2158 0.2587 0.2790 0.2790
3093.884056 0.2769 0.2730 0.2077 0.0814 0.0150
3100.163507 0.0150 0.0273 0.0550 0.0722 0.0752
3106.442958 0.0923 0.1313 0.1701 0.2085 0.2343
3112.722409 0.2353 0.2277 0.2011 0.1699 0.1274
3119.001861 0.0950 0.0881 0.0820 0.0780 0.0745
3125.281312 0.0726 0.0706 0.0686 0.0668 0.0658
3131.560763 0.0651 0.0661 0.0676 0.0725 0.0782
3137.840214 0.0910 0.1038 0.1151 0.1262 0.1322
3144.119665 0.1391 0.1647 0.1906 0.2315 0.2725
3150.399117 0.3241 0.3759 0.4310 0.4863 0.5420
3156.678568 0.5977 0.6463 0.6942 0.7325 0.7695
3162.958019 0.7926 0.8133 0.8406 0.8692 0.8842
3169.237470 0.8957 0.9059 0.9157 0.9218 0.9267
3175.516921 0.9295 0.9314 0.9334 0.9354 0.9367
3181.796373 0.9377 0.9380 0.9380 0.9386 0.9396
3188.075824 0.9406 0.9416 0.9420 0.9420 0.9420
3194.355275 0.9420 0.9420 0.9420 0.9420 0.9420
3200.634726 0.9420 0.9420 0.9420 0.9420 0.9420
3206.914177 0.9420 0.9420 0.9420 0.9420 0.9420
3213.193629 0.9416 0.9407 0.9400 0.9400 0.9397
3219.473080 0.9387 0.9380 0.9380 0.9380 0.9380
3225.752531 0.9377 0.9368 0.9360 0.9360 0.9360
3232.031982 0.9360 0.9360 0.9360 0.9360 0.9360
3238.311433 0.9360 0.9360 0.9360 0.9360 0.9360
3244.590885 0.9360 0.9360 0.9360 0.9360 0.9360
3250.870336 0.9360 0.9370 0.9380 0.9380 0.9380
3257.149787 0.9380 0.9380 0.9389 0.9399 0.9400
3263.429238 0.9400 0.9400 0.9400 0.9392 0.9382
3269.708690 0.9372 0.9362 0.9360 0.9360 0.9368
3275.988141 0.9378 0.9380 0.9380 0.9380 0.9380
3282.267592 0.9380 0.9380 0.9380 0.9380 0.9380
3288.547043 0.9380 0.9380 0.9380 0.9380 0.9380
3294.826494 0.9380 0.9380 0.9380 0.9380 0.9375
3301.105946 0.9365 0.9360 0.9360 0.9360 0.9360
3307.385397 0.9360 0.9360 0.9360 0.9360 0.9360
3313.664848 0.9360 0.9360 0.9360 0.9360 0.9360
3319.944299 0.9357 0.9347 0.9340 0.9340 0.9340
3326.223750 0.9340 0.9340 0.9340 0.9340 0.9340
3332.503202 0.9338 0.9328 0.9320 0.9320 0.9318
3338.782653 0.9308 0.9300 0.9300 0.9300 0.9300
3345.062104 0.9299 0.9289 0.9280 0.9280 0.9280
3351.341555 0.9280 0.9280 0.9280 0.9280 0.9280
3357.621006 0.9280 0.9270 0.9260 0.9241 0.9221
3363.900458 0.9220 0.9220 0.9211 0.9201 0.9200
3370.179909 0.9200 0.9183 0.9163 0.9160 0.9160
3376.459360 0.9152 0.9142 0.9124 0.9105 0.9100
3382.738811 0.9100 0.9100 0.9100 0.9093 0.9083
3389.018262 0.9066 0.9047 0.9033 0.9024 0.9020
3395.297714 0.9020 0.9014 0.9004 0.9000 0.9000
3401.577165 0.9000 0.9000 0.9000 0.9000 0.8995
3407.856616 0.8985 0.8980 0.8980 0.8980 0.8980
3414.136067 0.8980 0.8980 0.8984 0.8994 0.9000
3420.415518 0.9000 0.9004 0.9014 0.9020 0.9020
3426.694970 0.9020 0.9020 0.9020 0.9020 0.9023
3432.974421 0.9033 0.9040 0.9040 0.9042 0.9052
3439.253872 0.9062 0.9072 0.9080 0.9080 0.9081
3445.533323 0.9091 0.9100 0.9100 0.9100 0.9100
3451.812775 0.9100 0.9100 0.9100 0.9100 0.9100
3458.092226 0.9110 0.9120 0.9120 0.9120 0.9130
3464.371677 0.9140 0.9149 0.9159 0.9160 0.9160
3470.651128 0.9160 0.9160 0.9169 0.9179 0.9180
3476.930579 0.9180 0.9180 0.9180 0.9180 0.9180
3483.210031 0.9188 0.9198 0.9200 0.9200 0.9207
3489.489482 0.9217 0.9227 0.9237 0.9240 0.9240
3495.768933 0.9246 0.9256 0.9266 0.9276 0.9286
3502.048384 0.9296 0.9300 0.9300 0.9300 0.9300
3508.327835 0.9305 0.9315 0.9320 0.9320 0.9320
3514.607287 0.9320 0.9320 0.9320 0.9324 0.9334
3520.886738 0.9340 0.9340 0.9340 0.9340 0.9344
3527.166189 0.9354 0.9360 0.9360 0.9360 0.9360
3533.445640 0.9360 0.9360 0.9360 0.9360 0.9360
3539.725091 0.9360 0.9360 0.9360 0.9360 0.9360
3546.004543 0.9362 0.9372 0.9380 0.9380 0.9380
3552.283994 0.9380 0.9380 0.9380 0.9380 0.9380
3558.563445 0.9380 0.9380 0.9380 0.9380 0.9380
3564.842896 0.9380 0.9380 0.9390 0.9400 0.9400
3571.122347 0.9400 0.9400 0.9400 0.9400 0.9400
3577.401799 0.9400 0.9400 0.9400 0.9400 0.9400
3583.681250 0.9400 0.9408 0.9418 0.9420 0.9420
3589.960701 0.9420 0.9420 0.9420 0.9420 0.9413
3596.240152 0.9403 0.9400 0.9400 0.9400 0.9400
3602.519603 0.9400 0.9400 0.9400 0.9400 0.9394
3608.799055 0.9384 0.9380 0.9380 0.9380 0.9380
3615.078506 0.9380 0.9380 0.9380 0.9380 0.9380
3621.357957 0.9380 0.9380 0.9380 0.9380 0.9380
3627.637408 0.9384 0.9394 0.9400 0.9400 0.9400
3633.916860 0.9400 0.9400 0.9400 0.9403 0.9413
3640.196311 0.9420 0.9420 0.9420 0.9420 0.9420
3646.475762 0.9420 0.9420 0.9420 0.9420 0.9420
3652.755213 0.9420 0.9420 0.9419 0.9409 0.9400
3659.034664 0.9400 0.9400 0.9400 0.9400 0.9400
3665.314116 0.9400 0.9400 0.9400 0.9400 0.9400
3671.593567 0.9390 0.9380 0.9380 0.9380 0.9380
3677.873018 0.9380 0.9371 0.9361 0.9360 0.9360
3684.152469 0.9351 0.9342 0.9340 0.9340 0.9340
3690.431920 0.9340 0.9340 0.9340 0.9340 0.9340
3696.711372 0.9333 0.9323 0.9320 0.9320 0.9320
3702.990823 0.9320 0.9313 0.9303 0.9294 0.9284
3709.270274 0.9261 0.9232 0.9220 0.9220 0.9209
3715.549725 0.9189 0.9175 0.9165 0.9150 0.9130
3721.829176 0.9120 0.9120 0.9115 0.9106 0.9096
3728.108628 0.9086 0.9080 0.9080 0.9084 0.9094
3734.388079 0.9104 0.9114 0.9120 0.9120 0.9126
3740.667530 0.9146 0.9163 0.9173 0.9177 0.9167
3746.946981 0.9155 0.9135 0.9116 0.9096 0.9078
3753.226432 0.9068 0.9060 0.9060 0.9057 0.9037
3759.505884 0.9019 0.9009 0.9000 0.9000 0.9000
3765.785335 0.9000 0.8999 0.8990 0.8980 0.8980
3772.064786 0.8980 0.8970 0.8960 0.8950 0.8940
3778.344237 0.8940 0.8940 0.8912 0.8882 0.8862
3784.623688 0.8842 0.8813 0.8784 0.8767 0.8752
3790.903140 0.8733 0.8714
##END=
