##TITLE=METHANE, DIIODO-
##JCAMP-DX=4.24
$$ By DXEDIT 1.05 (RS McDonald)
##DATA TYPE=INFRARED SPECTRUM
##CLASS=COBLENTZ III
##ORIGIN=DOW CHEMICAL COMPANY
##OWNER=COBLENTZ SOC.
Collection (C) 2018 copyright by the U.S. Secretary of Commerce
on behalf of the United States of America. All rights reserved.
##DATE=1968/07/15
##NAMES=diiodomethane
##CAS REGISTRY NO=75-11-6
##MOLFORM=C H2 I2
##SOURCE REFERENCE=COBLENTZ NO. 05747
##$NIST SOURCE=COBLENTZ
##$NIST IMAGE=cob5747
##SPECTROMETER/DATA SYSTEM=DOW KBr FOREPRISM-GRATING
##INSTRUMENT PARAMETERS=BLAZED AT 3.5, 12.0, 20.0 MICRON AND CHANGED AT 5.0, 7.5, 14.9 MICRON
##STATE=LIQUID (NEAT)
##PATH LENGTH=CAPILLARY
##SAMPLING PROCEDURE=TRANSMISSION
$$SPECTRAL CONTAMINATION DUE TO A TRACE OF KNO3 AROUND 1384 CM^-^1
##RESOLUTION=2
##DATA PROCESSING=DIGITIZED BY COBLENTZ SOCIETY (BATCH I) FROM HARD COPY
##XUNITS=1/CM
##YUNITS=TRANSMITTANCE
##XLABEL=Wavenumbers (cm-1)
##YLABEL=% Transmission
##XFACTOR=1
##YFACTOR=1
##DELTAX=1
##FIRSTX=3798
##LASTX=387
##FIRSTY=0.7956
##MAXX=3798
##MINX=387
##MAXY=0.8843
##MINY=0.0579
##NPOINTS=3412
##XYDATA=(X++(Y..Y))
3798.000000 0.7956 0.7961 0.7968 0.7978 0.7991
3793.000000 0.8001 0.8011 0.8011 0.8014 0.8015
3788.000000 0.8018 0.8018 0.8021 0.8022 0.8025
3783.000000 0.8025 0.8028 0.8028 0.8028 0.8026
3778.000000 0.8026 0.8026 0.8026 0.8025 0.8025
3773.000000 0.8024 0.8021 0.8019 0.8018 0.8000
3768.000000 0.7982 0.7898 0.7815 0.7808 0.7801
3763.000000 0.7800 0.7798 0.7797 0.7797 0.7798
3758.000000 0.7801 0.7812 0.7825 0.7845 0.7865
3753.000000 0.7875 0.7887 0.7897 0.7907 0.7915
3748.000000 0.7925 0.7936 0.7946 0.7955 0.7965
3743.000000 0.7974 0.7983 0.7990 0.7998 0.8006
3738.000000 0.8014 0.8021 0.8028 0.8036 0.8044
3733.000000 0.8048 0.8051 0.8055 0.8058 0.8061
3728.000000 0.8065 0.8068 0.8071 0.8072 0.8075
3723.000000 0.8075 0.8075 0.8074 0.8074 0.8074
3718.000000 0.8074 0.8072 0.8072 0.8072 0.8072
3713.000000 0.8072 0.8072 0.8071 0.8071 0.8071
3708.000000 0.8071 0.8071 0.8071 0.8071 0.8071
3703.000000 0.8071 0.8071 0.8069 0.8069 0.8069
3698.000000 0.8069 0.8069 0.8069 0.8069 0.8069
3693.000000 0.8069 0.8069 0.8068 0.8068 0.8068
3688.000000 0.8068 0.8068 0.8068 0.8068 0.8068
3683.000000 0.8068 0.8068 0.8068 0.8068 0.8068
3678.000000 0.8068 0.8068 0.8069 0.8069 0.8069
3673.000000 0.8069 0.8071 0.8071 0.8071 0.8071
3668.000000 0.8072 0.8072 0.8074 0.8074 0.8074
3663.000000 0.8074 0.8075 0.8075 0.8075 0.8075
3658.000000 0.8076 0.8076 0.8076 0.8076 0.8078
3653.000000 0.8078 0.8078 0.8078 0.8080 0.8080
3648.000000 0.8080 0.8080 0.8081 0.8081 0.8082
3643.000000 0.8082 0.8083 0.8083 0.8084 0.8084
3638.000000 0.8084 0.8084 0.8085 0.8085 0.8086
3633.000000 0.8086 0.8086 0.8086 0.8087 0.8087
3628.000000 0.8087 0.8087 0.8088 0.8088 0.8089
3623.000000 0.8089 0.8089 0.8089 0.8090 0.8090
3618.000000 0.8090 0.8090 0.8091 0.8091 0.8092
3613.000000 0.8092 0.8092 0.8092 0.8093 0.8093
3608.000000 0.8093 0.8093 0.8093 0.8093 0.8093
3603.000000 0.8092 0.8092 0.8092 0.8092 0.8091
3598.000000 0.8091 0.8090 0.8090 0.8090 0.8090
3593.000000 0.8089 0.8089 0.8089 0.8089 0.8088
3588.000000 0.8088 0.8088 0.8088 0.8087 0.8087
3583.000000 0.8086 0.8086 0.8086 0.8086 0.8085
3578.000000 0.8085 0.8084 0.8084 0.8083 0.8083
3573.000000 0.8082 0.8082 0.8081 0.8081 0.8080
3568.000000 0.8080 0.8078 0.8078 0.8078 0.8078
3563.000000 0.8076 0.8076 0.8075 0.8075 0.8075
3558.000000 0.8075 0.8074 0.8074 0.8072 0.8072
3553.000000 0.8071 0.8071 0.8071 0.8071 0.8069
3548.000000 0.8069 0.8068 0.8068 0.8068 0.8068
3543.000000 0.8067 0.8067 0.8065 0.8065 0.8064
3538.000000 0.8064 0.8062 0.8061 0.8061 0.8061
3533.000000 0.8060 0.8058 0.8058 0.8058 0.8057
3528.000000 0.8056 0.8055 0.8055 0.8054 0.8053
3523.000000 0.8051 0.8051 0.8051 0.8050 0.8049
3518.000000 0.8049 0.8048 0.8047 0.8046 0.8046
3513.000000 0.8045 0.8044 0.8043 0.8043 0.8042
3508.000000 0.8041 0.8040 0.8040 0.8039 0.8038
3503.000000 0.8037 0.8037 0.8037 0.8037 0.8037
3498.000000 0.8038 0.8038 0.8038 0.8038 0.8038
3493.000000 0.8038 0.8039 0.8039 0.8039 0.8039
3488.000000 0.8039 0.8039 0.8040 0.8040 0.8040
3483.000000 0.8040 0.8040 0.8040 0.8041 0.8041
3478.000000 0.8041 0.8041 0.8041 0.8041 0.8041
3473.000000 0.8041 0.8042 0.8042 0.8042 0.8042
3468.000000 0.8042 0.8042 0.8043 0.8043 0.8043
3463.000000 0.8043 0.8043 0.8043 0.8044 0.8044
3458.000000 0.8044 0.8044 0.8044 0.8044 0.8045
3453.000000 0.8045 0.8045 0.8045 0.8045 0.8045
3448.000000 0.8046 0.8046 0.8046 0.8046 0.8046
3443.000000 0.8046 0.8047 0.8047 0.8047 0.8047
3438.000000 0.8047 0.8047 0.8048 0.8048 0.8048
3433.000000 0.8048 0.8049 0.8049 0.8049 0.8049
3428.000000 0.8049 0.8049 0.8050 0.8050 0.8050
3423.000000 0.8050 0.8050 0.8050 0.8051 0.8051
3418.000000 0.8051 0.8051 0.8051 0.8051 0.8051
3413.000000 0.8051 0.8051 0.8051 0.8053 0.8053
3408.000000 0.8053 0.8053 0.8053 0.8055 0.8057
3403.000000 0.8058 0.8060 0.8061 0.8062 0.8065
3398.000000 0.8067 0.8068 0.8069 0.8071 0.8074
3393.000000 0.8075 0.8076 0.8078 0.8080 0.8082
3388.000000 0.8084 0.8085 0.8087 0.8088 0.8090
3383.000000 0.8092 0.8094 0.8095 0.8097 0.8099
3378.000000 0.8101 0.8103 0.8105 0.8106 0.8108
3373.000000 0.8110 0.8111 0.8112 0.8115 0.8117
3368.000000 0.8118 0.8121 0.8122 0.8124 0.8125
3363.000000 0.8128 0.8130 0.8132 0.8134 0.8135
3358.000000 0.8137 0.8139 0.8141 0.8142 0.8144
3353.000000 0.8146 0.8148 0.8150 0.8151 0.8153
3348.000000 0.8155 0.8157 0.8158 0.8161 0.8162
3343.000000 0.8165 0.8167 0.8168 0.8171 0.8174
3338.000000 0.8175 0.8178 0.8181 0.8183 0.8186
3333.000000 0.8188 0.8190 0.8192 0.8195 0.8197
3328.000000 0.8199 0.8201 0.8204 0.8206 0.8209
3323.000000 0.8210 0.8212 0.8213 0.8215 0.8216
3318.000000 0.8217 0.8218 0.8218 0.8220 0.8221
3313.000000 0.8221 0.8224 0.8225 0.8225 0.8227
3308.000000 0.8228 0.8228 0.8230 0.8230 0.8230
3303.000000 0.8230 0.8231 0.8231 0.8232 0.8232
3298.000000 0.8233 0.8233 0.8234 0.8234 0.8235
3293.000000 0.8235 0.8236 0.8236 0.8237 0.8237
3288.000000 0.8238 0.8238 0.8239 0.8239 0.8240
3283.000000 0.8240 0.8241 0.8241 0.8241 0.8241
3278.000000 0.8242 0.8242 0.8243 0.8243 0.8244
3273.000000 0.8244 0.8245 0.8245 0.8246 0.8246
3268.000000 0.8247 0.8247 0.8247 0.8247 0.8248
3263.000000 0.8248 0.8249 0.8249 0.8250 0.8250
3258.000000 0.8251 0.8251 0.8251 0.8251 0.8252
3253.000000 0.8252 0.8253 0.8253 0.8254 0.8254
3248.000000 0.8255 0.8255 0.8255 0.8255 0.8256
3243.000000 0.8256 0.8257 0.8257 0.8258 0.8259
3238.000000 0.8260 0.8260 0.8261 0.8262 0.8263
3233.000000 0.8263 0.8264 0.8265 0.8266 0.8266
3228.000000 0.8267 0.8268 0.8268 0.8268 0.8270
3223.000000 0.8271 0.8271 0.8271 0.8273 0.8274
3218.000000 0.8275 0.8275 0.8275 0.8277 0.8278
3213.000000 0.8278 0.8280 0.8280 0.8281 0.8282
3208.000000 0.8283 0.8283 0.8284 0.8284 0.8284
3203.000000 0.8284 0.8284 0.8283 0.8283 0.8283
3198.000000 0.8283 0.8282 0.8282 0.8282 0.8282
3193.000000 0.8281 0.8281 0.8281 0.8281 0.8280
3188.000000 0.8280 0.8280 0.8280 0.8278 0.8278
3183.000000 0.8278 0.8278 0.8278 0.8278 0.8278
3178.000000 0.8278 0.8277 0.8277 0.8275 0.8275
3173.000000 0.8275 0.8275 0.8275 0.8275 0.8275
3168.000000 0.8275 0.8274 0.8274 0.8273 0.8273
3163.000000 0.8271 0.8271 0.8271 0.8271 0.8270
3158.000000 0.8270 0.8268 0.8268 0.8268 0.8268
3153.000000 0.8267 0.8267 0.8266 0.8266 0.8265
3148.000000 0.8265 0.8265 0.8265 0.8264 0.8264
3143.000000 0.8263 0.8263 0.8262 0.8261 0.8260
3138.000000 0.8260 0.8259 0.8259 0.8258 0.8258
3133.000000 0.8257 0.8256 0.8255 0.8255 0.8254
3128.000000 0.8254 0.8253 0.8253 0.8252 0.8258
3123.000000 0.8247 0.8244 0.8239 0.8234 0.8228
3118.000000 0.8223 0.8218 0.8213 0.8207 0.8202
3113.000000 0.8197 0.8192 0.8186 0.8181 0.8175
3108.000000 0.8169 0.8164 0.8158 0.8153 0.8147
3103.000000 0.8141 0.8136 0.8130 0.8125 0.8118
3098.000000 0.8112 0.8107 0.8101 0.8096 0.8091
3093.000000 0.8084 0.8076 0.8065 0.8055 0.8044
3088.000000 0.8034 0.8022 0.8012 0.8001 0.7992
3083.000000 0.7981 0.7969 0.7956 0.7943 0.7928
3078.000000 0.7915 0.7901 0.7888 0.7869 0.7851
3073.000000 0.7821 0.7793 0.7760 0.7726 0.7690
3068.000000 0.7653 0.7615 0.7578 0.7353 0.7128
3063.000000 0.6767 0.6407 0.6033 0.5660 0.5286
3058.000000 0.4912 0.4538 0.4165 0.4014 0.3864
3053.000000 0.3862 0.3862 0.3862 0.3862 0.3862
3048.000000 0.3874 0.4278 0.4694 0.5135 0.5577
3043.000000 0.6018 0.6460 0.6878 0.7298 0.7436
3038.000000 0.7574 0.7624 0.7674 0.7718 0.7764
3033.000000 0.7785 0.7806 0.7826 0.7849 0.7869
3028.000000 0.7891 0.7911 0.7931 0.7943 0.7955
3023.000000 0.7967 0.7980 0.7992 0.8005 0.8017
3018.000000 0.8028 0.8037 0.8045 0.8049 0.8054
3013.000000 0.8058 0.8064 0.8068 0.8072 0.8078
3008.000000 0.8083 0.8086 0.8090 0.8092 0.8094
3003.000000 0.8096 0.8098 0.8100 0.8101 0.8104
2998.000000 0.8106 0.8108 0.8111 0.8111 0.8111
2993.000000 0.8111 0.8111 0.8110 0.8108 0.8108
2988.000000 0.8115 0.8106 0.8105 0.8104 0.8103
2983.000000 0.8100 0.8098 0.8095 0.8092 0.8089
2978.000000 0.8086 0.8083 0.8080 0.7768 0.7458
2973.000000 0.7397 0.7340 0.7340 0.7339 0.7353
2968.000000 0.7368 0.7428 0.7488 0.7548 0.7608
2963.000000 0.7668 0.7728 0.7788 0.7848 0.7874
2958.000000 0.7900 0.7910 0.7921 0.7931 0.7941
2953.000000 0.7950 0.7960 0.7968 0.7978 0.7987
2948.000000 0.7996 0.8005 0.8014 0.8022 0.8032
2943.000000 0.8038 0.8044 0.8046 0.8049 0.8051
2938.000000 0.8055 0.8057 0.8060 0.8061 0.8065
2933.000000 0.8068 0.8071 0.8072 0.8075 0.8078
2928.000000 0.8081 0.8084 0.8087 0.8089 0.8092
2923.000000 0.8094 0.8097 0.8099 0.8101 0.8104
2918.000000 0.8107 0.8108 0.8111 0.8114 0.8117
2913.000000 0.8118 0.8121 0.8124 0.8126 0.8128
2908.000000 0.8132 0.8134 0.8137 0.8139 0.8142
2903.000000 0.8145 0.8148 0.8151 0.8154 0.8157
2898.000000 0.8160 0.8162 0.8167 0.8169 0.8172
2893.000000 0.8175 0.8178 0.8182 0.8185 0.8188
2888.000000 0.8192 0.8195 0.8194 0.8201 0.8204
2883.000000 0.8207 0.8211 0.8214 0.8217 0.8218
2878.000000 0.8221 0.8224 0.8227 0.8230 0.8233
2873.000000 0.8235 0.8238 0.8240 0.8243 0.8246
2868.000000 0.8249 0.8251 0.8254 0.8256 0.8259
2863.000000 0.8262 0.8265 0.8267 0.8270 0.8271
2858.000000 0.8275 0.8275 0.8278 0.8278 0.8278
2853.000000 0.8278 0.8277 0.8275 0.8274 0.8273
2848.000000 0.8271 0.8271 0.8270 0.8268 0.8268
2843.000000 0.8266 0.8265 0.8265 0.8265 0.8266
2838.000000 0.8267 0.8268 0.8268 0.8270 0.8271
2833.000000 0.8273 0.8275 0.8278 0.8280 0.8282
2828.000000 0.8284 0.8286 0.8288 0.8290 0.8292
2823.000000 0.8294 0.8296 0.8298 0.8300 0.8302
2818.000000 0.8304 0.8305 0.8307 0.8309 0.8311
2813.000000 0.8312 0.8314 0.8316 0.8318 0.8321
2808.000000 0.8324 0.8327 0.8330 0.8333 0.8336
2803.000000 0.8338 0.8341 0.8344 0.8347 0.8349
2798.000000 0.8352 0.8352 0.8353 0.8353 0.8354
2793.000000 0.8355 0.8356 0.8357 0.8359 0.8360
2788.000000 0.8362 0.8364 0.8366 0.8367 0.8368
2783.000000 0.8370 0.8371 0.8373 0.8375 0.8377
2778.000000 0.8378 0.8380 0.8382 0.8383 0.8384
2773.000000 0.8384 0.8385 0.8385 0.8386 0.8387
2768.000000 0.8388 0.8388 0.8389 0.8389 0.8390
2763.000000 0.8390 0.8391 0.8392 0.8393 0.8393
2758.000000 0.8394 0.8394 0.8395 0.8395 0.8396
2753.000000 0.8397 0.8398 0.8398 0.8399 0.8399
2748.000000 0.8400 0.8400 0.8401 0.8401 0.8402
2743.000000 0.8403 0.8404 0.8404 0.8405 0.8405
2738.000000 0.8406 0.8406 0.8407 0.8407 0.8408
2733.000000 0.8408 0.8408 0.8408 0.8409 0.8409
2728.000000 0.8410 0.8410 0.8410 0.8410 0.8411
2723.000000 0.8411 0.8412 0.8412 0.8412 0.8412
2718.000000 0.8413 0.8413 0.8414 0.8414 0.8414
2713.000000 0.8414 0.8415 0.8415 0.8416 0.8416
2708.000000 0.8416 0.8416 0.8416 0.8416 0.8416
2703.000000 0.8416 0.8416 0.8416 0.8417 0.8417
2698.000000 0.8417 0.8417 0.8417 0.8417 0.8417
2693.000000 0.8417 0.8417 0.8417 0.8418 0.8418
2688.000000 0.8418 0.8418 0.8418 0.8418 0.8418
2683.000000 0.8418 0.8418 0.8418 0.8418 0.8418
2678.000000 0.8418 0.8418 0.8418 0.8418 0.8418
2673.000000 0.8418 0.8418 0.8418 0.8418 0.8418
2668.000000 0.8420 0.8420 0.8420 0.8420 0.8420
2663.000000 0.8420 0.8420 0.8420 0.8420 0.8420
2658.000000 0.8421 0.8421 0.8421 0.8421 0.8421
2653.000000 0.8421 0.8421 0.8421 0.8421 0.8421
2648.000000 0.8421 0.8421 0.8421 0.8421 0.8421
2643.000000 0.8421 0.8421 0.8421 0.8421 0.8421
2638.000000 0.8423 0.8423 0.8423 0.8423 0.8424
2633.000000 0.8424 0.8425 0.8425 0.8425 0.8425
2628.000000 0.8425 0.8425 0.8427 0.8427 0.8427
2623.000000 0.8427 0.8428 0.8428 0.8428 0.8428
2618.000000 0.8428 0.8428 0.8430 0.8430 0.8431
2613.000000 0.8431 0.8432 0.8432 0.8432 0.8432
2608.000000 0.8433 0.8433 0.8434 0.8434 0.8434
2603.000000 0.8434 0.8435 0.8435 0.8436 0.8436
2598.000000 0.8436 0.8436 0.8437 0.8437 0.8438
2593.000000 0.8438 0.8439 0.8439 0.8439 0.8439
2588.000000 0.8440 0.8440 0.8441 0.8441 0.8441
2583.000000 0.8441 0.8442 0.8442 0.8443 0.8443
2578.000000 0.8444 0.8444 0.8444 0.8444 0.8444
2573.000000 0.8443 0.8443 0.8443 0.8443 0.8442
2568.000000 0.8442 0.8442 0.8442 0.8441 0.8441
2563.000000 0.8440 0.8440 0.8440 0.8440 0.8439
2558.000000 0.8439 0.8439 0.8439 0.8438 0.8438
2553.000000 0.8438 0.8438 0.8437 0.8437 0.8436
2548.000000 0.8436 0.8436 0.8436 0.8435 0.8435
2543.000000 0.8435 0.8435 0.8434 0.8434 0.8434
2538.000000 0.8434 0.8433 0.8433 0.8432 0.8432
2533.000000 0.8432 0.8432 0.8431 0.8431 0.8431
2528.000000 0.8431 0.8431 0.8431 0.8431 0.8431
2523.000000 0.8431 0.8431 0.8431 0.8431 0.8431
2518.000000 0.8432 0.8432 0.8432 0.8432 0.8432
2513.000000 0.8432 0.8432 0.8432 0.8432 0.8432
2508.000000 0.8432 0.8432 0.8433 0.8433 0.8433
2503.000000 0.8433 0.8433 0.8433 0.8433 0.8433
2498.000000 0.8434 0.8434 0.8434 0.8434 0.8435
2493.000000 0.8435 0.8435 0.8435 0.8436 0.8436
2488.000000 0.8436 0.8436 0.8437 0.8437 0.8437
2483.000000 0.8437 0.8438 0.8438 0.8438 0.8438
2478.000000 0.8438 0.8437 0.8437 0.8436 0.8436
2473.000000 0.8434 0.8433 0.8427 0.8421 0.8399
2468.000000 0.8378 0.8363 0.8349 0.8336 0.8324
2463.000000 0.8312 0.8300 0.8288 0.8275 0.8268
2458.000000 0.8263 0.8262 0.8261 0.8261 0.8261
2453.000000 0.8262 0.8263 0.8266 0.8268 0.8275
2448.000000 0.8283 0.8290 0.8298 0.8305 0.8312
2443.000000 0.8318 0.8325 0.8333 0.8340 0.8345
2438.000000 0.8350 0.8354 0.8358 0.8361 0.8365
2433.000000 0.8368 0.8373 0.8375 0.8380 0.8384
2428.000000 0.8388 0.8391 0.8395 0.8399 0.8403
2423.000000 0.8406 0.8409 0.8412 0.8415 0.8417
2418.000000 0.8420 0.8423 0.8425 0.8428 0.8432
2413.000000 0.8434 0.8437 0.8439 0.8441 0.8442
2408.000000 0.8444 0.8446 0.8448 0.8450 0.8452
2403.000000 0.8453 0.8455 0.8457 0.8459 0.8461
2398.000000 0.8463 0.8465 0.8467 0.8468 0.8470
2393.000000 0.8471 0.8473 0.8474 0.8475 0.8477
2388.000000 0.8478 0.8480 0.8481 0.8482 0.8484
2383.000000 0.8485 0.8487 0.8488 0.8489 0.8490
2378.000000 0.8492 0.8493 0.8495 0.8496 0.8498
2373.000000 0.8500 0.8503 0.8505 0.8508 0.8511
2368.000000 0.8514 0.8517 0.8520 0.8523 0.8525
2363.000000 0.8528 0.8531 0.8534 0.8537 0.8540
2358.000000 0.8543 0.8546 0.8549 0.8551 0.8554
2353.000000 0.8557 0.8560 0.8562 0.8565 0.8567
2348.000000 0.8568 0.8571 0.8574 0.8575 0.8578
2343.000000 0.8581 0.8584 0.8586 0.8589 0.8591
2338.000000 0.8593 0.8595 0.8598 0.8599 0.8600
2333.000000 0.8601 0.8602 0.8603 0.8604 0.8605
2328.000000 0.8607 0.8608 0.8609 0.8609 0.8610
2323.000000 0.8609 0.8607 0.8604 0.8602 0.8599
2318.000000 0.8597 0.8594 0.8592 0.8589 0.8587
2313.000000 0.8584 0.8582 0.8578 0.8577 0.8574
2308.000000 0.8571 0.8568 0.8567 0.8565 0.8564
2303.000000 0.8562 0.8560 0.8558 0.8556 0.8554
2298.000000 0.8552 0.8550 0.8548 0.8546 0.8545
2293.000000 0.8543 0.8541 0.8540 0.8540 0.8540
2288.000000 0.8540 0.8539 0.8539 0.8539 0.8539
2283.000000 0.8539 0.8539 0.8538 0.8538 0.8538
2278.000000 0.8538 0.8537 0.8537 0.8537 0.8537
2273.000000 0.8537 0.8537 0.8536 0.8536 0.8536
2268.000000 0.8536 0.8535 0.8535 0.8535 0.8536
2263.000000 0.8536 0.8536 0.8536 0.8537 0.8537
2258.000000 0.8537 0.8537 0.8537 0.8537 0.8538
2253.000000 0.8538 0.8538 0.8537 0.8536 0.8535
2248.000000 0.8534 0.8533 0.8532 0.8530 0.8528
2243.000000 0.8528 0.8527 0.8525 0.8525 0.8523
2238.000000 0.8521 0.8521 0.8520 0.8513 0.8506
2233.000000 0.8497 0.8488 0.8480 0.8473 0.8465
2228.000000 0.8458 0.8450 0.8443 0.8436 0.8428
2223.000000 0.8421 0.8415 0.8409 0.8404 0.8398
2218.000000 0.8393 0.8387 0.8382 0.8377 0.8371
2213.000000 0.8371 0.8370 0.8370 0.8371 0.8371
2208.000000 0.8371 0.8371 0.8371 0.8373 0.8374
2203.000000 0.8378 0.8385 0.8390 0.8396 0.8401
2198.000000 0.8407 0.8412 0.8418 0.8421 0.8427
2193.000000 0.8430 0.8434 0.8437 0.8440 0.8443
2188.000000 0.8447 0.8450 0.8454 0.8457 0.8461
2183.000000 0.8464 0.8468 0.8471 0.8474 0.8477
2178.000000 0.8481 0.8483 0.8486 0.8488 0.8491
2173.000000 0.8493 0.8496 0.8498 0.8501 0.8502
2168.000000 0.8503 0.8503 0.8503 0.8502 0.8501
2163.000000 0.8500 0.8500 0.8499 0.8498 0.8497
2158.000000 0.8497 0.8496 0.8496 0.8495 0.8494
2153.000000 0.8492 0.8491 0.8485 0.8478 0.8471
2148.000000 0.8466 0.8460 0.8454 0.8447 0.8441
2143.000000 0.8435 0.8428 0.8423 0.8418 0.8412
2138.000000 0.8406 0.8400 0.8394 0.8388 0.8383
2133.000000 0.8385 0.8388 0.8390 0.8393 0.8395
2128.000000 0.8398 0.8400 0.8403 0.8405 0.8408
2123.000000 0.8412 0.8416 0.8424 0.8432 0.8440
2118.000000 0.8449 0.8455 0.8462 0.8468 0.8474
2113.000000 0.8480 0.8486 0.8492 0.8498 0.8504
2108.000000 0.8510 0.8516 0.8523 0.8528 0.8535
2103.000000 0.8540 0.8545 0.8545 0.8546 0.8546
2098.000000 0.8547 0.8548 0.8551 0.8550 0.8550
2093.000000 0.8551 0.8552 0.8552 0.8553 0.8553
2088.000000 0.8554 0.8551 0.8549 0.8546 0.8544
2083.000000 0.8541 0.8539 0.8537 0.8535 0.8528
2078.000000 0.8521 0.8511 0.8500 0.8488 0.8475
2073.000000 0.8454 0.8433 0.8411 0.8390 0.8357
2068.000000 0.8324 0.8288 0.8253 0.8209 0.8165
2063.000000 0.8158 0.8153 0.8150 0.8147 0.8144
2058.000000 0.8121 0.8137 0.8134 0.8156 0.8178
2053.000000 0.8237 0.8295 0.8318 0.8343 0.8367
2048.000000 0.8391 0.8411 0.8431 0.8440 0.8449
2043.000000 0.8458 0.8467 0.8475 0.8485 0.8494
2038.000000 0.8503 0.8512 0.8521 0.8530 0.8540
2033.000000 0.8544 0.8548 0.8552 0.8556 0.8559
2028.000000 0.8563 0.8567 0.8571 0.8575 0.8578
2023.000000 0.8583 0.8587 0.8591 0.8595 0.8599
2018.000000 0.8603 0.8606 0.8610 0.8614 0.8618
2013.000000 0.8621 0.8624 0.8625 0.8628 0.8630
2008.000000 0.8632 0.8634 0.8637 0.8639 0.8641
2003.000000 0.8643 0.8668 0.8649 0.8653 0.8657
1998.000000 0.8661 0.8665 0.8668 0.8673 0.8677
1993.000000 0.8681 0.8683 0.8685 0.8686 0.8688
1988.000000 0.8689 0.8690 0.8692 0.8693 0.8695
1983.000000 0.8696 0.8697 0.8699 0.8701 0.8703
1978.000000 0.8705 0.8707 0.8709 0.8711 0.8713
1973.000000 0.8715 0.8717 0.8718 0.8721 0.8724
1968.000000 0.8725 0.8728 0.8730 0.8732 0.8734
1963.000000 0.8736 0.8738 0.8740 0.8742 0.8744
1958.000000 0.8747 0.8749 0.8751 0.8753 0.8755
1953.000000 0.8757 0.8759 0.8761 0.8756 0.8752
1948.000000 0.8747 0.8743 0.8738 0.8734 0.8728
1943.000000 0.8725 0.8721 0.8718 0.8715 0.8712
1938.000000 0.8709 0.8706 0.8702 0.8699 0.8696
1933.000000 0.8693 0.8690 0.8687 0.8683 0.8682
1928.000000 0.8680 0.8678 0.8678 0.8677 0.8675
1923.000000 0.8674 0.8673 0.8671 0.8671 0.8670
1918.000000 0.8668 0.8667 0.8666 0.8665 0.8664
1913.000000 0.8662 0.8661 0.8660 0.8659 0.8659
1908.000000 0.8659 0.8659 0.8660 0.8660 0.8660
1903.000000 0.8660 0.8661 0.8661 0.8661 0.8661
1898.000000 0.8662 0.8662 0.8662 0.8663 0.8663
1893.000000 0.8663 0.8663 0.8664 0.8664 0.8664
1888.000000 0.8664 0.8665 0.8665 0.8665 0.8666
1883.000000 0.8666 0.8666 0.8667 0.8668 0.8668
1878.000000 0.8670 0.8671 0.8671 0.8673 0.8673
1873.000000 0.8674 0.8675 0.8675 0.8677 0.8678
1868.000000 0.8678 0.8680 0.8681 0.8682 0.8683
1863.000000 0.8684 0.8685 0.8686 0.8687 0.8689
1858.000000 0.8691 0.8692 0.8694 0.8696 0.8697
1853.000000 0.8699 0.8701 0.8701 0.8701 0.8700
1848.000000 0.8699 0.8697 0.8696 0.8695 0.8693
1843.000000 0.8692 0.8690 0.8685 0.8680 0.8674
1838.000000 0.8668 0.8664 0.8658 0.8654 0.8649
1833.000000 0.8645 0.8640 0.8635 0.8631 0.8625
1828.000000 0.8625 0.8625 0.8628 0.8631 0.8634
1823.000000 0.8637 0.8640 0.8643 0.8646 0.8648
1818.000000 0.8651 0.8653 0.8655 0.8658 0.8660
1813.000000 0.8662 0.8664 0.8667 0.8668 0.8671
1808.000000 0.8673 0.8675 0.8677 0.8678 0.8681
1803.000000 0.8683 0.8685 0.8687 0.8689 0.8691
1798.000000 0.8693 0.8695 0.8697 0.8699 0.8701
1793.000000 0.8703 0.8705 0.8707 0.8709 0.8711
1788.000000 0.8713 0.8715 0.8717 0.8718 0.8720
1783.000000 0.8721 0.8724 0.8725 0.8728 0.8730
1778.000000 0.8732 0.8734 0.8735 0.8737 0.8739
1773.000000 0.8741 0.8742 0.8743 0.8743 0.8744
1768.000000 0.8745 0.8746 0.8747 0.8748 0.8749
1763.000000 0.8749 0.8750 0.8751 0.8752 0.8753
1758.000000 0.8754 0.8754 0.8754 0.8755 0.8755
1753.000000 0.8756 0.8756 0.8757 0.8757 0.8758
1748.000000 0.8758 0.8759 0.8759 0.8761 0.8765
1743.000000 0.8768 0.8773 0.8777 0.8781 0.8785
1738.000000 0.8789 0.8793 0.8797 0.8801 0.8805
1733.000000 0.8808 0.8812 0.8816 0.8818 0.8823
1728.000000 0.8827 0.8830 0.8834 0.8838 0.8842
1723.000000 0.8843 0.8843 0.8842 0.8841 0.8840
1718.000000 0.8839 0.8838 0.8837 0.8836 0.8835
1713.000000 0.8835 0.8834 0.8833 0.8832 0.8831
1708.000000 0.8830 0.8828 0.8828 0.8827 0.8825
1703.000000 0.8823 0.8820 0.8818 0.8815 0.8812
1698.000000 0.8810 0.8807 0.8805 0.8802 0.8799
1693.000000 0.8797 0.8794 0.8792 0.8789 0.8786
1688.000000 0.8784 0.8781 0.8778 0.8775 0.8773
1683.000000 0.8771 0.8770 0.8770 0.8770 0.8770
1678.000000 0.8770 0.8770 0.8770 0.8768 0.8768
1673.000000 0.8768 0.8768 0.8768 0.8768 0.8768
1668.000000 0.8768 0.8768 0.8768 0.8768 0.8766
1663.000000 0.8765 0.8764 0.8763 0.8762 0.8760
1658.000000 0.8759 0.8758 0.8757 0.8756 0.8754
1653.000000 0.8753 0.8752 0.8751 0.8750 0.8750
1648.000000 0.8749 0.8749 0.8750 0.8751 0.8751
1643.000000 0.8752 0.8753 0.8753 0.8754 0.8754
1638.000000 0.8753 0.8752 0.8751 0.8750 0.8748
1633.000000 0.8747 0.8746 0.8745 0.8743 0.8742
1628.000000 0.8741 0.8740 0.8738 0.8737 0.8736
1623.000000 0.8735 0.8733 0.8732 0.8731 0.8730
1618.000000 0.8728 0.8727 0.8725 0.8725 0.8724
1613.000000 0.8721 0.8721 0.8720 0.8718 0.8717
1608.000000 0.8716 0.8715 0.8714 0.8712 0.8711
1603.000000 0.8710 0.8710 0.8710 0.8710 0.8710
1598.000000 0.8710 0.8710 0.8710 0.8710 0.8709
1593.000000 0.8709 0.8709 0.8709 0.8709 0.8709
1588.000000 0.8709 0.8709 0.8709 0.8708 0.8708
1583.000000 0.8708 0.8708 0.8708 0.8708 0.8708
1578.000000 0.8708 0.8708 0.8707 0.8707 0.8707
1573.000000 0.8707 0.8707 0.8707 0.8707 0.8707
1568.000000 0.8707 0.8706 0.8706 0.8705 0.8703
1563.000000 0.8702 0.8700 0.8698 0.8697 0.8695
1558.000000 0.8693 0.8692 0.8690 0.8688 0.8687
1553.000000 0.8685 0.8683 0.8681 0.8680 0.8678
1548.000000 0.8675 0.8675 0.8673 0.8671 0.8670
1543.000000 0.8668 0.8666 0.8665 0.8663 0.8661
1538.000000 0.8660 0.8658 0.8656 0.8654 0.8652
1533.000000 0.8652 0.8653 0.8655 0.8657 0.8658
1528.000000 0.8660 0.8662 0.8663 0.8665 0.8666
1523.000000 0.8668 0.8670 0.8670 0.8671 0.8670
1518.000000 0.8668 0.8668 0.8667 0.8666 0.8665
1513.000000 0.8664 0.8663 0.8662 0.8661 0.8659
1508.000000 0.8658 0.8657 0.8656 0.8655 0.8654
1503.000000 0.8653 0.8652 0.8651 0.8650 0.8648
1498.000000 0.8647 0.8646 0.8645 0.8644 0.8643
1493.000000 0.8642 0.8641 0.8641 0.8641 0.8643
1488.000000 0.8644 0.8646 0.8647 0.8649 0.8650
1483.000000 0.8651 0.8653 0.8654 0.8656 0.8657
1478.000000 0.8659 0.8660 0.8661 0.8662 0.8663
1473.000000 0.8664 0.8665 0.8666 0.8667 0.8668
1468.000000 0.8668 0.8670 0.8671 0.8671 0.8673
1463.000000 0.8674 0.8675 0.8675 0.8675 0.8675
1458.000000 0.8675 0.8675 0.8675 0.8674 0.8674
1453.000000 0.8674 0.8673 0.8673 0.8673 0.8671
1448.000000 0.8671 0.8671 0.8671 0.8671 0.8671
1443.000000 0.8671 0.8670 0.8670 0.8670 0.8670
1438.000000 0.8670 0.8670 0.8670 0.8670 0.8670
1433.000000 0.8668 0.8668 0.8668 0.8668 0.8668
1428.000000 0.8668 0.8668 0.8668 0.8668 0.8668
1423.000000 0.8668 0.8667 0.8667 0.8666 0.8666
1418.000000 0.8665 0.8665 0.8665 0.8664 0.8664
1413.000000 0.8662 0.8660 0.8658 0.8656 0.8655
1408.000000 0.8653 0.8651 0.8649 0.8647 0.8645
1403.000000 0.8643 0.8641 0.8639 0.8637 0.8635
1398.000000 0.8631 0.8628 0.8625 0.8621 0.8618
1393.000000 0.8614 0.8643 0.8590 0.8563 0.8524
1388.000000 0.8468 0.8441 0.8427 0.8413 0.8400
1383.000000 0.8405 0.8410 0.8416 0.8421 0.8425
1378.000000 0.8431 0.8435 0.8440 0.8445 0.8445
1373.000000 0.8445 0.8442 0.8439 0.8424 0.8403
1368.000000 0.8383 0.8363 0.8340 0.8316 0.8292
1363.000000 0.8267 0.8243 0.8218 0.8188 0.8157
1358.000000 0.8125 0.8096 0.8068 0.8042 0.8032
1353.000000 0.8022 0.8014 0.8005 0.7961 0.7993
1348.000000 0.8011 0.8030 0.8049 0.8082 0.8128
1343.000000 0.8174 0.8223 0.8274 0.8323 0.8371
1338.000000 0.8413 0.8442 0.8503 0.8448 0.8440
1333.000000 0.8432 0.8424 0.8416 0.8408 0.8400
1328.000000 0.8391 0.8383 0.8375 0.8373 0.8378
1323.000000 0.8384 0.8389 0.8394 0.8400 0.8405
1318.000000 0.8410 0.8415 0.8421 0.8423 0.8424
1313.000000 0.8425 0.8428 0.8430 0.8432 0.8434
1308.000000 0.8436 0.8437 0.8440 0.8443 0.8446
1303.000000 0.8449 0.8452 0.8455 0.8458 0.8461
1298.000000 0.8464 0.8467 0.8470 0.8473 0.8475
1293.000000 0.8478 0.8482 0.8484 0.8485 0.8486
1288.000000 0.8487 0.8488 0.8488 0.8489 0.8490
1283.000000 0.8491 0.8492 0.8493 0.8494 0.8495
1278.000000 0.8496 0.8497 0.8498 0.8499 0.8499
1273.000000 0.8499 0.8499 0.8499 0.8499 0.8499
1268.000000 0.8498 0.8498 0.8498 0.8495 0.8491
1263.000000 0.8487 0.8484 0.8480 0.8477 0.8473
1258.000000 0.8471 0.8471 0.8475 0.8478 0.8483
1253.000000 0.8487 0.8491 0.8495 0.8499 0.8503
1248.000000 0.8506 0.8508 0.8511 0.8513 0.8516
1243.000000 0.8518 0.8521 0.8523 0.8525 0.8528
1238.000000 0.8528 0.8527 0.8527 0.8527 0.8527
1233.000000 0.8521 0.8514 0.8505 0.8492 0.8452
1228.000000 0.8412 0.8384 0.8362 0.8350 0.8346
1223.000000 0.8342 0.8353 0.8366 0.8378 0.8391
1218.000000 0.8405 0.8420 0.8434 0.8449 0.8464
1213.000000 0.8478 0.8493 0.8501 0.8510 0.8518
1208.000000 0.8527 0.8536 0.8545 0.8553 0.8560
1203.000000 0.8562 0.8564 0.8566 0.8568 0.8570
1198.000000 0.8571 0.8574 0.8575 0.8575 0.8575
1193.000000 0.8574 0.8571 0.8570 0.8568 0.8567
1188.000000 0.8566 0.8564 0.8563 0.8561 0.8560
1183.000000 0.8558 0.8557 0.8555 0.8554 0.8553
1178.000000 0.8552 0.8551 0.8549 0.8548 0.8547
1173.000000 0.8546 0.8544 0.8543 0.8542 0.8541
1168.000000 0.8539 0.8538 0.8536 0.8535 0.8533
1163.000000 0.8532 0.8530 0.8525 0.8518 0.8511
1158.000000 0.8505 0.8540 0.8492 0.8485 0.8478
1153.000000 0.8471 0.8466 0.8457 0.8447 0.8437
1148.000000 0.8427 0.8417 0.8407 0.8394 0.8378
1143.000000 0.8361 0.8345 0.8328 0.8297 0.8260
1138.000000 0.8223 0.8186 0.8149 0.8101 0.8049
1133.000000 0.7997 0.7945 0.7864 0.7778 0.7691
1128.000000 0.7454 0.7111 0.6967 0.6857 0.6751
1123.000000 0.6655 0.6558 0.6439 0.6288 0.5831
1118.000000 0.5225 0.4618 0.4010 0.3404 0.2798
1113.000000 0.2191 0.1584 0.0976 0.0652 0.0616
1108.000000 0.0593 0.0588 0.0579 0.0583 0.0600
1103.000000 0.0633 0.0839 0.1259 0.1678 0.2098
1098.000000 0.2517 0.2937 0.3356 0.3776 0.4195
1093.000000 0.4615 0.5034 0.5454 0.5736 0.5945
1088.000000 0.6224 0.6421 0.6601 0.6951 0.7111
1083.000000 0.7222 0.7304 0.7385 0.7465 0.7518
1078.000000 0.7571 0.7625 0.7671 0.7701 0.7728
1073.000000 0.7758 0.7786 0.7814 0.7838 0.7860
1068.000000 0.7882 0.7903 0.7925 0.7946 0.7961
1063.000000 0.7975 0.7990 0.8004 0.8018 0.8032
1058.000000 0.8046 0.8060 0.8072 0.8084 0.8095
1053.000000 0.8106 0.8115 0.8161 0.8138 0.8145
1048.000000 0.8151 0.8156 0.8161 0.8164 0.8168
1043.000000 0.8171 0.8175 0.8180 0.8183 0.8186
1038.000000 0.8186 0.8186 0.8182 0.8175 0.8161
1033.000000 0.8145 0.8121 0.8100 0.8126 0.8092
1028.000000 0.8099 0.8107 0.8114 0.8121 0.8135
1023.000000 0.8148 0.8160 0.8172 0.8186 0.8199
1018.000000 0.8211 0.8224 0.8238 0.8252 0.8266
1013.000000 0.8280 0.8294 0.8308 0.8323 0.8337
1008.000000 0.8350 0.8358 0.8365 0.8373 0.8380
1003.000000 0.8388 0.8395 0.8403 0.8412 0.8421
998.000000 0.8431 0.8441 0.8451 0.8460 0.8470
993.000000 0.8453 0.8475 0.8478 0.8481 0.8484
988.000000 0.8486 0.8489 0.8492 0.8494 0.8494
983.000000 0.8493 0.8491 0.8490 0.8488 0.8487
978.000000 0.8485 0.8484 0.8483 0.8483 0.8483
973.000000 0.8483 0.8483 0.8483 0.8483 0.8482
968.000000 0.8482 0.8482 0.8482 0.8482 0.8482
963.000000 0.8482 0.8482 0.8483 0.8484 0.8485
958.000000 0.8487 0.8488 0.8489 0.8491 0.8492
953.000000 0.8493 0.8494 0.8496 0.8497 0.8498
948.000000 0.8498 0.8498 0.8498 0.8498 0.8498
943.000000 0.8498 0.8498 0.8497 0.8497 0.8497
938.000000 0.8497 0.8497 0.8497 0.8497 0.8496
933.000000 0.8496 0.8495 0.8494 0.8493 0.8493
928.000000 0.8494 0.8498 0.8502 0.8506 0.8511
923.000000 0.8515 0.8518 0.8523 0.8527 0.8531
918.000000 0.8535 0.8539 0.8543 0.8547 0.8551
913.000000 0.8553 0.8554 0.8555 0.8556 0.8556
908.000000 0.8557 0.8558 0.8559 0.8560 0.8561
903.000000 0.8562 0.8562 0.8563 0.8564 0.8565
898.000000 0.8566 0.8567 0.8568 0.8568 0.8568
893.000000 0.8570 0.8571 0.8571 0.8573 0.8574
888.000000 0.8575 0.8577 0.8578 0.8578 0.8580
883.000000 0.8581 0.8582 0.8584 0.8585 0.8586
878.000000 0.8587 0.8588 0.8589 0.8590 0.8592
873.000000 0.8593 0.8594 0.8595 0.8596 0.8597
868.000000 0.8598 0.8600 0.8601 0.8601 0.8601
863.000000 0.8601 0.8601 0.8601 0.8602 0.8602
858.000000 0.8602 0.8602 0.8602 0.8602 0.8602
853.000000 0.8602 0.8602 0.8602 0.8602 0.8602
848.000000 0.8602 0.8602 0.8602 0.8602 0.8603
843.000000 0.8603 0.8604 0.8604 0.8605 0.8605
838.000000 0.8606 0.8606 0.8607 0.8607 0.8608
833.000000 0.8608 0.8609 0.8609 0.8610 0.8610
828.000000 0.8611 0.8611 0.8612 0.8612 0.8613
823.000000 0.8613 0.8614 0.8614 0.8612 0.8611
818.000000 0.8609 0.8608 0.8606 0.8605 0.8603
813.000000 0.8601 0.8600 0.8598 0.8597 0.8595
808.000000 0.8593 0.8592 0.8590 0.8589 0.8587
803.000000 0.8585 0.8584 0.8583 0.8581 0.8580
798.000000 0.8578 0.8578 0.8577 0.8575 0.8575
793.000000 0.8574 0.8573 0.8571 0.8571 0.8570
788.000000 0.8568 0.8568 0.8567 0.8566 0.8565
783.000000 0.8564 0.8562 0.8561 0.8560 0.8559
778.000000 0.8558 0.8557 0.8556 0.8555 0.8554
773.000000 0.8553 0.8552 0.8550 0.8549 0.8548
768.000000 0.8547 0.8545 0.8541 0.8538 0.8534
763.000000 0.8531 0.8527 0.8524 0.8520 0.8517
758.000000 0.8514 0.8510 0.8507 0.8504 0.8501
753.000000 0.8497 0.8494 0.8491 0.8488 0.8484
748.000000 0.8481 0.8475 0.8490 0.8456 0.8447
743.000000 0.8438 0.8428 0.8418 0.8404 0.8378
738.000000 0.8354 0.8330 0.8305 0.8275 0.8227
733.000000 0.8178 0.8082 0.7918 0.7801 0.7681
728.000000 0.7557 0.7432 0.6958 0.6421 0.5883
723.000000 0.5345 0.4807 0.4092 0.4100 0.4097
718.000000 0.4349 0.4767 0.5185 0.5603 0.6021
713.000000 0.6439 0.6648 0.6758 0.6868 0.7265
708.000000 0.7404 0.7534 0.7621 0.7708 0.7794
703.000000 0.7849 0.7898 0.7947 0.7995 0.8038
698.000000 0.8065 0.8092 0.8118 0.8145 0.8171
693.000000 0.8198 0.8213 0.8227 0.8240 0.8254
688.000000 0.8265 0.8275 0.8285 0.8296 0.8305
683.000000 0.8314 0.8323 0.8331 0.8340 0.8348
678.000000 0.8357 0.8366 0.8375 0.8384 0.8393
673.000000 0.8403 0.8412 0.8418 0.8421 0.8424
668.000000 0.8427 0.8434 0.8434 0.8437 0.8438
663.000000 0.8439 0.8439 0.8440 0.8441 0.8442
658.000000 0.8442 0.8443 0.8443 0.8443 0.8443
653.000000 0.8443 0.8443 0.8443 0.8442 0.8442
648.000000 0.8442 0.8442 0.8442 0.8442 0.8442
643.000000 0.8442 0.8442 0.8442 0.8442 0.8443
638.000000 0.8443 0.8443 0.8443 0.8444 0.8444
633.000000 0.8444 0.8445 0.8445 0.8446 0.8446
628.000000 0.8446 0.8447 0.8447 0.8448 0.8448
623.000000 0.8448 0.8449 0.8449 0.8449 0.8449
618.000000 0.8447 0.8445 0.8443 0.8441 0.8439
613.000000 0.8437 0.8435 0.8434 0.8432 0.8427
608.000000 0.8474 0.8415 0.8408 0.8402 0.8396
603.000000 0.8389 0.8383 0.8373 0.8362 0.8352
598.000000 0.8341 0.8331 0.8320 0.8303 0.8285
593.000000 0.8267 0.8250 0.8232 0.8213 0.8172
588.000000 0.8134 0.8094 0.8054 0.8014 0.7930
583.000000 0.7842 0.7722 0.7584 0.7426 0.7253
578.000000 0.7074 0.6443 0.5482 0.4521 0.3559
573.000000 0.2599 0.1775 0.1750 0.1778 0.2130
568.000000 0.2482 0.2834 0.3187 0.3539 0.3892
563.000000 0.4244 0.4596 0.5165 0.5509 0.5699
558.000000 0.5889 0.6060 0.6222 0.6382 0.6581
553.000000 0.6828 0.7057 0.7269 0.7361 0.7451
548.000000 0.7542 0.7615 0.7672 0.7731 0.7788
543.000000 0.7819 0.7851 0.7882 0.7912 0.7944
538.000000 0.7965 0.7983 0.8000 0.8017 0.8034
533.000000 0.8051 0.8065 0.8075 0.8086 0.8095
528.000000 0.8105 0.8114 0.8124 0.8134 0.8143
523.000000 0.8149 0.8156 0.8161 0.8168 0.8175
518.000000 0.8181 0.8187 0.8192 0.8194 0.8195
513.000000 0.8197 0.8198 0.8200 0.8201 0.8202
508.000000 0.8202 0.8203 0.8203 0.8203 0.8204
503.000000 0.8204 0.8204 0.8204 0.8204 0.8203
498.000000 0.8202 0.8201 0.8201 0.8196 0.8191
493.000000 0.8186 0.8181 0.8169 0.8150 0.8130
488.000000 0.8096 0.8031 0.7965 0.7897 0.7826
483.000000 0.7794 0.7795 0.7786 0.7798 0.7799
478.000000 0.7805 0.7815 0.7825 0.7835 0.7844
473.000000 0.7854 0.7851 0.7849 0.7847 0.7844
468.000000 0.7842 0.7839 0.7837 0.7835 0.7828
463.000000 0.7871 0.7814 0.7807 0.7800 0.7793
458.000000 0.7782 0.7756 0.7728 0.7701 0.7675
453.000000 0.7654 0.7637 0.7621 0.7604 0.7587
448.000000 0.7569 0.7554 0.7537 0.7519 0.7504
443.000000 0.7487 0.7471 0.7454 0.7438 0.7421
438.000000 0.7404 0.7392 0.7380 0.7368 0.7357
433.000000 0.7345 0.7333 0.7321 0.7308 0.7297
428.000000 0.7285 0.7275 0.7267 0.7258 0.7250
423.000000 0.7241 0.7232 0.7224 0.7215 0.7206
418.000000 0.7198 0.7189 0.7180 0.7174 0.7168
413.000000 0.7162 0.7157 0.7151 0.7146 0.7141
408.000000 0.7135 0.7131 0.7126 0.7122 0.7119
403.000000 0.7115 0.7112 0.7108 0.7106 0.7101
398.000000 0.7099 0.7097 0.7094 0.7091 0.7088
393.000000 0.7088 0.7090 0.7091 0.7093 0.7094
388.000000 0.7104 0.7114
##END=
