##TITLE=CARBON DISULFIDE
##JCAMP-DX=4.24
##DATA TYPE=INFRARED SPECTRUM
##CLASS=COBLENTZ III
##ORIGIN=DOW CHEMICAL COMPANY
##OWNER=COBLENTZ SOCIETY
Collection (C) 2018 copyright by the U.S. Secretary of Commerce
on behalf of the United States of America. All rights reserved.
##DATE=1968/08/13
##NAMES=dithioxomethane
##CAS REGISTRY NO=75-15-0
##MOLFORM=C S2
##SOURCE REFERENCE=COBLENTZ NO. 10112
##$NIST SOURCE=COBLENTZ
##$NIST IMAGE=cob10112
##SPECTROMETER/DATA SYSTEM=DOW KBr FOREPRISM-GRATING
##INSTRUMENT PARAMETERS=BLAZED AT 3.5, 12.0, 20.0 MICRON, CHANGED AT 5.0, 7.5, 14.9 MICRON
##STATE=LIQUID (NEAT)
##PATH LENGTH=0.011 CM
##SAMPLING PROCEDURE=TRANSMISSION
##RESOLUTION=4
##DATA PROCESSING=DIGITIZED BY NIST FROM HARD COPY (FROM TWO SEGMENTS)
##XUNITS=1/CM
##YUNITS=TRANSMITTANCE
##XFACTOR=1.000000
##YFACTOR=1
##DELTAX=0.869093
##FIRSTX=433.895
##LASTX=3798.16
##FIRSTY=1.04
##MAXX=3798.16
##MINX=433.895
##MAXY=1.115
##MINY=0.004
##NPOINTS=3872
##XYDATA=(X++(Y..Y))
433.895000 1.0400 1.0400 1.0400 1.0400 1.0400
438.240467 1.0400 1.0400 1.0400 1.0420 1.0420
442.585933 1.0420 1.0420 1.0420 1.0420 1.0420
446.931400 1.0420 1.0420 1.0420 1.0420 1.0420
451.276866 1.0420 1.0420 1.0420 1.0420 1.0430
455.622333 1.0440 1.0440 1.0440 1.0460 1.0460
459.967799 1.0470 1.0470 1.0470 1.0470 1.0490
464.313266 1.0490 1.0490 1.0500 1.0500 1.0500
468.658733 1.0500 1.0510 1.0510 1.0510 1.0510
473.004199 1.0530 1.0530 1.0540 1.0540 1.0540
477.349666 1.0550 1.0550 1.0570 1.0570 1.0570
481.695132 1.0570 1.0580 1.0580 1.0590 1.0590
486.040599 1.0610 1.0620 1.0620 1.0640 1.0650
490.386065 1.0660 1.0680 1.0690 1.0690 1.0700
494.731532 1.0700 1.0700 1.0700 1.0690 1.0690
499.076999 1.0700 1.0720 1.0720 1.0720 1.0720
503.422465 1.0730 1.0730 1.0730 1.0740 1.0740
507.767932 1.0740 1.0760 1.0760 1.0740 1.0740
512.113398 1.0740 1.0760 1.0760 1.0760 1.0760
516.458865 1.0740 1.0740 1.0740 1.0740 1.0740
520.804331 1.0740 1.0770 1.0770 1.0770 1.0800
525.149798 1.0800 1.0810 1.0810 1.0810 1.0810
529.495264 1.0800 1.0810 1.0810 1.0810 1.0830
533.840731 1.0810 1.0810 1.0810 1.0830 1.0830
538.186198 1.0850 1.0850 1.0830 1.0830 1.0830
542.531664 1.0830 1.0830 1.0830 1.0830 1.0830
546.877131 1.0830 1.0840 1.0840 1.0850 1.0840
551.222597 1.0840 1.0830 1.0830 1.0830 1.0830
555.568064 1.0840 1.0840 1.0840 1.0830 1.0830
559.913530 1.0830 1.0830 1.0830 1.0830 1.0830
564.258997 1.0830 1.0840 1.0840 1.0840 1.0830
568.604464 1.0840 1.0840 1.0840 1.0840 1.0840
572.949930 1.0840 1.0840 1.0840 1.0850 1.0850
577.295397 1.0850 1.0850 1.0850 1.0850 1.0850
581.640863 1.0850 1.0850 1.0870 1.0870 1.0880
585.986330 1.0880 1.0880 1.0880 1.0850 1.0810
590.331796 1.0810 1.0800 1.0800 1.0790 1.0790
594.677263 1.0790 1.0800 1.0800 1.0800 1.0790
599.022730 1.0790 1.0790 1.0790 1.0790 1.0800
603.368196 1.0800 1.0790 1.0790 1.0790 1.0790
607.713663 1.0790 1.0770 1.0770 1.0770 1.0770
612.059129 1.0790 1.0770 1.0770 1.0760 1.0740
616.404596 1.0740 1.0740 1.0740 1.0740 1.0730
620.750062 1.0730 1.0720 1.0700 1.0680 1.0680
625.095529 1.0660 1.0660 1.0660 1.0660 1.0650
629.440996 1.0620 1.0610 1.0580 1.0570 1.0530
633.786462 1.0530 1.0500 1.0490 1.0490 1.0490
638.131929 1.0470 1.0460 1.0440 1.0390 1.0360
642.477395 1.0340 1.0320 1.0310 1.0310 1.0290
646.822862 1.0280 1.0250 1.0210 1.0200 1.0200
651.168328 1.0200 1.0210 1.0230 1.0240 1.0250
655.513795 1.0250 1.0270 1.0290 1.0310 1.0350
659.859262 1.0400 1.0420 1.0430 1.0470 1.0490
664.204728 1.0500 1.0500 1.0510 1.0530 1.0550
668.550195 1.0570 1.0570 1.0590 1.0590 1.0610
672.895661 1.0620 1.0640 1.0650 1.0660 1.0660
677.241128 1.0680 1.0690 1.0690 1.0700 1.0730
681.586594 1.0730 1.0730 1.0730 1.0740 1.0740
685.932061 1.0740 1.0740 1.0760 1.0760 1.0760
690.277527 1.0760 1.0760 1.0760 1.0760 1.0770
694.622994 1.0770 1.0770 1.0770 1.0770 1.0770
698.968461 1.0770 1.0770 1.0770 1.0770 1.0770
703.313927 1.0770 1.0770 1.0770 1.0770 1.0770
707.659394 1.0770 1.0770 1.0770 1.0770 1.0770
712.004860 1.0770 1.0790 1.0790 1.0790 1.0800
716.350327 1.0800 1.0800 1.0800 1.0810 1.0810
720.695793 1.0810 1.0810 1.0810 1.0830 1.0830
725.041260 1.0830 1.0830 1.0830 1.0830 1.0830
729.386727 1.0840 1.0840 1.0840 1.0840 1.0840
733.732193 1.0840 1.0840 1.0850 1.0850 1.0870
738.077660 1.0870 1.0880 1.0890 1.0890 1.0890
742.423126 1.0890 1.0890 1.0890 1.0890 1.0890
746.768593 1.0890 1.0890 1.0890 1.0910 1.0890
751.114059 1.0880 1.0880 1.0880 1.0870 1.0870
755.459526 1.0870 1.0850 1.0850 1.0850 1.0850
759.804993 1.0850 1.0850 1.0850 1.0850 1.0850
764.150459 1.0850 1.0850 1.0850 1.0850 1.0850
768.495926 1.0850 1.0850 1.0840 1.0810 1.0800
772.841392 1.0800 1.0790 1.0790 1.0790 1.0770
777.186859 1.0760 1.0740 1.0740 1.0730 1.0730
781.532325 1.0720 1.0700 1.0690 1.0690 1.0690
785.877792 1.0690 1.0690 1.0690 1.0700 1.0720
790.223259 1.0740 1.0760 1.0760 1.0770 1.0770
794.568725 1.0770 1.0770 1.0770 1.0770 1.0770
798.914192 1.0770 1.0770 1.0770 1.0770 1.0770
803.259658 1.0770 1.0770 1.0770 1.0770 1.0770
807.605125 1.0770 1.0770 1.0770 1.0770 1.0770
811.950591 1.0770 1.0770 1.0770 1.0760 1.0760
816.296058 1.0760 1.0760 1.0760 1.0760 1.0760
820.641524 1.0760 1.0740 1.0740 1.0730 1.0730
824.986991 1.0720 1.0720 1.0720 1.0700 1.0660
829.332458 1.0640 1.0620 1.0610 1.0550 1.0510
833.677924 1.0490 1.0470 1.0430 1.0390 1.0380
838.023391 1.0350 1.0310 1.0250 1.0140 1.0040
842.368857 1.0010 0.9970 0.9910 0.9790 0.9680
846.714324 0.9570 0.9490 0.9410 0.9251 0.9111
851.059790 0.8960 0.8920 0.8820 0.8800 0.8780
855.405257 0.8770 0.8770 0.8780 0.8810 0.8820
859.750724 0.8860 0.8930 0.8960 0.9010 0.9040
864.096190 0.9100 0.9120 0.9160 0.9220 0.9260
868.441657 0.9270 0.9310 0.9370 0.9450 0.9500
872.787123 0.9520 0.9550 0.9570 0.9670 0.9700
877.132590 0.9720 0.9760 0.9780 0.9850 0.9890
881.478056 0.9930 1.0040 1.0090 1.0120 1.0160
885.823523 1.0230 1.0270 1.0310 1.0350 1.0390
890.168990 1.0440 1.0490 1.0500 1.0510 1.0540
894.514456 1.0590 1.0650 1.0700 1.0720 1.0720
898.859923 1.0740 1.0770 1.0790 1.0800 1.0810
903.205389 1.0830 1.0830 1.0840 1.0850 1.0850
907.550856 1.0850 1.0850 1.0850 1.0870 1.0870
911.896322 1.0870 1.0870 1.0880 1.0890 1.0890
916.241789 1.0910 1.0910 1.0920 1.0940 1.0950
920.587256 1.0950 1.0940 1.0940 1.0940 1.0940
924.932722 1.0940 1.0960 1.0960 1.0960 1.0960
929.278189 1.0960 1.0960 1.0960 1.0960 1.0960
933.623655 1.0960 1.0960 1.0960 1.0960 1.0960
937.969122 1.0960 1.0960 1.0960 1.0960 1.0960
942.314588 1.0960 1.0960 1.0950 1.0950 1.0950
946.660055 1.0960 1.0960 1.0960 1.0960 1.0960
951.005522 1.0960 1.0960 1.0960 1.0950 1.0950
955.350988 1.0950 1.0950 1.0950 1.0950 1.0950
959.696455 1.0950 1.0950 1.0950 1.0950 1.0950
964.041921 1.0950 1.0950 1.0950 1.0950 1.0950
968.387388 1.0950 1.0950 1.0950 1.0950 1.0950
972.732854 1.0950 1.0950 1.0940 1.0940 1.0940
977.078321 1.0940 1.0940 1.0940 1.0950 1.0960
981.423787 1.0960 1.0980 1.0980 1.0980 1.0980
985.769254 1.0980 1.0980 1.0980 1.0980 1.0980
990.114721 1.0980 1.0960 1.0960 1.0960 1.0960
994.460187 1.0960 1.0960 1.0960 1.0960 1.0950
998.805654 1.0950 1.0950 1.0950 1.0950 1.0960
1003.151120 1.0960 1.0960 1.0960 1.0980 1.0980
1007.496587 1.0980 1.0980 1.0990 1.0990 1.0990
1011.842053 1.0990 1.0990 1.0990 1.0980 1.0980
1016.187520 1.0980 1.0980 1.0980 1.0960 1.0960
1020.532987 1.0940 1.0940 1.0940 1.0920 1.0920
1024.878453 1.0920 1.0910 1.0910 1.0910 1.0910
1029.223920 1.0910 1.0910 1.0910 1.0910 1.0910
1033.569386 1.0910 1.0910 1.0890 1.0890 1.0890
1037.914853 1.0890 1.0890 1.0910 1.0910 1.0910
1042.260319 1.0910 1.0910 1.0910 1.0910 1.0910
1046.605786 1.0890 1.0890 1.0890 1.0890 1.0890
1050.951253 1.0890 1.0890 1.0890 1.0890 1.0890
1055.296719 1.0890 1.0890 1.0890 1.0910 1.0910
1059.642186 1.0910 1.0890 1.0890 1.0890 1.0880
1063.987652 1.0880 1.0870 1.0870 1.0850 1.0850
1068.333119 1.0850 1.0840 1.0830 1.0830 1.0830
1072.678585 1.0830 1.0840 1.0840 1.0840 1.0840
1077.024052 1.0850 1.0850 1.0850 1.0870 1.0870
1081.369519 1.0870 1.0870 1.0880 1.0880 1.0880
1085.714985 1.0890 1.0880 1.0880 1.0880 1.0890
1090.060452 1.0910 1.0920 1.0920 1.0920 1.0920
1094.405918 1.0920 1.0920 1.0940 1.0950 1.0950
1098.751385 1.0950 1.0960 1.0980 1.0980 1.0980
1103.096851 1.0980 1.0980 1.0980 1.0990 1.1000
1107.442318 1.1030 1.1030 1.1040 1.1060 1.1070
1111.787785 1.1070 1.1080 1.1080 1.1080 1.1080
1116.133251 1.1070 1.1070 1.1060 1.1040 1.1040
1120.478718 1.1040 1.1030 1.1020 1.1000 1.0990
1124.824184 1.0990 1.0990 1.0990 1.0990 1.0990
1129.169651 1.0990 1.0990 1.0990 1.0990 1.0990
1133.515117 1.0990 1.0990 1.0990 1.0990 1.0990
1137.860584 1.0990 1.0990 1.0990 1.0990 1.1000
1142.206050 1.1030 1.1030 1.1040 1.1040 1.1040
1146.551517 1.1040 1.1040 1.1040 1.1060 1.1060
1150.896984 1.1070 1.1070 1.1070 1.1070 1.1070
1155.242450 1.1070 1.1070 1.1070 1.1070 1.1070
1159.587917 1.1070 1.1070 1.1070 1.1070 1.1060
1163.933383 1.1060 1.1060 1.1040 1.1040 1.1030
1168.278850 1.1030 1.1030 1.1020 1.1020 1.1020
1172.624316 1.0990 1.0980 1.0980 1.0960 1.0920
1176.969783 1.0910 1.0890 1.0890 1.0890 1.0910
1181.315250 1.1020 1.1030 1.1040 1.1040 1.1040
1185.660716 1.1040 1.1040 1.1060 1.1070 1.1080
1190.006183 1.1100 1.1100 1.1100 1.1100 1.1100
1194.351649 1.1100 1.1100 1.1100 1.1110 1.1110
1198.697116 1.1110 1.1110 1.1110 1.1110 1.1110
1203.042582 1.1110 1.1130 1.1130 1.1130 1.1130
1207.388049 1.1140 1.1140 1.1130 1.1130 1.1140
1211.733516 1.1140 1.1140 1.1140 1.1140 1.1150
1216.078982 1.1150 1.1150 1.1150 1.1150 1.1150
1220.424449 1.1150 1.1150 1.1150 1.1150 1.1150
1224.769915 1.1150 1.1150 1.1150 1.1150 1.1150
1229.115382 1.1140 1.1130 1.1110 1.1110 1.1080
1233.460848 1.1070 1.1040 1.1030 1.1000 1.0990
1237.806315 1.0980 1.0980 1.0960 1.0960 1.0940
1242.151782 1.0920 1.0920 1.0920 1.0920 1.0920
1246.497248 1.0920 1.0920 1.0920 1.0920 1.0920
1250.842715 1.0920 1.0920 1.0920 1.0920 1.0940
1255.188181 1.0940 1.0940 1.0940 1.0940 1.0940
1259.533648 1.0940 1.0950 1.0940 1.0940 1.0940
1263.879114 1.0940 1.0920 1.0920 1.0940 1.0940
1268.224581 1.0920 1.0920 1.0920 1.0920 1.0920
1272.570048 1.0920 1.0920 1.0920 1.0920 1.0920
1276.915514 1.0920 1.0910 1.0910 1.0890 1.0890
1281.260981 1.0880 1.0880 1.0880 1.0880 1.0880
1285.606447 1.0870 1.0870 1.0870 1.0870 1.0870
1289.951914 1.0870 1.0870 1.0870 1.0850 1.0850
1294.297380 1.0850 1.0850 1.0850 1.0850 1.0850
1298.642847 1.0840 1.0830 1.0810 1.0800 1.0800
1302.988313 1.0800 1.0800 1.0800 1.0800 1.0800
1307.333780 1.0800 1.0790 1.0800 1.0800 1.0790
1311.679247 1.0790 1.0790 1.0790 1.0790 1.0790
1316.024713 1.0790 1.0790 1.0790 1.0770 1.0770
1320.370180 1.0790 1.0790 1.0790 1.0790 1.0790
1324.715646 1.0790 1.0790 1.0790 1.0790 1.0790
1329.061113 1.0790 1.0790 1.0790 1.0770 1.0770
1333.406579 1.0740 1.0730 1.0720 1.0700 1.0680
1337.752046 1.0660 1.0660 1.0650 1.0610 1.0590
1342.097513 1.0580 1.0570 1.0570 1.0550 1.0550
1346.442979 1.0550 1.0550 1.0550 1.0530 1.0510
1350.788446 1.0500 1.0500 1.0490 1.0470 1.0460
1355.133912 1.0460 1.0460 1.0440 1.0430 1.0420
1359.479379 1.0420 1.0400 1.0380 1.0350 1.0340
1363.824845 1.0310 1.0280 1.0250 1.0240 1.0230
1368.170312 1.0210 1.0200 1.0170 1.0130 1.0120
1372.515779 1.0060 1.0020 1.0010 1.0000 0.9980
1376.861245 0.9910 0.9890 0.9870 0.9760 0.9740
1381.206712 0.9720 0.9670 0.9570 0.9530 0.9460
1385.552178 0.9400 0.9330 0.9300 0.9260 0.9180
1389.897645 0.9110 0.9010 0.8910 0.8840 0.8740
1394.243111 0.8620 0.8480 0.8370 0.8290 0.8161
1398.588578 0.8100 0.7980 0.7840 0.7680 0.7560
1402.934045 0.7460 0.7390 0.7260 0.7091 0.6931
1407.279511 0.6810 0.6730 0.6580 0.6340 0.6110
1411.624978 0.5880 0.5720 0.5610 0.5391 0.5290
1415.970444 0.5080 0.4980 0.4780 0.4520 0.4221
1420.315911 0.3931 0.3671 0.3650 0.3521 0.3261
1424.661377 0.3030 0.2770 0.2610 0.2460 0.2340
1429.006844 0.2051 0.1880 0.1551 0.1490 0.1281
1433.352311 0.1040 0.0990 0.0920 0.0850 0.0770
1437.697777 0.0610 0.0550 0.0500 0.0460 0.0390
1442.043244 0.0310 0.0250 0.0210 0.0170 0.0160
1446.388710 0.0120 0.0090 0.0090 0.0080 0.0060
1450.734177 0.0060 0.0060 0.0060 0.0050 0.0050
1455.079643 0.0050 0.0050 0.0050 0.0050 0.0050
1459.425110 0.0050 0.0050 0.0050 0.0050 0.0050
1463.770576 0.0050 0.0050 0.0050 0.0050 0.0050
1468.116043 0.0050 0.0050 0.0050 0.0050 0.0050
1472.461510 0.0050 0.0050 0.0050 0.0050 0.0050
1476.806976 0.0050 0.0050 0.0050 0.0050 0.0050
1481.152443 0.0050 0.0050 0.0050 0.0050 0.0050
1485.497909 0.0050 0.0050 0.0050 0.0050 0.0050
1489.843376 0.0050 0.0050 0.0050 0.0050 0.0050
1494.188842 0.0050 0.0050 0.0050 0.0050 0.0050
1498.534309 0.0050 0.0050 0.0050 0.0050 0.0050
1502.879776 0.0050 0.0050 0.0050 0.0050 0.0050
1507.225242 0.0050 0.0050 0.0050 0.0050 0.0050
1511.570709 0.0050 0.0050 0.0050 0.0050 0.0050
1515.916175 0.0050 0.0050 0.0050 0.0050 0.0050
1520.261642 0.0050 0.0050 0.0050 0.0050 0.0050
1524.607108 0.0050 0.0050 0.0050 0.0050 0.0050
1528.952575 0.0060 0.0060 0.0060 0.0060 0.0060
1533.298042 0.0060 0.0060 0.0060 0.0060 0.0060
1537.643508 0.0060 0.0060 0.0060 0.0060 0.0060
1541.988975 0.0060 0.0060 0.0060 0.0060 0.0060
1546.334441 0.0060 0.0060 0.0080 0.0080 0.0080
1550.679908 0.0080 0.0080 0.0080 0.0080 0.0080
1555.025374 0.0080 0.0080 0.0080 0.0080 0.0080
1559.370841 0.0080 0.0080 0.0080 0.0080 0.0080
1563.716308 0.0080 0.0080 0.0080 0.0080 0.0090
1568.061774 0.0100 0.0120 0.0130 0.0140 0.0140
1572.407241 0.0140 0.0140 0.0160 0.0160 0.0200
1576.752707 0.0290 0.0310 0.0310 0.0340 0.0390
1581.098174 0.0490 0.0570 0.0590 0.0640 0.0700
1585.443640 0.1059 0.1220 0.1330 0.1529 0.1739
1589.789107 0.1930 0.2120 0.2320 0.2520 0.2710
1594.134573 0.2900 0.3100 0.3290 0.3499 0.3709
1598.480040 0.3920 0.4140 0.4350 0.4600 0.4850
1602.825507 0.5000 0.5130 0.5339 0.5499 0.5649
1607.170973 0.5910 0.6030 0.6280 0.6470 0.6660
1611.516440 0.6850 0.6960 0.7080 0.7160 0.7270
1615.861906 0.7560 0.7790 0.7860 0.7870 0.7920
1620.207373 0.8050 0.8210 0.8260 0.8370 0.8499
1624.552839 0.8540 0.8630 0.8710 0.8840 0.8880
1628.898306 0.8910 0.8960 0.9080 0.9160 0.9220
1633.243773 0.9230 0.9300 0.9370 0.9450 0.9530
1637.589239 0.9560 0.9570 0.9590 0.9610 0.9630
1641.934706 0.9640 0.9650 0.9700 0.9780 0.9850
1646.280172 0.9860 0.9890 0.9900 0.9940 1.0020
1650.625639 1.0040 1.0050 1.0100 1.0130 1.0160
1654.971105 1.0170 1.0190 1.0200 1.0230 1.0230
1659.316572 1.0210 1.0240 1.0270 1.0310 1.0320
1663.662039 1.0340 1.0340 1.0350 1.0350 1.0360
1668.007505 1.0380 1.0390 1.0390 1.0390 1.0350
1672.352972 1.0400 1.0430 1.0470 1.0490 1.0500
1676.698438 1.0500 1.0490 1.0500 1.0510 1.0530
1681.043905 1.0540 1.0540 1.0550 1.0570 1.0570
1685.389371 1.0530 1.0530 1.0550 1.0570 1.0570
1689.734838 1.0580 1.0590 1.0610 1.0590 1.0610
1694.080305 1.0620 1.0640 1.0650 1.0660 1.0660
1698.425771 1.0660 1.0680 1.0680 1.0610 1.0540
1702.771238 1.0540 1.0570 1.0620 1.0660 1.0660
1707.116704 1.0680 1.0680 1.0690 1.0690 1.0660
1711.462171 1.0620 1.0590 1.0580 1.0590 1.0660
1715.807637 1.0700 1.0700 1.0700 1.0700 1.0720
1720.153104 1.0720 1.0720 1.0720 1.0720 1.0700
1724.498571 1.0700 1.0700 1.0700 1.0700 1.0700
1728.844037 1.0700 1.0720 1.0720 1.0720 1.0720
1733.189504 1.0720 1.0730 1.0730 1.0730 1.0730
1737.534970 1.0740 1.0740 1.0690 1.0680 1.0680
1741.880437 1.0720 1.0720 1.0720 1.0720 1.0690
1746.225903 1.0690 1.0690 1.0610 1.0610 1.0680
1750.571370 1.0730 1.0740 1.0740 1.0740 1.0740
1754.916836 1.0690 1.0690 1.0760 1.0760 1.0720
1759.262303 1.0700 1.0680 1.0700 1.0720 1.0730
1763.607770 1.0740 1.0760 1.0760 1.0760 1.0740
1767.953236 1.0700 1.0660 1.0640 1.0650 1.0760
1772.298703 1.0760 1.0740 1.0740 1.0740 1.0740
1776.644169 1.0740 1.0740 1.0740 1.0740 1.0760
1780.989636 1.0740 1.0740 1.0740 1.0760 1.0760
1785.335102 1.0730 1.0730 1.0730 1.0730 1.0690
1789.680569 1.0680 1.0760 1.0760 1.0740 1.0730
1794.026036 1.0730 1.0730 1.0730 1.0730 1.0730
1798.371502 1.0730 1.0740 1.0740 1.0740 1.0740
1802.716969 1.0740 1.0740 1.0740 1.0740 1.0740
1807.062435 1.0740 1.0740 1.0740 1.0740 1.0740
1811.407902 1.0740 1.0740 1.0740 1.0740 1.0740
1815.753368 1.0740 1.0740 1.0740 1.0740 1.0760
1820.098835 1.0760 1.0740 1.0740 1.0740 1.0740
1824.444302 1.0730 1.0730 1.0730 1.0730 1.0730
1828.789768 1.0720 1.0720 1.0730 1.0730 1.0730
1833.135235 1.0730 1.0720 1.0720 1.0720 1.0720
1837.480701 1.0720 1.0720 1.0730 1.0730 1.0660
1841.826168 1.0660 1.0690 1.0700 1.0700 1.0720
1846.171634 1.0720 1.0720 1.0720 1.0720 1.0720
1850.517101 1.0720 1.0720 1.0720 1.0720 1.0720
1854.862568 1.0720 1.0720 1.0720 1.0720 1.0720
1859.208034 1.0720 1.0720 1.0720 1.0720 1.0720
1863.553501 1.0720 1.0720 1.0700 1.0700 1.0690
1867.898967 1.0690 1.0690 1.0690 1.0690 1.0690
1872.244434 1.0690 1.0690 1.0690 1.0690 1.0690
1876.589900 1.0690 1.0690 1.0690 1.0720 1.0720
1880.935367 1.0680 1.0680 1.0680 1.0680 1.0680
1885.280834 1.0680 1.0680 1.0680 1.0680 1.0680
1889.626300 1.0660 1.0650 1.0650 1.0660 1.0660
1893.971767 1.0660 1.0660 1.0660 1.0660 1.0660
1898.317233 1.0660 1.0650 1.0650 1.0650 1.0660
1902.662700 1.0650 1.0650 1.0650 1.0660 1.0660
1907.008166 1.0650 1.0650 1.0650 1.0650 1.0650
1911.353633 1.0650 1.0650 1.0650 1.0650 1.0650
1915.699099 1.0650 1.0650 1.0650 1.0650 1.0650
1920.044566 1.0650 1.0660 1.0660 1.0660 1.0680
1924.390033 1.0660 1.0660 1.0660 1.0660 1.0660
1928.735499 1.0660 1.0680 1.0680 1.0680 1.0680
1933.080966 1.0680 1.0680 1.0680 1.0680 1.0680
1937.426432 1.0660 1.0660 1.0660 1.0680 1.0690
1941.771899 1.0700 1.0700 1.0700 1.0700 1.0720
1946.117365 1.0720 1.0720 1.0720 1.0720 1.0720
1950.462832 1.0720 1.0720 1.0720 1.0680 1.0660
1954.808299 1.0640 1.0650 1.0720 1.0720 1.0740
1959.153765 1.0740 1.0720 1.0700 1.0690 1.0690
1963.499232 1.0690 1.0700 1.0700 1.0700 1.0690
1967.844698 1.0690 1.0690 1.0690 1.0690 1.0690
1972.190165 1.0690 1.0690 1.0690 1.0690 1.0690
1976.535631 1.0690 1.0690 1.0690 1.0690 1.0690
1980.881098 1.0690 1.0690 1.0690 1.0700 1.0700
1985.226565 1.0700 1.0700 1.0700 1.0700 1.0700
1989.572031 1.0700 1.0700 1.0700 1.0680 1.0640
1993.917498 1.0540 1.0470 1.0580 1.0570 1.0570
1998.262964 1.0570 1.0570 1.0550 1.0550 1.0550
2002.608431 1.0550 1.0550 1.0550 1.0550 1.0550
2006.953897 1.0550 1.0550 1.0550 1.0531 1.0511
2011.299364 1.0500 1.0491 1.0490 1.0490 1.0518
2015.644831 1.0548 1.0545 1.0540 1.0540 1.0540
2019.990297 1.0535 1.0530 1.0530 1.0530 1.0530
2024.335764 1.0530 1.0530 1.0530 1.0530 1.0530
2028.681230 1.0521 1.0511 1.0510 1.0510 1.0510
2033.026697 1.0510 1.0510 1.0510 1.0510 1.0510
2037.372163 1.0510 1.0510 1.0506 1.0501 1.0500
2041.717630 1.0500 1.0496 1.0491 1.0481 1.0471
2046.063097 1.0457 1.0442 1.0423 1.0403 1.0383
2050.408563 1.0363 1.0356 1.0351 1.0350 1.0350
2054.754030 1.0350 1.0350 1.0350 1.0350 1.0350
2059.099496 1.0350 1.0350 1.0350 1.0350 1.0350
2063.444963 1.0346 1.0341 1.0328 1.0313 1.0286
2067.790429 1.0256 1.0242 1.0232 1.0222 1.0212
2072.135896 1.0206 1.0201 1.0196 1.0191 1.0182
2076.481362 1.0172 1.0166 1.0161 1.0145 1.0125
2080.826829 1.0090 1.0050 1.0033 1.0023 1.0013
2085.172296 1.0003 0.9981 0.9956 0.9912 0.9863
2089.517762 0.9817 0.9772 0.9742 0.9717 0.9670
2093.863229 0.9615 0.9575 0.9540 0.9451 0.9342
2098.208695 0.9214 0.9080 0.8945 0.8811 0.8707
2102.554162 0.8618 0.8576 0.8556 0.8539 0.8525
2106.899628 0.8475 0.8410 0.8356 0.8306 0.8099
2111.245095 0.7820 0.7457 0.7054 0.6840 0.6720
2115.590562 0.6664 0.6639 0.6568 0.6473 0.6340
2119.936028 0.6185 0.5949 0.5668 0.5339 0.4985
2124.281495 0.4767 0.4622 0.4372 0.4063 0.3786
2128.626961 0.3527 0.3052 0.2449 0.2004 0.1655
2132.972428 0.1419 0.1255 0.1142 0.1062 0.1006
2137.317894 0.0966 0.0920 0.0870 0.0727 0.0522
2141.663361 0.0395 0.0321 0.0231 0.0132 0.0078
2146.008828 0.0058 0.0050 0.0050 0.0047 0.0042
2150.354294 0.0040 0.0040 0.0040 0.0040 0.0040
2154.699761 0.0040 0.0040 0.0040 0.0040 0.0040
2159.045227 0.0040 0.0040 0.0043 0.0048 0.0053
2163.390694 0.0058 0.0065 0.0075 0.0080 0.0080
2167.736160 0.0083 0.0088 0.0093 0.0098 0.0117
2172.081627 0.0152 0.0180 0.0200 0.0215 0.0225
2176.427094 0.0240 0.0260 0.0280 0.0300 0.0327
2180.772560 0.0362 0.0406 0.0461 0.0504 0.0534
2185.118027 0.0559 0.0579 0.0699 0.0938 0.1117
2189.463493 0.1222 0.1367 0.1563 0.1688 0.1728
2193.808960 0.1815 0.1959 0.2126 0.2320 0.2499
2198.154426 0.2659 0.2765 0.2800 0.3132 0.3875
2202.499893 0.4473 0.4867 0.5183 0.5387 0.5570
2206.845359 0.5719 0.5915 0.6182 0.6552 0.7075
2211.190826 0.7466 0.7655 0.7834 0.7999 0.8152
2215.536293 0.8286 0.8411 0.8521 0.8623 0.8713
2219.881759 0.8795 0.8865 0.8928 0.8978 0.9022
2224.227226 0.9057 0.9090 0.9121 0.9142 0.9147
2228.572692 0.9176 0.9251 0.9324 0.9394 0.9462
2232.918159 0.9527 0.9580 0.9610 0.9638 0.9663
2237.263625 0.9689 0.9719 0.9752 0.9792 0.9828
2241.609092 0.9852 0.9876 0.9896 0.9910 0.9910
2245.954559 0.9909 0.9904 0.9900 0.9900 0.9899
2250.300025 0.9894 0.9890 0.9890 0.9890 0.9890
2254.645492 0.9886 0.9871 0.9859 0.9854 0.9842
2258.990958 0.9813 0.9786 0.9771 0.9752 0.9722
2263.336425 0.9686 0.9631 0.9586 0.9571 0.9553
2267.681891 0.9523 0.9478 0.9384 0.9288 0.9188
2272.027358 0.9093 0.9013 0.8924 0.8799 0.8684
2276.372825 0.8604 0.8513 0.8372 0.8230 0.8086
2280.718291 0.7931 0.7737 0.7540 0.7330 0.7112
2285.063758 0.6853 0.6573 0.6199 0.5859 0.5680
2289.409224 0.5496 0.5292 0.5054 0.4641 0.4163
2293.754691 0.3326 0.2610 0.2610 0.2618 0.2668
2298.100157 0.2755 0.3054 0.3316 0.3361 0.3410
2302.445624 0.3479 0.3558 0.3698 0.3827 0.3882
2306.791091 0.3972 0.4330 0.4688 0.5031 0.5369
2311.136557 0.5653 0.5933 0.6169 0.6389 0.6474
2315.482024 0.6560 0.6660 0.6760 0.6864 0.6969
2319.827490 0.7068 0.7172 0.7327 0.7475 0.7540
2324.172957 0.7604 0.7664 0.7724 0.7794 0.7864
2328.518423 0.7944 0.8024 0.8104 0.8185 0.8275
2332.863890 0.8364 0.8444 0.8524 0.8609 0.8693
2337.209357 0.8773 0.8853 0.8963 0.9074 0.9239
2341.554823 0.9401 0.9476 0.9550 0.9580 0.9610
2345.900290 0.9645 0.9680 0.9695 0.9712 0.9926
2350.245756 1.0140 1.0120 1.0100 1.0070 1.0040
2354.591223 1.0025 1.0010 1.0005 1.0000 0.9990
2358.936689 0.9980 0.9980 0.9980 0.9803 0.9619
2363.282156 1.0104 1.0622 1.0650 1.0650 1.0593
2367.627622 1.0533 1.0468 1.0403 1.0395 1.0390
2371.973089 1.0385 1.0380 1.0380 1.0380 1.0380
2376.318556 1.0380 1.0385 1.0390 1.0404 1.0419
2380.664022 1.0429 1.0439 1.0449 1.0459 1.0460
2385.009489 1.0460 1.0460 1.0460 1.0460 1.0460
2389.354955 1.0460 1.0460 1.0460 1.0460 1.0460
2393.700422 1.0460 1.0460 1.0460 1.0460 1.0460
2398.045888 1.0460 1.0460 1.0460 1.0460 1.0451
2402.391355 1.0442 1.0440 1.0440 1.0440 1.0440
2406.736822 1.0440 1.0440 1.0448 1.0458 1.0452
2411.082288 1.0442 1.0440 1.0440 1.0440 1.0440
2415.427755 1.0440 1.0440 1.0440 1.0440 1.0448
2419.773221 1.0458 1.0460 1.0460 1.0460 1.0460
2424.118688 1.0460 1.0460 1.0460 1.0460 1.0460
2428.464154 1.0460 1.0452 1.0442 1.0440 1.0440
2432.809621 1.0440 1.0440 1.0440 1.0440 1.0440
2437.155088 1.0440 1.0448 1.0458 1.0445 1.0425
2441.500554 1.0420 1.0420 1.0420 1.0420 1.0420
2445.846021 1.0420 1.0424 1.0429 1.0430 1.0430
2450.191487 1.0430 1.0430 1.0430 1.0430 1.0427
2454.536954 1.0422 1.0420 1.0420 1.0420 1.0420
2458.882420 1.0420 1.0420 1.0420 1.0420 1.0420
2463.227887 1.0420 1.0420 1.0420 1.0423 1.0428
2467.573354 1.0427 1.0422 1.0423 1.0428 1.0427
2471.918820 1.0422 1.0420 1.0420 1.0420 1.0420
2476.264287 1.0420 1.0420 1.0420 1.0420 1.0414
2480.609753 1.0404 1.0400 1.0400 1.0400 1.0400
2484.955220 1.0400 1.0400 1.0400 1.0400 1.0400
2489.300686 1.0400 1.0400 1.0400 1.0400 1.0400
2493.646153 1.0400 1.0400 1.0400 1.0400 1.0400
2497.991620 1.0400 1.0400 1.0400 1.0400 1.0400
2502.337086 1.0400 1.0400 1.0400 1.0400 1.0400
2506.682553 1.0400 1.0406 1.0416 1.0420 1.0420
2511.028019 1.0415 1.0405 1.0400 1.0400 1.0400
2515.373486 1.0400 1.0400 1.0400 1.0400 1.0400
2519.718952 1.0400 1.0400 1.0400 1.0400 1.0400
2524.064419 1.0400 1.0398 1.0393 1.0390 1.0390
2528.409885 1.0393 1.0397 1.0400 1.0400 1.0400
2532.755352 1.0400 1.0398 1.0393 1.0390 1.0390
2537.100819 1.0390 1.0390 1.0390 1.0390 1.0390
2541.446285 1.0390 1.0390 1.0390 1.0390 1.0390
2545.791752 1.0390 1.0390 1.0397 1.0412 1.0414
2550.137218 1.0399 1.0390 1.0390 1.0390 1.0390
2554.482685 1.0390 1.0390 1.0390 1.0390 1.0390
2558.828151 1.0390 1.0390 1.0390 1.0390 1.0390
2563.173618 1.0390 1.0390 1.0390 1.0390 1.0390
2567.519085 1.0390 1.0390 1.0390 1.0388 1.0383
2571.864551 1.0380 1.0380 1.0380 1.0380 1.0380
2576.210018 1.0380 1.0380 1.0380 1.0380 1.0380
2580.555484 1.0380 1.0380 1.0380 1.0380 1.0380
2584.900951 1.0380 1.0380 1.0380 1.0380 1.0380
2589.246417 1.0377 1.0367 1.0360 1.0360 1.0363
2593.591884 1.0373 1.0380 1.0380 1.0380 1.0380
2597.937351 1.0380 1.0380 1.0380 1.0380 1.0380
2602.282817 1.0380 1.0380 1.0380 1.0380 1.0380
2606.628284 1.0377 1.0367 1.0360 1.0360 1.0360
2610.973750 1.0360 1.0360 1.0360 1.0360 1.0360
2615.319217 1.0360 1.0360 1.0360 1.0360 1.0360
2619.664683 1.0360 1.0360 1.0360 1.0360 1.0360
2624.010150 1.0360 1.0360 1.0360 1.0360 1.0360
2628.355617 1.0360 1.0360 1.0360 1.0360 1.0360
2632.701083 1.0360 1.0360 1.0360 1.0360 1.0360
2637.046550 1.0360 1.0362 1.0372 1.0380 1.0380
2641.392016 1.0378 1.0368 1.0360 1.0360 1.0360
2645.737483 1.0360 1.0360 1.0360 1.0359 1.0354
2650.082949 1.0350 1.0350 1.0350 1.0350 1.0350
2654.428416 1.0350 1.0350 1.0350 1.0350 1.0350
2658.773883 1.0350 1.0350 1.0350 1.0350 1.0350
2663.119349 1.0350 1.0350 1.0350 1.0351 1.0356
2667.464816 1.0360 1.0360 1.0360 1.0360 1.0360
2671.810282 1.0355 1.0350 1.0350 1.0350 1.0350
2676.155749 1.0350 1.0350 1.0350 1.0350 1.0350
2680.501215 1.0350 1.0350 1.0350 1.0350 1.0350
2684.846682 1.0350 1.0350 1.0350 1.0350 1.0350
2689.192148 1.0350 1.0350 1.0350 1.0350 1.0345
2693.537615 1.0340 1.0330 1.0320 1.0320 1.0320
2697.883082 1.0330 1.0340 1.0330 1.0320 1.0330
2702.228548 1.0340 1.0340 1.0340 1.0340 1.0340
2706.574015 1.0340 1.0340 1.0340 1.0340 1.0330
2710.919481 1.0320 1.0320 1.0320 1.0315 1.0310
2715.264948 1.0310 1.0310 1.0310 1.0310 1.0310
2719.610414 1.0310 1.0310 1.0310 1.0310 1.0310
2723.955881 1.0310 1.0310 1.0301 1.0291 1.0290
2728.301348 1.0290 1.0290 1.0290 1.0285 1.0280
2732.646814 1.0280 1.0280 1.0276 1.0271 1.0270
2736.992281 1.0270 1.0261 1.0251 1.0250 1.0250
2741.337747 1.0250 1.0250 1.0250 1.0250 1.0246
2745.683214 1.0241 1.0236 1.0231 1.0221 1.0211
2750.028680 1.0201 1.0191 1.0177 1.0162 1.0152
2754.374147 1.0142 1.0136 1.0131 1.0126 1.0121
2758.719614 1.0112 1.0102 1.0092 1.0082 1.0080
2763.065080 1.0080 1.0068 1.0053 1.0038 1.0023
2767.410547 1.0016 1.0011 1.0006 1.0001 0.9976
2771.756013 0.9946 0.9904 0.9859 0.9822 0.9788
2776.101480 0.9772 0.9762 0.9760 0.9760 0.9760
2780.446946 0.9760 0.9752 0.9742 0.9740 0.9740
2784.792413 0.9728 0.9714 0.9706 0.9701 0.9681
2789.137880 0.9656 0.9635 0.9615 0.9580 0.9541
2793.483346 0.9460 0.9366 0.9300 0.9245 0.9216
2797.828813 0.9196 0.9201 0.9216 0.9231 0.9246
2802.174279 0.9286 0.9336 0.9410 0.9495 0.9552
2806.519746 0.9596 0.9655 0.9720 0.9747 0.9757
2810.865212 0.9784 0.9819 0.9864 0.9914 0.9947
2815.210679 0.9972 0.9990 1.0005 1.0020 1.0035
2819.556146 1.0043 1.0048 1.0060 1.0075 1.0083
2823.901612 1.0088 1.0100 1.0115 1.0126 1.0136
2828.247079 1.0146 1.0156 1.0163 1.0168 1.0170
2832.592545 1.0170 1.0170 1.0170 1.0170 1.0170
2836.938012 1.0170 1.0170 1.0170 1.0170 1.0176
2841.283478 1.0186 1.0193 1.0198 1.0203 1.0208
2845.628945 1.0210 1.0210 1.0216 1.0226 1.0230
2849.974411 1.0230 1.0230 1.0230 1.0230 1.0230
2854.319878 1.0233 1.0238 1.0240 1.0240 1.0240
2858.665345 1.0240 1.0240 1.0240 1.0240 1.0240
2863.010811 1.0240 1.0240 1.0240 1.0240 1.0240
2867.356278 1.0240 1.0240 1.0240 1.0237 1.0232
2871.701744 1.0230 1.0230 1.0230 1.0230 1.0230
2876.047211 1.0230 1.0230 1.0230 1.0230 1.0230
2880.392677 1.0225 1.0215 1.0210 1.0210 1.0210
2884.738144 1.0210 1.0210 1.0210 1.0208 1.0203
2889.083611 1.0200 1.0200 1.0200 1.0200 1.0200
2893.429077 1.0200 1.0198 1.0193 1.0186 1.0176
2897.774544 1.0164 1.0149 1.0136 1.0126 1.0116
2902.120010 1.0106 1.0096 1.0086 1.0080 1.0080
2906.465477 1.0076 1.0066 1.0056 1.0046 1.0034
2910.810943 1.0019 1.0004 0.9989 0.9974 0.9959
2915.156410 0.9942 0.9922 0.9895 0.9855 0.9828
2919.501877 0.9823 0.9822 0.9827 0.9848 0.9898
2923.847343 0.9932 0.9937 0.9942 0.9947 0.9954
2928.192810 0.9964 0.9982 1.0017 1.0049 1.0074
2932.538276 1.0092 1.0097 1.0103 1.0113 1.0122
2936.883743 1.0127 1.0132 1.0137 1.0140 1.0140
2941.229209 1.0140 1.0140 1.0140 1.0140 1.0143
2945.574676 1.0153 1.0160 1.0160 1.0160 1.0160
2949.920143 1.0160 1.0160 1.0161 1.0166 1.0170
2954.265609 1.0170 1.0170 1.0170 1.0173 1.0183
2958.611076 1.0190 1.0190 1.0190 1.0190 1.0190
2962.956542 1.0190 1.0190 1.0190 1.0190 1.0190
2967.302009 1.0191 1.0196 1.0201 1.0206 1.0210
2971.647475 1.0210 1.0210 1.0210 1.0210 1.0210
2975.992942 1.0210 1.0210 1.0212 1.0222 1.0230
2980.338408 1.0230 1.0227 1.0212 1.0200 1.0200
2984.683875 1.0200 1.0200 1.0200 1.0200 1.0199
2989.029342 1.0194 1.0190 1.0190 1.0190 1.0190
2993.374808 1.0190 1.0190 1.0190 1.0190 1.0190
2997.720275 1.0190 1.0190 1.0190 1.0190 1.0190
3002.065741 1.0190 1.0190 1.0190 1.0190 1.0191
3006.411208 1.0196 1.0201 1.0206 1.0211 1.0221
3010.756674 1.0229 1.0219 1.0210 1.0210 1.0210
3015.102141 1.0210 1.0211 1.0221 1.0230 1.0230
3019.447608 1.0229 1.0219 1.0210 1.0205 1.0200
3023.793074 1.0195 1.0190 1.0190 1.0190 1.0190
3028.138541 1.0190 1.0190 1.0191 1.0201 1.0210
3032.484007 1.0210 1.0210 1.0210 1.0210 1.0210
3036.829474 1.0210 1.0205 1.0200 1.0195 1.0190
3041.174940 1.0190 1.0190 1.0190 1.0190 1.0190
3045.520407 1.0190 1.0190 1.0190 1.0190 1.0190
3049.865874 1.0190 1.0190 1.0190 1.0190 1.0180
3054.211340 1.0170 1.0170 1.0170 1.0170 1.0170
3058.556807 1.0180 1.0190 1.0190 1.0190 1.0180
3062.902273 1.0170 1.0170 1.0170 1.0170 1.0170
3067.247740 1.0170 1.0170 1.0170 1.0170 1.0170
3071.593206 1.0170 1.0170 1.0170 1.0165 1.0160
3075.938673 1.0160 1.0160 1.0160 1.0160 1.0151
3080.284140 1.0141 1.0140 1.0140 1.0140 1.0140
3084.629606 1.0140 1.0140 1.0140 1.0140 1.0140
3088.975073 1.0140 1.0149 1.0159 1.0160 1.0160
3093.320539 1.0160 1.0160 1.0160 1.0160 1.0164
3097.666006 1.0169 1.0170 1.0170 1.0179 1.0189
3102.011472 1.0190 1.0190 1.0181 1.0172 1.0179
3106.356939 1.0188 1.0190 1.0190 1.0190 1.0190
3110.702406 1.0190 1.0190 1.0190 1.0190 1.0190
3115.047872 1.0190 1.0182 1.0172 1.0170 1.0170
3119.393339 1.0178 1.0188 1.0190 1.0190 1.0182
3123.738805 1.0172 1.0170 1.0170 1.0170 1.0170
3128.084272 1.0170 1.0170 1.0170 1.0170 1.0170
3132.429738 1.0170 1.0170 1.0170 1.0170 1.0170
3136.775205 1.0166 1.0161 1.0160 1.0160 1.0160
3141.120671 1.0160 1.0160 1.0160 1.0164 1.0169
3145.466138 1.0170 1.0170 1.0170 1.0170 1.0170
3149.811605 1.0170 1.0170 1.0170 1.0170 1.0170
3154.157071 1.0170 1.0170 1.0167 1.0162 1.0160
3158.502538 1.0160 1.0160 1.0160 1.0160 1.0160
3162.848004 1.0160 1.0160 1.0160 1.0160 1.0160
3167.193471 1.0160 1.0160 1.0160 1.0160 1.0160
3171.538937 1.0160 1.0160 1.0160 1.0160 1.0160
3175.884404 1.0160 1.0160 1.0160 1.0163 1.0168
3180.229871 1.0170 1.0170 1.0167 1.0162 1.0160
3184.575337 1.0160 1.0160 1.0160 1.0160 1.0160
3188.920804 1.0154 1.0144 1.0140 1.0140 1.0140
3193.266270 1.0140 1.0140 1.0140 1.0137 1.0132
3197.611737 1.0130 1.0130 1.0130 1.0130 1.0130
3201.957203 1.0130 1.0130 1.0130 1.0133 1.0138
3206.302670 1.0140 1.0140 1.0140 1.0140 1.0140
3210.648137 1.0140 1.0140 1.0140 1.0140 1.0140
3214.993603 1.0140 1.0140 1.0140 1.0140 1.0140
3219.339070 1.0140 1.0140 1.0140 1.0140 1.0140
3223.684536 1.0140 1.0140 1.0137 1.0133 1.0130
3228.030003 1.0130 1.0133 1.0137 1.0140 1.0140
3232.375469 1.0140 1.0140 1.0140 1.0140 1.0140
3236.720936 1.0140 1.0140 1.0140 1.0140 1.0140
3241.066403 1.0140 1.0140 1.0140 1.0140 1.0140
3245.411869 1.0140 1.0140 1.0140 1.0140 1.0140
3249.757336 1.0136 1.0126 1.0120 1.0120 1.0120
3254.102802 1.0120 1.0120 1.0120 1.0120 1.0120
3258.448269 1.0116 1.0106 1.0100 1.0100 1.0100
3262.793735 1.0100 1.0100 1.0100 1.0100 1.0100
3267.139202 1.0100 1.0100 1.0100 1.0100 1.0098
3271.484669 1.0093 1.0090 1.0090 1.0090 1.0090
3275.830135 1.0090 1.0090 1.0090 1.0090 1.0088
3280.175602 1.0083 1.0080 1.0080 1.0080 1.0080
3284.521068 1.0080 1.0080 1.0080 1.0080 1.0080
3288.866535 1.0080 1.0080 1.0080 1.0080 1.0080
3293.212001 1.0080 1.0080 1.0080 1.0080 1.0080
3297.557468 1.0080 1.0080 1.0080 1.0080 1.0080
3301.902934 1.0080 1.0080 1.0080 1.0080 1.0080
3306.248401 1.0080 1.0077 1.0067 1.0060 1.0060
3310.593868 1.0060 1.0060 1.0060 1.0060 1.0060
3314.939334 1.0060 1.0060 1.0060 1.0059 1.0054
3319.284801 1.0050 1.0050 1.0050 1.0050 1.0050
3323.630267 1.0050 1.0050 1.0050 1.0049 1.0044
3327.975734 1.0040 1.0040 1.0040 1.0040 1.0040
3332.321200 1.0040 1.0038 1.0028 1.0020 1.0020
3336.666667 1.0020 1.0020 1.0020 1.0020 1.0019
3341.012134 1.0014 1.0010 1.0010 1.0010 1.0010
3345.357600 1.0010 1.0010 1.0010 1.0010 1.0009
3349.703067 1.0004 1.0000 1.0000 1.0000 1.0000
3354.048533 1.0000 1.0000 1.0000 1.0000 1.0000
3358.394000 1.0000 1.0000 1.0000 1.0000 1.0000
3362.739466 1.0000 1.0000 1.0000 1.0000 1.0000
3367.084933 1.0000 1.0000 1.0000 1.0000 1.0000
3371.430400 1.0000 1.0000 1.0000 1.0000 1.0000
3375.775866 1.0000 1.0000 1.0000 1.0000 1.0000
3380.121333 1.0000 1.0000 1.0000 1.0000 1.0000
3384.466799 1.0000 1.0000 0.9990 0.9980 0.9980
3388.812266 0.9980 0.9980 0.9980 0.9980 0.9980
3393.157732 0.9980 0.9980 0.9980 0.9980 0.9980
3397.503199 0.9980 0.9980 0.9980 0.9980 0.9980
3401.848666 0.9980 0.9980 0.9980 0.9980 0.9980
3406.194132 0.9980 0.9980 0.9980 0.9980 0.9980
3410.539599 0.9980 0.9980 0.9980 0.9980 0.9980
3414.885065 0.9980 0.9980 0.9980 0.9980 0.9980
3419.230532 0.9980 0.9980 0.9980 0.9980 0.9980
3423.575998 0.9980 0.9980 0.9980 0.9980 0.9980
3427.921465 0.9980 0.9980 0.9980 0.9980 0.9980
3432.266932 0.9980 0.9980 0.9980 0.9980 0.9980
3436.612398 0.9989 0.9999 1.0000 1.0000 1.0000
3440.957865 1.0000 1.0000 1.0000 1.0004 1.0009
3445.303331 1.0010 1.0010 1.0010 1.0010 1.0010
3449.648798 1.0010 1.0006 1.0001 1.0004 1.0009
3453.994264 1.0010 1.0010 1.0010 1.0010 1.0010
3458.339731 1.0010 1.0010 1.0010 1.0010 1.0010
3462.685197 1.0010 1.0010 1.0010 1.0010 1.0010
3467.030664 1.0010 1.0010 1.0010 1.0014 1.0019
3471.376131 1.0020 1.0020 1.0016 1.0011 1.0010
3475.721597 1.0010 1.0010 1.0010 1.0014 1.0019
3480.067064 1.0016 1.0011 1.0010 1.0010 1.0010
3484.412530 1.0010 1.0010 1.0010 1.0010 1.0010
3488.757997 1.0010 1.0010 1.0010 1.0010 1.0010
3493.103463 1.0010 1.0010 1.0010 1.0010 1.0010
3497.448930 1.0010 1.0010 1.0010 1.0010 1.0010
3501.794397 1.0010 1.0010 1.0010 1.0010 1.0010
3506.139863 1.0010 1.0010 1.0014 1.0019 1.0020
3510.485330 1.0020 1.0020 1.0020 1.0020 1.0020
3514.830796 1.0020 1.0020 1.0027 1.0037 1.0040
3519.176263 1.0040 1.0040 1.0040 1.0040 1.0040
3523.521729 1.0040 1.0040 1.0040 1.0040 1.0043
3527.867196 1.0048 1.0050 1.0050 1.0050 1.0050
3532.212663 1.0050 1.0050 1.0050 1.0050 1.0050
3536.558129 1.0050 1.0050 1.0050 1.0050 1.0050
3540.903596 1.0050 1.0050 1.0050 1.0050 1.0050
3545.249062 1.0050 1.0050 1.0050 1.0050 1.0050
3549.594529 1.0050 1.0050 1.0047 1.0042 1.0040
3553.939995 1.0040 1.0040 1.0040 1.0040 1.0040
3558.285462 1.0040 1.0040 1.0040 1.0040 1.0040
3562.630929 1.0040 1.0035 1.0025 1.0020 1.0020
3566.976395 1.0020 1.0020 1.0020 1.0020 1.0020
3571.321862 1.0020 1.0020 1.0020 1.0020 1.0020
3575.667328 1.0020 1.0020 1.0017 1.0013 1.0010
3580.012795 1.0010 1.0010 1.0010 1.0010 1.0010
3584.358261 1.0010 1.0010 1.0010 1.0010 1.0010
3588.703728 1.0010 1.0008 1.0003 1.0002 1.0007
3593.049194 1.0012 1.0017 1.0018 1.0013 1.0010
3597.394661 1.0010 1.0010 1.0010 1.0010 1.0010
3601.740128 1.0010 1.0010 1.0010 1.0010 1.0008
3606.085594 1.0003 1.0000 1.0000 1.0000 1.0000
3610.431061 1.0000 1.0000 1.0000 1.0000 1.0000
3614.776527 1.0000 1.0000 1.0000 1.0000 1.0000
3619.121994 1.0000 1.0000 1.0000 1.0000 1.0002
3623.467460 1.0007 1.0010 1.0010 1.0010 1.0010
3627.812927 1.0010 1.0010 1.0010 1.0010 1.0010
3632.158394 1.0010 1.0010 1.0010 1.0010 1.0010
3636.503860 1.0010 1.0010 1.0010 1.0010 1.0010
3640.849327 1.0010 1.0010 1.0010 1.0010 1.0010
3645.194793 1.0010 1.0010 1.0010 1.0010 1.0010
3649.540260 1.0010 1.0010 1.0010 1.0010 1.0010
3653.885726 1.0010 1.0010 1.0010 1.0010 1.0010
3658.231193 1.0010 1.0010 1.0010 1.0010 1.0010
3662.576660 1.0010 1.0010 1.0010 1.0010 1.0010
3666.922126 1.0010 1.0009 1.0004 1.0000 1.0000
3671.267593 1.0000 1.0000 1.0000 1.0000 1.0000
3675.613059 1.0000 1.0000 1.0000 1.0000 1.0000
3679.958526 1.0000 1.0000 1.0000 1.0000 1.0000
3684.303992 1.0000 1.0000 1.0000 1.0000 1.0000
3688.649459 1.0000 1.0000 1.0000 1.0000 1.0000
3692.994926 1.0000 1.0000 1.0000 1.0000 1.0000
3697.340392 1.0000 1.0000 1.0000 1.0000 1.0000
3701.685859 1.0000 1.0000 1.0000 1.0000 1.0000
3706.031325 1.0000 1.0000 1.0000 1.0000 1.0000
3710.376792 1.0000 1.0000 1.0000 1.0000 1.0000
3714.722258 1.0000 1.0000 1.0000 1.0006 1.0010
3719.067725 1.0010 1.0010 1.0005 1.0000 1.0000
3723.413192 1.0000 1.0005 1.0010 1.0010 1.0010
3727.758658 1.0010 1.0010 1.0010 1.0010 1.0010
3732.104125 1.0010 1.0010 1.0010 1.0010 1.0010
3736.449591 1.0010 1.0010 1.0010 1.0010 1.0005
3740.795058 1.0000 1.0000 1.0000 1.0000 1.0000
3745.140524 1.0000 1.0000 1.0000 1.0000 0.9990
3749.485991 0.9980 0.9980 0.9980 0.9980 0.9980
3753.831457 0.9980 0.9980 0.9980 0.9980 0.9980
3758.176924 0.9980 0.9980 0.9980 0.9980 0.9980
3762.522391 0.9980 0.9980 0.9990 1.0000 1.0000
3766.867857 1.0000 0.9990 0.9980 0.9980 0.9980
3771.213324 0.9980 0.9980 0.9980 0.9980 0.9980
3775.558790 0.9980 0.9980 0.9980 0.9980 0.9980
3779.904257 0.9975 0.9970 0.9970 0.9970 0.9970
3784.249723 0.9970 0.9970 0.9970 0.9961 0.9951
3788.595190 0.9946 0.9941 0.9940 0.9940 0.9936
3792.940657 0.9931 0.9921 0.9911 0.9910 0.9910
3797.286123 0.9910 0.9910
##END=
