##TITLE=2-CHLOROPROPANE
##JCAMP-DX=4.24
##DATA TYPE=INFRARED SPECTRUM
##CLASS=COBLENTZ
##ORIGIN=W.T. BOLLETER
##OWNER=COBLENTZ SOCIETY
Collection (C) 2018 copyright by the U.S. Secretary of Commerce
on behalf of the United States of America. All rights reserved.
##DATE=Not specified, most likely prior to 1970
##CAS REGISTRY NO=75-29-6
##MOLFORM=C3 H7 Cl
##SOURCE REFERENCE=COBLENTZ NO. 4478
##$NIST SOURCE=COBLENTZ
##$NIST IMAGE=cob4478
##SPECTROMETER/DATA SYSTEM=Not specified, most likely a prism, grating, or hybrid spectrometer.
##PATH LENGTH=0.0025 CM
##SAMPLING PROCEDURE=TRANSMISSION
##RESOLUTION=4
##DATA PROCESSING=DIGITIZED BY NIST FROM HARD COPY
##XUNITS=MICROMETERS
##YUNITS=TRANSMITTANCE
##XFACTOR=1.000000
##YFACTOR=1
##DELTAX=000.017570
##FIRSTX=14.51
##LASTX=38.0352
##FIRSTY=0.401
##MAXX=38.0352
##MINX=14.51
##MAXY=0.883
##MINY=0.03
##NPOINTS=1340
##XYDATA=(X++(Y..Y))
14.510000 0.4010 0.4000 0.4000 0.3980 0.3910
14.597913 0.3890 0.3800 0.3760 0.3690 0.3660
14.685000 0.3580 0.3510 0.3480 0.3410 0.3370
14.772913 0.3350 0.3330 0.3300 0.3280 0.3260
14.861000 0.3260 0.3280 0.3300 0.3300 0.3300
14.948913 0.3280 0.3280 0.3260 0.3260 0.3230
15.037000 0.3210 0.3190 0.3160 0.3100 0.3030
15.124913 0.3010 0.3000 0.2920 0.2850 0.2800
15.212000 0.2730 0.2690 0.2660 0.2640 0.2600
15.299913 0.2570 0.2510 0.2500 0.2420 0.2370
15.388000 0.2320 0.2260 0.2190 0.2140 0.2030
15.475913 0.2010 0.1980 0.1870 0.1760 0.1690
15.564000 0.1570 0.1510 0.1420 0.1250 0.1120
15.651913 0.1030 0.1010 0.0980 0.0960 0.0940
15.739000 0.0800 0.0640 0.0530 0.0510 0.0480
15.826913 0.0480 0.0460 0.0460 0.0440 0.0410
15.915000 0.0390 0.0370 0.0350 0.0350 0.0330
16.002913 0.0330 0.0330 0.0320 0.0320 0.0320
16.091000 0.0320 0.0320 0.0320 0.0320 0.0320
16.178913 0.0320 0.0320 0.0320 0.0320 0.0320
16.266000 0.0300 0.0300 0.0300 0.0300 0.0300
16.353913 0.0300 0.0300 0.0300 0.0300 0.0300
16.442000 0.0300 0.0300 0.0300 0.0300 0.0300
16.529913 0.0300 0.0300 0.0300 0.0300 0.0320
16.618000 0.0320 0.0320 0.0330 0.0350 0.0370
16.705913 0.0390 0.0390 0.0410 0.0410 0.0440
16.794000 0.0510 0.0510 0.0550 0.0600 0.0620
16.881913 0.0670 0.0780 0.0890 0.1010 0.1120
16.969000 0.1170 0.1230 0.1300 0.1440 0.1570
17.056913 0.1710 0.1820 0.1940 0.2160 0.2210
17.145000 0.2300 0.2480 0.2530 0.2600 0.2690
17.232913 0.2760 0.2830 0.2980 0.3030 0.3120
17.321000 0.3190 0.3250 0.3300 0.3330 0.3370
17.408913 0.3480 0.3530 0.3620 0.3690 0.3760
17.496000 0.3800 0.3850 0.3910 0.3960 0.4010
17.583913 0.4070 0.4100 0.4120 0.4140 0.4170
17.672000 0.4190 0.4250 0.4280 0.4320 0.4350
17.759913 0.4390 0.4440 0.4460 0.4480 0.4500
17.848000 0.4510 0.4530 0.4550 0.4570 0.4600
17.935913 0.4620 0.4640 0.4670 0.4690 0.4730
18.023000 0.4750 0.4760 0.4760 0.4780 0.4780
18.110913 0.4780 0.4800 0.4800 0.4800 0.4820
18.199000 0.4820 0.4830 0.4830 0.4850 0.4850
18.286913 0.4870 0.4870 0.4890 0.4910 0.4910
18.375000 0.4920 0.4920 0.4920 0.4940 0.4940
18.462913 0.4940 0.4960 0.4980 0.5000 0.5000
18.551000 0.5010 0.5010 0.5030 0.5050 0.5070
18.638913 0.5070 0.5080 0.5100 0.5120 0.5120
18.726000 0.5140 0.5140 0.5160 0.5160 0.5160
18.813913 0.5160 0.5160 0.5160 0.5160 0.5160
18.902000 0.5160 0.5170 0.5170 0.5190 0.5190
18.989913 0.5190 0.5210 0.5210 0.5230 0.5230
19.078000 0.5250 0.5250 0.5250 0.5260 0.5260
19.165913 0.5260 0.5260 0.5260 0.5260 0.5260
19.253000 0.5280 0.5280 0.5280 0.5280 0.5280
19.340913 0.5280 0.5280 0.5280 0.5280 0.5280
19.429000 0.5280 0.5280 0.5280 0.5280 0.5280
19.516913 0.5280 0.5280 0.5280 0.5260 0.5260
19.605000 0.5260 0.5260 0.5260 0.5260 0.5260
19.692913 0.5250 0.5250 0.5250 0.5230 0.5230
19.780000 0.5230 0.5230 0.5210 0.5210 0.5210
19.867913 0.5190 0.5190 0.5190 0.5190 0.5190
19.956000 0.5210 0.5210 0.5210 0.5210 0.5190
20.043913 0.5190 0.5190 0.5190 0.5170 0.5170
20.132000 0.5170 0.5170 0.5160 0.5160 0.5140
20.219913 0.5140 0.5120 0.5120 0.5120 0.5100
20.307000 0.5100 0.5100 0.5100 0.5100 0.5080
20.394913 0.5070 0.5070 0.5070 0.5050 0.5050
20.483000 0.5050 0.5030 0.5030 0.5030 0.5030
20.570913 0.5030 0.5030 0.5030 0.5030 0.5030
20.659000 0.5030 0.5030 0.5030 0.5030 0.5030
20.746913 0.5010 0.5010 0.5010 0.5010 0.5000
20.835000 0.5000 0.5000 0.4980 0.4980 0.4960
20.922913 0.4960 0.4960 0.4960 0.4960 0.4960
21.010000 0.4960 0.4960 0.4960 0.4960 0.4940
21.097913 0.4940 0.4920 0.4920 0.4920 0.4920
21.186000 0.4910 0.4910 0.4890 0.4890 0.4890
21.273913 0.4890 0.4890 0.4890 0.4890 0.4890
21.362000 0.4890 0.4890 0.4890 0.4890 0.4890
21.449913 0.4890 0.4890 0.4890 0.4890 0.4890
21.537000 0.4890 0.4890 0.4890 0.4890 0.4870
21.624913 0.4870 0.4870 0.4850 0.4850 0.4830
21.713000 0.4830 0.4820 0.4820 0.4800 0.4780
21.800913 0.4780 0.4780 0.4760 0.4750 0.4750
21.889000 0.4730 0.4710 0.4710 0.4690 0.4670
21.976913 0.4660 0.4620 0.4600 0.4580 0.4570
22.064000 0.4550 0.4510 0.4510 0.4500 0.4500
22.151913 0.4480 0.4480 0.4460 0.4440 0.4410
22.240000 0.4390 0.4370 0.4330 0.4320 0.4320
22.327913 0.4320 0.4300 0.4300 0.4300 0.4300
22.416000 0.4280 0.4260 0.4260 0.4250 0.4210
22.503913 0.4190 0.4160 0.4160 0.4140 0.4120
22.592000 0.4100 0.4030 0.4010 0.4010 0.4000
22.679913 0.4000 0.3980 0.3980 0.3920 0.3870
22.767000 0.3850 0.3800 0.3750 0.3690 0.3660
22.854913 0.3640 0.3620 0.3580 0.3510 0.3500
22.943000 0.3410 0.3370 0.3300 0.3210 0.3100
23.030913 0.3010 0.3000 0.2980 0.2910 0.2830
23.119000 0.2780 0.2670 0.2580 0.2480 0.2370
23.206913 0.2300 0.2210 0.2140 0.2070 0.2010
23.294000 0.1960 0.1820 0.1730 0.1600 0.1530
23.381913 0.1510 0.1480 0.1370 0.1300 0.1190
23.470000 0.1160 0.1120 0.1100 0.1080 0.1030
23.557913 0.1010 0.1000 0.0980 0.0980 0.0960
23.646000 0.0960 0.0980 0.0980 0.1000 0.1010
23.733913 0.1050 0.1080 0.1100 0.1160 0.1210
23.821000 0.1250 0.1350 0.1480 0.1510 0.1640
23.908913 0.1730 0.1850 0.2050 0.2170 0.2280
23.997000 0.2330 0.2460 0.2600 0.2670 0.2710
24.084913 0.2800 0.2870 0.3010 0.3100 0.3170
24.173000 0.3230 0.3300 0.3370 0.3480 0.3500
24.260913 0.3510 0.3600 0.3660 0.3730 0.3760
24.348000 0.3800 0.3850 0.3910 0.3920 0.3960
24.435913 0.4010 0.4030 0.4070 0.4100 0.4160
24.524000 0.4210 0.4260 0.4300 0.4320 0.4330
24.611913 0.4370 0.4390 0.4410 0.4410 0.4420
24.700000 0.4480 0.4500 0.4510 0.4510 0.4530
24.787913 0.4530 0.4570 0.4600 0.4670 0.4710
24.876000 0.4750 0.4750 0.4780 0.4800 0.4800
24.963913 0.4820 0.4830 0.4850 0.4850 0.4850
25.051000 0.4850 0.4870 0.4870 0.4890 0.4910
25.138913 0.4910 0.4920 0.4920 0.4920 0.4920
25.227000 0.4920 0.4920 0.4940 0.4940 0.4940
25.314913 0.4940 0.4960 0.4980 0.4980 0.5000
25.403000 0.5000 0.5010 0.5030 0.5030 0.5050
25.490913 0.5050 0.5030 0.5030 0.5010 0.5010
25.578000 0.5010 0.5000 0.4980 0.4980 0.5000
25.665913 0.5000 0.5010 0.5030 0.5030 0.5050
25.754000 0.5050 0.5050 0.5050 0.5050 0.5030
25.841913 0.5030 0.5030 0.5050 0.5070 0.5080
25.930000 0.5080 0.5120 0.5140 0.5140 0.5160
26.017913 0.5160 0.5160 0.5170 0.5170 0.5170
26.105000 0.5190 0.5190 0.5190 0.5190 0.5190
26.192913 0.5190 0.5210 0.5230 0.5230 0.5250
26.281000 0.5260 0.5300 0.5300 0.5300 0.5320
26.368913 0.5320 0.5320 0.5320 0.5320 0.5320
26.457000 0.5320 0.5320 0.5320 0.5330 0.5330
26.544913 0.5330 0.5350 0.5350 0.5350 0.5370
26.633000 0.5370 0.5370 0.5390 0.5410 0.5410
26.720913 0.5410 0.5410 0.5410 0.5410 0.5410
26.808000 0.5420 0.5420 0.5440 0.5440 0.5440
26.895913 0.5460 0.5460 0.5460 0.5460 0.5480
26.984000 0.5480 0.5480 0.5480 0.5480 0.5480
27.071913 0.5480 0.5500 0.5500 0.5500 0.5500
27.160000 0.5500 0.5510 0.5530 0.5530 0.5530
27.247913 0.5530 0.5550 0.5550 0.5550 0.5550
27.335000 0.5570 0.5580 0.5580 0.5580 0.5600
27.422913 0.5600 0.5600 0.5600 0.5600 0.5580
27.511000 0.5580 0.5600 0.5600 0.5600 0.5600
27.598913 0.5600 0.5600 0.5620 0.5620 0.5620
27.687000 0.5620 0.5620 0.5620 0.5600 0.5580
27.774913 0.5580 0.5580 0.5580 0.5580 0.5570
27.862000 0.5570 0.5570 0.5570 0.5570 0.5570
27.949913 0.5550 0.5550 0.5550 0.5530 0.5510
28.038000 0.5510 0.5510 0.5500 0.5500 0.5500
28.125913 0.5480 0.5460 0.5460 0.5440 0.5420
28.214000 0.5410 0.5350 0.5330 0.5320 0.5300
28.301913 0.5300 0.5260 0.5230 0.5190 0.5160
28.389000 0.5120 0.5070 0.5030 0.5010 0.5000
28.476913 0.5000 0.4980 0.4980 0.4920 0.4890
28.565000 0.4830 0.4780 0.4730 0.4660 0.4570
28.652913 0.4500 0.4480 0.4320 0.4230 0.4160
28.741000 0.4100 0.4030 0.4010 0.4000 0.3980
28.828913 0.3850 0.3780 0.3730 0.3670 0.3600
28.917000 0.3530 0.3500 0.3440 0.3390 0.3260
29.004913 0.3160 0.3050 0.3000 0.2850 0.2780
29.092000 0.2670 0.2580 0.2510 0.2410 0.2320
29.179913 0.2230 0.2190 0.2160 0.2100 0.2010
29.268000 0.1960 0.1910 0.1820 0.1760 0.1670
29.355913 0.1600 0.1550 0.1530 0.1510 0.1500
29.444000 0.1460 0.1420 0.1370 0.1350 0.1260
29.531913 0.1190 0.1140 0.1100 0.1050 0.1030
29.619000 0.1010 0.1000 0.0960 0.0940 0.0920
29.706913 0.0920 0.0920 0.0910 0.0910 0.0890
29.795000 0.0890 0.0890 0.0890 0.0890 0.0890
29.882913 0.0890 0.0890 0.0890 0.0910 0.0910
29.971000 0.0910 0.0920 0.0920 0.0940 0.0940
30.058913 0.0940 0.0960 0.0960 0.0980 0.0980
30.146000 0.1000 0.1000 0.1010 0.1010 0.1030
30.233913 0.1030 0.1070 0.1080 0.1080 0.1080
30.322000 0.1100 0.1100 0.1100 0.1120 0.1120
30.409913 0.1120 0.1120 0.1120 0.1120 0.1120
30.498000 0.1120 0.1120 0.1120 0.1120 0.1120
30.585913 0.1120 0.1120 0.1120 0.1120 0.1120
30.674000 0.1120 0.1120 0.1120 0.1120 0.1120
30.761913 0.1120 0.1120 0.1120 0.1140 0.1140
30.849000 0.1160 0.1160 0.1170 0.1190 0.1210
30.936913 0.1210 0.1230 0.1250 0.1260 0.1280
31.025000 0.1300 0.1320 0.1350 0.1390 0.1420
31.112913 0.1460 0.1500 0.1530 0.1550 0.1580
31.201000 0.1660 0.1780 0.1850 0.1910 0.2010
31.288913 0.2080 0.2140 0.2230 0.2320 0.2480
31.376000 0.2510 0.2640 0.2750 0.2850 0.3010
31.463913 0.3030 0.3170 0.3350 0.3510 0.3550
31.552000 0.3660 0.3710 0.3800 0.3890 0.4030
31.639913 0.4100 0.4210 0.4280 0.4330 0.4390
31.728000 0.4480 0.4500 0.4510 0.4530 0.4570
31.815913 0.4600 0.4660 0.4690 0.4760 0.4800
31.903000 0.4820 0.4870 0.4920 0.5000 0.5050
31.990913 0.5100 0.5170 0.5230 0.5260 0.5280
32.079000 0.5320 0.5330 0.5390 0.5440 0.5480
32.166913 0.5500 0.5510 0.5580 0.5660 0.5670
32.255000 0.5730 0.5780 0.5800 0.5830 0.5870
32.342913 0.5910 0.5920 0.5940 0.5980 0.6010
32.430000 0.6030 0.6050 0.6070 0.6120 0.6190
32.517913 0.6250 0.6280 0.6300 0.6320 0.6370
32.606000 0.6410 0.6440 0.6480 0.6500 0.6510
32.693913 0.6580 0.6620 0.6640 0.6660 0.6690
32.782000 0.6750 0.6800 0.6850 0.6980 0.7000
32.869913 0.7070 0.7120 0.7190 0.7230 0.7250
32.958000 0.7260 0.7280 0.7280 0.7280 0.7280
33.045913 0.7280 0.7280 0.7280 0.7280 0.7280
33.133000 0.7280 0.7260 0.7260 0.7260 0.7260
33.220913 0.7280 0.7280 0.7280 0.7300 0.7330
33.309000 0.7330 0.7350 0.7350 0.7350 0.7370
33.396913 0.7460 0.7480 0.7510 0.7530 0.7570
33.485000 0.7600 0.7660 0.7690 0.7750 0.7780
33.572913 0.7830 0.7870 0.7890 0.7920 0.7920
33.660000 0.7960 0.8080 0.8120 0.8160 0.8190
33.747913 0.8250 0.8280 0.8300 0.8320 0.8320
33.836000 0.8320 0.8330 0.8350 0.8370 0.8390
33.923913 0.8410 0.8410 0.8420 0.8420 0.8440
34.012000 0.8460 0.8460 0.8480 0.8500 0.8510
34.099913 0.8570 0.8580 0.8600 0.8620 0.8620
34.187000 0.8640 0.8660 0.8670 0.8710 0.8730
34.274913 0.8750 0.8750 0.8760 0.8780 0.8800
34.363000 0.8800 0.8800 0.8820 0.8820 0.8830
34.450913 0.8830 0.8830 0.8830 0.8830 0.8830
34.539000 0.8820 0.8820 0.8800 0.8800 0.8800
34.626913 0.8800 0.8780 0.8780 0.8800 0.8800
34.714000 0.8780 0.8760 0.8760 0.8760 0.8750
34.801913 0.8750 0.8730 0.8730 0.8750 0.8780
34.890000 0.8780 0.8800 0.8800 0.8800 0.8780
34.977913 0.8760 0.8750 0.8730 0.8710 0.8710
35.066000 0.8710 0.8710 0.8730 0.8730 0.8730
35.153913 0.8710 0.8710 0.8710 0.8710 0.8710
35.242000 0.8710 0.8710 0.8710 0.8710 0.8730
35.329913 0.8730 0.8750 0.8750 0.8730 0.8710
35.417000 0.8690 0.8690 0.8690 0.8690 0.8690
35.504913 0.8690 0.8670 0.8670 0.8690 0.8710
35.593000 0.8710 0.8730 0.8730 0.8730 0.8730
35.680913 0.8750 0.8750 0.8750 0.8750 0.8750
35.769000 0.8750 0.8750 0.8750 0.8750 0.8750
35.856913 0.8730 0.8730 0.8730 0.8710 0.8710
35.944000 0.8690 0.8690 0.8690 0.8690 0.8690
36.031913 0.8690 0.8710 0.8710 0.8710 0.8710
36.120000 0.8690 0.8690 0.8690 0.8690 0.8690
36.207913 0.8670 0.8670 0.8660 0.8660 0.8670
36.296000 0.8670 0.8670 0.8670 0.8670 0.8690
36.383913 0.8690 0.8690 0.8690 0.8690 0.8690
36.471000 0.8710 0.8690 0.8670 0.8670 0.8670
36.558913 0.8690 0.8670 0.8670 0.8660 0.8640
36.647000 0.8640 0.8620 0.8620 0.8620 0.8620
36.734913 0.8640 0.8640 0.8640 0.8660 0.8670
36.823000 0.8670 0.8660 0.8660 0.8660 0.8660
36.910913 0.8640 0.8640 0.8640 0.8640 0.8640
36.999000 0.8640 0.8640 0.8620 0.8620 0.8620
37.086913 0.8600 0.8600 0.8600 0.8580 0.8580
37.174000 0.8600 0.8620 0.8620 0.8620 0.8620
37.261913 0.8620 0.8620 0.8600 0.8600 0.8600
37.350000 0.8600 0.8600 0.8600 0.8600 0.8600
37.437913 0.8580 0.8600 0.8600 0.8600 0.8580
37.526000 0.8580 0.8580 0.8580 0.8570 0.8550
37.613913 0.8550 0.8530 0.8510 0.8510 0.8510
37.701000 0.8510 0.8510 0.8510 0.8530 0.8530
37.788913 0.8530 0.8530 0.8510 0.8510 0.8510
37.877000 0.8510 0.8510 0.8530 0.8530 0.8530
37.964913 0.8510 0.8510 0.8530 0.8530 0.8530
##END=
