##TITLE=Ethylene Oxide
##JCAMP-DX=4.24
##DATA TYPE=INFRARED SPECTRUM
##CLASS=IUPAC A
##ORIGIN=NIST, Anayltical Chemistry Division, 301-975-3108
##OWNER=COPYRIGHT (C) 1998 by the U.S. Secretary of Commerce
##DATE=98/10/1
##$SPECTRA VERSION=1.00
##$UNCERTAINTY IN Y=2.1 % relative (B=1.1E-04,C=1.2E-09,D=2.7E-14)
##CAS NAME=1,2-Epoxyethane
##CAS REGISTRY NO=75-21-8
##MOLFORM=C2 H4 O
##MP=-111 C
##BP=13.5 C
##$NIST SOURCE=QUANT-IR
##SPECTROMETER/DATA SYSTEM=IFS66V (Bruker)
##INSTRUMENT PARAMETERS=KBr Beam splitter; MCT Detector; Multipass cell
##STATE=gas
##SAMPLE DESCRIPTION=Ethylene Oxide Primary Gas Standard
##PRESSURE=101.3 kPa
##TEMPERATURE=23 C
##SAMPLING PROCEDURE=1 L/min Flow
##RESOLUTION=0.9640
##DATA PROCESSING=Boxcar Apodization
##XUNITS=cm-1
##YUNITS=(micromol/mol)-1m-1 (base 10)
##XFACTOR=1.0
##YFACTOR=18.189E-13
##DELTAX=0.4820
##FIRSTX=575.169
##LASTX=3975.077
##FIRSTY=-8.16E-07
##MAXX=3974.59
##MINX=575.17
##MAXY=.002571
##MINY=-.0000154
##NPOINTS=7053
##XYDATA=(X++(Y..Y))
575.17-448652-26456 120716-285346 140428-63804
577.58 318766-382586-623868-238840-213862-358198
580.47-145462 266560-384106-355098 112348-295950
583.37-35352-47456-534986 155770-258166 48498
586.26-251708-320394-194386-41270-163452 30378
589.15-85790-78172-16208-278044 61968 94170
592.04-201426 10468-181346 161862-186220-211906
594.94-233408-327658-368810 159746-1406-220262
597.83-376010-154350-367770-106610-179946-171328
600.72 68940 55068-73504-81496-61578 58664
603.61-257514-197098-64186 4672-338886-151748
606.51-290374-259838-261338-4316-120236-273210
609.40-73482-126282-120872-118126-81122-100492
612.29-247110 31120-16280-96914-84768-170174
615.18-186854-87550-115660-102422-280154-73038
618.08-39498-244288 38850-72026-239602 27012
620.97-62504-150542-35976-89760-221644 18746
623.86-195596-42038-117252-85404-128494-185416
626.76 18614-133854-138828-235136-30734-142370
629.65-291402-52500-129132-9488-110882-215268
632.54-126606-193626-108800-65822-66846-131898
635.43-297870 666-3786-105712-112174-174178
638.33-122734-172886-145166 39926-112954 45526
641.22-66982-66582-144078-93560-236060-30606
644.11-133810-82660-167280-77926-243982-147274
647.00-89554-174228-154882-73072-178168-18654
649.90-51798-80114-147662-102518-200770-36544
652.79-141248-75354-203066-85680-65274 48770
655.68-187582-115736-123256-13746-136658-162222
658.58-20064-105766-208406-43382-78398-80622
661.47-162152-45540 27144-51494-60280-115312
664.36-174178-9224-117540-197182-160896-109718
667.25-210514-51698-65286-101716-85216-15970
670.15-150240-31238-165226-43240-137746-50628
673.04-23876-169132-42232-157226-98932 11092
675.93-187888-64022-70786 20358-43282-69576
678.82-103456-62660-127318-83706-59182-7688
681.72 3348-11182-39518-39210-124316-55616
684.61-38016-107670-196040-85400-30916-181304
687.50-54892-44700-119514-31610-85958-96484
690.40 8656-91320-107724-161014-47814-57190
693.29-154078-106636-122382-121166-56622-213116
696.18-53374-165816-115616 13050-80406-187224
699.07-4454-202148-192740 19992-113998-39364
701.97-87350-91484-130926 50920-104032-29670
704.86-175668-164302-182578-157018-136180-67384
707.75-61348-48938-178458-72322-88148-152210
710.64-116202-139704-89782-67920-97488 13324
713.54-115932-80248-144716-94416-130148-96104
716.43-166454-161410-77622-64000-133428-51800
719.32-52706-141400-8304-63760-97462 35246
722.22-155408 15298-97146-113018-95130-72586
725.11-141816-132234-161300-105594-82894 19298
728.00-164056-5520-89854-102772-70786-11336
730.89-88428-14620-21650-10984-42290 45018
733.79-70788-27310-79250 39226-35116-17844
736.68-51182 5696-81496-332-46128 8234
739.57-21146 29690-7332 35808 21024-4570
742.46 23186 51838 12944 109082 22226 24062
745.36 9984 60002 39690 39340 44168 113300
748.25 117720 85270 41830 111834 57884 142586
751.14 34450 118802 47972 212462 99768 268972
754.04 104626 209140 150876 134076 166378 194822
756.93 244904 251522 194732 225114 130910 332758
759.82 247720 242314 190144 284852 237912 347110
762.71 334694 390920 377600 435298 360822 483410
765.61 385062 441150 462252 637028 422906 529892
768.50 456446 640694 528196 742780 671474 641008
771.39 649506 768236 659722 889054 869808 914824
774.28 924910 932262 921268 1357502 1033802 1028070
777.18 1418636 1179716 1118836 1744180 1275916 1559764
780.07 1816892 1310408 1817728 2282906 1404860 2109030
782.96 2248434 1656462 2522970 2603740 1844120 2972244
785.86 2525988 2584652 3273412 2946148 3076618 3432058
788.75 3299946 3360792 4023566 3902046 3716058 4298570
791.64 4109172 4165496 4863504 4573300 4662414 5782934
794.53 5129894 4682580 6552298 4978302 5850602 7069636
797.43 5312304 6600224 6908092 5753302 7224386 7960946
800.32 6092036 7688790 8057660 6728242 8205652 8738566
803.21 6840868 8339162 9062536 7656248 9193088 9479338
806.10 8212818 11238720 12786290 12726890 13453830 13214820
809.00 11511230 14197660 12143210 13343530 13328980 13454350
811.89 12467610 14096420 12597430 14810120 14584300 15178090
814.78 15112050 16049110 15012400 14783490 13014220 12643740
817.68 12262460 15722180 21517400 28872710 33928650 37777790
820.57 42148510 43241650 29311980 11985150 9693736 8756928
823.46 9051688 9482732 11032990 11083810 12174800 13864830
826.35 13498370 14227010 16124930 15637140 17633680 20963340
829.25 20506830 21032980 26306030 26757920 26819880 35908660
832.14 32836860 33546790 43644590 40641380 45642730 49181050
835.03 50853890 55895190 55788930 61348950 66139040 63439920
837.92 69676660 74089970 70140760 72026310 70924660 69093340
840.82 64046100 68114420 66370030 62857160 66421640 66908640
843.71 61449180 63849970 69456250 67809800 64081470 67923940
846.60 71973290 68843350 73731370 76871390 72495460 76868590
849.50 81301540 81714580 83547630 83774260 89823000 89985730
852.39 87346170 93755180 96830000 97131830 94293690 102382300
855.28 98228860 97842900 104993900 104817400 99009790 96977900
858.17 106040600 100913200 91986620 103168200 99337310 85183620
861.07 94009790 93565260 81411940 81754640 86972700 80868540
863.96 74861060 84468350 85995980 77923200 82683690 92881770
866.85 89035580 91501070 103166700 107878400 113120600 125221000
869.74 134012000 139111300 145104900 152079800 153480300 146702600
872.64 142748400 125485300 110930900 88234060 66222820 44258590
875.53 26741040 16792170 18817570 27958740 49302070 66744080
878.42 92241830 98739610 109631700 109679200 108724900 115458200
881.31 110956900 108042300 103717100 101681700 95734610 91551620
884.21 82948420 89325930 74647190 75687180 83276400 71023940
887.10 71554740 70519760 76254880 65277570 67682750 78132550
889.99 65614480 68340520 69567670 73579580 67867540 62215250
892.89 82277720 65101020 65946670 77817750 64799360 70184340
895.78 71609940 65904400 79474420 60137620 68145540 75960480
898.67 61805890 68956070 70522880 62875530 70193930 58526520
901.56 65112280 73000500 51549050 64989290 66920800 50090600
904.46 61142750 62904110 53206030 56422980 50996120 55252630
907.35 55648420 43589460 52969990 52772710 39453200 49233520
910.24 47057230 37214990 46597820 40925720 37521150 42318830
913.13 31607110 36684820 40585680 26975560 33515480 35911880
916.03 25183810 29681520 30082730 23692090 28836470 24031290
918.92 22131800 25829910 18149660 21539550 24244900 15513540
921.81 17691660 20359680 14397950 16360780 16478020 12922290
924.71 14886520 13259180 11117170 13429190 11234960 8907004
927.60 12165210 9369430 7287284 10953800 8135886 6208838
930.49 8810640 6185964 6270682 7444284 4715836 6072046
933.38 5775298 3462460 5816868 4548022 3052150 4827608
936.28 3527352 3005434 3779706 2835014 2877518 2769000
939.17 2241406 2498814 2368590 1865298 2067394 2023788
942.06 1485360 1497246 1780432 1164528 1348228 1422572
944.95 949632 1151814 1046142 695798 1142050 734470
947.85 686574 871254 430380 631090 723824 391928
950.74 654178 435146 259522 486642 305462 357174
953.63 371262 158752 316918 233038 120130 229568
956.53 138826 165118 186556 99022 183030 109634
959.42 68234 123492 44998 56806 81900 29840
962.31 110586 40698 18144-3582 8292 6582
965.20-20260-28498-24774-39792-17544 43718
968.10-72798-10600 7134-50902-38978-55228
970.99-88776-69412-72008-44844-20478-27810
973.88-25040-79802-61792-61152-32320-89526
976.77-43638-50724-8856-88372-36028-91932
979.67-47724-100478-76984-70400-101762-50310
982.56-120254-58002-72744-55506-38466-93916
985.45-83632-54700-88168-48400-93986-63746
988.35-94722-137070-75584-105144-66638-106616
991.24-77424-81300-83780-64668-103914-88064
994.13-86514-51856-106734-87902-58680-88534
997.02-70990-97578-118378-89318-115762-80230
999.92-63132-63312-74512-96974-71730-113064
1002.81-106100-81160-82892-81408-105374-56674
1005.70-72540-88108-121882-107596-89342-85862
1008.59-63394-39648-62600-83702-114654-50444
1011.49-54742-49764-58534-50856-102164-90644
1014.38-80460-44654-94822-49432-87278-96146
1017.27-86652-30372-93974-36534-103002-98632
1020.17-62974-66996-100806-50078-75652-75680
1023.06-92210-66666-56110-49800-47084-74716
1025.95-63438-41434-64132-46424-43606-3436
1028.84-3294 295660 211306 49734 43270-60282
1031.74-30404-47034-42088-14806-48704-18956
1034.63-26922-50008-2950-53452-41420-32216
1037.52-25516-1788-45278-40028-5664 9694
1040.41 31682 33598 20482-38602 58192 51586
1043.31 21034 12476 38348 58220 61500 56980
1046.20 23390 28572 51274 33496 44174 155138
1049.09 66122 99298 57198 52004 88498 106876
1051.99 65066 136826 71716 114732 75976 143168
1054.88 181204 126402 216040 192840 213410 130238
1057.77 83216 310692 115032 166154 209710 185060
1060.66 268696 199216 301100 255744 236320 386568
1063.56 271328 282960 256304 318496 514850 352776
1066.45 344068 359392 377642 520802 250694 438060
1069.34 430304 438284 476498 380798 584098 501588
1072.23 436720 608292 352372 656598 457706 562748
1075.13 636536 522734 675352 495348 749398 685564
1078.02 548776 839634 450956 920640 709870 672528
1080.91 752428 600768 1108618 706770 908766 714462
1083.81 803220 1121718 626706 1086404 730722 1106734
1086.70 970382 845608 1212638 722318 1208832 855822
1089.59 1096758 1041378 891318 1396876 724154 1293486
1092.48 938756 1349492 1100062 1104332 1327834 864314
1095.38 1471998 1172450 1369266 1037162 1461230 1470718
1098.27 1031846 1332554 1365218 1669894 1119424 1560240
1101.16 1530706 1485232 1287730 1807078 1720068 1470506
1104.05 1678678 1834092 1866040 1379354 2006638 2150638
1106.95 1904292 1782736 2214822 2279432 1938354 2012442
1109.84 2482660 2436948 2410022 2250208 2664168 2764038
1112.73 2468438 2584018 3028426 3121340 2655210 2864106
1115.63 3304880 3252320 2843972 3027668 3766702 3240854
1118.52 2974972 3320660 3666554 3496016 3100826 3486850
1121.41 3703802 3586034 2826850 3527906 3885682 3008830
1124.30 3127212 4157492 3587600 3785974 4504494 3949120
1127.20 3633476 4628300 3935048 3943852 4555430 4437024
1130.09 4191536 5127926 5247644 4736034 5458974 5389200
1132.98 5067516 6159300 5850974 5099586 5812218 5496018
1135.87 4826304 5296630 4858702 3396540 3542304 3789734
1138.77 3064912 3733438 3473542 4313998 6660530 12946400
1141.66 12926680 10431580 10758870 9348830 9057532 9101110
1144.55 8534254 7298222 6870998 5429176 3834120 2265796
1147.45 1950886 2034040 1879644 3108678 6475452 9308402
1150.34 11524750 9009662 7552252 6497368 5929970 5774628
1153.23 5811092 6064578 6104194 5357656 5335302 4917784
1156.12 3934066 3512978 3657594 2725256 2686016 3004196
1159.02 2749194 2405858 2781000 2898718 3075160 3116804
1161.91 3741700 3612070 3927852 4027260 4362128 4255080
1164.80 4732618 5010706 4902468 4473258 5244532 5145952
1167.69 4598906 4927620 5554340 4882358 4747558 4464858
1170.59 5326692 4555076 4084346 4925948 4748102 3823852
1173.48 4308860 4166880 4098588 3620034 4021362 4355012
1176.37 3177116 3247486 4296668 3096126 2934666 3650004
1179.26 3616706 2916564 2634850 3219172 3499954 2502456
1182.16 2489700 3411358 2883940 2155074 2607692 2858798
1185.05 2690704 2507508 2026210 2721050 2585416 2127758
1187.94 1852374 2915506 2397304 1725218 1755726 2707586
1190.84 2114934 1624380 1983094 2369246 2008946 1597810
1193.73 1683106 2175004 1997488 1489912 1517418 1969370
1196.62 1869342 1292238 1635844 1797298 1745718 1431958
1199.51 1388970 1488096 1551554 1538328 1404902 1395230
1202.41 1497182 1535868 1170148 1327308 1431944 1555202
1205.30 1248402 1318046 1246060 1519498 1200410 1422000
1208.19 1221410 1397002 1392910 1342176 1288374 1460710
1211.08 1529076 1440506 1296164 1508916 1647088 1510206
1213.98 1534006 1723360 1580616 1746772 1805026 1855672
1216.87 1760668 2033916 2084078 2136480 2014270 2563704
1219.76 2366348 2353252 2686172 2892164 2647000 2936172
1222.66 3223710 3382652 3086306 3624500 3731122 3925280
1225.55 4057058 4285244 4476376 4316266 5010568 5409104
1228.44 5192486 5328190 5815864 6429938 5666662 6736570
1231.33 6877916 7395988 6833872 8017532 8042016 7745688
1234.23 8482058 10002180 8513228 9003378 10302640 10586200
1237.12 9850042 10594210 12030670 10877330 11601630 12316520
1240.01 12830670 11409810 13741930 13972730 12753540 13561170
1242.90 14346170 14648270 14037190 15387220 14634940 15720730
1245.80 14181350 16810960 15313800 16646290 14571700 18021880
1248.69 15006520 16598950 16194810 17894660 15476740 16515960
1251.58 16380350 17807840 14601980 17378740 17227740 14810120
1254.48 15627740 17461510 15184590 14888230 16412620 16336360
1257.37 15022200 15329320 17514050 16001360 16383420 18131060
1260.26 19001510 17216640 19794650 20007410 20814720 21357860
1263.15 23722930 23238030 25336630 24367330 26985510 25225690
1266.05 25015820 24109450 21282850 18831170 15008810 10750210
1268.94 7269462 3980372 3677636 4322300 8246568 12089110
1271.83 17372080 21352130 24107760 26996420 26469420 27903140
1274.72 27176880 26176760 25499990 23987170 23740180 21299850
1277.62 20389710 19892120 18820790 17023760 18371950 17873240
1280.51 15923240 16414620 17480290 15790400 15777720 17174120
1283.40 17334750 15471140 16425650 18377590 16235610 15729680
1286.30 19123960 17077610 16602250 18321000 17713640 16901260
1289.19 17577570 18212430 18341300 16316120 17736290 17780380
1292.08 16847380 17023800 17178110 16886500 15987700 15834920
1294.97 16218640 15744810 15005160 14965750 15184930 13314060
1297.87 13496740 14751520 12795780 11847600 12697550 12193760
1300.76 11060840 10807180 11434350 9661874 9658144 10018240
1303.65 9164752 7702204 8660400 8723514 7004256 6999016
1306.54 7179770 6445362 6189128 5867272 5996776 4950150
1309.44 5087368 4925826 4469234 4071502 4187090 4165054
1312.33 3452682 3100794 3240794 3322134 2813972 2617696
1315.22 2749782 2176480 2212504 2301440 2009246 1633338
1318.12 1824108 1805052 1369216 1381942 1569672 1213246
1321.01 1179682 1152660 1137422 839194 959144 912914
1323.90 713490 638520 787378 634858 582166 524576
1326.79 588636 405668 442692 418390 429140 269040
1329.69 351864 324928 272844 193438 267224 189626
1332.58 192738 130514 212754 72934 141870 115866
1335.47 106182 38168 72092 39918 90082 20220
1338.36 33818 1104 20498 1504 56918-57560
1341.26 25438-37792 23432-35016 23586-76518
1344.15 29726-38098 10556-58644-34116-65498
1347.04-13628-52048 14416-79412 7280-93296
1349.94-64558-52948-28274-144616-103558-37904
1352.83-71702-112088-76194-101646-59202-56792
1355.72-62408-86360-35134-123286-58434-90128
1358.61-67878-74612-99496-117216-13688-114390
1361.51-75204-77152-9668-95090-67884-73520
1364.40-40434-51752-11030-90438-64694-119996
1367.29-61374-43278-34606-103700-45070-62654
1370.18-54546-55730-41712-89050-68110-83284
1373.08-60154-80800-33396-67644-31476-62356
1375.97-48958-96622-30368-73910-7760-93948
1378.86-37982-28356-28216-43418-35680-22898
1381.76-33892-56658-33856-81436 3444-42738
1384.65-59818-47364-25508-50308-46622-53052
1387.54-9700-51356-8170-37802-10110-39052
1390.43-11272-99588-14298-42928-25186-57252
1393.33-55450-36062-33484-70322 2754-65640
1396.22-27938-50920-15062-57994-85358-55636
1399.11-28350-44490 23640-29334-19700-73492
1402.00-39638-56872-49482-38406-32400-65952
1404.90-33778-78642 14932-64554-74762-95814
1407.79-42350-87920-44492-75892-19714-106180
1410.68-83366-86288-27624-113016-55720-80500
1413.58-59360-83338-23128-77798-49102-91156
1416.47-26926-73288-40060-88790-31442-21946
1419.36-16898-86658-13996-82864-16268-74508
1422.25 15004-50718-174-39630 15704-34688
1425.15 5432 2818 23606 13348 52872-7072
1428.04 48240 63582 39510 66548 99038 63016
1430.93 101230 96750 135048 161890 165948 193858
1433.82 158528 176020 252336 200744 275620 270054
1436.72 319338 287278 361412 273696 330178 343462
1439.61 376070 363204 448248 416278 458152 431692
1442.50 502036 509284 525950 492826 559674 497260
1445.40 585968 569950 610814 597994 684036 585468
1448.29 653816 675440 632296 597590 660670 614954
1451.18 703748 652792 666136 682670 627052 651034
1454.07 743954 597336 661362 694014 663262 661174
1456.97 684344 692760 647976 638518 697832 654758
1459.86 601542 687852 661034 620162 716470 744414
1462.75 679292 721516 790330 822508 753346 814048
1465.64 908840 820930 860572 952326 917846 894412
1468.54 1027134 1134876 1009410 1200238 1696894 6306416
1471.43 2625736 975648 1281626 1075400 1209108 1135564
1474.32 1378074 1197086 1333812 1416522 1416316 1330522
1477.21 1511322 1478166 1408326 1349348 1576348 1433584
1480.11 1384670 1539664 1552712 1299006 1552764 1580078
1483.00 1513416 1445356 1422740 1267110 1346722 1399606
1485.89 1582474 1424424 1552212 1635676 1683586 1581404
1488.79 1810394 1836876 1888564 1943748 2175630 2073668
1491.68 2213154 2182596 2298584 2148170 2147642 1896418
1494.57 1808424 1402746 1249150 852614 561114 328188
1497.46 316946 386604 867502 1164320 1770516 1920232
1500.36 2129114 2043774 2179666 2158266 2214322 2018976
1503.25 1947660 1797204 1829662 1515492 1658512 1462674
1506.14 1489498 1320964 1515918 1291178 1294104 1247458
1509.03 1445658 1186880 1358736 1339024 1427048 1134118
1511.93 1484804 1421032 1357122 1319316 1647986 1297562
1514.82 1529126 1382054 1538864 1382962 1559794 1521060
1517.71 1573046 1312684 1604006 1420956 1597138 1394500
1520.61 1573596 1536656 1412370 1318146 1538690 1424458
1523.50 1222694 1355838 1363002 1152590 1296890 1324324
1526.39 1084268 1096074 1204148 1131794 916956 1086284
1529.28 1012588 979788 920778 896248 769424 863236
1532.18 776698 737896 766036 647092 644008 685506
1535.07 536884 543010 595174 543104 410470 494840
1537.96 460684 445226 418246 416668 393788 265820
1540.85 392890 273622 290128 206860 261652 203592
1543.75 221466 171454 239716 123392 164766 140580
1546.64 152674 45178 125640 87994 75080 77212
1549.53 144944 52560 21550 50296 86362 52826
1552.43 68492 53642 35380 52942 67492 1996
1555.32 41228 34324 15870 22092 72832 52472
1558.21 153740 8592 78368 101504 83212 37988
1561.10 74006-28396 81644 15762 74726 35962
1564.00 73276 20246 98720 42764 79906 63260
1566.89 91316 108124 121464 47270 105848 158360
1569.78 185040 51672 171144 79572 195608 95208
1572.67 211336 156752 160332 127198 264764 191564
1575.57 274804 225820 364280 194230 200768 228242
1578.46 392566 275320 237308 282148 461748 217628
1581.35 335086 383340 445890 277396 474868 447626
1584.25 319406 258358 715074 530696 309970 323944
1587.14 790632 681378 325526 413118 646676 883158
1590.03 441252 412526 680494 1001556 484128 573894
1592.92 632542 1169900 444198 675584 742954 1200398
1595.82 627228 668966 666402 1435748 823778 618642
1598.71 774802 1456142 962000 756530 798664 1298138
1601.60 1384366 756762 889896 1244576 1471070 938888
1604.49 1003108 1199152 1538780 1044726 1170614 1324502
1607.39 1560294 1082862 1331444 1398752 1624208 1163334
1610.28 1398472 1569742 1413740 1476896 1439108 1734178
1613.17 1353842 1527140 1512300 1845402 1475824 1608230
1616.07 1806908 1845406 1527356 1821456 1771522 1730864
1618.96 1674290 1744804 1499168 1745876 1939464 1418372
1621.85 1428354 1886092 1397890 1614400 2121846 1644300
1624.74 2454334 3087704 2859766 2590338 2302652 1644024
1627.64 1628526 1952834 1628848 1636742 1574892 1695538
1630.53 1792300 1795428 1820092 1863860 1803784 1813272
1633.42 2432618 2385864 2725636 2646374 2779308 2296860
1636.31 2661702 2627746 2397758 2013060 1862028 1606662
1639.21 1897220 2562076 3609520 4613826 6786328 7438138
1642.10 7181182 6533406 4636636 3286428 2795980 2213286
1644.99 2515668 2860842 3382836 4947572 3197144 3802850
1647.89 3456312 3094670 3149502 2726052 3118520 2060688
1650.78 3047048 2214740 2441674 2376582 2246396 2134158
1653.67 1963358 2233992 1584548 1984710 1945096 1449440
1656.56 1909632 1467000 1600964 1661814 1492126 1343036
1659.46 1550770 1301442 1310688 1263620 1428772 1182338
1662.35 1216786 1310050 843544 1320166 1174542 874676
1665.24 1056044 943188 918984 832618 1142772 590124
1668.13 918202 802860 741884 637620 873934 501054
1671.03 601010 679094 631074 297812 582170 450234
1673.92 334800 423792 436770 254418 389930 275338
1676.81 211516 187402 253720 101374 188412 152076
1679.71 91392 96962 132610-26732 89960 9568
1682.60-4816-53066-10122-25920 202240 134990
1685.49 57856-9616-15952-107000 33396-105844
1688.38-50382-129548-60832-76384-43478-108748
1691.28-90838-78632-45142-112402-55544-56946
1694.17 26888-50688 117732 76418 27184 49280
1697.06 138738 85676 130108 74212 161486 174276
1699.95 141480 160252 136724 111446 188948 107574
1702.85 151850 139240 182416 155756 185998 173114
1705.74 228876 176894 279810 251304 277928 250082
1708.63 329364 260362 379612 293458 402568 375772
1711.53 428760 370838 387622 408200 454464 369010
1714.42 503108 465136 407108 401630 402896 431146
1717.31 421408 360708 438376 310570 346930 298806
1720.20 277926 247066 307556 223930 255136 192802
1723.10 264192 187446 197984 155558 154664 110052
1725.99 164454 101124 107452 108284 166270 56810
1728.88 111694 91466 115572 54968 199584 108878
1731.77 120398 119174 251484 116072 149578 235112
1734.67 151748 130190 221026 145480 138082 148082
1737.56 189014 96616 120446 119778 142082 70088
1740.45 122428 75018 106532 51710 144612 66312
1743.34 164828 214764 390504 514120 702652 554230
1746.24 582844 479018 466756 337668 283624 155080
1749.13 128552 22476 30802-13780 85984 47610
1752.02 213980 207028 267690 170540 259370 145990
1754.92 246242 199100 252096 163950 242278 172866
1757.81 219416 145092 235910 88978 211056 101836
1760.70 166666 116800 149458 138068 131242 40534
1763.59 186582 100738 88732 87186 155162 75358
1766.49 146740 70518 182786 177382 109906 89864
1769.38 182952 38258 170512 210746 105230 67914
1772.27 287376 30530 106232 170508 34808 24294
1775.16 256280-10382 56628 176324 49006 14930
1778.06 175470-27614 13218 146682 28202-43212
1780.95 126242 9162 16198 5640 23886-7578
1783.84 39182-32224 88706-14380-23572-21058
1786.74 34746-75086 10310-85370 9732-64596
1789.63-15646-33196 9410-77868-39436-888
1792.52-31896-67790-21510-99900 2448-89014
1795.41-13624-91706-56050-65354-16232-69146
1798.31-3356-83542-26906-79082-13356-106956
1801.20-36374-57500 7078-20048-938-41788
1804.09-54938-65556 42982-35716 1400-70310
1806.98 17218-53456 52368-47574-5420-49588
1809.88 23576-35494 83740 35098 54724 38716
1812.77 81748-6424 17730 35972 47798 16194
1815.66 71754 49200 36668-19202 80910 29286
1818.56 118908 36976 66046-18950 118748 3928
1821.45 93806 7352 50264-14840 75140 9166
1824.34 48520 22436 43934-67702 36528-18992
1827.23 55696-44534-27608 6944 63870 42680
1830.13 52380-15226 2798 14400 52698 9570
1833.02 55576 12086 63720 76410 159070 191276
1835.91 285934 346470 482386 544872 595422 233390
1838.80 56234-21774 30848-14692 44514 8090
1841.70 41624-44274 14308-96044 25930-100194
1844.59-47982-75150 137030 71300 90008 32886
1847.48 75928 34274 94614 17464 45340 4802
1850.38 94090 38108 88106 49200 52390 21828
1853.27 105880 33234 132138 44848 120390 55194
1856.16 104984 82588 128282 8288 124060 34306
1859.05 119672 46500 150984 9110 100304 33302
1861.95 77744 71832 100282 15232 110036 13174
1864.84 109070 4658 47988-2884 63510 7890
1867.73 90176-31514 65860-26098 22634-3334
1870.62 21590-65596 10460-12912 45868-65516
1873.52-2670-61568-21278-41916 8532-49492
1876.41-24828-58316-1900-61306-21166-114324
1879.30-33510-75810 8724-97798 5394-61678
1882.20 28324-70842-31058-53034 4416-34374
1885.09 14140-74590-10864-83678 15238-30962
1887.98-23394-63666 65134 146 25296-44918
1890.87 35102-12546 37342-6156 29750-8888
1893.77-6054-38948 61680-2006 72400-39826
1896.66 57068 34432 69456 6890 68512 62174
1899.55 61236 31734 101762 44474 101194-7068
1902.44 83606 115476 141294-212 99966 92698
1905.34 60922 29444 139570 84846 151004 55512
1908.23 164898 80860 71470 75944 191754 124576
1911.12 87760 87246 189636 35960 50210 134750
1914.02 166382 68528 121434 115324 145186 38378
1916.91 128040 125000 167914 105586 150970 110550
1919.80 125968 85184 170504 85592 191614 128842
1922.69 162006 207062 251316 176854 229788 226240
1925.59 296922 219122 368346 308802 408994 419082
1928.48 583778 618388 688296 778688 977054 989504
1931.37 1180258 1383556 1662290 1784922 2042992 2185052
1934.26 2215936 1712492 663442 380228 361080 315530
1937.16 332854 183934 291308 154002 287548 263298
1940.05 300318 242920 315050 186744 283296 273534
1942.94 306546 231942 396798 174908 308704 324744
1945.84 250208 272106 326540 235076 423470 205466
1948.73 423592 354828 275006 471170 383196 410132
1951.62 526688 407230 538834 533744 525814 475716
1954.51 630136 485800 659746 608716 547642 627972
1957.41 667438 538332 742646 580034 673968 793390
1960.30 606874 715762 711020 560966 875718 492972
1963.19 561378 540578 381958 642828 457084 563914
1966.08 585344 562664 734776 556358 695500 572744
1968.98 708226 575072 729892 545266 677224 578268
1971.87 651932 621142 705304 602316 736506 682756
1974.76 772838 811058 1007394 759774 741278 819634
1977.66 789960 704066 873916 736462 708954 759792
1980.55 728276 693458 875088 793082 878984 1108848
1983.44 952712 680554 838164 730536 802250 796732
1986.33 887528 829398 938588 845650 961738 925534
1989.23 977494 1065808 1031986 1053538 1181978 1097016
1992.12 1252514 1129250 1340166 1265914 1238482 1341630
1995.01 1332664 1249028 1523936 1235152 1476838 1389868
1997.90 1400350 1510282 1252406 1506074 1389088 1317278
2000.80 1522002 1285962 1501588 1087728 1586454 1186206
2003.69 1361026 1376876 1145618 1375462 1070584 1457996
2006.58 1242372 1479188 1348082 1480222 1566602 1549940
2009.48 1630388 1707798 1725544 1841382 1908552 1903952
2012.37 1988270 1931180 1954398 1784272 1871264 1605034
2015.26 1495412 1121072 984180 1078572 1391730 1536914
2018.15 1581002 2104602 1869504 1199176 1084424 688962
2021.05 647018 357890 562600 379688 728238 551984
2023.94 699052 639034 733104 731410 757268 923630
2026.83 906842 938762 892754 996198 1098480 959802
2029.72 1150436 956416 1266710 959866 1149330 1026674
2032.62 1173074 1063742 1110968 1156904 1222812 1160854
2035.51 1373842 1107994 1357070 1258570 1253778 1213498
2038.40 1280220 1257892 1216536 1092148 1249786 1114084
2041.29 1144220 1042204 1080842 1047782 1016962 964832
2044.19 1083332 858454 966228 867358 1001932 833228
2047.08 860522 841812 854008 690242 886176 719594
2049.97 801892 709192 747934 729110 700700 686756
2052.87 710280 528204 723308 583736 608838 522100
2055.76 638454 522864 521186 527198 621026 460318
2058.65 664106 567540 580036 557202 628598 460320
2061.54 563140 470412 579340 447842 539816 511484
2064.44 512484 444832 541476 434698 478196 488986
2067.33 488612 411306 555452 492812 503468 541998
2070.22 547974 500264 664384 487128 728346 712534
2073.11 859808 812214 879322 722258 551946 288538
2076.01 427014 367470 533548 444762 646730 524618
2078.90 597970 656260 718838 611594 649132 423342
2081.79 491844 416412 679162 1141980 2156402 1765258
2084.69 716612 295276 324090 276242 287854 268520
2087.58 367674 344242 426552 419082 434260 474566
2090.47 454766 281244 446270 350222 471670 391094
2093.36 524454 533412 759684 610496 765144 727010
2096.26 877954 904894 1073044 974970 1268000 1411292
2099.15 1400962 1141744 1237790 1151546 1052560 1128730
2102.04 1102714 1044740 1174090 909534 957874 902646
2104.93 948972 845882 883464 821918 1047598 822612
2107.83 871138 847688 863006 772390 912724 763074
2110.72 1011972 900212 813350 806270 816012 810014
2113.61 868102 718972 813962 968224 907236 693924
2116.51 831726 797432 758940 740154 820120 725154
2119.40 822918 638380 696300 528418 681608 547290
2122.29 589874 512854 739980 447962 513920 482684
2125.18 590436 440112 575390 528200 730450 596740
2128.08 682900 628308 753040 677204 810434 700634
2130.97 871040 732946 671134 534516 489554 365176
2133.86 276990 104462 200146 185874 285772 366772
2136.75 542680 568166 721670 680436 741464 714630
2139.65 764882 715884 771164 647642 705132 631040
2142.54 666668 550934 642956 493734 624756 503674
2145.43 538510 472762 598988 464198 468202 462364
2148.33 554546 402412 456554 407164 610112 351494
2151.22 476040 441992 479280 400672 497666 397058
2154.11 619080 360202 533200 394226 446610 384734
2157.00 442394 481058 603836 316336 546622 327686
2159.90 535194 468230 491324 566336 584420 381572
2162.79 514310 372954 552020 369328 554058 560998
2165.68 459758 377882 516968 444964 739968 815584
2168.57 1832112 1656746 708730 504272 419734 308146
2171.47 187890 323002 482818 205456 278578 266940
2174.36 305168 186006 330646 472410 586198 707670
2177.25 822216 1011174 929394 269746 536776 225768
2180.15 247580 162072 237508 124106 205880 240438
2183.04 327412 54592 303926 153474 296664 180254
2185.93 452540 337262 330556 238718 314322 218048
2188.82 261660 290076 386080 204968 315480 267186
2191.72 321664 243482 449100 309816 321478 293102
2194.61 358604 282130 356274 434690 411450 296258
2197.50 364146 237568 401352 302408 434008 272286
2200.39 322628 337734 358554 311246 388936 417346
2203.29 350318 334612 353762 314218 466848 331080
2206.18 401766 342992 502386 321712 424188 395576
2209.07 488068 432478 563532 449562 522942 497232
2211.97 593386 477528 461928 538018 650746 534250
2214.86 498280 559036 666552 666562 627614 556990
2217.75 782586 671624 722922 757448 769332 720770
2220.64 848466 831672 869246 747808 923974 941394
2223.54 929578 1015098 850734 1033926 1199674 868802
2226.43 1074286 1145780 1318506 931942 1219918 1311504
2229.32 1154300 1241732 1300922 1382518 1561782 1183250
2232.21 1620296 1412352 1549492 1364832 1475486 1743132
2235.11 1405160 1420468 1794462 1591638 1550954 1635208
2238.00 1897952 1541606 1751396 1706886 1931532 1362338
2240.89 2161686 1792448 1809002 2017402 1772398 2085324
2243.79 2081816 2252902 1925366 2343710 1767216 2151960
2246.68 1989958 1875862 2178124 1896850 2205822 1732142
2249.57 2423538 1810838 2367780 1981648 2326308 2046892
2252.46 2356186 2156064 2369768 2329848 2409202 2403578
2255.36 2349126 2532578 2484404 2417630 2532594 2329292
2258.25 2462192 2079442 1918848 1460810 1387610 1453240
2261.14 1665270 1506208 1533816 1317224 1329772 1189064
2264.03 1247568 1112566 1121578 1144870 1236368 1177486
2266.93 1319764 1269854 1459388 1574424 2014218 2326596
2269.82 2299114 2116518 2547110 2339782 2530426 2204518
2272.71 2191462 2072192 2083248 2403640 2241036 2098140
2275.61 2176800 2264394 2221150 2214836 2210134 2185688
2278.50 2365160 2297964 2241310 1982262 2641112 2102812
2281.39 2272634 2317592 2373616 2006760 2030816 2001770
2284.28 1941862 1650808 1878230 1617730 1534602 1568246
2287.18 1563076 1318546 1333050 1374366 1514848 1196540
2290.07 1333658 1257262 1274618 1153242 1249882 1138406
2292.96 1351790 1091500 1356010 1169088 1329894 1321170
2295.85 1152344 949326 1119220 1017538 1041148 1076564
2298.75 1216270 1885288 2751880 1496326 1253100 838402
2301.64 977518 758430 936576 806876 912656 812030
2304.53 837268 802074 747416 684324 785470 683360
2307.43 688088 592520 762560 738696 962166 1265070
2310.32 1760396 1740856 2148536 599488 743470 575192
2313.21 702150 550448 727066 549058 769076 620622
2316.10 735628 583862 828502 791180 957634 730018
2319.00 938080 757866 921304 695698 819956 720586
2321.89 949314 606608 899538 792000 848604 690526
2324.78 807082 713086 900550 611560 828400 852940
2327.67 759118 623602 801028 778312 709462 608118
2330.57 706948 644526 672496 425794 681548 531204
2333.46 528318 347516 594986 421060 371316 350800
2336.35 513752 310254 377876 347790 502910 262688
2339.24 399656 320780 325052 232230 344742 188790
2342.14 286570 145322 414546 178724 240538 180600
2345.03 266536 127878 301134 384890 1687512 853132
2347.92 366146 192422 256712 92776 226524 159704
2350.82 222782 112518 216434 71708 191632 184580
2353.71 177004-4858 253220 82038 152492 110522
2356.60 132156 36422 259988-34458 92876 120400
2359.49 105304 103536 191424-31886 203318 79884
2362.39 82904 121040 105064 76560 269016-28910
2365.28 216406 78552 143042 148510 112702 68084
2368.17 269776-51274 236538 53340 206384 144218
2371.06 151092 89774 213880 122624 172518 139810
2373.96 197882 101384 282822 24568 256442 117744
2376.85 154078 93224 215776 40362 283668 53426
2379.74 226398 112284 205106 74806 210774 52348
2382.64 238464 122366 180478 61550 205586 72268
2385.53 125332 94878 156738 63074 218716 10924
2388.42 178752 38014 191620 15906 258860 121876
2391.31 256646 86992 135142 77210 222418 61664
2394.21 210006 98860 187850 61974 150554 44188
2397.10 145084 60034 182528 57220 162154 51866
2399.99 141526 6174 166692 39922 185658 7258
2402.88 190174 29786 156396 54226 199526 46274
2405.78 188230 34250 202060 21670 141544 18794
2408.67 113712 60566 200164 28328 140968-27774
2411.56 125824-43006 90094-35552 74396-60410
2414.46 83768-78702 112186-50702 88398-50568
2417.35 79282-41076 96866-44804 86930-45818
2420.24 68554-5850 90570-32386 96470-47272
2423.13 104732-19682 76278 33138 94932-62894
2426.03 108330-20394 101824-16956 107442-7300
2428.92 115662 27802 128152-26390 132564-36106
2431.81 93928-26154 98406-49588 102862-19424
2434.70 111430-60900 100146-28466 106840-24882
2437.60 82914-46512 124198-48126 84870-33968
2440.49 89220-37346 111670-40698 108580-13606
2443.38 89062-40786 124310-15546 132454 21750
2446.28 125250-42498 3970-47084 113620-47490
2449.17 97034 1342 152422 2174 59296-93938
2452.06 91414-55596 43912-94336 89038-47972
2454.95 146494-54296 177176 162604 112442 109502
2457.85 189310 63790 145456-26038 122668-45122
2460.74 92994-9308 66162-56604 73998-39304
2463.63 59344-82920 80516-36186 47430-107474
2466.52 56874-107912 94896-116282 15148-127260
2469.42 50624-127302 26538-92318 1746-113596
2472.31-40316-99780 30796-109866-44112-127540
2475.20 9746-138006-5146-89384-14210-111624
2478.10-32972-155800-18904-210228-39104-205828
2480.99 3728-179572-21434-208178-45970-194116
2483.88-44980-210602-14096-198332-56954-205782
2486.77-42558-193754-62656-215492-80302-195958
2489.67-90190-229966-85494-197596-65706-232158
2492.56-112966-218870-91032-219178-92464-158616
2495.45 13440-139410-53398-141142 11406-169394
2498.34 24328-163434 30988-147244-32726-174424
2501.24-24184-165384-25226-179634-23456-165744
2504.13 9778-180114 4434-142520-5420-222830
2507.02-86930-168018-8844-173836-48522-183962
2509.92-72552-215592-11406-179586-21434-241882
2512.81-67836-242830-21022-251164-87910-178406
2515.70-85346-216070-99514-208432-66096-209430
2518.59-112900-165454-77406-294990-65188-236680
2521.49-85778-218942-99412-218672-84282-231808
2524.38-71592-270224-69206-238320-119246-263094
2527.27-53230-239768-108168-231240-118916-273858
2530.16-67996-257316-138790-301992-216010-268968
2533.06-230642-312104-173280-268568-117038-225582
2535.95-9400-142842 43382-131368 33632-48040
2538.84 100784-117658 100294-128712 14714-132666
2541.74-17474-190196-61590-225178-55470-264554
2544.63-125464-254006-129002-247686-146290-269576
2547.52-117366-332134-75848-334582-100560-272318
2550.41-124840-249680-55156-278540-55282-270486
2553.31-88864-266666-16332-256182-71424-163778
2556.20-39084-202498 5768-176756 1752-184836
2559.09 5010-170824 11106-140254 39996-174722
2561.98 51156-225984-6450-175596 17198-204424
2564.88 85340-100830 2390-116590 44468-155300
2567.77 80870-108788 124930-102948 58148-108882
2570.66 98734-45042 108004-57788 101342-106740
2573.56 127774-26526 150122-49310 195802-17098
2576.45 146338-59922 183302 75624 160894 54100
2579.34 182920 20602 204990 76770 280528 96152
2582.23 283002 88886 292672 98330 317912 173326
2585.13 224482 174216 331436 213754 318774 252290
2588.02 397830 225452 375780 242344 391080 259446
2590.91 454242 292862 449040 197756 430756 237810
2593.80 390870 153100 531382 332978 461228 238810
2596.70 492556 354080 479530 327884 520052 370370
2599.59 443608 350002 498150 423210 600360 365924
2602.48 598334 365428 567232 424046 534348 514494
2605.37 585886 435294 640042 506684 679114 622478
2608.27 901192 798640 959142 855322 952154 774566
2611.16 966350 807020 817480 584644 559930 206112
2614.05 319888 154770 344494 199104 520304 325858
2616.95 998498 1009278 1011366 1141556 1084040 1120468
2619.84 1003928 625388 787934 559410 765286 492692
2622.73 687650 502864 688200 483540 637286 471646
2625.62 635078 425868 651552 405376 618266 443636
2628.52 660538 458604 738404 566422 748806 590550
2631.41 796108 609484 735358 613528 727836 508676
2634.30 795594 554496 726352 580802 709096 513484
2637.19 673170 488754 696144 456854 638456 391744
2640.09 611044 399300 474960 360346 476626 313510
2642.98 472878 229154 487526 196174 479872 169146
2645.87 440382 181358 393180 236440 295440 149720
2648.77 323668 121140 348896 16830 313832 90262
2651.66 254546 55850 210498 28250 188986-2756
2654.55 211158-14244 140344-34468 216236-4434
2657.44 172838-77470 145804-69840 114868-72716
2660.34 91362-136812 112196-85442 68072-118786
2663.23 79858-154344 46788-127930 98524-151412
2666.12 78088-174352 26042-182868 48588-126232
2669.01 39202-185262 80458-152036 73992-161468
2671.91 50650-163756 62878-148276-7112-186578
2674.80 62526-171220 48476-182772 38226-193188
2677.69 11558-174638 45566-198604 18536-150660
2680.59 17354-240856 40838-224588 22348-187212
2683.48 27182-184538 25114-146160 16234-155908
2686.37 21722-186648 27532-190764 24378-181780
2689.26 32328-148758 10874-180136 48004-161256
2692.16 23112-146578 51028-201102 51338-203872
2695.05 62246-231618 53114-162132 34630-171764
2697.94 43484-182014 62842-179434 58892-208280
2700.83 53574-167204 85644-138798 86054-190568
2703.73 120368-143988 120234-159120 115814-123576
2706.62 156292-94408 151068-68824 144092-99474
2709.51 163562-92832 124398-98370 125982-79420
2712.41 160298-120816 144048-89250 166626-104592
2715.30 163214-88268 188156-55366 178446-105168
2718.19 177884-73234 227428-10020 214236-66146
2721.08 209412-82620 223030-81750 162744 4308
2723.98 152714-48496 179130 5230 182744 43422
2726.87 194448 33676 195236 6394 224296 12928
2729.76 216890-38580 252576 24190 225576-26544
2732.65 209858-822 294114 53140 230068 20174
2735.55 254338 72554 199406 98388 229158 149182
2738.44 179458 1023152 1307246-158644 422536-93320
2741.33 342452 47672 344340-11514 348182 29074
2744.23 365064 68722 348164 7056 380410 34322
2747.12 323200 38178 359306 37878 350000 18074
2750.01 353220 103966 392700 82184 407282 136148
2752.90 493384 196846 474036 165306 577596 209328
2755.80 516348 135954 386870 136864 443348 82624
2758.69 447772 111706 434210 161108 406674 73100
2761.58 354058 32152 367580 91822 306896 84994
2764.47 390866 133446 480074 81050 428866 103866
2767.37 378710 84268 380934 102786 408420 81746
2770.26 371752 75358 391336 45516 303372 67390
2773.15 361046-20362 317540-650 257096-114228
2776.05 339518 1724 269552-51372 220902-75840
2778.94 247766-21764 205164-81646 213216-84230
2781.83 237444-68164 253708-89026 241546-70570
2784.72 209942-88292 248648-100828 234186-67088
2787.62 234278-108058 206196-122818 222078-125880
2790.51 155934-139602 193918-139390 170614-86226
2793.40 148878-191516 174030-160184 129074-148252
2796.29 224628-124438 169854-158072 167372-194858
2799.19 203376-156122 153250-187262 180662-233812
2802.08 98686-234750 154186-222384 139596-218284
2804.97 143108-207024 170228-144706 146406-225870
2807.87 163470-250420 138952-256482 158736-208040
2810.76 125362-233188 96072-258460 107116-244882
2813.65 110030-253342 157352-249892 120290-257182
2816.54 123900-281082 178474-200214 107590-253682
2819.44 132062-219258 130470-277742 172066-286784
2822.33 148892-255348 131194-275638 136496-223494
2825.22 133972-244648 157700-296690 117468-212240
2828.11 135714-259708 225406-282444 154872-274256
2831.01 120218-276554 94778-255114 153786-254056
2833.90 153458-228446 117278-258250 174664-232804
2836.79 190590-245102 115562-252936 155802-210080
2839.69 181980-213616 206954-219430 174820-231604
2842.58 203586-180372 184574-199256 214742-255746
2845.47 177514-181772 240602-209232 287680-133432
2848.36 249860-117578 219692-112734 320344-184688
2851.26 373204-129930 269382-130778 300726-72064
2854.15 309448-82596 287802-143620 328588-139054
2857.04 340008-112722 383254-25920 373726-54000
2859.93 420876 1932 422370-23574 488132 50146
2862.83 457392 58134 524306 101334 588882 133794
2865.72 608544 179222 682414 104874 710460 238168
2868.61 746018 282712 843966 325550 839962 419060
2871.51 934988 497776 966900 645380 1041208 648560
2874.40 1253626 682328 1274796 986428 1505330 917408
2877.29 1623576 1278398 1684520 1353112 2048178 1506584
2880.18 2002244 1877834 2410870 2031624 2576404 2468174
2883.08 2866186 2570126 3230646 3196470 3655472 3309036
2885.97 4367662 3732762 4521320 4535002 5192146 4787278
2888.86 5804806 5552878 5912670 6292190 7168968 6522772
2891.75 7542644 7727726 8175008 8227950 9112218 9248794
2894.65 9877934 9650716 10832240 11165110 11589400 11892380
2897.54 12345020 12722110 12943050 13806240 14887540 13913800
2900.43 14879530 15618880 15159600 16148950 17854960 16164240
2903.32 17414700 17130850 17652110 18400220 19393650 17707890
2906.22 19950370 18435730 18545800 20627030 20807540 18042680
2909.11 21014910 19767000 19239420 21407310 20581870 19334670
2912.00 20988860 19109380 20657200 21319550 19745390 20728890
2914.90 20299590 19376410 21453730 20875120 20845690 20639170
2917.79 20248420 21403780 21567660 20254270 20729010 18628820
2920.68 18978110 17700780 17431940 17231930 15902670 14400480
2923.57 15193990 15643520 15661570 15228700 14857790 16257970
2926.47 15060990 16732080 20716270 17039850 13277200 20241900
2929.36 23330430 81592320 216864000 45835960 20201770 15355090
2932.25 16189700 13727440 16341280 15041540 18555350 16298450
2935.14 19634310 17758780 19903940 18107600 21705910 18029060
2938.04 21490410 19325110 21359870 21341360 22141430 21522080
2940.93 23628040 20953750 24749160 23852840 24454560 24731640
2943.82 24955140 25596960 26359390 26054300 28070590 26830760
2946.72 25548990 29478740 27424950 27968650 28792760 28117150
2949.61 28005440 28664400 29702620 28225140 28311990 27600640
2952.50 29901700 27025910 30162060 25991590 29182700 26059920
2955.39 27990000 28390310 27005340 24574710 29113690 23723250
2958.29 27286070 27740790 23720700 26509410 26823630 23841430
2961.18 28688830 27069440 26138860 27549400 25685750 27012800
2964.07 27930400 23297250 28433360 22448860 25162350 23414420
2966.96 20778820 19995460 21074660 16089000 21306240 18835460
2969.86 21264480 23712220 25937730 25928010 29214700 26556200
2972.75 29685360 28111720 30265170 28021860 31012290 29431220
2975.64 29899110 28412010 31674370 28041760 33102880 30732580
2978.54 32501490 31712010 33113850 30405690 37166240 33700420
2981.43 33887080 35432300 37120810 32458310 39624670 37359240
2984.32 36436270 37263340 39165440 36272970 42214190 36558790
2987.21 40032860 38951960 38017970 38697230 42613620 36537940
2990.11 41018930 37475160 39808510 38131180 39745360 37642720
2993.00 39548820 33728670 39499830 36078770 38033160 35388380
2995.89 37634970 33653860 38506040 33872020 41285870 37685280
2998.78 42145610 37450990 37351200 32530730 37757860 28371540
3001.68 35192710 25083130 36436740 23933600 36518430 21507320
3004.57 58196480 61962180 235158500 254053700 25120850 49288520
3007.46 25184580 39556580 24510470 34830300 30663610 43592560
3010.36 33931960 42374870 45821770 49595280 41494570 50660430
3013.25 46499010 47468430 42616880 50401860 44314500 43014200
3016.14 43623540 46331220 33995400 43771600 44989400 43684040
3019.03 46362110 60321910 57700380 56915670 61398020 68420870
3021.93 62031100 65075340 67926430 65511360 64773940 65863040
3024.82 61006860 68108050 68133550 62322350 62803890 68591420
3027.71 71292820 55469100 67693330 81936260 54941340 58610460
3030.60 81132690 64480820 57565980 76629670 72223950 52287990
3033.50 65818160 79651940 61798560 52927530 81187780 65007180
3036.39 46517980 71944260 74149340 49865700 57691350 77282080
3039.28 53817790 45797880 71657760 60926090 43614680 64160390
3042.18 61614550 38018010 59048660 63524210 41854190 42140150
3045.07 64311900 39856550 33659420 51193160 51953410 26893190
3047.96 44379010 44575170 29764970 30571580 46891600 27332430
3050.85 29194210 36954520 29351740 19386650 34561440 26344000
3053.75 19455670 25390450 28050780 11912700 24129260 24272940
3056.64 19485150 13015990 29991380 14739610 21883540 24226090
3059.53 40434960 21074000 52188440 39317010 45225080 25377610
3062.42 34566490 22892920 53565780 65714930 177042200 480458500
3065.32 1413461000 385052700-8505022 64237660 177742 36503770
3068.21 3103084 30852200 5835154 20423890 9090464 24030790
3071.10 6272732 21967360 13055880 15568720 9874056 25397180
3074.00 7593524 15043390 18420840 19919960 8812152 28361060
3076.89 16965020 16485870 20342390 29203350 14138960 29343670
3079.78 27629290 22168890 21580240 39401330 21052370 29995150
3082.67 37402360 29303210 21791600 42909510 32811340 28344880
3085.57 38215690 44142700 22015110 33957700 54169610 22977060
3088.46 35014550 54484640 24521100 30984020 53760640 34543790
3091.35 28030200 52377840 35786720 27455870 45581720 43160850
3094.24 27779730 43675880 41405720 27797690 37701670 45296650
3097.14 27632690 37015940 41321430 28389210 29523110 44725680
3100.03 26864580 30034480 38728380 28284420 22525870 40842740
3102.92 24403320 29097640 27511710 28371620 24860760 22502320
3105.82 31638890 21877010 19319740 28529880 18732660 19678430
3108.71 24236040 19626950 17475520 19586470 17272020 18419210
3111.60 15421760 17904680 16447780 13939730 13652480 15406460
3114.49 10998580 13168080 12698990 10668300 10645280 12176020
3117.39 9282476 9963378 9630572 8572036 7194498 10045380
3120.28 6050868 7309622 7674476 5881260 5269792 7517766
3123.17 4276522 5454816 5384986 4872700 3634054 5909752
3126.06 3277440 4365008 3602358 3744500 2463354 3972430
3128.96 2259356 3097706 2241224 2937390 1778550 2856454
3131.85 1681078 2351834 1480576 2498300 839742 2524746
3134.74 982342 1886404 1072284 1641928 697140 1882036
3137.64 503600 1572034 624930 1371694 394560 1459178
3140.53 383970 1330488 222452 1191854 105550 1122082
3143.42 102436 1075150 43434 1000194-53612 909554
3146.31-82640 910972-81464 837946-144330 749704
3149.21-128080 752082-206648 713070-192558 759416
3152.10-204990 613714-256982 617034-211440 608198
3154.99-339194 536200-345126 535018-320992 485290
3157.88-287956 492828-308024 494818-380778 505888
3160.78-365666 468052-379346 464898-333062 393028
3163.67-431412 423432-333828 412962-388554 388618
3166.56-364854 361564-356384 389788-428638 411246
3169.46-395024 483844-327270 376060-428220 372268
3172.35-391212 452476-232636 387884-278128 364234
3175.24-352232 385918-342100 398470-349222 283112
3178.13-375620 301798-424012 295428-363742 318164
3181.03-374338 271130-401260 355034-347926 304126
3183.92-351558 254610-394416 240220-362360 337440
3186.81-374450 290266-351034 224962-335116 281438
3189.70-345120 297056-332522 311704-281952 262488
3192.60-327752 313682-364606 242748-304286 262922
3195.49-279054 322254-380640 215518-324410 238404
3198.38-342408 240088-297548 311518-328916 297138
3201.27-265822 200634-365022 203866-414428 292606
3204.17-313310 219932-355440 244826-384654 164450
3207.06-356168 232980-297246 262060-362864 224524
3209.95-309796 149570-376260 205262-304854 205574
3212.85-328112 225006-367172 187224-312222 196508
3215.74-337652 139198-293878 226572-355306 224692
3218.63-368258 184134-248046 267356-243006 289042
3221.52-417220 135338-268048 125628-348542 146454
3224.42-306158 192828-385160 146140-274344 105768
3227.31-307134 99042-297504 185436-297640 168066
3230.20-340906 157184-330630 127326-365484 173470
3233.09-275978 194356-314002 172790-344724 186434
3235.99-383844 195178-273276 147220-337070 127446
3238.88-327942 132714-347574 136556-328368 120470
3241.77-347080 164526-250850 167746-276450 167988
3244.67-322928 95314-308226 184066-268936 100010
3247.56-254350 120598-278780 165586-337958 120328
3250.45-319138 45524-275754 108916-332142 154270
3253.34-290382 106782-351812 136296-251506 234384
3256.24-285372 135080-326158 104232-315102 39102
3259.13-364842 77010-248562 131914-310588 41584
3262.02-215012 115886-349656 99360-280262 183488
3264.91-322394 81770-249050 60350-304564 38764
3267.81-324172 45390-348550 30254-265342 76440
3270.70-322352 54190-272624 82972-332496 135506
3273.59-345368 91960-206950 96522-284578 84414
3276.49-293120 153648-246138 61242-299228 122798
3279.38-350746 17258-405790-27482-385466-61518
3282.27-340108 23568-423804 25724-332488 23360
3285.16-354484 34568-310356 50186-297494 59882
3288.06-287406 32200-329028 102670-335820 41572
3290.95-354300 72830-303476-17398-379848 19094
3293.84-310972 41948-327030 25768-258242 42808
3296.73-310172-11880-363434 9716-217934 46208
3299.63-366282 72444-330498-16988-329340 88436
3302.52-263730 146738-294464 39378-260906 101488
3305.41-224604 23282-249036 100274-297698 482
3308.31-267984-22656-265752 100158-334532 99486
3311.20-277900 24426-273592 83554-270476 30182
3314.09-242798 11452-240280 71336-258078-11538
3316.98-316750 120226-262562 7682-235128 20930
3319.88-294108 76728-279688 55784-263456 53794
3322.77-277912 16068-166664 73880-199758 47310
3325.66-209110 106920-278354 104032-302170 62486
3328.55-323630 75020-240076 67742-354004 78820
3331.45-207380 117448-238132 78976-216900 48768
3334.34-195612 52324-304002 38626-307364 114628
3337.23-239408 110570-288018 133712-251728-78400
3340.13-223254 72880-240588 83504-303142 56096
3343.02-245422 84182-212814 17268-332526 44518
3345.91-241400 101420-288472 106598-234762 92112
3348.80-225258 46466-202466 34282-275786 109618
3351.70-209014 38108-232660 14600-230134 67186
3354.59-259814 105822-202790 66742-283708 88786
3357.48-201764 96424-230862 25626-199862 130918
3360.37-224894 84972-205714 5874-214508 60066
3363.27-194490-5606-173772-37380-238740 106904
3366.16-160634 42344-288750 50582-248810 90034
3369.05-162310 58136-278492 7840-209496 82252
3371.95-234906-250-229402 58660-163144 83652
3374.84-264394 72334-268016 57410-239388 108896
3377.73-223916 26292-304498 66588-269144 76082
3380.62-281022 74196-287606 77290-285620 25854
3383.52-219198 25874-114736 58178-237498 67612
3386.41-275356 80184-211306-17612-281516 16780
3389.30-183486-19340-246818 108462-183466 138686
3392.19-197300 82548-184232 4746-308080 79852
3395.09-257474-8146-219908 17786-269666 31882
3397.98-183316-1826-202028 12882-178970 55988
3400.87-164180 54242-228510-36304-278756 6046
3403.77-186740-19566-204848 64266-165880 41188
3406.66-168514 65966-244906-50872-127930 44016
3409.55-169306 100786-224800 33922-126572 19896
3412.44-209128 96236-220540 77076-152768 90724
3415.34-188308 18224-254694 84664-213172 100056
3418.23-125628 6526-131616-40482-156686 104638
3421.12-185882 94618-209362 85858-167120 12318
3424.01-206188-74736-196988 41796-212964-47374
3426.91-145926 56442-288680 101836-245298 18314
3429.80-99742 88742-222368 98118-225194 70816
3432.69-218812 9146-160834 4004-267826 18892
3435.59-159068 85192-176832 25860-201312 21662
3438.48-234694-17882-152074 83086-222812 79706
3441.37-165736 48058-216494 15704-246294-2426
3444.26-221344 63344-131448 45546-201896 65830
3447.16-196202-4910-205944 116740-160682-62484
3450.05-154700 47456-177396 80300-172708 48722
3452.94-219940 56858-181112 18358-138790 97258
3455.83-181158-33856-180556 107100-179538 22922
3458.73-189532 19782-213830 9560-177882 30052
3461.62-226442 18640-213132-13354-219186-33944
3464.51-201764 3586-150516 21260-120648 80652
3467.40-90528-706-205644 17268-161952 63410
3470.30-179216 45702-152384 45446-132298 39842
3473.19-67512 54172-224508 71108-255006-29036
3476.08-205584 45730-213528-26016-200992-24330
3478.98-123142-12576-214358 6532-162442 3904
3481.87-156892 25396-261204-19104-110414-15838
3484.76-123702 100792-155336 71442-188816-30112
3487.65-153678-17136-257482-3044-114098-46490
3490.55-218156 36804-151434 17796-182884-334
3493.44-200068-12472-223356 48632-255520 96954
3496.33-233034-49578-146640 22438-231164 28526
3499.22-130806-45736-136040-18166-108856 144358
3502.12-137420-59390-174318 15472-202520 10062
3505.01-183228 25936-176914-19834-148566 53682
3507.90-225088 47358-160866 2042-248400 68394
3510.80-182472-13418-214280 32530-180808-8664
3513.69-150786-44596-207840 29548-195408 42696
3516.58-153632 16522-209696-5956-149646-9890
3519.47-182102 87010-182610 52406-223018 54534
3522.37-150340-1366-170080 46394-171584-37040
3525.26-201208-73744-190002-53954-211040-662
3528.15-162944-41970-202468-54362-198386-8224
3531.04-194532 3786-138010-5278-184414-1958
3533.94-143086-4372-238692 5816-168176 44438
3536.83-114722-12404-106642 50826-227448-4054
3539.72-212038-2926-222720 42660-199018 18334
3542.62-135796-43202-137718 8612-168310-47378
3545.51-184040 7388-97470-39500-222712 9748
3548.40-157010-27384-155318 16600-178142-34522
3551.29-173366-35784-219644-62088-184274 12526
3554.19-203748 49706-239064 13786-164614-12512
3557.08-205044-34718-189490-40492-228244 22054
3559.97-126860-9056-175848-7952-171024-63590
3562.86-210048 30682-231204-34860-151612-72740
3565.76-116306 52312-231062 25818-230194 24632
3568.65-192614-122554-146392-21232-232622-46212
3571.54-130626 47094-194372-107584-266282-34322
3574.44-217716 61024-162048-25504-143712-3416
3577.33-165356-40970-215296-14094-107036-25724
3580.22-188588 24906-190098-28182-177440-11786
3583.11-121334-21526-158428-36976-142038-60220
3586.01-204520 21956-128750 18968-160612-54366
3588.90-108816-14970-161372-73584-291796-34380
3591.79-181588-28646-145432-6296-132728-67306
3594.68-145258 72138-118372 6298-168508-49112
3597.58-232884 19330-282704-37334-204288 14498
3600.47-120156-42614-139202-30396-122110-19378
3603.36-180452-17318-212036-32352-155486 17604
3606.26-231536-14666-188742 20114-151632 26712
3609.15-177692 27646-107438-36528-217962 14562
3612.04-104178-53120-91422 1478-221660 34344
3614.93-178690 12502-100624-44862-177558-4714
3617.83-149864-28032-126362 25390-170238 38364
3620.72-140860 34808-112710 45170-206064-56332
3623.61-222076 84500-160578 24074-161126 21148
3626.50-82108-18096-185348 84856-166744 50072
3629.40-77654-51710-172696 2316-165610 30748
3632.29-220106-10092-155702 41476-167398 25038
3635.18-77640 45334-137126-11952-124476 25708
3638.08-127090 21416-166254-80778-155400-37792
3640.97-137162 56416-182154-58138-72154-21976
3643.86-145620-44066-150048 24582-228652-16254
3646.75-143270 20992-144124-52554-33946 5172
3649.65-124764-5102-65960-29952-159878-8288
3652.54-115962 32872-205268 6052-151852-63616
3655.43-143102 23040-137494-19278-160796-11498
3658.32-179412-29270-216646-50932-133652 28262
3661.22-153272 10018-178112-416-154102-19312
3664.11-154104-13378-139840-51852-116156 56430
3667.00-103172-14978-146772 33792-123132 13710
3669.90-48642 102638-96920 49820-101468-75404
3672.79-144914 14120-168306 64040-70284 70782
3675.68-57086 22292-127750 39398-89166 82002
3678.57-60570 10958-50082 28488-99296 61094
3681.47-89052 135300-95120 33802-65062 96648
3684.36-19704 92952-52862 102170 13614 172462
3687.25-55654 122412-2670 161530 32690 169372
3690.14-13566 167528-18628 100766 66616 107996
3693.04 33510 135936 45902 207102-30230 120910
3695.93 49812 192786 9808 174714 35876 122790
3698.82 62468 191700 38812 194814 77894 201454
3701.72 44802 249078 55842 195770 79590 248046
3704.61 179958 180732 82834 200006 77074 243788
3707.50 138750 240156 146078 190298 65140 328908
3710.39 88442 237528 149280 429926 125524 285894
3713.29 175462 336610 155950 339068 273618 359560
3716.18 193966 350880 188262 320960 235194 507710
3719.07 248714 395166 370950 429564 357424 584828
3721.96 496336 651318 455190 1036998 1057360 2573760
3724.86 1277988 306646 435758 278710 313476 458218
3727.75 353418 442776 422942 468160 379716 400820
3730.64 327104 505888 433976 475402 449888 507978
3733.54 358632 553596 429260 401780 321974 501930
3736.43 417166 459132 387564 465016 408824 497380
3739.32 501302 748860 633652 827242 913026 1221032
3742.21 895050 753742 543696 546048 471546 632452
3745.11 499860 599594 407438 647460 516686 585932
3748.00 430784 625374 567316 661828 520078 761884
3750.89 692176 948248 870766 821028 718256 747390
3753.78 669986 660746 579938 770126 571958 715350
3756.68 729400 705456 670748 734838 716048 742644
3759.57 699632 908216 776156 960580 818624 931954
3762.46 912892 1042830 844158 997590 833566 834306
3765.35 833888 983752 979194 1132774 1298706 1485940
3768.25 1271486 1400756 1118704 1279876 868258 1107774
3771.14 1123122 900198 844538 973690 784350 715688
3774.03 606274 762926 687682 733458 705646 720488
3776.93 643012 808148 708752 649798 565514 771674
3779.82 665634 811864 832040 1031130 978490 1135334
3782.71 1108040 1260240 778186 756694 733912 835954
3785.60 622458 876974 910882 903514 734164 866050
3788.50 945130 864286 768246 1089600 888638 789508
3791.39 844568 1195342 871226 828862 1002074 1037016
3794.28 749610 1028358 1066154 1104994 853004 1215680
3797.17 1033302 1020244 1142962 1273920 911576 1170356
3800.07 1242304 1039480 1287468 1342698 1237946 1272186
3802.96 1183542 1269270 1343538 1306798 1397946 1394810
3805.85 1333316 1311032 1259830 1284690 1197404 1546644
3808.75 1249732 1414346 1555142 1522814 1480022 1983548
3811.64 1394198 1597418 1674168 1904612 2398098 2967284
3814.53 3663596 4111576 4778290 3539956 1081572 1413338
3817.42 1119008 1194862 1193038 1405776 1269164 1537138
3820.32 1177308 1334458 1261954 1334610 1284044 1205886
3823.21 1082494 1194822 1241286 1479746 1398900 1794336
3826.10 1928150 1982032 1735078 2554468 2868992 2868268
3828.99 2925776 3217244 3032672 2434114 1454112 1468668
3831.89 1144898 1364036 1468060 1578876 1664360 1963108
3834.78 1950698 2018720 2017492 1824036 1926514 2005644
3837.67 1748332 1809194 1744178 1879252 1799588 1911864
3840.57 1798524 2081636 1925342 2083238 1906880 2308664
3843.46 2202504 2232352 2262784 2346494 2334476 2593688
3846.35 2335834 2524354 2590194 2425204 2530420 2386574
3849.24 2310276 2349532 2231712 2305004 2116668 2443902
3852.14 2042526 2136670 2119166 2245788 2110416 2022486
3855.03 1958838 2003552 1795586 1922362 1813372 1905812
3857.92 1912188 1778360 1985540 1974622 1776468 2101254
3860.81 1846226 1999524 2094580 2088910 2201332 2376864
3863.71 2108064 2203646 2112444 1748388 1619856 1794532
3866.60 1696940 1613932 1556550 1881132 2332364 2737080
3869.49 3060904 3222518 3328250 3479094 3408184 3363070
3872.39 3000576 2057002 1772478 1721774 1441904 1551860
3875.28 1275778 1321202 1049084 1068578 945792 909010
3878.17 619080 706336 774736 878970 855424 926790
3881.06 631798 873416 1019622 824244 757526 857362
3883.96 627632 653200 785410 763066 741464 815604
3886.85 705890 760790 744164 868754 863256 780010
3889.74 814534 931550 803710 934436 912384 995648
3892.63 765744 1024928 969366 1000904 1025428 843246
3895.53 990338 944078 1066896 1088836 765238 1116656
3898.42 1005426 1060114 1001732 959744 787898 1033822
3901.31 924770 879590 1058112 864718 950646 885678
3904.21 752062 1002276 785524 1010064 672990 890068
3907.10 779392 833072 731102 757988 687982 824000
3909.99 522746 745452 636202 620910 641730 571660
3912.88 417910 622822 406428 550834 452426 479074
3915.78 360878 508930 397942 403398 308928 429894
3918.67 211244 413290 252668 369444 194482 333146
3921.56 186352 333038 195446 339118 159788 234188
3924.45 171236 193728 103202 205186 94470 181292
3927.35 78364 166402 69948 194612 293416 349812
3930.24 380014 375308 86842 118806 86760 206306
3933.13 124512 229536 147770 243732 70906 333986
3936.03 275682 358100 84238 107196 86310 174954
3938.92 108156 97984 111794 160332 46134 200646
3941.81 589508 686728 456820 523000 284976 303258
3944.70 148594 370430 227892 230108 110030-39766
3947.60-38004 124792-5764-6542 33254 29698
3950.49 12818 91178-70292 11982-34706 66296
3953.38 26106 356474 215096 345114 412186 346216
3956.27 75160 164056 53660 80392-64774 16484
3959.17-30696-12252-4066-4022 18252 55362
3962.06-59008 22742-40804 94324-57266 48828
3964.95-42166 26556-140666-6126-34040 118060
3967.85-24014 62828-41448-24530-86338-67814
3970.74-19074 96546-62128 41652-37522-8444
3973.63-31602 43648-38682
##END=
