##TITLE=2-CHLORO PROPANE
$$ E.K. (W.L.) NO. 1108
##JCAMP-DX=4.24
##DATA TYPE=INFRARED SPECTRUM
##CLASS=COBLENTZ
##ORIGIN=WYANDOTTE CHEMICALS CORP., WYANDOTTE, MICHIGAN, USA
##OWNER=COBLENTZ SOCIETY
Collection (C) 2018 copyright by the U.S. Secretary of Commerce
on behalf of the United States of America. All rights reserved.
##DATE=Not specified, most likely prior to 1970
##NAMES=2-chloropropane
##CAS REGISTRY NO=75-29-6
##MOLFORM=C3 H7 Cl
##MP=34-36 C
##SOURCE REFERENCE=COBLENTZ NO. 170
##$NIST SOURCE=COBLENTZ
##$NIST IMAGE=cob170
##SPECTROMETER/DATA SYSTEM=Not specified, most likely a prism, grating, or hybrid spectrometer.
##STATE=LIQUID
##PATH LENGTH=0.005 CM
##SAMPLING PROCEDURE=TRANSMISSION
##RESOLUTION=4
##DATA PROCESSING=DIGITIZED BY NIST FROM HARD COPY
##XUNITS=MICROMETERS
##YUNITS=TRANSMITTANCE
##XFACTOR=1.000000
##YFACTOR=1
##DELTAX=000.006452
##FIRSTX=2.019
##LASTX=16.0002
##FIRSTY=0.993
##MAXX=16.0002
##MINX=2.019
##MAXY=1
##MINY=0.014
##NPOINTS=2168
##XYDATA=(X++(Y..Y))
2.019000 0.9930 0.9910 0.9910 0.9900 0.9900
2.051273 0.9880 0.9880 0.9850 0.9850 0.9900
2.084000 0.9980 1.0000 0.9950 0.9900 0.9870
2.116273 0.9850 0.9830 0.9820 0.9800 0.9800
2.148000 0.9780 0.9800 0.9770 0.9610 0.9400
2.180273 0.9140 0.8930 0.8760 0.8670 0.8620
2.213000 0.8500 0.8440 0.8360 0.8310 0.8330
2.245273 0.8360 0.8420 0.8460 0.8520 0.8570
2.277000 0.8580 0.8650 0.8700 0.8780 0.8800
2.309273 0.8780 0.8760 0.8750 0.8730 0.8700
2.342000 0.8680 0.8670 0.8680 0.8710 0.8760
2.374273 0.8800 0.8810 0.8800 0.8780 0.8760
2.406000 0.8750 0.8750 0.8760 0.8780 0.8810
2.438273 0.8840 0.8930 0.8990 0.9090 0.9150
2.471000 0.9170 0.9230 0.9300 0.9350 0.9360
2.503273 0.9360 0.9360 0.9360 0.9330 0.9310
2.535000 0.9280 0.9300 0.9330 0.9380 0.9400
2.567273 0.9410 0.9410 0.9410 0.9400 0.9400
2.600000 0.9360 0.9300 0.9300 0.9380 0.9480
2.632273 0.9490 0.9490 0.9430 0.9430 0.9480
2.665000 0.9490 0.9520 0.9540 0.9570 0.9570
2.697273 0.9540 0.9480 0.9490 0.9510 0.9520
2.729000 0.9570 0.9590 0.9590 0.9520 0.9460
2.761273 0.9380 0.9270 0.9170 0.9140 0.9150
2.794000 0.9180 0.9220 0.9270 0.9300 0.9330
2.826273 0.9350 0.9330 0.9330 0.9330 0.9330
2.858000 0.9310 0.9310 0.9300 0.9270 0.9270
2.890273 0.9250 0.9270 0.9270 0.9280 0.9310
2.923000 0.9310 0.9280 0.9200 0.9150 0.9100
2.955273 0.9050 0.9040 0.9010 0.8990 0.8970
2.987000 0.8970 0.8990 0.9040 0.9100 0.9100
3.019273 0.9050 0.9040 0.8960 0.8840 0.8710
3.052000 0.8580 0.8570 0.8580 0.8600 0.8580
3.084273 0.8550 0.8420 0.8240 0.8210 0.8150
3.116000 0.8100 0.8080 0.8080 0.8100 0.8130
3.148273 0.8180 0.8210 0.8260 0.8330 0.8460
3.181000 0.8570 0.8580 0.8650 0.8670 0.8680
3.213273 0.8680 0.8670 0.8670 0.8630 0.8580
3.245000 0.8540 0.8490 0.8390 0.8280 0.8130
3.277273 0.7920 0.7640 0.7290 0.6640 0.5810
3.310000 0.4840 0.3740 0.2750 0.2330 0.1910
3.342273 0.0510 0.0160 0.0160 0.0220 0.0290
3.374000 0.0380 0.0430 0.0500 0.0550 0.0560
3.406273 0.0550 0.0470 0.0470 0.0630 0.0790
3.439000 0.0970 0.1130 0.1290 0.1450 0.1660
3.471273 0.2000 0.1920 0.1830 0.1830 0.2540
3.503000 0.2900 0.3190 0.4190 0.5150 0.5940
3.535273 0.6540 0.6720 0.6930 0.6980 0.7000
3.568000 0.7010 0.7190 0.7390 0.7550 0.7660
3.600273 0.7790 0.7950 0.8210 0.8260 0.8240
3.632000 0.8150 0.8110 0.8030 0.8020 0.7990
3.664273 0.7950 0.7770 0.7600 0.7390 0.7390
3.697000 0.7640 0.7900 0.8130 0.8160 0.8390
3.729273 0.8500 0.8630 0.8760 0.8800 0.8800
3.761000 0.8750 0.8680 0.8600 0.8460 0.8370
3.793273 0.8230 0.8030 0.8030 0.8130 0.8240
3.826000 0.8370 0.8490 0.8570 0.8650 0.8650
3.858273 0.8580 0.8550 0.8520 0.8470 0.8460
3.890000 0.8470 0.8490 0.8520 0.8540 0.8630
3.922273 0.8670 0.8670 0.8650 0.8650 0.8630
3.955000 0.8620 0.8620 0.8600 0.8600 0.8580
3.987273 0.8580 0.8540 0.8490 0.8390 0.8260
4.019000 0.8080 0.8020 0.8020 0.8150 0.8200
4.051273 0.8280 0.8390 0.8520 0.8630 0.8710
4.084000 0.8750 0.8780 0.8800 0.8800 0.8760
4.116273 0.8730 0.8670 0.8630 0.8600 0.8620
4.148000 0.8620 0.8650 0.8670 0.8680 0.8700
4.180273 0.8730 0.8750 0.8760 0.8780 0.8780
4.213000 0.8800 0.8800 0.8780 0.8750 0.8710
4.245273 0.8650 0.8580 0.8570 0.8500 0.8490
4.277000 0.8490 0.8500 0.8500 0.8500 0.8540
4.309273 0.8550 0.8580 0.8620 0.8630 0.8670
4.342000 0.8670 0.8650 0.8630 0.8620 0.8580
4.374273 0.8540 0.8460 0.8370 0.8200 0.8080
4.406000 0.8050 0.8080 0.8180 0.8310 0.8440
4.438273 0.8540 0.8650 0.8680 0.8680 0.8600
4.471000 0.8490 0.8420 0.8230 0.8180 0.8050
4.503273 0.7940 0.7810 0.7730 0.7730 0.7790
4.535000 0.8050 0.8290 0.8520 0.8620 0.8780
4.567273 0.8800 0.8670 0.8670 0.8700 0.8760
4.600000 0.8780 0.8810 0.8860 0.8880 0.8880
4.632273 0.8880 0.8860 0.8810 0.8800 0.8830
4.665000 0.8860 0.8890 0.8890 0.8910 0.8930
4.697273 0.8940 0.8940 0.8960 0.8960 0.8940
4.729000 0.8940 0.8940 0.8940 0.8930 0.8910
4.761273 0.8910 0.8880 0.8810 0.8750 0.8750
4.794000 0.8810 0.8810 0.8810 0.8810 0.8800
4.826273 0.8800 0.8780 0.8750 0.8710 0.8780
4.858000 0.8780 0.8780 0.8780 0.8730 0.8760
4.890273 0.8760 0.8760 0.8750 0.8760 0.8750
4.923000 0.8730 0.8700 0.8700 0.8750 0.8750
4.955273 0.8750 0.8750 0.8750 0.8750 0.8730
4.987000 0.8730 0.8710 0.8700 0.8700 0.8700
5.019273 0.8680 0.8630 0.8620 0.8600 0.8580
5.052000 0.8580 0.8600 0.8650 0.8710 0.8730
5.084273 0.8730 0.8750 0.8760 0.8800 0.8840
5.116000 0.8840 0.8810 0.8810 0.8800 0.8760
5.148273 0.8760 0.8750 0.8750 0.8830 0.8830
5.181000 0.8800 0.8750 0.8710 0.8710 0.8680
5.213273 0.8700 0.8710 0.8730 0.8750 0.8750
5.245000 0.8760 0.8650 0.8650 0.8670 0.8750
5.277273 0.8780 0.8780 0.8750 0.8750 0.8710
5.310000 0.8670 0.8650 0.8620 0.8600 0.8570
5.342273 0.8520 0.8520 0.8490 0.8490 0.8500
5.374000 0.8520 0.8540 0.8540 0.8550 0.8570
5.406273 0.8580 0.8620 0.8650 0.8670 0.8670
5.439000 0.8680 0.8680 0.8670 0.8670 0.8630
5.471273 0.8580 0.8520 0.8500 0.8520 0.8520
5.503000 0.8580 0.8580 0.8540 0.8470 0.8440
5.535273 0.8410 0.8390 0.8390 0.8390 0.8370
5.568000 0.8390 0.8410 0.8440 0.8470 0.8490
5.600273 0.8500 0.8500 0.8470 0.8470 0.8460
5.632000 0.8460 0.8440 0.8440 0.8440 0.8420
5.664273 0.8370 0.8330 0.8240 0.8110 0.8100
5.697000 0.8110 0.8150 0.8180 0.8200 0.8230
5.729273 0.8240 0.8230 0.8230 0.8210 0.8200
5.761000 0.8160 0.8110 0.8100 0.8070 0.8030
5.793273 0.8000 0.7970 0.7900 0.7840 0.7810
5.826000 0.7790 0.7790 0.7820 0.7870 0.7890
5.858273 0.7890 0.7900 0.7900 0.7900 0.7890
5.890000 0.7890 0.7870 0.7860 0.7860 0.7840
5.922273 0.7840 0.7820 0.7810 0.7770 0.7770
5.955000 0.7760 0.7770 0.7790 0.7810 0.7840
5.987273 0.7870 0.7890 0.7900 0.7900 0.7920
6.019000 0.7950 0.7990 0.8000 0.8000 0.8000
6.051273 0.8020 0.8020 0.8050 0.8050 0.8080
6.084000 0.8110 0.8130 0.8130 0.8150 0.8160
6.116273 0.8180 0.8180 0.8210 0.8230 0.8240
6.148000 0.8280 0.8280 0.8230 0.8200 0.8180
6.180273 0.8150 0.8130 0.8110 0.8110 0.8100
6.213000 0.8100 0.8100 0.8110 0.8130 0.8150
6.245273 0.8150 0.8130 0.8110 0.8130 0.8130
6.277000 0.8150 0.8150 0.8160 0.8180 0.8180
6.309273 0.8200 0.8200 0.8210 0.8210 0.8230
6.342000 0.8240 0.8240 0.8230 0.8240 0.8280
6.374273 0.8360 0.8360 0.8310 0.8280 0.8240
6.406000 0.8210 0.8160 0.8160 0.8160 0.8160
6.438273 0.8150 0.8100 0.8080 0.8080 0.8070
6.471000 0.8070 0.8070 0.8050 0.8020 0.7990
6.503273 0.7950 0.7900 0.7890 0.7870 0.7860
6.535000 0.7820 0.7810 0.7760 0.7690 0.7610
6.567273 0.7500 0.7350 0.7170 0.7140 0.7080
6.600000 0.6950 0.6800 0.6590 0.6330 0.6020
6.632273 0.5850 0.5680 0.5510 0.5360 0.5210
6.665000 0.5050 0.4920 0.4780 0.4630 0.4480
6.697273 0.4350 0.4190 0.4050 0.3880 0.3710
6.729000 0.3590 0.3450 0.3290 0.3060 0.2470
6.761273 0.2150 0.1810 0.1440 0.1080 0.0720
6.794000 0.0370 0.0370 0.0450 0.0550 0.0640
6.826273 0.0720 0.0770 0.0770 0.0630 0.0560
6.858000 0.0500 0.0380 0.0300 0.0290 0.0290
6.890273 0.0300 0.0320 0.0350 0.0400 0.0450
6.923000 0.0550 0.0580 0.0870 0.1160 0.1450
6.955273 0.1750 0.2280 0.2560 0.2800 0.3060
6.987000 0.3290 0.3500 0.3690 0.3880 0.4050
7.019273 0.4190 0.4320 0.4420 0.4480 0.4660
7.052000 0.4680 0.4660 0.4650 0.4520 0.4480
7.084273 0.4440 0.4350 0.4270 0.4160 0.4030
7.116000 0.3870 0.3690 0.3500 0.3250 0.3120
7.148273 0.2860 0.2540 0.2170 0.1970 0.1760
7.181000 0.1370 0.1030 0.0740 0.0550 0.0480
7.213273 0.0340 0.0290 0.0270 0.0270 0.0300
7.245000 0.0340 0.0370 0.0370 0.0370 0.0340
7.277273 0.0320 0.0300 0.0320 0.0480 0.0680
7.310000 0.0840 0.1100 0.1440 0.1840 0.2780
7.342273 0.3290 0.3770 0.4240 0.4680 0.5050
7.374000 0.5340 0.5550 0.5720 0.5780 0.5810
7.406273 0.5910 0.6150 0.6320 0.6430 0.6530
7.439000 0.6580 0.6620 0.6670 0.6690 0.6720
7.471273 0.6750 0.6740 0.6690 0.6590 0.6450
7.503000 0.6430 0.6380 0.6270 0.6170 0.6090
7.535273 0.6060 0.6070 0.6150 0.6220 0.6270
7.568000 0.6360 0.6380 0.6380 0.6380 0.6360
7.600273 0.6220 0.6120 0.6090 0.6060 0.6040
7.632000 0.5980 0.5940 0.5930 0.5930 0.5940
7.664273 0.5980 0.5980 0.5960 0.5930 0.5880
7.697000 0.5850 0.5800 0.5760 0.5720 0.5650
7.729273 0.5570 0.5490 0.5380 0.5250 0.5100
7.761000 0.4920 0.4700 0.4450 0.4180 0.3850
7.793273 0.3480 0.3060 0.2570 0.2250 0.2040
7.826000 0.1940 0.1830 0.1570 0.1160 0.1080
7.858273 0.1000 0.0680 0.0580 0.0530 0.0380
7.890000 0.0340 0.0300 0.0250 0.0240 0.0220
7.922273 0.0210 0.0190 0.0190 0.0190 0.0190
7.955000 0.0210 0.0210 0.0220 0.0240 0.0250
7.987273 0.0270 0.0300 0.0370 0.0690 0.0900
8.019000 0.1130 0.1370 0.1620 0.1860 0.2380
8.051273 0.2640 0.2900 0.3160 0.3410 0.3670
8.084000 0.3900 0.4130 0.4350 0.4550 0.4740
8.116273 0.4910 0.5050 0.5180 0.5280 0.5340
8.148000 0.5390 0.5420 0.5470 0.5510 0.5550
8.180273 0.5620 0.5670 0.5730 0.5810 0.5890
8.213000 0.5990 0.6090 0.6140 0.6190 0.6230
8.245273 0.6270 0.6320 0.6360 0.6410 0.6450
8.277000 0.6480 0.6510 0.6510 0.6530 0.6540
8.309273 0.6540 0.6560 0.6560 0.6540 0.6530
8.342000 0.6530 0.6510 0.6510 0.6490 0.6480
8.374273 0.6410 0.6330 0.6250 0.6150 0.6040
8.406000 0.5930 0.5810 0.5670 0.5540 0.5380
8.438273 0.5210 0.5040 0.4860 0.4660 0.4450
8.471000 0.4240 0.4010 0.3770 0.3530 0.3270
8.503273 0.2990 0.2700 0.2410 0.2100 0.1940
8.535000 0.1780 0.1600 0.1410 0.1190 0.0980
8.567273 0.0770 0.0580 0.0400 0.0370 0.0320
8.600000 0.0300 0.0240 0.0220 0.0210 0.0210
8.632273 0.0210 0.0240 0.0290 0.0320 0.0370
8.665000 0.0470 0.0610 0.0770 0.0980 0.1210
8.697273 0.1440 0.1700 0.1940 0.2440 0.2650
8.729000 0.2860 0.3030 0.3200 0.3380 0.3510
8.761273 0.3560 0.3610 0.3590 0.3580 0.3430
8.794000 0.3290 0.3090 0.2900 0.2700 0.2520
8.826273 0.2330 0.2130 0.2040 0.1940 0.1940
8.858000 0.2330 0.2520 0.2730 0.2930 0.3120
8.890273 0.3330 0.3530 0.3740 0.3880 0.4520
8.923000 0.4710 0.4870 0.5020 0.5150 0.5260
8.955273 0.5380 0.5470 0.5550 0.5640 0.5720
8.987000 0.5800 0.5860 0.5940 0.6040 0.6140
9.019273 0.6230 0.6320 0.6330 0.6380 0.6400
9.052000 0.6410 0.6430 0.6480 0.6490 0.6490
9.084273 0.6460 0.6380 0.6360 0.6330 0.6320
9.116000 0.6270 0.6230 0.6200 0.6150 0.6110
9.148273 0.6070 0.6010 0.5960 0.5890 0.5750
9.181000 0.5550 0.5460 0.5230 0.5210 0.5120
9.213273 0.4940 0.4760 0.4570 0.4390 0.4190
9.245000 0.3980 0.3790 0.3580 0.3380 0.3170
9.277273 0.2960 0.2750 0.2540 0.2350 0.2130
9.310000 0.2040 0.1920 0.1710 0.1520 0.1310
9.342273 0.1110 0.0920 0.0720 0.0530 0.0420
9.374000 0.0320 0.0240 0.0190 0.0160 0.0160
9.406273 0.0140 0.0140 0.0140 0.0160 0.0160
9.439000 0.0170 0.0190 0.0240 0.0320 0.0350
9.471273 0.0560 0.0690 0.0920 0.1210 0.1530
9.503000 0.1880 0.2510 0.2730 0.3090 0.3410
9.535273 0.3710 0.3980 0.4240 0.4470 0.4680
9.568000 0.4890 0.5070 0.5230 0.5380 0.5520
9.600273 0.5640 0.5760 0.5860 0.5960 0.6040
9.632000 0.6140 0.6200 0.6280 0.6350 0.6360
9.664273 0.6380 0.6450 0.6510 0.6580 0.6640
9.697000 0.6690 0.6720 0.6770 0.6800 0.6800
9.729273 0.6830 0.6850 0.6870 0.6880 0.6900
9.761000 0.6930 0.6950 0.6980 0.7010 0.7060
9.793273 0.7130 0.7190 0.7270 0.7320 0.7370
9.826000 0.7400 0.7450 0.7480 0.7520 0.7560
9.858273 0.7600 0.7630 0.7660 0.7690 0.7730
9.890000 0.7760 0.7770 0.7810 0.7820 0.7840
9.922273 0.7870 0.7900 0.7920 0.7920 0.7920
9.955000 0.7920 0.7940 0.7940 0.7970 0.7970
9.987273 0.8000 0.8020 0.8020 0.8030 0.8070
10.019000 0.8080 0.8100 0.8100 0.8100 0.8100
10.051273 0.8100 0.8080 0.8080 0.8080 0.8080
10.084000 0.8080 0.8080 0.8080 0.8100 0.8100
10.116273 0.8110 0.8130 0.8130 0.8130 0.8130
10.148000 0.8130 0.8130 0.8110 0.8110 0.8100
10.180273 0.8080 0.8070 0.8070 0.8050 0.8070
10.213000 0.8070 0.8070 0.8070 0.8070 0.8070
10.245273 0.8070 0.8070 0.8050 0.8050 0.8030
10.277000 0.8030 0.8030 0.8030 0.8020 0.8000
10.309273 0.7970 0.7950 0.7900 0.7870 0.7860
10.342000 0.7840 0.7820 0.7810 0.7820 0.7840
10.374273 0.7840 0.7840 0.7820 0.7820 0.7770
10.406000 0.7730 0.7710 0.7680 0.7660 0.7630
10.438273 0.7610 0.7600 0.7600 0.7560 0.7550
10.471000 0.7520 0.7450 0.7420 0.7370 0.7340
10.503273 0.7290 0.7220 0.7190 0.7160 0.7090
10.535000 0.7030 0.7010 0.6980 0.6920 0.6850
10.567273 0.6800 0.6750 0.6700 0.6670 0.6620
10.600000 0.6590 0.6560 0.6530 0.6490 0.6450
10.632273 0.6410 0.6360 0.6300 0.6230 0.6170
10.665000 0.6070 0.5980 0.5890 0.5760 0.5700
10.697273 0.5590 0.5490 0.5360 0.5250 0.5130
10.729000 0.5070 0.5020 0.4970 0.4920 0.4890
10.761273 0.4910 0.4990 0.5050 0.5130 0.5210
10.794000 0.5510 0.5620 0.5670 0.5910 0.5990
10.826273 0.6040 0.6140 0.6230 0.6320 0.6380
10.858000 0.6460 0.6510 0.6560 0.6610 0.6620
10.890273 0.6620 0.6640 0.6660 0.6660 0.6660
10.923000 0.6690 0.6690 0.6690 0.6660 0.6660
10.955273 0.6640 0.6620 0.6580 0.6540 0.6490
10.987000 0.6450 0.6400 0.6350 0.6280 0.6220
11.019273 0.6150 0.6090 0.6020 0.5940 0.5860
11.052000 0.5780 0.5680 0.5590 0.5470 0.5380
11.084273 0.5250 0.5130 0.4990 0.4860 0.4700
11.116000 0.4550 0.4370 0.4190 0.4050 0.3950
11.148273 0.3790 0.3640 0.3510 0.3350 0.3190
11.181000 0.2960 0.2690 0.2390 0.2380 0.2090
11.213273 0.2020 0.1960 0.1880 0.1550 0.1290
11.245000 0.1060 0.0870 0.0740 0.0560 0.0450
11.277273 0.0370 0.0270 0.0220 0.0210 0.0210
11.310000 0.0190 0.0190 0.0190 0.0210 0.0210
11.342273 0.0220 0.0250 0.0290 0.0320 0.0350
11.374000 0.0420 0.0500 0.0590 0.0740 0.0900
11.406273 0.1110 0.1360 0.1650 0.1710 0.1860
11.439000 0.2350 0.2600 0.2850 0.3030 0.3300
11.471273 0.3540 0.3770 0.4000 0.4210 0.4420
11.503000 0.4600 0.4790 0.4950 0.5120 0.5260
11.535273 0.5410 0.5540 0.5670 0.5780 0.5880
11.568000 0.5980 0.6070 0.6150 0.6230 0.6300
11.600273 0.6380 0.6480 0.6590 0.6690 0.6750
11.632000 0.6750 0.6850 0.6920 0.6960 0.6980
11.664273 0.7000 0.7030 0.7050 0.7090 0.7160
11.697000 0.7240 0.7270 0.7290 0.7300 0.7300
11.729273 0.7320 0.7340 0.7350 0.7370 0.7400
11.761000 0.7430 0.7470 0.7500 0.7520 0.7520
11.793273 0.7530 0.7530 0.7560 0.7600 0.7610
11.826000 0.7640 0.7660 0.7690 0.7710 0.7730
11.858273 0.7740 0.7770 0.7790 0.7820 0.7860
11.890000 0.7890 0.7920 0.7940 0.7940 0.7950
11.922273 0.7970 0.7990 0.8000 0.8030 0.8030
11.955000 0.8030 0.8050 0.8050 0.8070 0.8070
11.987273 0.8100 0.8100 0.8110 0.8110 0.8110
12.019000 0.8100 0.8100 0.8100 0.8080 0.8100
12.051273 0.8130 0.8150 0.8160 0.8160 0.8180
12.084000 0.8160 0.8160 0.8160 0.8150 0.8130
12.116273 0.8110 0.8110 0.8130 0.8200 0.8230
12.148000 0.8240 0.8210 0.8130 0.8150 0.8160
12.180273 0.8230 0.8230 0.8200 0.8210 0.8230
12.213000 0.8240 0.8240 0.8260 0.8280 0.8280
12.245273 0.8290 0.8290 0.8200 0.8200 0.8210
12.277000 0.8230 0.8240 0.8290 0.8230 0.8230
12.309273 0.8240 0.8330 0.8330 0.8240 0.8240
12.342000 0.8240 0.8280 0.8310 0.8310 0.8330
12.374273 0.8330 0.8330 0.8310 0.8310 0.8310
12.406000 0.8280 0.8240 0.8240 0.8240 0.8260
12.438273 0.8310 0.8330 0.8330 0.8310 0.8290
12.471000 0.8290 0.8280 0.8290 0.8290 0.8280
12.503273 0.8280 0.8310 0.8340 0.8340 0.8310
12.535000 0.8280 0.8260 0.8240 0.8280 0.8310
12.567273 0.8290 0.8280 0.8240 0.8240 0.8240
12.600000 0.8280 0.8260 0.8210 0.8210 0.8210
12.632273 0.8240 0.8340 0.8340 0.8290 0.8230
12.665000 0.8200 0.8200 0.8210 0.8210 0.8280
12.697273 0.8280 0.8210 0.8230 0.8240 0.8260
12.729000 0.8260 0.8280 0.8280 0.8280 0.8260
12.761273 0.8240 0.8210 0.8210 0.8230 0.8290
12.794000 0.8310 0.8290 0.8280 0.8260 0.8230
12.826273 0.8210 0.8210 0.8210 0.8210 0.8260
12.858000 0.8240 0.8200 0.8160 0.8160 0.8130
12.890273 0.8130 0.8110 0.8110 0.8100 0.8070
12.923000 0.8050 0.8030 0.8030 0.8020 0.8000
12.955273 0.8000 0.7990 0.7990 0.7990 0.7970
12.987000 0.7920 0.7860 0.7770 0.7740 0.7690
13.019273 0.7680 0.7660 0.7630 0.7600 0.7550
13.052000 0.7470 0.7400 0.7350 0.7340 0.7290
13.084273 0.7220 0.7190 0.7160 0.7110 0.7090
13.116000 0.7080 0.7080 0.7080 0.7080 0.7080
13.148273 0.7090 0.7090 0.7110 0.7140 0.7160
13.181000 0.7170 0.7220 0.7260 0.7320 0.7350
13.213273 0.7400 0.7430 0.7470 0.7470 0.7480
13.245000 0.7500 0.7530 0.7560 0.7630 0.7680
13.277273 0.7730 0.7760 0.7790 0.7820 0.7860
13.310000 0.7890 0.7900 0.7920 0.7920 0.7950
13.342273 0.7990 0.8000 0.8020 0.8020 0.8030
13.374000 0.8050 0.8080 0.8100 0.8110 0.8110
13.406273 0.8100 0.8100 0.8100 0.8110 0.8110
13.439000 0.8130 0.8150 0.8160 0.8180 0.8160
13.471273 0.8150 0.8110 0.8100 0.8100 0.8100
13.503000 0.8100 0.8100 0.8110 0.8130 0.8150
13.535273 0.8130 0.8130 0.8110 0.8130 0.8150
13.568000 0.8160 0.8200 0.8230 0.8230 0.8200
13.600273 0.8160 0.8130 0.8110 0.8100 0.8130
13.632000 0.8160 0.8180 0.8200 0.8200 0.8180
13.664273 0.8160 0.8150 0.8130 0.8110 0.8150
13.697000 0.8160 0.8160 0.8180 0.8200 0.8210
13.729273 0.8200 0.8180 0.8160 0.8150 0.8130
13.761000 0.8150 0.8150 0.8160 0.8150 0.8130
13.793273 0.8130 0.8110 0.8100 0.8110 0.8130
13.826000 0.8180 0.8160 0.8150 0.8130 0.8110
13.858273 0.8100 0.8100 0.8110 0.8130 0.8110
13.890000 0.8130 0.8150 0.8160 0.8160 0.8130
13.922273 0.8110 0.8100 0.8100 0.8080 0.8080
13.955000 0.8080 0.8080 0.8080 0.8070 0.8070
13.987273 0.8070 0.8070 0.8070 0.8070 0.8070
14.019000 0.8050 0.8030 0.8030 0.8050 0.8050
14.051273 0.8070 0.8080 0.8080 0.8080 0.8070
14.084000 0.8070 0.8050 0.8030 0.8020 0.8000
14.116273 0.7970 0.7970 0.8000 0.8000 0.8000
14.148000 0.8000 0.7970 0.7950 0.7940 0.7970
14.180273 0.7970 0.8000 0.8000 0.8000 0.7990
14.213000 0.7990 0.7990 0.7990 0.7970 0.7970
14.245273 0.7940 0.7940 0.7940 0.7920 0.7920
14.277000 0.7920 0.7920 0.7900 0.7900 0.7900
14.309273 0.7900 0.7900 0.7900 0.7900 0.7890
14.342000 0.7890 0.7870 0.7870 0.7860 0.7840
14.374273 0.7820 0.7810 0.7790 0.7790 0.7790
14.406000 0.7790 0.7790 0.7770 0.7740 0.7730
14.438273 0.7710 0.7660 0.7640 0.7640 0.7660
14.471000 0.7660 0.7660 0.7680 0.7680 0.7640
14.503273 0.7630 0.7610 0.7600 0.7600 0.7600
14.535000 0.7580 0.7580 0.7560 0.7560 0.7530
14.567273 0.7520 0.7480 0.7430 0.7430 0.7420
14.600000 0.7420 0.7400 0.7400 0.7390 0.7370
14.632273 0.7370 0.7340 0.7320 0.7270 0.7260
14.665000 0.7240 0.7240 0.7220 0.7220 0.7220
14.697273 0.7220 0.7220 0.7190 0.7170 0.7140
14.729000 0.7130 0.7090 0.7090 0.7080 0.7060
14.761273 0.7060 0.7050 0.7030 0.7030 0.7030
14.794000 0.7010 0.7010 0.7010 0.7000 0.7000
14.826273 0.7000 0.7000 0.6980 0.6980 0.7000
14.858000 0.7000 0.7000 0.7000 0.7000 0.7000
14.890273 0.7000 0.6980 0.6980 0.6980 0.6980
14.923000 0.6980 0.6960 0.6960 0.7010 0.7050
14.955273 0.7060 0.7080 0.7080 0.7080 0.7090
14.987000 0.7060 0.7010 0.6960 0.6920 0.6880
15.019273 0.6870 0.6880 0.6870 0.6850 0.6850
15.052000 0.6850 0.6850 0.6870 0.6880 0.6920
15.084273 0.6950 0.6960 0.6960 0.6960 0.6930
15.116000 0.6930 0.6930 0.6950 0.6980 0.7000
15.148273 0.6980 0.6980 0.7010 0.7010 0.7010
15.181000 0.7000 0.7030 0.7010 0.6980 0.6920
15.213273 0.6900 0.6850 0.6820 0.6820 0.6830
15.245000 0.6830 0.6830 0.6820 0.6820 0.6820
15.277273 0.6820 0.6770 0.6750 0.6740 0.6720
15.310000 0.6720 0.6700 0.6690 0.6660 0.6620
15.342273 0.6590 0.6590 0.6590 0.6580 0.6540
15.374000 0.6480 0.6460 0.6430 0.6480 0.6450
15.406273 0.6430 0.6410 0.6410 0.6430 0.6430
15.439000 0.6430 0.6410 0.6410 0.6380 0.6350
15.471273 0.6270 0.6230 0.6220 0.6220 0.6200
15.503000 0.6200 0.6170 0.6070 0.5990 0.5940
15.535273 0.5940 0.5980 0.5980 0.5980 0.5940
15.568000 0.5850 0.5830 0.5830 0.5800 0.5760
15.600273 0.5730 0.5640 0.5520 0.5520 0.5550
15.632000 0.5570 0.5590 0.5590 0.5550 0.5540
15.664273 0.5520 0.5510 0.5460 0.5470 0.5520
15.697000 0.5520 0.5470 0.5420 0.5420 0.5460
15.729273 0.5460 0.5460 0.5440 0.5420 0.5420
15.761000 0.5420 0.5410 0.5390 0.5390 0.5380
15.793273 0.5360 0.5330 0.5340 0.5310 0.5290
15.826000 0.5290 0.5290 0.5280 0.5260 0.5230
15.858273 0.5200 0.5170 0.5150 0.5170 0.5170
15.890000 0.5180 0.5230 0.5230 0.5210 0.5200
15.922273 0.5200 0.5180 0.5180 0.5200 0.5200
15.955000 0.5170 0.5200 0.5180 0.5200 0.5210
15.987273 0.5230 0.5250 0.5260
##END=
