##TITLE=Ethylene Oxide
##JCAMP-DX=4.24
##DATA TYPE=INFRARED SPECTRUM
##CLASS=IUPAC A
##ORIGIN=NIST, Anayltical Chemistry Division, 301-975-3108
##OWNER=COPYRIGHT (C) 1998 by the U.S. Secretary of Commerce
##DATE=98/10/1
##$SPECTRA VERSION=1.00
##$UNCERTAINTY IN Y=2.1 % relative (B=1.1E-04,C=1.2E-09,D=2.7E-14)
##CAS NAME=1,2-Epoxyethane
##CAS REGISTRY NO=75-21-8
##MOLFORM=C2 H4 O
##MP=-111 C
##BP=13.5 C
##$NIST SOURCE=QUANT-IR
##SPECTROMETER/DATA SYSTEM=IFS66V (Bruker)
##INSTRUMENT PARAMETERS=KBr Beam splitter; MCT Detector; Multipass cell
##STATE=gas
##SAMPLE DESCRIPTION=Ethylene Oxide Primary Gas Standard
##PRESSURE=101.3 kPa
##TEMPERATURE=23 C
##SAMPLING PROCEDURE=1 L/min Flow
##RESOLUTION=0.9640
##DATA PROCESSING=Triangular Apodization
##XUNITS=cm-1
##YUNITS=(micromol/mol)-1m-1 (base 10)
##XFACTOR=1.0
##YFACTOR=9.0949E-13
##DELTAX=0.4820
##FIRSTX=575.169
##LASTX=3975.077
##FIRSTY=-5.08E-07
##MAXX=3974.59
##MINX=575.17
##MAXY=.0016113
##MINY=-8.13E-07
##NPOINTS=7053
##XYDATA=(X++(Y..Y))
575.17-559470-165116-24902-200262-25114 87410
577.58 111870-514182-894000-572810-466382-540976
580.47-215568 38368-450812-487082-143464-313642
583.37-179680-295114-507698-180682-194376-191260
586.26-355824-526626-333668-206660-182042-85930
589.15-115966-133160-151050-280454-9880 22090
592.04-164750-155642-120090-9990-214412-409146
594.94-435776-588190-449928-24012-44698-409612
597.83-526232-467450-483496-344304-294760-242996
600.72 15878 31386-89524-152068-76330-82620
603.61-315554-349236-145804-184762-413608-423126
606.51-457664-503560-383480-179078-247188-373534
609.40-239802-220142-231844-215434-174416-240548
612.29-284956-84900-53432-157468-193544-289276
615.18-295850-223270-201202-269764-362250-207460
618.08-170790-266354-88376-159418-270720-96330
620.97-116536-208506-128032-204716-254748-154366
623.86-211428-179382-173920-192472-242304-241182
626.76-119236-191354-296558-314762-187846-280828
629.65-379742-226506-169094-121280-209274-321598
632.54-290680-297348-221668-151944-151940-282364
635.43-356098-127060-54362-168286-224924-275484
638.33-256690-287798-197692-71164-83422-39254
641.22-72270-165608-200444-254592-283780-191676
644.11-179652-222072-232726-253090-336564-294386
647.00-216358-288668-253254-213718-218504-123244
649.90-91526-174962-215266-249904-253490-184868
652.79-183550-222676-258844-204850-78042-63264
655.68-210182-245464-170610-123234-204712-234540
658.58-119922-201696-267044-159336-124936-177828
661.47-207588-101428-9172-72968-120594-208470
664.36-223584-128420-197900-316250-275640-259624
667.25-274480-166238-120984-170802-124608-113502
670.15-163330-157560-187176-162450-170850-115694
673.04-105170-197676-160158-212828-151704-96938
675.93-201632-161918-77636-25712-52912-124874
678.82-142890-146022-172028-149036-82776-24314
681.72 6342-20160-47578-93590-151500-114464
684.61-93102-192348-266224-166042-127560-212902
687.50-135316-104504-146554-100672-129566-120746
690.40-58902-121984-199602-213740-128632-129774
693.29-217176-204900-210222-184550-184636-250560
696.18-194620-222454-177214-52146-147594-216564
699.07-141726-272204-255002-89950-113662-115312
701.97-118638-172420-130280-37852-85066-137008
704.86-235904-299676-291556-276922-211622-143132
707.75-96258-136266-214570-167372-162032-224666
710.64-213584-210292-154124-131936-104498-60632
713.54-125362-172062-193090-192570-188290-200430
716.43-248118-245186-146312-132034-162694-105492
719.32-105122-149766-60174-88198-83196-42648
722.22-111286-65048-105746-173508-139104-148938
725.11-195154-231344-222240-184314-86384-57644
728.00-128942-80708-93730-142122-75308-44358
730.89-59586-26568 12760-4630 15406 35652
733.79-15962-48762-25168 31424 22736-14412
736.68-3450-4686-26582-6192 12504 27650
739.57 50842 68368 76644 94250 96414 68382
742.46 108600 125086 141122 184162 144424 100938
745.36 117204 146722 155252 143298 183238 248578
748.25 278194 222620 208182 229934 249474 259090
751.14 236404 236164 283342 358376 394446 442696
754.04 402292 409464 403834 365266 417520 466500
756.93 542744 537694 512992 476974 485006 607128
759.82 614852 544566 549636 595360 643688 720100
762.71 790932 825742 878820 891404 907004 953446
765.61 948696 956692 1093072 1177270 1099812 1081840
768.50 1152460 1246538 1312034 1443050 1473402 1403628
771.39 1480208 1550172 1598002 1771882 1884708 1916196
774.28 1987140 1980864 2164122 2478172 2339248 2352152
777.18 2702704 2566986 2686880 3125066 3013404 3225164
780.07 3454836 3205132 3751236 4086288 3657716 4114532
782.96 4344584 4095954 4850150 4965250 4690338 5402986
785.86 5437888 5583850 6240586 6225466 6401212 6808136
788.75 6852076 7137200 7827250 7904526 7926180 8423972
791.64 8500268 8775002 9453174 9478396 9895248 10905480
794.53 10485760 10563760 11746740 11193980 11981800 12947260
797.43 12118250 12929250 13388390 12832800 14274200 14882180
800.32 13904430 15006400 15571270 14864690 16177990 16589560
803.21 15470240 16612150 17475620 16880890 18203810 18668550
806.10 18748400 21945340 24764750 25479770 26393390 25716240
809.00 25147450 26340600 25944080 26186460 26974880 26519820
811.89 26484830 27057200 27233610 28674110 29762820 30103940
814.78 30847740 31264840 30698070 29405590 27748880 26761280
817.68 27996210 33733950 43983520 55650880 65200640 72466790
820.57 78473770 75936290 55756040 32242260 22811950 20692560
823.46 20176320 21195110 22816180 23910420 25707150 27873550
826.35 28522690 30070960 32339050 33527100 36845940 41172980
829.25 42467790 45140070 51407360 54134350 58203100 66894510
832.14 67849870 71786860 81690100 84842630 90585860 97359250
835.03 102730700 109059000 113391500 121278100 127763200 129417000
837.92 136811300 142314100 140932500 140953200 140275900 135923600
840.82 131862700 133297700 131872000 128743500 131424500 131259500
843.71 126910200 129423600 135542600 134710400 131963900 136328800
846.60 140886900 141181800 146490400 150256800 148925200 153756500
849.50 160346400 163445500 165929900 169438400 176110200 177890000
852.39 178111100 184883200 191062100 191376500 192203400 197889200
855.28 196926500 197513600 204727300 205163500 198460000 197583000
858.17 204109000 198768500 191627100 198247400 192979000 180108700
861.07 183456400 181615000 168820000 166486400 169616700 162939000
863.96 158147000 166311400 168713800 163014800 169194700 180398600
866.85 181776600 187959800 203418600 215266000 227643100 246049200
869.74 262017000 273299900 284005600 293959600 294643000 286318700
872.64 271821200 246280800 214506200 176518300 135542400 97596820
875.53 66635360 50624020 51756700 70377450 101759300 138129400
878.42 173309800 195042600 209444900 214464600 216515200 221605100
881.31 218657000 212055700 205942800 199206700 190929400 180202700
884.21 172233200 169276900 156783200 154570100 157681100 148104900
887.10 143030800 144497200 145334900 137128800 139176200 145863700
889.99 138070700 136435000 140161700 142711900 135880500 135826700
892.89 147364700 137880500 136426800 144417700 137055300 138662800
895.78 139445000 139512000 143583700 132328000 135642800 141679400
898.67 132205900 135081600 136087200 131601100 131800300 124818400
901.56 129942700 132277300 118115900 124350000 125119400 112227600
904.46 117883100 119792700 111547100 109099700 106064500 108176000
907.35 105534400 96489690 101347500 99417890 88988340 93139590
910.24 90559380 82849620 86486260 82553220 78473320 78047970
913.13 70383680 72757080 73372390 63020140 65305600 66043560
916.03 57216650 57931870 57310580 52563280 53466480 49536770
918.92 46955140 47041910 41559650 42889320 43575360 36191720
921.81 36063860 37194400 32563610 32266840 31660440 28568780
924.71 28541850 26676990 24522230 25210430 22780940 20659220
927.60 21997770 19439630 17481320 19343640 16956080 14824720
930.49 15724540 13910100 13352470 13513450 11543780 11755520
933.38 11022190 9333562 10341370 9308750 7878786 8624480
936.28 7689164 6895322 7103992 6385060 5979288 5669186
939.17 5119298 5106568 4838682 4313410 4277156 4088400
942.06 3477454 3383718 3405562 2928294 2881300 2837430
944.95 2418152 2405798 2209832 1966376 2112142 1833290
947.85 1676732 1681128 1349890 1416226 1442626 1222400
950.74 1272738 1076290 884792 976756 879418 860960
953.63 807726 646958 688340 614318 498610 530782
956.53 479768 475312 467874 413354 432302 370736
959.42 314524 324786 262502 253310 256668 241062
962.31 269412 221392 157046 131580 127652 118436
965.20 83318 64574 58734 47380 87028 109906
968.10 37418 59870 79056 26146 10402-15706
970.99-50680-45090-33162 1462 29596 33712
973.88 9786-33972-42650-20264-20018-43866
976.77-30568 1666 1484-36122-42754-57318
979.67-60860-85836-82978-79978-90184-78234
982.56-104418-76586-60514-46030-40556-89010
985.45-86882-69486-77418-69754-89594-88732
988.35-125168-156180-123992-114964-105954-118062
991.24-107458-100800-98794-95488-120632-121710
994.13-99596-86930-121412-113344-87878-102982
997.02-105578-134424-154050-143000-145526-115048
999.92-84500-83076-103186-120184-118906-148814
1002.81-148602-122574-113720-123620-127364-96352
1005.70-97902-134228-165790-159020-132304-116474
1008.59-82058-60730-79000-122380-133914-86678
1011.49-62360-67538-66818-85524-125230-134724
1014.38-101882-87596-102936-95178-112642-139790
1017.27-105404-76900-93102-88576-126254-140022
1020.17-97912-107146-119748-94164-97086-115958
1023.06-118958-98120-73716-64002-65908-89772
1025.95-76986-60522-63058-54570-17464 19048
1028.84 148780 413336 382214 184774 84944-13322
1031.74-32736-38358-32924-16528-31028-15870
1034.63-22600-30964-11470-39076-43136-25928
1037.52-7954 3854-27956-24490 18310 55390
1040.41 82330 92568 57174 31908 102830 123602
1043.31 85852 79072 109022 139128 149054 133818
1046.20 102622 102708 126232 116032 166876 244826
1049.09 214564 195748 172378 158236 207650 217652
1051.99 216342 244378 229738 231350 239046 305544
1054.88 351942 344680 407708 424970 412966 315610
1057.77 328218 463166 375124 368078 429192 450396
1060.66 502300 504174 568424 554610 577000 679034
1063.56 628870 591490 596146 720224 883702 791506
1066.45 737336 752312 838158 882010 745208 824820
1069.34 899894 914550 929780 919928 1068732 1028694
1072.23 1012646 1056452 992446 1118484 1086116 1137454
1075.13 1218788 1190186 1239482 1210194 1384560 1355668
1078.02 1322330 1408950 1317728 1554874 1519274 1435326
1080.91 1447948 1524434 1816946 1694150 1675444 1593252
1083.81 1738586 1894674 1711892 1840042 1818216 2000588
1086.70 1965496 1933804 2067608 1911100 2071886 2004510
1089.59 2095198 2066342 2107032 2284078 2050376 2203104
1092.48 2254182 2413466 2337704 2337196 2389916 2252700
1095.38 2555230 2592248 2530022 2451736 2751640 2764998
1098.27 2453520 2590564 2883164 2966584 2731952 2931970
1101.16 3097888 2939522 2948070 3358114 3389018 3187298
1104.05 3365820 3637158 3540910 3322318 3816696 4136010
1106.95 3885840 3862038 4275824 4400108 4108246 4259836
1109.84 4739974 4883014 4785324 4794320 5192506 5362396
1112.73 5155236 5338830 5879778 5977560 5639016 5849366
1115.63 6364340 6341354 5982446 6306702 6927930 6589970
1118.52 6262836 6652162 7071252 6879810 6587034 6889044
1121.41 7237966 6905186 6378616 6924290 7262302 6529400
1124.30 6752154 7629952 7523802 7768432 8428670 7991756
1127.20 7881382 8518392 8224192 8188132 8833356 8844294
1130.09 8927308 9854562 10157750 9963264 10532550 10619600
1132.98 10670840 11559760 11378110 10752640 11093930 10764710
1135.87 10099340 10152530 9340646 7721238 7464064 7476222
1138.77 7167518 7537764 8101500 9750006 14860270 22066530
1141.66 23544190 21239760 20248780 18845520 17910480 17600500
1144.55 16419980 14723290 13146280 10878770 8036648 5725518
1147.45 4797650 4782088 5131490 7689172 12528760 17521460
1150.34 19845360 17748460 14963760 13232760 12099460 11716740
1153.23 11679460 11931770 11707120 10927640 10396540 9584132
1156.12 8182326 7425268 6995568 6065806 5728218 5948850
1159.02 5629364 5353528 5625350 5991794 6201370 6604236
1161.91 7187160 7475162 7767848 8188844 8512546 8767848
1164.80 9289038 9775278 9589720 9449642 10013110 10045980
1167.69 9533298 9939886 10391730 9943052 9399548 9419704
1170.59 9845182 9236816 8723182 9365972 9095656 8289522
1173.48 8341772 8368394 8018694 7657514 7966328 8033120
1176.37 6940304 6969724 7585162 6694242 6309880 6968164
1179.26 6901508 6084552 5733720 6309370 6425138 5502366
1182.16 5446450 6168822 5691792 4914868 5203208 5517608
1185.05 5382058 4932158 4654390 5072296 5066384 4392324
1187.94 4371488 5091664 4756744 3844336 4014578 4717522
1190.84 4309994 3696866 4039264 4392582 4030114 3502190
1193.73 3617902 4055418 3872192 3299076 3299418 3723648
1196.62 3561956 3074804 3255568 3524124 3397498 3055458
1199.51 2929384 3028496 3117268 3070390 2935692 2895904
1202.41 3021740 2944624 2669324 2704276 2935916 2950852
1205.30 2749236 2646160 2737010 2827106 2726356 2726960
1208.19 2706328 2777852 2851966 2762152 2775938 2941262
1211.08 3062190 2940940 2861462 3069356 3257318 3171474
1213.98 3244464 3388898 3403538 3531806 3710502 3739666
1216.87 3805618 4054210 4277530 4291472 4442110 4875166
1219.76 4928428 4957120 5425266 5666308 5658556 5966690
1222.66 6488966 6646500 6675640 7159790 7602462 7900194
1225.55 8250424 8637988 8919654 9115208 9965224 10576410
1228.44 10642350 10887460 11776650 12281720 12271280 13092800
1231.33 13983150 14314520 14528200 15514820 16034320 15976910
1234.23 17321400 18589840 17960980 18399950 20123520 20657810
1237.12 20361020 21472250 22816710 22556290 23127990 24473680
1240.01 24731070 24445500 26407550 27126470 26355740 27033570
1242.90 28392870 28661810 28888460 29593680 30042970 30053240
1245.80 30238050 31443260 31837070 31474300 31608680 32830830
1248.69 32092750 32035590 33259900 33574120 32520480 32289950
1251.58 33401950 33321090 31852460 33216380 33408420 31008780
1254.48 31755580 32993830 31302790 30690000 32146880 32170310
1257.37 30919410 31663620 33421760 32988530 33407060 35888830
1260.26 36688770 36427200 38422480 40201270 41189640 43262520
1263.15 45545160 47029280 48431030 49431970 50819770 49997420
1266.05 48482380 46338570 41851990 36677720 29978080 22775800
1268.94 16225330 11489310 10119110 12278930 17990660 25566230
1271.83 34063660 41381120 47057540 51068720 52398800 53502090
1274.72 53028130 51498670 49810080 47881570 45993670 43035290
1277.62 40794090 39525840 37378220 35586940 35939700 35190870
1280.51 33063390 33244660 33797390 32477910 32269940 33781720
1283.40 33730080 32276260 33242310 34865510 33149980 33173100
1286.30 35644620 34687930 34023310 35466840 35121460 34375430
1289.19 34924130 35914770 35446270 34028380 34655250 34903690
1292.08 33943260 33833410 33883050 33277640 32149260 31757180
1294.97 31831380 31174630 30126650 29860540 29300350 27477330
1297.87 27327560 27884030 25911040 24474940 24707720 24022890
1300.76 22449270 21982990 21734390 20124040 19443220 19478310
1303.65 18071360 16572480 16917520 16634820 14805710 14192310
1306.54 14003570 13170190 12409670 12014760 11524960 10539120
1309.44 10126170 9822616 9062688 8494430 8382220 8094816
1312.33 7185948 6576386 6564548 6465388 5851388 5491868
1315.22 5295128 4748780 4549534 4531524 4080684 3643688
1318.12 3653082 3526690 3041232 2953702 2979608 2665298
1321.01 2450792 2407576 2231496 1966046 1925716 1851264
1323.90 1570686 1478156 1514550 1396730 1236422 1189598
1326.79 1136924 995208 928230 929338 846204 725812
1329.69 717208 708554 593766 529768 525348 483510
1332.58 412762 392336 380190 304196 292710 298426
1335.47 235474 185862 166828 172914 170210 132250
1338.36 93858 83420 66906 86746 76802 25850
1341.26 26600 30928 27596 29738 11554-12732
1344.15 13772 17034-1862-29588-57844-47736
1347.04-37930-19510-17586-42506-41204-87548
1349.94-107350-65342-90042-175388-161716-86518
1352.83-120336-152972-146534-137958-111794-87774
1355.72-110870-108884-107840-145288-133814-125168
1358.61-127572-124314-169242-148182-97646-135466
1361.51-145502-96032-72020-111868-127412-100210
1364.40-84964-59836-62360-107598-140026-155440
1367.29-121334-69320-88268-124246-104250-90292
1370.18-97756-83346-94244-122156-131090-122562
1373.08-120728-107390-88094-83342-80022-82502
1375.97-107788-115528-93680-78184-68896-100516
1378.86-80974-42452-51382-57504-55816-39042
1381.76-59912-71614-81040-83776-39610-54326
1384.65-90816-69592-58602-68002-81890-63732
1387.54-45264-47570-38458-33174-37426-35706
1390.43-60786-98654-65874-48580-61874-78492
1393.33-89224-60182-72452-73934-46810-66712
1396.22-71202-59714-55282-87990-126592-89256
1399.11-64272-39332-3382-20170-57276-87476
1402.00-87296-83138-86074-62742-73058-83790
1404.90-89728-80420-42688-81478-139844-133770
1407.79-116424-116408-112944-96916-94962-140850
1410.68-163062-124156-109846-141826-135148-119068
1413.58-127602-110230-89406-99902-117406-113532
1416.47-92970-91854-103314-107430-75654-31026
1419.36-59896-87802-77608-81446-75110-61028
1422.25-29944-29512-29492-16250-3656-7452
1425.15 5276 35866 44244 66100 75348 57712
1428.04 93366 128208 115544 153710 181276 177932
1430.93 200998 231598 277490 326074 350280 375140
1433.82 355210 397096 458850 473096 522520 576738
1436.72 604284 632032 656178 630092 652608 713490
1439.61 738930 783120 846588 875064 890572 918912
1442.50 976034 1028836 1028914 1041136 1066550 1074696
1445.40 1127134 1173924 1194594 1243068 1281474 1250238
1448.29 1282980 1325654 1269016 1252764 1279850 1297312
1451.18 1344910 1338624 1334176 1344396 1295872 1340546
1454.07 1384912 1299792 1318722 1369680 1345740 1343608
1456.97 1368898 1370816 1325404 1320856 1363990 1321634
1459.86 1286336 1345518 1339568 1322170 1422012 1462048
1462.75 1430582 1474202 1581692 1613374 1589324 1659750
1465.64 1761376 1718000 1780954 1871138 1897620 1892980
1468.54 2130428 2209152 2382050 2572858 4939878 8276108
1471.43 5792114 2808854 2566838 2396324 2410112 2456448
1474.32 2599544 2560072 2653956 2801266 2791782 2783028
1477.21 2914576 2936506 2821498 2833516 2979846 2913082
1480.11 2854040 3016084 2980508 2835376 2995682 3103754
1483.00 3002582 2919798 2803504 2685448 2711424 2881022
1485.89 3013122 2993444 3083524 3262574 3293128 3321024
1488.79 3516666 3677304 3746548 3938606 4140626 4202366
1491.68 4272728 4359192 4375168 4279438 4086684 3804898
1494.57 3421592 2919026 2417290 1854616 1290152 963656
1497.46 870536 1149236 1757546 2502838 3272896 3780682
1500.36 4014192 4106564 4189682 4269402 4219060 4040954
1503.25 3805722 3661358 3479518 3247090 3157706 3048678
1506.14 2893288 2831760 2840738 2717872 2578610 2639990
1509.03 2687892 2597522 2627992 2746282 2681194 2586112
1511.93 2772212 2856894 2711616 2818410 2966150 2861604
1514.82 2871716 2913584 2917894 2925122 2990130 3076964
1517.71 2980038 2884776 2975908 2999224 2997628 2954014
1520.61 3013620 3021922 2822596 2774326 2903014 2799078
1523.50 2585652 2654952 2621206 2457698 2528294 2518056
1526.39 2281468 2235568 2321722 2193348 2013342 2063790
1529.28 2039202 1937436 1862130 1752718 1649152 1652080
1532.18 1580496 1508184 1476386 1354314 1317540 1296590
1535.07 1158642 1118724 1153212 1060388 936766 953464
1537.96 939656 895034 853796 835260 751048 664986
1540.85 684974 625492 548378 501468 485674 463834
1543.75 423528 414996 406084 338830 311706 317730
1546.64 265606 200226 215200 210656 171194 200364
1549.53 226200 152862 90714 127164 153536 142156
1552.43 135368 124250 99964 121206 112164 70668
1555.32 77790 85870 59062 87680 122712 168926
1558.21 200492 129290 142660 197530 155740 130760
1561.10 99938 63460 98000 107878 113780 126116
1564.00 116586 119698 147368 146130 147346 166626
1566.89 184796 228664 213666 177932 217236 316476
1569.78 298788 237820 259600 274714 301778 307252
1572.67 349452 361582 316008 356678 439524 468808
1575.57 489314 543300 585748 491658 428748 538582
1578.46 654132 604478 522470 643032 733834 619288
1581.35 647826 788646 787962 734558 846082 872132
1584.25 692638 770576 1125634 1050170 756388 873996
1587.14 1303096 1238240 886432 923806 1291228 1435316
1590.03 1102216 982382 1397390 1589404 1274518 1148128
1592.92 1498140 1735774 1358944 1289020 1678750 1886922
1595.82 1572906 1344552 1700718 2191702 1850796 1430204
1598.71 1814958 2332254 2051030 1665592 1836180 2373336
1601.60 2420210 1887648 1913006 2422732 2561498 2171128
1604.49 2088992 2470916 2670934 2387324 2357654 2689984
1607.39 2773358 2514842 2582920 2863170 2920612 2652254
1610.28 2776436 2987928 2923228 2906154 3027158 3147764
1613.17 2976558 2974430 3186286 3351398 3188734 3230990
1616.07 3531804 3499658 3329910 3472774 3538270 3432792
1618.96 3411882 3361586 3233878 3453006 3563292 3101798
1621.85 3104956 3404814 3156742 3412032 3849636 3868690
1624.74 4736912 5606882 5486938 5045344 4420900 3632066
1627.64 3479048 3659464 3445006 3303904 3297638 3426158
1630.53 3573220 3630362 3675668 3743344 3698896 3957676
1633.42 4552546 4905376 5172206 5329172 5228334 4969634
1636.31 5108484 5156452 4739034 4263230 3886554 3756954
1639.21 4234886 5513038 7224008 9499676 12312910 13700360
1642.10 13433420 12010190 9340512 7066062 5820604 5093164
1644.99 5307482 5868754 7126876 8186814 7275014 7069880
1647.89 6843438 6326218 6049114 5812246 5568446 5059408
1650.78 5261300 4917602 4727424 4731318 4484654 4251072
1653.67 4123656 4074262 3646694 3787064 3688200 3339436
1656.56 3431920 3214932 3163050 3235366 2988708 2867866
1659.46 2899700 2740406 2607630 2635694 2670456 2489308
1662.35 2463234 2390592 2117270 2364436 2272928 1977392
1665.24 1992836 1952410 1808076 1857960 1889212 1597492
1668.13 1634176 1654298 1455704 1448430 1470566 1241520
1671.03 1190406 1315722 1132906 902704 990160 933144
1673.92 768172 837610 789588 668356 674526 596734
1676.81 455580 445156 424650 335146 334624 318124
1679.71 223722 232392 192478 97648 108654 78506
1682.60-2086-21356-19270 75994 257104 258306
1685.49 114198 33974-51204-81336-45692-99076
1688.38-142310-160050-143942-109106-118932-152940
1691.28-166078-122442-119680-139604-118298-50566
1694.17-6662 23194 139662 158906 92454 145508
1697.06 214558 222764 220972 224500 289344 331048
1699.95 302890 311358 278256 281080 312478 285466
1702.85 286688 318396 337882 351108 358076 391470
1705.74 414464 435106 499056 534910 529136 559586
1708.63 590706 613486 663574 680026 734550 784704
1711.53 795398 779002 770878 829510 841396 831708
1714.42 912208 911146 828220 810304 810062 841310
1717.31 807628 778908 775094 695788 652748 620038
1720.20 553054 545630 548674 507854 469996 455046
1723.10 459706 421712 373708 344578 297170 280158
1725.99 282550 250836 220078 255814 260748 204028
1728.88 198192 222514 201338 217124 293658 276634
1731.77 239644 306974 378998 313852 320324 399584
1734.67 328802 317512 366652 328096 286168 318036
1737.56 317992 257892 236520 263462 246282 213184
1740.45 209952 207974 189010 198086 233334 247838
1743.34 330164 506880 735552 1015878 1184170 1135048
1746.24 1055724 971296 849632 702886 530124 377486
1749.13 242354 138448 71428 81396 133786 210792
1752.02 343880 441978 446804 427706 421922 397882
1754.92 418846 447974 430700 409834 410328 405674
1757.81 376664 372992 360010 310028 316876 294246
1760.70 280590 282744 273968 288668 227594 201076
1763.59 268084 245360 184796 220620 242896 229168
1766.49 230612 234672 303148 329342 236774 242354
1769.38 263322 210956 290876 359408 234022 255604
1772.27 353776 214548 203524 266194 126712 166278
1775.16 285742 135992 135370 250042 134330 123582
1778.06 190270 65530 68504 187456 75732 32696
1780.95 123846 79426 26050 38802 26064 31756
1783.84 25950 28020 70758 22684-40872-5038
1786.74-7006-50114-56692-70472-54722-60660
1789.63-61848-31742-39738-86846-77560-25388
1792.52-68740-86460-94954-106164-81408-93140
1795.41-95172-116614-128650-91390-80576-76694
1798.31-73860-93812-101616-92970-95544-123654
1801.20-108576-66090-32368-16254-32978-57534
1804.09-102138-64770-2962-13330-46368-53668
1806.98-36060-18612 7738-19232-46444-28802
1809.88-9192 18348 85012 102846 85240 106376
1812.77 100494 47710 36052 78582 74662 77596
1815.66 103158 108986 55398 46580 92694 125370
1818.56 148806 130362 78796 74918 118838 105812
1821.45 101678 84176 51754 52772 77242 73872
1824.34 61696 74756 29094-21024 5672 29614
1827.23 33274-18470-37400 36402 86738 100122
1830.13 70184 23456 12378 55146 72934 72648
1833.02 81108 87870 123328 201812 297838 413492
1835.91 538928 700486 866820 1007136 932022 533758
1838.80 176164 60146 41608 42306 51096 61276
1841.70 30140-5266-39340-65738-50474-89806
1844.59-113778-22542 137060 175552 133734 119598
1847.48 110268 121402 123042 93862 63766 81384
1850.38 120560 129446 130912 127852 90560 108786
1853.27 139098 150340 174222 169294 171852 171302
1856.16 169382 201754 175506 134470 153338 158376
1859.05 160376 179084 182932 132996 128160 129808
1861.95 126776 166536 142194 120510 129434 119874
1864.84 121820 87404 53416 61932 67844 85270
1867.73 82492 44526 44826 23368 8924 27030
1870.62-6938-41630-23402 17684 9800-41716
1873.52-56388-62872-68028-41758-34492-51440
1876.41-74538-64506-58326-67260-99044-130684
1879.30-117942-80880-69868-87532-66732-43948
1882.20-32804-65830-86990-56212-38244-22098
1885.09-35968-66468-77508-74968-35664-24706
1887.98-64516-37844 37264 44794 5828-8834
1890.87 13440 27572 30122 31812 24590 15040
1893.77-22048-1802 48246 64972 60736 28524
1896.66 61010 103160 93240 80568 105378 135092
1899.55 108460 118458 143544 147174 131218 92180
1902.44 139142 229904 201266 120056 153656 186682
1905.34 125518 139046 203456 228952 225098 210096
1908.23 239790 209086 155724 212864 293058 267892
1911.12 192958 229606 265164 164864 142036 256576
1914.02 270846 215624 219868 257658 233754 184594
1916.91 221940 281228 286994 271204 267418 264194
1919.80 236414 248816 275454 276194 318114 323488
1922.69 338782 429854 454346 433120 449080 512146
1925.59 542996 569384 661826 721224 799060 935376
1928.48 1117452 1270148 1390738 1614502 1862168 2053792
1931.37 2336148 2747942 3154084 3495030 3839988 4073354
1934.26 3949950 3056622 1691536 991622 809818 731822
1937.16 642750 539968 517330 478132 528204 582568
1940.05 566544 567670 553610 504070 530324 589136
1942.94 567482 587286 625834 530284 571492 629300
1945.84 548610 585202 595874 614084 673478 622228
1948.73 725106 723760 680386 832484 818712 868794
1951.62 948888 933082 1009732 1071406 1027274 1054198
1954.51 1123796 1116648 1207242 1217502 1151050 1245512
1957.41 1252296 1228082 1318362 1275550 1344538 1443722
1960.30 1326548 1382210 1345032 1318194 1423128 1188366
1963.19 1097874 1051340 970948 1108676 1056064 1107234
1966.08 1156606 1216232 1302100 1260190 1266826 1274506
1968.98 1286690 1290214 1300630 1249860 1252448 1256830
1971.87 1258130 1312566 1327836 1330314 1391540 1447060
1974.76 1510698 1676512 1781776 1617940 1522234 1603596
1977.66 1551174 1528650 1606370 1532124 1460152 1507482
1980.55 1469604 1503528 1639838 1665460 1792558 2014596
1983.44 1828944 1572978 1581410 1572170 1582560 1659016
1986.33 1709932 1747506 1789480 1800366 1860934 1905290
1989.23 1968780 2085094 2083378 2162112 2258214 2302004
1992.12 2369190 2404560 2531444 2548500 2516026 2635154
1995.01 2613332 2653136 2775992 2697826 2788538 2809278
1997.90 2819706 2848624 2716768 2843088 2780934 2755020
2000.80 2822666 2772582 2710848 2595304 2761738 2630656
2003.69 2645286 2649362 2512034 2534036 2480336 2652950
2006.58 2699298 2790478 2824956 2932052 3083406 3127756
2009.48 3245838 3368584 3462860 3621616 3729420 3790720
2012.37 3842040 3835770 3751538 3627732 3520764 3248366
2015.26 2875942 2421934 2162114 2325574 2719604 2994292
2018.15 3263308 3721200 3403920 2604816 2063176 1614736
2021.05 1260770 1051148 1030050 1077298 1254340 1293344
2023.94 1327058 1386848 1444584 1508176 1588196 1773514
2026.83 1828228 1854126 1852004 1998774 2070980 2071550
2029.72 2112932 2141234 2233572 2151202 2147830 2187346
2032.62 2217994 2213288 2211642 2332782 2364694 2437994
2035.51 2506456 2438570 2528400 2548198 2465326 2470504
2038.40 2489784 2495276 2376272 2310992 2349196 2296686
2041.29 2214764 2153726 2117580 2103570 2013110 2010952
2044.19 2000618 1878168 1836840 1848038 1853600 1764720
2047.08 1692718 1712138 1625980 1558776 1606326 1560538
2049.97 1521104 1491492 1464970 1465770 1400202 1402602
2052.87 1329706 1243954 1295846 1257086 1170590 1156908
2055.76 1174496 1120994 1053864 1117944 1130658 1099308
2058.65 1187338 1192974 1134694 1167340 1143470 1060418
2061.54 1042806 1049538 1051674 1013814 1024962 1050858
2064.44 995084 980824 997140 956462 947544 992908
2067.33 951632 943168 1024004 1034390 1021278 1089482
2070.22 1073880 1114944 1180566 1179926 1330222 1485714
2073.11 1583172 1636290 1599662 1426724 1074062 820632
2076.01 810356 884752 966478 1041106 1145426 1153020
2078.90 1181242 1316482 1336890 1291860 1189426 1035870
2081.79 984646 1080364 1460052 2402808 3415402 3030368
2084.69 1664072 886828 709040 659332 616504 644738
2087.58 711686 766284 825414 868344 879798 938114
2090.47 852962 754320 803080 838188 875066 923112
2093.36 1009966 1187184 1345130 1373684 1446624 1560988
2096.26 1691898 1876560 2009538 2113638 2407618 2684324
2099.15 2614358 2408036 2365378 2289942 2165522 2209966
2102.04 2166658 2157318 2147800 1962514 1867744 1865906
2104.93 1824984 1775102 1723968 1780118 1874978 1771732
2107.83 1703266 1729798 1674390 1666382 1694612 1706176
2110.72 1837594 1804610 1654078 1637392 1623170 1653970
2113.61 1644252 1562060 1641884 1823768 1723430 1551314
2116.51 1584178 1599536 1517928 1532840 1545824 1533296
2119.40 1500080 1395884 1292270 1225944 1233940 1200034
2122.29 1127044 1178032 1236898 1081138 995912 1061232
2125.18 1070134 1040972 1076662 1184586 1294236 1298400
2128.08 1291338 1346186 1396896 1444176 1482972 1505794
2130.97 1557212 1474846 1282914 1117776 947136 782374
2133.86 561132 403380 413566 489252 600460 808148
2136.75 1014542 1186462 1327124 1389858 1414912 1451308
2139.65 1457018 1465552 1438590 1373906 1335944 1314962
2142.54 1253822 1205704 1173230 1125808 1130250 1092832
2145.43 1030712 1045154 1073034 1006654 933232 984982
2148.33 993108 919530 870604 942954 1003760 891952
2151.22 880766 936686 900424 903464 902388 950510
2154.11 1007994 925286 920700 896708 844590 854684
2157.00 870298 1007604 1006638 882754 898182 871968
2159.90 944258 993202 988052 1108572 1052622 933178
2162.79 913058 915428 947726 925352 1019694 1089268
2165.68 937416 908370 975566 1113198 1388128 1961990
2168.57 2917800 2785986 1676434 1107352 884794 680256
2171.47 540974 692358 779816 597260 548152 598342
2174.36 573474 543414 690140 949344 1153298 1379754
2177.25 1583796 1811112 1524462 955440 829604 645588
2180.15 470502 448154 412924 382010 399954 527668
2183.04 494102 378044 441142 472520 482394 553294
2185.93 709836 722628 612628 574014 557852 527050
2188.82 521442 624086 642276 559362 565250 604026
2191.72 587162 627756 733490 695814 626394 648678
2194.61 659820 650142 708724 823270 768062 689822
2197.50 650930 629888 686874 717902 733262 659632
2200.39 637958 698020 692504 693652 754384 798848
2203.29 724964 708260 693086 732656 804266 773150
2206.18 750674 802846 852564 793862 799160 869868
2209.07 909410 960814 1012834 997388 1002160 1058788
2211.97 1089684 1022398 979388 1106372 1194934 1121582
2214.86 1059166 1161282 1280550 1324358 1250014 1267802
2217.75 1417696 1426122 1437690 1519364 1514748 1536800
2220.64 1630128 1694974 1673152 1648872 1782194 1872518
2223.54 1895688 1936546 1860588 2065460 2169450 1999330
2226.43 2090190 2337076 2372052 2184188 2351034 2520490
2229.32 2411238 2496430 2598328 2802420 2850132 2736122
2232.21 2931630 2973362 2942852 2878460 3001136 3215722
2235.11 2963560 3014980 3311886 3257172 3146590 3356408
2238.00 3486444 3348854 3367222 3548368 3496572 3354866
2240.89 3780622 3746760 3685572 3840040 3789316 4002012
2243.79 4208446 4226126 4153178 4216016 3954058 4058038
2246.68 3997042 3945098 4073946 4069618 4038366 4012092
2249.57 4228194 4160238 4270346 4305246 4331938 4368584
2252.46 4447388 4495640 4582812 4689974 4729690 4759546
2255.36 4750888 4916486 4886554 4859206 4840516 4736352
2258.25 4604046 4221394 3704660 3175536 2907052 3032256
2261.14 3161828 3103058 2958488 2775716 2622282 2523396
2264.03 2452034 2360686 2305870 2390996 2452848 2511338
2266.93 2608544 2724476 2939562 3327780 3918310 4434508
2269.82 4444390 4460596 4729372 4784014 4750320 4522374
2272.71 4327394 4223486 4287826 4562492 4457348 4289926
2275.61 4347142 4453730 4428028 4421622 4390496 4448938
2278.50 4565644 4584032 4362916 4367922 4690632 4494832
2281.39 4427656 4599152 4483598 4171658 4004218 3984346
2284.28 3755670 3540020 3526048 3330702 3119598 3137464
2287.18 3018256 2792138 2695392 2813130 2814134 2618954
2290.07 2576870 2584408 2488796 2441418 2412986 2449990
2292.96 2487058 2438120 2502144 2501606 2550708 2571882
2295.85 2291730 2116560 2151190 2149624 2134284 2285174
2298.75 2630204 3708626 4306338 3326040 2416406 2016416
2301.64 1838830 1763416 1754942 1757644 1737130 1708850
2304.53 1651184 1628222 1508166 1482884 1496994 1460740
2307.43 1368908 1376766 1484682 1658588 1953748 2584552
2310.32 3110314 3486134 3252086 1970182 1404202 1393288
2313.21 1304966 1314384 1309888 1323492 1374292 1397702
2316.10 1359316 1388030 1519266 1680258 1705662 1663842
2319.00 1677856 1679582 1647048 1574790 1528726 1607178
2321.89 1626098 1517758 1600744 1664824 1578634 1526870
2324.78 1508762 1562978 1574662 1463490 1549490 1650246
2327.67 1483734 1402240 1495500 1531222 1388284 1320186
2330.57 1326478 1334794 1213638 1096542 1168260 1140904
2333.46 974624 912572 993470 919514 760456 811152
2336.35 858102 766110 713304 795870 816302 710482
2339.24 697318 700400 603908 584502 569860 525002
2342.14 474502 503560 595978 520816 434622 479194
2345.03 452994 484094 579546 1254018 2225890 1743654
2347.92 832828 563742 441718 369734 375110 407054
2350.82 367690 347230 327110 289850 321000 386186
2353.71 275698 214658 313868 289620 248680 274794
2356.60 209774 233418 286134 145862 147864 246078
2359.49 207522 262216 242208 160738 246002 234436
2362.39 178962 243186 199816 265890 310746 201934
2365.28 259390 265834 248454 299822 213664 265464
2368.17 299474 192066 261388 275466 302364 334744
2371.06 265576 281274 324064 322060 299710 337476
2373.96 315528 340122 358574 284270 335934 332530
2376.85 255714 293688 290070 286076 343536 303828
2379.74 311196 334416 297904 289528 283888 276722
2382.64 327326 334558 272262 258794 280006 247112
2385.53 209436 252642 235272 253742 265616 211806
2388.42 214666 232778 230852 240594 330398 368840
2391.31 355234 290296 219404 266458 297194 274752
2394.21 291288 298632 267780 237872 210182 203126
2397.10 202234 228904 242980 231540 217862 212088
2399.99 177608 168336 196558 218632 214952 195054
2402.88 216796 208238 199952 236156 249418 239356
2405.78 230540 226974 234370 194908 167896 159514
2408.67 152582 219350 239672 194756 145606 109824
2411.56 100608 71792 57798 57858 33030 29192
2414.46 25840 23522 56940 52876 43568 41280
2417.35 38964 52846 59340 51076 49264 40146
2420.24 45424 81518 72664 65432 65038 55998
2423.13 79042 76844 78766 126762 82866 42468
2426.03 77532 88620 86808 92846 99218 108412
2428.92 123342 151806 128260 103302 108768 80746
2431.81 67692 77598 66668 56482 72520 91146
2434.70 76784 48714 62640 78990 81446 76532
2437.60 51260 60546 84158 59182 49024 61546
2440.49 57552 67468 78712 71292 84400 91486
2443.38 65916 70572 102204 111150 132012 146368
2446.28 114782 35622-31940 25884 75222 59050
2449.17 76294 122934 147826 109816 19864-9466
2452.06 28802 22290-19784-14388 30962 71970
2454.95 110818 100270 224202 308576 222204 260056
2457.85 264450 224054 166024 108372 98694 65880
2460.74 69402 77706 35730 20366 30222 33448
2463.63 3716-9372 22828 31968-22522-47922
2466.52-41358-33934-10164-58422-98490-87428
2469.42-67236-87418-79114-72900-98610-120030
2472.31-143274-98702-72180-110834-158178-135830
2475.20-114844-133970-117316-94350-119308-127746
2478.10-165450-174912-191346-231586-233128-219342
2480.99-182230-187918-208978-234940-239430-230392
2483.88-240216-237190-211188-230020-252630-249036
2486.77-236980-241724-260808-278890-280072-271024
2489.67-295524-307736-291994-267750-273392-312004
2492.56-327316-306910-298548-296696-274822-195536
2495.45-137140-157698-195420-155364-140668-154140
2498.34-135798-140310-122228-145264-190130-193700
2501.24-188718-183598-192388-196786-191160-169740
2504.13-158022-174152-156474-143994-182030-258206
2507.02-273036-206910-179112-201266-225108-232778
2509.92-265226-251680-205350-198290-227352-280240
2512.81-297848-283782-254632-302142-297986-254308
2515.70-281786-298212-305350-285074-269612-290914
2518.59-303654-250292-300032-363344-314092-307826
2521.49-309356-302410-315794-301824-306290-304922
2524.38-313002-338500-314516-323198-362604-343712
2527.27-296594-318258-341296-333110-364698-364984
2530.16-325054-360054-407322-461462-489560-463678
2533.06-506940-489208-445292-396340-351750-283164
2535.95-190866-132632-95416-95968-65998 13222
2538.84 7684-32686-22182-76994-118396-129314
2541.74-178144-221344-261614-276900-287866-344834
2544.63-372250-364776-373242-368496-399650-385492
2547.52-403954-421888-386752-416816-389624-369256
2550.41-381670-328654-311470-330938-317388-330892
2553.31-345028-311864-262684-293070-277080-204728
2556.20-221156-213442-177148-169470-173212-174606
2559.09-165324-154656-142616-109200-115590-128518
2561.98-134684-194996-193062-154722-158574-150866
2564.88-59378-49938-108250-76810-81270-84742
2567.77-40042-6424 24892-5422-37242-18298
2570.66 27280 64530 56812 56240 32076 17998
2573.56 71728 119966 117578 124806 170556 159068
2576.45 122934 114026 198472 256602 220950 238940
2579.34 229776 226704 263630 324016 369792 377312
2582.23 381726 379834 398136 403106 459220 457266
2585.13 399826 466428 528658 544622 548552 613814
2588.02 636192 612672 614026 633790 643826 683154
2590.91 725274 740910 698442 640032 659124 663408
2593.80 605580 617014 783388 825534 749826 721718
2596.70 796448 845092 819940 829892 872240 862156
2599.59 808492 839670 885442 973762 996180 958078
2602.48 978716 949932 974288 988950 1000730 1091278
2605.37 1065588 1058728 1129150 1179850 1249774 1405792
2608.27 1593010 1695984 1745734 1780758 1735288 1698702
2611.16 1722014 1666508 1480704 1275032 983984 697144
2614.05 569820 560718 587628 691846 853016 1078322
2616.95 1657946 1965580 1995282 2147344 2120542 2120954
2619.84 1844230 1510836 1404508 1344336 1309788 1227468
2622.73 1199624 1200594 1189124 1156162 1121544 1121636
2625.62 1094030 1078072 1084734 1052348 1058046 1097716
2628.52 1124594 1160110 1253598 1305722 1317998 1353940
2631.41 1386098 1368878 1332894 1349418 1287906 1263286
2634.30 1332126 1305876 1283644 1297544 1247892 1205620
2637.19 1172870 1169920 1166506 1118138 1066190 1012308
2640.09 1009646 950582 852940 854274 813886 799076
2642.98 752376 714518 714900 679332 677946 629142
2645.87 629106 601174 601008 596116 486668 477838
2648.77 465736 462076 435736 349006 383016 381998
2651.66 331540 302790 261314 245166 213266 208332
2654.55 214986 176822 128942 155568 203684 193174
2657.44 140892 91654 86764 73084 51864 46476
2660.34 1696-22908 14564 17154-27090-30346
2663.23-41648-75100-81260-43116-31512-57732
2666.12-70396-107480-134610-128494-96388-67604
2669.01-106564-114462-74296-68914-73370-89026
2671.91-100588-97880-84894-104016-163916-143164
2674.80-103618-109120-117990-129350-136444-153658
2677.69-161180-133710-128998-156012-149190-117682
2680.59-166980-200536-169724-182426-169396-149828
2683.48-147412-146804-132344-112418-130388-123314
2686.37-139252-149892-146534-152508-147792-141682
2689.26-124536-112606-144414-137856-110952-113472
2692.16-125476-95982-113082-139314-135268-136868
2695.05-135826-163872-129322-103984-125476-116538
2697.94-122032-115948-105826-106416-118428-136252
2700.83-117722-83442-60110-40246-65384-76214
2703.73-31204-14748-18028-28096-10980 22588
2706.62 56382 66154 73786 89342 67060 62988
2709.51 78746 62448 40084 44328 46188 76346
2712.41 72878 43254 53426 79190 82318 72622
2715.30 81494 98648 124710 138684 111004 88034
2718.19 107096 139252 191340 217056 182048 155872
2721.08 152410 140868 162048 123180 134764 183112
2723.98 140864 135272 172872 200968 211952 246826
2726.87 236334 244102 224798 229924 244884 247114
2729.76 221210 207848 260520 275040 238624 212256
2732.65 217784 263402 333048 326640 282278 281336
2735.55 320978 324994 304776 349824 389402 426286
2738.44 665538 1696882 1676930 608102 386358 332856
2741.33 349888 420766 378750 355830 378674 401470
2744.23 423480 440976 399982 383942 420672 402216
2747.12 374414 398958 413162 408622 400098 389926
2750.01 430368 494950 498074 498992 531438 595406
2752.90 662880 687328 658698 689918 767546 746910
2755.80 693970 603848 535526 574166 569542 537638
2758.69 564038 561832 575582 592778 531958 472298
2761.58 432084 413096 450116 455372 409384 460294
2764.47 509584 572752 597904 536098 535974 522710
2767.37 485756 483590 486678 510016 511430 484312
2770.26 462526 468440 466176 411138 370352 418558
2773.15 399566 330644 325230 311804 227176 201692
2776.05 307494 317476 256854 219530 181434 182250
2778.94 216052 227764 169470 155122 154418 163948
2781.83 181122 195132 195070 175744 181318 178788
2784.72 148706 162858 176388 158226 167744 186052
2787.62 163360 133420 113626 111214 120334 87916
2790.51 46514 61974 79496 64706 72834 101352
2793.40 31246-4288 29220 21246-1820 51986
2796.29 106386 90652 46720 38412 17936 11898
2799.19 51732 45026 916 3506-1720-64324
2802.08-103174-75564-44906-49464-52848-47488
2804.97-41506-24934 11760 39368-19964-44144
2807.87-42326-71814-79958-80652-46058-39242
2810.76-71692-88030-118930-120978-113298-101470
2813.65-109244-90796-63806-82232-102692-99066
2816.54-108574-102646-33184-26788-93130-95864
2819.44-75332-52642-87524-95310-70314-97060
2822.33-86524-79494-98552-104528-80296-50812
2825.22-71846-64044-72204-120768-101350-40936
2828.11-70652-49152-5268-64616-81932-94478
2831.01-113776-119514-130590-85850-61132-62832
2833.90-50048-46796-85804-66654-28476-14486
2836.79-6968-45366-86538-63500-31650 5300
2839.69 10830 23444 34856 18458-1178 7338
2842.58 43348 64268 36794 51808 43186-3362
2845.47 14134 85332 98356 101234 169280 184942
2848.36 169058 182382 149802 217826 229410 204318
2851.26 278602 245902 197794 221850 254898 295614
2854.15 283392 284898 238898 235730 262090 265274
2857.04 289818 318390 380484 425186 400936 418734
2859.93 466478 501054 487262 508662 579780 605336
2862.83 588096 638838 684928 741470 787716 819580
2865.72 845138 913916 921688 891472 985212 1065278
2868.61 1100246 1174430 1251072 1270176 1318370 1416948
2871.51 1500930 1563484 1640102 1778570 1795682 1915032
2874.40 2055588 2070312 2229870 2505908 2587990 2602662
2877.29 2858782 3078774 3124502 3353804 3632616 3679672
2880.18 3837630 4246592 4509442 4675732 4966326 5361062
2883.08 5539394 5791934 6259026 6814052 7050136 7450812
2885.97 8078728 8315462 8795010 9552486 9989916 10396780
2888.86 11127940 11584230 11930070 12975630 13717460 13960630
2891.75 14790410 15723510 16229830 16979370 17920610 18820390
2894.65 19418800 20056200 21289740 22400130 23078370 23887330
2897.54 24633920 25442290 26127620 27656360 28726280 28671720
2900.43 29579480 30734020 30841010 32523970 33929050 33541080
2903.32 34017000 34659940 35191620 36794120 37293000 37045180
2906.22 38029300 37631710 37736580 40235560 39978250 38570510
2909.11 40006900 39828080 39447450 41357770 40699160 39923620
2912.00 40360860 39756390 40744990 41542800 40430560 40855060
2914.90 40353760 40131870 41562120 41854480 41417270 41226470
2917.79 41005890 42216120 42091380 41149360 40122110 38468130
2920.68 37270030 36159040 35001380 34404180 32164180 30679760
2923.57 30821470 31839530 31617690 31478590 31233260 32775790
2926.47 32314780 36016340 39015550 37543640 34965060 47558040
2929.36 69104500 182254400 271776700 145454100 51085720 42568530
2932.25 33579840 33856420 32275210 34473550 35078160 36423180
2935.14 37118240 38272370 38112210 39354910 40146400 39871650
2938.04 40539990 41124440 41774790 43474290 43533830 44609420
2940.93 45127020 45127420 47303670 48482790 48595660 49598500
2943.82 49982860 51306020 52076970 52983360 54461660 53612330
2946.72 53318140 56163360 55725720 55882170 56699880 56394960
2949.61 56150840 57352660 57865750 57097800 56042380 56620750
2952.50 57104840 56698700 56705720 55377260 55355450 54573460
2955.39 54917970 56050900 53326200 52522280 53791140 51616700
2958.29 53030300 53671460 50433770 52238240 52233980 51292720
2961.18 54299000 54319020 53045360 53758520 52494840 53822100
2964.07 53031550 50983580 51682760 48935600 48142710 46907470
2966.96 42602020 41779800 40167720 37961290 40044840 40987500
2969.86 42987860 47881530 50629370 53341680 55357710 55732700
2972.75 56907510 57971880 58244550 58525520 59626110 59981240
2975.64 58765040 59386140 60220880 60319000 62647990 63521900
2978.54 63538090 64774780 64319900 65300260 69342190 69133410
2981.43 68030180 71146340 71133140 70348300 74548380 75266010
2984.32 73211340 75254610 75754050 76432740 78685750 77151510
2987.21 77551420 78202600 76347690 78884660 80133580 77808050
2990.11 78092100 77793700 77397460 77924860 77295600 77282740
2993.00 75461400 73218490 74749360 74977720 73752400 73628540
2995.89 72499830 72162990 72905930 73840710 77193050 79018850
2998.78 79303510 77444220 72538720 70955140 69469220 66186780
3001.68 64193290 63123640 64476530 64522790 66070290 75530190
3004.57 108269300 187079600 369911600 366826300 156040800 85468320
3007.46 78416340 69504820 66516560 65498440 72380380 77774530
3010.36 78049230 82435860 92324400 92913700 91073230 94601280
3013.25 95509890 91893710 91380820 94116550 91357860 86865820
3016.14 89140980 86687090 79794370 84953770 90526970 90032060
3019.03 98494180 112365400 115608300 115305800 123163800 129348500
3021.93 127223400 128872500 132544500 130543400 129824800 128738900
3024.82 126998400 132216200 132953800 127322800 127642000 134927200
3027.71 134029600 123359200 135132100 144436400 123469500 125640100
3030.60 143882700 132553900 126085900 141766600 136739900 119967200
3033.50 131078400 144002600 126940600 122102000 141381300 128740000
3036.39 112746800 132860900 135298900 113964200 120131000 134410100
3039.28 114317700 107037300 126292700 118368900 103622700 117879700
3042.18 113436800 96339220 109831500 114908700 93131820 94482530
3045.07 106956200 88746100 78304860 95320130 91554580 73719870
3047.96 80993430 83370330 66780390 69403630 77573950 65265450
3050.85 61259060 68408780 58148230 51898150 59223990 55096950
3053.75 45461570 51641930 48818200 39597070 44142810 49424170
3056.64 39759980 40749020 47472720 44679820 43959640 60007160
3059.53 66303100 69911410 85136010 93140700 82249750 78842450
3062.42 71877200 93615510 121169300 226381100 420035900 1128461000
3065.32 1771670000 963992800 199989300 129281100 69858340 63667540
3068.21 46469580 48738750 37773560 35882590 35781510 37556090
3071.10 31773490 35713410 34784210 29831650 32102950 37532470
3074.00 29295150 29895260 38296250 35270140 33224520 43484390
3076.89 40532290 35740480 44547140 48014720 42978580 51054350
3079.78 54659860 46794250 52421820 62429210 54887610 58793980
3082.67 68269810 58868430 57203250 71452050 68297310 62697120
3085.57 74303880 75593700 59773220 71324920 85015740 64839430
3088.46 72964580 86548370 65442920 69184110 88304890 73984560
3091.35 69669300 85860630 75153250 66608440 81838190 79668910
3094.24 69228990 78661420 77675800 65819580 74321010 78549180
3097.14 67084540 71131710 74977540 62753090 65437620 73965140
3100.03 63000480 61910820 69105380 58251690 56202390 65515180
3102.92 58037560 55071780 56279630 54506540 50564360 49811430
3105.82 54691520 46814280 44054660 48606850 42374800 40933110
3108.71 44429270 40120700 37181210 37301560 36258980 35000600
3111.60 33464010 33862510 32578740 28911460 28547330 28166520
3114.49 25240600 25257530 25006840 22341500 22288550 22418820
3117.39 20395140 19545920 19279220 17139060 16605020 17142570
3120.28 14769080 14332310 14744700 12425940 12181320 12714910
3123.17 10863200 10488780 10926700 9524912 9171490 9699806
3126.06 8501284 7989930 7947850 6964308 6524020 6616710
3128.96 5979336 5555006 5504812 5143644 4861430 4789504
3131.85 4490038 4095804 4106522 3878044 3461972 3671748
3134.74 3330146 3061228 3053962 2674892 2619830 2675486
3137.64 2357580 2297144 2265536 2024878 1957664 1996580
3140.53 1900002 1773130 1616122 1508024 1396480 1369140
3143.42 1325316 1276932 1199204 1127368 1022572 974572
3146.31 941634 950144 898036 842918 761758 725958
3149.21 731968 695100 628122 623704 632106 660440
3152.10 572154 484320 458058 475014 487996 427064
3154.99 321368 300094 279156 298614 276084 265222
3157.88 287548 272480 265354 236360 192324 220972
3160.78 192696 179238 157512 183500 170636 91260
3163.67 51864 118978 150864 121090 79676 85206
3166.56 81852 65652 89010 69292 35094 76306
3169.46 101128 182378 154598 63676 12916 41474
3172.35 72650 192902 233928 170088 154840 104086
3175.24 75704 98382 92048 106786 43322-24816
3178.13-22840-35378-71666-39814-8032-1034
3181.03-27660-60330-42960 32804 18818-1380
3183.92-22982-67092-90578-86220-31094 17948
3186.81-27304-23774-43910-74254-32706-14162
3189.70-17414 4322 6248 41612 44482-6506
3192.60-2970 15638-49140-47578-7094 1068
3195.49 42804 33374-77256-90862-52302-55332
3198.38-62530-43228 9138 33858-3774 29052
3201.27 17884-84276-116428-135240-136384-31514
3204.17-30168-84680-91356-84066-142686-164276
3207.06-118678-64732-26648-36354-96828-78676
3209.95-85526-158690-161248-100870-70944-84804
3212.85-87110-86338-133670-119090-91042-98722
3215.74-133990-149386-78880-69184-109720-95122
3218.63-134412-96336 2100 30118 41010-6540
3221.52-183736-171990-97758-159770-178884-152340
3224.42-114452-118988-195390-153372-117450-165476
3227.31-167684-178618-129400-90684-103678-125054
3230.20-155974-149904-160050-188598-188336-122870
3233.09-74314-84442-111026-131164-144296-142632
3235.99-177422-109356-83198-140502-173758-178966
3238.88-172458-178596-190288-174784-174846-188124
3241.77-182766-114002-69198-84702-94388-108628
3244.67-166942-192504-149012-83942-109976-148056
3247.56-117340-132066-120890-118630-182518-179688
3250.45-207310-234260-168598-174974-186430-135500
3253.34-142438-189376-206614-145104-61362-24294
3256.24-96982-149908-188092-194008-216692-272266
3259.13-278206-209750-131162-132786-204270-210456
3262.02-113376-150776-226186-191150-132356-98466
3264.91-183068-188760-156748-205346-232624-254808
3267.81-260306-264662-287992-259514-193170-202924
3270.70-239894-227406-184444-203538-214044-174018
3273.59-222236-172630-97276-145196-177494-185930
3276.49-167134-106232-129346-204782-197408-185702
3279.38-271802-334826-386142-395114-398106-408438
3282.27-335410-335396-386636-328926-292256-304594
3285.16-309328-281238-254078-243028-231160-224116
3288.06-225432-263712-251806-212216-255502-283404
3290.95-286616-242116-259610-340752-356120-305584
3293.84-267692-262052-280528-257332-212270-234576
3296.73-278344-324220-342668-272320-175394-237596
3299.63-300548-250418-283956-327004-273598-195234
3302.52-149398-121198-194650-223666-178610-135400
3305.41-150102-209178-177286-158532-237514-266762
3308.31-250138-281198-212276-182034-236736-187034
3311.20-204476-239990-207654-175376-205170-216124
3314.09-202944-223596-187972-170268-212162-280978
3316.98-253476-151012-193314-235456-199144-232490
3319.88-234666-192124-206864-202158-198522-199448
3322.77-226806-199596-107978-112240-127826-154562
3325.66-122556-127512-171112-168188-209892-228200
3328.55-242474-195662-157592-211026-268956-185092
3331.45-104648-103232-136168-141026-140572-158284
3334.34-130842-188108-242044-243062-221458-146700
3337.23-126412-142692-171408-121488-204112-310244
3340.13-198764-155254-160530-172848-225602-202188
3343.02-168462-144332-150354-241142-282784-224778
3345.91-160566-152170-183514-141364-132992-131412
3348.80-146630-164472-145118-193494-197990-120454
3351.70-131000-177280-187622-207954-174454-164928
3354.59-170528-117640-111302-164344-197316-140744
3357.48-106476-113546-156940-181744-114466-73704
3360.37-121438-120898-147574-195658-169904-136150
3363.27-157850-187908-169968-234816-194778-88774
3366.16-86180-173538-230618-195848-174382-114338
3369.05-86136-155368-231284-222048-155962-133432
3371.95-184210-220792-184952-137912-88298-126886
3374.84-182720-176660-194128-185240-153704-120178
3377.73-149588-226878-244968-204336-192790-188306
3380.62-201314-195878-208894-191586-225906-213234
3383.52-178716-149898-63304-123070-170554-170714
3386.41-202098-152820-170050-251970-264934-206470
3389.30-166208-228756-192312-98472-70216-50704
3392.19-92410-109242-128426-228908-258140-181198
3395.09-215240-239676-200442-214556-238466-184650
3397.98-158998-191910-183520-172496-139584-116770
3400.87-111194-138140-209004-269878-278248-213316
3403.77-179896-210524-174912-115928-112352-126222
3406.66-114524-127240-223458-229388-112516-108512
3409.55-99980-83598-156578-137184-84848-147148
3412.44-144984-103010-134512-103920-68402-80296
3415.34-125058-188610-193778-129594-126038-66070
3418.23-68290-127550-124034-184660-114308-61074
3421.12-93880-91678-123654-95884-115838-169364
3424.01-215120-267596-199340-153778-204264-227410
3426.91-126862-151728-215148-139264-180816-157142
3429.80-37878-77154-132820-111534-143060-139160
3432.69-171214-179148-139712-199928-243626-183090
3435.59-105904-85116-120934-158610-168682-183126
3438.48-217376-206242-111410-100436-146530-108606
3441.37-101226-140380-176796-201422-225328-220182
3444.26-183552-112728-75396-121856-144620-123554
3447.16-155938-195788-150310-60082-126030-220188
3450.05-142698-115364-115586-90306-107628-137692
3452.94-163304-131716-135246-141392-80644-61588
3455.83-140878-207686-137198-67858-118322-156684
3458.73-159316-172698-190776-180450-152400-165436
3461.62-199418-189540-203218-218752-228808-232204
3464.51-204868-166158-131150-115202-72156-33550
3467.40-48566-145246-184642-154274-118414-100276
3470.30-124250-112734-102930-94210-85028-71528
3473.19-17184-93816-165508-147094-226788-245174
3476.08-189672-155538-200076-222178-213120-187538
3478.98-131640-178686-211182-172376-151954-157190
3481.87-139410-168084-251588-194412-112450-141734
3484.76-81584-39392-82498-93374-163216-198142
3487.65-163046-209580-260870-182426-126800-212026
3490.55-215550-140772-125380-149720-168580-186580
3493.44-195316-216434-199128-176658-193250-130432
3496.33-205066-237174-146260-159872-206872-143850
3499.22-130080-181718-148988-143514-55852 17538
3502.12-97626-211922-179650-163026-185918-173452
3505.01-162144-148690-164978-183082-125476-126882
3507.90-178110-139836-130258-194840-211914-136208
3510.80-152532-205954-198298-156916-166218-175536
3513.69-163000-220298-206004-161228-161674-129876
3516.58-123294-159738-196846-180342-144636-175222
3519.47-142600-90454-119292-139584-171232-125694
3522.37-119766-162506-146574-121946-165908-217638
3525.26-241338-262212-238462-246038-234344-183258
3528.15-181412-221568-238404-245770-221438-195712
3531.04-195294-161246-135674-165184-183194-164378
3533.94-140742-186360-231914-183076-143584-99310
3536.83-95020-134328-84766-112904-203650-208746
3539.72-206416-208540-201676-155982-172010-146638
3542.62-139986-184112-148178-142610-181336-214122
3545.51-197782-136268-108436-197030-232362-168740
3548.40-162140-184166-158200-147516-184956-207140
3551.29-199756-224788-255476-256546-200336-178250
3554.19-178126-159630-211584-181976-160562-195726
3557.08-220818-225952-215610-238450-234312-152466
3559.97-121334-164254-181494-178628-196098-248818
3562.86-222386-175484-234588-219082-188784-216712
3565.76-121964-120114-200666-188216-211270-176796
3568.65-228964-294132-201464-204538-260688-224136
3571.54-134078-120352-219128-323292-317096-258592
3574.44-209504-124318-148188-181262-152630-158992
3577.33-181604-220156-235568-173346-121202-175956
3580.22-188522-153696-190870-202630-191530-160726
3583.11-134946-162296-182010-185402-178510-225140
3586.01-219060-138220-115448-124940-173852-191086
3588.90-136774-156454-197978-281518-334896-250454
3591.79-208160-191496-160900-147422-158450-206106
3594.68-141532-62598-88858-140598-180236-241538
3597.58-242470-216468-288548-261640-212130-148524
3600.47-131198-177430-166094-164570-141412-170424
3603.36-194564-201766-229066-211204-159130-168708
3606.26-227144-211142-181340-147412-128920-133306
3609.15-152854-116048-105722-192474-223210-137980
3612.04-116106-163064-106340-149464-205296-147600
3614.93-158164-128408-108400-183662-192730-159510
3617.83-158268-165968-121228-119040-139378-110736
3620.72-104420-96370-75038-111166-199630-252440
3623.61-201810-96192-112238-131644-134244-104886
3626.50-69906-151900-150378-76954-109592-75586
3629.40-69162-179840-182884-158822-148078-149352
3632.29-204746-186268-135420-112948-134148-98484
3635.18-43222-65624-116692-138420-112334-99374
3638.08-107178-119532-185792-232536-196126-180340
3640.97-131354-93372-182604-184372-100406-135822
3643.86-169396-187066-156104-149606-223504-187348
3646.75-139344-116076-153464-146716-48858-79264
3649.65-123878-101258-76336-141508-170348-141056
3652.54-103822-119228-188734-159420-169108-207892
3655.43-155744-115620-135136-165338-170250-174560
3658.32-193842-212404-243810-217598-139316-115368
3661.22-136108-147362-170128-157638-157424-166732
3664.11-163236-153094-158874-175670-109298-52982
3667.00-80894-133594-129526-89286-93304-73430
3669.90 7418 26184-30290-45984-98180-190986
3672.79-154826-124462-127592-46340-6208 1452
3675.68-5978-64396-86800-57194-27960 10244
3678.57-8800-45656-15682-41300-44630-22732
3681.47 5622 53596-6930-36222 11776 56290
3684.36 79360 61260 53092 84452 150684 155900
3687.25 92076 103400 144200 174774 196938 181016
3690.14 152426 163998 121824 127124 185492 155066
3693.04 166358 176190 215626 224804 137416 139882
3695.93 214300 226642 192564 206780 196260 174884
3698.82 230424 247642 234726 257816 281882 267906
3701.72 270052 310508 281414 273796 305186 372860
3704.61 399976 308904 287772 294276 305622 358046
3707.50 383864 379132 377608 304394 331618 424090
3710.39 379322 364060 481636 574604 478378 444882
3713.29 499816 512676 500148 554868 629680 592580
3716.18 557606 558892 546170 547860 655122 765914
3719.07 704150 713440 814548 802078 886814 1019712
3721.96 1140958 1151066 1323868 1767190 2610126 3599350
3724.86 2556558 1104002 869350 708362 735334 828312
3727.75 820178 841506 890920 873280 832562 772922
3730.64 794028 897834 929168 910842 949844 919034
3733.54 884920 955314 918748 790270 792878 888306
3736.43 908664 871934 872948 884624 921562 971118
3739.32 1134332 1323830 1410714 1566736 1869682 2057480
3742.21 1821936 1453360 1222184 1080380 1087698 1134212
3745.11 1127532 1073550 1039674 1125852 1144874 1075902
3748.00 1055242 1140064 1226218 1218738 1240944 1379584
3750.89 1523982 1699784 1728002 1588104 1502340 1441228
3753.78 1392128 1298320 1306522 1372694 1317114 1372630
3756.68 1454810 1403790 1406210 1435328 1474272 1459188
3759.57 1531800 1654562 1697560 1759044 1761688 1787360
3762.46 1892078 1913366 1847864 1845478 1769058 1687238
3765.35 1774182 1906958 2045652 2238886 2564942 2706726
3768.25 2644384 2555550 2415722 2282620 2040288 2094136
3771.14 2138204 1860500 1786718 1797840 1642120 1437068
3774.03 1376896 1439632 1453750 1438246 1455194 1409236
3776.93 1416064 1495066 1459008 1310138 1309318 1425530
3779.82 1479272 1573614 1757270 1922382 2035966 2131196
3782.71 2248456 2182656 1778542 1536172 1574278 1553182
3785.60 1494514 1655762 1807866 1728530 1629938 1709448
3788.50 1833990 1722380 1737856 1932400 1842034 1660998
3791.39 1838348 2068194 1881434 1758398 1965046 1931538
3794.28 1787054 1949704 2141056 2069280 2000350 2182470
3797.17 2160956 2094328 2296884 2321056 2119450 2266958
3800.07 2378428 2279654 2490368 2594660 2531272 2496660
3802.96 2462768 2539304 2642270 2659652 2747418 2749206
3805.85 2691260 2616450 2591562 2543484 2623242 2814342
3808.75 2739944 2825338 3068348 3036668 3217418 3474892
3811.64 3197484 3213782 3519444 3970892 4814556 5843728
3814.53 6926264 7825478 8228716 6282642 3504164 2756304
3817.42 2605458 2453486 2591234 2684378 2759544 2800414
3820.32 2632836 2591982 2635188 2625552 2603516 2438946
3823.21 2362412 2427858 2645114 2858408 3058934 3460304
3826.10 3829318 3837048 3970728 4808694 5474712 5585534
3828.99 5782644 5982128 5698948 4619106 3441332 2924648
3831.89 2691700 2776538 3028212 3180738 3446076 3761660
3834.78 3903976 3960808 3936212 3763738 3840810 3846144
3837.67 3656424 3579600 3612828 3666320 3712724 3726510
3840.57 3798512 3953204 4006612 4013696 4087634 4361136
3843.46 4454256 4433976 4550008 4617440 4763514 4909788
3846.35 4837242 4943158 5033956 4913608 4917786 4768866
3849.24 4661860 4607076 4549184 4473078 4456116 4531308
3852.14 4311948 4214218 4302690 4336032 4233566 4042496
3855.03 3980976 3898032 3766172 3755586 3737910 3777748
3857.92 3782920 3710346 3885666 3861128 3797236 3946282
3860.81 3888400 3967216 4146236 4194254 4390222 4493378
3863.71 4329096 4274946 4097828 3630128 3439622 3518096
3866.60 3467828 3333852 3399116 3884378 4635206 5342706
3869.49 5910122 6246440 6486658 6643710 6591620 6359668
3872.39 5612546 4386770 3711890 3397374 3106974 2956190
3875.28 2731332 2523554 2278680 2103074 1981724 1755818
3878.17 1495188 1470976 1622590 1710868 1771738 1710438
3881.06 1542576 1710934 1888000 1697584 1608684 1590698
3883.96 1410888 1387332 1531888 1534010 1542686 1560772
3886.85 1511514 1510020 1571514 1677336 1703102 1618288
3889.74 1684380 1754716 1735618 1793134 1876094 1847560
3892.63 1765414 1905848 1969854 1979708 1961144 1837772
3895.53 1908744 1949624 2077096 2012846 1842950 2016740
3898.42 2073628 2036204 2010650 1860530 1778096 1907374
3901.31 1877678 1845218 1945902 1834408 1837892 1737632
3904.21 1689178 1780152 1765094 1749020 1607424 1620216
3907.10 1639930 1575856 1533602 1458950 1476366 1441598
3909.99 1294144 1335432 1323482 1239740 1255066 1102746
3912.88 1020000 1058784 991110 985678 978114 890390
3915.78 860712 892296 862280 756532 738282 707638
3918.67 636018 660608 649522 602908 556184 538450
3921.56 528608 533240 531770 525998 452882 407510
3924.45 405112 341820 319338 322032 302136 287012
3927.35 271968 269394 272676 382300 566556 648950
3930.24 716798 600684 341258 234194 277564 327254
3933.13 351402 370430 393166 369524 357114 504328
3936.03 598928 531502 322910 213740 252268 287030
3938.92 265754 221832 269840 279132 258534 502870
3941.81 1004646 1142056 993514 871762 687776 529936
3944.70 480548 560826 511594 391314 233992 16402
3947.60 32298 130012 66378 17538 71592 57242
3950.49 83586 80920-1508-13322 37412 84120
3953.38 231944 478070 531152 609106 727164 559992
3956.27 316002 239924 185864 90920-102-10124
3959.17-8296-21366 7246 2148 52618 40056
3962.06-12868-16520 20468 52322 12408 3038
3964.95 2482-49458-115428-78740 23152 87022
3967.85 55376 30626-15066-78286-107702-114452
3970.74 1376 58680-2606-1344-13154-40570
3973.63-9732 12802-27226
##END=
