##TITLE=Ethylene Oxide
##JCAMP-DX=4.24
##DATA TYPE=INFRARED SPECTRUM
##CLASS=IUPAC A
##ORIGIN=NIST, Anayltical Chemistry Division, 301-975-3108
##OWNER=COPYRIGHT (C) 1998 by the U.S. Secretary of Commerce
##DATE=98/10/1
##$SPECTRA VERSION=1.00
##$UNCERTAINTY IN Y=2.1 % relative (B=1.1E-04,C=1.2E-09,D=2.7E-14)
##CAS NAME=1,2-Epoxyethane
##CAS REGISTRY NO=75-21-8
##MOLFORM=C2 H4 O
##MP=-111 C
##BP=13.5 C
##$NIST SOURCE=QUANT-IR
##SPECTROMETER/DATA SYSTEM=IFS66V (Bruker)
##INSTRUMENT PARAMETERS=KBr Beam splitter; MCT Detector; Multipass cell
##STATE=gas
##SAMPLE DESCRIPTION=Ethylene Oxide Primary Gas Standard
##PRESSURE=101.3 kPa
##TEMPERATURE=23 C
##SAMPLING PROCEDURE=1 L/min Flow
##RESOLUTION=1.9290
##DATA PROCESSING=Happ Genzel Apodization
##XUNITS=cm-1
##YUNITS=(micromol/mol)-1m-1 (base 10)
##XFACTOR=1.0
##YFACTOR=4.5474E-13
##DELTAX=0.9645
##FIRSTX=574.687
##LASTX=3974.595
##FIRSTY=-4.02E-07
##MAXX=3973.63
##MINX=574.69
##MAXY=.0009689
##MINY=-6.08E-07
##NPOINTS=3527
##XYDATA=(X++(Y..Y))
574.69-885102-571588-105682-56058-804084-1338738
579.51-795104-541866-626892-575484-607796-588820
585.29-541744-805154-512188-289256-276518-307000
591.08-147046-242212-274296-764036-904926-502120
596.86-634898-1015854-762216-383184-62284-201968
602.65-335786-541218-550462-901778-866520-657948
608.44-542534-537006-422868-479466-283180-335800
614.22-495792-556846-537100-550888-370874-389886
620.01-312440-360090-389792-450254-371940-456788
625.79-405248-483686-541128-623948-492704-416736
631.58-543332-582940-411474-522622-379272-363508
637.36-523732-526740-251042-169708-308006-517752
643.15-462966-477858-563040-621648-542328-490128
648.93-315378-377872-478588-480380-457852-394506
654.72-287556-421702-379986-425056-417194-426306
660.50-342876-263316-180100-387922-417370-580752
666.29-561068-445394-296714-332356-346598-392096
672.08-299768-382834-373028-375242-280760-193704
677.86-228684-372218-280712-138924-69558-237432
683.65-283128-423056-418544-386106-297828-300040
689.43-242188-333674-381650-405652-439120-474004
695.22-474114-449592-313112-415816-477050-385042
701.00-277734-325882-223262-384520-592084-599856
706.79-370582-369052-412122-488594-441076-337590
712.57-256548-393524-446628-521892-481962-392532
718.36-310982-299184-223324-231534-252908-365500
724.14-418872-524068-406696-289682-274296-302476
729.93-208036-147276-61934-92122-120286-105628
735.71-82148-140512-103242-59856 36472 50752
741.50 87102 129398 199158 126694 156644 200606
747.29 342956 337872 342582 340696 393588 543708
753.07 698426 657142 663184 781146 897398 847986
758.86 963368 963970 1036062 1247528 1490750 1598910
764.64 1692710 1821486 2024154 2041858 2285898 2569108
770.43 2702962 2859786 3280402 3583214 3914704 4361436
776.21 4689256 5048250 5648584 6158512 6704992 7357502
782.00 7834982 8535324 9361258 10136010 11206490 12231630
787.78 13108210 14253030 15439300 16306660 17482820 18992410
793.57 20505300 21547790 22950800 24397020 25360880 26692390
799.35 28313210 29367180 30673080 31667070 32649530 34283540
805.14 36890620 43551720 50455100 51626670 51608510 52387280
810.93 52835330 53618680 56697920 60036790 60977990 57031640
816.71 54247320 71325120 111234600 147206900 137809400 77369320
822.50 40590570 39481080 45847390 52460440 58581610 66817230
828.28 78199660 91143850 108220500 127390100 147452500 170556400
834.07 194381500 218451100 242929900 265501300 281929600 283835300
839.85 274258500 265527900 261823400 259429900 261705700 267373800
845.64 273122700 285569000 297048500 310244200 326636400 342288500
851.42 356453100 371461100 385588800 393924100 403013300 406955000
857.21 403434000 399186700 389395700 373478400 354562200 336966200
862.99 326186100 326170800 333727800 351971300 383737900 433176700
868.78 496218200 555512300 592061300 577926700 493529000 349613500
874.57 193009200 104698200 142429200 270311000 384590700 433926400
880.35 443871800 430159400 400432800 365322300 333545100 312885600
886.14 298391400 287027500 282048700 280513300 278800400 278185100
891.92 279514600 281022400 279758800 279453900 279952900 276297800
897.71 273638200 271471200 265569100 259482300 254744800 246198000
903.49 238226800 231663600 221096100 212171500 203283500 193271100
909.28 182742900 173252700 164244200 152754900 143496500 134554500
915.06 124978900 115641800 107751200 99405560 90686550 84337070
920.85 76826100 69795780 64071980 58185020 52697670 47602690
926.63 42902660 38680360 35110330 31109830 27773740 25102290
932.42 22251930 19751320 17653450 15628600 13905220 12263380
938.21 10701390 9466160 8450090 7351376 6376296 5635396
943.99 4969292 4268804 3744950 3295636 2779972 2435030
949.78 2211144 1800234 1512718 1342818 1102992 874132
955.56 720386 650136 585244 468780 341676 264274
961.35 254444 180474 52236-19704-86522-84974
967.13-57474-79020-132748-235528-269346-188910
972.92-143112-209602-235294-223366-191142-210752
978.70-270536-308428-324518-326002-299202-250854
984.49-279806-289894-290584-338446-396360-369700
990.27-348298-327120-334474-337604-328618-321488
996.06-324146-372820-402462-335778-295336-332532
1001.85-381316-363070-340064-318750-367144-396672
1007.63-318274-255250-302872-278048-227796-275356
1013.42-322272-288626-299872-314364-277928-287772
1019.20-325992-303780-296326-299504-277576-225462
1024.99-237178-220606-178990 92808 519354 387330
1030.77-35422-145998-139536-116252-130374-134578
1036.56-131032-97712-89506 33104 69590 79436
1042.34 114086 137170 181592 193036 144812 221678
1048.13 331868 333926 288170 360160 381542 419746
1053.91 518002 685374 727286 682496 686092 744722
1059.70 829178 984092 1073648 1186804 1175714 1397866
1065.48 1517580 1525178 1566442 1621306 1743016 1888386
1071.27 1989412 2012894 2083358 2239432 2349142 2493370
1077.06 2626236 2705094 2857396 2907250 3111282 3340330
1082.84 3320728 3501022 3592086 3811256 3898802 3957190
1088.63 4008918 4151974 4235074 4369602 4588330 4649008
1094.41 4732344 4991138 5114390 5215064 5284052 5646290
1100.20 5762950 5999598 6314560 6662296 6827786 7194032
1105.98 7675986 8093798 8353814 8822432 9417778 9913240
1111.77 10350670 10998610 11547660 11994910 12387670 12843250
1117.55 13123910 13362700 13663120 13784120 13695070 13559290
1123.34 13727740 14530290 15756500 16187260 16395730 16817020
1129.12 17773240 19265640 20484750 21428820 22451150 22310030
1134.91 21390050 19445950 16196060 14150750 14687860 23185550
1140.70 39711890 44290450 39141540 35103850 29645970 20970770
1146.48 11947010 9240008 17543450 32625160 35300690 27805180
1152.27 23957410 23502170 22082860 18724770 14948390 12317620
1158.05 11151780 10866080 11596250 13168700 14822960 16288700
1163.84 17810310 19071020 19540610 19818140 20047680 19880660
1169.62 19154600 18698990 18058880 17310400 16331120 15918040
1175.41 15158160 14389820 13656350 13339570 12553800 12123820
1181.19 11665610 11304760 10655530 10489800 10046960 9673796
1186.98 9326370 9181272 8580010 8395424 8151354 8003910
1192.76 7551864 7422138 7041174 6817070 6611744 6554152
1198.55 6206412 5930932 5944122 5791846 5608344 5465706
1204.34 5552982 5340864 5357762 5316728 5385262 5450012
1210.12 5661874 5758752 5945722 6261078 6514734 6907104
1215.91 7319566 7875408 8520660 9264274 10051430 10926740
1221.69 11909860 12993190 14141340 15644690 16969040 18590030
1227.48 20485360 22171970 24045570 26186440 28487160 30558460
1233.26 33034450 35667820 37940970 40657630 43187010 45817970
1239.05 48141380 50739540 53135620 55018460 57381400 59251880
1244.83 60675990 62497090 63803650 64564220 65511140 66209100
1250.62 65974120 66036140 65601550 64531640 63654060 63122780
1256.40 63099620 64013540 66559940 70486840 74722980 80211220
1262.19 87569860 95052090 100552900 100955900 92146860 72205050
1267.98 44634800 23557890 25397000 50715560 81723490 101759800
1273.76 107794800 104584600 96773040 87361060 78646710 72835820
1279.55 69204720 66697000 65759420 66133510 66600610 67324430
1285.33 68378380 69618660 70022130 70315030 70796460 70090310
1291.12 69214680 68344680 66483340 64335670 62381970 59674920
1296.90 56618750 53998180 50556530 47418360 44195850 41012200
1302.69 37775330 34635830 31910080 28817200 26184420 23790860
1308.47 21332110 19110970 17211250 15450000 13514570 12299140
1314.26 10894440 9572502 8488928 7466710 6562264 5840318
1320.04 5182256 4546042 3914896 3379950 2895232 2593122
1325.83 2210988 1913770 1628226 1419888 1181962 1000916
1331.61 801528 682942 525102 443154 283114 243746
1337.40 145862 91600 35654 13870-45706-27188
1343.19-80440-53510-145956-144708-141344-126898
1348.97-228844-244466-346390-310172-350998-307002
1354.76-283802-260190-327640-300550-347200-315564
1360.54-319020-248958-269486-229258-207652-240810
1366.33-321954-232742-260000-221886-244222-254822
1372.11-306032-234688-225658-204744-257990-194908
1377.90-212366-140266-152508-122784-189112-155036
1383.68-178680-157704-189274-141056-136192-84444
1389.47-143288-155080-178188-158360-195372-143256
1395.25-170578-143182-223956-189476-120552-73856
1401.04-190352-181440-196208-169782-191752-194196
1406.83-298020-243502-261838-269224-320018-270346
1412.61-303732-228652-257840-222562-250422-188200
1418.40-173052-155492-209518-125598-113414-46726
1424.18-52410 46204 67132 143128 172638 288556
1429.97 321222 467216 584794 715978 766836 963024
1435.75 1094776 1251528 1258038 1402368 1541546 1738084
1441.54 1834494 2021608 2061532 2189984 2302452 2485510
1447.32 2525276 2586042 2520682 2615208 2642002 2669048
1453.11 2637742 2674910 2646734 2713682 2663074 2666962
1458.89 2598504 2628870 2675240 2842092 2951044 3161760
1464.68 3278248 3473854 3598746 3874636 4268844 7577048
1470.47 11855660 8271210 4787734 4876118 5141042 5488742
1476.25 5644862 5787034 5742528 5865804 5852304 5947906
1482.04 5996284 5829616 5457594 5710324 6028532 6431370
1487.82 6764586 7350242 7931260 8530596 8765554 8623156
1493.61 7566584 5824204 3530826 1968054 2391682 4958848
1499.39 7323182 8389620 8530956 8172900 7328910 6644506
1505.18 6028990 5717648 5373734 5268686 5238890 5343806
1510.96 5355336 5559776 5655538 5813874 5784170 5956088
1516.75 5986872 5976046 5946450 6046810 5885554 5744060
1522.53 5504688 5293014 5067444 4896072 4566426 4369860
1528.32 4072044 3900108 3489552 3276624 2989020 2781330
1534.11 2462394 2301780 2039998 1905650 1741276 1622364
1539.89 1354834 1220098 974350 910552 763866 706608
1545.68 523826 455802 335514 387342 252674 252304
1551.46 218876 244888 158838 171316 86802 193860
1557.25 252690 332606 271864 260880 120772 205062
1563.03 177812 257588 231566 345072 346160 437618
1568.82 476734 545714 493758 639752 622806 760218
1574.60 877902 1067950 969552 1082040 1140882 1257638
1580.39 1301420 1465132 1545724 1593804 1706728 1904416
1586.17 1972922 2201934 2136596 2446548 2397376 2730826
1591.96 2692108 2977714 2969756 3299522 3215498 3668800
1597.74 3554046 3972146 3850212 4281638 4222930 4525636
1603.53 4572142 4793138 4952384 5182418 5279652 5522730
1609.32 5590544 5773796 5933380 6084290 6143834 6469326
1615.10 6661662 6923086 6907218 6929828 6697230 6768378
1620.89 6478686 6435596 6893818 8512980 10467760 10040510
1626.67 7836620 6974598 6639144 6819522 7124088 7399718
1632.46 8155062 9750448 10440250 10351200 9794854 8440966
1638.24 7805894 11542220 19803050 26505670 23523380 15313150
1644.03 10799480 12316090 14878880 14485500 12884410 11648450
1649.81 10564750 9939740 9264658 8638150 7898600 7440746
1655.60 6894624 6551600 6194336 5867982 5443844 5283976
1661.38 5012640 4724098 4446752 4188142 3792034 3688676
1667.17 3368112 3171452 2856912 2643002 2327750 2053650
1672.96 1718584 1613392 1352338 1149050 819738 724806
1678.74 513116 428678 190468 97060-77146 219994
1684.53 319798 104536-187938-213482-356488-267330
1690.31-354198-284098-315734-117184 42280 265212
1696.10 268144 444278 454318 631066 554684 602156
1701.88 532698 647638 644258 797594 852526 1062366
1707.67 1082216 1273610 1352630 1571870 1545078 1671986
1713.45 1701030 1798276 1632470 1680760 1539910 1451952
1719.24 1180858 1132080 966386 953724 780144 705130
1725.02 515252 526082 424842 462588 356156 494092
1730.81 485708 640008 635240 727880 639700 680290
1736.60 562368 571556 436054 463638 333912 413818
1742.38 484304 1130130 1921620 2332650 1932646 1442516
1748.17 713232 312940 118302 481134 748074 908162
1753.95 793922 898000 797088 835866 690306 691716
1759.74 541204 597464 468898 503582 402240 471350
1765.52 410960 555086 521652 537874 473780 618380
1771.31 522078 545708 359176 416586 323018 382116
1777.09 246596 261726 157254 206220 81330 105082
1782.88 5032 109710-15596-98-134286-94770
1788.66-168230-69388-173174-91212-212502-160402
1794.45-245138-191276-252026-128916-229958-171610
1800.24-266486-105432-116076-84646-159642-24524
1806.02-130802-8620-96188-15618 11300 218150
1811.81 143676 170900 75688 211942 117988 187028
1817.59 182548 276650 142310 244314 108402 164090
1823.38 88084 136914-32236 54520-60880 95932
1829.16 96768 116736 31158 168028 139388 454880
1834.95 813614 1528526 1800824 1174392 185690 98280
1840.73 15582 17894-185024-139696-50464 308688
1846.52 210746 274808 131194 224914 188392 277192
1852.30 178578 345338 288114 396918 303884 360396
1858.09 261950 384200 242492 308958 232456 312314
1863.88 185142 217700 75652 190718 56034 96998
1869.66-48114 8236-72466-18334-180170-61228
1875.45-166908-88394-223810-183226-254058-105870
1881.23-168208-79254-175280-33500-180772-84964
1887.02-153546 10388-20542 63194-17720 96458
1892.80-48630 65216 34224 153414 99044 238520
1898.59 168060 299152 202660 310980 290750 377686
1904.37 235790 372992 360614 492360 345058 489978
1910.16 435664 492110 332084 471424 415970 492796
1915.94 378656 545900 484562 540120 435802 591800
1921.73 587846 826142 820276 1012312 1096126 1463976
1927.51 1830724 2550956 3207868 4290124 5584612 7302496
1933.30 7947708 5908802 2497012 1371262 980894 1017290
1939.09 997248 1138352 979334 1151686 1088536 1191044
1944.87 1076206 1204228 1157182 1368940 1347908 1610926
1950.66 1687260 1978118 2001822 2202028 2229244 2445578
1956.44 2386042 2582616 2580808 2811372 2685256 2757468
1962.23 2377878 2154196 2016612 2271696 2365776 2596168
1968.01 2492872 2624450 2461390 2562438 2517694 2747288
1973.80 2865030 3341560 3238706 3192404 3054842 3100686
1979.58 2895958 3120582 3374694 3751040 3301244 3190650
1985.37 3219440 3527342 3559214 3879190 4028318 4406038
1991.15 4559370 4936906 5024526 5270324 5316020 5576946
1996.94 5570968 5698754 5542428 5656946 5456254 5437668
2002.73 5268156 5247462 4991876 5276312 5487344 5959088
2008.51 6265960 6831404 7227406 7718654 7654344 7398264
2014.30 6325956 5073462 4784956 6143680 6810044 5511396
2020.08 3214060 2217716 2059084 2539782 2655146 3077212
2025.87 3359362 3767822 3883484 4239114 4248528 4420916
2031.65 4302360 4512230 4565746 4943586 4944548 5110972
2037.44 4940036 4982870 4666294 4634244 4282702 4235722
2043.22 3943966 3885096 3611902 3611458 3276648 3263550
2049.01 3029638 3056070 2815738 2807780 2503920 2518412
2054.79 2249022 2284848 2112832 2334058 2255630 2356762
2060.58 2086356 2142962 1977676 2095064 1893792 1987308
2066.37 1828392 2003930 1953786 2186528 2153780 2552352
2072.15 2879498 3296896 2625316 1918922 1645466 2126678
2077.94 2243450 2624874 2413828 2165390 2475766 4948918
2083.72 5149040 2543710 1151954 1300096 1413690 1746746
2089.51 1660134 1647454 1547422 1914866 2248994 2814866
2095.29 3081204 3787544 4386184 5194800 4944952 4673522
2101.08 4346134 4378818 3932530 3775204 3491280 3641008
2106.86 3486412 3477510 3297618 3554626 3441808 3383958
2112.65 3185330 3348686 3348288 3346834 3061594 3155276
2118.43 2970074 2852008 2429096 2430642 2255332 2256830
2124.22 1988028 2186440 2276660 2652478 2639854 2980252
2130.01 2983384 2949424 2167824 1540204 801178 1015774
2135.79 1506852 2406780 2696308 2995396 2850664 2864968
2141.58 2535270 2499254 2203084 2237216 2011538 2078256
2147.36 1846722 1931806 1770714 1917322 1716642 1890254
2153.15 1802432 1962586 1675340 1819444 1797646 1928100
2158.93 1714116 2041690 1987630 2023840 1736094 2007474
2164.72 1879438 1964676 2332612 4345766 4691486 2769672
2170.50 1307282 1331026 1148282 1152490 1128762 1934862
2176.29 2768088 3293712 2208464 1347588 773114 852050
2182.07 799900 931586 820674 1233052 1242528 1243444
2187.86 994904 1229260 1087762 1233952 1205610 1418506
2193.64 1206472 1434860 1418068 1482328 1228366 1458234
2199.43 1265322 1412216 1340994 1563194 1341126 1536412
2205.22 1448618 1652276 1530186 1783734 1815872 2078816
2211.00 1989176 2142038 2075126 2309388 2251992 2608748
2216.79 2541422 2906788 2882808 3208944 3203024 3502178
2222.57 3576202 3914716 3937910 4292238 4374218 4728284
2228.36 4726764 5166660 5366708 5802110 5760086 6041434
2234.14 6008230 6335208 6376144 6757458 6740850 6998652
2239.93 7024452 7514266 7539136 8142360 8331832 8384364
2245.71 7973762 8118928 8009420 8286132 8335894 8709000
2251.50 8713604 9158330 9293264 9692526 9708332 9935414
2257.28 9421148 8405018 6516376 6124568 5946900 5627516
2263.07 4894602 4758298 4578786 5029702 5378624 6938630
2268.86 8392952 9344076 9430036 9216370 8597844 8935292
2274.64 8722006 8929312 8788942 9089834 8943848 9110990
2280.43 9038422 9134724 8445620 7941254 7146888 6742156
2286.21 6062790 5783768 5401102 5417554 4968326 4989268
2292.00 4766058 5036310 4934264 4987204 4280034 4304596
2297.78 4860806 7084710 6564106 4452134 3419416 3525448
2303.57 3271436 3241738 2863436 2893276 2681428 3553594
2309.35 5169752 6475804 4468830 2860236 2450202 2709108
2315.14 2613502 2952428 3142250 3470502 3233280 3281832
2320.92 3060470 3271478 3106898 3206294 2977484 3186156
2326.71 2995014 3077812 2815026 2831540 2456452 2436068
2332.50 2052352 2021592 1658078 1702190 1454574 1614886
2338.28 1380364 1402702 1067594 1110082 925606 1075122
2344.07 765300 1233712 2595418 3163408 1325766 856332
2349.85 607770 776588 509028 722384 426996 640280
2355.64 378000 557170 264890 498952 341158 527452
2361.42 307128 531844 382766 605168 394470 618572
2367.21 391670 593726 432186 699594 476124 729048
2372.99 529710 770754 533288 713366 452662 706950
2378.78 516564 730782 466964 699758 492728 650380
2384.56 369912 575076 372172 560650 325834 651752
2390.35 559142 701080 409650 679584 445580 586688
2396.14 294276 551508 336354 508968 247004 514176
2401.92 294104 527514 335968 591538 336528 502586
2407.71 214486 513918 257464 350996 22468 200862
2413.49-71874 173564-36110 194224-30608 209496
2419.28-32142 238522 6844 241620 34836 293764
2425.06 18034 270866 59348 341878 136900 343856
2430.85 41674 251736 4848 262968 1218 257816
2436.63 9650 244786-8198 229564 1128 272010
2442.42 25388 284230 101860 363512-39288 162488
2448.20 6672 346352 44028 155174-135876 121036
2453.99-11296 428332 371260 652464 304144 377058
2459.77 23722 233126-69160 155818-114524 127756
2465.56-197496 50222-253184-46966-298464-55032
2471.35-367388-94926-368600-148454-382060-100932
2477.13-407916-238432-578448-306364-541478-329578
2482.92-617984-340940-610430-367004-644568-421230
2488.70-717384-468264-717040-486760-777606-448528
2494.49-559164-197110-463268-156596-413840-177108
2500.27-520744-252910-530638-218900-466740-209640
2506.06-605228-314198-560988-345336-623236-309578
2511.84-678404-438776-721292-432602-734632-448424
2517.63-719408-451236-795700-502840-770322-480536
2523.41-776368-512534-827456-532416-802526-554462
2529.20-859630-619306-1062264-858056-1128058-674786
2534.99-706808-150754-298372 118472-174268 7172
2540.77-437610-294486-723378-537146-909940-628564
2546.56-966902-683086-977294-622974-854194-509362
2552.34-831814-483668-722542-331056-568510-210990
2558.13-507030-159040-414584-119910-516188-203798
2563.91-416598-13792-341464 13824-203200 132520
2569.70-180732 236942-83138 241160 16980 427114
2575.48 109404 458846 257238 615006 313102 783656
2581.27 571422 929916 659000 1030890 764508 1241154
2587.05 1022048 1405830 1092448 1539732 1249654 1503824
2592.84 1088204 1517486 1347946 1706504 1445300 1850192
2598.63 1505124 1877996 1705806 2113778 1747660 2147062
2604.41 1907228 2336558 2198824 3030354 3200372 3731032
2610.20 3329826 3425308 2287456 1651596 884072 1532650
2615.98 2227372 3908726 4119834 4258456 3065326 2871150
2621.77 2291648 2554862 2111070 2392564 1961130 2295064
2627.55 1983436 2540132 2392662 2902074 2549822 2843342
2633.34 2414984 2800160 2369352 2623118 2150586 2418922
2639.12 1865384 2058912 1490722 1753896 1247550 1551614
2644.91 1077096 1404930 908054 1156898 674686 966694
2650.69 500188 782592 263430 596156 125984 514354
2656.48 119868 403694-84884 240358-221738 172266
2662.27-293338 55660-336798 67086-438718-49514
2668.05-423538 246-385554 17076-421638-48382
2673.84-497384-41590-492566-103976-526516-89202
2679.62-538674-160130-595676-120878-520536-53278
2685.41-501402-92680-543940-76784-502318-56290
2691.19-477594-24210-502210-81760-531916-44944
2696.98-487938-25922-483018-38280-430560 88052
2702.76-360610 151496-286734 255832-123666 370616
2708.55-114264 331274-163846 335632-144374 352284
2714.33-105388 423582-28254 434462 27446 605090
2720.12 67616 515576 10524 519406 35146 614342
2725.91 189438 704498 192020 697348 185642 726016
2731.69 171632 770532 320882 829164 324200 890914
2737.48 963590 2744882 1585038 984812 436528 972636
2743.26 512090 1064104 519038 1023388 499670 1036232
2749.05 527918 1172316 736502 1441024 1050656 1685322
2754.83 1157316 1498008 819122 1361870 834370 1373602
2760.62 654214 1111342 552978 1194486 791230 1374666
2766.40 716450 1242326 682606 1240576 604754 1107502
2772.19 459886 967972 230640 771436 218494 714328
2777.97 51330 657296-15012 597570 26368 638208
2783.76-10002 597528-14502 611892-75906 498944
2789.54-192998 400684-217198 401440-323466 306862
2795.33-264430 434638-297946 340584-320718 282046
2801.12-499080 133936-499356 193998-421180 302220
2806.90-459772 156312-538458 177338-590662 60176
2812.69-632764 117544-590512 93602-582286 183520
2818.47-584234 150346-602006 130594-624350 126760
2824.26-585316 162844-637906 167406-543010 202828
2830.04-662582 75682-662502 195172-603452 208966
2835.83-537716 227024-607356 304796-459550 356778
2841.61-472730 416702-443128 371274-411314 577890
2847.40-201800 683802-151142 801094-90892 798988
2853.18-25198 867548-94708 861792 58754 1120600
2858.97 254998 1287084 426334 1497644 639816 1794292
2864.76 978864 2092740 1191988 2406094 1639976 2871748
2870.54 2092912 3447160 2728244 4128572 3485054 5132876
2876.33 4595030 6313942 5904908 7730226 7526578 9737978
2882.11 9668124 12076960 12493560 15346730 15920260 19198850
2887.90 20115620 23515470 24829580 28768400 30267590 34655770
2893.68 36533420 41203320 43681700 48430890 50298480 55633280
2899.47 57395370 61809620 64240440 68492850 68966260 73786100
2905.25 74202180 77098560 77755170 80270500 78999940 82108470
2911.04 79941840 81805420 80854740 82424770 80621740 84131310
2916.82 81938170 84909410 80978140 78535470 70663530 68262400
2922.61 60437980 63052700 59726910 64953040 66388400 69939180
2928.40 128290700 334587800 307178900 105403700 60877120 64412050
2934.18 71441340 73926790 78174260 79180480 82318790 85249620
2939.97 88698650 91555630 95963980 99052780 102451900 106273400
2945.75 108063300 110631200 112401300 113481800 114275600 114622100
2951.54 113358000 113921100 111332100 110692500 108947300 106968100
2957.32 104952500 105106400 103087500 105703700 106922900 107561800
2963.11 105746600 104216700 98178380 91778030 81526690 78160390
2968.89 81077300 94471420 105073800 112858100 114754900 118542600
2974.68 118005200 119795300 121176500 126977200 127753400 133558800
2980.46 136761600 141328600 143580800 149424800 149544000 154909200
2986.25 154682600 156657700 156064100 158598300 154649600 156667700
2992.04 151674500 150633900 146792000 147738700 143106900 150932000
2997.82 154208300 154184000 138674800 132401600 120816400 123147300
3003.61 178687500 460692000 563369300 265601400 130086200 131250000
3009.39 148300300 167140500 183153800 187322100 186503900 183518300
3015.18 177283400 169241700 168512300 186866200 215230300 239169900
3020.96 253031300 262288500 261566400 260686700 260300400 262442700
3026.75 261517900 266597100 266162500 266472800 268024700 269588100
3032.53 262785700 266631600 261477100 257935600 251844600 252058800
3038.32 241488700 237447000 229551400 225471700 213674200 212074600
3044.10 194917700 186172400 171599700 168409400 148465600 145987000
3049.89 130638600 126994400 107611000 108174000 88863920 91650630
3055.67 77116070 87509660 78502920 115463100 132804000 167985400
3061.46 129721600 167583100 685242600 2130760000 1924248000 430423500
3067.25 81150190 60154600 71348550 51992870 69714010 52708520
3073.03 67714270 55793950 74217970 69388480 84765720 83706680
3078.82 101536000 98800130 115988200 116780800 127278600 126813100
3084.60 141290500 136931300 146384700 146532100 152000700 148155200
3090.39 157200600 151061300 154008700 150920100 153057400 144847500
3096.17 148410100 140584100 138976000 132675400 131765600 121382700
3101.96 121574300 112769800 108950000 101175600 98725900 88608670
3107.74 87114310 78769780 75514460 68501140 67396840 58652500
3113.53 55653650 48660440 47430640 41613280 40336240 33852660
3119.31 33119680 27587150 26970050 22161040 22291010 18199590
3125.10 18915170 14839410 14953990 11241870 12029440 8892196
3130.89 10029770 7093486 8290120 5677712 6907392 4291676
3136.67 5712996 3387044 4797302 2700708 4144374 1877028
3142.46 3344738 1405944 2841928 891702 2454216 619186
3148.24 2083648 341954 1873704 233292 1624568-23456
3154.03 1396650-320306 1137314-361420 1112080-420704
3159.81 972326-504784 883594-626354 762850-600592
3165.60 713050-660002 663130-623048 802636-611830
3171.38 642048-436660 891762-503270 706138-577904
3177.17 512762-806954 425882-745142 430464-688842
3182.95 483382-797176 355624-702682 418664-748184
3188.74 422900-631906 524348-596918 435244-673264
3194.53 476284-619298 323486-725548 390542-556072
3200.31 466366-706548 197504-718302 298384-785572
3206.10 159940-707224 320266-725312 156726-769056
3211.88 248896-734726 188064-755996 174240-706588
3217.67 188414-643326 431212-593606 108902-807664
3223.45 90126-777112 74640-797402 69068-703834
3229.24 124822-786048 21328-722486 179132-709588
3235.02 69588-704754 91462-797252-7060-813552
3240.81 1502-685032 184504-684760 34822-677926
3246.59 104924-674188 60484-798218-71408-774034
3252.38 15882-757684 73892-543440 61560-813816
3258.17-180084-813672-5340-732462-21498-729040
3263.95 32708-724790-92460-884982-230594-877296
3269.74-123738-807434-94034-768062-14430-662434
3275.52-18456-647008-29928-813326-355782-1157862
3281.31-479912-1074788-375612-962628-268328-833056
3287.09-171164-824352-203502-869886-264612-966810
3292.88-344278-878266-217246-834996-334750-868336
3298.66-209614-886494-302192-740018-47860-686106
3304.45-58798-659750-128122-814532-234008-739170
3310.23-151402-734202-140612-720662-146160-710688
3316.02-209966-720356-160132-746086-170358-702632
3321.80-164554-643412 466-548986-33850-655098
3327.59-193464-703768-174420-648070 4490-551096
3333.38-49872-670640-207644-623442-36224-631710
3339.16-210392-653348-126866-656126-99642-714868
3344.95-208456-609430-60020-544186-80006-612084
3350.73-79982-597548-153990-599032-50722-563534
3356.52-67568-521942-58910-471542-37614-582778
3362.30-105050-609194-163896-523320-103704-627316
3368.09-52430-565454-173310-590376-159188-531022
3373.87-58996-599500-134286-545818-191824-670318
3379.66-185464-639174-214144-637198-69516-482678
3385.44-133980-600762-245330-680170-181120-468554
3391.23 67788-455814-192252-676668-240050-666962
3397.02-194334-587050-125590-472502-123972-708252
3402.80-273872-594084-81752-450838-126438-577222
3408.59-44410-435140-59368-470910-60378-408120
3414.37-15378-533206-104602-393838-37274-480282
3420.16-7972-393284-41034-553802-262260-606434
3425.94-188006-543960-163388-448154-856-441222
3431.73-122170-538540-216428-542568-51732-490708
3437.51-207898-550460-72484-425820-110950-602346
3443.30-233324-461966-49202-485672-134678-453836
3449.08-131748-454954-40296-454814-116908-419354
3454.87-47332-477510-72402-467608-183012-539362
3460.66-184214-583780-277110-631822-177080-386274
3466.44 42578-423736-135124-419284-56320-361354
3472.23 38332-363438-197360-604614-233180-587826
3478.01-215172-527622-195970-485266-216044-540102
3483.80-72606-309484-62724-522900-268148-567750
3489.58-213228-496472-145962-541852-254390-544810
3495.37-208306-552982-200566-492672-160238-380716
3501.15 25606-461096-217750-510464-177346-477964
3506.94-140694-468138-196608-512548-212676-518286
3512.72-201674-554722-204768-445480-171902-513340
3518.51-158806-405770-122080-441494-131656-462422
3524.30-271772-663724-337616-572144-290720-627924
3530.08-268544-491132-178278-489918-232232-513818
3535.87-95622-360834-135988-558100-271384-508594
3541.65-169578-466708-192824-527956-181278-502994
3547.44-239110-485722-198850-544384-328924-621446
3553.22-246346-508352-229848-542006-314750-597914
3559.01-214940-457436-247234-582410-300852-571036
3564.79-223196-454612-242016-573090-348174-608674
3570.58-261530-502676-421542-662894-210830-449666
3576.36-217704-550586-238630-465084-232386-517480
3582.15-208872-460688-250632-541322-195842-415870
3587.94-198276-496702-407294-666468-260874-462794
3593.72-189300-346538-151608-571136-390454-623858
3599.51-230238-446886-199366-478870-293728-535054
3605.29-265266-530988-196292-399188-145162-465388
3611.08-206996-399840-192644-454568-163274-451614
3616.86-230444-428784-141630-354376-70692-407190
3622.65-288608-427738-122430-351462-124094-343510
3628.43-67874-412588-219308-470562-228896-387862
3634.22-64340-287860-115490-344524-176008-526946
3640.00-234582-408774-186996-418916-225886-485802
3645.79-244636-408256-118936-298796-94588-378432
3651.57-171040-397792-241878-466858-186990-426300
3657.36-267460-553922-293984-398026-192708-443270
3663.15-228002-447182-182876-306334-114876-328022
3668.93 5290-122662-22926-409170-179080-232998
3674.72 75060-213168-7994-147918 48884-190592
3680.50 63088-97812 94388-34848 227148 84348
3686.29 349712 136516 430808 243848 393560 175448
3692.07 421940 261630 470056 233740 501340 283422
3697.86 497846 351756 611166 437088 661690 484250
3703.64 788282 549570 692084 582216 826904 580660
3709.43 822362 737236 1078404 862638 1091146 1008788
3715.21 1258624 989546 1266512 1270348 1573096 1547954
3721.00 2072372 2358306 4252600 5459464 3419752 1412388
3726.79 1606862 1573204 1778922 1508768 1816192 1741890
3732.57 1935956 1704128 1770966 1589136 1832972 1655298
3738.36 2114508 2477736 3429582 3681628 3158440 2192214
3744.14 2271572 2057882 2263756 2074610 2345186 2349654
3749.93 2897532 3183588 3322924 2793732 2756366 2554046
3755.71 2837524 2724568 2942986 2886646 3335924 3392478
3761.50 3735130 3671194 3713264 3409472 3904802 4532042
3767.28 5372826 5061932 4661240 4097908 3948908 3346796
3773.07 3067928 2717266 2939158 2753920 2933224 2617648
3778.85 2860274 3120982 3904534 4225584 4184038 3232416
3784.64 3136958 3182010 3503982 3337970 3626968 3518234
3790.43 3717046 3681922 3850770 3660682 4003504 4039930
3796.21 4303954 4286876 4548156 4433178 4845550 4944194
3802.00 5105706 5013738 5434680 5345780 5323768 5090724
3807.78 5482632 5650750 6273136 6413740 6746362 8257964
3813.57 12194530 15197520 12194630 6268726 4978546 5111260
3819.35 5478132 5107326 5229102 4740364 4995606 5553852
3825.14 6909252 7779588 9720390 11344670 11773140 9134816
3830.92 6242140 5453818 6441690 7297348 7928904 7656418
3836.71 7604954 7177686 7366702 7410400 7889048 8038660
3842.49 8679870 8909104 9426126 9653396 10036360 9862254
3848.28 9695662 9169662 9121952 8782530 8716564 8459716
3854.07 8272282 7670456 7594770 7411378 7648632 7595664
3859.85 7856184 7949562 8606474 8762804 8530214 7390746
3865.64 6915688 6685330 8101634 10558200 12734430 13382570
3871.42 12507120 9272440 6932972 5723912 5038598 4087148
3877.21 3465722 2955236 3353778 3260280 3470730 3325756
3882.99 3116284 2800994 3073920 2967218 3137742 3170756
3888.78 3405412 3361178 3665792 3593798 3857164 3833152
3894.56 3899688 3860124 4047792 3929628 4123530 3732712
3900.35 3792010 3702250 3790212 3463186 3573764 3354404
3906.13 3342138 3079350 3057092 2739612 2720900 2442628
3911.92 2318142 1975918 2019182 1747662 1786008 1487036
3917.70 1446824 1211562 1253378 1001764 1117762 912038
3923.49 896400 612282 669386 466050 600188 753336
3929.28 1322800 1006970 681288 524314 782422 694794
3935.06 1040088 854902 627916 408900 532728 467662
3940.85 1301692 1969912 1829352 1138482 1086948 646674
3946.63 274784 27052 149158 37922 131828-69368
3952.42 314480 768752 1326086 1006726 593928 98860
3958.20 33936-106584 79998-35064 63332-25744
3963.99 60382-185480-39894 18846 100020-206594
3969.77-84964-55032 52578-103870 24886
##END=
