##TITLE=Ethylene Oxide
##JCAMP-DX=4.24
##DATA TYPE=INFRARED SPECTRUM
##CLASS=IUPAC A
##ORIGIN=NIST, Anayltical Chemistry Division, 301-975-3108
##OWNER=COPYRIGHT (C) 1998 by the U.S. Secretary of Commerce
##DATE=98/10/1
##$SPECTRA VERSION=1.00
##$UNCERTAINTY IN Y=2.1 % relative (B=1.1E-04,C=1.2E-09,D=2.7E-14)
##CAS NAME=1,2-Epoxyethane
##CAS REGISTRY NO=75-21-8
##MOLFORM=C2 H4 O
##MP=-111 C
##BP=13.5 C
##$NIST SOURCE=QUANT-IR
##SPECTROMETER/DATA SYSTEM=IFS66V (Bruker)
##INSTRUMENT PARAMETERS=KBr Beam splitter; MCT Detector; Multipass cell
##STATE=gas
##SAMPLE DESCRIPTION=Ethylene Oxide Primary Gas Standard
##PRESSURE=101.3 kPa
##TEMPERATURE=23 C
##SAMPLING PROCEDURE=1 L/min Flow
##RESOLUTION=0.9640
##DATA PROCESSING=3-Term B-H Apodization
##XUNITS=cm-1
##YUNITS=(micromol/mol)-1m-1 (base 10)
##XFACTOR=1.0
##YFACTOR=9.0949E-13
##DELTAX=0.4820
##FIRSTX=575.169
##LASTX=3975.077
##FIRSTY=-4.51E-07
##MAXX=3974.59
##MINX=575.17
##MAXY=.0014909
##MINY=-7.53E-07
##NPOINTS=7053
##XYDATA=(X++(Y..Y))
575.17-496344-223092-77364-118762-20038 121556
577.58 9440-499632-828982-677662-539024-479798
580.47-216090-94342-371818-438130-262050-244096
583.37-234262-335046-422218-262690-179212-225672
586.26-384196-492594-377376-235948-165972-107756
589.15-110630-136538-192842-211326-56266-10864
592.04-127896-161306-98468-61822-215384-401296
594.94-510000-581126-414338-92374-90292-373806
597.83-533918-526614-485190-388558-314282-204342
600.72-19560 24320-74786-127188-89704-131170
603.61-296822-321888-197312-224222-388126-461754
606.51-498126-506816-385174-235728-266382-338000
609.40-280066-234596-236170-218458-206590-255270
612.29-251408-120342-72802-143328-220734-293808
615.18-302276-246218-229416-296356-336738-248332
618.08-210432-218600-146600-178062-227092-145076
620.97-136198-181402-172522-214600-241294-202166
623.86-204002-196522-188334-212582-251330-228992
626.76-164268-206430-302068-305286-247920-303576
629.65-356290-265706-172014-148660-225944-316472
632.54-328016-303292-236508-168894-187172-298278
635.43-323034-168344-87948-160924-244236-286386
638.33-296958-290274-207704-104716-69900-53100
641.22-87534-165178-225642-276034-283614-223894
644.11-201570-228374-251424-288800-338922-310590
647.00-267362-286556-275356-242842-212828-142346
649.90-118798-176656-235870-269384-262026-215194
652.79-207228-244784-268376-208148-104560-100476
655.68-207036-249852-194440-162972-214586-224766
658.58-177654-219492-258422-194184-157412-194976
661.47-204092-116186-42918-72816-145666-219076
664.36-223488-177704-228736-314872-314880-297384
667.25-276428-197734-155020-166346-147760-141200
670.15-170502-188094-199730-193830-178284-140092
673.04-143806-192524-207856-215846-174682-150842
675.93-198824-180406-99954-50102-74926-135256
678.82-166882-180004-193482-169222-105390-41802
681.72-14370-31176-68106-119998-158556-139482
684.61-138798-218766-267470-208102-178744-206472
687.50-170830-141480-150294-140174-145278-129870
690.40-101454-146988-219838-225448-169778-170062
693.29-225420-241946-233628-216956-228174-257862
696.18-247360-240290-184472-114446-164234-215684
699.07-219138-282478-263168-154822-128320-139164
701.97-158444-185128-146170-83396-101774-173262
704.86-267914-332112-339124-309864-246246-171632
707.75-134728-171808-223238-209804-209672-247312
710.64-257698-238182-196230-160682-125982-106644
713.54-150616-204038-228896-230650-229610-249188
716.43-285484-270754-201612-176072-180884-152728
719.32-151968-159204-121000-115004-109654-99816
722.22-121818-118868-150698-195874-191802-198762
725.11-242266-276864-272670-219828-138874-115332
728.00-145698-137618-148544-168258-130816-98112
730.89-95092-68916-41422-38706-26186-21186
733.79-60736-91096-69544-27274-29418-54486
736.68-58606-62632-74024-62678-43244-24176
739.57-3264 14450 26372 39112 34594 25068
742.46 45834 70134 94620 115848 86876 49788
745.36 55184 80530 87316 88750 125802 186326
748.25 205260 169396 147388 162326 181628 184908
751.14 167600 169696 216060 284070 336078 362772
754.04 346302 336084 319948 303340 335830 400092
756.93 457990 464914 431758 398860 423428 507088
759.82 521250 471894 461710 500790 557394 632250
762.71 699276 747284 785808 805128 822942 849736
765.61 851160 883756 991736 1056560 1011352 987272
768.50 1044134 1133052 1224796 1327170 1350180 1319540
771.39 1356408 1422900 1503372 1646902 1759316 1811610
774.28 1843808 1887696 2074256 2277126 2247378 2291422
777.18 2469846 2480714 2615290 2884924 2956452 3101090
780.07 3211068 3222010 3581722 3806694 3696466 3914988
782.96 4087904 4149464 4579486 4743504 4735260 5101272
785.86 5308392 5542140 5966518 6129896 6298448 6577406
788.75 6735524 7069586 7575238 7760554 7869976 8171132
791.64 8369214 8693102 9159652 9398840 9890956 10500470
794.53 10437780 10628570 11222940 11315970 11886660 12455560
797.43 12308800 12682920 12987100 13055040 13968570 14429130
800.32 14153780 14712120 15126370 15088320 15821550 16076920
803.21 15655470 16270310 16899840 16975330 17675960 18181050
806.10 19001200 21720400 24463670 25765800 26220320 25740140
809.00 25410630 25891000 25949690 26159030 26565430 26397440
811.89 26315080 26642270 27188680 28379580 29460830 30067730
814.78 30673500 30946940 30276340 28731330 26823120 25695400
817.68 27228560 33404070 44060880 56264990 66924810 75542500
820.57 80998470 76100040 56395960 33670740 21564390 18439790
823.46 18378960 19591650 21253450 22778620 24662040 26514870
826.35 27644810 29118800 30974320 32820520 36038710 39626520
829.25 41734340 44875670 49794650 53593160 58566850 64854930
832.14 67934740 72513410 80072950 85379830 90811980 97289310
835.03 103361800 109129400 114826000 122048400 128012200 132003700
837.92 138202600 143012200 143209900 142497500 140879400 136741300
840.82 133356500 132997800 131680200 129972900 130914100 130295400
843.71 127837200 129850700 134244000 134279200 132980500 136014500
846.60 139888700 142239000 146355800 149367100 150139300 154150900
849.50 160083400 163915000 166615100 170774100 176024200 178383800
852.39 180141700 185820300 191328200 192849800 194536500 197898100
855.28 198556300 200347700 205332200 205659700 200929000 200408500
858.17 203350900 199803000 195673300 197263800 192534100 183889000
861.07 182831000 179705400 170479400 166800200 166912200 162140400
863.96 159332400 164113100 166070900 163934700 168838200 177481600
866.85 181827600 188986000 202542400 216097100 230519500 248521600
869.74 265410900 278594500 290482800 299933000 301378100 293555300
872.64 277204400 251047500 216788300 176275100 132881400 92035960
875.53 59746760 42601850 44217440 64175410 97648300 136957100
878.42 173005700 197997500 212418400 218451200 221523300 224281500
881.31 221953000 215466300 208514600 201118500 191966400 181529900
884.21 173705600 167271200 158456000 155343700 155068600 148737500
887.10 143631100 144032700 143143200 138646900 139883100 143043600
889.99 139290500 137125800 140073100 141005900 137040700 138353200
892.89 143592000 139947500 138581500 141639800 139385500 138664300
895.78 139755200 141281400 141055600 135590300 136590100 139181900
898.67 135404400 135207300 135744700 133334300 130565000 127625600
901.56 130200700 129621800 122749900 123706700 122831300 116248700
904.46 117491800 118578300 113291400 108965900 107353700 107753200
907.35 104519300 99497130 100316000 98008660 92072420 91846360
910.24 89661510 85241120 85022500 82796040 79373780 76364330
913.13 72249710 72461260 71187530 65453440 64869380 64092340
916.03 58991030 57343890 56299430 53624640 52290190 49623860
918.92 47264290 45516220 42605380 42601010 41797600 37316140
921.81 35885220 35725040 33164360 31847670 30837750 28890050
924.71 27813560 26249060 24758310 24244650 22467720 20988190
927.60 20858220 19182780 17888370 18179960 16701240 15045000
930.49 14766230 13821450 13161160 12738750 11671050 11223660
933.38 10466870 9539770 9608718 8919248 7988560 7958430
936.28 7424312 6786612 6612698 6169476 5700972 5313320
939.17 4933846 4775986 4517632 4144292 3990296 3747120
942.06 3314000 3144830 3055920 2773690 2644708 2530962
944.95 2274386 2135784 1970500 1827122 1815606 1655672
947.85 1504650 1401408 1223512 1208536 1207616 1101840
950.74 1043152 892546 754328 755804 728372 690168
953.63 620266 523534 502124 445474 367956 354708
956.53 338182 327690 314834 289470 278932 235446
959.42 191814 174058 139690 123370 124762 128754
962.31 136632 100580 43242 13866 8344-2922
965.20-29360-49160-57942-53534-20624-11932
968.10-45970-42212-33414-64146-92266-119844
970.99-145954-146682-126458-91678-61172-56062
973.88-81254-117802-126982-112002-110680-122438
976.77-109982-83146-83014-108438-124690-134450
979.67-145084-159960-162028-160472-161822-163222
982.56-169506-153506-130626-114352-119292-148978
985.45-154768-143056-140000-140984-149844-162542
988.35-193528-214140-197274-179068-173890-176696
991.24-170952-162594-157910-161544-177444-178524
994.13-159536-153984-171388-167830-151536-154152
997.02-166716-190906-207988-206186-196728-169014
999.92-139932-136116-153508-168822-179530-198296
1002.81-198696-178138-167804-173500-170212-149922
1005.70-151440-184328-213368-209954-186558-160340
1008.59-128146-109680-128466-166184-173094-137556
1011.49-109916-106510-112040-134126-167894-175158
1014.38-151028-136106-140366-143602-160688-174248
1017.27-150656-126090-127860-139150-166874-174274
1020.17-151858-149980-154562-141490-141898-156830
1023.06-159316-140168-116478-104698-111278-125464
1025.95-120300-108142-106480-96456-67060-6502
1028.84 155888 357436 353886 187408 45708-44412
1031.74-79038-81832-72664-62934-63492-58806
1034.63-61194-62930-59386-73836-79942-64950
1037.52-45386-42460-61604-58604-20964 20642
1040.41 49534 52106 21968 13214 59008 81018
1043.31 57326 48806 74174 104464 114268 97346
1046.20 71300 68502 79638 90396 140548 196720
1049.09 190596 161822 135946 132844 163648 181834
1051.99 189022 201432 197042 192782 212666 268250
1054.88 310644 331262 372972 397240 365102 297714
1057.77 315840 385112 357830 341490 382658 423622
1060.66 459104 487050 521244 530274 564964 622476
1063.56 601818 557892 578482 703646 817362 779668
1066.45 716280 732502 804720 816646 753286 785610
1069.34 857872 887040 891232 924484 1005796 1010838
1072.23 996072 999260 998468 1051612 1072456 1114210
1075.13 1168648 1179026 1188000 1223894 1318878 1331966
1078.02 1318470 1335380 1357244 1476654 1488894 1417358
1080.91 1414486 1543754 1720576 1706194 1627824 1601410
1083.81 1715128 1803624 1750646 1771526 1836240 1936250
1086.70 1946732 1946830 1979216 1950998 1991386 2011284
1089.59 2038692 2049110 2111870 2171154 2096528 2139834
1092.48 2254148 2346668 2331618 2318150 2307220 2305022
1095.38 2473052 2556746 2490792 2495614 2674894 2673072
1098.27 2492082 2569406 2819902 2878908 2784106 2889204
1101.16 3001662 2926256 2985616 3260314 3321736 3224214
1104.05 3349226 3541940 3470332 3410070 3753576 4016832
1106.95 3903376 3909416 4200314 4296528 4148284 4276748
1109.84 4659754 4834830 4779810 4841386 5136428 5276354
1112.73 5201316 5388462 5808052 5901596 5727298 5894706
1115.63 6276340 6279076 6092106 6366322 6768272 6600490
1118.52 6371716 6648990 6976574 6865644 6682914 6898162
1121.41 7123848 6840474 6533566 6848504 7013138 6644930
1124.30 6804678 7398414 7593608 7873094 8233554 8058390
1127.20 8011848 8308694 8244654 8280888 8669700 8826482
1130.09 9083586 9763756 10114260 10169090 10475790 10662320
1132.98 10931360 11477050 11416380 11042930 11037520 10768950
1135.87 10300490 10006660 9100966 7774740 7201646 7060124
1138.77 6893260 7055382 7714618 10015070 15524910 21872520
1141.66 23953730 22380860 20690280 19320420 18374990 17775320
1144.55 16645270 14993620 13128380 10679590 7772906 5387422
1147.45 4243344 4053358 4817258 7686898 12721190 17795290
1150.34 19980810 18370240 15490920 13379020 12184030 11724900
1153.23 11762790 11943790 11733120 11096780 10423910 9477428
1156.12 8237152 7356298 6724294 5979358 5631824 5653722
1159.02 5451952 5255622 5454698 5804892 6112746 6545760
1161.91 7069938 7439412 7767702 8156834 8499328 8842826
1164.80 9350108 9726780 9658878 9639666 9978040 9998198
1167.69 9760358 10017220 10322940 10002510 9531302 9539392
1170.59 9696392 9282088 8972614 9228006 9037468 8463340
1173.48 8323900 8299942 8003590 7779382 7948300 7812022
1176.37 7130846 7057712 7277438 6765104 6467482 6825566
1179.26 6769838 6123378 5846884 6206582 6215364 5623626
1182.16 5555560 5930238 5614544 5053236 5143578 5425460
1185.05 5314688 4911434 4734530 4964994 4908258 4455592
1187.94 4471948 4887552 4624068 3972098 4049138 4483098
1190.84 4241774 3816104 3992330 4246998 3964744 3549438
1193.73 3619226 3916964 3767832 3338294 3311918 3572496
1196.62 3454948 3136210 3208256 3419660 3324030 3032022
1199.51 2889782 2957978 3040462 3001538 2890302 2868472
1202.41 2929676 2842866 2647094 2663052 2837882 2859596
1205.30 2698456 2600364 2660556 2720508 2675112 2639688
1208.19 2641910 2702240 2740752 2696558 2716610 2858702
1211.08 2942558 2860282 2816242 2975408 3120574 3117140
1213.98 3163032 3266456 3329008 3446630 3584980 3644370
1216.87 3733690 3950844 4138128 4211798 4396132 4705336
1219.76 4821820 4938018 5280760 5520658 5608642 5903410
1222.66 6326876 6522568 6649792 7038938 7480540 7824210
1225.55 8169482 8525998 8787092 9141744 9846078 10419170
1228.44 10595240 10925180 11633430 12111600 12353180 13039080
1231.33 13843850 14251530 14635530 15387560 15863580 16205450
1234.23 17321690 18249370 18150420 18613810 19922340 20540310
1237.12 20645180 21554650 22566080 22780440 23329910 24347350
1240.01 24673410 24961720 26287890 26988430 26719960 27229780
1242.90 28301460 28814610 29121940 29696320 30101130 30195240
1245.80 30562590 31469250 31887010 31719390 31985460 32605170
1248.69 32365310 32419840 33285470 33528700 32802020 32658900
1251.58 33325990 33174040 32529430 33131310 32993020 31643370
1254.48 31852690 32463930 31486960 31000880 31821440 31862340
1257.37 31158560 31725830 32901530 33060900 33743200 35584560
1260.26 36537320 36897490 38430440 40196560 41647550 43664170
1263.15 45925320 47702000 49149620 50498140 51506140 51066150
1266.05 49545430 46933830 42550960 36758350 29684460 21991240
1268.94 14962750 10009870 8473012 10864420 16813330 25013350
1271.83 33906550 41808390 47935240 51918140 53783380 54523040
1274.72 54028650 52477710 50577430 48564720 46263080 43462390
1277.62 41125790 39383080 37369220 35906890 35666580 34841570
1280.51 33378450 33181060 33331380 32574330 32514700 33488900
1283.40 33467010 32709520 33404520 34278320 33529060 33716390
1286.30 35112430 34928580 34583940 35273720 35226470 34759520
1289.19 35205790 35919060 35502440 34612640 34765430 34898710
1292.08 34343350 34085650 34013870 33398470 32459150 32012920
1294.97 31896200 31302800 30469080 29991040 29182010 27894540
1297.87 27605090 27561790 26140600 24847280 24599690 23937250
1300.76 22718380 22071730 21504490 20322720 19598920 19221000
1303.65 18025600 16873180 16784220 16342730 15006390 14183310
1306.54 13811840 13126700 12408840 11932260 11351580 10560030
1309.44 10049160 9639112 8994366 8473484 8269884 7894928
1312.33 7126108 6548152 6435378 6277636 5811844 5419618
1315.22 5111128 4700972 4477790 4350436 3978276 3615144
1318.12 3522452 3355624 3013520 2871108 2821836 2595696
1321.01 2390162 2291156 2123270 1917120 1830268 1722034
1323.90 1514212 1409850 1402700 1310940 1178660 1108996
1326.79 1042292 931218 865358 841384 768228 675204
1329.69 648980 622504 537908 473210 453674 415030
1332.58 360454 333028 307824 257696 239292 230300
1335.47 183470 133350 115422 119106 114566 82014
1338.36 47996 29680 25836 35322 23930-10620
1341.26-19544-15008-12508-15302-31318-44036
1344.15-29158-22912-39546-69570-90890-87968
1347.04-71582-55142-53706-67936-83738-117956
1349.94-129074-109852-135548-195206-186394-139620
1352.83-149562-179520-181210-166784-139924-123472
1355.72-131526-135898-143622-164894-163808-154814
1358.61-151934-162858-186128-170508-140662-156456
1361.51-160812-124130-105218-131014-145326-127760
1364.40-102808-82400-88410-127836-165200-174894
1367.29-141056-102108-110854-135816-127984-115228
1370.18-111948-107084-117060-141034-151470-147772
1373.08-140600-126898-109386-100876-97850-105816
1375.97-125442-132054-115048-96630-95502-110386
1378.86-95854-67820-65430-72604-68118-61924
1381.76-73780-89934-99780-91938-66284-74426
1384.65-97214-89918-78622-86428-93682-80984
1387.54-64500-59560-52846-48256-48338-54580
1390.43-80456-103518-85900-68406-76688-94840
1393.33-98014-84880-85450-82872-70180-77696
1396.22-82620-74292-75916-107496-132230-111788
1399.11-78704-46734-20526-32214-69104-98562
1402.00-103896-101346-94998-82980-85946-98026
1404.90-101920-86284-67204-98230-145248-151452
1407.79-136712-131232-124082-111562-117406-154014
1410.68-170080-145626-133564-150346-150342-140954
1413.58-138012-124126-108342-115614-129592-126958
1416.47-111674-109620-119176-118280-86224-56526
1419.36-71940-97028-98820-97968-91992-74280
1422.25-50908-44594-42668-32584-23266-21760
1425.15-8142 15144 32644 49014 53568 50414
1428.04 76268 102194 109858 135296 159448 165922
1430.93 183724 217274 264166 309818 340730 352306
1433.82 351356 384680 435446 467944 512836 563274
1436.72 598074 624954 636492 625742 644974 692578
1439.61 731598 777764 833344 866316 884996 916474
1442.50 971096 1015806 1027906 1037050 1054448 1075118
1445.40 1119716 1164666 1198750 1241964 1268028 1262104
1448.29 1285076 1305364 1272744 1251376 1268374 1298456
1451.18 1331574 1336948 1333744 1324570 1306066 1334622
1454.07 1352928 1311390 1313808 1346224 1342306 1340020
1456.97 1356798 1352254 1320358 1316836 1333146 1305806
1459.86 1284844 1311436 1314756 1323782 1391590 1430868
1462.75 1423734 1466076 1550710 1585926 1586552 1646272
1465.64 1710640 1715188 1755434 1826850 1845310 1890154
1468.54 2031782 2139850 2232046 2951896 5459238 7661380
1471.43 6081746 3354652 2409122 2316796 2334226 2428486
1474.32 2528550 2564758 2650790 2767598 2791038 2812194
1477.21 2900508 2916184 2843522 2857858 2940230 2915594
1480.11 2899286 2981240 2959396 2891826 2989742 3080466
1483.00 3022072 2909876 2780462 2675878 2704840 2855358
1485.89 2974258 3005834 3095174 3232632 3292134 3352118
1488.79 3516180 3674526 3795414 3977240 4165392 4265806
1491.68 4345498 4426752 4445898 4353704 4155640 3854890
1494.57 3441356 2926444 2367228 1759526 1186528 812840
1497.46 737090 1034792 1671332 2480844 3270792 3819816
1500.36 4087440 4196908 4279814 4334972 4279694 4093132
1503.25 3867720 3680670 3482650 3276590 3148596 3029094
1506.14 2897276 2831648 2803358 2694528 2593116 2615404
1509.03 2645060 2604872 2634454 2703374 2663716 2627420
1511.93 2748706 2811216 2760384 2827306 2925638 2893106
1514.82 2880048 2908686 2923026 2942344 3011726 3059816
1517.71 2992086 2924938 2968994 3009978 3004474 2992288
1520.61 3028798 3001288 2862472 2818634 2875780 2791512
1523.50 2648164 2638332 2601400 2511368 2524030 2483880
1526.39 2320188 2260956 2286284 2186262 2055376 2046822
1529.28 2030680 1948356 1853998 1745604 1661190 1629428
1532.18 1575728 1511834 1450070 1362066 1311378 1262090
1535.07 1163866 1120222 1119242 1042294 947516 930600
1537.96 923332 886388 850556 813054 737158 671100
1540.85 655148 608892 536498 487440 466228 442680
1543.75 413786 400496 380210 330416 301892 290294
1546.64 244664 194824 190652 184048 167184 185964
1549.53 194916 137430 87740 104616 131546 129998
1552.43 120594 105468 93752 100408 90534 62696
1555.32 59574 59372 50538 69710 112186 159578
1558.21 172498 134954 139884 170008 151912 116172
1561.10 80474 57664 74606 91744 101260 106932
1564.00 103732 108950 127050 131690 135444 150692
1566.89 178520 206150 195752 174220 216188 286618
1569.78 283076 239804 240322 261468 282836 301786
1572.67 332450 335230 314710 346768 417188 458582
1575.57 490112 539688 555026 481518 440096 525610
1578.46 617548 586874 545912 625696 684868 633396
1581.35 654550 752278 770344 758752 823322 816538
1584.25 715886 810892 1047750 1005362 806872 917822
1587.14 1219796 1190504 933962 957338 1253100 1354280
1590.03 1123302 1056602 1352904 1505396 1297674 1213386
1592.92 1476594 1625008 1403176 1350284 1647160 1804356
1595.82 1572672 1418714 1726230 2058772 1833632 1548100
1598.71 1829614 2205678 2039866 1734566 1884204 2304888
1601.60 2328012 1973546 1975218 2362524 2481566 2219344
1604.49 2151300 2436900 2591176 2432296 2415186 2648456
1607.39 2716734 2571112 2614010 2832524 2865866 2723804
1610.28 2784256 2937108 2937324 2931300 3035066 3095532
1613.17 3002448 3002278 3182278 3297194 3230522 3287004
1616.07 3485754 3492730 3400770 3466462 3520620 3462090
1618.96 3405644 3331290 3292046 3439298 3447984 3163966
1621.85 3117560 3242970 3206164 3397444 3722606 4041192
1624.74 4826548 5593148 5622652 5136034 4411474 3707448
1627.64 3479542 3533616 3418524 3268476 3262080 3382450
1630.53 3522996 3599082 3646198 3666628 3693278 3979336
1633.42 4507220 4939326 5223826 5350010 5238868 5069180
1636.31 5113394 5083064 4697014 4158878 3717364 3592810
1639.21 4113504 5401340 7313568 9870070 12595690 14128760
1642.10 13935100 12259860 9600958 7172802 5669648 5003226
1644.99 5143514 5923650 7201092 7989742 7601814 7166492
1647.89 6860282 6423452 6082884 5834558 5512240 5203362
1650.78 5146934 4957122 4770534 4688758 4494772 4266290
1653.67 4138764 3982550 3749886 3727960 3631924 3418250
1656.56 3348428 3234926 3181380 3168246 3007766 2885564
1659.46 2850470 2731836 2621726 2629388 2626618 2520984
1662.35 2450064 2332274 2212120 2294650 2236740 2029502
1665.24 1964226 1916300 1835622 1852076 1820746 1654510
1668.13 1619604 1602834 1486656 1446966 1412688 1262286
1671.03 1215136 1251146 1113972 945192 941494 894512
1673.92 798982 798442 764566 682062 645000 567314
1676.81 460262 419950 390128 332684 312928 283658
1679.71 226698 203458 161560 96548 77734 44144
1682.60-19396-53648-32232 80134 229244 240866
1685.49 126110 14926-64298-91040-82884-116784
1688.38-161942-179430-161390-135432-140930-171160
1691.28-177144-151734-144856-155982-132722-75378
1694.17-25864 30592 116746 136680 105866 137110
1697.06 197048 216072 213468 228492 281842 316834
1699.95 309826 296702 277090 277590 291774 280482
1702.85 280758 305038 327950 339892 353652 379308
1705.74 404782 436452 490048 524048 532978 554378
1708.63 584856 616196 654864 687968 737774 784332
1711.53 797004 782196 785684 823118 841950 857976
1714.42 909146 907650 847632 813984 821020 835476
1717.31 817338 791870 765932 705860 653602 608002
1720.20 558700 541850 536908 504362 468602 454182
1723.10 448720 416222 371430 330704 291784 272268
1725.99 265042 238180 221342 240360 240246 202212
1728.88 190646 199354 195344 219204 269160 265166
1731.77 251112 303728 351310 325864 333286 368452
1734.67 339564 325826 347214 323864 295424 307272
1737.56 302224 256972 235848 245216 233976 206366
1740.45 195524 187068 174384 179924 202630 231202
1743.34 321760 504074 761922 1040006 1203440 1187410
1746.24 1100088 998356 870076 709408 532404 364878
1749.13 222064 109504 47392 51992 109004 204856
1752.02 335842 432182 451950 434562 417752 404424
1754.92 420652 441034 432726 414220 410014 400522
1757.81 381808 370106 350254 317266 305484 290438
1760.70 278418 275160 276920 268998 226574 211360
1763.59 245652 232372 195682 209102 230870 226494
1766.49 223562 243666 298396 308484 254970 238860
1769.38 240826 232060 291054 324000 263990 271940
1772.27 308992 240568 215470 218852 155102 178078
1775.16 231102 162788 154678 202176 155026 136106
1778.06 147152 83306 86562 139164 86400 52606
1780.95 93438 75650 32966 24844 23642 22858
1783.84 22280 34614 53136 16014-27808-19352
1786.74-19474-49570-67584-73354-66798-67012
1789.63-60386-42486-51656-83554-74350-47780
1792.52-65998-91940-103976-106468-94704-96086
1795.41-105696-124524-127958-104026-85368-80072
1798.31-82228-97516-105014-102064-108882-126098
1801.20-113112-73308-35548-21780-35352-69956
1804.09-96584-67580-18244-18912-46800-57316
1806.98-42746-19964-5002-25072-46916-39520
1809.88-16170 22200 76890 98858 96158 102946
1812.77 91004 49972 39970 63828 73504 79938
1815.66 99966 95354 58056 48464 85830 125620
1818.56 145264 124142 83698 79142 105706 108162
1821.45 98404 77040 52202 51138 68604 69886
1824.34 66226 60356 21404-17002-4322 20918
1827.23 16244-24678-32604 23772 80718 93314
1830.13 63280 19086 10280 39356 61160 64072
1833.02 67040 76398 114972 191638 295534 416820
1835.91 560404 733868 921632 1043422 933906 563226
1838.80 202494 42218 15948 23976 40136 45036
1841.70 21888-16614-52352-72722-78354-109344
1844.59-114952-21596 117408 169972 144898 118764
1847.48 112312 117856 115440 87514 64406 77840
1850.38 111566 127188 129624 116300 95052 103754
1853.27 131638 151840 168626 170614 170466 168950
1856.16 177118 191000 171948 141828 145848 154648
1859.05 163292 177466 172900 139062 124126 123190
1861.95 134008 153228 143080 124270 123860 121744
1864.84 113716 82902 55172 54028 67196 80422
1867.73 74826 49516 36018 19178 11442 11918
1870.62-13398-40866-24862 6712 422-39864
1873.52-63544-72542-69036-50620-41910-57942
1876.41-74132-71438-64770-77046-108108-134840
1879.30-123954-93306-81220-86650-71846-48790
1882.20-43992-70414-85332-66482-41090-29972
1885.09-42754-70860-85616-77016-46852-41936
1887.98-60520-35566 23682 36518 7076-8952
1890.87 6082 21378 27440 26472 20174 692
1893.77-21686-6156 37090 58774 49878 33272
1896.66 56860 89490 89300 82130 102710 120246
1899.55 112048 116410 136924 140582 118952 98632
1902.44 143916 209072 191494 136348 146654 160834
1905.34 131314 138742 191796 223126 221776 217294
1908.23 225060 196466 166766 211526 274700 257452
1911.12 209890 224588 232754 167358 155638 230108
1914.02 255578 221018 218946 238744 219132 187466
1916.91 214474 264468 278966 266696 258610 246480
1919.80 229482 235154 254456 269578 295230 308188
1922.69 339348 405138 434788 423400 438498 484940
1925.59 520310 558868 630384 698714 783782 922142
1928.48 1097268 1251250 1401378 1615100 1854830 2082238
1931.37 2388842 2805226 3238888 3637134 4011810 4245668
1934.26 4029356 3085426 1806940 992240 730738 657046
1937.16 581940 503440 463870 453794 497896 546812
1940.05 553814 547452 526694 496692 518054 558184
1942.94 564856 581804 587046 543172 561164 588386
1945.84 559076 561638 582120 609984 637070 642104
1948.73 692664 701540 707668 786920 826362 869460
1951.62 925546 949628 1007666 1051460 1039942 1058586
1954.51 1105710 1138900 1196332 1204226 1184006 1226988
1957.41 1247472 1252960 1291332 1301308 1360744 1411516
1960.30 1374290 1368876 1354538 1360072 1366456 1219570
1963.19 1089058 1016912 992792 1049094 1063946 1091490
1966.08 1150420 1221848 1280202 1272516 1264812 1272860
1968.98 1283500 1290880 1285006 1253024 1241726 1243206
1971.87 1258124 1294592 1315736 1330502 1379910 1440868
1974.76 1535574 1686564 1754244 1642352 1555678 1571624
1977.66 1554742 1547098 1575218 1526910 1471486 1471508
1980.55 1465008 1507754 1607684 1686826 1835128 1966710
1983.44 1832784 1612820 1550588 1551588 1575672 1638730
1986.33 1698248 1740746 1774398 1800342 1847118 1899718
1989.23 1976144 2058766 2099088 2164676 2251486 2312784
1992.12 2367688 2433044 2523452 2550298 2557448 2614148
1995.01 2635866 2682684 2748528 2747592 2787826 2825506
1997.90 2844522 2827692 2781874 2813112 2800356 2784620
2000.80 2812560 2783430 2698318 2653014 2701050 2665838
2003.69 2643750 2615590 2531774 2491524 2505166 2611094
2006.58 2704622 2773722 2836078 2943116 3069680 3155178
2009.48 3261750 3383990 3506854 3652926 3773214 3849348
2012.37 3897186 3888526 3808696 3693912 3543598 3263854
2015.26 2848392 2395252 2156208 2305660 2682596 3032190
2018.15 3408446 3715040 3437428 2706082 2056720 1568006
2021.05 1199008 989438 952146 1035726 1179930 1258086
2023.94 1300078 1355156 1417778 1484438 1594378 1742110
2026.83 1824956 1842102 1877278 1984388 2064892 2086068
2029.72 2114584 2164294 2207856 2171688 2154544 2184862
2032.62 2212108 2209822 2235072 2316680 2385108 2454008
2035.51 2496150 2488302 2534352 2548270 2500176 2487322
2038.40 2508994 2489674 2399438 2339484 2342626 2303250
2041.29 2226030 2160526 2125972 2089668 2033638 2012706
2044.19 1981286 1891552 1841744 1847458 1838940 1767358
2047.08 1708840 1686318 1623530 1573782 1582760 1559870
2049.97 1519118 1486186 1467758 1448518 1413096 1382950
2052.87 1318536 1261030 1270000 1240126 1173444 1150192
2055.76 1149870 1102688 1063394 1092450 1110914 1115780
2058.65 1168700 1180032 1152998 1154434 1128916 1063998
2061.54 1035454 1038572 1034644 1013702 1020740 1027244
2064.44 995272 975888 974432 949270 945956 961964
2067.33 943416 945404 998606 1019534 1028448 1060598
2070.22 1074932 1108190 1154764 1201362 1334154 1496254
2073.11 1613794 1666480 1619632 1410698 1073608 817638
2076.01 773836 847068 940816 1034394 1119390 1150592
2078.90 1201882 1300690 1338088 1283854 1160310 1007472
2081.79 939370 1059104 1560036 2550308 3382424 3037582
2084.69 1828290 929446 638256 582964 569504 602604
2087.58 672696 741026 804382 847902 882038 899522
2090.47 830752 751710 765328 806434 844992 896668
2093.36 1001464 1169784 1314360 1375290 1442872 1552958
2096.26 1700728 1871510 2013618 2173542 2456588 2690242
2099.15 2654636 2482376 2383136 2294170 2210912 2201774
2102.04 2191210 2178628 2129416 1984914 1880640 1851870
2104.93 1819118 1764354 1735796 1788698 1843990 1783240
2107.83 1719796 1706716 1677886 1664916 1685090 1736046
2110.72 1820906 1794510 1682338 1628648 1628108 1644406
2113.61 1624688 1586360 1669092 1787884 1725314 1592468
2116.51 1578042 1580042 1538296 1532792 1548580 1540518
2119.40 1495128 1395558 1289118 1226790 1214066 1178378
2122.29 1139396 1174624 1191866 1081926 1003446 1028400
2125.18 1045214 1032674 1073466 1178960 1277696 1299948
2128.08 1305092 1347212 1405280 1456414 1500204 1541388
2130.97 1567954 1485572 1306500 1116940 937142 741122
2133.86 522766 369472 358454 436434 575708 782388
2136.75 1004346 1192970 1333840 1405570 1439500 1465006
2139.65 1479026 1478148 1447638 1389438 1346980 1311642
2142.54 1259196 1207054 1166320 1132222 1118690 1081690
2145.43 1038596 1042812 1052960 997988 948706 968896
2148.33 972934 912582 881520 935094 967792 905210
2151.22 884048 909038 902096 891702 905176 952010
2154.11 982472 940898 911122 880216 842894 837326
2157.00 888458 983292 986220 904242 873362 877784
2159.90 931256 977908 1019328 1081944 1045990 944068
2162.79 900786 905730 921224 936938 1012028 1038488
2165.68 941150 885520 942040 1096576 1439622 2136588
2168.57 2895718 2771156 1853504 1143958 830536 628690
2171.47 544562 647810 708584 599478 533268 547412
2174.36 531940 532362 678084 926852 1174672 1417300
2177.25 1671252 1804880 1531686 1055802 794142 615570
2180.15 463872 406260 379352 357544 400398 483022
2183.04 464324 391534 410224 447340 477086 564220
2185.93 690242 708304 627132 566916 540242 513040
2188.82 529786 601336 618836 566704 558030 578702
2191.72 586928 635302 706392 688158 636084 633368
2194.61 643444 652154 719228 795754 769034 689924
2197.50 638230 629390 671624 712002 710668 657656
2200.39 639392 671030 682772 695188 747890 772252
2203.29 729504 691506 687006 727004 776092 764490
2206.18 752244 791906 821410 791842 794408 848482
2209.07 903376 956252 995962 994764 1005378 1049762
2211.97 1065294 1011292 994844 1089178 1160412 1110830
2214.86 1070092 1147892 1263202 1296546 1254828 1279124
2217.75 1380720 1421700 1445902 1493930 1511182 1540928
2220.64 1620420 1674970 1662066 1665664 1765074 1858748
2223.54 1900898 1901522 1908278 2044604 2114688 2039484
2226.43 2111180 2303052 2331586 2246502 2344734 2463634
2229.32 2447128 2486092 2622040 2786696 2830006 2806220
2232.21 2909436 2974492 2938620 2910326 3029376 3129422
2235.11 3022500 3058516 3251806 3253842 3210842 3348360
2238.00 3448786 3385398 3402142 3507310 3472052 3466948
2240.89 3695780 3760598 3738494 3796778 3849800 4021100
2243.79 4213602 4251636 4221710 4170062 4042864 4025208
2246.68 4001014 3982414 4053202 4072668 4037288 4063246
2249.57 4176564 4210926 4267466 4318540 4347760 4390176
2252.46 4457624 4523146 4615394 4711118 4768242 4787242
2255.36 4832094 4930590 4952656 4927794 4897444 4813070
2258.25 4630364 4240208 3690662 3161496 2908364 2984116
2261.14 3113500 3086130 2940382 2753274 2592942 2481338
2264.03 2395390 2305404 2269332 2323702 2395428 2459792
2266.93 2548360 2675652 2914596 3345886 3943662 4407882
2269.82 4518130 4572450 4755860 4849178 4778318 4564928
2272.71 4348354 4245962 4341474 4516518 4474292 4343882
2275.61 4366646 4446596 4456290 4432092 4423596 4484036
2278.50 4585502 4567276 4423396 4455776 4625732 4565414
2281.39 4520328 4599062 4501680 4232244 4055318 3960784
2284.28 3770724 3584764 3491520 3322414 3156776 3101324
2287.18 2986584 2790174 2712058 2779566 2772674 2638572
2290.07 2570758 2548124 2482928 2422024 2406248 2435908
2292.96 2460168 2453974 2485008 2517088 2563444 2521186
2295.85 2299116 2119050 2099758 2096688 2108224 2264398
2298.75 2803656 3774018 4207552 3475032 2517768 1998132
2301.64 1795398 1724676 1721334 1727488 1718538 1685488
2304.53 1643322 1585928 1500768 1459616 1459084 1412760
2307.43 1339886 1335966 1438554 1630568 2011268 2621874
2310.32 3232142 3566190 3181474 2129818 1439592 1297244
2313.21 1270900 1266102 1279042 1301932 1348842 1363750
2316.10 1348528 1384288 1519586 1662484 1707424 1683858
2319.00 1683194 1679588 1642342 1572368 1546920 1593418
2321.89 1600124 1553188 1599732 1642948 1591140 1527522
2324.78 1520096 1556384 1550922 1501956 1561350 1609708
2327.67 1506300 1433328 1491904 1507938 1409812 1332198
2330.57 1331136 1313820 1211776 1127260 1148190 1112880
2333.46 985532 928494 957312 892518 786172 795238
2336.35 823134 761588 727804 778016 791038 724390
2339.24 694190 671318 609264 570198 549744 503822
2342.14 468956 500964 553890 503040 436340 429456
2345.03 422006 435482 664806 1392956 2097296 1789692
2347.92 984146 547708 406148 346860 355352 375002
2350.82 359112 332106 307694 287266 320892 344954
2353.71 274486 231062 278846 279676 255416 244566
2356.60 217652 231968 238880 158820 150312 205994
2359.49 223076 242290 222132 183938 217716 217092
2362.39 194574 208376 215126 258228 276890 229334
2365.28 240522 254810 260126 264574 235866 255638
2368.17 264388 218130 238970 272890 303700 311278
2371.06 277608 278722 312358 314236 309222 320384
2373.96 323578 338016 338060 306464 322490 313254
2376.85 272794 275456 283790 294280 321810 311098
2379.74 312808 319900 301336 283284 276818 283448
2382.64 319778 321050 279454 259606 264830 238214
2385.53 217954 231378 238518 248580 248532 215016
2388.42 208162 218582 223694 250264 323182 367808
2391.31 352378 284342 234040 255038 284710 281296
2394.21 290132 291430 267596 232164 206634 194164
2397.10 201050 221856 237184 228798 217204 200022
2399.99 174726 165852 189954 210170 208898 198660
2402.88 206506 202520 205054 229016 246198 239108
2405.78 231210 228564 224986 193506 164958 149424
2408.67 162806 211170 233838 196308 145422 108068
2411.56 89592 66008 53034 43556 29000 18508
2414.46 16472 22076 44216 46642 39606 33354
2417.35 36186 45316 52430 46638 41598 34562
2420.24 46380 68026 70712 61438 57494 55968
2423.13 69024 72282 87078 106696 80176 48902
2426.03 65844 80974 84700 87574 96106 105684
2428.92 126766 142176 128842 106722 98708 77964
2431.81 66824 66768 61200 54554 69354 81426
2434.70 70438 49924 57594 72094 78394 67410
2437.60 52962 57894 71334 56908 47898 51094
2440.49 55608 62426 71364 71100 80790 80364
2443.38 66772 69328 94744 113084 134974 142034
2446.28 106506 26312-22290 11522 57122 60986
2449.17 80250 121666 143158 99848 23850-8762
2452.06 11154 5356-23134-21908 19644 64808
2454.95 94206 124158 224376 286116 259596 260762
2457.85 266898 227172 166620 112840 87316 66308
2460.74 66594 63252 36438 17972 24860 22022
2463.63 1658-6582 17352 17948-20446-50492
2466.52-47750-33556-25514-62304-96824-94290
2469.42-80500-86758-82660-83154-102066-130564
2472.31-137716-106898-84926-117630-152252-144694
2475.20-127774-131714-117848-105066-115060-137386
2478.10-163592-183188-203830-235462-241312-222706
2480.99-193394-193608-214416-239356-244336-242740
2483.88-244202-238752-223472-236218-253766-254762
2486.77-244290-249728-266392-284410-284800-285988
2489.67-301394-313246-297450-279096-285164-318406
2492.56-332450-322520-311282-306730-272388-201986
2495.45-148458-161632-182822-164828-147154-149732
2498.34-141646-135900-129012-152266-187210-200726
2501.24-194134-192624-196792-202508-192922-175600
2504.13-165310-169808-156428-153048-192902-259168
2507.02-269182-221298-188306-203574-225544-246808
2509.92-264962-253066-213722-204592-234122-282626
2512.81-301956-288818-275920-300172-296574-274230
2515.70-283362-305518-307444-292538-280682-295954
2518.59-293460-274696-308724-352506-332640-316168
2521.49-312344-313540-315356-312204-309026-312504
2524.38-322546-336034-326724-337742-360118-346390
2527.27-313270-322418-339548-349410-365926-363512
2530.16-342256-366312-418264-473848-496194-498550
2533.06-515184-507740-463132-414376-359406-286448
2535.95-197100-132278-97790-88000-49376 6490
2538.84 13478-13548-28534-71558-111034-138934
2541.74-179146-228682-264582-284872-305436-351920
2544.63-378826-382196-380342-388106-400710-405300
2547.52-416326-425136-413192-418870-402982-388940
2550.41-377732-344540-323772-331930-331372-343868
2553.31-348156-319786-286664-294612-273800-229950
2556.20-220526-214962-186772-176560-177572-180626
2559.09-171698-162330-141810-120666-117928-131556
2561.98-153412-196798-199852-177382-168272-143920
2564.88-78088-67126-95870-95662-91042-86950
2567.77-49524-10146 11412-13292-38458-25832
2570.66 20152 51532 56106 43220 22598 16964
2573.56 61770 103452 114972 126918 156184 147106
2576.45 115578 117924 187310 234810 229746 224482
2579.34 220988 220810 258676 315802 362154 374898
2582.23 377026 377074 388490 407800 445234 438174
2585.13 414374 454728 516620 538236 559482 604896
2588.02 629474 614932 613332 625100 646454 682600
2590.91 725856 733548 694312 647174 647874 637894
2593.80 601572 633674 759150 806780 756020 731124
2596.70 786450 828272 825434 832274 860754 846678
2599.59 814578 827702 889080 961514 987680 968626
2602.48 962848 951830 962674 976738 1010624 1060952
2605.37 1061532 1059316 1110666 1169030 1258752 1416592
2608.27 1599686 1718700 1781628 1799592 1769448 1741880
2611.16 1745090 1678338 1505302 1260472 957502 670792
2614.05 521976 493672 534230 636890 808000 1127224
2616.95 1630832 1970580 2091206 2177574 2202720 2127286
2619.84 1866736 1553980 1396606 1334898 1288154 1224104
2622.73 1192552 1187548 1178284 1145996 1119520 1104340
2625.62 1086230 1070122 1064390 1043814 1049706 1080234
2628.52 1115506 1164250 1246682 1302532 1331052 1361706
2631.41 1388530 1373272 1351686 1335922 1295718 1281086
2634.30 1317622 1312912 1298896 1290440 1255554 1207120
2637.19 1179798 1171884 1163654 1120494 1066204 1021108
2640.09 999016 937916 866162 834950 813810 784502
2642.98 746656 712196 699770 678934 661468 630956
2645.87 616324 600382 598980 568990 498998 463096
2648.77 459782 450370 414478 360730 366736 364960
2651.66 329700 288048 255160 226882 206056 197866
2654.55 196368 159882 128414 146758 188490 180964
2657.44 134230 87080 72914 58682 45090 24688
2660.34-8928-27056-2982-2878-28778-45940
2663.23-59198-87178-86710-60208-45696-64238
2666.12-86116-122254-145656-141470-107494-92330
2669.01-111578-119326-90750-79312-82966-99678
2671.91-108100-106664-98576-125516-162696-155670
2674.80-121818-118962-127114-140438-149946-167070
2677.69-166590-150438-144752-161988-153102-144482
2680.59-175406-204650-193868-192578-180584-166234
2683.48-158194-156594-139840-130114-132842-139448
2686.37-148584-160946-160824-164832-159982-152552
2689.26-134300-133090-148072-147742-126532-126994
2692.16-125754-115888-123896-147056-149064-150336
2695.05-155714-167654-143276-125534-129164-133788
2697.94-131492-128986-118534-122232-133834-147804
2700.83-130024-99758-68694-60400-74714-81006
2703.73-48228-29868-30326-38440-20718 10698
2706.62 44980 57772 70452 73240 63154 56064
2709.51 64036 49022 33102 27662 40732 57850
2712.41 57450 35798 43310 61172 68936 61514
2715.30 70300 87436 114868 120214 100170 78082
2718.19 93960 130546 182150 200228 178052 147456
2721.08 137880 133510 136488 116538 128992 150288
2723.98 134362 124812 156674 184076 208486 227510
2726.87 232896 226342 218370 217842 232122 227908
2729.76 208602 203862 241688 253222 226402 196030
2732.65 205188 252162 309840 307324 274668 268050
2735.55 295448 296568 292144 314082 347168 418422
2738.44 856894 1605050 1584388 800004 362970 292832
2741.33 327910 373764 364174 340896 359658 384020
2744.23 412836 415902 391468 376638 395778 382718
2747.12 368248 377618 395312 389436 380546 376422
2750.01 418544 467080 485272 486620 523576 585476
2752.90 653132 671846 666284 695342 753772 745348
2755.80 685270 591902 539236 546242 550606 533006
2758.69 545232 552692 570970 569396 523210 455690
2761.58 413400 399330 425188 422592 407834 436962
2764.47 501882 559450 578028 539646 523056 502826
2767.37 478322 465662 477870 492900 497156 471484
2770.26 456198 453546 444878 395490 372572 389620
2773.15 378200 325680 307298 274698 212512 200236
2776.05 273134 291386 247858 194668 164670 163194
2778.94 194914 194458 158728 130656 133008 141058
2781.83 162152 172948 174490 160064 161782 150856
2784.72 137496 139856 151556 142576 152938 159750
2787.62 146050 112646 95816 90592 92928 60736
2790.51 32854 34886 51200 45494 59318 59764
2793.40 15130-20970-5658-11696-12626 27946
2796.29 78144 66676 34264 8690-4360-5366
2799.19 22918 15016-10708-23260-36622-92354
2802.08-123074-109030-78056-77956-77540-78126
2804.97-65932-48094-7976 760-34018-68312
2807.87-75998-99712-109066-105306-75818-73534
2810.76-93232-124164-144882-155552-143440-139786
2813.65-133804-120602-98942-113824-128192-138260
2816.54-139268-123714-70056-69502-110166-128724
2819.44-104666-97068-112752-124660-113100-125290
2822.33-119682-121340-130532-138060-111798-95822
2825.22-96216-103172-115936-150422-130542-97756
2828.11-92778-79346-55926-92170-118514-139560
2831.01-152520-169058-162600-134304-103496-100486
2833.90-88698-99248-116892-109884-72088-55202
2836.79-53462-93624-122540-115142-74920-46718
2839.69-28032-21328-12016-31056-43912-39440
2842.58-4180 6318 488-4530-15930-51498
2845.47-31358 17336 45968 60768 111872 128618
2848.36 126798 114598 116536 149326 170146 169516
2851.26 206084 184746 151692 156956 199484 225690
2854.15 231606 210160 181602 167554 187226 194646
2857.04 218922 251374 311970 341490 340282 347744
2859.93 393416 415048 418762 437190 496102 515632
2862.83 521244 549652 606034 654846 705198 731256
2865.72 771562 812930 823480 814858 885218 956976
2868.61 1013780 1075060 1142668 1168996 1222402 1303068
2871.51 1390742 1451956 1543774 1636240 1701050 1795956
2874.40 1906804 1965100 2127916 2344962 2451068 2512750
2877.29 2719516 2907932 3026058 3223184 3448614 3546502
2880.18 3731976 4065558 4348582 4545396 4837744 5161728
2883.08 5392952 5657734 6120428 6597630 6932960 7341806
2885.97 7848472 8203744 8698064 9346600 9851280 10322930
2888.86 10938010 11408040 11926120 12791500 13510270 13951670
2891.75 14690430 15530090 16177960 16910760 17838840 18693640
2894.65 19344730 20090460 21226620 22313370 23118320 23867340
2897.54 24639970 25386680 26312290 27643650 28597950 28919120
2900.43 29669240 30548320 31231260 32613690 33771520 33867210
2903.32 34119680 34686260 35536220 36767120 37360420 37482750
2906.22 37876040 37795740 38362730 39930100 39986890 39281100
2909.11 39773040 39885750 40066920 41031210 40879800 40259240
2912.00 40161040 40116900 40827880 41304490 40879450 40694510
2914.90 40400970 40471550 41446430 41886090 41604120 41265930
2917.79 41417900 42162650 42229390 41360530 40104610 38531620
2920.68 37163100 35939700 34899460 33714880 31784280 30265910
2923.57 30309990 30941060 30998080 30602620 30676520 31179770
2926.47 31980790 34601880 36583820 34266060 33277110 43160160
2929.36 88636920 193787000 250396700 164404300 65998760 35822020
2932.25 31068740 30213540 30898670 32473550 34149540 35395700
2935.14 36611570 37430020 37968140 38865450 39632260 39718590
2938.04 40188000 40797000 41770370 42944640 43632470 44340810
2940.93 44848710 45401120 47051820 48291020 48810570 49435560
2943.82 50189980 51221620 52211940 53288880 54185840 53788900
2946.72 54039260 55651030 56102020 56208200 56668640 56546460
2949.61 56591110 57439370 57908980 57213940 56462880 56704040
2952.50 57122360 57006650 56590520 55733240 55207020 54813040
2955.39 55235340 55405580 53735390 52851910 52975240 52286810
2958.29 52888050 52839400 51357250 51673860 51909080 52045440
2961.18 53810400 54263930 53608610 53389220 53172700 53570090
2964.07 52961060 51682250 51034720 49369040 48016790 46039900
2966.96 42849840 40879030 39126650 37781360 38765640 40277540
2969.86 42911710 47103100 50652720 53370400 55249100 56065500
2972.75 57039490 57947530 58355980 58766500 59602680 59689550
2975.64 59054300 59238510 59890670 60651510 62347460 63389060
2978.54 63826180 64333260 64455220 65886920 68663630 69094340
2981.43 68965950 70563170 71023860 71425760 74105670 74990660
2984.32 74211970 74990730 75970650 77042200 78244220 77826820
2987.21 77812570 77767300 77362180 78854230 79765370 78573580
2990.11 78075570 77852190 77712370 77809400 77630840 77008660
2993.00 75265110 73720700 74313760 74591260 73862620 73127740
2995.89 72271860 71857360 72443380 74023160 76939400 79060660
2998.78 79288320 76816980 72765540 70120890 68009360 64876000
3001.68 62263160 61014530 60911370 60248380 61016750 72133260
3004.57 112304600 220206800 362860500 353325100 192771300 89999090
3007.46 69453790 64872410 62182330 63521070 69604540 75155100
3010.36 77554080 82932220 90521550 92794970 92319150 94352630
3013.25 94846980 92525780 91962960 93084010 90821580 87826390
3016.14 87583230 84712000 80625860 83480680 87961330 90674720
3019.03 99126580 110806000 115709500 117633000 123817300 128992000
3021.93 129172900 130354100 132516100 131850700 130408000 128918000
3024.82 128825900 132059500 132376400 128730400 129342200 134111400
3027.71 132410900 128028800 135665700 139410300 128223500 128913200
3030.60 138832800 134303200 131084800 138691600 135052100 125322000
3033.50 131976000 139253500 129919900 127402600 135981700 128457700
3036.39 119820000 130036100 131626600 119627100 122232700 128476400
3039.28 117039100 112144000 121474800 117635900 109711500 114504500
3042.18 111125900 102330500 108701200 110325400 97772780 96681990
3045.07 101217400 89875660 83002580 91217800 89010480 78279810
3047.96 79597710 79174090 69813860 69714220 73172970 66341240
3050.85 62737310 64111500 57928080 53223980 55874830 52722610
3053.75 47168590 48159680 45756840 39979540 42194290 44221620
3056.64 39333590 38724760 42473540 41236910 43489520 54350110
3059.53 62633300 68955940 81008580 85428600 77342420 66109370
3062.42 61101450 70443200 106185900 210198100 537479600 1232806000
3065.32 1639345000 1066933000 327934600 83597740 49842610 40062930
3068.21 36614640 35071730 31416980 29061740 30772120 31343190
3071.10 29949940 31348450 31006550 28339040 30376200 32613870
3074.00 28789890 29266790 34288440 33849580 34284060 39716090
3076.89 38983360 37076760 42415790 45506330 44897900 49689710
3079.78 51847080 48694810 52757290 58696060 57020280 59916340
3082.67 64558010 60031080 59936750 68055910 67979820 66228010
3085.57 72757750 72268560 64811340 71966160 78698290 70827740
3088.46 74412620 80016010 70312520 72227660 82273080 76538240
3091.35 74067260 80999700 75844420 71292820 78754370 78669980
3094.24 73610430 77014510 75797500 69937210 73750190 75983640
3097.14 70604200 71477900 72047430 65754060 66769790 70542740
3100.03 65343130 63842310 65711650 60033190 58462220 62467300
3102.92 59419000 55943280 55784170 54161170 51041720 51139240
3105.82 52362200 47915040 45423510 46374560 43292800 41850890
3108.71 42939820 40477550 37591140 36881840 36135940 34827960
3111.60 33798090 33575820 32069890 29414620 28331770 27453620
3114.49 25614600 25002620 24323660 22652920 22118350 21856060
3117.39 20478920 19487430 18679540 17212250 16595210 16351450
3120.28 14934660 14278030 13956150 12593240 12074090 12011350
3123.17 10918440 10405920 10323350 9512242 9127102 9173032
3126.06 8459680 7882644 7538948 6848042 6389038 6254344
3128.96 5802892 5408732 5219758 4958110 4698918 4558232
3131.85 4272538 3988006 3866138 3655510 3405122 3391042
3134.74 3177752 2949124 2796224 2568732 2468288 2445116
3137.64 2249578 2149924 2064788 1908460 1822402 1836564
3140.53 1761896 1637946 1482068 1366346 1266378 1232872
3143.42 1191744 1150776 1073220 998788 901706 853508
3146.31 825148 827888 783236 728500 651162 625016
3149.21 610994 585942 528662 524698 537030 550124
3152.10 474070 398668 361840 386030 383412 332206
3154.99 238186 203952 188546 202366 185792 189222
3157.88 193090 198274 177696 155248 122214 133098
3160.78 114842 102410 87732 107274 80710 22688
3163.67-11778 41522 68620 54464 14578 15446
3166.56 5402 8860 9310 574-23798 7498
3169.46 51094 112548 85608 10244-47062-26962
3172.35 26850 132826 168180 138894 92458 55972
3175.24 25950 41620 45128 46322-13340-65530
3178.13-88182-96564-120334-92766-65844-53034
3181.03-84262-103068-85322-26660-26176-42300
3183.92-78388-112518-144212-126296-80216-38942
3186.81-61158-70712-96996-105682-86850-58870
3189.70-57190-38724-28256 2440-5276-31630
3192.60-41976-38936-81844-81652-56960-22930
3195.49 686-17550-102436-123956-106028-93880
3198.38-101032-71620-30590-5448-20208-3822
3201.27-32312-104358-161606-176178-157516-80830
3204.17-71178-103998-124918-130546-178332-191546
3207.06-157762-94108-62258-70368-113140-112022
3209.95-134650-180696-190638-137006-109434-106836
3212.85-116734-124360-156420-146162-129192-131148
3215.74-166794-162878-121662-102388-128682-137280
3218.63-156104-111802-33744 19468 18440-51926
3221.52-182500-193548-157708-178122-205142-176550
3224.42-148460-157560-203358-180778-161724-180362
3227.31-203374-193934-158194-117988-126628-148304
3230.20-176508-177670-194266-212382-207764-146838
3233.09-104418-101598-132288-151322-168346-175538
3235.99-183996-135306-118064-153504-196284-200822
3238.88-202382-202850-212224-200666-205096-210244
3241.77-197876-135402-96406-94024-112412-135182
3244.67-188658-205462-168782-115884-130868-151572
3247.56-148922-142138-140508-147608-191180-208360
3250.45-236236-239294-208164-194438-195048-162064
3253.34-170090-206118-219780-157784-78932-47224
3256.24-103492-163102-204580-217030-250146-290850
3259.13-295708-226466-159952-157146-213302-206684
3262.02-155950-171690-228112-205596-149736-130182
3264.91-182848-195790-189764-214816-253896-271638
3267.81-284268-290824-304100-270182-224662-221012
3270.70-250482-237532-214396-215816-221698-208710
3273.59-221902-178584-131296-148884-190474-196162
3276.49-171710-126708-148350-197608-209000-213228
3279.38-283060-354256-406896-420460-429654-413396
3282.27-370878-362970-387494-350800-318670-317254
3285.16-322162-295704-272182-252470-244406-233800
3288.06-247094-266574-260776-238042-266622-294276
3290.95-293624-263710-287458-347434-369362-325610
3293.84-288852-278376-288220-262676-234948-245478
3296.73-296410-341050-350550-278316-214450-245052
3299.63-294456-283044-307268-329942-290300-209944
3302.52-155642-143394-198212-223330-191878-150694
3305.41-168434-199970-190698-185264-242818-274900
3308.31-282506-276768-234118-207802-226904-210632
3311.20-221752-239220-221300-195646-213264-222304
3314.09-225264-222620-201874-187578-232828-280600
3316.98-255286-186770-202326-229942-228888-238918
3319.88-241146-214466-214982-212680-212656-218128
3322.77-234556-197484-134158-114754-138556-149062
3325.66-138140-140042-171160-187358-220612-244290
3328.55-248482-206654-185862-226056-262180-197928
3331.45-124792-109748-137452-146384-154398-153564
3334.34-156544-197370-251920-258264-226970-163196
3337.23-137766-149154-161162-152816-226060-286330
3340.13-230722-168686-167538-189630-225642-212172
3343.02-178818-150926-175444-246522-286714-238470
3345.91-180916-165816-178404-154772-140544-138786
3348.80-156360-163470-170892-196572-194442-142686
3351.70-143696-177658-205502-209564-193120-177362
3354.59-168138-129982-128850-170146-194814-153466
3357.48-119396-124570-166508-174608-127390-91754
3360.37-115076-131484-163736-192620-180468-152630
3363.27-168290-186178-202800-228866-193986-107822
3366.16-103496-175272-230618-214158-176378-119728
3369.05-105436-162358-232362-225042-173172-150884
3371.95-192806-220066-196652-139050-106402-131534
3374.84-180344-192496-202220-189506-158856-131706
3377.73-165356-226756-250594-220940-203218-198180
3380.62-207208-207966-212964-211858-230594-221114
3383.52-191520-137592-91474-118602-169348-186976
3386.41-195098-170304-191844-252434-269984-220084
3389.30-198440-220550-193650-112822-67508-56924
3392.19-86060-108594-152546-228068-253678-214064
3395.09-224090-236684-223106-226652-235494-197128
3397.98-177582-189728-194208-174370-146234-118022
3400.87-116404-147908-219588-278346-283908-230912
3403.77-203104-205830-179092-128342-117518-121196
3406.66-121866-150624-223280-219856-144510-106676
3409.55-99206-104598-146700-136550-114732-139876
3412.44-146736-124636-129116-105686-78210-85356
3415.34-137466-191098-196204-151752-118664-76652
3418.23-80622-117748-150666-168908-125860-77582
3421.12-87200-101472-115386-106170-125530-174432
3424.01-234432-259580-216338-178264-210208-210888
3426.91-158746-164146-196600-173554-178626-141076
3429.80-68204-75924-120996-126990-141516-152474
3432.69-176012-175224-168144-207668-240658-189344
3435.59-118082-91468-122976-157790-179358-197966
3438.48-224776-199278-132524-111296-132782-115464
3441.37-111518-141938-184168-213352-236558-228466
3444.26-186976-118496-90612-117068-141438-139128
3447.16-168074-189784-146956-88932-137584-196806
3450.05-165206-123650-112530-98602-113470-143254
3452.94-161670-146100-144300-131420-88654-78090
3455.83-147098-192446-144966-89372-116596-154178
3458.73-170346-181374-195506-182856-165736-173496
3461.62-198422-201608-213080-227616-241934-238952
3464.51-215178-173246-140584-110250-70514-35172
3467.40-62698-140204-185834-163314-127432-111082
3470.30-122312-117678-108314-96398-86970-57798
3473.19-38630-90650-153256-176398-228992-244492
3476.08-202830-174178-203144-226572-221854-184926
3478.98-155500-179980-207080-182634-161716-153050
3481.87-151784-187730-239148-200314-141336-123422
3484.76-83492-49110-70548-105160-163744-191598
3487.65-188944-221704-249206-192496-158902-201992
3490.55-210518-155006-132784-148388-173962-190400
3493.44-207904-217408-207162-190406-180006-161082
3496.33-205542-221418-174400-170650-192294-157794
3499.22-148372-170664-165932-129414-51018-6480
3502.12-96478-192720-196334-178304-187046-180132
3505.01-167242-158008-173000-172428-140760-138290
3507.90-164770-147528-149094-192732-202416-157384
3510.80-163754-200768-200650-170786-170092-173274
3513.69-184922-214532-210842-175774-158096-133872
3516.58-132670-163878-196270-183308-165590-167014
3519.47-142092-104440-117298-146246-161946-135558
3522.37-131942-152588-147066-133766-169998-219004
3525.26-254082-264278-257024-251106-233774-194234
3528.15-191894-221698-247938-249440-230516-206464
3531.04-193522-163320-147582-164748-181970-165370
3533.94-157782-193350-225986-194340-145346-103660
3536.83-102940-113096-98256-124506-194504-218306
3539.72-218618-215734-201318-172502-166514-151110
3542.62-153994-170524-157874-152148-187246-214150
3545.51-196736-140692-130702-191386-223482-185976
3548.40-171624-176492-163386-156764-185746-205636
3551.29-213240-233486-262950-255370-214182-183438
3554.19-175036-176160-199950-186234-173886-196172
3557.08-225114-229888-232142-243124-227438-161938
3559.97-132926-157162-180910-185074-210932-241632
3562.86-226036-201370-226436-223312-209400-193496
3565.76-138924-132266-184162-201548-203312-197178
3568.65-241594-272146-229142-219920-252412-217804
3571.54-143954-134018-226068-319256-328650-273554
3574.44-204934-142034-148126-169158-161974-161936
3577.33-190494-225462-231218-177590-142406-168006
3580.22-183578-171602-191536-205684-194754-162570
3583.11-145886-161280-184076-187272-197342-224596
3586.01-213610-150500-117542-130482-172384-179758
3588.90-152112-157240-212392-291672-327884-272732
3591.79-219702-190180-165390-151330-172000-190072
3594.68-140444-74936-86026-135582-191764-239256
3597.58-247690-247014-282892-271228-216200-155486
3600.47-142906-166376-173348-160656-153450-170724
3603.36-197478-214042-230810-210224-174088-181384
3606.26-221796-218538-187408-151374-134080-137460
3609.15-143886-119240-126702-189482-212194-155054
3612.04-131876-141018-128892-156010-191204-169014
3614.93-153476-129222-129494-175770-194808-172674
3617.83-167224-159528-133632-125260-133548-117542
3620.72-105240-90082-83092-122074-206502-250436
3623.61-203010-121414-112256-131316-133112-102646
3626.50-95428-139996-143388-100818-94844-76588
3629.40-93434-164184-190028-168024-154848-166500
3632.29-201490-189806-146878-124466-127088-93848
3635.18-54826-67446-115476-134652-119450-102656
3638.08-107160-132186-192642-229714-214572-179486
3640.97-133576-118718-171628-173016-126900-135052
3643.86-173726-184206-166354-172390-212640-195198
3646.75-148444-130672-151740-131014-73608-79154
3649.65-113490-101176-95820-138780-168770-144028
3652.54-114850-132180-175604-174996-184774-198302
3655.43-164242-126674-138586-163820-176528-182850
3658.32-202052-226782-248090-217486-153714-122074
3661.22-135388-154192-170338-166382-166576-170788
3664.11-169994-163214-172234-167854-115294-66652
3667.00-87534-129892-132804-105786-96072-63054
3669.90-714 19490-18074-54378-117776-181354
3672.79-174528-144790-120624-57776-10266 3380
3675.68-17698-64368-89030-66316-29990-1098
3678.57-16048-37026-35428-44500-50502-29024
3681.47 6934 30410-8588-32714 734 49674
3684.36 68314 58324 51852 87980 139574 142858
3687.25 100470 101054 137196 174782 191026 178950
3690.14 157254 147188 121922 130996 161440 159984
3693.04 158648 179538 209794 203450 145192 143766
3695.93 196628 216272 197940 195620 184116 181894
3698.82 215270 237820 236282 254116 269724 266736
3701.72 272680 292380 278458 272478 306870 368928
3704.61 378536 319228 279914 282490 303604 348612
3707.50 375912 379388 353976 311250 332046 388718
3710.39 373680 379448 475404 542116 488134 452478
3713.29 480550 499334 503764 555890 606934 591660
3716.18 554256 541096 527630 550386 646006 727262
3719.07 707770 717056 772360 803646 875962 1005450
3721.96 1099552 1153224 1348396 1885822 2828852 3447042
3724.86 2633212 1338176 786162 669288 694522 776836
3727.75 805784 834458 869322 862472 813196 768120
3730.64 792472 876306 917140 922494 932886 913780
3733.54 901398 932688 892620 797484 789232 860828
3736.43 887504 865632 853304 865636 895310 970008
3739.32 1126984 1303516 1432592 1625828 1913068 2058422
3742.21 1855580 1493846 1215186 1077152 1068178 1109428
3745.11 1105752 1060352 1045878 1101766 1117436 1068216
3748.00 1053200 1124808 1195988 1211142 1248368 1375610
3750.89 1546958 1705700 1729114 1619914 1510398 1440742
3753.78 1370578 1301410 1301212 1334024 1326962 1369902
3756.68 1422782 1408668 1398886 1426730 1449792 1463152
3759.57 1531808 1637980 1707082 1752356 1768370 1809088
3762.46 1887010 1909796 1868112 1827882 1749976 1692806
3765.35 1754034 1890640 2050870 2287864 2580550 2737302
3768.25 2704046 2594032 2450198 2270704 2100510 2101204
3771.14 2085442 1905880 1798328 1762660 1619406 1435276
3774.03 1365482 1404398 1430554 1431610 1426132 1403014
3776.93 1416904 1465194 1421076 1309190 1294814 1381544
3779.82 1462036 1575194 1751518 1927898 2059870 2180690
3782.71 2269002 2155134 1808146 1558908 1524608 1511882
3785.60 1509448 1643038 1764388 1721366 1648916 1708656
3788.50 1779972 1738998 1767712 1877708 1814918 1711646
3791.39 1841870 1993722 1890890 1810498 1904992 1896476
3794.28 1825980 1943588 2090876 2067984 2042998 2135922
3797.17 2145254 2143616 2263014 2274104 2176714 2245590
3800.07 2325278 2337644 2471532 2576198 2544662 2488586
3802.96 2470826 2536042 2623482 2681226 2739554 2746978
3805.85 2685442 2612226 2558382 2536418 2621090 2740570
3808.75 2749142 2835912 2994008 3068324 3231018 3356262
3811.64 3211710 3186826 3459972 3999938 4876756 6004284
3814.53 7191692 8196076 8227640 6349708 3847136 2666296
3817.42 2425098 2385086 2492998 2631432 2726326 2735456
3820.32 2625820 2570718 2591178 2597704 2536648 2398586
3823.21 2310814 2380318 2578008 2802972 3064210 3448452
3826.10 3759318 3844856 4105818 4837256 5495820 5768296
3828.99 5971930 6107968 5725870 4664000 3503604 2837184
3831.89 2610006 2696100 2929452 3158564 3441962 3745372
3834.78 3924026 3983160 3926846 3825118 3834506 3813948
3837.67 3668756 3576868 3592630 3648698 3690204 3722338
3840.57 3804432 3931326 3995502 4017896 4126292 4340702
3843.46 4454038 4480080 4552980 4655898 4798332 4905042
3846.35 4913802 4985308 5040660 4989642 4924218 4806882
3849.24 4689262 4620318 4555624 4494366 4493098 4489950
3852.14 4343542 4250768 4303280 4334894 4233126 4073242
3855.03 3970668 3876454 3772062 3732540 3733384 3760020
3857.92 3752602 3752028 3840198 3850570 3835208 3895936
3860.81 3909760 3985208 4127830 4252306 4418224 4496126
3863.71 4405162 4292020 4049768 3653674 3435694 3435638
3866.60 3383912 3276082 3375716 3871912 4637840 5404566
3869.49 6004574 6399108 6664104 6818346 6790590 6473972
3872.39 5647050 4518808 3732382 3342622 3090792 2906838
3875.28 2706724 2482672 2253034 2073736 1916680 1688652
3878.17 1464034 1433018 1561364 1684478 1733970 1663286
3881.06 1579016 1699694 1817814 1719022 1608392 1531954
3883.96 1405072 1384332 1477946 1521962 1531228 1531230
3886.85 1499534 1498886 1564992 1657202 1674538 1637648
3889.74 1673116 1729500 1745536 1797478 1856948 1832952
3892.63 1802578 1889034 1970382 1987734 1940792 1870796
3895.53 1893318 1975760 2053644 1996488 1909246 1996440
3898.42 2074088 2060498 1994978 1868694 1811436 1872944
3901.31 1881040 1881520 1912106 1871250 1818998 1744776
3904.21 1713478 1763596 1779050 1730578 1639040 1622052
3907.10 1628308 1587268 1526728 1478944 1468800 1418986
3909.99 1328262 1322096 1310604 1265752 1220074 1109640
3912.88 1031090 1026270 996924 980876 956182 894130
3915.78 864416 878252 843836 767536 724360 687400
3918.67 642824 643978 635466 594332 548974 527130
3921.56 520090 525126 527292 508734 449552 405144
3924.45 378692 335338 306886 301744 286642 268888
3927.35 252354 244424 268280 386416 554894 676320
3930.24 712582 587096 356328 233012 251942 307344
3933.13 340828 365420 376038 359754 381004 502830
3936.03 589998 517152 331486 217818 228684 261106
3938.92 243046 218936 235380 237950 274202 553200
3941.81 980364 1159226 1057858 890208 700286 543192
3944.70 501600 543134 512192 389108 202884 30282
3947.60 18392 80190 53578 20374 40230 54768
3950.49 68060 51886-9908-29624 6070 81024
3953.38 246736 454348 565868 659898 715874 575876
3956.27 354406 236758 167872 76822-4810-28150
3959.17-29330-26680-12524 7066 36000 28068
3962.06-12874-18554 14496 36718 16176 1432
3964.95-13862-65106-114944-80658 13832 75542
3967.85 63692 28020-24770-84740-123824-104150
3970.74-13610 39250 11686-7342-22662-34786
3973.63-15272-1516-29262
##END=
