##TITLE=Ethylene Oxide
##JCAMP-DX=4.24
##DATA TYPE=INFRARED SPECTRUM
##CLASS=IUPAC A
##ORIGIN=NIST, Anayltical Chemistry Division, 301-975-3108
##OWNER=COPYRIGHT (C) 1998 by the U.S. Secretary of Commerce
##DATE=98/10/1
##$SPECTRA VERSION=1.00
##$UNCERTAINTY IN Y=2.1 % relative (B=1.1E-04,C=1.2E-09,D=2.7E-14)
##CAS NAME=1,2-Epoxyethane
##CAS REGISTRY NO=75-21-8
##MOLFORM=C2 H4 O
##MP=-111 C
##BP=13.5 C
##$NIST SOURCE=QUANT-IR
##SPECTROMETER/DATA SYSTEM=IFS66V (Bruker)
##INSTRUMENT PARAMETERS=KBr Beam splitter; MCT Detector; Multipass cell
##STATE=gas
##SAMPLE DESCRIPTION=Ethylene Oxide Primary Gas Standard
##PRESSURE=101.3 kPa
##TEMPERATURE=23 C
##SAMPLING PROCEDURE=1 L/min Flow
##RESOLUTION=0.9640
##DATA PROCESSING=Happ Genzel Apodization
##XUNITS=cm-1
##YUNITS=(micromol/mol)-1m-1 (base 10)
##XFACTOR=1.0
##YFACTOR=9.0949E-13
##DELTAX=0.4820
##FIRSTX=575.169
##LASTX=3975.077
##FIRSTY=-5.29E-07
##MAXX=3974.59
##MINX=575.17
##MAXY=.001747
##MINY=-8.71E-07
##NPOINTS=7053
##XYDATA=(X++(Y..Y))
575.17-582476-179810-13842-186862-9850 143164
577.58 137386-552886-958754-643814-505848-551642
580.47-198966 42776-454598-507896-179390-283258
583.37-196532-314288-526282-198194-183822-183032
586.26-396584-550960-376262-209572-181086-82284
589.15-114462-131268-181826-278384-18088 37088
592.04-168682-165350-115814 4744-223674-421888
594.94-500380-630824-474744 1246-29430-411412
597.83-577874-509460-516556-367568-322076-235772
600.72 20618 57214-91368-150118-76862-84046
603.61-341258-360752-157922-180954-432896-453818
606.51-502692-534464-403388-180716-257570-383680
609.40-263488-225706-242976-220448-188254-259702
612.29-298186-88012-47892-151018-214548-308638
615.18-320192-233894-212240-292964-382732-226168
618.08-188968-263436-104102-170214-278860-110302
620.97-124324-207602-149632-215562-271512-172332
623.86-221432-189642-185102-205388-263374-250424
626.76-127268-199648-319806-331520-207294-301996
629.65-403804-250596-167696-120968-223146-341460
632.54-325048-317186-236910-151948-163234-310368
635.43-381408-138472-52546-167378-249978-296010
638.33-292348-309844-217716-76096-82236-33990
641.22-81862-169110-229086-276188-311566-203636
644.11-196394-227972-254282-273708-366720-312542
647.00-244810-300462-280942-232390-234238-126208
649.90-101368-178334-243324-271206-280426-197182
652.79-203776-240048-293040-216114-87338-64140
655.68-232952-268098-192510-134738-228398-247058
658.58-145268-219350-293306-179068-141664-197840
661.47-232878-111350-15532-70756-141898-232396
664.36-245082-144542-221850-340876-314920-289562
667.25-301238-182950-141112-179012-146092-125848
670.15-183614-179216-212338-186378-191686-129110
673.04-127120-212686-196080-234496-173994-120396
675.93-226806-188324-96392-30704-69330-142654
678.82-172456-173982-204678-176222-105920-34044
681.72-5098-28734-65818-117834-177664-134812
684.61-116292-223978-300256-196712-156364-234888
687.50-163412-128626-163948-128860-151696-139596
690.40-77330-144076-232470-245206-152188-154760
693.29-241562-242430-236940-213112-215240-280314
696.18-232342-256586-195028-76388-166980-240826
699.07-184462-308738-291664-120000-131730-135310
701.97-154464-199264-159744-53568-102250-161024
704.86-278724-342284-344928-316216-250230-163728
707.75-119754-163368-248180-200924-198554-258246
710.64-259864-245530-192514-159574-130200-84124
713.54-155754-206710-236476-228532-228100-240380
716.43-298120-286490-187620-166322-197156-141684
719.32-145920-180462-103608-117482-118136-78714
722.22-144074-100058-149730-210462-188110-187520
725.11-247266-282304-283484-226420-129104-93160
728.00-170354-123108-146754-184830-128898-85678
730.89-107228-66544-35134-41338-29848-3686
733.79-68076-98650-79864-10520-27958-59044
736.68-60734-55086-85308-59250-46038-22172
739.57-5276 18838 22324 44888 37060 15474
742.46 46786 72508 88196 133726 85380 40782
745.36 49546 87554 88594 81068 118008 196742
748.25 218430 165468 136008 166472 179748 196192
751.14 157722 165998 204530 297024 329616 384034
754.04 333314 343170 320888 290808 330978 399630
756.93 469756 473786 429690 392740 398428 533140
759.82 532188 463048 448062 504342 547872 638104
762.71 701064 749750 787972 809606 812576 864874
765.61 841390 866154 995418 1094608 993982 976524
768.50 1031802 1144458 1207318 1353642 1361798 1299992
771.39 1349878 1431614 1475338 1663408 1769274 1813530
774.28 1848562 1856054 2048900 2364356 2214324 2238998
777.18 2546820 2441580 2554314 2983746 2898876 3107198
780.07 3281440 3088600 3616016 3946020 3539786 3957462
782.96 4159400 3985890 4683392 4819704 4559286 5218032
785.86 5284962 5460040 6078014 6103508 6257042 6639154
788.75 6688924 6999324 7685248 7774346 7786718 8240966
791.64 8331726 8627078 9271032 9321622 9800738 10747520
794.53 10354700 10434290 11515590 11085370 11861190 12765920
797.43 12029750 12748230 13141290 12718220 14109860 14719670
800.32 13783200 14811000 15331710 14751600 15975500 16355600
803.21 15248710 16320750 17142410 16670510 17809140 18242190
806.10 18406230 21795280 24831120 25816610 26461980 25753820
809.00 25048130 26207750 25788280 26126460 26722560 26395510
811.89 26142110 26749560 26907530 28495030 29546830 30051700
814.78 30686980 31187460 30397560 28856200 26673880 25282450
817.68 26297200 32521910 43754570 56684380 67300460 75796220
820.57 82784770 79551500 57055980 30907600 20012390 18082140
823.46 18166230 19481900 21374110 22647580 24626000 26780760
826.35 27502040 28993550 31149050 32420590 35882480 40179690
829.25 41467070 44256230 50387490 53335880 57804870 66206150
832.14 67418660 71425240 81244020 84976260 90610310 97501330
835.03 103262100 109415200 114192400 122342600 128822400 131003000
837.92 138511900 144321300 142973800 142674200 141512700 136702700
840.82 132298300 133546700 131924100 128979900 131423300 131073500
843.71 126525200 129178900 135566000 134659000 131656200 135943300
846.60 140633900 141386300 146656200 150274800 149027900 153764700
849.50 160748200 164084400 166354000 170234900 176930100 178678400
852.39 178867500 185971800 192380600 192814700 193629200 199115800
855.28 198196100 199163400 206606800 207036600 199761700 199075000
858.17 205533700 200073300 193251400 199409300 193911300 180970400
861.07 183741800 181727800 168589600 165758800 168721200 161781600
863.96 156926900 165208500 167562200 161767800 167876200 179283200
866.85 180983500 187247100 203124600 216001600 229405500 248914700
869.74 266320500 278635300 290662600 301587600 303187000 294708100
872.64 279355500 252220100 218104000 176783600 132466300 90568180
875.53 56973870 39109330 40918200 61547290 96803100 137204500
878.42 175716100 199506900 214259400 218896200 220997000 225732500
881.31 222646000 215433600 208490800 201558400 192283200 181063400
884.21 172809300 168935900 156547200 154396200 157397400 147946300
887.10 142386800 144163500 144798200 136730000 139077400 145667200
889.99 138262900 135989300 140420300 142672400 135762400 136295600
892.89 147372100 138517800 136980500 144150900 138090300 138541700
895.78 139929300 140703000 143764600 132892400 136201800 141783700
898.67 133442100 135335800 136794100 132656600 131627200 125475300
901.56 130825500 132462800 119197500 124668000 125184400 113046400
904.46 117998400 120520600 112371300 108857400 106460300 108723900
907.35 105549800 97071380 101520600 99490450 89564940 92949950
910.24 90577170 83300710 86248910 82897730 78826980 77481200
913.13 70499680 72826600 73091340 63248600 65118990 65767840
916.03 57393000 57472810 57031550 52706660 53081960 49403300
918.92 46846450 46409560 41407260 42763220 43212660 36060850
921.81 35609340 36737420 32452430 31869950 31261270 28391590
924.71 28115810 26280880 24289510 24779110 22408190 20391560
927.60 21536990 19068130 17227090 18915560 16682830 14507360
930.49 15209670 13622100 13043800 13088080 11316410 11381380
933.38 10620320 9078476 9961890 8991294 7613748 8236018
936.28 7413852 6608950 6766246 6125548 5685348 5344632
939.17 4845026 4818770 4565042 4056076 4021416 3819260
942.06 3224642 3119680 3146006 2698010 2645996 2592620
944.95 2210778 2161580 1979386 1759164 1890122 1634910
947.85 1480464 1453864 1156798 1212358 1251716 1058010
950.74 1086282 890322 704878 784886 718386 696988
953.63 637968 488542 522150 452682 342854 366768
956.53 331654 327996 322830 277198 293432 234034
959.42 181070 185268 131664 119744 128200 120960
962.31 151666 103238 36668 8338 10316 1568
965.20-31936-51476-58196-62390-17084 5406
968.10-63134-41718-20692-69524-90956-118438
970.99-153138-148958-130286-90980-55584-50960
973.88-76626-126024-131600-109296-104342-131482
976.77-111722-78858-73724-115902-122008-137670
979.67-140192-165774-161772-158310-165312-156636
982.56-179510-151532-130734-111106-110380-157502
985.45-158660-138194-142544-136186-152986-155738
988.35-194692-226228-193180-178880-169492-181316
991.24-170108-161956-157598-156266-182406-182728
994.13-157752-145028-179458-171012-144620-155198
997.02-162344-192486-213750-204246-202928-168968
999.92-134238-131710-154222-171936-174182-203842
1002.81-203906-174628-164300-174560-177218-143140
1005.70-144942-184618-221590-213362-185502-162964
1008.59-126198-100844-124346-171952-185400-132502
1011.49-105204-105874-109478-128930-175338-181906
1014.38-149096-128980-145552-137274-161186-183822
1017.27-151716-116062-132096-130244-173318-182830
1020.17-144258-147738-162606-135366-139516-158976
1023.06-165006-140248-114180-101260-108172-131480
1025.95-121928-103496-109620-99720-69976-25344
1028.84 131290 414454 386986 171038 41740-58996
1031.74-82268-84114-73872-57842-68040-55314
1034.63-60820-67650-50916-78050-84146-65588
1037.52-43176-34592-68066-66624-20098 22448
1040.41 54104 60262 19752-5276 68672 92124
1043.31 52218 40840 73928 108786 119402 100548
1046.20 64672 65228 83872 80122 134624 218002
1049.09 188630 163864 131428 123244 168640 185980
1051.99 182538 210496 193326 191734 200840 272884
1054.88 319572 319454 380016 405880 378954 277154
1057.77 293092 426140 343938 328816 387950 420086
1060.66 466740 477504 534260 523452 550930 650634
1063.56 601200 548252 553602 698898 864316 776320
1066.45 699224 720132 812924 850914 712478 786086
1069.34 867872 890520 891204 899562 1036318 1011316
1072.23 982540 1019326 963212 1081044 1055658 1111074
1075.13 1186514 1168402 1197224 1190978 1352118 1337464
1078.02 1294880 1365710 1297982 1527302 1499768 1399154
1080.91 1398006 1505852 1797480 1692172 1634668 1559534
1083.81 1712452 1868064 1693942 1796566 1799068 1977050
1086.70 1946108 1918150 2029672 1895374 2030284 1985708
1089.59 2056790 2039066 2085158 2250060 2021426 2160580
1092.48 2230726 2394368 2317190 2309826 2338658 2222910
1095.38 2525376 2573946 2494472 2423242 2731166 2734556
1098.27 2404950 2541418 2855958 2945202 2696254 2903446
1101.16 3054068 2900310 2906232 3334370 3365134 3152218
1104.05 3333010 3611224 3492768 3272716 3790276 4121172
1106.95 3866160 3820930 4260084 4371678 4068270 4207666
1109.84 4727260 4882570 4758722 4765166 5183410 5345602
1112.73 5126602 5319762 5894672 5984728 5621888 5835202
1115.63 6382132 6340476 5961116 6311582 6949768 6601666
1118.52 6232126 6641414 7094824 6888374 6562120 6895684
1121.41 7253172 6876100 6327482 6897416 7201692 6476870
1124.30 6675192 7576634 7529696 7811950 8421198 8008850
1127.20 7871630 8477686 8194044 8165828 8774040 8815408
1130.09 8928412 9879028 10203990 10041710 10552180 10662160
1132.98 10787230 11672570 11497520 10874700 11149710 10828920
1135.87 10178640 10174180 9244806 7535000 7131520 7130848
1138.77 6772752 7038470 7454814 9322870 15138720 22983280
1141.66 24711210 22165460 20716080 19213870 18269570 17920570
1144.55 16759730 14969650 13273840 10787660 7680560 5109932
1147.45 4085436 3958468 4397604 7203726 12704550 18332330
1150.34 20866340 18507380 15290210 13219670 12050060 11637760
1153.23 11722320 12030480 11845640 11049470 10488270 9574320
1156.12 8127730 7286986 6818258 5862608 5536944 5743922
1159.02 5457626 5143236 5443214 5824540 6088116 6502740
1161.91 7135242 7429670 7755858 8163174 8520342 8779904
1164.80 9373202 9843166 9656826 9500446 10087700 10084980
1167.69 9601896 9992752 10509430 10012590 9426856 9457836
1170.59 9899678 9248990 8774218 9381512 9151798 8297966
1173.48 8328408 8367774 8007868 7646062 8011500 8012574
1176.37 6930196 6946616 7555274 6671710 6273892 6954582
1179.26 6925726 6026196 5669296 6298290 6410090 5459286
1182.16 5410552 6154092 5674934 4855300 5122400 5524172
1185.05 5374448 4877458 4595116 5058898 5022258 4339608
1187.94 4322370 5101354 4723618 3774610 3936586 4702506
1190.84 4276984 3640618 3978850 4394070 3994440 3424676
1193.73 3553826 4041132 3842686 3226718 3230682 3684052
1196.62 3518554 3009308 3187634 3496304 3370462 2988854
1199.51 2843512 2959734 3067728 3021194 2866906 2841962
1202.41 2965178 2885134 2581564 2630374 2872488 2911964
1205.30 2670508 2570732 2651512 2765588 2650306 2649190
1208.19 2616402 2711090 2764304 2682936 2681094 2873446
1211.08 2985744 2855276 2757096 2983418 3167266 3094554
1213.98 3144404 3293482 3303768 3443754 3606546 3644136
1216.87 3691258 3964894 4169198 4192386 4338454 4782822
1219.76 4817722 4866158 5313784 5576156 5540556 5871586
1222.66 6388092 6555220 6557688 7049858 7502640 7821774
1225.55 8158602 8553394 8790680 9026770 9884666 10534370
1228.44 10547540 10818770 11690070 12224330 12179200 13044660
1231.33 13929690 14293540 14473290 15500190 15936020 15967860
1234.23 17325770 18615920 17939660 18380070 20136630 20701890
1237.12 20383120 21507860 22866350 22621050 23198900 24540440
1240.01 24768470 24551320 26514270 27276430 26442300 27111880
1242.90 28469540 28875160 28979290 29804350 30118040 30230100
1245.80 30286400 31717680 31933330 31720400 31692710 33060360
1248.69 32139230 32276570 33360520 33889260 32548710 32489760
1251.58 33482010 33477710 31964480 33406530 33409650 31113000
1254.48 31724360 33026270 31283050 30616560 32086670 32101540
1257.37 30792460 31525010 33322030 32877010 33396910 35857400
1260.26 36777780 36446410 38497890 40289200 41507510 43556420
1263.15 46130790 47668180 49257620 50390040 51950890 51166590
1266.05 49710250 47332880 42738700 37029880 29816300 21859320
1268.94 14627310 9338684 7792368 10157850 16455370 24842830
1271.83 34142940 42139280 48276920 52416790 53843580 54809620
1274.72 54227410 52502720 50614200 48558440 46468300 43305760
1277.62 40969760 39519520 37306700 35498780 35891700 35076830
1280.51 32972950 33094230 33689120 32354700 32205600 33778060
1283.40 33735480 32242600 33311530 34866190 33226110 33258990
1286.30 35737500 34880120 34216880 35568700 35332690 34489430
1289.19 35136000 36191420 35688660 34222000 34837620 35109930
1292.08 34206660 34037390 34150470 33492830 32319620 31917380
1294.97 32041590 31366970 30333420 30050830 29405470 27575660
1297.87 27488160 28021650 26056470 24524880 24770460 24097240
1300.76 22527370 22020810 21761460 20139890 19484150 19476530
1303.65 18048460 16521380 16907790 16624620 14799390 14083850
1306.54 13937270 13111370 12347970 11942820 11450850 10446550
1309.44 10036880 9715520 8965624 8379858 8310680 8011578
1312.33 7071698 6428550 6454522 6372264 5771852 5386908
1315.22 5174084 4634116 4449418 4427026 3979864 3528152
1318.12 3551398 3417798 2945404 2844636 2888262 2575472
1321.01 2362380 2310764 2144266 1871346 1841606 1755146
1323.90 1484402 1380320 1435692 1315780 1162068 1105286
1326.79 1063286 912846 857084 852958 779446 650174
1329.69 653082 638256 533080 457564 464596 416496
1332.58 355326 327690 323044 242196 239932 239266
1335.47 185450 123376 113684 117830 124782 78954
1338.36 46266 26254 23282 37346 35444-23996
1341.26-16598-18156-8358-16020-26062-57820
1344.15-20868-22446-33268-74038-94034-92582
1347.04-68920-55698-45130-75524-71850-126922
1349.94-137022-99866-121616-216604-195770-121698
1352.83-146446-188978-180696-171962-136878-117288
1355.72-133278-138030-134582-175972-161418-155364
1358.61-149130-157598-195690-178486-121616-164234
1361.51-169392-122266-89892-138212-150926-129174
1364.40-101360-79492-77492-132356-166788-187426
1367.29-141450-90902-105096-148466-125310-113454
1370.18-113380-104446-111738-146596-152886-148894
1373.08-140510-130200-104470-102796-93892-104280
1375.97-126094-140680-111402-97206-85814-122304
1378.86-97348-61088-63512-76252-69034-56766
1381.76-73216-92290-100190-101750-53584-72046
1384.65-106010-90390-72546-87474-97914-83134
1387.54-58626-63564-49942-49154-46356-51930
1390.43-76116-119070-81164-64458-73356-98876
1393.33-102786-79880-85158-89926-59770-82322
1396.22-83880-74690-66482-108804-144378-112396
1399.11-76740-50096-8600-29778-68668-106542
1402.00-102852-102382-97264-79150-83054-101578
1404.90-103106-93404-49990-97140-154530-157244
1407.79-130398-134774-123512-111372-105250-161936
1410.68-178610-144158-121720-160192-149314-139810
1413.58-139540-127830-99266-117128-130852-133270
1416.47-104884-109850-117940-128634-84968-45944
1419.36-68316-107598-93300-103220-90140-80838
1422.25-41622-47788-41880-35520-17376-27610
1425.15-8854 16436 32886 49668 59846 39036
1428.04 78038 108980 102604 135614 166464 160288
1430.93 182760 213240 264810 313268 342902 358536
1433.82 341428 379184 445654 459846 514122 565418
1436.72 601140 623560 648144 613930 640424 695844
1439.61 731156 771588 842504 866632 884772 908052
1442.50 974956 1022916 1028926 1031784 1059704 1064254
1445.40 1123612 1166148 1196854 1241608 1282888 1247958
1448.29 1286072 1320998 1268486 1240302 1271138 1291978
1451.18 1343014 1335256 1333746 1332050 1290834 1333880
1454.07 1377382 1291870 1308248 1358774 1339752 1334004
1456.97 1361882 1360974 1312252 1308768 1348422 1304838
1459.86 1267464 1323506 1315584 1303622 1401396 1445886
1462.75 1408116 1455302 1563760 1598256 1566614 1643826
1465.64 1733380 1700716 1745192 1846406 1840792 1860874
1468.54 2042750 2162138 2164780 2541540 5291568 8787558
1471.43 6188454 2853820 2326912 2307654 2322582 2416964
1474.32 2560736 2540774 2642698 2794788 2793138 2784058
1477.21 2923920 2939408 2821662 2830654 2982080 2910476
1480.11 2863426 3013836 2982338 2832168 3001042 3116798
1483.00 3026186 2911684 2784104 2642768 2681108 2859194
1485.89 3007642 2980744 3083970 3254952 3297916 3315620
1488.79 3527346 3685388 3778740 3969034 4197216 4258750
1491.68 4347844 4432816 4474242 4365506 4179606 3868160
1494.57 3470260 2921814 2386200 1753698 1149252 758666
1497.46 671216 962964 1650060 2471398 3330402 3867772
1500.36 4122466 4189634 4286752 4352278 4312640 4095186
1503.25 3858800 3678814 3499380 3241948 3160664 3028096
1506.14 2888850 2809656 2838178 2687412 2565328 2607900
1509.03 2680454 2572470 2629074 2727768 2678310 2565216
1511.93 2778364 2842008 2726282 2807738 2982620 2863672
1514.82 2883534 2904334 2933432 2919462 3020116 3083988
1517.71 3001962 2879932 2989120 3007678 3019476 2965144
1520.61 3047506 3033014 2838608 2781534 2922910 2808530
1523.50 2599920 2653548 2625612 2468852 2539856 2525226
1526.39 2284750 2236568 2325046 2197842 2011176 2060432
1529.28 2044052 1947482 1857470 1745296 1640656 1643256
1532.18 1575424 1506680 1464206 1347644 1308588 1283288
1535.07 1145174 1107264 1142256 1049034 921070 934988
1537.96 929996 885136 848214 823510 739086 649322
1540.85 672112 609896 534216 477426 471230 442226
1543.75 411608 397486 394260 319552 299280 297904
1546.64 250166 177086 196782 187402 157100 184694
1549.53 216006 133440 70672 103972 140608 128356
1552.43 122904 105712 87290 104496 98050 52318
1555.32 61168 63320 43124 64728 112856 161068
1558.21 193776 116356 135214 183896 153998 113466
1561.10 84140 41234 82112 89134 104356 107030
1564.00 104864 101174 135410 128488 134992 147148
1566.89 177442 214650 202538 155806 208894 304804
1569.78 296230 220012 244904 254944 291344 290330
1572.67 343902 340346 303722 333164 432276 455318
1575.57 488594 538136 586208 469946 411194 519634
1578.46 655210 587202 512842 626482 727984 602100
1581.35 638236 773282 785170 723658 846046 848664
1584.25 669802 755626 1134336 1044628 728230 856778
1587.14 1315516 1248974 855664 893582 1294708 1453296
1590.03 1073158 961944 1385494 1616216 1248436 1133416
1592.92 1485982 1756994 1330026 1275474 1665910 1925244
1595.82 1538196 1317474 1688990 2234126 1835288 1403980
1598.71 1791940 2369894 2057208 1627300 1808352 2405600
1601.60 2439360 1864542 1882010 2430014 2592074 2152972
1604.49 2067034 2464566 2692882 2375512 2354140 2686806
1607.39 2791490 2500726 2579236 2870486 2931728 2647822
1610.28 2767470 2988478 2928608 2907210 3031810 3156706
1613.17 2963146 2967460 3185156 3366570 3183278 3247032
1616.07 3539914 3526292 3337174 3484166 3547332 3454382
1618.96 3407226 3343730 3225514 3467244 3549166 3081788
1621.85 3063312 3335710 3120948 3363046 3789196 3882716
1624.74 4827148 5777994 5700392 5172254 4434144 3584796
1627.64 3413844 3606534 3410836 3241298 3233994 3380058
1630.53 3541398 3600796 3649000 3679810 3639662 3907946
1633.42 4557878 4950088 5257916 5390670 5274660 4984682
1636.31 5139386 5165050 4724128 4133942 3675908 3465224
1639.21 3967138 5300684 7199120 9766680 12870980 14456970
1642.10 14182050 12490510 9525460 6969556 5549386 4834958
1644.99 5051080 5803258 7246832 8365454 7481472 7166302
1647.89 6905664 6381510 6078308 5828600 5567826 5064622
1650.78 5254912 4918252 4748592 4723138 4501074 4241292
1653.67 4130408 4043438 3653406 3766498 3679766 3339932
1656.56 3402678 3200060 3168188 3217260 2993752 2850720
1659.46 2890640 2722200 2595386 2625166 2667630 2494282
1662.35 2460714 2361810 2122268 2353216 2277918 1971402
1665.24 1976324 1927288 1809280 1848208 1887424 1586640
1668.13 1631794 1630814 1463788 1432396 1466770 1220290
1671.03 1191924 1300010 1130528 880608 972250 908088
1673.92 763924 812512 783408 655506 664456 574106
1676.81 441350 416534 406542 313206 319896 292922
1679.71 213354 207804 175246 73906 88980 49598
1682.60-25260-64054-47354 60728 268172 265424
1685.49 120168 8978-70994-107204-62240-121846
1688.38-162888-190860-160550-130408-132258-179114
1691.28-184310-147442-136774-167534-137972-74558
1694.17-20702 12134 138688 149186 87280 129646
1697.06 211716 216342 213922 214488 288602 327520
1699.95 306754 300986 272638 270318 304588 273128
1702.85 277452 304224 332608 337770 352096 377906
1705.74 408036 425262 498978 528050 530722 549598
1708.63 590304 607590 664444 677018 742426 788362
1711.53 806344 776148 776992 828254 848150 839326
1714.42 926818 921020 838462 806372 818244 844766
1717.31 819300 785264 781942 696892 654876 610186
1720.20 551246 536284 548612 500848 467108 447310
1723.10 460032 415172 371530 330284 289156 265794
1725.99 274584 234390 212366 242942 255276 189454
1728.88 188728 203392 192054 204632 290586 264930
1731.77 234914 299966 379436 310088 323162 392294
1734.67 332016 312244 365282 322408 284190 310438
1737.56 316506 246862 229586 250158 240652 197550
1740.45 198828 186456 173226 171586 210228 214214
1743.34 307238 487578 756954 1058198 1249826 1190152
1746.24 1104576 1000290 879604 709966 532870 357234
1749.13 220396 97740 37188 39044 108226 189696
1752.02 347984 445260 462560 426900 425436 390558
1754.92 424472 444410 439064 404718 416382 399242
1757.81 383056 366388 362116 302086 315384 283986
1760.70 280406 271680 278590 278246 223776 190314
1763.59 266162 235550 182290 206454 242136 220480
1766.49 225370 228010 311274 326124 241698 231932
1769.38 256184 204306 298564 354244 241926 254312
1772.27 354972 214508 207190 248746 127376 160486
1775.16 282472 133198 137564 238674 141036 119662
1778.06 183156 57320 69176 177116 78118 24716
1780.95 120270 75596 24276 24572 24834 20940
1783.84 23836 24300 74044 14566-41746-17524
1786.74-6936-60086-62934-82704-58714-72306
1789.63-61980-38632-41112-97730-78820-33870
1792.52-66048-97662-100548-116402-84534-101036
1795.41-98066-130930-132850-103748-79548-83518
1798.31-74072-103950-104022-103760-100230-138152
1801.20-115066-75452-28158-18760-29546-70794
1804.09-108712-76130-430-17990-47416-67142
1806.98-38564-25468 9788-29578-50674-45032
1809.88-13864 11286 90016 101698 93004 104676
1812.77 102954 38980 32730 68986 75556 72608
1815.66 107464 103026 53338 33570 91804 123750
1818.56 158656 125174 79456 64856 120976 102312
1821.45 106246 74398 50682 41878 78316 66934
1824.34 66844 66830 26434-35796-658 22098
1827.23 30678-35010-47086 24212 91694 99616
1830.13 69088 9060 2632 41122 67826 60270
1833.02 69856 68066 109470 185108 294858 411370
1835.91 556124 727724 930890 1084242 1000470 552088
1838.80 158212 16728 16400 18950 44902 48462
1841.70 28136-21880-49336-84884-62620-118096
1844.59-132596-39858 145826 181568 145026 111994
1847.48 112774 115614 125788 83394 59110 69512
1850.38 121148 125120 135188 117826 89204 96544
1853.27 139454 145628 178360 164834 175838 163446
1856.16 176658 196598 180110 125366 153284 149420
1859.05 166188 174978 188290 125766 127612 118030
1861.95 132254 159524 148190 113456 131630 115294
1864.84 125712 77490 52506 48342 70718 79418
1867.73 86230 38054 44354 12724 10798 16816
1870.62-8552-55866-24960 12086 13216-50636
1873.52-61518-77368-70672-51030-32988-60828
1876.41-76490-75146-57246-76678-103842-148372
1879.30-123832-93094-70712-98826-67778-50876
1882.20-30640-77568-90616-69416-35576-28460
1885.09-35046-78830-84734-88114-36484-37112
1887.98-68866-49316 40850 41888 6588-20512
1890.87 11292 19914 31590 24328 25102 1358
1893.77-28598-16284 47540 59710 58682 16842
1896.66 58980 95472 93880 71086 105664 126842
1899.55 109292 109396 144776 141558 126260 77656
1902.44 140074 228164 205380 111094 150352 174092
1905.34 121980 124228 203074 225474 227418 205564
1908.23 240546 196168 149334 203264 299074 263166
1911.12 192268 221978 261118 149406 132850 245092
1914.02 273018 206620 215634 247248 227308 167412
1916.91 213304 271208 287266 260876 262348 246868
1919.80 226002 228560 262460 259290 305344 301954
1922.69 329498 413756 447854 412494 433514 486736
1925.59 525332 543002 640362 691314 776410 909508
1928.48 1107532 1253068 1386042 1607200 1868322 2061284
1931.37 2366302 2801924 3252552 3632342 4032456 4318810
1934.26 4185330 3173232 1680252 882296 709978 660076
1937.16 589000 486132 469712 432984 502284 554872
1940.05 557068 545612 537614 477246 517536 566810
1942.94 563434 574380 615140 513940 563070 607698
1945.84 544912 559228 585758 599288 659416 612174
1948.73 714806 704556 677358 811236 819414 861618
1951.62 944474 930310 1014594 1066182 1032168 1045806
1954.51 1122418 1118466 1215684 1212802 1160528 1237090
1957.41 1257092 1230514 1315982 1278446 1359698 1445616
1960.30 1350054 1379096 1354988 1336408 1429594 1194118
1963.19 1081592 1017562 957478 1079578 1049168 1088422
1966.08 1150336 1215214 1307810 1259250 1270150 1264650
1968.98 1292492 1283026 1303152 1236616 1247896 1236190
1971.87 1255664 1295330 1324250 1314074 1386290 1431884
1974.76 1521744 1695078 1809938 1625272 1527242 1589424
1977.66 1553978 1526140 1606034 1523658 1454058 1481588
1980.55 1455028 1486792 1628528 1663640 1824394 2039592
1983.44 1851888 1559412 1553940 1543828 1568860 1637908
1986.33 1706338 1736004 1783908 1787752 1853204 1891752
1989.23 1971762 2075262 2089522 2156400 2265486 2304990
1992.12 2376400 2412702 2548750 2553436 2537214 2631532
1995.01 2630870 2663500 2787770 2715078 2802024 2824704
1997.90 2846588 2850850 2740850 2841122 2799022 2762158
2000.80 2840624 2780342 2712712 2596552 2758098 2637766
2003.69 2648698 2639732 2504000 2504186 2460612 2637734
2006.58 2693516 2788606 2817636 2939328 3085660 3144688
2009.48 3259376 3388068 3496352 3660310 3783988 3848936
2012.37 3911292 3899420 3819580 3687188 3579542 3282336
2015.26 2868676 2351708 2075076 2258086 2705954 3027180
2018.15 3383262 3859134 3538188 2654710 2039318 1541050
2021.05 1179974 943652 946336 1004612 1214316 1253162
2023.94 1302546 1349172 1422020 1475534 1579368 1762752
2026.83 1836160 1841568 1854468 1991864 2085774 2071562
2029.72 2123380 2145540 2248654 2148746 2154636 2177502
2032.62 2228144 2199726 2221336 2323028 2386620 2448580
2035.51 2526736 2453590 2553758 2560386 2491180 2476372
2038.40 2519348 2507008 2394758 2314432 2364216 2304692
2041.29 2227460 2149312 2128600 2096602 2024090 2008400
2044.19 2008222 1870406 1837102 1842436 1863922 1756898
2047.08 1699814 1697890 1626820 1546460 1605076 1554032
2049.97 1523034 1479038 1469304 1453798 1408072 1390804
2052.87 1325688 1230448 1292186 1243462 1166068 1137916
2055.76 1169882 1098292 1045916 1094920 1124602 1088824
2058.65 1189618 1185408 1143766 1157886 1146602 1045734
2061.54 1036046 1033876 1047740 998802 1024118 1036506
2064.44 993288 965478 989088 938740 941298 972824
2067.33 941724 924796 1015488 1019448 1019796 1068978
2070.22 1071174 1098274 1171248 1167354 1338088 1500324
2073.11 1629700 1677360 1655206 1438408 1060932 762514
2076.01 762652 839052 949494 1023690 1143922 1139432
2078.90 1188988 1314504 1359316 1289998 1176758 982482
2081.79 917270 988870 1450630 2538486 3664258 3227144
2084.69 1722672 798256 612804 579922 561428 591714
2087.58 678782 737278 811678 848618 880114 921402
2090.47 838600 718704 772072 800806 850118 880908
2093.36 991504 1167104 1346122 1361194 1441330 1541268
2096.26 1698688 1874950 2023244 2130406 2466906 2751706
2099.15 2687080 2447416 2391466 2297216 2185940 2210312
2102.04 2190682 2175920 2166424 1963448 1867956 1852156
2104.93 1828998 1756676 1721184 1776372 1887246 1771432
2107.83 1709060 1713268 1677128 1651350 1691640 1710050
2110.72 1857526 1811916 1663510 1620304 1624760 1649602
2113.61 1640588 1550586 1655272 1837132 1744186 1549860
2116.51 1584042 1592932 1526970 1525878 1559522 1539244
2119.40 1515574 1388640 1288406 1204990 1230550 1176214
2122.29 1124556 1166054 1240414 1061106 982986 1029504
2125.18 1061786 1012010 1066580 1171502 1305878 1294938
2128.08 1300852 1339364 1413532 1450882 1508726 1530566
2130.97 1599730 1501096 1307748 1111326 942462 747054
2133.86 515060 332684 349554 424432 562822 777338
2136.75 1015950 1195406 1353484 1408062 1442386 1464832
2139.65 1483966 1479886 1459822 1378810 1349546 1312712
2142.54 1263494 1197736 1174596 1116784 1133184 1079296
2145.43 1030604 1034110 1077538 992444 931860 969960
2148.33 996360 900010 865330 930766 1007246 879792
2151.22 878896 916904 905080 882376 904150 942992
2154.11 1016260 919686 922444 876754 840494 824628
2157.00 876020 1000934 1018358 871596 885960 852150
2159.90 943738 978018 1006600 1106410 1066896 917996
2162.79 902144 893764 937114 908198 1026078 1072086
2165.68 928448 857724 936530 1059280 1378698 2065328
2168.57 3114266 2956986 1760550 1063874 826986 612292
2171.47 493610 657408 763916 572638 518044 556892
2174.36 537712 493738 659962 931914 1175942 1412146
2177.25 1678766 1897434 1592146 967084 806826 605114
2180.15 445634 398412 387880 338274 389970 505068
2183.04 488804 350122 423378 442448 473538 539866
2185.93 726248 724628 621826 554702 549334 500646
2188.82 516306 611344 644292 544502 557680 581798
2191.72 582114 617920 739054 689286 624478 629524
2194.61 651696 633760 714518 822478 780472 676996
2197.50 638558 609118 681472 711198 732670 642426
2200.39 628994 678108 685672 680170 755134 790660
2203.29 724318 685310 680440 717112 800620 757426
2206.18 743794 786656 847856 774080 787886 847038
2209.07 907806 951082 1014002 985576 1000160 1050698
2211.97 1088944 1001320 966162 1092944 1195726 1105660
2214.86 1041190 1139650 1283498 1315152 1240610 1250666
2217.75 1409878 1418122 1438104 1504452 1510772 1522872
2220.64 1630260 1688434 1665118 1632938 1774698 1869300
2223.54 1904070 1914896 1861836 2059806 2170198 1985092
2226.43 2086738 2338278 2378940 2175132 2349216 2508216
2229.32 2421478 2470434 2612180 2810108 2866180 2742830
2232.21 2942974 2983942 2950496 2865930 3023412 3206824
2235.11 2973330 3006442 3322768 3258096 3159550 3352782
2238.00 3510240 3344446 3385444 3537978 3496760 3356156
2240.89 3784156 3762916 3706524 3825596 3802238 4024634
2243.79 4244202 4275724 4194906 4228376 3977974 4051638
2246.68 4002022 3943844 4086986 4066064 4050500 4001890
2249.57 4245324 4161388 4300392 4300514 4364644 4365438
2252.46 4477310 4503084 4622504 4714736 4779194 4784628
2255.36 4808024 4958282 4960226 4919122 4918332 4813722
2258.25 4686450 4261398 3700446 3099194 2839272 2974036
2261.14 3159310 3098556 2954950 2740182 2588824 2470052
2264.03 2405846 2291586 2249742 2321216 2403346 2447796
2266.93 2550846 2650196 2884398 3298702 3969644 4496384
2269.82 4526654 4515978 4799866 4863206 4822502 4553398
2272.71 4333912 4204520 4309230 4584420 4491168 4298510
2275.61 4357722 4468418 4459340 4430418 4411156 4465470
2278.50 4616500 4600800 4389222 4388068 4729828 4532376
2281.39 4487646 4640300 4552104 4193900 4037126 3989306
2284.28 3777064 3540856 3531322 3317308 3123080 3118588
2287.18 3015706 2756618 2678466 2794494 2817998 2603228
2290.07 2568792 2557790 2485220 2407086 2403730 2426716
2292.96 2485012 2425160 2503714 2498630 2581560 2568472
2295.85 2288908 2070724 2113126 2092892 2087740 2201252
2298.75 2676764 3861756 4524562 3459772 2427064 1932354
2301.64 1789746 1700160 1731102 1722414 1730068 1682140
2304.53 1646650 1595172 1490938 1444434 1477152 1416022
2307.43 1329894 1307600 1435644 1591522 1960976 2618936
2310.32 3283216 3678862 3394192 1980184 1342840 1286624
2313.21 1275714 1252398 1290492 1281780 1368126 1362818
2316.10 1348154 1350638 1526896 1676394 1733430 1661074
2319.00 1696996 1674308 1663090 1552838 1536718 1592572
2321.89 1634952 1506518 1614286 1659746 1598146 1507780
2324.78 1517006 1556050 1581248 1456524 1568066 1651272
2327.67 1498996 1391604 1509706 1535344 1403930 1308604
2330.57 1339488 1330768 1218248 1083436 1175712 1130456
2333.46 974538 892650 995528 899426 756114 786260
2336.35 858414 745614 710662 781044 823400 699426
2339.24 699714 679932 605300 559210 565606 494664
2342.14 462842 480050 596050 494790 424890 428514
2345.03 429434 399688 560956 1332202 2388970 1866576
2347.92 876824 494672 408112 322914 360498 379352
2350.82 365576 323866 318136 265534 324670 368924
2353.71 273584 193282 308366 275578 253106 250398
2356.60 210152 220182 280952 125706 139694 221138
2359.49 216754 248446 239252 147798 241148 218122
2362.39 182008 217116 204344 255080 311756 192846
2365.28 256004 250474 258846 277980 221336 249828
2368.17 298342 178398 255736 261836 313462 320298
2371.06 270716 265110 328384 310382 306918 321512
2373.96 324440 331020 362756 275298 341890 316258
2376.85 263306 271080 294058 273936 348826 292910
2379.74 320324 320060 307256 272480 285704 263682
2382.64 337478 325124 279264 244442 283192 230542
2385.53 212124 232356 241712 241188 269732 195174
2388.42 215120 211852 231280 225000 342404 369152
2391.31 372822 274490 221332 248160 303656 265956
2394.21 300274 290072 276554 222908 211152 184016
2397.10 204366 215840 250714 220684 224996 195998
2399.99 179224 148876 200820 205590 221748 181242
2402.88 221936 192006 207224 222646 261290 228770
2405.78 239906 216988 243450 181894 171130 138030
2408.67 159098 210072 256622 187926 152094 93190
2411.56 102866 53308 60792 37610 35852 7914
2414.46 26036 5648 61126 37944 48484 22906
2417.35 43106 37036 64706 36550 51816 22392
2420.24 49996 67126 79910 51422 67152 41922
2423.13 81914 62324 88368 114700 88522 26044
2426.03 78252 75006 92440 78300 104534 95084
2428.92 134040 142454 138686 91878 113950 65620
2431.81 72440 60580 71044 39460 78950 77960
2434.70 82958 32030 66630 64848 90462 60758
2437.60 56362 45470 90108 44634 53532 43744
2440.49 63192 52472 84270 57794 91894 76544
2443.38 70830 54526 107904 101734 145530 142344
2446.28 125336 13852-37062 3546 78742 46048
2449.17 83222 116556 165802 100040 21524-31640
2452.06 29462 2562-21886-40264 30238 57012
2454.95 110602 90864 240818 308792 246670 257190
2457.85 283876 223184 174092 95674 99292 50912
2460.74 75050 63416 40850 3706 35448 19194
2463.63 7520-24778 31766 20064-15202-67634
2466.52-38128-46202-1234-74470-96062-106724
2469.42-62934-101514-72756-86384-93136-140154
2472.31-141890-111868-63564-124482-157066-153234
2475.20-112034-146528-110470-105208-108060-142004
2478.10-158918-191756-189264-253212-234106-238026
2480.99-173822-201592-202012-255338-235150-251054
2483.88-235204-254106-203882-246414-247822-267572
2486.77-230202-257248-256332-298080-276356-289742
2489.67-293684-328768-289382-282604-269080-332510
2492.56-329802-329884-300186-320754-273926-207312
2495.45-123040-168598-186978-171402-131006-165968
2498.34-127372-150512-109980-159402-183682-214136
2501.24-182850-200938-186378-215952-184638-184838
2504.13-149058-187446-144100-153966-174424-282630
2507.02-273990-225170-167272-213716-217368-254018
2509.92-262520-270962-194636-208590-217570-301730
2512.81-296736-302562-250592-320802-292912-272110
2515.70-273956-318036-303072-300926-264012-308178
2518.59-294596-266026-295844-383544-315550-324596
2521.49-302638-321280-309014-320300-298654-321614
2524.38-308772-356036-309206-343658-359816-362972
2527.27-289374-332734-333852-353858-361160-381228
2530.16-318342-372580-407582-489000-496134-495812
2533.06-516562-522560-454590-423246-354086-301324
2535.95-180130-138176-79800-105960-46560 10282
2538.84 32098-33946-5652-85570-104762-144170
2541.74-167806-241348-258012-296560-285728-368448
2544.63-374428-391018-370454-393818-396258-412026
2547.52-404070-446908-389346-441790-388364-397328
2550.41-375342-351994-303152-350984-312888-357862
2553.31-343584-335774-258852-316434-270720-227398
2556.20-211114-233490-168788-186918-164966-195970
2559.09-158718-176560-131580-127488-102262-146136
2561.98-129800-222786-192254-184176-156832-172876
2564.88-48932-68120-97752-103956-77564-109444
2567.77-34754-22214 36862-26406-35114-44888
2570.66 35320 46882 68882 34356 33238-9248
2573.56 76134 99660 126704 106508 180260 139460
2576.45 122082 87562 204684 240286 233160 216924
2579.34 231498 201188 265730 306728 381956 363604
2582.23 390212 361380 401634 387660 467784 436978
2585.13 402160 444176 536022 530274 558408 602420
2588.02 648962 599814 620620 614896 652786 669522
2590.91 744132 732262 710062 618980 664966 635284
2593.80 601394 590468 796664 816692 760644 697340
2596.70 804128 829950 831196 814418 882364 843608
2599.59 810226 811560 893358 962748 1010800 947268
2602.48 981956 931448 975274 965062 1008634 1071096
2605.37 1069340 1034554 1124070 1154472 1252526 1399700
2608.27 1626456 1718666 1796314 1803236 1777680 1719574
2611.16 1770686 1692394 1522694 1265328 968000 627988
2614.05 511082 473280 534354 613512 802668 1051812
2616.95 1691596 2014554 2081838 2196504 2211428 2170360
2619.84 1886960 1500448 1395412 1319270 1309788 1201130
2622.73 1200072 1176520 1196444 1132464 1127194 1095142
2625.62 1098206 1052414 1085372 1022582 1057714 1067942
2628.52 1127810 1139500 1268342 1296366 1340428 1348980
2631.41 1411250 1363168 1356414 1336022 1301796 1250874
2634.30 1347544 1299544 1306238 1287968 1268728 1190916
2637.19 1187558 1158302 1186174 1107926 1079272 998524
2640.09 1023190 931224 862118 827238 824328 775830
2642.98 759754 689996 721388 657698 685454 606832
2645.87 636084 579982 616290 572434 496410 446948
2648.77 473614 440830 439470 323934 387454 359498
2651.66 341598 274750 265540 214768 215324 181672
2654.55 219598 146854 128686 127412 214960 174758
2657.44 148374 63588 89074 45058 57946 16840
2660.34 1722-53436 18290-8846-20918-59684
2663.23-40014-107806-79856-70742-22776-81594
2666.12-66210-139748-136786-162534-90294-95454
2669.01-101510-144334-68978-92490-64964-116406
2671.91-95516-123998-76254-133976-162180-175396
2674.80-97752-133204-111132-156860-132308-185114
2677.69-157280-161746-123146-184342-141200-145714
2680.59-161968-232580-170784-212752-165948-178794
2683.48-142262-174638-125546-138350-121900-150416
2686.37-134672-178314-144496-181522-145648-169632
2689.26-117700-140292-140052-166860-105824-140876
2692.16-117154-123668-105468-169376-131572-167182
2695.05-133904-196250-124482-134144-116772-148964
2697.94-116408-146988-99098-137098-115472-172446
2700.83-115558-115856-48952-70272-59292-110014
2703.73-24724-44066-10358-62470-5702-7544
2706.62 67760 40138 87394 62066 77544 34816
2709.51 87438 32884 45762 9578 53656 46556
2712.41 80264 10302 58224 47224 90028 39540
2715.30 86806 67058 136388 109530 118130 51144
2718.19 109280 108144 206550 193010 195610 124238
2721.08 156914 110552 164386 89956 139560 150210
2723.98 144100 100888 172978 172616 219286 220824
2726.87 245020 216092 228784 200476 250510 217508
2729.76 221778 175070 265414 246696 241886 172334
2732.65 213414 231666 340940 299120 281640 245254
2735.55 316742 287526 293664 303736 361072 349238
2738.44 734234 1788114 1807008 627280 338852 252474
2741.33 347796 368266 387580 307154 383138 360438
2744.23 438346 403136 409982 343792 428842 361644
2747.12 381580 356058 422112 368102 402812 343960
2750.01 436774 456184 508884 457668 539440 562252
2752.90 685092 658436 677706 663320 795016 730262
2755.80 715498 563222 542592 530516 578822 500194
2758.69 571978 527302 593582 561552 546110 429770
2761.58 429932 367624 453136 410136 412152 413526
2764.47 521808 545626 616078 506720 547268 484526
2767.37 494730 441298 496626 474954 525070 448056
2770.26 472918 433292 477296 369594 378866 379180
2773.15 410592 291190 332332 264460 223910 152258
2776.05 313790 282908 267428 170980 179236 134572
2778.94 221834 185558 173266 105114 153116 117224
2781.83 185434 153216 200740 132636 186530 132322
2784.72 152826 116510 180556 114192 174762 143906
2787.62 171526 86860 115562 65330 124444 38840
2790.51 45452 11066 80136 18068 79662 54554
2793.40 32196-57284 25162-32672-3298 3526
2796.29 116122 47996 52590-14650 17422-38810
2799.19 57104-3600 6616-47622 294-122942
2802.08-109918-136168-44860-103970-52980-104666
2804.97-42108-78404 21052-9756-13302-100300
2807.87-43700-130182-84236-138898-43370-92988
2810.76-68570-148992-123384-184632-116884-163566
2813.65-111384-149498-62722-141046-104416-164336
2816.54-114920-163232-29848-83650-93560-162662
2819.44-75986-115022-88804-159560-75156-160800
2822.33-89786-145798-103706-173372-83296-115922
2825.22-71716-128926-79932-192598-108314-111774
2828.11-71596-113102-7376-128752-90068-168470
2831.01-124678-198674-143246-160090-69304-131874
2833.90-57352-121132-98260-143454-38458-82216
2836.79-15234-122732-105342-147224-45836-70412
2839.69 504-50620 23088-60186-19824-74854
2842.58 29182-15168 23630-30360 21346-94468
2845.47-10686-2852 78732 18400 151748 104320
2848.36 153300 90024 130354 127768 207808 121094
2851.26 256810 156564 169852 122206 230318 203938
2854.15 261944 186630 205610 129730 223490 158736
2857.04 250050 212326 348836 321384 365668 308496
2859.93 429308 391190 444956 394748 538040 490318
2862.83 542630 515614 638326 622818 742794 696652
2865.72 799914 788746 866136 755686 923546 928614
2868.61 1043906 1038198 1189730 1127686 1248332 1270412
2871.51 1430160 1413772 1568964 1621780 1718580 1757504
2874.40 1964436 1901660 2143136 2345370 2499930 2431954
2877.29 2762020 2903482 3028710 3179880 3525720 3491796
2880.18 3718356 4059046 4400780 4489630 4851482 5169956
2883.08 5412098 5581652 6140730 6620524 6939280 7266416
2885.97 7953876 8122356 8685074 9366934 9894238 10230890
2888.86 11023840 11388030 11834420 12813850 13635190 13814310
2891.75 14700080 15576460 16168040 16839500 17879420 18724890
2894.65 19360710 19951460 21272880 22372420 23122820 23853820
2897.54 24655170 25372170 26182430 27713130 28826840 28722520
2900.43 29654590 30684710 30987600 32628590 34142580 33685630
2903.32 34121400 34633210 35408860 36913680 37551030 37228370
2906.22 38167090 37621150 38001080 40377070 40256000 38732580
2909.11 40082540 39866400 39722550 41433460 40969120 40008120
2912.00 40347180 39800200 40905810 41607140 40670930 40805900
2914.90 40371280 40137320 41681950 42003670 41609650 41193340
2917.79 41210230 42350100 42453660 41333650 40269860 38387920
2920.68 37205630 35866920 34895620 33942840 31725520 29860250
2923.57 30229230 31087990 31115060 30486010 30532760 31317600
2926.47 31445280 34531530 37897720 34040000 31503950 38695310
2929.36 72114740 198700500 292370400 158736700 49992850 33332130
2932.25 30857790 29797340 30876540 32304310 34447810 35177650
2935.14 36863850 37372910 37989060 38704510 40054790 39351930
2938.04 40384450 40588290 41772240 43060510 43627850 44301740
2940.93 45050300 44892800 47333400 48396970 48759280 49438580
2943.82 50103280 51249590 52226180 53179760 54638750 53642160
2946.72 53502670 56196540 56048450 56066680 56893530 56494510
2949.61 56366450 57503830 58244430 57172130 56255600 56591320
2952.50 57414620 56825940 56952590 55380040 55451940 54451390
2955.39 55274070 55956950 53528110 52365400 53645660 51577740
2958.29 53137940 53416840 50583070 51877060 52126190 51295600
2961.18 54393710 54456750 53357920 53588030 52843720 53836740
2964.07 53299480 51102300 51735320 48911220 48266020 46419320
2966.96 42412220 40850420 39350770 36885870 39064960 39931860
2969.86 42537500 47321960 50844020 53377120 55686100 55783020
2972.75 57200660 57943290 58501500 58458740 59915120 59807970
2975.64 58896060 59015600 60167140 60095060 62776630 63375180
2978.54 63822380 64435240 64331140 65180490 69613720 69086260
2981.43 68400900 70930820 71311030 70374740 74897220 75338030
2984.32 73679940 75022820 76118470 76622070 79077330 77330180
2987.21 77963860 77971810 76780220 78888230 80616580 77947020
2990.11 78334930 77662250 77766300 77781230 77775590 77135290
2993.00 75532440 72805870 74758020 74638010 73944020 73033860
2995.89 72396190 71383700 72634750 73303300 77489250 79090200
2998.78 80066780 77022300 72523960 69697800 68772500 64221740
3001.68 62572810 60070040 61864940 59443600 60302710 66869750
3004.57 101198900 202080200 399097300 393718300 166990700 76300790
3007.46 68123330 65538100 60725620 62975640 69215780 76761420
3010.36 76217400 82444120 91794520 93711330 90956370 95171140
3013.25 95365710 92250720 91064610 94402580 90837970 86909360
3016.14 88215490 85720840 78193670 83593940 88814730 89205940
3019.03 97929740 112992700 116248400 116261500 123968300 130652800
3021.93 128415300 130061500 133423000 131796800 130390700 128982700
3024.82 127531100 132951200 133574000 127548200 128056000 135759000
3027.71 134037600 123879700 136317900 144844200 124031000 125919600
3030.60 144189400 133454200 127118500 142430000 137281600 120017400
3033.50 131776000 144682800 127741200 122987600 141869200 128948600
3036.39 113298600 133173400 136076000 114546600 120810900 134697500
3039.28 114761300 107228000 126431100 118815800 104696800 117665700
3042.18 113515400 96627290 110458000 114984300 93838660 94378560
3045.07 107108600 88137380 78268150 94646790 91992190 73417510
3047.96 80779820 82226260 66735390 68301300 77227420 64548790
3050.85 61109820 66820410 57613120 50373250 58328970 53301380
3053.75 44827860 49270210 47427240 36908740 42687470 46270780
3056.64 38194030 36849890 45111880 39813320 41550950 54850800
3059.53 64456320 65438280 84079540 87300120 78564920 64153820
3062.42 59505220 65325980 98580990 177184400 442614700 1250590000
3065.32 1920886000 1061965000 198033500 65346980 46672760 40832480
3068.21 34421380 37355880 29945170 28886130 30304380 32973270
3071.10 27981220 32580490 31383450 27349960 29538550 35416220
3074.00 26839520 28207320 35975290 34022480 31769840 42443040
3076.89 38967480 34971960 42994120 47366710 42244620 50880180
3079.78 53530360 46585360 51655090 62112600 54697620 59281410
3082.67 67650010 58877180 56793200 71414930 68221330 63304940
3085.57 74611710 75340120 59750350 71730570 84619530 65900570
3088.46 73458120 86159080 65849400 69494870 88144430 74948660
3091.35 70299940 85865320 75384660 67118940 81682700 80341370
3094.24 69991130 78969270 77579900 66443950 74337870 78938100
3097.14 67745300 71688700 74689100 63268500 65537700 74194810
3100.03 63433150 62617610 68626290 58730460 56160510 65647800
3102.92 58558220 55297200 56152120 54726440 50253200 50308620
3105.82 54557620 47078260 44069140 48289280 42422330 41023330
3108.71 44242430 40387880 36917790 37130930 36141380 34925930
3111.60 33372310 33991420 32410590 28904110 28246870 27969660
3114.49 25032110 25118620 24677470 22262930 22007520 22310560
3117.39 20214300 19458970 18926330 16996820 16340120 16932110
3120.28 14525730 14206730 14353220 12307750 11859020 12502660
3123.17 10592340 10333670 10565870 9410194 8889734 9554804
3126.06 8271352 7876238 7622256 6832220 6214210 6458054
3128.96 5696030 5413336 5198912 5018804 4589218 4673162
3131.85 4214038 3992106 3832810 3761664 3222314 3560256
3134.74 3093578 2979962 2783106 2585026 2376998 2581262
3137.64 2136274 2214018 2031486 1947908 1731264 1930960
3140.53 1700844 1712924 1403516 1435124 1181430 1304592
3143.42 1124226 1225376 1004430 1072634 823484 916824
3146.31 751046 905502 719272 798376 577140 681818
3149.21 555026 655624 453490 583850 472052 634540
3152.10 412816 447868 291114 448470 337626 401018
3154.99 162714 261778 122556 268904 125062 241722
3157.88 141180 255824 123960 215138 51618 200462
3160.78 55546 160368 21896 172018 37134 70576
3163.67-87940 102974 26374 111472-48640 70934
3166.56-46828 56636-37162 57608-92068 62890
3169.46-12460 187864 44284 56446-115938 22858
3172.35-40814 199502 137200 182106 47478 101448
3175.24-33248 95288-6536 110196-61646-29528
3178.13-134686-43908-181130-45290-108658 2122
3181.03-131282-65854-143270 36712-70594 4810
3183.92-120846-69976-196498-90460-123750 23470
3186.81-113682-22116-140358-74306-127284-10744
3189.70-104796 7274-77262 52200-38738 1386
3192.60-87160 18394-135968-47184-94414 14018
3195.49-30550 42700-161848-93200-139968-50904
3198.38-148018-36696-65960 46468-73426 45618
3201.27-56628-74990-206520-140080-217300-20632
3204.17-100966-71694-168392-77800-225462-164712
3207.06-200246-50564-91736-22328-166320-68552
3209.95-161062-155470-241546-93200-138786-70648
3212.85-154728-78470-205270-111836-159230-88214
3215.74-208784-141482-147758-55514-174478-91858
3218.63-208012-86054-58838 61382-5000 6682
3221.52-253574-170436-168294-149202-249872-144354
3224.42-173208-111298-258452-146910-179258-154392
3227.31-236310-172326-189178-74884-157472-113622
3230.20-217114-140566-224844-184070-254872-109146
3233.09-127530-62896-168802-117846-205548-135376
3235.99-237358-92988-136352-123064-236322-169588
3238.88-233182-168760-250128-164818-235088-181918
3241.77-242340-98694-116868-62634-142848-95630
3244.67-226334-188574-203078-68060-158592-133744
3247.56-172166-116110-168224-106228-232090-173600
3250.45-267218-225474-225752-163192-236314-121088
3253.34-192314-181316-266778-131588-99854 4724
3256.24-136896-136686-240884-183632-273262-271636
3259.13-339402-200100-171322-115924-254484-197746
3262.02-158926-135736-277302-183646-171358-80446
3264.91-224858-175610-202674-190454-282316-248370
3267.81-310340-261530-340526-250688-236568-188848
3270.70-286934-216176-230354-189856-257324-166834
3273.59-267044-155810-135932-122844-223032-175648
3276.49-205876-83334-165958-185690-237380-167652
3279.38-313170-330508-441804-394720-456262-401076
3282.27-383848-327112-433746-321274-335478-291836
3285.16-355092-269548-295180-226428-269644-205394
3288.06-267078-249764-292168-196196-295160-273670
3290.95-328834-225074-301300-334056-408362-298204
3293.84-306786-249214-321004-242312-246510-216178
3296.73-319822-323628-392464-257802-208930-219808
3299.63-339782-243486-330396-322778-321772-178408
3302.52-175550-99516-231294-213856-216026-114718
3305.41-184350-193480-211226-144274-274166-260510
3308.31-298880-270694-250482-169108-268210-175438
3311.20-242152-228172-244864-161052-238852-204334
3314.09-242310-210578-220608-153122-250386-277680
3316.98-291028-137814-223788-221380-240054-221668
3319.88-271728-182124-240110-190540-233208-191864
3322.77-267108-187838-138008-89504-159240-137710
3325.66-154066-109768-202480-155818-248636-221464
3328.55-285138-179310-192712-201164-313678-174146
3331.45-132806-79070-165860-124904-174680-137822
3334.34-164048-174182-285480-240504-260352-128830
3337.23-153954-124278-197512-105032-245618-303630
3340.13-243014-135532-186980-160952-262104-192706
3343.02-199620-120774-182410-233042-329662-216880
3345.91-192672-135260-214734-126620-161172-113054
3348.80-178684-147320-180816-183758-230656-105630
3351.70-156964-162760-226280-197826-210142-153712
3354.59-200020-99480-138800-152600-233822-128380
3357.48-131860-95770-192348-171154-143038-54980
3360.37-142618-107172-179656-187580-200622-124026
3363.27-184358-175972-207008-230616-225072-69136
3366.16-104150-161754-268140-193566-203112-92728
3369.05-106454-140784-269528-216732-184078-116466
3371.95-215182-214522-220140-117952-110052-107176
3374.84-212806-167760-228816-172298-181110-96490
3377.73-178800-215512-285124-192976-224066-171918
3380.62-233350-182466-239886-181256-260052-205094
3383.52-212232-126224-84796-99870-197768-163822
3386.41-228394-138194-198728-246382-303614-196496
3389.30-198816-219396-224730-81720-83570-26316
3392.19-110430-87138-158156-222062-292804-174954
3395.09-244242-229060-232418-206750-267546-174682
3397.98-183582-179782-212506-161932-160992-98036
3400.87-125974-122776-237856-273178-314216-208282
3403.77-207378-201774-200022-101844-130010-109938
3406.66-132062-119712-256830-226840-140956-89746
3409.55-115544-73292-179978-125598-111494-133476
3412.44-171668-94604-157576-89238-87118-59664
3415.34-152556-184790-226862-124696-144378-48562
3418.23-86134-111676-157432-176642-139164-45364
3421.12-108274-80464-142230-81242-134704-158992
3424.01-250892-266548-227380-144146-231962-216638
3426.91-152992-139748-237912-136702-208774-139492
3429.80-58028-53048-153294-100834-164610-128604
3432.69-198790-165334-167166-193488-277918-176636
3435.59-123306-63234-139224-146636-194906-177856
3438.48-251052-197736-133712-83490-164880-93436
3441.37-119560-124610-203766-196632-259162-218402
3444.26-210306-94562-91336-104760-166072-112788
3447.16-183222-190858-170226-43428-148036-212838
3450.05-173562-102124-132126-75056-126490-128704
3452.94-188184-123818-160372-127844-96142-42874
3455.83-165874-203382-160684-50798-133386-145614
3458.73-184444-164818-216780-170454-173318-154198
3461.62-221436-182756-227130-213874-257916-230808
3464.51-231334-158692-150658-102228-82926-10572
3467.40-60618-137430-213864-151022-137212-89124
3470.30-142688-103786-122076-82412-103144-49286
3473.19-29332-76400-184016-144670-255260-243814
3476.08-213734-144136-220898-219300-239724-175776
3478.98-149668-169284-233682-166834-170152-143148
3481.87-155470-165570-278448-192058-135050-125094
3484.76-94040-20190-87840-81852-184308-190478
3487.65-187330-208184-286656-174740-145750-203394
3490.55-239452-130898-137916-135100-188932-177070
3493.44-221408-208820-223896-168586-208048-121002
3496.33-229146-228602-170470-150164-225476-136298
3499.22-148832-172400-176016-132574-59022 41852
3502.12-108810-207824-208026-157220-206356-167160
3505.01-180748-138246-187742-171558-144404-114594
3507.90-195826-127082-150474-186652-235056-125148
3510.80-171174-197532-221986-147266-183738-162344
3513.69-186990-213522-230814-154244-177142-115070
3516.58-138152-149856-220994-172232-168496-163736
3519.47-160558-74568-132360-130724-190872-113540
3522.37-137398-149328-162420-107684-180500-211920
3525.26-267846-259954-263580-243174-252520-173284
3528.15-195182-213826-262536-243526-242566-190166
3531.04-211582-149368-149342-154468-201978-153232
3533.94-157040-180876-256436-181478-157956-82674
3536.83-108786-115510-97134-99414-223410-207164
3539.72-231612-203766-221562-148652-186222-134748
3542.62-157742-172746-164300-131936-199178-213622
3545.51-216688-121940-119802-190294-253620-164716
3548.40-177256-173620-172272-135988-200152-199386
3551.29-219178-219896-281746-253264-221354-165556
3554.19-190744-150788-228204-171422-176720-184052
3557.08-242652-219450-238808-236376-254358-140104
3559.97-130644-149438-197260-168628-217226-244340
3562.86-241434-170558-250966-214198-212954-201984
3565.76-134698-103940-212832-185030-224668-168566
3568.65-252652-288442-224028-197762-281688-217394
3571.54-140290-99238-237274-328448-352302-260304
3574.44-222186-109504-158154-168564-168142-146298
3577.33-198592-219780-257312-163918-133662-164122
3580.22-203510-147910-206270-199952-209568-150564
3583.11-146062-152280-197642-178476-197840-224782
3586.01-237952-130132-119794-113090-189332-182886
3588.90-149200-140800-214680-288370-364122-255468
3591.79-224676-181758-172772-135138-176928-200776
3594.68-154230-43944-91306-125594-201258-238120
3597.58-264588-217088-312818-264932-230582-134092
3600.47-142394-165582-183626-153322-154496-160488
3603.36-211304-199764-251310-204438-174282-159624
3606.26-248038-209732-200786-135398-141718-123190
3609.15-166312-101790-119818-189500-244912-132960
3612.04-130002-147480-122300-142876-222228-147740
3614.93-170854-115420-123314-176690-214130-156162
3617.83-176532-157658-137324-109512-153948-102228
3620.72-117958-79516-84496-98438-227106-258242
3623.61-226206-85550-122860-122516-152684-89458
3626.50-87028-142910-168838-71064-117342-58840
3629.40-84394-171224-208806-153612-163124-144862
3632.29-227550-184284-153228-104414-149618-86100
3635.18-51152-50270-132298-133590-127728-88392
3638.08-115146-112290-206468-235434-222098-175708
3640.97-139146-86574-197000-179972-114682-124162
3643.86-187326-183900-170610-148266-242446-189128
3646.75-152132-110002-169804-138782-58424-67664
3649.65-134356-93504-87220-136474-189854-136212
3652.54-113560-112820-203142-158268-190124-204630
3655.43-172862-104660-146362-158410-187400-169372
3658.32-212062-214284-270364-216506-154420-101954
3661.22-147426-142120-187420-153746-175090-163020
3664.11-181074-150048-180724-173980-123000-40422
3667.00-92000-131470-149410-88142-110708-64498
3669.90 1296 43388-34044-37878-121098-194916
3672.79-184370-129322-145222-41114-13490 17466
3675.68-18538-61280-109138-57656-40024 19232
3678.57-22344-39256-35740-38244-65618-21106
3681.47-5298 60752-24426-37508-9886 64986
3684.36 66266 66634 33096 91938 141394 166366
3687.25 76116 104938 128146 187840 187904 191258
3690.14 140844 165594 103734 130678 168090 162526
3693.04 148656 183064 207736 230308 118792 139268
3695.93 198410 235168 180142 209270 175924 177638
3698.82 212406 253220 220158 263692 266758 273608
3701.72 256150 314732 265420 273362 290522 386942
3704.61 391696 315930 264910 289220 287802 362180
3707.50 372762 390108 355974 302436 309744 425146
3710.39 356640 365538 468784 589894 465512 446828
3713.29 476246 515500 479762 563438 617098 603052
3716.18 536752 554318 512796 541112 635714 770166
3719.07 684516 711576 780126 798792 853070 1023890
3721.96 1105026 1140618 1269346 1814914 2805040 3849930
3724.86 2705688 1121050 739476 645926 677700 801292
3727.75 796430 835168 875904 874644 809984 757886
3730.64 770720 896098 920254 919914 938358 920238
3733.54 876140 959858 903218 779412 763812 881712
3736.43 892814 865874 843894 868364 884442 955706
3739.32 1115028 1330330 1409794 1604734 1928596 2149528
3742.21 1875318 1475762 1185400 1056630 1051718 1129474
3745.11 1106926 1064498 1014296 1123822 1125672 1068320
3748.00 1022950 1134168 1205038 1214636 1217142 1380024
3750.89 1534678 1742586 1754340 1617584 1497378 1445618
3753.78 1371428 1288466 1284924 1361054 1301522 1371016
3756.68 1441274 1405944 1387084 1431432 1453042 1453168
3759.57 1515360 1659248 1698350 1770558 1755048 1802816
3762.46 1894542 1934030 1850790 1848698 1743162 1668074
3765.35 1737124 1896250 2031360 2271244 2607248 2786532
3768.25 2701580 2611712 2441928 2295450 2036966 2112108
3771.14 2136306 1877572 1774354 1800420 1624388 1412568
3774.03 1335318 1418848 1431210 1432960 1430978 1398376
3776.93 1397974 1494234 1436170 1287904 1265048 1399292
3779.82 1447676 1565560 1746640 1946104 2053644 2185698
3782.71 2298910 2227822 1768890 1512786 1525426 1526308
3785.60 1460868 1652152 1802726 1732286 1607328 1707734
3788.50 1816474 1721558 1729090 1938192 1824270 1650156
3791.39 1825588 2079276 1872462 1757190 1940352 1925292
3794.28 1760458 1945534 2132800 2075790 1989632 2179858
3797.17 2144738 2103134 2289734 2320220 2109752 2254502
3800.07 2357826 2286974 2485996 2611580 2540028 2487670
3802.96 2447544 2533252 2635856 2672606 2752390 2762694
3805.85 2684726 2608720 2554762 2517630 2596236 2795136
3808.75 2712426 2817698 3030410 3040794 3212134 3462816
3811.64 3154110 3136472 3419258 3930592 4831124 5993228
3814.53 7212606 8324088 8677578 6516950 3450566 2537762
3817.42 2408838 2353872 2485088 2650350 2725020 2784590
3820.32 2593168 2562944 2590894 2612360 2555362 2390898
3823.21 2273758 2359250 2571168 2812154 3017570 3467950
3826.10 3819426 3825244 3962190 4875976 5592532 5763402
3828.99 5959510 6214836 5874336 4692216 3367136 2781216
3831.89 2540308 2674950 2939258 3146060 3427128 3782642
3834.78 3938512 4005486 3946288 3784620 3842258 3856046
3837.67 3643478 3560302 3580688 3659418 3687748 3719620
3840.57 3779984 3960516 3995664 4012238 4080532 4382948
3843.46 4467770 4464968 4550156 4648812 4794108 4948790
3846.35 4877638 4992100 5073882 4975086 4945918 4804316
3849.24 4673874 4626584 4551612 4489284 4471238 4551604
3852.14 4313702 4221818 4304842 4370688 4242728 4056174
3855.03 3967682 3890510 3745632 3735934 3719692 3771914
3857.92 3759686 3714068 3870450 3862848 3794234 3934966
3860.81 3880866 3972172 4142686 4232308 4431788 4548704
3863.71 4384264 4321106 4098992 3605448 3379616 3463434
3866.60 3400612 3239686 3289346 3820702 4643266 5436836
3869.49 6046966 6419254 6677320 6855870 6828276 6579702
3872.39 5733034 4418100 3652844 3337806 3063686 2925590
3875.28 2699910 2495880 2232728 2071500 1931274 1701210
3878.17 1412202 1403968 1566012 1698978 1754648 1684534
3881.06 1511200 1702806 1881636 1707854 1591904 1562654
3883.96 1373064 1355606 1499510 1526474 1527108 1546374
3886.85 1487738 1488574 1553490 1677482 1690640 1614360
3889.74 1667134 1750118 1726732 1798374 1873370 1846792
3892.63 1757168 1904624 1978926 1998574 1955480 1838426
3895.53 1891458 1966172 2087248 2018230 1841944 2019832
3898.42 2087414 2068052 2011034 1859566 1768566 1903850
3901.31 1879014 1862400 1944614 1858322 1831668 1739678
3904.21 1681236 1789080 1774678 1760984 1601684 1628898
3907.10 1634628 1594322 1521666 1471264 1471034 1446230
3909.99 1287262 1337728 1315762 1258480 1241528 1104706
3912.88 1001318 1051240 979342 989626 962562 891310
3915.78 844612 898330 849618 760684 717268 703078
3918.67 616612 659234 633340 604268 533684 534570
3921.56 508128 534900 520680 529192 436658 404998
3924.45 381904 335304 295236 312226 280092 275026
3927.35 244848 247674 241926 377290 567268 687538
3930.24 743926 619682 321540 208072 243472 319706
3933.13 335230 372880 377552 363434 342952 519674
3936.03 616304 551802 305438 194156 223162 278184
3938.92 242444 207032 239616 245572 216254 509422
3941.81 1044452 1222514 1050266 905632 688222 526710
3944.70 470918 572730 522582 403786 206350-9604
3947.60-1702 114224 48354 5634 46508 53248
3950.49 69586 71692-28112-35544-1258 67438
3953.38 223198 495272 555424 661182 762990 597798
3956.27 316412 236152 170600 81464-25068-26298
3959.17-31110-29240-11888 2210 43352 40826
3962.06-27520-21562 10068 56346 4370 6710
3964.95-10630-55760-142090-87218 14984 100378
3967.85 57600 37466-26972-85390-135608-121690
3970.74-7286 66524-3150-1116-25090-40994
3973.63-17796 14582-37986
##END=
