##TITLE=Ethylene Oxide
##JCAMP-DX=4.24
##DATA TYPE=INFRARED SPECTRUM
##CLASS=IUPAC A
##ORIGIN=NIST, Anayltical Chemistry Division, 301-975-3108
##OWNER=COPYRIGHT (C) 1998 by the U.S. Secretary of Commerce
##DATE=98/10/1
##$SPECTRA VERSION=1.00
##$UNCERTAINTY IN Y=2.1 % relative (B=1.1E-04,C=1.2E-09,D=2.7E-14)
##CAS NAME=1,2-Epoxyethane
##CAS REGISTRY NO=75-21-8
##MOLFORM=C2 H4 O
##MP=-111 C
##BP=13.5 C
##$NIST SOURCE=QUANT-IR
##SPECTROMETER/DATA SYSTEM=IFS66V (Bruker)
##INSTRUMENT PARAMETERS=KBr Beam splitter; MCT Detector; Multipass cell
##STATE=gas
##SAMPLE DESCRIPTION=Ethylene Oxide Primary Gas Standard
##PRESSURE=101.3 kPa
##TEMPERATURE=23 C
##SAMPLING PROCEDURE=1 L/min Flow
##RESOLUTION=1.9290
##DATA PROCESSING=Triangular Apodization
##XUNITS=cm-1
##YUNITS=(micromol/mol)-1m-1 (base 10)
##XFACTOR=1.0
##YFACTOR=4.5474E-13
##DELTAX=0.9645
##FIRSTX=574.687
##LASTX=3974.595
##FIRSTY=-3.76E-07
##MAXX=3973.63
##MINX=574.69
##MAXY=.0008931
##MINY=-5.56E-07
##NPOINTS=3527
##XYDATA=(X++(Y..Y))
574.69-828192-509784-158474-47932-752206-1223388
579.51-716018-487242-626824-501404-592142-528504
585.29-495760-728368-482798-234254-287170-263266
591.08-152924-224732-256696-664936-867274-408118
596.86-600778-904456-700278-330604-93692-173408
602.65-335272-474600-506174-791012-810276-555494
608.44-524422-465816-395038-421678-273660-272738
614.22-474744-462574-493664-471128-339592-327412
620.01-295386-290004-363082-374642-338514-386864
625.79-372990-405306-491908-531960-457024-334358
631.58-502864-499398-355626-453778-343386-282290
637.36-473258-437828-222066-120432-274424-434942
643.15-406828-389266-503482-519608-474246-412386
648.93-273192-300624-427596-377146-402914-312168
654.72-238020-340656-322400-326966-360202-321232
660.50-295608-184112-140446-303044-346364-457392
666.29-483436-334926-246072-238138-284076-291396
672.08-231512-279290-297126-262810-219736-97874
677.86-161420-257668-206192-46626-16452-142944
683.65-199754-297164-324690-262962-216306-195212
689.43-163396-220746-292150-277416-342088-338386
695.22-366896-325696-216508-283844-372244-247870
701.00-181748-212404-131812-243154-463580-436816
706.79-254630-233492-295776-327336-317448-194300
712.57-144098-245990-305984-344718-336906-223338
718.36-177906-141026-93556-74062-114328-187970
724.14-246864-322514-236326-99438-111770-107292
729.93-35628 40022 102428 103658 57468 103686
735.71 108724 80842 101638 166736 236948 280662
741.50 292944 363600 414086 376086 392854 458272
747.29 576322 599378 591790 631510 657410 827740
753.07 957866 954012 945280 1094214 1191978 1170798
758.86 1284372 1322948 1374592 1614508 1822542 1967676
764.64 2048190 2211080 2410530 2460214 2689580 3008774
770.43 3133144 3324996 3739430 4061858 4377132 4861442
776.21 5185778 5568190 6171978 6692320 7228370 7925224
782.00 8392238 9128914 9953816 10730410 11781530 12833420
787.78 13675790 14853770 16021930 16935110 18087870 19598560
793.57 21075320 22144450 23515470 25038030 25961920 27357950
799.35 28972540 30053190 31423830 32564410 33616290 35537520
805.14 37823030 44050160 50508510 51661020 51883350 53099960
810.93 53617090 54629080 57494120 60855880 62046130 59839490
816.71 57414560 73072240 107254400 139415900 132115800 77653300
822.50 46099030 46367670 50589100 56974050 62578360 70861060
828.28 81961270 94509780 110961000 129526500 148578700 170862400
834.07 193436100 216256600 239215500 260173400 275878100 278555900
839.85 270766100 263815100 261485900 259449400 262185000 267968600
845.64 273366600 285624700 296586100 309056600 324851300 339660100
851.42 353087400 367258500 380893600 388362100 397214100 401070400
857.21 397639900 394098300 385263600 370843600 354271600 338639700
862.99 329367700 330023400 337503500 354894100 384203600 428694100
868.78 484890200 536220600 567138400 553065000 477299800 350442800
874.57 212297700 133334200 164966800 277112200 376777100 419301100
880.35 429671800 418713100 392504200 361398200 332268400 313255300
886.14 299421300 288114300 283019100 281026900 278885700 277905500
891.92 278687100 279894700 278252100 277668700 278065900 274172600
897.71 271395700 269286900 263298600 257236700 252774300 244188800
903.49 236371400 230098100 219540700 210942800 202195300 192396900
909.28 182099300 172746400 163998400 152658900 143639500 134862100
915.06 125408400 116236600 108472600 100291200 91586580 85441820
920.85 77940280 70985250 65371590 59454100 54026760 48989260
926.63 44287570 40054490 36488410 32491440 29130100 26476130
932.42 23550960 21061060 18924470 16860600 15098850 13443360
938.21 11838210 10576650 9509682 8385050 7372714 6604974
943.99 5895826 5167622 4604896 4138570 3581500 3210414
949.78 2957158 2519764 2209882 2021950 1751876 1513878
955.56 1335516 1240508 1148716 1016914 876880 780430
961.35 751474 663294 524440 450488 367466 353524
967.13 362166 325792 268824 166448 119428 185042
972.92 213890 141682 112676 113820 133312 108006
978.70 45978 6044-12858-24678-7434 30912
984.49-2732-20940-19418-72334-127652-108280
990.27-94054-82286-90068-100624-92146-95592
996.06-94640-145014-174702-119606-83374-124826
1001.85-167158-154798-136830-121028-161370-198520
1007.63-122996-69414-118090-99234-46774-99438
1013.42-141160-109828-121036-143588-102806-118644
1019.20-152520-133610-123232-132342-108768-60228
1024.99-70182-45076-8534 209198 617742 483742
1030.77 104846 22272 26702 33544 28998 14076
1036.56 28258 53380 61510 172186 211488 210324
1042.34 259562 266602 320812 328748 290960 353970
1048.13 468998 460802 429576 496840 527794 554406
1053.91 655038 799714 855264 803598 835562 877474
1059.70 972744 1104780 1200658 1309880 1301912 1510006
1065.48 1635474 1630876 1699142 1741868 1869020 1998194
1071.27 2107870 2130630 2208532 2360916 2465922 2602748
1077.06 2744900 2805596 2986784 3009614 3225710 3438886
1082.84 3427672 3606878 3704100 3899078 4009756 4052510
1088.63 4133126 4258842 4366104 4467586 4718956 4751930
1094.41 4866306 5096544 5246776 5334328 5429946 5770434
1100.20 5911722 6118452 6460164 6776976 6975034 7309592
1105.98 7803872 8192676 8478568 8917550 9518610 9980496
1111.77 10419750 11037360 11576390 12004710 12396670 12845940
1117.55 13128440 13366890 13671450 13818510 13769700 13719220
1123.34 13886320 14636300 15789410 16209930 16451680 16932600
1129.12 17786910 19225630 20306440 21165750 22126610 22005300
1134.91 21167020 19676290 16743450 15438930 15875750 23019910
1140.70 38225920 41991260 37145360 33975140 29131730 21414720
1146.48 13611140 11042210 17980180 31566410 33761240 26782290
1152.27 23792280 23283160 21854370 18734910 15322330 12915550
1158.05 11853080 11509980 12136270 13520380 15025590 16308450
1163.84 17732260 18871970 19340910 19556580 19838510 19631870
1169.62 19007500 18529510 17994740 17219290 16352290 15882370
1175.41 15233180 14401140 13782670 13388800 12703060 12189810
1181.19 11835120 11386020 10835380 10582780 10240310 9769920
1186.98 9520416 9294902 8785336 8529608 8358132 8135814
1192.76 7756570 7582116 7265952 7002060 6833224 6749598
1198.55 6442424 6157152 6190356 6031826 5862424 5730274
1204.34 5822920 5621136 5647830 5629920 5694270 5772466
1210.12 5987660 6097436 6291582 6623068 6881026 7286732
1215.91 7714534 8263910 8924194 9648802 10458210 11312060
1221.69 12317300 13387190 14526270 16023940 17332190 18916190
1227.48 20805850 22446550 24319050 26393440 28688030 30677040
1233.26 33131830 35693210 37910440 40569110 43032500 45600350
1239.05 47870380 50380750 52773020 54540610 56911900 58717690
1244.83 60108570 61896240 63206530 63920980 64902560 65608460
1250.62 65409160 65544040 65240410 64291740 63638560 63240940
1256.40 63374980 64299850 66737440 70456420 74402700 79399300
1262.19 86065170 92575350 97229610 97281500 89267620 71728460
1267.98 47622080 29068820 30707440 53034000 80327480 97940930
1273.76 103535400 101026000 94370530 86069980 78216980 72882140
1279.55 69496740 66988100 66019800 66231140 66553190 67117860
1285.33 68006820 69102540 69401450 69566040 70032620 69238310
1291.12 68366980 67507010 65685840 63549690 61711560 59025740
1296.90 56071480 53549600 50185330 47143960 44023600 40899600
1302.69 37781680 34669420 32061310 28986100 26438260 24069530
1308.47 21666470 19455710 17597840 15842940 13923060 12705600
1314.26 11315920 9961348 8926682 7858518 6979920 6213082
1320.04 5565818 4891866 4284158 3720660 3245996 2906950
1325.83 2534010 2200778 1932592 1682592 1464324 1245138
1331.61 1066914 910010 770564 655214 514100 439928
1337.40 364700 270156 241768 178988 144338 125062
1343.19 92640 85804 22786-16190 15576-11924
1348.97-79888-123332-194846-191930-204198-203914
1354.76-151050-166272-200634-203728-220566-222340
1360.54-200196-165842-158190-158192-101708-166114
1366.33-214688-155522-160304-156920-143780-186860
1372.11-202606-170468-131306-145358-163258-134152
1377.90-122864-89182-70086-73340-104090-102994
1383.68-93538-106688-104748-92290-60942-42806
1389.47-67218-109254-97176-111220-117620-98292
1395.25-98074-97968-142488-146386-51038-40258
1401.04-119700-137810-119570-133890-120006-152006
1406.83-219838-199120-182932-226616-236932-222640
1412.61-224518-185124-180154-178820-168760-147666
1418.40-94796-111438-125858-76774-31896-526
1424.18 29992 91890 149268 188948 255568 336174
1429.97 404230 508064 659906 751060 838882 992092
1435.75 1152492 1272104 1321416 1427408 1600714 1749044
1441.54 1877520 2026156 2104862 2193412 2339118 2474564
1447.32 2549314 2583188 2558002 2619574 2681640 2673668
1453.11 2684216 2692444 2695926 2737034 2718834 2706762
1458.89 2677116 2692064 2761480 2911684 3024972 3239920
1464.68 3346318 3598524 3677930 4160814 4322152 7161276
1470.47 11333590 7854082 4808292 5163990 5190750 5530672
1476.25 5646458 5774472 5748166 5847890 5867416 5907030
1482.04 6012154 5836310 5538330 5755860 6088868 6411438
1487.82 6768684 7252262 7818396 8289642 8518842 8325804
1493.61 7410834 5831582 3875220 2445674 2839376 5074106
1499.39 7195502 8059032 8271384 7937556 7235010 6589274
1505.18 6072700 5738784 5462102 5302702 5321484 5356608
1510.96 5408266 5542960 5673404 5772952 5785042 5895348
1516.75 5974994 5904182 5920852 5963056 5847506 5664204
1522.53 5493288 5230974 5068208 4846160 4578682 4336132
1528.32 4093370 3877576 3530316 3271748 3047310 2786348
1534.11 2532006 2320634 2119456 1923890 1816370 1639378
1539.89 1433926 1254664 1067542 948288 855866 740582
1545.68 621284 500450 432242 428480 346646 289768
1551.46 311548 276220 248230 212138 182014 225472
1557.25 330836 343368 344632 287782 209534 241354
1563.03 266576 287766 318804 370882 431626 455092
1568.82 558382 566550 577412 667092 711348 778906
1574.60 949414 1075588 1042062 1099702 1223186 1269584
1580.39 1383072 1466838 1633854 1591164 1803222 1892206
1586.17 2057902 2184840 2226792 2426306 2493770 2692464
1591.96 2798212 2927194 3079928 3248140 3316970 3616678
1597.74 3642802 3921592 3933918 4229708 4301712 4471094
1603.53 4652968 4739102 5017826 5130388 5324804 5476176
1609.32 5633070 5725554 5973660 6041916 6181376 6417492
1615.10 6667214 6839204 6905320 6878804 6731802 6777666
1620.89 6599458 6536894 7016904 8310298 10197810 9742172
1626.67 7806012 7103614 6853034 6931846 7323942 7499096
1632.46 8230216 9652756 10331100 10200950 9942942 8823564
1638.24 8424416 11617370 18896580 24901390 22295900 15018000
1644.03 11172240 12434100 14669450 14062370 12673460 11540340
1649.81 10545230 9894366 9275260 8612516 7946430 7449952
1655.60 6963352 6557950 6259326 5877342 5509410 5287442
1661.38 5071522 4712898 4507266 4192854 3853562 3698022
1667.17 3427040 3172720 2925868 2646060 2408042 2076230
1672.96 1812182 1639346 1443336 1181740 928946 768202
1678.74 623782 470462 310164 164858 42406 238188
1684.53 394970 109178-78048-161310-240900-220092
1690.31-239210-237970-196006-88828 130752 262908
1696.10 336488 437108 512842 613418 615442 595442
1701.88 609924 647622 721158 791486 916448 1043184
1707.67 1134558 1243068 1387592 1522228 1570276 1613030
1713.45 1715244 1732826 1645604 1621008 1561052 1406790
1719.24 1227456 1110976 1022700 932684 842680 698472
1725.02 594378 529784 505374 469126 436746 495940
1730.81 552570 620336 686374 698624 690156 657306
1736.60 622850 562050 511904 475068 434402 457070
1742.38 588740 1079684 1864582 2146504 1853782 1368026
1748.17 794832 368658 255944 494602 801992 859196
1753.95 829850 857806 836496 795878 739462 664456
1759.74 599248 576430 530276 486042 468440 456286
1765.52 471168 524742 573724 505574 524106 580202
1771.31 560616 511736 412588 391212 376706 351222
1777.09 302964 236248 217248 181356 143016 86152
1782.88 65534 85756 41948-20792-64024-109472
1788.66-100698-88428-112794-110860-147210-178192
1794.45-173404-207086-184972-148668-166218-184234
1800.24-196484-128806-53632-111486-95810-44462
1806.02-71432-29354-27092-36770 69690 177394
1811.81 189772 138396 132112 181956 176000 152042
1817.59 236604 238088 191816 212408 166620 132134
1823.38 149800 111538 35746 45298 13086 74344
1829.16 166198 97268 111520 171294 223898 441210
1834.95 824160 1359016 1713326 1060788 251970 123818
1840.73 111628 12544-76284-133578 29482 270988
1846.52 254922 236392 199374 191374 255246 243188
1852.30 240862 308728 341082 350548 359158 319762
1858.09 317030 344700 298662 270112 290662 268672
1863.88 243504 183984 137768 157322 116698 64962
1869.66 23788-21770-2284-44602-108732-83904
1875.45-97780-115378-144900-201688-172560-132160
1881.23-96670-107350-105908-58760-107518-104316
1887.02-76092-20708 47618 28560 48784 70712
1892.80 24522 43104 108596 124164 167542 208408
1898.59 231664 268336 271480 277358 357326 345900
1904.37 309730 345696 426792 458686 413112 457244
1910.16 504296 463658 412648 450376 495976 474424
1915.94 464416 529500 571930 533232 541498 601154
1921.73 692726 833532 932146 1035258 1230310 1495332
1927.51 1945952 2538308 3248370 4141604 5372770 6735316
1933.30 7473674 5552190 2559516 1542382 1240456 1087132
1939.09 1164052 1155936 1106034 1153056 1199382 1181546
1944.87 1189186 1201348 1266730 1361798 1447910 1589924
1950.66 1766650 1931654 2066682 2145876 2286668 2383576
1956.44 2439288 2517574 2619494 2728628 2706110 2681472
1962.23 2452566 2142744 2139600 2253636 2441432 2544588
1968.01 2555316 2582246 2546948 2536262 2618084 2717408
1973.80 2920584 3259550 3272910 3121350 3132928 3068688
1979.58 3002612 3089110 3421240 3675214 3369916 3179988
1985.37 3338726 3507042 3649718 3844354 4098222 4344022
1991.15 4597394 4847380 5043866 5170348 5328470 5465028
1996.94 5571116 5589972 5551284 5561984 5487428 5362394
2002.73 5328984 5218212 5089422 5262810 5559086 5885816
2008.51 6272296 6680166 7128224 7467342 7481482 7162598
2014.30 6337860 5102288 4893622 5959018 6630080 5327010
2020.08 3377978 2415904 2349110 2648452 2828046 3091564
2025.87 3468306 3719134 3943860 4160388 4291786 4341986
2031.65 4363506 4440864 4608620 4830492 4948834 4975032
2037.44 4942870 4858668 4686340 4534848 4329042 4153516
2043.22 4008510 3814068 3681866 3550956 3356648 3213166
2049.01 3117174 3001194 2902044 2760782 2602372 2486468
2054.79 2363362 2264470 2227308 2292958 2341996 2302906
2060.58 2183928 2107024 2083760 2059912 2003538 1963382
2066.37 1949066 1980976 2067654 2156508 2257622 2478228
2072.15 2881258 3143816 2681656 1915160 1825918 2128870
2077.94 2330766 2554836 2533590 2223424 2475300 4646258
2083.72 4969210 2402966 1400004 1434832 1567774 1765488
2089.51 1788406 1680440 1720562 1945864 2380550 2786296
2095.29 3161720 3687096 4338538 4969448 4869140 4506210
2101.08 4358522 4263404 3977604 3711702 3572736 3577580
2106.86 3556368 3420990 3366526 3483392 3492712 3317398
2112.65 3257660 3275572 3393284 3264882 3113670 3080488
2118.43 3023206 2793232 2524546 2401442 2364714 2236724
2124.22 2119300 2169160 2375778 2581672 2688658 2851636
2130.01 2979788 2810210 2246844 1572050 1048912 1104452
2135.79 1667792 2327626 2713350 2849898 2867548 2749582
2141.58 2591360 2424790 2289712 2180010 2107376 2026340
2147.36 1951594 1885566 1875932 1869888 1822460 1837298
2153.15 1895626 1905326 1783806 1767788 1904820 1873728
2158.93 1817788 1975528 2076752 1964452 1853582 1970784
2164.72 2023068 1984072 2350270 4042994 4527836 2583734
2170.50 1486314 1404442 1331188 1197648 1305000 1860456
2176.29 2715268 3067980 2207376 1324296 967038 871914
2182.07 959830 927852 950638 1187098 1335988 1192544
2187.86 1110318 1197300 1204156 1190510 1313024 1369670
2193.64 1312922 1377194 1518758 1425496 1339872 1420036
2199.43 1385302 1371012 1458884 1519918 1460786 1503356
2205.22 1573118 1618972 1658764 1747326 1929960 2023760
2211.00 2103040 2097836 2203118 2274832 2374378 2572434
2216.79 2654508 2861668 2993062 3155538 3316824 3445592
2222.57 3683584 3852248 4038490 4225574 4465862 4658674
2228.36 4819476 5084118 5429556 5687686 5814872 5939450
2234.14 6081136 6235526 6442490 6643134 6807540 6894376
2239.93 7089488 7405042 7571278 7967978 8318754 8208776
2245.71 8014532 8011738 8077732 8168826 8383644 8568702
2251.50 8732590 8978880 9261806 9442068 9603266 9604228
2257.28 9301130 8247852 6658976 6150212 6146016 5632074
2263.07 5148372 4870174 4880686 5164492 5618300 6864752
2268.86 8361602 9009806 9321420 8989378 8602488 8791376
2274.64 8740024 8763556 8804244 8900044 8937008 8889796
2280.43 8981686 8885138 8406826 7773568 7212192 6654798
2286.21 6196360 5738946 5548452 5371814 5119374 4949456
2292.00 4919926 4949696 5043414 4906712 4477428 4331598
2297.78 4874630 6757896 6449830 4292622 3659082 3542128
2303.57 3443832 3231928 3065656 2939410 2939490 3475756
2309.35 5049670 6122606 4418384 2844220 2719062 2724136
2315.14 2786402 2904330 3238172 3362604 3307098 3197964
2320.92 3154862 3183352 3190672 3115446 3061304 3087142
2326.71 3065976 2966424 2887856 2730222 2543660 2355866
2332.50 2161470 1962782 1787906 1656422 1581872 1554226
2338.28 1497502 1347174 1210480 1077620 1078620 1059252
2344.07 983018 1117358 2564238 2911384 1358724 835964
2349.85 809756 713710 671608 652968 577574 567864
2355.64 524736 488888 417084 428682 485196 450124
2361.42 450480 454744 517216 520916 524214 535322
2367.21 527210 510916 564520 609636 601630 635538
2372.99 652600 670216 657470 620898 584622 613952
2378.78 640442 634040 592386 602632 616722 556464
2384.56 503664 488660 506282 478388 461288 551678
2390.35 675604 594276 532778 579662 567508 490984
2396.14 429400 456638 468214 413938 384026 419968
2401.92 427148 424846 462926 479444 460658 401602
2407.71 343122 405354 382270 248200 168754 116760
2413.49 78326 85326 109030 98554 111812 114520
2419.28 108350 140240 147270 139680 172438 191026
2425.06 156684 170904 197364 229334 266708 231314
2430.85 181134 150684 147484 160394 141404 153174
2436.63 150718 139258 136502 125698 144132 164748
2442.42 167596 171414 230962 250186 105116 67118
2448.20 147706 228098 179592 56934 28230 35876
2453.99 137196 305072 474740 500338 416982 256392
2459.77 167046 126644 77590 46594 30004 17194
2465.56-52332-58976-100684-156362-145696-162954
2471.35-217044-202728-215808-259306-233844-219246
2477.13-262944-343418-418168-409800-385468-436526
2482.92-460918-446186-456828-475578-487936-525260
2488.70-553798-570244-551408-583462-601918-550046
2494.49-403580-322762-319604-286098-267632-302996
2500.27-361886-369046-368802-345364-315666-333630
2506.06-442960-433836-394242-469804-460770-431276
2511.84-513902-553548-549264-550756-564652-569166
2517.63-552744-570326-624068-618160-600042-602632
2523.41-607562-630572-654326-652744-630364-678408
2529.20-687426-730014-864296-937522-909010-770232
2534.99-530932-296924-166790-55272-46526-154830
2540.77-279358-424394-537926-646346-713188-733392
2546.56-767210-786596-774628-734600-663366-627372
2552.34-638892-598166-531302-458048-388100-343480
2558.13-325554-294280-235988-250022-319390-319966
2563.91-223246-142122-150936-116548-12510 538
2569.70 6504 107726 109096 112976 209208 293042
2575.48 301978 325736 450986 483164 504654 646330
2581.27 754794 782066 848900 891892 953442 1090952
2587.05 1197414 1249958 1267842 1378464 1423436 1359298
2592.84 1289386 1379710 1539060 1551818 1628284 1701736
2598.63 1697262 1730428 1892850 1959410 1940202 2006334
2604.41 2114220 2201340 2389972 2824570 3293690 3440372
2610.20 3385644 3174990 2490064 1606440 1281890 1519212
2615.98 2442212 3610102 4103062 3925098 3193358 2704996
2621.77 2523234 2404192 2334546 2244622 2192784 2157992
2627.55 2209646 2373032 2571784 2689954 2713332 2639622
2633.34 2589724 2596558 2543362 2419474 2333768 2222660
2639.12 2060690 1882558 1708182 1591006 1471368 1388334
2644.91 1297948 1235804 1132140 992662 909222 805256
2650.69 734930 628018 505354 450610 370860 355046
2656.48 359134 240834 163948 91074 28984 20500
2662.27-38708-97818-84592-88188-182128-200336
2668.05-164708-164482-135068-152578-168854-210530
2673.84-241208-206082-235374-269526-265040-258778
2679.62-274740-323598-325088-287548-259358-229994
2685.41-238782-264674-274028-249804-233534-234518
2691.19-210292-204156-229748-254216-253550-219846
2696.98-211562-203768-197458-214154-146028-93266
2702.76-81528-30030-5444 62490 148910 166900
2708.55 162298 138740 122748 147270 145422 163296
2714.33 186194 226942 266872 236878 316400 398544
2720.12 355620 318410 316692 327412 343142 410896
2725.91 489830 491518 499134 491900 499484 527274
2731.69 495698 565446 654126 621072 695824 712162
2737.48 1181104 2399448 1784046 750944 830562 779354
2743.26 841222 860582 842246 822926 833092 840682
2749.05 863330 971230 1057310 1211366 1345032 1422028
2754.83 1452224 1259890 1150000 1143176 1155524 1148774
2760.62 994694 910360 913850 972752 1121708 1132710
2766.40 1050638 1012202 1023824 1002606 948964 874784
2772.19 812922 746922 604358 552418 597998 491658
2777.97 434628 444352 373740 378004 414666 407876
2783.76 380784 367572 375620 376474 318882 270204
2789.54 218832 173652 195802 173412 101202 82242
2795.33 154252 195766 120704 103884 106370 49926
2801.12-51736-86448-43998-39642 20296 58264
2806.90-10238-76266-76156-56848-119548-166146
2812.69-150696-116940-105572-142292-94426-55788
2818.47-94378-85898-99252-104886-109648-110702
2824.26-67560-73104-109828-70352-14848-37528
2830.04-111666-146936-101708-35500-39484-26564
2835.83 38406-692-16808 77042 133404 126312
2841.61 134648 191730 184112 158376 231934 354592
2847.40 439154 459322 503920 581912 584446 585512
2853.18 671998 667526 635696 682394 806462 934762
2858.97 1016624 1110062 1215682 1333690 1454068 1635408
2864.76 1813678 1950732 2067872 2285370 2548670 2766018
2870.54 3039002 3364022 3714448 4074890 4512122 5098260
2876.33 5655324 6294100 7017520 7741278 8677486 9764996
2882.11 10855710 12109300 13693600 15353310 17099110 19156860
2887.90 21279160 23414930 25957620 28592650 31317150 34364030
2893.68 37498510 40716700 44477230 47771460 50918700 54783680
2899.47 57919610 60723330 64612200 67280690 69202010 72460690
2905.25 74442030 75598070 78043420 78789620 79292390 80717790
2911.04 80451840 80405750 81611790 81049300 81414200 82677700
2916.82 82583220 83063220 81936060 77126380 72927900 68162320
2922.61 64221920 63716590 65062850 66081150 74959930 77520110
2928.40 118057600 312863700 287662000 97451730 72688140 70960900
2934.18 74383210 76743670 79284700 80887320 83018360 86312780
2939.97 89127430 91990540 96126270 98987860 102231300 105836600
2945.75 107634700 109876700 111972500 112495600 113845800 113695200
2951.54 112976900 113154200 111217200 110021900 109237400 106549500
2957.32 105529700 105014600 103715900 105277900 107166700 106578700
2963.11 105854300 103414000 98935030 92422030 84428190 80583540
2968.89 84263940 95174670 105884400 111762600 115006900 117598600
2974.68 118794800 119305400 122177200 126436600 128560100 132650500
2980.46 137421100 140031900 143938300 147964900 149630500 153167200
2986.25 154863600 154825200 156364300 156922400 155069500 155268900
2992.04 152787900 149753500 148690700 147626800 145499800 150256300
2997.82 155800300 153800200 142826200 137281100 130732500 140803100
3003.61 171683300 430741100 531207000 247470600 142145700 147326200
3009.39 152199000 171698500 182287400 187868400 185699300 184532700
3015.18 178907800 172813600 172454700 189145300 215248700 236226400
3020.96 249605300 258084500 258876400 257529700 258893000 259828000
3026.75 260220700 263613000 265033000 263026500 266795700 266142600
3032.53 261500100 263091000 260570300 254294800 251419700 248461100
3038.32 241541000 233992900 230348200 222097500 214714600 208825500
3044.10 197182500 183766900 175361500 166631600 153509600 144734600
3049.89 137257600 126291800 116316900 108741900 100529800 93582930
3055.67 92752690 91516110 98935540 119094000 156474500 178107100
3061.46 183357700 222254900 598203000 1964111000 1768623000 371531700
3067.25 154550900 111268700 87110520 79764410 74731020 71082430
3073.03 69880640 69652570 74701720 80036810 83993470 91797880
3078.82 99942620 104806200 113424600 121386200 124243400 130201600
3084.60 138024900 139411100 142744300 148577700 148280500 149536100
3090.39 153537500 152112600 150292400 151887200 149533400 145562800
3096.17 145143800 141411100 135834800 133621700 129054400 122312300
3101.96 119192400 113954000 106772800 102596300 97006430 90110760
3107.74 85734290 80502260 74324920 70259280 66333740 60476880
3113.53 54977760 50775720 46844090 43612610 39837840 35889920
3119.31 32790330 29679060 26712950 24260860 22064930 20174220
3125.10 18630700 16746660 14724230 13173590 11833340 10730870
3130.89 9796870 8845202 8023700 7352718 6625740 5905838
3136.67 5421756 4938710 4470358 4175192 3802678 3304654
3142.46 3003774 2785726 2486138 2219770 2090736 1895726
3148.24 1709548 1577500 1479896 1420142 1221456 1127400
3154.03 1005446 806516 749850 727582 704782 632120
3159.81 564924 519022 480522 374786 359522 374820
3165.60 304876 294784 263076 291170 394390 287348
3171.38 232540 427396 463162 330480 294048 254562
3177.17 118616 24896 40740 64530 33812 91926
3182.95 91052-22984-28114 55892 30098-4320
3188.74 39524 86764 128590 107048 54124 21894
3194.53 93044 63880-46924-42208 16184 86962
3200.31 86632-54944-158472-73916-62492-149598
3206.10-190158-88596-44038-116462-189588-163916
3211.88-101086-146034-156766-166076-171162-124090
3217.67-153412-93624 72566-53184-224178-243988
3223.45-234954-232502-248726-257100-256314-181106
3229.24-201662-260930-291908-212582-146022-208886
3235.02-248980-205932-224018-299938-308258-312842
3240.81-303764-210050-133184-214150-271232-205754
3246.59-206726-217562-239460-331790-357946-315002
3252.38-272930-311198-231378-116824-243518-362136
3258.17-452180-368902-293978-307628-309222-309432
3263.95-260764-310376-374608-451558-498204-450818
3269.74-399234-398098-367734-367532-296670-272434
3275.52-308546-266566-319276-424508-604298-740094
3281.31-713588-670276-627534-573092-531584-460176
3287.09-439914-457672-463594-502520-511988-589890
3292.88-585298-512456-474684-471166-579890-506972
3298.66-452724-524044-540440-390100-304500-353870
3304.45-312778-325390-372006-463478-467726-395828
3310.23-392700-401716-376244-392252-383124-378264
3316.02-443022-390564-388880-421434-395862-376132
3321.80-391138-328950-237884-250776-269044-338184
3327.59-414078-377256-392776-342254-226256-262390
3333.38-275934-358436-421288-321402-263900-331756
3339.16-425604-347216-343390-367388-308530-415772
3344.95-414106-313956-283782-261950-293690-327986
3350.73-289024-310916-357940-316284-256684-290586
3356.52-273370-246522-271242-204908-243428-315674
3362.30-298174-332862-364372-254036-300450-368268
3368.09-244726-306370-367312-317546-355832-276550
3373.87-254162-346580-327134-288478-381526-407902
3379.66-368244-381516-392372-385702-263776-244276
3385.44-329282-344108-419448-417100-360606-238950
3391.23-139670-226158-373494-418774-409070-416720
3397.02-370824-343586-318400-242372-305474-457238
3402.80-434382-349852-272410-220264-304304-340428
3408.59-221572-210426-241796-236958-241866-186480
3414.37-191298-301738-277160-168758-215716-259928
3420.16-183286-186188-216688-325464-416356-371512
3425.94-348996-318844-328644-239176-177496-236614
3431.73-288264-313116-371842-327462-220388-279392
3437.51-364632-331336-241036-226864-272224-379606
3443.30-384188-253980-216010-282156-293644-242596
3449.08-292348-252122-202232-251786-277138-217848
3454.87-209030-281280-231838-265252-339614-330710
3460.66-337254-373196-416030-414688-326788-202594
3466.44-125212-234186-285860-219524-213902-181496
3472.23-130204-180410-342200-400202-364768-393004
3478.01-354742-335506-344258-293296-353584-351056
3483.80-225076-145468-219436-334528-399038-371760
3489.58-353056-317314-290656-356612-390914-355258
3495.37-346694-365824-339556-304000-306878-214662
3501.15-128806-288490-351478-321368-316716-301066
3506.94-283484-292356-335018-331680-347282-342214
3512.72-331568-376676-339132-274076-307908-339188
3518.51-294148-240948-263906-278294-273126-296782
3524.30-397046-478946-457826-396542-415964-450510
3530.08-395132-324292-317906-320066-359286-345090
3535.87-237566-208978-273954-382342-393630-336102
3541.65-306758-303840-322804-363790-309998-337624
3547.44-370614-322184-333224-377490-445200-450550
3553.22-369654-352274-360560-378010-431044-433070
3559.01-342278-306844-373200-419934-411968-413498
3564.79-348044-308564-366614-415094-454070-451494
3570.58-384740-344686-528520-497844-326546-312546
3576.36-336260-397654-354914-315620-350250-366782
3582.15-326372-314682-360604-392386-310094-279740
3587.94-323136-343410-501810-504860-362018-322734
3593.72-315544-215790-273898-419406-479054-466808
3599.51-338696-310614-319486-330738-402330-381542
3605.29-367456-383848-306396-264698-259080-321858
3611.08-317004-256036-302966-314150-268018-309092
3616.86-331764-285506-249174-229084-182718-265498
3622.65-384644-279642-230554-219674-231184-216890
3628.43-174392-279310-312424-321494-322912-252996
3634.22-176326-163256-227620-214042-268536-386032
3640.00-321990-274970-288944-285200-317412-344852
3645.79-331548-275488-221396-180314-196476-252360
3651.57-265602-264216-329724-333644-277594-300010
3657.36-348248-410572-375748-267590-284334-313060
3663.15-305140-311576-268440-178176-201192-201660
3668.93-93542-12948-112736-265154-247124-105732
3674.72-16378-90602-91640-20018-33696-60794
3680.50-14988 34192 12484 96616 140902 202770
3686.29 262636 251026 336958 360834 304018 305674
3692.07 335510 385080 385206 358562 421398 412778
3697.86 417298 481962 524944 561654 580358 602940
3703.64 702384 675678 613006 714442 750644 715280
3709.43 756892 862802 999458 985990 1016950 1132040
3715.21 1193272 1127622 1219744 1411152 1534048 1677570
3721.00 2074480 2387110 3885890 5265664 3157524 1569802
3726.79 1681970 1715876 1746730 1639970 1763020 1855234
3732.57 1857700 1830910 1720976 1735728 1809460 1812806
3738.36 2079496 2553094 3216482 3649622 2996800 2308862
3744.14 2255676 2202640 2226318 2221240 2308956 2478822
3749.93 2788068 3228008 3184700 2881524 2706676 2688290
3755.71 2785368 2849358 2891298 3005214 3259872 3472730
3761.50 3619840 3747564 3643708 3544972 3829946 4536664
3767.28 5134080 5004818 4484794 4154870 3854508 3470654
3773.07 3045338 2886996 2921508 2895990 2913758 2792450
3778.85 2852512 3253352 3763972 4223858 4045364 3347738
3784.64 3125706 3335540 3453256 3452202 3572140 3634746
3790.43 3652756 3796844 3801458 3784070 3957250 4150608
3796.21 4235734 4388936 4492680 4537610 4772960 5032452
3802.00 5028690 5103008 5353944 5436620 5287126 5244922
3807.78 5491544 5787462 6251790 6603838 6792366 8255262
3813.57 11452320 14450930 11566270 6372584 5260526 5470472
3819.35 5501502 5338084 5272972 5049240 5093186 5818388
3825.14 6888132 7816408 9362268 10951850 11214650 9066008
3830.92 6312952 5852012 6518684 7385792 7783246 7688062
3836.71 7525772 7304370 7335952 7539996 7826522 8114656
3842.49 8560934 8924828 9241416 9605546 9798148 9796790
3848.28 9507444 9171530 8992146 8816214 8587086 8501522
3854.07 8180738 7770900 7566270 7535118 7598166 7697146
3859.85 7784610 8001748 8430528 8716168 8383400 7517444
3865.64 7032384 6980414 8059470 10411790 12107160 12786800
3871.42 11929470 9120888 6887238 5945230 5081134 4329970
3877.21 3587692 3210654 3429490 3419178 3447586 3467722
3882.99 3116970 2965900 3088846 3108246 3121088 3294076
3888.78 3368798 3453994 3615866 3667132 3779228 3903336
3894.56 3810964 3927306 3954380 3965708 4029510 3788726
3900.35 3708424 3762556 3697672 3519182 3488568 3411692
3906.13 3252794 3142248 2980404 2810392 2649882 2523644
3911.92 2265644 2073008 1979952 1839338 1740602 1588996
3917.70 1410312 1322680 1223716 1108398 1081466 1015842
3923.49 867190 736438 661188 610312 592702 833054
3929.28 1236210 1070784 643200 651778 761386 767952
3935.06 973908 931612 595174 541690 561244 578696
3940.85 1201694 1934060 1666604 1147860 1028912 733966
3946.63 265450 167134 150598 152488 139780 61974
3952.42 291090 794238 1180798 999958 521930 205756
3958.20 31072 2776 56574 53284 25580 54476
3963.99 29084-91904-74162 91410 55608-119552
3969.77-114598 26294 2390-28416-19638
##END=
