##TITLE=Ethylene Oxide
##JCAMP-DX=4.24
##DATA TYPE=INFRARED SPECTRUM
##CLASS=IUPAC A
##ORIGIN=NIST, Anayltical Chemistry Division, 301-975-3108
##OWNER=COPYRIGHT (C) 1998 by the U.S. Secretary of Commerce
##DATE=98/10/1
##$SPECTRA VERSION=1.00
##$UNCERTAINTY IN Y=2.1 % relative (B=1.1E-04,C=1.2E-09,D=2.7E-14)
##CAS NAME=1,2-Epoxyethane
##CAS REGISTRY NO=75-21-8
##MOLFORM=C2 H4 O
##MP=-111 C
##BP=13.5 C
##$NIST SOURCE=QUANT-IR
##SPECTROMETER/DATA SYSTEM=IFS66V (Bruker)
##INSTRUMENT PARAMETERS=KBr Beam splitter; MCT Detector; Multipass cell
##STATE=gas
##SAMPLE DESCRIPTION=Ethylene Oxide Primary Gas Standard
##PRESSURE=101.3 kPa
##TEMPERATURE=23 C
##SAMPLING PROCEDURE=1 L/min Flow
##RESOLUTION=1.9290
##DATA PROCESSING=NB Strong Apodization
##XUNITS=cm-1
##YUNITS=(micromol/mol)-1m-1 (base 10)
##XFACTOR=1.0
##YFACTOR=4.5474E-13
##DELTAX=0.9645
##FIRSTX=574.687
##LASTX=3974.595
##FIRSTY=-3.96E-07
##MAXX=3973.63
##MINX=574.69
##MAXY=.0009594
##MINY=-6.03E-07
##NPOINTS=3527
##XYDATA=(X++(Y..Y))
574.69-871624-569606-114152-69474-796694-1328046
579.51-792404-550170-625896-575870-605318-594140
585.29-537420-805844-505372-298368-271830-311220
591.08-142352-251206-273960-761206-897304-509238
596.86-636628-1011276-752362-391834-62266-210804
602.65-327864-548272-545458-903728-857834-663328
608.44-539920-541580-417926-483130-281344-341430
614.22-491670-558462-532718-553986-367176-395024
620.01-308828-364996-384956-453976-368000-461062
625.79-401764-488208-537142-623804-491500-421610
631.58-539056-585088-408320-525740-376750-368870
637.36-518846-525016-251030-176770-305734-517332
643.15-460484-481696-560006-622548-538398-492810
648.93-315498-380986-475852-480820-454912-398034
654.72-285726-425224-375746-428732-413496-428494
660.50-338506-269252-177692-393088-412216-583258
666.29-554880-448882-295624-336636-342180-395266
672.08-297118-386192-369330-376292-278942-198000
677.86-227474-371788-276124-144328-68574-241342
683.65-279006-425366-413868-388952-295368-303250
689.43-241036-335704-379600-406842-437998-475080
695.22-470834-451668-313104-418220-472050-387814
701.00-275582-329338-222648-389038-585218-599876
706.79-369794-374004-409462-489130-437406-341284
712.57-256328-396360-443346-522532-479002-394610
718.36-309768-301038-221736-235028-251038-368446
724.14-415388-524016-403906-293376-272968-303020
729.93-205698-149642-61622-93860-118148-107222
735.71-81142-141564-100376-61604 37650 48676
741.50 89756 126636 200580 124396 160952 198334
747.29 344048 335166 344320 340598 396404 541962
753.07 697402 655742 667120 778256 898924 845658
758.86 965840 962460 1040256 1246450 1490416 1596362
764.64 1696130 1818690 2026030 2041442 2289142 2565038
770.43 2705740 2860866 3281730 3582330 3916348 4359926
776.21 4690826 5050148 5649194 6159164 6704386 7358188
782.00 7836386 8537478 9363278 10138020 11207220 12229870
787.78 13112240 14251650 15438630 16307190 17493210 18986830
793.57 20504480 21548310 22952110 24391580 25366520 26692000
799.35 28313580 29361300 30672450 31670030 32650170 34322410
805.14 36951630 43539760 50388040 51575870 51630000 52378350
810.93 52853290 53645080 56712990 59984540 60884030 57091690
816.71 54605440 71707380 111191300 146235700 137182500 77518190
822.50 41303880 39679670 45823470 52469770 58617400 66860670
828.28 78258420 91196420 108266600 127423200 147485800 170585900
834.07 194385800 218447800 242910000 265352800 281683300 283626900
839.85 274263500 265597800 261883700 259507700 261732400 267463700
845.64 273138900 285641200 297039100 310307000 326629500 342259500
851.42 356480100 371397300 385558800 393863700 402938900 406851900
857.21 403355900 399126800 389261000 373433300 354576200 337118200
862.99 326345800 326362800 333898900 352250700 384068200 433399200
868.78 496184300 555038900 591105700 576627900 492400000 349437500
874.57 194301800 106992800 144028800 270139400 383512500 433046500
880.35 443460200 429857400 400310800 365417600 333708800 313022300
886.14 298467600 287125600 282117600 280523300 278811300 278228600
891.92 279500500 280995600 279770400 279437800 279926500 276281700
897.71 273645500 271418900 265567600 259472600 254715000 246199600
903.49 238212200 231658800 221064400 212206100 203249900 193265000
909.28 182770700 173229000 164251500 152745100 143533600 134528300
915.06 124995200 115657500 107741500 99423430 90689500 84353110
920.85 76817700 69818420 64078780 58184080 52711080 47604680
926.63 42919790 38680200 35116180 31114140 27785880 25103820
932.42 22255490 19758110 17658100 15630950 13908730 12264770
938.21 10707420 9469046 8450746 7352418 6381020 5636130
943.99 4970284 4270710 3746414 3295428 2782886 2435494
949.78 2210778 1800344 1515188 1342276 1102626 875856
955.56 721662 650308 584504 468370 342934 264932
961.35 253590 179948 52228-18522-85932-84446
967.13-57930-80300-132940-234574-267328-189820
972.92-144148-210022-233762-223630-191694-211506
978.70-270342-307838-324442-325000-299766-251048
984.49-280412-289304-291764-337874-395966-368668
990.27-349156-327026-334742-337316-328546-321900
996.06-324848-372122-401466-335658-297060-332250
1001.85-380950-362026-341036-319258-367006-394816
1007.63-318984-256052-302654-277402-229288-275176
1013.42-321646-288618-300090-313822-278524-287898
1019.20-325740-303258-297068-298386-278132-225194
1024.99-237996-219200-174076 92570 511990 382294
1030.77-32472-141434-140674-115686-131376-133136
1036.56-132228-95756-90128 33710 68046 80010
1042.34 114116 137434 180492 193226 145738 223002
1048.13 329378 334386 288130 361388 380320 422170
1053.91 517754 684324 725186 683594 686398 746776
1059.70 827988 986312 1069668 1189904 1174698 1399464
1065.48 1514392 1525516 1567372 1621916 1743862 1887184
1071.27 1988444 2013766 2084104 2239742 2349158 2492654
1077.06 2627040 2703690 2858270 2909032 3109450 3341358
1082.84 3317272 3506362 3588332 3813624 3894842 3959748
1088.63 4008148 4152726 4235550 4370214 4586428 4650254
1094.41 4732414 4993058 5108890 5221058 5281180 5650142
1100.20 5758620 6005858 6310588 6663942 6827284 7198898
1105.98 7672410 8094030 8354862 8826230 9414798 9914728
1111.77 10350820 11000140 11543300 11996280 12386020 12842250
1117.55 13122530 13362800 13660970 13779310 13695500 13563340
1123.34 13743080 14530350 15751310 16176920 16402380 16826770
1129.12 17781380 19261170 20484500 21419910 22439360 22290810
1134.91 21366170 19433670 16208350 14199750 14877950 23233930
1140.70 39582160 44095030 39124720 35102120 29574100 20983840
1146.48 12045210 9479774 17593010 32464500 35113620 27834410
1152.27 24034320 23484760 22050030 18714690 14970290 12342070
1158.05 11172810 10883300 11611460 13171240 14820350 16289130
1163.84 17802690 19061490 19532410 19819950 20035650 19878870
1169.62 19148560 18706110 18045990 17319590 16325870 15926410
1175.41 15145510 14403240 13648580 13348090 12544530 12136980
1181.19 11654030 11314460 10648680 10498800 10036720 9685302
1186.98 9316902 9188420 8572270 8408002 8140218 8011886
1192.76 7544050 7429776 7034300 6825258 6607612 6553922
1198.55 6206504 5933446 5945668 5786468 5615138 5461464
1204.34 5557588 5335492 5364558 5312552 5390554 5447916
1210.12 5663512 5758928 5947038 6262794 6513992 6910602
1215.91 7319780 7878970 8521026 9266476 10051800 10930480
1221.69 11908790 12999640 14140830 15648340 16971190 18593700
1227.48 20485920 22171270 24054210 26184710 28488610 30563150
1233.26 33033670 35671490 37935840 40667220 43177110 45822500
1239.05 48139840 50735380 53133920 55016760 57377980 59246090
1244.83 60675780 62492920 63792720 64567770 65500330 66204260
1250.62 65966260 66033950 65589580 64532770 63662210 63131730
1256.40 63118700 64044420 66581200 70499910 74745620 80241250
1262.19 87575650 95013280 100451300 100786600 91931220 72077010
1267.98 44765610 23976400 25816370 50831420 81534220 101497500
1273.76 107614200 104497300 96738960 87381120 78692210 72880020
1279.55 69228900 66726110 65779220 66143220 66599280 67336390
1285.33 68374120 69610140 70019940 70309210 70786370 70080750
1291.12 69212220 68331560 66476510 64335600 62369680 59675150
1296.90 56610660 54002630 50545260 47427800 44190900 41012290
1302.69 37781380 34634090 31914970 28816940 26192260 23790620
1308.47 21334290 19120410 17207030 15458620 13513970 12307050
1314.26 10890040 9578792 8489848 7469438 6564702 5842628
1320.04 5181534 4547828 3914332 3384160 2894538 2595982
1325.83 2208806 1917180 1626746 1422216 1180162 1003604
1331.61 799716 685904 522440 446114 281022 246430
1337.40 143680 94104 33696 16260-47972-24252
1343.19-83602-51050-148382-141080-144840-124660
1348.97-232290-240670-349218-306662-353554-303942
1354.76-287146-258066-330132-297632-349814-312332
1360.54-321466-247030-271378-227256-211092-238164
1366.33-323558-229842-263290-219226-247434-251956
1372.11-307676-231938-229338-201802-260654-191390
1377.90-215624-137118-156332-119954-191740-152004
1383.68-181600-155040-191414-138260-138986-82872
1389.47-145714-152300-180516-155806-197788-140416
1395.25-173992-140834-225598-185708-124322-72690
1401.04-192446-178000-198850-167278-195284-191418
1406.83-300082-240296-265642-265950-322748-266810
1412.61-306984-225476-261366-219384-252744-185450
1418.40-176624-152658-211644-122202-116980-43452
1424.18-55136 49250 63930 146466 169842 291560
1429.97 319016 470584 581170 718938 764606 966798
1435.75 1090152 1254122 1255370 1407000 1537956 1741338
1441.54 1830598 2024486 2058024 2194410 2298930 2487966
1447.32 2520288 2589326 2518150 2618622 2638130 2671690
1453.11 2634968 2678176 2643640 2716430 2659370 2670064
1458.89 2596162 2633326 2673028 2845956 2947654 3165540
1464.68 3273980 3478692 3594834 3882282 4337942 7536720
1470.47 11788830 8226184 4854750 4894952 5130272 5494706
1476.25 5636234 5791684 5737630 5870434 5848552 5951582
1482.04 5986836 5834448 5458726 5720806 6022716 6437166
1487.82 6762408 7356566 7925176 8530416 8750952 8613482
1493.61 7546430 5821056 3539622 2011010 2421942 4962920
1499.39 7296882 8374202 8516684 8170496 7324234 6653246
1505.18 6027182 5724468 5371642 5276016 5235378 5348936
1510.96 5351534 5565244 5649050 5818406 5780132 5959878
1516.75 5981038 5980732 5942752 6048460 5880140 5746890
1522.53 5501208 5296798 5063446 4899408 4561694 4375848
1528.32 4065676 3904948 3484366 3283016 2983456 2786234
1534.11 2458384 2306514 2036426 1910550 1736450 1626052
1539.89 1350186 1225468 970374 916012 758824 710956
1545.68 519234 461874 331132 391552 248312 257550
1551.46 214490 248532 154570 175906 84124 198622
1557.25 247722 335686 266342 265862 116956 210820
1563.03 172470 262670 227364 349302 342172 441926
1568.82 471604 550318 489492 644918 618036 767144
1574.60 871274 1071454 965018 1087940 1136386 1261232
1580.39 1299252 1467008 1542570 1598026 1703156 1910278
1586.17 1964108 2211880 2125176 2460124 2383384 2745180
1591.96 2676914 2994006 2952624 3317888 3196726 3688778
1597.74 3532872 3992690 3831564 4298348 4208146 4537670
1603.53 4562866 4801404 4945790 5187598 5274666 5526728
1609.32 5586516 5778478 5927996 6089284 6140554 6475754
1615.10 6653590 6927940 6896870 6937516 6689414 6774038
1620.89 6474220 6451618 6913020 8514264 10426040 10019340
1626.67 7840764 7001062 6638608 6827974 7119600 7415910
1632.46 8158278 9745078 10420520 10342320 9778988 8464286
1638.24 7878428 11631660 19750050 26358310 23417690 15378150
1644.03 10903060 12337840 14835730 14456900 12886780 11658930
1649.81 10564820 9947166 9257776 8644358 7895034 7447574
1655.60 6891122 6557474 6189124 5872666 5441950 5287658
1661.38 5008110 4728152 4441868 4193266 3787868 3694524
1667.17 3361524 3176964 2851990 2647264 2322470 2059308
1672.96 1715112 1618530 1345428 1155132 815178 731586
1678.74 506634 434864 183646 105972-78586 223888
1684.53 308986 108534-190710-206328-362110-260686
1690.31-360664-277076-319796-110054 35356 270218
1696.10 261448 451478 446874 636748 547214 609180
1701.88 527200 654174 638632 804402 846374 1068258
1707.67 1075970 1280890 1345596 1577114 1538518 1679084
1713.45 1692972 1803638 1625836 1687242 1531418 1458094
1719.24 1175328 1139260 960298 959302 773662 711430
1725.02 510280 532872 418292 469644 350576 501384
1730.81 479180 646148 628208 733312 633262 686132
1736.60 555886 577918 429706 470378 328068 423644
1742.38 486134 1139566 1907430 2327166 1919936 1448780
1748.17 709070 327026 118390 488868 737398 912620
1753.95 787258 905006 789190 842644 682918 699146
1759.74 534600 604394 461952 510700 395928 478428
1765.52 405420 560544 514378 544974 467882 624528
1771.31 513324 553046 352448 424594 315528 388460
1777.09 239860 268734 150842 212412 74538 112682
1782.88-1584 116008-23192 6926-140672-87158
1788.66-175172-62492-180600-84306-219436-153388
1794.45-251812-183906-258746-122462-237702-163744
1800.24-272204-98994-124188-77302-166378-17310
1806.02-138436-1270-103296-6862 4512 223386
1811.81 135294 178914 69268 218322 111174 194876
1817.59 174700 283330 134804 251858 100606 172414
1823.38 79476 144594-39856 63116-67262 102892
1829.16 88454 123682 25258 175930 134928 466122
1834.95 810810 1526762 1778590 1177558 188002 112154
1840.73 5674 24990-191156-127544-58588 314722
1846.52 199600 283952 123616 233618 179804 285256
1852.30 171314 353364 279472 404438 295566 368906
1858.09 254022 391606 234502 317482 224436 319518
1863.88 176742 226398 67890 198662 47208 105068
1869.66-55432 16498-81136-10212-187816-52588
1875.45-175770-80704-231620-174414-261140-98314
1881.23-177126-70330-184132-25128-189662-75306
1887.02-161262 18112-29276 71214-25968 104112
1892.80-56078 74014 26052 161244 91186 246448
1898.59 159806 306744 195242 319212 281968 385044
1904.37 228826 382378 350796 500422 337064 499024
1910.16 425454 500650 324812 480240 406412 501498
1915.94 371344 553802 475192 548714 428640 601214
1921.73 579774 834020 812210 1021474 1090648 1474824
1927.51 1826222 2561120 3205226 4304358 5582872 7287242
1933.30 7891538 5902762 2510396 1409056 972536 1030200
1939.09 986578 1147372 970480 1161688 1078048 1200278
1944.87 1067410 1214480 1148150 1378776 1339138 1621156
1950.66 1677836 1986274 1992396 2211384 2219644 2454336
1956.44 2376444 2593618 2569778 2820674 2672898 2763968
1962.23 2368032 2167284 2012052 2281330 2355004 2604290
1968.01 2482170 2634042 2451730 2573842 2508600 2760526
1973.80 2854882 3347370 3225484 3203116 3045510 3110014
1979.58 2889602 3135812 3360010 3754620 3290346 3207340
1985.37 3211274 3536354 3550368 3889824 4018994 4415524
1991.15 4549780 4945042 5014376 5279494 5306884 5585322
1996.94 5559750 5707814 5532592 5665556 5446182 5447654
2002.73 5257498 5258148 4986268 5289724 5478684 5969074
2008.51 6258042 6840874 7216036 7721518 7637854 7393614
2014.30 6315296 5100632 4801984 6141092 6766972 5504794
2020.08 3221104 2249292 2055498 2549954 2644972 3088802
2025.87 3348046 3776734 3872662 4248254 4235888 4431396
2031.65 4292370 4525640 4554956 4953634 4930752 5121504
2037.44 4926766 4993844 4653698 4645942 4271354 4247334
2043.22 3932714 3896796 3600604 3622218 3265760 3275778
2049.01 3018494 3067116 2803728 2819170 2492486 2530596
2054.79 2237336 2298536 2102370 2346102 2241516 2367508
2060.58 2074802 2156116 1965694 2106554 1881914 1999822
2066.37 1817612 2016574 1942168 2198776 2144896 2567868
2072.15 2862640 3295324 2609264 1940938 1642454 2139946
2077.94 2227928 2633316 2393582 2202204 2483500 4925834
2083.72 5100684 2557494 1177122 1311580 1404254 1752488
2089.51 1648642 1658708 1542692 1928128 2238486 2825984
2095.29 3071554 3804438 4368836 5196996 4925244 4689460
2101.08 4334954 4388760 3919686 3790328 3482108 3651894
2106.86 3473572 3490080 3289414 3563134 3429344 3393980
2112.65 3179564 3357536 3336320 3355080 3053652 3165028
2118.43 2956516 2861972 2420778 2443126 2242990 2268372
2124.22 1979602 2201584 2264304 2663932 2627598 2992084
2130.01 2964124 2954952 2150950 1558242 799140 1039670
2135.79 1495904 2414412 2678300 3004390 2836396 2875838
2141.58 2523280 2511904 2191730 2249898 1999396 2090470
2147.36 1834772 1945266 1757852 1930086 1704282 1904528
2153.15 1787554 1974280 1664014 1834270 1782632 1941334
2158.93 1703186 2055006 1969630 2038518 1724388 2021904
2164.72 1861854 1995690 2334470 4332998 4646072 2781214
2170.50 1321258 1345582 1134612 1169570 1126064 1953482
2176.29 2741100 3288412 2190134 1370832 768780 865974
2182.07 787068 944792 811516 1243570 1225668 1256190
2187.86 984800 1241598 1074954 1248110 1192014 1429890
2193.64 1195464 1448102 1402218 1495406 1216302 1471912
2199.43 1251064 1427980 1326188 1576088 1327782 1551314
2205.22 1434674 1665194 1518864 1797006 1803258 2089106
2211.00 1976906 2155016 2062540 2323948 2237864 2623950
2216.79 2526198 2922082 2868042 3222626 3190222 3515546
2222.57 3563678 3926720 3925884 4305544 4360368 4741424
2228.36 4715000 5181818 5351260 5813736 5745414 6055938
2234.14 5994818 6349964 6362220 6770392 6725586 7015680
2239.93 7009800 7530388 7525838 8155796 8310040 8395920
2245.71 7962512 8135436 7996426 8301654 8321830 8723046
2251.50 8700694 9173112 9278086 9705630 9691296 9942606
2257.28 9388262 8417524 6514792 6151306 5926718 5638444
2263.07 4884994 4779466 4567276 5053150 5377152 6955310
2268.86 8369018 9342852 9406168 9232532 8586398 8955350
2274.64 8701742 8948854 8772478 9104748 8928270 9126896
2280.43 9020206 9142356 8427470 7956140 7134290 6756604
2286.21 6051176 5801294 5387448 5431868 4953542 5008308
2292.00 4751392 5053926 4910446 5002924 4261602 4351894
2297.78 4847710 7070240 6518056 4478686 3428316 3537138
2303.57 3255972 3255874 2849046 2912080 2679560 3590308
2309.35 5130730 6455628 4443148 2901722 2446768 2720862
2315.14 2603212 2967240 3126672 3479590 3218244 3297364
2320.92 3047532 3285474 3091040 3221332 2963950 3200140
2326.71 2979430 3091604 2799794 2845166 2441730 2450730
2332.50 2037500 2036882 1644178 1718280 1440694 1628606
2338.28 1364690 1416142 1054856 1125368 912156 1085494
2344.07 765480 1262116 2558366 3157164 1308748 894972
2349.85 586944 796394 489460 741968 407368 660122
2355.64 357980 576256 247614 517436 322820 544366
2361.42 290948 549246 365168 622154 376992 635920
2367.21 374040 612650 413840 717616 457434 748158
2372.99 510482 789166 513774 732632 434626 726114
2378.78 496824 749246 448982 718160 473440 668322
2384.56 352760 593478 353510 579120 309930 669396
2390.35 538574 718986 392678 697956 425070 606328
2396.14 276416 570600 316060 528644 228564 533448
2401.92 274612 547280 316444 610176 315876 523282
2407.71 195746 532682 235980 370760 3900 220864
2413.49-90664 193294-55878 213804-50398 229474
2419.28-51880 258386-13378 262228 14254 313614
2425.06-2038 291828 39326 361678 115756 363504
2430.85 21732 272940-15786 283664-19552 278608
2436.63-11222 265340-28586 250458-19366 292338
2442.42 4902 306036 79204 383008-59592 186424
2448.20-14424 364542 22432 176312-154278 142708
2453.99-29734 448006 348692 669816 282764 398624
2459.77 3924 254512-90500 178006-136884 149662
2465.56-219462 72136-275110-24494-320552-33374
2471.35-388818-73196-390560-126060-403648-80356
2477.13-430678-216116-598896-284450-564046-307772
2482.92-639108-319290-632502-345342-666494-399628
2488.70-738458-446468-739248-464898-797804-425050
2494.49-582482-175720-486228-133558-438222-153910
2500.27-543766-228570-554090-194884-492194-186282
2506.06-627820-290050-585500-321122-646892-286672
2511.84-702584-413546-745394-408784-758456-424122
2517.63-744248-427310-819314-478118-794754-456752
2523.41-800656-488536-850774-508648-826898-530438
2529.20-884738-595904-1086434-830872-1150448-647886
2534.99-732212-126904-324936 141760-201340 31106
2540.77-462336-269364-747910-511154-934606-603012
2546.56-992318-656916-1002124-596934-880724-483984
2552.34-857328-456788-748446-305156-595112-185370
2558.13-532744-132822-441990-94564-541308-175480
2563.91-443566 11606-367514 41214-230970 159550
2569.70-207346 263512-110542 269610-9998 452614
2575.48 83278 486392 229656 641900 287442 810688
2581.27 543068 956984 631696 1059110 737550 1269152
2587.05 992268 1434338 1064754 1567336 1219100 1532122
2592.84 1063314 1545742 1319460 1733574 1417968 1876672
2598.63 1478402 1907318 1676664 2140582 1720118 2176616
2604.41 1878472 2367942 2174570 3059368 3166282 3755584
2610.20 3295246 3445840 2255684 1689342 869370 1576814
2615.98 2199124 3929950 4069844 4282682 3035398 2909806
2621.77 2263014 2585912 2080550 2423332 1931252 2327538
2627.55 1954864 2571642 2360382 2930610 2517194 2874910
2633.34 2384452 2830674 2336840 2654762 2118652 2449946
2639.12 1832578 2091826 1458696 1787306 1214862 1584910
2644.91 1044332 1436886 875280 1189502 642888 999068
2650.69 467060 815596 230678 630004 93640 547166
2656.48 85766 436318-117596 274452-255224 205850
2662.27-327386 90906-371620 100564-472388-14146
2668.05-457692 34116-420074 51052-456754-12658
2673.84-532360-6432-528608-67698-561968-54152
2679.62-574796-123488-631070-84370-557426-17194
2685.41-538574-55454-580298-39918-539442-19050
2691.19-515048 12586-539846-43380-569396-7146
2696.98-526096 11714-520694 698-468920 126374
2702.76-399712 191008-325494 295268-163862 409142
2708.55-154162 371492-203598 375962-184746 392972
2714.33-145296 463188-68676 476084-13348 644582
2720.12 25542 558076-31016 561738-6022 656400
2725.91 146302 746382 149252 740956 141680 770062
2731.69 128604 814690 275788 873526 279040 953256
2737.48 914610 2770936 1527570 1041578 402440 1011784
2743.26 470588 1105712 475670 1067640 455394 1081702
2749.05 483644 1218378 691688 1486112 1005024 1727458
2754.83 1110128 1543272 776014 1408898 786352 1418816
2760.62 607678 1160110 508318 1241640 742596 1419682
2766.40 669708 1290866 634456 1287802 556082 1156410
2772.19 410308 1016506 183060 821384 168002 764050
2777.97 1776 707906-65628 649678-25680 689240
2783.76-61534 650068-67232 663750-128942 551840
2789.54-245382 454468-271126 454278-376466 362880
2795.33-320016 488366-353136 396738-377562 337152
2801.12-553740 191000-555194 250808-478606 357904
2806.90-517740 215718-596766 234988-649556 120390
2812.69-691398 176128-650328 154476-642906 243818
2818.47-645886 212486-664236 192856-686328 189722
2824.26-649004 225952-700642 231896-608876 266540
2830.04-726962 142820-728196 260496-669648 275826
2835.83-605846 294934-673988 373290-529972 426682
2841.61-542324 486268-514044 443932-481610 648968
2847.40-275226 757028-224346 873984-164912 874176
2853.18-101160 942516-169724 940560-19064 1198486
2858.97 175640 1367318 345886 1579262 558786 1876782
2864.76 894852 2176328 1109384 2491494 1554542 2958066
2870.54 2007476 3534960 2640162 4219750 3396668 5224484
2876.33 4504490 6406896 5813692 7826738 7435030 9833936
2882.11 9575544 12179070 12397920 15448490 15824340 19301520
2887.90 20016080 23623230 24728930 28876630 30165100 34765990
2893.68 36429790 41317960 43563760 48547500 50184370 55744840
2899.47 57274950 61937130 64101030 68615350 68839820 73907950
2905.25 74059680 77235030 77603820 80408500 78849520 82250690
2911.04 79784830 81972500 80680740 82604700 80447020 84322370
2916.82 81727740 85080730 80710190 78745460 70417140 68556100
2922.61 60198090 63402700 59401760 65442190 65590930 72663600
2928.40 128477600 331981600 304423400 106561000 63122910 63816170
2934.18 71750340 73688780 78307820 79082900 82408000 85192260
2939.97 88745230 91532660 95977210 99046230 102442900 106271600
2945.75 108038800 110645900 112366500 113500600 114226000 114659700
2951.54 113298800 113966300 111272800 110748000 108878900 107040000
2957.32 104895400 105188500 103046600 105788100 106817600 107611900
2963.11 105640400 104258100 98030100 91863860 81498220 78437360
2968.89 81101970 94584970 104871600 112906300 114616100 118636300
2974.68 117878900 119964400 121056800 127107500 127627900 133707400
2980.46 136604000 141480100 143421100 149575500 149372500 155061400
2986.25 154487200 156843200 155862900 158773700 154440300 156855400
2992.04 151446000 150880700 146554200 148009700 142941000 151237100
2997.82 153724000 154413100 138221900 133058300 120030400 125900800
3003.61 181065800 456983600 559125800 265107700 134370400 131029700
3009.39 148583200 166915100 183064300 187150000 186487000 183452500
3015.18 177245500 169425100 168798900 187097300 215108000 239070500
3020.96 252812200 262247300 261426500 260821800 260198800 262573500
3026.75 261418700 266691000 266016300 266649700 267808400 269748900
3032.53 262601900 266836700 261174700 258214300 251596500 252255700
3038.32 241217600 237754300 229216900 225805900 213300100 212397400
3044.10 194454300 186706200 171091300 168911200 147925900 146627400
3049.89 129943800 127693200 106890900 108984000 88023260 92671030
3055.67 76098820 88844160 77436680 117301900 130409500 170145200
3061.46 126157500 186497000 687060100 2109758000 1905895000 437458600
3067.25 98083490 55145330 74397420 49879120 71430590 51239750
3073.03 69056980 54699480 75270100 68438980 85677260 82896620
3078.82 102275800 98115740 116636400 116099400 127902600 126250700
3084.60 141771900 136423600 146880700 146018600 152446300 147744200
3090.39 157562200 150642500 154423600 150503000 153405800 144506800
3096.17 148731100 140222800 139326000 132332900 132062300 121095300
3101.96 121860000 112460200 109247700 100897800 98982180 88363100
3107.74 87373100 78508850 75785010 68265300 67605140 58421300
3113.53 55899560 48458950 47648140 41396650 40543780 33654590
3119.31 33329660 27388600 27175170 21974210 22489100 18014620
3125.10 19095820 14655310 15138750 11072790 12207380 8722992
3130.89 10200250 6927944 8457650 5513796 7069678 4134982
3136.67 5871620 3232616 4952456 2547980 4293036 1731020
3142.46 3493206 1260126 2985804 751614 2594112 480660
3148.24 2220846 208862 2005690 101432 1754708-152680
3154.03 1524400-446158 1265114-486836 1235098-543350
3159.81 1094208-625368 1002240-742950 879414-715972
3165.60 826514-772232 776536-734450 910518-719736
3171.38 752866-545094 994790-607912 810672-682572
3177.17 615716-906432 526564-844896 529864-788070
3182.95 579608-892614 453088-799284 512980-841344
3188.74 517338-725650 615858-689698 527558-762816
3194.53 564570-709186 412686-810840 477108-643834
3200.31 549230-789914 283708-801824 378886-866534
3206.10 243648-789082 398890-806000 238924-848754
3211.88 327494-814202 266870-833214 251318-783554
3217.67 266764-719542 503614-670634 185658-879876
3223.45 162752-849770 146300-867706 140112-775074
3229.24 193478-854738 92646-792240 246384-778284
3235.02 139192-773684 158550-864338 60746-879814
3240.81 69350-751988 248032-749844 101168-742432
3246.59 168404-738946 123836-861140-6422-837524
3252.38 77988-817906 134706-606710 119718-871466
3258.17-117964-873228 53414-793288 39672-789378
3263.95 91844-785568-33214-942948-170544-935458
3269.74-66018-865838-35774-824926 41624-718852
3275.52 37054-702708 22938-869268-299734-1210192
3281.31-424140-1129234-321718-1016032-214940-887016
3287.09-118602-877890-150208-923402-212114-1017932
3292.88-291480-929164-168996-885004-283516-917730
3298.66-161822-935260-249762-790994 754-736448
3304.45-8398-711182-78754-862204-184150-788196
3310.23-103698-782004-93010-767844-99916-757010
3316.02-163266-766348-114722-791512-124382-748652
3321.80-117582-689026 45154-595762 10744-699554
3327.59-147920-747902-128712-692804 48384-597418
3333.38-5916-713722-161968-666790 3950-674086
3339.16-166110-696172-84028-699940-57010-757238
3344.95-163978-651980-19236-586700-37984-653184
3350.73-39012-639188-111524-639874-10824-603824
3356.52-27510-561246-19644-511584 958-621220
3362.30-66306-647114-124544-563426-64706-665234
3368.09-14536-604638-134620-627102-121580-569012
3373.87-22838-635868-96772-584346-154280-706392
3379.66-148446-677214-175438-673314-34150-520430
3385.44-98472-635840-209320-713948-144164-505502
3391.23 100626-493084-154772-711310-203842-702462
3397.02-158676-622092-90416-510080-89626-741464
3402.80-236530-629004-48460-487332-90672-610278
3408.59-10318-470958-24988-504104-26142-443244
3414.37 17388-564990-70010-429044-4044-512494
3420.16 25372-428242-9278-585460-228656-637214
3425.94-157518-574880-131070-480076 28948-473300
3431.73-90342-569880-182972-573992-21980-523494
3437.51-173968-581056-41856-459338-80170-631400
3443.30-200504-493772-20708-515080-104240-484010
3449.08-101302-484820-11332-484984-85100-451006
3454.87-16890-507918-42074-498772-152036-569014
3460.66-155136-613764-246194-660068-146138-418044
3466.44 69850-452698-104362-447936-27744-389742
3472.23 64668-393396-167442-631694-204482-616130
3478.01-187106-555174-169068-513016-188196-565082
3483.80-46262-339350-36966-548588-239760-594256
3489.58-185968-524440-119720-568920-225974-572270
3495.37-181456-579618-173376-519762-131466-409600
3501.15 50708-488578-188324-537240-150876-504318
3506.94-115126-494430-170452-538216-186472-544710
3512.72-175716-579760-178606-472426-146600-537384
3518.51-133428-431972-97164-466182-107334-488758
3524.30-246308-686868-311926-598424-265868-651632
3530.08-243126-516916-154248-515164-205818-538004
3535.87-71060-388702-110958-581928-244652-534064
3541.65-145030-492822-166904-552886-156576-527976
3547.44-213850-510288-175940-568736-303248-644710
3553.22-222456-533478-206262-566244-289756-620360
3559.01-192090-482812-223618-605136-276706-593640
3564.79-200732-478714-220088-594810-325124-629136
3570.58-241906-526024-397388-682574-189592-475042
3576.36-194190-572428-215620-488790-209784-538926
3582.15-187022-484024-227824-561820-174750-437966
3587.94-178920-517880-384554-684904-240884-484190
3593.72-168124-369550-132120-591846-365864-644866
3599.51-209074-469814-178660-500058-271856-556128
3605.29-243572-552020-174264-422414-124272-485596
3611.08-185574-421576-171686-474922-143114-472454
3616.86-208640-449246-121096-375236-52756-426506
3622.65-266920-446282-104466-371600-103080-364708
3628.43-48300-433308-197924-490072-208104-407100
3634.22-46542-307808-95950-364976-156366-544908
3640.00-214154-429254-168246-438118-207062-503734
3645.79-225094-426756-100806-318578-76526-396386
3651.57-152596-416734-222560-484680-169100-446218
3657.36-248662-570272-275300-417180-175792-460662
3663.15-209884-463912-165178-325070-97120-343806
3668.93 22308-143778-5858-424256-158214-252596
3674.72 90988-230588 10882-166344 65782-206580
3680.50 79848-114714 111516-51162 244172 66262
3686.29 367494 118960 448110 224914 411518 159094
3692.07 439562 242940 488140 216072 519214 265420
3697.86 516382 334296 628244 419100 680128 466778
3703.64 804178 532178 710756 564984 842810 564168
3709.43 841942 719034 1094484 845228 1110012 990222
3715.21 1274422 974670 1285038 1252960 1591090 1532262
3721.00 2095232 2367110 4242434 5408720 3421948 1431956
3726.79 1630874 1551088 1796302 1493522 1833536 1724136
3732.57 1949748 1688456 1787950 1574014 1849622 1642852
3738.36 2136088 2466840 3434732 3650988 3170562 2185542
3744.14 2293326 2039990 2281130 2059474 2362868 2338806
3749.93 2911452 3162206 3331368 2780444 2775666 2540652
3755.71 2852648 2708662 2960078 2873510 3350732 3376824
3761.50 3747404 3653366 3727926 3403014 3927972 4513922
3767.28 5374374 5039458 4677028 4085838 3961040 3332652
3773.07 3087242 2705516 2955534 2736224 2948384 2605298
3778.85 2881618 3110500 3915512 4197898 4191478 3223382
3784.64 3161490 3166456 3517082 3323612 3641326 3504034
3790.43 3731272 3666950 3864282 3649648 4017896 4025338
3796.21 4317340 4272528 4561912 4422204 4858802 4927600
3802.00 5119754 5002716 5445564 5327856 5339438 5081464
3807.78 5499610 5639350 6280770 6405386 6781340 8290886
3813.57 12175370 15086830 12170520 6301054 5050086 5083630
3819.35 5495486 5084510 5248936 4725844 5028160 5539942
3825.14 6932102 7769198 9739782 11296630 11741300 9115040
3830.92 6288344 5475518 6456088 7274768 7933260 7637272
3836.71 7621610 7165694 7386744 7396096 7905892 8024782
3842.49 8694204 8894320 9439284 9638172 10043800 9844630
3848.28 9707396 9159398 9134848 8771048 8728390 8444966
3854.07 8282696 7660954 7611930 7400284 7662228 7582562
3859.85 7872876 7939402 8617086 8735008 8536610 7378752
3865.64 6943236 6698268 8132706 10541580 12722040 13330660
3871.42 12492140 9263534 6969792 5720998 5048762 4076578
3877.21 3487658 2948762 3368696 3244954 3481118 3309882
3882.99 3129982 2793760 3085608 2955334 3150694 3159032
3888.78 3416950 3349628 3677162 3582716 3866968 3821628
3894.56 3910726 3849506 4059768 3914862 4134784 3719866
3900.35 3808362 3686990 3802066 3451352 3586420 3341096
3906.13 3353678 3067760 3067766 2729200 2731430 2430334
3911.92 2330168 1965612 2031588 1735192 1797412 1475026
3917.70 1459562 1199974 1265486 990660 1129260 898738
3923.49 908192 601612 681432 455902 617872 741404
3929.28 1325974 990770 698194 516412 794448 683602
3935.06 1047338 840354 640740 400578 546764 467518
3940.85 1310432 1945740 1831980 1133104 1095942 635362
3946.63 288166 21640 158954 26236 143172-75066
3952.42 331334 754516 1326336 990132 605760 93132
3958.20 46888-115266 89310-45448 73780-36870
3963.99 69282-192750-28386 6224 107220-213262
3969.77-73468-66052 61000-113040 35670
##END=
