##TITLE=PROPANE, 2-CHLORO-
##JCAMP-DX=4.24
##DATA TYPE=INFRARED SPECTRUM
##CLASS=COBLENTZ III
##ORIGIN=DOW CHEMICAL COMPANY
##OWNER=COBLENTZ SOCIETY
Collection (C) 2018 copyright by the U.S. Secretary of Commerce
on behalf of the United States of America. All rights reserved.
##DATE=1960/05/31
##NAMES=2-chloropropane
##CAS REGISTRY NO=75-29-6
##MOLFORM=C3 H7 Cl
##BP=35 C
##SOURCE REFERENCE=COBLENTZ NO. 10015
##$NIST SOURCE=COBLENTZ
##$NIST IMAGE=cob10015
##SPECTROMETER/DATA SYSTEM=DOW KBr FOREPRISM-GRATING
##INSTRUMENT PARAMETERS=BLAZED AT 3.5, 12.0, 20.0 MICRON, CHANGED AT 5.0, 7.5, 14.9 MICRON
##STATE=SOLUTION (10% IN CCl4 FOR 3800-1333, AND 10% IN CS2 FOR 1333-440 CM^-^1)
##PATH LENGTH=0.011, 0.010 CM
$$SPECTRAL CONTAMINATION DUE TO CCl4 AROUND 1550, AND CS2 AROUND 855 CM^-^1
##SAMPLING PROCEDURE=TRANSMISSION
##RESOLUTION=4
##DATA PROCESSING=DIGITIZED BY NIST FROM HARD COPY (FROM TWO SEGMENTS)
##XUNITS=1/CM
##YUNITS=TRANSMITTANCE
##XFACTOR=1.000000
##YFACTOR=1
##DELTAX=0.869567
##FIRSTX=436.522
##LASTX=3795.66
##FIRSTY=0.99
##MAXX=3795.66
##MINX=436.522
##MAXY=1.062
##MINY=0.059
##NPOINTS=3864
##XYDATA=(X++(Y..Y))
436.522000 0.9900 0.9900 0.9900 0.9900 0.9910
440.869835 0.9900 0.9900 0.9910 0.9930 0.9930
445.217670 0.9930 0.9930 0.9930 0.9930 0.9930
449.565504 0.9930 0.9940 0.9950 0.9950 0.9970
453.913339 0.9970 0.9980 0.9980 0.9980 0.9980
458.261174 1.0000 1.0010 1.0010 1.0010 1.0010
462.609009 1.0010 1.0010 1.0020 1.0020 1.0040
466.956844 1.0040 1.0060 1.0060 1.0060 1.0080
471.304678 1.0090 1.0090 1.0090 1.0100 1.0120
475.652513 1.0120 1.0120 1.0130 1.0130 1.0140
480.000348 1.0160 1.0160 1.0160 1.0170 1.0170
484.348183 1.0170 1.0170 1.0190 1.0200 1.0200
488.696018 1.0230 1.0240 1.0250 1.0270 1.0270
493.043852 1.0270 1.0270 1.0270 1.0270 1.0280
497.391687 1.0280 1.0290 1.0290 1.0290 1.0290
501.739522 1.0310 1.0310 1.0310 1.0310 1.0320
506.087357 1.0320 1.0340 1.0340 1.0340 1.0340
510.435192 1.0350 1.0350 1.0360 1.0360 1.0360
514.783026 1.0360 1.0360 1.0380 1.0380 1.0380
519.130861 1.0380 1.0380 1.0380 1.0380 1.0380
523.478696 1.0380 1.0380 1.0380 1.0380 1.0380
527.826531 1.0380 1.0380 1.0380 1.0380 1.0380
532.174366 1.0360 1.0360 1.0360 1.0360 1.0360
536.522200 1.0360 1.0360 1.0360 1.0380 1.0380
540.870035 1.0380 1.0380 1.0380 1.0380 1.0380
545.217870 1.0380 1.0380 1.0390 1.0390 1.0390
549.565705 1.0390 1.0400 1.0420 1.0420 1.0440
553.913540 1.0470 1.0470 1.0470 1.0470 1.0440
558.261374 1.0430 1.0390 1.0380 1.0380 1.0360
562.609209 1.0360 1.0350 1.0340 1.0340 1.0320
566.957044 1.0310 1.0310 1.0310 1.0310 1.0310
571.304879 1.0310 1.0310 1.0290 1.0280 1.0270
575.652714 1.0240 1.0230 1.0230 1.0240 1.0240
580.000548 1.0200 1.0200 1.0170 1.0140 1.0100
584.348383 1.0080 1.0080 1.0080 1.0060 1.0050
588.696218 1.0040 1.0010 0.9970 0.9910 0.9830
593.044053 0.9760 0.9670 0.9600 0.9570 0.9480
597.391887 0.9410 0.9290 0.9140 0.9010 0.8801
601.739722 0.8440 0.8180 0.7880 0.7580 0.7310
606.087557 0.7011 0.6661 0.6301 0.5622 0.4604
610.435392 0.3880 0.3390 0.3090 0.2910 0.2081
614.783227 0.1531 0.1211 0.1061 0.1020 0.0910
619.131061 0.0790 0.0770 0.0790 0.1000 0.1100
623.478896 0.1330 0.1729 0.2259 0.2948 0.3777
627.826731 0.3891 0.4860 0.5720 0.6290 0.6779
632.174566 0.7199 0.7569 0.7899 0.8169 0.8399
636.522401 0.8590 0.8770 0.8920 0.9040 0.9150
640.870235 0.9250 0.9310 0.9310 0.9400 0.9480
645.218070 0.9490 0.9500 0.9520 0.9550 0.9550
649.565905 0.9560 0.9560 0.9550 0.9550 0.9550
653.913740 0.9550 0.9550 0.9560 0.9590 0.9610
658.261575 0.9700 0.9750 0.9780 0.9830 0.9900
662.609409 0.9940 1.0010 1.0010 1.0020 1.0080
666.957244 1.0090 1.0100 1.0120 1.0120 1.0120
671.305079 1.0120 1.0120 1.0120 1.0120 1.0120
675.652914 1.0140 1.0240 1.0250 1.0250 1.0270
680.000749 1.0280 1.0280 1.0280 1.0290 1.0290
684.348583 1.0290 1.0310 1.0320 1.0350 1.0350
688.696418 1.0360 1.0380 1.0400 1.0420 1.0420
693.044253 1.0440 1.0460 1.0470 1.0470 1.0490
697.392088 1.0490 1.0490 1.0500 1.0490 1.0500
701.739923 1.0500 1.0500 1.0500 1.0500 1.0500
706.087757 1.0500 1.0500 1.0500 1.0510 1.0530
710.435592 1.0530 1.0530 1.0540 1.0540 1.0540
714.783427 1.0540 1.0540 1.0540 1.0540 1.0540
719.131262 1.0540 1.0540 1.0540 1.0530 1.0530
723.479097 1.0540 1.0540 1.0550 1.0550 1.0550
727.826931 1.0550 1.0550 1.0580 1.0590 1.0590
732.174766 1.0590 1.0590 1.0590 1.0610 1.0610
736.522601 1.0610 1.0610 1.0610 1.0610 1.0610
740.870436 1.0610 1.0610 1.0610 1.0610 1.0590
745.218271 1.0590 1.0590 1.0590 1.0590 1.0610
749.566105 1.0610 1.0580 1.0570 1.0570 1.0550
753.913940 1.0540 1.0530 1.0490 1.0470 1.0460
758.261775 1.0430 1.0420 1.0420 1.0420 1.0420
762.609610 1.0430 1.0470 1.0490 1.0530 1.0550
766.957445 1.0570 1.0580 1.0590 1.0590 1.0590
771.305279 1.0590 1.0590 1.0590 1.0590 1.0590
775.653114 1.0610 1.0610 1.0620 1.0620 1.0610
780.000949 1.0580 1.0540 1.0540 1.0540 1.0530
784.348784 1.0530 1.0530 1.0530 1.0530 1.0530
788.696619 1.0510 1.0510 1.0530 1.0530 1.0530
793.044453 1.0540 1.0540 1.0540 1.0540 1.0540
797.392288 1.0540 1.0540 1.0550 1.0550 1.0550
801.740123 1.0550 1.0550 1.0570 1.0570 1.0570
806.087958 1.0550 1.0550 1.0550 1.0550 1.0550
810.435793 1.0550 1.0550 1.0550 1.0550 1.0550
814.783627 1.0550 1.0570 1.0580 1.0580 1.0570
819.131462 1.0570 1.0570 1.0570 1.0550 1.0540
823.479297 1.0540 1.0530 1.0510 1.0500 1.0500
827.827132 1.0490 1.0490 1.0470 1.0470 1.0460
832.174967 1.0430 1.0400 1.0380 1.0350 1.0310
836.522801 1.0290 1.0290 1.0270 1.0240 1.0230
840.870636 1.0190 1.0140 1.0050 1.0010 0.9980
845.218471 0.9940 0.9800 0.9740 0.9650 0.9570
849.566306 0.9480 0.9370 0.9290 0.9160 0.9150
853.914141 0.9110 0.8960 0.8840 0.8770 0.8730
858.261975 0.8710 0.8710 0.8710 0.8710 0.8710
862.609810 0.8700 0.8700 0.8700 0.8670 0.8670
866.957645 0.8660 0.8650 0.8650 0.8630 0.8610
871.305480 0.8550 0.8520 0.8440 0.8370 0.8320
875.653314 0.8160 0.8030 0.7900 0.7750 0.7600
880.001149 0.7279 0.6890 0.6470 0.6110 0.5870
884.348984 0.5421 0.4721 0.3972 0.3741 0.3481
888.696819 0.3460 0.3470 0.3710 0.4200 0.4679
893.044654 0.5269 0.6327 0.6819 0.7488 0.8028
897.392488 0.8371 0.8670 0.8950 0.9160 0.9370
901.740323 0.9530 0.9650 0.9740 0.9790 0.9910
906.088158 1.0020 1.0060 1.0090 1.0100 1.0160
910.435993 1.0190 1.0200 1.0200 1.0230 1.0240
914.783828 1.0240 1.0240 1.0240 1.0240 1.0240
919.131662 1.0240 1.0230 1.0210 1.0170 1.0120
923.479497 1.0090 1.0060 1.0020 1.0010 1.0000
927.827332 0.9980 0.9930 0.9830 0.9670 0.9550
932.175167 0.9520 0.9500 0.9520 0.9550 0.9570
936.523002 0.9640 0.9760 0.9830 1.0009 1.0040
940.870836 1.0060 1.0130 1.0170 1.0170 1.0210
945.218671 1.0230 1.0230 1.0230 1.0230 1.0250
949.566506 1.0270 1.0270 1.0280 1.0280 1.0310
953.914341 1.0320 1.0360 1.0380 1.0400 1.0400
958.262176 1.0420 1.0430 1.0440 1.0470 1.0470
962.610010 1.0490 1.0490 1.0490 1.0500 1.0500
966.957845 1.0510 1.0510 1.0510 1.0510 1.0510
971.305680 1.0510 1.0510 1.0510 1.0510 1.0510
975.653515 1.0530 1.0540 1.0550 1.0550 1.0550
980.001350 1.0550 1.0550 1.0550 1.0550 1.0550
984.349184 1.0550 1.0550 1.0550 1.0550 1.0550
988.697019 1.0550 1.0550 1.0570 1.0570 1.0570
993.044854 1.0580 1.0580 1.0570 1.0570 1.0570
997.392689 1.0570 1.0550 1.0550 1.0550 1.0540
1001.740524 1.0540 1.0540 1.0530 1.0510 1.0500
1006.088358 1.0500 1.0500 1.0500 1.0500 1.0490
1010.436193 1.0470 1.0470 1.0460 1.0460 1.0440
1014.784028 1.0420 1.0400 1.0380 1.0350 1.0350
1019.131863 1.0340 1.0320 1.0320 1.0310 1.0310
1023.479698 1.0310 1.0280 1.0250 1.0250 1.0240
1027.827532 1.0240 1.0240 1.0190 1.0170 1.0160
1032.175367 1.0140 1.0130 1.0120 1.0100 1.0080
1036.523202 1.0050 1.0020 1.0010 0.9970 0.9910
1040.871037 0.9870 0.9860 0.9820 0.9780 0.9650
1045.218872 0.9610 0.9560 0.9500 0.9400 0.9340
1049.566706 0.9190 0.9100 0.8860 0.8631 0.8540
1053.914541 0.8279 0.7990 0.7670 0.7150 0.6680
1058.262376 0.6290 0.4912 0.4012 0.3063 0.1236
1062.610211 0.0990 0.1000 0.1380 0.1430 0.2269
1066.958046 0.3059 0.3838 0.4907 0.5767 0.6129
1071.305880 0.6861 0.7421 0.7841 0.8320 0.8580
1075.653715 0.8760 0.8950 0.9100 0.9220 0.9270
1080.001550 0.9370 0.9500 0.9570 0.9590 0.9630
1084.349385 0.9680 0.9780 0.9800 0.9860 0.9910
1088.697220 0.9950 0.9980 1.0020 1.0040 1.0040
1093.045054 1.0080 1.0090 1.0100 1.0100 1.0090
1097.392889 1.0090 1.0090 1.0090 1.0090 1.0090
1101.740724 1.0090 1.0090 1.0090 1.0090 1.0060
1106.088559 1.0060 1.0040 1.0040 1.0040 1.0020
1110.436394 1.0010 1.0010 1.0000 0.9970 0.9940
1114.784228 0.9890 0.9860 0.9850 0.9830 0.9800
1119.132063 0.9790 0.9740 0.9670 0.9550 0.9520
1123.479898 0.9370 0.9230 0.9120 0.8880 0.8580
1127.827733 0.8290 0.8020 0.7830 0.7710 0.7690
1132.175568 0.7690 0.7760 0.8010 0.8390 0.8630
1136.523402 0.8810 0.8950 0.9120 0.9140 0.9140
1140.871237 0.9140 0.9140 0.9120 0.9030 0.8930
1145.219072 0.8850 0.8740 0.8630 0.8520 0.8390
1149.566907 0.8200 0.7990 0.7690 0.7430 0.7320
1153.914741 0.6880 0.6321 0.5951 0.5541 0.5021
1158.262576 0.4549 0.3969 0.3360 0.3110 0.3110
1162.610411 0.3140 0.3220 0.3539 0.4118 0.4589
1166.958246 0.5011 0.5470 0.6030 0.6590 0.7160
1171.306081 0.7559 0.7869 0.8109 0.8359 0.8539
1175.653915 0.8730 0.8910 0.9030 0.9160 0.9250
1180.001750 0.9340 0.9420 0.9550 0.9570 0.9630
1184.349585 0.9670 0.9760 0.9860 1.0010 1.0020
1188.697420 1.0080 1.0100 1.0140 1.0190 1.0200
1193.045255 1.0200 1.0210 1.0230 1.0230 1.0230
1197.393089 1.0230 1.0230 1.0230 1.0230 1.0230
1201.740924 1.0230 1.0230 1.0230 1.0190 1.0190
1206.088759 1.0170 1.0170 1.0160 1.0140 1.0130
1210.436594 1.0130 1.0120 1.0120 1.0090 1.0040
1214.784429 1.0010 1.0010 1.0010 1.0000 1.0000
1219.132263 0.9970 0.9930 0.9900 0.9870 0.9860
1223.480098 0.9850 0.9850 0.9830 0.9820 0.9790
1227.827933 0.9780 0.9750 0.9740 0.9710 0.9630
1232.175768 0.9570 0.9570 0.9560 0.9560 0.9550
1236.523603 0.9500 0.9380 0.9300 0.9200 0.9110
1240.871437 0.8930 0.8700 0.8660 0.8500 0.8291
1245.219272 0.8029 0.7800 0.7600 0.7340 0.7080
1249.567107 0.6640 0.6110 0.5511 0.4861 0.4331
1253.914942 0.3669 0.3198 0.2299 0.1550 0.1150
1258.262777 0.1030 0.0910 0.0790 0.0790 0.0830
1262.610611 0.0870 0.1030 0.1190 0.1590 0.2370
1266.958446 0.2790 0.3209 0.3649 0.5016 0.5508
1271.306281 0.5851 0.6070 0.6151 0.6741 0.7410
1275.654116 0.7520 0.7620 0.7730 0.7910 0.8289
1280.001951 0.8480 0.8560 0.8810 0.8860 0.8950
1284.349785 0.9120 0.9190 0.9250 0.9290 0.9340
1288.697620 0.9370 0.9400 0.9530 0.9590 0.9630
1293.045455 0.9640 0.9640 0.9650 0.9670 0.9670
1297.393290 0.9680 0.9700 0.9710 0.9710 0.9710
1301.741125 0.9710 0.9680 0.9670 0.9650 0.9650
1306.088959 0.9650 0.9650 0.9640 0.9640 0.9640
1310.436794 0.9640 0.9640 0.9640 0.9640 0.9640
1314.784629 0.9640 0.9650 0.9650 0.9640 0.9640
1319.132464 0.9630 0.9630 0.9610 0.9600 0.9570
1323.480299 0.9560 0.9560 0.9560 0.9560 0.9560
1327.828133 0.9560 0.9560 0.9560 0.9560 0.9570
1332.175968 0.9610 0.9610 0.9630 0.9630 0.9630
1336.523803 0.9630 0.9640 0.9640 0.9680 0.9680
1340.871638 0.9680 0.9670 0.9670 0.9650 0.9630
1345.219473 0.9610 0.9600 0.9570 0.9560 0.9550
1349.567307 0.9550 0.9550 0.9530 0.9490 0.9460
1353.915142 0.9440 0.9410 0.9400 0.9380 0.9340
1358.262977 0.9260 0.9200 0.9140 0.9120 0.9000
1362.610812 0.8970 0.8890 0.8810 0.8650 0.8461
1366.958647 0.8250 0.8030 0.7790 0.7490 0.7130
1371.306481 0.6710 0.6211 0.5581 0.4792 0.3823
1375.654316 0.2500 0.2420 0.2451 0.2880 0.3201
1380.002151 0.4380 0.5319 0.5640 0.5660 0.5660
1384.349986 0.5650 0.5610 0.5440 0.5010 0.4350
1388.697821 0.3540 0.3470 0.3470 0.3540 0.4587
1393.045655 0.5022 0.5611 0.6182 0.7001 0.7570
1397.393490 0.7880 0.8260 0.8460 0.8510 0.8590
1401.741325 0.8740 0.8760 0.8880 0.8920 0.8950
1406.089160 0.9000 0.9030 0.9040 0.9080 0.9110
1410.436995 0.9120 0.9120 0.9110 0.9110 0.9080
1414.784829 0.9070 0.9050 0.9040 0.9010 0.9000
1419.132664 0.9000 0.9000 0.8970 0.8930 0.8910
1423.480499 0.8840 0.8780 0.8740 0.8710 0.8700
1427.828334 0.8650 0.8620 0.8580 0.8520 0.8430
1432.176168 0.8330 0.8280 0.8160 0.8110 0.7990
1436.524003 0.7910 0.7760 0.7670 0.7520 0.7320
1440.871838 0.6700 0.6041 0.5870 0.5581 0.5251
1445.219673 0.5060 0.4949 0.4679 0.4369 0.3959
1449.567508 0.3330 0.2870 0.2460 0.2460 0.2879
1453.915342 0.3441 0.3822 0.4861 0.5640 0.6060
1458.263177 0.6250 0.6470 0.6470 0.6440 0.6370
1462.611012 0.6340 0.6280 0.6150 0.5920 0.5420
1466.958847 0.4910 0.4680 0.3971 0.3262 0.3260
1471.306682 0.3813 0.4760 0.4781 0.5401 0.6040
1475.654516 0.6440 0.6900 0.7649 0.7830 0.7920
1480.002351 0.8050 0.8140 0.8240 0.8310 0.8310
1484.350186 0.8350 0.8360 0.8370 0.8370 0.8360
1488.698021 0.8350 0.8350 0.8320 0.8310 0.8290
1493.045856 0.8290 0.8310 0.8310 0.8290 0.8290
1497.393690 0.8290 0.8310 0.8310 0.8280 0.8220
1501.741525 0.8180 0.8160 0.8140 0.8130 0.8130
1506.089360 0.8110 0.8090 0.8070 0.8060 0.8030
1510.437195 0.7950 0.7940 0.7920 0.7880 0.7880
1514.785030 0.7870 0.7840 0.7820 0.7770 0.7710
1519.132864 0.7710 0.7690 0.7610 0.7540 0.7500
1523.480699 0.7460 0.7430 0.7410 0.7350 0.7320
1527.828534 0.7310 0.7300 0.7280 0.7240 0.7200
1532.176369 0.7150 0.7090 0.7080 0.7050 0.6970
1536.524204 0.6920 0.6770 0.6630 0.6590 0.6510
1540.872038 0.6410 0.6250 0.6180 0.6030 0.5870
1545.219873 0.5760 0.5740 0.5660 0.5610 0.5530
1549.567708 0.5460 0.5380 0.5360 0.5360 0.5360
1553.915543 0.5360 0.5380 0.5390 0.5400 0.5420
1558.263378 0.5470 0.5490 0.5550 0.5620 0.5910
1562.611212 0.6100 0.6170 0.6210 0.6230 0.6250
1566.959047 0.6290 0.6330 0.6480 0.6600 0.6730
1571.306882 0.6810 0.6880 0.6920 0.7000 0.7050
1575.654717 0.7070 0.7080 0.7090 0.7130 0.7150
1580.002552 0.7170 0.7220 0.7230 0.7240 0.7240
1584.350386 0.7240 0.7240 0.7280 0.7300 0.7310
1588.698221 0.7320 0.7370 0.7430 0.7520 0.7580
1593.046056 0.7610 0.7650 0.7730 0.7790 0.7900
1597.393891 0.7950 0.8010 0.8110 0.8200 0.8290
1601.741726 0.8390 0.8480 0.8580 0.8660 0.8740
1606.089560 0.8820 0.8920 0.8990 0.9030 0.9100
1610.437395 0.9150 0.9190 0.9300 0.9330 0.9350
1614.785230 0.9400 0.9410 0.9450 0.9490 0.9550
1619.133065 0.9570 0.9600 0.9610 0.9630 0.9630
1623.480900 0.9650 0.9670 0.9680 0.9700 0.9700
1627.828734 0.9710 0.9710 0.9720 0.9750 0.9750
1632.176569 0.9750 0.9740 0.9720 0.9720 0.9720
1636.524404 0.9720 0.9710 0.9700 0.9680 0.9680
1640.872239 0.9680 0.9680 0.9680 0.9680 0.9700
1645.220074 0.9700 0.9700 0.9700 0.9700 0.9700
1649.567908 0.9710 0.9760 0.9790 0.9790 0.9790
1653.915743 0.9790 0.9790 0.9790 0.9820 0.9830
1658.263578 0.9830 0.9830 0.9830 0.9830 0.9830
1662.611413 0.9830 0.9820 0.9820 0.9820 0.9820
1666.959248 0.9830 0.9830 0.9830 0.9830 0.9830
1671.307082 0.9830 0.9830 0.9830 0.9830 0.9820
1675.654917 0.9800 0.9790 0.9790 0.9790 0.9790
1680.002752 0.9780 0.9780 0.9780 0.9780 0.9780
1684.350587 0.9780 0.9780 0.9780 0.9780 0.9780
1688.698422 0.9790 0.9790 0.9790 0.9820 0.9830
1693.046256 0.9830 0.9830 0.9830 0.9850 0.9850
1697.394091 0.9850 0.9850 0.9850 0.9860 0.9860
1701.741926 0.9850 0.9830 0.9830 0.9830 0.9830
1706.089761 0.9830 0.9820 0.9800 0.9800 0.9790
1710.437595 0.9800 0.9790 0.9790 0.9780 0.9780
1714.785430 0.9760 0.9760 0.9760 0.9750 0.9750
1719.133265 0.9750 0.9760 0.9790 0.9800 0.9820
1723.481100 0.9830 0.9830 0.9850 0.9850 0.9860
1727.828935 0.9860 0.9870 0.9870 0.9890 0.9890
1732.176769 0.9900 0.9900 0.9900 0.9900 0.9900
1736.524604 0.9900 0.9900 0.9900 0.9900 0.9900
1740.872439 0.9910 0.9900 0.9900 0.9900 0.9900
1745.220274 0.9900 0.9900 0.9910 0.9910 0.9910
1749.568109 0.9910 0.9910 0.9910 0.9900 0.9890
1753.915943 0.9890 0.9900 0.9930 0.9940 0.9940
1758.263778 0.9940 0.9950 0.9950 1.0040 1.0060
1762.611613 1.0080 1.0020 1.0010 1.0000 1.0000
1766.959448 0.9980 0.9950 0.9940 0.9930 0.9910
1771.307283 0.9940 0.9950 0.9930 0.9930 0.9930
1775.655117 0.9930 0.9940 0.9940 0.9950 0.9950
1780.002952 0.9950 1.0000 1.0000 1.0000 1.0000
1784.350787 1.0000 1.0000 1.0000 1.0000 1.0000
1788.698622 1.0000 0.9980 1.0010 1.0010 1.0000
1793.046457 1.0000 1.0000 1.0000 1.0000 1.0000
1797.394291 1.0000 1.0000 1.0000 1.0010 1.0010
1801.742126 1.0010 1.0000 1.0000 1.0000 0.9980
1806.089961 0.9980 0.9970 0.9970 0.9970 0.9950
1810.437796 0.9950 0.9930 0.9910 0.9910 0.9900
1814.785631 0.9900 0.9910 0.9910 0.9930 0.9940
1819.133465 0.9940 0.9940 0.9950 0.9980 0.9980
1823.481300 0.9980 0.9970 0.9980 0.9980 0.9970
1827.829135 0.9970 0.9980 0.9980 0.9970 0.9970
1832.176970 0.9950 0.9930 0.9930 0.9930 0.9930
1836.524805 0.9930 0.9910 0.9910 0.9910 0.9910
1840.872639 0.9910 0.9910 0.9910 0.9900 0.9900
1845.220474 0.9900 0.9890 0.9890 0.9930 0.9940
1849.568309 0.9950 0.9950 0.9970 0.9970 0.9970
1853.916144 0.9970 0.9970 0.9970 0.9970 0.9970
1858.263979 0.9970 0.9980 0.9980 0.9980 0.9980
1862.611813 0.9980 0.9980 0.9980 0.9980 0.9980
1866.959648 0.9980 0.9980 0.9970 0.9970 0.9970
1871.307483 0.9970 0.9950 0.9950 0.9950 0.9950
1875.655318 0.9950 0.9950 0.9950 0.9970 0.9970
1880.003153 0.9970 0.9970 0.9970 0.9970 0.9970
1884.350987 0.9970 0.9970 0.9970 0.9970 0.9980
1888.698822 0.9980 0.9980 0.9980 1.0010 1.0010
1893.046657 1.0010 1.0010 1.0010 1.0010 1.0010
1897.394492 1.0010 1.0010 1.0010 1.0010 1.0010
1901.742327 1.0010 1.0010 1.0010 1.0020 1.0020
1906.090161 1.0020 1.0020 1.0040 1.0050 1.0060
1910.437996 1.0060 1.0060 1.0050 1.0050 1.0050
1914.785831 1.0050 1.0060 1.0060 1.0060 1.0060
1919.133666 1.0060 1.0060 1.0050 1.0060 1.0060
1923.481501 1.0060 1.0080 1.0060 1.0060 1.0060
1927.829335 1.0060 1.0060 1.0060 1.0060 1.0050
1932.177170 1.0050 1.0050 1.0050 1.0050 1.0050
1936.525005 1.0050 1.0050 1.0050 1.0050 1.0050
1940.872840 1.0040 1.0040 1.0040 1.0050 1.0050
1945.220675 1.0060 1.0060 1.0080 1.0080 1.0080
1949.568509 1.0080 1.0060 1.0060 1.0080 1.0080
1953.916344 1.0060 1.0060 1.0080 1.0080 1.0080
1958.264179 1.0080 1.0090 1.0100 1.0140 1.0250
1962.612014 1.0200 1.0200 1.0020 1.0020 1.0020
1966.959849 1.0020 1.0010 1.0020 1.0020 1.0020
1971.307683 1.0020 1.0020 1.0010 1.0010 1.0010
1975.655518 1.0010 1.0010 1.0010 1.0010 1.0010
1980.003353 1.0010 1.0010 1.0010 1.0010 1.0010
1984.351188 1.0010 1.0010 1.0010 1.0010 1.0000
1988.699022 1.0000 1.0000 1.0000 0.9980 0.9980
1993.046857 0.9980 0.9970 1.0010 1.0010 1.0010
1997.394692 1.0010 1.0010 1.0010 1.0000 0.9985
2001.742527 0.9970 0.9960 0.9950 0.9945 0.9940
2006.090362 0.9940 0.9940 0.9945 0.9950 0.9945
2010.438196 0.9940 0.9940 0.9940 0.9970 1.0000
2014.786031 1.0000 1.0000 1.0000 1.0000 1.0000
2019.133866 1.0000 1.0000 1.0000 1.0000 1.0000
2023.481701 1.0000 1.0000 1.0000 1.0000 1.0000
2027.829536 1.0000 0.9985 0.9970 1.0005 1.0040
2032.177370 1.0040 1.0040 1.0040 1.0040 1.0040
2036.525205 1.0040 1.0040 1.0040 1.0040 1.0040
2040.873040 1.0030 1.0020 1.0020 1.0020 1.0020
2045.220875 1.0020 1.0020 1.0020 1.0020 1.0020
2049.568710 1.0030 1.0040 1.0040 1.0040 1.0025
2053.916544 1.0010 1.0010 1.0010 1.0010 1.0010
2058.264379 1.0025 1.0040 1.0040 1.0040 1.0045
2062.612214 1.0050 1.0050 1.0050 1.0050 1.0050
2066.960049 1.0050 1.0050 1.0050 1.0050 1.0050
2071.307884 1.0050 1.0050 1.0050 1.0050 1.0050
2075.655718 1.0050 1.0050 1.0050 1.0050 1.0045
2080.003553 1.0040 1.0045 1.0050 1.0050 1.0050
2084.351388 1.0050 1.0050 1.0050 1.0050 1.0050
2088.699223 1.0050 1.0050 1.0050 1.0050 1.0050
2093.047058 1.0050 1.0050 1.0045 1.0040 1.0040
2097.394892 1.0040 1.0030 1.0020 1.0020 1.0020
2101.742727 1.0020 1.0020 1.0020 1.0020 1.0020
2106.090562 1.0020 1.0020 1.0020 1.0020 1.0020
2110.438397 1.0020 1.0020 1.0020 1.0020 1.0020
2114.786232 1.0020 1.0020 1.0020 1.0020 1.0020
2119.134066 1.0020 1.0020 1.0020 1.0020 1.0020
2123.481901 1.0020 1.0020 1.0020 1.0020 1.0020
2127.829736 1.0020 1.0020 1.0020 1.0020 1.0020
2132.177571 1.0020 1.0030 1.0040 1.0040 1.0040
2136.525406 1.0040 1.0040 1.0040 1.0040 1.0040
2140.873240 1.0040 1.0040 1.0040 1.0040 1.0040
2145.221075 1.0040 1.0040 1.0040 1.0040 1.0040
2149.568910 1.0040 1.0040 1.0040 1.0040 1.0040
2153.916745 1.0040 1.0040 1.0040 1.0040 1.0040
2158.264580 1.0040 1.0040 1.0040 1.0040 1.0040
2162.612414 1.0040 1.0040 1.0040 1.0040 1.0040
2166.960249 1.0040 1.0040 1.0040 1.0040 1.0040
2171.308084 1.0030 1.0020 1.0020 1.0020 1.0020
2175.655919 1.0020 1.0020 1.0020 1.0020 1.0020
2180.003754 1.0030 1.0040 1.0030 1.0020 1.0015
2184.351588 1.0010 1.0010 1.0010 1.0010 1.0010
2188.699423 1.0015 1.0020 1.0020 1.0020 1.0015
2193.047258 1.0010 1.0010 1.0010 1.0010 1.0010
2197.395093 1.0010 1.0010 1.0010 1.0010 1.0010
2201.742928 1.0010 1.0010 1.0010 1.0005 1.0000
2206.090762 1.0000 1.0000 1.0000 1.0000 1.0000
2210.438597 1.0000 1.0000 1.0000 1.0000 1.0000
2214.786432 1.0000 1.0000 0.9990 0.9980 0.9980
2219.134267 0.9980 0.9990 1.0000 0.9990 0.9980
2223.482102 0.9975 0.9970 0.9975 0.9980 0.9980
2227.829936 0.9980 0.9990 1.0000 1.0000 1.0000
2232.177771 0.9975 0.9950 0.9945 0.9940 0.9940
2236.525606 0.9940 0.9940 0.9940 0.9940 0.9940
2240.873441 0.9935 0.9930 0.9920 0.9910 0.9905
2245.221276 0.9900 0.9900 0.9900 0.9900 0.9900
2249.569110 0.9885 0.9870 0.9865 0.9860 0.9825
2253.916945 0.9790 0.9770 0.9750 0.9730 0.9710
2258.264780 0.9690 0.9670 0.9660 0.9650 0.9650
2262.612615 0.9650 0.9650 0.9650 0.9650 0.9650
2266.960450 0.9660 0.9670 0.9670 0.9670 0.9675
2271.308284 0.9680 0.9700 0.9720 0.9720 0.9720
2275.656119 0.9730 0.9740 0.9740 0.9740 0.9750
2280.003954 0.9760 0.9760 0.9760 0.9760 0.9760
2284.351789 0.9760 0.9760 0.9760 0.9760 0.9760
2288.699623 0.9760 0.9760 0.9760 0.9760 0.9760
2293.047458 0.9760 0.9760 0.9750 0.9740 0.9740
2297.395293 0.9740 0.9740 0.9740 0.9730 0.9720
2301.743128 0.9715 0.9710 0.9705 0.9700 0.9670
2306.090963 0.9640 0.9605 0.9570 0.9565 0.9560
2310.438797 0.9555 0.9550 0.9555 0.9560 0.9580
2314.786632 0.9600 0.9600 0.9600 0.9605 0.9610
2319.134467 0.9640 0.9670 0.9675 0.9680 0.9625
2323.482302 0.9570 0.9590 0.9610 0.9625 0.9640
2327.830137 0.9660 0.9680 0.9680 0.9680 0.9740
2332.177971 0.9800 0.9810 0.9820 0.9730 0.9640
2336.525806 0.9735 0.9830 0.9830 0.9830 0.9870
2340.873641 0.9910 0.9811 0.9711 0.9824 0.9939
2345.221476 0.9846 0.9751 0.9750 0.9750 0.9775
2349.569311 0.9800 0.9845 0.9890 0.9915 0.9940
2353.917145 0.9960 0.9980 0.9980 0.9980 0.9980
2358.264980 0.9980 0.9935 0.9890 0.9855 0.9820
2362.612815 0.9879 0.9939 0.9925 0.9910 0.9910
2366.960650 0.9910 0.9910 0.9910 0.9855 0.9800
2371.308485 0.9890 0.9980 0.9905 0.9830 0.9795
2375.656319 0.9760 0.9750 0.9740 0.9740 0.9740
2380.004154 0.9765 0.9790 0.9795 0.9800 0.9815
2384.351989 0.9830 0.9845 0.9860 0.9880 0.9900
2388.699824 0.9915 0.9930 0.9940 0.9950 0.9950
2393.047659 0.9950 0.9960 0.9970 0.9970 0.9970
2397.395493 0.9975 0.9980 0.9980 0.9980 0.9990
2401.743328 1.0000 1.0000 1.0000 1.0000 1.0000
2406.091163 1.0000 1.0000 1.0000 1.0000 1.0000
2410.438998 1.0000 1.0000 1.0000 1.0000 1.0000
2414.786833 1.0000 1.0000 1.0000 1.0000 0.9990
2419.134667 0.9980 0.9975 0.9970 0.9960 0.9950
2423.482502 0.9945 0.9940 0.9935 0.9930 0.9920
2427.830337 0.9910 0.9910 0.9910 0.9955 1.0000
2432.178172 1.0000 1.0000 0.9975 0.9950 0.9950
2436.526007 0.9950 0.9950 0.9950 0.9950 0.9950
2440.873841 0.9950 0.9950 0.9975 1.0000 1.0000
2445.221676 1.0000 1.0000 1.0000 1.0000 1.0000
2449.569511 1.0000 1.0000 1.0000 1.0000 1.0000
2453.917346 1.0000 1.0000 1.0000 1.0000 1.0000
2458.265181 0.9985 0.9970 0.9970 0.9970 0.9975
2462.613015 0.9980 0.9980 0.9980 0.9980 0.9980
2466.960850 0.9980 0.9980 0.9980 0.9980 0.9980
2471.308685 0.9980 0.9990 1.0000 0.9990 0.9980
2475.656520 0.9980 0.9980 0.9980 0.9980 0.9990
2480.004355 1.0000 1.0000 1.0000 0.9975 0.9950
2484.352189 0.9945 0.9940 0.9940 0.9940 0.9935
2488.700024 0.9930 0.9930 0.9930 0.9915 0.9900
2493.047859 0.9880 0.9860 0.9845 0.9830 0.9825
2497.395694 0.9820 0.9810 0.9800 0.9800 0.9800
2501.743529 0.9800 0.9800 0.9800 0.9800 0.9795
2506.091363 0.9790 0.9790 0.9790 0.9790 0.9790
2510.439198 0.9790 0.9790 0.9795 0.9800 0.9800
2514.787033 0.9800 0.9800 0.9800 0.9815 0.9830
2519.134868 0.9840 0.9850 0.9870 0.9890 0.9895
2523.482703 0.9900 0.9900 0.9900 0.9905 0.9910
2527.830537 0.9910 0.9910 0.9910 0.9910 0.9910
2532.178372 0.9910 0.9910 0.9910 0.9910 0.9910
2536.526207 0.9920 0.9930 0.9930 0.9930 0.9930
2540.874042 0.9930 0.9930 0.9930 0.9930 0.9930
2545.221877 0.9935 0.9940 0.9940 0.9940 0.9940
2549.569711 0.9940 0.9955 0.9970 0.9970 0.9970
2553.917546 0.9950 0.9930 0.9920 0.9910 0.9910
2558.265381 0.9910 0.9905 0.9900 0.9900 0.9900
2562.613216 0.9895 0.9890 0.9890 0.9890 0.9890
2566.961050 0.9890 0.9880 0.9870 0.9870 0.9870
2571.308885 0.9865 0.9860 0.9855 0.9850 0.9850
2575.656720 0.9850 0.9850 0.9850 0.9850 0.9850
2580.004555 0.9850 0.9850 0.9840 0.9830 0.9830
2584.352390 0.9830 0.9840 0.9850 0.9850 0.9850
2588.700224 0.9840 0.9830 0.9830 0.9830 0.9830
2593.048059 0.9830 0.9830 0.9830 0.9840 0.9850
2597.395894 0.9850 0.9850 0.9850 0.9850 0.9850
2601.743729 0.9850 0.9850 0.9850 0.9855 0.9860
2606.091564 0.9860 0.9860 0.9860 0.9860 0.9865
2610.439398 0.9870 0.9880 0.9890 0.9890 0.9890
2614.787233 0.9895 0.9900 0.9895 0.9890 0.9880
2619.135068 0.9870 0.9860 0.9850 0.9840 0.9830
2623.482903 0.9825 0.9820 0.9820 0.9820 0.9820
2627.830738 0.9820 0.9810 0.9800 0.9800 0.9800
2632.178572 0.9795 0.9790 0.9785 0.9780 0.9770
2636.526407 0.9760 0.9755 0.9750 0.9745 0.9740
2640.874242 0.9740 0.9740 0.9740 0.9740 0.9745
2645.222077 0.9750 0.9750 0.9750 0.9755 0.9760
2649.569912 0.9770 0.9780 0.9790 0.9800 0.9815
2653.917746 0.9830 0.9840 0.9850 0.9855 0.9860
2658.265581 0.9865 0.9870 0.9870 0.9870 0.9880
2662.613416 0.9890 0.9890 0.9890 0.9890 0.9890
2666.961251 0.9890 0.9890 0.9890 0.9890 0.9890
2671.309086 0.9890 0.9890 0.9890 0.9890 0.9890
2675.656920 0.9890 0.9890 0.9890 0.9890 0.9890
2680.004755 0.9890 0.9880 0.9870 0.9865 0.9860
2684.352590 0.9860 0.9860 0.9845 0.9830 0.9830
2688.700425 0.9830 0.9825 0.9820 0.9820 0.9820
2693.048260 0.9820 0.9820 0.9820 0.9820 0.9820
2697.396094 0.9820 0.9820 0.9820 0.9810 0.9800
2701.743929 0.9800 0.9800 0.9800 0.9800 0.9800
2706.091764 0.9800 0.9795 0.9790 0.9790 0.9790
2710.439599 0.9790 0.9790 0.9795 0.9800 0.9795
2714.787434 0.9790 0.9790 0.9790 0.9785 0.9780
2719.135268 0.9780 0.9780 0.9770 0.9760 0.9730
2723.483103 0.9700 0.9670 0.9640 0.9605 0.9570
2727.830938 0.9545 0.9520 0.9460 0.9400 0.9390
2732.178773 0.9380 0.9380 0.9380 0.9395 0.9410
2736.526608 0.9445 0.9480 0.9505 0.9530 0.9545
2740.874442 0.9560 0.9585 0.9610 0.9655 0.9700
2745.222277 0.9710 0.9720 0.9735 0.9750 0.9750
2749.570112 0.9750 0.9750 0.9750 0.9735 0.9720
2753.917947 0.9710 0.9700 0.9690 0.9680 0.9680
2758.265782 0.9680 0.9655 0.9630 0.9595 0.9560
2762.613616 0.9560 0.9560 0.9585 0.9610 0.9630
2766.961451 0.9650 0.9685 0.9720 0.9735 0.9750
2771.309286 0.9755 0.9760 0.9770 0.9780 0.9780
2775.657121 0.9780 0.9780 0.9780 0.9780 0.9780
2780.004956 0.9780 0.9780 0.9770 0.9760 0.9755
2784.352790 0.9750 0.9750 0.9750 0.9745 0.9740
2788.700625 0.9730 0.9720 0.9720 0.9720 0.9710
2793.048460 0.9700 0.9700 0.9700 0.9690 0.9680
2797.396295 0.9665 0.9650 0.9650 0.9650 0.9630
2801.744130 0.9610 0.9590 0.9570 0.9560 0.9550
2806.091964 0.9535 0.9520 0.9490 0.9460 0.9450
2810.439799 0.9440 0.9405 0.9370 0.9350 0.9330
2814.787634 0.9310 0.9290 0.9280 0.9270 0.9280
2819.135469 0.9290 0.9300 0.9310 0.9325 0.9340
2823.483304 0.9370 0.9400 0.9405 0.9410 0.9415
2827.831138 0.9420 0.9420 0.9420 0.9415 0.9410
2832.178973 0.9410 0.9410 0.9410 0.9410 0.9410
2836.526808 0.9410 0.9405 0.9400 0.9400 0.9400
2840.874643 0.9385 0.9370 0.9360 0.9350 0.9340
2845.222477 0.9330 0.9315 0.9300 0.9231 0.9161
2849.570312 0.9106 0.9051 0.9010 0.8970 0.8940
2853.918147 0.8910 0.8875 0.8840 0.8800 0.8760
2858.265982 0.8695 0.8630 0.8555 0.8480 0.8371
2862.613817 0.8261 0.7972 0.7682 0.7586 0.7491
2866.961651 0.6901 0.6307 0.5757 0.5210 0.5165
2871.309486 0.5120 0.5125 0.5131 0.5355 0.5580
2875.657321 0.6175 0.6769 0.6979 0.7189 0.7324
2880.005156 0.7459 0.7569 0.7679 0.7695 0.7710
2884.352991 0.7710 0.7710 0.7695 0.7680 0.7680
2888.700825 0.7680 0.7675 0.7670 0.7530 0.7390
2893.048660 0.7180 0.6970 0.6895 0.6820 0.6815
2897.396495 0.6810 0.6850 0.6890 0.6954 0.7019
2901.744330 0.7094 0.7169 0.7215 0.7260 0.7250
2906.092165 0.7240 0.7235 0.7230 0.7190 0.7150
2910.439999 0.7025 0.6900 0.6576 0.6251 0.5996
2914.787834 0.5741 0.5467 0.5192 0.5066 0.4941
2919.135669 0.4806 0.4672 0.4635 0.4600 0.4545
2923.483504 0.4490 0.4465 0.4440 0.4390 0.4340
2927.831339 0.4195 0.4050 0.3905 0.3761 0.3546
2932.179173 0.3331 0.3141 0.2951 0.2950 0.2950
2936.527008 0.2970 0.2990 0.3085 0.3181 0.3341
2940.874843 0.3502 0.3927 0.4351 0.4896 0.5440
2945.222678 0.5625 0.5810 0.5920 0.6030 0.6120
2949.570513 0.6210 0.6230 0.6250 0.6240 0.6230
2953.918347 0.6220 0.6210 0.6180 0.6149 0.6050
2958.266182 0.5950 0.5845 0.5740 0.5620 0.5500
2962.614017 0.5320 0.5140 0.4911 0.4681 0.4416
2966.961852 0.4152 0.3956 0.3762 0.3463 0.3163
2971.309687 0.2215 0.1261 0.1120 0.0989 0.0859
2975.657521 0.0730 0.0660 0.0590 0.0600 0.0610
2980.005356 0.0635 0.0660 0.0675 0.0690 0.0690
2984.353191 0.0690 0.0685 0.0680 0.0650 0.0620
2988.701026 0.0605 0.0590 0.0590 0.0590 0.0600
2993.048861 0.0610 0.0645 0.0681 0.0870 0.1060
2997.396695 0.1340 0.1620 0.1979 0.2339 0.2699
3001.744530 0.3058 0.3428 0.3797 0.4365 0.4935
3006.092365 0.5064 0.5189 0.5489 0.5792 0.6076
3010.440200 0.6361 0.6716 0.7070 0.7325 0.7580
3014.788035 0.7705 0.7830 0.7905 0.7980 0.8109
3019.135869 0.8239 0.8334 0.8429 0.8504 0.8579
3023.483704 0.8699 0.8819 0.8865 0.8910 0.8940
3027.831539 0.8970 0.9000 0.9030 0.9075 0.9120
3032.179374 0.9160 0.9200 0.9265 0.9330 0.9350
3036.527209 0.9370 0.9395 0.9420 0.9435 0.9450
3040.875043 0.9470 0.9490 0.9525 0.9560 0.9580
3045.222878 0.9600 0.9600 0.9600 0.9605 0.9610
3049.570713 0.9610 0.9610 0.9625 0.9640 0.9660
3053.918548 0.9680 0.9695 0.9710 0.9710 0.9710
3058.266383 0.9730 0.9750 0.9750 0.9750 0.9755
3062.614217 0.9760 0.9775 0.9790 0.9790 0.9790
3066.962052 0.9790 0.9790 0.9795 0.9800 0.9815
3071.309887 0.9830 0.9845 0.9860 0.9865 0.9870
3075.657722 0.9880 0.9890 0.9890 0.9890 0.9890
3080.005557 0.9890 0.9890 0.9890 0.9890 0.9890
3084.353391 0.9895 0.9900 0.9900 0.9900 0.9905
3088.701226 0.9910 0.9910 0.9910 0.9910 0.9910
3093.049061 0.9910 0.9910 0.9910 0.9910 0.9910
3097.396896 0.9910 0.9920 0.9930 0.9935 0.9940
3101.744731 0.9940 0.9940 0.9940 0.9940 0.9945
3106.092565 0.9950 0.9950 0.9950 0.9950 0.9950
3110.440400 0.9950 0.9950 0.9950 0.9950 0.9950
3114.788235 0.9950 0.9950 0.9950 0.9950 0.9950
3119.136070 0.9950 0.9950 0.9950 0.9950 0.9950
3123.483904 0.9950 0.9945 0.9940 0.9940 0.9940
3127.831739 0.9940 0.9940 0.9940 0.9940 0.9940
3132.179574 0.9940 0.9935 0.9930 0.9930 0.9930
3136.527409 0.9920 0.9910 0.9910 0.9910 0.9910
3140.875244 0.9910 0.9910 0.9910 0.9910 0.9910
3145.223078 0.9910 0.9910 0.9910 0.9910 0.9910
3149.570913 0.9910 0.9910 0.9910 0.9910 0.9910
3153.918748 0.9910 0.9910 0.9910 0.9910 0.9910
3158.266583 0.9910 0.9910 0.9910 0.9910 0.9910
3162.614418 0.9910 0.9910 0.9910 0.9910 0.9910
3166.962252 0.9910 0.9910 0.9910 0.9905 0.9900
3171.310087 0.9900 0.9900 0.9895 0.9890 0.9880
3175.657922 0.9870 0.9865 0.9860 0.9855 0.9850
3180.005757 0.9840 0.9830 0.9825 0.9820 0.9810
3184.353592 0.9800 0.9800 0.9800 0.9795 0.9790
3188.701426 0.9790 0.9790 0.9790 0.9790 0.9785
3193.049261 0.9780 0.9770 0.9760 0.9760 0.9760
3197.397096 0.9755 0.9750 0.9750 0.9750 0.9750
3201.744931 0.9750 0.9755 0.9760 0.9755 0.9750
3206.092766 0.9750 0.9750 0.9750 0.9750 0.9750
3210.440600 0.9750 0.9745 0.9740 0.9745 0.9750
3214.788435 0.9750 0.9750 0.9750 0.9750 0.9750
3219.136270 0.9750 0.9750 0.9750 0.9750 0.9750
3223.484105 0.9755 0.9760 0.9760 0.9760 0.9770
3227.831940 0.9780 0.9780 0.9780 0.9780 0.9780
3232.179774 0.9780 0.9780 0.9780 0.9780 0.9780
3236.527609 0.9780 0.9780 0.9780 0.9780 0.9780
3240.875444 0.9780 0.9780 0.9770 0.9760 0.9760
3245.223279 0.9760 0.9760 0.9760 0.9760 0.9760
3249.571114 0.9760 0.9760 0.9760 0.9760 0.9770
3253.918948 0.9780 0.9785 0.9790 0.9790 0.9790
3258.266783 0.9790 0.9790 0.9805 0.9820 0.9825
3262.614618 0.9830 0.9845 0.9860 0.9865 0.9870
3266.962453 0.9880 0.9890 0.9890 0.9890 0.9890
3271.310288 0.9890 0.9890 0.9890 0.9880 0.9870
3275.658122 0.9870 0.9870 0.9860 0.9850 0.9850
3280.005957 0.9850 0.9840 0.9830 0.9830 0.9830
3284.353792 0.9830 0.9830 0.9830 0.9830 0.9830
3288.701627 0.9830 0.9830 0.9830 0.9830 0.9830
3293.049462 0.9825 0.9820 0.9820 0.9820 0.9810
3297.397296 0.9800 0.9795 0.9790 0.9790 0.9790
3301.745131 0.9785 0.9780 0.9780 0.9780 0.9780
3306.092966 0.9780 0.9780 0.9780 0.9780 0.9780
3310.440801 0.9780 0.9780 0.9780 0.9780 0.9785
3314.788636 0.9790 0.9790 0.9790 0.9790 0.9790
3319.136470 0.9790 0.9790 0.9790 0.9790 0.9790
3323.484305 0.9790 0.9790 0.9790 0.9790 0.9790
3327.832140 0.9790 0.9790 0.9790 0.9790 0.9795
3332.179975 0.9800 0.9800 0.9800 0.9810 0.9820
3336.527810 0.9810 0.9800 0.9800 0.9800 0.9800
3340.875644 0.9800 0.9800 0.9800 0.9795 0.9790
3345.223479 0.9790 0.9790 0.9785 0.9780 0.9780
3349.571314 0.9780 0.9780 0.9780 0.9770 0.9760
3353.919149 0.9760 0.9760 0.9760 0.9760 0.9760
3358.266984 0.9760 0.9755 0.9750 0.9750 0.9750
3362.614818 0.9735 0.9720 0.9720 0.9720 0.9720
3366.962653 0.9720 0.9720 0.9720 0.9715 0.9710
3371.310488 0.9705 0.9700 0.9690 0.9680 0.9680
3375.658323 0.9680 0.9675 0.9670 0.9670 0.9670
3380.006158 0.9660 0.9650 0.9645 0.9640 0.9635
3384.353992 0.9630 0.9630 0.9630 0.9620 0.9610
3388.701827 0.9605 0.9600 0.9600 0.9600 0.9600
3393.049662 0.9600 0.9595 0.9590 0.9590 0.9590
3397.397497 0.9580 0.9570 0.9570 0.9570 0.9565
3401.745331 0.9560 0.9560 0.9560 0.9560 0.9560
3406.093166 0.9555 0.9550 0.9550 0.9550 0.9550
3410.441001 0.9550 0.9550 0.9550 0.9555 0.9560
3414.788836 0.9560 0.9560 0.9560 0.9560 0.9565
3419.136671 0.9570 0.9580 0.9590 0.9595 0.9600
3423.484505 0.9615 0.9630 0.9635 0.9640 0.9645
3427.832340 0.9650 0.9650 0.9650 0.9660 0.9670
3432.180175 0.9675 0.9680 0.9695 0.9710 0.9715
3436.528010 0.9720 0.9720 0.9720 0.9735 0.9750
3440.875845 0.9750 0.9750 0.9750 0.9750 0.9750
3445.223679 0.9750 0.9750 0.9750 0.9755 0.9760
3449.571514 0.9770 0.9780 0.9785 0.9790 0.9805
3453.919349 0.9820 0.9820 0.9820 0.9820 0.9820
3458.267184 0.9825 0.9830 0.9830 0.9830 0.9840
3462.615019 0.9850 0.9850 0.9850 0.9850 0.9850
3466.962853 0.9855 0.9860 0.9860 0.9860 0.9860
3471.310688 0.9860 0.9865 0.9870 0.9870 0.9870
3475.658523 0.9870 0.9870 0.9880 0.9890 0.9895
3480.006358 0.9900 0.9900 0.9900 0.9905 0.9910
3484.354193 0.9910 0.9910 0.9920 0.9930 0.9930
3488.702027 0.9930 0.9930 0.9930 0.9930 0.9930
3493.049862 0.9935 0.9940 0.9945 0.9950 0.9960
3497.397697 0.9970 0.9970 0.9970 0.9975 0.9980
3501.745532 0.9980 0.9980 0.9980 0.9980 0.9975
3506.093367 0.9970 0.9970 0.9970 0.9970 0.9970
3510.441201 0.9970 0.9970 0.9970 0.9970 0.9970
3514.789036 0.9970 0.9975 0.9980 0.9980 0.9980
3519.136871 0.9980 0.9980 0.9980 0.9980 0.9990
3523.484706 1.0000 1.0000 1.0000 1.0000 1.0000
3527.832541 1.0000 1.0000 1.0000 1.0000 1.0000
3532.180375 1.0000 1.0000 1.0000 1.0000 1.0000
3536.528210 1.0000 1.0000 1.0000 1.0000 1.0000
3540.876045 1.0000 1.0000 1.0000 1.0000 1.0000
3545.223880 1.0000 1.0000 1.0000 1.0000 1.0000
3549.571715 1.0000 1.0000 1.0000 1.0000 1.0000
3553.919549 0.9990 0.9980 0.9980 0.9980 0.9980
3558.267384 0.9980 0.9980 0.9980 0.9990 1.0000
3562.615219 1.0000 1.0000 0.9990 0.9980 0.9980
3566.963054 0.9980 0.9980 0.9980 0.9980 0.9980
3571.310889 0.9980 0.9980 0.9975 0.9970 0.9970
3575.658723 0.9970 0.9970 0.9970 0.9970 0.9970
3580.006558 0.9970 0.9970 0.9970 0.9970 0.9975
3584.354393 0.9980 0.9980 0.9980 0.9980 0.9980
3588.702228 0.9980 0.9980 0.9980 0.9980 0.9980
3593.050063 0.9980 0.9990 1.0000 1.0000 1.0000
3597.397897 1.0000 1.0000 1.0000 1.0000 1.0005
3601.745732 1.0010 1.0010 1.0010 1.0005 1.0000
3606.093567 1.0000 1.0000 1.0005 1.0010 1.0015
3610.441402 1.0020 1.0020 1.0020 1.0015 1.0010
3614.789237 1.0010 1.0010 1.0010 1.0010 1.0010
3619.137071 1.0010 1.0005 1.0000 1.0000 1.0000
3623.484906 1.0000 1.0000 1.0005 1.0010 1.0015
3627.832741 1.0020 1.0020 1.0020 1.0030 1.0040
3632.180576 1.0040 1.0040 1.0040 1.0040 1.0045
3636.528411 1.0050 1.0050 1.0050 1.0050 1.0050
3640.876245 1.0050 1.0050 1.0050 1.0050 1.0050
3645.224080 1.0050 1.0050 1.0050 1.0050 1.0050
3649.571915 1.0050 1.0050 1.0045 1.0040 1.0045
3653.919750 1.0050 1.0050 1.0050 1.0050 1.0050
3658.267585 1.0050 1.0050 1.0050 1.0050 1.0050
3662.615419 1.0050 1.0050 1.0050 1.0050 1.0050
3666.963254 1.0055 1.0060 1.0060 1.0060 1.0060
3671.311089 1.0060 1.0055 1.0050 1.0045 1.0040
3675.658924 1.0040 1.0040 1.0030 1.0020 1.0020
3680.006758 1.0020 1.0020 1.0020 1.0020 1.0020
3684.354593 1.0020 1.0020 1.0020 1.0020 1.0020
3688.702428 1.0020 1.0020 1.0020 1.0020 1.0020
3693.050263 1.0020 1.0020 1.0020 1.0020 1.0030
3697.398098 1.0040 1.0040 1.0040 1.0040 1.0040
3701.745932 1.0040 1.0040 1.0040 1.0040 1.0040
3706.093767 1.0040 1.0040 1.0040 1.0040 1.0040
3710.441602 1.0030 1.0020 1.0020 1.0020 1.0020
3714.789437 1.0020 1.0020 1.0020 1.0020 1.0020
3719.137272 1.0030 1.0040 1.0045 1.0050 1.0050
3723.485106 1.0050 1.0050 1.0050 1.0050 1.0050
3727.832941 1.0045 1.0040 1.0025 1.0010 1.0010
3732.180776 1.0010 1.0010 1.0010 1.0025 1.0040
3736.528611 1.0045 1.0050 1.0050 1.0050 1.0050
3740.876446 1.0050 1.0030 1.0010 1.0010 1.0010
3745.224280 1.0035 1.0060 1.0060 1.0060 1.0050
3749.572115 1.0040 1.0045 1.0050 1.0050 1.0050
3753.919950 1.0050 1.0050 1.0050 1.0050 1.0050
3758.267785 1.0050 1.0050 1.0050 1.0050 1.0050
3762.615620 1.0030 1.0010 1.0010 1.0010 1.0025
3766.963454 1.0040 1.0040 1.0040 1.0040 1.0040
3771.311289 1.0040 1.0040 1.0040 1.0040 1.0045
3775.659124 1.0050 1.0045 1.0040 1.0045 1.0050
3780.006959 1.0050 1.0050 1.0050 1.0050 1.0050
3784.354794 1.0050 1.0035 1.0020 1.0015 1.0010
3788.702628 1.0010 1.0010 1.0005 1.0000 0.9990
3793.050463 0.9980 0.9965 0.9950 0.9940
##END=
