##TITLE=Ethylene Oxide
##JCAMP-DX=4.24
##DATA TYPE=INFRARED SPECTRUM
##CLASS=IUPAC A
##ORIGIN=NIST, Anayltical Chemistry Division, 301-975-3108
##OWNER=COPYRIGHT (C) 1998 by the U.S. Secretary of Commerce
##DATE=98/10/1
##$SPECTRA VERSION=1.00
##$UNCERTAINTY IN Y=2.1 % relative (B=1.1E-04,C=1.2E-09,D=2.7E-14)
##CAS NAME=1,2-Epoxyethane
##CAS REGISTRY NO=75-21-8
##MOLFORM=C2 H4 O
##MP=-111 C
##BP=13.5 C
##$NIST SOURCE=QUANT-IR
##SPECTROMETER/DATA SYSTEM=IFS66V (Bruker)
##INSTRUMENT PARAMETERS=KBr Beam splitter; MCT Detector; Multipass cell
##STATE=gas
##SAMPLE DESCRIPTION=Ethylene Oxide Primary Gas Standard
##PRESSURE=101.3 kPa
##TEMPERATURE=23 C
##SAMPLING PROCEDURE=1 L/min Flow
##RESOLUTION=0.9640
##DATA PROCESSING=NB Strong Apodization
##XUNITS=cm-1
##YUNITS=(micromol/mol)-1m-1 (base 10)
##XFACTOR=1.0
##YFACTOR=9.0949E-13
##DELTAX=0.4820
##FIRSTX=575.169
##LASTX=3975.077
##FIRSTY=-5.26E-07
##MAXX=3974.59
##MINX=575.17
##MAXY=.0017322
##MINY=-8.62E-07
##NPOINTS=7053
##XYDATA=(X++(Y..Y))
575.17-578842-182434-16298-187406-3094 132408
577.58 132300-550686-947918-644102-508684-545548
580.47-204152 36374-451198-503388-179836-286710
583.37-198164-311390-526086-193452-192320-181848
586.26-397256-545342-376414-210164-182850-82006
589.15-115454-132926-178996-276530-19506 34030
592.04-169098-159546-120066 3642-226286-419324
594.94-500520-624486-472900-3922-37414-406924
597.83-575978-506580-518008-366498-321772-234334
600.72 18208 53620-90280-147154-79984-85544
603.61-339336-356154-162692-182244-432942-450952
606.51-504082-530098-403934-184124-258304-381564
609.40-262562-227882-241858-220636-190240-257390
612.29-296770-88578-51082-151198-214046-307470
615.18-318946-234128-215346-290926-380960-227232
618.08-188940-263282-105166-170648-276890-110778
620.97-126042-206530-150602-214594-271772-170894
623.86-223592-187726-186924-205544-261356-250636
626.76-128152-202556-315968-331544-209234-301748
629.65-401844-248642-170950-122198-223446-340360
632.54-323392-317188-236218-153944-165952-307242
635.43-378798-138964-56500-167732-248252-296226
638.33-291600-308082-218186-76020-84336-33434
641.22-83934-167776-229998-273888-311752-202832
644.11-198954-226454-255950-272772-365874-311918
647.00-246118-299946-280784-231606-234412-126202
649.90-103840-177776-243478-269266-280938-196534
652.79-206328-238462-292320-213888-90908-65164
655.68-232942-264470-194224-136044-227452-246078
658.58-146984-219266-291536-178740-144430-196424
661.47-231108-111568-17520-72082-141756-230404
664.36-244768-145966-223156-338650-314998-288858
667.25-300858-183004-142724-177996-146828-125636
670.15-184844-177332-213738-184718-192006-130020
673.04-127252-213374-194544-234068-174748-120908
675.93-226848-185482-98098-31700-70498-141562
678.82-172514-173594-204382-174996-106126-34734
681.72-6052-28964-66492-117072-176790-134874
684.61-118502-222946-297994-197688-157000-234314
687.50-162972-129388-164136-128588-151366-139622
690.40-78252-145598-230120-244406-153266-155818
693.29-241152-241398-236788-214438-214312-281092
696.18-231084-256162-194654-78976-166462-240886
699.07-184592-307614-290066-120646-133908-134394
701.97-155440-196904-160428-53738-105034-160088
704.86-279026-340564-344510-315366-250128-164178
707.75-121988-162798-247512-200686-199534-258016
710.64-258668-245504-192624-159122-131336-84392
713.54-157062-205100-236738-227826-229160-240416
716.43-297144-285256-188748-166692-196714-142250
719.32-145618-180314-103590-117516-118976-77656
722.22-145434-99248-150992-208900-188550-188146
725.11-247432-281140-282832-225176-131456-92830
728.00-171034-122222-147800-183132-129380-85888
730.89-107272-65964-36160-40538-30700-3776
733.79-68936-96414-80412-10654-29206-57858
736.68-61444-54472-85710-58222-46816-21492
739.57-5922 19252 21960 44700 36930 16098
742.46 46722 72970 87450 133406 84508 42254
745.36 49630 87332 88206 82076 118414 195948
748.25 217062 166080 136356 167330 178368 196842
751.14 156884 168336 203400 298500 327096 385072
754.04 331908 344074 320362 291854 331904 399276
756.93 468720 473168 428974 395174 398392 532874
759.82 529678 464800 448346 505486 547386 638668
762.71 700082 750114 786910 810504 811718 865292
765.61 841054 868990 993122 1093768 992630 980218
768.50 1030504 1146390 1205892 1353196 1359818 1302114
771.39 1349634 1433080 1475242 1664040 1767194 1813394
774.28 1848156 1860854 2046880 2361224 2215318 2241250
777.18 2543988 2444776 2554458 2983444 2897626 3106298
780.07 3281516 3094702 3611648 3942978 3542238 3958402
782.96 4158854 3990394 4678776 4819190 4560596 5221438
785.86 5281896 5463642 6075176 6101206 6260228 6636460
788.75 6693270 7001834 7679244 7773170 7788882 8240854
791.64 8334068 8628240 9267488 9328490 9799946 10734770
794.53 10364020 10432590 11517730 11087270 11860170 12759560
797.43 12030720 12751200 13138390 12732890 14099010 14710640
800.32 13792730 14812200 15324180 14764020 15965440 16346120
803.21 15264350 16323340 17134940 16676070 17806170 18252920
806.10 18438410 21803090 24799110 25796870 26441350 25769360
809.00 25045950 26221130 25771660 26144530 26700540 26407210
811.89 26136030 26772340 26902590 28507610 29525630 30060650
814.78 30674380 31176050 30370810 28856270 26678100 25341030
817.68 26384650 32620090 43779560 56650680 67263340 75757090
820.57 82565380 79238160 57002800 31121710 20222720 18116130
823.46 18192500 19484520 21374770 22654230 24622630 26769050
826.35 27508420 28996560 31154290 32447660 35887400 40146900
829.25 41494730 44284090 50363510 53379660 57797470 66166990
832.14 67444190 71463740 81243060 84929280 90659890 97496200
835.03 103229200 109443100 114211500 122307700 128802700 131033100
837.92 138492600 144235800 142934800 142686700 141430100 136748800
840.82 132337900 133538400 131913300 129032700 131388900 131034000
843.71 126617900 129237100 135463100 134629800 131754000 135950700
846.60 140617500 141407200 146634500 150239000 149076600 153823300
849.50 160700900 164039200 166416400 170237700 176872600 178670200
852.39 178940800 185990600 192262700 192859600 193623100 199093100
855.28 198202300 199240500 206514400 206903700 199889400 199127000
858.17 205393600 200086200 193346100 199288700 193842100 181102800
861.07 183729300 181579300 168706300 165850900 168598100 161832700
863.96 157081200 165149000 167465900 161920600 167948400 179197200
866.85 181024600 187384100 203128800 216006100 229481400 248901100
869.74 266232400 278621600 290623900 301421600 303026800 294508400
872.64 279213200 252018000 218014600 176704600 132520000 90727910
875.53 57272990 39467570 41299830 61777080 96971620 137067100
878.42 175562900 199231700 214130000 218849800 220975000 225666300
881.31 222524700 215454700 208472100 201536400 192219600 181187200
884.21 172746000 168963600 156624900 154450300 157310600 147895600
887.10 142593300 144054200 144769600 136841000 139090800 145578800
889.99 138212700 136183500 140327200 142553200 135953200 136262200
892.89 147300000 138494800 137068800 144115000 138027500 138622300
895.78 139994700 140533100 143796200 132936600 136256100 141694400
898.67 133443300 135398800 136757900 132554600 131726400 125552600
901.56 130712200 132431400 119263800 124676200 125085000 113149100
904.46 118052700 120379400 112334800 108993400 106463800 108626600
907.35 105565700 97146900 101468000 99444950 89629850 92946540
910.24 90541630 83332570 86269740 82851050 78796870 77524680
913.13 70549370 72786450 73041520 63308940 65137210 65693310
916.03 57425880 57511240 57011740 52688450 53098370 49397220
918.92 46832520 46429350 41438640 42746960 43154840 36101780
921.81 35645260 36700790 32452090 31892160 31247280 28391340
924.71 28119080 26283470 24299140 24759900 22418850 20405960
927.60 21516270 19075900 17248920 18892680 16673050 14527350
930.49 15213730 13615040 13046660 13088750 11314090 11380110
933.38 10624510 9084758 9957622 8983546 7625850 8236030
936.28 7404584 6618260 6766524 6118636 5689660 5345796
939.17 4847548 4817650 4562852 4059964 4019920 3815172
942.06 3230522 3119954 3144386 2698728 2647170 2590892
944.95 2211010 2162040 1981206 1758710 1890370 1633270
947.85 1480836 1454540 1158042 1213306 1250794 1056588
950.74 1086298 890080 706826 786078 716688 696478
953.63 638396 488790 522398 451988 343600 367688
956.53 331018 328022 323110 276730 293368 233838
959.42 181352 185418 131602 120142 128690 120388
962.31 151394 102250 37602 8764 10158 1244
965.20-31796-51320-57874-61596-18108 5152
968.10-62908-41224-21550-69690-90742-118438
970.99-152782-148322-130130-91026-56010-51822
973.88-76596-125702-130746-110008-104242-131396
976.77-110854-80044-73606-116428-121056-138452
979.67-139694-165884-161600-158132-165884-156030
982.56-179748-150836-131094-111640-110694-157146
985.45-158286-138124-143122-135766-153518-155946
988.35-194376-225788-192606-179792-169136-181512
991.24-169816-162054-157934-156292-182374-181930
994.13-158440-145200-179208-170688-144846-155696
997.02-162388-192338-213554-203810-202824-168728
999.92-134856-132218-153956-172104-174106-203660
1002.81-203360-174810-164862-174076-177102-143322
1005.70-145894-184360-220972-212944-185446-162848
1008.59-126464-101574-124956-170992-184788-132400
1011.49-105982-105828-110016-128992-174998-180946
1014.38-149664-128970-145968-137196-161412-182730
1017.27-152088-116044-133002-129996-173220-182048
1020.17-144800-147744-162468-135306-140182-158472
1023.06-164682-140066-114442-101750-108204-131124
1025.95-121794-103652-109622-99148-69994-22040
1028.84 131070 411014 383124 171426 43674-58646
1031.74-81196-84050-74022-57758-68232-55312
1034.63-60684-67870-50894-78250-83488-65440
1037.52-43754-34866-67760-65806-19992 22120
1040.41 53660 59274 20666-4542 68564 90804
1043.31 52660 41606 74030 108364 118742 100450
1046.20 65178 65424 83822 81222 134244 217426
1049.09 187364 164490 131706 124014 168228 186070
1051.99 182084 210896 192484 192936 201230 272544
1054.88 319488 319292 380528 403936 378314 279720
1057.77 292878 425578 342752 330794 388100 419116
1060.66 467682 476626 534280 524138 550780 649968
1063.56 599558 550208 556174 697788 862104 774710
1066.45 701572 721874 810078 851202 712582 788550
1069.34 866222 889480 893134 899178 1035708 1010850
1072.23 981574 1021884 961136 1083216 1054230 1111878
1075.13 1186410 1166358 1200376 1190012 1351522 1337448
1078.02 1292862 1370098 1295542 1528708 1495838 1400314
1080.91 1403526 1502834 1797978 1686282 1638946 1561992
1083.81 1709890 1869050 1689918 1803522 1795018 1977676
1086.70 1946070 1915972 2033414 1890826 2035538 1981644
1089.59 2058090 2041676 2080712 2253524 2016576 2169350
1092.48 2224416 2395742 2316134 2308140 2342940 2221232
1095.38 2529258 2565080 2500676 2424324 2728090 2731238
1098.27 2408354 2548936 2847238 2946182 2696810 2907054
1101.16 3046820 2905840 2908930 3331120 3360816 3157034
1104.05 3336070 3602530 3496088 3278796 3790924 4110914
1106.95 3869860 3827178 4255734 4365930 4074562 4213006
1109.84 4723786 4875234 4763608 4769142 5180364 5340484
1112.73 5132348 5325764 5886318 5979614 5628834 5841126
1115.63 6372654 6336034 5972932 6312512 6939224 6598044
1118.52 6245010 6642580 7083888 6887804 6570236 6898074
1121.41 7238318 6879122 6339356 6894170 7190130 6488486
1124.30 6682676 7570944 7529338 7813872 8410552 8012696
1127.20 7875524 8474540 8192528 8174666 8768370 8818490
1130.09 8936050 9872568 10199110 10044170 10551420 10665610
1132.98 10789920 11662060 11491400 10880390 11146750 10824760
1135.87 10181840 10161200 9237088 7549022 7141118 7132310
1138.77 6772658 7051342 7478940 9405638 15144970 22901030
1141.66 24632070 22161030 20736100 19214860 18280220 17907810
1144.55 16751010 14963460 13265330 10773780 7693388 5134922
1147.45 4102272 3975298 4440156 7248244 12713780 18261680
1150.34 20797050 18474580 15314590 13237550 12063260 11648600
1153.23 11725000 12020650 11839210 11047420 10483640 9567730
1156.12 8136280 7290042 6818056 5868370 5546030 5738274
1159.02 5457418 5150886 5447888 5821084 6093134 6501912
1161.91 7134998 7425714 7760046 8159556 8522548 8782178
1164.80 9371926 9831298 9661114 9505838 10082310 10078400
1167.69 9613512 9993212 10498060 10004450 9444230 9455234
1170.59 9890274 9250604 8785982 9372632 9144022 8304460
1173.48 8335876 8356646 8012448 7654856 8002380 8003018
1176.37 6943460 6950458 7543276 6671958 6291246 6945484
1179.26 6910706 6035530 5684460 6288408 6397794 5470998
1182.16 5419914 6139740 5668480 4869188 5128626 5514506
1185.05 5365922 4886324 4600866 5055210 5009936 4354074
1187.94 4327736 5089594 4711236 3794476 3941746 4689550
1190.84 4270654 3655464 3980880 4381556 3990790 3436790
1193.73 3558342 4031250 3835830 3236474 3237174 3674660
1196.62 3515198 3016274 3193088 3487728 3366832 2991886
1199.51 2848478 2959944 3064638 3019782 2868936 2844318
1202.41 2960856 2883918 2584700 2635694 2867386 2909410
1205.30 2670156 2576630 2648688 2766268 2647226 2653020
1208.19 2615588 2711796 2761670 2684760 2683648 2872458
1211.08 2981442 2856676 2761338 2983056 3164048 3095658
1213.98 3145158 3293670 3303612 3445412 3603640 3645806
1216.87 3693066 3965382 4164806 4197340 4338468 4780782
1219.76 4816220 4872008 5310854 5573424 5544030 5876068
1222.66 6380906 6556032 6560694 7053712 7498296 7822854
1225.55 8159104 8549568 8794920 9032534 9883002 10524890
1228.44 10550530 10829510 11680520 12224810 12181920 13055180
1231.33 13912740 14300620 14475590 15497370 15930560 15988830
1234.23 17315580 18600140 17945570 18404100 20118060 20691110
1237.12 20402690 21506160 22854900 22621010 23217720 24514960
1240.01 24779140 24563700 26507900 27252570 26457190 27129370
1242.90 28451840 28876320 28977210 29813330 30094140 30256110
1245.80 30276730 31730540 31893680 31760750 31668210 33072870
1248.69 32116860 32319870 33326200 33884980 32545500 32526830
1251.58 33440950 33491010 31972500 33401590 33379600 31147640
1254.48 31731640 32995430 31287640 30650160 32067850 32082090
1257.37 30825450 31530820 33306630 32880790 33429010 35829980
1260.26 36774820 36458110 38516890 40269650 41528960 43551620
1263.15 46134790 47641840 49280150 50361280 51941020 51133700
1266.05 49694090 47301330 42705170 37009240 29801710 21868770
1268.94 14672850 9398132 7878516 10218580 16508130 24848830
1271.83 34125280 42106840 48225460 52388650 53809880 54796100
1274.72 54202000 52495010 50620180 48542880 46466050 43309910
1277.62 40986380 39507270 37324720 35518790 35881450 35061470
1280.51 33000560 33100190 33671130 32365770 32233020 33751170
1283.40 33721620 32276080 33311240 34833120 33249170 33276240
1286.30 35715780 34866840 34242280 35556470 35318060 34511300
1289.19 35146480 36157730 35688930 34235500 34844510 35091700
1292.08 34211890 34045670 34135580 33486800 32330700 31924720
1294.97 32030840 31361260 30344480 30038350 29399680 27596410
1297.87 27491250 27995580 26055410 24549770 24762490 24081820
1300.76 22544010 22017290 21754130 20144510 19495940 19454780
1303.65 18052630 16542410 16900840 16606260 14807290 14096800
1306.54 13930140 13107530 12357730 11935610 11451120 10448290
1309.44 10042270 9708256 8968800 8387392 8306248 8003238
1312.33 7075038 6440002 6452294 6365958 5773662 5387542
1315.22 5173894 4636136 4452824 4420734 3980576 3533832
1318.12 3549676 3414116 2949504 2846450 2885354 2574356
1321.01 2366320 2307838 2144664 1872862 1841912 1752386
1323.90 1487016 1381966 1434558 1313886 1164468 1104408
1326.79 1063212 912864 858964 850920 779858 650874
1329.69 653762 636380 534002 458046 464796 415360
1332.58 356806 326726 323554 241898 240950 237858
1335.47 185768 123658 114696 117040 124732 78428
1338.36 47002 26218 24020 36206 35820-24454
1341.26-15274-19148-7592-17268-24934-58312
1344.15-19972-23888-32818-74438-93004-92826
1347.04-68292-56844-44424-76640-71292-127150
1349.94-135730-101430-121938-215398-194770-122992
1352.83-146902-188510-180012-172036-136880-118010
1355.72-132860-138616-134170-176266-160580-155890
1358.61-149294-158020-194466-178794-121876-164814
1361.51-167668-123344-90286-138508-149768-129360
1364.40-101102-80496-77626-132984-165578-186964
1367.29-140962-92360-105010-148182-124776-113986
1370.18-113118-104960-111794-146600-152272-149164
1373.08-140028-130524-104208-103342-93696-104986
1375.97-125308-140782-110602-98478-85340-122310
1378.86-96596-61894-63670-75936-69022-57160
1381.76-73210-92488-99244-101988-53806-72724
1384.65-105150-90370-72916-87628-97212-83404
1387.54-58456-64006-49502-49666-46010-52974
1390.43-75330-118952-80450-65580-73288-98618
1393.33-102408-80318-84762-90248-59526-82966
1396.22-82950-75332-66932-108738-143404-112204
1399.11-76532-50634-8832-30900-67958-106440
1402.00-102414-102478-97058-79562-83060-101828
1404.90-101988-94078-50374-98108-153118-157244
1407.79-130170-135302-122712-112438-105308-162066
1410.68-177120-145074-121710-160486-148502-140470
1413.58-138842-128260-99222-117888-129842-133612
1416.47-104554-110762-117158-128360-84654-47330
1419.36-68002-107758-92400-104092-88916-81660
1422.25-41110-48698-40942-36208-16980-27824
1425.15-8290 16036 33174 48980 60170 39264
1428.04 78242 108546 102954 135548 166284 160164
1430.93 183450 213292 264842 313096 342216 358498
1433.82 342158 379276 445752 459456 514902 564490
1436.72 601648 622480 648432 613900 641550 695214
1439.61 731700 771332 842582 865702 885612 908144
1442.50 975098 1021852 1029316 1031364 1060512 1063992
1445.40 1124280 1165312 1197724 1240470 1283010 1247980
1448.29 1286436 1319638 1268886 1240766 1272084 1291218
1451.18 1343098 1334746 1333598 1331996 1291972 1333136
1454.07 1376850 1292038 1309456 1357780 1339700 1334626
1456.97 1361290 1360378 1313014 1309050 1347496 1305116
1459.86 1268212 1323180 1315656 1304794 1400866 1444826
1462.75 1409064 1456552 1562292 1597732 1567926 1643684
1465.64 1732462 1701100 1746176 1844908 1841682 1862566
1468.54 2042512 2159766 2171986 2597880 5263646 8728174
1471.43 6147082 2901904 2347190 2302840 2327438 2414440
1474.32 2561432 2540318 2644450 2792004 2793780 2784946
1477.21 2923080 2936566 2824666 2831076 2980536 2910188
1480.11 2865916 3011004 2982266 2834518 3002238 3112784
1483.00 3025420 2911032 2785088 2644752 2684812 2857044
1485.89 3006954 2980942 3086024 3252282 3298812 3316910
1488.79 3528120 3683640 3780950 3968184 4196636 4256872
1491.68 4349532 4430294 4473290 4362126 4179138 3864352
1494.57 3469956 2919458 2386328 1753384 1153634 763934
1497.46 679494 968348 1655320 2468996 3327334 3860226
1500.36 4120934 4188188 4287572 4349000 4310772 4093604
1503.25 3860874 3676986 3501118 3241412 3162960 3025652
1506.14 2892306 2808528 2838096 2685858 2569738 2606162
1509.03 2680770 2572050 2632000 2723082 2680758 2566444
1511.93 2778938 2837878 2730548 2806322 2982620 2860804
1514.82 2887602 2901412 2935508 2919002 3021232 3079642
1517.71 3004170 2879796 2991992 3003602 3021910 2964538
1520.61 3047236 3029686 2841598 2783084 2920144 2807266
1523.50 2602612 2652998 2624836 2470520 2539062 2522546
1526.39 2286768 2238892 2321708 2197876 2012824 2061512
1529.28 2041632 1947814 1856650 1746580 1640868 1643516
1532.18 1574904 1506480 1464130 1348208 1308444 1282598
1535.07 1145962 1108542 1140250 1049022 922204 935878
1537.96 928740 885508 848194 822292 740104 649310
1540.85 672716 608078 535720 477270 471786 441456
1543.75 412678 396520 394452 319242 300394 296418
1546.64 250794 177372 197302 186674 158318 184112
1549.53 214888 133290 72374 104022 140118 127996
1552.43 122924 105772 87732 103970 97942 52530
1555.32 61476 62954 43788 65000 113598 159328
1558.21 193764 116416 136398 182532 153874 112956
1561.10 85280 41002 83174 88022 105026 106170
1564.00 105744 100726 135822 127838 135658 147206
1566.89 177646 213522 202562 156938 209922 302588
1569.78 296202 219820 246824 253350 292732 289406
1572.67 344214 339038 305618 333162 432574 453950
1575.57 490392 536110 585398 469544 415044 518928
1578.46 653042 586352 516490 624790 726896 602236
1581.35 641368 770172 785766 724364 845332 845408
1584.25 675592 757306 1129618 1039362 736810 860066
1587.14 1308728 1243412 861628 901144 1288562 1447132
1590.03 1075582 971828 1380376 1610088 1248414 1145240
1592.92 1478882 1753158 1329076 1288140 1658768 1919844
1595.82 1536030 1332558 1685060 2225372 1830318 1420246
1598.71 1791204 2360342 2051050 1639968 1813842 2395834
1601.60 2432082 1870966 1892890 2421838 2585144 2155466
1604.49 2077558 2458894 2688172 2376334 2362476 2680442
1607.39 2789188 2502164 2586474 2863002 2930676 2650196
1610.28 2770750 2985082 2927080 2912034 3028162 3156096
1613.17 2962100 2974784 3180496 3365032 3184174 3251740
1616.07 3534306 3525638 3338920 3485818 3543482 3455506
1618.96 3405464 3345940 3229116 3463556 3543688 3086964
1621.85 3065406 3334490 3124100 3364284 3792204 3889360
1624.74 4829420 5762162 5689308 5167336 4435712 3594456
1627.64 3419146 3604080 3407536 3246248 3235846 3380596
1630.53 3539918 3600352 3648128 3679386 3646414 3910818
1633.42 4558740 4943854 5258002 5382312 5277044 4986614
1636.31 5140420 5155858 4721740 4134892 3682874 3477102
1639.21 3983164 5310558 7216404 9767024 12850410 14420930
1642.10 14150810 12473320 9529452 6988136 5568478 4847072
1644.99 5064792 5818228 7226778 8352972 7468858 7178824
1647.89 6899308 6382142 6085118 5819112 5578068 5058972
1650.78 5262104 4910740 4755092 4719386 4499556 4246002
1653.67 4125666 4046632 3653800 3766648 3678618 3338958
1656.56 3406470 3197844 3170762 3213404 2995194 2851540
1659.46 2890408 2720404 2599920 2623070 2666950 2494532
1662.35 2458330 2364868 2123146 2352744 2273780 1973774
1665.24 1978266 1924726 1813672 1843938 1888472 1585568
1668.13 1635362 1626422 1467282 1430522 1466326 1220710
1671.03 1195322 1294706 1131522 882360 972918 906060
1673.92 766200 811670 782978 655434 664714 572580
1676.81 443468 416012 406826 313082 320342 292030
1679.71 214294 206922 175636 73772 89768 48066
1682.60-24152-63550-44484 60556 266130 262088
1685.49 120758 9268-69078-107692-61794-123510
1688.38-161138-190936-159728-131654-132396-178888
1691.28-183288-148250-136792-167312-136562-75698
1694.17-19456 11774 138056 147560 88978 130016
1697.06 211286 215088 215122 214760 288502 326618
1699.95 306442 301004 273250 270108 304700 272638
1702.85 278608 303712 332712 337460 352776 377320
1705.74 408852 425014 499242 526882 531608 549076
1708.63 591276 606542 665568 676234 743378 786866
1711.53 806254 776230 778094 827256 848872 839302
1714.42 926392 919364 839050 807532 818190 843974
1717.31 819606 784512 782190 696162 655678 609632
1720.20 552342 536048 548630 499976 468454 446694
1723.10 460176 414304 372090 329918 290008 265560
1725.99 274590 234156 213660 241924 255110 189332
1728.88 189852 202346 193508 204258 290326 263766
1731.77 237376 298878 378660 310326 323886 391070
1734.67 332230 312874 364714 321784 285574 309648
1737.56 316028 246942 230746 249224 240776 197356
1740.45 199516 185640 174386 171014 211176 214534
1743.34 309830 488554 758212 1054838 1247238 1187624
1746.24 1105544 998984 879560 709064 533628 357168
1749.13 221512 98118 39208 39204 109968 189440
1752.02 348274 442640 462868 425810 426752 390012
1754.92 425634 442798 439768 404164 417160 398132
1757.81 384236 364990 363272 301000 316766 282838
1760.70 281424 271324 278720 276976 225156 190470
1763.59 266014 234246 183990 206108 242236 219502
1766.49 226938 228000 310746 324486 242904 231594
1769.38 256908 204934 298474 351852 244152 253704
1772.27 354274 214154 208380 247142 129666 160042
1775.16 281284 133320 139280 236664 141740 119648
1778.06 182514 58058 70434 174910 78596 25820
1780.95 119966 74042 25690 24392 25134 20336
1783.84 25044 23434 73734 13712-39996-18310
1786.74-6812-60926-61390-83676-57856-72976
1789.63-61008-39874-41092-97152-78272-34900
1792.52-66116-97752-99544-117184-83622-102360
1795.41-97338-131310-131702-104392-79232-84412
1798.31-73514-104636-102890-104912-99578-138382
1801.20-113702-76134-28172-19680-29756-70902
1804.09-107072-76288-768-19500-46052-67596
1806.98-37284-26794 10112-30590-49168-45588
1809.88-12636 10714 90128 100524 93826 103764
1812.77 102788 39240 33788 68390 75720 72670
1815.66 107266 101866 54476 33876 92762 122338
1818.56 158734 123766 81384 64258 121822 100690
1821.45 107198 73294 52132 41400 78738 66176
1824.34 67438 65414 27264-35682 766 20328
1827.23 30688-34882-45288 23970 90986 98364
1830.13 69166 9510 3764 40590 67812 59746
1833.02 70526 68128 110696 185238 295502 411452
1835.91 557080 727818 930436 1078500 995904 551466
1838.80 163358 18908 17400 18460 45294 47218
1841.70 28592-22802-47750-85934-61934-118950
1844.59-129136-40082 145052 178926 145840 111880
1847.48 113650 114760 125900 82768 60658 69176
1850.38 121496 124176 135382 117206 90350 96272
1853.27 140190 144450 179208 163722 176702 162964
1856.16 177466 195078 180868 124924 154664 148114
1859.05 167620 173236 189034 124876 128972 117542
1861.95 132958 158348 148722 112890 132826 113894
1864.84 126372 76554 53926 47862 71586 77950
1867.73 87040 37054 45426 12020 11690 15594
1870.62-7984-55606-23792 10352 13402-51174
1873.52-60364-77816-69774-51760-33032-61346
1876.41-75510-75626-56996-77888-102894-148466
1879.30-122420-94610-69962-99574-66320-52450
1882.20-30326-78146-89198-69844-35308-29660
1885.09-34546-79500-83220-88562-36300-38374
1887.98-67156-49320 40682 40050 7774-20614
1890.87 12048 18980 32072 23750 25198 858
1893.77-27254-16378 47996 57890 59684 16694
1896.66 60086 93960 94340 71244 105982 125920
1899.55 109940 109280 145156 140022 127204 78322
1902.44 141272 225534 205378 111834 151068 172574
1905.34 123194 124704 203402 223670 228584 204770
1908.23 240620 195370 151612 203180 297694 262052
1911.12 194328 221114 260134 149978 135218 243668
1914.02 271982 206922 216804 245608 227756 167946
1916.91 214574 269720 287286 260478 262778 246218
1919.80 227108 228016 263382 258422 305924 301762
1922.69 330666 412630 447316 412598 434850 485634
1925.59 526372 542532 641452 690446 778530 909508
1928.48 1107528 1252478 1387910 1607066 1868594 2062148
1931.37 2369364 2801506 3252472 3631398 4031140 4309608
1934.26 4169228 3167450 1688976 895180 713170 658710
1937.16 590042 485442 471904 432680 503498 553088
1940.05 557616 544388 538426 477390 518776 565200
1942.94 564848 572520 615888 513782 564140 606246
1945.84 545478 559422 586926 597328 661350 610976
1948.73 715168 704402 678054 811530 818800 861682
1951.62 944714 929970 1015228 1064210 1033684 1045190
1954.51 1123724 1117454 1215596 1211870 1161938 1236328
1957.41 1257734 1229526 1317106 1278548 1359382 1444782
1960.30 1349532 1379288 1356736 1333858 1429394 1191960
1963.19 1083838 1019360 957066 1081008 1047420 1090062
1966.08 1150888 1213714 1308186 1257252 1272552 1262778
1968.98 1294370 1280722 1304620 1235184 1249718 1235254
1971.87 1257112 1293966 1325198 1313622 1387556 1431556
1974.76 1524312 1691920 1807320 1625008 1530024 1588368
1977.66 1554662 1526018 1605398 1522804 1455476 1481302
1980.55 1456430 1487098 1628814 1665030 1823984 2034002
1983.44 1850428 1561862 1556798 1542718 1570682 1636982
1986.33 1706886 1734684 1785012 1786994 1854172 1891922
1989.23 1971762 2074592 2090036 2156410 2266044 2303120
1992.12 2378650 2411492 2548538 2552610 2538214 2630724
1995.01 2632334 2661826 2789228 2713012 2804188 2823640
1997.90 2844828 2852432 2740034 2842022 2798412 2762128
2000.80 2841962 2775156 2718556 2593220 2761214 2634534
2003.69 2649964 2639430 2502074 2509200 2458336 2641410
2006.58 2689498 2790928 2817216 2940226 3084842 3144814
2009.48 3259850 3388230 3496590 3659922 3783266 3847962
2012.37 3910952 3896922 3820378 3685042 3578732 3277692
2015.26 2868926 2355118 2083948 2262210 2704516 3029470
2018.15 3380696 3847968 3528830 2655330 2045408 1540598
2021.05 1185560 944310 951850 1002586 1215742 1249960
2023.94 1304640 1348266 1422440 1476640 1579656 1762186
2026.83 1833736 1842818 1855750 1990970 2085572 2069684
2029.72 2126848 2142032 2250332 2146010 2158366 2175422
2032.62 2228730 2199536 2223024 2322176 2387750 2446046
2035.51 2528256 2452232 2555204 2557604 2492716 2476896
2038.40 2518720 2504888 2396366 2314640 2364690 2302448
2041.29 2228812 2149350 2128900 2095782 2025560 2007032
2044.19 2008488 1869402 1840294 1840352 1863910 1756184
2047.08 1701468 1696042 1628372 1546034 1606318 1551812
2049.97 1524554 1478598 1469590 1453390 1408394 1389352
2052.87 1327136 1230236 1293078 1241002 1168418 1137320
2055.76 1169682 1097700 1048164 1093624 1125688 1088256
2058.65 1190240 1183424 1145352 1156412 1146858 1045122
2061.54 1038318 1032122 1048732 998308 1024980 1034948
2064.44 994302 965032 989424 938486 942256 971502
2067.33 942842 925080 1015560 1018652 1020516 1068394
2070.22 1072202 1097158 1173066 1167108 1340656 1497834
2073.11 1629670 1674592 1652620 1434736 1063762 765672
2076.01 766598 837482 951294 1021710 1144280 1138792
2078.90 1190852 1312694 1358144 1287450 1177534 982524
2081.79 921956 995014 1464180 2533372 3640722 3207910
2084.69 1730088 812100 617238 579516 562914 591874
2087.58 679382 736542 811654 848398 879904 919124
2090.47 839266 719352 774294 798980 851714 880732
2093.36 994328 1164922 1346056 1359566 1443814 1540814
2096.26 1700318 1872802 2025064 2131964 2467156 2744800
2099.15 2685400 2448146 2392488 2297062 2187132 2210598
2102.04 2191010 2174012 2165958 1962694 1871010 1851016
2104.93 1829174 1756238 1724432 1774652 1886500 1769850
2107.83 1711340 1712082 1678314 1650562 1694296 1708860
2110.72 1856648 1809196 1665062 1621536 1625300 1648054
2113.61 1640836 1552846 1656430 1832756 1743254 1551744
2116.51 1585278 1591202 1528186 1525854 1559972 1537140
2119.40 1516006 1386744 1291202 1204318 1231506 1174552
2122.29 1128020 1163658 1239678 1059822 986992 1027840
2125.18 1062328 1011648 1069716 1169616 1305802 1293096
2128.08 1303044 1338478 1414638 1449220 1510442 1528746
2130.97 1598870 1498018 1308366 1111196 942512 745834
2133.86 517136 334734 352122 424820 564792 777006
2136.75 1016054 1193528 1353000 1406528 1442958 1464042
2139.65 1484366 1478440 1460186 1378214 1350684 1311338
2142.54 1264602 1196624 1176308 1115626 1134088 1077842
2145.43 1032888 1033118 1077060 991682 934272 968768
2148.33 995784 899448 868856 928340 1007166 878822
2151.22 881460 915126 905772 881824 906576 940396
2154.11 1017268 917466 924568 875066 841966 825338
2157.00 877748 997554 1018654 869932 889734 850612
2159.90 945152 977184 1007474 1103868 1066380 917750
2162.79 905298 891530 939252 907942 1026024 1068834
2165.68 929716 859300 939650 1060108 1390588 2063860
2168.57 3097336 2939786 1764554 1074462 827560 614788
2171.47 497774 655712 761312 572146 521332 554922
2174.36 538720 496134 662544 931622 1175438 1413378
2177.25 1676466 1887544 1590552 968392 812262 602536
2180.15 449346 397838 388668 338952 391790 501434
2183.04 489552 349768 426328 439620 477138 538746
2185.93 725666 721082 623480 554590 549958 500886
2188.82 518290 609180 643926 544204 559588 580202
2191.72 584348 617002 738522 687330 626558 629028
2194.61 652142 634696 714998 820036 779782 676720
2197.50 640868 608498 683270 708476 733056 642108
2200.39 630826 677118 685996 680888 754604 789296
2203.29 724270 685928 682042 716208 800568 755976
2206.18 746544 784804 848134 773246 790328 845908
2209.07 908846 949628 1014332 984674 1002086 1049120
2211.97 1088026 1001636 969118 1092014 1193350 1105460
2214.86 1044140 1140396 1281718 1313026 1243044 1251120
2217.75 1409832 1416654 1439334 1503358 1511444 1523418
2220.64 1630560 1685806 1666672 1633964 1775306 1868190
2223.54 1902152 1916400 1864022 2057912 2168260 1986356
2226.43 2091968 2331872 2379020 2177140 2350912 2505084
2229.32 2421712 2473548 2613010 2805602 2867884 2741826
2232.21 2946252 2978176 2952712 2869008 3021882 3203518
2235.11 2975798 3009698 3319552 3255550 3165274 3350190
2238.00 3508696 3343702 3390692 3530388 3503056 3355010
2240.89 3786116 3757700 3708546 3827400 3802024 4028008
2243.79 4237786 4278282 4189484 4232556 3975114 4054826
2246.68 4001182 3944298 4089254 4059818 4058128 3996506
2249.57 4251364 4154272 4306982 4294500 4369476 4362124
2252.46 4480442 4501134 4624388 4712952 4778396 4785934
2255.36 4808246 4957444 4959132 4918262 4919278 4809486
2258.25 4684714 4255604 3702548 3103684 2847340 2973868
2261.14 3157062 3094540 2955792 2739370 2591214 2469312
2264.03 2406578 2291952 2252228 2320888 2403910 2447112
2266.93 2552766 2650934 2889618 3301754 3967128 4488046
2269.82 4527152 4516724 4801494 4856128 4822536 4551206
2272.71 4337222 4209166 4309784 4580734 4488348 4302390
2275.61 4358948 4466896 4458286 4430792 4413082 4465868
2278.50 4614712 4596080 4396602 4386472 4729626 4528438
2281.39 4493744 4634542 4549646 4194968 4040156 3985780
2284.28 3778860 3540842 3531554 3315980 3126306 3116806
2287.18 3014178 2758486 2682876 2791190 2817010 2602792
2290.07 2571616 2555440 2486290 2406850 2406448 2424160
2292.96 2487202 2422850 2506568 2497186 2580748 2563884
2295.85 2290588 2073266 2114446 2091982 2090002 2209820
2298.75 2688310 3846696 4504926 3449332 2442438 1935382
2301.64 1794502 1699048 1733252 1720432 1730758 1681292
2304.53 1646680 1594290 1492292 1444756 1476908 1414328
2307.43 1332440 1308564 1438152 1594482 1966742 2617682
2310.32 3281890 3657232 3387744 1980904 1360612 1284972
2313.21 1277704 1250828 1292866 1280066 1369612 1359938
2316.10 1351238 1350914 1529046 1672104 1734298 1659226
2319.00 1699614 1671038 1664602 1551676 1540672 1588836
2321.89 1636822 1505560 1616964 1655532 1599442 1507588
2324.78 1519840 1552698 1582698 1456960 1569304 1646904
2327.67 1500362 1393986 1509462 1532058 1405002 1309792
2330.57 1340076 1327302 1220626 1083684 1176618 1126202
2333.46 978206 892706 995018 897078 759898 785512
2336.35 857624 744736 714224 778446 823480 698492
2339.24 701434 677880 606816 558512 566398 493022
2342.14 466568 478116 596032 492526 427726 427308
2345.03 430438 401466 577164 1325796 2373216 1851176
2347.92 888238 500052 410124 322908 362032 377306
2350.82 366598 322552 319574 265596 325462 365660
2353.71 275726 193400 309346 273296 254586 249060
2356.60 212500 217996 281258 125328 142304 219770
2359.49 217184 246632 240592 147328 242180 216546
2362.39 183094 216882 205788 252914 312784 191354
2365.28 258494 248778 259412 276960 223216 247806
2368.17 299844 176584 259146 259390 314474 318402
2371.06 272326 264982 328564 309364 308054 320478
2373.96 326020 328708 364574 273808 343524 313906
2376.85 265558 269754 296042 271824 350674 290694
2379.74 322588 317730 308898 270962 287902 262434
2382.64 338484 322550 281320 243544 283804 229526
2385.53 213770 231332 242944 239344 271018 193546
2388.42 217758 209362 234074 223650 344178 365754
2391.31 373406 273480 224252 246844 304526 264486
2394.21 301890 287950 277736 221774 212732 183094
2397.10 206018 214300 251660 219182 226346 194296
2399.99 181162 147868 202614 203048 223734 179458
2402.88 223770 190184 209514 220742 262570 226816
2405.78 242142 214842 244926 180024 173030 137230
2408.67 161228 208072 256970 185794 154462 91518
2411.56 104758 51600 62652 35790 37650 6210
2414.46 28264 3820 62888 35644 50440 21308
2417.35 44992 35230 66214 34786 53444 21286
2420.24 51606 65348 81098 49916 69004 40408
2423.13 83324 61236 89678 112456 89846 25432
2426.03 80044 72894 94138 76812 106088 93880
2428.92 135386 140286 140234 90310 115644 63880
2431.81 74528 58652 72782 38136 80764 75514
2434.70 84712 30680 68730 62828 91792 58982
2437.60 58608 43736 91462 42808 55638 42028
2440.49 64972 50692 85958 56168 93450 74516
2443.38 72922 53198 109610 99976 147052 139818
2446.28 125756 13230-33918 2264 79412 44576
2449.17 85632 114428 166034 97648 24284-32322
2452.06 30722 102-19338-41368 32498 54118
2454.95 113064 90444 241300 306204 247666 256970
2457.85 283760 221320 176052 94290 101370 49490
2460.74 76622 61386 42460 2840 36744 17146
2463.63 9484-25732 32940 17490-13242-68878
2466.52-35626-48760 184-76750-92982-108688
2469.42-61260-103314-70984-88364-92054-140882
2472.31-139824-113332-63478-125882-154670-154584
2475.20-110924-147724-109002-106964-107168-143274
2478.10-157318-193534-187500-254952-231142-240274
2480.99-172002-204450-199766-257092-232896-253284
2483.88-232840-256150-202216-248762-245302-269356
2486.77-228568-259456-254472-299454-274686-291736
2489.67-291966-329836-287552-284952-267894-333822
2492.56-327574-331530-298832-321680-271490-209308
2495.45-122908-170324-184448-173188-129434-168082
2498.34-124864-152958-108326-161766-181262-215556
2501.24-181122-202992-184472-217616-182364-187228
2504.13-147092-189314-141978-157156-172936-283372
2507.02-270826-227362-166540-215612-215558-255786
2509.92-259964-272432-193010-211842-215508-303612
2512.81-293368-305314-248846-322486-290524-274440
2515.70-272812-319052-301094-302660-263082-309138
2518.59-292838-268794-294116-384442-313176-327218
2521.49-300744-323030-307240-322006-296906-323900
2524.38-306504-357898-307376-346144-356828-364732
2527.27-288136-334964-331768-355876-358756-382952
2530.16-317048-375366-405790-489682-494666-497100
2533.06-515122-522930-453122-424850-351812-303008
2535.95-178430-141114-78138-107306-44180 7140
2538.84 33724-36210-3594-87952-102308-146392
2541.74-166162-242990-255558-298808-284078-370178
2544.63-371958-392632-369154-395414-394422-414188
2547.52-401528-449414-386582-444384-385716-399742
2550.41-372658-354546-301240-353506-310388-360486
2553.31-340046-338534-257044-318274-268028-230136
2556.20-209222-235130-166790-189664-162508-198154
2559.09-156342-178636-129244-130296-99920-149234
2561.98-127230-224908-188832-187400-153610-174770
2564.88-47524-71256-95072-105874-75354-111334
2567.77-31828-25496 38648-29072-31794-46482
2570.66 37182 44170 70686 31886 35994-10676
2573.56 78602 96370 129404 104220 182206 136106
2576.45 125520 86628 206256 237380 234738 215396
2579.34 233324 199966 268362 304152 383664 360868
2582.23 392812 358914 404504 385622 468806 434972
2585.13 404934 443386 536378 528878 560494 600354
2588.02 649880 598194 622880 613106 655092 667644
2590.91 745632 728756 712590 617344 667464 631638
2593.80 606014 589358 798120 811432 764062 696638
2596.70 806150 826674 833560 812990 883232 841526
2599.59 812646 811218 895216 959674 1012370 944714
2602.48 984850 929142 977522 963894 1010216 1068792
2605.37 1070708 1033930 1126140 1152952 1256088 1398186
2608.27 1627108 1715626 1797240 1800456 1779702 1718440
2611.16 1771138 1688506 1522924 1262306 970312 628624
2614.05 515838 472106 538152 611236 809836 1051970
2616.95 1690940 2008490 2081244 2196664 2208572 2166304
2619.84 1887104 1501616 1400372 1316228 1312384 1198888
2622.73 1203444 1173800 1198342 1130296 1129724 1092710
2625.62 1100796 1049848 1087922 1020236 1061066 1065154
2628.52 1130942 1137378 1270540 1293134 1343028 1346592
2631.41 1412540 1361072 1358464 1333396 1304794 1249180
2634.30 1349570 1296576 1308836 1285256 1270498 1189172
2637.19 1190426 1155676 1188194 1104752 1082494 996236
2640.09 1024772 928930 864714 825880 825890 773418
2642.98 762556 687262 724820 653878 689114 603346
2645.87 639544 577412 617976 569670 498898 445734
2648.77 475946 437112 442592 321672 390676 355760
2651.66 344036 272654 267868 212586 218064 179266
2654.55 221386 144318 132444 125248 216668 170994
2657.44 151360 61406 91886 42374 60368 13928
2660.34 4756-55248 20460-12038-18150-62154
2663.23-37742-109906-76494-73882-20490-84740
2666.12-63400-142540-133304-164602-88110-98878
2669.01-98464-146474-66240-95990-62148-119224
2671.91-92348-126642-74404-136774-158616-177522
2674.80-95560-136484-108136-159788-129572-187580
2677.69-154102-164838-120836-186484-138484-149368
2680.59-158962-234934-167610-215916-162702-181922
2683.48-139598-176932-123212-140966-119670-152842
2686.37-132198-180762-141764-184220-142768-172078
2689.26-115520-143160-137172-168986-103706-143424
2692.16-114350-126742-102908-172070-128114-170924
2695.05-130408-198972-121340-137640-113962-151600
2697.94-113496-149862-96212-140578-112198-175094
2700.83-112022-119016-46296-74026-55674-112734
2703.73-21344-48222-6878-65486-1862-10982
2706.62 70674 36916 90330 58698 80760 31958
2709.51 90154 29684 49020 7042 56730 43032
2712.41 83064 7578 61894 43536 93136 36406
2715.30 90494 63846 139324 105544 121560 48390
2718.19 113328 104922 209290 188734 198926 121086
2721.08 160876 106744 167626 87320 142666 146780
2723.98 146672 99348 175320 170192 221352 218512
2726.87 246806 213892 231322 198252 252866 214148
2729.76 225288 172762 268116 242622 244918 170052
2732.65 217466 228656 342784 295396 285180 243302
2735.55 318576 285212 296092 302528 361092 358874
2738.44 741138 1769018 1796196 626868 356176 246762
2741.33 353264 362428 391626 303752 387640 356240
2744.23 441966 398354 414524 340148 432524 357276
2747.12 386290 352158 425722 363770 407142 340846
2750.01 440914 451556 512412 454446 544098 558284
2752.90 688074 653750 682864 659470 798310 724472
2755.80 719186 560070 547792 526392 582540 496352
2758.69 576410 523246 597226 556740 549498 426338
2761.58 434626 364456 456224 406316 416440 410898
2764.47 525440 540536 619444 502608 551708 480180
2767.37 498928 437988 500568 470762 528420 444242
2770.26 477352 429052 480350 366344 383598 374598
2773.15 413808 287730 336374 259248 229624 149410
2776.05 317300 277044 271422 167546 183728 131476
2778.94 224828 181148 177060 102070 157102 113430
2781.83 189408 148718 204754 128702 190450 128140
2784.72 157298 112482 184414 110268 179034 139204
2787.62 175330 82930 120234 61076 128006 34666
2790.51 50330 7166 83762 14534 83252 49698
2793.40 36390-60324 28926-36920 1910-510
2796.29 119080 43212 57152-18866 22310-42916
2799.19 61050-8684 11648-52354 4122-127262
2802.08-104074-140672-40706-108850-48120-109230
2804.97-37252-82488 24862-15176-8638-104564
2807.87-38930-135248-78586-143574-38904-98306
2810.76-64126-153354-118576-188800-112390-168340
2813.65-106262-154376-58364-146196-99150-169414
2816.54-109224-167700-25824-89554-88260-166376
2819.44-71624-120522-83446-164594-69910-166220
2822.33-84258-151486-98344-177808-78462-121294
2825.22-66736-134316-75076-196676-102936-117496
2828.11-66078-118548-2624-134660-83984-173906
2831.01-119534-203272-137726-165174-64698-136872
2833.90-52686-126386-92616-148026-33458-88072
2836.79-10674-127816-99382-151604-41060-75784
2839.69 5558-55920 27934-65580-13948-79570
2842.58 33892-20714 28944-35912 26320-98850
2845.47-4458-9026 84218 13356 156806 98456
2848.36 158096 85580 135938 122046 213424 115440
2851.26 262104 150010 176518 117598 235150 198406
2854.15 266462 181254 211434 124620 229294 152770
2857.04 256508 206846 354060 314928 371584 303668
2859.93 434528 384870 451286 389652 543098 484156
2862.83 548848 510516 643988 616836 748344 690866
2865.72 806290 781380 872686 750254 930676 921280
2868.61 1050848 1031556 1195600 1121542 1255506 1264198
2871.51 1435568 1408804 1574328 1615780 1725076 1751344
2874.40 1970048 1897092 2151156 2335974 2505904 2428288
2877.29 2768200 2895538 3036758 3174064 3529272 3487454
2880.18 3727406 4052470 4403860 4486898 4856964 5163092
2883.08 5417238 5581596 6145570 6611858 6947700 7260390
2885.97 7959160 8117058 8695826 9356778 9900522 10227140
2888.86 11026450 11384240 11846570 12805110 13635500 13813880
2891.75 14708650 15567080 16173550 16840350 17882200 18714510
2894.65 19368840 19954350 21276500 22363000 23123210 23854540
2897.54 24653090 25377110 26192810 27700270 28819480 28726920
2900.43 29658690 30681460 31003420 32618340 34130960 33675080
2903.32 34139830 34632640 35422360 36890860 37556350 37216050
2906.22 38171270 37628270 38026420 40337790 40253110 38739900
2909.11 40091000 39861240 39736280 41415320 40959700 40007990
2912.00 40365940 39802360 40905070 41592940 40666810 40809040
2914.90 40381540 40147740 41681850 41979150 41610290 41208040
2917.79 41219430 42336700 42438720 41315380 40278510 38378000
2920.68 37219480 35866090 34893720 33924890 31735180 29891250
2923.57 30244970 31072110 31102440 30504500 30527550 31334420
2926.47 31483710 34518150 37790240 34097290 31555730 39467530
2929.36 73815570 197007400 290119700 157719400 52069560 33680100
2932.25 30851120 29832640 30905540 32283220 34466240 35147550
2935.14 36885230 37337610 38029630 38665080 40080860 39318620
2938.04 40423420 40569940 41792860 43038460 43641900 44276000
2940.93 45079660 44886330 47350450 48364220 48768320 49441740
2943.82 50108330 51245040 52238210 53164870 54614720 53664420
2946.72 53513990 56194180 56022270 56083850 56880240 56494680
2949.61 56389250 57491010 58224900 57161120 56293170 56573020
2952.50 57434300 56778700 56990230 55340410 55493290 54444990
2955.39 55281700 55904770 53567520 52349720 53674080 51567710
2958.29 53138320 53394110 50604170 51882530 52135460 51304590
2961.18 54391810 54420390 53361350 53606450 52845730 53806970
2964.07 53318610 51063440 51774310 48869610 48281660 46381880
2966.96 42445580 40836190 39391630 36888310 39116620 39923220
2969.86 42586770 47298660 50839170 53338440 55694780 55754210
2972.75 57233500 57900300 58532140 58441920 59922400 59770000
2975.64 58938580 58992580 60210470 60069300 62804260 63330080
2978.54 63848800 64398350 64397460 65166920 69600420 69046510
2981.43 68460020 70880980 71345670 70381210 74897910 75275180
2984.32 73728330 75012220 76152340 76574120 79100890 77290170
2987.21 77993660 77948000 76837060 78848580 80614330 77907850
2990.11 78395600 77620550 77802350 77751700 77793940 77072050
2993.00 75586260 72797660 74804200 74569580 73982060 72994630
2995.89 72448190 71348180 72720140 73262540 77541520 78992980
2998.78 80057840 76947470 72605790 69646860 68830770 64127500
3001.68 62724190 59957900 62000410 59268750 60720600 66955050
3004.57 103317700 202551300 395762600 390963900 167533400 78966360
3007.46 67832130 65740250 60670410 63200620 69082590 76789610
3010.36 76203910 82561700 91619890 93714260 90949200 95211200
3013.25 95233210 92356810 91044740 94375970 90785480 87009660
3016.14 88103360 85758490 78273320 83679030 88727760 89363120
3019.03 97968600 112876800 116150900 116392300 123918600 130576800
3021.93 128408900 130104400 133363000 131777200 130372500 129050100
3024.82 127567700 132910400 133470900 127643900 128179100 135548500
3027.71 134042400 124131500 136189400 144580000 124251500 126118000
3030.60 143906300 133452100 127369300 142183100 137148300 120374900
3033.50 131796400 144292100 127947800 123159600 141572900 128908000
3036.39 113691900 133012500 135758800 114883900 120868800 134334800
3039.28 114898300 107515000 126173400 118728800 104941700 117503900
3042.18 113431400 96895260 110407800 114641600 94128060 94444840
3045.07 106831800 88166830 78651200 94368070 91874580 73595060
3047.96 80819980 81980410 66975260 68320380 77084540 64544100
3050.85 61264180 66630830 57679230 50477630 58260940 53208810
3053.75 44995210 49161320 47411090 37008220 42755880 46048930
3056.64 38364040 36845110 45113620 39760590 41866990 54630710
3059.53 64611050 65345360 84153660 86836950 78643970 64162680
3062.42 59864800 65720880 99473220 181126500 454069200 1239970000
3065.32 1904629000 1054657000 211098900 70110640 45413560 41733190
3068.21 33929790 37687320 29675870 29217560 30062430 33127930
3071.10 27865760 32690230 31205780 27579410 29407720 35413870
3074.00 26820800 28395580 35770340 34142090 31760430 42425020
3076.89 38845380 35208790 42860820 47386600 42259260 50907220
3079.78 53347520 46818050 51592100 62065530 54699600 59380740
3082.67 67408760 59027500 56897070 71313510 68121300 63546020
3085.57 74389740 75250590 60059090 71650670 84420620 66062300
3088.46 73501800 85898040 66032570 69685020 87828620 75011650
3091.35 70459990 85676940 75347140 67386780 81524390 80256750
3094.24 70123060 78913300 77469540 66647180 74287630 78825370
3097.14 67820450 71717160 74531660 63444210 65543640 74079500
3100.03 63449030 62716120 68457980 58848610 56197900 65623980
3102.92 58413310 55471400 56071650 54691620 50363430 50274620
3105.82 54483640 47106170 44116050 48255090 42410160 41097220
3108.71 44173510 40363410 36966430 37149580 36096120 34964020
3111.60 33366920 33977460 32377790 28947300 28235680 27971270
3114.49 25034480 25133450 24648280 22291410 22006470 22298640
3117.39 20209150 19473660 18902360 17030010 16324950 16933400
3120.28 14520090 14225900 14326090 12331190 11856340 12499200
3123.17 10585210 10357890 10538950 9431432 8882056 9559688
3126.06 8253294 7898462 7601290 6849912 6206636 6467208
3128.96 5681110 5432114 5184490 5031242 4578990 4682798
3131.85 4201440 4008730 3815920 3778148 3208350 3574732
3134.74 3076836 2994904 2769960 2599518 2365370 2592034
3137.64 2123594 2228308 2016898 1961912 1720754 1942338
3140.53 1686022 1726112 1390592 1449196 1169114 1317980
3143.42 1110774 1237946 991200 1085418 811232 930494
3146.31 738552 917498 706198 810448 566012 694152
3149.21 542720 666950 442422 596644 459698 644782
3152.10 400866 460384 281082 459196 325106 411698
3154.99 152274 274002 111456 279568 114496 252426
3157.88 130732 265810 113100 226084 41158 211354
3160.78 44134 171656 11664 181780 25738 81686
3163.67-96548 112912 14962 121276-57906 80722
3166.56-56430 66424-47402 67590-101640 74226
3169.46-23070 196786 32622 67310-124758 33992
3172.35-49910 207726 126616 190652 38916 110630
3175.24-41694 104732-16306 118398-70722-19782
3178.13-143478-35160-189254-36048-118086 10138
3181.03-140046-55872-151638 44686-80022 13234
3183.92-129340-61594-203836-81268-132684 31054
3186.81-122274-13862-148216-65744-135054-3230
3189.70-112758 15534-85082 59426-47074 9770
3192.60-95018 25610-143232-38744-101872 21504
3195.49-39344 49316-168524-84398-147860-43864
3198.38-154734-28724-74238 53646-80602 52348
3201.27-64964-67386-213186-131406-224288-13880
3204.17-109946-63472-175810-71044-232422-156176
3207.06-206984-43846-100182-15362-172866-61740
3209.95-168750-147734-247070-86822-146402-63722
3212.85-161938-71656-211672-104480-166620-82316
3215.74-214398-134122-155000-49392-181560-84584
3218.63-213950-78380-66102 67230-13838 12904
3221.52-258204-162654-175868-143472-254600-137976
3224.42-180800-105252-263602-140660-185946-149090
3227.31-240926-166222-194906-69818-164124-107202
3230.20-223042-134414-231452-177086-260116-103076
3233.09-134856-57120-175092-110962-212490-128188
3235.99-243208-86824-144006-117008-241528-163426
3238.88-239392-162712-255918-158918-241422-175310
3241.77-247374-93186-123574-57148-148798-90410
3244.67-231526-181424-208622-63890-164132-128024
3247.56-177142-110942-174080-101004-237568-168078
3250.45-272052-219668-231272-158124-241224-116072
3253.34-198942-174934-271042-125150-107048 9056
3256.24-143116-130158-246062-178572-278898-265630
3259.13-342944-194974-177898-112268-257736-192114
3262.02-165166-131692-280940-177036-178220-76130
3264.91-229520-169978-208136-186254-286380-243528
3267.81-315144-256820-344294-245694-242202-184894
3270.70-290682-211128-235930-184600-262636-161596
3273.59-271382-150546-142110-118780-227012-169886
3276.49-210626-79684-171596-179704-242396-163688
3279.38-318752-324632-446152-389912-460238-396012
3282.27-389362-322778-437668-316020-341390-286970
3285.16-359272-264778-300060-221962-274166-201354
3288.06-271874-244306-296918-191984-300658-267548
3290.95-333408-221270-306962-328502-411596-293652
3293.84-312186-244974-324692-237870-251574-212832
3296.73-324030-318564-394850-253880-215300-215574
3299.63-343288-239246-335448-316596-325700-173944
3302.52-181664-95776-235632-207836-220232-111946
3305.41-188626-188458-215498-141384-277820-256068
3308.31-302310-266088-255166-165206-272616-170878
3311.20-247170-222814-249086-157714-242812-200298
3314.09-245876-206542-224388-150664-254530-271656
3316.98-294664-135146-228344-216754-244082-217598
3319.88-275352-178198-244656-186026-237724-188046
3322.77-269696-183792-142208-87312-162174-133598
3325.66-158384-105910-207030-151036-253700-215936
3328.55-289030-174964-198944-196222-316316-169136
3331.45-138770-75560-169598-120894-178180-134324
3334.34-168528-170572-288810-234976-264592-124650
3337.23-159906-118980-202018-102410-249188-297754
3340.13-246102-133318-191650-156666-265682-187742
3343.02-203960-117894-187430-228308-331942-212264
3345.91-198332-131040-218772-121972-166048-109260
3348.80-182242-143730-184910-179270-233634-102646
3351.70-161666-158950-229186-193924-213948-149816
3354.59-203570-95958-144112-147882-236694-124206
3357.48-136946-92654-195354-166126-147254-52172
3360.37-146536-103606-183190-183340-203466-121976
3363.27-187146-173456-209738-226578-226956-67506
3366.16-109556-157442-270650-188978-206782-89716
3369.05-111758-137432-271432-212078-188434-114314
3371.95-218378-209984-222686-115164-114890-103750
3374.84-216186-163346-232812-167506-185416-93646
3377.73-183590-210422-288330-188740-229034-167476
3380.62-237936-177694-244602-177052-263758-200946
3383.52-214802-123628-89130-97238-200722-159430
3386.41-231934-135172-203382-241982-305264-194202
3389.30-202836-215148-227030-78556-88544-22926
3392.19-114116-83930-162542-217116-295460-171974
3395.09-248242-224846-236236-203500-269858-171862
3397.98-187284-176874-214614-159052-163802-95610
3400.87-129708-120522-240798-268824-316050-205990
3403.77-210880-198336-202274-99820-133310-106680
3406.66-135828-117724-257894-222842-144152-87800
3409.55-118886-70680-182112-122350-115356-130166
3412.44-174320-91550-160770-85406-91308-57338
3415.34-155982-180118-229710-120972-147986-46238
3418.23-89402-109658-158808-173388-141552-43484
3421.12-112078-76460-145528-78328-138426-156672
3424.01-252448-262748-229936-143324-233638-212926
3426.91-157174-136810-240822-133124-211644-135428
3429.80-62824-50618-156078-96916-168680-125122
3432.69-201514-162256-171058-190520-279084-173026
3435.59-127476-61390-142284-143242-197914-175184
3438.48-252728-193988-137762-81148-167456-90132
3441.37-123758-121554-206718-193282-261830-214450
3444.26-212818-92456-95480-101618-168548-110372
3447.16-186344-186102-173072-42902-150832-208536
3450.05-175588-100324-134964-72412-130212-125010
3452.94-190816-120986-163128-124272-99592-41966
3455.83-168080-198464-163476-49582-136732-141998
3458.73-187306-162068-219024-167488-176808-151536
3461.62-224036-179844-230172-211134-260152-227902
3464.51-233336-156634-152964-99760-85094-9818
3467.40-63868-134466-214808-148082-140580-86750
3470.30-145284-100802-124726-80094-104764-47448
3473.19-33148-73806-186432-141782-258062-239190
3476.08-217164-142460-223600-216128-241168-174034
3478.98-152796-167246-234804-164536-172822-140792
3481.87-158968-163168-279082-189404-137926-122704
3484.76-96312-18642-91152-79382-186250-187446
3487.65-190512-205730-287098-173062-149588-200528
3490.55-240246-129150-141368-132716-191186-174614
3493.44-223894-205478-227152-164834-211936-118582
3496.33-231778-224442-173988-148190-226794-134438
3499.22-151528-170326-176776-129792-61922 41266
3502.12-111252-203494-209812-155514-208662-164224
3505.01-183536-136302-189726-168482-147666-112352
3507.90-197874-124382-154576-182708-237056-123074
3510.80-175030-193700-224146-145258-186244-160372
3513.69-189410-210664-232598-151874-179892-112652
3516.58-141642-147256-222424-169878-171236-160690
3519.47-163032-72490-136210-126862-193276-111048
3522.37-140686-146166-164676-106336-183114-209494
3525.26-269180-257854-265500-240918-254146-171908
3528.15-197998-211728-263978-241012-244746-188074
3531.04-213510-147410-152242-152356-203268-151258
3533.94-160370-178300-257746-178338-160714-81396
3536.83-110828-113066-100098-97928-225198-203666
3539.72-234652-200442-224418-146024-188842-132776
3542.62-159952-170408-166068-131110-200946-210686
3545.51-217632-121248-123166-187676-254192-163046
3548.40-179916-171066-174460-134690-202026-197024
3551.29-221494-218164-282960-250398-223976-163294
3554.19-194078-147930-230608-168470-180122-181852
3557.08-244284-217236-241350-233414-255652-138552
3559.97-134046-147280-198754-167200-219390-241040
3562.86-243810-168954-252922-211896-214500-199622
3565.76-137606-102690-215220-181146-227786-167092
3568.65-254296-285256-226298-197098-282136-214276
3571.54-143856-99356-239448-324332-353464-257288
3574.44-225250-108190-160924-165752-170152-145104
3577.33-200744-217098-257954-162512-136834-161900
3580.22-205070-146202-208662-197098-211108-149124
3583.11-148410-150872-198636-177186-199868-222150
3586.01-238844-128546-123046-111724-190186-180688
3588.90-151176-140490-217040-285206-364632-253098
3591.79-227520-179838-174626-134470-178320-197684
3594.68-155664-43590-94234-123588-203226-234798
3597.58-267334-214738-315118-260890-233066-133078
3600.47-144822-163820-184382-152176-156508-158922
3603.36-213122-197600-252748-201768-177684-157790
3606.26-249782-206380-203350-133258-144714-120730
3609.15-167894-100354-123144-186572-245098-132030
3612.04-132110-145756-124580-141076-223550-145092
3614.93-173206-113878-126032-174486-214868-154844
3617.83-178264-155448-139642-107714-155798-99846
3620.72-120266-77306-87794-97102-228806-253436
3623.61-228478-84132-126460-119426-154086-88194
3626.50-89980-139904-170368-69040-119736-57382
3629.40-87292-168732-209418-151708-166256-142648
3632.29-229272-180890-156342-102524-151080-83796
3635.18-54242-49232-133424-131014-129576-86888
3638.08-117562-111184-207644-232864-223138-173762
3640.97-141856-85982-197666-177444-116994-123886
3643.86-187872-181568-173332-146590-243784-185894
3646.75-155096-109094-170142-136978-60664-67436
3649.65-134238-92540-89498-134956-190066-134310
3652.54-116794-110952-204586-156286-192184-201884
3655.43-174400-104038-148480-156176-189210-167602
3658.32-214370-212116-271284-213806-157106-100852
3661.22-149750-139688-189292-151668-177232-161006
3664.11-182676-148874-181924-171414-124608-40316
3667.00-94244-128676-150702-86712-112028-62020
3669.90-1448 44110-35858-36772-122564-192040
3672.79-185544-127512-146672-39110-16254 18528
3675.68-20742-59106-109964-55394-42150 20000
3678.57-23864-37542-37156-36854-66788-18550
3681.47-8046 61844-26416-34188-11328 65956
3684.36 63948 68406 32334 94164 138254 167562
3687.25 74796 107950 126096 189332 185288 193268
3690.14 138842 167350 102750 132406 166448 163312
3693.04 148170 184758 205044 231222 117960 142510
3695.93 195682 236278 178578 210880 174528 179840
3698.82 210702 254274 218862 265492 264408 275900
3701.72 254236 316272 263306 276272 289560 387028
3704.61 389172 317398 264624 291074 286618 363442
3707.50 370862 390706 354248 305590 308344 425908
3710.39 354486 370304 465382 590000 463236 450800
3713.29 473742 517132 478988 565178 614002 604268
3716.18 535528 556124 511512 544978 632906 770386
3719.07 683046 714222 778314 800724 853092 1024668
3721.96 1101662 1146140 1271582 1832478 2789546 3826552
3724.86 2691300 1138410 750756 646152 678914 800824
3727.75 795368 836388 874260 874380 809214 760468
3730.64 770818 896232 918536 920944 936690 921784
3733.54 875614 959774 900588 782550 764432 881832
3736.43 890572 867112 843582 869420 884402 958672
3739.32 1113856 1330770 1409434 1609062 1923728 2144046
3742.21 1870314 1479064 1187362 1060290 1051386 1129992
3745.11 1104014 1067396 1013674 1125050 1122156 1070886
3748.00 1023244 1135708 1202020 1216862 1217054 1383186
3750.89 1532510 1741236 1750520 1618396 1497868 1446012
3753.78 1370624 1291116 1283954 1361952 1300994 1372368
3756.68 1439224 1406270 1387776 1431588 1452166 1455332
3759.57 1514738 1660322 1695738 1771858 1754008 1805168
3762.46 1891784 1934474 1849020 1849512 1742244 1671488
3765.35 1737882 1897118 2032464 2273278 2603362 2784172
3768.25 2697856 2614208 2437612 2298998 2038190 2113078
3771.14 2132186 1879286 1775806 1798750 1622198 1416318
3774.03 1336480 1419524 1429712 1433516 1429904 1400090
3776.93 1397826 1493162 1433608 1291168 1265894 1400458
3779.82 1446724 1568374 1745316 1946356 2052210 2187134
3782.71 2292446 2225030 1769036 1519330 1523916 1527932
3785.60 1462246 1653460 1797768 1732556 1609858 1708286
3788.50 1813348 1724158 1729610 1935772 1821764 1657090
3791.39 1824376 2075102 1871808 1762036 1937190 1924870
3794.28 1763118 1948108 2126820 2078160 1989826 2180144
3797.17 2142922 2107078 2285894 2319668 2111670 2255514
3800.07 2356710 2288430 2486540 2608360 2538868 2489478
3802.96 2448696 2533762 2635534 2672148 2751826 2761038
3805.85 2684466 2609420 2554496 2521686 2594368 2795250
3808.75 2712158 2820264 3027760 3044614 3208130 3461048
3811.64 3152418 3145308 3423384 3937060 4836950 5993044
3814.53 7213618 8302174 8636266 6507962 3473246 2564614
3817.42 2406446 2358618 2484198 2651536 2720376 2785162
3820.32 2591596 2566788 2589394 2611442 2553258 2392306
3823.21 2276442 2362920 2569852 2814654 3018650 3468094
3826.10 3811778 3831782 3969900 4876506 5582588 5763132
3828.99 5959006 6204962 5858104 4692770 3374624 2793560
3831.89 2543636 2679126 2937984 3147968 3426756 3781104
3834.78 3935456 4002956 3946142 3786604 3841580 3854028
3837.67 3643202 3564232 3580078 3660284 3685926 3722632
3840.57 3778804 3961536 3991860 4017132 4080098 4382978
3843.46 4464296 4466832 4550262 4650832 4791350 4948970
3846.35 4877274 4992606 5072158 4973522 4946172 4803644
3849.24 4674822 4627482 4549928 4493238 4467986 4551694
3852.14 4311926 4227304 4303058 4368446 4241012 4058150
3855.03 3966926 3891530 3745274 3738432 3719172 3771086
3857.92 3760708 3714988 3869030 3863322 3793550 3936684
3860.81 3879922 3974620 4142090 4233490 4429146 4546668
3863.71 4382766 4319130 4095394 3609362 3384124 3462710
3866.60 3397866 3244608 3297162 3826492 4643098 5433036
3869.49 6042942 6417064 6674860 6853438 6822498 6568176
3872.39 5728044 4424264 3661706 3341264 3062620 2927708
3875.28 2696906 2497810 2232234 2073410 1928206 1702366
3878.17 1415174 1408256 1565092 1698264 1750484 1686068
3881.06 1514414 1703422 1876812 1707682 1592316 1562322
3883.96 1374508 1358374 1498450 1525650 1526590 1546452
3886.85 1487384 1490976 1553456 1676018 1689432 1616124
3889.74 1667108 1750072 1726336 1800058 1869724 1848670
3892.63 1757638 1906360 1976594 1996952 1956136 1838764
3895.53 1894454 1965222 2083666 2019450 1843210 2022290
3898.42 2083478 2068140 2008700 1862450 1769542 1903838
3901.31 1878540 1862198 1944868 1856360 1831966 1741138
3904.21 1681202 1791194 1769784 1763536 1600324 1631812
3907.10 1631920 1594888 1521158 1473322 1468286 1447666
3909.99 1286714 1339516 1314070 1258742 1239878 1106236
3912.88 1001284 1052822 977458 991232 960272 893326
3915.78 844382 898424 847556 762684 715834 704858
3918.67 615324 661382 630376 606236 532230 536826
3921.56 506410 536848 518286 530094 435548 406530
3924.45 380584 336516 294692 313228 278682 276404
3927.35 243618 249414 243104 378788 566216 686058
3930.24 739938 618400 322686 212416 242930 320222
3933.13 333904 373938 375264 366118 343196 521140
3936.03 610814 551070 305682 198032 222724 277462
3938.92 241968 208368 238580 246390 221492 512706
3941.81 1038958 1217240 1047790 907176 686836 531188
3944.70 470752 572910 519358 402986 206436-5844
3947.60-716 112874 47526 7168 46320 53470
3950.49 68280 71724-28414-33232-1888 71056
3953.38 222044 495152 553714 661600 758034 596982
3956.27 317594 238666 168534 82836-24864-25052
3959.17-31574-28892-11704 2484 42226 40744
3962.06-27736-19390 8320 56954 3012 8260
3964.95-12946-54352-141742-84374 12692 100320
3967.85 55740 38384-28036-84498-134698-119684
3970.74-8934 65916-4232 218-25998-39540
3973.63-18566 14096-37646
##END=
