##TITLE=Ethylene Oxide
##JCAMP-DX=4.24
##DATA TYPE=INFRARED SPECTRUM
##CLASS=IUPAC A
##ORIGIN=NIST, Anayltical Chemistry Division, 301-975-3108
##OWNER=COPYRIGHT (C) 1998 by the U.S. Secretary of Commerce
##DATE=98/10/1
##$SPECTRA VERSION=1.00
##$UNCERTAINTY IN Y=2.1 % relative (B=1.1E-04,C=1.2E-09,D=2.7E-14)
##CAS NAME=1,2-Epoxyethane
##CAS REGISTRY NO=75-21-8
##MOLFORM=C2 H4 O
##MP=-111 C
##BP=13.5 C
##$NIST SOURCE=QUANT-IR
##SPECTROMETER/DATA SYSTEM=IFS66V (Bruker)
##INSTRUMENT PARAMETERS=KBr Beam splitter; MCT Detector; Multipass cell
##STATE=gas
##SAMPLE DESCRIPTION=Ethylene Oxide Primary Gas Standard
##PRESSURE=101.3 kPa
##TEMPERATURE=23 C
##SAMPLING PROCEDURE=1 L/min Flow
##RESOLUTION=1.9290
##DATA PROCESSING=3-Term B-H Apodization
##XUNITS=cm-1
##YUNITS=(micromol/mol)-1m-1 (base 10)
##XFACTOR=1.0
##YFACTOR=4.5474E-13
##DELTAX=0.9645
##FIRSTX=574.687
##LASTX=3974.595
##FIRSTY=-3.58E-07
##MAXX=3973.63
##MINX=574.69
##MAXY=.0008319
##MINY=-5.18E-07
##NPOINTS=3527
##XYDATA=(X++(Y..Y))
574.69-787960-543212-179556-198288-769356-1139432
579.51-853658-599880-601970-590566-600582-578504
585.29-605692-696762-532004-321488-289532-266004
591.08-200656-222110-363384-698418-807152-598792
596.86-682094-896654-746784-386568-151874-192626
602.65-356900-496780-621382-824842-841172-670604
608.44-566726-511558-460466-427074-333302-351158
614.22-480838-539240-547854-510386-412878-366420
620.01-340190-351882-400392-419780-407254-426380
625.79-433736-475376-549856-582226-504958-451186
631.58-530624-540016-468968-470566-406416-392522
637.36-497978-473922-288958-205830-324012-466682
643.15-478864-487846-560862-593924-551160-463952
648.93-361366-382250-462244-474834-452900-382744
654.72-335966-384434-400710-411258-424176-405990
660.50-347880-257070-238766-348682-448054-542784
666.29-548340-435502-333778-324102-356786-362406
672.08-336250-361710-378876-355240-284174-213220
677.86-251082-326790-275262-147954-116562-210166
683.65-305168-392836-417532-372528-317730-285414
689.43-272278-323244-379082-406122-440712-466074
695.22-472388-425976-359596-405430-452078-379360
701.00-309900-293516-275072-389270-559714-553684
706.79-415588-373154-421180-463798-433744-338470
712.57-299112-374664-453960-498804-475260-391970
718.36-325796-284930-241182-230812-272380-351320
724.14-432086-480872-409430-305880-284138-278068
729.93-216732-140316-84738-89990-114084-102320
735.71-99052-120936-104714-47908 19342 57076
741.50 85710 137336 170206 148672 155462 221770
747.29 313314 342314 339540 351658 409696 546332
753.07 661174 667750 681190 783524 863892 881968
758.86 938882 979318 1059088 1254924 1464592 1598616
764.64 1696316 1838328 1986638 2086148 2290430 2543972
770.43 2704802 2909962 3256382 3589654 3935344 4339914
776.21 4693854 5093200 5630644 6165028 6725816 7323312
782.00 7876640 8557752 9349674 10191380 11196950 12204680
787.78 13156280 14262470 15377970 16366060 17538200 18997910
793.57 20414960 21617300 22957540 24309070 25426600 26748800
799.35 28203600 29420550 30613450 31662650 32772930 34439710
805.14 37620820 43608980 49405310 51440550 51743890 52332350
810.93 52883120 54040820 56734890 59620340 60107650 57206840
816.71 57769530 75421650 110509700 139272000 128487500 81814840
822.50 46870730 40760120 45899700 52362330 58956250 67388070
828.28 78450340 91895930 108583900 127534700 148009100 170671600
834.07 194423900 218533700 242581300 264443500 279336400 281797300
839.85 274419700 266437900 262027500 260260800 262338200 267312300
845.64 274400100 285320300 297388300 310806000 326500500 342025200
851.42 356593900 371344500 384499100 394120300 402084700 405604400
857.21 403360400 398169700 388329100 372935200 354807000 338149700
862.99 328127100 327465400 335640300 354339700 386866800 435611300
868.78 495529800 551532400 583103300 565478200 482996500 347301100
874.57 205080700 127075800 158461500 267817000 372963500 427075500
880.35 439669700 427332100 399496100 365888200 335549900 313957700
886.14 298929300 288174000 282655000 280469100 279002200 278524400
891.92 279559700 280511000 279934100 279622500 279174400 276504000
897.71 273726600 270796100 265534700 259750200 254037000 246306800
903.49 238511200 230896000 221439000 212150100 203094800 193176400
909.28 182920100 173365400 163759300 153193800 143525800 134454800
915.06 125010400 115907900 107671100 99318750 91140500 84099750
920.85 76925700 70028110 64035390 58262190 52761920 47677350
926.63 42980000 38806360 35022000 31234570 27891230 25066880
932.42 22315810 19823500 17663460 15684730 13917820 12277690
938.21 10759170 9506098 8433404 7374394 6417394 5649246
943.99 4961700 4301342 3757952 3283106 2810350 2458022
949.78 2175338 1823940 1533302 1329834 1105308 887226
955.56 735396 651026 575898 467056 350240 276740
961.35 242796 170438 63078-19682-73852-80408
967.13-66542-84170-142072-222982-249040-194794
972.92-163954-201356-229318-219208-200704-217856
978.70-266470-304738-321738-321422-294542-265646
984.49-275594-288640-298622-340940-380318-371622
990.27-347588-332752-333384-335556-328972-323090
996.06-332400-369770-384670-340986-308828-335060
1001.85-368630-363064-339540-331846-363544-377466
1007.63-320602-275970-289030-273724-245366-275432
1013.42-307216-297324-300280-305048-286294-293198
1019.20-314496-307116-297706-295650-271248-238008
1024.99-231094-216996-138570 122762 417878 335396
1030.77 22402-127242-135312-124102-127454-134454
1036.56-124158-104308-66818 15880 65864 83600
1042.34 111994 140936 176242 181272 168280 226884
1048.13 313214 324188 311048 349242 385914 429172
1053.91 531702 661882 712506 690696 696690 747726
1059.70 844002 969404 1081700 1160094 1221720 1376608
1065.48 1498800 1531194 1568458 1633570 1746948 1880778
1071.27 1975288 2021226 2099222 2230266 2355746 2491762
1077.06 2615250 2720234 2837144 2935266 3117848 3291312
1082.84 3362356 3479142 3620226 3783548 3896834 3953460
1088.63 4027462 4139488 4244904 4384988 4559782 4651970
1094.41 4766522 4962994 5115004 5203542 5343444 5595214
1100.20 5790184 6008976 6324684 6625264 6867362 7211906
1105.98 7666930 8062794 8393512 8843390 9401258 9900526
1111.77 10391390 10978080 11531830 11983140 12401300 12810290
1117.55 13117050 13374570 13630280 13747790 13685320 13614830
1123.34 13836950 14612140 15607160 16153210 16430800 16912620
1129.12 17869160 19217130 20431680 21451770 22236680 22176880
1134.91 21211360 19206500 16414120 14608260 16064170 24693440
1140.70 37516190 42578670 39371150 34834290 29085190 20889120
1146.48 13083480 11162570 18809640 30365140 33496670 28484180
1152.27 24550660 23329480 21735820 18652760 15150970 12579450
1158.05 11303440 11047220 11745780 13182100 14788900 16298970
1163.84 17766790 18926100 19511090 19806920 19982100 19773560
1169.62 19212840 18656530 18049800 17257070 16445990 15842800
1175.41 15168460 14383900 13744660 13240510 12631600 12105910
1181.19 11695510 11239560 10755950 10427360 10070420 9667690
1186.98 9374714 9085940 8668140 8372190 8180502 7937336
1192.76 7621616 7366364 7077954 6813216 6644174 6498008
1198.55 6220474 5984462 5910812 5790504 5610230 5513986
1204.34 5490948 5389946 5340438 5341788 5379690 5480432
1210.12 5638074 5776130 5969242 6247804 6542044 6907974
1215.91 7347128 7889450 8539516 9270510 10068390 10944050
1221.69 11930270 13000120 14210270 15607020 17024480 18639720
1227.48 20444680 22208420 24090040 26218410 28441950 30632210
1233.26 33065770 35594960 38031020 40613290 43215080 45754660
1239.05 48196040 50703630 53038660 55112040 57289670 59170570
1244.83 60752920 62401230 63707970 64596890 65472660 66033110
1250.62 66038310 65942100 65489410 64567330 63714350 63212620
1256.40 63264200 64302140 66807880 70534890 74945210 80546510
1262.19 87589710 94703460 99657380 99323710 90181630 70839240
1267.98 45774920 27624360 29572260 51713240 79765020 99280270
1273.76 106166700 103772700 96494210 87478790 79168540 73218150
1279.55 69400810 66974380 65995900 66142680 66651210 67378030
1285.33 68417920 69464340 70002980 70356100 70576340 70065620
1291.12 69218060 68164570 66434240 64372790 62247720 59606900
1296.90 56710000 53835930 50624700 47393980 44207790 41001470
1302.69 37789380 34716690 31835390 28905910 26224060 23778270
1308.47 21376230 19164750 17241690 15408840 13654170 12255620
1314.26 10914450 9612634 8500480 7486622 6595754 5850368
1320.04 5187326 4545206 3934180 3385824 2931278 2574982
1325.83 2229476 1912824 1644702 1411848 1194794 994750
1331.61 818990 672528 542302 425272 308480 229844
1337.40 156484 88766 44290 4168-28360-43862
1343.19-61950-79006-125414-147792-135806-151686
1348.97-208868-264708-316966-328414-332044-314036
1354.76-280470-279964-306906-317608-329536-325416
1360.54-302422-268434-255766-234942-214926-252670
1366.33-287378-257996-244262-236184-238838-265494
1372.11-280568-249452-219850-221956-232878-213830
1377.90-191922-159616-140768-144120-167106-169136
1383.68-167212-170492-171688-152144-124430-107478
1389.47-131786-159988-167558-171864-175770-161326
1395.25-156800-166416-199926-186396-121276-106722
1401.04-164002-189288-185618-181660-184598-216500
1406.83-265318-260686-256082-280822-297876-289786
1412.61-279644-251870-242006-237866-230618-200064
1418.40-169132-172134-180676-142726-99482-63882
1424.18-29546 28204 80892 130906 192096 269518
1429.97 345396 458436 590926 697512 797230 946964
1435.75 1103944 1219868 1287378 1396972 1556140 1715522
1441.54 1855768 1990292 2082070 2182672 2319562 2455298
1447.32 2533994 2558500 2554132 2598800 2645788 2655080
1453.11 2653762 2659120 2668106 2688284 2677106 2649976
1458.89 2619938 2627816 2700666 2827400 2973656 3140456
1464.68 3296688 3457152 3628984 3892592 4772788 7798278
1470.47 10394770 8328752 5420140 4895994 5164112 5447332
1476.25 5649494 5746808 5779494 5834950 5877228 5934992
1482.04 5963408 5785242 5577808 5713482 6050344 6412270
1487.82 6815874 7343306 7940690 8459886 8705906 8454492
1493.61 7451974 5719698 3664758 2314406 2780230 4915494
1499.39 7095492 8223588 8447596 8080706 7364254 6649882
1505.18 6089760 5704898 5422222 5276292 5268512 5320736
1510.96 5396436 5533552 5673694 5773156 5827134 5925012
1516.75 5984414 5967864 5975262 5994392 5894498 5722212
1522.53 5513624 5286490 5081936 4862060 4596746 4344648
1528.32 4102344 3849318 3532746 3256126 3009836 2755010
1534.11 2497014 2277574 2068286 1895028 1754804 1589904
1539.89 1385020 1193512 1013454 889284 786052 678012
1545.68 550520 439946 373046 347166 282902 240852
1551.46 234706 219538 182056 148120 126642 179900
1557.25 261614 302198 286780 231134 167920 178048
1563.03 203594 232230 262698 319122 367674 423166
1568.82 487530 517808 536222 603258 657314 749882
1574.60 898130 1008670 1014710 1066090 1156484 1239846
1580.39 1327114 1446712 1542988 1601766 1727190 1873384
1586.17 2012544 2135442 2220068 2364234 2484750 2644954
1591.96 2769634 2905068 3051698 3201848 3337322 3540088
1597.74 3676896 3848514 3974744 4171026 4306994 4464268
1603.53 4615312 4772714 4972960 5151254 5313018 5484608
1609.32 5617128 5764382 5937120 6061566 6198784 6437362
1615.10 6682700 6864602 6924250 6873356 6763172 6693228
1620.89 6530512 6517860 7102984 8575634 10044200 9714822
1626.67 8092754 7053538 6739690 6835094 7123146 7477822
1632.46 8315200 9579604 10307590 10267620 9654948 8558048
1638.24 8589150 12340090 19547950 24760300 22604140 15971910
1644.03 11877290 12498200 14344860 14275820 12953840 11668800
1649.81 10653450 9923286 9280346 8610458 7956590 7417280
1655.60 6937424 6543192 6205334 5844516 5497072 5258694
1661.38 5013846 4722092 4455210 4156622 3852658 3641218
1667.17 3398220 3143340 2881270 2619046 2340924 2036338
1672.96 1766646 1578210 1370072 1118802 869636 695718
1678.74 543976 392938 224908 73190 15852 177762
1684.53 269008 85350-133182-242992-306200-307704
1690.31-317648-310546-266974-131678 61288 217610
1696.10 308122 405298 493658 576534 585798 572750
1701.88 573850 618342 680166 771940 888514 1019816
1707.67 1121494 1244890 1386534 1519034 1581236 1646184
1713.45 1721938 1742068 1680324 1637896 1558200 1410506
1719.24 1229346 1102560 1001952 917046 805542 676734
1725.02 559090 497812 458064 427916 408894 458820
1730.81 523500 603226 660892 687498 670902 643870
1736.60 593274 537368 473766 426706 380070 402764
1742.38 594744 1149354 1861176 2179872 1926970 1390244
1748.17 781100 339750 226756 455056 737430 850474
1753.95 842696 851592 831678 793588 725898 655148
1759.74 587650 554982 507216 470366 441398 439442
1765.52 456058 515232 538356 515400 520026 565744
1771.31 553546 498012 412902 379722 359778 338206
1777.09 282354 231742 193270 166446 116716 73824
1782.88 51082 59054 18952-35906-94364-124008
1788.66-128134-115282-130102-137228-172200-193744
1794.45-211740-220626-209876-178596-191718-208780
1800.24-211264-145044-100062-112426-112390-78174
1806.02-79304-56308-56716-34400 52806 158398
1811.81 171386 139530 126780 161096 156244 165152
1817.59 209268 225878 195290 191000 153032 130554
1823.38 120538 87296 24592 7248-1930 58886
1829.16 108552 89446 80052 128438 210396 452822
1834.95 885876 1443514 1647238 1100802 358752 86518
1840.73 41296-28946-130708-142668 9630 214246
1846.52 252532 225882 184612 191198 221024 233040
1852.30 237070 294214 328586 350464 340928 322174
1858.09 312356 325894 290532 273038 270570 265102
1863.88 224210 175542 132940 134700 98502 53118
1869.66-1862-26378-37964-68014-118408-112974
1875.45-122758-137336-182074-213360-204614-154082
1881.23-130298-123646-120758-97496-125220-126000
1887.02-100966-34954 10164 23478 28036 38840
1892.80 8742 28702 71254 112148 144228 190206
1898.59 215026 247702 249606 278058 320014 326126
1904.37 296718 335040 397872 430522 409408 442700
1910.16 466858 441904 397226 425182 450744 447408
1915.94 440334 493924 516210 500814 493258 551834
1921.73 642524 771236 866388 982522 1156666 1453442
1927.51 1903766 2528974 3293158 4317920 5669636 7107018
1933.30 7478582 5647788 2928222 1480114 1071394 993688
1939.09 1038982 1071264 1052220 1096396 1130752 1139890
1944.87 1131892 1160418 1216074 1314374 1411434 1564948
1950.66 1737942 1918322 2045216 2159386 2275224 2383564
1956.44 2444942 2533700 2636308 2733410 2735296 2663440
1962.23 2417650 2158334 2097664 2231058 2402514 2523590
1968.01 2548586 2558130 2521922 2523198 2579732 2713152
1973.80 2944216 3223456 3262230 3164302 3099634 3042870
1979.58 2985674 3112044 3412038 3587172 3377314 3202064
1985.37 3281650 3464934 3623680 3835866 4081656 4353378
1991.15 4612080 4872756 5064972 5222628 5366650 5517026
1996.94 5607590 5634986 5604334 5587510 5501294 5398720
2002.73 5307212 5191752 5102090 5249510 5546218 5917478
2008.51 6323854 6789502 7256632 7608026 7632546 7243406
2014.30 6301232 5235428 5089916 6011000 6468314 5322934
2020.08 3460632 2351504 2186538 2459142 2724312 3038968
2025.87 3394816 3702272 3940472 4163104 4292172 4354374
2031.65 4375738 4469164 4639038 4860764 4989772 5035368
2037.44 4994158 4902644 4733452 4561110 4352688 4177022
2043.22 4000064 3832214 3675686 3536244 3349512 3209002
2049.01 3090930 2993606 2872374 2739414 2576658 2451676
2054.79 2319432 2231496 2199244 2264374 2303878 2274296
2060.58 2160926 2087354 2044026 2022172 1962380 1926344
2066.37 1903712 1948006 2019840 2123210 2246208 2523930
2072.15 2912844 3086308 2633914 1982128 1795452 2043310
2077.94 2309410 2501572 2424904 2241294 2888012 4528294
2083.72 4649934 2764636 1429756 1282386 1464716 1659896
2089.51 1685268 1619760 1643056 1895710 2304076 2746012
2095.29 3175884 3750992 4443010 4987024 4959198 4647612
2101.08 4426884 4276210 4000774 3736376 3584354 3571434
2106.86 3526898 3432404 3390352 3474626 3464334 3346892
2112.65 3261558 3308158 3359588 3283704 3142880 3091824
2118.43 2995896 2783274 2519588 2384406 2301428 2193244
2124.22 2086964 2151092 2343866 2566102 2720138 2903476
2130.01 2994356 2798688 2213554 1501630 988672 1047096
2135.79 1596728 2280714 2715178 2900454 2895234 2787668
2141.58 2603822 2436632 2278146 2174616 2079966 2008598
2147.36 1919700 1871136 1842746 1837698 1801140 1825944
2153.15 1864658 1864500 1770066 1772986 1841610 1848510
2158.93 1829828 1954854 2022180 1946946 1855940 1916168
2164.72 1936930 1991664 2650388 4032930 4294078 2846718
2170.50 1584392 1277146 1197122 1130940 1293014 1922744
2176.29 2733220 2985626 2269014 1381548 904752 812974
2182.07 847952 871854 931172 1144662 1256850 1182792
2187.86 1098418 1144528 1155862 1186522 1265444 1325062
2193.64 1302630 1374488 1448986 1407976 1333816 1363214
2199.43 1344826 1354892 1412050 1464648 1434818 1467348
2205.22 1518476 1576630 1614092 1727962 1872916 2000200
2211.00 2048248 2086748 2145796 2238896 2345710 2512212
2216.79 2639630 2816860 2964752 3131358 3274668 3445492
2222.57 3639740 3841812 4013858 4226580 4440270 4646674
2228.36 4823786 5105678 5427096 5698216 5836844 5966528
2234.14 6091058 6265524 6455652 6667636 6808788 6937442
2239.93 7128352 7408928 7664046 8049114 8325918 8283130
2245.71 8092618 8053806 8096920 8227156 8412192 8623976
2251.50 8811478 9084002 9359216 9605330 9765898 9784204
2257.28 9354086 8224096 6808704 6141186 5938720 5536012
2263.07 5020122 4729936 4711916 4988178 5615576 6902012
2268.86 8318448 9175766 9394814 9122524 8794112 8809996
2274.64 8822342 8843488 8890320 8988650 9019764 9049114
2280.43 9088624 8974618 8498708 7870696 7234840 6674754
2286.21 6152010 5746762 5491824 5313326 5073798 4923660
2292.00 4876228 4946972 4986990 4824394 4439102 4365392
2297.78 5195922 6564892 6298334 4635474 3634554 3443520
2303.57 3329752 3160452 2956464 2828148 2894704 3664164
2309.35 5144928 5851366 4569554 3054502 2584596 2628086
2315.14 2708214 2909114 3184146 3351702 3303106 3214706
2320.92 3156826 3185160 3173226 3128256 3075370 3095166
2326.71 3063090 2997422 2883878 2742410 2539396 2351530
2332.50 2135048 1942404 1750510 1630270 1547042 1525084
2338.28 1445182 1320348 1153232 1051406 1003408 975176
2344.07 918080 1379654 2475944 2702054 1606520 864114
2349.85 708532 672580 621284 604860 544468 529068
2355.64 482732 447444 383664 405130 425612 432126
2361.42 409228 442494 471814 504754 495640 514368
2367.21 491880 505020 533028 587064 586424 623046
2372.99 633558 660224 632986 609394 569920 602328
2378.78 613918 620330 580606 596742 581982 548082
2384.56 480712 478216 465988 460806 450076 553476
2390.35 624378 599712 534960 564210 537888 483798
2396.14 418122 441524 431012 405778 367406 401148
2401.92 400804 426066 441522 474494 437966 394752
2407.71 346440 388046 345912 250076 138764 94136
2413.49 46740 66296 68280 87052 78620 96872
2419.28 86182 121990 116772 136166 144928 170986
2425.06 139812 160720 174464 228198 237142 226120
2430.85 160262 142770 122604 142284 121676 139956
2436.63 123456 130304 106652 119022 117728 152018
2442.42 143198 177746 209600 215890 97438 70390
2448.20 123022 204156 144968 56804-11706 24718
2453.99 117522 313004 458500 513422 406440 273662
2459.77 151998 113326 53598 38482 6300-3288
2465.56-65336-77706-133230-157374-181212-183646
2471.35-233380-221734-251688-258010-261400-234876
2477.13-293704-358640-439990-425826-433092-447616
2482.92-487954-467744-489760-488894-526322-542802
2488.70-591268-585846-602752-608926-637768-556364
2494.49-445090-339598-330106-288090-294666-311980
2500.27-380000-382064-393742-350500-344488-358642
2506.06-450290-441758-447650-464432-485714-463990
2511.84-537220-564202-587318-570130-597580-579874
2517.63-590994-593060-649380-635236-638756-617036
2523.41-644460-647880-686644-664980-678498-684946
2529.20-729716-774374-913538-976016-966088-794686
2534.99-568374-310176-163486-41606-56344-137420
2540.77-299700-429652-580412-670534-759326-773306
2546.56-821810-820340-827548-761594-717000-663200
2552.34-677222-623292-575364-477972-427556-362430
2558.13-357324-301338-281560-278380-354492-332770
2563.91-271316-179968-183890-123534-69290-19322
2569.70-13434 68368 68122 107508 165972 261296
2575.48 264042 325422 392284 461178 487650 625252
2581.27 709356 781698 810016 879976 934578 1079330
2587.05 1167448 1243304 1266584 1370208 1384374 1346756
2592.84 1276216 1374116 1477842 1560108 1600844 1679186
2598.63 1670166 1744114 1846330 1937772 1922638 1994740
2604.41 2064602 2196560 2410448 2874106 3302886 3526482
2610.20 3459078 3165836 2415332 1589874 1174066 1499832
2615.98 2445950 3602814 4152384 3976766 3287872 2759744
2621.77 2482874 2387670 2281226 2224586 2138414 2138684
2627.55 2179478 2373276 2551064 2707306 2706406 2673006
2633.34 2602186 2612496 2533372 2451764 2325050 2229602
2639.12 2041776 1879590 1682744 1572618 1436094 1368684
2644.91 1264174 1214202 1084248 983658 855598 788334
2650.69 677306 595430 460070 408026 323622 330878
2656.48 284292 222342 104528 54914-23540-26738
2662.27-102604-121974-148922-141544-232762-231494
2668.05-235868-189492-199326-178898-230372-242140
2673.84-288314-251222-295138-296146-325594-295004
2679.62-343310-353262-385012-325564-316972-265538
2685.41-299502-295242-330810-285402-297548-260358
2691.19-271906-240298-291768-287464-314120-261646
2696.98-275724-240464-271748-238162-216944-136414
2702.76-136750-70720-59226 39056 84476 143528
2708.55 104586 110188 67264 106934 83814 128106
2714.33 124410 195108 188136 225710 257700 350760
2720.12 299112 289956 247134 286092 281074 379078
2725.91 413280 464768 430652 458158 431900 471396
2731.69 436776 524520 550364 589414 575598 736902
2737.48 1340730 2149180 1747786 940536 681282 740604
2743.26 748758 811148 764286 781474 747854 789968
2749.05 793970 918710 1000666 1185364 1293398 1418952
2754.83 1371268 1256568 1097752 1109190 1087190 1086064
2760.62 927050 867630 828864 946392 1029362 1090368
2766.40 991122 985158 945700 963530 872396 837400
2772.19 731604 679766 524420 511178 470572 441628
2777.97 345134 360796 282796 317950 305856 344656
2783.76 283164 310490 276362 307116 219950 202358
2789.54 106836 113924 74518 89926-9540 20024
2795.33 35336 105260 21014 34562-20966-39420
2801.12-172116-166572-188204-114510-106322-39526
2806.90-136772-154944-208820-165928-258862-258294
2812.69-296362-221806-262862-228762-244332-171912
2818.47-233656-197708-254188-217826-272536-217646
2824.26-240840-198298-266000-188570-197286-171060
2830.04-289548-275144-289808-188952-227256-157824
2835.83-179000-148482-204424-86230-85342-29630
2841.61-72388 10470-50196-8298 76 166332
2847.40 191778 279690 265892 373242 325970 394148
2853.18 380936 435510 349720 444848 495306 671800
2858.97 699380 842812 878442 1045008 1108090 1332886
2864.76 1433786 1621598 1681734 1939858 2109726 2398660
2870.54 2588976 2960546 3224028 3644598 4014484 4620966
2876.33 5119838 5811738 6426232 7243900 8083230 9203176
2882.11 10238180 11592480 13058300 14806850 16537310 18642010
2887.90 20693300 23007220 25435830 28191210 30926660 34062720
2893.68 37175550 40667470 44235620 47760190 51080320 54832700
2899.47 58026520 61301220 64727820 67642270 69929980 72814810
2905.25 74821020 76530480 78262970 79402410 79993190 80948720
2911.04 80875340 81096560 81514060 81595150 81821670 82841730
2916.82 83142780 83400410 81527860 77271740 71969380 66921320
2922.61 62707440 61546680 61728710 63721330 67494890 78237360
2928.40 156678200 291675100 275874000 134731800 68325740 65554110
2934.18 70271360 74502390 77406960 79697920 82185100 85411780
2939.97 88535040 91881070 95693820 99121210 102539100 105883900
2945.75 108234700 110462800 112301700 113405700 114236700 114274600
2951.54 113766000 113269200 111765400 110423900 108969300 106890600
2957.32 105428400 104608600 104025900 105352500 106911500 107033800
2963.11 105905200 103299700 98246560 90948150 82891860 79124020
2968.89 83092690 93820140 104716500 111665200 115255300 117611400
2974.68 118579100 119555400 122148500 125878700 128849300 132910200
2980.46 137180000 140731400 144431200 148170900 150724000 153677400
2986.25 155298800 155978400 156865500 157171700 156006400 155126400
2992.04 152662600 149850600 147951900 146394800 145692900 149753100
2997.82 154028300 150952000 140889300 130787900 124103800 131177700
3003.61 220351700 429212500 489675500 297299900 152881400 134540300
3009.39 148294300 166860600 180894400 186540100 186080500 182960900
3015.18 176955600 170499900 171952200 188598300 214484200 237301900
3020.96 252338300 260389200 261667700 260654500 260889400 261724200
3026.75 262777700 265433000 266453900 266537200 268236100 267811700
3032.53 265023600 264692200 262076500 257173100 253309800 249770500
3038.32 243021400 236397000 230620800 223647800 216014300 208739800
3044.10 196997500 184527500 174300800 164671400 152378800 142868400
3049.89 133586700 123254200 112191100 103518800 93989500 87272220
3055.67 82981150 82403150 88549540 109799500 138660000 151523300
3061.46 147458000 244482900 862425500 1829551000 1691159000 645032900
3067.25 130538000 70493400 62504960 61308720 61237380 60398900
3073.03 61151320 62775880 68662020 74250050 80678940 88166700
3078.82 96823060 103333900 112172800 119327200 124545000 130256900
3084.60 137169400 140102000 144096500 148064000 149759800 151053700
3090.39 153904500 153227500 152436100 152337000 150713200 147458300
3096.17 145891800 142138500 137726600 134052100 129642500 123708800
3101.96 119555200 114035000 107893900 102478100 96991280 90516980
3107.74 85537580 80007920 74525520 69875190 65712900 59988860
3113.53 54643150 49974600 46330120 42702740 39126450 35158730
3119.31 31987470 28731540 25959730 23299440 21281960 19309950
3125.10 17811740 15829290 14033930 12278140 11096930 9884290
3130.89 9075594 8054530 7390138 6580658 6005432 5225546
3136.67 4833626 4260452 3967766 3534336 3281470 2742046
3142.46 2541286 2200770 2046732 1707842 1660722 1392334
3148.24 1329804 1105146 1131162 948418 909644 696038
3154.03 665300 416472 441164 335634 410594 264768
3159.81 298442 166916 207356 48154 116778 29766
3165.60 82572-28932 48062 9936 147950 9612
3171.38 83086 134562 264198 102532 122030-16708
3177.17-53786-216022-137268-193942-110334-148964
3182.95-84972-233326-166942-186996-115976-205036
3188.74-99572-112962-5456-90102-68586-149182
3194.53-44148-137526-148652-223346-92814-89902
3200.31-39274-223392-238314-263078-186710-313934
3206.10-272072-260988-157638-273824-272816-315450
3211.88-214884-288650-249768-318076-251336-288020
3217.67-221708-200436-45632-184724-278804-386126
3223.45-322164-373810-328684-392428-317322-324632
3229.24-278788-386582-348024-336312-232878-320022
3235.02-298606-333860-299904-407116-381906-435264
3240.81-354914-318908-213952-313966-306784-325674
3246.59-259208-318356-309460-430206-410978-423634
3252.38-347016-388360-265720-245480-281886-465296
3258.17-485636-476646-359740-395158-355270-386158
3263.95-318768-396912-425800-548482-540678-549734
3269.74-458016-480420-418992-436544-340222-357512
3275.52-318814-351678-352672-518858-653894-820404
3281.31-780284-771490-676956-662648-563956-543230
3287.09-476828-525822-504294-571960-568562-660738
3292.88-619270-597452-512004-569824-584638-589452
3298.66-514802-594882-550738-471884-352672-392384
3304.45-345304-390834-411804-522856-492516-480020
3310.23-424376-460094-413948-451382-411656-459368
3316.02-451128-468358-426176-477074-429474-450756
3321.80-406912-381804-273928-297688-297166-402188
3327.59-425902-459494-412906-386700-271908-301870
3333.38-309700-418916-421972-387126-304554-393562
3339.16-420688-424004-372816-403642-367698-456688
3344.95-427100-384082-299924-319334-313610-366172
3350.73-322972-371112-367098-367120-294870-329200
3356.52-290430-306052-266690-268778-264642-347452
3362.30-332722-388434-357956-333628-324068-377968
3368.09-299672-352364-367538-390232-351296-330798
3373.87-290172-369462-340400-360292-389462-448686
3379.66-403066-432328-415612-410376-293790-298644
3385.44-326474-407328-433376-466360-369120-273362
3391.23-169516-267396-373268-464644-442296-458414
3397.02-396446-387580-316304-301582-337950-478704
3402.80-455930-398994-284944-281260-311108-354640
3408.59-256244-252174-245178-279364-240432-230812
3414.37-223514-318970-277080-234762-224352-271768
3420.16-206212-216876-239354-367276-417876-428732
3425.94-367754-371206-323534-275474-201760-263136
3431.73-295434-365088-374240-353916-260752-319300
3437.51-361666-361814-263196-264202-296912-407382
3443.30-380720-307022-241466-304568-294000-300304
3449.08-286282-283060-229050-279850-271620-258192
3454.87-232104-286390-256702-305840-337142-372726
3460.66-358686-417956-435068-447562-335480-232204
3466.44-157316-249468-275740-266102-213450-197310
3472.23-142614-224536-337258-427512-401460-419696
3478.01-374982-376122-342460-350156-357916-362400
3483.80-234584-187138-224720-359390-402938-415308
3489.58-363152-346744-315978-383294-393732-396802
3495.37-366286-392112-351788-345390-295068-231556
3501.15-171712-293230-349816-363286-325802-328844
3506.94-294296-326620-335782-368326-355322-372272
3512.72-356444-394290-344466-319872-315568-355118
3518.51-299888-277680-263064-295636-279362-336038
3524.30-409242-502058-471040-446878-434620-469942
3530.08-405842-362480-322664-355166-362150-354790
3535.87-251784-239202-285532-397604-398644-372310
3541.65-316660-330920-335732-371848-334612-365400
3547.44-362454-358510-343742-412114-452040-469570
3553.22-392852-379442-367144-414062-437718-447050
3559.01-358282-345328-375726-440922-430958-429462
3564.79-357162-345368-368638-444304-464428-470978
3570.58-394836-417582-507348-509278-365220-334316
3576.36-349662-404526-365146-353292-354566-381628
3582.15-338600-348786-369562-398218-325786-309728
3587.94-317264-400944-496752-519668-397952-350010
3593.72-293296-256094-289690-434818-494092-482148
3599.51-368882-334926-321616-368210-397580-415584
3605.29-389948-394368-321600-288440-276606-333644
3611.08-315178-301292-303842-327682-295062-332802
3616.86-332706-314938-258266-238152-208350-300212
3622.65-359512-323430-243602-243548-230830-227298
3628.43-206892-288492-325954-356154-326582-275696
3634.22-187750-191798-212232-247788-295554-384946
3640.00-344548-312366-293112-317970-331888-371296
3645.79-341910-302574-227424-205352-206630-265840
3651.57-273028-305328-334312-351778-304854-330122
3657.36-371816-432092-382578-319596-297514-336180
3663.15-329622-337252-275170-227242-210464-206694
3668.93-100588-58410-133654-274950-253990-144140
3674.72-55958-100744-92992-64918-52038-79478
3680.50-33510-12948 15404 56916 132192 180802
3686.29 239950 251704 320874 327294 304886 281476
3692.07 326016 351066 366484 348376 390074 384542
3697.86 410106 447288 510560 531690 566114 594342
3703.64 667668 640302 625132 667680 716234 691186
3709.43 740372 837260 954922 965500 1012850 1090928
3715.21 1142786 1109798 1195896 1344840 1492672 1668614
3721.00 2005612 2663410 4126326 4878026 3421952 1822960
3726.79 1541010 1639280 1670600 1635166 1725754 1810890
3732.57 1839826 1777302 1706398 1686190 1735404 1790700
3738.36 2075694 2602866 3287860 3560220 3060494 2401872
3744.14 2194588 2155908 2170688 2178236 2276686 2465950
3749.93 2833046 3175536 3184618 2902004 2706204 2661160
3755.71 2746098 2804018 2873438 2997390 3245550 3463036
3761.50 3644202 3708776 3631976 3571208 3908748 4590564
3767.28 5147226 5065684 4614568 4190240 3849026 3423200
3773.07 3035632 2839774 2844666 2841208 2822802 2737880
3778.85 2843534 3233046 3803828 4181104 4000044 3407412
3784.64 3141320 3250606 3396598 3439950 3536084 3591626
3790.43 3657834 3735934 3768120 3774774 3930294 4098112
3796.21 4236448 4354614 4462048 4546126 4771890 4972240
3802.00 5043024 5123988 5325216 5375628 5267996 5220862
3807.78 5423470 5749642 6171854 6459094 6942434 8701306
3813.57 12028130 14134190 11648780 7138548 5190974 5181580
3819.35 5317926 5224712 5091518 4899028 5023714 5721918
3825.14 6793676 7997432 9641172 11156770 11205940 9104726
3830.92 6607106 5780502 6401630 7274902 7748962 7717198
3836.71 7516476 7308740 7319638 7508416 7809262 8147226
3842.49 8586280 8979108 9357172 9698324 9920702 9880452
3848.28 9614666 9272400 9053002 8846808 8667912 8487388
3854.07 8181690 7781778 7557704 7503714 7579200 7669078
3859.85 7807902 8068948 8499036 8713126 8347998 7530700
3865.64 6937660 6994032 8273950 10520450 12448300 13134250
3871.42 12063130 9454570 7118298 5829398 4976242 4161584
3877.21 3466826 3137724 3244538 3333580 3391526 3328592
3882.99 3082486 2922352 2989100 3032374 3098572 3221270
3888.78 3340198 3439816 3581988 3669458 3791756 3862128
3894.56 3868082 3914750 3976972 4003956 3999528 3832158
3900.35 3747680 3751226 3698316 3559394 3497700 3407326
3906.13 3282328 3137262 2989436 2807742 2660242 2484348
3911.92 2264308 2060638 1946360 1819588 1709628 1548802
3917.70 1396724 1276500 1184858 1083738 1044314 961610
3923.49 832948 688840 607188 541390 587360 845366
3929.28 1147604 1020414 697922 612744 703984 789276
3935.06 930078 860696 617068 483472 482994 642762
3940.85 1260882 1835668 1719572 1267862 1003058 670718
3946.63 285956 104512 94364 88702 63858 49752
3952.42 312484 802116 1155228 1004204 566640 188202
3958.20 6934-34762 12498 16300 16956 18826
3963.99-12594-102390-67730 35174 17710-116918
3969.77-113742-29334-6954-39634-31002
##END=
