##TITLE=Propane, 2-iodo-,
##JCAMP-DX=4.24
##DATA TYPE=INFRARED SPECTRUM
##CLASS=COBLENTZ III
##ORIGIN=WYANDOTTE CHEMICALS CORP.
##OWNER=Copyright (C) 1987 by the Coblentz Society
Collection (C) 2018 copyright by the U.S. Secretary of Commerce
on behalf of the United States of America. All rights reserved.
##DATE=1956/03/22
##NAMES=2-iodopropane
##CAS REGISTRY NO=75-30-9
##MOLFORM=C3 H7 I
##SOURCE REFERENCE=COBLENTZ NO. 5976
##$NIST SOURCE=COBLENTZ
##$NIST IMAGE=cob5976
##SPECTROMETER/DATA SYSTEM=BAIRD (GRATING)
##INSTRUMENT PARAMETERS=NaCl PRISM
##STATE=LIQUID
##PATH LENGTH=0.005 CM
##RESOLUTION=2
##XUNITS=1/CM
##YUNITS=TRANSMITTANCE
##XFACTOR=1.0
##YFACTOR=1
##FIRSTX=625
##LASTX=4000
##FIRSTY=0.6854
##MAXX=4000
##MINX=625
##MAXY=0.94
##MINY=0.0011
##NPOINTS=3376
##XYDATA=(X++(Y..Y))
625.000000 0.6854 0.6889 0.6916 0.6924 0.6937
630.000000 0.6958 0.6989 0.7023 0.7050 0.7075
635.000000 0.7101 0.7127 0.7152 0.7160 0.7167
640.000000 0.7168 0.7171 0.7206 0.7231 0.7241
645.000000 0.7244 0.7234 0.7230 0.7244 0.7259
650.000000 0.7290 0.7320 0.7351 0.7380 0.7407
655.000000 0.7435 0.7451 0.7455 0.7459 0.7455
660.000000 0.7445 0.7423 0.7375 0.7327 0.7299
665.000000 0.7319 0.7416 0.7471 0.7513 0.7542
670.000000 0.7561 0.7576 0.7587 0.7595 0.7602
675.000000 0.7609 0.7617 0.7626 0.7636 0.7655
680.000000 0.7678 0.7707 0.7736 0.7762 0.7780
685.000000 0.7798 0.7816 0.7834 0.7852 0.7869
690.000000 0.7887 0.7904 0.7919 0.7925 0.7931
695.000000 0.7937 0.7944 0.7950 0.7954 0.7955
700.000000 0.7956 0.7957 0.7957 0.7957 0.7957
705.000000 0.7957 0.7958 0.7959 0.7960 0.7960
710.000000 0.7960 0.7961 0.7963 0.7958 0.7951
715.000000 0.7945 0.7943 0.7941 0.7933 0.7922
720.000000 0.7916 0.7953 0.7969 0.7977 0.7978
725.000000 0.7980 0.7978 0.7966 0.7955 0.7946
730.000000 0.7938 0.7925 0.7911 0.7897 0.7884
735.000000 0.7873 0.7862 0.7850 0.7837 0.7826
740.000000 0.7821 0.7815 0.7808 0.7795 0.7782
745.000000 0.7770 0.7757 0.7746 0.7736 0.7726
750.000000 0.7716 0.7706 0.7696 0.7688 0.7679
755.000000 0.7671 0.7662 0.7654 0.7646 0.7638
760.000000 0.7630 0.7628 0.7626 0.7624 0.7630
765.000000 0.7640 0.7649 0.7654 0.7659 0.7662
770.000000 0.7661 0.7659 0.7657 0.7642 0.7627
775.000000 0.7612 0.7597 0.7576 0.7549 0.7523
780.000000 0.7495 0.7460 0.7426 0.7402 0.7394
785.000000 0.7388 0.7402 0.7409 0.7437 0.7477
790.000000 0.7522 0.7562 0.7595 0.7623 0.7640
795.000000 0.7661 0.7684 0.7711 0.7729 0.7739
800.000000 0.7748 0.7755 0.7760 0.7766 0.7766
805.000000 0.7764 0.7762 0.7760 0.7758 0.7755
810.000000 0.7753 0.7751 0.7751 0.7750 0.7750
815.000000 0.7753 0.7763 0.7780 0.7806 0.7818
820.000000 0.7827 0.7833 0.7834 0.7839 0.7843
825.000000 0.7852 0.7870 0.7868 0.7842 0.7819
830.000000 0.7807 0.7802 0.7806 0.7811 0.7823
835.000000 0.7838 0.7830 0.7821 0.7791 0.7734
840.000000 0.7690 0.7669 0.7656 0.7641 0.7623
845.000000 0.7598 0.7568 0.7527 0.7475 0.7395
850.000000 0.7299 0.7202 0.7093 0.6978 0.6825
855.000000 0.6673 0.6524 0.6318 0.6108 0.5895
860.000000 0.5560 0.5252 0.4815 0.4376 0.3938
865.000000 0.3501 0.2993 0.2510 0.1943 0.1573
870.000000 0.1283 0.1044 0.0925 0.0882 0.0879
875.000000 0.0854 0.1079 0.1549 0.2037 0.2525
880.000000 0.3011 0.3552 0.4133 0.4424 0.4753
885.000000 0.5134 0.5564 0.5862 0.6079 0.6261
890.000000 0.6389 0.6515 0.6625 0.6735 0.6859
895.000000 0.6974 0.7071 0.7131 0.7184 0.7236
900.000000 0.7267 0.7299 0.7317 0.7324 0.7330
905.000000 0.7330 0.7322 0.7307 0.7287 0.7245
910.000000 0.7197 0.7147 0.7098 0.7052 0.7007
915.000000 0.6959 0.6876 0.6751 0.6614 0.6485
920.000000 0.6237 0.5779 0.5321 0.4889 0.4458
925.000000 0.4043 0.3913 0.3889 0.3937 0.4162
930.000000 0.4457 0.4751 0.5045 0.5339 0.5631
935.000000 0.5866 0.5999 0.6055 0.6063 0.6057
940.000000 0.6036 0.6014 0.5998 0.6022 0.6144
945.000000 0.6268 0.6433 0.6547 0.6655 0.6758
950.000000 0.6858 0.6968 0.7077 0.7179 0.7263
955.000000 0.7327 0.7364 0.7390 0.7416 0.7439
960.000000 0.7459 0.7478 0.7494 0.7507 0.7521
965.000000 0.7535 0.7548 0.7559 0.7571 0.7584
970.000000 0.7590 0.7596 0.7602 0.7609 0.7615
975.000000 0.7620 0.7618 0.7626 0.7615 0.7612
980.000000 0.7610 0.7593 0.7577 0.7561 0.7541
985.000000 0.7519 0.7492 0.7466 0.7440 0.7417
990.000000 0.7393 0.7369 0.7340 0.7308 0.7276
995.000000 0.7236 0.7192 0.7149 0.7103 0.7025
1000.000000 0.6919 0.6806 0.6680 0.6503 0.6342
1005.000000 0.6201 0.5964 0.5486 0.5269 0.5058
1010.000000 0.4793 0.4251 0.3597 0.2944 0.2292
1015.000000 0.1641 0.1165 0.0981 0.0860 0.0802
1020.000000 0.0790 0.0787 0.0994 0.1478 0.1973
1025.000000 0.2468 0.2961 0.3750 0.4183 0.4538
1030.000000 0.5031 0.5327 0.5581 0.5826 0.6062
1035.000000 0.6293 0.6444 0.6574 0.6674 0.6764
1040.000000 0.6838 0.6899 0.6961 0.7007 0.7047
1045.000000 0.7086 0.7103 0.7116 0.7127 0.7128
1050.000000 0.7138 0.7123 0.7115 0.7107 0.7095
1055.000000 0.7078 0.7052 0.7022 0.6992 0.6969
1060.000000 0.6965 0.6998 0.7027 0.7059 0.7093
1065.000000 0.7127 0.7157 0.7187 0.7219 0.7251
1070.000000 0.7277 0.7294 0.7308 0.7310 0.7310
1075.000000 0.7308 0.7307 0.7304 0.7302 0.7291
1080.000000 0.7284 0.7267 0.7249 0.7231 0.7209
1085.000000 0.7184 0.7160 0.7135 0.7112 0.7087
1090.000000 0.7062 0.7029 0.6993 0.6957 0.6918
1095.000000 0.6877 0.6837 0.6776 0.6715 0.6654
1100.000000 0.6580 0.6500 0.6403 0.6288 0.6173
1105.000000 0.6051 0.5897 0.5668 0.5487 0.5354
1110.000000 0.5203 0.4990 0.4707 0.4425 0.4143
1115.000000 0.3861 0.3580 0.3300 0.3020 0.2740
1120.000000 0.2456 0.2303 0.2203 0.2103 0.1919
1125.000000 0.1762 0.1656 0.1546 0.1425 0.1304
1130.000000 0.1176 0.1036 0.0879 0.0776 0.0681
1135.000000 0.0582 0.0524 0.0491 0.0473 0.0468
1140.000000 0.0467 0.0467 0.0467 0.0468 0.0469
1145.000000 0.0471 0.0472 0.0476 0.0484 0.0489
1150.000000 0.0496 0.0502 0.0509 0.0518 0.0528
1155.000000 0.0537 0.0559 0.0595 0.0654 0.0721
1160.000000 0.0783 0.0843 0.0921 0.1023 0.1127
1165.000000 0.1231 0.1366 0.1537 0.1695 0.1821
1170.000000 0.1922 0.2066 0.2145 0.2211 0.2264
1175.000000 0.2313 0.2281 0.2202 0.2076 0.1952
1180.000000 0.1828 0.1703 0.1579 0.1455 0.1331
1185.000000 0.1208 0.1085 0.0978 0.0870 0.0781
1190.000000 0.0711 0.0649 0.0598 0.0560 0.0525
1195.000000 0.0494 0.0466 0.0443 0.0422 0.0413
1200.000000 0.0406 0.0402 0.0405 0.0407 0.0410
1205.000000 0.0404 0.0418 0.0426 0.0434 0.0448
1210.000000 0.0467 0.0492 0.0527 0.0573 0.0669
1215.000000 0.0779 0.1026 0.1319 0.1611 0.1903
1220.000000 0.2193 0.2484 0.2775 0.3261 0.3611
1225.000000 0.3788 0.3950 0.4235 0.4502 0.4642
1230.000000 0.4773 0.4882 0.4983 0.5118 0.5358
1235.000000 0.5614 0.5745 0.5850 0.5955 0.6046
1240.000000 0.6122 0.6196 0.6272 0.6351 0.6429
1245.000000 0.6507 0.6584 0.6655 0.6717 0.6773
1250.000000 0.6818 0.6862 0.6901 0.6926 0.6952
1255.000000 0.6978 0.7000 0.7017 0.7033 0.7046
1260.000000 0.7055 0.7064 0.7073 0.7081 0.7088
1265.000000 0.7089 0.7091 0.7092 0.7091 0.7088
1270.000000 0.7085 0.7082 0.7085 0.7096 0.7136
1275.000000 0.7193 0.7281 0.7377 0.7457 0.7505
1280.000000 0.7536 0.7565 0.7586 0.7605 0.7616
1285.000000 0.7625 0.7634 0.7637 0.7640 0.7642
1290.000000 0.7645 0.7647 0.7650 0.7652 0.7651
1295.000000 0.7649 0.7676 0.7642 0.7639 0.7635
1300.000000 0.7633 0.7631 0.7630 0.7624 0.7616
1305.000000 0.7609 0.7596 0.7576 0.7543 0.7508
1310.000000 0.7469 0.7430 0.7379 0.7324 0.7274
1315.000000 0.7226 0.7178 0.7130 0.7081 0.7032
1320.000000 0.6990 0.6951 0.6916 0.6909 0.6911
1325.000000 0.6925 0.6942 0.6962 0.6980 0.6994
1330.000000 0.7002 0.7008 0.7007 0.7006 0.7004
1335.000000 0.7000 0.6997 0.6985 0.6968 0.6947
1340.000000 0.6909 0.6859 0.6804 0.6733 0.6664
1345.000000 0.6599 0.6536 0.6477 0.6412 0.6283
1350.000000 0.6119 0.5955 0.5791 0.5628 0.5465
1355.000000 0.5302 0.5139 0.4976 0.4815 0.4652
1360.000000 0.4491 0.4329 0.4176 0.4059 0.3433
1365.000000 0.2931 0.2431 0.1931 0.1432 0.0934
1370.000000 0.0638 0.0495 0.0442 0.0427 0.0412
1375.000000 0.0454 0.0528 0.0644 0.0702 0.0715
1380.000000 0.0739 0.0694 0.0660 0.0587 0.0496
1385.000000 0.0438 0.0421 0.0418 0.0427 0.0547
1390.000000 0.0401 0.0985 0.1203 0.1422 0.1640
1395.000000 0.1858 0.2075 0.2293 0.2510 0.2726
1400.000000 0.2943 0.3171 0.3372 0.3419 0.3423
1405.000000 0.3424 0.3444 0.3407 0.3386 0.3350
1410.000000 0.3305 0.3255 0.3195 0.3110 0.3047
1415.000000 0.2975 0.2765 0.2532 0.2401 0.2385
1420.000000 0.2383 0.2366 0.2455 0.2507 0.2558
1425.000000 0.2609 0.2661 0.2711 0.2731 0.2727
1430.000000 0.2751 0.2718 0.2705 0.2684 0.2633
1435.000000 0.2568 0.2498 0.2428 0.2354 0.2277
1440.000000 0.2119 0.1923 0.1726 0.1530 0.1333
1445.000000 0.1137 0.0943 0.0778 0.0655 0.0571
1450.000000 0.0514 0.0457 0.0405 0.0383 0.0369
1455.000000 0.0355 0.0353 0.0353 0.0328 0.0372
1460.000000 0.0404 0.0436 0.0456 0.0458 0.0485
1465.000000 0.0427 0.0386 0.0346 0.0312 0.0296
1470.000000 0.0292 0.0294 0.0631 0.0869 0.1107
1475.000000 0.1344 0.1581 0.1818 0.2054 0.2289
1480.000000 0.2525 0.2761 0.2995 0.3230 0.3464
1485.000000 0.3698 0.3932 0.4108 0.4206 0.4278
1490.000000 0.4370 0.4591 0.4731 0.4864 0.4981
1495.000000 0.5096 0.5206 0.5314 0.5419 0.5506
1500.000000 0.5589 0.5676 0.5784 0.5904 0.6006
1505.000000 0.6099 0.6185 0.6260 0.6311 0.6333
1510.000000 0.6356 0.6375 0.6386 0.6394 0.6402
1515.000000 0.6410 0.6418 0.6425 0.6432 0.6446
1520.000000 0.6471 0.6497 0.6532 0.6570 0.6630
1525.000000 0.6711 0.6827 0.6914 0.6981 0.7047
1530.000000 0.7127 0.7209 0.7288 0.7351 0.7410
1535.000000 0.7469 0.7518 0.7556 0.7594 0.7631
1540.000000 0.7666 0.7700 0.7716 0.7723 0.7729
1545.000000 0.7732 0.7733 0.7733 0.7745 0.7758
1550.000000 0.7773 0.7791 0.7829 0.7885 0.7945
1555.000000 0.7979 0.7999 0.8014 0.8029 0.8044
1560.000000 0.8057 0.8068 0.8079 0.8090 0.8101
1565.000000 0.8112 0.8122 0.8132 0.8142 0.8152
1570.000000 0.8157 0.8160 0.8164 0.8167 0.8170
1575.000000 0.8173 0.8177 0.8178 0.8179 0.8179
1580.000000 0.8179 0.8179 0.8179 0.8179 0.8178
1585.000000 0.8178 0.8175 0.8178 0.8177 0.8177
1590.000000 0.8177 0.8177 0.8176 0.8176 0.8176
1595.000000 0.8175 0.8175 0.8173 0.8169 0.8165
1600.000000 0.8162 0.8158 0.8154 0.8149 0.8143
1605.000000 0.8133 0.8117 0.8103 0.8085 0.8060
1610.000000 0.8035 0.8010 0.7993 0.7978 0.7962
1615.000000 0.7946 0.7932 0.7919 0.7919 0.7919
1620.000000 0.7920 0.7921 0.7923 0.7925 0.7929
1625.000000 0.7933 0.7937 0.7941 0.7946 0.7954
1630.000000 0.7962 0.7969 0.7976 0.7982 0.7988
1635.000000 0.7988 0.7986 0.7979 0.7972 0.7964
1640.000000 0.7957 0.7949 0.7942 0.7935 0.7929
1645.000000 0.7923 0.7918 0.7912 0.7907 0.7906
1650.000000 0.7904 0.7903 0.7902 0.7900 0.7899
1655.000000 0.7900 0.7907 0.7920 0.7932 0.7943
1660.000000 0.7954 0.7956 0.7956 0.7952 0.7948
1665.000000 0.7942 0.7930 0.7916 0.7902 0.7888
1670.000000 0.7872 0.7855 0.7839 0.7823 0.7808
1675.000000 0.7794 0.7780 0.7766 0.7751 0.7737
1680.000000 0.7723 0.7709 0.7695 0.7683 0.7672
1685.000000 0.7661 0.7650 0.7638 0.7627 0.7616
1690.000000 0.7604 0.7593 0.7582 0.7573 0.7562
1695.000000 0.7552 0.7542 0.7538 0.7535 0.7531
1700.000000 0.7527 0.7525 0.7525 0.7530 0.7535
1705.000000 0.7539 0.7544 0.7549 0.7554 0.7559
1710.000000 0.7559 0.7558 0.7549 0.7537 0.7520
1715.000000 0.7494 0.7462 0.7421 0.7368 0.7320
1720.000000 0.7294 0.7289 0.7298 0.7295 0.7306
1725.000000 0.7317 0.7331 0.7355 0.7394 0.7451
1730.000000 0.7501 0.7530 0.7557 0.7583 0.7609
1735.000000 0.7634 0.7658 0.7674 0.7684 0.7691
1740.000000 0.7697 0.7701 0.7705 0.7709 0.7712
1745.000000 0.7713 0.7721 0.7753 0.7793 0.7834
1750.000000 0.7875 0.7915 0.7955 0.7996 0.8037
1755.000000 0.8077 0.8118 0.8158 0.8198 0.8300
1760.000000 0.8355 0.8378 0.8393 0.8403 0.8404
1765.000000 0.8404 0.8402 0.8399 0.8395 0.8391
1770.000000 0.8382 0.8370 0.8358 0.8348 0.8341
1775.000000 0.8335 0.8329 0.8325 0.8322 0.8319
1780.000000 0.8321 0.8325 0.8330 0.8340 0.8353
1785.000000 0.8373 0.8399 0.8434 0.8489 0.8509
1790.000000 0.8517 0.8524 0.8532 0.8530 0.8527
1795.000000 0.8523 0.8518 0.8507 0.8493 0.8476
1800.000000 0.8460 0.8444 0.8428 0.8412 0.8396
1805.000000 0.8380 0.8366 0.8352 0.8341 0.8339
1810.000000 0.8341 0.8344 0.8351 0.8363 0.8375
1815.000000 0.8395 0.8419 0.8446 0.8474 0.8497
1820.000000 0.8515 0.8529 0.8536 0.8538 0.8538
1825.000000 0.8517 0.8535 0.8532 0.8529 0.8525
1830.000000 0.8519 0.8513 0.8508 0.8501 0.8490
1835.000000 0.8478 0.8466 0.8454 0.8442 0.8431
1840.000000 0.8419 0.8407 0.8395 0.8383 0.8371
1845.000000 0.8359 0.8347 0.8335 0.8324 0.8312
1850.000000 0.8299 0.8287 0.8276 0.8264 0.8252
1855.000000 0.8238 0.8222 0.8206 0.8190 0.8174
1860.000000 0.8158 0.8139 0.8117 0.8092 0.8067
1865.000000 0.8039 0.8002 0.7947 0.7891 0.7829
1870.000000 0.7764 0.7698 0.7639 0.7584 0.7532
1875.000000 0.7495 0.7470 0.7457 0.7458 0.7460
1880.000000 0.7461 0.7462 0.7439 0.7532 0.7626
1885.000000 0.7720 0.7813 0.7907 0.8000 0.8094
1890.000000 0.8188 0.8281 0.8319 0.8347 0.8367
1895.000000 0.8386 0.8406 0.8426 0.8446 0.8467
1900.000000 0.8488 0.8512 0.8543 0.8572 0.8594
1905.000000 0.8606 0.8617 0.8629 0.8641 0.8648
1910.000000 0.8652 0.8657 0.8662 0.8666 0.8671
1915.000000 0.8672 0.8672 0.8672 0.8672 0.8672
1920.000000 0.8672 0.8668 0.8664 0.8661 0.8657
1925.000000 0.8654 0.8651 0.8647 0.8643 0.8637
1930.000000 0.8627 0.8618 0.8611 0.8615 0.8623
1935.000000 0.8635 0.8647 0.8659 0.8672 0.8685
1940.000000 0.8696 0.8704 0.8708 0.8725 0.8717
1945.000000 0.8717 0.8717 0.8717 0.8716 0.8716
1950.000000 0.8716 0.8714 0.8711 0.8709 0.8703
1955.000000 0.8697 0.8691 0.8685 0.8679 0.8673
1960.000000 0.8667 0.8660 0.8654 0.8645 0.8635
1965.000000 0.8623 0.8610 0.8598 0.8586 0.8573
1970.000000 0.8561 0.8549 0.8536 0.8523 0.8508
1975.000000 0.8493 0.8479 0.8464 0.8449 0.8435
1980.000000 0.8420 0.8405 0.8389 0.8373 0.8357
1985.000000 0.8340 0.8323 0.8306 0.8290 0.8273
1990.000000 0.8255 0.8238 0.8220 0.8204 0.8191
1995.000000 0.8186 0.8195 0.8183 0.8184 0.8196
2000.000000 0.8215 0.8254 0.8293 0.8332 0.8372
2005.000000 0.8411 0.8450 0.8489 0.8528 0.8568
2010.000000 0.8607 0.8645 0.8658 0.8661 0.8662
2015.000000 0.8657 0.8664 0.8666 0.8667 0.8668
2020.000000 0.8669 0.8670 0.8671 0.8672 0.8673
2025.000000 0.8674 0.8675 0.8675 0.8676 0.8677
2030.000000 0.8678 0.8679 0.8679 0.8680 0.8680
2035.000000 0.8681 0.8682 0.8682 0.8682 0.8681
2040.000000 0.8677 0.8674 0.8670 0.8667 0.8664
2045.000000 0.8660 0.8656 0.8650 0.8644 0.8637
2050.000000 0.8630 0.8623 0.8616 0.8609 0.8602
2055.000000 0.8595 0.8587 0.8580 0.8574 0.8571
2060.000000 0.8575 0.8581 0.8590 0.8598 0.8608
2065.000000 0.8619 0.8629 0.8641 0.8654 0.8666
2070.000000 0.8678 0.8690 0.8700 0.8711 0.8721
2075.000000 0.8731 0.8741 0.8750 0.8757 0.8764
2080.000000 0.8770 0.8777 0.8783 0.8789 0.8794
2085.000000 0.8800 0.8804 0.8807 0.8811 0.8814
2090.000000 0.8817 0.8821 0.8824 0.8825 0.8825
2095.000000 0.8823 0.8822 0.8820 0.8819 0.8818
2100.000000 0.8816 0.8814 0.8808 0.8802 0.8796
2105.000000 0.8790 0.8783 0.8777 0.8770 0.8758
2110.000000 0.8747 0.8734 0.8714 0.8688 0.8652
2115.000000 0.8613 0.8571 0.8529 0.8487 0.8445
2120.000000 0.8403 0.8361 0.8319 0.8277 0.8235
2125.000000 0.8193 0.8152 0.8116 0.8092 0.8092
2130.000000 0.8095 0.8101 0.8137 0.8185 0.8234
2135.000000 0.8282 0.8330 0.8377 0.8426 0.8474
2140.000000 0.8522 0.8569 0.8617 0.8656 0.8693
2145.000000 0.8696 0.8696 0.8696 0.8695 0.8694
2150.000000 0.8692 0.8688 0.8683 0.8677 0.8671
2155.000000 0.8665 0.8654 0.8642 0.8627 0.8613
2160.000000 0.8597 0.8577 0.8545 0.8506 0.8457
2165.000000 0.8408 0.8360 0.8311 0.8263 0.8214
2170.000000 0.8165 0.8117 0.8069 0.8020 0.7971
2175.000000 0.7923 0.7877 0.7839 0.7813 0.7814
2180.000000 0.7816 0.7819 0.7836 0.7867 0.7898
2185.000000 0.7930 0.7961 0.7992 0.8023 0.8054
2190.000000 0.8061 0.8064 0.8060 0.8055 0.8006
2195.000000 0.7958 0.7910 0.7863 0.7814 0.7766
2200.000000 0.7719 0.7671 0.7624 0.7580 0.7542
2205.000000 0.7518 0.7516 0.7515 0.7518 0.7521
2210.000000 0.7527 0.7541 0.7578 0.7608 0.7639
2215.000000 0.7670 0.7701 0.7731 0.7762 0.7792
2220.000000 0.7823 0.7854 0.7885 0.7915 0.7945
2225.000000 0.7976 0.8006 0.8035 0.8064 0.8087
2230.000000 0.8109 0.8130 0.8151 0.8172 0.8193
2235.000000 0.8218 0.8245 0.8269 0.8292 0.8301
2240.000000 0.8308 0.8314 0.8321 0.8320 0.8316
2245.000000 0.8305 0.8293 0.8280 0.8267 0.8254
2250.000000 0.8241 0.8227 0.8214 0.8201 0.8187
2255.000000 0.8176 0.8166 0.8155 0.8145 0.8136
2260.000000 0.8129 0.8123 0.8119 0.8115 0.8111
2265.000000 0.8109 0.8107 0.8108 0.8110 0.8113
2270.000000 0.8118 0.8123 0.8131 0.8139 0.8147
2275.000000 0.8155 0.8165 0.8176 0.8193 0.8209
2280.000000 0.8226 0.8242 0.8259 0.8277 0.8295
2285.000000 0.8313 0.8332 0.8350 0.8369 0.8387
2290.000000 0.8405 0.8424 0.8444 0.8463 0.8480
2295.000000 0.8492 0.8502 0.8509 0.8513 0.8509
2300.000000 0.8505 0.8499 0.8493 0.8486 0.8479
2305.000000 0.8470 0.8461 0.8452 0.8443 0.8434
2310.000000 0.8425 0.8416 0.8407 0.8398 0.8389
2315.000000 0.8380 0.8371 0.8362 0.8353 0.8344
2320.000000 0.8335 0.8326 0.8317 0.8308 0.8299
2325.000000 0.8290 0.8280 0.8271 0.8261 0.8249
2330.000000 0.8238 0.8226 0.8215 0.8203 0.8192
2335.000000 0.8180 0.8169 0.8157 0.8146 0.8134
2340.000000 0.8123 0.8112 0.8103 0.8095 0.8088
2345.000000 0.8081 0.8074 0.8067 0.8060 0.8053
2350.000000 0.8046 0.8039 0.8032 0.8029 0.8027
2355.000000 0.8026 0.8026 0.8025 0.8024 0.8025
2360.000000 0.8023 0.8023 0.8027 0.8030 0.8035
2365.000000 0.8040 0.8048 0.8058 0.8067 0.8077
2370.000000 0.8087 0.8097 0.8108 0.8138 0.8167
2375.000000 0.8198 0.8228 0.8264 0.8304 0.8343
2380.000000 0.8379 0.8414 0.8434 0.8453 0.8472
2385.000000 0.8491 0.8504 0.8512 0.8518 0.8521
2390.000000 0.8524 0.8528 0.8531 0.8534 0.8536
2395.000000 0.8537 0.8536 0.8535 0.8535 0.8534
2400.000000 0.8533 0.8533 0.8533 0.8533 0.8534
2405.000000 0.8534 0.8534 0.8535 0.8535 0.8537
2410.000000 0.8539 0.8543 0.8548 0.8554 0.8560
2415.000000 0.8566 0.8572 0.8577 0.8583 0.8590
2420.000000 0.8598 0.8610 0.8623 0.8611 0.8632
2425.000000 0.8633 0.8631 0.8628 0.8626 0.8624
2430.000000 0.8621 0.8617 0.8613 0.8604 0.8596
2435.000000 0.8586 0.8576 0.8566 0.8555 0.8544
2440.000000 0.8532 0.8519 0.8507 0.8495 0.8483
2445.000000 0.8469 0.8456 0.8441 0.8425 0.8409
2450.000000 0.8394 0.8378 0.8364 0.8350 0.8336
2455.000000 0.8322 0.8308 0.8294 0.8279 0.8265
2460.000000 0.8251 0.8237 0.8223 0.8209 0.8195
2465.000000 0.8181 0.8167 0.8154 0.8140 0.8126
2470.000000 0.8112 0.8098 0.8083 0.8068 0.8052
2475.000000 0.8036 0.7973 0.8004 0.7990 0.7981
2480.000000 0.7972 0.7974 0.7979 0.7983 0.7988
2485.000000 0.7992 0.7996 0.8000 0.8005 0.8009
2490.000000 0.8014 0.8028 0.8041 0.8058 0.8078
2495.000000 0.8097 0.8122 0.8147 0.8174 0.8203
2500.000000 0.8233 0.8267 0.8301 0.8334 0.8366
2505.000000 0.8397 0.8426 0.8455 0.8482 0.8505
2510.000000 0.8528 0.8549 0.8570 0.8589 0.8607
2515.000000 0.8625 0.8636 0.8646 0.8653 0.8653
2520.000000 0.8653 0.8685 0.8655 0.8656 0.8656
2525.000000 0.8656 0.8655 0.8654 0.8652 0.8650
2530.000000 0.8647 0.8645 0.8643 0.8641 0.8639
2535.000000 0.8636 0.8632 0.8627 0.8622 0.8616
2540.000000 0.8611 0.8605 0.8597 0.8589 0.8581
2545.000000 0.8573 0.8564 0.8556 0.8548 0.8539
2550.000000 0.8531 0.8522 0.8512 0.8503 0.8493
2555.000000 0.8483 0.8474 0.8464 0.8454 0.8444
2560.000000 0.8433 0.8422 0.8409 0.8396 0.8382
2565.000000 0.8368 0.8355 0.8341 0.8327 0.8314
2570.000000 0.8299 0.8283 0.8268 0.8253 0.8238
2575.000000 0.8228 0.8230 0.8231 0.8234 0.8237
2580.000000 0.8240 0.8256 0.8272 0.8290 0.8311
2585.000000 0.8332 0.8350 0.8366 0.8383 0.8389
2590.000000 0.8395 0.8400 0.8400 0.8401 0.8401
2595.000000 0.8400 0.8400 0.8399 0.8398 0.8397
2600.000000 0.8396 0.8394 0.8390 0.8383 0.8377
2605.000000 0.8369 0.8362 0.8355 0.8347 0.8339
2610.000000 0.8330 0.8318 0.8305 0.8294 0.8282
2615.000000 0.8270 0.8259 0.8248 0.8236 0.8225
2620.000000 0.8214 0.8205 0.8197 0.8189 0.8187
2625.000000 0.8187 0.8187 0.8188 0.8189 0.8191
2630.000000 0.8194 0.8196 0.8199 0.8204 0.8209
2635.000000 0.8217 0.8228 0.8238 0.8249 0.8260
2640.000000 0.8271 0.8279 0.8287 0.8295 0.8302
2645.000000 0.8310 0.8317 0.8325 0.8332 0.8340
2650.000000 0.8347 0.8355 0.8361 0.8368 0.8375
2655.000000 0.8380 0.8386 0.8391 0.8396 0.8401
2660.000000 0.8406 0.8409 0.8411 0.8414 0.8416
2665.000000 0.8418 0.8420 0.8422 0.8424 0.8424
2670.000000 0.8423 0.8422 0.8421 0.8419 0.8417
2675.000000 0.8413 0.8410 0.8406 0.8401 0.8396
2680.000000 0.8390 0.8383 0.8376 0.8369 0.8361
2685.000000 0.8354 0.8347 0.8341 0.8335 0.8326
2690.000000 0.8316 0.8307 0.8296 0.8285 0.8274
2695.000000 0.8261 0.8248 0.8222 0.8112 0.8002
2700.000000 0.7880 0.7717 0.7553 0.7390 0.7227
2705.000000 0.7064 0.6901 0.6738 0.6575 0.6436
2710.000000 0.6326 0.6215 0.6160 0.6158 0.6156
2715.000000 0.6177 0.6152 0.6150 0.6167 0.6195
2720.000000 0.6224 0.6287 0.6370 0.6452 0.6534
2725.000000 0.6617 0.6699 0.6781 0.6863 0.6945
2730.000000 0.7027 0.7110 0.7192 0.7236 0.7269
2735.000000 0.7302 0.7308 0.7307 0.7306 0.7293
2740.000000 0.7277 0.7261 0.7245 0.7229 0.7213
2745.000000 0.7197 0.7181 0.7166 0.7150 0.7134
2750.000000 0.7118 0.7112 0.7110 0.7108 0.7113
2755.000000 0.7120 0.7128 0.7176 0.7246 0.7315
2760.000000 0.7384 0.7453 0.7522 0.7562 0.7581
2765.000000 0.7599 0.7608 0.7608 0.7608 0.7607
2770.000000 0.7607 0.7606 0.7605 0.7604 0.7602
2775.000000 0.7585 0.7598 0.7595 0.7589 0.7572
2780.000000 0.7555 0.7534 0.7482 0.7430 0.7378
2785.000000 0.7326 0.7275 0.7223 0.7171 0.7119
2790.000000 0.7068 0.7016 0.6964 0.6913 0.6861
2795.000000 0.6810 0.6758 0.6707 0.6655 0.6604
2800.000000 0.6553 0.6501 0.6450 0.6404 0.6368
2805.000000 0.6333 0.6301 0.6288 0.6275 0.6262
2810.000000 0.6250 0.6237 0.6224 0.6210 0.6194
2815.000000 0.6179 0.6156 0.6129 0.6102 0.5997
2820.000000 0.5819 0.5640 0.5362 0.4880 0.4398
2825.000000 0.3917 0.3436 0.2956 0.2476 0.2186
2830.000000 0.1908 0.1630 0.1487 0.1390 0.1293
2835.000000 0.1216 0.1157 0.1098 0.1047 0.1013
2840.000000 0.0979 0.0945 0.0921 0.0897 0.0873
2845.000000 0.0849 0.0825 0.0801 0.0779 0.0758
2850.000000 0.0737 0.0717 0.0698 0.0679 0.0662
2855.000000 0.0656 0.0651 0.0645 0.0641 0.0637
2860.000000 0.0632 0.0628 0.0624 0.0620 0.0617
2865.000000 0.0615 0.0613 0.0611 0.0611 0.0611
2870.000000 0.0611 0.0612 0.0614 0.0615 0.0616
2875.000000 0.0616 0.0617 0.0617 0.0617 0.0616
2880.000000 0.0616 0.0615 0.0614 0.0613 0.0610
2885.000000 0.0606 0.0602 0.0598 0.0593 0.0588
2890.000000 0.0583 0.0578 0.0572 0.0566 0.0560
2895.000000 0.0553 0.0546 0.0539 0.0523 0.0508
2900.000000 0.0493 0.0479 0.0465 0.0452 0.0439
2905.000000 0.0427 0.0416 0.0404 0.0395 0.0385
2910.000000 0.0376 0.0369 0.0364 0.0359 0.0342
2915.000000 0.0356 0.0356 0.0356 0.0358 0.0360
2920.000000 0.0362 0.0375 0.0404 0.0432 0.0461
2925.000000 0.0496 0.0531 0.0566 0.0600 0.0635
2930.000000 0.0670 0.0704 0.0739 0.0773 0.0807
2935.000000 0.0842 0.0876 0.0911 0.0937 0.0941
2940.000000 0.0945 0.0949 0.0953 0.0950 0.0950
2945.000000 0.0949 0.0949 0.0948 0.0948 0.0927
2950.000000 0.0904 0.0880 0.0857 0.0833 0.0810
2955.000000 0.0786 0.0763 0.0740 0.0717 0.0694
2960.000000 0.0671 0.0648 0.0624 0.0601 0.0578
2965.000000 0.0555 0.0532 0.0509 0.0486 0.0463
2970.000000 0.0440 0.0417 0.0394 0.0371 0.0348
2975.000000 0.0325 0.0302 0.0279 0.0256 0.0233
2980.000000 0.0211 0.0188 0.0165 0.0142 0.0119
2985.000000 0.0097 0.0074 0.0053 0.0043 0.0033
2990.000000 0.0023 0.0011 0.0018 0.0018 0.0018
2995.000000 0.0036 0.0055 0.0074 0.0160 0.0346
3000.000000 0.0532 0.0718 0.0904 0.1089 0.1275
3005.000000 0.1460 0.1645 0.1830 0.2015 0.2200
3010.000000 0.2384 0.2569 0.2754 0.2938 0.3122
3015.000000 0.3306 0.3490 0.3674 0.3857 0.4041
3020.000000 0.4224 0.4408 0.4591 0.4774 0.4957
3025.000000 0.5140 0.5323 0.5505 0.5688 0.5870
3030.000000 0.6052 0.6187 0.6301 0.6415 0.6527
3035.000000 0.6577 0.6626 0.6676 0.6724 0.6771
3040.000000 0.6818 0.6865 0.6904 0.6939 0.6975
3045.000000 0.7010 0.7044 0.7079 0.7113 0.7147
3050.000000 0.7182 0.7217 0.7252 0.7287 0.7322
3055.000000 0.7356 0.7391 0.7449 0.7513 0.7577
3060.000000 0.7641 0.7682 0.7723 0.7764 0.7799
3065.000000 0.7821 0.7843 0.7864 0.7885 0.7906
3070.000000 0.7927 0.7948 0.7968 0.7986 0.8005
3075.000000 0.8024 0.8035 0.8046 0.8057 0.8067
3080.000000 0.8075 0.8084 0.8092 0.8099 0.8102
3085.000000 0.8106 0.8109 0.8112 0.8114 0.8117
3090.000000 0.8119 0.8121 0.8123 0.8125 0.8127
3095.000000 0.8128 0.8128 0.8128 0.8160 0.8128
3100.000000 0.8127 0.8126 0.8125 0.8125 0.8124
3105.000000 0.8123 0.8122 0.8120 0.8119 0.8117
3110.000000 0.8115 0.8113 0.8110 0.8107 0.8105
3115.000000 0.8102 0.8100 0.8097 0.8094 0.8091
3120.000000 0.8089 0.8086 0.8080 0.8074 0.8068
3125.000000 0.8063 0.8053 0.8044 0.8034 0.8024
3130.000000 0.8011 0.7998 0.7985 0.7971 0.7955
3135.000000 0.7940 0.7924 0.7909 0.7893 0.7877
3140.000000 0.7862 0.7846 0.7830 0.7815 0.7800
3145.000000 0.7784 0.7768 0.7753 0.7737 0.7722
3150.000000 0.7706 0.7691 0.7675 0.7660 0.7644
3155.000000 0.7629 0.7613 0.7598 0.7583 0.7567
3160.000000 0.7552 0.7537 0.7521 0.7506 0.7490
3165.000000 0.7475 0.7460 0.7444 0.7429 0.7414
3170.000000 0.7398 0.7383 0.7368 0.7352 0.7337
3175.000000 0.7322 0.7307 0.7292 0.7277 0.7262
3180.000000 0.7246 0.7233 0.7221 0.7209 0.7198
3185.000000 0.7187 0.7177 0.7166 0.7156 0.7148
3190.000000 0.7145 0.7142 0.7139 0.7137 0.7137
3195.000000 0.7137 0.7137 0.7127 0.7138 0.7140
3200.000000 0.7141 0.7142 0.7145 0.7147 0.7149
3205.000000 0.7151 0.7155 0.7159 0.7163 0.7167
3210.000000 0.7175 0.7186 0.7196 0.7207 0.7226
3215.000000 0.7250 0.7274 0.7297 0.7321 0.7345
3220.000000 0.7369 0.7392 0.7416 0.7439 0.7463
3225.000000 0.7486 0.7510 0.7534 0.7558 0.7581
3230.000000 0.7605 0.7629 0.7652 0.7675 0.7699
3235.000000 0.7723 0.7746 0.7770 0.7793 0.7817
3240.000000 0.7840 0.7864 0.7887 0.7910 0.7933
3245.000000 0.7957 0.7980 0.8003 0.8027 0.8050
3250.000000 0.8074 0.8097 0.8120 0.8143 0.8167
3255.000000 0.8190 0.8213 0.8236 0.8260 0.8283
3260.000000 0.8306 0.8329 0.8352 0.8375 0.8398
3265.000000 0.8421 0.8444 0.8467 0.8490 0.8513
3270.000000 0.8536 0.8560 0.8583 0.8606 0.8628
3275.000000 0.8651 0.8674 0.8697 0.8720 0.8743
3280.000000 0.8766 0.8789 0.8810 0.8831 0.8852
3285.000000 0.8873 0.8881 0.8887 0.8893 0.8899
3290.000000 0.8902 0.8904 0.8906 0.8908 0.8909
3295.000000 0.8909 0.8909 0.8909 0.8909 0.8908
3300.000000 0.8908 0.8908 0.8908 0.8907 0.8905
3305.000000 0.8904 0.8903 0.8900 0.8890 0.8881
3310.000000 0.8871 0.8861 0.8851 0.8841 0.8832
3315.000000 0.8822 0.8812 0.8802 0.8793 0.8783
3320.000000 0.8773 0.8763 0.8754 0.8744 0.8734
3325.000000 0.8724 0.8715 0.8705 0.8695 0.8685
3330.000000 0.8676 0.8666 0.8656 0.8647 0.8637
3335.000000 0.8627 0.8617 0.8607 0.8597 0.8588
3340.000000 0.8578 0.8569 0.8559 0.8549 0.8540
3345.000000 0.8530 0.8520 0.8512 0.8507 0.8501
3350.000000 0.8496 0.8491 0.8490 0.8490 0.8490
3355.000000 0.8490 0.8493 0.8503 0.8513 0.8523
3360.000000 0.8533 0.8543 0.8554 0.8564 0.8574
3365.000000 0.8584 0.8594 0.8604 0.8615 0.8625
3370.000000 0.8635 0.8645 0.8654 0.8664 0.8674
3375.000000 0.8684 0.8695 0.8705 0.8715 0.8725
3380.000000 0.8735 0.8745 0.8755 0.8765 0.8772
3385.000000 0.8779 0.8786 0.8794 0.8799 0.8801
3390.000000 0.8803 0.8806 0.8808 0.8810 0.8812
3395.000000 0.8814 0.8816 0.8818 0.8819 0.8820
3400.000000 0.8821 0.8822 0.8823 0.8824 0.8824
3405.000000 0.8825 0.8826 0.8826 0.8827 0.8827
3410.000000 0.8828 0.8829 0.8829 0.8829 0.8829
3415.000000 0.8829 0.8829 0.8829 0.8829 0.8829
3420.000000 0.8830 0.8830 0.8830 0.8830 0.8830
3425.000000 0.8830 0.8830 0.8830 0.8830 0.8830
3430.000000 0.8831 0.8831 0.8832 0.8832 0.8832
3435.000000 0.8833 0.8835 0.8836 0.8837 0.8838
3440.000000 0.8840 0.8843 0.8845 0.8847 0.8850
3445.000000 0.8852 0.8855 0.8857 0.8860 0.8863
3450.000000 0.8866 0.8869 0.8872 0.8875 0.8879
3455.000000 0.8882 0.8885 0.8888 0.8891 0.8894
3460.000000 0.8897 0.8900 0.8904 0.8907 0.8912
3465.000000 0.8916 0.8921 0.8926 0.8930 0.8935
3470.000000 0.8940 0.8945 0.8949 0.8955 0.8960
3475.000000 0.8965 0.8970 0.8975 0.8980 0.8986
3480.000000 0.8991 0.8996 0.9001 0.9006 0.9010
3485.000000 0.9015 0.9020 0.9024 0.9028 0.9031
3490.000000 0.9034 0.9037 0.9041 0.9044 0.9048
3495.000000 0.9051 0.9055 0.9058 0.9061 0.9065
3500.000000 0.9068 0.9071 0.9074 0.9078 0.9081
3505.000000 0.9084 0.9087 0.9091 0.9094 0.9097
3510.000000 0.9100 0.9104 0.9107 0.9110 0.9113
3515.000000 0.9117 0.9120 0.9123 0.9126 0.9128
3520.000000 0.9131 0.9134 0.9136 0.9138 0.9139
3525.000000 0.9141 0.9142 0.9144 0.9146 0.9147
3530.000000 0.9149 0.9150 0.9152 0.9154 0.9156
3535.000000 0.9158 0.9159 0.9161 0.9163 0.9164
3540.000000 0.9166 0.9167 0.9169 0.9171 0.9173
3545.000000 0.9175 0.9176 0.9178 0.9180 0.9181
3550.000000 0.9183 0.9184 0.9186 0.9188 0.9190
3555.000000 0.9191 0.9193 0.9195 0.9196 0.9198
3560.000000 0.9200 0.9201 0.9203 0.9205 0.9206
3565.000000 0.9208 0.9210 0.9212 0.9213 0.9215
3570.000000 0.9216 0.9218 0.9219 0.9220 0.9222
3575.000000 0.9223 0.9224 0.9225 0.9226 0.9227
3580.000000 0.9229 0.9230 0.9231 0.9232 0.9234
3585.000000 0.9235 0.9236 0.9238 0.9239 0.9240
3590.000000 0.9241 0.9242 0.9244 0.9245 0.9246
3595.000000 0.9247 0.9248 0.9249 0.9251 0.9252
3600.000000 0.9253 0.9255 0.9256 0.9257 0.9258
3605.000000 0.9259 0.9259 0.9260 0.9261 0.9262
3610.000000 0.9263 0.9264 0.9265 0.9266 0.9267
3615.000000 0.9268 0.9269 0.9270 0.9271 0.9272
3620.000000 0.9272 0.9273 0.9274 0.9275 0.9276
3625.000000 0.9277 0.9278 0.9278 0.9279 0.9280
3630.000000 0.9280 0.9281 0.9282 0.9282 0.9282
3635.000000 0.9282 0.9282 0.9282 0.9282 0.9282
3640.000000 0.9282 0.9282 0.9282 0.9282 0.9282
3645.000000 0.9281 0.9281 0.9281 0.9281 0.9281
3650.000000 0.9281 0.9281 0.9281 0.9281 0.9281
3655.000000 0.9280 0.9280 0.9280 0.9279 0.9279
3660.000000 0.9279 0.9278 0.9278 0.9278 0.9277
3665.000000 0.9277 0.9276 0.9276 0.9276 0.9275
3670.000000 0.9275 0.9275 0.9274 0.9274 0.9273
3675.000000 0.9273 0.9273 0.9272 0.9272 0.9272
3680.000000 0.9271 0.9271 0.9270 0.9270 0.9270
3685.000000 0.9269 0.9269 0.9269 0.9268 0.9268
3690.000000 0.9267 0.9266 0.9266 0.9265 0.9265
3695.000000 0.9265 0.9264 0.9264 0.9264 0.9263
3700.000000 0.9263 0.9262 0.9262 0.9262 0.9261
3705.000000 0.9261 0.9260 0.9260 0.9259 0.9259
3710.000000 0.9258 0.9258 0.9257 0.9257 0.9257
3715.000000 0.9257 0.9260 0.9264 0.9267 0.9270
3720.000000 0.9273 0.9277 0.9282 0.9287 0.9292
3725.000000 0.9297 0.9301 0.9305 0.9309 0.9313
3730.000000 0.9316 0.9320 0.9323 0.9326 0.9329
3735.000000 0.9332 0.9335 0.9338 0.9340 0.9343
3740.000000 0.9346 0.9348 0.9351 0.9354 0.9357
3745.000000 0.9360 0.9364 0.9367 0.9370 0.9373
3750.000000 0.9376 0.9379 0.9382 0.9385 0.9387
3755.000000 0.9387 0.9387 0.9387 0.9387 0.9387
3760.000000 0.9387 0.9387 0.9387 0.9387 0.9387
3765.000000 0.9387 0.9386 0.9386 0.9386 0.9386
3770.000000 0.9386 0.9386 0.9386 0.9386 0.9386
3775.000000 0.9386 0.9386 0.9400 0.9385 0.9385
3780.000000 0.9385 0.9385 0.9385 0.9384 0.9384
3785.000000 0.9384 0.9383 0.9383 0.9382 0.9381
3790.000000 0.9380 0.9378 0.9377 0.9375 0.9374
3795.000000 0.9371 0.9369 0.9366 0.9364 0.9361
3800.000000 0.9359 0.9357 0.9355 0.9352 0.9350
3805.000000 0.9348 0.9346 0.9343 0.9341 0.9338
3810.000000 0.9336 0.9333 0.9330 0.9327 0.9323
3815.000000 0.9320 0.9316 0.9313 0.9309 0.9306
3820.000000 0.9302 0.9298 0.9295 0.9291 0.9287
3825.000000 0.9284 0.9280 0.9276 0.9272 0.9269
3830.000000 0.9265 0.9261 0.9257 0.9254 0.9250
3835.000000 0.9246 0.9242 0.9239 0.9235 0.9231
3840.000000 0.9227 0.9223 0.9219 0.9215 0.9211
3845.000000 0.9207 0.9203 0.9200 0.9198 0.9195
3850.000000 0.9193 0.9190 0.9188 0.9186 0.9185
3855.000000 0.9184 0.9183 0.9182 0.9181 0.9179
3860.000000 0.9178 0.9177 0.9176 0.9175 0.9173
3865.000000 0.9172 0.9171 0.9170 0.9169 0.9168
3870.000000 0.9166 0.9166 0.9165 0.9164 0.9163
3875.000000 0.9162 0.9161 0.9161 0.9160 0.9159
3880.000000 0.9159 0.9158 0.9157 0.9157 0.9156
3885.000000 0.9156 0.9155 0.9154 0.9154 0.9153
3890.000000 0.9152 0.9151 0.9150 0.9149 0.9149
3895.000000 0.9148 0.9147 0.9146 0.9145 0.9144
3900.000000 0.9143 0.9142 0.9140 0.9139 0.9138
3905.000000 0.9137 0.9136 0.9135 0.9134 0.9133
3910.000000 0.9132 0.9131 0.9130 0.9129 0.9128
3915.000000 0.9126 0.9125 0.9124 0.9123 0.9122
3920.000000 0.9121 0.9120 0.9119 0.9118 0.9117
3925.000000 0.9116 0.9115 0.9114 0.9113 0.9112
3930.000000 0.9111 0.9110 0.9110 0.9109 0.9108
3935.000000 0.9107 0.9106 0.9106 0.9105 0.9104
3940.000000 0.9103 0.9102 0.9101 0.9100 0.9099
3945.000000 0.9098 0.9097 0.9096 0.9095 0.9094
3950.000000 0.9093 0.9092 0.9091 0.9090 0.9089
3955.000000 0.9088 0.9087 0.9086 0.9085 0.9084
3960.000000 0.9083 0.9082 0.9081 0.9080 0.9079
3965.000000 0.9078 0.9077 0.9076 0.9075 0.9074
3970.000000 0.9072 0.9071 0.9070 0.9068 0.9067
3975.000000 0.9066 0.9065 0.9064 0.9063 0.9062
3980.000000 0.9060 0.9059 0.9058 0.9057 0.9056
3985.000000 0.9055 0.9054 0.9053 0.9051 0.9050
3990.000000 0.9048 0.9047 0.9045 0.9043 0.9042
3995.000000 0.9040 0.9039 0.9037 0.9036 0.9034
4000.000000 0.9033
##END=
