##TITLE=1,1-Dichloroethene
##JCAMP-DX=4.24
##DATA TYPE=INFRARED SPECTRUM
##CLASS=IUPAC A
##ORIGIN=NIST, Analytical Chemistry Division, 301-975-3108
##OWNER=COPYRIGHT (C) 2001 by the U.S. Secretary of Commerce
##DATE=01/06/01
##$SPECTRA VERSION=1.10
##$UNCERTAINTY IN Y=2.2 % relative (B=1.21E-04,C=2.69E-10,D=8.94E-16)
##CAS NAME=1,1-Dichloroethene
##CAS REGISTRY NO=75-35-4
##MOLFORM=C H2 C Cl2
##MP=-122.1 C
##BP=37 C
##$NIST SOURCE=QUANT-IR
##SPECTROMETER/DATA SYSTEM=IFS66V (Bruker)
##INSTRUMENT PARAMETERS=KBr Beam Splitter; MCT Detector; Multipass cell
##STATE=gas
##SAMPLE DESCRIPTION=1,1-Dichloroethene Primary Gas Standard
##PRESSURE=101.3 Pa
##TEMPERATURE=23 C
##SAMPLING PROCEDURE=1 L/min Flow
##RESOLUTION=0.9640
##DATA PROCESSING=3-Term B-H Apodization
##XUNITS=cm-1
##YUNITS=(micromol/mol)-1m-1 (base 10)
##XFACTOR=1.0
##YFACTOR=18.189E-13
##DELTAX=0.4820
##FIRSTX=575.17
##LASTX=3974.606
##FIRSTY=6.15E-06
##MAXX=3974.12
##MINX=575.17
##MAXY=.0011559
##MINY=-6.50E-07
##NPOINTS=7052
##XYDATA=(X++(Y..Y))
575.17 3385282 3676944 3740045 3765219 4094258 4570321
577.58 4871752 5118629 5483026 6131274 6824004 7301601
580.47 7701242 8149540 8807224 9594954 10154413 10725108
583.37 11572615 12479286 13486908 14546570 15508466 16463245
586.26 17503642 18471773 19388137 20461154 21857135 23360600
589.15 24816438 26153513 27517941 28915323 30178756 31545796
592.04 33056507 34343991 35314038 36179952 36987785 37615544
594.94 38116104 38494394 38696051 38631002 38527407 38438314
597.83 37990652 37082872 35995845 34649574 33058727 31636112
600.72 30400411 29257201 28469168 28218253 28296424 28319863
603.62 28180439 28200693 28896915 30296686 32249668 34915317
606.51 38160858 41269125 43530611 45006379 46094836 46482717
609.40 46097982 45318201 44273429 43002831 41583265 39984695
612.29 38267609 36512746 34786034 33026887 31202381 29242359
615.19 27338571 25661655 23992553 22263075 20660287 19125823
618.08 17622181 16342477 15206409 14051177 13078971 12204700
620.97 11321036 10561627 9920575 9276147 8631448 8085109
623.86 7610719 7119246 6643536 6220913 5828015 5351861
626.76 4876987 4566238 4306422 3933957 3513723 3103640
629.65 2805216 2588384 2385637 2203877 2029872 1824155
632.54 1630820 1443762 1262537 1073495 897867 777059
635.44 711956 647572 605019 583291 506523 395224
638.33 311588 218165 156875 129542 143766 203665
641.22 210567 86077-2893 48858 112619 46872
644.11-33798-36998 49385 116210 83472 11202
647.01-30270-65609-71047-35645 15182 37370
649.90 51470 42599-16594-99350-111407-112022
652.79-113571-68868-32647-59900-79270-95905
655.68-97456-81080-5550 57651 59298 45192
658.58 3339-70738-108549-142179-121689-87817
661.47-92921-63127 5218 67774 100779 54795
664.36 49280 72531 41834-24971-69700-112873
667.26-122887-58648 17150 35053 38506 14111
670.15 19883 64349 70910 28921 11695-30779
673.04-36153 12050 7549-12590 27108 67340
675.93 109693 164941 228602 259833 296039 380857
678.83 510954 506672 288270 18688-88775-37996
681.72 60125 76108 65139 38625-44779-138634
684.61-122071 9514 107712 74265 15846-8246
687.50 17497 56495 103131 116141 69638 12951
690.40 37608 55372 27774-4559-14669 23428
693.29 75845 44998 21358 21823-51061-146972
696.18-146708-104045-46693 10746 14912-49346
699.08-77543-73466-42164-34398-27510 28489
701.97 76109 55813 24610-13297-68110-129478
704.86-144533-132652-99795-72400-26496-7200
707.75-52183-91441-20290 50599 33940-27196
710.65-10097 15444-17861-51140-29285-8694
713.54-38972-77433-47431-12672 6093 22074
716.43 40420-12974-85874-96520-47653-33689
719.32-43950-47727-39730-53051-76845-80677
722.22-38923 6348 9111-16654 13268 51196
725.11 21884-73350-74043-10317 34179 54243
728.00 67154 59882 32241 11276 21575 25909
730.90 36088 34316 45763 22461-290 6834
733.79 17677 18405 53756 73607 55749 30852
736.68 25608 21791 44899 98211 152234 143026
739.57 103011 73635 82408 101915 136138 142798
742.47 147530 164397 180795 194788 223705 240430
745.36 260311 270414 256599 228989 275171 378826
748.25 423722 401687 448776 538981 617248 668593
751.14 748676 838374 900942 1005136 1181727 1329354
754.04 1481357 1646456 1795369 1958725 2190086 2470261
756.93 2778780 3083615 3433602 3833903 4294956 4819634
759.82 5338097 5888863 6570413 7278096 8007212 8840018
762.72 9758992 10685265 11572856 12473686 13497260 14617006
765.61 15788585 17045817 18330011 19481581 20634647 22006017
768.50 23568549 25243436 27028719 28908433 30921837 33342724
771.39 36295722 39570273 43281657 47883349 53086675 58480261
774.29 64747099 71937993 78613881 84140189 87738803 91206354
777.18 97823397 106167558 113947074 121877564 131647048 143367588
780.07 154509605 162347662 168614902 176721820 187425214 200560093
782.96 215015656 226050026 228724247 227250013 228348033 232890423
785.86 241638813 256195467 272610084 276039088 254961028 226887997
788.75 211344193 205059316 205449428 212679534 222540853 228779344
791.64 234319331 257110355 302288471 330281962 303500078 277426531
794.54 312286735 340309840 273040832 178244004 146004561 154720278
797.43 174933835 201903751 226648980 239092691 244625011 248586294
800.32 250240568 252098366 254130689 253855704 250899711 245274401
803.21 237267596 226852522 214382007 200174463 184745319 168527273
806.11 152237618 136013881 120246161 105241936 91420762 78745495
809.00 67314741 57026404 48031603 40150716 33420744 27703140
811.89 22974948 19006170 15873007 13338490 11273599 9514975
814.78 8196218 7163204 6444519 5774792 5188524 4717136
817.68 4511711 4302551 4104680 3867643 3727653 3615563
820.57 3614663 3476460 3306222 3212595 3303652 3156647
823.46 2814027 2579797 2797525 3044394 2992473 2842756
826.36 3538198 4881735 5546234 4914835 3951832 3059879
829.25 2708517 2667761 2908083 3240915 3610184 3909159
832.14 4350422 4790120 5241995 5519162 5783035 5967552
835.03 6312328 6685535 7173125 7608327 8063492 8459948
837.93 9029594 9616401 10330471 10975283 11750744 12612613
840.82 13617645 14548613 15614717 16670725 17875050 19124156
843.71 20583283 21994740 23565938 25169945 26919638 28570104
846.60 30339557 32098488 34032425 35938381 37916859 39667896
849.50 41583744 43754706 46195016 47959865 49274371 50582313
852.39 52219811 53768478 55469169 57097526 58953155 60514366
855.28 61650149 62182816 62814928 63094583 63151389 62987084
858.18 63070408 63010083 63931795 67333444 74997678 95323334
861.07 122033681 122722344 103582252 85721212 72496569 64779729
863.96 61018333 57862148 54980204 52354243 49452497 48303896
866.85 66500664 211136029 518976660 635509245 425682495 206174947
869.75 104160267 68257137 59545435 60116516 62497618 65308112
872.64 68493502 75134682 85360308 89414352 83609738 77947369
875.53 75441630 74818732 74609524 74773666 74875970 75171227
878.42 75070765 74879360 74513497 74319420 73921616 73486128
881.32 72706216 71893028 70787713 69642328 68201945 66717191
884.21 65061276 63275222 61172335 59649804 58158912 56177940
887.10 56119596 58512954 55981068 48164293 42088306 38928225
890.00 36447126 34187688 31847467 29633592 27480532 25493396
892.89 23571496 21851857 20114017 18708108 17646381 16480593
895.78 14801076 13291850 12112523 11212014 10346372 9612788
898.67 8921731 8370184 7874841 7556386 7217273 6886066
901.57 6551739 6368714 6172356 6039023 5895699 5816435
904.46 5679735 5617835 5534197 5449972 5269921 5120470
907.35 4905883 4683580 4359838 4040158 3673351 3278426
910.24 2759937 2316585 1944770 1775982 1784223 1982832
913.14 2188348 2461360 2720574 3021660 3286126 3527212
916.03 3674429 3832225 3899779 3939274 3922169 3912271
918.92 3828395 3756750 3636064 3534927 3404095 3299470
921.82 3158101 3063420 2927950 2817203 2677033 2540531
924.71 2395060 2330744 2225939 2119009 1984071 1888879
927.60 1774844 1700356 1598956 1552775 1519460 1496307
930.49 1500427 1697647 1881322 2194960 3167409 4076019
933.39 3344664 1950914 1268940 1117451 1130658 1364147
936.28 1479977 1286489 1013127 912416 872164 898287
939.17 884830 850784 795488 763466 723855 734311
942.06 713031 716096 697897 691191 680492 740358
944.96 813279 808762 718534 701053 639296 584151
947.85 550859 561526 567847 586737 563685 564304
950.74 546271 535746 493827 486479 479241 485623
953.64 467649 471109 447003 430759 381244 350176
956.53 339389 367941 362840 368636 355880 348725
959.42 322056 339751 340735 338343 314660 316560
962.31 300543 308628 315417 332543 322509 339334
965.21 340109 361126 353747 330628 280356 270625
968.10 274810 289775 268388 276978 297999 347435
970.99 420202 511185 454387 331562 256256 238094
973.88 180730 155057 159813 199718 238543 335933
976.78 393747 362208 307550 324948 328720 323296
979.67 302998 311928 302104 288026 261723 260487
982.56 231429 239065 271888 277730 212819 175734
985.46 156775 158127 146417 159936 141338 110947
988.35 85554 94137 76871 74938 80106 117299
991.24 127964 106333 45469 35132 49478 78654
994.13 77915 80753 86472 109986 112407 129456
997.03 119899 114995 112994 128665 121834 139367
999.92 143754 180185 231000 283061 290716 297128
1002.81 325025 405824 444483 422191 362391 369040
1005.70 407667 461376 492337 527112 529837 526555
1008.60 536070 590965 606112 606320 595529 592702
1011.49 572947 584249 581073 551884 494247 488694
1014.38 527971 574114 558114 586773 744961 922324
1017.28 840173 661821 636116 635431 494462 395908
1020.17 384608 409034 411922 442012 493944 560313
1023.06 589933 603074 577186 570975 578486 596076
1025.95 590458 598322 570140 528631 487448 474354
1028.85 451076 426784 384556 359894 319231 288866
1031.74 236045 197913 162607 163386 160891 149056
1034.63 125195 130560 124198 121209 110094 107712
1037.52 96926 121859 119517 100542 90583 128439
1040.42 157577 186182 189635 195493 190153 206273
1043.31 224902 277515 333549 392293 414087 437773
1046.20 476190 538283 563778 609852 668352 754576
1049.10 862018 1044187 1212637 1319284 1421055 1627779
1051.99 1824733 1941585 2026329 2195421 2396352 2648474
1054.88 2951138 3303111 3652249 4058898 4521123 5032383
1057.77 5568576 6194661 6892512 7714340 8601481 9532444
1060.67 10514268 11672979 13025056 14584968 16312552 18227206
1063.56 20283793 22558593 24842124 27149518 29847326 33033208
1066.45 36516879 40070378 43649865 47720160 51814143 55454444
1069.34 59353632 64119863 69109923 73842855 78732542 83392142
1072.24 86753253 89778375 93636676 98760330 105761840 113819025
1075.13 118188819 117040320 114925689 115512217 120847376 135312854
1078.02 154494455 159752372 148663355 136822592 132516834 140566903
1080.92 164791611 204261627 235377360 226482740 186760907 159962560
1083.81 160765352 181828164 239695895 321633525 329913424 258645382
1086.70 215167787 213834283 220823033 226600203 228074573 227015224
1089.59 227567455 228152364 222376731 211388457 203296371 199796718
1092.49 202434679 208387229 217548926 251385084 278031493 243041980
1095.38 194659491 200303567 251961471 260913657 199943325 144636428
1098.27 119866251 112102945 114856186 121996151 130131364 138137495
1101.16 145700908 152416984 157697594 161255925 162914257 162669460
1104.06 160453249 156334009 150450638 143097248 134480855 124858669
1106.95 114551736 103964355 93326346 82837451 72662787 63052433
1109.84 54169401 46119241 38916259 32629210 27178207 22500105
1112.74 18595287 15438689 12859845 10753071 9083233 7819203
1115.63 6857678 6192605 5789290 5567235 5457151 5483701
1118.52 5612297 5822833 6074981 6459906 7038796 7721934
1121.41 8287522 8688370 9182332 10034249 11240269 12665326
1124.31 14050015 15311056 16635209 18350293 21078797 25242729
1127.20 28734353 29356653 28989509 29770499 31394028 33046168
1130.09 34159556 34721694 35017904 35103371 34743780 33915877
1132.98 32721734 31176896 29294516 27287918 25647910 24858380
1135.88 24567397 24179039 25857799 35004828 54431075 73128191
1138.77 68015806 40988104 22344893 20466318 20869161 18233058
1141.66 17060373 18609306 20714358 23008657 25608940 28174099
1144.56 30517630 32510097 34026475 35045425 35544902 35553401
1147.45 35094692 34210328 32925896 31327826 29500794 27514318
1150.34 25381874 23180572 20992974 18873927 16842246 14909430
1153.23 13056509 11333340 9800015 8468253 7261785 6165251
1156.13 5222789 4438226 3749777 3181804 2715263 2323899
1159.02 2009928 1751305 1510139 1324720 1176844 1046510
1161.91 915606 815373 739351 674869 608869 550558
1164.80 502626 465767 417709 385483 378983 449159
1167.70 707330 1094891 1141619 803627 498244 374069
1170.59 360927 387525 397478 425209 455200 461796
1173.48 474143 500554 491881 471078 462760 474095
1176.38 485238 482926 453108 413774 375988 346172
1179.27 315096 300311 278969 249135 225911 238795
1182.16 256096 245097 202541 176635 153177 109923
1185.05 72874 84618 99310 98657 106751 108210
1187.95 75275 64668 70396 72979 61913 52784
1190.84 50000 65296 77241 73586 53727 51022
1193.73 46001 39785 34680 30930 37188 56608
1196.62 57290 56864 67504 86516 85284 79586
1199.52 74827 72185 58312 35452-816-1404
1202.41 26716 55497 72048 83095 88191 96655
1205.30 93015 82018 55780 36819 31485 39712
1208.20 29366 6271-5224 2777-4953-18314
1211.09-30518-39314-55320-66255-58387-35434
1213.98-18978-9249-26485-44363-51998-52100
1216.87-68207-71185-55600-52733-53530-34215
1219.77-26912-20026-21806-33139-44038-48622
1222.66-60200-60021-52494-40806-32372-16237
1225.55-16252-32897-30787-3892-8291-26688
1228.44-43014-41612-36168-24050 7841 37544
1231.34 42069 44248 36505 25074 25927 37865
1234.23 48575 69865 68960 63839 85506 111053
1237.12 104925 114291 132750 140883 142581 145959
1240.02 149425 158837 158984 161032 165258 169688
1242.91 176588 183928 158604 136633 152003 197892
1245.80 219152 200614 169277 153760 149289 169058
1248.69 195514 214986 220432 257554 322952 336599
1251.59 256767 158019 103670 101369 129542 178248
1254.48 190029 181853 191048 206150 208857 220073
1257.37 221033 209689 202320 201281 185208 179981
1260.26 178884 164863 130104 110417 102205 87993
1263.16 72010 61211 33785-9521-37600-17318
1266.05 12511 9933-11520-8351-17888-44345
1268.94-63795-56400-41548-30733-29194-33700
1271.84-41059-31227-38509-58007-61623-42679
1274.73-24322-9409-9844-13381-31165-42680
1277.62-39259-28576-21357-14660-20534-15026
1280.51 12241 40900 37068 21532 13198 15825
1283.41 17345 42831 72575 85776 86098 80773
1286.30 66048 72126 97082 137880 170173 186006
1289.19 205208 237312 262037 284928 309398 343056
1292.08 373202 390065 400851 442463 498705 545238
1294.98 577682 625091 682941 731431 757413 781731
1297.87 822649 888754 957556 1016221 1064913 1145637
1300.76 1237557 1312970 1373527 1454996 1552213 1658381
1303.66 1767677 1877885 1983815 2098672 2226104 2348359
1306.55 2465476 2603611 2741849 2872022 2989046 3087807
1309.44 3144265 3185047 3247500 3325571 3362560 3352157
1312.33 3321979 3273805 3159207 2993756 2789440 2551553
1315.23 2262937 1931845 1607086 1346916 1200797 1191976
1318.12 1300004 1531416 1838289 2161216 2482095 2784607
1321.01 3009326 3157636 3281080 3371278 3389096 3361880
1323.90 3317501 3275924 3219810 3136321 3024555 2905322
1326.80 2783830 2666667 2551580 2446513 2335049 2221461
1329.69 2100560 1986859 1904054 1842444 1772592 1696902
1332.58 1618569 1568520 1516602 1425572 1341173 1302045
1335.48 1252266 1186083 1149224 1134576 1097512 1050929
1338.37 981655 922294 890538 862374 815507 758499
1341.26 684201 602176 533507 488210 440249 397347
1344.15 371999 372933 408075 479246 545312 572405
1347.05 576519 647496 715323 739157 776912 779124
1349.94 723809 674051 615036 539403 513559 565655
1352.83 582100 560452 606443 716539 778380 748108
1355.72 689384 663018 664856 672023 641832 607774
1358.62 605186 605660 582477 574621 580798 592173
1361.51 585601 572038 591294 661990 726589 742332
1364.40 737298 767333 827388 892052 956810 1019389
1367.29 1043949 1084775 1161505 1222062 1254252 1307375
1370.19 1394232 1498562 1595212 1703804 1828400 1950311
1373.08 2040505 2082257 2112829 2209753 2359632 2541072
1375.97 2769388 3027649 3206723 3274761 3360078 3487548
1378.87 3609353 3791162 4025578 4290561 4562487 4741100
1381.76 4755445 4733375 4796302 4950807 5163831 5442459
1384.65 5781559 6105747 6307848 6281943 5995381 5623533
1387.54 5425886 5527340 5767903 5951798 6247224 6707689
1390.44 6683978 6277439 6600071 7624255 7923527 6792936
1393.33 5587179 5343012 5476734 5731473 6366824 6651935
1396.22 6101837 6030520 7109554 8668014 9147224 7565404
1399.11 5735626 5098864 5076229 5233813 5476144 5627804
1402.01 5521442 5318791 5232987 5205067 5119715 5014917
1404.90 4894262 4730138 4525280 4290195 4000436 3683826
1407.79 3377994 3070649 2740430 2398010 2037071 1684588
1410.69 1363474 1096227 861760 652427 481968 355604
1413.58 261307 185280 122669 105869 101633 68899
1416.47 17922-993 9886 15255-12770-45989
1419.36-56349-40393-18748-13798-28639-30376
1422.26-10853-425-29667-43924-32990-20140
1425.15-2049 22084 29815 16812-20144-40806
1428.04-26985-6965-5048 553 6581 374
1430.93-15306-18421-14462-20631-30810-15345
1433.83 870 2594 5284 8165-14406-22821
1436.72-9382-10260-24434-22176-22080-24540
1439.61-25747-20929-14943-7168-2861 587
1442.51 959 2533-5416-28124-64546-73405
1445.40-50086-25892-14299-8238-19602-27126
1448.29-22882-12631 2433 23975 30688 20851
1451.18-411-10007-789 12284 11470 11251
1454.08 16007 29683 44282 27768-33503-57507
1456.97-27308-9533-6303 13716 21279 23622
1459.86 33646 59569 71557 57424 43445 49819
1462.75 47798 38964 26237 20084 34625 52147
1465.65 58880 65137 50876 35219 40484 52481
1468.54 47179 31761 36875 52414 41377 32082
1471.43 38983 65733 91762 104405 117372 131864
1474.33 130296 130859 120047 83011 48164 44927
1477.22 58732 67644 51663 35243 24551 23748
1480.11 32114 48045 59232 60210 55815 60316
1483.00 62663 70104 68534 47243 24077 12384
1485.90 8686 15997 23508 33412 31459 22361
1488.79 11237 10379 11201 15926 17983 7664
1491.68-2500 22860 57906 69782 53248 36888
1494.57 35607 28372-1114 8067 45399 53745
1497.47 48045 44117 36289 38137 41010 48945
1500.36 60846 80690 87464 79192 74632 80964
1503.25 84362 76658 53328 34518 38438 57763
1506.15 53967 49126 66708 82973 82696 99657
1509.04 124960 138100 142746 143894 139743 147884
1511.93 162552 179327 183651 188257 198791 214695
1514.82 247090 287358 301222 301522 308220 334333
1517.72 370636 396346 421116 470732 499486 493265
1520.61 491463 545599 609590 643985 695579 772192
1523.50 844114 900034 945626 1014558 1104305 1195356
1526.39 1297543 1450329 1613886 1730729 1820156 1937045
1529.29 2086599 2246769 2399620 2578861 2782441 2980596
1532.18 3173623 3402329 3645324 3855434 4018410 4161713
1535.07 4308464 4463486 4615656 4768927 4934856 5115771
1537.97 5259100 5383166 5603538 5914066 6295111 6852827
1540.86 7621728 8595879 9526865 9607525 8749458 8141253
1543.75 8259481 8715877 9286847 9941940 10672191 11430082
1546.64 12193512 13009889 13856716 14702928 15559835 16436381
1549.54 17313343 18189695 19077609 19954804 20811222 21680738
1552.43 22552916 23390458 24196040 25026657 25899027 26785492
1555.32 27680372 28573295 29468003 30380455 31263459 32098738
1558.21 32965924 33876047 34717622 35510885 36313002 37085943
1561.11 37733772 38207495 38497558 38643426 38659392 38495992
1564.00 38117827 37614241 37088565 36502586 35732728 34916013
1566.89 34206239 33550271 32898352 32166894 31376828 30852302
1569.79 30723164 30985101 31754218 32637698 33352717 34499146
1572.68 36291870 38555065 41239380 43567425 45124597 46477474
1575.57 47265316 46889924 45762353 44399858 42906486 41298810
1578.46 39597200 37871041 36155197 34461195 32788340 31152468
1581.36 29559305 28008670 26518841 25119760 23792486 22538467
1584.25 21380072 20337547 19407418 18630351 18037587 17613430
1587.14 17354317 17281966 17361813 17537175 17738953 17938600
1590.03 18144113 18361600 18577751 18799849 19036054 19330508
1592.93 19712938 20181564 20751110 21452854 22269646 23225132
1595.82 24352952 25627931 26989097 28414104 29908644 31490981
1598.71 33137208 34846691 36674845 38661545 40763196 42983957
1601.61 45387480 48017175 50791100 53737619 56910721 60299424
1604.50 63907855 67721099 71678464 75828581 80190649 84714606
1607.39 89347877 94070239 98838789 103648179 108519635 113397454
1610.28 118158785 122798799 127308683 131599675 135588303 139197287
1613.18 142313280 144868024 146817273 148082260 148544918 148059075
1616.07 146611474 144402688 141279939 136963742 131606372 125476542
1618.96 118670563 111427220 104105178 96903053 90273307 85044045
1621.85 82040706 81825655 85125029 93121440 105859607 121709743
1624.75 138603325 154636409 167952471 177385637 183092823 185325086
1627.64 184213647 180544462 175395594 169422368 162835209 155775236
1630.53 148374384 140741395 132946208 125090019 117260461 109550790
1633.43 102047474 94840765 88020803 81672496 75878408 70606020
1636.32 65715320 61172657 56972701 53137834 49625453 46359483
1639.21 43315004 40491156 37865418 35394073 33053578 30828110
1642.10 28676405 26610537 24647909 22766058 20932699 19159164
1645.00 17472136 15890041 14398964 12977563 11649384 10440385
1647.89 9310022 8271162 7347366 6508545 5723601 5017517
1650.78 4387003 3804511 3268422 2816849 2456868 2179705
1653.67 1923700 1681463 1481296 1302291 1144222 1013358
1656.57 889138 773344 680679 624919 575981 508980
1659.46 448580 410962 380644 350362 310008 288118
1662.35 290121 282252 258641 246050 236485 221815
1665.25 204060 194395 186982 177354 159236 153626
1668.14 159519 157070 156180 167630 178372 190372
1671.03 204242 215634 210641 203743 203984 217585
1673.92 229449 231837 238403 259614 276470 279729
1676.82 281458 308763 331344 341554 356385 372719
1679.71 383255 390755 394809 391674 381346 377173
1682.60 374720 370784 335605 274048 258608 299289
1685.49 326883 335607 340649 364650 423483 515444
1688.39 552353 497644 443992 451529 474659 467434
1691.28 438884 420575 423671 453002 501087 567722
1694.17 579259 489444 374108 332506 348320 357304
1697.07 348059 343810 349401 362098 366505 390840
1699.96 399282 366208 352048 341879 309673 276363
1702.85 267575 282045 273690 256869 245335 235071
1705.74 236529 237782 226872 224441 229857 246098
1708.64 261225 260068 262415 277887 285446 280612
1711.53 262972 264506 294358 325630 339814 343768
1714.42 353103 388639 426396 455181 466054 476819
1717.31 526755 580395 611608 662263 726291 781419
1720.21 838942 905203 948297 978653 1017388 1067189
1723.10 1123492 1191728 1258269 1307848 1348353 1398494
1725.99 1449254 1509648 1598537 1715339 1836238 1972976
1728.89 2118265 2270226 2446501 2646230 2857366 3066329
1731.78 3259610 3441286 3612198 3805222 3988416 4145589
1734.67 4321350 4489246 4603910 4683945 4739779 4759765
1737.56 4743733 4701049 4576290 4337046 4019104 3624108
1740.46 3144504 2625093 2123508 1731623 1511121 1487963
1743.35 1683587 2067650 2549800 3078681 3617663 4117759
1746.24 4530371 4857525 5092000 5225676 5276665 5262448
1749.13 5193101 5081035 4901709 4681164 4498023 4343706
1752.03 4151527 3934081 3737205 3592140 3471214 3343004
1754.92 3210780 3084117 2953204 2832022 2721722 2622533
1757.81 2534304 2443476 2334862 2218043 2086225 1973090
1760.71 1937741 1904716 1724072 1480314 1329176 1242526
1763.60 1170240 1101474 1024568 971614 938262 888302
1766.49 821126 766440 718250 678489 644511 606631
1769.38 570332 533329 479995 439013 426297 428290
1772.28 466146 579356 631877 564935 527218 564211
1775.17 576503 472018 313309 217825 182483 171246
1778.06 172051 171100 162458 155128 151388 162978
1780.95 173536 168107 158161 161106 160829 149120
1783.85 132547 117948 125235 150725 162678 160070
1786.74 157452 168391 187204 199414 192047 187220
1789.63 190895 187130 176448 171130 162544 149018
1792.53 139625 135025 135785 150017 158536 152613
1795.42 138335 124615 111242 96120 79776 65741
1798.31 48801 29318 22186 48903 90937 110318
1801.20 107327 119357 133828 134732 127210 136924
1804.10 149091 146344 137267 126322 112313 131156
1806.99 234738 387249 415551 261004 101403 40831
1809.88 24101 18136 14994 19210 31961 58039
1812.77 81599 87140 73686 52729 36350 37108
1815.67 39762 31676 23581 26087 26841 20162
1818.56 7750 9817 15321 9198-1965-5473
1821.45-7149-1589 2850 617 5906 11489
1824.35-3533-16211-12671-5884-11398-15778
1827.24-14031-13947-14297-13869-25405-24062
1830.13 1737 12122-12020-21422-8373-2363
1833.02-4583-5200-249 13193 13049 1801
1835.92-6121-6174 8561 32304 37480 30212
1838.81 25230 25803 32051 41613 42979 54727
1841.70 74357 83590 77630 64064 59600 76170
1844.59 89241 96572 94729 96236 113678 128594
1847.49 132707 134540 142284 159712 163927 157706
1850.38 155259 162970 180351 190290 181004 174160
1853.27 178936 206037 235416 245204 239660 237147
1856.17 239030 239191 236357 232371 228776 242707
1859.06 267460 287502 295022 302788 319809 341347
1861.95 356461 362438 361525 375539 392291 403724
1864.84 426699 451874 458550 474412 516675 551040
1867.74 552758 553787 552273 550000 564722 571479
1870.63 566235 583005 597652 598221 596185 598615
1873.52 602161 607871 605774 599959 601780 601168
1876.41 596990 614232 635963 643128 631715 618155
1879.31 610450 592641 557637 510219 463978 436361
1882.20 409532 376593 357993 373265 401132 428580
1885.09 461997 510297 562308 602858 626304 642570
1887.99 659893 672955 670499 651955 627012 609036
1890.88 586285 552717 521930 509124 495638 477860
1893.77 447302 407077 379450 357783 328580 318813
1896.66 326819 314048 269222 232245 219047 215784
1899.56 202953 189643 188238 198505 207537 202982
1902.45 177952 161899 169696 181235 181880 175857
1905.34 157124 144218 145390 143554 142245 161287
1908.23 180258 178899 164229 159680 167318 172527
1911.13 169228 164156 154160 152497 151920 141031
1914.02 125226 115405 113534 121226 132911 140946
1916.91 144379 161086 185259 196291 194741 198955
1919.81 212407 221104 215936 218547 234031 251407
1922.70 254036 250564 260438 277188 274551 267071
1925.59 265871 259657 244583 236466 242489 257877
1928.48 262091 255627 240451 219451 208687 215794
1931.38 223721 217823 191248 174008 175872 178381
1934.27 180776 195984 210221 205750 197634 191434
1937.16 176308 156508 136143 128084 131970 137526
1940.05 140449 153533 166227 159627 125051 91956
1942.95 86760 92717 85450 83560 86943 82268
1945.84 78878 79993 71724 63133 53384 42501
1948.73 41355 48134 48385 47482 49191 42566
1951.63 22997 14704 17574 5935-19226-26877
1954.52-14946-8962-25781-40252-42548-36789
1957.41-29710-39189-53820-50478-47242-48298
1960.30-43887-33815-22545-16502-32564-47858
1963.20-40814-26510-23322-21688-18974-27001
1966.09-46315-55836-49366-30899-16615-13318
1968.98-19624-23665-26072-34448-37075-11115
1971.87 12465 7616 747 16748 33172 29299
1974.77 16864 26737 51462 68840 79075 89469
1977.66 94228 92785 85434 84795 104617 127083
1980.55 136504 142411 147599 156832 159892 162493
1983.45 168335 167839 154077 138311 132256 139024
1986.34 150120 162032 165435 157263 147861 155762
1989.23 156850 142000 154101 185472 191903 181951
1992.12 154119 103127 68413 74474 86361 84938
1995.02 86776 88554 90240 118150 157225 175497
1997.91 166259 160793 163660 154398 121560 92864
2000.80 80535 71074 58868 50613 40053 32594
2003.69 39799 57360 59798 46722 41350 29453
2006.59-11513-33669-24133-19851-23959-23847
2009.48-25463-23496-27866-37769-40249-34346
2012.37-30591-36265-52012-60183-56965-50878
2015.27-45652-40060-36356-40766-50642-53648
2018.16-51905-42944-15571 3338-3593-19414
2021.05-35659-38322-37825-40571-43348-42418
2023.94-37838-37022-37302-30866-34795-43103
2026.84-48105-46696-44620-47740-50236-44202
2029.73-37499-27657-26288-33287-31364-27992
2032.62-36374-39694-37653-41893-47433-44455
2035.51-33108-18544-10587-9876-14030-13705
2038.41-11688-14267-20214-28071-38299-43280
2041.30-53940-67360-67972-56048-38999-26398
2044.19-27705-32908-38150-36975-27592-14441
2047.09-14037-20305-22144-22550-30190-31247
2049.98-22697-18236-20875-25802-13606 7552
2052.87-4661-28237-36328-26850-15248-14765
2055.76-19155-23849-31131-29732-22289-22485
2058.66-29578-29815-25219-22620-21295-13235
2061.55-6926-9528-11118-12169-22037-25504
2064.44-22201-24160-23226-19867-26074-25867
2067.33-17063 994 20333 32373 35644 29331
2070.23 18502 13067 10317 19480 44543 67389
2073.12 76898 88037 94959 90447 77854 46471
2076.01 2721-21553-26297-22247-15968-13894
2078.91-18653-7307 10078 5788-12455-23770
2081.80-32699-27604-17142-23126-34929-25274
2084.69-12587-14937-13089-9926-16217-15922
2087.58-13746-4753-5673-24956-27390-7608
2090.48-14762-37499-40107-25805-20732-24288
2093.37-17088-332 1155-16877-27433-28131
2096.26-30086-28706-40317-52277-34617-16648
2099.15-37576-63196-56038-41717-45434-39322
2102.05-27963-24900-37277-50618-46132-46304
2104.94-57709-49267-34749-26348-22868-48205
2107.83-83698-81092-48037-30188-41567-39565
2110.73-16309-17392-53448-70548-56662-47618
2113.62-56227-53435-33621-18981-30745-44491
2116.51-43409-39889-40043-53705-66464-50676
2119.40-31031-27016-36330-50917-66909-74267
2122.30-71662-67430-65749-70478-76818-76580
2125.19-76480-79194-74413-65946-63015-60887
2128.08-65332-74798-87653-97076-98464-97446
2130.97-89681-75720-82699-105331-111596-112889
2133.87-128316-132373-116769-112075-123632-132902
2136.76-136498-126116-113099-116491-130284-134342
2139.65-136941-139322-137759-137040-137731-140113
2142.55-144061-144748-150261-151557-143402-148361
2145.44-161539-155052-140095-153376-193605-206593
2148.33-191204-169075-146736-145151-160382-166542
2151.22-162930-155245-153717-153377-152636-152125
2154.12-152152-162066-178428-193070-207498-203832
2157.01-181218-151480-140125-155491-162395-154482
2159.90-161199-173126-170192-171245-195960-207616
2162.79-201472-206954-210491-197314-180294-161362
2165.69-147905-145115-147273-144690-142277-143410
2168.58-143770-150177-172333-198691-222013-228571
2171.47-207442-162293-125399-119703-136195-150921
2174.37-159826-165552-164206-149460-128650-105426
2177.26-104894-129464-148578-151398-144919-147515
2180.15-162456-164907-152403-141033-141668-141315
2183.04-144562-147612-143590-155398-173048-159610
2185.94-129975-124797-136260-142815-157290-173835
2188.83-169501-144830-122804-107340-106228-112051
2191.72-114997-126468-149301-170540-165997-132331
2194.61-91987-58684-41815-39360-52088-56964
2197.51-55769-58417-51326-29860-8967-4721
2200.40-16527-29868-34055-26269-19991-6844
2203.29 13069 18171 14084 12695 24603 53890
2206.19 72709 77387 83403 127400 242380 350984
2209.08 325523 229357 170637 156827 167127 184612
2211.97 200978 208176 217382 225645 219919 221109
2214.86 240805 265974 277141 278986 281710 294054
2217.76 311561 320684 324133 332277 322129 300044
2220.65 282551 270985 283084 314744 339598 360988
2223.54 378177 390109 382136 373249 371661 349882
2226.43 334099 360862 402835 437440 465458 479661
2229.33 474481 453324 430676 421970 404542 359185
2232.22 318177 300252 289629 284198 273406 246391
2235.11 213292 194471 179155 154830 140300 140180
2238.01 126608 100643 85118 74221 58971 58087
2240.90 68130 59403 43409 36651 12567-7282
2243.79-9685-12850-9454 1020 178-4260
2246.68-11712-24493-44724-65628-77386-68084
2249.58-43568-42962-58235-51739-49782-66057
2252.47-85766-98060-105133-109696-113926-111767
2255.36-106233-100576-92051-87558-93259-100539
2258.25-110044-118540-118810-111554-110247-118318
2261.15-117366-111383-113206-106677-99402-102068
2264.04-106942-112307-114271-108444-111680-124031
2266.93-123841-105174-101464-110364-111079-113837
2269.83-116240-111878-114070-113862-99872-90463
2272.72-90305-87303-80784-90154-120544-151112
2275.61-178544-204824-221447-217932-191166-135212
2278.50-67993-31764-41737-61784-74721-97383
2281.40-119906-103305-69408-64859-81203-102762
2284.29-122514-127835-120863-106404-92631-89766
2287.18-99145-111670-119771-119132-127320-141601
2290.07-148679-138529-117744-106707-116446-129366
2292.97-126684-127305-137541-131327-125151-133047
2295.86-135785-122967-113996-117179-115614-110644
2298.75-105147-85408-77257-87122-98870-110674
2301.65-115903-112697-104678-98186-91769-76419
2304.54-72520-80454-83023-82663-93233-99731
2307.43-91371-72357-55303-49673-44369-40912
2310.32-51073-57245-52206-42630-37700-39865
2313.22-42091-23805-16950-41040-48437-36795
2316.11-42002-57887-53141-29890-12814-5898
2319.00 829 6870 67-8695 406 4831
2321.89-5663-2956 7519 17858 13287-4180
2324.79 12952 51458 53256 34363 37180 54836
2327.68 45375 32169 56799 85417 76924 55299
2330.57 56274 74762 74486 74370 96400 107349
2333.47 98401 100433 106411 102361 103773 124219
2336.36 123485 84320 75279 108618 118399 116666
2339.25 135373 129009 87964 69350 74017 70314
2342.14 63474 86006 125567 145178 142448 121387
2345.04 89123 80776 94782 101659 94261 86496
2347.93 85236 94936 95365 84812 96747 126084
2350.82 127328 106157 93671 82804 73036 69678
2353.71 52163 27411 6846-19501-40703-45201
2356.61-61201-68247-57342-63508-77944-93710
2359.50-110083-105458-102137-102164-79592-67286
2362.39-71642-67634-79799-83147-73724-75701
2365.29-65602-72076-89728-74851-70176-76034
2368.18-68326-57243-50916-61688-65868-52860
2371.07-48742-44416-35311-34742-57174-82118
2373.96-84729-78618-82022-67060-36345-27807
2376.86-33666-30109-8843-4421-29136-43311
2379.75-52824-62895-59568-41362-15019 8019
2382.64 7434-2403-2513-660-7658-16042
2385.53-16034-4507 7118 4635-2056-2442
2388.43 5812 14103 18220 34897 52980 51834
2391.32 49410 64431 75900 67302 50435 38070
2394.21 27652 35832 58739 68729 59998 62237
2397.11 88773 102458 99441 98675 103046 118656
2400.00 119931 97947 96801 120723 128268 135231
2402.89 159556 173710 173625 180538 187967 209884
2405.78 249650 268920 259331 261271 290950 325920
2408.68 346443 345814 346994 370156 392628 410549
2411.57 442959 483537 504287 516098 531034 543499
2414.46 556940 573660 591918 616672 652940 685369
2417.35 695843 697122 694132 702534 720868 737893
2420.25 758576 776189 784189 787155 799656 824962
2423.14 812219 751543 690537 677855 711999 760028
2426.03 807257 840672 827285 772488 737150 764690
2428.93 820530 860073 847589 756475 643935 599500
2431.82 617882 654393 687222 727594 770976 790033
2434.71 787915 779035 771768 769636 747737 710160
2437.60 678445 631854 565219 491341 414901 352769
2440.50 302990 260444 226775 195086 158972 125720
2443.39 95133 72333 65663 58967 35173 13468
2446.28 8321 8160 4293 5943 21398 31226
2449.17 16483 14861 29397 36295 18507-7474
2452.07-709 26591 32939 34466 39962 21182
2454.96-3579-13997-16340 1616 94274 201942
2457.85 166149 62676 8116-18608-29097-15863
2460.75-1524 5015 17992 25702 22672 23869
2463.64 24459 12587-10201-24488-30837-35447
2466.53-29135-7844 10204 18301 19326 8547
2469.42 3223 14244 26768 23613 9064-15689
2472.32-42646-35818-8486 15241 18708-6116
2475.21-34700-37824-27591-25933-25581-17284
2478.10-12985-15753-23427-32783-35447-27463
2480.99-15927-11520-13972-4014 6721-4305
2483.89-25061-34292-26601-23210-33239-46319
2486.78-53149-48706-44167-34307-25614-30185
2489.67-35037-29579-23209-18924-16593-21569
2492.57-43556-58877-51654-47408-51478-59173
2495.46-64395-51666-34648-29875-27162-24626
2498.35-51392-83707-74724-43881-29175-39782
2501.24-53650-46232-39727-44630-50542-58609
2504.14-62755-63768-63836-49448-36951-49097
2507.03-66014-54312-43361-43269-39678-38166
2509.92-32476-17061-22589-46182-55092-47342
2512.81-31709-27690-35598-37435-48573-65458
2515.71-64611-45657-35671-37807-42334-40971
2518.60-29235-24761-29008-28613-25699-27782
2521.49-31792-24364-20259-28607-36841-31347
2524.39-23665-35743-42742-34798-34606-44315
2527.28-50159-45060-34731-16889-5018-4118
2530.17-7652-15943-24842-26568-27812-19420
2533.06-3622-7204-36729-70843-67479-23087
2535.96-9995-48777-70684-61771-64512-68379
2538.85-64487-69387-87543-90111-61456-39964
2541.74-44075-40639-42296-66232-73041-60480
2544.63-76030-102672-93396-59384-39903-36953
2547.53-38411-52991-72630-77129-72141-67470
2550.42-56743-55944-74273-86672-84334-80046
2553.31-84213-95451-94822-79256-73912-74257
2556.21-71664-78401-89237-95513-86332-66028
2559.10-66577-89570-101614-98314-88643-66971
2561.99-54829-69556-84524-69150-45939-57522
2564.88-93001-111644-110861-109893-103776-94525
2567.78-99089-109100-106189-75136-33885-30170
2570.67-64552-82075-77127-73626-80743-86951
2573.56-83859-88580-84325-71675-75075-68935
2576.45-50720-51116-61831-62765-62827-73944
2579.35-79035-63491-46276-37710-30568-31690
2582.24-43209-45993-42138-47436-57237-59345
2585.13-75818-95237-88888-82136-83642-80524
2588.03-71778-73268-79046-56661-39428-40619
2590.92-32762-40396-59515-57069-54924-67189
2593.81-66624-59104-64429-72993-74055-59833
2596.70-44028-37003-24871-10926-14560-29133
2599.60-31497-24692-29420-24040-14492-39602
2602.49-66803-54213-37166-40797-38874-19989
2605.38-8418-23653-29712-11829-7489-20429
2608.27-18304 34 7792 2590-424 8839
2611.17 16861 19701 28637 43164 47438 31164
2614.06 19837 25214 31416 43553 72511 85415
2616.95 70922 57125 42087 34222 43755 49588
2619.85 40898 39309 35875 8749-10345-3776
2622.74 11296 20830 26636 32389 41765 52906
2625.63 55428 58493 68663 74110 64126 57452
2628.52 65183 72786 68616 52972 47623 58574
2631.42 71334 85255 91827 100399 109385 111678
2634.31 106731 82346 59069 53758 57884 70765
2637.20 75589 74947 86842 96334 93413 71475
2640.09 50305 57998 84693 107839 113590 117043
2642.99 105513 76333 75635 98644 107014 93497
2645.88 81273 87814 101425 110161 106729 94899
2648.77 94386 85594 55425 52208 91552 116977
2651.67 101011 94058 114296 119553 89414 56143
2654.56 57164 83823 104968 127163 155244 142328
2657.45 89789 51856 40672 50324 78431 105150
2660.34 119899 135490 144021 135337 122606 125755
2663.24 133925 123035 99564 90653 87242 79057
2666.13 67623 47752 33566 32678 39668 46058
2669.02 33319 12252 9712 12631 3719 2147
2671.91 7221 9157 7166-612-2806 7282
2674.81 13827 7410 9779 5456-20741-37544
2677.70-20049 12048 30582 35603 37989 44711
2680.59 44644 40450 41315 58635 63708 39048
2683.49 27758 22108 17135 32479 39717 43878
2686.38 61267 76553 80992 81250 81859 81041
2689.27 83545 96288 115431 140151 160410 158989
2692.16 155931 153839 152752 162398 159047 145474
2695.06 152107 177517 180040 159023 143074 133310
2697.95 132147 154547 190463 192442 170517 183436
2700.84 205550 194692 186144 190157 168854 138340
2703.73 114249 92885 88072 110803 150455 181175
2706.63 192302 196605 206390 227589 253809 264402
2709.52 266290 257881 242596 227457 207824 197328
2712.41 188381 170005 151222 135323 115794 103022
2715.31 94900 69676 49156 58968 66259 62936
2718.20 60545 44841 21993 17200 25485 18025
2721.09-10344-37633-29250 18821 33496 14911
2723.98 9808 12144 6543-475-1490-8984
2726.88-5719 9095 18535 22817 16028 311
2729.77-10079-18864-28222-23603-13101-14491
2732.66-21141-26335-30101-32179-40986-63065
2735.55-75789-69394-62038-51998-26561-5182
2738.45-5989-1767 19437 29181 24858 34497
2741.34 40849 19911-3844-736 767-5558
2744.23-9893-15771 5970 22456 11600 15484
2747.13 15152-705 1955 15488 15321 712
2750.02-27195-38808-16659 3431 11003 19070
2752.91 10697-22359-53538-54131-26081-14964
2755.80-28811-44373-70018-86387-62587-31317
2758.70-6984 14182 15455 15345 11369-9584
2761.59-12649 10748 8701-24660-49817-59732
2764.48-62690-66080-72560-68068-51706-45651
2767.37-54364-61175-57272-62589-96366-112678
2770.27-75543-31507-41360-83680-104212-102650
2773.16-91030-81002-70257-56807-68521-76314
2776.05-67754-73360-85408-89678-79220-67422
2778.95-57207-49214-47095-35062-34050-53221
2781.84-63168-60017-59857-67490-82154-86739
2784.73-76367-73286-79988-88336-100005-97698
2787.62-63997-29677-15889-24275-47859-58639
2790.52-55576-58684-68986-62286-50467-57628
2793.41-73256-92328-109529-108870-92311-93801
2796.30-113726-112153-78429-48554-38235-46753
2799.19-65551-84817-94415-82689-80388-99211
2802.09-106827-98378-90645-88994-92468-80299
2804.98-69039-62220-51813-69400-95424-84528
2807.87-67647-85828-100075-77531-53225-39724
2810.77-39368-54156-59907-55023-55497-61020
2813.66-68192-71832-64190-53898-50858-48720
2816.55-43275-53942-59918-35152-21768-33717
2819.44-53835-71065-75257-76796-81823-75329
2822.34-50849-30493-11643 11275 11916-7242
2825.23-39084-63341-53953-27841-2878 594
2828.12-25850-50264-54015-37063-7560 576
2831.01-2549-1561-7104-16741-27990-19320
2833.91-16617-38825-37078-18264-12339-8357
2836.80-8715-15734-22515-26129-12820 134
2839.69-14743-36999-43955-20150 16036 19990
2842.59 9678-19804-54507-44395-23475-18164
2845.48-10258-7588-21512-37396-18113 24684
2848.37 35332 2613-42566-57549-52027-50486
2851.26-57305-72029-67383-29185 7395 317
2854.16-25890-30181-28348-32475-22927 1755
2857.05-2630-35988-31029-4002-6765-22656
2859.94-29085-30462-30172-6489 15085 19145
2862.83 27194 5756-34227-48827-45778-28828
2865.73-13566-10665 490 27708 59248 66164
2868.62 37038 12466 3126 12717 46038 58829
2871.51 37266 10796-4552-10148 1162 42382
2874.41 82475 88558 78282 72575 42552 1381
2877.30-10646 4091 20555 23723 33452 41609
2880.19 31523 30200 39465 34691 18216 17133
2883.08 36456 44937 32389 25085 50572 60777
2885.98 29673 21241 43913 62777 64695 51491
2888.87 46019 42337 16521-6775 20697 50278
2891.76 33723 9452-3716 2991 14930 12264
2894.65 2004 2291 25741 31286 12222 6000
2897.55 11812 23385 33771 27356 764-14025
2900.44 9201 28186 24221 22946 16555 1808
2903.33 21630 56413 52815 44421 46691 29692
2906.23 9096 4551 19948 47166 59208 44966
2909.12 27205 17531 37242 89772 100876 74100
2912.01 69559 81205 88079 93059 82225 44645
2914.90 22104 27072 39559 64837 99628 130002
2917.80 140042 131703 130602 123769 106622 103123
2920.69 109958 128372 163045 196409 179925 134894
2923.58 110856 98278 86271 71518 72092 76103
2926.47 74343 81670 78199 59102 47351 59902
2929.37 81409 90471 96369 99969 108456 142614
2932.26 191280 233931 253698 238673 222242 230775
2935.15 212867 165575 150071 165978 180402 186210
2938.05 192024 214903 224216 194435 185794 211799
2940.94 223478 200118 167558 149424 165085 223115
2943.83 255363 225119 199390 193747 200336 221973
2946.72 233583 238904 234261 200327 178692 195497
2949.62 202962 196026 202837 215894 230252 238779
2952.51 234650 214737 195873 195770 204435 204421
2955.40 203990 214751 213918 214333 241040 268126
2958.29 261856 245594 248534 255741 259252 235461
2961.19 206402 220920 256863 282274 292285 263510
2964.08 224044 195166 184301 213275 229202 198182
2966.97 155817 117274 101794 123837 146896 155430
2969.87 157963 147858 121997 116178 147484 170220
2972.76 163796 146158 129768 107482 77008 63092
2975.65 78169 102811 120198 129675 132991 127498
2978.54 96499 62275 76746 103393 120433 148478
2981.44 162613 150514 139225 136335 156000 187155
2984.33 197017 206374 214908 222477 247642 270012
2987.22 274453 277641 291132 307766 324601 337965
2990.11 347690 339301 331308 364190 399972 386609
2993.01 364661 366096 374210 375949 363568 339299
2995.90 319815 294464 274228 279675 295439 282887
2998.79 213756 154570 154185 181364 198978 214940
3001.69 269595 362329 421856 435485 457552 483095
3004.58 507005 510529 472352 441999 445754 445311
3007.47 425125 391664 360864 336825 302271 269724
3010.36 256189 248823 247465 248679 238280 228834
3013.26 228084 218083 203382 216455 237926 222824
3016.15 181615 142247 125458 125399 126111 131902
3019.04 145161 151257 140191 136469 151103 148134
3021.93 126790 111894 113579 120904 138920 172391
3024.83 192789 190712 183117 189056 204480 216579
3027.72 216524 210761 205065 192442 186347 211116
3030.61 238000 257895 291373 330854 347697 338369
3033.51 327412 328015 368595 434866 484968 513143
3036.40 512832 512225 533608 531181 515535 506003
3039.29 505456 508855 503075 488559 459606 419673
3042.18 378232 332364 295257 276923 245201 200465
3045.08 165374 141425 156979 221012 278681 321201
3047.97 381843 448062 492568 518246 538107 557569
3050.86 559071 538924 508378 483499 451192 402967
3053.75 379618 377693 385762 389714 354577 308700
3056.65 282340 260551 251365 258688 254902 242000
3059.54 242461 226310 182188 157816 160036 158939
3062.43 141279 112479 85079 74754 81046 78309
3065.33 64374 48653 25003-1356-13793-3843
3068.22 32399 47383 20834 17189 29839 12842
3071.11-16922-31693-33181-34634-26474-1215
3074.00 14271-19569-53596-40813-36987-51144
3076.90-31768 3222 18553 16018 3959-15187
3079.79-39475-57504-60978-57154-46085-31890
3082.68-39882-55526-49415-43132-41562-32269
3085.57 1192 30246 14100-2037 5649-4695
3088.47-20510-5416 14253 13658 1727-15192
3091.36-12774 17602 34797 6315-30575-39785
3094.25-34956-31526-29384-27249-39361-45702
3097.15-21492-2592-5499-9906-16025-32578
3100.04-39836-12630 168-25419-40668-35451
3102.93-20292-4287 8316-74-36876-70057
3105.82-70323-64958-85327-102151-98424-96801
3108.72-91095-71007-63267-69142-51896-25048
3111.61-14420-27891-55133-62132-35061-32679
3114.50-74214-98271-93184-114554-155710-159411
3117.39-137663-142602-159744-177245-201866-218227
3120.29-206283-184640-179629-174720-164035-171587
3123.18-209862-238699-210317-178188-175340-179294
3126.07-205908-226979-205232-180813-195177-209973
3128.97-210961-216012-205477-201566-214457-206662
3131.86-194282-205373-213464-215839-213196-204172
3134.75-191411-178368-194204-220702-209412-183509
3137.64-167376-157426-163142-186703-173356-133140
3140.54-127271-141999-148614-153578-165122-150176
3143.43-97350-76230-89509-97507-113087-135563
3146.32-163101-180564-181178-193511-190484-164741
3149.21-150443-148543-176862-207730-191566-168576
3152.11-161504-136465-95758-92064-116260-118767
3155.00-115322-119108-96661-65841-56457-41803
3157.89-17327-773 15983 29208 35226 42834
3160.79 45551 60323 96141 135802 165230 185623
3163.68 225224 259968 255064 243453 251914 264554
3166.57 280549 312376 355876 411152 448284 467658
3169.46 502634 540494 559511 571754 606181 650401
3172.36 696787 747046 778627 792069 835847 899560
3175.25 957135 1019968 1079546 1134299 1163488 1160751
3178.14 1169978 1220087 1309755 1374126 1396401 1418143
3181.03 1437406 1459566 1520503 1585500 1621697 1644273
3183.93 1654520 1637632 1621793 1651595 1694689 1696839
3186.82 1666538 1635656 1613480 1581962 1559868 1561987
3189.71 1546609 1503294 1477291 1484477 1504768 1505316
3192.61 1450814 1390466 1375159 1364391 1385536 1477176
3195.50 1588052 1701528 1825755 1947946 2046196 2081517
3198.39 2037645 1974887 1921882 1826054 1702990 1616214
3201.28 1559979 1481711 1367794 1267862 1173963 1075984
3204.18 976646 862214 753892 656773 577605 520171
3207.07 462079 408308 368048 317689 250928 204134
3209.96 179637 146692 124117 123476 123971 131028
3212.85 132077 114025 89643 42301-4005-23652
3215.75-40186-62506-75001-76901-76591-93619
3218.64-123388-149401-165498-186889-189109-177412
3221.53-192804-196144-167034-164310-197905-213504
3224.43-176787-124477-96699-101362-110645-111809
3227.32-90918-37628 51-5709-1848 22574
3230.21 22121 17333 29672 43958 59970 65642
3233.10 64568 62703 65157 95982 142022 182349
3236.00 230465 252741 236955 249659 284910 303386
3238.89 300724 300876 317179 322678 320082 312603
3241.78 298592 288455 290487 300521 319201 329180
3244.67 292377 250722 247964 243781 247111 260890
3247.57 268588 282092 289468 287283 297091 317423
3250.46 318270 301267 303543 307993 289841 249274
3253.35 193431 143294 111843 90501 53990 5200
3256.25-19752-43348-71730-102740-140731-166354
3259.14-194436-216446-208368-203899-234356-274115
3262.03-284573-296480-348501-390501-357421-302451
3264.92-296736-316468-327985-323505-305129-296374
3267.82-292270-277001-261397-262686-266920-298362
3270.71-347290-347798-309468-277562-268548-290645
3273.60-318871-324145-300259-269750-256868-249811
3276.49-223521-226310-260943-249791-225197-228347
3279.39-220132-200191-201465-210639-192472-168595
3282.28-172097-202123-212715-185840-160082-154117
3285.17-135742-103117-97068-109503-114962-121592
3288.07-102083-69173-76420-98732-102459-93876
3290.96-81255-79708-85229-78174-42743-14469
3293.85 2687 20373 27430 35464 34825 17380
3296.74 14231 23032 56346 88400 95254 110286
3299.64 103358 65227 68171 96989 107585 102325
3302.53 86384 69536 47648 34220 50072 53481
3305.42 46060 74089 105100 96281 58359 46469
3308.31 84919 92981 37259 13806 43711 70158
3311.21 91666 120112 127447 125670 147805 153643
3314.10 148083 145439 119596 87527 76220 73284
3316.99 87564 107498 101337 86600 72865 69764
3319.89 81314 70465 27253-19369-24999 6362
3322.78 48382 88978 103456 74670 34632 30496
3325.67 55909 73923 73952 55774 39744 26743
3328.56 19410 33072 35922 35932 58635 59963
3331.46 51535 51101 37021 40143 70194 78631
3334.35 46627-5-19312 16118 69397 94674
3337.24 92916 91140 84017 51892 34291 62025
3340.13 100245 84930 45618 39525 62477 111162
3343.03 138158 119897 103839 98213 93695 78873
3345.92 84012 107607 125002 135875 144743 150094
3348.81 131685 105857 64414 19755 40195 64858
3351.71 47290 38889 47561 55634 59667 65857
3354.60 74085 80081 95277 136421 176174 197328
3357.49 212063 211031 169546 100392 72037 93222
3360.38 108279 122738 166452 184407 152913 104770
3363.28 41628-22420-49014-32580 4144 46738
3366.17 63737 17632-34097-23920 7141 11254
3369.06-4140 9332 39833 30571 15112-3517
3371.95-46212-64353-42073-31653-48149-50886
3374.85-34601-38570-50724-43240-41997-66252
3377.74-98662-115215-92135-50926-40201-51635
3380.63-35367-22552-32582-40474-56484-75127
3383.53-69792-57256-40767-17276-2532-2822
3386.42-27012-67339-84699-80970-76374-49645
3389.31-10224-2845-25632-61973-88585-98123
3392.20-97061-81412-40660-22990-38775-47557
3395.10-33625-27149-48401-48120-30551-42916
3397.99-39564-17242-26482-21178-5327-26048
3400.88-28782-3073 20890 42510 25322-8848
3403.77-3435-714-10099-2326 8632-2659
3406.67 6718 30111 34718 54503 60694 28948
3409.56 22972 24853 3770 18414 44908 32008
3412.45 3615-8079 2396 36642 87716 88950
3415.35 64584 86772 133005 106325 29605-5432
3418.24 5637 3061-26679-24411 35516 84059
3421.13 72501 55716 69863 69586 52258 50160
3424.02 64239 73988 73492 72594 78634 77660
3426.92 51869 13074 17511 34963 16024 1000
3429.81 4485 16472 43739 66817 58686 26643
3432.70-3023-36784-72710-87297-46792-735
3435.59 5110-7275-32291-51460-56652-39322
3438.49 3770 22021 1294-16106-6592-2036
3441.38-35516-70704-46768-6804-2082-47882
3444.27-107865-101932-52333-22339-20746-29497
3447.17-50971-88417-88029-57659-40667-33978
3450.06-50250-67423-45364-37938-66080-69619
3452.95-54400-60486-70683-53606-38344-81944
3455.84-131625-115991-67490-63654-51757 10542
3458.74 23272-50335-90533-69428-75279-98422
3461.63-105057-114765-101093-85971-99612-101142
3464.52-114803-133930-99162-63067-67383-71497
3467.41-90402-126585-114714-88725-93347-96840
3470.31-86653-93309-121588-124176-97993-99682
3473.20-111014-111913-98188-66539-32649-31112
3476.09-74981-110853-103021-93073-78852-64252
3478.99-60548-46935-42489-69049-98891-100723
3481.88-88500-91790-85466-47944-28939-52596
3484.77-59370-34199 1572 20070 9534 1718
3487.66 9266-4346-32096-53078-66485-48173
3490.56-18537-4248 2393 1730-3639-6667
3493.45 12603 47239 39645-1836-17652-5712
3496.34 26504 43504 54823 80483 110431 119553
3499.23 84055 51550 66742 84347 88889 104594
3502.13 138662 147821 136203 136995 138154 131878
3505.02 121042 117338 141353 144966 100861 63142
3507.91 43682 31006 40372 48433 24846-208
3510.81 43 19821 51358 66392 77537 110391
3513.70 161909 199912 188225 136033 118520 140762
3516.59 144314 128871 114998 92698 77710 80842
3519.48 91823 86682 45918 16992 52429 86111
3522.38 81855 62805 36604 22823 19610 1857
3525.27-32115-53148-49891-46527-18630 18724
3528.16 1685-19995 9789 36756 33176 12665
3531.05-10333-32429-34092-13694 14789 40489
3533.95 19897-45769-61589-26899-22652-46777
3536.84-56456-47730-49451-38470 19536 40421
3539.73-7294-48115-51441-41834-36438-33055
3542.63-17698-7040-22210-42157-40390-14156
3545.52 161-26595-47483-41481-26898-716
3548.41 43708 43329-1533-12855-10040-43121
3551.30-76160-67663-42273-46218-78928-90956
3554.20-57125-6316 15125-12322-53732-58827
3557.09-24159 2834 3668-7219-23224-42926
3559.98-61739-63259-50795-47809-33562-10740
3562.87-19112-23152-9980-31083-71992-71320
3565.77-29525-17063-22505-24228-22393-12085
3568.66-21999-55550-83562-77309-34306-2463
3571.55-16232-40435-23926-10928-21379-23781
3574.45-24853-50784-65931-63500-69261-60270
3577.34-42207-43022-42764-29671-34013-55136
3580.23-48839-26953-24165-32984-48117-48130
3583.12 2367 25970-2859-24765-35022-45272
3586.02-47862-47488-48317-31024-25970-34465
3588.91-23680-21902-36519-41936-37995-49335
3591.80-50573-33902-12439 318 6227-4782
3594.69-33271-43402-28394-29066-59173-81452
3597.59-66247-50285-48301-44595-38995-27439
3600.48-20088-5348 15988-3984-31791-32654
3603.37-33081-45608-56611-78193-104567-108887
3606.27-84423-56658-49138-59298-57905-54112
3609.16-60906-61899-32567-2087-1023-15706
3612.05-27112-47522-59122-47811-36925-28957
3614.94-20868-31932-41370-23921 1139 1941
3617.84-7021-24017-48162-39903-13905-19022
3620.73-19571 4256 32879 37455 9184-10017
3623.62 3043 11490 3114-12450-11654 4418
3626.51-1850-33506-45089-32243-30006-39057
3629.41-9406 33000 32734 2849-2094 27738
3632.30 58647 57977 30893 22764 28315 6257
3635.19 2796 41417 59916 47413 51559 65857
3638.09 62661 61386 79523 94898 98437 78442
3640.98 67881 99770 120974 95526 61598 61126
3643.87 78411 74963 64426 58814 64399 55862
3646.76 41020 53384 66239 48305 34982 43586
3649.66 69663 97003 109283 105142 87932 68800
3652.55 68297 85642 88433 77862 87697 93915
3655.44 88833 99789 88978 38877 26787 54874
3658.33 72700 78384 93745 99286 81610 66371
3661.23 64443 54601 43509 41966 34083 26473
3664.12 23896 25823 48429 54012 41466 32939
3667.01 34857 37351 20903-8118-16642-8006
3669.91-35635-72729-42215 8486 26395 10775
3672.80-8573 8331 8713-50766-95911-106113
3675.69-95907-61508-42247-52557-51410-23736
3678.58 464-3727-19308-33521-42620-55354
3681.48-66475-72862-58863-34482-12096 10595
3684.37 6470-32275-50307-45984-40287-33234
3687.26-32505-55868-74289-70420-72894-90583
3690.15-116273-114110-75196-59692-55061-45102
3693.05-33218-6444 820-11552-10130-24233
3695.94-32836-14744-6140-12111-25016-35896
3698.83-26488-23914-35207-45338-50011-58961
3701.73-52239-34179-29242-33610-47163-55446
3704.62-46964-57791-82198-83482-57513-37738
3707.51-24967-24348-39425-52838-66147-61918
3710.40-42772-54630-93238-88461-26996 10142
3713.30-1160-30352-42249-39466-53329-74455
3716.19-65250-46550-35484-30757-35919-57008
3719.08-67464-36518 3310 18982 28909 21361
3721.97 18938 36020 40846 41888 57361 55479
3724.87 46845 51804 58536 75519 117642 142935
3727.76 126480 82644 68437 107045 148026 144899
3730.65 116660 109397 124210 144384 142597 134736
3733.55 135170 107721 109653 146972 119547 58938
3736.44 73802 95931 76543 97707 160875 211288
3739.33 229920 195320 148901 128532 130787 149459
3742.22 170877 187290 179958 98760 10508-4907
3745.12 26213 71233 105740 125683 138973 139915
3748.01 137845 118051 112282 141400 156008 154133
3750.90 128066 72591 46092 45876 19982 73
3753.79 24904 51038 51013 38400 20042-6243
3756.69-13978-13231-25205-30100-8731-9103
3759.58-28189-32566-30670-34728-34112-22717
3762.47-6287-15293-54619-70292-43356-40492
3765.37-67527-62088-30255-21362-35124-54385
3768.26-49768-44512-62624-71275-61430-57082
3771.15-53335-42707-27943-15553-3533-6642
3774.04-16503-26468-47057-60357-48745-50654
3776.94-45490-12122 6099-12487-50734-71987
3779.83-52921-48380-62221-55577-30961-2636
3782.72 21313 26280 4515-30786-33582-29137
3785.61-41704-55416-60099-34708-13825-24873
3788.51-27138-29817-41290-47316-37689-26649
3791.40-22893-17636-35815-64032-62893-59615
3794.29-59526-63236-60051-54275-50847-49613
3797.19-51436-52481-44796-30211-10765 5549
3800.08 17256-1512-30897-20740-13615-54556
3802.97-83794-58039-17816-11602-27455-51217
3805.86-85983-114166-91668-55306-53116-43441
3808.76-17416-11548-6091-4411-17384-26183
3811.65-34010-57319-60879-31396-1204 1482
3814.54-23726-60954-90111-84734-46114-26091
3817.43-31412-23090-16689-26892-46106-78851
3820.33-84386-86395-88224-59027-33500-15867
3823.22-1978-15714-30206-13567 4224-14063
3826.11-53596-74708-57733-35752-17122-18156
3829.01-45725-69398-59819-51012-58642-35827
3831.90-5301-9463-30404-52744-63110-78017
3834.79-69862-36139-21163-24477-53779-94884
3837.68-77319-39237-24055-9600-14737-60599
3840.58-91612-89235-75616-48331-37695-49909
3843.47-30540-8409 13966 52428 53651 9799
3846.36-11684-4373-28088-64152-72083-62411
3849.25-41834-44086-54122-58993-90630-103787
3852.15-81156-83458-116232-147185-130408-79906
3855.04-48309-42677-40333-46057-55423-58619
3857.93-42118-9684 6982-10034-28461-33921
3860.83-49678-74115-78305-61903-51478-66383
3863.72-82741-92595-86949-43366-5036 4528
3866.61 14093 14290-6774-62817-96563-83475
3869.50-92368-108178-63527-7504-10516-33902
3872.40-38839-51499-52805-36286-17181-19127
3875.29-44430-58355-40222-18380-20528-49334
3878.18-57761-52472-48091-29186-18798-27276
3881.07-18743-6056-7516-15626 1930 29280
3883.97 22332-2413-28519-53844-60637-54528
3886.86-32202-4724 8867 7997-8691-27153
3889.75-30412-20673 7418 16987 7750 12808
3892.65 13552-17450-27140-18000-16958-21332
3895.54-42719-60559-51882-24871-5656-9018
3898.43-12679-17454-24893-39024-42642-36659
3901.32-35330-13541 24151 64634 116490 127576
3904.22 61742-19583-38070 1135 35460 45583
3907.11 42256 15862-16192-27141-8587 20316
3910.00 27423 14600 10209 12964 8311 2228
3912.89 22341 38146 38712 33825 33196 43637
3915.79 51298 32186 13092 32058 65270 76069
3918.68 63073 42584 44798 69872 101244 101489
3921.57 85077 88191 115575 152398 162650 132596
3924.47 99128 85604 89481 91303 76030 48110
3927.36 42883 57861 69679 73010 60713 30479
3930.25 19435 36456 60742 81410 103598 100720
3933.14 77848 72208 100770 123433 105683 73545
3936.04 71244 88858 111897 122411 121700 120330
3938.93 107874 72291 35589 24641 35916 58578
3941.82 80818 90169 83139 49081 18016-402
3944.71-4218 12481 16048-8492-26993-20365
3947.61-2852-5166-4991-9224-26598-32241
3950.50-15560-9339-6897-7929-29061-28204
3953.39 8819 27416 4730-32964-60436-65698
3956.29-27148 8078 582-11015-11491-24865
3959.18-39995-60808-79178-89241-76688-42663
3962.07-26720-38238-45298-51808-51222-46772
3964.96-50445-44293-20426-22247-54548-82768
3967.86-73163-54689-42745-30011-16324-11582
3970.75-10496-14037-38710-56128-46292-42453
3973.64-56778-83222
##END=
