##TITLE=1,1-Dichloroethene
##JCAMP-DX=4.24
##DATA TYPE=INFRARED SPECTRUM
##CLASS=IUPAC A
##ORIGIN=NIST, Analytical Chemistry Division, 301-975-3108
##OWNER=COPYRIGHT (C) 2001 by the U.S. Secretary of Commerce
##DATE=01/06/01
##$SPECTRA VERSION=1.10
##$UNCERTAINTY IN Y=2.2 % relative (B=1.21E-04,C=2.69E-10,D=8.94E-16)
##CAS NAME=1,1-Dichloroethene
##CAS REGISTRY NO=75-35-4
##MOLFORM=C H2 C Cl2
##MP=-122.1 C
##BP=37 C
##$NIST SOURCE=QUANT-IR
##SPECTROMETER/DATA SYSTEM=IFS66V (Bruker)
##INSTRUMENT PARAMETERS=KBr Beam Splitter; MCT Detector; Multipass cell
##STATE=gas
##SAMPLE DESCRIPTION=1,1-Dichloroethene Primary Gas Standard
##PRESSURE=101.3 Pa
##TEMPERATURE=23 C
##SAMPLING PROCEDURE=1 L/min Flow
##RESOLUTION=0.9640
##DATA PROCESSING=Triangular Apodization
##XUNITS=cm-1
##YUNITS=(micromol/mol)-1m-1 (base 10)
##XFACTOR=1.0
##YFACTOR=18.189E-13
##DELTAX=0.4820
##FIRSTX=575.17
##LASTX=3974.606
##FIRSTY=6.37E-06
##MAXX=3974.12
##MINX=575.17
##MAXY=.0012093
##MINY=-6.40E-07
##NPOINTS=7052
##XYDATA=(X++(Y..Y))
575.17 3504058 3780462 3880231 3827046 4194604 4776465
577.58 4973978 5290392 5553941 6265217 6992013 7404047
580.47 7829034 8263719 8866966 9807837 10266359 10772678
583.37 11738504 12552505 13550399 14640391 15551803 16462219
586.26 17557299 18503559 19410503 20402748 21850772 23289535
589.15 24736857 26010900 27298819 28792489 29898120 31231603
592.04 32762331 34026117 34900688 35755134 36593066 37163877
594.94 37673991 38024735 38289500 38166251 38026019 38040093
597.83 37626290 36664238 35693278 34496175 32850235 31588440
600.72 30464707 29338939 28552366 28349222 28474967 28526739
603.62 28395669 28351421 29060893 30488874 32227599 34734124
606.51 37833777 40858226 42946996 44170696 45357591 45748391
609.40 45277790 44598755 43601850 42374651 41042498 39489396
612.29 37836005 36114492 34470955 32736604 31006307 29080703
615.19 27152557 25612919 23974502 22229026 20685189 19232191
618.08 17670642 16441011 15393612 14140128 13224958 12395658
620.97 11444296 10716378 10078587 9449823 8758561 8232942
623.86 7766853 7261331 6775519 6345140 5980788 5505699
626.76 4971847 4699058 4464871 4054340 3660283 3227799
629.65 2938743 2742808 2509108 2331961 2162815 1939532
632.54 1750993 1565953 1382127 1204599 1010540 896341
635.44 832514 764516 690650 704452 604900 481322
638.33 423345 313512 253023 233355 215454 291911
641.22 318832 164538 51418 129418 220672 117457
644.11 35469 29383 114661 205240 140648 70907
647.01 41023 7107-11755 31894 79236 94392
649.90 100092 106888 49726-55892-45477-33876
652.79-73974-5410 37306-15576-17884-40079
655.68-34633-36376 40382 126412 85376 98576
658.58 60773-33603-38000-92606-74962-2410
661.47-60763-6995 53641 103999 168665 80189
664.36 81301 135585 85404 21089-15714-46150
667.26-87180-1162 78176 72181 93597 59656
670.15 50261 122409 126034 58309 76196 23563
673.04-11082 95969 55338 28922 85687 121871
675.93 152821 209271 277117 301995 325709 391287
678.83 540435 564978 327151 50267-37681 17903
681.72 136152 123009 101501 110340 12203-79880
684.61-87161 74843 177858 117486 62480 43077
687.50 71779 108018 148060 177011 125052 45457
690.40 95215 125594 70180 62686 29934 71258
693.29 150720 93288 52203 106366 12079-98702
696.18-77535-32166 3345 76265 87651-3157
699.08-11000-12100 24689 42937 11095 96838
701.97 141697 111872 78960 58842 2272-61942
704.86-69200-58115-22780-4815 37442 80171
707.75 22521-42300 54201 135931 112639 25414
710.65 59178 114071 47983 24334 42057 88700
713.54 42493-8129 40107 75920 84409 94263
716.43 135337 79930-9289-10500 53022 64811
719.32 39039 49193 52868 54507 14755 20738
722.22 53581 117640 114673 71011 111914 160736
725.11 150645 14829 31757 121033 137712 172726
728.00 171394 187168 144359 129455 150886 146560
730.90 170546 152364 186036 160620 124309 155139
733.79 162948 154620 196886 233720 198261 187101
736.68 184743 186941 200371 261606 325138 315408
739.57 273459 250286 270846 285052 333193 341135
742.47 336842 376782 385571 406119 442594 463181
745.36 483374 511725 505165 474394 514297 656630
748.25 708085 657174 732032 836222 921193 972276
751.14 1054955 1185451 1229159 1334936 1555292 1689278
754.04 1846228 2045404 2193352 2366639 2617121 2905943
756.93 3239558 3541650 3906666 4329562 4776379 5347117
759.82 5869693 6392670 7131046 7843116 8553845 9409672
762.72 10336888 11284480 12184261 13075404 14132185 15275663
765.61 16444091 17701824 19071131 20219830 21375505 22810414
768.50 24420936 26116435 27949108 29900030 31920455 34341254
771.39 37401895 40696159 44247996 48863957 54154268 59260256
774.29 65163652 72679157 78878742 84814943 88533247 91101195
777.18 98406569 106934838 114355647 121827655 131276586 142783455
780.07 154351469 161658841 167378005 175643819 185966797 198299201
782.96 212357852 224425235 226361403 224099420 226468062 230733556
785.86 238350435 251450851 267951122 275306910 252183281 222426597
788.75 212502917 205844802 206179790 213089124 223676633 230430977
791.64 232065802 249954497 295742737 335652238 298324008 257504040
794.54 301575616 353637018 271653571 165219907 152804511 160996954
797.43 177583947 202163840 227722576 236444543 240807668 246208048
800.32 246239101 248432524 250561400 249931172 246890909 241311966
803.21 233513420 223434087 211313470 197638072 182727656 167011586
806.11 151327513 135644690 120331595 105763202 92325358 79976808
809.00 68790338 58681753 49829026 42061571 35340339 29668600
811.89 24912893 20895369 17672439 15120832 12937961 11095171
814.78 9688799 8571730 7772504 7063717 6351894 5822107
817.68 5567476 5328126 5031220 4784027 4571508 4431559
820.57 4401707 4271352 3999018 3894341 3997636 3901969
823.46 3440748 3205986 3401168 3772875 3638361 3365051
826.36 3867046 5460794 6107337 5258447 4460822 3533476
829.25 3291066 3280942 3443691 3847547 4128308 4436242
832.14 4819270 5296462 5705442 6001423 6246694 6446041
835.03 6769747 7190146 7620912 8122972 8527424 8948607
837.93 9500738 10117551 10806888 11494904 12182023 13122003
840.82 14079389 15028943 16049763 17154761 18291697 19564277
843.71 20995098 22415235 23904257 25550387 27232067 28908987
846.60 30583051 32392100 34220426 36167769 38090611 39863323
849.50 41617784 43787024 46261862 48090161 49142482 50628247
852.39 52199863 53818528 55398911 57081948 58782716 60559436
855.28 61533182 62176831 62744861 63433938 63237535 63585466
858.18 63535036 64295254 64308371 69023421 74108161 89394018
861.07 125282689 121236476 99302664 86481239 72558520 67172307
863.96 63695240 61662320 59118824 58694092 58217218 61055306
866.85 74452984 144580927 522204971 664842082 368091846 187375027
869.75 106148554 76038877 66673228 65967471 66716404 68352825
872.64 70748700 74601438 86584964 90939737 82466156 77796331
875.53 75843166 75191231 74956486 74916572 74963454 75148424
878.42 75054035 74675548 74357125 74051605 73690927 73165233
881.32 72396597 71530856 70465512 69272365 67914417 66345905
884.21 64800508 63106009 60864690 59319725 58357940 55821466
887.10 54584631 58797044 56486830 46923739 42020543 39261401
890.00 36743732 34489708 32152981 29913725 27833974 25827543
892.89 23928954 22256720 20516070 18983771 18061997 16954198
895.78 15153572 13657586 12565770 11640234 10793359 10012637
898.67 9352591 8756860 8261305 7912914 7605596 7209278
901.57 6877701 6680968 6487939 6309059 6174151 6072022
904.46 5924935 5826108 5765195 5645331 5465094 5294028
907.35 5099256 4854295 4557216 4205080 3886680 3501911
910.24 2993950 2561926 2224171 2025572 2049545 2232670
913.14 2418012 2650542 2911904 3157618 3439743 3641903
916.03 3779309 3924624 4003980 4011009 4013525 3993531
918.92 3917597 3836175 3734975 3615983 3505809 3393469
921.82 3254436 3160774 3036951 2904163 2800732 2637892
924.71 2498192 2439372 2347110 2219019 2103117 1998773
927.60 1897381 1818321 1731467 1658236 1671270 1626244
930.49 1601886 1815055 2063673 2092242 3018636 4363487
933.39 3363628 1783874 1415128 1262432 1217978 1453163
936.28 1642830 1346325 1084008 1017385 969586 991944
939.17 993245 925619 895176 849247 808650 827064
942.06 800177 794117 794073 764026 768546 787547
944.96 911209 885534 760995 787987 721549 645292
947.85 639460 628221 648092 659681 634091 629886
950.74 621294 604730 566908 547830 558095 549640
953.64 537580 535231 518745 494762 461390 407893
956.53 413493 437876 434292 428578 429101 414700
959.42 385344 402893 415279 398075 382526 379934
962.31 372281 364790 387056 395774 383816 401020
965.21 402229 415623 424321 388124 347188 325507
968.10 347400 355722 336344 331727 371393 396282
970.99 459658 580829 519949 363031 319447 314708
973.88 250587 216652 235517 269361 294335 384065
976.78 478116 406133 355215 385048 395226 377120
979.67 362004 367287 369432 343643 320555 326991
982.56 296472 281848 344813 342966 270752 232012
985.46 227722 222459 209186 222946 217704 167659
988.35 152900 165706 148218 138320 148081 179251
991.24 202301 176401 110990 99688 128134 146174
994.13 156893 141078 161462 179789 181560 199065
997.03 197362 179462 188523 206857 192461 218439
999.92 221473 244847 312006 352994 371041 360780
1002.81 390703 474274 525622 494317 428922 440048
1005.70 490555 533215 567466 596157 612050 594165
1008.60 603194 670692 684044 672569 674446 670298
1011.49 648574 658566 672960 635890 582880 566043
1014.38 623022 673423 654558 642946 804383 1036920
1017.28 936357 681035 732829 762697 579921 485090
1020.17 503155 519933 523982 538999 602410 661819
1023.06 691626 706384 680986 667600 689662 703518
1025.95 694237 707206 689877 634219 608401 590514
1028.85 579340 550507 510975 492951 452083 429880
1031.74 379379 342692 313442 309016 326427 300757
1034.63 284763 290474 296052 283124 286220 284071
1037.52 269232 304982 316209 283822 283437 326913
1040.42 362777 388378 403513 407909 415037 431948
1043.31 460455 509707 580627 638253 675270 690169
1046.20 744824 824045 849231 902037 979994 1069192
1049.10 1175743 1364343 1569099 1658904 1757010 1986268
1051.99 2221972 2329254 2421594 2623241 2846456 3095720
1054.88 3428504 3793753 4159679 4567334 5068104 5589658
1057.77 6140443 6790835 7499112 8337260 9260916 10203195
1060.67 11200413 12371416 13748985 15312112 17035097 18968393
1063.56 20975717 23281138 25632469 27800851 30550984 33690498
1066.45 37156193 40734906 44064850 48175717 52421335 55808117
1069.34 59586230 64383432 69434462 73818671 78625443 83644213
1072.24 86736917 89701652 93684552 98534760 104904835 113507781
1075.13 118506065 116525044 114953307 116096658 120402673 132474064
1078.02 155289915 160582300 146803640 137723834 133336020 141460113
1080.92 161483834 200192270 235554873 227738484 182078723 159286296
1083.81 165330622 181071592 223084666 324658350 337453122 238470854
1086.70 210886054 215850297 219895472 226295540 226367279 224787670
1089.59 224716024 227267546 221633752 209615672 203000251 199948545
1092.49 200908354 211927635 209097862 242264493 287994842 238504795
1095.38 186653652 187513553 253623126 270263241 187800162 143449578
1098.27 123194055 115145781 118291689 124158769 131468162 138354680
1101.16 145323983 151366301 156215075 159333413 160774958 160353443
1104.06 158150213 154059958 148348754 141196334 132906642 123578746
1106.95 113622151 103382920 93114823 82951061 73084586 63736325
1109.84 55098982 47248854 40180419 34008505 28653803 23986398
1112.74 20097238 16936531 14343944 12173637 10458754 9151824
1115.63 8127147 7388875 6942570 6664049 6484171 6469905
1118.52 6546176 6733346 6932958 7258342 7808040 8474404
1121.41 9047038 9390979 9849417 10697874 11854231 13270112
1124.31 14626214 15840003 17121243 18773555 21032997 25208410
1127.20 29193440 29194457 28628606 29695577 31274770 32929672
1130.09 33942951 34426126 34695001 34858601 34508157 33715961
1132.98 32624164 31216314 29484856 27620181 26038270 25421876
1135.88 25561804 25277467 25963249 33381207 50995293 73194717
1138.77 69481569 36972377 20254153 22587185 22702280 18700414
1141.66 17526740 19646259 21225677 23331855 25789773 28153233
1144.56 30332867 32210082 33602843 34566046 35011707 35012662
1147.45 34555610 33712151 32466199 30927368 29162868 27263251
1150.34 25202507 23067870 20958739 18902463 16931188 15059341
1153.23 13252038 11558184 10056586 8758912 7576132 6473095
1156.13 5538480 4773596 4067143 3493728 3032802 2613732
1159.02 2297077 2035261 1766923 1577442 1420123 1282723
1161.91 1136924 1025997 950451 871228 804844 733114
1164.80 683645 647296 591279 557953 549474 589357
1167.70 772234 1248714 1296592 861653 611227 500560
1170.59 494608 523530 513447 534031 576605 559603
1173.48 570590 605487 588949 559915 555526 560134
1176.38 574533 566895 538904 493620 460182 431814
1179.27 394785 383537 364635 330120 300884 313820
1182.16 335765 322415 270627 245920 236692 184139
1185.05 140151 158077 180690 158044 174868 184795
1187.95 133836 128467 139273 136826 127133 114133
1190.84 110961 124210 139285 134629 106709 109548
1193.73 107736 91715 98203 82959 91100 114569
1196.62 111820 105090 117498 139279 134882 124738
1199.52 123947 120278 106630 91619 45230 44286
1202.41 81909 99602 119498 124445 129468 138620
1205.30 133732 125395 98009 77259 72585 83400
1208.20 76512 43941 34029 48162 38202 19496
1211.09 13687 1268-7907-29811-15660 5281
1213.98 16946 33079 10100-8716-14282-8971
1216.87-27718-41935-6973-16575-22482 7166
1219.77 6260 12577 17309-2337-8412-10737
1222.66-24923-25761-15310-5997-548 15897
1225.55 24308-5303-5187 37928 22788 5526
1228.44-9645-9250 4808-688 43119 69788
1231.34 69227 72092 71415 49958 58084 70788
1234.23 72856 103979 102234 83831 113451 148808
1237.12 125500 137820 165750 162513 171159 169730
1240.02 174847 185075 185906 182500 194216 191961
1242.91 197856 216284 185469 156946 174935 223015
1245.80 249494 220806 192611 181604 173797 194387
1248.69 221800 242107 239650 262408 345830 361509
1251.59 276604 174331 131750 132490 150391 211086
1254.48 217852 194481 215777 229846 225814 239477
1257.37 245688 224958 220707 226475 201935 197624
1260.26 201177 188751 149311 127462 131885 106491
1263.16 95461 83537 65543 14886-15576 5935
1266.05 45310 36307 2203 19563 11409-21653
1268.94-38678-32262-12302-8831-3296-8355
1271.84-23085-3695-8458-38177-36393-17028
1274.73-1009 15765 10375 12551-5584-22451
1277.62-10353-4395 3910 12608 5963 3823
1280.51 36829 68256 61759 42750 38256 46487
1283.41 39556 66099 103316 107148 111576 110569
1286.30 91013 99945 125340 163157 203760 206900
1289.19 230602 263861 289352 308633 335297 366152
1292.08 402548 418827 422970 467040 528698 572053
1294.98 600704 644827 709836 755447 783798 803760
1297.87 846925 913837 983249 1045814 1080679 1167092
1300.76 1263049 1335969 1390172 1472503 1573273 1670975
1303.66 1784342 1887216 1996146 2097934 2234941 2349561
1306.55 2457142 2596409 2730438 2852730 2965720 3066919
1309.44 3121162 3150057 3212789 3294984 3330389 3309202
1312.33 3276513 3244832 3124500 2966189 2773371 2548699
1315.23 2286813 1963540 1665825 1414677 1278587 1279459
1318.12 1370141 1589243 1888439 2180242 2481007 2773804
1321.01 2992700 3111759 3241074 3336415 3348201 3322175
1323.90 3279664 3242717 3193735 3111451 3003795 2888441
1326.80 2773437 2660590 2546312 2448466 2338652 2227562
1329.69 2115899 1992444 1919160 1859665 1787777 1716071
1332.58 1629769 1580341 1548041 1440664 1352254 1327490
1335.48 1282718 1198558 1167027 1162865 1110659 1077123
1338.37 1002235 936691 916007 884792 837679 781325
1341.26 714833 628306 563891 525397 480162 432478
1344.15 414698 408988 440088 511388 574933 611557
1347.05 576608 669740 750634 729160 798565 798785
1349.94 729681 693193 649827 564381 525623 607843
1352.83 625774 570016 622206 738438 808881 759267
1355.72 703338 682435 684224 703424 668460 624183
1358.62 634648 641955 606379 605410 611476 626293
1361.51 625223 602859 620034 693808 768705 774270
1364.40 766102 797012 865179 923783 980958 1061905
1367.29 1071035 1105013 1200901 1258469 1284409 1337346
1370.19 1427473 1534437 1624544 1726012 1855192 1971153
1373.08 2071912 2114669 2133589 2241402 2396767 2559936
1375.97 2777667 3038067 3237376 3262067 3361357 3516819
1378.87 3605764 3797798 4025492 4267207 4542692 4741894
1381.76 4735289 4710419 4791079 4947476 5151616 5401701
1384.65 5734105 6039070 6242715 6242955 5965541 5601228
1387.54 5405224 5530239 5808438 5941472 6109302 6741705
1390.44 6774199 6080105 6395506 7563988 8071139 6681900
1393.33 5397315 5448315 5588349 5625372 6348442 6894506
1396.22 5956424 5875757 6940010 8461943 9338513 7345543
1399.11 5466781 5196170 5128545 5252920 5462983 5643390
1402.01 5495029 5252969 5199716 5189438 5075875 4969793
1404.90 4858768 4687237 4483838 4261000 3978758 3656542
1407.79 3371074 3072005 2746453 2420662 2066640 1725733
1410.69 1410497 1153677 930709 714219 552049 421361
1413.58 329969 254820 176545 161689 162484 123070
1416.47 63140 41851 57349 62375 31324-9845
1419.36-14657-5167 22079 22840 4228-2668
1422.26 19918 41582-4110-18142 4549 5380
1425.15 24470 48772 54518 46491 6136-20577
1428.04 2935 22913 18165 21743 34493 24189
1430.93 8463 2454 14860 6050-11802 8409
1433.83 29506 21225 24212 38450 5569-7347
1436.72 20785 14354-6903 3203 2587-3069
1439.61-1498 388 8822 13411 19689 20597
1442.51 21343 22814 17250-739-42143-54212
1445.40-20657-2192 5767 17278 2406-7699
1448.29 3274 8315 22451 45546 52617 42072
1451.18 22160 8139 23573 36683 33656 31019
1454.08 38604 45524 66492 61279-14734-44267
1456.97 10610 17249 9696 43094 43753 45894
1459.86 51956 80923 98396 76710 60082 75982
1462.75 71710 60781 55243 37315 62017 77505
1465.65 77500 92223 76674 52482 67555 76720
1468.54 78358 50208 59782 86855 64621 58013
1471.43 64315 89541 121913 123427 138353 157568
1474.33 148787 150256 151356 105942 72305 71708
1477.22 86145 100258 77060 63155 55428 51462
1480.11 62544 75124 90122 88110 81203 90282
1483.00 89253 95366 103601 72700 55844 44050
1485.90 40307 49704 53344 66774 63559 54994
1488.79 42857 44318 46078 47445 56640 45348
1491.68 26383 56184 95602 104225 87420 66568
1494.57 71954 76231 30012 37941 97324 85766
1497.47 85934 84621 73172 80293 81167 90125
1500.36 98943 121112 132315 115824 116335 121731
1503.25 128960 121805 100604 78807 83090 113425
1506.15 104766 91492 119769 138736 129089 147804
1509.04 181392 186650 195530 199233 192003 204307
1511.93 218184 239311 243253 244829 264896 272058
1514.82 307085 354175 365781 364124 375393 398560
1517.72 444333 468474 481387 546984 577408 572018
1520.61 560270 624436 707048 716203 779827 856583
1523.50 932309 990239 1032535 1104032 1202409 1293838
1526.39 1383669 1539486 1716723 1824512 1910302 2030613
1529.29 2184350 2351313 2493290 2672130 2882164 3079258
1532.18 3258603 3487623 3736837 3942815 4106437 4248335
1535.07 4403299 4562804 4721600 4876214 5044133 5239958
1537.97 5408631 5502002 5752999 6078660 6425877 6962617
1540.86 7695035 8551639 9605031 9815222 8739092 8221297
1543.75 8495811 8930403 9492298 10113747 10840395 11585851
1546.64 12315968 13125472 13965786 14787571 15633141 16496596
1549.54 17366460 18217520 19104732 19971381 20808748 21668332
1552.43 22541440 23369987 24162168 24978611 25857830 26718972
1555.32 27611037 28485897 29359601 30263072 31145711 31942821
1558.21 32783725 33709996 34514058 35271076 36056454 36814659
1561.11 37441910 37902814 38183429 38322714 38359399 38224150
1564.00 37860563 37372608 36878406 36379088 35620594 34813144
1566.89 34189833 33551013 32960427 32314626 31512142 31028685
1569.79 30989272 31133648 31957150 32936366 33432030 34535470
1572.68 36349432 38306495 40994269 43295647 44447272 45848278
1575.57 46752336 46252346 45156815 43910127 42500444 40979617
1578.46 39341627 37685451 36037565 34401295 32785769 31195551
1581.36 29660441 28151361 26700971 25349624 24064056 22842033
1584.25 21719065 20714744 19811472 19046857 18484462 18065960
1587.14 17801644 17726396 17798070 17963038 18159122 18343159
1590.03 18550226 18772501 18995760 19231522 19480672 19782463
1592.93 20191492 20668783 21242903 21961241 22782260 23722504
1595.82 24853960 26121055 27475003 28884826 30369575 31947856
1598.71 33600103 35293385 37112211 39107631 41201596 43407143
1601.61 45775580 48420953 51156681 54057505 57213774 60545574
1604.50 64099016 67874508 71746876 75817989 80109737 84542445
1607.39 89076117 93700422 98368332 103049590 107805382 112583546
1610.28 117204839 121704323 126103722 130258219 134121254 137619649
1613.18 140632802 143085656 144970418 146185071 146641240 146204536
1616.07 144728688 142644433 139737819 135568972 130445102 124665656
1618.96 118233187 111337671 104526838 97780784 91563618 86702702
1621.85 84009862 83992861 86954495 94480177 106649722 121611591
1624.75 137477430 152603426 165272952 173984889 179416992 181689380
1627.64 180652163 177158442 172316697 166708908 160426865 153666202
1630.53 146539035 139187665 131640072 124034796 116439170 108948368
1633.43 101655201 94625440 87976610 81744917 76054637 70895663
1636.32 66046400 61562690 57385494 53578500 50097807 46830353
1639.21 43793918 40963383 38346838 35865412 33518026 31298511
1642.10 29140566 27066171 25111139 23233033 21403242 19628363
1645.00 17948496 16367122 14890585 13464334 12128087 10935259
1647.89 9797022 8744045 7823257 6981890 6179562 5464797
1650.78 4832533 4242966 3687715 3231610 2849080 2570320
1653.67 2300818 2025761 1831614 1629494 1460269 1321324
1656.57 1186686 1058127 952278 887772 839427 751261
1659.46 684338 642263 601781 570421 517237 483479
1662.35 490373 473444 437545 423515 410956 390278
1665.25 366640 354238 342840 332496 307599 294418
1668.14 308720 293349 290464 300500 307239 313866
1671.03 324518 337339 326273 317634 315189 326757
1673.92 341503 335356 339341 360900 376956 379232
1676.82 368120 403749 425496 423373 444207 454158
1679.71 466249 467548 474744 469304 455771 452636
1682.60 447142 446051 423269 342663 327687 384782
1685.49 400843 408957 409696 431976 475572 576386
1688.39 625797 546312 493440 508760 540719 525553
1691.28 495938 478943 478836 510538 541012 614833
1694.17 639124 539142 416301 382969 412929 414507
1697.07 399817 397497 396895 420433 406356 434770
1699.96 462001 395032 402810 391570 358827 323731
1702.85 309133 339660 320521 300993 298622 277949
1705.74 285989 289574 271728 273065 276905 289450
1708.64 313911 302055 304773 325051 329627 330430
1711.53 307929 306111 343595 372607 385916 391052
1714.42 392429 436232 471419 499159 518444 508594
1717.31 575144 632035 648183 702010 772029 819158
1720.21 871524 947308 986262 1012464 1056051 1105223
1723.10 1160090 1226372 1298541 1344743 1383373 1439842
1725.99 1492332 1549155 1637098 1760708 1871402 2007515
1728.89 2155612 2293582 2472078 2662297 2869013 3073727
1731.78 3255602 3441998 3591678 3788290 3976994 4102544
1734.67 4285449 4451891 4553517 4626521 4684259 4701038
1737.56 4673729 4639453 4529662 4281117 3989101 3622202
1740.46 3165650 2683969 2206858 1838022 1641259 1610372
1743.35 1794486 2167128 2615448 3108469 3617096 4095377
1746.24 4478049 4788091 5019621 5140650 5194583 5183632
1749.13 5115262 5019521 4856238 4623885 4457139 4325276
1752.03 4133286 3920011 3724587 3588069 3475817 3343124
1754.92 3211021 3091783 2958060 2839093 2732254 2628486
1757.81 2543504 2455246 2342419 2232702 2105915 1970886
1760.71 1937488 1943569 1749579 1476465 1363581 1276253
1763.60 1200830 1139271 1050734 996876 971824 919350
1766.49 844404 796458 747332 704062 676509 632480
1769.38 596650 568463 508816 467534 459450 465124
1772.28 464397 603805 673693 556727 529286 570065
1775.17 605963 491529 320026 242838 215655 197688
1778.06 201153 197962 185512 181013 170372 184355
1780.95 197288 188048 173898 180386 183148 165580
1783.85 156903 133953 142325 172462 181533 176393
1786.74 172200 183075 201352 217438 203965 196925
1789.63 207720 200717 188306 184848 179584 161175
1792.53 155734 150923 146750 164302 173282 163733
1795.42 151284 136084 126883 109687 95538 81461
1798.31 69040 47909 37046 62454 109971 128299
1801.20 112237 132275 146676 149304 133770 147342
1804.10 164999 155434 150576 142810 129455 132507
1806.99 222244 391480 441517 248297 94964 62062
1809.88 43308 37755 31674 35555 44040 69022
1812.77 94436 96366 84411 63064 45602 47796
1815.67 55494 41865 33158 38152 38438 34197
1818.56 15533 20223 30022 20250 7788 7658
1821.45 3743 8146 18536 6823 15077 26866
1824.35 6126-8677-1071 7700-597-7763
1827.24-418-3807-5277 1681-14479-20454
1830.13 14633 30083-6650-16033 8268 6969
1833.02 6281 5097 6613 25497 25354 9050
1835.92 7477 2451 16652 45384 48062 36966
1838.81 36291 35305 40765 55762 50242 60917
1841.70 86009 91117 88248 73441 64305 89946
1844.59 97475 106542 106317 98700 126558 136494
1847.49 141709 142043 146708 170065 173557 162942
1850.38 165207 167608 189315 202254 186730 184600
1853.27 184152 212788 246005 251117 245346 241630
1856.17 248553 246108 245408 243474 235969 250576
1859.06 277629 296394 303293 307223 327217 347912
1861.95 362783 371676 364137 381770 404160 404772
1864.84 432050 462007 463134 471153 520395 559500
1867.74 548476 554911 559464 544170 571510 579377
1870.63 560097 588024 602284 598252 597959 600541
1873.52 603518 610039 610727 597856 606235 607413
1876.41 593344 615754 637591 642952 631490 611895
1879.31 613520 592135 561790 515479 467053 447024
1882.20 424237 389506 367110 387559 415634 437639
1885.09 468180 513109 566100 601944 625199 635658
1887.99 656275 667577 667451 647756 621458 607372
1890.88 588123 553761 518719 513682 496816 479659
1893.77 455188 405987 385277 368801 332468 319840
1896.66 336188 325185 273439 237365 228132 227515
1899.56 213244 196213 196484 205378 214697 213573
1902.45 184610 164424 179274 189547 186389 185266
1905.34 164252 147417 157551 152888 145205 167315
1908.23 189436 184754 168529 162449 174837 178817
1911.13 172595 172249 157332 157155 161335 146921
1914.02 133126 122824 122449 128302 141958 150023
1916.91 149265 163988 194231 201164 198701 200483
1919.81 217411 228761 218079 220898 237427 256295
1922.70 259045 249537 260293 283858 275884 265227
1925.59 270287 263805 247590 238891 243917 262601
1928.48 264563 256264 246433 221235 210555 220158
1931.38 226915 226183 193802 174971 185299 183647
1934.27 183601 196438 218943 204116 198988 195480
1937.16 179480 162083 140541 132384 138360 144382
1940.05 141250 155240 168994 165454 129432 91336
1942.95 92069 103656 88468 85846 96108 84610
1945.84 81342 87257 74750 67063 61323 45136
1948.73 46012 54575 53216 48672 54036 49538
1951.63 25305 15335 26643 14089-16037-23732
1954.52-8361 1610-21931-36416-34060-34853
1957.41-18781-32326-52582-41903-38607-44438
1960.30-37585-29029-20053-7222-27058-47469
1963.20-34259-19146-18810-20226-12346-19888
1966.09-41702-50114-43921-24693-10668-8294
1968.98-15386-20099-17370-26073-37130-5559
1971.87 24335 10877 741 21280 41307 36036
1974.77 18132 29431 59672 71600 80985 91953
1977.66 97673 95842 91691 83058 109643 132010
1980.55 136760 145076 146236 160138 160885 160829
1983.45 170303 170089 156821 139745 134918 142575
1986.34 152064 164061 168358 160549 145195 157959
1989.23 168226 135982 151579 192315 188720 179250
1992.12 162754 104220 68506 81727 98255 85576
1995.02 93306 97112 88905 119111 159751 178963
1997.91 161235 156763 163305 158422 121148 91486
2000.80 86210 75567 61901 55912 46437 34475
2003.69 41877 61272 66009 42990 41803 42543
2006.59-11230-34616-12170-14171-21607-16852
2009.48-23716-18172-21310-35784-36003-30387
2012.37-25885-29992-48374-56989-49932-46805
2015.27-40488-37958-30582-36360-46762-49857
2018.16-43186-46293-10526 8521-4567-14714
2021.05-36162-33694-32139-37795-38099-40862
2023.94-32155-32716-38091-23898-31953-40165
2026.84-44272-43751-38327-43721-48249-38378
2029.73-36126-24304-19860-34962-28305-21471
2032.62-34836-38430-30416-38719-43216-41528
2035.51-29747-15328-8117-7497-12953-13015
2038.41-7790-13148-17805-23959-37334-38064
2041.30-46415-65612-61659-52675-35270-21226
2044.19-26116-29350-35153-34090-26406-9453
2047.09-10980-20061-19655-17276-27109-31557
2049.98-15863-17075-14419-26072-17328 18962
2052.87-3925-27725-33529-24739-8629-13839
2055.76-16612-19383-28817-28527-16538-18519
2058.66-27536-27356-20406-19095-19640-11739
2061.55-1218-9730-9444-6442-20154-24813
2064.44-14389-22629-21140-11487-24831-21014
2067.33-14064 2731 24075 31805 38248 30899
2070.23 19628 17405 14166 18653 47449 70288
2073.12 73257 84888 95649 84099 79762 50005
2076.01 2058-17895-19895-18005-11689-6615
2078.91-19184-7921 17040 8381-13638-17436
2081.80-31239-26675-9067-18532-36063-23666
2084.69-2894-17768-10890-3599-18215-10601
2087.58-14631-3192 2982-26205-32292 3085
2090.48-9882-39429-37953-20725-14613-25757
2093.37-16482 1080 7976-20214-25806-23056
2096.26-30958-22979-33289-57782-32495-6435
2099.15-34049-67573-52328-30598-48801-36618
2102.05-25666-22144-32323-54953-40290-38092
2104.94-60981-46404-29033-31736-14029-42944
2107.83-85065-80983-41305-21555-43606-45120
2110.73-11341-8485-56272-72436-50142-39643
2113.62-56481-53473-32615-12592-29978-47930
2116.51-37858-40944-34215-48689-71055-46606
2119.40-27886-26260-35711-48695-64433-73411
2122.30-66585-66374-61167-68290-75172-74233
2125.19-70883-79272-72454-62095-63990-58265
2128.08-64391-72696-84383-96492-93128-95458
2130.97-91191-71243-76660-109923-108781-104495
2133.87-126137-134678-109481-107270-123337-127927
2136.76-135802-124642-108073-112617-131943-130233
2139.65-132858-138647-133013-135506-134631-136851
2142.55-143227-140154-146388-154178-136016-143843
2145.44-162992-155564-134532-142617-196512-203333
2148.33-182340-170180-140046-141375-161408-163533
2151.22-161296-150762-151813-152573-149168-153320
2154.12-147446-159444-176647-184804-204929-199728
2157.01-178549-149727-131752-159138-164477-147961
2159.90-157666-175613-168319-160469-195934-208333
2162.79-188805-203360-208143-190930-177784-159314
2165.69-144693-144137-147159-144298-139084-144808
2168.58-142619-145616-169984-192339-215248-222916
2171.47-204819-158794-120668-118565-137203-149720
2174.37-155342-161326-162650-145112-130575-103429
2177.26-99237-132922-145599-151152-139685-140744
2180.15-161771-162526-149181-134618-142248-138165
2183.04-139540-151024-134594-149193-173913-160059
2185.94-120411-122032-138405-136734-150631-171128
2188.83-167124-137411-121731-104067-103210-114673
2191.72-108950-122774-140215-166447-161187-125129
2194.61-89316-55028-43822-34365-54271-55999
2197.51-48192-57811-48853-29076-4857-2667
2200.40-14454-26922-32218-19073-15701-8004
2203.29 22246 19913 19024 17258 24515 62012
2206.19 78331 83003 88295 115994 226084 366206
2209.08 318536 211697 172259 157460 174262 183888
2211.97 207446 205709 217082 230855 219611 219757
2214.86 240743 268407 276867 277649 280338 290906
2217.76 311940 319960 316202 334227 322580 296360
2220.65 289206 270007 282705 320491 336159 360529
2223.54 371326 391147 378931 364021 379687 350696
2226.43 327514 361914 403642 429432 459594 470911
2229.33 467620 445927 420043 415024 407593 353329
2232.22 313136 302553 287427 283094 274868 247331
2235.11 210552 194870 186028 154632 139056 145225
2238.01 132397 98528 89059 80653 60914 56246
2240.90 76465 62308 37925 47648 14305-8023
2243.79 4-10997-8706 7389-15-2738
2246.68-9709-21567-39922-62142-71946-70686
2249.58-34079-36806-65984-46740-45377-64837
2252.47-83485-94359-100575-104305-110129-108416
2255.36-100704-99914-89195-83926-92533-97680
2258.25-105889-116614-115810-108708-102908-118979
2261.15-115312-103846-114421-104749-94238-102287
2264.04-103640-109544-114750-103560-106812-121791
2266.93-126755-97992-96700-113993-105268-111473
2269.83-116204-106562-110160-116939-94854-89183
2272.72-90268-90740-79321-86725-121306-147390
2275.61-170705-196438-212897-208016-186498-135253
2278.50-65971-28860-47139-67718-71189-91383
2281.40-124159-105328-60102-66803-80606-100076
2284.29-121059-124434-117603-105275-90027-88116
2287.18-98551-109200-121219-113120-123374-138303
2290.07-145639-137563-113594-103158-112766-132927
2292.97-122009-119496-140794-127392-117619-131694
2295.86-135073-119807-106925-118147-113130-104655
2298.75-109989-81298-73317-89884-93788-110170
2301.65-111456-110427-100602-93731-94519-71904
2304.54-69220-81426-82421-76197-90609-98191
2307.43-87606-71432-49722-51342-45006-35592
2310.32-51605-56268-50515-39755-36378-34825
2313.22-47763-22815-5196-47574-48794-29975
2316.11-35289-59026-51382-25290-9463-6648
2319.00 403 9273 3975-13774 3979 12355
2321.89-9637 680 8700 19138 23929-10483
2324.79 9592 61699 55500 30309 33469 63921
2327.68 50121 23415 58190 92644 78027 52753
2330.57 53185 83412 76643 66919 100737 111733
2333.47 92929 99984 110037 102281 97738 123980
2336.36 136230 77545 67262 119757 121085 103903
2339.25 139518 136469 81026 68891 81439 76605
2342.14 61550 83314 130514 141875 140168 124818
2345.04 85085 78971 99088 104329 93664 88183
2347.93 82957 96933 101457 79711 91489 129798
2350.82 128765 97272 95005 82351 68123 72994
2353.71 52758 24501 12013-15139-44101-32966
2356.61-57954-72103-44829-62981-74605-84452
2359.50-111482-97716-90979-108197-71569-59362
2362.39-79749-55298-80271-86573-59077-84947
2365.29-57069-62125-101444-62572-65152-79199
2368.18-61708-59493-41894-61693-68692-44384
2371.07-49305-44178-35281-29223-53787-82693
2373.96-80898-67507-80734-69726-25588-27957
2376.86-31100-35717-5954 4212-35563-38283
2379.75-46325-60132-55192-37832-15139 13570
2382.64 8540-4859-548 3088-4551-14064
2385.53-13342-3543 14180 5623 1489-735
2388.43 9407 20459 17315 35175 59723 52742
2391.32 45890 66022 79713 68923 50088 45562
2394.21 29344 37051 65439 74656 63662 56727
2397.11 97745 105871 98840 103225 100914 122159
2400.00 130652 96708 95320 133386 132255 132499
2402.89 166476 180110 171927 188056 190998 206513
2405.78 256011 275350 259248 258488 295311 326332
2408.68 351482 346920 343142 374983 396862 408492
2411.57 439520 487382 502048 510790 531989 540166
2414.46 556191 571872 591069 610862 647813 684860
2417.35 687453 694907 688143 696440 720940 729331
2420.25 754633 769969 778348 780231 783288 822512
2423.14 811230 748108 686600 675087 715655 755971
2426.03 797987 835744 826230 765735 724423 759148
2428.93 813935 846915 847959 755894 633110 601869
2431.82 624497 659716 684509 717918 768063 779318
2434.71 776228 768052 755700 760687 739539 690917
2437.60 672336 624311 557563 491321 412352 355517
2440.50 308934 264026 233017 202918 164885 133384
2443.39 104852 76619 73688 70435 42721 17735
2446.28 17851 16917 11949 9288 24746 45095
2449.17 14233 17374 33797 41887 27427-9861
2452.07 720 37122 35434 28889 51657 21772
2454.96 702-7796-3511-5476 72362 229208
2457.85 160069 43126 16788-12788-25849-9845
2460.75 7184 2495 21919 29022 20765 24207
2463.64 26307 16910-10142-21189-24023-31641
2466.53-27718-4219 13929 15731 24840 7196
2469.42 2789 13452 30400 22781 9750-6967
2472.32-47062-31631-5912 15343 23216-4738
2475.21-36461-36239-20433-23797-26041-14298
2478.10-11008-14752-20097-31278-33580-25689
2480.99-13617-7378-17052-5774 12162-4786
2483.89-23531-37050-22215-19885-31767-42975
2486.78-53379-42423-43671-33771-20376-29783
2489.67-35850-27277-22390-18831-17630-16776
2492.57-41494-63418-44098-45648-48735-54490
2495.46-65590-49872-30349-29949-32016-17416
2498.35-45318-89991-71320-39841-24999-37565
2501.24-58759-42952-35256-46798-45853-58444
2504.14-60262-58467-65558-48451-31340-44091
2507.03-73373-48184-38518-45908-35710-37103
2509.92-37038-13075-17241-50814-51193-48687
2512.81-28021-23950-40487-32600-44582-64893
2515.71-65402-40207-32833-37734-39244-44179
2518.60-24814-22965-29970-28037-24207-24437
2521.49-35185-22320-16922-28259-36756-34039
2524.39-14290-38075-44340-30440-31511-42493
2527.28-49940-40437-36269-15068-3745-6294
2530.17-6989-14828-26547-22976-27848-23534
2533.06-150-6134-32060-71716-74676-17073
2535.96 1684-55701-75700-51002-64262-68763
2538.85-60761-63424-84608-94380-57415-32159
2541.74-51057-41742-33667-70056-77920-49741
2544.63-69996-106228-92906-53704-37939-41453
2547.53-35795-51315-73907-76104-66915-70185
2550.42-55163-50634-75572-86791-81484-77352
2553.31-79623-94131-96935-72837-72352-77044
2556.21-66697-78172-86030-94684-88413-61675
2559.10-60842-91891-100277-92464-90997-65443
2561.99-49420-68491-89253-71764-39528-54447
2564.88-95343-111532-103200-107938-102985-87911
2567.78-96072-105541-106837-78155-30246-23540
2570.67-72264-82801-73579-70708-76997-90685
2573.56-74528-89077-86271-61544-77421-72255
2576.45-44282-50307-63921-62187-57229-71866
2579.35-80841-60439-43059-40171-30558-28798
2582.24-46336-46783-39973-44607-62089-53341
2585.13-69625-101363-80694-78304-81623-79799
2588.03-68447-64676-87684-52051-32202-50546
2590.92-27301-36373-65908-54314-46914-70502
2593.81-65498-52596-63209-69002-73921-57312
2596.70-38655-38916-26532-8150-12962-30846
2599.60-34250-16799-32190-28890-3629-36614
2602.49-73566-48995-28053-41570-39479-20167
2605.38 730-25433-34584-5628-2071-22280
2608.27-20071 5180 9580 4322-2581 11798
2611.17 19773 18440 28109 41954 52912 29375
2614.06 18360 29277 34490 37140 73880 89541
2616.95 63191 60017 42601 31408 45446 54468
2619.85 37599 36902 46040 7782-9380 154
2622.74 16556 22876 28702 33781 40811 56834
2625.63 54839 57058 68049 77961 63565 54529
2628.52 67522 73057 73159 52689 46557 64203
2631.42 68849 89666 88936 98380 110293 106041
2634.31 111685 81687 57333 59309 56695 74994
2637.20 79937 69400 90358 94421 97452 74729
2640.09 47374 61116 84439 113019 107675 116221
2642.99 113694 69151 74631 102667 110323 93896
2645.88 78518 89364 102166 109721 110186 89163
2648.77 95563 95724 54047 46902 95570 126928
2651.67 95970 86970 116749 124526 91608 53810
2654.56 57823 89896 106139 116566 159005 146485
2657.45 84244 54341 46438 51716 81877 109162
2660.34 115459 133705 144089 134359 117389 122717
2663.24 135275 125001 93634 91206 89721 76874
2666.13 72909 47772 34894 35408 39155 50973
2669.02 37351 9530 11498 21224 2432 4585
2671.91 11127 10082 11989 694-2017 8209
2674.81 21796 2267 12671 13558-17478-37639
2677.70-16830 18521 31754 37345 34751 48679
2680.59 44269 43241 37225 58001 75212 30411
2683.49 32311 30378 11376 42720 42697 41959
2686.38 64514 78629 81798 81191 84445 83244
2689.27 84127 98100 115911 135892 165911 152770
2692.16 154793 155741 145799 166561 161045 142859
2695.06 146001 181921 182503 154247 145881 135950
2697.95 132745 149139 196238 198206 157843 180100
2700.84 213852 188825 176734 197964 166490 138025
2703.73 121078 97065 91855 112734 154262 183594
2706.63 191255 194076 204691 220391 255342 255505
2709.52 262363 253625 235172 228547 201102 195510
2712.41 189159 167993 149294 137916 115748 100531
2715.31 102722 73423 43421 65855 70210 59161
2718.20 65234 47969 21196 16385 30978 23518
2721.09-6179-32409-38584 32660 38520 8018
2723.98 11806 14440 10162-3810 7179-10414
2726.88-5750 13122 16677 23803 17846-1379
2729.77-8441-13819-29017-22809-8000-14153
2732.66-20251-24764-28982-31032-33657-61020
2735.55-74401-61883-56054-52708-24735 1947
2738.45-7450-6405 21888 33008 16803 33256
2741.34 44448 21897-11816 4867 5159-9306
2744.23 1316-25001 8433 32971 457 18116
2747.13 21474-6464 949 19362 13491 5969
2750.02-25486-43836-10563 6355 5700 19167
2752.91 14506-21893-52237-58064-19177-9960
2755.80-33130-37815-62719-91611-54486-26920
2758.70-12360 20026 9328 11961 17014-13003
2761.59-21267 15806 13155-29761-48246-57385
2764.48-59585-60946-70988-69211-47701-43018
2767.37-54449-62750-57647-51632-94566-118452
2770.27-75467-22611-36901-90368-99761-100126
2773.16-86927-76579-76606-45870-70882-81477
2776.05-58794-73943-81203-91184-74418-65554
2778.95-58515-43904-54068-33527-29483-56925
2781.84-64228-57000-59266-63458-81071-88548
2784.73-70991-70604-79207-83312-94881-102229
2787.62-60019-28745-18302-21471-52822-59164
2790.52-53787-53169-73169-63218-44950-59655
2793.41-71130-89036-107211-110497-84727-86675
2796.30-112835-115756-72805-48800-38413-47386
2799.19-66416-80956-99117-78112-72619-100968
2802.09-106158-92961-90123-81432-97411-76466
2804.98-65177-70027-43623-65487-102614-83857
2807.87-55492-83820-106973-70206-52664-41013
2810.77-34933-57718-60652-51760-54422-59535
2813.66-65121-72328-61912-51437-48822-52463
2816.55-37111-50422-69887-28835-19913-35190
2819.44-51115-72104-70684-71201-77952-76665
2822.34-45138-28879-19012 15361 8155-6029
2825.23-35328-67402-49191-27870-2678 6022
2828.12-27367-50209-49721-41173 356-20
2831.01-7603 2473-10684-10140-34187-18306
2833.91-4047-46380-36839-10768-15412-7075
2836.80-6951-16655-18503-28814-14437 8087
2839.69-15487-34711-43725-25967 27354 11832
2842.59 11324-10918-65452-38003-16089-21904
2845.48-8428-5407-16300-41364-23899 30115
2848.37 35097 5551-48515-55348-45458-48660
2851.26-48786-70257-68715-29797 15169 2066
2854.16-33133-26916-23237-32300-27349 5613
2857.05 8960-46917-32738 6448-7365-22567
2859.94-28482-22162-35500-4976 22587 6499
2862.83 34356 10179-39937-41017-44334-24975
2865.73-5993-11531 487 25283 57500 72462
2868.62 30660 13347 7509 5222 51435 61926
2871.51 35674 11068-647-4301-2412 42880
2874.41 85440 87151 66950 77710 45941-1996
2877.30-7459 6270 28847 20521 32438 49058
2880.19 27489 28468 43294 38307 18064 13636
2883.08 41355 47875 35851 15896 52269 74670
2885.98 20656 19490 47687 61867 67980 46434
2888.87 44474 47502 23935-17432 21977 63783
2891.76 27141 13875-5557 5027 20857 13344
2894.65 6588-4828 31916 38229 6641 9633
2897.55 12292 23707 35361 32041 4437-21072
2900.44 15611 35139 20479 24460 26060-3551
2903.33 17221 69994 48298 38231 55222 29824
2906.23 11258 6900 20201 49591 64920 43877
2909.12 30687 22238 25375 101799 105828 64451
2912.01 69671 83883 85937 91228 91715 42721
2914.90 23023 36847 41313 66954 99883 129175
2917.80 142962 123405 131283 128604 102152 107855
2920.69 109624 128048 153728 201848 180111 123875
2923.58 115289 97467 94625 69244 75805 83846
2926.47 70177 88016 83285 62955 48680 62887
2929.37 90318 91298 100690 106128 106376 143531
2932.26 190070 229200 253557 235313 206828 235309
2935.15 220117 158248 150055 172393 181704 189951
2938.05 185957 212469 236468 186140 179897 214793
2940.94 227859 200398 168580 154742 156620 225302
2943.83 268616 213770 198892 197978 194673 227885
2946.72 230433 234251 241698 200232 169765 204788
2949.62 208105 191585 206376 214212 230438 237087
2952.51 236332 215563 193669 197505 208041 208562
2955.40 198452 222645 215517 209469 238850 273395
2958.29 261133 236982 251897 249664 264443 240348
2961.19 197801 221222 260580 272348 297551 258409
2964.08 220237 202468 172789 216841 236836 193425
2966.97 159644 123015 98692 132626 150885 155175
2969.87 158495 154547 123263 109907 153061 173441
2972.76 162218 144662 131107 114995 80065 65623
2975.65 83301 108547 121218 131396 131453 132763
2978.54 107503 53914 86516 113770 115735 152635
2981.44 169218 148264 144706 138172 153395 199936
2984.33 192134 209193 219255 217525 249288 273266
2987.22 273160 274757 291994 305244 324499 332837
2990.11 348830 341998 319351 358851 408458 379569
2993.01 355926 364577 370955 372538 364249 332009
2995.90 323305 296741 269972 281015 292476 299449
2998.79 214682 155287 164250 195762 210848 218500
3001.69 263180 367686 427016 417499 453830 471882
3004.58 495112 511993 461264 428037 444843 440868
3007.47 421453 387871 354959 341254 303905 267884
3010.36 261955 251325 247409 255048 238764 227863
3013.26 231759 224610 198240 213529 245453 222754
3016.15 183949 143390 129293 134163 130058 134780
3019.04 148066 158351 142448 131756 160122 152370
3021.93 130235 114042 121466 126934 137291 178485
3024.83 195688 193134 181511 190818 205684 219727
3027.72 217767 211392 209929 200802 182509 220209
3030.61 244417 256479 289839 332003 351280 334406
3033.51 333608 324341 364511 438746 475579 510459
3036.40 506922 492071 537770 521286 508255 499687
3039.29 496966 505529 493743 484037 455139 414578
3042.18 379207 335006 291353 286939 254513 205392
3045.08 181789 153129 159742 236797 288920 316649
3047.97 379016 446780 484428 509327 523145 549352
3050.86 548148 530387 497066 475598 456589 392049
3053.75 379769 376824 377396 396370 351455 302016
3056.65 287865 261505 248487 262820 258159 233687
3059.54 243460 234654 176354 156757 163411 162050
3062.43 143190 115431 87316 74229 87357 81775
3065.33 64285 53593 31097 1953-6365-5974
3068.22 35882 62510 10164 15393 39263 14841
3071.11-16219-29145-25185-31542-25919-3559
3074.00 26764-16196-64789-28864-25284-57360
3076.90-29876 8529 17234 15306 2969-12173
3079.79-37196-55227-56046-52455-47314-24025
3082.68-34307-60672-40990-39916-36878-34698
3085.57-2738 42426 9413-10272 13967-54
3088.47-27720-2721 18886 11767 5881-15622
3091.36-17482 17453 42345 5932-35311-35486
3094.25-31819-27424-30903-20303-35249-52171
3097.15-16670 2185-9293-9314-13606-27186
3100.04-49502-8330 10535-31983-38807-34951
3102.93-18668-7185 6986 3746-37000-73710
3105.82-69606-53045-84755-102572-90382-91752
3108.72-93505-65547-55903-75722-51838-24323
3111.61-15292-26301-56630-71914-32080-23311
3114.50-81458-105050-84357-105520-160653-161184
3117.39-124885-142565-158940-169949-196445-216076
3120.29-203590-173887-179965-175439-161405-164397
3123.18-201745-248145-202494-166800-183215-168251
3126.07-202738-231104-203504-166534-197126-211477
3128.97-199334-219949-200389-190547-219278-204758
3131.86-182736-207469-208353-210990-211135-197813
3134.75-194455-168983-185860-226400-202884-177078
3137.64-166123-156374-150920-191356-177775-119315
3140.54-127164-142486-146747-144631-161414-159896
3143.43-86730-71825-100202-91837-114791-130198
3146.32-157893-182081-164912-189968-191276-151419
3149.21-152731-137359-166155-213249-179135-155201
3152.11-159076-138521-84700-82769-120874-111563
3155.00-101187-119032-91491-51018-55221-38898
3157.89-8225 1276 20016 37073 36017 53914
3160.79 50491 63921 103745 139663 174508 180584
3163.68 225166 270632 255469 243177 259543 274125
3166.57 282814 322937 354021 419116 454862 462785
3169.46 504734 544907 565234 568165 610892 653963
3172.36 694391 749166 786698 784629 834191 906158
3175.25 947299 1019845 1067825 1128223 1163446 1150997
3178.14 1166089 1204593 1307861 1371491 1377930 1409225
3181.03 1433288 1438635 1509504 1576830 1602097 1625998
3183.93 1642198 1627012 1597521 1635247 1686047 1681600
3186.82 1650053 1618083 1607641 1572816 1543210 1558539
3189.71 1545970 1493828 1468606 1480187 1495446 1511008
3192.61 1450819 1377546 1392227 1372468 1377171 1485756
3195.50 1582608 1684591 1802530 1914414 2009503 2050900
3198.39 1995651 1926851 1899870 1803530 1671073 1593407
3201.28 1543494 1476969 1343236 1259951 1168179 1065772
3204.18 982162 858394 760221 664456 581640 534560
3207.07 471532 414345 379092 334455 258204 212242
3209.96 199623 158496 130181 140162 127896 137093
3212.85 141967 111455 101462 49303-3036-11028
3215.75-28813-55321-66273-71201-65757-85683
3218.64-114871-144156-148950-178418-186295-153569
3221.53-186855-196036-151420-148718-189152-211386
3224.43-166169-115372-86281-98288-104169-102718
3227.32-93451-31047 12316-8102-8693 36263
3230.21 22755 15788 37109 43152 66015 68843
3233.10 67035 72051 64665 98707 149989 174824
3236.00 228331 263384 220937 246635 284396 302007
3238.89 297065 289832 319288 316641 315869 311297
3241.78 295709 285749 288645 297830 309441 336597
3244.67 291178 236792 259429 241733 244214 266980
3247.57 261003 282716 288355 281719 288493 314931
3250.46 317303 286197 296077 303293 280688 246343
3253.35 187202 140333 108779 92428 61676-3463
3256.25-12395-39594-71765-91318-143747-154829
3259.14-186125-217318-202335-193112-227369-276040
3262.03-279095-277465-335858-393107-350552-282212
3264.92-293253-312555-321810-321002-295505-290878
3267.82-291256-276298-253367-267505-261024-283559
3270.71-352373-342040-300301-274551-260686-286271
3273.60-315126-320224-294910-262021-250329-257513
3276.49-218146-209192-275869-243654-211843-230992
3279.39-220911-192092-195722-215741-190053-164105
3282.28-164203-200723-215249-178299-151511-154321
3285.17-141484-95307-95266-114647-106541-123716
3288.07-108517-55436-77633-100449-98750-92649
3290.96-75161-76002-79669-83065-35630-11282
3293.85-3676 25559 21291 34157 41946 10341
3296.74 21587 18697 53968 97866 80527 110076
3299.64 113908 50877 66110 102510 102686 103553
3302.53 81963 72236 52462 27003 58122 62860
3305.42 34798 75779 108304 100238 57092 34601
3308.31 89146 112482 27777 10529 54676 73741
3311.21 85739 123750 130641 110091 153869 150417
3314.10 137945 150063 119290 82390 82201 72830
3316.99 83048 116453 95911 87972 73087 63427
3319.89 86146 74015 33875-19624-21268 13972
3322.78 46666 89095 106093 76778 29243 29065
3325.67 61168 72780 77461 53348 40404 34181
3328.56 13042 41976 41861 24815 69620 60349
3331.46 44694 62077 34126 34564 73935 83580
3334.35 48635 5412-23174 20543 74394 96949
3337.24 87460 86870 92834 51033 31046 58210
3340.13 112014 90087 36876 48663 55366 113487
3343.03 146446 109440 105298 94531 102892 75117
3345.92 82561 112520 121247 136314 134900 155143
3348.81 124250 105612 79640 2821 48374 80947
3351.71 41289 42220 50977 60436 60734 68760
3354.60 76892 84956 88610 137361 175233 188200
3357.49 203912 207775 174517 93775 66614 103215
3360.38 112908 107816 166711 185503 141276 106209
3363.28 46407-19809-45133-24391 5501 44194
3366.17 74567 21394-46442-17325 12729 18993
3369.06-9484 901 53894 22341 10881 8568
3371.95-48938-67706-34919-22049-50544-54238
3374.85-26665-34437-57668-39304-36847-63014
3377.74-92940-114512-91322-42637-31994-63058
3380.63-32568-15695-39696-35587-51209-78330
3383.53-63742-53440-43983-14321-6423-1877
3386.42-22753-69054-84439-68960-78352-52765
3389.31-4249-4694-24232-61954-85709-92713
3392.20-88796-87488-33380-16485-42518-49175
3395.10-34984-13990-54750-52407-14824-46116
3397.99-48269 1902-34820-26306 12076-32342
3400.88-32349 5801 10687 49692 30749-23833
3403.77 5756 4325-12647-3544 21046-7564
3406.67 2052 44087 21813 54217 72251 17354
3409.56 19896 43222-10380 19845 53622 33587
3412.45 3454-5633 7953 25684 100025 90679
3415.35 52627 73029 143466 111523 18105-6952
3418.24 12835 17790-26525-29669 37427 96904
3421.13 67526 44461 75311 73092 47586 49401
3424.02 64798 75401 71425 68761 76750 77631
3426.92 59735 3335 15194 51334 10075 2857
3429.81 8310 13940 41147 67866 58808 20111
3432.70 1185-32891-62803-92799-43506 11514
3435.59-2774-581-34813-46848-52708-45164
3438.49 8607 27141-2475-22053-7286 5237
3441.38-28366-83234-43278-3013-181-35493
3444.27-119589-98727-44797-19422-23415-31997
3447.17-39478-94006-89750-46261-46263-28066
3450.06-45878-79108-40932-24784-76172-69669
3452.95-47030-57430-75719-58569-22632-78426
3455.84-136899-118885-47289-63262-71925 15289
3458.74 38508-62184-105584-51513-72494-104445
3461.63-92137-118732-102327-69325-111770-92239
3464.52-103177-146295-95447-50148-78178-69586
3467.41-77295-138596-112045-75825-96882-98309
3470.31-84256-83578-123482-130195-82660-99607
3473.20-109267-107485-99712-66772-34201-23222
3476.09-75442-119307-90558-92139-79436-55586
3478.99-68523-45251-37906-66062-101235-98208
3481.88-78196-87121-92018-43564-16134-58793
3484.77-59637-33414 961 24688 5434-6132
3487.66 14507-1339-35797-41306-71055-42851
3490.56-12688-4547 3635 3444-1664-5559
3493.45 3917 56192 46442-9459-10068-9104
3496.34 36345 45601 49625 80633 103818 127844
3499.23 83228 40664 74524 88441 88672 96455
3502.13 142332 149776 125053 138360 135521 130869
3505.02 122366 106573 139465 155285 91033 63950
3507.91 49978 30069 40789 60876 26477 1583
3510.81 7250 19954 60667 69506 74479 106675
3513.70 156486 197836 191824 124854 107954 148321
3516.59 142802 122831 118197 92014 75223 81498
3519.48 89903 95151 50692 2509 59171 92753
3522.38 74419 67070 31698 22664 22697 8619
3525.27-29332-53719-36740-45636-25931 37103
3528.16 2298-33387 16170 38756 32416 10953
3531.05-6033-31160-34405-9106 8277 42945
3533.95 32587-55423-69200-11038-19174-46108
3536.84-58323-38088-42293-54827 25950 51791
3539.73-15690-50181-47756-36809-32722-34401
3542.63-18947 421-22672-41059-43099-14047
3545.52 11894-30071-48424-36686-22774-11956
3548.41 48073 52460-18061-14581 763-40133
3551.30-80672-65214-35620-36551-78647-91759
3554.20-56714-3709 19558-10471-56689-62504
3557.09-19500 6301 31-6862-23775-38217
3559.98-60988-63058-41875-47097-40890 2597
3562.87-24096-31392-650-25345-73807-79484
3565.77-14328-17672-26167-19578-30643-5806
3568.66-19794-51749-82223-79194-31391 4546
3571.55-12105-53964-18683-4941-26749-26552
3574.45-15402-52205-69512-50057-72819-59020
3577.34-35017-41895-47997-24425-27215-60123
3580.23-50354-18825-25215-30982-39553-64912
3583.12 9953 35418-14453-22681-33208-42365
3586.02-48858-37019-57025-23657-20458-43124
3588.91-18763-17985-37573-44858-27309-51043
3591.80-49553-32658-10850-1436 3905 1413
3594.69-37698-46413-24851-21393-56893-86026
3597.59-60009-42344-51569-38014-43058-21939
3600.48-20979-15112 26579-5815-40220-28460
3603.37-29843-47525-52510-70790-103123-106049
3606.27-81067-51488-43981-62598-56167-48208
3609.16-57177-65872-32555 3220-2282-19978
3612.05-22568-44048-63313-39786-35573-30472
3614.94-14659-29166-45320-24015 6866 457
3617.84-9087-14067-53227-41771 761-21052
3620.73-22498 5192 31074 44343 5904-16273
3623.62 7922 13912 5034-12065-16571 10744
3626.51 4864-35138-45779-24999-18541-45813
3629.41-10892 42108 36322 3-6321 30265
3632.30 59194 64285 24276 18789 42413 6918
3635.19-6794 51475 66237 41686 48892 73394
3638.09 62075 56461 82603 91932 102141 81356
3640.98 54005 103907 125495 96173 55243 59070
3643.87 86966 72660 66918 54865 69111 62513
3646.76 33795 55159 76503 46874 35776 45630
3649.66 68715 99770 105902 106227 87194 69310
3652.55 63637 90959 93073 70063 88902 100277
3655.44 77438 101138 102998 29929 24638 63734
3658.33 75236 73401 92055 103832 77371 63158
3661.23 67314 57724 38422 49206 33952 27055
3664.12 30997 17006 55540 55448 38213 33177
3667.01 31252 42003 22655-7648-23149 5282
3669.91-23569-85837-36648 15439 25137 15632
3672.80-23251 8375 25229-57214-94381-93473
3675.69-99557-51933-34696-52443-55549-22114
3678.58 4424-5780-19781-34405-38135-53509
3681.48-60381-71681-57515-28796-18327 11093
3684.37 14304-39988-50527-40596-40882-33725
3687.26-26480-53840-80289-60985-71545-80886
3690.15-112532-120077-59055-58166-57634-36768
3693.05-43199-682 4948-22980-1447-22652
3695.94-41841-6257-7652-11194-21669-41771
3698.83-21727-20746-35031-45431-43325-58548
3701.73-54653-26159-32576-29204-45668-60633
3704.62-38680-51797-81834-84660-49966-37371
3707.51-26715-18038-45280-44585-67672-63405
3710.40-35858-42432-95227-96720-17197 13982
3713.30-2257-32578-45701-31312-46296-78357
3716.19-59941-40861-35098-27565-30970-49267
3719.08-72236-32257 12812 12629 34943 22222
3721.97 11656 44578 42115 35494 64269 58108
3724.87 42916 57691 61298 67630 119564 143397
3727.76 129898 81157 59864 110310 151196 149606
3730.65 106902 112429 118750 150146 142394 123188
3733.55 150181 101951 94172 164214 131475 38155
3736.44 80803 119264 65214 95666 164724 202381
3739.33 233430 190268 141478 131358 128118 149561
3742.22 168192 175358 193085 102745 1132 8273
3745.12 30114 78888 107637 121336 141439 131906
3748.01 142632 118362 97741 150624 147424 150682
3750.90 134575 65874 40123 61886 23047-5912
3753.79 29855 56604 49146 37012 26023-8900
3756.69-12463-5068-20816-37390 809-3210
3759.58-33135-27977-26854-31928-33982-23260
3762.47-5096-5272-56570-76967-33785-27653
3765.37-74906-63062-22163-20855-30838-58674
3768.26-49428-32276-65289-70033-54947-53377
3771.15-52566-40684-25853-18046-1532-6123
3774.04-20497-20404-43874-65989-36970-46873
3776.94-54513-5865 7016-9798-48139-79886
3779.83-42198-38932-66424-50841-30427-3111
3782.72 19950 25007 10037-40196-31686-19543
3785.61-45009-45191-67395-31331-3137-33194
3788.51-24505-25610-41125-46109-38454-19455
3791.40-31244-10462-30781-72278-53667-58746
3794.29-54110-62357-58131-49783-50635-45102
3797.19-49703-50276-42962-30059-9374 720
3800.08 19291 4995-45027-18663-332-53676
3802.97-90285-55420-10584-12053-29635-46814
3805.86-77084-117774-90184-37460-57675-47638
3808.76-8264-16744-8215 198-21278-27041
3811.65-25070-57105-64340-28033-676 3918
3814.54-24731-55473-89026-86038-39711-16940
3817.43-41329-21031-13476-32225-33383-87031
3820.33-76576-73648-97534-46968-34080-19299
3823.22 3178-14107-39064-13020 8694-11163
3826.11-52135-79143-49360-36632-16287-12646
3829.01-44631-72587-57587-35787-69439-34959
3831.90 1672-13019-27112-57174-52744-76306
3834.79-76045-24668-25662-22023-41019-106970
3837.68-73460-27379-32275-10001-5018-62602
3840.58-93917-76997-78487-43032-24475-62335
3843.47-23461-4535-225 56869 56853 2792
3846.36-23586 9032-25993-68260-64590-66095
3849.25-33585-41043-63857-42073-93459-109774
3852.15-68840-78169-107708-147127-129999-69818
3855.04-44537-46054-38216-44279-53784-57111
3857.93-45678-8231 10574-12330-34679-28220
3860.83-45545-73564-78087-58471-43770-64919
3863.72-80731-81424-95013-36970 810-4944
3866.61 14370 8219 2330-61870-107268-64032
3869.50-82043-116029-64907 8136-12821-42402
3872.40-28982-52491-52678-34508-16258-11951
3875.29-45392-60840-37472-16333-11412-54486
3878.18-56166-42158-53301-24174-11062-33129
3881.07-16871-2565-3990-18650-4987 39487
3883.97 17442-2159-23736-53313-54072-51150
3886.86-32452 1364 5517 12117-7835-27778
3889.75-24204-25783 13114 21653 829 10115
3892.65 26669-24969-28060-8701-21922-10561
3895.54-41934-57687-50607-21521 1345-12660
3898.43-9499-16913-19088-35878-42720-22907
3901.32-37805-10398 28338 53570 112054 135044
3904.22 60359-23766-41602 11742 38769 42423
3907.11 45837 19115-15868-23789-8840 27749
3910.00 30803 13103 10929 16940 15885-4459
3912.89 28659 41622 38347 36872 30847 44642
3915.79 57094 38504 6239 35623 69267 78275
3918.68 66711 40650 47136 67475 107621 105200
3921.57 79389 89947 109095 153283 163995 129157
3924.47 95310 85679 89967 94589 81520 47008
3927.36 42297 64607 68926 75288 67782 31113
3930.25 20067 42079 65174 77389 106986 104815
3933.14 75548 67877 99941 130624 107256 68128
3936.04 73684 89150 112289 123590 114791 120056
3938.93 108893 76518 32622 30723 37012 60472
3941.82 81472 86061 88130 46648 18064 7125
3944.71-9223 19715 22721-7084-26235-20703
3947.61 8388-8486-3209-1779-25671-34483
3950.50-7937-6462-11540 5988-33010-32370
3953.39 11963 33713 3753-31597-53148-69526
3956.29-25549 20840-5231-14877-5250-27122
3959.18-35067-57017-74413-82743-79918-34559
3962.07-20976-41873-41305-49282-51945-38302
3964.96-50074-48942-14250-17423-50640-86476
3967.86-66586-47568-43077-27810-16363-8967
3970.75-16725-4217-39767-59539-39532-39511
3973.64-47617-83574
##END=
