##TITLE=1,1-Dichloroethene
##JCAMP-DX=4.24
##DATA TYPE=INFRARED SPECTRUM
##CLASS=IUPAC A
##ORIGIN=NIST, Analytical Chemistry Division, 301-975-3108
##OWNER=COPYRIGHT (C) 2001 by the U.S. Secretary of Commerce
##DATE=01/06/01
##$SPECTRA VERSION=1.10
##$UNCERTAINTY IN Y=2.2 % relative (B=1.21E-04,C=2.69E-10,D=8.94E-16)
##CAS NAME=1,1-Dichloroethene
##CAS REGISTRY NO=75-35-4
##MOLFORM=C H2 C Cl2
##MP=-122.1 C
##BP=37 C
##$NIST SOURCE=QUANT-IR
##SPECTROMETER/DATA SYSTEM=IFS66V (Bruker)
##INSTRUMENT PARAMETERS=KBr Beam Splitter; MCT Detector; Multipass cell
##STATE=gas
##SAMPLE DESCRIPTION=1,1-Dichloroethene Primary Gas Standard
##PRESSURE=101.3 Pa
##TEMPERATURE=23 C
##SAMPLING PROCEDURE=1 L/min Flow
##RESOLUTION=1.9290
##DATA PROCESSING=Triangular Apodization
##XUNITS=cm-1
##YUNITS=(micromol/mol)-1m-1 (base 10)
##XFACTOR=1.0
##YFACTOR=9.0949E-13
##DELTAX=0.9645
##FIRSTX=575.652
##LASTX=3974.606
##FIRSTY=6.87E-06
##MAXX=3973.64
##MINX=575.65
##MAXY=.000817
##MINY=-6.14E-07
##NPOINTS=3526
##XYDATA=(X++(Y..Y))
575.65 7555230 8250847 9530112 10898197 12808807 14997200
580.47 16965619 19497662 22126602 25416533 29257768 33134165
586.26 36970852 41177042 46389767 51792655 56908976 62100776
592.04 66992476 70691179 73372301 75030475 75437347 74844123
597.83 72548127 68205806 63239344 59123796 57304001 57163819
603.62 57786012 61543153 69790924 79868141 86793543 89159358
609.40 87532843 83407621 77900453 71525260 64886051 57846841
615.19 51005959 44602113 38537700 33245056 28791949 25014239
620.97 21843959 19160396 16824974 14810353 13006692 11246440
626.76 9708177 8345062 6852777 5742283 4925350 4141287
632.54 3371983 2650320 2076311 1760665 1525187 1206759
638.33 854873 680892 697901 532011 426755 386856
644.11 293418 417306 307813 170210 196605 299059
649.90 262755 102389 23452 91634 103191 51350
655.68 98744 257698 251632 93757-13426 24559
661.47 111824 283344 307374 282062 164200 27985
667.26 100404 243412 234022 287337 255035 182856
673.04 191301 240664 327216 529833 664363 919950
678.83 941246 385560 180704 345476 232841 64669
684.61 199011 334882 224727 334136 370269 307646
690.40 281436 248319 260295 315682 207464 49905
696.18 53150 222493 161930 138638 180690 294665
701.97 327699 223691 63501 51423 151916 217155
707.75 191680 311267 294091 285515 253414 264346
713.54 226609 293109 362550 306642 214497 285432
719.32 282275 281198 270765 382951 406242 467095
725.11 361989 427405 541080 575398 520105 568292
730.90 575615 598370 561078 653457 687844 715735
736.68 691686 871230 916001 918053 943911 1085270
742.47 1121992 1270896 1348825 1482424 1497442 1781137
748.25 1936294 2257026 2562830 2991801 3416580 4146084
754.04 4792353 5662146 6676428 8093577 9629658 11722077
759.82 13966147 16837427 19982701 23749776 27461815 31937514
765.61 36750178 41975893 47304728 54188159 61679274 71413717
771.39 83671246 100440697 120692336 145853001 168158338 187382470
777.18 213464199 246054528 284021445 320630441 350697396 395065592
782.96 434038303 448172934 458747258 500340503 514763958 459821528
788.75 416459102 433772251 452560110 524973562 588818478 582898744
794.53 578412732 414651022 332222024 409235607 461058200 484070841
800.32 488922910 490464494 472204544 438696517 388688417 331427989
806.11 270520038 213845393 163147880 121950995 88615145 64180458
811.89 46080757 34186461 25569670 20336696 16506557 14214515
817.68 12490827 11496222 10500172 10008717 9308491 8892798
823.46 8095911 8395171 8602883 11080258 11183639 8744961
829.25 7826332 8809178 9899298 11582481 12791142 14031568
835.03 15271324 17222462 18873222 21362568 23874115 27345629
840.82 30922030 35377615 39982156 45824399 51690249 58603029
846.60 65159228 72914676 79803698 88190819 95282819 101732801
852.39 107277358 114500953 119900916 124711980 126065792 128370534
858.17 129737631 141360373 188196124 220965307 172734396 143812106
863.96 124487075 138796351 128459486 510783028 898391810 481224541
869.75 168251613 151590279 138024920 160583550 168665617 160968813
875.53 149825226 151480648 149097589 149856741 146967241 146063265
881.32 141760940 138128343 131675085 125756069 118080970 113173666
887.10 110752473 96916143 78898440 69790287 60338313 52653427
892.89 45050563 39382180 33947036 28668700 24072141 21072925
898.67 18301623 16681799 15067043 14081614 13155795 12691485
904.46 12074585 11697409 10887358 10067667 8757126 7382279
910.24 5675508 4831022 4924314 5764843 6604022 7505201
916.03 7954156 8220005 8079468 7861924 7392406 6992458
921.81 6475950 6050158 5488028 5093966 4648775 4247068
927.60 3866003 3621891 3565633 3807324 5110959 6732248
933.39 4670981 2828686 3066924 2849193 2279291 2160411
939.17 2042204 1896857 1792651 1774098 1701127 1803260
944.96 1820704 1680805 1484518 1441654 1423810 1412488
950.74 1321316 1271990 1219918 1207609 1102245 1015288
956.53 981015 1005697 944812 946051 917552 897041
962.31 874212 912179 911929 952751 884462 823573
968.10 811937 829071 944786 1114243 926824 720194
973.88 619689 677528 870681 935604 871757 879921
979.67 841891 818753 743988 750641 736424 631803
985.45 565143 562874 490357 451228 428756 486346
991.24 452145 385288 415925 453486 483946 527812
997.03 520598 546866 572996 678071 818082 905913
1002.81 1054160 1107362 1068699 1209499 1318169 1366593
1008.60 1444259 1507162 1476785 1486654 1414182 1388010
1014.38 1446439 1628605 1917322 1775156 1523954 1300619
1020.17 1231114 1338267 1496981 1586785 1573090 1604601
1025.95 1607318 1517191 1426069 1342797 1238805 1116611
1031.74 991653 932991 922847 902031 915918 911020
1037.52 959384 969650 1052874 1170412 1255720 1323791
1043.31 1521178 1739279 1946099 2155299 2431348 2778057
1049.09 3398898 3998797 4713402 5408585 6137313 7160391
1054.88 8574996 10233498 12331007 14810293 18019876 21762014
1060.67 26359597 32191074 39512098 47978883 57501307 68969220
1066.45 82555867 97347167 112747468 129460234 148168855 165729594
1072.24 180269754 198450323 222484528 232646931 235799542 271523017
1078.02 301996986 282702445 296698607 390118557 418345373 345249055
1083.81 394173680 555841497 517506704 429334973 447036368 446385158
1089.59 444773233 420271391 405609982 414804300 482543303 457433811
1095.38 426896577 447963660 318366839 242727592 255163266 276133655
1101.16 300259820 312842419 314932445 301864508 277881993 243863155
1106.95 205788378 166241717 129607660 97326735 71572283 51543345
1112.73 37411384 27517115 21241476 17385915 15621563 14960066
1118.52 15295308 16325680 18345588 20270474 23039776 27655459
1124.31 32743465 39063006 50139308 57460109 59884124 64955380
1130.09 68091125 68816088 66669135 62360602 55852724 53154529
1135.88 52135789 76753634 117228398 84843799 45322930 41845180
1141.66 40226938 47935279 55899135 63505759 67626999 68620974
1147.45 66020602 60916211 53845908 45973919 37922359 30482230
1153.23 23734555 18199887 13708366 10265093 7704357 5909315
1159.02 4614943 3699682 3018770 2514395 2142277 1856235
1164.80 1639036 1468479 1644615 2338427 2055964 1351248
1170.59 1276540 1308509 1347756 1366510 1327768 1303891
1176.37 1281448 1163048 1027295 927794 828523 791236
1182.16 760033 649932 526579 466156 481118 457559
1187.95 409014 391841 364515 369924 369665 334123
1193.73 309798 297283 316428 332463 356345 353819
1199.52 329305 263233 223757 287959 334927 350169
1205.30 318664 257338 233553 192274 160749 132245
1211.09 84853 52545 84690 111176 74098 40484
1216.87 28707 42310 68934 90502 73377 42380
1222.66 30738 56154 86097 82123 97670 83913
1228.44 56622 99840 174294 199365 180396 200413
1234.23 239540 265400 308827 345282 378686 396487
1240.01 413626 423999 442067 442850 410625 470232
1245.80 487189 421169 451759 509171 610231 660257
1251.59 451882 344398 430602 465532 488124 511716
1257.37 501549 471446 444786 395910 319397 264643
1263.16 205384 100279 78153 101286 71328 20015
1268.94-1374 28476 28228 22265-945 14014
1274.73 62747 57015 27483 43329 62212 87792
1280.51 148851 148944 137571 192641 258687 262110
1286.30 275512 377796 478929 572610 673765 785914
1292.08 881801 1005436 1179834 1355693 1538282 1678485
1297.87 1881051 2122460 2391174 2696893 3001211 3382495
1303.65 3798042 4231732 4694432 5175002 5663871 6042083
1309.44 6275863 6478736 6534279 6344165 5853988 5054505
1315.23 4012297 3074196 2813109 3367784 4409704 5449401
1321.01 6156828 6518939 6558393 6410550 6150148 5746900
1326.80 5309237 4890968 4464470 4050252 3738733 3458359
1332.58 3200784 2933890 2681250 2481377 2333231 2165776
1338.37 1952627 1797201 1598991 1333912 1116104 964521
1344.15 927206 1080352 1232047 1371312 1537015 1563984
1349.94 1418987 1234169 1222676 1280325 1467703 1536865
1355.72 1434542 1407451 1347244 1305911 1288199 1298562
1361.51 1312839 1449731 1598895 1691239 1914999 2129332
1367.29 2325068 2546837 2781742 3115615 3531886 3964806
1373.08 4272450 4589159 5220727 6022203 6587956 7015522
1378.87 7649903 8531964 9267359 9493421 9929225 10804106
1384.65 11868421 12102074 11365929 11168135 11978639 12812995
1390.44 12951513 14197461 13351726 11089065 11883714 12555098
1396.22 12855101 15685159 14455216 10766067 10652453 10941351
1402.01 10615156 10215713 9867893 9253299 8411630 7298777
1407.79 6124243 4855480 3562914 2449420 1604539 1009690
1413.58 642982 452678 329532 212682 177454 92204
1419.36 79348 94988 89346 92223 59834 77039
1425.15 137101 115692 57809 75173 100672 88133
1430.93 68589 55714 66049 95301 86664 63812
1436.72 60653 48902 44818 50773 70678 82018
1442.51 82231 27128-19481 31037 59853 46672
1448.29 68421 119405 116842 85637 104515 112391
1454.08 143351 110477 32465 68860 114526 143578
1459.86 192474 200359 184315 170461 153555 191388
1465.65 205938 185303 187655 183150 187287 187166
1471.43 230800 302430 337535 342185 268181 216547
1477.22 225633 191814 173252 207693 227986 232329
1483.00 243731 211375 159931 162904 183880 174150
1488.79 156793 167980 156717 194231 246990 227605
1494.57 190655 194160 243317 242791 238728 265112
1500.36 311318 323734 328778 316989 279211 292585
1506.15 317131 355285 411402 473230 499219 525387
1511.93 580959 621100 690145 803356 869396 947838
1517.72 1072092 1211026 1297574 1422775 1631953 1879960
1523.50 2143429 2416471 2779160 3282960 3808236 4288598
1529.29 4879772 5567536 6332734 7173098 8013913 8688167
1535.07 9321429 9983546 10691257 11396631 12499466 14312880
1540.86 17311522 18631915 17527862 18319164 20696527 23441591
1546.64 26521720 29759501 33120606 36527633 39944293 43331374
1552.43 46656845 49928884 53331413 56800496 60265582 63633015
1558.21 66959331 70113139 72968947 75030927 75938736 75675260
1564.00 74301603 72230013 69629822 67141551 64739576 62814055
1569.79 63256987 65879522 69854003 76887681 84864924 90076639
1575.57 90651778 86757628 81207792 75027587 68697889 62531489
1581.36 56637484 51213651 46377333 42262018 39111988 37164611
1587.14 36477037 36792769 37514525 38362443 39330246 40566525
1592.93 42393606 45019075 48618845 53292269 58774402 64863653
1598.71 71593344 79178636 87808617 97704835 108986170 121778936
1604.50 136118842 151822112 168823905 186693142 204991894 223387847
1610.28 241162558 257593417 271672223 282138466 287939129 287780053
1616.07 281093140 267494825 247102971 222587283 197643857 178666255
1621.85 174813262 196139425 243777010 298823336 338265201 353105816
1627.64 346508426 327463944 302836487 275109919 245977289 216868570
1633.43 189149875 164131933 142613430 124162667 108320884 94791286
1639.21 83055117 72784990 63575106 55154165 47427264 40279982
1645.00 33775302 27981408 22894051 18560489 14928816 11902965
1650.78 9379695 7365765 5916078 4820085 3939108 3259887
1656.57 2706562 2315285 2006081 1750505 1554441 1403496
1662.35 1305648 1207142 1112875 1031998 958396 899902
1668.14 870658 863327 881243 893005 872082 873929
1673.92 889486 918713 946270 982919 1035799 1072011
1679.71 1097139 1084747 1059083 1014578 895737 894875
1685.49 957598 1026410 1218391 1221102 1149777 1150623
1691.28 1093458 1138071 1275311 1153163 936757 920791
1697.07 908665 920519 953708 927946 853675 770624
1702.85 740198 710396 670843 659827 647611 676889
1708.64 703408 730426 734672 739512 819950 875093
1714.42 961237 1072319 1163975 1319500 1503830 1720013
1720.21 1940553 2112816 2291349 2528701 2756034 2956664
1725.99 3210309 3596146 4095095 4673309 5373419 6139608
1731.78 6852440 7533007 8184920 8761761 9132375 9248454
1737.56 9086514 8419007 7151643 5485553 4046138 3668061
1743.35 4591709 6294959 8051619 9372545 10051310 10166904
1749.13 9844932 9214098 8544568 7836424 7189418 6688561
1754.92 6182210 5706938 5286021 4914499 4465746 4063908
1760.71 3736769 3128244 2618531 2328428 2074747 1876724
1766.49 1652783 1474891 1326078 1173394 1025469 1003168
1772.28 1178393 1195708 1145867 961486 591093 466049
1778.06 439763 408557 411005 411482 396548 371101
1783.85 333900 365177 387289 405831 438816 435029
1789.63 421849 396270 359701 335074 348894 347537
1795.42 301803 249935 195660 142426 176567 256178
1801.20 288434 309847 319818 337050 303083 371628
1806.99 657152 522591 178014 113925 107817 162409
1812.77 196211 153042 122008 109811 96632 82159
1818.56 68135 59603 39143 40423 49665 48228
1824.35 25263 22708 16684 16576 7119 15490
1830.13 36158 19778 28650 37490 54620 48409
1835.92 43039 89294 99373 97697 117515 152247
1841.70 186993 174256 189645 222619 240674 281253
1847.49 306689 339763 349926 366037 397810 394516
1853.27 444262 502677 504386 508210 502593 532147
1859.06 595950 642573 702180 747166 779204 842577
1864.84 909383 985140 1081483 1112568 1121510 1145819
1870.63 1174761 1200557 1207057 1217013 1215679 1210039
1876.41 1237972 1266292 1236808 1172292 1041817 911316
1882.20 817483 810341 901078 1041492 1188187 1271018
1887.99 1312752 1282635 1206990 1109900 1026631 953346
1893.77 842789 734459 678028 625098 518877 460139
1899.56 425570 425753 418060 372980 381305 368800
1905.34 330896 319433 349290 367618 352160 359060
1911.13 347391 328953 305974 270336 279682 307313
1916.91 352735 399256 424045 446733 465853 501539
1922.70 523602 545006 547944 522503 500564 516119
1928.48 513727 460520 448811 434265 385114 376654
1934.27 404669 414763 387478 330485 289930 291016
1940.05 318743 304963 227379 197326 192454 181669
1945.84 171407 143392 114980 109492 113673 89700
1951.63 58465 21813-11811-13909-44730-50137
1957.41-57270-73786-68412-45266-32313-54855
1963.20-42493-24144-42658-71050-43057-15467
1968.98-24823-37427-1388 31671 52798 71059
1974.77 85990 144474 185816 192870 201559 253190
1980.55 291794 312496 330984 329607 296517 294158
1986.34 324335 322309 314443 312911 351070 347577
1992.12 234946 178921 194527 196556 255758 323978
1997.91 323486 288333 208891 155751 117840 95542
2003.69 111237 107684 49690-17992-26987-28224
2009.48-35751-51534-53958-62435-90438-83169
2015.27-66404-68372-84397-56925-7874-28035
2021.05-59205-64508-67074-60333-56507-68674
2026.84-76910-78242-71403-50753-48307-52720
2032.62-60188-69041-65595-31810-15772-18360
2038.41-23367-45590-74514-103503-90232-50965
2044.19-53927-53108-29818-26234-39422-39904
2049.98-32641-25518-4071-30568-40561-21691
2055.76-37894-40617-37974-41239-33574-17675
2061.55-9747-19211-32238-31575-30378-27406
2067.33 13515 61382 61911 41250 62445 124858
2073.12 164423 164309 87413-8560-23222-17374
2078.91-584 7671-31152-37358-36478-36008
2084.69-17524-18004-18557-11658-25471-26973
2090.48-44855-47550-29750-8983-22323-45316
2096.26-57309-68133-56309-84802-85825-62405
2102.05-57276-76273-88177-82755-52169-93457
2107.83-118471-76448-55235-59472-100046-98780
2113.62-80927-55949-69578-76873-94068-89913
2119.40-61679-95834-128350-126652-131450-142204
2125.19-142281-129025-122235-144305-177009-177659
2130.97-163414-188462-224455-234469-227302-246545
2136.76-240771-231972-256386-263600-265444-269602
2142.55-282591-284263-293943-292723-314703-367993
2148.33-325851-295087-313883-305253-298215-299090
2154.12-317845-366842-371398-311448-297958-314438
2159.90-323731-348811-381325-392889-371693-318673
2165.69-288867-285652-282489-304259-372670-407411
2171.47-318710-255969-288162-310346-282213-227559
2177.26-250457-283707-290570-302597-279850-275417
2183.04-279004-299494-291970-254677-277150-310334
2188.83-274230-219102-214498-245488-290993-237208
2194.61-124152-87906-99151-96416-51183-16667
2200.40-38127-35537 5841 42928 53736 120832
2206.19 169052 310905 556355 471944 340602 380312
2211.97 420469 444750 461549 520235 555939 586625
2217.76 628036 642594 604029 571833 627839 710948
2223.54 749907 743307 706161 734376 847489 909862
2229.33 875069 813188 709858 605240 560445 487679
2235.11 396599 326998 278008 220897 159290 136101
2240.90 120798 72864 15058-5218 3465-4614
2246.68-44180-105900-109305-89522-99039-126433
2252.47-175847-200514-204107-187821-174589-192734
2258.25-216264-215585-216728-216757-202669-199430
2264.04-210806-214110-224977-212511-206640-217217
2269.83-217577-208396-185742-172714-195811-282847
2275.61-368043-381457-248414-112205-123521-187648
2281.40-184305-147811-194714-232148-204516-186191
2287.18-212229-233497-262298-255021-223287-237354
2292.97-249776-249114-249430-236971-220781-210671
2298.75-174925-172143-204382-208103-184541-156332
2304.54-149645-163523-171785-138428-94829-88843
2310.32-96234-83297-70699-54945-61584-77345
2316.11-83207-56550-5829 4004 4155 3581
2321.89 13062 27169 31084 74479 93360 90015
2327.68 103417 139160 137059 138455 170405 197308
2333.47 204821 209608 228152 198028 201164 245597
2339.25 226601 169307 149861 190771 262850 231403
2345.04 184656 194326 184171 183888 189020 221862
2350.82 210654 161446 127543 59674-21158-81086
2356.61-106751-121363-165461-190166-170994-136874
2362.39-134887-145823-134448-138629-142881-129996
2368.18-111953-107124-104424-77959-83797-128709
2373.96-146368-105690-63938-41152-29322-67617
2379.75-98196-60098 705 8071-896-11845
2385.53 1630 17019 15302 38456 78378 107875
2391.32 128846 134639 92293 101608 134356 156531
2397.11 197863 214134 233634 229803 246414 298946
2402.89 348594 377376 444851 521515 555205 642921
2408.68 700108 746763 836532 945927 1026207 1080834
2414.46 1142431 1230239 1332752 1373217 1396544 1459590
2420.25 1518293 1553325 1587344 1491708 1397240 1506487
2426.03 1611260 1540414 1528933 1635868 1476696 1268649
2431.82 1312316 1437873 1519661 1515558 1474085 1378698
2437.60 1212553 971633 726383 549166 412877 283366
2443.39 190257 134256 73710 42126 49524 60960
2449.17 61097 64887 30888 51281 78659 53986
2454.96-363 75613 265606 157670-6817-5537
2460.75 24149 48509 49887 23994-27037-43939
2466.53-7274 33447 25120 31630 39340-20953
2472.32-41275 15670-9869-53023-42721-30682
2478.10-29150-50647-42739-23640-5948-15405
2483.89-47932-50536-75902-85284-62456-55016
2489.67-54172-36895-53406-90340-93161-102943
2495.46-93797-57920-69606-121575-94176-75837
2501.24-88403-84853-105853-115345-93868-94138
2507.03-99344-79334-68646-49125-75477-82761
2512.81-60312-76455-105736-89282-71875-69244
2518.60-52973-51405-52709-47608-52885-57411
2524.39-62274-68805-76275-77014-35787-15115
2530.17-29643-49525-31396-37362-99355-70156
2535.96-79212-124939-119168-140293-143574-97395
2541.74-85865-114768-133668-162660-125043-79468
2547.53-107892-138986-125472-123874-152879-159857
2553.31-169962-159988-141382-155959-168629-145106
2559.10-162233-181246-136262-137893-130453-132948
2564.88-195261-203331-186457-196373-138712-94747
2570.67-140578-149276-158174-160653-146656-124360
2576.45-109088-119038-133971-118362-77170-72162
2582.24-86258-94859-123307-158343-159602-145711
2588.03-139400-111373-77106-86846-107881-116420
2593.81-118948-126336-109938-65836-37710-45449
2599.60-54424-42382-72904-91367-68169-41916
2605.38-34026-28511-21275-3549 13350 21105
2611.17 47601 75899 70089 57167 99952 142451
2616.95 112791 84975 90143 80004 33526 15184
2622.74 47694 74593 101072 124219 135339 129535
2628.52 137314 121593 126082 167127 195968 210515
2634.31 167096 126675 142392 161605 181862 150980
2640.09 140352 202087 217947 177546 189438 190475
2645.88 185820 207145 201083 159947 151296 198784
2651.67 211415 206941 154216 167587 251996 244512
2657.45 140292 129580 204746 257354 259392 248625
2663.24 231718 185831 157691 106691 82146 81893
2669.02 48905 26537 22066 22079 14889 17593
2674.81 29067 4058-27616 22569 74153 85248
2680.59 90390 107505 92801 59107 73600 106172
2686.38 148204 167237 172403 203640 272766 307868
2692.16 306552 312043 307696 332271 322769 279753
2697.95 322221 361515 367796 380810 356533 289446
2703.73 218658 251584 347379 392403 445296 499652
2709.52 490123 438791 387603 334833 269561 213639
2715.31 154442 125516 130963 88601 55934 28597
2721.09-24832 19349 44089 21253 12188-2656
2726.88 19635 35318 8381-29665-33535-29474
2732.66-44245-62843-101475-119790-77086-24069
2738.45 11640 42538 62321 36001 5722-4943
2744.23-4212 25475 29329 12258 22265-4639
2750.02-41462-2662 22448-39429-75866-44799
2755.80-84714-124475-60497 9779 19370-7379
2761.59-1854-42793-103305-123116-116939-102397
2767.37-106987-141122-167868-107535-141368-187273
2773.16-149443-130558-134129-146697-156151-131051
2778.95-99835-81734-98846-118202-133241-154056
2784.73-145690-166875-160506-78902-65197-104677
2790.52-118005-118460-120545-174027-191648-190001
2796.30-187352-115594-104711-155883-164798-180130
2802.09-186439-171010-155908-122181-141070-155236
2807.87-159032-143919-91532-100672-109826-116994
2813.66-126734-108143-92385-99466-76758-74502
2819.44-122105-141215-123933-61190-1384-26253
2825.23-90758-52201-21881-74839-58742-8801
2831.01-9523-29448-39628-51937-41540-16720
2836.80-30333-33820-18729-51862-29501 22155
2842.59-36686-68395-30102-25725-41726 18570
2848.37-5945-87294-94363-112415-55675-14143
2854.16-50849-45406-19314-36040-27744-29436
2859.94-49287-10441 33888 10-65788-44438
2865.73-7652 56227 98093 41252 46596 88543
2871.51 38274 8243 83760 153048 119395 37005
2877.30 19539 59789 69277 74041 61523 59969
2883.08 72469 81546 88734 76053 104945 110571
2888.87 67456 36869 65700 37642 17876 26791
2894.65 27873 48265 28750 50055 43735 11949
2900.44 45509 47962 39120 85132 97612 62043
2906.23 38874 88001 91812 71842 147937 163425
2912.01 157829 173312 112308 81151 148091 237840
2917.80 261124 241282 220857 268775 337805 280396
2923.58 202063 168519 159713 166790 139910 144342
2929.37 192220 217703 301256 431253 459717 430294
2935.15 361587 339632 378302 413646 403385 411034
2940.94 395897 339873 424353 447441 401292 437268
2946.72 462101 414112 392719 407928 432016 463014
2952.51 431957 404917 416738 425536 451770 503148
2958.29 500510 501836 470465 460734 536601 507244
2964.08 409637 416393 385835 272013 264251 313016
2969.87 288696 271687 314025 296828 220349 173595
2975.65 210969 261719 241355 184589 216545 295747
2981.44 307060 305411 368272 417809 461130 524827
2987.22 562118 609256 664272 672038 718954 748149
2993.01 726678 725144 676190 593233 574329 528800
2998.79 392858 391014 490213 692405 849447 928598
3004.58 954112 886291 851538 773336 664235 563879
3010.36 514028 496400 472183 439207 442618 423554
3016.15 320307 271952 288324 299067 298774 292865
3021.93 258621 269815 345429 381960 392996 428151
3027.72 430164 409530 443335 534284 640755 675537
3033.51 692946 847099 974635 1009195 1021177 995704
3039.29 983677 940899 824418 677549 563959 444282
3045.08 366911 473618 664194 857119 994717 1054712
3050.86 1030910 935509 815031 757097 738180 629381
3056.65 538033 510752 491149 429772 344290 308914
3062.43 236769 174784 156828 105858 28048 31100
3068.22 68775 53656 22115-34677-46136-5105
3074.00-28762-71140-61996-6793 21885-29284
3079.79-88834-91676-71407-79957-79652-35352
3085.57 21383 16150-10470 436 17054-9003
3091.36 21919 7346-58764-52414-57123-59028
3097.15-21355-19239-50793-33094-39495-59435
3102.93-13804-28533-105391-138645-171153-175810
3108.72-140883-118622-66195-73318-99150-105847
3114.50-168928-235814-283991-286494-343337-390980
3120.29-368038-335287-358800-413929-367953-365430
3126.07-406170-379791-396156-407318-400544-396845
3131.86-396088-411241-389493-367268-394998-359214
3137.64-319109-330361-285805-266359-299127-259318
3143.43-184967-197696-265087-324527-351051-314050
3149.21-303183-347625-321702-240589-191604-207159
3155.00-189533-122130-54174 14366 73434 105913
3160.79 165528 279070 397362 493828 521567 556456
3166.57 662458 819681 955579 1072307 1172097 1311256
3172.36 1481192 1610286 1790813 2018786 2217391 2308170
3178.14 2446482 2676050 2792599 2905992 3088611 3212587
3183.93 3216022 3255865 3301056 3225829 3132290 3080777
3189.71 2995185 2961119 2947889 2823729 2778434 2976902
3195.50 3350118 3753146 3938267 3813338 3517047 3180120
3201.28 2870870 2501402 2127260 1733788 1357272 1078469
3207.07 866096 665641 476089 351399 291055 281899
3212.85 237977 112385-8092-80474-121584-165786
3218.64-255969-313236-335020-326816-322774-341157
3224.43-242449-182349-178159-71605 4370 36569
3230.21 60540 99556 138846 150511 217705 368451
3236.00 463953 508589 571879 599133 619632 610104
3241.78 577032 598718 606829 529674 494216 518986
3247.57 548677 570007 595403 588589 565303 461887
3253.35 294197 167929 36079-80902-189140-312106
3259.14-381782-420177-496882-594069-675339-617456
3264.92-599799-615512-575511-545445-520366-589745
3270.71-635091-559147-568268-598654-536854-476454
3276.49-465232-472586-435837-407077-388815-353151
3282.28-371161-357055-288338-225412-211486-215448
3288.07-164664-175196-173048-151535-122265-35901
3293.85 29965 59182 48231 67811 153305 190360
3299.64 158090 173335 192421 134347 102290 104300
3305.42 155203 162256 138035 139642 88289 141891
3311.21 222176 255771 284809 264169 193037 164736
3316.99 195568 171609 150809 119155 17021 37279
3322.78 154531 137184 91618 131843 114819 69190
3328.56 69406 91742 114354 97296 104331 125399
3334.35 40131 60327 164334 173202 119953 137795
3340.13 154154 116776 201454 233806 196115 180072
3345.92 211010 260280 271170 196499 103885 109738
3351.71 106699 117934 144211 176016 264163 366259
3357.49 364465 236847 188685 259263 304160 193186
3363.28 6462-23936 73660 35459-17200 15007
3369.06 28850 50370-20992-81030-76008-76921
3374.85-80720-82705-129298-175581-117411-79099
3380.63-63710-80430-120404-102171-42077-30784
3386.42-105746-144595-83639-37870-106014-170058
3392.20-128712-71718-71449-70156-75494-67116
3397.99-49617-29711-34819-741 49111 14144
3403.77-4095 6057 15046 50711 91538 75229
3409.56 39810 51922 56758 14141 89330 146173
3415.35 180393 158043 42544-914 17071 113900
3421.13 134079 119506 118086 132641 147135 126813
3426.92 65713 48580 26710 45345 97844 51753
3432.70-62772-108922-29766-18240-82864-49013
3438.49 5829-9664-34931-85504-43196-94425
3444.27-153396-65671-69786-137333-114359-84803
3450.06-101299-100221-116185-121216-106128-157110
3455.84-189928-115765-32047-79312-151566-173045
3461.63-202448-181078-201095-215442-153909-153432
3467.41-206345-193128-175287-196276-212998-197318
3473.20-199926-130411-101271-176953-172373-129990
3478.99-102097-133663-174937-159980-103054-87119
3484.77-55969 11410 9301-18315-81943-73057
3490.56-9568 2632 10332 61404 23819 17678
3496.34 85785 161058 193738 146405 159919 221997
3502.13 265260 268862 249608 248945 242880 147355
3507.91 89778 87589 38777 67713 135891 231178
3513.70 334011 288269 257255 254435 186715 173478
3519.48 145093 93372 136529 119884 54244 5292
3525.27-70376-53424-323 5650 41597 27948
3531.05-42104-10444 34382-42163-69956-64261
3536.84-95274-33631 16220-53898-80618-46393
3542.63-34617-56163-37798-39333-68862 11114
3548.41 39405-12196-80492-104717-104136-128298
3554.20-37277-33955-79577-16422-20751-75877
3559.98-104406-76797-45307-32172-73328-97599
3565.77-48684-43062-39054-96645-111119-41050
3571.55-48066-41404-45327-87126-117817-103864
3577.34-79915-68662-83261-61453-66162-54391
3583.12 3999-36394-78478-82216-66694-51619
3588.91-54319-69265-82259-59277-8141-25990
3594.69-61140-75965-118576-101953-77474-55887
3600.48-12110-18993-62591-84218-145984-173474
3606.27-122004-101054-109458-90547-31382-29492
3612.05-80645-83174-53627-55223-39247-3882
3617.84-45788-53550-30562 15482 43054 9803
3623.62 8874-3316-7237-36591-60592-33029
3629.41 32436 31710 55674 95550 58097 39834
3635.19 72920 110878 118731 140064 174020 165104
3640.98 186867 181422 139358 145313 129912 113688
3646.76 114315 107543 109418 179641 194049 155645
3652.55 162020 170280 178036 178921 115465 109457
3658.33 163689 172687 142863 109575 87980 62559
3664.12 72225 89983 76374 56183 10510-34301
3669.91-73934-8631 18761-2253-80163-169645
3675.69-117357-88092-48961-20260-59433-97538
3681.48-115241-64005-6711-48017-84201-67732
3687.26-102846-131348-169540-179440-119564-79651
3693.05-31044-15985-42580-31296-30127-51928
3698.83-55190-77723-97278-70961-71924-90443
3704.62-115714-129865-79489-56523-99722-99188
3710.40-118943-116277-25088-41995-85041-107817
3716.19-89119-58028-89054-50788 32509 50485
3721.97 66969 96547 110346 112982 170199 242569
3727.76 191835 216578 265746 236348 269764 266547
3733.55 241973 241964 189973 173871 238431 372890
3739.33 366847 275199 295962 337480 199054 61094
3745.12 149151 241302 266473 242931 264606 272139
3750.90 168782 84634 49716 83499 72754 10854
3756.69-24299-28783-27232-46838-59485-34106
3762.47-51614-92257-95292-89290-62096-80425
3768.26-98727-111958-104825-72940-34277-18920
3774.04-56755-89330-87138-32442-41265-99963
3779.83-97533-84007-11206 22493-34853-63179
3785.61-88013-67283-41876-61508-74780-54417
3791.40-51649-97018-111838-109182-101377-91622
3797.19-88684-53004 792-13011-41381-89082
3802.97-96253-40269-104091-165875-122488-68380
3808.76-29315-20462-49190-88253-58845-20481
3814.54-105076-126870-68110-46368-62807-123641
3820.33-151986-106542-37007-33542-27099-42318
3826.11-108236-68141-55604-101159-103440-60643
3831.90-37302-88419-125786-77691-68350-130781
3837.68-89540-36046-103027-147189-97516-70390
3843.47-16007 61017 28874-31512-93273-110752
3849.25-86583-130919-164128-178815-228558-162866
3855.04-84695-92924-92653-36133-24962-72494
3860.83-119714-117851-122041-151787-84664 220
3866.61-2373-94294-163997-147255-61723-49292
3872.40-90555-60954-54559-80409-53698-73196
3878.18-91843-56061-36649-20436-8171 27782
3883.97-2963-78869-79476-15535 5516-34270
3889.75-20549 20341 20991-15024-32343-44078
3895.54-83371-46319-14543-29635-54464-54245
3901.32-5719 127030 174328 23785 9187 83094
3907.11 31020-11983 29788 44328 27513 35884
3912.89 68189 77794 88912 74950 84853 136358
3918.68 110868 149771 190283 197077 271351 253441
3924.47 186814 173750 123927 123450 138646 91307
3930.25 91793 167871 183019 175989 211203 176378
3936.04 182434 230562 223104 149504 82123 121581
3941.82 159929 101213 24675 25790-440-20753
3947.61-967-18088-36440-12997-22004-21278
3953.39 21669-47125-81659-13199-13207-47673
3959.18-104001-139330-88452-68698-87721-89601
3964.96-68143-64123-119017-100880-53898-25426
3970.75-41414-80417-88937-127026
##END=
