##TITLE=1,1-Dichloroethene
##JCAMP-DX=4.24
##DATA TYPE=INFRARED SPECTRUM
##CLASS=IUPAC A
##ORIGIN=NIST, Analytical Chemistry Division, 301-975-3108
##OWNER=COPYRIGHT (C) 2001 by the U.S. Secretary of Commerce
##DATE=01/06/01
##$SPECTRA VERSION=1.10
##$UNCERTAINTY IN Y=2.2 % relative (B=1.21E-04,C=2.69E-10,D=8.94E-16)
##CAS NAME=1,1-Dichloroethene
##CAS REGISTRY NO=75-35-4
##MOLFORM=C H2 C Cl2
##MP=-122.1 C
##BP=37 C
##$NIST SOURCE=QUANT-IR
##SPECTROMETER/DATA SYSTEM=IFS66V (Bruker)
##INSTRUMENT PARAMETERS=KBr Beam Splitter; MCT Detector; Multipass cell
##STATE=gas
##SAMPLE DESCRIPTION=1,1-Dichloroethene Primary Gas Standard
##PRESSURE=101.3 Pa
##TEMPERATURE=23 C
##SAMPLING PROCEDURE=1 L/min Flow
##RESOLUTION=0.9640
##DATA PROCESSING=Happ Genzel Apodization
##XUNITS=cm-1
##YUNITS=(micromol/mol)-1m-1 (base 10)
##XFACTOR=1.0
##YFACTOR=18.189E-13
##DELTAX=0.4820
##FIRSTX=575.17
##LASTX=3974.606
##FIRSTY=6.27E-06
##MAXX=3974.12
##MINX=575.17
##MAXY=.0013108
##MINY=-7.48E-07
##NPOINTS=7052
##XYDATA=(X++(Y..Y))
575.17 3447616 3705732 3774020 3677230 4058554 4637300
577.58 4860977 5119226 5400513 6125958 6887072 7302005
580.47 7702479 8104554 8760041 9670942 10162165 10625076
583.37 11611852 12426904 13494166 14555216 15535419 16403548
586.26 17558665 18455284 19395378 20348718 21878634 23340808
589.15 24870735 26129642 27502451 28965107 30152915 31489707
592.04 33123612 34401214 35337683 36161494 37055776 37606837
594.94 38164054 38492375 38787139 38610731 38516269 38501643
597.83 38109630 37075254 36053453 34718066 33002304 31596067
600.72 30411608 29180982 28367009 28142272 28329566 28350965
603.62 28178531 28043159 28773056 30215669 32116559 34777905
606.51 38195923 41435005 43714391 44999278 46262325 46623828
609.40 46163107 45349346 44335828 42999567 41644789 39980749
612.29 38300180 36475044 34821255 33009045 31259237 29220898
615.19 27284653 25660987 24029716 22211287 20660395 19126766
618.08 17577961 16293340 15257177 13976702 13077535 12211582
620.97 11296048 10529431 9933935 9274813 8614497 8059812
623.86 7632552 7102280 6646896 6194569 5866460 5344927
626.76 4845289 4540295 4357934 3917100 3537281 3058010
629.65 2805641 2576252 2394234 2185313 2057002 1801933
632.54 1646232 1427598 1278189 1060539 898054 752247
635.44 727796 632665 605749 588164 527978 367593
638.33 336719 192328 166958 109006 145078 195680
641.22 264874 58465-20775 26557 169780 25364
644.11-30594-75324 68897 126667 104824-15282
647.01-11418-87801-63860-55980 41017 19354
649.90 72089 35134 12103-141206-91409-124663
652.79-111533-85738 6771-89331-55232-121729
655.68-76350-116942 14070 60011 71632 34374
658.58 33035-105373-82097-174944-111360-84562
661.47-92404-85835 26273 47898 147966 18618
664.36 59139 71528 65665-49854-51075-132310
667.26-126418-78111 53521 11462 68889-12385
670.15 26129 56092 104794-5469 43606-55306
673.04-40825 18002 26265-48378 50468 47692
675.93 126297 141043 259128 237693 308657 341947
678.83 559416 535514 319868-42079-96675-71523
681.72 107146 57056 82167 37320-23879-178161
684.61-133822 1 160899 53792 29243-39535
687.50 37108 34022 127834 110850 94898-31895
690.40 61077 51127 41017-21917-9192-2467
693.29 120832 22011 25157 28388-26556-192869
696.18-131596-124560-30530 859 56401-86141
699.08-58600-102384-15869-48328-26859 13579
701.97 112645 34878 44763-29344-43440-163830
704.86-125057-160926-72661-101661-615-12631
707.75-26862-147007 6184 47853 69746-73739
710.65 8935 14989-1981-82983-11501-13581
713.54-15345-119106-22748-30622 29049-6366
716.43 82282-29518-80286-131947-15696-47910
719.32-28758-68572-17241-66838-63771-108798
722.22-22016-3106 39672-56244 34724 40743
725.11 68263-125095-65838-20438 55204 37793
728.00 87571 47674 50141-18958 49182-2119
730.90 66685 2043 80242 846 10720-12120
733.79 42720-12781 76587 65715 73352 7555
736.68 45917-2154 56931 76503 188302 128102
739.57 121026 43363 104235 75007 164807 124120
742.47 160579 149023 199157 171868 246418 220679
745.36 279125 257775 281063 194280 276336 376482
748.25 463362 358897 461515 523635 643567 643166
751.14 760108 835036 907907 966063 1214768 1308494
754.04 1492122 1638400 1808563 1927390 2198452 2447461
756.93 2799980 3058146 3437431 3814142 4287479 4816051
759.82 5350000 5838442 6586006 7268163 7991393 8815563
762.72 9766210 10687963 11582813 12435915 13487391 14606550
765.61 15776268 17025577 18375183 19482745 20581357 21975482
768.50 23548564 25228732 27002286 28909809 30832073 33242413
771.39 36236379 39541704 43056638 47790662 53087623 58349083
774.29 64426519 72181855 78704145 84603273 87920973 90317967
777.18 97558219 106389065 113962072 121480180 131212762 143409364
780.07 155319219 162717218 168079123 176333941 186913447 200269258
782.96 215397526 228111443 229478556 226478392 227780354 232289412
785.86 240335692 255559555 274546991 282073315 256202710 223250059
788.75 210256361 203910152 203961746 212284000 223125209 230151540
791.64 230393888 251917246 303605123 345768695 303325593 260979287
794.54 311000226 366272129 278397680 160172406 140981032 152829506
797.43 174039231 201411596 230344783 239669081 244851757 249129134
800.32 250168705 251781627 254884442 254089693 251609650 245457910
803.21 237923353 227006463 214897938 200181976 185108424 168301762
806.11 152446098 135729728 120315144 104816589 91421952 78323283
809.00 67318286 56591889 48032359 39757876 33427185 27338642
811.89 23036538 18665652 15947079 13079722 11409435 9244105
814.78 8335782 6914476 6625081 5586190 5348394 4474180
817.68 4701926 4124155 4290674 3669099 3905374 3403993
820.57 3828775 3311021 3466582 2979290 3539707 3033149
823.46 2967902 2293683 2967481 2943818 3226579 2468103
826.36 3545396 4844333 6065667 4696757 4191862 2696607
829.25 2892209 2397065 3102702 3027234 3844536 3657118
832.14 4570687 4564009 5506601 5288248 6036007 5696939
835.03 6542549 6430579 7416728 7370298 8320947 8173331
837.93 9281239 9335727 10604597 10698322 11984569 12324389
840.82 13908867 14243725 15897926 16361202 18158020 18781450
843.71 20904711 21657256 23867914 24825930 27265945 28220476
846.60 30672899 31727256 34383765 35563192 38338736 39269098
849.50 41907046 43278524 46753610 47666802 49653595 50087649
852.39 52693605 53275696 55965915 56549847 59504832 60083022
855.28 62328829 61554141 63476181 62538998 63834078 62232112
858.18 63864007 62117155 64242599 65945381 73875406 90537760
861.07 130756380 125203166 103330959 84232166 72286982 62937343
863.96 62318889 56360407 56581476 50483049 51599832 44924139
866.85 51560718 153797577 565166081 720634187 406985840 184780039
869.75 91171050 66399598 56217344 61702241 60962261 66611814
872.64 66840397 74839294 85781862 92917016 82044830 78236705
875.53 74278218 75584273 73786762 75507144 74147185 75898824
878.42 74487832 75479710 73924017 74888191 73416645 74048534
881.32 72227444 72410242 70345884 70126188 67799776 67139673
884.21 64682997 63773736 60639557 59950649 58069573 56204289
887.10 54801296 60088896 57075314 47633893 41310369 39128154
890.00 36161358 34458133 31582213 29855236 27219715 25717260
892.89 23292089 22102909 19833880 18826655 17456738 16840412
895.78 14528190 13428951 11862684 11411200 10127311 9795942
898.67 8709239 8548472 7652992 7741791 7046085 7061204
901.57 6342646 6548841 5991325 6207898 5715715 5996756
904.46 5500838 5778440 5379961 5625059 5107458 5283439
907.35 4758635 4849432 4215958 4186293 3537055 3450591
910.24 2600738 2443190 1773172 1874864 1613634 2120753
913.14 2044030 2591815 2588776 3148545 3170034 3669327
916.03 3545054 3971834 3786947 4065722 3801861 4045666
918.92 3707599 3881491 3518786 3652575 3286367 3420824
921.82 3034300 3183404 2815616 2925669 2575809 2646740
924.71 2270063 2445471 2125311 2224412 1875424 1993466
927.60 1666745 1805734 1492561 1640712 1428693 1592658
930.49 1354130 1798910 1806239 2117253 3003662 4621195
933.39 3371252 1818134 1113201 1186288 990683 1463541
936.28 1486802 1369861 889364 989438 775818 986887
939.17 813963 928684 714704 844472 631555 823253
942.06 629040 795492 623580 764558 596140 801339
944.96 762771 905642 613895 794490 563898 649013
947.85 473083 632843 493536 669207 485008 639414
950.74 474004 613378 416959 553550 410406 558000
953.64 395005 544039 378704 502734 315092 408032
956.53 266798 441602 295395 435635 291115 418594
959.42 246204 407338 279963 404456 246426 382870
962.31 235068 368083 253397 400459 253760 405009
965.21 274924 424988 300160 393773 214617 323376
968.10 216601 355979 204945 329408 239308 399191
970.99 350868 605905 413658 369688 188813 307591
973.88 117511 202432 99669 257274 169715 392541
976.78 369128 414675 236479 382798 279671 377727
979.67 244028 367400 252832 341788 202527 321026
982.56 173816 278646 230396 345164 153474 221846
985.46 103526 212512 88603 216808 96790 157222
988.35 27613 152061 23498 123035 23544 171128
991.24 86329 165230-16031 77863 438 131483
994.13 32050 124671 36199 163264 59503 183664
997.03 72150 160729 60679 184815 64876 193196
999.92 89737 221741 186119 337740 246831 337872
1002.81 265463 461098 412482 477448 298989 409139
1005.70 360568 511617 445322 578246 488014 568802
1008.60 477472 648333 563917 651301 549583 642277
1011.49 520572 629633 545381 601005 441233 519372
1014.38 484654 633203 510634 596065 689068 1031295
1017.28 824983 648894 594182 719703 435827 417079
1020.17 339673 456635 365302 477198 449942 610637
1023.06 549107 655236 529970 608901 534994 644931
1025.95 542074 648853 532557 568151 440277 518301
1028.85 409334 474058 335423 409075 270963 339264
1031.74 188662 241136 112723 204343 124419 191889
1034.63 76772 174778 83317 162996 66731 153963
1037.52 43297 171247 83199 139395 37151 174269
1040.42 115236 233276 147025 239904 143518 248796
1043.31 175783 318536 290933 442523 372305 476244
1046.20 425716 594686 512739 651901 619472 797622
1049.10 799162 1089425 1187662 1365274 1348150 1674710
1051.99 1802014 1993855 1957507 2239527 2342286 2683038
1054.88 2895473 3354267 3593932 4093775 4465616 5080453
1057.77 5498111 6237200 6814423 7754680 8544298 9580313
1060.67 10425580 11691751 12932770 14613656 16217895 18269456
1063.56 20173063 22614727 24815616 27106025 29704290 33036184
1066.45 36439707 40176215 43439072 47770754 51906546 55456597
1069.34 59077579 64150934 69147067 73850152 78622006 83846749
1072.24 86703221 89676969 93354002 98503837 105262430 114641675
1075.13 119470065 117114273 114307894 114921985 118994728 133570656
1078.02 157675289 163834146 147660524 136090539 129673082 138361770
1080.92 160580373 205555756 243705002 234310351 182146526 154515099
1083.81 158309229 175666214 229325321 338821592 351776358 245424742
1086.70 208310092 212910725 221500065 227144729 229035337 226145352
1089.59 227581027 229326573 224028089 210054021 202910215 198444867
1092.49 201471620 209662503 211221445 249035223 296756738 243652918
1095.38 183800803 187262187 262084820 279999880 193493817 139471000
1098.27 116774243 110520281 113923428 122135186 129974447 138378213
1101.16 145690874 152819072 157884214 161704895 163149915 163108918
1104.06 160713236 156723427 150639720 143381728 134605556 125037099
1106.95 114541845 104021743 93252266 82830968 72516834 62963258
1109.84 53978410 46013286 38710241 32516067 27015172 22391823
1112.74 18427346 15368020 12753220 10702123 8980561 7798086
1115.63 6778124 6168673 5732764 5578297 5402715 5493519
1118.52 5569812 5846456 6028488 6439642 6995361 7766334
1121.41 8314133 8689035 9087358 9990252 11174436 12698276
1124.31 14066254 15318246 16556337 18211676 20694366 25311840
1127.20 29491766 29499258 28658905 29647795 31371718 33185634
1130.09 34249296 34776300 35020735 35213986 34814536 33989077
1132.98 32769643 31257158 29312949 27244247 25449273 24750193
1135.88 24671698 23993900 24457838 32782478 53722766 78325108
1138.77 73629263 37989938 18512865 20689477 21802527 17725846
1141.66 16421230 18681678 20638844 22954861 25611605 28228699
1144.56 30561636 32617870 34093632 35158674 35612173 35655231
1147.45 35150166 34301957 32963305 31385248 29508664 27560102
1150.34 25378686 23191352 20965345 18873264 16807804 14913717
1153.23 13019433 11312648 9745369 8463711 7231208 6150626
1156.13 5175266 4443419 3709477 3178155 2690319 2322755
1159.02 1983439 1769642 1479375 1335568 1156866 1065488
1161.91 892462 825771 723177 690079 592963 563616
1164.80 483471 486989 396602 399124 351296 432968
1167.70 638299 1194011 1221151 787013 452191 365626
1170.59 342243 407358 379662 434338 453080 469704
1173.48 457050 522814 481961 479192 447458 485361
1176.38 476378 500456 442955 425121 361284 361257
1179.27 296485 315851 267989 262142 203335 251176
1182.16 249149 266560 183402 187887 147365 122069
1185.05 47116 97636 93330 106064 94112 133483
1187.95 52979 75395 58393 89212 48165 65057
1190.84 32404 79191 67269 91750 34389 65371
1193.73 34800 49844 24546 40214 20739 75219
1196.62 44397 66976 51717 105560 72371 92056
1199.52 60931 88316 45162 54936-23390 4893
1202.41 16239 69472 61137 96672 73891 112687
1205.30 80530 99071 41093 46731 15275 56499
1208.20 21218 14778-22527 19713-15470-8289
1211.09-41774-27243-65630-60584-72443-21385
1213.98-31673 10580-39587-34693-66291-35240
1216.87-81747-67557-60113-40971-72103-16930
1219.77-40106-7169-29868-23049-57136-34221
1222.66-74952-49963-64607-27902-46719-1852
1225.55-21731-26388-50896 18666-18839-15637
1228.44-57696-32602-44383-21891-52 53603
1231.34 30995 55999 28919 31050 13422 50895
1234.23 32132 87819 59992 66705 72766 133367
1237.12 87222 122600 126841 150585 132992 155763
1240.02 137503 171638 148563 169689 156175 179430
1242.91 163348 204667 146831 138806 134215 214029
1245.80 218342 212591 154305 164175 132340 179099
1248.69 185862 230688 203319 257588 324589 368376
1251.59 248875 157943 82784 109003 110464 200351
1254.48 184030 185645 180140 221105 194184 233173
1257.37 214271 218369 188948 218102 170200 189560
1260.26 171081 180897 115965 116106 96901 96027
1263.16 61652 73213 29601-2936-58882-9615
1266.05 10815 25957-32226 7571-24472-35606
1268.94-80390-47260-50328-18879-38912-20468
1271.84-59026-14718-45843-51667-77559-30114
1274.73-36130 6577-22673 2197-43323-36367
1277.62-50093-17411-32514-379-32986-10500
1280.51 1182 59719 28387 30008-387 29347
1283.41 11 51854 67767 97027 76718 94465
1286.30 50575 78602 84569 147774 167269 192150
1289.19 193581 248324 253754 293219 298595 352104
1292.08 367395 402141 383233 448890 492301 558319
1294.98 564503 631222 676384 745537 748595 787730
1297.87 807144 899029 948682 1031873 1044571 1154215
1300.76 1231729 1327017 1358235 1461037 1543011 1665081
1303.66 1760411 1886145 1975612 2101538 2220927 2358883
1306.55 2450166 2613744 2734300 2883586 2981583 3107004
1309.44 3138650 3188321 3232953 3344863 3362934 3364412
1312.33 3311620 3300217 3157041 3009902 2785806 2568905
1315.23 2265572 1937185 1588741 1333508 1165872 1182540
1318.12 1266962 1524921 1831046 2168340 2475750 2807671
1321.01 3019703 3164543 3278587 3395609 3388042 3373285
1323.90 3306939 3287063 3216939 3150526 3016647 2914374
1326.80 2773989 2675889 2539415 2457696 2326438 2231055
1329.69 2093167 1986562 1892012 1853833 1764291 1708156
1332.58 1602314 1575157 1521280 1431536 1319594 1315401
1335.48 1249677 1186493 1133610 1153341 1085052 1068698
1338.37 969435 924006 881968 875601 807748 770488
1341.26 678198 607612 518887 499233 431014 402068
1344.15 359104 376016 389775 491195 541758 594375
1347.05 543531 658838 724067 733127 780369 800935
1349.94 709897 683945 614237 538064 482555 586227
1352.83 587847 548303 584693 734189 793684 758652
1355.72 673425 666435 653174 691626 634100 607105
1358.62 595947 623320 566884 582260 569745 605264
1361.51 580243 573454 570778 671238 731153 754678
1364.40 720260 769319 819505 901612 944124 1041771
1367.29 1030035 1082402 1159368 1237598 1240517 1308341
1370.19 1382724 1510011 1584970 1706549 1822550 1962049
1373.08 2044604 2094101 2088619 2207320 2350411 2537252
1375.97 2754073 3048401 3232029 3269635 3341416 3506285
1378.87 3582843 3791557 4013060 4292986 4570442 4789147
1381.76 4752413 4719737 4773325 4947964 5147498 5432489
1384.65 5779440 6131828 6343867 6343021 6007826 5593784
1387.54 5356001 5503326 5792098 5941096 6165158 6827289
1390.44 6820069 6077607 6427000 7762904 8294023 6779711
1393.33 5324946 5318574 5480813 5616722 6404044 6937690
1396.22 5940662 5792882 7001487 8829531 9692859 7560756
1399.11 5416529 5041119 5036373 5228748 5474221 5704417
1402.01 5528382 5294273 5211186 5235249 5108590 5026322
1404.90 4894774 4746601 4519236 4311350 3997875 3686710
1407.79 3370258 3085251 2731640 2412778 2025605 1688620
1410.69 1343088 1099083 851366 651708 466631 357355
1413.58 249874 194318 102064 111749 101061 81869
1416.47 1909-48 3884 30733-18648-44999
1419.36-67692-35548-21485-1713-39291-28079
1422.26-18284 20301-43477-42759-37816-15025
1425.15-11250 33533 25239 30860-30922-42668
1428.04-34323 5500-14064 6490 3295 9251
1430.93-25116-14023-18198-11236-45904-7537
1433.83-1875 8823-4570 24871-26397-22197
1436.72-11404 882-38138-12552-28951-17852
1439.61-33887-14279-22080 363-9620 8328
1442.51-6950 11629-10241-16126-78085-74488
1445.40-55294-16027-21996 4090-27930-23591
1448.29-29602-6964-6568 34322 27123 30042
1451.18-9139-8415-7726 22748 4205 16702
1454.08 8069 34734 42604 48668-50388-65533
1456.97-27031 1686-21586 27458 13297 30704
1459.86 21011 70097 71161 64146 29900 60423
1462.75 42368 45189 21122 18987 29548 61282
1465.65 50534 76920 46230 34042 34889 60884
1468.54 46070 31122 27165 68063 32407 35924
1471.43 28216 71629 90402 109042 109798 143618
1474.33 121647 138315 121587 88256 34165 48924
1477.22 51879 82091 42917 41322 16184 28305
1480.11 24265 55142 55273 68289 45843 68894
1483.00 54231 77253 68475 52357 15429 18121
1485.90-1299 24510 14133 44422 24785 30870
1488.79 750 18081 3246 22651 14261 16473
1491.68-19433 28211 56543 82567 46454 38914
1494.57 29443 44077-18026 5093 51453 59209
1497.47 41709 52186 26540 45615 32987 55343
1500.36 51753 89613 86026 82793 66736 87231
1503.25 80666 86315 46525 35956 26934 71980
1506.15 47929 48372 61434 95155 70664 103643
1509.04 123123 144875 136836 152695 129290 154066
1511.93 154639 189387 177387 191808 193979 216052
1514.82 238344 300736 297536 305841 298519 337327
1517.72 367784 405031 404699 484018 500555 500376
1520.61 470680 548338 617095 640469 686673 778161
1523.50 842419 908857 934058 1015648 1099549 1201659
1526.39 1278344 1453097 1620657 1742581 1806552 1937141
1529.29 2077469 2258393 2385763 2579907 2778232 2990532
1532.18 3157594 3404564 3647580 3870235 4016933 4164734
1535.07 4302046 4468927 4611658 4770819 4925421 5127307
1537.97 5267700 5359828 5583791 5914529 6252974 6819917
1540.86 7579983 8573420 9690799 9864032 8639474 7989637
1543.75 8210676 8704883 9268258 9930699 10662981 11439476
1546.64 12173554 13009769 13854931 14704275 15551528 16440217
1549.54 17312017 18187830 19077242 19964487 20802919 21682239
1552.43 22557716 23401751 24187056 25018859 25897016 26784928
1555.32 27678589 28578157 29456689 30391172 31272390 32096632
1558.21 32942465 33905522 34718666 35512538 36308138 37118551
1561.11 37757424 38249930 38514683 38670581 38683318 38548110
1564.00 38132266 37621394 37082926 36558731 35735027 34888614
1566.89 34198778 33549771 32907894 32202355 31312628 30775117
1569.79 30672840 30866170 31725040 32734165 33236379 34369194
1572.68 36237270 38431922 41306165 43788456 45075496 46581381
1575.57 47519895 47023078 45775941 44434062 42915505 41328822
1578.46 39589451 37877739 36142364 34466319 32773921 31151486
1581.36 29545584 28006455 26492061 25116243 23772948 22528886
1584.25 21350605 20327318 19373718 18601068 18002780 17592599
1587.14 17311322 17261856 17337335 17540667 17734726 17943451
1590.03 18134327 18370055 18569042 18806171 19018706 19319328
1592.93 19692417 20172079 20716973 21442476 22239098 23198389
1595.82 24318707 25622001 26970915 28410883 29882195 31489303
1598.71 33119796 34835421 36630826 38656333 40731608 42965946
1601.61 45324772 48013119 50749080 53703954 56864868 60270702
1604.50 63856145 67714710 71630855 75798192 80152986 84706518
1607.39 89321164 94072366 98825458 103642115 108505403 113434055
1610.28 118171622 122823965 127342733 131659818 135646185 139293407
1613.18 142407152 144979349 146930237 148229937 148705374 148255437
1616.07 146716361 144561640 141511996 137151715 131728927 125604814
1618.96 118757453 111424081 104097994 96819388 90021229 84644534
1621.85 81539526 81254944 84239101 92216293 105307469 121533866
1624.75 138755720 155122819 168717449 178021586 183697445 185949634
1627.64 184674188 180788475 175519000 169538752 162910909 155842546
1630.53 148405070 140780582 132947907 125093127 117232466 109520403
1633.43 101989980 94777147 87933127 81577412 75771187 70556162
1636.32 65642632 61123954 56897060 53085424 49580072 46325184
1639.21 43271318 40458736 37835432 35376147 33025916 30823518
1642.10 28656428 26594844 24628743 22764138 20918076 19147978
1645.00 17448022 15877657 14384142 12967551 11617240 10436999
1647.89 9287980 8253941 7326108 6508909 5701092 5009625
1650.78 4372968 3805552 3244039 2808434 2432233 2184214
1653.67 1919737 1672784 1477434 1301424 1134435 1017259
1656.57 884140 773442 668293 627031 578865 510399
1659.46 438914 415362 374642 359578 300963 285981
1662.35 289148 291526 249353 251054 232677 227973
1665.25 196518 199461 181847 185285 151700 153957
1668.14 159556 160292 148432 173475 173021 195112
1671.03 198436 225844 204733 208095 195379 223040
1673.92 227498 235875 229061 266522 273717 287490
1676.82 267355 316569 330458 342914 352863 377588
1679.71 380139 394831 392143 398254 374311 382414
1682.60 368672 381482 340327 267413 238581 312624
1685.49 323228 343380 330258 365424 406778 531965
1688.39 571488 498757 424462 453440 478310 476506
1691.28 430692 422736 411782 457925 487232 583806
1694.17 598045 499794 350708 325096 348145 366313
1697.07 340877 347766 341008 372371 354993 395449
1699.96 412450 356897 351318 349717 306871 275329
1702.85 255738 294838 270308 258046 243895 234203
1705.74 233227 245808 219581 227678 223816 248647
1708.64 263408 262013 254493 285153 282238 289632
1711.53 254033 261806 290777 333958 336952 348723
1714.42 340669 394250 423810 461927 466239 467276
1717.31 523937 592368 600428 663718 725540 785445
1720.21 829806 917110 945917 980619 1010887 1071153
1723.10 1116038 1196084 1258042 1314764 1339854 1404655
1725.99 1442953 1509067 1586548 1722745 1826643 1976171
1728.89 2114649 2268139 2438517 2648356 2852723 3075707
1731.78 3254563 3452097 3598903 3811449 3994802 4139677
1734.67 4319567 4505519 4605456 4690675 4743037 4771313
1737.56 4740822 4719695 4598034 4350649 4029024 3646020
1740.46 3146215 2628927 2098140 1703679 1473328 1451532
1743.35 1642349 2058223 2536663 3081343 3618834 4141255
1746.24 4539580 4877785 5107622 5243573 5283758 5277337
1749.13 5193704 5099010 4909046 4673441 4485710 4360053
1752.03 4151276 3935474 3720122 3592721 3469668 3348602
1754.92 3203325 3091828 2945432 2834821 2715682 2624092
1757.81 2530114 2452853 2330198 2226374 2081961 1957121
1760.71 1927275 1947518 1735760 1454542 1317774 1244498
1763.60 1164525 1110399 1013732 970752 938844 897524
1766.49 811649 771034 712210 680766 642393 610222
1769.38 564370 544159 471719 437575 419435 431434
1772.28 436784 596596 664241 551856 509442 568077
1775.17 603952 485753 292922 209546 177429 170753
1778.06 170167 176312 157974 159260 143377 166632
1780.95 174504 172345 151060 164871 161553 151159
1783.85 131621 115070 117808 157984 162401 163373
1786.74 150811 170326 184395 208510 187350 187377
1789.63 190612 191654 171455 174826 161555 150169
1792.53 136003 137981 128407 154939 158791 156810
1795.42 135252 127016 109133 99217 76032 69455
1798.31 46589 31303 10570 49194 92188 121518
1801.20 96083 124721 131732 142561 117299 140352
1804.10 150047 149792 134271 131182 105166 116027
1806.99 216259 415131 459366 257999 73719 39962
1809.88 18460 22287 9241 22225 24636 62167
1812.77 82010 94313 71399 55897 28257 40395
1815.67 39425 35287 16440 31342 23528 27202
1818.56-1193 13354 14516 14303-8548-814
1821.45-12921 1733 2490 1150 1286 21644
1824.35-8582-16561-17050 1503-15651-14329
1827.24-16319-10250-19532-5629-31674-27829
1830.13 1753 25892-20818-24160-7783 1846
1833.02-8268-2360-7012 20500 12441 3167
1835.92-9793-6118 2033 41210 36282 32551
1838.81 20769 28721 26295 49465 35683 56316
1841.70 73597 90013 75563 66913 48980 83205
1844.59 85441 102411 91858 93619 112919 133556
1847.49 130031 137045 135232 167171 162903 159431
1850.38 150642 163524 178011 199884 174723 177452
1853.27 169070 209382 236707 251696 235107 239134
1856.17 236629 243036 232758 237208 220534 244208
1859.06 265057 294085 291423 303846 315336 346670
1861.95 353859 369333 352804 378781 391903 403059
1864.84 422157 461481 452863 470708 514443 564627
1867.74 545869 558364 550921 546964 563790 580674
1870.63 553424 589522 596850 602166 591152 602603
1873.52 597437 613219 604018 600248 599166 607587
1876.41 586463 617666 635654 650197 629432 617802
1879.31 610973 598276 557309 513882 455069 440507
1882.20 408309 377812 346144 375226 398891 430532
1885.09 455685 512074 562347 608789 625330 643944
1887.99 658069 678766 670762 656747 620851 613902
1890.88 585257 556655 512339 514888 491962 483649
1893.77 447618 405903 374687 365241 319986 317296
1896.66 328141 326183 262314 230829 213213 222631
1899.56 199479 190401 182270 202437 206000 212300
1902.45 172194 159112 166329 187731 178178 183316
1905.34 152383 143105 144213 147763 132900 164879
1908.23 181862 185086 158330 159863 165014 178281
1911.13 164739 170249 147800 155303 151848 144665
1914.02 121060 116786 108893 123085 130898 145776
1916.91 138084 161471 186319 201760 190325 199488
1919.81 210035 228883 209797 219381 229802 258563
1922.70 252416 250426 254274 286839 271430 267969
1925.59 264125 265419 239424 237179 236327 264557
1928.48 260692 259774 239665 220085 201242 219391
1931.38 222539 226876 185679 171342 175088 180822
1934.27 175569 197027 214379 207022 194417 196624
1937.16 173804 160389 130108 128809 128425 142752
1940.05 133566 157093 166208 169807 121587 88015
1942.95 81052 101115 79860 84683 87332 84264
1945.84 73946 86468 67861 66049 51947 42459
1948.73 36726 53068 45899 48757 48134 49333
1951.63 17068 13844 18980 12599-26773-28439
1954.52-16810 525-30274-40548-45545-36374
1957.41-27222-34880-62597-46201-48744-47170
1960.30-47844-30669-26182-6934-35864-50934
1963.20-44812-20257-26314-19939-19410-20758
1966.09-52269-55491-55435-26372-17688-7917
1968.98-23670-21435-27277-31003-48527-7402
1971.87 17509 10432-8493 19824 35302 34668
1974.77 8283 25812 52023 72283 76182 92991
1977.66 93224 96059 83140 81005 102335 133437
1980.55 133165 146516 142260 162349 156804 163946
1983.45 166962 173662 151727 138941 126688 141528
1986.34 146745 166547 165160 161095 139916 159227
1989.23 161741 135688 146667 195916 191167 186340
1992.12 159301 101299 56155 76464 88910 84712
1995.02 84314 93796 79480 119479 157919 186437
1997.91 159983 162222 162252 164337 116504 91713
2000.80 77810 75108 54278 54535 37214 31936
2003.69 34262 63620 61649 45935 38249 42577
2006.59-20315-39241-23219-15270-29092-19087
2009.48-30448-18964-28574-37685-44187-31671
2012.37-30988-31379-55947-61274-58279-49550
2015.27-46740-39187-35384-38308-53589-53723
2018.16-52515-48012-14686 11870-5988-15222
2021.05-42785-35508-39388-38361-46244-41236
2023.94-39357-33035-43947-23624-37823-40598
2026.84-52512-44168-45842-44759-55904-40172
2029.73-41980-23257-25590-34542-33996-21828
2032.62-40507-39455-37113-39991-51147-44113
2035.51-36030-14699-11610-6282-17644-12121
2038.41-12405-11634-22474-24320-43101-39149
2041.30-54708-68808-72169-54761-41103-19803
2044.19-30814-29411-42695-35301-32335-7835
2047.09-15533-19171-25323-17546-33994-32245
2049.98-22569-15569-21381-27113-21253 21370
2052.87-6761-29006-42414-25270-13961-12399
2055.76-21550-20358-35397-29579-21960-18756
2058.66-33594-28933-26364-20085-25159-11350
2061.55-5767-8733-13844-6821-26172-25642
2064.44-21685-23065-27356-12994-31783-23958
2067.33-21879 3049 20009 35694 35566 32730
2070.23 14272 15756 5933 17550 43013 73733
2073.12 72798 90892 96085 92444 79829 52866
2076.01-5636-22120-30560-19534-18882-7298
2078.91-26792-6191 12775 12185-19187-18889
2081.80-39746-26424-15368-18258-43992-23422
2084.69-9641-15041-16792-2506-23521-10657
2087.58-20275 428-2928-25932-38441 4587
2090.48-14353-40475-46255-20918-19881-25873
2093.37-21100 4233 5494-18675-31433-24299
2096.26-34877-22739-40604-59055-37428-3413
2099.15-39280-69577-60432-31439-53593-36619
2102.05-29256-19109-38090-54801-46271-39569
2104.94-66589-48008-33521-27128-16250-43395
2107.83-95113-85913-46449-19416-48373-43474
2110.73-13170-4605-62457-75138-57584-39191
2113.62-62912-54324-35984-9107-33145-47184
2116.51-44058-38715-38317-50237-77486-47791
2119.40-29751-22507-37567-48615-70075-75643
2122.30-72176-66643-64807-69161-79686-75546
2125.19-75931-80405-76732-62188-65785-57154
2128.08-66382-72480-89371-98279-99139-97455
2130.97-93829-69295-79019-110158-113798-106534
2133.87-132505-136938-114494-106371-127519-130622
2136.76-142417-124789-111254-111405-136298-131617
2139.65-138551-139173-138527-135485-139085-137559
2142.55-147507-141172-152205-154096-140675-144037
2145.44-168978-155492-136266-142541-204542-210110
2148.33-192451-169465-143070-139165-165889-165581
2151.22-166621-150867-155922-151859-153750-151445
2154.12-151149-158717-182069-188966-214401-205146
2157.01-184926-146633-133842-157405-168713-147538
2159.90-161781-175755-172201-161131-202342-211331
2162.79-197680-206262-216843-194777-183326-158290
2165.69-147451-142082-150812-142717-142887-142250
2168.58-145291-143471-175058-195923-227849-231094
2171.47-215781-157843-120978-112677-140125-149613
2174.37-162566-163901-170288-146953-133088-98505
2177.26-99910-130940-152708-152488-144419-141648
2180.15-168338-165805-154545-134987-145392-138547
2183.04-144803-150674-139404-151969-182202-162894
2185.94-123953-119866-141293-138017-158134-176515
2188.83-176636-140427-124728-102100-105994-113087
2191.72-113474-123281-149902-174521-174457-130113
2194.61-93903-51723-43495-31563-57903-56324
2197.51-55120-59523-55891-28533-6688 246
2200.40-18347-29557-39367-22678-22960-8644
2203.29 16738 20741 11799 13010 16494 60514
2206.19 72552 80675 74790 113597 235023 389578
2209.08 335781 218849 162225 152754 166488 184188
2211.97 203828 207626 215320 232185 215780 219103
2214.86 237118 272187 276308 281229 277207 294933
2217.76 311235 325460 317695 340475 322203 299801
2220.65 281246 267846 275384 321492 335630 365934
2223.54 374345 398534 380074 370343 377717 350610
2226.43 321425 360485 404318 438499 467473 484108
2229.33 476768 455104 425216 424130 411821 358295
2232.22 310838 302147 286121 286752 275580 249770
2235.11 207583 194894 181619 153432 134624 145414
2238.01 128968 97955 83035 78104 53910 55843
2240.90 72133 63704 35210 46676 8111-10143
2243.79-9387-12504-14523 7719-2832-1119
2246.68-13097-20811-46216-65749-82472-71998
2249.58-38449-35724-69338-46440-48042-63501
2252.47-89847-96715-107761-107235-117387-110879
2255.36-107051-100447-92780-83237-95367-98372
2258.25-111240-119226-121709-109418-107947-120239
2261.15-120445-105916-118447-105121-97873-101085
2264.04-108111-110775-119092-103818-111132-124568
2266.93-131647-98633-99276-113577-109819-113150
2269.83-119544-108756-114366-118372-97807-88164
2272.72-91467-88576-78136-83783-123171-150354
2275.61-179574-205000-227097-219870-198853-136987
2278.50-63085-19279-42735-63459-73035-93955
2281.40-131307-106987-61179-61260-81540-101236
2284.29-127440-128333-123873-104859-92103-85076
2287.18-101216-109512-125627-113542-128392-140940
2290.07-154042-139588-117006-100594-116630-133155
2292.97-127066-121206-145658-128863-122563-133035
2295.86-141438-120457-111528-117961-118242-106706
2298.75-112995-79843-74361-87187-98794-111510
2301.65-118511-112326-106069-94932-98070-70484
2304.54-71932-80224-86580-76672-96499-101268
2307.43-94812-71010-53139-48931-46837-34215
2310.32-55119-57344-55347-39195-38759-36133
2313.22-50521-20784-7111-47404-53421-31402
2316.11-39085-63148-57722-27120-11046-5758
2319.00-451 10854 807-13812 694 11837
2321.89-12799-1564 5477 21488 18178-12615
2324.79 4875 64509 55284 30783 29905 65535
2327.68 45336 22863 54225 97421 77009 52242
2330.57 48495 83866 72698 68634 98345 115081
2333.47 91829 101565 107997 103205 96203 129234
2336.36 134968 76724 61794 119423 120219 109059
2339.25 140722 140858 78156 66163 75393 74260
2342.14 54228 83164 130030 150398 143368 127774
2345.04 80479 77743 95275 107192 91358 88089
2347.93 79675 98976 98169 80163 89925 135321
2350.82 131485 102853 93271 84754 67901 76177
2353.71 51680 26902 7270-17449-49573-37128
2356.61-65100-73775-51235-62346-79629-89649
2359.50-118842-102601-99972-109787-77112-59754
2362.39-80467-57830-84580-87450-66609-82954
2365.29-61109-64856-104843-66536-69232-80037
2368.18-67876-57692-45801-62431-73321-46055
2371.07-52210-43370-36518-26769-58268-86370
2373.96-88358-72535-87884-71926-29065-25671
2376.86-35341-35154-6391 6406-37198-40880
2379.75-53814-64268-64252-40706-17553 16157
2382.64 7553-4287-3911 2769-8242-17188
2385.53-18871-4950 11210 4972-3522-3958
2388.43 4867 17536 13178 34983 57625 53196
2391.32 42814 66956 79298 70379 46628 41101
2394.21 21835 32932 61533 73823 57885 54343
2397.11 93629 106700 96571 100387 97491 122925
2400.00 126193 93407 87762 129427 126415 130899
2402.89 161374 179633 167914 184173 183679 205170
2405.78 254019 277324 255100 255155 290220 329082
2408.68 350744 347054 338701 373546 392758 408620
2411.57 438062 491496 503890 515697 531357 544027
2414.46 555065 574971 589516 615451 650916 693975
2417.35 693356 701661 688970 701762 721221 737336
2420.25 757938 780103 783065 788662 790692 837119
2423.14 820370 753801 677954 669831 709358 761935
2426.03 806367 852398 835335 770472 720070 761972
2428.93 822558 869592 864018 764234 624385 589823
2431.82 613763 658205 683969 726210 776753 794543
2434.71 787697 780392 767632 775633 751500 706143
2437.60 682331 636892 564228 494679 409387 352147
2440.50 300915 259539 225060 198171 156366 126822
2443.39 93123 69275 64118 65501 32891 10668
2446.28 6211 11392 1305 4819 18540 42932
2449.17 8143 14088 28887 43260 20681-15126
2452.07-7048 34792 32823 30768 48082 21581
2454.96-7871-13972-18569-12559 78644 246818
2457.85 174475 48180 4712-19778-36153-14590
2460.75 1026 2233 18872 29863 19293 25292
2463.64 25571 17186-14395-24929-31149-36757
2466.53-33729-6126 12570 18177 23389 6909
2469.42-879 14193 30070 26480 8596-10209
2472.32-54718-36649-9489 20229 23985-3785
2475.21-42557-39452-25455-24633-29492-14571
2478.10-12747-14038-23618-33319-38699-27217
2480.99-15546-7814-18799-4374 12500-2711
2483.89-27351-38756-25384-19147-34374-45476
2486.78-58387-45313-47688-33210-22937-29173
2489.67-39332-27679-24232-17304-17315-15626
2492.57-45410-65408-49327-45581-51857-57375
2495.46-70699-51133-32391-28183-31104-15172
2498.35-49739-94359-79284-38976-24845-37013
2501.24-61994-43475-37706-44790-50178-58600
2504.14-65342-60353-70624-46971-33385-43903
2507.03-78328-49603-42303-43999-39738-36997
2509.92-38226-10242-18385-50735-57866-49139
2512.81-29863-22507-41245-32311-48496-67893
2515.71-70988-41088-34235-37113-43220-44305
2518.60-27068-21980-31632-28091-25763-25088
2521.49-37008-22218-17694-28401-40012-33443
2524.39-16497-38005-47537-31094-33621-43705
2527.28-54783-42957-39314-13442-3992-2595
2530.17-7909-13887-28885-23979-31015-21620
2533.06 647-1434-35452-77462-80327-13925
2535.96 3111-53983-80929-53662-67276-69177
2538.85-63955-64082-91689-97543-60563-30514
2541.74-50169-39018-35442-70540-80635-50567
2544.63-73513-111635-99228-54546-36318-38089
2547.53-34604-51644-76535-79371-70213-70564
2550.42-54690-50277-76852-89867-84534-78181
2553.31-82201-97670-99940-74907-72930-76665
2556.21-67972-78573-89395-98628-90244-60641
2559.10-60798-93213-105388-97150-93515-64446
2561.99-48475-68744-92758-71419-37254-51705
2564.88-98355-115828-109480-110778-106369-89236
2567.78-99455-109906-113573-77554-26585-18644
2570.67-72298-85778-76560-71088-80051-91679
2573.56-78987-91471-88302-64300-79158-72745
2576.45-44957-48914-65280-62845-59641-74514
2579.35-85298-62371-44369-37846-29877-27263
2582.24-47332-46554-40763-44509-62336-54153
2585.13-73729-104217-86495-80263-85164-81784
2588.03-70491-68406-90094-53440-33150-47028
2590.92-27426-36379-67303-56056-49808-71659
2593.81-68930-54054-65608-72765-79009-59269
2596.70-41504-38382-26886-5511-12874-31257
2599.60-35940-18309-33570-27100-4040-38570
2602.49-78575-53884-30457-43608-42441-19943
2605.38 460-26894-36984-7001-3061-24328
2608.27-23273 4343 9586 3112-4753 10186
2611.17 18494 17675 27648 44036 54039 28749
2614.06 15745 26087 31429 37585 76234 93652
2616.95 66874 59757 40282 29807 44526 54433
2619.85 37970 37757 44630 5000-15685-5311
2622.74 13229 21372 26379 32342 39699 56847
2625.63 53964 57459 68296 79449 62392 53933
2628.52 65541 75132 71569 51133 42174 61447
2631.42 67981 89768 89393 100533 111577 110922
2634.31 112911 81621 54013 53955 54379 73252
2637.20 78355 69316 89476 97175 98365 72379
2640.09 42152 55884 83819 114252 111193 119740
2642.99 112797 67140 70838 102553 112110 93170
2645.88 76219 87092 102482 112058 110180 90192
2648.77 95581 93701 48234 41763 94513 129501
2651.67 96516 86859 117972 128272 90060 48058
2654.56 51399 86929 105454 122066 165370 152526
2657.45 83475 47735 36855 46665 78027 110105
2660.34 116801 138124 146818 137829 116994 125441
2663.24 137446 127882 93449 90867 88601 78508
2666.13 70803 46093 30385 32142 38050 51550
2669.02 35393 7145 7800 18060-47 1172
2671.91 8573 8792 9890-2766-4886 6413
2674.81 20112 1817 11875 11530-22917-45331
2677.70-23627 17104 31553 37958 34026 48937
2680.59 43470 41667 35502 60549 74118 31857
2683.49 27370 25345 7811 38467 39332 40301
2686.38 61995 79326 81425 80820 82541 80592
2689.27 81164 95210 114917 138772 168087 156871
2692.16 155707 155773 146893 167897 160821 141836
2695.06 145216 184865 185170 156166 142564 132383
2697.95 127376 149608 198818 200821 158133 181937
2700.84 215451 193467 179294 200311 168223 136873
2703.73 114788 89691 82547 106794 153076 185277
2706.63 193838 194540 205431 223882 260245 263559
2709.52 269110 259757 240405 231342 203256 198159
2712.41 190273 170529 149074 138046 113417 101097
2715.31 99816 70494 38602 62793 68300 61197
2718.20 63842 47708 16550 14593 28452 24150
2721.09-12204-41427-44407 31751 40193 9256
2723.98 9300 13484 8563-5168 3899-13572
2726.88-7891 11116 18736 25002 18743-2107
2729.77-10155-17535-31976-25501-8963-14472
2732.66-21217-26805-30342-31841-36359-65657
2735.55-80870-67997-62119-56065-26795 2419
2738.45-8859-5931 21595 35274 17778 36505
2741.34 46522 22589-13699 2248 3281-9117
2744.23-4445-26242 7541 32788 2868 18192
2747.13 20347-6622-851 20179 16294 5225
2750.02-30138-48550-13824 6550 9070 22135
2752.91 17427-23792-58590-62942-20122-9067
2755.80-31222-40900-69806-98386-61756-28506
2758.70-9939 22209 12725 15862 16980-13372
2761.59-21656 18619 16260-28540-52501-60829
2764.48-62895-64216-75297-71356-49037-41771
2767.37-55651-63353-57498-52686-100795-125431
2770.27-77964-17731-33994-91292-107393-104515
2773.16-90989-78940-75608-46486-71347-82126
2776.05-61332-74063-85396-94549-78145-66790
2778.95-58529-44787-52916-31415-28705-56308
2781.84-66622-58119-59223-64931-84310-91442
2784.73-73177-71601-80223-87224-101094-107116
2787.62-62347-25362-12751-19051-52770-60951
2790.52-54621-54986-74484-64126-44016-58233
2793.41-71364-93199-111874-115127-86003-89818
2796.30-117647-121624-74879-45616-34372-44539
2799.19-66652-84218-102420-78701-75163-102019
2802.09-111972-95319-92408-83708-100115-77710
2804.98-67405-66375-43568-66023-106683-85726
2807.87-57473-86140-111861-74261-52087-37792
2810.77-34496-57590-62374-53048-54640-61012
2813.66-67929-75355-64093-52415-49882-51722
2816.55-38101-53087-71136-29483-16855-33003
2819.44-53442-75188-74922-75582-83589-80800
2822.34-48368-29298-15883 18769 13951-4225
2825.23-39014-72922-55089-28712 1272 8125
2828.12-27063-55389-56056-42876 103 2340
2831.01-5789 2523-9194-12654-35541-18383
2833.91-6730-47953-40538-13004-13929-7180
2836.80-6686-17062-21203-31194-13649 8190
2839.69-14195-40170-49016-26935 28877 17863
2842.59 14545-15070-69161-44210-18297-21101
2845.48-8714-4141-19544-45412-25752 34596
2848.37 42318 7621-52178-60713-50088-50059
2851.26-53588-76531-75037-29994 18674 4776
2854.16-33714-29991-26039-35320-28251 8158
2857.05 7828-48597-36584 6344-6371-23978
2859.94-31861-26882-38623-5446 22125 12583
2862.83 36210 11182-43509-48922-50527-27736
2865.73-9900-12835-3376 27093 62375 77508
2868.62 32296 10590 836 4700 51940 67013
2871.51 36477 9037-7109-10687-8281 44089
2874.41 89382 93660 72154 81066 45203-6325
2877.30-15230 2905 26145 20079 33006 48179
2880.19 27862 27038 43758 37219 15580 10256
2883.08 41140 48372 33845 13932 54165 74312
2885.98 20897 14367 46794 64485 70337 47133
2888.87 45841 47215 19516-22189 20223 64966
2891.76 30543 9768-9525 1959 19535 12414
2894.65 2367-6778 31818 38082 6622 4949
2897.55 10517 22958 37491 31692 379-26333
2900.44 12842 33998 21843 23114 22212-8174
2903.33 16267 69572 51592 39253 54424 28742
2906.23 6363 517 16968 50266 65858 44552
2909.12 25491 14692 23616 103797 109372 66080
2912.01 66892 83358 87722 94498 91390 39277
2914.90 15667 28171 35889 63189 100294 133652
2917.80 145695 127384 131950 128631 100317 104051
2920.69 106090 126887 159149 209909 186754 125968
2923.58 112007 95566 90526 65344 72128 79505
2926.47 69120 85715 81443 57956 41525 57602
2929.37 86082 89590 97019 100772 101257 140682
2932.26 192212 237856 261572 240358 211662 239120
2935.15 221593 155715 143734 167896 181829 187255
2938.05 187133 215109 238851 185337 178581 214725
2940.94 232796 200316 165165 144090 153563 227515
2943.83 274676 217938 196741 192732 194735 226641
2946.72 233978 238605 243635 197550 167054 200341
2949.62 207614 189832 204212 213777 232717 239856
2952.51 239127 214428 191114 194226 206578 206063
2955.40 198209 220119 214051 206836 241008 276040
2958.29 265570 236912 252388 251637 268678 236697
2961.19 195860 215500 263202 279698 305150 262970
2964.08 221145 195372 171183 217547 241348 197581
2966.97 155770 114415 90780 126489 149718 155916
2969.87 159774 152816 118422 105081 151850 176230
2972.76 165742 144778 130977 110453 73576 56135
2975.65 77202 104489 121899 130259 134421 131772
2978.54 102313 45202 78315 106644 115673 151268
2981.44 170462 147437 139441 131614 150832 196506
2984.33 193459 207275 217051 215874 249715 273736
2987.22 275435 273336 292917 305473 327764 335534
2990.11 353747 340190 320844 361078 416024 385025
2993.01 359466 364783 376342 377386 368290 335136
2995.90 322875 294633 266397 279627 296801 301153
2998.79 208400 141832 148691 185460 200409 207020
3001.69 258759 370504 435624 427003 460679 481135
3004.58 510062 522033 470011 431505 449742 448202
3007.47 428549 390669 358066 340619 302422 263868
3010.36 256906 247288 245903 252747 237629 225791
3013.26 230740 220875 195950 212683 248938 226030
3016.15 182455 136164 122550 126164 125312 129392
3019.04 146856 155425 139741 128582 158340 150792
3021.93 126000 107165 113743 119891 132893 177420
3024.83 196231 193342 178030 188735 203683 220831
3027.72 216272 211120 205697 194434 175495 213698
3030.61 240162 253828 289921 334897 355505 335077
3033.51 329263 317107 363475 439839 488217 518613
3036.40 516145 499763 546101 529705 515971 503186
3039.29 504483 511679 503492 492022 461705 419215
3042.18 379425 332228 287756 282590 247942 197056
3045.08 165097 134892 143141 226268 282665 315773
3047.97 379646 454659 494611 520718 535279 563001
3050.86 562358 541678 506189 483257 459420 393352
3053.75 377435 376118 383661 401215 356082 301987
3056.65 284239 257636 246685 261979 258611 235733
3059.54 246325 235324 175334 152088 161642 162351
3062.43 143631 112014 82352 69298 85070 80067
3065.33 64084 50191 26887-5598-15990-11954
3068.22 36384 61360 11042 12769 39454 13928
3071.11-19656-36080-30175-38195-28918-3043
3074.00 29396-19897-68132-36208-29462-62811
3076.90-33691 8127 21840 17244 5318-14021
3079.79-40234-61504-61208-58663-47986-26594
3082.68-35855-64941-45443-44009-40856-39190
3085.57 228 44026 12466-10651 12980-2704
3088.47-29695-5875 20440 13525 5051-19958
3091.36-19466 19354 47094 7243-38356-41170
3094.25-34845-30236-31500-22480-39358-55448
3097.15-18614 3208-7169-9364-13696-32175
3100.04-50952-9145 12675-32500-42279-39184
3102.93-18208-6013 13327 6031-36654-79303
3105.82-71375-57129-86411-109114-94739-98467
3108.72-94653-69345-55965-79197-50983-23624
3111.61-7744-26386-56604-74651-26851-21964
3114.50-78669-108780-83243-110033-164262-168354
3117.39-126098-143755-159071-175834-202038-225716
3120.29-208419-179008-180463-177513-159715-165125
3123.18-208518-256298-208724-168732-179691-170448
3126.07-207315-237886-206664-168642-197007-215632
3128.97-204835-224101-202166-196332-220556-209800
3131.86-184175-210733-211940-218088-213847-204683
3134.75-193066-172009-188149-234484-208565-182704
3137.64-164879-157682-153499-198527-180445-122243
3140.54-123885-145280-148720-150989-168614-163941
3143.43-86086-68352-95021-93151-113287-133885
3146.32-163776-188100-173504-198363-197437-158611
3149.21-151551-140779-173224-223548-189288-164241
3152.11-165238-143527-84878-85253-124092-119814
3155.00-110047-127755-98739-58031-59620-44689
3157.89-13706-2098 16322 32334 32354 46314
3160.79 42610 54895 96923 136310 170469 178125
3163.68 225574 271198 255012 238015 251799 265731
3166.57 274912 313114 350293 416300 454174 460523
3169.46 503907 543156 564276 562687 607514 648826
3172.36 696229 749100 787249 781178 832664 903426
3175.25 953496 1022279 1079298 1137707 1174514 1153849
3178.14 1166351 1205617 1319800 1382603 1394992 1416996
3181.03 1442262 1445428 1522625 1591708 1624019 1644447
3183.93 1662085 1638498 1610013 1647557 1706501 1701584
3186.82 1667369 1630796 1618680 1579817 1552281 1566737
3189.71 1554722 1498067 1469972 1482821 1506171 1519773
3192.61 1453170 1374810 1380484 1359690 1366041 1478659
3195.50 1586987 1699187 1825650 1951861 2056690 2100533
3198.39 2039258 1968019 1933673 1834000 1691260 1611213
3201.28 1562624 1495023 1358279 1269354 1175275 1073530
3204.18 983528 857984 753330 653609 571585 522519
3207.07 461421 403891 370638 323011 245932 197217
3209.96 185529 143387 118442 125392 122072 130146
3212.85 140309 109055 99583 39765-9629-24946
3215.75-35604-68115-73704-81529-68783-94432
3218.64-120845-156235-158843-193632-193573-167983
3221.53-194880-208517-156854-157793-199172-229177
3224.43-176108-121882-86616-103915-110505-115662
3227.32-99632-34730 13014-10135-9384 32133
3230.21 22199 11320 32507 40695 64236 66083
3233.10 64282 63950 57715 92558 146286 177627
3236.00 234536 266702 224894 246202 289295 307497
3238.89 301603 293200 323858 321439 322300 313194
3241.78 298893 284606 290371 298145 318779 341263
3244.67 295535 235245 255773 238962 245076 264111
3247.57 265459 283603 293167 283142 294837 320675
3250.46 325884 292165 305222 311969 294470 252024
3253.35 192973 137958 110923 91714 61831-6471
3256.25-15444-43767-72043-98657-146482-164061
3259.14-193636-226327-206045-196580-230192-284519
3262.03-283564-286339-347436-411558-360823-289190
3264.92-292063-320587-328408-330175-298920-297832
3267.82-292765-280762-252645-268008-258805-292332
3270.71-359941-356679-304751-276239-259013-291675
3273.60-321887-332187-299974-266819-252604-259178
3276.49-216243-213960-277685-251458-214720-234589
3279.39-222341-195645-196637-221161-191047-164933
3282.28-163049-208466-220912-185737-152665-158901
3285.17-140087-96329-91463-115662-109473-129728
3288.07-106792-57394-73368-105781-101512-98346
3290.96-74937-81675-83023-90363-35911-14124
3293.85 2188 23030 27518 33894 44453 7603
3296.74 18189 13504 57533 96794 89526 113614
3299.64 116824 49615 64671 102345 109533 105173
3302.53 85381 70813 48461 23736 55192 59038
3305.42 33582 74992 113531 103559 53312 31822
3308.31 91539 113064 25489 957 48614 70663
3311.21 88643 124395 133775 112654 157635 153645
3314.10 145958 151399 122450 79532 78350 68315
3316.99 84845 115993 101112 86295 72704 62441
3319.89 89408 74982 31277-31128-30853 4748
3322.78 48426 92743 114284 76590 26792 22437
3325.67 60943 74670 80535 52655 39812 27459
3328.56 11946 37056 39676 24345 68833 60649
3331.46 46836 58158 32175 32320 75968 87622
3334.35 49023-4019-32904 13128 76632 99999
3337.24 92484 88913 94370 46200 26051 55801
3340.13 116440 89607 35498 36860 55161 114207
3343.03 153528 112230 106569 92816 102272 70339
3345.92 81366 109771 125626 137284 142513 157930
3348.81 131222 106918 73316-3431 42919 77660
3351.71 41266 36319 47572 57551 58100 66068
3354.60 74151 80408 87005 137950 181315 196394
3357.49 215146 217956 179424 88698 60960 96731
3360.38 111860 110137 174722 195636 153037 108501
3363.28 43400-31035-57623-35415 2866 49020
3366.17 80364 19762-52017-25837 13366 16813
3369.06-10814 645 56148 26360 15280 4791
3371.95-52012-75843-36937-24963-51457-58165
3374.85-26587-37263-56645-42361-34277-67071
3377.74-98595-126576-94475-45736-30174-65125
3380.63-30832-17461-34682-39253-52507-84619
3383.53-67625-59084-42410-15445 440 590
3386.42-20521-75232-88336-79323-80401-56570
3389.31 1687-1274-19106-67974-88688-103321
3392.20-94400-93622-31179-16736-40300-53911
3395.10-32640-17444-55130-55378-17444-49185
3397.99-47428-3559-32863-27650 10733-35237
3400.88-34372-221 18274 50955 34213-26730
3403.77 4382-554-12087-7519 20440-11742
3406.67 2988 39105 27031 56140 74905 17625
3409.56 20631 36451-9249 15101 57715 31710
3412.45 2844-16442 4537 22775 107854 90307
3415.35 57006 73407 156494 115152 19737-17822
3418.24 11549 10214-32512-40591 39538 98954
3421.13 73831 43327 77896 71951 49578 44710
3424.02 67693 74377 75754 67879 82483 79655
3426.92 60661-1969 15189 46900 12749-3924
3429.81 6026 10188 46289 71361 67048 20579
3432.70 2174-39529-71450-104396-46139 10529
3435.59 5002-2541-34659-54361-58474-49449
3438.49 12380 29552 1632-25430-3665 5080
3441.38-29986-90480-46165-625 8115-40932
3444.27-126412-110505-45512-17575-18276-30492
3447.17-41341-100997-94031-51945-41116-28758
3450.06-46483-82168-39402-27512-74156-75633
3452.95-45392-61868-74730-59847-17273-84752
3455.84-143448-129352-47856-68493-66655 20333
3458.74 49459-63361-106956-58373-70603-107564
3461.63-97711-123819-102318-74327-108321-97043
3464.52-108246-152713-96628-51776-70713-70658
3467.41-78835-145175-114312-80931-93501-103158
3470.31-80517-89044-124809-137497-83071-103567
3473.20-109846-117015-99742-69973-24471-21993
3476.09-73913-127085-95884-97723-78191-60287
3478.99-64746-45968-33541-69571-104515-105938
3481.88-80870-95145-93118-46039-13406-62161
3484.77-63186-38230 6284 26381 9541-5466
3487.66 16965-1568-35958-50577-76137-49883
3490.56-13289-4989 5373 1112-1899-12442
3493.45 7850 56030 51949-15206-15841-17193
3496.34 36834 40964 53464 77579 114979 129035
3499.23 86963 33703 73236 83986 90401 94523
3502.13 148820 151142 132118 136952 140998 130941
3505.02 123341 106594 146649 158212 96357 58568
3507.91 45816 23502 40966 56443 26004-8799
3510.81 671 12192 60354 64157 75396 103193
3513.70 166956 206786 202694 123254 110439 145909
3516.59 150518 123583 121437 88204 75946 77129
3519.48 96113 93711 48382-5053 58323 94021
3522.38 83086 65293 33674 18943 24520 4560
3525.27-32900-62623-43726-54476-23364 34341
3528.16 4570-38552 16490 40295 39015 9413
3531.05-6606-39151-37263-15249 14231 48105
3533.95 35998-61683-73824-16590-16257-51723
3536.84-60570-45026-46994-57457 31890 56503
3539.73-10786-57945-51574-42010-33722-38152
3542.63-16290-995-20530-48141-44282-15375
3545.52 15428-33159-50920-44647-24815-11390
3548.41 56505 55508-13536-16803 1703-43845
3551.30-86333-71596-35002-38927-83634-101752
3554.20-59970-1085 27006-10144-60989-69513
3557.09-20037 8247 5246-6541-22412-42618
3559.98-64878-68388-45119-51396-38297 54
3562.87-20595-32175 2805-28784-78142-87220
3565.77-14606-17785-22563-24367-26065-7376
3568.66-15545-58381-87929-89108-28641 4943
3571.55-8543-58059-17062-7461-22147-28451
3574.45-13602-56644-70315-58553-73696-64089
3577.34-34623-45096-46141-26709-26245-65522
3580.23-50610-22751-20779-34732-44030-68597
3583.12 13515 38469-8045-26568-34160-46886
3586.02-49752-43769-55947-27494-19154-45320
3588.91-16643-21238-35283-50066-26902-57457
3591.80-50193-38478-6714-1985 11320-1085
3594.69-36283-52180-22131-23810-58172-94324
3597.59-62644-47559-49445-44442-40592-26915
3600.48-18454-14355 32862-6797-36812-34439
3603.37-26201-51318-50286-79402-106327-118636
3606.27-81269-56079-40136-67993-54166-54903
3609.16-57148-74053-29145 2054 5238-21806
3612.05-20341-51643-63525-48095-33622-33837
3614.94-11857-35073-45291-29175 11489-473
3617.84-3795-21955-54133-49099 1319-25785
3620.73-21943 506 39799 43613 9591-22451
3623.62 9500 11396 8286-18940-13908 7263
3626.51 8413-42754-47683-32775-20573-54167
3629.41-9743 41345 42043-5902-8202 26400
3632.30 66550 63899 26643 15365 41285-317
3635.19-8260 46905 70095 39179 50687 69854
3638.09 64324 52830 84624 93009 107068 76280
3640.98 56182 101942 134293 94743 55979 52982
3643.87 89769 70396 68772 50347 72268 55892
3646.76 35378 49950 79050 42314 33427 37878
3649.66 71019 99136 113286 106542 90070 63576
3652.55 64625 88027 95469 67732 91793 96726
3655.44 83774 101248 105797 23322 20909 56687
3658.33 78593 71633 98065 103653 82179 60149
3661.23 69612 53465 41295 43193 36131 21280
3664.12 29767 13210 58709 54272 42598 28629
3667.01 35727 40316 25999-14451-21483 177
3669.91-27002-96297-41085 14075 34217 12259
3672.80-18860 8793 29814-60920-101027-108755
3675.69-102527-58664-32336-58418-55444-25957
3678.58 11299-6445-15437-39636-36432-60771
3681.48-61842-81890-57450-35743-11081 12065
3684.37 20959-43939-51005-48050-38075-36089
3687.26-22911-59174-79767-68414-69112-89553
3690.15-118566-129460-61679-61889-55389-44331
3693.05-38401-2807 9871-22819 200-27932
3695.94-39451-11964-1579-14031-20324-46705
3698.83-19569-24437-32290-50990-43765-65889
3701.73-53518-31247-27113-33151-44765-65122
3704.62-37353-57426-84583-93551-51135-39440
3707.51-21837-20260-41684-51254-69265-68618
3710.40-33150-48643-100494-107291-14900 16691
3713.30 5470-37952-43531-37677-46469-87542
3716.19-62154-47745-31740-32274-28903-60644
3719.08-75450-41650 15503 11961 39111 16595
3721.97 15305 38095 45596 31842 67416 53454
3724.87 45404 49729 61235 63618 125937 147969
3727.76 136216 74234 56666 106461 158866 150873
3730.65 109802 105926 122448 149086 147272 124317
3733.55 151468 96200 99417 162766 134252 30415
3736.44 77618 109164 65294 85647 169813 210482
3739.33 247572 193017 145195 122563 129918 146252
3742.22 175818 183798 203392 98236-7420-12040
3745.12 24108 72796 110991 122834 145973 135095
3748.01 145956 114973 100743 149042 157337 156905
3750.90 139181 62473 39568 54356 21031-15242
3753.79 29395 54267 56120 34465 28246-16391
3756.69-11620-13300-21085-44221 3085-8074
3759.58-30514-36074-25749-38738-33486-27516
3762.47 1250-8983-57531-85729-32813-33984
3765.37-74780-71832-19206-21937-28532-65236
3768.26-47212-39222-63681-79089-55212-60688
3771.15-51401-47480-22635-21104 4708-9259
3774.04-14312-26675-43346-73696-37698-55553
3776.94-51478-10267 16968-12262-48747-88895
3779.83-42627-46549-65777-61380-28201-5774
3782.72 28843 27007 14158-45118-31232-25575
3785.61-42092-55793-67512-36340 30-34584
3788.51-22395-30459-39776-53489-36045-25186
3791.40-24230-14044-27886-79191-54899-65418
3794.29-52620-70151-56330-57059-47513-51898
3797.19-48153-57913-42317-35185-5714 1131
3800.08 27233 1206-41816-22456 3321-60774
3802.97-94660-63679-5390-11439-23860-51847
3805.86-81399-130615-92813-45417-54828-52158
3808.76-5899-17347-2701-2414-16907-30423
3811.65-24974-64835-66771-32648 6191 5655
3814.54-20472-63155-95324-95419-38852-20162
3817.43-36157-24381-8622-32215-34320-93122
3820.33-80305-85063-98405-55669-30945-19293
3823.22 8138-17336-36824-16439 16205-13322
3826.11-52924-89397-51371-40672-9644-14939
3829.01-43124-81230-57267-44951-67184-40438
3831.90 8284-12623-23977-62779-54253-87092
3834.79-74784-31502-16653-23607-41988-117287
3837.68-76267-34177-24322-9763 579-68880
3840.58-97231-90626-78217-48210-24461-66532
3843.47-24525-9270 7669 60572 66671 1852
3846.36-20187 5380-23646-75171-69872-70543
3849.25-31882-44125-58416-49202-94085-117618
3852.15-68976-81687-111262-162057-135146-76980
3855.04-39262-47467-34603-48512-53462-65070
3857.93-44069-8829 17959-12942-31019-32405
3860.83-44717-81503-80515-63384-41953-69700
3863.72-82544-94338-96820-43172 6569-2962
3866.61 21672 11775 7750-70729-109000-76133
3869.50-85734-128210-63777 6165-3882-46067
3872.40-28313-60172-51878-41370-8922-16953
3875.29-42873-71132-35172-19345-6921-61576
3878.18-56186-53161-50464-30576-8203-38116
3881.07-14925-6422-1588-24847-197 38145
3883.97 25965-5150-24345-62141-58660-60964
3886.86-31398-2998 12901 9013-4604-35666
3889.75-26060-32283 17746 17810 6725 7603
3892.65 29716-29696-28263-15831-17283-16698
3895.54-42448-68259-53408-26339 4225-14715
3898.43-8200-20880-19630-43560-44771-33176
3901.32-40662-17990 27832 56754 125789 144742
3904.22 66035-35342-49944 3471 42722 43849
3907.11 50524 14815-18575-35313-9148 23282
3910.00 35385 7706 12675 10249 15786-11820
3912.89 30021 37201 42970 30170 33271 40343
3915.79 61226 30748 5159 26848 74136 76690
3918.68 69677 32327 45380 62596 113401 102284
3921.57 82099 81824 114674 155438 175280 128938
3924.47 97923 78635 93507 91087 84083 38200
3927.36 41870 56481 74222 71532 70745 20892
3930.25 17671 31190 67474 73768 114589 101272
3933.14 78233 59441 105864 129562 113254 60810
3936.04 72658 83577 118201 122385 122816 120032
3938.93 115601 70966 31102 18873 36345 55311
3941.82 87699 87467 95124 42869 18824-4640
3944.71-7855 12717 27380-15267-27254-29591
3947.61 10469-13882 920-9545-24854-43230
3950.50-7056-12050-6314-1820-32714-40640
3953.39 16945 33728 10389-39747-58155-81697
3956.29-22657 16803 3059-19682-1147-31822
3959.18-32561-66571-75800-97235-79267-41814
3962.07-14917-46851-39016-58251-48485-47791
3964.96-47564-55990-7799-21287-49072-98571
3967.86-68437-56699-39917-33803-11193-13227
3970.75-9332-9656-37312-68127-38496-44564
3973.64-47228-94897
##END=
