##TITLE=1,1-Dichloroethene
##JCAMP-DX=4.24
##DATA TYPE=INFRARED SPECTRUM
##CLASS=IUPAC A
##ORIGIN=NIST, Analytical Chemistry Division, 301-975-3108
##OWNER=COPYRIGHT (C) 2001 by the U.S. Secretary of Commerce
##DATE=01/06/01
##$SPECTRA VERSION=1.10
##$UNCERTAINTY IN Y=2.2 % relative (B=1.21E-04,C=2.69E-10,D=8.94E-16)
##CAS NAME=1,1-Dichloroethene
##CAS REGISTRY NO=75-35-4
##MOLFORM=C H2 C Cl2
##MP=-122.1 C
##BP=37 C
##$NIST SOURCE=QUANT-IR
##SPECTROMETER/DATA SYSTEM=IFS66V (Bruker)
##INSTRUMENT PARAMETERS=KBr Beam Splitter; MCT Detector; Multipass cell
##STATE=gas
##SAMPLE DESCRIPTION=1,1-Dichloroethene Primary Gas Standard
##PRESSURE=101.3 Pa
##TEMPERATURE=23 C
##SAMPLING PROCEDURE=1 L/min Flow
##RESOLUTION=1.9290
##DATA PROCESSING=Boxcar Apodization
##XUNITS=cm-1
##YUNITS=(micromol/mol)-1m-1 (base 10)
##XFACTOR=1.0
##YFACTOR=18.189E-13
##DELTAX=0.9645
##FIRSTX=575.652
##LASTX=3974.606
##FIRSTY=6.31E-06
##MAXX=3973.64
##MINX=575.65
##MAXY=.0013687
##MINY=-1.00E-06
##NPOINTS=3526
##XYDATA=(X++(Y..Y))
575.65 3471218 3962289 4313902 5353648 5774198 7735460
580.47 7701105 9960681 10347850 12778713 14222029 16795727
586.26 18167627 20655273 23079587 26497424 28559147 31863118
592.04 34143572 36516965 37375893 38879289 38381836 38776886
597.83 37041808 34884393 31345523 29376048 27773650 28729922
603.62 27650965 30292020 34395426 41888950 44982896 47044597
609.40 45116506 43379352 39747391 36778839 32806188 29506511
615.19 25301092 22612797 18723325 16609895 13742262 12442889
620.97 10248747 9555334 7765858 7411473 5925754 5652898
626.76 4205945 4326577 2717961 2904936 1880083 2155073
632.54 1118628 1389804 434203 968762 265618 725954
638.33-102817 409080-74333 403125-308250 438661
644.11-450080 524271-356646 284914-405298 415676
649.90-310249 264660-493367 296287-397819 245845
655.68-441577 424663-300554 291829-514422 274676
661.47-447425 461291-303377 428194-361865 214872
667.26-425715 430533-366715 430324-309822 313820
673.04-355045 358011-310108 540539-107743 728532
678.83 250307 301943-411908 471887-317027 193919
684.61-368858 507675-443279 469111-266921 398155
690.40-324811 372638-370547 468392-392401 268429
696.18-552151 468894-476734 345106-458553 443572
701.97-333850 396929-547503 270870-481342 426063
707.75-535346 499072-454386 442176-480750 423482
713.54-506590 406915-385385 425461-559011 433292
719.32-507949 414963-562789 490796-494456 541315
725.11-544001 432101-381807 515658-450453 488704
730.90-420601 493392-477087 503262-403190 519033
736.68-479711 591580-322011 541753-380894 641764
742.47-341803 704751-269882 799115-311340 904394
748.25-106581 1035631 173895 1332228 484488 1854595
754.04 1119568 2468077 1926422 3618825 3257666 5354620
759.82 5320784 7810521 8242017 11268724 11873633 15137805
765.61 16483341 20091033 21267989 25882345 28155436 33837267
771.39 38687580 48251088 57687015 72287681 84652656 90536078
777.18 105823407 121578941 142945655 164352486 173854181 201594489
782.96 227710331 228603264 228536707 257435069 283882049 224754889
788.75 199543015 214247541 226849193 249349310 349357658 257706498
794.53 369816738 163990021 141433537 208487930 240434363 249624501
800.32 251164712 256305982 245067129 228927375 199529512 169773569
806.11 134709371 105916823 77141209 57678403 38569751 28469616
811.89 17572737 14305611 8240154 8226210 4610469 5812376
817.68 3162123 5038302 2410376 4753371 1892806 4619186
823.46 1008291 4663201 1077413 6477679 3967955 4116128
829.25 1262450 4627696 2484720 6271693 4089049 7487986
835.03 5081954 9285379 6746386 11364654 9171880 14425529
840.82 12678911 18596485 17078718 24102751 22951756 30909405
846.60 29642446 38532920 37013206 46452378 45453701 53339618
852.39 50834894 60224879 57446693 65796322 59608902 66669766
858.17 59489465 67614984 89210004 142939735 67473543 80268110
863.96 37775353 79758355 1045588 194156763 752480819 136397724
869.75 75513032 47520363 74505540 66081714 100535059 69019003
875.53 81206726 68794264 80540703 70007518 78797512 69329829
881.32 75917858 65834713 70529631 59500969 63387715 51914643
887.10 62556140 46513599 39443032 33028611 30874751 24074732
892.89 23136444 17225368 17974573 11759513 12493577 8274020
898.67 9565200 6297902 8080124 5131985 7192404 4658758
904.46 6709114 4387037 6157611 3683679 5030572 2335237
910.24 3195423 765727 2839202 1574232 3872198 2711658
916.03 4646718 3164578 4679238 3007356 4261240 2576487
921.81 3746795 2142744 3188316 1665061 2761659 1249740
927.60 2290992 960732 2028828 1102452 2577417 3918532
933.39 2484682 256208 2074906 747178 1375523 385441
939.17 1371195 239924 1219542 232065 1148964 265821
944.96 1302008 205646 1050969 83219 1044915 109595
950.74 975538 39876 912938 44457 848300-72262
956.53 760479-19628 724800-48301 717859-66104
962.31 669821-28103 679927 20348 672707-83246
968.10 625834-64972 654663 219670 653348-106456
973.88 473592-147483 663083 74890 588892 54587
979.67 571350 30249 503381-18961 543574-91360
985.45 400248-82883 349813-152514 301137-114456
991.24 347807-223406 318419-154047 329883-90624
997.03 328127-90526 342520-40732 504230 73138
1002.81 609951 246841 515774 296414 698057 355306
1008.60 741250 466712 725571 443647 699169 318596
1014.38 732801 395070 1119839 523636 759578 253594
1020.17 516450 321562 669644 510961 652132 509134
1025.95 682141 454227 532530 371786 403381 246933
1031.74 223401 126151 179776 95219 146612 82021
1037.52 127714 103922 95262 225257 150442 246113
1043.31 207506 471882 347273 626261 501946 843783
1049.09 913144 1475780 1423211 2186066 1899293 2915362
1054.88 2979174 4368413 4651688 6541807 7244771 9995418
1060.67 11030830 15124441 17456710 23291423 26211747 33786179
1066.45 39017974 48743113 54340652 65012530 72746820 85024901
1072.24 88110730 99565171 112604726 122089258 107468053 139332417
1078.02 162296090 138270488 125761323 215347563 235054009 152090508
1083.81 161871310 344027807 272707193 184249091 249456589 208343665
1089.59 247274743 194204423 216530899 182106666 275158759 241993410
1095.38 183255916 292096050 122215510 116086505 116238456 142508905
1101.16 149717771 164645035 161348404 158789982 142166176 126334337
1106.95 102957483 83543666 62049581 46321680 31819880 22557560
1112.73 14894688 10807098 7524891 6174948 5501245 5379078
1118.52 5926963 6175300 8032305 8358087 10224613 12195843
1124.31 15997523 17020831 26198033 29661838 29315043 33151086
1130.09 35187522 34724979 34779530 30465989 28190078 23257612
1135.88 25683640 27035713 85327246 39377194 15294643 21749118
1141.66 15008450 25429047 26309736 34317435 33875939 36947962
1147.45 33297825 32385988 26682361 23991429 18074914 15580079
1153.23 10593948 9024647 5535580 4923019 2626980 2791149
1159.02 1259307 1761414 606857 1222713 267696 943476
1164.80 70560 771102-24617 1552650 544727 560862
1170.59 140663 674489 217198 745226 231845 702108
1176.37 265376 638003 117657 520806 28890 442545
1182.16 52898 369465-81012 253210-66704 278930
1187.95-114180 249206-122751 230309-82783 200109
1193.73-108300 174003-89515 199234-55648 221359
1199.52-64993 173363-155602 201860-55303 232703
1205.30-45490 156661-83025 130411-126406 109924
1211.09-165085 51318-159757 118572-167769 63660
1216.87-190248 65815-157867 102101-147426 60533
1222.66-173733 65376-119402 71931-114459 87366
1228.44-161950 86747-70297 156458-85379 139501
1234.23-34340 168043 4432 215631 42797 244720
1240.01 56895 262717 66031 292015 21669 299430
1245.80 119894 227784 80210 302584 157295 467747
1251.59 44995 175332 93956 276311 109253 314363
1257.37 122083 285258 93499 254971 18360 175671
1263.16-19780 70042-115172 113817-111861 59314
1268.94-170533 82234-142726 72578-159367 47490
1274.73-98885 81502-142073 65563-108017 71027
1280.51-45203 116532-87917 134860 863 172614
1286.30-34683 236869 92390 328406 190589 437083
1292.08 298021 522141 464409 701888 658960 854446
1297.87 802962 1101823 1047778 1413632 1346101 1757927
1303.65 1777057 2195748 2249195 2695349 2781836 3198461
1309.44 3079854 3431770 3271404 3382227 2919510 2661888
1315.23 1844190 1387673 1041014 1594161 2072514 2900734
1321.01 3089187 3477879 3284238 3361745 3066106 2985942
1326.80 2581590 2526778 2143497 2055881 1762829 1773019
1332.58 1486896 1515816 1199103 1285021 1029533 1160266
1338.37 809445 970177 661859 701146 376419 503292
1344.15 242765 593133 469713 727558 675154 868843
1349.94 596223 607231 469958 651857 609025 896854
1355.72 509394 816327 468323 741370 429724 737779
1361.51 419820 794206 626720 873151 772481 1146860
1367.29 947304 1367103 1148801 1646320 1542360 2124883
1373.08 1925058 2340568 2362062 3214725 3135398 3620076
1378.87 3603585 4467829 4620394 4894282 4710676 5644586
1384.65 5904149 6684483 5224036 5809858 5548407 7223910
1390.44 5718383 8098327 6888302 4946342 5800725 6923503
1396.22 5311883 9368736 7847685 4414716 5530463 5501621
1402.01 5453829 5075717 5132729 4663371 4371037 3634579
1407.79 3112772 2376207 1688828 1064536 649579 335705
1413.58 176849 97446 80441-21659 32362-57049
1419.36-46674 829-50096 22981-71945 452
1425.15 2125 49328-81123 25230-29447 34593
1430.93-55260 16135-61679 53241-39956 20072
1436.72-50788 14915-64054 16702-46641 40735
1442.51-35439 17256-133453 28973-56423 19577
1448.29-66021 76559-22148 27020-27866 49679
1454.08-9688 81346-124056 50100-44740 77332
1459.86 4864 120581-17640 106410-49812 116821
1465.65 5819 92624-6174 92543-10892 91737
1471.43-4141 179553 57409 210059 14045 99550
1477.22 11707 95512-45811 114587-1794 118766
1483.00 10555 117178-63273 83363-34219 94875
1488.79-68916 95811-71190 87749 12231 102686
1494.57-41488 63683 5311 98357-23557 106382
1500.36 21160 145510 11060 152989-45283 129071
1506.15-22089 152643 23143 219591 65868 219537
1511.93 104974 264884 129518 373336 218864 411986
1517.72 313340 554146 415510 606022 582090 831669
1523.50 839663 1070644 1122550 1504972 1690797 1971358
1529.29 2194723 2620408 2932143 3435776 3840527 4192074
1535.07 4433178 4788421 5103662 5381242 5867822 6720801
1540.86 8680195 10008911 7705303 8818905 9788275 11541329
1546.64 12877341 14819234 16315337 18305769 19845920 21787086
1552.43 23302636 25101697 26697882 28655122 30301882 32189951
1558.21 33779470 35627288 37013602 38404961 38573029 38707786
1564.00 37499366 36683472 34757527 33687122 32054031 30788531
1569.79 30722071 32782414 34034492 38684512 43590859 46843799
1575.57 47221842 44402939 41338122 37882034 34417343 31179632
1581.36 27933135 25137294 22449596 20340044 18501192 17604999
1587.14 17144674 17600801 17865735 18432820 18716915 19373382
1592.93 20060335 21478274 23078017 25669120 28305906 31544055
1598.71 34721171 38683109 42841121 48004406 53594986 60271904
1604.50 67582634 75815344 84594622 94122056 103556221 113496243
1610.28 122796248 131779830 139335668 145171734 148363299 148494604
1616.07 144677412 137561644 125552274 111693179 96482016 84364546
1621.85 80135749 91226253 121111511 155968546 178943558 186689733
1627.64 181147523 169620573 155923230 140808193 125061477 109489912
1633.43 94656183 81474681 70399403 61079543 52951557 46330808
1639.21 40348779 35404237 30729585 26635143 22680466 19188458
1645.00 15786050 13012107 10322109 8310064 6400825 5065878
1650.78 3710614 2846347 2090062 1753730 1210009 1089996
1656.57 682026 699047 435312 477147 277539 354558
1662.35 214500 314077 151654 263978 105144 222698
1668.14 86677 234701 119131 292193 125735 291504
1673.92 157489 331690 208699 372132 279710 437299
1679.71 327290 461184 302822 453447 197401 347735
1685.49 294762 387243 488452 564269 367658 553822
1691.28 338935 503864 525628 577827 218351 456215
1697.07 252136 440552 312646 458909 255776 356287
1702.85 193163 348289 143464 328267 129049 336347
1708.64 175377 359531 204175 330426 257510 416107
1714.42 303834 543156 389527 660363 576218 865518
1720.21 822682 1066499 972394 1280296 1227229 1477043
1725.99 1419622 1786484 1890674 2343556 2556696 3157682
1731.78 3355681 3885348 4074636 4572238 4629501 4838225
1737.56 4659073 4455827 3575868 2696374 1579845 1476421
1743.35 1938808 3162404 4067324 4976736 5186119 5353507
1749.13 5034078 4746907 4272653 4008870 3493435 3434812
1754.92 2995059 2910770 2537916 2527062 2145851 2022288
1760.71 1871033 1543069 1144525 1185293 881363 979431
1766.49 675438 758421 532378 603335 370095 463341
1772.28 530333 651977 471000 609020 67030 286107
1778.06 64184 255327 59853 274282 53892 260253
1783.85 4537 254440 62901 259722 110506 277809
1789.63 98759 258924 63443 215398 64660 243993
1795.42 37312 181042-15808 104646-40514 203603
1801.20 28820 224131 47077 236609 47063 167647
1806.99 352514 382991-113646 143181-103777 169130
1812.77-8998 151213-67046 136091-78969 124741
1818.56-98038 119519-117568 105497-103737 117327
1824.35-123178 98400-119893 90433-118720 74666
1830.13-80945 68483-92743 85432-81001 102243
1835.92-113023 135502-66176 119711-55666 147170
1841.70-2510 153691-23947 198634-7097 232657
1847.49 31241 260027 61768 253788 103694 258596
1853.27 110182 349858 134708 341347 130384 334552
1859.06 197220 393095 249611 457778 275128 502902
1864.84 353220 567117 462374 646871 457081 664966
1870.63 482819 702212 495077 709180 502338 696842
1876.41 509528 754178 511737 706553 402566 537426
1882.20 271184 461760 332790 600200 518632 733353
1887.99 587531 746368 515450 648445 406048 582606
1893.77 308957 450053 217471 424750 120325 319586
1899.56 84690 297360 111945 248689 90747 271133
1905.34 47997 235655 62578 285161 51890 278874
1911.13 60528 252387 46287 206468 24550 236812
1916.91 60780 300890 94667 325918 110700 357865
1922.70 146981 378224 169820 359566 132255 356057
1928.48 166316 309565 118068 320777 70104 275237
1934.27 96860 311303 90445 257394 22018 237953
1940.05 51052 272837-19889 194743-18978 186375
1945.84-24090 167490-62157 147742-50092 143337
1951.63-88426 112921-140495 105360-154311 72966
1957.41-142591 46940-147198 62999-109238 44448
1963.20-124165 78149-120207 30744-123900 83922
1968.98-116706 54388-108098 111162-89798 139105
1974.77-89156 182427-19001 203285-29249 237792
1980.55 35261 262055 58100 276503 31282 236618
1986.34 66044 256852 52535 246455 73886 306986
1992.12-12136 169389-7079 179664 14316 287816
1997.91 52875 267163-18784 177324-55630 133312
2003.69-46795 158910-77200 63778-119151 74975
2009.48-123173 63039-138027 71385-170229 54580
2015.27-143727 66463-163305 59390-92465 82395
2021.05-145970 65835-148844 68671-136829 63330
2026.84-154882 61052-156924 83706-140207 78165
2032.62-147007 66859-157711 92392-116263 91341
2038.41-116904 75635-147869 35952-166552 86107
2044.19-141227 66132-118563 87443-130422 72427
2049.98-119220 73684-92625 76261-139694 102189
2055.76-139164 81180-131046 77219-131298 94072
2061.55-113335 92619-133131 84269-128260 77890
2067.33-108585 146568-78038 117394-93164 179712
2073.12-22452 209324-61160 75877-127714 92344
2078.91-119500 128121-148282 90400-137083 82820
2084.69-120523 99311-132017 112932-139683 103004
2090.48-146229 78644-129978 105988-115846 67626
2096.26-126377 43852-111672 34999-146555 62445
2102.05-122839 49655-146812 41491-111936 49867
2107.83-194996 83448-151915 102537-194184 71709
2113.62-175641 104828-165616 80667-170363 53916
2119.40-125876 54485-186262 43668-178944 30058
2125.19-186516 39802-165022 32491-205666 6353
2130.97-179160 5250-225574-26155-213537-32042
2136.76-233795-1981-250790-25255-250302-25566
2142.55-261631-34858-262546-45359-252517-117966
2148.33-266785-34304-280713-44489-263355-40875
2154.12-267992-86866-323986-32725-262128-51495
2159.90-275276-66775-316181-97600-314102-46668
2165.69-253292-37535-249216-39124-305918-136269
2171.47-266900 1442-267751-53992-270202 17540
2177.26-239986-47095-250336-66905-240487-41113
2183.04-245549-54005-272378-5539-256098-65908
2188.83-262699 13259-225929-6891-293677-27851
2194.61-159090 71180-168320 49850-143535 117284
2200.40-148738 83760-120156 139107-110457 168607
2206.19-31551 207618 284746 338689 22809 308294
2211.97 90555 345067 96587 387985 161271 408654
2217.76 207541 448235 190158 375131 197660 480926
2223.54 273755 495986 230365 461196 334070 598654
2229.33 340794 534159 256936 392461 187652 351043
2235.11 85887 262616 28581 216875-45090 170779
2240.90-46462 142161-116121 92844-106712 105293
2246.68-128065 34644-177157 72237-169651 56533
2252.47-220755 8101-232117 18171-203078 17551
2258.25-238992 6045-232529 390-222225 18831
2264.04-233798 11625-243402 7857-218503-4005
2269.83-225408-1857-201688 25213-193825-43767
2275.61-315101-124475-245434 94719-172421 11122
2281.40-228265 70707-229574-12335-226751 37742
2287.18-237337 3972-264543-23836-218057-12311
2292.97-247176-14911-247881-11921-224853-4663
2298.75-197457 35144-233002 5012-218331 42918
2304.54-195768 34257-222165 45427-163490 77861
2310.32-180596 80725-164601 98371-155085 75263
2316.11-171775 77835-111763 117540-120076 118842
2321.89-124625 142693-128591 170562-78465 165490
2327.68-82160 201342-55262 177041-28440 213459
2333.47-5229 205379 21492 197513-20875 249379
2339.25 10352 181586-46161 190074 49690 231016
2345.04-41823 225792-37441 215800-36008 242832
2350.82 170 189097-39545 142378-133666 60839
2356.61-179971 56287-212140 2243-210841 45779
2362.39-181196 24749-177386 34600-191970 40115
2368.18-170500 56511-176956 77607-149460 34493
2373.96-203805 50857-138456 80937-110075 63297
2379.75-175036 62198-92980 104845-107687 89505
2385.53-114355 119392-117494 124389-77227 168770
2391.32-55747 195595-90603 153032-43559 170899
2397.11-1443 201952 13316 210443-1848 255344
2402.89 59549 291320 90877 397850 127603 456365
2408.68 225025 482883 294444 598480 406225 655069
2414.46 459917 725072 580953 807527 587457 849514
2420.25 670547 890193 726031 871258 535001 882550
2426.03 738135 893104 609789 1027361 634103 688494
2431.82 540216 842405 688089 888336 659946 829686
2437.60 523453 605417 230334 375382 78800 239979
2443.39-47907 178505-106638 123052-111758 150684
2449.17-109181 164345-132014 138429-71017 136795
2454.96-132303 92321 118246 185848-158385 106396
2460.75-113241 146207-95207 136641-149923 83724
2466.53-134062 150476-117731 132958-86219 100057
2472.32-171347 153004-128739 74516-139485 95388
2478.10-124837 76504-141674 103177-120344 120413
2483.89-161888 103855-169765 66291-150413 90745
2489.67-153680 104696-138599 53763-158918 52436
2495.46-170270 90479-136474 24229-159937 85013
2501.24-175830 86316-184594 55759-171631 80522
2507.03-193357 97631-178426 122203-179024 78949
2512.81-152042 90494-196342 78949-159185 80621
2518.60-146233 94894-153185 100139-151767 90586
2524.39-153794 81230-159184 65101-132473 119246
2530.17-136710 90654-143493 131872-214233 106132
2535.96-158252 38261-171647 39111-206493 75143
2541.74-150626 47915-176979 12107-185049 97178
2547.53-178169 40017-186598 69827-214914 46947
2553.31-220618 39161-189952 43446-222103 56991
2559.10-201066 2533-170482 42454-189220 74273
2564.88-244268 13616-213406 6148-200641 110878
2570.67-223801 62409-219552 44198-207969 64018
2576.45-177492 64068-200290 54402-153095 89695
2582.24-170123 78935-185987 30898-210822 48485
2588.03-201380 60891-150380 77311-181532 59295
2593.81-185463 52048-191429 95987-141340 107230
2599.60-168449 120855-175039 70266-166622 107901
2605.38-147312 109114-141167 119106-115330 125572
2611.17-100095 165874-84497 134789-72987 212421
2616.95-67634 154698-72588 164579-110028 104815
2622.74-89521 145046-61484 173513-38172 168237
2628.52-37202 167752-64788 206571-20838 238530
2634.31-34286 160240-40905 187360-10764 185597
2640.09-69001 230517 5132 190100-22076 220462
2645.88-44801 241948-28343 210294-84713 255629
2651.67-43165 263031-84281 205742 7214 285411
2657.45-95009 179550-25741 271057 6195 251421
2663.24 3325 207139-37179 168972-97269 177737
2669.02-115565 137288-126691 140250-130560 133172
2674.81-114142 134235-174893 141328-87832 170417
2680.59-87581 183571-73367 132027-88321 164506
2686.38-42503 204028-41746 211968 22371 288725
2692.16 23710 289751 18963 297836 51419 234806
2697.95 43354 314024 55142 330049 57757 273838
2703.73-46170 231721 64538 317925 100918 398785
2709.52 132578 352674 68521 302767 996 236293
2715.31-59988 176114-51061 167088-114139 158777
2721.09-184153 148392-100545 127463-115845 107728
2726.88-113393 149050-119608 98421-147317 113737
2732.66-153915 96012-186192 43731-169098 113300
2738.45-118923 146888-81770 143637-131624 123820
2744.23-142320 146891-107974 123214-108526 129668
2750.02-173585 131481-99642 104376-193363 126814
2755.80-176969 34797-157863 142107-104469 111275
2761.59-115513 112746-200524 69347-206677 95714
2767.37-200222 81257-268776 122718-219928 22152
2773.16-209183 73020-206760 62600-229229 70019
2778.95-186849 102484-183974 67560-193878 36541
2784.73-195500 37650-235676 108935-149874 64136
2790.52-183624 57626-169170 22115-232392 35588
2796.30-250844 88320-167554 33257-208271 32449
2802.09-235227 47824-224197 86413-208342 44279
2807.87-207247 31129-145890 62004-176160 61989
2813.66-196384 66781-164574 64096-162684 103410
2819.44-205284 51291-208092 99132-114492 130394
2825.23-206046 102434-114839 63738-162520 133161
2831.01-129153 107658-147419 94638-156987 130011
2836.80-148309 101679-124167 88690-161522 178223
2842.59-167454 82848-144601 128967-180453 161484
2848.37-113210 46353-155189 32211-145921 133661
2854.16-164421 93533-122079 94746-140625 118802
2859.94-175244 125586-102499 143789-199002 111206
2865.73-146990 157536-49564 128577-116495 197956
2871.51-119401 106330-86046 230047-59444 132252
2877.30-139293 169893-101322 170547-101154 147613
2883.08-83323 153721-63083 137127-54575 178580
2888.87-82655 112352-68670 133154-129949 149108
2894.65-136933 176552-142575 166979-106175 114035
2900.44-102353 158679-135960 188416-82101 164984
2906.23-140284 185232-76646 129398-34189 214916
2912.01-66426 244474-94595 151596-71326 271038
2917.80 2377 256468-36409 256189 75489 272011
2923.58-44307 213071-69643 227161-82525 191449
2929.37-38559 231841-7433 392179 95215 373743
2935.15 27310 293856 52800 351021 68333 328779
2940.94 98535 240067 114037 363021 50324 351635
2946.72 119856 328729 52817 339962 70185 389356
2952.51 71793 331289 68050 349911 73240 413046
2958.29 104193 399235 100922 336057 168536 404469
2964.08 44165 347021 87416 227366-9499 296093
2969.87 15682 237486 50509 277424-21488 181637
2975.65-24217 262477 3540 186006-32744 283814
2981.44 28100 253903 61826 334066 93703 400115
2987.22 150194 430358 222414 457256 234267 533066
2993.01 216443 524065 203238 428775 134011 445054
2998.79-12749 330241 56867 506885 311145 612580
3004.58 392407 559817 327202 518981 207575 395690
3010.36 117636 377457 102654 343689 81855 373642
3016.15-4613 257733-2336 287440 326 289992
3021.93-28825 250674 39264 332693 43988 359905
3027.72 75825 325477 65073 400174 191256 492405
3033.51 164094 583601 377650 653410 399281 638142
3039.29 372949 632436 284226 468211 132636 351907
3045.08-25085 362108 179997 592969 381586 702619
3050.86 403603 623763 264479 504931 264854 443517
3056.65 117589 394515 109996 368572 5919 311371
3062.43-34155 213647-60234 194698-151844 136867
3068.22-89041 153721-117830 100469-179269 146056
3074.00-152067 80451-177053 127587-100361 109769
3079.79-188367 67612-157086 74379-175480 95398
3085.57-95551 130348-134736 113233-96083 95017
3091.36-102525 146204-188530 111860-167596 90313
3097.15-138642 133810-178337 123008-147732 79708
3102.93-122926 133872-205354 64748-230999 26509
3108.72-196211 56509-149642 105981-200639 111265
3114.50-239672 29183-313578 16395-327973-77646
3120.29-330902-27180-307242-109290-313862-33775
3126.07-378450-31335-356563-68943-347809-65768
3131.86-338930-82084-345359-32359-364002-49859
3137.64-283488-56279-274499 10850-308811-7972
3143.43-207511 41975-275947-41042-335944-29910
3149.21-276826-75979-312099 4242-219455 7376
3155.00-251057 64288-175038 136207-105094 177516
3160.79-83654 277506 47026 405013 103499 399936
3166.57 164944 554497 331653 678360 435914 778005
3172.36 621380 923139 758391 1155121 1009787 1297985
3178.14 1062974 1538773 1263198 1607176 1434299 1811844
3183.93 1478383 1794762 1567707 1778286 1433120 1708388
3189.71 1361608 1614201 1382641 1525776 1208376 1597404
3195.50 1565667 2096254 1971229 2115073 1701154 1732040
3201.28 1368325 1383187 958980 988894 520504 642353
3207.07 282663 446348 68060 278986-19124 268055
3212.85-7919 174042-165322 75260-216875 53239
3218.64-293867-45408-325274-54118-294276-92817
3224.43-256968 52572-274950 113462-140732 155567
3230.21-117802 179363-64633 193341-52360 332787
3236.00 115649 378559 177321 431183 194789 447033
3241.78 149968 433154 204392 380594 108909 390067
3247.57 151843 419158 184629 440431 172047 399554
3253.35-9847 238644-138492 99962-245600-27881
3259.14-363340-52467-421320-145048-554602-149170
3264.92-456565-189240-430882-144553-385297-161154
3270.71-510923-113951-435672-190342-413017-96869
3276.49-371236-116878-360409-63527-351583-22147
3282.28-342237-58686-280775 24070-227784-5366
3288.07-189581 29144-227667 57659-221735 129453
3293.85-121275 180277-121164 154953-47790 253257
3299.64-69289 221380-14069 188452-88481 173883
3305.42-55372 239077-100930 247323-147751 220080
3311.21-25594 274424 13153 289412-53518 205274
3316.99-25420 224308-72499 225580-172861 132832
3322.78-32146 218174-128458 231683-87622 165942
3328.56-116517 186228-81012 191727-112618 247139
3334.35-164639 153760-36652 236827-92082 191220
3340.13-24343 135421 142 253788-34868 210334
3345.92-31335 276016 16043 247974-124909 203684
3351.71-100454 190580-66468 207266-499 339421
3357.49 90422 228796-59597 268791 57153 248634
3363.28-168731 81062-62452 152899-180096 166782
3369.06-149186 202049-165865 83242-178533 95236
3374.85-181293 96980-195945 4449-181090 90001
3380.63-161735 101387-217998 78698-156168 148158
3386.42-209490 46044-188247 152975-205417 31899
3392.20-220309 125462-193120 116320-195015 110573
3397.99-176769 134352-169246 127591-85390 130195
3403.77-143123 135911-134790 154934-72772 172955
3409.56-123338 150721-82090 96034-77418 218458
3415.35-49557 267478-172160 161086-193317 251333
3421.13-98450 224634-108014 230056-80715 237046
3426.92-141472 182230-147135 155224-65938 174841
3432.70-181465 39579-131860 138626-201314 95537
3438.49-99490 106048-118532 39904-119286 84894
3444.27-261202 133657-164639 44400-201648 111768
3450.06-206389 99403-206805 71625-181114 57397
3455.84-269571 84036-133346 118052-251825 80659
3461.63-287712 80683-265417 24896-222252 94458
3467.41-287913 63685-245913 60575-285840 69542
3473.20-283888 93737-170794 26871-236859 77174
3478.99-185794 79633-255392 56863-200194 111265
3484.77-207602 196714-168421 173927-234029 114546
3490.56-162179 168960-181643 222224-164061 145145
3496.34-107920 230828-20528 194681-68497 256826
3502.13 3463 282804-14671 262621 8786 202829
3507.91-119940 203530-156855 165454-74873 240503
3513.70 82544 272851-13362 291202-64946 228589
3519.48-51583 147551-46093 206340-124662 153621
3525.27-208063 98417-124645 123330-104532 165889
3531.05-186649 122194-83347 93119-184398 118114
3536.84-218243 120863-97564 91598-193093 117676
3542.63-151529 101265-165967 142689-223997 175575
3548.41-113646 141093-191923 68124-173328 26152
3554.20-132387 139598-226664 168427-159546 109083
3559.98-223382 112201-173422 142385-184600 66360
3565.77-147953 109668-147966 90674-242358 166085
3571.55-199300 145342-177579 111590-234302 103623
3577.34-202280 130640-213360 127487-183706 95660
3583.12-107808 114303-189289 93834-180064 120710
3588.91-173029 108413-197070 105769-135000 140849
3594.69-196283 128868-240713 103133-195369 116364
3600.48-147230 153906-196991 120727-236709 34467
3606.27-201987 95524-208432 86036-149877 144293
3612.05-204937 97082-171576 117991-185018 174479
3617.84-191990 114870-166791 145657-93519 119604
3623.62-117323 117693-127525 104705-175772 98383
3629.41-100640 143648-122800 215778-130320 157034
3635.19-118605 212882-95910 214795-49415 225416
3640.98-57047 265429-114582 250179-109394 221971
3646.76-117308 226452-142084 277788-61127 233369
3652.55-87046 256812-86698 282088-132252 209383
3658.33-74729 261423-95208 217633-123996 190773
3664.12-141754 230098-144234 217324-186061 168533
3669.91-255120 185734-155605 170247-190614 17450
3675.69-199815 97497-182413 166826-199538 109839
3681.48-241518 124415-141861 136553-226740 148544
3687.26-228594 96716-255716 40240-209607 106358
3693.05-165945 161667-194238 146238-168769 122899
3698.83-182887 117974-226140 130631-195565 108337
3704.62-216931 67425-191841 142671-223541 103841
3710.40-210858 49625-121326 117495-195356 83385
3716.19-212336 143539-228371 116334-125255 177658
3721.97-130512 211702-108383 212448-97455 333149
3727.76-99746 268642-2184 254750-12027 304771
3733.55-60683 311071-96463 247610-78523 396707
3739.33 39439 275905-17640 370386-52265 113061
3745.12-67175 277241-2454 266948-24753 333757
3750.90-94226 202255-165560 216100-116815 153134
3756.69-179451 134706-167969 126161-198269 141408
3762.47-171044 81132-190687 80520-159261 92535
3768.26-195886 79054-210063 109243-168059 156702
3774.04-189902 102334-216486 148237-158255 71645
3779.83-193789 84089-149848 190907-190770 129342
3785.61-218425 117307-165153 115209-197362 121010
3791.40-161614 83602-209088 86995-205032 101608
3797.19-203211 112638-129381 142168-170822 105154
3802.97-235979 174867-222068 44982-222874 122144
3808.76-168033 155787-183990 101651-205269 190425
3814.54-241789 76740-184180 135523-177929 80828
3820.33-253113 91835-160901 140772-179676 167034
3826.11-262694 144599-185290 98495-226333 130624
3831.90-163012 109976-247858 123824-172664 58314
3837.68-209276 170053-223197 57165-204666 119621
3843.47-186385 233504-154956 155592-225898 93129
3849.25-192583 93050-267625 93982-329244 84505
3855.04-194901 115876-229857 158092-163948 121315
3860.83-232086 88686-204934 39488-193217 164147
3866.61-128083 89621-252376 51513-168202 140773
3872.40-225394 129496-174246 91358-170142 116744
3878.18-227998 141238-191619 160215-182963 195337
3883.97-157082 99924-219606 157489-142887 123507
3889.75-178131 179196-146981 151352-192790 155944
3895.54-241375 146012-168978 146694-201642 119680
3901.32-182468 228886-4661 118868-170306 228062
3907.11-149665 123481-135304 179708-152650 164478
3912.89-120033 192876-115932 199360-150398 267188
3918.68-143138 243027-56897 236634 834 305841
3924.47-95898 272514-127300 221139-82865 193550
3930.25-142103 260295-63043 226790-27134 231342
3936.04-79903 294694-44147 246227-162343 234274
3941.82-74334 229646-190555 194604-180531 142919
3947.61-163103 154648-203108 164887-178496 130212
3953.39-121544 127935-242929 184718-179390 148090
3959.18-227919 67285-207470 139183-226756 123174
3964.96-217162 163184-267857 120239-203137 165634
3970.75-185329 110183-204902 83290
##END=
