##TITLE=PROPANE, 2-IODO-
##JCAMP-DX=4.24
##DATA TYPE=INFRARED SPECTRUM
##CLASS=COBLENTZ III
##ORIGIN=DOW CHEMICAL COMPANY
##OWNER=COBLENTZ SOCIETY
Collection (C) 2018 copyright by the U.S. Secretary of Commerce
on behalf of the United States of America. All rights reserved.
##DATE=1966/11/02
##NAMES=2-iodopropane
##CAS REGISTRY NO=75-30-9
##MOLFORM=C3 H7 I
##SOURCE REFERENCE=COBLENTZ NO. 10018
##$NIST SOURCE=COBLENTZ
##$NIST IMAGE=cob10018
##SPECTROMETER/DATA SYSTEM=BECKMAN IR-9 (GRATING)
##INSTRUMENT PARAMETERS=ORDER CHANGES AT 670, 1200, 2000 CM^-^1
##STATE=SOLUTION (10% IN CCl4 FOR 3800-1333, AND 10% IN CS2 FOR 1333-400 CM^-^1)
##PATH LENGTH=0.011, 0.011 CM
$$SPECTRAL CONTAMINATION DUE TO CCl4 AROUND 1550, AND CS2 AROUND 860 CM^-^1
##SAMPLING PROCEDURE=TRANSMISSION
##RESOLUTION=4
##DATA PROCESSING=DIGITIZED BY NIST FROM HARD COPY (FROM TWO SEGMENTS)
##XUNITS=1/CM
##YUNITS=TRANSMITTANCE
##XFACTOR=1.000000
##YFACTOR=1
##DELTAX=0.870039
##FIRSTX=405.22
##LASTX=3797.5
##FIRSTY=0.032
##MAXX=3797.5
##MINX=405.22
##MAXY=1.065
##MINY=0.032
##NPOINTS=3900
##XYDATA=(X++(Y..Y))
405.220000 0.0320 0.0320 0.0340 0.0390 0.0430
409.570195 0.0510 0.0550 0.1068 0.1369 0.1619
413.920390 0.1830 0.2150 0.2410 0.2799 0.3059
418.270585 0.3439 0.3799 0.4228 0.5911 0.6218
422.620781 0.6340 0.6560 0.6630 0.6740 0.6890
426.970976 0.7040 0.7090 0.7219 0.7379 0.7460
431.321171 0.7570 0.7620 0.7760 0.7870 0.7920
435.671366 0.8020 0.8100 0.8140 0.8160 0.8220
440.021561 0.8310 0.8360 0.8460 0.8500 0.8520
444.371756 0.8590 0.8630 0.8700 0.8770 0.8800
448.721951 0.8810 0.8880 0.8930 0.8970 0.8990
453.072147 0.9000 0.9050 0.9110 0.9140 0.9160
457.422342 0.9190 0.9220 0.9300 0.9370 0.9380
461.772537 0.9400 0.9410 0.9440 0.9480 0.9490
466.122732 0.9530 0.9530 0.9550 0.9560 0.9600
470.472927 0.9610 0.9630 0.9630 0.9630 0.9630
474.823122 0.9630 0.9610 0.9590 0.9560 0.9550
479.173317 0.9480 0.9410 0.9330 0.9161 0.9011
483.523513 0.8810 0.8630 0.8291 0.7861 0.7491
487.873708 0.7081 0.6602 0.6222 0.6031 0.5921
492.223903 0.5990 0.6320 0.6710 0.7229 0.7799
496.574098 0.8209 0.8539 0.8909 0.9049 0.9339
500.924293 0.9380 0.9450 0.9570 0.9700 0.9790
505.274488 0.9850 0.9870 0.9910 0.9980 1.0020
509.624683 1.0080 1.0120 1.0120 1.0130 1.0160
513.974879 1.0230 1.0240 1.0240 1.0250 1.0240
518.325074 1.0250 1.0270 1.0290 1.0310 1.0340
522.675269 1.0340 1.0350 1.0360 1.0380 1.0380
527.025464 1.0360 1.0380 1.0400 1.0420 1.0400
531.375659 1.0420 1.0420 1.0460 1.0460 1.0460
535.725854 1.0470 1.0470 1.0470 1.0490 1.0490
540.076049 1.0440 1.0440 1.0470 1.0500 1.0500
544.426245 1.0510 1.0510 1.0530 1.0530 1.0530
548.776440 1.0530 1.0540 1.0540 1.0530 1.0530
553.126635 1.0530 1.0540 1.0550 1.0550 1.0550
557.476830 1.0540 1.0540 1.0570 1.0570 1.0550
561.827025 1.0550 1.0540 1.0540 1.0540 1.0540
566.177220 1.0540 1.0540 1.0530 1.0510 1.0540
570.527415 1.0540 1.0540 1.0530 1.0490 1.0510
574.877611 1.0530 1.0530 1.0540 1.0540 1.0540
579.227806 1.0530 1.0530 1.0500 1.0500 1.0500
583.578001 1.0490 1.0490 1.0490 1.0490 1.0470
587.928196 1.0430 1.0430 1.0460 1.0460 1.0460
592.278391 1.0440 1.0440 1.0420 1.0400 1.0390
596.628586 1.0380 1.0380 1.0380 1.0390 1.0390
600.978781 1.0390 1.0390 1.0380 1.0380 1.0360
605.328977 1.0360 1.0360 1.0350 1.0350 1.0340
609.679172 1.0340 1.0320 1.0320 1.0320 1.0310
614.029367 1.0290 1.0290 1.0280 1.0270 1.0250
618.379562 1.0240 1.0230 1.0230 1.0240 1.0240
622.729757 1.0240 1.0240 1.0240 1.0240 1.0230
627.079952 1.0230 1.0230 1.0240 1.0240 1.0230
631.430147 1.0210 1.0190 1.0170 1.0140 1.0130
635.780343 1.0080 1.0060 1.0060 1.0020 1.0010
640.130538 1.0000 0.9980 0.9950 0.9930 0.9910
644.480733 0.9900 0.9870 0.9850 0.9820 0.9780
648.830928 0.9760 0.9750 0.9720 0.9700 0.9670
653.181123 0.9640 0.9560 0.9560 0.9600 0.9610
657.531318 0.9670 0.9700 0.9760 0.9820 0.9890
661.881513 0.9900 0.9930 1.0000 1.0000 0.9980
666.231709 0.9980 0.9950 1.0050 1.0130 1.0140
670.581904 1.0160 1.0230 1.0340 1.0380 1.0569
674.932099 1.0580 1.0580 1.0580 1.0590 1.0610
679.282294 1.0620 1.0640 1.0640 1.0640 1.0640
683.632489 1.0620 1.0620 1.0620 1.0620 1.0620
687.982684 1.0650 1.0650 1.0620 1.0610 1.0610
692.332879 1.0610 1.0590 1.0590 1.0590 1.0580
696.683074 1.0590 1.0580 1.0570 1.0570 1.0550
701.033270 1.0550 1.0550 1.0550 1.0540 1.0540
705.383465 1.0540 1.0540 1.0530 1.0530 1.0530
709.733660 1.0540 1.0510 1.0510 1.0540 1.0550
714.083855 1.0550 1.0540 1.0540 1.0540 1.0530
718.434050 1.0510 1.0510 1.0500 1.0500 1.0500
722.784245 1.0510 1.0530 1.0530 1.0540 1.0540
727.134440 1.0540 1.0540 1.0530 1.0530 1.0510
731.484636 1.0500 1.0490 1.0490 1.0490 1.0490
735.834831 1.0490 1.0490 1.0490 1.0470 1.0460
740.185026 1.0460 1.0460 1.0440 1.0440 1.0430
744.535221 1.0430 1.0430 1.0420 1.0420 1.0400
748.885416 1.0390 1.0380 1.0360 1.0350 1.0350
753.235611 1.0340 1.0320 1.0310 1.0290 1.0280
757.585806 1.0270 1.0270 1.0250 1.0250 1.0240
761.936002 1.0240 1.0240 1.0270 1.0280 1.0280
766.286197 1.0280 1.0280 1.0280 1.0280 1.0270
770.636392 1.0270 1.0270 1.0280 1.0280 1.0280
774.986587 1.0280 1.0280 1.0280 1.0280 1.0270
779.336782 1.0230 1.0230 1.0210 1.0210 1.0170
783.686977 1.0170 1.0170 1.0160 1.0160 1.0160
788.037172 1.0160 1.0170 1.0170 1.0170 1.0170
792.387368 1.0190 1.0190 1.0190 1.0190 1.0200
796.737563 1.0210 1.0210 1.0210 1.0230 1.0210
801.087758 1.0210 1.0210 1.0210 1.0230 1.0230
805.437953 1.0230 1.0230 1.0230 1.0210 1.0210
809.788148 1.0200 1.0200 1.0200 1.0200 1.0210
814.138343 1.0210 1.0210 1.0210 1.0210 1.0210
818.488538 1.0230 1.0230 1.0210 1.0210 1.0210
822.838734 1.0190 1.0190 1.0190 1.0190 1.0190
827.188929 1.0170 1.0140 1.0120 1.0100 1.0090
831.539124 1.0080 1.0050 1.0010 1.0010 1.0000
835.889319 0.9980 0.9930 0.9900 0.9890 0.9790
840.239514 0.9710 0.9570 0.9550 0.9440 0.9350
844.589709 0.9270 0.9160 0.9110 0.8921 0.8890
848.939904 0.8760 0.8650 0.8590 0.8510 0.8480
853.290100 0.8390 0.8360 0.8320 0.8310 0.8290
857.640295 0.8290 0.8280 0.8280 0.8260 0.8250
861.990490 0.8240 0.8210 0.8200 0.8140 0.8110
866.340685 0.8030 0.7920 0.7760 0.7680 0.7380
870.690880 0.6961 0.6820 0.6441 0.6101 0.5980
875.041075 0.5870 0.5980 0.6679 0.7189 0.7669
879.391270 0.8109 0.8389 0.8699 0.8760 0.8919
883.741466 0.8990 0.9100 0.9230 0.9260 0.9370
888.091661 0.9400 0.9520 0.9550 0.9610 0.9670
892.441856 0.9700 0.9760 0.9790 0.9820 0.9860
896.792051 0.9870 0.9910 0.9950 0.9980 1.0000
901.142246 1.0000 1.0010 1.0010 1.0010 1.0010
905.492441 1.0020 1.0020 1.0020 1.0050 1.0060
909.842636 1.0080 1.0100 1.0090 1.0090 1.0080
914.192832 1.0060 1.0020 1.0010 1.0010 1.0000
918.543027 1.0000 1.0000 0.9980 0.9980 0.9930
922.893222 0.9870 0.9830 0.9780 0.9680 0.9551
927.243417 0.9460 0.9420 0.9420 0.9450 0.9530
931.593612 0.9590 0.9640 0.9680 0.9760 0.9820
935.943807 0.9830 0.9860 0.9870 0.9890 0.9900
940.294002 0.9930 0.9940 0.9940 0.9940 0.9910
944.644198 0.9910 0.9910 0.9910 0.9930 0.9970
948.994393 1.0010 1.0020 1.0010 1.0010 1.0010
953.344588 1.0010 1.0040 1.0050 1.0050 1.0060
957.694783 1.0060 1.0080 1.0090 1.0090 1.0090
962.044978 1.0090 1.0090 1.0090 1.0100 1.0100
966.395173 1.0100 1.0120 1.0120 1.0120 1.0120
970.745368 1.0120 1.0130 1.0140 1.0140 1.0130
975.095564 1.0130 1.0130 1.0130 1.0130 1.0130
979.445759 1.0120 1.0120 1.0120 1.0100 1.0090
983.795954 1.0090 1.0080 1.0080 1.0060 1.0060
988.146149 1.0060 1.0060 1.0040 1.0040 1.0040
992.496344 1.0020 1.0010 1.0010 1.0010 1.0000
996.846539 1.0000 1.0000 1.0000 1.0000 0.9980
1001.196734 0.9980 0.9970 0.9940 0.9890 0.9890
1005.546930 0.9860 0.9830 0.9780 0.9760 0.9610
1009.897125 0.9460 0.9121 0.8911 0.8691 0.8173
1014.247320 0.7600 0.6900 0.6360 0.6170 0.6260
1018.597515 0.7158 0.7938 0.8398 0.8858 0.9079
1022.947710 0.9230 0.9370 0.9480 0.9550 0.9600
1027.297905 0.9670 0.9700 0.9720 0.9780 0.9830
1031.648100 0.9870 0.9890 0.9890 0.9900 0.9900
1035.998296 0.9910 0.9910 0.9930 0.9910 0.9930
1040.348491 0.9940 0.9950 0.9950 0.9950 0.9950
1044.698686 0.9950 0.9950 0.9950 0.9950 0.9950
1049.048881 0.9970 0.9970 0.9950 0.9940 0.9940
1053.399076 0.9940 0.9930 0.9930 0.9930 0.9940
1057.749271 0.9950 0.9980 0.9980 0.9970 0.9950
1062.099466 0.9950 0.9970 0.9970 0.9970 0.9970
1066.449662 0.9970 0.9970 0.9970 0.9970 0.9970
1070.799857 0.9970 0.9970 0.9970 0.9970 0.9950
1075.150052 0.9950 0.9950 0.9950 0.9940 0.9940
1079.500247 0.9930 0.9900 0.9900 0.9910 0.9910
1083.850442 0.9900 0.9900 0.9890 0.9890 0.9890
1088.200637 0.9890 0.9890 0.9870 0.9860 0.9830
1092.550832 0.9830 0.9830 0.9830 0.9850 0.9850
1096.901028 0.9820 0.9800 0.9800 0.9790 0.9780
1101.251223 0.9750 0.9740 0.9720 0.9710 0.9680
1105.601418 0.9670 0.9640 0.9610 0.9570 0.9550
1109.951613 0.9490 0.9450 0.9410 0.9350 0.9310
1114.301808 0.9220 0.9140 0.9050 0.8930 0.8840
1118.652003 0.8810 0.8730 0.8650 0.8610 0.8560
1123.002198 0.8520 0.8460 0.8330 0.8250 0.8140
1127.352394 0.8050 0.7880 0.7680 0.7420 0.7121
1131.702589 0.6831 0.6491 0.6141 0.5732 0.5392
1136.052784 0.5050 0.4670 0.4160 0.3580 0.3161
1140.402979 0.2072 0.1292 0.1031 0.0811 0.0581
1144.753174 0.0550 0.0420 0.0390 0.0400 0.1368
1149.103369 0.3006 0.4137 0.4459 0.5934 0.6288
1153.453564 0.6590 0.6900 0.7160 0.7420 0.7600
1157.803760 0.7770 0.7860 0.8109 0.8249 0.8320
1162.153955 0.8350 0.8460 0.8510 0.8560 0.8620
1166.504150 0.8650 0.8710 0.8730 0.8740 0.8760
1170.854345 0.8780 0.8800 0.8800 0.8800 0.8780
1175.204540 0.8760 0.8730 0.8700 0.8700 0.8670
1179.554735 0.8550 0.8440 0.8320 0.8220 0.8110
1183.904930 0.7950 0.7750 0.7581 0.7391 0.7021
1188.255126 0.6810 0.6300 0.5890 0.5570 0.5231
1192.605321 0.4951 0.4501 0.3932 0.3223 0.2523
1196.955516 0.2490 0.2450 0.2230 0.1930 0.1371
1201.305711 0.0801 0.2874 0.2910 0.3777 0.4567
1205.655906 0.5890 0.6330 0.6740 0.6970 0.7429
1210.006101 0.7789 0.8179 0.8310 0.8509 0.8709
1214.356296 0.8810 0.8930 0.9030 0.9120 0.9220
1218.706491 0.9270 0.9340 0.9410 0.9480 0.9500
1223.056687 0.9550 0.9560 0.9610 0.9630 0.9640
1227.406882 0.9670 0.9720 0.9760 0.9790 0.9800
1231.757077 0.9820 0.9820 0.9830 0.9860 0.9870
1236.107272 0.9890 0.9890 0.9900 0.9900 0.9910
1240.457467 0.9910 0.9910 0.9910 0.9930 0.9940
1244.807662 0.9950 0.9950 0.9970 0.9970 0.9970
1249.157857 0.9980 0.9980 0.9980 1.0000 1.0000
1253.508053 1.0000 1.0000 1.0000 1.0010 1.0010
1257.858248 1.0010 1.0010 1.0010 1.0000 1.0000
1262.208443 1.0000 0.9980 0.9980 0.9980 0.9980
1266.558638 0.9980 0.9980 0.9970 0.9970 0.9970
1270.908833 0.9970 0.9970 0.9970 0.9980 0.9980
1275.259028 0.9980 0.9980 1.0000 1.0010 1.0010
1279.609223 1.0040 1.0040 1.0020 1.0020 1.0010
1283.959419 1.0010 1.0010 1.0010 1.0010 1.0000
1288.309614 0.9980 0.9980 0.9970 0.9970 0.9980
1292.659809 0.9980 0.9980 0.9970 0.9970 0.9970
1297.010004 0.9970 0.9950 0.9950 0.9940 0.9940
1301.360199 0.9930 0.9930 0.9910 0.9900 0.9890
1305.710394 0.9860 0.9860 0.9850 0.9850 0.9830
1310.060589 0.9790 0.9760 0.9760 0.9760 0.9750
1314.410785 0.9750 0.9750 0.9750 0.9740 0.9740
1318.760980 0.9740 0.9740 0.9740 0.9750 0.9750
1323.111175 0.9750 0.9750 0.9750 0.9760 0.9760
1327.461370 0.9760 0.9760 0.9760 0.9760 0.9760
1331.811565 0.9760 0.9760 0.9760 0.9760 0.9760
1336.161760 0.9760 0.9750 0.9750 0.9750 0.9750
1340.511955 0.9740 0.9720 0.9720 0.9710 0.9710
1344.862151 0.9710 0.9700 0.9700 0.9700 0.9680
1349.212346 0.9670 0.9670 0.9650 0.9630 0.9600
1353.562541 0.9590 0.9560 0.9550 0.9530 0.9490
1357.912736 0.9460 0.9410 0.9340 0.9300 0.9101
1362.262931 0.9030 0.8860 0.8650 0.8360 0.7920
1366.613126 0.7241 0.6512 0.5981 0.5432 0.4872
1370.963321 0.4861 0.6450 0.7070 0.7579 0.7840
1375.313517 0.8099 0.8180 0.8240 0.8240 0.8220
1379.663712 0.7970 0.7600 0.7050 0.6560 0.5941
1384.013907 0.5940 0.6219 0.6778 0.7368 0.7868
1388.364102 0.8180 0.8410 0.8710 0.8880 0.8920
1392.714297 0.8970 0.9030 0.9100 0.9110 0.9140
1397.064492 0.9140 0.9150 0.9200 0.9220 0.9220
1401.414687 0.9200 0.9200 0.9190 0.9160 0.9150
1405.764883 0.9140 0.9120 0.9110 0.9100 0.9070
1410.115078 0.9030 0.8970 0.8930 0.8920 0.8840
1414.465273 0.8800 0.8800 0.8810 0.8820 0.8840
1418.815468 0.8860 0.8910 0.8920 0.8970 0.8970
1423.165663 0.8990 0.8990 0.8990 0.8990 0.8990
1427.515858 0.8970 0.8960 0.8950 0.8930 0.8920
1431.866053 0.8910 0.8880 0.8860 0.8820 0.8770
1436.216249 0.8730 0.8690 0.8630 0.8560 0.8391
1440.566444 0.8160 0.7940 0.7750 0.7540 0.6771
1444.916639 0.6640 0.6520 0.6400 0.5922 0.5532
1449.266834 0.5430 0.5340 0.5120 0.5140 0.5530
1453.617029 0.6059 0.6279 0.6489 0.6580 0.6480
1457.967224 0.6149 0.5760 0.5350 0.4930 0.4780
1462.317419 0.4780 0.6227 0.6829 0.7309 0.7758
1466.667615 0.8020 0.8240 0.8370 0.8510 0.8630
1471.017810 0.8710 0.8800 0.8820 0.8890 0.8920
1475.368005 0.8960 0.8970 0.8990 0.9000 0.9010
1479.718200 0.9030 0.9040 0.9040 0.9040 0.9030
1484.068395 0.9030 0.9030 0.9010 0.9000 0.8990
1488.418590 0.8970 0.8950 0.8920 0.8890 0.8880
1492.768785 0.8840 0.8820 0.8770 0.8740 0.8710
1497.118981 0.8690 0.8670 0.8620 0.8580 0.8510
1501.469176 0.8440 0.8400 0.8360 0.8320 0.8250
1505.819371 0.8170 0.8110 0.8090 0.8030 0.7970
1510.169566 0.7920 0.7830 0.7750 0.7680 0.7620
1514.519761 0.7570 0.7560 0.7460 0.7420 0.7390
1518.869956 0.7350 0.7300 0.7200 0.7130 0.7090
1523.220151 0.7080 0.7070 0.7050 0.7040 0.7020
1527.570347 0.7000 0.6940 0.6880 0.6810 0.6730
1531.920542 0.6620 0.6560 0.6450 0.6330 0.6260
1536.270737 0.6150 0.6060 0.6020 0.5910 0.5810
1540.620932 0.5680 0.5540 0.5500 0.5460 0.5390
1544.971127 0.5350 0.5230 0.5130 0.5120 0.5090
1549.321322 0.5080 0.5050 0.5040 0.5020 0.5040
1553.671517 0.5050 0.5060 0.5090 0.5130 0.5200
1558.021713 0.5240 0.5290 0.5499 0.5610 0.5680
1562.371908 0.5740 0.5880 0.6000 0.6060 0.6170
1566.722103 0.6210 0.6300 0.6360 0.6450 0.6530
1571.072298 0.6600 0.6620 0.6660 0.6680 0.6740
1575.422493 0.6770 0.6780 0.6790 0.6810 0.6820
1579.772688 0.6850 0.6880 0.6890 0.6900 0.6900
1584.122883 0.6930 0.6960 0.7000 0.7050 0.7130
1588.473079 0.7170 0.7240 0.7340 0.7490 0.7540
1592.823274 0.7600 0.7730 0.7800 0.7870 0.7990
1597.173469 0.8100 0.8170 0.8260 0.8350 0.8470
1601.523664 0.8510 0.8590 0.8690 0.8710 0.8740
1605.873859 0.8800 0.8910 0.8950 0.8970 0.9000
1610.224054 0.9040 0.9110 0.9120 0.9150 0.9230
1614.574249 0.9260 0.9330 0.9340 0.9350 0.9370
1618.924445 0.9380 0.9410 0.9440 0.9460 0.9480
1623.274640 0.9490 0.9520 0.9520 0.9530 0.9560
1627.624835 0.9570 0.9570 0.9590 0.9600 0.9640
1631.975030 0.9680 0.9700 0.9710 0.9720 0.9760
1636.325225 0.9780 0.9800 0.9820 0.9830 0.9850
1640.675420 0.9890 0.9900 0.9900 0.9900 0.9890
1645.025615 0.9900 0.9910 0.9910 0.9930 0.9930
1649.375811 0.9930 0.9950 0.9970 0.9980 0.9980
1653.726006 0.9980 0.9980 0.9980 0.9980 0.9980
1658.076201 0.9980 0.9980 1.0000 1.0000 0.9970
1662.426396 0.9970 0.9970 0.9970 0.9970 0.9980
1666.776591 0.9980 0.9980 0.9980 0.9980 0.9980
1671.126786 1.0010 1.0010 1.0010 1.0000 1.0000
1675.476981 0.9980 1.0000 1.0010 1.0010 1.0010
1679.827177 1.0010 1.0000 1.0000 0.9980 0.9950
1684.177372 0.9950 1.0000 1.0000 1.0000 0.9980
1688.527567 0.9980 0.9970 1.0000 0.9980 0.9980
1692.877762 0.9980 1.0000 0.9980 0.9980 0.9970
1697.227957 0.9980 0.9980 0.9980 1.0000 1.0000
1701.578152 1.0000 1.0000 1.0010 1.0010 1.0010
1705.928347 1.0010 1.0000 1.0000 1.0010 1.0010
1710.278543 1.0010 1.0000 0.9980 1.0000 1.0000
1714.628738 1.0000 1.0000 1.0000 1.0000 1.0000
1718.978933 1.0000 1.0000 1.0000 1.0000 1.0010
1723.329128 1.0010 1.0000 1.0000 1.0000 1.0010
1727.679323 1.0010 1.0010 1.0010 1.0010 1.0010
1732.029518 1.0010 1.0020 1.0020 1.0020 1.0020
1736.379713 1.0020 1.0020 1.0020 1.0020 1.0040
1740.729909 1.0040 1.0040 1.0010 1.0010 1.0000
1745.080104 1.0000 1.0000 1.0000 1.0000 1.0000
1749.430299 1.0000 1.0000 1.0000 1.0000 1.0010
1753.780494 1.0010 1.0010 1.0020 1.0040 1.0060
1758.130689 1.0060 1.0060 1.0060 1.0060 1.0060
1762.480884 1.0080 1.0080 1.0080 1.0060 1.0060
1766.831079 1.0050 1.0050 1.0050 1.0060 1.0080
1771.181274 1.0080 1.0080 1.0080 1.0080 1.0060
1775.531470 1.0050 1.0050 1.0050 1.0050 1.0050
1779.881665 1.0050 1.0040 1.0040 1.0040 1.0020
1784.231860 1.0020 1.0010 1.0010 1.0010 1.0010
1788.582055 1.0020 1.0020 1.0020 1.0010 1.0010
1792.932250 1.0010 1.0010 1.0010 1.0010 1.0020
1797.282445 1.0040 1.0040 1.0040 1.0040 1.0040
1801.632640 1.0020 1.0020 1.0010 1.0020 1.0010
1805.982836 1.0010 1.0010 1.0000 1.0010 1.0010
1810.333031 1.0000 1.0000 0.9980 0.9970 0.9970
1814.683226 0.9980 0.9980 0.9980 0.9980 0.9970
1819.033421 0.9970 0.9950 0.9950 0.9950 0.9970
1823.383616 0.9980 0.9980 0.9980 0.9980 0.9980
1827.733811 0.9980 0.9980 0.9980 0.9970 0.9970
1832.084006 0.9970 0.9970 0.9970 0.9970 0.9950
1836.434202 0.9950 1.0000 1.0000 1.0000 1.0000
1840.784397 1.0000 1.0000 1.0000 1.0000 0.9980
1845.134592 0.9970 0.9970 0.9970 0.9980 0.9980
1849.484787 1.0000 0.9980 0.9980 0.9980 0.9970
1853.834982 0.9970 0.9950 0.9950 0.9950 0.9950
1858.185177 0.9950 0.9950 0.9950 0.9950 0.9950
1862.535372 0.9950 0.9970 0.9970 0.9970 0.9950
1866.885568 0.9950 0.9950 0.9950 0.9970 0.9970
1871.235763 0.9970 0.9980 0.9980 1.0000 1.0010
1875.585958 1.0010 1.0010 1.0010 1.0010 1.0000
1879.936153 1.0000 0.9980 0.9980 0.9970 0.9950
1884.286348 0.9950 0.9940 0.9940 0.9930 0.9930
1888.636543 0.9910 0.9900 0.9890 0.9890 0.9900
1892.986738 0.9910 0.9950 0.9970 0.9980 0.9980
1897.336934 1.0000 0.9980 1.0000 1.0000 1.0000
1901.687129 1.0010 1.0010 1.0000 1.0010 1.0020
1906.037324 1.0010 1.0010 1.0010 1.0010 1.0010
1910.387519 1.0010 1.0020 1.0020 1.0020 1.0020
1914.737714 1.0020 1.0020 1.0020 1.0020 1.0020
1919.087909 1.0020 1.0050 1.0050 1.0050 1.0040
1923.438104 1.0040 1.0050 1.0050 1.0050 1.0050
1927.788300 1.0050 1.0040 1.0040 1.0040 1.0040
1932.138495 1.0040 1.0020 1.0020 1.0020 1.0020
1936.488690 1.0020 1.0020 1.0020 1.0020 1.0020
1940.838885 1.0020 1.0020 1.0020 1.0020 1.0040
1945.189080 1.0040 1.0020 1.0020 1.0020 1.0020
1949.539275 1.0040 1.0020 1.0010 1.0010 1.0010
1953.889470 1.0010 1.0010 1.0010 1.0010 1.0010
1958.239666 1.0010 1.0040 1.0040 1.0020 1.0020
1962.589861 1.0020 1.0020 1.0010 1.0010 1.0000
1966.940056 1.0000 1.0000 1.0000 1.0000 1.0040
1971.290251 1.0040 1.0020 1.0000 1.0010 1.0010
1975.640446 1.0010 1.0010 1.0000 1.0000 1.0000
1979.990641 1.0000 1.0000 1.0000 1.0000 1.0010
1984.340836 1.0010 1.0010 1.0010 1.0000 1.0000
1988.691032 1.0000 1.0020 1.0020 1.0010 1.0010
1993.041227 1.0010 1.0010 1.0000 0.9970 0.9910
1997.391422 0.9910 0.9950 0.9970 1.0010 1.0010
2001.741617 1.0010 1.0010 1.0010 1.0010 1.0010
2006.091812 1.0015 1.0020 1.0020 1.0020 1.0015
2010.442007 1.0010 1.0010 1.0010 1.0010 1.0010
2014.792202 1.0005 1.0000 0.9990 0.9980 0.9980
2019.142398 0.9980 0.9975 0.9970 0.9975 0.9980
2023.492593 0.9994 1.0009 1.0010 1.0010 1.0010
2027.842788 1.0010 1.0015 1.0020 1.0020 1.0020
2032.192983 1.0020 1.0020 1.0020 1.0020 1.0029
2036.543178 1.0039 1.0040 1.0040 1.0045 1.0050
2040.893373 1.0050 1.0050 1.0050 1.0050 1.0050
2045.243568 1.0050 1.0050 1.0050 1.0055 1.0060
2049.593764 1.0060 1.0060 1.0060 1.0060 1.0060
2053.943959 1.0060 1.0060 1.0060 1.0060 1.0060
2058.294154 1.0060 1.0060 1.0055 1.0051 1.0046
2062.644349 1.0040 1.0040 1.0040 1.0031 1.0021
2066.994544 1.0020 1.0020 1.0020 1.0020 1.0029
2071.344739 1.0039 1.0044 1.0049 1.0054 1.0059
2075.694934 1.0069 1.0079 1.0084 1.0089 1.0090
2080.045130 1.0090 1.0094 1.0099 1.0100 1.0100
2084.395325 1.0100 1.0100 1.0109 1.0119 1.0120
2088.745520 1.0120 1.0120 1.0120 1.0120 1.0120
2093.095715 1.0120 1.0120 1.0120 1.0120 1.0120
2097.445910 1.0120 1.0120 1.0120 1.0120 1.0120
2101.796105 1.0120 1.0120 1.0112 1.0102 1.0100
2106.146300 1.0100 1.0100 1.0100 1.0100 1.0100
2110.496496 1.0100 1.0100 1.0096 1.0091 1.0090
2114.846691 1.0090 1.0090 1.0090 1.0090 1.0090
2119.196886 1.0090 1.0090 1.0090 1.0090 1.0094
2123.547081 1.0099 1.0100 1.0100 1.0100 1.0100
2127.897276 1.0096 1.0091 1.0090 1.0090 1.0090
2132.247471 1.0090 1.0086 1.0081 1.0080 1.0080
2136.597666 1.0072 1.0062 1.0060 1.0060 1.0060
2140.947862 1.0060 1.0060 1.0060 1.0060 1.0060
2145.298057 1.0060 1.0060 1.0060 1.0060 1.0056
2149.648252 1.0051 1.0046 1.0041 1.0040 1.0040
2153.998447 1.0033 1.0023 1.0020 1.0020 1.0020
2158.348642 1.0020 1.0016 1.0011 1.0006 1.0001
2162.698837 0.9989 0.9974 0.9963 0.9953 0.9957
2167.049032 0.9967 0.9974 0.9979 0.9991 1.0006
2171.399228 1.0010 1.0010 1.0014 1.0019 1.0020
2175.749423 1.0020 1.0027 1.0037 1.0040 1.0040
2180.099618 1.0044 1.0049 1.0054 1.0059 1.0060
2184.449813 1.0060 1.0067 1.0077 1.0080 1.0080
2188.800008 1.0080 1.0080 1.0080 1.0080 1.0080
2193.150203 1.0080 1.0073 1.0063 1.0060 1.0060
2197.500398 1.0060 1.0060 1.0057 1.0052 1.0047
2201.850594 1.0042 1.0033 1.0023 1.0020 1.0020
2206.200789 1.0017 1.0012 1.0010 1.0010 1.0007
2210.550984 1.0002 0.9993 0.9983 0.9977 0.9972
2214.901179 0.9963 0.9954 0.9950 0.9950 0.9950
2219.251374 0.9950 0.9950 0.9950 0.9950 0.9950
2223.601569 0.9956 0.9966 0.9970 0.9970 0.9973
2227.951764 0.9978 0.9980 0.9980 0.9980 0.9980
2232.301960 0.9977 0.9972 0.9970 0.9970 0.9964
2236.652155 0.9954 0.9947 0.9942 0.9937 0.9932
2241.002350 0.9924 0.9914 0.9904 0.9894 0.9884
2245.352545 0.9874 0.9870 0.9870 0.9876 0.9886
2249.702740 0.9896 0.9906 0.9916 0.9926 0.9930
2254.052935 0.9930 0.9924 0.9914 0.9910 0.9910
2258.403130 0.9907 0.9902 0.9891 0.9876 0.9867
2262.753326 0.9862 0.9860 0.9860 0.9860 0.9860
2267.103521 0.9860 0.9860 0.9868 0.9883 0.9890
2271.453716 0.9890 0.9884 0.9874 0.9870 0.9870
2275.803911 0.9867 0.9862 0.9860 0.9860 0.9860
2280.154106 0.9860 0.9860 0.9860 0.9857 0.9852
2284.504301 0.9845 0.9835 0.9827 0.9822 0.9820
2288.854496 0.9820 0.9815 0.9805 0.9797 0.9792
2293.204692 0.9790 0.9790 0.9787 0.9782 0.9780
2297.554887 0.9780 0.9780 0.9780 0.9780 0.9780
2301.905082 0.9783 0.9788 0.9805 0.9835 0.9850
2306.255277 0.9850 0.9850 0.9850 0.9852 0.9857
2310.605472 0.9862 0.9867 0.9870 0.9870 0.9870
2314.955667 0.9870 0.9870 0.9870 0.9870 0.9870
2319.305862 0.9875 0.9885 0.9890 0.9890 0.9892
2323.656057 0.9897 0.9900 0.9900 0.9900 0.9900
2328.006253 0.9902 0.9907 0.9915 0.9925 0.9932
2332.356448 0.9937 0.9942 0.9947 0.9955 0.9965
2336.706643 0.9970 0.9970 0.9970 0.9970 0.9972
2341.056838 0.9977 0.9980 0.9980 0.9978 0.9973
2345.407033 0.9970 0.9970 0.9977 0.9992 1.0000
2349.757228 1.0000 1.0000 1.0000 1.0000 1.0000
2354.107423 1.0000 1.0000 1.0000 1.0000 1.0000
2358.457619 1.0000 1.0000 1.0000 1.0000 1.0000
2362.807814 1.0000 1.0000 1.0000 1.0000 1.0002
2367.158009 1.0007 1.0010 1.0010 1.0016 1.0031
2371.508204 1.0036 1.0026 1.0018 1.0013 1.0008
2375.858399 1.0003 1.0000 1.0000 0.9996 0.9986
2380.208594 0.9974 0.9959 0.9950 0.9950 0.9950
2384.558789 0.9950 0.9950 0.9950 0.9950 0.9950
2388.908985 0.9948 0.9943 0.9940 0.9940 0.9942
2393.259180 0.9947 0.9954 0.9964 0.9970 0.9970
2397.609375 0.9970 0.9970 0.9970 0.9970 0.9970
2401.959570 0.9970 0.9970 0.9970 0.9970 0.9970
2406.309765 0.9972 0.9977 0.9980 0.9980 0.9985
2410.659960 1.0000 1.0012 1.0017 1.0020 1.0020
2415.010155 1.0020 1.0020 1.0023 1.0033 1.0040
2419.360351 1.0040 1.0037 1.0027 1.0020 1.0020
2423.710546 1.0020 1.0020 1.0020 1.0020 1.0018
2428.060741 1.0014 1.0010 1.0010 1.0010 1.0010
2432.410936 1.0009 1.0004 1.0002 1.0007 1.0010
2436.761131 1.0010 1.0012 1.0016 1.0020 1.0020
2441.111326 1.0023 1.0033 1.0040 1.0040 1.0041
2445.461521 1.0046 1.0050 1.0050 1.0050 1.0050
2449.811717 1.0050 1.0050 1.0050 1.0050 1.0049
2454.161912 1.0044 1.0040 1.0040 1.0041 1.0046
2458.512107 1.0049 1.0044 1.0040 1.0040 1.0040
2462.862302 1.0040 1.0040 1.0040 1.0037 1.0028
2467.212497 1.0019 1.0014 1.0010 1.0010 1.0009
2471.562692 1.0004 0.9998 0.9988 0.9980 0.9980
2475.912887 0.9982 0.9992 1.0001 1.0006 1.0010
2480.263083 1.0010 1.0009 1.0004 0.9998 0.9988
2484.613278 0.9980 0.9980 0.9979 0.9974 0.9970
2488.963473 0.9970 0.9970 0.9970 0.9970 0.9970
2493.313668 0.9970 0.9970 0.9970 0.9970 0.9968
2497.663863 0.9958 0.9950 0.9950 0.9950 0.9950
2502.014058 0.9950 0.9950 0.9952 0.9962 0.9970
2506.364253 0.9970 0.9971 0.9976 0.9982 0.9992
2510.714449 1.0001 1.0006 1.0010 1.0010 1.0010
2515.064644 1.0010 1.0010 1.0010 1.0010 1.0010
2519.414839 1.0010 1.0010 1.0010 1.0010 1.0009
2523.765034 1.0004 1.0000 1.0000 1.0000 1.0000
2528.115229 1.0000 1.0000 1.0001 1.0006 1.0010
2532.465424 1.0010 1.0010 1.0010 1.0011 1.0016
2536.815619 1.0020 1.0020 1.0020 1.0020 1.0020
2541.165815 1.0020 1.0021 1.0031 1.0040 1.0040
2545.516010 1.0040 1.0040 1.0040 1.0040 1.0040
2549.866205 1.0040 1.0040 1.0040 1.0040 1.0040
2554.216400 1.0040 1.0040 1.0039 1.0029 1.0019
2558.566595 1.0015 1.0010 1.0010 1.0010 1.0010
2562.916790 1.0010 1.0010 1.0010 1.0010 1.0010
2567.266985 1.0010 1.0010 1.0010 1.0010 1.0010
2571.617181 1.0010 1.0010 1.0010 1.0010 1.0010
2575.967376 1.0010 1.0010 1.0010 1.0010 1.0010
2580.317571 1.0010 1.0010 1.0010 1.0010 1.0010
2584.667766 1.0005 1.0000 1.0000 0.9999 0.9990
2589.017961 0.9980 0.9980 0.9980 0.9975 0.9970
2593.368156 0.9970 0.9970 0.9975 0.9980 0.9980
2597.718351 0.9981 0.9996 1.0010 1.0010 1.0010
2602.068547 1.0010 1.0010 1.0005 1.0000 1.0000
2606.418742 1.0000 1.0000 1.0000 1.0005 1.0010
2610.768937 1.0010 1.0010 1.0010 1.0010 1.0010
2615.119132 1.0010 1.0010 1.0010 1.0010 1.0010
2619.469327 1.0010 1.0010 1.0005 1.0000 1.0000
2623.819522 1.0000 0.9985 0.9970 0.9970 0.9970
2628.169717 0.9960 0.9950 0.9950 0.9950 0.9960
2632.519913 0.9970 0.9975 0.9980 0.9990 1.0000
2636.870108 1.0000 1.0000 0.9990 0.9980 0.9999
2641.220303 1.0019 1.0020 1.0020 1.0015 1.0010
2645.570498 1.0005 1.0000 1.0000 1.0000 1.0000
2649.920693 1.0000 0.9990 0.9980 0.9980 0.9980
2654.270888 0.9980 0.9980 0.9980 0.9980 0.9980
2658.621083 0.9980 0.9980 0.9980 0.9980 0.9980
2662.971279 0.9989 0.9999 1.0000 1.0000 1.0000
2667.321474 1.0000 1.0005 1.0010 1.0010 1.0010
2671.671669 1.0010 1.0010 1.0010 1.0010 1.0010
2676.021864 1.0010 1.0010 1.0010 1.0010 1.0010
2680.372059 1.0015 1.0020 1.0020 1.0020 1.0020
2684.722254 1.0020 1.0020 1.0020 1.0020 1.0020
2689.072449 1.0015 1.0011 1.0010 1.0010 1.0010
2693.422645 1.0010 1.0010 1.0010 1.0010 1.0010
2697.772840 1.0010 1.0010 1.0010 1.0010 1.0010
2702.123035 1.0010 1.0006 1.0001 1.0004 1.0009
2706.473230 1.0010 1.0010 1.0006 1.0001 1.0000
2710.823425 1.0000 0.9991 0.9982 0.9980 0.9980
2715.173620 0.9980 0.9980 0.9980 0.9980 0.9976
2719.523815 0.9971 0.9957 0.9942 0.9919 0.9894
2723.874011 0.9831 0.9762 0.9625 0.9476 0.9421
2728.224206 0.9386 0.9380 0.9380 0.9450 0.9536
2732.574401 0.9633 0.9733 0.9762 0.9777 0.9788
2736.924596 0.9798 0.9820 0.9845 0.9866 0.9886
2741.274791 0.9894 0.9899 0.9916 0.9936 0.9944
2745.624986 0.9949 0.9958 0.9968 0.9974 0.9979
2749.975181 0.9980 0.9980 0.9976 0.9971 0.9958
2754.325377 0.9943 0.9936 0.9931 0.9918 0.9903
2758.675572 0.9896 0.9891 0.9867 0.9837 0.9811
2763.025767 0.9786 0.9780 0.9780 0.9799 0.9824
2767.375962 0.9853 0.9883 0.9898 0.9908 0.9918
2771.726157 0.9928 0.9938 0.9948 0.9958 0.9968
2776.076352 0.9970 0.9970 0.9970 0.9970 0.9970
2780.426547 0.9970 0.9970 0.9970 0.9974 0.9979
2784.776743 0.9980 0.9980 0.9980 0.9980 0.9980
2789.126938 0.9980 0.9980 0.9980 0.9976 0.9971
2793.477133 0.9970 0.9970 0.9963 0.9953 0.9950
2797.827328 0.9950 0.9950 0.9950 0.9946 0.9941
2802.177523 0.9929 0.9914 0.9906 0.9901 0.9900
2806.527718 0.9900 0.9896 0.9891 0.9890 0.9890
2810.877913 0.9883 0.9873 0.9867 0.9862 0.9850
2815.228109 0.9835 0.9827 0.9822 0.9806 0.9786
2819.578304 0.9756 0.9721 0.9707 0.9702 0.9717
2823.928499 0.9742 0.9750 0.9750 0.9750 0.9750
2828.278694 0.9747 0.9742 0.9733 0.9723 0.9713
2832.628889 0.9703 0.9690 0.9675 0.9660 0.9645
2836.979084 0.9637 0.9632 0.9620 0.9605 0.9577
2841.329279 0.9542 0.9481 0.9406 0.9351 0.9306
2845.679474 0.9268 0.9233 0.9195 0.9155 0.9083
2850.029670 0.8993 0.8897 0.8797 0.8656 0.8490
2854.379865 0.8328 0.8168 0.8021 0.7882 0.7761
2858.730060 0.7651 0.7492 0.7302 0.7221 0.7206
2863.080255 0.7206 0.7216 0.7226 0.7236 0.7258
2867.430450 0.7288 0.7312 0.7332 0.7349 0.7364
2871.780645 0.7376 0.7386 0.7396 0.7406 0.7416
2876.130840 0.7426 0.7430 0.7430 0.7439 0.7454
2880.481036 0.7463 0.7468 0.7485 0.7509 0.7523
2884.831231 0.7528 0.7556 0.7601 0.7657 0.7723
2889.181426 0.7799 0.7884 0.7934 0.7959 0.7970
2893.531621 0.7970 0.7961 0.7947 0.7920 0.7885
2897.881816 0.7850 0.7816 0.7786 0.7761 0.7698
2902.232011 0.7603 0.7511 0.7421 0.7287 0.7116
2906.582206 0.6949 0.6784 0.6614 0.6439 0.6262
2910.932402 0.6082 0.5970 0.5915 0.5887 0.5882
2915.282597 0.5877 0.5872 0.5796 0.5657 0.5517
2919.632792 0.5377 0.5212 0.5022 0.4920 0.4900
2923.982987 0.5216 0.5835 0.6310 0.6654 0.6934
2928.333182 0.7153 0.7406 0.7690 0.7954 0.8199
2932.683377 0.8375 0.8485 0.8590 0.8690 0.8755
2937.033572 0.8785 0.8805 0.8815 0.8820 0.8820
2941.383768 0.8808 0.8783 0.8735 0.8666 0.8591
2945.733963 0.8511 0.8405 0.8270 0.8109 0.7919
2950.084158 0.7727 0.7533 0.7376 0.7261 0.7170
2954.434353 0.7105 0.7054 0.7019 0.6986 0.6956
2958.784548 0.6928 0.6903 0.6862 0.6802 0.6687
2963.134743 0.6507 0.6348 0.6214 0.6081 0.5952
2967.484938 0.5864 0.5829 0.5810 0.5810 0.5860
2971.835134 0.5975 0.6053 0.6083 0.6111 0.6136
2976.185329 0.6141 0.6121 0.6033 0.5859 0.5719
2980.535524 0.5624 0.5529 0.5434 0.5299 0.5110
2984.885719 0.4927 0.4752 0.4646 0.4636 0.4634
2989.235914 0.4644 0.4670 0.4720 0.5003 0.5632
2993.586109 0.6125 0.6424 0.6686 0.6896 0.7117
2997.936304 0.7357 0.7580 0.7780 0.7989 0.8214
3002.286500 0.8387 0.8482 0.8586 0.8706 0.8791
3006.636695 0.8821 0.8861 0.8916 0.8990 0.9095
3010.986890 0.9193 0.9278 0.9347 0.9392 0.9435
3015.337085 0.9475 0.9506 0.9521 0.9534 0.9544
3019.687280 0.9561 0.9591 0.9617 0.9637 0.9659
3024.037475 0.9684 0.9704 0.9713 0.9725 0.9740
3028.387670 0.9755 0.9770 0.9789 0.9814 0.9834
3032.737866 0.9843 0.9853 0.9863 0.9870 0.9870
3037.088061 0.9873 0.9883 0.9890 0.9890 0.9892
3041.438256 0.9897 0.9902 0.9907 0.9915 0.9930
3045.788451 0.9940 0.9940 0.9942 0.9947 0.9950
3050.138646 0.9950 0.9950 0.9950 0.9953 0.9963
3054.488841 0.9970 0.9970 0.9970 0.9970 0.9970
3058.839036 0.9970 0.9971 0.9976 0.9980 0.9980
3063.189232 0.9983 0.9993 1.0000 1.0000 1.0002
3067.539427 1.0007 1.0010 1.0010 1.0009 1.0004
3071.889622 0.9997 0.9987 0.9980 0.9980 0.9980
3076.239817 0.9980 0.9980 0.9980 0.9980 0.9980
3080.590012 0.9980 0.9980 0.9980 0.9980 0.9980
3084.940207 0.9980 0.9980 0.9980 0.9980 0.9980
3089.290402 0.9980 0.9980 0.9984 0.9999 1.0010
3093.640598 1.0010 1.0010 1.0010 1.0010 1.0010
3097.990793 1.0009 1.0004 1.0000 1.0000 1.0000
3102.340988 1.0000 1.0000 1.0000 1.0000 1.0000
3106.691183 1.0000 1.0000 1.0000 1.0000 1.0000
3111.041378 1.0000 1.0000 1.0000 1.0000 1.0000
3115.391573 1.0000 1.0000 1.0001 1.0006 1.0010
3119.741768 1.0010 1.0010 1.0010 1.0009 1.0004
3124.091964 1.0000 1.0000 1.0000 1.0000 1.0000
3128.442159 1.0000 1.0000 1.0000 1.0000 1.0000
3132.792354 1.0000 1.0000 1.0000 1.0000 0.9998
3137.142549 0.9988 0.9980 0.9980 0.9980 0.9980
3141.492744 0.9980 0.9980 0.9979 0.9974 0.9970
3145.842939 0.9970 0.9970 0.9970 0.9970 0.9970
3150.193134 0.9970 0.9970 0.9970 0.9970 0.9970
3154.543330 0.9970 0.9970 0.9970 0.9970 0.9970
3158.893525 0.9970 0.9970 0.9970 0.9970 0.9969
3163.243720 0.9959 0.9950 0.9950 0.9950 0.9950
3167.593915 0.9950 0.9950 0.9950 0.9950 0.9950
3171.944110 0.9950 0.9950 0.9950 0.9949 0.9944
3176.294305 0.9940 0.9940 0.9940 0.9940 0.9940
3180.644500 0.9940 0.9940 0.9935 0.9930 0.9930
3184.994696 0.9929 0.9919 0.9910 0.9910 0.9909
3189.344891 0.9905 0.9900 0.9900 0.9900 0.9900
3193.695086 0.9900 0.9905 0.9910 0.9910 0.9910
3198.045281 0.9910 0.9910 0.9905 0.9900 0.9900
3202.395476 0.9900 0.9895 0.9890 0.9890 0.9889
3206.745671 0.9879 0.9870 0.9870 0.9870 0.9870
3211.095866 0.9870 0.9870 0.9871 0.9881 0.9890
3215.446062 0.9890 0.9890 0.9890 0.9890 0.9890
3219.796257 0.9890 0.9890 0.9890 0.9895 0.9900
3224.146452 0.9900 0.9900 0.9900 0.9900 0.9900
3228.496647 0.9900 0.9900 0.9900 0.9900 0.9900
3232.846842 0.9900 0.9900 0.9900 0.9900 0.9900
3237.197037 0.9900 0.9905 0.9910 0.9910 0.9910
3241.547232 0.9910 0.9910 0.9920 0.9930 0.9930
3245.897428 0.9930 0.9930 0.9930 0.9935 0.9940
3250.247623 0.9940 0.9940 0.9940 0.9940 0.9940
3254.597818 0.9940 0.9945 0.9950 0.9950 0.9950
3258.948013 0.9950 0.9950 0.9950 0.9950 0.9950
3263.298208 0.9950 0.9960 0.9970 0.9970 0.9970
3267.648403 0.9970 0.9970 0.9970 0.9970 0.9970
3271.998598 0.9970 0.9975 0.9980 0.9980 0.9980
3276.348794 0.9980 0.9980 0.9980 0.9980 0.9980
3280.698989 0.9980 0.9989 0.9999 1.0000 1.0000
3285.049184 1.0000 1.0000 1.0000 1.0000 1.0005
3289.399379 1.0010 1.0010 1.0010 1.0005 1.0000
3293.749574 1.0005 1.0010 1.0010 1.0010 1.0010
3298.099769 1.0010 1.0010 1.0010 1.0010 1.0010
3302.449964 1.0006 1.0000 0.9991 0.9981 0.9980
3306.800160 0.9980 0.9980 0.9980 0.9980 0.9980
3311.150355 0.9980 0.9980 0.9975 0.9971 0.9970
3315.500550 0.9970 0.9974 0.9979 0.9980 0.9980
3319.850745 0.9980 0.9980 0.9989 0.9999 1.0000
3324.200940 1.0000 1.0000 1.0000 0.9991 0.9981
3328.551135 0.9980 0.9980 0.9980 0.9980 0.9980
3332.901330 0.9980 0.9980 0.9980 0.9980 0.9980
3337.251526 0.9980 0.9980 0.9980 0.9980 0.9980
3341.601721 0.9980 0.9980 0.9980 0.9980 0.9980
3345.951916 0.9980 0.9980 0.9980 0.9980 0.9980
3350.302111 0.9980 0.9980 0.9980 0.9980 0.9980
3354.652306 0.9988 0.9998 1.0004 1.0009 1.0010
3359.002501 1.0010 1.0010 1.0010 1.0010 1.0010
3363.352696 1.0010 1.0010 1.0010 1.0010 1.0006
3367.702892 1.0001 1.0000 1.0000 0.9992 0.9982
3372.053087 0.9976 0.9971 0.9970 0.9970 0.9962
3376.403282 0.9952 0.9950 0.9950 0.9950 0.9950
3380.753477 0.9950 0.9950 0.9946 0.9941 0.9936
3385.103672 0.9931 0.9930 0.9930 0.9930 0.9930
3389.453867 0.9930 0.9930 0.9934 0.9939 0.9952
3393.804062 0.9967 0.9970 0.9970 0.9974 0.9979
3398.154257 0.9980 0.9980 0.9980 0.9980 0.9980
3402.504453 0.9980 0.9980 0.9980 0.9980 0.9980
3406.854648 0.9980 0.9980 0.9976 0.9971 0.9974
3411.204843 0.9979 0.9980 0.9980 0.9987 0.9997
3415.555038 1.0000 1.0000 1.0000 1.0000 1.0000
3419.905233 1.0000 1.0000 1.0000 1.0000 1.0000
3424.255428 1.0000 1.0000 1.0000 1.0000 1.0000
3428.605623 1.0000 1.0004 1.0009 1.0010 1.0010
3432.955819 1.0010 1.0010 1.0010 1.0010 1.0007
3437.306014 1.0002 1.0000 1.0000 1.0000 1.0000
3441.656209 1.0000 1.0000 0.9993 0.9983 0.9980
3446.006404 0.9980 0.9977 0.9972 0.9973 0.9978
3450.356599 0.9980 0.9980 0.9980 0.9980 0.9980
3454.706794 0.9980 0.9980 0.9980 0.9980 0.9980
3459.056989 0.9980 0.9980 0.9980 0.9980 0.9980
3463.407185 0.9980 0.9980 0.9980 0.9980 0.9980
3467.757380 0.9987 0.9997 1.0007 1.0016 1.0020
3472.107575 1.0020 1.0017 1.0012 1.0010 1.0010
3476.457770 1.0010 1.0010 1.0010 1.0010 1.0007
3480.807965 1.0002 0.9994 0.9984 0.9977 0.9972
3485.158160 0.9970 0.9970 0.9973 0.9978 0.9980
3489.508355 0.9980 0.9980 0.9980 0.9989 1.0004
3493.858551 1.0010 1.0010 1.0010 1.0010 1.0010
3498.208746 1.0010 1.0013 1.0018 1.0026 1.0036
3502.558941 1.0031 1.0016 1.0001 0.9986 0.9980
3506.909136 0.9980 0.9980 0.9980 0.9980 0.9980
3511.259331 0.9980 0.9980 0.9986 0.9996 1.0000
3515.609526 1.0000 1.0000 1.0000 0.9994 0.9984
3519.959721 0.9989 1.0004 1.0013 1.0018 1.0020
3524.309917 1.0020 1.0020 1.0020 1.0020 1.0020
3528.660112 1.0020 1.0020 1.0017 1.0012 1.0007
3533.010307 1.0002 1.0006 1.0015 1.0020 1.0020
3537.360502 1.0020 1.0020 1.0025 1.0035 1.0040
3541.710697 1.0040 1.0035 1.0025 1.0015 1.0005
3546.060892 1.0000 1.0000 0.9995 0.9985 0.9990
3550.411087 1.0011 1.0020 1.0020 1.0020 1.0020
3554.761283 1.0020 1.0020 1.0020 1.0020 1.0020
3559.111478 1.0020 1.0025 1.0035 1.0035 1.0025
3563.461673 1.0020 1.0020 1.0020 1.0020 1.0020
3567.811868 1.0020 1.0025 1.0035 1.0040 1.0040
3572.162063 1.0042 1.0047 1.0048 1.0043 1.0040
3576.512258 1.0040 1.0035 1.0025 1.0018 1.0013
3580.862453 1.0010 1.0010 1.0008 1.0003 0.9989
3585.212649 0.9963 0.9948 0.9943 0.9940 0.9940
3589.562844 0.9956 0.9991 1.0010 1.0010 1.0012
3593.913039 1.0017 1.0020 1.0020 1.0024 1.0034
3598.263234 1.0040 1.0040 1.0042 1.0047 1.0052
3602.613429 1.0057 1.0060 1.0060 1.0060 1.0060
3606.963624 1.0064 1.0074 1.0080 1.0080 1.0080
3611.313819 1.0080 1.0076 1.0066 1.0060 1.0060
3615.664015 1.0060 1.0060 1.0060 1.0060 1.0058
3620.014210 1.0053 1.0048 1.0043 1.0040 1.0040
3624.364405 1.0040 1.0040 1.0036 1.0026 1.0020
3628.714600 1.0020 1.0020 1.0020 1.0020 1.0020
3633.064795 1.0024 1.0034 1.0040 1.0040 1.0042
3637.414990 1.0047 1.0050 1.0050 1.0052 1.0057
3641.765185 1.0064 1.0074 1.0080 1.0080 1.0080
3646.115381 1.0080 1.0080 1.0080 1.0080 1.0080
3650.465576 1.0080 1.0080 1.0076 1.0067 1.0060
3654.815771 1.0060 1.0058 1.0053 1.0048 1.0043
3659.165966 1.0040 1.0040 1.0040 1.0040 1.0040
3663.516161 1.0040 1.0040 1.0040 1.0040 1.0040
3667.866356 1.0040 1.0040 1.0040 1.0040 1.0040
3672.216551 1.0040 1.0040 1.0040 1.0040 1.0040
3676.566747 1.0040 1.0040 1.0040 1.0040 1.0040
3680.916942 1.0040 1.0040 1.0040 1.0040 1.0040
3685.267137 1.0037 1.0027 1.0020 1.0020 1.0020
3689.617332 1.0020 1.0020 1.0020 1.0023 1.0033
3693.967527 1.0040 1.0040 1.0040 1.0040 1.0041
3698.317722 1.0046 1.0050 1.0050 1.0050 1.0050
3702.667917 1.0050 1.0050 1.0050 1.0050 1.0050
3707.018113 1.0050 1.0050 1.0050 1.0050 1.0050
3711.368308 1.0050 1.0050 1.0051 1.0056 1.0060
3715.718503 1.0060 1.0060 1.0060 1.0059 1.0054
3720.068698 1.0050 1.0050 1.0051 1.0056 1.0060
3724.418893 1.0060 1.0063 1.0073 1.0081 1.0086
3728.769088 1.0090 1.0090 1.0090 1.0090 1.0089
3733.119283 1.0084 1.0080 1.0080 1.0078 1.0068
3737.469479 1.0060 1.0060 1.0060 1.0060 1.0059
3741.819674 1.0054 1.0050 1.0050 1.0050 1.0050
3746.169869 1.0050 1.0050 1.0050 1.0050 1.0050
3750.520064 1.0050 1.0050 1.0050 1.0051 1.0056
3754.870259 1.0060 1.0060 1.0060 1.0060 1.0060
3759.220454 1.0060 1.0060 1.0060 1.0060 1.0060
3763.570649 1.0059 1.0054 1.0050 1.0050 1.0050
3767.920845 1.0050 1.0050 1.0050 1.0050 1.0050
3772.271040 1.0050 1.0050 1.0050 1.0050 1.0050
3776.621235 1.0050 1.0049 1.0044 1.0041 1.0046
3780.971430 1.0050 1.0050 1.0050 1.0050 1.0050
3785.321625 1.0050 1.0050 1.0050 1.0050 1.0050
3789.671820 1.0050 1.0050 1.0049 1.0044 1.0040
3794.022015 1.0040 1.0040 1.0040 1.0040 1.0040
##END=
