##TITLE=1,1-Dichloroethene
##JCAMP-DX=4.24
##DATA TYPE=INFRARED SPECTRUM
##CLASS=IUPAC A
##ORIGIN=NIST, Analytical Chemistry Division, 301-975-3108
##OWNER=COPYRIGHT (C) 2001 by the U.S. Secretary of Commerce
##DATE=01/06/01
##$SPECTRA VERSION=1.10
##$UNCERTAINTY IN Y=2.2 % relative (B=1.21E-04,C=2.69E-10,D=8.94E-16)
##CAS NAME=1,1-Dichloroethene
##CAS REGISTRY NO=75-35-4
##MOLFORM=C H2 C Cl2
##MP=-122.1 C
##BP=37 C
##$NIST SOURCE=QUANT-IR
##SPECTROMETER/DATA SYSTEM=IFS66V (Bruker)
##INSTRUMENT PARAMETERS=KBr Beam Splitter; MCT Detector; Multipass cell
##STATE=gas
##SAMPLE DESCRIPTION=1,1-Dichloroethene Primary Gas Standard
##PRESSURE=101.3 Pa
##TEMPERATURE=23 C
##SAMPLING PROCEDURE=1 L/min Flow
##RESOLUTION=0.9640
##DATA PROCESSING=NB Strong Apodization
##XUNITS=cm-1
##YUNITS=(micromol/mol)-1m-1 (base 10)
##XFACTOR=1.0
##YFACTOR=18.189E-13
##DELTAX=0.4820
##FIRSTX=575.17
##LASTX=3974.606
##FIRSTY=6.27E-06
##MAXX=3974.12
##MINX=575.17
##MAXY=.0012991
##MINY=-7.46E-07
##NPOINTS=7052
##XYDATA=(X++(Y..Y))
575.17 3447815 3696621 3776414 3682452 4061252 4635604
577.58 4855795 5125399 5404267 6127727 6882760 7299001
580.47 7704297 8109516 8762027 9665475 10164374 10626712
583.37 11618650 12423008 13500566 14547847 15540803 16399385
586.26 17563844 18446467 19406129 20348070 21887916 23333400
589.15 24872448 26128153 27503900 28961917 30155774 31491781
592.04 33121185 34391560 35339455 36156456 37057302 37598576
594.94 38168069 38482944 38786749 38606215 38520845 38490989
597.83 38103439 37069602 36049723 34712722 33005782 31599671
600.72 30413852 29186027 28380337 28146719 28330457 28343616
603.62 28184325 28054559 28788530 30224624 32131884 34788725
606.51 38195987 41412682 43704595 44986721 46254418 46603950
609.40 46158931 45341649 44335321 42992251 41646365 39973011
612.29 38305075 36470220 34826215 33002732 31259994 29219467
615.19 27291606 25658985 24030407 22211543 20663918 19124915
618.08 17585400 16292286 15261088 13975902 13083018 12208802
620.97 11299960 10530870 9934747 9273313 8618173 8059350
623.86 7634456 7099643 6651216 6192182 5867250 5342254
626.76 4851677 4538164 4359334 3911526 3541979 3056353
629.65 2810792 2573284 2397671 2182290 2059665 1798790
632.54 1649648 1424742 1280643 1058251 901640 751010
635.44 729946 631064 608261 584690 530020 364914
638.33 340098 189391 170895 106756 149384 191045
641.22 265592 55424-13581 22649 171130 20643
644.11-24773-76921 71621 121455 107075-17735
647.01-7989-90613-59589-59119 43898 15638
649.90 75420 30063 15734-143755-87352-128366
652.79-106921-89784 9698-93813-50350-126159
655.68-71618-119558 17201 55649 74407 30405
658.58 36332-108953-77805-177453-108161-87972
661.47-89178-87965 29974 42789 150907 15160
664.36 63811 66783 68203-52584-47927-134805
667.26-121534-81510 56313 6828 72580-15740
670.15 30920 51227 108012-9236 47019-57824
673.04-36883 14150 28834-50508 54322 43607
675.93 130738 137021 262712 233239 314342 338698
678.83 560950 526565 323128-43087-88462-75551
681.72 109895 52340 85713 32701-21106-178908
684.61-127918-4464 162013 49019 34413-42730
687.50 41452 30220 131117 105437 98893-34185
690.40 64759 46672 43968-24543-4650-5961
693.29 122794 18690 29071 23501-23633-194596
696.18-126721-128330-26377-4655 59622-90224
699.08-53067-106222-12615-51799-22439 10005
701.97 114837 30781 48787-33953-39220-167440
704.86-119757-165343-68066-105814 3419-18817
707.75-21834-149584 11339 40755 73660-76445
710.65 13269 9875 1468-85107-7952-18633
713.54-11349-122040-18018-35770 33827-10987
716.43 85346-34481-74542-134853-12450-52381
719.32-24872-71774-14323-70497-59936-111300
722.22-18182-8182 43476-59705 40056 33922
725.11 72040-127967-59967-24816 58096 34411
728.00 90542 43607 54281-22701 53890-7194
730.90 71756-2845 84349-3626 15563-16119
733.79 46485-15953 80077 61242 76768 4419
736.68 49566-5394 61518 72520 191058 123219
739.57 125587 39816 108862 70956 168309 120270
742.47 164417 145553 202587 168595 249810 217121
745.36 282586 253592 284255 192401 281229 371270
748.25 465968 356131 466796 519229 646626 640504
751.14 763410 831209 912216 963863 1217962 1304849
754.04 1495786 1634877 1811885 1925584 2202833 2444538
756.93 2803070 3056082 3440894 3813296 4290748 4813420
759.82 5353324 5838242 6589187 7266068 7995345 8815867
762.72 9767806 10685245 11584803 12436732 13490916 14605862
765.61 15779751 17024580 18373302 19482023 20585805 21980073
768.50 23549467 25232338 27001821 28914215 30837766 33256168
771.39 36237645 39554660 43069626 47807927 53081387 58379220
774.29 64430456 72189643 78668290 84561068 87927113 90371911
777.18 97607915 106363083 113965647 121516045 131262325 143392220
780.07 155247705 162688106 168107154 176403451 186943413 200329110
782.96 215300350 227957715 229377718 226544152 227845137 232378425
785.86 240436792 255670550 274222244 281587017 256059403 223497355
788.75 210495720 203995960 204097759 212381288 222953701 230202118
791.64 230627461 252657142 302998006 344740559 303160571 262627989
794.54 310678924 364292003 277787678 161405622 142131503 152712111
797.43 174367840 201204645 230223653 239422820 244900243 249049534
800.32 250200757 251759192 254878335 253989780 251605437 245367694
803.21 237920678 226924565 214906501 200116547 185135638 168258704
806.11 152489313 135696869 120370423 104799604 91483814 78307377
809.00 67379136 56578084 48091546 39742441 33483493 27320794
811.89 23087310 18645614 15994528 13052515 11451026 9216263
814.78 8377892 6884309 6661681 5551652 5386418 4444062
817.68 4737284 4088719 4325017 3635785 3941525 3370842
820.57 3861156 3274680 3503879 2948258 3569603 2993465
823.46 3005078 2268960 3003367 2900586 3259363 2450652
826.36 3598027 4789073 6082151 4642669 4243363 2659579
829.25 2944686 2358020 3147278 2985462 3885169 3617458
832.14 4614068 4520377 5547435 5242825 6079932 5654557
835.03 6588872 6387158 7461559 7323972 8367072 8128617
837.93 9330632 9288805 10652485 10651118 12036753 12275998
840.82 13959491 14192900 15952209 16308434 18215711 18727690
843.71 20962512 21600492 23929320 24767309 27326213 28159248
846.60 30737365 31664746 34451066 35495086 38404852 39198948
849.50 41988405 43207944 46816683 47578480 49734095 50012543
852.39 52777499 53188840 56057202 56459582 59597978 59971228
855.28 62423644 61445999 63584724 62414182 63955383 62105287
858.18 63998734 61981996 64469349 65761177 74511110 90286583
861.07 130592421 124452815 103620914 84162995 72571518 62807844
863.96 62574668 56065010 56949820 50011895 52264101 43920232
866.85 55788869 156452632 561311804 714218402 405639453 188888513
869.75 91538152 67411344 55933661 62079327 60666924 66858025
872.64 66711624 75117068 85451581 92914451 81838097 78517183
875.53 74132227 75751911 73643127 75646659 74018714 76015686
878.42 74367472 75588782 73820648 74987306 73316400 74137762
881.32 72134141 72494218 70258914 70203579 67718210 67216236
884.21 64601417 63842957 60580472 60021552 57977708 56332531
887.10 54778754 60048937 56911700 47708351 41346347 39176438
890.00 36118196 34503403 31537788 29902745 27177037 25764225
892.89 23250741 22146127 19797637 18877118 17411239 16872123
895.78 14488789 13478103 11828005 11450280 10091832 9833997
898.67 8675203 8585722 7621039 7776263 7011459 7095314
901.57 6311885 6582158 5959187 6240600 5684504 6027558
904.46 5470860 5809096 5349367 5653203 5078417 5311547
907.35 4729670 4875652 4188223 4213222 3508766 3475584
910.24 2574772 2471621 1750572 1904699 1591346 2146475
913.14 2019892 2616357 2565362 3171801 3145699 3691261
916.03 3521635 3993602 3763089 4087719 3779153 4066986
918.92 3685210 3902962 3496986 3674054 3264902 3441990
921.82 3013546 3203939 2795215 2945602 2555466 2666899
924.71 2251486 2464839 2105170 2243628 1856672 2012538
927.60 1648263 1824075 1475104 1659432 1410142 1611709
930.49 1340205 1815326 1789927 2154026 2979675 4608792
933.39 3336231 1851951 1109682 1203259 980322 1475917
936.28 1465415 1382948 878029 1006527 761162 1001580
939.17 798281 943306 700085 859644 617111 838012
942.06 614365 809815 609453 778312 584075 815437
944.96 746780 918750 600203 808920 549041 663817
947.85 460055 646613 479803 682374 471454 653065
950.74 460279 626372 404223 566874 397486 570594
953.64 382398 556480 366035 514654 302951 420963
956.53 255107 453427 283018 447882 278592 430800
959.42 234596 419453 267536 416206 234890 394474
962.31 223659 379937 241697 411845 242318 416622
965.21 263625 435932 288483 404359 204409 334767
968.10 205726 366191 194590 340631 228731 411140
970.99 339865 614086 401094 381788 179213 317532
973.88 107200 213939 89615 267720 160837 401617
976.78 357414 424010 228140 392683 269160 387600
979.67 234587 377080 242614 351698 192927 330384
982.56 164805 288924 220127 353378 144219 232219
985.46 93981 222112 79338 225843 86859 167011
988.35 18634 161268 13964 132955 14594 180217
991.24 75967 173997-24462 87807-8483 139837
994.13 23153 133780 27427 172110 50437 192490
997.03 62854 170257 51472 194036 55635 202487
999.92 81069 231147 177266 345562 237918 347309
1002.81 257660 469282 401982 485809 291319 418908
1005.70 351848 519986 436640 586346 479011 578075
1008.60 469419 656517 554621 659947 541010 650594
1011.49 512673 637833 536443 608572 434185 528573
1014.38 476571 639831 503255 607567 681126 1033637
1017.28 815262 660023 587071 724595 428230 427496
1020.17 332179 464034 357874 485735 442120 618124
1023.06 540398 662804 522063 617546 526841 652826
1025.95 534018 656382 524108 576236 432844 526242
1028.85 400954 482211 327108 417578 262319 347575
1031.74 180298 249633 105287 212285 116250 199551
1034.63 69464 182517 75343 170941 58633 162195
1037.52 35642 179039 74488 147850 29925 182377
1040.42 106892 241023 138845 247903 135714 257062
1043.31 168264 326831 282783 449932 364013 485126
1046.20 417482 602751 504209 661085 611094 806816
1049.10 792139 1097675 1177633 1373801 1341818 1683315
1051.99 1791279 2002152 1950218 2249319 2334095 2693130
1054.88 2887350 3363211 3585860 4104238 4456974 5090692
1057.77 5489677 6248939 6806524 7766309 8534544 9591615
1060.67 10418430 11706397 12925673 14628289 16209591 18283966
1063.56 20166569 22624209 24806531 27122665 29704552 33054031
1066.45 36425925 40191491 43435666 47783683 51884188 55472816
1069.34 59085195 64167199 69126673 73872074 78597282 83841392
1072.24 86673295 89714577 93357750 98565929 105272768 114573689
1075.13 119348455 117096479 114359631 115006098 119210525 133675913
1078.02 157352128 163554128 147534901 136391284 129762832 138823164
1080.92 160816096 205512656 242717628 233790442 182305913 155229530
1083.81 158480404 176689786 229784032 337119992 350394599 245588869
1086.70 209732891 212740726 221583953 226966257 229054235 226127688
1089.59 227651627 229121703 223989131 210044828 203050543 198580222
1092.49 201465574 209694251 211996133 248533455 295877547 242815711
1095.38 185430951 188140586 261042500 278748057 193264527 140526453
1098.27 116875733 110820222 113937466 122195199 129930438 138403948
1101.16 145645425 152817705 157827101 161689814 163094477 163088524
1104.06 160660936 156703966 150598634 143369810 134574772 125034776
1106.95 114526452 104030898 93245601 82845901 72518964 62985798
1109.84 53986152 46037376 38720436 32538879 27023356 22412674
1112.74 18436043 15384592 12756471 10715929 8982898 7809142
1115.63 6778475 6178992 5730916 5585641 5399873 5501020
1118.52 5565983 5851993 6026466 6447950 6993848 7767156
1121.41 8306762 8694464 9090740 10001812 11174566 12701059
1124.31 14059421 15323112 16557846 18236638 20727551 25293170
1127.20 29435797 29473845 28686153 29670723 31365598 33179016
1130.09 34233530 34776111 35013155 35209160 34801664 33985381
1132.98 32760159 31253063 29306717 27254391 25465263 24762920
1135.88 24657399 24032485 24592660 33040948 53721002 77783230
1138.77 73205802 38134434 18926336 20710071 21714190 17760431
1141.66 16479152 18697900 20630359 22968891 25606368 28227703
1144.56 30551364 32612429 34080110 35152700 35598864 35650207
1147.45 35138234 34297987 32953611 31384601 29502169 27560618
1150.34 25374118 23194742 20963744 18878011 16806633 14918180
1153.23 13018795 11319460 9746366 8468961 7230149 6156784
1156.13 5175071 4448540 3708499 3183195 2688777 2327272
1159.02 1981258 1773341 1476902 1339923 1153663 1068767
1161.91 889874 829345 720435 692911 590152 566933
1164.80 480442 490109 393393 403166 348549 441669
1167.70 637082 1190159 1210406 789545 454954 369610
1170.59 340636 409287 377736 436566 450468 471999
1173.48 455105 524453 479272 481812 445643 487597
1176.38 473836 502176 440406 427644 358860 363915
1179.27 294088 318471 265006 265009 201410 254018
1182.16 245780 268575 181202 190506 144372 124684
1185.05 45710 100088 90577 108759 91304 135602
1187.95 50505 78677 55541 91561 45568 67831
1190.84 30156 81802 64191 94153 32081 67892
1193.73 32375 52106 22332 42762 18568 77356
1196.62 41737 69895 49235 107794 69594 94781
1199.52 58287 90875 42094 57462-25349 8057
1202.41 13831 71514 58668 99016 71438 115063
1205.30 77730 101380 38637 49597 13088 58491
1208.20 18549 17420-24462 21708-17885-6070
1211.09-43757-25424-67537-58113-74338-19131
1213.98-34341 12584-42156-31937-68538-33376
1216.87-83525-65194-62400-38904-74021-14704
1219.77-42557-5025-32286-20828-59246-32081
1222.66-77041-47475-66854-25680-48773-4
1225.55-24360-23581-52853 20574-21704-13222
1228.44-59392-30718-45932-19824-1803 54879
1231.34 29074 57695 26946 33266 11542 53145
1234.23 30007 89642 57626 69596 70491 135058
1237.12 85218 124993 124649 152272 131206 157670
1240.02 135679 173398 146657 171681 154165 181647
1242.91 161117 206233 144600 141827 132796 215522
1245.80 215437 214420 152501 166635 130559 181517
1248.69 183455 232431 202072 260201 321584 368332
1251.59 246417 161111 81556 112037 108407 201904
1254.48 181386 188146 178212 222944 192221 235107
1257.37 211876 220637 186845 220074 168129 191937
1260.26 168626 182482 114412 118109 95123 97570
1263.16 60200 74510 27475-803-59709-7414
1266.05 7916 27851-34019 9682-27157-33303
1268.94-81871-45076-52474-16970-41273-18168
1271.84-61015-12767-48381-49126-79291-27823
1274.73-38624 8720-25147 4206-45370-33980
1277.62-51959-15460-34592 1394-34800-7947
1280.51-861 61120 25979 32398-2406 31530
1283.41-1635 53994 65463 98691 74626 96292
1286.30 48971 80941 83124 149196 165358 193776
1289.19 192283 249817 251996 294964 297095 353794
1292.08 365248 403889 381986 451128 490171 559831
1294.98 563039 633257 674414 746816 746717 790002
1297.87 805673 901219 946145 1033981 1042956 1156717
1300.76 1229195 1328698 1356785 1463142 1541555 1666622
1303.66 1759027 1887360 1974508 2103160 2219309 2360408
1306.55 2448825 2615642 2732209 2885279 2979321 3108002
1309.44 3136433 3190744 3231434 3345942 3359911 3366235
1312.33 3309136 3301109 3153870 3011177 2783466 2569417
1315.23 2263265 1938621 1588572 1337349 1166816 1186561
1318.12 1267684 1527955 1829821 2169701 2474101 2807351
1321.01 3016913 3165458 3276600 3395720 3385402 3374770
1323.90 3305329 3288508 3214669 3151656 3014794 2916110
1326.80 2772273 2677770 2537785 2459356 2324706 2232419
1329.69 2091841 1988680 1890906 1855319 1762332 1709876
1332.58 1601323 1576623 1518902 1433239 1318958 1316853
1335.48 1247487 1189020 1132028 1155156 1082444 1070501
1338.37 967578 926490 880291 876903 805855 771817
1341.26 676340 609615 517645 500889 429346 404130
1344.15 357831 378609 388461 493420 538272 596508
1347.05 542699 660539 721906 734390 778684 801003
1349.94 708547 685429 612029 540976 482447 587015
1352.83 585461 551020 585071 734260 790451 759420
1355.72 672676 668810 651401 692627 632213 609639
1358.62 594109 624783 565104 584662 567921 606630
1361.51 578345 575784 570342 672640 728512 755770
1364.40 719457 771635 817742 903615 941960 1043012
1367.29 1028486 1084931 1157415 1238487 1239348 1310738
1370.19 1381420 1511359 1583733 1708284 1821252 1962697
1373.08 2042121 2095354 2088523 2209798 2349659 2539373
1375.97 2753891 3047422 3228897 3271133 3340827 3508073
1378.87 3581829 3794695 4011862 4295043 4566709 4787442
1381.76 4749977 4723095 4773981 4950022 5147870 5434636
1384.65 5778405 6130523 6338094 6338820 6004682 5598676
1387.54 5361425 5506982 5788692 5945797 6168031 6815940
1390.44 6812970 6090617 6447928 7743000 8265214 6777759
1393.33 5345619 5327834 5479744 5629486 6390233 6926213
1396.22 5943441 5821741 7015798 8799513 9655106 7552246
1399.11 5443165 5057528 5033794 5234680 5468817 5701900
1402.01 5523772 5299378 5210277 5236152 5105900 5028259
1404.90 4891931 4747690 4516864 4311974 3995690 3688615
1407.79 3368600 3086574 2729455 2414385 2023758 1691161
1410.69 1342414 1101315 850305 653879 466067 359551
1413.58 248440 196369 101212 113799 98690 83070
1416.47 1031 2179 2250 31395-20108-43229
1419.36-68347-34190-23183-757-40505-25909
1422.26-20281 21220-44854-40662-39193-13582
1425.15-12520 34736 23224 31862-32015-40515
1428.04-35592 6458-15347 7876 1719 10314
1430.93-26104-12535-19854-9855-46850-6008
1433.83-3731 10453-6211 25970-27673-20204
1436.72-13202 2098-39362-10978-30576-16372
1439.61-35139-12909-23384 1637-11009 9672
1442.51-8346 12937-12084-14960-78905-72444
1445.40-56641-14914-23566 5199-29265-21996
1448.29-30788-5560-7756 35378 25423 31091
1451.18-10136-6753-8921 23719 2910 18104
1454.08 6970 36208 40413 49168-50964-63030
1456.97-28683 2825-22913 29061 11285 32658
1459.86 19740 71332 69089 65654 28882 61677
1462.75 40907 46202 20295 20378 28565 62221
1465.65 49297 77669 45126 35448 34209 61298
1468.54 44924 32692 26101 68920 30906 37725
1471.43 27355 72756 88977 110237 108585 144596
1474.33 120441 139305 119838 89491 33547 50747
1477.22 50196 83130 41362 42924 15015 29777
1480.11 23179 56293 53745 69547 44632 70237
1483.00 53069 78234 66958 53425 14474 19634
1485.90-2571 26098 12552 45819 22998 32435
1488.79-582 19606 1900 24016 12508 17962
1491.68-20164 29916 54625 83273 45172 40674
1494.57 27830 44951-18386 6679 50017 59684
1497.47 40806 53306 25388 47046 31660 56803
1500.36 50652 90509 84605 83924 65946 88273
1503.25 79277 87164 45345 37822 25859 72817
1506.15 46584 50157 60116 96068 69752 105074
1509.04 121684 145870 135513 153941 128116 155667
1511.93 153270 190417 176213 192998 193038 217506
1514.82 237345 301398 295990 307180 297798 338736
1517.72 366165 406527 403661 485224 498161 501881
1520.61 470788 549352 615793 641323 686667 778842
1523.50 841054 909722 933415 1017289 1098239 1203120
1526.39 1278218 1454529 1618450 1743145 1805889 1939276
1529.29 2076123 2259700 2384823 2581890 2776636 2991751
1532.18 3157071 3406130 3645784 3870225 4015616 4165766
1535.07 4301353 4469712 4610790 4771918 4925180 5126749
1537.97 5267007 5362139 5584912 5916640 6255372 6824702
1540.86 7584413 8574961 9669418 9848224 8640767 8008969
1543.75 8215539 8707035 9269173 9933075 10662344 11440723
1546.64 12173398 13011521 13853908 14705235 15551301 16440758
1549.54 17311493 18188608 19076421 19964697 20802532 21683059
1552.43 22556303 23401600 24187149 25020098 25896990 26785424
1555.32 27677954 28578973 29456249 30391494 31270144 32098883
1558.21 32941691 33905955 34715724 35514672 36306081 37117743
1561.11 37752301 38247935 38510452 38669840 38678196 38545471
1564.00 38127959 37623434 37079737 36556583 35732785 34891707
1566.89 34199557 33550610 32904695 32202131 31317139 30782751
1569.79 30681012 30877077 31724732 32732384 33242628 34382825
1572.68 36247747 38440804 41295939 43777105 45067774 46574922
1575.57 47494042 47008963 45771142 44434041 42910917 41329216
1578.46 39586907 37879974 36141015 34468334 32773108 31153792
1581.36 29544835 28009193 26492233 25119223 23772682 22532287
1584.25 21351310 20330823 19375330 18605916 18004702 17597070
1587.14 17313523 17266325 17337739 17542419 17733288 17944879
1590.03 18133216 18371450 18567650 18807792 19018508 19322371
1592.93 19692664 20175471 20717991 21446135 22240275 23203191
1595.82 24320186 25625070 26970414 28413906 29882187 31492280
1598.71 33118926 34839889 36631608 38661070 40730838 42972619
1601.61 45326099 48018710 50749644 53710629 56866868 60277221
1604.50 63857570 67719848 71632110 75804605 80154056 84710485
1607.39 89320996 94074936 98824460 103645290 108503740 113433480
1610.28 118167636 122823049 127337338 131655339 135637653 139285296
1613.18 142395081 144969228 146915850 148216625 148684457 148239388
1616.07 146700535 144545675 141487896 137131776 131714277 125591617
1618.96 118749542 111421874 104100291 96829414 90046962 84689497
1621.85 81588969 81324286 84329154 92311414 105368675 121552276
1624.75 138740856 155065960 168644165 177947184 183632706 185884617
1627.64 184624070 180762118 175503424 169528801 162900205 155837866
1630.53 148398938 140779227 132945049 125095173 117233391 109525521
1633.43 101994537 94785568 87940905 81589873 75779299 70565565
1636.32 65646754 61132555 56902442 53092956 49583650 46330145
1639.21 43274825 40463307 37837493 35379609 33027029 30825941
1642.10 28656986 26597878 24629369 22765890 20918240 19150547
1645.00 17449230 15880311 14384305 12970615 11618174 10439883
1647.89 9288306 8257559 7326397 6511216 5701212 5012559
1650.78 4372352 3807890 3244084 2811858 2432481 2185598
1653.67 1919204 1674108 1477440 1302299 1134344 1018117
1656.57 883437 774707 668351 627808 577778 511236
1659.46 438567 416518 373519 360391 300381 287433
1662.35 287981 292156 248544 252237 231451 228987
1665.25 195609 200611 180720 186064 151126 154947
1668.14 158652 161061 147850 174412 171992 196279
1671.03 197229 226682 203494 209406 194597 224009
1673.92 226266 236998 228303 267611 272117 288780
1676.82 266657 317586 329239 343786 352238 378128
1679.71 379377 395541 391142 399037 373442 383491
1682.60 367748 381625 338850 269439 238561 313736
1685.49 321244 344799 329158 367588 406343 531768
1688.39 568675 499537 425135 454593 476696 477011
1691.28 429822 424437 410901 459749 486384 583868
1694.17 594761 500253 351408 327266 346976 366837
1697.07 339911 349216 339868 373316 354678 395428
1699.96 411602 357155 351500 349463 306211 276770
1702.85 255205 295359 269207 258882 243353 235027
1705.74 232538 246331 218891 228670 223345 249222
1708.64 262445 262775 253975 285964 280913 290354
1711.53 253506 263299 289942 334477 335704 349938
1714.42 340146 395293 422825 462037 465869 468538
1717.31 523422 592619 599930 664979 724351 786514
1720.21 828950 917698 944594 981779 1010204 1072167
1723.10 1115409 1196947 1256738 1315564 1339029 1405724
1725.99 1442006 1510809 1585916 1723976 1825852 1977261
1728.89 2113964 2269340 2438254 2649452 2851632 3076592
1731.78 3252974 3453200 3598313 3812004 3993731 4140530
1734.67 4318995 4505019 4604044 4691051 4741510 4771478
1737.56 4739658 4718708 4595228 4349689 4026927 3645179
1740.46 3144358 2630242 2099350 1707860 1476313 1456732
1743.35 1645029 2061146 2536362 3082698 3616944 4140597
1746.24 4536938 4876900 5104871 5242762 5281685 5277229
1749.13 5192054 5098382 4907474 4675087 4485483 4360261
1752.03 4149500 3937080 3720155 3594223 3468454 3349527
1754.92 3202377 3092829 2944555 2836025 2714985 2625232
1757.81 2529120 2453451 2329119 2226801 2081521 1959829
1760.71 1926436 1945068 1733846 1456900 1318944 1245144
1763.60 1163751 1111140 1013288 972128 937520 898116
1766.49 810910 772173 711465 681709 641472 611186
1769.38 563325 544889 470824 439380 418280 433561
1772.28 437399 595856 661517 552249 511640 567380
1775.17 601283 484924 293848 211403 177311 171454
1778.06 169572 176792 157235 160141 142931 167347
1780.95 173452 172900 150766 165327 160888 151376
1783.85 131309 115973 117660 158315 161374 164092
1786.74 150385 171273 183459 208834 186736 188195
1789.63 189880 192055 171030 175302 160915 150793
1792.53 135500 138748 128010 155494 157855 157207
1795.42 134753 127552 108561 99744 75507 70015
1798.31 45814 32276 10518 50394 90683 122123
1801.20 95272 126000 130251 143447 116742 141227
1804.10 149035 150265 133680 131578 105192 118476
1806.99 217032 412703 455240 258246 75464 41637
1809.88 17625 23238 8488 23257 24113 62888
1812.77 80905 94634 70512 56754 27892 41157
1815.67 38434 36062 15837 32241 22356 28079
1818.56-1832 14345 13387 15038-9225 45
1821.45-13514 2355 1720 1994 559 21991
1824.35-9363-15376-17764 1964-16340-13496
1827.24-17060-9498-20320-5122-32145-26521
1830.13 637 25892-21215-23004-8506 2191
1833.02-8858-1507-7573 20920 11554 3819
1835.92-10218-5144 1504 41563 35257 33355
1838.81 20130 29677 25445 50196 35034 57299
1841.70 72647 90417 74576 68044 48436 84121
1844.59 84412 102918 91401 94402 112451 133791
1847.49 129373 137903 134691 167626 161983 160132
1850.38 150263 164415 177052 200377 173767 178698
1853.27 168637 210248 235544 252038 234559 239872
1856.17 235946 243656 231975 237994 220108 245225
1859.06 264200 294511 290737 304760 314702 347334
1861.95 352783 370076 352308 379555 391124 403956
1864.84 421529 461769 452303 472120 513392 564846
1867.74 544973 559097 550271 547961 562841 581349
1870.63 552849 590549 595567 602968 590465 603401
1873.52 596756 613712 603314 601076 598356 608327
1876.41 586055 618620 634600 650390 628935 618372
1879.31 610371 598379 556460 514609 454733 441280
1882.20 407345 378877 346098 376201 398151 431255
1885.09 455451 512685 561613 608883 624751 644452
1887.99 657518 678988 669806 657318 620288 614590
1890.88 584163 557612 511803 515783 491064 484040
1893.77 446829 406785 374141 365767 319653 318479
1896.66 326901 326276 261658 232207 212603 223162
1899.56 198704 191389 181795 203181 204919 212610
1902.45 171673 160328 165705 188233 177258 183798
1905.34 151835 144041 143489 148423 132648 165603
1908.23 180722 185444 157932 160791 164255 178858
1911.13 163880 170978 147217 156016 151020 145105
1914.02 120649 117492 108539 123734 130215 146246
1916.91 137827 162166 185525 201986 189911 200336
1919.81 209224 229318 209184 220454 229101 258932
1922.70 251570 251486 253653 287191 270579 268831
1925.59 263354 265883 238853 238238 235779 265029
1928.48 259819 260187 238968 220893 200982 220136
1931.38 221488 227110 185308 172236 174689 181118
1934.27 175587 197246 213740 207248 194079 196974
1937.16 173067 161039 129685 129770 127693 143455
1940.05 133002 157913 165038 169899 120952 89321
1942.95 80570 101509 79301 85411 86597 84865
1945.84 73422 86935 67212 66598 51397 43170
1948.73 36381 53444 45337 49388 47385 49608
1951.63 16779 14644 18105 12847-26997-27333
1954.52-17632 673-30820-39781-45752-35993
1957.41-28021-34448-62825-45551-49489-46453
1960.30-48343-29937-27021-6712-36504-49834
1963.20-45227-19958-26910-19304-20251-20364
1966.09-52755-54434-55890-25775-18605-7463
1968.98-24236-20749-28125-30175-48584-6812
1971.87 16267 10956-8532 20445 34218 35057
1974.77 8245 26619 51406 72539 75784 93309
1977.66 92701 96252 82976 81790 101956 133703
1980.55 132405 147278 141586 162931 156144 164625
1983.45 166282 173913 151130 139717 126376 142203
1986.34 146168 166970 164294 161654 139842 159400
1989.23 161089 136596 146681 195889 190340 186398
1992.12 158438 101995 56677 76935 88211 85212
1995.02 83754 94462 79250 120597 156581 186710
1997.91 159235 163304 161169 164580 115899 92728
2000.80 77251 75633 53760 55063 36695 32800
2003.69 33984 63765 60807 46750 37408 42667
2006.59-20601-37952-23876-14932-29634-18408
2009.48-31051-18503-29213-37076-44421-31278
2012.37-31644-31174-56156-60716-58475-49383
2015.27-46898-39049-35735-38253-53581-53558
2018.16-52425-47493-15116 11763-6796-14499
2021.05-43192-34807-40028-37883-46618-40660
2023.94-40039-32348-44585-23029-38703-39823
2026.84-52987-43576-46555-44121-56388-39489
2029.73-42513-22946-26185-33940-34380-21648
2032.62-40826-38943-37596-39709-51318-43537
2035.51-36397-14380-12243-5908-17988-11649
2038.41-12931-11248-23021-23816-43521-38794
2041.30-55201-68163-72298-54186-41763-19464
2044.19-31569-28717-43257-34424-32937-7465
2047.09-16286-18486-25821-17239-34259-31703
2049.98-22931-15446-21867-26091-21834 21493
2052.87-7835-27975-42543-24832-14577-12125
2055.76-21951-20000-35618-29053-22515-18531
2058.66-33829-28427-26815-19739-25354-11066
2061.55-6280-8347-14235-6579-26454-25104
2064.44-22205-22522-27904-12505-32392-23087
2067.33-22277 3570 19428 35925 34940 33112
2070.23 13893 16277 5718 18349 42475 73938
2073.12 72366 91248 95495 92668 78982 53144
2076.01-5844-21049-31063-18800-19735-6696
2078.91-27153-5357 11618 12613-19817-18042
2081.80-40178-25651-16354-17816-44034-22892
2084.69-10418-14451-17396-1889-24336-9656
2087.58-20959 934-4045-24798-38731 4772
2090.48-15431-39432-46333-20772-20415-25351
2093.37-21081 4068 4888-18261-31565-23857
2096.26-35310-22601-41000-58002-37838-3809
2099.15-39933-68204-61011-31046-54240-35683
2102.05-30065-19009-38431-54073-46786-39356
2104.94-66638-47503-33844-27103-17028-43390
2107.83-94642-84764-47352-19542-48600-42375
2110.73-14333-4743-62703-73752-58391-38944
2113.62-63352-53223-36755-9133-33619-46534
2116.51-44221-38548-39016-49694-77468-47092
2119.40-30647-22325-38053-48320-70143-75257
2122.30-72265-66600-65068-69046-79696-75398
2125.19-76173-80025-76950-61923-66234-56850
2128.08-66868-72250-89528-97918-99316-97056
2130.97-93927-69556-79511-109628-113870-106654
2133.87-132498-136252-115013-106369-127944-129963
2136.76-142637-124223-112128-111102-136596-131105
2139.65-138953-138777-138817-135226-139461-137203
2142.55-147822-140961-152353-153671-141214-143921
2145.44-168932-154756-137510-142503-204540-209034
2148.33-192631-169239-143785-139146-166169-164804
2151.22-167100-150501-156383-151494-154029-151178
2154.12-151681-158424-182563-188398-214601-204253
2157.01-185118-146801-134633-156934-168704-147474
2159.90-162351-174913-172808-161160-202472-210624
2162.79-198196-205980-216839-194254-183757-157958
2165.69-148097-141781-151082-142345-143344-141795
2168.58-145898-143239-175758-195258-228129-229932
2171.47-215826-157478-122182-112611-140579-148941
2174.37-163075-163183-170631-146207-133544-98600
2177.26-100704-130650-152492-152053-144983-141493
2180.15-168569-164925-155139-134722-145815-138313
2183.04-144938-150440-139846-151996-181672-162342
2185.94-124741-119910-141548-137735-158683-175578
2188.83-176725-139952-125375-102008-106382-112843
2191.72-113750-123425-150090-173665-174288-129419
2194.61-94738-51303-44568-31139-58333-55730
2197.51-55557-59079-55799-28287-7335 237
2200.40-18762-28912-39562-22358-23080-8318
2203.29 16280 20742 11488 13835 16224 60973
2206.19 71558 81240 74910 116066 233951 387611
2209.08 333559 220137 163128 153142 166692 184068
2211.97 203636 207820 215018 232280 215434 220029
2214.86 236718 272395 275580 281759 276939 295556
2217.76 310459 326016 317128 340727 321439 300283
2220.65 280990 268805 275169 322091 334695 366728
2223.54 373483 398692 379716 370727 377078 350933
2226.43 322053 361094 403899 438521 467094 483862
2229.33 476234 455309 425375 424081 411067 358579
2232.22 311050 302677 285811 287037 274853 249984
2235.11 207616 195210 181173 153875 134713 145342
2238.01 128478 98401 82904 78237 53957 56392
2240.90 71298 64147 34691 47056 7548-9281
2243.79-9818-11942-14899 8087-3530-591
2246.68-13691-20564-46572-65333-82191-71448
2249.58-39360-35523-69507-45818-49083-63042
2252.47-90145-96151-108165-106825-117618-110504
2255.36-107323-100109-93162-83118-95735-98101
2258.25-111499-118825-121715-109419-108313-119801
2261.15-120680-105666-118705-104717-98390-100862
2264.04-108433-110310-119354-103558-111838-123791
2266.93-131687-98620-99764-113299-109905-113063
2269.83-119518-108818-114336-118117-97833-88429
2272.72-91398-88375-78651-83975-123458-149956
2275.61-179887-204499-227048-219071-198571-136384
2278.50-64101-19911-43233-62929-73599-93691
2281.40-130676-106478-61873-61668-81755-100953
2284.29-127455-127748-124058-104524-92717-84886
2287.18-101808-108804-126054-113142-129076-140353
2290.07-154027-139048-117480-100840-116888-132533
2292.97-127518-120961-145797-128391-123280-132610
2295.86-141349-120308-112049-117546-118600-106157
2298.75-113239-79617-75061-87051-98884-111265
2301.65-118522-111933-106546-94393-98450-70155
2304.54-72730-79578-87005-76441-96868-100587
2307.43-94850-70850-53624-48600-47288-34004
2310.32-55583-56557-55766-38777-39475-35631
2313.22-50379-20922-7752-47142-52880-31827
2316.11-39371-62646-57375-27179-11405-5600
2319.00-569 10652 685-13259 305 11921
2321.89-13029-899 5160 21292 17766-11633
2324.79 5009 64166 54240 31900 29700 65363
2327.68 44845 24070 53969 97013 76180 53376
2330.57 48283 83936 72279 69488 97757 115032
2333.47 91642 102107 107348 103656 96451 128868
2336.36 133995 77586 62448 119183 119688 109786
2339.25 139917 140468 78181 67197 74696 74543
2342.14 54540 83828 129335 150250 142566 128037
2345.04 80488 78718 94644 107328 90853 88749
2347.93 79482 99095 97617 80952 90044 134955
2350.82 130796 103234 93107 85105 67610 76331
2353.71 51110 27402 6677-16762-49857-36847
2356.61-65254-73260-51613-62451-79924-89241
2359.50-118807-102381-100181-109183-77610-59566
2362.39-81005-57508-84753-87201-66581-82909
2365.29-61582-64604-104852-66062-69945-79587
2368.18-67709-57918-46196-62052-73382-45675
2371.07-52849-42631-37223-26821-58727-85483
2373.96-88554-72492-87639-71576-29416-26192
2376.86-35007-34638-7101 6308-37585-40159
2379.75-54363-63580-64351-40078-18089 16076
2382.64 7003-3767-4082 2749-8440-16906
2385.53-18639-4988 10962 4827-3388-3655
2388.43 4638 17690 13217 35240 56978 53405
2391.32 42944 67210 78503 70597 46317 41521
2394.21 21911 33474 61138 73367 58257 54748
2397.11 93424 106388 96376 100873 97419 122863
2400.00 125420 94184 87918 129473 125983 131651
2402.89 160798 179743 167583 184609 183671 205794
2405.78 253400 276824 255220 255879 290272 328840
2408.68 350087 347419 338797 373937 392190 409391
2411.57 437798 491493 503336 516050 531120 544213
2414.46 554933 575230 589339 616120 650317 694132
2417.35 692502 702185 688747 702291 720959 737612
2420.25 757629 780269 782404 789577 790296 837017
2423.14 818702 754274 678614 671129 709276 762261
2426.03 805756 851805 833999 771333 720994 762964
2428.93 821940 868775 862014 764211 625342 591691
2431.82 613590 658389 683937 726420 776165 794212
2434.71 787367 780746 767495 775366 751150 706268
2437.60 682046 636600 563795 495012 409295 352740
2440.50 300754 259990 224809 198370 156125 127124
2443.39 93046 69873 63833 65414 32617 11351
2446.28 5988 11641 959 5750 17656 43206
2449.17 7634 15145 28257 42980 20297-14200
2452.07-6809 34462 32697 30777 47742 21312
2454.96-7541-13703-18721-9908 77761 244958
2457.85 172062 49877 5124-19412-35787-14490
2460.75 798 2420 18668 29827 19113 25645
2463.64 24936 17300-14517-24499-31355-36362
2466.53-33535-6142 12400 17916 23269 6928
2469.42-481 14279 29576 26566 7869-9631
2472.32-54678-35602-10031 20136 23092-3593
2475.21-42235-38939-25897-24435-29563-14383
2478.10-13143-13938-23833-33006-38663-26910
2480.99-15980-7719-18686-4257 12035-3012
2483.89-27000-38410-25542-19278-34745-44918
2486.78-58624-44864-47961-32926-23485-28925
2489.67-39384-27345-24614-16995-17756-15811
2492.57-45332-64939-49344-45752-52106-57053
2495.46-70619-50727-33007-27834-31428-15556
2498.35-50040-93382-78858-39204-25699-36684
2501.24-61900-43162-38199-44658-50365-58274
2504.14-65666-59861-70836-46414-34603-43281
2507.03-78412-48988-43037-43582-40086-36567
2509.92-38317-10461-18898-50419-57462-48914
2512.81-30363-22364-41572-32020-49102-67095
2515.71-70957-40982-34729-37067-43075-44107
2518.60-27243-22087-31697-27770-26200-24793
2521.49-37063-22036-18127-28383-39580-33586
2524.39-16768-37975-47248-31069-34157-43245
2527.28-54987-42377-39619-13163-4558-2381
2530.17-8310-13554-29093-23678-31014-21323
2533.06 192-1953-35735-76376-79672-14410
2535.96 1739-53306-80617-53447-67842-68533
2538.85-64493-64149-91565-96605-61053-30718
2541.74-50306-38868-36122-69961-80418-50970
2544.63-73995-110713-98741-54880-36636-38231
2547.53-34783-51840-76125-79285-70101-70521
2550.42-54879-50643-76811-89455-84529-78363
2553.31-82429-97278-99769-75022-73074-76681
2556.21-67993-78843-89218-98283-90029-61070
2559.10-61315-92916-105181-96833-93464-64458
2561.99-49223-68657-92116-71190-38068-52193
2564.88-98000-115361-109569-110553-106503-89249
2567.78-99921-109349-113199-77039-27746-19094
2570.67-72272-84977-76735-71407-79809-91752
2573.56-78949-91324-88262-64435-79137-72377
2576.45-45369-49166-65043-62778-59991-74271
2579.35-84991-62194-44706-37707-30251-27232
2582.24-47419-46097-41295-44270-62421-54363
2585.13-73726-103866-86253-80624-85051-81474
2588.03-71082-68068-89850-53375-33494-47003
2590.92-27605-36650-66886-56005-50157-71362
2593.81-68856-54134-65993-72298-78913-59089
2596.70-41828-38137-26975-5700-13369-30656
2599.60-36091-18284-33492-26955-4807-38611
2602.49-77729-53771-30893-43662-41776-20374
2605.38 55-26780-36435-7236-3581-23853
2608.27-23067 4318 9036 3410-4660 10259
2611.17 18341 17741 27953 43606 53787 28705
2614.06 16229 25974 31638 37933 75803 93306
2616.95 66571 60051 40210 30325 44341 54146
2619.85 38219 37540 44373 4882-14908-5260
2622.74 13135 21291 26305 32596 39502 56918
2625.63 53708 57896 67955 79300 62328 54326
2628.52 65544 74858 71250 51544 42198 61922
2631.42 67502 90039 89159 100649 111536 110598
2634.31 112650 81595 54312 54322 54419 73058
2637.20 78401 69311 89772 96668 98022 72477
2640.09 42541 56633 83338 114203 111014 119381
2642.99 112594 67516 71576 102117 111613 93253
2645.88 76583 87279 102403 111672 110150 90410
2648.77 95339 93325 48639 42925 93967 128774
2651.67 96543 87654 117588 127484 89967 48849
2654.56 51925 86703 105613 122119 164551 151745
2657.45 83620 48523 37083 47215 77746 110140
2660.34 116513 138327 146127 138031 117089 125846
2663.24 136713 127914 93508 91176 88446 78370
2666.13 70713 46160 30622 32452 37874 51258
2669.02 35108 7688 7740 18002-101 1440
2671.91 8529 8563 9959-2888-4301 5944
2674.81 20235 1685 11973 10929-22749-44476
2677.70-23498 17054 30890 38362 33669 49262
2680.59 42928 42097 35783 60147 73743 31921
2683.49 27508 25626 7770 38752 38909 40778
2686.38 61893 79103 81336 80840 82508 80644
2689.27 81406 95239 115255 138375 167939 156642
2692.16 155734 156020 146787 167980 160211 142624
2695.06 145368 184554 184567 156283 142765 132436
2697.95 127980 149904 197929 200519 158690 182354
2700.84 214526 193768 179255 200192 167651 137238
2703.73 114757 89984 83185 107083 152947 184751
2706.63 193837 194448 206011 223589 260319 263068
2709.52 269051 259701 240153 231598 203110 198485
2712.41 189833 170727 148943 138131 113456 101299
2715.31 99260 70849 38937 63032 67863 61327
2718.20 63499 47623 16824 15077 27869 24018
2721.09-12743-39936-44260 31571 39137 9625
2723.98 9669 12980 8939-5510 4206-13699
2726.88-7446 10943 18632 24751 18615-2034
2729.77-10106-17562-31658-25437-9111-14724
2732.66-21052-26877-30168-32129-36544-65508
2735.55-80467-67956-62164-55592-27063 2136
2738.45-8974-5274 21023 35325 17715 36865
2741.34 45502 22923-13423 2373 3200-9476
2744.23-3991-25971 7450 32435 2847 18398
2747.13 19858-6175-661 20039 15792 5020
2750.02-29742-47951-13750 6171 9174 21736
2752.91 17027-24014-57614-62589-20346-9647
2755.80-31251-41169-69474-97723-61521-28546
2758.70-10341 22213 12393 15985 16459-12833
2761.59-21205 18185 15520-28390-52081-60712
2764.48-62971-64247-75094-71063-49297-42037
2767.37-55738-62838-57996-53078-100664-124058
2770.27-77895-18927-34626-90915-106780-104331
2773.16-91269-78482-76069-46586-71476-81804
2776.05-61364-74609-84862-94490-78017-66752
2778.95-58850-44529-53033-31403-29279-56040
2781.84-66387-58074-59531-65024-84060-91209
2784.73-73217-71927-80147-87471-100593-106670
2787.62-62160-25828-13360-19122-52746-60369
2790.52-55029-54976-74177-64067-44230-58690
2793.41-71134-93480-111158-115100-86102-90563
2796.30-116866-121225-74677-46257-34682-44645
2799.19-66916-83658-102299-78630-75873-101543
2802.09-111922-94882-93152-83205-100278-77445
2804.98-67535-66369-44110-66213-105906-85498
2807.87-58423-85855-111336-73909-52541-38034
2810.77-34733-57484-62066-53195-54733-61118
2813.66-67740-75249-63890-52752-49711-51757
2816.55-38509-52767-70788-29385-17621-33148
2819.44-53254-75051-74736-75834-83204-80519
2822.34-48477-29173-16059 18650 13292-4448
2825.23-38721-72461-54475-28910 876 7470
2828.12-26960-55122-55302-42972-115 2049
2831.01-5864 2800-9809-12236-35325-18559
2833.91-7076-47677-40025-13268-14086-7193
2836.80-6771-17218-20982-30887-13675 7662
2839.69-14419-39971-47955-27269 28829 17100
2842.59 14277-15012-68497-43744-18738-21124
2845.48-8635-4659-19584-44516-25476 34296
2848.37 40896 7813-51828-60097-50196-50396
2851.26-53613-76287-74135-30128 17726 4441
2854.16-33330-29704-26349-34945-27838 7317
2857.05 7418-47911-36070 5862-7021-23319
2859.94-32210-26465-38362-5516 22029 12345
2862.83 35810 10812-43248-48152-50575-27607
2865.73-10268-12622-3105 27440 61485 77149
2868.62 32058 11078 1273 5074 51620 66248
2871.51 36282 9514-7245-9996-8006 44451
2874.41 88223 93791 71876 80877 44772-5731
2877.30-14451 2635 26077 20109 32977 47873
2880.19 27956 27332 43503 36774 16170 10414
2883.08 41262 47464 34339 14495 53795 73565
2885.98 21172 15174 46819 63799 70372 47008
2888.87 46226 46341 19867-21219 20194 64279
2891.76 29864 10514-9379 2126 19349 11903
2894.65 3025-6614 31617 37526 6768 5396
2897.55 10528 22954 37232 31002 970-25837
2900.44 13014 33293 22074 22829 22165-7450
2903.33 16485 68893 51409 39436 54255 28355
2906.23 6902 845 17286 49879 65328 44542
2909.12 25363 15844 23758 103350 108278 66642
2912.01 67339 83130 87855 93937 91053 39429
2914.90 16288 28390 35990 63492 100232 133082
2917.80 145491 127470 131773 128654 100184 104747
2920.69 105802 127753 158764 209009 186243 126100
2923.58 112821 94941 90962 65346 72285 79501
2926.47 69077 85758 80880 58208 42069 57693
2929.37 85926 89423 96956 100970 101629 141152
2932.26 191996 237466 260646 240653 211973 238716
2935.15 220881 156340 144503 167838 181527 187273
2938.05 187738 214401 238505 185272 179824 214099
2940.94 232228 199983 165492 144815 154611 226622
2943.83 273797 217554 197532 192935 194884 226591
2946.72 233819 238340 243053 197840 167823 200161
2949.62 207363 189859 204738 213421 232929 239352
2952.51 238935 214388 191515 194507 206166 206340
2955.40 198152 220091 213928 207443 241140 275047
2958.29 265771 236758 253219 250884 268564 236218
2961.19 197110 215566 263536 278710 304929 262431
2964.08 221339 196029 171736 217460 240309 197282
2966.97 155848 115067 91292 126776 149165 155960
2969.87 159449 152412 119001 105679 151905 175379
2972.76 165644 144810 130850 110248 73932 56714
2975.65 77454 104242 121805 130050 134515 130731
2978.54 102859 45622 79044 106126 116052 150872
2981.44 170093 147218 139748 132208 150732 196477
2984.33 193072 207431 217087 216059 249914 273070
2987.22 275690 273239 293384 305017 328157 335089
2990.11 353592 339984 322019 360801 415350 384424
2993.01 360339 364707 376419 376792 368389 334969
2995.90 322865 294807 266619 280474 295491 300567
2998.79 208070 143496 149057 185270 200191 207974
3001.69 259621 369543 435066 426629 461370 480787
3004.58 509753 521087 470288 432079 449937 447486
3007.47 428424 390731 358188 340387 302506 264150
3010.36 257151 247352 245921 252557 237598 226040
3013.26 230477 220757 196653 212700 248446 225109
3016.15 182819 136456 123007 126076 125455 129520
3019.04 146793 154846 140223 128615 158372 150002
3021.93 126422 107377 113832 120251 132971 177485
3024.83 195371 193585 177996 189284 203286 220854
3027.72 215896 211436 205142 195016 175713 214061
3030.61 239794 254139 290234 334130 355358 334529
3033.51 329980 317602 364197 439421 487859 517662
3036.40 516845 499378 546533 528594 516661 503127
3039.29 504626 511551 503213 491826 461424 419271
3042.18 379162 332681 287865 282547 247507 197294
3045.08 165200 135909 143878 226350 282083 316337
3047.97 379643 454422 493892 520998 534960 562950
3050.86 561670 541567 506475 482752 459527 393406
3053.75 378186 376306 383417 400544 355799 302349
3056.65 284465 257761 247130 261613 258549 235965
3059.54 245964 234811 175599 152821 161514 161953
3062.43 143459 111921 82910 69435 85070 79661
3065.33 64195 49889 27001-5582-15284-11428
3068.22 35733 60739 11311 13275 38890 13377
3071.11-18987-36141-29846-38428-28035-3684
3074.00 28585-19989-67072-36471-29753-62340
3076.90-33068 7527 21520 17056 5213-14192
3079.79-40021-61298-60997-58552-47834-27290
3082.68-35648-64964-44879-44652-40384-38710
3085.57 39 43160 12442-10150 12668-2923
3088.47-28982-5817 20151 13017 5197-19757
3091.36-18638 18905 46200 7031-37788-40717
3094.25-35122-30042-31660-22762-39158-54913
3097.15-18620 2706-7273-9196-14199-31733
3100.04-50296-9562 12153-32784-41256-39493
3102.93-17789-6372 13133 5210-36417-78648
3105.82-71222-57772-86234-108845-94559-98666
3108.72-94013-70045-55746-79290-50152-24486
3111.61-7812-27179-55621-74356-27010-23286
3114.50-77928-108425-83507-110893-162986-168295
3117.39-126143-144548-158641-176279-201711-225179
3120.29-208221-179361-180478-177384-159918-166166
3123.18-207908-255366-208564-169170-180248-170496
3126.07-207542-236680-206811-169390-196967-215597
3128.97-204452-224252-201970-196937-219852-210056
3131.86-184174-211259-211297-218327-213568-204641
3134.75-192947-172916-187935-234240-207629-183530
3137.64-164407-158631-153366-198059-179719-122962
3140.54-124451-145005-148613-151428-167650-163523
3143.43-86486-69156-95056-92961-113673-134008
3146.32-163291-188156-173420-198217-197040-158550
3149.21-152072-141433-173011-222943-188712-165050
3152.11-164494-143409-85519-85943-123537-119781
3155.00-110089-127319-98535-58438-59604-44435
3157.89-13828-2131 16184 32390 32119 46414
3160.79 42765 55268 97251 135695 170630 178347
3163.68 225568 270377 254763 238605 251710 266020
3166.57 274858 313775 350246 415980 453930 460562
3169.46 504447 542196 564682 562611 608227 648418
3172.36 696757 748211 787319 781464 833260 903329
3175.25 953382 1022414 1079261 1136868 1174383 1153294
3178.14 1168132 1205665 1319863 1381220 1395426 1416468
3181.03 1442897 1445653 1523235 1590710 1624003 1644079
3183.93 1661567 1638453 1611113 1647712 1705857 1700529
3186.82 1667811 1630650 1618695 1579896 1552870 1566331
3189.71 1554110 1498403 1470661 1483288 1505574 1518569
3192.61 1453299 1375434 1380763 1360294 1367222 1479437
3195.50 1586598 1699646 1825517 1951602 2055209 2099021
3198.39 2038952 1968288 1932762 1833507 1691748 1612457
3201.28 1561423 1494971 1357951 1269938 1175105 1073263
3204.18 983599 857717 753796 653918 571958 522564
3207.07 461440 404223 370400 322594 246485 197496
3209.96 185525 143426 118956 125383 122354 129638
3212.85 140555 108192 99791 39228-8598-25309
3215.75-35284-68513-72765-82216-68404-95480
3218.64-119960-156769-158393-193563-193131-168718
3221.53-194397-208160-156885-159266-198146-228672
3224.43-175107-123090-86743-104433-110072-115326
3227.32-98822-35199 12142-9886-9016 31732
3230.21 22035 11543 32900 40327 64332 65787
3233.10 64249 64102 58279 92797 146252 177855
3236.00 233707 266345 225011 247122 288780 306859
3238.89 302073 293050 324192 320750 322611 312755
3241.78 299205 284670 290641 298342 318631 340042
3244.67 295909 235405 256477 238511 245566 263954
3247.57 265524 283487 293020 283249 295364 319845
3250.46 325970 292115 305736 311192 294185 251561
3253.35 193281 138110 111558 90752 62303-6710
3256.25-14787-44215-72097-98596-146447-164048
3259.14-193433-225895-205787-197736-230031-284143
3262.03-283268-287632-346915-410189-360133-290454
3264.92-292474-320653-327581-330469-298536-298574
3267.82-291838-281465-252267-268633-259038-292898
3270.71-358818-355993-304576-277209-259165-292285
3273.60-320963-331937-299472-267658-252311-258932
3276.49-216957-214366-277006-250983-215284-234622
3279.39-221676-196551-196353-221077-190312-166091
3282.28-163206-208377-219789-186050-152929-158779
3285.17-139586-97124-91508-115987-109042-129442
3288.07-106391-58300-73601-105663-100707-98944
3290.96-74429-82698-81855-90599-35374-14866
3293.85 2512 22574 27942 33080 44957 6905
3296.74 19339 13421 57745 96214 89822 112842
3299.64 116651 49938 65684 101757 109142 105079
3302.53 85356 70549 48899 24139 54948 58923
3305.42 34077 75429 112424 102934 53958 33027
3308.31 90641 111917 25938 2267 48539 70356
3311.21 89082 123489 134265 112376 158053 152863
3314.10 146370 150676 122582 79630 78829 68529
3316.99 84917 115595 100796 86264 73242 62312
3319.89 89504 73666 31725-30680-29774 4734
3322.78 48570 92056 113517 76149 27850 22734
3325.67 61204 73778 80602 52433 39952 27652
3328.56 12322 36674 40008 24284 68883 60189
3331.46 46979 58026 32383 33006 75512 86769
3334.35 48550-3236-31897 13600 75990 99280
3337.24 92856 88377 94331 45892 27678 55525
3340.13 115576 88969 36106 37681 55712 113376
3343.03 153246 111351 107915 91776 102908 70108
3345.92 82147 109522 125340 137554 142137 157654
3348.81 131184 106046 74021-2775 43489 76580
3351.71 41278 37018 47286 57648 57964 66325
3354.60 73814 80872 87338 138036 180929 196147
3357.49 215157 216722 179163 89289 62308 96193
3360.38 112216 110393 174524 194454 152711 108260
3363.28 43336-30295-56686-35098 3160 48331
3366.17 79040 19742-50868-25084 12500 16326
3369.06-9789 429 55974 25672 15572 4104
3371.95-51407-75056-37058-25806-50880-57994
3374.85-26798-37658-56016-42664-34544-67699
3377.74-97772-126221-93525-47111-29906-65209
3380.63-30309-18339-34371-39708-52168-84599
3383.53-67034-59344-42068-15734 310-177
3386.42-20557-75012-87667-79601-79568-56815
3389.31 1728-2729-18561-68534-87533-104008
3392.20-93191-93917-30988-17957-39893-53381
3395.10-32937-17988-54563-55247-17842-48938
3397.99-47168-4008-32585-27712 10470-35407
3400.88-33437-316 18300 49757 34571-26802
3403.77 5333-1798-10841-8253 20617-11716
3406.67 3379 38830 27276 55741 74361 17998
3409.56 20752 36191-8745 15444 57117 30783
3412.45 4021-17036 6337 21746 108109 88444
3415.35 59276 72964 155744 113349 21178-17080
3418.24 11423 9278-31565-39512 39491 97329
3421.13 74122 43597 78097 71049 50334 44706
3424.02 67974 73700 76240 67517 82998 78364
3426.92 61058-1488 15693 46065 12770-3593
3429.81 6463 10107 46722 70104 67242 19896
3432.70 2940-40504-70242-103756-45784 9720
3435.59 4337-2469-34682-54204-57654-49343
3438.49 12327 28218 2160-25214-3249 3540
3441.38-29294-89912-45188-1682 6913-40956
3444.27-125263-109387-45953-18453-17989-31344
3447.17-41108-100642-93164-52249-41377-29404
3450.06-46146-81670-39446-28480-73481-75403
3452.95-45505-62594-73258-60806-17592-85968
3455.84-140900-129676-48076-68975-64915 18790
3458.74 47941-62882-105402-59107-70784-107675
3461.63-97219-123652-102335-74623-108364-97286
3464.52-108100-151961-96234-52909-70400-71473
3467.41-78483-144925-113328-82119-93130-103127
3470.31-80496-90112-123446-137841-82610-104838
3473.20-108770-117355-98849-70313-24738-23525
3476.09-73008-126965-95034-98299-77860-60612
3478.99-64483-46201-34079-69893-103554-106011
3481.88-80903-95317-91951-47018-13676-62533
3484.77-61812-38466 6204 25471 9939-5394
3487.66 16712-1887-36050-50072-75768-49522
3490.56-13557-5384 5545 701-1630-12134
3493.45 8490 54606 51998-15746-13935-18052
3496.34 37551 39986 54378 77338 114881 127564
3499.23 87741 33880 74252 82641 91584 94158
3502.13 148880 150290 132640 136817 141071 130426
3505.02 123953 106888 146364 157175 96466 58925
3507.91 46119 23747 41157 55505 26292-8776
3510.81 1814 11597 60780 63301 76537 103011
3513.70 167367 204972 202523 123451 111806 145052
3516.59 150553 123074 121886 87749 76840 76911
3519.48 96201 92294 49392-4414 58930 92789
3522.38 82893 65172 33993 19056 24438 3805
3525.27-32099-62702-43255-54244-22989 32938
3528.16 4846-38014 17234 38808 39386 8747
3531.05-6047-39170-36507-15294 14514 46653
3533.95 35474-60936-72499-17329-16954-51412
3536.84-59928-45798-46053-57089 31684 54599
3539.73-10393-57267-51063-42479-33455-38123
3542.63-16181-1729-20472-47950-43232-16324
3545.52 15292-33814-49571-45235-23867-11525
3548.41 55852 54444-12766-16448 934-44000
3551.30-85304-71234-35684-39600-83153-100821
3554.20-59446-1910 26139-10671-59924-68892
3557.09-20025 7527 5083-6629-22476-42701
3559.98-64323-68341-45170-51173-38198-571
3562.87-20344-32143 2664-30067-76276-87315
3565.77-14323-18949-22033-24397-25857-7839
3568.66-15914-58624-86695-88898-28179 3043
3571.55-7758-58141-16207-8808-21234-29061
3574.45-13579-56803-69772-58765-73367-64015
3577.34-34821-45345-45509-27483-26193-65364
3580.23-49827-23594-20507-35678-42711-68420
3583.12 13612 36988-7847-26144-34348-46523
3586.02-50009-43457-55760-27852-19022-45579
3588.91-15988-22517-34096-50908-26157-58328
3591.80-48834-39204-6222-2641 11369-1819
3594.69-35527-51982-22041-25003-57448-94008
3597.59-62228-48148-49316-44416-40344-27397
3600.48-17582-15098 32913-7828-35465-35086
3603.37-25799-51988-49800-80219-105201-118695
3606.27-80446-57389-39606-68632-53190-56066
3609.16-56176-74189-28347 672 5640-22408
3612.05-19911-51980-62615-48538-33170-34450
3614.94-11609-35729-44007-29691 11621-1250
3617.84-3487-22589-52814-49521 1538-26642
3620.73-20592 44 39749 42381 10419-22445
3623.62 10187 10226 8790-19126-13004 6169
3626.51 8490-43021-46322-33937-19970-54129
3629.41-8705 39798 41850-5745-7070 26164
3632.30 66034 63083 27498 15150 41155-352
3635.19-6996 46171 69703 39200 51339 69013
3638.09 64852 52658 85271 92119 106962 76257
3640.98 57288 101555 133522 94093 57412 52530
3643.87 90278 69135 69988 49654 72700 55114
3646.76 36593 49315 79080 41656 34562 37755
3649.66 71391 98551 113182 106046 90242 63760
3652.55 65313 87261 95702 67642 92185 96076
3655.44 84638 100112 105741 23274 22598 55749
3658.33 78871 71372 98333 102722 82649 60058
3661.23 69799 53119 41782 42716 36663 20553
3664.12 30921 12531 59388 53015 43311 28456
3667.01 36085 39595 25962-14201-20754-1226
3669.91-26474-95698-39806 12763 33738 12056
3672.80-17695 7891 29210-61333-99749-108603
3675.69-101878-59207-32676-58626-54247-26710
3678.58 11446-7546-14439-40490-35524-61751
3681.48-60819-82284-56550-36411-10360 10672
3684.37 21147-44431-49642-48788-37384-36821
3687.26-22936-59417-79051-68677-69266-90205
3690.15-117203-129609-61264-62892-54841-44452
3693.05-37890-3634 10153-23375 683-28428
3695.94-38488-12445-1528-14791-19446-47182
3698.83-18789-25637-31416-51660-43172-66113
3701.73-52877-31802-27036-33780-44003-65500
3704.62-36989-58539-83330-93660-50667-40047
3707.51-21859-20591-41734-51234-68754-68523
3710.40-33483-49796-98866-106830-14557 14746
3713.30 5856-38160-42564-38794-45837-87747
3716.19-61098-48689-31200-33050-28756-60943
3719.08-73930-42272 15968 10755 39737 15937
3721.97 16358 37200 46237 31332 67896 52524
3724.87 46395 49034 62233 63319 126483 146277
3727.76 136188 74501 58064 106421 157835 150445
3730.65 110120 106566 122581 148222 147929 123476
3733.55 151860 96038 100916 160584 134348 31259
3736.44 78453 107713 66493 86097 170359 208789
3739.33 247450 191940 146439 122484 130799 145585
3742.22 176674 182383 202568 97577-5660-11064
3745.12 24365 72319 111137 122079 146480 134368
3748.01 145964 115212 101296 149029 156863 156263
3750.90 138846 62831 40394 53471 21505-14797
3753.79 30106 52929 56680 33458 29055-16980
3756.69-10447-14645-19841-44722 3597-9312
3759.58-29538-36465-25371-39220-32670-27884
3762.47 1154-10174-56414-85373-32801-35231
3765.37-73488-71892-18877-23420-27691-65464
3768.26-46604-40246-62994-79238-54673-61475
3771.15-50455-48228-21796-22004 5248-10171
3774.04-13537-27766-42198-74221-37045-56214
3776.94-50227-11098 16779-13531-47326-89066
3779.83-42025-47759-64733-61526-27531-6576
3782.72 29325 25442 14890-45286-30418-26318
3785.61-42048-55650-66602-37001 145-35323
3788.51-21473-31421-39091-53564-35730-25576
3791.40-23846-15147-27179-79755-53497-66849
3794.29-51510-71028-55396-57860-46893-52610
3797.19-47480-58436-41422-35878-4983 392
3800.08 27025 659-40588-22920 2734-61153
3802.97-92782-64018-5488-12596-23246-52868
3805.86-80556-130106-92096-46574-54209-52419
3808.76-5525-18172-2060-3318-16217-31023
3811.65-24710-65001-65579-32973 5872 4826
3814.54-20470-63300-94222-95063-38995-20971
3817.43-35537-24882-8145-33556-33356-93604
3820.33-79572-85343-97773-55697-30990-19679
3823.22 7963-17810-35637-16922 16064-14641
3826.11-51514-89663-50189-41743-9202-16251
3829.01-42414-80940-57039-45541-66242-40740
3831.90 8346-14087-22721-63751-53340-87383
3834.79-73699-32330-16450-25074-41125-117139
3837.68-74893-35420-23696-10793 376-69188
3840.58-96020-90810-77411-49404-23897-66950
3843.47-23585-9813 8338 59611 65800 2305
3846.36-19450 4531-23612-75182-68643-71159
3849.25-31790-44538-58251-49848-93404-117410
3852.15-68642-83387-110317-161795-133736-78075
3855.04-39158-48216-34021-49282-52762-65159
3857.93-43212-9666 17692-13367-30309-33025
3860.83-44524-81544-79504-64098-41975-70151
3863.72-82168-94160-95805-43727 6671-3942
3866.61 22705 10212 7832-70778-107605-77030
3869.50-85521-127375-62930 4196-3502-46641
3872.40-27301-61152-50413-42210-8568-18298
3875.29-41731-71419-33937-21138-6268-62207
3878.18-55017-53888-49510-31511-7728-38711
3881.07-13849-7608-1091-24704 300 37213
3883.97 25834-5573-23724-62473-57719-61216
3886.86-30822-3683 13025 8129-3877-36339
3889.75-24637-33052 18411 16390 8110 6414
3892.65 30125-30204-27174-16317-17330-17113
3895.54-42247-67994-52502-27210 4542-15574
3898.43-7341-21692-19222-43660-44457-33329
3901.32-40164-17923 28300 56633 125327 142797
3904.22 65874-34099-48528 3051 42544 43127
3907.11 50576 14170-17680-35083-8493 22258
3910.00 35601 7135 13781 8970 16942-12465
3912.89 31074 35887 43630 29615 34150 39712
3915.79 61123 30280 6450 26657 74289 75348
3918.68 70457 31806 46923 61757 113533 101266
3921.57 82999 81987 115299 154363 175010 128213
3924.47 99075 78305 94205 89892 84617 37912
3927.36 43036 55704 74792 70357 71273 20338
3930.25 19260 30300 68446 72758 115089 99844
3933.14 79512 59389 106554 127809 113830 60543
3936.04 74015 82841 118596 121610 123307 119407
3938.93 115464 70584 31997 18936 37080 54613
3941.82 88302 86166 95532 42070 19779-4880
3944.71-6883 11801 27543-16136-25493-30691
3947.61 11381-15106 1993-10880-23631-43653
3950.50-6509-12687-6042-2546-31911-40278
3953.39 17138 32140 10856-40420-56740-81644
3956.29-21963 15135 3775-20351-276-33093
3959.18-31494-67587-74760-97521-78043-43060
3962.07-14536-47818-37906-59090-47500-48927
3964.96-46303-56728-7100-23272-47698-98935
3967.86-67192-57792-39144-34388-10879-13677
3970.75-9060-10574-36511-68394-37533-46184
3973.64-46320-95447
##END=
