##TITLE=1,1-DICHLOROETHYLENE
##JCAMP-DX=4.24
##DATA TYPE=INFRARED SPECTRUM
##CLASS=COBLENTZ
##ORIGIN=W.T. BOLLETER
##OWNER=COBLENTZ SOCIETY
Collection (C) 2018 copyright by the U.S. Secretary of Commerce
on behalf of the United States of America. All rights reserved.
##DATE=Not specified, most likely prior to 1970
##CAS REGISTRY NO=75-35-4
##MOLFORM=C2 H2 Cl2
##SOURCE REFERENCE=COBLENTZ NO. 4467
##$NIST SOURCE=COBLENTZ
##$NIST IMAGE=cob4467
##SPECTROMETER/DATA SYSTEM=Not specified, most likely a prism, grating, or hybrid spectrometer.
##PATH LENGTH=0.0025 CM
##SAMPLING PROCEDURE=TRANSMISSION
##RESOLUTION=4
##DATA PROCESSING=DIGITIZED BY NIST FROM HARD COPY
##XUNITS=MICROMETERS
##YUNITS=TRANSMITTANCE
##XFACTOR=1.000000
##YFACTOR=1
##DELTAX=000.017531
##FIRSTX=14.526
##LASTX=38.0881
##FIRSTY=0.289
##MAXX=38.0881
##MINX=14.526
##MAXY=0.976
##MINY=0.026
##NPOINTS=1345
##XYDATA=(X++(Y..Y))
14.526000 0.2890 0.2920 0.2940 0.2940 0.2960
14.613720 0.2970 0.2990 0.2990 0.3030 0.3060
14.701000 0.3120 0.3170 0.3260 0.3350 0.3470
14.788720 0.3540 0.3700 0.3840 0.3980 0.4040
14.877000 0.4230 0.4290 0.4480 0.4590 0.4660
14.964720 0.4730 0.4800 0.4840 0.4890 0.4960
15.052000 0.5000 0.5030 0.5100 0.5140 0.5150
15.139720 0.5150 0.5150 0.5150 0.5150 0.5170
15.227000 0.5170 0.5170 0.5190 0.5190 0.5210
15.314720 0.5210 0.5210 0.5230 0.5230 0.5210
15.402000 0.5150 0.5100 0.5050 0.4960 0.4820
15.489720 0.4710 0.4500 0.4290 0.4090 0.3970
15.578000 0.3750 0.3610 0.3450 0.3350 0.3220
15.665720 0.3190 0.3170 0.3170 0.3170 0.3190
15.753000 0.3240 0.3310 0.3470 0.3510 0.3670
15.840720 0.3740 0.3820 0.3910 0.3970 0.4000
15.928000 0.4060 0.4070 0.4090 0.4090 0.4090
16.015720 0.4070 0.3980 0.3970 0.3860 0.3790
16.104000 0.3700 0.3590 0.3470 0.3350 0.3240
16.191720 0.3100 0.2970 0.2780 0.2640 0.2480
16.279000 0.2260 0.2120 0.1960 0.1710 0.1610
16.366720 0.1480 0.1250 0.1110 0.1040 0.0990
16.454000 0.0950 0.0760 0.0630 0.0490 0.0470
16.541720 0.0460 0.0400 0.0350 0.0310 0.0310
16.630000 0.0300 0.0280 0.0280 0.0280 0.0260
16.717720 0.0260 0.0260 0.0260 0.0260 0.0260
16.805000 0.0280 0.0280 0.0280 0.0280 0.0310
16.892720 0.0310 0.0350 0.0350 0.0390 0.0470
16.980000 0.0470 0.0600 0.0670 0.0790 0.0970
17.067720 0.1110 0.1200 0.1380 0.1640 0.1820
17.156000 0.2090 0.2370 0.2580 0.2810 0.3060
17.243720 0.3470 0.3670 0.3820 0.3980 0.4230
17.331000 0.4370 0.4600 0.4730 0.4850 0.5070
17.418720 0.5170 0.5310 0.5470 0.5510 0.5630
17.506000 0.5790 0.5970 0.6090 0.6180 0.6290
17.593720 0.6450 0.6480 0.6540 0.6660 0.6710
17.682000 0.6800 0.6870 0.6980 0.7070 0.7140
17.769720 0.7210 0.7280 0.7370 0.7410 0.7480
17.857000 0.7530 0.7620 0.7650 0.7730 0.7810
17.944720 0.7850 0.7890 0.7970 0.7990 0.8030
18.032000 0.8060 0.8100 0.8130 0.8150 0.8170
18.119720 0.8200 0.8220 0.8260 0.8290 0.8310
18.207000 0.8360 0.8380 0.8400 0.8420 0.8430
18.294720 0.8450 0.8450 0.8470 0.8490 0.8510
18.383000 0.8510 0.8510 0.8520 0.8520 0.8520
18.470720 0.8540 0.8540 0.8540 0.8540 0.8520
18.558000 0.8520 0.8510 0.8510 0.8490 0.8490
18.645720 0.8470 0.8470 0.8450 0.8450 0.8430
18.733000 0.8420 0.8400 0.8380 0.8360 0.8360
18.820720 0.8350 0.8310 0.8290 0.8280 0.8280
18.909000 0.8260 0.8240 0.8220 0.8220 0.8220
18.996720 0.8200 0.8200 0.8190 0.8170 0.8170
19.084000 0.8150 0.8130 0.8120 0.8060 0.8040
19.171720 0.7990 0.7970 0.7900 0.7800 0.7740
19.259000 0.7690 0.7550 0.7500 0.7390 0.7260
19.346720 0.7180 0.7140 0.6980 0.6860 0.6820
19.435000 0.6790 0.6750 0.6730 0.6710 0.6730
19.522720 0.6750 0.6790 0.6840 0.6890 0.6980
19.610000 0.7090 0.7180 0.7280 0.7390 0.7480
19.697720 0.7550 0.7620 0.7710 0.7740 0.7830
19.785000 0.7870 0.7890 0.7960 0.7970 0.7990
19.872720 0.8010 0.8040 0.8060 0.8080 0.8080
19.961000 0.8100 0.8100 0.8120 0.8120 0.8100
20.048720 0.8100 0.8100 0.8080 0.8060 0.8040
20.136000 0.8030 0.8030 0.8010 0.7990 0.7960
20.223720 0.7920 0.7900 0.7830 0.7800 0.7800
20.311000 0.7780 0.7760 0.7710 0.7640 0.7550
20.398720 0.7530 0.7500 0.7480 0.7460 0.7440
20.486000 0.7350 0.7300 0.7250 0.7210 0.7190
20.573720 0.7160 0.7120 0.7090 0.7050 0.7000
20.662000 0.7000 0.6980 0.6960 0.6890 0.6860
20.749720 0.6800 0.6770 0.6730 0.6710 0.6640
20.837000 0.6610 0.6570 0.6500 0.6470 0.6470
20.924720 0.6380 0.6340 0.6320 0.6270 0.6200
21.012000 0.6110 0.6010 0.5990 0.5880 0.5850
21.099720 0.5760 0.5670 0.5630 0.5560 0.5530
21.188000 0.5470 0.5370 0.5310 0.5230 0.5120
21.275720 0.5050 0.4980 0.4870 0.4750 0.4620
21.363000 0.4530 0.4450 0.4290 0.4110 0.3970
21.450720 0.3840 0.3670 0.3590 0.3280 0.3080
21.538000 0.2940 0.2740 0.2550 0.2350 0.2210
21.625720 0.2020 0.1790 0.1660 0.1540 0.1360
21.714000 0.1150 0.1060 0.0990 0.0970 0.0950
21.801720 0.0740 0.0580 0.0530 0.0490 0.0470
21.889000 0.0440 0.0440 0.0400 0.0400 0.0390
21.976720 0.0390 0.0370 0.0350 0.0350 0.0330
22.064000 0.0330 0.0330 0.0350 0.0350 0.0370
22.151720 0.0420 0.0420 0.0460 0.0490 0.0510
22.240000 0.0540 0.0560 0.0620 0.0690 0.0790
22.327720 0.0990 0.1090 0.1220 0.1290 0.1400
22.415000 0.1570 0.1710 0.1950 0.2030 0.2180
22.502720 0.2320 0.2440 0.2690 0.2780 0.2830
22.590000 0.2970 0.3060 0.3280 0.3470 0.3540
22.677720 0.3650 0.3750 0.3860 0.3980 0.4110
22.766000 0.4200 0.4290 0.4480 0.4590 0.4690
22.853720 0.4760 0.4850 0.4980 0.5070 0.5190
22.941000 0.5240 0.5310 0.5400 0.5490 0.5620
23.028720 0.5720 0.5810 0.5900 0.5970 0.6010
23.116000 0.6080 0.6170 0.6250 0.6310 0.6470
23.203720 0.6480 0.6500 0.6520 0.6570 0.6610
23.291000 0.6660 0.6680 0.6710 0.6750 0.6790
23.378720 0.6820 0.6840 0.6860 0.6870 0.6870
23.467000 0.6890 0.6910 0.6930 0.6960 0.6960
23.554720 0.6980 0.7000 0.7020 0.7030 0.7030
23.642000 0.7050 0.7050 0.7030 0.7020 0.7020
23.729720 0.7000 0.7000 0.7000 0.6980 0.6960
23.817000 0.6930 0.6890 0.6840 0.6840 0.6800
23.904720 0.6800 0.6790 0.6770 0.6750 0.6710
23.993000 0.6700 0.6660 0.6640 0.6630 0.6610
24.080720 0.6590 0.6570 0.6570 0.6560 0.6560
24.168000 0.6560 0.6570 0.6570 0.6570 0.6590
24.255720 0.6590 0.6610 0.6630 0.6630 0.6640
24.343000 0.6680 0.6710 0.6730 0.6770 0.6820
24.430720 0.6860 0.6890 0.6960 0.6980 0.7020
24.519000 0.7070 0.7120 0.7160 0.7190 0.7210
24.606720 0.7230 0.7250 0.7280 0.7320 0.7370
24.694000 0.7370 0.7390 0.7410 0.7410 0.7460
24.781720 0.7480 0.7500 0.7580 0.7670 0.7690
24.869000 0.7740 0.7810 0.7890 0.7940 0.7940
24.956720 0.7970 0.7970 0.7970 0.7970 0.7970
25.045000 0.7990 0.7990 0.7990 0.7990 0.7990
25.132720 0.7990 0.7990 0.8010 0.8010 0.8010
25.220000 0.8010 0.8010 0.8010 0.8010 0.8010
25.307720 0.8010 0.8010 0.8010 0.8030 0.8030
25.395000 0.8040 0.8040 0.8040 0.8030 0.8030
25.482720 0.8030 0.8030 0.8030 0.8030 0.8030
25.570000 0.8030 0.8030 0.8010 0.8010 0.7990
25.657720 0.7990 0.7990 0.7990 0.7970 0.7970
25.746000 0.7970 0.7960 0.7940 0.7920 0.7870
25.833720 0.7870 0.7870 0.7850 0.7850 0.7850
25.921000 0.7830 0.7830 0.7810 0.7810 0.7800
26.008720 0.7780 0.7780 0.7780 0.7800 0.7800
26.096000 0.7800 0.7800 0.7810 0.7830 0.7830
26.183720 0.7830 0.7830 0.7850 0.7870 0.7870
26.272000 0.7850 0.7850 0.7830 0.7830 0.7810
26.359720 0.7800 0.7780 0.7760 0.7740 0.7710
26.447000 0.7670 0.7650 0.7620 0.7580 0.7530
26.534720 0.7480 0.7410 0.7370 0.7280 0.7190
26.622000 0.7090 0.7000 0.6890 0.6820 0.6710
26.709720 0.6700 0.6610 0.6560 0.6480 0.6470
26.798000 0.6400 0.6360 0.6340 0.6340 0.6320
26.885720 0.6320 0.6320 0.6320 0.6340 0.6380
26.973000 0.6410 0.6470 0.6540 0.6610 0.6680
27.060720 0.6750 0.6800 0.6820 0.6980 0.7000
27.148000 0.7050 0.7180 0.7250 0.7320 0.7410
27.235720 0.7480 0.7510 0.7570 0.7620 0.7670
27.324000 0.7740 0.7800 0.7870 0.7900 0.7920
27.411720 0.7960 0.7970 0.7990 0.8010 0.8030
27.499000 0.8040 0.8060 0.8080 0.8080 0.8100
27.586720 0.8100 0.8080 0.8080 0.8060 0.8040
27.674000 0.8040 0.8040 0.8040 0.8040 0.8040
27.761720 0.8030 0.8030 0.8010 0.7990 0.7920
27.850000 0.7900 0.7870 0.7850 0.7850 0.7830
27.937720 0.7830 0.7810 0.7810 0.7810 0.7800
28.025000 0.7800 0.7810 0.7830 0.7870 0.7900
28.112720 0.7940 0.7990 0.8030 0.8100 0.8150
28.200000 0.8190 0.8260 0.8310 0.8330 0.8360
28.287720 0.8490 0.8520 0.8580 0.8610 0.8650
28.375000 0.8700 0.8740 0.8770 0.8820 0.8860
28.462720 0.8880 0.8900 0.8970 0.9000 0.9070
28.551000 0.9090 0.9090 0.9140 0.9180 0.9200
28.638720 0.9230 0.9250 0.9250 0.9270 0.9290
28.726000 0.9290 0.9290 0.9320 0.9340 0.9340
28.813720 0.9360 0.9360 0.9360 0.9370 0.9390
28.901000 0.9410 0.9450 0.9480 0.9500 0.9500
28.988720 0.9520 0.9520 0.9530 0.9530 0.9530
29.077000 0.9530 0.9530 0.9550 0.9570 0.9570
29.164720 0.9590 0.9600 0.9600 0.9600 0.9620
29.252000 0.9620 0.9620 0.9620 0.9620 0.9620
29.339720 0.9640 0.9640 0.9640 0.9640 0.9660
29.427000 0.9660 0.9660 0.9660 0.9660 0.9660
29.514720 0.9660 0.9660 0.9660 0.9680 0.9690
29.603000 0.9710 0.9710 0.9730 0.9750 0.9750
29.690720 0.9750 0.9730 0.9730 0.9730 0.9730
29.778000 0.9730 0.9710 0.9710 0.9710 0.9730
29.865720 0.9730 0.9730 0.9710 0.9710 0.9710
29.953000 0.9730 0.9730 0.9730 0.9690 0.9690
30.040720 0.9690 0.9690 0.9690 0.9710 0.9710
30.129000 0.9710 0.9690 0.9690 0.9680 0.9680
30.216720 0.9680 0.9690 0.9710 0.9710 0.9710
30.304000 0.9710 0.9750 0.9760 0.9760 0.9760
30.391720 0.9750 0.9750 0.9730 0.9730 0.9750
30.479000 0.9750 0.9730 0.9710 0.9690 0.9690
30.566720 0.9680 0.9680 0.9680 0.9660 0.9640
30.654000 0.9640 0.9620 0.9640 0.9620 0.9600
30.741720 0.9600 0.9600 0.9590 0.9590 0.9570
30.830000 0.9570 0.9570 0.9550 0.9530 0.9530
30.917720 0.9530 0.9530 0.9520 0.9520 0.9500
31.005000 0.9500 0.9460 0.9460 0.9430 0.9430
31.092720 0.9410 0.9410 0.9410 0.9390 0.9390
31.180000 0.9370 0.9370 0.9370 0.9360 0.9360
31.267720 0.9360 0.9340 0.9340 0.9340 0.9340
31.356000 0.9340 0.9340 0.9320 0.9320 0.9320
31.443720 0.9300 0.9300 0.9290 0.9290 0.9270
31.531000 0.9250 0.9230 0.9210 0.9200 0.9160
31.618720 0.9140 0.9140 0.9130 0.9130 0.9130
31.706000 0.9110 0.9110 0.9090 0.9090 0.9070
31.793720 0.9070 0.9060 0.9060 0.9060 0.9060
31.882000 0.9060 0.9040 0.9040 0.9040 0.9040
31.969720 0.9020 0.9020 0.9020 0.9000 0.9000
32.057000 0.9000 0.8980 0.8980 0.8980 0.8980
32.144720 0.8980 0.8980 0.8980 0.8980 0.8980
32.232000 0.8980 0.8980 0.8970 0.8970 0.8970
32.319720 0.8970 0.8970 0.8950 0.8930 0.8910
32.408000 0.8900 0.8860 0.8860 0.8860 0.8840
32.495720 0.8840 0.8840 0.8860 0.8860 0.8860
32.583000 0.8840 0.8840 0.8840 0.8820 0.8820
32.670720 0.8820 0.8820 0.8820 0.8810 0.8810
32.758000 0.8810 0.8810 0.8820 0.8820 0.8840
32.845720 0.8820 0.8820 0.8810 0.8790 0.8770
32.934000 0.8750 0.8750 0.8740 0.8740 0.8720
33.021720 0.8670 0.8580 0.8510 0.8470 0.8360
33.109000 0.8330 0.8290 0.8260 0.8220 0.8200
33.196720 0.8190 0.8150 0.8130 0.8120 0.8060
33.284000 0.8040 0.8030 0.8030 0.8010 0.8010
33.371720 0.8010 0.8010 0.7990 0.7990 0.7990
33.459000 0.7990 0.7990 0.7970 0.7970 0.7970
33.546720 0.7970 0.7970 0.7970 0.7990 0.7990
33.635000 0.7990 0.8010 0.8010 0.8010 0.8030
33.722720 0.8030 0.8030 0.8040 0.8040 0.8040
33.810000 0.8060 0.8060 0.8080 0.8100 0.8120
33.897720 0.8120 0.8130 0.8130 0.8170 0.8170
33.985000 0.8190 0.8190 0.8200 0.8220 0.8240
34.072720 0.8260 0.8260 0.8290 0.8310 0.8310
34.161000 0.8330 0.8330 0.8360 0.8380 0.8380
34.248720 0.8400 0.8400 0.8400 0.8400 0.8400
34.336000 0.8420 0.8430 0.8430 0.8470 0.8490
34.423720 0.8490 0.8490 0.8490 0.8490 0.8470
34.511000 0.8450 0.8450 0.8430 0.8420 0.8400
34.598720 0.8310 0.8290 0.8260 0.8240 0.8240
34.687000 0.8220 0.8220 0.8220 0.8220 0.8220
34.774720 0.8240 0.8240 0.8240 0.8220 0.8190
34.862000 0.8170 0.8170 0.8170 0.8170 0.8170
34.949720 0.8150 0.8130 0.8130 0.8130 0.8150
35.037000 0.8170 0.8170 0.8170 0.8150 0.8150
35.124720 0.8150 0.8150 0.8130 0.8130 0.8130
35.213000 0.8130 0.8130 0.8130 0.8130 0.8130
35.300720 0.8130 0.8130 0.8130 0.8130 0.8130
35.388000 0.8130 0.8130 0.8130 0.8120 0.8080
35.475720 0.8080 0.8060 0.8040 0.8030 0.8030
35.563000 0.8010 0.8010 0.7970 0.7970 0.7960
35.650720 0.7920 0.7900 0.7890 0.7870 0.7870
35.738000 0.7830 0.7650 0.7600 0.7550 0.7530
35.825720 0.7510 0.7510 0.7510 0.7510 0.7510
35.914000 0.7530 0.7530 0.7550 0.7550 0.7550
36.001720 0.7550 0.7550 0.7510 0.7510 0.7500
36.089000 0.7480 0.7460 0.7460 0.7460 0.7460
36.176720 0.7440 0.7440 0.7440 0.7440 0.7440
36.264000 0.7460 0.7460 0.7460 0.7460 0.7460
36.351720 0.7460 0.7460 0.7460 0.7440 0.7440
36.440000 0.7440 0.7440 0.7420 0.7410 0.7410
36.527720 0.7410 0.7390 0.7390 0.7390 0.7390
36.615000 0.7370 0.7350 0.7340 0.7340 0.7320
36.702720 0.7300 0.7280 0.7280 0.7280 0.7280
36.790000 0.7280 0.7260 0.7260 0.7250 0.7250
36.877720 0.7230 0.7230 0.7230 0.7230 0.7230
36.966000 0.7230 0.7230 0.7230 0.7210 0.7190
37.053720 0.7190 0.7190 0.7190 0.7190 0.7190
37.141000 0.7190 0.7190 0.7190 0.7160 0.7160
37.228720 0.7140 0.7140 0.7140 0.7140 0.7120
37.316000 0.7100 0.7090 0.7090 0.7050 0.7050
37.403720 0.7030 0.7030 0.7030 0.7030 0.7020
37.492000 0.7020 0.7020 0.7020 0.7020 0.7020
37.579720 0.7020 0.7000 0.7000 0.7000 0.7000
37.667000 0.6980 0.6980 0.6980 0.6960 0.6960
37.754720 0.6950 0.6910 0.6890 0.6860 0.6840
37.842000 0.6820 0.6800 0.6800 0.6800 0.6790
37.929720 0.6790 0.6790 0.6790 0.6770 0.6770
38.018000 0.6770 0.6750 0.6750 0.6750 0.6750
##END=
