##TITLE=1,1-Dichloroethene
##JCAMP-DX=4.24
##DATA TYPE=INFRARED SPECTRUM
##CLASS=IUPAC A
##ORIGIN=NIST, Analytical Chemistry Division, 301-975-3108
##OWNER=COPYRIGHT (C) 2001 by the U.S. Secretary of Commerce
##DATE=01/06/01
##$SPECTRA VERSION=1.10
##$UNCERTAINTY IN Y=2.2 % relative (B=1.21E-04,C=2.69E-10,D=8.94E-16)
##CAS NAME=1,1-Dichloroethene
##CAS REGISTRY NO=75-35-4
##MOLFORM=C H2 C Cl2
##MP=-122.1 C
##BP=37 C
##$NIST SOURCE=QUANT-IR
##SPECTROMETER/DATA SYSTEM=IFS66V (Bruker)
##INSTRUMENT PARAMETERS=KBr Beam Splitter; MCT Detector; Multipass cell
##STATE=gas
##SAMPLE DESCRIPTION=1,1-Dichloroethene Primary Gas Standard
##PRESSURE=101.3 Pa
##TEMPERATURE=23 C
##SAMPLING PROCEDURE=1 L/min Flow
##RESOLUTION=1.9290
##DATA PROCESSING=NB Strong Apodization
##XUNITS=cm-1
##YUNITS=(micromol/mol)-1m-1 (base 10)
##XFACTOR=1.0
##YFACTOR=9.0949E-13
##DELTAX=0.9645
##FIRSTX=575.652
##LASTX=3974.606
##FIRSTY=6.41E-06
##MAXX=3973.64
##MINX=575.65
##MAXY=.0008684
##MINY=-6.69E-07
##NPOINTS=3526
##XYDATA=(X++(Y..Y))
575.65 7055937 7867326 8949279 10436002 12254419 14561901
580.47 16452805 19076975 21638865 25121584 28959218 33042365
586.26 36854239 41303511 46617773 52372531 57684617 63252477
592.04 68303534 72318971 75020095 76821318 77143361 76542114
597.83 73842930 69121230 63429824 58973412 56749351 56558526
603.62 57070985 61362683 70376209 81704399 89377907 92175321
609.40 90258763 85863847 79779814 73092718 65912840 58604838
615.19 51302724 44689225 38272321 32897175 28214742 24492807
620.97 21191588 18620225 16191895 14312285 12404874 10776357
626.76 9127476 7865628 6259874 5266134 4352526 3713066
632.54 2833122 2225301 1552202 1376371 1058328 864465
638.33 409007 368464 285970 265493 48023 134031
644.11-50297 201097-22320-31971-121284 124231
649.90-31684-75153-279368-83499-188487-111395
655.68-174147 121697-5568-51488-299782-135837
661.47-152140 158888 71662 161942-101701-119470
667.26-168972 106446-8268 160018-212 41215
673.04-80217 89187 72356 399450 461679 851697
678.83 730789 261902-88277 177760-44312-94168
684.61-83086 180151-36310 188061 101073 165032
690.40-2965 91055-20937 160029-93970-132648
696.18-263857 39513-150117-46818-139696 121203
701.97 14812 30635-289646-169825-208870 966
707.75-161272 92408-68335 56944-130146 12377
713.54-172616 37918-44492 33845-216071-13423
719.32-168937-33803-199986 53780-70895 115919
725.11-147731 51845 12608 182012-32836 136693
730.90-12563 129401-65070 148073 23963 164726
736.68-14994 278665 162332 272217 124537 370250
742.47 240467 490209 388747 606856 438267 796114
748.25 767316 1161229 1267348 1754177 1981700 2752344
754.04 3189111 4081995 4875270 6309811 7641817 9747842
759.82 11799279 14695860 17672509 21440254 24968134 29414571
765.61 33997781 39085738 44122527 50724236 57901309 67369223
771.39 79611902 96555972 117809584 143491018 166294889 185485731
777.18 212047221 245839342 285828948 323241821 356253199 402337362
782.96 443338928 456812694 470856914 513054774 527265486 465196210
788.75 418434845 428161489 459189403 533649425 610498333 606719209
794.53 592356859 412801040 327278785 401076990 469411188 495423363
800.32 503764694 504796949 487450709 451472399 398675603 337080032
806.11 272350395 212015583 158729790 115730334 81432971 56744857
811.89 38745980 27428449 19296598 14854293 11437468 9889612
817.68 8392117 8032037 7085633 7140421 6323445 6357517
823.46 5331222 6055059 6272612 9309749 9083771 6896180
829.25 5400566 6761623 7671382 9822208 10711163 12340884
835.03 13178790 15506272 16757479 19641351 21744035 25677978
840.82 28855263 33824428 38060603 44500236 50056877 57631118
846.60 63913055 72333705 79024065 88143526 94916364 101950615
852.39 107096574 114898417 119906972 124924366 125223632 126838205
858.17 126313579 142184738 192428481 225611490 174902364 136248041
863.96 113558568 106270890 134565468 551825040 954845332 524179713
869.75 173773838 121474212 132946280 151606998 170490103 157914571
875.53 151408528 148621644 150911006 148800125 149264354 145942059
881.32 144215310 138367459 133880238 125776126 119863516 113906237
887.10 112727692 97017892 79340737 68057505 59636898 50843033
892.89 44038061 37496251 32777429 26702197 22761852 19072934
898.67 17071501 14902907 14014251 12550665 12298999 11405558
904.46 11427867 10631566 10377379 9098797 8213618 6285931
910.24 4910440 3607027 4175121 4773182 6167719 6824240
916.03 7730222 7685939 7903546 7342920 7184323 6452035
921.81 6230710 5490632 5209283 4522749 4336172 3662180
927.60 3505808 3016572 3159977 3328648 5084052 6504319
933.39 4602956 2399905 2716857 2373487 2022519 1672565
939.17 1777450 1441711 1544998 1331177 1481346 1403872
944.96 1629230 1293966 1279808 1046007 1225980 1037651
950.74 1131435 903570 1033444 848435 911774 655096
956.53 787695 653544 759382 603898 729976 559936
962.31 687884 583692 737306 635959 704230 501312
968.10 615735 514817 783442 827970 761440 399941
973.88 405033 359148 686919 648503 701362 587519
979.67 660671 521798 555010 455367 540362 330664
985.45 358049 250121 274095 131278 207738 168882
991.24 224592 61480 175939 126939 248060 199981
997.03 275308 207107 315277 341482 563937 587138
1002.81 808242 779994 812283 875637 1055841 1042711
1008.60 1181307 1174757 1204739 1130900 1109420 1001106
1014.38 1127685 1273764 1630676 1421047 1183050 860843
1020.17 829032 891601 1106670 1156330 1175400 1161513
1025.95 1179870 1047434 956545 830643 720565 554455
1031.74 414741 321973 296828 252409 240719 214484
1037.52 223764 215804 254581 356202 378489 433396
1043.31 553816 765992 878297 1069657 1219062 1567942
1049.09 2052143 2672296 3217033 3894826 4398048 5405495
1054.88 6568200 8241267 10045156 12557272 15434789 19228751
1060.67 23482825 29481220 36532767 45282677 54586299 66556161
1066.45 80108444 95621802 111025833 128729668 147525575 165804322
1072.24 180139946 199932587 223252123 233170542 236754341 274386454
1078.02 302198192 282678429 299593703 397278902 421382259 349274174
1083.81 404093418 568907468 536011625 440420026 450915577 452566187
1089.59 452413228 422679856 408352596 422877022 491295884 472268832
1095.38 442917190 455041513 319370342 237349890 244851068 276232386
1101.16 302733029 320666092 322700966 310874365 284474939 249115462
1106.95 207701795 166200094 126843376 93349486 66173285 45975570
1112.73 31523159 22059292 15988689 12699973 11280753 11080418
1118.52 11736833 13097292 15368822 17436434 20535683 25234495
1124.31 30784941 37834483 49718492 57490279 60557746 65469168
1130.09 69163559 69623302 67496231 61837245 55195451 50000021
1135.88 51603307 80014527 121823725 88330639 45256976 37775473
1141.66 37920351 46590883 55813492 64722397 69258935 70756876
1147.45 67774649 62548529 54713784 46514791 37719455 30047300
1153.23 22769596 17203077 12404080 9101801 6390690 4822712
1159.02 3452145 2774326 2022905 1733361 1279216 1183166
1164.80 858213 872687 1037079 1909726 1544372 935095
1170.59 721565 897140 882046 1015367 911470 991250
1176.37 897050 869063 656139 634872 471043 519634
1182.16 425379 389381 196746 210324 168765 221098
1187.95 116221 164040 84869 157401 104893 131171
1193.73 52723 100187 72470 151033 130279 185551
1199.52 107846 89505 3180 124194 136361 206578
1205.30 127102 112770 40132 46883-28379-13244
1211.09-106061-90469-96988-21128-100162-92837
1216.87-147846-86260-95938-28479-87129-79608
1222.66-131167-62129-68165-27971-52846-30699
1228.44-95765-10304 32811 98754 42310 98109
1234.23 102390 169725 179441 256287 255864 311951
1240.01 292878 342417 323712 358083 294216 389919
1245.80 369114 340794 330227 438917 519623 596964
1251.59 343334 258728 307685 392800 387840 447179
1257.37 405431 409009 347187 328295 216363 190488
1263.16 89682 16550-40746 19669-43895-62924
1268.94-120551-53195-85710-58474-118201-65114
1274.73-50228-21361-87113-42060-55229 8073
1280.51 34940 66126 20034 107599 139447 173072
1286.30 150287 284814 357535 486930 556114 698498
1292.08 761943 917078 1063524 1275776 1425935 1597491
1297.87 1766509 2043809 2287129 2630525 2911712 3338266
1303.65 3736370 4225961 4677827 5227041 5711253 6150445
1309.44 6372541 6627398 6660116 6496007 5924197 5062629
1315.23 3855800 2841873 2512107 3166630 4303957 5502207
1321.01 6260169 6683127 6687254 6550785 6227348 5823423
1326.80 5322746 4903970 4422201 4020323 3664888 3411441
1332.58 3117011 2874652 2582745 2415892 2234187 2100778
1338.37 1852371 1726090 1480355 1237384 960027 833632
1344.15 767391 971288 1112650 1313984 1459147 1520915
1349.94 1321069 1150256 1088399 1203509 1365849 1482911
1355.72 1335178 1334931 1219147 1217554 1141652 1191502
1361.51 1157010 1342068 1441244 1590336 1761598 2031922
1367.29 2176654 2444600 2625395 3021288 3396869 3890793
1373.08 4130763 4509252 5106053 6000154 6523886 7017145
1378.87 7614236 8606772 9285941 9583545 9942884 10985318
1384.65 12024126 12327891 11390451 11260141 11975445 12996795
1390.44 13213279 14518421 13420532 11219009 11731936 12611113
1396.22 13231665 16119530 14771440 10963687 10568971 10976129
1402.01 10754347 10349894 10021071 9400269 8534538 7364226
1407.79 6125943 4774281 3410540 2230938 1351419 747487
1413.58 393980 224610 122758 28492-722-67759
1419.36-75591-43453-44111-30874-66712-30489
1425.15 23215 17018-53032-22381-5758-1175
1430.93-36921-34971-35386 11030-10570-19112
1436.72-39435-35942-55072-31926-24735 6472
1442.51-13465-57590-122536-54992-40409-33622
1448.29-27633 42145 22454 7421 4926 37067
1454.08 47562 27194-73362-21443 8879 66262
1459.86 94607 124953 83909 85655 48187 106966
1465.65 100896 101011 77673 93030 72150 94131
1471.43 119523 219374 238570 259963 156642 121368
1477.22 100970 88811 46784 103101 103871 133339
1483.00 117913 103383 23418 47027 43078 56388
1488.79 11936 40673 6841 69072 98470 97965
1494.57 31656 53731 78719 98560 68336 115190
1500.36 137100 172883 147334 150893 79802 110616
1506.15 104327 167358 194545 279110 271577 317486
1511.93 334724 396122 432243 564725 595893 692416
1517.72 781171 934670 981469 1116426 1289675 1553516
1523.50 1781053 2062040 2398646 2920836 3424008 3918660
1529.29 4484142 5190867 5953509 6825856 7653349 8332056
1535.07 8919217 9558458 10191377 10865187 11926936 13965904
1540.86 17030324 18316354 16997642 17617567 19944445 22898315
1546.64 26034595 29437751 32856710 36406550 39873493 43378556
1552.43 46733677 50113653 53562496 57168662 60712246 64242843
1558.21 67674026 71037144 74010917 76225691 77101332 76778694
1564.00 75158355 72851502 69904539 67118712 64291381 62176768
1569.79 62463064 65242284 69683829 77511920 86363293 92259494
1575.57 92883501 88647698 82487625 75758279 68942672 62362788
1581.36 56082310 50337678 45179276 40826217 37460218 35438939
1587.14 34729426 35123963 35870215 36737932 37608777 38773519
1592.93 40471969 43062624 46631693 51377821 56898518 63074324
1598.71 69818311 77479761 86168872 96236025 107720255 120868473
1604.50 135618556 151909882 169551256 188213513 207345384 226689223
1610.28 245418350 262855412 277805453 289027638 295192881 295033681
1616.07 287681158 272730176 250150081 222753612 194510931 172699584
1621.85 167886620 191652268 244673108 306146965 350330567 366798795
1627.64 359266831 338123894 311139851 281300469 250207223 219351925
1633.43 190132593 163992334 141673425 122764106 106642517 92994891
1639.21 81202591 70955240 61740581 53348427 45584309 38431757
1645.00 31873932 26078880 20969820 16683185 13076619 10133869
1650.78 7656619 5754308 4379516 3417859 2616617 2052112
1656.57 1560470 1272280 1010634 845511 682050 611214
1662.35 538069 508814 428498 404682 336361 330600
1668.14 303191 349968 369280 429285 402870 447106
1673.92 455412 528166 547954 628101 672960 752329
1679.71 764785 789067 745203 720930 581837 604599
1685.49 656994 779697 962046 1002432 910359 924915
1691.28 853110 943832 1059682 966148 712153 712764
1697.07 683053 737541 748775 757416 649713 593631
1702.85 531310 532671 464544 482197 443670 505365
1708.64 507547 563978 536835 571393 620404 709363
1714.42 768058 907487 973221 1160264 1323015 1579830
1720.21 1774729 1979386 2128867 2396172 2591544 2815548
1725.99 3035417 3456198 3942217 4580884 5291330 6131072
1731.78 6861325 7615433 8287709 8939442 9322131 9492698
1737.56 9294822 8588222 7141571 5290945 3647053 3242935
1743.35 4243820 6181185 8125242 9618884 10338909 10474491
1749.13 10076193 9407099 8640992 7905114 7197753 6696897
1754.92 6152190 5691926 5241134 4884344 4410346 4031956
1760.71 3656935 3055152 2494147 2215633 1946051 1775892
1766.49 1527560 1377029 1199620 1068395 892519 918166
1772.28 1083388 1163474 1083166 905789 484551 375033
1778.06 316282 335203 306265 350325 301436 310428
1783.85 240257 308210 302383 362092 364426 397568
1789.63 351615 355742 285402 293867 279186 311336
1795.42 233753 206945 113124 90378 97134 215780
1801.20 225369 278853 260624 299822 238945 367340
1806.99 626399 520996 120627 60493 29747 132542
1812.77 134288 130181 58215 81932 32521 55502
1818.56 4253 32098-25409 14600-12078 24320
1824.35-35891-3173-44828-10059-53868-9399
1830.13-23579-4205-30718 14017-3388 23396
1835.92-14213 65683 43537 75532 61277 133641
1841.70 133390 155860 134644 202307 188669 264583
1847.49 258071 325409 301253 351966 345864 380085
1853.27 397157 491704 460916 492770 450438 514428
1859.06 545943 631797 658933 737542 737545 834304
1864.84 872245 989364 1055131 1122710 1095460 1152709
1870.63 1148162 1210041 1181741 1226610 1187315 1220725
1876.41 1215545 1285597 1221107 1184849 1004505 893422
1882.20 752383 780515 847358 1041501 1170822 1301252
1887.99 1312151 1314127 1196082 1126463 1002837 959629
1893.77 806691 731287 634984 615847 470415 442649
1899.56 373700 413253 370016 363996 335259 357985
1905.34 283556 308134 304882 362325 313348 354957
1911.13 307423 323457 259201 258075 229153 297307
1916.91 310872 398278 388155 448808 431976 507225
1922.70 494960 555972 520116 529561 470566 523444
1928.48 483281 467406 415523 434654 348404 376914
1934.27 372092 423505 356658 332104 250508 293221
1940.05 286900 310355 191816 195408 152667 183397
1945.84 134401 143301 76257 110116 77308 92884
1951.63 20064 19220-53464-19487-86843-55460
1957.41-101047-80230-109923-48437-70728-57198
1963.20-79330-26928-81547-76451-82734-18949
1968.98-64243-42067-42352 30783 15762 70428
1974.77 49850 149410 153862 199799 169624 261840
1980.55 265393 328005 307804 341469 268257 302851
1986.34 296023 333509 286726 326946 331093 360565
1992.12 204485 177532 151378 200144 228519 342891
1997.91 308828 306023 182107 159959 81237 99463
2003.69 81525 115418 17069-18663-66268-28832
2009.48-71564-49912-89498-62691-127615-83003
2015.27-102137-67449-119712-51339-37618-19161
2021.05-91094-62131-100891-55226-89406-63682
2026.84-112040-75032-104994-44250-79451-45548
2032.62-94298-65337-98886-24227-43602-6711
2038.41-51761-38335-110239-102861-125542-46930
2044.19-84725-45657-59732-18385-69170-34459
2049.98-63253-16134-33494-22342-70569-15954
2055.76-68230-34247-70856-34976-64962-8981
2061.55-39016-11260-64357-27067-65834-22032
2067.33-16105 73742 34523 51097 34591 142958
2073.12 151259 188289 62832-1617-61750-11637
2078.91-30404 17055-61819-30932-70524-26718
2084.69-48769-6708-47302-743-54049-17934
2090.48-76510-39349-57714 2958-47569-36348
2096.26-86689-60426-86330-78978-114742-54946
2102.05-83440-68529-117827-72412-81690-85047
2107.83-150492-66979-82004-46209-131747-89331
2113.62-111272-41602-96345-64941-123877-75783
2119.40-88986-82806-157603-118579-161691-133254
2125.19-171183-116760-147688-133448-205745-167897
2130.97-190811-178788-254713-228052-259547-238097
2136.76-270284-223207-285605-255232-296108-260872
2142.55-312594-276460-322575-284540-349723-363221
2148.33-360016-287542-341545-295829-326154-286910
2154.12-350784-362898-406275-303121-324907-300626
2159.90-354147-342089-418953-392220-407379-309491
2165.69-315035-269677-307217-296326-412120-406587
2171.47-352678-243868-315829-302114-310810-214480
2177.26-275531-273946-324433-295820-311376-266455
2183.04-311145-293813-323547-247685-311921-306339
2188.83-309790-208972-244617-243875-333657-235038
2194.61-155263-72804-127979-86557-80764-6251
2200.40-70301-30021-29823 46503 20226 119368
2206.19 139589 342242 552743 507135 322911 388540
2211.97 395155 461416 439413 540031 538034 613455
2217.76 615394 668241 582214 587333 605756 737690
2223.54 741490 769468 688289 761439 845297 957351
2229.33 885818 853373 701874 631133 542531 506536
2235.11 373334 338822 249121 228899 128026 144700
2240.90 90967 80747-18757 511-26497 6964
2246.68-76179-99935-143813-79640-127037-116338
2252.47-210800-196544-240598-178346-205820-182134
2258.25-249299-207876-250478-206237-233714-187244
2264.04-240996-204367-256092-201678-236768-206209
2269.83-247997-196080-209372-153581-221143-279461
2275.61-417789-387377-281032-90274-141258-168540
2281.40-210997-132800-223663-219583-235729-170951
2287.18-239963-223906-296566-245160-254926-225304
2292.97-281482-241421-282150-228053-252542-196914
2298.75-202046-158332-235161-199099-216090-142162
2304.54-178834-152583-204944-125728-122948-72030
2310.32-124334-68871-98029-38671-90352-66393
2316.11-116687-43796-33640 22146-23253 18450
2321.89-16863 40424 2913 91370 66756 107774
2327.68 77668 156293 111907 155570 146650 216834
2333.47 184948 231195 206035 216226 181379 265738
2339.25 206344 182486 120575 209055 243728 254838
2345.04 163297 210081 159994 202291 169767 247496
2350.82 195888 188222 107165 75953-52683-75511
2356.61-142746-117591-204250-188895-207659-129203
2362.39-165690-135863-166516-130411-174841-121075
2368.18-142204-96415-131504-64635-112835-122461
2373.96-181981-100120-91357-25439-55380-60546
2379.75-132036-53666-26402 22273-28818-2970
2385.53-29570 24388-16683 47434 49009 123269
2391.32 104329 145915 60714 106468 99886 165880
2397.11 167845 225204 201862 234995 210784 304457
2402.89 313338 386750 412654 532628 528314 657602
2408.68 672300 763690 813458 970480 1012488 1108266
2414.46 1130069 1264022 1329313 1411376 1395121 1498361
2420.25 1522229 1604962 1590110 1523831 1385513 1541238
2426.03 1608807 1588233 1540013 1680668 1470481 1290232
2431.82 1288273 1475788 1535555 1580449 1499869 1440931
2437.60 1221779 1002829 698909 550886 366166 276449
2443.39 138934 124339 21561 35680 2827 63583
2449.17 23966 69047-5266 58840 46372 56130
2454.96-36322 95544 249767 182234-36093-6129
2460.75-8896 63989 24080 36930-62357-36596
2466.53-39589 48539 798 51905 10790-7160
2472.32-70265 28853-37457-39720-74385-16804
2478.10-58167-37407-72197-6879-30164 2504
2483.89-74110-37874-107341-72745-92732-39558
2489.67-78411-19578-79354-76261-124756-92176
2495.46-120086-42130-97144-107119-124477-60768
2501.24-113686-70211-136324-100715-125423-78398
2507.03-129316-62590-94717-30140-103315-63988
2512.81-89402-60139-136025-75543-101164-50988
2518.60-79722-32911-78148-29745-78703-40278
2524.39-89500-53961-106526-60998-60826 6529
2530.17-53496-27909-55925-19646-123956-54173
2535.96-107556-107729-152041-129046-172105-81258
2541.74-109111-97001-165297-150213-151816-60911
2547.53-131973-121373-153627-107146-180927-146773
2553.31-200898-144007-170155-140001-195851-131149
2559.10-191937-165338-165782-117544-153583-117226
2564.88-225367-192816-223731-180511-165855-73903
2570.67-164906-133275-190747-145926-177216-105845
2576.45-135781-102173-163605-101012-102005-49821
2582.24-108707-76397-152848-146141-193295-134743
2588.03-169280-93648-101929-67161-135394-102240
2593.81-151507-114183-140667-47157-62465-24024
2599.60-79646-25226-103690-77876-100414-25644
2605.38-61989-12211-49812 13067-14480 39225
2611.17 23508 95998 44677 76477 78342 166067
2616.95 93170 105598 65775 95526 3287 24563
2622.74 16223 89236 77879 143396 113672 149083
2628.52 112045 136875 100476 186193 179084 233722
2634.31 144138 141603 114060 180305 157000 166559
2640.09 115557 221271 195871 200207 162865 209766
2645.88 161982 229851 174060 178654 120723 220107
2651.67 187899 228054 122926 190701 229169 269081
2657.45 109881 143026 176553 285292 244093 278082
2663.24 211914 210360 130456 123509 52173 96388
2669.02 17407 39926-11737 35706-17657 33883
2674.81-3616 14910-63644 34796 45115 105766
2680.59 65749 126137 63319 71241 39389 119832
2686.38 120849 183694 144507 222980 251512 334836
2692.16 288927 335414 288380 355858 298018 300560
2697.95 297265 386396 353013 410359 336469 303960
2703.73 182104 262342 319663 421707 436060 539516
2709.52 485336 475878 372877 361484 246392 230810
2715.31 123067 141941 99777 106916 23730 37450
2721.09-59376 32172 14807 40414-18970 13755
2726.88-6842 55408-18011-13436-63802-13436
2732.66-72664-50464-138805-112640-112479-7963
2738.45-11381 68358 42112 59266-21348 10849
2744.23-31497 45715 4847 36074-3931 12952
2750.02-68853 18669-3158-18979-104402-31492
2755.80-119352-112211-91141 33937 744 21493
2761.59-24747-21431-134846-108879-150033-81286
2767.37-138594-124088-198987-90076-174259-169466
2773.16-184696-110418-163937-129919-188811-112682
2778.95-125651-57750-123315-98256-163804-137061
2784.73-179728-154325-188855-57913-85994-81426
2790.52-144136-98116-148903-158120-226557-180545
2796.30-216012-95255-128687-134224-196878-166274
2802.09-219468-156580-183335-103432-167864-140485
2807.87-190857-126346-117574-79367-135472-101852
2813.66-154914-91533-120131-78607-101605-55706
2819.44-152982-131007-157288-38930-22469-4312
2825.23-116660-34465-51057-55598-86605 11385
2831.01-31812-8360-68518-34802-68731 2125
2836.80-56062-13046-49317-32196-54321 42599
2842.59-63474-50094-61890-7405-63507 40828
2848.37-30036-70608-132643-100709-83894 2962
2854.16-75233-27930-48019-16074-56282-14385
2859.94-78639 10653 8921 19018-99311-35218
2865.73-37454 81349 74428 65628 22299 106683
2871.51 8674 24844 59213 182032 98859 55258
2877.30-13044 75345 43957 93551 34682 77291
2883.08 46330 100635 63509 96536 83767 130991
2888.87 42793 54503 36111 54645-12615 41303
2894.65-1187 64982 1267 68362 11832 30400
2900.44 12177 64360 10666 105609 69998 79201
2906.23 7737 102365 59452 92045 118700 187820
2912.01 136581 191930 77628 92149 115125 262564
2917.80 241286 264267 195300 297134 320103 309761
2923.58 173496 181274 124460 177856 101145 154378
2929.37 150501 233102 276591 465503 450255 462500
2935.15 334566 358309 350830 436888 383912 433489
2940.94 366242 360571 397926 468989 381430 460640
2946.72 438693 437207 362800 426997 408090 487845
2952.51 406070 425568 384263 446190 427207 530190
2958.29 482670 527968 445444 490264 518550 536281
2964.08 391855 437465 355105 285328 229202 324164
2969.87 259958 290060 288182 314035 186236 179192
2975.65 176013 274898 207217 191415 179153 305833
2981.44 274982 318862 334950 434737 436411 546757
2987.22 541739 638535 645722 706662 705641 785217
2993.01 716900 761234 654506 622010 542763 538917
2998.79 341107 383491 444838 719203 846573 985950
3004.58 959681 937625 846995 808040 642774 580463
3010.36 480846 511467 439977 459280 414827 440845
3016.15 283182 279425 245533 312075 262694 302685
3021.93 215686 279307 307559 399895 363350 446143
3027.72 394022 420072 402701 552967 612841 698483
3033.51 671040 882468 972327 1064678 1022440 1047004
3039.29 983951 986581 809924 700516 517652 433982
3045.08 301517 467740 630679 900493 1003414 1121003
3050.86 1041609 983458 803438 791793 718666 657506
3056.65 511082 533840 465980 454196 316453 326170
3062.43 201797 190784 119413 115310-12943 40423
3068.22 34188 72545-13084-24545-82292 7251
3074.00-63331-60771-97167 12093-3242-12001
3079.79-123266-82931-107178-70093-112906-19191
3085.57-2770 36716-35157 18349-10375 13869
3091.36-2853 26034-86995-39875-90608-40207
3097.15-49900 1058-76820-14616-68801-35265
3102.93-37958-4810-132913-127534-209608-164772
3108.72-175856-95672-90187-44364-119763-79966
3114.50-197807-219054-320479-274887-385259-382802
3120.29-408052-321545-397211-400095-407773-352604
3126.07-441295-368901-434504-395171-440369-384434
3131.86-436818-400108-428693-358693-433138-348831
3137.64-358009-314504-320334-254504-333809-242833
3143.43-212591-175750-300282-322019-397170-312067
3149.21-350947-349406-371348-238131-235297-205463
3155.00-239831-123603-99651 20639 27667 108260
3160.79 117073 286168 360914 508489 479104 559880
3166.57 615231 830034 921693 1088419 1138712 1329549
3172.36 1450855 1634925 1773610 2062516 2214664 2359026
3178.14 2450919 2733863 2807904 2980719 3117610 3297740
3183.93 3252922 3342251 3332097 3303074 3149191 3133576
3189.71 2996944 3008096 2933645 2843733 2744131 3008270
3195.50 3387673 3888830 4057207 3971830 3604089 3284866
3201.28 2908150 2566002 2124271 1751620 1311783 1067321
3207.07 803690 646423 405605 328163 229146 278919
3212.85 190652 110788-65553-90979-178268-175162
3218.64-316308-330144-399134-341310-387394-350078
3224.43-298969-185599-222589-65537-32303 51732
3230.21 24358 112341 98696 158938 184012 390532
3236.00 448523 545945 561310 638837 611195 643860
3241.78 565026 632926 591408 558040 470940 544048
3247.57 533591 609853 591924 641608 567834 508017
3253.35 280165 192960 3327-65726-234962-306349
3259.14-431907-414961-550045-601014-735938-622983
3264.92-652456-609202-621156-529766-560925-582673
3270.71-679952-556172-613973-591760-580585-463753
3276.49-502212-459517-474920-393305-422294-340613
3282.28-409291-346068-321892-206449-239866-195152
3288.07-196548-158236-208168-141074-155576-15124
3293.85 7544 85351 21316 93384 132579 221355
3299.64 141256 203359 169752 158848 69739 124895
3305.42 126694 188870 111140 156219 53378 161982
3311.21 196206 292950 269725 295981 167839 188924
3316.99 167005 199699 124997 133299-22665 53444
3322.78 122100 163892 66138 153426 84585 88930
3328.56 34028 112867 82968 121458 76575 141721
3334.35 4871 78015 135718 198131 95736 155313
3340.13 121754 138362 176710 258965 173572 200411
3345.92 187636 292823 253767 220642 71106 119941
3351.71 69932 132101 108965 196738 248498 408103
3357.49 354438 265070 164494 291199 293809 218620
3363.28-30135-14232 35990 55560-49229 32375
3369.06 4495 75264-50980-64517-113232-60041
3374.85-110313-66999-167034-164806-154248-58781
3380.63-90078-62609-154372-83399-68331-6804
3386.42-139139-128421-115079-14938-139760-156537
3392.20-168042-52493-100878-49727-109125-48279
3397.99-81407-11289-64439 23263 22716 37899
3403.77-34171 21878-14008 74426 68594 98867
3409.56 13846 70400 22526 33897 59144 179454
3415.35 165340 189027 8347 11659-21886 139962
3421.13 108035 151259 89614 164881 123547 156645
3426.92 37095 67699-5854 72725 76130 76219
3432.70-98311-96842-63974-2035-111063-32059
3438.49-18046 15389-62377-63667-74725-80477
3444.27-182767-49475-99974-116564-148323-64697
3450.06-128916-79766-147290-98346-139944-142056
3455.84-226931-91685-56204-47418-183191-157017
3461.63-239676-164303-240990-193436-189106-130292
3467.41-240704-173126-212430-175779-251965-183123
3473.20-233988-105745-133203-155009-209402-108776
3478.99-132523-114230-214842-144491-142367-63933
3484.77-85678 42211-16235 6135-122300-54182
3490.56-48756 27726-19691 83590-11324 36305
3496.34 53842 191687 169800 172729 132165 249953
3502.13 248256 302663 232672 283062 219735 171152
3507.91 55118 95614-1906 76256 104000 265002
3513.70 320873 328636 242541 281024 166294 195969
3519.48 114927 117804 109955 145947 27737 16176
3525.27-110329-43208-35592 30254 16508 47442
3531.05-70344 10477 4935-19823-104143-54578
3536.84-127520-12310-12031-31869-113662-29031
3542.63-66138-33486-70412-21881-97606 37119
3548.41 18018 14338-112885-91682-145583-109074
3554.20-70286-12113-105250 7024-49197-54608
3559.98-141528-57898-73942-8873-105660-77733
3565.77-81430-15976-71090-77688-145908-20844
3571.55-75899-13169-77520-65507-156459-85286
3577.34-114425-46987-114750-41967-98151-27916
3583.12-23613-11123-110572-65222-98701-29510
3588.91-84723-50107-116351-35440-36261 2241
3594.69-91095-58412-155906-85524-113019-28837
3600.48-38567 10367-89729-66268-186567-160427
3606.27-161431-83459-143814-68516-59833-5336
3612.05-112577-64737-89649-33240-68599 17457
3617.84-77373-36940-62733 39640 17745 34609
3623.62-19666 16700-38230-23796-97775-18017
3629.41-584 55175 29809 118642 27724 59232
3635.19 39138 133845 90319 168048 145928 197500
3640.98 160621 210654 110323 170713 95421 139146
3646.76 75974 129391 75672 209287 164772 187636
3652.55 128527 200889 150109 206833 80581 135447
3658.33 131930 206502 114129 137638 50845 87729
3664.12 37170 120113 45886 86232-27623-16172
3669.91-115128 15332-9221 26444-121928-156201
3675.69-165014-67855-78969 6700-91984-80077
3681.48-155078-38906-37901-18895-116546-45865
3687.26-137969-114954-215559-166569-161689-55145
3693.05-59733 11591-71080-5822-61922-25892
3698.83-90045-57296-132603-49818-105058-69830
3704.62-155895-111240-114161-34686-131129-84564
3710.40-159081-95834-57874-17298-120849-93508
3716.19-128286-44937-129412-33109-3911 76895
3721.97 35245 121655 74753 139289 141747 271504
3727.76 166079 247001 234714 271728 241171 298612
3733.55 214132 266865 149573 192775 208601 411626
3739.33 347077 313074 275058 367983 163256 73507
3745.12 105432 268414 244012 279454 245776 307514
3750.90 141041 104001 11178 106226 39422 32581
3756.69-63755-11161-64865-28820-93778-14705
3762.47-85719-75522-133643-71399-95551-61070
3768.26-135167-98047-142665-52758-62928 6821
3774.04-89237-72152-121074-10281-73471-81201
3779.83-139326-63727-39164 51285-62200-44528
3785.61-124996-46557-75165-39291-106871-31936
3791.40-83956-77137-149671-93470-137733-75007
3797.19-123203-28391-26298 17525-73888-69206
3802.97-129057-19927-142246-151125-166180-45269
3808.76-57478 8615-83427-64692-91110 2000
3814.54-141029-108210-104683-18408-96376-107300
3820.33-195415-87906-70712-1836-56560-19614
3826.11-142891-46400-92697-79092-141221-35408
3831.90-69868-66656-162017-57279-106508-108302
3837.68-123945-13893-139567-130453-142551-46993
3843.47-42403 97165 6879-3472-131841-88296
3849.25-126311-108022-206520-169116-275574-145887
3855.04-123149-66863-124759-7710-53117-47888
3860.83-156363-102393-165166-136229-117300 30467
3866.61-26287-75028-208468-133827-97440-26722
3872.40-121582-40929-89921-56520-91366-53938
3878.18-130118-36970-72086 4455-37517 56747
3883.97-37859-60771-120659 5669-29115-10481
3889.75-55642 46440-10661 10735-70392-27637
3895.54-124442-27382-52198-9067-98032-42705
3901.32-38528 161767 149463 52289-25674 100697
3907.11-3342 6740-9840 64029-9219 55684
3912.89 31497 102545 51712 96846 48686 156820
3918.68 76868 174103 156034 233090 246128 288956
3924.47 159243 195433 86631 145657 97250 109654
3930.25 53113 189313 152435 206481 178022 204039
3936.04 153272 263536 196212 174903 43964 147763
3941.82 127755 129472-13323 43166-43137 84
3947.61-42982 1924-75331 5640-59879 5633
3953.39-16894-25761-120527 8276-45482-24394
3959.18-149588-123134-132571-46895-127461-67064
3964.96-107157-43655-161804-82175-91895 2626
3970.75-76866-57245-135403-111663
##END=
