##TITLE=1,1-Dichloroethene
##JCAMP-DX=4.24
##DATA TYPE=INFRARED SPECTRUM
##CLASS=IUPAC A
##ORIGIN=NIST, Analytical Chemistry Division, 301-975-3108
##OWNER=COPYRIGHT (C) 2001 by the U.S. Secretary of Commerce
##DATE=01/06/01
##$SPECTRA VERSION=1.10
##$UNCERTAINTY IN Y=2.2 % relative (B=1.21E-04,C=2.69E-10,D=8.94E-16)
##CAS NAME=1,1-Dichloroethene
##CAS REGISTRY NO=75-35-4
##MOLFORM=C H2 C Cl2
##MP=-122.1 C
##BP=37 C
##$NIST SOURCE=QUANT-IR
##SPECTROMETER/DATA SYSTEM=IFS66V (Bruker)
##INSTRUMENT PARAMETERS=KBr Beam Splitter; MCT Detector; Multipass cell
##STATE=gas
##SAMPLE DESCRIPTION=1,1-Dichloroethene Primary Gas Standard
##PRESSURE=101.3 Pa
##TEMPERATURE=23 C
##SAMPLING PROCEDURE=1 L/min Flow
##RESOLUTION=0.9640
##DATA PROCESSING=Boxcar Apodization
##XUNITS=cm-1
##YUNITS=(micromol/mol)-1m-1 (base 10)
##XFACTOR=1.0
##YFACTOR=18.189E-13
##DELTAX=0.4820
##FIRSTX=575.17
##LASTX=3974.606
##FIRSTY=6.89E-06
##MAXX=3974.12
##MINX=575.17
##MAXY=.0017087
##MINY=-.0000972
##NPOINTS=7052
##XYDATA=(X++(Y..Y))
575.17 3792182 3523760 4044037 3393965 3971694 4925931
577.58 4629105 5337300 5100286 6164597 7061439 7202488
580.47 7774878 8033469 8600175 9859836 10300710 10141104
583.37 12079227 11991597 13790731 14304493 15904934 15903805
586.26 18068727 18022892 19851159 19703960 22351382 22949795
589.15 25242977 25922753 27499245 29089680 30140127 31246042
592.04 33408101 34337093 35543963 35856772 37490336 37240376
594.94 38578760 38119683 39275955 38313524 38639268 38431931
597.83 38526695 36813732 36234296 34871025 32844738 31501455
600.72 30568260 28956091 28318697 27890764 28552965 28246882
603.62 28391895 27612134 28700634 30103111 31993468 34417440
606.51 38403869 41489056 44339903 44479533 46871912 46622104
609.40 46379676 45198580 44670913 42690889 42048763 39655696
612.29 38671499 36077912 35205625 32667378 31610028 29032247
615.19 27272141 25566332 24270773 21930409 20807481 19047065
618.08 17632083 15982574 15680032 13544696 13281842 12133479
620.97 11323615 10394302 10050680 9201057 8671102 7895830
623.86 7831302 6905332 6832986 5954083 6117519 5192785
626.76 4927466 4306006 4700021 3611321 3847955 2738041
629.65 3014972 2384616 2584851 1958911 2314259 1554579
632.54 1867001 1222554 1466819 893515 1044133 561617
635.44 905347 479525 717449 471248 731774 108992
638.33 607066-66622 382056-101549 327446-33973
641.22 599979-218523 163520-253197 542617-277567
644.11 215238-357449 292675-27110 319594-264566
647.01 231739-325867 148367-297237 302828-231866
649.90 322297-207999 315501-476009 183621-348804
652.79 90244-345249 344043-428498 269007-438830
655.68 227734-423684 254405-109175 260524-188473
658.58 328402-434927 230129-458094 80940-213495
661.47 50879-305755 290801-259175 521791-317517
664.36 300089-126635 305517-301907 183132-346944
667.26 53255-325279 367472-300533 383738-296635
670.15 255006-185350 420762-342618 355307-297769
673.04 100050-112700 241027-336075 333786-224328
675.93 396565-153947 574112-63055 603302-7403
678.83 896083 340358 630460-425624 180696-415169
681.72 478423-237214 322595-159663 211843-438333
684.61 39151-233053 504855-248048 307306-342531
687.50 320902-245697 400081-134130 393458-372991
690.40 338977-153547 241027-231284 203846-284380
693.29 449279-240654 207878-135529 231504-519965
696.18 146302-391915 228652-274139 414981-450088
699.08 262298-416174 265406-272136 160353-218567
701.97 408688-247191 319495-304570 264261-500566
704.86 194114-494574 262856-433934 309438-291042
707.75 315168-561072 357376-246331 425025-443494
710.65 290619-196152 232198-354438 235485-245090
713.54 277739-469735 302521-335027 346789-348559
716.43 439249-320140 180096-448221 294280-306744
719.32 214079-317611 230099-294227 167003-371996
722.22 229773-259771 363129-415918 363968-283172
725.11 473619-526523 213248-256605 297136-197712
728.00 328175-188771 319088-338731 389431-357137
730.90 435040-369334 435948-300499 269165-281324
733.79 334982-315447 345963-160170 312733-251896
736.68 308007-268052 308359-204975 501694-149965
739.57 403591-267555 408907-235158 465121-136239
742.47 390866-80142 442106-88647 509743-33185
745.36 524200 19370 547844-79981 480922 155115
748.25 788761 12030 738730 263911 914803 390086
751.14 962289 658198 1120555 661251 1523098 1048552
754.04 1700669 1448896 2018476 1678244 2417887 2206445
756.93 3039634 2834094 3599660 3662092 4383547 4688637
759.82 5545965 5553930 6795078 7130049 8063640 8684114
762.72 9874333 10595924 11716433 12257796 13571195 14521380
765.61 15840718 16880728 18548576 19464866 20458651 21984318
768.50 23471716 25292211 26837595 29096818 30545507 33236302
771.39 35953684 39896398 42301826 47979002 52840050 58774216
774.29 62865926 73722143 77902400 85557816 89075863 87588126
777.18 97933031 106653870 114227086 120651849 130667331 143047611
780.07 156996603 163675303 166201330 176866752 185223404 200905987
782.96 213829910 233549334 229698859 224893154 226958993 232584994
785.86 236930301 256036787 273076712 296490256 257415697 213090332
788.75 212805802 201471429 200708125 214047769 219743612 240096506
791.64 217345443 251153487 288280593 391851645 295699522 232627479
794.54 292459286 432700029 285054055 108665478 155579720 139223391
797.43 181842918 190643392 246121946 233220459 248269155 248506657
800.32 251441370 248860471 258940769 251439773 255424092 242875622
803.21 241519535 224576942 218164964 197593590 188241845 165310159
806.11 155346107 132813855 122920979 101734892 93906771 75309694
809.00 69775103 53592679 50410214 36921959 35725706 24567380
811.89 25420695 15940656 18271661 10527477 13845496 6605102
814.78 10802952 4307540 9111368 3139058 7773306 1897441
817.68 7189930 1698831 6719765 1212462 6352923 885143
820.57 6334790 922775 5862077 418767 6073521 746115
823.46 5331309-327022 5373583 645609 5878651-383018
826.36 5712980 2414321 9647918 1355066 7546128-800977
829.25 6011580-695904 6002456 132654 6808774 637221
832.14 7554785 1538608 8635391 2171281 9217011 2475547
835.03 9696552 3247410 10595050 4167142 11622634 4767881
837.93 12673366 5876623 14072665 7237331 15402946 8752595
840.82 17583459 10487837 19671361 12500009 22064229 14698114
843.71 25030437 17480982 28032776 20533194 31639647 23789560
846.60 35144422 27118791 39067673 30715550 43374624 34207123
849.50 46979803 37766181 52444876 42456444 55051240 44251637
852.39 58747190 47005348 62441232 49811890 66387088 53133357
855.28 70001686 53614476 71640482 54281046 72714286 52659356
858.18 74096097 51185568 75656400 50658874 91919603 54976467
861.07 172188792 109838119 114087821 71718821 83588028 46478779
863.96 80708114 35237652 81323261 20178453 90391385-7511836
866.85 121887285-53471642 670343835 939411816 260865825 216438264
869.75 34869367 97380304 25624466 86476917 39956086 84486203
872.64 51547635 84894345 74662700 112625559 65169026 90860836
875.53 61838341 86735288 63302186 85313132 64823410 84746286
878.42 66322769 83289420 66407430 82104871 66523902 80818351
881.32 65771122 78707703 64349862 75980711 62236897 72604352
884.21 59286814 69358039 55225715 64558810 53919265 61268183
887.10 46669293 67318189 56633274 47863726 38099121 42253219
890.00 32862608 37769793 28323505 33001446 24043041 28853290
892.89 20071301 25249192 16790380 21523011 14569101 20131023
895.78 11430614 16156062 9061633 14107783 7466329 12358341
898.67 6144341 11047345 5119666 10172162 4690869 9417731
901.57 3930864 8897363 3684817 8469328 3452279 8245606
904.46 3291881 7912403 3283834 7740459 3028434 7327482
907.35 2767162 6838438 2288887 6091792 1635820 5420323
910.24 667522 4293827-100964 3627286-239854 3926555
913.14 266184 4311495 903304 4800412 1537941 5349402
916.03 1879007 5629725 2194739 5660813 2213379 5650862
918.92 2131032 5444476 1983566 5176721 1763862 4949957
921.82 1508415 4680484 1363840 4339588 1187072 4053709
924.71 822200 3866134 752564 3588849 511334 3346156
927.60 318090 3135466 189457 2891456 172434 2898371
930.49-34971 3052461 706701 3126588 1171885 7156715
933.39 2151699 2432525 50603 2274271-217638 2527678
936.28 660760 2374062-265079 2099476-347150 2073485
939.17-215462 1957387-328410 1906928-462681 1910435
942.06-428572 1816401-363494 1734852-372291 1718006
944.96-164738 1972573-514468 1889148-451769 1609491
947.85-492185 1589868-476057 1660496-499448 1607511
950.74-481503 1570910-526860 1466138-496242 1471033
953.64-519002 1452519-513538 1387624-546545 1253849
956.53-611729 1330465-579899 1303499-574639 1299633
959.42-644739 1272483-560049 1248252-600668 1221948
962.31-592206 1179268-565131 1238190-589425 1237557
965.21-543934 1223726-470541 1175611-566916 1077932
968.10-547648 1139232-568705 1076564-516522 1166359
970.99-475852 1465174-318110 1070273-577834 1096917
973.88-649475 928461-640388 998370-574971 1079367
976.78-243168 1088130-499490 1102789-415553 1079391
979.67-466850 1068051-433844 1040497-513538 1036052
982.56-513464 915878-416691 1055379-550807 895553
985.46-578098 902592-607696 899967-553355 811220
988.35-658788 846253-657512 790405-654223 838776
991.24-561979 847203-699458 716040-634473 766886
994.13-585749 739319-599647 817312-600537 842406
997.03-569806 800387-601854 867505-622088 865813
999.92-561580 834011-424120 962684-359174 945556
1002.81-383562 1100377-186484 1122721-364853 1024853
1005.70-254093 1131065-168617 1192679-109131 1177239
1008.60-173504 1297265-44606 1251024-52693 1254015
1011.49-90707 1214023-14139 1182802-141909 1060878
1014.38-83349 1234298-53360 1103483 61073 1740575
1017.28 345838 1027823 67480 1389996-192737 948909
1020.17-214514 1024058-196723 1018465-112324 1193898
1023.06-27882 1251161-52691 1168868-36606 1235387
1025.95-51806 1235040-18798 1117078-126226 1085847
1028.85-161964 1066380-272546 1023634-343841 953413
1031.74-411214 824185-467494 755645-410696 742286
1034.63-490287 734928-467687 717893-501587 742174
1037.52-563521 760905-470395 697725-554090 756696
1040.42-456902 809301-421133 810979-432092 819688
1043.31-402918 882721-276957 1024752-197065 1048917
1046.20-187204 1233238-113973 1255161 9619 1407344
1049.10 162381 1677407 643975 1967012 681965 2284358
1051.99 1244386 2621304 1278697 2878247 1709424 3283594
1054.88 2254812 4002827 2939819 4711913 3804853 5761717
1057.77 4765815 6943890 6058998 8448333 7831210 10304804
1060.67 9638280 12384145 12129029 15357567 15361831 19076540
1063.56 19293158 23323576 24281692 27553952 28884877 33767428
1066.45 35480663 41350725 42130162 48582929 51515635 56142584
1069.34 57796383 65003439 68515673 74764535 77050372 86148297
1072.24 85270580 90602343 91923471 99445066 102887414 116624404
1075.13 121767758 116951479 112841020 115088676 116614124 128458729
1078.02 162463883 175714397 137472625 143390972 117668564 143979812
1080.92 145943157 211357407 251637817 257533265 162783790 151976365
1083.81 152175823 178960651 191470366 368115168 417845859 181282127
1086.70 222823896 201464569 229716692 222357392 235747037 220046803
1089.59 230779844 227649053 231788056 202293858 206436286 195296321
1092.49 197803349 216211839 206231594 217883718 364594052 217315365
1095.38 184232671 149288707 278965143 335511292 151492937 149578931
1098.27 103860061 114118822 108781883 125730262 127097264 140934950
1101.16 143691463 155114085 156589650 163676113 162218732 164797173
1104.06 160058158 158158292 150039334 144522669 134061055 125959712
1106.95 113859907 104716252 92562896 83397937 71776067 63365345
1109.84 53212304 46380148 37958230 32796005 26420672 22622225
1112.74 17825305 15637909 12280827 10971277 8495198 8122855
1115.63 6342905 6449335 5339333 5934580 4985612 5844497
1118.52 5182159 6200023 5685433 6657747 6684765 8058002
1121.41 8167067 8913521 8687009 10195759 10813823 12994917
1124.31 13890293 15548315 16209166 18374795 19833475 25023781
1127.20 31462767 29358458 27864399 29814160 31042900 33696854
1130.09 34134980 35068530 34735466 35638836 34700738 34255831
1132.98 32654723 31551686 29172067 27403067 24945738 24670978
1135.88 24739636 24513738 22034738 30058895 49889810 86338141
1138.77 88055107 27248883 13006638 22632442 23836527 16224247
1141.66 15120767 19654259 19972217 23179604 25412958 28507316
1144.56 30394083 33007064 33933144 35554792 35459514 36025861
1147.45 34985761 34658203 32786549 31680986 29293611 27838337
1150.34 25177121 23389555 20742950 19060287 16567046 15117340
1153.23 12785097 11468550 9476314 8650263 7015663 6315299
1156.13 4901222 4674943 3445185 3360956 2484431 2500279
1159.02 1746705 2019201 1210042 1568254 917945 1303186
1161.91 658183 1028611 519883 892281 388287 771412
1164.80 253899 731415 149524 638535 89879 674275
1167.70 212796 1595604 1237754 807883 287588 480739
1170.59 174971 594207 203582 576138 334100 607743
1173.48 283093 712422 319937 629705 287113 639500
1176.38 323813 669379 282790 590396 181661 551460
1179.27 96867 507475 87536 449728-1123 434210
1182.16 76227 467730-12691 356812-5846 295550
1185.05-154962 270397-53031 257902-89265 358374
1187.95-168728 265116-123335 275870-133947 245559
1190.84-157274 262009-111086 288859-165516 246554
1193.73-126668 199955-124033 195957-159079 265268
1196.62-134110 240210-136306 302124-111407 271607
1199.52-123594 280986-149516 263773-228096 167286
1202.41-141178 232644-100762 267544-104748 297231
1205.30-100650 286751-139301 216526-163579 231518
1208.20-131963 168479-197252 194323-170907 137564
1211.09-186128 115843-202359 72053-228417 147143
1213.98-207745 200506-214435 128461-235798 134632
1216.87-231213 50766-180093 109063-252067 166818
1219.77-210716 151215-173332 123924-215840 132258
1222.66-241210 105924-222597 133648-210311 154779
1225.55-159014 122208-240620 218869-189381 141543
1228.44-208795 95769-156063 76149-116565 195714
1231.34-107954 190622-94288 154812-132498 212650
1234.23-143290 261102-85563 198645-88997 324491
1237.12-90407 264594 4160 275451 5545 288025
1240.02-2749 314367 12859 299528 23443 322650
1242.91 1105 382764-7501 271153-23813 366161
1245.80 96754 354333-2432 320148-33297 331178
1248.69 36506 389181 54901 363906 212110 547818
1251.59 105767 283983-84085 271104-76294 385775
1254.48 44164 308766 39737 379252 33314 384634
1257.37 79483 358532 30080 390207 4383 337258
1260.26 29972 334288-26235 229579-6419 205397
1263.16-56822 194455-79759 120020-213122 122259
1266.05-113935 190567-218397 179556-167919 106338
1268.94-234625 92908-187082 125651-188046 144640
1271.84-238301 155785-189138 87011-237906 132162
1274.73-201117 180699-192174 169613-194227 95987
1277.62-187454 124460-178533 151358-176420 117481
1280.51-143318 222184-116481 172751-156699 191351
1283.41-162763 188638-52814 228361-59694 243497
1286.30-99254 207400-44186 262288 72430 293623
1289.19 75008 370322 136865 410037 176890 471242
1292.08 249221 539394 234675 573852 371413 692930
1294.98 431006 747696 559562 877763 622861 912921
1297.87 660371 1043976 799345 1201977 867330 1300900
1300.76 1098701 1473078 1214388 1579173 1431929 1766140
1303.66 1662339 1983605 1882454 2185072 2125638 2479210
1306.55 2311254 2745382 2608958 3015799 2849598 3255453
1309.44 3017889 3303732 3089359 3497364 3244386 3505221
1312.33 3155754 3481854 3020682 3150520 2670879 2689357
1315.23 2185761 2028078 1476447 1411533 1008450 1287690
1318.12 1111190 1609857 1740396 2263834 2373377 2926633
1321.01 2964270 3242157 3183650 3536622 3278399 3495393
1323.90 3183137 3407475 3109918 3276213 2897745 3034629
1326.80 2650300 2802071 2406934 2586005 2208948 2341122
1329.69 1996239 2071463 1778710 1977039 1641359 1838500
1332.58 1470696 1673363 1450382 1534678 1171934 1449196
1335.48 1146551 1290877 982786 1328412 915229 1238106
1338.37 826718 1033905 764767 1003607 687634 892264
1341.26 569082 718833 386524 627912 311570 512928
1344.15 233793 497791 233991 645406 388431 796016
1347.05 329625 790377 681003 758263 726595 927987
1349.94 578694 798075 522786 643864 306382 732497
1352.83 524632 590747 472914 839570 749475 850975
1355.72 552323 778562 518816 841417 514778 705311
1358.62 470199 780111 410445 718832 435281 734535
1361.51 473495 675127 436087 780840 650550 869606
1364.40 590536 873730 704385 1033998 789817 1214445
1367.29 890646 1170997 1067362 1362497 1116280 1408539
1370.19 1266517 1628167 1477695 1792182 1735518 2056070
1373.08 1969109 2209357 1950053 2291343 2268459 2600777
1375.97 2657767 3132178 3243474 3305142 3212927 3677626
1378.87 3399675 3915635 3893809 4388849 4468402 4990220
1381.76 4640512 4775812 4668083 5016506 5067854 5464404
1384.65 5722637 6227067 6318699 6519396 5955604 5618147
1387.54 5175114 5516128 5801670 6045700 5836345 7052228
1390.44 7293095 5483645 6248722 7786613 9221686 6635788
1393.33 4673734 5534381 5459652 5476615 6100936 8039007
1396.22 5203482 5563224 6918498 8633528 11198069 7238285
1399.11 4676263 5322966 4748064 5422789 5256495 6033885
1402.01 5383233 5361684 5047984 5441650 4940706 5167418
1404.90 4782580 4884010 4389873 4456428 3894170 3781389
1407.79 3258250 3220583 2596351 2558501 1889048 1811469
1410.69 1201435 1205372 748627 737176 355290 455988
1413.58 129191 325466-46692 225908 3717 203434
1416.47-123745 93699-95177 145306-110801 32506
1419.36-160112 47840-105636 105614-148322 70312
1422.26-137505 171413-174632 47786-122236 73633
1425.15-114766 145498-79524 149525-135755 33335
1428.04-126988 114320-116027 95558-78899 102893
1430.93-121182 71117-105600 96502-168364 97548
1433.83-92007 109087-124386 161454-144696 61893
1436.72-95982 112718-163309 103192-131977 79392
1439.61-130720 78865-115263 94487-103717 105915
1442.51-107419 114704-109926 97503-187570 1895
1445.40-139703 84545-127116 116841-127895 60643
1448.29-115910 81615-104784 134510-60438 124125
1451.18-99092 67566-95094 120921-88571 104054
1454.08-81921 122147-52651 185410-169214-8813
1456.97-94239 111622-159009 165992-109451 147132
1459.86-100910 179489-14247 162194-86329 168922
1462.75-46090 122301-43528 70853-39558 149553
1465.65-43925 172011-24206 84864-26333 127825
1468.54-8155 90888-69105 188167-75129 127670
1471.43-67180 151448 24120 184069 18833 247863
1474.33 25063 220887 58825 168780-70273 143341
1477.22-52270 203532-67027 138942-78196 113737
1480.11-64609 142250-28438 163701-57697 169681
1483.00-39777 158226 5276 126239-73018 111079
1485.90-107727 134751-100583 161294-83381 140767
1488.79-111404 122535-96254 116218-76849 124979
1491.68-143486 125730-27723 184053-44038 120088
1494.57-67610 165348-127320 53726 23991 113273
1497.47-31769 141663-72721 143123-63658 148450
1500.36-42992 176220 20056 149817-10916 164918
1503.25 4040 175276-39068 117572-79529 184812
1506.15-39893 116048-21328 200007-33115 183574
1509.04 53825 224428 50229 251406 24743 251217
1511.93 56614 286878 94589 261165 127131 282831
1514.82 149098 402181 215571 384220 213155 412082
1517.72 287004 512043 273260 604176 414292 598290
1520.61 357904 606329 603409 659794 632428 840177
1523.50 779136 992380 843612 1086862 1021456 1294522
1526.39 1165095 1526528 1569694 1833736 1702684 2021827
1529.29 1973920 2374820 2271088 2664393 2691517 3094485
1532.18 3046892 3479120 3588207 3954628 3955262 4223191
1535.07 4237753 4530976 4555262 4823981 4862282 5174248
1537.97 5282755 5325994 5515897 6000074 6113477 6831520
1540.86 7499299 8516798 9779755 10657064 8097008 7888238
1543.75 8119050 8746996 9192425 9966538 10585332 11540678
1546.64 12057387 13077608 13803806 14751595 15494296 16485059
1549.54 17281470 18210278 19041799 20026938 20741401 21722506
1552.43 22529088 23459751 24139024 25026486 25880902 26805160
1555.32 27641735 28638046 29374786 30466523 31231673 32173291
1558.21 32782659 34084686 34610158 35605931 36196926 37269945
1561.11 37686776 38409798 38439892 38794138 38612849 38736976
1564.00 38042484 37737122 36930171 36785307 35658374 34863671
1566.89 34177105 33584468 32841455 32386401 31133622 30656742
1569.79 30692980 30641929 31562882 33186693 32849055 34190261
1572.68 36307101 38121282 41281989 44547481 44523028 46893193
1575.57 47911854 47231500 45647749 44619620 42787230 41510818
1578.46 39445589 38003906 36015397 34577212 32658401 31240296
1581.36 29437284 28103683 26348685 25215136 23652972 22610827
1584.25 21213546 20410333 19247324 18632153 17882274 17654714
1587.14 17157943 17325976 17216109 17631673 17652796 18029019
1590.03 18034369 18472965 18465524 18906758 18912023 19379683
1592.93 19585760 20254122 20566899 21530151 22113408 23241452
1595.82 24182874 25713052 26848607 28514287 29731802 31601178
1598.71 32985677 34951495 36414242 38815755 40526317 43126695
1601.61 45030377 48210105 50536078 53785305 56682003 60371345
1604.50 63624544 67881642 71415281 75883360 79982397 84820907
1607.39 89163724 94189026 98708795 103734309 108360340 113615217
1610.28 118084974 122930369 127314668 131820667 135629552 139510562
1613.18 142450370 145202842 146986610 148525992 148782133 148705502
1616.07 146678073 144816572 141850086 137418160 131831413 125800554
1618.96 118921418 111331781 104142444 96760661 89633675 84186737
1621.85 80724297 80795538 82858216 90906592 104632540 121285037
1624.75 139017342 155616872 170075827 178647378 184506518 186858719
1627.64 185270396 181097762 175584590 169787216 162913043 156029780
1630.53 148335186 140943707 132845432 125191568 117111297 109556472
1633.43 101845579 94760809 87747100 81539902 75495493 70646190
1636.32 65406810 61189672 56687799 53093021 49465403 46334855
1639.21 43162454 40461949 37747568 35414050 32916288 30893715
1642.10 28566914 26628113 24545142 22824540 20842160 19188838
1645.00 17358440 15916331 14306620 13032921 11475907 10531489
1647.89 9177533 8302295 7217494 6603464 5579612 5082298
1650.78 4270011 3903971 3111362 2893820 2306200 2264853
1653.67 1873993 1681398 1451482 1334046 1075222 1073046
1656.57 829076 823765 600343 671440 550059 553523
1659.46 370078 484991 298115 442928 226476 332873
1662.35 236034 369401 165234 325665 162713 303003
1665.25 118096 273092 108954 260752 85454 197284
1668.14 121326 211059 80756 243779 102083 267850
1671.03 118349 315966 122967 284363 115197 293563
1673.92 166263 304370 145603 348565 195930 380443
1676.82 162071 400034 276237 387445 305648 428490
1679.71 330711 447163 336793 466323 300824 453839
1682.60 297277 450159 305375 312075 125209 429738
1685.49 226660 442136 229577 453398 295920 618937
1688.39 564990 539189 338149 511222 433857 549159
1691.28 349561 501607 311807 555330 376673 677213
1694.17 572897 577564 245152 370261 299620 439292
1697.07 262651 425065 252446 463683 279143 423364
1699.96 446594 321821 349088 386018 265608 324041
1702.85 171343 384441 209170 298888 211587 264315
1705.74 186535 311128 152605 284379 170395 287953
1708.64 235153 304813 188967 357130 213324 368209
1711.53 182518 306795 236083 402427 272007 423072
1714.42 251887 465511 370271 507082 448179 467546
1717.31 485756 669451 519043 721383 673791 850489
1720.21 745270 1006454 880394 1038325 946146 1134572
1723.10 1048125 1256032 1204113 1385932 1259289 1481838
1725.99 1369854 1574702 1495074 1811923 1742247 2038369
1728.89 2064909 2307033 2380587 2705227 2783378 3162087
1731.78 3166399 3552839 3502631 3869699 3984297 4144418
1734.67 4284001 4577735 4558458 4742878 4701034 4841240
1737.56 4678360 4786207 4605768 4391793 3999489 3735190
1740.46 3084395 2701541 2003957 1714600 1377926 1454763
1743.35 1517620 2121104 2452050 3149735 3550992 4246293
1746.24 4486324 4957175 5083922 5313377 5240279 5355623
1749.13 5131652 5176630 4885175 4697175 4406315 4459579
1752.03 4081463 4005934 3625015 3656320 3411974 3417687
1754.92 3123969 3174200 2867406 2898797 2652903 2679108
1757.81 2466859 2528774 2261627 2291685 2038665 1973298
1760.71 1837827 2090054 1724466 1407819 1293703 1283918
1763.60 1103279 1188098 936145 1020479 889286 972885
1766.49 729845 841369 648041 732838 591942 669714
1769.38 489634 633481 390179 500297 338566 527344
1772.28 300420 664553 734136 500748 488889 566117
1775.17 651841 529983 216416 234460 144525 197205
1778.06 135241 224654 104541 216020 81486 215209
1780.95 138389 218097 99502 204374 138030 173636
1783.85 111821 135822 69884 211661 120783 210286
1786.74 96457 218217 132404 271931 136569 221306
1789.63 158991 233726 126110 215032 129691 182455
1792.53 95288 184593 71869 204197 123027 196865
1795.42 97095 162706 73630 138431 33269 113454
1798.31 2938 81616-57774 99061 39761 207690
1801.20 2122 203813 62697 220795 39804 194700
1804.10 114039 189443 92992 175455 66029 126234
1806.99 142207 479150 538607 254584-14629 99097
1809.88-43481 82415-52296 79713-37443 114473
1812.77 39683 148346 22816 107858-32310 90038
1815.67-2778 87322-48110 96237-40688 100720
1818.56-76516 72718-35346 72708-72378 59194
1821.45-69326 46628-32001 38864-53726 92124
1824.35-67506 28254-70227 61771-67450 27837
1827.24-59633 40627-79630 60592-86212 3364
1830.13-42256 102868-85650 6832-35010 41150
1833.02-53041 46823-66488 77985-26699 38260
1835.92-48879 33388-55573 105150-11259 78390
1838.81-30633 83136-38941 121734-30824 104881
1841.70 30095 143857 24243 127060-30814 157170
1844.59 24570 155804 55618 112506 87538 172575
1847.49 88494 184443 74958 226718 120384 198335
1850.38 107669 203258 126630 272699 103164 243785
1853.27 96900 262823 197120 302993 186527 280619
1856.17 194904 290035 181462 295220 157540 292897
1859.06 217225 348869 243065 346858 264231 403106
1861.95 297372 436469 284578 428401 357162 436497
1864.84 370907 527449 398065 506191 460531 648537
1867.74 472849 613652 514821 572454 519614 658240
1870.63 460673 665121 541900 656846 534796 657010
1873.52 543411 663973 564551 636189 552051 672118
1876.41 512489 673491 592533 698471 595174 640360
1879.31 587778 635726 521357 562810 392196 494092
1882.20 363737 426567 278081 424604 357109 470704
1885.09 410182 546884 532710 646991 595693 672847
1887.99 624728 721117 633945 706346 563770 668601
1890.88 536351 616069 438272 581504 436002 533044
1893.77 415995 436002 325557 428054 258301 355909
1896.66 286163 398356 197728 277037 156069 282781
1899.56 148785 234510 129059 254237 154902 277039
1902.45 118576 192506 121700 244328 121646 243988
1905.34 103358 175214 107905 197959 70449 213621
1908.23 145533 234901 108356 198414 121385 233453
1911.13 106390 232227 89434 199616 117736 183704
1914.02 80465 153175 68166 159680 92583 191552
1916.91 92114 191922 159750 242730 148134 236404
1919.81 164672 289553 151470 266194 178017 314291
1922.70 209023 291832 195181 354657 220187 307817
1925.59 222736 317043 187598 282781 180315 320622
1928.48 217928 300584 206357 256493 148826 268346
1931.38 175680 286112 139798 192346 153862 207375
1934.27 145799 213253 210384 224827 162102 239437
1937.16 131207 207603 79360 171076 79599 199749
1940.05 72857 209094 119945 231311 76097 118045
1942.95 29839 163603 26523 120620 58959 120273
1945.84 25518 140663 20908 104658 21064 71322
1948.73-3518 96072 9271 81227 12454 98325
1951.63-28150 41364-8397 60500-78220 6046
1954.52-59156 59180-76715-11323-72597-16623
1957.41-46250 6590-120314 2945-86811-11576
1960.30-90610 15716-79004 55222-79959-24022
1963.20-84723 27560-67411 15740-55753 30268
1966.09-104874-12012-107597 22906-60177 40893
1968.98-69599 18972-67595 20582-114825 37122
1971.87-3913 47895-62671 61588 4835 80131
1974.77-41619 52929 29951 102639 43756 125417
1977.66 66538 123321 61942 92439 73384 179811
1980.55 85239 198390 86705 215813 113193 199593
1983.45 131490 217130 114368 173529 82778 182347
1986.34 104997 208593 129951 203911 92293 187090
1989.23 161122 137832 105257 252166 155269 213964
1992.12 152931 119504 7178 107138 74148 105136
1995.02 47604 149182 10698 170337 109545 258417
1997.91 95303 212532 111706 229958 63786 126108
2000.80 39358 119266 7780 97829 229 62928
2003.69-8698 105877 37299 74256-11534 118450
2006.59-80427-18762-45855 25155-79049 33273
2009.48-81349 24649-58388-12206-76454-849
2012.37-58834 3871-86212-45120-74042-34642
2015.27-59859-28217-44121-22158-70193-46264
2018.16-54661-53759-27943 55327-49759 34870
2021.05-97617 7555-73921-5724-78981-10349
2023.94-75586 16201-105418 39394-88936 4271
2026.84-96995-5458-81700-2524-106407 8604
2029.73-87800 14390-46593-16545-64498 19752
2032.62-76224-17390-54190-16979-79509-19113
2035.51-67073 19514-42187 28639-51895 16023
2038.41-38045 19014-56765 16080-86183-1714
2041.30-79497-49836-102400-23932-79084 30382
2044.19-77672 17370-90350 8477-82445 43824
2047.09-53816 14471-63056 22958-66586-14868
2049.98-38465 6830-44959 5440-85253 101450
2052.87-58941 6829-82718 2424-32468 12847
2055.76-51263 13406-68272-7464-42509 11506
2058.66-65646-3875-50711 7979-54968 11285
2061.55-20567 11723-44650 32496-60772-4074
2064.44-40854 5443-71824 43645-86378 20230
2067.33-64687 35936-5981 64748 9549 67114
2070.23-24347 51580-27761 38940 12935 117293
2073.12 32849 121555 77359 114322 56462 99877
2076.01-60465 16837-74713 25104-68553 53078
2078.91-86982 33838-18837 65499-81239 40973
2081.80-96277 11492-45075 27113-97351 9457
2084.69-26242 10005-62301 62639-94782 56664
2087.58-83681 50794-33030 13607-111126 79183
2090.48-53832-15736-84859 13338-36942-13279
2093.37-44198 24995 4200-10989-59489 13613
2096.26-77610 16382-59191-54208-70228 55913
2099.15-75089-50886-107685 40322-122710 13830
2102.05-68293 18779-58369-47624-67981 5755
2104.94-116959-21352-41278-27587-11902-15067
2107.83-141017-68004-72610 36168-95977-21791
2110.73-41580 61762-122558-46382-94836 18166
2113.62-117437-16713-79003 45162-65898-35000
2116.51-56904-23131-56900-10127-137200-5452
2119.40-57217 10058-63814-23925-91046-67272
2122.30-79778-59335-70563-56842-96516-63246
2125.19-83289-71444-98437-31355-97914-25218
2128.08-90945-50210-106001-89713-110552-81926
2130.97-120606-43226-78840-115234-129621-75425
2133.87-156069-134581-123303-73849-165355-92869
2136.76-184017-94857-135430-71219-181185-96597
2139.65-163796-121579-155616-115586-161802-109554
2142.55-178686-112680-170167-149801-148047-114343
2145.44-209341-129394-162562-81760-264406-187581
2148.33-208401-160093-152402-104270-207382-130649
2151.22-205321-112257-186541-128115-172602-135380
2154.12-167785-128086-221149-144825-259821-177949
2157.01-213954-124144-131806-148297-204262-106146
2159.90-187437-157530-206610-106553-243056-203089
2162.79-198840-189569-252649-160532-216840-127888
2165.69-170707-112730-181974-116152-165467-116918
2168.58-178162-96933-217414-154313-271562-199346
2171.47-264732-117946-144085-70079-180705-115448
2174.37-198271-126339-217209-104707-175309-62910
2177.26-104792-125518-169743-140136-164062-102854
2180.15-209794-137049-188940-91754-181956-113680
2183.04-153185-156363-134878-133013-213309-158774
2185.94-122093-93481-179229-100548-184270-154711
2188.83-219652-98146-159899-69209-121080-107567
2191.72-117975-108879-162203-162213-215564-90741
2194.61-136565 2521-93506 27228-106858-28756
2197.51-70138-46430-79467-10318-20117 28284
2200.40-44840-3139-75939 9774-45172-3849
2203.29 16693 37426-14155 46757-38599 114838
2206.19 32820 123008 29715 131790 155022 525004
2209.08 307990 211426 147046 148459 168491 179839
2211.97 210039 213314 191938 271906 179712 243847
2214.86 200737 315315 242961 315140 240338 325337
2217.76 278559 373404 260446 395622 291774 319812
2220.65 261123 289651 223675 381821 278480 422842
2223.54 320549 451425 353054 371793 384255 368373
2226.43 275500 381686 395980 446408 462558 500010
2229.33 468539 472731 400521 435349 421554 365568
2232.22 278059 332626 255091 312053 259353 276982
2235.11 176666 210356 177032 163588 106129 172179
2238.01 122221 101503 65409 105711 26353 66438
2240.90 60606 104729-28964 115495-38332 9138
2243.79-26960 13101-57815 58907-46236 36744
2246.68-44387 10097-69384-48450-102491-69765
2249.58-46712 12148-136488 5930-78642-30590
2252.47-125185-66616-138502-77149-146196-90379
2255.36-123412-85532-112294-54479-121312-75693
2258.25-128371-106798-139087-96055-110941-112853
2261.15-146774-66577-156891-80576-110647-85356
2264.04-128236-83890-156071-67973-135238-98022
2266.93-175862-62057-106785-118971-107772-105448
2269.83-136507-94040-115359-132374-88697-84509
2272.72-96164-87459-83592-56081-148642-130801
2275.61-197708-186016-256602-199301-231149-123013
2278.50-75439 25676-68064-52022-85550-64837
2281.40-170330-106681-44355-54956-92881-81654
2284.29-155304-108184-148396-82319-113936-50924
2287.18-135939-70455-174256-67282-160814-113823
2290.07-184361-123486-132398-74598-129474-128686
2292.97-147262-78303-195303-97123-136512-115445
2295.86-170614-99325-119626-104831-146944-64654
2298.75-164631-40801-86195-80299-104254-104547
2301.65-135017-93946-132536-56411-147248-24931
2304.54-100054-53290-123263-34243-129127-82593
2307.43-116999-55240-61832-30751-78466 10910
2310.32-95301-27350-89398-3860-71476 2711
2313.22-91469-8163 20438-70377-61616-17333
2316.11-34033-72633-70116-13878-15035 1097
2319.00-12482 26082-1356-19418-13174 53180
2321.89-59661 30613-18583 36508 26502-19586
2324.79-35451 123477 26817 53537-18360 118943
2327.68 24758 19762 28216 149399 45291 78657
2330.57-2463 137289 45488 71624 84810 156660
2333.47 48293 128625 91673 125471 62763 144997
2336.36 158910 69042 12478 169670 109069 96790
2339.25 137696 191714 25300 87982 56095 107847
2342.14 14020 94472 125917 175186 117018 173056
2345.04 32828 99138 72720 144056 55611 122102
2347.93 41171 127127 91067 85785 56139 172934
2350.82 126700 101202 82862 109633 28572 117974
2353.71 26211 44835-14265 19972-107985 17237
2356.61-93183-81883-35437-57472-100632-52759
2359.50-164780-77688-98576-125520-84265-12009
2362.39-146700 5687-117234-98623-31583-116365
2365.29-56328-17017-185058-5415-90695-82949
2368.18-62578-65171-35342-50851-116549 5120
2371.07-95023-9605-70532 15964-82762-75327
2373.96-115753-37440-111239-83807-4877-30793
2376.86-34508-41833-20204 61290-95103-515
2379.75-80883-43930-95123-12511-52102 58054
2382.64-13385 5926-19029 21538-19246-12339
2385.53-26446-7721 23017 2578-7482-378
2388.43-8786 41985-13210 45974 57522 69515
2391.32 10778 90899 67247 95823 14118 73321
2394.21-7125 37956 61268 85727 58588 28404
2397.11 110655 119105 73788 127221 64350 145125
2400.00 129678 99118 43808 179010 99301 137109
2402.89 148007 216837 124412 220542 159038 204335
2405.78 253256 305479 235664 250094 286464 339110
2408.68 348291 368100 296689 407376 371433 427918
2411.57 400764 535272 480038 528185 522208 555882
2414.46 538174 593674 568110 635324 616405 747064
2417.35 647618 746413 651238 719605 710637 747541
2420.25 740216 809703 750897 831516 726394 899965
2423.14 801138 785662 632094 677302 690135 786284
2426.03 776897 895240 827886 792810 660916 785421
2428.93 808294 892991 876271 806429 553700 607350
2431.82 585038 687226 663627 728194 784164 808009
2434.71 773488 800554 740233 798667 757261 690884
2437.60 690650 654355 542371 525124 375918 371778
2440.50 282556 272906 205321 223288 132389 145414
2443.39 77853 76476 43891 98976 8969 22646
2446.28-15588 40663-29951 34911-30651 116994
2449.17-56373 49897 964 73054 16007-20785
2452.07-33046 67377 26564 12878 76736 16391
2454.96-21458-418-38124 8924-37135 418638
2457.85 129666 34903-2300-9111-62155-2494
2460.75 4739-4123 14571 51905-6297 46420
2463.64 7563 46756-42215-10606-41077-28516
2466.53-51673 2949 18235 8963 39629-97
2469.42-9449 18343 28149 46277-21399 40932
2472.32-118402-1708-36456 45680 17506 17409
2475.21-74553-27834-31466-9046-54183 7698
2478.10-26945-53-33775-23473-55845-13901
2480.99-29672 15782-41040-1461 25493-3871
2483.89-28207-48834-25775-1023-54827-19984
2486.78-95632-9848-77783-15277-30498-12952
2489.67-65710-4135-44607 3231-37937 10273
2492.57-53773-81572-39307-40474-63777-35419
2495.46-102225-32387-43799-5768-64892 22434
2498.35-53242-113741-90228-19282-33698-9745
2501.24-103980-16233-46561-38510-57675-44347
2504.14-92793-22261-116832-11123-60789 8317
2507.03-148915-197-65622-29980-55098-13642
2509.92-73411 19324-16093-61451-60357-48470
2512.81-39483 11194-84204 6595-71238-50506
2515.71-105135-11759-45505-30408-44373-53341
2518.60-23142-9960-48875-13053-42410 385
2521.49-67230-3851-20079-25973-42390-48499
2524.39 10654-47882-63604-9684-48563-22678
2527.28-87929-9513-76051 16638-21052 15196
2530.17-25668 10438-58889 1828-49313-21146
2533.06 4971 12343-40001-72632-126194 19050
2535.96 21364-55445-125911-1408-103393-48837
2538.85-82438-35929-111444-101335-74782 13397
2541.74-88756-23660-25130-71299-114173-11680
2544.63-77741-125480-113205-40345-29040-49284
2547.53-21002-51678-82209-88143-56054-85335
2550.42-50590-33618-88854-92066-85748-74170
2553.31-79980-95420-120611-56208-72858-89819
2556.21-49763-88634-83898-102988-103180-47304
2559.10-49237-101282-118352-79234-117770-51175
2561.99-42098-60662-114254-74672-20990-37806
2564.88-114866-120359-106208-106240-125938-60817
2567.78-118876-92757-140967-70442-30739 26961
2570.67-113015-76511-80173-68176-68800-118192
2573.56-52665-101232-107490-30579-99829-79480
2576.45-29939-45493-75876-60331-55680-68201
2579.35-108083-49205-47393-32473-40840-1692
2582.24-73376-32176-53292-20103-92698-33689
2585.13-63380-137927-66359-82070-89951-77083
2588.03-84592-30986-139571-33701-13390-78732
2590.92-6654-24611-93575-48661-35802-83655
2593.81-79511-29506-85903-54333-102651-48495
2596.70-41035-35612-42195 17574-22721-20339
2599.60-65279 16947-53643-37228 23087-34183
2602.49-110471-48504-9856-60504-37917-34937
2605.38 33033-40184-55800 10141 1778-27566
2608.27-42875 26778-810 16664-24599 20158
2611.17 21691 9368 33049 33321 80035 14072
2614.06 11725 26805 38773 18910 79994 124778
2616.95 34648 84198 27810 25480 41906 69688
2619.85 31347 21715 81616-18796-16063-11689
2622.74 20327 21577 21938 41549 21253 80907
2625.63 36278 68306 53320 103242 50037 50383
2628.52 66118 79352 74296 57419 13296 94338
2631.42 32819 123704 67500 106189 120367 96443
2634.31 135279 77160 38376 67370 38216 79122
2637.20 94582 39709 113166 83941 112078 80774
2640.09 13083 71389 62492 146034 91821 121574
2642.99 143377 32634 71459 107597 121872 93831
2645.88 62923 89645 105300 108740 126559 73383
2648.77 93065 123651 24422 28404 90292 170473
2651.67 73061 77314 122945 147021 89830 33636
2654.56 39955 95879 113009 97393 188721 178830
2657.45 54925 54767 24132 48642 64587 138786
2660.34 88673 160477 135397 159816 88937 139666
2663.24 128742 155540 62458 103704 89311 71839
2666.13 83276 40649 21619 40583 22959 70746
2669.02 35329 191-4800 44824-21557 5292
2671.91 14283-1477 27274-19322 5836-15480
2674.81 58097-32967 26738 22022-28173-55586
2677.70-38549 43162 11930 65750-889 83806
2680.59 17369 64061 13689 57865 113676-1976
2683.49 29024 52856-42553 80338 21745 39377
2686.38 61016 86898 79959 79375 85055 79839
2689.27 77889 90133 124382 117605 202574 138062
2692.16 155077 174822 112000 200421 147872 151447
2695.06 113367 213336 189901 145958 146261 130536
2697.95 122818 134855 210839 234715 111679 189996
2700.84 233383 199040 140546 250000 144081 142802
2703.73 115827 84348 76030 95960 162849 187378
2706.63 202797 179386 221656 193603 296788 241581
2709.52 281632 267408 220020 260985 173465 215071
2712.41 183379 181567 131915 156635 100786 99687
2715.31 104705 88528-5814 92362 62375 58069
2718.20 67323 61484-4066 19744 21232 54011
2721.09-42635-7386-119681 94292 37188-6892
2723.98 19024 2794 32897-42470 43842-42974
2726.88-2351 14260 17242 26697 28804-12696
2729.77-8299-11946-39820-33695 7943-23699
2732.66-15347-32436-25118-40444-18481-74008
2735.55-93337-58628-64529-59984-38451 33602
2738.45-29503-3132 11108 70803-23495 61101
2741.34 39093 49281-56224 22592 13228-39250
2744.23 38877-70774 12592 74064-43374 39625
2747.13 29729-20832-9798 40018 3843 21635
2750.02-31702-78259 3955 9104 3180 22786
2752.91 39569-39619-50210-97120 4112 297
2755.80-44114-32647-56953-136968-49750-14570
2758.70-39794 64382-14234 24004 26952-13328
2761.59-53797 45047 29341-43068-52510-61915
2764.48-66614-55197-82871-77716-44991-29806
2767.37-66483-56210-76894-13511-119930-143410
2770.27-88955 13138-18573-117127-103697-106286
2773.16-101197-51865-119884 4005-90956-100925
2776.05-29411-96258-66904-117702-68144-61934
2778.95-76771-12540-88080-11205-21929-62027
2781.84-77333-46213-66699-54782-86856-107893
2784.73-57622-74775-78172-90458-88727-140599
2787.62-47339-19132-17931 5719-77996-52372
2790.52-63928-35145-92361-72090-17300-78311
2793.41-52298-108922-97397-148618-54676-96516
2796.30-109327-158196-48548-53027-25387-36691
2799.19-82011-60762-141177-53604-74809-97551
2802.09-139654-61774-129290-36950-147277-53185
2804.98-65392-86323-20788-53994-139342-83130
2807.87-38170-76883-155719-44453-62387-35679
2810.77-18130-71519-64531-48191-52903-65142
2813.66-59482-90432-56031-56573-39094-68372
2816.55-25479-37296-117556 3390-18152-34076
2819.44-45349-91701-66479-77854-79382-99142
2822.34-39400-18530-44332 53175 1552 3667
2825.23-28431-106403-39254-40738 9902 23138
2828.12-28701-73439-39941-76288 32187 1595
2831.01-25769 33464-41413 23356-67961-18756
2833.91 32066-85276-40844 4917-27002-2256
2836.80 1146-29401-6465-47410-18067 30423
2839.69-17456-51200-37135-74565 94450-20752
2842.59 31420 10447-121134-27441-6431-36857
2845.48 1011-3274-11315-55022-57072 76629
2848.37 28142 41093-91035-54740-44332-58876
2851.26-35204-91218-83571-38932 44446 16115
2854.16-61364-18997-24279-37192-41992 12767
2857.05 47548-89837-48468 44409-27705-7351
2859.94-59061 7123-74087-1581 54170-28975
2862.83 68013 27150-82927-22152-77404-16161
2865.73-5088-14873-15823 37175 46476 124686
2868.62-1590 19011 3114-22658 70154 84018
2871.51 24175 17654-26212 12721-49806 67652
2874.41 82981 126048 28732 119621 43398-25000
2877.30-12451-11944 52926 1717 30099 71081
2880.19 12795 19819 58132 34143 23486-21435
2883.08 71010 33990 59303-25726 61144 117766
2885.98-13963 5410 63609 48923 101686 18571
2888.87 59255 41801 47808-68814 16660 117578
2891.76-9545 37093-34703 2632 37049-4447
2894.65 27139-48644 57036 53411-16655 14177
2897.55 5012 19708 48490 29599 19775-74114
2900.44 39097 38513 18358 13312 50751-35509
2903.33-3288 113697 39422 17901 88928 10399
2906.23 11375-9371 12744 53171 81006 43180
2909.12 11303 40919-43137 162145 114524 44568
2912.01 67857 86962 90445 82124 127435 16512
2914.90 4263 41444 21094 64873 101353 133241
2917.80 166911 108622 131657 155958 61810 134566
2920.69 75063 150043 124659 248769 204443 83443
2923.58 146766 59432 128716 32472 78711 96418
2926.47 40816 107899 78828 61090 29768 49408
2929.37 104564 79609 97915 112336 76634 147659
2932.26 188445 245554 269294 259558 166603 268955
2935.15 241991 126611 137384 175683 180230 191707
2938.05 183887 190140 304616 134038 185812 206248
2940.94 263422 187849 166311 139810 131862 217982
2943.83 345418 166226 211174 193568 172337 248191
2946.72 230633 227574 272326 192716 134056 218426
2949.62 224405 157605 230489 189477 253791 226765
2952.51 256480 210981 180421 196208 203404 224355
2955.40 166022 247201 210995 188034 246572 280994
2958.29 293939 183926 303574 201363 317057 223056
2961.19 188174 186614 310257 229946 365277 239990
2964.08 214303 218276 122974 236635 267559 184871
2966.97 157274 123156 51154 150908 144820 159957
2969.87 157579 164715 120275 67804 176910 177398
2972.76 172823 137556 133590 118300 68998 39539
2975.65 82014 103632 128962 123680 146910 116009
2978.54 153424-30694 114156 103663 106086 150065
2981.44 199257 123639 151174 127852 120838 243831
2984.33 161699 217228 229616 187543 268270 268574
2987.22 291246 245387 320669 275665 359859 304941
2990.11 382621 335150 309519 332984 478216 353879
2993.01 364538 353221 392016 362873 396635 307539
2995.90 338061 302762 232228 309795 256606 377634
2998.79 167160 135436 131442 202212 200371 198691
3001.69 233112 378702 488754 368517 501783 456892
3004.58 517076 546859 469030 395456 478137 437746
3007.47 442672 386386 348663 351697 306712 243136
3010.36 269422 241460 238758 267025 233403 218098
3013.26 236141 230771 182505 192518 289933 209656
3016.15 200348 113487 124919 126088 127587 119225
3019.04 154930 155640 155416 87253 198228 136311
3021.93 137159 89643 118076 127725 103421 206861
3024.83 182694 217198 148303 208256 183601 245989
3027.72 199334 226094 187955 226714 125561 240842
3030.61 238468 243434 293454 328164 392053 297526
3033.51 365758 275808 364865 447903 495985 510399
3036.40 560409 418563 628671 480892 544684 484029
3039.29 506406 520451 496472 502917 462137 419481
3042.18 375674 348126 251672 311622 245738 189405
3045.08 166236 138127 95998 258208 281977 308724
3047.97 366027 482360 478624 544179 508047 589948
3050.86 555049 551826 504615 464229 506315 345140
3053.75 392936 373546 365305 436626 354456 279332
3056.65 302408 246731 238322 266164 275866 210779
3059.54 253858 264288 149176 147448 165835 166047
3062.43 150238 105793 88309 45008 106989 73964
3065.33 67389 46493 41623-27119-2581-36160
3068.22 35182 111734-30057 6296 70709-351
3071.11-9521-62618-692-66557-9493-36620
3074.00 81785-26886-105266-22684 1275-107996
3076.90-21417 11961 28717 15666 9454-14683
3079.79-35952-75780-53733-64085-50938-24991
3082.68-5998-116416-3718-71871-19260-60254
3085.57-9946 84465 3594-38820 40864-311
3088.47-51859-7336 43519-5661 28318-38549
3091.36-24836 12157 80345 4409-59243-32359
3094.25-43667-16740-48312-7014-32755-87114
3097.15-4215 16272-19864-975-18446-15327
3100.04-85233-6546 60871-80611-13562-70977
3102.93 9410-29909 34343 7505-25727-106319
3105.82-69813-40075-84262-137761-67093-116252
3108.72-88328-87815-7252-137827-14278-49818
3111.61 28169-49507-26976-132859 13554-15163
3114.50-73365-154550-37347-119074-161619-215613
3117.39-64769-179747-138727-185882-189491-247482
3120.29-211129-163029-184194-189185-143584-167899
3123.18-180194-315254-194773-134764-221991-125871
3126.07-222966-252225-219330-131534-204582-244794
3128.97-158609-272787-175942-192760-225063-237823
3131.86-129122-259042-179574-240388-204550-209008
3134.75-194725-173248-146405-300496-168462-210246
3137.64-132657-194726-96235-245948-190118-92356
3140.54-124143-154812-144165-153259-152517-221543
3143.43-40896-56125-124356-65434-126649-129947
3146.32-150317-229023-130350-218723-218846-126169
3149.21-174112-124268-145995-285744-155910-170748
3152.11-157387-178051-49073-75292-144688-124810
3155.00-83276-157778-102147-31742-75288-50918
3157.89 452-9547 12741 50552 9397 67746
3160.79 33200 39440 112668 117653 203504 146170
3163.68 227341 300853 245826 230614 247482 283059
3166.57 243530 340026 319876 431566 477087 423296
3169.46 530865 521590 605787 510059 642441 623438
3172.36 714474 726434 836634 732780 838702 918458
3175.25 933055 1036257 1078869 1123342 1230074 1095986
3178.14 1212697 1128536 1378475 1374096 1406579 1388844
3181.03 1493124 1376953 1557581 1586702 1637515 1629833
3183.93 1685489 1639703 1588692 1630099 1747174 1687955
3186.82 1687806 1599077 1647828 1570239 1534167 1576612
3189.71 1576254 1482563 1456076 1489823 1493220 1552752
3192.61 1469334 1315854 1417917 1357729 1306042 1514420
3195.50 1567797 1704348 1818531 1963568 2057863 2147070
3198.39 2034564 1942401 1961279 1860494 1644875 1630308
3201.28 1532979 1564137 1295728 1298438 1175088 1052548
3204.18 1020953 827145 767006 647594 554253 536039
3207.07 459222 391939 376462 335740 239840 170348
3209.96 217317 126501 108876 132716 124806 105048
3212.85 194070 50070 161730 4022 1236-48638
3215.75 4171-115420-29978-134055-10466-139639
3218.64-72873-214033-104677-230094-197474-147940
3221.53-185288-264206-101745-178144-166341-296833
3224.43-134075-153499-35887-138154-92021-126002
3227.32-115166-36992 50981-25610-35128 66942
3230.21 18134-13053 61404 10609 90215 57219
3233.10 62641 75176 39054 83822 166457 161663
3236.00 226066 327180 166154 259733 294669 306310
3238.89 323096 246725 371795 289089 346600 298790
3241.78 313411 265107 301316 290085 313789 359124
3244.67 327033 158417 322802 196658 253875 272957
3247.57 253693 285430 309245 263373 303186 306818
3250.46 370509 240780 333771 303020 311053 247209
3253.35 204231 112457 131213 62026 121513-77684
3256.25 31781-63447-73378-77520-173283-152880
3259.14-180944-264019-183720-200183-201035-328262
3262.03-265887-280127-321297-475759-351947-266605
3264.92-279161-347637-298871-378126-249544-334974
3267.82-259422-328384-190937-320955-221484-283778
3270.71-383156-381903-271320-305636-212537-320884
3273.60-302632-367832-278535-282157-219300-300794
3276.49-201907-165159-339936-244884-178327-269512
3279.39-209328-205541-158866-275902-155670-188770
3282.28-118557-241186-221993-198110-120603-182066
3285.17-143124-91014-61949-160808-63990-164311
3288.07-114738-30718-62329-141783-65191-146021
3290.96-20215-131593-26614-166128 22749-42630
3293.85 15536 15855 47269-6920 115790-70697
3296.74 82196-42338 75168 116241 73014 101362
3299.64 182812-21756 83030 108247 107880 114678
3302.53 80274 68006 67905-16471 73430 84282
3305.42-14282 94623 118442 120970 48028-2006
3308.31 94594 177950-19941-20914 72917 61408
3311.21 90013 112686 186106 32705 225835 123361
3314.10 152145 154118 144301 39775 107572 48714
3316.99 74815 144392 90871 81740 92350 17809
3319.89 136722 50558 70250-78977-20809-6174
3322.78 55802 85811 145863 69038 24945-11135
3325.67 98301 45815 118398 26871 47099 35744
3328.56-11524 42943 71892-38792 124186 47241
3331.46 28411 89445 14866 15312 89479 105083
3334.35 45000 2352-67910 13562 93156 101127
3337.24 104206 56479 149331 3960 41672 11686
3340.13 172912 89362 6868 48471 39745 97845
3343.03 226858 38031 170809 25152 172774 14815
3345.92 97517 110219 120974 151893 119490 186881
3348.81 128784 81257 144951-101847 77933 105953
3351.71 11336 46453 37648 71855 44063 77113
3354.60 62288 98878 55414 148880 194972 181868
3357.49 231723 209729 223392 46480 52558 95058
3360.38 144803 51761 211745 211256 143061 118109
3363.28 51511-50243-68740-39049 6392 36551
3366.17 120755 29883-104857-10560 17520 27594
3369.06-9061-53310 136307-21517 28179 21969
3371.95-58704-110369-12384-20823-47214-91991
3374.85 9847-46236-63429-51211-637-95871
3377.74-66278-176755-69739-69931 34739-141951
3380.63 14350-25184-31253-52179-17085-135523
3383.53-33325-79794-36503-18812 13471-10724
3386.42 14119-111182-80664-83392-68489-105210
3389.31 68890-48289 38305-123940-43614-158649
3392.20-33876-171431 28264-29692-31499-71447
3395.10-35386 12579-69596-89065 37479-74040
3397.99-77829 50155-54688-64930 86412-90270
3400.88-28418 7633 9632 49094 96614-126333
3403.77 82438-47109 25124-63922 91499-61074
3406.67 174 73626-2557 49513 130305-29028
3409.56 13856 86110-56883 6595 106943-6081
3412.45 44692-85912 84588-91870 228585 25749
3415.35 102721-18440 258500 93310 22782-60934
3418.24 42212 12455-27022-90289 61854 117272
3421.13 93286-15019 129573 50180 65147 12640
3424.02 99133 49358 108019 26837 123542 42287
3426.92 122995-66472 23642 77123-402-20919
3429.81 32225-28183 77724 47384 120961-39137
3432.70 59596-90555-19546-173505-27917 38693
3435.59-16776 22153-45954-65100-37699-100340
3438.49 57601 19539 24872-70518 29520-14275
3441.38 25815-175958-7238-7241 21423-7594
3444.27-181115-117524-23508-24869 5380-66904
3447.17 18629-155776-92747-35279-50053-26088
3450.06-13702-143399-7697-9417-89577-102890
3452.95 1938-98380-40450-131096 87074-147039
3455.84-111185-215157 52778-115478-80089 13540
3458.74 136604-118058-135641-28881-49956-160520
3461.63-41550-166004-107610-26275-153220-85551
3464.52-67695-225602-67575-35471-74048-98163
3467.41-3068-236377-74383-85454-76932-140221
3470.31-42865-108703-89338-223712 15596-172759
3473.20-61218-160444-71438-105108 13505-32483
3476.09-33014-210810-25712-144764-59928-54250
3478.99-74747-51892-3363-85635-98281-137940
3481.88-38894-121787-89206-73574 61399-127864
3484.77-32350-70483 31176 24946 24928-41780
3487.66 48911 1136-58365-20742-112436-46791
3490.56 5452-23538 27868-18225 19495-35516
3493.45 9481 47414 122684-108635 65001-111757
3496.34 121353-11871 83907 47744 140895 121720
3499.23 134243-58157 147604 31030 143978 24712
3502.13 208032 134709 132609 128387 161285 106255
3505.02 158220 59007 166057 188988 78516 45377
3507.91 69412-8825 53058 62533 45602-56268
3510.81 47606-51948 126503 18243 108986 54143
3513.70 211898 174860 276191 58960 120402 138667
3516.59 188314 74145 174258 45427 102006 45640
3519.48 125756 77393 99749-100533 113034 89468
3522.38 85631 70766 32176 84 49733-9898
3525.27-6866-116669 7783-91027-31412 63094
3528.16 32966-120238 80617 3526 85798-34703
3531.05 36009-77989-23649-28312 23641 34813
3533.95 103591-120607-89405 9340-4316-69730
3536.84-57095-59519 868-146194 91368 71131
3539.73-12518-88654-31686-60919-8195-66112
3542.63-2840 2135-6466-76023-24731-58174
3545.52 93884-94117-17908-84778 22290-74811
3548.41 102975 79341-47603-26882 37525-53333
3551.30-103067-80264-19891-25016-90441-126360
3554.20-55616-3739 59637-18421-60606-104448
3557.09 3131 10288 8595-7610-19182-44753
3559.98-61074-93882-16192-63883-57450 32003
3562.87-17026-81521 67867-64745-41496-177076
3565.77 76814-65547-897-30152-34338-2661
3568.66 8575-84734-63823-147391 21657-27306
3571.55 63505-157967 53599-41103 10003-78235
3574.45 49304-95814-71156-42846-82623-83702
3577.34 228-66901-39522-40830 19059-117416
3580.23-28963-34331 10483-80202 26192-171781
3583.12 77486 49477-26253-23057-35082-43111
3586.02-67501-14960-87290-23762 23585-114317
3588.91 46838-67159 17874-127491 62726-135535
3591.80 4615-92788 45204-41834 43842-11440
3594.69-21848-94814 17011-40818-24939-153101
3597.59-26500-56557-47620-46590-36254-44713
3600.48 23968-91221 126752-62225-10965-71725
3603.37 29119-109811 4784-119312-70430-177130
3606.27-30300-104384 30897-141703 5179-105157
3609.16 2319-147950 22074-29901 56623-79567
3612.05 34593-89349-49866-69582 3828-85084
3614.94 48121-78643-16562-78993 74499-45113
3617.84 28754-38454-34158-116431 93134-95258
3620.73 17465-40615 79534 27463 45384-91827
3623.62 71659-34268 57723-64555 10876-21109
3626.51 69876-105537-8830-80520 54726-136400
3629.41 28902 26705 87955-49794 2697 7950
3632.30 93168 63015 36687-33170 107342-38458
3635.19-18942 46883 112800-6379 71908 58223
3638.09 94945-1050 136494 49219 151743 60631
3640.98 37345 95713 181075 63667 80948-9986
3643.87 172004-2439 138810-23504 134277 23292
3646.76 53602 4931 151383-15680 68625 374
3649.66 94676 86442 133223 93591 110088 39821
3652.55 72514 71017 143241 8406 130709 84338
3655.44 91655 64824 195862-63475 53398 29462
3658.33 123520 22851 133617 90289 104878 21084
3661.23 106609 31779 50941 28301 70203-35571
3664.12 105065-80661 140488 7179 77979-4568
3667.01 56774 26898 55175-43004-17426-9427
3669.91 40192-201434 12647-6163 62741 8015
3672.80-28322-23636 121605-131013-79823-120535
3675.69-110191-66622 11434-100228-30673-68478
3678.58 78011-64651 44964-107216 33513-128923
3681.48 4030-148527-12257-71863 25080-34707
3684.37 108229-127092-2000-89303 2192-80840
3687.26 30088-88702-79511-71424-50295-110719
3690.15-79406-217819 26750-111965-33637-49587
3693.05-42759-17034 70349-104400 74451-68527
3695.94-35557-19457 29112-55345 39261-124394
3698.83 48680-74062 18278-108557 14119-114093
3701.73-33374-39958-8793-57028-1778-132843
3704.62 29619-98203-49292-153340 1755-72393
3707.51-3713-13588-52386-44794-65206-103207
3710.40 8713-60818-77588-193632 64559-21655
3713.30 58328-90789-10896-72447 16697-167941
3716.19-4104-91871 11613-72807 18453-95542
3719.08-58282-95424 100504-71987 119382-37170
3721.97 39310 11753 98364-43734 141744 5063
3724.87 78118 9386 115507-13602 191988 111291
3727.76 189563 36609 46734 99914 181466 165060
3730.65 87159 107408 121231 140333 197366 37276
3733.55 254455 25252 103561 163920 219264-93864
3736.44 131685 122894 54578 32721 240266 142444
3739.33 339518 138063 174793 83243 162117 101435
3742.22 235001 112049 300081 69024-35421-18486
3745.12 26387 61386 145836 79255 201557 82939
3748.01 190381 105269 62216 186163 149208 147489
3750.90 186581 20221 36997 64923 47039-83568
3753.79 81973 19627 107416-27126 105285-96216
3756.69 48268-66821 50058-141418 88387-51532
3759.58-3098-73487 18280-80789 2401-69952
3762.47 41620-21783-29716-158205 27441-48079
3765.37-62517-130100 54866-81222 39646-134992
3768.26-7283-52636-39856-130334 1299-112005
3771.15-2887-104039 39948-87320 72408-61294
3774.04 30536-72015 21943-167079 48651-109886
3776.94-32932-36351 73277-61154 16322-188227
3779.83 37761-84680-41855-102708 15562-55850
3782.72 89781-28708 94289-130027 13681-37276
3785.61-37524-57566-69930-71806 80033-114891
3788.51 38259-71488-3406-92960-11434-36576
3791.40-12359-39587 43886-183726 41749-151682
3794.29 28776-143562 2284-105918-2355-94518
3797.19-1954-109629 6846-89764 50187-52157
3800.08 76466-8302-51863-51868 75602-110220
3802.97-81731-109267 60789-56001 20350-94916
3805.86-23513-203006-68728-38835-37481-111306
3808.76 71235-80553 41614-28296 13966-77583
3811.65 35272-113000-52510-53827 36649-4888
3814.54-731-82136-81274-141303-2456-21364
3817.43-35069-53484 54237-110493 64055-187790
3820.33-29310-91857-124961-42953-16066-53667
3823.22 57717-45790-25971-53184 78865-60672
3826.11 5016-180423 28674-109173 49879-49060
3829.01-114-137583-30796-38740-73614-80606
3831.90 86500-85408 58155-154271 29857-150576
3834.79-55851-43179 20096-75908 54769-233934
3837.68-17046-56834 1574-52257 78087-127516
3840.58-78971-109565-58079-93871 68238-171448
3843.47 43609-36651 1760 65790 107195-27047
3846.36-36029 23659 4111-135747-13047-136643
3849.25 26259-62844-70815-25040-84001-186664
3852.15 9943-135518-47663-235464-105094-104973
3855.04 16470-103650 19742-92415-14287-105952
3857.93-20425-37375 69398-46784-16289-49635
3860.83-8304-124798-53637-98971 9934-106061
3863.72-64460-101237-108116-66026 75112-80837
3866.61 100748-60406 91297-119119-119801-73657
3869.50-38255-208641-30408 3199 49649-135921
3872.40 67965-145449 10751-104499 53867-59912
3875.29 12495-155077 41195-93529 93280-154217
3878.18-176-88895-22740-76742 69348-120696
3881.07 47185-54138 51348-72609 10449 47366
3883.97 44308-38250 22653-120149-11523-107201
3886.86-2475-23106 43412-22307 47724-109052
3889.75 52250-125866 101636-34464 56003-67108
3892.65 133601-115963 8382-26103-16071-11286
3895.54-29963-102752-26037-67954 70497-78297
3898.43 48491-70440 25432-74011-41469-23234
3901.32-48095-40733 65203 9162 159402 163951
3904.22 85229-76686-59399-1124 77065 6399
3907.11 98052-16294 4195-74005 15495-1813
3910.00 89645-54075 69985-54349 101303-113700
3912.89 112876-19667 94273-14144 69510-3902
3915.79 114458 2092 13927-12233 130996 27778
3918.68 136553-44531 107515-9746 186545 65806
3921.57 103167 49220 136585 128986 236031 79761
3924.47 136639 25714 144164 43053 150133-29067
3927.36 83291 16123 123876 16420 147834-54878
3930.25 70823-33847 143372-8370 195902 47737
3933.14 131602-15844 163024 94148 178758-20546
3936.04 132775 25535 169865 90269 149872 92213
3938.93 155125 46727 43386-13190 69204 9182
3941.82 149094 22904 176548-22724 62305-41121
3944.71 13568-24590 98947-87706 39609-122877
3947.61 118964-109443 76339-64762 33459-121064
3950.50 61768-53708 11367-192-18817-97667
3953.39 70657 6177 61104-103779 8870-168988
3956.29 31502-2749 47737-95419 89691-118919
3959.18 49972-138863-14366-156139-42606-87967
3962.07 66706-132404 39295-128433 8023-100440
3964.96 19285-150729 89883-92890 34677-200749
3967.86 6697-111509 7843-79812 31944-43268
3970.75 11722-24541 3703-145820 41404-117687
3973.64 40152-180745
##END=
