##TITLE=Vinylidene fluoride
##JCAMP-DX=4.24
$$ By DXEDIT 1.05 (RS McDonald)
##DATA TYPE=INFRARED SPECTRUM
##CLASS=COBLENTZ III
##ORIGIN=DOW CHEMICAL COMPANY
##OWNER=COPYRIGHT (C) 1988 by COBLENTZ SOCIETY INC.
Collection (C) 2018 copyright by the U.S. Secretary of Commerce
on behalf of the United States of America. All rights reserved.
##DATE=1966/09/28
##NAMES=1,1-difluoroethylene
##CAS REGISTRY NO=75-38-7
##MOLFORM=C2 H2 F2
##SOURCE REFERENCE=COBLENTZ NO. 9164
##$NIST SOURCE=COBLENTZ
##$NIST IMAGE=cob9164
##SPECTROMETER/DATA SYSTEM=DOW KBr FOREPRISM-GRATING
##INSTRUMENT PARAMETERS=BLAZED AT 3.5, 12.0, 20.0 MICRON AND CHANGED AT 5.0, 7.5, 14.9 MICRON
##STATE=SOLUTION, SATURATED (CCl4 FOR 3800-1330, CS2 FOR 1330-500 CM^-^1)
##PATH LENGTH=0.054 CM, 0.056 CM
$$SPECTRAL CONTAMINATION DUE TO CS2 AROUND 850, AND CCl4 AROUND 1550, 2300 CM^-^1 HAVE BEEN SUBTRACTED
$$ SPECTRAL FEATURE AT 1997 CM^-^1 IS PROBABLY AN ARTIFACT CAUSED BY GRATING CHANGE
##SAMPLING PROCEDURE=TRANSMISSION
##RESOLUTION=2
##DATA PROCESSING=DIGITIZED BY COBLENTZ SOCIETY (BATCH I) FROM HARD COPY
##XUNITS=1/CM
##YUNITS=TRANSMITTANCE
##XFACTOR=1
##YFACTOR=1
##DELTAX=1
##FIRSTX=3800
##LASTX=468
##FIRSTY=0.9341
##MAXX=3800
##MINX=468
##MAXY=0.9599
##MINY=-0.0036
##NPOINTS=3333
##XYDATA=(X++(Y..Y))
3800.000000 0.9341 0.9341 0.9341 0.9347 0.9372
3795.000000 0.9350 0.9380 0.9380 0.9381 0.9381
3790.000000 0.9382 0.9382 0.9383 0.9383 0.9384
3785.000000 0.9384 0.9361 0.9347 0.9348 0.9377
3780.000000 0.9388 0.9356 0.9383 0.9389 0.9389
3775.000000 0.9352 0.9390 0.9390 0.9390 0.9389
3770.000000 0.9389 0.9389 0.9389 0.9388 0.9387
3765.000000 0.9386 0.9386 0.9385 0.9384 0.9382
3760.000000 0.9401 0.9397 0.9379 0.9378 0.9378
3755.000000 0.9377 0.9375 0.9374 0.9373 0.9372
3750.000000 0.9370 0.9370 0.9369 0.9366 0.9366
3745.000000 0.9364 0.9362 0.9362 0.9360 0.9358
3740.000000 0.9358 0.9368 0.9394 0.9392 0.9391
3735.000000 0.9390 0.9370 0.9349 0.9369 0.9384
3730.000000 0.9383 0.9379 0.9377 0.9373 0.9370
3725.000000 0.9366 0.9362 0.9359 0.9355 0.9351
3720.000000 0.9347 0.9305 0.9304 0.9337 0.9334
3715.000000 0.9328 0.9324 0.9319 0.9325 0.9336
3710.000000 0.9319 0.9338 0.9332 0.9329 0.9324
3705.000000 0.9320 0.9315 0.9312 0.9308 0.9305
3700.000000 0.9303 0.9299 0.9296 0.9292 0.9257
3695.000000 0.9249 0.9245 0.9245 0.9245 0.9247
3690.000000 0.9250 0.9252 0.9254 0.9249 0.9222
3685.000000 0.9224 0.9226 0.9229 0.9231 0.9233
3680.000000 0.9235 0.9237 0.9241 0.9243 0.9246
3675.000000 0.9247 0.9251 0.9252 0.9255 0.9258
3670.000000 0.9298 0.9272 0.9267 0.9269 0.9272
3665.000000 0.9274 0.9277 0.9279 0.9283 0.9285
3660.000000 0.9288 0.9287 0.9287 0.9286 0.9285
3655.000000 0.9282 0.9281 0.9280 0.9279 0.9277
3650.000000 0.9275 0.9274 0.9273 0.9271 0.9270
3645.000000 0.9269 0.9267 0.9265 0.9264 0.9263
3640.000000 0.9262 0.9259 0.9258 0.9257 0.9256
3635.000000 0.9254 0.9253 0.9258 0.9288 0.9287
3630.000000 0.9274 0.9246 0.9259 0.9280 0.9280
3625.000000 0.9278 0.9277 0.9275 0.9274 0.9273
3620.000000 0.9272 0.9270 0.9268 0.9267 0.9266
3615.000000 0.9265 0.9264 0.9262 0.9260 0.9258
3610.000000 0.9257 0.9252 0.9219 0.9250 0.9248
3605.000000 0.9244 0.9242 0.9229 0.9213 0.9234
3600.000000 0.9218 0.9193 0.9209 0.9225 0.9223
3595.000000 0.9220 0.9218 0.9216 0.9214 0.9211
3590.000000 0.9209 0.9206 0.9203 0.9201 0.9199
3585.000000 0.9197 0.9194 0.9192 0.9190 0.9189
3580.000000 0.9187 0.9186 0.9185 0.9184 0.9172
3575.000000 0.9156 0.9182 0.9186 0.9174 0.9160
3570.000000 0.9167 0.9175 0.9183 0.9187 0.9194
3565.000000 0.9199 0.9204 0.9209 0.9214 0.9219
3560.000000 0.9224 0.9229 0.9234 0.9240 0.9246
3555.000000 0.9285 0.9254 0.9258 0.9291 0.9291
3550.000000 0.9281 0.9264 0.9291 0.9291 0.9291
3545.000000 0.9274 0.9270 0.9288 0.9288 0.9288
3540.000000 0.9265 0.9275 0.9262 0.9278 0.9287
3535.000000 0.9285 0.9285 0.9285 0.9283 0.9282
3530.000000 0.9282 0.9242 0.9242 0.9242 0.9241
3525.000000 0.9239 0.9239 0.9238 0.9237 0.9236
3520.000000 0.9236 0.9235 0.9235 0.9234 0.9233
3515.000000 0.9232 0.9231 0.9230 0.9229 0.9228
3510.000000 0.9228 0.9227 0.9227 0.9225 0.9223
3505.000000 0.9221 0.9220 0.9219 0.9218 0.9215
3500.000000 0.9214 0.9213 0.9212 0.9210 0.9208
3495.000000 0.9207 0.9206 0.9204 0.9203 0.9202
3490.000000 0.9200 0.9198 0.9197 0.9196 0.9195
3485.000000 0.9192 0.9191 0.9189 0.9188 0.9187
3480.000000 0.9184 0.9183 0.9181 0.9180 0.9179
3475.000000 0.9176 0.9175 0.9173 0.9171 0.9168
3470.000000 0.9167 0.9165 0.9164 0.9162 0.9159
3465.000000 0.9157 0.9156 0.9154 0.9151 0.9149
3460.000000 0.9148 0.9146 0.9143 0.9141 0.9140
3455.000000 0.9138 0.9135 0.9134 0.9132 0.9130
3450.000000 0.9127 0.9126 0.9124 0.9124 0.9123
3445.000000 0.9121 0.9119 0.9118 0.9117 0.9116
3440.000000 0.9115 0.9115 0.9115 0.9115 0.9115
3435.000000 0.9115 0.9115 0.9115 0.9116 0.9119
3430.000000 0.9122 0.9126 0.9130 0.9133 0.9137
3425.000000 0.9105 0.9134 0.9138 0.9139 0.9139
3420.000000 0.9140 0.9140 0.9141 0.9141 0.9142
3415.000000 0.9142 0.9142 0.9142 0.9143 0.9143
3410.000000 0.9144 0.9144 0.9145 0.9164 0.9163
3405.000000 0.9146 0.9146 0.9146 0.9146 0.9145
3400.000000 0.9145 0.9144 0.9144 0.9142 0.9142
3395.000000 0.9141 0.9141 0.9140 0.9140 0.9139
3390.000000 0.9139 0.9138 0.9138 0.9138 0.9137
3385.000000 0.9136 0.9136 0.9135 0.9135 0.9133
3380.000000 0.9133 0.9133 0.9133 0.9132 0.9132
3375.000000 0.9129 0.9129 0.9129 0.9129 0.9128
3370.000000 0.9161 0.9130 0.9127 0.9127 0.9127
3365.000000 0.9124 0.9124 0.9124 0.9124 0.9123
3360.000000 0.9123 0.9121 0.9121 0.9121 0.9121
3355.000000 0.9120 0.9120 0.9118 0.9118 0.9118
3350.000000 0.9118 0.9118 0.9119 0.9119 0.9119
3345.000000 0.9149 0.9157 0.9124 0.9153 0.9121
3340.000000 0.9119 0.9120 0.9157 0.9157 0.9152
3335.000000 0.9120 0.9120 0.9120 0.9120 0.9120
3330.000000 0.9120 0.9120 0.9120 0.9120 0.9120
3325.000000 0.9120 0.9120 0.9120 0.9120 0.9120
3320.000000 0.9122 0.9122 0.9122 0.9122 0.9122
3315.000000 0.9122 0.9123 0.9123 0.9160 0.9160
3310.000000 0.9160 0.9160 0.9156 0.9132 0.9163
3305.000000 0.9163 0.9153 0.9127 0.9127 0.9127
3300.000000 0.9127 0.9127 0.9129 0.9129 0.9130
3295.000000 0.9130 0.9130 0.9130 0.9130 0.9130
3290.000000 0.9132 0.9132 0.9132 0.9132 0.9133
3285.000000 0.9133 0.9136 0.9171 0.9168 0.9135
3280.000000 0.9142 0.9172 0.9163 0.9136 0.9149
3275.000000 0.9173 0.9173 0.9172 0.9172 0.9172
3270.000000 0.9172 0.9172 0.9172 0.9171 0.9171
3265.000000 0.9171 0.9171 0.9171 0.9170 0.9169
3260.000000 0.9169 0.9169 0.9169 0.9167 0.9134
3255.000000 0.9168 0.9168 0.9168 0.9168 0.9166
3250.000000 0.9166 0.9166 0.9166 0.9165 0.9165
3245.000000 0.9147 0.9147 0.9165 0.9165 0.9165
3240.000000 0.9165 0.9164 0.9164 0.9164 0.9164
3235.000000 0.9164 0.9164 0.9162 0.9162 0.9162
3230.000000 0.9162 0.9161 0.9161 0.9156 0.9126
3225.000000 0.9134 0.9164 0.9164 0.9165 0.9165
3220.000000 0.9165 0.9164 0.9164 0.9164 0.9164
3215.000000 0.9164 0.9167 0.9167 0.9168 0.9168
3210.000000 0.9168 0.9166 0.9135 0.9127 0.9127
3205.000000 0.9127 0.9127 0.9125 0.9125 0.9123
3200.000000 0.9128 0.9154 0.9131 0.9150 0.9133
3195.000000 0.9158 0.9158 0.9156 0.9156 0.9152
3190.000000 0.9130 0.9129 0.9142 0.9138 0.9110
3185.000000 0.9094 0.9090 0.9086 0.9082 0.9079
3180.000000 0.9076 0.9070 0.9067 0.9064 0.9061
3175.000000 0.9054 0.9047 0.9041 0.9035 0.9032
3170.000000 0.9028 0.9025 0.9023 0.9019 0.9017
3165.000000 0.9014 0.9031 0.9049 0.9029 0.9031
3160.000000 0.9047 0.9046 0.9019 0.9032 0.9013
3155.000000 0.9002 0.9031 0.9034 0.9033 0.9031
3150.000000 0.9029 0.9020 0.8976 0.8967 0.8959
3145.000000 0.8949 0.8941 0.8930 0.8919 0.8916
3140.000000 0.8926 0.8902 0.8878 0.8847 0.8816
3135.000000 0.8778 0.8739 0.8671 0.8604 0.8407
3130.000000 0.8211 0.8013 0.7816 0.7617 0.7421
3125.000000 0.7322 0.7223 0.7220 0.7239 0.7355
3120.000000 0.7491 0.7637 0.7788 0.7935 0.8085
3115.000000 0.8233 0.8382 0.8500 0.8619 0.8640
3110.000000 0.8663 0.8685 0.8708 0.8750 0.8788
3105.000000 0.8806 0.8825 0.8839 0.8852 0.8866
3100.000000 0.8909 0.8920 0.8925 0.8963 0.9006
3095.000000 0.9048 0.9052 0.9057 0.9058 0.9030
3090.000000 0.9027 0.8991 0.8966 0.8981 0.8997
3085.000000 0.8961 0.8942 0.8945 0.8948 0.8951
3080.000000 0.8954 0.8956 0.8983 0.9024 0.9040
3075.000000 0.9042 0.9074 0.9087 0.9059 0.9057
3070.000000 0.9060 0.9028 0.9067 0.9033 0.9036
3065.000000 0.9039 0.9036 0.9007 0.9010 0.9011
3060.000000 0.9024 0.9051 0.9052 0.9033 0.9009
3055.000000 0.9025 0.9023 0.8997 0.8989 0.9001
3050.000000 0.9003 0.8993 0.8984 0.8975 0.8996
3045.000000 0.8996 0.9028 0.9067 0.9111 0.9158
3040.000000 0.9204 0.9214 0.9223 0.9226 0.9194
3035.000000 0.9169 0.9166 0.9132 0.9112 0.9117
3030.000000 0.9108 0.9091 0.9097 0.9084 0.9071
3025.000000 0.9073 0.9077 0.9079 0.9082 0.9085
3020.000000 0.9087 0.9119 0.9130 0.9132 0.9101
3015.000000 0.9100 0.9102 0.9103 0.9106 0.9107
3010.000000 0.9108 0.9110 0.9103 0.9074 0.9088
3005.000000 0.9116 0.9116 0.9103 0.9082 0.9084
3000.000000 0.9103 0.9101 0.9084 0.9084 0.9084
2995.000000 0.9084 0.9084 0.9112 0.9121 0.9119
2990.000000 0.9117 0.9113 0.9107 0.9104 0.9099
2985.000000 0.9095 0.9091 0.9089 0.9088 0.9087
2980.000000 0.9094 0.9121 0.9108 0.9096 0.9120
2975.000000 0.9121 0.9122 0.9122 0.9123 0.9125
2970.000000 0.9126 0.9154 0.9172 0.9177 0.9181
2965.000000 0.9184 0.9188 0.9189 0.9189 0.9189
2960.000000 0.9189 0.9224 0.9219 0.9180 0.9177
2955.000000 0.9174 0.9179 0.9206 0.9203 0.9200
2950.000000 0.9196 0.9194 0.9192 0.9172 0.9150
2945.000000 0.9147 0.9166 0.9157 0.9164 0.9150
2940.000000 0.9161 0.9171 0.9169 0.9164 0.9163
2935.000000 0.9126 0.9120 0.9116 0.9113 0.9114
2930.000000 0.9115 0.9116 0.9118 0.9120 0.9123
2925.000000 0.9126 0.9131 0.9137 0.9130 0.9113
2920.000000 0.9119 0.9122 0.9125 0.9126 0.9127
2915.000000 0.9128 0.9130 0.9132 0.9133 0.9134
2910.000000 0.9136 0.9137 0.9172 0.9176 0.9140
2905.000000 0.9140 0.9141 0.9141 0.9141 0.9141
2900.000000 0.9144 0.9145 0.9145 0.9145 0.9147
2895.000000 0.9148 0.9149 0.9149 0.9149 0.9149
2890.000000 0.9151 0.9152 0.9152 0.9152 0.9154
2885.000000 0.9154 0.9155 0.9157 0.9158 0.9159
2880.000000 0.9160 0.9161 0.9162 0.9127 0.9164
2875.000000 0.9165 0.9166 0.9166 0.9167 0.9169
2870.000000 0.9170 0.9171 0.9172 0.9173 0.9174
2865.000000 0.9175 0.9176 0.9177 0.9178 0.9180
2860.000000 0.9182 0.9184 0.9186 0.9187 0.9190
2855.000000 0.9191 0.9160 0.9157 0.9159 0.9161
2850.000000 0.9162 0.9164 0.9167 0.9174 0.9210
2845.000000 0.9212 0.9206 0.9191 0.9220 0.9222
2840.000000 0.9210 0.9206 0.9231 0.9233 0.9215
2835.000000 0.9200 0.9203 0.9205 0.9209 0.9211
2830.000000 0.9214 0.9247 0.9224 0.9254 0.9262
2825.000000 0.9227 0.9230 0.9269 0.9238 0.9276
2820.000000 0.9279 0.9275 0.9246 0.9248 0.9251
2815.000000 0.9253 0.9257 0.9259 0.9262 0.9265
2810.000000 0.9268 0.9270 0.9295 0.9315 0.9318
2805.000000 0.9319 0.9324 0.9326 0.9329 0.9331
2800.000000 0.9335 0.9337 0.9340 0.9343 0.9346
2795.000000 0.9348 0.9352 0.9354 0.9351 0.9329
2790.000000 0.9354 0.9326 0.9329 0.9329 0.9329
2785.000000 0.9345 0.9367 0.9348 0.9329 0.9351
2780.000000 0.9367 0.9366 0.9366 0.9363 0.9363
2775.000000 0.9362 0.9361 0.9359 0.9358 0.9355
2770.000000 0.9353 0.9351 0.9350 0.9347 0.9346
2765.000000 0.9344 0.9343 0.9340 0.9338 0.9337
2760.000000 0.9336 0.9333 0.9332 0.9331 0.9330
2755.000000 0.9328 0.9326 0.9325 0.9324 0.9322
2750.000000 0.9321 0.9319 0.9317 0.9316 0.9314
2745.000000 0.9314 0.9314 0.9314 0.9313 0.9313
2740.000000 0.9313 0.9313 0.9313 0.9313 0.9313
2735.000000 0.9313 0.9313 0.9313 0.9313 0.9312
2730.000000 0.9312 0.9312 0.9313 0.9313 0.9316
2725.000000 0.9316 0.9320 0.9321 0.9322 0.9323
2720.000000 0.9325 0.9326 0.9328 0.9330 0.9332
2715.000000 0.9333 0.9334 0.9335 0.9337 0.9338
2710.000000 0.9341 0.9342 0.9344 0.9345 0.9347
2705.000000 0.9348 0.9349 0.9351 0.9353 0.9353
2700.000000 0.9353 0.9353 0.9353 0.9353 0.9353
2695.000000 0.9353 0.9353 0.9346 0.9340 0.9332
2690.000000 0.9324 0.9314 0.9304 0.9296 0.9287
2685.000000 0.9276 0.9267 0.9262 0.9257 0.9250
2680.000000 0.9247 0.9242 0.9238 0.9234 0.9232
2675.000000 0.9228 0.9226 0.9223 0.9220 0.9218
2670.000000 0.9217 0.9217 0.9217 0.9217 0.9217
2665.000000 0.9217 0.9217 0.9216 0.9215 0.9214
2660.000000 0.9214 0.9212 0.9215 0.9246 0.9245
2655.000000 0.9243 0.9242 0.9235 0.9230 0.9210
2650.000000 0.9179 0.9170 0.9178 0.9189 0.9181
2645.000000 0.9159 0.9143 0.9143 0.9173 0.9157
2640.000000 0.9151 0.9155 0.9159 0.9163 0.9167
2635.000000 0.9170 0.9212 0.9217 0.9219 0.9188
2630.000000 0.9199 0.9236 0.9242 0.9246 0.9252
2625.000000 0.9258 0.9263 0.9268 0.9273 0.9278
2620.000000 0.9282 0.9286 0.9289 0.9290 0.9294
2615.000000 0.9296 0.9299 0.9301 0.9303 0.9302
2610.000000 0.9301 0.9299 0.9298 0.9296 0.9293
2605.000000 0.9292 0.9292 0.9292 0.9293 0.9296
2600.000000 0.9300 0.9302 0.9305 0.9308 0.9311
2595.000000 0.9317 0.9323 0.9329 0.9336 0.9342
2590.000000 0.9348 0.9354 0.9360 0.9362 0.9365
2585.000000 0.9367 0.9370 0.9372 0.9374 0.9376
2580.000000 0.9379 0.9380 0.9380 0.9380 0.9380
2575.000000 0.9378 0.9377 0.9376 0.9375 0.9370
2570.000000 0.9366 0.9361 0.9358 0.9354 0.9351
2565.000000 0.9345 0.9343 0.9337 0.9335 0.9335
2560.000000 0.9335 0.9336 0.9337 0.9337 0.9339
2555.000000 0.9340 0.9340 0.9342 0.9344 0.9345
2550.000000 0.9345 0.9345 0.9347 0.9348 0.9348
2545.000000 0.9350 0.9351 0.9352 0.9353 0.9354
2540.000000 0.9356 0.9357 0.9358 0.9359 0.9360
2535.000000 0.9360 0.9361 0.9362 0.9363 0.9364
2530.000000 0.9365 0.9367 0.9368 0.9369 0.9370
2525.000000 0.9371 0.9372 0.9372 0.9373 0.9374
2520.000000 0.9375 0.9376 0.9378 0.9379 0.9380
2515.000000 0.9380 0.9380 0.9378 0.9378 0.9377
2510.000000 0.9377 0.9377 0.9377 0.9376 0.9376
2505.000000 0.9375 0.9375 0.9374 0.9374 0.9372
2500.000000 0.9372 0.9372 0.9372 0.9371 0.9371
2495.000000 0.9370 0.9370 0.9369 0.9369 0.9369
2490.000000 0.9369 0.9369 0.9370 0.9370 0.9371
2485.000000 0.9371 0.9371 0.9372 0.9373 0.9398
2480.000000 0.9413 0.9414 0.9416 0.9415 0.9415
2475.000000 0.9413 0.9412 0.9403 0.9395 0.9386
2470.000000 0.9375 0.9367 0.9358 0.9347 0.9335
2465.000000 0.9332 0.9328 0.9329 0.9331 0.9332
2460.000000 0.9334 0.9335 0.9319 0.9320 0.9319
2455.000000 0.9301 0.9301 0.9325 0.9338 0.9338
2450.000000 0.9309 0.9330 0.9338 0.9338 0.9338
2445.000000 0.9338 0.9338 0.9337 0.9337 0.9337
2440.000000 0.9337 0.9335 0.9335 0.9334 0.9334
2435.000000 0.9333 0.9333 0.9332 0.9332 0.9331
2430.000000 0.9331 0.9329 0.9329 0.9328 0.9328
2425.000000 0.9327 0.9327 0.9325 0.9325 0.9324
2420.000000 0.9324 0.9323 0.9323 0.9321 0.9321
2415.000000 0.9321 0.9321 0.9320 0.9320 0.9316
2410.000000 0.9315 0.9322 0.9335 0.9320 0.9343
2405.000000 0.9340 0.9338 0.9332 0.9328 0.9322
2400.000000 0.9316 0.9310 0.9305 0.9299 0.9293
2395.000000 0.9287 0.9280 0.9272 0.9265 0.9257
2390.000000 0.9250 0.9280 0.9273 0.9266 0.9259
2385.000000 0.9258 0.9283 0.9275 0.9279 0.9303
2380.000000 0.9303 0.9314 0.9337 0.9353 0.9373
2375.000000 0.9371 0.9391 0.9408 0.9409 0.9413
2370.000000 0.9417 0.9392 0.9386 0.9389 0.9393
2365.000000 0.9396 0.9401 0.9401 0.9402 0.9405
2360.000000 0.9443 0.9447 0.9482 0.9491 0.9532
2355.000000 0.9559 0.9555 0.9550 0.9544 0.9516
2350.000000 0.9482 0.9470 0.9480 0.9509 0.9516
2345.000000 0.9504 0.9467 0.9440 0.9426 0.9404
2340.000000 0.9384 0.9330 0.9338 0.9326 0.9273
2335.000000 0.9254 0.9275 0.9259 0.9243 0.9231
2330.000000 0.9247 0.9230 0.9210 0.9200 0.9205
2325.000000 0.9195 0.9197 0.9176 0.9154 0.9131
2320.000000 0.9107 0.9083 0.9059 0.9034 0.9010
2315.000000 0.8986 0.8964 0.8942 0.8918 0.8896
2310.000000 0.8873 0.8845 0.8818 0.8789 0.8763
2305.000000 0.8734 0.8707 0.8673 0.8638 0.8599
2300.000000 0.8561 0.8548 0.8549 0.8525 0.8503
2295.000000 0.8480 0.8460 0.8447 0.8433 0.8431
2290.000000 0.8428 0.8427 0.8402 0.8394 0.8395
2285.000000 0.8406 0.8416 0.8398 0.8410 0.8423
2280.000000 0.8438 0.8455 0.8441 0.8464 0.8480
2275.000000 0.8475 0.8499 0.8520 0.8534 0.8531
2270.000000 0.8556 0.8563 0.8566 0.8584 0.8603
2265.000000 0.8600 0.8605 0.8623 0.8640 0.8634
2260.000000 0.8643 0.8662 0.8651 0.8662 0.8681
2255.000000 0.8695 0.8677 0.8690 0.8704 0.8716
2250.000000 0.8697 0.8710 0.8726 0.8739 0.8754
2245.000000 0.8756 0.8747 0.8759 0.8774 0.8788
2240.000000 0.8802 0.8820 0.8839 0.8858 0.8875
2235.000000 0.8870 0.8875 0.8887 0.8900 0.8911
2230.000000 0.8922 0.8932 0.8943 0.8952 0.8964
2225.000000 0.8973 0.8984 0.8993 0.8995 0.8974
2220.000000 0.8984 0.8994 0.9003 0.9006 0.9011
2215.000000 0.9014 0.9017 0.9018 0.9021 0.9016
2210.000000 0.9013 0.9007 0.9001 0.8994 0.8987
2205.000000 0.8984 0.8980 0.8977 0.8974 0.8971
2200.000000 0.8971 0.8977 0.8983 0.8987 0.8988
2195.000000 0.8966 0.9003 0.9000 0.8978 0.8983
2190.000000 0.8991 0.8999 0.9006 0.9013 0.9020
2185.000000 0.9026 0.9054 0.9052 0.9043 0.9047
2180.000000 0.9053 0.9058 0.9091 0.9104 0.9109
2175.000000 0.9112 0.9114 0.9116 0.9118 0.9119
2170.000000 0.9122 0.9119 0.9088 0.9089 0.9091
2165.000000 0.9093 0.9096 0.9096 0.9099 0.9099
2160.000000 0.9102 0.9103 0.9106 0.9107 0.9110
2155.000000 0.9111 0.9112 0.9112 0.9112 0.9112
2150.000000 0.9112 0.9112 0.9112 0.9112 0.9112
2145.000000 0.9112 0.9112 0.9112 0.9112 0.9112
2140.000000 0.9112 0.9112 0.9112 0.9112 0.9112
2135.000000 0.9112 0.9112 0.9112 0.9112 0.9112
2130.000000 0.9111 0.9111 0.9113 0.9113 0.9112
2125.000000 0.9112 0.9112 0.9112 0.9082 0.9109
2120.000000 0.9115 0.9116 0.9117 0.9118 0.9119
2115.000000 0.9120 0.9121 0.9122 0.9123 0.9124
2110.000000 0.9126 0.9125 0.9127 0.9128 0.9129
2105.000000 0.9130 0.9131 0.9132 0.9133 0.9133
2100.000000 0.9134 0.9134 0.9108 0.9098 0.9129
2095.000000 0.9136 0.9105 0.9135 0.9140 0.9140
2090.000000 0.9141 0.9141 0.9142 0.9142 0.9142
2085.000000 0.9142 0.9142 0.9140 0.9140 0.9139
2080.000000 0.9139 0.9138 0.9137 0.9135 0.9133
2075.000000 0.9128 0.9123 0.9114 0.9104 0.9091
2070.000000 0.9078 0.9076 0.9076 0.9083 0.9090
2065.000000 0.9096 0.9100 0.9106 0.9107 0.9107
2060.000000 0.9103 0.9100 0.9098 0.9103 0.9129
2055.000000 0.9126 0.9123 0.9120 0.9102 0.9095
2050.000000 0.9113 0.9092 0.9075 0.9073 0.9073
2045.000000 0.9073 0.9073 0.9072 0.9072 0.9072
2040.000000 0.9072 0.9073 0.9075 0.9076 0.9079
2035.000000 0.9080 0.9080 0.9080 0.9079 0.9076
2030.000000 0.9074 0.9072 0.9081 0.9087 0.9056
2025.000000 0.9064 0.9079 0.9071 0.9064 0.9057
2020.000000 0.9050 0.9042 0.9035 0.9029 0.9022
2015.000000 0.9013 0.9005 0.8995 0.8986 0.8977
2010.000000 0.8968 0.8959 0.8951 0.8942 0.8934
2005.000000 0.8925 0.8917 0.8907 0.8899 0.8882
2000.000000 0.8866 0.8809 0.8552 0.8625 0.8579
1995.000000 0.8637 0.8697 0.8757 0.8815 0.8851
1990.000000 0.8871 0.8892 0.8911 0.8931 0.8918
1985.000000 0.8922 0.8933 0.8937 0.8939 0.8943
1980.000000 0.8947 0.8946 0.8917 0.8921 0.8924
1975.000000 0.8927 0.8931 0.8933 0.8935 0.8937
1970.000000 0.8940 0.8942 0.8944 0.8946 0.8972
1965.000000 0.8969 0.8959 0.8995 0.9023 0.9047
1960.000000 0.9094 0.9121 0.9119 0.9097 0.9074
1955.000000 0.9051 0.8992 0.8980 0.8981 0.8984
1950.000000 0.8982 0.8955 0.8959 0.8962 0.8965
1945.000000 0.8969 0.8971 0.8974 0.8975 0.8976
1940.000000 0.8975 0.8960 0.8946 0.8929 0.8935
1935.000000 0.8953 0.8980 0.9004 0.9039 0.9017
1930.000000 0.9024 0.9020 0.9011 0.9003 0.8994
1925.000000 0.8985 0.8977 0.8969 0.8961 0.8949
1920.000000 0.8934 0.8919 0.8905 0.8890 0.8876
1915.000000 0.8861 0.8846 0.8831 0.8812 0.8796
1910.000000 0.8778 0.8760 0.8744 0.8758 0.8753
1905.000000 0.8739 0.8725 0.8710 0.8690 0.8671
1900.000000 0.8656 0.8664 0.8672 0.8682 0.8693
1895.000000 0.8711 0.8728 0.8746 0.8763 0.8767
1890.000000 0.8748 0.8755 0.8759 0.8766 0.8770
1885.000000 0.8775 0.8801 0.8817 0.8808 0.8798
1880.000000 0.8790 0.8779 0.8768 0.8756 0.8745
1875.000000 0.8768 0.8758 0.8747 0.8736 0.8723
1870.000000 0.8716 0.8711 0.8706 0.8702 0.8697
1865.000000 0.8692 0.8689 0.8689 0.8689 0.8689
1860.000000 0.8689 0.8689 0.8688 0.8708 0.8697
1855.000000 0.8682 0.8680 0.8679 0.8677 0.8676
1850.000000 0.8675 0.8674 0.8680 0.8686 0.8696
1845.000000 0.8709 0.8720 0.8730 0.8736 0.8733
1840.000000 0.8728 0.8722 0.8716 0.8712 0.8692
1835.000000 0.8668 0.8666 0.8674 0.8684 0.8692
1830.000000 0.8700 0.8708 0.8715 0.8722 0.8730
1825.000000 0.8738 0.8746 0.8754 0.8761 0.8769
1820.000000 0.8776 0.8817 0.8824 0.8830 0.8836
1815.000000 0.8843 0.8849 0.8854 0.8861 0.8868
1810.000000 0.8874 0.8867 0.8851 0.8856 0.8863
1805.000000 0.8869 0.8852 0.8839 0.8843 0.8845
1800.000000 0.8847 0.8848 0.8848 0.8849 0.8849
1795.000000 0.8847 0.8845 0.8841 0.8840 0.8837
1790.000000 0.8830 0.8820 0.8810 0.8800 0.8791
1785.000000 0.8777 0.8764 0.8749 0.8737 0.8721
1780.000000 0.8699 0.8677 0.8656 0.8637 0.8600
1775.000000 0.8569 0.8552 0.8537 0.8520 0.8503
1770.000000 0.8484 0.8461 0.8436 0.8413 0.8388
1765.000000 0.8364 0.8325 0.8288 0.8250 0.8211
1760.000000 0.8162 0.8116 0.8092 0.8011 0.7912
1755.000000 0.7834 0.7758 0.7662 0.7542 0.7434
1750.000000 0.7346 0.7256 0.7168 0.7031 0.6877
1745.000000 0.6409 0.6272 0.4707 0.4521 0.2117
1740.000000 0.1207 0.1152 0.1095 0.1036 0.0957
1735.000000 0.0865 0.0768 0.0674 0.0532 0.0318
1730.000000 0.0105 0.0120 0.0113 0.0109 0.0168
1725.000000 0.0286 0.0570 0.0864 0.1103 0.1279
1720.000000 0.1455 0.1696 0.2552 0.2909 0.3126
1715.000000 0.3231 0.3341 0.3490 0.3640 0.4044
1710.000000 0.4749 0.5454 0.6136 0.6520 0.6753
1705.000000 0.6918 0.7080 0.7212 0.7342 0.7413
1700.000000 0.7483 0.7545 0.7595 0.7646 0.7697
1695.000000 0.7745 0.7771 0.7800 0.7826 0.7852
1690.000000 0.7878 0.7902 0.7953 0.8004 0.8056
1685.000000 0.8107 0.8165 0.8223 0.8280 0.8319
1680.000000 0.8353 0.8380 0.8403 0.8424 0.8449
1675.000000 0.8471 0.8489 0.8512 0.8545 0.8556
1670.000000 0.8567 0.8576 0.8584 0.8591 0.8643
1665.000000 0.8605 0.8612 0.8618 0.8622 0.8625
1660.000000 0.8656 0.8633 0.8631 0.8662 0.8651
1655.000000 0.8638 0.8624 0.8610 0.8571 0.8582
1650.000000 0.8560 0.8537 0.8514 0.8493 0.8475
1645.000000 0.8466 0.8434 0.8404 0.8390 0.8376
1640.000000 0.8335 0.8284 0.8259 0.8221 0.8196
1635.000000 0.8156 0.8106 0.8054 0.7969 0.7909
1630.000000 0.7819 0.7760 0.7665 0.7600 0.7502
1625.000000 0.7392 0.7344 0.7280 0.7249 0.7187
1620.000000 0.7109 0.7058 0.7011 0.6952 0.6912
1615.000000 0.6875 0.6831 0.6775 0.6704 0.6648
1610.000000 0.6550 0.6445 0.6313 0.6158 0.6044
1605.000000 0.5877 0.5872 0.5837 0.5839 0.5767
1600.000000 0.5786 0.5758 0.5656 0.5589 0.5568
1595.000000 0.5455 0.4435 0.4284 0.4269 0.4246
1590.000000 0.4087 0.4061 0.4010 0.3826 0.3541
1585.000000 0.3503 0.3474 0.3474 0.3442 0.3416
1580.000000 0.3384 0.3353 0.3305 0.3274 0.3228
1575.000000 0.3194 0.3179 0.3150 0.3096 0.3010
1570.000000 0.2874 0.2679 0.2477 0.2381 0.2284
1565.000000 0.2193 0.2142 0.2101 0.2053 0.2021
1560.000000 0.2020 0.2018 0.2053 0.2072 0.2117
1555.000000 0.2186 0.2231 0.2273 0.2344 0.2392
1550.000000 0.2412 0.2384 0.2348 0.2335 0.2318
1545.000000 0.2282 0.2329 0.2391 0.2436 0.2454
1540.000000 0.2467 0.2515 0.2640 0.2720 0.2830
1535.000000 0.2947 0.3028 0.3089 0.3140 0.3183
1530.000000 0.3377 0.3431 0.3420 0.3343 0.3281
1525.000000 0.3224 0.3184 0.3183 0.3321 0.3471
1520.000000 0.3630 0.3771 0.3894 0.4027 0.4155
1515.000000 0.4289 0.4428 0.4554 0.4682 0.4776
1510.000000 0.4874 0.4975 0.5056 0.5123 0.5185
1505.000000 0.5241 0.5311 0.5391 0.5595 0.5819
1500.000000 0.6118 0.6356 0.6481 0.6618 0.6697
1495.000000 0.6745 0.6766 0.6814 0.6860 0.6907
1490.000000 0.6973 0.7057 0.7138 0.7218 0.7306
1485.000000 0.7392 0.7484 0.7579 0.7695 0.7796
1480.000000 0.7846 0.7841 0.7828 0.7813 0.7839
1475.000000 0.7869 0.7850 0.7872 0.7888 0.7895
1470.000000 0.7901 0.7909 0.7916 0.7955 0.7962
1465.000000 0.8008 0.8022 0.8064 0.8082 0.8127
1460.000000 0.8167 0.8192 0.8201 0.8235 0.8268
1455.000000 0.8289 0.8302 0.8335 0.8367 0.8401
1450.000000 0.8408 0.8422 0.8450 0.8453 0.8471
1445.000000 0.8499 0.8522 0.8543 0.8567 0.8590
1440.000000 0.8577 0.8598 0.8620 0.8631 0.8640
1435.000000 0.8648 0.8657 0.8666 0.8683 0.8719
1430.000000 0.8721 0.8725 0.8715 0.8714 0.8736
1425.000000 0.8741 0.8725 0.8713 0.8716 0.8721
1420.000000 0.8724 0.8728 0.8733 0.8738 0.8712
1415.000000 0.8712 0.8716 0.8722 0.8726 0.8731
1410.000000 0.8736 0.8741 0.8745 0.8748 0.8753
1405.000000 0.8756 0.8760 0.8763 0.8767 0.8769
1400.000000 0.8770 0.8771 0.8790 0.8810 0.8811
1395.000000 0.8812 0.8813 0.8814 0.8815 0.8816
1390.000000 0.8857 0.8907 0.8927 0.9011 0.9108
1385.000000 0.9206 0.9214 0.9136 0.9074 0.8948
1380.000000 0.8891 0.8840 0.8817 0.8793 0.8768
1375.000000 0.8733 0.8721 0.8709 0.8703 0.8696
1370.000000 0.8689 0.8682 0.8675 0.8662 0.8646
1365.000000 0.8627 0.8608 0.8591 0.8571 0.8548
1360.000000 0.8525 0.8503 0.8483 0.8470 0.8422
1355.000000 0.8408 0.8396 0.8382 0.8370 0.8330
1350.000000 0.8255 0.8179 0.8079 0.7956 0.7827
1345.000000 0.7689 0.7542 0.7399 0.7278 0.7181
1340.000000 0.7104 0.7037 0.6985 0.6934 0.6891
1335.000000 0.6850 0.6816 0.6787 0.6780 0.6777
1330.000000 0.6774 0.6744 0.6741 0.6690 0.6514
1325.000000 0.6343 0.6214 0.6128 0.6029 0.5912
1320.000000 0.5761 0.5714 0.5687 0.5693 0.5720
1315.000000 0.5732 0.5745 0.5775 0.5750 0.5696
1310.000000 0.5543 0.5194 0.4880 0.4567 0.4252
1305.000000 0.3939 0.3609 0.3044 0.2984 0.2984
1300.000000 0.3147 0.3319 0.3491 0.3663 0.3840
1295.000000 0.4025 0.4198 0.4371 0.4686 0.4654
1290.000000 0.4600 0.4447 0.4295 0.4142 0.3989
1285.000000 0.3836 0.3683 0.3529 0.3299 0.3311
1280.000000 0.3593 0.3875 0.4158 0.4442 0.4744
1275.000000 0.5028 0.5312 0.5595 0.5879 0.6125
1270.000000 0.6331 0.6534 0.6730 0.6928 0.7122
1265.000000 0.7390 0.7569 0.7679 0.7773 0.7867
1260.000000 0.7968 0.8068 0.8167 0.8238 0.8309
1255.000000 0.8379 0.8437 0.8460 0.8507 0.8537
1250.000000 0.8554 0.8572 0.8589 0.8608 0.8626
1245.000000 0.8640 0.8627 0.8646 0.8663 0.8682
1240.000000 0.8699 0.8729 0.8768 0.8787 0.8804
1235.000000 0.8820 0.8838 0.8877 0.8911 0.8930
1230.000000 0.8950 0.8969 0.8987 0.9005 0.9017
1225.000000 0.9031 0.9031 0.9032 0.9034 0.9024
1220.000000 0.9008 0.8974 0.8902 0.8827 0.8745
1215.000000 0.8664 0.8581 0.8507 0.8447 0.8338
1210.000000 0.8193 0.8232 0.8257 0.8323 0.8390
1205.000000 0.8448 0.8502 0.8558 0.8609 0.8641
1200.000000 0.8674 0.8707 0.8708 0.8730 0.8751
1195.000000 0.8771 0.8791 0.8834 0.8840 0.8854
1190.000000 0.8854 0.8855 0.8852 0.8842 0.8833
1185.000000 0.8823 0.8814 0.8757 0.8675 0.8601
1180.000000 0.8506 0.8408 0.8213 0.7949 0.7722
1175.000000 0.7587 0.7424 0.6911 0.6242 0.5572
1170.000000 0.4903 0.4233 0.3566 0.2910 0.2238
1165.000000 0.1152 0.1168 0.1493 0.2369 0.3247
1160.000000 0.4124 0.5000 0.5722 0.5920 0.6011
1155.000000 0.6103 0.6194 0.6350 0.6499 0.6604
1150.000000 0.6752 0.6851 0.6823 0.6820 0.6460
1145.000000 0.5965 0.5470 0.4955 0.4479 0.3984
1140.000000 0.3490 0.3009 0.2524 0.2034 0.1871
1135.000000 0.1897 0.1914 0.2048 0.2733 0.3356
1130.000000 0.3976 0.4591 0.5198 0.5818 0.6015
1125.000000 0.6189 0.6358 0.6544 0.6819 0.7135
1120.000000 0.7467 0.7676 0.7809 0.7941 0.8099
1115.000000 0.8221 0.8341 0.8464 0.8592 0.8694
1110.000000 0.8752 0.8779 0.8767 0.8801 0.8780
1105.000000 0.8814 0.8792 0.8797 0.8795 0.8787
1100.000000 0.8766 0.8743 0.8724 0.8692 0.8660
1095.000000 0.8624 0.8591 0.8505 0.8386 0.8077
1090.000000 0.7701 0.7494 0.7287 0.6759 0.6120
1085.000000 0.5785 0.5461 0.5120 0.4829 0.4360
1080.000000 0.3868 0.3372 0.2870 0.2376 0.1880
1075.000000 0.1392 0.0904 0.0367 0.0383 0.0468
1070.000000 0.1195 0.1921 0.2647 0.3372 0.4099
1065.000000 0.4825 0.5551 0.6747 0.7252 0.7440
1060.000000 0.7615 0.7705 0.7858 0.7979 0.8097
1055.000000 0.8260 0.8424 0.8569 0.8673 0.8738
1050.000000 0.8809 0.8856 0.8900 0.8944 0.8986
1045.000000 0.9028 0.9070 0.9112 0.9152 0.9185
1040.000000 0.9218 0.9251 0.9283 0.9314 0.9334
1035.000000 0.9354 0.9373 0.9392 0.9413 0.9426
1030.000000 0.9402 0.9415 0.9427 0.9441 0.9446
1025.000000 0.9426 0.9434 0.9443 0.9451 0.9458
1020.000000 0.9466 0.9474 0.9482 0.9489 0.9496
1015.000000 0.9496 0.9496 0.9495 0.9484 0.9466
1010.000000 0.9446 0.9426 0.9369 0.9341 0.9327
1005.000000 0.9315 0.9278 0.9267 0.9296 0.9317
1000.000000 0.9323 0.9330 0.9325 0.9296 0.9296
995.000000 0.9296 0.9298 0.9299 0.9317 0.9333
990.000000 0.9328 0.9324 0.9319 0.9314 0.9310
985.000000 0.9305 0.9299 0.9282 0.9262 0.9241
980.000000 0.9222 0.9202 0.9167 0.9115 0.9064
975.000000 0.9013 0.8949 0.8879 0.8792 0.8757
970.000000 0.8687 0.8618 0.8548 0.8479 0.8409
965.000000 0.8312 0.8194 0.8076 0.7923 0.7759
960.000000 0.7562 0.7386 0.6866 0.6345 0.5827
955.000000 0.5308 0.4788 0.4269 0.3749 0.3095
950.000000 0.3100 0.3183 0.3572 0.3962 0.4351
945.000000 0.4740 0.5130 0.5519 0.5908 0.6297
940.000000 0.6686 0.7246 0.7224 0.7197 0.7106
935.000000 0.7013 0.6921 0.6831 0.6739 0.6589
930.000000 0.6584 0.6603 0.6688 0.6775 0.6859
925.000000 0.6945 0.6967 0.6779 0.6440 0.6101
920.000000 0.5762 0.5440 0.5461 0.5771 0.6113
915.000000 0.6437 0.6760 0.7084 0.7420 0.7763
910.000000 0.7970 0.8082 0.8162 0.8238 0.8301
905.000000 0.8375 0.8431 0.8465 0.8503 0.8514
900.000000 0.8533 0.8506 0.8508 0.8461 0.8384
895.000000 0.8307 0.8212 0.8084 0.7987 0.7811
890.000000 0.7630 0.7498 0.7399 0.7283 0.7156
885.000000 0.7011 0.6898 0.6820 0.6724 0.6633
880.000000 0.6512 0.6380 0.6264 0.6145 0.5984
875.000000 0.5866 0.5793 0.5719 0.5643 0.5564
870.000000 0.5484 0.5404 0.5321 0.5260 0.5172
865.000000 0.5087 0.5018 0.4946 0.4849 0.4757
860.000000 0.4675 0.4572 0.4462 0.4418 0.4400
855.000000 0.4398 0.4394 0.4388 0.4464 0.4551
850.000000 0.4857 0.5126 0.5383 0.5615 0.5826
845.000000 0.6045 0.6232 0.6429 0.6618 0.6797
840.000000 0.6998 0.7218 0.7411 0.7647 0.7750
835.000000 0.7781 0.7785 0.7761 0.7745 0.7720
830.000000 0.7702 0.7655 0.7590 0.7503 0.7397
825.000000 0.7266 0.7114 0.6386 0.5432 0.4465
820.000000 0.3510 0.2560 0.1610 0.0661 0.0302
815.000000 -0.0012 -0.0036 -0.0028 -0.0036 -0.0036
810.000000 -0.0035 0.0455 0.0962 0.1466 0.1975
805.000000 0.2490 0.3000 0.3508 0.4017 0.4525
800.000000 0.5035 0.5294 0.5718 0.5967 0.6290
795.000000 0.6713 0.7109 0.7510 0.7663 0.7807
790.000000 0.7845 0.7856 0.7870 0.7882 0.7949
785.000000 0.8035 0.8118 0.8169 0.8243 0.8347
780.000000 0.8422 0.8513 0.8574 0.8607 0.8652
775.000000 0.8766 0.8723 0.8715 0.8701 0.8688
770.000000 0.8547 0.8268 0.8182 0.8152 0.8175
765.000000 0.8235 0.8332 0.8389 0.8445 0.8503
760.000000 0.8556 0.8607 0.8648 0.8699 0.8685
755.000000 0.8682 0.8678 0.8657 0.8563 0.8468
750.000000 0.8342 0.8171 0.7947 0.7627 0.7307
745.000000 0.6988 0.6669 0.6349 0.6030 0.5711
740.000000 0.5528 0.5504 0.5601 0.5878 0.6154
735.000000 0.6430 0.6707 0.6983 0.7259 0.7538
730.000000 0.7842 0.8074 0.8166 0.8259 0.8327
725.000000 0.8411 0.8467 0.8538 0.8592 0.8634
720.000000 0.8660 0.8667 0.8662 0.8678 0.8682
715.000000 0.8679 0.8717 0.8739 0.8749 0.8757
710.000000 0.8764 0.8771 0.8779 0.8786 0.8794
705.000000 0.8800 0.8807 0.8845 0.8849 0.8859
700.000000 0.8893 0.8897 0.8900 0.8904 0.8911
695.000000 0.8912 0.8933 0.8930 0.8928 0.8925
690.000000 0.8921 0.8915 0.8929 0.8932 0.8921
685.000000 0.8910 0.8900 0.8921 0.8910 0.8890
680.000000 0.8906 0.8889 0.8936 0.8942 0.8979
675.000000 0.8970 0.8903 0.8858 0.8780 0.8722
670.000000 0.8722 0.8936 0.9107 0.8735 0.8213
665.000000 0.8071 0.7980 0.7875 0.7767 0.7688
660.000000 0.7643 0.7603 0.7585 0.7584 0.7582
655.000000 0.7558 0.7525 0.7519 0.7485 0.7483
650.000000 0.7458 0.7497 0.7695 0.7825 0.7883
645.000000 0.7959 0.8031 0.8097 0.8177 0.8230
640.000000 0.8274 0.8338 0.8370 0.8394 0.8458
635.000000 0.8498 0.8489 0.8509 0.8516 0.8510
630.000000 0.8525 0.8533 0.8500 0.8494 0.8445
625.000000 0.8379 0.8287 0.8223 0.8213 0.8210
620.000000 0.8397 0.8495 0.8616 0.8678 0.8705
615.000000 0.8757 0.8796 0.8812 0.8842 0.8873
610.000000 0.8904 0.8934 0.8965 0.8958 0.8963
605.000000 0.8980 0.8999 0.9017 0.9035 0.9053
600.000000 0.9071 0.9087 0.9102 0.9116 0.9130
595.000000 0.9143 0.9151 0.9160 0.9168 0.9177
590.000000 0.9187 0.9198 0.9209 0.9199 0.9201
585.000000 0.9189 0.9141 0.9115 0.9093 0.9071
580.000000 0.9063 0.9057 0.9059 0.9033 0.9032
575.000000 0.9038 0.9072 0.9078 0.8998 0.8787
570.000000 0.8768 0.8749 0.8749 0.8870 0.9122
565.000000 0.9249 0.9291 0.9310 0.9340 0.9369
560.000000 0.9399 0.9408 0.9413 0.9411 0.9409
555.000000 0.9380 0.9347 0.9324 0.9286 0.9291
550.000000 0.9295 0.9292 0.9291 0.9317 0.9343
545.000000 0.9368 0.9392 0.9417 0.9439 0.9459
540.000000 0.9473 0.9494 0.9544 0.9566 0.9599
535.000000 0.9588 0.9575 0.9596 0.9590 0.9585
530.000000 0.9580 0.9573 0.9567 0.9562 0.9582
525.000000 0.9589 0.9583 0.9576 0.9569 0.9563
520.000000 0.9556 0.9550 0.9543 0.9535 0.9529
515.000000 0.9517 0.9507 0.9497 0.9486 0.9475
510.000000 0.9466 0.9455 0.9445 0.9433 0.9421
505.000000 0.9408 0.9396 0.9384 0.9370 0.9358
500.000000 0.9346 0.9333 0.9321 0.9309 0.9295
495.000000 0.9283 0.9271 0.9256 0.9242 0.9227
490.000000 0.9212 0.9198 0.9184 0.9170 0.9155
485.000000 0.9141 0.9127 0.9113 0.9098 0.9083
480.000000 0.9069 0.9055 0.9041 0.9027 0.9012
475.000000 0.8997 0.8982 0.8969 0.8955 0.8939
470.000000 0.8918 0.8900 0.8881
##END=
