##TITLE=1,1-Dichloroethene
##JCAMP-DX=4.24
##DATA TYPE=INFRARED SPECTRUM
##CLASS=IUPAC A
##ORIGIN=NIST, Analytical Chemistry Division, 301-975-3108
##OWNER=COPYRIGHT (C) 2001 by the U.S. Secretary of Commerce
##DATE=01/06/01
##$SPECTRA VERSION=1.10
##$UNCERTAINTY IN Y=2.2 % relative (B=1.21E-04,C=2.69E-10,D=8.94E-16)
##CAS NAME=1,1-Dichloroethene
##CAS REGISTRY NO=75-35-4
##MOLFORM=C H2 C Cl2
##MP=-122.1 C
##BP=37 C
##$NIST SOURCE=QUANT-IR
##SPECTROMETER/DATA SYSTEM=IFS66V (Bruker)
##INSTRUMENT PARAMETERS=KBr Beam Splitter; MCT Detector; Multipass cell
##STATE=gas
##SAMPLE DESCRIPTION=1,1-Dichloroethene Primary Gas Standard
##PRESSURE=101.3 Pa
##TEMPERATURE=23 C
##SAMPLING PROCEDURE=1 L/min Flow
##RESOLUTION=1.9290
##DATA PROCESSING=Happ Genzel Apodization
##XUNITS=cm-1
##YUNITS=(micromol/mol)-1m-1 (base 10)
##XFACTOR=1.0
##YFACTOR=9.0949E-13
##DELTAX=0.9645
##FIRSTX=575.652
##LASTX=3974.606
##FIRSTY=6.43E-06
##MAXX=3973.64
##MINX=575.65
##MAXY=.0008755
##MINY=-6.66E-07
##NPOINTS=3526
##XYDATA=(X++(Y..Y))
575.65 7072244 7860231 8945335 10421577 12259341 14550058
580.47 16460722 19057354 21638742 25101728 28965654 33036889
586.26 36850098 41281317 46617609 52369066 57691504 63253929
592.04 68330013 72335085 75049163 76835299 77175506 76570836
597.83 73888715 69131309 63415216 58921487 56727979 56520707
603.62 57018504 61258830 70355131 81747682 89489438 92248122
609.40 90321102 85884345 79800881 73094323 65922886 58595051
615.19 51302225 44671303 38266172 32871762 28208176 24472893
620.97 21189989 18604899 16193923 14300902 12411170 10764021
626.76 9135237 7855207 6264481 5250688 4359966 3704998
632.54 2840645 2213525 1556027 1366399 1068112 857062
638.33 413004 358885 294716 257675 56411 122565
644.11-40453 192445-10760-44704-113274 117549
649.90-20242-85749-272571-92092-178338-122526
655.68-166232 114961 6883-61728-292685-147975
661.47-142326 150413 83670 154246-93036-131977
667.26-160731 98075 2238 151328 9661 31225
673.04-72417 78692 80603 389410 469548 850500
678.83 745109 250662-86596 171916-34247-107619
684.61-73562 172071-26735 177573 112684 155812
690.40 5813 80509-11039 152457-82665-146723
696.18-254502 30283-137887-59858-129989 112132
701.97 28243 20847-281576-182990-196871-10221
707.75-149737 80857-55098 44766-118376 541
713.54-162479 26703-31015 22489-205858-25632
719.32-155704-47117-188237 40788-56332 103872
725.11-136781 38219 26080 171385-21739 124451
730.90 140 117211-53983 135877 37443 151653
736.68-4225 267253 176119 259183 135853 357773
742.47 253173 476843 403247 592540 450716 781292
748.25 780404 1146559 1279931 1738772 1992381 2737795
754.04 3200564 4063957 4883730 6290053 7649605 9726005
759.82 11806046 14671282 17681565 21419923 24974353 29390265
765.61 34010521 39060413 44122123 50684312 57883780 67290793
771.39 79549935 96443144 117756993 143543350 166314268 185411296
777.18 211862428 245746460 285908933 323210911 356123739 402437954
782.96 443781137 456763751 470438601 513737349 528273909 465155990
788.75 417504977 427524270 458265672 534455178 610265882 609425907
794.53 592892949 412514876 324215054 400770297 470366972 495718849
800.32 503991094 505053318 487872360 451735793 398892077 337095638
806.11 272310780 211839884 158578624 115519540 81296004 56571394
811.89 38666066 27319926 19272709 14790400 11443994 9847207
817.68 8412922 7998223 7114532 7105601 6363647 6314084
823.46 5369311 5985236 6301346 9305336 9162350 6847087
829.25 5394562 6713668 7705751 9788751 10753655 12297317
835.03 13213769 15459519 16795409 19586404 21779826 25620835
840.82 28894370 33761981 38098940 44433181 50106570 57562157
846.60 63971894 72262099 79083233 88088242 95007066 101884528
852.39 107158439 114834802 120028161 124884585 125331059 126768018
858.17 126041627 141445085 193245204 226258176 175670424 135023184
863.96 114529622 103817849 127498625 556530416 962677226 528685932
869.75 166201443 120408657 132671714 151947731 170627980 158203973
875.53 151061881 148736214 150800600 148931392 149170139 146068308
881.32 144142906 138488524 133803700 125884406 119687725 114033730
887.10 112798926 97166921 79188812 68023161 59605548 50854258
892.89 43978229 37524030 32735529 26725605 22701354 19090901
898.67 17026937 14925845 13977468 12575111 12264921 11432750
904.46 11400610 10662579 10356634 9130432 8195894 6311125
910.24 4872764 3609397 4137914 4792541 6148501 6851744
916.03 7716601 7711996 7888076 7364774 7166475 6470411
921.81 6213389 5508127 5191272 4539024 4319642 3677613
927.60 3487673 3028161 3137327 3312984 5093072 6556558
933.39 4602690 2379953 2697919 2396964 2004243 1682611
939.17 1765509 1453895 1531387 1342884 1467318 1417297
944.96 1619972 1307263 1265315 1056761 1214471 1050364
950.74 1119743 914369 1022258 860590 900890 664519
956.53 776725 664224 749352 613674 720428 569128
962.31 678006 592556 728785 646076 695562 509532
968.10 605704 520890 776535 840177 755976 405349
973.88 392938 365651 680722 658377 694055 594179
979.67 654560 528506 547410 462682 534587 337111
985.45 350712 256831 268168 136097 201170 176165
991.24 218726 66788 168803 133224 242421 206017
997.03 269841 211955 308368 346851 558069 592906
1002.81 804641 785332 806232 879384 1052621 1046862
1008.60 1177728 1179554 1201603 1135292 1104819 1003935
1014.38 1118630 1280422 1630126 1431257 1176802 861963
1020.17 821680 893673 1105447 1160287 1173137 1164085
1025.95 1179281 1049755 954755 832325 719992 555199
1031.74 412786 321923 295790 253171 239704 214932
1037.52 223365 214828 254505 356006 379553 430266
1043.31 554821 764271 880782 1066423 1218994 1561837
1049.09 2053904 2667681 3222691 3887791 4399770 5391316
1054.88 6569952 8226491 10044837 12535814 15434420 19199354
1060.67 23472826 29436116 36529557 45237994 54571036 66491302
1066.45 80109249 95581470 111022679 128669387 147590122 165807972
1072.24 180082973 199861533 223568686 233054937 236385925 274556207
1078.02 302908527 281854630 298628514 398442347 422726615 346972898
1083.81 403258956 571067106 537493821 439399992 449849229 453621221
1089.59 452093882 423198094 406873914 423030585 492069203 472182552
1095.38 443830837 455556106 319971024 235071766 244528496 276221422
1101.16 302996795 320880642 323037350 311089359 284697237 249186331
1106.95 207742772 166126621 126759251 93208724 66057210 45853059
1112.73 31439102 21985823 15941405 12661949 11256994 11067350
1118.52 11715705 13092908 15358038 17427137 20497545 25236313
1124.31 30712984 37804162 49759566 57565274 60560229 65471730
1130.09 69221902 69688551 67543426 61872183 55154315 49910698
1135.88 50871852 80343164 122549863 88842427 44680138 37409393
1141.66 37935776 46455904 55908112 64736007 69373138 70794020
1147.45 67859189 62560816 54754861 46494406 37728696 30010549
1153.23 22764541 17163429 12398490 9069213 6389199 4799692
1159.02 3457160 2758378 2030654 1720563 1287907 1172322
1164.80 867177 851771 1045759 1912382 1561993 920387
1170.59 721552 891638 889062 1009905 917584 985693
1176.37 904222 863953 661453 628594 475647 514415
1182.16 431672 384985 200067 204576 173701 216973
1187.95 120717 159095 89050 153228 109444 127367
1193.73 55977 96142 75808 147615 134138 182761
1199.52 112134 84941 5541 120107 140956 204138
1205.30 130669 109441 43038 43828-25254-16104
1211.09-103412-94619-93684-23417-96618-96633
1216.87-145175-89743-92558-30899-83749-82994
1222.66-129031-64846-65251-30433-49780-33443
1228.44-94096-13731 36505 96688 44603 95016
1234.23 104924 167202 181817 254054 258522 309595
1240.01 295435 339702 327099 355003 296258 387846
1245.80 372418 337688 331130 435514 524887 597162
1251.59 345208 252972 309607 391389 390240 445355
1257.37 408188 406735 349993 326251 218492 188564
1263.16 92075 13171-39213 17832-40598-66419
1268.94-118368-55974-82296-61222-116253-68015
1274.73-46989-23400-85167-44782-53319 5803
1280.51 37858 64092 21305 105090 142811 170321
1286.30 151595 281764 360356 484311 558516 696255
1292.08 763629 914225 1065041 1274386 1427934 1594931
1297.87 1767588 2040801 2289314 2627283 2913397 3334648
1303.65 3738487 4222958 4679601 5224733 5716010 6149944
1309.44 6376827 6627152 6667945 6499799 5933657 5065333
1315.23 3855043 2826043 2497239 3153811 4306470 5506252
1321.01 6270771 6687045 6693594 6551305 6231640 5822291
1326.80 5324472 4901987 4423425 4016966 3665587 3409308
1332.58 3119166 2872143 2583996 2412505 2237285 2098324
1338.37 1854942 1723915 1484117 1234322 961225 827823
1344.15 767423 967641 1115357 1311956 1463865 1522513
1349.94 1323324 1146041 1087196 1200016 1370630 1482102
1355.72 1339210 1330440 1223225 1212940 1145403 1186690
1361.51 1159117 1338371 1444437 1586137 1764169 2028884
1367.29 2180404 2439761 2627912 3015094 3401491 3888758
1373.08 4134056 4499324 5107660 5999391 6531049 7008894
1378.87 7613577 8607260 9296768 9577460 9937021 10978002
1384.65 12048598 12334973 11392305 11228756 11990601 12979957
1390.44 13229684 14540081 13438845 11183048 11725294 12585239
1396.22 13239437 16163567 14813107 10928409 10532766 10994495
1402.01 10755236 10352218 10022568 9408427 8537136 7368206
1407.79 6126445 4775110 3406767 2225668 1345803 742943
1413.58 390362 223686 121616 28723-1462-68052
1419.36-76215-43760-42972-31561-66680-31729
1425.15 25259 16679-52974-23845-4113-1826
1430.93-36113-36580-34422 10448-9207-20252
1436.72-38560-36927-54404-33088-23734 6001
1442.51-11413-59346-122412-56409-38372-35413
1448.29-26751 41777 23938 6026 5376 36181
1454.08 50024 25904-72967-23925 10611 64895
1459.86 96565 123985 85742 83491 49355 105531
1465.65 102915 99603 78792 91804 73301 91874
1471.43 120723 217979 241619 259230 157995 119112
1477.22 102620 87141 47604 101457 105745 131968
1483.00 120243 101888 24385 44805 45387 54601
1488.79 13759 38549 8022 67310 101049 97105
1494.57 32081 51901 80493 97523 69101 113480
1500.36 139026 171600 149653 148996 81378 107936
1506.15 106201 164901 196691 277599 273580 315302
1511.93 336602 393517 434008 562885 598122 689339
1517.72 783317 933202 982903 1113092 1290389 1551861
1523.50 1782221 2058656 2397614 2919227 3425309 3916325
1529.29 4482805 5188235 5952836 6825924 7656503 8333185
1535.07 8919025 9558385 10189946 10858927 11904717 13952151
1540.86 17069355 18341702 16987453 17571262 19938170 22890215
1546.64 26034256 29432758 32858772 36403755 39876879 43377770
1552.43 46736089 50109774 53562363 57166970 60715107 64242134
1558.21 67678124 71041614 74029525 76245440 77130682 76795771
1564.00 75179856 72854716 69909831 67114594 64277680 62130359
1569.79 62425543 65191861 69636929 77487265 86418722 92360974
1575.57 92968457 88692382 82495674 75760076 68939403 62355191
1581.36 56074206 50324478 45165964 40804997 37437367 35411131
1587.14 34712241 35113380 35870895 36735058 37605658 38760834
1592.93 40457978 43040440 46613484 51359311 56889291 63059930
1598.71 69804470 77456668 86146079 96205934 107691186 120836187
1604.50 135590595 151882762 169534315 188200902 207345684 226696975
1610.28 245446319 262900700 277877662 289123129 295314437 295167174
1616.07 287832637 272864968 250250667 222762046 194391247 172369165
1621.85 167340477 191124396 244515206 306452514 350859281 367247522
1627.64 359533244 338239312 311191866 281324439 250203303 219319851
1633.43 190074403 163920990 141608638 122708928 106598518 92956278
1639.21 81176245 70932973 61726869 53334751 45574402 38418241
1645.00 31862085 26062939 20957046 16667563 13066649 10122380
1650.78 7647793 5742523 4373908 3411763 2615535 2047117
1656.57 1560161 1268543 1011627 842883 682725 608948
1662.35 539577 507257 430088 402834 337825 328388
1668.14 304425 347770 371449 427718 404774 444676
1673.92 457202 526245 549566 626203 674785 751118
1679.71 767127 787510 748224 719240 582324 601657
1685.49 656643 778515 965187 1002829 911945 922583
1691.28 853133 941667 1065298 965691 712340 708500
1697.07 685385 735140 751804 756593 651666 590923
1702.85 533180 530482 466718 479331 445681 502760
1708.64 510008 562398 538295 568949 621849 707225
1714.42 769909 904989 974920 1156924 1324759 1577776
1720.21 1777637 1977067 2130291 2394027 2594220 2812316
1725.99 3035026 3451761 3942249 4576487 5292360 6129409
1731.78 6864407 7613632 8291541 8941286 9328891 9497467
1737.56 9307026 8599388 7151947 5283369 3627182 3213937
1743.35 4228871 6177757 8136718 9630448 10352858 10482376
1749.13 10083040 9407487 8642426 7901619 7197663 6693756
1754.92 6154144 5688385 5242874 4883226 4410592 4031799
1760.71 3660523 3053570 2491768 2211529 1948225 1773335
1766.49 1529443 1374245 1201804 1066302 890845 914569
1772.28 1085884 1164313 1089198 904256 485249 368720
1778.06 318974 332255 308853 347922 304705 307286
1783.85 242388 305182 305008 359769 367067 395797
1789.63 354046 353739 287208 291122 281629 309864
1795.42 236318 204927 114800 86727 98599 213908
1801.20 228417 276438 263312 298297 237233 364958
1806.99 633783 522749 120388 53895 32333 130134
1812.77 138127 127785 60357 79209 35299 52682
1818.56 7112 29246-22804 11513-8917 21667
1824.35-33132-6173-42004-12698-51692-11708
1830.13-21132-6381-28872 11848-647 20597
1835.92-12034 63261 46485 72720 63190 131675
1841.70 136125 153335 136782 199627 191370 261740
1847.49 260995 322998 303627 349711 348125 377230
1853.27 399445 489841 464047 489996 452327 511523
1859.06 548196 629597 661489 735218 739643 831632
1864.84 874211 987201 1058215 1121031 1097666 1149956
1870.63 1150925 1207607 1184530 1224120 1189874 1217499
1876.41 1218382 1283592 1225242 1182939 1007634 889767
1882.20 753162 776069 848486 1039368 1173984 1300337
1887.99 1315643 1312888 1198824 1123669 1005419 957468
1893.77 809294 727677 637912 613379 473072 438835
1899.56 375906 411028 372547 361399 337613 356066
1905.34 285552 304853 307730 359973 316161 352255
1911.13 310341 321140 261591 255078 230991 294450
1916.91 313586 395825 391203 445818 434762 504368
1922.70 497977 553578 523363 526686 472672 521289
1928.48 486287 464666 418039 432346 350536 373507
1934.27 374983 421741 359840 329140 252289 290022
1940.05 290689 308258 194337 191826 155421 180875
1945.84 137339 140608 78510 107340 80360 90473
1951.63 23002 15996-50605-22549-83924-58409
1957.41-98257-83159-107820-50472-68082-59825
1963.20-77169-28587-79229-79525-80544-20631
1968.98-61885-45150-40043 28417 18760 67256
1974.77 52335 146587 157515 196697 172026 258905
1980.55 268630 325346 311093 339071 270470 299777
1986.34 298844 331378 288833 323799 334965 359154
1992.12 206746 173586 153441 196859 231134 341017
1997.91 313043 303498 184872 156662 83419 96330
2003.69 84439 113948 19603-21907-64314-31060
2009.48-68986-52626-86642-65351-125231-86082
2015.27-98957-70088-117824-54051-34170-21273
2021.05-88827-65127-98256-57853-86470-66392
2026.84-109431-78119-102229-46946-76326-48338
2032.62-91424-68594-96388-26904-40446-9206
2038.41-48870-40708-107782-106361-123073-49274
2044.19-81869-48645-56841-20705-66709-37182
2049.98-60992-18386-30577-25058-68123-18607
2055.76-65283-37245-68060-37881-62383-11557
2061.55-35929-13967-61775-29848-63324-25392
2067.33-13385 71756 37746 47448 36747 140221
2073.12 155333 186884 65725-5425-59939-14609
2078.91-26985 14436-58882-34306-67723-29662
2084.69-45776-9562-44260-3731-50813-20984
2090.48-73687-42744-54805 728-44668-38930
2096.26-84682-62611-83899-81458-112893-57048
2102.05-80584-70942-116075-74705-78412-87917
2107.83-148516-70195-77809-49258-128754-93413
2113.62-107725-44558-92794-68145-121398-78621
2119.40-85563-85346-155334-121485-158724-136261
2125.19-168664-119342-144390-136053-203602-170730
2130.97-187622-181105-252617-230796-256860-240930
2136.76-267525-225741-282699-258427-293056-263764
2142.55-309690-279423-319809-286528-347356-366690
2148.33-357623-289588-338720-298976-323056-289213
2154.12-347605-366728-404155-305705-321206-303446
2159.90-351080-344847-416414-395965-404897-312086
2165.69-311681-272307-303810-298304-410445-411099
2171.47-349698-245157-312649-306389-307860-216528
2177.26-272131-276981-322246-298550-308877-268560
2183.04-308378-297163-320860-249827-308818-310385
2188.83-307253-211191-240415-247191-332357-238924
2194.61-151366-74411-125453-90208-77482-8538
2200.40-67438-33858-26582 43421 23016 116081
2206.19 139621 340464 558792 506728 323114 384381
2211.97 399026 458034 442296 536893 541309 610354
2217.76 618949 666317 584757 583017 607923 735545
2223.54 745653 766858 689814 757218 848891 956232
2229.33 889802 851171 704331 627879 545206 504338
2235.11 375678 335689 252041 225982 130311 141703
2240.90 94357 78102-16635-2820-23513 5077
2246.68-73368-103524-141500-82223-123314-119255
2252.47-207954-200246-237895-181244-202256-185083
2258.25-246534-211067-247492-209422-230494-190144
2264.04-237775-207677-253182-204677-233576-209152
2269.83-245497-199080-206465-155348-217335-281982
2275.61-417035-392727-278092-90791-136878-172911
2281.40-208109-135105-220343-223853-232515-173496
2287.18-236391-227309-294111-248366-251554-227938
2292.97-278800-244501-279380-230979-249846-199893
2298.75-198620-160777-232441-202863-213051-144854
2304.54-175254-155951-202528-129025-119209-74909
2310.32-121345-72337-94652-41558-86923-69759
2316.11-114376-46997-30228 19625-20259 15092
2321.89-13553 36853 6041 88172 70551 104133
2327.68 80774 153456 115076 152071 149558 214384
2333.47 187636 228722 209060 213030 183729 263755
2339.25 210015 179066 121777 206361 247829 252462
2345.04 165740 206628 163439 198550 172846 245022
2350.82 199493 185511 110361 73431-50202-79193
2356.61-139803-120307-201491-192763-204941-131592
2362.39-162624-138805-163679-133167-172298-124048
2368.18-139061-99461-128715-67029-109259-125857
2373.96-180138-103153-88319-27503-52009-63383
2379.75-130626-56678-23070 20335-26310-6051
2385.53-26780 21614-14065 44129 52092 120425
2391.32 108086 143147 63280 102925 102555 163313
2397.11 170494 223006 204639 231964 212942 301662
2402.89 316394 383199 415896 529348 531614 654277
2408.68 675785 759827 816136 967952 1015991 1105261
2414.46 1132239 1261289 1332959 1408955 1397387 1495522
2420.25 1525031 1603282 1594826 1520341 1385539 1538088
2426.03 1614417 1583967 1542996 1680571 1474769 1283471
2431.82 1288297 1474161 1539788 1578883 1503606 1439739
2437.60 1226035 999935 700678 546978 368830 272742
2443.39 141504 120958 24289 31765 5936 60354
2449.17 27766 65722-2482 55418 50504 53524
2454.96-36782 92955 255722 181658-35746-10737
2460.75-5412 61296 27967 34066-59799-40860
2466.53-36331 45892 3976 49100 14653-11077
2472.32-67788 26331-33680-43505-71841-19225
2478.10-55147-40574-69687-9771-26451-534
2483.89-70886-41174-104345-76339-89549-42576
2489.67-75347-22099-76169-79376-122168-95419
2495.46-117454-44087-94068-110677-121862-63367
2501.24-110332-73341-133270-104317-121982-81687
2507.03-126060-66395-90746-33314-100010-67729
2512.81-85579-63285-133296-79017-97830-54093
2518.60-76520-35950-75002-32855-75463-43426
2524.39-86372-56926-103937-64459-57624 4230
2530.17-50396-31650-51876-23027-120929-57562
2535.96-103827-111015-149181-132361-169696-83851
2541.74-105459-99559-162931-154012-148891-62930
2547.53-128601-125214-150302-110062-177604-150404
2553.31-197898-147272-166483-143342-192886-133881
2559.10-189105-168717-162871-120252-149950-120027
2564.88-222549-196522-220743-184434-162113-76426
2570.67-161098-137358-187290-149668-174071-108911
2576.45-132076-105315-161070-104468-98409-52532
2582.24-105429-79301-149649-149821-190449-137981
2588.03-166439-96729-98206-69884-132496-105478
2593.81-148387-117850-137882-50163-58468-27449
2599.60-76192-28324-100347-81970-97259-28639
2605.38-58533-15586-46743 9933-11319 35850
2611.17 26670 93487 47724 72515 81600 163914
2616.95 96553 101924 69140 93004 5795 20818
2622.74 18870 86552 80770 140908 116580 146430
2628.52 114966 133626 102943 182991 182942 231488
2634.31 147077 137901 116336 177967 160503 163103
2640.09 117689 218823 199617 196942 165670 206604
2645.88 165118 226855 178153 174343 123749 216334
2651.67 192836 224506 125529 186047 234408 266909
2657.45 112215 137678 180202 282941 247765 275203
2663.24 215179 207492 133505 119963 55215 93234
2669.02 20887 36089-8394 32359-14461 30526
2674.81 446 11214-61224 30995 49245 102616
2680.59 69009 123460 66604 67600 41699 116825
2686.38 124274 180886 146991 219375 255136 332255
2692.16 292471 331788 291562 353283 301167 296647
2697.95 299950 383692 356596 407599 340869 300303
2703.73 183555 258068 323144 418792 439420 537284
2709.52 489556 472668 376253 358195 249818 227295
2715.31 125686 138453 103368 103744 27425 33377
2721.09-56614 28464 18990 37441-16253 10256
2726.88-3649 53029-14639-17158-60780-16492
2732.66-68998-53522-136067-116840-109678-10867
2738.45-8033 65608 45983 56246-18358 6960
2744.23-28379 42723 8335 32814-206 9490
2750.02-66466 15543 1507-22778-101594-34292
2755.80-116042-117023-88406 32015 4394 18348
2761.59-21049-24391-131963-113203-146449-84664
2767.37-134002-128890-195380-93325-170039-174148
2773.16-181400-113281-160124-133755-185711-116575
2778.95-121658-60724-119697-101585-160793-140315
2784.73-176342-158408-186210-60572-81571-84807
2790.52-141599-100722-145421-161475-223687-184651
2796.30-213012-97934-124375-137598-194013-169696
2802.09-216326-160483-179544-106514-164102-144075
2807.87-188433-129421-114166-81821-132530-105137
2813.66-152109-94629-116874-81971-97937-58410
2819.44-149729-135501-154728-42076-17410-7458
2825.23-114498-37735-47018-59330-84196 8840
2831.01-27989-11660-65440-38528-65431-838
2836.80-52835-16210-45899-36298-50813 40164
2842.59-59898-54756-58012-11079-60343 38429
2848.37-26036-73921-130904-104248-80634 764
2854.16-72264-31455-44614-19168-52930-17790
2859.94-75987 7109 13895 15753-96683-39871
2865.73-34317 78986 78636 61866 25196 104370
2871.51 11800 19729 62535 180652 103150 50746
2877.30-10612 71965 47957 90268 37856 73871
2883.08 49298 98017 66260 93410 86895 129027
2888.87 45218 51189 39319 51771-9724 37457
2894.65 2779 61190 4948 65072 15307 26606
2900.44 15594 60949 13718 102324 74640 75090
2906.23 10501 99416 62625 88234 122054 185062
2912.01 140431 189026 80873 86725 118193 260124
2917.80 245973 260543 197343 293979 325043 307377
2923.58 176111 176921 128126 174463 104274 150341
2929.37 153789 228498 279942 462930 455986 459105
2935.15 337474 353485 354444 433987 387290 431134
2940.94 368622 356671 401120 466860 383977 457281
2946.72 443046 433759 365451 422939 412135 484897
2952.51 409864 421367 387631 442093 430948 526775
2958.29 487048 524672 447999 486314 523241 533810
2964.08 394340 434500 359203 280856 231314 321781
2969.87 263107 286345 292004 312210 188683 174555
2975.65 178847 273178 210762 186876 181524 303558
2981.44 278392 314981 337907 431597 439710 543515
2987.22 544990 635484 649147 703252 709308 782152
2993.01 720939 758139 658590 617463 547566 535331
2998.79 344020 376068 447538 715792 851706 984469
3004.58 963660 935048 850237 805772 645650 576272
3010.36 483470 508218 443336 455334 419173 438099
3016.15 286373 274403 249048 308679 266802 299206
3021.93 218437 274824 311481 396766 366973 442948
3027.72 397936 415595 404936 549316 617877 694352
3033.51 673263 878591 977581 1062309 1026047 1043695
3039.29 988007 984457 814029 696677 521300 428674
3045.08 302456 461517 634590 897836 1008850 1119123
3050.86 1046775 980147 805701 788127 722931 654196
3056.65 513360 529957 470598 450484 320129 322355
3062.43 205475 186569 123547 111851-10556 36268
3068.22 38181 70118-9623-28876-79337 4427
3074.00-59275-65213-94710 9416 1423-14996
3079.79-121043-86579-103680-73343-110671-22309
3085.57 1247 34136-32729 15456-7397 10700
3091.36 877 23174-83987-43843-87229-44031
3097.15-45915-2138-73584-17967-65584-39036
3102.93-33851-7285-129539-131609-206703-168577
3108.72-173034-98722-86203-47479-115866-83331
3114.50-193346-223857-316729-278377-381530-387666
3120.29-404793-323742-393910-404321-404084-355841
3126.07-437680-372917-430334-399286-436794-387730
3131.86-433294-404173-424803-362183-430012-352482
3137.64-354328-318097-316632-257475-331298-246838
3143.43-207824-177874-296797-326559-394593-314974
3149.21-347037-353592-369270-240711-231018-209168
3155.00-237349-127371-96020 17446 31564 104110
3160.79 119860 282006 365594 505705 482917 554650
3166.57 618078 826409 926120 1084862 1141558 1325883
3172.36 1454277 1631013 1775871 2060112 2219623 2354541
3178.14 2453945 2730831 2812283 2975855 3122584 3295601
3183.93 3256629 3338762 3337355 3300129 3152533 3129737
3189.71 2999791 3004995 2938181 2839043 2742728 3000652
3195.50 3390814 3889982 4066524 3972771 3607559 3281996
3201.28 2911341 2563770 2127510 1747851 1313369 1062505
3207.07 806832 642609 408008 323083 231828 276248
3212.85 195470 107523-63034-95296-174305-178332
3218.64-312916-334606-396285-344178-384773-354341
3224.43-295357-188822-219538-69600-27444 48266
3230.21 27663 109012 102362 154266 186378 387655
3236.00 452811 542942 564643 636143 615055 640593
3241.78 567688 630075 595650 554516 472923 540471
3247.57 536962 606746 595517 638983 572918 505213
3253.35 283883 188598 7073-69564-231280-311020
3259.14-428436-418588-544954-606564-733137-627268
3264.92-647932-613338-618137-532319-556078-587135
3270.71-677270-559537-609684-596640-577400-466226
3276.49-498498-463502-471451-396969-418231-344012
3282.28-405930-350695-318402-208743-236720-198369
3288.07-193230-161143-205170-145265-152493-18842
3293.85 12293 82308 24180 88941 136888 218762
3299.64 144384 199988 173958 155665 71891 120913
3305.42 130913 185389 115730 151644 56533 157063
3311.21 200615 289847 274344 293106 170622 184680
3316.99 170845 196423 129506 129756-20806 48478
3322.78 127341 160890 69217 149841 89100 84542
3328.56 37002 109441 87143 117164 81207 138260
3334.35 7655 72734 140752 195687 98335 152244
3340.13 124504 134698 179750 257335 176606 196006
3345.92 190669 290246 259070 216863 73871 115400
3351.71 73727 128253 111988 192349 251725 407090
3357.49 359593 260665 165413 288393 300321 216322
3363.28-29607-19362 40689 52769-46471 27700
3369.06 9502 72253-47011-69257-109945-63457
3374.85-106578-69613-164253-169186-151473-61251
3380.63-85894-66018-151711-87887-63531-9146
3386.42-136033-133936-110929-16880-135950-162086
3392.20-164686-55635-96446-53811-105357-52455
3397.99-77383-14952-61427 19932 26977 34790
3403.77-31369 18151-10977 71105 72916 95800
3409.56 16507 67552 25441 29837 61730 176714
3415.35 170851 185795 12320 4864-17918 136082
3421.13 113587 146687 93468 160710 128599 152800
3426.92 41088 63108-2766 68875 81281 74163
3432.70-96517-101948-59799-4423-108786-35897
3438.49-14143 13621-60326-66756-70899-84131
3444.27-180497-52536-95173-121194-145136-67897
3450.06-124862-83595-143834-101852-135545-146140
3455.84-225096-95405-50379-50577-179552-162085
3461.63-235451-168331-237168-198213-184317-133668
3467.41-237142-177731-207539-180125-247842-187990
3473.20-230437-108842-128313-159163-207115-111903
3478.99-127765-117807-212103-148977-138052-68328
3484.77-81498 38371-10381 1633-118963-59445
3490.56-43865 23336-15142 79839-7194 30836
3496.34 57246 189357 174234 168615 134563 246623
3502.13 252737 299442 235879 280159 224240 167180
3507.91 58320 91500 1312 71285 106677 262590
3513.70 325791 325817 245884 277524 169898 192446
3519.48 118004 113859 113651 143459 31824 11936
3525.27-107807-47517-31935 27089 20863 44319
3531.05-68110 7030 9577-23247-101146-58571
3536.84-124800-15542-7050-35457-111416-32271
3542.63-62187-37430-66196-26252-94411 33312
3548.41 23712 10971-110183-95163-143192-112899
3554.20-66113-15316-102008 3203-43796-59202
3559.98-138499-62247-69320-11840-102513-81975
3565.77-78137-18423-66931-82443-142569-24906
3571.55-70965-17356-72715-69862-153063-89842
3577.34-109781-51078-110704-45903-94904-31477
3583.12-19236-13973-107843-69363-94951-32912
3588.91-80646-54004-113435-39303-31611-1156
3594.69-86962-62841-152221-90139-109151-32750
3600.48-33871 6937-85456-70089-183351-165306
3606.27-157581-86493-140727-72666-55153-8304
3612.05-109361-69168-85564-37456-64329 13967
3617.84-73278-41826-59436 36772 21670 31536
3623.62-16873 13786-34737-27174-95615-21577
3629.41 3280 51622 33583 115618 31659 54280
3635.19 42941 130313 94040 164301 149904 193674
3640.98 165048 206701 114503 166121 100038 134480
3646.76 80565 124222 79635 205440 170026 182994
3652.55 132430 196445 155285 202809 84333 130021
3658.33 136755 203167 118505 133267 54896 82858
3664.12 41520 115876 51101 81672-22359-22048
3669.91-111321 10532-3341 23617-118703-161362
3675.69-162184-71359-74512 3443-87262-85211
3681.48-152049-42896-32381-23004-112671-50110
3687.26-133050-119305-212240-171375-158125-58734
3693.05-55066 7931-67137-9990-57594-29891
3698.83-85843-61669-128863-53886-100378-73649
3704.62-152556-115998-109689-38000-127030-88599
3710.40-156303-99829-53567-19574-117727-98309
3716.19-123999-48751-126066-37871 744 73337
3721.97 39089 117793 78977 133850 146789 267843
3727.76 170251 242325 239160 267839 245230 294723
3733.55 218811 262546 153895 185960 212735 409265
3739.33 352851 307243 279224 366692 166786 66667
3745.12 107745 266491 248466 274981 250527 304593
3750.90 145844 97977 14718 102466 44555 28235
3756.69-60468-15218-60548-33105-90091-18102
3762.47-81545-79527-130799-74749-91689-64207
3768.26-131815-102170-139375-56812-58301 3609
3774.04-85017-77297-117557-13251-68997-85276
3779.83-136872-67993-34510 48454-57706-49502
3785.61-121456-50645-70598-43185-103581-35302
3791.40-79661-81007-146493-97388-133815-78935
3797.19-120021-32145-21780 14606-69871-74450
3802.97-124964-23009-137747-156862-162943-48816
3808.76-52743 5363-79387-70128-86323-1180
3814.54-137154-113900-100437-21116-91818-111838
3820.33-192959-92124-65975-5527-51499-24212
3826.11-139152-50967-87406-83848-138062-38961
3831.90-64561-71134-159087-60672-101934-113430
3837.68-120037-16393-135562-135859-138874-51600
3843.47-37812 94002 12638-8150-128549-92792
3849.25-121525-112132-201960-174190-272274-150840
3855.04-117469-71188-121163-11433-47662-52075
3860.83-153081-106133-161594-141188-114152 28544
3866.61-20863-79025-206713-138585-92445-29991
3872.40-118062-44927-85773-60510-87237-57970
3878.18-126538-41498-67294-276-33006 53490
3883.97-32950-66188-117761 2365-24244-15098
3889.75-52188 42996-5788 6240-65859-32371
3895.54-120654-32081-46944-13012-94277-48333
3901.32-35697 160188 155445 47299-23352 98001
3907.11 1009 1508-5835 60693-5601 51336
3912.89 35607 98867 56119 91838 53287 152343
3918.68 81256 169464 160049 229014 251217 285561
3924.47 163583 190537 90673 141215 102098 104667
3930.25 56360 185706 156856 202669 182173 199792
3936.04 156669 260179 202050 169932 46859 143128
3941.82 134003 125125-9484 38377-38707-4625
3947.61-38372-2410-71325 1515-56090 1803
3953.39-11799-30381-117392 4087-39653-28438
3959.18-146113-128430-128197-50452-123181-72168
3964.96-101772-48039-157731-87823-86890-846
3970.75-72349-61388-131428-116836
##END=
