##TITLE=1,1-Dichloroethene
##JCAMP-DX=4.24
##DATA TYPE=INFRARED SPECTRUM
##CLASS=IUPAC A
##ORIGIN=NIST, Analytical Chemistry Division, 301-975-3108
##OWNER=COPYRIGHT (C) 2001 by the U.S. Secretary of Commerce
##DATE=01/06/01
##$SPECTRA VERSION=1.10
##$UNCERTAINTY IN Y=2.2 % relative (B=1.21E-04,C=2.69E-10,D=8.94E-16)
##CAS NAME=1,1-Dichloroethene
##CAS REGISTRY NO=75-35-4
##MOLFORM=C H2 C Cl2
##MP=-122.1 C
##BP=37 C
##$NIST SOURCE=QUANT-IR
##SPECTROMETER/DATA SYSTEM=IFS66V (Bruker)
##INSTRUMENT PARAMETERS=KBr Beam Splitter; MCT Detector; Multipass cell
##STATE=gas
##SAMPLE DESCRIPTION=1,1-Dichloroethene Primary Gas Standard
##PRESSURE=101.3 Pa
##TEMPERATURE=23 C
##SAMPLING PROCEDURE=1 L/min Flow
##RESOLUTION=1.9290
##DATA PROCESSING=3-Term B-H Apodization
##XUNITS=cm-1
##YUNITS=(micromol/mol)-1m-1 (base 10)
##XFACTOR=1.0
##YFACTOR=9.0949E-13
##DELTAX=0.9645
##FIRSTX=575.652
##LASTX=3974.606
##FIRSTY=6.34E-06
##MAXX=3973.64
##MINX=575.65
##MAXY=.000734
##MINY=-6.23E-07
##NPOINTS=3526
##XYDATA=(X++(Y..Y))
575.65 6975693 7909898 9019113 10477681 12351940 14465591
580.47 16600579 19036704 21809774 25161048 29012125 32981012
586.26 36966938 41436084 46698442 52282341 57744657 63160566
592.04 68147026 72098855 74896055 76567789 77021880 76193659
597.83 73528351 68953405 63640178 59319927 57093621 56622158
603.62 57696853 62106583 70781965 81078501 88623976 91405243
609.40 89892056 85583376 79700279 73004824 65902496 58592320
615.19 51430454 44698485 38456786 32989961 28382646 24541938
620.97 21324240 18624234 16296665 14290571 12464496 10755867
626.76 9210206 7785213 6380821 5260147 4412957 3656421
632.54 2893966 2196496 1650702 1335825 1094293 804645
638.33 492860 347575 308626 218032 116365 67469
644.11 45459 99707 32959-63473-47321 39368
649.90 4694-119412-194608-152172-141067-152430
655.68-95491 32805 26347-103068-212827-186402
661.47-77333 72582 121653 85022-44106-141951
667.26-96948 21266 59640 86607 50817-2717
673.04-15373 39777 147917 335718 535488 754345
678.83 683417 270277 31071 76031 1067-99515
684.61-23378 78170 60415 115482 144721 109289
690.40 58067 38095 47982 67653-38643-168494
696.18-169371-66419-78599-100948-59955 39988
701.97 55899-45935-195754-217423-146462-84214
707.75-66976-1215 3202-17908-52356-65525
713.54-84258-32111 3517-43188-116677-97524
719.32-96779-108290-105128-34838 7307 14626
725.11-45569-11146 69591 95337 54862 60211
730.90 59139 49574 26789 68212 91560 86785
736.68 89078 185885 223141 206546 213859 282396
742.47 329081 406344 468060 514706 554220 702943
748.25 864154 1087297 1355261 1684219 2098172 2668998
754.04 3289408 4038266 5005943 6262247 7796345 9706110
759.82 11965150 14676361 17831550 21365020 25147857 29406864
765.61 34106058 39039025 44412818 50771159 58295578 67772405
771.39 80390834 97200729 118574375 143003902 165620948 186764233
777.18 213142702 246877886 285417664 322342274 358599571 401568144
782.96 438668907 456873293 475803084 508775376 514117350 468136793
788.75 427790055 431061494 466162492 535134293 595259811 608693719
794.53 561696875 430080500 353379194 399235560 462550818 492712768
800.32 502787918 501763490 484570522 448739034 397350375 336529975
806.11 273110357 213076621 160418984 117039310 83013235 57734308
811.89 39865560 27859314 19943003 14950726 11790764 9838010
817.68 8631556 7874332 7312582 6929645 6536319 6099366
823.46 5707223 5864038 6849341 8688882 8815001 6966296
829.25 5930290 6604482 7950145 9539307 10906766 12133735
835.03 13505633 15238384 17114146 19418220 22134392 25455994
840.82 29241843 33599270 38524084 44240988 50500240 57293755
846.60 64392531 71909616 79563674 87629542 95085503 101509153
852.39 107685426 114291321 120077463 123987480 125628684 126259472
858.17 128958213 147822979 190328488 210660817 178226164 137950442
863.96 117022388 108560177 199680107 556049720 807091431 546246704
869.75 220867789 130905073 133534651 152258197 164652593 159531593
875.53 151651880 149722551 149910725 149479365 148420803 146424887
881.32 143342161 138797276 133096969 126323761 119632973 115005377
887.10 110070177 96850423 80364632 68535945 59503495 51232632
892.89 44002748 37874126 32458758 27133419 22724690 19409470
898.67 16976665 15172371 13853976 12810847 12131067 11614244
904.46 11237316 10776171 10157768 9217298 7993830 6422003
910.24 4871127 3960397 4127417 4947257 6003136 6909299
916.03 7534422 7771874 7737319 7448745 7052719 6573280
921.81 6109718 5600325 5108954 4638568 4221962 3779815
927.60 3418555 3148889 3129537 3611561 5037427 5943134
933.39 4548876 2855120 2561362 2400045 2000862 1771089
939.17 1677392 1541025 1466778 1414949 1420033 1479163
944.96 1510953 1372445 1219252 1138222 1140953 1107795
950.74 1055224 985568 959209 911368 836785 741248
956.53 722616 712834 696830 670118 661197 628432
962.31 630836 644153 678027 681405 641567 572089
968.10 561152 592923 732452 823160 698742 476317
973.88 378818 438214 609324 678952 660688 631814
979.67 612366 563159 520032 500020 476808 384198
985.45 322873 283714 234543 179149 177335 196218
991.24 175382 121106 135413 167290 208715 231306
997.03 240882 246647 290562 385445 518388 632597
1002.81 756309 798322 810501 902547 1014723 1077335
1008.60 1149214 1188162 1181226 1146621 1086605 1048600
1014.38 1119475 1322915 1523225 1429727 1159291 916503
1020.17 836548 922899 1073624 1155965 1166641 1171291
1025.95 1150574 1058631 947744 835911 709175 560321
1031.74 420927 334489 291629 259485 236646 221695
1037.52 219782 223251 266455 340651 385859 441651
1043.31 572314 744569 896537 1056862 1256149 1584832
1049.09 2079550 2651668 3249444 3851395 4494649 5414266
1054.88 6664763 8243619 10175788 12594363 15602869 19270139
1060.67 23792379 29613167 36840529 45317135 55059995 66760147
1066.45 80470788 95536311 111450089 128859704 147513076 165042437
1072.24 181108319 200551090 221092851 231766040 242814648 272784482
1078.02 293973699 288459821 313866523 384800462 404562303 370533883
1083.81 424059728 534048462 526249641 459513365 447679016 453482207
1089.59 446509109 426082279 411903763 433336219 475586141 470482681
1095.38 452324918 427578853 330244961 251330530 248597422 275193286
1101.16 301544404 318005015 320622896 308473951 283138959 248094589
1106.95 207750664 166492061 127812938 94318792 67300201 46862429
1112.73 32325142 22578800 16434701 12990279 11470954 11217673
1118.52 11837951 13260840 15309636 17613879 20784976 25380616
1124.31 30963399 38717750 48992079 56702643 60929540 65255013
1130.09 68634110 69245131 66895981 61712102 55381823 51046816
1135.88 55756087 83077405 108512562 87257475 51307527 38620964
1141.66 39473414 46524029 55869528 63935142 68854792 69981484
1147.45 67479771 62084146 54705818 46376574 37941469 30067596
1153.23 23079829 17288489 12672663 9164466 6600110 4825761
1159.02 3587267 2737456 2119403 1684394 1358047 1124865
1164.80 932072 873312 1184089 1678547 1521857 992202
1170.59 794077 852451 919739 963280 954599 951278
1176.37 919089 827501 699470 599358 517282 485818
1182.16 444663 353867 240145 192202 192840 185905
1187.95 151116 133399 119075 128278 125777 106340
1193.73 80818 80500 96945 127738 149922 156863
1199.52 124643 70515 45451 98098 153473 175225
1205.30 144264 97430 58937 27304-7074-37588
1211.09-82181-100085-77068-53486-79067-109638
1216.87-122413-104363-76831-55465-70141-95286
1222.66-105549-80017-55582-43370-39915-51005
1228.44-65090-22811 41908 72901 66695 84223
1234.23 117538 155495 195319 238721 270132 294643
1240.01 309257 326062 338124 335348 327346 365069
1245.80 371872 340065 353739 429397 526340 534437
1251.59 377955 276492 316464 373787 403484 425685
1257.37 417742 393825 359060 307993 235648 173739
1263.16 97841 15075-16437-6371-31178-74766
1268.94-94090-75805-69920-78595-94298-76089
1274.73-43402-41944-63477-56852-38307-1686
1280.51 39535 48716 47150 93746 144002 158733
1286.30 181769 268903 371808 472170 573124 680462
1292.08 781414 911548 1077932 1262106 1432539 1593525
1297.87 1788225 2033162 2308716 2614207 2941214 3327877
1303.65 3756178 4214664 4698575 5212023 5709344 6109243
1309.44 6385382 6586246 6634685 6425946 5883752 5001229
1315.23 3889645 2947313 2675077 3238261 4317929 5425364
1321.01 6212911 6611094 6670652 6517259 6218318 5803980
1326.80 5340772 4889197 4438651 4024444 3684834 3400641
1332.58 3129602 2861754 2607901 2408577 2247229 2075760
1338.37 1879158 1700724 1485748 1226816 989557 836626
1344.15 818050 954065 1127421 1301296 1450224 1473756
1349.94 1329816 1164947 1119741 1207774 1363661 1431929
1355.72 1368923 1307231 1245846 1197480 1170054 1168840
1361.51 1201293 1320588 1454541 1589032 1783625 2003923
1367.29 2204882 2421391 2668975 3009167 3425419 3839683
1373.08 4160578 4537260 5164318 5928598 6527241 7025844
1378.87 7688843 8548185 9227749 9586595 10064770 10976592
1384.65 11918975 12102389 11545771 11379472 12048313 12822343
1390.44 13449198 14091474 13233577 11690351 11782422 12523585
1396.22 13683728 15375978 14359607 11571220 10668940 10873965
1402.01 10723940 10369004 9968657 9365983 8481759 7357769
1407.79 6105565 4772663 3439520 2279400 1394333 787404
1413.58 423044 235379 122372 40992-9093-57060
1419.36-68884-50145-39954-41167-53039-28627
1425.15 14440 4483-33735-27009-5965-9587
1430.93-28754-37567-25233-2633-6253-22759
1436.72-33821-41601-46206-36529-18783-3668
1442.51-15411-63903-97238-67030-39406-35990
1448.29-14276 24626 25350 7987 12052 31951
1454.08 44955 10216-43918-29006 16090 59139
1459.86 97647 110267 94447 75318 67969 92764
1465.65 104700 94812 86501 84447 81651 91727
1471.43 135159 202395 243230 235468 171410 121287
1477.22 104447 80843 66543 90282 111793 123250
1483.00 121174 88969 44346 38855 49244 43187
1488.79 28191 25858 26580 60666 96178 84359
1494.57 49048 51832 79966 87649 84025 108175
1500.36 142251 159748 155969 134224 101135 99944
1506.15 119715 157352 208263 259646 284393 309213
1511.93 345359 387854 452833 542973 611080 687003
1517.72 796184 912348 999891 1119115 1307474 1544193
1523.50 1792279 2067666 2432155 2914667 3423635 3928730
1529.29 4508609 5197297 5973309 6817674 7629569 8316525
1535.07 8929312 9556661 10196007 10925631 12080210 14146464
1540.86 16746549 17855782 17353091 17876000 20046173 22919158
1546.64 26083773 29433184 32883953 36387077 39885503 43349190
1552.43 46741453 50121363 53591934 57154280 60713802 64223625
1558.21 67668160 70972686 73897033 76005205 76920882 76562909
1564.00 75061872 72737624 69943759 67102018 64399609 62561242
1569.79 62870274 65472287 70254262 77675317 85889583 91417394
1575.57 92099244 88360262 82399372 75745370 68982169 62407150
1581.36 56169740 50427010 45308449 40978138 37676737 35643210
1587.14 34909922 35172723 35892114 36733438 37658100 38854173
1592.93 40617010 43212254 46824371 51494367 57005059 63157856
1598.71 69967838 77636603 86391009 96454723 107986542 121118527
1604.50 135863392 152121303 169715662 188281970 207385873 226587334
1610.28 245220827 262461522 277220401 288229919 294196735 293895208
1616.07 286490342 271504911 249395781 222597282 195510769 175362528
1621.85 172434560 196387786 246029131 303327328 345901934 362981520
1627.64 357144123 337230410 310693770 281102771 250245440 219607840
1633.43 190620880 164600500 142211278 123199168 107036694 93282078
1639.21 81450027 71113601 61872176 53444537 45682566 38522097
1645.00 31998089 26182757 21103730 16786763 13184911 10202818
1650.78 7750262 5835697 4447736 3438251 2658726 2058330
1656.57 1597790 1271797 1029707 842032 700219 607614
1662.35 548246 497034 441303 393741 350027 323452
1668.14 318716 341856 379823 410849 418763 437089
1673.92 469873 515533 561478 618923 681957 738185
1679.71 770227 774452 752968 696794 613062 605820
1685.49 669527 789724 939356 978140 933060 904971
1691.28 883913 946314 1027265 935331 760929 700935
1697.07 701675 726413 752406 734392 662176 588899
1702.85 545695 516532 483583 467691 465172 490659
1708.64 521082 545996 550407 570850 629654 700721
1714.42 785724 890020 998249 1151073 1342980 1565451
1720.21 1780323 1965880 2153135 2379642 2600210 2810150
1725.99 3072422 3461894 3970286 4588193 5316899 6108008
1731.78 6870043 7598110 8289674 8892040 9292746 9432095
1737.56 9218000 8465859 7079649 5317550 3850330 3464580
1743.35 4396544 6176416 8056888 9491283 10250664 10386892
1749.13 10035929 9390318 8648617 7905522 7236407 6683955
1754.92 6170246 5689083 5261101 4860262 4429184 4032823
1760.71 3618360 3060642 2544338 2211117 1967275 1757617
1766.49 1548397 1368309 1211006 1056513 928185 939655
1772.28 1070464 1135038 1073415 857523 544508 375939
1778.06 333772 322234 323525 329608 316677 291251
1783.85 269180 290121 318179 348288 373794 380361
1789.63 364427 338945 302648 285905 291284 288672
1795.42 246929 191563 128509 91027 120106 192569
1801.20 237734 262354 275102 278156 272631 389802
1806.99 567081 467658 185307 56758 57832 110372
1812.77 138237 114340 79228 64407 49855 37767
1818.56 22976 12132-3544-2048 3984 2563
1824.35-14645-21189-26693-28463-34257-23551
1830.13-14044-15766-14751-606 8512 7510
1835.92 10961 43119 57601 63101 80226 117287
1841.70 141261 144324 154268 183296 209159 245282
1847.49 275910 304915 318622 338233 356331 373127
1853.27 414888 465514 476992 475052 472954 504368
1859.06 559084 617829 672058 719556 758629 819514
1864.84 889800 976926 1059593 1102631 1114484 1137389
1870.63 1164357 1189807 1199345 1207390 1204361 1209231
1876.41 1233585 1257689 1232208 1155301 1021721 882688
1882.20 784947 781492 872641 1026347 1175418 1277800
1887.99 1315476 1290025 1209008 1112655 1021522 935926
1893.77 824715 722680 653347 588575 496133 429728
1899.56 397049 394558 380342 356392 348123 336906
1905.34 304927 298560 320015 339093 334312 334574
1911.13 323341 305230 274223 248766 249817 283101
1916.91 328427 376614 405586 430244 453063 486910
1922.70 512878 534611 532955 512826 494636 502951
1928.48 491791 457150 432297 411479 372915 366124
1934.27 386540 398894 368931 317342 276307 279779
1940.05 297526 280728 218350 181882 170077 165026
1945.84 149246 125329 98353 93832 90496 73059
1951.63 37553 1385-29546-42771-64317-73895
1957.41-84923-93680-89847-67024-60503-67324
1963.20-62279-49480-67222-82592-66592-41933
1968.98-48350-50359-25490 10959 32883 51966
1974.77 75892 127727 166446 181355 195988 241137
1980.55 280832 309014 322411 318026 291618 290965
1986.34 308070 314683 305975 316184 341107 323518
1992.12 232040 172373 167851 191899 248341 312453
1997.91 320533 279953 205037 144799 102273 88518
2003.69 95262 88430 32305-25180-47693-47058
2009.48-55965-65004-73194-83630-103738-99088
2015.27-87857-87476-94323-65194-32223-38968
2021.05-68922-78990-81470-73776-74204-81257
2026.84-92485-91812-84182-65955-62218-64812
2032.62-75880-81507-75116-45576-28750-25384
2038.41-36800-57631-92100-113194-103151-72162
2044.19-66383-59531-45467-38889-49690-50138
2049.98-45887-31253-24309-37105-47819-39775
2055.76-48010-51515-53540-51283-45272-28634
2061.55-23994-30103-43818-45217-47033-33624
2067.33 3423 46680 49296 40036 61004 120476
2073.12 162334 155830 78235-5849-38718-28675
2078.91-13324-10308-37115-48752-51143-43039
2084.69-32717-26081-26759-23564-32839-39890
2090.48-54761-54301-38919-21008-31986-51405
2096.26-69531-73192-76915-90434-94147-74473
2102.05-71443-83899-97519-85734-76372-100605
2107.83-119627-89896-66884-73116-103621-106880
2113.62-89340-68989-75305-86309-100335-91048
2119.40-80866-101454-132975-138047-144318-149779
2125.19-150368-136262-134784-153277-182026-183102
2130.97-180041-198500-232450-242742-246098-251921
2136.76-251611-247322-264185-272878-277751-281115
2142.55-292152-295929-302878-306771-336942-364543
2148.33-343828-314315-318814-314316-308862-309378
2154.12-336932-373898-375739-330282-311258-318856
2159.90-337669-362613-396110-405199-382769-332516
2165.69-300923-288592-293395-323094-387101-403336
2171.47-338450-279868-295336-311857-287075-247005
2177.26-259081-287734-306683-307829-296591-286207
2183.04-295803-307104-299924-277132-294715-313305
2188.83-286746-237661-232148-265520-296373-243756
2194.61-149705-100910-106232-98037-63457-35560
2200.40-46760-42576-11352 23000 47588 99530
2206.19 174291 341906 512147 480581 370946 371531
2211.97 411190 440358 466438 516421 556970 595657
2217.76 629860 639379 602727 584101 629994 710647
2223.54 751693 745293 719394 757938 855353 921368
2229.33 898920 828062 720390 623533 555929 485139
2235.11 395157 324238 265995 209695 153293 127448
2240.90 103603 60324 6500-12678-11089-17587
2246.68-61264-108473-120362-104185-111055-140028
2252.47-186528-212550-216982-199118-191445-203177
2258.25-225065-228067-230162-223962-215484-210003
2264.04-219634-225476-232167-222566-220177-223783
2269.83-227003-212394-192312-179060-214237-298127
2275.61-385227-380220-261176-136708-130812-176840
2281.40-184348-168043-201329-228895-216284-199623
2287.18-219061-245246-269885-260955-243101-244968
2292.97-259681-260857-260566-246850-233860-212227
2298.75-188245-184399-210185-214133-194927-166595
2304.54-162207-171946-176866-144548-108953-95300
2310.32-99954-89461-76811-63435-71529-84963
2316.11-90366-59916-20514-277-2753-539
2321.89 4937 17723 30924 65767 84089 89623
2327.68 102378 129188 132725 141072 165427 194227
2333.47 203416 214494 216583 203520 207204 235885
2339.25 217878 170702 150602 195332 244603 232404
2345.04 192853 187082 181855 183246 194761 219792
2350.82 209065 170988 120876 54135-29422-88813
2356.61-121456-142452-181406-200469-185735-154169
2362.39-149038-151094-150182-149346-152879-139173
2368.18-125471-115716-108403-89508-100901-136392
2373.96-152855-118099-76489-46104-46246-76939
2379.75-101806-67382-17989 923-10878-16950
2385.53-10699 2648 6661 31234 66767 102044
2391.32 120806 118239 88900 91816 117008 150390
2397.11 181895 207062 216198 220064 235961 284597
2402.89 329451 373181 434646 504701 558052 631517
2408.68 691232 750768 837276 945356 1027317 1090291
2414.46 1154195 1247497 1337271 1389621 1420864 1479493
2420.25 1537237 1584700 1586469 1505349 1441457 1520265
2426.03 1598968 1577940 1580399 1613811 1481570 1315190
2431.82 1323716 1449122 1538647 1555119 1509398 1409431
2437.60 1227645 982974 730676 538528 387326 262383
2443.39 165460 102963 47126 21574 24501 40387
2449.17 45013 42008 24625 40012 55884 32909
2454.96 5750 96712 215463 153083 11736-18781
2460.75 9739 39298 39294 11912-35423-47681
2466.53-18155 19257 23916 30914 20053-20803
2472.32-36156-5966-20393-50701-53621-38808
2478.10-42418-52114-49944-27432-14667-22098
2483.89-48429-62314-83784-87775-74808-60943
2489.67-55737-45355-63241-90073-106146-107975
2495.46-96420-69960-84606-113067-105767-86343
2501.24-90882-95114-113087-116825-107413-101289
2507.03-102759-86279-71152-60420-77632-81044
2512.81-74127-84230-106544-96509-82489-69946
2518.60-61198-54331-56233-52271-57888-60986
2524.39-69327-74631-84613-74126-43852-20656
2530.17-33145-42785-38544-50773-86824-82015
2535.96-92680-120247-135690-146053-143471-107185
2541.74-96650-115530-146533-158384-130396-94332
2547.53-111993-134386-134434-133777-156075-168326
2553.31-175974-163970-154758-160625-169005-158664
2559.10-171678-174840-152841-136949-134946-148370
2564.88-194929-209818-206051-190941-146243-111896
2570.67-136507-155478-167004-165285-153647-129020
2576.45-118853-124353-136782-117596-87237-74330
2582.24-86962-100814-132961-161183-169641-156778
2588.03-144654-113510-88862-90181-112296-122159
2593.81-131134-131164-114271-71702-47038-46191
2599.60-54165-54542-79615-92393-77928-50654
2605.38-41101-33188-26747-8209 5004 21683
2611.17 44451 69187 64359 65706 98922 132772
2616.95 113877 91044 83338 69007 28060 13964
2622.74 34955 69692 96339 122105 129908 131938
2628.52 127523 120942 126806 164437 195972 203537
2634.31 164494 131964 134755 160282 167746 150517
2640.09 148185 193108 206407 188208 182445 187564
2645.88 188155 202530 190761 161173 154449 190250
2651.67 208133 195783 159049 179255 236276 228429
2657.45 149452 135986 195375 253855 263427 255437
2663.24 228516 191794 148220 106623 78070 68813
2669.02 41177 20865 11352 12146 6448 12717
2674.81 12233-8439-26933 13044 59969 82712
2680.59 89223 99265 80988 58883 63600 100778
2686.38 137082 160606 170047 208818 266627 307068
2692.16 311165 312963 314358 328681 313477 294380
2697.95 318210 359563 375145 382117 350064 282061
2703.73 222149 252162 332442 401383 457638 506857
2709.52 499534 454159 394697 337527 269729 208598
2715.31 150449 125777 113744 85768 46886 10975
2721.09-20053 6631 28377 20516 2012-964
2726.88 13124 26566 1232-28681-40807-38201
2732.66-52343-75475-113663-123175-89175-32300
2738.45 8918 44834 55487 36854 3907-8476
2744.23-4756 19373 23122 18484 11652-10428
2750.02-33488-6109 3937-36972-70558-65890
2755.80-97211-115836-67901 1336 15984 4927
2761.59-10477-47500-104659-127388-124564-109504
2767.37-119094-147264-159303-131086-151944-179246
2773.16-163515-138430-142267-152606-159230-134673
2778.95-105065-86855-101282-119799-142376-154469
2784.73-162598-171137-153917-91558-73968-98448
2790.52-120122-119921-136477-173693-201273-201561
2796.30-182362-127961-117708-149273-175509-186772
2802.09-193430-178688-158123-134768-145506-159983
2807.87-165968-140933-107525-100375-114534-122685
2813.66-129154-113078-102633-95090-83663-86409
2819.44-126165-146213-126630-62197-15521-33142
2825.23-76732-57570-43726-65384-58928-18828
2831.01-14056-28433-46799-52521-44536-26298
2836.80-32533-32177-34929-44898-27021 765
2842.59-36097-60799-44571-33209-28655 4466
2848.37-19008-78960-112799-108290-66306-31310
2854.16-47365-45281-33822-33688-36336-39144
2859.94-46001-11084 17617-9541-61338-54145
2865.73-10399 54547 79527 54374 50472 68800
2871.51 34283 21690 80361 141236 112092 44748
2877.30 19691 48077 64572 68771 58049 58850
2883.08 66387 79830 80389 83856 99338 102644
2888.87 65025 44505 47182 34599 14154 17961
2894.65 24534 35414 30980 40595 30542 18571
2900.44 29868 39702 43000 76631 84454 58605
2906.23 42929 72178 77844 86084 131039 161474
2912.01 162140 155856 106081 86605 142601 227444
2917.80 255938 241924 230422 278164 320309 282935
2923.58 204311 163204 150039 148617 129853 138171
2929.37 170842 219596 308678 423614 463255 431669
2935.15 367007 346013 373129 406720 408065 408150
2940.94 380883 363778 408386 435935 416704 437119
2946.72 448139 418958 392470 405851 432153 453392
2952.51 430278 408567 408022 425451 455250 497256
2958.29 506143 499335 472877 482198 522601 502309
2964.08 431565 409262 362527 282172 260574 290533
2969.87 282006 279391 298487 282470 212299 173779
2975.65 199048 241013 221627 186194 208549 272776
2981.44 293631 308611 354527 411969 461404 520590
2987.22 565378 617593 660354 690594 725799 753210
2993.01 743846 728610 673881 607513 563299 497183
2998.79 390078 376901 488288 686853 855953 953081
3004.58 966053 921547 861250 781070 666039 567762
3010.36 508831 487682 461502 442224 433962 402349
3016.15 316536 267074 268933 285697 285109 273917
3021.93 247746 266710 324691 371403 390954 416399
3027.72 413835 405822 437288 531061 624147 671540
3033.51 719336 854312 979771 1036434 1040050 1026250
3039.29 1002011 949955 828266 681712 540850 417165
3045.08 358792 458440 655801 865688 1013850 1081799
3050.86 1052756 956057 838408 775324 726356 636958
3056.65 546194 511510 482566 425575 349325 295638
3062.43 228009 173971 137451 87052 24615 23602
3068.22 47849 45992 5478-39030-50466-26894
3074.00-44248-73976-66355-14961 4195-35278
3079.79-91584-100061-91143-89595-84078-37882
3085.57 6863 12282-8036-1143 3489 2164
3091.36 10689-4669-52581-63768-67190-56459
3097.15-33247-27549-45862-41200-48054-46846
3102.93-25756-38574-103038-149595-181937-180512
3108.72-154933-113750-77257-71282-92583-114187
3114.50-173728-240453-287722-309165-359147-394402
3120.29-382574-355325-379048-406369-391175-384190
3126.07-405850-400368-409245-416511-416529-409322
3131.86-415368-417723-404961-390786-398838-371384
3137.64-343353-328355-301878-286132-298148-259459
3143.43-205056-208897-276166-338231-363456-339473
3149.21-338346-359366-339187-266319-224593-222430
3155.00-208104-146211-76620-4930 46640 89123
3160.79 150986 262821 380965 471388 504902 548107
3166.57 648970 801864 941739 1061669 1169098 1311478
3172.36 1466990 1621048 1805207 2033478 2219575 2343406
3178.14 2491260 2690043 2832347 2967986 3132398 3252359
3183.93 3283678 3319186 3335420 3275829 3179934 3105351
3189.71 3028766 2987969 2936240 2835093 2810348 3019303
3195.50 3414943 3828279 4022708 3920795 3618649 3270454
3201.28 2918949 2544316 2141600 1733640 1350577 1057043
3207.07 827573 625307 439379 317095 260757 249331
3212.85 198649 88320-33706-108452-156018-206690
3218.64-287799-346559-371444-365017-368326-352960
3224.43-282632-218520-181629-94292-16382 26245
3230.21 50661 88693 117249 146018 221496 358486
3236.00 461722 526724 577575 615526 627765 618402
3241.78 596503 608524 598398 543257 503851 523270
3247.57 554413 588005 609629 615131 577412 472705
3253.35 311858 167768 31008-89794-211782-322815
3259.14-400363-448519-527624-624321-685383-655856
3264.92-632911-625002-597496-556207-552854-602804
3270.71-634391-595280-593375-600083-556428-496540
3276.49-481858-475670-452095-419039-395892-373639
3282.28-380004-359503-300045-237733-220765-207987
3288.07-184724-178790-182106-162229-122235-42238
3293.85 24286 54502 50840 81443 147564 185931
3299.64 172605 180907 179504 139806 99883 109480
3305.42 143592 157968 140483 121992 97468 141373
3311.21 213712 266461 285403 262894 199858 175178
3316.99 182238 175280 146766 97157 23718 45590
3322.78 123561 133643 105604 119029 104262 72001
3328.56 63235 87687 101325 100279 103570 98612
3334.35 48282 68339 142973 163741 130199 133422
3340.13 134631 137841 189080 224933 198938 187071
3345.92 213968 262335 261913 193735 112305 95023
3351.71 95974 110821 133688 184109 273479 366591
3357.49 354493 257186 208819 264127 287734 182658
3363.28 20798-14598 35909 28377-10152 5459
3369.06 29824 34079-24413-77343-89821-84140
3374.85-87486-97708-144101-169014-134627-86006
3380.63-73293-89752-120109-99782-53183-46642
3386.42-107984-135063-93191-60206-114259-162760
3392.20-139759-87761-76072-75958-81484-71527
3397.99-56622-39569-33698 2264 31235 17382
3403.77-6189-644 13512 52341 81093 73038
3409.56 44376 46677 37382 31172 80515 150537
3415.35 180057 146160 48265-4389 20126 98130
3421.13 129611 125553 120608 137405 144320 122761
3426.92 70810 41729 26925 53663 82377 40332
3432.70-62587-97559-53272-37725-72223-49413
3438.49-9254-7982-45046-69422-68960-103703
3444.27-134849-88500-87435-125219-122377-97019
3450.06-101989-106915-120654-119959-126849-163322
3455.84-182721-115439-53629-78669-147647-184428
3461.63-204237-198553-212533-207691-172578-166860
3467.41-202110-199416-191782-202744-219182-212379
3473.20-195234-139244-125816-166542-176972-136529
3478.99-118244-141488-178843-163421-122483-88629
3484.77-51693 2012 6864-28358-80755-73010
3490.56-29149-1372 15035 40981 20974 23426
3496.34 81092 158397 180359 159127 165315 222861
3502.13 264835 274956 259928 257842 228357 153310
3507.91 88929 63735 35383 59930 132720 242115
3513.70 318299 307501 270728 247252 198503 170270
3519.48 134688 110752 123099 113557 53443-11369
3525.27-70464-60292-19941 11304 30757 14991
3531.05-29538-10386 7183-35357-74877-83403
3536.84-88167-38210-9460-48184-79053-56580
3542.63-47774-51627-48854-51315-53403 3103
3548.41 28411-13300-81093-110817-125500-113515
3554.20-61279-45067-61730-29891-32627-75959
3559.98-105361-82534-52445-43465-77854-89322
3565.77-63999-41964-56487-95607-104906-60466
3571.55-47017-42492-56827-90752-121340-110319
3577.34-90128-77912-82747-71720-69915-44914
3583.12-16336-36055-79471-85726-74373-57483
3588.91-62338-74433-84647-55945-22728-27019
3594.69-61712-89017-119348-110247-86894-51600
3600.48-21234-22209-60516-98674-154754-171966
3606.27-141561-113801-113968-86452-45012-39893
3612.05-78839-84379-69114-56035-39893-21444
3617.84-46416-55917-34174 12350 30312 17198
3623.62 1246-4432-20510-45159-65812-34577
3629.41 11581 35307 56590 80526 56057 43028
3635.19 65735 102920 118296 144230 165081 175878
3640.98 182939 176957 146366 138939 123950 112853
3646.76 103894 102213 116481 170455 184432 166165
3652.55 158498 171769 177370 166768 119797 117307
3658.33 152974 170559 142021 110976 79472 64727
3664.12 68166 84804 74556 51197 2853-44922
3669.91-66749-20301 10093-12057-96114-158275
3675.69-141494-93052-54528-32403-64830-103400
3681.48-114927-65919-27331-46187-79424-82335
3687.26-109686-144146-183025-181372-137888-80833
3693.05-39103-22354-37732-34286-38823-50006
3698.83-66245-83566-97705-81317-81739-97844
3704.62-126862-126426-92747-72341-98468-113004
3710.40-129445-105737-51728-47574-91845-111585
3716.19-100395-81952-90750-52028 11821 49110
3721.97 64744 91239 101234 120577 172481 221990
3727.76 207096 223252 249710 253991 263228 266623
3733.55 246451 228880 185291 178598 249596 357822
3739.33 360423 305159 305614 309548 189580 87581
3745.12 132999 230133 261400 260827 270269 260483
3750.90 171857 85504 51294 70578 57501 10006
3756.69-31243-36709-42307-53557-61553-47633
3762.47-64869-93722-107145-92201-79329-85735
3768.26-109693-119078-112954-76988-41619-28700
3774.04-62324-91418-86155-47193-57056-96109
3779.83-110956-78998-20481 9027-31314-69695
3785.61-90364-72180-57046-63970-75414-60428
3791.40-67194-97198-121150-117735-112374-101299
3797.19-91904-50825-12367-11772-50482-88279
3802.97-91547-67990-114936-159775-136404-75201
3808.76-36180-25552-57224-80204-62159-47114
3814.54-102588-121161-83539-52970-77607-128035
3820.33-155183-110702-54748-29789-32497-56107
3826.11-96219-79462-74630-99627-105175-66635
3831.90-55838-91180-120066-91087-91744-117392
3837.68-94879-62086-108667-141547-117728-70286
3843.47-10559 49619 29769-31915-94994-109687
3849.25-109477-135390-174815-203355-226527-172633
3855.04-109569-94035-86679-43329-36352-74808
3860.83-121188-129632-143388-144645-88613-10692
3866.61-17455-96351-166875-147402-84553-62335
3872.40-83442-70838-68941-74512-72343-80849
3878.18-93291-67287-44766-24094-5589 16763
3883.97-17948-74888-81575-29350-12647-28506
3889.75-23133 11697 10666-14389-41059-60461
3895.54-82735-56603-32493-39183-65989-60055
3901.32 2634 119533 141131 49762 16232 53042
3907.11 24014-4960 12372 31655 21810 33067
3912.89 54921 74680 75601 72683 84301 115160
3918.68 116274 146097 179220 215888 258509 251917
3924.47 196568 161367 123701 119539 114844 90039
3930.25 93967 151558 175579 186049 193651 183878
3936.04 188448 225558 212575 147586 92270 118243
3941.82 139945 96565 29598 9604-12895-22332
3947.61-20398-26920-39999-27730-29981-15868
3953.39-7827-48103-73908-31902-23558-57341
3959.18-116411-136915-108905-83148-95043-92656
3964.96-80525-83909-119009-106516-65613-34825
3970.75-51966-81174-111089-130065
##END=
