##TITLE=Trimethylvinylsilane
##JCAMP-DX=4.24
$$ By DXEDIT 1.05 (RS McDonald)
##DATA TYPE=INFRARED SPECTRUM
##CLASS=COBLENTZ III
##ORIGIN=DOW CHEMICAL COMPANY
##OWNER=COPYRIGHT (C) 1988 by COBLENTZ SOCIETY INC.
Collection (C) 2018 copyright by the U.S. Secretary of Commerce
on behalf of the United States of America. All rights reserved.
##DATE=1962/06/21
##NAMES=trimethyl(vinyl)silane
##CAS REGISTRY NO=754-05-2
##MOLFORM=C5 H12 Si
##SOURCE REFERENCE=COBLENTZ NO. 6638
##$NIST SOURCE=COBLENTZ
##$NIST IMAGE=cob6638
##SPECTROMETER/DATA SYSTEM=DOW KBr FOREPRISM-GRATING
##INSTRUMENT PARAMETERS=BLAZED AT 3.5, 12.0, 20.0 MICRON AND CHANGED AT 5.0, 7.5, 14.9 MICRON
##STATE=SOLUTION (10% CCl4 FOR 3800-1335, 10% CS2 FOR 1335-450 CM^-^1)
##PATH LENGTH=0.011 CM, 0.010 CM
$$SPECTRAL CONTAMINATION DUE TO CCl4 AROUND 1550 CM^-^1 HAS BEEN SUBTRACTED
##SAMPLING PROCEDURE=TRANSMISSION
##RESOLUTION=2
##DATA PROCESSING=DIGITIZED BY COBLENTZ SOCIETY (BATCH I) FROM HARD COPY
##XUNITS=1/CM
##YUNITS=TRANSMITTANCE
##XFACTOR=1
##YFACTOR=1
##DELTAX=1
##FIRSTX=454
##LASTX=3800
##FIRSTY=0.8701
##MAXX=3800
##MINX=454
##MAXY=0.9777
##MINY=-0.0036
##NPOINTS=3347
##XYDATA=(X++(Y..Y))
454.000000 0.8701 0.8711 0.8720 0.8728 0.8727
459.000000 0.8745 0.8751 0.8757 0.8762 0.8767
464.000000 0.8769 0.8771 0.8774 0.8774 0.8772
469.000000 0.8771 0.8769 0.8767 0.8765 0.8763
474.000000 0.8759 0.8753 0.8748 0.8742 0.8734
479.000000 0.8725 0.8716 0.8704 0.8690 0.8676
484.000000 0.8663 0.8647 0.8629 0.8609 0.8587
489.000000 0.8555 0.8523 0.8489 0.8449 0.8407
494.000000 0.8367 0.8306 0.8233 0.8151 0.8065
499.000000 0.7979 0.7894 0.7809 0.7699 0.7575
504.000000 0.7429 0.7259 0.7094 0.6894 0.6690
509.000000 0.6374 0.5942 0.5513 0.5083 0.4651
514.000000 0.4220 0.3798 0.3580 0.3535 0.3539
519.000000 0.3568 0.3992 0.4389 0.4785 0.5183
524.000000 0.5579 0.7090 0.7588 0.7815 0.7981
529.000000 0.8129 0.8259 0.8389 0.8493 0.8594
534.000000 0.8663 0.8726 0.8789 0.8834 0.8885
539.000000 0.8927 0.8962 0.9000 0.9038 0.9085
544.000000 0.9122 0.9151 0.9179 0.9208 0.9234
549.000000 0.9258 0.9281 0.9299 0.9318 0.9350
554.000000 0.9367 0.9389 0.9414 0.9430 0.9447
559.000000 0.9463 0.9476 0.9488 0.9501 0.9504
564.000000 0.9515 0.9520 0.9509 0.9507 0.9521
569.000000 0.9523 0.9521 0.9517 0.9512 0.9506
574.000000 0.9495 0.9474 0.9466 0.9460 0.9463
579.000000 0.9454 0.9441 0.9428 0.9414 0.9405
584.000000 0.9400 0.9403 0.9432 0.9474 0.9507
589.000000 0.9526 0.9539 0.9514 0.9544 0.9541
594.000000 0.9541 0.9539 0.9537 0.9532 0.9527
599.000000 0.9522 0.9519 0.9515 0.9512 0.9508
604.000000 0.9505 0.9501 0.9497 0.9496 0.9502
609.000000 0.9495 0.9491 0.9487 0.9481 0.9473
614.000000 0.9473 0.9472 0.9463 0.9465 0.9461
619.000000 0.9438 0.9422 0.9409 0.9394 0.9381
624.000000 0.9381 0.9367 0.9353 0.9349 0.9333
629.000000 0.9328 0.9309 0.9295 0.9292 0.9285
634.000000 0.9270 0.9265 0.9246 0.9225 0.9218
639.000000 0.9213 0.9197 0.9185 0.9172 0.9152
644.000000 0.9140 0.9126 0.9095 0.9073 0.9040
649.000000 0.9006 0.8944 0.8882 0.8804 0.8739
654.000000 0.8660 0.8581 0.8474 0.8339 0.8195
659.000000 0.7994 0.7750 0.7496 0.7216 0.6955
664.000000 0.6762 0.6307 0.5721 0.5186 0.4650
669.000000 0.4026 0.3396 0.2807 0.2230 0.1656
674.000000 0.1257 0.1216 0.1206 0.1199 0.1196
679.000000 0.1990 0.2950 0.3904 0.4728 0.4838
684.000000 0.4870 0.4888 0.4896 0.4859 0.4629
689.000000 0.4163 0.3705 0.3246 0.2786 0.2326
694.000000 0.1868 0.1406 0.1141 0.1110 0.1113
699.000000 0.1547 0.2466 0.3379 0.4296 0.4751
704.000000 0.4829 0.4984 0.5232 0.5511 0.5717
709.000000 0.5976 0.6232 0.6484 0.6719 0.6810
714.000000 0.6899 0.6960 0.7035 0.7090 0.7134
719.000000 0.7183 0.7200 0.7208 0.7203 0.7196
724.000000 0.7190 0.7187 0.7211 0.7149 0.7130
729.000000 0.7107 0.7082 0.7042 0.7008 0.6974
734.000000 0.6931 0.6883 0.6837 0.6779 0.6723
739.000000 0.6644 0.6553 0.6441 0.6325 0.6200
744.000000 0.6074 0.5844 0.5681 0.5499 0.5251
749.000000 0.4859 0.4160 0.2911 0.1661 -0.0035
754.000000 -0.0036 -0.0036 -0.0036 -0.0036 -0.0036
759.000000 -0.0036 -0.0036 -0.0036 -0.0036 -0.0036
764.000000 0.0092 0.0531 0.0972 0.1413 0.1853
769.000000 0.2382 0.3114 0.3561 0.3970 0.4185
774.000000 0.4426 0.4683 0.4866 0.5083 0.5324
779.000000 0.5721 0.5991 0.6126 0.6245 0.6331
784.000000 0.6411 0.6469 0.6514 0.6540 0.6556
789.000000 0.6559 0.6578 0.6564 0.6546 0.6532
794.000000 0.6521 0.6512 0.6492 0.6473 0.6438
799.000000 0.6393 0.6330 0.6266 0.6161 0.6042
804.000000 0.5916 0.5808 0.5694 0.5522 0.5378
809.000000 0.5240 0.5092 0.4946 0.4778 0.4525
814.000000 0.4331 0.4190 0.4033 0.3660 0.3377
819.000000 0.2931 0.2296 0.1662 0.1029 0.0393
824.000000 -0.0036 -0.0036 -0.0036 -0.0036 -0.0036
829.000000 -0.0036 -0.0036 -0.0036 -0.0036 -0.0036
834.000000 -0.0036 -0.0036 -0.0036 -0.0036 -0.0036
839.000000 -0.0036 -0.0036 -0.0036 -0.0036 -0.0036
844.000000 -0.0036 -0.0036 -0.0036 -0.0036 -0.0036
849.000000 -0.0036 -0.0036 -0.0036 -0.0036 -0.0036
854.000000 -0.0036 -0.0036 -0.0036 -0.0036 -0.0036
859.000000 -0.0036 -0.0036 -0.0036 -0.0036 -0.0036
864.000000 -0.0036 -0.0036 -0.0036 -0.0036 -0.0036
869.000000 -0.0036 -0.0036 -0.0036 -0.0036 0.0100
874.000000 0.0421 0.0739 0.1056 0.1372 0.1685
879.000000 0.1996 0.2305 0.2612 0.2846 0.3044
884.000000 0.3309 0.3661 0.4116 0.4398 0.4616
889.000000 0.4808 0.4927 0.5048 0.5172 0.5302
894.000000 0.5443 0.5637 0.5841 0.6002 0.6163
899.000000 0.6268 0.6354 0.6432 0.6517 0.6626
904.000000 0.6749 0.6853 0.6932 0.7017 0.7095
909.000000 0.7121 0.7155 0.7190 0.7216 0.7246
914.000000 0.7266 0.7282 0.7299 0.7305 0.7313
919.000000 0.7305 0.7303 0.7298 0.7292 0.7276
924.000000 0.7259 0.7236 0.7213 0.7175 0.7128
929.000000 0.7044 0.6933 0.6806 0.6648 0.6540
934.000000 0.6437 0.6332 0.6227 0.6116 0.5997
939.000000 0.5543 0.5171 0.4472 0.3864 0.3257
944.000000 0.2649 0.2041 0.1432 0.0824 -0.0036
949.000000 -0.0036 -0.0036 -0.0036 -0.0036 -0.0036
954.000000 -0.0036 0.0255 0.1072 0.1888 0.2704
959.000000 0.3520 0.4336 0.5040 0.5376 0.5694
964.000000 0.5983 0.6395 0.6681 0.6930 0.7184
969.000000 0.7676 0.7826 0.7913 0.7991 0.8071
974.000000 0.8131 0.8164 0.8185 0.8206 0.8226
979.000000 0.8241 0.8240 0.8251 0.8230 0.8218
984.000000 0.8196 0.8168 0.8115 0.8056 0.7988
989.000000 0.7915 0.7833 0.7751 0.7650 0.7551
994.000000 0.7464 0.7343 0.7177 0.6958 0.6715
999.000000 0.6185 0.5341 0.4638 0.3989 0.3339
1004.000000 0.2689 0.2043 0.1392 0.0741 0.0091
1009.000000 -0.0036 -0.0036 -0.0036 -0.0036 0.0615
1014.000000 0.1305 0.1996 0.2686 0.3377 0.4067
1019.000000 0.4685 0.4939 0.5621 0.6282 0.6810
1024.000000 0.7200 0.7572 0.7752 0.7925 0.8023
1029.000000 0.8120 0.8228 0.8349 0.8417 0.8477
1034.000000 0.8537 0.8597 0.8631 0.8664 0.8695
1039.000000 0.8726 0.8758 0.8790 0.8821 0.8847
1044.000000 0.8872 0.8897 0.8924 0.8949 0.8974
1049.000000 0.8999 0.9020 0.9028 0.9042 0.9060
1054.000000 0.9078 0.9095 0.9107 0.9130 0.9144
1059.000000 0.9141 0.9167 0.9179 0.9189 0.9187
1064.000000 0.9196 0.9207 0.9216 0.9226 0.9236
1069.000000 0.9244 0.9252 0.9259 0.9267 0.9264
1074.000000 0.9265 0.9278 0.9291 0.9313 0.9331
1079.000000 0.9359 0.9391 0.9431 0.9450 0.9458
1084.000000 0.9466 0.9472 0.9475 0.9480 0.9483
1089.000000 0.9487 0.9493 0.9505 0.9517 0.9529
1094.000000 0.9541 0.9552 0.9564 0.9571 0.9582
1099.000000 0.9590 0.9599 0.9607 0.9616 0.9624
1104.000000 0.9632 0.9640 0.9647 0.9667 0.9667
1109.000000 0.9685 0.9697 0.9707 0.9716 0.9726
1114.000000 0.9734 0.9744 0.9751 0.9747 0.9755
1119.000000 0.9765 0.9771 0.9777 0.9774 0.9763
1124.000000 0.9760 0.9752 0.9746 0.9740 0.9730
1129.000000 0.9728 0.9723 0.9714 0.9703 0.9692
1134.000000 0.9693 0.9686 0.9663 0.9650 0.9627
1139.000000 0.9601 0.9575 0.9572 0.9571 0.9559
1144.000000 0.9577 0.9583 0.9592 0.9603 0.9616
1149.000000 0.9634 0.9637 0.9641 0.9658 0.9658
1154.000000 0.9652 0.9646 0.9640 0.9629 0.9619
1159.000000 0.9608 0.9597 0.9586 0.9574 0.9563
1164.000000 0.9552 0.9538 0.9523 0.9509 0.9480
1169.000000 0.9465 0.9451 0.9436 0.9420 0.9404
1174.000000 0.9384 0.9365 0.9347 0.9327 0.9296
1179.000000 0.9262 0.9231 0.9197 0.9184 0.9192
1184.000000 0.9202 0.9206 0.9210 0.9212 0.9212
1189.000000 0.9211 0.9209 0.9197 0.9185 0.9170
1194.000000 0.9142 0.9126 0.9109 0.9094 0.9078
1199.000000 0.9071 0.9052 0.9032 0.9011 0.8990
1204.000000 0.8969 0.8949 0.8928 0.8907 0.8880
1209.000000 0.8851 0.8822 0.8794 0.8765 0.8728
1214.000000 0.8684 0.8634 0.8585 0.8535 0.8483
1219.000000 0.8428 0.8372 0.8302 0.8228 0.8149
1224.000000 0.8066 0.7982 0.7897 0.7770 0.7625
1229.000000 0.7480 0.7338 0.7198 0.7039 0.6496
1234.000000 0.6284 0.6079 0.5771 0.5426 0.5103
1239.000000 0.4782 0.4443 0.3808 0.0910 -0.0035
1244.000000 -0.0036 -0.0036 -0.0036 -0.0036 -0.0036
1249.000000 -0.0036 -0.0036 -0.0036 -0.0036 -0.0036
1254.000000 -0.0036 0.0205 0.0758 0.1310 0.1863
1259.000000 0.2233 0.2264 0.2292 0.2323 0.2361
1264.000000 0.2420 0.2493 0.2605 0.2758 0.2960
1269.000000 0.3619 0.4296 0.4576 0.4661 0.4675
1274.000000 0.4688 0.4701 0.4708 0.4715 0.4732
1279.000000 0.4750 0.4812 0.4896 0.5070 0.5266
1284.000000 0.5462 0.5658 0.5855 0.6051 0.6247
1289.000000 0.6455 0.6624 0.6928 0.7131 0.7269
1294.000000 0.7383 0.7472 0.7552 0.7653 0.7757
1299.000000 0.7861 0.7966 0.8029 0.8091 0.8152
1304.000000 0.8209 0.8279 0.8327 0.8368 0.8389
1309.000000 0.8406 0.8418 0.8430 0.8443 0.8455
1314.000000 0.8468 0.8479 0.8488 0.8523 0.8491
1319.000000 0.8497 0.8503 0.8502 0.8502 0.8508
1324.000000 0.8508 0.8502 0.8506 0.8503 0.8492
1329.000000 0.8479 0.8478 0.8465 0.8450 0.8433
1334.000000 0.8415 0.8397 0.8367 0.8330 0.8270
1339.000000 0.8237 0.8219 0.8222 0.8222 0.8230
1344.000000 0.8231 0.8235 0.8240 0.8248 0.8253
1349.000000 0.8252 0.8248 0.8243 0.8233 0.8225
1354.000000 0.8215 0.8204 0.8193 0.8188 0.8168
1359.000000 0.8150 0.8123 0.8090 0.8057 0.8020
1364.000000 0.7983 0.7947 0.7910 0.7866 0.7853
1369.000000 0.7850 0.7847 0.7847 0.7849 0.7848
1374.000000 0.7854 0.7861 0.7877 0.7888 0.7883
1379.000000 0.7879 0.7872 0.7872 0.7863 0.7855
1384.000000 0.7834 0.7771 0.7673 0.7554 0.7437
1389.000000 0.7331 0.7216 0.7068 0.6918 0.6768
1394.000000 0.6621 0.6441 0.6210 0.6010 0.5698
1399.000000 0.5334 0.5016 0.4618 0.3963 0.3308
1404.000000 0.2653 0.1998 0.1343 0.0686 -0.0035
1409.000000 -0.0036 -0.0036 0.0217 0.0735 0.1254
1414.000000 0.1773 0.2291 0.2812 0.3336 0.3856
1419.000000 0.4376 0.4894 0.5415 0.5906 0.6010
1424.000000 0.6105 0.6208 0.6312 0.6427 0.6578
1429.000000 0.6752 0.6859 0.6955 0.7023 0.7090
1434.000000 0.7109 0.7111 0.7110 0.7108 0.7100
1439.000000 0.7092 0.7083 0.7073 0.7045 0.7003
1444.000000 0.6965 0.6951 0.6972 0.7006 0.7055
1449.000000 0.7094 0.7141 0.7197 0.7233 0.7269
1454.000000 0.7304 0.7347 0.7389 0.7424 0.7461
1459.000000 0.7515 0.7566 0.7613 0.7664 0.7734
1464.000000 0.7796 0.7878 0.7949 0.8023 0.8086
1469.000000 0.8154 0.8212 0.8269 0.8326 0.8378
1474.000000 0.8425 0.8466 0.8503 0.8528 0.8574
1479.000000 0.8616 0.8647 0.8654 0.8640 0.8619
1484.000000 0.8606 0.8595 0.8588 0.8582 0.8582
1489.000000 0.8585 0.8587 0.8590 0.8584 0.8577
1494.000000 0.8571 0.8564 0.8546 0.8540 0.8523
1499.000000 0.8512 0.8489 0.8466 0.8447 0.8436
1504.000000 0.8420 0.8403 0.8392 0.8383 0.8372
1509.000000 0.8360 0.8340 0.8322 0.8310 0.8287
1514.000000 0.8270 0.8246 0.8229 0.8209 0.8196
1519.000000 0.8174 0.8138 0.8106 0.8113 0.8110
1524.000000 0.8115 0.8105 0.8108 0.8107 0.8114
1529.000000 0.8120 0.8132 0.8163 0.8201 0.8247
1534.000000 0.8301 0.8356 0.8343 0.8333 0.8352
1539.000000 0.8344 0.8270 0.8142 0.8053 0.7945
1544.000000 0.7874 0.7803 0.7763 0.7700 0.7642
1549.000000 0.7582 0.7537 0.7462 0.7384 0.7297
1554.000000 0.7238 0.7185 0.7118 0.7127 0.7247
1559.000000 0.7342 0.7422 0.7495 0.7590 0.7576
1564.000000 0.7532 0.7491 0.7456 0.7502 0.7574
1569.000000 0.7683 0.7789 0.8013 0.8042 0.8104
1574.000000 0.8120 0.8124 0.8122 0.8120 0.8103
1579.000000 0.8097 0.8076 0.8056 0.8023 0.7998
1584.000000 0.7935 0.7876 0.7818 0.7750 0.7684
1589.000000 0.7594 0.7478 0.7370 0.7196 0.6895
1594.000000 0.6570 0.6258 0.5956 0.5848 0.5838
1599.000000 0.5737 0.6211 0.6740 0.7302 0.8033
1604.000000 0.8464 0.8696 0.8799 0.8853 0.8904
1609.000000 0.8943 0.8970 0.8994 0.8999 0.9012
1614.000000 0.9025 0.9026 0.9029 0.9033 0.9045
1619.000000 0.9055 0.9068 0.9092 0.9108 0.9098
1624.000000 0.9099 0.9090 0.9105 0.9142 0.9199
1629.000000 0.9209 0.9198 0.9199 0.9188 0.9186
1634.000000 0.9176 0.9177 0.9173 0.9162 0.9157
1639.000000 0.9147 0.9147 0.9147 0.9186 0.9226
1644.000000 0.9282 0.9339 0.9379 0.9378 0.9382
1649.000000 0.9385 0.9389 0.9388 0.9376 0.9386
1654.000000 0.9383 0.9379 0.9374 0.9368 0.9349
1659.000000 0.9342 0.9336 0.9308 0.9292 0.9282
1664.000000 0.9272 0.9262 0.9254 0.9247 0.9239
1669.000000 0.9238 0.9238 0.9240 0.9243 0.9237
1674.000000 0.9235 0.9239 0.9241 0.9242 0.9244
1679.000000 0.9244 0.9245 0.9251 0.9261 0.9271
1684.000000 0.9280 0.9277 0.9274 0.9272 0.9269
1689.000000 0.9266 0.9261 0.9257 0.9252 0.9247
1694.000000 0.9243 0.9238 0.9234 0.9229 0.9225
1699.000000 0.9221 0.9217 0.9213 0.9209 0.9205
1704.000000 0.9201 0.9197 0.9194 0.9190 0.9186
1709.000000 0.9182 0.9178 0.9174 0.9172 0.9168
1714.000000 0.9166 0.9165 0.9163 0.9162 0.9160
1719.000000 0.9159 0.9158 0.9156 0.9154 0.9149
1724.000000 0.9145 0.9140 0.9136 0.9131 0.9127
1729.000000 0.9123 0.9121 0.9117 0.9115 0.9112
1734.000000 0.9110 0.9107 0.9106 0.9107 0.9107
1739.000000 0.9103 0.9111 0.9111 0.9114 0.9121
1744.000000 0.9128 0.9136 0.9143 0.9151 0.9160
1749.000000 0.9172 0.9185 0.9197 0.9210 0.9217
1754.000000 0.9221 0.9226 0.9230 0.9229 0.9228
1759.000000 0.9210 0.9200 0.9195 0.9188 0.9180
1764.000000 0.9172 0.9165 0.9158 0.9143 0.9131
1769.000000 0.9127 0.9123 0.9119 0.9121 0.9124
1774.000000 0.9128 0.9131 0.9138 0.9149 0.9150
1779.000000 0.9152 0.9153 0.9155 0.9158 0.9161
1784.000000 0.9162 0.9165 0.9170 0.9173 0.9179
1789.000000 0.9185 0.9190 0.9197 0.9203 0.9209
1794.000000 0.9216 0.9225 0.9225 0.9225 0.9217
1799.000000 0.9207 0.9188 0.9169 0.9145 0.9109
1804.000000 0.9102 0.9102 0.9098 0.9093 0.9092
1809.000000 0.9101 0.9106 0.9105 0.9104 0.9102
1814.000000 0.9096 0.9093 0.9089 0.9078 0.9067
1819.000000 0.9057 0.9031 0.9020 0.9011 0.8995
1824.000000 0.8979 0.8962 0.8946 0.8929 0.8912
1829.000000 0.8896 0.8878 0.8859 0.8841 0.8823
1834.000000 0.8813 0.8809 0.8818 0.8824 0.8838
1839.000000 0.8854 0.8878 0.8905 0.8930 0.8953
1844.000000 0.8968 0.8982 0.8993 0.8996 0.8999
1849.000000 0.9001 0.9002 0.9003 0.9004 0.9006
1854.000000 0.9007 0.9008 0.9015 0.9020 0.9014
1859.000000 0.9015 0.9017 0.9018 0.9018 0.9017
1864.000000 0.9017 0.9016 0.9015 0.9015 0.9015
1869.000000 0.9016 0.9016 0.9017 0.9018 0.9018
1874.000000 0.9017 0.9015 0.8999 0.8995 0.8992
1879.000000 0.8989 0.8985 0.8979 0.8971 0.8964
1884.000000 0.8953 0.8937 0.8930 0.8919 0.8894
1889.000000 0.8869 0.8845 0.8827 0.8796 0.8760
1894.000000 0.8725 0.8689 0.8654 0.8618 0.8566
1899.000000 0.8498 0.8430 0.8344 0.8256 0.8159
1904.000000 0.8033 0.7908 0.7766 0.7691 0.7677
1909.000000 0.7678 0.7667 0.7744 0.7872 0.8001
1914.000000 0.8130 0.8258 0.8345 0.8395 0.8444
1919.000000 0.8478 0.8509 0.8519 0.8529 0.8538
1924.000000 0.8550 0.8574 0.8590 0.8607 0.8606
1929.000000 0.8603 0.8600 0.8593 0.8586 0.8579
1934.000000 0.8572 0.8565 0.8556 0.8547 0.8534
1939.000000 0.8522 0.8520 0.8519 0.8529 0.8544
1944.000000 0.8563 0.8584 0.8605 0.8634 0.8668
1949.000000 0.8702 0.8751 0.8793 0.8824 0.8843
1954.000000 0.8858 0.8886 0.8898 0.8910 0.8924
1959.000000 0.9024 0.9071 0.9070 0.9070 0.9064
1964.000000 0.9039 0.9025 0.9007 0.8987 0.8973
1969.000000 0.8960 0.8960 0.8960 0.8962 0.8966
1974.000000 0.8976 0.8984 0.8991 0.8999 0.9001
1979.000000 0.9013 0.9014 0.9011 0.9009 0.9005
1984.000000 0.8998 0.8991 0.8988 0.8998 0.8998
1989.000000 0.8997 0.9000 0.9011 0.9024 0.9037
1994.000000 0.9050 0.9067 0.9021 0.8960 0.8909
1999.000000 0.8880 0.8895 0.8916 0.8938 0.8952
2004.000000 0.8966 0.8980 0.8995 0.9008 0.9022
2009.000000 0.9038 0.9053 0.9066 0.9080 0.9088
2014.000000 0.9096 0.9105 0.9113 0.9121 0.9131
2019.000000 0.9139 0.9148 0.9156 0.9164 0.9172
2024.000000 0.9182 0.9182 0.9185 0.9201 0.9205
2029.000000 0.9209 0.9217 0.9223 0.9229 0.9234
2034.000000 0.9239 0.9242 0.9246 0.9247 0.9248
2039.000000 0.9249 0.9250 0.9251 0.9251 0.9250
2044.000000 0.9247 0.9243 0.9240 0.9235 0.9232
2049.000000 0.9235 0.9239 0.9226 0.9223 0.9221
2054.000000 0.9217 0.9212 0.9208 0.9192 0.9184
2059.000000 0.9179 0.9175 0.9170 0.9166 0.9160
2064.000000 0.9155 0.9151 0.9147 0.9142 0.9138
2069.000000 0.9132 0.9128 0.9123 0.9118 0.9110
2074.000000 0.9106 0.9100 0.9095 0.9089 0.9083
2079.000000 0.9077 0.9072 0.9067 0.9062 0.9056
2084.000000 0.9051 0.9049 0.9046 0.9043 0.9040
2089.000000 0.9037 0.9035 0.9031 0.9028 0.9024
2094.000000 0.9010 0.9021 0.9017 0.9005 0.9009
2099.000000 0.9020 0.9021 0.9029 0.9038 0.9059
2104.000000 0.9083 0.9095 0.9107 0.9119 0.9131
2109.000000 0.9142 0.9155 0.9159 0.9166 0.9169
2114.000000 0.9174 0.9177 0.9181 0.9184 0.9188
2119.000000 0.9191 0.9196 0.9199 0.9194 0.9211
2124.000000 0.9215 0.9222 0.9227 0.9232 0.9237
2129.000000 0.9243 0.9248 0.9249 0.9250 0.9251
2134.000000 0.9252 0.9253 0.9254 0.9255 0.9257
2139.000000 0.9258 0.9260 0.9261 0.9261 0.9263
2144.000000 0.9264 0.9264 0.9266 0.9266 0.9267
2149.000000 0.9267 0.9268 0.9268 0.9268 0.9268
2154.000000 0.9270 0.9270 0.9271 0.9271 0.9271
2159.000000 0.9271 0.9273 0.9273 0.9274 0.9274
2164.000000 0.9276 0.9276 0.9277 0.9277 0.9278
2169.000000 0.9290 0.9293 0.9293 0.9293 0.9292
2174.000000 0.9292 0.9291 0.9291 0.9290 0.9287
2179.000000 0.9275 0.9275 0.9274 0.9274 0.9277
2184.000000 0.9279 0.9272 0.9272 0.9271 0.9271
2189.000000 0.9269 0.9269 0.9269 0.9269 0.9278
2194.000000 0.9282 0.9267 0.9277 0.9275 0.9275
2199.000000 0.9273 0.9272 0.9270 0.9268 0.9266
2204.000000 0.9265 0.9263 0.9262 0.9260 0.9259
2209.000000 0.9257 0.9256 0.9254 0.9251 0.9249
2214.000000 0.9247 0.9244 0.9241 0.9238 0.9236
2219.000000 0.9233 0.9230 0.9227 0.9235 0.9235
2224.000000 0.9233 0.9230 0.9227 0.9224 0.9221
2229.000000 0.9215 0.9211 0.9206 0.9201 0.9196
2234.000000 0.9190 0.9190 0.9195 0.9190 0.9184
2239.000000 0.9179 0.9174 0.9169 0.9164 0.9157
2244.000000 0.9154 0.9156 0.9153 0.9144 0.9135
2249.000000 0.9127 0.9119 0.9123 0.9116 0.9106
2254.000000 0.9098 0.9103 0.9094 0.9082 0.9072
2259.000000 0.9070 0.9055 0.9046 0.9042 0.9029
2264.000000 0.9015 0.9003 0.8994 0.8974 0.8957
2269.000000 0.8953 0.8948 0.8945 0.8951 0.8964
2274.000000 0.8973 0.8985 0.9008 0.9026 0.9040
2279.000000 0.9069 0.9085 0.9097 0.9108 0.9117
2284.000000 0.9137 0.9141 0.9148 0.9152 0.9161
2289.000000 0.9177 0.9182 0.9186 0.9192 0.9196
2294.000000 0.9201 0.9206 0.9211 0.9215 0.9219
2299.000000 0.9213 0.9212 0.9214 0.9217 0.9220
2304.000000 0.9224 0.9226 0.9229 0.9232 0.9235
2309.000000 0.9237 0.9241 0.9244 0.9247 0.9248
2314.000000 0.9251 0.9256 0.9259 0.9262 0.9265
2319.000000 0.9266 0.9268 0.9270 0.9272 0.9273
2324.000000 0.9275 0.9267 0.9264 0.9255 0.9253
2329.000000 0.9254 0.9256 0.9246 0.9246 0.9247
2334.000000 0.9249 0.9236 0.9239 0.9254 0.9255
2339.000000 0.9246 0.9262 0.9263 0.9267 0.9269
2344.000000 0.9275 0.9287 0.9291 0.9287 0.9275
2349.000000 0.9270 0.9273 0.9284 0.9291 0.9294
2354.000000 0.9296 0.9297 0.9288 0.9275 0.9274
2359.000000 0.9263 0.9263 0.9251 0.9252 0.9254
2364.000000 0.9257 0.9257 0.9260 0.9260 0.9263
2369.000000 0.9268 0.9280 0.9281 0.9284 0.9285
2374.000000 0.9281 0.9275 0.9277 0.9270 0.9266
2379.000000 0.9258 0.9255 0.9256 0.9248 0.9245
2384.000000 0.9246 0.9236 0.9236 0.9237 0.9238
2389.000000 0.9239 0.9227 0.9228 0.9230 0.9231
2394.000000 0.9232 0.9233 0.9235 0.9237 0.9238
2399.000000 0.9239 0.9240 0.9242 0.9243 0.9243
2404.000000 0.9243 0.9243 0.9245 0.9236 0.9242
2409.000000 0.9236 0.9233 0.9233 0.9233 0.9233
2414.000000 0.9235 0.9235 0.9236 0.9236 0.9236
2419.000000 0.9236 0.9239 0.9240 0.9241 0.9241
2424.000000 0.9241 0.9239 0.9237 0.9236 0.9233
2429.000000 0.9231 0.9229 0.9228 0.9226 0.9225
2434.000000 0.9223 0.9221 0.9220 0.9218 0.9216
2439.000000 0.9214 0.9213 0.9211 0.9209 0.9206
2444.000000 0.9205 0.9203 0.9201 0.9199 0.9197
2449.000000 0.9190 0.9178 0.9185 0.9181 0.9173
2454.000000 0.9159 0.9155 0.9157 0.9154 0.9150
2459.000000 0.9152 0.9149 0.9145 0.9141 0.9137
2464.000000 0.9133 0.9127 0.9122 0.9118 0.9114
2469.000000 0.9109 0.9104 0.9099 0.9095 0.9090
2474.000000 0.9085 0.9079 0.9075 0.9070 0.9066
2479.000000 0.9063 0.9060 0.9054 0.9046 0.9051
2484.000000 0.9056 0.9066 0.9075 0.9086 0.9096
2489.000000 0.9107 0.9118 0.9131 0.9143 0.9156
2494.000000 0.9168 0.9180 0.9190 0.9199 0.9208
2499.000000 0.9215 0.9223 0.9224 0.9226 0.9228
2504.000000 0.9230 0.9231 0.9233 0.9234 0.9236
2509.000000 0.9238 0.9240 0.9242 0.9244 0.9245
2514.000000 0.9247 0.9248 0.9250 0.9252 0.9254
2519.000000 0.9255 0.9257 0.9258 0.9260 0.9260
2524.000000 0.9262 0.9262 0.9263 0.9263 0.9264
2529.000000 0.9264 0.9264 0.9264 0.9265 0.9265
2534.000000 0.9266 0.9266 0.9266 0.9266 0.9266
2539.000000 0.9266 0.9266 0.9266 0.9266 0.9266
2544.000000 0.9266 0.9266 0.9266 0.9266 0.9266
2549.000000 0.9266 0.9266 0.9266 0.9266 0.9266
2554.000000 0.9266 0.9265 0.9265 0.9264 0.9264
2559.000000 0.9263 0.9262 0.9261 0.9261 0.9260
2564.000000 0.9259 0.9258 0.9257 0.9256 0.9256
2569.000000 0.9255 0.9254 0.9253 0.9252 0.9251
2574.000000 0.9251 0.9249 0.9248 0.9247 0.9246
2579.000000 0.9245 0.9243 0.9242 0.9241 0.9239
2584.000000 0.9238 0.9237 0.9236 0.9235 0.9234
2589.000000 0.9232 0.9231 0.9230 0.9229 0.9228
2594.000000 0.9227 0.9225 0.9224 0.9222 0.9221
2599.000000 0.9218 0.9217 0.9215 0.9213 0.9211
2604.000000 0.9210 0.9208 0.9206 0.9204 0.9203
2609.000000 0.9201 0.9199 0.9197 0.9196 0.9194
2614.000000 0.9193 0.9191 0.9189 0.9187 0.9185
2619.000000 0.9183 0.9181 0.9179 0.9178 0.9175
2624.000000 0.9172 0.9169 0.9166 0.9163 0.9161
2629.000000 0.9157 0.9142 0.9137 0.9148 0.9146
2634.000000 0.9143 0.9126 0.9123 0.9120 0.9117
2639.000000 0.9115 0.9112 0.9114 0.9117 0.9106
2644.000000 0.9104 0.9106 0.9113 0.9111 0.9101
2649.000000 0.9093 0.9091 0.9096 0.9099 0.9098
2654.000000 0.9098 0.9098 0.9099 0.9099 0.9088
2659.000000 0.9088 0.9089 0.9089 0.9090 0.9091
2664.000000 0.9092 0.9093 0.9095 0.9097 0.9099
2669.000000 0.9100 0.9103 0.9105 0.9108 0.9110
2674.000000 0.9112 0.9113 0.9115 0.9115 0.9116
2679.000000 0.9116 0.9117 0.9117 0.9118 0.9118
2684.000000 0.9118 0.9117 0.9116 0.9115 0.9115
2689.000000 0.9114 0.9114 0.9113 0.9112 0.9111
2694.000000 0.9111 0.9110 0.9110 0.9110 0.9110
2699.000000 0.9108 0.9108 0.9108 0.9108 0.9108
2704.000000 0.9108 0.9108 0.9108 0.9107 0.9107
2709.000000 0.9107 0.9107 0.9105 0.9105 0.9105
2714.000000 0.9105 0.9104 0.9104 0.9104 0.9104
2719.000000 0.9103 0.9103 0.9101 0.9100 0.9098
2724.000000 0.9097 0.9095 0.9093 0.9091 0.9090
2729.000000 0.9088 0.9087 0.9084 0.9082 0.9077
2734.000000 0.9073 0.9067 0.9061 0.9053 0.9046
2739.000000 0.9041 0.9035 0.9028 0.9022 0.9014
2744.000000 0.9006 0.8997 0.8990 0.8981 0.8974
2749.000000 0.8966 0.8957 0.8949 0.8941 0.8932
2754.000000 0.8925 0.8916 0.8906 0.8893 0.8882
2759.000000 0.8870 0.8859 0.8845 0.8835 0.8822
2764.000000 0.8811 0.8792 0.8774 0.8753 0.8733
2769.000000 0.8714 0.8694 0.8673 0.8653 0.8629
2774.000000 0.8607 0.8576 0.8545 0.8513 0.8483
2779.000000 0.8452 0.8421 0.8382 0.8342 0.8313
2784.000000 0.8286 0.8244 0.8205 0.8171 0.8138
2789.000000 0.8106 0.8085 0.8051 0.8033 0.8021
2794.000000 0.8009 0.8009 0.7987 0.8017 0.8027
2799.000000 0.8040 0.8055 0.8068 0.8083 0.8097
2804.000000 0.8111 0.8124 0.8136 0.8148 0.8154
2809.000000 0.8154 0.8162 0.8165 0.8169 0.8169
2814.000000 0.8170 0.8163 0.8122 0.8151 0.8147
2819.000000 0.8151 0.8147 0.8134 0.8110 0.8106
2824.000000 0.8078 0.8063 0.8059 0.8038 0.8010
2829.000000 0.7998 0.7969 0.7950 0.7934 0.7920
2834.000000 0.7905 0.7890 0.7881 0.7872 0.7857
2839.000000 0.7832 0.7817 0.7808 0.7796 0.7783
2844.000000 0.7784 0.7786 0.7785 0.7775 0.7773
2849.000000 0.7773 0.7773 0.7773 0.7773 0.7772
2854.000000 0.7774 0.7781 0.7778 0.7775 0.7773
2859.000000 0.7765 0.7759 0.7744 0.7730 0.7712
2864.000000 0.7695 0.7662 0.7630 0.7581 0.7533
2869.000000 0.7476 0.7419 0.7400 0.7382 0.7370
2874.000000 0.7358 0.7339 0.7320 0.7241 0.7185
2879.000000 0.7034 0.6885 0.6742 0.6602 0.6596
2884.000000 0.6590 0.6547 0.6507 0.6320 0.6133
2889.000000 0.5946 0.5759 0.5573 0.5386 0.5200
2894.000000 0.5014 0.4827 0.4640 0.4454 0.4267
2899.000000 0.4080 0.3766 0.3835 0.3776 0.3949
2904.000000 0.4122 0.4293 0.4466 0.4646 0.4818
2909.000000 0.4983 0.5155 0.5327 0.5500 0.5619
2914.000000 0.5738 0.5756 0.5777 0.5780 0.5781
2919.000000 0.5780 0.5779 0.5766 0.5760 0.5749
2924.000000 0.5735 0.5701 0.5670 0.5602 0.5535
2929.000000 0.5276 0.5017 0.4757 0.4498 0.4238
2934.000000 0.3978 0.3718 0.3465 0.3204 0.2945
2939.000000 0.2684 0.2424 0.2160 0.1903 0.1641
2944.000000 0.1383 0.1120 0.0861 0.0603 0.0344
2949.000000 0.0084 -0.0036 -0.0036 -0.0036 -0.0036
2954.000000 -0.0036 -0.0036 -0.0036 -0.0036 -0.0036
2959.000000 -0.0036 -0.0036 -0.0036 -0.0036 -0.0036
2964.000000 -0.0036 -0.0036 -0.0036 -0.0036 -0.0036
2969.000000 -0.0036 -0.0036 -0.0036 0.0294 0.0717
2974.000000 0.1140 0.1563 0.1987 0.2406 0.2829
2979.000000 0.3254 0.3673 0.4093 0.4516 0.4819
2984.000000 0.5121 0.5260 0.5399 0.5537 0.5675
2989.000000 0.5813 0.5951 0.6086 0.6221 0.6219
2994.000000 0.6211 0.6211 0.6211 0.6157 0.6105
2999.000000 0.6028 0.5947 0.5859 0.5778 0.5701
3004.000000 0.5623 0.5541 0.5452 0.5367 0.5293
3009.000000 0.5223 0.5151 0.5153 0.5155 0.5163
3014.000000 0.5139 0.5255 0.5341 0.5554 0.5760
3019.000000 0.5963 0.6163 0.6368 0.6575 0.6674
3024.000000 0.6775 0.6775 0.6761 0.6776 0.6777
3029.000000 0.6769 0.6767 0.6750 0.6730 0.6678
3034.000000 0.6630 0.6539 0.6454 0.6024 0.5586
3039.000000 0.5378 0.5170 0.5105 0.5041 0.4955
3044.000000 0.4870 0.4690 0.4518 0.4148 0.3784
3049.000000 0.3419 0.3055 0.2818 0.2562 0.2599
3054.000000 0.2623 0.3142 0.3661 0.4186 0.4711
3059.000000 0.5774 0.6831 0.7072 0.7312 0.7388
3064.000000 0.7472 0.7538 0.7604 0.7677 0.7763
3069.000000 0.7819 0.7898 0.7954 0.8012 0.8061
3074.000000 0.8097 0.8126 0.8165 0.8186 0.8198
3079.000000 0.8213 0.8235 0.8253 0.8272 0.8284
3084.000000 0.8298 0.8318 0.8345 0.8352 0.8359
3089.000000 0.8380 0.8404 0.8415 0.8437 0.8448
3094.000000 0.8458 0.8469 0.8466 0.8463 0.8462
3099.000000 0.8471 0.8481 0.8481 0.8492 0.8500
3104.000000 0.8508 0.8516 0.8524 0.8526 0.8526
3109.000000 0.8534 0.8542 0.8549 0.8558 0.8565
3114.000000 0.8573 0.8581 0.8589 0.8596 0.8605
3119.000000 0.8612 0.8620 0.8627 0.8636 0.8643
3124.000000 0.8649 0.8657 0.8666 0.8673 0.8681
3129.000000 0.8688 0.8695 0.8701 0.8709 0.8717
3134.000000 0.8724 0.8732 0.8740 0.8747 0.8753
3139.000000 0.8761 0.8769 0.8767 0.8770 0.8777
3144.000000 0.8784 0.8787 0.8789 0.8792 0.8794
3149.000000 0.8809 0.8812 0.8812 0.8812 0.8809
3154.000000 0.8838 0.8789 0.8791 0.8787 0.8773
3159.000000 0.8771 0.8761 0.8745 0.8734 0.8727
3164.000000 0.8706 0.8682 0.8665 0.8646 0.8628
3169.000000 0.8612 0.8595 0.8578 0.8561 0.8548
3174.000000 0.8535 0.8527 0.8520 0.8516 0.8530
3179.000000 0.8530 0.8532 0.8575 0.8617 0.8647
3184.000000 0.8678 0.8704 0.8736 0.8768 0.8791
3189.000000 0.8804 0.8824 0.8847 0.8862 0.8880
3194.000000 0.8897 0.8912 0.8919 0.8942 0.8951
3199.000000 0.8973 0.8979 0.8990 0.9004 0.9017
3204.000000 0.9031 0.9044 0.9057 0.9071 0.9087
3209.000000 0.9112 0.9125 0.9138 0.9151 0.9156
3214.000000 0.9160 0.9164 0.9167 0.9170 0.9172
3219.000000 0.9173 0.9174 0.9177 0.9178 0.9180
3224.000000 0.9182 0.9171 0.9169 0.9181 0.9184
3229.000000 0.9184 0.9185 0.9186 0.9187 0.9188
3234.000000 0.9189 0.9190 0.9192 0.9193 0.9194
3239.000000 0.9195 0.9198 0.9200 0.9203 0.9210
3244.000000 0.9211 0.9219 0.9234 0.9243 0.9253
3249.000000 0.9261 0.9269 0.9275 0.9282 0.9286
3254.000000 0.9289 0.9291 0.9282 0.9296 0.9300
3259.000000 0.9302 0.9305 0.9307 0.9309 0.9310
3264.000000 0.9312 0.9314 0.9315 0.9316 0.9318
3269.000000 0.9318 0.9318 0.9318 0.9318 0.9318
3274.000000 0.9318 0.9318 0.9308 0.9304 0.9314
3279.000000 0.9318 0.9306 0.9304 0.9316 0.9316
3284.000000 0.9301 0.9300 0.9299 0.9296 0.9295
3289.000000 0.9294 0.9293 0.9291 0.9290 0.9288
3294.000000 0.9287 0.9285 0.9283 0.9281 0.9279
3299.000000 0.9277 0.9275 0.9273 0.9272 0.9269
3304.000000 0.9278 0.9282 0.9280 0.9268 0.9276
3309.000000 0.9275 0.9275 0.9274 0.9272 0.9258
3314.000000 0.9257 0.9256 0.9255 0.9254 0.9253
3319.000000 0.9251 0.9250 0.9248 0.9247 0.9244
3324.000000 0.9242 0.9239 0.9236 0.9233 0.9231
3329.000000 0.9227 0.9225 0.9222 0.9219 0.9216
3334.000000 0.9214 0.9210 0.9219 0.9219 0.9217
3339.000000 0.9200 0.9196 0.9194 0.9204 0.9190
3344.000000 0.9199 0.9193 0.9179 0.9176 0.9174
3349.000000 0.9171 0.9169 0.9165 0.9162 0.9160
3354.000000 0.9158 0.9155 0.9153 0.9150 0.9148
3359.000000 0.9145 0.9143 0.9140 0.9138 0.9134
3364.000000 0.9132 0.9129 0.9127 0.9125 0.9123
3369.000000 0.9122 0.9132 0.9118 0.9116 0.9114
3374.000000 0.9113 0.9111 0.9110 0.9107 0.9106
3379.000000 0.9103 0.9102 0.9101 0.9100 0.9100
3384.000000 0.9100 0.9100 0.9100 0.9100 0.9100
3389.000000 0.9101 0.9102 0.9102 0.9102 0.9102
3394.000000 0.9102 0.9102 0.9102 0.9102 0.9102
3399.000000 0.9102 0.9102 0.9102 0.9102 0.9102
3404.000000 0.9102 0.9102 0.9108 0.9109 0.9102
3409.000000 0.9102 0.9103 0.9104 0.9104 0.9106
3414.000000 0.9107 0.9107 0.9110 0.9111 0.9111
3419.000000 0.9113 0.9114 0.9114 0.9117 0.9118
3424.000000 0.9117 0.9108 0.9121 0.9122 0.9124
3429.000000 0.9126 0.9128 0.9129 0.9131 0.9132
3434.000000 0.9134 0.9135 0.9137 0.9139 0.9141
3439.000000 0.9142 0.9144 0.9145 0.9147 0.9148
3444.000000 0.9150 0.9151 0.9153 0.9154 0.9156
3449.000000 0.9156 0.9158 0.9159 0.9159 0.9162
3454.000000 0.9164 0.9164 0.9166 0.9167 0.9167
3459.000000 0.9169 0.9171 0.9172 0.9173 0.9174
3464.000000 0.9175 0.9176 0.9177 0.9177 0.9178
3469.000000 0.9178 0.9179 0.9179 0.9181 0.9181
3474.000000 0.9182 0.9183 0.9184 0.9184 0.9185
3479.000000 0.9185 0.9186 0.9186 0.9187 0.9187
3484.000000 0.9188 0.9188 0.9189 0.9189 0.9190
3489.000000 0.9190 0.9191 0.9191 0.9192 0.9192
3494.000000 0.9193 0.9193 0.9193 0.9193 0.9192
3499.000000 0.9190 0.9188 0.9186 0.9184 0.9182
3504.000000 0.9180 0.9178 0.9176 0.9173 0.9170
3509.000000 0.9164 0.9160 0.9156 0.9152 0.9148
3514.000000 0.9144 0.9140 0.9135 0.9130 0.9126
3519.000000 0.9121 0.9116 0.9112 0.9107 0.9103
3524.000000 0.9099 0.9096 0.9093 0.9091 0.9089
3529.000000 0.9086 0.9097 0.9095 0.9093 0.9090
3534.000000 0.9088 0.9086 0.9084 0.9078 0.9070
3539.000000 0.9073 0.9068 0.9075 0.9073 0.9071
3544.000000 0.9062 0.9061 0.9066 0.9064 0.9063
3549.000000 0.9051 0.9057 0.9060 0.9060 0.9048
3554.000000 0.9047 0.9059 0.9047 0.9047 0.9047
3559.000000 0.9047 0.9047 0.9047 0.9047 0.9047
3564.000000 0.9047 0.9047 0.9047 0.9047 0.9048
3569.000000 0.9048 0.9048 0.9048 0.9057 0.9063
3574.000000 0.9064 0.9054 0.9060 0.9064 0.9065
3579.000000 0.9065 0.9066 0.9067 0.9068 0.9068
3584.000000 0.9068 0.9068 0.9070 0.9071 0.9071
3589.000000 0.9071 0.9071 0.9071 0.9071 0.9068
3594.000000 0.9067 0.9064 0.9062 0.9059 0.9050
3599.000000 0.9037 0.9039 0.9038 0.9023 0.9019
3604.000000 0.9015 0.9007 0.8999 0.8989 0.8969
3609.000000 0.8970 0.8964 0.8956 0.8948 0.8938
3614.000000 0.8929 0.8920 0.8910 0.8901 0.8893
3619.000000 0.8883 0.8874 0.8871 0.8870 0.8868
3624.000000 0.8868 0.8866 0.8864 0.8864 0.8855
3629.000000 0.8850 0.8860 0.8864 0.8864 0.8853
3634.000000 0.8850 0.8852 0.8853 0.8854 0.8857
3639.000000 0.8858 0.8860 0.8861 0.8863 0.8865
3644.000000 0.8868 0.8871 0.8874 0.8876 0.8880
3649.000000 0.8883 0.8886 0.8894 0.8902 0.8910
3654.000000 0.8920 0.8937 0.8954 0.8972 0.8990
3659.000000 0.8999 0.9008 0.9014 0.9020 0.9020
3664.000000 0.9020 0.9020 0.9020 0.9019 0.9019
3669.000000 0.9020 0.9029 0.9017 0.9016 0.9011
3674.000000 0.9009 0.9003 0.9000 0.8996 0.8992
3679.000000 0.8988 0.8984 0.8978 0.8972 0.8966
3684.000000 0.8961 0.8955 0.8950 0.8954 0.8951
3689.000000 0.8944 0.8938 0.8932 0.8926 0.8919
3694.000000 0.8912 0.8906 0.8902 0.8907 0.8901
3699.000000 0.8893 0.8885 0.8877 0.8870 0.8862
3704.000000 0.8855 0.8847 0.8840 0.8830 0.8823
3709.000000 0.8816 0.8799 0.8795 0.8781 0.8768
3714.000000 0.8761 0.8755 0.8749 0.8746 0.8731
3719.000000 0.8728 0.8742 0.8742 0.8745 0.8750
3724.000000 0.8757 0.8763 0.8770 0.8782 0.8793
3729.000000 0.8807 0.8820 0.8833 0.8839 0.8834
3734.000000 0.8843 0.8851 0.8854 0.8856 0.8858
3739.000000 0.8850 0.8848 0.8852 0.8856 0.8859
3744.000000 0.8863 0.8880 0.8896 0.8916 0.8937
3749.000000 0.8942 0.8947 0.8949 0.8951 0.8953
3754.000000 0.8953 0.8953 0.8953 0.8952 0.8951
3759.000000 0.8956 0.8955 0.8944 0.8940 0.8931
3764.000000 0.8923 0.8908 0.8893 0.8884 0.8876
3769.000000 0.8869 0.8861 0.8858 0.8855 0.8852
3774.000000 0.8852 0.8839 0.8852 0.8852 0.8853
3779.000000 0.8847 0.8862 0.8866 0.8865 0.8876
3784.000000 0.8892 0.8920 0.8939 0.8948 0.8956
3789.000000 0.8953 0.8951 0.8948 0.8945 0.8942
3794.000000 0.8938 0.8925 0.8930 0.8918 0.8913
3799.000000 0.8913 0.8913
##END=
