##TITLE=Propylene Oxide
##JCAMP-DX=4.24
##DATA TYPE=INFRARED SPECTRUM
##CLASS=IUPAC A
##ORIGIN=NIST, Anayltical Chemistry Division, 301-975-3108
##OWNER=COPYRIGHT (C) 1998 by the U.S. Secretary of Commerce
##DATE=98/10/1
##$SPECTRA VERSION=1.00
##$UNCERTAINTY IN Y=2.1 % relative (B=1.1E-04,C=9.8E-10,D=2.7E-14)
##CAS NAME=1,2-Epoxypropane
##CAS REGISTRY NO=75-56-9
##MOLFORM=C3 H6 O
##MP=-104.4 C
##BP=34.3 C
##$NIST SOURCE=QUANT-IR
##SPECTROMETER/DATA SYSTEM=IFS66V (Bruker)
##INSTRUMENT PARAMETERS=KBr Beam splitter; MCT Detector; Multipass cell
##STATE=gas
##SAMPLE DESCRIPTION=Propylene Oxide Primary Gas Standard
##PRESSURE=101.3 kPa
##TEMPERATURE=23 C
##SAMPLING PROCEDURE=1 L/min Flow
##RESOLUTION=0.9640
##DATA PROCESSING=NB Strong Apodization
##XUNITS=cm-1
##YUNITS=(micromol/mol)-1m-1 (base 10)
##XFACTOR=1.0
##YFACTOR=2.2737E-13
##DELTAX=0.4820
##FIRSTX=575.169
##LASTX=3975.077
##FIRSTY=-3.78E-07
##MAXX=3974.59
##MINX=575.17
##MAXY=.0003579
##MINY=-8.15E-07
##NPOINTS=7053
##XYDATA=(X++(Y..Y))
575.17-1666520-2436510-2324750-1392152-1629834-1906578
577.58-2262494-2230980-1405056-2218586-3584848-3272202
580.47-2500016-1523490-751512-1557800-2053834-1571104
583.37-1994978-2087278-2232584-2215122-1642594-1507308
586.26-2058020-1958608-832912-560354-1423350-1675484
589.15-1833132-1095754-1423240-1570856-1527788-1431234
592.04-1310588-925398-1554494-2324832-2129000-1712070
594.94-1963378-1514304-1490966-1432884-1354838-1548512
597.83-1448786-798110-987544-1167868-1279354-1456432
600.72-1973382-2067528-1282570-388512-587866-1024448
603.61-1085054-816176-873174-888180-741678-847666
606.51-1154446-1084730-1227540-1483842-1587798-1400544
609.40-1522986-1047434-883870-1100574-1067920-1285856
612.29-1098248-633776-564440-847258-1084292-1022036
615.18-1096032-919424-1103146-1013900-1159176-1093392
618.08-1388846-1064248-828792-1257168-1548280-1570242
620.97-1380710-748126-984760-1441082-1408104-1098634
623.86-774686-637190-780320-1249014-1671156-1598332
626.76-1309156-1269876-1408370-1062732-942872-830668
629.65-1215106-1683580-2131608-1878598-1550774-1584974
632.54-1658216-1288138-1313182-1400590-1394496-1627346
635.43-1809328-1680410-1633416-1392576-1746030-1618602
638.33-1413024-1593256-1964060-1731492-1667042-1289734
641.22-1089780-1228246-1366924-1433166-1401348-1200120
644.11-1142980-891136-819174-1109764-1562942-1668302
647.00-1911152-1832792-1848810-1576842-1328856-1181030
649.90-1413270-1394240-1562954-1777470-1841638-1758204
652.79-1784658-1457532-1358520-1384590-1502548-1486248
655.68-1456616-1275058-1378662-1225144-1147286-1118552
658.58-1396010-1321226-1473554-1624614-1697490-1577442
661.47-1453290-1261914-1312482-1474318-1745888-1614762
664.36-1580532-1496522-1710212-1387962-1366984-1568684
667.25-1676320-1460348-1721456-1531310-1131530-811194
670.15-1184860-1437806-1430360-1151330-988534-1011152
673.04-1015556-872834-1138050-1260464-1580642-1546416
675.93-1512364-1196942-1244864-1297196-1215578-1107768
678.82-956514-748152-926958-1073862-1173860-1133798
681.72-1229156-1066000-1279786-1268986-1376854-1490062
684.61-1491196-1211274-981046-1019870-995456-592064
687.50-962878-1231212-1339692-1045032-975700-668560
690.40-783332-822744-967342-968342-840830-511150
693.29 122200 232416-427628-593452-780754-410646
696.18-229102-312162-270560-109464-343340-78934
699.07-131154-72342-16170 87566-129706 31312
701.97 12294 127830 162286 534474 670436 473348
704.86 368704 961620 881444 978616 964982 1249334
707.75 1432986 1834774 2116054 2906136 3239126 2836950
710.64 2390292 2232788 2209550 2646300 2866410 3129844
713.54 3233720 3567666 3702730 4056164 4162568 4637232
716.43 4963040 5385306 5675786 6093020 6210660 6599462
719.32 7136924 7968890 8308816 8574598 8865198 9528828
722.22 9985694 10386410 10631190 11481270 11833980 12572310
725.11 13467110 14407860 14901880 15856430 16699360 18149960
728.00 19580450 20802740 21645560 22929910 24376980 25910710
730.89 26498620 27545500 29174010 31409300 32564130 33747360
733.79 35232020 37089140 39090370 41437710 43679260 46465420
736.68 48921110 51681140 54360760 56778570 59086590 61896010
739.57 64325320 66762550 68951850 71705480 74417800 77023100
742.46 79303800 82164200 84099380 86369730 88203750 89836240
745.36 91367400 92880070 94237020 95782760 96498150 97317920
748.25 98458450 98922220 99661300 100061200 101593800 103477600
751.14 105216500 106063200 107050900 106855700 107119900 111951400
754.04 119597000 124068000 124233000 128512300 140880400 151145800
756.93 147128200 122219100 100806700 96968310 91122620 89883790
759.82 92966150 96371010 103201900 110555900 116276600 121303900
762.71 125688000 130482500 134746100 138778000 142819300 147458700
765.61 151372000 154748800 157881300 161020900 163302400 164856600
768.50 165105300 164952300 164307900 163775400 161638500 159038600
771.39 155641000 152385200 148485100 144681500 140243200 135218400
774.28 129526600 124275000 118772400 113304700 107560400 102358500
777.18 96994350 92679520 89013360 88758860 87470840 80207450
780.07 73620410 71918490 71072590 67888410 64279870 61269510
782.96 58048790 56953640 55449950 54134850 52783640 52154070
785.86 51173350 50815780 49905810 50102090 50039170 50372000
788.75 50254470 50991580 51219290 51759610 52524020 53755220
791.64 54391100 55648370 56784500 58165500 58930030 60468220
794.53 61891870 64246910 65931460 67946700 69694540 72242710
797.43 74453660 77291020 79981620 83368910 86500140 90314230
800.32 93503160 97570960 101292600 106475400 111053400 116422100
803.21 121488600 127274400 133221400 139326000 145962800 153818000
806.10 160795300 168846000 175750300 184698500 192847200 202167200
809.00 211881200 222075800 232601300 243377600 254880700 267395100
811.89 278508200 292260600 304755700 319103300 332235600 346493200
814.78 361210400 376575900 392309400 407713200 423193100 439858100
817.68 454485100 471868200 486774000 503929400 520497200 537389300
820.57 552193500 565921400 579314800 593250600 604494300 617304900
823.46 624936100 636038100 642064700 647835600 652713800 656133700
826.35 658062500 659912300 657825900 656402600 652486600 649267100
829.25 641709300 636124200 624659500 609944100 587706400 561434300
832.14 536820200 520806000 510251300 524985700 560582500 631254800
835.03 686901400 798392500 957139100 1063586000 1068804000 700225200
837.92 466532500 463058900 510653400 548504000 575373500 599780000
840.82 623871400 638216400 648988800 651915900 654470000 654247500
843.71 657794100 659452800 662545200 663215000 663501600 661427400
846.60 659789100 655509000 651581200 642737900 633984600 623404400
849.50 611799400 598096500 582124600 565887700 549406500 530084100
852.39 512906900 492071600 473123100 453127900 432636800 413995400
855.28 394827900 375573500 357703600 339277300 324047700 307470300
858.17 292526900 277739800 262536900 250000700 238086200 225696100
861.07 215375600 203818000 194409700 185122400 176788400 169275800
863.96 161426300 153981500 147668000 140737300 135793200 130040900
866.85 124992800 120163600 115607200 111447300 107349600 103220800
869.74 100076900 96143940 93231210 90086130 87227180 84341370
872.64 81686900 79400690 77344500 74820960 73091880 70962800
875.53 69382700 67801050 66465750 65111600 63806360 62325850
878.42 61309100 60067460 59476980 58493080 57587160 56858850
881.31 56230510 55558140 55109410 54383580 54000290 53521020
884.21 53124810 52893760 52673000 52463510 52226370 51977040
887.10 51756930 51524360 51140930 50444440 49628760 48785810
889.99 47236930 45304950 43192950 41560450 39195520 38675420
892.89 44859320 65028370 68456140 49725730 45225860 47654880
895.78 43208400 37475580 41242150 44471960 44259950 44567670
898.67 46753070 47988940 49190760 49413690 50168890 50300130
901.56 50766500 50571320 50988980 51183730 51599740 51336640
904.46 51348000 50751790 50762820 50557560 50942640 51013820
907.35 51156010 50791550 50825530 50807720 50968870 50726710
910.24 50997080 50952280 51098980 50837480 50799260 50501120
913.13 50518410 50293550 50324060 50196240 50424200 50362950
916.03 50739880 50762090 51129720 51412930 51956420 52576800
918.92 53195790 53407600 54363440 55116510 56161760 57334450
921.81 58421360 59406360 60971920 62179050 63857810 65257450
924.71 66763280 68570670 70535680 72141370 74032700 75555670
927.60 77531120 79724110 82226860 84688160 86944660 88846320
930.49 91482470 93731420 96474020 99275320 101540300 104373600
933.38 107508400 110117900 113493200 116609100 119949600 123267400
936.28 126359100 129831400 133128500 136503600 140412200 143367300
939.17 146484900 149543400 152661600 155887600 158641200 161515900
942.06 164618000 166907600 169431500 173325200 175863800 177699700
944.95 180448000 182917100 184647800 186540000 188000300 191586700
947.85 193831100 195626700 196805500 198193100 198136500 196872600
950.74 195367900 191901500 187511600 181688600 176507200 171698500
953.63 167183400 163975100 161058800 146943600 128363100 126690800
956.53 139212800 157484800 175447400 186420500 186887300 187819900
959.42 195426700 204477200 210691900 214069900 214931800 212591100
962.31 210199800 210556200 210228200 206642400 202742800 199676300
965.20 197141900 194252300 192030100 190148800 187264800 183817000
968.10 181097500 179077300 175510700 171801600 168468300 164029000
970.99 160415000 156779600 152723000 148850800 144783600 140963800
973.88 136974500 132895000 128795400 125194900 121763800 117960300
976.77 115192300 111699800 108614100 105569900 102770700 100180800
979.67 97599840 95394980 93182140 90967450 88553050 86179540
982.56 84205860 82077150 80301160 78449580 76909850 75320060
985.45 73963650 72735670 71588260 70117660 69246420 68251110
988.35 67567190 66834120 65992570 65415540 65097010 64647140
991.24 64625140 64486830 64435670 64286020 64483400 65038690
994.13 65581080 66152560 66952400 67718540 68841390 69696960
997.02 70807080 72302980 73649650 74959260 76398900 78091010
999.92 80275960 81898820 83590090 85606520 87585370 89763210
1002.81 92055180 94123630 96401690 98495290 100551600 102519600
1005.70 104576600 107121100 109342300 111064100 113158700 115138200
1008.59 117400100 118926600 120979900 122752500 124672000 126143200
1011.49 128155300 129914800 131899300 133814800 135996600 138185500
1014.38 140196000 142205000 143921800 145232000 145891800 145472300
1017.27 144098400 140994700 136934700 131789800 125308800 117741800
1020.17 108981400 99938180 98058190 101663800 106207600 114438700
1023.06 112701100 94620320 93019750 104439100 118198600 130728100
1025.95 140655800 147875500 152588800 154977200 155500300 154566900
1028.84 152673600 149899200 147008100 144064400 141035600 137971800
1031.74 135033200 132103000 129152200 126521400 123908700 121331600
1034.63 119042900 116306600 114240900 112031400 109176400 106619500
1037.52 103895500 101383200 98885330 96305470 93873870 91145980
1040.41 88850830 86263940 83868980 81492710 79003340 76528660
1043.31 74177740 72152520 69913170 67799420 65682860 63270240
1046.20 61054120 58841960 57050050 55206370 53412230 51605910
1049.09 49460220 47636110 45813530 44228880 42574960 40843380
1051.99 39369960 37533460 36012970 34555560 33170360 31814850
1054.88 30524220 29258710 27969360 26893990 25649280 24523180
1057.77 23544390 22537390 21569030 20564480 19789780 18926410
1060.66 18254700 17548570 16794680 16202380 15646870 15170800
1063.56 14741960 14433180 14124160 13956410 13803930 13494170
1066.45 13337420 13254490 13071570 12989670 13202590 13258440
1069.34 13442790 13613470 13839220 14046240 14300270 14455810
1072.23 14718610 15407500 15881360 16192530 16721780 17260670
1075.13 17871210 18596940 19276620 19973980 20881790 21729060
1078.02 22318180 23182580 24312770 25089060 26013210 27209640
1080.91 28347300 29575890 30672800 31499850 32595250 33707060
1083.81 34684840 36104570 37542820 38596680 40029920 41392310
1086.70 42469500 43824560 45328920 46727160 48279070 49705240
1089.59 50764920 52489640 53776280 55277450 56864420 58415160
1092.48 59766800 61486860 62825380 64607310 66299460 67686420
1095.38 68980620 70587350 72295890 74243110 75887050 77812620
1098.27 79444950 81348570 82433860 84524300 85329550 87092780
1101.16 87551290 89289850 90530940 92685130 93995490 93574140
1104.05 89807000 87815700 89988870 96694800 103237700 108254400
1106.95 117873100 126577200 115375900 98101940 97108280 105172300
1109.84 116758400 126674700 133005500 138119400 143142300 146973400
1112.73 148697900 148150400 146397400 144499800 143241600 141635200
1115.63 140727100 139873700 139113700 138185300 136849600 135323200
1118.52 134477400 133274700 132115900 131192600 131871300 132384500
1121.41 131972400 131114400 130649000 130832200 130993400 131683000
1124.30 133310300 133476400 133239500 131843800 130012400 127942300
1127.20 126974400 126614800 127010400 127188000 127893000 127570700
1130.09 128562900 129727000 134791800 150020000 178422400 175994000
1132.98 134956000 115109800 108819200 103381400 100432600 100010800
1135.87 99985020 100903600 102086300 102869100 102482600 102126600
1138.77 103702500 103417100 97376460 91990700 88310510 85811280
1141.66 84308860 82332240 81710350 89587330 112653600 130821100
1144.55 118835200 102805600 93840870 80324130 70273890 69432990
1147.45 73154190 75723390 75077510 75300840 74734270 74019580
1150.34 75791310 75505580 70647120 68243830 68421340 68581410
1153.23 68564830 68668260 68843700 69045950 69335220 69958090
1156.12 70865530 72760220 75703170 78625230 80103620 76603920
1159.02 68933070 64243960 62486980 61351280 59993740 58522680
1161.91 57009970 55553780 53940720 52528870 51079230 49476750
1164.80 47457710 45543380 43831480 42434500 40849670 39362460
1167.69 38565430 38960940 38674360 37398510 35874670 34787240
1170.59 33977180 33245750 32363380 31325290 30247220 29340190
1173.48 28282860 27236220 26123700 25088750 24063460 23112110
1176.37 22170240 21319010 20391530 19657250 18879760 18086940
1179.26 17190570 16537470 15986360 15477000 14810360 14304500
1182.16 13942940 13695700 13217940 12745660 12234470 11872500
1185.05 11535300 11342810 11074690 10825520 10362450 10186230
1187.94 10301050 10820300 10834690 9969346 9096790 8855696
1190.84 8683044 8380644 8061610 7891016 7706646 7651914
1193.73 7351552 7145164 6960088 6797420 6687088 6707136
1196.62 6477084 6352944 6162352 6211924 6340802 6468226
1199.51 6349808 6278456 6363120 7021336 7845342 8232666
1202.41 8132012 7552106 5956130 5299396 5123174 5004128
1205.30 4964966 5376610 5920312 6804308 6958714 6046930
1208.19 5342496 5342166 5444580 5739958 5742570 5843454
1211.08 5933754 6114390 6161740 6318504 6279708 6376480
1213.98 6429386 6634162 6636322 6746490 6784960 6938158
1216.87 6947226 7026780 6964134 7138108 7111874 7345234
1219.76 7604380 8087852 8610016 9278694 10387420 11797550
1222.66 10717940 9151604 8940474 9497796 9924504 10376610
1225.55 10678800 11073810 11475930 12165620 12623170 13326120
1228.44 14035340 14758850 15418340 16107610 16789890 17891030
1231.33 18750400 19509230 20070660 20899560 21744390 22723190
1234.23 23668630 24639960 25427810 26572170 27350720 28523000
1237.12 29675370 30817970 31818080 32898090 34121440 35441290
1240.01 36606450 38126000 39171460 40510520 41803380 43257980
1242.90 44690120 46153170 47643580 49302880 50833920 53113700
1245.80 54648070 56315190 57899130 59547560 61455220 63979270
1248.69 67084910 69354520 68995620 69526300 70398330 72012580
1251.58 73609020 74816600 75836830 77075790 78261010 79634670
1254.48 80203920 81111580 81445430 82309240 83222550 84487580
1257.37 85752740 87690620 88458100 88778720 88780840 89706570
1260.26 90227070 91613680 91526810 89577470 85303800 81419820
1263.15 76710060 72786840 67659590 66968680 87594040 141062100
1266.05 151446400 113175700 85704100 70318620 69684330 74057350
1268.94 78224150 80462790 82807380 84731620 87158250 88782590
1271.83 89931870 90302940 90463200 89897820 89482960 88234760
1274.72 87400640 86265950 85165100 84183740 83159300 81966860
1277.62 80793680 79489300 78313940 76758560 75469200 73899710
1280.51 72539090 71031390 69278940 67575600 65883990 64087680
1283.40 62326700 60601750 58931870 57196640 55509790 53807730
1286.30 52114560 50575320 48871850 47479080 45904120 44280980
1289.19 42874770 41314750 39949270 38668560 37348700 36106720
1292.08 34851720 33859630 32613650 31495100 30419320 29363130
1294.97 28343450 27192750 26246730 25400470 24424330 23545270
1297.87 22615340 21798310 20805760 19996430 19100890 18328090
1300.76 17608880 16870660 16162770 15391790 14617580 14085310
1303.65 13463920 12984320 12529160 12271360 11850860 11329350
1306.54 10649070 10175680 9864858 9617248 9196504 8946572
1309.44 8663270 8482158 8121702 7961614 7697428 7593398
1312.33 7241162 6989492 6773974 6682302 6486662 6334632
1315.22 6139236 6083012 5933638 5877350 5657242 5680714
1318.12 5700568 5678734 5472416 5544592 5452772 5520862
1321.01 5487194 5629218 5467532 5317118 5119972 5202508
1323.90 5230970 5462124 5365668 5259540 5209308 5395022
1326.79 5439248 5624018 5601342 5846154 5996636 6227934
1329.69 6357556 6721076 6883578 7206640 7219138 7318146
1332.58 7414828 7818064 7945790 8272870 8472152 8944016
1335.47 9151130 9652592 9812910 10159820 10392590 10909640
1338.36 11380130 11985840 12323720 12850430 12971950 13419510
1341.26 13889230 14530780 14927290 15451910 15871760 16513430
1344.15 16857190 17540330 17952460 18630170 19150490 19933650
1347.04 20492740 21273060 21872720 22860200 23589070 24638890
1349.94 25251720 26619670 27943910 28504350 28356290 28907040
1352.83 29391660 30165240 30733130 31954030 32389100 33363800
1355.72 34123990 34974160 35779400 36804020 37490690 38377230
1358.61 38736390 39618910 39945520 40601640 40891190 41350600
1361.51 41528420 41997220 42555660 43681300 44303370 46309620
1364.40 46516840 45371050 43535720 43635400 44532500 46234640
1367.29 44959720 44592650 45443240 47390260 50746050 59667400
1370.18 72577160 95875440 138029600 182311300 163694500 98518460
1373.08 58323140 46064710 44181010 46135470 48902460 52439720
1375.97 56212710 59953550 62541400 64610730 66098690 67829780
1378.86 69571000 71590290 73359300 75573000 77473810 80053200
1381.76 82118580 84908060 88052020 91833730 95296940 99737500
1384.65 104542900 110385600 115974200 123160700 130982500 140462400
1387.54 149647000 161247500 171527000 179107400 184821500 191630700
1390.43 199730600 210061500 220128600 231616400 242502800 254176500
1393.33 265215900 277275500 287268700 297320000 306548900 315888100
1396.22 323193000 331575800 338944900 346231100 350113000 352058500
1399.11 348494900 342648400 336004400 331760100 325044400 318549900
1402.00 309391200 301497800 291159000 282076900 271240700 264250800
1404.90 256612900 254092800 249092100 252994400 264257600 283271100
1407.79 299749200 342994000 416419800 508220700 603544800 725956400
1410.68 770647400 788608900 621215800 279515700 150024300 138517300
1413.58 151628300 164012400 183883100 200929200 222970500 241792800
1416.47 264203000 283508800 304608000 321902600 341320600 357680700
1419.36 371700900 381237300 392028100 398893800 405528000 408599000
1422.25 411004200 409736200 408144500 402961300 397134500 388474700
1425.15 379897200 369038800 358130000 345864900 334042900 320346300
1428.04 307852100 293934100 280694700 267784500 254969800 243574600
1430.93 237926100 232866100 222046000 208870700 200126100 190432100
1433.82 182909500 176988500 171044400 166392200 163408200 160869100
1436.72 156732400 152718100 149430100 147609500 146295200 144180900
1439.61 144098700 143195600 143387200 144307800 145507400 145675900
1442.50 146039600 146031200 146420700 145176300 143424100 140993200
1445.40 138342600 134497400 129943100 125784000 122847800 118311700
1448.29 117190400 130025200 137270800 119731300 111892100 113108900
1451.18 117025400 121210700 126376000 130243700 134029500 136811100
1454.07 138973500 139058000 137787700 136011000 136589800 135664100
1456.97 130697200 127877100 127863200 128040000 131582600 136153500
1459.86 142480000 155781000 187933700 236293200 222965200 177300300
1462.75 155969100 148183800 157623900 183885600 175779200 146797300
1465.64 137000000 136348900 140031000 140308000 136439500 135022500
1468.54 137106900 137320900 139101400 141590600 144672400 147771600
1471.43 153475900 157627700 162247200 167392000 168882100 163097000
1474.32 153037000 141287700 137116700 136863100 135863200 134656000
1477.21 134628800 133831400 133363200 132342400 131388700 130499000
1480.11 128395500 125979800 124631300 122118600 120697200 118637700
1483.00 116455500 114087100 112558600 111445200 112077900 115223700
1485.89 124284100 142037300 164990400 176973900 169378600 146110100
1488.79 125627000 116143600 110768700 106034400 101149400 94961500
1491.68 91818960 91481310 92663420 93946940 95880130 97394710
1494.57 99509650 101636300 105294200 106722300 106320600 107012200
1497.46 108334100 109825800 111103200 110583600 110421400 109893700
1500.36 109219000 108032300 106955100 105400600 103688900 101850200
1503.25 100170500 98129480 96333710 95799540 95201120 91136320
1506.14 89696180 88527580 84355010 80765410 78657860 76130040
1509.03 74252550 72354590 70658610 69603290 69527650 69635990
1511.93 69072980 66269280 64194000 63061370 63234390 64761600
1514.82 66310600 65778380 64247460 60062610 54114690 50007560
1517.71 49531050 50540580 49375880 47491380 49305030 51661080
1520.61 54838560 54772060 53671360 55201460 55945660 56084140
1523.50 57127840 58233620 59894510 61844660 62200050 61754300
1526.39 62239830 62393340 61934200 61372630 60454450 58807120
1529.28 57285870 55594060 54039650 52347400 50610780 48600560
1532.18 47451380 46891540 46477170 44505220 40316920 36634020
1535.07 34263220 32155610 30060170 27883090 26214960 24991020
1537.96 25007050 26421310 24487580 22469900 22347370 19683650
1540.85 18602880 19660780 19813210 17694240 16496330 15581440
1543.75 15234620 15422010 15815290 14395670 13481030 12897140
1546.64 12661040 12135420 11838650 11415740 11306530 11183600
1549.53 11217110 10551700 9998750 9553072 9282184 8869678
1552.43 8667436 8619118 9998588 11165740 9436878 8078732
1555.32 7856950 7659298 7861110 9081012 10001340 11241180
1558.21 11460720 8872832 9669632 11297710 9569162 7013190
1561.10 6791794 6642200 6863714 6745272 7049112 7037022
1564.00 7573136 7624886 7443360 7152766 7420350 7420098
1566.89 7668358 7756056 8200818 8563822 9546840 10272290
1569.78 9678532 8866056 9031162 9179078 9503306 9507894
1572.67 9661518 9550440 9902714 9940942 10358150 11864930
1575.57 15131500 13907370 11341790 10856550 10943010 11030120
1578.46 11270920 11233600 11204700 11134550 11203400 11083800
1581.35 11162750 11126740 11223450 11086530 11091970 11101780
1584.25 11264100 11095330 11197200 11158420 11237730 11104570
1587.14 11325790 11746390 12678890 13381390 13973140 14643580
1590.03 15459650 15305460 15122270 14000930 11449800 9726218
1592.92 9636600 9719336 9991490 10234880 10993960 11425990
1595.82 11723100 11840690 12167330 12311260 12760780 13054510
1598.71 13508440 13820700 14266330 14445130 14854520 14944600
1601.60 15137640 15152020 15252100 15027490 14870120 14519500
1604.49 14375330 13874250 13540110 13094390 12802680 12200160
1607.39 11740370 11235170 10945740 10494210 10072330 9461366
1610.28 9134646 8504252 8181926 7700206 7529436 7197074
1613.17 7120992 6870488 6938482 6780124 6934030 7814884
1616.07 10649840 9828366 7195646 6553334 6586256 6436682
1618.96 6307504 6244616 6346014 6295238 6354558 6264278
1621.85 6499452 6845778 7902866 7909268 6893762 6503274
1624.74 6501880 6441718 6421008 6547234 6850908 7331642
1627.64 7314490 6817086 6829346 6825050 6918302 6942404
1630.53 7105116 7255920 7600840 7881082 8085162 8045554
1633.42 8145178 8620928 10115210 12305230 12650980 9993328
1636.31 8902618 8991362 9255530 8983428 9008574 8971332
1639.21 9184084 9212932 9357854 9371942 9631830 9673658
1642.10 9763904 9490972 9596536 9542714 9504170 9593416
1644.99 11187350 12859240 11541120 10614720 11400350 11752040
1647.89 12391920 12241240 12299840 12223710 12498690 12555600
1650.78 12660220 13324690 16311700 17228800 17778640 15749330
1653.67 13707410 13616220 12605300 12238420 12377620 12583830
1656.56 12773990 12985170 13059140 13098960 13231550 13349430
1659.46 13288780 13127050 13017300 12997860 13274340 14336190
1662.35 15127920 13969310 13059580 12858010 12935600 12877450
1665.24 12733170 12582060 12435120 12256780 12237470 12458680
1668.13 12635330 13402760 13503600 12868020 12895370 12572950
1671.03 12996790 13974220 14231710 12572610 11467700 11172590
1673.92 11355790 12849450 13919740 12556690 11817080 11652130
1676.81 11741270 11631080 11622770 11466930 11560230 11713730
1679.71 11903120 11752870 11550420 11435220 11476470 11829870
1682.60 12723950 12808500 13176940 15898430 16520750 12572260
1685.49 11096150 10748070 10731430 10493120 10670830 10416060
1688.38 10085350 9722264 9939270 9779702 9560056 9262988
1691.28 9323090 9204572 9256630 9018376 9017496 8942758
1694.17 9301466 10340000 13682380 13976590 10393900 9055628
1697.06 9060560 8802668 8796950 9121610 10852840 12847210
1699.95 12751450 11227290 9329704 8411652 8307874 8221398
1702.85 8233164 8371982 8978620 8785306 8246428 8324296
1705.74 8867968 8551638 7821058 7501004 7272090 6805148
1708.63 6089372 5877138 6565240 7455900 8109636 8350614
1711.53 8768718 9233902 9323752 9118608 9035038 8742772
1714.42 9128418 9087092 8354628 8476784 9942308 12644570
1717.31 11441440 9824120 9954784 8899882 8283588 8088540
1720.20 7983764 7789524 7758780 7535394 7423898 7398742
1723.10 7377408 6891132 6689870 6397514 6191630 5995084
1725.99 5902576 5612882 5495572 5280886 5135118 4953700
1728.88 5058442 5182714 5135972 4901868 5173424 4943048
1731.77 4398014 4465226 6304286 6037040 5885052 6468216
1734.67 4421542 3127752 2862890 2796320 2735924 2823698
1737.56 2838350 2711204 2789482 3677468 3963312 2776026
1740.45 2332662 2268014 2206694 2164664 2386972 2371894
1743.34 2164988 1941150 1908722 1874468 1878600 1790796
1746.24 1942292 1972786 1826990 1920966 2230364 1990928
1749.13 1661970 1478370 1903054 3138036 3358864 1937616
1752.02 1407854 1251444 1268340 1239610 1249224 1267446
1754.92 1359322 1327852 1761622 2198840 1764496 1437388
1757.81 1521334 1465472 1452692 1487136 1637726 1764862
1760.70 2250732 3198568 3039290 2103974 2010212 1978176
1763.59 2078828 2055426 2170268 2192538 2378360 2400984
1766.49 2516824 2755828 3761370 3744190 2942818 2768340
1769.38 2818032 2939888 3520656 4073260 3847318 4768184
1772.27 5988748 4420760 3478450 3442574 3513096 3680086
1775.16 3922790 3763934 3689298 3617464 3585790 3394546
1778.06 3227230 3140098 3242576 3285050 3599728 3573406
1780.95 3455672 3671098 4083586 4322834 4293830 4244116
1783.84 4462542 4872044 4600934 4044414 3935580 3838978
1786.74 3976828 3965776 3819368 3913006 4018922 4025944
1789.63 4323114 5009132 5359242 4617426 4737130 6113496
1792.52 6100964 5063986 4432438 3507962 3153294 3115624
1795.41 3380552 3343578 3334670 3310672 3335996 3413542
1798.31 3715170 4103066 4368816 4023568 3925630 4042184
1801.20 3996834 3874236 3887406 3599200 3597094 3512300
1804.09 3506876 3452678 3472622 3351840 3307630 3146320
1806.98 3195202 3010530 2787482 2621210 2609840 2519056
1809.88 2707350 2642174 2336260 2195146 2175970 1921908
1812.77 1775720 1595148 1592186 1558772 1546028 1417494
1815.66 1360056 1215472 1159212 1096694 993030 930478
1818.56 1132794 1177756 1369426 1792374 2122066 1984690
1821.45 1706546 1317542 1177754 1104278 1092840 1067122
1824.34 1554920 1847744 1422382 1102064 1119004 1098872
1827.23 1257314 1365160 1557042 1666200 1890588 2171130
1830.13 1713578 1316690 1425940 1422646 1466938 1445186
1833.02 1433776 1363636 1491818 1520362 1605500 1528668
1835.91 1498238 1533512 1683710 1589972 1617082 1636474
1838.80 1769288 1816714 1893388 1852300 1849462 1804518
1841.70 1879900 1735766 1815180 2443292 3766604 3159848
1844.59 2117792 2004416 1929580 1803860 1780122 1844196
1847.48 1827336 1665866 1737752 1788586 1878618 1855200
1850.38 1904628 1933876 1972668 1983254 2091556 2161292
1853.27 2289684 2291548 2362814 2423424 2847228 2919830
1856.16 2638794 3079390 3738414 2834240 1986096 1743696
1859.05 1773064 1780360 1925788 1905212 1898578 1967346
1861.95 2070718 2007020 2089656 2105072 2187668 2191102
1864.84 2364380 2505406 2696016 2729314 2785632 2955998
1867.73 2974570 2986288 3470648 3238722 2714790 2570274
1870.62 2556378 2498958 2544666 2561824 2648662 2658492
1873.52 2629572 2527026 2492222 2453890 2458768 2444694
1876.41 2476552 2441194 2432860 2366934 2365372 2384210
1879.30 2469414 2469224 2545100 2529658 2525736 2500364
1882.20 2626406 2674086 2789228 2918378 3050836 3041140
1885.09 3105424 3107492 3198614 3149584 3218522 3220246
1887.98 3232378 3358388 3732344 3574804 3343882 3346968
1890.87 3379814 3311752 3419534 3498820 3511468 3517640
1893.77 3661872 3732790 3863622 3871854 3991938 4132028
1896.66 4284236 4369262 4251132 4110622 4471436 5297574
1899.55 5410612 4439874 4051416 4093922 4226598 4302154
1902.44 4482162 4620068 4817328 4881440 4798674 4641688
1905.34 4615424 4548160 4530222 4456406 4516826 4500558
1908.23 4565106 4772598 5171256 5242966 5239084 5395042
1911.12 5572940 5510228 5424386 5211520 5060554 4836274
1914.02 4664418 4524818 4531180 4681392 5149054 5601696
1916.91 5362138 5052026 4533210 3960546 3883306 3792594
1919.80 3829826 3768654 3826496 3904570 4035502 4018930
1922.69 3985108 3801404 3768304 3721990 3707662 3515428
1925.59 3296184 3158804 3147070 3081412 3091088 2951236
1928.48 2942476 2938964 3011194 2946314 2929150 2838128
1931.37 2840582 2731796 2748776 2709054 2694402 2639408
1934.26 2654824 2570794 2609990 2595000 2611192 2558176
1937.16 2573790 2590550 2681554 2615768 2627184 2617676
1940.05 2659744 2625716 2773460 2884218 3131544 3039052
1942.94 2882776 2794676 2871266 2898912 3075556 3297364
1945.84 3485588 3583722 3759474 3896534 4024138 4096180
1948.73 4260706 4387602 4559532 4751110 4925618 5043056
1951.62 5236254 5381030 5587558 5708792 5867958 6021438
1954.51 6268824 6352016 6441936 6448834 6474536 6493062
1957.41 6568522 6493588 6490112 6492006 6490324 6468082
1960.30 6516490 6541152 6635974 6468182 6477562 6486554
1963.19 6398490 6287946 6443508 6639868 7052488 7760676
1966.08 9098380 10726760 11916530 11515400 8061090 5475754
1968.98 5150350 5186662 5418494 5593766 5839374 5992880
1971.87 6234616 6541884 7129792 7515060 7620412 7444322
1974.76 7415410 7413194 7536868 7569228 7764040 7973318
1977.66 8372160 8725806 9132948 9382274 9190072 8561710
1980.55 8156200 7808198 7636292 7496444 7420388 7263932
1983.44 7097544 6898426 6817214 6647274 6493428 6305250
1986.33 6180522 6067980 6052518 5901278 5750104 5574476
1989.23 5545534 5514846 5540704 5447320 5495270 5465574
1992.12 5323348 5202640 5142044 5018204 4964624 4814810
1995.01 4777842 4715548 4695656 4707426 4811030 4841324
1997.90 4988992 5122600 5320350 5374386 5448064 5585118
2000.80 5839632 5662504 5091838 4690416 4782758 5022074
2003.69 5281412 5256864 5268426 5371962 5568896 5606130
2006.58 5689856 5749484 5787868 5674280 5650664 5672602
2009.48 5762794 5653506 5596052 5504556 5537004 5474236
2012.37 5407340 5239100 5247246 5281190 5252802 5112062
2015.26 5196896 5174770 5207786 5118472 5207124 5464092
2018.15 5791782 5983866 6054262 6074464 5966372 5285956
2021.05 4739736 4486660 4507376 4545436 4518190 4761064
2023.94 5890550 6135082 5348476 4948296 4746452 4414152
2026.83 4210290 4178674 4252698 4367848 4603022 4790146
2029.72 4805122 4788868 4877024 4872714 4761208 4644504
2032.62 4584596 4506488 4560176 4403532 4267346 4144198
2035.51 4063168 3838702 3783352 3749306 3630908 3529846
2038.40 3449528 3224516 3108688 2982738 2878368 2754988
2041.29 2712038 2606526 2442762 2245064 2168374 2089986
2044.19 2073496 2067066 2163304 1986124 1805270 1807272
2047.08 1797338 1627648 1532588 1442486 1410266 1348960
2049.97 1337620 1245302 1216620 1164336 1128374 1068698
2052.87 1135824 1165488 1172374 1016894 970948 986330
2055.76 1027160 1030822 1052656 1013070 1052210 1162490
2058.65 1384204 1316940 1266614 1239496 1292952 1390100
2061.54 1421344 1216012 1175920 1286618 1330152 1332000
2064.44 1475146 1469860 1564028 1691486 1667494 1613202
2067.33 1757914 1827484 1897482 1946082 1986902 2016168
2070.22 2130348 2192672 2270716 2273466 2209342 2147092
2073.11 2288654 2334530 2310364 2345294 2425964 2380300
2076.01 2362424 2296322 2312016 2315846 2342892 2309486
2078.90 2343958 2286680 2288350 2277748 2311886 2278498
2081.79 2364486 2530640 2729542 2968022 3291174 3430676
2084.69 3121978 2484484 2316860 2294506 2330202 2364694
2087.58 2488428 2541632 2596200 2460228 2370270 2328912
2090.47 2466164 2494526 2553374 2589864 2629256 2650950
2093.36 2679518 2640598 2605176 2577144 2746604 2911442
2096.26 3133222 3152450 3198360 3232976 2942316 2525498
2099.15 2385344 2388094 2411740 2399186 2499468 2441562
2102.04 2491710 2512988 2435906 2355666 2376294 2335056
2104.93 2330780 2245916 2258872 2189534 2185268 2153948
2107.83 2159276 2113560 2103546 2051906 2103138 2109078
2110.72 2051198 1946146 1998530 2019586 2103194 2095100
2113.61 2091846 2041570 2073268 2112668 2258052 2291470
2116.51 2153252 2025234 2088790 2106268 2097530 2033040
2119.40 2044130 2046904 2148076 2222200 2374930 2500328
2122.29 2634050 2603932 2623874 2657738 2695636 2544722
2125.18 2380526 2372960 2613770 2666998 2679852 2655436
2128.08 2767186 2852144 2881040 2745844 2698134 2788122
2130.97 2962966 3028082 3113328 3189554 3378828 3473636
2133.86 3601470 3762176 3961956 4130486 4378878 4473834
2136.75 4633918 4819238 5016996 5033996 5169842 5357412
2139.65 5621620 5761810 6005356 6149002 6329888 6526414
2142.54 6767308 7011250 7370624 7598178 7781396 7876536
2145.43 7940490 7906034 7959116 8071202 8258778 8447624
2148.33 8698788 8795670 8945214 9132380 9440462 9656072
2151.22 9921044 10021060 10000410 9727884 9511924 9461104
2154.11 9618576 9700880 9846910 10012020 10134300 10048050
2157.00 10248380 11375170 12897780 12063410 10850340 10651870
2159.90 10696290 10890220 11108040 10947410 11047670 11380160
2162.79 11636240 11856770 12679400 13872930 15021350 14613410
2165.68 14000910 13258510 11546750 9651004 8689374 8577326
2168.57 8551456 8738560 9251396 9708384 10012520 10149620
2171.47 10539940 10946220 11333720 11656110 11976550 12258450
2174.36 12534500 12742370 12876180 12852030 12927230 12829240
2177.25 12744730 12622210 12537460 12279780 11958740 11558070
2180.15 11124580 10607800 10178540 9748416 9428354 9082662
2183.04 8791932 8528606 8447956 8360350 7839688 7255660
2185.93 7203982 7523238 7702200 7438278 7834684 8082100
2188.82 8208460 8289094 9089638 8514014 6583670 5588706
2191.72 5340966 5364478 5486202 5527806 5554450 5612814
2194.61 5667220 5715088 5802314 5875172 5884978 5871054
2197.50 5908218 5873758 5927712 5944206 5950248 5924000
2200.39 5953820 5908574 5884824 5833700 5816292 5739548
2203.29 5726372 5674778 5778506 5937424 6333476 6907444
2206.18 7423706 7842622 8485198 7720952 5802176 5067966
2209.07 5030570 5095590 5199546 5306146 5520970 5711188
2211.97 5816898 5988042 6126084 6232330 6369138 6522806
2214.86 6748272 6909510 7147984 7563178 7803758 7662482
2217.75 7793092 8119456 8224470 7939764 7661106 7716090
2220.64 7917800 8009168 8215694 8435824 8580966 8478472
2223.54 8336502 8305586 8379522 8485828 8643866 8743906
2226.43 8927540 9049180 9117094 9051680 8990396 8948278
2229.32 8925210 8960044 9068330 9251822 9454260 9650198
2232.21 9955846 10167470 10420310 10778810 11188380 11529810
2235.11 11790230 12173950 12756460 12789080 12077670 11313370
2238.00 11169710 11255660 11160510 11036790 11092970 11273510
2240.89 11579940 11919670 12379990 12805950 13050320 13333020
2243.79 14054050 14695300 14642580 14261810 14298530 14502920
2246.68 14841640 15054910 15138980 15404600 15947900 16482350
2249.57 16340340 15656040 15284950 15015790 14880260 14720880
2252.46 14480220 14213130 14041550 13886690 13841920 13685260
2255.36 13393080 13093520 12900190 12980270 13469860 14854880
2258.25 18273740 21469060 18868890 14599140 13157560 12969370
2261.14 13121660 13165230 13343540 13538640 13710530 13964220
2264.03 14502420 14904310 15106210 15052510 15089690 15201340
2266.93 15405070 15525810 15705900 15785460 15891680 15974200
2269.82 16062500 16050510 16049000 15971650 15999050 16087600
2272.71 16199120 16241680 16201140 15858640 15381540 14997900
2275.61 14661790 14211570 13791240 13402860 13193050 13031370
2278.50 12864760 12715070 12696370 12499960 12412200 12380270
2281.39 12416540 12434500 12509550 12598250 12746920 12939000
2284.28 13256360 13442720 13419490 13405000 13578650 13699030
2287.18 13938890 12951680 11512590 10873190 10677430 10470260
2290.07 10412100 10257390 10090540 9971480 9894146 9777504
2292.96 9746528 9646488 9660592 9559726 9366024 9133550
2295.85 9043842 9036810 9142802 9274942 9358360 8979040
2298.75 8570924 8484406 8795734 9374640 9596938 8746464
2301.64 7978192 7804332 7863568 7665584 7430016 7235374
2304.53 7135796 7179056 7249508 7188584 7318080 7487588
2307.43 7530568 7433202 7353498 7235234 7217874 7379934
2310.32 7800588 8203120 8189296 7832062 7528316 7267340
2313.21 7099948 6904186 6775496 6705366 6634362 6545006
2316.10 6478150 6398210 6330128 6231478 6192496 6115896
2319.00 6098196 6001726 5900858 5761740 5635382 5527746
2321.89 5576434 5652186 5748512 5894578 6217274 6700832
2324.78 6980970 6172870 5336912 4924896 4708898 4695566
2327.67 4932920 5008712 4731518 4339438 4335822 4585832
2330.57 4698656 4553318 4582102 4557168 4478434 4566210
2333.46 4976762 5122372 4995504 5065850 5354660 5221240
2336.35 5012544 4929740 4794630 4530408 4513102 4601160
2339.24 4610350 4500302 4683688 4896492 4836478 4525210
2342.14 4299376 4221300 4242728 4305556 4232576 4018072
2345.03 3991450 4001932 3912174 3864498 3923704 3880240
2347.92 3760022 3620522 3562288 3410768 3318370 3254204
2350.82 3337398 3364090 3364396 3341998 3290502 3304842
2353.71 3609876 3660496 3536056 3506464 3483124 3457948
2356.60 3524418 3398922 3255994 3223130 3258202 3278396
2359.49 3339802 3183148 3128654 3140558 3006526 3010754
2362.39 3089222 2894504 2755712 2569416 2511788 2642054
2365.28 2663526 2629614 2607332 2433990 2472186 2402372
2368.17 2349342 2265094 2204302 2266508 2370522 2593518
2371.06 2961006 3164374 3406500 3217226 2649454 2436310
2373.96 2411948 2418320 2357770 2357068 2401244 2419452
2376.85 2459078 2552126 2660958 2740502 2802068 2674290
2379.74 2566566 2432638 2371642 2330134 2325102 2281654
2382.64 2215020 2106728 2092156 2112786 2165840 2142516
2385.53 2140988 2180274 2214828 2209664 2251066 2183332
2388.42 2156742 2194036 2213318 2203692 2239072 2276040
2391.31 2400298 2504176 2606204 2666590 2773058 2585150
2394.21 2368900 2418508 2851460 2847150 2628250 2628410
2397.10 2530922 2536352 2633900 2611668 2562312 2620676
2399.99 2755182 2758380 2761574 2899248 2969502 2959232
2402.88 2978112 2928400 2918464 2920698 2895450 2943016
2405.78 3052692 3005484 2998746 3129330 3166000 3230874
2408.67 3306496 3198494 3095962 3078482 3141512 3138728
2411.56 3112774 3130456 3203246 3207810 3301322 3402064
2414.46 3656368 4145624 4301232 3794704 3439938 3240184
2417.35 3315118 3608680 3767966 3518566 3385740 3386386
2420.24 3364850 3383998 3597572 3784870 3943112 3867382
2423.13 3721156 3429828 3195370 3057942 3131022 3183936
2426.03 3209530 3159338 3124618 3124954 3153950 3148486
2428.92 3197962 3201282 3258714 3224176 3183388 3272318
2431.81 3378472 3242496 3133944 2924136 2789524 2767456
2434.70 2812200 2809270 2815504 2788534 2819962 2804260
2437.60 2782738 2673712 2653984 2681844 2570810 2382604
2440.49 2374308 2434914 2391904 2277608 2178650 2103350
2443.38 2012270 1949818 1984764 1862334 1845142 1904694
2446.28 1901174 1874978 1901234 1918326 1903936 1867262
2449.17 1877500 1774808 1678916 1708174 1753098 1718234
2452.06 1621680 1574436 1610172 1543250 1502024 1504568
2454.95 1548838 1534642 1495476 1480920 1508672 1453386
2457.85 1427564 1371868 1368034 1452266 1493782 1440316
2460.74 1424596 1365670 1359336 1391810 1416140 1309104
2463.63 1281776 1259000 1323876 1370668 1421530 1425742
2466.52 1466164 1525164 1619906 1635870 1648592 1621132
2469.42 1595272 1546528 1585946 1615208 1552456 1503310
2472.31 1519568 1416988 1438530 1529678 1564072 1558466
2475.20 1684480 1750406 1742012 1602934 1629726 1680662
2478.10 1670138 1620294 1528496 1506176 1470616 1387250
2480.99 1461718 1483548 1535438 1557004 1685220 1810634
2483.88 1737944 1682530 1760954 1727924 1821106 2004544
2486.77 2121878 2082840 2085204 2010486 2073758 2181460
2489.67 2185702 2163020 2192144 2216138 2221748 2269836
2492.56 2333112 2317242 2400932 2370434 2464348 2477204
2495.45 2467852 2488930 2512396 2499114 2565812 2569656
2498.34 2662580 2710352 2763184 2816900 2853040 2832316
2501.24 2905472 3028326 3230646 3476214 3864070 4204976
2504.13 4032202 3388356 3096472 2993230 2997280 3052452
2507.02 3172274 3225484 3274094 3354402 3511504 3618458
2509.92 3599006 3410284 3346498 3286062 3170696 3198214
2512.81 3422106 3817462 4636332 5661844 6130206 5681710
2515.70 5264572 4663044 4070044 3592334 3435434 3537470
2518.59 3651704 3770416 4001274 4144926 4083332 4003454
2521.49 4017448 4128752 4314204 4342780 4331540 4304618
2524.38 4386904 4537934 4659908 4680708 4742204 4835056
2527.27 5036144 5159448 5116794 5018038 4849790 4534078
2530.16 4299954 4016892 3772032 3538368 3494190 3667500
2533.06 3804880 3841380 3855344 3833576 3825354 3653722
2535.95 3536830 3510658 3621298 3687304 3803398 3975120
2538.84 4424996 4848420 4439600 3523688 3103432 2893084
2541.74 2848422 2874748 2861718 2599328 2448414 2445210
2544.63 2538260 2555310 2652734 2741328 2794854 2743344
2547.52 2666330 2631944 2703254 2815102 2819462 2864530
2550.41 2992358 2835414 2801120 2885564 2857244 2765284
2553.31 2736916 2647300 2560158 2526652 2487220 2396148
2556.20 2360758 2307604 2220852 2115742 2219074 2205852
2559.09 2152466 2155748 2231818 2233104 2232426 2193508
2561.98 2163338 2088644 2090838 2063776 2105628 2130736
2564.88 2097586 2171914 2335996 2344774 2218828 2227924
2567.77 2372806 2322170 2215528 2174046 2311954 2420688
2570.66 2477650 2466404 2550394 2562124 2535630 2627438
2573.56 2768218 2693454 2594348 2551524 2646504 2698396
2576.45 2706096 2726218 2991702 3088752 3022170 2946958
2579.34 3053020 3260364 3389206 3370372 3373698 3248752
2582.23 3227640 3314546 3455994 3444328 3481062 3621396
2585.13 3782552 3811094 3904994 4052978 4181668 4281564
2588.02 4389720 4394590 4425246 4518726 4698948 5031380
2590.91 5381866 5363610 5212710 5107152 5204522 5269364
2593.80 5274314 5262652 5341974 5438654 5641214 5630018
2596.70 5638980 5778946 5925854 5879882 5900848 5907570
2599.59 5973388 6018098 6047994 6115192 6300124 6420326
2602.48 6502222 6645626 6716108 6573148 6528482 6486246
2605.37 6318050 6137206 6187886 6284526 6489264 6647460
2608.27 6694194 6636712 6598420 6602178 6669334 6662618
2611.16 6763520 6843558 6987840 7209916 7398958 7397630
2614.05 7239284 7006436 7006580 7069436 7109330 7101596
2616.95 7087430 7020600 6986806 6875502 6708988 6621086
2619.84 6550204 6401358 6436082 6530714 6601826 6535018
2622.73 6491314 6499556 6512470 6450162 6420206 6400030
2625.62 6581782 6650522 6570022 6507150 6607792 6457888
2628.52 6198182 6010456 6000842 6109166 6174936 6154398
2631.41 6105506 5932158 5804440 5826512 5899730 5827630
2634.30 5545050 5355658 5630952 5994224 5850274 5563706
2637.19 5352008 5079876 4999234 4947314 4945840 4884306
2640.09 4927390 4881064 4819172 4828688 4842382 4682554
2642.98 4575398 4535018 4561428 4346100 4078704 4061512
2645.87 4048358 3940094 3934492 3949612 4065710 4081526
2648.77 4048644 4043422 4082104 4058730 4025378 3957458
2651.66 4134614 4186174 4139392 3922872 3814574 3814378
2654.55 3782410 3655560 3583848 3481632 3375022 3204980
2657.44 3116250 3109308 3089000 3039290 3042648 2915624
2660.34 2830744 2733730 2625330 2519482 2477904 2366002
2663.23 2374586 2309250 2304850 2237472 2140494 2030460
2666.12 2076426 2087374 2037716 1918348 1859188 1710360
2669.01 1716634 1697258 1670730 1781350 1929698 2008338
2671.91 2580662 3540044 3147116 1993918 1624966 1456204
2674.80 1382320 1314164 1347242 1341858 1311052 1171422
2677.69 1179660 1164834 1221418 1325808 1419992 1308820
2680.59 1240546 1175124 1205164 1115872 1007562 1027130
2683.48 1114202 1111346 1203570 1127548 1061634 1036170
2686.37 1041762 946172 909090 1029282 1173370 1085016
2689.26 1009722 954236 939772 918110 963176 1026368
2692.16 1010730 867916 913884 946818 948036 899008
2695.05 955442 1009072 1075880 1009966 1019004 1063236
2697.94 1149920 1150598 1120946 1097206 1229296 1208540
2700.83 1214530 1264138 1255462 1224214 1442164 1542498
2703.73 1501108 1429218 1571968 1721096 1818100 1703566
2706.62 1697352 1759290 1876424 1908758 2039646 2137032
2709.51 2269244 2390744 2545758 2657744 2895206 2941544
2712.41 3008690 3175520 3328472 3470012 3687156 3879166
2715.30 3986324 3976054 4016648 4012610 4063844 4145322
2718.19 4161792 4229256 4390742 4464948 4428970 4495030
2721.08 4500802 4312646 4266410 4327508 4478854 4521402
2723.98 4336700 4210312 4176138 4190536 4296980 4258960
2726.87 4157356 4210846 4495318 5004116 5698620 6690080
2729.76 8341112 10317800 10514060 8480274 6891520 5440544
2732.65 4612272 4212428 4155582 4175958 4454228 4759168
2735.55 5141316 5240500 5372118 5635588 6001240 6301792
2738.44 6548722 6669042 6896672 7044742 7244082 7373248
2741.33 7509986 7501692 7459150 7328340 7285798 7291966
2744.23 7623378 8134544 8505738 8585564 8584866 8400972
2747.12 8244854 7986872 7863466 7921060 8013554 7888576
2750.01 7886194 7781652 7678190 7667108 7712250 7595468
2752.90 7598294 7585550 7657976 7736898 7943556 8060548
2755.80 8185338 8222090 8357304 8644090 9027314 9148854
2758.69 9362690 9445894 9396568 9400314 9569432 9726956
2761.58 10027260 10121040 10219090 10349010 10533630 10609610
2764.47 10761320 10822520 10986750 11150580 11428470 11762050
2767.37 12507730 13755550 15699740 18120500 20483560 22464080
2770.26 24920520 24888800 21513330 18570120 15112870 13174140
2773.15 13224940 14031220 14852130 15181960 15356380 15538430
2776.05 15855980 16269390 16623150 16933960 17363620 17696590
2778.94 17978710 18163060 18624490 18962060 19191160 19393590
2781.83 19685050 19960380 20216300 20496040 20909920 21469730
2784.72 21945620 22100850 22310830 22374320 22518290 22667100
2787.62 23010730 23558980 24072670 24205980 24150630 24176170
2790.51 24243240 24307250 24395560 24449980 24652520 24788430
2793.40 24987660 25128330 25229490 25241340 25227580 25127780
2796.29 25110310 25099240 25047620 24678640 24534600 24295970
2799.19 24012540 23864470 23837840 23627000 23459860 23382290
2802.08 23333320 23150780 23152050 22974390 22973360 22709600
2804.97 22821590 23652100 25266140 26339930 27539600 30485290
2807.87 34551920 35862180 35086880 38127540 41657170 33934800
2810.76 23580200 19918050 19358400 19551490 19811590 20001120
2813.65 20130420 20317660 20413550 20365680 20268700 20222590
2816.54 19927620 19474220 19470480 19625390 19825720 19915450
2819.44 19996280 20010760 19931770 19538280 19351270 19242310
2822.33 19088190 18911320 19123460 20015010 20781460 20569740
2825.22 20040580 19527040 19127270 18721910 18507150 18298080
2828.11 18792660 19715350 20658600 22035610 23606160 22714660
2831.01 20057080 18573840 17930610 17591440 17505890 17719610
2833.90 18049260 18331880 18802050 19116290 19266560 19326640
2836.79 19437140 19591990 19874720 20120970 20574540 21159690
2839.69 21592790 21569010 21542620 21801950 22358910 22691190
2842.58 22953400 23103820 23331920 23557040 23836290 24056050
2845.47 24323210 24541220 24711430 24954830 25316480 25570150
2848.36 25982290 26135930 26295290 26636500 27114650 27372890
2851.26 27472070 28018380 28978060 30104550 31449650 32650470
2854.15 34052400 35298760 36298280 36898900 35934540 34562140
2857.04 34362450 34742400 35520430 36415030 37511160 38744870
2859.93 39994150 41446420 43567200 45765220 47899460 49930150
2862.83 52091310 54613280 57195810 59829200 62537100 65756700
2865.72 71105820 83355340 92817630 86539510 77656120 74058550
2868.61 74466560 75004930 75572380 76097860 76874850 77207240
2871.51 77579500 77329660 76952900 76065540 75823460 75653280
2874.40 75531490 75577200 76380150 77116320 79634780 85559300
2877.29 95854500 104633100 102387200 91985260 84693570 81744020
2880.18 80389600 79253890 78911810 78829170 80335700 82218700
2883.08 84437940 87107760 91144360 96532890 106207000 126799500
2885.97 155060800 150306400 132494600 124850500 115701600 109308100
2888.86 107272300 108019400 109132900 110973100 113194700 116236400
2891.75 119992700 124431100 128371900 130978200 133240200 135710300
2894.65 137455700 139802700 143076800 146824300 150156800 153727400
2897.54 156762000 159885100 163008800 167178500 171606300 176374800
2900.43 181021400 184134600 186297600 188973000 192513500 195379900
2903.32 196167400 196986700 198438000 198115800 196774300 195071100
2906.22 193706700 192061300 191111000 191214500 192022600 192110600
2909.11 191490400 191576500 193435900 196590600 202515500 211116000
2912.00 219468200 225926300 233583000 242487100 251439600 259171600
2914.90 265311500 270842600 278531900 285535900 290975700 292825000
2917.79 293459900 299761300 308453000 313666400 317294000 320568600
2920.68 324177500 327634600 331495900 335633700 340552100 346606500
2923.57 354280500 362290100 368770000 370632900 367325300 365819100
2926.47 371401200 383932200 402983100 426586400 432379900 404827900
2929.36 372454700 361204100 363514200 368092100 370232000 370689300
2932.25 371801600 372839800 373751600 373094200 372751500 372002400
2935.14 371197000 370465500 370609500 372927900 378108200 382775000
2938.04 387899400 395392000 410287700 434803400 470995500 512202300
2940.93 549180400 545418500 478181800 412642500 378327000 364718000
2943.82 360258000 361256400 363917800 368659300 375425100 382819600
2946.72 390009900 398386800 407752100 418399900 429484800 439675600
2949.61 447504900 453707100 458616200 462832900 465673200 467672800
2952.50 468799400 469829500 470444800 470877400 471258700 471812300
2955.39 472097300 472652800 473138000 472959000 473230800 474536000
2958.29 474793400 474514100 474596100 476058700 477764500 479212900
2961.18 481465600 486060600 492170200 496842200 501444400 506576200
2964.07 512717400 519080000 526965100 535891200 546397300 557807300
2966.96 568252700 579848200 590673300 599772900 607279600 612255000
2969.86 614232500 612985400 608505000 600839200 590770400 577825300
2972.75 564089300 554281700 552591900 560295400 570483100 583247900
2975.64 605096800 633416200 663686000 691303200 714391600 733245000
2978.54 747757900 760904600 774160300 787253500 797945900 807704800
2981.43 818069000 830064600 847845600 869520800 876828700 869146500
2984.32 862661200 860897300 861759900 862512600 864421400 868161700
2987.21 873594600 876709000 878919800 880854100 883817900 887428400
2990.11 892430600 897935100 904288300 912606400 925613800 939462500
2993.00 950936400 951740000 944149400 940716100 939021600 916474600
2995.89 879581600 858219500 862616400 890207400 937466700 1011065000
2998.78 1126141000 1279488000 1449947000 1574230000 1557032000 1357896000
3001.68 1100751000 940151600 871864600 821298900 773683500 758014100
3004.57 758166500 760661500 766801800 773148500 776777600 778580600
3007.46 779126800 777206700 773810600 768765000 760970300 752558700
3010.36 745733100 739327700 731971500 723992500 719329700 717965700
3013.25 717888300 719119300 719286700 716660700 712539200 706196600
3016.14 698830200 690352400 681098600 672141800 664233700 656273600
3019.03 648299800 641788400 635192400 628951700 622691700 615914900
3021.93 609932500 603831700 598861800 594304200 589671900 585024700
3024.82 579790900 574912800 570706000 566947800 563722600 560732400
3027.71 558261000 555176800 551896300 548529000 545596200 543136800
3030.60 540828500 538240800 536031500 534006400 532854800 531818300
3033.50 531220700 530230000 529917500 530398300 531261900 531919300
3036.39 534050300 536297800 536923800 533362000 523690700 512836300
3039.28 505515800 499269300 492646000 483390700 473986900 462693200
3042.18 451037300 438870000 426630500 415615600 403046100 389850700
3045.07 382563400 381892100 389105900 404127400 432376500 476107300
3047.96 566052800 756168400 1081625000 1409954000 1479458000 1124670000
3050.85 586897700 325169200 271170300 268419800 278946500 295389200
3053.75 312586300 331168000 347797600 363609300 375484700 385830600
3056.64 393484000 399222700 402737000 405509300 406804400 407620800
3059.53 406890800 405474000 402145300 398898400 394938200 389895500
3062.42 383229200 376562300 369537000 361648200 352821600 344578900
3065.32 335904600 327171500 317938300 309003100 299784100 291133900
3068.21 282001500 273337600 264477400 255574500 246589900 238345800
3071.10 230106900 222612700 214665400 206959400 199249800 191965600
3074.00 184756700 178094900 171694400 165581200 159065000 152698400
3076.89 146311200 140771500 135226200 129797400 124327900 119255800
3079.78 114593800 110759600 106645100 102251100 97582260 93110830
3082.67 88661860 84591130 80706050 76938680 73242590 70145220
3085.57 66883260 63855140 60528660 57721590 54847980 52287800
3088.46 49548380 47082190 44816280 42713880 40387670 38269310
3091.35 36088900 34410560 32752540 31231820 29833000 28513600
3094.24 26923360 25604630 24324120 23466260 22408910 21371330
3097.14 20412140 19594920 18637530 17938650 17214690 16667880
3100.03 16165630 15590450 14838170 14248590 13586660 13212270
3102.92 12905920 12560100 12038830 11727580 11327100 11137450
3105.82 10866850 10549960 10092880 9913852 9749590 9761008
3108.71 9498966 9478078 9342382 9143636 8843674 8673642
3111.60 8600280 8622764 8445110 8570932 8481076 8358816
3114.49 8294512 8419580 8313896 8286498 8263586 8394988
3117.39 8402804 8538012 8548160 8530488 8403366 8368718
3120.28 8409076 8552460 8557120 8555128 8385412 8368322
3123.17 8329018 8478312 8566984 8599206 8423682 8545116
3126.06 8610110 8666964 8665450 8741248 8883390 8943804
3128.96 8870000 9068724 9107936 9196770 9143812 9093176
3131.85 9087658 9289456 9375478 9333418 9378174 9704882
3134.74 9812728 9873352 9940072 10062610 10008040 9948084
3137.64 9992530 10046840 10023320 10138350 10116450 10342090
3140.53 10498690 10539450 10510930 10784350 10961260 11296120
3143.42 11722460 12387800 13105220 13689270 13852830 13419920
3146.31 12620660 12054870 11766120 11725700 11620230 11700180
3149.21 11870750 12131100 12193270 12332490 12480340 12705980
3152.10 12780790 12883010 13108860 13258040 13188840 13447500
3154.99 13671770 13641240 13720260 14058590 14230010 14582790
3157.88 15015280 15453630 15716000 15994730 16331260 16775390
3160.78 17019810 17367090 17749220 18117300 18189490 17537630
3163.67 16398600 15540790 15107350 15078340 14846530 14687000
3166.56 14634220 14560450 14373030 14433820 14503720 14395780
3169.46 14190550 14026840 13961380 14149560 14195810 14224270
3172.35 14508990 15205850 16559670 19443380 23538370 24368410
3175.24 20488270 16987030 15333670 14489690 14108760 13990530
3178.13 13782350 13393950 12850370 12607650 12574610 12539670
3181.03 12287340 12122080 12161810 12360730 12323890 12290830
3183.92 12122290 12060050 11804250 11639020 11620970 11697700
3186.81 11567870 11400670 11198160 10997280 10715330 10653190
3189.70 10531380 10497690 10203050 9871090 9645270 9437308
3192.60 9127370 8934290 8598868 8289328 8135830 8071460
3195.49 7732222 7440300 7283988 7234986 7015488 6717702
3198.38 6403142 6267510 6050980 5787640 5579560 5411418
3201.27 5231412 4908946 4612922 4496472 4354406 4294064
3204.17 4096118 3981594 3826224 3782098 3767176 3649302
3207.06 3474114 3337402 3249166 3212630 3033014 2875422
3209.95 2732168 2585556 2610680 2644796 2468076 2355468
3212.85 2106016 2119328 2072076 1984852 1872110 1956090
3215.74 1893810 1714082 1499856 1538602 1671504 1488528
3218.63 1374904 1428938 1548774 1635228 1325632 1274208
3221.52 1171074 1191094 1230348 1164370 1019380 1055286
3224.42 1225132 1309968 1169920 1116882 987246 1019788
3227.31 979660 939774 907578 1070192 1215286 1090252
3230.20 914328 938236 919374 942200 680150 722454
3233.09 806974 690902 670798 809124 825234 688926
3235.99 777318 962690 881828 745678 631510 706092
3238.88 771426 748744 683316 652950 589314 579378
3241.77 546022 534436 662074 826160 691478 558384
3244.67 603386 723592 778274 776322 652112 807256
3247.56 747304 567160 647134 950910 965752 833932
3250.45 716248 613206 686964 804370 758036 853880
3253.34 883696 830806 696798 752682 652042 696468
3256.24 751758 731274 787622 844698 650490 583030
3259.13 868350 887728 630072 762100 856336 796130
3262.02 693956 680188 771240 756032 664380 720454
3264.91 810364 831648 785312 963546 1042272 889738
3267.81 620696 733900 757676 766450 764834 629736
3270.70 637944 745836 638422 661196 690248 755970
3273.59 684414 564970 516776 709058 870036 949184
3276.49 984222 992346 1022342 1088510 1091980 1026710
3279.38 977662 847398 870910 1231000 1209648 865274
3282.27 697088 875592 978222 1009258 1073982 968974
3285.16 877062 1011920 1008326 895902 804690 939256
3288.06 973144 1007224 1088552 1092668 1074852 1079582
3290.95 1026976 1140028 1260332 1374892 1244444 1312800
3293.84 1142068 951024 942746 1181090 1228022 1167926
3296.73 1121590 1167766 1196012 1251074 1138514 999474
3299.63 1003812 1026912 1014100 1055120 920738 903694
3302.52 978714 1121748 1085792 985588 1101028 1219860
3305.41 1110772 922666 1049796 1197768 1174604 1176834
3308.31 1217422 1238232 1342648 1352620 1217584 1405628
3311.20 1347234 1231716 1207854 1433738 1554664 1526760
3314.09 1540816 1561466 1444936 1683026 1857356 2031616
3316.98 2157410 2078222 1969622 2163612 2249676 2320278
3319.88 2483184 2399880 2381810 2527824 2704888 2990970
3322.77 3179950 3202596 3287196 3501058 3389560 3346418
3325.66 3525756 3587766 3733872 4106956 4273826 4240426
3328.55 4040694 4134364 4282850 4287820 4263894 4301552
3331.45 4391318 4312956 4156416 3971184 4017726 4177680
3334.34 4232220 4253610 4266772 4150610 4139416 4045234
3337.23 3980794 4203502 4441886 4964370 5627488 6249736
3340.13 6913270 7292346 7021754 6144326 4951118 4213180
3343.02 4068646 3888216 3800410 3954312 3989168 4069650
3345.91 4154976 4168672 4174670 4351108 4557432 4743784
3348.80 4808596 4985636 5226626 5309306 5210740 5161292
3351.70 5278194 5713896 5731696 5570564 5595758 5600502
3354.59 5372860 5216096 5262200 5255030 5035472 4946230
3357.48 4976104 5101016 4950370 4692320 4567582 4620108
3360.37 4623774 4771104 4629332 4459394 4304244 4179214
3363.27 3940820 3840080 4045460 4148242 3902952 3822556
3366.16 3790424 3693798 3626394 3649456 3711626 3633296
3369.05 3618468 3786328 3752508 3670648 3708734 3789080
3371.95 3823774 3797024 3831386 4018998 4072190 3873870
3374.84 3811084 3876196 3862722 3841442 3817184 3772724
3377.73 3701492 3568592 3582544 3851728 3996444 3896870
3380.62 3679680 3651242 3719976 3713198 3544342 3737018
3383.52 4186730 4518774 4440608 4506882 4677048 4672566
3386.41 4394244 4342742 4269226 3998864 3952790 3912228
3389.30 3858508 3803668 3654144 3509558 3494080 3762618
3392.19 3967420 4101922 4236200 4537250 4719734 4825422
3395.09 4729754 4553088 4249878 4205936 4053444 4032816
3397.98 4134104 4086376 3992170 4131206 4225316 4272416
3400.87 4305738 4293686 4254668 4336322 4299272 4178426
3403.77 3998400 3834610 3667316 3671440 3706088 3773808
3406.66 3678070 3492634 3391744 3715464 3833876 3952714
3409.55 4049810 4086732 4017872 3763260 3534456 3559616
3412.44 3415400 3194320 3129476 3330148 3284894 3347810
3415.34 3583098 3684058 3460444 3226396 2960994 2870302
3418.23 2803702 2661110 2439424 2411966 2519476 2640512
3421.12 2627228 2531394 2443436 2426616 2347294 2551594
3424.01 2459830 2543518 2643034 2506454 2460708 2489874
3426.91 2404806 2522156 2367054 2241840 2300288 2393630
3429.80 2480672 2505290 2306898 1917872 1928816 2056864
3432.69 1973894 1889950 1875740 1866720 1898732 1976030
3435.59 2056478 2015878 1870706 1668098 1669626 1785072
3438.48 1641892 1595944 1639874 1635994 1627330 1698684
3441.37 1623464 1612082 1841826 1975780 1871476 1768220
3444.26 1658060 1649612 1645170 1723072 1736470 2038280
3447.16 1931404 1645736 1538992 1701014 1613432 1536072
3450.05 1675988 1679868 1612820 1627428 1598986 1528794
3452.94 1436442 1346322 1367150 1430668 1259048 1156978
3455.83 1073512 1000694 1030678 1213960 1283828 1208912
3458.73 1407512 1933378 2112314 2298674 2245076 2005130
3461.62 1895088 1774644 1573374 1511900 1556566 1427898
3464.51 1119864 1120242 997756 1027064 1297426 1419772
3467.40 1221562 1156176 1185102 1420942 1438310 1457536
3470.30 1403680 1348322 1232516 1036950 1049358 1154502
3473.19 1097134 997196 1121854 1225028 1233862 1083090
3476.08 974116 1116350 1312140 1127740 1024618 1048576
3478.98 1003398 1067182 893926 736942 683144 889614
3481.87 1051352 953044 775896 737650 731216 591634
3484.76 448980 516534 485774 469096 520488 650342
3487.65 632860 659128 610452 603550 502742 525470
3490.55 635124 528200 374034 412832 530328 447280
3493.44 252728 455384 751202 746690 821318 866162
3496.33 705666 623690 511254 530120 519298 524602
3499.22 447402 445198 452484 535398 627746 642082
3502.12 760422 843708 621696 356572 300414 286662
3505.01 158596 355092 570714 520510 474566 461794
3507.90 652230 937310 906652 709642 475794 506558
3510.80 583120 392694 416710 803352 766544 452386
3513.69 424070 642352 593838 592116 684760 822138
3516.58 757968 659790 498114 499960 557120 602164
3519.47 678770 644084 602374 751828 702900 539810
3522.37 606692 946550 1041978 870790 664450 794978
3525.26 815652 774694 909380 806926 450196 584230
3528.15 811244 906974 704474 604768 554460 754938
3531.04 898748 678596 612856 745964 651982 688072
3533.94 766480 767564 581200 560210 695230 760136
3536.83 737054 793902 843654 854552 694208 822186
3539.72 831942 930060 986148 809414 611646 560794
3542.62 480916 706720 768796 762092 865028 792006
3545.51 524148 638150 782056 494310 510048 828272
3548.40 712916 683654 645880 752680 889196 927630
3551.29 884628 965394 760010 717760 781558 719148
3554.19 649914 649542 624338 716576 769396 867120
3557.08 797488 769936 791626 770630 778258 671726
3559.97 691438 846906 763272 692888 616630 584092
3562.86 603500 693020 897766 900416 878750 1114388
3565.76 1263556 1428448 1210076 1230470 1416900 972922
3568.65 517316 415352 640234 691538 777334 867398
3571.54 782536 646800 537898 581322 646536 737612
3574.44 666402 616062 684942 736340 659454 669560
3577.33 594718 582330 723916 856806 948558 891852
3580.22 730528 820532 753552 651226 601702 744748
3583.11 831666 709470 684164 785488 885456 927812
3586.01 1480536 1428042 974938 890964 1409712 1560424
3588.90 662214 444950 567334 695914 724222 797010
3591.79 898280 810936 813470 874718 853136 909120
3594.68 1139054 1196418 986908 897032 771304 767990
3597.58 831744 862274 773302 712370 703058 822586
3600.47 910246 833770 872792 902596 834456 820060
3603.36 620284 588022 659466 731386 828220 932422
3606.26 1137208 1312366 1042456 824116 1330694 2486990
3609.15 1891664 939982 812096 862704 955532 1394482
3612.04 1909404 1510386 945706 975474 1134636 1083038
3614.93 950762 823798 775852 814640 1280060 1548264
3617.83 1232184 1250352 1968234 2352962 1315854 903252
3620.72 929546 835568 664018 855526 1024618 1136016
3623.61 1109300 1174900 1052560 1055442 1126216 980584
3626.50 701688 1036922 2284860 3052426 2357766 3413758
3629.40 3067110 1456764 1062316 1013658 1055322 1063322
3632.29 1066532 1230048 1524730 1360344 1199890 1239184
3635.18 1177170 1040628 1052456 1178264 1274124 1471258
3638.08 1363280 1254668 1255084 1250518 1300878 1304358
3640.97 1152214 1199344 1217584 1207690 1293546 1351740
3643.86 1310730 1377268 1490254 1645484 1789184 2220318
3646.75 2780226 2460148 1789404 2489374 4317382 3584002
3649.65 2352714 2772996 2889862 2500896 1773042 1739668
3652.54 1759614 1821956 1874070 1889554 1701122 1952100
3655.43 3185430 3835556 2534018 2011278 1975646 1980614
3658.32 2072108 2106510 1963482 2034390 2166272 2300982
3661.22 2379622 2327246 2122546 2308342 2389512 2408558
3664.11 2291616 2329018 2390660 2472882 2448484 2541128
3667.00 2579758 2763146 3570454 3933954 3253122 3396886
3669.90 5246320 6316524 4064798 2944876 2718870 2905070
3672.79 2992052 3137700 3564150 4841666 4964754 5695456
3675.68 6153568 4197742 3366174 3338172 3182294 3320176
3678.57 3673758 3760138 3421012 3403576 3322544 3305894
3681.47 3231130 3189806 3191180 3181632 3260272 3365086
3684.36 3283320 3429720 3461278 3600048 3564622 3650696
3687.25 4354204 7008640 7064050 4637124 3926492 3877372
3690.14 4044178 4671394 4603982 3856034 3548540 3464166
3693.04 3478106 3501800 3446726 3423376 3564210 3618828
3695.93 3697584 3795828 3771276 3803126 3749858 3616680
3698.82 3566454 3590860 3566450 3600558 3950848 4506322
3701.72 4206448 3700656 3579764 3593432 3638166 3613442
3704.61 3662062 3673998 3730212 3837906 3753096 3716404
3707.50 3804256 3909806 4549518 5082758 4289448 3867070
3710.39 4110178 4389860 5907722 6721024 5077934 4200926
3713.29 4086078 4184160 4328924 4261778 4164720 4404298
3716.18 4328192 4417168 4545290 4660850 4730920 4800452
3719.07 4704762 4638472 4483328 4622372 4782896 5414470
3721.96 5630108 5286532 4989678 4920846 5102182 5383794
3724.86 5303740 5190932 5897194 6184258 5637926 5665646
3727.75 5726562 5811306 5828176 6026168 6025170 6080122
3730.64 6164186 7181264 8577236 7883566 6709906 6583274
3733.54 6866008 7711474 8276264 8067744 7746058 8975984
3736.43 9133814 7816074 7579814 7881966 7843544 7701052
3739.32 7663506 7760642 8074794 8193064 7753446 7648524
3742.21 7841416 8263960 9526346 12332410 14401190 11746760
3745.11 8902310 8386114 8525494 8777070 8915762 9121716
3748.00 9576392 11718320 13284800 11079660 9380212 9439044
3750.89 10049340 12618170 14096760 11635260 10328720 10170860
3753.78 10203190 10378000 10542670 10695450 11306450 11785740
3756.68 11397510 11032530 10741190 10450690 10580630 10994790
3759.57 10713030 9865030 9529624 9507010 9691058 9786374
3762.46 9796212 9517080 9192866 9258814 9500202 9827364
3765.35 10006600 9625772 9464632 9279532 9134004 9077828
3768.25 9117160 9560170 10526210 10404850 9423160 9111548
3771.14 9134804 9060954 8735140 8719852 8849022 8927600
3774.03 8890148 8875978 8728270 8750342 8829038 8655408
3776.93 8425206 8478036 8616580 8695680 9167914 9097258
3779.82 8203290 7884518 7882038 7896836 7823126 7878224
3782.71 7818264 7596958 7601290 7818480 7841488 7863368
3785.60 7662946 7617296 7593838 7432070 7199880 7247680
3788.50 7233196 7123606 7131206 7397318 7405778 7215072
3791.39 7248728 7357178 7265382 7246364 7118484 7113304
3794.28 7156740 7237796 7405264 7971904 7834106 7289898
3797.17 7132664 7200834 7147814 7056620 6960840 7266930
3800.07 7813300 9966026 11075690 8482912 7384180 7670700
3802.96 7708956 7776626 7993342 8343184 8740270 9291112
3805.85 10222780 12115450 11503420 8842876 7681756 7308806
3808.75 6977480 6499436 6299966 6293952 6430028 6508870
3811.64 6611964 6910024 7127166 7137654 7220150 7336674
3814.53 7508556 9023576 11917200 10964580 8759480 8463674
3817.42 8487398 8579698 8363400 8185012 8263400 8950690
3820.32 9324540 9117032 9339786 8404680 7679178 7594972
3823.21 7364306 7387524 7385022 7160824 7114332 7316846
3826.10 7643606 7525362 7194036 7193994 7062844 6978350
3828.99 6891554 6924814 6908160 7223452 8024794 8001234
3831.89 7033396 6915500 6817292 7069052 7429150 8461886
3834.78 8254404 7551518 7376118 7316212 7874564 10494590
3837.67 9950052 7254072 6792342 6911238 6880802 6843446
3840.57 6982174 6409462 6061994 5900980 5994686 6625828
3843.46 6838892 6234242 5830886 5622562 5749868 5959858
3846.35 5963812 5673136 5570820 5720302 5865320 5855644
3849.24 5973150 5920914 5920750 6311506 8216120 9548484
3852.14 7470944 6671920 8735320 11906500 10710670 7236630
3855.03 6071544 5955326 5916576 6242606 6202254 5729306
3857.92 5605622 5613160 5528330 5406478 5608106 5699084
3860.81 5921662 6443686 6054536 5617896 5645788 5825470
3863.71 6217940 6987992 7563542 6789976 6209238 6150264
3866.60 6136652 6041736 6241658 6548094 7132840 7565408
3869.49 8477248 7735366 6350196 6366120 6292756 6391530
3872.39 6352678 6682308 7160472 7480112 7048244 6564958
3875.28 6337314 6348190 6441440 6563176 6626952 6576014
3878.17 6433324 6374128 6921218 7786654 7654020 7318032
3881.06 7021036 6844196 6873650 6930420 7118650 7208344
3883.96 7261140 7590878 8686406 9016876 7760232 7160412
3886.85 7262692 7334910 7282324 7165998 7049914 7048456
3889.74 7292928 7935332 8884704 8629464 7815238 7593670
3892.63 7559506 7675544 7675566 7481382 7019230 6801786
3895.53 6893240 7215844 7216156 7375658 7662956 7909606
3898.42 8327162 8787382 8020210 7389108 7299118 7809086
3901.31 8378502 7781342 7170080 7027982 7569452 8311698
3904.21 7611148 7014888 6974204 7084902 6922088 6707198
3907.10 6702434 6875750 6923528 6874080 7007006 7055520
3909.99 7071314 7022722 6936936 7141154 7088274 6942490
3912.88 6928726 7085826 6969942 6989340 7004588 7061234
3915.78 7085928 7194652 7555256 7293308 7027534 7235692
3918.67 7252984 7437430 7654734 7399026 7087862 7118014
3921.56 7234552 7204766 7255550 7457264 7609324 7801286
3924.45 8095976 8070854 7768338 7785378 7810640 8011638
3927.35 8055504 7972694 7976904 8234708 8242372 8086482
3930.24 8168138 8309590 8492750 8804812 8624586 8345690
3933.13 8377750 8278330 8243066 8266700 8294470 8480070
3936.03 8452290 8236824 8090404 8040892 8077934 8100084
3938.92 8449144 9163284 9940876 10896410 11048980 10250610
3941.81 9303752 8722658 8399226 8304938 8301608 8239668
3944.70 8454624 8674996 8787014 9064704 9363066 9460454
3947.60 9381294 9349102 9223700 9191326 9265340 9309902
3950.49 9384928 9552602 9549076 9453314 9681822 9634870
3953.38 9261428 9161240 9273908 9231676 9070120 8881008
3956.27 8897348 8891970 8735120 8746586 8566466 8469842
3959.17 8387148 8371484 8244236 8106260 8095318 8192402
3962.06 8127294 7959736 7851538 7883514 7928478 7758126
3964.95 7563670 7590462 7648818 7590496 7527298 7545092
3967.85 7319338 7319796 7381432 7472848 7415264 7219108
3970.74 7060726 7156468 7150738 7261292 7258648 7062650
3973.63 7035108 7165326 7078316
##END=
