##TITLE=Propylene Oxide
##JCAMP-DX=4.24
##DATA TYPE=INFRARED SPECTRUM
##CLASS=IUPAC A
##ORIGIN=NIST, Anayltical Chemistry Division, 301-975-3108
##OWNER=COPYRIGHT (C) 1998 by the U.S. Secretary of Commerce
##DATE=98/10/1
##$SPECTRA VERSION=1.00
##$UNCERTAINTY IN Y=2.1 % relative (B=1.1E-04,C=9.8E-10,D=2.7E-14)
##CAS NAME=1,2-Epoxypropane
##CAS REGISTRY NO=75-56-9
##MOLFORM=C3 H6 O
##MP=-104.4 C
##BP=34.3 C
##$NIST SOURCE=QUANT-IR
##SPECTROMETER/DATA SYSTEM=IFS66V (Bruker)
##INSTRUMENT PARAMETERS=KBr Beam splitter; MCT Detector; Multipass cell
##STATE=gas
##SAMPLE DESCRIPTION=Propylene Oxide Primary Gas Standard
##PRESSURE=101.3 kPa
##TEMPERATURE=23 C
##SAMPLING PROCEDURE=1 L/min Flow
##RESOLUTION=1.9290
##DATA PROCESSING=Boxcar Apodization
##XUNITS=cm-1
##YUNITS=(micromol/mol)-1m-1 (base 10)
##XFACTOR=1.0
##YFACTOR=2.2737E-13
##DELTAX=0.9645
##FIRSTX=574.687
##LASTX=3974.595
##FIRSTY=0
##MAXX=3973.63
##MINX=574.69
##MAXY=.0003691
##MINY=-8.55E-07
##NPOINTS=3527
##XYDATA=(X++(Y..Y))
574.69-136496-3042656-1103384-2327832-1753346-2257930
579.51-3760968-1141778-1398090-1984382-1958592-2315766
585.29-1361758-2203596-114652-2311860-895952-1876222
591.08-1176978-1267812-1958466-2188714-1340992-1631164
596.86-1283482-1252296-756156-1859100-1836050-669614
602.65-678626-1277956-442070-1230764-808786-1766630
608.44-1253540-1432366-576770-1715354-253890-1155180
614.22-787900-1321248-705356-1582264-746368-1400084
620.01-1488908-1023384-1121736-1500252-147918-1652186
625.79-1319642-1545152-936320-980664-1555904-2223324
631.58-1199734-1794340-894350-2053332-1351722-1880914
637.36-1267112-1885078-1649728-1523816-880130-1783782
643.15-955590-1176728-733236-2152244-1540088-1970970
648.93-795876-1853194-1329282-2283206-1064000-1770628
654.72-1132320-1732774-851718-1528204-1025978-1966830
660.50-1307964-1554294-1181616-2031564-1190124-1859092
666.29-1082484-2068386-1124940-1211422-1102130-1577882
672.08-549120-1371246-859790-2103920-773494-1733994
677.86-681362-1198818-649368-1621936-712036-1708630
683.65-1100596-1662454-532054-1184442-753858-1676144
689.43-175256-1349194-535728-974184 846122-1394990
695.22 153198-810124 341246-752162 540126-585950
701.00 574654-550964 1145476-116048 1341004 418136
706.79 1726498 1170186 3453766 2491810 2518882 2135260
712.57 3592408 3006584 4491282 4045736 5907254 5510786
718.36 7038966 7421678 9088956 8909208 10946320 10685050
724.14 13166260 13767260 16260020 17518950 21427980 22174080
729.93 26560810 26683800 32009790 33070770 37617620 40715440
735.71 46927540 51106790 57382340 61155110 67389140 70912830
741.50 77757710 81213490 87149940 89126660 93606060 94960340
747.29 98135230 98380230 100769000 102646700 107421800 105571200
753.07 111882100 124809700 126081100 156146100 123704100 90448880
758.86 92587860 93859570 112683000 119481300 132183300 137087200
764.64 148994700 153339500 162546500 163603000 166422600 162289100
770.43 160712600 150633400 146487700 133518000 125963100 111381500
776.21 104269800 89731580 91143350 79161410 72065000 67900500
782.00 61347480 55819380 55111830 50829720 51811370 48603380
787.78 51618940 49358200 53223410 52025110 57139740 56460750
793.57 61843890 62411160 69588410 70208220 79034190 81236350
799.35 92159350 95187510 108278100 114086400 129395100 136928800
805.14 155801400 166130600 186600900 199550600 224542800 240658900
810.93 269650400 288703000 321825200 343063700 379875600 404302600
816.71 442848900 467401000 507507700 533447900 570462300 588290000
822.50 621627300 629970000 654242900 649932500 666709900 648691300
828.28 657271500 626514300 622238300 549005100 530939000 499644300
834.07 642880600 753707600 1164133000 719180600 394269900 588964400
839.85 574098000 661544200 636508800 668514600 648103200 674307900
845.64 652594400 664973000 636074900 630702500 592086800 571910000
851.42 525702000 497880100 448052800 418171500 371509700 343497000
857.21 304013000 280852400 246023600 229600400 200608400 188180900
862.99 165956900 157015300 138085000 132945900 117285500 114052200
868.78 100740100 98871530 87585210 86755140 76937930 77407650
874.57 68618830 70122080 62840910 64641860 57909990 60778760
880.35 54545260 57881100 52180160 55783080 50540560 54850230
886.14 49518820 54120850 47802160 51735650 42085810 45266860
891.92 32236530 68458580 52426560 44987620 39138580 43746370
897.71 44779310 48403410 49322310 50846010 50229540 51761600
903.49 51009870 51414320 49990580 51776380 50213230 51488580
909.28 50191190 51683370 50277490 51214360 49684580 50902620
915.06 49794040 51497900 50716850 53272320 52877080 55746120
920.85 56669080 60113500 61654200 65875910 67881500 72963640
926.63 74896700 80314440 84117730 89577780 93191120 99752860
932.42 103717600 110940400 115949300 123917400 129010300 137348700
938.21 142870600 150158400 155156400 162322000 166246100 173624700
943.99 177514500 183363200 185825300 191553800 195634200 198220500
949.78 197448700 192148700 182342900 170374600 166167900 147429700
955.56 120402000 160494700 186043800 188372900 203371100 216512800
961.35 211243100 211419100 206572300 199885600 193906200 190558800
967.13 183469200 179248500 171669000 164629000 156250000 149268900
972.92 140464700 133365500 124564800 118745200 111224000 106071000
978.70 99550500 95882230 90438980 86719880 81584380 79002530
984.49 74761740 73284030 69673840 68793830 66274670 65902220
990.27 64179490 65043720 63726660 65488000 65637820 68301760
996.06 69159980 72750600 74433590 78606310 81531180 85898490
1001.85 89361940 94619600 98104000 102903800 106603300 111719800
1007.63 114633000 119717000 122152700 126945400 129230600 134560100
1013.42 137404600 143045600 144545300 146781100 140388300 133104600
1019.20 116788900 101056000 97554530 118574600 95019940 100966300
1024.99 133091500 147447900 156207300 154298000 150439600 143698400
1030.77 138270200 131845300 126598500 121285500 116509300 111924500
1036.56 106575100 101348700 96358510 91253030 86270110 81513770
1042.34 76463770 72090290 67803410 63380110 58750740 55323540
1048.13 51471400 47638240 44104520 41020600 37490960 34603690
1053.91 31740030 29315810 26740350 24621400 22443650 20682500
1059.70 18847680 17637030 16047120 15280720 14258050 14085910
1065.48 13408600 13319710 12884170 13425490 13455000 14234180
1071.27 14261640 15471830 16143340 17333400 18456070 20127640
1077.06 21554660 23303900 25046690 27185220 29540830 31659020
1082.84 33509960 36166410 38647890 41394260 43704740 46900060
1088.63 49535040 52408260 55220270 58479300 61230060 64713690
1094.41 67628500 70564670 74102900 77852600 81101950 84342250
1100.20 86744460 89025750 92623560 94251000 86138550 96775920
1105.98 108196800 127997900 97999240 102745800 128756200 137042300
1111.77 148569300 147562500 145296600 140941700 140606600 137482300
1117.55 136181600 132498600 131961600 131633200 132092700 129483100
1123.34 132988200 132626800 133467800 126161800 128540500 124806300
1129.12 131360000 123669500 155963900 178246900 108279500 106733500
1134.91 96767080 102987500 101302900 103538000 102968700 91887980
1140.70 85932390 81215610 88321910 133045200 103468500 80540640
1146.48 66448790 78067090 73041440 76285700 73940690 68991220
1152.27 67630160 69632080 68013980 70858200 71302060 80533980
1158.05 76275740 63857910 61132320 58864300 55138730 52892960
1163.84 49151880 45804550 42083900 39514620 38477410 38092960
1169.62 34052050 33880640 30765540 29829880 26733830 25550300
1175.41 22622370 21745030 19167680 18540990 16004140 15957860
1181.19 13760360 14183700 12240180 12315360 10827300 11327810
1186.98 9509288 11425190 9591790 9108376 8076414 8178888
1192.76 7273020 7495844 6414602 7043596 5943352 6526972
1198.55 6143352 6541796 6556684 8877048 7052940 5474550
1204.34 4710228 5460304 6659712 6506640 4711136 6198020
1210.12 5362284 6535020 5851918 6768560 6175288 7141828
1215.91 6496654 7414706 6647752 7696160 7643784 9609548
1221.69 11408220 9624738 8799436 10975360 10448660 12648850
1227.48 12726930 15351320 15461060 18402010 18971990 21355690
1233.26 22179980 25164950 25864980 29073750 30224080 33484690
1239.05 34769600 38658580 39808780 43902270 45464990 49901050
1244.83 52174650 57199960 58528710 64893210 68598390 70011460
1250.62 71141300 75843670 75927490 80746870 79731520 83567150
1256.40 82865980 89249070 87090840 91253780 89452460 92884600
1262.19 77259780 77949900 55620940 144854400 123050600 61098180
1267.98 78507730 77667050 87271560 87005720 92179100 88618460
1273.76 89727060 85064760 85251700 81044890 80426510 76051110
1279.55 74700640 70339820 68225250 63503430 61155090 56693140
1285.33 54292070 50032510 47871040 43920600 41715770 38263210
1291.12 36436700 33436920 31828230 29045810 27537800 25035720
1296.90 23845180 21449770 20250580 18021430 17182430 15092470
1302.69 14290080 12688370 12500300 11106430 10332250 9405270
1308.47 9089066 8276812 8073224 7405868 7115210 6511112
1314.26 6461968 5910222 5972682 5508816 5817766 5310728
1320.04 5646458 5443706 5460660 4945922 5620608 5079792
1325.83 5483204 5443478 5917456 6092970 6752812 7097798
1331.61 7361544 7648486 8323210 8766954 9684980 10024540
1337.40 10914390 11908610 12820060 13311950 14534570 15392130
1343.19 16445950 17464770 18546520 19916870 21132570 22871040
1348.97 24364290 26708270 28551350 28702020 30106880 31763300
1354.76 33257960 35042140 36605000 38495910 39213300 40905540
1360.54 40860440 42466800 42708620 47018100 44741540 43853790
1366.33 45187150 45606190 45150120 59815160 89593670 192007200
1372.11 103141000 35393050 51313140 48201550 63479770 61717620
1377.90 70363100 69099010 77704490 77682060 86866810 89563160
1383.68 101538200 108008100 124842600 137757800 163230400 177846200
1389.47 192660000 207875600 233163400 252112100 278973300 295472300
1395.25 317699700 329258000 348674300 350498900 345110200 328442700
1401.04 321601600 297806800 285149300 259169900 256655500 246117100
1406.83 285551700 327993500 514694500 704277200 836569900 287031100
1412.61 103707800 183228600 189197300 251926000 276925300 328983600
1418.40 353203600 387124000 395550900 413301700 407215200 406953100
1424.18 386165400 372244000 343593600 323357500 291709400 269761300
1429.97 241040300 235163200 207576400 192140800 174646300 168048800
1435.75 159028400 154349000 145468100 146611300 141045400 146379900
1441.54 143810500 148413000 143215600 143761600 131638300 129603700
1447.32 112872600 133076800 123522500 108697100 123841700 128825100
1453.11 138539300 138303900 137230000 134799700 128163400 127228900
1458.89 136802500 150286000 238107000 185473000 136343500 189352400
1464.68 147337100 134885800 141271700 134175100 138256100 140736700
1470.47 148575000 157321000 168110800 165223900 140081600 136610800
1476.25 134708800 134230400 132158400 130710900 125942400 122666700
1482.04 118446100 114315400 111094600 113803900 140509400 183453500
1487.82 145537800 113637600 107216800 94412090 90897900 94390100
1493.61 97042360 102254200 106810000 106684600 110060000 111096700
1499.39 109650000 108536600 105066000 102382200 97512100 96301610
1505.18 91765100 88095450 80858890 76226540 72246300 69412580
1510.96 69893280 66802260 62228670 65071160 66402520 60512510
1516.75 48864260 51086600 46946770 52481760 54787360 54606730
1522.53 56553150 57898250 62033000 61917870 62392980 61485550
1528.32 58980780 55539670 52501820 48466270 46976680 44895330
1534.11 36178740 32447250 27596350 25056540 25693740 23426040
1539.89 19452580 19511820 18422510 14946910 15893350 14567970
1545.68 12761930 12329740 11294090 11371870 10606030 9539430
1551.46 8882550 8604710 11205310 7920702 7743542 8505968
1557.25 11889230 9147656 11053880 7369000 6445182 6998628
1563.03 7019236 7806470 7094628 7563818 7721766 8626090
1568.82 10359630 8833352 9309854 9428622 9910784 9429962
1574.60 12488230 14607680 9841906 11724320 10781650 11564810
1580.39 10768460 11494530 10820970 11397670 10929300 11424580
1586.17 10899990 11916460 13261050 14803790 15596990 14061500
1591.96 9411278 9877170 10130700 11650190 11732600 12494870
1597.74 12960460 13980470 14429000 15094640 15126230 15176770
1603.53 14509710 14011960 13067280 12326430 11182510 10590180
1609.32 9498396 8568960 7770512 7140338 7126354 6397390
1615.10 8359352 10341110 5694358 7053976 5742382 6808136
1620.89 5816928 7343590 7747504 6518032 6377742 6550476
1626.67 7291012 7013046 6700850 7060014 7180844 7960450
1632.46 8109630 8261516 12692400 10510010 8396282 9556958
1638.24 8575804 9620026 9081500 10045570 9311278 9771822
1644.03 9349578 13009910 10338120 12224440 12106190 12494730
1649.81 12299310 13481650 18054970 15895640 12876330 12509530
1655.60 12319070 13205460 12923150 13502640 13069200 12884580
1661.38 14359150 14511390 12274840 13373520 12159150 12655060
1667.17 11936360 13713680 12850560 12702550 13802400 13397090
1672.96 10041000 13611900 12546840 11711270 11514780 11719640
1678.74 11409480 12250310 10796780 12564360 11977290 16401630
1684.53 13377510 10045530 11031960 10168050 9985044 9680548
1690.31 9430694 9097330 9323690 8504498 10876490 14281590
1696.10 8233554 9437018 8417126 13532780 10968850 8457470
1701.88 7993602 8703930 8620092 8448956 8602064 7444994
1707.67 6832286 5692824 7538364 8414866 9208060 9240670
1713.45 8779152 9165732 8026850 12551430 10096860 9092728
1719.24 7818910 8057504 7346192 7600250 6859176 6504296
1725.02 5888042 5810190 5126204 5141796 4964078 5282000
1730.81 4639288 4783382 6383402 5987348 3196088 2611028
1736.60 2985774 2481624 3763218 3118644 1938926 2415768
1742.38 2246714 2071478 1755782 1953964 1841734 1996870
1748.17 2130126 1215054 3235484 2336706 891946 1519946
1753.95 1033798 1592620 1937750 1666506 1270212 1701144
1759.74 1489406 3382080 2146632 2014716 2022324 2317888
1765.52 2289244 2937624 3885196 2447102 3231244 3620494
1771.31 5065704 4966128 2829138 4115704 3535894 3857432
1777.09 3220284 3281500 3201058 3755158 3406412 4625156
1782.88 3948254 5123910 3864386 4080922 3719378 4139252
1788.66 3716998 5341820 4501976 5965874 5463654 3331022
1794.45 3171174 3389642 3297830 3378162 4161508 4163596
1800.24 3879626 4050390 3562784 3596014 3402450 3459354
1806.02 3114696 3130740 2495588 2692608 2551942 2261186
1811.81 1927054 1627916 1541844 1484664 1196910 1106552
1817.59 933080 1194318 1748042 2179120 1214970 1164604
1823.38 1037104 1934434 999506 1200600 1300352 1758096
1829.16 2060286 1402194 1385872 1515398 1325334 1612482
1834.95 1497396 1565076 1649810 1591944 1918720 1767558
1840.73 1988920 1503406 2708694 3442298 1594670 2061000
1846.52 1642794 1867376 1651264 2005302 1829886 2069200
1852.30 2136050 2318510 2501846 2836636 3099276 3245096
1858.09 1283320 2146510 1644314 2196882 1852156 2294608
1863.88 2042028 2675516 2626722 2997708 3014656 3436160
1869.66 2303586 2725598 2378178 2864130 2363800 2616972
1875.45 2296684 2617434 2217576 2531078 2362228 2674844
1881.23 2378594 2819418 2786244 3225810 2965012 3360792
1887.02 3018060 3574638 3520324 3371868 3291950 3548506
1892.80 3470468 3816196 3844740 4149384 4406402 4007972
1898.59 5344220 4699158 3801184 4532514 4457908 5076588
1904.37 4504636 4690464 4362754 4593452 4675820 5418980
1910.16 5217584 5754760 5053738 5018184 4329460 4816886
1915.94 5468454 5215846 3822824 3946850 3648272 4032488
1921.73 3956750 3926746 3629052 3663838 2997926 3262912
1927.51 2831052 3076286 2861580 2969160 2650484 2819408
1933.30 2556002 2693432 2510516 2662324 2509528 2746820
1939.09 2522322 2734768 2833530 3201752 2646766 3040202
1944.87 3159974 3745260 3766490 4247394 4255374 4879566
1950.66 4937392 5516062 5607146 6140458 6303450 6535080
1956.44 6429874 6605400 6400616 6550842 6501412 6594454
1962.23 6397918 6358668 6574126 7624474 10908470 11810620
1968.01 4984966 5424434 5401746 6200794 6336902 7805288
1973.80 7275968 7596054 7411528 8139570 8574366 9634586
1979.58 8476310 7903702 7379676 7414810 6770048 6815160
1985.37 6151830 6229542 5790126 5705542 5389644 5626076
1991.15 5320952 5347734 4898868 4981854 4556186 4866608
1996.94 4698490 5299196 5229242 5761366 5625102 4685334
2002.73 4975642 5390394 5244984 5772580 5627724 5837602
2008.51 5524880 5867244 5327610 5694634 5057758 5472098
2014.30 4955918 5406062 4907796 5651132 5802408 6363952
2020.08 5157626 4591000 4325654 4999878 6139044 4914098
2025.87 4412572 4155218 4343572 4847874 4742166 4966198
2031.65 4548220 4633786 4345762 4230644 3794804 3798928
2037.44 3475072 3338348 2880712 2870344 2514096 2362298
2043.22 1960846 2225916 1903156 1864080 1602658 1490774
2049.01 1307390 1325726 1098130 1144650 1119052 1121612
2054.79 871374 1160516 898586 1278042 1302382 1261290
2060.58 1365626 1314940 1152136 1475324 1389592 1767700
2066.37 1549976 1923554 1864256 2103202 2135536 2356140
2072.15 2082138 2423070 2255386 2510492 2200204 2416072
2077.94 2243936 2386594 2198846 2372962 2411662 3066920
2083.72 3432926 2601598 2153508 2482240 2479422 2584498
2089.51 2215272 2637672 2470742 2776052 2547474 2663840
2095.29 2846526 3286486 3136306 2649650 2226954 2566728
2101.08 2346232 2626036 2249060 2468554 2154808 2316600
2106.86 2046776 2242032 1946692 2236114 1841194 2145014
2112.65 2010754 2146200 2017898 2424286 1900562 2250150
2118.43 1912802 2178742 2095194 2659078 2496026 2798580
2124.22 2447444 2447668 2645354 2710174 2821380 2825974
2130.01 2680630 3158124 3085922 3606180 3624754 4289574
2135.79 4367790 4945520 4961160 5437614 5724866 6237170
2141.58 6432804 7111564 7552508 7972402 7850204 8104322
2147.36 8426776 8863470 9078304 9732544 10055550 9760858
2153.15 9421140 9702618 10104640 9856570 11491560 12630160
2158.93 9928302 11433070 10561740 11719110 11436290 14306480
2164.72 14707190 13398650 9467030 8475474 8666872 9834750
2170.50 10071580 11047500 11567030 12379850 12649350 13029340
2176.29 12721840 12772720 12193400 11699400 10495130 9874082
2182.07 8960222 8643468 8256012 7352612 7315190 7812900
2187.86 7760738 8774392 8456486 5400518 5340248 5601100
2193.64 5517766 5821410 5767226 6001106 5767982 6077364
2199.43 5802530 6070108 5681242 5931456 5481734 6128578
2205.22 6589632 8350934 7622620 4856474 5117068 5339718
2211.00 5647170 6058560 6141096 6645102 6763044 7709426
2216.79 7593382 8213652 7911580 7692094 8009804 8489356
2222.57 8486534 8287576 8470642 8793100 9030830 9128676
2228.36 8865034 9018194 9153526 9763610 10071180 10863230
2234.14 11430020 12287410 12868520 11287070 11189890 11089970
2239.93 11176260 11996450 12740180 13384520 14702610 14362900
2245.71 14381120 15189800 15207160 16711390 15621140 15062510
2251.50 14660300 14293410 13803150 13816640 12960870 12953560
2257.28 14497240 22016680 14572920 12702230 13306690 13455610
2263.07 13985040 14971920 15070480 15187980 15560240 15803690
2268.86 15972880 16098260 15956290 16080800 16298390 15906740
2274.64 14952130 14278480 13341490 13056430 12703800 12564960
2280.43 12317540 12488030 12547500 12967860 13482400 13327650
2286.21 13929140 13097780 10544990 10704360 10096600 10103090
2292.00 9670702 9783946 9478826 9228780 8905192 9422376
2297.78 9000820 8319750 9519468 8918398 7538136 7940806
2303.57 6984280 7363830 7047222 7631930 7341854 7341868
2309.35 7199210 8407426 7752012 7365774 6796652 6802180
2315.14 6444886 6512816 6125436 6248984 5897492 5892902
2320.92 5377234 5810070 5664372 6977642 6243592 4783798
2326.71 4698726 5092660 4277042 4582910 4639356 4493742
2332.50 4599748 5140072 5047744 5348134 4822284 4640202
2338.28 4493508 4618850 4814082 4674510 4041798 4455978
2344.07 3926494 4080238 3776862 4000664 3526600 3533718
2349.85 3132872 3507140 3200808 3445158 3602840 3545790
2355.64 3423540 3500768 3091708 3418940 3129674 3167242
2361.42 2944110 3060912 2431164 2707790 2581934 2551754
2367.21 2341744 2332280 2149958 2651250 3210734 3309522
2372.99 2249152 2545458 2224278 2545848 2412538 2897018
2378.78 2596620 2530944 2225682 2403450 1999452 2215962
2384.56 2062024 2251384 2160780 2268462 2099676 2294568
2390.35 2200092 2571612 2659454 2661646 2315530 3062590
2396.14 2368316 2737582 2445120 2769794 2633676 2995204
2401.92 2880064 3049288 2784384 3068320 2922440 3169504
2407.71 3181680 3309580 2956118 3271594 2990540 3378900
2413.49 3199230 4315926 3843556 3168238 3605170 3653940
2419.28 3235854 3494490 3705378 4045324 3319112 3137058
2425.06 3112522 3256642 3025406 3253662 3132690 3310950
2430.85 3164130 3435944 2784286 2868014 2721914 2893686
2436.63 2728536 2777154 2577472 2500390 2307852 2420864
2442.42 1954736 2096744 1767612 1984050 1797080 2000480
2448.20 1808192 1861642 1596462 1835234 1464070 1674754
2453.99 1377554 1669408 1352308 1611038 1226858 1568974
2459.77 1358630 1465612 1290352 1454226 1125476 1510710
2465.56 1303654 1648030 1544036 1734582 1446982 1713712
2471.35 1413628 1540918 1395630 1697454 1654314 1743958
2477.13 1548824 1752848 1357158 1549770 1348764 1707978
2482.92 1656376 1843316 1595760 2125322 2014740 2121586
2488.70 2055056 2298978 2079262 2396450 2222164 2524766
2494.49 2355168 2608314 2391278 2711886 2584210 2954204
2500.27 2707580 3143000 3328422 4414140 3339036 3009686
2506.06 2993368 3312810 3258896 3741222 3360236 3332328
2511.84 3096654 3804392 5664366 6011628 4484824 3692846
2517.63 3340122 3946252 4015716 4129712 3981342 4542394
2523.41 4117868 4706656 4538600 4984172 5032034 5189006
2529.20 4418272 4171916 3354756 3784170 3737182 3985130
2534.99 3548492 3603974 3594818 4047232 4821442 3729464
2540.77 2637968 3100460 2451884 2568108 2436298 2890514
2546.56 2619768 2756492 2651778 3043714 2742528 2967552
2552.34 2691166 2754490 2399892 2544304 2165046 2280956
2558.13 2074840 2285032 2121476 2336720 1956816 2222950
2563.91 1957214 2332640 2207564 2356972 2235188 2268522
2569.70 2319146 2618338 2416876 2761728 2613498 2644560
2575.48 2598530 2848194 3023194 3026050 3142726 3555496
2581.27 3105774 3446476 3340198 3721376 3736244 4129456
2587.05 4208100 4518840 4351100 5172522 5339722 5151884
2592.84 5226178 5310682 5407164 5721682 5676056 6033986
2598.63 5787918 6129712 6006786 6534068 6537248 6749196
2604.41 6334162 6281206 6130536 6821840 6502258 6732232
2610.20 6559528 6952314 7084890 7595134 6846400 7213714
2615.98 6967924 7192196 6721650 6765412 6263782 6674470
2621.77 6421398 6622230 6335422 6539184 6535328 6653776
2627.55 6390598 6068416 5993194 6315820 5804776 5923804
2633.34 5760806 5397352 5916808 5694314 4984282 5032290
2639.12 4833976 4953638 4760066 4787338 4456698 4471992
2644.91 3883386 4113942 3800772 4250920 3883802 4233852
2650.69 3809810 4397292 3773456 3943600 3548820 3619182
2656.48 3082496 3207688 2953084 3056640 2605264 2649114
2662.27 2268860 2442816 2134440 2140906 1999076 2033802
2668.05 1648624 1747388 1711442 2032848 3458964 2290538
2673.84 1173358 1545496 1153522 1396384 954246 1532676
2679.62 1172244 1340152 980160 1127658 1049508 1251672
2685.41 926040 1063508 890248 1284878 779784 1075466
2691.19 882896 1048756 794116 1058022 875278 1179634
2696.98 907056 1321670 952354 1398306 1076192 1416438
2702.76 1407910 1571482 1602372 1886522 1581210 2103764
2708.55 1972624 2550730 2539128 3119780 2981960 3649516
2714.33 3728290 4167846 3853870 4278882 4093184 4608300
2720.12 4348900 4500052 4138106 4725182 3999050 4379384
2725.91 4126186 4264950 4865882 6613130 10452580 9125854
2731.69 4919458 4491488 3857018 5082276 5014310 5837040
2737.48 6116666 6917458 6835294 7624970 7312452 7565048
2743.26 7018740 8361158 8459684 8639956 7770678 8094458
2749.05 7788478 7932532 7495816 7820506 7381646 7936946
2754.83 7909068 8393202 8443060 9442126 9225546 9597886
2760.62 9548984 10373030 10106780 10895850 10574410 11414810
2766.40 11431170 13883200 17733620 23189570 25096740 18298740
2772.19 12714060 14170660 15174030 15594830 16157150 17070960
2777.97 17601580 18311690 18869050 19501660 19866550 20557840
2783.76 21383400 22294150 22283130 22722080 23473710 24394900
2789.54 24006670 24448690 24345410 24907870 25055790 25342350
2795.33 25078040 25151440 24781470 24206400 23961550 23528120
2801.12 23539250 22952060 23403440 22165540 24229720 25443350
2806.90 31428560 34926180 39230760 35835900 16732240 21431750
2812.69 18494580 21617850 19231420 21284450 18503140 20527780
2818.47 19055520 20927730 18727240 20079550 17980110 20798480
2824.26 20066980 20146980 18042750 19017830 18694870 23130370
2830.04 22370580 18711070 17128680 18127750 17886600 19671070
2835.83 18780010 20162630 19511920 21792710 21042270 22301730
2841.61 22228730 23654540 22993820 24663550 23936290 25549040
2847.40 25025260 26776570 25960570 28092370 27124520 30922500
2853.18 31870530 36195200 36170990 35461620 33605820 37499670
2858.97 37532330 42649800 44414650 51462640 52681340 62179060
2864.76 62009970 86191450 88247490 72113900 75796240 75831220
2870.54 77389060 77660510 75804100 76031780 75045110 77573060
2876.33 83605200 107815600 91426730 81578810 78470670 80043120
2882.11 80196810 89837460 91030660 131638900 155496500 119145200
2887.90 111671200 105275800 112721600 114410400 125824800 130197000
2893.68 136368500 138933300 147392600 153102200 160361000 166271000
2899.47 177200400 183813500 189304000 195169700 197417700 198314100
2905.25 195230400 191865900 191147400 192270200 191230900 196092000
2911.04 210738000 226690400 241524500 260548000 269683200 287519500
2916.82 291540500 299666600 314363100 320637800 327308200 336080000
2922.61 345309200 364095600 370037400 366364500 378867500 433132600
2928.40 408175600 353113300 372567500 367705300 375646900 371101700
2934.18 374215200 368045900 374663900 380814400 396363600 428534800
2939.97 519451200 552971300 406410200 361782300 360731900 368207000
2945.75 382865500 397740300 418549700 439873400 454264600 462682100
2951.54 468193200 469390700 471412400 471140100 473343200 472327700
2957.32 474998800 473925600 476384700 478526300 486164400 496925400
2963.11 506560400 518761500 535875900 557208000 580135700 600137900
2968.89 613254300 613485600 602025300 577763800 552332100 558338400
2974.68 583035600 631329300 694188000 732321700 762691400 785462700
2980.46 810120100 826196700 873423000 869744300 860312000 861798100
2986.25 869014300 876113500 882187900 885305900 900322400 908462600
2992.04 944994300 948438300 946185700 916236500 854225000 880965800
2997.82 1008263000 1263560000 1623662000 1369949000 907732400 830954000
3003.61 740190000 772566300 763418000 787783200 770113200 776028900
3009.39 746044500 745447100 718130000 722289600 714394600 722390500
3015.18 701749300 695185500 667381600 660840400 636704600 633783400
3020.96 611315100 608480700 589494300 589813200 569929400 571764900
3026.75 555767000 560471600 543160900 548477800 532809700 539547500
3032.53 526071200 536262800 523894700 538633000 529539100 542189200
3038.32 504157100 508351600 474584100 473425000 427159200 428430000
3044.10 374990700 396160200 382951300 490627300 687303800 1515994000
3049.89 1149533000 234200000 303067200 268132700 351488900 347583400
3055.67 399914200 387992200 415654100 398935500 413450400 391830800
3061.46 396650900 370556800 367404400 339122700 332187600 304199900
3067.25 295357000 269179500 259442400 234366300 226051000 203532600
3073.03 195036100 174902000 168511800 149746600 143286100 127261000
3078.82 121486300 108299400 104666800 90704430 86762250 74720760
3084.60 72067480 61817270 59487410 50396180 48797200 40961140
3090.39 39851090 32663200 32844030 26900880 27033730 21900570
3096.17 22854830 18085680 19286220 15278620 16958970 12832640
3101.96 14483280 11301970 12867400 9937588 11706240 8681446
3107.74 10853560 8324370 10264380 7541380 9653702 7454054
3113.53 9426398 7309078 9319344 7311904 9546996 7535778
3119.31 9309668 7580198 9504742 7355546 9411056 7658014
3125.10 9380170 7805354 9587586 8106390 9799058 8439448
3130.89 9819070 8515454 10100210 8868206 10680570 9261504
3136.67 10728300 9276258 10817170 9588974 11284190 9943610
3142.46 12023250 11571200 14584020 12749470 12664750 10980800
3148.24 12359050 11420540 13007670 11987020 13606310 12524510
3154.03 14095010 13038230 14584830 13953260 16081860 15346220
3159.81 17386890 16684520 18871440 17028190 15985090 14425930
3165.60 15311300 13906340 15026470 13831020 14602610 13431680
3171.38 14992040 14049920 20318040 24523640 16964600 14044280
3177.17 14357380 13028520 12901030 12198890 12436680 11971320
3182.95 12666490 11638090 12012810 11284070 11826640 10558720
3188.74 11002360 10099220 10283560 9011126 9315578 7880746
3194.53 8449502 7021592 7627478 6324818 6613318 5430330
3200.31 5781412 4569960 4778256 3959532 4271198 3455804
3206.10 4001082 2982254 3535526 2548180 2904824 2332904
3211.88 2607896 1785472 2279468 1629110 2021826 1197126
3217.67 1891976 1017034 2007530 810968 1590426 790768
3223.45 1371904 1012078 1370386 711958 1202902 777166
3229.24 1434430 567262 1227222 364490 1065530 428726
3235.02 1082030 574026 1112224 295710 1164224 238300
3240.81 962882 138858 1209998 158276 1114182 366586
3246.59 1142348 222788 1250446 553854 916932 454808
3252.38 1166670 518080 999740 372536 1093026 459188
3258.17 963126 548526 1009198 543110 951598 479460
3263.95 982186 540414 1220696 655954 857640 614798
3269.74 842938 490788 852630 554204 759584 439292
3275.52 1226406 740744 1318754 843860 1022696 976630
3281.31 1175654 477282 1411624 626460 1292338 615524
3287.09 1152642 771628 1371546 774954 1392650 1086660
3292.88 1545174 679386 1385332 967516 1352364 1041480
3298.66 1223316 792644 1262078 639942 1360144 762818
3304.45 1457570 706440 1418150 933330 1511280 1080066
3310.23 1582770 1018210 1583440 1408920 1674298 1421640
3316.02 2292108 1876290 2263502 2219574 2591740 2280250
3321.80 3192852 3055680 3597960 3232890 3710900 3942624
3327.59 4418978 3894514 4531726 4077340 4584226 3726010
3333.38 4373106 4074476 4388488 3836318 4279586 4769066
3339.16 6441468 7284004 6346008 3906174 4133322 3637518
3344.95 4347598 3910606 4552008 4525704 5176954 5172146
3350.73 5264450 5500164 5827328 5368890 5418678 5065388
3356.52 5077044 4939468 4872316 4379208 4935406 4308370
3362.30 4299268 3688022 4302394 3636880 3864120 3483288
3368.09 3812614 3572144 3863550 3614440 3955116 3848404
3373.87 4097966 3645854 4039268 3617176 3702302 3671784
3379.66 4106396 3432342 3884536 3477988 4752882 4274390
3385.44 4915876 4061782 4319720 3618138 4091838 3199596
3391.23 3974312 3879488 4713578 4669924 4734514 3914438
3397.02 4272110 3878182 4267332 4138730 4441776 4152360
3402.80 4381774 3627958 3797016 3646832 3610898 3456546
3408.59 4163424 3940680 3945608 3318686 3411602 3025156
3414.37 3587842 3506180 3393782 2653384 2871782 2141278
3420.16 2890452 2317458 2600750 2246164 2781348 2346576
3425.94 2627668 2294300 2443710 2180290 2755682 1734942
3431.73 2210826 1722990 2030750 1801720 2237106 1473760
3437.51 1928320 1412678 1826842 1477034 1807376 1818712
3443.30 1919810 1464146 1837180 1836308 1867176 1399950
3449.08 1815326 1453156 1834992 1326720 1555014 1193342
3454.87 1373926 752488 1429650 1003002 2036486 2166516
3460.66 2228110 1544346 1713304 1254956 1183350 887724
3466.44 1608184 909362 1582368 1274982 1548722 850672
3472.23 1324926 820764 1445648 883604 1275904 1072242
3478.01 1087736 971108 795384 762660 1135022 551510
3483.80 786584 263600 687960 403088 886218 337146
3489.58 775362 315884 612174 250476 562250 705198
3495.37 960364 472876 635658 393602 546416 401488
3501.15 806868 697504 527272 70730 466988 484976
3506.94 496180 885364 778938 396624 527686 602468
3512.72 686314 360166 811304 605366 866060 236344
3518.51 871406 397560 957166 323176 1111504 746216
3524.30 824228 760706 883550 348774 1148860 316816
3530.08 968378 571402 800158 570032 895334 386790
3535.87 934384 609206 1024192 538020 1178128 638660
3541.65 677496 449400 1061162 515808 835906 388032
3547.44 875908 539852 867022 822540 1026148 588626
3553.22 887270 455936 857790 696302 925804 636738
3559.01 845820 624084 903840 338998 941718 684884
3564.79 1277636 1178950 1476308 888208 459052 648678
3570.58 958238 540194 649618 631868 728126 614530
3576.36 764458 445076 1020132 755092 889968 546520
3582.15 807630 701374 750034 1039980 1493510 795506
3587.94 1678412 131658 919984 600906 1057414 620094
3593.72 1136864 1025130 1026514 581644 1057890 494272
3599.51 1005162 700464 1058012 623796 721504 583360
3605.29 1081274 1182370 882070 2206516 1304322 419744
3611.08 1777074 1385370 983950 1079440 851378 771590
3616.86 1617176 1123520 2509382 571356 1121862 461414
3622.65 1523410 727984 1510724 486012 1454874 2539924
3628.43 3485382 1616316 935486 1009398 1334066 1350812
3634.22 1256984 987780 1219560 1357422 1381648 1116438
3640.00 1459440 951350 1483006 1045826 1700840 1184750
3645.79 2761122 1969428 2874190 3794028 2319404 2822904
3651.57 1302804 2136456 1581420 2143432 3773794 1825540
3657.36 2088120 2020670 2034176 2302440 2347040 2156614
3663.15 2544296 2137500 2655938 2264300 3068406 3657476
3668.93 3529872 6276384 2644992 2909280 3109644 4405652
3674.72 6078172 4596742 2839784 3593368 3591092 3453542
3680.50 3203220 3286628 3076106 3468872 3188870 3863518
3686.29 3092534 7077256 5255534 3246234 5033966 3751548
3692.07 3524554 3410744 3510972 3564554 3838716 3749152
3697.86 3684168 3510916 3622478 4432662 3813474 3465764
3703.64 3746006 3568502 3916876 3612962 4016446 4997120
3709.43 3788442 4510824 6800678 3870434 4382692 4123736
3715.21 4417928 4310100 4772642 4683514 4742998 4344686
3721.00 5556490 5286564 4904566 5297546 5360040 6103360
3726.79 5592736 5772068 6068532 5847486 7272674 8419528
3732.57 5769276 8302142 7571038 9126650 7975196 7755316
3738.36 7691922 7855196 8027932 7844588 7623588 12905300
3744.14 12542360 7184602 9636522 8138524 12325960 11707140
3749.93 8217934 13250320 12245550 9512180 10743480 10440350
3755.71 12026860 10843930 10565460 10856830 10137040 9197036
3761.50 10095080 9330926 9276540 9810754 9825846 9172158
3767.28 9048368 9574320 10670660 8738268 9336708 8386600
3773.07 9228856 8576018 8991388 8491768 8533512 8706598
3778.85 9236612 7590024 8096864 7679430 7804558 7572352
3784.64 8051954 7412822 7631130 6988730 7352590 7116476
3790.43 7528702 7045552 7498860 6824274 7464748 7622668
3796.21 7760006 6652352 7660654 6254778 10734700 8786576
3802.00 7265002 7869604 8357430 8996768 12291510 9224816
3807.78 6889742 6800196 5999648 6773836 6571818 7620472
3813.57 6612136 9648308 11452910 7651406 9077576 7734464
3819.35 9129018 9247410 8698150 7127048 7705400 6900478
3825.14 7540284 7420738 7207958 6919840 6886612 7221624
3830.92 8210526 6455062 7254232 8037600 8168750 6479944
3836.71 10746550 7564534 6630760 7033820 6552960 5646036
3842.49 6744678 6353090 5508148 6023602 5711850 5606434
3848.28 6035660 5767562 6396482 9578490 6070012 12198970
3854.07 7630428 5364728 6567408 5586850 5721572 5316274
3859.85 5813472 6222746 5840210 5490538 7293282 6910500
3865.64 5959402 6195056 6339598 7994866 7803068 5925310
3871.42 6563022 6437180 7731824 6354150 6451698 6448986
3877.21 6727852 6178094 7866096 7290192 6831872 6952584
3882.99 7161186 7643452 9144848 6882306 7530936 7050664
3888.78 7030492 7932450 8983390 7125804 8016758 7215830
3894.56 6968294 6927848 7599584 7678332 9029646 6997512
3900.35 8092288 7830554 6916136 8261352 7023800 7014508
3906.13 6772222 6759672 7010088 6979754 7095492 6978218
3911.92 7102772 6865222 7145360 6859612 7423108 7258648
3917.70 7119260 7487346 7492500 6951994 7375450 7244938
3923.49 8007478 7968758 7770804 7949116 8049300 8092682
3929.28 8258970 8129024 8927048 8265416 8417134 8096738
3935.06 8601476 8166030 8096398 8023898 9066130 10987450
3940.85 10470490 8438476 8444496 8134562 8754946 8946682
3946.63 9631090 9178980 9314410 9194662 9626920 9443438
3952.42 9722288 9013154 9401594 8755910 9000282 8582460
3958.20 8572588 8255104 8199056 8086034 8065160 7771930
3963.99 7903270 7404978 7783860 7329886 7425384 7363052
3969.77 7360314 6921194 7445020 6938872 7241488
##END=
