##TITLE=Propylene Oxide
##JCAMP-DX=4.24
##DATA TYPE=INFRARED SPECTRUM
##CLASS=IUPAC A
##ORIGIN=NIST, Anayltical Chemistry Division, 301-975-3108
##OWNER=COPYRIGHT (C) 1998 by the U.S. Secretary of Commerce
##DATE=98/10/1
##$SPECTRA VERSION=1.00
##$UNCERTAINTY IN Y=2.1 % relative (B=1.1E-04,C=9.8E-10,D=2.7E-14)
##CAS NAME=1,2-Epoxypropane
##CAS REGISTRY NO=75-56-9
##MOLFORM=C3 H6 O
##MP=-104.4 C
##BP=34.3 C
##$NIST SOURCE=QUANT-IR
##SPECTROMETER/DATA SYSTEM=IFS66V (Bruker)
##INSTRUMENT PARAMETERS=KBr Beam splitter; MCT Detector; Multipass cell
##STATE=gas
##SAMPLE DESCRIPTION=Propylene Oxide Primary Gas Standard
##PRESSURE=101.3 kPa
##TEMPERATURE=23 C
##SAMPLING PROCEDURE=1 L/min Flow
##RESOLUTION=0.9640
##DATA PROCESSING=Happ Genzel Apodization
##XUNITS=cm-1
##YUNITS=(micromol/mol)-1m-1 (base 10)
##XFACTOR=1.0
##YFACTOR=2.2737E-13
##DELTAX=0.4820
##FIRSTX=575.169
##LASTX=3975.077
##FIRSTY=-3.77E-07
##MAXX=3974.59
##MINX=575.17
##MAXY=.0003585
##MINY=-8.19E-07
##NPOINTS=7053
##XYDATA=(X++(Y..Y))
575.17-1659136-2464564-2322972-1390216-1614410-1910466
577.58-2275164-2231294-1386636-2209952-3604486-3290352
580.47-2503252-1511156-733392-1561294-2059470-1574220
583.37-1984220-2095412-2234472-2222222-1635926-1496766
586.26-2070052-1973342-817218-550544-1414448-1701956
589.15-1822136-1102086-1408160-1584698-1521756-1440456
592.04-1303538-917164-1547626-2343896-2126216-1715666
594.94-1956878-1522346-1482586-1436136-1348848-1558882
597.83-1447400-796798-976650-1175776-1272730-1455298
600.72-1978494-2085576-1279494-376272-577278-1035164
603.61-1086502-815426-870986-891594-735888-848456
606.51-1154330-1087238-1220676-1492328-1583820-1407766
609.40-1521790-1047934-878598-1097800-1071672-1288220
612.29-1103888-628212-556034-851344-1083136-1029626
615.18-1088102-926902-1093564-1024158-1148130-1101512
618.08-1389114-1066418-818684-1257230-1551800-1580940
620.97-1377956-742360-975952-1450062-1414290-1098310
623.86-771836-631032-774802-1250792-1678446-1603900
626.76-1302074-1273042-1407142-1069720-932066-830974
629.65-1204896-1692512-2136972-1884668-1541506-1588932
632.54-1658506-1288368-1308346-1402100-1390952-1630164
635.43-1809104-1688808-1623662-1396488-1742634-1627218
638.33-1400698-1597886-1963406-1740740-1663436-1291228
641.22-1082564-1227872-1367734-1437230-1400322-1203130
644.11-1141076-891664-809006-1112308-1560640-1676272
647.00-1906556-1840904-1845826-1583414-1319752-1182540
649.90-1409144-1397302-1558278-1783318-1839698-1763432
652.79-1782858-1460506-1350906-1387324-1500198-1492458
655.68-1451722-1278982-1374284-1231936-1137934-1122808
658.58-1392000-1325666-1467842-1630106-1697322-1581676
661.47-1449894-1262408-1304674-1479712-1744176-1622996
664.36-1570368-1504044-1706788-1392724-1355910-1577616
667.25-1671560-1464720-1718188-1544068-1121468-807510
670.15-1179502-1447636-1431742-1151984-982874-1015238
673.04-1010994-875440-1129274-1268348-1576080-1557102
675.93-1507548-1198416-1239964-1301586-1214906-1111046
678.82-952834-747056-921670-1080264-1169738-1140366
681.72-1222742-1070768-1273874-1273712-1372576-1495302
684.61-1493624-1212320-973864-1027124-990460-592378
687.50-951790-1245210-1335738-1053674-966966-672668
690.40-775252-827300-966206-972212-845466-515390
693.29 134774 236802-422328-607664-779028-414970
696.18-220390-318230-264796-115062-337482-86664
699.07-122822-80718-7908 82292-124502 23314
701.97 19708 120036 164510 532364 682444 461864
704.86 371736 955502 894684 967174 971198 1240098
707.75 1440060 1825150 2117456 2908504 3254206 2836980
710.64 2388684 2223278 2210098 2640526 2874950 3123288
713.54 3239898 3559962 3710878 4047990 4167996 4629268
716.43 4970430 5378976 5682862 6088688 6214974 6587514
719.32 7141454 7968022 8318802 8566068 8867204 9523130
722.22 9997310 10375480 10637430 11472500 11841460 12558020
725.11 13477810 14401870 14909340 15842750 16701440 18140100
728.00 19593110 20799830 21648390 22914920 24390500 25910380
730.89 26506800 27519000 29180820 31410560 32577490 33733320
733.79 35231770 37078400 39094280 41426160 43684520 46456670
736.68 48927010 51675140 54371690 56772000 59089540 61889530
739.57 64338480 66753580 68954690 71694100 74432790 77011230
742.46 79316900 82155700 84115340 86362630 88216670 89832100
745.36 91374230 92873950 94245370 95787750 96498940 97320350
748.25 98454380 98937920 99645260 100060200 101571300 103495100
751.14 105215600 106078700 107063900 106839500 107044600 111900200
754.04 119657700 124133700 124151800 128396300 140880800 151474800
756.93 147445000 122145600 100615600 96833220 91140250 89777450
759.82 92936210 96337700 103177800 110581900 116302100 121301100
762.71 125696700 130478300 134761600 138766200 142822100 147459700
765.61 151390800 154745700 157891500 161025000 163329800 164866100
768.50 165129500 164942400 164330000 163779500 161671400 159032000
771.39 155659200 152378000 148500200 144679900 140266600 135216800
774.28 129534400 124264400 118786800 113292700 107571100 102336700
777.18 97003300 92634280 88973470 88785630 87551940 80210560
780.07 73536850 71898100 71108780 67897360 64285280 61241430
782.96 58047640 56926300 55473100 54112200 52794850 52132910
785.86 51192320 50792850 49918160 50076590 50059820 50352130
788.75 50266430 50976680 51232470 51738670 52534240 53744080
791.64 54402100 55628980 56802710 58151020 58943830 60440630
794.53 61905110 64229540 65952740 67925240 69706300 72222470
797.43 74467280 77268690 79994510 83345360 86519010 90290540
800.32 93525070 97536000 101308000 106446200 111073100 116399900
803.21 121495700 127257000 133231100 139296200 145973000 153787900
806.10 160831400 168804700 175774800 184659600 192863400 202136700
809.00 211884700 222061600 232606000 243342800 254904500 267354400
811.89 278540100 292200800 304796500 319064300 332257400 346459000
814.78 361211700 376560700 392328300 407680900 423230200 439808500
817.68 454538600 471808900 486822200 503870800 520544600 537387100
820.57 552248400 565885600 579373100 593197300 604605700 617235100
823.46 625041400 635992300 642163500 647799600 652778300 656116900
826.35 658131500 659898800 657913000 656342300 652595500 649210400
829.25 641817400 636104100 624831000 609998900 587859400 561295500
832.14 536840500 520421600 510143900 524091900 560570000 630920100
835.03 685927900 798364300 956134300 1069013000 1071437000 700854300
837.92 461246100 462048700 510846500 548730600 575392100 599871900
840.82 623927500 638425500 648996300 652060500 654388600 654307300
843.71 657711200 659527100 662505200 663298400 663471100 661500400
846.60 659749600 655600900 651576800 642816200 633965400 623456100
849.50 611823700 598146400 582113300 565938500 549378500 530150000
852.39 512867700 492121700 473095800 453146000 432613800 413998000
855.28 394814700 375588400 357650100 339293100 324002700 307486700
858.17 292507800 277737400 262502200 249991800 238063100 225711500
861.07 215336200 203832900 194368800 185124000 176767300 169284300
863.96 161406600 153988900 147635800 140749400 135764600 130057900
866.85 124971600 120166500 115594600 111454700 107332400 103230400
869.74 100058100 96156380 93211060 90097260 87217050 84344100
872.64 81672580 79408770 77333740 74829730 73076230 70971500
875.53 69368620 67806690 66457530 65119960 63797360 62332960
878.42 61294950 60073660 59469330 58501000 57578460 56861720
881.31 56224730 55563010 55103970 54387070 53995040 53522790
884.21 53121110 52893030 52673360 52463700 52226600 51976640
887.10 51757070 51527520 51146960 50444140 49635780 48790050
889.99 47255450 45291260 43211550 41534900 39219090 38436720
892.89 44743610 65302500 68728030 49652600 45005940 47802580
895.78 43181250 37386680 41186600 44556810 44240380 44556380
898.67 46738140 48022540 49176740 49435800 50150230 50322790
901.56 50751090 50585580 50969950 51202140 51588820 51356530
904.46 51333740 50765450 50743480 50567770 50929490 51030020
907.35 51148440 50800150 50811740 50819680 50958920 50735830
910.24 50984910 50965620 51090480 50848870 50789050 50509960
913.13 50508600 50302840 50312420 50205470 50412260 50372660
916.03 50729490 50770190 51119670 51417140 51946570 52587740
918.92 53187900 53411400 54351710 55121670 56152520 57342830
921.81 58412430 59411110 60960710 62186850 63850360 65263330
924.71 66751820 68575580 70530690 72150310 74025120 75559320
927.60 77517960 79725350 82220890 84701130 86936890 88851140
930.49 91472100 93733220 96471130 99280720 101532300 104374300
933.38 107502600 110122400 113482200 116614200 119948000 123267900
936.28 126357600 129832700 133120900 136508700 140411600 143379200
939.17 146478000 149544000 152662700 155892000 158639800 161515900
942.06 164630000 166895800 169424300 173334300 175880100 177687700
944.95 180453600 182918100 184671100 186508100 188008700 191568100
947.85 193871700 195614200 196821300 198210400 198153900 196896800
950.74 195379200 191945900 187512700 181698300 176485500 171706600
953.63 167129000 164023900 161240600 146975400 128129600 126377900
956.53 139114100 157482200 175605300 186573700 186902000 187706800
959.42 195387700 204529300 210744600 214127200 214981800 212590300
962.31 210160500 210568600 210273500 206664400 202718300 199675100
965.20 197137800 194246300 192025100 190162900 187278100 183798200
968.10 181098100 179090700 175517600 171807000 168467000 164033500
970.99 160406100 156786200 152726800 148845500 144787400 140960500
973.88 136980600 132892300 128785400 125200700 121750900 117968000
976.77 115179100 111712200 108601300 105570400 102766900 100176700
979.67 97598190 95390300 93185420 90970290 88549120 86179700
982.56 84198240 82081660 80291890 78453310 76902500 75322530
985.45 73954460 72743340 71581310 70121170 69235550 68254660
988.35 67563120 66837820 65985810 65415630 65090950 64649040
991.24 64618200 64492630 64431640 64282850 64475960 65039110
994.13 65578130 66153570 66945120 67721110 68838280 69695980
997.02 70800540 72303660 73650710 74959060 76388280 78091450
999.92 80276560 81902750 83584080 85605050 87582260 89763810
1002.81 92053530 94126560 96399510 98499340 100552600 102515500
1005.70 104571300 107127200 109344600 111069800 113144800 115152800
1008.59 117391000 118939600 120964600 122768900 124661000 126151800
1011.49 128144000 129922900 131891600 133815500 135994400 138187700
1014.38 140198400 142208900 143929200 145247800 145905300 145500600
1017.27 144120000 141021400 136951200 131817800 125322900 117783600
1020.17 108950100 99831330 97964740 101600500 106171300 114693200
1023.06 112816200 94508060 92679140 104415500 118216300 130778700
1025.95 140706900 147924300 152631400 155014800 155525000 154589700
1028.84 152684800 149906200 147006600 144067200 141035200 137970300
1031.74 135033500 132101000 129148800 126521000 123903000 121336800
1034.63 119037200 116305600 114240600 112037400 109181000 106613500
1037.52 103897200 101381800 98883060 96311160 93867240 91151540
1040.41 88844220 86268430 83865060 81495130 79004650 76522730
1043.31 74177320 72150650 69913930 67800890 65683000 63274000
1046.20 61045970 58841570 57045840 55206610 53415940 51604960
1049.09 49462720 47628750 45813860 44229170 42572420 40847060
1051.99 39366260 37536660 36005820 34557370 33168280 31813810
1054.88 30525180 29255670 27970360 26892350 25649680 24520470
1057.77 23542970 22539860 21565110 20565910 19785570 18927410
1060.66 18253120 17549110 16793440 16199640 15647230 15167950
1063.56 14741870 14431050 14122700 13956770 13804630 13493430
1066.45 13335230 13256730 13067500 12988910 13199550 13261290
1069.34 13439110 13615330 13837230 14047210 14301560 14451590
1072.23 14715040 15408150 15884310 16190800 16719420 17260090
1075.13 17869390 18597460 19275590 19971050 20883420 21731830
1078.02 22313600 23180800 24314350 25089100 26008830 27208230
1080.91 28347410 29579040 30674580 31498210 32594570 33706540
1083.81 34679570 36105420 37544090 38596080 40028620 41396010
1086.70 42466740 43821420 45329550 46724260 48286620 49699770
1089.59 50769510 52481400 53784300 55267760 56872680 58408540
1092.48 59773490 61479350 62829240 64601640 66309140 67684060
1095.38 68980630 70577670 72301820 74235030 75898900 77796500
1098.27 79468980 81324740 82464000 84492960 85369960 87059320
1101.16 87580760 89252840 90552230 92668970 94062810 93597380
1104.05 89805630 87714200 89923580 96691920 103251600 108160300
1106.95 117966500 126869000 115473400 97891220 96858280 105145100
1109.84 116773000 126741400 133031800 138124600 143161200 147016500
1112.73 148736100 148179200 146391500 144502500 143230000 141638400
1115.63 140714400 139879100 139112500 138198000 136843600 135324800
1118.52 134468800 133288600 132094200 131180500 131862800 132405800
1121.41 131979300 131107000 130639200 130831900 130974600 131686700
1124.30 133310500 133509400 133240900 131869200 129999900 127939300
1127.20 126944800 126621200 126987600 127212900 127869400 127593700
1130.09 128509500 129711300 134489400 149924400 179004000 176449900
1132.98 134898000 114674900 108842400 103326900 100397800 99985610
1135.87 99981220 100890000 102099800 102888200 102476700 102095900
1138.77 103756500 103481300 97403760 91942310 88288060 85800770
1141.66 84308820 82312660 81523550 89318660 112837600 131209800
1144.55 119016700 102709400 93841340 80301830 70102060 69337020
1147.45 73188870 75752960 75096540 75298080 74730060 73989180
1150.34 75836100 75555320 70636730 68183550 68419160 68586390
1153.23 68563060 68666100 68844260 69042050 69332410 69948870
1156.12 70847780 72743900 75697060 78661290 80200190 76656630
1159.02 68907810 64175320 62477400 61353030 59998590 58520570
1161.91 57013030 55551430 53942310 52524890 51087060 49478850
1164.80 47461230 45534420 43831360 42432190 40853080 39341250
1167.69 38555150 38963800 38697140 37400710 35869700 34779520
1170.59 33977400 33247040 32367930 31323400 30248100 29338530
1173.48 28286590 27234170 26125070 25086080 24064520 23109030
1176.37 22172250 21315840 20392690 19653740 18884100 18084490
1179.26 17190280 16531890 15989210 15475850 14811180 14298270
1182.16 13944890 13695310 13222320 12742300 12235690 11867870
1185.05 11537040 11339290 11080050 10823080 10363230 10174910
1187.94 10298880 10827340 10850530 9968840 9088640 8850916
1190.84 8687362 8378860 8062214 7886586 7709984 7650530
1193.73 7354604 7141584 6962128 6793142 6689778 6705286
1196.62 6481778 6348096 6162906 6206386 6344748 6468542
1199.51 6353204 6271064 6356170 7016368 7855064 8236942
1202.41 8152606 7553848 5955078 5280348 5127356 4997184
1205.30 4963358 5366210 5921248 6815186 6976618 6044154
1208.19 5333314 5333058 5448972 5737376 5747706 5837866
1211.08 5937698 6110650 6166608 6314968 6284164 6370468
1213.98 6433636 6630728 6641098 6741496 6789138 6934236
1216.87 6953134 7021158 6969034 7132332 7115482 7337754
1219.76 7605826 8082176 8612958 9258984 10403020 11821550
1222.66 10738410 9125064 8927642 9495058 9929862 10373680
1225.55 10683090 11066570 11479150 12160790 12626330 13320510
1228.44 14038990 14756340 15422480 16100860 16790760 17886970
1231.33 18759800 19505720 20072640 20893150 21747200 22718260
1234.23 23675360 24633120 25434370 26564840 27355490 28514820
1237.12 29681220 30816420 31819940 32891810 34125580 35434240
1240.01 36613380 38120130 39178820 40501780 41807120 43253390
1242.90 44694100 46146450 47650630 49289140 50840800 53107000
1245.80 54661030 56307520 57903020 59538970 61447020 63961840
1248.69 67119460 69371250 69012930 69495110 70400060 72004140
1251.58 73620950 74815000 75840820 77064940 78274500 79627980
1254.48 80221490 81099340 81455470 82291500 83232070 84468220
1257.37 85763770 87688500 88488570 88761090 88792330 89681100
1260.26 90244580 91611590 91591220 89585300 85340400 81386380
1263.15 76752220 72743400 67672180 66328500 87364540 141632000
1266.05 152244300 113261000 85251130 70185700 69500860 74107640
1268.94 78224620 80493300 82787480 84746860 87152780 88808300
1271.83 89931150 90323880 90457380 89917300 89475690 88247100
1274.72 87392210 86273030 85159260 84187230 83158710 81971860
1277.62 80788750 79496940 78308820 76766450 75462920 73904290
1280.51 72537620 71036660 69278510 67575740 65884650 64088520
1283.40 62324570 60602360 58931400 57196780 55510500 53804830
1286.30 52117080 50570960 48873450 47477840 45905150 44280540
1289.19 42872720 41314710 39946710 38667690 37350810 36101350
1292.08 34854120 33856990 32616590 31491800 30418990 29364300
1294.97 28343060 27190820 26245500 25399790 24426930 23541010
1297.87 22619350 21794770 20808950 19992660 19102010 18325640
1300.76 17609340 16870290 16164640 15389140 14617740 14081410
1303.65 13466640 12978560 12530800 12269500 11857110 11328110
1306.54 10648980 10169380 9867526 9615206 9199322 8940976
1309.44 8668144 8477800 8126192 7955222 7702708 7590412
1312.33 7245434 6983966 6776070 6679890 6490116 6330896
1315.22 6141792 6078948 5938356 5873458 5659242 5675158
1318.12 5707108 5674772 5476176 5538374 5458650 5514034
1321.01 5492796 5626434 5474896 5310660 5122602 5195024
1323.90 5235932 5460240 5372294 5252652 5211664 5389650
1326.79 5445500 5618446 5605556 5839644 6002792 6221636
1329.69 6362454 6714772 6890894 7202610 7226564 7308990
1332.58 7419618 7811628 7953758 8263320 8479882 8935100
1335.47 9159908 9645354 9821556 10151200 10397060 10901100
1338.36 11387590 11979370 12333230 12844520 12978010 13408870
1341.26 13895370 14525970 14934400 15443670 15879460 16505310
1344.15 16865470 17530980 17961030 18620250 19158210 19925090
1347.04 20501770 21262180 21881180 22847830 23601750 24627760
1349.94 25253880 26609950 27967120 28504340 28360720 28890320
1352.83 29404590 30147540 30746510 31941840 32402480 33350290
1355.72 34135000 34963840 35787810 36795130 37505440 38365360
1358.61 38750340 39606060 39960300 40590440 40903920 41341010
1361.51 41538220 41976770 42571390 43654380 44319430 46306140
1364.40 46572350 45352980 43535230 43579900 44566960 46236150
1367.29 44986160 44540470 45451280 47320320 50695600 59538230
1370.18 72421470 95419890 138232600 183308600 164475700 98270940
1373.08 57699910 45867720 44116920 46108020 48899490 52424460
1375.97 56225870 59961200 62564730 64609070 66106410 67817520
1378.86 69579300 71578440 73370810 75555740 77486490 80037530
1381.76 82127100 84881700 88060700 91816030 95303260 99704610
1384.65 104552900 110355800 115980600 123109800 130995700 140416700
1387.54 149650600 161238700 171598700 179120700 184827900 191575200
1390.43 199727300 210020700 220149000 231581100 242534200 254139300
1393.33 265250500 277260800 287315600 297291000 306596000 315870000
1396.22 323231400 331537900 339005800 346232800 350215600 352099300
1399.11 348595200 342602200 336036800 331719700 325129700 318506900
1402.00 309466000 301441500 291244000 281989000 271304600 264108300
1404.90 256691300 253952900 249097800 252681900 264334100 283032500
1407.79 299510200 342163900 416498400 507344500 604286500 725969100
1410.68 772306800 792230400 622625300 277946300 146298700 138658400
1413.58 151273100 164174300 183675400 201064900 222825100 241910100
1416.47 264094900 283628300 304537300 321988900 341274500 357818800
1419.36 371683300 381326800 391991900 398999400 405503200 408699500
1422.25 410987800 409827100 408132100 403048900 397117300 388540300
1425.15 379879000 369095900 358101100 345914800 334016000 320384800
1428.04 307827600 293957000 280666600 267802400 254910800 243500400
1430.93 237903700 232977100 222054500 208859100 200071600 190436300
1433.82 182864800 176984600 171026800 166354300 163412700 160879900
1436.72 156745900 152695600 149402300 147616300 146273300 144191100
1439.61 144068000 143208900 143350200 144323700 145502700 145697700
1442.50 146019900 146053200 146423100 145208700 143419400 141012800
1445.40 138353000 134519900 129923500 125778800 122874600 118206700
1448.29 116961900 130232500 137483900 119794800 111591600 113112600
1451.18 116980200 121231100 126363800 130276800 134022000 136847500
1454.07 138990200 139105500 137770900 135991200 136618200 135714200
1456.97 130676000 127836200 127823800 128011200 131551400 136094700
1459.86 142426800 155189800 188091500 237023000 223661700 177008800
1462.75 155592100 147787900 157555400 184313100 176153900 146616600
1465.64 136670700 136359400 140048200 140394200 136386400 134994700
1468.54 137084000 137342800 139049900 141614800 144626400 147777500
1471.43 153456000 157646700 162226400 167480600 168982000 163228800
1474.32 153002900 141208700 137011400 136883500 135855900 134657200
1477.21 134616000 133848800 133357400 132348000 131388700 130522000
1480.11 128387800 125990500 124612500 122137700 120678000 118662800
1483.00 116439700 114090200 112531900 111429800 112012600 115124800
1485.89 124097100 141987600 165155500 177373500 169630400 146084900
1488.79 125439600 116042100 110755600 106057000 101140500 94935710
1491.68 91745850 91468270 92641820 93957800 95862030 97412220
1494.57 99475510 101643600 105312500 106758500 106309000 106996400
1497.46 108324800 109847400 111110600 110603600 110408000 109912000
1500.36 109214900 108043200 106953400 105411800 103683800 101855300
1503.25 100169800 98130790 96296800 95836880 95209380 91134980
1506.14 89678790 88569780 84354660 80745520 78647020 76135690
1509.03 74240500 72358100 70639830 69593710 69511890 69668700
1511.93 69087550 66280270 64161260 63044140 63202470 64774800
1514.82 66327790 65820240 64284430 60096230 54081110 49941630
1517.71 49505320 50582300 49363770 47469290 49243180 51692230
1520.61 54869370 54790000 53647620 55193730 55961320 56075020
1523.50 57117900 58225340 59894970 61868770 62211180 61748450
1526.39 62237360 62407200 61935760 61383360 60459660 58815160
1529.28 57279500 55599990 54034130 52357560 50604520 48595040
1532.18 47432400 46893970 46508620 44536530 40315670 36610350
1535.07 34253280 32159950 30056920 27876860 26208600 24951960
1537.96 25013820 26451580 24492130 22468850 22346220 19687380
1540.85 18550110 19689770 19831040 17705560 16469530 15585680
1543.75 15209030 15441380 15819880 14412180 13456830 12904510
1546.64 12653350 12143440 11829530 11420780 11295490 11193520
1549.53 11216920 10560480 9988768 9557096 9276690 8875052
1552.43 8654144 8596854 10014760 11195190 9448986 8052614
1555.32 7856176 7646708 7853166 9075718 9995292 11283920
1558.21 11466900 8852338 9640632 11356390 9576844 6994976
1561.10 6761838 6659224 6848376 6758484 7034156 7046212
1564.00 7566414 7641590 7433096 7156708 7410266 7429626
1566.89 7657922 7762362 8190080 8560914 9550004 10295290
1569.78 9678976 8859008 9017836 9188824 9496094 9519264
1572.67 9650698 9559058 9890768 9953758 10305470 11882030
1575.57 15167970 13952180 11307720 10838460 10943320 11031330
1578.46 11270460 11239110 11199700 11138750 11198990 11088480
1581.35 11156520 11132670 11219520 11091680 11083990 11108250
1584.25 11259310 11101580 11189290 11166290 11231580 11107680
1587.14 11312390 11746430 12674780 13390060 13963840 14653250
1590.03 15462790 15317920 15137810 14022120 11436590 9702750
1592.92 9621730 9726658 9980480 10237620 10988860 11437660
1595.82 11717820 11846490 12160020 12316480 12753290 13061190
1598.71 13501540 13828440 14260010 14452790 14848970 14953120
1601.60 15131400 15160020 15248370 15036270 14863170 14527180
1604.49 14370230 13882110 13532120 13101480 12798650 12206530
1607.39 11732950 11239210 10940640 10502360 10065520 9468498
1610.28 9126600 8512292 8171550 7707260 7519820 7204936
1613.17 7110998 6878700 6927186 6793702 6888914 7822738
1616.07 10681810 9870712 7169516 6531584 6590882 6438096
1618.96 6303150 6246422 6342206 6301268 6347750 6269446
1621.85 6483598 6847046 7914284 7926298 6888602 6492602
1624.74 6503142 6440940 6419012 6542160 6849784 7341566
1627.64 7317332 6817148 6820828 6830026 6913852 6945078
1630.53 7100234 7257092 7597758 7886654 8085462 8046932
1633.42 8134272 8603626 10101220 12351890 12678450 9995010
1636.31 8861158 9000442 9252554 8990982 8998072 8977142
1639.21 9177748 9220072 9350762 9377506 9625244 9684296
1642.10 9758068 9496352 9588998 9551498 9492774 9567650
1644.99 11199930 12891710 11544750 10593580 11385730 11771070
1647.89 12383980 12256810 12286040 12232050 12487670 12574320
1650.78 12615810 13332210 16293450 17285870 17794210 15755270
1653.67 13691290 13604350 12614500 12218590 12380330 12581720
1656.56 12775750 12986130 13060370 13097270 13232140 13352240
1659.46 13290810 13126260 13015940 12990820 13258640 14351580
1662.35 15146430 13979600 13039560 12855790 12935730 12880410
1665.24 12732780 12582310 12435870 12251600 12238610 12450200
1668.13 12633810 13412750 13508230 12873170 12883500 12572260
1671.03 12977610 14000030 14249560 12576810 11448780 11159110
1673.92 11333930 12868290 13940640 12569480 11791230 11656830
1676.81 11736520 11637270 11617970 11468800 11553670 11718140
1679.71 11904830 11757150 11546570 11435070 11464820 11828450
1682.60 12734240 12795140 13145080 15950110 16559940 12580170
1685.49 11038590 10762950 10718390 10501530 10664860 10429330
1688.38 10073860 9724952 9933510 9791364 9551634 9267096
1691.28 9314882 9213314 9249706 9026686 9004952 8952360
1694.17 9261472 10328430 13728110 14028270 10382460 9016630
1697.06 9063128 8805404 8781850 9100230 10853000 12875450
1699.95 12787270 11227790 9315936 8396798 8302912 8225544
1702.85 8222218 8374604 8983858 8796086 8232356 8321482
1705.74 8877730 8560708 7816092 7496896 7278320 6807806
1708.63 6079720 5863398 6557694 7463856 8112856 8351332
1711.53 8766066 9242622 9324558 9125216 9027154 8740684
1714.42 9133824 9091876 8354058 8426090 9959774 12676900
1717.31 11463900 9807862 9949242 8912794 8264528 8093074
1720.20 7979478 7793060 7755922 7538806 7416914 7406122
1723.10 7376088 6896142 6683236 6402098 6186032 5999122
1725.99 5899404 5616580 5491192 5285142 5130326 4953444
1728.88 5053602 5191476 5130134 4905118 5170310 4961918
1731.77 4364428 4466550 6311476 6043414 5893304 6480792
1734.67 4436328 3095672 2863268 2793194 2736008 2822988
1737.56 2843006 2703160 2778536 3692726 3976350 2778380
1740.45 2315670 2272878 2201750 2165046 2386866 2378462
1743.34 2162710 1940788 1905140 1877772 1875542 1790932
1746.24 1941872 1976768 1820892 1921948 2234060 1997402
1749.13 1657330 1465086 1891626 3160376 3374414 1939786
1752.02 1387826 1255384 1264486 1242464 1245530 1270570
1754.92 1356324 1322166 1764358 2208548 1766476 1431186
1757.81 1519930 1468146 1449164 1487196 1637016 1755456
1760.70 2248856 3215454 3047996 2100864 1997012 1984876
1763.59 2073302 2060234 2164604 2197126 2373448 2408260
1766.49 2502198 2756270 3770616 3758606 2937018 2760164
1769.38 2817032 2930396 3527428 4077532 3827842 4781234
1772.27 6008370 4435674 3450122 3443488 3508586 3683732
1775.16 3923604 3768544 3684566 3620682 3585096 3397430
1778.06 3222030 3141664 3236774 3287576 3600320 3577236
1780.95 3449456 3667604 4086608 4327302 4295114 4237112
1783.84 4463250 4881182 4604922 4042052 3928266 3840256
1786.74 3976736 3967904 3816662 3912236 4019514 4021710
1789.63 4314380 5021014 5370826 4603478 4722826 6130016
1792.52 6118224 5068666 4423040 3510070 3137298 3118650
1795.41 3378282 3348966 3331144 3312522 3332236 3412364
1798.31 3709806 4111322 4372396 4025260 3919004 4046480
1801.20 3994898 3878504 3883876 3603154 3590912 3516804
1804.09 3502628 3456502 3469590 3356674 3302844 3149662
1806.98 3193328 3015780 2782500 2623210 2604994 2520278
1809.88 2707872 2647952 2332470 2195764 2175302 1925508
1812.77 1771054 1596628 1588522 1562278 1544224 1420198
1815.66 1357980 1216770 1157254 1099436 988948 930458
1818.56 1130704 1178138 1363432 1796686 2126612 1992194
1821.45 1703714 1317740 1172054 1107798 1087120 1062922
1824.34 1557484 1858208 1422504 1097660 1115184 1100472
1827.23 1253752 1367170 1556584 1662908 1894872 2178478
1830.13 1714684 1310636 1422410 1426680 1464142 1448958
1833.02 1430176 1365390 1488092 1524536 1603898 1531726
1835.91 1493056 1536466 1682172 1593542 1612236 1638818
1838.80 1766670 1820230 1891556 1855848 1845228 1808638
1841.70 1876552 1740028 1791664 2451082 3782400 3176330
1844.59 2103714 1998392 1932886 1801392 1778362 1847136
1847.48 1826520 1666250 1733572 1791886 1877026 1857052
1850.38 1902454 1935958 1970648 1984476 2088746 2164264
1853.27 2287398 2295570 2356652 2423034 2850614 2925388
1856.16 2624414 3085448 3751682 2845114 1969788 1741444
1859.05 1769518 1782360 1924736 1907928 1894766 1969970
1861.95 2069168 2009590 2085796 2108704 2184190 2192754
1864.84 2360630 2508250 2696096 2730192 2783290 2960494
1867.73 2968586 2987672 3475048 3247504 2708442 2567432
1870.62 2555654 2499584 2542358 2563266 2647688 2661376
1873.52 2628796 2527926 2490288 2454972 2457104 2446090
1876.41 2475374 2443186 2431470 2368092 2362556 2385836
1879.30 2467590 2471432 2543382 2532678 2522644 2501428
1882.20 2624090 2675910 2786346 2921274 3049766 3044042
1885.09 3101992 3110824 3196024 3152190 3215864 3223524
1887.98 3225426 3360914 3735098 3580214 3338342 3347628
1890.87 3378982 3311716 3417536 3501924 3509278 3518390
1893.77 3659234 3735904 3861826 3873048 3989508 4132718
1896.66 4285480 4373058 4250750 4101276 4463980 5313356
1899.55 5421798 4439468 4037042 4095510 4224500 4303598
1902.44 4479630 4621924 4817566 4886048 4797744 4642386
1905.34 4612736 4550806 4527352 4458024 4514448 4502222
1908.23 4558950 4773592 5172938 5246860 5234934 5396672
1911.12 5574012 5514674 5422828 5214092 5058712 4837862
1914.02 4661702 4523824 4527068 4675138 5153390 5607732
1916.91 5369566 5054002 4531166 3957790 3876348 3796474
1919.80 3826264 3770876 3822358 3907288 4034252 4023658
1922.69 3983172 3803232 3764500 3724964 3707992 3518104
1925.59 3292710 3159158 3144310 3084604 3088838 2953596
1928.48 2938026 2941844 3009284 2949934 2925948 2841236
1931.37 2837660 2734112 2745892 2711942 2691802 2641916
1934.26 2652398 2572760 2607198 2597760 2609346 2559964
1937.16 2570478 2593062 2680126 2618510 2623724 2620802
1940.05 2656254 2627998 2767828 2888444 3131772 3044654
1942.94 2878232 2795012 2868526 2899128 3072626 3299760
1945.84 3485086 3584750 3757898 3898904 4022756 4097026
1948.73 4259132 4388404 4557972 4752768 4924666 5044322
1951.62 5234112 5383078 5585984 5711142 5864774 6023544
1954.51 6267842 6355520 6440520 6451064 6471998 6495244
1957.41 6567780 6495286 6487892 6493770 6488684 6469552
1960.30 6513014 6545236 6634608 6470326 6474084 6490806
1963.19 6395792 6287006 6438678 6639114 7043890 7750422
1966.08 9094536 10728730 11962330 11550280 8058004 5437136
1968.98 5133036 5191028 5413528 5597494 5836554 5995566
1971.87 6228564 6541952 7128860 7524412 7621178 7446578
1974.76 7410082 7415708 7533380 7571316 7758838 7974358
1977.66 8368986 8727800 9134018 9393102 9193570 8563456
1980.55 8149986 7808850 7632462 7498040 7419306 7266654
1983.44 7095282 6899542 6815606 6649790 6491574 6306542
1986.33 6177472 6069514 6051526 5904594 5747272 5575186
1989.23 5541966 5517680 5538674 5448516 5494342 5468688
1992.12 5322082 5203314 5140374 5020488 4962494 4816378
1995.01 4775320 4717130 4692660 4708692 4808786 4842880
1997.90 4985582 5125070 5319548 5377066 5443688 5586730
2000.80 5844946 5670780 5087512 4684074 4776246 5025740
2003.69 5282390 5259870 5263736 5373502 5568150 5608658
2006.58 5687472 5752820 5787366 5675980 5646430 5675334
2009.48 5761880 5657152 5592322 5506532 5534678 5478284
2012.37 5405178 5239546 5243726 5285530 5250320 5113682
2015.26 5192962 5179130 5205400 5118508 5201866 5464404
2018.15 5792788 5987590 6052878 6081784 5970472 5288996
2021.05 4730806 4484052 4504608 4550096 4505404 4755622
2023.94 5900360 6152214 5347044 4942082 4748014 4413126
2026.83 4206208 4177454 4250704 4366804 4603424 4793362
2029.72 4805152 4788338 4877452 4875520 4760298 4645498
2032.62 4581500 4508656 4559278 4407144 4263806 4147000
2035.51 4061792 3838960 3781180 3751422 3629834 3531500
2038.40 3449046 3225816 3106156 2984522 2876590 2755630
2041.29 2711360 2609254 2441428 2245236 2165810 2091524
2044.19 2069960 2069342 2164536 1988202 1801370 1808422
2047.08 1798104 1628968 1529998 1443756 1408308 1350780
2049.97 1336242 1246812 1214716 1166296 1126192 1069282
2052.87 1133518 1169092 1172026 1017760 967820 987356
2055.76 1026208 1032478 1051482 1014156 1047624 1164916
2058.65 1384586 1320638 1263638 1239628 1290652 1393636
2061.54 1422556 1215540 1172030 1288606 1328794 1333068
2064.44 1473890 1470788 1562384 1694796 1666404 1612492
2067.33 1756248 1829680 1896408 1947548 1985452 2016680
2070.22 2129124 2194320 2270572 2276282 2206962 2146338
2073.11 2287922 2337116 2308324 2346198 2425708 2382674
2076.01 2360518 2297418 2309812 2317884 2341168 2311468
2078.90 2342368 2288570 2285912 2279534 2310544 2278298
2081.79 2361774 2530810 2727664 2967958 3293256 3441502
2084.69 3123030 2482176 2309116 2296602 2327412 2366086
2087.58 2486352 2545402 2595794 2463126 2365654 2329578
2090.47 2464338 2496890 2551848 2591182 2628354 2652250
2093.36 2679078 2642632 2602178 2577028 2742764 2914372
2096.26 3133498 3153826 3198862 3238380 2943796 2522454
2099.15 2380702 2389598 2409460 2401258 2497838 2443266
2102.04 2490136 2515918 2434602 2356088 2374462 2337748
2104.93 2328526 2248068 2256614 2191598 2183010 2155754
2107.83 2157776 2115444 2101616 2052606 2101806 2112302
2110.72 2049414 1946606 1995532 2021786 2101848 2097766
2113.61 2090108 2042634 2070524 2113038 2258656 2295478
2116.51 2151724 2024046 2087054 2109044 2096254 2034186
2119.40 2041528 2047930 2145658 2223556 2372614 2503292
2122.29 2633806 2605952 2621152 2660200 2696620 2547178
2125.18 2374916 2372318 2612764 2671578 2677262 2655958
2128.08 2765006 2855742 2881504 2746370 2693856 2788554
2130.97 2962422 3030444 3110586 3190638 3377566 3475328
2133.86 3599052 3763444 3959748 4132648 4377802 4476072
2136.75 4630450 4822416 5016296 5035778 5165254 5359816
2139.65 5619524 5764360 6003402 6151128 6327488 6527622
2142.54 6764660 7012270 7369942 7601630 7780862 7879360
2145.43 7939958 7906606 7956106 8071724 8256256 8449706
2148.33 8698032 8798094 8941246 9133746 9438142 9659238
2151.22 9920368 10027000 10001610 9729780 9506218 9460258
2154.11 9616632 9702450 9844232 10015680 10134710 10046190
2157.00 10223160 11385590 12920840 12081320 10832500 10643490
2159.90 10694150 10892880 11109560 10947340 11040760 11384070
2162.79 11631760 11852640 12663240 13887440 15034830 14627430
2165.68 14002820 13273400 11551020 9634132 8675168 8572436
2168.57 8548328 8734084 9249850 9714218 10011620 10149340
2171.47 10536220 10948740 11333320 11657580 11975950 12259990
2174.36 12534060 12746360 12875270 12855020 12925740 12832960
2177.25 12742070 12624790 12537690 12283410 11958270 11560790
2180.15 11123620 10608990 10175660 9749150 9426290 9083762
2183.04 8789624 8525962 8449188 8366940 7840146 7248238
2185.93 7193892 7531874 7699018 7440112 7824900 8095474
2188.82 8195750 8291104 9107468 8534576 6576062 5568990
2191.72 5337104 5362826 5486982 5528524 5553832 5612926
2194.61 5667022 5714806 5802250 5876760 5884368 5872110
2197.50 5906884 5874830 5926122 5946324 5948848 5925274
2200.39 5952812 5910438 5883146 5835474 5814628 5741500
2203.29 5723650 5675290 5774344 5935256 6328368 6911570
2206.18 7418828 7847732 8507934 7735196 5791894 5047954
2209.07 5030092 5095130 5198526 5305132 5521256 5711812
2211.97 5817044 5987826 6126646 6232472 6367588 6523076
2214.86 6748036 6908470 7144790 7568020 7806952 7661176
2217.75 7787852 8124488 8230454 7940240 7655008 7714308
2220.64 7917278 8009778 8213248 8439312 8583606 8480490
2223.54 8333812 8304394 8377548 8486820 8642420 8745012
2226.43 8926364 9052218 9117832 9052856 8989500 8947988
2229.32 8924162 8958628 9066770 9252158 9452682 9650630
2232.21 9955208 10168130 10417700 10778300 11189300 11531690
2235.11 11786300 12173460 12764640 12803330 12077450 11304420
2238.00 11164140 11258600 11160950 11034480 11089230 11272650
2240.89 11577580 11918850 12379990 12809850 13047670 13327400
2243.79 14054950 14708020 14646470 14258670 14291090 14503300
2246.68 14842610 15057070 15136230 15398760 15949460 16494840
2249.57 16347010 15656000 15278170 15016420 14878850 14723540
2252.46 14479380 14213260 14038900 13886930 13842520 13688220
2255.36 13393360 13091210 12895180 12973060 13451000 14811430
2258.25 18303430 21545680 18910350 14558750 13120300 12970550
2261.14 13117900 13167090 13340500 13541030 13706180 13962860
2264.03 14501060 14911530 15107450 15054260 15085330 15202630
2266.93 15403200 15528220 15704560 15787640 15889880 15976370
2269.82 16061880 16053000 16047780 15971880 15996310 16088540
2272.71 16198800 16245310 16205010 15861950 15379550 14998060
2275.61 14661970 14213200 13788400 13401630 13190420 13033070
2278.50 12861860 12716630 12695040 12501840 12408400 12381070
2281.39 12415010 12435090 12507790 12598630 12744260 12938700
2284.28 13257340 13447710 13416940 13406740 13570890 13708650
2287.18 13952110 12962600 11500010 10864170 10675040 10471000
2290.07 10410930 10259480 10088350 9972364 9892352 9779224
2292.96 9743990 9648108 9659800 9563580 9364792 9132928
2295.85 9040292 9036696 9139688 9279768 9362818 8982144
2298.75 8563924 8477484 8789306 9386142 9609370 8750580
2301.64 7964992 7801948 7865280 7668702 7428070 7234074
2304.53 7132526 7180226 7248936 7188018 7315546 7491062
2307.43 7531742 7434788 7352392 7234746 7213234 7376036
2310.32 7800944 8210828 8194434 7833472 7525234 7267670
2313.21 7098620 6904132 6773846 6705720 6634146 6545404
2316.10 6477368 6399310 6328938 6232546 6190730 6117338
2319.00 6097360 6003698 5900034 5762998 5633250 5526724
2321.89 5574330 5652996 5746204 5893014 6211034 6711652
2324.78 6992228 6179556 5327518 4921110 4704136 4692724
2327.67 4934512 5016242 4731866 4334402 4329732 4589986
2330.57 4700040 4554286 4580076 4559972 4472894 4563844
2333.46 4978828 5128310 4990654 5065652 5357630 5225680
2336.35 5009182 4932030 4794264 4528884 4508860 4604848
2339.24 4609212 4498274 4681272 4902510 4839886 4524940
2342.14 4296074 4219366 4242124 4308622 4233384 4016736
2345.03 3989748 4003782 3911026 3863854 3923958 3883182
2347.92 3758568 3621606 3561004 3412582 3314984 3254244
2350.82 3336156 3366052 3363820 3343974 3286246 3303856
2353.71 3610998 3664896 3534720 3506360 3481716 3458950
2356.60 3525214 3400960 3253042 3223078 3256196 3281030
2359.49 3340200 3183502 3127598 3141680 3004548 3011448
2362.39 3090226 2897646 2753748 2567860 2509128 2643094
2365.28 2663930 2632344 2605250 2435690 2469394 2405218
2368.17 2348366 2264884 2202478 2265464 2367132 2593920
2371.06 2959540 3168040 3413028 3221882 2647002 2429744
2373.96 2413174 2418028 2357684 2356006 2401454 2419292
2376.85 2457862 2552416 2660162 2743178 2802626 2676858
2379.74 2564624 2433214 2369706 2330802 2324554 2283428
2382.64 2214204 2106662 2089918 2113728 2165780 2143166
2385.53 2139560 2181216 2214032 2210972 2250932 2183964
2388.42 2155018 2194722 2213054 2204158 2237340 2276314
2391.31 2398720 2506376 2604038 2669760 2774450 2588994
2394.21 2360084 2416850 2855008 2851648 2627272 2626572
2397.10 2531030 2534580 2635306 2612696 2559868 2620276
2399.99 2756514 2758426 2760036 2899824 2970514 2960126
2402.88 2977780 2928806 2917852 2921140 2893726 2943210
2405.78 3054012 3005082 2997486 3129314 3166192 3231606
2408.67 3308118 3199944 3093262 3078158 3141552 3140026
2411.56 3111024 3131038 3202260 3208390 3299644 3399286
2414.46 3652512 4153750 4308282 3797918 3432898 3237146
2417.35 3309814 3613368 3771832 3519770 3381762 3387462
2420.24 3362552 3382976 3594950 3788790 3943948 3872210
2423.13 3720742 3431492 3190932 3056698 3128978 3186258
2426.03 3209536 3160134 3123046 3125608 3152856 3149646
2428.92 3196400 3202628 3258678 3225140 3180170 3274174
2431.81 3379324 3246024 3132536 2924886 2786086 2767456
2434.70 2811538 2810822 2814218 2789522 2818752 2806474
2437.60 2782368 2673348 2652862 2684498 2571344 2380464
2440.49 2372600 2436638 2393290 2277488 2178072 2104090
2443.38 2010236 1950852 1984306 1862798 1842862 1905912
2446.28 1901330 1874634 1900742 1919644 1903178 1868070
2449.17 1878128 1775170 1676870 1707654 1754542 1719508
2452.06 1620148 1574442 1610074 1544402 1500042 1504848
2454.95 1548958 1535868 1494126 1481604 1508310 1454668
2457.85 1426802 1371444 1366362 1453418 1494324 1441438
2460.74 1423574 1366202 1357216 1393884 1415912 1310514
2463.63 1279064 1259616 1322314 1372210 1420904 1426450
2466.52 1464450 1526066 1619670 1637522 1647958 1622460
2469.42 1594266 1546102 1585584 1617080 1551420 1504168
2472.31 1518942 1417006 1435970 1531690 1563062 1558542
2475.20 1683002 1754476 1741382 1602658 1627742 1682060
2478.10 1671328 1620300 1527772 1506948 1469400 1387440
2480.99 1459522 1485650 1533854 1556274 1685396 1813566
2483.88 1737288 1682274 1759872 1728076 1817920 2007304
2486.77 2122348 2085252 2083512 2010122 2072170 2183248
2489.67 2186210 2162418 2191940 2216596 2220478 2271136
2492.56 2331566 2319570 2398390 2372392 2462800 2479282
2495.45 2466362 2490032 2511142 2500324 2563910 2570880
2498.34 2661190 2711710 2762158 2818384 2852524 2832262
2501.24 2903018 3028196 3228438 3474484 3864852 4215856
2504.13 4036826 3387220 3089090 2993338 2994652 3052890
2507.02 3171976 3226768 3272408 3354196 3511164 3622506
2509.92 3599782 3410296 3345376 3286902 3168132 3195356
2512.81 3417002 3811052 4631636 5675370 6140208 5689852
2515.70 5261544 4666850 4065398 3587604 3430430 3536974
2518.59 3651074 3769308 4002620 4148232 4084060 4002042
2521.49 4014544 4129270 4314812 4345562 4330212 4303808
2524.38 4384768 4539434 4660330 4681662 4739884 4834578
2527.27 5036826 5162556 5117740 5020614 4850070 4535598
2530.16 4298114 4018374 3770166 3535410 3490560 3667686
2533.06 3806374 3842952 3854258 3835892 3825450 3655320
2535.95 3532850 3510508 3619598 3688644 3800278 3970758
2538.84 4427054 4862886 4446056 3520408 3094516 2892958
2541.74 2844766 2878338 2862804 2600396 2443372 2445630
2544.63 2537068 2556180 2651170 2743286 2795794 2744504
2547.52 2665124 2630080 2702914 2816656 2817704 2866322
2550.41 2993214 2836320 2797986 2887636 2857846 2765462
2553.31 2736756 2647926 2558894 2527294 2487044 2396564
2556.20 2359632 2310058 2218264 2115644 2217936 2208586
2559.09 2150078 2155972 2231358 2234912 2231482 2195164
2561.98 2162042 2089518 2089248 2063980 2105472 2131434
2564.88 2095798 2170820 2338310 2347186 2216060 2227168
2567.77 2373906 2325334 2212390 2172900 2310352 2423582
2570.66 2476762 2466916 2550170 2563382 2532920 2628170
2573.56 2769766 2696168 2591332 2551050 2645216 2701392
2576.45 2702708 2725682 2991488 3093714 3021026 2944728
2579.34 3050336 3262860 3389844 3373092 3372794 3249506
2582.23 3223498 3315818 3456338 3445306 3477884 3622532
2585.13 3782998 3811548 3903140 4053856 4181342 4282826
2588.02 4390092 4395232 4423532 4517314 4695314 5033332
2590.91 5385610 5368792 5209576 5105830 5203000 5271994
2593.80 5273004 5263210 5338548 5440558 5641446 5632084
2596.70 5635076 5780858 5926338 5881916 5898458 5908422
2599.59 5972452 6019320 6046124 6114520 6300118 6421390
2602.48 6500972 6648178 6717626 6573804 6527114 6489430
2605.37 6316536 6135646 6184106 6284812 6488610 6650574
2608.27 6695106 6637574 6596140 6603160 6667854 6663506
2611.16 6761624 6843660 6985686 7211408 7401292 7402228
2614.05 7238304 7004766 7003450 7071002 7109194 7102980
2616.95 7086948 7021424 6987400 6876628 6707472 6621864
2619.84 6549268 6400596 6432838 6532958 6602588 6536040
2622.73 6489342 6500670 6512064 6451974 6416890 6399710
2625.62 6581214 6655060 6567438 6507664 6609020 6461944
2628.52 6195914 6007606 5998520 6110088 6175774 6156362
2631.41 6106380 5932068 5801500 5825686 5902500 5831362
2634.30 5542596 5347824 5630646 6000792 5854286 5563858
2637.19 5349852 5079972 4995330 4949474 4943682 4885580
2640.09 4926588 4882724 4816860 4830338 4843076 4684110
2642.98 4571806 4536326 4564004 4347054 4075374 4060924
2645.87 4048830 3940504 3931474 3950328 4065482 4083716
2648.77 4047150 4044008 4081252 4061724 4021958 3957828
2651.66 4132382 4191754 4139422 3923102 3811420 3815912
2654.55 3782610 3656490 3582582 3483424 3374602 3204588
2657.44 3114164 3110180 3088062 3040782 3042214 2917294
2660.34 2829278 2735284 2623560 2520898 2475682 2367726
2663.23 2372144 2311344 2303522 2240148 2138374 2030170
2666.12 2074760 2090540 2036570 1920516 1857048 1710900
2669.01 1715014 1697914 1668132 1781468 1929728 1997030
2671.91 2580920 3558902 3159244 1987776 1613560 1459098
2674.80 1378788 1315252 1345188 1345300 1309526 1172440
2677.69 1176858 1165850 1218500 1328610 1420468 1311454
2680.59 1237366 1176274 1205112 1117380 1004368 1027656
2683.48 1112622 1113672 1202898 1130094 1059030 1037346
2686.37 1041930 946184 905280 1030648 1174926 1087346
2689.26 1007578 954854 938586 918004 961788 1029560
2692.16 1010102 867974 911158 949706 946642 899572
2695.05 952922 1011604 1075362 1011258 1016192 1064400
2697.94 1149590 1153220 1118068 1097998 1228492 1210470
2700.83 1212470 1266608 1253070 1223448 1440980 1547582
2703.73 1499084 1428362 1568686 1725392 1818296 1705056
2706.62 1693250 1761012 1874838 1910122 2037494 2138684
2709.51 2267232 2392762 2543030 2659660 2894944 2943316
2712.41 3006270 3175926 3328030 3469664 3686556 3882024
2715.30 3986696 3977290 4015620 4012578 4063308 4145968
2718.19 4161018 4227886 4392350 4466046 4428120 4496652
2721.08 4502182 4312592 4262514 4326838 4481104 4524270
2723.98 4336886 4208498 4174124 4190600 4298202 4260524
2726.87 4154644 4206290 4491240 5000540 5692610 6676454
2729.76 8338408 10354140 10540960 8492248 6872854 5439382
2732.65 4597264 4211190 4148896 4176254 4448598 4763016
2735.55 5141654 5243358 5367576 5635518 6000286 6305476
2738.44 6547628 6671088 6894176 7047394 7242106 7376308
2741.33 7509612 7505354 7457760 7329866 7281616 7288406
2744.23 7618616 8138520 8508664 8590648 8584424 8404408
2747.12 8243266 7986854 7858088 7923352 8013124 7891124
2750.01 7884390 7783910 7674598 7668878 7711262 7597490
2752.90 7594796 7587320 7654430 7738136 7941658 8063662
2755.80 8184096 8222662 8351846 8646298 9026878 9152120
2758.69 9361976 9449990 9393932 9400102 9565432 9729276
2761.58 10026350 10124610 10215660 10351070 10531880 10612400
2764.47 10758780 10824520 10983140 11152000 11423620 11757710
2767.37 12495050 13745280 15687530 18128070 20477950 22469380
2770.26 24968190 24928350 21540080 18550040 15100480 13133210
2773.15 13208610 14033750 14857660 15187920 15354520 15536820
2776.05 15853850 16270980 16622260 16934650 17362010 17701480
2778.94 17975490 18163460 18622430 18966680 19189920 19393500
2781.83 19684170 19961460 20215240 20494010 20906470 21473590
2784.72 21947190 22105340 22308430 22377050 22515000 22665340
2787.62 23005810 23561090 24078150 24210060 24149550 24175350
2790.51 24242440 24308590 24393320 24450840 24650070 24790380
2793.40 24986350 25131030 25229280 25244000 25226620 25129110
2796.29 25106820 25104920 25046860 24681190 24531730 24299080
2799.19 24008360 23864820 23837940 23629000 23455750 23385270
2802.08 23330120 23155060 23146340 22980830 22969010 22709920
2804.97 22800610 23647010 25267830 26339960 27503550 30475350
2807.87 34597150 35891960 35013030 38169640 41800030 34006130
2810.76 23479450 19834590 19353640 19545890 19815390 20000330
2813.65 20131160 20318170 20416950 20365620 20269120 20227380
2816.54 19927390 19470630 19463410 19627520 19825090 19918230
2819.44 19994690 20016600 19932350 19539230 19346980 19244650
2822.33 19087550 18903520 19111820 20019470 20794330 20580690
2825.22 20037160 19528280 19122740 18724390 18499810 18290660
2828.11 18782220 19715510 20645780 22043380 23644420 22742600
2831.01 20047300 18550470 17927140 17585580 17500650 17718510
2833.90 18047040 18332370 18801710 19121430 19266630 19327540
2836.79 19434020 19592510 19872110 20119720 20570190 21165110
2839.69 21597800 21572180 21534370 21800560 22358130 22696860
2842.58 22951900 23105520 23329240 23558540 23835020 24057150
2845.47 24322830 24543010 24708450 24956000 25313250 25573350
2848.36 25981790 26139030 26290140 26635430 27118330 27374190
2851.26 27465440 28011120 28971740 30105410 31446360 32651770
2854.15 34053320 35300960 36313150 36921430 35941450 34547590
2857.04 34344130 34739780 35514600 36413480 37507350 38746060
2859.93 39986480 41439440 43561030 45768950 47900420 49926670
2862.83 52087520 54608240 57199570 59820200 62542500 65686500
2865.72 70996090 83451610 93020240 86656140 77534720 73999000
2868.61 74443480 75019690 75561040 76105990 76869000 77221520
2871.51 77576040 77347740 76946110 76068540 75810750 75661330
2874.40 75517170 75578350 76364300 77095620 79557920 85484810
2877.29 95897330 104825900 102521500 91961390 84596180 81720060
2880.18 80373240 79255980 78886220 78819940 80311940 82224930
2883.08 84415270 87101120 91091800 96496010 105878400 126907700
2885.97 155424700 150631300 132398000 124755600 115724800 109191200
2888.86 107241300 107991800 109135300 110953900 113187800 116216100
2891.75 119985100 124439400 128394900 130982800 133246300 135710000
2894.65 137455400 139777700 143077200 146818200 150168500 153721500
2897.54 156775500 159869800 163003500 167163500 171603200 176380800
2900.43 181045000 184153700 186288500 188957300 192530900 195409300
2903.32 196168900 196987600 198453400 198149100 196769900 195077400
2906.22 193699600 192056900 191085100 191208000 192030600 192125900
2909.11 191472800 191553100 193398800 196544900 202464400 211127400
2912.00 219484200 225923100 233549500 242492400 251455600 259212800
2914.90 265299900 270834600 278516100 285585200 291039200 292826600
2917.79 293379900 299718000 308493400 313718000 317287500 320574200
2920.68 324168800 327636800 331482600 335625400 340523400 346583500
2923.57 354268800 362322400 368864200 370710800 367302800 365685500
2926.47 371277000 383776300 402940100 426950600 432915600 404946000
2929.36 372115000 360907500 363477200 368134400 370257300 370694400
2932.25 371782700 372866200 373753300 373114000 372740900 372015200
2935.14 371187100 370456900 370553000 372901400 378086300 382793800
2938.04 387823300 395286000 410063900 434632900 470847600 512310900
2940.93 550086200 546303500 478392400 412000300 377940900 364516300
2943.82 360182500 361200100 363892100 368615800 375419200 382811100
2946.72 390001300 398356400 407736700 418385000 429510200 439708700
2949.61 447546900 453721100 458641700 462846500 465700700 467678500
2952.50 468811500 469829500 470454000 470872800 471262300 471810000
2955.39 472097000 472654200 473148400 472946100 473225400 474539700
2958.29 474814800 474497400 474580300 476048200 477770000 479196800
2961.18 481418800 486046900 492174400 496862600 501419400 506573700
2964.07 512694200 519068200 526934300 535861900 546394600 557798300
2966.96 568258300 579847500 590708500 599807100 607323600 612314900
2969.86 614290800 613051800 608557600 600895000 590819100 577835900
2972.75 564023600 554110500 552444900 560229400 570413900 583111300
2975.64 604952300 633390500 663730600 691383900 714485500 733309700
2978.54 747798700 760891500 774179500 787281700 797971800 807694600
2981.43 818035800 829932000 847836500 869748500 877083200 869177500
2984.32 862543800 860867100 861738700 862511200 864364500 868162400
2987.21 873602100 876753900 878904000 880854000 883786900 887419900
2990.11 892404400 897937200 904221100 912558800 925555100 939552300
2993.00 951110600 951890300 944065800 940757400 939351900 916711200
2995.89 879351600 857709700 862181800 889836000 936916500 1010346000
2998.78 1125356000 1279222000 1450838000 1577003000 1560248000 1358923000
3001.68 1099221000 938365500 871458100 821122200 773278300 757606100
3004.57 758125200 760615200 766787600 773197600 776811600 778614200
3007.46 779161300 777241200 773845700 768809500 760981200 752537900
3010.36 745717100 739355000 731965800 723944100 719268100 717929700
3013.25 717874000 719140300 719325100 716709600 712562100 706230500
3016.14 698843500 690370200 681089600 672127200 664234600 656262600
3019.03 648291000 641773100 635193900 628955400 622687200 615920400
3021.93 609913500 603826600 598846600 594304600 589678300 585027800
3024.82 579789000 574900300 570693700 566944200 563708500 560735200
3027.71 558260200 555189800 551891300 548525600 545583600 543139600
3030.60 540824600 538245200 536014300 534005200 532836600 531826500
3033.50 531212200 530229300 529893500 530402700 531248200 531908700
3036.39 534038500 536330900 537011100 533464600 523708200 512796600
3039.28 505464500 499310000 492654300 483436500 473987600 462722200
3042.18 451039900 438864300 426621300 415644100 403030900 389779200
3045.07 382396800 381791000 388887100 403972400 431973800 475311800
3047.96 563953200 753851000 1081641000 1414908000 1487439000 1126984000
3050.85 583501200 320348300 270275400 268160100 278867900 295329400
3053.75 312612100 331150000 347869500 363629900 375559300 385847500
3056.64 393547700 399239200 402777500 405510900 406840700 407621900
3059.53 406934100 405479200 402170700 398892700 394974900 389908800
3062.42 383245000 376558400 369563800 361649900 352830800 344567700
3065.32 335923300 327163300 317951800 308987700 299795500 291121100
3068.21 282011500 273326600 264490700 255561900 246593400 238325700
3071.10 230113900 222601600 214676800 206946600 199253200 191953500
3074.00 184756100 178080500 171699700 165576400 159075300 152684400
3076.89 146310000 140759100 135233600 129789700 124328700 119238200
3079.78 114589700 110754300 106658200 102249300 97585620 93103650
3082.67 88660570 84582630 80709470 76928500 73243590 70134150
3085.57 66893820 63844920 60534490 57708720 54854380 52280710
3088.46 49551240 47072040 44820050 42709600 40393330 38260290
3091.35 36089110 34402530 32755190 31224970 29837520 28510450
3094.24 26927610 25594130 24325900 23461710 22414350 21365210
3097.14 20414860 19590890 18639530 17933180 17215760 16663850
3100.03 16170320 15589040 14841160 14243540 13586920 13206490
3102.92 12911090 12557600 12041900 11722010 11329800 11133270
3105.82 10873150 10546260 10094920 9905734 9754992 9756710
3108.71 9503068 9473774 9348146 9141720 8844852 8667804
3111.60 8604170 8618564 8448248 8567476 8487102 8352898
3114.49 8296772 8417474 8318324 8281016 8266294 8391402
3117.39 8406014 8535630 8552580 8529142 8404642 8364378
3120.28 8410646 8550806 8562138 8552790 8388300 8363110
3123.17 8330774 8474482 8573430 8596504 8425016 8540698
3126.06 8613928 8665524 8665726 8738650 8887366 8941436
3128.96 8871688 9064828 9112804 9194954 9147246 9089024
3131.85 9087228 9288844 9379846 9328922 9377574 9703994
3134.74 9817318 9870448 9941896 10063290 10009760 9945160
3137.64 9994144 10044620 10026230 10134320 10118100 10338500
3140.53 10504960 10535640 10511740 10779690 10963480 11290380
3143.42 11720930 12384890 13109010 13696540 13864910 13424550
3146.31 12619570 12046370 11765280 11722300 11621090 11694500
3149.21 11873390 12130050 12196210 12328590 12482360 12705850
3152.10 12782000 12879660 13112660 13257500 13187620 13445660
3154.99 13676870 13637940 13719370 14056200 14231410 14577850
3157.88 15018120 15453910 15718540 15990630 16333230 16774560
3160.78 17021660 17364100 17750590 18123190 18203070 17544550
3163.67 16397140 15528580 15105090 15076350 14849200 14682690
3166.56 14636940 14559140 14371820 14431750 14507680 14396870
3169.46 14191310 14022320 13960240 14149080 14197480 14219070
3172.35 14501620 15193070 16526030 19431390 23599760 24438590
3175.24 20499650 16947870 15316660 14481370 14104750 13990510
3178.13 13787940 13393700 12847980 12601340 12576960 12540800
3181.03 12288420 12115520 12162840 12359800 12329550 12287570
3183.92 12126240 12058360 11806390 11633450 11622250 11698170
3186.81 11571560 11398710 11201400 10994210 10716820 10648420
3189.70 10535370 10498010 10206420 9867722 9646794 9436014
3192.60 9129184 8933402 8600738 8284354 8137376 8072532
3195.49 7734672 7435304 7284588 7235372 7019536 6715264
3198.38 6402826 6266730 6052716 5786686 5578366 5412424
3201.27 5233458 4907720 4612062 4493266 4357154 4292136
3204.17 4098704 3979022 3826274 3780754 3769212 3650060
3207.06 3474156 3335246 3250144 3213080 3034132 2874876
3209.95 2731548 2582684 2612134 2644666 2472678 2351364
3212.85 2107554 2115362 2076684 1981430 1872698 1955234
3215.74 1898484 1712832 1495880 1538540 1674104 1489442
3218.63 1371904 1425292 1554624 1634738 1329208 1268550
3221.52 1172916 1188610 1233634 1164232 1017606 1051548
3224.42 1228654 1310546 1173136 1113192 989012 1017248
3227.31 982586 937098 905854 1069994 1220238 1089864
3230.20 914148 933944 925024 940262 680304 719338
3233.09 810250 689742 668150 811450 826728 685844
3235.99 776558 964958 885640 742756 630312 704656
3238.88 773930 748658 683998 651988 589786 578814
3241.77 546030 531122 663480 828904 693300 554342
3244.67 602906 722874 782666 773460 652924 806838
3247.56 751276 561232 645454 953362 969914 833938
3250.45 715038 610280 687596 803968 759488 851576
3253.34 888584 827994 698852 749916 653506 694374
3256.24 753366 729702 788986 847572 648058 578548
3259.13 872606 889582 628208 758902 860776 796446
3262.02 692218 678904 772856 756584 663248 718312
3264.91 813434 829880 784920 962192 1049686 887198
3267.81 619630 730588 760252 766770 766094 627346
3270.70 638320 745578 640474 657418 692562 756106
3273.59 687226 561536 514738 707732 872360 949868
3276.49 984720 991830 1021958 1089660 1092620 1027524
3279.38 978674 842678 868908 1234270 1217174 861010
3282.27 692800 874948 979776 1009904 1076110 967860
3285.16 875630 1011468 1012776 892770 803980 938028
3288.06 974622 1006306 1089710 1092620 1076176 1077664
3290.95 1027572 1135748 1265720 1372532 1248346 1311046
3293.84 1146406 944532 941744 1181190 1232278 1166088
3296.73 1121686 1165914 1197850 1252388 1139578 997048
3299.63 1003780 1025768 1016386 1054424 922000 899380
3302.52 979586 1123808 1086538 983008 1100120 1224734
3305.41 1110332 919416 1048160 1200440 1174860 1176246
3308.31 1217012 1237042 1346164 1350280 1218812 1403580
3311.20 1352834 1226560 1206462 1433384 1558340 1525038
3314.09 1543658 1558486 1444842 1678982 1860188 2031594
3316.98 2161954 2076460 1967770 2162642 2250150 2321092
3319.88 2484440 2400556 2378978 2525676 2704590 2991770
3322.77 3183464 3200034 3288354 3503012 3390158 3343266
3325.66 3526276 3585838 3732416 4107196 4281218 4239446
3328.55 4039014 4131516 4285480 4288958 4261836 4302306
3331.45 4392262 4316606 4154760 3968542 4015180 4179288
3334.34 4232558 4255456 4266394 4151500 4139618 4043372
3337.23 3978952 4198940 4439564 4960882 5627244 6250288
3340.13 6918662 7303554 7034708 6148302 4943286 4204258
3343.02 4066342 3886792 3798330 3953142 3990828 4068310
3345.91 4157134 4167416 4173450 4348554 4559848 4743810
3348.80 4808170 4983866 5230098 5311220 5212364 5154046
3351.70 5278160 5716400 5737162 5567192 5596656 5603270
3354.59 5372572 5212144 5264156 5256404 5036158 4940974
3357.48 4977686 5103026 4954400 4688046 4567414 4616080
3360.37 4627110 4770818 4633976 4456442 4305986 4179412
3363.27 3938726 3834830 4048372 4151310 3903602 3819782
3366.16 3791876 3693454 3624274 3649726 3713224 3631608
3369.05 3617508 3787370 3754666 3668412 3707768 3790008
3371.95 3824874 3795400 3829418 4021642 4075226 3872894
3374.84 3808712 3876654 3863676 3841256 3817386 3773766
3377.73 3702104 3565298 3579602 3852242 4002312 3897394
3380.62 3678218 3647598 3723808 3712394 3541304 3729618
3383.52 4191980 4521896 4442062 4502584 4682610 4674066
3386.41 4393408 4342670 4270140 3998488 3950026 3913350
3389.30 3858966 3804370 3655398 3504978 3491844 3760786
3392.19 3971128 4099202 4236640 4535732 4724744 4825576
3395.09 4735592 4549972 4251272 4202604 4053902 4029952
3397.98 4136962 4085704 3990622 4129592 4227464 4272070
3400.87 4307462 4292392 4255012 4336104 4302644 4178010
3403.77 3999940 3832264 3666842 3668128 3708182 3774206
3406.66 3682714 3486342 3390546 3712654 3838244 3951050
3409.55 4051686 4088744 4021476 3761078 3533248 3559172
3412.44 3419408 3188394 3129312 3329384 3286310 3343200
3415.34 3587172 3687204 3464242 3223588 2960582 2867858
3418.23 2806738 2660554 2437788 2408052 2520342 2641818
3421.12 2630068 2529218 2446014 2421314 2350496 2548652
3424.01 2462254 2541570 2646498 2505302 2461356 2487136
3426.91 2407442 2521584 2369470 2237904 2299224 2394088
3429.80 2481470 2511032 2306942 1914106 1925348 2059862
3432.69 1974846 1888666 1875138 1866420 1897390 1976752
3435.59 2057786 2018882 1870696 1664402 1669652 1786168
3438.48 1643092 1592982 1641304 1634906 1627940 1699474
3441.37 1622598 1608568 1843338 1978802 1873814 1765796
3444.26 1659060 1645916 1648534 1717374 1739326 2038924
3447.16 1938900 1639352 1537990 1701864 1614350 1533558
3450.05 1676682 1681564 1612152 1627316 1600222 1529142
3452.94 1436364 1343600 1368616 1431574 1260882 1154838
3455.83 1074146 997836 1029112 1215326 1286482 1202282
3458.73 1406390 1932846 2118188 2300098 2248724 2003892
3461.62 1894876 1775310 1571716 1509394 1561406 1426872
3464.51 1120442 1116892 997804 1021778 1301582 1422200
3467.40 1223814 1149378 1186794 1419506 1442578 1456180
3470.30 1405070 1349600 1232538 1034572 1047246 1157552
3473.19 1096602 995518 1119912 1228558 1235514 1082952
3476.08 968660 1117978 1315234 1128760 1022928 1046488
3478.98 1006216 1066724 897474 731954 680736 889348
3481.87 1056162 954306 774002 736792 733930 590074
3484.76 448220 515010 488032 465572 521982 649372
3487.65 635884 656958 612994 602548 501702 524534
3490.55 637800 529464 370782 411362 534476 447238
3493.44 247606 453964 753948 747710 822018 867398
3496.33 707932 620416 512396 527482 521864 523414
3499.22 448390 443262 451920 535510 628004 641024
3502.12 761742 847902 623256 352512 301118 285276
3505.01 155942 353872 574018 522726 472248 458320
3507.90 652168 940372 912432 707964 472490 506156
3510.80 586298 388434 413548 807436 773000 446428
3513.69 422384 642756 596808 587570 686850 822542
3516.58 761934 657958 497390 497876 557088 602406
3519.47 680594 642728 601836 752886 706184 534300
3522.37 604282 948080 1049494 868158 662460 793964
3525.26 816994 772718 914476 807088 447450 577200
3528.15 818008 907862 707292 599868 552224 756248
3531.04 903226 676834 611478 745644 653730 684454
3533.94 770404 768270 580220 556604 696870 760530
3536.83 737666 791352 848386 851740 695916 818184
3539.72 834176 929510 990700 808580 612362 555912
3542.62 481146 705416 771542 760380 868924 792836
3545.51 519734 638372 786466 490208 508248 828994
3548.40 718354 678716 646516 750032 893066 925576
3551.29 887922 964628 761212 714422 783714 719042
3554.19 650106 647446 625316 713844 772138 867078
3557.08 798536 768970 791102 772170 778466 669622
3559.97 691176 847710 766188 691120 616600 583228
3562.86 601010 692864 900248 899464 878212 1110126
3565.76 1269982 1429380 1208178 1230672 1422356 978128
3568.65 507326 413160 639186 693480 777028 869546
3571.54 784948 644604 537156 578538 648580 738326
3574.44 667372 613230 686448 736298 660858 668760
3577.33 594402 579920 723278 857842 952474 890426
3580.22 730906 818756 757418 647934 599768 745728
3583.11 833826 709926 679414 789750 878386 929096
3586.01 1483330 1438898 967036 879890 1421886 1567420
3588.90 662862 430552 570760 695908 723838 797942
3591.79 899218 811264 811936 875848 851476 906760
3594.68 1142566 1198772 988652 894060 771546 765192
3597.58 833654 862978 774272 710166 701348 823766
3600.47 911362 833482 872850 902324 837306 819090
3603.36 620562 584554 659580 731256 827820 929728
3606.26 1140864 1316090 1046324 801816 1335220 2501776
3609.15 1906772 925834 805792 862810 947410 1398310
3612.04 1920236 1515610 936468 971720 1137874 1085828
3614.93 949204 824646 770510 810204 1283646 1555586
3617.83 1229126 1234608 1983254 2363314 1319440 887176
3620.72 935298 832772 662660 850982 1029892 1134102
3623.61 1112740 1173542 1053416 1053004 1131248 980782
3626.50 692128 1016236 2308898 3047452 2363464 3416454
3629.40 3091148 1446108 1045268 1017404 1053172 1065068
3632.29 1061114 1232218 1528006 1363180 1196296 1240174
3635.18 1178668 1037734 1051832 1175412 1277036 1472332
3638.08 1365970 1252180 1254678 1249552 1303222 1304028
3640.97 1152196 1197462 1218724 1206060 1294530 1352012
3643.86 1310708 1374646 1491050 1644358 1782978 2222376
3646.75 2791970 2468762 1756688 2488384 4343288 3598328
3649.65 2334254 2763336 2911134 2495730 1771848 1729676
3652.54 1764062 1818770 1877932 1890664 1692728 1934080
3655.43 3205316 3851810 2539748 1991312 1978228 1977776
3658.32 2075092 2106428 1963164 2030606 2167910 2300302
3661.22 2385270 2324340 2122588 2303682 2395848 2406552
3664.11 2292824 2325190 2393356 2471662 2449000 2541452
3667.00 2574252 2755428 3579766 3946732 3242520 3361038
3669.90 5279356 6342614 4079200 2906554 2723036 2897616
3672.79 3000688 3117486 3570656 4839666 4964826 5711714
3675.68 6170956 4202298 3340236 3340538 3178910 3314762
3678.57 3681572 3761770 3423154 3397822 3326136 3303962
3681.47 3232020 3188630 3191366 3179092 3262938 3362750
3684.36 3286520 3423942 3467474 3594144 3575028 3616768
3687.25 4347318 7040290 7101522 4626692 3900180 3875052
3690.14 4039804 4681826 4613396 3854008 3539998 3464204
3693.04 3477258 3503628 3444940 3422566 3563578 3619282
3695.93 3698092 3796024 3772464 3803428 3751542 3615164
3698.82 3565642 3590746 3566492 3591568 3953802 4514808
3701.72 4213636 3694512 3575096 3594822 3637238 3614260
3704.61 3661290 3673220 3730768 3839512 3752848 3715684
3707.50 3800836 3900402 4558334 5095690 4289726 3858136
3710.39 4097928 4375948 5926752 6745860 5085008 4175878
3713.29 4085118 4182596 4333950 4258238 4166136 4401358
3716.18 4332072 4412216 4548116 4659242 4734202 4799234
3719.07 4709686 4633244 4486136 4612416 4783222 5416886
3721.96 5641148 5286974 4984736 4915898 5101318 5390834
3724.86 5299572 5182572 5903862 6191728 5639316 5655134
3727.75 5733150 5806132 5831688 6023012 6030456 6074374
3730.64 6145894 7185712 8601468 7897868 6696148 6566006
3733.54 6864082 7710358 8297744 8055680 7735996 8986638
3736.43 9154654 7808084 7564050 7887948 7846352 7699384
3739.32 7660124 7756750 8081328 8197320 7753068 7640382
3742.21 7837084 8247570 9493144 12368120 14457050 11769040
3745.11 8861244 8365130 8529466 8773464 8921856 9106874
3748.00 9550056 11742820 13327140 11089400 9349806 9412678
3750.89 10024380 12649990 14135960 11647700 10290830 10171270
3753.78 10199490 10379630 10539920 10689090 11311470 11795130
3756.68 11403300 11028920 10740630 10442700 10577770 11006530
3759.57 10719970 9861898 9518366 9507084 9689294 9790838
3762.46 9800098 9517144 9187748 9254110 9497636 9834648
3765.35 10009350 9629706 9459600 9281552 9131030 9077466
3768.25 9105050 9558500 10541220 10418040 9418044 9099736
3771.14 9140624 9060718 8734126 8714102 8851974 8927278
3774.03 8893056 8874966 8727410 8749118 8832992 8656286
3776.93 8420420 8478006 8612888 8693684 9177896 9105666
3779.82 8201614 7872702 7884980 7895402 7823556 7879122
3782.71 7820882 7592580 7600008 7817250 7847202 7861926
3785.60 7664496 7614290 7598398 7430276 7198616 7245788
3788.50 7236688 7119306 7129602 7399712 7409534 7211574
3791.39 7248620 7357266 7268708 7243854 7119996 7109208
3794.28 7159806 7229746 7406788 7977874 7843632 7283672
3797.17 7128910 7200376 7152822 7049954 6963512 7248872
3800.07 7791320 9999284 11109920 8487322 7346118 7673962
3802.96 7711462 7771688 7993266 8338282 8744668 9269346
3805.85 10225750 12149890 11534760 8831856 7655162 7313800
3808.75 6975312 6498554 6293256 6293360 6429904 6508072
3811.64 6609514 6911286 7129690 7138020 7218536 7338270
3814.53 7468642 9030574 11955990 10998090 8735342 8442768
3817.42 8496624 8577764 8368498 8174964 8256076 8958490
3820.32 9323356 9129022 9342074 8410936 7667818 7591824
3823.21 7364616 7386394 7387670 7159818 7107370 7317320
3826.10 7650246 7527190 7193480 7190360 7066790 6974532
3828.99 6892722 6923338 6901250 7217342 8041990 8007034
3831.89 7035644 6897560 6826546 7049466 7436652 8468372
3834.78 8271372 7539452 7381292 7281812 7871552 10528870
3837.67 9985918 7234714 6763410 6923144 6872978 6851338
3840.57 6982830 6414862 6054412 5895148 5987748 6633794
3843.46 6848656 6237800 5821586 5619990 5746028 5965766
3846.35 5966470 5672126 5564704 5722272 5864358 5858568
3849.24 5970876 5925454 5906640 6284724 8244008 9578606
3852.14 7476834 6596428 8741940 11964290 10753700 7209660
3855.03 6041312 5953434 5913840 6247674 6207536 5727516
3857.92 5599842 5617266 5525446 5404852 5607748 5693544
3860.81 5925352 6450072 6061230 5609000 5641252 5822688
3863.71 6207924 7000476 7575602 6796616 6195392 6151650
3866.60 6133848 6042620 6231208 6554484 7119302 7575852
3869.49 8495506 7743950 6340518 6349602 6303678 6383050
3872.39 6354142 6673186 7170064 7487100 7054258 6557906
3875.28 6334072 6345624 6441492 6564078 6629020 6578120
3878.17 6431104 6360894 6922906 7794568 7665814 7314060
3881.06 7018974 6842042 6870220 6931200 7117546 7211968
3883.96 7251014 7581782 8702978 9034898 7759800 7142752
3886.85 7263176 7337570 7283448 7166228 7046942 7045748
3889.74 7280516 7938616 8899200 8640722 7809460 7584316
3892.63 7561080 7674184 7682850 7482010 7019058 6791604
3895.53 6894588 7215236 7218166 7370878 7665396 7901478
3898.42 8337688 8795816 8028464 7374486 7286896 7815242
3901.31 8389332 7789724 7158764 7011704 7577228 8322572
3904.21 7621090 6999478 6974058 7087420 6924428 6702762
3907.10 6699828 6877894 6923634 6873752 7005926 7057200
3909.99 7073652 7019574 6937376 7140478 7093682 6936702
3912.88 6930542 7084608 6973000 6985740 7005590 7062152
3915.78 7080736 7196968 7560194 7294768 7023154 7233086
3918.67 7253350 7437446 7661124 7400998 7082242 7116294
3921.56 7236196 7203820 7253400 7457288 7608322 7800606
3924.45 8102202 8072304 7768626 7778774 7812776 8010762
3927.35 8060228 7968524 7975664 8236856 8245228 8083690
3930.24 8166518 8306616 8494922 8809870 8626826 8343356
3933.13 8375936 8279644 8241802 8264718 8294448 8481972
3936.03 8456012 8236476 8087366 8040920 8076304 8094248
3938.92 8444832 9156712 9944116 10907410 11067260 10253600
3941.81 9298220 8716462 8395076 8304654 8299524 8237728
3944.70 8453202 8675980 8785626 9063402 9367536 9462070
3947.60 9383124 9348254 9223452 9189122 9265640 9308958
3950.49 9384102 9556030 9547826 9451882 9684296 9640214
3953.38 9257902 9157564 9275160 9235584 9068874 8878566
3956.27 8898424 8891142 8737678 8744240 8569746 8465954
3959.17 8388810 8371388 8245636 8102956 8094768 8193954
3962.06 8129886 7958432 7848892 7884006 7931550 7758382
3964.95 7560746 7588952 7651652 7588624 7530148 7543622
3967.85 7320780 7314556 7383668 7473692 7419504 7215738
3970.74 7060300 7153446 7152364 7261866 7261942 7059380
3973.63 7034688 7165008 7081796
##END=
