##TITLE=Propylene Oxide
##JCAMP-DX=4.24
##DATA TYPE=INFRARED SPECTRUM
##CLASS=IUPAC A
##ORIGIN=NIST, Anayltical Chemistry Division, 301-975-3108
##OWNER=COPYRIGHT (C) 1998 by the U.S. Secretary of Commerce
##DATE=98/10/1
##$SPECTRA VERSION=1.00
##$UNCERTAINTY IN Y=2.1 % relative (B=1.1E-04,C=9.8E-10,D=2.7E-14)
##CAS NAME=1,2-Epoxypropane
##CAS REGISTRY NO=75-56-9
##MOLFORM=C3 H6 O
##MP=-104.4 C
##BP=34.3 C
##$NIST SOURCE=QUANT-IR
##SPECTROMETER/DATA SYSTEM=IFS66V (Bruker)
##INSTRUMENT PARAMETERS=KBr Beam splitter; MCT Detector; Multipass cell
##STATE=gas
##SAMPLE DESCRIPTION=Propylene Oxide Primary Gas Standard
##PRESSURE=101.3 kPa
##TEMPERATURE=23 C
##SAMPLING PROCEDURE=1 L/min Flow
##RESOLUTION=0.9640
##DATA PROCESSING=Boxcar Apodization
##XUNITS=cm-1
##YUNITS=(micromol/mol)-1m-1 (base 10)
##XFACTOR=1.0
##YFACTOR=2.2737E-13
##DELTAX=0.4820
##FIRSTX=575.169
##LASTX=3975.077
##FIRSTY=-4.86E-07
##MAXX=3974.59
##MINX=575.17
##MAXY=.0003678
##MINY=-1.03E-06
##NPOINTS=7053
##XYDATA=(X++(Y..Y))
575.17-2137622-2281726-3218206-274406-2166966-1664582
577.58-2227924-2996016-449450-1965112-4542028-3055182
580.47-2587616-1754392 133110-1735256-2849560-539284
583.37-2714832-1723648-2343792-2490132-1475178-1157014
586.26-2311486-2419478-593642 263026-2406634-775824
589.15-3159118 252526-2207200-1203672-1851552-1070046
592.04-1893968-158792-1710694-2555866-2482156-865718
594.94-2933252-768834-1870388-1291122-1340344-1426502
597.83-2086372 23284-1421610-937932-1485096-1111832
600.72-2227266-2264442-1526254 281452-761704-1005540
603.61-1377716-487674-1018224-910614-720520-597086
606.51-1563170-757192-1381738-1308230-2032618-811766
609.40-2174186-708866-713192-1434490-696422-1584852
612.29-1187538-427644-537094-728682-1451894-576788
615.18-1664408-254142-1759824-377732-1797436-402858
618.08-2036472-864204-568366-1357582-1711790-1372560
620.97-1936480-79548-1095522-1593278-1470228-1104718
623.86-711420-580006-669758-1214848-1915714-1588158
626.76-1328790-953678-1962786-563534-1358250-305778
629.65-1529680-1345904-2664414-1696788-1543460-1381734
632.54-2118046-862542-1452722-1417154-1316296-1539076
635.43-2156626-1267908-2203484-625936-2388238-1352280
638.33-1507944-1198846-2619298-1196876-2131724-1036860
641.22-1044494-1217196-1436138-1358614-1621808-925018
644.11-1433646-674192-857318-831104-2023700-1209240
647.00-2419028-1407604-2274226-1284036-1591412-721368
649.90-1850194-1067374-1714554-1684424-2082886-1427308
652.79-2228586-1097926-1538798-1165322-1754052-1242522
655.68-1814260-814656-1827584-875770-1467660-630446
658.58-1927280-904032-1708272-1470446-1924598-1393684
661.47-1677554-974698-1518856-1134726-2245854-1182548
664.36-2028250-889378-2414650-871814-1586754-1301210
667.25-2213640-776530-2322268-1249730-1452890-219606
670.15-1534516-1310700-1680356-972448-1042686-853736
673.04-1364746-342502-1630184-746780-2124000-1126364
675.93-1995654-749346-1449452-1241600-1293698-1004316
678.82-1177508-376908-1180654-861908-1489544-731064
681.72-1746612-491548-1747012-951748-1551960-1374700
684.61-1720122-1083838-1004406-792654-1597130 227894
687.50-1502440-846112-1919540-462600-1567544-69408
690.40-1185992-522320-1180508-909860-909420-631804
693.29 150452 864680-1142550-28090-1425668-20490
696.18-325088-175960-643416 530148-1092838 558132
699.07-585646 276558-409736 645572-740534 543430
701.97-426926 538538-309884 897856 521470 842710
704.86-486694 1904640 182090 1548122 396182 1736522
707.75 925244 2345314 1510850 3305622 3379164 2911000
710.64 2122054 2488754 1704832 3110900 2478234 3565024
713.54 2737218 4088162 3149748 4643428 3556308 5120428
716.43 4555732 5788432 5246460 6595966 5746786 6926854
719.32 6636168 8535532 7975126 8904264 8367600 9996368
722.22 9574008 10986320 9751094 12357550 11127940 12990910
725.11 12977690 15132110 14121450 16525750 15969770 18585060
728.00 19271810 21351130 21040950 23363580 23741640 26932030
730.89 25694250 27978290 28271740 32505420 31993610 34012500
733.79 34821440 37408870 38564010 42017480 42908010 47164170
736.68 48353800 52027880 54173100 57179000 58420900 62560920
739.57 63790960 67394100 68221100 72227730 73921510 77831280
742.46 78186740 83440670 83125110 87101500 87875400 90128410
745.36 91097180 93266770 93733780 96418230 96369940 96880820
748.25 99296800 98061420 100625100 98941910 102105600 102953400
751.14 106149100 105298700 107829000 107043300 105374500 110944900
754.04 120656200 126039500 123161900 124575000 142551400 153287000
756.93 156166800 121241700 90235510 104221600 86183650 89629500
759.82 93717090 94419860 103435600 111334000 115972700 122039200
762.71 124906700 131198300 134369500 139240300 142056200 148191700
765.61 151154600 155141400 157413100 161758200 162925300 165845400
768.50 164520900 165834000 163282800 165270400 160795800 160116300
771.39 154736900 153355100 147737900 145424800 139883100 136003400
774.28 128714100 124980100 118143900 114094200 106570600 103383400
777.18 95659260 93760650 86980040 88839870 90464620 79464310
780.07 71698650 71900740 72091450 68022720 63410700 62589340
782.96 55925730 58459290 54348400 55112200 51541760 53402580
785.86 49760320 52324770 48249440 51406880 48798520 51656990
788.75 48859840 52159250 50333080 52405060 51588810 54870320
791.64 53270400 56575590 55777940 59421870 57557610 61701620
794.53 60380180 65668220 64720600 69113390 68356450 73450120
797.43 73222860 78389260 78698860 84624160 85006860 91943630
800.32 91715470 99330630 99167380 108282200 109439300 117678000
803.21 120377200 127924300 132579100 140059700 144231200 155952400
806.10 158292300 171637600 172704100 187079900 190965600 203077000
809.00 211113100 222493500 232002200 244127900 252851100 270474300
811.89 274574900 295862100 301280400 321938800 330138200 347523100
814.78 360296100 377037700 391712100 409057200 420437100 443922900
817.68 449575500 476740000 482531800 506919900 518093100 539891800
820.57 550834300 567906000 576221100 598198000 598500700 625264300
823.46 617226700 643060800 638257700 650383200 651311000 658597800
826.35 655131500 664668000 653532900 661382400 647386800 655967200
829.25 635261700 642970800 620917100 615827400 585475100 565456800
832.14 527402800 530255600 490485500 535924000 530079600 656398300
835.03 672285200 747313500 1043634000 960721000 1347201000 538526800
837.92 433585100 448561500 521994000 547113200 579240100 594690500
840.82 632597700 632926300 657089200 646175200 660769200 647708200
843.71 663249200 654787500 666868400 660038000 667338900 657875800
846.60 664121900 651417100 656845900 639436800 636674900 622169500
849.50 613240400 598171100 582994400 563999200 553409200 525349100
852.39 518097800 488177800 475352200 452746700 431871700 414213900
855.28 395620000 373536200 360347200 335468400 327167300 305150000
858.17 293260800 278108200 261348600 249589700 239573600 223010700
861.07 218154000 201084100 195928400 184013000 176912900 169182200
863.96 161893700 152494400 149572700 138256000 137746400 128646800
866.85 125663400 119681800 115800900 111025900 108109400 101825200
869.74 101631600 94618010 94272290 89326970 87720250 83932590
872.64 81928450 78815360 78274220 73656780 74123280 70051580
875.53 69967080 67288740 66855270 64697940 64369690 61560810
878.42 62098650 59153040 60197720 58085370 57774460 56614100
881.31 56526940 55129960 55609950 53896870 54308470 53361600
884.21 53113360 52898740 52659350 52480710 52228330 51968490
887.10 51743950 51576290 51197250 50600220 49326690 49392840
889.99 46846280 46073100 41911240 43385300 36839160 40608420
892.89 34965270 71706330 80689980 37825120 46226120 49339210
895.78 45791080 30931270 44052040 44753200 44602630 42882220
898.67 48418140 46672400 50778480 47942140 51579720 49021500
901.56 52103380 49324040 52012570 50182130 52772640 50232160
904.46 52564960 49561310 51776750 49513770 51819140 50268540
907.35 52018360 49997710 51455070 50124100 51807950 49811890
910.24 51820460 50207520 51880360 50129630 51496260 49797680
913.13 51186290 49637600 50972200 49447170 51208810 49518020
916.03 51531530 50068770 51646150 50941660 52298010 52131180
918.92 53943180 52481590 55050120 54591540 56430660 57064280
921.81 58905150 58610460 61786030 61384420 64460810 64891340
924.71 66934140 68186820 71124500 71488460 74721060 74937250
927.60 77849660 79324430 82536890 84379740 87615520 87909900
930.49 92283970 93139120 96569330 99573960 101307500 104015700
933.38 108278200 109179000 114168800 116182600 120067000 123435600
936.28 126077200 129934000 133351600 135769200 141392100 142765200
939.17 146799400 149440500 152530400 156193700 158549400 161297000
942.06 164993500 167114300 168288200 174386400 175924200 177270500
944.95 180425100 183703100 183578500 188189600 185512700 193654600
947.85 192753200 196699600 195941800 198996000 198645200 196164600
950.74 196857500 191142600 188909300 180622500 176998400 171151200
953.63 167710900 161748600 165648300 150442500 120209000 124307400
956.53 137381100 157966800 176452600 191265400 185741900 185246500
959.42 195415400 205464500 211459800 214354900 216263100 212617400
962.31 208854300 210753100 211852000 206109000 202773100 199199700
965.20 197687000 193793800 191862100 190637000 187357000 183735000
968.10 180387200 180120700 175389700 171213200 169610500 163051200
970.99 160749500 156959300 152418600 149213500 144413500 141234400
973.88 136868200 132989300 128690000 124804300 122636600 116630100
976.77 116422300 110826100 109070800 105280500 102746700 100300400
979.67 97317720 95550720 93088400 91046600 88674000 85760160
982.56 84664780 81547300 80745900 77976700 77273290 74962780
985.45 74211510 72346160 72202270 69366930 69800710 67784910
988.35 67805110 66776490 66013620 65130260 65483780 64134650
991.24 65015080 64175290 64710960 64036010 64430950 65021040
994.13 65689440 65875400 67267020 67263460 69243540 69467080
997.02 70682750 72409020 73678610 74827310 76547050 77578670
999.92 80832860 81675840 83502360 85683140 87525420 89614110
1002.81 92351620 93797070 96670630 98369060 100632100 102550300
1005.70 104317600 107184600 109802800 110435000 113818600 114281600
1008.59 118520600 117863600 121870500 121950900 125576800 125233500
1011.49 128870600 129358300 132293100 133487700 136102900 138248100
1014.38 140131500 142304800 144062400 145242300 146445600 145307100
1017.27 145007200 140861700 137408400 131973300 125864100 117409100
1020.17 110577100 96693260 96411420 102862700 103842900 114915800
1023.06 125022900 82221160 92676420 103144700 119120900 131176600
1025.95 141507500 148368500 153304100 155323900 156003700 154608800
1028.84 153131300 149718400 147119700 144030700 141100100 137888200
1031.74 135032100 132182200 128980500 126508100 124091600 120857800
1034.63 119700400 115668600 114397900 112445300 108724600 106982100
1037.52 103641900 101408300 99059950 95944900 94417350 90505460
1040.41 89393950 85899700 84003620 81507020 78958860 76609180
1043.31 73884780 72428350 69768210 67739700 65976410 62941400
1046.20 61348000 58445530 57259680 55147000 53292680 51972640
1049.09 49058950 47895380 45576140 44287300 42746490 40451200
1051.99 39871700 37101420 36217620 34415860 33227460 31782570
1054.88 30473100 29389370 27726110 27121520 25523610 24472160
1057.77 23630100 22410380 21751850 20283920 20038210 18697450
1060.66 18353420 17574660 16685170 16265000 15561530 15229510
1063.56 14630690 14513780 14038280 13928680 13940850 13362580
1066.45 13351470 13269980 13131030 12716730 13482150 13022680
1069.34 13597430 13485980 13935190 13959820 14363220 14499350
1072.23 14428480 15599710 15940620 16037450 16798980 17215650
1075.13 17824920 18626960 19301160 19864540 20889580 21887920
1078.02 22209690 22981900 24616250 24942010 25905340 27317260
1080.91 28256600 29589570 30876900 31287270 32611980 33861240
1083.81 34439980 36057220 37883380 38238890 40142610 41552220
1086.70 42284760 43806110 45393840 46702900 48104600 50295180
1089.59 49905050 53261800 53236030 55586640 56555210 58899750
1092.48 59115250 62183780 62199090 64945670 66201150 67924600
1095.38 68605500 70912320 71768730 74935650 75065910 78806550
1098.27 78169380 83165010 80184390 87084300 82752560 89765430
1101.16 85049200 91305540 88664950 94204370 93088960 96194270
1104.05 88043670 87530040 87815020 97239470 104290700 106837700
1106.95 115117900 135745100 117898900 89539620 97380460 102958600
1109.84 118014000 127690400 133253200 137856200 143622400 147389300
1112.73 149540200 148205700 146755900 143726700 144060000 140795500
1115.63 141184500 139535700 139375300 138075700 137305900 134532400
1118.52 135193300 132714000 132725200 130001400 132388200 132497600
1121.41 132208900 130925000 130430100 130841700 131210600 130556700
1124.30 134800500 132586000 134373700 131251400 130806900 126864500
1127.20 127580900 125540600 128183900 125642300 129908200 125337300
1130.09 130546300 126927300 135375300 139984100 187679600 197770000
1132.98 115450300 117426600 107477400 103444200 98903110 100840300
1135.87 99073200 101241800 101885600 103457900 102561000 101298600
1138.77 103492400 106830500 95651380 92067680 87940790 85319140
1141.66 84785190 82186340 80135060 84102340 110680400 146608700
1144.55 115790700 98955580 98391540 78104940 67340830 68545500
1147.45 73181190 77850010 73429290 76235020 74979720 72642180
1150.34 76143350 78312600 68530510 67877660 68550860 68653130
1153.23 68466180 68699150 68788920 69118540 69116680 70049890
1156.12 70545300 72351840 75857770 78667080 81451250 78812540
1159.02 66829130 63855690 62267870 61588200 59889230 58664230
1161.91 56816580 55820390 53658460 52726840 50919940 49837360
1164.80 47200860 45692880 43498110 42747760 40629630 39479960
1167.69 37729130 39558610 38809950 37572240 35591080 34817580
1170.59 33879160 33366550 32335940 31443980 30029410 29562690
1173.48 28124380 27389110 25982290 25194300 23937250 23231810
1176.37 21994230 21528250 20141640 19843170 18723680 18299480
1179.26 16943440 16657270 15827710 15698120 14605150 14405170
1182.16 13741900 13958440 13034470 12924680 12024410 12039890
1185.05 11309810 11564600 10842850 11149160 10042130 10326840
1187.94 9953068 11078180 11116030 10003020 8741890 8983730
1190.84 8649926 8478346 7875582 8081734 7442064 7963636
1193.73 7128100 7274294 6845306 6922636 6438722 7042960
1196.62 6183608 6616608 5885810 6356030 6177674 6723446
1199.51 6164384 6423710 6021448 7069996 7886146 8567504
1202.41 7816106 8523150 5028864 5549146 4904438 5225886
1205.30 4556104 5651500 5510386 7150094 7338180 5959020
1208.19 4948912 5604964 5082516 6148396 5432780 6082130
1211.08 5672788 6411624 5845958 6670072 5955064 6666466
1213.98 6094942 6991408 6324588 7029602 6485900 7256506
1216.87 6630316 7403296 6519988 7582980 6692734 7634806
1219.76 7289402 8315456 8330446 9569892 9461842 13433160
1222.66 10419040 8789100 8615502 9794826 9674872 10660100
1225.55 10403920 11357720 11049610 12603260 12239120 13553290
1228.44 13858550 14945880 15211730 16391010 16312740 18306380
1231.33 18482170 19861230 19699410 21155260 21475060 22974400
1234.23 23363590 25104070 24803340 27237690 26755690 28873390
1237.12 29436970 31059160 31629280 33025720 33841790 35887870
1240.01 35967790 38845910 38578250 40913620 41463990 43501520
1242.90 44463620 46424640 47179980 49975240 49796760 54143520
1245.80 53997650 56727030 57638180 59697140 61070640 64075480
1248.69 66587900 71404140 67408980 70365880 69548710 72421570
1251.58 73485270 75136940 75393290 77589380 77512440 80738500
1254.48 79151230 82202770 80471700 83004600 82446780 85292600
1257.37 84565350 89032390 87674620 89844580 87318440 91180550
1260.26 88543660 93279080 90787120 91780060 83260220 83756410
1263.15 73980320 76218310 63395160 69109770 62771170 163033300
1266.05 170533800 98758430 89844380 61022760 71917290 72338840
1268.94 80426630 78970280 84115080 83505770 88275710 88178530
1271.83 90810830 89630320 91455860 88953720 90628020 87307740
1274.72 88058930 85920380 85310270 84045690 83394550 81721230
1277.62 81134140 79050040 78902900 76180830 75997020 73498260
1280.51 72759350 71059420 69260830 67538900 65976680 64015580
1283.40 62370610 60526080 59012140 57148220 55494790 53909420
1286.30 51870710 50899840 48503490 47710680 45908670 44091410
1289.19 43093910 41137660 39948820 38750840 37192450 36320420
1292.08 34498860 34217120 32374450 31581330 30400170 29300570
1294.97 28477210 27072360 26180990 25569230 24223060 23760520
1297.87 22346570 22114940 20495580 20234470 18925290 18382060
1300.76 17594290 16871710 16142990 15508070 14357690 14334480
1303.65 13214410 13187570 12254850 12518170 11703690 11554160
1306.54 10424860 10266980 9686100 9891550 8899246 9207560
1309.44 8360442 8846988 7733370 8322354 7320086 7976214
1312.33 6960160 7180560 6548892 6901868 6292734 6539096
1315.22 5883078 6348394 5645860 6211076 5312964 5915726
1318.12 5475818 6038354 5025024 5967120 5050914 5901938
1321.01 5071688 6066636 5153618 5633086 4715088 5563376
1323.90 4815132 5890752 5100404 5488474 4854462 5768662
1326.79 5040128 6068580 5146028 6215202 5656618 6598428
1329.69 5907134 7189322 6414682 7704068 6819988 7698098
1332.58 6889734 8378030 7411382 8795538 7872932 9581010
1335.47 8489532 10303650 9264514 10639740 9897514 11320470
1338.36 10925780 12532680 11741370 13515340 12381790 13832400
1341.26 13447330 15004150 14488410 15905690 15320480 17158060
1344.15 16166450 18204610 17323070 19206640 18548660 20532610
1347.04 19883400 21914370 21118590 23628090 22755720 25550270
1349.94 24346390 27075850 27786010 29280990 27409740 29660340
1352.83 28573490 31088810 29524440 33256890 31289520 34146060
1355.72 33553570 35481120 35166680 37544360 36674680 39405700
1358.61 37627580 40715810 38994070 41460200 40156590 42092080
1361.51 40772270 42772260 41324460 45281160 42186960 48335570
1364.40 45687990 46873240 41469300 45019750 42329640 49336740
1367.29 42904770 45494110 43950380 48911870 46975340 61163860
1370.18 68306900 93284330 127520200 208189600 181012900 82157370
1373.08 53148350 43869480 43252100 46383400 48321130 52765700
1375.97 55731260 60840560 62138440 65283910 65504440 68334060
1378.86 68924900 72352040 72426190 76594550 76260400 81240500
1381.76 81006580 85629320 87011760 92940590 93995330 100719100
1384.65 103046000 111904500 114050800 124561600 128779800 142602500
1387.54 146951200 162999900 171415200 180625800 183312800 192566600
1390.43 197523500 212032300 217822400 233696800 240401200 256350500
1393.33 262715800 280067400 285254500 299375000 304463000 318796000
1396.22 320447100 334166100 336493900 349708700 347857800 356226400
1399.11 346706800 345371500 332033700 336046700 321305500 323139200
1402.00 304895200 306462500 286267500 287642100 264514800 270816500
1404.90 248043200 262753200 239320400 258266200 253009500 296837200
1407.79 280831500 345786800 395044900 537294300 549737200 798629200
1410.68 732593500 838691800 743399400 124704200 170302500 111871000
1413.58 169543600 148028700 196493300 189402400 232859900 232824400
1416.47 272168900 276519000 311682700 315876800 346562500 354329000
1419.36 377220900 376111200 397607600 394764200 410277200 405098100
1422.25 415528400 406278500 412409000 400002000 400800900 385634400
1425.15 383062800 366691900 360740700 343348500 337079300 317532700
1428.04 310348000 292239100 281575900 266971600 255968400 240381700
1430.93 238312800 234470900 224153900 204737400 203185900 188136100
1433.82 183056300 177146800 170534100 166056900 162869000 162037700
1436.72 156188000 152756500 149061000 146845000 147972100 141736100
1439.61 146140700 141561400 144122900 143335500 146831500 144568000
1442.50 147201000 144714900 148029400 144381700 144318200 140359200
1445.40 139233000 134292300 130337700 124587800 123999800 118534500
1448.29 111648300 127794700 154507100 107433900 113938200 110272700
1451.18 118916000 119169100 128359500 128899800 135408200 135908600
1454.07 140478100 138598400 138916300 134270000 137084100 137878700
1456.97 129291200 126705900 129020100 126149000 131349900 137424100
1459.86 137736800 158377200 165204300 271235700 228975500 163682500
1462.75 156154000 146190400 143152600 202543900 182914500 133981300
1465.64 139815900 132018800 143035300 141104500 136094500 132350200
1468.54 140068100 134851800 140432100 140021500 146516700 144818900
1471.43 155944900 156283200 162531400 167458000 172482200 162334700
1474.32 156061900 136530400 137276500 136874000 136512300 133305600
1477.21 135957000 132795900 134198400 131955900 131413000 130764700
1480.11 129064300 124431800 126555400 120257900 122108300 117759500
1483.00 117325600 113052100 113278100 110269800 112289100 113110200
1485.89 122663400 138431600 169613300 181472900 175562800 143938800
1488.79 121617400 115863700 110883500 105348800 102883500 92863340
1491.68 91825700 90442260 93505870 92824470 97055210 96114400
1494.57 100798700 99747930 106913700 107139300 105714300 106867300
1497.46 108579800 109187300 112655900 109426500 111298900 109309700
1500.36 109931000 107448400 107543700 105080600 104053100 101425100
1503.25 100661700 97766480 96450270 94469080 98416300 88463460
1506.14 90090070 89934200 83864100 79920380 79553150 75258470
1509.03 74765940 71996030 70795370 68920660 69963160 69049800
1511.93 70818790 65083920 64534440 62367650 63133000 64199640
1514.82 67759140 65114600 65528470 60550130 53604270 48725410
1517.71 49118260 51188920 50629980 44582890 51046650 49693650
1520.61 57003190 55063840 51937440 56223850 56045260 55502800
1523.50 57440620 57979670 59583550 62537280 62593330 60993010
1526.39 62667100 62478540 61980700 61288100 61008330 58350440
1529.28 57706780 55211200 54400720 52001360 51145850 47944020
1532.18 47563980 46613710 46878180 45540760 39850460 36176580
1535.07 34382880 32027480 30246220 27644460 26050040 25142880
1537.96 23408290 28632780 24402900 20559820 24991250 17958050
1540.85 18420390 19445250 21529760 16251370 17275950 14805350
1543.75 15716900 14427290 17533000 13213400 14089690 12223070
1546.64 13309990 11550860 12360120 10869690 11767830 10618770
1549.53 11960820 10078570 10285050 9207412 9645400 8485300
1552.43 9014504 7981796 9615068 12980750 8606972 7882816
1555.32 7894726 7739520 7182056 9533512 9900654 10678080
1558.21 14081270 6152686 9925532 12463700 10202010 5230680
1561.10 7906514 5621008 7835420 5771718 7984938 6077210
1564.00 8369422 7181170 7988434 6388750 8117626 6780610
1566.89 8256602 7137766 8726112 7991158 9725716 10698730
1569.78 9922952 8089750 9590794 8608498 10141480 8877200
1572.67 10395790 8684968 10762700 9061260 11228110 9396084
1575.57 18339080 13537140 10533960 10884780 11034780 10788380
1578.46 11595010 10994970 11453100 10812970 11584880 10684240
1581.35 11535680 10743720 11637580 10719460 11414630 10676750
1584.25 11809100 10558500 11661740 10717250 11718990 10608160
1587.14 11662410 11199600 13106940 13141200 14254060 14109080
1590.03 16322700 14809160 15500730 14619250 11149430 8924342
1592.92 10073210 9265242 10457170 9583014 11546160 11093790
1595.82 12131780 11375540 12660520 11776180 13233650 12609130
1598.71 13943960 13361260 14803460 13890210 15415360 14485600
1601.60 15582170 14725010 15753280 14593130 15353640 13988340
1604.49 14958530 13378860 13980400 12638990 13302110 11783110
1607.39 12099350 10827540 11340030 10121460 10553780 8869844
1610.28 9780636 7856646 8774410 7079228 8106106 6591878
1613.17 7734802 6174010 7667522 5952238 7884064 5502710
1616.07 13177260 10035440 6179438 6615012 6688968 6337800
1618.96 6421324 5992676 6663830 5940974 6779724 5746180
1621.85 6980636 6060800 8548858 8286398 6463038 6484300
1624.74 6541558 6432308 6360464 6542410 6723272 7452516
1627.64 7700808 6286972 7171118 6537012 7172904 6686002
1630.53 7322000 6996816 7799742 7727226 8345692 7836252
1633.42 8239942 8185682 9942952 12386350 14680170 8297664
1636.31 9272110 8465516 9977400 8347580 9506446 8461900
1639.21 9650548 8789966 9793564 8877950 10127540 9200034
1642.10 10371430 8884322 10049950 9217702 9832210 8975506
1644.99 10685460 14625360 11050730 9617446 12415140 10751050
1647.89 13508050 11392990 13021930 11461360 13241130 11755250
1650.78 13819380 10666970 19066700 15446160 19799470 15461210
1653.67 12397480 14941790 11689060 12447530 12213730 12702020
1656.56 12668900 13098900 13040100 13069150 13220080 13423260
1659.46 13318590 13093500 13010370 12951380 13063320 14021950
1662.35 16409260 13322900 13082900 12655150 13097020 12839820
1665.24 12758530 12565620 12445050 12284700 11980860 12794230
1668.13 12116430 13681200 14082330 11995080 13713790 11833750
1671.03 13154670 13708280 15526320 11810370 11416460 11162720
1673.92 10893290 12533910 15623780 11418180 12202730 11203780
1676.81 12168430 11261080 11984230 11119910 11767760 11487690
1679.71 12206460 11617880 11632900 11273790 11613720 11308340
1682.60 13257330 12939030 11997030 16031370 19713260 9727300
1685.49 12106790 9856538 11534900 9674330 11399060 9941570
1688.38 10598130 8982408 10585100 9363608 9996086 8702214
1691.28 9856698 8662812 9854944 8423808 9605708 8183788
1694.17 10093080 8397986 15070270 15924980 8558386 9098168
1697.06 9284626 8510992 9013470 8512040 10560140 13877650
1699.95 12851130 11547710 8857634 8154072 8502614 7985586
1702.85 8508602 7790358 9604456 8728628 8145132 7939770
1705.74 9388902 8622386 7588490 7541144 7302014 6960178
1708.63 5957880 5483720 6655270 7403914 8412338 8122690
1711.53 8824062 9274078 9587706 8760760 9513488 8158260
1714.42 9327522 9657188 7536564 8959252 8071172 15369030
1717.31 10997980 8646368 11329240 8030616 8555670 7818888
1720.20 8270484 7460788 8091256 7268290 7617806 7096638
1723.10 7916844 6393226 7049408 6118504 6416766 5714986
1725.99 6244716 5277762 5779346 5031994 5381838 4641570
1728.88 5253056 5000084 5576612 4217982 5837628 4564906
1731.77 5012872 2650356 8159964 5657436 4827880 8616324
1734.67 3148428 3262786 2652928 2954732 2556394 2936560
1737.56 2824474 2792702 2372828 3711516 4968702 1924600
1740.45 2581118 2087146 2398160 1857900 2648912 2304128
1743.34 2281498 1744018 2059402 1706180 2096678 1528708
1746.24 2097306 1992210 1820142 1651370 2655378 1833226
1749.13 1722644 1328994 1525224 3309668 4446922 935462
1752.02 1777134 931472 1489726 1071738 1393710 1073444
1754.92 1607572 1052708 1665796 2706098 1589760 1239386
1757.81 1720362 1332584 1532370 1371524 1712036 1727386
1760.70 1864414 3667802 3510452 1348626 2447302 1594296
1763.59 2434170 1709944 2503972 1827096 2754030 2031422
1766.49 2942122 1946082 4461710 3981848 2534298 2832350
1769.38 2817520 2800576 3346344 4677008 3409238 3955978
1772.27 8079664 3225466 3616750 3285934 3637958 3429288
1775.16 4323442 3484562 3876532 3436482 3794794 3244220
1778.06 3357688 2883200 3528972 2908270 3931610 3519018
1780.95 3358734 3591708 4153650 4425008 4272852 4217188
1783.84 4247896 5212046 4742050 3677678 4192652 3561696
1786.74 4138120 4015056 3687598 3919580 4119724 3885526
1789.63 4241604 4913166 6052148 4237966 4008094 6876238
1792.52 6509860 4445952 5081122 2863944 3447306 2687046
1795.41 3797490 3090950 3502710 3170872 3452966 3211802
1798.31 3839930 3904086 4866438 3687416 3972720 4025252
1801.20 4169748 3556408 4339128 3148638 3928170 3245934
1804.09 3737712 3210590 3749312 3075642 3620040 2789626
1806.98 3519720 2835132 2933506 2377406 2886692 2175022
1809.88 2959814 2652606 2325184 2029378 2454736 1668934
1812.77 1995194 1349976 1773826 1394526 1742302 1231550
1815.66 1538448 1063148 1253692 1026260 1115974 655138
1818.56 1387634 1006514 1369264 1706772 2433968 1828962
1821.45 1931436 1046898 1336280 913874 1331980 688790
1824.34 1667248 2169958 1321362 911180 1309280 866100
1827.23 1438770 1209516 1663584 1653874 1683322 2629722
1830.13 1620206 1020202 1679072 1225478 1643948 1283090
1833.02 1641138 1084822 1744578 1292654 1845762 1350558
1835.91 1640574 1291232 2004800 1319996 1820824 1417586
1838.80 1973224 1633610 2102842 1656310 2074610 1498714
1841.70 2266110 1345056 2135914 1434754 5138738 2963772
1844.59 1710048 2162712 1903126 1772542 1766994 1810738
1847.48 2012224 1408814 1921224 1620302 2063068 1699474
1850.38 2018866 1833704 2091722 1824980 2249538 1977186
1853.27 2515682 2064734 2614286 2047182 3109160 3050516
1856.16 2449458 2606812 4838734 2358900 1986458 1541842
1859.05 1962356 1547068 2151610 1772816 1979622 1818668
1861.95 2313490 1749348 2313172 1891490 2411274 1946818
1864.84 2548324 2336320 2869502 2651088 2775522 2933654
1867.73 3208084 2444464 4035320 3197730 2575842 2528744
1870.62 2649318 2363924 2666522 2430958 2768854 2581586
1873.52 2740140 2416096 2576750 2362662 2548668 2337818
1876.41 2596244 2330788 2552490 2249664 2460132 2247690
1879.30 2634006 2299028 2711290 2395790 2673588 2297158
1882.20 2806096 2526172 2895246 2792330 3248282 2843804
1885.09 3307218 2881132 3450598 2916660 3403576 3076902
1887.98 3385706 2999836 4179004 3434112 3322448 3279714
1890.87 3531318 3122654 3533450 3441846 3610616 3340168
1893.77 3842188 3551234 4060690 3708204 4070206 4082448
1896.66 4312568 4425290 4311596 3934180 4281036 5420894
1899.55 6094570 3852152 4155392 3945712 4385288 4127970
1902.44 4631876 4475908 4952810 4843528 4918516 4470046
1905.34 4768548 4391720 4704410 4249684 4697970 4350818
1908.23 4659882 4531500 5452424 5161952 5239476 5297338
1911.12 5785730 5356462 5612926 5045450 5208918 4721350
1914.02 4738778 4422142 4546232 4587270 5009180 6056150
1916.91 5159464 5173444 4669702 3565502 4161640 3521234
1919.80 4073804 3553466 3975448 3733910 4243834 3845372
1922.69 4219644 3568972 3933652 3565190 3889226 3427742
1925.59 3357896 3005534 3319022 2875264 3338846 2718814
1928.48 3116394 2740892 3236362 2747610 3135778 2614494
1931.37 3075976 2504524 2928174 2561764 2846258 2461302
1934.26 2859180 2360806 2781106 2447644 2764822 2408132
1937.16 2709518 2408280 2907938 2420192 2792008 2434446
1940.05 2884592 2345066 3031854 2574288 3478370 2880174
1942.94 2994860 2604070 3040878 2730664 3150626 3232528
1945.84 3605824 3455808 3864666 3810762 4138880 3963690
1948.73 4366422 4304126 4607106 4697138 5028276 4910342
1951.62 5373108 5233426 5742374 5573484 6001242 5837514
1954.51 6480096 6202702 6587654 6334888 6585656 6343810
1957.41 6758326 6346954 6578498 6417342 6587436 6329516
1960.30 6678544 6310122 6960750 6197762 6616154 6418780
1963.19 6533558 6051222 6590862 6470896 7080048 7532500
1966.08 8929554 11041710 11797290 13268110 7293026 4633702
1968.98 5456912 4876334 5659746 5375978 6052320 5793470
1971.87 6410552 6238862 7380864 7430598 7886908 7191462
1974.76 7601762 7181282 7776868 7317108 7959162 7732970
1977.66 8553032 8575390 9258324 9402482 9505934 8255486
1980.55 8339888 7601212 7762504 7360168 7555402 7160756
1983.44 7225092 6726804 6977216 6527162 6608606 6182806
1986.33 6293306 5901756 6237320 5767594 5891656 5389920
1989.23 5691186 5345700 5745626 5248562 5618164 5451092
1992.12 5360264 5103956 5278292 4854856 5149312 4634040
1995.01 4909074 4604390 4788340 4557594 4981746 4656240
1997.90 5139692 4955192 5506982 5246372 5552222 5387674
2000.80 6085896 5739744 5094630 4418696 4893024 4861222
2003.69 5542480 5096412 5358812 5209146 5771846 5451668
2006.58 5811926 5632774 5973922 5506478 5773700 5489316
2009.48 6011188 5452480 5780876 5292030 5732898 5314632
2012.37 5605674 5027716 5367890 5169920 5473020 4810876
2015.26 5461192 4948918 5434442 4927228 5249084 5366310
2018.15 5908696 5948708 6157218 5913506 6399142 5026746
2021.05 4791022 4294344 4619924 4445702 4723928 4055030
2023.94 6422794 6526094 5008780 4957668 4839008 4325940
2026.83 4190768 4122534 4292342 4281686 4639964 4839866
2029.72 4838182 4693342 4960250 4868284 4807670 4541744
2032.62 4725516 4285082 4813690 4239592 4391706 3989476
2035.51 4269990 3648108 3853442 3745584 3663010 3436652
2038.40 3621390 3059130 3219346 2888972 2972734 2639786
2041.29 2808938 2555158 2535828 2107342 2276536 1965824
2044.19 2199934 1870710 2402422 1903046 1772750 1766536
2047.08 1941854 1494108 1630882 1330404 1521222 1222638
2049.97 1479458 1115536 1320600 1066736 1244386 909754
2052.87 1266570 1046700 1357306 864850 1035148 913638
2055.76 1111632 939378 1170638 885440 1158132 951870
2058.65 1669020 1153328 1362804 1142478 1343226 1316124
2061.54 1624968 1056480 1177410 1275042 1431450 1142928
2064.44 1678544 1327124 1598392 1713606 1747262 1430464
2067.33 1902640 1740302 1965346 1891594 2060352 1904478
2070.22 2234924 2106802 2358004 2230252 2301994 1961846
2073.11 2421352 2302530 2333600 2255130 2571374 2256250
2076.01 2489076 2164692 2415576 2208054 2476556 2158254
2078.90 2504026 2149124 2398622 2159612 2440374 2158412
2081.79 2396076 2485078 2772290 2866092 3401410 3467956
2084.69 3419788 2085362 2470888 2155270 2452214 2208242
2087.58 2648408 2386184 2814050 2295920 2502504 2115954
2090.47 2655324 2366906 2641872 2526658 2691094 2583604
2093.36 2773640 2553822 2718920 2378030 2899662 2741256
2096.26 3333192 3059584 3194442 3348472 3025286 2348892
2099.15 2424788 2309620 2541088 2202052 2726436 2260002
2102.04 2587896 2492076 2499572 2225486 2517466 2189622
2104.93 2503792 2058308 2435300 2037812 2306876 2039076
2107.83 2276990 1998200 2227574 1911012 2208166 2044336
2110.72 2175076 1761166 2151016 1866952 2253984 1981614
2113.61 2212670 1912514 2176338 1981538 2356702 2306906
2116.51 2207558 1866222 2208954 2023338 2209182 1905566
2119.40 2159426 1902294 2276394 2083854 2496824 2371436
2122.29 2817548 2467264 2718092 2548768 2862414 2457456
2125.18 2441372 2137274 2851946 2529926 2821862 2487064
2128.08 2884304 2764472 3040214 2628056 2728702 2678334
2130.97 3105688 2912086 3231472 3026910 3531992 3367744
2133.86 3669794 3665238 4086328 3958794 4584794 4313624
2136.75 4746546 4676292 5239372 4835568 5299540 5181496
2139.65 5836334 5551450 6189384 6021220 6416106 6426912
2142.54 6874210 6846694 7536836 7503610 7895216 7791184
2145.43 8069326 7786748 8023668 7967772 8362428 8296910
2148.33 8893652 8642514 9065704 8949474 9631928 9474458
2151.22 10117870 9905240 10220320 9587430 9571516 9272610
2154.11 9787028 9562902 9943606 9893616 10372670 9820328
2157.00 10246930 10570610 14426690 11755750 10495870 10695180
2159.90 10670450 10748470 11452380 10670370 11088830 11298960
2162.79 11877960 11389880 12907580 13366270 16083880 14254440
2165.68 14041620 13660640 11601130 9324430 8390148 8691304
2168.57 8477230 8571342 9370854 9645900 10217030 9897832
2171.47 10668750 10865260 11423610 11590610 12047860 12193450
2174.36 12627420 12656740 13074470 12628810 13163620 12667400
2177.25 12888750 12474350 12712020 12194090 12063270 11477330
2180.15 11253140 10467590 10294930 9605326 9539098 8983934
2183.04 8861454 8427648 8419972 8538942 7912346 6972818
2185.93 7227076 7337560 8290228 6680386 8363470 7712234
2188.82 8722040 7450748 9821888 9096400 5935656 5550744
2191.72 5244958 5338578 5537306 5517908 5544518 5611504
2194.61 5684650 5681392 5822954 5874786 5935164 5775384
2197.50 6034844 5739680 6030296 5869394 6041922 5811046
2200.39 6075266 5808736 5983006 5724460 5947074 5595628
2203.29 5876436 5495022 5894950 5772140 6356328 6819360
2206.18 7682042 7403868 9049584 8347500 4991392 5105030
2209.07 4971330 5092318 5225510 5241738 5532752 5773936
2211.97 5745848 6026354 6139856 6196100 6409990 6440096
2214.86 6829868 6864952 7088654 7555696 8076138 7429814
2217.75 7786310 8149510 8404230 7905724 7556814 7633546
2220.64 8060332 7867070 8292354 8374776 8736902 8434582
2223.54 8331234 8239080 8430016 8393546 8761350 8613672
2226.43 9035266 8984846 9226424 8997322 9008920 8936354
2229.32 8914212 8935210 9057712 9219486 9522870 9522038
2232.21 10078570 10100400 10415800 10739440 11231520 11540630
2235.11 11810950 11974450 13000570 13004080 12137400 11010900
2238.00 11156670 11334830 11182540 10936650 11114800 11182120
2240.89 11641820 11823110 12419390 12844910 13118430 13085230
2243.79 14101680 14915590 14829780 13949420 14409490 14356410
2246.68 14939990 15101500 15070430 15324570 15900290 16689140
2249.57 16635760 15330820 15435370 14858570 14965950 14695850
2252.46 14545750 14107970 14126570 13765200 13931440 13712250
2255.36 13388900 13084860 12808370 12908150 13289330 14371260
2258.25 17361240 24435030 18984950 13211410 13277950 12661220
2261.14 13385210 12950580 13454370 13464640 13806010 13714710
2264.03 14698990 14825400 15325120 14881400 15186900 15052190
2266.93 15569510 15366000 15865590 15667230 15990740 15877090
2269.82 16193750 15938850 16178720 15851050 16047110 16023020
2272.71 16282910 16178260 16364200 15860130 15363940 14935440
2275.61 14778360 14116820 13873000 13262510 13255020 12967560
2278.50 12964030 12517660 12933700 12315280 12505460 12274950
2281.39 12504390 12346460 12572660 12517710 12813480 12809260
2284.28 13366080 13451580 13520260 13141130 13913240 13201510
2287.18 14687900 12985040 11184890 10750660 10808430 10288050
2290.07 10560630 10184350 10133660 9886590 10011270 9620520
2292.96 9917632 9462128 9812716 9500522 9461624 9003036
2295.85 9107446 8920802 9236474 9132664 9666438 8884200
2298.75 8526470 8331118 8770178 9292182 10221410 8497786
2301.64 7869856 7654346 8078590 7578272 7469890 7180256
2304.53 7123884 7104992 7412180 7011814 7375184 7480076
2307.43 7632570 7348042 7439494 7153420 7219836 7257658
2310.32 7808584 8326404 8343232 7715104 7600020 7160800
2313.21 7184788 6835302 6784148 6688356 6667816 6501348
2316.10 6525830 6340272 6410598 6126986 6300902 5997306
2319.00 6213966 5925218 5976614 5696094 5705550 5401642
2321.89 5639882 5594010 5803792 5763986 6283430 6489122
2324.78 7659310 5938070 5263498 4866460 4706288 4536812
2327.67 5043120 5078684 4843566 4124304 4315696 4567956
2330.57 4915676 4328750 4719382 4506228 4525998 4315622
2333.46 5181136 5169774 4978658 4839572 5680402 5122200
2336.35 5012496 4888454 4953268 4328908 4571318 4543038
2339.24 4782646 4270530 4745548 4941980 4967298 4440356
2342.14 4280028 4189266 4228966 4325704 4348386 3872602
2345.03 4021550 4032660 3918582 3771766 4024086 3842420
2347.92 3837416 3490662 3711460 3280130 3422886 3097966
2350.82 3450406 3307650 3418012 3293500 3387742 3042080
2353.71 3831064 3666194 3495676 3494406 3544934 3321458
2356.60 3693916 3335158 3261598 3150972 3352868 3135766
2359.49 3548286 3058880 3109624 3238290 2948190 2902382
2362.39 3329296 2719980 2880732 2491100 2434174 2702150
2365.28 2714140 2508508 2839610 2154910 2687214 2275414
2368.17 2426222 2239588 2162584 2258510 2384572 2435062
2371.06 3174102 2983146 3593590 3421390 2384424 2485588
2373.96 2344722 2500548 2298700 2352512 2421466 2403676
2376.85 2453568 2522074 2722090 2653692 2973152 2553484
2379.74 2668554 2333166 2431416 2262206 2390308 2233420
2382.64 2293272 2010422 2144712 2041516 2251306 2090402
2385.53 2158190 2145238 2288222 2109646 2370246 2113694
2388.42 2161710 2180738 2260366 2134934 2309536 2171228
2391.31 2488394 2416890 2733240 2489598 3026834 2470146
2394.21 2428570 2090188 3167692 2889884 2446326 2787080
2397.10 2432128 2505860 2704082 2604198 2541146 2559256
2399.99 2841856 2754546 2684052 2942918 3014992 2894278
2402.88 3058972 2871748 2931830 2931334 2886644 2872658
2405.78 3164474 2977498 2910078 3221524 3133286 3187680
2408.67 3432460 3138286 3111354 3006022 3213356 3109470
2411.56 3138010 3049592 3314184 3093664 3370408 3340446
2414.46 3565520 4167684 4709422 3512446 3552808 3073462
2417.35 3303576 3560760 4045940 3343018 3406198 3363488
2420.24 3424666 3216638 3729578 3659004 4150954 3745666
2423.13 3888846 3303416 3273104 2886652 3237246 3118580
2426.03 3293244 3105092 3155504 3065246 3236608 3044966
2428.92 3307038 3089578 3362114 3186324 3178768 3177310
2431.81 3595688 3076262 3292636 2815084 2813444 2693244
2434.70 2894696 2735718 2902262 2687202 2915632 2724156
2437.60 2889466 2590582 2650438 2720816 2633760 2276168
2440.49 2370642 2473614 2416304 2259242 2181266 2089452
2443.38 2061076 1812354 2163928 1736948 1855446 1919418
2446.28 1924838 1828368 1932432 1899142 1954704 1786940
2449.17 1970826 1752922 1631446 1706870 1785692 1729498
2452.06 1629998 1487816 1721104 1473142 1534036 1447600
2454.95 1609296 1509464 1524064 1408910 1608832 1373058
2457.85 1491008 1330670 1347056 1447134 1574440 1354494
2460.74 1511388 1287676 1404316 1316826 1563322 1170896
2463.63 1383622 1143172 1407422 1302790 1499040 1356626
2466.52 1516844 1449976 1712904 1571728 1715722 1566014
2469.42 1660952 1466858 1616234 1632774 1581274 1400388
2472.31 1669320 1286460 1469430 1507390 1650658 1414258
2475.20 1803232 1671096 1900344 1440592 1683294 1685222
2478.10 1673430 1652534 1491916 1486726 1569176 1219168
2480.99 1598516 1375424 1630078 1467666 1689316 1893984
2483.88 1750072 1550760 1921476 1591744 1852924 1962402
2486.77 2266484 1945830 2229470 1880480 2093408 2214294
2489.67 2200598 2124546 2212644 2211012 2233572 2199392
2492.56 2476164 2126200 2614364 2166428 2611206 2412748
2495.45 2502652 2435274 2605228 2367388 2705732 2429378
2498.34 2766338 2647556 2806834 2772478 2937078 2735192
2501.24 2954034 2951766 3280766 3382970 3881826 4307124
2504.13 4336788 3066286 3186842 2883736 3055674 2963140
2507.02 3259606 3176260 3311822 3276560 3577800 3590220
2509.92 3742562 3276046 3391426 3307220 3134930 3106564
2512.81 3463054 3619956 4605154 5705174 6675956 5324574
2515.70 5556422 4510172 4143002 3439492 3377960 3543876
2518.59 3679864 3691076 4041376 4223696 4078912 3956446
2521.49 4031608 4032818 4452084 4276366 4400556 4219860
2524.38 4403022 4507074 4751374 4601060 4800100 4738152
2527.27 5094146 5201700 5139572 4982822 4989862 4390994
2530.16 4418886 3923314 3839762 3454568 3419784 3691798
2533.06 3859294 3797416 3932896 3727542 3991808 3535016
2535.95 3599652 3374760 3738246 3587474 3875198 3838202
2538.84 4375764 5135652 4713206 3132812 3232422 2734332
2541.74 2923780 2770776 3083960 2438572 2494586 2328648
2544.63 2669746 2435780 2723660 2697348 2870138 2720690
2547.52 2674450 2587798 2684410 2861236 2844822 2710886
2550.41 3250664 2674552 2799604 2917662 2905554 2686664
2553.31 2809314 2617476 2557616 2503306 2552962 2316910
2556.20 2426104 2247200 2340732 1903454 2385884 2140372
2559.09 2190506 2065426 2332798 2160502 2310722 2117498
2561.98 2260896 1975828 2183526 1982592 2134418 2160782
2564.88 2059926 2114564 2413042 2387604 2186966 2112454
2567.77 2535162 2258924 2270512 2030190 2408424 2361586
2570.66 2583448 2342906 2639866 2548054 2522664 2541744
2573.56 2935416 2611100 2655484 2421826 2748270 2628052
2576.45 2825700 2490268 3175206 3063848 3081916 2836078
2579.34 3061170 3239322 3519476 3237760 3542610 3111420
2582.23 3278736 3206650 3607732 3352618 3499240 3553314
2585.13 3907398 3722286 3924062 4035172 4227250 4220348
2588.02 4484240 4340058 4435016 4480214 4686212 4931680
2590.91 5617740 5297658 5285880 4943386 5304988 5224552
2593.80 5349726 5142374 5458756 5254132 5857542 5524318
2596.70 5658178 5691928 6111118 5729404 6008722 5810130
2599.59 6037568 5982780 6086358 6015562 6373686 6412946
2602.48 6488792 6617444 6879296 6440408 6579704 6491072
2605.37 6395306 5958138 6290364 6162042 6565842 6634902
2608.27 6771874 6576112 6646738 6498072 6804886 6517756
2611.16 6862354 6770360 6996062 7176806 7507514 7377812
2614.05 7353920 6828910 7066132 7031684 7167640 7050274
2616.95 7161346 6949956 7048332 6882614 6690938 6570942
2619.84 6671648 6241920 6499950 6467108 6719668 6464764
2622.73 6518786 6445198 6612032 6345574 6540282 6200176
2625.62 6724924 6626790 6651168 6312644 6819406 6414272
2628.52 6215746 5931272 5977658 6114476 6232270 6105196
2631.41 6199884 5889286 5764114 5801000 5944882 5905054
2634.30 5545798 5172666 5558764 6256432 5846024 5471430
2637.19 5497452 4883724 5120608 4814504 5093394 4723390
2640.09 5056374 4826826 4839540 4753970 4999394 4567276
2642.98 4641546 4413556 4717694 4355676 3956280 4073112
2645.87 4137106 3818478 4028756 3817388 4182226 4041058
2648.77 4084770 3965440 4186636 3951070 4195102 3688676
2651.66 4348856 4070776 4317034 3793460 3831794 3781840
2654.55 3879548 3557100 3665436 3414666 3461908 3130742
2657.44 3119650 3084792 3159960 2923502 3195364 2803416
2660.34 2905046 2678282 2698566 2393764 2639990 2174058
2663.23 2547542 2160796 2426572 2159018 2243094 1873286
2666.12 2183466 2022490 2156444 1770826 2034006 1530196
2669.01 1809626 1678978 1630394 1745402 2016730 1910954
2671.91 2178298 4190790 3464350 1415430 1847316 1266052
2674.80 1521502 1158396 1475152 1228616 1487810 974272
2677.69 1319662 1046102 1291564 1220360 1618334 1158688
2680.59 1361170 1027064 1339682 1069030 1007934 931410
2683.48 1272044 921688 1403450 1015944 1123190 952362
2686.37 1149874 879522 898096 947832 1356508 978138
2689.26 1073108 884062 1001846 845444 1003540 980686
2692.16 1169644 667090 1035236 865592 1060510 761892
2695.05 1060016 893972 1237774 877632 1096662 966922
2697.94 1259672 1075294 1228658 902698 1423234 1099692
2700.83 1256288 1222978 1378750 989794 1613582 1489262
2703.73 1617694 1232042 1697308 1605100 2034262 1527350
2706.62 1790670 1631758 2033062 1748578 2164272 2030478
2709.51 2365676 2274200 2696600 2453384 3104234 2847944
2712.41 3005018 3167534 3366410 3398946 3738000 3854086
2715.30 4091252 3875238 4101552 3955412 4057046 4185830
2718.19 4141826 4181014 4423362 4531288 4356422 4492334
2721.08 4646952 4174074 4301586 4259760 4508670 4638090
2723.98 4274154 4182126 4204406 4095440 4398932 4265826
2726.87 4109730 4148328 4438164 4958072 5662048 6498518
2729.76 8106256 10720290 11747180 7545764 7446762 4860286
2732.65 4783808 3898850 4367666 3888290 4657036 4522368
2735.55 5430730 5086138 5422972 5519734 6118334 6205282
2738.44 6726482 6472478 7079314 6883714 7397544 7237664
2741.33 7678700 7386864 7608588 7176586 7408938 7089448
2744.23 7632314 8115838 8697650 8460326 8787846 8233670
2747.12 8419516 7841444 7893624 7791810 8260130 7657840
2750.01 8066674 7685430 7731016 7532096 7926030 7389090
2752.90 7755418 7425574 7796782 7551004 8116312 7924624
2755.80 8335560 8090016 8419398 8456022 9317354 8919662
2758.69 9529516 9413206 9456296 9229102 9743076 9487096
2761.58 10280800 9971608 10325580 10203170 10721800 10417240
2764.47 10958530 10634050 11135120 10977470 11576280 11513440
2767.37 12509370 13443270 15686220 17934890 21020840 21753690
2770.26 25588640 26734140 20052510 19818570 14086390 12749680
2773.15 13075470 13978330 15121420 15121250 15410050 15458160
2776.05 15847200 16265050 16708610 16777900 17526590 17561950
2778.94 18202080 17860110 18833000 18893190 19271890 19295320
2781.83 19744310 19932670 20245790 20426500 20899810 21402040
2784.72 22214360 21868680 22548750 22187210 22648510 22531170
2787.62 22995360 23504850 24258100 24231390 24112210 24154910
2790.51 24286210 24227810 24519510 24264250 24817730 24644520
2793.40 25103500 25054700 25336730 25153040 25363600 24980430
2796.29 25241670 24918450 25403460 24342860 24748690 24214170
2799.19 24047650 23710860 24041390 23490110 23540810 23222870
2802.08 23608810 22786850 23560840 22538270 23433860 22314660
2804.97 22908650 23034450 25815330 26223140 27137250 29639220
2807.87 35765320 36828000 33833280 35952400 47681900 33916560
2810.76 20539310 19906250 18962740 19713560 19737660 20098640
2813.65 20033480 20391690 20431240 20408830 20199120 20292850
2816.54 20102800 19152460 19581210 19499400 19972890 19805760
2819.44 20126090 19876880 20233240 19285460 19437610 19196970
2822.33 19162960 18802120 18880780 19960920 21294810 20459390
2825.22 20149670 19352290 19317700 18438120 18799330 17862320
2828.11 18781890 19702960 20678410 21512500 24647620 23434360
2831.01 19222660 18585340 17796950 17572850 17403950 17654220
2833.90 18183130 18122180 18972290 19083040 19360170 19231890
2836.79 19518190 19439700 20023530 19951060 20609630 21097260
2839.69 21878960 21442000 21569270 21545300 22627730 22541600
2842.58 23128390 22950210 23445190 23437630 23954100 23954450
2845.47 24399950 24511190 24760320 24784650 25551670 25285300
2848.36 26267430 26011490 26308320 26526380 27217110 27479710
2851.26 27284930 27872590 29060710 29863200 31715520 32401220
2854.15 34172880 35426320 36136360 37612650 36092840 33916840
2857.04 34474800 34466450 35642840 36263420 37534410 38688140
2859.93 40092870 41036520 43726590 45699080 47974380 49929130
2862.83 51873220 54746190 57021220 60069280 62037730 66194060
2865.72 68150520 82441370 101110900 84711790 76740060 72213260
2868.61 75426610 74378820 76108680 75464960 77599630 76567580
2871.51 78369870 76731460 77764160 75251200 76280860 75272990
2874.40 75948210 74755230 77129920 76186240 79184140 83802410
2877.29 95713080 108422400 105542200 89568780 83966080 81094840
2880.18 80933550 78343800 79707700 77511120 80987460 81536020
2883.08 85070440 85765360 92249790 93715420 107232900 114880600
2885.97 174658900 151067900 125584100 129635400 112535600 109259200
2888.86 105688400 108848400 108296000 111381300 112614400 116332700
2891.75 119545800 124663000 128811200 131154800 132753000 136489200
2894.65 136847900 139839700 142562800 147515800 149445200 154509700
2897.54 156157600 160483500 162149400 167517500 171351200 176277200
2900.43 181652300 184395100 186091600 188641700 192559600 196353100
2903.32 196055600 196249400 199642900 197880700 197281700 194464400
2906.22 194303800 191524300 191053300 190720300 192501200 192242500
2909.11 191478300 190690600 193641200 195541200 201791500 210958800
2912.00 220856700 224805500 233598300 242179800 252116200 259189500
2914.90 266363700 268927400 279757900 285206300 292297000 293935800
2917.79 290766800 298924300 310522400 313326100 317828200 319986800
2920.68 324691300 327131200 331762600 335180200 340527500 345857100
2923.57 354335000 362526200 369833900 372938300 366387600 363804100
2926.47 369375700 383188500 399549600 430607400 445814500 405111000
2929.36 363693200 358780400 363087900 369082900 370966500 369776200
2932.25 372566000 371960800 375280000 371982100 373590100 371517500
2935.14 371602200 369888100 370639600 371016200 379564400 381706300
2938.04 388561800 392216500 409176000 429984600 470941900 511491500
2940.93 555594100 575821200 468106000 404979600 372287000 364101300
2943.82 357715000 362023800 362762600 368396900 374980500 383465300
2946.72 389114900 398606700 407013800 418554400 429360800 440814900
2949.61 447474300 454448100 458270900 463700600 465428300 468336600
2952.50 468392300 470264500 470251400 471116600 470925200 472194800
2955.39 471796400 472700900 473403100 473001300 472360500 475468400
2958.29 474550800 474777500 473790200 476227500 477887800 479037200
2961.18 480878200 485062200 493514300 496158900 501853400 505666800
2964.07 513411000 518048400 527105900 535419700 545650300 559107100
2966.96 566891200 580601000 591045100 600030100 608048600 612924400
2969.86 615158100 613632300 609590100 601072300 591785900 578308700
2972.75 562782200 552636700 548879600 560576500 570768900 579422700
2975.64 604065000 632553700 664670000 692714900 714991000 735076100
2978.54 747504800 761207300 773541300 788641300 797848200 807591100
2981.43 817782600 829071600 844090600 875346200 882338600 866551600
2984.32 862146600 859463800 862863500 861388000 864780700 866369500
2987.21 875729300 875869300 879843600 879745500 884452000 886276000
2990.11 893058200 897007000 904987500 909646500 926929000 938256900
2993.00 955199600 954418900 942677800 936953300 947717600 922221000
2995.89 872842900 851677400 856659800 885578000 932953300 997509700
2998.78 1117710000 1271062000 1459801000 1609702000 1617871000 1376279000
3001.68 1059500000 914924000 871963300 826813800 756996500 757753700
3004.57 757872400 759086600 766926600 774164300 777211700 778525100
3007.46 780224400 777315400 774084800 769817700 761180700 751679500
3010.36 745899300 739329900 732869200 722492600 718407600 718052400
3013.25 717165500 719349800 720625900 716263600 713834600 705890200
3016.14 699421000 690449000 681135400 671623500 664295100 656704400
3019.03 647198500 642427600 634819400 628834200 623374100 614937000
3021.93 610762800 602907500 599036000 594343700 589482300 585470500
3024.82 579539800 574689300 570753400 566558800 564034800 560096600
3027.71 558926100 554869100 552202000 548188200 545636700 542854800
3030.60 541307300 537667900 536531100 533154500 533464900 531052200
3033.50 531995600 529543600 530063500 529846800 532039400 530802800
3036.39 534359700 536524300 537850700 535537600 524239000 510639700
3039.28 506389700 498130000 494984900 481738400 475852100 461884600
3042.18 451547500 439010300 425840300 416055900 404486300 386608700
3045.07 382473600 378006300 389943600 397302600 433571700 462916200
3047.96 545991900 706932400 1071284000 1480605000 1605199000 1219373000
3050.85 433278200 298462500 258527400 269512300 274638500 298095800
3053.75 309563600 334244400 345513600 366993600 373894500 388010700
3056.64 392750900 400944400 401746900 407016400 405760900 409185600
3059.53 405832700 407253600 400983900 399858200 394547600 391089000
3062.42 382514800 377105600 369324800 362579800 351804300 345477800
3065.32 335206800 328041100 317070700 309919100 298730800 292157500
3068.21 281092400 274011200 263962700 256202800 245664900 239151500
3071.10 229059000 223538800 213956600 207496000 198654300 192408300
3074.00 184191000 178423000 171170600 166211400 158500300 153281600
3076.89 145474400 141289100 134806600 130174900 123873900 119544100
3079.78 113888600 111271800 106412100 102618900 97223950 93396570
3082.67 88299610 84767180 80434930 77292610 72572220 70761780
3085.57 66231020 64573020 59759230 58305670 54264800 52779330
3088.46 49132690 47300120 44479040 43135980 39944880 38697480
3091.35 35555170 34727120 32492210 31397100 29556000 28935100
3094.24 26473630 25979840 23814290 23866210 22164900 21544760
3097.14 20146440 19911510 18286940 18190590 16978540 16794640
3100.03 16043890 15841110 14545760 14530740 13270890 13380820
3102.92 12735190 12851950 11692930 12046450 10993760 11397550
3105.82 10655880 10855890 9713888 10223380 9356120 10217680
3108.71 9081256 9773096 9167598 9344616 8642242 8818022
3111.60 8342742 9000556 8002702 8935988 8272034 8540216
3114.49 7996536 8754166 8052470 8503054 7991280 8671498
3117.39 8137708 8766836 8393854 8708820 8245018 8473066
3120.28 8230052 8769774 8360432 8825328 8108964 8603328
3123.17 8056534 8698374 8369810 8923774 8059246 8780088
3126.06 8463354 8799238 8555578 8789316 8803478 9181206
3128.96 8519702 9383824 8865322 9419472 9000498 9217556
3131.85 8877538 9446388 9332404 9424018 9103478 9970966
3134.74 9681308 9981144 9801206 10231050 9933762 9965854
3137.64 9908284 10222840 9764950 10439530 9791232 10559710
3140.53 10369410 10766610 10162740 11071570 10715300 11434730
3143.42 11528540 12456250 13074690 13841830 13979250 13621040
3146.31 12411200 12104520 11545850 11938270 11394630 11832510
3149.21 11672220 12383850 11995420 12477250 12314760 12878690
3152.10 12693470 12891960 13037170 13509540 12889470 13561680
3154.99 13731010 13665640 13480250 14331300 13989980 14695080
3157.88 14892060 15635400 15592080 16096870 16141220 17017800
3160.78 16840080 17449380 17689080 18195360 18388830 17777110
3163.67 16157380 15576850 14787170 15375470 14667300 14747550
3166.56 14546730 14736910 14156600 14509150 14526240 14462860
3169.46 14113460 14101490 13746410 14318170 14157040 14171180
3172.35 14392920 15085820 16243620 18625580 24500320 26471490
3175.24 19631070 16555440 15180900 14394820 13983910 14096780
3178.13 13749040 13569870 12627150 12641620 12481550 12735020
3181.03 12146670 12172710 11950890 12647750 12096530 12555270
3183.92 11853720 12333360 11621070 11712000 11462520 11905330
3186.81 11450250 11520940 11061850 11207620 10428410 10899260
3189.70 10282900 10760830 10099610 9901308 9557470 9600774
3192.60 8929962 9122638 8495108 8325396 7977828 8321786
3195.49 7585384 7496034 7143486 7402518 6937086 6829000
3198.38 6227950 6384874 6029726 5774216 5572772 5395564
3201.27 5291434 4935996 4458018 4647726 4167958 4508228
3204.17 3911884 4125280 3704756 3810930 3786326 3687530
3207.06 3426330 3372418 3157406 3344350 2962322 2891534
3209.95 2748558 2531840 2535526 2871244 2224896 2652506
3212.85 1774866 2339204 1933350 2148730 1638992 2142216
3215.74 1834994 1802934 1380348 1458526 1883524 1400786
3218.63 1302332 1505428 1361204 2055310 926500 1543166
3221.52 969568 1277344 1200542 1267146 887694 1071324
3224.42 1169266 1524596 952164 1337492 750636 1196984
3227.31 864304 1044284 759698 1108600 1290188 1168550
3230.20 705872 1145930 667182 1305996 359590 803274
3233.09 883168 646976 596158 857390 919496 579490
3235.99 700484 1151212 794642 832478 481444 775664
3238.88 762116 799752 615934 727122 512662 632476
3241.77 519704 521032 566114 1033212 614752 536738
3244.67 535052 827460 666566 1008874 330822 1048884
3247.56 717832 531714 473570 1160438 949750 826442
3250.45 735636 555540 612726 994416 550642 1012084
3253.34 777842 1023568 421614 1021302 444712 773108
3256.24 760258 717510 727624 1003700 603046 397492
3259.13 976732 1104620 300446 916930 848474 833316
3262.02 658354 630174 813222 821292 548896 772140
3264.91 762088 974574 559910 1120518 994898 1106714
3267.81 267078 955544 668980 778008 838338 585508
3270.70 514040 981242 426984 798064 559548 897548
3273.59 622490 628002 345442 796676 862402 971276
3276.49 987362 991992 995926 1112692 1129628 986150
3279.38 1022010 870018 599542 1496610 1256586 845704
3282.27 501186 987206 986660 956264 1158378 1003894
3285.16 693238 1173138 952302 993558 597974 1095298
3288.06 910964 1002540 1110460 1128426 991210 1222256
3290.95 826598 1302024 1056772 1717150 883838 1630428
3293.84 992708 1021144 717556 1385678 1167480 1230116
3296.73 1015254 1261700 1092982 1378792 1116726 953696
3299.63 978596 1112646 870144 1261502 755314 971602
3302.52 874870 1232010 1120160 862574 1127010 1274898
3305.41 1205338 723984 1089722 1275318 1136360 1164274
3308.31 1244082 1206544 1301218 1590682 838164 1735516
3311.20 1194142 1340574 992852 1570994 1552694 1558844
3314.09 1418494 1820634 1086540 1905464 1742746 2089048
3316.98 2186336 2177914 1729766 2313222 2244008 2201406
3319.88 2677576 2316606 2319514 2580164 2604646 3062324
3322.77 3214200 3232834 3109316 3761818 3292548 3246356
3325.66 3620230 3586852 3549088 4305940 4201360 4442886
3328.55 3802628 4186968 4330972 4277780 4273036 4219748
3331.45 4524296 4256552 4249096 3832758 4004970 4221450
3334.34 4255174 4190872 4406498 4014854 4215492 4087254
3337.23 3768820 4361188 4250320 4959712 5674194 6185170
3340.13 6978396 7512690 7140472 6309790 4779144 3959980
3343.02 4199648 3861506 3632970 4121182 3881044 4116750
3345.91 4142508 4231648 4042396 4421182 4485188 4872784
3348.80 4701360 4992884 5245336 5431716 5095828 5265038
3351.70 4953194 6049872 5701144 5508508 5570264 5746398
3354.59 5302156 5163120 5236602 5429496 4872146 5025676
3357.48 4812100 5316230 4896258 4728272 4385958 4830132
3360.37 4346544 5079020 4475638 4558532 4198946 4303292
3363.27 3870698 3732964 4036792 4390790 3706778 3875872
3366.16 3801862 3684554 3605828 3607054 3793244 3632582
3369.05 3467708 3952132 3722410 3632488 3698290 3805176
3371.95 3846314 3794518 3746550 4057770 4212392 3772470
3374.84 3767838 3940378 3836714 3849916 3825580 3765726
3377.73 3740724 3548322 3429514 3961252 4020504 4000884
3380.62 3532706 3695232 3651314 3921588 3285142 3759010
3383.52 4105524 4826742 4226632 4560268 4643904 4895278
3386.41 4187830 4371440 4430348 3794838 4042042 3890418
3389.30 3838192 3876004 3603326 3556338 3286756 3906104
3392.19 3895604 4212430 4038500 4723372 4594958 5029058
3395.09 4581204 4802496 3929274 4451706 3894454 4028298
3397.98 4169334 4170030 3805238 4243974 4186948 4305518
3400.87 4279122 4375546 4111558 4469346 4249616 4259710
3403.77 3915698 3936808 3504800 3775132 3581690 3936496
3406.66 3587890 3650262 3002172 4037446 3664956 4043540
3409.55 4021260 4130834 4057984 3826864 3310622 3759326
3412.44 3340492 3263680 2860580 3622266 3114498 3351416
3415.34 3552754 3903250 3317316 3368200 2792304 2945786
3418.23 2761514 2773234 2296568 2432002 2463650 2741008
3421.12 2588448 2616260 2266824 2694050 1939160 2967148
3424.01 2181224 2613374 2734322 2474578 2348028 2712674
3426.91 2099764 2820446 2245750 2207292 2301542 2385736
3429.80 2506128 2519636 2495838 1653284 1941250 2160296
3432.69 1944004 1861396 1896994 1837860 1902514 1944962
3435.59 2125194 2013248 1925718 1599694 1554156 2009218
3438.48 1497484 1616864 1632746 1685704 1518500 1825650
3441.37 1585898 1505212 1872534 2113292 1771118 1874050
3444.26 1507782 1797192 1430942 2007792 1325884 2435982
3447.16 1825084 1707474 1294634 1936594 1561148 1416290
3450.05 1779736 1696496 1548538 1676306 1591738 1543930
3452.94 1432034 1338900 1266156 1637506 1116264 1221842
3455.83 1037010 1013128 922982 1292842 1326722 1186162
3458.73 1115510 2305644 1879928 2486902 2284196 1927712
3461.62 1901442 1846704 1482518 1504954 1546658 1652258
3464.51 780962 1381096 836082 992024 1276968 1668566
3467.40 992324 1319432 909490 1701478 1271304 1583482
3470.30 1343894 1369454 1308960 917214 1034156 1207842
3473.19 1163534 829116 1215956 1186506 1339308 1042220
3476.08 921676 1004800 1578476 1011134 953634 1196480
3478.98 789202 1322540 747072 823484 503188 952452
3481.87 1128206 991668 693198 744970 761310 658950
3484.76 258066 681378 383596 538458 377426 842946
3487.65 469452 817326 470118 742174 409042 477532
3490.55 749762 536692 292298 388096 584752 563476
3493.44 38376 420184 948422 633712 813122 1031084
3496.33 539564 777810 333862 663742 403034 657368
3499.22 331108 513184 392200 530058 691558 577584
3502.12 738596 999918 602332 295434 235958 458904
3505.01-70720 382116 712542 442534 520110 390232
3507.90 555488 1139790 859730 808078 322500 487046
3510.80 734430 339726 156170 1088200 803280 387078
3513.69 228160 911084 430968 669646 552604 1017418
3516.58 637572 796738 354392 531854 562054 570720
3519.47 716740 706074 420852 920082 694618 519266
3522.37 409110 1144906 1027586 1005186 388870 958400
3525.26 815214 679726 947332 1072494 47286 756552
3528.15 688470 1181820 487740 745266 372600 778496
3531.04 1087972 596650 452898 996490 452820 779960
3533.94 693160 941138 439842 546992 695830 849150
3536.83 618364 904664 699844 1138840 333448 1099124
3539.72 647118 1005870 1033664 875196 428012 779860
3542.62 161050 929652 726340 718930 891206 966876
3545.51 288190 613126 1047504 350400 259312 1247210
3548.40 422392 880364 464338 837930 830564 1094074
3551.29 627266 1290224 541926 744094 817680 744022
3554.19 562110 761598 466320 860180 619774 1039762
3557.08 711278 761002 845268 694750 879808 625606
3559.97 562202 1057820 642734 762732 572342 573780
3562.86 616180 592826 1003092 967568 636860 1352264
3565.76 1018162 1775530 1032536 1050848 1848596 798822
3568.65 526212 171778 863588 582748 781856 960036
3571.54 745988 700800 412044 665576 541870 880680
3574.44 602478 605540 641950 871222 515686 789376
3577.33 540272 525784 745962 867808 946466 1051150
3580.22 459198 1044930 650344 719838 477684 764692
3583.11 969496 586244 739072 633340 1205522 359796
3586.01 1981644 1443592 885160 681632 1337482 2359130
3588.90-50834 632654 440204 813612 676858 743726
3591.79 1045594 712998 806326 923974 833024 822056
3594.68 1178246 1379762 796790 1045416 638020 809370
3597.58 789256 961570 706554 745048 632360 818696
3600.47 1027006 734060 872060 1013478 673114 1044410
3603.36 439082 620350 646482 729370 820450 943456
3606.26 1006982 1650776 843912 914342 497128 3712526
3609.15 1680006 630324 861580 851024 891550 1174218
3612.04 2428190 1480448 685096 979328 1240592 1056622
3614.93 999242 724984 882704 554140 1335488 1892112
3617.83 990078 1124162 1737040 3417046 529736 1065304
3620.72 828878 1053666 321050 1069092 871796 1359712
3623.61 869774 1432924 871834 1097772 1129708 1168276
3626.50 394200 911448 1883014 4700420 353222 4719228
3629.40 3438494 652108 1307330 826694 1172662 1000722
3632.29 1107672 1012844 1868864 1247456 1127634 1305440
3635.18 1200350 1001274 960246 1316180 1061982 1739904
3638.08 1258060 1243924 1265588 1239948 1255954 1476826
3640.97 948724 1302552 1200888 1176518 1280212 1445954
3643.86 1204512 1423360 1431066 1698760 1730648 1989380
3646.75 3258004 2506620 1591092 1393440 5941742 3561588
3649.65 1340648 3426480 2638006 3033292 1098612 2081990
3652.54 1538348 1973000 1739194 2106698 1537840 1640314
3655.43 3016192 5211720 1512812 2265042 1830908 2035268
3658.32 1990480 2312396 1741588 2131162 2084922 2398362
3661.22 2286796 2602022 1713692 2597660 2207442 2633810
3664.11 2075182 2459874 2260818 2636210 2298400 2613332
3667.00 2616724 2436010 3639846 4583216 2767796 3010004
3669.90 4773918 8728456 2341748 3485794 2119354 3369422
3672.79 2574588 3626546 2472136 6079118 4313814 5370266
3675.68 7906680 2919670 3492112 3406340 3035320 3286698
3678.57 3659738 4127378 3010328 3682616 3120516 3449624
3681.47 3147394 3211944 3175464 3207890 3115524 3662080
3684.36 2911246 3786964 3089246 4030870 3079608 4275616
3687.25 2616024 8460608 8148876 3297346 4207832 3784882
3690.14 3752760 4964840 4950176 3475742 3640880 3368784
3693.04 3510266 3508692 3485158 3287310 3675718 3578062
3695.93 3659068 3909218 3668742 3877842 3764404 3595206
3698.82 3512526 3660070 3507144 3611436 3629648 5052864
3701.72 4143902 3537172 3612448 3525828 3738252 3512834
3704.61 3727034 3656272 3658970 3972866 3708744 3635786
3707.50 3909150 3713028 4329112 5938714 3894264 3563912
3710.39 4508890 3672580 5885046 8278214 4029468 4355850
3713.29 3902260 4241206 4326158 4444836 3754764 4847726
3716.18 4005978 4577622 4432374 4788768 4583774 5030766
3719.07 4474230 4938214 4080370 4981244 4283516 5751700
3721.96 5768676 5232842 4931662 4860526 5029414 5509968
3724.86 5474130 4681680 6060350 6760698 4994880 6022304
3727.75 5458314 6085528 5501766 6347990 5785648 6284376
3730.64 5872882 6644784 9761300 7850532 6144916 6828612
3733.54 6374116 8043322 8269358 8618338 6528576 9672306
3736.43 9844048 7027590 7594162 8030256 7849496 7655104
3739.32 7652648 7682598 8033976 8590584 7442604 7640308
3742.21 7838346 8030934 9162524 11727300 17069540 11088020
3745.11 8058252 8509142 8335840 9001782 8678104 9410936
3748.00 8825850 11379880 15506980 10185620 8781568 9840618
3750.89 9044794 12495050 16616770 9985542 10558750 9970842
3753.78 10251620 10306500 10678320 10450290 11257320 12299070
3756.68 11156500 11083660 10773570 10320720 10396610 11257720
3759.57 11030030 9458392 9635716 9304432 9851506 9695498
3762.46 9952710 9548436 9008522 9245472 9519856 9697954
3765.35 10468510 9248880 9679892 9156096 9176054 9000884
3768.25 9157632 9086512 11061200 10782020 8925178 9204640
3771.14 9029448 9336104 8449138 8797426 8784582 9063822
3774.03 8751238 9053334 8582312 8740198 8936758 8683532
3776.93 8312212 8409920 8802740 8372664 9334044 9618574
3779.82 7679932 8002474 7762578 8053192 7659894 7975962
3782.71 7872300 7545750 7422208 8069318 7623876 8146390
3785.60 7435938 7716128 7554932 7582108 6951204 7392684
3788.50 7197474 7172214 6917656 7581754 7456808 7126932
3791.39 7163958 7567924 7058818 7459440 6925644 7234228
3794.28 7000956 7456170 6930008 8470396 7875992 7141284
3797.17 7023790 7361924 6999860 7300764 6514578 7674246
3800.07 6990186 9778674 13523270 6807316 7373202 7821834
3802.96 7629470 7792504 7865326 8492690 8450814 9682586
3805.85 9123278 13342540 12392280 7725056 7855210 7118352
3808.75 7228604 6241006 6369712 6167056 6511846 6501478
3811.64 6519682 6927278 7265534 7014992 7297678 7237366
3814.53 7614356 7359904 14346810 10970820 7712904 8886772
3817.42 8136170 8947896 8155330 8286698 7933784 8977852
3820.32 9937958 8234144 10409070 7959198 7467318 7844544
3823.21 7126364 7440882 7519228 7027336 7109680 7182032
3826.10 7840782 7673646 6871718 7464434 6869218 7130330
3828.99 6716178 7067224 6794632 6984156 8184464 8767140
3831.89 6055226 7592806 6117008 7716550 6424790 9518790
3834.78 8059882 7517548 7070264 7971010 5884610 12410470
3837.67 10780610 5706116 7257306 6667820 7184950 6349922
3840.57 7688194 5969144 6181986 5841908 5732582 6729300
3843.46 7312016 5886322 5984064 5377600 5821744 5937734
3846.35 6175202 5507938 5552328 5650388 6060006 5621614
3849.24 6210272 5761294 6023848 5778370 7727770 11914650
3852.14 5976102 6542286 7343422 14206270 11351310 5905922
3855.03 6111614 6012638 5657044 6414524 6448792 5437346
3857.92 5683624 5566774 5668762 5149564 5736900 5764426
3860.81 5484738 7114848 5863524 5469118 5681048 5720500
3863.71 6202864 6707206 8482650 6326552 6207872 6035174
3866.60 6367292 5687608 6546662 6038466 7766860 6688522
3869.49 9456218 8059736 5294486 7063210 5738914 6862482
3872.39 5908048 6887130 6938942 7992476 6855502 6579984
3875.28 6208814 6380554 6400914 6597142 6650070 6611748
3878.17 6427676 6258450 6533308 8496828 7416446 7416882
3881.06 6971668 6731492 6970492 6774876 7256826 7135084
3883.96 7346576 7143882 8839272 9943856 7108584 7095960
3886.85 7286214 7376594 7297834 7156714 7056838 6914082
3889.74 7342020 7503410 9551160 8773000 7421458 7751698
3892.63 7356460 7848104 7585922 7743830 6766922 6882860
3895.53 6603312 7586246 6961090 7450180 7595588 8043536
3898.42 7875796 9710042 7581640 7389920 7131358 7546984
3901.31 9125352 7513460 7099006 6943582 7083484 9363450
3904.21 7131800 7020888 6817244 7293274 6877058 6666142
3907.10 6613978 6933926 7011006 6709374 7120232 7035636
3909.99 7044514 7179668 6620924 7433800 6975310 7029854
3912.88 6680670 7414516 6718420 7125762 6926208 7070716
3915.78 7178106 6863470 7994352 7243394 6715112 7522030
3918.67 7076544 7397410 7891818 7386278 6944538 7099680
3921.56 7326840 7161104 7180530 7515812 7597426 7726258
3924.45 8177358 8302674 7429476 8026278 7550318 8211940
3927.35 8001588 8045370 7756092 8418524 8293532 7959152
3930.24 8164594 8378372 8281144 9110514 8636752 8119958
3933.13 8571478 8175442 8231062 8333238 8138420 8619888
3936.03 8503570 8181106 8098640 7967310 8155042 8001484
3938.92 8250024 9342946 9628676 11281650 11312520 10280290
3941.81 9132380 8703300 8331284 8235774 8438822 8038100
3944.70 8502654 8752870 8669806 9088758 9397810 9575622
3947.60 9261254 9475114 9139114 9168664 9286896 9312988
3950.49 9321612 9601096 9685230 9173800 9867704 9766638
3953.38 9117578 9076760 9386194 9214354 9134530 8770124
3956.27 8875764 9079616 8466552 9028646 8358022 8605076
3959.17 8249140 8498574 8196742 8106818 8000176 8303528
3962.06 8131946 7951424 7801286 7857490 8028632 7778962
3964.95 7440100 7624170 7655602 7669888 7331964 7853034
3967.85 7033002 7460298 7255922 7605226 7384426 7315642
3970.74 6813854 7380252 6963594 7365128 7319098 7025298
3973.63 6879250 7406918 6886056
##END=
