##TITLE=Propylene Oxide
##JCAMP-DX=4.24
##DATA TYPE=INFRARED SPECTRUM
##CLASS=IUPAC A
##ORIGIN=NIST, Anayltical Chemistry Division, 301-975-3108
##OWNER=COPYRIGHT (C) 1998 by the U.S. Secretary of Commerce
##DATE=98/10/1
##$SPECTRA VERSION=1.00
##$UNCERTAINTY IN Y=2.1 % relative (B=1.1E-04,C=9.8E-10,D=2.7E-14)
##CAS NAME=1,2-Epoxypropane
##CAS REGISTRY NO=75-56-9
##MOLFORM=C3 H6 O
##MP=-104.4 C
##BP=34.3 C
##$NIST SOURCE=QUANT-IR
##SPECTROMETER/DATA SYSTEM=IFS66V (Bruker)
##INSTRUMENT PARAMETERS=KBr Beam splitter; MCT Detector; Multipass cell
##STATE=gas
##SAMPLE DESCRIPTION=Propylene Oxide Primary Gas Standard
##PRESSURE=101.3 kPa
##TEMPERATURE=23 C
##SAMPLING PROCEDURE=1 L/min Flow
##RESOLUTION=1.9290
##DATA PROCESSING=Happ Genzel Apodization
##XUNITS=cm-1
##YUNITS=(micromol/mol)-1m-1 (base 10)
##XFACTOR=1.0
##YFACTOR=2.2737E-13
##DELTAX=0.9645
##FIRSTX=574.687
##LASTX=3974.595
##FIRSTY=-3.52E-07
##MAXX=3973.63
##MINX=574.69
##MAXY=.0003369
##MINY=-6.38E-07
##NPOINTS=3527
##XYDATA=(X++(Y..Y))
574.69-1548846-1924710-1833320-1912782-2002312-2488296
579.51-2809874-1805222-1474226-1843162-2046948-2013250
585.29-1776096-1527404-1103560-1478238-1448800-1488724
591.08-1359264-1406208-1852236-1940002-1603528-1483998
596.86-1356502-1145022-1125100-1599308-1572242-940818
602.65-814824-946822-816896-951438-1127140-1427256
608.44-1413176-1193706-1036868-1115468-799028-862496
614.22-995692-1056096-1049776-1187084-1090054-1269752
620.01-1361004-1153486-1186374-1100908-807000-1228394
625.79-1448394-1352652-1087020-1103158-1577168-1833172
631.58-1573086-1449508-1369398-1624054-1635692-1617204
637.36-1551306-1688202-1674974-1404356-1237134-1384208
643.15-1197690-1023388-1162954-1683612-1780736-1600440
648.93-1310942-1488374-1670248-1781820-1508330-1460326
654.72-1418126-1390960-1211074-1256252-1358926-1597742
660.50-1516810-1411480-1463700-1641326-1538604-1525568
666.29-1489132-1623244-1362564-1166256-1237110-1230760
672.08-976158-1063564-1264838-1509916-1302058-1269524
677.86-1043612-952664-1000528-1187612-1151902-1338410
683.65-1370512-1272016-943380-934582-1065990-1117068
689.43-792396-890662-824568-453042-90934-520718
695.22-426256-322224-176668-201734-17838-58366
701.00 47176 100142 463012 511182 791908 932926
706.79 1296282 1825408 2704950 2719994 2424132 2559964
712.57 3121054 3484296 4045938 4578024 5386290 5954840
718.36 6774686 7718050 8662810 9420682 10416030 11317800
724.14 12732460 14203730 15975360 18130380 20698230 23014040
729.93 25577070 27884240 31025760 33875030 37283300 41433960
735.71 46458520 51590440 56804890 61722970 66763810 71679100
741.50 76975770 81785820 86236340 89704070 92885030 95380390
747.29 97459250 98874860 100651100 103315200 105893100 107454200
753.07 113408700 122120400 132724400 141724200 123516300 98615130
758.86 92387810 97909120 109908500 120843400 130384100 138703100
764.64 147249800 154461300 160666000 164009800 164818400 162879000
770.43 158750800 152002400 144451800 134767300 124341900 113105000
776.21 102556300 93411580 88053130 80288580 72741470 67349410
782.00 61583960 56931580 54287110 52044180 50844740 50039280
787.78 50401590 50771580 52055160 53481630 55803040 57859410
793.57 60732780 63936210 68075470 72101540 77505940 83248420
799.35 90337850 97509130 106598000 116278400 127601300 139544900
805.14 153830200 168470300 184865700 202329000 222494900 243629500
810.93 267357200 291949100 319083300 346656700 377018000 407560100
816.71 439620000 470989600 504239100 536002800 566035500 591868300
822.50 615860500 633645400 647648100 654797800 658681700 654828100
828.28 648195500 632623900 606328100 561732900 527887100 539911600
834.07 635401800 822821500 966765200 746858400 514150400 540612400
839.85 597703200 635591900 649669200 656420800 658858400 663252100
845.64 660460200 655449500 641502700 623032400 596340900 565903900
851.42 529943900 492802800 452654600 414299700 375812300 340850200
857.21 307779000 278160300 250270100 226700500 204430100 185920600
862.99 169021400 154710700 141266900 130518400 120152700 111726800
868.78 103380300 96698660 89997670 84681620 79311330 75271520
874.57 70993420 68095340 64936340 62673170 60125050 58678680
880.35 56753100 55796130 54326740 53742260 52744440 52625840
886.14 51810660 51601220 50167540 48601700 45046130 41526590
891.92 43600080 56402340 54409090 45354490 41551200 42921590
897.71 45377130 47779270 49461840 50352230 50725250 51234680
903.49 51276620 50992520 50731080 51003710 50868130 50895000
909.28 50834800 51014730 50818010 50645250 50318550 50365820
915.06 50442920 50924580 51486660 52591530 53630220 55297120
920.85 57250830 59674280 62272760 65364610 68591320 72237080
926.63 75700690 79941950 84499970 89151700 93871380 99153670
932.42 104469300 110429600 116632000 123254000 129759100 136698900
938.21 143278000 149630000 155656500 161574100 167043200 172819800
943.99 177966500 182581900 186578900 191173500 195289400 197445700
949.78 196403900 191109100 181843900 172165400 162815100 145517100
955.56 135888200 157139100 180686300 191296000 202942700 212264900
961.35 212499500 210260200 206147700 200048800 194513500 189695400
967.13 184131100 178473600 171793500 164320100 156572500 148848200
972.92 140858000 132972900 125252600 118352600 111770400 105755500
978.70 100208600 95472700 90836770 86393080 82173550 78619780
984.49 75399240 72792020 70303740 68415640 66769960 65590690
990.27 64776360 64540460 64436910 65116190 66217880 67885140
996.06 69790400 72310470 75008020 78318410 81863980 85689950
1001.85 89775900 94210470 98407500 102650000 106930200 111211500
1007.63 115133900 119106000 122696500 126366900 129933000 133986800
1013.42 138049800 142090100 144715100 144790300 140182700 131020700
1019.20 116923300 103878100 103212200 108290100 101826500 107006400
1024.99 128991800 146156500 153745800 153848300 149774500 144001300
1030.77 138040200 132117100 126583200 121409400 116553500 111748100
1036.56 106603500 101403200 96331910 91281300 86322380 81446010
1042.34 76619860 72110270 67771930 63332560 59028100 55225500
1048.13 51475780 47707330 44208300 40917760 37639170 34609140
1053.91 31841420 29280920 26845680 24607840 22539770 20665500
1059.70 18991690 17549520 16237120 15221590 14454280 13969360
1065.48 13544360 13239730 13109550 13307410 13627960 14060740
1071.27 14534520 15347550 16262980 17317850 18582710 20071220
1077.06 21629010 23302420 25138000 27235310 29486050 31597360
1082.84 33695810 36126040 38709000 41293700 43908890 46770780
1088.63 49590010 52394140 55323400 58362030 61399140 64582450
1094.41 67633430 70703580 74151700 77737160 81099860 84148890
1100.20 86716560 89329500 92168930 92003800 90464560 96956730
1105.98 110130200 116507900 106015700 107651800 124666800 137790000
1111.77 145677400 147272000 144814600 141869200 139963100 137903000
1117.55 135631900 133224400 132009700 131814900 131384600 130893900
1123.34 132096100 132904200 131588100 128396300 127130200 127179900
1129.12 128073600 132894900 153653900 156962400 124065600 104790800
1134.91 100501700 101163700 102207200 102891000 100543500 93070460
1140.70 86218200 83943540 97000860 115902400 105002400 82579340
1146.48 72380690 74226970 74949460 74996140 73339760 69819170
1152.27 68406070 68796870 69043530 70304400 73329650 77421470
1158.05 74393110 66094130 61237890 58528000 55480150 52547960
1163.84 49242720 45718420 42349540 39868110 38628010 37249330
1169.62 34944820 33201470 31268380 29331440 27175090 25147840
1175.41 23095480 21352810 19617740 18100280 16578770 15461530
1181.19 14365040 13637620 12705940 11954690 11286100 10792760
1186.98 10370900 10560150 9903256 8981820 8338150 7946244
1192.76 7533432 7194970 6809188 6644626 6331854 6303812
1198.55 6323788 6453306 7088606 7920824 7109628 5662378
1204.34 5059634 5563978 6347658 6127696 5468456 5662144
1210.12 5825678 6106840 6221010 6420194 6535168 6769974
1215.91 6857320 7025940 7066594 7442188 8109414 9570996
1221.69 10581730 9845814 9491888 10351810 11077810 12159240
1227.48 13314420 14771140 16114280 17854980 19390450 20995900
1233.26 22678490 24637770 26443800 28598830 30710960 33028860
1239.05 35370410 38026690 40487850 43318370 46127920 49402120
1244.83 52809520 56347090 59690570 64279650 68069540 69946120
1250.62 71965550 74778070 77020080 79400670 80850740 82520430
1256.40 84500460 87278410 88549260 89877710 90659900 88487750
1262.19 81023930 72638990 81360570 119235200 113787100 79408700
1267.98 74297030 80076950 84994260 88260650 90163970 89695740
1273.76 88395580 86183580 84237970 81872810 79559690 76749020
1279.55 74006090 70858070 67623700 64051040 60667440 57168620
1285.33 53863280 50516580 47458290 44323350 41427890 38638370
1291.12 36166000 33757870 31557420 29339840 27308450 25338320
1296.90 23567190 21725760 20012950 18342170 16893810 15389540
1302.69 14105660 13014530 12222100 11249400 10297000 9546188
1308.47 8974618 8417244 7966224 7492780 7042894 6639152
1314.26 6346008 6051932 5851248 5687120 5629502 5505172
1320.04 5522220 5494394 5337988 5220348 5340166 5297644
1325.83 5380964 5562000 5848594 6204714 6680168 7079052
1331.61 7366896 7737956 8269918 8876380 9551516 10151500
1337.40 10938470 11889510 12723260 13480540 14450340 15437410
1343.19 16437870 17479290 18613100 19881190 21253190 22814460
1348.97 24560570 26592700 28160870 28991390 30164920 31725980
1354.76 33324760 34991080 36680680 38225160 39438220 40504700
1360.54 41241470 42151980 43647110 45498550 45061960 44366260
1366.33 44976180 45404310 48638880 63302280 106351500 147873900
1372.11 108012600 54697130 46922140 52444460 59548190 64118870
1377.90 68076760 71376120 75713860 79806340 85369810 91703940
1383.68 100268000 110399400 123938400 140655000 160725400 177891800
1389.47 192752700 210199400 231700800 253937600 276582500 296793900
1395.25 315238100 331071000 344615500 348834600 342507900 330709800
1401.04 317690000 300376300 282075600 264583700 254804300 257646900
1406.83 286245600 361275500 515355400 691055000 679242600 371506900
1412.61 164351200 166258200 202292900 243220800 283168200 322560500
1418.40 355441500 381242000 397702100 407801900 408558900 402217400
1424.18 387749600 368845600 345534800 320724400 293947300 268198600
1429.97 246310800 230154300 210379900 191665800 177160500 167489800
1435.75 160029900 153379600 147780900 145063400 143560300 144556300
1441.54 145465200 146151900 144540700 140838500 133965900 126212900
1447.32 121394400 126210800 122306300 115611900 121497300 129916600
1453.11 136243700 138110400 136917100 133829300 129478900 129653300
1458.89 137704700 167436900 205700400 186281200 159909000 167428000
1464.68 154158000 139232000 138161000 136754000 137886900 141972800
1470.47 148784400 157792500 164955200 160089000 145081700 136972800
1476.25 135037300 133862700 132302500 129944700 126286800 122448700
1482.04 118466800 114525400 112462900 119340400 144255800 164797100
1487.82 146925500 119516300 105743900 96555620 92514450 94196310
1493.61 97632910 102102800 105729900 107492300 109520400 110523700
1499.39 109726900 107992700 105247500 101877800 98356450 95534220
1505.18 91965100 87272480 81459730 76377000 72510820 70177300
1510.96 69069190 66460200 63939730 64722510 64736360 59183950
1516.75 52064520 49618720 49178960 51736680 54213720 55097490
1522.53 56414420 58541880 61052460 62054050 62074000 61117000
1528.32 58764740 55632710 52271630 49053680 46840140 43364420
1534.11 37328910 32188980 28129570 25789550 25023510 23032480
1539.89 20383020 19246820 17871940 15967170 15369190 14457070
1545.68 13078910 12190510 11550980 11177220 10536640 9633960
1551.46 8970010 9268828 9847460 8637656 7960338 9110646
1557.25 10476090 10220000 9763888 8006034 6786028 6875690
1563.03 7196114 7460598 7367118 7492008 7893974 8817408
1568.82 9607518 9295438 9227320 9512464 9688604 10246510
1574.60 12271610 13019100 11375790 11072510 11179830 11200390
1580.39 11119710 11171600 11109430 11156550 11151630 11189280
1586.17 11255550 11992170 13306770 14630850 15059700 13342860
1591.96 10591680 9828182 10422790 11318630 11889460 12426420
1597.74 13088380 13848620 14479090 14948350 15130600 15011210
1603.53 14548770 13908840 13114300 12233430 11309770 10474950
1609.32 9535852 8599182 7809336 7282508 6961392 7018254
1615.10 8363912 8811762 7080158 6437676 6290884 6333554
1620.89 6397856 7084548 7370642 6769332 6449964 6681480
1626.67 7056020 7005148 6855748 7005026 7332838 7814994
1632.46 8110258 9248778 11166560 10525850 9151762 9062792
1638.24 9043100 9254854 9428178 9653722 9586948 9568152
1644.03 10291510 11548950 11389770 11761950 12223110 12360000
1649.81 12617200 14264030 16501590 15697220 13488330 12550220
1655.60 12567520 12935820 13121990 13268930 13126610 13267400
1661.38 14054050 13960240 13044350 12839850 12553750 12374830
1667.17 12512250 13104470 13015550 12990460 13455120 12716280
1672.96 11639210 12542280 12599780 11858730 11607380 11600820
1678.74 11675030 11720950 11539960 12021100 13133530 14683100
1684.53 13306470 11041890 10605050 10325150 9957014 9693154
1690.31 9411426 9226470 9082456 9240784 11114840 12100540
1696.10 9906630 8924056 9832728 11760920 10980960 8929884
1701.88 8264516 8520700 8599950 8523766 8299776 7570588
1707.67 6710756 6381534 7314786 8395644 9032574 9126666
1713.45 8974824 8813782 9333534 10941180 10431500 9030512
1719.24 8167854 7838342 7568922 7370652 6948278 6443994
1725.02 6012262 5670344 5287612 5097198 5078432 5060360
1730.81 4820822 5119298 5922858 5434716 3705110 2832480
1736.60 2782994 2893636 3318806 2995174 2321134 2266746
1742.38 2245286 2039072 1874346 1882346 1903422 1991820
1748.17 1888254 1892340 2561956 2210734 1370180 1262888
1753.95 1274896 1543318 1795536 1637656 1461072 1552868
1759.74 1974938 2660352 2401238 2046910 2088762 2243086
1765.52 2445450 3006652 3334768 2959822 3140136 3864128
1771.31 4709282 4496050 3619030 3685092 3743852 3636244
1777.09 3381410 3248820 3347458 3546854 3768064 4187790
1782.88 4375676 4562060 4204942 3947550 3899666 3944958
1788.66 4189302 4773168 5033498 5512244 5087476 3786190
1794.45 3258462 3318054 3337548 3540364 3981254 4097596
1800.24 3984542 3898490 3682952 3543688 3460238 3366706
1806.02 3197916 2980496 2687588 2614696 2517312 2251178
1811.81 1935128 1677076 1548510 1431466 1242454 1087376
1817.59 1033378 1261802 1719742 1857208 1425800 1146810
1823.38 1273554 1511692 1261610 1177220 1382948 1722206
1829.16 1838726 1550266 1419522 1441662 1435438 1519678
1834.95 1539564 1569010 1616910 1680690 1808450 1853506
1840.73 1825830 1893514 2599864 2846748 2128552 1856920
1846.52 1791098 1765700 1782810 1883146 1925574 2029410
1852.30 2162722 2318714 2536790 2819990 3072318 2758826
1858.09 1935102 1831488 1887670 1989858 2033774 2134250
1863.88 2246462 2518100 2723572 2916026 3107994 3077600
1869.66 2662262 2548076 2570454 2636574 2537648 2484664
1875.45 2444584 2451176 2382162 2419790 2473312 2534366
1881.23 2548652 2710058 2895314 3064222 3116498 3190402
1887.02 3225550 3433692 3498602 3387682 3369582 3471308
1892.80 3568240 3743014 3908442 4138396 4255176 4408202
1898.59 4887086 4640804 4177102 4346568 4617862 4801884
1904.37 4679472 4571982 4491590 4559232 4828278 5201052
1910.16 5387986 5469080 5207274 4867486 4600824 4854760
1915.94 5259836 4952726 4172840 3849348 3805806 3926368
1921.73 3967300 3864984 3705762 3502172 3212704 3102136
1927.51 2987272 2970168 2935936 2870814 2762984 2719660
1933.30 2648482 2619522 2587744 2592046 2599530 2640276
1939.09 2623134 2708540 2895698 2988748 2865588 2977064
1944.87 3267378 3615120 3872546 4138282 4397546 4748894
1950.66 5057560 5403566 5709176 6055018 6319284 6457364
1956.44 6494644 6517654 6482524 6504778 6534284 6527642
1962.23 6434206 6417436 6766756 8139832 10358910 10027640
1968.01 6661192 5317814 5591334 6047842 6644286 7344374
1973.80 7471942 7479632 7622076 8071914 8718662 9122728
1979.58 8611434 7914914 7508686 7257944 6929216 6651708
1985.37 6322804 6110230 5871992 5652174 5517078 5501128
1991.15 5397528 5237992 5021578 4864498 4726018 4756200
1996.94 4875874 5144460 5368154 5607154 5439714 4969142
2002.73 5004354 5261152 5400260 5617432 5709568 5717028
2008.51 5676022 5663748 5536794 5463014 5300296 5257408
2014.30 5178868 5187244 5194260 5514532 5897064 5956064
2020.08 5305218 4660514 4542436 5107150 5593588 5081006
2025.87 4468910 4258054 4416468 4707132 4818242 4818072
2031.65 4664398 4547590 4385654 4156648 3896314 3723256
2037.44 3518246 3264308 2983906 2790542 2561266 2304698
2043.22 2114628 2090290 1968606 1812780 1637158 1474278
2049.01 1353930 1268984 1161374 1128012 1125548 1063288
2054.79 995820 1033372 1046568 1196110 1287284 1294844
2060.58 1329858 1289072 1264264 1380978 1496610 1630230
2066.37 1686402 1823680 1933066 2055534 2178974 2242024
2072.15 2224016 2305722 2352932 2380044 2321600 2326552
2077.94 2316564 2310362 2282336 2341720 2553916 3000182
2083.72 3156672 2690020 2332740 2405746 2504314 2475066
2089.51 2397918 2501700 2579696 2652872 2627060 2679142
2095.29 2905884 3150326 3058672 2664408 2402874 2437462
2101.08 2461660 2474502 2386678 2345524 2264524 2217018
2106.86 2154080 2128842 2081610 2078222 2002408 2043940
2112.65 2072980 2085350 2141262 2209690 2102052 2091660
2118.43 2051992 2098108 2244570 2491358 2603450 2647760
2124.22 2528510 2493228 2614698 2720876 2796782 2791380
2130.01 2824332 3031298 3222614 3490432 3773856 4154232
2135.79 4483038 4815834 5067480 5393962 5776790 6164108
2141.58 6544272 7056694 7547650 7847330 7937028 8120090
2147.36 8453132 8812282 9179684 9656122 9913032 9750470
2153.15 9564464 9730430 9954648 10291040 11377030 11744080
2158.93 10898860 10884850 11029800 11386830 12163760 13736720
2164.72 14312820 12793450 10145370 8748416 8892166 9619936
2170.50 10242100 10942200 11634700 12254500 12674840 12870720
2176.29 12804520 12627320 12213080 11535520 10629690 9806526
2182.07 9097988 8627156 8136972 7552414 7438658 7686032
2187.86 8006646 8467168 7824750 6091694 5414342 5521688
2193.64 5607050 5738850 5833688 5893358 5893148 5942574
2199.43 5927676 5918652 5828690 5769966 5734736 6085716
2205.22 6889628 7776520 7152444 5554814 5108316 5359282
2211.00 5671150 5982686 6238338 6556030 6954182 7464300
2216.79 7763264 8000846 7930634 7816038 8047144 8378062
2222.57 8441282 8375718 8502804 8773552 8998554 9045272
2228.36 8961200 9014082 9263062 9693814 10182960 10811250
2234.14 11497070 12223660 12369570 11629520 11189260 11132930
2239.93 11345590 11978810 12717250 13539970 14320120 14445490
2245.71 14563500 15007230 15550210 16112780 15743790 15098600
2251.50 14668450 14264950 13919370 13616080 13156630 13311420
2257.28 15875970 18564320 15858740 13273320 13201590 13543400
2263.07 14090580 14766960 15074850 15246760 15530520 15786560
2268.86 15962770 16036570 16017770 16102280 16157820 15776850
2274.64 15016950 14217720 13491910 13040840 12753120 12539910
2280.43 12413960 12462410 12630770 12989590 13327980 13502130
2286.21 13598550 12700610 11170750 10527370 10238320 10001840
2292.00 9796592 9687420 9491530 9211814 9099178 9205788
2297.78 8940944 8753692 9103984 8738620 7949498 7627212
2303.57 7292542 7203214 7255174 7430098 7408782 7308954
2309.35 7510886 7977444 7814114 7323580 6929236 6718470
2315.14 6542992 6407766 6243316 6139382 5977528 5774986
2320.92 5596074 5676592 6000988 6505278 6076144 5100980
2326.71 4809242 4813588 4535794 4525364 4592734 4551798
2332.50 4699954 4994106 5138350 5157502 4901598 4648368
2338.28 4556272 4634976 4736834 4560732 4283338 4238254
2344.07 4084128 3974772 3898492 3839652 3637618 3439594
2349.85 3311706 3350110 3327862 3425162 3553296 3530748
2355.64 3469564 3388572 3261586 3276702 3205080 3107094
2361.42 3022540 2888666 2640284 2614930 2604008 2510264
2367.21 2388014 2292398 2307684 2664678 3104438 3042078
2372.99 2562168 2402992 2372574 2440898 2555074 2715930
2378.78 2650774 2475668 2337126 2269224 2142616 2130492
2384.56 2141230 2186790 2206528 2204676 2183584 2227806
2390.35 2307608 2506162 2639692 2581286 2567748 2730044
2396.14 2613696 2584908 2587506 2663482 2748494 2885228
2401.92 2945672 2949126 2911012 2969152 3013100 3115310
2407.71 3208378 3198520 3110456 3133962 3144988 3247846
2413.49 3498330 3949292 3796730 3424862 3515612 3546226
2419.28 3391990 3483476 3735154 3799338 3444660 3173402
2425.06 3151434 3170040 3131420 3173088 3201728 3235948
2430.85 3260716 3222878 2953956 2814990 2795252 2815950
2436.63 2777856 2719866 2605758 2473752 2378348 2287244
2442.42 2095046 1988044 1893488 1890976 1887146 1909186
2448.20 1864888 1788128 1712734 1694508 1598314 1557576
2453.99 1513460 1528910 1485164 1462706 1394430 1441510
2459.77 1431842 1400494 1368596 1340568 1290206 1374056
2465.56 1430880 1544582 1611992 1624264 1574878 1582936
2471.35 1512232 1478030 1498788 1617864 1684950 1678254
2477.13 1640918 1614482 1492892 1458954 1478018 1613194
2482.92 1711412 1743070 1775058 1977628 2064904 2081586
2488.70 2126682 2192006 2203136 2283058 2332192 2415820
2494.49 2452704 2499834 2515324 2608458 2699032 2811938
2500.27 2864942 3085322 3536138 3915588 3511096 3081912
2506.06 3070834 3226670 3382616 3542036 3441698 3284392
2511.84 3314322 4070240 5315346 5579236 4654364 3794196
2517.63 3561352 3822432 4025988 4069180 4145020 4315000
2523.41 4351660 4532036 4680176 4892412 5057206 4974964
2529.20 4539256 4040220 3642368 3674256 3805228 3827180
2534.99 3662034 3589062 3701312 4121476 4390866 3729576
2540.77 2996508 2844112 2628338 2510882 2571506 2723250
2546.56 2713778 2700788 2766364 2883796 2863934 2851866
2552.34 2769544 2658068 2515024 2423484 2279292 2206660
2558.13 2170890 2198800 2208872 2199406 2105870 2100236
2563.91 2105144 2217164 2270892 2294402 2270976 2272512
2569.70 2376494 2502826 2542922 2647964 2654864 2626774
2575.48 2666752 2830968 2983476 3052312 3211040 3356500
2581.27 3288142 3343348 3452664 3636862 3823536 4056880
2587.05 4261648 4408444 4579322 5021578 5257804 5212364
2592.84 5228534 5313446 5457468 5638590 5769164 5894632
2598.63 5923550 6022492 6156802 6413148 6585414 6604538
2604.41 6417700 6258664 6324798 6588608 6629052 6639326
2610.20 6689998 6892280 7172024 7304660 7103896 7072260
2615.98 7076376 7031888 6840312 6639580 6474274 6521328
2621.77 6526122 6509722 6448606 6491282 6563546 6565726
2627.55 6376982 6125396 6084986 6123474 5950148 5858734
2633.34 5714556 5601060 5745622 5581828 5159180 4975460
2639.12 4907340 4881368 4811018 4704762 4536512 4332660
2644.91 4072384 3988494 3976884 4062360 4049268 4055254
2650.69 4043190 4117814 3956644 3813262 3656138 3479124
2656.48 3235204 3120062 3035718 2928606 2719522 2551264
2662.27 2396728 2331532 2207080 2106692 2039810 1936922
2668.05 1760280 1716308 1793894 2287730 2860342 2302360
2673.84 1516978 1369200 1299992 1238340 1189712 1316060
2679.62 1294142 1218354 1097248 1075598 1114182 1129898
2685.41 1032886 991818 1021272 1077292 964540 962816
2691.19 965592 951738 913756 954972 987662 1046524
2696.98 1065606 1140802 1140452 1221096 1229012 1335970
2702.76 1447616 1540870 1660804 1750520 1772216 1952944
2708.55 2136262 2414674 2675774 2954014 3167778 3513672
2714.33 3811528 3993990 4024370 4137980 4254876 4429602
2720.12 4443622 4381670 4357064 4422196 4254336 4233216
2725.91 4216620 4371584 5130368 7095848 9260616 8461444
2731.69 5791228 4443850 4286098 4783902 5219812 5711736
2737.48 6236908 6713742 7036444 7370670 7442834 7380726
2743.26 7454510 8074166 8478540 8397802 8045942 7949160
2749.05 7892310 7798538 7671488 7644340 7611020 7802396
2754.83 8027198 8293006 8662062 9161650 9361422 9500700
2760.62 9750390 10121480 10350260 10639630 10842470 11224690
2766.40 11993130 14205840 18104050 22370770 23088240 18578680
2772.19 14338650 14066100 15039620 15627480 16238250 16982550
2777.97 17642990 18276450 18886410 19439890 19941860 20588820
2783.76 21403050 22081480 22386950 22794230 23512830 24092790
2789.54 24198230 24322880 24499010 24812230 25087780 25215250
2795.33 25155950 25049140 24734150 24282590 23918040 23630690
2801.12 23401200 23191680 23013690 22927410 24033490 26544260
2806.90 30854620 35112360 37454290 32211510 22224160 19669830
2812.69 19892840 20346660 20255690 20169070 19611970 19720980
2818.47 19827150 19988070 19546940 19283160 19114750 19979450
2824.26 20254200 19643030 18753210 18718350 19792750 21931700
2830.04 21701540 19190310 17724280 17841610 18353950 19053770
2835.83 19304590 19693500 20188280 21093340 21505990 21994310
2841.61 22574530 23173140 23531500 24110520 24476180 25056100
2847.40 25550160 26184240 26640690 27377220 28224100 30264960
2853.18 32649590 35191820 36012900 35197120 34932390 36608820
2858.97 38705500 41876290 45633570 50117700 54591470 59948740
2864.76 67628170 81086570 84050690 76685880 74954720 76182580
2870.54 77092260 77169570 76284940 75751610 75856000 78381580
2876.33 87799280 98448400 92935820 83133860 79550580 79715800
2882.11 82385650 87888470 100124600 127774000 141604800 125807800
2887.90 111920100 108469300 111393300 116654300 124200000 130612100
2893.68 135536400 140293300 146758200 153459600 160049800 167429100
2899.47 176204500 183554500 189390600 194335000 197105800 197395800
2905.25 195165600 192476400 191572200 191771400 192592300 198349600
2911.04 211039400 226432400 242491000 258266500 271690700 284332000
2916.82 292487600 301182500 312420000 320729100 327793000 336185600
2922.61 347514300 361132000 367819100 370096700 388502800 414854000
2928.40 401229400 370305900 366957200 370659400 372766000 372868700
2934.18 372073500 370996200 374556100 382982900 400198700 442088300
2939.97 506207800 511421300 429927200 371836700 362698900 369864400
2945.75 382915400 399109500 418668300 438273800 452886300 462011500
2951.54 467197900 469580800 470883200 471711200 472600600 473178300
2957.32 474134900 474740600 476311500 479794500 486885000 496665600
2963.11 507152400 519895100 536849000 557576100 579460700 598549200
2968.89 610281300 610788000 599071700 577493800 559585600 562650900
2974.68 588479800 634689400 688483100 730530200 760938200 785897800
2980.46 808140400 833383500 861677900 868416700 862831100 863120100
2986.25 868987300 875877000 881505800 888051100 898735900 915013100
2992.04 937360100 947123900 939795400 908838700 874702200 904166000
2997.82 1037792000 1287729000 1482034000 1321826000 996650900 827726800
3003.61 768600800 762985700 771150100 778084700 775554900 767746000
3009.39 752824600 739282400 725392300 719508400 718060900 715783300
3015.18 704997200 690284900 672287300 656780900 641599200 629273500
3020.96 615845000 604754100 593948400 585152000 574940500 567650400
3026.75 560543400 555392200 548381500 543636200 537979200 534883700
3032.53 531531800 531057800 530148700 533134400 534555800 530495700
3038.32 513899500 499592900 482107400 463017800 438126700 415807200
3044.10 392204400 388228600 410841600 511159900 833085200 1240214000
3049.89 1022840000 461240600 279118600 295424400 331355600 360558100
3055.67 385089600 397124900 405414600 406141700 405113400 397930900
3061.46 389518400 375849900 361606600 344047800 327330300 308616900
3067.25 291357500 272972600 255903400 238233400 222774000 206767700
3073.03 192351100 178073000 165656600 152585500 141079300 129626000
3078.82 119776100 110503700 102283500 93016290 84893570 76886810
3084.60 70314710 63644650 57927430 52124790 47358180 42512970
3090.39 38448810 34363320 31431100 28302730 25818760 23305060
3096.17 21534320 19463010 18084600 16590940 15619250 14165500
3101.96 13368450 12397140 11830260 11021620 10600300 9880478
3107.74 9768874 9355502 9188530 8656988 8658844 8416616
3113.53 8482830 8261394 8392380 8290742 8567286 8409076
3119.31 8501374 8423250 8564848 8325658 8532346 8459810
3125.10 8619492 8579892 8834648 8838664 9094836 9071442
3130.89 9199994 9181860 9450328 9570602 9935014 9927330
3136.67 10054870 9966792 10178280 10263460 10583770 10732730
3142.46 11439140 12370620 13465620 13153180 12295780 11687310
3148.24 11824530 12003260 12406000 12596100 12983110 13136450
3154.03 13488840 13638880 14082290 14590090 15421020 15986770
3159.81 16754020 17351140 17941590 17212790 15866030 14989940
3165.60 14782880 14488930 14492220 14284850 14154430 14061840
3171.38 14414670 15713490 19842160 21809250 18034850 14790310
3177.17 13978550 13305700 12768450 12415750 12274450 12239080
3182.95 12268830 11961820 11758220 11577390 11408920 10953610
3188.74 10691630 10350120 9947454 9374946 8914290 8343016
3194.53 7988830 7490830 7187138 6691930 6273816 5784272
3200.31 5420904 4897524 4541304 4220336 4011164 3769738
3206.10 3640212 3344970 3180074 2858266 2690586 2528302
3211.88 2354700 2089196 2015444 1869768 1740944 1547716
3217.67 1529794 1447428 1502930 1266876 1226092 1109346
3223.45 1154806 1177764 1135804 977142 991406 1027034
3229.24 1082712 919602 875906 725284 756864 726380
3235.02 814094 815404 799664 684480 750212 619106
3240.81 605588 576110 720210 621476 721150 718054
3246.59 751204 672052 852626 798340 726544 725670
3252.38 852786 778852 743904 683476 780554 721696
3258.17 751202 750468 795376 744892 748420 704382
3263.95 764272 799294 933442 832784 755080 723462
3269.74 709054 655520 700292 670442 638302 694794
3275.52 932750 986154 1075828 994688 970808 1033174
3281.31 968606 853984 1014898 961246 982552 895604
3287.09 940812 997948 1095488 1055116 1179538 1263046
3292.88 1239630 1042018 1126058 1152706 1191846 1155160
3298.66 1082000 1000316 1010230 949648 1056164 1060926
3304.45 1123974 1043948 1142086 1178532 1278446 1295540
3310.23 1336532 1278876 1412766 1510412 1554778 1680768
3316.02 1995334 2061566 2164030 2315574 2434006 2562674
3321.80 2950646 3212442 3388616 3427406 3654080 3999064
3327.59 4188068 4162536 4279872 4299124 4269268 4073318
3333.38 4154908 4215822 4188642 4065986 4290252 5041992
3339.16 6249998 6873188 5999500 4521508 3966526 3915740
3344.95 4082944 4159414 4397956 4682030 5025588 5194550
3350.73 5297540 5521262 5646072 5486148 5325680 5149588
3356.52 5042614 4955716 4774040 4621306 4662408 4450938
3362.30 4160342 3970798 4007096 3842856 3723826 3647136
3368.09 3681150 3694858 3738842 3750516 3851896 3930602
3373.87 3936076 3840934 3851114 3734200 3675622 3779098
3379.66 3850602 3692190 3686408 3865932 4348338 4532790
3385.44 4570814 4318350 4098340 3889300 3776686 3584198
3391.23 3773692 4093808 4511064 4694896 4530404 4186170
3397.02 4098700 4058854 4147876 4238320 4305084 4272064
3402.80 4154922 3840884 3723362 3673190 3583578 3655250
3408.59 3948940 3993206 3799826 3484766 3301004 3244140
3414.37 3439178 3499086 3248890 2874598 2652852 2482672
3420.16 2585400 2515020 2453580 2451452 2557558 2511740
3425.94 2485900 2405686 2348464 2373820 2387420 2080244
3431.73 1988476 1906550 1906904 1955014 1960534 1754756
3437.51 1704474 1627204 1650578 1633958 1733776 1839420
3443.30 1791354 1655346 1750914 1843628 1752256 1603586
3449.08 1635932 1624814 1629626 1496660 1418898 1318450
3454.87 1188884 1052102 1174978 1339886 1828040 2150722
3460.66 2056140 1741086 1568572 1344184 1131666 1122156
3466.44 1280724 1225872 1356172 1409058 1324510 1121146
3472.23 1099186 1081258 1171800 1103790 1138404 1122804
3478.01 1057254 957472 828378 856122 914482 740374
3483.80 611686 482172 524326 580282 648068 564934
3489.58 568246 490254 460362 405860 523300 731088
3495.37 789018 622908 542254 484706 477722 528456
3501.15 688106 683460 461216 267490 379714 483410
3506.94 583390 771014 715284 515072 514702 604558
3512.72 591720 539502 659704 713026 660624 528154
3518.51 615558 635998 681780 651334 845340 848492
3524.30 791574 803702 731824 656754 772294 659116
3530.08 726458 715770 694286 698180 702950 630464
3535.87 733018 779976 816276 797876 905974 772086
3541.65 615910 643172 794190 715486 658720 603928
3547.44 685810 692872 781274 879778 878226 758474
3553.22 718850 648170 727816 786510 806160 751670
3559.01 746422 739788 708974 608380 743402 880902
3564.79 1118106 1270324 1272012 924880 601822 676350
3570.58 790364 661892 620278 658172 679710 675330
3576.36 656178 651442 826304 847360 779608 686004
3582.15 722872 737116 805706 1077720 1227828 1160254
3587.94 1117838 670412 664484 779848 851190 840222
3593.72 991856 1051226 923556 794166 817972 742184
3599.51 816990 853258 875336 746522 667090 730114
3605.29 989720 1089760 1256936 1692778 1308386 937004
3611.08 1373532 1383126 1098600 1004788 885590 985094
3616.86 1308186 1557162 1742488 1145512 842472 858818
3622.65 1094864 1092098 1093708 945974 1481684 2507712
3628.43 2836006 1890468 1109626 1067252 1263022 1325300
3634.22 1216522 1103368 1197892 1331202 1314870 1256766
3640.00 1263076 1191242 1259476 1297818 1430644 1667526
3645.79 2214756 2360838 2877668 3241570 2775800 2356016
3651.57 1845866 1816056 1839150 2389924 2948124 2335628
3657.36 2011978 2039348 2092956 2250834 2292816 2289996
3663.15 2360992 2350972 2445964 2540186 3018792 3492128
3668.93 4192990 4804856 3543810 2894538 3362434 4492522
3674.72 5350478 4533170 3419024 3418976 3559880 3427524
3680.50 3280218 3218812 3215296 3313652 3409126 3529984
3686.29 4189780 5737574 5212252 4122298 4325612 3995056
3692.07 3550672 3460126 3500210 3615446 3754796 3754822
3697.86 3659188 3576630 3783666 4102872 3876110 3610648
3703.64 3640394 3689834 3766378 3776176 4149616 4491986
3709.43 4233984 4872472 5596282 4664694 4204762 4251358
3715.21 4325174 4441696 4645360 4717800 4637376 4716176
3721.00 5214622 5260706 5083372 5221296 5517120 5814046
3726.79 5751924 5799094 5949130 6227312 7208450 7543452
3732.57 6965136 7549076 8098630 8502072 8190128 7791424
3738.36 7744218 7857380 7945774 7835906 8893190 11602940
3744.14 11389940 8986470 8725196 9450280 11217050 11044880
3749.93 10184060 11857410 11846720 10426920 10389460 10876330
3755.71 11387890 11052610 10696940 10623530 10086230 9621116
3761.50 9711576 9494686 9412346 9690980 9671544 9294416
3767.28 9198282 9705916 9971862 9322184 8979426 8800136
3773.07 8883908 8822476 8780282 8616670 8563818 8788946
3778.85 8734422 8086866 7883616 7804610 7722116 7736580
3784.64 7793838 7610650 7432548 7220894 7214164 7266060
3790.43 7322120 7261612 7238632 7127686 7353416 7617916
3796.21 7472762 7140546 7103656 7612760 9251604 8884982
3802.00 7755566 7842660 8392392 9609424 10823780 9393612
3807.78 7407840 6636154 6362974 6548606 6860374 7145880
3813.57 7545298 9364152 10159450 8857544 8438646 8366102
3819.35 8834582 9093362 8462390 7622974 7386250 7233806
3825.14 7365086 7399224 7190578 6978648 6971576 7372488
3830.92 7577340 7044472 7250590 7887112 7748852 7853988
3836.71 9027986 8083248 6939204 6829876 6454660 6108766
3842.49 6400848 6248490 5822024 5832748 5759456 5729790
3848.28 5874770 5974530 6985530 8034850 8293578 9730816
3854.07 8161738 6164970 6063686 5844168 5596978 5524500
3859.85 5793188 6040056 5847794 5987150 6789030 6779374
3865.64 6233214 6174036 6688156 7568702 7414078 6505686
3871.42 6386858 6764914 7115260 6694514 6428570 6513950
3877.21 6536674 6694394 7343762 7317318 6965470 6972860
3882.99 7224330 7878584 8276422 7553976 7270476 7156818
3888.78 7243252 7966820 8312328 7759952 7626406 7343508
3894.56 7016078 7092162 7462772 7971938 8249010 7718960
3900.35 7779312 7679964 7437484 7665448 7307186 6960752
3906.13 6825226 6820344 6945312 7013456 7041732 7034012
3911.92 7019228 6984664 7014798 7055550 7255152 7264432
3917.70 7236346 7403608 7366604 7174402 7247640 7450984
3923.49 7822610 7932018 7857618 7931090 8036196 8121038
3929.28 8190624 8343126 8590272 8453072 8308208 8287114
3935.06 8384556 8250430 8095738 8281094 9268954 10424880
3940.85 10120930 8908698 8371602 8349206 8656050 9060350
3946.63 9368870 9314536 9255536 9322022 9484856 9550106
3952.42 9494338 9266386 9163000 8961264 8847500 8676582
3958.20 8501616 8315422 8185912 8107294 8002322 7869886
3963.99 7758000 7607360 7591702 7456660 7388970 7376800
3969.77 7259632 7143366 7207382 7125470 7099718
##END=
