##TITLE=Propylene Oxide
##JCAMP-DX=4.24
##DATA TYPE=INFRARED SPECTRUM
##CLASS=IUPAC A
##ORIGIN=NIST, Anayltical Chemistry Division, 301-975-3108
##OWNER=COPYRIGHT (C) 1998 by the U.S. Secretary of Commerce
##DATE=98/10/1
##$SPECTRA VERSION=1.00
##$UNCERTAINTY IN Y=2.1 % relative (B=1.1E-04,C=9.8E-10,D=2.7E-14)
##CAS NAME=1,2-Epoxypropane
##CAS REGISTRY NO=75-56-9
##MOLFORM=C3 H6 O
##MP=-104.4 C
##BP=34.3 C
##$NIST SOURCE=QUANT-IR
##SPECTROMETER/DATA SYSTEM=IFS66V (Bruker)
##INSTRUMENT PARAMETERS=KBr Beam splitter; MCT Detector; Multipass cell
##STATE=gas
##SAMPLE DESCRIPTION=Propylene Oxide Primary Gas Standard
##PRESSURE=101.3 kPa
##TEMPERATURE=23 C
##SAMPLING PROCEDURE=1 L/min Flow
##RESOLUTION=0.9640
##DATA PROCESSING=3-Term B-H Apodization
##XUNITS=cm-1
##YUNITS=(micromol/mol)-1m-1 (base 10)
##XFACTOR=1.0
##YFACTOR=2.2737E-13
##DELTAX=0.4820
##FIRSTX=575.169
##LASTX=3975.077
##FIRSTY=-3.69E-07
##MAXX=3974.59
##MINX=575.17
##MAXY=.0003528
##MINY=-7.48E-07
##NPOINTS=7053
##XYDATA=(X++(Y..Y))
575.17-1625598-2305808-2168468-1612118-1615212-1927382
577.58-2206014-2077862-1692534-2313122-3291594-3214070
580.47-2466300-1542872-1027120-1501060-1874156-1749510
583.37-1917672-2107956-2206216-2118084-1716040-1626162
586.26-1949996-1782162-974574-761608-1294788-1692564
589.15-1649988-1306514-1369244-1551540-1511720-1438640
592.04-1248390-1107552-1572686-2165410-2085676-1845294
594.94-1820494-1605846-1473342-1432152-1400068-1506452
597.83-1341514-956478-970670-1163200-1282994-1520942
600.72-1901868-1925082-1257668-579562-617526-965992
603.61-1025076-878340-861912-860928-782264-886888
606.51-1081770-1128552-1241042-1465242-1528522-1470004
609.40-1407252-1107288-948750-1048656-1121164-1213210
612.29-1052128-701666-619514-843000-1026462-1058302
615.18-1038360-997228-1039130-1070848-1105292-1173470
618.08-1270832-1083506-941722-1230418-1502896-1545442
620.97-1292032-905406-1014746-1359542-1365020-1096374
623.86-804970-680948-834026-1243244-1587282-1565212
626.76-1348346-1307714-1314598-1114580-929446-923480
629.65-1217634-1692340-2006350-1872992-1608518-1597058
632.54-1573428-1364228-1317996-1383778-1435490-1621720
635.43-1750482-1707062-1583744-1510994-1649924-1613884
638.33-1471196-1635112-1848742-1777046-1603036-1324614
641.22-1144124-1227160-1354226-1420606-1368184-1232134
644.11-1102806-924830-874254-1143074-1493860-1705702
647.00-1845056-1862064-1790992-1589448-1335790-1254622
649.90-1359004-1433856-1566014-1756428-1811850-1786876
652.79-1714882-1504598-1372050-1405084-1474194-1492010
655.68-1421492-1334688-1324024-1247670-1144592-1181894
658.58-1323228-1370262-1466272-1617122-1661186-1582830
661.47-1435580-1307854-1322996-1502266-1667502-1643958
664.36-1558458-1563064-1603294-1451192-1395472-1561452
667.25-1608610-1558106-1632176-1507556-1133200-937538
670.15-1154262-1401736-1381256-1174726-1016212-1012324
673.04-981068-953410-1099118-1308188-1508558-1560844
675.93-1452798-1267990-1239036-1277378-1210312-1103944
678.82-939978-820084-913514-1072956-1142662-1168094
681.72-1171576-1143814-1229102-1297432-1372928-1476462
684.61-1440894-1222358-1023304-1016582-915752-739536
687.50-928966-1218710-1259590-1099548-918794-753392
690.40-758002-848578-938918-950724-809226-458012
693.29 40350 93030-325958-617364-673616-452298
696.18-268404-295230-240362-192418-240476-149388
699.07-99726-82904 3464 19550-50766-13536
701.97 46872 101712 229926 487350 622174 476310
704.86 505342 825036 932442 943294 1028672 1217902
707.75 1482586 1798364 2215736 2823764 3120628 2830102
710.64 2442812 2243868 2296798 2597060 2885620 3091454
713.54 3285318 3519900 3754554 3998290 4239348 4598396
716.43 4990654 5352464 5709472 6030112 6267020 6611570
719.32 7198802 7874498 8308206 8568256 8938538 9482052
722.22 9989664 10342780 10754320 11374010 11916020 12583870
725.11 13488980 14315110 14998910 15815670 16816270 18133280
728.00 19557540 20726840 21732820 22941440 24411650 25730530
730.89 26595130 27620930 29297290 31205260 32587780 33786310
733.79 35300110 37100560 39159590 41401190 43788930 46390080
736.68 48986660 51658920 54324980 56749300 59186320 61815260
739.57 64344100 66703480 69062410 71682840 74415950 76947290
742.46 79432010 81977960 84185390 86279700 88182830 89813340
745.36 91372740 92843730 94285400 95631900 96520560 97383200
748.25 98325140 98994640 99574610 100271700 101631000 103471500
751.14 105048900 106115900 106840300 106909000 107877800 112418300
754.04 119073500 123328600 124898000 129890600 140521400 148926500
756.93 143611600 122811500 103878900 96350980 91987060 90556740
759.82 92961570 96968030 103269200 110277200 116185200 121182100
762.71 125779500 130377800 134722000 138765100 142937900 147323200
765.61 151296800 154701500 157899300 160867400 163206300 164627100
768.50 165064800 164850800 164362500 163481000 161598500 158883400
771.39 155694200 152255200 148526000 144562600 140165300 135091700
774.28 129622300 124213800 118797400 113236900 107675600 102297800
777.18 97196900 92732340 89611280 88604970 86442650 80340750
780.07 74439550 72043860 70672480 67825970 64401080 61187550
782.96 58447700 56837330 55512420 54098800 52933520 52058570
785.86 51315100 50679290 50130350 50018750 50139210 50260000
788.75 50432430 50873980 51294230 51774430 52625100 53625840
791.64 54523380 55600090 56854070 58029130 59093620 60408760
794.53 62084560 64096300 66021260 67867570 69860660 72150260
797.43 74588810 77232320 80128850 83288250 86653210 90163840
800.32 93696120 97457520 101587200 106320100 111227400 116333600
803.21 121633300 127279600 133260300 139385200 146204800 153610300
806.10 161044000 168573300 176167600 184492200 193086600 202198600
809.00 211974400 222115700 232651600 243468000 255099800 267072200
811.89 279047700 291941600 305157000 318819800 332474800 346531400
814.78 361333200 376622600 392269900 407685900 423465100 439405300
817.68 455078300 471318500 487261200 503742800 520624700 536994700
820.57 552067800 565817800 579496700 592678200 604942700 616239500
823.46 625744300 635024200 642153200 647632800 652527400 655837800
826.35 658151700 659154900 658075600 655863600 652766300 648381400
829.25 642242600 635006300 624301800 608622800 587149600 561570600
832.14 538417000 521270500 514713000 527712500 567020900 627754000
835.03 696070700 807210600 946600100 1052312000 1001644000 726718300
837.92 503092000 470569100 508740100 546837800 574937200 599907100
840.82 622105800 637866200 647538700 652057000 653841800 655043300
843.71 657323000 659825600 662039000 663259900 663022400 661613800
846.60 659246700 655709600 650653700 642871200 633624200 623290200
849.50 611443100 597741500 582070600 565912800 548836200 530584300
852.39 512163900 492499300 472890000 453054300 432958300 413896000
855.28 394790400 375852300 357521900 339899400 323726200 307799300
858.17 292527900 277649900 262994100 250100000 237958900 226107100
861.07 215083700 204240300 194373800 185299600 176914300 169218700
863.96 161475400 154202800 147503800 141127900 135599300 130193900
866.85 125005500 120216700 115664400 111466600 107319600 103419300
869.74 99900020 96352680 93159990 90153430 87207790 84387260
872.64 81737220 79453560 77240470 74983050 72994080 71076860
875.53 69363160 67854020 66451220 65131340 63761060 62422270
878.42 61246710 60198790 59391640 58517540 57609700 56880580
881.31 56214180 55606840 55049140 54453080 53974730 53538270
884.21 53151070 52894360 52675370 52458640 52224360 51982020
887.10 51755630 51500580 51090590 50422760 49635820 48659210
889.99 47190240 45255110 43307880 41386550 39532000 39608370
892.89 47394320 62227580 64615660 52376440 46258240 46497070
895.78 42925360 39168490 41053020 43919830 44341390 44911610
898.67 46549020 48028370 48989640 49545150 50027370 50393860
901.56 50620920 50706310 50922060 51249950 51457860 51415960
904.46 51214400 50884370 50695520 50682040 50866080 51048990
907.35 51050160 50878680 50797680 50856740 50879000 50836170
910.24 50921400 51006190 51011080 50895090 50736650 50572500
913.13 50459360 50353690 50278640 50275160 50353340 50458560
916.03 50658480 50837840 51099750 51466890 51958420 52590230
918.92 53107480 53553860 54307890 55177520 56174090 57327920
921.81 58389970 59522400 60887960 62278680 63794610 65284060
924.71 66805570 68606250 70460700 72207940 73952120 75645170
927.60 77553740 79783180 82211660 84665860 86867530 88992110
930.49 91393380 93827470 96481380 99178810 101638400 104430900
933.38 107399100 110269100 113428800 116657800 119943100 123224900
936.28 126429600 129798500 133133200 136612600 140230600 143414500
939.17 146465600 149555200 152684400 155803100 158663700 161561300
942.06 164476800 166936400 169685200 173078100 175752400 177860900
944.95 180402400 182779600 184708300 186415200 188414200 191309000
947.85 193798700 195499600 196870900 197945800 197937500 196867400
950.74 195019400 191791000 187246400 181824000 176549300 171752700
953.63 167369600 164126600 159177500 146116700 131229400 128908200
956.53 140117100 157430000 174359400 184649200 187008000 188938600
959.42 195637900 204007400 210243400 213688500 214397800 212583200
962.31 210674900 210444000 209671700 206618100 202872100 199771900
965.20 197065500 194370800 192090100 189977500 187174300 183933400
968.10 181231800 178800400 175496700 171883000 168255400 164192400
970.99 160400200 156707100 152763800 148807500 144834900 140928500
973.88 136964400 132887100 128877000 125232100 121675200 118166500
976.77 115036800 111791800 108605200 105615500 102803900 100176100
979.67 97667660 95387470 93185680 90933330 88555400 86255060
982.56 84165310 82148910 80274030 78512670 76889750 75366420
985.45 73976040 72760060 71517170 70235540 69207400 68314140
988.35 67552270 66817350 66033610 65463730 65062630 64730340
991.24 64593650 64510340 64410740 64346700 64540420 65035350
994.13 65582060 66196470 66935730 67789230 68785280 69743140
997.02 70871420 72274670 73643490 74982560 76431990 78184880
999.92 80169000 81916950 83644090 85595900 87618530 89785500
1002.81 92010100 94167760 96364140 98494060 100535400 102530700
1005.70 104662400 107067900 109250500 111143100 113119200 115210500
1008.59 117249000 119043900 120907800 122801100 124573000 126257100
1011.49 128092200 129967300 131875500 133866100 135994600 138155100
1014.38 140199800 142157100 143857400 145134400 145711700 145337100
1017.27 143806600 140858000 136759100 131580800 125132300 117569200
1020.17 108867100 101141800 98941730 101734600 106898200 112903400
1023.06 109740700 97593460 95007890 104796400 117984800 130318200
1025.95 140224900 147484100 152218500 154686800 155266900 154422900
1028.84 152525500 149889400 146997400 144052100 141028200 137994000
1031.74 135034300 132096000 129208000 126523000 123908000 121392600
1034.63 118949200 116433300 114213600 111916800 109240100 106580300
1037.52 103937000 101384100 98866810 96340780 93809100 91235140
1040.41 88786660 86305720 83867910 81474180 79007070 76544360
1043.31 74238140 72108790 69938200 67801340 65626900 63312010
1046.20 61043720 58920000 57033910 55216190 53415030 51540420
1049.09 49524070 47626460 45858340 44215590 42557010 40897300
1051.99 39295830 37597030 36015540 34570520 33172990 31825770
1054.88 30529550 29250160 28011040 26859300 25671790 24547520
1057.77 23536750 22547430 21557010 20609360 19766930 18963770
1060.66 18245920 17539710 16823490 16205380 15661570 15175800
1063.56 14763980 14429740 14148910 13959730 13774480 13522430
1066.45 13348570 13237440 13085170 13044240 13168090 13286200
1069.34 13435530 13625870 13833140 14056650 14282360 14470060
1072.23 14794780 15366910 15854010 16232140 16719830 17272800
1075.13 17890710 18588270 19278030 20010510 20872310 21682800
1078.02 22364770 23230680 24246450 25117060 26059000 27195620
1080.91 28365180 29555460 30623680 31549430 32596890 33679460
1083.81 34762300 36108630 37470620 38668860 40015050 41341820
1086.70 42519290 43848080 45308740 46753490 48264810 49628390
1089.59 50897790 52394900 53826740 55281960 56867450 58368940
1092.48 59845760 61403540 62914930 64583320 66254300 67665590
1095.38 69040040 70592510 72348830 74174170 75956410 77736770
1098.27 79527580 81163330 82664320 84241110 85564060 86802340
1101.16 87831130 89146020 90731940 92512820 93763960 92972160
1104.05 90134300 88456350 90750210 96644660 102946500 109028700
1106.95 117870900 123199200 114360700 100906500 98447260 105764300
1109.84 116462200 126090200 132821600 138120500 142948800 146642100
1112.73 148328500 147967300 146366500 144624500 143157900 141770600
1115.63 140719800 139898100 139081600 138125000 136805700 135455100
1118.52 134398000 133298100 132129200 131479100 131827900 132237400
1121.41 131898000 131180300 130757000 130823100 131067400 131866800
1124.30 133034800 133448400 133027900 131796700 129950200 128144800
1127.20 127046700 126762200 126938400 127319700 127666800 127845300
1130.09 128516100 130383400 136300300 152474200 173392400 169310200
1132.98 138965300 117087800 108925300 103768500 100861000 100037800
1135.87 100156900 100934300 102032000 102670300 102480200 102463000
1138.77 103429700 102415300 97546100 92249920 88495640 85981700
1141.66 84212310 82522500 83026140 92126780 111999100 125641300
1144.55 118377800 104064800 92944410 80920990 71779320 70146100
1147.45 72967950 75156330 75278620 75146420 74695170 74461540
1150.34 75464430 74701600 71103930 68651510 68404660 68552280
1153.23 68586780 68678310 68848780 69056340 69392900 69995250
1156.12 71025280 72933540 75695600 78416490 79301590 75889720
1159.02 69469000 64702920 62580230 61308620 59979660 58512500
1161.91 57025020 55520490 53981140 52517170 51061300 49401080
1164.80 47482260 45569520 43890480 42394710 40869290 39462940
1167.69 38777490 38835460 38518010 37356860 35951190 34828180
1170.59 33991770 33219010 32340200 31315600 30281110 29309410
1173.48 28289890 27221200 26140080 25086810 24078520 23109680
1176.37 22189760 21299950 20429550 19644520 18882300 18063760
1179.26 17235910 16549140 15997610 15445230 14841530 14323430
1182.16 13966950 13651460 13225030 12733930 12263920 11870630
1185.05 11564630 11324030 11085390 10781440 10416540 10225350
1187.94 10375540 10735360 10689650 9968382 9206170 8860876
1190.84 8663260 8375386 8090318 7882344 7735686 7603400
1193.73 7373564 7144576 6966364 6801704 6715426 6657206
1196.62 6503422 6333650 6207944 6219550 6345734 6422170
1199.51 6362844 6296588 6461880 7045890 7775994 8150010
1202.41 8071322 7361946 6133040 5364302 5135926 5008950
1205.30 5046822 5386380 5988002 6682450 6781284 6083978
1208.19 5463322 5347324 5486232 5681060 5767984 5834428
1211.08 5955780 6084284 6189164 6276798 6311138 6360318
1213.98 6463696 6591146 6663160 6726426 6812198 6905846
1216.87 6968306 6992556 7015388 7092000 7165356 7339416
1219.76 7648186 8086652 8638638 9337986 10469790 11358450
1222.66 10654060 9375146 9065454 9466034 9936732 10344630
1225.55 10701630 11065490 11534310 12114460 12673660 13319820
1228.44 14042560 14743600 15428980 16096780 16870490 17839870
1231.33 18743810 19467570 20123960 20893440 21772970 22710520
1234.23 23681980 24596430 25504060 26492460 27431300 28508550
1237.12 29680960 30788750 31835650 32916810 34144360 35402540
1240.01 36683100 38028060 39236720 40490160 41838470 43247260
1242.90 44700910 46149540 47683520 49259910 50985260 52963110
1245.80 54690750 56290010 57915490 59582380 61559040 64069810
1248.69 66975050 68880740 69190700 69549510 70537850 71997620
1251.58 73551220 74779410 75884210 77051500 78315120 79474340
1254.48 80292640 80986740 81558390 82294560 83299210 84461210
1257.37 85896790 87467380 88415000 88697060 88970300 89593960
1260.26 90418030 91338620 91267150 89155130 85433760 81220150
1263.15 76917420 72488480 68401320 70112260 93582520 133691000
1266.05 143348500 115447400 87377310 72845610 70358820 74060470
1268.94 77861370 80529480 82702300 84849420 87000520 88730000
1271.83 89787450 90293860 90320900 89954320 89316530 88330860
1274.72 87332920 86281320 85180450 84180490 83126610 81977730
1277.62 80762880 79524070 78235610 76819670 75407980 73945710
1280.51 72509940 70992030 69288390 67578520 65864700 64095560
1283.40 62330770 60612740 58918780 57206090 55507500 53805720
1286.30 52146530 50538100 48933000 47442580 45896160 44321700
1289.19 42842320 41351020 39961940 38659460 37365690 36097160
1292.08 34904470 33807710 32641490 31498850 30422490 29371370
1294.97 28317770 27228810 26263940 25374420 24446110 23530290
1297.87 22641710 21760410 20844600 19974850 19125320 18334770
1300.76 17605750 16875990 16153100 15387360 14663530 14062660
1303.65 13493650 12981120 12568570 12238370 11840300 11297620
1306.54 10687910 10197860 9879816 9581360 9232630 8932926
1309.44 8688728 8442410 8165400 7933560 7734766 7542416
1312.33 7265726 6989058 6799990 6659190 6499482 6321420
1315.22 6168868 6059976 5957456 5840778 5705976 5672888
1318.12 5700900 5638640 5530362 5505062 5490354 5492784
1321.01 5528174 5568290 5479422 5299840 5175824 5181924
1323.90 5276200 5397650 5372528 5261232 5256712 5360772
1326.79 5474064 5577148 5657546 5819626 6019580 6200376
1329.69 6408266 6674618 6924110 7142742 7245088 7305708
1332.58 7478982 7756908 7993822 8236246 8533520 8882064
1335.47 9218644 9578526 9859524 10126620 10451810 10889330
1338.36 11415300 11926980 12372610 12765660 13041500 13409580
1341.26 13929460 14477850 14961020 15421410 15923760 16446070
1344.15 16932480 17476500 18013690 18587200 19210230 19879760
1347.04 20546220 21224290 21956780 22795020 23666120 24539850
1349.94 25398130 26600410 27830140 28371250 28496140 28871610
1352.83 29461190 30103180 30874400 31788270 32509350 33305680
1355.72 34154720 34952200 35832250 36728500 37548460 38262110
1358.61 38854590 39496810 40027830 40517930 40940740 41284150
1361.51 41595640 41986960 42681250 43548680 44590830 45968430
1364.40 46335780 45218520 43898060 43711620 44730760 45670300
1367.29 45167680 44753430 45647100 47545660 51711810 60197920
1370.18 74243740 98865820 138844600 171818100 155998200 103007500
1373.08 62728320 47640030 44777330 46239660 49037480 52464790
1375.97 56224850 59748550 62477630 64501080 66155670 67815430
1378.86 69633700 71526790 73457910 75490410 77618570 79933190
1381.76 82264650 84938950 88181530 91746540 95487500 99760160
1384.65 104748300 110292900 116279100 123209400 131305500 140338900
1387.54 150111100 160991100 171115300 178777700 185038100 191795600
1390.43 200140900 209950400 220421400 231454700 242690600 254008300
1393.33 265457800 276866600 287345000 297132400 306635200 315480600
1396.22 323451800 331339100 339016800 345603300 349904500 351088300
1399.11 348207400 342446100 336506300 331239200 325203800 317995100
1402.00 309735900 300963600 291509700 281625600 272045100 263930400
1404.90 257674900 253405800 250750600 253950400 265780000 282363100
1407.79 304393500 347526500 419780000 507765000 609671200 711517500
1410.68 768601500 758723900 590043600 317710000 167084800 142694500
1413.58 150940900 165644300 183045300 202058600 222156300 242631800
1416.47 263471200 284012800 303794600 322431300 340693500 357431600
1419.36 370843100 381611100 391246800 399001300 404835700 408618800
1422.25 410301000 409809400 407461200 402966800 396586300 388586500
1425.15 379448300 369109700 357841400 346017700 333654600 320628700
1428.04 307549500 294092400 280720800 267815100 255143000 244563500
1430.93 238010200 231916600 221620500 209701800 199861100 190838600
1433.82 183151200 176967900 171257700 166657700 163494200 160580900
1436.72 156771900 152824300 149668200 147708500 146111000 144578600
1439.61 143898400 143415000 143476900 144379600 145306000 145743100
1442.50 145945700 146138900 146117600 145127200 143294700 140983000
1445.40 138133200 134393600 129992400 126016600 122548300 118787500
1448.29 119564700 129250100 132847100 121681200 113211900 113574700
1451.18 117005600 121425500 126112700 130276700 133835200 136749900
1454.07 138611100 138867200 137670600 136440300 136345700 134959300
1456.97 131082300 128345200 127833200 128625700 131727800 136374000
1459.86 143628600 158580300 191320900 225615200 217835700 181619100
1462.75 157917100 150837700 160772700 177938400 172342800 150243500
1465.64 138259000 137136700 139412000 139632000 136841600 135647500
1468.54 136707500 137643400 139168300 141724700 144610900 148273200
1471.43 153148700 157742000 162335900 166836800 167663500 162479600
1474.32 152669800 142610500 137704400 136729200 135812800 134884100
1477.21 134463300 133918100 133251000 132364800 131404100 130299400
1480.11 128328500 126198000 124383700 122351200 120552800 118646000
1483.00 116399500 114247700 112594600 111743200 112441000 116172800
1485.89 125658000 142967700 163182700 173861300 166793800 146627500
1488.79 127450200 116751500 110853800 106034400 100882900 95496530
1491.68 92244120 91738790 92648230 94082430 95776340 97527390
1494.57 99465880 101940800 104897500 106425200 106516600 107109100
1497.46 108352800 109816700 110774400 110681600 110337800 109890000
1500.36 109118400 108069700 106863500 105386800 103658900 101888800
1503.25 100098900 98173590 96529480 95836660 94550720 91640210
1506.14 89729810 88008080 84468930 81022070 78557240 76259770
1509.03 74231730 72393830 70751970 69773300 69543430 69554930
1511.93 68669260 66423400 64325460 63277210 63446660 64783480
1514.82 65944180 65658460 63803140 59773130 54413040 50602720
1517.71 49773180 50175570 49221300 48159280 49321430 51858940
1520.61 54265790 54601800 54144850 55038580 55847320 56246480
1523.50 57122240 58326980 59953680 61574760 62064990 61927590
1526.39 62173610 62295630 61920920 61321610 60324480 58843550
1529.28 57245890 55627620 54007480 52351870 50549200 48754010
1532.18 47536810 46926100 46228520 44129520 40413880 36850850
1535.07 34295850 32161050 30039740 27969570 26282570 25174310
1537.96 25283530 25822860 24483030 22834980 21855620 19984680
1540.85 18943690 19523480 19406460 17888610 16513160 15689040
1543.75 15302970 15487630 15477490 14514860 13512810 12970430
1546.64 12595220 12189460 11802170 11480940 11289640 11227040
1549.53 11084690 10585090 10006620 9590364 9248182 8914212
1552.43 8674708 8862936 9982338 10655510 9526616 8262148
1555.32 7853132 7716172 8041604 9014148 10060620 11106760
1558.21 10932080 9492850 9793900 10733240 9426062 7435004
1561.10 6760348 6730982 6779870 6841838 6969056 7153670
1564.00 7473256 7602504 7409850 7263712 7355296 7479042
1566.89 7624164 7830896 8169124 8678942 9504484 10053130
1569.78 9638924 9043092 9007964 9224332 9433852 9551252
1572.67 9596850 9649978 9826438 10021950 10496470 12227370
1575.57 14328980 13715590 11697280 10936050 10938510 11062350
1578.46 11217260 11242830 11190720 11166360 11161620 11127570
1581.35 11132830 11159800 11173940 11120080 11082570 11139020
1584.25 11194820 11155050 11160420 11190820 11188930 11174520
1587.14 11344450 11842700 12629190 13370970 13977630 14685230
1590.03 15281000 15322490 14969630 13757330 11588790 10002730
1592.92 9644226 9761848 9971100 10336110 10925310 11415880
1595.82 11683170 11888050 12122610 12375880 12721130 13093360
1598.71 13472830 13856160 14207680 14499450 14787010 14975600
1601.60 15096300 15179350 15186250 15052210 14824970 14569160
1604.49 14301100 13916330 13508920 13133070 12738480 12235720
1607.39 11721840 11281310 10908320 10510560 10027830 9524790
1610.28 9066184 8572940 8137758 7767896 7485704 7255662
1613.17 7074224 6941610 6880494 6850524 7012102 8201670
1616.07 9999670 9542806 7544378 6649532 6552426 6443252
1618.96 6314110 6277900 6312022 6323796 6317312 6330574
1621.85 6498852 6984276 7719890 7738582 7007644 6562564
1624.74 6489852 6448034 6445140 6573824 6884040 7250668
1627.64 7227624 6914712 6814462 6848954 6899414 6971760
1630.53 7095896 7294078 7584654 7874518 8039288 8072936
1633.42 8197644 8788864 10233800 12020860 12119950 10296450
1636.31 9071134 9030976 9149240 9050534 8982650 9025928
1639.21 9140708 9244220 9323674 9425870 9582368 9696930
1642.10 9687672 9569960 9557036 9554822 9508622 9847366
1644.99 11220880 12333870 11623010 10913230 11294410 11831430
1647.89 12233470 12301690 12256390 12301280 12442940 12583660
1650.78 12706540 13773210 15897580 17241170 17315070 15757110
1653.67 14057690 13421430 12735780 12309540 12390620 12577950
1656.56 12780790 12960410 13054380 13114680 13229850 13319590
1659.46 13272520 13136250 13030680 13041930 13404370 14307290
1662.35 14783310 14032240 13168480 12905250 12909140 12865410
1665.24 12731750 12583350 12429190 12280310 12282540 12438210
1668.13 12746810 13289820 13370840 13002290 12810960 12710690
1671.03 13079850 13873440 13892920 12686320 11593370 11238770
1673.92 11576520 12795960 13486030 12695300 11893170 11703040
1676.81 11696790 11658850 11588030 11516260 11562860 11726770
1679.71 11841130 11749260 11561780 11462690 11519030 11932380
1682.60 12578280 12841760 13590500 15571570 15706230 13058280
1685.49 11233610 10821540 10671770 10584060 10581060 10418920
1688.38 10064050 9836150 9859704 9783542 9534664 9335936
1691.28 9277934 9248488 9192540 9073826 8987116 9030494
1694.17 9374206 10769180 13168010 13311290 10811930 9257376
1697.06 9006278 8851750 8835712 9358746 10905410 12492210
1699.95 12533360 11160620 9495918 8543532 8301578 8243262
1702.85 8242970 8465228 8834080 8732954 8346250 8409640
1705.74 8717148 8486016 7893874 7513246 7234576 6760408
1708.63 6170116 6027646 6592026 7420962 8036132 8386362
1711.53 8775468 9174222 9270780 9150210 8984658 8869510
1714.42 9055090 8960618 8510144 8665878 10202350 11946030
1717.31 11397570 10140670 9718238 8997848 8340304 8108728
1720.20 7960902 7825622 7718026 7560800 7431794 7409278
1723.10 7287564 6952482 6663880 6419188 6186220 6020020
1725.99 5860762 5650680 5471330 5299220 5121288 5007512
1728.88 5055914 5161272 5092716 5003614 5075082 4903408
1731.77 4470992 4803644 5910158 6071720 6042166 5984394
1734.67 4584032 3282434 2895524 2792034 2764504 2809122
1737.56 2815950 2738236 2931002 3584088 3701296 2922422
1740.45 2382214 2271890 2203560 2215838 2341874 2344420
1743.34 2159172 1976872 1903342 1885668 1856784 1836842
1746.24 1918706 1943696 1865016 1963828 2131060 1983076
1749.13 1681342 1574150 2043854 2976200 3069004 2112276
1752.02 1451716 1286442 1254442 1250334 1246210 1285108
1754.92 1330494 1409564 1766758 2046020 1788496 1507982
1757.81 1491622 1476606 1457214 1508800 1630062 1820410
1760.70 2338114 3011332 2904498 2261330 2003356 2010292
1763.59 2048346 2087706 2145186 2229536 2341212 2426276
1766.49 2520504 2903696 3580000 3614968 3056104 2798778
1769.38 2826718 3016136 3523152 3927720 4043110 4845454
1772.27 5484494 4561730 3614692 3459090 3524778 3700156
1775.16 3847462 3786674 3684008 3629384 3554612 3402734
1778.06 3235514 3177182 3223068 3340460 3535754 3560478
1780.95 3510734 3703670 4054600 4278418 4291146 4286306
1783.84 4500670 4755106 4552858 4126750 3927172 3884608
1786.74 3948422 3942474 3861726 3914092 3999382 4074416
1789.63 4386962 4962012 5164824 4763324 4958826 5870846
1792.52 5931900 5151008 4363408 3616292 3191618 3175430
1795.41 3319928 3356324 3327424 3322058 3340086 3453856
1798.31 3724956 4091538 4257674 4073664 3958008 4016184
1801.20 3980122 3906130 3825260 3658730 3573252 3532746
1804.09 3492236 3471800 3442120 3372684 3279168 3190970
1806.98 3148540 3009984 2792050 2652560 2587698 2574232
1809.88 2660124 2603984 2363312 2219192 2130100 1947230
1812.77 1762946 1630328 1581540 1567186 1521896 1434746
1815.66 1340652 1234002 1155532 1091922 995222 980622
1818.56 1099108 1205386 1405876 1780824 2040484 1969154
1821.45 1682224 1364642 1182604 1119326 1081404 1159786
1824.34 1521918 1725280 1443646 1160326 1105598 1134202
1827.23 1243046 1383506 1540086 1684664 1908154 2040754
1830.13 1726912 1405248 1398596 1436578 1451350 1451802
1833.02 1417874 1403432 1467930 1536744 1572836 1541258
1835.91 1504068 1559146 1635210 1617676 1609236 1660820
1838.80 1749606 1827174 1868772 1864320 1835980 1833048
1841.70 1833326 1780574 1888814 2587640 3421502 3100678
1844.59 2277984 2001796 1922180 1820614 1794358 1832550
1847.48 1798670 1710694 1728108 1800072 1855098 1871564
1850.38 1897982 1938296 1964540 2003332 2080454 2176344
1853.27 2262898 2309470 2352184 2492886 2784652 2858272
1856.16 2758878 3130666 3458992 2860626 2080506 1789628
1859.05 1762878 1809510 1892674 1911374 1908164 1977248
1861.95 2036812 2038332 2071900 2122264 2167962 2225236
1864.84 2353234 2518744 2666082 2735106 2804756 2932022
1867.73 2965474 3079402 3340624 3195066 2779544 2590424
1870.62 2546094 2519384 2536012 2576930 2633016 2655100
1873.52 2614748 2541114 2488882 2463328 2452936 2455268
1876.41 2462298 2449046 2420076 2380494 2365466 2398758
1879.30 2450742 2486722 2525688 2535650 2517572 2530390
1882.20 2608130 2689098 2788278 2922860 3022582 3059154
1885.09 3089276 3128728 3168558 3175562 3202330 3225596
1887.98 3245014 3409428 3635008 3568330 3381790 3352834
1890.87 3358872 3345376 3411436 3489954 3507464 3544724
1893.77 3644398 3748214 3837984 3894556 3992416 4135408
1896.66 4273726 4335938 4244816 4192688 4551344 5183916
1899.55 5220504 4551278 4113690 4110744 4212580 4323906
1902.44 4470660 4634130 4792914 4860020 4783712 4667562
1905.34 4603942 4560732 4515780 4483960 4498832 4517218
1908.23 4583952 4810354 5111240 5233894 5264652 5401424
1911.12 5528964 5512396 5398794 5226772 5044338 4847966
1914.02 4666664 4550172 4551530 4733654 5152296 5479490
1916.91 5360666 5015928 4519598 4050428 3870662 3821046
1919.80 3806476 3793760 3824904 3918122 4006264 4022248
1922.69 3954296 3832362 3760832 3732172 3674526 3513894
1925.59 3307116 3182742 3132962 3099950 3059676 2979040
1928.48 2937632 2956960 2982778 2960228 2911144 2859898
1931.37 2815524 2758702 2734236 2717448 2683472 2656050
1934.26 2632610 2596768 2596036 2604504 2595636 2573416
1937.16 2569648 2607988 2649848 2634122 2618814 2631280
1940.05 2640552 2662758 2759018 2916068 3067810 3034474
1942.94 2890080 2825904 2857562 2927176 3080206 3293986
1945.84 3467860 3600056 3750152 3897798 4011822 4114888
1948.73 4251256 4397080 4561278 4749998 4913536 5059158
1951.62 5224202 5395462 5569372 5718904 5862808 6042110
1954.51 6236526 6358250 6424668 6455274 6470022 6506868
1957.41 6538906 6509558 6488280 6493484 6484210 6483220
1960.30 6507628 6559954 6584256 6504862 6473344 6473128
1963.19 6390552 6336640 6443872 6677702 7094936 7864422
1966.08 9147776 10653430 11683270 10985650 8223564 5851618
1968.98 5188432 5225836 5401774 5611576 5818308 6012484
1971.87 6238566 6595232 7090750 7475078 7569048 7475612
1974.76 7413312 7439836 7514610 7602302 7759464 8010144
1977.66 8358996 8739118 9106166 9314178 9113134 8607076
1980.55 8158440 7841466 7636952 7510478 7403776 7265650
1983.44 7088390 6922342 6798176 6653654 6484526 6318730
1986.33 6178678 6088462 6025512 5905670 5741724 5602892
1989.23 5540386 5529044 5515274 5476034 5479488 5448292
1992.12 5326064 5214972 5127720 5034570 4943466 4838220
1995.01 4769588 4725272 4697614 4726276 4793846 4865420
1997.90 4981814 5138056 5292124 5381358 5454542 5610656
2000.80 5765690 5599110 5118234 4774694 4800816 5030402
2003.69 5229036 5267812 5279932 5391504 5537438 5618510
2006.58 5682562 5750038 5758420 5693566 5653808 5689112
2009.48 5723840 5668274 5584788 5530568 5516028 5478832
2012.37 5385110 5273118 5247594 5274724 5228260 5157068
2015.26 5171378 5190820 5181192 5151728 5231640 5477756
2018.15 5767438 5966168 6044456 6061226 5863644 5315634
2021.05 4783012 4533900 4506480 4536794 4551468 4923806
2023.94 5736176 5962954 5422808 4977960 4721940 4436914
2026.83 4237114 4196112 4257192 4389270 4594648 4761808
2029.72 4799552 4808506 4860094 4856224 4759382 4656384
2032.62 4576974 4534518 4519162 4412152 4265692 4155712
2035.51 4033820 3871278 3784482 3735780 3633134 3536206
2038.40 3421282 3247076 3103454 2988868 2872346 2771214
2041.29 2699394 2599100 2434588 2268160 2164382 2103200
2044.19 2070844 2089936 2112958 1988176 1835250 1806314
2047.08 1767840 1643828 1530078 1454842 1402160 1360836
2049.97 1320396 1259394 1209704 1169802 1120840 1093410
2052.87 1125820 1166044 1141172 1038860 978342 992210
2055.76 1018832 1036608 1039324 1028996 1059708 1186938
2058.65 1329960 1325324 1267230 1254536 1298474 1382540
2061.54 1377828 1246928 1199398 1275776 1320486 1360478
2064.44 1444912 1490044 1568640 1666798 1660336 1650224
2067.33 1741120 1830394 1892292 1946444 1982742 2032964
2070.22 2118804 2198044 2256638 2264364 2206472 2184902
2073.11 2269278 2324450 2319240 2355246 2401630 2388896
2076.01 2350804 2313148 2306862 2322788 2329246 2325070
2078.90 2324454 2300260 2282922 2288456 2296974 2300666
2081.79 2375746 2536540 2734190 2984678 3260604 3360830
2084.69 3061494 2570764 2333300 2306988 2326156 2383388
2087.58 2472462 2547240 2559812 2472658 2373338 2363364
2090.47 2442806 2503450 2547286 2592158 2624766 2654186
2093.36 2666242 2643798 2602368 2613950 2740496 2926144
2096.26 3095202 3160034 3198008 3178728 2920334 2574074
2099.15 2405642 2393150 2401896 2423404 2467118 2464506
2102.04 2484476 2498030 2433728 2375446 2362020 2345558
2104.93 2312638 2267308 2240256 2204494 2177220 2163216
2107.83 2147674 2122784 2092946 2072422 2092942 2101124
2110.72 2039938 1976524 1988394 2034256 2084228 2099576
2113.61 2080714 2058288 2070826 2133482 2237932 2264240
2116.51 2153318 2060076 2077468 2104862 2085438 2048786
2119.40 2038906 2066648 2139526 2238688 2366866 2506016
2122.29 2602784 2616238 2623222 2662076 2661254 2545134
2125.18 2402654 2418948 2576592 2665414 2669610 2681860
2128.08 2759372 2846494 2850572 2763022 2718400 2804446
2130.97 2941262 3034994 3108048 3212402 3359036 3482030
2133.86 3604556 3770972 3953088 4148682 4348266 4489096
2136.75 4634480 4825794 4981700 5058840 5173624 5374720
2139.65 5595278 5784976 5983844 6158754 6329720 6536058
2142.54 6764188 7034620 7344832 7594672 7764616 7874696
2145.43 7921130 7923330 7966046 8085724 8255570 8462316
2148.33 8668496 8808740 8947120 9156800 9419798 9669968
2151.22 9889724 10006880 9954738 9741038 9535342 9498908
2154.11 9600962 9714970 9847252 10009230 10094110 10096480
2157.00 10391830 11466600 12481740 12017850 11021460 10683550
2159.90 10720060 10898970 11037360 10997010 11082650 11369430
2162.79 11622020 11963540 12729140 13885140 14746020 14597930
2165.68 13984020 13094860 11516590 9805042 8828104 8583450
2168.57 8585838 8794134 9238502 9686980 9979918 10197360
2171.47 10537860 10945690 11321080 11657960 11968560 12259660
2174.36 12521500 12733910 12845510 12875360 12892710 12836740
2177.25 12734480 12633110 12505350 12273110 11943660 11555720
2180.15 11107620 10625900 10174340 9769946 9420560 9094152
2183.04 8793356 8560096 8448858 8287036 7827460 7346268
2185.93 7260550 7506604 7613538 7566472 7794052 8074238
2188.82 8183918 8432420 8854066 8284984 6752762 5702444
2191.72 5383250 5380230 5471750 5525958 5559826 5612098
2194.61 5665570 5722312 5799598 5865318 5879898 5882204
2197.50 5892740 5891958 5918610 5944896 5942426 5936432
2200.39 5938254 5915150 5877562 5842396 5802888 5754034
2203.29 5715222 5704358 5782444 5978520 6360418 6900458
2206.18 7399884 7896706 8250640 7521468 6014494 5171404
2209.07 5045548 5101774 5198514 5325256 5516626 5695868
2211.97 5829782 5981534 6120706 6238258 6370200 6536734
2214.86 6735252 6922406 7178048 7536640 7735292 7712776
2217.75 7823928 8084368 8158816 7941816 7716202 7740656
2220.64 7895328 8031806 8215476 8426622 8537934 8473970
2223.54 8353996 8323366 8382654 8496720 8630838 8761274
2226.43 8914564 9043282 9093148 9054294 8992844 8951268
2229.32 8934378 8971766 9080220 9255438 9450774 9671620
2232.21 9936898 10175840 10436800 10787760 11176640 11516430
2235.11 11808540 12212640 12664870 12667890 12068110 11419170
2238.00 11204590 11224030 11155550 11067630 11110780 11295400
2240.89 11582480 11941430 12373800 12776150 13053380 13409330
2243.79 14041190 14581010 14586640 14337260 14319480 14528180
2246.68 14819150 15032920 15169080 15449780 15949570 16371780
2249.57 16247740 15716550 15294820 15041030 14873990 14708870
2252.46 14474220 14231210 14040910 13907930 13821800 13663590
2255.36 13392200 13109560 12944010 13043090 13605870 15186540
2258.25 18280230 20476380 18614170 15086970 13338230 13028000
2261.14 13095470 13192930 13342780 13536550 13719810 14016370
2264.03 14475000 14876500 15060140 15072330 15098010 15220070
2266.93 15386760 15540420 15685190 15793440 15885070 15978270
2269.82 16042930 16056010 16032910 15991630 16006890 16093000
2272.71 16186100 16231800 16149710 15838070 15397200 15007160
2275.61 14640200 14219320 13793160 13434670 13198320 13032060
2278.50 12864180 12742010 12660600 12522860 12417720 12393800
2281.39 12410770 12445970 12509550 12609720 12751200 12962720
2284.28 13233050 13409660 13418310 13442210 13559210 13737380
2287.18 13725090 12880920 11648510 10943220 10669700 10499530
2290.07 10392120 10257670 10096870 9980330 9884184 9795908
2292.96 9729954 9670458 9638084 9547290 9357094 9159540
2295.85 9054174 9057412 9144034 9273048 9276874 8977744
2298.75 8621662 8548908 8838632 9323968 9410848 8768424
2301.64 8073848 7843890 7816210 7663026 7435202 7251068
2304.53 7158328 7185404 7223276 7224046 7322540 7468144
2307.43 7506010 7439098 7344522 7252946 7244736 7423502
2310.32 7798206 8135238 8132178 7844994 7532372 7285096
2313.21 7092454 6916590 6784302 6705490 6630496 6549878
2316.10 6474636 6401862 6322766 6244118 6183010 6129014
2319.00 6082276 6003618 5892706 5765646 5635726 5555794
2321.89 5578294 5656724 5754204 5925098 6240870 6678524
2324.78 6790628 6177838 5405354 4954770 4739378 4739446
2327.67 4904770 4952090 4710120 4406216 4375504 4564662
2330.57 4651626 4588444 4569290 4549596 4502346 4624652
2333.46 4929028 5078152 5027410 5107620 5278118 5213326
2336.35 5033034 4922534 4769038 4575178 4527472 4590410
2339.24 4585798 4553488 4686494 4852956 4793910 4541482
2342.14 4322530 4237070 4249908 4283934 4206708 4052302
2345.03 3996126 3984846 3918694 3884192 3904550 3869642
2347.92 3754802 3637448 3542788 3424072 3319058 3281994
2350.82 3324840 3361756 3359666 3338524 3297060 3359024
2353.71 3562930 3633270 3553014 3507246 3480718 3477102
2356.60 3488986 3398272 3273112 3235412 3252756 3289958
2359.49 3298798 3203406 3139988 3113704 3030450 3026064
2362.39 3038652 2909712 2743890 2591292 2543772 2622440
2365.28 2653882 2635700 2575900 2476446 2448044 2409186
2368.17 2342170 2269030 2224836 2272250 2388248 2621068
2371.06 2928088 3178164 3334390 3151842 2713874 2463030
2373.96 2418280 2405114 2368986 2364168 2396296 2423176
2376.85 2467562 2555314 2654624 2741000 2767270 2681756
2379.74 2559164 2446960 2372642 2337840 2317194 2279648
2382.64 2205976 2124258 2095736 2120084 2151178 2147530
2385.53 2146940 2180450 2206324 2220472 2230084 2191958
2388.42 2166664 2191346 2207392 2212826 2236828 2292830
2391.31 2394316 2506528 2595858 2680210 2719374 2584016
2394.21 2407696 2489142 2772686 2812908 2669448 2606940
2397.10 2550104 2551862 2612698 2607686 2579698 2634568
2399.99 2731672 2758456 2785344 2887062 2955666 2966314
2402.88 2964648 2936524 2920006 2915656 2907074 2955210
2405.78 3024286 3012752 3023244 3111090 3171778 3234428
2408.67 3273818 3201486 3108606 3093140 3128908 3135946
2411.56 3118874 3141528 3188750 3225398 3299606 3426880
2414.46 3696904 4093942 4185768 3828828 3459452 3286640
2417.35 3349580 3589558 3695636 3543040 3405922 3382708
2420.24 3369038 3419330 3589026 3784858 3900676 3861164
2423.13 3693582 3442524 3207470 3095700 3124144 3181834
2426.03 3195312 3163398 3129176 3131106 3145878 3160408
2428.92 3187134 3213542 3241140 3223988 3204056 3278110
2431.81 3333874 3252968 3113030 2938996 2806144 2779770
2434.70 2802112 2813096 2807558 2800916 2809604 2806162
2437.60 2765556 2690274 2661860 2658884 2556698 2414058
2440.49 2384984 2417432 2380372 2280682 2182372 2100984
2443.38 2015092 1969680 1953954 1882862 1856846 1894020
2446.28 1897044 1884664 1898844 1914000 1898902 1877518
2449.17 1856792 1776434 1699978 1710436 1739828 1708258
2452.06 1629154 1590214 1590366 1549548 1507772 1512790
2454.95 1537878 1531500 1498518 1489856 1492418 1460796
2457.85 1420742 1380926 1382582 1445626 1476550 1449264
2460.74 1414960 1376148 1364070 1392980 1390960 1326124
2463.63 1278942 1276148 1318340 1373452 1411866 1433478
2466.52 1467410 1533146 1604720 1637622 1640376 1623176
2469.42 1589446 1562802 1583574 1600074 1553958 1516982
2472.31 1495768 1440486 1448448 1521150 1555072 1583696
2475.20 1671396 1741700 1716496 1634162 1631600 1670826
2478.10 1664368 1612504 1540830 1504498 1459694 1417396
2480.99 1448732 1491740 1527418 1576442 1685150 1776790
2483.88 1740672 1707784 1737720 1751804 1834278 1995480
2486.77 2093222 2094232 2068166 2036078 2080144 2164040
2489.67 2181318 2172362 2190672 2213146 2228234 2274310
2492.56 2316114 2339196 2375888 2396674 2447012 2475622
2495.45 2471886 2490736 2503696 2515872 2551230 2588140
2498.34 2652164 2713038 2762216 2815550 2841420 2849912
2501.24 2911296 3042676 3235208 3501170 3857740 4122962
2504.13 3949782 3454256 3121792 3012288 3003150 3065210
2507.02 3159110 3226252 3277790 3368722 3501940 3600166
2509.92 3568174 3434484 3345522 3276126 3193886 3230584
2512.81 3445636 3888262 4670496 5575370 5971918 5701262
2515.70 5226826 4668960 4085006 3645736 3476796 3538126
2518.59 3651182 3790696 3986756 4110644 4081104 4019220
2521.49 4031736 4143440 4285374 4339092 4326846 4323990
2524.38 4397040 4534312 4641338 4689678 4744888 4855054
2527.27 5022494 5132462 5108304 5008798 4822444 4551832
2530.16 4288340 4025772 3771022 3569698 3530144 3660584
2533.06 3787740 3839564 3847522 3839514 3794564 3666012
2535.95 3548644 3535904 3610246 3698066 3808816 4022590
2538.84 4424612 4710818 4353132 3614290 3130148 2922598
2541.74 2857154 2872152 2815808 2621866 2469646 2463382
2544.63 2521882 2571718 2649164 2737446 2776424 2740180
2547.52 2672540 2649482 2710322 2796380 2825304 2883004
2550.41 2939124 2860050 2819922 2866504 2846104 2778038
2553.31 2724920 2648528 2568780 2526310 2477044 2407420
2556.20 2356074 2304122 2213848 2155250 2195264 2201570
2559.09 2160290 2169792 2216910 2235268 2224182 2197334
2561.98 2153214 2104294 2082988 2077138 2102202 2120246
2564.88 2115544 2187868 2309522 2322310 2241084 2252846
2567.77 2337012 2315670 2223786 2206254 2304146 2414568
2570.66 2463716 2485486 2536274 2556204 2554714 2637930
2573.56 2729366 2692582 2601074 2576828 2636544 2693506
2576.45 2703858 2772282 2959572 3064310 3019136 2978224
2579.34 3068464 3248666 3362464 3378742 3348136 3269088
2582.23 3242658 3326372 3427162 3454726 3496676 3626692
2585.13 3757756 3824234 3912854 4050258 4175920 4285122
2588.02 4370594 4400360 4434534 4532546 4722974 5037902
2590.91 5317404 5345832 5217506 5143712 5196034 5261314
2593.80 5269548 5280346 5340618 5461424 5600842 5636454
2596.70 5659106 5782662 5889880 5895564 5895028 5919756
2599.59 5968148 6016638 6052424 6136706 6287540 6414410
2602.48 6512834 6635472 6677640 6593264 6527562 6466184
2605.37 6313520 6178724 6190856 6305072 6479816 6630742
2608.27 6675984 6641620 6603402 6615254 6653142 6684138
2611.16 6756760 6855488 6999838 7205978 7366638 7374438
2614.05 7223940 7048302 7013964 7066782 7100350 7102394
2616.95 7076898 7028324 6972954 6866480 6722160 6625160
2619.84 6533654 6434964 6443090 6529098 6576768 6540936
2622.73 6498688 6501838 6497706 6458488 6417388 6437982
2625.62 6559734 6627932 6570470 6539396 6561980 6442518
2628.52 6208842 6039966 6019668 6102120 6159986 6152182
2631.41 6083084 5940470 5828846 5835236 5876216 5792464
2634.30 5558664 5433468 5647138 5906764 5829752 5578906
2637.19 5337178 5115868 4999374 4959168 4931576 4905980
2640.09 4909310 4880114 4830008 4831806 4810336 4694558
2642.98 4583538 4549732 4518802 4337478 4122018 4061074
2645.87 4030468 3960098 3934230 3969636 4046408 4075200
2648.77 4052102 4052580 4069306 4060560 4014162 4004420
2651.66 4108090 4175104 4107562 3943770 3830938 3810134
2654.55 3764654 3667528 3576518 3483200 3362276 3219792
2657.44 3128888 3107596 3082242 3051592 3017326 2926006
2660.34 2826670 2733430 2623550 2533414 2461482 2391060
2663.23 2357286 2323582 2291418 2235250 2135084 2059674
2666.12 2067546 2079986 2023410 1932668 1839162 1740468
2669.01 1709396 1696132 1693488 1788216 1914014 2087508
2671.91 2656978 3309216 3020382 2136586 1646404 1475856
2674.80 1378688 1334572 1337356 1341576 1288414 1200868
2677.69 1171228 1179278 1226840 1327736 1381854 1320638
2680.59 1237014 1194826 1182292 1114050 1027692 1040254
2683.48 1094888 1132816 1170896 1132776 1066168 1043630
2686.37 1022454 956990 933974 1035622 1131334 1090968
2689.26 1010852 962590 936524 930568 965036 1015606
2692.16 985714 903980 907772 944318 936710 919684
2695.05 951602 1014930 1050022 1025898 1021940 1072784
2697.94 1133290 1148188 1118348 1127922 1198932 1216220
2700.83 1220506 1255900 1247686 1270754 1418334 1522174
2703.73 1492792 1468690 1568814 1716950 1778400 1726178
2706.62 1704876 1771618 1858052 1929302 2030352 2145640
2709.51 2264660 2399484 2534050 2684334 2858488 2947810
2712.41 3024614 3173088 3325432 3484060 3681804 3867020
2715.30 3964930 3987616 4006724 4023002 4068920 4133530
2718.19 4170314 4245618 4376120 4445522 4447892 4485926
2721.08 4465664 4339432 4281338 4343678 4461456 4482316
2723.98 4348322 4225188 4182220 4208230 4271160 4248706
2726.87 4182624 4247550 4530860 5032802 5743336 6796578
2729.76 8403988 10032540 10132010 8585706 6892790 5552984
2732.65 4671658 4273292 4159720 4224320 4451470 4779064
2735.55 5088080 5250504 5391092 5654556 5987594 6296746
2738.44 6523520 6692338 6878318 7057934 7228474 7379048
2741.33 7482468 7500388 7440828 7346738 7288406 7348080
2744.23 7650894 8113286 8455252 8578226 8550344 8411212
2747.12 8223232 8011802 7890654 7930306 7971614 7915780
2750.01 7864492 7784450 7691204 7679992 7679972 7620908
2752.90 7590622 7603500 7654308 7762610 7924018 8066296
2755.80 8166880 8240988 8378808 8665054 8976982 9171498
2758.69 9337564 9426024 9403314 9430994 9561468 9757202
2761.58 9986906 10126570 10220990 10361950 10510700 10627780
2764.47 10740770 10844440 10981720 11173280 11431160 11832030
2767.37 12582800 13870380 15773100 18116540 20405080 22571420
2770.26 24519440 24315840 21639500 18444680 15376110 13491870
2773.15 13340090 14034700 14767410 15161220 15356060 15561590
2776.05 15871170 16259800 16613780 16957660 17343490 17693160
2778.94 17955990 18216320 18598340 18947440 19184840 19410500
2781.83 19680620 19958020 20218890 20518370 20933160 21459030
2784.72 21887460 22117990 22280330 22392920 22514340 22700780
2787.62 23042900 23555700 24008280 24176580 24165150 24182870
2790.51 24241370 24313460 24386010 24479060 24636460 24802980
2793.40 24975100 25124650 25212700 25240390 25210000 25145120
2796.29 25107510 25099180 24986610 24725370 24512920 24290880
2799.19 24032810 23888060 23802440 23638030 23471620 23391290
2802.08 23303720 23191310 23110770 23016450 22916860 22778220
2804.97 22928090 23792740 25162210 26358100 27821610 30690220
2807.87 34087460 35499250 35730430 38297260 39716080 33538870
2810.76 24722200 20376220 19477360 19555650 19802500 19988990
2813.65 20142840 20301490 20390880 20356960 20279990 20181680
2816.54 19896820 19554440 19490360 19635940 19804080 19917710
2819.44 19982580 20001290 19873050 19579010 19360520 19236240
2822.33 19081350 18972980 19236700 19997900 20614190 20526590
2825.22 20040760 19549690 19119910 18760200 18496200 18419890
2828.11 18858060 19715260 20725330 22089390 23193820 22420280
2831.01 20270250 18699690 17978230 17629900 17554650 17738850
2833.90 18036780 18368350 18772470 19092270 19250210 19337360
2836.79 19441190 19616490 19863460 20158070 20594160 21138680
2839.69 21513260 21572810 21585830 21855910 22314930 22685730
2842.58 22930800 23120800 23327780 23569160 23823200 24066770
2845.47 24313410 24534270 24721460 24978410 25291600 25604830
2848.36 25932710 26140640 26323090 26661330 27077300 27343730
2851.26 27547220 28085240 28999590 30146050 31417480 32690670
2854.15 34024400 35257920 36247500 36634350 35867240 34765110
2857.04 34444250 34810580 35533220 36450090 37531650 38747560
2859.93 40020750 41562630 43572400 45757280 47880810 49949720
2862.83 52153770 54617480 57208320 59832450 62625420 66047660
2865.72 72282210 82977110 90116230 86223380 78510190 74719540
2868.61 74445570 75027080 75550230 76156810 76783280 77235510
2871.51 77459420 77330860 76847340 76192000 75819540 75670340
2874.40 75543420 75719950 76338940 77411740 80160460 86289950
2877.29 95646420 102822500 101041200 92559790 85379950 81995650
2880.18 80400950 79403340 78921170 79114770 80370100 82286920
2883.08 84486660 87352990 91310280 97236940 107849500 128444100
2885.97 149304900 148315000 134358300 124415300 116220000 109976600
2888.86 107737300 108041400 109268700 111016300 113336100 116340800
2891.75 120111900 124349100 128151400 130923500 133291000 135570400
2894.65 137567100 139944100 143163800 146736600 150218400 153619400
2897.54 156795300 159863700 163197500 167204100 171666500 176363500
2900.43 180765300 183981500 186384300 189119200 192411000 195025900
2903.32 196181400 197114100 198124700 197970200 196705400 195144200
2906.22 193641500 192183200 191273700 191338300 191895900 191995000
2909.11 191598600 191874100 193617000 197042000 202949400 211078300
2912.00 219126300 226150200 233774500 242502400 251234800 258926600
2914.90 265182900 271242900 278385100 285315900 290383600 292591600
2917.79 294427500 300153000 307841500 313442000 317227600 320639300
2920.68 324136200 327712200 331527700 335764300 340722800 346877600
2923.57 354330700 362058600 368038000 369762300 367629400 366962300
2926.47 372502500 384932600 403842900 423776400 426820900 404108000
2929.36 376002800 363316900 363843700 367679600 369953100 370825300
2932.25 371765500 372851400 373459400 373183300 372662600 372008100
2935.14 371195300 370610700 370937900 373427700 377973500 382871800
2938.04 388225600 396605800 411763200 436729000 471746500 511694800
2940.93 542837100 534678500 478867500 417697000 381601200 366085500
2943.82 361152600 361470300 364264400 368977400 375529400 382762800
2946.72 390219800 398527100 407969500 418463300 429354200 439280400
2949.61 447262800 453490700 458526500 462596800 465555900 467519700
2952.50 468800500 469752900 470422900 470862700 471296500 471757200
2955.39 472149700 472642400 473023500 473027600 473421100 474341900
2958.29 474718600 474560300 474834600 476088000 477716900 479336600
2961.18 481843100 486324800 491899400 496854700 501512900 506758500
2964.07 512722800 519345600 527112900 536146700 546559700 557609000
2966.96 568480600 579706800 590398900 599530900 606874900 611784500
2969.86 613720800 612480800 607992100 600477000 590299800 577683700
2972.75 564718900 555557100 554141600 560634100 570837800 584758000
2975.64 606103200 633734300 663249700 690574700 713740700 732528600
2978.54 747565200 760918400 774160900 786839300 797808300 807802900
2981.43 818308000 830981400 848602600 867129200 874357300 869450700
2984.32 863403100 861333800 861698200 862720200 864689600 868481700
2987.21 873164900 876600400 878850000 881045900 883893200 887675800
2990.11 892484900 898085600 904557600 913419400 925698200 939160600
2993.00 949175000 950360400 944870000 941163600 935531900 914069400
2995.89 882185600 862318500 866276600 893259500 941522100 1017751000
2998.78 1132184000 1282437000 1442846000 1551786000 1527359000 1348535000
3001.68 1117015000 954981200 874291900 821430900 779140900 760382500
3004.57 758468700 761279200 766825500 772697400 776492400 778400500
3007.46 778715600 776986400 773559000 768309200 760871500 752834400
3010.36 745792100 739179200 731838300 724548700 719859000 718147300
3013.25 718115700 718950200 718817200 716455900 712160600 706056400
3016.14 698645000 690230000 681143200 672321300 664219700 656253400
3019.03 648563300 641748900 635260200 628952800 622587300 616071400
3021.93 609882000 604035800 598917800 594289300 589678300 584917600
3024.82 579854300 575021800 570770900 567040400 563746700 560834000
3027.71 558144100 555157300 551873200 548605300 545667900 543167700
3030.60 540769200 538317100 536041600 534167200 532850700 531910600
3033.50 531132600 530354700 530035000 530472000 531199900 532184000
3036.39 534059700 536050100 536268000 532355300 523498800 513456100
3039.28 505647400 499248600 492165800 483432300 473636900 462668100
3042.18 450944600 438849700 426854900 415354600 402890900 390853000
3045.07 383558500 383192100 390236500 406328800 434573100 483347100
3047.96 581708500 778495500 1082787000 1368772000 1410647000 1093617000
3050.85 634744700 357380800 278753000 270333100 279943900 295412600
3053.75 312891200 330773200 347754000 362902000 375312300 385358000
3056.64 393219500 398834000 402660900 405238600 406769100 407337100
3059.53 406825400 405124000 402200700 398762700 394786700 389609900
3062.42 383256300 376494100 369411000 361475100 352947600 344483300
3065.32 335918400 327067400 318012700 308929100 299906600 291024800
3068.21 282103600 273286400 264485800 255541700 246733100 238318100
3071.10 230256000 222511200 214725200 206941400 199333200 191961500
3074.00 184857500 178124000 171754900 165498300 159106200 152674800
3076.89 146468800 140752400 135256500 129778700 124401800 119307700
3079.78 114743900 110698800 106609600 102197900 97624360 93104210
3082.67 88730780 84613940 80731030 76937390 73356390 70098580
3085.57 66940520 63784820 60633870 57691360 54914870 52243560
3088.46 49602940 47106280 44851460 42665370 40434140 38244620
3091.35 36183440 34402490 32780780 31245890 29853760 28457680
3094.24 26979890 25597280 24405940 23421820 22419250 21378420
3097.14 20442160 19562330 18688950 17925900 17249120 16671140
3100.03 16157900 15555180 14873120 14227410 13640930 13217450
3102.92 12904790 12523610 12082800 11702820 11370400 11116830
3105.82 10866220 10518430 10147880 9905704 9789490 9703252
3108.71 9550386 9450988 9338044 9121960 8869650 8684138
3111.60 8623022 8578882 8507254 8525518 8482350 8362392
3114.49 8333394 8372704 8334490 8280258 8296040 8366588
3117.39 8431358 8511462 8548960 8508042 8422436 8376964
3120.28 8430534 8524120 8562798 8520468 8418044 8356870
3123.17 8366720 8462124 8564656 8556272 8481948 8528414
3126.06 8613358 8653910 8680508 8750602 8872868 8915176
3128.96 8924164 9033250 9123836 9167974 9148504 9096028
3131.85 9126524 9266568 9356472 9344030 9430978 9661840
3134.74 9809824 9871282 9953408 10029760 10009450 9964228
3137.64 9996192 10029080 10053400 10106610 10165550 10324620
3140.53 10484480 10521450 10569130 10759150 10993230 11305160
3143.42 11765020 12393730 13086280 13621550 13758030 13357860
3146.31 12663710 12095300 11810740 11707800 11655790 11709730
3149.21 11890940 12092050 12211770 12329160 12497830 12676950
3152.10 12787540 12902640 13099100 13215370 13250130 13438630
3154.99 13629360 13658020 13768210 14022710 14265840 14591510
3157.88 15019980 15420740 15722460 16000520 16354190 16736140
3160.78 17041810 17369880 17749490 18071430 18072430 17455770
3163.67 16450010 15603980 15179490 15036050 14863410 14702070
3166.56 14633320 14536630 14418760 14432880 14475240 14379230
3169.46 14199210 14039020 14007780 14121450 14193720 14264870
3172.35 14574080 15305430 16801850 19665030 23009390 23575970
3175.24 20584250 17285760 15456130 14561910 14152320 13973130
3178.13 13755850 13364020 12903930 12638650 12576930 12499630
3181.03 12305030 12152130 12192950 12314780 12332400 12261490
3183.92 12147970 12021020 11823820 11659580 11640540 11659080
3186.81 11566150 11391960 11202620 10977700 10758720 10635520
3189.70 10553630 10448880 10200560 9887238 9650400 9416086
3192.60 9152406 8905954 8605738 8312580 8154806 8020460
3195.49 7744396 7459556 7304958 7203280 7006076 6711488
3198.38 6436748 6250888 6044266 5796854 5585758 5410540
3201.27 5207052 4912294 4645640 4487068 4373308 4265580
3204.17 4115264 3970294 3847218 3785958 3750382 3639536
3207.06 3481504 3343708 3260326 3185984 3039012 2877264
3209.95 2730242 2614356 2614262 2604828 2486550 2324048
3212.85 2157692 2102710 2069964 1975624 1910412 1927420
3215.74 1877680 1705578 1542858 1556158 1614760 1502816
3218.63 1402698 1436656 1550212 1559756 1379650 1256814
3221.52 1196272 1191794 1214680 1148826 1051316 1075712
3224.42 1213550 1268432 1191048 1097482 1020152 1002698
3227.31 983196 937306 942446 1066804 1170604 1080438
3230.20 952058 924588 934552 885386 738326 726492
3233.09 772434 707614 697960 788514 797982 727822
3235.99 794916 915112 876628 746110 665486 702302
3238.88 757946 740830 691024 645236 600190 573950
3241.77 549648 556614 671190 772962 694364 586900
3244.67 616580 710360 773244 749434 706762 765826
3247.56 728888 608930 687442 899022 944152 837026
3250.45 717036 642678 695864 772380 787292 838770
3253.34 874140 812142 735574 718934 681430 695842
3256.24 739032 744196 790148 800006 671316 644740
3259.13 822866 837310 702356 750656 832500 788826
3262.02 708532 698336 753092 742004 691110 724064
3264.91 801000 816318 827766 943476 1007916 864576
3267.81 691970 711938 758184 765300 740882 653922
3270.70 657444 704202 665882 657606 700214 730420
3273.59 678824 573692 559436 701006 857612 942098
3276.49 979902 995778 1028952 1078066 1080166 1031178
3279.38 962810 869956 932748 1163140 1158146 893596
3282.27 756944 859332 966808 1017218 1044444 969858
3285.16 918588 984998 993212 896024 846534 918016
3288.06 975108 1015264 1075458 1088550 1081028 1065790
3290.95 1058936 1136018 1266106 1325684 1288038 1265352
3293.84 1143222 977110 988008 1144588 1213498 1168492
3296.73 1139122 1161804 1203920 1221022 1134952 1023576
3299.63 1006924 1018570 1027580 1020840 944330 915524
3302.52 992762 1090394 1074462 1023398 1100846 1182656
3305.41 1095214 978370 1051334 1168344 1180292 1183256
3308.31 1212886 1252974 1329076 1321986 1281046 1356222
3311.20 1343182 1242406 1253326 1413008 1531290 1533246
3314.09 1545620 1530960 1512024 1665168 1860958 2023348
3316.98 2124390 2070360 2024850 2141068 2247434 2339452
3319.88 2437968 2413004 2409106 2530068 2725262 2973906
3322.77 3152760 3211666 3313780 3441388 3403520 3384756
3325.66 3503122 3600754 3775418 4068584 4245840 4207962
3328.55 4094236 4140910 4258696 4283938 4273204 4312524
3331.45 4361076 4303064 4148608 4011350 4035558 4159380
3334.34 4226872 4254750 4241868 4172036 4123552 4047920
3337.23 4032162 4199096 4491700 4985806 5618828 6259428
3340.13 6868750 7186964 6926486 6090236 5026706 4312548
3343.02 4056412 3902956 3843544 3929528 3999952 4069246
3345.91 4143956 4165346 4205210 4353250 4556714 4720586
3348.80 4829512 4995786 5201436 5277810 5221756 5183046
3351.70 5338868 5637772 5705172 5602654 5593284 5559544
3354.59 5386106 5249636 5254472 5216312 5061050 4961848
3357.48 4996358 5051544 4935404 4712222 4600264 4605152
3360.37 4655744 4716224 4630296 4458960 4312320 4157236
3363.27 3963628 3891450 4029626 4086116 3935844 3828210
3366.16 3779562 3698660 3640904 3657148 3686642 3643178
3369.05 3652216 3749156 3746146 3690724 3715328 3781558
3371.95 3813382 3806318 3858306 3997088 4028430 3898706
3374.84 3832246 3861432 3862618 3840826 3813826 3769120
3377.73 3690114 3591592 3627082 3828926 3958160 3875620
3380.62 3713624 3664942 3710278 3680616 3608350 3776050
3383.52 4171048 4445192 4470654 4521896 4651046 4622736
3386.41 4437168 4338328 4232614 4041054 3950130 3910790
3389.30 3859364 3786674 3656236 3527474 3544548 3747694
3392.19 3958582 4098446 4268526 4512918 4712316 4788572
3395.09 4722398 4525290 4300916 4180232 4078646 4052468
3397.98 4109116 4076420 4034672 4120150 4219166 4269790
3400.87 4299390 4286826 4278344 4313658 4288100 4167132
3403.77 4003482 3830468 3698842 3672550 3715280 3743778
3406.66 3666690 3500186 3470394 3672138 3839666 3947030
3409.55 4041406 4069956 3987560 3765296 3581456 3526550
3412.44 3405390 3216336 3179410 3281530 3307056 3375144
3415.34 3563182 3627246 3464272 3216734 2993326 2871656
3418.23 2793078 2645056 2473872 2431932 2523102 2616878
3421.12 2615642 2530432 2459798 2407704 2405256 2491068
3424.01 2496568 2544468 2602414 2522638 2475692 2464322
3426.91 2447140 2469638 2375580 2271656 2304934 2392978
3429.80 2471030 2470742 2270598 1988916 1946178 2020080
3432.69 1975290 1901708 1875508 1873828 1905590 1977702
3435.59 2035790 2000240 1859572 1702068 1691164 1736948
3438.48 1662090 1609380 1632088 1633748 1643700 1671362
3441.37 1634152 1653436 1825680 1934718 1875438 1763756
3444.26 1678284 1645464 1664444 1703262 1795620 1962034
3447.16 1907024 1671952 1588602 1653810 1616614 1574444
3450.05 1650800 1668498 1627998 1619040 1592848 1525108
3452.94 1436456 1363916 1377268 1387164 1274998 1157792
3455.83 1075674 1015986 1057926 1193956 1258972 1252112
3458.73 1467798 1866506 2122572 2256152 2214772 2028798
3461.62 1892928 1759394 1597830 1529114 1529690 1392658
3464.51 1179522 1091542 1025740 1066318 1274768 1362296
3467.40 1249924 1165028 1226108 1377632 1444528 1442414
3470.30 1405598 1338612 1217054 1073182 1064280 1127102
3473.19 1088314 1037698 1115204 1211978 1205964 1090372
3476.08 1014894 1128570 1243864 1145060 1046586 1032398
3478.98 1028046 1021942 901254 749664 729046 880854
3481.87 1008536 940060 800254 742518 709154 588980
3484.76 488006 495440 490986 477590 537184 621148
3487.65 645292 642446 621730 584114 524868 541040
3490.55 597422 520672 406628 426016 497316 425518
3493.44 321670 470742 697320 763916 817238 828816
3496.33 723798 613610 537256 521084 525574 507474
3499.22 462836 444168 466030 537152 613034 660836
3502.12 756292 791374 615780 391358 308582 262168
3505.01 216854 357096 524530 524540 477522 495410
3507.90 670384 881938 883228 700552 521824 514534
3510.80 535482 427730 482226 728046 722218 499602
3513.69 468396 591436 606572 604486 695902 784776
3516.58 757086 645346 528022 507248 554600 608710
3519.47 659916 640886 638564 715448 684936 576134
3522.37 655360 902362 1001412 861116 726058 771910
3525.26 805478 806596 871020 758244 539814 592522
3528.15 794798 852288 727866 607094 599176 745992
3531.04 835274 706152 649040 701596 678976 691940
3533.94 756894 732746 611378 584938 683740 743826
3536.83 753298 789562 842272 818422 751222 794076
3539.72 851700 922054 948034 804770 640204 548092
3542.62 539162 673588 759218 781796 836764 755382
3545.51 591818 643956 704736 547082 565410 746210
3548.40 736720 675784 673616 754982 875396 910014
3551.29 912994 909744 792678 733730 760008 717790
3554.19 663320 641720 647630 705598 781610 835410
3557.08 807048 778010 782922 778116 756586 692926
3559.97 717040 802458 769872 689718 624588 592206
3562.86 613408 714786 862364 894528 926710 1092702
3565.76 1275160 1356818 1253678 1263470 1304292 977308
3568.65 571588 473164 605020 700814 778466 837252
3571.54 776192 649078 565318 581642 654190 707768
3574.44 671612 635254 683366 711974 678196 652120
3577.33 605810 608146 721294 850780 925704 870338
3580.22 779042 788424 751388 656960 635640 735398
3583.11 794600 728540 702348 789288 865046 1027418
3586.01 1370158 1365424 1034788 992032 1355588 1370628
3588.90 793162 490282 570900 676762 732744 803738
3591.79 863678 828528 822910 859688 865536 939518
3594.68 1110990 1149274 1012490 886108 794274 777114
3597.58 827862 840658 779910 718930 725318 817894
3600.47 880542 855686 871168 883782 848768 783432
3603.36 652250 602868 659278 735568 828892 948192
3606.26 1137494 1232712 1054884 933008 1461406 2174102
3609.15 1845254 1079792 835022 867790 1011458 1415182
3612.04 1750576 1486386 1047186 994032 1098272 1071920
3614.93 950232 838816 784276 890010 1247972 1445834
3617.83 1291098 1364490 1925120 2096876 1440918 965924
3620.72 911658 816560 731322 844814 1020368 1107836
3623.61 1131918 1137068 1077758 1065572 1092018 953146
3626.50 803538 1184694 2222666 2768744 2703610 3152652
3629.40 2857342 1676272 1103824 1032308 1046580 1063690
3632.29 1090194 1258202 1441818 1365242 1233910 1220720
3635.18 1164580 1065108 1072538 1168704 1297606 1414962
3638.08 1366948 1272314 1253140 1259846 1295134 1274218
3640.97 1190280 1191148 1213272 1224038 1289508 1333092
3643.86 1330990 1382636 1498636 1640700 1835704 2249590
3646.75 2628978 2401216 2007992 2704058 3863610 3509980
3649.65 2645656 2701206 2820152 2431554 1902928 1735464
3652.54 1772262 1816316 1872858 1849988 1771372 2117010
3655.43 3102016 3487204 2692276 2077500 1983470 1993360
3658.32 2065532 2072156 2003960 2040500 2168800 2290114
3661.22 2362280 2294370 2196846 2282280 2385796 2380448
3664.11 2322446 2328524 2397864 2450894 2471904 2529712
3667.00 2598836 2872506 3499996 3749560 3393664 3677332
3669.90 5143122 5721732 4302718 3064262 2797110 2875492
3672.79 3011938 3164602 3733638 4617430 5085146 5669464
3675.68 5717934 4419038 3485104 3311364 3232976 3354996
3678.57 3632826 3682242 3485552 3383920 3338928 3292378
3681.47 3238686 3196062 3189122 3194992 3268756 3326280
3684.36 3331030 3400246 3489642 3560002 3595814 3721260
3687.25 4720342 6558860 6644302 4954570 4014160 3909530
3690.14 4127728 4553956 4487750 3938362 3578786 3481448
3693.04 3478856 3488920 3450334 3453436 3546592 3624108
3695.93 3702190 3772806 3783990 3787652 3736768 3630490
3698.82 3579562 3580826 3576198 3649032 3994692 4355570
3701.72 4177676 3766414 3598202 3600156 3623902 3628394
3704.61 3653892 3681404 3741056 3803182 3762266 3738350
3707.50 3801048 4000166 4542420 4847488 4362250 3979532
3710.39 4095910 4609126 5802016 6288146 5236090 4312608
3713.29 4121248 4190622 4295132 4251530 4230914 4339766
3716.18 4364532 4418336 4546280 4650330 4735638 4767864
3719.07 4716850 4614746 4541538 4612360 4873110 5339616
3721.96 5539188 5297020 5025910 4960702 5120690 5322980
3724.86 5291510 5336934 5826190 6035602 5750314 5658146
3727.75 5738022 5792158 5867032 5984662 6041828 6074728
3730.64 6317818 7261540 8213434 7813346 6891610 6634034
3733.54 6968416 7658966 8155946 8030610 8030774 8786474
3736.43 8880258 8013646 7660916 7822232 7828198 7718798
3739.32 7683606 7797430 8046510 8092936 7816468 7693494
3742.21 7873756 8395448 9779760 12246560 13582480 11745530
3745.11 9292012 8475498 8547182 8752286 8933230 9144844
3748.00 9865520 11645950 12625520 11193780 9671090 9497956
3750.89 10390550 12457590 13401930 11876620 10497640 10200820
3753.78 10224480 10377750 10535120 10775310 11288790 11634320
3756.68 11411450 11042560 10738290 10519580 10631970 10878490
3759.57 10615390 9958650 9572952 9544530 9672060 9776986
3762.46 9746750 9508518 9259428 9284702 9513222 9809638
3765.35 9904602 9673626 9453638 9288896 9146734 9092994
3768.25 9177060 9659212 10340520 10259920 9545356 9159208
3771.14 9122208 9012622 8792702 8739468 8842640 8905626
3774.03 8898786 8849018 8759496 8759976 8786092 8645562
3776.93 8473054 8492696 8599640 8769638 9079114 8952164
3779.82 8311236 7928564 7887216 7877984 7848844 7857564
3782.71 7790614 7634024 7639738 7779836 7849250 7819568
3785.60 7694540 7618054 7573172 7416200 7251648 7233062
3788.50 7218918 7140120 7178628 7351228 7372878 7253684
3791.39 7262678 7319014 7284024 7222358 7143464 7117136
3794.28 7166442 7243406 7484386 7846512 7769876 7356204
3797.17 7169940 7176572 7146518 7047538 7036708 7284124
3800.07 8093958 9815514 10418670 8776698 7597740 7621030
3802.96 7717074 7798952 8017128 8345594 8771108 9334832
3805.85 10414890 11689090 11158460 9116960 7794384 7318372
3808.75 6946288 6550530 6326920 6319420 6418172 6512206
3811.64 6645780 6896640 7090792 7152980 7223616 7342200
3814.53 7711350 9299514 11239450 10774660 9094900 8492968
3817.42 8508830 8520184 8375648 8219778 8369460 8900140
3820.32 9214532 9217638 9123380 8452642 7786526 7560590
3823.21 7412332 7381738 7345590 7192694 7152366 7341254
3826.10 7567992 7487972 7256948 7163960 7076288 6973074
3828.99 6915708 6911286 6961530 7309514 7891450 7830412
3831.89 7199160 6894562 6891814 7063740 7568418 8235514
3834.78 8183958 7638406 7397856 7385740 8267964 9940210
3837.67 9590246 7658008 6861428 6892440 6871364 6888092
3840.57 6848032 6459790 6086286 5939494 6088084 6557780
3843.46 6697236 6278552 5855038 5681292 5760534 5928750
3846.35 5911462 5707642 5610452 5721114 5834888 5883788
3849.24 5938802 5933448 5972326 6566734 8147546 8939932
3852.14 7717828 7117008 8955990 11156500 10340650 7644704
3855.03 6225322 5960484 5983306 6179992 6126988 5794060
3857.92 5623002 5599566 5517514 5465714 5584950 5717130
3860.81 5984834 6279366 6054476 5695090 5666032 5859806
3863.71 6277952 6969272 7324212 6836944 6290834 6158534
3866.60 6116370 6098066 6247744 6606720 7087198 7673876
3869.49 8188560 7625454 6604836 6325262 6336976 6354454
3872.39 6423186 6699248 7144016 7347822 7047504 6604228
3875.28 6377094 6359370 6446926 6553492 6608696 6560918
3878.17 6444360 6471564 6984194 7608170 7632738 7321642
3881.06 7040244 6879560 6873758 6955984 7098858 7204066
3883.96 7299098 7726614 8564640 8740052 7886360 7270328
3886.85 7254792 7314694 7272316 7166072 7067008 7089002
3889.74 7351904 7999628 8676318 8539632 7921610 7615482
3892.63 7588756 7652624 7648908 7431550 7064748 6846424
3895.53 6938034 7152950 7249246 7393568 7656822 7932868
3898.42 8351094 8566358 8057254 7471392 7395878 7828694
3901.31 8172484 7790110 7243080 7135452 7618404 8052472
3904.21 7645014 7101378 7001156 7035682 6915344 6741076
3907.10 6732692 6854008 6905394 6908436 6989652 7051672
3909.99 7062152 7011404 6992958 7091456 7077238 6960648
3912.88 6963264 7032114 6999662 6984038 7013550 7055454
3915.78 7095466 7246330 7443212 7294778 7112250 7194494
3918.67 7285166 7445076 7573254 7391240 7145682 7131378
3921.56 7208164 7218782 7281412 7446992 7615630 7820924
3924.45 8043728 8020496 7829578 7777702 7846406 7981066
3927.35 8037216 7983888 8023860 8189662 8215052 8128240
3930.24 8176390 8313394 8521124 8718104 8609378 8402274
3933.13 8349732 8291854 8252456 8264456 8324792 8442446
3936.03 8421790 8249722 8104754 8056504 8071666 8153286
3938.92 8510920 9165790 9980898 10761680 10895020 10228720
3941.81 9365820 8761434 8436056 8320734 8286888 8289492
3944.70 8453424 8654954 8816906 9067398 9330922 9429920
3947.60 9393234 9330168 9240742 9208578 9259496 9314336
3950.49 9402020 9524166 9529896 9514056 9633002 9579512
3953.38 9309238 9196664 9245860 9214202 9063452 8916908
3956.27 8894238 8862112 8770808 8707222 8586302 8467624
3959.17 8401978 8350136 8243750 8125964 8115174 8163642
3962.06 8111410 7969208 7874718 7886694 7891634 7753752
3964.95 7602034 7594138 7629986 7587710 7546638 7496596
3967.85 7363974 7324446 7389924 7446190 7394558 7221948
3970.74 7108118 7132536 7175288 7240926 7225962 7090626
3973.63 7064542 7123302 7093858
##END=
