##TITLE=Propylene Oxide
##JCAMP-DX=4.24
##DATA TYPE=INFRARED SPECTRUM
##CLASS=IUPAC A
##ORIGIN=NIST, Anayltical Chemistry Division, 301-975-3108
##OWNER=COPYRIGHT (C) 1998 by the U.S. Secretary of Commerce
##DATE=98/10/1
##$SPECTRA VERSION=1.00
##$UNCERTAINTY IN Y=2.1 % relative (B=1.1E-04,C=9.8E-10,D=2.7E-14)
##CAS NAME=1,2-Epoxypropane
##CAS REGISTRY NO=75-56-9
##MOLFORM=C3 H6 O
##MP=-104.4 C
##BP=34.3 C
##$NIST SOURCE=QUANT-IR
##SPECTROMETER/DATA SYSTEM=IFS66V (Bruker)
##INSTRUMENT PARAMETERS=KBr Beam splitter; MCT Detector; Multipass cell
##STATE=gas
##SAMPLE DESCRIPTION=Propylene Oxide Primary Gas Standard
##PRESSURE=101.3 kPa
##TEMPERATURE=23 C
##SAMPLING PROCEDURE=1 L/min Flow
##RESOLUTION=1.9290
##DATA PROCESSING=3-Term B-H Apodization
##XUNITS=cm-1
##YUNITS=(micromol/mol)-1m-1 (base 10)
##XFACTOR=1.0
##YFACTOR=2.2737E-13
##DELTAX=0.9645
##FIRSTX=574.687
##LASTX=3974.595
##FIRSTY=-4.18E-07
##MAXX=3973.63
##MINX=574.69
##MAXY=.0003224
##MINY=-5.82E-07
##NPOINTS=3527
##XYDATA=(X++(Y..Y))
574.69-1839198-1821162-1877886-1905848-2075572-2464876
579.51-2562334-1934724-1595982-1811862-2008020-1972006
585.29-1782762-1483222-1261290-1391462-1472244-1451556
591.08-1393354-1477612-1788512-1861978-1646252-1479560
596.86-1343608-1175672-1217634-1507826-1462978-1033252
602.65-861960-894944-870122-952676-1155142-1366230
608.44-1381246-1199478-1086890-1035128-875628-868360
614.22-987532-1039108-1081622-1138606-1144736-1251848
620.01-1307042-1197474-1167402-1056788-943560-1184974
625.79-1396874-1319468-1138540-1184324-1540184-1736426
631.58-1604312-1449774-1436786-1573374-1636446-1603560
637.36-1592054-1658320-1631312-1419614-1298544-1318598
643.15-1204840-1074074-1237348-1601118-1738128-1573960
648.93-1401854-1481522-1665294-1705248-1556314-1454846
654.72-1426672-1357608-1257214-1260448-1389248-1535144
660.50-1516980-1435548-1491118-1585052-1561274-1514592
666.29-1526898-1546176-1378574-1211182-1226672-1180896
672.08-1043786-1076692-1280812-1419758-1343188-1226632
677.86-1074342-971358-1031758-1140298-1199234-1304176
683.65-1353722-1224356-1006874-953438-1058712-1040892
689.43-877886-852874-778158-443784-246444-412470
695.22-436706-304914-216770-154372-68012-22278
701.00 27142 166934 394742 564198 756464 981840
706.79 1315764 1899242 2540904 2671378 2496270 2641836
712.57 3077250 3528326 4031570 4636546 5334264 6007250
718.36 6790376 7724474 8621832 9472126 10388900 11419060
724.14 12733130 14264400 16035240 18214020 20639730 23074010
729.93 25512620 28052540 30955050 33987780 37403780 41598990
735.71 46467160 51614700 56741960 61755890 66729200 71760560
741.50 76875900 81736040 86048550 89666890 92752270 95317650
747.29 97331270 98947100 100801100 103314400 105686600 108247800
753.07 113913900 122389100 132587600 136752100 122363200 101991500
758.86 94400690 99105800 109667800 120632400 130136800 138775900
764.64 146984100 154311900 160135600 163583000 164313100 162515600
770.43 158260000 151893200 144043000 134666200 124168800 113259100
776.21 102761600 94138420 87575550 80349430 73125580 67273800
782.00 61779990 57299520 54338840 52248680 50892210 50269730
787.78 50377500 50957920 52055310 53665670 55729640 58028860
793.57 60766260 64128700 68024460 72377690 77532100 83521660
799.35 90313880 97886780 106664400 116606100 127670400 140001500
805.14 153850000 168820500 185012800 202851000 222618400 244136600
810.93 267457700 292453200 319101400 347210300 376989300 407888500
816.71 439434000 471387100 503915700 535758800 565222000 591626900
822.50 614674400 633072700 646333900 654338600 657185800 654479000
828.28 646471400 630910200 602854300 563843900 535698600 555081300
834.07 651026600 816797100 900177500 745233700 561145600 544861800
839.85 594898900 630962200 648686100 655427700 659418600 661787800
845.64 660243400 653716600 640839400 621460900 595786600 564830300
851.42 529829500 492180400 453058400 414196000 376507200 341119500
857.21 308450300 278400800 251100400 226863000 205155500 186149900
862.99 169529700 154811400 141796000 130533400 120545500 111691900
868.78 103721200 96649990 90285780 84629040 79589280 75186030
874.57 71279900 68008250 65133860 62583160 60360430 58552580
880.35 56965460 55664650 54523460 53628710 52941380 52459830
886.14 51962480 51338450 50194210 48194690 45114090 42408770
891.92 45679170 53610600 53238140 46263700 42489780 43090680
897.71 45380440 47642700 49328740 50253100 50759010 51143420
903.49 51226210 50987610 50838220 50917500 50909680 50867660
909.28 50889460 50936110 50833400 50606950 50395990 50359740
915.06 50525920 50926420 51595910 52565960 53753790 55336990
920.85 57343620 59695160 62370370 65377090 68678080 72190650
926.63 75850980 79988570 84524040 89154470 93982160 99146880
932.42 104595600 110460500 116718300 123220100 129849400 136623400
938.21 143247500 149563100 155648200 161481500 167112600 172694800
943.99 177884700 182459400 186697200 191083400 194945800 196880500
949.78 195651900 190405700 181762500 172259100 161380700 146793900
955.56 141512900 157463200 178353300 191535000 202534700 210616000
961.35 212101000 209914400 205797800 200149000 194649300 189549200
967.13 184128900 178281800 171659800 164266500 156583200 148793800
972.92 140884300 132993000 125407800 118399000 111879200 105829300
978.70 100361600 95481310 90878070 86424750 82300140 78669000
984.49 75517840 72802180 70419930 68449370 66860370 65646840
990.27 64888120 64552680 64586130 65180950 66327080 67917310
996.06 69909110 72331760 75125220 78352780 81919060 85730230
1001.85 89844390 94161150 98421630 102651100 106937200 111139300
1007.63 115152900 119027700 122721600 126336900 130031400 133976400
1013.42 138059400 141827200 144280900 143944800 139396500 130129900
1019.20 117106800 106062300 104316400 106094000 103967500 110017600
1024.99 128078600 144485600 152409000 153121900 149468800 143975400
1030.77 138041900 132189600 126644700 121466600 116563100 111686200
1036.56 106594500 101426500 96334910 91297630 86337640 81453220
1042.34 76677460 72140090 67753930 63354730 59120050 55232530
1048.13 51472650 47755020 44246260 40917670 37684940 34654290
1053.91 31879110 29301690 26881760 24636700 22575050 20699560
1059.70 19034460 17569980 16292050 15262980 14506860 13977210
1065.48 13567860 13268010 13170570 13326010 13650840 14064160
1071.27 14598460 15362530 16289420 17353580 18623750 20081940
1077.06 21650410 23330230 25184840 27262700 29460970 31593870
1082.84 33756650 36151420 38710570 41296830 43955500 46760760
1088.63 49588560 52415330 55344330 58359320 61427770 64556990
1094.41 67636820 70771370 74176290 77696500 81045970 84062220
1100.20 86723750 89374720 91643610 91720990 91933700 98107560
1105.98 109003800 113371800 108265200 110394500 123913300 136906700
1111.77 144536700 146570300 144720800 142067000 139923200 137875600
1117.55 135597000 133444300 132185800 131778300 131359400 131213900
1123.34 132009800 132545300 131226800 128773500 127326600 127374300
1129.12 128679300 135823600 150609700 150302300 126733600 107323100
1134.91 101429700 101191100 102164300 102357000 99612880 93201700
1140.70 87010070 86632710 98185300 110428200 103056000 84720580
1146.48 74572400 73953900 74873260 74676840 73007170 70198270
1152.27 68731970 68754700 69239140 70595760 73555070 76134100
1158.05 73448940 66731860 61608590 58462960 55507130 52476720
1163.84 49207010 45743310 42507450 40088600 38607360 37072780
1169.62 35059800 33154720 31278210 29283370 27206460 25135130
1175.41 23158520 21345930 19664490 18090390 16660170 15454740
1181.19 14441020 13591150 12746630 11961360 11325760 10793870
1186.98 10493800 10396830 9864338 9026866 8386836 7937800
1192.76 7551630 7180568 6855402 6610854 6388844 6307400
1198.55 6346360 6538294 7133514 7618722 7001610 5811286
1204.34 5256996 5614098 6168838 6044372 5630694 5645784
1210.12 5855544 6069236 6243308 6398466 6563252 6736898
1215.91 6878800 6995858 7132838 7486956 8255508 9492788
1221.69 10264610 9916008 9714736 10315810 11151960 12161680
1227.48 13378450 14739530 16196160 17808330 19411200 21001640
1233.26 22736400 24600460 26515790 28581550 30756450 33023410
1239.05 35436980 37980000 40565440 43302580 46221530 49414580
1244.83 52845120 56295970 59928660 64129640 67730020 69969280
1250.62 72118920 74657890 77066670 79212820 80911800 82551860
1256.40 84671560 86978540 88589580 89755210 90177880 87487500
1262.19 80944340 75465060 86902740 111262700 108626800 84815380
1267.98 76079080 79979140 84663300 88052820 89714760 89575390
1273.76 88211250 86252660 84144780 81899020 79456180 76775220
1279.55 73922050 70854060 67553060 64094920 60637480 57211760
1285.33 53847230 50576200 47436520 44372860 41440070 38700650
1291.12 36171380 33800220 31548830 29377940 27314180 25378800
1296.90 23549320 21753600 20015200 18387050 16878190 15433580
1302.69 14134910 13072620 12185340 11255870 10330870 9579902
1308.47 8974666 8438434 7960140 7498638 7049308 6660812
1314.26 6343428 6070922 5854990 5709128 5614120 5533502
1320.04 5511922 5473376 5342084 5266842 5306442 5323796
1325.83 5395606 5582596 5859094 6227534 6665506 7059598
1331.61 7381294 7767448 8281596 8890454 9535830 10186250
1337.40 10967140 11868970 12708110 13520550 14451550 15440660
1343.19 16444740 17495450 18637550 19898280 21288200 22845010
1348.97 24613770 26510630 28026080 29056320 30232670 31731680
1354.76 33337750 34994010 36657350 38162610 39417740 40439730
1360.54 41279250 42245780 43727870 45074020 45024160 44601110
1366.33 44940570 45881920 50673840 68248340 106438900 132980600
1372.11 105804200 62918420 49113450 52804500 59031250 64063770
1377.90 67915980 71601910 75630210 80103220 85470880 92131460
1383.68 100510600 111034300 124465000 141291200 160174600 177496900
1389.47 193198600 210944000 231796500 254045700 276114800 296518100
1395.25 314738400 330715900 342929800 346989300 341514200 330547400
1401.04 316871200 300260500 282150300 266020800 256932600 262309400
1406.83 294231300 375540400 519078500 658585200 625150800 390531600
1412.61 201507900 171763200 203406100 242870600 283203000 321308400
1418.40 354272500 379515600 396655000 406083100 407368300 400723400
1424.18 387021000 368018100 345317900 320331800 294170500 268828800
1429.97 247404700 229428600 210620400 192378400 178042900 167857700
1435.75 160189800 153539900 148323800 145239600 144041900 144503300
1441.54 145461600 145710200 144209400 140233200 133863300 126646000
1447.32 123226400 124570300 121801900 117915900 121883400 129580200
1453.11 135430000 137581000 136585300 133592300 130283200 131056300
1458.89 141445700 169259400 195120900 185104300 166219300 163401400
1464.68 154016000 141701400 138038400 137243900 138386200 142466600
1470.47 149165900 157485500 162824200 158240800 146370400 138040200
1476.25 135174800 133788800 132168600 129705500 126263000 122419400
1482.04 118474200 114852300 114026300 122552700 143583000 157812900
1487.82 145317000 121980100 106500200 97484020 93530740 94493530
1493.61 97822640 101955000 105387200 107554800 109333200 110202700
1499.39 109567600 107807800 105144100 101841200 98494090 95389980
1505.18 91776380 87062990 81597600 76589010 72779480 70403640
1510.96 68794320 66468260 64542550 64583220 63745950 58887190
1516.75 52933690 49932500 49740160 51707280 53928210 55182100
1522.53 56550680 58621090 60772920 61888360 61899620 60869770
1528.32 58626360 55595330 52291400 49238380 46620600 42893000
1534.11 37506670 32369100 28435890 26075080 24799210 22911220
1539.89 20662240 19200320 17769480 16212820 15304320 14374740
1545.68 13169610 12230330 11601970 11127350 10490190 9676918
1551.46 9137126 9330726 9512078 8744036 8278634 9160200
1557.25 10168210 10208040 9513478 8111668 7017990 6912742
1563.03 7190200 7391924 7410294 7538078 7987094 8798510
1568.82 9402594 9346964 9286246 9495500 9749512 10515450
1574.60 12047750 12575490 11637860 11129400 11173240 11175400
1580.39 11149800 11145280 11134210 11142590 11163580 11189280
1586.17 11378060 12092980 13309350 14473550 14680110 13150290
1591.96 10957570 10060320 10480600 11255910 11886910 12446450
1597.74 13107920 13823590 14452460 14896020 15078900 14948860
1603.53 14519120 13880150 13100460 12224150 11327680 10454640
1609.32 9537050 8625020 7855302 7320792 7022844 7252476
1615.10 8209868 8405670 7296062 6509916 6334858 6327364
1620.89 6516832 7010366 7210424 6822980 6546050 6708770
1626.67 6978080 6988068 6910260 7034530 7362508 7779874
1632.46 8255044 9403166 10695470 10400270 9388160 9064374
1638.24 9092588 9240636 9444378 9595360 9600938 9691318
1644.03 10402860 11275250 11502940 11767570 12169880 12377840
1649.81 12862410 14381770 15946920 15451940 13719270 12715100
1655.60 12632970 12898920 13119400 13214390 13176410 13386270
1661.38 13896520 13807600 13182540 12814710 12580380 12423290
1667.17 12602350 12974820 13029950 13080550 13241250 12644010
1672.96 12012520 12374790 12463790 11945880 11651340 11612210
1678.74 11675720 11670950 11669150 12118150 13232710 14144860
1684.53 13152540 11376480 10623080 10313280 9974332 9690350
1690.31 9427638 9236196 9129330 9550712 10967300 11509140
1696.10 10149510 9238048 10037300 11259000 10762980 9177646
1701.88 8428386 8486500 8572844 8499950 8206734 7550780
1707.67 6799316 6612652 7335462 8319026 8935714 9082064
1713.45 8977328 8923318 9547576 10544070 10285460 9121636
1719.24 8266668 7844086 7585786 7327386 6936074 6455192
1725.02 6030274 5660418 5323998 5125736 5080938 5017714
1730.81 4916980 5213022 5691482 5210044 3862862 2978422
1736.60 2806254 2956234 3180976 2932438 2435494 2269290
1742.38 2213538 2045518 1906474 1883096 1916266 1958758
1748.17 1901690 2020734 2372640 2124094 1506050 1278006
1753.95 1323948 1539506 1722162 1633842 1511130 1606476
1759.74 2030282 2483130 2390204 2115600 2109458 2249774
1765.52 2510316 2968076 3202578 3065850 3231576 3890014
1771.31 4520138 4372280 3797426 3674852 3719628 3606352
1777.09 3405760 3287836 3367812 3546252 3809694 4138860
1782.88 4384338 4457026 4229170 3980736 3919426 3975078
1788.66 4257450 4705756 5082090 5347660 4929142 3928496
1794.45 3361116 3309676 3369850 3584622 3921772 4056834
1800.24 3991368 3873090 3698554 3552178 3459712 3351852
1806.02 3191304 2964400 2729368 2608866 2487618 2242400
1811.81 1945254 1700332 1550626 1418000 1249230 1104330
1817.59 1083958 1302614 1664132 1752824 1456368 1216096
1823.38 1297612 1419050 1295526 1226542 1407598 1683218
1829.16 1764574 1580434 1446472 1435254 1453266 1506692
1834.95 1542086 1572260 1618950 1693526 1791950 1842812
1840.73 1838798 2011304 2518710 2668632 2216360 1887996
1846.52 1801134 1770876 1799844 1870656 1938112 2033640
1852.30 2167172 2329376 2548700 2814342 2974614 2661080
1858.09 2072336 1852348 1900646 1975534 2047274 2132920
1863.88 2278100 2503456 2723358 2914238 3071766 3004030
1869.66 2721450 2567816 2581976 2603490 2549162 2484118
1875.45 2455682 2434726 2403906 2420196 2476924 2523406
1881.23 2577460 2711870 2894784 3040826 3123372 3180192
1887.02 3259580 3406160 3467962 3403948 3391774 3468874
1892.80 3583644 3739882 3920850 4118736 4258244 4472498
1898.59 4753048 4602260 4293652 4360170 4606218 4743542
1904.37 4685682 4574162 4519694 4593096 4849268 5164598
1910.16 5373372 5404248 5197090 4876896 4695866 4881498
1915.94 5133212 4866068 4258500 3895376 3837268 3910482
1921.73 3942926 3853926 3699746 3484054 3247900 3098044
1927.51 3007316 2965014 2932184 2861430 2776406 2712796
1933.30 2657660 2617496 2595550 2591126 2607118 2628114
1939.09 2642844 2725462 2880840 2947184 2910438 3006450
1944.87 3279478 3596898 3876186 4134894 4416322 4738840
1950.66 5066478 5394284 5718212 6039230 6297950 6438438
1956.44 6493546 6505842 6494086 6505062 6528764 6511348
1962.23 6448126 6481514 6946538 8295832 9909590 9469338
1968.01 7043498 5593184 5626708 6068676 6668494 7236462
1973.80 7455450 7500336 7679244 8104308 8680008 8954894
1979.58 8582454 7964986 7538072 7241282 6941332 6639474
1985.37 6346344 6103334 5876862 5665606 5540192 5483472
1991.15 5389524 5225938 5034324 4865242 4758518 4769260
1996.94 4905140 5133524 5373680 5534156 5383802 5061900
2002.73 5042996 5238250 5416902 5592728 5696738 5706190
2008.51 5684108 5639814 5550290 5442912 5325930 5246808
2014.30 5198444 5182444 5254020 5522370 5843494 5825682
2020.08 5309352 4752378 4664184 5095950 5410690 5067404
2025.87 4538972 4323598 4440694 4673368 4800724 4788626
2031.65 4673152 4538044 4374972 4149724 3913416 3716192
2037.44 3510748 3258220 3001002 2782712 2557564 2314912
2043.22 2146290 2070748 1964112 1808312 1640066 1481236
2049.01 1360980 1263908 1175440 1132968 1115418 1061176
2054.79 1016448 1026538 1073064 1184380 1272614 1300258
2060.58 1316098 1291276 1290902 1378824 1501932 1614064
2066.37 1703174 1816808 1936748 2054706 2169512 2225726
2072.15 2244096 2297350 2351516 2362632 2335016 2322118
2077.94 2318730 2305024 2299084 2367302 2597070 2949040
2083.72 3043924 2710642 2410352 2408538 2482890 2464558
2089.51 2432792 2494436 2581142 2633306 2642094 2709448
2095.29 2910162 3089782 3005098 2687504 2457384 2432980
2101.08 2462120 2454058 2397562 2336116 2272564 2212290
2106.86 2162792 2122704 2091952 2062492 2025918 2039686
2112.65 2071416 2091556 2145984 2174984 2122952 2083326
2118.43 2069624 2113654 2264912 2464734 2594054 2616532
2124.22 2544618 2521090 2611434 2715902 2782310 2797244
2130.01 2857206 3025964 3238602 3490696 3793614 4142554
2135.79 4486128 4799196 5082546 5402724 5778644 6161354
2141.58 6569304 7051864 7514710 7808670 7954870 8146168
2147.36 8458164 8812630 9200520 9616838 9838042 9746228
2153.15 9627882 9741012 9970776 10428800 11251210 11517460
2158.93 11061820 10900700 11075980 11451990 12315600 13553680
2164.72 13944830 12587040 10374320 9018626 8997136 9597324
2170.50 10259040 10938700 11623630 12217640 12636840 12822420
2176.29 12787190 12583590 12168290 11492910 10646690 9824796
2182.07 9141672 8623494 8118286 7637412 7503234 7695958
2187.86 8035798 8271400 7624322 6287366 5550608 5516256
2193.64 5616886 5730782 5829036 5880830 5904282 5928718
2199.43 5931296 5901596 5837130 5770630 5806322 6162582
2205.22 6910134 7505124 6975488 5767018 5227878 5370148
2211.00 5671594 5971508 6251018 6567984 6977394 7422934
2216.79 7756272 7943562 7923412 7877976 8065060 8329780
2222.57 8418226 8410632 8528140 8765290 8967272 9021078
2228.36 8986720 9047662 9296554 9702382 10209180 10820040
2234.14 11505470 12122640 12207050 11688140 11255160 11180010
2239.93 11421330 11996500 12731240 13535900 14199720 14445950
2245.71 14623220 15020460 15560730 15940360 15698930 15136270
2251.50 14673190 14274300 13929060 13585090 13266170 13732610
2257.28 15926000 17566230 15906200 13716790 13270390 13580490
2263.07 14114970 14699420 15051590 15267190 15525140 15772490
2268.86 15944980 16019390 16036790 16097750 16079940 15709080
2274.64 15011550 14229060 13542220 13068560 12766940 12554370
2280.43 12445910 12482460 12665200 12986530 13296560 13492430
2286.21 13420930 12583830 11336000 10584510 10250300 10005090
2292.00 9815712 9670518 9477404 9240144 9140866 9137494
2297.78 8953016 8855034 8972446 8662116 8038230 7618542
2303.57 7341096 7224118 7280624 7392196 7396700 7360074
2309.35 7562822 7860330 7759234 7339214 6963520 6722782
2315.14 6551950 6400558 6256166 6127152 5972214 5776582
2320.92 5645182 5715676 6038898 6335166 5978904 5224932
2326.71 4862382 4759326 4587096 4537520 4573168 4585474
2332.50 4727110 4965322 5118764 5106302 4903712 4676202
2338.28 4586906 4639288 4687500 4540968 4328264 4214990
2344.07 4095104 3978250 3904024 3811708 3640624 3449670
2349.85 3343988 3336420 3351038 3430038 3526392 3523800
2355.64 3467124 3378334 3289528 3258842 3202128 3108146
2361.42 3015708 2865412 2682938 2615470 2590248 2504504
2367.21 2393552 2310606 2369642 2679168 3016014 2964810
2372.99 2623764 2422124 2392622 2446580 2566062 2673348
2378.78 2633028 2480792 2351580 2256344 2165258 2132634
2384.56 2148860 2181010 2203776 2200042 2196548 2232522
2390.35 2330240 2493632 2606326 2587312 2603200 2675266
2396.14 2633850 2587110 2603076 2662814 2759770 2869834
2401.92 2937256 2939898 2930180 2964646 3024996 3112610
2407.71 3191264 3182776 3132832 3128948 3163976 3270456
2413.49 3538990 3838026 3758102 3509640 3503418 3512242
2419.28 3437434 3510748 3703584 3722292 3461602 3216960
2425.06 3159212 3158408 3147416 3169170 3204128 3232760
2430.85 3251984 3178758 2979808 2834352 2803726 2804234
2436.63 2775470 2709036 2603276 2479480 2380558 2267100
2442.42 2112602 1987912 1911916 1888808 1893468 1895892
2448.20 1860498 1786828 1724976 1678186 1610636 1554550
2453.99 1526522 1515814 1491590 1451744 1417732 1429108
2459.77 1429648 1399040 1370894 1334362 1316686 1366564
2465.56 1443300 1534476 1603944 1611376 1587408 1566684
2471.35 1520556 1486154 1517820 1607278 1672922 1671622
2477.13 1644712 1595258 1510772 1466158 1500650 1604872
2482.92 1701132 1741034 1808086 1954752 2053832 2085630
2488.70 2131650 2180470 2217532 2275406 2340410 2405522
2494.49 2456498 2492138 2531242 2605860 2705262 2798684
2500.27 2896962 3123680 3528220 3770594 3510448 3155202
2506.06 3101108 3224892 3385794 3493284 3433618 3315538
2511.84 3443504 4159774 5139604 5366122 4669010 3904012
2517.63 3650766 3809972 3998670 4073522 4164598 4287366
2523.41 4381214 4522858 4694134 4882352 5015320 4909812
2529.20 4530908 4054844 3722150 3688974 3787932 3791762
2534.99 3680228 3620550 3756398 4097140 4222098 3717256
2540.77 3103682 2827882 2648900 2540262 2589972 2692082
2546.56 2715136 2713114 2777658 2856888 2867806 2837390
2552.34 2766174 2650636 2526268 2411922 2293962 2211438
2558.13 2183828 2193938 2207342 2182108 2124072 2099486
2563.91 2126620 2204746 2267026 2285038 2276008 2290184
2569.70 2381528 2485612 2556704 2628740 2649720 2638090
2575.48 2689506 2828598 2968282 3068292 3210188 3315638
2581.27 3313162 3350486 3467868 3635524 3833370 4050460
2587.05 4252812 4410276 4630676 4983056 5207738 5224204
2592.84 5240384 5323652 5464888 5628178 5770230 5875148
2598.63 5938402 6026326 6180884 6396188 6560126 6566160
2604.41 6424216 6296852 6362790 6545392 6626518 6644324
2610.20 6718750 6904326 7148586 7241358 7138306 7075446
2615.98 7070296 7003290 6841216 6643036 6515124 6510876
2621.77 6524668 6499696 6468788 6495362 6552102 6531110
2627.55 6365910 6162842 6100448 6083096 5967244 5848318
2633.34 5718858 5649616 5689110 5535040 5203850 4994120
2639.12 4916106 4872242 4805918 4692394 4532064 4320066
2644.91 4106610 3998286 3997228 4041502 4055996 4048428
2650.69 4062942 4071500 3963520 3808182 3654962 3464714
2656.48 3260500 3123520 3033532 2908426 2728916 2551578
2662.27 2414734 2319036 2212728 2111730 2034478 1922238
2668.05 1785388 1736530 1867078 2306572 2653744 2263566
2673.84 1633614 1379010 1304346 1237278 1224666 1286084
2679.62 1287438 1208032 1116766 1084852 1111604 1108004
2685.41 1044720 1002430 1028568 1043984 987456 961238
2691.19 964464 945572 929850 951358 994500 1036916
2696.98 1078548 1124056 1158284 1204912 1249206 1335096
2702.76 1445288 1544812 1656836 1736004 1803506 1950242
2708.55 2156004 2408862 2681568 2939484 3194340 3502590
2714.33 3793454 3964252 4042218 4135604 4268178 4398282
2720.12 4432556 4385612 4377040 4375872 4284856 4230942
2725.91 4247962 4477476 5343056 7140134 8726882 8126350
2731.69 6036530 4647096 4407602 4767050 5233716 5714830
2737.48 6231118 6683028 7042620 7320372 7422502 7400210
2743.26 7557322 8031216 8395648 8346202 8095478 7952984
2749.05 7888138 7790028 7692306 7639604 7654384 7805326
2754.83 8036704 8308642 8689042 9104324 9353872 9517628
2760.62 9775436 10091800 10365750 10619430 10878860 11287030
2766.40 12252820 14501950 18175040 21744330 22148930 18630790
2772.19 15053700 14277850 14970600 15632100 16262870 16966310
2777.97 17639220 18271680 18877080 19429760 19968320 20618190
2783.76 21380150 22013010 22406600 22849180 23489840 24005020
2789.54 24205520 24329090 24525750 24803770 25063020 25180530
2795.33 25149420 25011270 24709710 24299120 23930380 23642760
2801.12 23401750 23202090 23021300 23148010 24270550 26876190
2806.90 30833610 34787330 36115050 31321300 23614890 20109880
2812.69 19961650 20226600 20277810 20065020 19749470 19703660
2818.47 19852660 19865100 19594500 19282920 19315800 19861070
2824.26 20106010 19584680 18914820 18902540 19998430 21499950
2830.04 21295950 19379760 18008550 17903450 18395890 18963800
2835.83 19339250 19701890 20272830 20994210 21528660 22003670
2841.61 22584910 23121850 23580610 24062350 24524230 25031070
2847.40 25585160 26141380 26702970 27381240 28452030 30310260
2853.18 32692910 34875390 35728580 35286210 35293340 36662380
2858.97 38914380 41960840 45783800 50087860 54783020 60300870
2864.76 68737550 79178330 82189790 77748490 75445180 76135290
2870.54 76943150 76994170 76355290 75855250 76288610 79581730
2876.33 88098220 95478220 92230890 84233950 80216680 80138980
2882.11 82917700 89003790 102960500 125320800 136228300 126274600
2887.90 113717200 109630400 111766800 117093400 123971500 130365300
2893.68 135490300 140614900 146785600 153448000 160178800 167692900
2899.47 175939000 183289200 189239300 193944400 196673400 196944000
2905.25 195085400 192795600 191770500 191867700 193468200 199586900
2911.04 211509800 226541200 242462600 257815200 271598100 283495300
2916.82 292600000 301650700 311876600 320517200 328031300 336691900
2922.61 347953300 359880300 367015700 372943600 390067900 407609400
2928.40 398114400 375398800 368050700 370447100 372361800 372751400
2934.18 371980400 371853900 375389400 384537100 404514700 446187300
2939.97 495818100 495667700 434435500 380450800 365539000 370909400
2945.75 383456000 399715700 418678800 437383200 451915400 461321300
2951.54 466695800 469399300 470790700 471733700 472531600 473261100
2957.32 474056600 474923300 476638200 480440300 487361900 496781400
2963.11 507552100 520641700 537517100 557782500 578966500 597253100
2968.89 608292100 608633300 597317000 578118100 563337700 566649000
2974.68 592092300 636061400 686347100 728494500 759966200 785440300
2980.46 808614100 834057300 857732000 866273100 863892200 864105400
2986.25 869162200 875655600 881649000 888819100 899662900 916191800
2992.04 935040400 944162000 935605400 908138300 886048600 922532300
2997.82 1058373000 1278678000 1418212000 1292494000 1025326000 846508700
3003.61 778380500 765151500 771100400 776257500 774762100 766352000
3009.39 753202900 739094000 726918300 720212000 717994900 714184600
3015.18 704390900 689618600 672817300 656751900 642191600 628990000
3020.96 616340900 604725300 594386300 584811800 575546600 567596000
3026.75 560978900 554967000 548879400 543378600 538526800 534742400
3032.53 532139900 530874500 530947900 532751100 533719400 528099400
3038.32 514495900 498864400 481989000 461804600 438797000 415323400
3044.10 395933200 392627900 424764000 549630000 850743500 1127236000
3049.89 961083000 531114500 312684600 299363300 329780100 360026800
3055.67 382634800 396672400 403902500 405990700 403882800 397847000
3061.46 388467100 375861600 360916300 344295000 326886200 308958700
3067.25 291080800 273277600 255726400 238693600 222611700 207108100
3073.03 192318800 178458700 165484600 152913400 141042300 129950600
3078.82 119839600 110730400 102054000 93261020 84874470 77178310
3084.60 70261310 63846370 57880210 52338730 47314660 42679440
3090.39 38415880 34596790 31367940 28442620 25788300 23461920
3096.17 21455160 19610710 18039740 16707940 15508530 14306060
3101.96 13315270 12489430 11767110 11110740 10525970 10009920
3107.74 9694430 9419324 9103488 8771844 8596178 8489658
3113.53 8413754 8341772 8333098 8376096 8472200 8470308
3119.31 8455248 8478566 8479858 8422452 8466070 8516410
3125.10 8569406 8646592 8775888 8897236 9032144 9110718
3130.89 9161892 9244972 9411324 9627174 9855572 9964440
3136.67 10003800 10032630 10143260 10317900 10539740 10844900
3142.46 11465590 12415370 13200650 13068050 12330820 11830080
3148.24 11820500 12053880 12356940 12642620 12929990 13183390
3154.03 13441450 13701780 14082850 14658850 15361700 16034730
3159.81 16711600 17363900 17695690 17110550 15944350 15116570
3165.60 14756930 14552120 14444900 14307540 14151580 14151470
3171.38 14565030 16234040 19461120 20766890 18148150 15223550
3177.17 13994490 13334760 12797370 12456570 12289250 12255850
3182.95 12202710 11986330 11756820 11585630 11350960 10995040
3188.74 10671490 10344860 9911282 9401742 8886924 8389934
3194.53 7954526 7533982 7145068 6712826 6254468 5813320
3200.31 5385910 4933058 4542410 4244972 4000200 3795500
3206.10 3604230 3374918 3145716 2891198 2687042 2530436
3211.88 2333638 2128456 1997586 1877682 1724026 1585130
3217.67 1511172 1480080 1442344 1309916 1205448 1143842
3223.45 1146412 1170076 1110872 1012364 990660 1035692
3229.24 1037810 947456 850218 764094 739766 752884
3235.02 793668 817514 776070 723654 707778 647240
3240.81 595392 615036 668298 665206 695304 731612
3246.59 723760 726018 804002 800436 734746 753296
3252.38 811718 790986 734190 717006 747262 742344
3258.17 741588 762518 774536 758376 736014 726918
3263.95 755454 821716 887136 840414 760852 728684
3269.74 699542 675836 684302 672474 650988 731280
3275.52 894936 997502 1041432 1007666 984532 1012562
3281.31 955692 909150 969782 981102 957502 924138
3287.09 938440 1009608 1066050 1089254 1168066 1248370
3292.88 1203348 1097940 1110794 1158714 1175478 1151270
3298.66 1077586 1020376 992872 984798 1032350 1077154
3304.45 1092450 1081578 1125734 1194546 1259368 1304140
3310.23 1314456 1317200 1402982 1503382 1566296 1718550
3316.02 1946506 2071652 2170380 2311892 2432472 2613086
3321.80 2923930 3201014 3360660 3463722 3673206 3973462
3327.59 4146418 4192658 4257776 4295322 4234180 4128214
3333.38 4146804 4203648 4168080 4130340 4381034 5126022
3339.16 6145600 6607626 5888520 4692814 4049606 3958972
3344.95 4061844 4192432 4402558 4695504 4992454 5183692
3350.73 5318958 5504722 5593406 5488502 5321058 5163212
3356.52 5045342 4939782 4776958 4659636 4613348 4440328
3362.30 4174792 4015472 3966506 3854916 3728168 3669562
3368.09 3674920 3702616 3730692 3768756 3845848 3919744
3373.87 3915424 3863088 3825368 3746658 3702888 3775848
3379.66 3805792 3723818 3714088 3926028 4288742 4513044
3385.44 4513742 4329276 4095604 3911514 3756396 3657804
3391.23 3791932 4114958 4466762 4635616 4495286 4235922
3397.02 4103258 4084750 4145628 4236332 4285100 4260120
3402.80 4116384 3879066 3733388 3666970 3610698 3697514
3408.59 3901642 3953502 3775894 3510774 3320482 3291958
3414.37 3412876 3445698 3224562 2905404 2657136 2536650
3420.16 2549314 2520678 2460692 2474318 2526806 2518616
3425.94 2473606 2411958 2360654 2375840 2324662 2124432
3431.73 1985526 1924506 1912518 1950900 1918486 1787316
3437.51 1695170 1648960 1640034 1657224 1733240 1813462
3443.30 1773576 1699094 1748624 1812176 1740020 1638912
3449.08 1624726 1631130 1601686 1509684 1412162 1316062
3454.87 1183784 1102934 1176880 1402412 1795282 2078756
3460.66 2014700 1769664 1556646 1348084 1165440 1155904
3466.44 1237250 1264264 1338160 1388260 1299432 1157934
3472.23 1095168 1105316 1138864 1126004 1126914 1115284
3478.01 1050740 952156 855994 863328 869968 752114
3483.80 607894 516206 523280 586010 617188 584528
3489.58 549966 502152 452970 438622 537998 705900
3495.37 746978 640710 544272 495288 486198 549804
3501.15 657420 645808 464732 324122 376428 482740
3506.94 600256 726848 689150 551852 529920 586970
3512.72 582986 572846 645058 697122 642590 571994
3518.51 598722 645324 662946 696718 807020 840314
3524.30 802748 790178 728110 695906 725168 697252
3530.08 708014 716930 696434 701004 685672 665600
3535.87 719270 781710 802546 825016 858750 771044
3541.65 646118 668462 749180 723418 655360 631898
3547.44 668998 710030 781220 863794 854846 775776
3553.22 710004 677990 721506 781690 790934 762522
3559.01 744110 738050 692928 654452 739688 902110
3564.79 1100186 1246388 1207862 929778 673060 683706
3570.58 745230 679344 633316 655912 674250 674062
3576.36 656394 686582 795852 834038 772866 711314
3582.15 717218 747192 841792 1057578 1184910 1172186
3587.94 1036606 757452 679976 776024 832756 872732
3593.72 972990 1019658 921112 824902 795866 773212
3599.51 806446 854010 845618 757562 690412 766926
3605.29 960414 1099352 1310884 1541236 1310704 1086504
3611.08 1291814 1332584 1133736 998872 923852 1027936
3616.86 1289014 1555284 1592176 1207958 891476 904830
3622.65 1044920 1100448 1059366 1072908 1566424 2387250
3628.43 2603758 1924464 1240044 1109346 1238622 1295400
3634.22 1214926 1141436 1204098 1304964 1306304 1270752
3640.00 1245562 1220296 1249680 1319298 1442870 1730882
3645.79 2134484 2432658 2851486 3087600 2793218 2330760
3651.57 1939666 1818454 1935122 2396342 2729904 2395862
3657.36 2070652 2044242 2112084 2229860 2283992 2305452
3663.15 2343258 2373456 2441450 2611936 3016852 3527740
3668.93 4191548 4452600 3667598 3086030 3481396 4447614
3674.72 5047678 4480882 3622384 3439536 3512314 3424414
3680.50 3296572 3227336 3235690 3309918 3418080 3615550
3686.29 4365132 5353698 5114410 4362614 4219174 3980596
3692.07 3611964 3483584 3512888 3620648 3729126 3738518
3697.86 3660912 3627720 3806288 4002256 3870772 3664354
3703.64 3641572 3697018 3751778 3842012 4147060 4378370
3709.43 4397194 4894668 5286944 4762244 4288010 4258694
3715.21 4330570 4459402 4620174 4692272 4662508 4795974
3721.00 5129824 5221808 5141228 5246814 5520588 5746366
3726.79 5774010 5817318 5968640 6355924 7096180 7368368
3732.57 7189632 7527458 8084554 8366216 8179718 7852524
3738.36 7772842 7853174 7910022 8036106 9203386 11073970
3744.14 10989820 9391852 8875520 9656494 10861020 10912830
3749.93 10660170 11539220 11596480 10683330 10472090 10889660
3755.71 11229160 11053460 10748140 10539020 10097560 9725350
3761.50 9650806 9521204 9477154 9637306 9606914 9345210
3767.28 9305068 9667168 9800082 9387062 9000036 8853928
3773.07 8851780 8830922 8755030 8638292 8612176 8742652
3778.85 8622128 8173514 7900496 7806622 7737042 7747354
3784.64 7747172 7615652 7422644 7260922 7221340 7269896
3790.43 7297796 7272564 7218100 7191820 7357748 7547486
3796.21 7434652 7201436 7185772 7835056 8876348 8756076
3802.00 7974658 7921526 8507686 9621748 10339130 9301744
3807.78 7627090 6718316 6449328 6565560 6861886 7155532
3813.57 7808466 9182494 9772402 9034312 8484776 8472168
3819.35 8792436 8937392 8421684 7736796 7394060 7289474
3825.14 7344752 7357094 7189652 7015046 7043394 7341976
3830.92 7437472 7183644 7324408 7750954 7781876 8066168
3836.71 8628370 8059856 7123284 6779972 6457642 6227952
3842.49 6317370 6199248 5903632 5814340 5767938 5762348
3848.28 5863650 6135294 7004402 7866906 8542310 9163174
3854.07 8099398 6507092 6032876 5844788 5624374 5587418
3859.85 5789018 5960852 5904886 6111258 6639180 6684528
3865.64 6322534 6272024 6758340 7382086 7276550 6653352
3871.42 6468488 6766996 6970010 6728194 6488404 6504548
3877.21 6555860 6789576 7216836 7262018 7029934 7015188
3882.99 7294798 7839468 8065966 7643352 7294200 7193386
3888.78 7357078 7902630 8144172 7845092 7592618 7338528
3894.56 7086352 7146156 7483704 7938218 8094150 7835378
3900.35 7745364 7652248 7529132 7552368 7315130 6995840
3906.13 6848762 6843904 6934204 7007314 7034430 7033964
3911.92 7014088 6998264 7013896 7086912 7218972 7258138
3917.70 7272328 7366792 7337332 7224614 7267310 7484176
3923.49 7773734 7899694 7884818 7936146 8032444 8119010
3929.28 8203434 8363842 8517258 8455672 8327184 8311436
3935.06 8340272 8248660 8154106 8424238 9302040 10162500
3940.85 9957698 9034420 8458446 8410210 8670718 9046278
3946.63 9301102 9316564 9275852 9341222 9465138 9531556
3952.42 9460020 9293058 9141136 8980652 8834500 8677852
3958.20 8498208 8326412 8194374 8103212 7996296 7875458
3963.99 7748316 7634758 7567196 7470870 7397742 7359060
3969.77 7257686 7178954 7177370 7139006 7091026
##END=
