##TITLE=Propylene Oxide
##JCAMP-DX=4.24
##DATA TYPE=INFRARED SPECTRUM
##CLASS=IUPAC A
##ORIGIN=NIST, Anayltical Chemistry Division, 301-975-3108
##OWNER=COPYRIGHT (C) 1998 by the U.S. Secretary of Commerce
##DATE=98/10/1
##$SPECTRA VERSION=1.00
##$UNCERTAINTY IN Y=2.1 % relative (B=1.1E-04,C=9.8E-10,D=2.7E-14)
##CAS NAME=1,2-Epoxypropane
##CAS REGISTRY NO=75-56-9
##MOLFORM=C3 H6 O
##MP=-104.4 C
##BP=34.3 C
##$NIST SOURCE=QUANT-IR
##SPECTROMETER/DATA SYSTEM=IFS66V (Bruker)
##INSTRUMENT PARAMETERS=KBr Beam splitter; MCT Detector; Multipass cell
##STATE=gas
##SAMPLE DESCRIPTION=Propylene Oxide Primary Gas Standard
##PRESSURE=101.3 kPa
##TEMPERATURE=23 C
##SAMPLING PROCEDURE=1 L/min Flow
##RESOLUTION=0.9640
##DATA PROCESSING=Triangular Apodization
##XUNITS=cm-1
##YUNITS=(micromol/mol)-1m-1 (base 10)
##XFACTOR=1.0
##YFACTOR=2.2737E-13
##DELTAX=0.4820
##FIRSTX=575.169
##LASTX=3975.077
##FIRSTY=-3.73E-07
##MAXX=3974.59
##MINX=575.17
##MAXY=.000345
##MINY=-7.76E-07
##NPOINTS=7053
##XYDATA=(X++(Y..Y))
575.17-1640840-2372752-2225568-1376400-1627950-1877470
577.58-2152194-2251258-1354648-2146342-3415678-3043672
580.47-2379204-1585898-755958-1602164-2007188-1502736
583.37-1937272-2020780-2088630-2174476-1565332-1473310
586.26-1937046-1947666-788204-645002-1370602-1624590
589.15-1726378-1090600-1337144-1580294-1395182-1438744
592.04-1268174-959352-1443228-2274154-1953578-1644156
594.94-1873378-1478022-1401284-1443046-1236870-1522418
597.83-1375004-799742-954330-1177378-1195232-1394868
600.72-1797672-1962990-1197122-419236-578780-1014132
603.61-1003588-786026-813286-888570-683922-833362
606.51-1089020-1048010-1126386-1425726-1465890-1307072
609.40-1440834-1006370-824274-1087986-964548-1223432
612.29-1025676-624364-530488-839288-990694-979272
615.18-1005336-894610-1013278-990026-1065530-1039508
618.08-1290828-1048834-743818-1235536-1408536-1472368
620.97-1305064-720782-921746-1379050-1283310-1048974
623.86-737826-652574-738494-1187728-1537306-1511832
626.76-1194002-1218298-1317220-1032562-897568-846326
629.65-1133888-1599162-1962924-1786998-1420350-1531088
632.54-1563554-1239932-1235228-1381306-1283310-1572230
635.43-1671948-1607990-1529976-1334556-1631024-1580228
638.33-1289926-1538890-1821638-1626218-1547356-1256030
641.22-1006720-1203224-1253178-1360930-1285990-1139566
644.11-1063092-888846-755756-1087770-1440472-1570164
647.00-1748944-1726594-1690132-1517252-1226540-1151078
649.90-1321380-1341926-1426916-1696890-1679156-1654924
652.79-1647382-1391232-1246394-1334282-1366326-1413348
655.68-1324876-1208734-1255512-1178058-1037188-1071092
658.58-1280096-1250936-1328008-1535240-1528876-1487890
661.47-1319866-1213464-1188576-1398622-1578940-1522874
664.36-1421404-1408260-1557464-1320002-1208920-1497362
667.25-1504524-1348368-1538900-1440192-1001486-769328
670.15-1051182-1331526-1249352-1067038-845970-950896
673.04-886034-805450-998312-1153442-1382968-1407498
675.93-1329094-1089430-1077694-1191838-1033146-1007916
678.82-816810-670136-781812-972512-989310-1014748
681.72-1056924-945096-1102074-1140256-1163314-1334126
684.61-1267542-1084090-784224-911734-829704-488226
687.50-772748-1083062-1086742-890380-774322-546960
690.40-589286-676566-727216-786130-588600-397184
693.29 276198 317406-238858-394568-518400-247008
696.18 15336-177398-27416 59268-103786 94346
699.07 128550 86006 247088 264918 144216 232154
701.97 306326 335048 452450 706828 962414 677854
704.86 676888 1183224 1177430 1199394 1305416 1488448
707.75 1762390 2070492 2382736 3047702 3459550 3005672
710.64 2728280 2541882 2594926 2944138 3228232 3404850
713.54 3605430 3855628 4083254 4360504 4557860 4942256
716.43 5357380 5678412 6066138 6408260 6638624 6944602
719.32 7552226 8271154 8707730 8901448 9313290 9868690
722.22 10442120 10756480 11119330 11893360 12358080 12975580
725.11 13990490 14809670 15431640 16311980 17253060 18549330
728.00 20065190 21158650 22141530 23300440 24833340 26260900
730.89 27011960 27976180 29683840 31770950 33030580 34146150
733.79 35795920 37520560 39610880 41821910 44104740 46754600
736.68 49242760 51835620 54594400 56869810 59257360 61932980
739.57 64428010 66750190 69035450 71621150 74407900 76835210
742.46 79168230 81903300 83871920 86032380 87960680 89490870
745.36 91123770 92573600 93941860 95507540 96232450 97102110
748.25 98277990 98797060 99605980 100092500 101545600 103419900
751.14 105063500 105941600 107082900 107199400 107471400 111998400
754.04 119104200 123472800 123595500 127370200 138374100 147203400
756.93 144244700 121197200 101906600 99388820 93382130 91953740
759.82 95225910 97786920 104368000 111046400 116470300 121236000
762.71 125565100 130131100 134388000 138194700 142202900 146565200
765.61 150433300 153552800 156686500 159550200 161832400 163195400
768.50 163602100 163328600 162828300 162164800 160224100 157593500
771.39 154484200 151197700 147544000 143678400 139524700 134522000
774.28 129173600 123965700 118787600 113348400 107951000 102815900
777.18 97759700 93530550 89774300 89136620 88006460 80891300
780.07 74766140 73041360 72141390 68755070 65480160 62529850
782.96 59492400 58274040 56926840 55391240 54294330 53442280
785.86 52684440 52141340 51456200 51433320 51578290 51688110
788.75 51780620 52321220 52779260 53103420 54087880 55104380
791.64 55945020 56996210 58355820 59539630 60570840 61934240
794.53 63574570 65693980 67614490 69429150 71456180 73795680
797.43 76271010 78878020 81842370 84968690 88365390 91931370
800.32 95419700 99274470 103256700 108183000 112986800 118094500
803.21 123439600 128923800 135204200 140970500 147884600 155377000
806.10 162573000 170362100 177515100 186199700 194598600 203545000
809.00 213534700 223266800 234112900 244391800 256155000 268226500
811.89 279508100 292849300 305464500 319323200 332675800 346384600
814.78 361326800 375970800 391943500 406611900 422312000 438338600
817.68 453064500 469850100 484874400 501191200 517866000 533748700
820.57 548911600 561728600 575583000 588576100 600102200 612225900
823.46 620067000 630573300 637067300 642126700 647755400 650459100
826.35 652988400 654409200 652943900 651225500 647948300 644503900
829.25 637445900 631801400 621149800 607169300 587378200 563277500
832.14 541705500 528546700 519229700 535748800 565353000 638797300
835.03 680255900 788611900 920403600 1015771000 1031774000 693175000
837.92 479872400 493145900 520018900 557015100 574959200 600676000
840.82 619783300 635295200 643396600 648336400 649341900 650888000
843.71 652858400 655640300 657075600 658757200 657651400 656538900
846.60 653738900 650175300 645402200 637366400 628020400 618332600
849.50 606127300 593505700 577124100 561977600 545292000 526806500
852.39 509688600 489675600 470731700 451767400 431068700 413433200
855.28 394083500 375641900 357800300 339919200 324659300 308521000
858.17 293418500 279316000 263813600 251859600 239653900 227575900
861.07 217156300 205889200 196296200 187332000 178606700 171457200
863.96 163250500 156128700 149593900 142826200 137654400 132076200
866.85 126743200 122171000 117286000 113368400 109001300 105045300
869.74 101709000 97901740 94787740 91801420 88711020 86028320
872.64 83136040 81008380 78751260 76347330 74471470 72458580
875.53 70694590 69238110 67689910 66464840 64988880 63632100
878.42 62484310 61311920 60579350 59680230 58629300 58005760
881.31 57235240 56624510 56079850 55395660 54933170 54495620
884.21 54006870 53803730 53493880 53289950 52992070 52733320
887.10 52461790 52192920 51800670 51073540 50294400 49432710
889.99 48050070 46164860 44365560 42878600 41060160 40668860
892.89 45036420 64136120 67384220 49335890 45959420 48966360
895.78 44109300 38922060 42389700 45564670 44779960 45475310
898.67 47273240 48607110 49494350 49954120 50457300 50827860
901.56 51065160 51116820 51292470 51696240 51865740 51824240
904.46 51669430 51310000 51158600 51141210 51310600 51544330
907.35 51509710 51341770 51214190 51368330 51365210 51277670
910.24 51394820 51491120 51485380 51391260 51227280 51098770
913.13 50989280 50931070 50833920 50863460 50968520 51041570
916.03 51307860 51466870 51720680 52148910 52542210 53293940
918.92 53810200 54141460 55016120 55871450 56768410 58069200
921.81 59023990 60115690 61582240 62853500 64422610 65931740
924.71 67300180 69206130 71034050 72713950 74533730 76157710
927.60 78035100 80300580 82629700 85158450 87314380 89285180
930.49 91871240 94146030 96768420 99666340 101793500 104704800
933.38 107754300 110349900 113662100 116760300 119984800 123338300
936.28 126295200 129815200 132991300 136317400 140150700 143057400
939.17 146136800 149197800 152221500 155444500 158143700 160949400
942.06 164093500 166325700 168787400 172595000 175115600 176810300
944.95 179680800 181951900 183792800 185619900 187061300 190435400
947.85 192590600 194181000 195322100 196584100 196493900 195211200
950.74 193805800 190508600 186398100 180982500 176043000 171595600
953.63 167087500 163614900 161395800 148797700 131806800 130844600
956.53 142305000 158295000 174681700 185032400 185781900 186994300
959.42 194474300 202772200 208430100 211611500 212672400 210667500
962.31 208424500 208850800 208484900 205054100 201425500 198581700
965.20 196122400 193282400 191035100 189175300 186329700 182960200
968.10 180227200 178262700 174654900 171041500 167849000 163450000
970.99 159927600 156375600 152330500 148585900 144547800 140824500
973.88 136877100 132938200 128854200 125385700 121953000 118211900
976.77 115460600 112038000 108945000 106012400 103169500 100667800
979.67 98032660 95881940 93611740 91464740 89039090 86748400
982.56 84764180 82698820 80890390 79114220 77518770 76016840
985.45 74575450 73429820 72225480 70829660 69922500 68980030
988.35 68220230 67578180 66667430 66175840 65802990 65390300
991.24 65316670 65219100 65132550 65051810 65189310 65787890
994.13 66247460 66854180 67602640 68374070 69457400 70334380
997.02 71372640 72895840 74154420 75507710 76891640 78560020
999.92 80676710 82290300 83918840 85973560 87845860 90020980
1002.81 92226550 94273100 96478530 98573620 100561100 102578100
1005.70 104503500 107078100 109165100 110949400 112936900 114967100
1008.59 117096400 118699900 120616500 122481500 124260100 125819800
1011.49 127704000 129516800 131357200 133291500 135296400 137460600
1014.38 139261800 141221300 142710800 143959800 144432500 144024300
1017.27 142610600 139712800 135745700 131044000 124795200 118000800
1020.17 110009700 101683200 99764130 103332400 106136800 114245200
1023.06 113194400 96388860 95583260 106638100 118418800 130169200
1025.95 139067900 146037900 150391500 152873600 153387900 152711300
1028.84 150968700 148478000 145735200 143015500 140077800 137176900
1031.74 134304200 131512400 128584000 126070000 123452500 120933200
1034.63 118679400 115952200 113882000 111720800 108846600 106404000
1037.52 103678300 101232300 98730860 96201640 93785220 91101480
1040.41 88821380 86280060 83876780 81560410 79076180 76663670
1043.31 74305180 72320460 70052340 67969850 65866790 63496560
1046.20 61321550 59134180 57344680 55494540 53686700 51918270
1049.09 49779130 48008360 46174930 44611260 42950040 41230040
1051.99 39779260 37964890 36453870 35025060 33623670 32287340
1054.88 30993340 29746640 28447970 27399040 26149660 25041630
1057.77 24060970 23065140 22098320 21110660 20338830 19479210
1060.66 18801350 18112970 17353410 16780910 16222150 15750240
1063.56 15316580 15011930 14685710 14512820 14355740 14049880
1066.45 13886070 13828880 13630200 13562850 13760040 13810900
1069.34 13976800 14156410 14363960 14574900 14834220 15008010
1072.23 15248590 15936260 16390420 16697510 17243390 17774320
1075.13 18370580 19093860 19764870 20446180 21338090 22192480
1078.02 22771860 23631500 24763870 25519770 26440270 27631170
1080.91 28721320 29930490 31033660 31848950 32963640 34086560
1083.81 35037660 36443010 37877410 38881790 40331910 41676850
1086.70 42759910 44090140 45623130 46925610 48528660 49896500
1089.59 50997130 52674610 54014810 55407640 57087560 58520610
1092.48 59951500 61590770 62990780 64648910 66439140 67702260
1095.38 69145750 70612530 72440600 74184410 75983290 77657840
1098.27 79498300 81134510 82450220 84281980 85333450 86864750
1101.16 87613330 89075600 90529300 92255990 93802700 93450580
1104.05 90413550 88692020 90966190 97069350 103391700 107435200
1106.95 115995300 124818200 114722200 99136680 99248840 106526600
1109.84 116840700 126065500 131806200 136789500 141515000 145220200
1112.73 146866000 146585000 145040600 143459600 142332400 140886600
1115.63 139986400 139244900 138401400 137625600 136278000 134910000
1118.52 134059100 133009800 131865900 131011800 131548300 132051000
1121.41 131553900 130863400 130344600 130654200 130643400 131296500
1124.30 132709600 132846600 132519500 131383800 129597300 127860300
1127.20 126834000 126651800 126833700 127142600 127738000 127643000
1130.09 128677200 130105300 134617700 146500600 173210200 171219600
1132.98 132479200 115820000 110722200 104302200 101788200 100799600
1135.87 100742100 101156600 102263700 102708900 102439600 101668400
1138.77 103170500 102822200 97160330 92245140 89057790 86546160
1141.66 85442180 83729200 83512340 89609590 110376900 127270500
1144.55 115363900 100889600 93983020 81076800 71868890 70923220
1147.45 74041860 76044360 75196500 75408530 74971300 73892180
1150.34 75668440 75387820 70782620 68621550 68900300 68813430
1153.23 68805850 68818150 69012930 69149220 69451630 70017740
1156.12 70853780 72481620 75101440 77461780 78854880 75660210
1159.02 68578560 64339200 62733440 61397440 60052010 58506590
1161.91 57054960 55560550 54003160 52542100 51145570 49522030
1164.80 47615100 45714200 44096310 42676310 41203060 39693820
1167.69 38875260 39115200 38786620 37476660 36074100 34978800
1170.59 34193140 33394760 32544470 31479080 30445030 29516290
1173.48 28495720 27431980 26373730 25318980 24344760 23364770
1176.37 22467120 21590210 20700690 19931890 19194840 18378020
1179.26 17535230 16848400 16329210 15778750 15156520 14610640
1182.16 14273030 13969680 13525350 13024290 12566750 12165200
1185.05 11864290 11615900 11380760 11102280 10693190 10478170
1187.94 10565580 10972220 11012830 10153190 9379822 9130038
1190.84 8978418 8630744 8358792 8149814 7987808 7895470
1193.73 7632640 7391326 7262112 7046996 6975280 6949962
1196.62 6761578 6611746 6473168 6465118 6624034 6694016
1199.51 6635960 6540484 6656722 7185058 7990270 8229002
1202.41 8193760 7665866 6224164 5602526 5522942 5315946
1205.30 5333470 5653846 6146816 6899384 7118838 6211694
1208.19 5656802 5634182 5749486 5975680 6021024 6062206
1211.08 6211912 6322596 6424904 6524872 6552150 6591470
1213.98 6705064 6844882 6911202 6960158 7069304 7153926
1216.87 7239776 7263060 7280186 7406108 7460164 7630834
1219.76 7967576 8346852 8951740 9454658 10493810 11824940
1222.66 10898310 9417972 9407344 9851860 10298860 10671700
1225.55 11046820 11382220 11843940 12473580 12978850 13610720
1228.44 14377040 15016430 15750020 16377360 17106380 18122970
1231.33 19024520 19721310 20368510 21134960 22049650 22930570
1234.23 23950050 24838800 25694430 26781230 27619780 28709340
1237.12 29926640 30973110 32066790 33055310 34362520 35581960
1240.01 36801010 38244620 39357360 40616660 41998010 43335170
1242.90 44867580 46203940 47801700 49344950 50918570 53077450
1245.80 54666180 56218790 57940800 59447720 61460090 63667880
1248.69 66743590 68866540 68685410 69267130 70306830 71710890
1251.58 73420960 74437980 75620130 76690120 77988700 79198180
1254.48 79909650 80707570 81242460 81937020 83043920 84053440
1257.37 85418660 87060000 88014080 88124890 88411560 89059090
1260.26 89710170 90643480 90854580 88707730 85207440 81356600
1263.15 77695000 73932330 70751380 69588380 86127620 136019500
1266.05 145057900 108909300 86386900 72643340 71525250 75517540
1268.94 78529650 80758490 82625470 84610640 86635390 88315760
1271.83 89186220 89705860 89715840 89303370 88827570 87726160
1274.72 86847410 85858780 84674360 83813550 82706540 81609890
1277.62 80382510 79156070 77946330 76454730 75151490 73634340
1280.51 72242230 70801400 69032070 67398370 65715290 63964990
1283.40 62224160 60530420 58881960 57162900 55511460 53823800
1286.30 52158620 50641490 48944580 47568580 46018470 44393680
1289.19 43041090 41470050 40138770 38849770 37553440 36307170
1292.08 35065570 34066660 32836670 31709660 30663280 29580980
1294.97 28605120 27431790 26518580 25647290 24693050 23793490
1297.87 22894710 22057710 21099570 20276010 19418180 18614420
1300.76 17934490 17154820 16496090 15702100 14970780 14414030
1303.65 13825970 13306350 12876610 12558800 12171990 11621070
1306.54 11010510 10498180 10232460 9926176 9552512 9250096
1309.44 9015678 8776074 8469566 8254144 8035998 7876896
1312.33 7586070 7284560 7128900 6974006 6833674 6627142
1315.22 6490324 6375208 6279652 6172366 6013136 5965636
1318.12 6046780 5954310 5818222 5829578 5801864 5793714
1321.01 5820636 5885424 5806262 5600592 5496054 5506386
1323.90 5587716 5739364 5725184 5556894 5598516 5703716
1326.79 5816664 5930796 5986094 6150236 6382800 6523028
1329.69 6735118 7006134 7241746 7477196 7598034 7615926
1332.58 7818208 8122118 8347298 8574606 8877710 9242182
1335.47 9541396 9942784 10212460 10465520 10815430 11213090
1338.36 11779170 12262230 12695150 13136650 13374610 13726820
1341.26 14301850 14819240 15328690 15741650 16279150 16811060
1344.15 17267460 17843300 18377680 18933340 19581620 20229830
1347.04 20924020 21570290 22304440 23145220 23991630 24914300
1349.94 25632600 26787750 28232780 28641640 28714050 29166940
1352.83 29831860 30435430 31146970 32213090 32785880 33598150
1355.72 34537800 35187480 36171300 36995420 37848000 38568750
1358.61 39102440 39828050 40343620 40825260 41348610 41624580
1361.51 42087980 42336570 43157540 44026620 44781480 46461820
1364.40 46998780 45749180 44514220 44402360 45570870 47047620
1367.29 46308320 45900620 47518940 49348360 53251350 61716700
1370.18 74452460 94384110 131096000 172331300 155690000 95690880
1373.08 61581150 50688220 47950880 49137960 51299360 54279140
1375.97 57750480 61095010 63643570 65551540 67212400 68817130
1378.86 70747620 72609360 74581980 76654120 78769980 81220500
1381.76 83555260 86172280 89584380 93151180 96902200 101108500
1384.65 106183900 111736000 117591800 124401300 132367800 141340200
1387.54 150423900 161299100 171627800 178821500 185124900 191754500
1390.43 200177900 209974200 220118200 230940700 241935900 252882500
1393.33 263988500 275307700 285465200 294802900 304300000 312946900
1396.22 320522800 328122000 335643900 341991800 346157700 347565100
1399.11 345059800 339132200 333708400 329108200 323421600 316541700
1402.00 308739600 300507500 291832100 282476700 273598900 266237700
1404.90 260569600 257681800 255092600 257870500 271178800 288853200
1407.79 307485900 345905900 417482300 498768200 583277200 696442000
1410.68 724850200 747662100 601810900 283169700 173510100 164409800
1413.58 165407500 177765600 191341200 208953900 226788200 246168200
1416.47 265356400 285123700 303685100 321374800 338538100 355343800
1419.36 367642000 377834300 387374800 394823500 400321300 404100900
1422.25 405617000 405123900 402896200 398585600 392355900 384647700
1425.15 375802100 365911200 354806800 343462400 331557900 318682500
1428.04 306218000 293140900 279898400 267898100 255176600 244185000
1430.93 237909400 233041800 222046200 209587100 201192700 191837800
1433.82 184210300 178628900 172457200 167923300 164639800 162135900
1436.72 157843700 154123800 150689600 149008000 147473100 145416900
1439.61 145148700 144340000 144141900 145135600 145874100 146139700
1442.50 146161600 146233000 146301600 145223600 143283200 141153500
1445.40 138390800 135025200 130508700 126846400 124045000 120439800
1448.29 117844100 130168400 136947000 120269100 113501500 115544500
1451.18 118188800 122430300 126741000 130618300 133824300 136662700
1454.07 138496400 138841100 137685700 136053600 136652400 136050500
1456.97 131432500 129046400 129592400 129434300 133614400 137578500
1459.86 144871200 155746500 183428800 229114200 216709100 174016100
1462.75 158415900 150106200 156849000 181747700 173527500 146284900
1465.64 138852800 137813700 140551300 140985800 136838400 135924200
1468.54 137742600 138016300 139421600 142112700 144683800 147733800
1471.43 152853700 156823800 160506300 165463400 166391800 161373500
1474.32 152228800 141605600 137592400 137519600 135958600 134893200
1477.21 134606500 133867600 133183300 132319700 131098900 130477300
1480.11 128210200 126080200 124688500 122375900 120866300 119130900
1483.00 116901800 114986600 113507600 112864500 113512300 116845500
1485.89 124764800 140636900 160939400 171698200 164811200 143967400
1488.79 125362600 117103900 111490200 106872500 102109700 96319180
1491.68 93181220 92935930 93651300 94881310 96437400 97976060
1494.57 99778010 101756300 105062000 106554700 105983000 106930300
1497.46 107962400 109418200 110499600 110054000 109802300 109423700
1500.36 108613100 107586200 106408900 105035500 103242000 101599300
1503.25 99833850 98046140 96015420 95540060 94895230 90885540
1506.14 89386630 88485130 84188260 80973920 78888400 76456340
1509.03 74526500 72804950 70993410 70046320 69684390 69767580
1511.93 69105900 66536510 64534600 63605630 63452840 64837870
1514.82 66000170 65375940 63865840 60189900 54608990 50951940
1517.71 50263470 51328300 50020480 48306460 49980110 52006990
1520.61 54906740 54936370 53723810 55465100 56040930 56176320
1523.50 57214160 58223530 59649480 61545650 61797130 61386670
1526.39 61844380 61996850 61431160 60951360 60006960 58469310
1529.28 56969440 55394960 53811880 52232060 50511830 48592620
1532.18 47378080 46705940 46130920 44287860 40260650 36853780
1535.07 34584800 32509590 30465520 28353630 26773730 25527380
1537.96 25252730 26711920 24606520 22699950 22735490 20156970
1540.85 18928940 20056920 19946530 18012630 16813130 16110290
1543.75 15515470 15764930 15981640 14707950 13732810 13319610
1546.64 12921110 12517480 12099380 11789640 11545050 11481970
1549.53 11413660 10847190 10245650 9906572 9578448 9237800
1552.43 9047296 8913568 10108460 11283550 9558850 8388042
1555.32 8269640 8069054 8158280 9394752 9999980 11230280
1558.21 11514080 9003482 9669140 11425760 9539924 7343050
1561.10 7123058 7053946 7081880 7095172 7235990 7327146
1564.00 7687624 7878188 7573458 7443394 7596140 7702130
1566.89 7835210 8025676 8360644 8755608 9536344 10361070
1569.78 9690836 9072542 9177778 9403768 9583026 9720922
1572.67 9748636 9799548 10004580 10265440 10449530 11809840
1575.57 14858630 13769880 11265300 11141230 11057770 11190570
1578.46 11330370 11360560 11255930 11270360 11263650 11221360
1581.35 11222320 11261610 11277300 11233510 11153830 11249050
1584.25 11326360 11242980 11268720 11324460 11332700 11309520
1587.14 11450190 11915450 12698310 13431940 13867850 14544980
1590.03 15242830 15084000 14855270 13988330 11538000 10069400
1592.92 9948382 10041880 10193040 10466170 11088530 11566550
1595.82 11752800 11969050 12207010 12430450 12776520 13144150
1598.71 13478560 13866850 14199750 14449630 14754530 14925290
1601.60 15012190 15116030 15114230 14992220 14750930 14502340
1604.49 14278650 13883190 13470200 13128350 12754940 12264560
1607.39 11731320 11335230 10946160 10603450 10091970 9600762
1610.28 9194348 8684890 8273522 7919120 7634402 7432904
1613.17 7230242 7123304 7050360 7083526 7071586 7807878
1616.07 10448160 9736470 7146380 6823924 6737132 6624472
1618.96 6431570 6427004 6455638 6463714 6465454 6445516
1621.85 6617708 6914758 7867938 7928900 6914986 6658664
1624.74 6635186 6592442 6547224 6695184 6907090 7405122
1627.64 7354778 6923586 6935164 6976722 7013914 7098048
1630.53 7203846 7401528 7669162 7995702 8145710 8207156
1633.42 8267716 8787676 9961322 12080800 12370450 9955772
1636.31 8973232 9202040 9288908 9122778 9054044 9118674
1639.21 9216594 9340062 9383086 9487022 9642964 9766746
1642.10 9790346 9610442 9666874 9707458 9667370 9736048
1644.99 11097860 12843200 11441510 10732930 11484550 11810610
1647.89 12332250 12311990 12255220 12371090 12464360 12778620
1650.78 12700700 13381300 16070080 16833140 17358400 15607250
1653.67 13604220 13785750 12684780 12379970 12509210 12658720
1656.56 12820250 13017530 13076280 13118660 13229420 13357380
1659.46 13284680 13169230 13058560 13097610 13247410 14239480
1662.35 14976420 13889920 13060240 12949940 12954610 12921430
1665.24 12747760 12635680 12488550 12340310 12301840 12554810
1668.13 12606180 13396170 13437430 12864610 12925930 12660930
1671.03 12917770 13884820 14076790 12586460 11563080 11452890
1673.92 11390400 12838660 13778670 12507990 11820770 11787070
1676.81 11751920 11722170 11639620 11564270 11574900 11775530
1679.71 11885340 11815760 11570990 11565950 11537750 11899530
1682.60 12708290 12894530 12890930 15603600 16134220 12438130
1685.49 11155920 11003120 10747100 10636870 10643970 10531420
1688.38 10088300 9852390 9946984 9890816 9571106 9402006
1691.28 9358022 9336984 9293012 9180320 9100182 9164390
1694.17 9442576 10229060 13335620 13706250 10217720 9237834
1697.06 9270954 8965304 9009360 9225184 10750360 12577460
1699.95 12417640 11087010 9369900 8570962 8456228 8360722
1702.85 8323478 8425958 8974534 8820696 8261510 8356372
1705.74 8844688 8546570 7833064 7584016 7348648 6958750
1708.63 6289138 6113722 6729284 7544206 8121750 8355146
1711.53 8721082 9197000 9252276 9086658 9057184 8728118
1714.42 9151376 9113226 8491036 8564220 9785720 12412450
1717.31 11160690 9640960 9971578 8889280 8303724 8181752
1720.20 7992678 7844452 7756650 7589496 7405660 7427524
1723.10 7351632 6924444 6693714 6472196 6204200 6071216
1725.99 5922710 5690398 5525350 5376868 5181260 5063078
1728.88 5078900 5264924 5141022 4969150 5162512 5065096
1731.77 4480800 4492084 6296246 5898394 5669550 6415286
1734.67 4386220 3244302 3070236 2922336 2862264 2915570
1737.56 2934728 2826696 2810158 3661006 3922212 2790878
1740.45 2409008 2404168 2271906 2255774 2417864 2434240
1743.34 2198440 2033496 1968644 1965938 1938604 1872612
1746.24 1983528 2057322 1864868 1979686 2252322 2050302
1749.13 1740404 1627458 1890212 3091280 3262184 1939040
1752.02 1490666 1399208 1338396 1358340 1314286 1367206
1754.92 1441430 1402792 1768766 2230168 1771966 1508514
1757.81 1601762 1551126 1529542 1583758 1722864 1854538
1760.70 2215222 3169438 2977640 2134648 2078406 2083872
1763.59 2117236 2153468 2204914 2286156 2406478 2501046
1766.49 2565758 2774328 3704554 3731464 2930078 2881326
1769.38 2911962 3021714 3519234 4147666 3767764 4658056
1772.27 5853688 4343640 3488862 3592416 3526838 3734556
1775.16 3904730 3791334 3680108 3662750 3588332 3461004
1778.06 3264896 3230446 3295496 3341812 3623784 3631146
1780.95 3490454 3723696 4081088 4316324 4283634 4252392
1783.84 4418310 4839420 4560778 4061772 3987272 3889650
1786.74 4003942 4020794 3847026 3977362 4063194 4089898
1789.63 4317460 4965580 5326908 4623410 4658482 6033298
1792.52 5909620 4970378 4440386 3612958 3244080 3244058
1795.41 3424476 3420886 3359700 3397768 3371710 3491394
1798.31 3707620 4097910 4318338 4024476 3896080 4074728
1801.20 3957912 3890334 3872698 3632122 3592428 3559426
1804.09 3491216 3490408 3451366 3383596 3294998 3175970
1806.98 3179172 3051270 2789304 2685158 2632892 2558052
1809.88 2694746 2673804 2327404 2244874 2191432 1975380
1812.77 1810270 1671358 1625994 1623212 1569448 1477846
1815.66 1394324 1289192 1200116 1185524 1053636 1021684
1818.56 1194752 1258594 1384316 1807192 2068884 1968822
1821.45 1698414 1380102 1225916 1194062 1161358 1128084
1824.34 1549666 1863402 1417058 1171372 1188228 1171276
1827.23 1306822 1412412 1582274 1684894 1850420 2170782
1830.13 1706602 1367260 1478264 1475548 1485252 1501240
1833.02 1457488 1424394 1512190 1568066 1611476 1586252
1835.91 1513648 1590076 1695490 1642924 1633336 1696852
1838.80 1773550 1862882 1886604 1905564 1851742 1871918
1841.70 1897174 1849474 1843122 2406130 3647290 3088074
1844.59 2071884 2098900 1960668 1868620 1809288 1898854
1847.48 1855668 1725378 1773348 1844550 1897496 1906412
1850.38 1921750 1988268 1990386 2038206 2105680 2206702
1853.27 2292768 2337372 2376756 2449614 2812902 2954480
1856.16 2586486 3033452 3647606 2807806 2007102 1872714
1859.05 1832258 1862856 1956486 1974024 1920144 2030198
1861.95 2090220 2062438 2111628 2164420 2210900 2248976
1864.84 2380174 2540572 2689210 2758750 2764918 2984728
1867.73 2961118 2964710 3423060 3226138 2701168 2634602
1870.62 2586726 2548424 2568304 2599252 2653580 2684202
1873.52 2634480 2563928 2511064 2499408 2478418 2486904
1876.41 2492966 2482580 2453450 2420168 2392646 2437750
1879.30 2490894 2513716 2560028 2578834 2549684 2557132
1882.20 2652004 2726164 2798040 2955108 3046156 3071540
1885.09 3104308 3141328 3199828 3187256 3220628 3272552
1887.98 3240160 3376324 3711444 3587882 3340356 3400796
1890.87 3400672 3358074 3436642 3543398 3525024 3562408
1893.77 3677450 3764532 3872344 3902598 3996768 4151370
1896.66 4264532 4382296 4267268 4164736 4433230 5232410
1899.55 5323032 4431956 4094600 4181960 4251476 4347950
1902.44 4483198 4632720 4782368 4875890 4771174 4660332
1905.34 4615604 4582588 4541006 4500168 4535966 4556618
1908.23 4584154 4796190 5146802 5235638 5196714 5378908
1911.12 5514590 5472220 5377392 5202208 5048024 4862406
1914.02 4690550 4579126 4578410 4700764 5098686 5534824
1916.91 5256396 5018730 4538878 4014956 3943128 3861394
1919.80 3862272 3828980 3841100 3941674 4020196 4031878
1922.69 3971636 3828284 3766078 3746658 3697870 3553036
1925.59 3312000 3221602 3172486 3134218 3112726 3010122
1928.48 2965582 2994388 3020678 2992316 2939720 2889284
1931.37 2859548 2787654 2768502 2767196 2713314 2697226
1934.26 2680726 2630574 2636008 2654494 2635110 2622802
1937.16 2601642 2650360 2704372 2676184 2653336 2688786
1940.05 2693228 2699710 2803474 2928976 3132350 3084370
1942.94 2911312 2878696 2929104 2982800 3119332 3359044
1945.84 3509156 3629256 3777746 3936888 4041178 4137262
1948.73 4280894 4428222 4568890 4781898 4926612 5066496
1951.62 5233722 5397302 5573596 5720668 5847846 6020008
1954.51 6231940 6335298 6399700 6443054 6442548 6489490
1957.41 6542824 6497286 6472390 6509564 6478128 6491282
1960.30 6507684 6553632 6630836 6492092 6484206 6535746
1963.19 6436928 6367688 6523204 6729430 7126128 7758022
1966.08 8969408 10367600 11404960 11160100 7957568 5652200
1968.98 5442248 5390410 5553316 5718430 5910544 6087102
1971.87 6281072 6588916 7096442 7486130 7554282 7441354
1974.76 7398214 7441980 7530326 7598722 7753666 7979792
1977.66 8314792 8662770 8983036 9251940 9045806 8496874
1980.55 8115170 7821138 7620364 7510236 7395930 7272728
1983.44 7081710 6915018 6808622 6668332 6491028 6341460
1986.33 6189780 6102468 6055604 5935636 5764952 5627714
1989.23 5568030 5558652 5554256 5478278 5494750 5494526
1992.12 5323598 5242498 5158692 5061942 4991144 4871308
1995.01 4812742 4784534 4733568 4774076 4844970 4896714
1997.90 5007568 5155396 5312942 5392312 5429032 5567858
2000.80 5779328 5655962 5106140 4782096 4844774 5076142
2003.69 5285690 5287732 5271608 5402186 5557138 5615976
2006.58 5662896 5752258 5759954 5687934 5634590 5685704
2009.48 5737652 5663546 5580790 5527384 5522028 5495182
2012.37 5402378 5277940 5247106 5318172 5253342 5150466
2015.26 5206416 5211432 5219560 5170562 5219092 5485962
2018.15 5744436 5948892 5963990 6007548 5899978 5296650
2021.05 4778356 4588270 4560880 4643000 4582478 4763026
2023.94 5807650 6043998 5256618 4961596 4773914 4464956
2026.83 4268450 4251188 4301340 4406482 4603874 4790516
2029.72 4783378 4780406 4849348 4861892 4733124 4650990
2032.62 4572050 4507978 4538698 4406560 4249746 4159002
2035.51 4061440 3861900 3783682 3774748 3622298 3547812
2038.40 3451960 3250632 3122072 3021104 2894562 2792048
2041.29 2723522 2643022 2464028 2299490 2204660 2149184
2044.19 2102476 2101730 2175370 2024930 1824306 1855622
2047.08 1817788 1672062 1564970 1500284 1443076 1402576
2049.97 1368978 1300286 1248964 1224442 1165654 1129234
2052.87 1165372 1210084 1197524 1073332 1010828 1051322
2055.76 1059814 1086952 1086036 1077542 1087042 1205762
2058.65 1395970 1348522 1285186 1292710 1309322 1422862
2061.54 1439572 1266528 1212064 1348780 1359688 1376832
2064.44 1505744 1511348 1576656 1729888 1684490 1653678
2067.33 1782036 1860758 1906416 1978428 1998978 2045880
2070.22 2137646 2210974 2264542 2294762 2220506 2178264
2073.11 2299036 2360862 2310674 2369250 2425644 2400168
2076.01 2368842 2330282 2323020 2350538 2351918 2341624
2078.90 2356634 2325344 2307178 2322248 2339484 2330946
2081.79 2391738 2572826 2726448 2959546 3217756 3379452
2084.69 3082774 2518208 2362876 2369208 2358172 2416092
2087.58 2495554 2567140 2593594 2498274 2393342 2380826
2090.47 2487038 2531074 2560332 2622266 2632360 2678396
2093.36 2683256 2676120 2626738 2622792 2761086 2922008
2096.26 3110742 3137028 3148550 3218152 2928264 2566970
2099.15 2426164 2449294 2438446 2438736 2517360 2472794
2102.04 2494934 2545426 2440924 2394064 2389940 2371514
2104.93 2344064 2285338 2276414 2233542 2203154 2199166
2107.83 2176842 2158758 2126978 2098910 2120474 2153436
2110.72 2074662 2001412 2031602 2068588 2121876 2137910
2113.61 2114056 2093036 2103290 2153956 2264616 2323330
2116.51 2172136 2078402 2122708 2157288 2127258 2094140
2119.40 2086922 2114024 2187452 2279542 2395236 2534486
2122.29 2638986 2635742 2631390 2690328 2704492 2601164
2125.18 2425942 2445550 2648972 2716094 2706308 2713662
2128.08 2792978 2898192 2907702 2814856 2752460 2867604
2130.97 3008176 3094626 3158020 3257224 3420620 3539538
2133.86 3638076 3827382 3991372 4178272 4397478 4519314
2136.75 4646830 4860348 5028410 5082396 5192188 5408028
2139.65 5634552 5796080 6011566 6184624 6334510 6562392
2142.54 6767670 7024182 7344090 7584184 7737460 7864780
2145.43 7915518 7922064 7959078 8102204 8253972 8460022
2148.33 8678746 8804454 8924626 9136856 9398544 9625030
2151.22 9842658 9969586 9933950 9730418 9511608 9508322
2154.11 9627748 9738496 9835138 10043570 10131540 10139840
2157.00 10236110 11266370 12700070 11924020 10783730 10749090
2159.90 10707510 10919330 11103390 10983770 11047330 11429860
2162.79 11626260 11880510 12572710 13663480 14701250 14291890
2165.68 13689910 13106520 11501590 9795326 8903710 8823406
2168.57 8734580 8900086 9346876 9777552 10045670 10193470
2171.47 10551680 10955820 11293480 11625130 11904440 12197420
2174.36 12428710 12652760 12756100 12753740 12807990 12737380
2177.25 12627140 12531300 12417640 12191550 11855620 11502610
2180.15 11066700 10599040 10169400 9776192 9444536 9129784
2183.04 8827268 8582026 8456086 8409240 7888432 7384192
2185.93 7284546 7620014 7735224 7495880 7832422 8103050
2188.82 8155176 8179812 8918972 8434140 6584972 5769042
2191.72 5518930 5507040 5594010 5620438 5628094 5689548
2194.61 5726048 5776354 5842564 5923904 5916070 5917712
2197.50 5943540 5921090 5956876 5989902 5975024 5968640
2200.39 5979980 5956340 5915078 5890866 5857604 5810198
2203.29 5788626 5765776 5855258 6025262 6359662 6910844
2206.18 7355156 7671034 8303968 7636466 5836556 5244036
2209.07 5208496 5224302 5320452 5401038 5603736 5782834
2211.97 5873880 6048392 6177610 6288444 6420738 6574402
2214.86 6790264 6956088 7156652 7564856 7792990 7665452
2217.75 7784604 8106676 8194596 7958236 7696904 7779150
2220.64 7956836 8042964 8222312 8437868 8564718 8492094
2223.54 8356550 8357938 8414546 8528370 8666278 8769064
2226.43 8930646 9056864 9114660 9072690 9015380 9000608
2229.32 8975806 9029516 9123934 9314964 9500134 9694788
2232.21 9987578 10202790 10435750 10791990 11165310 11508460
2235.11 11737450 12085080 12616520 12672470 12021410 11346970
2238.00 11226890 11322340 11212840 11119730 11175510 11359850
2240.89 11641460 11968390 12388550 12817440 13046320 13315960
2243.79 13971450 14598530 14543730 14225370 14289130 14489590
2246.68 14794370 15017850 15084580 15343960 15807910 16320920
2249.57 16177790 15556620 15236510 14996300 14844000 14709170
2252.46 14463170 14226710 14058660 13909770 13862970 13723120
2255.36 13462750 13209780 13071850 13167950 13691970 14795380
2258.25 17800030 20859800 18399420 14518960 13410230 13187430
2261.14 13262660 13286410 13416120 13626570 13755810 14007650
2264.03 14483420 14873230 15043400 15029810 15054250 15191680
2266.93 15360290 15493030 15644060 15742150 15819320 15920950
2269.82 15982680 15991620 15978020 15924120 15927880 16022250
2272.71 16091830 16129990 16071830 15766110 15297590 14959280
2275.61 14622960 14209940 13798250 13445560 13218350 13081540
2278.50 12887650 12756810 12721170 12546060 12441350 12433090
2281.39 12438380 12474660 12520040 12625560 12737380 12928340
2284.28 13189090 13393620 13326990 13346870 13461880 13535840
2287.18 13759440 12872680 11498300 10980220 10751880 10539420
2290.07 10450470 10312590 10117100 10026180 9919464 9821966
2292.96 9766704 9678394 9662874 9587530 9380336 9189372
2295.85 9080604 9090586 9146290 9271386 9334282 9005998
2298.75 8612316 8566714 8783322 9311574 9505110 8726706
2301.64 8006820 7884530 7901144 7716062 7475012 7319602
2304.53 7195048 7250562 7298644 7241982 7343178 7514204
2307.43 7530082 7456050 7379286 7290296 7263832 7415202
2310.32 7769006 8147100 8111368 7794768 7515918 7285818
2313.21 7117096 6940812 6799652 6743928 6654452 6578836
2316.10 6496966 6432464 6349810 6267468 6213110 6148672
2319.00 6112990 6035070 5920982 5812880 5679070 5595558
2321.89 5621516 5712392 5772948 5931114 6171266 6611996
2324.78 6870486 6128374 5354008 5032948 4790494 4774994
2327.67 4957424 5040172 4765906 4424452 4399316 4649144
2330.57 4723760 4595454 4615278 4625294 4525360 4617166
2333.46 4980464 5138614 4982446 5069142 5330822 5211674
2336.35 4992742 4954830 4811566 4579106 4543378 4644880
2339.24 4632902 4532054 4680656 4889074 4811952 4540272
2342.14 4326692 4268256 4259520 4327092 4247294 4049028
2345.03 4016744 4041040 3931446 3896292 3934858 3904168
2347.92 3771970 3658028 3590902 3464088 3362156 3314600
2350.82 3372034 3410622 3385188 3394426 3328426 3341706
2353.71 3618504 3673494 3530794 3537736 3494896 3476662
2356.60 3531442 3426718 3275146 3268316 3276688 3298574
2359.49 3350844 3206454 3139944 3181614 3018622 3036408
2362.39 3101988 2916614 2789590 2632474 2549558 2696134
2365.28 2678514 2662804 2635008 2475594 2507794 2452352
2368.17 2387928 2335072 2258980 2345048 2419234 2629056
2371.06 2961960 3122000 3353308 3198006 2660414 2492804
2373.96 2465786 2465682 2402402 2402408 2442528 2461028
2376.85 2488646 2583584 2667916 2745780 2795682 2684528
2379.74 2579330 2470230 2398608 2371606 2348292 2320570
2382.64 2246716 2158534 2133054 2161224 2197796 2186898
2385.53 2170288 2223322 2240232 2243210 2277792 2225432
2388.42 2187750 2242602 2244316 2252000 2274462 2323542
2391.31 2421958 2536830 2608806 2676756 2769254 2623968
2394.21 2409396 2456882 2861424 2852838 2629196 2672536
2397.10 2562814 2571770 2666012 2646294 2596676 2655534
2399.99 2782624 2787478 2780052 2923290 2978434 2971382
2402.88 2993618 2951562 2939200 2955700 2921278 2969296
2405.78 3076356 3032142 3018142 3158874 3173320 3238510
2408.67 3310842 3216650 3118236 3115256 3164074 3174450
2411.56 3136926 3170976 3232306 3247786 3330822 3442070
2414.46 3629894 4103268 4235664 3776724 3465544 3312502
2417.35 3338882 3627368 3753808 3532672 3400186 3437868
2420.24 3389154 3424620 3598292 3779270 3900166 3846326
2423.13 3697964 3457800 3225692 3116140 3161662 3219966
2426.03 3221006 3193160 3141710 3161610 3170152 3177886
2428.92 3209528 3222314 3261914 3250692 3183228 3284144
2431.81 3364330 3242298 3136776 2962334 2817412 2815664
2434.70 2833400 2841288 2829660 2815082 2828574 2822422
2437.60 2792846 2697990 2662212 2703134 2588042 2416460
2440.49 2400488 2461778 2403936 2305736 2202938 2146764
2443.38 2046376 1991434 2023586 1907768 1879930 1949902
2446.28 1927884 1911622 1925572 1949310 1924338 1892852
2449.17 1901270 1812178 1711030 1748076 1775760 1751846
2452.06 1650910 1614448 1643438 1584840 1536264 1548050
2454.95 1576004 1573346 1522638 1519830 1537208 1491180
2457.85 1461638 1422290 1400246 1493038 1515438 1474264
2460.74 1453350 1412436 1388024 1433840 1442986 1355860
2463.63 1322342 1315930 1359774 1417698 1449740 1470374
2466.52 1493516 1561604 1636376 1662188 1662434 1652644
2469.42 1619688 1584558 1607196 1652580 1574210 1543854
2472.31 1556602 1468526 1473976 1580296 1591518 1597914
2475.20 1700980 1774676 1758580 1638650 1656392 1716180
2478.10 1686960 1660750 1557354 1557722 1515032 1443514
2480.99 1509156 1537356 1576606 1606064 1706838 1849554
2483.88 1760570 1728546 1804262 1781146 1850118 2040296
2486.77 2130156 2107364 2111040 2053126 2099302 2219212
2489.67 2204862 2200544 2218586 2259926 2245608 2312496
2492.56 2356334 2354746 2426512 2408116 2483716 2518590
2495.45 2485760 2535198 2538552 2544840 2597756 2614592
2498.34 2689628 2753226 2784460 2858348 2882610 2883630
2501.24 2945066 3078830 3252352 3486372 3805710 4146006
2504.13 3979706 3401922 3147026 3074982 3049976 3115316
2507.02 3207480 3273254 3302170 3392500 3518690 3633088
2509.92 3608876 3447872 3389744 3366364 3247214 3309282
2512.81 3513368 3887830 4588220 5548276 5953880 5542462
2515.70 5181048 4665840 4108060 3696302 3525290 3634852
2518.59 3711866 3819216 4019682 4165892 4096366 4045678
2521.49 4051638 4161780 4325814 4360794 4346638 4340116
2524.38 4403508 4558654 4659330 4691364 4742320 4833898
2527.27 5003600 5128256 5062824 4988346 4823236 4536524
2530.16 4314700 4062880 3828624 3623612 3558352 3729962
2533.06 3828362 3869592 3866574 3857310 3842230 3699316
2535.95 3579234 3573494 3660626 3734184 3828318 3982866
2538.84 4345834 4767850 4367770 3539260 3170368 2989188
2541.74 2901780 2937516 2902112 2672944 2515250 2532696
2544.63 2596736 2619178 2690888 2784560 2818820 2787210
2547.52 2707818 2690092 2739030 2862380 2841102 2890012
2550.41 3013942 2865714 2821650 2922558 2872182 2796006
2553.31 2763484 2689964 2591500 2575290 2522406 2447074
2556.20 2397724 2366760 2270820 2179316 2266968 2266614
2559.09 2194412 2216888 2269882 2282468 2265590 2246264
2561.98 2206602 2149186 2144484 2126868 2154676 2196306
2564.88 2147932 2225324 2369240 2392256 2259278 2282828
2567.77 2411998 2375570 2267816 2247820 2361764 2475760
2570.66 2513744 2516350 2586832 2620092 2572140 2676250
2573.56 2795658 2741608 2640038 2623752 2694906 2767362
2576.45 2758114 2787064 3024230 3132464 3056236 3015848
2579.34 3095236 3308740 3405802 3404792 3407226 3313694
2582.23 3280462 3382372 3502004 3509042 3529240 3682430
2585.13 3823582 3864260 3943784 4104176 4209796 4319230
2588.02 4418648 4443080 4468288 4583314 4727892 5046228
2590.91 5361266 5361344 5218832 5149522 5228880 5311692
2593.80 5296226 5314526 5372622 5476174 5656502 5666712
2596.70 5652696 5812660 5933528 5905758 5919808 5947180
2599.59 5994432 6060116 6074720 6151822 6314924 6441134
2602.48 6493872 6646560 6704832 6579482 6530524 6519588
2605.37 6349596 6201024 6243514 6338840 6507176 6669172
2608.27 6695710 6666660 6620212 6644446 6698718 6703580
2611.16 6791200 6881650 6992932 7212722 7366626 7383720
2614.05 7234468 7034200 7027950 7097082 7110874 7115166
2616.95 7088866 7033414 6990938 6903494 6728134 6666304
2619.84 6591512 6457888 6476252 6572532 6619574 6571112
2622.73 6512902 6540822 6533308 6493626 6453146 6440902
2625.62 6591402 6672834 6571262 6522852 6609578 6480034
2628.52 6228184 6074898 6046116 6152806 6191228 6173268
2631.41 6126014 5972552 5843466 5866382 5918886 5863582
2634.30 5602972 5420714 5657864 6002022 5830708 5583710
2637.19 5393598 5144896 5057244 5018170 4994002 4942624
2640.09 4965110 4937214 4849938 4875494 4870670 4731276
2642.98 4615312 4581882 4596410 4408976 4135208 4146584
2645.87 4113538 4018080 4002584 4021656 4112004 4141614
2648.77 4086684 4104998 4116892 4117822 4068314 4014510
2651.66 4159682 4217616 4154312 3974744 3850764 3872220
2654.55 3815266 3707368 3623412 3540166 3425282 3280278
2657.44 3175370 3185800 3139028 3100452 3088622 2978834
2660.34 2879008 2810902 2681482 2603026 2543062 2449890
2663.23 2438256 2389994 2359570 2320446 2206376 2121066
2666.12 2140030 2167406 2094584 2002444 1938994 1808916
2669.01 1806788 1807878 1762896 1882456 2030918 2083532
2671.91 2543796 3483008 3085766 2025208 1734508 1586050
2674.80 1476104 1430824 1424506 1441092 1386864 1276374
2677.69 1265908 1274382 1291606 1409856 1473100 1387984
2680.59 1308016 1266138 1275426 1217464 1087218 1133974
2683.48 1190754 1194808 1268628 1214674 1132286 1132212
2686.37 1121078 1053442 993440 1122240 1238818 1166084
2689.26 1084978 1056812 1025294 1023204 1039176 1120422
2692.16 1089760 971082 1001568 1053662 1031528 1009516
2695.05 1041136 1110960 1155616 1115490 1105530 1170630
2697.94 1227030 1255328 1207666 1205282 1317484 1316542
2700.83 1296576 1381806 1351814 1339372 1526670 1646158
2703.73 1585170 1549948 1661382 1823308 1895020 1816864
2706.62 1795714 1886634 1975404 2029904 2136624 2257100
2709.51 2359184 2504568 2633568 2755078 2975124 3039344
2712.41 3088992 3278704 3406662 3556342 3747872 3943760
2715.30 4037510 4043404 4086312 4096126 4138016 4234112
2718.19 4240606 4310446 4459242 4539658 4489362 4569980
2721.08 4578758 4408332 4371084 4430464 4558116 4615074
2723.98 4431582 4340510 4308422 4326778 4429910 4418704
2726.87 4329742 4421090 4687410 5198010 5833288 6756282
2729.76 8148020 10014530 10159210 8302616 6918378 5656446
2732.65 4830954 4515968 4387656 4438258 4638854 4948260
2735.55 5270950 5402094 5496620 5790402 6096628 6413420
2738.44 6622016 6769636 6967720 7139250 7301468 7455008
2741.33 7560288 7589372 7536278 7457018 7412404 7447254
2744.23 7721286 8219988 8525098 8622836 8610760 8472434
2747.12 8318630 8116336 7968666 8054380 8111620 8009296
2750.01 7991502 7929342 7797728 7824584 7843412 7759830
2752.90 7745276 7769274 7811456 7915760 8085638 8226428
2755.80 8325692 8405254 8504472 8806516 9146316 9277280
2758.69 9464544 9593190 9524194 9579862 9722660 9895010
2761.58 10164010 10287860 10361230 10532100 10690850 10803330
2764.47 10944800 11052020 11211240 11428070 11713480 12098300
2767.37 12822270 14035190 15817740 18072550 20257300 21905320
2770.26 24246540 24224730 21082430 18602320 15480510 13657980
2773.15 13747340 14364130 15100820 15368010 15546260 15736850
2776.05 16031880 16444750 16767800 17082310 17482860 17827370
2778.94 18094180 18291800 18727830 19076510 19283210 19515090
2781.83 19787830 20084400 20322790 20624900 20993170 21548750
2784.72 21983760 22154440 22364250 22464050 22604050 22783430
2787.62 23083260 23614240 24079720 24230700 24176110 24246760
2790.51 24299940 24390250 24464530 24538140 24718100 24865360
2793.40 25029280 25189660 25257140 25302240 25266340 25207530
2796.29 25154340 25174480 25103240 24775770 24624280 24444430
2799.19 24131780 24034200 23974060 23812550 23611210 23595520
2802.08 23503660 23383590 23355700 23249920 23243060 23102490
2804.97 23179400 24023290 25520630 26630260 27645790 30371960
2807.87 34092740 35464730 34353680 37040250 40579320 33342040
2810.76 23819150 20880120 20156550 20152860 20282750 20387040
2813.65 20458090 20607560 20670090 20618020 20495750 20476620
2816.54 20191940 19777560 19766710 19917510 20061950 20161580
2819.44 20198490 20234940 20150330 19801750 19617960 19552590
2822.33 19397080 19270270 19407800 20240820 20913110 20720830
2825.22 20226630 19816250 19429480 19097780 18907240 18737060
2828.11 19170230 20067090 20844050 22028030 23509750 22710950
2831.01 20244830 19010930 18425460 18088100 17985990 18184080
2833.90 18474280 18729550 19160550 19474450 19605070 19707360
2836.79 19810000 19994440 20260270 20522470 20923020 21502970
2839.69 21900470 21932060 21910220 22202440 22712770 23052830
2842.58 23292640 23485730 23696040 23954100 24210980 24459820
2845.47 24705810 24967350 25117460 25400160 25741010 26009700
2848.36 26413280 26609610 26766320 27140920 27606280 27924950
2851.26 28036270 28632810 29547890 30635910 31918900 33061020
2854.15 34390660 35579250 36479040 37174000 36334680 35171250
2857.04 35100230 35519080 36260760 37177360 38227480 39503880
2859.93 40729060 42189230 44245480 46403110 48477730 50522280
2862.83 52641530 55161100 57692910 60351780 63053850 66412960
2865.72 70822060 82114420 91043870 85218780 77335650 74659600
2868.61 74883950 75454700 75777940 76426800 77020260 77465910
2871.51 77717230 77648170 77256200 76597400 76330130 76380810
2874.40 76216540 76472340 77303440 78233170 80564480 85918790
2877.29 94946940 103180200 101073100 91778250 85401220 83018760
2880.18 81547940 80649980 80249220 80401990 81717530 83865890
2883.08 85813380 88937770 92604920 98590060 106716400 124887300
2885.97 151688000 146843700 130324200 125179300 116470100 110685800
2888.86 108965100 109520300 110564300 112250600 114449800 117305200
2891.75 120901500 125052100 128906400 131398600 133744800 136260300
2894.65 138119000 140437200 143742100 147323100 150626100 154100700
2897.54 157187700 160281600 163426600 167485000 171773700 176284300
2900.43 180824300 183883400 186096500 188739700 192136100 194993700
2903.32 195743200 196648000 198129300 197931600 196759900 195385500
2906.22 194223300 192875800 192028300 192273200 193068300 193394600
2909.11 192968500 193405600 195417300 198644600 204220500 212529300
2912.00 220479200 226793400 234192200 242892200 251360800 259037000
2914.90 265050700 270572700 278034400 284800600 290215600 292588900
2917.79 293337400 299668500 307955800 312923500 316587700 320082800
2920.68 323729500 327326100 331196800 335424900 340250500 346112900
2923.57 353366400 360854400 367083900 369344900 366856400 366032300
2926.47 371664500 383073000 399468900 420704600 426657100 401602800
2929.36 372636300 363301200 365078500 368761700 370414000 370797100
2932.25 371832300 372866400 373730700 373239600 373000200 372581000
2935.14 371930300 371675500 371957200 374442700 379553300 384382400
2938.04 389721100 397368000 411693600 434086100 467072800 502406400
2940.93 535884900 533509300 472013800 413387100 383731700 370052100
2943.82 365357000 365381100 367677100 371621300 378095100 384862500
2946.72 391825900 399734500 408774900 418717400 429309800 438884300
2949.61 446504400 452474200 457427400 461549200 464525800 466558800
2952.50 467905400 469002200 469833500 470320400 470882300 471489200
2955.39 471904600 472473200 473156100 473022100 473419500 474763700
2958.29 475164900 475056500 475346500 476900800 478723900 480333100
2961.18 482622400 487135400 493064100 497661900 502252700 507473800
2964.07 513581500 519892800 527672900 536318500 546435900 557456300
2966.96 567371200 578492400 588831600 597431300 604661400 609450200
2969.86 611463500 610504100 606571800 599681700 590792400 579329900
2972.75 567285200 558832300 557622700 565394700 575339700 587552800
2975.64 608481300 635096400 663536000 689662100 711815400 730288600
2978.54 744776400 757907100 771138300 784118000 794876200 804698000
2981.43 815294700 826735900 843039200 863616100 870726700 864134200
2984.32 859159600 858275100 859263700 860357500 862178800 865968700
2987.21 871105800 874332200 876542500 878901100 881844000 885709900
2990.11 890510300 896221800 902271700 910330000 922279500 935001300
2993.00 945590700 946933400 939711800 936664500 936056200 916505300
2995.89 883874400 866801800 872712600 900139300 945331800 1014154000
2998.78 1119506000 1257019000 1407592000 1517716000 1503611000 1324136000
3001.68 1091385000 946958100 883640600 832342700 784387100 768023900
3004.57 766116400 765637200 770142600 774741700 777253300 778200100
3007.46 778289100 775953000 772394400 767449000 759875100 751761900
3010.36 745107300 738855700 731775200 724057700 719441200 717859000
3013.25 717131000 717838100 717494200 714604300 710465300 704254300
3016.14 697079400 688956900 679999000 671312400 663618300 655822100
3019.03 647926000 641548500 634915500 628727600 622535200 615840300
3021.93 609984300 603935600 598949000 594388700 589669500 585117200
3024.82 579916900 575161700 570968000 567228400 563925900 560885100
3027.71 558314800 555244400 551949000 548699100 545712100 543311900
3030.60 540922800 538416100 536168200 534203100 532929800 531879400
3033.50 531153100 530187600 529691400 530107400 530715700 531120300
3036.39 532784100 534531500 534651900 531359500 522162700 512074000
3039.28 505054300 498931000 492313400 483364200 474357700 463670800
3042.18 452612300 441333300 429731000 419884000 408607400 397098300
3045.07 391380400 392226600 400686900 417152000 447433600 492280800
3047.96 577985000 746227100 1034938000 1322850000 1390965000 1072188000
3050.85 584840200 356483000 307602100 291457100 297739800 307430700
3053.75 322396500 337055700 352397000 365749200 377055000 385873400
3056.64 393460800 398224900 401909900 404028000 405510100 405789400
3059.53 405257600 403496800 400435900 396894000 393195100 387949400
3062.42 381633400 374852200 368181700 360224700 351771200 343501400
3065.32 335151300 326354300 317474400 308498100 299584000 290879200
3068.21 282021200 273277300 264723100 255763200 247082800 238780100
3071.10 230738400 223148000 215402400 207627300 200149700 192795800
3074.00 185779000 179005500 172736000 166505100 160152000 153747000
3076.89 147521900 141898800 136474700 130956800 125651100 120501200
3079.78 115903800 111913500 107837900 103348600 98818300 94309410
3082.67 89991270 85841670 82075180 78215060 74615570 71408050
3085.57 68220680 65096360 61874270 58974800 56189090 53526660
3088.46 50888460 48314520 46130340 43919680 41675500 39496790
3091.35 37391730 35626400 34025960 32386920 31044270 29632300
3094.24 28110020 26728070 25490840 24538150 23525450 22398740
3097.14 21499040 20606220 19690770 18925330 18235960 17594870
3100.03 17126830 16475240 15774270 15139770 14523120 14067810
3102.92 13795930 13369330 12896290 12525600 12164980 11891920
3105.82 11671020 11285890 10895620 10646060 10518050 10451730
3108.71 10223240 10128790 10041650 9776404 9548068 9311174
3111.60 9285654 9240378 9091856 9155148 9113180 8925410
3114.49 8911660 8970780 8907682 8824942 8845650 8913500
3117.39 8948576 9022056 9068048 9002970 8929324 8846498
3120.28 8921010 9000032 9036622 8992604 8874292 8818666
3123.17 8818934 8901326 9024510 9013006 8879528 8960874
3126.06 9056410 9062472 9105144 9123034 9303586 9318070
3128.96 9275224 9436254 9496468 9542650 9538680 9455764
3131.85 9484672 9637132 9758766 9680118 9751930 10033390
3134.74 10155240 10176950 10273940 10361820 10346930 10254530
3137.64 10344730 10358360 10370010 10457920 10463960 10640190
3140.53 10837090 10839190 10857890 11100450 11302340 11589100
3143.42 12019050 12592400 13271750 13760610 13951050 13538830
3146.31 12853010 12324140 12092720 12025410 11948680 11985570
3149.21 12171520 12382380 12467440 12571770 12741780 12929700
3152.10 13035260 13095180 13350570 13475500 13426420 13656460
3154.99 13915580 13850370 13969750 14282390 14464280 14771980
3157.88 15212140 15595210 15880450 16119520 16467740 16868050
3160.78 17113110 17409920 17774680 18058450 18157600 17534960
3163.67 16526840 15727920 15341370 15282190 15064330 14870580
3166.56 14849030 14749250 14581360 14611880 14697800 14565980
3169.46 14410410 14250250 14206650 14386660 14463400 14502420
3172.35 14828460 15506230 16733260 19172990 22938930 23708040
3175.24 20111200 17024850 15628270 14745680 14364400 14173640
3178.13 13967340 13565030 13067010 12801000 12780220 12701290
3181.03 12485580 12287050 12344910 12482320 12458680 12389330
3183.92 12253950 12165860 11955960 11754920 11762990 11786170
3186.81 11682500 11480940 11325660 11098590 10853400 10757400
3189.70 10647340 10576720 10321400 9962732 9782260 9543982
3192.60 9259834 9050020 8753776 8417222 8286434 8191994
3195.49 7881076 7572480 7437960 7351068 7152772 6844846
3198.38 6555640 6405010 6204954 5925494 5738866 5545846
3201.27 5392024 5059128 4793330 4660882 4526188 4444616
3204.17 4263274 4135198 3997498 3922796 3922114 3779960
3207.06 3630658 3479398 3401304 3348362 3183844 3015930
3209.95 2906904 2726512 2770752 2767784 2613296 2493330
3212.85 2272738 2256886 2237362 2117468 2027746 2079830
3215.74 2037248 1852252 1665068 1673672 1826906 1613804
3218.63 1538614 1555830 1678160 1742772 1458960 1405464
3221.52 1331116 1308554 1378540 1285238 1177602 1175976
3224.42 1359110 1403532 1292084 1229534 1127564 1135136
3227.31 1122552 1059870 1047394 1163096 1329934 1176160
3230.20 1042522 1044340 1038410 1053344 811140 835582
3233.09 945306 800704 798112 915204 947764 792278
3235.99 890520 1051996 979982 848868 756344 810018
3238.88 882984 839494 794964 756124 708366 687286
3241.77 676032 638994 768062 911012 798344 657580
3244.67 729022 808816 880010 863686 752132 892764
3247.56 864596 663896 759004 1024900 1042940 903724
3250.45 832886 708238 800494 890900 853290 922864
3253.34 977310 902214 797426 843668 758804 779630
3256.24 858808 805248 874408 926776 757572 663264
3259.13 964244 963734 716122 847274 943562 866838
3262.02 793964 761064 867304 835880 763270 800424
3264.91 904934 904046 871118 1013804 1114356 952746
3267.81 717026 820626 850776 826566 865184 702656
3270.70 735424 825400 729768 738588 781316 822188
3273.59 781128 657638 627686 794648 950796 1006224
3276.49 1056184 1054110 1090496 1144552 1157970 1082670
3279.38 1067774 931808 944910 1278620 1268768 934506
3282.27 800832 962784 1057696 1058060 1149804 1033260
3285.16 957016 1076586 1087376 966974 897822 1015658
3288.06 1057524 1062420 1168778 1143596 1155502 1142650
3290.95 1117196 1191808 1329422 1408934 1300770 1353300
3293.84 1231486 1021236 1042764 1237386 1298070 1215430
3296.73 1200946 1223378 1259412 1297924 1212814 1061716
3299.63 1094070 1091960 1088440 1123472 1007292 982098
3302.52 1058606 1183090 1161044 1051954 1169596 1279336
3305.41 1186366 1000412 1135166 1267278 1241904 1241352
3308.31 1300134 1290078 1417234 1411802 1288438 1465352
3311.20 1432124 1302660 1308148 1493884 1634656 1571016
3314.09 1626592 1637812 1538222 1756826 1931576 2061100
3316.98 2217692 2131256 2042576 2234964 2317166 2364012
3319.88 2551818 2460176 2463866 2606122 2768602 3027500
3322.77 3223840 3229744 3321052 3536042 3438320 3389412
3325.66 3599450 3632190 3775184 4115556 4277002 4250434
3328.55 4074496 4165344 4314636 4307430 4291442 4323582
3331.45 4410318 4338418 4204450 4036552 4077526 4233006
3334.34 4267114 4291112 4315352 4199060 4215088 4134452
3337.23 4081126 4312626 4527450 5006930 5626554 6161528
3340.13 6766642 7098012 6854920 6077520 4998576 4318630
3343.02 4211286 4003708 3911090 4051376 4073740 4132840
3345.91 4232874 4232380 4254174 4407780 4612046 4775806
3348.80 4849460 4995482 5245396 5302940 5244758 5188808
3351.70 5298280 5699330 5723128 5543294 5601986 5592610
3354.59 5395148 5226632 5293428 5265556 5073634 4972464
3357.48 5009624 5101238 4983812 4714508 4633000 4653102
3360.37 4656480 4774766 4654666 4471828 4353244 4222950
3363.27 4021092 3890858 4099190 4177324 3941868 3868158
3366.16 3853490 3746252 3693212 3699224 3773572 3684334
3369.05 3669604 3831964 3798906 3714714 3763512 3828558
3371.95 3868522 3839690 3865932 4038672 4097092 3899860
3374.84 3854090 3916360 3897706 3873432 3857506 3807826
3377.73 3761824 3628504 3643380 3879936 4020700 3915954
3380.62 3736782 3697374 3786160 3772162 3631370 3786754
3383.52 4221476 4508024 4442830 4488390 4672466 4656734
3386.41 4396232 4353118 4306238 4024078 4006510 3951578
3389.30 3903758 3847336 3727352 3584910 3583494 3817028
3392.19 4023800 4121740 4267858 4522626 4709852 4776536
3395.09 4722306 4543276 4283210 4238034 4112606 4057106
3397.98 4187780 4113178 4038856 4157528 4256388 4272014
3400.87 4328364 4296342 4270990 4330096 4309918 4174000
3403.77 4034602 3864770 3729408 3707374 3755072 3785372
3406.66 3733530 3537570 3460196 3749628 3862320 3938608
3409.55 4055926 4052932 4026890 3764760 3570658 3581160
3412.44 3471160 3233652 3194310 3367766 3331738 3348742
3415.34 3594102 3652344 3461988 3235550 3009630 2899490
3418.23 2858888 2703244 2515740 2466490 2581506 2658410
3421.12 2671380 2549892 2505318 2466014 2400116 2586070
3424.01 2502236 2549464 2687988 2510252 2505884 2515906
3426.91 2432810 2545302 2408530 2274396 2348480 2411752
3429.80 2484370 2505988 2339010 1962326 1984038 2103962
3432.69 2008186 1933676 1925340 1911082 1937680 2000052
3435.59 2073962 2028788 1911344 1709716 1717980 1826710
3438.48 1686200 1635074 1696278 1671280 1670562 1736590
3441.37 1678082 1640316 1876372 1975456 1893290 1786368
3444.26 1713626 1678578 1703932 1748940 1762336 2029144
3447.16 1956622 1660702 1590930 1733480 1657996 1556402
3450.05 1717772 1695592 1638972 1647470 1628054 1549540
3452.94 1483134 1377696 1406758 1458534 1301098 1200324
3455.83 1148126 1061272 1102372 1256568 1354854 1254804
3458.73 1455482 1936918 2084222 2248190 2229034 1977604
3461.62 1912394 1785486 1610764 1524508 1592826 1450520
3464.51 1171534 1177346 1078260 1059384 1343968 1424666
3467.40 1262438 1190438 1232376 1433578 1453976 1456238
3470.30 1421074 1357948 1272590 1075418 1091252 1192496
3473.19 1132880 1034192 1153234 1242050 1248872 1120164
3476.08 1008732 1137120 1331694 1133950 1055184 1076818
3478.98 1024470 1085080 933388 780474 738854 907426
3481.87 1069386 956204 807454 759284 774472 624698
3484.76 502792 559376 542744 502330 568824 670392
3487.65 663514 674808 642824 630794 545136 546492
3490.55 670630 555756 421268 448518 570988 494612
3493.44 306630 494664 784250 739678 830574 867994
3496.33 723550 648114 555170 558294 560486 551718
3499.22 492308 482562 498100 560520 661732 649144
3502.12 765046 840894 643998 388818 360250 348824
3505.01 214766 394600 605672 536100 521952 495102
3507.90 671658 928352 900672 722634 516890 534580
3510.80 639084 428870 452446 812586 790466 471106
3513.69 477692 671304 630814 607330 715220 820076
3516.58 775968 677654 545696 534708 605570 617418
3519.47 715316 664656 631876 768122 745566 570244
3522.37 649674 943406 1048050 872814 698672 816682
3525.26 853750 764692 937314 825168 502924 615846
3528.15 842864 900346 735782 637644 602970 759900
3531.04 931014 683268 651930 773450 686164 700632
3533.94 796274 781004 627494 586898 742188 769986
3536.83 772154 797372 873324 864194 728446 839444
3539.72 861044 913504 1008844 806570 661118 604548
3542.62 531764 730422 802162 754018 887000 810258
3545.51 559778 655806 836020 512564 555764 850930
3548.40 737116 702358 697276 758650 921096 919426
3551.29 897748 971460 790076 729620 824866 731098
3554.19 693422 678658 667792 738520 793458 877010
3557.08 819788 784252 822116 781698 814620 695900
3559.97 719496 866336 782678 718304 662338 625644
3562.86 656820 715600 932860 916534 904054 1122614
3565.76 1246440 1417850 1195220 1203166 1409388 983676
3568.65 570776 487300 693848 719544 789972 879088
3571.54 798994 675978 584244 616902 678016 755286
3574.44 699614 636054 719132 754442 685524 698820
3577.33 640658 612794 761794 856810 959934 899662
3580.22 750656 842664 785338 686270 641628 773790
3583.11 856660 745912 714960 835300 919004 923524
3586.01 1460432 1412690 995310 896690 1391490 1543372
3588.90 681648 511484 648430 726716 764236 810498
3591.79 929876 827298 843868 903386 886256 916372
3594.68 1145874 1185676 994640 919992 814166 793344
3597.58 865758 878722 807738 747092 743506 842212
3600.47 940142 841404 901380 914938 856382 848640
3603.36 671872 631972 724196 760462 882878 939594
3606.26 1157058 1301574 1113860 857202 1309524 2408800
3609.15 1841208 940496 920610 937202 1001466 1370446
3612.04 1877916 1490608 971192 1028098 1166408 1103240
3614.93 991376 877550 858148 849994 1305038 1544894
3617.83 1274218 1225722 1931964 2279332 1309794 928406
3620.72 1033720 871772 753166 889080 1082198 1135346
3623.61 1148186 1184424 1109730 1064746 1203552 1032496
3626.50 861324 1044554 2290036 2968540 2201662 3273378
3629.40 3013208 1406328 1194004 1098262 1123346 1129818
3632.29 1114348 1251204 1540316 1368578 1222276 1273728
3635.18 1220866 1080382 1111024 1212780 1295128 1479028
3638.08 1385194 1271676 1303480 1270028 1336050 1333870
3640.97 1194090 1240482 1272430 1241942 1342924 1392830
3643.86 1362170 1431014 1541742 1703134 1817076 2204060
3646.75 2741070 2506536 1840236 2433986 4235380 3463698
3649.65 2312306 2789150 2877028 2485572 1848030 1802226
3652.54 1857828 1847372 1949446 1935608 1829258 1933298
3655.43 3130564 3718382 2491986 2039888 2090512 1996880
3658.32 2139956 2126720 2027912 2061252 2223016 2292918
3661.22 2416070 2338118 2176156 2327262 2435598 2416124
3664.11 2351830 2354638 2453748 2501458 2513710 2586012
3667.00 2682432 2760050 3584238 3900538 3348984 3318508
3669.90 5124076 6085516 3990484 2988166 2935816 2954616
3672.79 3160080 3190248 3602918 4816840 4824224 5460076
3675.68 6046218 4101612 3445938 3462968 3255472 3361114
3678.57 3696472 3753032 3440334 3426946 3371702 3325154
3681.47 3290542 3214492 3263220 3204812 3325042 3387102
3684.36 3349920 3451162 3541844 3619392 3696560 3739444
3687.25 4259180 6768674 6850814 4493104 4045476 3983092
3690.14 4042230 4647710 4565330 3857820 3611324 3533788
3693.04 3524336 3553876 3492954 3466646 3607206 3643100
3695.93 3716430 3810184 3781186 3811314 3777406 3640642
3698.82 3614572 3628566 3631128 3631414 3941686 4469160
3701.72 4184278 3713392 3644186 3638516 3686386 3648736
3704.61 3708704 3710000 3763690 3872764 3799864 3762778
3707.50 3891708 3924618 4520768 5057248 4297920 3934200
3710.39 4269240 4345574 5790312 6564288 4994624 4244810
3713.29 4221664 4211500 4408088 4283318 4226534 4436888
3716.18 4385252 4431576 4601070 4654618 4766200 4792140
3719.07 4751776 4665776 4566094 4678500 4822618 5383116
3721.96 5616540 5265018 5051874 4976620 5149184 5413948
3724.86 5369806 5193962 5915292 6163602 5646090 5699520
3727.75 5793372 5834054 5885862 6059842 6088652 6170062
3730.64 6225596 7091588 8478578 7773982 6749456 6705036
3733.54 6948298 7675078 8255164 8046216 7690000 8886092
3736.43 9071194 7763260 7643996 7930678 7862906 7741566
3739.32 7724254 7795072 8091602 8235324 7818402 7788858
3742.21 7993784 8433150 9439908 11964170 13968930 11470430
3745.11 8915998 8624698 8669644 8899668 9012254 9278988
3748.00 9540872 11509110 13050270 10944950 9463176 9733718
3750.89 9998990 12413830 13810410 11441660 10339040 10317620
3753.78 10225690 10439070 10554420 10679710 11217340 11687870
3756.68 11282460 10984760 10739830 10454120 10534400 10936530
3759.57 10656270 9875200 9585060 9566950 9700364 9782594
3762.46 9779766 9548172 9224516 9321404 9495746 9800082
3765.35 9960118 9601576 9462182 9319860 9159892 9150392
3768.25 9155822 9511496 10425900 10304710 9379736 9132952
3771.14 9164806 9074044 8773522 8744478 8878894 8918308
3774.03 8891592 8876000 8738874 8742954 8834746 8663114
3776.93 8450080 8503196 8642584 8641746 9107940 9044420
3779.82 8200948 7928976 7946954 7919092 7855892 7883892
3782.71 7861492 7615972 7646984 7823358 7845368 7852684
3785.60 7681640 7611948 7624994 7446490 7246262 7276608
3788.50 7287364 7155212 7171804 7405646 7433376 7218814
3791.39 7287368 7366820 7291654 7264274 7173042 7140300
3794.28 7223448 7264128 7406786 7932186 7826860 7288780
3797.17 7204862 7247538 7220342 7141562 7068364 7422388
3800.07 7749480 9748742 10874850 8357684 7461602 7831656
3802.96 7765760 7851208 8058874 8371860 8768942 9253734
3805.85 9970626 11785570 11222640 8720866 7771322 7437732
3808.75 7072018 6635500 6423886 6429102 6526234 6617918
3811.64 6676068 6987778 7166104 7218152 7273690 7512320
3814.53 7567498 8860388 11646430 10704930 8639156 8561678
3817.42 8509960 8593806 8388286 8242582 8262640 8928740
3820.32 9231104 8981974 9264960 8379484 7691226 7688024
3823.21 7398884 7434114 7429550 7207254 7169114 7325878
3826.10 7645242 7511342 7209740 7219802 7110166 7008142
3828.99 6959554 6971154 6993308 7176410 8005564 7924748
3831.89 7070300 6964874 6953242 7093304 7445380 8355786
3834.78 8242452 7484596 7522894 7386694 7745976 10266840
3837.67 9754512 7160220 6919332 7011614 6890762 6861012
3840.57 6987450 6451768 6128382 6023268 6020994 6633912
3843.46 6802520 6240590 5891038 5716676 5799828 6005136
3846.35 5994336 5739078 5638658 5796552 5924398 5907380
3849.24 6054556 6006620 6096930 6301874 8104710 9398708
3852.14 7489802 6718782 8589834 11494030 10396000 7110856
3855.03 6272268 6120710 5996080 6292058 6242526 5776174
3857.92 5679476 5689378 5606320 5473082 5692008 5747448
3860.81 5917648 6450574 6066240 5681946 5742514 5916480
3863.71 6218136 6927036 7472946 6756674 6218966 6249200
3866.60 6183518 6139188 6288776 6601594 7114134 7431062
3869.49 8349174 7658704 6356632 6466416 6376644 6436656
3872.39 6430782 6673286 7138350 7403070 7032344 6576170
3875.28 6414176 6394974 6494558 6579294 6659778 6600856
3878.17 6520516 6423322 6927288 7731646 7583278 7285658
3881.06 7056956 6882310 6931602 6966716 7152484 7243778
3883.96 7309162 7538662 8568960 8899986 7701714 7198350
3886.85 7331130 7351916 7310190 7207684 7110242 7126156
3889.74 7335902 7871408 8785494 8524450 7780646 7619758
3892.63 7586416 7655052 7675452 7476042 7087764 6861400
3895.53 6974848 7249208 7266288 7375492 7704122 7853668
3898.42 8250038 8696076 7986716 7424488 7364316 7767666
3901.31 8347252 7733288 7240540 7075008 7551502 8253996
3904.21 7579008 7020260 7039350 7099272 6967356 6744836
3907.10 6756788 6904672 6956310 6883884 7035240 7052742
3909.99 7089768 7034520 6956144 7142896 7113690 6947860
3912.88 6963142 7100816 6994318 7009424 7034746 7084668
3915.78 7113834 7177624 7559992 7292978 7045454 7280246
3918.67 7263220 7418268 7648388 7397870 7121050 7160128
3921.56 7278672 7236206 7292562 7481582 7626494 7773074
3924.45 8078816 8042830 7777096 7804252 7833832 8001424
3927.35 8070378 7971976 7988948 8226922 8250958 8082954
3930.24 8196470 8308692 8460548 8768544 8597122 8329306
3933.13 8399516 8285614 8262214 8286782 8295580 8474362
3936.03 8451944 8250970 8138836 8094342 8161114 8169698
3938.92 8509082 9156132 9825108 10693590 10848470 10108200
3941.81 9281660 8769840 8468318 8371080 8374638 8290504
3944.70 8500964 8703060 8793722 9046758 9330278 9410752
3947.60 9344428 9328562 9219020 9185268 9266570 9299232
3950.49 9358380 9524610 9520970 9406184 9636446 9598066
3953.38 9234142 9152848 9258264 9201104 9062298 8866080
3956.27 8898736 8875628 8723484 8733168 8569932 8461464
3959.17 8397986 8362730 8261422 8109786 8107856 8182364
3962.06 8126942 7959156 7867510 7877514 7933524 7757862
3964.95 7586562 7597156 7668002 7578972 7537370 7547996
3967.85 7344112 7326626 7401194 7448464 7427836 7218704
3970.74 7094444 7171848 7166168 7243636 7276644 7054536
3973.63 7057944 7162392 7088196
##END=
