##TITLE=Propylene Oxide
##JCAMP-DX=4.24
##DATA TYPE=INFRARED SPECTRUM
##CLASS=IUPAC A
##ORIGIN=NIST, Anayltical Chemistry Division, 301-975-3108
##OWNER=COPYRIGHT (C) 1998 by the U.S. Secretary of Commerce
##DATE=98/10/1
##$SPECTRA VERSION=1.00
##$UNCERTAINTY IN Y=2.1 % relative (B=1.1E-04,C=9.8E-10,D=2.7E-14)
##CAS NAME=1,2-Epoxypropane
##CAS REGISTRY NO=75-56-9
##MOLFORM=C3 H6 O
##MP=-104.4 C
##BP=34.3 C
##$NIST SOURCE=QUANT-IR
##SPECTROMETER/DATA SYSTEM=IFS66V (Bruker)
##INSTRUMENT PARAMETERS=KBr Beam splitter; MCT Detector; Multipass cell
##STATE=gas
##SAMPLE DESCRIPTION=Propylene Oxide Primary Gas Standard
##PRESSURE=101.3 kPa
##TEMPERATURE=23 C
##SAMPLING PROCEDURE=1 L/min Flow
##RESOLUTION=1.9290
##DATA PROCESSING=Triangular Apodization
##XUNITS=cm-1
##YUNITS=(micromol/mol)-1m-1 (base 10)
##XFACTOR=1.0
##YFACTOR=2.2737E-13
##DELTAX=0.9645
##FIRSTX=574.687
##LASTX=3974.595
##FIRSTY=-3.27E-07
##MAXX=3973.63
##MINX=574.69
##MAXY=.0003231
##MINY=-6.08E-07
##NPOINTS=3527
##XYDATA=(X++(Y..Y))
574.69-1438194-1891778-1747306-1824004-1902684-2275008
579.51-2674556-1661440-1437906-1745592-1924210-1847024
585.29-1675954-1439418-1047128-1393902-1361748-1368548
591.08-1307584-1267520-1736958-1761834-1477256-1355944
596.86-1278726-1054176-1030178-1438592-1454006-811462
602.65-767182-860178-746300-846060-1025156-1249412
608.44-1288944-1033984-939202-993584-721074-742530
614.22-915906-908394-943516-1048040-973856-1101616
620.01-1246758-974628-1081428-980568-707524-1086556
625.79-1303090-1178954-1003174-951644-1438780-1616916
631.58-1414182-1288374-1242906-1440826-1482326-1422610
637.36-1402396-1473184-1521054-1213304-1105706-1207568
643.15-1081824-870382-1040142-1456472-1586370-1377902
648.93-1172306-1281638-1487542-1535176-1330944-1238430
654.72-1256326-1173624-1061772-1050142-1181502-1346808
660.50-1325256-1166962-1272352-1379242-1324792-1265182
666.29-1264336-1346254-1154758-902026-1040556-967260
672.08-783594-803682-1028656-1192242-1036954-964286
677.86-822154-661966-770318-870010-877688-977992
683.65-1065058-906524-672578-578810-762978-727862
689.43-474366-480134-507940-69218 211076-118258
695.22-68880 129808 177774 261728 365106 438000
701.00 471852 623282 908332 1049438 1263868 1518194
706.79 1794376 2361114 3137078 3273498 2965578 3249968
712.57 3735088 4180410 4685824 5299790 6047786 6711814
718.36 7456814 8498726 9367996 10246740 11213980 12235130
724.14 13590590 15183730 16842580 19085300 21502580 23898180
729.93 26384470 28784120 31851000 34810680 38094190 42280650
735.71 47029680 52097090 57052820 61956370 66786800 71658360
741.50 76702220 81441010 85705270 89209300 92313900 94922140
747.29 97037770 98660790 100471200 103147900 105988600 107340800
753.07 113228600 120861300 129479100 138744100 122249200 100234600
758.86 95770940 100438100 111116700 121099200 129744800 137752000
764.64 145568200 152450300 157997700 161302100 161796800 160219900
770.43 156137600 149984500 142686500 133792000 123749300 113482400
776.21 103328500 94623970 89337300 81948020 74452240 69686110
782.00 63845430 59621230 56898800 54859960 53520930 52932660
787.78 53105360 53702480 54783780 56457590 58570450 60942560
793.57 63620660 67167470 71100980 75495040 80686380 86784610
799.35 93628460 101169900 109951800 119971700 130909300 143141500
805.14 156944600 171856900 187714300 205423200 224873000 246089600
810.93 268906700 293454800 319502000 346885700 375896800 406095500
816.71 436608300 467539700 498894600 530137100 558233900 583878000
822.50 606172700 624291700 636964900 645223600 648131800 646199700
828.28 638722900 626677800 602249900 566798700 535832500 552144100
834.07 630001800 789630400 930965000 728169200 519170100 556993800
839.85 598124600 629333900 642535200 647249300 650646700 653026800
845.64 650625600 644194800 631234700 612315000 587421200 557398000
851.42 523684900 487437500 449570000 412144400 375643700 341221100
857.21 309669300 280239700 253436500 229817100 208286000 189459900
862.99 173093000 158321900 145278200 134028500 123953800 115015800
868.78 106957300 99777340 93362860 87564350 82469220 77967040
874.57 73941180 70568080 67659700 64930060 62645830 60739970
880.35 59067550 57650490 56462870 55396420 54687980 54035450
886.14 53532780 52757170 51811480 49796960 47354280 43631500
891.92 45144990 56854010 54955980 46335570 43825040 44563100
897.71 46972590 48737710 50517480 51104010 51656880 51975350
903.49 52205390 51805380 51719960 51865300 51855180 51768220
909.28 51842550 51902060 51861180 51623650 51488800 51473900
915.06 51719430 52123770 52822760 53847350 55009610 56570120
920.85 58620840 60892940 63566200 66495920 69765320 73275480
926.63 76787540 80853270 85436000 89885970 94641370 99742570
932.42 105051400 110776900 116915900 123254300 129654500 136284600
938.21 142773000 148836400 154823500 160496500 165890800 171393200
943.99 176446000 180840300 184722100 188929000 192749700 194532800
949.78 193621900 188770000 180484400 171317600 163925100 148657300
955.56 139346600 159154800 180270000 188736800 199994400 208610800
961.35 208728900 206894200 203407200 197582800 192537600 187806500
967.13 182419000 176839700 170455900 163148100 155782800 148236700
972.92 140606500 132922800 125527900 118752900 112412300 106452500
978.70 101079600 96324170 91837400 87397200 83358390 79793150
984.49 76693720 74046220 71665950 69724580 68191310 66938220
990.27 66216820 65904940 65872680 66447880 67578700 69097220
996.06 71004740 73370020 76039900 79156540 82656270 86258940
1001.85 90265650 94461290 98585920 102601800 106826100 110876600
1007.63 114753200 118523500 122097000 125554200 129065700 132763300
1013.42 136595900 140082800 142452900 142258600 138111900 129797800
1019.20 117672200 105403800 104835700 110195600 103757600 108341100
1024.99 128706700 143339900 150227900 150510900 147014300 141862600
1030.77 136401700 130845400 125578000 120574900 115832600 111134600
1036.56 106117700 101044300 96116730 91160090 86325120 81546210
1042.34 76826980 72377740 68134050 63763100 59547480 55788770
1048.13 52104350 48369930 44948430 41691390 38479270 35482410
1053.91 32768700 30217440 27831110 25603400 23585740 21714110
1059.70 20083010 18639680 17365060 16336350 15584360 15061930
1065.48 14657240 14329210 14222470 14377250 14703350 15104560
1071.27 15591240 16369890 17290700 18300240 19563980 20997610
1077.06 22546310 24174770 25997120 28017040 30244370 32304300
1082.84 34403830 36777760 39335750 41853240 44447930 47239080
1088.63 50041500 52774080 55697540 58658420 61669520 64775290
1094.41 67831580 70804730 74230780 77651410 80990660 83917650
1100.20 86605280 88947940 92108470 92254220 91304420 96991460
1105.98 109116100 115784200 106196200 108211200 124341100 135424000
1111.77 142855600 144580800 142605300 140227800 138591800 136771900
1117.55 134703400 132550800 131352600 131231500 130735700 130229700
1123.34 131200000 131938900 130706600 127857600 126812300 126887200
1129.12 128205100 130601500 149592500 152980800 122127100 105828600
1134.91 102230700 101561600 102389100 102162900 100466800 93128380
1140.70 87950720 84827910 95884370 113065400 102810100 82379260
1146.48 74035040 75193490 75423130 74896950 73689940 70013180
1152.27 68983820 69070120 69302730 70153250 72562390 76129130
1158.05 73363130 65507940 61335780 58591590 55542100 52629350
1163.84 49471560 46031740 42878940 40311760 39076440 37558410
1169.62 35298050 33529630 31669380 29672730 27650330 25586290
1175.41 23663940 21866350 20241970 18665530 17244490 16054670
1181.19 15020040 14200010 13345970 12502040 11923840 11334880
1186.98 10915930 10998800 10399600 9444052 8920574 8445116
1192.76 8097108 7695684 7367798 7155620 6895010 6802602
1198.55 6884918 6897204 7464374 8193700 7489366 6152264
1204.34 5694070 6041444 6815840 6539930 5986992 6172030
1210.12 6350726 6558134 6732942 6870204 7054026 7234158
1215.91 7395268 7542060 7667846 8024172 8668762 9948264
1221.69 11039760 10316730 10166400 11015420 11757750 12766270
1227.48 13971520 15328570 16714220 18346370 19949540 21452640
1233.26 23216410 25069140 26940810 28984240 31167910 33356600
1239.05 35764390 38288080 40814260 43511030 46383550 49460140
1244.83 52892480 56248380 59528160 63787290 67617980 69306780
1250.62 71554340 74165460 76479640 78651420 80333650 81750540
1256.40 83894180 86233340 87748430 88457470 89786570 87344510
1262.19 82043710 74340320 80134490 115920900 110578800 78325700
1267.98 76287520 80711720 84490660 87440350 88940340 88591900
1273.76 87277930 85312720 83354060 81161980 78814060 76166810
1279.55 73407440 70428900 67214920 63827730 60478900 57142950
1285.33 53861200 50651300 47608200 44595320 41709670 39021790
1291.12 36532670 34196020 31973180 29826250 27774930 25863980
1296.90 24068070 22288420 20563370 18952340 17491270 16045480
1302.69 14746350 13678270 12846150 11904820 10934830 10221200
1308.47 9612998 9067194 8585994 8134838 7664164 7287150
1314.26 6971762 6699686 6475678 6327414 6246382 6135184
1320.04 6121052 6124768 5956532 5872812 5987568 5967692
1325.83 6046762 6254390 6517996 6880314 7327538 7746166
1331.61 8032732 8437214 8960262 9570306 10242120 10854330
1337.40 11623280 12576420 13399880 14169950 15145690 16132700
1343.19 17137530 18190470 19330590 20598660 21963080 23503380
1348.97 25181470 27144260 28727940 29582220 30836170 32376060
1354.76 33975040 35580570 37292320 38776680 40081600 41139990
1360.54 42076460 42942490 44520060 46328860 46335870 45735650
1366.33 47317110 47824600 52441940 64060960 101170200 141059900
1372.11 103945100 56565820 52602050 56084680 62154080 66389270
1377.90 70063590 73677450 77886930 82380500 87837710 94562880
1383.68 102902700 113241600 126168300 142374000 161363200 178359800
1389.47 192661800 210128800 230476100 251922900 273115600 292711500
1395.25 309835200 325078800 337384800 342212400 336201800 326588700
1401.04 314542600 300054200 283234000 269730400 261133000 267703400
1406.83 293545300 362067500 490618900 646936300 643445800 363211300
1412.61 182767600 191893600 214411400 250272700 285007200 320603700
1418.40 350664500 374185300 389561900 398730500 399591400 393432900
1424.18 380171300 362218700 340615900 316969200 292127000 267386400
1429.97 246484900 230670300 211722400 193552700 179876200 169892400
1435.75 162645800 155644400 150261700 147151600 145500400 145765500
1441.54 146398500 146367900 144893600 141045200 135099500 127935100
1447.32 122958400 127764700 124114300 117523300 123488400 130600000
1453.11 136154500 138003000 136956400 135005700 131068600 132635600
1458.89 139091600 163998400 201004600 181795800 157270300 167496300
1464.68 153496000 139782200 139926100 137651300 138865100 142339400
1470.47 148273100 155788200 162278900 157970200 144270200 137216900
1476.25 135415700 133743600 132188000 129760400 126391200 122759500
1482.04 119349000 115858700 114529000 119549100 141215900 160096300
1487.82 143131400 118667000 107461000 98438930 94514470 95796950
1493.61 98486580 102317300 105550400 106911700 108785400 109568500
1499.39 108736500 107052900 104484600 101237300 97855450 95033120
1505.18 91568920 87073920 81633020 76821930 73149420 70637340
1510.96 69560130 66915250 64350810 64746900 64750720 59488100
1516.75 53036070 50969250 50309190 52459010 54684160 55298800
1522.53 56565300 58368580 60625230 61378880 61308550 60383250
1528.32 58121510 55171080 52020550 48786960 46595590 43271050
1534.11 37523040 32810980 28945600 26489470 25667290 23628350
1539.89 20983200 19912730 18528940 16575400 16003710 15052750
1545.68 13664300 12835660 12121430 11741980 11067580 10258830
1551.46 9544626 9776000 10294470 9184808 8470146 9566698
1557.25 10692810 10369050 10020610 8444920 7294418 7442030
1563.03 7622302 7894014 7768678 7933902 8258790 9088758
1568.82 9844104 9534770 9520978 9830786 10035760 10411140
1574.60 12316430 13014340 11453510 11285190 11419260 11355860
1580.39 11340600 11343510 11332030 11341050 11389290 11419320
1586.17 11519910 12146940 13339740 14413990 14874070 13345930
1591.96 10898070 10261070 10802510 11536940 12075800 12536280
1597.74 13180060 13842860 14434110 14829320 15008070 14869670
1603.53 14454560 13836630 13111580 12264320 11401780 10598430
1609.32 9725338 8830478 8109164 7586608 7341466 7215914
1615.10 8471496 8863792 7225226 6711404 6608350 6587680
1620.89 6634818 7215744 7524788 6926962 6696306 6884608
1626.67 7244894 7187344 7074134 7243236 7533180 8040010
1632.46 8287324 9223076 11098270 10439680 9235470 9258180
1638.24 9219106 9386862 9587652 9756582 9806350 9722474
1644.03 10426540 11607010 11432010 11803860 12313250 12445390
1649.81 12702250 14072730 16211190 15410830 13469950 12709720
1655.60 12716390 13007380 13162100 13291900 13196960 13229700
1661.38 14022990 13882930 13056220 12897660 12670630 12450320
1667.17 12592620 13103410 13048930 12894640 13466960 12733930
1672.96 11711100 12586490 12635950 11854150 11757450 11650890
1678.74 11784800 11778680 11669350 12048450 12961000 14407500
1684.53 13155850 11027750 10795750 10424790 10080430 9816784
1690.31 9567504 9370200 9342642 9284382 11044970 11949350
1696.10 9935738 9088944 9876922 11573450 10882990 8943966
1701.88 8473482 8629448 8668858 8542212 8364538 7698548
1707.67 6969232 6631992 7504796 8414754 9009446 9063646
1713.45 9024026 8841970 9252152 10740170 10243930 8930216
1719.24 8248230 7871622 7625072 7379640 7006046 6491816
1725.02 6114424 5764788 5416922 5204272 5181956 5156532
1730.81 4916562 5102442 5843682 5389146 3789328 3045868
1736.60 2998276 2992468 3398206 3075048 2433960 2410702
1742.38 2371220 2162500 2010022 2018830 2009742 2106396
1748.17 2012948 1942558 2613008 2263614 1486236 1450660
1753.95 1428732 1643950 1905990 1728034 1619794 1685416
1759.74 2050680 2695758 2455096 2137236 2229810 2364354
1765.52 2532894 3044892 3391336 3022342 3238568 3840698
1771.31 4638104 4445122 3637594 3747058 3798820 3665724
1777.09 3484926 3324310 3469276 3604382 3834014 4186024
1782.88 4367046 4530102 4242764 3979930 4010702 3998266
1788.66 4242200 4760310 4943264 5376408 5044634 3813122
1794.45 3402368 3445078 3438208 3587208 4002694 4075656
1800.24 3975316 3902300 3705610 3562572 3492308 3378388
1806.02 3228046 3017846 2740930 2657100 2566670 2297092
1811.81 2019660 1762128 1648500 1523582 1356198 1209268
1817.59 1169126 1337542 1760502 1871932 1496058 1235878
1823.38 1363226 1578314 1344878 1269330 1464464 1744366
1829.16 1875620 1589314 1499862 1521168 1506896 1589288
1834.95 1606780 1634564 1687104 1738928 1866086 1907352
1840.73 1916086 1919070 2588038 2815788 2137568 1930636
1846.52 1890178 1834548 1872148 1946230 2003682 2082114
1852.30 2231876 2347636 2573210 2773894 3043172 2754254
1858.09 2013488 1936608 2002758 2052536 2129522 2193154
1863.88 2325286 2546764 2764934 2894576 3106144 3065102
1869.66 2707590 2595212 2638446 2666474 2600460 2527026
1875.45 2519010 2503490 2463808 2477640 2554048 2592352
1881.23 2629566 2760050 2952564 3089186 3160900 3225390
1887.02 3267922 3451832 3536552 3420212 3434874 3525998
1892.80 3622366 3787622 3938124 4160378 4281400 4375078
1898.59 4871912 4630350 4217878 4396788 4632424 4787886
1904.37 4693696 4592932 4556202 4590916 4857180 5166432
1910.16 5341526 5403656 5189912 4881830 4650314 4828774
1915.94 5220278 4907140 4213524 3926824 3887040 3954404
1921.73 4001410 3869036 3745410 3540908 3284666 3170606
1927.51 3070774 3028196 3011236 2927046 2843718 2787688
1933.30 2736906 2692818 2681962 2668462 2693382 2720920
1939.09 2726602 2784506 2981974 3064172 2975146 3078960
1944.87 3373026 3677222 3943682 4185084 4455506 4777292
1950.66 5088818 5404364 5710812 6019934 6291720 6410156
1956.44 6475260 6496188 6489430 6502586 6557622 6549094
1962.23 6512088 6507938 6862728 7932768 10000970 9730682
1968.01 6652110 5551664 5864490 6140774 6709582 7310490
1973.80 7462276 7452936 7641166 7995138 8592048 8935906
1979.58 8490036 7838258 7510500 7239178 6943018 6659332
1985.37 6363090 6138058 5933156 5695932 5581536 5534514
1991.15 5447218 5275448 5096376 4936574 4826612 4837156
1996.94 4953070 5180486 5373094 5583858 5469758 5011004
2002.73 5088488 5303454 5422316 5610308 5710346 5694780
2008.51 5681960 5650816 5553336 5468718 5339844 5280068
2014.30 5231626 5221738 5239878 5491764 5838774 5883164
2020.08 5310988 4741382 4628422 5095864 5552650 5047454
2025.87 4528114 4340372 4471234 4714122 4800060 4790898
2031.65 4650612 4528854 4386936 4155240 3918420 3737176
2037.44 3549654 3292436 3035040 2835590 2629828 2370798
2043.22 2193246 2152696 2034312 1871138 1718932 1549054
2049.01 1444736 1351858 1255830 1207266 1216904 1143520
2054.79 1090604 1123404 1132398 1262512 1356806 1344068
2060.58 1403970 1355680 1348866 1451006 1565850 1683316
2066.37 1746632 1867714 1985710 2081178 2217214 2264600
2072.15 2263496 2331628 2388396 2404216 2365428 2362532
2077.94 2370134 2357360 2350864 2400470 2584488 2971280
2083.72 3140240 2698158 2401304 2467164 2558616 2518560
2089.51 2457920 2548772 2625692 2685520 2679760 2709110
2095.29 2921716 3122956 3060966 2688828 2474520 2494182
2101.08 2516064 2509530 2440308 2387532 2329674 2266040
2106.86 2227002 2183548 2156294 2140580 2084024 2106094
2112.65 2156426 2139558 2213276 2264050 2179378 2166494
2118.43 2155600 2180496 2332980 2543092 2656478 2698564
2124.22 2613048 2573916 2713744 2792070 2892980 2885444
2130.01 2941862 3138146 3335530 3583426 3871034 4222304
2135.79 4553498 4868022 5135816 5442330 5834284 6196730
2141.58 6575624 7048400 7529236 7816668 7937710 8120612
2147.36 8463306 8793998 9143166 9578382 9849706 9711772
2153.15 9580728 9750626 10012230 10222470 11284920 11616060
2158.93 10846940 10895600 11082980 11359180 12050580 13388570
2164.72 13943640 12559270 10249810 9001322 9167228 9753954
2170.50 10312940 10919810 11572790 12107490 12510760 12667520
2176.29 12616040 12428240 12054390 11413090 10586640 9818838
2182.07 9152908 8692276 8250168 7671880 7564508 7761110
2187.86 7956692 8370876 7814530 6195210 5635752 5717648
2193.64 5742796 5848044 5929776 5970246 5976796 6010910
2199.43 6008812 5990492 5930462 5880726 5869490 6167752
2205.22 6841818 7659754 7126128 5658074 5340966 5551658
2211.00 5813936 6098160 6346460 6639914 7015570 7487550
2216.79 7762062 7998400 7969058 7862574 8101248 8402888
2222.57 8477724 8423728 8565820 8810584 9031664 9087644
2228.36 9040338 9110464 9362812 9770830 10228580 10816730
2234.14 11424450 12093730 12274650 11605610 11275920 11263720
2239.93 11452260 12057550 12727240 13461410 14232260 14334800
2245.71 14495930 14906430 15381020 15905940 15582000 14979150
2251.50 14661540 14241640 13985160 13681840 13409920 13367720
2257.28 15627100 18182340 15619150 13333880 13482100 13627800
2263.07 14147270 14729040 15027850 15166720 15462290 15674410
2268.86 15850660 15909620 15892080 15937030 15988090 15610270
2274.64 14922310 14190810 13525740 13090770 12821310 12598060
2280.43 12477680 12505130 12640380 12937120 13234060 13307620
2286.21 13423890 12596970 11186870 10622770 10337680 10062570
2292.00 9866138 9726666 9553180 9264632 9144502 9240376
2297.78 8986704 8741802 9109484 8723672 7998780 7728480
2303.57 7410472 7299380 7349218 7471110 7479434 7345462
2309.35 7529062 7932544 7781308 7310624 6985232 6760732
2315.14 6607576 6450310 6306510 6180334 6050230 5840150
2320.92 5696308 5738578 5995950 6442768 6071540 5141332
2326.71 4927340 4915322 4633788 4615982 4697202 4620914
2332.50 4770712 5015746 5139998 5151678 4932004 4691736
2338.28 4622540 4655406 4765520 4576650 4328920 4283792
2344.07 4142624 4016438 3957462 3878264 3708352 3508910
2349.85 3402724 3425258 3404810 3468074 3603168 3549740
2355.64 3514112 3426846 3313356 3315156 3256594 3139304
2361.42 3078738 2943450 2718060 2682524 2683042 2572412
2367.21 2485454 2388888 2410290 2695626 3112880 3037706
2372.99 2614574 2479928 2466494 2498598 2609982 2734666
2378.78 2691374 2511516 2408752 2333558 2227350 2202470
2384.56 2224990 2246106 2282396 2265678 2266718 2296154
2390.35 2381858 2540494 2692966 2613646 2620508 2770128
2396.14 2669268 2636304 2664970 2712186 2810360 2914582
2401.92 2992380 2981846 2968398 3012260 3068860 3140782
2407.71 3250632 3225284 3167744 3182954 3216704 3294874
2413.49 3510952 3928774 3803176 3435228 3569392 3577426
2419.28 3438498 3507768 3738540 3787270 3473218 3219208
2425.06 3221208 3214206 3184534 3207162 3244062 3249396
2430.85 3281048 3238544 2999550 2862250 2855104 2847838
2436.63 2819620 2746066 2655802 2510878 2435804 2335862
2442.42 2166056 2055950 1977654 1954396 1959146 1955912
2448.20 1931342 1838780 1785362 1751830 1675794 1620272
2453.99 1594456 1587644 1562552 1526122 1475538 1502178
2459.77 1510430 1457808 1453652 1411766 1380776 1446108
2465.56 1509240 1593386 1674420 1668208 1640236 1638886
2471.35 1591726 1547316 1581848 1671518 1749538 1723372
2477.13 1709228 1677150 1582744 1543894 1577162 1682852
2482.92 1794736 1810326 1854396 2033284 2130736 2128890
2488.70 2199066 2246842 2275714 2339912 2404046 2467702
2494.49 2525154 2556946 2596442 2668664 2778048 2871590
2500.27 2951802 3122988 3539156 3888624 3536366 3144682
2506.06 3183184 3293792 3443960 3586822 3521098 3400584
2511.84 3445746 4075550 5219128 5437054 4625390 3879854
2517.63 3695644 3907084 4099918 4109808 4204596 4353300
2523.41 4395620 4552300 4700708 4858994 5026852 4926640
2529.20 4556586 4100930 3750726 3757846 3877564 3874574
2534.99 3736832 3664974 3758358 4089456 4370572 3732352
2540.77 3083970 2966016 2757146 2623828 2689348 2802790
2546.56 2806108 2772046 2848954 2936548 2926066 2898168
2552.34 2840234 2718616 2603386 2505130 2386436 2302220
2558.13 2284276 2286394 2310342 2286992 2216636 2203558
2563.91 2218372 2308314 2370582 2380336 2383578 2369686
2569.70 2484960 2591504 2634658 2731382 2755780 2726388
2575.48 2782514 2923802 3087392 3131012 3300016 3436450
2581.27 3386770 3445604 3568748 3730246 3924660 4129704
2587.05 4348298 4484894 4648556 5058238 5295120 5243522
2592.84 5301248 5373188 5526018 5684942 5822088 5936638
2598.63 5985286 6073594 6213260 6431702 6607080 6614446
2604.41 6481170 6324910 6406308 6636254 6686470 6685810
2610.20 6763556 6916476 7193114 7300240 7129286 7091540
2615.98 7115184 7046628 6896536 6697334 6560356 6585460
2621.77 6597850 6563974 6520082 6537532 6609478 6591964
2627.55 6438682 6186538 6159246 6185234 6010246 5927238
2633.34 5803414 5655370 5808776 5636018 5248400 5080704
2639.12 5016384 4963390 4904382 4779156 4639624 4434928
2644.91 4210686 4112586 4111524 4159470 4162000 4138462
2650.69 4136926 4184770 4045316 3887770 3764956 3575622
2656.48 3365012 3231574 3163606 3037138 2855648 2682312
2662.27 2546338 2467990 2359448 2244882 2194412 2091406
2668.05 1933974 1904330 1957822 2351554 2914526 2367546
2673.84 1672748 1562834 1489422 1409978 1367870 1466548
2679.62 1454326 1367412 1279166 1235154 1289554 1281836
2685.41 1213644 1155472 1200532 1237882 1146146 1131532
2691.19 1158048 1123646 1114108 1133486 1187566 1222804
2696.98 1263684 1321230 1341074 1409364 1438802 1523768
2702.76 1659442 1721758 1869972 1943796 1993430 2158736
2708.55 2356046 2600180 2874718 3122976 3350568 3655848
2714.33 3964400 4120696 4187006 4285014 4421490 4566618
2720.12 4617564 4544132 4555258 4620974 4488036 4491502
2725.91 4529606 4695690 5379062 7035940 9067124 8319200
2731.69 5954158 4843114 4713956 5121048 5528230 5940072
2737.48 6467880 6878242 7213774 7509736 7636912 7576686
2743.26 7675442 8221028 8619734 8524542 8252554 8157830
2749.05 8147616 8036152 7964194 7932250 7938338 8103858
2754.83 8358224 8582480 8961194 9417784 9652222 9779130
2760.62 10076320 10422390 10694500 10992810 11277290 11709680
2766.40 12502150 14504570 17939070 21715600 22520290 18490600
2772.19 14800060 14692030 15523150 15973370 16572330 17261730
2777.97 17905610 18502640 19117870 19652560 20170130 20775430
2783.76 21570060 22215660 22548920 22930390 23641340 24179270
2789.54 24311980 24452000 24654060 24932330 25212970 25319940
2795.33 25284670 25190990 24928310 24516750 24209710 23957320
2801.12 23766200 23609630 23533210 23492960 24604800 26765160
2806.90 30680250 34084960 36438290 31786520 22701570 20645990
2812.69 20810170 20835710 20875880 20605440 20229490 20170850
2818.47 20390050 20392110 20124150 19798030 19717410 20399100
2824.26 20760210 20109940 19473860 19373940 20318530 22192740
2830.04 22094230 19727250 18615300 18673340 19176160 19757800
2835.83 20081140 20406010 20961680 21769870 22261010 22668250
2841.61 23356420 23865910 24334520 24854350 25340520 25850480
2847.40 26481770 27048320 27674990 28380150 29344410 31209380
2853.18 33518700 35812940 36885190 36189380 36331060 37974540
2858.97 40194570 43126280 46974720 51125500 55715080 60795700
2864.76 67460140 80067770 83112340 76248110 75607030 76703330
2870.54 77602000 77775690 77240770 76900080 77546390 79504180
2876.33 87871250 97891100 92908950 84320560 82101320 82237990
2882.11 85237070 90742140 100796200 126111700 139119100 124606000
2887.90 113388900 111113800 113673200 118652100 125559200 131844100
2893.68 136573500 141471400 147734100 154388700 160729700 167872900
2899.47 176261900 183299900 188890300 193806300 196627900 197334500
2905.25 195789200 193766800 193507900 194311300 195669600 201395200
2911.04 213667100 227986200 243206000 258220000 271029300 283554100
2916.82 291753700 300302300 311623700 319678900 327039400 335345400
2922.61 346075900 359121400 366349300 368316500 384212600 409716000
2928.40 397213500 369307200 368259200 371251100 372732200 373416300
2934.18 373052000 372830000 376876400 385638500 401521600 436314100
2939.97 494373200 500601900 426254800 376904100 370468300 375189700
2945.75 387063300 401379100 419414100 437439100 451117600 459938800
2951.54 465348400 468115900 469861600 471111600 472359000 473308600
2957.32 474672800 475761800 477810200 481597200 488660100 498350900
2963.11 508625700 521069700 537249500 556692500 577001500 594735000
2968.89 605912800 607146900 598053500 580370300 565825800 570572700
2974.68 594694500 637154200 686825500 726127700 755163900 780309200
2980.46 801788700 825577700 852898400 860133300 856071200 858291700
2986.25 864158900 871449700 877076900 884153500 894405100 909241300
2992.04 930021000 938975700 934344800 910965100 883076600 913909900
2997.82 1028062000 1241946000 1421438000 1274017000 982832600 840735700
3003.61 783427900 771428400 775850500 777456700 774545500 765122000
3009.39 751665300 737851100 725218200 717881900 716254500 712142000
3015.18 702084300 687235600 670869800 655276800 641246800 628450400
3020.96 616015900 604335600 594406300 584944700 575606000 567578400
3026.75 561187100 555164400 548951900 543420200 538633300 534557000
3032.53 531984600 530227400 529821900 530699600 532426300 527216600
3038.32 512604700 498160700 483427800 464337100 443856800 423192000
3044.10 406291000 403814800 434367700 516281100 783782300 1165058000
3049.89 965825600 454109500 315176800 322926100 342643200 367990900
3055.67 385610800 397334000 402473200 404020900 401197400 395119300
3061.46 385718100 373393700 358699600 342552300 325579300 308139200
3067.25 290636600 273381300 256097300 239390200 223672900 208470900
3073.03 193764400 180149100 167414900 154914800 143129700 132213500
3078.82 121975000 113066100 104473700 95603620 87248940 79610670
3084.60 72722530 66346510 60321300 54798760 49726860 45134610
3090.39 40788800 36916390 33681450 30729330 27945370 25605050
3096.17 23540870 21626380 19962710 18604470 17365390 16058620
3101.96 15013640 14184030 13356490 12693940 12043790 11456870
3107.74 11111500 10818490 10441380 10050400 9848216 9727950
3113.53 9587436 9495706 9431854 9439266 9524892 9487820
3119.31 9402876 9450676 9429552 9309768 9365048 9404174
3125.10 9408466 9481766 9583668 9687168 9797636 9885754
3130.89 9882726 9978136 10106550 10311580 10536560 10629660
3136.67 10647300 10679760 10772190 10964430 11167540 11415060
3142.46 11946290 12851230 13758120 13577530 12723010 12315810
3148.24 12349460 12593780 12862620 13126690 13400460 13638650
3154.03 13891440 14138480 14466260 15029810 15709310 16305820
3159.81 16916420 17497680 17968930 17402030 16094660 15415000
3165.60 15145590 14907710 14836720 14717660 14543960 14561310
3171.38 14904340 15896720 19540120 21450170 17825940 15072010
3177.17 14394440 13682440 13117700 12798000 12579100 12547480
3182.95 12505310 12233650 11975550 11833560 11606510 11202990
3188.74 10886210 10600750 10140060 9646280 9144562 8640292
3194.53 8236640 7791016 7430546 6997904 6528356 6105290
3200.31 5695534 5240158 4834934 4572342 4296206 4099024
3206.10 3911366 3658488 3450952 3181300 2958166 2847386
3211.88 2619304 2408176 2278862 2182542 1998474 1863524
3217.67 1785732 1739084 1742624 1553594 1472776 1405064
3223.45 1380528 1450670 1351612 1253872 1210378 1283636
3229.24 1280392 1168606 1088114 990252 969404 984258
3235.02 1001784 1056530 982498 924664 937182 865724
3240.81 796982 819788 901606 852270 891336 943244
3246.59 920354 888228 1010752 1009388 886378 938688
3252.38 1005338 978572 904888 888632 940386 919674
3258.17 905572 944964 943514 936006 902582 899024
3263.95 917724 972458 1067936 1003286 898384 910614
3269.74 860240 840848 851024 861894 796894 878032
3275.52 1068762 1132798 1192552 1155540 1086970 1200762
3281.31 1095986 1021010 1147654 1118762 1109594 1070736
3287.09 1069808 1164090 1214714 1212244 1284218 1402254
3292.88 1347456 1196898 1249804 1303564 1293848 1307478
3298.66 1196340 1166534 1141152 1117112 1181484 1218468
3304.45 1246304 1207734 1267424 1338598 1392034 1449534
3310.23 1461654 1444148 1539966 1677378 1682900 1833878
3316.02 2107828 2197646 2268234 2463202 2547400 2699124
3321.80 3039038 3308734 3456910 3536352 3713656 4076146
3327.59 4217084 4228422 4318586 4371446 4328916 4179334
3333.38 4235674 4330310 4289860 4231048 4413590 5096216
3339.16 6115554 6724562 5913168 4624920 4145026 4110354
3344.95 4219542 4304474 4495246 4774578 5063996 5248866
3350.73 5308380 5543688 5635962 5504248 5347972 5208208
3356.52 5076962 5026340 4823710 4693416 4708642 4531118
3362.30 4234560 4081264 4090710 3951746 3815380 3771902
3368.09 3770080 3805806 3817650 3851332 3912456 4010918
3373.87 3988612 3922676 3916786 3840244 3746552 3880658
3379.66 3914130 3807190 3778002 3964556 4368270 4552924
3385.44 4556058 4372364 4138496 3994712 3868374 3720126
3391.23 3864196 4173952 4501288 4705938 4528210 4251544
3397.02 4159796 4143712 4187988 4292862 4314050 4305446
3402.80 4183004 3912266 3785148 3772060 3649658 3727080
3408.59 3964190 4014246 3813304 3558430 3370436 3326462
3414.37 3461328 3536798 3266998 2961700 2738156 2591084
3420.16 2658958 2611134 2516870 2542132 2604730 2583286
3425.94 2526134 2489676 2389002 2439656 2428002 2158912
3431.73 2057642 2011242 1961312 2036008 2008018 1839944
3437.51 1776016 1726418 1721890 1727532 1781842 1908934
3443.30 1838184 1733638 1796046 1906994 1790742 1679718
3449.08 1688402 1692138 1670524 1571978 1470224 1415932
3454.87 1270118 1174978 1273266 1425846 1832912 2152506
3460.66 2029466 1778546 1604668 1438320 1202462 1222530
3466.44 1341680 1296328 1386278 1465216 1353062 1200504
3472.23 1156340 1156996 1216820 1166420 1173702 1183002
3478.01 1089390 1035272 877240 926112 954970 807996
3483.80 676960 580034 589306 658846 693986 634988
3489.58 620978 571340 527140 499082 573282 784454
3495.37 813222 678880 597524 566288 539308 593506
3501.15 718232 733532 521134 357854 459314 558712
3506.94 616614 815028 748194 580922 570884 674028
3512.72 638722 607910 697476 769936 699072 603120
3518.51 664276 706102 725608 713040 871780 902472
3524.30 806384 871984 765298 722080 816548 720350
3530.08 762780 785360 724066 769152 742930 702234
3535.87 770128 840602 843002 846242 925912 835534
3541.65 658504 716778 826490 773522 702600 677992
3547.44 732152 759108 807270 927474 897650 813954
3553.22 765718 718130 768462 843182 834682 811930
3559.01 781356 804634 759844 685908 798536 933194
3564.79 1121506 1269934 1261562 976102 656430 753094
3570.58 835504 720626 671748 727148 720238 740796
3576.36 707086 712310 859850 893130 815778 755264
3582.15 773494 818800 833124 1123750 1215948 1171828
3587.94 1144374 743010 725638 862582 884070 901082
3593.72 1005578 1097220 944534 859880 867814 810162
3599.51 859862 909182 913642 820818 741022 805774
3605.29 1044898 1141646 1239072 1710286 1327276 980184
3611.08 1416412 1411018 1118600 1104178 945622 1077040
3616.86 1323850 1555194 1723898 1203708 911098 976232
3622.65 1139412 1172798 1169136 1068052 1487456 2441976
3628.43 2715870 1883486 1181874 1189464 1317282 1386584
3634.22 1268982 1184990 1251656 1396218 1352850 1327630
3640.00 1324400 1280332 1332238 1400778 1510950 1727368
3645.79 2259574 2346810 2821094 3180758 2720504 2407390
3651.57 1924496 1945584 1919630 2390560 2947728 2336160
3657.36 2085290 2139916 2148698 2320270 2342892 2351878
3663.15 2433298 2422018 2551864 2605700 3102762 3473618
3668.93 4084422 4731800 3554454 3021738 3475266 4384684
3674.72 5230794 4447556 3466812 3504134 3624316 3461860
3680.50 3363358 3286236 3315720 3378038 3525980 3614900
3686.29 4128288 5625014 5104228 4068462 4390342 4021026
3692.07 3616454 3561652 3571716 3673434 3793766 3794682
3697.86 3720594 3642484 3813964 4130072 3903590 3678046
3703.64 3724632 3762314 3852130 3850384 4176896 4571350
3709.43 4236070 4845708 5556054 4649098 4279198 4372098
3715.21 4385724 4520942 4682538 4785456 4706676 4774590
3721.00 5256076 5297534 5142274 5297230 5560600 5852850
3726.79 5804380 5864620 6071744 6235958 7213276 7522474
3732.57 6974968 7570126 8055820 8411982 8180490 7805520
3738.36 7834816 7909846 8082418 7986960 8794628 11389790
3744.14 11168850 8973474 8943600 9451146 11125090 11001900
3749.93 10025990 11783830 11692730 10370820 10436930 10822300
3755.71 11277940 10965200 10600650 10611020 10066910 9648664
3761.50 9746046 9535052 9410994 9703324 9645612 9340680
3767.28 9193566 9684302 9895920 9301222 8994380 8854164
3773.07 8884798 8848890 8768532 8662938 8538670 8783280
3778.85 8703650 8116208 7923596 7882828 7742950 7786854
3784.64 7797322 7653286 7465202 7303890 7257994 7337720
3790.43 7344306 7325250 7280954 7212460 7360606 7673918
3796.21 7474918 7273094 7214324 7616472 9150994 8836186
3802.00 7747476 8010212 8375304 9416716 10563530 9233854
3807.78 7453208 6862752 6553926 6724372 6988712 7311444
3813.57 7531842 9250026 9975204 8739102 8464526 8396022
3819.35 8737430 9034058 8390538 7679672 7458320 7316946
3825.14 7388354 7452570 7213248 7082180 7006850 7408840
3830.92 7588536 7110722 7247722 7940972 7709306 7761086
3836.71 8911600 8004000 6915112 6948722 6519360 6184810
3842.49 6466310 6312510 5894696 5943092 5878134 5818126
3848.28 6060258 6029134 7038138 7967996 8025546 9506800
3854.07 8042520 6169274 6260874 5933036 5729834 5641650
3859.85 5867654 6122582 5925574 6027470 6793448 6775862
3865.64 6280564 6281606 6674468 7513806 7355700 6546254
3871.42 6458650 6798106 7101094 6731412 6467346 6618592
3877.21 6591370 6732582 7327820 7326750 6972686 7072250
3882.99 7217712 7836268 8203338 7533276 7306646 7268468
3888.78 7241150 7957124 8235782 7721244 7625602 7415682
3894.56 7064354 7198798 7463166 7936928 8202646 7676554
3900.35 7778734 7700102 7407520 7687024 7308174 7013328
3906.13 6898682 6878980 6989232 7047018 7063556 7069624
3911.92 7048026 7030836 7055050 7090664 7274402 7296108
3917.70 7241726 7433814 7387216 7228008 7304414 7484630
3923.49 7818768 7936164 7851252 7957844 8035232 8140426
3929.28 8185790 8333950 8560324 8446336 8308888 8312238
3935.06 8396424 8303704 8174076 8348162 9175370 10260430
3940.85 9958670 8890842 8452400 8445874 8680562 9054266
3946.63 9313194 9285672 9216588 9306592 9420668 9498714
3952.42 9425040 9230136 9123698 8945806 8817544 8674786
3958.20 8485834 8332226 8180384 8124702 7995010 7887358
3963.99 7764174 7628380 7600524 7483206 7388950 7405980
3969.77 7265224 7170542 7216420 7143782 7100646
##END=
