##TITLE=Propylene Oxide
##JCAMP-DX=4.24
##DATA TYPE=INFRARED SPECTRUM
##CLASS=IUPAC A
##ORIGIN=NIST, Anayltical Chemistry Division, 301-975-3108
##OWNER=COPYRIGHT (C) 1998 by the U.S. Secretary of Commerce
##DATE=98/10/1
##$SPECTRA VERSION=1.00
##$UNCERTAINTY IN Y=2.1 % relative (B=1.1E-04,C=9.8E-10,D=2.7E-14)
##CAS NAME=1,2-Epoxypropane
##CAS REGISTRY NO=75-56-9
##MOLFORM=C3 H6 O
##MP=-104.4 C
##BP=34.3 C
##$NIST SOURCE=QUANT-IR
##SPECTROMETER/DATA SYSTEM=IFS66V (Bruker)
##INSTRUMENT PARAMETERS=KBr Beam splitter; MCT Detector; Multipass cell
##STATE=gas
##SAMPLE DESCRIPTION=Propylene Oxide Primary Gas Standard
##PRESSURE=101.3 kPa
##TEMPERATURE=23 C
##SAMPLING PROCEDURE=1 L/min Flow
##RESOLUTION=1.9290
##DATA PROCESSING=NB Strong Apodization
##XUNITS=cm-1
##YUNITS=(micromol/mol)-1m-1 (base 10)
##XFACTOR=1.0
##YFACTOR=2.2737E-13
##DELTAX=0.9645
##FIRSTX=574.687
##LASTX=3974.595
##FIRSTY=-3.52E-07
##MAXX=3973.63
##MINX=574.69
##MAXY=.0003357
##MINY=-6.36E-07
##NPOINTS=3527
##XYDATA=(X++(Y..Y))
574.69-1552422-1940770-1819260-1923074-2006956-2477544
579.51-2800712-1805116-1490666-1842076-2039094-2015088
585.29-1766150-1539184-1099742-1488158-1437406-1493174
591.08-1360216-1411992-1846544-1934888-1602972-1487140
596.86-1352744-1152330-1128776-1592636-1563990-946340
602.65-818546-947900-814570-959020-1123026-1426936
608.44-1404884-1200470-1032122-1119664-795776-870754
614.22-989492-1060222-1045448-1190506-1089046-1270094
620.01-1357442-1155560-1182348-1105138-809028-1233566
625.79-1437578-1352434-1091244-1110970-1571818-1829122
631.58-1567828-1458724-1366624-1627928-1628476-1621918
637.36-1550164-1688518-1668554-1409284-1236918-1384960
643.15-1192594-1034422-1162774-1683686-1768518-1606048
648.93-1310912-1496688-1660810-1783662-1503908-1467350
654.72-1412250-1394684-1208634-1263740-1354834-1598010
660.50-1511810-1418242-1460680-1643136-1532898-1532684
666.29-1484006-1623550-1359132-1173284-1232692-1232128
672.08-975066-1073298-1256692-1512382-1294248-1275254
677.86-1039026-961244-996290-1191802-1147534-1342838
683.65-1361434-1274858-942364-943288-1057210-1120344
689.43-789044-896604-810926-464938-88978-527912
695.22-412874-331890-169658-208602-11120-66386
701.00 57582 93122 470682 502770 800618 927012
706.79 1310032 1819184 2700480 2707644 2436228 2561406
712.57 3126520 3478370 4055294 4572726 5392070 5951264
718.36 6783178 7711918 8667446 9415038 10425710 11316140
724.14 12743160 14201880 15990360 18127280 20708220 23000870
729.93 25593540 27876910 31041030 33870620 37308390 41439860
735.71 46470960 51582060 56810100 61713510 66774720 71671280
741.50 76981600 81764080 86233050 89684140 92884660 95360790
747.29 97458060 98872650 100676800 103293900 105908300 107512700
753.07 113443800 122239100 132517700 141396700 123351000 98883140
758.86 92692340 97967060 109946500 120777100 130394400 138673400
764.64 147256300 154412400 160637700 163940500 164786200 162813900
770.43 158730800 151952600 144445400 134722100 124357300 113083000
776.21 102631400 93417860 88066070 80268620 72775290 67357210
782.00 61602230 56956910 54315210 52041880 50876070 50035410
787.78 50428900 50762250 52084490 53471120 55825840 57848700
793.57 60764760 63925560 68105860 72093100 77547920 83236340
799.35 90380140 97504140 106649200 116269800 127655800 139543800
805.14 153882000 168461400 184929100 202333700 222563000 243626800
810.93 267428500 291938800 319154600 346644800 377085300 407525100
816.71 439674000 470957500 504273400 535906900 566029400 591746900
822.50 615835800 633475300 647625100 654615400 658667000 654634600
828.28 648170800 632239700 606208600 561737000 529020100 541084100
834.07 637929700 819993000 962466800 745863700 517717100 542641900
839.85 596557500 635617000 649203100 656577700 658678000 663317700
845.64 660235700 655441200 641276100 623000100 596159400 565900600
851.42 529823500 492841400 452596900 414381400 375803900 340952700
857.21 307780700 278260600 250280600 226796200 204436600 186008800
862.99 169017000 154781700 141262000 130581200 120136200 111779900
868.78 103362500 96745730 89978300 84725670 79291290 75312780
874.57 70974510 68133440 64912130 62709280 60103090 58713260
880.35 56727960 55829360 54301340 53776550 52718030 52656940
886.14 51776390 51624940 50115580 48617470 44981750 41755020
891.92 43595560 56321220 54187180 45470960 41631590 42961330
897.71 45365000 47772940 49441460 50349320 50718620 51234250
903.49 51263410 51002060 50727740 51011110 50857340 50906100
909.28 50826460 51020260 50806720 50653930 50313800 50378250
915.06 50438440 50939260 51482540 52605180 53628670 55313850
920.85 57249640 59687840 62271250 65379180 68585420 72249060
926.63 75701660 79957600 84494240 89162300 93870050 99167820
932.42 104468100 110446800 116627000 123266000 129753000 136704400
938.21 143263800 149633400 155643000 161580100 167032700 172822800
943.99 177943000 182584800 186576700 191170700 195250300 197384700
949.78 196324100 191033800 181852400 172123900 162695300 145756900
955.56 136282700 157277400 180492800 191244900 202902600 212140400
961.35 212407300 210242600 206110600 200057100 194518600 189696900
967.13 184113400 178466200 171771700 164319700 156566600 148850800
972.92 140851900 132985700 125257100 118369000 111772000 105773800
978.70 100213700 95484020 90832710 86405460 82176780 78636370
984.49 75399780 72805920 70304250 68429720 66770530 65606180
990.27 64777140 64554880 64439990 65134700 66218710 67900120
996.06 69791150 72324660 75010100 78330250 81863700 85700580
1001.85 89775370 94213560 98402140 102656200 106923400 111213900
1007.63 115124000 119110300 122686400 126377100 129929500 133999600
1013.42 138035600 142077000 144649900 144720900 140077200 130941700
1019.20 116951700 104118900 103214300 108250200 101950400 107280000
1024.99 128975900 145942200 153620900 153757300 149748600 143990600
1030.77 138046400 132120600 126592300 121414600 116553300 111744000
1036.56 106601300 101405100 96333180 91282780 86323160 81448840
1042.34 76624060 72113890 67770180 63336960 59033980 55229040
1048.13 51475260 47712160 44211130 40920350 37641810 34615410
1053.91 31844220 29284650 26848160 24612160 22542420 20670660
1059.70 18994100 17554610 16240040 15228970 14456750 13973330
1065.48 13544260 13245690 13112540 13313010 13626710 14065720
1071.27 14536530 15352850 16263710 17323190 18585400 20074090
1077.06 21630140 23306320 25142510 27237690 29483990 31598330
1082.84 33699740 36130690 38707620 41296720 43910250 46772640
1088.63 49588480 52397350 55323830 58364690 61398800 64582060
1094.41 67634070 70709280 74154460 77733900 81092830 84140010
1100.20 86721560 89324970 92106790 92019020 90565820 97120180
1105.98 109909100 116364500 106124500 107918000 124673500 137634100
1111.77 145593000 147179500 144813600 141875000 139973600 137888300
1117.55 135640400 133238200 132032300 131805900 131398400 130904100
1123.34 132106200 132846000 131584400 128392400 127197100 127134700
1129.12 128264500 133065800 153273600 156574300 124018700 105219100
1134.91 100538400 101206300 102184700 102823200 100482500 93044670
1140.70 86334540 84260730 96937610 115569700 104677200 82834060
1146.48 72546860 74284940 74888330 74980350 73312700 69847540
1152.27 68435760 68810680 69044320 70363240 73307430 77317940
1158.05 74308280 66124780 61291630 58526630 55474140 52547260
1163.84 49235100 45723600 42366280 39889630 38621490 37245950
1169.62 34937620 33212860 31256810 29337030 27168670 25155910
1175.41 23092760 21361450 19613180 18109850 16575790 15473200
1181.19 14360430 13644720 12700210 11964310 11280300 10806830
1186.98 10365900 10559290 9889798 8990936 8339192 7950376
1192.76 7529674 7200466 6805640 6650062 6330128 6309558
1198.55 6322860 6467786 7081032 7902512 7092534 5678466
1204.34 5080022 5567370 6330674 6125280 5471916 5674158
1210.12 5817720 6112354 6214964 6425766 6530192 6774634
1215.91 6851148 7031660 7064966 7455432 8118772 9559560
1221.69 10559050 9849030 9506300 10363130 11071610 12172290
1227.48 13308450 14781480 16109260 17862080 19383080 21005450
1233.26 22674360 24645670 26439440 28608170 30705380 33039330
1239.05 35364780 38035990 40481660 43330730 46124760 49416240
1244.83 52798170 56362140 59694920 64272880 68036490 69949110
1250.62 71967780 74787990 76998800 79407680 80831910 82550530
1256.40 84484710 87283410 88522700 89889220 90569580 88446060
1262.19 80911990 73207640 81458440 118772900 113288900 79687180
1267.98 74690730 79987200 85003610 88201720 90149810 89652470
1273.76 88402680 86165770 84250030 81856010 79566560 76735500
1279.55 74011380 70844750 67628600 64043680 60675310 57162900
1285.33 53871700 50512870 47465520 44320280 41436720 38637880
1291.12 36173430 33755870 31562880 29337930 27314940 25336500
1296.90 23571580 21722780 20019230 18340410 16898870 15388220
1302.69 14114570 13014420 12223890 11246780 10302490 9547618
1308.47 8977390 8416740 7967972 7491516 7045506 6639080
1314.26 6348496 6051070 5854848 5685666 5632148 5504300
1320.04 5523738 5490288 5341632 5219858 5342710 5295646
1325.83 5385644 5561994 5851748 6205208 6679772 7076920
1331.61 7368622 7739992 8272956 8875448 9552758 10153240
1337.40 10941830 11887150 12723570 13481800 14452840 15436600
1343.19 16439050 17481240 18614800 19884620 21254820 22820650
1348.97 24562970 26583720 28152090 28992680 30173570 31727560
1354.76 33325030 34992540 36675800 38222800 39430000 40504990
1360.54 41237780 42173490 43634540 45475830 45051720 44379810
1366.33 44985660 45458430 48853530 63937970 105896600 146912800
1372.11 107553700 55368320 47380600 52362050 59579310 64048730
1377.90 68111660 71351370 75751510 79795260 85420990 91710950
1383.68 100333300 110429100 124036900 140671200 160709200 177836100
1389.47 192810900 210248800 231751000 253906500 276576200 296722000
1395.25 315230700 330976600 344476700 348619200 342429100 330634500
1401.04 317669300 300299800 282154000 264661200 255131400 258025700
1406.83 287334500 362526900 515886300 686656500 675663000 371976400
1412.61 168124100 167564700 202005300 243426100 283004100 322548400
1418.40 355220300 381145700 397501200 407698000 408357600 402125200
1424.18 387608100 368813500 345457400 320732500 293924200 268328900
1429.97 246329300 230180900 210340400 191777700 177225600 167552100
1435.75 160029500 153424500 147799900 145127700 143564800 144594500
1441.54 145424200 146144600 144462500 140824400 133889500 126370900
1447.32 121426400 126158100 122266600 115754600 121623800 129834200
1453.11 136186600 138043200 136871200 133830000 129544500 129797500
1458.89 138238300 167216700 205052900 186088900 160177700 167460800
1464.68 153934500 139471700 138238800 136742900 137973600 142008900
1470.47 148837600 157734500 164730400 159960600 145133300 137120000
1476.25 135049100 133858500 132281100 129929500 126275400 122448900
1482.04 118468600 114558600 112659600 119660300 144053100 164290100
1487.82 146652000 119715900 105901800 96624380 92618020 94245300
1493.61 97642630 102085200 105710300 107478900 109509000 110492600
1499.39 109702000 107980800 105228000 101886000 98354210 95533970
1505.18 91932340 87264060 81463670 76403050 72544020 70187670
1510.96 69051940 66469940 63982880 64710430 64638320 59175600
1516.75 52104050 49705340 49198940 51751500 54188590 55094960
1522.53 56439630 58535260 61038890 62026460 62057330 61091880
1528.32 58750320 55624540 52281860 49064300 46811900 43337800
1534.11 37322560 32222610 28160260 25809940 25009300 23025500
1539.89 20397890 19247620 17872110 15974490 15374570 14447910
1545.68 13082940 12200870 11550780 11175750 10530900 9638332
1551.46 8991740 9259968 9834702 8634470 7999942 9102532
1557.25 10469140 10189010 9762566 8004572 6809766 6885420
1563.03 7189292 7460614 7365352 7501180 7902770 8809278
1568.82 9598284 9290268 9238284 9507134 9704426 10262880
1574.60 12245140 12997750 11371950 11098910 11168490 11205550
1580.39 11115530 11175760 11105850 11160510 11147660 11195180
1586.17 11264080 12004330 13306970 14611930 15019420 13334140
1591.96 10613070 9863354 10423280 11317720 11885290 12430810
1597.74 13088180 13848250 14474180 14944560 15123250 15006520
1603.53 14543670 13907350 13111190 12234540 11309000 10475060
1609.32 9535010 8601988 7815204 7283214 6976066 7034614
1615.10 8341742 8794088 7073740 6465220 6282520 6344956
1620.89 6400022 7080172 7358062 6769750 6462598 6681628
1626.67 7051030 7002868 6859262 7011368 7332150 7814104
1632.46 8131934 9243626 11140240 10506580 9165744 9077010
1638.24 9037264 9262328 9421914 9654614 9582634 9590912
1644.03 10282420 11548720 11377650 11775280 12212280 12365610
1649.81 12645540 14259030 16463730 15666300 13505540 12573710
1655.60 12569830 12937730 13116150 13266980 13133130 13273530
1661.38 14040080 13952540 13043800 12850560 12547120 12389110
1667.17 12510140 13101370 13014470 12994400 13434330 12723960
1672.96 11650160 12547010 12578910 11866160 11612900 11604370
1678.74 11668790 11727100 11538970 12050520 13116190 14651350
1684.53 13286500 11062760 10620590 10318210 9960308 9692528
1690.31 9414452 9223178 9097442 9264888 11087520 12073060
1696.10 9896404 8984508 9824392 11734840 10949750 8952250
1701.88 8282252 8519940 8596672 8518262 8294476 7564020
1707.67 6727144 6396234 7324170 8384502 9023768 9122556
1713.45 8970374 8839464 9329118 10927110 10401350 9044862
1719.24 8173920 7844240 7565826 7370098 6944522 6446888
1725.02 6011828 5672388 5288706 5102482 5075590 5059988
1730.81 4830346 5123698 5901654 5417112 3713986 2847972
1736.60 2792152 2890954 3311034 2989418 2327240 2271476
1742.38 2240478 2040894 1875714 1884680 1903270 1987118
1748.17 1897240 1892166 2553024 2201460 1376650 1272580
1753.95 1275312 1543796 1789190 1637254 1463610 1564688
1759.74 1969700 2654168 2392748 2055922 2090116 2246048
1765.52 2450666 2999002 3330640 2960894 3156654 3860914
1771.31 4691386 4490952 3623430 3695568 3734714 3637342
1777.09 3381274 3254666 3347078 3551818 3764748 4192288
1782.88 4365608 4561652 4199810 3955252 3898392 3954000
1788.66 4186572 4778990 5026172 5500328 5075132 3794058
1794.45 3271456 3318538 3341124 3542312 3977658 4093344
1800.24 3982728 3898982 3681994 3546238 3458778 3366892
1806.02 3194768 2982210 2688516 2615904 2514032 2249984
1811.81 1936572 1679008 1548718 1430848 1242216 1090204
1817.59 1038264 1265728 1712586 1850484 1424746 1157364
1823.38 1270684 1509556 1259402 1185044 1384534 1717150
1829.16 1834238 1550424 1422680 1442766 1434882 1520434
1834.95 1538692 1569412 1618098 1680164 1809074 1849284
1840.73 1832626 1899816 2591086 2837060 2126646 1867178
1846.52 1788656 1768842 1782006 1884390 1925008 2030848
1852.30 2162932 2319850 2538170 2819190 3059088 2757658
1858.09 1937490 1842996 1883186 1992864 2031272 2137994
1863.88 2245906 2519806 2721414 2917580 3100536 3076352
1869.66 2661388 2555574 2567194 2637542 2534962 2487858
1875.45 2442490 2452984 2381144 2422590 2471072 2536300
1881.23 2548494 2713040 2892524 3064966 3113540 3193462
1887.02 3225016 3433324 3494940 3389396 3370876 3472992
1892.80 3567728 3744706 3908354 4135780 4260102 4406292
1898.59 4880294 4636592 4183860 4353824 4611692 4800728
1904.37 4675842 4575222 4492530 4564716 4827516 5201436
1910.16 5381448 5467256 5201732 4872746 4607738 4857246
1915.94 5247348 4946962 4175974 3858690 3806228 3926602
1921.73 3963808 3864748 3703072 3503750 3212116 3105774
1927.51 2986114 2972064 2933602 2871894 2762082 2721192
1933.30 2647478 2621038 2586972 2593640 2598346 2641184
1939.09 2623508 2711510 2892004 2988286 2866320 2982902
1944.87 3266424 3615718 3870412 4140558 4396604 4750806
1950.66 5055742 5405120 5707920 6054866 6315956 6456568
1956.44 6492884 6518212 6482108 6505964 6532712 6526884
1962.23 6435300 6424420 6789104 8147868 10308580 9994758
1968.01 6671236 5361012 5591820 6053764 6640262 7340632
1973.80 7464648 7485302 7625298 8078120 8709424 9111922
1979.58 8603872 7921660 7509886 7259400 6926852 6654182
1985.37 6321788 6112206 5870716 5655316 5517234 5501718
1991.15 5394492 5238996 5020312 4867570 4726284 4760940
1996.94 4875364 5147102 5365264 5600468 5436944 4974602
2002.73 5009500 5261156 5398486 5617966 5705696 5718468
2008.51 5673414 5665516 5533348 5466098 5297744 5261368
2014.30 5175922 5192144 5195532 5519222 5886858 5948010
2020.08 5301754 4672102 4554506 5102288 5581972 5074192
2025.87 4477806 4264858 4417888 4706054 4813594 4817826
2031.65 4662638 4548432 4383166 4157498 3896218 3724140
2037.44 3516110 3265294 2983756 2791398 2559570 2307632
2043.22 2115156 2091046 1966254 1813386 1636812 1475592
2049.01 1353796 1269668 1161830 1129030 1124036 1064436
2054.79 995482 1035834 1046414 1196536 1285740 1294486
2060.58 1329050 1289918 1265216 1383144 1494528 1631520
2066.37 1685252 1825240 1931950 2056482 2176628 2242574
2072.15 2223250 2307570 2350206 2380906 2320414 2328196
2077.94 2315042 2311494 2282536 2346304 2556486 2994344
2083.72 3147938 2690436 2339408 2408142 2500498 2476414
2089.51 2398140 2504280 2577008 2653200 2627254 2683024
2095.29 2905120 3144968 3053176 2667202 2406240 2440182
2101.08 2458666 2475496 2384712 2347300 2262944 2218784
2106.86 2152676 2130804 2079624 2080046 2001652 2045798
2112.65 2071366 2087616 2138842 2210284 2099776 2094552
2118.43 2050998 2102318 2243686 2491902 2599248 2647204
2124.22 2528820 2495858 2615308 2719580 2795528 2793028
2130.01 2825316 3033854 3221306 3493468 3772836 4156052
2135.79 4480494 4816764 5066972 5396234 5775798 6165526
2141.58 6545052 7057392 7543076 7844984 7937402 8123364
2147.36 8453208 8813674 9180076 9652420 9906016 9750112
2153.15 9569948 9730684 9961900 10298550 11362310 11734900
2158.93 10896280 10901940 11024030 11404780 12167100 13725010
2164.72 14270430 12779220 10160960 8779974 8901540 9621796
2170.50 10240170 10944320 11631590 12252300 12668920 12867870
2176.29 12800040 12624810 12206210 11533680 10628570 9811026
2182.07 9100668 8626784 8137646 7559134 7444596 7691394
2187.86 8003948 8446946 7812970 6101098 5432510 5522964
2193.64 5605732 5740022 5831246 5894356 5891532 5944056
2199.43 5925004 5920072 5826070 5774178 5738320 6098420
2205.22 6884362 7752442 7139702 5566412 5126468 5360034
2211.00 5670370 5983132 6237572 6560156 6952404 7464990
2216.79 7757636 7998186 7929248 7821560 8048916 8373884
2222.57 8439198 8378354 8505768 8772790 8994896 9043954
2228.36 8962338 9019044 9264922 9696942 10183570 10814220
2234.14 11496480 12210600 12359660 11628580 11198930 11138780
2239.93 11351550 11982070 12719950 13534870 14313350 14442950
2245.71 14567480 15014330 15542260 16103980 15734180 15102710
2251.50 14669670 14266290 13918530 13615120 13168780 13362960
2257.28 15845360 18513140 15830420 13322050 13216150 13544550
2263.07 14091960 14762370 15071530 15247990 15530800 15784830
2268.86 15960500 16035740 16019030 16100990 16150460 15770430
2274.64 15014470 14221040 13495160 13045180 12753810 12542570
2280.43 12415950 12466040 12633510 12988370 13328140 13495630
2286.21 13581900 12694400 11177730 10540660 10236180 10004730
2292.00 9796262 9687286 9489266 9216436 9099878 9201620
2297.78 8944722 8756188 9096612 8732064 7951244 7634620
2303.57 7291166 7210414 7253562 7429550 7405590 7317070
2309.35 7510248 7971880 7804612 7326768 6931024 6721038
2315.14 6541854 6409324 6242252 6140290 5974848 5778080
2320.92 5597444 5685996 5997410 6493076 6066894 5110090
2326.71 4814318 4813100 4536158 4528596 4591366 4554816
2332.50 4701430 4993810 5133060 5155188 4899856 4652038
2338.28 4559338 4634834 4731980 4560782 4283442 4240710
2344.07 4081558 3977946 3896256 3839682 3635248 3443454
2349.85 3311658 3352248 3327938 3426186 3551018 3529870
2355.64 3468162 3390036 3261130 3277838 3202798 3108678
2361.42 3019576 2889840 2640922 2617408 2601580 2510300
2367.21 2387718 2295922 2312726 2666176 3094632 3037920
2372.99 2562780 2409574 2371604 2444334 2553052 2714402
2378.78 2646968 2477704 2336418 2270820 2142144 2132976
2384.56 2140362 2187498 2205074 2205546 2183338 2230144
2390.35 2308228 2505792 2635676 2584122 2566232 2731004
2396.14 2610056 2589188 2586178 2665966 2747304 2885714
2401.92 2942886 2950310 2910542 2971010 3012594 3116140
2407.71 3205412 3199002 3109750 3136734 3143668 3254738
2413.49 3496116 3942922 3792634 3429938 3516624 3543906
2419.28 3394476 3487784 3729766 3794682 3443858 3178640
2425.06 3151694 3170468 3131022 3174542 3200406 3237370
2430.85 3256946 3222134 2953218 2819136 2794662 2816154
2436.63 2776356 2719654 2604848 2475128 2376918 2287802
2442.42 2093890 1990858 1892890 1893008 1885822 1909500
2448.20 1862942 1789724 1711564 1695760 1596644 1560116
2453.99 1511892 1530596 1482676 1464964 1393464 1442948
2459.77 1429788 1401774 1367052 1342542 1289742 1376520
2465.56 1429416 1545704 1609196 1625198 1573408 1583960
2471.35 1510910 1480752 1498960 1618264 1682580 1678884
2477.13 1639150 1615288 1491930 1462318 1478000 1614318
2482.92 1708596 1745344 1775158 1978146 2062118 2083034
2488.70 2125704 2193032 2202030 2284864 2330584 2417074
2494.49 2450818 2501432 2514510 2610648 2697058 2813512
2500.27 2865654 3092358 3529456 3907860 3506512 3090388
2506.06 3073512 3228434 3379856 3540278 3438214 3290064
2511.84 3327610 4075852 5299450 5559706 4652002 3807554
2517.63 3568500 3823618 4021932 4071200 4143654 4317004
2523.41 4349720 4535268 4678670 4893160 5050788 4971008
2529.20 4534956 4045784 3646342 3679214 3800954 3826142
2534.99 3661634 3594010 3706792 4115512 4378316 3727578
2540.77 3002496 2848762 2626452 2516558 2570752 2722966
2546.56 2711656 2703890 2765122 2884032 2861386 2852724
2552.34 2767146 2659404 2513726 2424894 2278498 2209162
2558.13 2170390 2200208 2206466 2200438 2104608 2103344
2563.91 2104378 2218348 2268770 2294522 2270966 2274782
2569.70 2375806 2503376 2541558 2648196 2653062 2628792
2575.48 2668380 2830864 2982564 3053742 3209194 3355880
2581.27 3286866 3347116 3451960 3638744 3822824 4057692
2587.05 4259012 4411686 4580662 5019992 5252882 5212212
2592.84 5230476 5314662 5457310 5639218 5766892 5895464
2598.63 5922142 6025830 6156426 6413786 6580650 6602592
2604.41 6416654 6264646 6325238 6588446 6625390 6642306
2610.20 6691024 6895356 7166478 7303132 7102126 7076402
2615.98 7072834 7031738 6837494 6643284 6474704 6523780
2621.77 6523200 6511132 6448662 6493046 6561286 6562846
2627.55 6375956 6129192 6084782 6122878 5948572 5858948
2633.34 5716688 5602334 5742248 5577942 5160944 4979766
2639.12 4906676 4881816 4809118 4704988 4533906 4334388
2644.91 4072442 3993094 3975314 4064122 4046042 4058876
2650.69 4039968 4118438 3952932 3815800 3653350 3480534
2656.48 3235010 3122714 3033376 2928918 2717966 2553832
2662.27 2396006 2332580 2206082 2108224 2037996 1937414
2668.05 1760706 1720166 1802598 2283174 2846846 2296142
2673.84 1524772 1375538 1296504 1242370 1188570 1317412
2679.62 1290028 1219918 1097204 1078094 1112300 1129738
2685.41 1031960 995118 1018944 1077910 963030 965450
2691.19 963426 953186 913128 956978 985854 1048496
2696.98 1063394 1143102 1138084 1223390 1228006 1337750
2702.76 1446526 1541944 1658912 1751870 1771756 1956458
2708.55 2134900 2417260 2673142 2956146 3166886 3515488
2714.33 3806918 3994096 4022624 4141240 4252714 4429556
2720.12 4439774 4385220 4354202 4423610 4251834 4236770
2725.91 4218484 4383866 5155078 7088588 9215728 8430364
2731.69 5803390 4475204 4291918 4788994 5216620 5715114
2737.48 6233304 6714394 7032338 7369850 7436642 7388294
2743.26 7458034 8075398 8466242 8396518 8046130 7953338
2749.05 7889220 7800542 7670048 7648146 7611368 7806102
2754.83 8025698 8297682 8660358 9160582 9356970 9505446
2760.62 9748980 10123620 10346190 10643340 10840460 11238430
2766.40 12015520 14240660 18105200 22301010 23006450 18578670
2772.19 14399110 14100050 15032430 15626770 16240030 16982420
2777.97 17641420 18276620 18884690 19439930 19943850 20592170
2783.76 21399280 22077090 22387230 22800150 23508620 24088050
2789.54 24194160 24327180 24498910 24813430 25083450 25213630
2795.33 25152940 25046470 24731820 24283060 23920810 23629990
2801.12 23404620 23186810 23024960 22938330 24073780 26561190
2806.90 30870850 35057730 37308480 32180620 22277390 19782320
2812.69 19865610 20360100 20234170 20181650 19604190 19738370
2818.47 19811810 19993850 19532990 19303600 19114550 19983130
2824.26 20228840 19646600 18758510 18753060 19793500 21900390
2830.04 21661670 19203610 17751040 17857420 18347660 19056700
2835.83 19296060 19706830 20182940 21097050 21497620 22002990
2841.61 22567780 23177690 23524990 24117590 24469540 25064690
2847.40 25542230 26192780 26632280 27396050 28228310 30288580
2853.18 32636180 35171160 35977650 35215400 34950760 36638720
2858.97 38705760 41906670 45625310 50146370 54567380 60063770
2864.76 67635900 80947010 83896190 76712640 75054930 76163700
2870.54 77078090 77157250 76283390 75769900 75900270 78534650
2876.33 87728550 98270260 92793050 83248880 79624790 79779480
2882.11 82399090 88111130 100288100 127522400 141200800 125691200
2887.90 112180100 108553600 111477500 116660000 124207500 130567300
2893.68 135549900 140305500 146777400 153449200 160076200 167436600
2899.47 176192800 183523600 189366100 194302500 197051200 197355100
2905.25 195156400 192506100 191588900 191797200 192682800 198465900
2911.04 211101100 226452500 242461000 258264300 271621300 284297700
2916.82 292479900 301207400 312397200 320691900 327815900 336257500
2922.61 347519900 361023700 367763600 370420600 388461700 414300600
2928.40 400961600 370579000 367278700 370543100 372779200 372809300
2934.18 372113300 371043100 374673600 383139900 400743800 442316400
2939.97 505050900 510262000 429937700 372829700 363064400 369948200
2945.75 382998200 399156700 418668400 438187900 452783000 461930700
2951.54 467152900 469550300 470884000 471699700 472610300 473167500
2957.32 474146400 474744600 476360200 479854200 486933100 496689100
2963.11 507192600 519972700 536919600 557596700 579408400 598405600
2968.89 610076500 610547800 598895800 577591500 559928400 563115600
2974.68 588853400 634795500 688324900 730285600 760840300 785826500
2980.46 808265800 833287000 861423300 868142800 862913700 863237400
2986.25 869005600 875855000 881539100 888090600 898914900 915006500
2992.04 937236800 946730600 939343000 908943200 875745900 906232400
2997.82 1040049000 1285711000 1476619000 1318852000 998420100 830605800
3003.61 769213800 763521100 770954600 778056100 775314000 767752600
3009.39 752709500 739409700 725429300 719674900 717963100 715719400
3015.18 704830700 690313200 672240600 656878600 641560400 629345600
3020.96 615802500 604842100 593899500 585219900 574901000 567745300
3026.75 560485700 555458800 548321100 543720300 537928500 534978500
3032.53 531483000 531159300 530110200 533214800 534312400 530450700
3038.32 513739700 499707600 481909600 463097100 437955600 416036400
3044.10 392326800 388962400 412130800 516349200 831603200 1231290000
3049.89 1017291000 465200000 284814900 295172500 331584000 360193200
3055.67 385089700 396849500 405446600 405949200 405142800 397770900
3061.46 389545600 375721600 361652600 343961100 327388000 308556000
3067.25 291417200 272921900 255966200 238202000 222832600 206735300
3073.03 192413200 178048200 165703700 152560700 141128600 129613700
3078.82 119826900 110480900 102310600 92992530 84937930 76873760
3084.60 70350820 63627550 57959430 52112080 47387630 42497810
3090.39 38479160 34353690 31457480 28287510 25844590 23292220
3096.17 21556060 19449430 18108330 16574490 15637260 14151880
3101.96 13388760 12383040 11846950 11007230 10617470 9868706
3107.74 9785558 9338636 9203462 8645272 8674890 8402922
3113.53 8496526 8249012 8407226 8278238 8578366 8395974
3119.31 8514938 8410026 8576466 8314854 8545124 8447720
3125.10 8631378 8570002 8845166 8828652 9103480 9061348
3130.89 9209894 9174272 9461046 9560980 9942490 9915860
3136.67 10064470 9958922 10189220 10254280 10595000 10728840
3142.46 11457910 12356530 13456270 13131000 12309720 11690290
3148.24 11837180 11995810 12414090 12587400 12991260 13127710
3154.03 13497270 13632840 14094870 14583890 15429230 15977330
3159.81 16764390 17335850 17930060 17194030 15879590 14994220
3165.60 14792470 14483010 14498960 14276680 14165330 14057270
3171.38 14453110 15744550 19798650 21732440 18021020 14834460
3177.17 13991400 13301500 12776160 12416170 12280550 12234650
3182.95 12269540 11957090 11764470 11571150 11411280 10949520
3188.74 10696530 10343260 9950576 9369682 8920568 8337882
3194.53 7995766 7484962 7192326 6685668 6279566 5779524
3200.31 5424956 4894420 4547232 4217490 4015986 3765510
3206.10 3644296 3339912 3184254 2855184 2695296 2523892
3211.88 2357910 2087248 2019430 1864976 1745456 1544266
3217.67 1536380 1440958 1507362 1261200 1232474 1106336
3223.45 1158812 1172792 1137886 975698 996490 1022038
3229.24 1085212 914562 881244 721638 762180 722798
3235.02 817700 809842 804072 680264 754636 613500
3240.81 613158 570542 725308 615912 727398 711126
3246.59 757232 668302 855744 792622 732278 722984
3252.38 854744 774026 748996 680354 783756 718002
3258.17 755108 747218 797672 741820 751704 701934
3263.95 768600 795812 934198 829436 758336 721670
3269.74 710924 654364 701712 667934 643106 693456
3275.52 934998 981356 1077084 993004 973630 1029198
3281.31 971882 852138 1018836 955328 986902 892662
3287.09 945698 993988 1098196 1052994 1183194 1256532
3292.88 1242264 1040668 1130544 1148970 1193292 1152068
3298.66 1084664 998072 1014112 946752 1060558 1055572
3304.45 1128034 1040688 1146762 1174674 1281526 1291350
3310.23 1339620 1277788 1415518 1507048 1559326 1679546
3316.02 1995990 2058324 2167258 2312834 2437694 2562650
3321.80 2953098 3206736 3389890 3427872 3657974 3994238
3327.59 4187858 4160042 4283220 4292812 4272416 4072220
3333.38 4159338 4210510 4190592 4069386 4302902 5047440
3339.16 6239490 6846078 5992436 4530106 3983066 3914530
3344.95 4086634 4157740 4402556 4680022 5024532 5192728
3350.73 5299486 5518566 5643158 5483436 5327412 5149562
3356.52 5043600 4953260 4776888 4620562 4662428 4445752
3362.30 4165972 3969906 4008928 3839242 3727972 3646288
3368.09 3683466 3692940 3740742 3749794 3853520 3927062
3373.87 3937242 3839096 3852180 3733214 3679900 3776156
3379.66 3850532 3690096 3695502 3864516 4350282 4523302
3385.44 4571420 4313560 4103448 3885592 3781852 3584788
3391.23 3781440 4091524 4509630 4686026 4530492 4186358
3397.02 4103826 4057978 4150442 4235690 4305604 4267292
3402.80 4155300 3840890 3726518 3671854 3587964 3656296
3408.59 3947668 3986198 3800056 3484298 3306624 3245460
3414.37 3439024 3491892 3248874 2873434 2659196 2481460
3420.16 2588126 2510782 2458254 2449594 2558792 2508624
3425.94 2487516 2404078 2352412 2369182 2388026 2077530
3431.73 1993776 1904618 1910598 1950672 1961574 1752136
3437.51 1708974 1624776 1653520 1633438 1735350 1835362
3443.30 1791980 1656826 1752656 1839118 1753292 1603486
3449.08 1638970 1621280 1630852 1494310 1421218 1315082
3454.87 1192794 1051572 1181974 1340114 1828608 2141046
3460.66 2054418 1740350 1570368 1342724 1137580 1121008
3466.44 1283006 1223140 1359372 1402794 1326506 1119554
3472.23 1104448 1077902 1174220 1101272 1140216 1120678
3478.01 1056710 957492 831170 854910 913770 737110
3483.80 615682 481470 528310 576584 649764 561856
3489.58 570986 487468 463118 406736 526204 726974
3495.37 787320 621618 544934 483924 480656 528318
3501.15 686680 678456 463460 270442 381530 483498
3506.94 583268 767884 713044 517370 517144 602084
3512.72 592788 539758 661434 708042 663276 526942
3518.51 619760 631116 686278 649306 846642 845004
3524.30 793508 801142 734978 654344 775498 655554
3530.08 730030 712466 696976 695564 705262 629314
3535.87 736148 775902 819644 795088 906128 768688
3541.65 621608 641982 794540 711462 662814 602396
3547.44 688226 691542 783252 876246 878536 756614
3553.22 721950 647498 730180 783630 806870 750484
3559.01 748470 736648 711692 607938 748082 878850
3564.79 1119694 1264544 1267958 924906 608088 676874
3570.58 788158 661212 622866 657350 679952 673690
3576.36 659020 651086 827010 843038 781452 686150
3582.15 723974 738086 808896 1074312 1228450 1152230
3587.94 1121158 668634 673378 774826 853590 839502
3593.72 992576 1046370 925596 793190 821048 740142
3599.51 820392 849416 875750 744906 671974 731412
3605.29 987830 1094086 1254086 1685014 1308576 944578
3611.08 1372864 1375790 1100138 1006664 889504 986102
3616.86 1313484 1545314 1741144 1139416 856708 855394
3622.65 1098554 1083804 1099480 952630 1492916 2491398
3628.43 2819418 1888272 1123766 1072184 1260930 1321812
3634.22 1217230 1106008 1199140 1328360 1315130 1255280
3640.00 1265596 1189242 1263746 1294354 1439686 1663392
3645.79 2218270 2360472 2873814 3234462 2765452 2365596
3651.57 1844236 1825400 1846224 2383704 2939300 2330094
3657.36 2022756 2039892 2093574 2249598 2292744 2288714
3663.15 2363484 2348086 2451530 2542354 3020524 3501796
3668.93 4174402 4793952 3536964 2922866 3373854 4482424
3674.72 5326842 4526896 3433214 3426784 3553768 3427360
3680.50 3281008 3221386 3215070 3316560 3404666 3552020
3686.29 4184864 5718442 5199328 4132912 4330400 3985616
3692.07 3558850 3462546 3502022 3614958 3753308 3752198
3697.86 3660166 3582438 3782382 4097356 3873466 3614576
3703.64 3643626 3687232 3768498 3781570 4144830 4490078
3709.43 4245156 4865994 5584212 4656944 4221816 4249432
3715.21 4327722 4441312 4644656 4713386 4643900 4717658
3721.00 5211628 5255644 5086882 5227350 5513122 5812112
3726.79 5750928 5800386 5956290 6234726 7194402 7541504
3732.57 6965270 7566732 8082322 8498690 8183514 7798614
3738.36 7747914 7855652 7942682 7866502 8902760 11562070
3744.14 11362590 8995658 8774098 9443150 11194830 11045240
3749.93 10198210 11850630 11820200 10439050 10412260 10865710
3755.71 11382060 11047550 10700240 10618210 10088850 9624840
3761.50 9713134 9494198 9417794 9686874 9665632 9299150
3767.28 9209376 9697036 9965522 9315910 8992042 8797076
3773.07 8888098 8817498 8781676 8617204 8569444 8780380
3778.85 8731428 8086188 7891628 7801922 7725968 7734188
3784.64 7793662 7606310 7436172 7220812 7218534 7262986
3790.43 7323758 7257684 7242280 7129450 7356242 7608794
3796.21 7473840 7136730 7130938 7608062 9236994 8864180
3802.00 7772732 7856484 8407738 9594376 10793470 9375384
3807.78 7425704 6653094 6365142 6557244 6851988 7161202
3813.57 7557622 9345716 10138380 8849918 8463378 8364762
3819.35 8835492 9075742 8462092 7626616 7395840 7233056
3825.14 7366448 7394188 7190164 6983144 6979228 7364176
3830.92 7573740 7049516 7260346 7872302 7764760 7847492
3836.71 9016690 8065968 6956850 6829282 6456982 6113694
3842.49 6398068 6244174 5825188 5835342 5759794 5729864
3848.28 5879188 5990714 6972932 8053084 8268312 9715918
3854.07 8138574 6191874 6074718 5835654 5604836 5528138
3859.85 5792718 6033644 5855980 5991634 6781080 6768928
3865.64 6238478 6189722 6688290 7553390 7404318 6511592
3871.42 6403736 6756268 7110500 6690648 6437338 6511362
3877.21 6544296 6694432 7339244 7308902 6970426 6979496
3882.99 7232270 7866680 8269386 7548736 7280644 7160136
3888.78 7253108 7957164 8305782 7755252 7631922 7339820
3894.56 7024102 7096462 7469016 7959036 8248016 7715936
3900.35 7783062 7680380 7435994 7665818 7300230 6967358
3906.13 6827426 6821868 6945566 7011614 7042074 7032608
3911.92 7020632 6983448 7018226 7054790 7254322 7263622
3917.70 7238100 7400814 7365538 7175688 7254084 7450182
3923.49 7820390 7928506 7858956 7932678 8035660 8120202
3929.28 8194236 8340430 8588686 8448456 8313842 8285682
3935.06 8383780 8247822 8104078 8295500 9267854 10402240
3940.85 10106400 8914380 8386328 8352300 8660550 9055454
3946.63 9365846 9311440 9259826 9321748 9485492 9544792
3952.42 9495330 9263584 9166164 8958684 8849540 8674454
3958.20 8502766 8315678 8187206 8106400 8002896 7868214
3963.99 7760434 7605930 7593212 7455528 7390902 7374178
3969.77 7261808 7142696 7209348 7122494 7102128
##END=
