##TITLE=tert.-Butyl alcohol
##JCAMP-DX=4.24
##DATA TYPE=INFRARED SPECTRUM
##CLASS=COBLENTZ III
##ORIGIN=SOUTHERN RESEARCH INSTITUTE
##OWNER=Copyright (C) 1987 by the Coblentz Society
Collection (C) 2018 copyright by the U.S. Secretary of Commerce
on behalf of the United States of America. All rights reserved.
##DATE=1965/02/22
##NAMES=2-methyl-2-propanol
2-PROPANOL, 2-METHYL-
##CAS REGISTRY NO=75-65-0
##MOLFORM=C4 H10 O
##SOURCE REFERENCE=COBLENTZ NO. 6880
##$NIST SOURCE=COBLENTZ
##$NIST IMAGE=cob6880
##SPECTROMETER/DATA SYSTEM=PERKIN-ELMER 521 (GRATING)
##INSTRUMENT PARAMETERS=FILTERS AT 3150, 2500, 2000, 1150, 700, 410. GRATING CHANGES: 2000, 630
##STATE=LIQUID (NEAT)
##PATH LENGTH=CAPILLARY
##RESOLUTION=2
##DATA PROCESSING=(ADJUSTED \addcm-1\15-5-2\)
##XUNITS=1/CM
##YUNITS=TRANSMITTANCE
##XFACTOR=1.0
##YFACTOR=1
##DELTAX=1.003813
##FIRSTX=250.462
##LASTX=3814
##FIRSTY=0.7403
##MAXX=3814
##MINX=250.462
##MAXY=0.912431
##MINY=0.121221
##NPOINTS=3551
##XYDATA=(X++(Y..Y))
250.461538 0.7403 0.7432 0.7454 0.7476 0.7507
255.480601 0.7537 0.7562 0.7588 0.7613 0.7639
260.499664 0.7664 0.7690 0.7717 0.7744 0.7771
265.518727 0.7798 0.7825 0.7852 0.7878 0.7907
270.537790 0.7937 0.7966 0.7996 0.8027 0.8057
275.556853 0.8086 0.8113 0.8137 0.8160 0.8184
280.575916 0.8208 0.8231 0.8254 0.8278 0.8301
285.594979 0.8324 0.8344 0.8363 0.8382 0.8401
290.614042 0.8420 0.8439 0.8455 0.8470 0.8486
295.633104 0.8502 0.8518 0.8533 0.8547 0.8554
300.652167 0.8560 0.8566 0.8573 0.8579 0.8585
305.671230 0.8588 0.8591 0.8594 0.8597 0.8600
310.690293 0.8603 0.8605 0.8606 0.8608 0.8610
315.709356 0.8609 0.8607 0.8604 0.8602 0.8597
320.728419 0.8591 0.8585 0.8578 0.8572 0.8566
325.747482 0.8556 0.8542 0.8528 0.8514 0.8500
330.766545 0.8485 0.8463 0.8440 0.8418 0.8399
335.785608 0.8385 0.8371 0.8360 0.8363 0.8365
340.804670 0.8368 0.8371 0.8375 0.8380 0.8386
345.823733 0.8391 0.8396 0.8401 0.8409 0.8421
350.842796 0.8432 0.8444 0.8455 0.8467 0.8478
355.861859 0.8487 0.8497 0.8507 0.8516 0.8526
360.880922 0.8536 0.8542 0.8546 0.8551 0.8551
365.899985 0.8547 0.8545 0.8542 0.8536 0.8531
370.919048 0.8525 0.8520 0.8515 0.8511 0.8509
375.938111 0.8506 0.8504 0.8502 0.8499 0.8497
380.957173 0.8496 0.8502 0.8508 0.8515 0.8525
385.976236 0.8571 0.8618 0.8662 0.8672 0.8676
390.995299 0.8672 0.8667 0.8641 0.8482 0.8430
396.014362 0.8411 0.8392 0.8379 0.8370 0.8361
401.033425 0.8352 0.8344 0.8341 0.8337 0.8332
406.052488 0.8326 0.8319 0.8311 0.8292 0.8270
411.071551 0.8236 0.8197 0.8158 0.8114 0.8069
416.090614 0.8019 0.7926 0.7840 0.7779 0.7745
421.109677 0.7757 0.7758 0.7766 0.7792 0.7853
426.128739 0.7902 0.7955 0.8020 0.8079 0.8113
431.147802 0.8126 0.8131 0.8129 0.8129 0.8143
436.166865 0.8120 0.8113 0.8106 0.8098 0.8090
441.185928 0.8075 0.8057 0.8038 0.8016 0.7987
446.204991 0.7958 0.7929 0.7899 0.7867 0.7835
451.224054 0.7803 0.7771 0.7740 0.7711 0.7693
456.243117 0.7674 0.7655 0.7638 0.7630 0.7627
461.262180 0.7617 0.7637 0.7642 0.7655 0.7669
466.281243 0.7683 0.7698 0.7723 0.7752 0.7786
471.300305 0.7826 0.7867 0.7907 0.7942 0.7966
476.319368 0.7990 0.8015 0.8039 0.8063 0.8083
481.338431 0.8095 0.8107 0.8119 0.8131 0.8143
486.357494 0.8155 0.8167 0.8178 0.8184 0.8188
491.376557 0.8192 0.8195 0.8199 0.8201 0.8197
496.395620 0.8201 0.8200 0.8199 0.8197 0.8196
501.414683 0.8195 0.8193 0.8192 0.8189 0.8185
506.433746 0.8179 0.8174 0.8168 0.8163 0.8157
511.452809 0.8152 0.8146 0.8141 0.8135 0.8130
516.471871 0.8124 0.8118 0.8113 0.8106 0.8099
521.490934 0.8092 0.8085 0.8078 0.8072 0.8065
526.509997 0.8058 0.8051 0.8044 0.8037 0.8029
531.529060 0.8020 0.8012 0.8003 0.7994 0.7985
536.548123 0.7977 0.7968 0.7959 0.7950 0.7942
541.567186 0.7933 0.7924 0.7915 0.7907 0.7898
546.586249 0.7889 0.7879 0.7866 0.7853 0.7840
551.605312 0.7827 0.7813 0.7800 0.7787 0.7774
556.624374 0.7761 0.7748 0.7735 0.7722 0.7709
561.643437 0.7696 0.7683 0.7667 0.7652 0.7636
566.662500 0.7621 0.7605 0.7589 0.7573 0.7558
571.681563 0.7542 0.7526 0.7510 0.7494 0.7477
576.700626 0.7461 0.7445 0.7429 0.7413 0.7396
581.719689 0.7380 0.7364 0.7348 0.7331 0.7315
586.738752 0.7299 0.7283 0.7267 0.7251 0.7237
591.757815 0.7222 0.7208 0.7193 0.7179 0.7164
596.776878 0.7150 0.7135 0.7121 0.7106 0.7092
601.795940 0.7077 0.7063 0.7048 0.7034 0.7020
606.815003 0.7010 0.7002 0.6995 0.6988 0.6980
611.834066 0.6973 0.6966 0.6959 0.6951 0.6944
616.853129 0.6937 0.6930 0.6922 0.6915 0.6908
621.872192 0.6901 0.6900 0.6899 0.6898 0.6897
626.891255 0.6896 0.6895 0.6894 0.6893 0.6892
631.910318 0.6891 0.6890 0.6885 0.6877 0.6888
636.929381 0.6889 0.6891 0.6892 0.6893 0.6894
641.948444 0.6895 0.6897 0.6898 0.6899 0.6900
646.967506 0.6901 0.6903 0.6904 0.6905 0.6907
651.986569 0.6910 0.6916 0.6923 0.6930 0.6936
657.005632 0.6943 0.6949 0.6956 0.6963 0.6978
662.024695 0.7005 0.7033 0.7064 0.7099 0.7135
667.043758 0.7168 0.7195 0.7220 0.7245 0.7267
672.062821 0.7281 0.7292 0.7303 0.7313 0.7324
677.081884 0.7335 0.7346 0.7356 0.7365 0.7375
682.100947 0.7385 0.7395 0.7405 0.7414 0.7425
687.120010 0.7438 0.7452 0.7465 0.7478 0.7491
692.139072 0.7505 0.7518 0.7531 0.7544 0.7557
697.158135 0.7571 0.7584 0.7597 0.7610 0.7621
702.177198 0.7633 0.7645 0.7657 0.7669 0.7681
707.196261 0.7693 0.7705 0.7717 0.7729 0.7741
712.215324 0.7753 0.7763 0.7772 0.7781 0.7789
717.234387 0.7798 0.7807 0.7816 0.7825 0.7834
722.253450 0.7846 0.7856 0.7856 0.7856 0.7857
727.272513 0.7857 0.7854 0.7844 0.7825 0.7798
732.291576 0.7757 0.7693 0.7624 0.7528 0.7402
737.310638 0.7300 0.7081 0.6702 0.6323 0.5944
742.329701 0.5565 0.5186 0.4844 0.4671 0.4703
747.348764 0.5023 0.5764 0.6505 0.7213 0.7674
752.367827 0.7777 0.7827 0.7863 0.7890 0.7918
757.386890 0.7945 0.7971 0.7994 0.8017 0.8040
762.405953 0.8064 0.8086 0.8107 0.8128 0.8148
767.425016 0.8168 0.8184 0.8198 0.8212 0.8226
772.444079 0.8241 0.8255 0.8269 0.8283 0.8295
777.463141 0.8307 0.8319 0.8332 0.8344 0.8356
782.482204 0.8368 0.8380 0.8391 0.8402 0.8410
787.501267 0.8418 0.8427 0.8435 0.8443 0.8452
792.520330 0.8460 0.8468 0.8476 0.8484 0.8491
797.539393 0.8499 0.8506 0.8514 0.8521 0.8529
802.558456 0.8536 0.8544 0.8551 0.8559 0.8565
807.577519 0.8571 0.8576 0.8581 0.8586 0.8591
812.596582 0.8596 0.8601 0.8607 0.8612 0.8617
817.615645 0.8622 0.8626 0.8629 0.8633 0.8636
822.634707 0.8639 0.8643 0.8646 0.8649 0.8653
827.653770 0.8656 0.8659 0.8662 0.8664 0.8666
832.672833 0.8667 0.8669 0.8671 0.8675 0.8678
837.691896 0.8677 0.8678 0.8680 0.8682 0.8683
842.710959 0.8681 0.8679 0.8676 0.8673 0.8671
847.730022 0.8668 0.8665 0.8662 0.8659 0.8655
852.749085 0.8651 0.8647 0.8642 0.8638 0.8634
857.768148 0.8630 0.8625 0.8620 0.8611 0.8601
862.787211 0.8591 0.8580 0.8570 0.8558 0.8544
867.806273 0.8529 0.8514 0.8499 0.8484 0.8463
872.825336 0.8438 0.8412 0.8387 0.8361 0.8333
877.844399 0.8290 0.8232 0.8173 0.8109 0.8040
882.863462 0.7971 0.7898 0.7801 0.7679 0.7544
887.882525 0.7394 0.7085 0.6744 0.6509 0.6165
892.901588 0.5778 0.5392 0.5005 0.4618 0.4232
897.920651 0.3845 0.3512 0.3273 0.3125 0.3037
902.939714 0.2942 0.2818 0.2683 0.2568 0.2451
907.958777 0.2366 0.2346 0.2354 0.2364 0.2379
912.977839 0.2409 0.2450 0.2507 0.2579 0.2648
917.996902 0.2758 0.3086 0.3593 0.4099 0.4605
923.015965 0.5112 0.5618 0.6311 0.6819 0.6921
928.035028 0.7006 0.7095 0.7204 0.7327 0.7464
933.054091 0.7649 0.7840 0.7960 0.8030 0.8081
938.073154 0.8118 0.8155 0.8193 0.8230 0.8262
943.092217 0.8287 0.8311 0.8335 0.8358 0.8382
948.111280 0.8406 0.8427 0.8444 0.8461 0.8477
953.130342 0.8493 0.8509 0.8525 0.8546 0.8569
958.149405 0.8591 0.8605 0.8614 0.8622 0.8631
963.168468 0.8638 0.8642 0.8647 0.8651 0.8656
968.187531 0.8660 0.8665 0.8669 0.8673 0.8675
973.206594 0.8677 0.8680 0.8682 0.8684 0.8679
978.225657 0.8681 0.8685 0.8681 0.8677 0.8674
983.244720 0.8670 0.8666 0.8658 0.8645 0.8632
988.263783 0.8619 0.8605 0.8592 0.8579 0.8563
993.282846 0.8541 0.8516 0.8492 0.8467 0.8436
998.301908 0.8398 0.8361 0.8320 0.8269 0.8210
1003.320971 0.8152 0.8091 0.8026 0.7961 0.7896
1008.340034 0.7825 0.7744 0.7660 0.7317 0.6860
1013.359097 0.6480 0.6126 0.5977 0.5977 0.5984
1018.378160 0.6092 0.6292 0.6506 0.6721 0.6935
1023.397223 0.7149 0.7363 0.7577 0.7791 0.7982
1028.416286 0.8086 0.8155 0.8244 0.8343 0.8427
1033.435349 0.8485 0.8517 0.8536 0.8554 0.8570
1038.454412 0.8582 0.8593 0.8604 0.8615 0.8622
1043.473474 0.8626 0.8630 0.8634 0.8638 0.8641
1048.492537 0.8643 0.8644 0.8645 0.8646 0.8647
1053.511600 0.8648 0.8662 0.8657 0.8646 0.8642
1058.530663 0.8639 0.8635 0.8631 0.8625 0.8620
1063.549726 0.8614 0.8608 0.8603 0.8597 0.8591
1068.568789 0.8582 0.8572 0.8561 0.8550 0.8539
1073.587852 0.8528 0.8518 0.8507 0.8496 0.8485
1078.606915 0.8474 0.8460 0.8445 0.8430 0.8415
1083.625978 0.8400 0.8385 0.8370 0.8355 0.8340
1088.645040 0.8323 0.8306 0.8289 0.8272 0.8255
1093.664103 0.8238 0.8221 0.8205 0.8187 0.8170
1098.683166 0.8153 0.8133 0.8111 0.8088 0.8065
1103.702229 0.8042 0.8019 0.7996 0.7973 0.7947
1108.721292 0.7917 0.7885 0.7854 0.7820 0.7777
1113.740355 0.7730 0.7683 0.7635 0.7580 0.7515
1118.759418 0.7463 0.7429 0.7404 0.7388 0.7375
1123.778481 0.7362 0.7349 0.7336 0.7313 0.7284
1128.797543 0.7241 0.7147 0.7034 0.6931 0.6836
1133.816606 0.6747 0.6660 0.6571 0.6478 0.6384
1138.835669 0.6276 0.6100 0.5889 0.5728 0.5603
1143.854732 0.5483 0.5364 0.5244 0.5124 0.5004
1148.873795 0.4885 0.4765 0.4646 0.4526 0.4412
1153.892858 0.4309 0.4173 0.4024 0.3873 0.3720
1158.911921 0.3574 0.3439 0.3305 0.3104 0.2961
1163.930984 0.2864 0.2772 0.2699 0.2634 0.2570
1168.950047 0.2506 0.2441 0.2366 0.2281 0.2195
1173.969109 0.2119 0.2049 0.1979 0.1917 0.1868
1178.988172 0.1824 0.1781 0.1749 0.1731 0.1716
1184.007235 0.1700 0.1685 0.1670 0.1655 0.1644
1189.026298 0.1635 0.1627 0.1618 0.1613 0.1607
1194.045361 0.1602 0.1597 0.1595 0.1595 0.1581
1199.064424 0.1593 0.1602 0.1606 0.1612 0.1619
1204.083487 0.1625 0.1654 0.1695 0.1877 0.2226
1209.102550 0.2521 0.2772 0.3022 0.3273 0.3525
1214.121613 0.3775 0.4026 0.4277 0.4523 0.4654
1219.140675 0.4709 0.4732 0.4747 0.4750 0.4751
1224.159738 0.4732 0.4675 0.4559 0.4424 0.4289
1229.178801 0.4153 0.4018 0.3883 0.3748 0.3613
1234.197864 0.3546 0.3531 0.3537 0.3536 0.3855
1239.216927 0.4244 0.4611 0.4978 0.5680 0.6334
1244.235990 0.6599 0.6709 0.6798 0.6871 0.6940
1249.255053 0.7011 0.7083 0.7155 0.7227 0.7293
1254.274116 0.7355 0.7416 0.7471 0.7515 0.7555
1259.293179 0.7596 0.7637 0.7666 0.7691 0.7716
1264.312241 0.7741 0.7754 0.7764 0.7774 0.7779
1269.331304 0.7783 0.7787 0.7790 0.7792 0.7793
1274.350367 0.7793 0.7792 0.7794 0.7794 0.7794
1279.369430 0.7793 0.7793 0.7792 0.7790 0.7787
1284.388493 0.7783 0.7779 0.7776 0.7772 0.7769
1289.407556 0.7765 0.7761 0.7754 0.7746 0.7738
1294.426619 0.7729 0.7721 0.7713 0.7705 0.7696
1299.445682 0.7688 0.7679 0.7670 0.7661 0.7651
1304.464744 0.7642 0.7633 0.7624 0.7608 0.7589
1309.483807 0.7571 0.7552 0.7534 0.7516 0.7489
1314.502870 0.7456 0.7422 0.7385 0.7343 0.7300
1319.521933 0.7256 0.7212 0.7168 0.7116 0.7056
1324.540996 0.6994 0.6933 0.6874 0.6818 0.6763
1329.560059 0.6708 0.6653 0.6596 0.6540 0.6484
1334.579122 0.6427 0.6363 0.6294 0.6226 0.6158
1339.598185 0.6076 0.5990 0.5904 0.5818 0.5732
1344.617248 0.5646 0.5501 0.5290 0.5023 0.4656
1349.636310 0.4369 0.4108 0.3847 0.3586 0.3325
1354.655373 0.3063 0.2803 0.2542 0.2281 0.2020
1359.674436 0.1758 0.1636 0.1625 0.1642 0.1801
1364.693499 0.1992 0.2184 0.2338 0.2370 0.2369
1369.712562 0.2363 0.2357 0.2345 0.2314 0.2287
1374.731625 0.2246 0.2185 0.2152 0.2137 0.2137
1379.750688 0.2143 0.2156 0.2294 0.2538 0.2798
1384.769751 0.3059 0.3356 0.3635 0.3829 0.4069
1389.788814 0.4279 0.4436 0.4539 0.4632 0.4727
1394.807876 0.4820 0.4911 0.4995 0.5077 0.5159
1399.826939 0.5241 0.5318 0.5385 0.5450 0.5516
1404.846002 0.5581 0.5645 0.5708 0.5771 0.5835
1409.865065 0.5906 0.6005 0.6109 0.6212 0.6305
1414.884128 0.6395 0.6485 0.6573 0.6627 0.6672
1419.903191 0.6718 0.6763 0.6809 0.6843 0.6864
1424.922254 0.6884 0.6904 0.6917 0.6913 0.6930
1429.941317 0.6897 0.6874 0.6859 0.6844 0.6816
1434.960380 0.6788 0.6771 0.6758 0.6747 0.6743
1439.979442 0.6740 0.6738 0.6733 0.6724 0.6713
1444.998505 0.6699 0.6680 0.6658 0.6637 0.6616
1450.017568 0.6594 0.6573 0.6551 0.6530 0.6505
1455.036631 0.6460 0.6340 0.6107 0.5840 0.5573
1460.055694 0.5305 0.5038 0.4771 0.4503 0.4236
1465.074757 0.3969 0.3702 0.3485 0.3418 0.3408
1470.093820 0.3486 0.3743 0.4065 0.4388 0.4710
1475.112883 0.5032 0.5354 0.5694 0.5853 0.5906
1480.131945 0.5957 0.6024 0.6100 0.6178 0.6273
1485.151008 0.6381 0.6536 0.6670 0.6759 0.6839
1490.170071 0.6918 0.6995 0.7071 0.7146 0.7224
1495.189134 0.7319 0.7424 0.7529 0.7601 0.7645
1500.208197 0.7687 0.7728 0.7770 0.7811 0.7852
1505.227260 0.7894 0.7935 0.7976 0.8018 0.8059
1510.246323 0.8100 0.8135 0.8166 0.8197 0.8229
1515.265386 0.8260 0.8290 0.8313 0.8330 0.8348
1520.284449 0.8366 0.8384 0.8402 0.8417 0.8429
1525.303511 0.8438 0.8447 0.8456 0.8464 0.8473
1530.322574 0.8482 0.8491 0.8500 0.8509 0.8517
1535.341637 0.8526 0.8535 0.8548 0.8565 0.8582
1540.360700 0.8599 0.8615 0.8628 0.8639 0.8650
1545.379763 0.8661 0.8671 0.8682 0.8693 0.8702
1550.398826 0.8709 0.8716 0.8723 0.8729 0.8736
1555.417889 0.8743 0.8748 0.8752 0.8755 0.8758
1560.436952 0.8761 0.8764 0.8767 0.8770 0.8773
1565.456015 0.8776 0.8779 0.8782 0.8784 0.8786
1570.475077 0.8787 0.8789 0.8790 0.8792 0.8793
1575.494140 0.8795 0.8797 0.8798 0.8800 0.8801
1580.513203 0.8802 0.8803 0.8804 0.8804 0.8805
1585.532266 0.8806 0.8824 0.8837 0.8808 0.8809
1590.551329 0.8809 0.8810 0.8811 0.8811 0.8812
1595.570392 0.8812 0.8813 0.8813 0.8814 0.8814
1600.589455 0.8815 0.8815 0.8815 0.8812 0.8807
1605.608518 0.8802 0.8797 0.8792 0.8787 0.8781
1610.627581 0.8776 0.8771 0.8766 0.8759 0.8751
1615.646643 0.8742 0.8734 0.8726 0.8717 0.8709
1620.665706 0.8701 0.8693 0.8684 0.8676 0.8668
1625.684769 0.8659 0.8651 0.8643 0.8635 0.8627
1630.703832 0.8619 0.8611 0.8603 0.8595 0.8587
1635.722895 0.8579 0.8571 0.8563 0.8555 0.8546
1640.741958 0.8535 0.8524 0.8513 0.8502 0.8491
1645.761021 0.8480 0.8469 0.8458 0.8446 0.8435
1650.780084 0.8427 0.8423 0.8421 0.8425 0.8433
1655.799147 0.8442 0.8451 0.8461 0.8470 0.8479
1660.818209 0.8489 0.8498 0.8509 0.8523 0.8536
1665.837272 0.8550 0.8566 0.8582 0.8598 0.8615
1670.856335 0.8631 0.8648 0.8665 0.8682 0.8699
1675.875398 0.8716 0.8732 0.8749 0.8765 0.8779
1680.894461 0.8786 0.8793 0.8799 0.8806 0.8813
1685.913524 0.8819 0.8826 0.8832 0.8835 0.8838
1690.932587 0.8840 0.8843 0.8845 0.8848 0.8851
1695.951650 0.8853 0.8856 0.8858 0.8861 0.8864
1700.970712 0.8866 0.8869 0.8871 0.8873 0.8876
1705.989775 0.8878 0.8880 0.8882 0.8884 0.8886
1711.008838 0.8888 0.8890 0.8892 0.8894 0.8895
1716.027901 0.8897 0.8899 0.8901 0.8903 0.8905
1721.046964 0.8907 0.8909 0.8911 0.8913 0.8915
1726.066027 0.8917 0.8918 0.8920 0.8922 0.8924
1731.085090 0.8926 0.8927 0.8929 0.8931 0.8933
1736.104153 0.8935 0.8960 0.8939 0.8940 0.8942
1741.123216 0.8944 0.8945 0.8947 0.8949 0.8951
1746.142278 0.8953 0.8954 0.8956 0.8958 0.8960
1751.161341 0.8962 0.8964 0.8965 0.8967 0.8969
1756.180404 0.8971 0.8973 0.8975 0.8977 0.8979
1761.199467 0.8981 0.8983 0.8986 0.8988 0.8990
1766.218530 0.8992 0.8994 0.8996 0.8998 0.9000
1771.237593 0.9001 0.9000 0.8999 0.8999 0.8998
1776.256656 0.8997 0.8996 0.8995 0.8995 0.8994
1781.275719 0.8993 0.8992 0.8991 0.8988 0.8984
1786.294782 0.8979 0.8975 0.8970 0.8966 0.8961
1791.313844 0.8957 0.8953 0.8948 0.8944 0.8939
1796.332907 0.8931 0.8922 0.8912 0.8903 0.8894
1801.351970 0.8885 0.8875 0.8866 0.8857 0.8848
1806.371033 0.8838 0.8829 0.8820 0.8806 0.8791
1811.390096 0.8776 0.8762 0.8747 0.8732 0.8717
1816.409159 0.8702 0.8685 0.8668 0.8651 0.8645
1821.428222 0.8642 0.8650 0.8646 0.8645 0.8647
1826.447285 0.8657 0.8670 0.8684 0.8698 0.8714
1831.466348 0.8737 0.8763 0.8796 0.8826 0.8850
1836.485410 0.8873 0.8896 0.8919 0.8928 0.8931
1841.504473 0.8934 0.8936 0.8938 0.8940 0.8942
1846.523536 0.8944 0.8946 0.8947 0.8949 0.8951
1851.542599 0.8952 0.8953 0.8954 0.8954 0.8955
1856.561662 0.8955 0.8956 0.8956 0.8957 0.8957
1861.580725 0.8958 0.8959 0.8959 0.8960 0.8961
1866.599788 0.8961 0.8962 0.8962 0.8963 0.8964
1871.618851 0.8964 0.8965 0.8966 0.8967 0.8968
1876.637913 0.8969 0.8989 0.8983 0.8972 0.8973
1881.656976 0.8974 0.8975 0.8976 0.8977 0.8978
1886.676039 0.8979 0.8980 0.8981 0.8982 0.8983
1891.695102 0.8984 0.8985 0.8986 0.8986 0.8986
1896.714165 0.8985 0.8985 0.8985 0.8985 0.8985
1901.733228 0.8985 0.8985 0.8985 0.8985 0.8985
1906.752291 0.8985 0.8985 0.8985 0.8985 0.8985
1911.771354 0.8985 0.8984 0.8984 0.8983 0.8982
1916.790417 0.8982 0.8982 0.8981 0.8980 0.8979
1921.809479 0.8978 0.8977 0.8976 0.8976 0.8975
1926.828542 0.8974 0.8973 0.8972 0.8971 0.8970
1931.847605 0.8969 0.8968 0.8967 0.8965 0.8964
1936.866668 0.8963 0.8958 0.8947 0.8926 0.8888
1941.885731 0.8835 0.8784 0.8737 0.8708 0.8701
1946.904794 0.8714 0.8792 0.8905 0.8969 0.8995
1951.923857 0.9001 0.9004 0.9007 0.9009 0.9012
1956.942920 0.9014 0.9017 0.9019 0.9022 0.9024
1961.961983 0.9027 0.9030 0.9034 0.9038 0.9042
1966.981045 0.9045 0.9049 0.9051 0.9053 0.9055
1972.000108 0.9056 0.9058 0.9060 0.9062 0.9064
1977.019171 0.9067 0.9070 0.9073 0.9076 0.9079
1982.038234 0.9082 0.9087 0.9092 0.9096 0.9101
1987.057297 0.9105 0.9108 0.9111 0.9114 0.9120
1992.076360 0.9124 0.9123 0.9119 0.9115 0.9110
1997.095423 0.9106 0.9100 0.9095 0.9089 0.9083
2002.114486 0.9077 0.9071 0.9066 0.9060 0.9054
2007.133549 0.9048 0.9043 0.9038 0.9035 0.9036
2012.152611 0.9037 0.9038 0.9039 0.9040 0.9040
2017.171674 0.9041 0.9042 0.9043 0.9044 0.9045
2022.190737 0.9046 0.9047 0.9047 0.9047 0.9048
2027.209800 0.9048 0.9048 0.9048 0.9048 0.9048
2032.228863 0.9048 0.9048 0.9048 0.9048 0.9048
2037.247926 0.9048 0.9048 0.9048 0.9047 0.9047
2042.266989 0.9047 0.9047 0.9047 0.9046 0.9046
2047.286052 0.9046 0.9046 0.9046 0.9045 0.9045
2052.305114 0.9045 0.9045 0.9044 0.9044 0.9044
2057.324177 0.9044 0.9041 0.9038 0.9036 0.9033
2062.343240 0.9031 0.9028 0.9025 0.9023 0.9020
2067.362303 0.9018 0.9015 0.9012 0.9008 0.9005
2072.381366 0.9001 0.8997 0.8993 0.8989 0.8985
2077.400429 0.8982 0.8978 0.8974 0.8970 0.8966
2082.419492 0.8961 0.8956 0.8952 0.8947 0.8942
2087.438555 0.8937 0.8932 0.8927 0.8922 0.8918
2092.457618 0.8913 0.8908 0.8903 0.8898 0.8893
2097.476680 0.8889 0.8885 0.8881 0.8877 0.8872
2102.495743 0.8868 0.8864 0.8862 0.8865 0.8868
2107.514806 0.8871 0.8875 0.8878 0.8881 0.8886
2112.533869 0.8891 0.8897 0.8903 0.8909 0.8914
2117.552932 0.8920 0.8926 0.8932 0.8937 0.8943
2122.571995 0.8949 0.8955 0.8961 0.8967 0.8973
2127.591058 0.8980 0.8986 0.8992 0.8998 0.9005
2132.610121 0.9006 0.9007 0.9008 0.9009 0.9010
2137.629184 0.9011 0.9012 0.9013 0.9013 0.9014
2142.648246 0.9014 0.9015 0.9015 0.9016 0.9016
2147.667309 0.9017 0.9017 0.9018 0.9018 0.9019
2152.686372 0.9019 0.9020 0.9020 0.9021 0.9021
2157.705435 0.9022 0.9022 0.9023 0.9023 0.9024
2162.724498 0.9024 0.9025 0.9025 0.9026 0.9026
2167.743561 0.9027 0.9027 0.9027 0.9026 0.9015
2172.762624 0.9023 0.9024 0.9023 0.9023 0.9022
2177.781687 0.9021 0.9020 0.9020 0.9019 0.9018
2182.800750 0.9017 0.9017 0.9016 0.9015 0.9015
2187.819812 0.9014 0.9013 0.9013 0.9012 0.9011
2192.838875 0.9010 0.9010 0.9009 0.9008 0.9008
2197.857938 0.9008 0.9008 0.9008 0.9008 0.9008
2202.877001 0.9008 0.9008 0.9008 0.9008 0.9007
2207.896064 0.9007 0.9007 0.9007 0.9007 0.9007
2212.915127 0.9007 0.9006 0.9005 0.9003 0.9001
2217.934190 0.8999 0.8997 0.8995 0.8993 0.8991
2222.953253 0.8989 0.8987 0.8985 0.8983 0.8981
2227.972315 0.8979 0.8977 0.8975 0.8973 0.8971
2232.991378 0.8969 0.8967 0.8965 0.8963 0.8961
2238.010441 0.8959 0.8957 0.8955 0.8952 0.8949
2243.029504 0.8947 0.8944 0.8941 0.8938 0.8935
2248.048567 0.8933 0.8930 0.8927 0.8924 0.8921
2253.067630 0.8919 0.8914 0.8907 0.8899 0.8892
2258.086693 0.8884 0.8877 0.8869 0.8861 0.8848
2263.105756 0.8831 0.8815 0.8799 0.8789 0.8785
2268.124819 0.8761 0.8767 0.8781 0.8779 0.8779
2273.143881 0.8780 0.8782 0.8784 0.8786 0.8793
2278.162944 0.8801 0.8810 0.8818 0.8828 0.8838
2283.182007 0.8848 0.8858 0.8867 0.8873 0.8879
2288.201070 0.8886 0.8892 0.8898 0.8900 0.8900
2293.220133 0.8900 0.8900 0.8899 0.8896 0.8893
2298.239196 0.8889 0.8886 0.8883 0.8880 0.8877
2303.258259 0.8888 0.8885 0.8867 0.8865 0.8863
2308.277322 0.8861 0.8859 0.8856 0.8854 0.8852
2313.296385 0.8849 0.8846 0.8843 0.8839 0.8836
2318.315447 0.8833 0.8829 0.8826 0.8823 0.8819
2323.334510 0.8815 0.8809 0.8802 0.8796 0.8789
2328.353573 0.8783 0.8776 0.8770 0.8763 0.8757
2333.372636 0.8751 0.8744 0.8738 0.8732 0.8727
2338.391699 0.8723 0.8719 0.8715 0.8711 0.8707
2343.410762 0.8703 0.8699 0.8695 0.8691 0.8687
2348.429825 0.8683 0.8680 0.8676 0.8672 0.8667
2353.448888 0.8663 0.8661 0.8658 0.8656 0.8653
2358.467951 0.8651 0.8648 0.8646 0.8643 0.8641
2363.487013 0.8638 0.8636 0.8633 0.8631 0.8631
2368.506076 0.8633 0.8634 0.8636 0.8638 0.8640
2373.525139 0.8642 0.8635 0.8625 0.8648 0.8650
2378.544202 0.8652 0.8653 0.8655 0.8657 0.8659
2383.563265 0.8661 0.8664 0.8667 0.8670 0.8674
2388.582328 0.8677 0.8680 0.8683 0.8686 0.8689
2393.601391 0.8692 0.8695 0.8699 0.8702 0.8705
2398.620454 0.8708 0.8711 0.8714 0.8717 0.8721
2403.639516 0.8725 0.8729 0.8733 0.8736 0.8740
2408.658579 0.8744 0.8748 0.8752 0.8756 0.8759
2413.677642 0.8763 0.8767 0.8771 0.8775 0.8778
2418.696705 0.8782 0.8786 0.8790 0.8794 0.8797
2423.715768 0.8801 0.8805 0.8809 0.8812 0.8816
2428.734831 0.8820 0.8823 0.8826 0.8827 0.8829
2433.753894 0.8830 0.8832 0.8834 0.8835 0.8837
2438.772957 0.8839 0.8840 0.8842 0.8843 0.8843
2443.792020 0.8842 0.8840 0.8839 0.8837 0.8836
2448.811082 0.8834 0.8834 0.8840 0.8830 0.8828
2453.830145 0.8827 0.8825 0.8824 0.8822 0.8820
2458.849208 0.8814 0.8809 0.8804 0.8799 0.8793
2463.868271 0.8788 0.8782 0.8777 0.8771 0.8766
2468.887334 0.8760 0.8755 0.8749 0.8743 0.8737
2473.906397 0.8732 0.8726 0.8720 0.8714 0.8708
2478.925460 0.8702 0.8696 0.8691 0.8686 0.8682
2483.944523 0.8677 0.8673 0.8669 0.8665 0.8660
2488.963586 0.8656 0.8652 0.8647 0.8642 0.8637
2493.982648 0.8632 0.8628 0.8623 0.8618 0.8613
2499.001711 0.8608 0.8603 0.8598 0.8593 0.8584
2504.020774 0.8575 0.8566 0.8557 0.8548 0.8539
2509.039837 0.8531 0.8522 0.8512 0.8499 0.8485
2514.058900 0.8471 0.8458 0.8444 0.8431 0.8417
2519.077963 0.8403 0.8390 0.8376 0.8363 0.8347
2524.097026 0.8331 0.8315 0.8300 0.8284 0.8268
2529.116089 0.8253 0.8237 0.8221 0.8206 0.8190
2534.135152 0.8176 0.8161 0.8147 0.8132 0.8118
2539.154214 0.8104 0.8089 0.8079 0.8075 0.8071
2544.173277 0.8066 0.8062 0.8058 0.8054 0.8049
2549.192340 0.8045 0.8042 0.8044 0.8045 0.8048
2554.211403 0.8052 0.8057 0.8061 0.8066 0.8035
2559.230466 0.8068 0.8080 0.8084 0.8089 0.8093
2564.249529 0.8097 0.8101 0.8104 0.8108 0.8111
2569.268592 0.8115 0.8118 0.8122 0.8125 0.8129
2574.287655 0.8132 0.8136 0.8140 0.8143 0.8147
2579.306718 0.8150 0.8154 0.8157 0.8161 0.8164
2584.325780 0.8168 0.8172 0.8175 0.8179 0.8182
2589.344843 0.8186 0.8189 0.8193 0.8196 0.8200
2594.363906 0.8205 0.8210 0.8217 0.8223 0.8229
2599.382969 0.8236 0.8242 0.8248 0.8255 0.8261
2604.402032 0.8267 0.8274 0.8280 0.8286 0.8294
2609.421095 0.8302 0.8311 0.8320 0.8329 0.8338
2614.440158 0.8347 0.8356 0.8365 0.8374 0.8383
2619.459221 0.8392 0.8400 0.8408 0.8417 0.8425
2624.478283 0.8434 0.8442 0.8450 0.8458 0.8461
2629.497346 0.8462 0.8463 0.8445 0.8449 0.8454
2634.516409 0.8450 0.8447 0.8443 0.8439 0.8435
2639.535472 0.8431 0.8426 0.8422 0.8418 0.8414
2644.554535 0.8410 0.8404 0.8399 0.8394 0.8388
2649.573598 0.8383 0.8377 0.8371 0.8366 0.8361
2654.592661 0.8355 0.8350 0.8344 0.8338 0.8334
2659.611724 0.8331 0.8329 0.8327 0.8325 0.8323
2664.630787 0.8321 0.8319 0.8317 0.8314 0.8313
2669.649849 0.8315 0.8317 0.8320 0.8323 0.8325
2674.668912 0.8328 0.8331 0.8334 0.8333 0.8331
2679.687975 0.8328 0.8325 0.8323 0.8320 0.8318
2684.707038 0.8316 0.8313 0.8309 0.8303 0.8297
2689.726101 0.8290 0.8283 0.8276 0.8269 0.8261
2694.745164 0.8252 0.8244 0.8236 0.8227 0.8219
2699.764227 0.8211 0.8203 0.8194 0.8186 0.8178
2704.783290 0.8172 0.8169 0.8166 0.8164 0.8162
2709.802353 0.8161 0.8162 0.8163 0.8164 0.8165
2714.821415 0.8167 0.8168 0.8169 0.8168 0.8167
2719.840478 0.8166 0.8165 0.8164 0.8163 0.8162
2724.859541 0.8161 0.8160 0.8158 0.8152 0.8145
2729.878604 0.8138 0.8132 0.8125 0.8116 0.8107
2734.897667 0.8098 0.8089 0.8080 0.8072 0.8063
2739.916730 0.8054 0.8045 0.8036 0.8027 0.8018
2744.935793 0.8009 0.7999 0.7989 0.7980 0.7970
2749.954856 0.7961 0.7951 0.7942 0.7932 0.7922
2754.973919 0.7913 0.7903 0.7894 0.7884 0.7875
2759.992981 0.7866 0.7859 0.7851 0.7843 0.7836
2765.012044 0.7828 0.7820 0.7812 0.7805 0.7797
2770.031107 0.7789 0.7782 0.7774 0.7766 0.7759
2775.050170 0.7751 0.7742 0.7733 0.7724 0.7715
2780.069233 0.7706 0.7698 0.7689 0.7680 0.7671
2785.088296 0.7662 0.7653 0.7644 0.7635 0.7626
2790.107359 0.7617 0.7608 0.7599 0.7590 0.7582
2795.126422 0.7573 0.7563 0.7552 0.7542 0.7531
2800.145484 0.7521 0.7510 0.7500 0.7489 0.7479
2805.164547 0.7468 0.7457 0.7447 0.7436 0.7426
2810.183610 0.7415 0.7405 0.7394 0.7384 0.7373
2815.202673 0.7362 0.7349 0.7337 0.7325 0.7313
2820.221736 0.7300 0.7288 0.7276 0.7263 0.7251
2825.240799 0.7239 0.7226 0.7215 0.7202 0.7187
2830.259862 0.7165 0.7142 0.7120 0.7098 0.7076
2835.278925 0.7053 0.7031 0.7009 0.6985 0.6952
2840.297988 0.6911 0.6870 0.6828 0.6788 0.6736
2845.317050 0.6570 0.6459 0.6341 0.6219 0.6127
2850.336113 0.6036 0.5944 0.5854 0.5776 0.5697
2855.355176 0.5618 0.5540 0.5462 0.5393 0.5325
2860.374239 0.5257 0.5191 0.5123 0.5052 0.4981
2865.393302 0.4910 0.4837 0.4670 0.4539 0.4444
2870.412365 0.4394 0.4344 0.4301 0.4291 0.4281
2875.431428 0.4274 0.4274 0.4275 0.4285 0.4304
2880.450491 0.4327 0.4345 0.4357 0.4351 0.4341
2885.469554 0.4331 0.4321 0.4311 0.4302 0.4286
2890.488616 0.4269 0.4252 0.4225 0.4198 0.4171
2895.507679 0.4145 0.4119 0.4093 0.4066 0.4038
2900.526742 0.4001 0.3965 0.3929 0.3892 0.3852
2905.545805 0.3811 0.3770 0.3729 0.3689 0.3649
2910.564868 0.3601 0.3522 0.3475 0.3455 0.3451
2915.583931 0.3452 0.3454 0.3455 0.3457 0.3453
2920.602994 0.3448 0.3442 0.3410 0.3375 0.3339
2925.622057 0.3304 0.3270 0.3237 0.3204 0.3170
2930.641120 0.3128 0.3085 0.3041 0.2997 0.2954
2935.660182 0.2917 0.2906 0.2900 0.2894 0.2888
2940.679245 0.2883 0.2877 0.2872 0.2869 0.2865
2945.698308 0.2862 0.2858 0.2854 0.2826 0.2780
2950.717371 0.2715 0.2640 0.2544 0.2414 0.2288
2955.736434 0.2034 0.1899 0.1806 0.1714 0.1623
2960.755497 0.1533 0.1444 0.1356 0.1298 0.1257
2965.774560 0.1222 0.1214 0.1213 0.1212 0.1214
2970.793623 0.1224 0.1220 0.1223 0.1228 0.1234
2975.812685 0.1242 0.1251 0.1261 0.1279 0.1309
2980.831748 0.1364 0.1730 0.2003 0.2246 0.2489
2985.850811 0.2731 0.2974 0.3217 0.3459 0.3702
2990.869874 0.3945 0.4187 0.4429 0.4672 0.4914
2995.888937 0.5157 0.5400 0.5583 0.5727 0.5831
3000.908000 0.5926 0.6090 0.6297 0.6478 0.6601
3005.927063 0.6690 0.6775 0.6837 0.6885 0.6933
3010.946126 0.6981 0.7029 0.7073 0.7105 0.7136
3015.965189 0.7167 0.7197 0.7228 0.7259 0.7289
3020.984251 0.7321 0.7359 0.7398 0.7437 0.7476
3026.003314 0.7504 0.7533 0.7562 0.7590 0.7620
3031.022377 0.7647 0.7671 0.7696 0.7720 0.7745
3036.041440 0.7770 0.7786 0.7800 0.7813 0.7827
3041.060503 0.7841 0.7855 0.7869 0.7877 0.7884
3046.079566 0.7890 0.7897 0.7904 0.7910 0.7917
3051.098629 0.7922 0.7925 0.7927 0.7928 0.7927
3056.117692 0.7909 0.7932 0.7934 0.7935 0.7934
3061.136755 0.7933 0.7931 0.7930 0.7928 0.7927
3066.155817 0.7925 0.7923 0.7920 0.7914 0.7907
3071.174880 0.7901 0.7894 0.7888 0.7881 0.7875
3076.193943 0.7868 0.7861 0.7853 0.7844 0.7835
3081.213006 0.7826 0.7817 0.7807 0.7798 0.7789
3086.232069 0.7780 0.7771 0.7762 0.7752 0.7743
3091.251132 0.7732 0.7722 0.7712 0.7703 0.7693
3096.270195 0.7683 0.7673 0.7663 0.7653 0.7642
3101.289258 0.7631 0.7620 0.7609 0.7598 0.7586
3106.308321 0.7575 0.7564 0.7553 0.7541 0.7531
3111.327383 0.7521 0.7511 0.7500 0.7490 0.7480
3116.346446 0.7470 0.7460 0.7452 0.7447 0.7442
3121.365509 0.7438 0.7433 0.7429 0.7426 0.7422
3126.384572 0.7419 0.7416 0.7412 0.7402 0.7386
3131.403635 0.7361 0.7326 0.7280 0.7234 0.7197
3136.422698 0.7164 0.7133 0.7103 0.7073 0.7045
3141.441761 0.7020 0.6996 0.6971 0.6945 0.6920
3146.460824 0.6894 0.6868 0.6842 0.6816 0.6790
3151.479886 0.6763 0.6736 0.6710 0.6684 0.6656
3156.498949 0.6623 0.6587 0.6551 0.6515 0.6477
3161.518012 0.6438 0.6399 0.6360 0.6321 0.6284
3166.537075 0.6248 0.6213 0.6176 0.6140 0.6109
3171.556138 0.6082 0.6058 0.6033 0.6008 0.5983
3176.575201 0.5958 0.5934 0.5908 0.5883 0.5859
3181.594264 0.5832 0.5802 0.5773 0.5743 0.5714
3186.613327 0.5684 0.5655 0.5625 0.5596 0.5567
3191.632390 0.5537 0.5506 0.5475 0.5443 0.5411
3196.651452 0.5380 0.5348 0.5316 0.5284 0.5253
3201.670515 0.5221 0.5190 0.5160 0.5132 0.5103
3206.689578 0.5074 0.5046 0.5017 0.4988 0.4959
3211.708641 0.4930 0.4901 0.4873 0.4838 0.4798
3216.727704 0.4756 0.4714 0.4673 0.4631 0.4590
3221.746767 0.4548 0.4513 0.4480 0.4447 0.4414
3226.765830 0.4381 0.4348 0.4314 0.4280 0.4247
3231.784893 0.4215 0.4183 0.4151 0.4119 0.4086
3236.803956 0.4054 0.4022 0.3991 0.3959 0.3927
3241.823018 0.3895 0.3863 0.3830 0.3798 0.3766
3246.842081 0.3732 0.3699 0.3666 0.3633 0.3599
3251.861144 0.3566 0.3532 0.3498 0.3465 0.3434
3256.880207 0.3403 0.3372 0.3341 0.3311 0.3280
3261.899270 0.3250 0.3219 0.3188 0.3157 0.3126
3266.918333 0.3095 0.3063 0.3032 0.3001 0.2970
3271.937396 0.2939 0.2908 0.2877 0.2845 0.2813
3276.956459 0.2781 0.2750 0.2719 0.2687 0.2656
3281.975522 0.2625 0.2593 0.2566 0.2539 0.2513
3286.994584 0.2486 0.2460 0.2433 0.2407 0.2380
3292.013647 0.2354 0.2327 0.2300 0.2275 0.2252
3297.032710 0.2230 0.2207 0.2184 0.2162 0.2139
3302.051773 0.2116 0.2094 0.2071 0.2048 0.2026
3307.070836 0.2005 0.1992 0.1978 0.1965 0.1952
3312.089899 0.1938 0.1925 0.1911 0.1898 0.1884
3317.108962 0.1873 0.1864 0.1856 0.1848 0.1839
3322.128025 0.1831 0.1823 0.1814 0.1806 0.1798
3327.147087 0.1789 0.1781 0.1772 0.1764 0.1755
3332.166150 0.1746 0.1736 0.1728 0.1719 0.1711
3337.185213 0.1705 0.1701 0.1697 0.1693 0.1689
3342.204276 0.1685 0.1681 0.1678 0.1675 0.1673
3347.223339 0.1671 0.1668 0.1666 0.1664 0.1662
3352.242402 0.1659 0.1657 0.1656 0.1655 0.1654
3357.261465 0.1653 0.1653 0.1652 0.1651 0.1650
3362.280528 0.1652 0.1653 0.1655 0.1657 0.1658
3367.299591 0.1660 0.1657 0.1652 0.1665 0.1667
3372.318653 0.1668 0.1670 0.1672 0.1673 0.1675
3377.337716 0.1677 0.1680 0.1683 0.1686 0.1690
3382.356779 0.1693 0.1696 0.1700 0.1703 0.1706
3387.375842 0.1710 0.1713 0.1716 0.1719 0.1722
3392.394905 0.1725 0.1729 0.1733 0.1739 0.1745
3397.413968 0.1750 0.1757 0.1763 0.1769 0.1774
3402.433031 0.1780 0.1786 0.1792 0.1798 0.1803
3407.452094 0.1810 0.1819 0.1832 0.1844 0.1856
3412.471157 0.1868 0.1880 0.1892 0.1904 0.1916
3417.490219 0.1927 0.1939 0.1951 0.1963 0.1975
3422.509282 0.1987 0.1999 0.2011 0.2023 0.2035
3427.528345 0.2047 0.2059 0.2071 0.2083 0.2096
3432.547408 0.2109 0.2123 0.2137 0.2150 0.2164
3437.566471 0.2178 0.2192 0.2208 0.2226 0.2243
3442.585534 0.2261 0.2280 0.2301 0.2323 0.2344
3447.604597 0.2366 0.2388 0.2410 0.2432 0.2454
3452.623660 0.2475 0.2498 0.2522 0.2545 0.2569
3457.642723 0.2592 0.2616 0.2640 0.2663 0.2687
3462.661785 0.2710 0.2734 0.2757 0.2782 0.2818
3467.680848 0.2861 0.2903 0.2941 0.2974 0.3006
3472.699911 0.3038 0.3071 0.3103 0.3133 0.3163
3477.718974 0.3194 0.3223 0.3253 0.3283 0.3313
3482.738037 0.3343 0.3373 0.3403 0.3432 0.3464
3487.757100 0.3496 0.3528 0.3560 0.3593 0.3626
3492.776163 0.3658 0.3690 0.3731 0.3775 0.3821
3497.795226 0.3866 0.3906 0.3945 0.3984 0.4026
3502.814288 0.4079 0.4135 0.4190 0.4245 0.4291
3507.833351 0.4336 0.4382 0.4427 0.4469 0.4504
3512.852414 0.4537 0.4571 0.4604 0.4638 0.4672
3517.871477 0.4705 0.4739 0.4787 0.4827 0.4855
3522.890540 0.4880 0.4905 0.4953 0.5064 0.5116
3527.909603 0.5161 0.5207 0.5252 0.5297 0.5339
3532.928666 0.5380 0.5421 0.5467 0.5517 0.5567
3537.947729 0.5618 0.5669 0.5719 0.5761 0.5803
3542.966792 0.5846 0.5888 0.5930 0.5968 0.6005
3547.985854 0.6041 0.6079 0.6115 0.6155 0.6200
3553.004917 0.6246 0.6292 0.6339 0.6388 0.6467
3558.023980 0.6544 0.6622 0.6687 0.6740 0.6793
3563.043043 0.6847 0.6894 0.6931 0.6968 0.7005
3568.062106 0.7043 0.7087 0.7132 0.7177 0.7221
3573.081169 0.7254 0.7288 0.7321 0.7354 0.7388
3578.100232 0.7414 0.7439 0.7464 0.7489 0.7514
3583.119295 0.7539 0.7562 0.7586 0.7609 0.7633
3588.138358 0.7657 0.7680 0.7703 0.7726 0.7749
3593.157420 0.7772 0.7795 0.7816 0.7838 0.7860
3598.176483 0.7881 0.7902 0.7923 0.7937 0.7949
3603.195546 0.7961 0.7973 0.7985 0.7997 0.8006
3608.214609 0.8010 0.8014 0.8018 0.8016 0.8012
3613.233672 0.8008 0.8005 0.7998 0.7979 0.7960
3618.252735 0.7941 0.7924 0.7907 0.7890 0.7872
3623.271798 0.7848 0.7826 0.7813 0.7813 0.7816
3628.290861 0.7818 0.7821 0.7828 0.7846 0.7894
3633.309924 0.7985 0.8051 0.8081 0.8102 0.8122
3638.328986 0.8138 0.8151 0.8163 0.8176 0.8194
3643.348049 0.8229 0.8295 0.8384 0.8453 0.8462
3648.367112 0.8470 0.8477 0.8484 0.8492 0.8501
3653.386175 0.8510 0.8517 0.8523 0.8530 0.8536
3658.405238 0.8543 0.8549 0.8556 0.8562 0.8567
3663.424301 0.8573 0.8578 0.8583 0.8588 0.8593
3668.443364 0.8598 0.8601 0.8604 0.8607 0.8610
3673.462427 0.8613 0.8616 0.8619 0.8622 0.8624
3678.481490 0.8625 0.8625 0.8626 0.8627 0.8627
3683.500552 0.8621 0.8613 0.8601 0.8586 0.8575
3688.519615 0.8567 0.8565 0.8566 0.8567 0.8568
3693.538678 0.8570 0.8572 0.8575 0.8578 0.8580
3698.557741 0.8583 0.8589 0.8596 0.8603 0.8610
3703.576804 0.8617 0.8623 0.8637 0.8656 0.8675
3708.595867 0.8694 0.8713 0.8731 0.8749 0.8764
3713.614930 0.8772 0.8775 0.8776 0.8776 0.8775
3718.633993 0.8773 0.8770 0.8768 0.8765 0.8763
3723.653055 0.8763 0.8763 0.8763 0.8763 0.8763
3728.672118 0.8764 0.8764 0.8764 0.8764 0.8764
3733.691181 0.8764 0.8764 0.8763 0.8761 0.8759
3738.710244 0.8756 0.8754 0.8752 0.8750 0.8761
3743.729307 0.8752 0.8746 0.8746 0.8745 0.8745
3748.748370 0.8744 0.8745 0.8748 0.8751 0.8754
3753.767433 0.8758 0.8757 0.8755 0.8753 0.8750
3758.786496 0.8744 0.8738 0.8731 0.8723 0.8717
3763.805559 0.8716 0.8720 0.8726 0.8732 0.8739
3768.824621 0.8748 0.8757 0.8766 0.8774 0.8779
3773.843684 0.8784 0.8788 0.8790 0.8791 0.8793
3778.862747 0.8795 0.8797 0.8799 0.8802 0.8804
3783.881810 0.8806 0.8808 0.8809 0.8810 0.8811
3788.900873 0.8812 0.8813 0.8815 0.8816 0.8818
3793.919936 0.8819 0.8821 0.8822 0.8822 0.8822
3798.938999 0.8822 0.8822 0.8821 0.8817 0.8814
3803.958062 0.8810 0.8807 0.8804 0.8800 0.8797
3808.977125 0.8793 0.8790 0.8786 0.8783 0.8779
3813.996187 0.8777
##END=
