##TITLE=PHOSPHONIC ACID, METHYL-, DIMETHYL ESTER
##JCAMP-DX=4.24
##DATA TYPE=INFRARED SPECTRUM
##CLASS=COBLENTZ III
##ORIGIN=DOW CHEMICAL COMPANY
##OWNER=COBLENTZ SOCIETY
Collection (C) 2018 copyright by the U.S. Secretary of Commerce
on behalf of the United States of America. All rights reserved.
##DATE=1970/02/18
##NAMES=dimethyl methylphosphonate
##CAS REGISTRY NO=756-79-6
##MOLFORM=C3 H9 O3 P
##SOURCE REFERENCE=COBLENTZ NO. 10229
##$NIST SOURCE=COBLENTZ
##$NIST IMAGE=cob10229
##SPECTROMETER/DATA SYSTEM=BECKMAN IR-9 (GRATING)
##INSTRUMENT PARAMETERS=ORDER CHANGES AT 670, 1200, 2000 CM^-^1
##STATE=LIQUID (NEAT)
##PATH LENGTH=CAPILLARY, KBr CRYSTALS
$$SPECTRAL CONTAMINATION DUE TO H2O AROUND 3500 CM^-^1
##SAMPLING PROCEDURE=TRANSMISSION
##RESOLUTION=4
##DATA PROCESSING=DIGITIZED BY NIST FROM HARD COPY (FROM TWO SEGMENTS)
##XUNITS=1/CM
##YUNITS=TRANSMITTANCE
##XFACTOR=1.000000
##YFACTOR=1
##DELTAX=0.852274
##FIRSTX=402.841
##LASTX=3800
##FIRSTY=0.725
##MAXX=3800
##MINX=402.841
##MAXY=1.036
##MINY=0.046
##NPOINTS=3987
##XYDATA=(X++(Y..Y))
402.841000 0.7250 0.7240 0.7210 0.7130 0.7080
407.102368 0.7050 0.7020 0.7000 0.6970 0.6940
411.363737 0.6880 0.6820 0.6780 0.6740 0.6700
415.625105 0.6660 0.6620 0.6600 0.6560 0.6520
419.886474 0.6480 0.6460 0.6460 0.6480 0.6490
424.147842 0.6530 0.6540 0.6580 0.6640 0.6720
428.409211 0.6800 0.6890 0.7050 0.7130 0.7220
432.670579 0.7300 0.7380 0.7460 0.7540 0.7610
436.931948 0.7690 0.7760 0.7820 0.7880 0.7930
441.193316 0.7970 0.7970 0.8000 0.8010 0.8040
445.454685 0.8050 0.8050 0.8060 0.8060 0.8080
449.716053 0.8080 0.8080 0.8090 0.8090 0.8090
453.977422 0.8100 0.8100 0.8100 0.8100 0.8100
458.238790 0.8100 0.8100 0.8090 0.8080 0.8060
462.500159 0.8020 0.7980 0.7980 0.7880 0.7850
466.761527 0.7820 0.7800 0.7780 0.7770 0.7760
471.022896 0.7770 0.7780 0.7840 0.7920 0.7930
475.284264 0.8010 0.8090 0.8130 0.8170 0.8200
479.545633 0.8240 0.8290 0.8320 0.8330 0.8340
483.807001 0.8380 0.8400 0.8400 0.8400 0.8400
488.068370 0.8400 0.8380 0.8300 0.8210 0.7980
492.329738 0.7800 0.7501 0.7161 0.6981 0.6811
496.591107 0.6460 0.6200 0.6010 0.5740 0.5600
500.852475 0.5540 0.5530 0.5560 0.5680 0.5700
505.113844 0.5970 0.6320 0.6560 0.7059 0.7319
509.375212 0.7559 0.7769 0.7939 0.8059 0.8209
513.636581 0.8330 0.8450 0.8560 0.8660 0.8760
517.897949 0.8850 0.8920 0.9000 0.9050 0.9100
522.159318 0.9140 0.9170 0.9200 0.9210 0.9240
526.420686 0.9290 0.9320 0.9340 0.9360 0.9380
530.682055 0.9420 0.9440 0.9480 0.9490 0.9500
534.943423 0.9530 0.9540 0.9560 0.9570 0.9580
539.204792 0.9600 0.9610 0.9610 0.9610 0.9600
543.466160 0.9580 0.9580 0.9600 0.9600 0.9610
547.727529 0.9620 0.9620 0.9640 0.9640 0.9640
551.988897 0.9640 0.9650 0.9650 0.9650 0.9660
556.250266 0.9680 0.9690 0.9700 0.9700 0.9690
560.511634 0.9680 0.9680 0.9680 0.9690 0.9690
564.773003 0.9690 0.9690 0.9690 0.9690 0.9690
569.034371 0.9690 0.9690 0.9700 0.9700 0.9700
573.295740 0.9700 0.9700 0.9700 0.9720 0.9720
577.557108 0.9700 0.9700 0.9700 0.9700 0.9700
581.818477 0.9700 0.9700 0.9700 0.9700 0.9700
586.079845 0.9700 0.9700 0.9700 0.9700 0.9700
590.341214 0.9720 0.9720 0.9730 0.9730 0.9730
594.602582 0.9740 0.9740 0.9740 0.9740 0.9740
598.863951 0.9740 0.9760 0.9760 0.9760 0.9770
603.125319 0.9770 0.9770 0.9780 0.9800 0.9800
607.386688 0.9800 0.9800 0.9800 0.9810 0.9810
611.648056 0.9820 0.9820 0.9820 0.9840 0.9850
615.909425 0.9850 0.9860 0.9880 0.9880 0.9880
620.170793 0.9890 0.9890 0.9890 0.9900 0.9930
624.432162 0.9930 0.9940 0.9940 0.9960 0.9960
628.693530 0.9970 1.0000 1.0010 1.0010 1.0020
632.954899 1.0020 1.0020 1.0020 1.0040 1.0040
637.216267 1.0050 1.0050 1.0080 1.0090 1.0100
641.477636 1.0100 1.0120 1.0120 1.0120 1.0130
645.739004 1.0130 1.0140 1.0140 1.0160 1.0170
650.000373 1.0180 1.0200 1.0210 1.0210 1.0210
654.261741 1.0220 1.0220 1.0250 1.0260 1.0260
658.523110 1.0260 1.0280 1.0280 1.0280 1.0280
662.784478 1.0280 1.0280 1.0280 1.0260 1.0220
667.045847 1.0200 1.0180 1.0210 1.0250 1.0330
671.307215 1.0360 1.0360 1.0340 1.0340 1.0340
675.568584 1.0340 1.0340 1.0330 1.0330 1.0330
679.829952 1.0300 1.0290 1.0290 1.0290 1.0300
684.091321 1.0320 1.0320 1.0330 1.0330 1.0320
688.352689 1.0320 1.0300 1.0280 1.0260 1.0240
692.614057 1.0220 1.0220 1.0210 1.0170 1.0140
696.875426 1.0090 1.0050 1.0000 0.9970 0.9930
701.136794 0.9850 0.9770 0.9690 0.9610 0.9530
705.398163 0.9440 0.9300 0.9160 0.8971 0.8731
709.659531 0.8380 0.8020 0.7680 0.7520 0.7360
713.920900 0.7340 0.7360 0.7739 0.8009 0.8299
718.182268 0.8570 0.8860 0.9140 0.9330 0.9480
722.443637 0.9570 0.9660 0.9730 0.9770 0.9810
726.705005 0.9860 0.9900 0.9940 0.9960 1.0010
730.966374 1.0020 1.0020 1.0040 1.0050 1.0050
735.227742 1.0060 1.0060 1.0060 1.0060 1.0060
739.489111 1.0060 1.0060 1.0050 1.0050 1.0050
743.750479 1.0040 1.0020 1.0020 1.0010 1.0010
748.011848 1.0000 1.0000 1.0000 0.9980 0.9960
752.273216 0.9940 0.9930 0.9900 0.9900 0.9890
756.534585 0.9860 0.9850 0.9840 0.9820 0.9800
760.795953 0.9770 0.9740 0.9720 0.9700 0.9680
765.057322 0.9650 0.9620 0.9580 0.9570 0.9560
769.318690 0.9530 0.9480 0.9420 0.9360 0.9290
773.580059 0.9180 0.9050 0.8900 0.8760 0.8611
777.841427 0.8450 0.8180 0.7810 0.7380 0.7140
782.102796 0.6891 0.6371 0.5852 0.5342 0.4852
786.364164 0.4480 0.4180 0.4080 0.4040 0.3980
790.625533 0.3890 0.3880 0.4049 0.4279 0.4599
794.886901 0.4850 0.5120 0.5420 0.5620 0.5920
799.148270 0.6200 0.6449 0.6679 0.7059 0.7209
803.409638 0.7340 0.7440 0.7490 0.7500 0.7500
807.671007 0.7500 0.7400 0.7101 0.6821 0.6541
811.932375 0.6090 0.5490 0.4860 0.4520 0.4041
816.193744 0.3820 0.3601 0.3241 0.3041 0.2821
820.455112 0.2620 0.2530 0.2520 0.2530 0.2600
824.716481 0.2690 0.2810 0.2979 0.3279 0.3579
828.977849 0.4360 0.4770 0.5160 0.5490 0.5820
833.239218 0.6129 0.6419 0.7038 0.7339 0.7738
837.500586 0.8010 0.8210 0.8240 0.8420 0.8610
841.761955 0.8690 0.8760 0.8880 0.8920 0.8960
846.023323 0.9020 0.9100 0.9140 0.9180 0.9220
850.284692 0.9260 0.9290 0.9300 0.9320 0.9330
854.546060 0.9340 0.9360 0.9360 0.9370 0.9370
858.807429 0.9370 0.9370 0.9380 0.9380 0.9380
863.068797 0.9380 0.9380 0.9380 0.9380 0.9370
867.330166 0.9360 0.9340 0.9330 0.9320 0.9320
871.591534 0.9300 0.9280 0.9250 0.9220 0.9140
875.852903 0.9100 0.9090 0.9050 0.9010 0.8920
880.114271 0.8820 0.8720 0.8640 0.8580 0.8500
884.375640 0.8340 0.8081 0.7851 0.7661 0.7411
888.637008 0.7090 0.6930 0.6770 0.6450 0.6160
892.898377 0.5890 0.5640 0.5421 0.5251 0.5101
897.159745 0.4980 0.4890 0.4820 0.4770 0.4730
901.421114 0.4690 0.4650 0.4600 0.4520 0.4420
905.682482 0.4290 0.4120 0.4010 0.3890 0.3650
909.943851 0.3401 0.3201 0.3050 0.2980 0.2920
914.205219 0.2850 0.2780 0.2760 0.2740 0.2760
918.466588 0.2820 0.2900 0.3010 0.3209 0.3439
922.727956 0.3681 0.4220 0.4500 0.4780 0.5060
926.989325 0.5300 0.5619 0.5929 0.6209 0.6459
931.250693 0.6720 0.7140 0.7330 0.7520 0.7680
935.512062 0.7820 0.7940 0.8000 0.8100 0.8220
939.773430 0.8330 0.8410 0.8490 0.8520 0.8570
944.034799 0.8620 0.8680 0.8690 0.8720 0.8740
948.296167 0.8770 0.8780 0.8820 0.8850 0.8890
952.557536 0.8900 0.8920 0.8930 0.8930 0.8940
956.818904 0.8970 0.8980 0.9000 0.9000 0.9010
961.080273 0.9010 0.9010 0.9010 0.9010 0.9010
965.341641 0.9010 0.9010 0.9010 0.9000 0.8980
969.603010 0.8970 0.8970 0.8960 0.8960 0.8940
973.864378 0.8930 0.8920 0.8900 0.8890 0.8860
978.125747 0.8850 0.8840 0.8810 0.8770 0.8760
982.387115 0.8740 0.8720 0.8700 0.8690 0.8680
986.648483 0.8640 0.8610 0.8600 0.8580 0.8520
990.909852 0.8500 0.8490 0.8440 0.8380 0.8330
995.171220 0.8280 0.8210 0.8130 0.8060 0.8000
999.432589 0.7920 0.7720 0.7640 0.7450 0.7280
1003.693957 0.7120 0.7050 0.6970 0.6811 0.6641
1007.955326 0.6400 0.6130 0.5850 0.5560 0.5261
1012.216694 0.4961 0.4641 0.4331 0.4011 0.3851
1016.478063 0.3680 0.3370 0.3020 0.2680 0.2330
1020.739431 0.2000 0.1681 0.1560 0.1410 0.1290
1025.000800 0.1130 0.0970 0.0770 0.0660 0.0640
1029.262168 0.0610 0.0530 0.0500 0.0500 0.0490
1033.523537 0.0490 0.0490 0.0480 0.0480 0.0460
1037.784905 0.0460 0.0460 0.0480 0.0490 0.0520
1042.046274 0.0540 0.0580 0.0610 0.0640 0.0690
1046.307642 0.0720 0.0770 0.0780 0.0800 0.0820
1050.569011 0.0850 0.0860 0.0880 0.0880 0.0850
1054.830379 0.0850 0.0840 0.0820 0.0810 0.0800
1059.091748 0.0770 0.0760 0.0740 0.0740 0.0740
1063.353116 0.0760 0.0780 0.0810 0.0840 0.0880
1067.614485 0.1000 0.1050 0.1210 0.1620 0.1920
1071.875853 0.2120 0.2280 0.2410 0.2540 0.2719
1076.137222 0.2930 0.3240 0.3520 0.3690 0.4200
1080.398590 0.4420 0.4640 0.4840 0.5019 0.5179
1084.659959 0.5360 0.5500 0.5640 0.5770 0.5890
1088.921327 0.6010 0.6120 0.6210 0.6300 0.6380
1093.182696 0.6480 0.6540 0.6620 0.6690 0.6760
1097.444064 0.6800 0.6840 0.7039 0.7130 0.7180
1101.705433 0.7210 0.7240 0.7250 0.7280 0.7370
1105.966801 0.7410 0.7440 0.7480 0.7500 0.7560
1110.228170 0.7600 0.7640 0.7680 0.7720 0.7760
1114.489538 0.7780 0.7820 0.7840 0.7850 0.7880
1118.750907 0.7890 0.7920 0.7960 0.7970 0.8010
1123.012275 0.8020 0.8040 0.8050 0.8060 0.8100
1127.273644 0.8120 0.8130 0.8180 0.8210 0.8220
1131.535012 0.8240 0.8250 0.8250 0.8260 0.8280
1135.796381 0.8290 0.8300 0.8300 0.8320 0.8320
1140.057749 0.8330 0.8330 0.8330 0.8330 0.8340
1144.319118 0.8340 0.8340 0.8340 0.8340 0.8340
1148.580486 0.8340 0.8340 0.8330 0.8330 0.8320
1152.841855 0.8320 0.8300 0.8300 0.8260 0.8220
1157.103223 0.8180 0.8160 0.8140 0.8100 0.8050
1161.364592 0.7980 0.7960 0.7940 0.7900 0.7840
1165.625960 0.7780 0.7760 0.7700 0.7620 0.7560
1169.887329 0.7450 0.7340 0.7260 0.7140 0.7000
1174.148697 0.6920 0.6840 0.6660 0.6500 0.6331
1178.410066 0.6180 0.6060 0.5900 0.5770 0.5660
1182.671434 0.5560 0.5440 0.5360 0.5330 0.5260
1186.932803 0.5250 0.5240 0.5240 0.5250 0.5300
1191.194171 0.5380 0.5500 0.5580 0.5690 0.5810
1195.455540 0.5960 0.6060 0.6180 0.6260 0.6330
1199.716908 0.6410 0.6500 0.6570 0.6640 0.6700
1203.978277 0.6740 0.6760 0.6760 0.6760 0.6770
1208.239645 0.6770 0.6770 0.6770 0.6760 0.6730
1212.501014 0.6660 0.6620 0.6580 0.6500 0.6440
1216.762382 0.6340 0.6280 0.6090 0.5901 0.5701
1221.023751 0.5520 0.5320 0.5120 0.4930 0.4730
1225.285119 0.4520 0.4400 0.4061 0.3960 0.3840
1229.546488 0.3580 0.3280 0.3090 0.2900 0.2730
1233.807856 0.2570 0.2420 0.2290 0.2170 0.2041
1238.069225 0.1930 0.1820 0.1720 0.1610 0.1490
1242.330593 0.1460 0.1420 0.1400 0.1340 0.1320
1246.591962 0.1300 0.1290 0.1290 0.1290 0.1300
1250.853330 0.1340 0.1370 0.1410 0.1480 0.1520
1255.114699 0.1540 0.1580 0.1610 0.1650 0.1690
1259.376067 0.1770 0.1820 0.1970 0.2129 0.2180
1263.637436 0.2441 0.2780 0.3060 0.3320 0.4200
1267.898804 0.4580 0.4929 0.5249 0.5539 0.5809
1272.160172 0.6060 0.6280 0.6480 0.6660 0.6820
1276.421541 0.7120 0.7240 0.7340 0.7450 0.7540
1280.682909 0.7640 0.7720 0.7800 0.7860 0.7930
1284.944278 0.7960 0.7970 0.8020 0.8050 0.8090
1289.205646 0.8140 0.8200 0.8210 0.8220 0.8260
1293.467015 0.8290 0.8290 0.8290 0.8290 0.8290
1297.728383 0.8290 0.8290 0.8280 0.8220 0.8120
1301.989752 0.7940 0.7740 0.7481 0.7171 0.7011
1306.251120 0.6839 0.6450 0.6020 0.5410 0.4940
1310.512489 0.4610 0.4341 0.4160 0.4000 0.4000
1314.773857 0.3980 0.4000 0.4120 0.4260 0.4500
1319.035226 0.4610 0.4969 0.5239 0.5679 0.5819
1323.296594 0.6080 0.6250 0.6500 0.6690 0.7119
1327.557963 0.7330 0.7569 0.7759 0.7900 0.8010
1331.819331 0.8120 0.8200 0.8290 0.8400 0.8520
1336.080700 0.8540 0.8620 0.8690 0.8720 0.8770
1340.342068 0.8810 0.8850 0.8890 0.8920 0.8930
1344.603437 0.8940 0.8980 0.9010 0.9020 0.9040
1348.864805 0.9050 0.9060 0.9080 0.9090 0.9100
1353.126174 0.9120 0.9120 0.9130 0.9140 0.9140
1357.387542 0.9160 0.9160 0.9160 0.9160 0.9160
1361.648911 0.9160 0.9170 0.9170 0.9170 0.9180
1365.910279 0.9200 0.9200 0.9200 0.9200 0.9200
1370.171648 0.9180 0.9180 0.9200 0.9200 0.9210
1374.433016 0.9210 0.9210 0.9210 0.9210 0.9210
1378.694385 0.9210 0.9210 0.9200 0.9180 0.9160
1382.955753 0.9160 0.9140 0.9140 0.9140 0.9130
1387.217122 0.9130 0.9130 0.9130 0.9130 0.9130
1391.478490 0.9130 0.9130 0.9130 0.9130 0.9130
1395.739859 0.9130 0.9130 0.9130 0.9130 0.9120
1400.001227 0.9120 0.9120 0.9100 0.9090 0.9080
1404.262596 0.9050 0.9020 0.9000 0.8970 0.8940
1408.523964 0.8920 0.8860 0.8810 0.8740 0.8680
1412.785333 0.8620 0.8540 0.8500 0.8410 0.8330
1417.046701 0.8280 0.8210 0.8170 0.8130 0.8080
1421.308070 0.8060 0.8060 0.8080 0.8090 0.8140
1425.569438 0.8180 0.8260 0.8300 0.8340 0.8380
1429.830807 0.8420 0.8460 0.8520 0.8530 0.8530
1434.092175 0.8570 0.8580 0.8580 0.8600 0.8600
1438.353544 0.8600 0.8580 0.8540 0.8500 0.8460
1442.614912 0.8420 0.8400 0.8330 0.8280 0.8170
1446.876281 0.8100 0.8050 0.8010 0.7980 0.7930
1451.137649 0.7860 0.7810 0.7780 0.7770 0.7760
1455.399018 0.7740 0.7690 0.7660 0.7640 0.7610
1459.660386 0.7560 0.7500 0.7440 0.7420 0.7370
1463.921755 0.7340 0.7330 0.7320 0.7300 0.7300
1468.183123 0.7300 0.7300 0.7320 0.7360 0.7380
1472.444492 0.7440 0.7460 0.7540 0.7620 0.7720
1476.705860 0.7780 0.7860 0.7930 0.8010 0.8090
1480.967229 0.8160 0.8210 0.8250 0.8300 0.8340
1485.228597 0.8420 0.8460 0.8500 0.8530 0.8560
1489.489966 0.8580 0.8610 0.8650 0.8680 0.8680
1493.751334 0.8700 0.8720 0.8730 0.8730 0.8760
1498.012703 0.8780 0.8820 0.8850 0.8880 0.8890
1502.274071 0.8890 0.8920 0.8920 0.8930 0.8930
1506.535440 0.8930 0.8940 0.8960 0.8970 0.8980
1510.796808 0.9000 0.9010 0.9020 0.9040 0.9050
1515.058177 0.9050 0.9050 0.9050 0.9060 0.9080
1519.319545 0.9090 0.9100 0.9120 0.9120 0.9120
1523.580914 0.9130 0.9130 0.9130 0.9130 0.9130
1527.842282 0.9140 0.9140 0.9140 0.9130 0.9130
1532.103651 0.9120 0.9120 0.9120 0.9120 0.9130
1536.365019 0.9130 0.9160 0.9160 0.9160 0.9170
1540.626388 0.9170 0.9170 0.9180 0.9180 0.9200
1544.887756 0.9200 0.9200 0.9210 0.9220 0.9240
1549.149125 0.9240 0.9250 0.9260 0.9260 0.9260
1553.410493 0.9260 0.9280 0.9280 0.9280 0.9280
1557.671861 0.9260 0.9240 0.9240 0.9250 0.9260
1561.933230 0.9280 0.9290 0.9300 0.9300 0.9320
1566.194598 0.9320 0.9320 0.9320 0.9320 0.9300
1570.455967 0.9300 0.9300 0.9300 0.9290 0.9290
1574.717335 0.9300 0.9300 0.9300 0.9300 0.9300
1578.978704 0.9300 0.9300 0.9300 0.9300 0.9300
1583.240072 0.9300 0.9300 0.9300 0.9300 0.9320
1587.501441 0.9320 0.9330 0.9330 0.9330 0.9330
1591.762809 0.9340 0.9330 0.9320 0.9320 0.9340
1596.024178 0.9340 0.9340 0.9340 0.9340 0.9340
1600.285546 0.9330 0.9320 0.9320 0.9300 0.9300
1604.546915 0.9300 0.9320 0.9320 0.9320 0.9300
1608.808283 0.9290 0.9290 0.9290 0.9290 0.9290
1613.069652 0.9300 0.9300 0.9300 0.9290 0.9290
1617.331020 0.9280 0.9260 0.9240 0.9200 0.9180
1621.592389 0.9160 0.9160 0.9140 0.9130 0.9120
1625.853757 0.9100 0.9080 0.9060 0.9060 0.9060
1630.115126 0.9050 0.9050 0.9050 0.9060 0.9060
1634.376494 0.9090 0.9100 0.9100 0.9090 0.9080
1638.637863 0.9060 0.9060 0.9050 0.9040 0.9010
1642.899231 0.9000 0.8980 0.8980 0.8970 0.8970
1647.160600 0.8960 0.8940 0.8940 0.8930 0.8930
1651.421968 0.8930 0.8930 0.8930 0.8940 0.8940
1655.683337 0.8960 0.8960 0.8970 0.8980 0.9000
1659.944705 0.9000 0.9010 0.9010 0.9010 0.9010
1664.206074 0.9010 0.9010 0.9020 0.9020 0.9050
1668.467442 0.9060 0.9080 0.9080 0.9090 0.9090
1672.728811 0.9100 0.9100 0.9100 0.9120 0.9120
1676.990179 0.9140 0.9200 0.9240 0.9260 0.9320
1681.251548 0.9330 0.9330 0.9300 0.9300 0.9300
1685.512916 0.9300 0.9320 0.9320 0.9330 0.9340
1689.774285 0.9380 0.9410 0.9440 0.9450 0.9450
1694.035653 0.9440 0.9440 0.9420 0.9420 0.9440
1698.297022 0.9450 0.9480 0.9490 0.9500 0.9530
1702.558390 0.9530 0.9530 0.9540 0.9540 0.9540
1706.819759 0.9540 0.9540 0.9540 0.9540 0.9540
1711.081127 0.9540 0.9540 0.9540 0.9540 0.9540
1715.342496 0.9540 0.9540 0.9540 0.9530 0.9520
1719.603864 0.9520 0.9520 0.9520 0.9520 0.9520
1723.865233 0.9520 0.9500 0.9490 0.9490 0.9490
1728.126601 0.9480 0.9480 0.9460 0.9450 0.9440
1732.387970 0.9410 0.9410 0.9400 0.9400 0.9400
1736.649338 0.9400 0.9370 0.9360 0.9360 0.9340
1740.910707 0.9340 0.9340 0.9330 0.9330 0.9330
1745.172075 0.9330 0.9330 0.9340 0.9340 0.9340
1749.433444 0.9340 0.9360 0.9360 0.9380 0.9380
1753.694812 0.9410 0.9410 0.9420 0.9420 0.9450
1757.956181 0.9450 0.9450 0.9460 0.9460 0.9460
1762.217549 0.9460 0.9460 0.9460 0.9480 0.9480
1766.478918 0.9480 0.9480 0.9480 0.9490 0.9490
1770.740286 0.9490 0.9490 0.9490 0.9490 0.9490
1775.001655 0.9500 0.9500 0.9500 0.9490 0.9490
1779.263023 0.9500 0.9520 0.9540 0.9540 0.9530
1783.524392 0.9540 0.9560 0.9570 0.9570 0.9570
1787.785760 0.9570 0.9570 0.9570 0.9560 0.9560
1792.047129 0.9560 0.9570 0.9570 0.9580 0.9600
1796.308497 0.9600 0.9600 0.9610 0.9610 0.9610
1800.569866 0.9610 0.9610 0.9610 0.9600 0.9600
1804.831234 0.9580 0.9580 0.9570 0.9570 0.9560
1809.092603 0.9560 0.9540 0.9540 0.9540 0.9540
1813.353971 0.9530 0.9530 0.9520 0.9520 0.9500
1817.615340 0.9500 0.9490 0.9490 0.9480 0.9480
1821.876708 0.9460 0.9460 0.9460 0.9460 0.9450
1826.138077 0.9450 0.9450 0.9450 0.9450 0.9450
1830.399445 0.9450 0.9450 0.9450 0.9450 0.9450
1834.660814 0.9440 0.9440 0.9440 0.9440 0.9420
1838.922182 0.9410 0.9410 0.9400 0.9400 0.9380
1843.183550 0.9380 0.9370 0.9360 0.9330 0.9320
1847.444919 0.9320 0.9320 0.9330 0.9340 0.9340
1851.706287 0.9360 0.9360 0.9360 0.9370 0.9370
1855.967656 0.9370 0.9380 0.9400 0.9400 0.9410
1860.229024 0.9410 0.9420 0.9420 0.9440 0.9440
1864.490393 0.9440 0.9440 0.9440 0.9440 0.9450
1868.751761 0.9460 0.9460 0.9480 0.9490 0.9490
1873.013130 0.9500 0.9500 0.9520 0.9520 0.9540
1877.274498 0.9540 0.9560 0.9570 0.9570 0.9540
1881.535867 0.9540 0.9540 0.9540 0.9540 0.9560
1885.797235 0.9570 0.9570 0.9580 0.9580 0.9570
1890.058604 0.9570 0.9570 0.9560 0.9570 0.9570
1894.319972 0.9570 0.9570 0.9580 0.9580 0.9580
1898.581341 0.9600 0.9600 0.9600 0.9600 0.9610
1902.842709 0.9610 0.9610 0.9610 0.9610 0.9610
1907.104078 0.9620 0.9620 0.9640 0.9650 0.9660
1911.365446 0.9660 0.9660 0.9650 0.9650 0.9620
1915.626815 0.9620 0.9610 0.9610 0.9610 0.9610
1919.888183 0.9620 0.9620 0.9620 0.9610 0.9610
1924.149552 0.9620 0.9640 0.9640 0.9640 0.9650
1928.410920 0.9650 0.9650 0.9650 0.9650 0.9650
1932.672289 0.9640 0.9640 0.9620 0.9620 0.9610
1936.933657 0.9610 0.9610 0.9610 0.9610 0.9610
1941.195026 0.9610 0.9610 0.9610 0.9610 0.9610
1945.456394 0.9610 0.9620 0.9620 0.9620 0.9610
1949.717763 0.9610 0.9610 0.9600 0.9600 0.9600
1953.979131 0.9610 0.9610 0.9600 0.9570 0.9570
1958.240500 0.9530 0.9530 0.9560 0.9570 0.9580
1962.501868 0.9580 0.9600 0.9600 0.9600 0.9610
1966.763237 0.9610 0.9610 0.9610 0.9620 0.9620
1971.024605 0.9610 0.9600 0.9610 0.9610 0.9610
1975.285974 0.9610 0.9610 0.9610 0.9620 0.9620
1979.547342 0.9620 0.9600 0.9600 0.9610 0.9610
1983.808711 0.9610 0.9610 0.9610 0.9610 0.9610
1988.070079 0.9610 0.9620 0.9620 0.9620 0.9620
1992.331448 0.9620 0.9620 0.9620 0.9640 0.9640
1996.592816 0.9650 0.9650 0.9650 0.9660 0.9680
2000.854185 0.9680 0.9680 0.9680 0.9680 0.9670
2005.115553 0.9660 0.9640 0.9620 0.9610 0.9600
2009.376922 0.9590 0.9580 0.9575 0.9570 0.9565
2013.638290 0.9560 0.9550 0.9540 0.9540 0.9540
2017.899659 0.9540 0.9540 0.9540 0.9540 0.9540
2022.161027 0.9540 0.9540 0.9540 0.9535 0.9530
2026.422396 0.9530 0.9530 0.9525 0.9520 0.9520
2030.683764 0.9520 0.9525 0.9530 0.9530 0.9530
2034.945133 0.9530 0.9530 0.9530 0.9530 0.9530
2039.206501 0.9530 0.9535 0.9540 0.9540 0.9540
2043.467870 0.9540 0.9540 0.9535 0.9530 0.9525
2047.729238 0.9520 0.9520 0.9520 0.9520 0.9520
2051.990607 0.9520 0.9520 0.9520 0.9520 0.9520
2056.251975 0.9520 0.9520 0.9520 0.9520 0.9520
2060.513344 0.9520 0.9520 0.9520 0.9520 0.9520
2064.774712 0.9520 0.9520 0.9520 0.9520 0.9520
2069.036081 0.9520 0.9519 0.9509 0.9500 0.9500
2073.297449 0.9500 0.9500 0.9500 0.9500 0.9500
2077.558818 0.9500 0.9500 0.9495 0.9490 0.9490
2081.820186 0.9490 0.9485 0.9480 0.9480 0.9480
2086.081555 0.9480 0.9479 0.9469 0.9460 0.9460
2090.342923 0.9460 0.9460 0.9460 0.9460 0.9461
2094.604292 0.9471 0.9480 0.9480 0.9480 0.9480
2098.865660 0.9480 0.9480 0.9480 0.9480 0.9480
2103.127029 0.9480 0.9480 0.9480 0.9480 0.9480
2107.388397 0.9479 0.9469 0.9460 0.9455 0.9450
2111.649766 0.9450 0.9450 0.9445 0.9440 0.9440
2115.911134 0.9440 0.9440 0.9439 0.9429 0.9420
2120.172503 0.9420 0.9419 0.9414 0.9410 0.9410
2124.433871 0.9410 0.9410 0.9410 0.9410 0.9410
2128.695240 0.9410 0.9410 0.9410 0.9410 0.9410
2132.956608 0.9410 0.9410 0.9410 0.9410 0.9410
2137.217976 0.9410 0.9410 0.9410 0.9411 0.9416
2141.479345 0.9420 0.9420 0.9421 0.9431 0.9440
2145.740713 0.9440 0.9440 0.9440 0.9441 0.9446
2150.002082 0.9450 0.9450 0.9450 0.9450 0.9451
2154.263450 0.9456 0.9460 0.9460 0.9461 0.9471
2158.524819 0.9480 0.9480 0.9480 0.9480 0.9481
2162.786187 0.9486 0.9490 0.9490 0.9490 0.9490
2167.047556 0.9491 0.9496 0.9500 0.9500 0.9502
2171.308924 0.9512 0.9521 0.9526 0.9530 0.9530
2175.570293 0.9530 0.9530 0.9530 0.9530 0.9530
2179.831661 0.9530 0.9529 0.9524 0.9520 0.9520
2184.093030 0.9520 0.9520 0.9520 0.9520 0.9518
2188.354398 0.9508 0.9500 0.9500 0.9500 0.9500
2192.615767 0.9499 0.9494 0.9490 0.9490 0.9490
2196.877135 0.9490 0.9489 0.9484 0.9480 0.9480
2201.138504 0.9480 0.9480 0.9478 0.9468 0.9460
2205.399872 0.9460 0.9460 0.9460 0.9459 0.9454
2209.661241 0.9450 0.9450 0.9450 0.9450 0.9450
2213.922609 0.9450 0.9450 0.9450 0.9450 0.9450
2218.183978 0.9450 0.9450 0.9450 0.9450 0.9450
2222.445346 0.9450 0.9450 0.9450 0.9450 0.9450
2226.706715 0.9450 0.9450 0.9450 0.9450 0.9450
2230.968083 0.9450 0.9451 0.9456 0.9460 0.9460
2235.229452 0.9460 0.9460 0.9460 0.9460 0.9460
2239.490820 0.9460 0.9460 0.9460 0.9460 0.9460
2243.752189 0.9462 0.9472 0.9478 0.9468 0.9460
2248.013557 0.9460 0.9462 0.9472 0.9481 0.9486
2252.274926 0.9490 0.9490 0.9490 0.9490 0.9490
2256.536294 0.9490 0.9489 0.9484 0.9480 0.9480
2260.797663 0.9480 0.9480 0.9480 0.9480 0.9481
2265.059031 0.9486 0.9490 0.9490 0.9491 0.9496
2269.320400 0.9500 0.9500 0.9500 0.9500 0.9500
2273.581768 0.9500 0.9500 0.9500 0.9499 0.9494
2277.843137 0.9489 0.9484 0.9480 0.9480 0.9480
2282.104505 0.9480 0.9481 0.9486 0.9490 0.9490
2286.365874 0.9490 0.9490 0.9490 0.9490 0.9490
2290.627242 0.9490 0.9490 0.9490 0.9490 0.9490
2294.888611 0.9490 0.9490 0.9490 0.9490 0.9490
2299.149979 0.9490 0.9490 0.9490 0.9490 0.9490
2303.411348 0.9490 0.9490 0.9490 0.9490 0.9491
2307.672716 0.9496 0.9500 0.9500 0.9500 0.9500
2311.934085 0.9499 0.9494 0.9489 0.9484 0.9480
2316.195453 0.9480 0.9480 0.9480 0.9480 0.9480
2320.456822 0.9477 0.9467 0.9460 0.9460 0.9460
2324.718190 0.9460 0.9458 0.9453 0.9450 0.9450
2328.979559 0.9450 0.9450 0.9448 0.9443 0.9440
2333.240927 0.9440 0.9440 0.9440 0.9437 0.9427
2337.502296 0.9420 0.9420 0.9420 0.9420 0.9420
2341.763664 0.9420 0.9420 0.9420 0.9420 0.9420
2346.025033 0.9420 0.9420 0.9420 0.9420 0.9420
2350.286401 0.9420 0.9420 0.9420 0.9418 0.9413
2354.547770 0.9410 0.9410 0.9410 0.9410 0.9408
2358.809138 0.9403 0.9400 0.9400 0.9400 0.9400
2363.070507 0.9397 0.9387 0.9380 0.9380 0.9378
2367.331875 0.9373 0.9370 0.9370 0.9370 0.9370
2371.593244 0.9372 0.9377 0.9380 0.9380 0.9384
2375.854612 0.9394 0.9402 0.9407 0.9412 0.9417
2380.115981 0.9425 0.9440 0.9452 0.9457 0.9464
2384.377349 0.9474 0.9480 0.9480 0.9480 0.9480
2388.638718 0.9480 0.9480 0.9476 0.9466 0.9458
2392.900086 0.9453 0.9450 0.9450 0.9448 0.9443
2397.161455 0.9440 0.9440 0.9440 0.9440 0.9440
2401.422823 0.9440 0.9440 0.9440 0.9442 0.9447
2405.684192 0.9450 0.9450 0.9452 0.9457 0.9458
2409.945560 0.9453 0.9450 0.9450 0.9450 0.9450
2414.206929 0.9452 0.9457 0.9460 0.9460 0.9460
2418.468297 0.9460 0.9458 0.9453 0.9452 0.9457
2422.729665 0.9460 0.9460 0.9460 0.9460 0.9460
2426.991034 0.9460 0.9464 0.9474 0.9480 0.9480
2431.252402 0.9480 0.9480 0.9480 0.9480 0.9480
2435.513771 0.9480 0.9480 0.9480 0.9482 0.9487
2439.775139 0.9490 0.9490 0.9484 0.9469 0.9460
2444.036508 0.9460 0.9460 0.9460 0.9464 0.9474
2448.297876 0.9482 0.9487 0.9492 0.9497 0.9500
2452.559245 0.9500 0.9500 0.9500 0.9500 0.9500
2456.820613 0.9500 0.9500 0.9500 0.9500 0.9498
2461.081982 0.9493 0.9488 0.9483 0.9476 0.9466
2465.343350 0.9460 0.9460 0.9460 0.9460 0.9458
2469.604719 0.9453 0.9450 0.9450 0.9452 0.9457
2473.866087 0.9460 0.9460 0.9464 0.9475 0.9482
2478.127456 0.9487 0.9490 0.9490 0.9488 0.9483
2482.388824 0.9480 0.9480 0.9475 0.9465 0.9458
2486.650193 0.9453 0.9450 0.9450 0.9450 0.9450
2490.911561 0.9450 0.9450 0.9450 0.9450 0.9450
2495.172930 0.9450 0.9450 0.9450 0.9450 0.9450
2499.434298 0.9450 0.9450 0.9450 0.9450 0.9452
2503.695667 0.9457 0.9460 0.9460 0.9460 0.9460
2507.957035 0.9460 0.9460 0.9465 0.9475 0.9480
2512.218404 0.9480 0.9482 0.9487 0.9490 0.9490
2516.479772 0.9490 0.9490 0.9490 0.9490 0.9490
2520.741141 0.9490 0.9492 0.9497 0.9500 0.9500
2525.002509 0.9500 0.9500 0.9500 0.9500 0.9500
2529.263878 0.9500 0.9497 0.9492 0.9490 0.9490
2533.525246 0.9490 0.9490 0.9490 0.9490 0.9490
2537.786615 0.9490 0.9487 0.9482 0.9480 0.9480
2542.047983 0.9483 0.9488 0.9490 0.9490 0.9490
2546.309352 0.9490 0.9487 0.9482 0.9480 0.9480
2550.570720 0.9480 0.9480 0.9480 0.9480 0.9483
2554.832089 0.9488 0.9490 0.9490 0.9490 0.9490
2559.093457 0.9493 0.9498 0.9500 0.9500 0.9495
2563.354826 0.9485 0.9480 0.9480 0.9480 0.9480
2567.616194 0.9480 0.9480 0.9480 0.9480 0.9483
2571.877563 0.9488 0.9487 0.9482 0.9480 0.9480
2576.138931 0.9480 0.9480 0.9480 0.9480 0.9480
2580.400300 0.9480 0.9480 0.9480 0.9474 0.9464
2584.661668 0.9460 0.9460 0.9460 0.9460 0.9460
2588.923037 0.9460 0.9460 0.9460 0.9457 0.9452
2593.184405 0.9447 0.9442 0.9440 0.9440 0.9440
2597.445774 0.9440 0.9440 0.9440 0.9440 0.9440
2601.707142 0.9440 0.9440 0.9440 0.9440 0.9440
2605.968511 0.9440 0.9434 0.9424 0.9420 0.9420
2610.229879 0.9420 0.9420 0.9420 0.9420 0.9420
2614.491248 0.9420 0.9420 0.9420 0.9420 0.9420
2618.752616 0.9420 0.9420 0.9417 0.9412 0.9407
2623.013985 0.9402 0.9394 0.9384 0.9377 0.9372
2627.275353 0.9367 0.9362 0.9354 0.9344 0.9340
2631.536722 0.9340 0.9337 0.9332 0.9330 0.9330
2635.798090 0.9330 0.9330 0.9333 0.9338 0.9340
2640.059459 0.9340 0.9340 0.9340 0.9346 0.9356
2644.320827 0.9360 0.9360 0.9360 0.9360 0.9363
2648.582196 0.9368 0.9370 0.9370 0.9370 0.9370
2652.843564 0.9370 0.9370 0.9370 0.9370 0.9373
2657.104933 0.9378 0.9380 0.9380 0.9386 0.9396
2661.366301 0.9400 0.9400 0.9403 0.9408 0.9410
2665.627670 0.9410 0.9407 0.9402 0.9400 0.9400
2669.889038 0.9400 0.9400 0.9400 0.9400 0.9403
2674.150407 0.9408 0.9410 0.9410 0.9410 0.9410
2678.411775 0.9413 0.9418 0.9420 0.9420 0.9420
2682.673144 0.9420 0.9417 0.9412 0.9410 0.9410
2686.934512 0.9413 0.9418 0.9420 0.9420 0.9417
2691.195881 0.9412 0.9410 0.9410 0.9407 0.9402
2695.457249 0.9400 0.9400 0.9393 0.9383 0.9380
2699.718618 0.9380 0.9387 0.9397 0.9400 0.9400
2703.979986 0.9400 0.9400 0.9400 0.9400 0.9400
2708.241354 0.9400 0.9403 0.9408 0.9413 0.9418
2712.502723 0.9420 0.9420 0.9420 0.9420 0.9420
2716.764091 0.9420 0.9420 0.9420 0.9417 0.9412
2721.025460 0.9410 0.9410 0.9410 0.9410 0.9410
2725.286828 0.9410 0.9410 0.9410 0.9410 0.9410
2729.548197 0.9410 0.9410 0.9407 0.9402 0.9400
2733.809565 0.9400 0.9393 0.9383 0.9380 0.9380
2738.070934 0.9376 0.9372 0.9370 0.9370 0.9370
2742.332302 0.9370 0.9370 0.9370 0.9370 0.9370
2746.593671 0.9370 0.9370 0.9370 0.9370 0.9370
2750.855039 0.9370 0.9374 0.9379 0.9376 0.9371
2755.116408 0.9370 0.9370 0.9370 0.9370 0.9366
2759.377776 0.9361 0.9360 0.9360 0.9360 0.9360
2763.639145 0.9360 0.9360 0.9353 0.9343 0.9340
2767.900513 0.9340 0.9340 0.9340 0.9347 0.9357
2772.161882 0.9360 0.9360 0.9353 0.9343 0.9336
2776.423250 0.9331 0.9330 0.9330 0.9330 0.9330
2780.684619 0.9330 0.9330 0.9330 0.9330 0.9330
2784.945987 0.9330 0.9330 0.9330 0.9330 0.9330
2789.207356 0.9330 0.9330 0.9330 0.9330 0.9330
2793.468724 0.9330 0.9330 0.9330 0.9330 0.9330
2797.730093 0.9330 0.9330 0.9330 0.9330 0.9326
2801.991461 0.9321 0.9312 0.9302 0.9300 0.9300
2806.252830 0.9296 0.9291 0.9290 0.9290 0.9286
2810.514198 0.9281 0.9280 0.9280 0.9272 0.9262
2814.775567 0.9256 0.9251 0.9246 0.9241 0.9240
2819.036935 0.9240 0.9232 0.9222 0.9216 0.9211
2823.298304 0.9198 0.9183 0.9176 0.9171 0.9166
2827.559672 0.9161 0.9160 0.9160 0.9148 0.9133
2831.821041 0.9126 0.9121 0.9112 0.9102 0.9100
2836.082409 0.9100 0.9096 0.9091 0.9070 0.9045
2840.343778 0.9000 0.8950 0.8920 0.8895 0.8858
2844.605146 0.8818 0.8778 0.8738 0.8698 0.8658
2848.866515 0.8507 0.8327 0.8133 0.7937 0.7835
2853.127883 0.7755 0.7675 0.7595 0.7572 0.7562
2857.389252 0.7564 0.7569 0.7598 0.7633 0.7709
2861.650620 0.7794 0.7912 0.8036 0.8121 0.8196
2865.911989 0.8255 0.8310 0.8340 0.8366 0.8424
2870.173357 0.8489 0.8517 0.8537 0.8573 0.8613
2874.434726 0.8628 0.8638 0.8648 0.8658 0.8668
2878.696094 0.8678 0.8688 0.8698 0.8708 0.8718
2882.957463 0.8741 0.8766 0.8774 0.8779 0.8788
2887.218831 0.8798 0.8800 0.8800 0.8792 0.8782
2891.480200 0.8780 0.8780 0.8776 0.8771 0.8770
2895.741568 0.8770 0.8770 0.8770 0.8757 0.8742
2900.002937 0.8732 0.8722 0.8707 0.8692 0.8686
2904.264305 0.8681 0.8663 0.8643 0.8627 0.8612
2908.525674 0.8593 0.8573 0.8553 0.8533 0.8500
2912.787042 0.8465 0.8451 0.8441 0.8427 0.8412
2917.048411 0.8389 0.8364 0.8343 0.8322 0.8307
2921.309779 0.8292 0.8233 0.8168 0.8142 0.8122
2925.571148 0.8059 0.7989 0.7954 0.7924 0.7867
2929.832516 0.7807 0.7787 0.7772 0.7766 0.7761
2934.093885 0.7764 0.7769 0.7770 0.7770 0.7774
2938.355253 0.7779 0.7789 0.7799 0.7800 0.7800
2942.616622 0.7804 0.7809 0.7810 0.7810 0.7797
2946.877990 0.7782 0.7691 0.7591 0.7455 0.7315
2951.139359 0.7229 0.7149 0.7063 0.6978 0.6829
2955.400727 0.6674 0.6564 0.6459 0.6373 0.6288
2959.662096 0.6266 0.6251 0.6250 0.6250 0.6255
2963.923464 0.6260 0.6306 0.6356 0.6456 0.6561
2968.184833 0.6784 0.7019 0.7123 0.7213 0.7304
2972.446201 0.7394 0.7423 0.7448 0.7482 0.7517
2976.707570 0.7539 0.7559 0.7579 0.7599 0.7619
2980.968938 0.7639 0.7645 0.7650 0.7650 0.7650
2985.230307 0.7645 0.7640 0.7640 0.7640 0.7621
2989.491675 0.7601 0.7581 0.7561 0.7508 0.7453
2993.753044 0.7417 0.7382 0.7361 0.7341 0.7335
2998.014412 0.7330 0.7325 0.7320 0.7306 0.7291
3002.275780 0.7285 0.7280 0.7280 0.7280 0.7285
3006.537149 0.7290 0.7314 0.7339 0.7374 0.7409
3010.798517 0.7444 0.7479 0.7518 0.7558 0.7579
3015.059886 0.7599 0.7624 0.7649 0.7669 0.7689
3019.321254 0.7728 0.7768 0.7809 0.7849 0.7889
3023.582623 0.7929 0.7950 0.7970 0.8004 0.8039
3027.843991 0.8064 0.8089 0.8114 0.8139 0.8194
3032.105360 0.8249 0.8274 0.8299 0.8310 0.8320
3036.366728 0.8339 0.8359 0.8385 0.8410 0.8430
3040.628097 0.8450 0.8475 0.8500 0.8515 0.8530
3044.889465 0.8550 0.8570 0.8585 0.8600 0.8610
3049.150834 0.8620 0.8655 0.8690 0.8695 0.8700
3053.412202 0.8710 0.8720 0.8725 0.8730 0.8735
3057.673571 0.8740 0.8755 0.8770 0.8775 0.8780
3061.934939 0.8790 0.8800 0.8805 0.8810 0.8810
3066.196308 0.8810 0.8810 0.8810 0.8815 0.8820
3070.457676 0.8820 0.8820 0.8830 0.8840 0.8845
3074.719045 0.8850 0.8865 0.8880 0.8885 0.8890
3078.980413 0.8895 0.8900 0.8910 0.8920 0.8925
3083.241782 0.8930 0.8935 0.8940 0.8940 0.8940
3087.503150 0.8940 0.8940 0.8940 0.8940 0.8950
3091.764519 0.8960 0.8965 0.8970 0.8975 0.8980
3096.025887 0.8990 0.9000 0.9000 0.9000 0.9005
3100.287256 0.9010 0.9015 0.9020 0.9020 0.9020
3104.548624 0.9030 0.9040 0.9040 0.9040 0.9045
3108.809993 0.9051 0.9066 0.9080 0.9080 0.9080
3113.071361 0.9085 0.9090 0.9090 0.9090 0.9090
3117.332730 0.9090 0.9090 0.9090 0.9090 0.9090
3121.594098 0.9090 0.9090 0.9095 0.9100 0.9100
3125.855467 0.9101 0.9111 0.9120 0.9120 0.9120
3130.116835 0.9125 0.9130 0.9130 0.9130 0.9135
3134.378204 0.9140 0.9140 0.9140 0.9140 0.9140
3138.639572 0.9140 0.9140 0.9140 0.9140 0.9140
3142.900941 0.9140 0.9140 0.9141 0.9151 0.9160
3147.162309 0.9160 0.9160 0.9160 0.9160 0.9160
3151.423678 0.9160 0.9160 0.9160 0.9165 0.9170
3155.685046 0.9170 0.9170 0.9175 0.9180 0.9180
3159.946415 0.9181 0.9191 0.9200 0.9200 0.9200
3164.207783 0.9200 0.9201 0.9206 0.9210 0.9210
3168.469152 0.9210 0.9210 0.9210 0.9210 0.9210
3172.730520 0.9210 0.9210 0.9210 0.9210 0.9210
3176.991889 0.9210 0.9210 0.9210 0.9210 0.9210
3181.253257 0.9210 0.9209 0.9204 0.9200 0.9200
3185.514626 0.9200 0.9200 0.9200 0.9200 0.9200
3189.775994 0.9200 0.9199 0.9189 0.9180 0.9180
3194.037363 0.9180 0.9180 0.9180 0.9180 0.9179
3198.298731 0.9174 0.9170 0.9170 0.9170 0.9170
3202.560100 0.9170 0.9170 0.9169 0.9164 0.9160
3206.821468 0.9160 0.9160 0.9160 0.9160 0.9160
3211.082837 0.9160 0.9160 0.9158 0.9148 0.9140
3215.344205 0.9140 0.9140 0.9140 0.9139 0.9134
3219.605574 0.9130 0.9130 0.9130 0.9130 0.9129
3223.866942 0.9124 0.9120 0.9120 0.9120 0.9120
3228.128311 0.9118 0.9108 0.9100 0.9100 0.9100
3232.389679 0.9100 0.9100 0.9100 0.9100 0.9100
3236.651048 0.9099 0.9094 0.9090 0.9090 0.9090
3240.912416 0.9090 0.9089 0.9084 0.9080 0.9080
3245.173785 0.9080 0.9080 0.9078 0.9068 0.9059
3249.435153 0.9054 0.9050 0.9050 0.9049 0.9044
3253.696522 0.9040 0.9040 0.9040 0.9040 0.9040
3257.957890 0.9040 0.9040 0.9040 0.9038 0.9028
3262.219259 0.9019 0.9014 0.9010 0.9010 0.9010
3266.480627 0.9010 0.9010 0.9010 0.9009 0.9004
3270.741996 0.8998 0.8988 0.8980 0.8980 0.8979
3275.003364 0.8974 0.8970 0.8970 0.8970 0.8970
3279.264733 0.8969 0.8964 0.8960 0.8960 0.8958
3283.526101 0.8948 0.8940 0.8940 0.8939 0.8934
3287.787469 0.8930 0.8930 0.8929 0.8924 0.8920
3292.048838 0.8920 0.8920 0.8920 0.8918 0.8908
3296.310206 0.8900 0.8900 0.8899 0.8894 0.8890
3300.571575 0.8890 0.8889 0.8884 0.8880 0.8880
3304.832943 0.8880 0.8880 0.8878 0.8868 0.8860
3309.094312 0.8860 0.8860 0.8860 0.8860 0.8860
3313.355680 0.8859 0.8854 0.8850 0.8850 0.8850
3317.617049 0.8850 0.8849 0.8844 0.8840 0.8840
3321.878417 0.8840 0.8840 0.8840 0.8840 0.8840
3326.139786 0.8840 0.8837 0.8827 0.8820 0.8820
3330.401154 0.8820 0.8820 0.8819 0.8814 0.8810
3334.662523 0.8810 0.8810 0.8810 0.8810 0.8810
3338.923891 0.8810 0.8810 0.8809 0.8804 0.8800
3343.185260 0.8800 0.8797 0.8787 0.8779 0.8774
3347.446628 0.8770 0.8770 0.8769 0.8764 0.8760
3351.707997 0.8760 0.8757 0.8747 0.8740 0.8740
3355.969365 0.8739 0.8734 0.8729 0.8724 0.8720
3360.230734 0.8720 0.8717 0.8707 0.8699 0.8694
3364.492102 0.8689 0.8684 0.8680 0.8680 0.8677
3368.753471 0.8667 0.8660 0.8660 0.8660 0.8660
3373.014839 0.8654 0.8634 0.8619 0.8614 0.8609
3377.276208 0.8604 0.8595 0.8580 0.8568 0.8563
3381.537576 0.8560 0.8560 0.8557 0.8547 0.8538
3385.798945 0.8533 0.8528 0.8523 0.8515 0.8500
3390.060313 0.8485 0.8470 0.8457 0.8447 0.8435
3394.321682 0.8420 0.8410 0.8410 0.8405 0.8390
3398.583050 0.8377 0.8367 0.8355 0.8340 0.8328
3402.844419 0.8323 0.8317 0.8307 0.8297 0.8287
3407.105787 0.8275 0.8260 0.8245 0.8230 0.8218
3411.367156 0.8213 0.8208 0.8203 0.8196 0.8186
3415.628524 0.8173 0.8153 0.8138 0.8133 0.8125
3419.889893 0.8110 0.8096 0.8086 0.8077 0.8067
3424.151261 0.8058 0.8053 0.8048 0.8043 0.8035
3428.412630 0.8020 0.8005 0.7990 0.7978 0.7973
3432.673998 0.7968 0.7963 0.7956 0.7946 0.7938
3436.935367 0.7933 0.7928 0.7923 0.7909 0.7879
3441.196735 0.7858 0.7853 0.7848 0.7843 0.7835
3445.458104 0.7820 0.7808 0.7803 0.7796 0.7786
3449.719472 0.7776 0.7766 0.7756 0.7746 0.7736
3453.980841 0.7726 0.7709 0.7679 0.7658 0.7653
3458.242209 0.7648 0.7643 0.7634 0.7619 0.7604
3462.503578 0.7589 0.7578 0.7573 0.7568 0.7563
3466.764946 0.7560 0.7560 0.7560 0.7560 0.7560
3471.026315 0.7560 0.7556 0.7546 0.7540 0.7540
3475.287683 0.7540 0.7540 0.7540 0.7540 0.7540
3479.549052 0.7540 0.7540 0.7540 0.7540 0.7540
3483.810420 0.7540 0.7540 0.7540 0.7540 0.7540
3488.071789 0.7540 0.7540 0.7540 0.7540 0.7540
3492.333157 0.7540 0.7540 0.7540 0.7540 0.7540
3496.594526 0.7540 0.7540 0.7540 0.7540 0.7540
3500.855894 0.7540 0.7540 0.7540 0.7540 0.7540
3505.117263 0.7540 0.7540 0.7540 0.7540 0.7540
3509.378631 0.7540 0.7540 0.7540 0.7540 0.7540
3513.640000 0.7540 0.7540 0.7540 0.7540 0.7540
3517.901368 0.7540 0.7540 0.7540 0.7540 0.7540
3522.162737 0.7540 0.7540 0.7540 0.7540 0.7540
3526.424105 0.7540 0.7540 0.7540 0.7540 0.7540
3530.685474 0.7540 0.7540 0.7540 0.7540 0.7540
3534.946842 0.7540 0.7540 0.7545 0.7555 0.7562
3539.208211 0.7567 0.7572 0.7577 0.7585 0.7595
3543.469579 0.7602 0.7607 0.7617 0.7632 0.7645
3547.730948 0.7655 0.7667 0.7682 0.7702 0.7727
3551.992316 0.7754 0.7784 0.7810 0.7830 0.7845
3556.253685 0.7855 0.7874 0.7904 0.7925 0.7935
3560.515053 0.7947 0.7962 0.7982 0.8007 0.8030
3564.776422 0.8050 0.8067 0.8082 0.8100 0.8120
3569.037790 0.8147 0.8182 0.8215 0.8245 0.8265
3573.299158 0.8275 0.8285 0.8295 0.8305 0.8315
3577.560527 0.8340 0.8380 0.8410 0.8430 0.8450
3581.821895 0.8470 0.8482 0.8488 0.8498 0.8513
3586.083264 0.8520 0.8520 0.8525 0.8535 0.8548
3590.344632 0.8563 0.8578 0.8593 0.8603 0.8608
3594.606001 0.8613 0.8618 0.8635 0.8665 0.8683
3598.867369 0.8688 0.8693 0.8698 0.8705 0.8715
3603.128738 0.8720 0.8720 0.8723 0.8728 0.8741
3607.390106 0.8761 0.8778 0.8793 0.8803 0.8808
3611.651475 0.8813 0.8818 0.8825 0.8835 0.8843
3615.912843 0.8848 0.8850 0.8850 0.8853 0.8858
3620.174212 0.8860 0.8860 0.8865 0.8875 0.8883
3624.435580 0.8888 0.8890 0.8890 0.8893 0.8898
3628.696949 0.8900 0.8900 0.8900 0.8900 0.8905
3632.958317 0.8915 0.8923 0.8928 0.8933 0.8938
3637.219686 0.8946 0.8956 0.8963 0.8968 0.8973
3641.481054 0.8978 0.8988 0.9003 0.9013 0.9018
3645.742423 0.9020 0.9020 0.9026 0.9036 0.9043
3650.003791 0.9048 0.9053 0.9058 0.9060 0.9060
3654.265160 0.9069 0.9084 0.9093 0.9098 0.9106
3658.526528 0.9116 0.9123 0.9128 0.9142 0.9162
3662.787897 0.9173 0.9178 0.9186 0.9196 0.9200
3667.049265 0.9200 0.9203 0.9208 0.9219 0.9234
3671.310634 0.9243 0.9248 0.9253 0.9258 0.9269
3675.572002 0.9284 0.9293 0.9298 0.9300 0.9300
3679.833371 0.9306 0.9316 0.9323 0.9328 0.9333
3684.094739 0.9338 0.9340 0.9340 0.9346 0.9356
3688.356108 0.9363 0.9368 0.9373 0.9378 0.9380
3692.617476 0.9380 0.9386 0.9396 0.9400 0.9400
3696.878845 0.9406 0.9416 0.9426 0.9436 0.9443
3701.140213 0.9448 0.9450 0.9450 0.9453 0.9458
3705.401582 0.9460 0.9460 0.9457 0.9452 0.9447
3709.662950 0.9442 0.9440 0.9440 0.9440 0.9440
3713.924319 0.9440 0.9440 0.9440 0.9440 0.9443
3718.185687 0.9448 0.9450 0.9450 0.9453 0.9458
3722.447056 0.9460 0.9460 0.9460 0.9460 0.9460
3726.708424 0.9460 0.9460 0.9460 0.9460 0.9460
3730.969793 0.9460 0.9460 0.9460 0.9460 0.9460
3735.231161 0.9460 0.9460 0.9460 0.9460 0.9460
3739.492530 0.9460 0.9460 0.9460 0.9460 0.9460
3743.753898 0.9460 0.9460 0.9460 0.9460 0.9460
3748.015267 0.9460 0.9460 0.9460 0.9460 0.9460
3752.276635 0.9460 0.9460 0.9460 0.9460 0.9460
3756.538004 0.9460 0.9460 0.9460 0.9460 0.9460
3760.799372 0.9460 0.9460 0.9460 0.9460 0.9460
3765.060741 0.9460 0.9460 0.9460 0.9460 0.9467
3769.322109 0.9477 0.9480 0.9480 0.9480 0.9480
3773.583478 0.9480 0.9480 0.9480 0.9480 0.9480
3777.844846 0.9480 0.9480 0.9480 0.9480 0.9480
3782.106215 0.9480 0.9480 0.9483 0.9488 0.9490
3786.367583 0.9490 0.9490 0.9490 0.9494 0.9499
3790.628952 0.9500 0.9500 0.9500 0.9500 0.9500
3794.890320 0.9500 0.9500 0.9500 0.9500 0.9500
3799.151689 0.9500 0.9500
##END=
