##TITLE=TERT-BUTYL ALCOHOL
##JCAMP-DX=4.24
##DATA TYPE=INFRARED SPECTRUM
##CLASS=COBLENTZ
##ORIGIN=DOW CORNING CORP.
##OWNER=COBLENTZ SOCIETY
Collection (C) 2018 copyright by the U.S. Secretary of Commerce
on behalf of the United States of America. All rights reserved.
##DATE=Not specified, most likely prior to 1970
##NAMES=2-methyl-2-propanol
##CAS REGISTRY NO=75-65-0
##MOLFORM=C4 H10 O
##SOURCE REFERENCE=COBLENTZ NO. 4265
##$NIST SOURCE=COBLENTZ
##$NIST IMAGE=cob4265
##SPECTROMETER/DATA SYSTEM=Not specified, most likely a grating or hybrid spectrometer.
##STATE=SOLUTION (10.5% IN CCl4 FOR 3800-1300, 5.2% IN CS2 FOR 1300-650, AND 10.5% IN CCl4 FOR 650-250 CM^-^1) VERSUS SOLVENT
##PATH LENGTH=0.010, 0.010, AND 0.02 CM (CsBr CELL)
##SAMPLING PROCEDURE=TRANSMISSION
##RESOLUTION=4
##DATA PROCESSING=DIGITIZED BY NIST FROM HARD COPY (FROM TWO SEGMENTS)
##XUNITS=1/CM
##YUNITS=TRANSMITTANCE
##XFACTOR=1.000000
##YFACTOR=1
##DELTAX=1.284116
##FIRSTX=229.213
##LASTX=3795.2
##FIRSTY=0.57
##MAXX=3795.2
##MINX=229.213
##MAXY=0.937
##MINY=0.001
##NPOINTS=2778
##XYDATA=(X++(Y..Y))
229.213000 0.5700 0.5700 0.5700 0.5680 0.5680
235.633578 0.5680 0.5680 0.5680 0.5680 0.5680
242.054156 0.5680 0.5700 0.5710 0.5710 0.5710
248.474734 0.5710 0.5730 0.5730 0.5730 0.5750
254.895311 0.5750 0.5760 0.5780 0.5790 0.5810
261.315889 0.5830 0.5840 0.5860 0.5860 0.5860
267.736467 0.5870 0.5870 0.5870 0.5890 0.5890
274.157045 0.5910 0.5920 0.5940 0.6000 0.6030
280.577623 0.6070 0.6150 0.6190 0.6290 0.6300
286.998201 0.6320 0.6320 0.6350 0.6350 0.6370
293.418778 0.6450 0.6480 0.6560 0.6610 0.6660
299.839356 0.6690 0.6700 0.6720 0.6750 0.6770
306.259934 0.6780 0.6780 0.6780 0.6780 0.6780
312.680512 0.6800 0.6820 0.6830 0.6850 0.6860
319.101090 0.6880 0.6880 0.6880 0.6860 0.6860
325.521668 0.6850 0.6830 0.6800 0.6740 0.6690
331.942245 0.6580 0.6480 0.6370 0.6190 0.6070
338.362823 0.5940 0.5781 0.5571 0.5570 0.5729
344.783401 0.5870 0.6050 0.6260 0.6430 0.6460
351.203979 0.6560 0.6590 0.6699 0.6799 0.6899
357.624557 0.7060 0.7100 0.7170 0.7180 0.7250
364.045135 0.7300 0.7310 0.7340 0.7360 0.7360
370.465713 0.7360 0.7360 0.7360 0.7360 0.7360
376.886290 0.7340 0.7340 0.7340 0.7330 0.7300
383.306868 0.7280 0.7260 0.7260 0.7260 0.7250
389.727446 0.7250 0.7250 0.7230 0.7230 0.7230
396.148024 0.7220 0.7200 0.7170 0.7170 0.7150
402.568602 0.7120 0.7100 0.7090 0.7040 0.7010
408.989180 0.6940 0.6820 0.6780 0.6670 0.6590
415.409757 0.6450 0.6291 0.6101 0.5871 0.5522
421.830335 0.5350 0.5350 0.5700 0.5870 0.6050
428.250913 0.6229 0.6399 0.6539 0.6560 0.6590
434.671491 0.6590 0.6560 0.6540 0.6530 0.6500
441.092069 0.6450 0.6370 0.6300 0.6191 0.6101
447.512647 0.6000 0.5890 0.5730 0.5510 0.5360
453.933225 0.5141 0.4981 0.4801 0.4581 0.4341
460.353802 0.3910 0.3890 0.3910 0.3990 0.4080
466.774380 0.4180 0.4359 0.4559 0.4789 0.4919
473.194958 0.5070 0.5250 0.5380 0.5490 0.5630
479.615536 0.5750 0.5840 0.5890 0.5940 0.5990
486.036114 0.6000 0.6020 0.6030 0.6050 0.6070
492.456692 0.6080 0.6080 0.6080 0.6100 0.6110
498.877269 0.6110 0.6130 0.6150 0.6150 0.6160
505.297847 0.6180 0.6180 0.6190 0.6210 0.6210
511.718425 0.6230 0.6260 0.6270 0.6290 0.6300
518.139003 0.6320 0.6320 0.6350 0.6370 0.6380
524.559581 0.6400 0.6420 0.6430 0.6450 0.6460
530.980159 0.6480 0.6510 0.6530 0.6540 0.6560
537.400736 0.6590 0.6610 0.6620 0.6660 0.6670
543.821314 0.6690 0.6700 0.6740 0.6750 0.6770
550.241892 0.6800 0.6820 0.6830 0.6850 0.6880
556.662470 0.6900 0.6910 0.6940 0.6960 0.6980
563.083048 0.6990 0.7020 0.7040 0.7060 0.7090
569.503626 0.7100 0.7120 0.7140 0.7170 0.7180
575.924204 0.7200 0.7230 0.7250 0.7260 0.7280
582.344781 0.7310 0.7330 0.7340 0.7380 0.7390
588.765359 0.7410 0.7420 0.7460 0.7470 0.7490
595.185937 0.7520 0.7530 0.7550 0.7570 0.7600
601.606515 0.7610 0.7630 0.7660 0.7680 0.7690
608.027093 0.7710 0.7740 0.7760 0.7770 0.7810
614.447671 0.7820 0.7840 0.7850 0.7890 0.7900
620.868248 0.7920 0.7950 0.7970 0.7980 0.8000
627.288826 0.8030 0.8050 0.8080 0.8090 0.8110
633.709404 0.8130 0.8140 0.8160 0.8170 0.8190
640.129982 0.8210 0.8220 0.8240 0.8250 0.8270
646.550560 0.8290 0.8290 0.8300 0.8320 0.8330
652.971138 0.8350 0.8370 0.8370 0.8380 0.8400
659.391715 0.8410 0.8430 0.8450 0.8450 0.8460
665.812293 0.8480 0.8480 0.8490 0.8490 0.8510
672.232871 0.8510 0.8530 0.8530 0.8540 0.8540
678.653449 0.8560 0.8560 0.8560 0.8570 0.8570
685.074027 0.8590 0.8590 0.8590 0.8610 0.8610
691.494605 0.8620 0.8620 0.8640 0.8650 0.8670
697.915183 0.8690 0.8700 0.8720 0.8730 0.8730
704.335760 0.8750 0.8750 0.8760 0.8760 0.8780
710.756338 0.8780 0.8780 0.8800 0.8800 0.8810
717.176916 0.8810 0.8810 0.8830 0.8830 0.8830
723.597494 0.8830 0.8830 0.8830 0.8830 0.8810
730.018072 0.8800 0.8780 0.8720 0.8670 0.8640
736.438650 0.8510 0.8330 0.8210 0.7742 0.7382
742.859227 0.6979 0.6580 0.6180 0.5780 0.5780
749.279805 0.7058 0.8426 0.8530 0.8669 0.8779
755.700383 0.8810 0.8830 0.8860 0.8960 0.8960
762.120961 0.8970 0.8990 0.9040 0.9050 0.9070
768.541539 0.9100 0.9120 0.9130 0.9150 0.9150
774.962117 0.9150 0.9150 0.9150 0.9160 0.9160
781.382694 0.9160 0.9160 0.9160 0.9160 0.9180
787.803272 0.9180 0.9200 0.9210 0.9210 0.9210
794.223850 0.9210 0.9210 0.9230 0.9260 0.9280
800.644428 0.9280 0.9280 0.9280 0.9280 0.9280
807.065006 0.9280 0.9290 0.9320 0.9320 0.9320
813.485584 0.9320 0.9320 0.9320 0.9340 0.9340
819.906162 0.9340 0.9340 0.9340 0.9360 0.9360
826.326739 0.9370 0.9370 0.9370 0.9370 0.9360
832.747317 0.9360 0.9360 0.9360 0.9360 0.9340
839.167895 0.9340 0.9340 0.9340 0.9320 0.9320
845.588473 0.9320 0.9310 0.9310 0.9280 0.9280
852.009051 0.9260 0.9240 0.9240 0.9240 0.9240
858.429629 0.9210 0.9200 0.9180 0.9160 0.9150
864.850206 0.9130 0.9130 0.9100 0.9050 0.9020
871.270784 0.8960 0.8920 0.8890 0.8860 0.8830
877.691362 0.8800 0.8760 0.8720 0.8690 0.8571
884.111940 0.8410 0.8330 0.8270 0.8170 0.7980
890.532518 0.7630 0.7520 0.7261 0.6822 0.6541
896.953096 0.6069 0.5509 0.4949 0.4360 0.3840
903.373674 0.3141 0.2821 0.2471 0.2101 0.1751
909.794251 0.1380 0.1381 0.1670 0.1940 0.2230
916.214829 0.2500 0.2789 0.3059 0.3299 0.5302
922.635407 0.6032 0.6831 0.7440 0.7790 0.8000
929.055985 0.8250 0.8490 0.8540 0.8650 0.8690
935.476563 0.8730 0.8750 0.8800 0.8840 0.8920
941.897141 0.8940 0.8970 0.9020 0.9050 0.9050
948.317718 0.9070 0.9100 0.9130 0.9130 0.9150
954.738296 0.9150 0.9150 0.9150 0.9150 0.9150
961.158874 0.9160 0.9160 0.9160 0.9160 0.9160
967.579452 0.9180 0.9200 0.9200 0.9200 0.9200
974.000030 0.9200 0.9200 0.9180 0.9180 0.9160
980.420608 0.9130 0.9100 0.9050 0.9040 0.9020
986.841185 0.9000 0.8990 0.8970 0.8960 0.8940
993.261763 0.8920 0.8830 0.8780 0.8750 0.8700
999.682341 0.8650 0.8590 0.8490 0.8380 0.8320
1006.102919 0.8170 0.8000 0.7930 0.7711 0.7581
1012.523497 0.7500 0.7330 0.7200 0.7180 0.7200
1018.944075 0.7330 0.7500 0.7819 0.7950 0.8050
1025.364653 0.8220 0.8350 0.8400 0.8540 0.8720
1031.785230 0.8730 0.8750 0.8780 0.8800 0.8810
1038.205808 0.8810 0.8830 0.8840 0.8860 0.8860
1044.626386 0.8880 0.8880 0.8890 0.8890 0.8890
1051.046964 0.8910 0.8910 0.8910 0.8910 0.8910
1057.467542 0.8910 0.8910 0.8910 0.8910 0.8890
1063.888120 0.8880 0.8880 0.8860 0.8860 0.8860
1070.308697 0.8840 0.8840 0.8830 0.8810 0.8810
1076.729275 0.8810 0.8800 0.8780 0.8760 0.8750
1083.149853 0.8720 0.8720 0.8690 0.8690 0.8690
1089.570431 0.8650 0.8640 0.8620 0.8610 0.8590
1095.991009 0.8570 0.8510 0.8450 0.8380 0.8330
1102.411587 0.8270 0.8250 0.8220 0.8190 0.8190
1108.832164 0.8140 0.8060 0.7930 0.7790 0.7660
1115.252742 0.7530 0.7490 0.7470 0.7280 0.7200
1121.673320 0.6960 0.6830 0.6770 0.6610 0.6351
1128.093898 0.6179 0.5759 0.5389 0.5000 0.4770
1134.514476 0.4640 0.4470 0.4470 0.4500 0.4610
1140.935054 0.4681 0.5030 0.5070 0.5150 0.5190
1147.355632 0.5200 0.5170 0.5120 0.5060 0.5010
1153.776209 0.4899 0.4710 0.4580 0.4560 0.4400
1160.196787 0.4260 0.4080 0.3940 0.3810 0.3641
1166.617365 0.3540 0.3480 0.3450 0.3240 0.3090
1173.037943 0.3010 0.2890 0.2760 0.2650 0.2520
1179.458521 0.2460 0.2410 0.2330 0.2310 0.2310
1185.879099 0.2310 0.2310 0.2310 0.2310 0.2300
1192.299676 0.2280 0.2230 0.2140 0.2100 0.2090
1198.720254 0.1960 0.1880 0.1800 0.1740 0.1740
1205.140832 0.1820 0.1911 0.2141 0.2441 0.3031
1211.561410 0.3910 0.4210 0.4560 0.5039 0.5509
1217.981988 0.5750 0.5890 0.5950 0.6000 0.6000
1224.402566 0.5990 0.5950 0.5920 0.5750 0.5601
1230.823144 0.5509 0.5310 0.5280 0.5300 0.5380
1237.243721 0.5430 0.5490 0.5760 0.6229 0.6928
1243.664299 0.7171 0.7331 0.7660 0.7770 0.7920
1250.084877 0.8110 0.8240 0.8300 0.8330 0.8380
1256.505455 0.8430 0.8450 0.8460 0.8530 0.8530
1262.926033 0.8540 0.8540 0.8560 0.8570 0.8570
1269.346611 0.8590 0.8590 0.8590 0.8590 0.8590
1275.767188 0.8590 0.8590 0.8590 0.8590 0.8590
1282.187766 0.8570 0.8570 0.8560 0.8540 0.8530
1288.608344 0.8530 0.8510 0.8490 0.8480 0.8430
1295.028922 0.8380 0.8330 0.8290 0.8110 0.7950
1301.449500 0.7770 0.7610 0.7440 0.7280 0.7120
1307.870078 0.7010 0.6940 0.6830 0.6700 0.6640
1314.290655 0.6580 0.6370 0.6320 0.6260 0.6080
1320.711233 0.5919 0.5590 0.5510 0.5360 0.5200
1327.131811 0.5150 0.5150 0.5200 0.5280 0.5390
1333.552389 0.5490 0.5510 0.5510 0.5490 0.5460
1339.972967 0.5430 0.5380 0.5330 0.5140 0.5010
1346.393545 0.4850 0.4769 0.4519 0.4209 0.3880
1352.814123 0.3570 0.3450 0.3050 0.2631 0.2261
1359.234700 0.2038 0.1638 0.1048 0.0410 0.0380
1365.655278 0.0390 0.0540 0.0650 0.0760 0.0870
1372.075856 0.0972 0.1380 0.1400 0.1530 0.1580
1378.496434 0.1610 0.1690 0.1820 0.2040 0.2259
1384.917012 0.2651 0.2951 0.3411 0.3641 0.4080
1391.337590 0.4390 0.4800 0.5010 0.5140 0.5300
1397.758167 0.5440 0.5511 0.5730 0.5910 0.6050
1404.178745 0.6100 0.6130 0.6300 0.6400 0.6510
1410.599323 0.6580 0.6670 0.6720 0.6770 0.6820
1417.019901 0.6930 0.6960 0.7010 0.7020 0.7040
1423.440479 0.7040 0.7020 0.7020 0.7010 0.7010
1429.861057 0.6980 0.6960 0.6910 0.6830 0.6800
1436.281634 0.6780 0.6770 0.6750 0.6740 0.6700
1442.702212 0.6690 0.6660 0.6640 0.6620 0.6480
1449.122790 0.6400 0.6320 0.6190 0.6180 0.6080
1455.543368 0.6050 0.6030 0.5860 0.5510 0.5061
1461.963946 0.4629 0.4359 0.4069 0.3779 0.3490
1468.384524 0.3210 0.2920 0.2920 0.3170 0.3430
1474.805102 0.3565 0.4602 0.5121 0.5392 0.5971
1481.225679 0.6450 0.6530 0.6670 0.6850 0.6860
1487.646257 0.6961 0.7100 0.7200 0.7300 0.7380
1494.066835 0.7520 0.7550 0.7610 0.7770 0.7870
1500.487413 0.7970 0.8010 0.8060 0.8140 0.8210
1506.907991 0.8250 0.8330 0.8410 0.8490 0.8560
1513.328569 0.8590 0.8610 0.8620 0.8650 0.8690
1519.749146 0.8720 0.8730 0.8750 0.8750 0.8750
1526.169724 0.8750 0.8760 0.8760 0.8780 0.8780
1532.590302 0.8780 0.8800 0.8810 0.8830 0.8840
1539.010880 0.8860 0.8860 0.8860 0.8860 0.8840
1545.431458 0.8840 0.8840 0.8840 0.8830 0.8830
1551.852036 0.8830 0.8830 0.8830 0.8830 0.8830
1558.272614 0.8830 0.8830 0.8830 0.8830 0.8830
1564.693191 0.8810 0.8800 0.8800 0.8810 0.8810
1571.113769 0.8810 0.8810 0.8800 0.8800 0.8800
1577.534347 0.8800 0.8810 0.8810 0.8800 0.8800
1583.954925 0.8800 0.8800 0.8800 0.8800 0.8780
1590.375503 0.8760 0.8750 0.8730 0.8700 0.8690
1596.796081 0.8690 0.8670 0.8670 0.8650 0.8620
1603.216658 0.8610 0.8590 0.8570 0.8540 0.8530
1609.637236 0.8490 0.8450 0.8430 0.8380 0.8350
1616.057814 0.8330 0.8330 0.8330 0.8320 0.8320
1622.478392 0.8300 0.8300 0.8290 0.8290 0.8290
1628.898970 0.8270 0.8270 0.8290 0.8300 0.8320
1635.319548 0.8320 0.8330 0.8330 0.8330 0.8320
1641.740125 0.8320 0.8330 0.8330 0.8330 0.8320
1648.160703 0.8300 0.8290 0.8270 0.8250 0.8240
1654.581281 0.8240 0.8240 0.8250 0.8300 0.8330
1661.001859 0.8370 0.8380 0.8400 0.8410 0.8430
1667.422437 0.8460 0.8530 0.8540 0.8570 0.8620
1673.843015 0.8620 0.8650 0.8650 0.8650 0.8670
1680.263593 0.8700 0.8730 0.8750 0.8750 0.8750
1686.684170 0.8760 0.8780 0.8800 0.8810 0.8830
1693.104748 0.8840 0.8840 0.8830 0.8830 0.8810
1699.525326 0.8810 0.8810 0.8810 0.8810 0.8810
1705.945904 0.8830 0.8830 0.8830 0.8830 0.8830
1712.366482 0.8830 0.8830 0.8830 0.8830 0.8840
1718.787060 0.8840 0.8840 0.8860 0.8860 0.8860
1725.207637 0.8860 0.8860 0.8860 0.8860 0.8880
1731.628215 0.8890 0.8890 0.8890 0.8890 0.8890
1738.048793 0.8910 0.8910 0.8910 0.8910 0.8910
1744.469371 0.8920 0.8920 0.8920 0.8920 0.8920
1750.889949 0.8920 0.8920 0.8920 0.8940 0.8940
1757.310527 0.8940 0.8940 0.8940 0.8940 0.8920
1763.731104 0.8920 0.8920 0.8920 0.8920 0.8920
1770.151682 0.8940 0.8960 0.8960 0.8940 0.8940
1776.572260 0.8940 0.8940 0.8940 0.8960 0.8960
1782.992838 0.8960 0.8960 0.8940 0.8940 0.8940
1789.413416 0.8920 0.8920 0.8910 0.8910 0.8880
1795.833994 0.8880 0.8860 0.8840 0.8840 0.8830
1802.254572 0.8830 0.8810 0.8810 0.8800 0.8760
1808.675149 0.8750 0.8720 0.8700 0.8670 0.8650
1815.095727 0.8650 0.8640 0.8640 0.8640 0.8650
1821.516305 0.8650 0.8670 0.8690 0.8720 0.8730
1827.936883 0.8750 0.8750 0.8760 0.8780 0.8780
1834.357461 0.8800 0.8810 0.8830 0.8840 0.8880
1840.778039 0.8890 0.8910 0.8910 0.8920 0.8920
1847.198616 0.8920 0.8920 0.8940 0.8940 0.8940
1853.619194 0.8940 0.8920 0.8920 0.8920 0.8920
1860.039772 0.8940 0.8940 0.8940 0.8960 0.8960
1866.460350 0.8940 0.8940 0.8940 0.8940 0.8940
1872.880928 0.8920 0.8940 0.8940 0.8940 0.8940
1879.301506 0.8940 0.8940 0.8940 0.8940 0.8940
1885.722083 0.8940 0.8940 0.8940 0.8940 0.8940
1892.142661 0.8960 0.8970 0.8970 0.8990 0.8990
1898.563239 0.8990 0.8990 0.8990 0.8970 0.8970
1904.983817 0.8970 0.8970 0.8990 0.8990 0.8990
1911.404395 0.8990 0.8990 0.8990 0.8990 0.8990
1917.824973 0.8990 0.8970 0.8970 0.8970 0.8960
1924.245551 0.8960 0.8960 0.8960 0.8940 0.8940
1930.666128 0.8940 0.8940 0.8960 0.8960 0.8970
1937.086706 0.8970 0.8990 0.8990 0.8990 0.8990
1943.507284 0.8990 0.8990 0.8990 0.8990 0.8990
1949.927862 0.8990 0.8970 0.8970 0.8970 0.8970
1956.348440 0.8970 0.8960 0.8960 0.8960 0.8960
1962.769018 0.8970 0.8990 0.8990 0.8990 0.8990
1969.189595 0.8990 0.8990 0.8990 0.8990 0.8990
1975.610173 0.8990 0.8990 0.8990 0.8990 0.9000
1982.030751 0.9000 0.9040 0.9040 0.9040 0.9040
1988.451329 0.9020 0.9020 0.9020 0.9040 0.9040
1994.871907 0.9040 0.9040 0.9050 0.9050 0.9050
2001.292485 0.9050 0.9050 0.9060 0.9070 0.9070
2007.713063 0.9070 0.9070 0.9070 0.9070 0.9070
2014.133640 0.9060 0.9050 0.9050 0.9050 0.9050
2020.554218 0.9050 0.9050 0.9050 0.9050 0.9050
2026.974796 0.9050 0.9050 0.9045 0.9040 0.9030
2033.395374 0.9020 0.9020 0.9020 0.9010 0.9000
2039.815952 0.8995 0.8990 0.8990 0.8990 0.8990
2046.236530 0.8990 0.8990 0.8990 0.8990 0.8990
2052.657107 0.8990 0.8990 0.8990 0.8990 0.8990
2059.077685 0.8990 0.8990 0.8990 0.8980 0.8970
2065.498263 0.8970 0.8970 0.8970 0.8970 0.8970
2071.918841 0.8970 0.8970 0.8970 0.8970 0.8970
2078.339419 0.8965 0.8960 0.8960 0.8960 0.8950
2084.759997 0.8940 0.8925 0.8910 0.8900 0.8890
2091.180574 0.8885 0.8880 0.8870 0.8860 0.8850
2097.601152 0.8840 0.8835 0.8830 0.8815 0.8800
2104.021730 0.8800 0.8800 0.8790 0.8780 0.8780
2110.442308 0.8780 0.8790 0.8800 0.8815 0.8830
2116.862886 0.8830 0.8830 0.8845 0.8860 0.8870
2123.283464 0.8880 0.8880 0.8880 0.8895 0.8910
2129.704042 0.8910 0.8910 0.8910 0.8910 0.8910
2136.124619 0.8910 0.8925 0.8940 0.8940 0.8940
2142.545197 0.8940 0.8940 0.8940 0.8940 0.8940
2148.965775 0.8940 0.8940 0.8940 0.8930 0.8920
2155.386353 0.8915 0.8910 0.8910 0.8910 0.8910
2161.806931 0.8910 0.8910 0.8910 0.8915 0.8920
2168.227509 0.8930 0.8940 0.8940 0.8940 0.8940
2174.648086 0.8940 0.8940 0.8940 0.8940 0.8940
2181.068664 0.8940 0.8940 0.8925 0.8910 0.8910
2187.489242 0.8910 0.8910 0.8910 0.8910 0.8910
2193.909820 0.8910 0.8910 0.8910 0.8910 0.8910
2200.330398 0.8910 0.8910 0.8910 0.8910 0.8910
2206.750976 0.8910 0.8910 0.8910 0.8910 0.8910
2213.171553 0.8910 0.8910 0.8910 0.8910 0.8910
2219.592131 0.8915 0.8920 0.8920 0.8920 0.8920
2226.012709 0.8920 0.8920 0.8920 0.8920 0.8920
2232.433287 0.8915 0.8910 0.8910 0.8910 0.8910
2238.853865 0.8910 0.8910 0.8910 0.8910 0.8910
2245.274443 0.8900 0.8890 0.8885 0.8880 0.8870
2251.695021 0.8860 0.8850 0.8840 0.8820 0.8800
2258.115598 0.8765 0.8730 0.8725 0.8720 0.8710
2264.536176 0.8700 0.8700 0.8700 0.8700 0.8700
2270.956754 0.8700 0.8700 0.8710 0.8720 0.8725
2277.377332 0.8730 0.8745 0.8760 0.8795 0.8830
2283.797910 0.8830 0.8830 0.8835 0.8840 0.8850
2290.218488 0.8860 0.8860 0.8860 0.8860 0.8860
2296.639065 0.8870 0.8880 0.8885 0.8890 0.8890
2303.059643 0.8890 0.8890 0.8890 0.8890 0.8890
2309.480221 0.8890 0.8890 0.8890 0.8890 0.8885
2315.900799 0.8880 0.8870 0.8860 0.8860 0.8860
2322.321377 0.8860 0.8860 0.8850 0.8840 0.8835
2328.741955 0.8830 0.8830 0.8830 0.8830 0.8830
2335.162533 0.8820 0.8810 0.8810 0.8810 0.8805
2341.583110 0.8800 0.8800 0.8800 0.8790 0.8780
2348.003688 0.8780 0.8780 0.8770 0.8760 0.8760
2354.424266 0.8760 0.8755 0.8750 0.8750 0.8750
2360.844844 0.8740 0.8730 0.8730 0.8730 0.8725
2367.265422 0.8720 0.8710 0.8700 0.8695 0.8690
2373.686000 0.8690 0.8690 0.8680 0.8670 0.8670
2380.106577 0.8670 0.8680 0.8690 0.8695 0.8700
2386.527155 0.8700 0.8700 0.8710 0.8720 0.8725
2392.947733 0.8730 0.8730 0.8730 0.8740 0.8750
2399.368311 0.8750 0.8750 0.8755 0.8760 0.8760
2405.788889 0.8760 0.8760 0.8760 0.8770 0.8780
2412.209467 0.8780 0.8780 0.8790 0.8800 0.8800
2418.630044 0.8800 0.8800 0.8800 0.8805 0.8810
2425.050622 0.8810 0.8810 0.8810 0.8810 0.8805
2431.471200 0.8800 0.8800 0.8800 0.8800 0.8800
2437.891778 0.8800 0.8800 0.8790 0.8780 0.8780
2444.312356 0.8780 0.8770 0.8760 0.8760 0.8760
2450.732934 0.8760 0.8760 0.8760 0.8760 0.8755
2457.153512 0.8750 0.8750 0.8750 0.8750 0.8750
2463.574089 0.8750 0.8750 0.8740 0.8730 0.8730
2469.994667 0.8730 0.8730 0.8730 0.8740 0.8750
2476.415245 0.8750 0.8750 0.8735 0.8720 0.8705
2482.835823 0.8690 0.8680 0.8670 0.8660 0.8650
2489.256401 0.8645 0.8640 0.8630 0.8620 0.8615
2495.676979 0.8610 0.8610 0.8610 0.8600 0.8590
2502.097556 0.8590 0.8590 0.8580 0.8570 0.8565
2508.518134 0.8560 0.8550 0.8540 0.8525 0.8510
2514.938712 0.8500 0.8490 0.8485 0.8480 0.8480
2521.359290 0.8480 0.8455 0.8430 0.8420 0.8410
2527.779868 0.8395 0.8380 0.8365 0.8350 0.8350
2534.200446 0.8350 0.8340 0.8330 0.8330 0.8330
2540.621023 0.8325 0.8320 0.8320 0.8320 0.8320
2547.041601 0.8320 0.8320 0.8320 0.8320 0.8320
2553.462179 0.8320 0.8320 0.8320 0.8320 0.8320
2559.882757 0.8320 0.8320 0.8320 0.8320 0.8320
2566.303335 0.8320 0.8320 0.8325 0.8330 0.8330
2572.723913 0.8330 0.8330 0.8330 0.8330 0.8330
2579.144491 0.8350 0.8370 0.8375 0.8380 0.8390
2585.565068 0.8400 0.8400 0.8400 0.8400 0.8400
2591.985646 0.8400 0.8400 0.8400 0.8400 0.8415
2598.406224 0.8430 0.8445 0.8460 0.8460 0.8460
2604.826802 0.8470 0.8480 0.8480 0.8480 0.8480
2611.247380 0.8480 0.8485 0.8490 0.8490 0.8490
2617.667958 0.8490 0.8490 0.8490 0.8490 0.8490
2624.088535 0.8490 0.8490 0.8490 0.8490 0.8490
2630.509113 0.8485 0.8480 0.8480 0.8480 0.8480
2636.929691 0.8480 0.8470 0.8460 0.8460 0.8460
2643.350269 0.8460 0.8460 0.8460 0.8460 0.8470
2649.770847 0.8480 0.8480 0.8480 0.8480 0.8480
2656.191425 0.8480 0.8480 0.8470 0.8460 0.8460
2662.612003 0.8460 0.8460 0.8460 0.8460 0.8460
2669.032580 0.8455 0.8450 0.8450 0.8450 0.8450
2675.453158 0.8450 0.8450 0.8450 0.8440 0.8430
2681.873736 0.8430 0.8430 0.8420 0.8410 0.8405
2688.294314 0.8400 0.8375 0.8350 0.8350 0.8350
2694.714892 0.8325 0.8300 0.8275 0.8250 0.8230
2701.135470 0.8210 0.8200 0.8190 0.8190 0.8190
2707.556047 0.8190 0.8190 0.8180 0.8170 0.8170
2713.976625 0.8170 0.8180 0.8190 0.8190 0.8190
2720.397203 0.8190 0.8190 0.8190 0.8190 0.8190
2726.817781 0.8190 0.8180 0.8170 0.8165 0.8160
2733.238359 0.8150 0.8140 0.8135 0.8130 0.8120
2739.658937 0.8110 0.8100 0.8090 0.8085 0.8080
2746.079514 0.8080 0.8080 0.8080 0.8080 0.8080
2752.500092 0.8080 0.8080 0.8080 0.8080 0.8080
2758.920670 0.8070 0.8060 0.8060 0.8060 0.8060
2765.341248 0.8060 0.8055 0.8050 0.8030 0.8010
2771.761826 0.8005 0.8000 0.7985 0.7970 0.7945
2778.182404 0.7920 0.7895 0.7870 0.7855 0.7840
2784.602982 0.7825 0.7810 0.7800 0.7790 0.7780
2791.023559 0.7770 0.7765 0.7760 0.7745 0.7730
2797.444137 0.7695 0.7660 0.7630 0.7600 0.7565
2803.864715 0.7530 0.7510 0.7490 0.7465 0.7440
2810.285293 0.7430 0.7420 0.7420 0.7420 0.7400
2816.705871 0.7380 0.7355 0.7330 0.7315 0.7300
2823.126449 0.7275 0.7250 0.7210 0.7170 0.7130
2829.547026 0.7090 0.7080 0.7070 0.7070 0.7070
2835.967604 0.7040 0.7010 0.6970 0.6930 0.6836
2842.388182 0.6741 0.6681 0.6621 0.6495 0.6369
2848.808760 0.6289 0.6209 0.6079 0.5949 0.5785
2855.229338 0.5620 0.5315 0.5010 0.4890 0.4771
2861.649916 0.4566 0.4361 0.4162 0.3962 0.3841
2868.070493 0.3722 0.3720 0.3720 0.3805 0.3891
2874.491071 0.3996 0.4100 0.4125 0.4150 0.4150
2880.911649 0.4150 0.4110 0.4070 0.4030 0.3990
2887.332227 0.3990 0.3990 0.3955 0.3920 0.3915
2893.752805 0.3910 0.3836 0.3761 0.3705 0.3649
2900.173383 0.3569 0.3489 0.3394 0.3300 0.3230
2906.593961 0.3160 0.3150 0.3140 0.3150 0.3160
2913.014538 0.3190 0.3220 0.3230 0.3240 0.3225
2919.435116 0.3210 0.3136 0.3061 0.2950 0.2839
2925.855694 0.2709 0.2579 0.2439 0.2300 0.2200
2932.276272 0.2100 0.2100 0.2100 0.2135 0.2170
2938.696850 0.2185 0.2200 0.2215 0.2230 0.2245
2945.117428 0.2260 0.2240 0.2220 0.2180 0.2139
2951.538005 0.2049 0.1959 0.1784 0.1609 0.1339
2957.958583 0.1070 0.0885 0.0700 0.0381 0.0061
2964.379161 0.0045 0.0030 0.0020 0.0010 0.0010
2970.799739 0.0010 0.0010 0.0010 0.0010 0.0010
2977.220317 0.0020 0.0031 0.0166 0.0300 0.0380
2983.640895 0.0461 0.0930 0.1399 0.2003 0.2608
2990.061472 0.3097 0.3587 0.3947 0.4307 0.4720
2996.482050 0.5135 0.5520 0.5904 0.6090 0.6272
3002.902628 0.6482 0.6691 0.6796 0.6900 0.6995
3009.323206 0.7090 0.7160 0.7230 0.7295 0.7360
3015.743784 0.7415 0.7470 0.7539 0.7609 0.7699
3022.164362 0.7789 0.7815 0.7840 0.7845 0.7850
3028.584940 0.7870 0.7890 0.7910 0.7930 0.7950
3035.005517 0.7970 0.7990 0.8010 0.8030 0.8050
3041.426095 0.8065 0.8080 0.8085 0.8090 0.8100
3047.846673 0.8110 0.8110 0.8110 0.8120 0.8130
3054.267251 0.8130 0.8130 0.8130 0.8130 0.8130
3060.687829 0.8130 0.8130 0.8130 0.8130 0.8130
3067.108407 0.8110 0.8090 0.8090 0.8090 0.8085
3073.528984 0.8080 0.8070 0.8060 0.8045 0.8030
3079.949562 0.8030 0.8030 0.8020 0.8010 0.8005
3086.370140 0.8000 0.7990 0.7980 0.7975 0.7970
3092.790718 0.7960 0.7950 0.7940 0.7930 0.7925
3099.211296 0.7920 0.7910 0.7900 0.7885 0.7870
3105.631874 0.7840 0.7810 0.7800 0.7790 0.7775
3112.052452 0.7760 0.7745 0.7730 0.7720 0.7710
3118.473029 0.7685 0.7660 0.7655 0.7650 0.7640
3124.893607 0.7630 0.7620 0.7610 0.7590 0.7570
3131.314185 0.7550 0.7530 0.7515 0.7500 0.7455
3137.734763 0.7410 0.7375 0.7340 0.7295 0.7250
3144.155341 0.7215 0.7180 0.7165 0.7150 0.7125
3150.575919 0.7100 0.7095 0.7090 0.7050 0.7009
3156.996496 0.6929 0.6850 0.6810 0.6770 0.6755
3163.417074 0.6740 0.6715 0.6690 0.6650 0.6610
3169.837652 0.6600 0.6590 0.6550 0.6510 0.6470
3176.258230 0.6430 0.6386 0.6341 0.6315 0.6289
3182.678808 0.6224 0.6160 0.6155 0.6150 0.6125
3189.099386 0.6100 0.6075 0.6050 0.6025 0.6000
3195.519963 0.5970 0.5940 0.5900 0.5860 0.5806
3201.940541 0.5751 0.5691 0.5631 0.5615 0.5600
3208.361119 0.5560 0.5520 0.5495 0.5470 0.5450
3214.781697 0.5430 0.5350 0.5270 0.5245 0.5220
3221.202275 0.5170 0.5120 0.5075 0.5030 0.5005
3227.622853 0.4980 0.4941 0.4901 0.4835 0.4770
3234.043431 0.4745 0.4719 0.4660 0.4600 0.4550
3240.464008 0.4500 0.4470 0.4440 0.4420 0.4400
3246.884586 0.4345 0.4290 0.4235 0.4180 0.4165
3253.305164 0.4150 0.4125 0.4100 0.3990 0.3880
3259.725742 0.3840 0.3800 0.3775 0.3750 0.3685
3266.146320 0.3620 0.3590 0.3560 0.3505 0.3450
3272.566898 0.3375 0.3300 0.3260 0.3220 0.3141
3278.987475 0.3061 0.2996 0.2931 0.2910 0.2889
3285.408053 0.2809 0.2729 0.2670 0.2610 0.2555
3291.828631 0.2500 0.2445 0.2390 0.2335 0.2280
3298.249209 0.2240 0.2200 0.2175 0.2150 0.2086
3304.669787 0.2021 0.1981 0.1941 0.1885 0.1830
3311.090365 0.1815 0.1800 0.1770 0.1740 0.1705
3317.510942 0.1670 0.1630 0.1590 0.1575 0.1560
3323.931520 0.1520 0.1480 0.1465 0.1450 0.1440
3330.352098 0.1430 0.1415 0.1400 0.1385 0.1370
3336.772676 0.1355 0.1340 0.1330 0.1320 0.1310
3343.193254 0.1300 0.1295 0.1290 0.1280 0.1270
3349.613832 0.1265 0.1260 0.1250 0.1240 0.1240
3356.034410 0.1240 0.1240 0.1240 0.1240 0.1240
3362.454987 0.1240 0.1240 0.1250 0.1260 0.1260
3368.875565 0.1260 0.1265 0.1270 0.1280 0.1290
3375.296143 0.1295 0.1300 0.1310 0.1320 0.1330
3381.716721 0.1340 0.1345 0.1350 0.1365 0.1380
3388.137299 0.1400 0.1420 0.1425 0.1430 0.1440
3394.557877 0.1450 0.1480 0.1510 0.1535 0.1560
3400.978454 0.1575 0.1590 0.1615 0.1640 0.1650
3407.399032 0.1660 0.1680 0.1700 0.1720 0.1740
3413.819610 0.1770 0.1800 0.1810 0.1820 0.1860
3420.240188 0.1900 0.1945 0.1990 0.1990 0.1990
3426.660766 0.2030 0.2070 0.2080 0.2090 0.2130
3433.081344 0.2170 0.2175 0.2180 0.2240 0.2300
3439.501922 0.2315 0.2330 0.2375 0.2420 0.2420
3445.922499 0.2420 0.2455 0.2490 0.2530 0.2570
3452.343077 0.2600 0.2630 0.2645 0.2660 0.2714
3458.763655 0.2769 0.2829 0.2889 0.2935 0.2980
3465.184233 0.3005 0.3030 0.3055 0.3080 0.3110
3471.604811 0.3140 0.3165 0.3190 0.3245 0.3300
3478.025389 0.3340 0.3380 0.3435 0.3490 0.3549
3484.445966 0.3609 0.3650 0.3689 0.3705 0.3720
3490.866544 0.3760 0.3801 0.3871 0.3940 0.4010
3497.287122 0.4080 0.4155 0.4230 0.4315 0.4400
3503.707700 0.4425 0.4450 0.4515 0.4579 0.4634
3510.128278 0.4689 0.4779 0.4869 0.4925 0.4981
3516.548856 0.5091 0.5201 0.5281 0.5361 0.5455
3522.969433 0.5550 0.5640 0.5730 0.5800 0.5870
3529.390011 0.5935 0.6000 0.6050 0.6100 0.6194
3535.810589 0.6289 0.6369 0.6449 0.6530 0.6611
3542.231167 0.6676 0.6740 0.6785 0.6830 0.6880
3548.651745 0.6930 0.6960 0.6990 0.7085 0.7180
3555.072323 0.7200 0.7220 0.7304 0.7389 0.7430
3561.492901 0.7470 0.7485 0.7500 0.7550 0.7600
3567.913478 0.7615 0.7631 0.7685 0.7740 0.7780
3574.334056 0.7820 0.7875 0.7930 0.7930 0.7930
3580.754634 0.7925 0.7920 0.7840 0.7761 0.7720
3587.175212 0.7680 0.7640 0.7601 0.7480 0.7360
3593.595790 0.7350 0.7338 0.7118 0.6899 0.6779
3600.016368 0.6660 0.6555 0.6450 0.6300 0.6150
3606.436945 0.5970 0.5791 0.5626 0.5461 0.5286
3612.857523 0.5112 0.5110 0.5110 0.5395 0.5688
3619.278101 0.6302 0.6914 0.7298 0.7681 0.7806
3625.698679 0.7930 0.7955 0.7980 0.8085 0.8190
3632.119257 0.8215 0.8240 0.8285 0.8330 0.8380
3638.539835 0.8429 0.8455 0.8480 0.8510 0.8540
3644.960412 0.8540 0.8540 0.8535 0.8530 0.8520
3651.380990 0.8510 0.8500 0.8490 0.8460 0.8430
3657.801568 0.8400 0.8370 0.8360 0.8350 0.8340
3664.222146 0.8330 0.8251 0.8171 0.8150 0.8129
3670.642724 0.8014 0.7900 0.7900 0.7900 0.7965
3677.063302 0.8030 0.8100 0.8170 0.8275 0.8380
3683.483880 0.8470 0.8560 0.8585 0.8610 0.8655
3689.904457 0.8700 0.8710 0.8720 0.8760 0.8800
3696.325035 0.8820 0.8840 0.8865 0.8890 0.8905
3702.745613 0.8920 0.8920 0.8920 0.8930 0.8940
3709.166191 0.8940 0.8940 0.8940 0.8940 0.8940
3715.586769 0.8940 0.8940 0.8940 0.8950 0.8960
3722.007347 0.8965 0.8970 0.8980 0.8990 0.8995
3728.427924 0.9000 0.9000 0.9000 0.9020 0.9040
3734.848502 0.9040 0.9040 0.9045 0.9050 0.9060
3741.269080 0.9070 0.9070 0.9070 0.9070 0.9070
3747.689658 0.9055 0.9040 0.9030 0.9020 0.9020
3754.110236 0.9020 0.9020 0.9020 0.9020 0.9020
3760.530814 0.9010 0.9000 0.9000 0.9000 0.9000
3766.951392 0.9000 0.8995 0.8990 0.8990 0.8990
3773.371969 0.8990 0.8990 0.8980 0.8970 0.8970
3779.792547 0.8970 0.8970 0.8970 0.8980 0.8990
3786.213125 0.8995 0.9000 0.9010 0.9020 0.9030
3792.633703 0.9040 0.9045 0.9050
##END=
