##TITLE=Carbon Tetrafluoride
##JCAMP-DX=4.24
##DATA TYPE=INFRARED SPECTRUM
##CLASS=IUPAC A
##ORIGIN=NIST, Analytical Chemistry Division, 301-975-3108
##OWNER=COPYRIGHT (C) 2000 by the U.S. Secretary of Commerce
##DATE=00/02/01
##$SPECTRA VERSION=1.10
##$UNCERTAINTY IN Y=2.2 % relative (B=1.3E-04,C=6.1E-07,D=3.6E-09)
##CAS NAME=Carbon tetrafluoride
##CAS REGISTRY NO=75-73-0
##MOLFORM=C F4
##MP=-150 C
##BP=-129 C
##$NIST SOURCE=QUANT-IR
##SPECTROMETER/DATA SYSTEM=IFS66V (Bruker)
##INSTRUMENT PARAMETERS=KBr Beam Splitter; MCT Detector; Multipass cell
##STATE=gas
##SAMPLE DESCRIPTION=Carbon Tetrafluoride Primary Gas Standard
##PRESSURE=101.3 Pa
##TEMPERATURE=23 C
##SAMPLING PROCEDURE=1 L/min Flow
##RESOLUTION=0.9640
##DATA PROCESSING=3-Term B-H Apodization
##XUNITS=cm-1
##YUNITS=(micromol/mol)-1m-1 (base 10)
##XFACTOR=1.0
##YFACTOR=5.8207E-11
##DELTAX=0.4820
##FIRSTX=575.168
##LASTX=3974.592
##FIRSTY=-.0000849
##MAXX=3974.11
##MINX=575.17
##MAXY=.037262
##MINY=-.000235
##NPOINTS=7052
##XYDATA=(X++(Y..Y))
575.17-1458765-924477-568632-464557-669081-1068133
577.58-881000-625786-1276897-2004479-2197642-2078244
580.47-1880880-1512134-744316-182121-26581-38206
583.36-226410-124871 598400 1045664 685206-27304
586.26-451940-526975-969652-1494595-1017398-314706
589.15-443962-856511-905415-603892-425461-270684
592.04-289420-674795-751294-631798-595945-519176
594.93-647161-897192-1102473-1176551-779307-541248
597.83-744924-766088-428793-212221-386479-467125
600.72-265660-153756-402327-755264-689803-359332
603.61-141562-122637-313642-430165-50411 325390
606.51-27527-514754-490568-190231-81473-171077
609.40-246956-322151-260050-93749-77326-218086
612.29-268597-263296-217284-32105 10636-104512
615.18-131886-180039-308018-505800-626835-448178
618.08-161697-77877-95023-266696-540417-564071
620.97-371071-353145-420747-502694-690076-878590
623.86-901056-751392-663714-671181-656139-698919
626.75-661426-521964-423333-413156-298600 16586
629.65 770067 3826305 7756484 6169398 1497332-536764
632.54-825833-832354-815992-764454-733705-719383
635.43-570633-457188-538149-458142-237928-237880
638.33-428991-556067-505973-539316-618463-367985
641.22-21737 36825-139022-174177-33576-126048
644.11-263419-107150 28182-4377-32152-36699
647.00-14948 242947 490305 313941 80693 56910
649.90 4197-150274-232582-145481 45283 81384
652.79-5401-26432-85719-131369-155909-106473
655.68 39018 118976 83987-22716-187619-395639
658.57-529456-631146-689184-640396-492863-435906
661.47-567707-698829-630693-438069-329155-392791
664.36-484567-405785-332414-470503-685436-756533
667.25-564836-458435-550551-520813-471852-518571
670.15-486329-506222-622215-683092-763706-813411
673.04-741948-731616-724806-661463-743917-794117
675.93-742101-785228-771081-698524-717186-667737
678.82-516248-487966-613037-683058-683721-744158
681.72-806879-760602-648855-732510-937117-886280
684.61-648504-566304-654049-784375-795284-695669
687.50-767411-948713-875215-629043-475599-549297
690.39-723311-770323-715193-638045-532802-510724
693.29-610585-713456-737292-648777-631538-743323
696.18-714859-579801-543371-578834-626503-657266
699.07-572450-461833-483636-627418-696750-590440
701.97-477902-569099-747061-754795-580969-360213
704.86-268131-283657-312972-434343-605091-700923
707.75-754109-726521-491820-301193-434153-652701
710.64-633272-578030-611655-661994-670587-583436
713.54-445331-356032-385701-433114-370735-386918
716.43-497653-518932-540930-649253-739936-755109
719.32-587726-411142-430685-489612-451358-387235
722.21-396521-352657-303781-390514-487207-476121
725.11-420497-456456-499856-509222-505954-505968
728.00-527053-510906-410299-373588-511199-653545
730.89-584929-491195-509115-520903-495797-441808
733.79-403113-372717-317655-344633-460149-514309
736.68-516904-512485-387539-300024-418013-560664
739.57-534418-459809-393469-383909-462157-472263
742.46-411230-443398-600675-589034-355929-313381
745.36-511686-603042-602686-624192-579780-521499
748.25-497464-494272-465219-412540-443554-557858
751.14-635482-659984-623038-518066-448166-498019
754.03-526144-407810-279398-278583-363037-439632
756.93-468811-451610-455580-524882-594480-629270
759.82-600912-514272-481156-473163-414341-396188
762.71-474774-640574-746791-722137-611476-495470
765.61-451072-460973-500568-535953-529418-566066
768.50-542557-468841-504181-624342-709809-668027
771.39-558786-514516-550691-556492-483416-435761
774.28-455517-504424-562014-623908-651934-609953
777.18-523530-539353-621455-646543-645496-637855
780.07-632631-655348-673642-629842-583522-639681
782.96-635450-583648-623916-684728-698135-648358
785.85-598286-643239-692533-640865-584454-657400
788.75-750229-727025-661820-630867-626845-640300
791.64-568715-466072-470144-532094-554323-567683
794.53-583807-581708-563418-595839-684168-785092
797.43-773146-628914-576999-619365-592862-542753
800.32-528839-579875-675185-689992-559361-407542
803.21-401547-539393-640011-698143-810941-816501
806.10-619125-467357-464684-580936-705290-650393
809.00-517583-572435-665908-670190-661562-653696
811.89-656512-653647-535884-344857-260516-469321
814.78-806718-879839-710303-595738-581141-587401
817.67-640222-669996-539043-424404-528449-729817
820.57-771352-639708-509497-434282-415592-520925
823.46-609853-541623-431657-439508-489598-501600
826.35-543568-590546-657259-754022-741136-702441
829.24-742789-725402-637570-637333-664263-569373
832.14-412825-389267-494702-634573-814573-892829
835.03-703918-508594-518333-593499-656074-573937
837.92-419457-477876-636339-716778-743948-775753
840.82-810639-791477-665086-565773-639659-696259
843.71-610843-553824-577270-615035-664221-693402
846.60-637653-594532-550135-403509-297605-440016
849.49-616519-593096-527743-563396-614646-597961
852.39-532115-509333-524414-593793-688536-699604
855.28-607427-545164-503954-514641-585164-652281
858.17-662276-581708-455846-380752-354892-379974
861.06-403359-410025-505459-634802-641102-594160
863.96-568281-521828-421352-357129-424158-604317
866.85-673038-503763-331077-356356-461018-543272
869.74-564842-509080-528685-635456-673430-656831
872.64-623088-656970-703491-652698-568245-505897
875.53-432787-387591-388700-415248-437895-437355
878.42-433666-479299-510301-488352-512378-548749
881.31-503614-511340-542322-517295-484529-535238
884.21-600293-506330-417994-470184-517917-561406
887.10-616003-654536-604541-565637-556823-538264
889.99-575391-526601-410709-489536-559514-490638
892.88-535919-633778-656870-624822-481066-370948
895.78-393059-453939-536064-666994-747554-728710
898.67-697925-709721-657887-569307-527030-527850
901.56-550049-611624-688501-737620-672235-530292
904.46-555845-733534-782374-647928-543589-566576
907.35-611528-570931-503656-505712-520070-494828
910.24-460159-449751-447947-501806-577058-644288
913.13-628865-584840-585549-546862-529747-618958
916.03-663205-680117-678078-605026-488971-448366
918.92-549599-649502-617917-541228-552247-607549
921.81-598043-565157-567917-567003-490290-413471
924.70-451967-522761-477389-445275-514654-558970
927.60-540788-517421-522839-554619-568970-559451
930.49-538289-557413-554800-501891-510650-525101
933.38-452188-431290-462069-470673-531979-640584
936.28-638668-550908-520332-494801-466644-575096
939.17-668730-665212-628336-569648-543648-581951
942.06-590364-543039-509333-476949-413490-448740
944.95-529495-514060-502840-545226-554187-511265
947.85-445414-460831-526066-586231-607108-545762
950.74-495005-542729-590165-596118-560939-490381
953.63-450304-465737-483587-498727-471503-495671
956.52-604495-671984-657187-569496-494942-487940
959.42-489662-498566-473103-469248-506069-460551
962.31-387011-463523-588891-601020-537850-498303
965.20-503336-527214-513669-519787-533067-581876
968.10-633099-598220-504997-446420-412624-418321
970.99-471737-512541-582138-632602-557933-454168
973.88-394213-428822-580782-740521-728385-583097
976.77-562327-637446-621984-602409-595128-586364
979.67-511198-437970-467440-483243-458986-466875
982.56-481128-538217-632678-727825-741821-671165
985.45-626823-596368-527903-497326-477975-514109
988.34-578041-543864-461298-495036-596823-611812
991.24-563818-553561-552528-512694-434745-469901
994.13-550424-584244-601829-612250-605846-638243
997.02-671569-594158-465670-408856-411714-438005
999.92-416285-420028-533000-623585-594891-554294
1002.81-528216-556165-609084-622712-564613-525730
1005.70-517205-533157-590395-589258-536083-510641
1008.59-485779-498969-536460-563143-573065-578712
1011.49-613882-661156-612830-550961-532089-544186
1014.38-565568-594439-626106-624462-558141-476256
1017.27-462607-495335-525846-555696-574165-599634
1020.16-560418-505276-450249-402945-481613-602745
1023.06-557048-450455-452912-558712-637785-612234
1025.95-522709-460553-451591-504047-542531-559178
1028.84-544009-510876-496586-492246-496494-534131
1031.74-496378-445665-467626-475483-476860-541948
1034.63-583576-580367-555102-498907-418243-411550
1037.52-476152-517448-483923-502004-574613-598624
1040.41-599037-611840-533703-438670-431574-441498
1043.31-435407-456075-539244-624826-577516-507098
1046.20-534253-602115-632682-673114-658314-543202
1049.09-449387-456287-445870-357662-331248-400199
1051.98-418657-418583-434377-424545-372778-361465
1054.88-400770-405718-354403-390101-493545-543123
1057.77-541968-571098-551352-492623-468336-439370
1060.66-362407-327835-349032-406332-465669-532451
1063.55-588540-523927-425178-391160-318033-331359
1066.45-427620-498878-574645-580455-520580-481998
1069.34-442469-425956-424635-443352-423739-414861
1072.23-471028-541695-508382-406437-358361-373768
1075.13-420527-465344-400294-337857-390068-476611
1078.02-493638-480214-497768-584158-653140-675445
1080.91-616237-558497-546469-535942-497902-472371
1083.80-472928-501959-520696-517109-488472-522888
1086.70-576999-569534-522432-473780-445899-455619
1089.59-499722-548883-531217-568884-614797-565824
1092.48-521660-550069-547268-509823-439050-394193
1095.37-418554-449398-507647-589328-602515-626568
1098.27-616438-589029-571636-528299-496519-535176
1101.16-552516-515349-469707-453066-430061-405245
1104.05-399456-486256-540491-562435-555625-488672
1106.95-425710-470148-571456-582760-544929-610773
1109.84-622878-527736-453890-455368-464457-502834
1112.73-564309-568720-507746-454453-409945-425209
1115.62-449617-475314-510022-563852-616835-636870
1118.52-593668-590161-553293-523007-510895-455408
1121.41-445018-464419-455660-485706-497620-482447
1124.30-457425-425166-444094-543108-564876-546800
1127.19-541380-527046-488318-503840-576085-632006
1130.09-600597-534419-539086-584789-543846-511618
1132.98-541679-561165-506703-508144-583112-658160
1135.87-628597-541358-471622-451605-441533-446179
1138.77-493762-552200-565773-586792-564430-512394
1141.66-472836-447201-457834-507258-513917-522370
1144.55-500649-486702-516320-569391-529656-483466
1147.44-507155-518560-445728-384508-393780-485266
1150.34-555213-543154-485954-477609-490235-510376
1153.23-509087-513883-523727-533219-536263-563442
1156.12-538181-521612-539562-540420-497565-489059
1159.01-481365-460130-480453-547610-566412-583526
1161.91-554830-510161-485210-489301-498074-516693
1164.80-529601-558443-531981-438587-414461-550109
1167.69-631083-584192-471560-423085-427468-486357
1170.59-549139-549873-490026-495162-532413-532601
1173.48-472366-435038-362618-339513-429816-508469
1176.37-521851-570901-559824-491575-437196-445999
1179.26-418648-408237-425995-431953-414893-465702
1182.16-543771-552019-514317-533315-485784-390521
1185.05-360081-428072-469375-487324-493072-510934
1187.94-491879-466680-422117-446809-521051-585464
1190.83-572041-487441-445283-508494-499423-495571
1193.73-495074-480426-467565-501868-518383-490268
1196.62-441867-499879-562320-565133-532959-511866
1199.51-451726-440691-468106-528764-561694-559872
1202.41-501444-479852-474318-467893-478175-524552
1205.30-506413-485085-495082-536441-543487-514743
1208.19-428662-454694-557112-582380-465774-394437
1211.08-365518-367041-389712-455559-460242-468465
1213.98-498524-509609-463328-487684-501098-481079
1216.87-470196-499517-456904-470536-541597-598472
1219.76-577845-551238-496875-481896-491950-505959
1222.65-435298-374855-331043-334027-354714-408431
1225.55-418047-460427-494738-495638-415484-419944
1228.44-448912-425553-356689-363526-292164-184475
1231.33-106484-65418 36202 157085 278016 355110
1234.23 530732 714573 911351 1137145 1476272 1803700
1237.12 1991630 2052262 2419430 3044313 3326852 3090141
1240.01 3433999 4793121 5366745 3579372 2127985 3276142
1242.90 5149703 4429585 2018813 749113 646926 754492
1245.80 872410 937597 1082778 1237263 1444445 1659686
1248.69 1928285 2139195 2352436 2538170 2802787 3069792
1251.58 3443304 3862674 4330777 4829971 5521550 6293725
1254.47 7195405 8174463 9262226 10158291 10702851 10759729
1257.37 10550327 10051982 9204409 7827593 6667566 7578317
1260.26 10983221 12380789 10910711 10628804 12360244 14668726
1263.15 16944758 18676878 19945801 20794015 21321546 21172820
1266.05 20396337 19037262 17592600 16603518 16669515 17516644
1268.94 18815710 20083838 21366760 22386562 23706835 25918250
1271.83 29461017 33916812 39124803 45098468 52734290 62307714
1274.72 73603073 85960123 101273086 121257915 143707133 163623284
1277.62 187078119 218447516 242836112 256996774 287633322 354121834
1280.51 387593413 322519997 270134053 409751971 640161559 557678614
1283.40 295875719 220214132 256308594 261736633 215836049 149195620
1286.29 92989295 56647097 35376351 23195803 15921826 11498105
1289.19 8452596 6385043 4710584 3678767 2730525 2132549
1292.08 1626220 1280896 897481 709014 468825 420713
1294.97 307440 222167 55707 37856-25252 6437
1297.87-67436-85272-165769-192907-281674-256360
1300.76-305772-347852-443403-411861-426727-392953
1303.65-442515-403968-374068-381435-465830-429658
1306.54-461249-475638-501896-464987-500800-471042
1309.44-474112-438773-400015-356734-447960-451078
1312.33-399504-337888-373211-362482-403984-433471
1315.22-476203-460112-461335-446811-503156-493789
1318.11-474550-432841-457611-439162-452923-490602
1321.01-560241-517925-438285-392742-476825-510920
1323.90-490617-439793-466779-459746-455147-403056
1326.79-392878-407433-483428-502796-511442-499276
1329.68-482194-411297-428605-469775-487344-436466
1332.58-446524-452057-465921-445788-444709-461953
1335.47-502021-452948-440758-469987-476672-414424
1338.36-406830-407723-448175-491159-506178-459363
1341.26-453850-381477-332216-314984-296016-309247
1344.15-433362-493318-484995-473833-542800-574613
1347.04-572772-520897-468811-421742-474326-566594
1349.93-653713-671602-671372-670857-712981-697528
1352.83-632497-539045-454057-333225-219412-55835
1355.72 47182 7062-135071-263902-394111-398117
1358.61-383436-420274-477454-517388-551344-528264
1361.50-546146-567097-566869-550084-544471-504974
1364.40-518158-504530-515634-535823-546844-491813
1367.29-396084-367684-420252-425109-440067-450890
1370.18-468237-512187-545967-489608-457700-435658
1373.08-438271-462956-503393-473610-410819-372217
1375.97-413554-473305-526406-478000-440695-475624
1378.86-535406-544958-500618-476450-547774-579144
1381.75-571164-562785-541540-462006-423956-412580
1384.65-390707-368873-397094-401951-367274-370829
1387.54-511091-570183-544889-516675-512599-534485
1390.43-552802-509580-479021-478840-507505-467759
1393.32-378059-296599-358477-459016-449184-415891
1396.22-497428-590109-641010-610768-472267-310766
1399.11-377287-541280-581422-564986-592086-575482
1402.00-563040-528185-483419-457967-433642-393792
1404.90-425683-463404-485179-483977-493934-493309
1407.79-483873-474774-495712-515773-527572-502471
1410.68-479925-454330-446374-436221-424601-408086
1413.57-475826-539702-536756-503429-481708-488137
1416.47-471456-390391-385732-391873-259055-98003
1419.36-219633-454944-553898-529899-495930-500457
1422.25-554465-564546-520106-468490-478002-469741
1425.14-430042-426060-476569-491258-500870-492166
1428.04-494031-479983-424670-409634-485956-545489
1430.93-557894-534011-509782-452499-423564-470456
1433.82-527320-505750-498625-470113-260701-34203
1436.72-157259-399112-557911-636524-602393-523991
1439.61-487990-466774-490423-515369-532633-541188
1442.50-541998-505124-484698-516004-567646-562240
1445.39-530590-480165-432870-395533-396440-445090
1448.29-528529-599986-625097-582844-539024-499414
1451.18-497118-520428-555454-551455-517402-480862
1454.07-457203-398349-352536-206974 125006 219285
1456.96-104900-311440-344198-392486-436061-453769
1459.86-475813-511649-516561-467989-484139-507316
1462.75-502905-491017-417386-284680-291956-408869
1465.64-485188-515704-508735-439045-381999-382046
1468.54-452002-495069-483819-441973-405992-305551
1471.43-167588-200343-314201-267081-285590-404435
1474.32-461493-449004-399936-331246-336880-385174
1477.21-420192-441510-464028-450747-443911-459891
1480.11-456841-412792-433098-487545-515608-516911
1483.00-512731-489921-473598-468845-460713-422394
1485.89-414026-388318-340888-369763-459248-469996
1488.78-413079-360078-310932-249533-307100-433337
1491.68-510833-512055-480299-444338-425302-404532
1494.57-400960-296770-64147-42388-283989-420969
1497.46-370722-211982-186445-359897-510006-505970
1500.36-447499-405367-393261-400733-402725-381204
1503.25-377524-355776-272508-5912 205441 145847
1506.14 198626 263904 7133-200570-213069-182776
1509.03-157341-155452-195330-208113-172102-110412
1511.93-110333-131363-122212-128860-155866-110506
1514.82-64350-49399-23378 25917 73396 74329
1517.71 13778-43088-67469-1690 91052 248285
1520.60 474223 447541 223957 135265 68344-6897
1523.50-47804-44654 30751 122116 52041-50435
1526.39-43572-33008-87668-125508-163866-176081
1529.28-185299-231536-244057-203049-242861-311654
1532.18-305188-250228-203826-197206-257614-267037
1535.07-230353-173510-98186 58498 307482 750491
1537.96 1994820 3908177 3982755 1919470 413523-85826
1540.85-199188-35873-16276-202535-302955-334681
1543.75-337082-233058-157476-195528-295780-386454
1546.64-401862-345952-314754-286706-215985-99698
1549.53-38524-108626-191544-185553-173280-160662
1552.42-157839-113078 57451 199743 87410-73675
1555.32-139767-157304-76097 152208 373881 558088
1558.21 507567 246043 268209 416287 211970-92696
1561.10-217369-266266-279849-270663-266834-243779
1563.99-227540-223753-246556-271561-313409-374189
1566.89-429644-414093-347484-279580-181151-96714
1569.78-188991-328439-368400-371144-406891-448650
1572.67-460580-429300-419996-462725-440634-166810
1575.57 177791 78408-271220-433528-468008-466347
1578.46-487351-492433-488951-499973-489159-475465
1581.35-486637-489124-512904-523491-516166-523174
1584.24-539179-533045-512482-483840-473542-510520
1587.14-546521-519762-491338-462134-468417-545223
1590.03-587252-546894-517019-491828-461650-436409
1592.92-438198-466882-500992-529884-562861-558616
1595.81-493480-443324-486851-523768-509708-480424
1598.71-460722-473312-497061-464044-444923-480509
1601.60-518420-533990-531886-500692-486251-485973
1604.49-493757-494612-474928-443874-426756-420753
1607.39-436331-454052-483921-516749-537391-530655
1610.28-530070-515407-461513-423081-446607-474897
1613.17-477387-469012-452247-429520-406739-215664
1616.06 71885 23394-247708-366603-423301-505078
1618.96-548520-532739-531425-515514-509046-521428
1621.85-499502-392038-241329-225099-354271-469797
1624.74-537949-535285-511040-480682-437230-387646
1627.63-389756-445982-478745-461171-451023-443151
1630.53-440039-449890-485505-499672-469374-437355
1633.42-439378-398719-225549 7461-11638-284969
1636.31-439394-411176-388428-444969-508606-489878
1639.21-438831-428645-467086-480641-481972-468865
1642.10-433403-424235-435723-434387-440052-394845
1644.99-210073-67869-232845-401303-369645-313756
1647.88-298407-342139-450005-511977-485793-449954
1650.78-440835-252029 160208 449591 466921 199293
1653.67-95581-230888-381074-471549-485840-501401
1656.56-539156-553718-547483-536793-506256-454155
1659.45-413297-391264-384346-375804-386543-352321
1662.35-325830-364547-415529-457769-477063-452672
1665.24-428106-425339-451787-467732-434121-373286
1668.13-315291-230106-248998-398080-495585-441103
1671.03-347754-347152-413393-481917-529746-498371
1673.92-360456-160138-117000-298010-457990-486182
1676.81-466924-427949-415078-436440-432272-388427
1679.70-384652-428943-492105-506287-443818-347156
1682.60-260621-188506-27106 303561 337158-78672
1685.49-376019-437974-474365-477537-415669-376690
1688.38-396656-402251-374416-357474-413753-486283
1691.27-499814-463510-446104-442367-400047-343488
1694.17-274979-39838 343856 350127-109072-398186
1697.06-426039-425666-402552-273121-1705 259323
1699.95 263237 58975-180667-323222-367613-387086
1702.85-408109-363081-281397-322751-454350-444202
1705.74-324639-261699-279270-349749-420031-406865
1708.63-373416-369966-390641-412700-445478-483120
1711.52-501333-451489-407661-431318-443344-361225
1714.42-198680-103791-151677-248258-194199-4788
1717.31-39689-146829-199453-341689-459408-468829
1720.20-449015-477907-509364-453090-407823-441908
1723.09-477835-457978-449233-444358-400479-356214
1725.99-384142-423363-434095-430761-408154-396702
1728.88-404978-380836-379602-423632-486043-517852
1731.77-487546-353167-131958-63790-47095-11587
1734.67-210243-434030-474461-439102-429959-437189
1737.56-452860-466652-432769-292973-223582-365768
1740.45-512371-529585-495432-468842-464743-426344
1743.34-407528-460325-490235-482665-474878-456479
1746.24-426229-377597-384041-414319-413120-401472
1749.13-434109-449634-351037-207241-194369-300620
1752.02-410771-481358-508988-492857-475155-484577
1754.91-520234-550981-521017-441815-440930-515890
1757.81-560516-533940-487640-446708-459475-503735
1760.70-453804-339223-364433-490543-569008-579322
1763.59-586278-575116-513544-467140-478689-495533
1766.49-512358-474594-369340-341128-384879-434495
1769.38-487462-453021-345913-289112-306377-199481
1772.27-108528-280376-487758-538353-479603-422124
1775.16-442741-506128-534908-503804-481766-484906
1778.06-487554-465069-435779-422152-424964-439952
1780.95-457446-461125-487647-516137-517345-483800
1783.84-423111-350668-370270-436019-440820-424044
1786.73-420081-418844-438028-455788-467800-472070
1789.63-456664-396896-351669-362983-318414-185905
1792.52-203188-352768-441099-472227-496237-489574
1795.41-443074-418938-461878-487256-481947-474537
1798.30-459512-413589-398222-442583-482560-478399
1801.20-433480-406713-452916-509502-544919-536059
1804.09-481255-437930-456005-498152-484270-435394
1806.98-407181-389470-412446-447761-468229-499057
1809.88-502385-469250-455404-435803-392311-376168
1812.77-418483-441281-447061-501736-537250-468690
1815.66-404882-414658-451350-483149-514304-525728
1818.55-510936-494650-506080-523136-500568-461502
1821.45-459826-498011-569319-579281-498983-426634
1824.34-369844-343316-415050-516824-553996-529106
1827.23-541964-536552-443614-367109-323224-302024
1830.12-372500-454038-495286-508124-483211-450657
1833.02-450612-459757-461363-446081-446674-450675
1835.91-451893-442600-429466-445044-476762-497362
1838.80-519903-530396-505927-479021-482605-499604
1841.70-520006-504641-433096-276981-129748-199080
1844.59-378156-470346-517553-553839-541338-483551
1847.48-497482-541865-510222-484955-554995-607148
1850.37-563201-501337-492202-507166-515478-505938
1853.27-492628-491558-512132-518560-529551-568414
1856.16-556601-498401-516759-554325-543045-533191
1859.05-546153-562139-561725-555789-542282-520729
1861.94-506328-473894-454060-437675-425523-444688
1864.84-479173-512625-537821-533516-492780-430238
1867.73-446746-464546-409713-360033-360772-413069
1870.62-479644-484758-461005-474671-518586-537339
1873.52-521775-501113-509592-510263-509887-503635
1876.41-499247-497518-480730-471880-469926-457747
1879.30-444812-444986-458580-475966-512361-528765
1882.19-509647-483845-483363-525935-543675-472963
1885.09-427522-448543-485251-497049-460395-414861
1887.98-416427-412837-374864-371908-440521-520756
1890.87-542382-505912-485065-467572-453429-455759
1893.76-440581-420015-431345-448605-430250-402843
1896.66-419583-413111-399009-449711-494160-473845
1899.55-453318-444150-411602-349597-324079-379573
1902.44-452444-456802-429722-414569-412983-388782
1905.34-363373-357345-373959-390632-402963-438563
1908.23-458239-443117-418760-394337-398256-393085
1911.12-372840-352045-331525-344689-399484-416751
1914.01-413319-433318-410711-367199-382733-401920
1916.91-351817-267158-262242-302128-317528-358408
1919.80-409235-409812-372048-337081-336901-323802
1922.69-346383-404636-416511-381000-368094-397029
1925.58-439019-466779-455119-430756-444570-452056
1928.48-424593-388319-384431-389673-366590-364873
1931.37-415080-454003-469293-442162-377469-364092
1934.26-401921-423188-424603-429040-438172-443777
1937.16-480012-517280-504674-449888-411416-404978
1940.05-388504-373394-395094-411541-423187-443517
1942.94-459626-475783-478650-444383-450808-487806
1945.83-465999-427950-407974-361931-374693-436064
1948.73-470024-506712-519028-489339-457012-446972
1951.62-470271-476858-457270-445108-449411-459489
1954.51-486865-491684-463137-455970-484589-495454
1957.40-478321-453382-422416-393667-416485-449814
1960.30-447399-455518-486601-504530-509791-482361
1963.19-442817-435648-442039-457020-472119-448211
1966.08-399199-354506-361632-408594-454254-473758
1968.98-489089-515791-537900-491472-422250-435324
1971.87-492856-518409-506065-479994-462765-451640
1974.76-449824-484315-524676-481991-446167-477315
1977.65-491312-476095-481867-466285-434259-456655
1980.55-476851-439755-423123-432539-448351-486536
1983.44-525381-510900-481183-489184-486681-454099
1986.33-459172-486457-499277-479081-434783-435043
1989.22-490059-488708-448267-464211-478514-463970
1992.12-492128-522177-529497-526522-508681-496886
1995.01-507265-494020-449002-423085-459026-516852
1997.90-525565-476878-448510-455683-443343-403503
2000.80-386903-417622-481092-526650-538554-533143
2003.69-521622-503001-493885-487477-482907-469089
2006.58-476108-494110-470985-453274-498307-524850
2009.47-498231-462344-456539-482919-518603-551463
2012.37-551950-525523-513299-527036-547812-509483
2015.26-443825-440956-455847-444372-467887-507184
2018.15-512570-499403-505488-534343-545238-507249
2021.04-473118-477961-494058-502032-519908-526923
2023.94-534209-556935-562288-548057-571190-597635
2026.83-579951-544023-501271-479077-489560-503692
2029.72-509828-482359-485247-535484-560825-555440
2032.61-535496-533933-570222-568284-525749-475715
2035.51-454078-458761-472036-496002-510632-489819
2038.40-492195-521774-533554-539673-559714-547264
2041.29-504730-487689-513204-525658-506679-495355
2044.19-526110-552417-541514-516428-496310-478252
2047.08-507669-558061-587686-585644-558983-505864
2049.97-458106-452135-470482-494236-527985-531683
2052.86-522743-552463-580887-575746-553595-527881
2055.76-517178-511570-497831-471638-477948-511314
2058.65-517935-506954-506484-494329-474953-473811
2061.54-503308-537237-542102-530612-535546-527818
2064.43-516235-520506-526790-532253-529638-503511
2067.33-480852-486590-498745-500289-503771-477942
2070.22-463629-477437-482872-492965-528426-525263
2073.11-467167-423240-425685-474727-543977-575150
2076.01-583209-557905-487991-421070-422372-481960
2078.90-519070-510885-520045-505216-458332-448100
2081.79-463141-485306-505910-480998-461149-487113
2084.68-519074-523345-493213-456327-452989-475233
2087.58-485434-494827-511602-501684-514419-522065
2090.47-492670-492544-486203-432245-410212-432598
2093.36-464338-503577-517543-503359-501799-515675
2096.25-494959-457969-453419-465610-511597-539078
2099.15-519426-494724-498334-525673-561157-564106
2102.04-500570-424154-443144-517477-522585-460169
2104.93-459952-513941-539157-542867-530438-474829
2107.83-450041-494723-517692-507902-512139-493614
2110.72-466365-449565-451820-485386-511916-472460
2113.61-415083-427847-495615-521972-492738-480970
2116.50-497895-488021-466310-462521-458223-454329
2119.40-494495-527404-519317-524670-520307-494721
2122.29-498672-523182-527988-499843-488415-468277
2125.18-429630-448360-486410-505195-523119-490962
2128.07-481068-496700-450800-423342-447945-464391
2130.97-470305-457292-451729-476069-487865-463864
2133.86-422001-382627-404849-467314-509665-509130
2136.75-472702-438847-445451-462575-466109-439854
2139.65-417327-437879-451488-420698-401483-429076
2142.54-445535-400652-340229-320172-350255-388234
2145.43-400667-403716-397105-414471-447093-443280
2148.32-430839-420281-460078-527581-510973-427922
2151.22-390789-410326-451961-455700-434024-476656
2154.11-519498-513936-473043-415312-396961-408945
2157.00-423998-426048-420961-435205-480399-494325
2159.89-469070-441966-439363-479003-517644-494761
2162.79-427454-377880-353575-334213-348423-377605
2165.68-396715-414548-444929-455733-451260-449878
2168.57-454181-456537-427015-386830-368078-320269
2171.47-284980-293952-290147-263507-247802-247689
2174.36-249964-248888-257901-226843-108420-14756
2177.25 1934 39774 96523 155998 232136 341302
2180.14 438098 503376 600731 740900 819251 850011
2183.04 1000327 1147171 985414 907201 1563619 2249126
2185.93 1759612 759387 454363 636203 684209 475997
2188.82 170638-97583-266987-338331-357353-361417
2191.71-381995-438295-542213-602221-558799-507373
2194.61-484712-466421-479205-480216-452287-431455
2197.50-432831-467340-500060-502875-505945-528566
2200.39-538951-497965-446824-419238-443261-501155
2203.29-527969-511675-505168-517942-501496-490261
2206.18-497276-492854-485950-463623-445002-439360
2209.07-429170-440979-488507-535241-561890-542903
2211.96-533332-539294-513814-499853-485781-466147
2214.86-497051-513555-449199-387920-405663-436646
2217.75-452086-444072-392538-346388-352571-400819
2220.64-452576-479504-476817-455765-453616-445272
2223.53-436119-474168-491532-461061-452473-454401
2226.43-446221-445602-462628-464411-454363-456681
2229.32-485072-487448-442807-445296-482740-491241
2232.21-491383-498186-522561-536777-508324-448229
2235.11-447570-492330-490036-458817-443314-436846
2238.00-464536-495992-473983-457367-487904-476596
2240.89-439040-466119-500467-494478-516179-544087
2243.78-512333-464626-471950-455784-409357-400413
2246.68-416208-464157-514356-537227-552572-520182
2249.57-462055-409930-375021-415249-490893-505921
2252.46-510182-526776-501608-458822-448355-488131
2255.35-544730-544772-496421-470782-481251-480765
2258.25-446083-413894-428322-451475-491286-539138
2261.14-564886-549157-488869-442021-432469-441287
2264.03-450934-462726-463183-451152-472131-488337
2266.93-450929-431015-493852-557617-556030-532724
2269.82-510643-473076-469057-467171-427101-396767
2272.71-406474-434044-462786-486476-516310-515844
2275.60-462831-444392-496349-505671-467627-463909
2278.50-451420-434095-474984-518465-507264-456793
2281.39-436629-446967-462694-509708-539901-509198
2284.28-474232-429918-383134-402708-451727-453827
2287.17-433241-443861-464076-455157-422594-403916
2290.07-442926-490330-489497-448659-426577-443089
2292.96-431032-382561-360657-383425-434477-478241
2295.85-487022-495654-524411-494365-411730-377602
2298.74-429909-467813-453885-459977-474244-456841
2301.64-429220-416614-442001-492293-476785-421671
2304.53-417901-442709-449742-412829-387148-420076
2307.42-454777-446690-458038-520756-520541-425997
2310.32-365677-380550-421699-422167-359196-331644
2313.21-409486-450932-413919-395975-388238-351981
2316.10-320978-318950-357200-403154-385293-329760
2318.99-345408-378346-351633-334822-386278-430724
2321.89-406420-334445-337819-399983-338871-230337
2324.78-265040-358151-317600-202901-265379-401043
2327.67-305213-152885-243826-384141-308632-196606
2330.56-284561-370732-271846-219218-326382-327171
2333.46-197578-227637-328018-225795-115821-196334
2336.35-249740-178498-219411-374611-362198-237272
2339.24-262139-326322-254024-228816-333814-313273
2342.14-230516-333350-417776-298464-239403-312662
2345.03-319267-290148-354190-432529-464739-470900
2347.92-466263-442454-414124-413181-435224-407759
2350.81-330680-339315-366173-303679-319575-369070
2353.71-303334-282757-306591-210995-194323-269534
2356.60-203426-192479-195275-82272-152039-227326
2359.49-132231-194673-241656-149392-212786-236751
2362.38-198305-235417-155646-139233-206822-156059
2365.28-161041-149711-126160-231520-261105-247865
2368.17-246696-270229-363122-370291-328999-311663
2371.06-334911-345551-302191-322898-401374-434230
2373.96-370516-317202-358305-423700-467823-477563
2376.85-462259-423470-392887-389324-401052-405464
2379.74-382622-371608-428428-467797-471923-497615
2382.63-496651-484562-480489-467982-457849-463804
2385.53-500047-527590-532227-494942-436772-433064
2388.42-478981-514336-521796-526169-529678-489417
2391.31-424360-399405-439285-475304-476105-486261
2394.20-458834-403836-421672-461429-472988-456612
2397.10-414669-396620-424934-431410-414267-421588
2399.99-421321-396839-402027-417657-397371-409865
2402.88-488824-574020-581736-506669-477334-524414
2405.78-522796-453288-416944-393450-354856-345399
2408.67-390003-427951-407842-377586-406481-424456
2411.56-387976-392465-442308-478775-495443-476037
2414.45-476795-503570-496885-465001-431818-408107
2417.35-431321-459308-446070-431216-429366-453299
2420.24-470160-447662-457628-481562-459926-429260
2423.13-431150-448697-457669-409230-346186-371760
2426.02-434866-462324-456604-414403-379381-368986
2428.92-369126-396550-428390-450585-483092-493323
2431.81-460880-431483-468323-501486-490587-484590
2434.70-448334-394554-404126-416997-392028-397555
2437.60-446083-481958-491653-480303-445952-455000
2440.49-498349-487242-463361-477501-508954-510167
2443.38-484399-450976-418075-418735-435971-429366
2446.27-402623-419655-490594-483099-412266-406608
2449.17-409751-367829-365045-401759-415231-411195
2452.06-445132-474196-444086-406927-440025-476256
2454.95-459454-465319-486183-463713-429428-421793
2457.84-418230-427943-434057-455013-504577-536759
2460.74-519360-478365-455670-419025-372662-353268
2463.63-364711-400738-444120-441406-426545-452774
2466.52-471013-456427-468541-504700-481808-406968
2469.42-415025-469406-476284-462338-447679-444201
2472.31-488640-541593-536732-518796-496908-468537
2475.20-460359-434650-414345-424127-435274-458655
2478.09-501186-540575-534553-494719-478535-452663
2480.99-413603-417953-488350-503954-438628-421968
2483.88-479505-505094-476407-481393-527849-551414
2486.77-502005-421310-397728-396393-402293-463726
2489.66-518028-498028-484985-487501-489507-525163
2492.56-511733-460588-452995-418841-387264-420867
2495.45-435862-394706-379906-409377-445366-498937
2498.34-530793-507985-506384-501345-436425-397970
2501.24-430977-434182-389394-390647-439671-466775
2504.13-466576-443494-396858-367901-375747-412771
2507.02-443643-423365-397259-408896-424739-458321
2509.91-505751-486473-433665-432450-461455-431286
2512.81-373994-392742-459017-466824-426384-413173
2515.70-425005-417299-424718-445817-440614-431952
2518.59-452563-455632-417282-438269-506762-537902
2521.48-502253-430329-411045-414721-375035-336123
2524.38-308229-292817-355583-455639-500563-487220
2527.27-440242-414903-438050-453805-470133-463951
2530.16-420052-413945-412254-388035-404523-419764
2533.05-407776-389892-387184-417063-422067-362500
2535.95-293993-275869-302548-339002-360892-353409
2538.84-366857-386676-378360-397361-434348-433629
2541.73-402859-402630-440684-461966-461318-465896
2544.63-448181-409431-393748-418834-499123-569607
2547.52-570250-548965-544712-562017-616931-733890
2550.41-860335-935378-956946-929511-901453-932029
2553.30-1046630-1180626-1224464-1240937-1350002-1464175
2556.20-1539812-1661898-1732497-1673461-1649096-1738124
2559.09-1902315-2050568-2130688-2235533-2347753-2132583
2561.98-1704119-1528371-1651026-1750533-1929246-2727278
2564.87-3867316-4037834-2806071-1286952-644296-927564
2567.77-1568006-2111196-2337459-2313231-2130568-1898779
2570.66-1685849-1449608-1173689-903803-684721-511652
2573.55-426836-451026-523448-550485-482128-436414
2576.45-444081-400697-314902-260252-254716-273210
2579.34-308688-335789-332164-318368-294366-285129
2582.23-323753-369576-383737-324861-257961-244897
2585.12-249336-253819-265549-301462-328299-325302
2588.02-318621-346178-392436-368021-300859-264428
2590.91-265340-283108-271741-250017-270224-275748
2593.80-258018-268307-303986-351676-410139-428964
2596.69-352723-285111-280572-282936-313144-347144
2599.59-337922-326522-337966-352389-349065-315590
2602.48-282823-269902-246925-227357-228013-259554
2605.37-319696-357085-371898-346682-337037-372806
2608.27-414083-455974-464728-434211-406436-366259
2611.16-345935-361601-401294-457429-441783-362656
2614.05-323461-349667-411530-434714-429607-424667
2616.94-421332-458107-533997-552689-492353-444240
2619.84-413134-380469-372157-415434-444193-427898
2622.73-424364-420282-408064-405806-409593-402674
2625.62-421061-484776-495019-442302-451918-533773
2628.51-562351-484370-407411-401358-402931-396814
2631.41-442912-512234-509018-473829-465292-461041
2634.30-474434-491136-491365-487307-500006-520250
2637.19-520834-528405-534612-516042-511619-461091
2640.09-356380-321878-319621-293784-317028-388433
2642.98-457973-502257-528396-572359-586343-591441
2645.87-607414-547092-456086-459618-496407-453273
2648.76-374274-340484-374244-417202-463617-511530
2651.66-481999-445485-469227-469662-474978-474005
2654.55-395847-355398-391182-389853-370270-422802
2657.44-483828-484359-469819-439063-455240-494437
2660.33-479089-443402-437713-449232-461966-466943
2663.23-466661-486176-493434-477985-443077-431275
2666.12-457976-458377-454333-436700-412791-444083
2669.01-461530-419402-406038-447963-452262-401136
2671.91-355605-342028-380695-443656-473392-444343
2674.80-404930-430556-480414-475318-443523-432017
2677.69-476102-515817-467279-419848-451501-471057
2680.58-479672-505395-503410-454758-403055-395039
2683.48-407093-398122-392868-396344-383641-441393
2686.37-513567-497925-474337-463741-432046-430016
2689.26-423052-377677-405104-488626-517071-508417
2692.15-497807-458579-447044-460692-453499-406516
2695.05-341193-360367-471199-528424-514337-491032
2697.94-500306-523491-491209-443200-424896-415924
2700.83-427699-473490-489149-445965-435391-462793
2703.73-482404-498633-453081-371200-366129-406626
2706.62-341914-216993-220868-295177-305974-276748
2709.51-308413-389902-416764-430488-452676-423515
2712.40-409920-437062-446842-438881-424551-472985
2715.30-567190-576193-485566-399530-368938-356965
2718.19-373342-390685-383263-357365-352708-398018
2721.08-458886-486859-483953-481927-464925-413614
2723.97-351660-309460-329077-396001-449609-459133
2726.87-429973-397928-378346-400488-443310-420350
2729.76-375231-367444-384528-391497-391254-389912
2732.65-416012-459467-438821-407177-440008-414466
2735.55-348108-401639-477445-458533-404728-376934
2738.44-371095-404671-448914-428327-397882-401022
2741.33-438297-474257-460817-440773-447583-453241
2744.22-478801-476981-397696-345597-349345-343021
2747.12-357474-383335-407979-453524-458643-442303
2750.01-474301-488629-496965-507932-469163-404981
2752.90-334646-302513-314913-325108-374471-415092
2755.79-424565-425914-418697-454428-486555-478683
2758.69-465616-443677-413562-440687-497088-489760
2761.58-436632-362918-324993-325212-313528-321509
2764.47-356226-382381-399073-456568-501048-459939
2767.36-452469-485242-470402-454739-453161-430522
2770.26-395371-397735-440194-445654-447091-492583
2773.15-523266-494073-458150-419785-388602-416604
2776.04-429725-359118-293663-325445-450759-550160
2778.94-508021-406401-386349-431085-462515-442141
2781.83-403432-424119-494229-503009-445599-421327
2784.72-459444-491837-447085-364030-378194-459293
2787.61-479932-456343-416348-371682-393077-480405
2790.51-525076-492747-478630-499573-513207-479868
2793.40-421781-421478-476994-494376-467475-427860
2796.29-407869-410651-410057-432226-474538-492941
2799.18-444907-384899-353702-381768-445867-438564
2802.08-430498-488120-497081-445240-421496-437798
2804.97-426383-389452-401365-436124-431991-437534
2807.86-488100-499654-452247-395240-343996-338967
2810.76-412612-456381-428724-372350-347244-411472
2813.65-464240-470375-469352-455515-447699-453184
2816.54-440480-394643-367771-383441-397517-425947
2819.43-463768-463966-449025-426119-408374-418541
2822.33-431542-446866-472178-460469-430628-442157
2825.22-475482-454363-422329-424590-408952-394958
2828.11-434331-455778-427264-423918-413541-392697
2831.00-434805-489431-474061-419269-397678-411582
2833.90-446677-493264-481313-383735-300489-315775
2836.79-422490-549599-541811-413832-324407-306950
2839.68-307204-286352-253115-229052-286486-380930
2842.58-384560-351191-384488-423282-434353-437295
2845.47-426265-407280-389256-367423-355845-366599
2848.36-378830-388103-423165-432227-408839-373968
2851.25-369477-419284-422465-353472-330941-387499
2854.15-445902-448635-407696-381100-381181-352726
2857.04-345452-389104-408098-360352-313357-333624
2859.93-365200-406467-447081-403481-351260-357462
2862.82-387138-407327-344194-277327-305119-361847
2865.72-412324-468809-487008-482141-453566-367232
2868.61-324631-366962-428991-428773-373506-385378
2871.50-477760-521680-492457-412063-345613-340033
2874.40-349183-376772-448118-478590-458800-450359
2877.29-436872-437988-426013-382186-362682-385665
2880.18-411850-386034-365083-358390-341678-358844
2883.07-400785-409391-391952-405252-393851-364197
2885.97-365122-361458-380205-389333-372501-410027
2888.86-444037-392547-317465-279610-309786-368267
2891.75-400271-448036-478675-428888-336621-289861
2894.64-331641-376200-329829-247444-251287-343048
2897.54-460289-491595-402101-300891-301195-376830
2900.43-397086-395287-443050-483931-410840-258008
2903.32-248321-363544-435573-451255-430794-380500
2906.22-405851-418128-304938-192996-145505-153850
2909.11-241090-317515-309923-337598-415813-477656
2912.00-513983-481956-406160-408033-431367-426701
2914.89-409059-332217-279960-309419-363790-406647
2917.79-421524-400519-403559-453847-460657-382747
2920.68-318290-344583-392579-358480-355644-445321
2923.57-455281-433963-453534-428675-416235-453810
2926.46-437974-387297-377406-406621-478759-550855
2929.36-476342-308025-252836-341552-471574-538345
2932.25-519298-496741-508048-477226-404923-377895
2935.14-401095-406993-384807-377527-423440-473187
2938.04-483983-488339-488120-441691-366193-314175
2940.93-305513-329727-367713-432074-471862-478486
2943.82-512234-526834-473443-432605-406795-372073
2946.71-379759-415537-410415-425871-531443-557452
2949.61-458292-359494-312214-326388-351389-315302
2952.50-306515-399120-472370-483628-459795-418756
2955.39-371208-350343-339143-309478-304850-322348
2958.28-369065-460850-520784-524959-539091-516005
2961.18-437755-383400-351720-337435-338242-401042
2964.07-490960-491254-442454-378783-320186-352497
2966.96-434030-474677-492932-500815-506650-512818
2969.86-504475-457414-382147-342966-367588-397462
2972.75-426836-431647-402141-375842-395804-408312
2975.64-376479-410630-458074-432454-417076-466808
2978.53-513749-511952-448105-405273-435474-464159
2981.43-424512-378441-377531-372852-409283-463057
2984.32-471507-461705-425077-372643-343834-364583
2987.21-368341-325256-391754-523461-555213-499078
2990.10-441251-437860-439348-392599-361359-397435
2993.00-448520-469704-455639-434177-382957-321332
2995.89-330538-334200-340459-350540-305990-271275
2998.78-289217-374735-455537-478768-422869-338825
3001.68-333973-383016-428826-410720-364077-381663
3004.57-407285-384698-383495-414105-402191-417447
3007.46-462188-452862-401577-369545-376006-398154
3010.35-457519-506740-495295-461256-452473-481625
3013.25-463568-406409-411638-422724-431393-476067
3016.14-516089-530208-504877-461662-415916-371963
3019.03-398524-434047-384152-322729-324830-393373
3021.92-426213-382320-336830-312434-319573-341780
3024.82-372473-421038-408272-419717-512834-534414
3027.71-506705-482072-463414-456562-415411-424863
3030.60-499747-477622-384617-340459-372742-432077
3033.49-455827-446035-426979-400279-380329-445129
3036.39-512792-487820-425497-370527-382789-439813
3039.28-472854-467634-434967-416764-445394-504359
3042.17-529388-475210-423242-436462-448920-399130
3045.07-388109-469731-545077-535091-488278-441470
3047.96-374032-350114-441904-526446-477095-375246
3050.85-318648-353437-465946-473473-348154-305794
3053.74-396760-416093-346480-358907-431952-456643
3056.64-391362-322894-353821-425747-459140-443057
3059.53-394752-373604-427742-523963-510533-410248
3062.42-431208-558748-586246-503157-434684-380348
3065.31-319546-286052-287127-353148-427479-448000
3068.21-438467-389960-331567-311260-325796-363284
3071.10-386913-411741-421211-394944-372342-344609
3073.99-338416-365582-408502-456598-458777-477355
3076.89-506559-456504-380251-379829-405166-375252
3079.78-363463-405359-447670-441044-394276-349554
3082.67-297702-274153-294758-349490-426434-437565
3085.56-397321-397528-400381-381473-349542-281185
3088.46-250755-312375-369448-359507-336719-359846
3091.35-413513-419949-351168-324427-361627-412532
3094.24-451094-387730-280744-320191-401185-388055
3097.13-354197-361615-395944-409198-401882-368209
3100.03-332596-340292-365064-369650-389402-399632
3102.92-340352-309968-407390-495292-441247-376365
3105.81-436930-465975-360332-315623-370482-363533
3108.71-385131-496733-527610-437190-312447-273365
3111.60-330618-403448-487590-516547-459624-451122
3114.49-487708-500624-472363-426794-383970-307618
3117.38-252641-269861-329803-376793-393052-369293
3120.28-280752-276741-381044-449141-457721-379449
3123.17-301008-346222-414206-391403-378556-388700
3126.06-329575-260632-275510-344100-348255-317656
3128.95-317239-311310-322610-365266-393532-413671
3131.85-435835-374508-230965-160549-203811-239382
3134.74-254445-324983-473622-548690-492991-430332
3137.63-343398-309721-386196-431595-397664-355554
3140.53-363699-360743-310492-229914-197498-281483
3143.42-424360-495538-437226-422464-491863-468143
3146.31-344111-263796-322088-429686-468265-446837
3149.20-425933-463860-518451-476679-411467-432742
3152.10-451186-462772-443748-370858-348743-392366
3154.99-449363-432689-386680-392385-355434-307245
3157.88-330090-366914-373893-361027-349733-356467
3160.77-384165-401835-404168-429201-465936-465615
3163.67-340655-247764-354277-522240-577967-486811
3166.56-395288-433416-518248-523460-476152-404737
3169.45-322945-304225-343401-330165-282032-372976
3172.35-535709-515829-405177-366309-415898-481169
3175.24-442128-388448-394223-386022-337287-278620
3178.13-272300-359571-397473-368072-405822-476021
3181.02-489282-388322-302845-308891-314050-366404
3183.92-488185-554478-523107-464224-389222-361901
3186.81-432310-466730-412105-366726-358357-324395
3189.70-304816-365090-385733-359010-370356-408222
3192.59-441923-409097-423994-484277-436514-357759
3195.49-300101-274294-317222-387872-429651-407423
3198.38-397814-439202-414838-402327-442945-395455
3201.27-300929-260574-257516-316638-392599-420461
3204.17-387132-337473-375533-463894-514701-513651
3207.06-502913-488127-490206-479578-459085-475283
3209.95-483498-493830-520827-504620-439919-398630
3212.84-356523-296251-322209-387303-352060-332845
3215.74-458040-538226-427996-315050-328155-378809
3218.63-384861-317884-235010-263905-357226-369992
3221.52-328538-302591-306178-351502-435479-484919
3224.41-416499-348822-416266-501081-493668-429673
3227.31-391049-424459-502617-498175-413974-366134
3230.20-340832-348200-370205-394259-456030-436734
3233.09-378446-366056-342676-329834-391251-441899
3235.99-391479-295911-260172-332340-379874-324565
3238.88-338290-489694-582887-535165-452480-407930
3241.77-430455-478552-485806-421752-355749-321439
3244.66-294936-316904-394129-417281-386762-382941
3247.56-396501-384721-351954-373817-419232-395579
3250.45-385804-431201-408842-368246-428488-412992
3253.34-272484-238752-358378-433440-407464-408713
3256.23-475824-509132-418339-231935-165962-332324
3259.13-528957-552782-443036-360157-386598-424746
3262.02-317357-154199-185677-318537-376405-392748
3264.91-384657-367257-347441-360785-420578-456882
3267.80-416612-338559-278419-267991-353228-455998
3270.70-489405-487340-457649-394050-363808-366963
3273.59-341201-304872-308369-325402-306058-281326
3276.48-280772-300537-343018-383025-435923-497916
3279.38-453542-363970-339086-378742-432965-409356
3282.27-307975-246658-308205-382674-392699-404901
3285.16-378703-296545-237855-247055-363251-462224
3288.05-410569-304896-265713-336068-398311-355459
3290.95-332118-369263-408141-434665-391561-348438
3293.84-397351-430212-416375-416702-411616-388968
3296.73-366220-332793-288073-301590-401849-483887
3299.62-446172-370813-369655-378156-337797-306071
3302.52-312605-401748-548475-536452-439664-461714
3305.41-442218-321453-236681-253821-333773-376675
3308.30-343031-325439-343033-339652-355286-461216
3311.20-560455-514387-480230-497635-379025-252600
3314.09-236030-223392-271359-362738-357763-389130
3316.98-504378-442875-319907-339407-417319-449833
3319.87-395366-356256-391783-446350-462051-415181
3322.77-395369-386722-342122-399185-534493-549967
3325.66-433591-383570-469014-581287-624946-522358
3328.55-414165-435140-437033-373396-373023-396852
3331.44-336273-339951-475118-505897-470932-458908
3334.34-403867-372427-392665-363698-304749-330705
3337.23-466154-547649-501223-462901-477091-448838
3340.12-395567-420151-412236-372284-381734-391176
3343.02-365760-322161-356975-441752-473493-500122
3345.91-521810-515585-523702-458567-314563-314501
3348.80-472963-604485-600021-476785-364641-325893
3351.69-286650-276334-342415-407062-416043-415021
3354.59-430015-427364-386595-325299-301392-390084
3357.48-467423-377276-293600-313736-345960-331981
3360.37-319845-436641-515098-392317-277082-301647
3363.26-384426-503799-561797-448911-372118-435023
3366.16-465480-449093-417699-406251-429012-431325
3369.05-423005-357628-235799-224145-280108-308528
3371.94-346409-380865-398719-380105-323300-262963
3374.84-269928-325874-363665-435987-467754-403789
3377.73-381208-390725-418127-504716-546429-468172
3380.62-371706-312506-253297-198980-171697-159312
3383.51-142805-142426-215317-394755-547068-521288
3386.41-342323-196925-208480-309074-349636-348386
3389.30-343838-337766-315514-324896-439895-477766
3392.19-427212-350771-270008-326471-459757-475545
3395.08-419182-411135-394469-324130-259314-309614
3397.98-426911-446675-392362-334606-313266-268487
3400.87-242474-327510-396203-403747-403645-357228
3403.76-305742-310385-356663-403047-368471-386139
3406.66-475072-449764-344896-296697-335479-349496
3409.55-274580-214719-231855-256790-281231-299053
3412.44-352963-455181-448047-301925-164302-160397
3415.33-265741-357967-353967-263238-220388-301956
3418.23-419574-486722-453484-332089-176181-89349
3421.12-178392-329994-377220-346937-283144-238933
3424.01-251255-297049-422234-505598-472540-393751
3426.90-270716-204589-290711-347697-312020-296757
3429.80-323219-367949-400930-400691-386341-359830
3432.69-322689-318927-321203-307970-287896-265566
3435.58-227583-186211-144969-191640-347946-358613
3438.48-189518-102672-160066-216289-206692-231667
3441.37-295667-383323-459428-356499-155573-142275
3444.26-271800-279197-188583-164870-253729-364650
3447.15-354312-235063-223428-285680-232352-192288
3450.05-227755-272779-397394-552979-518226-317711
3452.94-179978-158797-160228-160714-215346-320284
3455.83-396917-409147-418894-389048-339884-377109
3458.72-432647-418275-338451-242317-228622-317809
3461.62-353672-302071-240812-171711-92868-60802
3464.51-152858-247206-258603-291813-353506-360269
3467.40-260095-208255-302192-373228-333761-343418
3470.30-446357-499056-409247-335377-419962-482289
3473.19-421708-312667-254533-351747-450986-400060
3476.08-236656-114368-114725-116629-161259-299435
3478.97-406280-468260-456701-353175-278829-323484
3481.87-417034-430764-395093-348071-270899-248021
3484.76-294243-351733-439279-465242-399076-278708
3487.65-145603-144993-231203-274045-337050-381453
3490.54-366191-364178-360057-285372-214526-238145
3493.44-252336-264338-315796-354440-332536-225160
3496.33-181581-265419-340265-335916-333461-303640
3499.22-245160-221139-184512-197014-249619-262743
3502.11-310319-390093-406577-288221-183022-297101
3505.01-440930-464633-469995-506488-472694-333032
3507.90-280918-381714-464153-429276-315505-250671
3510.79-322574-381986-375426-402181-415018-439290
3513.69-451764-318797-239093-340384-438943-484499
3516.58-479508-391359-305679-307431-343518-372585
3519.47-439887-463332-413621-384725-275946-187114
3522.36-255075-333449-359792-307601-211915-229161
3525.26-326241-356419-357653-414151-431202-367277
3528.15-371999-440472-477212-434777-342685-335358
3531.04-363082-336468-334437-344514-387190-405369
3533.93-281948-184027-206837-277180-381552-419082
3536.83-377667-399626-406456-321639-267194-292695
3539.72-280667-263869-373756-482151-445760-376609
3542.61-401291-393578-304706-270519-355214-390888
3545.51-332699-329169-339961-312799-258484-272453
3548.40-357713-385152-389247-371063-326007-310561
3551.29-292988-320397-391733-435157-440087-420511
3554.18-384746-359722-379676-426862-401871-275761
3557.08-208921-290924-432037-504041-458512-407623
3559.97-375913-236716-125072-216388-366942-392127
3562.86-380776-416928-419499-385266-334312-295884
3565.75-306221-271919-195798-108874-99684-250552
3568.65-344050-287014-271130-382217-496466-529474
3571.54-472590-386091-365100-368927-322284-307234
3574.43-331265-341822-298564-218598-213203-291781
3577.33-369762-421521-421182-361396-314258-335706
3580.22-414586-481985-505994-448567-369088-334322
3583.11-275318-268222-294307-281940-217904-150865
3586.00-271677-460790-459221-363843-268881-246253
3588.90-414092-492607-338553-222171-281711-387335
3591.79-390077-320765-245742-223116-333327-465845
3594.68-487571-488113-492287-480450-560679-611721
3597.57-481533-305507-225607-256312-335163-354599
3600.47-277710-236964-266820-297573-330391-341689
3603.36-358168-389488-383245-348878-379181-456169
3606.25-427182-378220-402278-381788-277707-148106
3609.15-141205-190334-215070-291252-339901-252380
3612.04-175676-271026-362234-289628-228758-262472
3614.93-301909-346085-384366-370317-240645-167896
3617.82-269222-374795-267435-88200-113447-263130
3620.72-341378-320892-275088-267028-287173-291058
3623.61-311590-323863-270567-239862-269253-250752
3626.50-106889 56206 169980 189241 164972 143723
3629.39-58393-266776-306234-322435-298184-284414
3632.29-273284-178010-112732-182729-292126-282309
3635.18-250403-339246-423350-411864-344103-269717
3638.07-206206-178552-203034-206278-207167-274338
3640.97-321350-299066-279299-257225-252175-299317
3643.86-333842-345362-341021-315543-301372-254276
3646.75-148134-116124-110291 87304 272619 125305
3649.64-87614-115161-158508-266447-275870-227198
3652.54-251354-328805-363859-313370-257595-210949
3655.43-54469 25727-120487-287436-334036-306730
3658.32-332110-389203-336513-227805-189390-266088
3661.21-374545-379839-242853-169102-292980-334738
3664.11-186529-118226-209721-337789-361247-311600
3667.00-348791-314231-99228-21005-145098-137153
3669.89 83305 115506-103391-199148-250995-361116
3672.79-382947-309843-169164-24553 57655 193888
3675.68 188634-73844-251067-261748-188013-115637
3678.57-114904-228870-359803-313896-239722-314362
3681.46-367892-277931-171780-181346-267888-330634
3684.36-330892-345725-401110-353470-233048-135221
3687.25 77801 364253 308794-10149-203238-214647
3690.14-142451-85297-124857-250240-326717-240502
3693.03-148107-210867-302260-369596-373499-313908
3695.93-266653-257422-317967-345098-284938-279554
3698.82-261496-138954-113863-214329-218800-125357
3701.71-139958-264190-301952-242190-222373-242958
3704.61-285633-368519-430419-402606-344015-346392
3707.50-380277-361769-216199-84663-144998-234466
3710.39-267130-269344-78457 85422-26438-208326
3713.28-342631-448232-467529-402786-319973-317156
3716.18-384504-351499-317430-394087-434027-429070
3719.07-399659-328413-250238-209981-284050-363886
3721.96-320255-253776-232885-208317-216190-251617
3724.85-300295-346978-278180-174552-198246-267300
3727.75-282056-282025-290613-259870-230543-278276
3730.64-332226-272849-162701-199784-317615-382490
3733.53-329838-220773-213730-280102-246121-28475
3736.43 25633-188029-236998-152523-215755-320069
3739.32-308795-286154-258624-167130-135506-222779
3742.21-301093-298021-197563 197520 576378 342595
3745.10-148874-318980-274741-281874-347102-378986
3748.00-250401 159425 430936 175238-153286-272059
3750.89-170286 182151 337398 74915-160831-231770
3753.78-259526-293023-375035-422515-331383-216035
3756.67-260998-385445-405106-384481-334493-181813
3759.57-75640-161439-334213-442562-424205-329344
3762.46-314336-390282-352215-270930-307944-380226
3765.35-408762-391210-327604-248231-206253-215593
3768.24-289398-305426-212031-247101-299291-261633
3771.14-295877-341544-342839-350761-333835-263967
3774.03-150262-88882-150841-290053-362730-334232
3776.92-331118-334756-261516-176725-157975-220203
3779.82-247674-231712-291459-353363-300707-197493
3782.71-188822-263413-268921-271088-356141-361661
3785.60-344037-279838-199568-290684-395556-385946
3788.49-339520-319656-292714-227987-167786-169594
3791.39-251044-288899-191096-165470-302777-406645
3794.28-425009-384264-302916-189590-219306-397661
3797.17-414697-291879-246607-262570-282582-229115
3800.06 19304 337170 371401 53212-236932-308943
3802.96-285302-289867-250102-186711-253278-374485
3805.85-324535-113896-80560-232239-258029-225723
3808.74-308626-377749-344872-309228-288781-268632
3811.64-221968-195345-248415-298024-269940-232146
3814.53-202807-2777 253470 96245-189383-213518
3817.42-191195-248942-316302-323351-246810-159871
3820.31-148221-100561-44874-164552-229665-192001
3823.21-201458-230202-293291-320092-251959-191971
3826.10-194684-292221-378769-353335-283540-269366
3828.99-347804-418859-473608-447895-311280-285768
3831.88-409862-522861-553205-470810-311220-170449
3834.78-181118-317876-420461-456765-296563-16909
3837.67-53705-242470-291812-291611-257046-213946
3840.56-274911-445793-545079-640659-762336-699535
3843.46-451628-315461-433674-525772-373344-233757
3846.35-490812-839629-593139-145151-382420-1240001
3849.24-1505396-841876-294288-169101-97690-142405
3852.13-306507-210436 268694 583727 280836-278804
3855.03-571598-521039-370810-362267-476323-540807
3857.92-555829-587730-544533-470404-477821-495412
3860.81-454601-436510-441401-325691-205020-213391
3863.70-217128-121313-57657-148087-270153-332723
3866.60-305860-266561-305749-298385-242241-138502
3869.49 45086-7521-210691-249421-286636-374767
3872.38-354337-238790-134153-130008-213579-262658
3875.28-317580-349779-322074-346986-368539-340216
3878.17-310572-297382-256724-206359-203103-246172
3881.06-326280-425739-519805-546155-470177-399676
3883.95-345559-238190-58134 16120-108301-215085
3886.85-206128-165009-232842-344823-361618-319985
3889.74-255308-77915 99177-26011-267729-332040
3892.63-284584-228423-209398-266553-356850-377576
3895.52-341587-402598-400569-298860-295330-339784
3898.42-303963-190677-151068-239957-290985-182479
3901.31-63955-128320-179467-58487 77483 52618
3904.20-116215-210808-228750-265518-266888-225785
3907.10-190998-229402-333488-369547-252889-163716
3909.99-236544-372403-409539-309582-231118-216756
3912.88-220237-224216-208779-171508-147067-190484
3915.77-229523-167782-60594-73381-282302-521819
3918.67-538241-391390-305014-282167-253852-270957
3921.56-350815-385604-320859-242612-130679-121649
3924.45-196580-105659-17250-33057-117943-196465
3927.34-137368-89845-144669-263514-294459-272558
3930.24-431531-587827-536922-406354-380635-407826
3933.13-344171-336609-369787-346668-339227-347399
3936.02-316845-218971-159430-178990-206887-224242
3938.92-248473-380653-540668-549874-474231-394020
3941.81-279441-178978-138422-106129-77183-82468
3944.70-130959-152702-185948-288230-315702-316583
3947.59-356179-323581-279775-287795-309818-303742
3950.49-290584-332262-329977-294453-314023-396065
3953.38-441890-331196-270577-356390-373572-255955
3956.27-139201-157013-268139-277790-222341-242889
3959.16-282615-322244-362405-288100-127062-109687
3962.06-230340-375850-505002-498558-408879-333093
3964.95-242143-174547-131353-133224-180872-247839
3967.84-289600-246416-158010-159890-266877-400284
3970.74-475609-391604-256395-171229-141486-243114
3973.63-353048-364782
##END=
