##TITLE=Carbon Tetrafluoride
##JCAMP-DX=4.24
##DATA TYPE=INFRARED SPECTRUM
##CLASS=IUPAC A
##ORIGIN=NIST, Analytical Chemistry Division, 301-975-3108
##OWNER=COPYRIGHT (C) 2000 by the U.S. Secretary of Commerce
##DATE=00/02/01
##$SPECTRA VERSION=1.10
##$UNCERTAINTY IN Y=2.2 % relative (B=1.3E-04,C=6.1E-07,D=3.6E-09)
##CAS NAME=Carbon tetrafluoride
##CAS REGISTRY NO=75-73-0
##MOLFORM=C F4
##MP=-150 C
##BP=-129 C
##$NIST SOURCE=QUANT-IR
##SPECTROMETER/DATA SYSTEM=IFS66V (Bruker)
##INSTRUMENT PARAMETERS=KBr Beam Splitter; MCT Detector; Multipass cell
##STATE=gas
##SAMPLE DESCRIPTION=Carbon Tetrafluoride Primary Gas Standard
##PRESSURE=101.3 Pa
##TEMPERATURE=23 C
##SAMPLING PROCEDURE=1 L/min Flow
##RESOLUTION=0.9640
##DATA PROCESSING=Happ Genzel Apodization
##XUNITS=cm-1
##YUNITS=(micromol/mol)-1m-1 (base 10)
##XFACTOR=1.0
##YFACTOR=5.8207E-11
##DELTAX=0.4820
##FIRSTX=575.168
##LASTX=3974.592
##FIRSTY=-.0000988
##MAXX=3974.11
##MINX=575.17
##MAXY=.042682
##MINY=-.0002531
##NPOINTS=7052
##XYDATA=(X++(Y..Y))
575.17-1698427-785952-573672-392786-591039-1227929
577.58-956779-317226-1326459-2120170-2243587-2099007
580.47-1863210-1672349-648293-108991-10501 8000
583.36-250053-333186 696521 1217300 754833-94824
586.26-563381-418760-882739-1793747-1067631-60617
589.15-434634-914402-1023033-519306-446676-269067
592.04-131826-816813-767106-594184-635345-463806
594.93-606452-950722-1049881-1364957-700627-428369
597.83-802437-855289-406524-92596-429108-541368
600.72-238587-79165-352851-879667-734233-324345
603.61-111082-73810-310382-558910-82984 547204
606.51-24996-639566-547009-137393-26756-207306
609.40-214510-371342-277644-67205-22817-263330
612.29-270363-257907-270614 6648 64977-161831
615.18-100200-183517-276006-524793-684942-496180
618.08-72520-102876-40448-249324-582343-649038
620.97-281748-367298-411882-483742-678074-923602
623.86-932284-747347-611467-726167-590115-760575
626.75-647339-552584-350143-485715-293006-40786
629.65 417873 3109752 9411906 6776618 618563-719664
632.54-885702-792894-858148-736315-736432-745307
635.43-586534-369697-605514-492358-177891-198815
638.33-441968-609279-481734-496190-727599-376048
641.22 40584 96839-176964-237858 45736-104653
644.11-365846-77187 65537-11539-43627-19763
647.00-79189 220769 625509 301790 23859 70691
649.90 37506-174263-260872-179286 85441 122765
652.79-54744 13581-110183-122190-170473-138891
655.68 66243 132358 107034-29517-153195-439556
658.57-511883-652871-695829-679117-464511-395504
661.47-562123-751524-653655-420733-288537-382587
664.36-533004-411927-266242-472260-692902-843984
667.25-530068-397561-602448-525272-426345-565036
670.15-464059-477047-651912-668706-761764-859534
673.04-710994-727099-763696-600511-760024-835243
675.93-691241-813126-790739-659175-739397-699832
678.82-482898-449812-631354-708316-653532-752584
681.72-819868-796961-589820-699148-1000773-940376
684.61-590375-545813-635374-816133-827089-655521
687.50-718395-1034196-896795-616899-419476-528336
690.39-758514-791346-708458-655398-512827-479882
693.29-617410-722638-770085-636092-579961-795947
696.18-734448-553059-526446-587717-612551-698061
699.07-571321-438282-447850-648765-736595-596880
701.97-425400-545629-794324-785458-596071-327316
704.86-241631-299426-281892-426862-622390-713229
707.75-747272-797215-474370-231316-397582-743652
710.64-613317-565686-604774-672368-688288-598529
713.54-430936-335675-367006-484675-336153-364266
716.43-526611-523435-504478-672219-732884-810944
719.32-590211-353241-433160-509486-465590-352961
722.21-419708-362741-255841-402345-500658-503941
725.11-374917-474724-496168-519821-498400-506833
728.00-522964-546408-387962-340100-494546-724044
730.89-577740-459543-519570-525162-503621-438766
733.79-393945-392429-292080-325495-473653-536794
736.68-490854-565161-369634-256312-402187-620172
739.57-525031-464451-386054-351602-489025-486379
742.46-396460-398511-642044-655951-301420-247941
745.36-556121-623560-578013-656553-570791-520489
748.25-486994-503843-472746-396052-417220-577405
751.14-638584-673415-637659-515722-412614-503239
754.03-565924-407883-248099-262907-367150-448673
756.93-479277-449794-434394-531627-597525-641698
759.82-617470-499777-466919-502758-390673-391551
762.71-439372-666086-766294-743984-607978-483405
765.61-435026-465989-485150-569029-493523-593883
768.50-555103-439933-487267-630436-738627-684658
771.39-539649-497826-554187-584298-468408-426288
774.28-446269-510071-552191-638041-656518-635062
777.18-488126-527398-639635-649361-643887-643400
780.07-619016-661610-679961-648220-534280-672434
782.96-645400-555466-623272-695595-708701-657145
785.85-565438-647312-714787-650368-542574-658300
788.75-777331-738570-643000-639504-605033-673802
791.64-571122-443737-450682-555482-544135-574878
794.53-578790-597247-542603-592122-673104-808901
797.43-812022-600404-547585-652065-586999-541868
800.32-511716-570781-686732-729902-558402-382515
803.21-358403-563156-648090-679556-822145-885704
806.10-585010-450335-432081-581981-738871-690511
809.00-442795-584427-682606-673464-655349-660996
811.89-640151-692841-543058-337540-188110-436137
814.78-872435-939055-680000-578921-580600-580284
817.67-628890-725289-528843-377357-498949-775918
820.57-804850-637373-489821-440953-372083-531013
823.46-644497-556250-393811-435053-505631-488130
826.35-544012-594933-631527-795925-741024-677652
829.24-756213-754194-602270-634995-690051-592823
832.14-373614-365578-495478-621464-822927-967994
835.03-700973-448772-522908-584730-687813-609583
837.92-347224-469546-654343-730182-736745-777200
840.82-815123-821539-663351-516123-644264-743571
843.71-589318-541837-572606-619980-652767-731430
846.60-617433-598113-571497-412770-220496-441518
849.49-666873-603696-489573-573984-617364-625521
852.39-502029-521742-497687-600133-689877-745975
855.28-572108-564037-478951-511964-577593-671177
858.17-671958-603457-429481-385249-333453-387803
861.06-408760-392557-483714-681094-638002-594503
863.96-562960-546846-405496-339445-386576-632182
866.85-728875-507539-272553-353393-463288-553976
869.74-586817-494147-493380-673122-665288-678517
872.64-592566-659463-724334-663806-550617-522390
875.53-417090-385965-376585-423746-435002-449764
878.42-409369-490576-520707-482252-491655-595152
881.31-466714-518468-549541-527171-459508-525932
884.21-645256-510949-362522-500794-498147-576943
887.10-596645-696686-585696-562013-566758-515562
889.99-591584-567610-335163-502811-607380-447484
892.88-523330-665983-643774-671335-461049-345529
895.78-384422-461878-509478-689069-761025-741547
898.67-667710-741788-656230-564407-511866-533728
901.56-534084-614257-687421-761473-700748-485969
904.46-515822-768679-826904-635945-511129-565670
907.35-630039-584482-473688-515509-519247-510044
910.24-436192-471555-413590-518871-557321-679717
913.13-625372-574705-591902-559909-477506-657989
916.03-650250-690909-686855-621808-471286-415355
918.92-547603-686633-623962-521373-535675-634130
921.81-595185-561260-559121-594780-486331-390597
924.70-433020-567897-465506-419198-522982-577381
927.60-534393-518357-507771-569146-563164-574703
930.49-516043-568278-568729-486169-498143-566468
933.38-422552-426513-469375-463852-506468-678039
936.28-653203-536378-510662-522401-406393-598662
939.17-682798-672789-629411-570881-516988-599135
942.06-597785-543870-496703-504576-376489-440700
944.95-557628-513764-478073-567511-550152-534691
947.85-409952-463225-520387-597081-621983-553431
950.74-456020-559090-588783-610869-562568-492713
953.63-424515-482835-466277-525659-452314-475395
956.52-616547-688582-669817-573677-465572-504887
959.42-470407-522542-459192-460027-521917-483770
962.31-333201-464169-608807-626985-516223-505476
965.20-479087-560802-484958-539739-509802-588765
968.10-644992-620717-483969-451236-402349-405981
970.99-480333-506060-573225-677215-548393-455356
973.88-370161-409445-568192-786007-758383-554522
976.77-522475-690648-593713-621027-574356-617646
979.67-505747-412393-469571-505656-432469-486019
982.56-456077-544529-618068-755041-754491-669469
985.45-608473-629093-494019-518984-450552-514074
988.34-593853-569856-418250-489040-610126-640083
991.24-532886-571922-537939-552542-380133-479681
994.13-551847-596147-590600-630604-585022-641217
997.02-691955-616424-432214-414541-388653-468327
999.92-400796-401472-523926-674516-569027-575276
1002.81-495969-568245-599708-658024-542620-529563
1005.70-509900-522663-600530-612289-510446-530829
1008.59-461473-506692-528193-578106-562224-587362
1011.49-587414-707762-595787-553798-515985-552444
1014.38-556665-599166-625315-645538-557118-465430
1017.27-444615-510984-508919-578362-547607-636525
1020.16-545934-513967-448960-380185-453195-664304
1023.06-554867-435720-417848-578283-648148-639888
1025.95-498047-469646-417510-528774-528902-580255
1028.84-535446-518251-480096-511452-462434-574595
1031.74-486838-432634-465857-493890-439985-567318
1034.63-577892-596914-545062-525421-383232-411701
1037.52-464344-557640-452476-499498-579312-616305
1040.41-573376-651232-528844-419588-426084-454935
1043.31-420666-454193-517466-678211-565941-495050
1046.20-512136-631878-609085-695265-674809-547434
1049.09-411291-471887-460579-353229-288588-438203
1051.98-403443-427587-424484-453211-346100-364005
1054.88-391701-444029-311418-390645-492717-574653
1057.77-507595-602891-546981-493446-454727-470790
1060.66-334723-330785-330709-416903-457747-532835
1063.55-613078-544405-381098-434479-278076-320680
1066.45-437524-493310-584767-608731-492860-505923
1069.34-415020-446565-395190-476187-404065-415250
1072.23-448937-582047-511530-403316-331620-387810
1075.13-393405-518192-379994-326083-364917-516560
1078.02-476288-498889-453418-617733-633598-719889
1080.91-592915-564616-529828-561891-475743-486227
1083.80-447039-524685-504008-546973-452541-532335
1086.70-581231-587982-509092-484867-421363-469528
1089.59-470747-598177-488420-582757-627031-579557
1092.48-480300-582888-532776-534922-421107-387474
1095.37-409800-461398-473414-640599-563204-662526
1098.27-598833-601360-562357-548049-453908-564847
1101.16-543492-539284-435699-484236-399990-439155
1104.05-337810-531302-519523-585739-552632-508139
1106.95-382459-472209-576772-622483-482227-651668
1109.84-629468-538990-414435-480265-438523-512944
1112.73-558371-607031-475426-485219-365110-453721
1115.62-423982-498975-479760-591050-591272-689130
1118.52-543020-631753-529688-528345-518045-452298
1121.41-421474-498119-417855-514599-482987-502180
1124.30-440674-441043-390495-597038-545291-563762
1127.19-521422-557911-454395-510064-560026-671346
1130.09-590629-536852-501153-640069-511682-521782
1132.98-515199-614505-460580-520293-554249-709436
1135.87-615651-558385-438550-472387-420851-455866
1138.77-467447-592084-531567-622932-548721-528615
1141.66-449804-466168-415694-555914-473729-565010
1144.55-467321-508693-474222-627307-502575-488019
1147.44-485038-568142-413652-398057-347349-517065
1150.34-547742-581043-442564-504394-459328-545063
1153.23-478641-540832-494278-568637-491928-613507
1156.12-504062-539917-515613-583108-455668-518266
1159.01-459977-480034-433314-600777-524324-629526
1161.91-527155-533797-450960-518193-466083-549993
1164.80-491906-599655-520649-459671-332379-607382
1167.69-620387-636202-415959-451612-381769-517314
1170.59-528849-603011-433397-525339-503385-588219
1173.48-419623-486675-320827-339846-403276-566281
1176.37-462487-628626-532819-528580-376789-501811
1179.26-375288-435278-395728-475329-363215-490309
1182.16-528322-602316-450751-593496-459792-414056
1185.05-294479-481810-431156-532123-444406-565416
1187.94-445907-518809-363771-474947-486057-637808
1190.83-551227-522651-362950-589345-442109-540448
1193.73-456259-524516-410457-550949-482396-547586
1196.62-362905-548342-532180-617556-477312-576515
1199.51-387980-483062-412738-582737-519593-622567
1202.41-443567-520816-433871-509666-418010-592926
1205.30-457099-525854-437690-597533-492246-592177
1208.19-343053-490197-519410-677539-388512-444448
1211.08-305258-421353-317308-532897-401271-516378
1213.98-444988-588740-378520-552343-452542-538338
1216.87-392000-589921-377612-516612-486220-678474
1219.76-511885-622879-424537-539756-423491-595569
1222.65-362828-438373-255026-400456-274018-496083
1225.55-333839-535622-424101-597508-313520-488135
1228.44-389685-514971-251090-463477-228142-245050
1231.33-25638-154558 108481 77375 377474 241800
1234.23 617142 631341 991416 1025243 1562458 1742887
1237.12 2130400 1882670 2443199 3013321 3597032 2847050
1240.01 3281817 4759089 6175631 3337412 1619974 2944794
1242.90 5926722 4737732 1706908 473625 721028 666665
1245.80 981618 817796 1185004 1124244 1549722 1537112
1248.69 2055061 2023127 2477423 2399211 2928651 2926610
1251.58 3554333 3734004 4458257 4653528 5647445 6132506
1254.47 7324057 7999296 9446778 10072118 10957824 10638042
1257.37 10762401 9935562 9504070 7655283 6499990 6633548
1260.26 11696110 13040381 10561027 10108403 12447710 14509218
1263.15 17235029 18578914 20207693 20635806 21659649 21077686
1266.05 20722291 18841894 17741053 16144963 16777303 17175479
1268.94 19113649 19780472 21733983 22050405 23833675 25345672
1271.83 29628271 33456373 39383362 44405144 52775628 61537403
1274.72 73999041 84976616 100816378 120047082 145273039 162657738
1277.62 184964055 219648955 246842348 253181709 279263321 355570903
1280.51 418027435 318725729 233748456 366258062 733270519 600611543
1283.40 235429622 206594256 263940112 274174936 217866860 147838475
1286.29 87963824 55007701 33004412 23156600 14743327 11935259
1289.19 7659412 6934371 4001045 4227229 2157634 2580563
1292.08 1164223 1709489 452743 1114416 56323 784775
1294.97-27429 560960-290286 353051-339167 312379
1297.87-350201 186646-429098 70140-551792-4511
1300.76-533780-111135-695238-182295-648512-169599
1303.65-655156-223604-540127-183034-680504-232753
1306.54-635375-307339-682959-280504-678179-309378
1309.44-627197-298423-548645-174359-613667-328125
1312.33-534444-178161-523456-218962-532144-307906
1315.22-610589-334600-588042-305659-640194-378409
1318.11-595115-301311-581645-326107-550626-377650
1321.01-688806-426293-532045-257928-592625-424414
1323.90-597066-317119-578881-357830-564744-297809
1326.79-483120-298614-589969-415840-600717-411114
1329.68-588336-299589-509350-391091-591023-333138
1332.58-531851-371030-550220-367564-514928-377196
1335.47-604178-368922-498235-407094-567073-324559
1338.36-479991-329760-515054-426344-597332-365272
1341.26-549504-305619-386136-258250-356958-209934
1344.15-520144-443066-551075-384653-620788-516132
1347.04-645555-457819-533324-337426-526184-510280
1349.93-726392-617637-728818-600515-783404-653143
1352.83-691457-478759-521940-268573-292336 9083
1355.72 25861 82771-203500-193730-487115-345803
1358.61-417745-370369-531695-462556-623266-460614
1361.50-597751-522306-622432-488733-616471-427118
1364.40-586934-444926-560520-493656-599770-467124
1367.29-417647-304471-483399-374731-483282-411400
1370.18-501291-466999-619715-429642-504140-386950
1373.08-477531-412642-564777-437267-449622-308702
1375.97-458400-424025-598335-434055-457606-438494
1378.86-578660-524727-534192-409622-601446-550757
1381.75-604076-526090-598146-410519-454563-381402
1384.65-429769-314980-443743-371055-409149-281072
1387.54-583740-548074-576334-480181-539439-498153
1390.43-607649-465567-512771-429063-565001-437747
1393.32-420188-224185-380520-460836-486992-348776
1396.22-534653-564494-687440-598745-524596-214533
1399.11-388336-549075-622951-510936-647058-532493
1402.00-603218-499850-507892-425107-477675-336413
1404.90-462724-433678-522332-449294-525644-467264
1407.79-512950-437857-526713-485722-568224-468514
1410.68-512884-418552-478827-403562-463930-352684
1413.57-505467-533017-562710-479409-497406-463602
1416.47-525111-333965-410016-395758-311944 13120
1419.36-229360-465529-603031-502334-516091-458117
1422.25-594913-547762-552000-420797-512737-452491
1425.14-448838-381107-520918-458537-534602-462953
1428.04-517731-472401-438561-360722-519654-528976
1430.93-591850-503256-546720-422563-429281-440801
1433.82-579057-469821-520187-487637-313118 99094
1436.72-176003-398807-586080-643742-631920-486104
1439.61-515997-428384-517132-493535-557115-517638
1442.50-575548-479518-494302-487685-606348-542414
1445.39-555822-459038-450996-369912-405313-418800
1448.29-551373-586126-665286-554493-565200-466381
1451.18-516681-493017-587971-534927-540520-450751
1454.07-493868-367179-383036-251210 151326 367253
1456.96-191332-322987-347953-379467-459099-434955
1459.86-489716-495102-559779-420475-508331-495696
1462.75-518213-482799-461907-226499-284784-409860
1465.64-507878-501688-545828-412911-393994-341568
1468.54-482356-485854-510027-416528-436874-308726
1471.43-141203-149482-401930-213158-281254-407166
1474.32-491375-434228-429765-290348-348370-371872
1477.21-442193-417835-495423-428209-456962-442387
1480.11-494041-371655-446211-477419-538454-497809
1483.00-536663-469206-489856-447991-492622-390327
1485.89-436753-382632-337599-334869-500267-465147
1488.78-428091-335846-346344-195473-312708-429010
1491.68-543345-500205-497900-421982-445930-379531
1494.57-430525-331135-27110 47750-347726-429075
1497.46-422695-161622-153190-354732-563589-496299
1500.36-457674-384891-404589-384487-429523-353202
1503.25-403136-339813-336214 4052 292478 100189
1506.14 164755 390383-46607-226775-228361-166858
1509.03-171005-124779-222221-198047-200538-73749
1511.93-123337-126175-134404-99900-198076-90015
1514.82-69869-40654-41065 38478 67675 106110
1517.71-8316-26688-108316 13008 73440 221147
1520.60 527373 519043 143568 170748 46132 6858
1523.50-74995-36884-6471 192458 36363-64677
1526.39-59505 7565-120338-99898-190093-162068
1529.28-187929-222128-282646-158010-254215-314712
1532.18-332220-225811-223553-149058-302275-248114
1535.07-258946-148130-140352 65907 270134 643347
1537.96 1692541 4348648 4552754 1624789 243050-122018
1540.85-283709 16171 36095-238412-316177-322879
1543.75-380805-212753-140947-176437-306414-390971
1546.64-432882-320881-327445-283016-240219-79478
1549.53-16498-93433-234771-161104-194185-138975
1552.42-178339-127431 32385 295076 65349-79705
1555.32-160509-152447-138008 187337 351704 612697
1558.21 576194 160547 220306 533546 215247-140003
1561.10-224956-268374-293074-255377-286569-226824
1563.99-240983-201867-263150-253768-323035-359026
1566.89-459175-413124-354387-273944-204104-32641
1569.78-194097-347343-381495-353243-413434-447846
1572.67-477115-421286-406119-469680-494100-210724
1575.57 300971 135253-345365-433745-492129-441025
1578.46-507050-483966-491554-498128-501187-453755
1581.35-507505-466840-529392-518281-520814-511213
1584.24-554579-525843-523428-472921-470918-497891
1587.14-578053-501932-505091-448480-455770-545123
1590.03-621136-525489-529272-482823-470842-421976
1592.92-440776-457976-512344-516997-579172-563888
1595.81-503878-403889-504414-525816-519991-470100
1598.71-464039-455556-527656-448173-440241-473028
1601.60-533958-523537-553381-482090-495875-473534
1604.49-504799-489293-488339-428297-438187-402531
1607.39-450255-438835-494742-507210-556096-516693
1610.28-540247-519076-466362-398419-455779-474320
1613.17-485199-462620-464241-411427-447636-257566
1616.06 160633 83366-317225-355772-427266-499105
1618.96-581117-506031-553706-500477-512498-519756
1621.85-523868-401166-218304-178072-381578-458377
1624.74-571764-521232-525247-470566-453093-365322
1627.63-386253-442079-503919-442926-464290-430385
1630.53-450093-431141-500400-501300-479061-416661
1633.42-455366-417760-258687 70857 52519-324648
1636.31-483217-398675-375549-434429-539849-485314
1639.21-440213-403910-488448-471259-491320-470313
1642.10-432017-411163-451305-419248-455961-418397
1644.99-229144 37326-253784-450094-365459-304535
1647.88-292733-319406-465771-530040-489041-432278
1650.78-473083-323621 208727 489264 531598 211919
1653.67-164588-185927-419761-470894-497857-480403
1656.56-558924-546528-556841-530403-523371-438111
1659.45-423528-372471-404129-349823-415731-340381
1662.35-315735-358962-424160-451999-498402-440454
1665.24-434843-407644-463774-468388-452453-352964
1668.13-344502-195426-223850-404873-538036-442965
1671.03-328608-328772-423536-473817-555070-508278
1673.92-390088-120424-64840-306203-497076-479729
1676.81-482608-412731-414275-433408-455144-365564
1679.70-386593-413640-511235-514892-457582-335306
1682.60-265288-185660-99515 371322 464236-139195
1685.49-424620-428766-481887-494287-411504-355880
1688.38-409029-403049-381846-330954-417004-494822
1691.27-516448-452354-444026-451371-405256-334085
1694.17-309400-92606 419562 491314-195116-438631
1697.06-428448-418971-432091-293940-20748 335648
1699.95 288310 76344-214287-333453-379442-372725
1702.85-431840-370127-259252-284897-505015-459598
1705.74-313711-239262-279448-334381-456271-395808
1708.63-377386-354196-402959-399324-454694-473989
1711.52-528665-443785-392670-431057-466125-378020
1714.42-189642-62248-152408-260573-267273 92257
1717.31-48991-166342-166763-349153-488930-468333
1720.20-442179-464638-546404-438387-396425-432572
1723.09-505854-439953-457123-445388-413278-325578
1725.99-393196-424245-439998-430766-412753-380044
1728.88-426684-366434-375125-416865-492685-531153
1731.77-498891-392048-80861-48951-90255 79516
1734.67-226126-470130-494504-419737-438056-426308
1737.56-461400-462554-471334-276642-168616-368807
1740.45-550226-527869-502273-451376-484581-418639
1743.34-388970-466684-504595-470859-489352-443798
1746.24-449140-348198-390967-413030-426813-379047
1749.13-442664-469614-373138-166169-176305-298710
1752.02-424303-482171-525553-485848-475527-472774
1754.91-526581-555276-546522-410902-432542-515474
1757.81-587181-524357-498818-426106-455799-517618
1760.70-487274-288821-353005-497248-592175-568585
1763.59-593826-584727-515050-445050-488638-487243
1766.49-524420-496347-347496-321692-398006-415551
1769.38-520379-458986-346524-249271-354749-203542
1772.27-30664-284251-524683-556714-482065-398695
1775.16-439466-507406-558055-490866-483542-477785
1778.06-501020-459527-438661-411998-431196-428543
1780.95-474555-442058-498579-510913-535597-475169
1783.84-443933-315852-366367-449977-448290-412417
1786.73-430659-403167-449099-447506-478226-464500
1789.63-478191-385801-342522-363458-363812-132859
1792.52-179466-370746-455993-463920-508903-492612
1795.41-448209-389115-480417-484673-488991-466294
1798.30-477152-400909-387038-441906-495475-482613
1801.20-437974-379097-462184-506214-558200-543061
1804.09-482596-420188-452204-509848-497031-420394
1806.98-416679-371998-415005-450971-464825-501307
1809.88-518821-453783-463949-436768-394381-351724
1812.77-433562-442414-436767-496431-574473-457338
1815.66-392038-406966-458623-476901-522736-527755
1818.55-515395-483882-507074-529724-509827-445645
1821.45-460857-481049-586773-600421-492986-420793
1824.34-375550-309988-417958-523086-579783-505946
1827.23-548897-559884-437308-353792-335318-265408
1830.12-383187-456642-504068-510920-492571-432978
1833.02-459289-451189-476599-431330-454787-444705
1835.91-458656-441648-424999-437989-485206-491486
1838.80-524574-536254-510280-465951-487161-491588
1841.70-532569-509829-452665-286041-73562-173249
1844.59-413837-466899-524959-554147-566819-453155
1847.48-495056-560260-515556-450386-567066-626278
1850.37-570574-481174-495214-502598-526000-500003
1853.27-497421-478225-523487-514309-522416-575746
1856.16-579812-466303-519458-566401-541859-526063
1859.05-547572-564275-565258-551764-552512-507320
1861.94-523162-459730-461659-432614-422945-436239
1864.84-487518-503835-554970-526568-517172-393135
1867.73-456573-479430-410288-344678-357315-399835
1870.62-504264-483448-458263-459418-534017-535396
1873.52-533500-481099-524473-500292-518558-498519
1876.41-500087-501064-479617-467204-476745-453683
1879.30-446934-435907-466781-462346-523443-531792
1882.19-515160-474778-477912-520847-579092-454554
1885.09-418872-442141-493922-503656-469039-394681
1887.98-423796-419659-371325-349711-444362-526833
1890.87-564629-489726-492656-463417-450617-458269
1893.76-447074-406133-435036-451594-441892-379067
1896.66-435761-413312-383072-446985-518885-462890
1899.55-456487-442649-426937-335883-311842-366994
1902.44-480199-452283-435079-401252-428592-381281
1905.34-365156-347778-377471-392063-396310-439898
1908.23-471562-436157-428989-376979-409421-390708
1911.12-376320-349480-330360-326119-416568-419363
1914.01-403387-443981-422139-343356-388230-411970
1916.91-369553-238744-256968-311347-311435-349561
1919.80-429241-408073-382647-313889-356905-305825
1922.69-341858-412323-432590-369876-362536-392164
1925.58-444344-471670-464914-412124-453323-455038
1928.48-431881-375303-385029-396387-366001-345147
1931.37-426434-452864-479033-453310-364540-349482
1934.26-412412-422961-427932-421558-448258-428669
1937.16-484140-524205-518585-441326-406072-405821
1940.05-395237-355472-405639-407174-424661-440967
1942.94-464462-469390-499062-426390-444814-502539
1945.83-473147-411339-429990-339435-365049-448397
1948.73-464129-511002-532342-483696-459298-431197
1951.62-481630-477916-459917-435177-456977-446771
1954.51-497683-496343-462050-440900-495854-496386
1957.40-483642-448641-431420-373812-418451-458451
1960.30-446218-444891-496664-499887-521358-483691
1963.19-435020-432461-444493-449033-489106-444762
1966.08-407838-334736-360851-402537-467838-467355
1968.98-492682-507410-559628-496842-401089-424978
1971.87-504740-522369-512313-472897-466581-446216
1974.76-448301-469691-558711-471802-431070-481092
1977.65-504693-461066-492567-470882-419967-452446
1980.55-501431-423787-423919-428971-447138-479129
1983.44-544491-510544-472491-487988-503313-435517
1986.33-461075-485191-509241-482978-429526-412752
1989.22-511730-497250-431065-463127-496071-441265
1992.12-500914-522504-533994-526519-512674-484019
1995.01-518787-497190-450399-403481-458812-522843
1997.90-545466-464931-443232-457469-455583-392526
2000.80-382935-404291-491733-528328-546901-527153
2003.69-531156-492444-501643-478726-493760-458289
2006.58-475216-502793-476277-428258-510324-533751
2009.47-501570-454106-450517-482104-518044-557537
2012.37-560923-517823-512452-518281-566251-516096
2015.26-426528-435298-471607-427828-468228-513158
2018.15-519720-491108-503546-532806-563384-500404
2021.04-467958-471521-503679-491192-529589-522624
2023.94-532731-556955-574472-531713-573106-608208
2026.83-582170-544723-500599-465750-497488-495369
2029.72-528127-469487-475075-542015-569305-553662
2032.61-540108-512270-591264-567301-535145-462128
2035.51-454773-452998-475126-489288-529780-475334
2038.40-490835-522843-541022-526544-574797-548802
2041.29-504844-469807-524478-526731-512621-476240
2044.19-535224-554495-551250-504958-509227-456380
2047.08-511825-556389-600019-583509-570103-501621
2049.97-451237-444407-475648-484841-539611-534430
2052.86-511543-552255-591991-573915-559686-518555
2055.76-521817-507267-508375-458898-473894-516568
2058.65-525530-497535-514994-492035-475397-462688
2061.54-506126-539993-551644-517946-545803-524722
2064.43-514608-518322-529998-528790-540548-498205
2067.33-478496-479620-510489-487558-522070-467408
2070.22-460996-477241-487907-478300-542172-535867
2073.11-465164-410190-422464-461731-562972-569833
2076.01-594883-563288-493493-400902-413800-482552
2078.90-539251-494022-531525-512631-448437-441829
2081.79-466985-477062-524687-475501-451238-485678
2084.68-526179-528951-497411-445789-449442-476937
2087.58-490306-483643-529284-487211-517281-535020
2090.47-480827-491784-504681-419351-401593-434018
2093.36-459678-509819-525336-498278-497672-522407
2096.25-504955-440047-463139-446417-523505-545013
2099.15-524512-483055-499310-518141-571502-573946
2102.04-512782-393538-435508-529289-547989-435155
2104.93-451895-521019-545947-538159-548773-464565
2107.83-432728-500713-531494-492822-527197-488562
2110.72-468691-443167-447830-480704-532907-474056
2113.61-401156-410959-510160-533148-489402-468496
2116.50-511161-486639-463868-459714-465693-437045
2119.40-498762-539834-511489-525979-531089-481388
2122.29-499107-522018-543295-487522-493021-476632
2125.18-413197-442473-500180-490916-547924-478595
2128.07-471180-519307-443909-406660-458434-459307
2130.97-480322-452444-446148-475824-501132-459755
2133.86-431482-361076-401594-468601-521928-512379
2136.75-477743-422617-449980-460197-476845-438262
2139.65-406028-438353-465922-415896-390131-429726
2142.54-463097-401377-332593-308565-348906-396582
2145.43-399207-407979-393094-404067-465510-434692
2148.32-440177-403860-452609-546653-530505-410064
2151.22-383274-403601-459947-469416-408679-481856
2154.11-530809-516380-483504-399254-396679-403950
2157.00-431841-423130-423142-419617-494195-499387
2159.89-470602-436530-430773-475801-534919-501594
2162.79-425147-366929-362414-318638-351916-375176
2165.68-403366-403405-456267-454276-453401-445926
2168.57-455933-460670-435993-370110-386072-312480
2171.47-275080-297120-298534-256909-247554-244297
2174.36-255365-241260-265401-249354-105076 14409
2177.25-17683 45483 89892 160389 216909 349296
2180.14 444261 499377 582714 760026 835197 819235
2183.04 980270 1240209 990328 716739 1511960 2568388
2185.93 1867070 555486 367730 681948 738994 489175
2188.82 161981-116180-288047-343963-363403-353862
2191.71-380909-420903-552599-628444-557066-496108
2194.61-493209-451079-486686-486148-449732-428219
2197.50-425016-466348-510894-498911-504091-525242
2200.39-557676-493351-446995-405937-435937-508663
2203.29-538739-508662-496323-530324-498475-482754
2206.18-505952-486582-495127-458968-443547-440218
2209.07-428357-426893-496528-530704-580282-535324
2211.96-527613-552193-507003-498465-495249-445711
2214.86-502998-532344-452210-361214-411546-436987
2217.75-455822-455104-391959-333271-346073-398435
2220.64-460819-481289-486078-445055-458286-448573
2223.53-420621-478602-509466-446513-456130-453382
2226.43-449379-434978-472255-463008-455499-446628
2229.32-490653-503711-427866-434709-497490-485288
2232.21-497088-486724-530668-538806-525279-427173
2235.11-438723-504620-498745-448469-449279-424271
2238.00-464013-509845-475636-436960-505008-483656
2240.89-420314-462947-519287-478567-517765-555242
2243.78-523161-439624-485432-463395-396613-399767
2246.68-408623-460743-527707-527795-570572-521018
2249.57-460845-409908-358616-401863-514458-502508
2252.46-504500-539033-505446-450678-439897-479923
2255.35-561455-553705-492068-458516-488492-484335
2258.25-452669-393607-437161-442097-491869-542778
2261.14-571555-561810-483208-434304-429548-441597
2264.03-451094-461922-472733-436619-475249-501076
2266.93-451663-404171-499386-570717-562813-523507
2269.82-525704-455458-473140-475366-426990-383764
2272.71-408008-429933-468925-479528-523731-529294
2275.60-457373-420065-512817-518197-452902-468072
2278.50-459318-412006-480331-526431-521044-444593
2281.39-431445-449715-453069-510527-560120-502070
2284.28-478060-434938-364933-395523-466050-458190
2287.17-424580-440293-473772-456790-425403-384805
2290.07-444852-499224-500212-443401-415031-450934
2292.96-442471-372642-354424-375373-437966-484597
2295.85-491223-480832-544426-503815-404258-352098
2298.74-437600-483148-443817-458218-483351-457909
2301.64-426135-410883-430495-510884-488692-402514
2304.53-417449-441824-464807-408678-372711-419121
2307.42-469107-441538-441578-533829-549689-409264
2310.32-354009-371578-433532-434701-359122-293882
2313.21-427958-468499-405895-390404-401588-344882
2316.10-320512-306107-357413-413500-403792-301203
2318.99-347052-392217-353827-310347-394850-440214
2321.89-424438-314007-315937-436986-354172-188067
2324.78-252995-389636-345733-151666-239424-469199
2327.67-322713-80731-234855-443122-321015-134222
2330.56-288095-425569-258539-166988-360326-368516
2333.46-148341-201015-395711-223251-59868-207536
2336.35-292617-144200-183325-422183-396338-185295
2339.24-255205-368613-244953-178172-380766-332893
2342.14-173021-333280-487239-267758-206419-335159
2345.03-335265-254239-361691-438787-472676-467996
2347.92-473773-441947-409770-404564-445816-426825
2350.81-304417-328255-406834-271257-307277-411681
2353.71-284423-260108-355508-187150-152516-336046
2356.60-169988-178195-258444-8535-151189-299538
2359.49-61762-200070-306995-71387-242865-261977
2362.38-146628-296648-128455-103182-268172-114195
2365.28-172933-170836-64535-277432-258071-242256
2368.17-256474-230384-405082-367393-328932-300130
2371.06-333362-370832-276846-314364-407462-460772
2373.96-368535-288707-362279-422579-480552-475447
2376.85-473354-416939-390422-383342-405048-409044
2379.74-387398-346653-438020-479658-457151-510797
2382.63-496559-480231-486609-463078-460858-449701
2385.53-508976-526441-543588-500762-423854-420556
2388.42-485177-518620-524367-519991-544242-492495
2391.31-418775-380856-443052-486384-468201-493377
2394.20-475059-374960-425320-464829-479328-461680
2397.10-412442-380054-435138-437347-405114-423498
2399.99-430765-387052-397128-432688-387938-394029
2402.88-488522-587106-607366-490414-458721-535017
2405.78-546862-433050-421165-395031-353251-327399
2408.67-395537-438796-415605-355568-412002-441262
2411.56-376084-378605-453852-473285-512808-465055
2414.45-471379-511900-503455-461068-436044-392908
2417.35-430882-472387-442420-430411-423900-449971
2420.24-488922-431460-456543-492656-463639-417378
2423.13-432705-444909-473329-416274-321012-364692
2426.02-447799-462554-469726-408966-374512-369235
2428.92-362426-394209-436037-440913-492489-498566
2431.81-467702-407274-474096-513785-483737-491121
2434.70-459764-370627-408040-428404-383796-385849
2437.60-451957-486994-493257-489215-436197-440066
2440.49-520931-484165-457140-470352-519159-514304
2443.38-484416-453867-408802-414653-443007-433716
2446.27-397141-397025-515695-499621-389941-404066
2449.17-429895-350454-359947-404915-425981-394431
2452.06-449094-486897-449683-385165-439386-496329
2454.95-446371-463210-496160-469521-415904-429821
2457.84-408158-434621-429759-446610-509955-545365
2460.74-528565-465940-465135-418520-369196-344249
2463.63-364757-391830-461141-441864-415674-452984
2466.52-485186-444344-464444-513529-505152-376732
2469.42-407852-484146-477770-461949-448188-432480
2472.31-483125-561308-533931-518623-503496-456154
2475.20-471311-431401-406366-426727-432997-452857
2478.09-503018-546601-549798-477336-489922-450525
2480.99-412614-391530-507445-523894-425736-401237
2483.88-490367-520507-465174-471317-533606-565441
2486.77-514628-399439-399038-397340-388121-460721
2489.66-544596-487600-482266-493796-473303-539235
2492.56-526645-436652-469970-417589-368273-425903
2495.45-454016-384069-370230-411895-439995-499314
2498.34-551696-494286-506818-519363-430884-375247
2501.24-442731-447791-376300-377983-449051-470380
2504.13-469702-450942-391707-360477-370846-410547
2507.02-459451-423128-386299-410929-423706-446360
2509.91-528500-490821-422926-419973-481129-437511
2512.81-355994-377925-478502-475305-420265-403127
2515.70-437066-409645-420935-454363-440952-424295
2518.59-452671-475214-396109-428904-516922-548908
2521.48-515555-412361-405698-429785-371441-332037
2524.38-313480-270706-347771-470323-510815-493466
2527.27-438901-396737-449007-447954-474337-477919
2530.16-405624-412101-426561-368422-411046-424160
2533.05-408928-388332-377065-421694-439427-362168
2535.95-283999-264664-304852-337188-373798-343833
2538.84-363951-399607-366999-393785-442967-442354
2541.73-394440-392678-446498-468156-456066-471567
2544.63-455372-401018-390264-403399-500570-589228
2547.52-570701-546063-540095-558108-601003-731638
2550.41-874387-941191-970564-927566-892012-912650
2553.30-1040429-1203516-1236611-1207736-1355917-1477468
2556.20-1522892-1665246-1778801-1649447-1636196-1712673
2559.09-1916245-2058026-2139851-2194769-2445129-2176082
2561.98-1647126-1449069-1681737-1757095-1794179-2601210
2564.87-4088120-4349537-2856250-1079978-459732-879691
2567.77-1582906-2189395-2370700-2349034-2134892-1890728
2570.66-1692277-1458393-1174106-889673-681428-495078
2573.55-402392-444735-527385-581015-470878-419417
2576.45-461758-408734-307941-248117-253968-267477
2579.34-310762-343499-332650-319642-296588-267268
2582.23-329790-367783-406566-324160-242681-245660
2585.12-247703-255730-256621-304583-336169-324628
2588.02-314106-333828-415511-374579-292763-257518
2590.91-260910-289764-279158-232086-278844-282021
2593.80-249088-264921-301707-349604-412043-458011
2596.69-346845-266211-288542-272283-311615-360349
2599.59-336324-320242-338807-354154-357632-314677
2602.48-276175-274401-247473-219946-228559-243423
2605.37-336521-349395-391028-337371-327888-373684
2608.27-413087-460076-479367-423842-417201-358333
2611.16-339037-360030-391626-474756-460398-346181
2614.05-316592-334619-428107-436720-428864-426798
2616.94-412975-446271-545789-576501-479870-445023
2619.84-412259-379771-355933-419671-459674-417103
2622.73-428755-420854-406601-402670-414576-399412
2625.62-404407-499300-514102-424051-433815-545754
2628.51-589630-482119-386848-404394-407677-384026
2631.41-433049-534215-515207-461689-471611-452460
2634.30-476054-494182-493205-483041-496637-527987
2637.19-517566-525426-546873-504789-521331-482449
2640.09-330129-317744-331751-279479-306065-392983
2642.98-458769-513474-513849-586298-587325-581151
2645.87-629464-556908-429621-449844-522146-456170
2648.76-367772-321261-377816-417825-455180-535461
2651.66-484656-421109-486398-463978-469738-501779
2654.55-383666-331845-408416-394207-352038-415918
2657.44-509953-471490-488077-418403-452563-508141
2660.33-484200-433603-435737-449998-461223-473193
2663.23-455602-493631-495168-483648-440690-414793
2666.12-473912-452373-458196-443789-392856-449089
2669.01-479286-410888-389654-458959-467072-394570
2671.91-354042-327709-377452-448876-488088-447038
2674.80-389375-421127-500636-474465-444997-414525
2677.69-476635-538537-470666-389931-466420-469812
2680.58-474161-511387-514204-456401-390634-392187
2683.48-412324-400171-382278-414123-358063-437090
2686.37-541576-492802-469001-474712-421459-427066
2689.26-444311-352060-394416-502449-528616-497200
2692.15-516898-442709-446170-462496-463402-412187
2695.05-326189-330329-493847-539738-516237-483935
2697.94-492239-542054-492227-434254-426076-412600
2700.83-417769-478618-508601-433510-425502-471466
2703.73-474300-515970-464078-350526-351862-432865
2706.62-364902-175514-209476-312798-316305-262162
2709.51-291261-411643-416140-421861-472545-416774
2712.40-396823-447569-445017-446705-409309-456690
2715.30-591561-595183-486540-378983-376851-342346
2718.19-379166-391949-391036-351402-342239-393757
2721.08-467696-493501-481442-483508-474993-412813
2723.97-351556-294541-319166-400250-457955-467950
2726.87-428890-395813-372784-386561-468975-418294
2729.76-369963-358097-392389-388860-394983-383573
2732.65-407159-478384-444736-380899-458524-433928
2735.55-306845-401547-502313-463160-397004-374295
2738.44-365329-393626-474778-421964-395009-391113
2741.33-438588-486632-463594-428415-456276-442686
2744.22-483121-500045-389071-327163-362960-331335
2747.12-357909-386030-398609-463213-470867-417983
2750.01-489728-485554-493002-522854-470934-407292
2752.90-329742-284903-329448-305122-381916-422971
2755.79-419974-437151-399911-459518-496043-477364
2758.69-466364-450020-399686-428398-520297-490703
2761.58-446795-352314-314430-334642-306045-316111
2764.47-358304-387821-387833-452370-533540-442611
2767.36-441269-503593-466303-449571-460908-431773
2770.26-391431-379887-459077-442287-437303-492120
2773.15-543687-487798-460625-422330-370702-418185
2776.04-454959-354698-275094-303071-454768-584085
2778.94-522825-381073-376191-433003-475928-446224
2781.83-391429-407145-513094-517766-437322-404854
2784.72-462228-506985-462758-336191-361633-479822
2787.61-486004-456466-423793-354125-378761-487544
2790.51-550708-478753-475640-496971-526769-485127
2793.40-410568-403086-492754-500355-470357-424868
2796.29-398442-419508-398894-432649-472291-515472
2799.18-440921-381903-342871-366271-471368-438671
2802.08-405578-506412-510409-437090-410174-445746
2804.97-436577-373291-396881-447730-432268-419089
2807.86-502684-510571-453149-393159-341038-312429
2810.76-425135-472399-430045-374763-315511-423269
2813.65-473557-468141-474601-453125-443943-456310
2816.54-450248-390367-354966-389102-394041-419022
2819.43-478616-461078-453614-424589-401776-417772
2822.33-435353-436923-486811-461813-423530-430595
2825.22-495612-454255-410436-432519-411374-377835
2828.11-438569-474198-412022-428779-421140-372912
2831.00-432365-506936-483158-408981-391183-410059
2833.90-439607-505997-502065-381146-276574-302459
2836.79-409443-583173-571268-396371-312974-300279
2839.68-318471-281774-261312-204739-277450-404249
2842.58-397585-324277-391922-426821-436251-438486
2845.47-430495-402912-394648-361868-354466-361420
2848.36-389024-370638-437844-433429-414439-368379
2851.25-352772-430129-445251-337343-314747-386582
2854.15-460685-455462-407340-367026-397486-344791
2857.04-332039-395403-423816-362868-291241-338249
2859.93-363705-398097-474238-403238-332738-361142
2862.82-377984-435497-343630-251505-303376-366422
2865.72-405492-480003-492488-477516-479220-348955
2868.61-310676-358829-446337-441604-360809-357491
2871.50-500317-528521-507950-407108-330511-339733
2874.40-349911-359740-460543-493260-447027-459496
2877.29-428149-440847-437923-371884-357884-377854
2880.18-433111-378052-361527-366079-330387-354386
2883.07-406753-421398-375196-415711-401066-348522
2885.97-376487-349546-383102-401886-353325-409068
2888.86-469213-392322-312118-264631-301382-382321
2891.75-390163-450066-498964-435915-330154-265170
2894.64-333587-395677-343801-220553-239737-332039
2897.54-480172-519225-403142-279544-278793-398574
2900.43-401801-378092-446475-502021-445213-210996
2903.32-225887-376100-450632-447932-452030-350418
2906.22-407436-456690-295432-180712-138385-135607
2909.11-237953-350397-290296-329321-420996-480926
2912.00-524855-501833-376561-408150-442757-417565
2914.89-433864-321443-262336-305689-368242-408636
2917.79-433861-393659-389928-462874-483771-377836
2920.68-297170-336452-419047-354730-317198-481554
2923.57-456864-416606-472152-426332-395248-475002
2926.46-443392-376971-370441-401067-467770-588823
2929.36-500912-276424-225106-333177-486564-557358
2932.25-519872-481709-522500-486941-394385-363242
2935.14-410324-410756-385477-361157-424517-484006
2938.04-483008-486719-499029-449676-357747-309116
2940.93-294524-335040-354125-441656-480518-468892
2943.82-512300-550691-462382-429889-414270-359212
2946.71-373230-426417-414653-388637-558469-585744
2949.61-451849-351701-298038-322544-369146-314735
2952.50-270555-416014-479372-493678-458379-424759
2955.39-362368-347074-349159-299061-303265-318835
2958.28-354896-468803-537826-514341-546718-535091
2961.18-422624-385993-343421-340827-323978-387472
2964.07-521154-493837-445149-383232-297566-339031
2966.96-452142-471540-499876-496669-509983-510772
2969.86-516546-460690-379901-320194-377755-389744
2972.75-435743-437617-402901-364668-391634-433797
2975.64-346778-412589-476253-432844-393664-476350
2978.53-516005-532950-440118-387456-435993-481600
2981.43-428332-358384-391574-356832-405003-478464
2984.32-468682-469934-428059-368252-332700-362708
2987.21-395355-288949-376481-552064-570004-500902
2990.10-424836-437568-453466-390143-342243-398194
2993.00-453494-478597-454650-437214-396779-290261
2995.89-344389-331362-331789-374733-293290-270306
2998.78-265530-382704-463481-495032-434688-312975
3001.68-328989-379806-444469-421880-340704-383942
3004.57-419758-381895-365848-438154-387857-409586
3007.46-477633-460314-398688-356768-381066-384133
3010.35-460426-522358-497495-458028-439132-493115
3013.25-480834-379322-419299-424141-419138-480940
3016.14-518522-539731-508419-458161-423711-350956
3019.03-393230-462378-379808-313859-304504-403854
3021.92-446640-376524-335183-305476-315095-346776
3024.82-357260-444507-405478-385571-545161-537074
3027.71-505118-484220-453612-472936-404740-398160
3030.60-533046-490175-372017-325239-365314-444339
3033.49-459095-450234-423312-409579-352732-444224
3036.39-540870-486021-432029-350285-375421-445948
3039.28-480489-473031-433694-404186-441552-505677
3042.17-555033-468958-410275-430913-474424-384865
3045.07-367860-469102-569489-538029-485824-448555
3047.96-370336-317233-443919-560840-485726-362282
3050.85-307355-324268-495224-507893-326543-267262
3053.74-420016-444320-315835-350246-440122-479588
3056.64-393099-296643-346255-438015-464525-455016
3059.53-384859-363306-407878-554820-534566-378671
3062.42-400476-589909-610278-493523-430403-388631
3065.31-306872-288095-266812-353087-442401-448924
3068.21-447789-394458-318629-310149-314967-373344
3071.10-382023-413981-433317-387877-377643-340426
3073.99-327730-370051-396384-479040-447372-472002
3076.89-528222-463594-359477-371599-426859-366490
3079.78-350956-406580-456610-453391-385933-358114
3082.67-288835-265585-291375-338576-443648-453013
3085.56-379054-401503-405747-379384-362437-275002
3088.46-224102-318180-384296-363934-322411-355998
3091.35-417475-447940-332159-313588-361089-410361
3094.24-472309-410421-231970-315606-429889-386076
3097.13-347804-350960-407361-407192-411215-367918
3100.03-323116-334147-375961-361637-388689-419897
3102.92-337845-272987-410616-532426-445830-336431
3105.81-445419-507733-340215-283717-400548-356582
3108.71-351709-525701-547543-448847-290617-251657
3111.60-334696-397436-494047-548150-435894-445586
3114.49-492974-508674-478255-418327-399301-300843
3117.38-236883-262245-331854-386890-391127-396656
3120.28-257770-245269-403235-448721-483995-380217
3123.17-268856-338966-445970-381822-367277-413020
3126.06-328611-244173-257271-366524-355359-303725
3128.95-325823-305349-314845-369602-398295-404266
3131.85-456859-395341-214992-127877-216777-241953
3134.74-246645-300306-489013-588408-475173-447489
3137.63-333293-275359-403383-444436-404774-334168
3140.53-373372-366876-320129-222064-169248-271793
3143.42-433850-535424-421073-393932-522039-487951
3146.31-337440-228779-313067-449205-477993-449029
3149.20-410492-456683-543358-488324-376114-448528
3152.10-445632-466704-464890-351050-340224-384254
3154.99-469025-444273-360171-413715-357290-286847
3157.88-330125-374482-376729-361685-344735-353403
3160.77-383043-412882-390016-435147-459437-506362
3163.67-334922-194313-348310-542924-615180-484028
3166.56-364472-420410-544752-527568-480981-409745
3169.45-309675-286135-360130-343900-249605-341922
3172.35-595817-527286-385825-352692-402180-518239
3175.24-438104-372509-399022-397008-336543-275146
3178.13-240841-375755-421726-338825-407674-478339
3181.02-524472-381731-273750-323380-300781-347709
3183.92-501038-580155-519671-472228-382881-331522
3186.81-445335-489670-405682-355925-367058-328028
3189.70-274739-381747-400128-340716-374771-396256
3192.59-471373-392777-402363-525467-430865-356219
3195.49-296105-257466-312883-393208-444247-409989
3198.38-369985-471575-406050-382440-469770-408084
3201.27-278939-264579-237898-314611-404957-428278
3204.17-400805-307179-371830-467786-532735-506119
3207.06-511355-478111-494938-486725-442294-484903
3209.95-480619-488235-529232-520249-427892-398848
3212.84-368917-272748-307247-421633-349547-290524
3215.74-466621-592341-421254-282898-324699-387932
3218.63-399527-327164-206006-245968-383847-377913
3221.52-323600-297890-298700-342023-438701-515513
3224.41-420938-306492-420235-520055-507956-420274
3227.31-380066-407405-524821-519991-395624-367954
3230.20-334168-339665-384527-364871-490459-439485
3233.09-363882-372196-345295-307058-393174-468463
3235.99-397757-287427-229712-338628-412675-306579
3238.88-299881-506446-619319-532737-450834-387259
3241.77-430926-480816-508999-415630-349578-322067
3244.66-288487-296234-412994-429439-376284-380184
3247.56-401272-393816-337467-362658-445497-388338
3250.45-367385-450273-423479-324908-454612-447321
3253.34-245435-197021-377201-457865-399183-388695
3256.23-486132-530724-447839-205370-110122-327551
3259.13-571704-578705-436912-331845-382565-458110
3262.02-342301-96109-166310-347260-374237-403476
3264.91-380792-372617-339562-348622-425898-473821
3267.80-425444-330143-276637-240776-351567-474670
3270.70-493233-489698-470412-383197-354499-377477
3273.59-343584-295058-302850-338676-304230-276630
3276.48-277376-295956-342623-386863-418686-533961
3279.38-458755-347790-328518-371030-452993-426038
3282.27-302527-213291-307703-405194-381483-414377
3285.16-395576-285317-232131-217967-363578-504742
3288.05-414359-294930-237220-336400-432119-343971
3290.95-316112-376565-401877-455629-395212-316906
3293.84-408623-442512-407158-420464-415266-388119
3296.73-366787-340112-275352-280750-403677-514639
3299.62-454852-346989-369547-393892-332008-300489
3302.52-300201-374736-592823-564756-387088-486024
3305.41-463678-313276-212863-242666-339172-400626
3308.30-333506-315553-353010-337018-334151-453309
3311.20-608442-504288-453311-545622-378183-214559
3314.09-254818-203273-256616-394174-354566-342885
3316.98-569522-450922-278556-335440-421584-476595
3319.87-388026-337210-392116-449426-483605-402863
3322.77-388242-409620-311750-377817-564593-583107
3325.66-416256-347902-473463-584366-666690-522905
3328.55-374245-445601-460204-349496-366500-423175
3331.44-329295-286199-523595-510505-459165-475738
3334.34-398902-352178-412352-369474-289390-299975
3337.23-479292-584333-489705-451451-484048-468537
3340.12-357670-441458-418988-354512-387049-394698
3343.02-377179-300977-341669-464663-466710-500625
3345.91-533069-504352-536726-491523-272112-281401
3348.80-481308-633126-624908-474755-339776-336926
3351.69-280066-256887-343536-423035-415260-409800
3354.59-433927-435828-390638-321899-273618-383121
3357.48-522701-365093-267126-317736-351471-345799
3360.37-275052-444450-572242-383920-239922-300940
3363.26-372463-508938-612238-438021-326129-460828
3366.16-466056-456298-412692-395038-438929-429599
3369.05-429961-384926-198139-212538-295290-297761
3371.94-352933-378917-409222-385394-327910-247266
3374.84-255106-341734-346981-441171-502594-379297
3377.73-381142-390832-399050-513097-578672-466789
3380.62-359985-317422-250814-194915-165563-165776
3383.51-136277-136053-181886-404768-580157-560950
3386.41-327811-167102-182439-334752-352873-347253
3389.30-347134-334595-327301-274791-478145-488184
3392.19-428192-363327-233313-305483-494348-492074
3395.08-398122-416878-407143-325423-235652-284056
3397.98-464264-450371-400785-316036-325432-271342
3400.87-205123-340062-411250-397086-417368-361395
3403.76-286174-311860-342185-438480-350003-359443
3406.66-513407-461793-334693-271104-344769-371166
3409.55-272921-188932-241111-251008-286612-294734
3412.44-330325-485200-477777-300143-134068-136972
3415.33-271268-376349-376004-253267-187885-300580
3418.23-426643-508663-469556-338818-168696-45407
3421.12-165037-360162-388781-351033-285961-214900
3424.01-263707-261972-439499-531170-475017-405028
3426.90-268505-154317-309019-370833-300991-290355
3429.80-318456-371261-407424-404635-383586-370930
3432.69-305750-324960-319975-313809-282279-274702
3435.58-222804-192119-131002-152274-386459-407659
3438.48-158914-73102-159771-241996-189176-226654
3441.37-295047-371026-506721-383497-107700-101770
3444.26-315290-296310-173763-138345-248860-389232
3447.15-387879-203301-195813-333852-217299-173964
3450.05-236207-253554-379387-600764-557476-295087
3452.94-155139-157257-166544-144998-206647-322400
3455.83-419585-398108-430359-400600-310519-377776
3458.72-447057-432060-341875-229281-195984-337789
3461.62-373623-296832-245450-172289-91280-25695
3464.51-152818-278120-240158-292290-354379-397797
3467.40-243849-172524-306092-411627-312531-322815
3470.30-454117-537451-408401-286531-431776-514136
3473.19-422192-316508-204385-358874-483030-423603
3476.08-230970-75370-129356-109768-129478-319452
3478.97-407493-481482-481800-344032-253990-307615
3481.87-444130-436041-393446-360194-259535-226019
3484.76-307086-330175-460177-482174-405275-291163
3487.65-111849-121027-258529-255717-343969-398622
3490.54-357387-362754-377547-291342-179435-252993
3493.44-252658-248963-326104-355228-366250-202592
3496.33-154460-265750-368307-323019-341440-316781
3499.22-224287-237881-168517-183909-270414-247755
3502.11-302970-401590-436003-299747-112586-303262
3505.01-471652-464491-457928-518699-507274-308624
3507.90-242803-390474-490434-443893-311308-209131
3510.79-332224-404766-354254-413864-413223-425352
3513.69-503903-302814-187383-356052-446314-490260
3516.58-501303-391235-282300-302598-351152-358508
3519.47-445125-494707-383984-419482-273943-138475
3522.36-267406-338153-375648-324823-180817-208573
3525.26-350154-362244-339363-419895-462736-339467
3528.15-361573-447956-491281-453084-316598-324081
3531.04-390053-316608-341697-334863-381082-453458
3533.93-267684-154488-207086-263239-394766-448770
3536.83-346376-407219-431897-312991-243078-306296
3539.72-292636-220462-379743-514747-459466-337815
3542.61-419171-411845-295745-235119-368683-424960
3545.51-301435-337120-341933-325869-242679-248069
3548.40-383854-382179-391588-385747-306225-324834
3551.29-276442-312006-399108-443205-443092-424659
3554.18-383529-349642-371761-439352-432851-258635
3557.08-176129-279529-446699-531911-459285-387358
3559.97-416732-229897-75460-201597-406762-395425
3562.86-362247-430340-426179-384851-340518-271311
3565.75-327370-275459-198387-104659-45723-274564
3568.65-380286-277326-233810-391034-508357-551160
3571.54-477489-371695-352184-395349-303873-303581
3574.43-331699-353250-311327-199593-193379-297391
3577.33-372767-429925-437950-355381-302493-319952
3580.22-421762-487024-522524-461044-340684-361407
3583.11-250292-264808-305030-286224-235797-97115
3586.00-251648-517652-470882-356305-275129-177894
3588.90-443847-553712-321358-181459-271721-416229
3591.79-402040-318956-243322-187292-327791-499502
3594.68-485918-480395-511754-445660-564930-661327
3597.57-484413-285497-202341-247735-344562-383934
3600.47-264252-217391-276870-288368-342338-337012
3603.36-353250-398470-392732-334400-359200-490428
3606.25-433620-345222-427553-386147-301035-104588
3609.15-136158-204332-195182-294228-376418-254454
3612.04-124743-273974-409213-282805-196719-279001
3614.93-286584-360392-375012-417972-216756-132500
3617.82-258595-433498-286914-31248-89867-284018
3620.72-361743-324551-266084-258839-295897-285921
3623.61-306156-349918-257728-228046-272440-289301
3626.50-100645 62133 188093 207882 135817 206345
3629.39-58390-324033-283443-348213-286664-279311
3632.29-301381-169816-81533-170080-326720-291512
3635.18-209031-348834-443109-422433-343487-267357
3638.07-203129-160457-213943-210150-185389-280074
3640.97-342545-290079-282826-257650-233184-309203
3643.86-335913-347374-348126-309613-304435-278040
3646.75-124859-98850-165981 76741 369821 131214
3649.64-146589-99446-135152-298521-287794-207408
3652.54-238486-340077-381629-318292-236617-256608
3655.43-35847 85518-125299-314387-350510-293544
3658.32-313955-426510-341743-217425-159592-262296
3661.21-392001-418314-232141-108735-316834-392315
3664.11-153866-87401-200802-361864-386601-275361
3667.00-360478-376331-56355 32383-179024-200148
3669.89 128844 196670-169267-193925-230405-386347
3672.79-400499-318010-181427 10406 23151 217537
3675.68 272707-122170-271987-284310-181941-105437
3678.57-90659-213736-413783-319509-192530-324317
3681.46-404316-280082-143394-165442-276203-343529
3684.36-333267-319371-438096-363820-221198-152251
3687.25 27662 463364 363597-51724-236931-229326
3690.14-139504-65697-103507-259237-365826-249381
3693.03-93892-224580-297088-385768-389140-304944
3695.93-266435-235344-324148-376570-259686-278128
3698.82-301873-108547-79405-243090-247158-94836
3701.71-110845-289257-328131-223511-217634-241852
3704.61-273119-372533-450763-412673-322774-344773
3707.50-383402-396846-218117-30167-144059-261204
3710.39-242985-336493-72376 162200-27060-221678
3713.28-340290-468643-484230-405822-307332-287210
3716.18-423346-351935-277718-417077-438250-430209
3719.07-414110-322733-254230-174629-284153-397163
3721.96-323167-234887-245281-195298-212226-253116
3724.85-289257-380096-289778-136061-192784-283727
3727.75-282982-276245-301306-265189-204809-280480
3730.64-352387-299977-111621-192666-326038-406773
3733.53-349928-187301-202374-291077-306714 7903
3736.43 114369-256795-264720-107415-204354-360420
3739.32-299764-282554-284080-149416-108493-223488
3742.21-328206-292021-274293 171197 746411 389813
3745.10-241766-357510-252497-269984-354669-399000
3748.00-325016 168938 589014 155110-195239-299498
3750.89-244075 220467 460641 33690-189349-237224
3753.78-259472-279847-376161-460763-336816-178444
3756.67-235451-426255-401709-385905-364148-175952
3759.57-25066-150548-345279-471808-439178-316258
3762.46-276498-433922-360448-235885-305652-391170
3765.35-415227-401350-331373-239617-197312-202600
3768.24-288994-359720-152717-253032-332047-230110
3771.14-297539-358130-330561-362646-337491-281875
3774.03-135035-66567-129561-307418-389910-321240
3776.92-324098-361664-256844-169220-132262-232738
3779.82-265370-203440-292630-379771-315746-171494
3782.71-168553-282792-282120-224143-402906-346606
3785.60-356101-301087-138576-300647-420608-393275
3788.49-328401-322185-303214-226125-157862-148002
3791.39-257454-329561-175816-112828-330353-412382
3794.28-444899-379983-324910-157317-170075-449923
3797.17-446452-262823-237972-263755-286187-279407
3800.06 1169 390646 466972 25261-279254-332717
3802.96-263097-306334-263013-149632-239367-410346
3805.85-374925-65007-26293-283369-267642-190934
3808.74-310864-412858-329957-315503-279578-283108
3811.64-215484-177702-244411-325662-262925-227630
3814.53-229613-58703 388892 111904-269088-207504
3817.42-171240-249089-326892-343249-249785-137880
3820.31-152810-129646 30530-200890-251823-170451
3823.21-207037-217693-296610-352083-238256-189132
3826.10-166910-294128-410528-354903-280462-235849
3828.99-364753-412651-486918-485579-279204-248868
3831.88-422821-532138-580596-481952-314025-135940
3834.78-150052-336179-424490-489614-356730 87332
3837.67-28523-294085-281026-310181-252095-205202
3840.56-228146-488538-533769-627013-801781-749980
3843.46-422352-253498-435690-598317-368882-149656
3846.35-425384-1026020-627478-4366-199222-1391158
3849.24-1746755-764635-191285-195826-67128-102397
3852.13-361168-310689 298062 737157 325655-345580
3855.03-642411-539437-333626-334087-493400-556628
3857.92-536763-613513-552983-444219-478622-511827
3860.81-450830-416478-483241-325662-165852-220686
3863.70-240874-122147-8984-154936-276058-355048
3866.60-312104-236407-323776-312071-231417-191104
3869.49 118301 32936-276805-232220-270303-403591
3872.38-374770-233020-118560-100258-237450-252923
3875.28-317247-378579-291875-357955-375819-343658
3878.17-299624-309330-258143-195805-194333-240871
3881.06-320247-429273-524968-580765-455469-399788
3883.95-351958-262105-40626 76058-129417-232903
3886.85-222918-130491-222967-372858-368870-319435
3889.74-276775-103111 191073-9363-315350-351758
3892.63-279222-229508-184402-267241-360811-413256
3895.52-290252-430041-430211-263663-288264-357226
3898.42-325593-174627-115084-252201-326379-195397
3901.31-3338-137695-225873-56347 107271 95400
3904.20-146307-228035-212490-280992-270967-230288
3907.10-171572-215968-341352-414760-242774-123733
3909.99-227125-388768-450574-292606-219771-215516
3912.88-218104-230690-210392-175852-124216-193446
3915.77-251096-183485-33002-32831-266306-580948
3918.67-571862-369934-288691-294878-238560-259647
3921.56-352925-422094-302918-266439-107801-80247
3924.45-266381-86265 3079-26426-101325-251296
3927.34-116697-77527-121999-285596-324368-208127
3930.24-437396-640860-548804-383785-354431-455175
3933.13-312721-329445-392011-333981-339724-349611
3936.02-339813-207447-137708-186177-202351-234865
3938.92-217482-368812-584210-561443-469012-405277
3941.81-278733-159198-144533-102800-74189-67535
3944.70-140930-158187-152713-320133-319806-294434
3947.59-385685-320957-265764-288555-311678-316462
3950.49-262145-353186-337077-278541-305613-388878
3953.38-497454-310724-229490-378515-405612-253731
3956.27-111714-128153-300403-296152-191993-248847
3959.16-281164-316940-384671-321326-82503-83766
3962.06-234241-367503-540392-517774-391113-351506
3964.95-224517-180859-115577-128814-174280-252341
3967.84-307220-260977-135627-135427-269015-399452
3970.74-522109-395007-241781-170442-107600-235231
3973.63-397859-327602
##END=
