##TITLE=Carbon Tetrafluoride
##JCAMP-DX=4.24
##DATA TYPE=INFRARED SPECTRUM
##CLASS=IUPAC A
##ORIGIN=NIST, Analytical Chemistry Division, 301-975-3108
##OWNER=COPYRIGHT (C) 2000 by the U.S. Secretary of Commerce
##DATE=00/02/01
##$SPECTRA VERSION=1.10
##$UNCERTAINTY IN Y=2.2 % relative (B=1.3E-04,C=6.1E-07,D=3.6E-09)
##CAS NAME=Carbon tetrafluoride
##CAS REGISTRY NO=75-73-0
##MOLFORM=C F4
##MP=-150 C
##BP=-129 C
##$NIST SOURCE=QUANT-IR
##SPECTROMETER/DATA SYSTEM=IFS66V (Bruker)
##INSTRUMENT PARAMETERS=KBr Beam Splitter; MCT Detector; Multipass cell
##STATE=gas
##SAMPLE DESCRIPTION=Carbon Tetrafluoride Primary Gas Standard
##PRESSURE=101.3 Pa
##TEMPERATURE=23 C
##SAMPLING PROCEDURE=1 L/min Flow
##RESOLUTION=1.9290
##DATA PROCESSING=Boxcar Apodization
##XUNITS=cm-1
##YUNITS=(micromol/mol)-1m-1 (base 10)
##XFACTOR=1.0
##YFACTOR=5.8207E-11
##DELTAX=0.9645
##FIRSTX=575.65
##LASTX=3974.592
##FIRSTY=-.0001054
##MAXX=3973.63
##MINX=575.65
##MAXY=.037966
##MINY=-.0009947
##NPOINTS=3526
##XYDATA=(X++(Y..Y))
575.65-1811156 463660-1846692 128477-2676934-1664054
580.47-2048338 450311-504542 136229 982728 235257
586.26-891705-1246936-616946-428890-1210612 373448
592.04-1141364-276341-867459-489737-1666117-13218
597.83-1334560 375318-1062465 491709-1361556 96051
603.61-459066-156016 90142-215682-640503 382472
609.40-883545 424872-655774 127762-474516 408156
615.18-650730-28715-1081833 659309-917729-8856
620.97-887222 124544-1577316-93510-1343448 79187
626.75-1474608 795495-1853542 5109184 7275478-2102542
632.54-208489-1132809-493515-592831-424226-154689
638.33-638156-477864-553985 319193-445085 184552
644.11-511521 459731-533267 669285 45621 310617
649.90-432203 91225-123998 202417-403358 137452
655.68-105579 280052-685426-365550-982859-27779
661.47-1128640-50413-729914-93402-721856-540104
667.25-692202-288263-741368-232258-986589-525480
673.04-1014367-383569-1087666-458448-1056535-332514
678.82-779625-373895-1070936-446979-992338-718816
684.61-685527-627294-888942-742275-899201-178679
690.39-1176022-279365-799875-435313-964695-393858
696.18-965677-154871-1103652-5853-1046968-226402
701.97-862820-528650-642953 91324-764444-396754
707.75-1116365 138502-1046316-202769-1041694-249095
713.54-676588-75765-729486-183728-967819-476744
719.32-707703-149931-762870 28509-731720-157379
725.11-760826-197979-834068-194630-656246-360824
730.89-815920-186723-802979 5102-686539-183184
736.68-881760 114313-970600-73979-754280-104023
742.46-800825-281267-569012-342391-925575-205373
748.25-816695-79741-850859-406112-798066-178684
754.03-779077 145929-851162-68889-872873-306705
759.82-868002-111517-717607-278242-1161860-66072
765.61-853938-131091-975863-55432-1013754-330940
771.39-841180-225440-767658-135182-1007621-253920
777.18-855622-343601-950933-336923-962015-280568
782.96-939954-338649-1006495-265495-1035125-227764
788.75-1193158-165069-1096893-19977-944092-160059
794.53-1001899-136408-1259169-209069-1008993-146941
800.32-945898-373561-730745-133684-1117655-477448
806.10-775762-213990-1084402-76966-1184445-147565
811.89-1189708 191170-871991-579585-926560-201043
817.67-1099002 40256-1156487-308590-730826-167445
823.46-957054 10569-943666-151197-1179086-305594
829.24-1133441-215694-1027588 123361-1092033-526648
835.03-872850-199473-1018409 47681-1242880-278413
840.82-1314585-32844-1226847-17207-1135900-177644
846.60-1141470 139016-894667-190338-962691-205946
852.39-894176-167810-1175736-63990-954438-217707
858.17-1073708 139612-871275 94097-1138153-117378
863.96-1028532 203248-1137491-68612-712543-177294
869.74-915692-193426-1116964-180194-1168180 3919
875.53-868857 79144-936460 36582-1025749-2092
881.31-1050512 22975-1069600-15422-920460-82124
887.10-1167006-37992-1087558 13165-976892-20748
892.88-1110468-169834-825565 61975-1183871-245611
898.67-1204329-73379-1009542-85758-1313991 45416
904.46-1269742-170993-1017760-125452-946312-52572
910.24-889734-19827-1137218-116579-1020804-96210
916.03-1219932-106916-901218-193528-1023671-104078
921.81-1078625-64023-908637-9634-953358-58850
927.60-1024382-34952-1086720-20448-1056663 31659
933.38-970939 83793-1190720-46479-985178-22087
939.17-1264018 12762-1132915-21236-991831 105309
944.95-1092571 36213-1107280 174135-1223553 54140
950.74-1101312-54531-1054869 131082-1094539 131381
956.52-1326492 46143-1077348 111793-1090018 147930
962.31-1021982-75802-1035734 34709-1074626-9766
968.10-1217208 183899-1019146 93577-1265807 161268
973.88-974189-205151-1182944 4266-1242716 46580
979.67-1069690 153764-1095401 129385-1410928-28966
985.45-1245528 188425-1186475 103965-1112612-6564
991.24-1174955 115594-1058001 29-1209837-28239
997.02-1258435 285235-1108660 269209-1325951 135404
1002.81-1217833 22012-1168931 130483-1283142 191451
1008.59-1176058 111098-1254143 13963-1236393 164642
1014.38-1299033 55854-1165076 225881-1276718 120833
1020.16-1247475 369608-1374203 306692-1275717 59564
1025.95-1131458 213117-1294982 215465-1210278 197666
1031.73-1188025 275235-1270525 125825-1225499 353990
1037.52-1281786 275617-1386430 160825-1215292 351097
1043.31-1228967 144611-1294878 223956-1521084 272941
1049.09-1249534 430436-1157726 340410-1202685 434216
1054.88-1206669 445389-1388978 268376-1348527 413221
1060.66-1159140 462233-1414202 303383-1202443 543134
1066.45-1384092 266070-1333629 452192-1320097 482955
1072.23-1449120 472346-1220190 380979-1182740 390115
1078.02-1359970 329242-1617977 379142-1471720 476414
1083.80-1441178 421494-1442075 326813-1380938 480094
1089.59-1475256 368445-1534819 438678-1509905 616173
1095.37-1440594 410951-1629721 400890-1523404 488131
1101.16-1559827 597547-1445163 603726-1682219 615706
1106.95-1541271 481460-1669487 506884-1471035 548510
1112.73-1664501 649988-1504052 622114-1663675 454568
1118.52-1679735 576548-1576519 680126-1618551 639018
1124.30-1545484 618267-1734760 660821-1665467 524752
1130.09-1715673 622317-1721154 653769-1700480 538981
1135.87-1781605 821625-1708254 725376-1879205 772054
1141.66-1727518 804726-1848242 859190-1919160 874853
1147.44-1898725 1021359-1862879 810227-1829722 867530
1153.23-1905207 874466-1975068 904517-1981413 970815
1159.01-1924295 950305-2101149 1013240-2011871 1036368
1164.80-2139191 1149283-2091695 918948-1920342 1064724
1170.59-2144395 1134834-2186800 1233594-1987337 1163787
1176.37-2263031 1194816-2120899 1293237-2142811 1282006
1182.16-2331058 1257434-2196484 1434189-2364193 1375017
1187.94-2367477 1510889-2570562 1483637-2449348 1467354
1193.73-2461537 1511026-2529011 1597949-2699470 1633151
1199.51-2569628 1638133-2765803 1756848-2711473 1750369
1205.30-2776131 1786317-2871369 1974416-3063657 2116109
1211.08-2867855 2093851-3049183 2100452-3108173 2170773
1216.87-3173117 2273832-3384437 2260614-3308156 2360544
1222.65-3278310 2642220-3400527 2581303-3587211 2738578
1228.44-3629430 2893683-3485529 3281730-3228827 3784574
1234.23-2746698 4578800-1598513 5430716-299136 6396818
1240.01 1434582 7684994-1672318 10320712-5292429 6341614
1245.80-4576780 6771267-3950143 7877703-3296840 9021052
1251.58-2266140 11078957-197965 14787666 3523321 17909514
1257.37 3058582 15129132-1042530 22071339 340430 24664976
1263.15 8653799 31693410 10220950 31073251 3474413 30961489
1268.94 5597378 38216311 7994817 52957731 23039808 86054571
1274.72 56941287 153121449 124181566 266812002 193593337 432941679
1280.51 253060451 429364677 652262728 97731362 356246066 93446560
1286.29 88449045-9824986 37651262-17090489 24138666-16423856
1292.08 18046538-14718931 14575095-12910668 12234356-11455036
1297.86 10692458-10387735 9366298-9491551 8250619-8688677
1303.65 7509994-7954567 6807105-7449104 6228687-6953958
1309.44 5804559-6388277 5353526-5974435 5101895-5747228
1315.22 4679335-5453215 4353272-5170778 4174638-4986661
1321.01 3821209-4616040 3600916-4477999 3472770-4265863
1326.79 3383759-4228915 3119845-3964217 3013135-3871649
1332.58 2904953-3741339 2766279-3645863 2667247-3516839
1338.36 2645413-3488182 2448084-3269107 2541700-3093838
1344.15 2220983-3156206 2053296-3146427 2182324-3110350
1349.93 1803056-3119452 1687878-2916295 1986149-2353596
1355.72 2360005-2581953 1822894-2595278 1624283-2670813
1361.50 1546867-2647515 1548927-2537064 1466334-2497632
1367.29 1640342-2417116 1514528-2448699 1383202-2283819
1373.08 1378440-2333302 1485563-2305867 1295921-2209112
1378.86 1158571-2164613 1088712-2236043 1176507-2026627
1384.65 1235756-1999985 1232206-2191435 1076925-2101932
1390.43 1019315-1986400 992074-1732652 986694-1857689
1396.22 848346-2102164 1174900-1960795 810453-1966290
1402.00 840339-1811547 952464-1795573 825465-1799988
1407.79 823991-1804934 755097-1702513 798545-1623350
1413.57 656636-1701334 697046-1577437 759755-1215142
1419.36 702204-1734887 696571-1761965 701558-1625761
1425.14 730115-1643963 631370-1598606 718895-1661686
1430.93 535245-1513853 607371-1595484 559205-1029168
1436.72 664668-1746816 540278-1506817 522780-1584560
1442.50 519320-1512846 403561-1459738 591228-1392351
1448.29 330943-1548615 462154-1457046 354888-1383149
1454.07 465381-1108287 1229852-1313517 557224-1387499
1459.86 402404-1392197 412610-1424416 629214-1256446
1465.64 295414-1276542 475930-1346163 358279-1105927
1471.43 649002-1138352 476185-1348961 543670-1219536
1477.21 371955-1269255 350663-1223801 329346-1340643
1483.00 314936-1262303 347363-1152213 419220-1280390
1488.78 421111-1003453 345293-1326460 356570-1209061
1494.57 458522-685974 178174-864262 383095-1311895
1500.36 386844-1175333 388933-1169812 746077-500170
1506.14 955920-921619 495901-818674 439130-771836
1511.93 546671-806862 538848-695582 668901-542991
1517.71 578091-691815 917665-101689 662325-560954
1523.50 479384-400308 488564-571160 398101-698656
1529.28 283520-715411 185354-747834 290138-735046
1535.07 209161-281314 682116 4018042 2817002-1362226
1540.85 902536-966546 346066-940359 553189-1122000
1546.64 335968-973954 575567-719116 389757-745760
1552.42 436926-318624 484268-762599 653911 126619
1558.21 754105-108810 468947-868177 296955-808121
1563.99 336788-811729 159561-975466 252088-585998
1569.78 174794-879586 34962-899820-29355-670052
1575.57 761894-1132764 148066-1086460 80159-1043634
1581.35 67630-1078481 29490-1092526 69876-1038322
1587.14-28332-943145-40049-1084104 33099-946082
1592.92 54186-1048225-70420-918519-52595-956013
1598.71 8248-958342 30329-1048829-8569-965146
1604.49-24650-916095 55014-918641-58764-997825
1610.28-67388-852443-49796-886100-53664-638714
1616.06 582740-931600 16747-1067463 2740-1036082
1621.85 79553-622509-64404-986749-46731-808562
1627.63-6037-917726 4564-880186-91212-837275
1633.42-57926-313460 141131-895736 37792-987294
1639.21 66970-970806 902-875615 9237-877215
1644.99 449192-902012 158088-774850-98579-892771
1650.78 81370 197562 626688-719793-41731-934708
1656.56-132516-967644-34541-798301 28536-771347
1662.35 85511-910779-24104-845870-47416-828722
1668.13 244667-828063-68976-694756-106738-954966
1673.92 297288-650939-182995-762336-80246-763055
1679.70-23155-952567 92693-676121 789995-371180
1685.49-224927-758231-70156-719363-27275-809553
1691.27-172072-721317-105140-336714 829551-893324
1697.06-20083-739113 746363-296478-6309-752684
1702.85-12681-629804-190965-502574-70020-726708
1708.63-46293-719562-190500-764805-103889-730845
1714.42 301945-631917 315441-407329-55139-792404
1720.20-163556-784291-94493-812726-107211-679926
1725.99-96847-762548-67702-715265-65324-903980
1731.77-21007-338084 305726-749217-177779-681813
1737.56-248510-531777-43884-887016-145386-738080
1743.34-131181-816099-146370-681899-106774-701860
1749.13-181253-481285 36710-831595-179229-776119
1754.91-274917-729887-197035-886925-89477-857167
1760.70-317-782331-317448-860470-170211-787417
1766.48-214374-559581-212188-712069-41365-455558
1772.27 75566-944685-43361-851089-192355-787840
1778.06-172694-706410-147907-756172-223705-803059
1783.84-27744-736037-134498-709008-159341-786985
1789.63-90092-668748 110016-591960-254430-736223
1795.41-159601-747441-229269-662238-170431-768534
1801.20-110330-793059-285122-679509-246003-706715
1806.98-110013-714233-234498-753673-153503-648024
1812.77-160704-780451-227012-632053-252574-777604
1818.55-238521-783690-201896-739498-367139-651878
1824.34-80029-768667-309423-775193-125269-515963
1830.12-230727-755050-208578-696468-216182-680736
1835.91-215612-657611-287471-750163-264258-697472
1841.70-349622-454210 76482-751839-317522-724595
1847.48-298179-714149-394480-723067-274517-741597
1853.27-256994-746871-342564-735954-312630-771230
1859.05-324174-797569-286273-715963-191776-671887
1864.84-283429-787396-182861-715313-100952-647044
1870.62-273575-678038-339447-709359-300850-718932
1876.41-279741-688722-242193-655545-257282-765086
1882.19-243518-757687-272786-624665-326764-597235
1887.98-228038-534132-352849-708232-264917-649829
1893.76-227219-636670-226493-585493-260907-679811
1899.55-255186-532918-166800-689503-195047-607344
1905.34-136159-599872-226931-669828-171852-617879
1911.12-126955-553038-217625-636355-165089-611971
1916.91-69644-470137-180805-610964-146419-503226
1922.69-219825-581420-180048-687822-220784-664935
1928.48-181210-590425-149854-675294-244818-540091
1934.26-243982-615743-249452-720920-265725-577445
1940.05-193141-593269-256139-669856-262218-660387
1945.83-268400-525024-245668-700698-317627-609332
1951.62-319066-601782-297699-663768-277680-677625
1957.40-284073-554025-283666-615528-354237-649125
1963.19-255248-628184-304327-489068-254941-630440
1968.98-370977-658041-240182-713932-308210-605236
1974.76-326565-665082-276590-682535-271368-630147
1980.55-289105-568057-344262-671838-325858-616022
1986.33-325436-646319-258734-674273-270614-654629
1992.12-338839-713652-310736-691299-211657-720578
1997.90-298603-626414-235912-562296-385681-692466
2003.69-345466-645354-311691-648880-293743-693036
2009.47-302997-617942-424602-660696-389983-663956
2015.26-271101-606260-350837-654964-379378-678215
2021.04-294709-681421-354087-725259-385992-761351
2026.83-394411-613274-370564-622878-379464-720836
2032.61-366611-750873-304155-607394-346917-650763
2038.40-350932-712968-391491-633109-381884-637254
2044.19-410816-671607-314437-710480-455500-651339
2049.97-282130-658583-378840-692920-449808-659225
2055.76-378457-605278-366396-660621-347846-607946
2061.54-400368-678782-384940-655434-399791-646060
2067.33-330887-660960-330404-612015-353570-688637
2073.11-251712-617033-450085-715028-253169-620208
2078.90-392880-641035-291429-639243-344584-606220
2084.68-416141-569725-344827-626903-382597-642042
2090.47-368887-569784-272908-658702-362076-655787
2096.25-322683-589212-425309-614153-389279-727421
2102.04-257961-662810-339478-610890-461866-570960
2107.83-370147-641911-379691-548954-379891-599993
2113.61-276490-678923-331944-639211-310711-597851
2119.40-386687-667347-355631-656544-382903-588491
2125.18-298750-663577-356133-625680-281544-608832
2130.97-319951-603291-355741-485509-340674-662727
2136.75-283583-615104-294330-574516-290680-551506
2142.54-299124-407594-286618-515253-290041-588585
2148.32-264806-683247-297176-521340-346453-568586
2154.11-441264-502559-301059-538693-312730-634625
2159.89-300724-602629-399722-475044-221381-483342
2165.68-308431-573017-333182-575628-279276-434512
2171.47-162874-400760-102926-397246-101631-138841
2177.25 170524 3811 492081 345569 904709 676728
2183.04 1377489 533956 2732107 513654 656260 542812
2188.82-137929-394480-304148-482942-575684-556601
2194.61-402250-556385-345276-540921-435469-598243
2200.39-451244-452332-448867-584785-440406-563601
2206.18-425969-538116-358915-503652-475444-625687
2211.96-453556-580961-382714-608674-292171-518123
2217.75-382993-400109-322059-570017-383199-511256
2223.53-394191-557808-357217-536992-378484-540284
2229.32-411748-504821-437546-551146-495597-498304
2235.11-425161-536693-355502-570557-390915-549326
2240.89-376406-587562-462264-552240-379553-454948
2246.68-390019-625154-467878-451265-339838-595766
2252.46-452606-527866-401506-651491-365576-582809
2258.25-316187-532008-461657-650222-339459-525030
2264.03-382165-534045-412115-493783-492540-617919
2269.82-393220-546694-311980-502268-425035-591116
2275.60-360561-596548-372991-511183-449523-543714
2281.39-342005-599179-455813-485059-318060-549750
2287.17-344297-564530-286325-605795-350415-532331
2292.96-301379-444528-412068-574650-440414-413909
2298.74-424009-506123-423457-437869-466592-459097
2304.53-402385-459467-361358-501499-469649-505396
2310.32-278773-528619-219954-564083-293970-457436
2316.10-197937-522870-226611-476138-224810-554869
2321.89-221331-505671-124376-457367-113350-481159
2327.67-81571-438665-161718-393890-201599-353994
2333.46-180891-308384-81149-291692-252598-392586
2339.24-157164-389543-174524-433282-250728-334094
2345.03-255186-470965-448299-475440-373235-459867
2350.81-264748-400059-263665-381284-148146-297561
2356.60-147608-168870-127124-247711-138916-272452
2362.38-169166-179065-164499-142608-188198-298862
2368.17-218796-451453-237182-410311-236343-536330
2373.96-218374-497294-432457-479308-322127-471121
2379.74-302856-534707-432495-551630-408118-508885
2385.53-492975-548292-357418-581678-475739-555565
2391.31-319124-541783-434097-456358-404124-524171
2397.10-325165-500422-354552-464331-352878-443706
2402.88-551327-560478-450459-549406-299271-414602
2408.67-363989-448371-356120-441824-433966-538388
2414.45-434134-547623-317551-547396-341994-535126
2420.24-376220-556796-350556-529208-346905-397718
2426.02-444885-460580-305194-444486-405182-555265
2431.81-368052-561180-434250-448160-359704-437926
2437.60-447404-526063-394614-563316-391612-608224
2443.38-359032-496948-351346-488976-436006-447046
2449.17-325969-436450-374221-522768-359431-517725
2454.95-421230-523695-353792-483396-390301-612995
2460.74-420204-484628-267517-475992-380031-509048
2466.52-399816-568924-353836-506430-432799-466814
2472.31-513026-561566-429421-478819-364701-506399
2478.09-498214-560930-385420-467582-470742-445773
2483.88-480787-500501-540553-458100-331811-509487
2489.66-481676-502306-493483-518162-362243-457912
2495.45-372525-412367-485497-551759-463102-426396
2501.24-409401-400241-459640-473520-322322-444732
2507.02-414632-398872-462699-507406-404346-468470
2512.81-334441-536686-347946-477421-386427-491469
2518.59-402330-463691-531217-460672-371447-382922
2524.38-224463-508265-468237-427002-440008-489861
2530.16-377928-423623-392153-412863-388732-417230
2535.95-199741-400968-310075-423496-353193-489880
2541.73-339102-523593-414581-464797-338560-653206
2547.52-485182-603664-656335-1045343-850064-975760
2553.30-1119537-1325955-1353321-1785736-1586556-1791930
2559.09-1957452-2387172-2108178-1500124-1624338-2594347
2564.87-4740780-825619-767787-2276421-2353042-1909860
2570.66-1449232-906403-456228-443794-569650-425962
2576.45-424820-228126-279300-337227-327057-261305
2582.23-396720-331217-220927-261280-292160-339386
2588.02-327052-415875-210265-320799-220480-308345
2593.80-222246-386924-421584-295685-254913-378147
2599.59-295261-386251-295065-285817-202449-265883
2605.37-363478-361343-333739-496235-419161-387994
2611.16-311276-510992-335434-346486-449795-414314
2616.94-446892-591117-415649-394234-381299-480654
2622.73-369673-456564-341731-542080-394320-569821
2628.51-484999-384905-391460-519781-480370-453018
2634.30-495511-485655-517172-529872-531937-465735
2640.09-293843-310665-351815-546313-524690-654500
2645.87-511531-466351-467933-315777-416648-525487
2651.66-434369-490357-458869-360260-382417-408294
2657.44-521977-413347-509792-437940-446065-469657
2663.23-479075-495036-404447-496705-400687-464522
2669.01-412548-442388-428557-295345-479538-433227
2674.80-420050-502327-402135-543475-400379-481476
2680.58-501278-476005-358225-438293-348313-460290
2686.37-516131-447430-435870-376532-465823-554890
2692.15-422863-492178-386239-341518-562331-474678
2697.94-531121-449197-393697-487015-455626-434763
2703.73-538113-339487-432969-202765-282108-296482
2709.51-349624-483173-390003-460708-410977-478633
2715.30-608270-383247-345481-409481-339327-395194
2721.08-498559-484546-426853-281960-392685-491403
2726.87-365959-416435-428036-352140-401687-383193
2732.65-454830-429980-401024-375752-514937-319842
2738.44-436054-427634-387228-486638-435093-457403
2744.22-489493-326505-354237-365757-463456-444564
2750.01-489887-517167-407915-281323-333459-416279
2755.79-426990-436551-515641-410920-446946-514141
2761.58-356480-304698-333059-362783-471605-475256
2767.36-461165-478472-414052-400322-447497-481111
2773.15-534554-378695-437163-369098-264349-626546
2778.94-363431-445103-442612-405427-542105-374475
2784.72-541495-329214-459142-487014-331406-496349
2790.51-504193-487239-504194-376886-548848-388936
2796.29-432504-395500-549790-329885-413456-420952
2802.08-498573-448258-430564-395686-423220-442526
2807.86-518265-387116-314680-497701-343934-397485
2813.65-502982-433890-472402-387958-367946-431909
2819.43-478542-418947-407429-459871-459993-433148
2825.22-479088-393950-416857-440891-436556-372370
2831.00-511296-417959-388088-520611-398563-240151
2836.79-622223-405914-283871-312420-190845-403851
2842.58-345807-426606-440469-412822-358750-366302
2848.36-382824-460401-340706-442148-347306-368644
2854.15-481258-362622-363187-370946-398928-267498
2859.93-464740-387457-347574-423323-261738-353825
2865.72-473548-506851-357815-343381-468322-323957
2871.50-600208-371392-344391-356375-519450-410503
2877.29-474011-355041-397034-395564-343731-357179
2883.07-419508-393529-376525-356087-388009-400652
2888.86-435162-226570-388082-435961-480086-218000
2894.64-445241-192338-348005-538395-261075-377750
2900.43-392649-516695-245329-317669-521796-331685
2906.22-477440-138836-162690-310292-330554-494734
2912.00-500816-358988-485457-303719-291435-432476
2917.79-383707-467931-391294-314063-397368-383256
2923.57-504889-378169-486393-370722-389007-593465
2929.36-297730-282101-613162-450050-531919-311970
2935.14-467839-314685-525237-452425-499783-247973
2940.93-364232-388630-536780-484244-477041-321414
2946.71-452286-375326-654516-267756-388900-262101
2952.50-415207-491893-431642-322020-343574-267415
2958.28-495905-520101-547244-346299-350459-359812
2964.07-577861-305623-375599-462875-526291-490465
2969.86-502304-277833-452722-391371-420745-353130
2975.64-450593-407897-475401-520511-394542-468436
2981.43-385487-355844-472381-472981-360064-365977
2987.21-318225-518861-537529-393670-438491-329534
2993.00-541462-383044-370900-281853-407627-202569
2998.78-404483-488408-340630-357099-457439-320127
3004.57-454040-336205-481654-414549-404429-342005
3010.35-575926-401302-530725-372111-448952-433197
3016.14-587397-423848-397597-411672-342037-347241
3021.92-462487-227364-409158-346072-486953-494490
3027.71-537297-383473-483227-456045-350119-392434
3033.49-517166-320007-494309-477691-384917-392019
3039.28-544259-322474-596190-408390-495655-339771
3045.07-504035-528462-471989-272424-623778-296257
3050.85-396872-461573-307027-415920-344276-480784
3056.64-310582-404888-502308-284354-612373-340649
3062.42-598449-507809-386950-245000-364892-459987
3068.21-409376-266321-392190-384621-445725-290866
3073.99-402928-407329-537690-419851-400744-355088
3079.78-415949-445218-360403-233135-375729-438576
3085.56-389370-401255-270525-283844-408782-298911
3091.35-500735-223047-512187-325729-332447-394899
3097.13-353957-417497-379634-305306-410276-369117
3102.92-322153-483256-407616-435806-340915-327567
3108.71-521877-460655-216700-431369-524657-427645
3114.49-528017-423455-317403-222460-424489-351194
3120.28-245873-500684-366108-315575-441277-355900
3126.06-278256-307873-366843-266205-387844-406842
3131.85-421466-88453-285831-260256-645090-362251
3137.63-336094-419643-374671-356101-235655-219727
3143.42-579325-343355-583375-129889-530226-374176
3149.20-521882-452316-425579-473187-380050-358404
3154.99-489269-331784-356855-314847-420268-291006
3160.77-466495-355822-569891-110146-635056-441616
3166.56-429085-556008-394543-287892-344074-315204
3172.35-642152-227805-597521-288323-496103-160035
3178.13-443908-295198-558535-349739-312463-318380
3183.92-640598-400330-401102-433044-418224-260627
3189.70-408106-319713-452769-377861-513571-342183
3195.49-265948-380665-444479-382906-457105-380389
3201.27-253535-279238-489989-271033-505613-498050
3207.06-513499-454882-483517-484847-534099-372693
3212.84-311357-360241-341234-562860-293169-384565
3218.63-337332-202257-453058-228356-387510-480702
3224.41-344696-503149-449435-379100-571919-294583
3230.20-382798-369166-490814-310613-354846-444852
3235.99-295955-303334-362994-416470-661939-279357
3241.77-582457-364163-357173-256987-492219-314704
3247.56-447564-301481-481421-335984-467145-350902
3253.34-253213-424055-411276-544293-221005-236888
3259.13-719012-203624-575649-21176-393614-341974
3264.91-428263-277072-557646-262846-307426-400566
3270.70-577468-316303-434095-234080-394698-209703
3276.48-362878-308794-588549-287127-429438-392267
3282.27-251037-352803-454938-269413-229170-497260
3288.05-293184-304403-418909-291037-512014-279083
3293.84-495279-357806-452407-278273-314286-487855
3299.62-386302-366539-293061-391548-595132-398065
3305.41-396221-149016-472350-252611-387455-398373
3311.20-622395-403654-334989-131254-419628-340630
3316.98-552400-188639-598973-214577-568728-333643
3322.77-452745-288893-712427-194517-756443-414978
3328.55-501092-316847-448876-254381-631953-339792
3334.34-480400-267093-390761-499427-535690-374409
3340.12-476950-313197-463844-243765-498331-444201
3345.91-597358-409591-287764-639032-516348-255088
3351.69-312714-375121-450205-417445-322289-364494
3357.48-453599-224207-397026-351582-548902-87120
3363.26-697331-334251-497130-396640-455383-393894
3369.05-422056-112250-411537-292541-489883-155232
3374.84-394672-362314-523452-247735-629316-399591
3380.62-380158-112125-246683-19852-476124-536559
3386.41-175627-267322-415447-275436-363659-484326
3392.19-354822-263556-569568-333783-396792-197816
3397.98-585599-228970-357359-195600-559590-231647
3403.76-406687-295876-483413-397050-337578-309061
3409.55-254227-206418-338771-416278-404041 9279
3415.33-527827-138277-362098-452622-432620 66187
3421.12-447720-278084-301429-199937-632976-304023
3426.90-260346-292078-353361-293933-498861-266716
3432.69-400268-226748-359806-79808-260696-352218
3438.48-90240-205515-224176-394746-421739-11805
3444.26-434546 7103-521655-134115-351989-123508
3450.05-304953-541606-404944-27267-259447-207366
3455.83-554580-266671-459037-375406-287004-225306
3461.62-436915-50671-144900-150374-391568-286093
3467.40-265497-309807-394258-470822-359136-473386
3473.19-336747-263161-552353 33071-223908-150745
3478.97-651230-214808-407655-374625-427068-132470
3484.76-450295-413483-360857 5349-426243-245430
3490.54-511509-157079-334458-144403-507453-93220
3496.33-350420-272080-402807-91362-314084-132900
3502.11-545365-162592-350056-422320-592230-258136
3507.90-408041-441190-233190-382073-394647-456519
3513.69-353310-226309-617819-310112-342602-331591
3519.47-526907-333960-206722-313773-358141-141364
3525.26-441768-339701-451936-348783-548312-202807
3531.04-472859-210072-557410-19171-407115-313990
3536.83-503438-240895-351224-183921-571823-313521
3542.61-465154-181179-483546-235685-404699-159026
3548.40-510973-274255-384529-224052-537217-348895
3554.18-408022-389570-338954-167621-635585-329549
3559.97-325431-53836-577159-245677-562147-120209
3565.75-474566 109567-407791-174988-454015-489454
3571.54-457753-276001-384842-274739-297801-164631
3577.33-566522-250038-406955-416946-560716-206344
3583.11-361675-215506-196038-393162-484514-86274
3588.90-691464-17271-557299-196970-310449-357910
3594.68-624610-337344-792136-144594-357422-272776
3600.47-314362-205885-445387-286288-456943-331571
3606.25-515858-270316-277010-5264-480427-96953
3612.04-382145-220582-312932-271291-495609 4482
3617.82-563181 82389-378908-243101-345608-202834
3623.61-429573-118187-410716 208681 84416 286348
3629.39-419340-188085-439566-33551-287157-196749
3635.18-400628-380478-326354-91857-294000-159873
3640.97-449820-102915-433689-212017-481888-79891
3646.75-305337 247508 78600-86896-327400-157644
3652.54-401147-266566-283418 169256-423912-199020
3658.32-511583-109253-342711-337409-206027-311289
3664.11-123692-287449-425272-221433-79285-94602
3669.89 120465-194090-397486-304205-73647 279039
3675.68-51936-360180-23183-272357-327745-274659
3681.46-351774-77351-411538-292510-433889-106354
3687.25 368682 106357-416369 112103-406312-156144
3693.03-227855-358063-363182-194254-404965-232272
3698.82-195186-132383-216802-146600-392281-76718
3704.61-513968-301714-426486-310964-126910-159068
3710.39-386919 227139-282397-415790-473354-226883
3716.18-458046-257501-577852-215531-288147-285020
3721.96-352658-104271-333581-280823-252675-160301
3727.75-405638-144283-372370-218924-187968-421762
3733.53-199175-303705-42133-85743-277473-200978
3739.32-411552-75076-233068-389834 201667 605673
3745.10-660093 17267-715214 384465 215182-422022
3750.89 216486 235877-435053-121060-609925-44504
3756.67-501864-317758-279884 32293-660683-158170
3762.46-524785-147428-483941-323165-319034-122599
3768.24-406354-114030-407892-205006-484114-170081
3774.03-135909-209106-456608-235623-261807-106576
3779.82-344167-265746-294940-133074-390497-297094
3785.60-351367-155305-550347-177104-366651-10440
3791.39-454047 21283-585692-274589-279977-256574
3797.17-491261-36334-527239 645416-84403-246330
3802.96-400984-39597-539173 6823-284476-178392
3808.74-443836-252559-320338-137719-336462-250116
3814.53-12398 259682-428443-60795-509932-16977
3820.31-216524 5423-384254-44192-522390 14214
3826.10-450088-248783-350435-334695-579967-99417
3831.88-700784-378016-240997-165768-676011 161532
3837.67-335739-234367-262860-335791-759561-692855
3843.46-259519-607206-85981-1037687 90672-1300386
3849.24-1171807 275159-431821-118546 634778-194469
3855.03-775287-85258-795311-363905-696327-262590
3860.81-676338-123727-381555 34283-240824-257837
3866.60-359697-237246-209980 160981-443422-212142
3872.38-427784 97251-483030-152058-526102-180189
3878.17-459091-42953-374530-288599-722070-244924
3883.95-410347 244250-432900 27406-505852-223310
3889.74-201159 232616-649062 57914-510545-147512
3895.52-625088-89823-562979 34242-443662-8878
3901.31-268677 47976-7190-141189-370579-119900
3907.10-308646-321614-198916-304136-449345-49876
3912.88-387973-11446-328027-73125-93914-491061
3918.67-517894-127959-386439-303645-330371 1028
3924.45-281122 179368-401998 119364-441551-105006
3930.24-773066-269659-511023-215825-475424-236323
3936.02-344483-29043-347396-224286-769461-211313
3941.81-341513 66513-235384-279-412749-214124
3947.59-451856-151592-429503-206618-404285-292132
3953.38-472688-190035-450626 74465-523765 16288
3959.16-572763-102221-218598-239592-714747-129962
3964.95-356214 82912-457444-80960-275093-269069
3970.74-617726 83617-426925-218007
##END=
