##TITLE=Dichlorodifluoromethane
##JCAMP-DX=4.24
##DATA TYPE=INFRARED SPECTRUM
##CLASS=IUPAC A
##ORIGIN=NIST, Analytical Chemistry Division, 301-975-3108
##OWNER=COPYRIGHT (C) 2001 by the U.S. Secretary of Commerce
##DATE=01/06/01
##$SPECTRA VERSION=1.10
##$UNCERTAINTY IN Y=2.1 % relative (B=1.11E-04,C=1.83E-9,D=7.56E-14)
##CAS NAME=Dichlorodifluoromethane
##CAS REGISTRY NO=75-71-8
##MOLFORM=C Cl2 F2
##MP=-158 C
##BP=-29.8 C
##$NIST SOURCE=QUANT-IR
##SPECTROMETER/DATA SYSTEM=IFS66V (Bruker)
##INSTRUMENT PARAMETERS=KBr Beam Splitter; MCT Detector; Multipass cell
##STATE=gas
##SAMPLE DESCRIPTION=Dichlorodifluoromethane Primary Gas Standard
##PRESSURE=101.3 Pa
##TEMPERATURE=23 C
##SAMPLING PROCEDURE=1 L/min Flow
##RESOLUTION=1.9290
##DATA PROCESSING=3-Term B-H Apodization
##XUNITS=cm-1
##YUNITS=(micromol/mol)-1m-1 (base 10)
##XFACTOR=1.0
##YFACTOR=3.6379E-12
##DELTAX=0.9645
##FIRSTX=575.652
##LASTX=3974.605
##FIRSTY=-1.05E-06
##MAXX=3973.64
##MINX=575.65
##MAXY=.0028445
##MINY=-1.54E-06
##NPOINTS=3526
##XYDATA=(X++(Y..Y))
575.65-290563-135997-211394-275816-150972 82954
580.47 225823 36559-133242-231337-294917-404475
586.26-354035-20771 314809 295073-91348-447662
592.04-432989-215677-255373-269004 35687 173185
597.83 110010 76697-6822-140254-144213-78136
603.62 6188-122988-379383-424847-214296-5047
609.40 77834 45502 40950 25761-58208-94400
615.19-114053-298462-420006-338764-220780-142040
620.97-44078 35680 38182-158302-258214-171190
626.76-95136-36884 83986 115577 11478-64686
632.54 42903 152306 121477 87642 152214 203907
638.33 306632 334412 354132 593356 954277 1119743
644.11 1314901 1696281 2129749 2616389 3281203 4074796
649.90 4896972 5647729 6524666 7527742 8563247 9559278
655.68 10461533 11185727 11822205 12405585 13153929 14375537
661.47 16181835 18326403 19988107 19941228 18156380 16668266
667.25 17832917 20427457 20938552 18894882 16593198 15294257
673.04 15009029 15211374 15305668 15002409 14327292 13248063
678.83 11816647 10187531 8613589 7132510 5783077 4636317
684.61 3685414 2812091 2137331 1621679 1205601 874395
690.40 672972 512667 369652 240429 186154 103197
696.18 33186-17835 41554 151177 154635 30608
701.97-8339 27682 120318 198919 220104 199786
707.75 230123 216255 146613 118030 173326 232667
713.54 326799 354373 261503 143989 184723 315517
719.32 430401 411106 334605 249268 227251 264601
725.11 305433 252327 229966 226113 232362 279843
730.89 351680 331885 238275 93261 37964 34924
736.68 71674 94566 143425 210647 250144 152572
742.47 83965 133157 237300 270136 298130 340386
748.25 411236 415627 398602 389809 455450 476597
754.04 418691 346626 305465 258671 279011 288745
759.82 308475 316008 318536 278220 244712 241678
765.61 273554 229196 209020 162821 85124 5091
771.39 947-31901-54094-40660-34054-95008
777.18-59590 39852 95190 4266-69927-109543
782.96-24887 63810 63391-24783-124579-188928
788.75-197011-204649-147489-179485-197244-193534
794.53-172278-147758-91538-87061-109069-157212
800.32-112320-77084-90264-186316-192156-193895
806.11-218274-194422-115774-161172-171886-178150
811.89-172063-159321-120006-166060-128741-2697
817.68 37008-36310-10281 23281 105899 125084
823.46 160862 233136 419861 618884 769453 847845
829.25 899832 920086 1031838 998684 937079 932631
835.03 1030956 1173813 1416524 1794725 2255339 2283306
840.82 1940646 1660546 1730681 1932041 2202326 2474764
846.60 2827243 3198899 3617982 3969577 4452849 5048462
852.39 5779213 6629184 7676038 8816704 10165706 11668528
858.17 13395537 15395542 17814501 20384113 23288957 26599809
863.96 30245696 34082263 38403414 43230419 48444009 53745777
869.75 59460680 65638975 72021882 78504952 85682846 93796515
875.53 102138132 107922413 109783524 110070008 113401417 121822251
881.32 132741346 137352266 128523966 115834219 115704316 129737774
887.10 146539965 147529479 135673074 130860965 126522694 114132495
892.89 103659597 97860385 93252220 88411350 84035201 80699779
898.67 79023350 79576874 83785479 92043667 104688408 121361801
904.46 142172488 167693015 199170000 236297530 278005743 321092851
910.24 361628488 395525226 420555080 434414160 436704924 430947697
916.03 427082179 439653989 482826690 563076169 686755652 781896850
921.81 726886533 543452321 428134103 441234564 483605752 519377343
927.60 547520384 555139950 534092503 486282267 418196048 340212432
933.39 262001685 191535997 133215129 88701106 56849824 35562796
939.17 21813309 13360155 8170930 5107684 3189555 2075341
944.96 1344005 999960 750936 633683 493725 466240
950.74 369690 310011 246015 244697 145838 153125
956.53 198258 270773 191902 110659 24434 57182
962.31 33770 7913-20435 32634 8582-10860
968.10-54960-44835-56432-84865-162584-109442
973.88-53347-43989-86209-64477-71787-48781
979.67-83998-112291-129787-92469-63115-6914
985.45-8329 19461 19114-19530-94676-119318
991.24-150103-146204-167949-169049-164868-118944
997.03-117375-135584-154653-131059-162857-181034
1002.81-169285-124184-126357-149402-179504-168268
1008.60-176286-190666-221857-219845-232287-208295
1014.38-183622-168691-179324-169635-143623-109245
1020.17-115801-138679-178898-193786-194916-121627
1025.95-45673 6853 18082 874-42793-22560
1031.74 31610 28897-15389-2713-2714 1388
1037.52 10713 9720 33758 100277 99192 106491
1043.31 188626 274526 296107 312170 332525 367415
1049.09 459823 577440 695113 884976 1078509 1272631
1054.88 1510294 1823520 2172792 2540940 2987859 3479633
1060.67 3963893 4498595 5109091 5814182 6623559 7598418
1066.45 8762992 10226394 12096505 14281859 16783123 19783226
1072.24 23741240 29116388 35040010 40403086 46357791 54659532
1078.02 65326595 77836041 92122255 108236398 126205002 146017037
1083.81 167489647 190301351 213991783 237977319 261804878 284808305
1089.59 305817748 324144533 340650275 356786302 373827877 393354209
1095.38 416436023 438527994 452464621 458222466 461145301 488047066
1101.16 533290628 527551556 462925451 398652225 369813569 365939095
1106.95 366049162 364279488 357969559 343770623 321893483 294151118
1112.73 262765280 230086013 198567829 170037306 144968536 123115615
1118.52 106152080 96514290 92394803 87605287 80318627 77185041
1124.31 81826758 84428747 76658015 67160122 67679696 71234234
1130.09 67799206 62006543 59112846 58804858 60248378 63028008
1135.88 67276523 73179185 81213615 91661114 104752571 120424300
1141.66 138548968 158398623 179266437 199938829 219301360 235843979
1147.45 248623512 256467829 257239972 252864716 248259392 244509668
1153.23 246772848 260525212 283927781 331769985 384697142 413047532
1159.02 548784351 637383016 421062267 214051904 176039168 172213467
1164.80 169425924 168963677 168772515 167032385 162367759 154590151
1170.59 143861309 130952372 116535721 101606312 86677805 72459091
1176.37 59277763 47653149 37608121 29238852 22391031 17008765
1182.16 12777015 9624253 7218152 5487947 4250575 3502654
1187.95 2988482 2619517 2323344 2231547 2192038 2215198
1193.73 2157390 2074037 1985134 2032053 2125608 2314584
1199.52 2476303 2493381 2166214 1843663 1767065 1950562
1205.30 2208801 2421118 2252974 1765728 1385258 1315992
1211.09 1283908 1283347 1247806 1232932 1200155 1210176
1216.87 1234032 1287573 1299740 1340387 1425619 1612790
1222.66 1791527 1966543 2103389 2319589 2556514 2761952
1228.44 2849053 2899237 3006819 3200401 3298365 3383268
1234.23 3567288 3905718 4291178 4769959 5303993 5822845
1240.01 6063241 5909909 5349265 4347550 3330841 2866827
1245.80 2637357 2481623 2410512 2439083 2462341 2411059
1251.59 2256389 2092106 1883210 1638977 1339176 1069900
1257.37 830125 644003 457591 305303 159985 81039
1263.16 23618-45150-98746-64881-30319-11807
1268.94-48903-56317-42318-18760-50453-103032
1274.73-136683-112155-98620-63444-43174-40792
1280.51-35245 734-8419-33499-58265-32224
1286.30-2557 22274 1908 15858 38508 43600
1292.08 45447 87226 95740 105381 117715 139840
1297.87 143346 149166 144198 162366 167117 171832
1303.65 175496 224529 252301 255687 258801 308455
1309.44 342379 369492 359418 326420 326010 401252
1315.23 461785 501192 485336 435034 388836 441076
1321.01 527672 579378 583388 600068 615489 653060
1326.80 644624 618661 616122 651158 710510 782122
1332.58 767089 747817 757862 762385 738559 763538
1338.37 812901 879115 960635 1021131 1035311 1084793
1344.15 1166056 1227735 1173853 1116046 1070359 975279
1349.94 863400 773598 770260 935262 1198769 1463149
1355.72 1546729 1491891 1397523 1273499 1171099 1265845
1361.51 1406015 1397321 1394469 1512616 1592568 1585019
1367.29 1589537 1679656 1707896 1718460 1791106 1903796
1373.08 2000234 2050083 1984661 1908914 1922379 1962680
1378.87 2024924 2065927 1986455 1938994 2029131 2271233
1384.65 2338789 2079262 1779868 1647895 1541698 1422344
1390.44 1314249 1209069 1094516 965665 740987 525962
1396.22 427259 371297 291940 240235 186380 106144
1402.01 48933 60108 73623 104709 121563 108696
1407.79 79460 62883 41271 23786 19409 31639
1413.58 22323 4132-12267 13392 10851-21502
1419.36-38892-26784-4614 15727 905-3448
1425.15-6739-9494-8064-17677-41862-34728
1430.93-30008-29229-22704-7206-65262-132405
1436.72-108551-43354-33086-57937-75749-38953
1442.51-13084-34591-84588-95863-97373-80153
1448.29-48684-51276-100080-112962-69035-17495
1454.08-56232-165852-205107-127268-57105-398
1459.86 46247 87159 106062 103800 90717 143494
1465.65 217219 278222 299899 280318 242709 191207
1471.43 136058 156904 232900 282742 305137 372676
1477.22 450061 529310 499166 352171 251686 243116
1483.00 264151 272908 214470 146610 127719 131545
1488.79 83087 24578 1579 21137 22699-29767
1494.57-149251-206385-158938-117727-102433-76038
1500.36-55604-26081-41489-118807-242750-301745
1506.15-239972-142675-106419-59576-12712-9434
1511.93-361 34422 17693-21247-47419-9821
1517.72 70893 74776-27443-60312 19322 96686
1523.50 102032 122573 191682 239860 236254 201760
1529.29 172769 189533 181327 131420 122796 195214
1535.07 244804 201297 73394-61871-107218-49134
1540.86 2033 41924 89194 108016 91941 106458
1546.64 140528 172003 180214 176647 170188 170526
1552.43 151336 128712 116467 88283 8521-49784
1558.21-47083 3578 97903 154958 150185 175111
1564.00 189024 194572 246174 306291 317739 343405
1569.79 422909 509390 561740 618571 627676 590827
1575.57 649392 825393 959427 1052968 1137482 1192266
1581.36 1223017 1272964 1304209 1301054 1409700 1599502
1587.14 1618752 1654394 1562326 1278755 1206884 1307945
1592.93 1346438 1316021 1256183 1175152 1081216 971251
1598.71 800088 601333 422399 296381 206170 141388
1604.50 77755 14852-29990-38384-8619 24661
1610.28-10830-47465-60472-81236-128795-203975
1616.07-199577-87415-29947-33133-42657-70151
1621.85-112166-113321-94608-75481-77549-90227
1627.64-69765-37500-52524-64452-40609-40006
1633.43-141367-237447-205359-142298-118403-83487
1639.21-46118-22262-18236-18274-44879-114408
1645.00-177273-152707-113331-84917-67991-116375
1650.78-263512-388780-323106-142959-36010-23854
1656.57-42443-50005-60515-63050-69439-106080
1662.35-118061-79169-60646-48427-39929-74138
1668.14-117073-79975-44174-52011-58742-90940
1673.92-160418-148707-75642-45215-52817-59235
1679.71-61110-83383-152486-251958-324952-230963
1685.49-86409-57422-85058-79305-65661-75557
1691.28-93766-103722-137675-235123-273481-173105
1697.07-122234-196090-296012-257118-133773-86395
1702.85-94538-81996-77561-81194-67493-55282
1708.64-59156-63707-70728-65592-76144-103825
1714.42-121920-178610-272241-252313-146318-55643
1720.21-16090-11140-13250-12301-23401-16056
1725.99 785-9363-27417-10749 19495 10121
1731.78-66359-141116-115426-23092 27934 40700
1737.56 24718 6983 50576 142212 213032 263379
1743.35 311291 364937 405871 426025 446729 500491
1749.13 535830 549181 589393 636152 669990 732879
1754.92 781436 791434 805831 840626 868415 868355
1760.71 844728 837402 849350 852324 760188 616229
1766.49 538726 552536 592358 566812 456499 381045
1772.28 413750 438925 378048 296850 239608 242146
1778.06 251527 218649 167277 145305 160445 186614
1783.85 188963 186190 219477 310338 364394 341640
1789.63 319902 318161 327785 400274 479406 496583
1795.42 487413 520764 577984 601209 598160 612610
1801.20 637682 654405 654851 655155 650287 650508
1806.99 636488 611390 586315 547498 521697 560274
1812.77 570052 509076 486842 504054 500403 523074
1818.56 536216 502739 492737 514995 502149 453010
1824.35 415643 402785 394315 378221 359349 389166
1830.13 467291 530078 537267 491664 452072 464750
1835.92 499858 526013 534118 531091 473680 408779
1841.70 396715 388836 353422 351007 381558 357192
1847.49 283608 243267 223295 191739 157669 104444
1853.27 27994-33816-70370-76982-109891-171328
1859.06-198276-201967-219815-235645-246146-229320
1864.84-207298-211588-215162-201125-184666-175811
1870.63-187318-179857-135967-92401-84593-99971
1876.41-100572-75551-61240-62992-49930-29079
1882.20-18176-10460-18487-27702-46508-76390
1887.99-84911-48182-23572-37452-36540-37316
1893.77-54079-47591-47614-54414-29645 7277
1899.56 3741-25704-41077-28706-13199-21607
1905.34-49348-44930-10106 5235 2346 146
1911.13-11708-38154-61972-63567-64021-66507
1916.91-57061-33650-19915-18700-27495-19099
1922.70 5970 14019 8445 9307 9475-8019
1928.48-26451-22822-7754 191-16619-21601
1934.27 1419 8462-12187-26057-19167-19695
1940.05-29110-14875-12151-27210-21663-11718
1945.84-23253-27470-9477 9578 27688 36867
1951.63 24917 4169-7834 4995 13646 12170
1957.41 8480 11697 25268 24992 8035 7948
1963.20 25151 38888 48865 38559 20731 9751
1968.98-549 26218 59892 76951 87303 61943
1974.77 20372 377-3336 7841 2438-10084
1980.55-8795-2687 8077 20799 29287 27598
1986.34 21033 27734 41806 35670 8241 2449
1992.12 24658 37302 15264 1030 27901 61754
1997.91 71912 84399 107702 111972 104828 97750
2003.69 81784 86120 121962 153406 154428 148423
2009.48 150400 158696 165814 153417 139835 149827
2015.27 150525 136726 133557 139761 142317 136816
2021.05 100416 51419 43839 53107 69628 123007
2026.84 170774 163041 111790 60946 39666 38891
2032.62 46743 56202 51220 59199 80691 84813
2038.41 74551 71067 64726 46970 34891 49411
2044.19 78113 88412 75525 61131 54208 55940
2049.98 79731 115065 108282 60006 21788 24582
2055.76 44302 39728 33844 57967 70238 41339
2061.55 13006 23790 51732 53586 36459 24053
2067.33 13758-1815-19249-3183 38227 34141
2073.12-261 468 17522 14869 4319-25690
2078.91-70683-73260-31995 14163 46338 55899
2084.69 32174 7815-7218-30077-46303-26810
2090.48 28480 47359 7757-1843 23687 37407
2096.26 23775-10635-14406-9297-37542-46003
2102.05-37309-46642-49543-33367-20908-4180
2107.83 13600 6924-13466-30409-29065-14532
2113.62-29743-50234-38435-25542-40400-54281
2119.40-34951-19585-38186-58985-44056 623
2125.19 19065-8826-28012-26209-21640-21484
2130.97-20593 1788 10499-2445-1064 2012
2136.76-1985 9265 23928 18329 7545 7019
2142.55 5559-13363-15756 14555 33701 10345
2148.33-39960-52811-25520-24738-47001-64767
2154.12-83427-77420-59259-67996-76422-52425
2159.90-17718-3423-3958-10166-7347 31242
2165.69 82933 94220 110451 155901 196472 233243
2171.47 276382 336766 427161 512915 579514 675721
2177.26 793724 868883 919754 1016542 1143790 1247495
2183.04 1333938 1447410 1591731 1716960 1779506 1842306
2188.83 1968973 2098275 2158803 2239241 2405712 2436399
2194.61 2228067 1945384 1765098 1744919 1806511 1865326
2200.40 1893926 1830145 1676340 1523548 1361676 1162950
2206.19 997051 872804 746082 637055 572966 559920
2211.97 578778 564680 545411 587620 666893 724852
2217.76 756151 800840 887529 993458 1073340 1141957
2223.54 1261052 1432799 1622049 1796624 1965197 2135436
2229.33 2336230 2563279 2768180 2955245 3148563 3341057
2235.11 3532591 3735208 3921478 4066542 4209745 4310601
2240.90 4353119 4479365 4741225 5059190 5175196 4967913
2246.68 5247740 6819458 7913213 6225896 3836635 2890032
2252.47 2622095 2554895 2635349 2685414 2608895 2446430
2258.25 2254433 2043723 1825571 1585486 1302504 1049371
2264.04 889096 772193 656251 563015 495956 467927
2269.83 478374 478073 453474 441252 447035 462099
2275.61 473120 498557 550725 540307 463877 428153
2281.40 433593 374353 228328 145067 139928 113844
2287.18 85532 130372 202946 251637 298794 345658
2292.97 383917 422899 479810 560896 648263 735836
2298.75 852070 985918 1081677 1155856 1217065 1207903
2304.54 1185140 1310993 1651659 2013129 1964709 1583463
2310.32 1599552 2047459 2259863 2063831 1743440 1532877
2316.11 1465169 1420796 1347638 1213330 1038523 1033884
2321.89 1139962 1068726 894289 746185 606145 480361
2327.68 401545 367950 325966 239382 160829 108445
2333.47 65939 21330-18133-45732-63583-72714
2339.25-84313-100989-122873-133852-118774-117746
2345.04-118947-109236-124372-145124-153117-119458
2350.82-56140-27637-24102-14497 19962 64313
2356.61 82918 70423 67528 82876 108296 151640
2362.39 171433 140174 105336 113303 136711 127945
2368.18 103429 104258 135041 126995 82709 45888
2373.96 21721 20646 25259 8317 2083 31187
2379.75 45466 34988 48357 55225 29684 7524
2385.53 30581 66756 55792 32999 25885 22611
2391.32 46232 66534 61077 70117 90806 82244
2397.11 77350 84368 77805 70272 69388 55790
2402.89 45767 43697 51766 70194 57514 12737
2408.68 31038 88478 80098 30633 7166 33580
2414.46 81106 86668 58368 28387 35937 72222
2420.25 70462 48715 25579-1180-11776 563
2426.03 36279 53952 61452 76362 71320 55095
2431.82 42980 25675 10316 5906 5709 1040
2437.60 2701 29358 56861 55169 47041 62585
2443.39 83210 66164 33962 19786 14010 37255
2449.17 65794 54622 39694 39209 40685 40723
2454.96 33040 15332 24414 55046 71907 80084
2460.75 86947 75598 43211 16751 24325 40536
2466.53 31160 7434 24718 66985 68276 60764
2472.32 76369 73224 51266 17074 4279 4633
2478.10-26011-44601-18566 1137 2851 8130
2483.89 15062 3689-17051-12380 25128 47325
2489.67 27233-5025-7883-12121-17595 6680
2495.46 25569 9484-19555-30113-21738-20996
2501.24 15283 76940 97885 79814 57789 54293
2507.03 81524 102211 91619 47087-8395-35804
2512.81-27357-10829-10914 17449 69725 77778
2518.60 74475 78932 58593 32019 9700-19466
2524.39-2835 29997 14161-3107 12051 36627
2530.17 57155 66397 59437 44955 26207 23778
2535.96 44407 39447 42971 52588 35227 49356
2541.74 99461 93849 48289 25486 9556 3735
2547.53 11250 2289-4938 17143 51000 49410
2553.31 25044 20543 38083 44082 40868 22929
2559.10 6693 6017 21779 51184 58286 39082
2564.88 37279 42859 44860 54117 66462 65364
2570.67 47757 23962 17806 28151 43926 54117
2576.45 57919 43955 24865 14280 29162 33117
2582.24 3184-9732 5704 15916 39271 67204
2588.03 61755 22550-11970-18526-3726 14407
2593.81 34761 32083 4336 3530 35833 58759
2599.60 77330 78315 33714-13305-8697 18606
2605.38 24060 17872 36228 53472 60568 78495
2611.17 66406 24305 12945 12896 10839 10226
2616.95 6731 9658 36700 69180 50929-21087
2622.74-56500-28443-4672-19911-46299-51856
2628.52-32314-16627 14406 57314 81885 72948
2634.31 36657-7839-23014 1946 36076 52771
2640.09 54905 19166-7431 12575 10887-23804
2645.88-10285 32197 46336 47268 23915-25098
2651.66-44200-19173 6683-7146-27574-10205
2657.45 15294 22975 37716 25817-19567-36253
2663.24-18563-23412-23611-10212-8198-16927
2669.02-13654-6517-9580-7799 6224 20153
2674.81 33017 24599-20910-76112-73764-16249
2680.59 48544 69786 62667 43712-1090-31219
2686.38-9186 17581 24207 10866 4766 24263
2692.16 35596-1430-32889-31281-49849-93797
2697.95-139421-167082-123254-30687 35897 54074
2703.73 75044 97154 86947 77194 95280 90900
2709.52 60385 42297 37027 10160-36339-61540
2715.30-58382-56442-23923 4949 9929 17483
2721.09 16227-1214 4539 24283 38473 36366
2726.88 13903-20284-44590-42326-32334-44749
2732.66-66243-58813-33665 8096 70074 64082
2738.45 20533 2000-20031-41229-35499-23730
2744.23-13550-43252-86415-63717-5813 13785
2750.02-1182 6242 22108-2115-31214-28371
2755.80-2076-17478-57647-63453-39853 6128
2761.59 62184 63162-14231-87516-102088-92927
2767.37-82546-66331-52001-54971-69908-78171
2773.16-33524 38853 62994 407-73676-84475
2778.94-54705-43537-38489-24840-45306-99592
2784.73-129831-126925-82992-43648-79076-95952
2790.52-69824-74488-93691-102216-74426-68863
2796.30-89842-64230-36549-52859-68310-77948
2802.09-73403-78290-68679-35852-28321-36515
2807.87-66961-73325-30759-33655-62960-76381
2813.66-82491-86666-83737-53745-5276-4055
2819.44-71978-115594-83451-53056-47126-56680
2825.23-76072-85365-39374-257-64716-147422
2831.01-134133-83976-52886-41389-35252-43444
2836.80-49988-52046-60059-57155-60214-71931
2842.58-50421-30363-40165-55122-51234-56407
2848.37-84140-98801-76449-88220-112445-76205
2854.16-39606-32077-16380-3823-9858-65127
2859.94-131789-139894-98424-62538-38114 5434
2865.73 23829-30001-67671-55342-28992-40421
2871.51-77988-105006-100897-74218-14438 10762
2877.30-27164-42913-22533-15424-14341-22702
2883.08-67319-118687-117073-85594-67473-68918
2888.87-34795-36155-85669-67277-22295-43100
2894.65-70900-62323-51983-31572-14113-28257
2900.44-19484-21335-48532-60873-44987-16249
2906.22 2761-5174-46304-74854-58815-24139
2912.01-462-30538-53167-61583-66955-40241
2917.80-15721-33713-38221 3747 3387-59049
2923.58-92393-114027-118653-82358-82225-83731
2929.37-44866-45192-83173-106223-86761-46923
2935.15-5710 4835-898 5341 12014-12948
2940.94-39757-52273-52395-36475-36712-52152
2946.72-57377-28479 47241 65026 11202-43929
2952.51-51643-25430 3483 6400-20512-69501
2958.29-101727-108588-114829-101944-74800-115913
2964.08-144431-96869-49831-72020-120435-90611
2969.86-1425 7287-61405-97358-79047-70012
2975.65-44614-18545-40574-64017-61003-95208
2981.44-128401-77289-2318 9746 21399 27414
2987.22-26808-87228-76500-33036-10324 7401
2993.01 16664-9350-29764-12852 18834 25762
2998.79 28622 16525-31956-62150-51122-60106
3004.58-75273-89932-73768-16965 15029 11882
3010.36 13451-17741-34186-8069-15651-56356
3016.15-73721-51928-6834 10385 21011 49555
3021.93 60981 18381-24264-18203 19104 22950
3027.72 3190 6685 33337 39340 15960-35492
3033.50-90772-90773-28187 9417-32548-79734
3039.29-40589 9628 20088 2458-14197-42962
3045.08-40588 747 26465 24843-8854-50167
3050.86-43649-6023 54748 63347-4009-40526
3056.65-24828-33115-53243-61803-81581-70661
3062.43-42660-87421-127095-108205-48463-9706
3068.22-24184-63362-59653-66696-111576-95531
3074.00-19212 6439-19494-39772-19730 31104
3079.79 59739 24188-4781 9305 39098 27899
3085.57-3490-30398-71169-77546-10590 33016
3091.36 23559 17310-18928-97069-97788-50946
3097.14-40818-42493-9731 21594 21876 11500
3102.93 9059 10779 7320 11974 30003-2639
3108.72-57233-59177-25189 2526 20869-2404
3114.50-28709-21551-7737-31865-43904-5059
3120.29 25123 25689 31422 24090 6802 12218
3126.07 33183 3095-25106 16270 65552 19145
3131.86-36013 11419 66997 33497-35724-56228
3137.64-6483 41825 71187 58160 38958 28364
3143.43-188-43622-83204-62519-7436 4385
3149.21 20192 33422 17794 15558 5609-22215
3155.00 7209 9824-22821-41513-64406-81910
3160.78-54116-7566-9405-35082-43585-40101
3166.57 8837 40548 31144 934-17213-3923
3172.36-12178-51789-41353-30236-17975 28796
3178.14 45938 21115-32057-91437-90539-72490
3183.93-62987-29415 11868 24641 6350-29071
3189.71-41900-61500-85335-52247-22508-75824
3195.50-117912-81367-31384-54224-71479-4160
3201.28 52828-2359-56980-58631-52479-38456
3207.07-32658-42561-16291-1032-25685-42989
3212.85-46789-74197-80310-58527-59633-67855
3218.64-50861-58694-96049-111596-76551-25995
3224.42 2787-27194-104953-168608-123640-52943
3230.21-60624-65384-32495 4668 38301 8237
3236.00-60439-81640-64125-35733-19186-75524
3241.78-108119-106846-153038-169742-76972-3058
3247.57-8330-41361-73650-87735-74873-61775
3253.35-47250-55151-62814-41182-26001-69022
3259.14-83260-31221-12230-64459-85899-71253
3264.92-61654-48431-25786 1720 21017-4915
3270.71-9976-766-7328 7302 28045-27296
3276.49-100846-58541 24179-9410-49259 12205
3282.28 69214 39369-8977-32439-42572-46122
3288.06-3794 21464 14687 17907-2514-38481
3293.85-24496 6256 4243-11084 2874 6299
3299.64-44335-99555-93846-63106-27670-11176
3305.42 10949 18388-28051-68982-43072 9823
3311.21 32609 6438 9451 64446 91886 81844
3316.99 85806 60140 27754 45290 85780 88482
3322.78 74898 77979 95962 105336 149340 182468
3328.56 126159 11277-86796-108817-72795-39705
3334.35 20518 68084 23386-69153-87234-75434
3340.13-92697-95274-75209-69308-52102-49155
3345.92-43275 2920 11448-61311-97249-74044
3351.70-50650-37014-29704-51206-60660-44850
3357.49-45489-71802-38120 14604 15351 14028
3363.28 38955-5841-87366-98700-54468-34454
3369.06-49752-44665-21392-1217 4257-58083
3374.85-104011-121328-79630 22086 79157 72741
3380.63 54968 27269 37671 38995 18086-9390
3386.42-50029-32440 72374 179306 228411 157018
3392.20 28546-51822-40648 32141 57969-2020
3397.99-17256-1511-12462-17539-12784-38729
3403.77-58577-72912-59361-39104-91745-175421
3409.56-198587-157497-86645-57445-48519-44146
3415.34-58800-91033-51261-30689-101338-122350
3421.13-85630-60618-56031-47157-15055-9152
3426.92-36398-66012-82156-52194-11666-8117
3432.70 15432 24755-17299-72191-54368 10169
3438.49 56668 75433 86849 54475-24946-83247
3444.27-57056-7201-3143 2257 63155 83057
3450.06 26452-55440-49836 50573 83763 45455
3455.84 41140 22580-30102-73507-82073-36907
3461.63 75250 122098 77812-68-51838-34004
3467.41-826-30484-62191-17072 83034 72457
3473.20-29380-66684-43320-86167-126520-80114
3478.98-39230-69479-117714-101023-46132-48649
3484.77-62239-86523-85741-57251-62704-67296
3490.56-51701-36853 4846-4127-45734-34599
3496.34-36897-63550-10917 16859-58734-88363
3502.13-13315 17116 6389-27786-90833-135306
3507.91-123301-56588-1078-21522-32545 28311
3513.70 66582-36310-154131-159183-88155-19782
3519.48 25741 15373-34190-58689-38587-24201
3525.27-15275 8053 3503-61328-117823-112470
3531.05-34780 37264 59408 10284-67968-57553
3536.84 33085 64418 15246-63364-65307 39880
3542.62 126891 76599-40218-91925-80537-60155
3548.41-24035-5049-14135-51026-72239-75756
3554.20-63309-14373 51443 84279 78155 47731
3559.98 45305 44952 59373 74381 44358-13290
3565.77-35991-30500-23306-29468-19469 559
3571.55 22541 52499 84114 68214 67338 71493
3577.34 43751 32774 63248 64566 59463 96785
3583.12 113744 79962 62677 28408 6194 5137
3588.91 10927 30952 61419 75219 98932 106691
3594.69 77804 45879 41173 52071 52483 31153
3600.48 42386 82927 112442 94894 71677 83650
3606.26 124199 126737 100322 93984 107904 89520
3612.05 78111 117109 165780 144734 79534 46818
3617.84 70752 68230 59806 73948 77359 78210
3623.62 73503 64766 82048 38787-42559-29311
3629.41 61225 99777 87470 78865 90396 89765
3635.19 88766 81337 79140 100926 129805 113100
3640.98 78416 76171 75735 19380-31868-38214
3646.76 3021 27777 38774 63638 98171 94620
3652.55 75191 42071-33322-52994 7739 61130
3658.33 119147 145724 124341 71166 42570 69677
3664.12 94513 64117 53827 58108 35296-11058
3669.90-17979 17968-16402-102046-125040-89587
3675.69-17053 20529 60442 111693 122343 77023
3681.48 31363 46974 86619 90891 109028 68839
3687.26-51562-73469-10756 33580 78529 64855
3693.05 40813 58945 87434 115828 144480 118130
3698.83 67606-9891-57715-10947 58670 81896
3704.62 91026 94151 107961 113701 70636 1586
3710.40-30449-47502-28443-21636 7251 87593
3716.19 140605 115029 94033 82435 42958 30741
3721.97 71465 106213 115990 99009 113474 111316
3727.76 71085 53161 59539 48245 64130 73187
3733.54 28042-27766-37346 193 40021 34461
3739.33 44497 58305 47330-32602-134132-89920
3745.12 51535 80159 27009-61500-78440-58065
3750.90-93740-60468 40122 81767 65435 30820
3756.69 42779 72602 91576 90272 79661 87934
3762.47 102419 49844-5530-4173 68840 159413
3768.26 171773 123052 129752 168840 194332 143873
3774.04 49904 21830 84136 112604 86043 63657
3779.83 90902 112248 68832 6534-3365 27339
3785.61 69464 71668 76515 84310 92025 111217
3791.40 158177 159194 126486 141699 179122 165763
3797.18 119170 47716-6230-28648 47642 113287
3802.97 90836 97179 76385-18881-33752-2355
3808.76 30836 86225 103561 60423 45831 9177
3814.54-91382-100721 21521 67833 16870-13708
3820.33 43665 117261 116043 56565 46170 76847
3826.11 111191 103493 74649 44952 10543 4588
3831.90 28712-12165-55992-22335-16869-96858
3837.68-56217 43704 74315 84450 72383 59483
3843.47 99088 83793 36242-5767-15540 20405
3849.25 44788-4006-69347-151957-230571-141762
3855.04 49477 143281 162263 152024 112676 39253
3860.82 30525 65785 62480 47816 61933 53425
3866.61-3335-100167-127716-61362 25876 59614
3872.40 35833 15279 51481 71490 62553 31518
3878.18-17840-42786 4943 63351 59849 290
3883.97-6949 38655 97336 119250 82037-7477
3889.75-70543-67826-5212 8800-16940 10222
3895.54 92983 99598 28148 12154 54548 27551
3901.32 10789 8891-43686-63311-1712 57478
3907.11 72940 67119 80354 87165 90877 71627
3912.89 69943 72356 47533 31073 47011 7390
3918.68-43003-20474 16284-153-6037 17849
3924.46 41244 66293 134842 161711 112705 57140
3930.25 34814 15479 31633 71232 129612 155433
3936.04 140662 115520 109368 118293 106584 66944
3941.82 76011 105762 104386 63558 40566 32981
3947.61 47795 75331 100639 80279 42721 44653
3953.39 84010 90722 75030 67086 58180 38047
3959.18 56449 103157 115075 78919 24506-33024
3964.96-11900 65775 106839 74930 47386 43730
3970.75 54791 32896-11841-2466
##END=
