##TITLE=Carbon Tetrafluoride
##JCAMP-DX=4.24
##DATA TYPE=INFRARED SPECTRUM
##CLASS=IUPAC A
##ORIGIN=NIST, Analytical Chemistry Division, 301-975-3108
##OWNER=COPYRIGHT (C) 2000 by the U.S. Secretary of Commerce
##DATE=00/02/01
##$SPECTRA VERSION=1.10
##$UNCERTAINTY IN Y=2.2 % relative (B=1.3E-04,C=6.1E-07,D=3.6E-09)
##CAS NAME=Carbon tetrafluoride
##CAS REGISTRY NO=75-73-0
##MOLFORM=C F4
##MP=-150 C
##BP=-129 C
##$NIST SOURCE=QUANT-IR
##SPECTROMETER/DATA SYSTEM=IFS66V (Bruker)
##INSTRUMENT PARAMETERS=KBr Beam Splitter; MCT Detector; Multipass cell
##STATE=gas
##SAMPLE DESCRIPTION=Carbon Tetrafluoride Primary Gas Standard
##PRESSURE=101.3 Pa
##TEMPERATURE=23 C
##SAMPLING PROCEDURE=1 L/min Flow
##RESOLUTION=1.9290
##DATA PROCESSING=NB Strong Apodization
##XUNITS=cm-1
##YUNITS=(micromol/mol)-1m-1 (base 10)
##XFACTOR=1.0
##YFACTOR=2.9103E-11
##DELTAX=0.9645
##FIRSTX=575.65
##LASTX=3974.592
##FIRSTY=-.0000584
##MAXX=3973.63
##MINX=575.65
##MAXY=.027265
##MINY=-.0001934
##NPOINTS=3526
##XYDATA=(X++(Y..Y))
575.65-2007101-1171746-1755507-1932766-3601390-3919163
580.47-2775631-697511-283520 369316 1204397 278108
586.26-1406454-2021263-1443479-1299493-1338616-677768
592.04-1198583-1210659-1305187-1679595-2032350-1380013
597.83-1291677-683603-771488-571228-1204510-721787
603.61-530505-338110-82732-479809-616464-281927
609.40-591853-240210-464081-368880-276803-75889
615.18-539130-806832-886269-205812-706169-822267
620.97-922071-989816-1694965-1426506-1475000-1189243
626.75-1216756-598460 765485 7904872 9116550 1003281
632.54-1610223-1561107-1320698-1063367-806963-659767
638.33-980457-1050442-676008-116838-258364-229058
644.11-264508 25834-61677 501706 483599 163992
649.90-279004-150310-7861-21601-278250-79607
655.68 65218-63814-782663-1146422-1248990-994348
661.47-1260675-900062-865795-767113-1074246-1225005
667.25-1131586-969063-1047168-1043162-1417829-1478268
673.04-1519850-1376860-1567771-1472806-1508874-1199788
678.82-1177648-1249700-1537069-1427905-1609452-1543397
684.61-1364626-1403395-1589123-1615445-1402375-1145764
690.39-1483803-1203715-1203007-1275686-1426399-1305727
696.18-1303876-1110918-1274783-988186-1246086-1116727
701.97-1282956-1251812-902951-553811-974624-1276563
707.75-1330116-842173-1171365-1167295-1336992-1051143
713.54-889675-725738-915314-974604-1349663-1275431
719.32-1059702-834354-886036-652719-857149-848944
725.11-991522-940929-1084966-892360-971451-1059763
730.89-1136289-939904-956884-676464-832747-907805
736.68-991592-723106-1036859-863259-906304-822682
742.46-1044767-929128-909972-1051485-1252799-1016438
748.25-1021954-850582-1147403-1187106-1135895-911458
754.03-865408-588247-892704-859549-1121981-1121779
759.82-1134431-847509-965990-1154184-1414875-992046
765.61-1025611-973695-1147911-969365-1278590-1200614
771.39-1170747-978316-1004273-957307-1271181-1124134
777.18-1207185-1195680-1345019-1237180-1329151-1172610
782.96-1307154-1253488-1371363-1218862-1354224-1261720
788.75-1476749-1220621-1279524-953547-1113273-1058229
794.53-1229231-1178338-1524428-1258000-1264168-1052990
800.32-1265770-1165271-1033790-993489-1487919-1375528
806.10-1166938-1081433-1312179-1118135-1392842-1235648
811.89-1274164-741925-1131004-1438118-1365555-1142531
817.67-1270420-988275-1377604-1189869-1019911-950607
823.46-1111770-856967-1095669-1130443-1489958-1382632
829.24-1471938-1215402-1164495-840797-1370515-1457772
835.03-1284956-1079465-1180057-983089-1458395-1460433
840.82-1573039-1194447-1360417-1095652-1327965-1224367
846.60-1259191-782049-1002103-1049366-1227559-1069309
852.39-1148388-1123998-1381564-1041843-1172273-1154543
858.17-1202208-737241-848906-813494-1247029-1107638
863.96-1084974-770154-1173035-914839-895015-933874
869.74-1166185-1135631-1385902-1234024-1349864-923699
875.53-913431-736574-968309-852894-1101745-946193
881.31-1135696-940204-1160594-922787-1051954-1038224
887.10-1323130-1066980-1196623-925845-1071141-973711
892.88-1292222-1062053-955949-852971-1370288-1348856
898.67-1455403-1089623-1178360-1148922-1447253-1129411
904.46-1439315-1224253-1246000-1030538-1112265-893457
910.24-1006101-945306-1297678-1107572-1213242-1124569
916.03-1416552-1082551-1123756-1085174-1250277-1070543
921.81-1249802-973808-1026307-859043-1070502-963309
927.60-1159171-998747-1208822-997077-1146059-888104
933.38-1009346-894177-1276219-1039077-1110392-1047410
939.17-1377638-1077302-1238698-988303-1045379-836038
944.95-1125493-959120-1112628-873346-1227506-998641
950.74-1201276-1037610-1115642-837347-1076037-959021
956.52-1360090-1041605-1105510-864639-1069149-802698
962.31-1081904-1015495-1147580-924464-1161110-1050695
968.10-1243916-820154-989930-935584-1258052-848345
973.88-1087152-1199200-1378796-1101008-1328986-1000628
979.67-1076994-819138-1068528-1000726-1487120-1235845
985.45-1286544-904468-1160227-933144-1169839-1045591
991.24-1228982-892869-1103465-1031221-1330163-1150133
997.02-1252686-769664-960724-815321-1257900-1009557
1002.81-1256375-1059868-1206397-974077-1249879-911725
1008.59-1146463-984984-1308906-1115370-1267348-977129
1014.38-1313449-1057300-1144419-868133-1232233-1012882
1020.16-1138622-793134-1188313-873213-1223367-1026271
1025.95-1112341-873688-1213850-905243-1131988-874831
1031.73-1080975-821327-1200915-994468-1118639-758389
1037.52-1111579-913869-1309696-1005131-1093818-734154
1043.31-1114444-987825-1245480-1037471-1426690-961698
1049.09-1044203-629076-912619-701144-957916-624011
1054.88-917264-697604-1186965-949432-1158118-691855
1060.66-870214-669460-1187950-855489-930027-590787
1066.45-1137968-941478-1127219-716460-1015328-733782
1072.23-1141315-700557-943799-677460-940320-732966
1078.02-1155950-994832-1437129-991828-1216588-807738
1083.80-1162900-853053-1230595-925794-1139742-779478
1089.59-1221640-966071-1304888-906000-1165651-675164
1095.37-1106003-947025-1403699-996866-1257656-870755
1101.16-1204627-717266-1032818-764790-1274950-797165
1106.95-1184049-934506-1366349-876616-1127600-828324
1112.73-1265246-734660-1064486-764948-1321999-1022738
1118.52-1360486-853573-1148466-714144-1162888-743116
1124.30-1115536-818040-1306295-828905-1277416-964109
1130.09-1347717-886373-1295336-846182-1311940-992718
1135.87-1321279-696741-1161208-840125-1363611-799961
1141.66-1168713-749927-1257154-778240-1302309-782059
1147.44-1207235-602338-1197471-794388-1232170-754857
1153.23-1284140-812382-1342979-814094-1306027-720245
1159.01-1226209-795121-1394173-767712-1263206-758186
1164.80-1335966-676291-1337763-820291-1194813-690404
1170.59-1334940-733476-1303857-556841-1081004-664705
1176.37-1389186-691952-1181886-532102-1166125-638814
1182.16-1382127-687683-1173194-515053-1297342-652398
1187.94-1270312-602056-1436602-667120-1329046-635132
1193.73-1328736-623952-1343711-638257-1469616-618255
1199.51-1316624-641482-1467836-579256-1361644-589404
1205.30-1417480-621773-1420508-549393-1475044-394743
1211.08-1215525-410617-1414521-512428-1445333-492519
1216.87-1439045-507420-1623806-580870-1504608-423155
1222.65-1299703-164017-1331750-364574-1489229-299819
1228.44-1392787-81918-989653 521974-303550 1408434
1234.23 817001 3012802 2813083 5053479 5064006 7484811
1240.01 7921865 8279291 6356431 8007294 1847597 2471168
1245.80 972328 3502667 2357179 5284048 4095999 7306261
1251.58 6682924 10967214 11567872 17616998 18668760 22436247
1257.37 18325989 17507320 15835239 23679153 21690440 31013514
1263.15 34991229 43023926 39597515 40081373 32093802 37926871
1268.94 37560016 47878986 50300719 71984349 88499808 130459325
1274.72 171077132 249624475 325931824 435733640 527605249 672299973
1280.51 670510282 873606358 936823735 561557696 473786949 301254523
1286.29 136509512 47670116 29009350 9551356 11045652 1286341
1292.08 5469829-1215013 3287848-1890768 2229420-2069077
1297.86 1697439-2207034 1150208-2338887 712385-2306857
1303.65 602985-2164355 403706-2193337 230342-2108356
1309.44 249652-1891629 207052-1760284 221104-1816485
1315.22 1319-1837045-90798-1759663-76357-1797618
1321.01-205560-1658727-214600-1663253-195093-1533843
1326.79-180807-1649574-327402-1533779-282920-1528261
1332.58-299524-1499314-347060-1502517-352272-1418488
1338.36-306973-1483696-403956-1294553-130544-1208717
1344.15-422476-1495217-627307-1503131-474547-1578470
1349.93-867133-1810000-902884-1503444-232942-597574
1355.72 315958-909648-365446-1261507-625140-1467622
1361.50-733526-1476769-672290-1394647-690224-1308978
1367.29-452014-1201207-563551-1348855-644859-1235436
1373.08-597571-1239947-495045-1247778-641521-1291930
1378.86-727156-1338273-814384-1403736-657866-1113754
1384.65-486262-1059933-565813-1335558-778569-1337554
1390.43-749092-1248547-611211-992214-560460-1191168
1396.22-871970-1367235-575546-1236295-899184-1390417
1402.00-802435-1160609-606010-1148684-735022-1211751
1407.79-743019-1247985-771718-1149285-645228-1109197
1413.57-795189-1236469-731962-1053835-444508-668790
1419.36-576784-1249293-831500-1283164-776389-1122725
1425.14-693481-1171894-785208-1129625-702919-1238508
1430.93-858689-1132995-754224-1200870-583600-578975
1436.72-541501-1345393-890045-1162732-836634-1251558
1442.50-844628-1229391-909406-1138388-658524-1100617
1448.29-973177-1324451-866630-1216670-903510-1131702
1454.07-619287-442566 222962-618018-615540-1074904
1459.86-824769-1146879-829529-1076708-540105-950965
1465.64-825040-1040907-678130-1084312-720767-750128
1471.43-319187-730997-609842-1002898-578628-914911
1477.21-725431-1053530-752376-1026353-807863-1166100
1483.00-840573-1074253-719697-909904-650615-1008905
1488.78-581120-751778-682817-1121984-763483-942866
1494.57-367120-465032-506812-689020-574965-1073580
1500.36-709657-930125-638890-751453 51793 216673
1506.14 387643-338375-246762-467366-243600-393523
1511.93-123844-384061-94653-208278 162936-27966
1517.71 73335-65524 632607 596243 420997-84748
1523.50 87098 500 89207-218684-143993-450349
1529.28-334117-566759-461254-598873-359706-570412
1535.07-228187 145129 2457422 5866238 4232286 269544
1540.85-56878-491739-481783-618084-340210-815098
1546.64-581989-646014-147678-347937-239151-431348
1552.42-8501 62192 37338-298593 422556 766543
1558.21 824869 432569 67811-588969-436231-593635
1563.99-372262-660955-636056-869865-437701-452012
1569.78-477341-859969-771151-974812-737122-405046
1575.57-4993-815985-841598-1080600-881421-1071068
1581.35-892285-1131143-954740-1145057-894875-1112395
1587.14-931717-1061594-965259-1181741-888154-994422
1592.92-849899-1147398-970161-1058838-910028-1061712
1598.71-862521-1028176-880740-1131587-925369-1067545
1604.49-881830-985306-777037-1003972-934842-1142505
1610.28-915164-984325-845987-1009269-745367-461699
1616.06-92443-741562-884659-1153122-952912-1087718
1621.85-670647-680061-800955-1119841-867596-908647
1627.63-792318-999555-814046-999026-879439-974659
1633.42-585602-315546-400181-889527-813669-1027792
1639.21-818736-1026541-838514-950644-782666-748286
1644.99-327479-705918-589934-820397-861536-966729
1650.78-224358 515598 431463-510704-791405-1096316
1656.56-1007872-1128549-841586-874422-683253-790788
1662.35-673937-962656-824620-954992-810082-814019
1668.13-493686-821269-765273-841298-862024-948282
1673.92-416232-662278-836347-948862-782535-880749
1679.70-805212-1001740-632748-335944 365768-155265
1685.49-746413-955259-750402-829949-727444-971063
1691.27-882198-908247-586775-48167 325010-598387
1697.06-745532-472553 325436 3345-476001-822294
1702.85-645025-778795-720549-670023-636970-842493
1708.63-710316-892625-880695-966458-790190-706167
1714.42-294746-407037-133167-332251-603382-958524
1720.20-893791-972781-830494-975899-795812-836286
1725.99-761814-904508-746519-843001-807318-1016221
1731.77-584828-250077-170427-753308-840240-935778
1737.56-820578-718024-696834-1047570-896302-933102
1743.34-850405-1013526-840461-860231-747394-893101
1749.13-732915-596646-562146-967015-925338-1052596
1754.91-983312-1012296-950200-1095222-890872-975151
1760.70-750646-999099-1088349-1158075-937449-1031503
1766.48-846311-807918-808384-886575-577186-489421
1772.27-557101-1009082-864129-1035614-953508-1024473
1778.06-868288-917147-828040-993147-950243-988609
1783.84-733769-876682-803227-907583-853408-969152
1789.63-758878-720612-459955-713377-876662-989215
1795.41-850968-990529-889994-905737-836738-964769
1801.20-833171-1042940-978532-983651-897990-932065
1806.98-769314-935735-921136-996421-806083-852077
1812.77-825707-1023975-889760-910301-916411-1069474
1818.55-969960-1054263-915370-1064313-1028382-916215
1824.34-739348-1014035-1034858-1039809-727394-729847
1830.12-828494-1019527-888027-953033-862122-938389
1835.91-844831-946970-952797-1067150-948015-1037145
1841.70-899624-625411-474405-925903-1012955-1070152
1847.48-981136-1093595-1081680-1092540-966774-1050172
1853.27-958427-1086733-1046848-1100732-1027081-1130288
1859.05-1066577-1145938-1000018-998350-842674-950301
1864.84-970782-1068409-883028-909175-732584-876847
1870.62-900043-1017769-1000298-1064180-978046-1047374
1876.41-945205-988139-876276-943404-926425-1060706
1882.19-958516-1059605-926554-954765-910589-902824
1887.98-766064-848991-947618-1050422-907150-932909
1893.76-833333-900026-803381-861559-859713-973008
1899.55-829127-776245-739321-913624-801544-813633
1905.34-699401-819909-823451-910225-773255-809387
1911.12-672696-761178-776875-866551-747339-772676
1916.91-570558-629567-687385-811996-667845-717112
1922.69-732029-815922-774624-930798-855128-907189
1928.48-768746-796108-740547-913227-818852-813285
1934.26-792116-895960-880134-1017521-879344-839981
1940.05-744789-851748-853239-965122-890999-959843
1945.83-831673-809617-826550-1017116-941455-954738
1951.62-898740-937241-900342-984883-913140-992787
1957.40-869946-864221-842280-960752-959638-984347
1963.19-860954-938033-839045-790545-789306-970573
1968.98-987858-995775-888104-1026032-935580-950328
1974.76-933305-998889-915045-992673-893192-941788
1980.55-860828-909094-938690-1035337-941433-968702
1986.33-928409-970276-883680-975390-900218-991699
1992.12-990909-1072466-977117-991962-874997-1016414
1997.90-936549-926332-800531-897744-989343-1085345
2003.69-985389-1003023-928773-983309-930892-1025744
2009.47-927988-1005841-1043050-1090171-1026901-1023886
2015.26-875608-945030-955762-1045767-1018897-1045773
2021.04-941412-1038511-1025600-1127287-1096776-1182942
2026.83-1055054-1018145-966955-1021022-1024824-1124498
2032.61-1068491-1121896-950631-960388-950236-1027042
2038.40-1003380-1113401-1038625-1042841-994858-1055485
2044.19-1041951-1062165-974178-1123685-1112587-1046335
2049.97-906510-1019031-1027513-1131525-1104003-1095088
2055.76-988629-999860-975260-1043880-957137-1004472
2061.54-1021136-1096105-1027018-1071599-1027057-1036935
2067.33-956092-1020656-939629-979698-975728-1024456
2073.11-871783-993775-1092261-1097219-887215-971336
2078.90-999399-1009837-901841-985934-942471-1006754
2084.68-987223-968145-921630-1013839-993817-1040725
2090.47-952588-914913-858439-1006013-991154-1025743
2096.25-919845-983434-1009822-1040871-1033624-1085660
2102.04-915755-994746-949964-1030447-1039029-1001963
2107.83-956541-1038994-955681-945432-935820-952974
2113.61-884915-1015755-960523-989211-902666-970152
2119.40-996012-1064247-990667-1050994-982666-953181
2125.18-896917-1020061-973229-972457-869772-937543
2130.97-900198-963647-882829-849165-893406-1003976
2136.75-891073-933700-861811-892688-829286-868072
2142.54-762390-713361-732731-823489-818027-894475
2148.32-867657-997858-872024-863482-874226-976637
2154.11-965967-886478-803747-867179-874277-969670
2159.89-891833-974503-923035-801778-680459-768807
2165.68-816118-915569-884897-904494-763365-675957
2171.47-558233-558178-475897-523140-351881-121005
2177.25 124671 308150 695989 1012676 1451184 1770977
2183.04 2063421 2450623 3418790 2100365 1210215 818232
2188.82-77419-620739-732277-926395-1095758-1050633
2194.61-946173-946581-877092-945816-992064-1053209
2200.39-969808-905551-961224-1040268-1002450-1008537
2206.18-964942-943591-867318-930306-1030625-1102725
2211.96-1042890-1014632-958051-969450-833006-871647
2217.75-833711-759978-793902-939665-909059-912167
2223.53-915569-949182-888064-920445-902771-948048
2229.32-924265-937558-957845-1024072-1016438-962950
2235.11-934445-940195-892347-961047-934963-948659
2240.89-928644-1021242-1020593-984192-873119-849044
2246.68-917323-1067848-997499-862920-849580-1007522
2252.46-1002804-966083-974426-1057119-959717-945821
2258.25-854069-935662-1038124-1070566-906493-902241
2264.03-898282-942844-917629-951482-1040828-1074329
2269.82-958605-917199-819484-884276-958815-1000868
2275.60-934125-983120-911303-932628-968021-953024
2281.39-895259-1014206-987423-882703-819465-900052
2287.17-881222-902745-845763-948960-898357-876714
2292.96-774792-811582-911983-1010907-929440-847217
2298.74-881051-935421-891626-883143-915663-895428
2304.53-856854-848796-832855-924176-966853-891540
2310.32-775750-803500-738179-847211-783299-724323
2316.10-663216-761848-701210-725776-714169-806370
2321.89-722704-708546-574667-607608-550193-612609
2327.67-508502-588943-554630-594608-559508-559674
2333.46-497742-455657-364604-471018-583779-613149
2339.24-528356-576256-565093-664243-621635-596967
2345.03-646672-831831-916394-891655-832097-791066
2350.81-680998-677017-641535-602364-471520-458453
2356.60-372954-311284-328545-390482-388190-435904
2362.38-389464-347469-326254-317804-406280-510855
2368.17-579660-697494-650317-664702-687934-789918
2373.96-710743-838429-912246-865689-784674-798758
2379.74-789339-916970-963929-983054-928737-965445
2385.53-1015999-984476-906535-1012521-1032823-967474
2391.31-850088-932494-925790-880366-886189-902196
2397.10-821682-854768-824939-828203-800167-896367
2402.88-1054747-1065151-995374-938783-767094-755667
2408.67-788601-815831-794281-842115-918292-980735
2414.45-966042-938916-845796-896783-865323-910514
2420.24-906174-937154-876337-893090-801117-795737
2426.02-873005-842279-747208-809170-894916-956015
2431.81-910166-975504-931001-850788-797255-845494
2437.60-924851-955875-926333-971978-959380-1002950
2443.38-894316-866150-832635-890728-899091-834189
2449.17-759180-795379-843604-902658-866016-919668
2454.95-931551-922893-845064-867397-924184-1034074
2460.74-955327-842569-731623-813946-861410-909967
2466.52-925474-961818-876220-910224-914723-940481
2472.31-1025446-1038846-941615-884571-847984-944937
2478.09-1025845-1011904-890214-900054-927917-919548
2483.88-955365-1008978-1022438-897348-805831-924953
2489.66-983820-991387-1000652-953365-840400-833727
2495.45-803176-841907-966397-1030033-949486-862830
2501.24-823685-832648-896489-870882-771551-819972
2507.02-835371-835498-915691-945813-884621-848107
2512.81-822639-894248-840785-855465-861732-894133
2518.59-874495-930278-996626-911781-788879-691018
2524.38-654281-867025-932887-880149-896541-904634
2530.16-828413-812732-807986-805335-799376-722385
2535.95-593206-669591-712330-763829-799958-848634
2541.73-831725-912567-899965-852098-880125-1084201
2547.52-1100976-1182929-1465866-1819204-1846989-1964296
2553.30-2267432-2571633-2890672-3279350-3358398-3572845
2559.09-4032165-4435681-4058450-3357016-3674457-5689289
2564.87-6647571-3440389-2311291-3882736-4439662-3805210
2570.66-2860042-1861309-1123829-955618-1013773-914512
2576.45-760837-572446-563781-641464-629079-615666
2582.23-699376-640450-513133-519946-591400-651601
2588.02-698376-696001-565631-546736-526369-538665
2593.80-560792-712673-766194-631874-586839-661783
2599.59-669029-688485-626316-538823-474622-548458
2605.37-679578-711476-755249-880774-857010-757944
2611.16-749643-848203-756717-737396-835421-860632
2616.94-944262-1032666-901301-795491-814028-864308
2622.73-829160-822676-827605-925366-935956-1018834
2628.51-961083-821812-840438-960989-965382-938864
2634.30-967400-990167-1025802-1053621-1029984-882356
2640.09-676861-636840-774630-992990-1115980-1181746
2645.87-1067164-954261-866108-750507-837738-957394
2651.66-935525-939977-886041-777447-769011-855968
2657.44-941241-920030-942583-912286-900269-932810
2663.23-959873-941415-892743-907545-874112-876612
2669.01-862281-863443-803418-737977-853272-880592
2674.80-883957-921515-914087-956599-903832-935654
2680.58-979406-909507-807879-800065-790394-894650
2686.37-972906-920007-851457-823383-930696-1006672
2692.15-937083-903867-802720-806850-982287-1012865
2697.94-998169-911259-857098-916555-916113-925532
2703.73-936928-811100-718457-548738-537207-611713
2709.51-735324-861096-854062-867307-877330-984013
2715.30-1050265-852876-740135-757646-737691-813233
2721.08-941139-945805-814622-684758-779970-877786
2726.87-812725-815431-815293-762325-773412-807543
2732.65-864491-857057-805580-826195-875871-782898
2738.44-815855-840272-838900-903883-903706-918101
2744.22-888206-741567-703952-771109-872969-918290
2750.01-970277-968806-808002-648143-682753-798511
2755.79-853371-904125-946058-887245-907769-922618
2761.58-761726-648919-668641-762048-893758-941204
2767.36-936135-918944-851995-830194-889458-969040
2773.15-972069-855602-816131-724632-743763-964233
2778.94-883026-853719-869740-889831-944958-900638
2784.72-909910-816155-871316-889169-811626-921377
2790.51-994964-988771-943395-891122-945041-870330
2796.29-831000-877154-926597-799484-794850-873134
2802.08-937133-910516-853938-820939-843898-909427
2807.86-939172-802834-747975-840142-783413-820157
2813.65-924572-915587-888155-806243-776482-855319
2819.43-906696-860389-845297-895263-907307-899218
2825.22-897703-838008-835096-867630-846546-838283
2831.00-914816-865531-851253-921346-783073-730814
2836.79-966392-851484-638953-558951-536343-683873
2842.58-753984-822318-860176-813128-746843-738220
2848.36-792646-829927-782334-794585-748851-779473
2854.15-854624-779548-731372-749829-725814-686778
2859.93-802770-790926-747913-737772-642036-722855
2865.72-903972-927328-779251-751837-814592-839665
2871.50-966526-833827-711310-782368-912661-898119
2877.29-864754-784380-774485-767456-718495-737507
2883.07-797476-790327-752037-737046-767554-808772
2888.86-758741-625804-726019-865413-819566-660385
2894.64-671854-574470-711807-858661-703464-712909
2900.43-831508-849997-651575-697711-860954-813291
2906.22-731929-446477-387030-563132-726230-914121
2912.00-932337-840658-828997-686472-655751-777827
2917.79-826656-860731-782241-703648-751664-827280
2923.57-895574-862933-870239-805079-862345-953889
2929.36-727132-727355-997279-1007813-926888-796412
2935.14-796561-796319-920619-955654-862223-667293
2940.93-690128-833163-979463-986352-886810-775728
2946.71-812636-910640-1001092-767414-668475-654269
2952.50-795306-917252-839398-705115-645455-676837
2958.28-897767-1036729-987842-788137-708070-813674
2964.07-927997-769196-763005-913668-1005235-999954
2969.86-896934-740866-798295-822256-798054-782371
2975.64-837466-866521-939365-961528-880573-864994
2981.43-796333-780649-889902-891741-774865-710722
2987.21-752156-951965-997471-873775-809514-806191
2993.00-911460-830874-709130-661605-664497-594255
2998.78-754519-867005-757674-753606-805450-764069
3004.57-794073-792825-865350-853466-787767-820305
3010.35-963689-939750-930082-852379-858256-942885
3016.14-1026579-910162-814861-784990-719861-743941
3021.92-763784-646834-708577-785249-912861-1002142
3027.71-984005-884346-907740-874952-770832-822312
3033.49-885916-811408-900782-918233-817996-850386
3039.28-917280-871851-980950-940022-881953-828228
3045.07-943740-1015331-880964-798301-934970-788508
3050.85-778970-821295-734963-751324-782065-820853
3056.64-743699-810806-860426-818610-951064-923084
3062.42-1036248-997106-766286-614703-719086-849199
3068.21-775908-658529-724521-798031-792144-705496
3073.99-758954-870739-959424-883725-791128-760474
3079.78-816607-835172-702329-593664-715232-823510
3085.56-804779-737037-609242-620087-710272-738335
3091.35-782830-705539-806173-738893-692344-742555
3097.13-755199-787477-742793-693980-752901-736143
3102.92-740779-857223-860531-814999-721877-752096
3108.71-922109-836485-648674-808028-959350-944882
3114.49-960537-843939-643578-583527-720657-688134
3120.28-658607-820833-769791-713779-783991-714290
3126.06-608056-629257-660286-635634-729066-806549
3131.85-682885-423604-476110-706093-979143-840712
3137.63-725844-779882-758827-665455-524066-613275
3143.42-884064-899043-851094-652945-808170-884558
3149.20-943796-923772-885169-881186-794152-787225
3154.99-844680-746709-685327-696813-733445-721783
3160.77-803390-855701-833291-674152-940690-963140
3166.56-923049-977163-813264-653587-653245-790886
3172.35-943495-813616-885841-809548-745415-605022
3178.13-692995-776898-898088-776748-650922-781939
3183.92-1018992-909744-819120-842753-771040-662633
3189.70-709621-740066-811223-850356-883998-728589
3195.49-623383-737948-829994-827492-843052-737045
3201.27-581276-643671-782252-750736-901159-1003532
3207.06-992760-950405-955518-989804-969413-791890
3212.84-675770-692164-790716-898367-751213-706225
3218.63-635672-581942-688302-633517-745278-854889
3224.41-824507-908534-891417-878161-926753-757017
3230.20-722759-798277-841640-725501-731209-778250
3235.99-664002-633680-725651-917329-1034260-872748
3241.77-926310-822322-675859-668537-794637-769732
3247.56-769194-751726-814445-797403-819539-711017
3253.34-632523-765584-884258-876868-603663-688953
3259.13-977537-808448-730085-469392-596703-742607
3264.91-749329-751168-849296-681894-642597-836969
3270.70-950882-804974-724887-632829-632223-574692
3276.48-634394-767933-908650-777324-776988-735839
3282.27-616672-705320-774264-608439-601591-775461
3288.05-684586-657960-727336-740483-816636-763224
3293.84-829607-819219-781573-655481-693308-847137
3299.62-807564-710604-668665-830763-1002354-881949
3305.41-684122-561340-696007-666947-722079-892268
3311.20-1037295-872589-612594-492001-672526-809509
3316.98-842063-731229-835850-766031-868301-826920
3322.77-780675-844484-994482-883357-1098851-1020930
3328.55-881147-778338-751727-770592-955660-874467
3334.34-800545-691108-777045-962198-978982-869645
3340.12-833320-769200-759747-706302-857202-979821
3345.91-1035039-852450-796381-1055925-964621-660828
3351.69-631647-755088-848197-805680-709752-749492
3357.48-760125-634483-697003-809162-798243-667133
3363.26-948517-905453-876074-865428-855710-825698
3369.05-690545-506763-633897-725286-735842-575558
3374.84-668114-809131-847938-797375-976658-889908
3380.62-648423-409537-333382-357051-766133-872956
3386.41-562771-563719-696576-656901-742374-850332
3392.19-729346-711147-888387-801071-678581-664330
3397.98-827975-677767-587637-631081-800546-692259
3403.76-686030-727925-839596-804403-689662-606260
3409.55-513303-498628-652028-784737-626447-419772
3415.33-631386-557354-665900-845909-646769-337842
3421.12-582875-639186-551393-645047-911510-736506
3426.90-559991-598160-652140-707821-796247-699527
3432.69-661648-591538-531327-373849-479810-539297
3438.48-354926-371536-517655-717990-642666-406134
3444.26-477362-428422-624051-541622-502339-438696
3450.05-636126-903371-697153-339847-394773-594730
3455.83-816068-752257-791548-746061-589523-574688
3461.62-597035-322796-255655-408337-621205-609547
3467.40-563346-639562-782877-854566-820683-830782
3473.19-704621-690229-701057-322126-306473-560848
3478.97-868875-716902-715380-783851-696136-549586
3484.76-737807-812071-580678-359772-574300-690190
3490.54-737744-557054-505688-539908-657719-494431
3496.33-550459-635437-602636-428331-448155-535466
3502.11-724376-587128-652591-884317-950484-740208
3507.90-763055-770259-632058-704116-809043-834701
3513.69-699331-691724-911853-774017-670710-756846
3519.47-871385-697799-524990-597606-596660-522047
3525.26-699724-774835-806673-833664-846700-687357
3531.04-705240-695227-709603-464945-598223-752543
3536.83-798139-651853-580254-622558-845989-810547
3542.61-733565-631236-715657-659548-622858-592049
3548.40-751543-704507-649031-665535-843125-809578
3554.18-781023-761977-626934-630390-912261-791525
3559.97-535441-474643-762509-782446-778544-601302
3565.75-522803-287338-475876-583210-796384-942856
3571.54-846023-686863-669707-609002-528511-574704
3577.33-801646-716262-750542-890599-890868-646928
3583.11-586488-491042-494982-733350-745266-631237
3588.90-797938-588969-704016-609553-596588-814074
3594.68-995424-1009988-1076535-683908-583875-601129
3600.47-562030-571946-708018-722241-779692-802958
3606.25-832603-653263-432330-354144-567166-498227
3612.04-561255-556341-567166-660272-660442-478497
3617.82-572293-342877-487873-590900-580400-573716
3623.61-613061-508291-401290 76310 305878 153638
3629.39-407119-588478-578189-370767-420773-527845
3635.18-696837-740549-570824-386574-437105-511188
3640.97-608081-515910-616858-644919-655706-442756
3646.75-254486 159184 150097-205281-464122-503940
3652.54-627935-596001-356241-146057-475531-636897
3658.32-695414-511130-577176-614891-519774-489919
3664.11-411291-562586-688059-470012-231782-87290
3669.89-7789-337936-650506-537803-95642 233592
3675.68-93426-419055-316116-458100-602844-606106
3681.46-544392-435837-616933-698726-644851-146002
3687.25 384641 91748-346059-254239-461704-457979
3693.03-485449-655558-645918-563471-632754-524739
3698.82-381037-333342-364792-435898-528935-498813
3704.61-730487-754240-740920-589581-357970-404551
3710.39-387122-68025-397189-787892-805727-673692
3716.18-721388-750879-840718-630188-545660-599603
3721.96-560538-429866-538097-569657-478620-475350
3727.75-579019-511776-569795-495020-498281-632823
3733.53-544647-440227-227254-242681-431992-529401
3739.32-571080-380275-461799-425521 303899 434261
3745.10-428595-594192-587125 178429 208141-248921
3750.89 145403 145778-417102-601687-737692-558037
3756.67-710415-695465-441458-398741-772081-708991
3762.46-712469-621763-739987-713738-553073-465983
3768.24-549717-495695-590852-627699-693601-468500
3774.03-327961-497602-694149-581909-444260-395154
3779.82-542988-577251-504494-460370-619702-658122
3785.60-591394-581412-746905-608083-488097-386112
3791.39-490934-453114-748843-690070-551906-629073
3797.17-666603-497161-293250 408219 80937-477451
3802.96-564684-472723-598582-369635-392867-524735
3808.74-676460-621013-528222-451787-538883-424865
3814.53-17216 73241-373271-488555-587258-349345
3820.31-246261-268466-436140-459177-581144-430253
3826.10-597028-633836-650590-784823-828692-696477
3831.88-974693-835362-519795-596530-730788-291532
3837.67-402574-524478-552377-833813-1285183-1213591
3843.46-877990-825632-840481-1129526-979127-1889233
3849.24-1722703-449621-397094-33820 523104-274825
3855.03-956901-810917-1070881-1070687-1045086-910247
3860.81-910138-615694-458511-250931-366852-551274
3866.60-613683-513948-267839-130403-503978-619776
3872.38-519518-314503-551573-622289-723354-642866
3878.17-601649-430615-563762-810518-1022190-777200
3883.95-451595-125008-349280-397522-635848-557756
3889.74-223171-140243-569244-464357-600271-674648
3895.52-787304-637600-638614-422255-471722-332510
3901.31-273974-76353-56876-323644-517948-442160
3907.10-536630-579544-505007-624118-647487-437275
3912.88-451481-338806-394244-276054-365823-805403
3918.67-839692-556984-618471-651931-497566-278644
3924.45-226436-117621-301727-255214-478384-666143
3930.24-1006681-875639-780394-685186-722563-628343
3936.02-497470-351189-498674-750119-1027593-732636
3941.81-441841-193908-229603-296853-545868-623699
3947.59-658235-567580-631075-605114-668343-715722
3953.38-733279-625526-545022-365377-529981-481294
3959.16-659015-472019-402909-683409-937532-627581
3964.95-415182-283851-494554-422118-464572-693698
3970.74-751755-391345-531153-716254
##END=
