##TITLE=Carbon Tetrafluoride
##JCAMP-DX=4.24
##DATA TYPE=INFRARED SPECTRUM
##CLASS=IUPAC A
##ORIGIN=NIST, Analytical Chemistry Division, 301-975-3108
##OWNER=COPYRIGHT (C) 2000 by the U.S. Secretary of Commerce
##DATE=00/02/01
##$SPECTRA VERSION=1.10
##$UNCERTAINTY IN Y=2.2 % relative (B=1.3E-04,C=6.1E-07,D=3.6E-09)
##CAS NAME=Carbon tetrafluoride
##CAS REGISTRY NO=75-73-0
##MOLFORM=C F4
##MP=-150 C
##BP=-129 C
##$NIST SOURCE=QUANT-IR
##SPECTROMETER/DATA SYSTEM=IFS66V (Bruker)
##INSTRUMENT PARAMETERS=KBr Beam Splitter; MCT Detector; Multipass cell
##STATE=gas
##SAMPLE DESCRIPTION=Carbon Tetrafluoride Primary Gas Standard
##PRESSURE=101.3 Pa
##TEMPERATURE=23 C
##SAMPLING PROCEDURE=1 L/min Flow
##RESOLUTION=0.9640
##DATA PROCESSING=NB Strong Apodization
##XUNITS=cm-1
##YUNITS=(micromol/mol)-1m-1 (base 10)
##XFACTOR=1.0
##YFACTOR=5.8207E-11
##DELTAX=0.4820
##FIRSTX=575.168
##LASTX=3974.592
##FIRSTY=-.0000981
##MAXX=3974.11
##MINX=575.17
##MAXY=.042352
##MINY=-.0002513
##NPOINTS=7052
##XYDATA=(X++(Y..Y))
575.17-1686498-781971-586632-395252-597781-1210289
577.58-961908-328740-1336187-2103741-2236755-2103160
580.47-1852484-1671589-645704-122419-10596 251
583.36-238555-325142 696206 1196104 748254-86815
586.26-555585-429962-881791-1774179-1062557-75612
589.15-448004-897709-1022620-517511-447841-276570
592.04-132788-817232-757912-597832-634461-468954
594.93-605091-957787-1037068-1364040-697453-442030
597.83-797671-845597-411461-99352-428587-534091
600.72-239359-89945-352096-873316-726458-327758
603.61-115316-78710-309058-545779-86316 535076
606.51-31866-625551-541384-143229-28604-210465
609.40-210426-372080-272108-73427-23661-263264
612.29-268370-256784-268045 2984 63793-163470
615.18-96058-189288-274522-526298-674734-498709
618.08-71277-110606-38567-256310-571887-649797
620.97-280090-374093-408272-488473-676499-921826
623.86-925992-752816-607861-732939-583148-767350
626.75-636575-562184-343347-493354-276895-59338
629.65 510909 3086071 9328830 6691105 677215-665251
632.54-899970-782337-864759-731653-740882-738312
635.43-591658-369903-605217-487131-183059-203847
638.33-439506-605200-485373-494854-723543-370705
641.22 32066 92212-172795-234855 40671-104806
644.11-361411-75033 59526-9779-44474-18673
647.00-73123 218426 619150 297896 30735 68929
649.90 35900-174086-255774-177644 81129 122625
652.79-57004 17179-113705-119636-169429-137617
655.68 66628 127520 108654-34281-149936-442305
658.57-507155-655861-690455-679336-464575-401229
661.47-561005-748010-650164-423035-292458-383052
664.36-528564-413279-268495-477632-685868-841107
667.25-530691-402230-599792-525317-426830-565304
670.15-463756-479325-651176-668964-760527-858002
673.04-711884-726375-764279-601883-759898-833938
675.93-691621-813289-789123-660857-738476-697133
678.82-485551-453558-629284-707897-653154-755181
681.72-814756-797663-592593-703281-993727-937919
684.61-591593-552037-634371-814488-823423-661284
687.50-718446-1031666-889882-621191-423308-530942
690.39-755305-789649-707394-655456-514263-482205
693.29-618307-720066-767599-638818-581160-794737
696.18-730396-556516-526785-589676-610073-697687
699.07-568694-442822-449412-648038-731826-597177
701.97-430001-547148-791531-780352-595985-330116
704.86-243085-300746-282368-429305-619269-714549
707.75-743161-795336-472335-241760-395715-742114
710.64-608862-570606-603565-672412-685504-598233
713.54-430754-340266-364762-484669-335838-367791
716.43-523429-524810-504205-674913-728536-808699
719.32-589570-356989-435412-505357-466894-353229
722.21-419031-363102-257152-405176-495054-506391
725.11-373546-478141-492651-521655-496710-509255
728.00-520133-546518-387073-346481-492155-721450
730.89-575832-462610-519788-523712-503205-439604
733.79-393107-392996-292601-328758-470518-538234
736.68-487743-565594-367502-263513-400178-618897
739.57-521905-465797-387460-352498-488903-483041
742.46-400061-400627-638441-651011-305709-253039
745.36-553847-621861-577266-657315-568299-523021
748.25-486302-503973-471435-398714-417945-577816
751.14-636353-673087-635375-517174-414896-502957
754.03-562633-407487-251013-264734-366869-447652
756.93-478010-450810-435105-532387-596301-640574
759.82-615981-501760-465999-503763-388623-396588
762.71-438585-667108-761718-743524-606852-486142
765.61-434510-468917-481885-571622-491379-594820
768.50-552726-442566-489423-629453-735836-683412
771.39-540729-500389-552443-583693-467660-429080
774.28-445537-511559-550787-639206-652964-635968
777.18-488940-529707-637977-648948-643382-644274
780.07-618452-663253-676168-651073-533717-673296
782.96-643016-557861-623865-694673-706592-658245
785.85-566382-648680-711139-651507-544314-659878
788.75-773623-738967-642028-642464-603009-674015
791.64-568624-447673-450315-556327-541940-577041
794.53-576399-598722-541925-594762-672751-806507
797.43-809241-602736-548885-651912-584685-544086
800.32-512053-572790-684023-727847-556477-387368
803.21-359854-563559-645794-682624-817712-884098
806.10-582836-456439-432373-584314-732118-692121
809.00-443550-588380-678221-674832-653867-663262
811.89-637882-692751-538971-341435-193508-439592
814.78-866003-934506-680484-582300-579712-582820
817.67-626598-723613-527224-383855-499811-773517
820.57-799908-638934-489295-444084-372797-532394
823.46-639575-556442-395745-436284-504693-488687
826.35-543605-596748-630345-795305-739153-680529
829.24-753920-753814-602858-637215-685896-592547
832.14-375596-368868-495628-623138-819959-962824
835.03-700933-452375-525773-583536-684027-609696
837.92-349620-473916-650860-730017-736174-778236
840.82-813360-819326-664021-520075-643311-741442
843.71-588406-545319-571148-622210-649955-732170
846.60-615466-600364-566884-415741-223992-443929
849.49-660916-604167-490221-576760-612903-627653
852.39-499576-525939-495481-604200-684295-747865
855.28-568617-568354-476779-515751-575521-671891
858.17-668000-604771-428217-388553-332636-389040
861.06-407028-396074-482557-680675-634515-597392
863.96-560502-547529-404157-344138-387730-630859
866.85-722549-508678-275645-356335-461809-553081
869.74-584516-497155-493113-674635-660641-681293
872.64-591702-661584-720739-664570-549486-524029
875.53-415710-388710-375473-425281-432665-451558
878.42-408734-491863-517758-485601-488934-596831
881.31-464451-521924-546178-528122-460999-526530
884.21-640971-512782-362718-504524-493627-581534
887.10-592414-698044-583705-563785-566224-517355
889.99-588123-568413-337267-503894-603942-449835
892.88-524092-666217-639789-671879-459282-350358
895.78-383370-464053-508527-690275-756407-744038
898.67-666053-742998-653108-567300-511170-535542
901.56-533560-615675-686491-758750-699421-489314
904.46-519504-765730-822731-636770-513896-566639
907.35-627018-585370-473393-518072-515688-512864
910.24-433196-475620-410610-523405-553572-680777
913.13-622652-577644-588694-563411-476043-660919
916.03-646260-693168-683660-621784-472269-419025
918.92-547017-684260-622198-524416-535484-633988
921.81-593137-563735-557580-594465-484782-394900
924.70-431891-566907-464456-422396-521840-576630
927.60-533226-520504-506592-570739-560488-576517
930.49-515312-568986-566590-488857-496464-566725
933.38-421476-429470-467266-466455-506073-677153
936.28-649783-539620-508104-525600-405742-601587
939.17-678290-673730-627629-573060-516825-600089
942.06-594857-546131-494556-505983-376893-442895
944.95-554560-514892-477712-569218-546039-537198
947.85-408931-466619-518512-597683-618616-555591
950.74-455978-561409-585727-611882-559961-495495
953.63-423195-485724-463332-526966-451914-478047
956.52-615404-687113-667424-575629-464728-507869
959.42-467625-524222-457790-462656-518198-485179
962.31-334214-467675-603921-627763-513983-509950
965.20-475494-564153-481198-543596-507584-591306
968.10-641069-621329-483122-452984-402461-407184
970.99-479720-507593-571317-676665-545458-458306
973.88-370401-413484-567167-783324-754092-559540
976.77-521460-692695-588921-625870-570720-618732
979.67-504060-415977-467770-506777-430386-489273
982.56-453802-548214-615720-755341-750722-672467
985.45-605861-631863-490817-522884-448706-517251
988.34-589346-570954-418628-492931-605573-641648
991.24-530249-576492-532214-556514-378102-484496
994.13-547685-598320-588204-632326-584096-643042
997.02-687698-617501-431076-419018-385866-470068
999.92-398595-406768-520177-675771-564422-580098
1002.81-492933-572724-595211-659694-540401-532136
1005.70-509152-524619-597879-613206-508369-533892
1008.59-459242-509977-525383-580265-559254-591447
1011.49-583967-709476-591976-557723-514300-554435
1014.38-555250-600683-623385-645295-555545-468408
1017.27-443641-513461-505580-581965-543866-638812
1020.16-542635-516172-447097-385158-451551-663517
1023.06-550451-440991-417596-580232-643071-641605
1025.95-495273-474512-414961-532159-524990-582681
1028.84-532207-521625-476970-515376-459370-576348
1031.74-483739-436617-463132-496430-438219-570212
1034.63-573595-599797-541070-528270-381292-416918
1037.52-460109-559383-450518-503540-575557-618566
1040.41-570979-651754-526481-423015-425157-455928
1043.31-419116-458408-514327-678624-562115-500463
1046.20-509844-634113-606484-696706-670343-549998
1049.09-411634-473431-456497-357277-287496-440613
1051.98-399346-431530-420598-455524-343668-368697
1054.88-387127-446553-309507-395946-487689-577393
1057.77-504542-605465-542887-497285-451636-472769
1060.66-332527-334776-329116-418593-456709-533964
1063.55-608573-546678-378695-437576-276537-324544
1066.45-435859-494272-581897-609772-489967-510044
1069.34-410969-451510-391113-479493-400379-420288
1072.23-446109-582674-507266-407333-329807-392300
1075.13-389080-520062-375867-332645-361664-519234
1078.02-470823-504748-449552-622886-627234-723079
1080.91-588584-569663-526118-564893-472245-490647
1083.80-443701-528538-499332-550392-450379-535880
1086.70-577229-589612-506442-488380-418438-474694
1089.59-465807-601787-485007-587082-621240-583308
1092.48-478086-586303-528103-537520-418884-391550
1095.37-406858-465858-468965-644838-557648-667187
1098.27-593895-605656-557823-552398-451103-568960
1101.16-537536-544060-431087-489929-393391-446409
1104.05-332960-536951-513341-589801-547333-511786
1106.95-381320-477246-570314-626349-479446-655634
1109.84-622365-543781-411991-484389-435126-517496
1112.73-552899-610400-470248-491197-360512-459577
1115.62-418449-504521-474695-596990-584124-694537
1118.52-537410-636705-525526-531774-514693-455792
1121.41-418859-501531-414151-518824-478018-506295
1124.30-435768-447459-386499-601150-538882-569198
1127.19-516593-561669-451361-515386-555814-673219
1130.09-585798-543091-496935-643615-506068-529178
1132.98-508901-618907-455629-527980-548622-712408
1135.87-609499-563446-435334-476637-416948-461176
1138.77-462893-596252-526535-627092-543368-533461
1141.66-445242-472405-410285-561801-466705-571354
1144.55-460616-516438-468203-631413-496667-495097
1147.44-479500-571594-408303-405187-343664-522008
1150.34-540416-585730-437898-510764-453553-550385
1153.23-472982-546886-488028-575094-485698-619025
1156.12-497867-546833-509257-588081-450522-524171
1159.01-453609-487286-427460-607017-516972-635564
1161.91-520345-540264-445775-524063-460321-555931
1164.80-486275-604645-512452-468370-328251-614220
1167.69-609468-642690-409801-460070-375813-524392
1170.59-520353-609005-427342-533858-494593-594999
1173.48-412197-493363-314868-349067-395897-572505
1176.37-455118-635912-522998-537444-369763-509169
1179.26-367798-443306-388362-481603-357971-497826
1182.16-519493-609103-443998-600326-450395-423715
1185.05-288299-489684-421892-540694-435862-573617
1187.94-436773-527086-356902-483971-478262-643789
1190.83-541332-532958-355087-598306-431779-550379
1193.73-446699-533465-402599-559747-471844-556845
1196.62-355525-558106-521267-626492-467716-585766
1199.51-378837-493881-403662-591806-509248-630830
1202.41-435163-530215-424749-519276-409273-601273
1205.30-447085-536593-428138-607569-480167-602345
1208.19-334045-503483-506055-686174-377725-457223
1211.08-294110-433454-306508-543213-389765-528560
1213.98-432700-599611-367819-564399-439457-551093
1216.87-380064-601232-366000-530431-473603-689120
1219.76-499293-634949-412634-553268-410444-607017
1222.65-349644-452202-242404-414692-260396-509722
1225.55-319673-550718-407940-611202-300040-504031
1228.44-373122-529489-237329-477083-212452-260242
1231.33-12113-167934 124272 61228 393055 227044
1234.23 634207 614599 1008726 1010804 1579935 1721285
1237.12 2146179 1870116 2470014 2983452 3607752 2834288
1240.01 3336366 4708612 6156784 3310403 1710825 2934728
1242.90 5889390 4685159 1744812 489678 736145 649683
1245.80 998727 800227 1205148 1104744 1570905 1516665
1248.69 2075980 2000394 2500063 2377258 2952364 2904910
1251.58 3579325 3710174 4484068 4631329 5675795 6107443
1254.47 7353746 7973115 9472602 10034689 10979187 10601019
1257.37 10790821 9893991 9528965 7614074 6591981 6645516
1260.26 11684723 12952917 10603787 10136725 12481861 14476561
1263.15 17257809 18533611 20237811 20591057 21686796 21023855
1266.05 20752662 18796049 17795719 16118999 16842895 17131659
1268.94 19166917 19724359 21784886 21997393 23910820 25311437
1271.83 29709671 33401883 39467818 44361381 52896352 61482175
1274.72 74105776 84934329 101021971 119988700 145289396 162665790
1277.62 185217498 219392596 246713619 253271172 280646724 354106725
1280.51 416786566 317313318 240138197 366207136 727610483 596165535
1283.40 238920139 210261028 262073349 273614586 217082478 148373959
1286.29 88140784 55498284 32994298 23400758 14653542 12091040
1289.19 7553350 7059126 3901558 4334079 2065451 2674746
1292.08 1080441 1790866 377914 1188691-11759 852150
1294.97-92766 622432-348207 411255-394371 365194
1297.87-402070 236649-477806 117345-596629 40088
1300.76-578867-68079-735785-140966-688601-131986
1303.65-691003-187206-576773-149271-712982-199493
1306.54-669139-274223-714295-250050-708020-279850
1309.44-655786-269348-577238-148937-639726-299362
1312.33-561296-153660-548649-194310-556978-283726
1315.22-633448-310909-611778-283301-662450-354809
1318.11-617588-280366-602495-305437-572027-357986
1321.01-706545-405271-552975-240712-611560-403080
1323.90-616494-298835-598168-338038-583145-279586
1326.79-502448-281495-606776-397865-617959-393406
1329.68-604714-284021-527263-373332-606490-317767
1332.58-548140-355369-564759-352900-530462-362596
1335.47-617105-355138-513538-392384-579778-311411
1338.36-494450-316462-529282-411247-610939-351190
1341.26-562742-292177-400063-245109-370732-199001
1344.15-532266-427952-564512-373163-633187-502430
1347.04-657228-445296-545700-327441-538878-498543
1349.93-736293-605886-740272-590201-793383-640972
1352.83-702071-467698-532763-257148-302516 19058
1355.72 11680 92179-215100-181631-496181-334379
1358.61-429288-360814-541458-451882-632835-450746
1361.50-608523-511177-633021-477544-627632-416301
1364.40-597830-434785-570397-484871-606270-458445
1367.29-427149-297788-491063-366088-491784-403095
1370.18-510582-457673-627296-420501-513901-378206
1373.08-487017-404143-572089-427635-459116-301294
1375.97-468115-414643-604835-426247-466568-432283
1378.86-584177-516515-542115-403995-608376-542130
1381.75-611814-518185-604580-403757-462738-373560
1384.65-437390-308191-451590-361061-419512-274470
1387.54-591203-537784-583787-473881-546905-490876
1390.43-613847-457927-521623-421535-571745-428418
1393.32-428122-220180-388018-451796-493001-344535
1396.22-541956-556594-692928-588927-531546-212301
1399.11-397257-539624-628450-504794-653812-525002
1402.00-609883-492938-514941-418254-484431-330660
1404.90-470048-426410-528319-443433-531356-461238
1407.79-518750-432626-532753-479351-573730-462232
1410.68-519214-412523-485300-396808-470366-348337
1413.57-511012-526568-566597-475158-503188-457258
1416.47-529956-329219-417166-385380-318457 14032
1419.36-238472-456505-605706-496905-522624-453444
1422.25-599830-540547-557898-416274-518123-445942
1425.14-455510-376216-526361-452260-539940-458165
1428.04-521993-466948-444069-357770-524538-522471
1430.93-596628-497881-551261-417922-436247-435555
1433.82-582805-464788-525807-476824-320005 99065
1436.72-185422-391212-588811-637439-635372-482220
1439.61-521547-423970-522309-488386-561775-512793
1442.50-579315-475279-500047-483509-609742-537307
1445.39-559837-455008-455039-366905-410068-415617
1448.29-555343-580586-668760-549415-570436-462090
1451.18-522173-488447-591870-529528-545375-446182
1454.07-497747-363747-384446-242551 140597 364807
1456.96-195472-312897-353120-375983-461778-431526
1459.86-494166-489735-563688-416785-513322-490712
1462.75-522383-477060-464945-225368-290878-405552
1465.64-510203-497305-548642-408640-399913-338438
1468.54-486264-480321-513511-413183-438676-304291
1471.43-149411-145692-404347-208620-288651-401677
1474.32-493638-429523-433570-287706-353406-367499
1477.21-445914-413788-498826-424143-461847-437446
1480.11-497665-368595-451182-472915-541583-494041
1483.00-540049-465462-494199-443662-496241-386958
1485.89-440032-378630-342706-332649-502350-459616
1488.78-432633-331245-350776-193323-318520-424076
1491.68-545205-496137-501371-418853-449194-377392
1494.57-430447-325732-34967 46393-350915-419057
1497.46-425465-160405-161137-350940-563277-492005
1500.36-461362-382377-408316-380680-433018-349340
1503.25-407266-334940-334164 3279 286435 104226
1506.14 161989 388354-51224-217451-231409-163767
1509.03-174994-121922-225680-192787-204083-71263
1511.93-127418-121877-138491-96483-200406-86367
1514.82-73788-37662-43128 41286 63551 108319
1517.71-12083-22154-109859 15871 73276 224493
1520.60 519142 519202 140972 177541 39972 12586
1523.50-78957-30199-11318 193885 31129-58007
1526.39-63466 10338-124494-95469-193462-158505
1529.28-192257-217658-285377-155809-258820-309259
1532.18-335115-221474-229675-144817-307007-241357
1535.07-264182-142555-144009 73247 264544 671375
1537.96 1701835 4309608 4512438 1628471 274272-118522
1540.85-279032 14172 30706-236043-315386-320805
1543.75-380792-210889-145610-175789-308228-386943
1546.64-434092-318675-330463-279437-241450-78405
1549.53-21864-90672-236300-157058-198218-135599
1552.42-181284-120175 26847 294810 59226-72825
1555.32-164109-145871-139850 191807 347984 608795
1558.21 571404 167558 221863 527833 210832-134493
1561.10-224042-267060-294132-253348-288833-223977
1563.99-244350-199292-266216-251098-326401-356193
1566.89-460265-409580-357157-270070-207699-33178
1569.78-197934-342833-382389-352578-415086-445873
1572.67-477111-421181-407679-469121-486767-210827
1575.57 292297 130358-343318-427216-495565-438117
1578.46-509636-481387-493941-495599-503469-451537
1581.35-510304-464376-531720-515610-523164-509536
1584.24-555980-523686-525024-471450-474080-495420
1587.14-579371-499243-507360-447317-459141-542337
1590.03-621686-523185-532010-480360-472932-420709
1592.92-443100-456265-514076-515255-580430-560245
1595.81-506729-403354-506788-522378-521688-468306
1598.71-467051-453283-528890-446092-443616-471011
1601.60-535652-520730-555379-479855-498650-471445
1604.49-506783-486722-490324-426210-440946-400362
1607.39-452859-436563-497280-504575-557743-514891
1610.28-541752-516521-468323-398135-457499-472136
1613.17-486568-460776-465878-410605-443965-255432
1616.06 152881 80147-316468-350724-431748-494783
1618.96-583399-502860-556651-497985-515084-517539
1621.85-523233-398689-223183-178493-384570-453562
1624.74-573970-517505-528227-467538-455344-364181
1627.63-389643-439243-505258-440521-467018-427868
1630.53-452803-429465-502062-498272-481041-415589
1633.42-456654-412690-258736 66171 46747-321936
1636.31-479226-398171-378884-432803-540026-482320
1639.21-443614-402507-490213-468962-492668-468445
1642.10-433998-409978-452894-417457-457456-411872
1644.99-233857 34239-256670-443935-365562-305170
1647.88-294618-319933-465642-527341-489378-433697
1650.78-467734-321040 208948 481492 525748 213777
1653.67-164983-181435-423599-464990-501470-477996
1656.56-561056-543693-559053-527753-525294-435714
1659.45-426880-369510-407550-346876-417640-338220
1662.35-318866-357798-425442-449768-499497-438273
1665.24-437546-406114-465807-464844-454750-349989
1668.13-346643-195224-228638-402312-535790-441081
1671.03-331830-328908-425109-471547-555627-503886
1673.92-390295-122616-70620-304665-495465-476971
1676.81-484329-411329-417035-430722-456470-364057
1679.70-389982-411959-512093-511495-458718-333498
1682.60-268557-180767-97229 365051 455783-138390
1685.49-417673-429159-481546-492397-412693-356225
1688.38-410044-400612-383718-331013-418814-492248
1691.27-516382-452089-444972-449996-405517-333940
1694.17-305819-87887 408839 484986-195522-428789
1697.06-431082-416861-431985-288154-23870 333416
1699.95 280753 78593-214493-329245-381078-371165
1702.85-431936-367571-263932-284834-504011-455181
1705.74-316730-239298-282654-331802-457187-392653
1708.63-380661-352328-405204-397292-457088-471531
1711.52-528862-442663-395089-430352-464566-375376
1714.42-192436-63255-157004-252199-269897 92488
1717.31-54215-163139-169116-348767-486831-466785
1720.20-444980-462728-546610-436363-400482-430328
1723.09-506882-437928-459551-442254-415427-325082
1725.99-395278-422086-440966-429057-414618-378620
1728.88-427821-365230-377284-416740-491915-530951
1731.77-494986-391754-83881-48257-92994 78663
1734.67-230678-462982-495177-418523-440431-424416
1737.56-463544-459655-470232-277385-173686-368397
1740.45-548218-525271-504496-450068-485192-418066
1743.34-391228-465450-504894-469119-491598-440669
1746.24-451696-346538-394111-409933-428612-378316
1749.13-444115-465337-373776-167408-180317-297415
1752.02-424577-480086-525951-484512-477433-472015
1754.91-528084-552061-547452-410526-436329-512721
1757.81-587690-521841-500952-425483-458446-513285
1760.70-488186-289432-357520-494167-592232-567335
1763.59-594672-582495-516558-445007-490009-486416
1766.49-523551-494783-349460-322265-399912-413259
1769.38-521178-454546-350636-248545-353160-203587
1772.27-35685-286103-520565-554180-482924-399457
1775.16-441653-505117-558346-489435-485798-476221
1778.06-501900-457963-440447-410765-433269-426453
1780.95-476563-440149-501092-507906-537437-471912
1783.84-446168-315749-368971-447358-448962-411343
1786.73-432454-401649-451065-445382-480119-462126
1789.63-479084-384258-346066-359561-364440-133731
1792.52-184158-368117-455594-462908-509621-490040
1795.41-450689-388417-482233-481866-490925-464448
1798.30-477887-400384-389260-441070-495332-480545
1801.20-439869-378995-464081-504305-558403-541187
1804.09-483543-420973-453359-507774-497393-419434
1806.98-418444-371485-416229-449943-465737-499852
1809.88-519232-452848-465343-434623-396567-351445
1812.77-434491-440676-439292-494566-573748-455919
1815.66-394986-406445-459399-475977-523238-526339
1818.55-516135-483816-507955-527965-510510-445134
1821.45-463109-480658-586209-598021-493703-420256
1824.34-377452-310351-420586-519585-580308-505465
1827.23-549541-557298-438458-353137-337677-265108
1830.12-385501-454039-504894-508792-493943-431946
1833.02-461459-448922-478267-429784-456523-443341
1835.91-459366-440811-426294-437618-485700-490804
1838.80-525068-534738-511098-465574-488629-490530
1841.70-532828-508236-450615-286497-78156-175038
1844.59-413045-464100-527009-550920-567913-452964
1847.48-497258-557159-516941-451265-568017-622867
1850.37-571379-481174-497054-501041-526960-498523
1853.27-499118-477352-524272-513459-524094-573338
1856.16-580287-466512-521109-564516-542254-526361
1859.05-547960-563404-565937-550451-553949-505565
1861.94-524797-458107-463317-431338-424813-435243
1864.84-489083-501703-556826-522926-519624-392313
1867.73-458641-476350-411414-344705-359779-398553
1870.62-504535-481159-460767-458444-535262-532610
1873.52-535602-479520-526446-498384-519863-497622
1876.41-500724-500350-480170-466864-477198-452758
1879.30-448306-434886-468262-461366-524324-529889
1882.19-516005-474248-480343-518506-579076-453241
1885.09-421906-441318-494328-501555-470013-394627
1887.98-424727-417820-373015-350223-445931-523984
1890.87-565062-488519-494122-462460-451733-457154
1893.76-447747-405870-436392-449299-443378-378399
1896.66-436622-411995-385474-445829-518707-461461
1899.55-458355-440671-427603-335220-315197-365616
1902.44-480559-449613-437416-399690-429798-379717
1905.34-366791-347402-377959-391611-397211-438964
1908.23-471833-434520-430721-375876-410778-389078
1911.12-377381-348394-332225-325907-416608-418353
1914.01-404361-442535-422477-343551-389786-408865
1916.91-370202-239346-258762-310091-312641-348859
1919.80-429647-405251-385114-312159-358877-304668
1922.69-344133-410194-432429-369567-364215-391755
1925.58-444775-469840-465847-411692-454530-453020
1928.48-432713-375228-385931-394946-367343-345238
1931.37-427258-451564-478565-452266-365920-350155
1934.26-412721-421538-429155-420390-449480-428082
1937.16-485362-522130-518502-440991-407555-404628
1940.05-396370-354954-406851-405827-425926-439811
1942.94-465763-467631-499680-426102-446480-500296
1945.83-474027-410172-431019-339438-366664-447745
1948.73-464057-510438-531975-482668-461051-430601
1951.62-482540-476081-461321-434237-458448-445858
1954.51-498361-494519-463575-440645-496572-494633
1957.40-484689-447244-432704-373820-419546-456909
1960.30-447140-444592-497375-498671-521407-482922
1963.19-436134-432217-445501-447871-489768-442539
1966.08-409610-334200-363271-400963-468680-465853
1968.98-494379-506209-558906-495832-403206-425669
1971.87-504452-520865-512865-472235-467690-445105
1974.76-450758-467973-558642-470476-433739-479730
1977.65-504982-460611-492903-469841-421910-451409
1980.55-501445-422787-425836-427911-448680-478165
1983.44-544238-509379-474260-486705-503849-434985
1986.33-462862-483852-509343-481547-431550-412952
1989.22-511290-495736-432952-462236-496646-440660
1992.12-502492-520755-534784-525265-513837-483457
1995.01-519383-495342-451843-403821-460381-520628
1997.90-545286-464417-445027-456079-455894-391920
2000.80-385135-403789-492511-526404-547825-525705
2003.69-532484-491083-503310-477210-494876-457688
2006.58-476385-500887-477479-428494-511057-531673
2009.47-501917-454503-451305-482245-518086-556577
2012.37-560841-517395-513964-517623-565539-515059
2015.26-428385-435015-471847-427569-469565-511597
2018.15-519980-490836-504952-531431-563332-499439
2021.04-469915-470590-504707-490132-530530-521602
2023.94-534048-555582-575000-531716-573810-606919
2026.83-582007-544208-501764-465317-499028-493583
2029.72-528767-469102-476837-540938-569275-552257
2032.61-542122-511220-592468-564464-536703-461304
2035.51-456599-451890-476725-487567-530547-474387
2038.40-492768-521180-542170-525569-575469-546735
2041.29-506791-469380-525605-524485-514327-475662
2044.19-536678-552073-552683-503172-511241-455443
2047.08-514040-554417-600670-581903-570493-500916
2049.97-452885-444091-476609-484232-539558-533774
2052.86-512670-551942-591789-572746-560639-517783
2055.76-523117-505869-509157-458702-475256-515245
2058.65-525922-496919-515702-490894-476665-462517
2061.54-507109-538327-552447-517152-546632-523711
2064.43-515669-517735-530680-527823-540923-497287
2067.33-480269-478358-511925-485773-523187-466158
2070.22-462843-475934-489044-477917-542234-533899
2073.11-466171-410312-424634-460656-563742-567876
2076.01-595585-561138-494573-401346-416218-480645
2078.90-539718-493106-532085-511236-449681-441837
2081.79-467968-475962-524714-474781-452809-485499
2084.68-525840-527858-497685-446068-450555-475845
2087.58-491396-482418-530126-486640-517731-534068
2090.47-481571-491411-504070-419539-402815-434221
2093.36-459662-509387-524737-498433-498447-520881
2096.25-505797-439061-465425-445278-524719-542649
2099.15-525523-482647-500847-517329-571920-571242
2102.04-513775-394333-438132-526266-547827-435335
2104.93-454157-519477-546341-536944-548662-464552
2107.83-434853-499485-531799-491794-528234-487001
2110.72-469983-442663-449399-479727-532234-472857
2113.61-403449-411532-509817-531251-490561-468382
2116.50-511396-485514-465124-458796-466540-437316
2119.40-498985-538828-511865-525525-531215-481101
2122.29-500733-520341-543724-487059-493311-475962
2125.18-414726-442153-501098-489181-548384-478222
2128.07-471994-518041-444282-407386-459141-457958
2130.97-480895-451793-447588-474721-501438-458020
2133.86-432942-361052-403627-467182-521894-510663
2136.75-478893-422372-451324-458947-476814-437952
2139.65-407305-437919-465188-415821-391586-429127
2142.54-462112-400644-333756-309575-348908-396261
2145.43-398765-407741-394159-403360-466178-432866
2148.32-441590-403997-453983-544173-529709-410360
2151.22-385154-403878-458611-469704-409176-482583
2154.11-529653-515092-484121-398969-398496-402872
2157.00-432606-421806-424796-419131-494558-497741
2159.89-471060-436717-432071-475371-534106-499980
2162.79-426444-366379-363752-317947-353596-373591
2165.68-404639-402451-456998-452974-454246-445450
2168.57-456609-459010-437086-369123-386798-311657
2171.47-276787-296320-298468-256599-248550-243649
2174.36-255894-241141-264913-246895-106613 14142
2177.25-19004 47825 88153 162204 216414 350009
2180.14 442616 500938 583046 759113 833408 823190
2183.04 979293 1233462 990902 735592 1510531 2544626
2185.93 1854811 570874 380177 677055 733679 487163
2188.82 162980-113957-286482-342368-363909-353315
2191.71-382532-421357-552021-625986-557281-496135
2194.61-494259-450707-487229-485055-449993-428696
2197.50-425830-466000-510705-498232-505474-523969
2200.39-557665-492051-448338-406501-436958-507855
2203.29-537688-509223-496369-530018-498505-482816
2206.18-506465-485572-495708-458309-444442-439429
2209.07-429623-426575-497847-528907-580388-534977
2211.96-528081-551687-507166-498133-495806-446007
2214.86-503566-529662-453194-361978-412753-435961
2217.75-455671-454019-392178-334170-347331-397975
2220.64-460930-479878-486534-444842-458461-448450
2223.53-421766-477782-509156-445963-457546-451995
2226.43-450617-434330-472917-461825-456449-446933
2229.32-490036-502802-428921-435098-497699-483818
2232.21-498662-485716-531945-536390-525879-427472
2235.11-440498-502937-498750-448010-450342-424297
2238.00-464646-508076-476472-437292-504711-482549
2240.89-422213-462470-519250-478119-519140-552662
2243.78-524132-439673-485799-462297-397332-400482
2246.68-409375-460183-528185-526431-570740-519685
2249.57-461377-409936-360688-401918-513847-501710
2252.46-505144-538089-505029-451172-441432-479759
2255.35-560761-552072-493215-458664-489121-482388
2258.25-454102-393122-438720-441308-492734-542142
2261.14-570550-561151-483218-435324-429860-441438
2264.03-451525-461021-473252-436592-475899-499079
2266.93-452830-405156-500323-568280-563512-522228
2269.82-526864-454823-474291-473669-427858-383939
2272.71-409168-429055-469610-479104-523569-527604
2275.60-458755-421055-512263-516983-453727-467659
2278.50-459758-412342-481543-524144-521046-444714
2281.39-432372-449672-453941-509759-559447-501431
2284.28-478185-434798-366299-396207-465030-457518
2287.17-425545-440212-473645-455476-426576-385234
2290.07-445784-497614-499603-443786-415966-450162
2292.96-441908-372752-355924-375449-438328-483083
2295.85-492231-480291-544234-501588-406185-353433
2298.74-437495-481962-444124-458639-482568-457709
2301.64-426243-412125-430694-509508-488121-402968
2304.53-419072-440477-464492-408455-374368-418890
2307.42-468230-441870-443072-531957-548380-409007
2310.32-356739-371255-433458-432139-361287-294847
2313.21-428313-465882-406983-390104-401717-343991
2316.10-322083-306098-358580-410862-404324-301480
2318.99-348679-389699-355087-310772-395973-437530
2321.89-424042-315649-317119-434308-353138-190910
2324.78-255124-385604-344677-155544-241063-463954
2327.67-321508-85944-236581-437427-320840-138340
2330.56-288455-420927-259986-170368-358092-365347
2333.46-152358-202022-391878-222350-64676-206564
2336.35-289882-146567-186181-418084-394328-188104
2339.24-256824-364594-247112-179896-378955-330701
2342.14-177939-331942-483972-267682-210665-332585
2345.03-335440-254953-363532-436432-473130-467096
2347.92-473961-441349-410711-405086-444445-425897
2350.81-306681-327658-406065-272090-308268-409291
2353.71-285538-260560-353269-189456-152729-335134
2356.60-170104-177627-258045-10768-151401-297089
2359.49-63965-199397-306245-71764-243839-261233
2362.38-145743-296773-128789-103837-268252-112903
2365.28-173240-172142-64254-278999-255091-242504
2368.17-258946-228972-406315-363745-331034-300766
2371.06-332356-370820-276802-317053-405528-458943
2373.96-369008-290058-363913-420769-481124-473752
2376.85-473958-416171-391803-382983-405604-407487
2379.74-388659-347317-437971-479119-456951-511020
2382.63-495880-480357-486978-462175-462331-449152
2385.53-509935-525097-543222-499984-425261-421380
2388.42-485282-517438-525037-519307-544047-491174
2391.31-420277-381864-443071-485593-468614-491975
2394.20-475509-375203-427102-463239-479354-460583
2397.10-413575-380493-435072-436560-405796-423255
2399.99-430274-387782-397109-432179-388302-395561
2402.88-489064-584733-606278-490783-461246-532971
2405.78-546504-432511-422790-393452-354824-327735
2408.67-396258-436554-416275-356249-412181-439730
2411.56-377303-378963-454673-471431-513352-464526
2414.45-472655-510714-503361-460448-436868-393492
2417.35-431099-471634-442078-430833-424803-449007
2420.24-489066-431201-457703-491011-463981-417467
2423.13-433798-444177-472248-415984-322853-365424
2426.02-447434-461114-469723-408604-375313-369297
2428.92-363179-393840-436549-440234-493132-496407
2431.81-468950-407785-474614-512552-484045-490105
2434.70-460039-371255-408733-427107-384637-386699
2437.60-451755-486452-492704-488674-437579-440031
2440.49-520744-482777-458930-470093-518909-513553
2443.38-484209-454056-409378-415042-442656-432660
2446.27-398972-397421-514536-497909-391675-403865
2449.17-429569-350286-361940-403271-426582-394385
2452.06-449871-484820-450052-386555-439243-495653
2454.95-446175-464345-494444-470134-415397-431161
2457.84-407244-435335-429656-447280-509940-543643
2460.74-528965-465425-465793-417404-370526-344079
2463.63-366201-391033-460929-440967-417178-452210
2466.52-485120-444108-466121-510922-505287-377462
2469.42-409614-482788-477278-462010-448327-433787
2472.31-482844-560594-533310-518502-503944-455756
2475.20-471684-430999-407196-426702-433262-453063
2478.09-503554-544633-550442-476332-491388-448446
2480.99-415167-391695-507180-521424-427197-402781
2483.88-489643-519290-465836-472337-533386-563206
2486.77-514827-399838-400194-396838-389938-459808
2489.66-543826-487097-482820-494080-473711-538059
2492.56-526578-436497-470462-416865-370135-425217
2495.45-453009-384365-371378-411869-440686-498221
2498.34-551334-494105-507274-517676-431762-376543
2501.24-442329-446435-377478-378886-448771-469634
2504.13-469246-450562-391950-361232-371728-410028
2507.02-458651-422802-387271-410722-424660-445862
2509.91-527984-489137-424980-419964-480349-436316
2512.81-358232-378464-477752-473572-421631-402956
2515.70-437287-409447-421504-453777-440618-425526
2518.59-451448-475183-396587-430457-516180-546942
2521.48-515399-413157-406357-428845-371442-331990
2524.38-314139-271926-348868-469046-509631-492449
2527.27-440111-396822-449780-447343-473996-477264
2530.16-406414-411825-426872-368232-412015-422935
2533.05-408970-388725-377780-421103-438209-361619
2535.95-285559-265047-305746-336011-373870-343958
2538.84-364026-399355-367087-394694-441796-441844
2541.73-395053-393581-446032-467785-456138-471065
2544.63-455160-400983-391628-404310-500331-587980
2547.52-569822-546916-540082-559170-602165-731763
2550.41-873664-939544-970136-927002-893591-914307
2553.30-1041024-1200996-1236743-1209013-1356658-1476039
2556.20-1524765-1662901-1777865-1647780-1641132-1711970
2559.09-1918151-2053536-2144300-2191537-2441399-2168514
2561.98-1654934-1454015-1681559-1756216-1810122-2607750
2564.87-4069535-4317698-2851075-1099264-478837-887505
2567.77-1578329-2184869-2363799-2347459-2133313-1891566
2570.66-1691895-1457191-1174631-890279-682558-496771
2573.55-404312-446505-525365-579756-470988-420726
2576.45-460923-407297-309058-248780-254787-267535
2579.34-310733-342772-332624-318951-297707-267158
2582.23-331315-365864-405865-323602-243831-246415
2585.12-247056-256410-256770-304577-335586-324086
2588.02-315675-333386-414784-373050-293741-258282
2590.91-261383-288670-279593-232302-279092-281198
2593.80-249636-265708-301543-350503-410507-456528
2596.69-346864-267334-289204-272334-311940-359401
2599.59-336192-320771-339053-353546-357127-314690
2602.48-276598-274108-247831-219560-230505-242310
2605.37-338013-346966-391773-336607-329491-373469
2608.27-413455-458744-479528-422791-417967-358054
2611.16-339953-360746-391812-473119-459524-346069
2614.05-319317-334071-428284-435393-429249-426668
2616.94-413847-447378-544052-575574-479237-446420
2619.84-411284-380905-356749-419242-459158-416687
2622.73-429506-420084-407209-402596-414241-400210
2625.62-405203-498207-512714-425253-435777-544365
2628.51-587323-482264-388297-404713-407116-385515
2631.41-433262-532816-514619-461825-472464-452058
2634.30-476705-493453-493237-483478-496645-527651
2637.19-517859-524976-546943-504824-520167-481845
2640.09-331005-318853-331025-280431-306987-393461
2642.98-457202-514345-513104-586459-586915-581369
2645.87-627977-556030-431970-450232-520972-454471
2648.76-369651-322069-378196-418051-454889-533931
2651.66-484866-421666-486724-463716-469443-500473
2654.55-384284-333399-407961-393086-354536-414827
2657.44-510483-468911-489905-417797-454146-506331
2660.33-484044-434122-436152-450211-460495-473864
2663.23-455189-494166-494198-483178-441788-414662
2666.12-474397-451495-458107-443912-393681-449105
2669.01-477742-411611-390929-458040-466133-394131
2671.91-355407-328178-378504-447780-487029-446554
2674.80-391294-420977-500341-472757-446430-415123
2677.69-477055-535911-471639-390506-467339-468589
2680.58-475100-510688-513087-456528-391357-392986
2683.48-411203-401239-381101-415090-358671-437753
2686.37-539796-492396-469415-474319-422280-426295
2689.26-444383-352581-396636-500277-528957-495745
2692.15-517942-441779-447938-461295-463007-411104
2695.05-328916-331252-493741-537292-516434-484911
2697.94-492095-541315-491540-435048-426259-412919
2700.83-418749-477604-507659-434060-426136-471920
2703.73-473538-515137-462988-352349-353169-429872
2706.62-364361-177446-211865-310824-315306-263991
2709.51-291757-410937-415686-421876-471826-416917
2712.40-397487-447882-443730-447094-410601-457449
2715.30-590364-592091-487855-378857-378717-341422
2718.19-380464-390429-391262-351414-343617-393918
2721.08-467043-492786-481650-483025-474619-412086
2723.97-352377-295557-320285-399998-456854-467284
2726.87-428870-395703-374537-385822-468870-416477
2729.76-371966-357687-392955-388008-395310-384169
2732.65-407481-476836-444880-382077-457093-433564
2735.55-308627-402888-499741-462482-397754-374381
2738.44-366947-392678-474738-420391-396790-391261
2741.33-438904-485173-464009-428252-457053-442619
2744.22-482744-498260-389960-327736-363631-330828
2747.12-358676-385826-399238-461794-471442-417695
2750.01-490624-484641-493309-522015-470179-406985
2752.90-331333-284483-330931-304531-382571-422270
2755.79-419072-438100-399761-460270-494690-477540
2758.69-466017-449795-401282-428315-520024-488524
2761.58-447278-352739-315125-334715-305944-317124
2764.47-357796-387571-389260-451190-532698-442587
2767.36-442500-502671-466010-449998-460732-430762
2770.26-393283-379562-459396-441102-439275-490939
2773.15-543227-487012-460918-422410-372061-417689
2776.04-453460-354190-277660-304937-454313-580767
2778.94-521899-382431-378230-432149-475111-445402
2781.83-393279-407738-512214-515843-438411-405986
2784.72-462584-504591-462469-338025-363148-478624
2787.61-484928-455979-424079-354969-380953-485660
2790.51-550078-478009-477616-495942-526359-483942
2793.40-412548-403557-492652-498815-470259-425667
2796.29-398156-420414-398156-434445-470499-515200
2799.18-439790-382856-344429-366458-470146-438676
2802.08-406684-505977-508479-438065-411067-444916
2804.97-436258-374050-397748-446366-433056-419437
2807.86-502595-508654-453545-392548-342896-313272
2810.76-425056-470850-428633-376768-316071-424097
2813.65-471895-468140-474516-453055-444458-455783
2816.54-449504-390930-355638-389189-394449-418765
2819.43-478559-459991-454056-424304-402707-417332
2822.33-436114-436279-486934-460448-425428-430214
2825.22-495071-453631-411359-432063-411399-379101
2828.11-437844-473686-411980-428966-420879-374059
2831.00-432973-505163-482418-409680-391881-410685
2833.90-439682-504975-499942-381767-278069-305273
2836.79-409195-580549-568864-396663-315560-299507
2839.68-319161-280141-262647-205655-278939-401510
2842.58-397637-324746-393152-425301-436708-437727
2845.47-430880-402301-395276-361248-355951-360142
2848.36-390465-369623-438770-431631-414733-368894
2851.25-354101-428855-444013-337814-317089-386116
2854.15-459936-453840-408659-366575-397745-344551
2857.04-333527-394917-421945-363461-292122-338812
2859.93-364021-397632-472885-402972-333451-362892
2862.82-376404-434693-342956-253769-303907-366361
2865.72-405424-479197-492638-475910-479380-348403
2868.61-313796-358362-445577-439591-363337-358000
2871.50-500749-525548-507854-406924-332116-339656
2874.40-350662-360351-459707-492612-446442-460396
2877.29-427825-440694-437575-371586-359975-376660
2880.18-433071-377423-362106-366015-330633-355602
2883.07-405177-421747-375137-415521-400960-348299
2885.97-377463-349248-383095-401449-354383-408994
2888.86-467712-391249-313302-266153-301464-382312
2891.75-390044-450019-497380-434485-331781-266508
2894.64-334354-392764-343944-221318-242740-331809
2897.54-478737-516535-402596-282448-279707-397764
2900.43-401101-378918-447539-497812-445271-212399
2903.32-230080-373855-450632-445645-453005-351105
2906.22-407480-454318-294752-182686-139079-137911
2909.11-236609-349834-289775-331459-420035-481011
2912.00-522493-502018-377326-409011-442600-416173
2914.89-433850-320885-264808-305753-368357-407580
2917.79-433463-393934-391281-461706-482116-377779
2920.68-299663-336621-416852-356402-317804-481259
2923.57-455237-417814-471200-426802-395802-474604
2926.46-441897-378342-370753-402721-467196-586018
2929.36-498800-278551-228727-333622-485361-555186
2932.25-520371-482027-522101-485476-395869-363854
2935.14-410521-409356-386461-361851-424870-483013
2938.04-482934-486762-497905-449334-357708-310841
2940.93-294142-336373-353746-441774-479349-470025
2943.82-511295-549976-462037-430537-414095-359796
2946.71-374397-424470-416410-389321-557901-582439
2949.61-451876-353148-299154-322928-367167-316312
2952.50-271389-417202-476516-494168-457182-425227
2955.39-362729-347102-349157-299071-303990-319374
2958.28-355891-467942-536932-514475-545767-534626
2961.18-422022-387747-342676-341578-325479-387402
2964.07-520159-492023-445242-383200-299692-339567
2966.96-452074-469943-500802-495672-510926-509663
2969.86-516586-459021-381932-320120-379306-388422
2972.75-436180-436323-403029-366316-390180-434408
2975.64-346619-414292-473468-434082-393959-477728
2978.53-513547-532652-439910-389464-435947-479640
2981.43-429056-358175-392708-356796-405669-477778
2984.32-467759-469928-427402-368667-334479-361049
2987.21-395579-290270-378519-549962-567539-501537
2990.10-425718-437906-452096-390727-343349-398978
2993.00-452413-477998-454927-435560-398094-290089
2995.89-345529-331029-331241-374974-291583-273312
2998.78-265381-383787-461696-493214-434753-313750
3001.68-331138-379100-443059-421699-341510-384873
3004.57-417767-383486-365190-438586-387366-410840
3007.46-476461-458963-399802-356749-382209-384269
3010.35-460560-521077-496664-459032-439912-491601
3013.25-480892-379554-420356-423586-419818-481275
3016.14-517590-539047-508308-457559-424264-352317
3019.03-393134-461244-378424-316321-305306-403276
3021.92-445100-376146-335991-306170-314806-347934
3024.82-356672-443504-406541-386113-545199-534727
3027.71-505724-484694-453248-472420-406160-398861
3030.60-531898-487775-373426-327085-365412-444134
3033.49-457610-451067-421966-410770-353929-444348
3036.39-539512-484045-433440-350780-376984-445097
3039.28-479804-472261-434314-404691-443025-503964
3042.17-554322-467952-412943-429684-474064-384669
3045.07-370808-468277-568144-536889-486248-447646
3047.96-371625-319468-443994-557779-484785-362660
3050.85-310397-324957-493661-504322-328862-270119
3053.74-418187-442788-316776-352711-438292-477871
3056.64-392991-298834-347044-437525-462750-455237
3059.53-384317-366177-407844-553013-532127-381805
3062.42-402519-588063-607488-494280-430346-389210
3065.31-306273-289907-267384-353618-441276-448144
3068.21-447024-394561-318744-311847-314383-373877
3071.10-381596-413680-432965-387426-377876-340970
3073.99-327705-371667-394902-479467-446803-472823
3076.89-526318-462908-361499-371674-426146-366298
3079.78-352468-406727-455031-453339-385116-358775
3082.67-288867-266568-292359-338788-442208-452258
3085.56-379455-402060-405159-378971-361674-275959
3088.46-225739-318597-382181-364219-322779-357723
3091.35-415150-447579-331960-315725-361038-410536
3094.24-469189-410647-234104-317206-427731-384961
3097.13-349733-350538-407903-405840-411365-367329
3100.03-324563-333969-375969-361686-388722-418053
3102.92-338750-275550-410781-528757-446039-339131
3105.81-444750-504667-341781-285496-399469-357198
3108.71-353056-525271-543571-449006-292140-253671
3111.60-335031-397933-492036-547551-435657-447670
3114.49-491987-507609-478570-417593-399344-300654
3117.38-238657-263321-330936-387299-389051-396136
3120.28-259386-246964-403858-445854-483281-379497
3123.17-272185-338844-444443-381812-367723-412081
3126.06-327416-247018-257631-365548-354529-304063
3128.95-326277-305152-315931-368848-398686-403884
3131.85-455585-392937-217307-129483-217517-240259
3134.74-248640-301963-486790-586953-473509-448141
3137.63-334143-277168-403864-441186-406090-334014
3140.53-374348-364965-319753-223136-171265-273987
3143.42-431172-533348-421892-395644-520746-484715
3146.31-339133-231428-314217-447780-476295-449417
3149.20-411686-457321-540545-489006-376436-450059
3152.10-444523-466067-464422-351011-342801-383878
3154.99-467281-444469-360205-413859-356305-288599
3157.88-330529-373707-376221-361939-344784-354444
3160.77-381875-413802-388878-437425-456925-504650
3163.67-335221-198293-350612-539407-612698-483486
3166.56-368028-420719-543716-525784-480990-409185
3169.45-311354-287121-359155-342409-253827-342093
3172.35-593340-524112-387694-355534-401066-517300
3175.24-436709-374610-398317-396545-335452-277286
3178.13-242194-374623-420962-338856-410374-475428
3181.02-522963-381937-275241-324073-300923-349869
3183.92-499348-578644-518588-472118-384104-333238
3186.81-444927-487457-405936-357051-365864-329125
3189.70-275673-381302-399330-340402-377225-394228
3192.59-471175-393623-402641-524581-428671-357696
3195.49-296384-258866-313615-392660-442148-411678
3198.38-369419-471665-405339-384090-467660-407491
3201.27-279159-266540-238229-315376-404243-425939
3204.17-401835-307560-374499-465418-533051-504568
3207.06-512526-477731-494765-486972-442246-485594
3209.95-479955-489197-527811-519671-428175-398827
3212.84-368517-274738-307810-419603-349593-294144
3215.74-465311-588543-420759-286002-325565-386880
3218.63-397674-327038-208475-247110-382504-376217
3221.52-324284-298423-299490-343093-437882-512633
3224.41-421597-308587-421712-517000-507499-420078
3227.31-382468-407844-523089-518638-395821-368919
3230.20-335078-338631-386718-363289-490817-437241
3233.09-365664-371554-345700-308563-392971-466572
3235.99-396067-289474-231726-338072-410304-308042
3238.88-303096-504976-616759-531023-453009-387396
3241.77-432791-478647-508560-414772-350938-321532
3244.66-290204-296729-412359-427975-376858-380954
3247.56-400289-393481-338913-362653-444532-388150
3250.45-369183-447891-424334-325856-454147-443582
3253.34-248348-200012-376612-455006-400298-389793
3256.23-486222-527182-446214-207638-115388-328094
3259.13-568023-575445-438022-334049-383407-453846
3262.02-342069-99597-168720-346073-372126-404378
3264.91-379538-373237-339895-349793-425498-471888
3267.80-425160-329732-278550-242082-352353-472959
3270.70-492666-488932-470005-383715-355296-376911
3273.59-343067-296293-302757-338284-303685-277454
3276.48-277554-296804-341694-388533-417376-533102
3279.38-456781-349524-330222-370852-451848-423678
3282.27-303945-215755-307768-404217-381077-413846
3285.16-394670-284966-234359-219998-362952-502201
3288.05-412140-297292-239377-335904-430208-344071
3290.95-317372-377241-400877-454378-395490-318365
3293.84-408813-441218-407358-420720-414574-388430
3296.73-366254-340031-276336-282939-403116-511997
3299.62-454178-348589-369838-392823-332047-300971
3302.52-302753-375403-589176-564053-388080-487104
3305.41-459863-314861-214592-244586-337592-399568
3308.30-333494-316515-352578-336888-337061-452119
3311.20-606012-504579-454059-543253-377927-216145
3314.09-256052-203512-258193-391091-357078-342625
3316.98-567772-448163-281902-337617-419341-475549
3319.87-387930-338826-393118-447684-482935-403389
3322.77-387979-409525-313199-380172-561733-580002
3325.66-418195-350042-475389-581465-664378-522588
3328.55-377123-445157-458836-350553-367662-420080
3331.44-332521-286732-523691-507336-460560-474560
3334.34-399721-352746-412057-367777-291953-302145
3337.23-477897-582064-489062-454005-481370-470010
3340.12-357316-442366-417452-355519-387819-392959
3343.02-377373-302578-342339-464171-465959-500820
3345.91-532572-504912-534477-490677-274132-285728
3348.80-480316-630311-622068-475785-340575-337585
3351.69-280000-258892-343295-421941-414899-410383
3354.59-433497-435107-389962-322615-276796-381699
3357.48-520299-364217-269806-318637-348869-347351
3360.37-276942-444113-567759-384001-242831-302486
3363.26-373201-507304-608691-439273-328091-461807
3366.16-463284-457032-412844-395648-438682-429678
3369.05-427826-384904-199462-214438-294925-296993
3371.94-354039-377609-409278-383978-328046-248963
3374.84-255437-342040-347459-439852-501669-378855
3377.73-382846-390685-400573-512001-576294-466297
3380.62-360843-317704-250363-196080-165167-166495
3383.51-135330-138894-182920-405647-575028-558862
3386.41-327332-171953-182922-334484-351201-347291
3389.30-348107-332079-330911-273948-479228-484635
3392.19-428028-363516-235933-307365-491585-490715
3395.08-398913-417296-405541-325213-239135-283989
3397.98-464077-446612-402725-315624-325218-272057
3400.87-206760-340403-409604-396951-416357-361794
3403.76-286130-314685-340049-438223-350550-360827
3406.66-511882-458724-337121-272284-344830-368438
3409.55-274127-189572-242403-250003-286663-295976
3412.44-330738-483715-474050-300655-136932-139218
3415.33-271180-373949-374165-254554-190096-302028
3418.23-424924-506995-467669-337748-170545-48910
3421.12-166382-357971-387117-349836-287806-213892
3424.01-266831-261504-440161-527923-474544-403359
3426.90-270907-156271-309439-368163-301392-291697
3429.80-318464-371309-406316-405031-382346-371976
3432.69-305079-326462-318373-314807-281204-275337
3435.58-222033-192038-133450-154198-383488-403951
3438.48-159960-77530-158381-241547-189050-227783
3441.37-296118-370101-503505-380663-112627-104061
3444.26-313562-292911-176068-140401-249887-385884
3447.15-385811-206172-196357-332736-216179-176331
3450.05-236036-255519-379955-596875-553859-296323
3452.94-158192-157086-166863-145471-208668-320675
3455.83-419327-397314-429755-400527-311674-379049
3458.72-444910-431105-340873-231951-197357-337221
3461.62-371522-296407-246057-171049-93034-28051
3464.51-152436-277313-238984-295095-351254-396939
3467.40-243704-176866-304460-410156-312490-326055
3470.30-452417-534221-409214-289589-431577-511872
3473.19-419636-319618-205939-360380-479055-420929
3476.08-232876-76941-129931-110576-130691-319968
3478.97-405657-480340-479966-344107-257423-307783
3481.87-443105-434509-393491-359323-261261-226227
3484.76-309008-329103-460201-479773-403908-291215
3487.65-114814-122006-258820-254788-344491-397080
3490.54-357600-363246-375152-292582-180188-253777
3493.44-252171-249283-327348-352037-366170-202388
3496.33-158671-264226-367668-322330-341033-316926
3499.22-223687-238842-168921-184565-270200-247653
3502.11-304364-400441-431837-301783-115532-305453
3505.01-467915-464393-459173-516584-505440-310087
3507.90-246435-390029-487976-441541-313346-211401
3510.79-332056-403701-354202-414052-414048-423926
3513.69-501816-303428-191039-356770-444398-489552
3516.58-499504-391283-284230-303208-350910-359819
3519.47-442937-495272-382242-419286-273928-141159
3522.36-268874-336037-374194-324015-183171-210279
3525.26-348780-361221-341291-418139-462074-339770
3528.15-363910-447076-489133-452475-318507-324133
3531.04-390159-315502-343068-335612-379724-451499
3533.93-267339-157331-208339-263804-392745-448198
3536.83-346631-407964-429194-313965-244922-304856
3539.72-293350-222063-381192-509950-460422-338412
3542.61-420009-408609-297817-237592-366958-424213
3545.51-300775-339545-339474-325930-244339-248830
3548.40-383574-381033-390973-386291-305202-326414
3551.29-276077-313761-398115-442547-442525-424367
3554.18-383726-350541-372778-437214-431168-259342
3557.08-179725-280731-445163-528963-460335-386578
3559.97-415570-229284-80757-202233-404312-394431
3562.86-363361-429873-425457-383731-342212-270780
3565.75-327831-273824-197622-107658-47604-274781
3568.65-375593-279278-235692-392218-505550-550035
3571.54-476168-374212-351335-395763-302970-305687
3574.43-330828-352132-310586-201135-195113-297499
3577.33-372137-428672-437110-355016-304680-320500
3580.22-422017-486066-520043-462337-339283-363380
3583.11-249346-266612-304349-283879-236916-100501
3586.00-253289-513710-468987-355093-278908-179932
3588.90-443373-547920-321987-186034-272190-414213
3591.79-400424-318510-244955-189802-328284-497108
3594.68-485728-479692-512595-446801-564755-657644
3597.57-482733-288286-204190-249314-342512-382366
3600.47-264921-218544-277815-287136-342926-336455
3603.36-354002-397517-391843-336418-359683-488199
3606.25-433857-345319-429150-381341-303152-105279
3609.15-138383-203372-196252-293979-372956-255117
3612.04-128302-274115-405226-283690-197529-281272
3614.93-283769-363625-370638-418340-215426-138495
3617.82-257369-429298-285209-35518-93050-282053
3620.72-359593-324023-267203-259170-295573-286660
3623.61-305173-349621-256893-230942-269980-287970
3626.50-99127 60699 185229 209189 133685 204056
3629.39-58663-321918-280396-350004-285457-279874
3632.29-299670-169846-85149-170567-323853-291586
3635.18-210856-349824-440217-421622-343450-267244
3638.07-204449-160968-213743-209980-186857-279530
3640.97-341400-289715-282956-258307-233633-309656
3643.86-334904-347239-347671-310166-303231-277166
3646.75-126490-99586-161120 75777 363381 129302
3649.64-142191-99661-136817-296660-286019-209374
3652.54-239530-339538-378809-319924-235026-255593
3655.43-36577 80545-126231-311107-348883-295572
3658.32-313606-425519-338943-220236-161114-263906
3661.21-389098-415170-233984-112918-314842-388682
3664.11-154448-92089-201158-359050-385715-277293
3667.00-358489-373131-58366 26824-175520-194784
3669.89 123127 193607-169231-190488-233160-384155
3672.79-398943-315440-183426 11055 23725 213781
3675.68 269451-123470-265289-284778-180787-107322
3678.57-93630-213247-410504-318663-195801-324351
3681.46-400672-279824-146012-167001-275955-341183
3684.36-335154-318639-437586-360740-223811-147179
3687.25 26894 458274 356483-48506-232565-228044
3690.14-139686-67939-105309-258504-361272-250892
3693.03-95146-227521-294676-385335-387804-304602
3695.93-268021-236545-323100-375230-260675-277656
3698.82-300083-110047-82690-240681-244901-97241
3701.71-113477-287055-326317-223948-218935-242117
3704.61-273901-372416-448316-412695-323257-346657
3707.50-381400-394297-218499-34394-143841-261914
3710.39-239871-334288-71996 156415-29175-220003
3713.28-339726-467170-482439-404860-310343-287380
3716.18-421920-351843-279396-417462-436433-429800
3719.07-414023-321198-256411-176064-284949-393956
3721.96-323242-235140-246160-195146-212963-253917
3724.85-288595-377951-289028-138544-194199-282146
3727.75-282767-276609-300075-265814-205586-282116
3730.64-347918-300953-112752-196196-324020-403985
3733.53-349635-188206-205943-287173-303040 3373
3736.43 110313-255203-259775-112037-204510-358595
3739.32-299023-282578-283101-149851-112139-221942
3742.21-328281-289062-267319 169605 734878 382834
3745.10-233859-352503-254376-271177-354688-395378
3748.00-317529 163388 581021 150428-188918-295049
3750.89-238394 214824 453971 31567-183138-237606
3753.78-259306-281383-375027-458189-335540-183046
3756.67-235879-425257-399820-386090-361399-177337
3759.57-28484-153352-342938-469869-436440-319711
3762.46-276826-432737-358604-238669-306708-389946
3765.35-414311-400447-331011-240496-197836-205584
3768.24-284982-360527-152771-255042-329731-231167
3771.14-298226-357451-329753-363598-334938-282120
3774.03-135002-70088-130732-306018-387700-322098
3776.92-323841-360933-255215-171949-133218-232024
3779.82-264733-204507-293549-376559-315048-173254
3782.71-171082-279658-284535-222669-404647-343792
3785.60-355532-301866-140362-302931-416578-393319
3788.49-328748-322221-302384-225895-159450-149811
3791.39-256330-326245-178309-114742-331960-407914
3794.28-446152-377228-325123-160475-172686-447138
3797.17-442859-264619-239504-264270-283943-276201
3800.06 4461 382567 461587 23694-272074-332655
3802.96-262783-305921-262377-152061-241628-405463
3805.85-371945-69073-29689-281474-265163-194539
3808.74-309646-411970-328094-317907-277881-283725
3811.64-214901-180406-243305-325118-261305-230532
3814.53-221964-61582 383526 106865-262567-205792
3817.42-174040-249102-325519-341514-249376-140585
3820.31-149673-132702 30294-202593-248003-171575
3823.21-208074-218238-295311-351242-236768-191982
3826.10-168142-293936-408794-352458-283654-235810
3828.99-366284-411432-485225-483534-281278-251986
3831.88-423346-529233-579412-479357-314938-139135
3834.78-152350-335748-423837-483208-357025 82975
3837.67-33049-291454-277902-312163-248954-210609
3840.56-227220-489737-531636-629234-797056-746292
3843.46-424338-260063-433998-594035-366353-162949
3846.35-422549-1017939-616908-24542-210630-1378547
3849.24-1727203-766358-201723-196897-68264-106245
3852.13-355215-301682 294039 724456 319312-339007
3855.03-634838-537804-336829-336969-491664-556370
3857.92-536258-612703-551959-445940-479294-509721
3860.81-452498-415827-481559-325064-168594-221367
3863.70-237244-124338-10625-157338-273476-353449
3866.60-312281-237709-322720-312456-227708-192013
3869.49 114812 29661-274240-230609-272780-400811
3872.38-372982-232531-122073-100480-237984-252478
3875.28-316193-378876-291037-359885-373110-344883
3878.17-299103-309414-257407-197053-195074-241918
3881.06-320028-430310-522052-580322-454009-401764
3883.95-349893-260317-43844 73408-131123-228006
3886.85-223947-131942-224381-370856-367178-320264
3889.74-272302-105309 186737-13599-310370-349871
3892.63-278437-231569-184312-270272-356243-415320
3895.52-289646-430485-427399-265442-290296-354703
3898.42-324004-176453-117534-252245-321380-196759
3901.31-6188-138260-221908-55051 102289 93643
3904.20-145416-226165-212465-281407-268797-231416
3907.10-172233-218529-338803-412192-242879-127257
3909.99-229317-385265-448972-291956-222031-215617
3912.88-217841-230836-209059-177044-124869-194222
3915.77-248116-182964-34800-38138-266018-576838
3918.67-567766-371979-289544-295430-238293-262627
3921.56-349998-422278-300491-266786-110764-79852
3924.45-265579-83779-151-28971-98707-251250
3927.34-113963-82096-122459-282994-324570-210616
3930.24-438657-635963-546270-388096-353114-455668
3933.13-311848-331389-390881-333384-341413-347635
3936.02-339049-208081-139007-187338-200608-236072
3938.92-219370-369391-581400-559217-469386-404335
3941.81-279424-159774-145570-101811-75702-68104
3944.70-139882-159560-152771-319641-318972-294757
3947.59-385141-319877-267100-289494-309661-318064
3950.49-261639-353531-335725-279266-308583-386073
3953.38-495753-310661-233384-377003-402479-253392
3956.27-115447-129520-298288-295032-192870-250276
3959.16-280322-317880-381146-320519-84630-87083
3962.06-235091-366442-537844-516627-390079-353298
3964.95-222739-183279-114954-130806-174062-252290
3967.84-305001-260148-137673-137076-270829-396677
3970.74-520085-393179-242997-171675-110827-233907
3973.63-397768-326940
##END=
