##TITLE=Dichlorodifluoromethane
##JCAMP-DX=4.24
##DATA TYPE=INFRARED SPECTRUM
##CLASS=IUPAC A
##ORIGIN=NIST, Analytical Chemistry Division, 301-975-3108
##OWNER=COPYRIGHT (C) 2001 by the U.S. Secretary of Commerce
##DATE=01/06/01
##$SPECTRA VERSION=1.10
##$UNCERTAINTY IN Y=2.1 % relative (B=1.11E-04,C=1.83E-9,D=7.56E-14)
##CAS NAME=Dichlorodifluoromethane
##CAS REGISTRY NO=75-71-8
##MOLFORM=C Cl2 F2
##MP=-158 C
##BP=-29.8 C
##$NIST SOURCE=QUANT-IR
##SPECTROMETER/DATA SYSTEM=IFS66V (Bruker)
##INSTRUMENT PARAMETERS=KBr Beam Splitter; MCT Detector; Multipass cell
##STATE=gas
##SAMPLE DESCRIPTION=Dichlorodifluoromethane Primary Gas Standard
##PRESSURE=101.3 Pa
##TEMPERATURE=23 C
##SAMPLING PROCEDURE=1 L/min Flow
##RESOLUTION=0.9640
##DATA PROCESSING=Boxcar Apodization
##XUNITS=cm-1
##YUNITS=(micromol/mol)-1m-1 (base 10)
##XFACTOR=1.0
##YFACTOR=7.2759E-12
##DELTAX=0.4820
##FIRSTX=575.17
##LASTX=3974.605
##FIRSTY=-3.65E-06
##MAXX=3974.12
##MINX=575.17
##MAXY=.0067768
##MINY=-6.31E-06
##NPOINTS=7052
##XYDATA=(X++(Y..Y))
575.17-502411-163505 43936 161777-85393-19902
577.58-535174 82216-325131 311299-603236 463001
580.47-298788 621127 393623-325743-393516-52385
583.37 699605-598756-661803 247629 460235-867404
586.26-239738-381765 180093-157263 108632 115334
589.15 399959 493076-46512-182738-233364-80436
592.04-332879-733881 66868 4347 386563-398251
594.94-363740-280868-193027 494218-282108 559289
597.83-29851-210190 150194 52334 113096 83206
600.72-184332-58139-202862-75546 225123-402895
603.62 62362 20767 268644-35615-228780-330228
606.51-171961-357193-196204-163948 146928-47078
609.40 15050 134006-21525 205484-254568 31074
612.29 185632-37854 92024-111000-72762-192989
615.19 86211 137050-251909-425-281417-420808
618.08-204796-98884-63030-155680-75241-159065
620.97 574 25285 81877-266898 230355 129963
623.86 77989-84381-439115-94524-62190-138061
626.76 79000-138920 64922-267999 137102 172202
629.65-148328 230395 188397-66143-227445 10119
632.54 64263-166720 68158 325781 23414 105110
635.44-9104-238446 357787 20523 97857 53953
638.33 43099 152720 412722 81024 145886 26539
641.22 336127-39917 528819 638107 656643 496055
644.11 480371 521293 766170 952261 887221 1092876
647.01 1157324 1202051 1411862 1715741 1739030 2022871
649.90 2199822 2591554 2768265 2570584 3061842 3079634
652.79 3692261 3812926 3800576 4346638 4708222 4701177
655.68 4913622 5375150 5666206 5356195 5745474 6061453
658.58 5980048 6334703 6218434 6289926 6993477 6848820
661.47 7517368 8137638 8388469 9167149 9993080 10344520
664.36 10735676 10478304 9861922 9287800 8158727 7382837
667.26 7485808 8162071 9741710 11142941 11717790 11223742
670.15 10085909 9478824 8367276 8171504 7633239 7383989
673.04 7390522 7344795 7486384 7699997 7809383 7754805
675.93 7548687 7677221 7409204 7256374 7016143 6555369
678.83 6629070 5796425 5513857 5042484 4745705 4252470
681.72 3801852 3720277 3111066 2878497 2485327 2221241
684.61 2081570 1938026 1617322 1217125 1190209 1115561
687.50 831285 868318 607669 696178 406343 429820
690.40 296920 416485 271747 248091 166583 269051
693.29 186412-27388 39228 231349 111915 65106
696.18-142190-5351 343341-301304-87076 69894
699.08 103005 74784 71271 226414 75246-98422
701.97-52961-58226 99135 59851-155610 122016
704.86 103307 209752 2483 181246 89731 75635
707.75 147737-31492 213008 259708 49941-55601
710.65 53133 157302-59166 120281 191532-36313
713.54 245807 83191 247904 170296 344031 28867
716.43 48780 44231 100742-54442 157632 230350
719.32 174300 166541 396990 164412 189892 87298
722.22 212257 174168-21535 156960 75929 123627
725.11 200924 169499 147345 217621-31877 66811
728.00 216698 140274 90123 64509 84748 177992
730.90 135687 267166 154855 149293 198764 183181
733.79 45216-15431 25786-19107 15500 106052
736.68-103607 45923 140623 586 23977 79110
739.57 90342 46553 234213 93822 177726 163835
742.47-96218-66220 143367 41696 17527 236612
745.36 123876 143965 112403 132018 174647 181689
748.25 104967 287289 242596 221564 147815 243902
751.14 154369 182607 258666 84796 270870 487032
754.04 132819 131920 158407 272851 149146 97324
756.93 184285 91934 123496 83822 230248 143807
759.82 144701 64743 233054 171480 147255 168724
762.72 146691 102597 267232 7170 68766 166253
765.61 78067 231180 181467 65649-39340 280840
768.50 35450 114210 65426 69390-37595 12536
771.39-58503 21235 40619 13614-73656-55774
774.29-18343-80819 49918 138300-208792 14743
777.18-128758-38409 23146-50762 104628 161353
780.07 67634-64765-152799 137103-95716-121148
782.96-51553-82037-29888 314148-29262-51624
785.86-36096 202921-96868-100712-202539-52130
788.75-9162-121606-133697-161871-138900 37754
791.64 30621-169751-170024-101288-34936-158268
794.54 16791-192260-125293 74875-262634 180567
797.43-185496 23746-93209 82569-116471-230303
800.32-21731-2021-78650-29275-47791 54191
803.21-25119-208507-155794-96757-32431-45742
806.11-165264-15600-297924-77596-61282 37727
809.00-7006-58607-339041 7358 67389-199722
811.89-101651-88743-40459-133514-87845-20504
814.78 24155-78368-235915-78091-71533 11991
817.68 200305 90872-147430-55372-69815 128521
820.57-13199-73106-5669 107366 152266 75186
823.46-98672 193121 14151 165671 122155 111501
826.36 251403 477605 320827 441028 219499 575894
829.25 412872 626425 271188 364776 551435 549937
832.14 604055 614355 331112 366334 507395 575637
835.03 396544 396734 594389 649070 624044 564627
837.93 852687 777170 892772 1475659 1239848 1368168
840.82 1012391 970500 671312 917346 542119 1024783
843.71 832185 1003984 992288 1130491 1130906 1212894
846.60 1346615 1405566 1463686 1594553 1655583 1982212
849.50 1771452 2096754 1909026 2206827 2365482 2549321
852.39 2711004 2777170 3048047 3294753 3561129 3844845
855.28 3997258 4463682 4626474 5118349 5301835 5849415
858.18 6241545 6709388 6977007 7605017 8076908 9127814
861.07 9458367 10199112 10674838 11555939 12284799 13414473
863.96 14016104 15186358 16018965 16969940 17792491 19265193
866.85 20125845 21600470 22745505 24477459 25395762 26867289
869.75 28023264 29716229 30864080 33066754 34358058 36202519
872.64 37500556 38867702 40804104 43097750 44112719 46634860
875.53 49068840 51495797 54400913 54627727 55591878 55758352
878.42 54446980 54458954 53995792 55566103 56760893 61340503
881.32 61807921 68389199 69672022 73718326 72776595 65754876
884.21 58208112 52877202 52046015 54906881 60137226 61846964
887.10 70466357 72952548 87596129 83645830 66682925 59384448
889.99 60171319 67198135 71839273 67932897 59099004 54438951
892.89 52209136 51118198 49782982 49186575 47669803 46878303
895.78 45405586 44270411 42636828 41922109 40738225 39985632
898.67 39480340 39428087 38569345 39137205 39435582 41321474
901.57 42609462 45431329 47718004 51755826 54985797 60384781
904.46 64930792 70002219 75698168 82849200 89950770 98496108
907.35 107111004 117171554 127814026 138691273 149133844 161785344
910.24 171952755 182256287 191307054 200063317 206121730 212274461
913.14 217845503 220483041 219157731 219668451 222196677 215835547
916.03 206352586 208670262 223098640 213117591 197952539 233416458
918.92 292875812 269794656 227008008 353499150 471535305 411552871
921.81 302016534 579077990 339643030 136586960 209943933 189489557
924.71 196036588 223242755 249361285 234665948 251005365 256598047
927.60 273501515 278585713 284295562 282214763 281700871 271545435
930.49 263102750 246483958 231278982 210080794 191686037 169062944
933.39 150247933 128428332 111068744 92395985 78093855 63071454
936.28 52319870 41157832 33806298 25585909 21224935 15867400
939.17 13196199 9350132 8206147 5511201 5222790 3327012
942.06 3246007 1948345 2239444 1087944 1526304 622657
944.96 1097930 238013 868048 157227 697432 115352
947.85 604946-99 603769-72462 480597-37367
950.74 519425-52061 410873-87647 282281-127056
953.63 471127-128195 353085-225577 319649-186836
956.53 246681-103644 415410-81902 375645-111678
959.42 255793-100686 160387-173877 135595-132949
962.31 266022-134372 150478-157390 113480-172889
965.21 150571-130460 211764-135439 162930-239770
968.10 178709-161729 111593-190735 90917-171805
970.99 251199-239385 42561-219239-6925-207623
973.88 137552-145508 164749-135523 73802-302074
976.78 211456-160746 69801-192596 124834-149347
979.67 102980-144397 105139-255583 46926-178851
982.56 118190-242745 118161-201371 150853-129844
985.45 150978-140812 120567-168877 177515-74785
988.35 149956-126752 40954-185244 118290-211374
991.24 44981-201100 55534-203997 56830-202732
994.13 32111-212682 21030-209490 51205-189451
997.03 106790-204596 131104-252420 44257-202323
999.92 15968-153387 130283-262688 27724-239275
1002.81 70548-305064 159124-228357 49018-132032
1005.70 84430-262327 63831-245960 53327-205183
1008.60 24970-179957 5215-182982 33793-314012
1011.49 29315-187502 1529-263314 3269-234714
1014.38 5834-160471 40284-195363-80543-69244
1017.27 21972-284625-12211-71136 23911-177522
1020.17 49284-144719 86546-231042 82552-268681
1023.06 26571-152597-23819-240182-20795-155374
1025.95 117437-135543 96081-129116 179565-121887
1028.85 137955-131216 137468-124269 3387-152214
1031.74 158196-74836 140428-26773 75579-171152
1034.63 47216-24779 133822-142517 89802-104301
1037.52 82015-41479 127537-169953 161137-145934
1040.42 79708 28025 280762-162031 144708-70818
1043.31 112939 37658 271506-25518 318917 48669
1046.20 243915-25775 340806 39981 342227-18575
1049.09 256559 169334 383959 189546 452829 122064
1051.99 516894 312234 677625 440733 648425 447664
1054.88 898714 650103 798106 822966 1168682 946007
1057.77 1341656 1052680 1471850 1368942 1752416 1686094
1060.67 1918862 1833649 2262982 2076500 2514778 2438482
1063.56 2769612 2774140 3282039 3102570 3590706 3625887
1066.45 4224998 4268432 4662382 4861349 5616471 5877349
1069.34 6713527 6917825 7789844 8166570 9124937 9623125
1072.24 10729486 11321715 12719086 14119544 16507608 17824096
1075.13 19258574 20065527 21333233 22015349 24665259 26814163
1078.02 29718448 32083778 35515990 38368494 42248065 45476143
1080.91 49687844 53652812 58369562 62392863 67764295 72510872
1083.81 78171430 83325315 89188801 94845989 101118599 106702755
1086.70 113270201 118826524 125166333 130756855 137315074 142491003
1089.59 148599872 153560916 158480143 162177640 166667039 170143224
1092.49 174398524 178197785 182385181 186304520 191225341 194940132
1095.38 202056668 207329795 213652495 222843548 229350642 226764980
1098.27 224091680 231093312 237127921 231257123 219858114 213088857
1101.16 256663907 301177234 299146632 270929589 251511308 237872301
1104.06 199987113 188756019 178507270 179717364 183686052 185047234
1106.95 183040664 182487098 182575799 183517981 182637221 180978074
1109.84 177855767 173439301 168155033 162175606 155356127 147948160
1112.73 139678773 131703356 123350705 114740314 106458676 98645957
1115.63 90958804 84312675 77930025 71789288 66491026 60939163
1118.52 55444605 51005402 48401058 46522189 46120600 46876702
1121.41 46743674 44791255 43075031 39344541 36236841 35121076
1124.31 37044902 41442345 45630343 45968573 43965728 39130857
1127.20 34128658 29093806 28513538 30748035 39841763 41250144
1130.09 34644279 33708922 31377590 30380582 29315572 29055426
1132.98 28932984 29166298 29369513 29906802 30439763 31199748
1135.88 32211745 33329933 34608109 36096329 38085542 40015072
1138.77 42521302 45299692 48436160 51810431 55629325 59608275
1141.66 64145567 68932596 73934672 78967908 84217189 89544561
1144.55 95094310 100448843 105287113 109799773 114743483 119474816
1147.45 122144016 124716309 126930634 130223086 132719865 129290268
1150.34 127356649 125915316 125025361 123108628 124994233 122665381
1153.23 116744296 123752781 115890130 132417704 143067342 130537047
1156.13 147968040 155442510 137016554 279103044 215143810 188051147
1159.02 167016996 97454474 299388657 931404789 121201831 84720820
1161.91 80612410 94313388 87662325 91864695 84534334 87338184
1164.80 82573575 85778410 82739769 85746428 83545528 85859185
1167.70 83536225 85120674 82442714 82622546 79406654 78527917
1170.59 74611918 73150439 68507728 66465828 61501467 58845054
1173.48 54116642 51333954 46492002 43557947 39148474 36494108
1176.37 32106861 29741742 25886671 23792842 20584923 18835944
1179.27 15960012 14548318 12196851 11213250 9243962 8524703
1182.16 6881985 6436810 5072663 4910049 3826012 3703593
1185.05 2799948 2856258 2042580 2305933 1612069 1862700
1187.95 1341029 1769126 1208583 1474294 918752 1364154
1190.84 917860 1239182 963378 1240843 948422 1258912
1193.73 943299 1316276 898926 1165559 833486 1110943
1196.62 827593 1175980 838679 1201154 1003388 1224406
1199.52 1043548 1498761 1116198 1440266 1282947 1228816
1202.41 670811 927072 753116 1024208 699874 1058181
1205.30 918684 1251989 1094125 1350856 1172662 1474505
1208.19 1076818 714200 528320 735304 605652 736070
1211.09 563938 743078 510075 754142 546053 762083
1213.98 479415 678621 553440 713060 496130 630298
1216.87 520082 756533 531990 706052 572563 783194
1219.77 526851 745922 594864 749489 625374 970552
1222.66 742208 984372 816670 1149368 959436 1013246
1225.55 1077869 1147649 1194224 1363010 1321373 1387407
1228.44 1410439 1536245 1382119 1456993 1361312 1516544
1231.34 1520499 1694978 1626198 1721066 1560647 1776907
1234.23 1539241 1853578 1792539 1973535 2033072 2159903
1237.12 2185026 2405922 2428713 2750608 2762828 2948309
1240.01 3018835 3280279 3131612 2931774 2767572 2898493
1242.91 2689455 2413277 1393301 1501277 1356921 1554454
1245.80 1409179 1288169 1149558 1309967 1198828 1141849
1248.69 1203422 1243800 1177805 1297156 1270856 1235774
1251.59 1134771 1164357 1030389 1138140 939523 970539
1254.48 884130 889897 697151 668642 585216 574811
1257.37 377426 480247 303950 362417 258911 246618
1260.26 127615 200865 89918 95827 16368 13218
1263.16-6159 110230-12771-17361-143385 21626
1266.05-141555 32319-36449-1816-39213 48408
1268.94 12892-36644-100358-775-34274 16713
1271.83-82394 63617-45706 35684-56289-51788
1274.73-131346-20316-107628-40873-51508 745
1277.62-122703-20963-7458 10770-26810 2200
1280.51-96604 4440-23509 64270-16445-18098
1283.41-16680 84192-144125-32020-41-3724
1286.30-51264 36457-50227 123720-43019 23485
1289.19-71324 46136-29226 98224-5920 51033
1292.08-41017 55807-43880 131872 60403 5617
1294.98 55822 79708 2872 76150 87609 91119
1297.87-11193 153418 30269 129933 14917 88477
1300.76 39032 163981 31091 56662 118046 168203
1303.65-45130 111066 105380 126262 88129 187282
1306.55 108820 166468 52255 140097 147528 143257
1309.44 164685 220532 142345 176036 200443 227103
1312.33 153219 193366 68212 154421 174009 249743
1315.23 187815 245580 237266 289793 231239 275815
1318.12 224702 242942 176665 178843 122232 237916
1321.01 273801 255460 274234 371970 271472 211527
1323.90 335456 363879 231711 310704 301601 359836
1326.80 335485 366262 290553 276101 289804 341489
1329.69 283381 352828 304239 327822 371886 453932
1332.58 467849 327731 354525 349936 377134 418003
1335.47 367245 380941 405083 355241 339855 328315
1338.37 437701 441176 418683 359145 468571 521023
1341.26 517789 526012 493375 530632 487004 551188
1344.15 551456 578197 581792 707342 650567 583455
1347.05 522474 495553 556441 625322 617714 338503
1349.94 400713 531862 489639 281406 273180 396032
1352.83 427650 418671 469018 640417 662582 793406
1355.72 787972 946080 715049 539181 997453 593688
1358.62 628877 755929 577438 457392 546881 583982
1361.51 661440 915765 763779 628709 541113 768441
1364.40 665548 803281 767430 863934 804255 852087
1367.29 680127 750399 816839 854217 948456 889373
1370.19 773646 748612 984575 906692 786901 1079848
1373.08 932931 1010313 1029761 1051155 1070743 1010533
1375.97 978957 838138 885915 1029901 1061179 946947
1378.87 907909 912215 1178815 1218809 864277 987218
1381.76 943218 1018751 938969 900159 972318 1220733
1384.65 1361372 1246896 1166693 1079865 845997 817729
1387.54 811187 858921 820530 823262 678111 685217
1390.44 711390 675299 591062 678969 486216 594913
1393.33 519910 472948 501222 463854 179770 188739
1396.22 225821 250688 186597 228176 134787 123402
1399.11 161575 112354 29952 211517 65809 49676
1402.01-28560 16141 5982 71361 40405 14010
1404.90-2830 122720 11785 100966 75119 55012
1407.79 7821 58614 37929 68018-60392 60853
1410.69 69089-13673-70014 41064 52446 35103
1413.58-70031 73065 12096 19091-48685-13079
1416.47-5134 14445-5049 74306 44447-153866
1419.36 823 76631-95277-15617-9540 9120
1422.26 4239 23509 14272 3885-27633-1910
1425.15-15711 37865 10090-58436-22266 47145
1428.04-14934 36451-65657-45909 8101-27032
1430.93 1909-55752 37818-25241-33611-29144
1433.83-18510 64794-10064-4671-45266-150980
1436.72-121340-36813 18929-28140-31180 23212
1439.61-27838-2759-70420-80298-13242-28240
1442.51-1153 38496-32615 3888-2672-76330
1445.40-108766-10959-20998-54303-74466-56123
1448.29-42011 16666-3211-22885-30811-56079
1451.18-75142-77777-79458-18547-10677 9219
1454.08 21322 9260-86342 22464-246234-262515
1456.97 78852-48068-117504 12556-29126 45095
1459.86-50971 71541-2989 97424 32216 36711
1462.75 53023 114530 62423-63553 38624 121327
1465.65 68889 141509 100120 143058 159024 175608
1468.54 188480 100222 102868 136172 174571 90339
1471.43 17404 45930 161177-78043 102200 202521
1474.33 116947 169831 163997 32102 222350 196562
1477.22 224361 138871 362733 146697 323925 493819
1480.11 89913 134329 65063 208265 72147 119654
1483.00 83955 176441 132471 163809 144086 110607
1485.90 76291 88237-29843 94313 93750 74057
1488.79 66330 54227 22465-13393-16744 13657
1491.68-18877 9814 37745 31687-546 4201
1494.57-35797 30818-266983-178197-22287-97494
1497.47-8857-53560-114635-32795-55842 16223
1500.36-50885-84469-2530 29229-3217-13061
1503.25-52660-14495-54671-124564-315147-16023
1506.15-227843-234554 34389-27894-82376-62457
1509.04-70537-27011-38262 74732 692-17751
1511.93-64614 44212-56228 101395 18997 38910
1514.82-73050 32726-46192 18298-74763-85913
1517.72 62950 88960 24886 124845-4117 69521
1520.61-235672-46976 73585-60711 69090 78123
1523.50 62740 91734 6543-32687 117756 137522
1526.39 145775 49321 181251 121872 109102 129807
1529.29 52838 54260 103634 86558 111950 138097
1532.18 68894 87321-36944 55006 98395 79102
1535.07 103261 206995 139488 94559 70800 38236
1537.97 104834-191205-60840-9747-173603 55754
1540.86 45908-34999-34330 88452-22984 46644
1543.75 84631 127995-22153 32680 56886 57670
1546.64 27981 108308 47198 138619 44139 121265
1549.54 95693 74973 96313 48008 135856 51589
1552.43 109362 51899 142394-40175 100101 51895
1555.32 91856 18221 94130-53919 24824-65139
1558.21-154738 117363 15080-129487-29206 147916
1561.11 113849 98392 26371 93603 24699 130765
1564.00 84517 125550 112690 47706 32883 184107
1566.89 151418 184343 133576 155516 205875 108786
1569.79 129023 269935 225567 320004 207538 305509
1572.68 261455 338763 333292 344285 310140 337048
1575.57 142190 262210 416203 476215 439433 483464
1578.46 511787 523604 537269 551028 661003 601420
1581.36 555555 600847 648495 639756 630914 663514
1584.25 684715 721312 525055 539653 760027 994732
1587.14 1160407 463026 630312 830832 1184518 996874
1590.03 433597 560784 521927 590907 626352 717275
1592.93 655211 733500 642025 673840 622873 650121
1595.82 620937 609029 536991 498907 574754 526478
1598.71 417269 417033 366298 286178 232693 212553
1601.61 145132 161319 102748 122677 38335 129129
1604.50-9416 97275 6837-2596-17197-29532
1607.39-8287-19266-44496-27735 16611 66319
1610.28 52875-26693-80944-822-54620 52045
1613.18-96300-23320-60946-25775-83752-26240
1616.07-280460-170880 3515-21629-1723 11027
1618.96-30362-1158-73045 21734-3321-28355
1621.85-85359-28196-89940-114517 42086-91797
1624.75-32687-61614-7911-25706-4197-125173
1627.64-62643 9702-48794 9479-7326 4076
1630.53-84588-43069-38560-7939 5826-1485
1633.43-17510 852-139368-214044-253359 54781
1636.32-71382-104019-82660-5958-91255-66642
1639.21 13516-33226-28121 19937-14070-12500
1642.10-27468 10317 21432-52485-26542-5353
1645.00-65078-220654-102428-17828-80394 23825
1647.89-171437 19737-82822 62458-52224-77263
1650.78-55038 1005-318267-230747-300471-160438
1653.67-71610-87725 14052 8325 11648-19906
1656.57-17955-67039 43828-42344-95337 68974
1659.46-72120-53887-48590 16522-17978-23336
1662.35-189023-49670-16256-23865-41281-32364
1665.25-20326-30676-34137-17367 36981-44818
1668.14-25565-166277-68548-11408-17414 49705
1671.03-73110-24346-56666 3450-19681-49576
1673.92 651-110458-212933-65207-15783-24767
1676.82 3709-35405-32199-12054-35214-14751
1679.71-62746-28654-13570 9484-83245-70786
1682.60-118822-100885-53442-303801-358270 33657
1685.49-74287 28553-44853 14751-62802-32018
1688.39-105486-5820-43746-7194-17148-62299
1691.28-54572-21819-55838-67250-37450-81373
1694.17-28898-23827-282302-330567 28956-82097
1697.07-25740-51536-51651-66723-91875-256673
1699.96-198714-199515-12366-70733 31697-66728
1702.85-59844-34804-84988-17139-45389 13132
1705.74-73071-67382-32783-32747-7931-27804
1708.64-33234-26824-66575 43536-71487-73083
1711.53 7904-56110-15794-18649-61031-28575
1714.42-104042-73636-12033-58215-19565-344244
1717.31-177315-54276-134535-80093-30439 8715
1720.21-46274 50417-32971-8683 10784-23818
1723.10-6003-10593 38545-48098-12970-47139
1725.99 20568 36198 1074-18994-17241-4019
1728.89-16739-67295 46991 40821-23294 73243
1731.78-61347 85772-176964-60135-68293-200025
1734.67 51941 47806-18859-18651 79419 10032
1737.56 2631 21580 52107-19679-123038 100008
1740.46 56518 54650 98699 115169 147685 97494
1743.35 145402 166397 156988 192519 204481 180092
1746.24 243404 226772 188091 217564 187213 304011
1749.13 276019 248534 318714 235176 234801 320809
1752.03 314792 372445 271638 324805 353152 346286
1754.92 411687 420646 405487 356566 409108 380857
1757.81 427946 423945 422024 417295 492807 418562
1760.71 456901 365170 418296 471801 370409 424385
1763.60 409552 490116 442189 423639 308972 287188
1766.49 201030 352440 198219 236134 322814 322020
1769.38 325604 273029 345966 150809 219885 159721
1772.28 62551 288107 258920 278623 165301 190674
1775.17 170177 174419 106612 89143 91456 131271
1778.06 130515 169553 110807 98075 130439 46120
1780.95 68263 74030 57723 72098 100030 92840
1783.85 132115 66074 90821 105039 82794 83829
1786.74 90937 158997 248232 208487 182552 142399
1789.63 163519 142587 161475 168556 222449 37908
1792.53 180478 215857 223212 297026 229945 268541
1795.42 246449 222205 227354 248570 270841 324582
1798.31 309962 301787 312272 251077 337544 278431
1801.20 321051 328652 303269 355193 351962 288525
1804.10 299926 395651 311177 307917 297999 363444
1806.99 328661 325843 298323 300973 290215 328994
1809.88 271466 266517 299790 210386 200696 296384
1812.77 364675 324092 270113 206662 215761 245722
1815.67 223008 317945 254531 231820 205132 237075
1818.56 337828 328294 199581 263481 218002 236133
1821.45 251432 280225 249944 300719 238345 187125
1824.35 212061 232544 162770 230372 191116 177557
1827.24 231355 185085 164660 193102 156970 158912
1830.13 193089 280578 270587 255922 246683 350015
1833.02 246327 256020 199295 196831 227689 258994
1835.92 206316 249812 273626 283922 272505 238357
1838.81 239718 329153 300998 200822 230042 143866
1841.70 192748 223662 189783 238314 147737 210568
1844.59 138255 142655 147651 277445 212714 178858
1847.49 143558 164506 65267 141829 102762 147255
1850.38 112870 66247 81873 87672 87711 82065
1853.27 4185 9336-20593 12039-35359-78846
1856.17-28314-54211 14098-37647-93510-102987
1859.06-103921-129125-64330-107799-76504-129843
1861.95-162461-46543-143218-132410-150536-110404
1864.84-109843-45915-139962-91516-118023-123223
1867.74-102347-85209-100589-114339-67394-83980
1870.63-65386-118005-101199-101940-119583-11073
1873.52-74772-45167-35718 633-58994-79816
1876.41-48285-41167-63772-55437 6657-16942
1879.31-43899-44338-29568-43046-10252 27066
1882.20-50955 586-22415 15675 33206-55093
1885.09-29733 29379-29195-15981-21875-64849
1887.99-20069-87146-24887-63759 21840 49420
1890.88-22500-74456-20693-12436 9654-9376
1893.77-23797-55368-45531-10037 7107-23749
1896.66-35688-49069-24498-28479 6555 4675
1899.56 44977 6505-16955-36741 3997-16823
1902.45-78520 21358-3501-3876-12752 6831
1905.34-1241-38899-56468-49582 2971 20918
1908.23-322 4224-2179 11344-24500 26267
1911.13 2408-28381 21604-29281-20723-56649
1914.02-49378-3437-28011-33818-54086-21784
1916.91-10441-69956-41052 31380-10721-23404
1919.81-22390 12890 3784-20162-49261-4220
1922.70-18694 53182-15705 15019-353 19555
1925.59-25897 37501-39212 42447 16754-5841
1928.48-41323-10241 2381-36063-5070 3050
1931.38 2015-8008 38366-19866-37744-12274
1934.27-49655 59035 26343-40549 24845 21159
1937.16-44886-31119-10793 17894-43286 45235
1940.05-31987-35204-33237 598 19897 34349
1942.95-50937-43476 24752-38269-21828 64737
1945.84-66081 37161-54732-10471-37104 29560
1948.73-2773 10728-23968 35049 18287 42510
1951.63 15602-21771 39706 19365-42694 8538
1954.52-39130 27803 27507 1034-12248 13953
1957.41 18103-8397 23124-33845 12850 34094
1960.30 27757-1468 12774 15245-8255-36798
1963.20 28145 30214 24408 235-2715 64948
1966.09 27202 47566-35920 16694-13337 82791
1968.98-45661-8029-42634 39955 38010 41709
1971.87 32747 12737 54164 39398 99812 22295
1974.77-10155 5205-1363 22203-15956-11623
1977.66-20774 22176 33276 17391-56468 1858
1980.55 16454-32421 38536-53864 32896-15335
1983.45 26072 13584-24017 54059 17736 1664
1986.34 18951-1746 14462 13740-680 34343
1989.23 38929 33700-4031 1798-994-28197
1992.12-27 51993-7106 9831 96579-41970
1995.02-4103-30316 15515 19289 5250 48335
1997.91 70663 13336 11492 67745 11406 94609
2000.80 56146 61757 57311 17230 64671 88751
2003.69 25329 20665 49562 30319 23959 87337
2006.59 58520 110138 72524 79059 79189 50616
2009.48 76454 112396 28194 98264 79095 87466
2012.37 99115 77006 69621 46303 54516 94879
2015.27 95288 91974 22097 107315 55382 39823
2018.16 80599 96334 40394 80710 82022 57710
2021.05 76523 76931 50419-28383-21650 58450
2023.94 53745 3016 24318 18099 32019 69535
2026.84 70327 133115 79148 112048 48033 74012
2029.73 37294 14638 10340 15194 16501 50223
2032.62-8929 6563 40874 51453 33165-2185
2035.51 38629-7760 51037 82936-1912 58833
2038.41 83557-10613 17287 77789 22947 29656
2041.30 44712 8488 15431 48714-60544 65471
2044.19 36990 29891 40415 75282 63178-28847
2047.09 82025 25069 5948 43274 12807 34650
2049.98 45511-32460 92126 70862 88629 37626
2052.87 77310-587 27347-5968-12987 18305
2055.76 11822 40178 16057 85003-64717 10488
2058.66 60799-19435 71549 48117 53537 10202
2061.55-20672 22752-8248-10823 34441 17063
2064.44 84015 2323 19443 7287 34929 408
2067.33 9799 3714 9262 7380 4930-56517
2070.23 29102-51380-12869 75104 42934 48555
2073.12-40484-9020-1984-860-22008 52609
2076.01 4430 33171-45808-631 45816 18532
2078.91-60020-84093-3912-56348-50181-30871
2081.80 38080 31303-59936 80970 26191 37574
2084.69 29606 19371 13139-42100 15260 41662
2087.58-34012-33744 3547-45558-16120-48568
2090.48 468 3805 63889 81405-5737-8735
2093.37-49270 11741-11627 59041-4503 18563
2096.26 10800 57728 6129-28341-43351-27626
2099.15 36146 34183-25006-28687-49724-42993
2102.05 20741-15551-43157 30017-89749-19012
2104.94-7264-25415-5654 2166-23205-27547
2107.83 35363-9193 68674-52944 15231-4043
2110.73 66-42742-1267-38659-18389 16805
2113.62 9035 8413-42044-100257 37845-17319
2116.51-55629 27130-4719-20043-22335-68747
2119.40-41956 24335-14497-25113 32425-23706
2122.30-50923-37905-20858-45564-20545 10690
2125.19 22096 36482 33067-41706-39509 5492
2128.08-12415-17497-4743-36419 17218-17522
2130.97 15760-64355 6012-30451 85665-10879
2133.87-20164 18355-45808 21805 31095-40658
2136.76 21390 18240-42941-4014 20066 72005
2139.65-35908-3727 53091-16458-29381 34959
2142.55-14693 26755 6569-20090-5797-44390
2145.44-14931 31168 64462-47944 38913 73766
2148.33-40887-42885-38219-42175-29221-7948
2151.22 48250-24467-49673 13677-86032 28655
2154.12-60373-21549-94965-58002 16793-23995
2157.01-27072-56236-17458-30590-115811 25571
2159.90-9363-32159 31197-5978-18353 12368
2162.79 7704-15078-24957 15184-8096-28996
2165.69 31276 94770 85882 21199-16425 77236
2168.58 98500 35011 110237 124561 65379 128926
2171.47 136660 130028 137554 178257 159372 208191
2174.37 257453 294779 254051 272690 287889 343473
2177.26 367383 390944 457655 484155 387341 454303
2180.15 458910 502612 558416 542217 658482 608403
2183.04 644845 659663 686060 679530 807753 768892
2185.94 832377 879301 939986 875513 884347 834051
2188.83 1003219 975283 1018072 1040183 1137713 1134955
2191.72 1007716 1029670 1125781 1285920 1350978 1250729
2194.61 1191238 1185299 975508 969727 885975 818167
2197.51 835512 846948 921704 884338 935102 944969
2200.40 908543 991178 970265 973702 870251 829617
2203.29 747791 781108 752042 708637 629196 553516
2206.19 537590 457569 459669 476753 421886 327782
2209.08 354799 286483 316141 276124 249271 277063
2211.97 265558 302380 359514 246139 281040 220632
2214.86 282174 283035 301024 365152 344785 371028
2217.76 384492 392674 319497 432805 409678 426513
2220.65 446969 541202 520588 562067 531698 534733
2223.54 610314 603369 653168 738606 744663 816662
2226.43 867595 942555 856438 1012103 1059647 1058589
2229.33 1068308 1151715 1228988 1329466 1342874 1327560
2232.22 1489390 1467805 1484158 1614514 1604566 1666072
2235.11 1765436 1710967 1807459 1892513 1931066 1953347
2238.01 2039185 2027041 2031162 2081909 2211460 2187894
2240.90 2181741 2146974 2108631 2190126 2369837 2277313
2243.79 2526339 2416006 2646115 2905569 2749732 2179765
2246.68 2247778 2355541 2504246 2809185 4296907 5481231
2249.58 5471536 2549817 1153226 1669648 1537304 1498446
2252.47 1235846 1335697 1173302 1241521 1276407 1381164
2255.36 1303235 1411357 1376320 1317482 1244046 1250787
2258.25 1145890 1189864 1026815 1044000 980330 880058
2261.15 860707 858835 713903 639374 563461 495585
2264.04 443571 441991 415741 420247 354752 283255
2266.93 291541 329896 233387 213197 266683 212527
2269.83 189701 285490 235161 271744 219952 219299
2272.72 197190 241827 219229 222015 186374 274302
2275.61 251007 190882 263696 234975 253326 191447
2278.50 465909 279879 195211 194497 239302 185086
2281.40 258354 141843 209064 444644 22934 44972
2284.29 78921 82262 30456 83286 95946 105920
2287.18-2150-21048 77282 28019 94586 145199
2290.07 121149 90511 122241 184342 171617 140864
2292.97 186261 230944 167730 217228 207376 242612
2295.86 262681 262731 289126 379834 310044 370111
2298.75 357319 463210 398090 560898 512379 584743
2301.65 523616 539324 621185 673848 603163 610416
2304.54 628634 516415 537950 642376 646772 819680
2307.43 903276 1097666 1247664 1204194 928063 545744
2310.32 496066 613295 945910 1172983 1221957 1302065
2313.22 1092483 1054248 901962 941431 704074 659294
2316.11 758497 816778 664648 719033 722350 669453
2319.00 636220 680904 574695 528009 290672 426901
2321.89 627932 715770 649286 488052 436436 468566
2324.79 442687 318366 340445 350637 256468 187372
2327.68 190127 263826 161559 104038 238514 235083
2330.57 130061 65078 85550 131227 46840 8642
2333.47 65578 76560-18164-16531 71052-50717
2336.36-54459 4873 27804-110656-48099 7166
2339.25 9265-120418-72489 64419-107041-117057
2342.14 644-60712-173805-6698 24122-108030
2345.04-88467-47949-83959-10790-18318-91456
2347.93-134728-226-71422-104507-103967-91250
2350.82-1988-14493-15621-7420 4946-64181
2353.71 30934 15342-105364 64121 63363-40294
2356.61 73656 116243-48282 82203 53663-79222
2359.50 114290 82271-58123 138990-11251 81644
2362.39 171052 47274 75298 141457-30472 105753
2365.29-2241 29806 127308 37180 126049 16973
2368.18 56370 125552-75645 132739-16148 81597
2371.07 176228 13540 63730 10124 31853 72512
2373.96-23833-10226 12083 46965-62483 86593
2376.86 2726 13098-54124 44252-53216 33154
2379.75 48701 59139-4281-4178-497 34081
2382.64 57816 36274 13278 18197 7304 5113
2385.53-41298 3369 62519 32778 65315 60148
2388.43-52784 18084 33170 32965 7196-19220
2391.32-22950 87489 701 49126 52210 31032
2394.21-12903 40491 31524 74303 109587-54570
2397.11 76115 20344 29213 107385-37920 108875
2400.00 17892-4020 47693 57060 55334-49
2402.89-11511 73179 8682 5382 38777 1833
2405.78 37772 36193 43529 63622 51921-70221
2408.68 682-52890 76211 91836 74600 25483
2411.57 12780 35840-12686-19262 6203-3954
2414.46 32284 51584 95150 30149 45980-17031
2417.35 65638 38919-54317-18321 39795 103551
2420.25 43589 9688 26876 22013 32135 29146
2423.14-8300-13534-24777 31349-6779-56928
2426.03 8979 62055 25719 23571 43980-12480
2428.93 24552 97356 36712 20063 18874 38361
2431.82 54842-39291 55494 29396-4600-38262
2434.71 52722-30002 30680-15405-10287 37723
2437.60-14354-4719-55823 82154 8572 29423
2440.50 38173 42049 26465-7084 18446 37539
2443.39 43171 48891 47885 63530 11813 2447
2446.28-49414 87887 27331-60068 7494-15755
2449.17 114478 204 40932 57818-16501 8850
2452.07 39919 17878 7365 38409 12754-679
2454.96 62193-12223 46398-15147-13760 365
2457.85 21314 59152 27852 27051 41725 49226
2460.75 9160 88121 45449 1341 67846 58454
2463.64-55550-7274 59556-28203-8015 82223
2466.53 18788-7109 39501-12867-27802 3560
2469.42 660 90053 72570 4562 34243-31167
2472.32 81987 36525 48077 72575-60144 112093
2475.21 17605-24006 8902-43125 19268 60295
2478.10-24127-4195-41420-52610-29723 23024
2480.99-1561 7710-5814 12163-21639 17649
2483.89-74 20338 7821 8912-5025-3315
2486.78-47447 7907-33850 38070 48039 1526
2489.67 53147 11792 28289-59505-12921 12696
2492.57 16396-4273-14007-34014-18907-1353
2495.46 67440-15626 29279-2574 14105-20079
2498.35-28716-16137-54377 52354-4134-23615
2501.24-88508 66341-18192 84359 69109 40608
2504.14 44433 51121 35170 5109 39630 27884
2507.03-20950 63728 77811 60371 25664 61528
2509.92 65453 349 70281-104322 13685-3009
2512.81-31356-41368-22404 56679-1039-23832
2515.71-54367 15485 27546 61535 60308 66352
2518.60-38384 59704 51411 33688 59342 61733
2521.49-55900 45199 25971-10301 34106-30406
2524.39-62541-21395 40916 57058 37068-17173
2527.28-51053 37224 2795-32655 26390 33293
2530.17 19669 39484-8740 82474 41187 4070
2533.06 36345 7590 31616 49945-29418-39709
2535.96 31378 77757 37803-14659-13115 54855
2538.85-17515 90324 36946-1730-38183 2237
2541.74 101374 3447 107940 83827 47797-75704
2544.63 30389 74966-21801 7581-12719-15075
2547.53 10834 46891-28411 11982 4427-16864
2550.42-8777-24201 52255 37669 36157 23801
2553.31 25509 18160-16816-18568 38020 42193
2556.21 280 33919 18394 16767 22594 56141
2559.10-55020 20032-29876 66577-35325-8086
2561.99 6795 66665 38142 14054 57493-266
2564.88-9017 10668 58619 22039-4012 27007
2567.78 34609 13295 22717 66152 12279 47877
2570.67 21760 54174-16489 38657-36005 23068
2573.56 41078-44671 46904 31213 24489 30501
2576.45-16934 90083 39784-17742 19782 14764
2579.35 52241-55273 4975 10484 62461 22021
2582.24-6189 47459-83304-2686 36041-40224
2585.13 65951-28329 1079-1937 80348-11818
2588.03 104211 342 28167 38037-19956-47966
2590.92 38556-48324-4711 1216 18587-8940
2593.81 9944 9503 51642 26854 10238-6123
2596.70-24995-24612 29496 26500 31270 20862
2599.60 30373 56137-2030 105246 54575-4050
2602.49-20821-17655 6905-57875 17668 53798
2605.38-13771 37585-7996 24749-47212 52074
2608.27 32022 30289 36265 30411-31805 80847
2611.17 84752 56810-21985 647 4988 5662
2614.06 8645 15805 16532-27567 8527 18788
2616.95 45795-65592 3769 69319-54041 273
2619.85 56327 55496 18569 103960-26488-10179
2622.74-47327-51136-68868 33364 12551-7871
2625.63-191-6762 499-53966-10020-61208
2628.52-34217 30192-13916-36777 10627-38630
2631.42 69029 16718 25561 83876 16356 51132
2634.31 57523-10032 7637 27285-68082-5356
2637.20-16815 2566 3645 36312 44949-5035
2640.09 36118 12802 116498-44894 553-46615
2642.99-41433 104694-36292 48384-14903 10683
2645.88-99431-26860 77490-6602 74227-26897
2648.77 12340 62611 13302 50150-5599-79476
2651.67 47719-63653-77647 46084 424 10105
2654.56 3040 22993-38745 17195-102514 19844
2657.45 36848 46176-61213 38522 10388 9210
2660.34 59960-2214 44582-37576-37007-69549
2663.24 21322 21515-19933 11904-68074-7772
2666.13 18333-16682 2130 8351-22435 7907
2669.02-27129-11832-11733 30157-14356 10607
2671.91-51707 9846 22235-9456-14128 32752
2674.81 18746-12112 63300-7287 18205 25323
2677.70-48313-70948-51613-55179-30345 5804
2680.59-7383 25223 87224 50450-12635 32214
2683.49 50326 35644 15696-7161 5331-80636
2686.38-39511 63401-12324-8623 29577 21903
2689.27 20284-16419 19134-18730-11106 18572
2692.16 26866 50337 702 38099-54135-39990
2695.06-42588 30503 23009-55779-47749-40454
2697.95-32592-82135-92024-102442-88194-114063
2700.84-7753-25864 46094 37013-27229 110972
2703.73-17082-22650 103506 72409 56509 29705
2706.63-903 94960-18946 39550 127484 33718
2709.52 37459-17797 76154-11379 5866 51353
2712.41 2945 50050-61588 25152-46689-63451
2715.31-65980 45680 2813-117064-40590-3304
2718.20 72330-20400-27339 26995 8851-11057
2721.09 36438-6795 40628-784-91270 53281
2723.98 14686 24829-16027 21567 46762 26278
2726.88 21270-30907 30066-1292-16619-74448
2729.77-21335 23352-66926 28100-54789 34322
2732.66-48615-44182-56158-66289 52392-25498
2735.55-53409-12505 33138 16108 156569 36833
2738.45-54068 420 19931 28881-26155-14764
2741.34 34769-106225 8132-35573 38246-47608
2744.23-30997 7173 38084-9141-24001-138223
2747.12-52092 6232-25141-35258 73555-7636
2750.02 36826-30055-30156-30984 97468-32777
2752.91 54309-20992-23335-2384-40028-33419
2755.80 11236-28016 54226 36160-57349-80778
2758.70-35175 10353-21694-105027 41893-8621
2761.59 44035-56002 158359 24150 69383-64451
2764.48-37856-35719-101014-20087-62691-53387
2767.37-14259-48121-88010 14506-45153 3183
2770.27-56448 1557-58746 6077-44595-90975
2773.16-37868-7411-30699 66591 30162 62551
2776.05 39798 39594-66116-96944-6817-69715
2778.94-32681-54433 36356 3133-94784-2008
2781.84-13525-13188 29700-6742-96822 22309
2784.73-101392-139049 12687-64090-113981-47397
2787.62-56047 82599 38532-94197-158307-25267
2790.52 15607-36550-48112-15818-71494-12135
2793.41-64956-56697-94686-45174 63581-58881
2796.30-12285-111696-81979 20432-42042 44998
2799.19-44895-8765-97486-12658 54785-137273
2802.09-52805-21904 29080-49512-111540-19670
2804.98-54873 58490-17137-19864-86936 63987
2807.87-33291 25761-126820-124556 72031-26363
2810.76 22123-562-57115-52302-14936-37702
2813.66-36660-54229-53729-17019-57407-14572
2816.55-125815 18133-3827-21181 19133 41497
2819.44 9472-37167-91878-134814-42539 41796
2822.34-107618 32564-73484 43322-64296-32544
2825.23-13888-20444-59532-87825-11142-64572
2828.12-8662 101425 5957-11995-84705-173979
2831.01-48169-68626-66554-533-79268 31658
2833.91-41216-43113 12938-40428 17132-50677
2836.80-788-38914-74640 39832 1460-89218
2839.69-66489 19143-11525-17880-72042-36522
2842.58-37589-33931-20048 32350-29906-8586
2845.48-70361 27739-81995-15050-1272-30294
2848.37-16291-56131-56334-56744-73966-57874
2851.26 65916-48595-73100-116958-71367-25742
2854.16 43455-35875-47808-4199-15956 2086
2857.05-16521 10190 3585-25760 67485-60393
2859.94-66519-59517-122601-102343-4129-65458
2862.83-60262-17603 24372-64732-12508-67797
2865.73 102032 82451-11083-90755-6294-20739
2868.62-54402-82119 29212-2807 26529-104967
2871.51 69154-68215-101353-16987-57628-82436
2874.40-41062 8331-89012-82255 164359 12894
2877.30-22384-48308-13029-55237 7082-12881
2880.19-6735 11188-14051-37640 14258 10567
2883.08-19209-5497-79180-60561-124291-31484
2885.98-26878-50072-113148 90561-38250-83930
2888.87-94545-10393 101636 14270-88422-81270
2891.76-48770-73910 11813 30208 19855-38464
2894.65-71945-8992-74482-43078 45407-38090
2897.55-81847-29345 19737 80208-58682-56809
2900.44-13501 8216-6621 31155-21277-73568
2903.33-20047-17491-13626-95176 23896-7038
2906.22 32620-30390-20095 57484 8917-45373
2909.12-56051-75638-14537 6287-80089 5255
2912.01-26295 61735 22086 330-143284 203
2914.90 38077-32029-76689-58570 4946-54109
2917.80 14678-7288 43279-73039 27525-97980
2920.69-38745 62033 14533 83199-64162-52464
2923.58-41004-60395-56099 9673-81200-142663
2926.47-85139 37868 33338-62601-122102-76916
2929.37 25386 8255-52458 7026-25226-2887
2932.26-157738 10940-100436-9953-48958-64836
2935.15 59902-53363 39351 19140-11230-16141
2938.04-10915 25942-11798 12681 50170-38080
2940.94-14803-22868-52752-4533 24674-102646
2943.83-55598 32166 45331-65542-51363 1700
2946.72-34894-13446-26881-91981-31986 140802
2949.62 21171 84360-42696 57880 3118-107506
2952.51-1406-20158-47362-16724 32322-28799
2955.40 33221 7699-3023 3374-20004-38413
2958.29-41679-106632-6303-84551-30759-55269
2961.19-58220-94001-113174 118836-11392-114400
2964.08-113242-98385-39640-72762-26208 20011
2966.97-14516-26287-59768-25348-192961-45865
2969.86 27581-29861 101652 17508-30874-30069
2972.76-54114-115607-29756-28448 37422-97192
2975.65-86834 35060-32180 19415 5401 7484
2978.54-83226-64638-5606 482-44734-8394
2981.44-87309-91779-111106-59443 40337 26910
2984.33 17113-5-11153-59415 110507 19679
2987.22 1463 31809-91500-68762-12362-112927
2990.11-18581 40344 17794-74984 10089 25968
2993.01-3034 25230 40899-50683 1234-14124
2995.90-56315 9106-12412 50242 17576-5908
2998.79 2368 39391-10343 43502 13604-5217
3001.68-62660-90021-15625 27113 15291-131041
3004.58 11205-32437-41143-29188-101115-32638
3007.47-36905 4620-3238 97805-41054-17435
3010.36-46004 122276 2253-66359 25094-84272
3013.26-40976 70937-4939 57583-115482-2019
3016.15-26974-23807-79486-79386 65223-9956
3019.04-7001 18887 13028-13774 10986 10448
3021.93 76879 28204 69998-35637-2636 149
3024.83-53858-39075 24524 39599 2850 7621
3027.72 78654-94462 28565-33182 57372 3753
3030.61-11334 80235 27979-30270-9689 50446
3033.50-54663-75610-84147-51913-37686-25839
3036.40 67151-34820 32178 74078-70681-212965
3039.29 11158 102462-130594 38604 86235-54833
3042.18 58358-20521-41235 27234 34463-77432
3045.08-17515-63718-34572 59894 64518-92705
3047.97 53439 58951-17681 20044-10784-78227
3050.86-52498 16484-5316-54462 30980-14701
3053.75 114782 75806 30733-58778-27291-53593
3056.65-11790 38564-37062-23253 40673-92521
3059.54-52732-18818 52680-52050-157768-56274
3062.43 59537 2186 14193-101633-62522-82888
3065.32-62845-32660-133246 31682 35006-22599
3068.22-8267-3449 50465-103359-97148-28645
3071.11 97885-99654 3151-88187-116919-55050
3074.00-55155 55276 41015-47016 49953-18859
3076.90-32961-58083 11850-6750-44120-2385
3079.79 90462 81252-34773 60779-25304-47324
3082.68 14208 11513 11763-17898 82353 71948
3085.57-65026-38351 19936 30868-11824-117894
3088.47 11066-85417-71885-10428 105957 21488
3091.36 6972-34776 63326-56660 53282 49067
3094.25-16760-114056-137380-16935-48314 75865
3097.14-114309 26432 356-75561-21571-8132
3100.04 23554 46775-19872 46563-27896 4822
3102.93 36431 3122-65028 68320 14362-11985
3105.82 9221-71630 104414-47803 102132-25046
3108.72-6043-67137-51085-64952 29874-8156
3111.61-37773 37229-57477 79489 53838-55211
3114.50-22083 4536-36132-27431 6630 24168
3117.39-10222 15578-63401-45900-51170 35580
3120.29 31818 35216-30409 29944-5249 50059
3123.18-2579 19198 28556-27974 19000-27393
3126.07-37670 137054 2989-7844-23361-55363
3128.96-4500 14796-45301 142697 108500-63363
3131.86-30119 20504-165467 28134 126778 50939
3134.75 19588-16781 69857-14270-118691-52055
3137.64-21518 62772-6944-41874 134614-52849
3140.54 100019 101872-92339 3740 74164 29521
3143.43 10948-36986 1849-21296 43452-133173
3146.32-81987-40787 18384 29874 7037-10769
3149.21-29136 28614 13301 23371 85978-55646
3152.11-27539 34503-24472 138694-62095-85033
3155.00-56586 61377 84756 17789-84843-24011
3157.89 64949-92496 8904-6822-78078-76987
3160.78 21819-74735-63305 42810 108241-59452
3163.68-49447-44707 48468-36317-22135-82307
3166.57 12599-36923 97116 40550-30151 19851
3169.46 33608 39505-71325-23540 19909-41551
3172.36 57489 2706-599-33367-159099 40891
3175.25 49182 18125-116991-21784 16559 31319
3178.14 86302-46329 69338-12345 13115 10199
3181.03 1065-167362-16505-67935 3839-49044
3183.93-6607-89300-10378-26269-14607 102580
3186.82-98207 66609 42308-12617-2002-30581
3189.71-39383 8813-57403 20343-29697-68124
3192.60-136486-2404 48409 39610-51061-23435
3195.50-74617-82908-82922-67504 3044 42284
3198.39 9008-82494 14070-111535-67328 21985
3201.28 15222 124740 59747-61888-20988-76759
3204.18-55719 84111-113298-13660-12890-57291
3207.07 20359 13697-20598-65905-63709 60242
3209.96-18231 23267 10603-7770-76565-20982
3212.85 26535-49724-8936-35895-30858-137129
3215.75 5365 5850 8730-109800 41961-97038
3218.64-40054-7696 37135-87593-6231-6537
3221.53-153669-37827-44740-29602-89402 75931
3224.42-59672 52124-1552 19299-58945-15261
3227.32-93985-110278-128336-144437 43903 52081
3230.21 1598-127013 5009-98668 20812 25283
3233.10-97823 53662-11598 25642 124022-91128
3236.00 62898-39868-143272-22308-36771 80644
3238.89-129905-116497 113755 76315-96765-7816
3241.78-72496-150778 33171-69837 17400-107134
3244.67-120232-166207-54559-73927 99975-15758
3247.57 11741-14974 2034-24107-64433 39264
3250.46-67220-186708 115322-76231-46520-54762
3253.35-17664 15013-22264-54704-30900-2854
3256.24-54947-94560 64354 33183-16910-81710
3259.14-28902-93281-38443-33025 69038 23289
3262.03 18210-153507 28797-81697-72943 3942
3264.92 18257-104015-12734-46510 17377 20112
3267.82-110852 72119-31001 57999 68420-78876
3270.71-39718 33834-49537 85639-15292-46795
3273.60-27154 51472-38786 84462-31548 123460
3276.49-137901-78713-91051-86775 13146 181956
3279.39-50839 16535-27038-70815-128556 74772
3282.28 109443 11920 34960 39820 17903-55516
3285.17-1449-18538-27317 16252-45195-42753
3288.06-43195-22415 74979 59521-57913 47090
3290.96-114471 140556 15648-32603-32666 28960
3293.85-109625 12051 10196-11344 70158-30971
3296.74 16546-86920 68495 4289-98394 129313
3299.64 18931-55432-65025-48389-101378-20365
3302.53-1939-113054 33678-44549 52005-54733
3305.42 40997-78541 35900 132275-75963 5376
3308.31-21779-102153-39799 49849-130500 92416
3311.21 17622 46113-26711 44413 1364-116313
3314.10 58236 73162 37423 72360 76540-40850
3316.99 10731 159308 10240 11753 32825 27802
3319.88-62531-3733 136060-8534 72231 44415
3322.78 55055 8934 62529-33032 97080 61378
3325.67 45222 24107 65789 46273 67077 203400
3328.56 100164 65181-48488 104051-36863-73685
3331.46-133478-75071 51118-87995-44426 22414
3334.35-42901-42711 106180 7285 132296-8520
3337.24-33618-10348-162803-17095-13572 14410
3340.13-103819 18588-111435-91030 17559-11495
3343.03-79122-18816-50077-37456 31132-50736
3345.92 1230-51389-117292 122938-19453 88387
3348.81-26408-25629-134589-21869-43197-80609
3351.70 45678-46744-16610-99185 77516 7231
3354.60-67427-16230-44113 35089-156417 11936
3357.49 78513-62489-46950-21078-61591-104117
3360.38 56026 106895-68579 57074-42807 11137
3363.28-19129 48979 87139-1683-9986-127626
3366.17-83128-18010-59411 15764-77491-3422
3369.06 129395-138554-116344 27682 93579-138042
3371.95 77220-62538-62791 199632 5948-178000
3374.85-19292-58113 14880-77078-207185 54168
3377.74-38453-64144 178816 44912 13383-15930
3380.63 67007 92122-13640-28384 15960-16901
3383.52 79278 98653-107796 51342-21154 39466
3386.42 47977-140846-29609-2354-93997 125618
3389.31 72544 55654 115783 168673 186426 56400
3392.20 17639 21195-21675-80052-16337-47460
3395.10-18422-10556 85950 140329-32112-32249
3397.99-50386-40358 64445 20900-67166 82850
3400.88-95601 1707 3073-2623 62848-83732
3403.77-74366 42616-56108-16362-76582-55007
3406.67-12429 7179 58701-50139-157371-56326
3409.56-101153-129674-109817-95198-38825-84531
3412.45 83947-46409-120142 2457 95254-136790
3415.34-36017 69463-61405-20367-193176-36888
3418.24 71995 146221-84844-169488-96745 35144
3421.13-92009-63205-42569 23834-25438-41338
3424.02-69748 12587-41257 14350-24778 32642
3426.92 49188-97003-58885 45681-65799-4291
3429.81-155745-47885 97871 22105-39095-80807
3432.70 60924 19622-26175 62504-2729 56061
3435.59-87059-52240-57199-52880 24387-58480
3438.49 128411-5113-1902 70424 53736 12814
3441.38 79695 51058 1837 13728-56768-147793
3444.27 34070-24031-130121 89771 96593-57655
3447.16-102265 80308-39857 29118 83588 108553
3450.06 844 34622-82714 97095-117949-159256
3452.95-17523 164695 77789 25043 31133 4201
3455.84-29700 50237 98648-64800-7621 135903
3458.74-199518-49717 39854-22227-119654-87407
3461.63 51445 63407 70116 145209 25099-18866
3464.52 138452-110742 74430-108244-85231 34656
3467.41-19514 56139-10822 12245-101555 34726
3470.31-98973-57247 35472 43288 180829 57781
3473.20-28955-25844-110616 12281-61020-53511
3476.09 116634-10398-195316-95509-57215 6730
3478.98-35004 14580-27639-14343-51685-45683
3481.88-141644-98257 25760 3641 60647-130751
3484.77-42575 30392-34847-26553-108934-53328
3487.66-50057 10681 47226-58995-158873 50754
3490.56-10373-51920-13625-34296-47003 29541
3493.45 34039 77066-51360-99911-43914 5902
3496.34 45312 8057-54098-106387-21693-18472
3499.23 20326 123890 34043-155913 35214-216440
3502.13-14457 98490-1762 50111-51158-23508
3505.02 62365 8665-13866-121617-55036-24250
3507.91-94161-139542-6565-52942 6885 59308
3510.80-1194-11260-21165-91816 5270 33280
3513.70-33848 185536 70944-76308-40613-183978
3516.59-66973-85373-90248-34756-34487 72849
3519.48-92890 45431 74257 16448-6678-62288
3522.38-14609-14510-111762 63157-45353-1116
3525.27 34552-102357 48032-24188 31779 78797
3528.16-54772-47041-14199-107209-55877-104696
3531.05-40591-35879 51633 41004 7233 33846
3533.95 52935 65282-47274-73990-55712-131094
3536.84 60757 52219-5420 154166-65320 42972
3539.73 36024-81150-76655-82597-20522 9914
3542.62 99650 114921 61096 97663-919-53627
3545.52-79245-112276 19816 24855-137961-52086
3548.41 46409-21389-2957-45117 76467-38887
3551.30 34993-126350 78260-155842 52102-110745
3554.20 14052-16129-125444 4037 70825 31076
3557.09 19013 20175 79700 106603-3431-60437
3559.98 69462 23799 74947-83287 100789-1742
3562.87-3507 109961 35306 47514-31056 3531
3565.77-55435 4320 1298-89172 10360 96216
3568.66-101462-59005 43055 34036-112952 38012
3571.55 31575 27226 1014-70381 115691 101779
3574.44 16595 33162-42242 102705-9130 78275
3577.34 60873 13560-61182 67486-57936 129280
3580.23 32241-41441 173529-99480 1387 69389
3583.12 149622 33150 76480 3881-76138 223117
3586.02-56307 40900-64424 47238-26818 43679
3588.91-36821 35394-31976 21178 46881-1078
3591.80 94807 2192 19499 56712 89777 16364
3594.69 147398-22760-14351 64791 28658 9461
3597.59-44553 81942 53663 20045 2867 40437
3600.48-51867 73148-9845 26195 98250 81469
3603.37 27796 62265 44916 34336-3760 17560
3606.26 75944 110155 22034 64009 162554-15784
3609.16-66773 157916 68533-31856 98725 126167
3612.05-36938-15420 67711 84585 12451 166275
3614.94 79966 91751 64710 18851 29420-58991
3617.84 79351 24325 59126 41043 112806-164603
3620.73 77144 138852 61813-86631 59910 85986
3623.62 77459-37627 57260 59516-41600 56768
3626.51 120612 49294 6921-158511 15637-70339
3629.41-59 83084 72884 35556 79706 31227
3632.30 11894 31207 81290 1415 82595 53435
3635.19 8747 58758 45831 54927 28869 38713
3638.08 5506 47704 109449 47229 54078 120646
3640.98 31219-4817 34468 25063 40241 113644
3643.87 46094-86220 73276-82354 1793-34959
3646.76-55185 6091 70296 70826-137709 103164
3649.66 42700-22437 53650 48001 92711 68465
3652.55 22290-3748 16649 113795 59018-110677
3655.44-51895-128805 87011 35190-48207 50906
3658.33 30324 75801 82728 97004 64432 81209
3661.23 32980 58904 8110-14-26744 56977
3664.12 67520 88512 56233-43559 99573-53202
3667.01-1446 171403-22534-24661 13031 62404
3669.90-10182-186280 66300 54631 89643-26724
3672.80-52480-94070-64124-64739-38271-82027
3675.69-129861 154568-15607 1774-19757 7631
3678.58 68136 102775 59968 22946 112999 74191
3681.48-58277 61752-64021 19793 48998 141550
3684.37-37425 46954 99320-65998 171237 46986
3687.26 168234-221335-149983-18978 73086-9433
3690.15 5622-77864 58957 145648 20893-14541
3693.05 68836 11794-57086 36104 125910 27616
3695.94 1586-2474 182521 63499 48860 116251
3698.83-29943 95281 12070-8347 17054-128012
3701.72-90901 25492 117311-17673-3742 103287
3704.62 44699 30435 31445 46608 73631 86589
3707.51-80435 179126 75981 63825-71229 28694
3710.40-46892 7166 65563-183053 24987-22008
3713.30 64866-40772-32105-46917-8440 164529
3716.19-14179 100132 139763 64503-44858 35612
3719.08 101675 58482 49366-25197 39752-82639
3721.97 69233 92038-20665 68326 67631 116053
3724.87 461 99750-52898 62698 173208 14978
3727.76 46722 51085-17808 4806 59001 59643
3730.65 897 55589-65246 92913 10636 60078
3733.54 122299-59839-14892-42611 61184-89875
3736.44-54712 2536 81641 15159 15369 30339
3739.33-10100-32511 113430 47194-61115 90866
3742.22 58228-50254 33467-140640-194872-92957
3745.12 36432 114469 113295-10986-5289 36647
3748.01 91630-20935-265832-5696 56032-40515
3750.90 83415-127712-227965 33894 83633-13574
3753.79 18623 82388 86424-19665 66224-16946
3756.69-46907 78653 13018 33545 43805 100368
3759.58-30013 61458 142615-77917 97847-32329
3762.47 72401 127341 76110-46666 9773 38196
3765.36-82725-23364 58422-5407 11717 137041
3768.26 150173 149319-510 6393 102509 48870
3771.15 32995 148521 71023 51032 247422 3868
3774.04 73002-881-8841-46469-14992 118008
3776.94 70501 77339 2641 139867-73376 52146
3779.83 45751 18634 44709 84766 141434 21853
3782.72-79636 4461 93352-118943 25450 23621
3785.61-19074 122359 20176 52225-52191 114546
3788.51 22138 49417 27849 43358 80865 23657
3791.40 6260 135844 136527 70327 77046 49786
3794.29-6304 66029 145396 96559 72813 113411
3797.18 52089 68909 98718-24494-17627-31736
3800.08 86672-12840-249787 108756 123043 173906
3802.97-12234-2893 35 73142 108485 63656
3805.86 101333-157354-70695-7055 63003-5409
3808.76-40547 24102-3534 52117 137117-5975
3811.65 151505-61930-32638 100717-11402 64787
3814.54 3977-11863-202231-171532 50785 109980
3817.43-14104 69658 119413-94749-9501-2801
3820.33-53710 52621-5372 138027 64124 129033
3823.22-13026 34039-32570 31743 36813 72104
3826.11-63805 182709 40605 37398 58685 33922
3829.00 17135 3031 71362 24034-75203-73595
3831.90 103066 46154 3166-7525 2317-77864
3834.79-99952 21748 14203 87300 89126-278540
3837.68-118819-5573 78570 22332 68724 31172
3840.58-44950 108771 53090 91205-15624-42092
3843.47-19948 203617 46532 67566-82921 88951
3846.36 18157-23756-4844-55742-21449 37680
3849.25 65154 2077 4332 96748-36619-194492
3852.15 74503-59488 10277-304729-266732-4625
3855.04 49323 26163 53477 127432 76856 82125
3857.93 59278 73213 136181 26112 59841 18665
3860.82-35436-52285 32063 155032 296 2347
3863.72 32896 24292-9203 63502 58313-6484
3866.61 41891 67041-101610 31660-199312-37066
3869.50-115555 19672 9804-29688 73505 45546
3872.40 49738 28520-36275-27734 42880-15330
3875.29 107112 18121 48854 10899 6797 86478
3878.18-4604-57931 31143-95192-62502 104614
3881.07-48673 27015 104960 96893-51435-1838
3883.97-62840 35836-12962-16853 67240 68641
3886.86 51568 46671 114012 48189 45281-74513
3889.75 11161-56228-59874-54097-55763-7727
3892.64 164608-97087 39070-20354-76007 29531
3895.54-27894 121207 30703 164305 35781-90035
3898.43 32693-64931 19410 90703 87347-3162
3901.32-43299-95194 92194 92347-8062-78279
3904.22-116281 61015-78307-50224 95875 35712
3907.11 2905 127763-57395 60068 12428 81026
3910.00 27971 44900 13190 94678 42614 41461
3912.89 2666-4662 82490 50037 68323-26872
3915.79 5788 29515 6055-33385 163427 1206
3918.68-64504-60859-78602 57582 16559-20517
3921.57 44233 40938-91459 1954 18842-15839
3924.46 69723-22542 60015 341-20832 136124
3927.36 90832 121486 101439 1973 61639 6607
3930.25 3021 26147 75873-56943-39215 47306
3933.14 65737-9866 30988 57352 133831 113373
3936.04 50779 11041 139093 55507 8506 44046
3938.93 100148 7265 94219 104688 30330-16537
3941.82-714 72343 50887 13172 141569 5827
3944.71 75040 56545-74051 72490 6440 56724
3947.61-36664-19980 105267 46165-16935 53433
3950.50 126205 71850-41052-9649 77719-45886
3953.39 55118 25360 73899 105963 9913-34072
3956.28 87718 42447 38223-5637 48827 43065
3959.18-34969 16182 8580 113098 109671-17753
3962.07 126648-22929 83185-21456 75948-148119
3964.96 30329-91259 59472 46276 23314 138941
3967.86 47925 10038 14579 14970 38967 6687
3970.75 31710 2423 60841 30016 54468-53014
3973.64-132090 58779
##END=
