##TITLE=Dichlorodifluoromethane
##JCAMP-DX=4.24
##DATA TYPE=INFRARED SPECTRUM
##CLASS=IUPAC A
##ORIGIN=NIST, Analytical Chemistry Division, 301-975-3108
##OWNER=COPYRIGHT (C) 2001 by the U.S. Secretary of Commerce
##DATE=01/06/01
##$SPECTRA VERSION=1.10
##$UNCERTAINTY IN Y=2.1 % relative (B=1.11E-04,C=1.83E-9,D=7.56E-14)
##CAS NAME=Dichlorodifluoromethane
##CAS REGISTRY NO=75-71-8
##MOLFORM=C Cl2 F2
##MP=-158 C
##BP=-29.8 C
##$NIST SOURCE=QUANT-IR
##SPECTROMETER/DATA SYSTEM=IFS66V (Bruker)
##INSTRUMENT PARAMETERS=KBr Beam Splitter; MCT Detector; Multipass cell
##STATE=gas
##SAMPLE DESCRIPTION=Dichlorodifluoromethane Primary Gas Standard
##PRESSURE=101.3 Pa
##TEMPERATURE=23 C
##SAMPLING PROCEDURE=1 L/min Flow
##RESOLUTION=0.9640
##DATA PROCESSING=3-Term B-H Apodization
##XUNITS=cm-1
##YUNITS=(micromol/mol)-1m-1 (base 10)
##XFACTOR=1.0
##YFACTOR=3.6379E-12
##DELTAX=0.4820
##FIRSTX=575.17
##LASTX=3974.605
##FIRSTY=-2.53E-06
##MAXX=3974.12
##MINX=575.17
##MAXY=.0036736
##MINY=-2.81E-06
##NPOINTS=7052
##XYDATA=(X++(Y..Y))
575.17-697901-386235-10223 101789-40602-306286
577.58-454534-335370-169597-155213-174805 16975
580.47 269878 583835 425332-230643-434659 34722
583.37 184647-472577-643055-6802 9807-635174
586.26-773745-433998-126129-10570 117037 377277
589.15 646197 587904 128228-261257-358534-422423
592.04-700132-759609-302124 139613 107723-347666
594.94-630471-507172-108401 204001 267711 340715
597.83 137975-69606 55191 165242 160470 34530
600.72-150675-241256-235006-89389-58610-202350
603.62-98229 147539 206837-34824-368029-510037
606.51-521251-524684-427362-195319 5030 38369
609.40 65923 122760 131720 49647-84794 5281
612.29 140888 99772 12774-102662-198726-154610
615.19 19429 18250-160724-288191-483977-605993
618.08-459214-262622-202193-221010-225239-182125
620.97-65549 28690-32614-58281 139524 235606
623.86 72161-248299-459473-347056-196889-126994
626.76-70722-78148-130389-123707 61786 137205
629.65 100533 223365 211437-56368-200394-91069
632.54-36134-48637 143780 316454 238886 103012
635.44-43856-18407 201466 229465 151643 129526
638.33 179753 366761 480634 360719 236321 265546
641.22 331313 449204 823901 1166107 1200077 1077457
644.11 1025504 1176199 1490042 1756576 1920932 2113005
647.01 2303604 2518279 2876280 3275515 3618280 4013275
649.90 4515034 5029422 5328482 5525928 5914790 6472986
652.79 7098393 7543863 7942298 8587297 9177412 9536862
655.68 9994513 10610598 10980023 11117681 11466778 11890972
658.58 12177358 12409910 12572794 12942143 13545035 14160060
661.47 15038212 16070921 17097661 18369513 19681799 20626144
664.36 21020657 20673093 19679171 18242888 16574771 15415544
667.26 15488824 16947975 19372467 21645008 22617986 21982560
670.15 20429011 18741304 17268172 16213769 15449190 14954512
673.04 14781859 14814026 15026594 15324344 15490955 15423726
675.93 15273480 15129951 14855634 14447072 13923029 13372075
678.83 12749516 11866933 10961261 10168978 9379745 8546563
681.72 7807363 7153508 6414679 5691701 5052460 4534009
684.61 4156422 3753239 3198033 2669028 2362070 2115283
687.50 1833154 1594473 1390826 1196649 975853 801875
690.40 726127 689186 597403 482396 434603 420863
693.29 294337 128716 158316 274025 234082 57949
696.18-54574 76843 119900-122437-153495 49149
699.08 157927 173485 224310 262686 128828-58905
701.97-108960-29370 68206 27616-25201 98616
704.86 240391 254210 211932 221909 215666 194037
707.75 171000 179390 309515 343773 164907 37247
710.65 94847 135277 107405 177258 218691 202974
713.54 266203 326678 382690 447547 413813 236870
716.43 112890 109810 96545 104216 242741 369021
719.32 388945 456488 529561 451282 334236 300803
722.22 323102 261672 169348 183517 218088 268255
725.11 333610 343790 330728 260383 143369 176859
728.00 291082 281800 202054 166821 210280 286617
730.90 355324 396636 364783 337988 349521 287056
733.79 139524 35259 9452 11545 50217 48059
736.68 277 65737 135870 92296 78243 127580
739.57 159448 214586 289336 301044 289572 181425
742.47-7448-16318 102924 128844 174476 285352
745.36 304508 268624 256109 280368 321139 326131
748.25 355241 448058 478558 423875 388159 388825
751.14 375077 386116 385687 388288 544810 630290
754.04 454390 316755 357817 402148 337575 277175
756.93 271756 245305 224819 265632 329403 320054
759.82 262948 267728 337935 352871 323996 310785
762.72 291999 306726 297890 194539 171846 232667
765.61 283646 343192 304365 166840 156274 250039
768.50 228631 174609 146563 82624 9486-30024
771.39-32480 11148 41256-7648-81561-98310
774.29-85369-46167 52864 32788-106839-147555
777.18-135472-87914-26685 30341 150782 213143
780.07 101494-73558-95576-22316-89270-171464
782.96-154682-94679 83785 225907 100621-35265
785.86 34731 93549-50045-222279-255893-167068
788.75-120829-190969-265945-279296-187496-48180
791.64-64221-218085-279121-213698-170852-166252
794.54-172881-223337-183936-130557-119840-62307
797.43-83551-97727-49921-50792-181200-257333
800.32-149442-72215-87655-83560-36277-9237
803.21-114167-269885-288321-195694-123782-145983
806.11-196582-253433-316505-242655-95864-12829
809.00-48027-218215-307713-149392-73570-192558
811.89-227440-172222-159841-185510-152284-65828
814.78-54390-179509-281300-224332-96260 75233
817.68 203394 99794-96801-137586-35426 57312
820.57 10420-52589 23262 163988 211457 114110
823.46 63151 140499 192356 232186 262344 331199
826.36 541007 732765 765941 725608 749885 886673
829.25 986571 945123 799107 811248 991225 1117983
832.14 1160524 1057912 856257 821551 955818 997466
835.03 906741 925873 1104321 1231808 1246739 1325663
837.93 1509543 1687919 2042356 2480139 2615365 2472492
840.82 2171957 1840269 1630681 1538304 1544287 1703433
843.71 1835382 1928338 2057457 2188932 2308506 2460262
846.60 2648217 2810427 2969495 3170094 3437293 3675416
849.50 3811341 3937897 4084883 4362830 4734708 5078537
852.39 5373813 5679141 6098011 6601867 7124790 7629804
855.28 8166044 8779129 9420336 10089308 10805760 11631693
858.18 12504582 13321976 14162189 15182027 16464199 17861451
861.07 19107753 20288974 21582530 23075858 24778623 26559344
863.96 28336623 30205634 32078650 33916497 35952789 38229012
866.85 40579829 43079835 45785428 48511477 51064957 53613915
869.75 56330575 59200934 62304682 65663007 68963466 72095861
872.64 75048226 78142540 81786304 85504368 89105768 93330632
875.53 98163880 103092475 107141211 109463794 110601864 110588931
878.42 109607329 108872107 109258067 111314989 115386532 120735793
881.32 126880710 134005761 140341924 143901968 141128060 130858701
884.21 118184026 109173762 107057845 111381437 118699798 127461355
887.10 138419221 151920414 162926951 158047347 139313442 125331740
889.99 124886953 132648279 137492333 132286697 120737546 110892595
892.89 105338401 102224856 99958332 97885375 95688485 93393917
895.78 90939133 88313375 85799737 83643388 81741776 80203517
898.67 79213563 78476022 77989255 78336363 79843785 82497936
901.57 86135275 90771686 96478172 103292038 111262570 120423137
904.46 130187805 140570544 152395799 165894855 180849339 197265684
907.35 215220688 234856483 255792167 277289356 299483713 322125248
910.24 343697365 363677002 382106977 398340337 412045040 423942057
913.14 433406593 438279649 439365744 440101611 438474648 429853301
916.03 421157398 424285199 430733497 424909678 430597904 480024926
918.92 531934733 533517970 562757286 700628372 821633467 807036275
921.81 812583656 852541383 683710752 449744925 382353734 390892736
924.71 407672965 444168957 474319262 485604225 498313768 518826321
927.60 540194009 556028090 563654337 564076565 557336572 542801929
930.49 521087738 492769654 458956213 421185662 381116427 340045144
933.39 299174237 259435083 221971071 187494145 156396717 128852536
936.28 105008896 84712659 67649307 53555114 42314266 33324701
939.17 26048367 20256720 15799494 12350797 9725538 7620748
942.06 5963503 4728220 3784359 2998213 2407445 1937780
944.96 1547256 1241415 1073646 939982 842659 758087
947.85 672486 604707 560961 475218 441137 456066
950.74 465801 408897 341786 256498 201980 250209
953.63 322127 273638 185496 118815 112887 97545
956.53 122504 220403 308613 307204 274826 205174
959.42 153320 99222 30156-18424-4108 62869
962.31 114838 70487 12269-26234-44426-37769
965.21 2286 45425 71788 42455-17839-56518
968.10-26746-26560-59550-87114-74687-9280
970.99 18621-87450-172813-203258-203982-139648
973.88-46764 59 16371-31478-125457-137240
976.78-39906-35311-90083-90751-50777-39763
979.67-40765-50753-98138-166292-158741-108712
982.56-96642-118001-99638-66122-15783 13161
985.45 14634-7749-26009-11719 50457 76212
988.35 43965-32902-99320-104356-90399-128290
991.24-153382-153117-146483-148760-147319-160360
994.13-173340-186243-185651-173242-145024-114556
997.03-91221-89823-104446-158651-177146-173441
999.92-149642-93904-93274-174848-210376-198617
1002.81-196318-181000-121236-124362-118528-84231
1005.70-115806-178229-187954-186940-172291-168463
1008.60-165853-168058-171512-174609-215939-263754
1011.49-221915-189099-220428-253947-244443-227719
1014.38-188236-146955-148862-203598-194903-125773
1017.27-164815-247196-183712-90998-100542-130949
1020.17-109863-87281-103257-144184-169798-203529
1023.06-182463-168107-215133-249903-206998-113198
1025.95-39373-31033-26825 7461 45650 34185
1028.85 15956 6466 443-57559-111279-64223
1031.74 32333 71055 86831 65327-19638-87865
1034.63-40932 44256 40893-19599-29692-17375
1037.52 14106 47429 22020-15078-4353-14940
1040.42 43807 178683 188763 71144 37822 58394
1043.31 112069 215528 270073 279001 322303 317172
1046.20 270115 276130 341982 370173 347656 298779
1049.09 349701 475571 559765 599873 609709 625554
1051.99 743168 903211 1040541 1093040 1115761 1235121
1054.88 1421520 1495199 1572262 1801628 2038910 2198364
1057.77 2339289 2474297 2695850 2979953 3271997 3507567
1060.67 3693585 3930857 4212253 4473284 4773770 5077593
1063.56 5397125 5798159 6205939 6552741 6981834 7541799
1066.45 8157922 8707332 9268674 10032920 10998351 12042873
1069.34 13111016 14184366 15353746 16638988 18042247 19568007
1072.24 21233652 23131076 25582161 28802242 32399833 35590987
1075.13 38151340 40337191 42474675 45235379 49217491 54041366
1078.02 59227597 64778666 70817430 77313028 84227860 91526163
1080.91 99351066 107724042 116450304 125565323 135297536 145531283
1083.81 156138702 167059209 178346774 190024323 201911740 213915394
1086.70 226016586 238027062 249979378 261979154 273873494 285393141
1089.59 296516997 306906392 316218030 324697487 332793668 340680933
1092.49 348590139 356592600 364704360 373148958 382008045 391869728
1095.38 403256209 415428702 429056301 443432869 452517087 453518508
1098.27 454445961 461375281 465931657 458310866 446301082 459633586
1101.16 514226037 569814352 578122254 546008352 505584495 462400672
1104.06 415607990 381172530 364826802 361945172 365613371 367793899
1106.95 366818558 365578170 365617932 365846133 364503562 360832139
1109.84 354677813 346151485 335718375 323697947 310190780 295307118
1112.73 279451385 263161210 246527540 229712043 213260038 197493062
1115.63 182630588 168899198 156105804 144129820 132886555 121979017
1118.52 111731024 103355254 97540251 94162536 93047175 93117760
1121.41 92242178 89433754 84896726 79095703 74070310 72589638
1124.31 75936415 82638114 88533310 89872241 85874942 77924762
1127.20 68575170 61329832 59769439 65609283 74550453 77083536
1130.09 72262670 67056885 63514450 60885969 59164616 58293099
1132.98 58107854 58367485 58955439 59855198 61048059 62591182
1135.88 64525768 66789833 69406326 72533150 76217243 80425186
1138.77 85295077 90874532 97091745 103943844 111442875 119614998
1141.66 128515920 138028169 147923592 158085815 168519955 179225306
1144.55 190036906 200517425 210353593 219839368 229218193 237572260
1147.45 244032693 249275423 254477020 259540140 261607726 259131337
1150.34 255198360 252149920 249722047 248296241 247240598 243664484
1153.23 240507304 240706238 246134823 261073893 272836387 278101602
1156.13 289725305 305807894 360893324 438625166 438605620 379136507
1159.02 324150180 402745709 786452179 1009817404 636163539 252919312
1161.91 173857575 177546026 179918735 177826324 174203410 171145429
1164.80 169280849 168571247 168538072 168913204 169272753 169343929
1167.70 168930734 167981158 166153472 163429027 159836833 155442927
1170.59 150341285 144614372 138237904 131403244 124121091 116667663
1173.48 109182203 101622124 93955352 86438006 79193950 72150511
1176.37 65284743 58805650 52722279 47109830 41949271 37164099
1179.27 32716753 28704441 25138426 21987240 19156658 16637487
1182.16 14403568 12460812 10787710 9387002 8147947 7046922
1185.05 6098804 5303171 4646927 4144080 3706705 3368831
1187.95 3165595 3030410 2815805 2554598 2358411 2283467
1190.84 2221325 2191291 2197248 2199436 2197604 2209416
1193.73 2226099 2222841 2136501 2040841 1974962 1952331
1196.62 1970853 2007637 2037701 2123406 2205279 2268745
1199.52 2406148 2554323 2591435 2628902 2555547 2199776
1202.41 1801763 1671681 1716931 1747158 1760945 1881339
1205.30 2069177 2252076 2386858 2487277 2570356 2530946
1208.19 2135234 1578224 1301679 1301502 1331274 1322100
1211.09 1301690 1281415 1264633 1283066 1295000 1268799
1213.98 1209728 1205181 1238181 1229484 1173386 1155556
1216.87 1211696 1269701 1264577 1269189 1309510 1324983
1219.77 1299252 1310920 1338851 1377517 1491083 1639334
1222.66 1715162 1776789 1887724 2014851 2038219 2053297
1225.55 2158140 2290163 2450110 2606198 2693303 2763274
1228.44 2862717 2915144 2878773 2840120 2861723 2967236
1231.34 3121607 3256856 3320256 3317470 3312207 3329613
1234.23 3374889 3523816 3704493 3891898 4092612 4273926
1237.12 4474726 4721091 5013408 5335495 5605676 5850056
1240.01 6121317 6302611 6199999 5906245 5704630 5592045
1242.91 5249032 4422671 3447589 2953452 2890970 2913041
1245.80 2805730 2590398 2472360 2469783 2421066 2364074
1248.69 2393907 2430825 2457229 2512756 2519196 2437955
1251.59 2337029 2250918 2182117 2112649 1996110 1889541
1254.48 1803701 1669887 1481963 1320053 1199173 1056532
1257.37 914858 819777 726960 644406 556374 445691
1260.26 358300 305388 235139 150956 74745 32588
1263.16 56493 83561 23551-81948-131475-122280
1266.05-107228-59639-29995-32790-11877 24834
1268.94 5712-70765-105264-69221-35557-38923
1271.83-36112-5734-266-19604-69684-135980
1274.73-160042-143439-136034-115327-81809-90946
1277.62-118597-81595-23226-9419-24483-58338
1280.51-82456-50739 5332 33443 5868-20043
1283.41 6047-12710-97367-92462-33295-28329
1286.30-31089-10131 29712 63081 27198-23558
1289.19-31457-1335 40968 73354 63687 32044
1292.08 14493 19486 57770 124714 120485 79341
1294.98 94719 103152 91339 123009 156727 133335
1297.87 121530 156866 166899 151629 126787 125017
1300.76 162295 185194 148541 148477 210695 191947
1303.65 118443 147316 210692 226791 247570 279710
1306.55 279243 246987 217069 242525 283047 305171
1309.44 343368 364731 346726 355022 393665 397463
1312.33 360182 304074 256700 286330 368668 423113
1315.23 438007 462114 500410 519709 513751 502524
1318.12 480624 441360 386884 338191 346505 432839
1321.01 508652 537225 587503 623373 568409 539316
1323.90 610110 631578 582238 585680 633855 675200
1326.80 692157 671893 615085 578531 598057 624070
1329.69 632388 644049 648093 677804 764914 853983
1332.58 842483 750264 704203 719320 758496 782090
1335.47 770339 767979 765192 727529 694540 727868
1338.37 813451 853996 824393 821677 908743 1001914
1341.26 1035447 1031665 1022955 1022282 1033260 1071086
1344.15 1113382 1152968 1227308 1303928 1280399 1172811
1347.05 1074731 1052036 1119022 1179592 1078252 884911
1349.94 859957 942311 872492 691241 640957 739385
1352.83 826144 882630 1010320 1201138 1373828 1518993
1355.72 1641607 1654224 1485688 1430422 1514441 1414310
1358.62 1328580 1323341 1185610 1052710 1079190 1204296
1361.51 1409913 1580357 1510234 1314843 1266408 1364273
1364.40 1449033 1522240 1595561 1644417 1649254 1587701
1367.29 1501436 1515168 1618816 1731288 1796358 1736630
1370.19 1622969 1650752 1780634 1793727 1806382 1921620
1373.08 1973565 2000544 2056068 2094960 2091268 2024876
1375.97 1903462 1798955 1840950 1981966 2023939 1935126
1378.87 1870980 1981968 2198513 2198696 1997285 1912215
1381.76 1939321 1948335 1901302 1890314 2060506 2364523
1384.65 2549578 2495543 2320110 2079038 1816934 1670293
1387.54 1652877 1668904 1649501 1564836 1445894 1390069
1390.44 1379635 1327720 1269001 1211348 1133392 1095424
1393.33 1049623 992269 945804 783885 534456 418163
1396.22 438811 450426 424774 382684 316601 278885
1399.11 267121 216928 204506 239528 185774 78615
1402.01 14257 12016 49539 85875 76929 45927
1404.90 69768 117444 126997 142783 142748 100474
1407.79 72110 82124 90949 55863 21474 60143
1410.69 71629-3963-36012 27717 71201 30005
1413.58-350 37316 46689 2707-37669-35193
1416.47-7922 12010 42998 71459-2295-95768
1419.36-41757 4448-50985-58580-18519 5707
1422.26 20198 30140 23858-1648-22522-19876
1425.15 3200 24476-4701-48791-24849 19657
1428.04 21987-9145-60826-66753-34483-25954
1430.93-35936-31567-10795-25997-53982-47470
1433.83-1390 37952 16342-38311-126170-213985
1436.72-198236-96304-28373-30993-29551-12162
1439.61-21435-55745-104189-112053-70882-34379
1442.51 494 13856-6823-17263-49503-120619
1445.40-137375-84188-64759-98778-122968-108442
1448.29-61346-14649-11580-39422-71576-108161
1451.18-138942-148670-121984-65977-18283 12364
1454.08 19559-22001-75117-166516-328466-307527
1456.97-116592-79719-113197-62562-9314 4982
1459.86 12342 45000 80053 105585 97973 90275
1462.75 127631 152264 85464 15159 71841 162371
1465.65 200078 224818 244389 275152 316024 340821
1468.54 317529 254492 233451 268403 270001 186412
1471.43 109126 128706 129931 84658 170474 287740
1474.33 305343 302128 266168 248420 332749 402191
1477.22 403156 436849 492563 515936 628741 646178
1480.11 419454 246425 238368 264680 236031 209426
1483.00 234596 279491 299490 299000 275039 223240
1485.90 172563 114033 79033 124486 166021 154102
1488.79 129181 94888 43260-3114-13758-6446
1491.68-2637 21286 51062 46441 17547-9575
1494.57-34067-138341-303929-300050-177883-116381
1497.47-93499-117102-145129-115539-68626-48657
1500.36-81653-94480-33911 14157 949-37691
1503.25-62872-76573-144599-291862-359096-312172
1506.15-339780-298280-126041-71013-117548-133300
1509.04-113779-76025-14176 41022 20788-37409
1511.93-45928-16074 21236 73890 75650 16666
1514.82-28347-27095-25421-48905-95601-70107
1517.72 50853 122091 132105 128567 76526-54290
1520.61-182776-119714-4484 22062 77945 134180
1523.50 143612 115724 49214 52333 163904 248849
1526.39 240044 225007 258793 261817 236118 204405
1529.29 153160 140921 170842 195770 220207 220649
1532.18 176415 105108 52791 90318 155269 188045
1535.07 248599 309755 281901 204097 145356 112099
1537.97 13421-137709-156932-135627-125246-19882
1540.86 32718-12444-649 47279 51744 87300
1543.75 154956 145716 72400 59650 93569 102210
1546.64 114512 144634 168523 180968 177986 189141
1549.54 189767 172404 161057 166178 180847 173592
1552.43 166104 170097 142959 94865 109120 137698
1555.32 128026 107801 71161 9827-43023-114753
1558.21-101841 14445-7836-95628-5342 164861
1561.11 218699 172184 128824 122795 141325 182391
1564.00 209955 218534 190894 137339 164093 265924
1566.89 324681 324743 310467 323754 326574 292412
1569.79 331822 438886 511121 531950 525477 544136
1572.68 584713 634143 667253 665102 639189 558402
1575.57 476052 564201 765784 887895 922967 961719
1578.46 1011650 1047121 1082367 1151748 1219491 1205629
1581.36 1172179 1205994 1260182 1278261 1288102 1324054
1584.25 1360184 1307803 1186277 1232122 1540286 1876961
1587.14 1817704 1427509 1363040 1721890 1996327 1759161
1590.03 1277204 1075879 1098783 1172753 1274323 1349709
1592.93 1376925 1376524 1344920 1309339 1286026 1270789
1595.82 1243974 1182673 1100516 1065406 1072287 1011787
1598.71 897195 807245 711431 590141 485624 403355
1601.61 335442 286440 242809 197046 165129 141117
1604.50 108254 91081 50787-1986-30657-39410
1607.39-36181-47107-60392-33625 33923 86401
1610.28 59379-31374-82347-66138-34788-32946
1613.18-76379-95898-90279-97739-123817-219002
1616.07-341840-286234-115157-30078-8859-8433
1618.96-26712-49835-54262-21935-18652-68637
1621.85-107780-122404-150568-130251-76738-86980
1624.75-101292-81663-53064-42580-84211-140483
1627.64-114676-56396-37302-18807-10021-44942
1630.53-94639-98036-64258-26536-4198-7632
1633.43-25714-94404-245502-372182-310401-140394
1636.32-111536-160828-137572-105092-118846-98195
1639.21-47703-39092-30460-7738-12613-28853
1642.10-23754 583-7115-46578-54702-71751
1645.00-177753-271962-216883-121644-86760-104979
1647.89-136373-102965-46927-18877-62492-113744
1650.78-113876-209282-411878-515807-479861-346163
1653.67-206776-114945-32359 11309 3788-24639
1656.57-54065-48806-26296-61319-69693-32553
1659.46-64942-98903-66858-25252-37429-125373
1662.35-199043-147921-68589-55327-65819-62369
1665.25-54545-57004-51481-19266-4364-46804
1668.14-129171-192032-149837-61660-6906-5796
1671.03-55137-80969-65714-40921-44046-59910
1673.92-97497-208214-268847-179705-74698-34941
1676.82-30598-47061-53365-47718-50666-64451
1679.71-78574-62644-32588-48018-111453-167698
1682.60-196823-200778-284377-467338-447800-208528
1685.49-63860-31273-27279-41351-73661-110128
1688.39-116559-82283-53220-41783-56880-90719
1691.28-93829-83665-98871-111516-112360-109107
1694.17-102130-207634-415292-414265-205208-98159
1697.07-90075-93918-111878-152303-258508-382943
1699.96-403443-299843-158158-71345-47281-78848
1702.85-105396-108165-106122-81094-52935-54518
1705.74-95038-111261-83986-55517-42069-48736
1708.64-61214-71121-56335-39752-79861-94496
1711.53-64502-58688-54774-60718-84651-113630
1714.42-144714-126961-85579-98099-231802-398269
1717.31-360585-234714-197193-153489-75601-33141
1720.21-14771 3252-9956-16282-10129-19310
1723.10-18296 1527 1924-32562-53682-37065
1725.99 11025 36172 9732-21573-27285-27143
1728.89-47295-38998 23435 46816 35896 29913
1731.78 11326-44927-147311-181981-197154-178433
1734.67-38671 39607 8945 18923 61654 49548
1737.56 28373 44738 35517-42319-55580 54329
1740.46 122865 140532 184216 232129 250159 250655
1743.35 278513 314279 339181 370259 390197 408501
1746.24 439568 438147 414404 412940 454744 524742
1749.13 548639 548997 550918 519570 525564 593139
1752.03 651510 658186 629760 642736 686965 732718
1754.92 790165 818328 794954 770614 779223 800689
1757.81 828512 844986 848727 875142 902653 888812
1760.71 848873 815089 836046 854333 825014 823496
1763.60 866054 905831 885858 793913 666159 558322
1766.49 528588 538434 502127 512546 592458 635536
1769.38 624658 602706 546944 443473 372991 310493
1772.28 313689 438547 519197 484845 407411 364205
1775.17 347243 307524 242105 198220 205865 242051
1778.06 276175 281761 247625 220134 196344 151536
1780.95 132468 134714 134898 152738 181776 205037
1783.85 206019 182526 179038 187170 178452 178314
1786.74 224014 326496 414630 414691 361725 320534
1789.63 307461 307028 322067 347999 318113 263012
1792.53 314333 410105 476639 515265 513243 505473
1795.42 489008 464793 467659 501597 556994 607325
1798.31 620216 610648 590699 581806 599347 609290
1801.20 624577 639017 650267 675561 665991 628051
1804.10 646820 686211 660827 623869 636968 669645
1806.99 668395 640404 613418 599464 604235 602903
1809.88 572821 552555 528451 471691 474659 574520
1812.77 654703 630024 538698 461816 446781 467863
1815.67 506477 544562 522905 468899 453859 515195
1818.56 599323 584932 507405 475508 468842 476516
1821.45 506813 529189 539417 534521 481077 424736
1824.35 420084 416412 400041 403566 395960 393408
1827.24 404453 383069 358308 350732 336354 346207
1830.13 415981 501066 530818 523949 551241 582130
1833.02 545370 481751 431562 419854 451660 470552
1835.92 467508 493260 535106 550730 531193 505183
1838.81 530709 582445 555690 471679 405336 365761
1841.70 379275 409927 417474 404058 374382 350714
1844.59 316174 301661 361804 439621 430160 363670
1847.49 314379 268554 227174 228353 244930 248418
1850.38 216396 171579 161774 170337 165516 122874
1853.27 54336 7193-9265-23153-67044-101764
1856.17-91854-62189-43418-83830-156243-198619
1859.06-215957-209712-186627-181835-200962-241033
1861.95-242686-212260-235062-270673-268284-237132
1864.84-193767-179150-204904-219225-225942-227951
1867.74-207656-191915-197877-193768-168868-155557
1870.63-169200-197501-209749-206366-171394-117727
1873.52-103578-94035-62988-56487-95989-124151
1876.41-110792-101315-105345-79947-38905-40774
1879.31-69465-78837-72796-57619-23007-10905
1882.20-31962-32623-12288 14321 4365-41340
1885.09-37645-10079-22135-41747-62637-83933
1887.99-96318-106324-96010-58476 7599 30558
1890.88-31412-81588-61767-22659-6204-20344
1893.77-55200-82901-72407-33880-17226-39005
1896.66-67818-75620-61630-36551-4672 27857
1899.56 42812 16909-25517-38366-30829-52538
1902.45-64171-24369-1495-9135-9700-4568
1905.34-22489-65027-91686-70012-16244 15432
1908.23 12299 4886 3935-1256-2007 9894
1911.13 757-12316-11852-31083-62497-85424
1914.02-75554-48580-50442-71472-76494-58765
1916.91-62019-84078-55620-6591-10131-32780
1919.81-24734-1796-6089-39008-55012-34769
1922.70 3389 28757 19129 10484 13608 7652
1925.59 3332 4260 5861 27264 26016-14617
1928.48-41466-31363-24697-32434-20368-2428
1931.38 1876 11981 15778-18113-48835-50773
1934.27-19670 34190 29532-2503 9915 2263
1937.16-41838-50952-22699-10641-8619-531
1940.05-28147-58622-46310-6198 27564 10236
1942.95-44122-50141-25482-29255-8581 10972
1945.84-11302-24356-41224-49273-26466 5201
1948.73 12861 893 3716 31059 53408 53898
1951.63 28119 13989 30268 13857-22211-29748
1954.52-16244 18510 33563 11774 701 14141
1957.41 18950 11829 1008-8715 15031 46268
1960.30 41759 22832 19213 12122-14470-17652
1963.20 21828 48828 37826 18529 34220 70947
1966.09 75948 42393 2664-51 31747 41413
1968.98-5887-41006-20810 34189 72025 74686
1971.87 62111 60449 82289 112736 118672 67014
1974.77 12884 2200 10415 9669-9996-24600
1977.66-10963 25449 41737 5086-34283-19526
1980.55-2698-4203-6401-13837-1465 13168
1983.45 21902 15589 16795 43843 42337 23806
1986.34 18552 16366 19657 21070 27577 51859
1989.23 66435 48753 17254-542-14298-20117
1992.12 11174 39007 32392 53633 64875 8861
1995.02-30560-21780 7738 28087 44916 81270
1997.91 91827 61360 56570 77289 95792 123954
2000.80 130770 117586 97383 87198 114021 122909
2003.69 84930 64187 71226 70800 87382 126093
2006.59 155432 171611 166433 155140 143353 135451
2009.48 154330 159002 141000 152392 169448 176591
2012.37 177513 159735 132455 114574 129454 165802
2015.27 179698 152276 129795 139831 128223 117497
2018.16 143558 151293 135162 141429 147562 140221
2021.05 142257 130605 71181 1010 4883 63438
2023.94 76289 47457 37884 49098 78203 121760
2026.84 169164 201434 198353 174532 142457 115140
2029.73 80301 43157 27857 31354 46628 48004
2032.62 25239 29503 65386 80740 58884 37332
2035.51 34420 44440 83514 98692 79578 96152
2038.41 95940 52011 56492 87375 77795 65601
2041.30 59867 43317 40270 24648 9714 49927
2044.19 77165 74964 94473 115351 86281 55774
2047.09 73029 66135 46550 50693 53688 59204
2049.98 47926 49360 107715 150328 142423 119980
2052.87 93057 54082 24982 3495-1753 17624
2055.76 39349 56065 71686 51757-1183 12122
2058.66 47555 54039 83892 102236 78366 30601
2061.55 2485 4821 43 7023 38259 72709
2064.44 85032 55371 30661 33438 35712 23471
2067.33 13846 13245 14527 9127-17235-34393
2070.23-29678-33944 6615 78310 93645 47555
2073.12-11355-24988-11546-9213 7311 38347
2076.01 41059 11609-18606 3565 39308 1909
2078.91-80108-105989-81916-83718-83168-34137
2081.80 23727 19592 10216 57206 78750 67516
2084.69 56510 37307 3367-16673 11046 19929
2087.58-23362-44031-40424-51339-60160-52207
2090.48-18091 37843 96061 97452 32458-27386
2093.37-41587-16376 21116 44352 34734 28095
2096.26 47230 56515 17231-40127-61195-26507
2099.15 28446 30018-19508-62164-78094-54318
2102.05-18928-25345-34800-43455-74490-63999
2104.94-35811-29276-18767-16720-29918-17826
2107.83 15255 37606 31223-4118-10016-3390
2110.73-22116-40161-43025-44559-25824 7176
2113.62 15409-15911-77574-87662-34200-29301
2116.51-39584-10019-6643-33724-66781-89842
2119.40-60530-14923-13414-12288-2023-34262
2122.30-72844-73287-64847-61325-34644 9102
2125.19 43167 55872 24012-35184-49826-25874
2128.08-19988-25798-30461-27395-11390-6405
2130.97-25556-47442-34047 13878 50829 22422
2133.87-10192-16421-17928 9372 15008-5130
2136.76 6015 1179-25987-7631 44569 52456
2139.65 9369 9793 29726 337-12625 8478
2142.55 16461 19783 7254-18019-37652-47012
2145.44-14571 43714 48119 19160 47654 54266
2148.33-19191-73159-80227-73283-48880-2538
2151.22 18467-20965-50409-55610-60479-49210
2154.12-61906-97854-123420-91600-36247-34474
2157.01-62888-74083-69296-94632-102655-45604
2159.90-17905-14807 5237-237-9275 3503
2162.79 1742-19166-21105-7083-13225-4302
2165.69 65362 137897 131576 66127 49676 110668
2168.58 146658 149477 185690 205803 201021 229825
2171.47 260598 270833 293272 325417 358471 421090
2174.37 500930 542115 540590 551025 599488 669341
2177.26 735446 806980 882585 897209 867406 883772
2180.15 939484 1010556 1081052 1152447 1225195 1258673
2183.04 1283276 1322601 1362112 1431611 1524686 1590374
2185.94 1663088 1756405 1804770 1784516 1753096 1791766
2188.83 1900131 1979710 2034156 2120257 2205756 2192130
2191.72 2109311 2124872 2291905 2501450 2589220 2519343
2194.61 2404687 2257281 2062517 1905731 1782978 1692986
2197.51 1678909 1726084 1781858 1814367 1846692 1865763
2200.40 1883317 1925792 1939835 1884195 1769979 1646309
2203.29 1562907 1529280 1486884 1392799 1262738 1141449
2206.19 1044374 965116 929972 904388 821929 724357
2209.08 664418 624164 595381 559693 532317 536505
2211.97 561313 608407 620534 568487 520965 508903
2214.86 535559 576153 626978 682226 712440 736948
2217.76 758064 746333 744071 794051 835051 864411
2220.65 933524 1017831 1067119 1084569 1085363 1113163
2223.54 1176735 1240246 1327921 1433187 1524626 1626632
2226.43 1736525 1800505 1850154 1968585 2079704 2126235
2229.33 2185320 2307081 2465815 2601381 2674043 2754517
2232.22 2875504 2954999 3034990 3151685 3247889 3350453
2235.11 3444920 3507868 3615689 3752329 3852810 3939336
2238.01 4020421 4060685 4100439 4207076 4330103 4372817
2240.90 4345808 4298828 4303367 4432607 4595931 4728644
2243.79 4870971 5029189 5305551 5508249 5245449 4748364
2246.68 4575403 4753460 5207895 6382556 8393893 9924554
2249.58 9059105 6020880 3630701 3072654 3066823 2886239
2252.47 2670952 2546345 2474466 2484977 2581538 2662765
2255.36 2702704 2741659 2724533 2629853 2530686 2446486
2258.25 2364194 2269996 2149055 2046339 1936657 1811683
2261.15 1727958 1630790 1462547 1284053 1133341 1006206
2264.04 919527 874230 844159 796537 706342 620750
2266.93 598444 579754 511990 472242 471075 446474
2269.83 448117 491411 508760 496453 464751 433861
2272.72 431138 446848 446741 430622 441952 482517
2275.61 479575 458007 475047 486431 484393 560692
2278.50 664423 596424 457126 417659 427354 430922
2281.40 416872 402510 491057 506616 285830 130479
2284.29 134340 134214 122000 148298 177600 141258
2287.18 54128 30173 76209 119065 181968 239638
2290.07 237004 223817 263418 320580 331514 330195
2292.97 369539 399983 396148 408024 438426 477261
2295.86 513117 546252 609814 669768 686786 712115
2298.75 773174 841697 915408 1010802 1076742 1097582
2301.65 1092300 1125815 1218688 1270646 1248549 1223867
2304.54 1183170 1116801 1132944 1239048 1389084 1602897
2307.43 1868639 2159665 2346478 2232038 1794390 1314495
2310.32 1145022 1372733 1825542 2223248 2427287 2430144
2313.22 2265385 2062443 1898748 1731717 1523949 1425047
2316.11 1484890 1508652 1444052 1416473 1405340 1353524
2319.00 1313157 1273715 1161383 965262 816420 916932
2321.89 1174524 1313842 1232880 1047137 931894 897917
2324.79 827802 724026 676423 633863 526808 429481
2327.68 418544 421389 353739 326639 393728 395776
2330.57 285108 191379 184101 182793 121212 79707
2333.47 100175 87773 25312 14367 20933-35600
2336.36-61079-21918-37219-102814-89271-31557
2339.25-58056-127720-96968-53604-122490-151732
2342.14-110147-147350-178704-93510-57437-127790
2345.04-157234-135790-108754-71063-83700-154438
2347.93-166771-118282-131474-182975-191221-139386
2350.82-63767-28845-23892-17824-30225-35849
2353.71-6067-24049-42184 31404 62980 48350
2356.61 101332 114343 67949 75193 52137 29530
2359.50 97910 102321 69048 96120 109196 163373
2362.39 214011 180260 168778 154167 102991 86807
2365.29 73220 98778 150901 161235 148192 118019
2368.18 122623 108547 67664 83098 100939 160304
2371.07 200280 138117 82203 62943 71239 65363
2373.96 14295-5039 21671 20728 14733 48326
2376.86 42673-4121-21280-12284-6963 34007
2379.75 82592 74457 27539 1468 18697 59910
2382.64 84959 70219 43500 28923 15562-10876
2385.53-25207 16412 72810 96381 102295 61178
2388.43 2043 12924 49868 47900 13740-14568
2391.32 15164 65357 70884 77299 83112 52923
2394.21 31295 51883 91458 131992 111108 53698
2397.11 58395 73810 91306 96804 79231 90384
2400.00 68089 42370 72561 99240 78072 32077
2402.89 31711 60960 48597 34110 40093 42931
2405.78 57412 76273 93615 98653 44170-32419
2408.68-50528-4801 89853 150605 128570 75160
2411.57 46234 30878-986-17005-4748 18362
2414.46 59054 109145 127410 98477 58184 46589
2417.35 65793 35777-27380-11450 75242 128460
2420.25 98521 53206 44521 51071 54128 37202
2423.14 1324-23122-13304 5255-19716-39697
2426.03 11652 67151 68569 58559 46729 33111
2428.93 69404 113494 92938 55390 52298 67628
2431.82 51852 27004 46031 44063 265-8494
2434.71 12729 11849 6738-2283 3688 18077
2437.60-966-29416-9184 47990 61373 58002
2440.50 70649 69524 44283 22652 36283 65746
2443.39 84801 94696 100825 87547 42706-4643
2446.28 6217 58845 33657-27806-20150 42608
2449.17 93003 80828 71277 61815 25605 25138
2452.07 46366 42403 38412 43886 35078 38789
2454.96 50911 42428 29493 2477-13639 7553
2457.85 48771 76706 71460 66101 76204 76110
2460.75 82996 105770 89084 69114 86382 55129
2463.64-11467-1768 27727 7706 26297 72165
2466.53 55771 28476 22783-5352-24984-4376
2469.42 50682 113309 111270 61670 27991 34701
2472.32 78588 98911 96710 67202 46172 77568
2475.21 54671-1669-22944-19614 23647 44874
2478.10 5734-35556-67591-78441-43285 367
2480.99 11155 5643 3128-1355-3951 6710
2483.89 17743 23174 20770 10283-4607-27581
2486.78-40958-31003-5730 40033 61895 55587
2489.67 57662 45909 3393-40785-30688 7424
2492.57 15937-4117-31106-45615-29369 19070
2495.46 49461 34583 22188 16579 713-25748
2498.35-45517-52447-30612 12056-518-56683
2501.24-55432 7880 58044 105214 122756 101598
2504.14 91512 86501 64407 47799 51089 38350
2507.03 37149 89227 127986 112509 93722 102227
2509.92 93792 64440 14029-46741-38734-22878
2512.81-49314-57516-13913 31150 9382-42025
2515.71-48075 2749 62109 102283 113822 76678
2518.60 39075 64944 91647 93241 97355 60218
2521.49 12642 27443 37621 22342 5719-42398
2524.39-72773-26759 50361 84045 50420-14027
2527.28-30082 3553 2686-7535 24436 51640
2530.17 54258 48029 58101 89408 80112 49156
2533.06 42335 44518 55938 40827-14820-22524
2535.96 46156 95936 64841 10377 10504 37187
2538.85 59294 90334 70942 5250-21114 33469
2541.74 94166 113879 146609 142723 55458-12604
2544.63 27416 62336 24016-6014-15364-9384
2547.53 21743 30703 6451 588-1626-17407
2550.42-23372 2794 53104 75845 67350 55251
2553.31 44003 20112-9406-388 42628 55989
2556.21 42575 42673 42601 41720 52500 34304
2559.10-9251-15563 10645 24861-2629-10486
2561.99 35121 79264 77542 64739 57834 25851
2564.88 6738 35434 64863 48810 28391 40884
2567.78 50831 47156 62473 78255 70652 66994
2570.67 68862 55335 31102 12722 2180 21574
2573.56 24887 10261 38201 60821 53809 39185
2576.45 50752 88634 69895 22922 22552 42550
2579.35 26028-16320-8987 39794 68950 51228
2582.24 27679-2822-45876-25217 7783 14239
2585.13 24658 6030-2558 35694 69509 81697
2588.03 91099 68231 49612 32511-16548-32164
2590.92-17225-27769-22900 3397 12305 7477
2593.81 14261 40106 63404 53789 21092-12348
2596.70-33303-16981 26404 52369 54777 54876
2599.60 66338 71610 85305 119359 94737 20302
2602.49-23555-26774-31984-33902 12383 45871
2605.38 34576 27206 19415 582 161 40882
2608.27 67220 66149 60917 36765 38018 101688
2611.17 135973 85774 17085-2960 6305 12879
2614.06 19703 24171 9502-8127 7787 35553
2616.95 16452-23884 4391 28491-6360 11254
2619.85 72619 92498 97420 87651 21960-41160
2622.74-78123-99263-69893-4450 17838 1593
2625.63-6409-10469-30601-55803-68458-75706
2628.52-46292-6152-16924-33435-24157 5344
2631.42 50396 64798 78450 97230 87599 85891
2634.31 71043 30139 14212-8196-47447-44411
2637.20-20726-1928 24658 54721 56760 39962
2640.09 47225 82817 85553 17557-39116-55063
2642.99-9007 50091 40980 24622 6022-46139
2645.88-87260-33331 46949 65639 53280 24739
2648.77 35147 67600 67898 44948-14497-47389
2651.67-37413-71417-70656-3653 22407 15749
2654.56 16007 3861-20680-52334-68498-10854
2657.45 51072 31588-5933 11708 32443 45674
2660.34 58591 47893 19759-33723-79406-67948
2663.24-10359 14338-3948-32622-55695-31706
2666.13-1871-3894-2666-3728-12882-18243
2669.02-27624-26337-4100 12450 3104-20722
2671.91-32969-6237 13802-596 2877 28314
2674.81 30033 32586 46858 35430 25571 259
2677.70-66244-112141-112676-92647-54927-16231
2680.59 13692 65532 109901 84367 41328 52841
2683.49 76606 65006 31867 836-41057-80810
2686.38-42575 20808 16035 8041 32275 41366
2689.27 23757 5965-564-11690-5836 26066
2692.16 56204 60815 42436 6484-50084-76542
2695.06-43236 8494-253-60314-89059-85142
2697.95-99654-142848-179301-191924-190281-154455
2700.84-79518-8920 41794 47458 52877 73027
2703.73 35525 38351 115498 141469 106769 66068
2706.63 64237 75992 60912 97673 145836 112332
2709.52 55759 43231 53379 33834 31120 50917
2712.41 48533 19249-18182-33643-68682-104160
2715.31-68170-7058-41576-114533-88296 2106
2718.20 44052 6991-13432 11160 16143 14773
2721.09 25880 31653 26277-22178-46758 8903
2723.98 42797 26279 14384 37596 63805 55354
2726.88 21787 1358 9797-2748-51062-80157
2729.77-50100-27817-37081-32204-24472-23669
2732.66-54846-92062-102204-63507-9997-28331
2735.55-57345-21415 38015 109951 157219 83488
2738.45-13253-11424 25096 20214-10784-14338
2741.34-32194-72561-57884-19221-10823-38943
2744.23-40312 5103 26902-11110-94747-155095
2747.12-113660-46892-34024-5869 41847 43283
2750.02 15856-25182-45261 2286 52695 43654
2752.91 25091-5144-30253-37854-52656-45022
2755.80-19931 9072 46302 20439-69236-110729
2758.70-71076-34247-64937-78718-19314 22701
2761.59 20983 54525 127186 124216 48225-39787
2764.48-84390-106027-121238-105513-98755-88881
2767.37-74512-94698-95931-57534-40861-46584
2770.27-53653-55262-53932-53355-87643-118146
2773.16-86971-42320 2848 60469 90507 96168
2776.05 81664 17697-81889-120737-96517-90656
2778.94-87094-49522-4844-30888-77866-56386
2781.84-24165-3809 6484-38381-79892-91283
2784.73-150575-165148-107390-119418-155389-123253
2787.62-35904 49991 9869-134790-189158-102745
2790.52-33895-50367-71209-76756-83384-83907
2793.41-102396-131964-130947-62871-6423-36745
2796.30-96727-144497-119106-49693-13083-4241
2799.19-31027-75700-92398-43528-40126-117953
2802.09-117255-45141-23933-86232-130882-98738
2804.98-37326 10551-6520-58896-55632-5187
2807.87-457-62654-153440-132744-22408 14619
2810.76 6512-24116-74081-83153-64852-66024
2813.66-82211-95213-88382-75153-78534-103409
2816.55-109580-51985-13205-5590 26752 44739
2819.44 4411-79853-165962-180633-98091-47429
2822.34-63290-55800-38063-31879-55984-64637
2825.23-47928-63370-106246-116242-90659-63437
2828.12 10592 78446 42144-55081-167577-219770
2831.01-173464-128995-100842-75933-60150-36605
2833.91-45843-51260-32521-26689-29864-41050
2836.80-49798-71329-62672-12840-34513-103206
2839.69-91945-31093-20099-58090-91941-89567
2842.58-74167-57731-23103-838-20652-52396
2845.48-58893-54195-68769-54372-31423-40020
2848.37-61354-90543-110996-121894-118881-61339
2851.26-8824-58557-144682-176772-133760-47783
2854.16-3312-34906-58231-37957-19654-13919
2857.05-8857 314-675 9578 9275-57396
2859.94-120335-157367-189911-159586-101469-96948
2862.83-90736-43070-26098-55656-66516-11444
2865.73 91792 102487-5931-80582-65989-61447
2868.62-95413-83911-19734 10539-23374-46872
2871.51-33554-83423-127275-105413-109531-119571
2874.40-83245-70710-102364-30458 95796 71213
2877.30-24582-61866-63760-54563-29462-14220
2880.19-7095-4872-24459-30036-4034 3065
2883.08-18880-57567-111259-155431-159409-110628
2885.98-82137-107377-80792-9281-45529-130769
2888.87-121942-10787 73472 11394-103997-141779
2891.76-124562-84997-14034 32427 7936-56797
2894.65-88840-86925-91058-54661-14330-56110
2897.55-97676-52407 30883 41695-37538-76999
2900.44-40778-5088 11229 7315-41226-81754
2903.33-65041-44926-67287-77399-29124 12216
2906.22 9290-15498-240 37097 7542-63297
2909.12-108101-102244-57593-47333-65286-43095
2912.01 6478 50607 36146-55116-116259-54684
2914.90-1025-50947-106587-92098-56788-41255
2917.80-14303 12596 11-34936-61431-89394
2920.69-47351 39293 76411 46492-41117-94930
2923.58-100388-102827-82403-76207-146091-199761
2926.47-128002-9975-498-100248-168124-117534
2929.37-26498-12017-36789-32279-35943-92054
2932.26-139470-120209-100898-87025-81865-54454
2935.15-8864 592 20138 24688-5762-21111
2938.04-6187 10384 12339 28865 27725-15444
2940.94-43060-56345-57506-27749-41022-100087
2943.83-76586 8799 13295-55799-74416-47734
2946.72-41579-49268-80507-97064-3237 113204
2949.62 124035 76436 36552 27469-25545-87164
2952.51-68214-51168-55994-25518 3589 7517
2955.40 19943 19528 3997-11033-37907-71385
2958.29-109532-123877-106196-102836-100716-105199
2961.19-134953-159814-88959 22110-25369-157231
2964.08-205772-174173-129754-100563-52720-11167
2966.97-22220-59634-92718-152917-201323-125482
2969.86-21562 36776 79641 45289-28619-75509
2972.76-123090-144225-98185-37121-40068-106333
2975.65-104003-35697-6586 6481 8815-35968
2978.54-98903-98283-46801-30422-49163-80034
2981.44-136091-181785-173012-90667 10514 46656
2984.33 30184 386-28898 696 73005 70182
2987.22 28362-21759-96704-116308-109583-113239
2990.11-51412 18876-2844-44348-14678 21551
2993.01 26943 38239 21815-21059-32420-42654
2995.90-51052-23626 15953 45352 36141 12021
2998.79 19237 32354 33752 41154 24783-32508
3001.68-100588-113419-48278 5276-39115-98164
3004.58-73901-55045-72610-100642-122537-98246
3007.47-53445-10901 42045 59738 1335-40643
3010.36 10148 75101 28072-39556-56771-78875
3013.26-39724 35089 47371-5713-72637-69913
3016.15-51126-79569-115599-76970 3908 15748
3019.04 4714 17107 13888 2611 14765 53705
3021.93 90724 94958 61435 5594-18610-33899
3024.83-63224-44523 16980 44650 34080 42659
3027.72 25860-28639-28555 7484 35287 29810
3030.61 38954 74101 46879-6173-277 2297
3033.50-66225-133185-141994-112598-71933-14082
3036.40 26225 23767 46492 23924-125501-195906
3039.29-61477 13498-32646 14380 59202 26958
3042.18 15471-11038-24214 11926-455-60003
3045.08-85065-81243-27445 53210 39783-10371
3047.97 32151 61938 27715 1277-43636-94812
3050.86-76435-25321-25100-33192 481 61769
3053.75 132453 130751 41417-46283-77511-66412
3056.65-22555 2251-21468-22161-30286-87651
3059.54-92641-27406-7339-102294-178559-100460
3062.43 12115 26028-37701-116469-148586-143177
3065.32-126195-129267-115484-26436 22942-3590
3068.22-13189 8099-18773-113262-136164-39961
3071.11 11578-43340-92300-143508-174358-134822
3074.00-52588 31671 38416 8346 10146-15834
3076.90-61289-61699-28331-26559-33789 26939
3079.79 109567 101112 46392 24245-16354-39854
3082.68-6862 17502 14429 38287 92386 65070
3085.57-30227-46755 7065 17790-50853-104495
3088.47-98420-112729-99270 3061 90053 70797
3091.36 12699 2753 12884 11187 45013 46185
3094.25-53183-170696-186621-109752-31512-15940
3097.14-49662-34298-34904-73068-58008-8177
3100.04 35883 44471 29275 19734 3263 12263
3102.93 27431-5791-15476 31922 35766 1326
3105.82-24389-8831 37782 54644 57999 17502
3108.72-46939-92384-107077-71499-18124-13030
3111.61-19696-10226 10691 64053 51352-24280
3114.50-42503-31670-43201-35626 317 17732
3117.39 6626-25165-73618-91807-50951 19644
3120.29 55697 35700 8783 14359 32749 42372
3123.18 34121 30925 21107-667-12185-23837
3126.07 24415 95969 61984-10306-51344-60177
3128.96-29432-5336 48251 148391 125344-1711
3131.86-51332-82747-108211 10225 135106 116844
3134.75 49151 33202 35834-41829-129643-109984
3137.64-22834 31535 13476 28861 74192 76756
3140.54 112405 86165-11822 4529 72882 64704
3143.43 11574-24289-23124-8964-46421-136821
3146.32-151058-74353 4196 33853 14611-15478
3149.21-14173 17342 41628 67039 55594-13444
3152.11-28960 9906 58358 70330-32285-115184
3155.00-57875 60645 99933 17974-63058-36140
3157.89-9003-43994-42918-53616-105359-99621
3160.78-68218-86611-59170 47968 74414-21224
3163.68-81270-45917-4955-27700-72922-80218
3166.57-42719 20026 82623 66292 14884 24865
3169.46 49945 14382-48195-45671-16628 1686
3172.36 30867 24662-23811-104250-127086-21282
3175.25 49128-16881-95646-64494 16330 72295
3178.14 72390 39723 37374 27712 15610 1456
3181.03-77563-153926-130655-80949-56783-55347
3183.93-74944-90009-67967-33616 17003 33898
3186.82 3242 35697 54740 12227-22956-46780
3189.71-48873-41506-39556-30814-64269-138931
3192.60-149145-48116 44635 30163-37251-85798
3195.50-126686-155767-150700-100103-15825 29910
3198.39-11024-63833-89247-125705-99228-6269
3201.28 85288 139733 81391-29303-86431-101381
3204.18-54144-20056-66288-72224-53574-44777
3207.07-7108 1718-46845-91879-59822 6848
3209.96 21911 20056 9178-39215-76177-47208
3212.85-19490-37839-50506-64984-112492-131142
3215.75-62528-7591-40580-74945-69873-90500
3218.64-79752-22591-19642-59899-61339-95026
3221.53-156191-133602-90674-88782-60897-8112
3224.42 5997 21203 24827-10844-55455-96215
3227.32-156853-216615-239336-168884-18825 45225
3230.21-32055-107918-106272-78732-26246-20479
3233.10-42798-4984 31714 74675 76465 14735
3236.00-13458-82723-150146-105234-23738-25658
3238.89-121706-94218 58346 63207-44562-96730
3241.78-145313-153350-86051-54383-80218-160548
3244.67-240720-242002-167267-54394 36614 35203
3247.57 2727-8978-21896-49529-52164-48965
3250.46-126232-137043-42214-49422-96819-83139
3253.35-40177-15827-42441-71795-60911-56952
3256.24-92332-72962 18246 37734-35650-96721
3259.14-115917-121557-92207-18277 51994 48351
3262.03-41625-111180-96983-102966-96705-38580
3264.92-41122-88671-82850-43706-8212-27454
3267.82-49025-3343 35137 67179 41929-45214
3270.71-54536-15232 13154 39211 307-49872
3273.60-24942 13745 30151 50357 62751 20654
3276.49-104179-177640-169294-104040 47246 129707
3279.39 54623-15947-64103-130128-100326 49120
3282.28 128364 91015 65424 56556 10000-37122
3285.17-38818-33115-27955-27175-57027-80657
3288.06-66630-1832 73923 60830 893-30060
3290.96-6883 70958 55303-22639-36908-47910
3293.85-74171-37873 5856 28878 40452 9139
3296.74-33668-33379 10385-7887-9892 65875
3299.64 39841-63447-113230-129759-125329-81432
3302.53-73386-85050-45941-8368 539-9807
3305.42-24644-22083 54355 86242 5304-41694
3308.31-75756-112736-71774-43306-41440 29668
3311.21 71390 45350 23934 19424-32121-59492
3314.10 30899 106046 114759 120515 84283 27191
3316.99 74895 142983 97229 46197 43326 9390
3319.88-27580 34949 109838 99633 94133 100960
3322.78 83821 66969 52990 57020 104815 122052
3325.67 93714 84167 99602 123297 194149 264215
3328.56 219893 105238 48170 44939-30508-144832
3331.46-185874-117332-51953-75329-69585-34828
3334.35-41523-2318 79335 120763 117121 41641
3337.24-40262-108518-155205-101905-33943-46092
3340.13-81365-97433-137205-123203-51240-49062
3343.03-84634-84088-74190-46641-21395-33883
3345.92-56594-95528-65132 38959 77296 59708
3348.81-3330-96531-143075-115384-94596-72435
3351.70-29435-39346-76910-56786 13209 1999
3354.60-58908-65883-45687-70410-106284-30827
3357.49 25200-37917-79982-85043-113708-84106
3360.38 38498 80514 24577 2241-9244-12989
3363.28 17229 76048 94989 30733-72473-155924
3366.17-148325-95026-64131-56469-53912 13201
3369.06 23539-108870-135988-9801 21206-34632
3371.95-31993-40881 21645 121654 9296-146107
3374.85-132159-71591-72606-161240-188647-87549
3377.74-39760 23387 139813 127304 45219 37366
3380.63 94610 101024 26737-16914-3822 38644
3383.52 100510 72048-12015-9758 22536 39664
3386.42-13848-107147-99958-64699-14837 99883
3389.31 153326 164122 230135 302020 280361 164313
3392.20 66588 14059-47529-88757-80449-64646
3395.10-38946 32018 133323 142185 29409-60427
3397.99-76216-28066 35560 19703-7702-9061
3400.88-43931-38237-448 24081 4587-73442
3403.77-82874-36771-46388-80852-105765-91578
3406.67-35734 20771 14867-95428-189548-190550
3409.56-199333-226738-215932-171508-124339-60321
3412.45-6679-63794-109374-24813 1426-80622
3415.34-61306-2120-45705-141327-191172-81551
3418.24 93322 101036-85357-219456-162744-82595
3421.13-102881-115790-64926-21942-39138-79468
3424.02-78629-46713-29008-17126 3034 33230
3426.92 2989-80734-76697-31390-52105-114036
3429.81-155257-67918 54589 37763-49723-54237
3432.70 15960 32449 23314 44523 47713 3594
3435.59-76541-115745-105686-69859-29123 21927
3438.49 78839 59561 45311 86013 93064 86857
3441.38 103643 85889 35605-23371-111913-137215
3444.27-71453-72728-67089 52838 79338-38156
3447.16-70803-4992 19226 61365 136165 138948
3450.06 72021 4861-13756-27520-138711-181479
3452.95-15309 158767 161330 88770 44713 10231
3455.84 12223 72030 73303 5179 20935 2908
3458.74-123457-112523-27339-69380-148603-104665
3461.63 27683 118735 169212 173821 100627 68134
3464.52 60596 2108-41736-103029-104412-26906
3467.41 21048 36142 15274-38350-71291-73941
3470.31-100219-73875 29565 144306 203875 125858
3473.20-3059-85771-107510-81286-71690-17478
3476.09 46628-59753-213322-206785-110847-46596
3478.98-25748-19429-30145-54073-87026-143780
3481.88-193572-144162-31684 27936-13237-98993
3484.77-83930-25254-39588-95832-138682-125505
3487.66-68479-1263-609-100623-135667-50030
3490.56-23024-54587-58974-60969-40536 21944
3493.45 74066 51044-55625-125407-84426-1583
3496.34 37539-5509-92847-128592-83163-14930
3499.23 70634 118112 17284-104851-153904-177436
3502.13-68274 62127 67247 22027-25269-9668
3505.02 40256 19971-67356-138465-127721-115445
3507.91-166080-174352-108240-51010 8381 47950
3510.80 21763-23232-68880-83887-29020 21375
3513.70 86255 172104 108501-49381-163570-222073
3516.59-201073-167819-144201-92475-24745-864
3519.48-16631 36259 85760 46211-23736-63165
3522.38-59958-75089-75151-25947-13638-9424
3525.27-22022-47559-17049 17368 53538 49619
3528.16-29172-76388-97531-137637-157073-147956
3531.05-104640-29922 43615 63838 51647 67006
3533.95 90959 54898-44570-119086-148132-110185
3536.84 7344 73563 97736 102843 45215 27582
3539.73 253-92047-145132-123911-51714 50321
3542.62 149678 185780 165309 117467 19693-86438
3545.52-148129-126888-43924-50760-125086-89367
3548.41-8434-4185-25861-6390 25470 8958
3551.30-40336-66029-67259-85836-81224-74450
3554.20-57039-77527-105482-22574 68994 72923
3557.09 53517 77099 131779 124998 31879-7977
3559.98 46235 80613 47329 18682 48670 49040
3562.87 61655 112529 105501 51324-2485-35938
3565.77-45375-30061-44688-61719 4341 24382
3568.66-63142-68691 7040-7628-53854-3459
3571.55 50322 36698-8948 8707 114949 149027
3574.44 87005 31507 32433 70205 83793 101212
3577.34 91652 22869-11233 9173 46565 98713
3580.23 80151 69661 79439 5032 11797 128619
3583.12 183841 146362 88985 23753 50089 126515
3586.02 72564-4034-17265 1288 14515 11855
3588.91 3517 868 1877 28061 54662 71434
3591.80 86065 63135 60433 103847 125574 134548
3594.69 127563 53357 22707 60910 56538 11722
3597.59 14283 76233 92867 54787 32662 17231
3600.48 12055 36491 44767 78406 138158 138684
3603.37 106384 98057 87989 55865 32210 62224
3606.26 129279 148456 124198 153500 158052 51871
3609.16 32496 130777 123264 78753 132997 133797
3612.05 37016 18950 89790 123434 147051 200700
3614.94 202183 164313 118471 65387 16342 7602
3617.84 56935 88068 97793 109177 44805-30578
3620.73 66320 166777 89162 5038 61423 131293
3623.62 98910 46703 62201 59688 36730 95984
3626.51 152122 97123-37690-124622-100084-57765
3629.41 13301 103810 127034 115073 107413 77297
3632.30 53885 75367 92527 89443 104339 95446
3635.19 73398 85477 98340 91383 75094 58003
3638.08 58613 104384 144602 134676 140444 147925
3640.98 91070 40145 44911 67008 109459 134312
3643.87 61654-11114-18053-41960-55418-62198
3646.76-55367 15515 82497 35066-21052 43888
3649.66 69652 40918 68859 117100 142442 118679
3652.55 59730 30636 75287 124913 48718-91332
3655.44-151517-97540 19148 42925 11323 42985
3658.33 91447 132130 163513 167769 152376 129560
3661.23 103377 76738 36660-105 11692 75528
3664.12 131879 137561 83202 43444 40484 13912
3667.01 63687 126993 54853-7085 27218 37535
3669.90-63970-120494-3085 106963 90862-7255
3672.80-102504-144891-140484-119696-120785-145975
3675.69-78102 52106 52725-3247-7884 38811
3678.58 115795 153159 127662 119500 144118 96738
3681.48 22186-1132-14356 25383 113717 130866
3684.37 73857 76526 85197 86188 156683 185919
3687.26 57345-176061-227414-72602 36296 23505
3690.15-28217-22991 85733 155702 93040 44805
3693.05 54035 17537-9067 67926 133890 89476
3695.94 38281 96725 188862 177887 142879 120394
3698.83 84726 80309 52450 4833-59652-143746
3701.72-117314 23180 95698 51745 52261 108821
3704.62 106566 75521 74324 101003 124720 87791
3707.51 75968 161327 173185 72852-11958-28858
3710.40-22300 3129-33748-111076-70545 8348
3713.30 23109-23672-66337-50086 47706 132233
3716.19 130080 165386 195547 112572 30962 68155
3719.08 133241 125480 69550 21097-10610-10434
3721.97 64793 100941 73136 97687 147387 145430
3724.87 108930 72506 49803 122021 184779 131117
3727.76 84729 59197 21108 33334 80672 85074
3730.65 57599 27122 19569 60640 89643 119618
3733.54 103308 4169-49047-24895-19639-76033
3736.44-78457 9627 74797 63704 41314 26929
3739.33 570 30031 97683 70601 30553 75239
3742.22 67306-859-77472-210701-275648-159592
3745.12 35082 163162 149858 56407 24520 71452
3748.01 63908-101944-226581-114075 9990 24519
3750.90-26708-180553-226419-54310 64325 48597
3753.79 63472 119375 111086 64486 40971-62
3756.69-2728 51033 66599 70848 102363 99348
3759.58 69875 109827 117907 55992 45004 61254
3762.47 122338 175429 111075 16340 3535-9510
3765.36-57245-29273 29514 39324 91934 207952
3768.26 270487 212223 97056 71858 116842 121058
3771.15 139887 185390 181619 213711 248165 166673
3774.04 82179 27803-26448-41917 27786 129957
3776.94 155896 122284 110078 93458 37255 42950
3779.83 71674 71626 104119 167576 170005 56313
3782.72-35722 2910 17770-39350-20000 23438
3785.61 60099 110131 98299 47043 42148 90060
3788.51 98391 79209 77894 96582 104498 77569
3791.40 101877 193479 224748 180497 135296 88141
3794.29 69905 136690 209241 204520 181749 171253
3797.18 148393 140408 108393 22556-28214 4531
3800.08 30008-85926-147111 41756 224040 210728
3802.97 84478 11048 42605 120721 167925 151609
3805.86 42151-113473-128629-22691 38319 7944
3808.76-20312 2169 42579 112016 150747 137768
3811.65 102737 14222 2767 63570 70424 58185
3814.54 12778-117138-258099-212782-4770 103279
3817.43 90919 112567 86729-20223-51375-37159
3820.33-21856 25857 91134 160459 185699 148278
3823.22 72608 18861 7043 37388 75198 64591
3826.11 78903 151792 143481 98218 89736 69641
3829.00 43192 51188 69275 12844-74502-42875
3831.90 67886 85500 30246-6153-48189-113363
3834.79-111221-23506 65423 104971-27992-244084
3837.68-228658-45037 70880 94218 87458 48599
3840.58 41225 105816 139641 101127 13835-29979
3843.47 65928 187605 166168 62261 12806 46543
3846.36 40856-10855-43915-59165-22366 49390
3849.25 73578 46979 55098 50593-73385-142836
3852.15-65387-47714-187742-390629-374986-134150
3855.04 35577 83023 131683 181295 178254 153144
3857.93 144341 167798 174131 126912 80913 25869
3860.82-39445-32180 75479 143379 83700 32705
3863.72 40396 37567 43116 79599 80320 54707
3866.61 62161 29031-49372-120549-188607-183972
3869.50-121481-41251-14 21484 74828 99782
3872.40 81904 32251-22980-19146 20481 60889
3875.29 99324 92589 64816 45200 57709 70569
3878.18 13311-36524-55139-92485-49609 27840
3881.07 27653 66834 142569 110644 7090-47901
3883.97-41379-8861-1179 21015 85744 119580
3886.86 115382 131145 151379 117843 35147-35628
3889.75-56757-82020-109108-108394-69669 35639
3892.64 85867 16931-18342-40958-58888-18709
3895.54 47799 119352 168671 174632 72262-34274
3898.43-45056-28987 38761 124503 115602 18883
3901.32-71369-49190 72557 106291-1733-115983
3904.22-113862-55346-62534-26112 67965 85520
3907.11 86844 88625 46084 45011 78391 97003
3910.00 88362 72405 86204 114751 105064 64755
3912.89 30474 45669 98026 114896 76353 20428
3915.79 12106 26105 16603 58498 117700 42774
3918.68-77565-118064-71965 11428 29736 20683
3921.57 41671 9686-51082-32488 7319 29026
3924.46 46169 44241 43629 28780 62211 159706
3927.36 211447 209440 159371 92955 64720 39992
3930.25 29746 57400 46037-24145-26774 47948
3933.14 73622 48063 65664 138752 204708 193240
3936.04 126504 117194 155549 124788 75682 96318
3938.93 118441 114638 145793 149853 76939 14757
3941.82 33593 85935 96780 113098 139264 118228
3944.71 99902 54560 7970 36694 60973 37138
3947.61-3906 25369 97891 85677 53552 108945
3950.50 164573 106657 12349 12131 39271 28494
3953.39 48452 90417 133045 130708 56961 31489
3956.28 82232 95448 61485 45312 60211 44185
3959.18 4424 12937 77503 154449 150985 109694
3962.07 102240 81887 64377 47465-11091-81431
3964.96-82703-40636 32210 84140 120396 157519
3967.86 117694 51787 31666 40639 47428 42204
3970.75 39281 51007 74468 78774 29021-76464
3973.64-99542 13159
##END=
