##TITLE=Dichlorodifluoromethane
##JCAMP-DX=4.24
##DATA TYPE=INFRARED SPECTRUM
##CLASS=IUPAC A
##ORIGIN=NIST, Analytical Chemistry Division, 301-975-3108
##OWNER=COPYRIGHT (C) 2001 by the U.S. Secretary of Commerce
##DATE=01/06/01
##$SPECTRA VERSION=1.10
##$UNCERTAINTY IN Y=2.1 % relative (B=1.11E-04,C=1.83E-9,D=7.56E-14)
##CAS NAME=Dichlorodifluoromethane
##CAS REGISTRY NO=75-71-8
##MOLFORM=C Cl2 F2
##MP=-158 C
##BP=-29.8 C
##$NIST SOURCE=QUANT-IR
##SPECTROMETER/DATA SYSTEM=IFS66V (Bruker)
##INSTRUMENT PARAMETERS=KBr Beam Splitter; MCT Detector; Multipass cell
##STATE=gas
##SAMPLE DESCRIPTION=Dichlorodifluoromethane Primary Gas Standard
##PRESSURE=101.3 Pa
##TEMPERATURE=23 C
##SAMPLING PROCEDURE=1 L/min Flow
##RESOLUTION=0.9640
##DATA PROCESSING=NB Strong Apodization
##XUNITS=cm-1
##YUNITS=(micromol/mol)-1m-1 (base 10)
##XFACTOR=1.0
##YFACTOR=7.2759E-12
##DELTAX=0.4820
##FIRSTX=575.17
##LASTX=3974.605
##FIRSTY=-2.89E-06
##MAXX=3974.12
##MINX=575.17
##MAXY=.0043157
##MINY=-3.01E-06
##NPOINTS=7052
##XYDATA=(X++(Y..Y))
575.17-397693-193081 19875 75701-15945-150432
577.58-273825-150100-90651-41579-149991 47963
580.47 85417 353995 273561-170891-289508 35916
583.37 219792-309972-426889 78397 99616-414055
586.26-408003-223389-27165-19832 51780 179234
589.15 352036 343491 46417-158559-186864-176767
592.04-363835-452908-129529 98598 115488-209325
594.94-347288-275999-58549 158009 86978 229750
597.83 62666-81721 45239 86748 91090 28324
600.72-93498-118719-138665-37954 10855-150351
603.62-50551 83809 139017-11554-204914-269571
606.51-250569-277251-223336-101136 29575 11406
609.40 28553 71102 64057 48208-81453 1945
612.29 96765 42250 16115-56348-106793-99963
615.19 31477 34578-104834-122864-248691-335857
618.08-229373-117009-93134-116013-112092-102586
620.97-30157 29834-9787-70827 92986 137408
623.86 50697-126676-275363-165461-88241-71271
626.76-20630-43976-56350-97196 50983 89365
629.65 13919 132924 135729-42815-132746-33070
632.54-2083-57124 73042 194641 110472 60076
635.44-32950-47581 142271 113348 71377 62073
638.33 72695 186051 274536 171310 106579 123935
641.22 180387 178964 424059 612874 614060 530041
644.11 495855 569960 751821 893599 949510 1060630
647.01 1152795 1241808 1433670 1650824 1798891 2000235
649.90 2249117 2539373 2681645 2730022 2956399 3215917
652.79 3577460 3781710 3931857 4303832 4620359 4752936
655.68 4973344 5332411 5525892 5519099 5729767 5968847
658.58 6078826 6226142 6264095 6436808 6799565 7037543
661.47 7508332 8052397 8512375 9178869 9880454 10347489
664.36 10579261 10389278 9866669 9157737 8244692 7597728
667.26 7632874 8379762 9699702 10938511 11454443 11067110
670.15 10206035 9366900 8580801 8096662 7701719 7446193
673.04 7380715 7389470 7504128 7674541 7768809 7719675
675.93 7625340 7585333 7433773 7235014 6966132 6676355
678.83 6419137 5921320 5473016 5081933 4700032 4263683
681.72 3887042 3598752 3196886 2843083 2515966 2251593
684.61 2080382 1895182 1599569 1305365 1179852 1067033
687.50 905044 801148 687104 609657 478082 395698
690.40 354810 355486 298832 236020 209130 225102
693.29 155730 39441 69038 158178 126371 29379
696.18-59819 41394 112568-102520-96444 39697
699.08 87673 81369 107442 154154 69347-46590
701.97-62757-20961 52174 19497-40659 54880
704.86 129640 137841 91229 119451 107148 95118
707.75 90818 66961 166800 197957 74560-3855
710.65 51364 83141 32704 95121 122446 81065
713.54 144518 157384 193355 226134 230668 105962
716.43 45129 57517 52613 31239 125659 199202
719.32 186368 221058 289356 222550 162179 139910
722.22 173721 137824 65275 97993 105313 130741
725.11 175301 171564 167602 143891 49644 79718
728.00 163193 145290 96462 75981 101661 147076
730.90 174947 210619 179264 162647 182882 154019
733.79 63573 8782 6343-354 27549 36868
736.68-19989 33570 85251 38387 32235 68536
739.57 78268 99554 158620 144876 154216 106272
742.47-27424-23510 70620 59745 74114 159642
745.36 153325 132687 124521 137517 165855 162963
748.25 165009 234734 246647 210084 186975 201279
751.14 181687 193164 201504 169343 276859 353157
754.04 213946 141060 178170 216924 165731 129823
756.93 143016 120048 108276 126511 176209 162868
759.82 127325 122221 179811 179383 158035 158576
762.72 142346 149793 169013 81622 78125 123584
765.61 133385 183750 164657 70250 58947 150197
768.50 108810 85899 76734 44031-1386-14638
771.39-23534 7397 28882-453-48763-51153
774.29-40844-35638 38466 37446-77322-68130
777.18-75250-44799-7906 2504 81644 124572
780.07 57840-52208-65394 15749-48671-97978
782.96-74244-61323 36325 153598 43650-39481
785.86 14431 77261-29903-120938-143480-77288
788.75-46221-98728-136617-148856-103019-6316
791.64-15418-122693-152427-102545-78465-90491
794.54-71383-127994-94939-48146-84167-4683
797.43-54748-49127-27319-4813-96307-154095
800.32-65378-25459-49519-44003-20494 11006
803.21-49604-152790-152801-96002-51470-70024
806.11-104127-114222-181649-122944-43444 3737
809.00-10744-109604-192462-59247-10195-115035
811.89-119573-81647-73201-101086-81981-26659
814.78-11424-90508-161888-111905-53398 35645
817.68 129201 60242-69926-77619-21645 49039
820.57 5139-42047 5678 90530 122296 54030
823.46 9184 85392 89173 121125 129898 147947
826.36 270820 388176 382826 364353 352522 457412
829.25 496464 495412 375636 388361 507561 561733
832.14 592288 545878 406039 393012 489193 517195
835.03 439052 444080 560943 628981 617462 645100
837.93 769178 823271 1000711 1285116 1319261 1256467
840.82 1083230 913848 796488 777084 739397 870618
843.71 914286 963023 1026353 1098810 1149994 1225160
846.60 1329188 1405213 1480768 1579742 1715525 1858576
849.50 1893295 1980228 2021149 2176500 2370647 2543498
852.39 2689372 2825224 3043665 3299310 3564676 3815367
855.28 4069719 4394893 4701493 5048683 5386141 5814713
858.18 6257703 6663917 7061094 7573063 8210091 8961512
861.07 9550656 10140398 10769357 11524044 12376636 13293916
863.96 14146932 15109535 16044726 16943483 17943528 19126218
866.85 20267060 21528555 22879144 24289631 25521490 26797984
869.75 28146659 29595109 31107476 32858464 34481753 36075391
872.64 37517554 39005683 40885273 42803395 44464148 46622680
875.53 49069605 51594007 53769605 54783289 55397826 55408571
878.42 54751732 54364180 54476825 55506497 57543038 60413593
881.32 63212302 67176811 70272967 72508889 71295056 65606530
884.21 58759434 53985558 52964348 55473849 59348423 63439645
887.10 69115381 75710472 83154137 80489854 68957862 61408468
889.99 61692541 66614330 69757469 66731742 60081103 55049726
892.89 52493358 51069877 49952635 48975207 47833831 46721656
895.78 45479550 44158486 42850686 41817598 40840146 40049282
898.67 39585480 39246018 38903667 39089851 39809523 41196164
901.57 42969106 45321920 48128155 51585191 55493766 60196085
904.46 65054949 70161813 76048708 82853297 90294995 98528482
907.35 107459564 117318840 127870710 138600791 149643776 161205534
910.24 171963737 181956070 191214365 199418263 206126236 212119531
913.14 217119513 219531658 219586133 220109358 220067934 215106807
916.03 209223835 211483591 217309287 212027936 210154404 238931654
918.92 273197778 265575485 267259029 351317757 428733615 400925335
921.81 390866163 458172367 346736899 202111999 189369856 195453329
924.71 201110687 222877099 239784430 241776345 248685057 259170645
927.60 270743935 278627995 282446244 282493299 279417758 271854564
930.49 261168374 246741571 229870696 210691486 190712093 169929567
933.39 149575320 129466991 110803129 93426646 77968974 64083792
936.28 52266219 42059675 33641395 26496279 21023416 16496307
939.17 12945663 9979703 7864560 6067743 4862720 3744394
942.06 2974500 2312763 1912825 1451845 1222563 936812
944.96 795292 578632 563364 442067 442466 358838
947.85 356375 275152 311913 207753 237877 206850
950.74 261917 183165 191955 110018 106692 102392
953.63 197014 117008 112516 30806 80180 27292
956.53 69662 93821 183049 134955 160318 82991
959.42 91199 39405 25249-26708 4938 18653
962.31 82824 21367 16067-25639-12929-33787
965.21 13162 11077 54295 10847 3856-51992
968.10 5635-22698-19172-57527-31930-16353
970.99 41394-63229-80251-111336-99899-83098
973.88-6039-10814 25154-20558-57999-98108
976.78 8486-24646-41258-60212-10229-29742
979.67-10609-31978-34038-103637-72544-60690
982.56-31890-77985-36389-48420 6691-2549
985.45 20511-15049-4239-23563 40860 32925
988.35 35369-25615-47653-64549-26574-77892
991.24-68833-86800-61953-85592-61702-90310
994.13-76950-103718-84388-97606-62737-67499
997.03-31585-57644-33053-97184-79017-96484
999.92-71519-51160-24875-106486-98268-108555
1002.81-85071-113331-35635-77015-54523-42777
1005.70-44061-108445-80718-107318-73650-94080
1008.60-74021-91278-79535-91550-94786-155405
1011.49-98198-96319-101571-141840-111480-125620
1014.38-86524-77601-59878-114650-102952-52904
1017.27-69304-150527-87183-37857-43677-79260
1020.17-46391-48660-38491-87285-68858-120823
1023.06-81326-83627-102127-140005-100601-63045
1025.95-3083-25376-7236-7683 40102 5658
1028.85 17892-8794 16033-35837-59469-45601
1031.74 33627 26957 53141 33499-3662-63669
1034.63-18234 26221 34139-25957-6975-17583
1037.52 11752 24048 21359-26186 15388-23889
1040.42 18139 95264 120690 9955 26541 20177
1043.31 54944 107115 150100 121138 178429 153730
1046.20 139098 119751 188498 176379 190965 127481
1049.09 175248 237186 290458 293208 317704 288500
1051.99 381139 441530 539518 541219 557094 596992
1054.88 737591 740227 772599 895812 1038235 1086486
1057.77 1185798 1214850 1353980 1479614 1649356 1753292
1060.67 1847444 1951244 2122433 2219224 2397732 2531086
1063.56 2696690 2888616 3124567 3255458 3489559 3754824
1066.45 4097418 4347971 4620817 4990317 5504822 6008295
1069.34 6569711 7070844 7678620 8300069 9021712 9762812
1072.24 10614594 11511074 12729894 14349256 16257993 17842778
1075.13 19111808 20168755 21207180 22478760 24561015 26988539
1078.02 29599831 32332142 35389314 38606605 42103734 45705887
1080.91 49638449 53826932 58215729 62707009 67627824 72722498
1083.81 78059342 83490722 89146628 94987852 100963043 106927708
1086.70 113038642 119003521 124997181 130975667 136995833 142699332
1089.59 148330756 153537683 158192613 162354057 166434046 170320977
1092.49 174295864 178286718 182328495 186535066 190962777 195733735
1095.38 201641833 207586869 214327510 222167285 227164028 226748971
1098.27 226394337 230852802 234245486 229890748 221223482 225132374
1101.16 256903908 289920784 292682027 272912672 252804084 232270855
1104.06 206206019 189209379 181263494 180421552 183062332 184234396
1106.95 183373077 182653416 182773290 183083180 182433104 180617084
1109.84 177534210 173220794 167979779 161967739 155205960 147740841
1112.73 139741669 131613263 123288743 114819476 106572862 98684279
1115.63 91208961 84382623 77993869 71989893 66435348 60957093
1118.52 55706869 51453094 48592817 46885477 46399854 46660987
1121.41 46305821 44825544 42599334 39492722 36732569 35872307
1124.31 37650976 41384701 44697037 45372138 43275556 39074862
1127.20 34144526 30172223 29251277 32355594 38001147 39326477
1130.09 35942554 33417638 31687292 30375877 29508460 29094423
1132.98 29018669 29162811 29449072 29908851 30495364 31261681
1135.88 32239396 33369825 34661953 36216591 38077414 40153735
1138.77 42591468 45387941 48497316 51918622 55673127 59743649
1141.66 64209446 68985310 73944429 79019864 84238313 89596776
1144.55 95046036 100322360 105209216 109899437 114683643 118980971
1147.45 122106825 124637167 127181858 130004935 131310645 129615348
1150.34 127486985 126042495 124808205 123981601 123993940 121854832
1153.23 119722786 120419460 121594183 131006024 137702765 137453185
1156.13 145644464 150119783 173959034 231033354 222841036 189239339
1159.02 157235561 164283259 394483128 593144746 296644682 96982109
1161.91 85065877 89433282 90170106 89175836 86878574 85612978
1164.80 84411646 84357476 84125026 84557749 84571567 84796953
1167.70 84421143 84139550 83083423 81839849 79929665 77828912
1170.59 75163613 72419031 69094548 65795502 62024631 58373942
1173.48 54558202 50863622 46927832 43225963 39549564 36101462
1176.37 32571409 29407210 26292509 23544747 20920700 18583125
1179.27 16297996 14339735 12512610 10992520 9531673 8317893
1182.16 7157531 6230850 5349155 4702161 4046069 3527766
1185.05 3019899 2659974 2289404 2088764 1827841 1688937
1187.95 1557893 1543065 1395649 1288534 1148030 1161257
1190.84 1092751 1103968 1089020 1111176 1085710 1116682
1193.73 1099702 1135353 1054385 1029880 972530 984000
1196.62 971391 1019803 998715 1073641 1098053 1134335
1199.52 1188391 1306417 1277440 1329837 1302148 1113607
1202.41 859971 831467 853565 888406 856656 945871
1205.30 1025995 1139692 1187908 1252134 1280818 1310390
1208.19 1082354 758650 621344 658552 664138 667257
1211.09 643790 649363 619074 651309 641905 648162
1213.98 589813 605479 617523 626687 576505 575851
1216.87 598886 650668 622830 636798 650362 676339
1219.77 635620 661929 664246 687263 732603 838972
1222.66 848920 892089 930785 1028848 1014761 1017116
1225.55 1079181 1142718 1222123 1314053 1345682 1378293
1228.44 1433183 1471288 1434222 1418995 1419413 1482772
1231.34 1559031 1638728 1662508 1663154 1646521 1673886
1234.23 1666219 1768508 1847533 1946187 2047993 2137008
1237.12 2230114 2361432 2497215 2679361 2801806 2922928
1240.01 3061478 3183115 3117374 2941568 2836481 2818546
1242.91 2667246 2241854 1656741 1449510 1435134 1474561
1245.80 1413037 1285736 1219323 1247132 1210929 1170241
1248.69 1198516 1219305 1220621 1263383 1267604 1220671
1251.59 1164689 1127431 1085389 1067715 991930 944316
1254.48 904378 843921 734973 656817 601327 532274
1257.37 446416 416693 357475 325571 279207 222716
1260.26 171875 158643 116299 76492 34073 10494
1263.16 24839 54490 13474-44040-76480-53104
1266.05-64388-23094-13522-17759-10419 19585
1268.94 8821-39232-62169-31169-15698-17250
1271.83-26194 5167-2620-4096-34675-70260
1274.73-87440-65714-72398-58147-37912-39564
1277.62-70447-40738-7097-2209-11918-26806
1280.51-50362-24549 2430 25115 1556-16400
1283.41 5209 8147-65221-49438-9174-13737
1286.30-20146-2932 9039 45223 9802-12514
1289.19-22626 2432 16799 44980 30408 17417
1292.08 2118 11561 19311 74518 63634 30533
1294.98 49645 56324 37809 62160 84808 67300
1297.87 50281 87544 80574 81017 58044 61157
1300.76 78503 104302 67715 65971 114121 107343
1303.65 40629 74686 110503 113042 119602 146430
1306.55 139305 127390 99046 121958 144478 149463
1309.44 172317 189360 168248 174442 200399 203735
1312.33 178921 155776 117337 140030 186266 217857
1315.23 215250 230817 250803 264195 254693 253948
1318.12 240249 223529 192194 166186 162565 219517
1321.01 260649 264442 292159 325338 281103 255045
1323.90 312844 326192 280666 291297 316699 340808
1326.80 347580 341491 304758 283354 298426 316227
1329.69 312502 325812 320895 333352 380684 436987
1332.58 431685 366466 348210 357419 380018 396623
1335.47 382135 383398 387675 363054 341672 356594
1338.37 412959 434151 410671 398923 455638 507463
1341.26 519965 516739 509351 512352 511905 536684
1344.15 557292 573523 609719 664485 647079 585048
1347.05 531148 516773 558403 605525 554443 418818
1349.94 418140 489928 450142 328947 305097 374758
1352.83 417771 433273 497408 606119 686849 762552
1355.72 823852 854575 729643 685753 798067 693923
1358.62 651532 683988 590736 507421 535865 594300
1361.51 701551 819901 765784 641912 614687 692796
1364.40 720083 763964 797192 827990 827775 801638
1367.29 736649 750691 810255 866693 911882 875478
1370.19 796527 809527 911005 897235 882577 978634
1373.08 983528 997796 1029929 1050237 1051897 1016236
1375.97 954157 883074 909299 1002738 1026205 964271
1378.87 920294 973685 1123997 1126114 974946 950884
1381.76 969876 982543 948526 927866 1014437 1194520
1384.65 1300128 1253536 1164504 1045923 894328 824396
1387.54 823793 838879 829009 789071 713744 690223
1390.44 696438 664379 630267 614741 555460 552949
1393.33 526057 490607 484624 406256 248458 197046
1396.22 222587 229950 210543 197035 153912 135119
1399.11 140884 105413 90879 135692 94486 36278
1402.01 155 4141 23183 48770 41055 17092
1404.90 29867 68253 57523 74676 75720 49084
1407.79 30702 42369 48733 31923-2359 34764
1410.69 46914-6983-30419 18023 44535 15397
1413.58-12454 26183 26714 2206-24563-19053
1416.47-2732 5773 17678 47810 5720-71115
1419.36-17359 18518-37143-31616-7093 3681
1422.26 9738 16814 13732-851-14315-10619
1425.15-328 18581 535-33531-14458 16614
1428.04 10465 1213-37282-37541-12598-12776
1430.93-17490-21083 1643-13034-30198-27155
1433.83-2077 27971 7889-15562-60277-118761
1436.72-107608-43982-5506-17903-17818-1160
1439.61-10843-24105-56713-62112-32097-18629
1442.51 1452 12776-7825-6165-18678-66145
1445.40-78058-36082-27096-51097-65203-56661
1448.29-31854-1821-3539-20191-34825-54626
1451.18-71172-77102-64818-30789-8123 7245
1454.08 15073-9614-40294-64939-186096-178500
1456.97-30394-36005-70514-26589-3457 6377
1459.86-908 26778 36682 59280 47998 40175
1462.75 63248 87207 45504-9693 34548 89677
1465.65 97266 115543 119417 137117 159007 174125
1468.54 164859 121512 110738 136878 145347 92978
1471.43 42144 65156 79536 19518 84458 158587
1474.33 148453 155979 135402 107018 172933 207486
1477.22 199402 209456 261908 237911 321132 359489
1480.11 192865 111058 113517 143821 113927 101550
1483.00 113328 145005 149408 151929 140572 110539
1485.90 86600 58871 26483 65836 88552 76744
1488.79 65283 49457 21581-5479-8861-820
1491.68-4624 9769 29516 25407 7927-5656
1494.57-12756-53251-176479-161298-76037-60602
1497.47-39757-57426-81246-56414-34585-16250
1500.36-42994-57032-14164 13708 1658-19601
1503.25-34664-32989-62867-150695-201997-133902
1506.15-180248-169580-42900-27613-64692-68416
1509.04-58694-39083-9981 31097 12771-23374
1511.93-28777-3379 2798 46153 41321 9231
1514.82-22864-9291-13933-18046-55125-48061
1517.72 34135 67619 62251 72334 40678-16809
1520.61-120420-61888 13970 36 41732 71862
1523.50 72476 65057 17914 12108 87585 133414
1526.39 122046 102110 137200 132092 116757 107191
1529.29 71229 65767 88327 96277 111857 115847
1532.18 88415 55042 13544 44276 83437 89544
1535.07 121523 166748 143967 99742 69398 59698
1537.97 21414-92083-78522-59185-82463 561
1540.86 28067-15294-6016 34276 18714 40145
1543.75 84647 82996 25505 26379 50997 50832
1546.64 53290 76053 81706 96139 83415 97785
1549.54 96497 84633 80725 79111 96360 83875
1552.43 83486 85007 79913 34239 57446 71258
1555.32 66055 51998 42873-2103-14125-63882
1558.21-70656 29899 4234-70897-10603 98018
1561.11 116764 85788 58522 62911 64793 95920
1564.00 104192 112832 100288 60290 71759 141555
1566.89 165514 165173 150647 161800 171597 136563
1569.79 157474 227201 256423 272642 255761 273504
1572.68 289165 319741 336562 333910 323183 286286
1575.57 216254 271570 393439 453002 458093 480097
1578.46 507760 523946 537879 572993 621184 604240
1581.36 577398 601622 635045 639630 640760 661143
1584.25 686927 667094 575118 590188 764193 973319
1587.14 959077 664519 644244 864426 1053970 908187
1590.03 595170 525837 546489 583758 638593 681850
1592.93 686875 694494 670013 655223 640766 637184
1595.82 624398 594955 545441 525542 545465 511840
1598.71 442633 405446 359162 292523 240564 201913
1601.61 164408 144372 120490 99218 78225 76821
1604.50 46645 52104 25027-3395-16439-21737
1607.39-15841-22633-34388-20884 17710 50860
1610.28 36921-20302-49460-31103-18567-6622
1613.18-45558-48073-44669-46973-58524-97861
1616.07-195065-154505-43399-12160-3415-1543
1618.96-14411-23905-34544-5911-4182-35320
1621.85-59012-55666-80728-72755-25050-47947
1624.75-52114-42772-24307-17555-36904-82157
1627.64-59999-20778-22135-7586-1601-18901
1630.53-54301-51014-32613-11976 700-3518
1633.43-10222-36476-124401-203232-172750-46328
1636.32-51244-90302-70029-43697-65620-53516
1639.21-16104-21374-18029 813-6169-15918
1642.10-15130 3756 1573-29166-27563-25272
1645.00-86795-156130-109645-52238-43159-44446
1647.89-82635-46707-26836 2281-31928-65376
1650.78-48781-86055-224284-264694-251618-172109
1653.67-96211-60866-10829 9666 3553-12394
1656.57-28991-30355-2032-34322-45070-1704
1659.46-35951-55733-34897-6798-12501-59670
1662.35-117763-73435-26698-26326-35001-31606
1665.25-25621-29027-29070-9045 5287-22436
1668.14-61747-110566-77204-26285-1453 5825
1671.03-33748-42155-35559-15938-21265-31479
1673.92-37308-107891-153765-87533-30083-16581
1676.82-11916-25621-28147-22043-25453-30368
1679.71-43643-32686-12430-17499-59168-84224
1682.60-103203-95299-123112-256264-253484-81817
1685.49-27918-11540-14837-16662-38284-55314
1688.39-65541-37244-27013-18100-25471-49764
1691.28-48672-37473-50599-57721-54220-59045
1694.17-41253-85708-231351-234755-79991-45374
1697.07-44251-45868-55217-69953-124034-204625
1699.96-210398-156402-68957-34937-14690-42637
1702.85-55360-51940-57840-38863-26092-20366
1705.74-51806-60168-40691-27330-18332-24579
1708.64-30573-36892-32415-8635-45254-53580
1711.53-25568-32351-25697-27882-44070-53230
1714.42-79276-66145-37095-40741-102878-229321
1717.31-186127-102240-103648-80487-33507-12941
1720.21-11670 8966-8354-9527-1833-11759
1723.10-10733 1318 7151-20228-28210-23519
1725.99 8416 23894 4476-13603-14546-10374
1728.89-24930-28930 18930 27169 13406 20660
1731.78 2129-8151-89522-88504-96216-110745
1734.67-7265 31781-2717 4155 40371 23998
1737.56 9373 23878 27577-25903-46902 38562
1740.46 65151 65678 92515 118326 128632 120259
1743.35 139370 159262 167376 186957 196189 200326
1746.24 224733 221423 203875 204562 221111 270329
1749.13 275883 270912 283129 254589 255383 299725
1752.03 328509 335914 307310 319566 345038 362987
1754.92 398503 414377 397866 380127 390844 398085
1757.81 416169 424169 421797 435588 458184 443788
1760.71 427381 398976 418324 435746 406175 409423
1763.60 431201 460141 447954 401353 330260 273716
1766.49 255567 281996 242574 248370 302264 322223
1769.38 312971 301085 284300 211501 190380 152018
1772.28 137840 229502 268328 247949 197409 180644
1775.17 175426 157623 118349 94345 100303 122029
1778.06 139201 146732 121482 108418 103492 70737
1780.95 64839 68863 64963 75334 91987 103111
1783.85 107787 87068 88616 96426 88138 85791
1786.74 105627 163666 217650 210964 179586 156722
1789.63 154027 151826 159121 178284 167728 113939
1792.53 156646 208946 238048 264453 253971 254665
1795.42 245765 229275 231378 249095 277947 308513
1798.31 311190 305878 296134 285039 304265 301652
1801.20 313080 321055 321189 342126 337727 306507
1804.10 319454 353598 329476 307229 315386 340124
1806.99 335585 320286 305326 298224 301397 306611
1809.88 283683 275214 271209 229296 226149 289837
1812.77 338453 320200 268223 224019 220862 233951
1815.67 249853 281083 263301 231424 219549 253147
1818.56 311250 300317 244224 238866 232543 235866
1821.45 254328 266660 268302 274236 240823 205302
1824.35 210942 211768 194395 205828 197032 193169
1827.24 208052 190933 176105 178188 165869 167122
1830.13 205455 257563 268972 257824 272400 301917
1833.02 271802 241123 212090 205058 227524 239495
1835.92 228673 245593 270175 278505 267172 247223
1838.81 260244 301204 283878 230592 204077 175283
1841.70 188887 208565 208265 206492 182766 179619
1844.59 155816 143929 176347 231888 218993 178976
1847.49 156322 137137 105862 115734 121587 128817
1850.38 109888 80938 79893 86183 85913 65272
1853.27 23376 1821-6346-6668-34351-56837
1856.17-45443-32881-14032-39032-82448-100789
1859.06-109162-108421-89188-91109-96125-124528
1861.95-128137-95782-118970-138381-136984-119185
1864.84-95843-82428-107301-108464-113203-116921
1867.74-103264-92987-100037-100211-81992-76380
1870.63-81755-101975-105068-105346-90587-50890
1873.52-53619-49285-29954-21908-49970-67249
1876.41-53976-48231-56244-42926-13496-18089
1879.31-37500-40725-35937-32159-9565 324
1882.20-21155-16075-8384 10481 8524-28408
1885.09-21699 1930-12895-20307-30339-44770
1887.99-45505-57526-47549-34958 8108 25489
1890.88-17730-49353-30866-9635-60-8603
1893.77-27635-45424-39287-14534-4356-19510
1896.66-35711-40177-30881-19539-1787 14080
1899.56 26504 9654-15628-22647-10576-25996
1902.45-40933-7318 1563-5604-6149 211
1905.34-8339-34147-50239-38754-5244 11508
1908.23 5550 1873 2225 190-4565 8933
1911.13 790-9740-1633-15960-30737-46370
1914.02-40319-19921-24040-36843-41742-26912
1916.91-26940-49029-30806 4468-4289-19768
1919.81-14369 2383-19-21077-31916-17513
1922.70 763 20649 7013 4761 7467 4749
1925.59-1087 5602-2838 17747 16816-8531
1928.48-25601-14572-9500-19929-10177 685
1931.38 146 4782 13984-10610-27533-26149
1934.27-16010 25950 18150-9608 8801 6311
1937.16-26146-29060-9263-2647-9037 6975
1940.05-15246-33383-25646-2740 18084 11055
1942.95-29009-29242-5695-19722-5856 14618
1945.84-12620-7269-23754-26105-15774 6692
1948.73 7349 6-2300 17736 27340 30466
1951.63 13420 1243 20547 9570-16478-13726
1954.52-12752 12264 20959 4250-2874 8748
1957.41 10991 4752 2952-9767 7209 27245
1960.30 22371 8725 10051 8955-9071-14885
1963.20 13649 27842 20118 5591 13666 40520
1966.09 39878 23875-4479-1542 15017 30860
1968.98-7726-23647-15550 20468 38811 38644
1971.87 30404 27001 41562 56198 67606 32524
1974.77 1386 435 5330 7893-6251-14299
1977.66-8587 14708 26312 4185-25540-8149
1980.55 1728-5143 1300-12852 2249 4961
1983.45 13565 7984 2742 27578 22085 9515
1986.34 10315 6722 10562 10660 10862 27314
1989.23 36220 26143 6128-159-6540-14985
1992.12 5314 26092 10772 25637 44252-1568
1995.02-17944-13729 5760 15155 18645 43249
1997.91 51874 26428 25038 42028 43330 66654
2000.80 65905 59381 49292 37749 59106 68073
2003.69 39041 28723 38364 33492 40153 66209
2006.59 76657 89568 82521 77589 72660 63456
2009.48 78502 84677 63784 78031 85177 88192
2012.37 91192 80205 66106 53904 62159 85489
2015.27 93793 76970 57925 75690 63612 53303
2018.16 74560 79631 62721 71815 75936 67740
2021.05 72240 70083 38281-7842-4146 38375
2023.94 42685 19767 18309 22857 37567 61257
2026.84 84242 106111 98648 89942 68598 59633
2029.73 40418 19120 12639 14572 23677 28682
2032.62 8451 11355 35151 44327 29372 15370
2035.51 18894 16664 44539 55795 31923 50394
2038.41 55702 17991 25118 50815 37008 31693
2041.30 32816 18601 21158 16221-6139 30099
2044.19 41298 34360 46060 63744 45026 18112
2047.09 43389 33455 19207 27787 24776 31845
2049.98 25413 14521 58712 78955 72942 58218
2052.87 50378 23634 13490 178-3918 9707
2055.76 19626 28395 36676 34696-12479 5094
2058.66 30519 19962 45444 54044 42132 13352
2061.55-3336 5619-1654 413 20255 35961
2064.44 49601 24886 13243 16278 20553 10459
2067.33 6404 6392 7516 6885-8303-22746
2070.23-8974-23674-1071 46957 50687 26894
2073.12-12401-14217-3635-5690 32 24296
2076.01 21449 8627-16778-46 27936 6177
2078.91-46701-59676-34610-43081-46389-19410
2081.80 19813 12060-6176 36025 40723 33320
2084.69 29002 19996 2148-15704 7925 17584
2087.58-16293-24947-16405-27685-29957-29755
2090.48-9625 16831 53460 56669 13524-16627
2093.37-25728-7283 9562 28038 15233 12009
2096.26 23124 34614 9768-23438-35600-16385
2099.15 20417 20467-12199-32340-42854-29847
2102.05-2708-13496-20178-14313-45770-32158
2104.94-14504-16629-8474-5683-18021-11966
2107.83 10799 18247 22874-9295-4431 795
2110.73-10544-23334-19282-25255-14765 6721
2113.62 10159-3460-43037-54600-7022-13717
2116.51-27327 619-1387-17101-32346-51311
2119.40-32728-342-7987-9342 5870-17235
2122.30-41136-36943-30522-33902-18895 6028
2125.19 22581 31840 16385-23500-29226-9174
2128.08-9650-13398-14766-16808-3007-2431
2130.97-10069-29692-17734 4107 36306 9002
2133.87-8881-5051-15343 8194 12212-9606
2136.76 6297 4576-19470-6805 25686 34839
2139.65-3249 2207 23442-3267-11263 8747
2142.55 6005 12551 4909-10675-17784-28350
2145.44-10652 27358 30791-1546 26792 38459
2148.33-14864-40667-40151-38154-26911-347
2151.22 18010-13402-29184-23480-37003-17968
2154.12-31697-46967-69028-49038-10316-15857
2157.01-32640-40504-29865-46766-63206-15097
2159.90-6987-12140 7888-414-8122 4070
2162.79 3245-11809-13317 346-7425-9596
2165.69 32113 77179 72300 28113 14630 60223
2168.58 78674 67242 96104 107378 93905 116242
2171.47 132998 133496 145222 164608 175197 208610
2174.37 254169 276414 267754 272444 297328 336123
2177.26 367398 400984 447609 455450 425325 440628
2180.15 467922 505310 542081 572438 620057 627982
2183.04 640211 662157 679010 710549 769232 792282
2185.94 829062 881823 910566 891977 871913 884951
2188.83 957842 990907 1013980 1057510 1113470 1105546
2191.72 1042999 1048626 1140945 1262612 1311269 1259795
2194.61 1203095 1138168 1022527 952404 889816 838517
2197.51 834980 861343 895850 904459 925599 934377
2200.40 936086 967309 974869 948686 884403 820808
2203.29 774678 766799 748053 699973 630243 567411
2206.19 523120 476888 463279 459469 412784 355914
2209.08 333327 308896 300146 279200 262114 268331
2211.97 276943 306540 319800 279973 259874 248822
2214.86 268488 287050 311626 345536 355357 368196
2217.76 382709 374294 362746 401541 418465 428004
2220.65 463961 514571 534323 545471 539694 551723
2223.54 591403 616605 661556 720237 759839 812135
2226.43 872285 905654 912582 987411 1047504 1061268
2229.33 1085946 1150816 1233964 1308661 1336562 1368574
2232.22 1446895 1476453 1510734 1582163 1620986 1674631
2235.11 1729836 1746023 1805327 1881280 1927257 1967878
2238.01 2016244 2030645 2042823 2100120 2175466 2191021
2240.90 2174935 2146733 2137683 2212738 2307387 2355134
2243.79 2444525 2495453 2652585 2804352 2652097 2329935
2246.68 2261019 2366423 2548380 3090902 4224570 5177608
2249.58 4778711 2908020 1614822 1526527 1554205 1447678
2252.47 1319611 1276465 1226686 1235213 1291902 1338993
2255.36 1345802 1378092 1369796 1314256 1262518 1225437
2258.25 1179581 1142365 1068173 1025499 971651 899210
2261.15 864554 825192 729871 639488 565479 499678
2264.04 455566 436569 422534 403668 353397 302423
2266.93 298396 298327 251253 230568 241641 220030
2269.83 217355 251816 254541 251442 231546 214834
2272.72 212631 226290 224681 213720 214976 248281
2275.61 242324 221830 240468 245184 236395 268584
2278.50 358546 301917 216042 205342 216646 213774
2281.40 214949 185545 246472 291389 125050 50205
2284.29 71420 69439 54930 74280 94383 78254
2287.18 19129 6566 43434 54690 91022 127260
2290.07 119492 105548 129415 166544 167339 158911
2292.97 185924 205837 193653 203980 217722 239093
2295.86 258018 269232 303732 342623 339717 354120
2298.75 384271 424368 450297 512472 539253 553991
2301.65 541618 555344 613914 644686 621128 612703
2304.54 598384 548005 557938 619951 685848 800000
2307.43 928959 1086625 1199925 1146933 903311 625434
2310.32 539086 664977 920957 1130042 1226716 1234122
2313.22 1131077 1029127 945473 877543 749314 694464
2316.11 748395 767479 712443 707692 708806 674210
2319.00 654123 645664 586905 485014 379091 443861
2321.89 600430 677693 626455 514162 456723 454624
2324.79 419710 352657 337864 325798 262254 205097
2327.68 206428 222504 172335 149308 206151 210248
2330.57 139527 85870 91290 100598 57661 31354
2333.47 54535 51643 4703 3329 22269-23389
2336.36-38951-4363-9781-63646-48978-6345
2339.25-21453-78267-52038-7693-69567-86700
2342.14-41622-72484-108033-38536-14664-72690
2345.04-82994-65462-58817-29811-34247-83689
2347.93-93320-48052-63345-96197-100398-73527
2350.82-25760-12302-13316-6842-13498-26133
2353.71 4861-8671-37750 24589 39118 10568
2356.61 56721 68140 19944 45372 29790-3348
2359.50 61822 57031 19729 59531 44719 80928
2362.39 121147 82385 83956 86659 40213 50118
2365.29 30127 45119 84018 77567 80807 51367
2368.18 62788 63608 18382 51353 40600 80753
2371.07 116118 62159 40701 27589 36003 40565
2373.96 1681-7476 14337 14057-2943 33016
2376.86 23461-3966-16144-498-10858 17255
2379.75 46685 41812 10500-2796 6852 31387
2382.64 46959 35813 19856 14631 9023-4856
2385.53-19736 6821 41787 46874 56071 35282
2388.43-9879 5752 29069 26723 7072-13175
2391.32 3289 41867 31569 38933 46053 26003
2394.21 9822 26505 43441 71654 63697 13492
2397.11 33767 35056 44814 56201 29062 54249
2400.00 33432 13667 38005 53803 42748 10677
2402.89 10809 38510 22614 14087 22640 18586
2405.78 29285 38213 46401 55508 26474-25514
2408.68-26841-10674 49983 83176 66991 34231
2411.57 21083 19229-2928-11568-1855 6823
2414.46 28637 56669 69835 48357 28493 16639
2417.35 39981 23168-23754-12234 40535 74211
2420.25 49393 21898 22016 25367 28903 21027
2423.14-848-14379-9291 9169-9511-29386
2426.03 6077 40846 33484 28701 26327 9582
2428.93 32853 65991 46496 24163 23862 37125
2431.82 29524 4458 27675 26846-3883-9493
2434.71 12818 2578 6339-3552-339 14441
2437.60-561-17757-12282 33309 29817 27039
2440.50 36859 37240 22430 6855 17187 34275
2443.39 43087 47375 51449 47777 21285-6329
2446.28-5696 41637 20651-23768-12363 18893
2449.17 57937 35641 35589 36535 6747 10505
2452.07 27337 20568 17000 25220 15759 16815
2454.96 30653 18018 18862-748-10331 2185
2457.85 24964 42934 34828 30866 39838 38526
2460.75 36573 59777 45064 27267 49778 33995
2463.64-17330-2809 23414-2949 8434 46196
2466.53 27262 9832 16542-4266-16740-3784
2469.42 21831 64822 60443 27026 13181 9932
2472.32 45543 49254 50584 36942 10124 50551
2475.21 29109-6457-10201-16490 14127 30843
2478.10-293-17078-35327-44181-22826 4919
2480.99 5955 2634 1289 396-4816 4677
2483.89 8520 12758 10820 5466-1620-13602
2486.78-24540-14016-7662 23625 34774 24075
2489.67 31876 24447 4511-28151-17291 7227
2492.57 10486-1835-16221-25652-17846 10020
2495.46 32235 13588 11991 8267 2399-14165
2498.35-23793-27306-21006 14426 3523-33000
2501.24-37698 11564 24388 57233 65494 48225
2504.14 45206 45628 32069 20148 28757 19538
2507.03 10279 47484 69764 56498 42195 53955
2509.92 49553 30750 14427-36709-16832-6455
2512.81-26911-33966-8696 24584 6457-24904
2515.71-30771 2373 32275 53266 61222 41127
2518.60 8764 35419 48837 43799 53381 34222
2521.49-5112 17666 21686 8187 8798-22907
2524.39-44742-16180 29815 47954 28814-11793
2527.28-22508 8646 2393-10438 14414 28255
2530.17 27140 24267 23354 51696 41824 20273
2533.06 22527 19780 29994 27000-13032-20032
2535.96 25469 56907 34662-1481 2249 22796
2538.85 23729 52996 39517-660-19487 15541
2541.74 55868 49869 78352 79736 28182-21770
2544.63 16210 41627 7164-3422-8549-8191
2547.53 12786 21049-1734 1143 1036-10081
2550.42-13670-2949 31143 40199 33724 27057
2553.31 23254 11709-8703-4770 25594 31319
2556.21 17767 22689 21503 18745 28453 22814
2559.10-12121-7874 3191 20809-5701-10047
2561.99 16968 45838 39101 29592 34033 10995
2564.88-1778 17088 38666 24395 9534 21575
2567.78 27764 20640 30468 43631 32726 33988
2570.67 34798 30627 12182 9198-5089 13426
2573.56 17141-3623 22431 32780 27261 18752
2576.45 18666 53422 37679 4661 10434 23808
2579.35 18856-16395-6838 20712 40750 24894
2582.24 12309 5209-34234-12090 9410 1470
2585.13 19887-131-5501 17274 40382 35596
2588.03 53694 30431 24188 21983-12588-21437
2590.92-1416-18402-12899 3498 8172 1789
2593.81 5835 19177 35956 28432 10314-6594
2596.70-20114-12011 16230 27919 27829 25606
2599.60 33884 37174 36035 68480 52001 6000
2602.49-15677-12986-13446-25169 8500 29501
2605.38 13451 15590 9535 1194-7628 24669
2608.27 35788 32116 33200 17883 8984 55716
2611.17 76237 45062 1838-3161 4022 6211
2614.06 9619 14036 6254-8826 2923 21812
2616.95 13940-23297 2808 25256-12737 1374
2619.85 42593 47223 46324 54010 6983-21922
2622.74-39731-53601-41021 4693 12096-1244
2625.63-3340-3906-13575-31405-31693-42874
2628.52-25498 4679-9109-20428-11109-2701
2631.42 32139 30673 36967 54769 39848 44520
2634.31 40240 9852 7956 765-31468-21955
2637.20-9998-1438 10935 30434 31326 16024
2640.09 21993 41195 55197 2351-20014-33846
2642.99-9184 38330 15023 14907 4655-20127
2645.88-56439-19321 33690 30556 32618 5601
2648.77 15185 39466 32684 28487-9285-33026
2651.67-7439-41026-45204 6798 12548 6562
2654.56 8971 4292-12133-22655-46347-3976
2657.45 33762 19454-13193 9372 16377 21090
2660.34 33972 22374 14922-18775-43713-40820
2663.24 159 11482-3356-13509-35461-15482
2666.13 3886-4299-745-211-8436-7058
2669.02-15568-14947-2322 10163 1223-9101
2671.91-22929-1441 11602-2972-2026 18435
2674.81 14983 12291 29657 14681 13899 6264
2677.70-36391-60764-56669-48479-27775-5631
2680.59 3434 31925 63678 44224 12811 26285
2683.49 42300 34186 15187 663-17204-50528
2686.38-25079 21613 5767-177 18869 22868
2689.27 12376 185 2305-8185-5694 13677
2692.16 29950 33482 20300 8280-29598-42930
2695.06-25082 11282 6044-35484-47407-40654
2697.95-46075-72987-91803-96776-96873-83485
2700.84-36129-5592 26971 24584 19168 49357
2703.73 11357 8557 66889 75000 54008 29478
2706.63 28000 46673 21120 46533 84867 55572
2709.52 24835 16396 34332 12717 12682 29667
2712.41 24261 13887-16086-11240-34368-59081
2715.31-39537 9009-15323-70887-48556 4622
2718.20 32866-526-12665 10077 8372 4489
2721.09 15739 13756 19688-11644-36544 11240
2723.98 24943 13391 2344 18791 35882 29425
2726.88 10771-4715 8785 1731-26002-48293
2729.77-23465-7843-24523-12268-15780-5229
2732.66-28859-47595-55035-36712 6530-14302
2735.55-36707-11299 19114 51810 95569 43057
2738.45-19431-7096 16775 13985-10490-6354
2741.34-9012-47306-27428-9354 1376-23905
2744.23-25351 5174 19537-2427-46372-91127
2747.12-58134-15161-19953-7811 29615 20623
2750.02 11324-14703-29255-1596 37725 16650
2752.91 17231-4348-17754-15914-29639-24550
2755.80-7857-91 30548 18001-40697-63844
2758.70-35300-8419-33090-51473-3341 14013
2761.59 9972 16168 78017 63931 28604-27312
2764.48-43198-51060-67280-48389-50840-46431
2767.37-31491-49197-54975-22758-20931-21297
2770.27-29658-25284-30224-20766-43619-67397
2773.16-42963-19699-3005 35782 45500 49925
2776.05 44245 14988-48159-68540-42047-47123
2778.94-45450-28648 7034-11899-50284-25704
2781.84-11038-3470 10746-18787-48646-33903
2784.73-81159-94728-40527-58383-86457-63791
2787.62-22402 39325 16729-77209-111369-46687
2790.52-6872-27181-37885-35898-45208-37875
2793.41-51322-66855-73735-31878 9759-20774
2796.30-45354-81328-64844-17612-8362 4392
2799.19-16593-36796-56899-17330-5606-73141
2802.09-63820-18200-1626-45425-75446-48243
2804.98-21239 14633-1157-33578-36686 6922
2807.87 1322-22928-89947-79045 3674 6518
2810.76 5804-8670-42511-44508-28959-32497
2813.66-40835-49839-45402-34750-38884-49372
2816.55-66777-19964-3328-7534 14917 28306
2819.44 5641-39149-88272-102593-44958-12387
2822.34-41281-23216-23024-8162-32372-35045
2825.23-20135-28323-56506-63508-40916-38937
2828.12 3702 53181 22904-24692-87703-123652
2831.01-81649-63766-52004-33569-35956-10658
2833.91-25021-29515-12168-15349-11428-23848
2836.80-21098-37954-39695 3935-11247-62112
2839.69-51464-8122-6674-28630-51111-44737
2842.58-36581-31279-11421 5660-11076-27021
2845.48-33890-19908-41344-26975-11513-20622
2848.37-28635-46985-56281-60533-65509-33349
2851.26 10193-28609-76698-95690-70732-20971
2854.16 8534-20324-34490-16897-9409-6195
2857.05-6141 2394-1323 2067 16154-32543
2859.94-63121-75636-102712-84161-41384-50267
2862.83-50973-18259-6141-32371-36042-15772
2865.73 57669 63828-7294-52023-29110-25828
2868.62-52341-49668-3891 10104-9728-34774
2871.51-2805-44440-73486-45989-54239-66464
2874.40-39669-25993-63651-26713 71437 38365
2877.30-19144-34048-30603-31204-11809-7037
2880.19-4049 985-13472-19950 1303 4252
2883.08-9471-25577-58131-78788-87888-51848
2885.98-34206-58229-51625 13236-20147-74548
2888.87-71512-4391 54145 10092-62156-74909
2891.76-61746-48190-3759 22668 8390-32240
2894.65-49560-38502-51777-29910 4957-29086
2897.55-58635-29533 21262 33519-25999-46241
2900.44-18607-339 5195 9947-21165-48596
2903.33-31606-17960-32853-48653-10326 8335
2906.22 8942-13069-4374 27768 7052-35060
2909.12-57420-56710-24278-18552-40402-20956
2912.01 855 32025 24932-26988-76077-23970
2914.90 11845-26230-61288-48075-23324-24811
2917.80-5845 8560 5118-23573-24077-54978
2920.69-28628 27600 40098 33276-27454-51808
2923.58-48191-54596-42182-27197-74396-113722
2926.47-69542 7266 10994-53834-96545-63407
2929.37-3009-2179-24506-13889-13727-43002
2932.26-83179-52831-54661-39553-43344-32576
2935.15 5171-6281 13552 16222-5182-13359
2938.04-3774 8712 2677 15420 20901-12390
2940.94-21771-27771-34382-9515-11785-61701
2943.83-45301 13880 16018-36191-41875-19123
2946.72-21772-21767-38637-61825-6001 72722
2949.62 61985 41376 9616 21784-9817-56885
2952.51-29964-22566-33528-12607 6844-562
2955.40 13131 10842 941-3555-18948-35097
2958.29-55369-68585-47186-54539-48543-50787
2961.19-65838-88739-55271 34039-6412-89312
2964.08-109075-88416-60824-54300-26274 858
2966.97-9654-30951-44878-71313-119501-62364
2969.86-2959 13175 51532 25089-19110-35886
2972.76-62384-81134-48695-14722-9186-63115
2975.65-60484-8717-5318 4550 8335-13955
2978.54-57418-54692-18272-11617-26226-34986
2981.44-70315-94482-93967-48217 13624 27095
2984.33 15392 1191-18714-9094 49992 35782
2987.22 12539-3657-57403-60779-48492-67535
2990.11-26382 20303 1577-33334-5665 15214
2993.01 10265 21955 16075-17476-14123-20302
2995.90-31309-10509 6611 28022 19428 1860
2998.79 8933 19444 13388 24192 15533-14202
3001.68-55117-65728-22930 13134-15440-64051
3004.58-31248-25075-36512-48249-68526-48941
3007.47-26648-6305 21113 42089-3947-27807
3010.36-1002 54905 13812-29098-20924-48693
3013.26-24754 27313 25618 3844-49271-33231
3016.15-21406-37388-65643-45886 14088 7538
3019.04-1271 11361 8100-1705 5611 25639
3021.93 50311 48276 36147-3569-9402-13149
3024.83-37527-27270 12882 27244 12797 22295
3027.72 22478-26285-12917 1253 24045 12778
3030.61 13467 46523 26164-11262-742 11727
3033.50-35480-71910-74467-55982-37891-7636
3036.40 22099 4243 26062 29405-69029-126303
3039.29-20306 26663-37262 10894 41985 3580
3042.18 14371-7220-20019 12496 6648-37736
3045.08-41418-45933-19123 37924 27133-22074
3047.97 21172 39219 8691 4173-19401-55939
3050.86-42187-5058-11626-23247 1488 25371
3053.75 75545 73149 20767-30475-39999-37609
3056.65-10132 9124-16197-11899-5078-52425
3059.54-52899-10896 10793-52061-108284-52615
3062.43 18673 16987-14989-65758-75568-73542
3065.32-60977-62226-71621-5663 19926-5833
3068.22-9819 7007 2067-65962-81064-16281
3071.11 22614-30993-41066-73827-95360-68595
3074.00-29931 25773 23756-4259 11792-6833
3076.90-34731-35959-8859-11280-25044 9668
3079.79 65793 56406 14024 19059-10596-27399
3082.68-599 11640 5424 12284 55957 42070
3085.57-26557-30080 8464 17445-25898-63479
3088.47-40752-60169-59536 1853 58689 36912
3091.36 1657-2802 13416-3710 27020 33519
3094.25-24199-95768-103497-51453-13908 3693
3097.14-38132-11766-11703-45163-30312-4115
3100.04 21142 26051 10542 14336-3120 4761
3102.93 20762-4406-18253 25002 20079-1028
3105.82-13386-12814 29318 20804 38575 7821
3108.72-23932-49308-57183-39955-1143-6317
3111.61-13763-1271-4151 41544 33847-21843
3114.50-23165-11297-24587-21201 2558 12008
3117.39 3249-8533-41103-50265-29835 14517
3120.29 32636 19487-1272 8384 15171 25251
3123.18 14493 16260 13409-4265-2420-18257
3126.07 4883 65181 30565-8364-26779-35942
3128.96-11986-2885 12148 90299 75607-15174
3131.86-26128-33646-76848 6689 84853 60477
3134.75 19425 11525 29708-19118-78219-59314
3137.64-9866 26584 1673 6644 51027 25335
3140.54 64805 55954-24431-1297 46674 34907
3143.43 4585-16773-11952-2075-12326-80263
3146.32-82958-36808 6877 21457 8023-10410
3149.21-11427 11792 19241 34839 38588-16195
3152.11-19116 7116 25695 54177-21468-71241
3155.00-35426 38759 62439 9730-45891-17780
3157.89 7823-32848-17878-20291-60617-54350
3160.78-23645-49515-40352 32344 53356-18393
3163.68-49183-24624 7027-14115-38448-46538
3166.57-19915 4942 52600 36795-1659 11893
3169.46 30805 12554-34201-24255-4203-4793
3172.36 22072 13885-7869-53818-83031-3189
3175.25 38069-5604-62961-34131 10810 39692
3178.14 43220 10689 24286 11974 6849 7700
3181.03-35189-93232-62242-40394-24691-27705
3183.93-34990-52027-31878-19645 8867 29479
3186.82-13935 23430 34324 2543-10781-25814
3189.71-26306-17333-24436-9273-27821-74058
3192.60-88796-21478 33251 20393-23740-41310
3195.50-64794-80613-78865-54431-4549 24485
3198.39-4215-39258-36845-72066-56153 46
3201.28 41351 83471 46185-24051-42596-58345
3204.18-28896 6085-44981-35786-23498-28974
3207.07 846 6501-23084-53934-35555 13342
3209.96 8911 11001 8642-19114-47229-22896
3212.85-2380-22885-24261-29271-55831-79182
3215.75-27126 4953-18710-47650-24752-52060
3218.64-44768-5812-2064-39878-25369-40520
3221.53-92483-65489-40583-46110-37810 6829
3224.42-3307 14464 14756-3254-31099-43412
3227.32-79818-110339-126685-96679 1733 36614
3230.21-15896-66629-48404-47481-6093-4175
3233.10-34389 4228 11903 38998 51772-6415
3236.00 3807-40226-90544-52499-8058 4457
3238.89-77067-65051 50387 43910-35962-42961
3241.78-75162-89942-32666-27324-31428-81889
3244.67-126607-129472-83845-30215 32787 16459
3247.57-134-5066-8146-26820-31473-10051
3250.46-69132-89069 1296-26538-54054-44116
3253.35-18933-1631-21220-41190-30066-21859
3256.24-51300-48194 20018 27505-19883-54361
3259.14-55543-65763-49035-11032 34490 31226
3262.03-19288-71675-38360-54492-56431-11313
3264.92-13503-54576-40727-24326 2584-10307
3267.82-38413 6830 12725 39394 31501-35191
3270.71-31275-2165 334 30945 262-33934
3273.60-13662 12654 9871 30139 29356 27498
3276.49-64185-93932-86822-63571 27881 88233
3279.39 17849-8234-27773-72678-67289 35251
3282.28 77637 39802 31197 33014 6201-25819
3285.17-17626-16670-15397-8118-30586-42968
3288.06-37648-4738 47983 35753-6936-12807
3290.96-18808 52712 32091-20387-18756-16982
3293.85-49409-16013 5379 12058 28057 2536
3296.74-17073-27337 17373-4220-21783 50809
3299.64 25924-39631-58775-64065-70213-35237
3302.53-31746-53565-17504-5304 5659-8846
3305.42-7825-24055 31146 61217-9299-19149
3308.31-34210-68347-33957-12113-37558 24313
3311.21 39969 23354 6417 17529-15368-47986
3314.10 21576 60556 53805 64724 48354-686
3316.99 33130 89730 44543 17161 26200 8171
3319.88-26988 14820 69973 42963 47833 52689
3322.78 42243 31581 28799 19009 58914 65073
3325.67 44498 38709 51792 56198 93512 147278
3328.56 114626 48340 12898 36160-13875-77881
3331.46-104981-59803-10704-45814-38609-8545
3334.35-27242-8249 49233 57694 70883 17816
3337.24-22440-50250-93509-49173-9376-18973
3340.13-48690-39397-76456-69969-14942-20794
3343.03-49347-39649-39818-24748-3602-20365
3345.92-22960-53426-46530 34868 36759 37351
3348.81-710-49890-83097-52672-46857-42919
3351.70-4839-19437-41270-39412 20065 5472
3354.60-37870-33729-20634-26765-72715-11481
3357.49 29336-26325-43924-36906-61246-56444
3360.38 29852 53980 649 5918-7909-7507
3363.28 3709 41646 57165 16118-34627-89477
3366.17-77886-42608-33260-22705-38222 9235
3369.06 35780-70902-86092 8072 24695-35220
3371.95-4068-29729-2052 92480 7545-97321
3374.85-63714-33619-24052-84806-116142-27565
3377.74-23008-1852 91093 67122 15173 10569
3380.63 53055 61115 7641-14214-1318 12936
3383.52 60419 46448-23250-983 8952 26603
3386.42 2420-70970-48551-29407-22040 62601
3389.31 80027 74195 114343 159360 151503 77579
3392.20 27983 10289-24962-51555-37910-33802
3395.10-22589 10230 75088 86981 7561-35378
3397.99-43175-18522 29407 10761-12518 7481
3400.88-32293-19626 1294 13002 13644-47172
3403.77-49015-7415-24931-38924-57517-49677
3406.67-17557 13686 20656-49473-108525-89805
3409.56-97867-118048-110562-85851-61688-35755
3412.45 14187-33440-73175-5388 19514-59273
3415.34-34278 14079-23035-68482-116129-46522
3418.24 61721 73948-50687-130781-83181-25478
3421.13-56317-64002-32319-3368-18170-43522
3424.02-44152-18654-16477-7058-2497 22448
3426.92 11255-53642-43165-4489-27055-52569
3429.81-94878-38638 45334 24368-33246-38012
3432.70 18309 18240 5007 27299 24776 9652
3435.59-46022-60627-54814-36355-11813 3075
3438.49 54320 26081 14819 49500 48023 37860
3441.38 57406 45974 15782-5677-60539-84237
3444.27-21866-34985-53849 39877 57584-31152
3447.16-49132 10451 3460 26531 75787 77448
3450.06 33033 1090-14966 5556-77675-114387
3452.95-8303 100855 84754 39076 23576 2993
3455.84-2738 42086 49272-12933 11491 24955
3458.74-86891-62140 3130-30856-88243-61983
3461.63 21763 61833 85214 99563 43236 27279
3464.52 45164-11645-9600-60731-61972-5515
3467.41 9601 23378 9069-18456-44242-27228
3470.31-58392-44578 16324 72172 119674 65425
3473.20-7809-45053-62767-32850-41894-16012
3476.09 46383-24327-128049-108382-52069-17836
3478.98-14324-6494-15189-25866-42236-68946
3481.88-108538-79036-8179 20196 3492-65580
3484.77-45377-2235-18664-46938-76846-64693
3487.66-36745 4351 13098-56525-86553-11938
3490.56-6805-33137-27128-32268-26053 13098
3493.45 41811 36841-32684-74543-44828 2929
3496.34 26803 1740-51097-74118-40155-10021
3499.23 34782 77624 11202-68148-65552-111318
3502.13-34326 48052 32312 15286-20978-9664
3505.02 29583 14777-32997-80696-63193-48312
3507.91-87889-97873-47704-28686 5062 32658
3510.80 10152-11278-34655-52596-10777 11872
3513.70 31977 107381 62249-33902-80710-123734
3516.59-97673-82605-76077-46954-10865 10095
3519.48-22559 20563 53184 23969-13549-38169
3522.38-25900-36437-49064-1951-10640-3277
3525.27-4970-36154-2629 5056 29295 36545
3528.16-22018-40917-43263-74087-78287-78670
3531.05-53641-17021 28544 35278 21459 32390
3533.95 50531 35967-27280-63309-76207-69111
3536.84 14268 40581 43901 66940 9991 16736
3539.73 9790-52874-78008-66640-27323 23436
3542.62 81834 98544 81468 66235 9379-46956
3545.52-79862-73681-10534-14459-79564-48537
3548.41 7249-2095-16007-7688 21878 3629
3551.30-18008-42850-21804-55016-32178-45100
3554.20-21814-34424-69376-10085 45161 37139
3557.09 22682 34018 71413 74089 9465-16492
3559.98 29175 44675 27535-4491 34974 21319
3562.87 23453 66288 54386 27022-5119-17450
3565.77-28001-10526-18768-44463 6574 29857
3568.66-45440-44056 16122 2165-43560 2220
3571.55 31015 21724-8335-10424 69108 84152
3574.44 39952 13089 8311 43850 36357 54179
3577.34 53056 7942-14243 9872 13478 63449
3580.23 37846 24694 60979-13316-4219 71002
3583.12 103681 69420 49769 3607 10969 89414
3586.02 29045-4033-14804 4913 5803 9311
3588.91-2027 3652-4177 14886 30004 31698
3591.80 51306 27468 24813 55275 65507 62779
3594.69 77766 18508 2889 37807 31798 2313
3597.59-2567 45998 51627 24201 15324 11000
3600.48-1973 25456 17588 34921 77096 72624
3603.37 48341 50446 46072 28133 10497 26598
3606.26 69668 81590 52720 76616 97582 14589
3609.16-2086 84517 65426 22575 74388 81134
3612.05 6390-53 51768 64245 64463 110881
3614.94 101735 82963 60317 31630 7436-6561
3617.84 34994 44414 47468 60199 32983-43742
3620.73 36333 104346 45593-17263 32628 76428
3623.62 53030 11351 35736 35516 5137 48984
3626.51 88270 54724-20303-79711-43570-34465
3629.41 3318 60796 66294 54341 58221 37896
3632.30 21433 38038 51391 38442 57116 49648
3635.19 30870 44438 50508 46874 36977 29089
3638.08 23370 52063 80406 63331 67821 84095
3640.98 43475 13181 23429 31011 53408 80027
3643.87 31487-18791 1189-27694-25581-31229
3646.76-35620 6882 53898 23203-33460 33861
3649.66 40656 10714 35323 59107 76432 62951
3652.55 27219 7942 34306 77363 32001-57610
3655.44-81215-61333 24660 27179-5568 23831
3658.33 45149 67016 84017 86128 75585 66400
3661.23 49870 41253 17750-3577-922 40236
3664.12 69251 75485 41249 12242 31612-5426
3667.01 26478 85748 21273-13906 15305 32762
3669.90-33103-86118 6011 63364 54282-6019
3672.80-55349-77257-70834-58913-54861-81487
3675.69-53245 49122 26272-6164-8055 15613
3678.58 61738 84144 61692 52504 82497 52524
3681.48 10 5770-15734 8324 62218 78688
3684.37 23603 39630 49491 26725 88745 100509
3687.26 50390-113889-133390-28839 31657 12312
3690.15-16053-26124 46999 95461 41642 13539
3693.05 35930 9105-18522 35182 81380 43909
3695.94 8364 40978 111708 87094 67798 67387
3698.83 32312 47528 26110 1925-22276-85087
3701.72-71057 18756 63913 17088 18384 64574
3704.62 54392 34394 35054 49355 69350 46007
3707.51 18237 95559 94902 36357-16871-11050
3710.40-16977 7164-5001-77371-32421 7341
3713.30 20342-14739-36733-33544 21881 83125
3716.19 53263 83342 111739 56770 175 32654
3719.08 75694 65613 34755 6611-2522-19060
3721.97 39247 60124 26154 48382 77902 78426
3724.87 49315 42455 9625 61441 110217 58531
3727.76 40904 33968 3784 12544 46100 45774
3730.65 26625 15991-1120 37959 40735 62465
3733.54 65398-7499-30145-13119 2170-46751
3736.44-48267 7071 47374 30356 18920 17334
3739.33-5143 6519 63531 37464-369 47943
3742.22 40160-6349-26224-112643-156786-85748
3745.12 23839 94565 84220 19524 4238 38963
3748.01 50932-50508-147293-50989 18412 9152
3750.90 5444-101099-142179-15434 48041 16655
3753.79 26572 67683 60920 24498 27333-4337
3756.69-10614 34447 32402 31870 53686 57365
3759.58 21729 58567 72868 13082 28532 21685
3762.47 61213 101354 59430-4448 3234 3463
3765.36-40465-17815 24287 13660 37385 110828
3768.26 145294 114615 36560 27694 67524 57780
3771.15 63395 103635 84834 100458 145540 75075
3774.04 41081 13857-15171-29545 8589 75811
3776.94 81988 59402 50725 59426 4664 22490
3779.83 40383 31238 48509 87763 99562 26267
3782.72-35246 4937 23600-36486-7555 14073
3785.61 23205 66078 50010 21997 10244 54947
3788.51 48933 38634 36602 48210 58656 33448
3791.40 40820 105553 120250 87128 69205 43451
3794.29 24211 67701 115002 102169 87716 89950
3797.18 70199 71580 63041 5498-21030-1577
3800.08 34664-43460-110481 30296 128392 118660
3802.97 33053-2901 16524 64080 89618 81146
3805.86 33107-76802-74153-6445 30143 2356
3808.76-17135 3218 15901 58321 84620 62221
3811.65 66201-5577-7842 43880 31277 33481
3814.54 12888-51998-149339-125509 11911 66513
3817.43 34227 61226 58017-25362-26779-16132
3820.33-17477 15484 40498 88113 94839 81495
3823.22 30305 8694-2239 18432 42763 33607
3826.11 24218 92995 71658 43741 47941 35523
3829.00 18334 22045 43916 11575-50432-32582
3831.90 48418 48310 11075-2948-18727-63676
3834.79-66103-7704 32226 68626 3614-155123
3837.68-127012-13597 45470 45531 49080 22812
3840.58 8455 60685 73436 57558 3078-28931
3843.47 26259 114926 85862 29529-8369 33046
3846.36 24031-9536-20604-35707-15198 29736
3849.25 43729 17726 24840 43324-41360-95069
3852.15-17978-15487-78324-221374-212481-53394
3855.04 29948 38063 64189 98325 89268 75983
3857.93 68172 84114 96030 58974 42735 15344
3860.82-26029-27691 40241 89903 36268 9820
3863.72 23601 18709 15568 45146 44363 19958
3866.61 35972 22353-32777-51236-108988-91011
3869.50-66768-13939 2786 3369 43279 52293
3872.40 43588 18444-18717-13213 13534 25797
3875.29 58415 45061 33341 19113 25937 46480
3878.18 4234-25024-18451-57758-31365 30279
3881.07 4121 28364 83690 64014-5627-26155
3883.97-26243 1812-2570 3904 47922 63827
3886.86 54770 63247 82991 61772 18934-27030
3889.75-23831-41808-57389-55432-43292 19722
3892.64 64094-5844-5236-19655-38502-7189
3895.54 19019 66574 81242 103085 36370-32039
3898.43-17347-22887 16903 72360 66353 8307
3901.32-44413-39261 48338 67407-1243-69138
3904.22-66593-12313-39492-22355 47602 41872
3907.11 38934 56449 12063 23079 38550 53007
3910.00 43744 34316 39176 63748 53768 32954
3912.89 10511 17368 54796 60787 42271 2966
3915.79 4064 18157 3320 20814 79705 22532
3918.68-47531-64618-43078 16222 17084 3385
3921.57 27856 11054-38803-15258 6774 11501
3924.46 29046 17275 27326 9752 20680 89397
3927.36 107442 109387 83134 38804 35488 18392
3930.25 9824 31606 33318-21655-22345 30940
3933.14 43537 17314 28492 68690 110702 102926
3936.04 56949 50002 89752 63515 28499 48597
3938.93 65744 48877 76517 84176 36727-1039
3941.82 12709 50059 47407 51168 80747 52642
3944.71 54670 30907-9836 24083 32099 23747
3947.61-10562 5453 61907 44894 14919 54064
3950.50 95505 58014-6658 3339 28994 5706
3953.39 25684 43222 69618 75655 22518 4844
3956.28 49047 51031 29581 17256 34591 26234
3959.18-4947 3631 34296 87328 80993 44724
3962.07 59521 35223 35462 23757 2665-55628
3964.96-37384-28943 21824 43878 55053 90816
3967.86 59605 20468 13971 20250 25995 19730
3970.75 19582 22527 40391 41903 23466-45413
3973.64-68613 15826
##END=
