##TITLE=Carbon Tetrafluoride
##JCAMP-DX=4.24
##DATA TYPE=INFRARED SPECTRUM
##CLASS=IUPAC A
##ORIGIN=NIST, Analytical Chemistry Division, 301-975-3108
##OWNER=COPYRIGHT (C) 2000 by the U.S. Secretary of Commerce
##DATE=00/02/01
##$SPECTRA VERSION=1.10
##$UNCERTAINTY IN Y=2.2 % relative (B=1.3E-04,C=6.1E-07,D=3.6E-09)
##CAS NAME=Carbon tetrafluoride
##CAS REGISTRY NO=75-73-0
##MOLFORM=C F4
##MP=-150 C
##BP=-129 C
##$NIST SOURCE=QUANT-IR
##SPECTROMETER/DATA SYSTEM=IFS66V (Bruker)
##INSTRUMENT PARAMETERS=KBr Beam Splitter; MCT Detector; Multipass cell
##STATE=gas
##SAMPLE DESCRIPTION=Carbon Tetrafluoride Primary Gas Standard
##PRESSURE=101.3 Pa
##TEMPERATURE=23 C
##SAMPLING PROCEDURE=1 L/min Flow
##RESOLUTION=1.9290
##DATA PROCESSING=3-Term B-H Apodization
##XUNITS=cm-1
##YUNITS=(micromol/mol)-1m-1 (base 10)
##XFACTOR=1.0
##YFACTOR=2.9103E-11
##DELTAX=0.9645
##FIRSTX=575.65
##LASTX=3974.592
##FIRSTY=-.0000528
##MAXX=3973.63
##MINX=575.65
##MAXY=.02491
##MINY=-.0001718
##NPOINTS=3526
##XYDATA=(X++(Y..Y))
575.65-1814968-1460812-1624249-2237285-3338666-3713819
580.47-2589917-1010202-219708 407509 906009 156357
586.26-1229223-1821457-1522593-1341558-1191665-910067
592.04-1082481-1242636-1337861-1698094-1835051-1513318
597.83-1165728-837127-681613-752615-980680-798002
603.61-519154-325100-195756-438465-522050-418017
609.40-448933-365879-387740-388255-238538-206565
615.18-485351-801808-726296-439872-609237-843482
620.97-891134-1128988-1496483-1516305-1386139-1279564
626.75-1066396-571879 1827250 6917020 7488758 2049493
632.54-1249351-1521716-1326466-1060429-820675-744356
638.33-932398-984610-633705-250166-210535-258052
644.11-189947-63083 73408 384887 449664 130816
649.90-172124-158882-25058-72941-190519-98659
655.68 32095-174605-708971-1119503-1171384-1107079
661.47-1129973-977025-836013-848186-1038893-1190976
667.25-1113997-1018470-1019528-1120823-1351224-1489167
673.04-1475252-1448505-1503683-1511646-1435798-1260993
678.82-1179944-1298997-1455317-1491509-1559169-1528376
684.61-1399068-1430106-1559426-1581845-1382959-1264735
690.39-1357982-1268240-1202250-1299776-1369006-1340608
696.18-1254301-1192380-1173641-1105240-1157588-1184218
701.97-1239904-1207380-890752-696283-938430-1253439
707.75-1216933-1006351-1088639-1219311-1243085-1087860
713.54-874665-798027-876876-1043799-1261704-1263638
719.32-1047960-894117-820201-743868-804215-889269
725.11-944872-989020-1013620-950532-962573-1068115
730.89-1078685-991731-889097-766115-803213-925918
736.68-911945-845290-931143-920041-867382-889952
742.46-974410-955015-928720-1072011-1165790-1074164
748.25-973905-945652-1089890-1184658-1095630-956581
754.03-806429-707247-813038-928864-1061938-1140088
759.82-1068828-929671-962172-1184736-1279307-1091347
765.61-990297-1031028-1066818-1073487-1194310-1225313
771.39-1129988-1028241-975696-1035712-1175124-1179935
777.18-1176716-1236513-1287527-1286438-1271350-1237349
782.96-1259685-1298381-1309032-1285430-1295892-1335612
788.75-1374344-1298798-1189893-1058193-1055007-1116123
794.53-1170144-1269736-1397066-1327970-1205916-1143215
800.32-1197479-1172657-1034415-1100271-1369484-1373762
806.10-1175137-1150599-1217985-1222694-1294493-1297158
811.89-1148303-921638-1099041-1386250-1328854-1220743
817.67-1175314-1128562-1257422-1210334-1022916-1005166
823.46-1020840-962031-1037999-1207559-1389903-1438361
829.24-1393618-1272260-1092091-1009054-1275602-1429451
835.03-1267318-1147806-1105207-1122650-1351712-1506992
840.82-1463305-1315761-1257555-1206870-1246098-1273857
846.60-1146331-924606-949557-1090563-1153782-1126600
852.39-1112274-1193341-1257027-1144609-1126280-1187416
858.17-1092376-859386-796479-918422-1125527-1153867
863.96-1008205-920453-1033825-976534-888162-980973
869.74-1104501-1203419-1296472-1304545-1233876-1018252
875.53-860886-828067-885220-939262-1008539-1030133
881.31-1044857-1036840-1057793-1007927-1004881-1112398
887.10-1206701-1159420-1102805-1020713-1004835-1068575
892.88-1177613-1103788-934258-980287-1254314-1397083
898.67-1351927-1189912-1133252-1230921-1312930-1267493
904.46-1322035-1289259-1184573-1101150-1040728-969559
910.24-954232-1038728-1181867-1181628-1156708-1214058
916.03-1285989-1168864-1090093-1138277-1171439-1154529
921.81-1149760-1051993-966775-944353-994217-1037400
927.60-1075417-1086282-1112327-1084048-1051890-977053
933.38-942494-1005825-1144340-1117110-1062529-1140497
939.17-1242424-1185273-1141935-1065827-974057-946812
944.95-1020739-1041788-1016143-1005210-1097132-1101484
950.74-1112949-1104328-1028813-952442-984599-1079396
956.52-1206613-1137762-1024835-968418-959789-922806
962.31-997621-1073542-1063281-1027448-1075737-1131295
968.10-1109600-950452-921362-1030377-1102628-986898
973.88-1040474-1233847-1276927-1215887-1205115-1098639
979.67-991042-933196-982901-1127684-1329845-1321120
985.45-1180778-1044673-1045696-1041554-1080440-1126386
991.24-1112310-1013730-1026996-1121461-1221670-1229444
997.02-1121082-917291-867377-950218-1105429-1128042
1002.81-1150226-1147888-1111760-1092731-1111787-1042449
1008.59-1046018-1098892-1190529-1205556-1160015-1116675
1014.38-1180180-1147858-1050124-1009788-1099374-1106523
1020.16-1022002-957783-1026697-1024955-1096182-1106146
1025.95-1025770-1005161-1068495-1031639-1015670-987152
1031.73-966922-964724-1067171-1085608-1000872-916144
1037.52-978722-1053575-1154307-1108779-981256-894836
1043.31-992561-1087843-1130616-1178523-1241972-1095740
1049.09-920020-784884-790781-817859-820001-769066
1054.88-789154-858902-1023102-1066948-1004302-840130
1060.66-764539-832438-1003320-965554-818410-782188
1066.45-969971-1048225-985815-878366-872684-895896
1072.23-952672-859961-816859-804853-821969-878737
1078.02-1015217-1142159-1241546-1152650-1062538-982744
1083.80-1004096-1014268-1072016-1056634-998652-959761
1089.59-1057661-1113122-1134188-1065707-989084-879292
1095.37-957213-1099338-1210504-1158406-1099975-1041920
1101.16-1015468-902984-882560-949043-1053957-996874
1106.95-1024402-1101191-1160190-1052060-984319-1004297
1112.73-1048473-933754-904002-962167-1124911-1183935
1118.52-1165644-1042397-970657-917883-961195-930669
1124.30-948440-1005945-1086550-1042059-1093386-1136620
1130.09-1149987-1090047-1092785-1057232-1123603-1159582
1135.87-1101329-940962-966479-1044902-1118033-1020020
1141.66-973253-968949-1025711-1014396-1058811-1010344
1147.44-963618-873833-961173-1002029-1012767-990773
1153.23-1047625-1050314-1094854-1057005-1053307-974875
1159.01-996689-1041583-1113712-1031697-1019418-1017127
1164.80-1048699-977707-1063409-1043234-974393-958784
1170.59-1046470-1012687-1000318-850925-842250-937657
1176.37-1067884-975600-906739-830913-885573-939157
1182.16-1053835-973553-892405-847098-965503-957508
1187.94-959514-952080-1068086-1006415-1004172-964633
1193.73-996609-961729-1003252-1000342-1081889-983490
1199.51-981020-1000097-1070998-970355-989841-968728
1205.30-1033171-1003505-1022734-973376-1013546-838596
1211.08-817958-838481-968440-948701-999648-942199
1216.87-989828-987980-1123183-1050301-1029846-891664
1222.65-818421-696219-824546-866756-947739-840165
1228.44-831523-615135-422540-35306 287521 851524
1234.23 1452205 2442288 3384382 4520795 5617276 7017410
1240.01 8063231 7708821 7233485 6375679 3309244 1806929
1245.80 1913892 2611358 3316927 4309035 5120252 6365077
1251.58 7800596 10032660 12795983 16462075 19471402 20797700
1257.37 19217311 16968656 17882682 21468988 24127417 29596706
1263.15 36188191 40617886 40825757 38059420 35035138 36185711
1268.94 40036925 45723647 54350002 70051434 93719043 128834182
1274.72 178638561 247369435 333390417 429669112 540590162 642366822
1280.51 708676527 852645637 855929552 619103364 452202217 305456482
1286.29 146995777 60235377 27285112 14119324 8110973 4519581
1292.08 2808859 1415545 961667 313799 214283-152400
1297.86-121644-485985-474607-791415-734940-904228
1303.65-739477-895871-820845-1007009-900872-1000941
1309.44-812778-884719-759985-820619-722778-907237
1315.22-866419-990013-902823-963831-875449-1020685
1321.01-929842-966542-901106-976708-859685-891170
1326.79-842038-997593-930658-947478-872562-944648
1332.58-872579-942161-893927-958974-878680-899989
1338.36-842136-957133-880106-807044-645639-759164
1344.15-866681-1040225-1049926-1053256-961243-1147120
1349.93-1267642-1381794-1274934-1074839-620888-266080
1355.72-157045-497098-717948-898407-978909-1098868
1361.50-1085985-1113859-1030350-1055429-1011702-961438
1367.29-821263-868673-899996-1003872-955131-938392
1373.08-903647-914130-839366-928203-940438-1003241
1378.86-1006928-1066632-1083374-1098065-941248-851170
1384.65-766957-799483-859587-1031376-1046574-1067517
1390.43-1007749-984714-852020-786869-805637-963490
1396.22-1081166-1075550-895946-994522-1108520-1142137
1402.00-1028942-939656-856787-921620-949749-988393
1407.79-971171-1019820-977645-939889-867210-919916
1413.57-980081-1020339-929307-841623-635653-563716
1419.36-758192-1008589-1039233-1062224-978892-933816
1425.14-903429-969756-964291-943380-921406-1029295
1430.93-1022012-971090-946389-971692-731903-527100
1436.72-731623-1080161-1067610-1010591-1011804-1062133
1442.50-1028288-1062684-1049554-970930-860552-958184
1448.29-1099810-1142088-1050068-1059183-1039367-965986
1454.07-720249-308433-83131-420564-743042-911462
1459.86-965697-995797-970535-897301-745296-817556
1465.64-922766-903031-850390-913251-827738-631865
1471.43-501283-598309-740108-821315-750682-784231
1477.21-852692-908484-888125-904400-944519-1011277
1483.00-974993-936531-849235-795403-794699-836555
1488.78-719390-674645-805442-948947-896137-777381
1494.57-512461-428154-553861-610624-713786-889049
1500.36-849001-805568-747944-558304-92927 257693
1506.14 200031-162327-335671-361961-337110-291672
1511.93-245330-259184-195186-94858 38374 50862
1517.71 591 107484 480160 600762 341570 53425
1523.50 18645 53041-321-129398-233691-354201
1529.28-417392-486899-525725-511368-460999-455319
1535.07-251641 465327 2675966 5011483 3830832 938897
1540.85-144317-379405-540587-514074-503927-659058
1546.64-669105-516800-297769-264693-318768-302190
1552.42-90537 69115-41671-94467 335137 738679
1558.21 736114 457653-5930-426487-518894-501848
1563.99-484757-581473-707544-731646-537075-430615
1569.78-558534-757908-844256-881660-742833-363773
1575.57-242769-645324-912191-978553-974933-981410
1581.35-989968-1033837-1044371-1043076-1001008-1019531
1587.14-1007530-1000527-1042213-1070810-981019-926350
1592.92-949394-1043105-1038064-997498-982144-980005
1598.71-947300-950860-973057-1029380-1008891-989178
1604.49-953226-909594-872946-931109-1004287-1047719
1610.28-986268-929132-916775-919676-761896-421443
1616.06-291033-625505-934114-1049786-1036708-969972
1621.85-762809-679662-852623-1003934-938419-861567
1627.63-867391-911361-898419-927208-935977-877502
1633.42-617639-361238-483793-772256-888458-931482
1639.21-914536-935591-911914-882554-828672-655303
1644.99-491835-592289-672766-768478-894216-810011
1650.78-235213 391748 273726-376667-819397-1011592
1656.56-1064750-1039505-916146-816503-752807-731588
1662.35-764238-868529-891431-889406-855878-735977
1668.13-626492-734225-805154-816778-893101-820173
1673.92-570371-630197-840889-888293-843231-833217
1679.70-872246-885751-671175-238045 137075-146707
1685.49-695313-875034-814556-781605-803007-898587
1691.27-917839-839311-563345-52537 80177-438701
1697.06-704402-358573 114357-956-469242-719960
1702.85-714235-733880-731615-662733-689706-769833
1708.63-779432-845068-911705-908764-823284-630761
1714.42-405732-317906-230541-328127-631581-873964
1720.20-934795-919437-896047-904309-848590-801865
1725.99-813550-837880-805456-803669-867997-891603
1731.77-616744-275498-297978-651341-857970-890716
1737.56-831740-719902-774289-945610-945514-897296
1743.34-907449-941396-888090-823417-804835-829561
1749.13-747654-600798-650727-874451-970513-1006626
1754.91-1011835-984397-1000108-1019045-959167-902495
1760.70-848261-956403-1099601-1095356-1006129-970375
1766.48-881960-804696-832584-809323-626801-499857
1772.27-639464-887153-939468-974963-995399-971903
1778.06-916610-879791-884320-944557-979079-923094
1783.84-817658-823550-847662-867012-897011-899416
1789.63-804481-665411-561454-684239-880137-935301
1795.41-911624-936958-921606-879534-883057-905528
1801.20-906466-982776-1002256-958258-929257-885764
1806.98-838193-891684-949735-938932-858667-826404
1812.77-876923-954947-927696-897062-952055-1014719
1818.55-1014734-1002688-976751-1022813-1025385-893764
1824.34-828147-957482-1046332-974228-791252-735102
1830.12-854148-953753-934169-914623-901829-898333
1835.91-888309-920313-981792-1016852-994433-991233
1841.70-883838-635197-588201-849729-1020938-1035824
1847.48-1024655-1063820-1094370-1060237-1012729-1008642
1853.27-1007016-1047565-1072877-1069217-1067354-1091150
1859.05-1102409-1096661-1036258-960306-897997-924268
1864.84-995663-1008404-932919-860342-799464-844433
1870.62-925759-986401-1023138-1029697-1014361-1008182
1876.41-980194-951557-916396-918584-963099-1008752
1882.19-1005786-1008343-963876-934402-924227-873381
1887.98-809780-844565-955865-1000658-945905-901467
1893.76-871366-862529-838480-842400-888563-920821
1899.55-853286-769537-785081-854013-834354-781036
1905.34-749341-789608-848234-861874-814207-768564
1911.12-720914-738937-799134-821367-783611-722465
1916.91-624765-619451-708068-757082-710047-702651
1922.69-751605-785466-818828-880391-888575-864122
1928.48-807360-770672-790362-857544-843148-802649
1934.26-820767-866613-916593-961087-905995-821209
1940.05-787323-824534-881358-924235-925379-917663
1945.83-857230-808016-864237-963248-965406-935748
1951.62-921415-917115-928943-949492-948549-949561
1957.40-897738-853887-872594-933726-971771-951239
1963.19-903760-900321-853909-791953-826311-935945
1968.98-994327-967594-939743-977250-962142-937391
1974.76-954802-965087-952003-952988-927647-911334
1980.55-889656-899116-957034-995909-969658-949917
1986.33-949861-939959-923294-937190-937605-967307
1992.12-1013660-1033904-1005675-958700-929919-968217
1997.90-958413-897817-845348-889721-996830-1045601
2003.69-1013306-979501-958423-956517-965013-983898
2009.47-965665-992327-1050494-1066104-1044302-991307
2015.26-920166-927109-976025-1019478-1035595-1015347
2021.04-984057-1010792-1053544-1096430-1125690-1138785
2026.83-1077736-1009387-990024-1006110-1048169-1090202
2032.61-1096732-1074551-989792-949117-971546-1002663
2038.40-1034075-1074603-1059178-1027662-1018880-1037180
2044.19-1054128-1036110-1022451-1089282-1110397-1026802
2049.97-956666-992826-1051101-1103222-1113499-1072957
2055.76-1014164-987506-997528-1010675-986360-992987
2061.54-1037160-1065379-1053067-1050198-1042676-1014701
2067.33-988241-988170-967269-965276-992541-981432
2073.11-926373-982676-1083744-1053166-945432-953855
2078.90-1003233-982865-942112-956353-967414-987417
2084.68-991954-958559-950544-988577-1011759-1012168
2090.47-967124-904673-900151-970595-1007693-994663
2096.25-954968-971515-1015144-1029461-1051141-1038933
2102.04-967803-964324-978113-1013544-1035197-996512
2107.83-983449-1005155-973328-940984-945205-931728
2113.61-926760-975582-983337-961970-935439-956556
2119.40-1009604-1033599-1020701-1022687-995422-941874
2125.18-934397-983718-988896-947693-906112-911989
2130.97-924406-933548-895189-857762-910321-958765
2136.75-926136-906220-886531-869799-853318-838090
2142.54-776133-720960-748449-801978-838409-869226
2148.32-903472-945888-899318-860705-894052-954328
2154.11-957756-882460-832644-851463-896174-932828
2159.89-926592-946519-915907-797169-720339-755768
2165.68-830601-888165-900094-871793-778291-665142
2171.47-583737-537371-505128-480780-347404-114417
2177.25 108086 349278 675535 1041388 1422543 1777993
2183.04 2056443 2590899 2994800 2205854 1286632 726784
2188.82-15069-549126-750545-921898-1060478-1040048
2194.61-967215-929836-904593-937799-998499-1026258
2200.39-974731-924453-966602-1017937-1013471-997088
2206.18-972048-930562-893552-933656-1028711-1077766
2211.96-1052269-1005634-974933-938078-868612-854416
2217.75-829714-775680-815996-905597-919093-908896
2223.53-924236-929068-908301-907583-917289-933042
2229.32-933166-936341-967642-1010276-1010000-966097
2235.11-942269-927385-916483-940369-946075-938511
2240.89-951862-1001895-1018284-968884-889922-861271
2246.68-934675-1027805-989432-880581-881533-976140
2252.46-1000905-970590-991466-1021112-980430-926295
2258.25-887853-935023-1030933-1032722-938936-897281
2264.03-909971-927953-929529-959339-1033841-1046181
2269.82-976034-902370-850815-881991-957067-978279
2275.60-959345-957259-931050-932271-962009-942022
2281.39-929864-985636-977581-886644-847482-878047
2287.17-893725-883163-879697-916487-909447-858106
2292.96-801548-818948-914657-978576-930885-866072
2298.74-885105-917548-898677-889948-906660-892055
2304.53-863225-845020-853088-914404-949230-881783
2310.32-805078-780323-775233-811294-790197-718061
2316.10-696541-727783-722366-713018-738759-769434
2321.89-742685-680230-610957-583605-579230-575254
2327.67-548502-561686-573561-576977-569898-545585
2333.46-505084-442566-401601-468494-573156-590154
2339.24-556020-560191-589440-635668-628082-606151
2345.03-671941-812805-900134-884936-837779-776046
2350.81-702412-668183-644649-582904-495742-442609
2356.60-378824-322832-337574-377008-399867-417716
2362.38-391881-350468-327601-334060-409321-502538
2368.17-592221-665190-665593-661169-707148-752129
2373.96-752111-825222-894784-857877-803807-790077
2379.74-816589-899506-962920-967854-946432-966226
2385.53-1003927-973616-941501-994353-1022125-954750
2391.31-888192-913528-921367-887792-890086-882344
2397.10-845130-840091-833843-819814-822256-906654
2402.88-1029948-1051536-1000904-915326-797486-759994
2408.67-789394-805665-807573-845266-917644-966032
2414.45-967358-923559-875109-877282-883055-897786
2420.24-916607-917231-894361-870592-817849-809020
2426.02-855282-829784-775995-810164-893731-934402
2431.81-933530-953694-927426-853532-815193-849443
2437.60-918100-943557-942514-957871-974089-972316
2443.38-912644-861018-850932-880430-888437-830841
2449.17-779691-794647-848320-883121-884958-909553
2454.95-931214-908208-864840-869449-937201-998830
2460.74-953921-838665-767796-803816-864654-901680
2466.52-932910-936998-900512-902116-919258-950343
2472.31-1014231-1019171-950666-885022-872390-940360
2478.09-1012192-991616-914741-901525-921525-927455
2483.88-957901-1003427-998882-901821-843272-912095
2489.66-976517-991783-992302-940439-860877-826906
2495.45-815494-855949-956853-1005463-949572-870459
2501.24-830935-842472-881773-856820-798971-812230
2507.02-832894-849574-907454-929607-890959-846839
2512.81-842804-868739-856200-850957-868604-883011
2518.59-888493-932412-970869-906131-794012-697385
2524.38-699933-839042-914325-892410-895668-888999
2530.16-840330-813249-808871-804615-788949-710436
2535.95-631530-659666-716482-759055-804843-834145
2541.73-852114-893825-896384-861386-914123-1047410
2547.52-1114860-1213503-1481809-1759474-1865832-1993775
2553.30-2267416-2571508-2908137-3221292-3385308-3610704
2559.09-4028921-4304297-4002374-3521569-3954801-5547413
2564.87-5904324-3825901-2755444-3696427-4250278-3760601
2570.66-2850526-1901778-1217920-991633-984730-908588
2576.45-752290-603897-577273-625914-628195-634255
2582.23-674027-629071-536378-529576-589575-649011
2588.02-692419-671664-587891-543234-533922-537347
2593.80-584920-695705-734285-647487-607829-647849
2599.59-673823-673262-623577-541134-498035-557906
2605.37-662222-713138-771187-854011-845849-771644
2611.16-770554-812490-770863-757282-821246-871126
2616.94-947090-993567-907702-815132-820269-847901
2622.73-836505-821445-846663-906383-952498-993272
2628.51-947806-848210-857960-940133-960896-948662
2634.30-965493-992813-1024436-1045869-1009876-871682
2640.09-705038-664390-789033-974998-1109988-1149803
2645.87-1069306-958946-858766-785992-842729-932089
2651.66-942469-929668-876345-794721-783799-856872
2657.44-921321-930278-931765-916237-907490-931760
2663.23-952879-935181-905485-897052-882147-872219
2669.01-866131-853152-800487-771190-835638-877492
2674.80-890887-911653-925725-937258-920438-936933
2680.58-960803-903430-825438-796709-811191-889889
2686.37-950642-918693-856701-846763-925759-980676
2692.15-946406-890191-819790-837639-954762-1008483
2697.94-984983-916557-877233-904847-918119-927921
2703.73-911114-821031-701268-577804-549193-619620
2709.51-737106-836972-860006-864694-894330-979129
2715.30-1003631-869301-761928-749004-754459-822233
2721.08-920422-924231-813294-723746-779986-848742
2726.87-826483-814374-805534-774249-775819-812478
2732.65-853180-849914-817169-833198-848281-807546
2738.44-812479-835489-851683-891178-907451-911618
2744.22-866900-761384-719777-777527-862344-920587
2750.01-962209-941967-807799-680950-695494-787595
2755.79-853022-904061-927362-902078-907677-891636
2761.58-770953-670466-679629-769231-879080-933029
2767.36-935047-909835-859707-843539-892494-957574
2773.15-950357-871383-805395-741102-782572-907201
2778.94-896837-859563-869572-898052-924873-914324
2784.72-887794-844783-863911-870976-846112-913073
2790.51-982359-983329-940149-912372-919818-878679
2796.29-843429-880461-893308-823179-806606-871743
2802.08-921360-906419-857385-830302-850459-905030
2807.86-909935-816596-774910-811134-801303-831640
2813.65-904074-914796-877775-815096-794712-850688
2819.43-889835-866085-856480-888352-903918-901523
2825.22-886515-848483-840766-858521-847695-854840
2831.00-891349-872018-867567-884209-795925-784576
2836.79-902200-838193-662107-564797-567809-667401
2842.58-755919-817014-846312-809903-756543-748209
2848.36-790783-813749-795299-782258-762508-788050
2854.15-827492-785690-742140-743100-720924-716227
2859.93-778395-786861-755163-720214-673273-739031
2865.72-878149-897906-800526-767521-804346-862491
2871.50-918407-838252-742316-793404-886088-898130
2877.29-854732-797774-774319-759819-730169-744600
2883.07-785670-785678-755657-744723-769252-794862
2888.86-741905-667668-730646-836198-797769-694702
2894.64-646645-617411-714105-803940-735495-728597
2900.43-817510-809879-695245-717789-822023-814093
2906.22-692468-486879-425188-558256-732906-885441
2912.00-913335-857844-803412-706330-681840-763121
2917.79-826877-840827-782173-725673-754303-828168
2923.57-876227-873049-855138-826331-871130-895747
2929.36-767051-774674-949025-997747-915030-822085
2935.14-791549-821031-902924-937532-841995-706422
2940.93-707169-835266-955307-970569-883006-802548
2946.71-819149-915064-940627-796297-677565-682123
2952.50-791611-883991-830441-718440-657578-710756
2958.28-882165-1007882-961347-809490-737109-818099
2964.07-877742-798268-787770-903607-989366-985615
2969.86-885006-780210-789298-815858-798132-795764
2975.64-831052-875208-931289-942855-894216-854041
2981.43-805099-802621-871296-871725-784837-725843
2987.21-780726-925155-968973-886056-816474-828046
2993.00-876989-826612-719960-672327-647491-636556
2998.78-745452-828484-777295-763403-787112-779406
3004.57-785281-808341-849247-845498-802540-841903
3010.35-931414-946874-915241-868526-869281-945376
3016.14-990694-915786-825894-777555-735255-744842
3021.92-736882-681069-706865-795983-905387-985976
3027.71-968490-907660-897036-862122-797776-825177
3033.49-859132-843067-886771-898211-840818-857530
3039.28-893914-903804-950676-941397-878961-859218
3045.07-935292-981440-887349-841134-879784-816745
3050.85-786735-797347-755198-750770-786499-797814
3056.64-770630-807790-841233-854369-916524-953549
3062.42-1007881-966521-778417-658134-722719-815103
3068.21-767872-691162-723592-786611-776366-731194
3073.99-766358-869096-930363-882704-800333-775445
3079.78-810575-809731-705299-633619-711648-802168
3085.56-798640-725208-633092-633721-697067-745703
3091.35-756513-742268-772596-744920-708569-734665
3097.13-760229-773863-741519-713766-738437-739333
3102.92-761583-835920-854839-805558-742024-777574
3108.71-878101-817529-710166-804372-930500-953463
3114.49-937118-830578-665504-618803-689357-688099
3120.28-694609-781122-770463-736696-758662-708649
3126.06-629814-630855-648920-657448-725619-775142
3131.85-656559-479641-499942-719185-905041-848684
3137.63-754310-765760-748410-655745-561556-646900
3143.42-835423-896836-817169-720870-787175-886325
3149.20-928693-921405-892171-865599-807931-799675
3154.99-815927-755167-695850-702501-722409-740666
3160.77-795140-848623-801502-755940-891223-956048
3166.56-941138-938225-815099-680208-673446-798361
3172.35-888326-857444-852753-818913-725517-649397
3178.13-685803-789025-853586-778014-691909-803115
3183.92-956364-916691-838044-826571-763253-691387
3189.70-703195-749535-803345-853083-849912-737587
3195.49-660667-733133-813428-832989-821995-728019
3201.27-617837-657913-748684-786361-890136-986145
3207.06-987147-958971-959831-982278-941732-803076
3212.84-697569-703742-796022-851089-773306-699838
3218.63-636629-613020-655170-665626-744003-829154
3224.41-847591-889129-892007-892266-885228-783653
3230.20-738464-795094-812115-748168-738574-748992
3235.99-679643-652856-741285-908643-981414-917461
3241.77-893947-818253-696525-693927-764840-778216
3247.56-762561-768958-797139-808039-795378-715650
3253.34-669507-760481-867498-827674-665297-727480
3259.13-890908-836970-687263-543415-593399-722019
3264.91-745874-772986-798944-706591-680232-825223
3270.70-904225-821319-718304-652177-618038-597446
3276.48-643035-774125-857452-805082-768047-721304
3282.27-653265-702311-732712-635770-634711-726266
3288.05-698379-674417-714639-755758-789487-788816
3293.84-812522-818544-763560-684011-713662-812609
3299.62-800207-717945-703003-833924-951232-873019
3305.41-692156-609845-661740-684988-738591-891648
3311.20-983113-859981-632251-545528-660286-797304
3316.98-811619-776531-796448-804002-837493-830536
3322.77-794470-866112-939360-951259-1039693-1017461
3328.55-883762-793883-753933-805114-904174-882385
3334.34-789617-726016-792643-934519-956957-885139
3340.12-825023-782175-747006-745072-848185-972918
3345.91-992718-872912-853558-993658-929509-708768
3351.69-654834-750394-825726-796297-733460-745405
3357.48-733847-669742-701971-792910-769600-748151
3363.26-882789-915560-875775-867346-851612-810299
3369.05-677766-564155-622000-717316-701326-623390
3374.84-671859-795420-827734-843621-926354-869010
3380.62-645793-440026-342312-427835-713322-801205
3386.41-619269-584695-664431-680337-746865-810141
3392.19-746384-747834-838867-799898-691882-700818
3397.98-767780-694153-604461-658290-746778-715790
3403.76-689343-743123-812916-792494-695509-603868
3409.55-525252-527234-648727-737564-613163-499738
3415.33-571666-594955-676594-784248-622626-439887
3421.12-542562-618722-578604-680272-831040-740796
3426.90-595103-599952-650821-717094-760920-714377
3432.69-652360-597561-509452-422155-471278-495350
3438.48-392300-389575-528978-672727-611452-466754
3444.26-444907-481313-567069-557430-491611-484941
3450.05-649027-823600-670528-412989-412371-603835
3455.83-762207-776221-774693-727933-612802-584654
3461.62-541361-362140-288319-420886-581123-605545
3467.40-583478-650465-771610-835428-831696-805085
3473.19-723722-700011-626445-391035-343433-577428
3478.97-783158-750300-723762-759932-681770-611102
3484.76-715217-763655-577963-439301-549363-686346
3490.54-693505-584758-513834-560956-602027-538740
3496.33-550485-619695-574435-466110-452559-560236
3502.11-661268-627135-677456-859641-899917-784598
3507.90-758732-743211-670593-706908-797758-806767
3513.69-719015-735484-844987-784554-699967-764327
3519.47-820667-698828-567379-584299-580980-569427
3525.26-677469-771035-803536-835882-811832-724028
3531.04-693283-708016-655603-537653-594416-739428
3536.83-762300-668592-593850-658869-796204-810255
3542.61-723481-668898-685625-668397-617739-630604
3548.40-710622-708052-656462-697635-802590-814242
3554.18-782209-742331-646819-683742-837999-774649
3559.97-562297-540232-707884-788609-741204-628357
3565.75-483843-369670-451298-607011-783469-903679
3571.54-834778-713399-659631-607112-546056-610976
3577.33-741690-742076-765632-870547-845634-683705
3583.11-575987-507402-535820-695312-718978-690661
3588.90-719360-658394-657706-628201-632498-810525
3594.68-961980-1030264-988104-742700-597867-592905
3600.47-567853-596578-682987-733864-770351-808773
3606.25-794266-649988-450523-410420-509743-529135
3612.04-544313-561723-579154-649047-621675-537983
3617.82-502777-417913-472693-575800-578468-586004
3623.61-583258-517667-329980 27601 251991 77359
3629.39-334207-566529-538322-420473-424216-541549
3635.18-674918-706632-566287-429220-435598-520846
3640.97-569156-556170-597608-649493-611687-456501
3646.75-207012 83470 96311-190227-424355-523931
3652.54-599010-565322-353686-245560-436621-629167
3658.32-647151-560034-569179-591943-534103-477048
3664.11-452618-558655-629249-468745-248504-92508
3669.89-79447-333720-580673-485181-110472 121067
3675.68-92011-341725-364426-455438-579295-598287
3681.46-531474-490197-594618-682793-569121-137226
3687.25 244702 66743-246732-318388-416879-467186
3693.03-509676-624914-632357-593389-599239-521091
3698.82-395910-347057-368863-443706-501056-551365
3704.61-688208-754024-716612-575066-405732-396943
3710.39-326074-186309-401062-727952-779096-708806
3716.18-712002-768426-783601-656299-566672-585425
3721.96-541457-474529-521922-550356-491923-496911
3727.75-544420-539273-542936-508950-523161-591031
3733.53-547780-417343-267198-271582-413470-525685
3739.32-526159-431089-445228-303573 207310 255030
3745.10-289513-591247-440788 44545 123927-93310
3750.89 73197 47873-342305-607247-672884-625615
3756.67-675546-658894-471047-478359-685626-732842
3762.46-686943-664821-710630-694458-562372-499330
3768.24-519287-527607-574547-639857-639489-485269
3774.03-378235-503948-639282-581902-455310-431436
3779.82-520679-561915-506290-498272-595772-643437
3785.60-597045-617678-688121-619298-483241-429526
3791.39-454389-521898-679953-681784-586589-625541
3797.17-625521-506716-188869 219563 53564-402021
3802.96-531083-520274-527003-421307-404040-532842
3808.74-638024-619039-527154-483189-504129-375627
3814.53-66340-24174-305092-499128-521433-380212
3820.31-259870-299177-403087-486958-523202-495044
3826.10-566841-634275-668543-773813-790195-777864
3831.88-895775-809569-583631-613730-620024-398383
3837.67-394814-510020-592957-866401-1196124-1168225
3843.46-933510-822984-904596-1027181-1186261-1699093
3849.24-1529064-677441-330157 7009 285908-250698
3855.03-808158-897871-1013273-1077757-1017716-943879
3860.81-850102-649179-440137-310879-373803-533116
3866.60-586510-491934-279315-224448-451325-592582
3872.38-492666-399720-511709-637379-685272-658157
3878.17-570979-488270-575566-812710-938839-774271
3883.95-439187-230058-303862-442227-575890-520198
3889.74-257146-239249-461250-521213-577684-692432
3895.52-732251-676137-588869-479699-428813-355430
3901.31-243690-108539-103111-313169-468607-476106
3907.10-526048-558362-539767-609411-602986-483832
3912.88-420502-375683-357917-311647-427227-735999
3918.67-784425-621226-609051-623726-483100-313227
3924.45-206227-178531-248900-312790-459710-705134
3930.24-916255-892576-773023-713581-695169-627382
3936.02-488811-405323-508354-764589-922632-744139
3941.81-440732-247502-226045-334413-510498-623464
3947.59-631166-600172-609611-624899-661838-715040
3953.38-707742-637498-517884-435552-479275-534000
3959.16-586394-497964-457108-685590-834418-655284
3964.95-417799-351372-436255-447755-492192-671770
3970.74-670774-487589-527557-713006
##END=
