##TITLE=Dichlorodifluoromethane
##JCAMP-DX=4.24
##DATA TYPE=INFRARED SPECTRUM
##CLASS=IUPAC A
##ORIGIN=NIST, Analytical Chemistry Division, 301-975-3108
##OWNER=COPYRIGHT (C) 2001 by the U.S. Secretary of Commerce
##DATE=01/06/01
##$SPECTRA VERSION=1.10
##$UNCERTAINTY IN Y=2.1 % relative (B=1.11E-04,C=1.83E-9,D=7.56E-14)
##CAS NAME=Dichlorodifluoromethane
##CAS REGISTRY NO=75-71-8
##MOLFORM=C Cl2 F2
##MP=-158 C
##BP=-29.8 C
##$NIST SOURCE=QUANT-IR
##SPECTROMETER/DATA SYSTEM=IFS66V (Bruker)
##INSTRUMENT PARAMETERS=KBr Beam Splitter; MCT Detector; Multipass cell
##STATE=gas
##SAMPLE DESCRIPTION=Dichlorodifluoromethane Primary Gas Standard
##PRESSURE=101.3 Pa
##TEMPERATURE=23 C
##SAMPLING PROCEDURE=1 L/min Flow
##RESOLUTION=1.9290
##DATA PROCESSING=NB Strong Apodization
##XUNITS=cm-1
##YUNITS=(micromol/mol)-1m-1 (base 10)
##XFACTOR=1.0
##YFACTOR=3.6379E-12
##DELTAX=0.9645
##FIRSTX=575.652
##LASTX=3974.605
##FIRSTY=-1.05E-06
##MAXX=3973.64
##MINX=575.65
##MAXY=.0029392
##MINY=-1.92E-06
##NPOINTS=3526
##XYDATA=(X++(Y..Y))
575.65-289300-94132-189767-359939-109155 12746
580.47 397352-73402-65675-308902-217976-473437
586.26-387253-44418 398148 359451-91808-527870
592.04-482740-142458-235116-402281 134618 177729
597.83 118837 54769 55643-226860-94182-146796
603.62 100842-130137-390666-514342-167576-20417
609.40 140395-3103 71946 18332-40912-145615
615.19-24632-351638-433367-371671-169739-196361
620.97 11735-16097 148316-233303-262057-192989
626.76-51440-98845 142635 106976 48172-151230
632.54 85788 146314 166220 5179 228760 121034
638.33 384219 293649 356499 504555 1072500 1056452
644.11 1315608 1654569 2172720 2528726 3315756 4008176
649.90 4985976 5556802 6556658 7474124 8619875 9519754
655.68 10550852 11143115 11884521 12343302 13110122 14234266
661.47 16155408 18327647 20347787 20241355 18199223 16056396
667.25 17524901 20877684 21493113 18808267 16453564 15073750
673.04 14973173 15196812 15427194 15005346 14444955 13255424
678.83 11906529 10113764 8653997 7061015 5804276 4536947
684.61 3752910 2705452 2175214 1546964 1257145 783639
690.40 734836 443803 440339 148203 270319 28494
696.18 100878-102524 86570 115127 247014-56918
701.97 41020-38350 174956 159234 282721 130495
707.75 290441 183452 184751 48075 233843 165640
713.54 391978 326160 325843 48704 230724 256253
719.32 520538 358187 394977 180080 273646 200719
725.11 393894 178696 284584 173149 278566 212657
730.89 435303 275875 321290 1112 100226-39818
736.68 142833 24649 203883 143722 352588 78496
742.47 122388 58127 323278 201101 363384 262856
748.25 496136 350458 465999 305257 527010 435885
754.04 477599 275493 379701 170676 355209 217570
759.82 377596 248885 395458 207948 311428 153060
765.61 377191 136894 292749 93904 164192-93071
771.39 88885-107633 9965-117689 68926-202642
777.18 11352-39523 219644-97117 17568-220450
782.96 50779 12447 147171-93659-56577-283477
788.75-99318-323599-23038-279772-114258-280052
794.53-86161-245379 12052-178737-1120-282258
800.32-6205-172555 36438-315065-92722-278989
806.11-131746-317580 31418-286718-65769-280586
811.89-71717-272726 8641-282975-58684-78545
817.68 172434-183553 117120-112175 241163 7096
823.46 266312 102988 521589 526694 888924 734697
829.25 1037476 755413 1202931 877024 1042634 798922
835.03 1142795 1040192 1519901 1625412 2480718 2230041
840.82 2049271 1453883 1853312 1786155 2342598 2318463
846.60 2970134 3037734 3792028 3791349 4580272 4884723
852.39 5908661 6440318 7825493 8619402 10305008 11468947
858.17 13530942 15127848 17995060 20149754 23389968 26368796
863.96 30416464 33809728 38505741 42967272 48655745 53474982
869.75 59563832 65413016 72252081 78151060 85762132 93407784
875.53 102834393 108444026 110364489 109244330 112702748 120990356
881.32 133844131 139968106 129815803 112672949 113670422 128439017
887.10 149993000 150804722 132662581 130899863 129137281 112767173
892.89 103198992 97417568 93728275 87934164 84272475 80009928
898.67 79166529 78480553 83638315 90830492 104580724 120187850
904.46 142050741 166054479 198958917 234760804 278575128 320592466
910.24 363762195 395767539 423640609 434876238 439931636 428706502
916.03 427102058 431253765 481195395 550254898 690750548 807922795
921.81 759157365 523686174 400742208 443180548 483503171 520909510
927.60 550222975 560814229 537599922 490389444 419009568 340859083
933.39 260073405 190105006 130431965 87183247 54682403 34855833
939.17 20562485 13271651 7464438 5304661 2716950 2358506
944.96 954951 1299987 432373 927951 194193 745112
950.74 113931 550873-5793 504012-103249 362518
956.53-20243 511042-12586 310097-194366 255931
962.31-140322 178943-207984 215461-150964 144757
968.10-211538 100062-193292 70815-332752 24019
973.88-169532 93909-231652 72924-205574 83934
979.67-199209-4740-248804 19194-178749 114043
985.45-119260 120341-65464 80627-200624-22125
991.24-250197-49836-259215-83874-258827-27459
997.03-192245-56932-245793-37997-240622-116541
1002.81-245662-46011-188641-82561-254782-98299
1008.60-239405-122521-294332-151534-299930-153315
1014.38-233084-113500-231787-125786-193405-52173
1020.17-162912-84755-236093-140668-263061-72314
1025.95-85622 56018-19359 49635-95671 4001
1031.74 10715 76930-72813 42957-38920 30006
1037.52-14449 36829-13500 152877 69064 112330
1043.31 165680 313596 272079 330411 315843 371651
1049.09 435453 607598 649882 912088 1060061 1281989
1054.88 1481575 1828962 2166380 2531507 2969143 3500121
1060.67 3938410 4501740 5078850 5814422 6582694 7580443
1066.45 8714660 10151377 12051593 14241617 16702886 19659525
1072.24 23451872 28997553 35247254 40335181 45885843 54293441
1078.02 65055097 77557790 91831299 107948025 125906010 145752892
1083.81 167278126 190152454 213958943 237998237 261906156 285136492
1089.59 306302333 324460514 340661994 356699269 373405116 392700890
1095.38 416193767 440500032 453406365 459661188 457655100 479647154
1101.16 546202590 538558115 461884605 391094374 365784722 366162532
1106.95 366208821 364929757 359445453 344928930 322902468 294653224
1112.73 263054407 229810735 198132815 169359553 144637424 122324479
1118.52 104931348 95324553 92768456 88266146 79754524 75133085
1124.31 82341447 86675797 77308983 64477605 67151371 73185895
1130.09 67961733 61310170 58810494 58441154 60172515 62664143
1135.88 67171222 72681670 80997388 91056839 104542987 119802964
1141.66 138509604 157983256 179548028 199881245 220010962 236208270
1147.45 249569110 257403683 258693058 252045895 248933320 243144432
1153.23 244948591 258995222 281453220 324112046 402774429 386670477
1159.02 532044846 738237935 390318112 183655668 175952242 172498922
1164.80 168324104 169555968 168466966 168046203 162397100 155506162
1170.59 143796325 131583542 116236291 101958160 86227858 72612725
1176.37 58724448 47680216 37080570 29247749 21913502 17068815
1182.16 12372551 9731410 6902257 5614142 3974233 3653155
1187.95 2790639 2789948 2106436 2399751 2012117 2392905
1193.73 2007273 2229948 1805442 2177475 1961702 2459497
1199.52 2352763 2708704 2031810 1914027 1606118 2056833
1205.30 2093275 2600127 2221695 1838703 1206927 1439681
1211.09 1161067 1403229 1135064 1341512 1091557 1306025
1216.87 1130356 1394577 1198710 1429938 1307239 1714534
1222.66 1695252 2072656 1992996 2403178 2477120 2867109
1228.44 2777092 2967621 2900955 3310149 3221521 3442589
1234.23 3458448 3983248 4197943 4832700 5229807 5935497
1240.01 6073916 6022031 5374887 4442122 3105624 2936923
1245.80 2549086 2541832 2319657 2509629 2407646 2501438
1251.59 2182198 2170638 1818580 1720809 1262475 1133982
1257.37 751473 714470 383617 372045 84317 135362
1263.16-28342 13140-181023 1352-92122 64410
1268.94-117914-1768-101930 48213-100161-52589
1274.73-205132-50713-158202-9780-87751 8703
1280.51-96641 65852-60250 21700-124489 23641
1286.30-58415 89306-60523 63362-3973 93784
1292.08-16594 148013 45366 151679 69074 190700
1297.87 94985 200165 89833 214298 118528 222900
1303.65 114605 278099 211162 302885 199842 360788
1309.44 297216 418675 324020 363557 263050 454308
1315.23 417623 556574 446649 482535 321688 478850
1321.01 493466 632856 533025 648328 562287 707675
1326.80 607847 651690 570739 689377 659441 849023
1332.58 723427 778341 722302 809061 689114 794925
1338.37 779621 905396 931693 1068508 989175 1115985
1344.15 1127549 1293806 1136430 1136758 1061186 998973
1349.94 835736 791724 702643 957963 1154358 1539247
1355.72 1536652 1523874 1372014 1312088 1092883 1281299
1361.51 1425693 1417033 1333405 1556780 1579213 1618426
1367.29 1525703 1737727 1678356 1732534 1756978 1935777
1373.08 1976148 2102323 1964561 1905064 1903055 1983657
1378.87 1988918 2138711 1933526 1961109 1947529 2340162
1384.65 2381242 2109736 1704906 1684112 1516401 1444943
1390.44 1287782 1239369 1062572 1017256 716475 519063
1396.22 401186 403714 258939 264115 170689 127967
1402.01 4242 94178 39742 133580 103391 135425
1407.79 51673 88546 17153 45809-10773 64327
1413.58-4836 34842-53182 47797-6026-3763
1419.36-66561-4621-30408 50572-28345 19745
1425.15-27375 9369-27962 11526-76666-6549
1430.93-54767-3472-55941 36481-83849-133596
1436.72-137960-5761-52763-31796-116438-9156
1442.51-29572-1587-121606-70676-122157-65226
1448.29-61447-19337-129137-104010-92646 20634
1454.08-59037-158955-257425-91156-83089 27273
1459.86 20845 117095 82344 137327 46749 166623
1465.65 197659 303953 290488 298994 226347 215630
1471.43 99438 165132 220016 314073 266198 400534
1477.22 420486 568786 512272 350928 218667 258284
1483.00 244340 309128 195919 155318 100562 167640
1488.79 62135 39292-29608 47413 8795 8384
1494.57-179878-216633-165696-95613-127237-49938
1500.36-84514 6757-54703-84587-275971-306238
1506.15-268251-101107-135293-42165-18186 6818
1511.93-30746 70761-1261-2581-76977-5296
1517.72 68811 120315-63133-68636 7189 129487
1523.50 84051 120639 187824 260422 228715 216507
1529.29 144678 210348 179182 136848 88980 215468
1535.07 248660 229659 62321-63826-146575-24788
1540.86-11452 52233 79877 133878 65636 120428
1546.64 124873 192473 166581 192549 152095 190267
1552.43 138328 138386 104551 114935-8126-53247
1558.21-59613 61 94780 186356 120491 195325
1564.00 180412 194455 230738 334189 299805 345227
1569.79 406767 536436 538353 643357 627970 586837
1575.57 601993 862627 946148 1069121 1126226 1216858
1581.36 1196316 1295880 1295666 1307641 1340821 1700117
1587.14 1557005 1695671 1617434 1216392 1173234 1336083
1592.93 1348649 1327521 1250706 1188173 1068056 998901
1598.71 790435 611584 398267 304963 188449 154383
1604.50 66553 23853-48952-30898-28570 59800
1610.28-28315-42151-66601-70342-127207-206980
1616.07-242815-52586-33882-22825-51937-50695
1621.85-137341-101910-107009-60891-83037-88882
1627.64-84947-12390-65527-63184-49168-6442
1633.43-146731-264715-213307-121112-135802-71187
1639.21-56304-4891-32870-451-50290-96304
1645.00-216633-135867-122510-76824-65119-88849
1650.78-267172-426466-351245-115365-27159-11801
1656.57-55469-39048-70461-57266-67417-101553
1662.35-143964-56655-74236-37518-43871-53007
1668.14-155557-62348-44484-45964-66856-63913
1673.92-192801-152638-70378-31269-63304-50530
1679.71-70440-59428-165006-230573-381071-228718
1685.49-65216-41619-102954-73375-65534-69028
1691.28-102025-96419-127218-232458-326385-139796
1697.07-114346-172232-341011-265640-119874-68119
1702.85-112737-69487-82579-79537-74275-42419
1708.64-70458-51117-85690-52143-80413-99689
1714.42-127616-147798-316331-253819-151942-36226
1720.21-19730-1233-24962 1916-36631-12336
1725.99 1821-926-42106-7710 20317 30091
1731.78-69915-156871-137105-1251 24023 52689
1737.56 21638-133 33049 157721 207634 272046
1743.35 300569 376202 400853 437342 426525 515079
1749.13 534723 547915 580205 652176 649938 745386
1754.92 783378 796004 793417 850618 864092 884390
1760.71 828807 846204 834898 883602 763933 606894
1766.49 516663 552372 599313 591919 444872 359390
1772.28 410926 468762 366671 306562 214281 251525
1778.06 252585 230610 152437 147191 148820 202480
1783.85 180201 191210 194481 326816 376042 343815
1789.63 307238 330937 301908 407313 486820 508702
1795.42 470267 521317 580564 613631 584976 619209
1801.20 630490 667754 643303 667548 637884 662699
1806.99 631299 616504 582751 556624 495352 573034
1812.77 585855 500123 471604 522569 483157 529266
1818.56 546934 497807 480936 527615 506533 452375
1824.35 407044 406924 390844 386048 345437 381595
1830.13 469016 542269 544660 495232 433860 469364
1835.92 493551 539493 522533 552789 469854 398921
1841.70 393198 402192 341744 343838 391935 373009
1847.49 267912 244374 224008 193915 156124 117142
1853.27 15641-28164-86893-63654-106926-176295
1859.06-208594-189449-229715-227178-259071-226017
1864.84-203830-208639-224244-194947-190732-163577
1870.63-196700-183578-139618-81097-83628-99523
1876.41-110820-68648-60109-63989-56146-19803
1882.20-26519 1401-26771-19937-48512-74570
1887.99-100520-42133-14230-43044-39020-25868
1893.77-68774-38703-49226-57855-38030 22112
1899.56 3653-24560-51188-24974-12826-11845
1905.34-60336-49758-6019 10987-2563 5828
1911.13-12796-33212-73229-56985-68404-63442
1916.91-66206-25194-23557-11213-34583-21564
1922.70 9398 18082 4662 10354 12150-5111
1928.48-34861-20621-11353 10657-21991-27513
1934.27 4423 16452-16167-29131-19860-11784
1940.05-41523-7813-8859-32322-24264-3594
1945.84-26828-31935-8874 10551 26262 44936
1951.63 21799 8336-19504 11904 11970 14848
1957.41 6079 9470 27335 30777 2604 4527
1963.20 27640 37725 52813 42673 13010 19086
1968.98-16143 29805 62848 75618 94594 68011
1974.77 10056 4533-13351 17266 1029-12494
1980.55-9374-3115 6900 22487 29751 31037
1986.34 15761 27888 43151 44585-389-450
1992.12 23268 48902 11326-6936 25450 70059
1997.91 69250 81179 112395 115227 100700 104592
2003.69 74919 81457 120630 163189 152357 148265
2009.48 148399 158865 169241 156667 129778 155821
2015.27 152264 134902 130384 142606 141065 143274
2021.05 106172 38610 42954 55696 57831 125522
2026.84 181058 171804 110114 55971 34612 41022
2032.62 41392 65295 44145 58082 83125 90083
2038.41 69523 73680 66003 47784 28036 47304
2044.19 81266 94379 73630 60871 52287 53722
2049.98 72979 126540 115351 58239 12976 20693
2055.76 51451 40930 24478 61004 80150 40569
2061.55 4656 19612 58825 57076 33700 24759
2067.33 13641 998-25795-12054 50769 41461
2073.12-11155-1991 23566 14422 6242-17318
2078.91-83657-78696-34169 19649 45704 66984
2084.69 28472 6234-4712-30544-52576-35517
2090.48 33887 66112-5434-7229 27533 40321
2096.26 31444-19368-19437 5634-48145-47812
2102.05-32309-47290-56367-28721-23513-5439
2107.83 19627 9124-15091-31466-36517-3779
2113.62-29442-58865-37781-19298-39015-64415
2119.40-32839-11807-37730-66313-50505 4790
2125.19 32196-14698-31677-25074-22882-17338
2130.97-29976 6888 16464-8641-194 4847
2136.76-6141 7322 30555 17352 6460 4857
2142.55 12378-17082-24580 18728 40047 18662
2148.33-49088-63261-16581-20103-51627-60254
2154.12-90176-81590-49949-69669-82489-56239
2159.90-10284-3940-574-13111-11521 22197
2165.69 99832 88165 104605 158557 197399 231171
2171.47 275757 328366 428738 520187 571402 669315
2177.26 804372 876271 906647 1011532 1149419 1252823
2183.04 1326613 1441914 1592939 1732576 1780546 1824212
2188.83 1970739 2112013 2164293 2200801 2441253 2481263
2194.61 2240135 1924294 1735664 1730534 1813118 1864210
2200.40 1912159 1849824 1669723 1523133 1375851 1151575
2206.19 989250 876422 743963 626795 568469 547166
2211.97 592620 564781 532697 579342 674245 728976
2217.76 755409 790209 885620 997030 1081667 1125833
2223.54 1257123 1424530 1631962 1791445 1970727 2126506
2229.33 2331085 2568715 2773089 2950350 3151644 3339580
2235.11 3532181 3732628 3938065 4056695 4219865 4326340
2240.90 4338269 4446796 4740263 5066244 5291226 4883405
2246.68 4977554 6761388 8662590 6272483 3455245 2866299
2252.47 2572106 2539544 2632817 2720131 2614836 2454256
2258.25 2253877 2048142 1823071 1601425 1294342 1031511
2264.04 880718 778698 647014 562972 487562 460609
2269.83 480156 486670 446813 440656 443556 464490
2275.61 472662 487129 564153 559443 447210 423143
2281.40 439249 405805 203291 133068 145452 121125
2287.18 63388 128992 209926 249660 298846 347960
2292.97 383717 420252 474365 560586 649897 730530
2298.75 844934 997585 1084632 1152270 1234426 1214795
2304.54 1157120 1271034 1634185 2090765 2062519 1479459
2310.32 1499094 2117616 2336805 2077623 1722407 1500077
2316.11 1469988 1423598 1355450 1233581 1001857 994415
2321.89 1200937 1073872 888794 743807 608540 467645
2327.68 396811 363972 343950 229623 160492 103439
2333.47 70002 18336-19202-47602-65238-72245
2339.25-82715-101335-121168-144632-111098-117352
2345.04-126057-98517-127390-144851-160002-130509
2350.82-42032-28029-21604-22793 20159 66906
2356.61 92592 65176 64590 83329 102174 155434
2362.39 184193 138905 97577 106815 148993 126268
2368.18 103911 89796 149797 131515 80014 44822
2373.96 17330 17537 33313 5266-6356 33404
2379.75 56574 22011 53848 60319 31448-3797
2385.53 26766 79522 57745 24865 33183 10097
2391.32 51100 70760 60226 60899 105707 74620
2397.11 77756 85420 81427 62767 78861 49356
2402.89 48462 39448 50910 72133 72940-6661
2408.68 21888 106162 87325 23300 514 24532
2414.46 95266 89126 60615 21644 25416 86149
2420.25 71091 47184 30235-8624-10209-10504
2426.03 45613 54170 57690 82174 73330 52166
2431.82 45946 24605 8312 4903 7203 942
2437.60-3362 28286 65004 55323 42439 59035
2443.39 93464 68996 27139 22448 7185 32693
2449.17 80270 49755 39367 36917 43658 38061
2454.96 40802 5754 21702 58023 74797 76828
2460.75 93004 77251 45893 5385 26160 42829
2466.53 39118-4784 19358 77399 72482 47614
2472.32 89027 68885 60446 8244 1692 12973
2478.10-26075-59865-10735 1503 4363 3682
2483.89 22625 2806-18077-24557 33204 51428
2489.67 35252-18931-1549-12532-24318 5981
2495.46 36530 7444-18226-41474-9515-34782
2501.24 11935 84506 107669 75942 59471 42546
2507.03 87343 104993 99373 49032-14126-42319
2512.81-29728-4095-16136 5909 87635 74150
2518.60 72764 84271 61636 25130 20171-34627
2524.39-6456 44501 12298-11306 12942 35887
2530.17 60267 68039 62396 42737 29492 8813
2535.96 61422 29856 42983 60562 30122 34628
2541.74 117720 100153 40410 25918 10057-4236
2547.53 21033-2351-6527 8334 65045 48675
2553.31 25792 8983 49107 37679 50250 17891
2559.10 6915 1377 20168 52588 69753 27911
2564.88 41272 40619 46539 49181 73587 63443
2570.67 54818 14323 20822 21192 51931 47335
2576.45 69064 37497 30838 2021 35270 39339
2582.24 1608-21146 15305 7185 41156 70654
2588.03 72192 17351-13769-26273 1043 8780
2593.81 41927 36751 399-7754 44613 54558
2599.60 81402 86658 37727-29049-8866 20608
2605.38 31489 6350 40712 55256 56667 82033
2611.17 79989 8092 18473 9147 13597 8088
2616.95 9475 1431 37080 75215 68432-34006
2622.74-67338-29083 8098-23512-44314-64773
2628.52-21418-27100 16957 56156 92580 72604
2634.31 43909-18367-26081-4903 47227 45650
2640.09 70513 14022-18183 16277 24741-40437
2645.88-14605 40918 46101 49943 33840-35246
2651.66-49939-22953 19817-8796-33771-15857
2657.45 27633 11095 49488 29001-20421-53064
2663.24-1163-33705-20935-12459-397-25124
2669.02-10426-7147-6694-15690 12939 13143
2674.81 42722 25043-9477-96513-76009-25114
2680.59 65071 68780 66553 46550 2390-50805
2686.38-677 14449 34490 4208 3811 18980
2692.16 53659-7942-39526-27612-41178-100141
2697.95-132885-188604-126986-30315 53124 45090
2703.73 77789 101554 91923 62354 107795 91277
2709.52 61815 33075 48178 8363-33226-78165
2715.30-42710-76190-13653 4673 12752 12894
2721.09 28396-14491 8161 21064 44636 37148
2726.88 18618-23843-48286-46406-24516-44529
2732.66-70247-66180-26641-11193 96668 64583
2738.45 15629 1240-14004-54660-27880-31868
2744.23-624-39517-101836-71627 5111 19891
2750.02-5410-1597 39160-8794-30649-41895
2755.80 13938-14965-65075-68667-41176-473
2761.59 73842 79266-14520-103993-100747-95750
2767.37-80144-71376-42315-60056-61388-97209
2773.16-32812 40763 88028-3428-83183-96850
2778.94-43821-45836-40710-19971-33600-110271
2784.73-131351-135518-87603-19587-86528-111841
2790.52-51648-82575-84644-121115-62353-63543
2796.30-100946-69108-17044-65546-58553-90712
2802.09-63151-83866-76057-26043-29481-31296
2807.87-65700-96411-7805-36479-63351-80066
2813.66-79937-89639-85679-63020 7072 8331
2819.44-71759-142036-70319-56845-37599-62260
2825.23-68094-105129-36413 20531-54113-179918
2831.01-129324-86756-42107-48983-25181-49325
2836.80-48118-51891-60620-60768-48936-89316
2842.58-42185-29881-32876-67373-42405-57456
2848.37-78679-117630-60531-85872-128538-75772
2854.16-27253-43066-7740-9612 7124-66470
2859.94-140504-153937-90398-63968-38147-1118
2865.73 54483-48686-66015-69523-9335-46010
2871.51-70110-121857-91956-92747-1337 22687
2877.30-31065-56487-10585-21849-8152-21391
2883.08-55899-141209-111201-94087-48167-92578
2888.87-19734-23949-103229-77227 1281-48500
2894.65-77143-62833-49356-41431 7319-48543
2900.44-7385-20969-48051-69919-43828-17538
2906.22 10079-1582-42729-93175-49997-36964
2912.01 26652-46181-48575-63804-72001-44268
2917.80-364-39489-49458 9954 25231-77296
2923.58-87560-115626-133130-69713-78068-104332
2929.37-24702-46671-77881-124124-79713-57637
2935.15 9940 248 2766-3415 27641-20044
2940.94-38221-56587-54029-36451-26925-63573
2946.72-49580-56176 74298 68254 19870-62970
2952.51-48444-34384 17114 2520-6963-81420
2958.29-99865-114700-107272-123185-41473-130008
2964.08-155144-102151-28831-70645-130914-114677
2969.86 27516 15242-62143-120111-61237-84417
2975.65-40142-11491-34533-81669-41702-99556
2981.44-142104-90872 25861-3804 26367 37115
2987.22-19270-109763-76827-30433-6108 784
2993.01 33278-18545-30133-24392 34787 16336
2998.79 36958 19377-27444-84503-30612-72774
3004.58-63736-103149-77296-17922 33237-5508
3010.36 34148-28051-42088-2368-2856-69646
3016.15-71511-67718 11327 2128 24251 42627
3021.93 83521 8331-25258-34573 36675 20308
3027.72 4631-6229 46025 36941 27141-38967
3033.50-94471-112857-14177 17132-17638-116575
3039.29-24988 4325 38487-13379 2790-58504
3045.08-43471 870 35913 23306 4235-73201
3050.86-34933-23369 71521 77407-8680-59711
3056.65-8730-37493-52878-62088-78913-92820
3062.43-4820-107481-123746-129920-31054-12014
3068.22-4944-88102-47997-60446-119423-119015
3074.00 4508 6762-12770-56352-16386 22918
3079.79 87937 8655-2404-5312 58855 23488
3085.57-1173-30507-68477-105345 5222 38952
3091.36 24584 13020 7605-129477-97735-46949
3097.14-31612-58744-2830 23773 27782 4403
3102.93 13693 6005 14684-4023 51960-4925
3108.72-62774-74032-11125-10522 42846-12573
3114.50-27291-32829 11313-40975-51383-7469
3120.29 40560 12030 44644 17215 12642-6017
3126.07 59335-7025-32151 2628 98741 15252
3131.86-57081 4406 96652 28701-33107-85793
3137.64 12372 28918 93231 48779 41678 28970
3143.43 5157-45395-90331-80416 18215-11227
3149.21 28549 34575 20723 4161 31112-58878
3155.00 31826 7057-21916-44970-57576-97778
3160.78-53921-1511 3582-53150-26843-68465
3166.57 28197 36838 44155-9143-17331-9487
3172.36 11420-81238-27089-34748-25902 34079
3178.14 57886 17445-17768-117231-83194-74515
3183.93-64048-37458 25347 21178 19956-45065
3189.71-32480-62313-94567-61889 10402-90887
3195.50-124669-96614-33-66040-82028-15856
3201.28 95289-19021-60639-63407-47745-46828
3207.07-14698-65741-3087 494-20697-57087
3212.85-28426-88311-80728-58063-49495-85794
3218.64-34951-60648-91553-131852-68341-33320
3224.42 24273-29001-93516-202935-124004-32929
3230.21-62333-79640-22156-8130 61026 10224
3236.00-66001-96796-52019-53782 18083-98204
3241.78-108212-100050-145921-210827-57223 4309
3247.57 2106-50179-66313-105746-59871-77391
3253.35-28470-66825-58022-55100 4009-88060
3259.14-89584-34339 18659-87573-82389-76729
3264.92-53789-60729-13888-13914 49505-26268
3270.71-2638-2630-5042-6398 54555-26845
3276.49-121406-79833 68012-19419-67467 6333
3282.28 100428 28423-3257-46936-26762-72397
3288.06 12164 22477 13698 17802 11268-60564
3293.85-18786 6134 16395-28974 13451 9335
3299.64-31262-127779-81566-78695-9316-24776
3305.42 19775 24775-21108-93246-37402 5052
3311.21 55255-9711 4308 63576 112424 60512
3316.99 107097 51915 26029 29489 107249 79453
3322.78 82597 61804 114065 84611 157178 195843
3328.56 142010 1578-93065-131479-53981-60342
3334.35 31439 76644 47893-102576-80624-74832
3340.13-87862-112704-55747-87770-36410-56685
3345.92-47229-468 45291-85297-98868-80957
3351.70-38111-50228-8590-67316-54464-55023
3357.49-21044-102076-30776 18922 25551-9132
3363.28 67695-5048-97874-116135-40861-32933
3369.06-47532-60088-2879-23648 46066-88166
3374.85-87838-145392-83260 21798 106759 53138
3380.63 79552-2375 56575 32535 25254-10899
3386.42-50788-64592 89898 170778 267781 154573
3392.20 29339-78698-42280 27103 97752-34604
3397.99-8947-4461-3065-35711 12088-57748
3403.77-44434-88990-56291-29496-74834-202244
3409.56-193861-181294-58142-71648-33431-57023
3415.34-34640-123892-42576-4033-119705-133649
3421.13-78108-60899-50783-60906-2508-7298
3426.92-33316-71076-85467-66060 14872-32522
3432.70 32914 21589 1480-102680-50535 4164
3438.49 73993 61665 106354 54171-16974-113333
3444.27-50504-5426 10006-28567 87208 85896
3450.06 42693-79084-69199 63525 110245 17707
3455.84 60098 17333-19383-94836-70622-75440
3461.63 110003 123695 95063-15138-55057-51979
3467.41 31498-46673-59780-51707 125921 79232
3473.20-34571-95802-9696-95710-142492-83250
3478.98-15686-74720-120473-126563-10495-69501
3484.77-42550-102768-86477-52737-55976-84629
3490.56-32774-62939 30359-3997-55018-39737
3496.34-11644-102985 7356 33090-57011-132727
3502.13 21736 6800 20219-29364-86312-153914
3507.91-124347-67949 31689-37579-36761 14389
3513.70 116600-48902-167507-183051-72922-29386
3519.48 46937 14471-30836-78717-25249-31255
3525.27-11663 1944 30263-77543-114590-141758
3531.05-18744 34238 81402 11277-78188-88051
3536.84 62057 65650 33751-87170-80691 34403
3542.62 165246 81440-48752-113677-65346-79869
3548.41-5157-15360 6727-68954-63335-87552
3554.20-59716-31212 73480 74045 102366 20309
3559.98 65352 26083 70566 71745 64211-36480
3565.77-26230-45328-3575-49672-5329-15111
3571.55 38828 29384 118424 43107 80401 67801
3577.34 53703 6271 87434 54019 59594 86480
3583.12 146174 49383 90630 6760 17181-8288
3588.91 21756 13429 82036 56840 113597 104566
3594.69 88120 29047 50190 40637 73831 8204
3600.48 51264 69842 138086 80893 79161 61242
3606.26 148417 119086 108803 73439 132340 74743
3612.05 79857 99898 195738 139129 87572 16711
3617.84 95358 57573 61182 71255 85068 67928
3623.62 90763 38716 110023 39711-54226-58738
3629.41 89962 95439 98727 59275 109592 74190
3635.19 103857 68643 86477 84565 154193 103827
3640.98 83553 58121 108782-2210-21038-67270
3646.76 26044 15576 49110 46779 119452 87368
3652.55 80331 50625-37319-84729 32403 39028
3658.33 141723 139489 144441 54201 42556 55418
3664.12 125944 40783 63435 53337 50942-26619
3669.90-24583 27013 9077-135862-113165-119460
3675.69 13650 2144 68566 109156 143478 68664
3681.48 26955 30173 112149 69757 126610 89352
3687.26-72932-100872 16993 6596 113693 49393
3693.05 44532 44523 104928 93106 178232 100038
3698.83 90571-25597-68549-25811 85007 66318
3704.62 108652 75760 123286 107070 97158-32652
3710.40-3880-82562 167-43429 9700 77250
3716.19 175973 94746 102853 80835 49532 3138
3721.97 92706 90503 144029 69110 134029 107540
3727.76 78056 31714 84185 23839 77803 74347
3733.54 41775-50610-30908-18847 72791 7727
3739.33 62441 44917 74513-34570-151386-134593
3745.12 108214 64525 58734-94394-80479-40227
3750.90-106940-86777 70940 74100 87842 1290
3756.69 57228 59808 109817 77724 92205 63867
3762.47 140301 30024 1087-32918 78388 159981
3768.26 205850 85268 147037 149071 228636 136853
3774.04 54130-18572 113909 106626 100977 36376
3779.83 105655 113109 88421-23847 10951 1515
3785.61 103811 45858 97419 64541 111654 81660
3791.40 187836 152008 129351 118284 212767 146491
3797.18 148944 18359 16842-72930 63546 130331
3802.97 83612 88419 118901-63570-22397-12069
3808.76 34109 80479 134888 32858 61937 17754
3814.54-95792-153142 64229 69002 28749-50121
3820.33 57294 115782 148706 22595 59453 56817
3826.11 138237 90756 87856 32718 23121-26626
3831.90 68218-30318-57277-40950 39901-158018
3837.68-46702 49472 86290 72475 97705 15988
3843.47 141238 65888 52889-25404-12444 7937
3849.25 75869-16232-60116-147600-261574-176598
3855.04 94041 135023 183955 135909 144358 4518
3860.82 36274 63594 79598 21505 86105 41769
3866.61 27586-133082-130112-79464 52085 54797
3872.40 53774-19743 77321 58759 81366 20178
3878.18-3485-77811 22394 55378 95735-36191
3883.97 5857 15382 124940 107559 116083-36908
3889.75-57830-106440 30202-1353-9730-24465
3895.54 129418 100931 31896-25899 100438 1349
3901.32 18393 14277-39279-96472 17364 49622
3907.11 95698 40235 105291 63613 119402 46454
3912.89 85705 63352 64120 248 80952-4424
3918.68-47638-37951 48285-22343 4497 1380
3924.46 63630 32000 163486 160255 130524 27725
3930.25 60798-15688 51128 45199 155264 146684
3936.04 157552 96163 121627 104234 135939 32607
3941.82 93029 91851 134573 36347 59480 9586
3947.61 64197 56199 127593 68976 48948 20291
3953.39 108205 81073 84664 53916 76823 15984
3959.18 62079 98138 139334 62452 48271-68876
3964.96-6042 56265 141815 52524 60257 24297
3970.75 75152 28819-13579-22856
##END=
