##TITLE=Carbon Tetrafluoride
##JCAMP-DX=4.24
##DATA TYPE=INFRARED SPECTRUM
##CLASS=IUPAC A
##ORIGIN=NIST, Analytical Chemistry Division, 301-975-3108
##OWNER=COPYRIGHT (C) 2000 by the U.S. Secretary of Commerce
##DATE=00/02/01
##$SPECTRA VERSION=1.10
##$UNCERTAINTY IN Y=2.2 % relative (B=1.3E-04,C=6.1E-07,D=3.6E-09)
##CAS NAME=Carbon tetrafluoride
##CAS REGISTRY NO=75-73-0
##MOLFORM=C F4
##MP=-150 C
##BP=-129 C
##$NIST SOURCE=QUANT-IR
##SPECTROMETER/DATA SYSTEM=IFS66V (Bruker)
##INSTRUMENT PARAMETERS=KBr Beam Splitter; MCT Detector; Multipass cell
##STATE=gas
##SAMPLE DESCRIPTION=Carbon Tetrafluoride Primary Gas Standard
##PRESSURE=101.3 Pa
##TEMPERATURE=23 C
##SAMPLING PROCEDURE=1 L/min Flow
##RESOLUTION=1.9290
##DATA PROCESSING=Happ Genzel Apodization
##XUNITS=cm-1
##YUNITS=(micromol/mol)-1m-1 (base 10)
##XFACTOR=1.0
##YFACTOR=2.9103E-11
##DELTAX=0.9645
##FIRSTX=575.65
##LASTX=3974.592
##FIRSTY=-.0000578
##MAXX=3973.63
##MINX=575.65
##MAXY=.027328
##MINY=-.0001945
##NPOINTS=3526
##XYDATA=(X++(Y..Y))
575.65-1989345-1188646-1716021-1949210-3592119-3972825
580.47-2766508-693111-272821 367362 1229895 295344
586.26-1427337-2039249-1437840-1305287-1329608-683137
592.04-1184628-1224621-1287873-1696625-2026756-1398949
597.83-1270470-701907-744394-589014-1195428-736696
603.61-522150-338282-74435-486276-612957-291337
609.40-579193-252717-451370-383959-263839-79634
615.18-525854-830426-874350-212623-688417-842438
620.97-902295-1003158-1684718-1448543-1453724-1215143
626.75-1184842-679108 727171 8003578 9221948 994442
632.54-1717561-1544128-1327862-1062034-801881-656854
638.33-979260-1064815-669942-117229-246978-242645
644.11-253694 13043-53455 495845 501294 156177
649.90-280120-158397 1930-25324-277645-86796
655.68 78924-63373-777757-1163560-1240176-1004291
661.47-1251797-911942-852583-770525-1069861-1234257
667.25-1127833-972007-1038741-1047535-1412339-1489333
673.04-1512078-1383128-1560101-1483237-1503011-1205449
678.82-1165723-1256664-1532323-1433541-1606819-1548485
684.61-1359549-1402194-1589474-1624637-1393525-1150081
690.39-1478103-1212688-1191353-1283132-1421715-1314994
696.18-1293374-1121714-1262963-998729-1234910-1125134
701.97-1277783-1264240-894351-551086-964352-1295240
707.75-1321661-848820-1156698-1181922-1330558-1061202
713.54-878682-730441-905498-981118-1347239-1286666
719.32-1051464-840087-877748-658979-847632-858248
725.11-983490-949208-1079569-897341-963173-1067970
730.89-1131515-948161-948728-681848-821673-920998
736.68-981566-731664-1026871-875635-894603-829648
742.46-1040385-935061-900682-1058464-1249729-1025180
748.25-1011257-855389-1140684-1198314-1129472-920233
754.03-854294-595108-881280-869763-1113521-1133676
759.82-1127942-851797-952812-1166978-1410373-1001371
765.61-1010794-985565-1137216-977828-1270245-1212414
771.39-1162800-985219-993279-964814-1264896-1133293
777.18-1197340-1203726-1338303-1245630-1321155-1179865
782.96-1298190-1262948-1362909-1228075-1342585-1273575
788.75-1466475-1234554-1266906-963346-1100002-1070382
794.53-1215993-1190311-1515730-1271843-1251107-1060362
800.32-1259043-1176045-1021175-996945-1485871-1387973
806.10-1154658-1088866-1302319-1129878-1379434-1254511
811.89-1261384-745493-1118496-1454203-1358245-1151246
817.67-1257984-997462-1369529-1203284-1006862-959229
823.46-1103276-865717-1081360-1142410-1480829-1396278
829.24-1461422-1229539-1149475-845255-1362375-1473941
835.03-1275240-1087577-1167022-992141-1445243-1480034
840.82-1559637-1208148-1344604-1108846-1313449-1242244
846.60-1247367-789866-987374-1062093-1219816-1078678
852.39-1135621-1135919-1373406-1051909-1158056-1170384
858.17-1192586-747158-830659-825919-1236712-1126255
863.96-1068268-780626-1163134-927610-880982-942312
869.74-1157394-1146315-1375536-1248579-1339648-935786
875.53-897563-747830-955312-866072-1088975-960360
881.31-1121929-953597-1148639-934937-1036486-1051730
887.10-1312472-1081309-1182924-938476-1055761-985575
892.88-1284083-1076315-939027-860521-1359948-1366592
898.67-1444438-1100643-1160862-1164583-1433994-1143381
904.46-1425658-1239757-1233069-1041453-1101465-903876
910.24-991784-956708-1287901-1121399-1197747-1137632
916.03-1407783-1093977-1109378-1096692-1239970-1082218
921.81-1239409-985992-1012726-869604-1058512-976026
927.60-1146698-1011830-1196129-1011106-1133017-901552
933.38-992579-907267-1265377-1054146-1092827-1061701
939.17-1365853-1092345-1224238-1003352-1029564-848440
944.95-1111570-976135-1095659-888037-1212635-1014520
950.74-1186467-1053717-1100937-850680-1057889-975709
956.52-1346938-1059579-1087601-879742-1054282-815272
962.31-1067554-1031189-1134607-936458-1146032-1068106
968.10-1230782-833920-969750-953626-1245892-859976
973.88-1069603-1216382-1366909-1114752-1315144-1016912
979.67-1059784-833487-1049273-1017223-1473471-1257051
985.45-1268061-919334-1143114-948960-1153519-1062688
991.24-1215307-905918-1086284-1046482-1316205-1169424
997.02-1236962-785114-938382-833532-1241580-1028024
1002.81-1239171-1077686-1188764-991000-1233613-928626
1008.59-1127207-1001784-1293212-1134244-1249387-992677
1014.38-1297533-1076930-1124981-883511-1215260-1034674
1020.16-1117446-811731-1168204-892525-1205166-1046659
1025.95-1092946-890172-1197161-924017-1113047-893827
1031.73-1061498-838088-1183515-1016297-1098676-775758
1037.52-1090195-934436-1292044-1027381-1072867-749788
1043.31-1095078-1008903-1224741-1058260-1409203-984577
1049.09-1021418-647264-891391-722601-938076-644159
1054.88-893933-718100-1166836-974209-1138104-712143
1060.66-844650-689667-1170086-880730-904648-608624
1066.45-1117540-967562-1105140-737575-990494-757744
1072.23-1120183-723062-920623-698529-918223-753198
1078.02-1133009-1019621-1416005-1017452-1190551-831097
1083.80-1138109-876564-1208098-950732-1115203-800965
1089.59-1197597-992225-1280871-932576-1139736-697933
1095.37-1077865-974248-1380926-1023300-1230788-897087
1101.16-1179292-743140-1002439-792971-1249429-824425
1106.95-1154004-963126-1342331-903331-1097615-856199
1112.73-1240001-762149-1033199-791787-1295314-1053308
1118.52-1333638-881716-1118383-741929-1134840-771877
1124.30-1084668-847857-1278508-857403-1247008-995134
1130.09-1318856-915761-1265237-874877-1281415-1026397
1135.87-1291367-725593-1126353-874291-1333383-832913
1141.66-1133367-783436-1223219-813230-1267266-819660
1147.44-1170435-635910-1161634-831435-1196884-789261
1153.23-1248566-848872-1306763-851681-1269150-756850
1159.01-1186493-834200-1357446-806845-1221562-799495
1164.80-1295964-714741-1298967-861780-1153379-729116
1170.59-1295155-776597-1262935-597753-1034692-708112
1176.37-1349594-736342-1136753-574865-1120136-683960
1182.16-1339460-735194-1124274-560146-1250711-702788
1187.94-1218868-651729-1387558-718864-1277050-686074
1193.73-1277547-675816-1289998-692039-1417312-672880
1199.51-1258886-698132-1413183-635772-1302876-647514
1205.30-1358945-682611-1358208-612791-1413260-458596
1211.08-1147204-475879-1349798-579705-1377877-561195
1216.87-1367879-577757-1554132-654324-1431945-497734
1222.65-1223772-237088-1253637-445278-1410349-381613
1228.44-1311764-167669-906190 435075-218683 1317562
1234.23 899066 2925324 2895535 4972505 5134184 7412919
1240.01 8042023 8165794 6503374 7896232 1981694 2272392
1245.80 1116936 3354742 2500590 5136768 4242056 7145118
1251.58 6828930 10791217 11716714 17456589 18877184 22320714
1257.37 18533636 17219314 16029296 23432673 21914979 30702821
1263.15 35313715 42830607 39957294 39768944 32342453 37512005
1268.94 37921655 47402560 50632382 71312258 88873789 129509095
1274.72 171498246 248306909 327089110 433559102 530183558 670911957
1280.51 669425726 877750826 938996948 563827017 469670391 304201464
1286.29 133619559 47388631 28047362 10024310 10479716 1728002
1292.08 5030097-833400 2922845-1558550 1914682-1776642
1297.86 1422363-1946845 903109-2105570 487803-2095328
1303.65 400954-1969161 217188-2014849 56887-1943235
1309.44 90379-1736932 57309-1614817 82507-1680776
1315.22-131645-1709075-216449-1637396-193314-1684319
1321.01-317645-1549477-319943-1561401-296226-1432943
1326.79-277055-1555890-421925-1441584-371873-1440943
1332.58-385454-1414380-430524-1421134-433511-1337854
1338.36-384228-1408060-482332-1219841-199493-1135743
1344.15-492704-1428223-697540-1435518-537443-1512076
1349.93-933375-1749956-967823-1446609-293131-530303
1355.72 263768-851646-426152-1205383-681039-1414094
1361.50-788516-1423755-724563-1341906-744319-1257252
1367.29-501576-1148273-614472-1300919-694366-1186064
1373.08-646230-1192152-541052-1200662-687950-1247272
1378.86-770663-1294923-858324-1363601-700092-1070155
1384.65-527333-1015756-607225-1295284-821499-1297074
1390.43-788908-1211753-647806-953441-594196-1154451
1396.22-913729-1330998-609650-1196182-939413-1356448
1402.00-838347-1124227-638805-1113880-770239-1177907
1407.79-776147-1215699-805355-1117103-674759-1077249
1413.57-827044-1208086-762335-1027038-470415-634378
1419.36-605064-1223426-863497-1252895-807761-1090691
1425.14-722546-1142681-816357-1098997-730278-1211298
1430.93-888946-1103499-780717-1180379-608907-543890
1436.72-565171-1325699-919569-1132624-863530-1226041
1442.50-870040-1203793-937102-1113405-679381-1074319
1448.29-1000720-1302203-889266-1192514-928425-1111420
1454.07-648472-411647 206974-590353-646279-1051809
1459.86-849331-1123592-855377-1053652-559450-926783
1465.64-850703-1019152-697694-1065144-745664-726505
1471.43-336652-707033-634936-982503-599722-891175
1477.21-747873-1033783-772773-1004479-828678-1146827
1483.00-861966-1054125-740083-887419-671039-991465
1488.78-600351-727256-703270-1104980-786011-926272
1494.57-380631-445118-523451-671969-591602-1057879
1500.36-731118-908080-663296-736388 32927 246561
1506.14 373472-322856-268957-450405-260978-376526
1511.93-139704-368245-112939-191978 148903-9501
1517.71 52838-55032 622215 619506 407598-77426
1523.50 72759 15441 77936-206099-157177-438044
1529.28-347154-554256-475578-586128-371784-561366
1535.07-243717 108250 2458686 5942257 4259214 248693
1540.85-102598-465019-507220-597992-355890-798316
1546.64-605343-628514-161366-329184-256178-421852
1552.42-20560 81854 22657-296262 410830 786082
1558.21 820462 447141 54252-581761-453697-578050
1563.99-384747-645333-652854-860787-449031-434235
1569.78-488033-850662-783459-966655-756036-383751
1575.57-11342-800315-864606-1064983-896612-1055965
1581.35-906424-1116880-970066-1130973-908038-1099265
1587.14-944876-1047464-978624-1170955-901194-978800
1592.92-861925-1136590-983413-1046146-921661-1050233
1598.71-874506-1014480-893557-1119710-938592-1054938
1604.49-894659-972763-787396-991246-947657-1133018
1610.28-926398-972280-855892-1002201-761428-443870
1616.06-96994-726871-904443-1140831-967746-1078048
1621.85-679682-663544-811967-1114157-878789-895290
1627.63-803106-989208-824739-988072-890771-970683
1633.42-593400-299251-405980-882283-828231-1015127
1639.21-831448-1014388-851068-938490-798900-733370
1644.99-337236-691398-603524-807170-875705-969585
1650.78-233171 539510 433997-505419-808423-1087222
1656.56-1020580-1119382-852107-862658-693582-778230
1662.35-684124-952711-836576-944129-823816-801643
1668.13-501012-810880-777000-829433-876234-940721
1673.92-420860-648422-849256-942613-790327-869634
1679.70-816622-993972-651728-321002 367586-139093
1685.49-763429-952882-757403-819815-734901-963990
1691.27-891758-904875-601469-28441 325853-588758
1697.06-774921-461026 325996 22121-490929-819510
1702.85-651611-772356-728219-661770-642671-836438
1708.63-717247-884334-890147-959643-802066-695841
1714.42-303637-395791-139807-318643-613007-954444
1720.20-903733-963864-838725-968494-804262-826534
1725.99-769944-897301-754861-831825-817566-1013553
1731.77-595781-232789-172450-747980-851833-931110
1737.56-827676-707719-701975-1042778-906498-922633
1743.34-858473-1007125-848908-851310-753542-888905
1749.13-741187-585109-566294-961509-934929-1045546
1754.91-991057-1003964-958305-1087551-901193-964727
1760.70-756897-989309-1099991-1151868-943754-1025617
1766.48-852473-799576-815348-883995-583355-474919
1772.27-564759-1002706-875374-1025512-963469-1017059
1778.06-875531-908838-834219-985977-960459-981035
1783.84-740105-867679-811683-899287-861952-962790
1789.63-768788-711143-463261-704263-886933-984061
1795.41-856544-984535-897440-897756-843801-957371
1801.20-839438-1036709-986619-977003-904640-925507
1806.98-774193-928297-929942-990846-812151-842997
1812.77-832265-1019558-896313-902104-922531-1064193
1818.55-977370-1047365-920339-1059112-1037491-908502
1824.34-741714-1007667-1045690-1035570-730732-720032
1830.12-835023-1016002-894462-946189-868359-932489
1835.91-849815-940475-959249-1062612-952642-1034536
1841.70-908017-615285-474159-921059-1023300-1064591
1847.48-985075-1088850-1088094-1087538-971550-1044057
1853.27-963661-1081137-1053222-1095049-1032221-1124561
1859.05-1073089-1140770-1006763-991778-846985-942989
1864.84-978665-1063294-890385-901451-737396-869774
1870.62-906124-1013207-1005830-1059529-983128-1042290
1876.41-950869-982684-881176-936585-932667-1055187
1882.19-964977-1054371-931703-949500-915799-899305
1887.98-767686-843373-953339-1047918-912018-927042
1893.76-838392-895137-807921-855558-864895-970390
1899.55-834472-768744-743746-909656-808514-807021
1905.34-703726-813685-830328-905507-779313-803418
1911.12-677062-754697-783246-862038-753857-767489
1916.91-574352-621967-693617-809082-671849-711040
1922.69-737280-810782-779620-925834-862034-901718
1928.48-774465-788731-745473-909497-824530-807299
1934.26-796150-890925-885486-1014247-885341-833722
1940.05-748257-846343-858754-960712-896274-956169
1945.83-836098-802730-830216-1014667-946627-950123
1951.62-902531-932795-904637-980465-918073-989104
1957.40-874318-858733-845224-957355-965120-980430
1963.19-864341-934844-843344-784857-791192-967887
1968.98-994145-990807-891797-1022047-940701-944827
1974.76-937928-994697-919771-988027-898025-937373
1980.55-864303-904130-942952-1032875-945262-964066
1986.33-933031-965727-888068-970542-904699-986345
1992.12-996354-1068434-983006-985671-879486-1011610
1997.90-943193-921375-802630-892493-994424-1083254
2003.69-989437-998367-932944-978298-935616-1021848
2009.47-931308-1001345-1047363-1087534-1031309-1020216
2015.26-878143-940006-959875-1042429-1023821-1041574
2021.04-944834-1033357-1030497-1122698-1101746-1180179
2026.83-1059139-1013563-969554-1017011-1028776-1120700
2032.61-1073995-1118304-954376-954670-954238-1022969
2038.40-1007281-1110539-1042819-1038803-997533-1052185
2044.19-1046461-1058066-976443-1120556-1119027-1041947
2049.97-908345-1014374-1031697-1128732-1108433-1092262
2055.76-991138-995664-978791-1041151-960044-1000090
2061.54-1024994-1093505-1030290-1068090-1031186-1033052
2067.33-959521-1017083-943290-974830-981014-1021050
2073.11-873620-988460-1099462-1094685-888833-966155
2078.90-1005168-1006243-904681-982027-945869-1004004
2084.68-990862-964806-923595-1010915-997647-1038324
2090.47-956523-909879-860832-1002512-996561-1022340
2096.25-922065-979808-1013390-1037403-1038359-1082187
2102.04-919372-989613-953399-1027777-1042837-998919
2107.83-958363-1037422-958487-941793-939359-949148
2113.61-887962-1012041-965788-985058-905508-965768
2119.40-1000323-1061351-993958-1047969-986943-948421
2125.18-899548-1016944-978515-968186-872915-933343
2130.97-903951-961610-885592-844307-896791-1001897
2136.75-895101-929216-865970-888773-832692-866200
2142.54-764762-709316-734562-821086-821767-890008
2148.32-872108-995264-875944-858545-876108-975921
2154.11-969562-883856-804755-863466-878267-966643
2159.89-894840-972321-927830-798284-680695-765097
2165.68-819666-913277-888911-902636-766935-672050
2171.47-560866-554320-479099-522276-356842-117762
2177.25 121365 309853 691244 1016747 1446204 1782002
2183.04 2042361 2471370 3426033 2116688 1194372 823832
2188.82-80129-628895-732483-926179-1099765-1050786
2194.61-946849-944233-878247-942905-994709-1053545
2200.39-970822-902565-962051-1040230-1004282-1006847
2206.18-967196-941794-867311-927503-1033233-1102619
2211.96-1045331-1011655-961176-967035-834656-869630
2217.75-836238-756307-794553-939412-911695-909404
2223.53-917901-947557-889952-917888-904772-946596
2229.32-925755-935652-958555-1024240-1018075-961609
2235.11-935539-938313-893851-958986-937822-945764
2240.89-930042-1019872-1023864-983278-873582-845146
2246.68-918501-1069234-1000664-858781-849191-1007377
2252.46-1005999-962698-976675-1055698-963328-942350
2258.25-854995-931967-1042788-1070035-907950-898508
2264.03-900338-941744-918179-949309-1043508-1074299
2269.82-960946-914264-820076-881093-962345-999210
2275.60-936406-981045-912910-930148-970961-950890
2281.39-895761-1013535-991276-879565-820093-897787
2287.17-885024-899063-848446-946334-902619-874150
2292.96-775386-808025-914137-1012337-930540-844711
2298.74-881249-936211-891710-882343-916472-895485
2304.53-857279-847323-832656-923636-970489-889726
2310.32-777411-799521-741138-844733-788012-719702
2316.10-665558-759100-705072-721164-717898-803531
2321.89-727779-704195-578357-602340-555170-608215
2327.67-512312-584762-558366-591918-562251-557792
2333.46-500490-453084-364309-468193-587831-611944
2339.24-530193-572640-567671-662926-624163-593310
2345.03-646354-831904-919580-891196-833607-789724
2350.81-681972-674743-644542-600715-472819-456982
2356.60-374222-308667-329155-389577-389655-435626
2362.38-390560-346842-325618-316356-406425-509715
2368.17-581897-696676-653127-660459-691391-787519
2373.96-712175-835967-916450-864469-785537-795847
2379.74-790344-915266-967129-982065-928957-963932
2385.53-1018816-982983-906399-1010990-1037197-965193
2391.31-850099-931133-928156-878343-887745-901119
2397.10-823033-852664-827072-826578-799098-895163
2402.88-1057215-1065967-997345-937733-767185-752632
2408.67-790270-815237-794357-840476-919743-980486
2414.45-968744-936715-847329-893953-867889-907810
2420.24-909093-935101-878719-891857-801380-793755
2426.02-875246-842217-746366-806562-897755-954888
2431.81-911611-974674-933490-849086-796321-844132
2437.60-926731-955175-927732-969557-962411-1001508
2443.38-896694-863072-833389-890003-901549-833130
2449.17-758789-793206-845703-901621-867277-917881
2454.95-934268-921709-845790-864031-926322-1034270
2460.74-959098-839346-731419-811506-863876-908159
2466.52-928070-960565-877338-908472-915271-939258
2472.31-1027126-1039757-942614-882186-847448-943638
2478.09-1029144-1011933-889742-898710-928504-919226
2483.88-954515-1010388-1024576-895974-803887-924155
2489.66-985704-991022-1002425-952989-840581-832279
2495.45-802837-840096-967825-1032032-950176-861888
2501.24-822418-832119-898275-870867-770900-819090
2507.02-835880-834470-916574-946626-885838-845505
2512.81-824054-892956-842731-853110-863314-893336
2518.59-874108-930228-998722-912726-789362-687432
2524.38-653008-867103-935917-879035-897019-905068
2530.16-828593-811640-808385-805036-801749-720953
2535.95-592698-667141-714429-762215-801900-847113
2541.73-832912-911752-902636-848173-880565-1083690
2547.52-1102571-1176964-1467875-1821074-1848240-1959866
2553.30-2267980-2569290-2893554-3280031-3359793-3565476
2559.09-4036823-4447313-4064526-3338159-3639000-5731702
2564.87-6684814-3431553-2258480-3892097-4466224-3811681
2570.66-2860550-1855578-1114457-951402-1014921-917701
2576.45-759406-570631-561717-643031-628467-615438
2582.23-700727-641768-511369-518189-591863-651290
2588.02-700782-695887-566414-544302-527796-536417
2593.80-560213-713853-769078-630653-585506-661182
2599.59-670757-688439-627940-537433-472640-547531
2605.37-680936-710934-755199-881923-859505-754970
2611.16-750112-848817-756979-735545-835547-860035
2616.94-945304-1034715-902385-792383-814414-864251
2622.73-830653-820046-828902-923529-937808-1019519
2628.51-962951-819024-839109-962164-966304-938266
2634.30-966866-990402-1025661-1054837-1032372-882702
2640.09-674769-632558-774392-992899-1119258-1183129
2645.87-1068187-954281-864925-748314-836974-958706
2651.66-936621-940350-886767-776248-766552-857106
2657.44-941370-921325-941925-912785-899268-932774
2663.23-961169-940906-893269-906532-875137-875605
2669.01-862849-864624-802027-737157-852713-881744
2674.80-884147-920455-915724-955699-904211-934669
2680.58-981756-909325-807746-798119-789819-894677
2686.37-974792-921228-849694-821650-931543-1007757
2692.15-938635-903487-800728-805567-982323-1015848
2697.94-998393-910588-856067-916485-916111-926844
2703.73-936883-813766-716577-548371-534238-610854
2709.51-736353-861728-855626-865842-876123-985868
2715.30-1052885-852905-737922-757058-736807-812307
2721.08-942955-948936-813469-681875-779830-879367
2726.87-813096-814932-815698-762166-771978-807977
2732.65-865137-858065-803750-827393-875624-783337
2738.44-814598-840508-838975-903619-904267-919319
2744.22-888969-741018-700995-771282-873112-918760
2750.01-971449-971332-807830-645121-681078-799284
2755.79-853450-905187-946464-886789-908276-924524
2761.58-761818-646378-666748-762067-894680-942325
2767.36-936819-919232-851495-828748-888737-971371
2773.15-972527-856291-815939-721271-744172-964549
2778.94-885964-851371-869215-891083-943791-903374
2784.72-907966-816340-871191-889362-810731-920207
2790.51-996943-990125-941820-891870-944556-871766
2796.29-827830-879271-926911-799808-791809-874262
2802.08-938111-911569-853200-820172-842645-911093
2807.86-941063-801326-747240-839994-783535-818941
2813.65-925401-917434-888067-805648-774643-855822
2819.43-908066-860080-844373-895600-907543-899883
2825.22-897691-837757-834235-868692-845496-838466
2831.00-915417-865205-851113-923751-780349-729710
2836.79-968330-855328-637233-555567-536082-682629
2842.58-755682-822326-861784-813451-745937-736745
2848.36-793822-829773-783455-793723-748223-779408
2854.15-855807-780249-729695-751224-724298-686661
2859.93-802803-792172-748506-737130-640533-720404
2865.72-907218-929562-777743-751076-812376-842007
2871.50-967359-835912-706773-782471-913378-900584
2877.29-863820-784358-774013-767888-717586-736914
2883.07-798267-791199-751467-736336-767123-811394
2888.86-758148-623924-723731-870188-818875-661799
2894.64-668925-573210-712035-860969-703959-708538
2900.43-835663-850931-649262-696152-861675-818354
2906.22-731378-444930-382486-561825-727520-916515
2912.00-933381-841781-828694-685633-653623-777366
2917.79-828784-861634-782315-702205-749784-829151
2923.57-895178-864752-869472-803258-863924-956120
2929.36-724717-724183-998293-1013145-924569-797360
2935.14-793084-797201-919720-960301-861520-665791
2940.93-686077-834365-980956-989406-885594-775032
2946.71-808672-914996-1001737-769884-663390-653364
2952.50-795153-920597-840503-704571-642061-675411
2958.28-897543-1041562-989240-787244-703316-815926
2964.07-929484-769161-759184-914740-1006789-1002924
2969.86-895566-739950-796434-824606-796737-782435
2975.64-836512-866646-940469-962079-881311-864498
2981.43-795572-779143-891264-893581-774962-707192
2987.21-751069-953755-1000062-874406-806023-807139
2993.00-912031-833585-706316-662834-662596-592935
2998.78-754522-869897-757053-752900-805216-765410
3004.57-791914-793901-865227-855393-784725-820757
3010.35-963333-942905-928539-852872-855178-944819
3016.14-1028172-911052-813804-784717-718610-745260
3021.92-763300-647114-705320-786263-912377-1005255
3027.71-983862-883960-907881-875754-768645-822899
3033.49-885799-811424-900520-920239-815923-851011
3039.28-915929-873597-979420-943707-879112-827273
3045.07-943545-1019592-877952-799070-934297-790077
3050.85-777173-821976-735618-748534-784604-820040
3056.64-743222-811213-859090-820646-948002-925646
3062.42-1036115-1001674-764171-610827-718343-852738
3068.21-776096-656737-722807-800930-791796-704903
3073.99-756179-872782-960850-885262-789238-759328
3079.78-817321-837792-701218-590798-714661-825446
3085.56-806930-736702-607523-619195-709214-741652
3091.35-780205-707656-804916-740599-690614-742087
3097.13-756127-788202-742442-693349-753122-735556
3102.92-740319-857269-863145-814818-719459-750958
3108.71-925840-836990-645033-806730-961502-946373
3114.49-961469-846222-639934-581958-721932-687611
3120.28-657930-821689-770998-712474-785153-715369
3126.06-606009-629291-660037-634980-728326-811664
3131.85-682520-421655-468785-709896-982090-842948
3137.63-722814-779981-761526-665192-519543-612742
3143.42-883833-906353-846742-653776-803716-888518
3149.20-943507-924395-885465-881427-793091-787184
3154.99-845482-747808-682759-697724-732245-722638
3160.77-800944-861493-828861-674664-938641-966711
3166.56-922522-978940-814383-650923-648904-794600
3172.35-942244-817415-881767-815203-741256-606141
3178.13-688207-780533-899210-778624-644860-782717
3183.92-1021643-911888-816590-844509-770566-662031
3189.70-707372-741612-809576-852911-885435-728275
3195.49-620012-737842-831099-828463-844572-737642
3201.27-577469-643867-781695-751350-899493-1006718
3207.06-992822-950027-954435-991807-970991-791565
3212.84-673576-689155-793507-899006-752962-705161
3218.63-634131-582577-686700-633842-744584-855642
3224.41-825270-908395-891201-879632-926890-757849
3230.20-718602-800756-842343-724791-730815-779463
3235.99-664025-630793-723136-921535-1034072-875122
3241.77-924324-825831-671344-668752-793980-772628
3247.56-766414-753404-812701-799603-820128-710367
3253.34-630341-763380-889829-878028-598524-688926
3259.13-977737-816745-723781-470077-591546-747592
3264.91-746945-753380-849793-682298-637263-839783
3270.70-952795-807474-721542-634572-629918-575453
3276.48-630120-771637-908920-779013-776056-736516
3282.27-614205-705777-777138-605868-600621-776643
3288.05-685717-656468-725975-743049-814578-765415
3293.84-827363-822702-780810-653518-692048-848757
3299.62-810346-708292-665477-831594-1005388-886215
3305.41-679226-561307-694106-668843-717729-895082
3311.20-1040482-876560-607654-489591-669739-815432
3316.98-839230-734483-831230-769956-865563-830723
3322.77-774927-848833-990439-887326-1096030-1027259
3328.55-877432-779637-747083-772742-954867-879284
3334.34-797492-689683-774603-965443-980226-870558
3340.12-831023-771473-756622-706554-854219-984053
3345.91-1037400-849612-793840-1059364-968754-657328
3351.69-627636-756092-850646-806098-707965-750630
3357.48-760232-634014-693339-815185-793673-668915
3363.26-945553-911203-872733-866755-855287-829155
3369.05-688162-505566-630064-731053-734285-575377
3374.84-663928-813915-845324-798779-976553-896219
3380.62-645605-410025-326609-354924-769597-878681
3386.41-560121-560685-697936-656190-742291-853211
3392.19-727292-710436-889130-805443-672697-666391
3397.98-827700-681750-580835-633806-799897-695395
3403.76-681473-729423-840439-806509-689442-605978
3409.55-511698-495971-652236-791141-623010-420017
3415.33-628062-559594-662692-854240-644306-334945
3421.12-580030-645216-545256-646534-914341-739687
3426.90-555491-597791-651022-709851-796040-702182
3432.69-658843-594965-529013-372292-480157-541316
3438.48-354564-366449-518452-723239-641866-407848
3444.26-470232-433588-620498-547596-498014-436175
3450.05-635386-910947-698679-335953-387727-598986
3455.83-816090-754963-790719-748609-586333-576728
3461.62-597959-323057-248847-409520-623169-611353
3467.40-560946-638138-784878-854778-822530-831000
3473.19-702592-693724-701127-322587-295479-566200
3478.97-870138-719992-711084-788689-694000-547542
3484.76-736949-819666-577021-357446-569901-697075
3490.54-736693-559559-499370-544034-656239-496271
3496.33-546011-640631-601581-429214-441792-539738
3502.11-723779-588320-646958-889697-951893-739614
3507.90-762208-771103-631064-701248-812044-836862
3513.69-695644-691885-912993-777207-665134-758391
3519.47-874653-698242-521558-598621-595781-521381
3525.26-697822-778289-804485-837236-845125-689661
3531.04-699848-701684-706185-465731-592250-758370
3536.83-798312-653850-574340-624040-845465-816204
3542.61-729303-632924-713197-663735-618048-593822
3548.40-750315-708627-644125-666665-843030-811974
3554.18-780248-764296-622207-630246-914019-798416
3559.97-527442-474488-759882-790348-774339-607866
3565.75-516082-289151-469434-586158-795632-947924
3571.54-846269-686096-668656-610925-523513-576166
3577.33-801560-718525-746115-895622-891572-647891
3583.11-584227-489477-492025-737515-743115-635583
3588.90-792581-594849-699144-612576-590439-816986
3594.68-993600-1017110-1075618-686209-577581-603799
3600.47-559481-572343-706845-724739-777289-806032
3606.25-833377-657024-425540-355189-564648-502460
3612.04-558142-558330-564039-665306-656952-483752
3617.82-566537-345988-482294-596168-578036-576176
3623.61-610836-515048-400640 74197 319349 153871
3629.39-406345-598924-575740-371483-415575-529295
3635.18-697882-745277-569479-385200-432833-515433
3640.97-605774-518544-612461-650853-653753-449314
3646.75-251544 161962 158769-208404-465491-505985
3652.54-627833-603007-350183-144094-470345-646046
3658.32-693289-511890-575251-616639-521253-487441
3664.11-409517-562933-692886-471336-231232-82896
3669.89-3465-336891-658072-545065-90945 242599
3675.68-93389-422619-316856-455295-605436-609398
3681.46-541336-435546-613946-705183-651402-144654
3687.25 397103 92544-347677-258882-457972-460817
3693.03-482706-658403-646053-563692-633013-527119
3698.82-378508-332701-362257-438962-525583-500821
3704.61-728231-758946-742092-590305-353594-408438
3710.39-385353-64209-391235-796586-806416-674168
3716.18-716886-755367-840694-631763-541346-602693
3721.96-559491-428975-537006-573001-475716-476438
3727.75-577469-514418-568686-494371-498105-632931
3733.53-549298-438476-225093-239837-431177-534423
3739.32-570674-378324-465574-434387 316795 440804
3745.10-423579-616040-585019 183347 214429-255381
3750.89 147272 153199-415630-612598-733368-560972
3756.67-707734-702990-433199-399244-769728-717398
3762.46-706277-624270-738416-718611-549335-466780
3768.24-546885-498554-586568-632426-694531-469304
3774.03-321366-498644-697037-585300-439904-394418
3779.82-542515-581148-501719-459628-619110-662330
3785.60-587222-583373-746180-613905-481472-389955
3791.39-484065-456865-747753-695220-546673-632241
3797.17-664312-509121-286870 412912 93223-489300
3802.96-563850-476485-595883-372723-385587-528223
3808.74-676925-624657-525135-451417-541375-430382
3814.53-8948 76273-369718-498494-585151-353509
3820.31-238558-271385-431782-465969-576517-433440
3826.10-593043-637362-646705-789832-825016-698088
3831.88-975141-841745-510513-601702-730111-292894
3837.67-395246-528657-546228-833480-1292796-1216536
3843.46-879442-813468-851656-1115578-981282-1899585
3849.24-1735299-443659-392861-34051 539259-274331
3855.03-964162-816592-1063917-1080276-1039123-916251
3860.81-906766-621431-452258-250269-362557-554824
3866.60-615889-518412-261370-128122-501233-630512
3872.38-513796-315547-545578-629442-719991-648695
3878.17-597467-430938-556410-816874-1023950-786358
3883.95-442314-126039-340941-403666-635267-566773
3889.74-212386-141791-565072-472724-591271-682920
3895.52-782819-644981-632052-427632-466179-338269
3901.31-271358-75621-50761-326396-519636-442572
3907.10-536182-580624-503006-626723-647356-440101
3912.88-446193-342725-392350-273467-361503-811244
3918.67-843476-555129-615402-657824-495492-281063
3924.45-219565-122028-295161-260688-468985-673588
3930.24-1005580-882991-774459-687659-720731-632886
3936.02-493503-350548-491088-756953-1029812-740264
3941.81-434671-194565-222977-299379-543518-629602
3947.59-655463-569981-627921-607297-665610-719332
3953.38-731636-630746-538712-369427-522290-488450
3959.16-656595-475275-393188-688756-940402-634177
3964.95-405401-286158-491827-425229-457830-701802
3970.74-750949-391994-521869-725227
##END=
