##TITLE=Dichlorodifluoromethane
##JCAMP-DX=4.24
##DATA TYPE=INFRARED SPECTRUM
##CLASS=IUPAC A
##ORIGIN=NIST, Analytical Chemistry Division, 301-975-3108
##OWNER=COPYRIGHT (C) 2001 by the U.S. Secretary of Commerce
##DATE=01/06/01
##$SPECTRA VERSION=1.10
##$UNCERTAINTY IN Y=2.1 % relative (B=1.11E-04,C=1.83E-9,D=7.56E-14)
##CAS NAME=Dichlorodifluoromethane
##CAS REGISTRY NO=75-71-8
##MOLFORM=C Cl2 F2
##MP=-158 C
##BP=-29.8 C
##$NIST SOURCE=QUANT-IR
##SPECTROMETER/DATA SYSTEM=IFS66V (Bruker)
##INSTRUMENT PARAMETERS=KBr Beam Splitter; MCT Detector; Multipass cell
##STATE=gas
##SAMPLE DESCRIPTION=Dichlorodifluoromethane Primary Gas Standard
##PRESSURE=101.3 Pa
##TEMPERATURE=23 C
##SAMPLING PROCEDURE=1 L/min Flow
##RESOLUTION=1.9290
##DATA PROCESSING=Happ Genzel Apodization
##XUNITS=cm-1
##YUNITS=(micromol/mol)-1m-1 (base 10)
##XFACTOR=1.0
##YFACTOR=3.6379E-12
##DELTAX=0.9645
##FIRSTX=575.652
##LASTX=3974.605
##FIRSTY=-1.08E-06
##MAXX=3973.64
##MINX=575.65
##MAXY=.002953
##MINY=-1.95E-06
##NPOINTS=3526
##XYDATA=(X++(Y..Y))
575.65-299522-83386-195410-356563-122344 28055
580.47 389787-59014-81474-297531-226100-469470
586.26-398759-41204 403515 368971-93240-536307
592.04-487091-134579-239645-403404 131170 189032
597.83 111591 62308 49182-220682-105372-138146
603.62 97492-120096-401765-513616-173913-10876
609.40 136411 1880 66787 25141-47862-139633
615.19-27546-346457-443923-366226-175442-188934
620.97 2811-4810 143390-227116-273373-186102
626.76-57213-93906 137799 116915 40634-148475
632.54 78736 157054 157898 12482 218655 130403
638.33 376174 303385 342229 511607 1067515 1064893
644.11 1303422 1661321 2164115 2533715 3303439 4018102
649.90 4977323 5564337 6544368 7482501 8611913 9530406
655.68 10545653 11153373 11878079 12347512 13093904 14229176
661.47 16139387 18344548 20374522 20289706 18184409 16003889
667.25 17487638 20928959 21542007 18821016 16420629 15061662
673.04 14956032 15207350 15427530 15020824 14444080 13271388
678.83 11901298 10121542 8642898 7067965 5790307 4543721
684.61 3740611 2712719 2161081 1555915 1244921 791823
690.40 722955 455127 428209 158739 258829 40201
696.18 89362-94409 75225 127692 239511-48448
701.97 29297-29994 166262 169347 274805 137864
707.75 283024 192963 175553 54942 224784 174001
713.54 384118 338188 316817 55183 218499 266991
719.32 513199 369442 385225 188526 262333 210987
725.11 385585 188212 274359 182516 268086 222063
730.89 426565 288747 310731 10890 87504-29200
736.68 132134 35132 192179 155615 344330 89071
742.47 108693 67985 313832 212579 351486 273709
748.25 486083 362408 454575 314325 517635 447714
754.04 467650 285465 368605 180900 343782 228897
759.82 366514 260188 385046 219580 298310 165364
765.61 365391 149851 279915 107751 151217-81795
771.39 76776-95127-3655-104338 56891-190672
777.18-4649-23710 207742-82307 2050-209302
782.96 37840 26442 137321-81473-70251-270522
788.75-114624-308861-37300-264308-129817-265813
794.53-100737-231258-2244-162106-17099-267394
800.32-23334-153950 20836-300046-109453-261814
806.11-149819-301064 15838-269093-83873-263354
811.89-89119-256159-6203-268375-77134-59600
817.68 156841-166401 96719-92934 222828 25942
823.46 247193 118268 503921 545342 872075 754907
829.25 1016976 775164 1184286 898833 1021187 816361
835.03 1122501 1058718 1495394 1645214 2467940 2260071
840.82 2025855 1468200 1828362 1807900 2319692 2340272
846.60 2945634 3061485 3768797 3813400 4553583 4906507
852.39 5881815 6461650 7798006 8641801 10275038 11492968
858.17 13496271 15149652 17962335 20173472 23351983 26392390
863.96 30383090 33831360 38463498 42992450 48622321 53499586
869.75 59520909 65444242 72214817 78177231 85698568 93441853
875.53 102844249 108570366 110358722 109221588 112553975 120957101
881.32 133942804 140308275 129838787 112489163 113265941 128437657
887.10 150347144 151028787 132539399 130863606 129280863 112809516
892.89 103002374 97473387 93672658 87991598 84183515 80051158
898.67 79049157 78488819 83478326 90829613 104417967 120202962
904.46 141863052 166045484 198732408 234794340 278409458 320793894
910.24 363722007 396129907 423637309 435365294 439793027 429061433
916.03 426320820 431210519 479898378 549739256 690692005 811735462
921.81 761437925 522440110 397920218 442413787 484111963 520769955
927.60 550793737 561241425 538263127 490652420 419320958 340746264
933.39 260021298 189770767 130252200 86854647 54559729 34638139
939.17 20534183 13144269 7488321 5223780 2759590 2296486
944.96 1000473 1247502 478858 881569 236890 703477
950.74 154731 510704 32048 468050-68305 325445
956.53 14287 480129 20909 277562-165478 226828
962.31-110797 150498-182158 190324-125090 120299
968.10-188637 76886-169464 48826-312972 1795
973.88-146776 73694-211903 52522-185714 65426
979.67-180313-23403-231883 1458-161545 97910
985.45-103155 104697-48913 65923-186319-37354
991.24-235743-64095-245114-98167-245931-40004
997.03-178463-70171-233706-49534-228474-129162
1002.81-234906-56162-177143-93352-244898-108642
1008.60-228506-132836-284517-161426-290940-162552
1014.38-224172-121192-224213-134091-185664-59330
1020.17-154367-92807-228023-149514-256241-80391
1025.95-77523 49637-11811 43565-90767-2918
1031.74 18204 71471-67597 36859-33043 24425
1037.52-8862 30833-8939 149136 73779 106265
1043.31 169597 311272 275714 327078 318612 367275
1049.09 438611 603628 652594 908036 1063714 1278228
1054.88 1482257 1826585 2167598 2528344 2970088 3498211
1060.67 3939985 4497620 5079613 5810158 6581457 7575782
1066.45 8709389 10143176 12045928 14235191 16696239 19638718
1072.24 23422240 28988283 35261692 40325195 45839616 54243825
1078.02 65022689 77523971 91796810 107912160 125870929 145720928
1083.81 167251867 190136302 213953201 238000582 261921082 285175566
1089.59 306358329 324494005 340674425 356674236 373371710 392586867
1095.38 416258618 440608542 453618444 459837404 456866084 479505383
1101.16 546990791 540060725 461734892 390332841 365268254 366110588
1106.95 366278378 365006112 359597264 345092997 323001729 294736080
1112.73 263066506 229800420 198057830 169307656 144566465 122247670
1118.52 104763840 95227175 92773939 88358286 79635718 74985344
1124.31 82354548 86946273 77313486 64271856 67077358 73337108
1130.09 68032209 61234516 58748924 58426540 60128279 62659017
1135.88 67115710 72667259 80922632 91036854 104459799 119791431
1141.66 138437806 158003355 179510297 199947084 220025262 236320065
1147.45 249613389 257614250 258709170 252147511 248820072 243135375
1153.23 244565326 259159142 280290790 324836329 403194663 382930024
1159.02 535527836 741644523 393099948 177848297 176096709 172539412
1164.80 168272117 169507900 168558666 168039095 162523407 155499639
1170.59 143899783 131553026 116302753 101903048 86266571 72542844
1176.37 58741519 47605037 37090947 29177929 21924767 17008791
1182.16 12388896 9681729 6923779 5571951 3996220 3618331
1187.95 2817915 2759556 2130995 2370551 2038297 2368116
1193.73 2033786 2204736 1827541 2152056 1983870 2435863
1199.52 2379247 2693464 2053379 1888211 1620285 2036286
1205.30 2112328 2590664 2245821 1818651 1218285 1420251
1211.09 1179724 1385416 1152502 1324701 1107368 1289390
1216.87 1145847 1379557 1214180 1412990 1321139 1698696
1222.66 1711416 2057873 2006437 2388005 2491822 2856061
1228.44 2791418 2952587 2912810 3298612 3235591 3427114
1234.23 3468399 3969579 4208749 4819321 5241065 5930671
1240.01 6091328 6020034 5395946 4428587 3108916 2916705
1245.80 2562833 2527087 2329661 2498031 2420861 2491953
1251.59 2193921 2159731 1830980 1710410 1273328 1121914
1257.37 761725 703334 393995 361288 93159 125025
1263.16-18125 2880-172638-9195-81122 55196
1268.94-108419-12125-92662 40208-90570-62145
1274.73-197238-59500-149792-18054-78883 81
1280.51-88638 57912-50801 12548-116411 14300
1286.30-49018 81227-52539 54701 4733 85573
1292.08-9125 140386 53576 143604 76673 183314
1297.87 102805 192436 97344 206500 126737 214735
1303.65 121731 270528 219694 294994 206634 353422
1309.44 304803 412256 331721 355541 268946 446921
1315.23 425811 550031 455064 474879 327030 470731
1321.01 501627 626506 540263 640645 569321 701452
1326.80 615147 644489 576732 681745 666520 843589
1332.58 730569 770879 728910 803472 694131 788668
1338.37 784778 899640 937746 1063664 994603 1108703
1344.15 1134442 1290183 1141855 1131722 1066281 995456
1349.94 839768 784944 704983 949496 1160832 1536831
1355.72 1545352 1518861 1378284 1306273 1093554 1275961
1361.51 1433230 1412725 1335275 1552280 1587170 1611788
1367.29 1530190 1732876 1684627 1725964 1760907 1931375
1373.08 1981667 2100644 1968424 1899693 1906219 1978516
1378.87 1995222 2134498 1940544 1950473 1950890 2337867
1384.65 2393854 2105153 1706320 1678276 1522000 1439922
1390.44 1292347 1234734 1067590 1014926 720326 512810
1396.22 403959 400592 262270 260109 175521 123053
1402.01 7522 89286 44173 129367 108253 131704
1407.79 55349 84676 21145 41343-6780 60214
1413.58 196 29893-49365 43948-1214-7956
1419.36-63401-8792-26211 47135-24489 15822
1425.15-23702 5610-23880 7764-73054-10924
1430.93-50125-8207-51747 33978-79757-139292
1436.72-135171-8459-47662-36486-113133-13485
1442.51-23959-5461-118141-74926-118812-69048
1448.29-57316-21672-126474-108762-89506 19316
1454.08-53909-164419-255655-95513-78014 22874
1459.86 25377 113028 87478 132873 49903 161921
1465.65 201699 301484 294337 296310 229803 212496
1471.43 101174 160453 224409 310675 269553 395902
1477.22 424192 567983 517366 347540 219139 254738
1483.00 247949 307187 199596 150630 103689 165112
1488.79 66186 34710-26799 43982 13680 6548
1494.57-178378-221422-163024-97723-124192-53636
1500.36-80742 3550-49361-87337-273666-312565
1506.15-265119-103494-131900-45624-13996 3346
1511.93-27832 68159 2920-6173-75359-9272
1517.72 73576 119631-61661-74022 9928 128857
1523.50 85770 117624 190004 259701 231529 213913
1529.29 146125 208466 182607 133554 89553 213496
1535.07 253012 229176 64886-68419-145931-27371
1540.86-8385 49346 83166 131847 67858 117075
1546.64 127738 190299 169450 189970 154474 188245
1552.43 140761 135771 107147 113985-6726-56007
1558.21-59306-2350 97614 185196 122522 192922
1564.00 183014 191213 232779 332995 301961 341453
1569.79 409356 534352 540971 641729 631774 581811
1575.57 602720 860152 950483 1066015 1129909 1214228
1581.36 1199076 1292742 1301032 1299220 1346265 1696351
1587.14 1562412 1694964 1622672 1212006 1169176 1337071
1592.93 1351458 1326498 1252758 1186431 1070525 997825
1598.71 793468 608746 399504 301973 190156 152310
1604.50 68639 21421-47416-34316-25840 58554
1610.28-25838-44736-64948-71049-124876-210878
1616.07-242548-54151-29835-25265-49222-52757
1621.85-135789-104664-104941-62178-81132-91380
1627.64-83344-13273-63610-66016-46999-5472
1633.43-145815-268436-212877-121584-134162-73437
1639.21-53789-6741-30549-2372-46625-99319
1645.00-215641-138779-120067-78385-62553-87461
1650.78-266868-431356-352763-114874-23628-12774
1656.57-54319-40390-69377-58381-65362-103787
1662.35-143000-58492-71738-39894-40351-55530
1668.14-154613-64804-41317-48107-64185-65202
1673.92-192570-155676-68017-31689-61946-52500
1679.71-67857-61096-161153-234241-381915-232004
1685.49-60972-41618-102731-74656-63999-69714
1691.28-101513-96882-124180-235982-326653-141932
1697.07-108279-174424-341913-269219-116653-68252
1702.85-111870-70784-81032-81189-72938-43561
1708.64-68738-52895-84202-53458-78420-101882
1714.42-124377-149594-316010-258206-149431-36851
1720.21-17399-2800-23396 624-35649-13770
1725.99 3523-1757-41856-9131 22168 30684
1731.78-68962-160194-137197-1778 26311 52036
1737.56 22796-2570 33270 156821 209613 270543
1743.35 301909 374905 403002 435560 427474 513970
1749.13 536585 545987 581544 650826 650979 744113
1754.92 785606 794643 794204 849303 866356 883064
1760.71 830452 843578 837039 883949 766465 604411
1766.49 515498 550961 601675 593004 444855 356056
1772.28 412287 469102 369118 303852 214984 249603
1778.06 255146 229569 153245 144849 150217 201356
1783.85 182170 188612 194818 326241 378924 342538
1789.63 308220 329105 302215 405629 489540 508141
1795.42 470323 519727 582422 613053 585862 617495
1801.20 632256 666434 645045 665871 639429 661505
1806.99 632845 615207 584475 554909 495193 572696
1812.77 588208 498471 471763 521794 483803 528555
1818.56 548564 496829 480630 527853 507929 451511
1824.35 407110 406112 391881 385395 345049 380031
1830.13 469722 543060 546384 494232 433805 467562
1835.92 495328 538176 524344 552579 471085 396898
1841.70 393830 402263 341551 342526 393738 373402
1847.49 267918 243139 224969 193245 157414 116482
1853.27 16759-30234-86156-64187-105331-177952
1859.06-208106-190315-228364-228591-258581-226980
1864.84-202515-209359-223817-196014-189458-164152
1870.63-196171-185194-138931-80929-82481-100534
1876.41-110765-68984-59146-64983-55500-20645
1882.20-25212 425-25556-20824-47251-75883
1887.99-100863-42263-13115-43692-38451-26388
1893.77-68223-39582-48120-59400-37501 22160
1899.56 5080-25692-51064-25797-11516-12083
1905.34-60507-50856-5206 10991-2111 5363
1911.13-11690-34148-72772-57964-67344-64676
1916.91-65534-25967-22358-11743-34432-22295
1922.70 10025 18187 4694 10095 12883-5515
1928.48-34777-21570-10467 10613-21810-28475
1934.27 5022 16840-16022-30048-19070-12304
1940.05-41325-8154-8046-33072-24125-3343
1945.84-26755-32588-8738 10329 26849 44771
1951.63 22786 7238-19140 11189 12853 14470
1957.41 6174 9042 27826 30989 2345 4132
1963.20 27652 37829 53431 42293 13740 18052
1968.98-15973 28983 63552 75564 95570 67895
1974.77 10338 3223-12702 16864 1727-13092
1980.55-9341-3284 6965 22392 30233 30833
1986.34 15820 27266 44116 44513-280-1698
1992.12 24058 49223 11557-8196 25607 70377
1997.91 69365 80780 112950 115198 101106 104306
2003.69 75000 80282 121186 163438 152886 147770
2009.48 148448 158701 169971 156266 129734 155559
2015.27 152982 134377 130415 142444 141339 144024
2021.05 106219 37950 42555 55461 57302 125289
2026.84 182491 172559 110241 55069 34582 40310
2032.62 42067 64920 44473 57268 83923 90022
2038.41 69709 73382 66583 47434 27655 46802
2044.19 81864 94686 73856 60476 52424 52868
2049.98 73092 127080 116550 57858 12073 20372
2055.76 52055 40897 23863 61175 81100 40623
2061.55 3667 19332 59363 57484 33656 24517
2067.33 13966 1012-26632-12464 51670 42162
2073.12-11907-2429 24043 14474 6940-17418
2078.91-84008-80188-33710 19397 46755 67126
2084.69 28870 5761-4421-30614-53350-36511
2090.48 35125 66848-5568-8391 27814 41177
2096.26 31672-20123-19249 5789-47951-48683
2102.05-31567-47673-56495-28915-23407-5560
2107.83 20151 9375-14960-32278-36338-3488
2113.62-29089-59658-37901-18463-39253-64970
2119.40-32931-10925-37684-67085-51313 5642
2125.19 32898-14634-32285-25253-22368-17850
2130.97-30027 6945 16977-8870-348 5097
2136.76-6556 7372 30784 17759 5874 5183
2142.55 12598-17386-25207 18679 41321 19030
2148.33-49872-64103-16028-19657-51501-60515
2154.12-90570-81791-49538-69360-83537-56131
2159.90-10218-3196-887-12769-12994 22742
2165.69 99949 88691 103578 158824 197435 231214
2171.47 275192 327858 428866 520585 570806 668729
2177.26 805451 876679 905830 1010606 1150215 1253048
2183.04 1326242 1440896 1593599 1733911 1780413 1823049
2188.83 1970080 2114687 2162364 2200171 2442711 2487305
2194.61 2241305 1922150 1732077 1729289 1812821 1865175
2200.40 1913904 1851651 1669568 1523430 1376344 1151251
2206.19 988082 876722 743480 626305 566730 547272
2211.97 592767 565444 531029 578763 674529 729899
2217.76 754815 789608 884789 998241 1081244 1125638
2223.54 1255031 1425213 1631339 1792508 1969986 2126318
2229.33 2330239 2569414 2773264 2950488 3151278 3340075
2235.11 3531270 3733796 3938005 4057387 4220263 4328112
2240.90 4335930 4445206 4736029 5074375 5295635 4879202
2246.68 4936652 6784657 8710646 6295034 3421590 2846993
2252.47 2575890 2532452 2636040 2721139 2617861 2453713
2258.25 2255008 2047440 1824311 1601717 1294307 1029053
2264.04 880343 778248 647213 561932 487149 459500
2269.83 480746 486847 446984 439849 443621 464650
2275.61 472126 486616 565640 560437 447062 420937
2281.40 442111 406313 203186 130248 146916 120566
2287.18 62407 127980 210685 249720 298746 348177
2292.97 383773 419803 473918 560448 650049 729697
2298.75 844796 998229 1085036 1152560 1235888 1215299
2304.54 1154307 1265856 1633124 2101099 2068556 1471496
2310.32 1489133 2122322 2346549 2079939 1719208 1497680
2316.11 1469078 1424408 1357093 1234503 997390 993443
2321.89 1202893 1078004 886690 744414 607736 467340
2327.68 394992 365188 343890 230484 158994 103946
2333.47 69588 18587-19653-47695-65474-72105
2339.25-82785-100842-121916-144677-111095-117322
2345.04-125954-98544-126721-145315-161100-130604
2350.82-42005-26661-22465-22778 19419 67946
2356.61 92870 65221 64108 83077 101818 155955
2362.39 185164 139272 96161 107042 149015 127542
2368.18 102313 90067 149871 132811 79613 44609
2373.96 16737 17614 33623 5245-7432 34198
2379.75 56501 22180 53267 61606 31076-4713
2385.53 26480 80612 57759 25062 32307 10356
2391.32 50449 72017 59151 61494 105408 75432
2397.11 76714 86390 80746 63415 78271 50117
2402.89 47606 39812 50020 73585 72969-7569
2408.68 20751 107656 88268 22912-1077 24722
2414.46 95542 90390 60437 20627 25218 86519
2420.25 71813 47233 29898-8234-11542-10185
2426.03 45414 54720 57406 82568 73557 52156
2431.82 45907 24716 7980 4850 7357 794
2437.60-3941 28348 65518 55675 41632 59115
2443.39 94192 69265 26943 22097 6517 32928
2449.17 80569 50493 38408 37423 43126 38866
2454.96 40421 5696 20837 58648 74692 77157
2460.75 92944 78243 45198 5221 25347 44050
2466.53 38945-5345 18523 78683 72091 47953
2472.32 88274 70467 59769 8360 1032 14020
2478.10-26744-60271-11266 2613 3638 4183
2483.89 22457 3679-19332-24549 32719 53267
2489.67 34567-18753-2167-11997-25332 6443
2495.46 36787 8479-19642-40733-10382-34635
2501.24 10675 85897 108026 76623 58318 42619
2507.03 86815 106142 99812 49378-14714-43217
2512.81-29715-3635-17112 6003 87841 75073
2518.60 72029 85218 61221 25788 19579-35084
2524.39-7031 45575 12442-12031 12585 36225
2530.17 60247 68671 62091 43581 28050 9623
2535.96 60725 30654 42215 61632 28955 34333
2541.74 118444 101358 39728 25889 9536-3941
2547.53 20672-1514-8089 8984 64887 50179
2553.31 24274 9615 48182 39039 49554 18649
2559.10 6018 1471 19391 53703 69555 28361
2564.88 40281 41455 45714 49771 73117 64643
2570.67 54041 14911 19448 22172 50905 48660
2576.45 68206 38837 29531 2357 34813 40710
2582.24 590-20998 14591 7755 40260 72018
2588.03 72320 17861-15042-26017 313 9313
2593.81 41944 37757-693-7873 44181 55229
2599.60 81237 88130 37278-29611-10019 21868
2605.38 31033 6444 40234 55844 56006 83281
2611.17 79760 8476 17161 10104 12883 8749
2616.95 8834 1400 36318 76997 68940-34161
2622.74-69389-28338 8291-22372-45891-64078
2628.52-22521-26263 15660 57408 92451 74005
2634.31 43255-18137-27859-4038 46447 47093
2640.09 70392 14482-19762 17301 24983-41025
2645.88-15548 41642 46310 50643 34011-35335
2651.66-51550-22334 20155-8065-35310-15154
2657.45 26976 12045 48931 30864-22282-52455
2663.24-2078-32408-22447-11211-1006-24635
2669.02-11220-6220-7525-15115 11974 14184
2674.81 42005 27109-10556-96369-78570-23969
2680.59 64944 70232 65974 47937 1115-50792
2686.38-2021 16126 33866 5012 2228 20124
2692.16 53874-7393-40840-26670-41278-99129
2697.95-134333-188970-129158-28618 53182 45870
2703.73 76873 103104 90992 62703 107246 92877
2709.52 60547 33713 47622 10040-35175-77010
2715.30-44536-75023-15115 6436 11593 14148
2721.09 27627-13865 6835 21996 44352 38054
2726.88 18485-23712-49215-46222-24362-43861
2732.66-71531-65491-28454-10009 96603 66582
2738.45 14148 2068-14850-54157-29186-30864
2744.23-355-38870-103431-72323 5844 20996
2750.02-6533-1009 39012-7430-32658-41298
2755.80 14005-13808-66175-69023-41917-471
2761.59 74751 81244-14993-104822-101822-95018
2767.37-81023-70482-42999-58540-62799-97064
2773.16-34750 42995 88861-2239-85486-96933
2778.94-44001-45149-41453-18738-33419-110207
2784.73-132401-136507-87052-18326-86969-112197
2790.52-52229-80541-86600-120515-62839-62231
2796.30-102652-68294-17333-63973-60376-89574
2802.09-63892-83735-76536-25815-28926-30522
2807.87-67145-96154-8271-34592-64665-79626
2813.66-80396-89277-86803-62938 7489 10674
2819.44-73384-142385-71756-54762-38704-60695
2825.23-69495-105420-37150 23768-54823-180688
2831.01-131629-84781-43010-47720-25918-48558
2836.80-48819-51248-61485-59728-49884-88768
2842.58-43459-27973-33943-66685-43388-55660
2848.37-80288-117285-60597-85062-130180-75395
2854.16-27279-42197-9016-8017 7162-65324
2859.94-142547-154269-90968-62728-39937 1073
2865.73 54078-46877-69311-67812-10372-43588
2871.51-72183-120672-94153-92037-1649 24871
2877.30-32296-56497-11253-20645-9146-19299
2883.08-57222-140639-113807-91608-49799-91720
2888.87-20083-22204-105220-77310 2082-47588
2894.65-78658-62128-50609-39844 6154-47214
2900.44-8761-19201-49188-69922-44629-16840
2906.22 10088-85-44099-92624-52355-34506
2912.01 25662-44527-50246-62928-73383-43622
2917.80 85-39320-51110 11644 25620-76959
2923.58-88489-115792-133887-68825-78595-104148
2929.37-25363-44171-79834-123437-81770-56050
2935.15 9121 1978 1122-2168 27145-18977
2940.94-39317-56265-54945-35319-27728-62080
2946.72-52450-54939 73303 71866 18097-62440
2952.51-50676-32933 16195 4601-7908-80445
2958.29-101797-113035-109705-121252-42142-128349
2964.08-158365-101047-28181-68974-133959-114619
2969.86 27805 18566-64596-119584-62690-83228
2975.65-41449-9298-35734-81008-42119-98243
2981.44-145302-89895 25700-2353 25122 39501
2987.22-20029-110459-78356-29094-6915 1983
2993.01 32834-17318-32376-23256 33915 17729
2998.79 35980 21529-29451-83512-32267-70534
3004.58-65484-102368-79512-15912 32286-3818
3010.36 33200-27116-43963-845-2996-68919
3016.15-73917-66510 10291 3918 22165 44580
3021.93 83098 9998-27998-33693 35994 22233
3027.72 2783-5512 45239 38715 26671-37753
3033.50-96845-112928-15179 20848-19771-116043
3039.29-27809 7773 36680-11233 1156-57630
3045.08-45485 2160 35474 25325 2719-72276
3050.86-37543-22269 71450 80017-10300-59914
3056.65-9228-36172-54145-60570-81428-90782
3062.43-6022-104624-127781-128362-32884-8565
3068.22-6599-87248-49254-58236-122025-118973
3074.00 4068 9570-14501-55662-18848 25390
3079.79 87265 10622-5436-3825 58215 25182
3085.57-2409-29001-70504-105548 4390 41414
3091.36 23017 15352 6613-129212-100515-44632
3097.14-32507-58476-3813 25363 27186 5035
3102.93 12625 7360 13022-2783 51551-2977
3108.72-65346-73259-12770-8328 41764-10655
3114.50-29784-31423 10861-40072-53587-6135
3120.29 39896 13434 43209 19277 10150-4342
3126.07 58520-5130-35556 4058 99554 16624
3131.86-60490 5334 97225 31390-36446-84858
3137.64 9879 31806 92043 50447 40343 30054
3143.43 4978-44734-92766-79567 17357-9494
3149.21 26944 36694 18666 6639 28690-57190
3155.00 29774 9852-23664-43801-58568-97882
3160.78-55300 752 2495-51386-29651-66809
3166.57 26110 39824 42899-7939-19670-7044
3172.36 9928-80152-28868-33553-27380 35258
3178.14 57932 19350-19273-116869-85001-73038
3183.93-65622-36586 24697 23293 18780-44211
3189.71-33444-61137-97034-60364 10532-89140
3195.50-128546-94844-298-64169-86075-13458
3201.28 95596-17035-63529-62182-49253-44971
3207.07-16259-64622-4656 3010-22455-55808
3212.85-29456-87314-82658-56248-50723-84869
3218.64-36019-58342-93617-131306-70424-31072
3224.42 23651-26032-95559-204000-125383-30593
3230.21-62915-79633-23601-6559 60960 12389
3236.00-68414-95943-54506-50807 16944-96387
3241.78-110988-97055-148429-211209-58833 7862
3247.57 1110-48713-68455-104287-62084-75134
3253.35-30189-64646-60951-52676 3126-86602
3259.14-93134-31560 18197-86231-85100-74877
3264.92-55473-59081-16245-11227 47946-24443
3270.71-4871-655-6998-5226 55010-25088
3276.49-125526-79014 68895-17510-71426 7980
3282.28 100671 30754-6016-44909-29166-71252
3288.06 10785 24496 12363 19414 10353-60226
3293.85-20683 8433 15170-28152 12020 12356
3299.64-33177-126832-84537-76328-11036-23192
3305.42 18594 27299-22555-93214-39709 7544
3311.21 54685-8835 1600 65886 111300 62288
3316.99 105603 54099 23044 30835 106190 81851
3322.78 80081 63653 112245 85568 155920 198861
3328.56 142287 2371-96249-130741-55917-58840
3334.35 29534 80789 46770-102172-83217-72322
3340.13-89939-111240-57602-85853-37968-55108
3345.92-49825 2175 45086-84046-102163-79055
3351.70-39768-48055-10139-65350-57384-52167
3357.49-22905-101088-33307 22067 23617-7897
3363.28 67468-2693-100650-116330-41311-30870
3369.06-49607-58318-5797-19728 43608-84724
3374.85-91650-144046-86749 24983 105589 56322
3380.63 76507-168 54187 35011 23844-9032
3386.42-53772-64275 87245 174652 267827 158015
3392.20 26313-78778-45763 30777 96818-32821
3397.99-12256-1508-5441-33550 10186-55329
3403.77-46747-87889-57939-26415-75861-201363
3409.56-197884-178998-60145-68308-36300-53763
3415.34-36760-123729-43031-1883-120509-135134
3421.13-78060-59687-51872-60424-2931-5730
3426.92-34014-70459-87818-64323 13292-30351
3432.70 30466 25348-662-101959-53729 6695
3438.49 72582 63676 105325 57153-19306-113350
3444.27-52862-2281 7756-27534 85715 89672
3450.06 41761-79992-72206 66238 110182 18979
3455.84 57951 20561-22074-92700-74940-73607
3461.63 108253 128403 93478-13690-58747-49895
3467.41 30295-43589-64681-49931 125594 83814
3473.20-38492-94969-10095-94059-145753-82050
3478.98-15272-72654-124178-124658-12296-66168
3484.77-44967-101382-88496-50706-57484-83055
3490.56-35204-61095 29386-1604-57812-37523
3496.34-13332-102374 5533 37789-60567-132242
3502.13 19752 10436 18490-27071-88105-153604
3507.91-127329-65609 31186-35411-41054 17476
3513.70 117161-46119-172201-182657-74720-27002
3519.48 46327 16982-33039-78096-26650-29529
3525.27-13720 4371 29500-75354-118348-140947
3531.05-20794 37169 81374 13442-81842-87885
3536.84 61182 69651 32482-87202-84585 36190
3542.62 166935 84252-51791-113239-67592-77740
3548.41-7387-12214 4893-67075-65729-85901
3554.20-62484-29383 71648 77755 99761 22814
3559.98 62352 28410 68138 74990 62540-34875
3565.77-29355-42734-5872-47353-8280-12231
3571.55 35481 32711 116083 45856 77521 71012
3577.34 50932 7755 85756 56492 56208 89663
3583.12 144051 52559 87432 9732 13956-5910
3588.91 19054 15666 79960 58890 111836 107243
3594.69 86397 30291 47781 43190 71906 10027
3600.48 48017 72642 136614 83566 75789 63126
3606.26 146807 122186 105854 75433 130668 77043
3612.05 76320 102018 194854 142665 84155 18060
3617.84 93629 59709 59109 72841 83615 69994
3623.62 88489 40493 109156 42655-58283-58384
3629.41 88913 98989 96133 61244 107404 76619
3635.19 101719 70745 83737 86605 152964 106558
3640.98 80229 60857 106977 975-25314-65150
3646.76 23552 18598 46321 48710 118446 89041
3652.55 79545 52701-40061-84233 29843 41937
3658.33 139451 143109 142796 55877 38981 58016
3664.12 124574 42865 60746 55875 50010-26306
3669.90-26843 30221 8012-134294-117873-116652
3675.69 11206 4897 65902 111893 143089 70268
3681.48 23797 31706 110864 71102 126687 92012
3687.26-76161-100870 14684 9967 111585 52649
3693.05 40856 47003 102011 96290 176015 103685
3698.83 88503-23975-72612-24191 83755 69185
3704.62 106081 78126 120649 111223 94160-29434
3710.40-8499-79080-3269-40590 5589 80595
3716.19 175066 97003 100398 83577 46755 4552
3721.97 89824 94435 141184 71561 131515 110986
3727.76 75042 33794 81915 25808 75566 77684
3733.54 39940-49315-34639-15757 70495 10710
3739.33 59119 48108 73748-31601-157536-133090
3745.12 106467 70683 55740-93523-82678-37975
3750.90-109401-86737 69917 78265 85139 3236
3756.69 53983 62748 107691 80618 88741 66948
3762.47 138441 33392-3084-31798 75322 164689
3768.26 203869 87618 142536 152880 227053 140988
3774.04 49492-17386 111543 110948 98063 37751
3779.83 103315 117088 86106-21893 6541 5136
3785.61 100785 49661 93585 68206 107866 84360
3791.40 185782 155658 125360 120881 210330 151125
3797.18 145275 22247 12306-71922 61575 133913
3802.97 81204 91252 117567-62006-26430-9503
3808.76 31355 83620 133709 34543 60120 21652
3814.54-100476-152981 62569 74620 25128-49208
3820.33 53969 120601 146704 24877 55115 59992
3826.11 136215 93888 85237 35605 19370-23903
3831.90 66212-26672-62947-35929 37277-156295
3837.68-51716 53946 84132 75938 93926 19068
3843.47 138114 70514 49523-23403-15892 10490
3849.25 75348-14294-60809-146590-266495-176791
3855.04 93482 139897 180934 139982 141755 6191
3860.82 32522 67113 77214 23698 83326 46200
3866.61 25240-131483-135003-77215 50627 58934
3872.40 50521-17762 74424 62457 78937 23456
3878.18-6942-76275 18769 60377 93236-33538
3883.97 905 18793 122054 112534 113344-33444
3889.75-63378-103724 27565 3180-14364-22543
3895.54 128006 105882 27156-23544 98355 4349
3901.32 15435 17572-42005-95965 14765 53628
3907.11 92877 43282 101678 67480 116268 49398
3912.89 82485 67033 60779 2643 79225-1396
3918.68-51880-35627 46732-19607 721 4688
3924.46 60240 34399 161010 165196 127275 30523
3930.25 56995-12495 46848 48293 152777 150451
3936.04 155064 98364 118431 107871 133170 35094
3941.82 88903 96187 131842 39508 55670 12472
3947.61 60738 59224 125789 72057 45436 22011
3953.39 106479 83947 82152 56200 74883 17352
3959.18 59206 101232 137724 65820 45207-67377
3964.96-10452 60232 140325 55450 56774 26515
3970.75 73707 31462-17168-20344
##END=
