##TITLE=Dichlorodifluoromethane
##JCAMP-DX=4.24
##DATA TYPE=INFRARED SPECTRUM
##CLASS=IUPAC A
##ORIGIN=NIST, Analytical Chemistry Division, 301-975-3108
##OWNER=COPYRIGHT (C) 2001 by the U.S. Secretary of Commerce
##DATE=01/06/01
##$SPECTRA VERSION=1.10
##$UNCERTAINTY IN Y=2.1 % relative (B=1.11E-04,C=1.83E-9,D=7.56E-14)
##CAS NAME=Dichlorodifluoromethane
##CAS REGISTRY NO=75-71-8
##MOLFORM=C Cl2 F2
##MP=-158 C
##BP=-29.8 C
##$NIST SOURCE=QUANT-IR
##SPECTROMETER/DATA SYSTEM=IFS66V (Bruker)
##INSTRUMENT PARAMETERS=KBr Beam Splitter; MCT Detector; Multipass cell
##STATE=gas
##SAMPLE DESCRIPTION=Dichlorodifluoromethane Primary Gas Standard
##PRESSURE=101.3 Pa
##TEMPERATURE=23 C
##SAMPLING PROCEDURE=1 L/min Flow
##RESOLUTION=1.9290
##DATA PROCESSING=Triangular Apodization
##XUNITS=cm-1
##YUNITS=(micromol/mol)-1m-1 (base 10)
##XFACTOR=1.0
##YFACTOR=3.6379E-12
##DELTAX=0.9645
##FIRSTX=575.652
##LASTX=3974.605
##FIRSTY=-1.17E-06
##MAXX=3973.64
##MINX=575.65
##MAXY=.0028065
##MINY=-1.51E-06
##NPOINTS=3526
##XYDATA=(X++(Y..Y))
575.65-322654 20718-227060-241342-134927 74231
580.47 338117-12884-87707-206800-211822-348536
586.26-374703 20824 333604 377250-95848-415540
592.04-453461-40949-217812-329747 133144 227240
597.83 75108 128329 44770-136672-86926-70393
603.62 78156-35088-369527-383863-153169 54547
609.40 119457 67457 55735 105143-47784-60779
615.19-13053-236138-401406-237288-155177-91269
620.97 9466 66140 150757-114390-232069-51350
626.76-28677 16814 151622 222542 77509-5206
632.54 120038 290784 199467 166395 290973 289035
638.33 445702 497951 444993 709884 1160103 1261878
644.11 1413094 1889470 2276557 2750827 3401184 4182992
649.90 5024579 5693874 6554111 7559954 8537875 9520098
655.68 10415782 11115015 11764423 12366677 13021396 14209333
661.47 15860238 17915840 19674824 19760303 17919904 16054825
667.25 17243913 20420748 20784607 18394759 16248456 15108154
673.04 14847544 15091003 15109355 14762695 14088561 13066498
678.83 11673778 10097663 8596811 7208602 5868642 4773167
684.61 3884317 2985598 2327543 1842696 1402036 1065320
690.40 858282 700055 541535 383578 356547 249081
696.18 179124 114636 140504 295583 284742 121341
701.97 96726 142097 206730 313635 305117 277310
707.75 310547 334999 211801 208242 264903 309237
713.54 394979 461280 340909 209744 258083 397905
719.32 513921 486879 398589 335104 289223 348295
725.11 403033 324351 296638 332529 286823 359977
730.89 428740 412612 327222 166829 127949 135808
736.68 162507 194508 213744 296560 357570 245467
742.47 146183 235017 337019 362958 373270 422047
748.25 499586 506111 476072 466418 529582 593065
754.04 480418 445908 403702 348571 379537 396016
759.82 391990 426189 406991 393354 330324 339281
765.61 395156 321671 307942 291750 191092 117037
771.39 124640 110971 42551 101361 107050 24122
777.18 48391 175283 243116 119715 67580 18397
782.96 90309 235586 171194 142028-6554-26351
788.75-34255-70434 37385-19115-54996-3161
794.53-25458 29316 68252 96273 64407 8357
800.32 61902 116712 107953-7929-8757 49257
806.11-42405 8001 127928 41957 38262 71731
811.89 41298 83162 134587 94222 68117 302364
817.68 303593 208153 278644 299157 405443 437582
823.46 449594 555647 701209 971150 1055677 1185529
829.25 1232622 1224356 1417826 1385379 1293633 1367661
835.03 1430040 1634977 1815615 2181213 2724522 2801005
840.82 2382376 2171936 2295149 2553744 2800617 3121870
846.60 3463817 3882184 4336715 4710708 5196304 5891806
852.39 6588679 7512620 8563254 9756084 11091999 12676390
858.17 14375955 16375831 18855745 21415518 24227029 27613592
863.96 31201967 35000721 39201647 44026868 49167734 54362180
869.75 59851099 66069335 72259045 78518304 85365846 93072635
875.53 101507139 107527985 109251273 109208993 112196778 120230044
881.32 131160559 137929113 128590642 113767173 114840759 127847174
887.10 147133363 148676347 130187350 130445561 128674473 113325388
892.89 104447000 99956626 95578116 91171713 87081808 84450742
898.67 83147982 84092605 88448443 97000798 109324793 126081935
904.46 146019176 170885348 200906162 236785182 276327669 318055639
910.24 356568482 389480605 413686350 428538476 432057530 427617891
916.03 425454363 434422610 479179935 541486376 661288613 771470549
921.81 730410876 515287494 406218720 451507693 479348742 510098325
927.60 535329178 542026590 519671055 474504243 408731868 335205022
933.39 260531105 193874004 137919805 95349159 64080732 43161280
939.17 28900736 20009652 14048196 10421853 7823711 6265049
944.96 5000489 4351634 3719839 3376066 2939603 2762560
950.74 2466476 2254507 2044995 1973685 1714845 1642809
956.53 1595587 1621508 1439649 1314104 1142623 1161155
962.31 1083919 999274 920203 963230 889662 831468
968.10 766265 735210 719808 670672 534266 583273
973.88 643174 609312 537265 567235 523835 547739
979.67 502294 442995 429581 449412 461479 520343
985.45 491199 504100 523947 456396 378349 356454
991.24 316094 319166 293937 278740 278658 321979
997.03 329182 289198 266085 307713 265187 229116
1002.81 253785 291830 298448 257511 232626 245273
1008.60 243463 224862 189073 204956 184208 203580
1014.38 247531 245030 251096 240896 289050 315806
1020.17 320686 296515 262850 262834 246636 334530
1025.95 419645 460276 489939 477339 436674 449160
1031.74 552599 539596 484829 535638 542783 541843
1037.52 593468 581336 612878 727394 726467 720670
1043.31 854233 954322 991320 1020401 1094884 1119669
1049.09 1266595 1417531 1532328 1782070 2006789 2222961
1054.88 2505269 2849662 3271636 3639803 4163786 4715277
1060.67 5247279 5855945 6542214 7341115 8230152 9314759
1066.45 10588131 12109519 14146823 16435586 19059236 22170719
1072.24 26029675 31548500 37884201 43137131 48919521 57453327
1078.02 68131434 80439852 94475437 110278918 127809856 147147558
1083.81 168023817 190189333 213194769 236446784 259495189 282018386
1089.59 302617317 320550532 336619026 352675373 369038579 387654082
1095.38 409365031 433114269 444277318 453302630 450210565 467677012
1101.16 529687152 522343366 450918503 389061101 365501426 365274282
1106.95 362236551 359906751 353308115 338940223 317506154 290844968
1112.73 260725361 229434974 199149290 171847524 148026711 126784614
1118.52 109608857 99900304 96526441 92002158 83407244 78506388
1124.31 84532087 88472232 79534909 67337473 69910621 75583430
1130.09 70064854 64240159 62269713 61997747 63739764 66286574
1135.88 70755619 76297923 84422490 94296441 107284433 121975438
1141.66 139827290 158347572 178829450 198039123 217185152 232523141
1147.45 245343437 253126150 255424166 249556925 248702590 243801313
1153.23 247044304 260491158 284278828 314057493 407562244 364417669
1159.02 498538295 706047105 369997898 182996394 198651617 173119017
1164.80 176369492 168678868 171360834 165717322 162888195 152955674
1170.59 143862063 129899080 116956366 101565367 87910172 73427110
1176.37 61229045 49340866 40038542 31306466 24942625 19174033
1182.16 15213251 11666179 9440924 7300624 6184727 5065296
1187.95 4680230 3965890 3741568 3391798 3428892 3216216
1193.73 3257159 2953406 2944421 2822036 2979646 2990856
1199.52 3225629 3163986 2871146 2393396 2436206 2481011
1205.30 2784193 2907084 2859878 2180719 1888462 1812822
1211.09 1799246 1729272 1736425 1645257 1668378 1593633
1216.87 1678081 1663372 1724580 1691899 1811506 1951038
1222.66 2156618 2281191 2426006 2584988 2868276 3012659
1228.44 3148073 3118694 3261861 3451677 3568647 3584832
1234.23 3798907 4103055 4479106 4875957 5402379 5853823
1240.01 6147177 5887265 5503557 4479157 3401686 3100848
1245.80 2882707 2668861 2621934 2597362 2657121 2557412
1251.59 2412390 2228644 2052548 1792441 1515913 1231718
1257.37 1020797 823436 654451 487552 357611 246615
1263.16 238202 121900 76307 101324 142439 147879
1268.94 109205 79414 116560 118341 111665 23783
1274.73 8711 26862 45266 54798 108667 68941
1280.51 92322 121640 123456 79128 63463 80347
1286.30 119139 140061 114536 111885 169602 140786
1292.08 150020 193923 206760 193146 228823 229509
1297.87 250311 239517 244327 252650 271334 262502
1303.65 265389 312529 356287 335863 343484 392436
1309.44 432370 441464 462244 396447 404101 483493
1315.23 542875 571307 572364 511840 461101 508851
1321.01 620403 648164 652334 668248 679193 723392
1326.80 726580 671874 696806 712291 769270 862516
1332.58 829901 794227 834742 831803 802905 822247
1338.37 892935 921532 1030206 1078922 1082702 1124529
1344.15 1205743 1291716 1213106 1140279 1156009 1017148
1349.94 953165 844338 834645 999035 1236395 1519991
1355.72 1586472 1501841 1449295 1336595 1195446 1300577
1361.51 1515744 1422841 1418180 1562345 1652753 1619798
1367.29 1600302 1741434 1752225 1731774 1830044 1923387
1373.08 2021155 2078798 2021337 1894877 1977235 1969374
1378.87 2039873 2118358 1992025 1956857 1995296 2278722
1384.65 2390438 2056701 1756884 1680034 1579580 1435583
1390.44 1352327 1234714 1119953 1020550 796946 545983
1396.22 498396 434345 346428 289948 261268 158658
1402.01 97397 126217 122962 149671 178161 146731
1407.79 126505 103132 94354 61117 64529 76352
1413.58 66782 49251 18072 58411 63930 6561
1419.36 7999 7912 35509 58761 35008 27671
1425.15 39302 14700 36809 19439-11440 1977
1430.93 10070 2155 2068 39473-16392-121342
1436.72-66581-1299 5628-25915-53000-6429
1442.51 26641 129-60151-59819-57156-60993
1448.29-4609-15307-67325-92978-35535 16906
1454.08 245-143828-181313-72899-21394 27231
1459.86 76335 111428 134617 139449 103664 168867
1465.65 244807 289893 329838 286953 272778 221372
1471.43 160274 173436 273761 312432 309047 395013
1477.22 446088 539123 538678 339031 270629 262552
1483.00 284674 302021 239277 155384 148799 166450
1488.79 110045 43850 23253 47264 49765 12031
1494.57-119049-200252-101467-90266-78176-47814
1500.36-42242-1479-15240-82661-208987-283947
1506.15-202847-92271-88740-45946 27297 1387
1511.93 9508 67323 38692 1488-24372-4809
1517.72 104457 118694-16240-53604 54113 131883
1523.50 120584 120224 219916 249597 254343 214919
1529.29 176988 209136 214718 141157 127199 210343
1535.07 269018 216573 103260-43936-87751-5657
1540.86 34310 53645 117315 133965 103253 123457
1546.64 160768 188359 198193 189610 184004 188955
1552.43 172045 139196 137826 122406 37258-31375
1558.21-1188 14429 134451 191787 153409 202914
1564.00 223643 201032 271930 338873 340848 350564
1569.79 446097 533939 566577 633588 668975 592416
1575.57 647226 858403 968565 1041000 1144439 1186811
1581.36 1215498 1262809 1325024 1282034 1346854 1664682
1587.14 1529089 1633636 1626363 1189895 1204993 1321132
1592.93 1343445 1292856 1248391 1158276 1068346 975679
1598.71 806026 611109 440124 321720 236632 170330
1604.50 115544 41968 3503-14070 9558 65820
1610.28 4594-36469-28001-66872-81214-186740
1616.07-197671-43762-7526-29941-22227-47777
1621.85-102424-93703-74030-59768-50918-86020
1627.64-57300-11731-40743-63407-29898-8110
1633.43-112574-249872-169797-111800-108845-70417
1639.21-33102-11865-12894-10375-26472-91702
1645.00-182356-126383-95469-83904-50260-90163
1650.78-223896-394868-302904-108095-16009-21433
1656.57-38931-39984-48422-60399-40532-98459
1662.35-115155-54035-50362-45570-19935-52691
1668.14-127070-62239-19389-56050-44434-60437
1673.92-160247-147187-43007-40523-42949-58226
1679.71-50670-66649-137605-210804-335170-217821
1685.49-41396-53234-85097-76013-46711-74001
1691.28-81976-103431-98439-220820-291448-136146
1697.07-95302-167737-299459-254122-91119-75363
1702.85-95084-70662-60506-82082-52309-45447
1708.64-50801-52433-64765-56140-56636-104910
1714.42-101925-135774-274880-234929-118886-42179
1720.21-3004-7328-6574 2273-15557-12301
1725.99 22278 1037-19964-5345 35818 29765
1731.78-40234-137754-101375 9281 42406 54993
1737.56 51315 12976 64631 164089 226604 269602
1743.35 317281 369927 415117 433302 441315 509370
1749.13 550091 539974 595203 646127 658398 731757
1754.92 788672 778703 799387 832204 864396 864277
1760.71 831641 829197 830567 859907 768270 604588
1766.49 542535 552065 607121 583788 465247 363593
1772.28 431841 463041 380821 313006 243052 257135
1778.06 277131 233969 183646 158990 179580 209508
1783.85 208563 202251 219770 324330 390999 337917
1789.63 329726 340429 325475 407270 499750 501864
1795.42 485348 516687 591342 603520 594834 611362
1801.20 639561 656535 650533 657758 645490 652215
1806.99 640511 607349 596019 558306 509224 568749
1812.77 598542 496598 488055 527891 493049 525798
1818.56 557514 494668 490751 524662 513752 452462
1824.35 422752 412712 406582 395351 366447 387909
1830.13 478812 530319 546564 490488 447273 469124
1835.92 501526 529555 520972 541121 476824 395227
1841.70 405701 401887 352813 339073 396510 365325
1847.49 274709 244168 236171 189165 166819 117274
1853.27 33336-17995-65487-57552-84002-167627
1859.06-181646-177463-206293-213754-233654-216896
1864.84-181792-201986-202928-186756-173453-156237
1870.63-176259-175290-123249-81065-72071-96075
1876.41-95729-65678-46311-63087-42588-19747
1882.20-17583-63-17222-20558-33961-67637
1887.99-83816-39275-1637-44877-26446-21900
1893.77-56997-34261-33356-54534-25915 20266
1899.56 11905-22919-36630-22400-2749-8797
1905.34-45907-45326 5907 9387 5130 4845
1911.13-2552-29963-58299-51035-52300-58020
1916.91-51728-22286-13778-8561-22416-18976
1922.70 18953 18181 12423 11117 20943-1731
1928.48-22811-15009-2538 13841-11210-24141
1934.27 13873 17462-6421-25007-8559-6247
1940.05-32282-3494 1925-28857-13603 1511
1945.84-15952-26150 3130 12259 32656 44323
1951.63 29189 12814-8408 16622 21125 17697
1957.41 16630 12465 35225 34549 11979 10006
1963.20 37547 37687 59791 43931 21926 27352
1968.98-4510 34154 70839 69731 98995 66561
1974.77 19722 12092-2290 22205 11859-7591
1980.55 3610 2150 16914 25483 37422 34391
1986.34 25091 30519 50323 47602 10814 5982
1992.12 32836 52591 22997 951 37266 74190
1997.91 76156 81927 118449 114768 106000 109201
2003.69 85808 86809 127836 162464 155634 148749
2009.48 154619 157870 173850 158069 134987 158042
2015.27 157658 136516 136533 144657 142714 143737
2021.05 114632 46407 57795 67325 66140 125879
2026.84 178662 165364 114771 61812 48429 48815
2032.62 51218 71015 53667 61155 90465 90877
2038.41 75537 76327 74094 53768 39279 52580
2044.19 87160 94988 79109 65261 62312 59442
2049.98 76942 124650 116231 62027 24149 28302
2055.76 59856 46928 30394 64290 83520 45278
2061.55 13831 26297 63654 58963 37933 30306
2067.33 20397 10132-14772-6720 55607 44270
2073.12-5195 4164 30644 14876 12388-9065
2078.91-68424-65953-21122 21022 46871 65112
2084.69 32126 8997 5525-22271-37549-29344
2090.48 38066 67535-882-1293 34204 38775
2096.26 38235-15887-11723 12976-39978-40743
2102.05-20376-40562-45831-20810-15868-3252
2107.83 24482 10423-7603-23927-29704 2473
2113.62-21420-51357-29149-12648-30563-55893
2119.40-25352-5142-30084-54214-41706 9219
2125.19 35650-10551-22505-15901-14700-7676
2130.97-22859 13408 23330-3285 7876 13749
2136.76 761 14583 36123 23613 13230 12214
2142.55 21305-6694-15198 25587 42856 25978
2148.33-36913-51077-4515-11320-41856-43722
2154.12-75026-65892-35149-52580-66374-37750
2159.90 1945 10935 12373 9375 6768 41993
2165.69 115962 107025 121262 181123 213974 252394
2171.47 296743 348302 444455 536193 583790 678617
2177.26 810637 882255 913705 1018096 1151218 1251419
2183.04 1323908 1436717 1576996 1716306 1761381 1809299
2188.83 1943477 2086265 2128929 2156024 2377870 2419349
2194.61 2190727 1919361 1742380 1741366 1804869 1841338
2200.40 1877214 1822641 1643705 1514385 1376095 1164965
2206.19 1009018 909758 775943 671869 611238 589939
2211.97 628938 607568 570828 623089 705508 763879
2217.76 786050 829863 914716 1031509 1108970 1163980
2223.54 1286597 1455738 1646475 1808464 1977801 2139364
2229.33 2327418 2567991 2755171 2937751 3125695 3320148
2235.11 3493660 3699507 3887540 4014248 4158428 4295743
2240.90 4285037 4427477 4660747 4994071 5198983 4903625
2246.68 4848264 6439621 8272445 5995142 3403872 3043760
2252.47 2666627 2600051 2661076 2708467 2599481 2432512
2258.25 2248096 2039777 1827321 1612492 1325964 1068485
2264.04 929100 821002 692402 606989 535422 498017
2269.83 516562 514426 476088 467285 470104 484689
2275.61 495145 494767 573531 562731 460329 430901
2281.40 451091 417304 230883 161911 185129 153382
2287.18 101597 160944 240278 269440 321640 367270
2292.97 405300 441595 495869 578223 666440 742013
2298.75 849263 996752 1077053 1140695 1227962 1220856
2304.54 1172994 1283572 1594055 2022592 2021011 1471529
2310.32 1491842 2077378 2245394 2008914 1693494 1494589
2316.11 1463891 1412969 1335577 1242692 1004451 995921
2321.89 1185534 1054409 871743 755132 614080 490969
2327.68 409281 382008 352045 247086 174707 126691
2333.47 85426 40988-2132-24445-49225-52253
2339.25-68927-82574-103898-127140-95131-101843
2345.04-115683-82535-115975-124297-141854-113960
2350.82-32743-19297-15244-10378 24058 72086
2356.61 92842 71331 69207 93333 101954 156138
2362.39 179186 142621 99650 114565 147952 131581
2368.18 105857 95149 147535 133920 79077 56995
2373.96 23822 28290 39486 17500-1282 43286
2379.75 59644 27675 55371 67027 35326 8087
2385.53 28905 86880 56139 33363 39697 20380
2391.32 52295 80204 58682 67745 104843 80501
2397.11 75348 93895 79206 69786 79254 57644
2402.89 50279 50351 50012 77124 76512 3492
2408.68 24013 111331 83413 32237 8913 31935
2414.46 95016 88800 62654 30657 27641 91227
2420.25 68220 50886 35057 1427-791-1560
2426.03 49202 58445 55305 85110 71774 54784
2431.82 48819 30785 13611 12812 13078 10244
2437.60 2324 33617 66071 58527 44364 60986
2443.39 92412 71233 28950 33695 11747 38040
2449.17 80706 52885 40163 44851 43880 44234
2454.96 43920 15401 24441 65299 71769 79074
2460.75 88476 80857 46993 15270 28405 49781
2466.53 41173 5924 19436 84816 67881 50989
2472.32 85932 70561 58349 16977 982 24647
2478.10-22631-47509-6665 9741 2921 10830
2483.89 20710 11963-15571-14124 30324 54868
2489.67 32308-11119 880-437-24388 14540
2495.46 32902 14786-16037-29339-2905-22256
2501.24 10961 88612 98431 78550 59376 48390
2507.03 84137 103642 92606 53925-8735-28217
2512.81-23394 8536-11850 11365 86643 74051
2518.60 66299 87970 57868 30178 26456-24487
2524.39-3886 52680 12463-2163 16955 41473
2530.17 56892 71503 58042 50267 30905 16114
2535.96 63029 36191 39767 70745 29639 38777
2541.74 112705 100764 35617 36789 12055 5031
2547.53 22739 8700-5015 17353 60268 55164
2553.31 23137 19030 47032 43419 46883 27425
2559.10 7499 14467 18124 59022 66022 34254
2564.88 40234 49862 43336 56431 67860 68999
2570.67 51393 25281 20700 32076 47911 53588
2576.45 63270 44889 29755 11896 31596 48902
2582.24 266-9283 17944 15582 36452 73508
2588.03 65289 24840-10958-13487 3610 15573
2593.81 38195 44344 1053 2096 45054 57288
2599.60 72696 89148 36259-17295-5089 29738
2605.38 31207 13501 39496 62143 48823 84943
2611.17 75606 13957 19978 18910 12111 17790
2616.95 9583 10552 31279 75351 62587-23390
2622.74-63224-15990 4959-13964-42280-50614
2628.52-18348-15755 12848 60352 80629 74355
2634.31 39303-5206-23547 6630 43182 46865
2640.09 65008 22410-20125 25193 25993-31594
2645.88-12887 47610 37803 51229 31898-25093
2651.66-45576-13303 17220 387-34674-5000
2657.45 24530 15023 40832 37246-23626-40477
2663.24-818-23255-24086-1870-4184-15096
2669.02-13492 3479-10041-5489 8921 19591
2674.81 33094 31291-10573-77499-69988-12879
2680.59 55897 70161 53294 54142 327-37346
2686.38-854 22023 27937 13347-937 23924
2692.16 46834-1008-43611-16343-43920-85652
2697.95-121599-163247-118907-18699 44995 47397
2703.73 66170 105224 82046 65884 98299 95330
2709.52 52706 41113 40484 19718-34798-60970
2715.30-38662-61772-16803 15442 3822 20915
2721.09 23975-5705 5474 27609 36510 40435
2726.88 13637-14022-46936-35677-25567-32474
2732.66-69084-50521-25300-8455 86376 65077
2738.45 5454 11805-15502-44093-26550-26212
2744.23-3969-27679-97938-58631 2207 24046
2750.02-11022 2695 34350-3311-30481-34653
2755.80 10801-7669-64232-54296-38968 1190
2761.59 60673 75755-19336-91159-93563-81552
2767.37-79717-61552-45578-50987-59750-83452
2773.16-36915 39534 72749 337-82153-82763
2778.94-43070-39258-46904-16938-36175-101708
2784.73-122289-122139-91060-11707-90952-103478
2790.52-51295-76344-83520-110869-65162-51139
2796.30-106273-59085-22460-60762-59520-81806
2802.09-62617-73047-79590-17843-38645-23818
2807.87-65343-90056-9697-32415-67501-68243
2813.66-80549-76648-85380-56075-4405 12433
2819.44-74714-127162-68998-48389-45653-52673
2825.23-69048-92943-47403 25667-59581-162508
2831.01-122964-73609-49029-42817-31863-41498
2836.80-53955-40767-66016-50611-50662-79513
2842.58-46874-22124-40109-58452-48187-47589
2848.37-79788-107277-61194-71641-130571-61990
2854.16-32193-38700-15369-8301-2873-54558
2859.94-137370-132509-90184-50176-48779 2844
2865.73 41506-39699-70583-54913-19807-34760
2871.51-75176-102850-90050-79874-12511 30001
2877.30-41446-45057-16333-14728-20228-12393
2883.08-60239-122705-109975-79608-50903-84835
2888.87-28033-11144-108820-65566-3414-41091
2894.65-81007-47126-54482-33634 2482-43079
2900.44-13831-11203-52529-55681-47196-9596
2906.22-1387 6176-47231-77441-51562-30197
2912.01 18781-39243-52617-47919-75318-35190
2917.80-5550-30939-56542 13493 18005-73182
2923.58-84022-98076-134798-54377-80359-96312
2929.37-29420-38658-80918-105968-79700-46527
2935.15 50 7230-7567 3030 18572-11896
2940.94-42954-41036-59645-23096-33779-48181
2946.72-50544-45943 59328 70695 6298-46066
2952.51-52273-21206 3896 8587-18203-66261
2958.29-104267-93877-110307-111304-45838-113156
2964.08-157190-85693-39978-56266-132215-100818
2969.86 14820 19853-70999-103348-61119-71586
2975.65-50531-1167-44067-71600-45000-80064
2981.44-140983-75120 19127-1493 11469 43365
2987.22-24855-92600-75265-16335-15139 7005
2993.01 24401-7843-34485-12221 25892 22579
2998.79 22256 30231-34829-69223-33208-58723
3004.58-66218-81539-82436-4684 21519-1546
3010.36 26073-15491-50694 11033-11184-53703
3016.15-70625-51718 4972 12891 12092 49008
3021.93 69569 19257-29264-19466 28312 30602
3027.72-3710 5124 35000 42371 15023-22129
3033.50-93337-91405-23551 27882-25542-97625
3039.29-29875 15997 23303-3154-4127-40382
3045.08-50041 15280 20542 31705-2448-56916
3050.86-34671-13290 54561 83294-20132-45826
3056.65-13520-24657-62563-42024-85629-79150
3062.43-12425-90149-125629-106315-43165-2216
3068.22-17360-74523-56360-39178-122207-99482
3074.00-4030 15301-23191-37873-24551 31452
3079.79 72994 18259-10105 6807 46464 32035
3085.57-12727-12647-67514-87615-1394 47228
3091.36 6846 20289 4061-111612-96040-28825
3097.14-37126-45725-9651 32079 16833 14321
3102.93 5556 17325 7427 3317 41557 8249
3108.72-66813-53339-16024-1761 31913-457
3114.50-33958-18802 4980-24375-56809 8050
3120.29 30245 20439 33672 30137 4088 5317
3126.07 50230 8543-37954 13873 86153 29101
3131.86-64022 19742 81306 38530-36427-63884
3137.64 8506 36763 78080 55721 28044 40572
3143.43-4648-24806-89657-61939 14066-1771
3149.21 15026 48323 5062 17275 24632-47920
3155.00 23098 19405-34350-26606-60559-77111
3160.78-61068 12433-8777-38537-29271-53315
3166.57 17325 45331 27921 6179-28295 4152
3172.36 5736-68294-28935-17848-37295 43621
3178.14 40683 22519-21055-100309-81288-55250
3183.93-69361-25108 13046 25415 9444-35093
3189.71-38825-43088-100685-48995 1530-74865
3195.50-126564-78390-8957-48737-90617-5798
3201.28 79019-11488-68710-41713-56619-32522
3207.07-21387-53997-14006 11614-32952-44769
3212.85-33881-72532-87223-42000-57245-73889
3218.64-43528-46828-95750-111630-73670-25409
3224.42 6927-21822-92699-179665-124423-16540
3230.21-72806-65628-28229-4540 43639 19454
3236.00-75775-75026-59046-45291 6911-84103
3241.78-117986-74653-145572-186936-63926 12788
3247.57-18797-35664-74504-86160-66792-61959
3253.35-39946-49123-69240-41152-7063-69231
3259.14-99093-18934 5710-72481-88052-54336
3264.92-63079-42090-24747-3726 37498-14715
3270.71-13614 14184-16707 2801 41197-8042
3276.49-123089-62370 59764-6143-75926 20940
3282.28 82916 35456-13330-28214-28826-56249
3288.06 3832 34815-1985 30013 4023-44954
3293.85-24991 19253 5565-16435 276 22141
3299.64-38623-105200-80472-59996-17244-12177
3305.42 4251 37816-28410-71398-40171 17932
3311.21 44813 6462-5353 77271 97124 66892
3316.99 94387 67669 17498 46580 94761 90885
3322.78 70784 74930 104470 92607 134815 195266
3328.56 119215 19148-89651-102526-51383-43389
3334.35 13722 82111 32590-85329-84059-51257
3340.13-95120-91910-60371-72018-45201-37438
3345.92-61316 9848 31383-69409-103149-57518
3351.70-49174-35868-20131-49272-64686-36894
3357.49-27790-82682-41210 34122 9280-1888
3363.28 52156 9415-103089-90730-48718-14440
3369.06-60301-38955-16715-12107 31457-68761
3374.85-90631-109371-93673 41490 81771 61579
3380.63 64468 12653 42508 49599 8973 15572
3386.42-53277-38186 76339 168191 232113 158093
3392.20 16996-46195-48643 42890 81940-20513
3397.99-20415 16849-18520-19414 255-42295
3403.77-52712-68367-72085-13438-85595-173739
3409.56-189033-155445-67299-58141-48572-44990
3415.34-39682-111134-52520 10843-126665-113369
3421.13-78158-49869-54692-51635-11223 1220
3426.92-42791-50747-89088-48715 7068-21956
3432.70 17624 33765-7839-78357-54704 21764
3438.49 56184 67466 84675 65283-23472-86882
3444.27-54313 14485 472-15916 71610 91238
3450.06 31448-52507-75930 79724 91039 24889
3455.84 45521 34489-30372-64667-70509-54821
3461.63 89303 127630 69074 7865-63982-28815
3467.41 18487-24453-66185-35475 102250 88104
3473.20-50130-75758-15803-73127-148734-61147
3478.98-30069-55743-126124-105788-19409-58240
3484.77-51933-80943-97502-30751-67806-66045
3490.56-38809-51058 15550 12301-70852-19435
3496.34-18148-86997-8352 50728-68356-111295
3502.13 13326 15385-267-11355-93306-122936
3507.91-126472-50024 17444-21556-50843 21945
3513.70 95233-32887-166377-148149-76061-17512
3519.48 27781 25338-40920-59107-32051-14270
3525.27-25884 13056 16544-58028-112070-114801
3531.05-26350 41872 59149 28150-81881-66670
3536.84 49997 70253 22384-61330-83121 45105
3542.62 139315 87042-58129-85280-65512-59528
3548.41-16395-1199-6148-47805-69243-58239
3554.20-66488-9387 54880 84499 83172 36083
3559.98 52198 45177 50385 87362 46867-13175
3565.77-34148-19202-13819-24076-16642 10428
3571.55 23742 46412 100995 59359 61212 89977
3577.34 39008 28217 73965 76359 40539 104844
3583.12 126154 63120 77363 30401 6455 20083
3588.91 11398 35436 69671 72302 95172 119359
3594.69 72492 50615 39979 60658 63775 30930
3600.48 41369 87842 120470 98827 67372 80743
3606.26 131637 134994 93369 91990 119536 95803
3612.05 67878 116028 174102 151314 76118 37629
3617.84 88062 76586 48383 91898 70641 84342
3623.62 80560 51183 96384 63286-56715-29826
3629.41 79992 108513 82155 76769 96505 90828
3635.19 89807 89143 73081 100759 134847 119994
3640.98 66246 76064 93883 20420-24975-37912
3646.76 18297 37211 36290 62223 102829 98875
3652.55 61151 74405-40873-55028 30905 53837
3658.33 121584 147884 123807 74781 31401 73413
3664.12 112234 54617 50244 69675 39024-3024
3669.90-37380 47103-1249-107249-107031-90511
3675.69 7411 20551 50160 119940 121426 85411
3681.48 17804 48770 102091 76682 105488 111238
3687.26-79512-66522 15816 21087 98245 68803
3693.05 29025 70100 87200 106092 155562 110909
3698.83 75080 7119-72534 5603 70541 82595
3704.62 89450 94668 98119 124676 76819-5750
3710.40-9573-50803-7098-10071-5521 96627
3716.19 151779 108157 82268 105754 36599 30383
3721.97 79347 107496 125978 85714 113925 127887
3727.76 60268 54613 73038 43692 59620 93957
3733.54 26288-20241-37686 6004 58234 25877
3739.33 44009 61316 51419 280-153130-101896
3745.12 92326 69546 42703-66954-89041-2673
3750.90-113600-58284 57466 85394 71052 23516
3756.69 44489 81574 89016 99353 73901 82158
3762.47 122536 55185-5221 4169 60621 177471
3768.26 180529 104713 129285 165358 198841 158484
3774.04 42241 13408 99894 127324 82792 62149
3779.83 85233 134612 69739 8482 3085 31080
3785.61 87225 70479 78691 92396 94173 104023
3791.40 163399 174502 105580 140920 186252 161060
3797.18 127733 45827 15016-39788 48045 154357
3802.97 54637 105613 107219-39485-24722 20099
3808.76 16198 97470 114408 47585 42676 49380
3814.54-98096-118661 52885 87413 12406-18311
3820.33 39938 133279 124671 45499 45993 79712
3826.11 114479 109710 64565 60801 8039-956
3831.90 51082 1574-74236-10448 31685-124906
3837.68-57077 80685 54384 95092 77807 34093
3843.47 121094 83165 34838 5061-24786 27629
3849.25 58342 134-68814-100798-250627-137549
3855.04 80855 139103 151480 145237 125222 29090
3860.82 21768 89688 59513 42484 65948 59706
3866.61 15292-95212-129814-44448 31958 74125
3872.40 35607 4112 60130 78507 57305 47171
3878.18-14813-43058 6294 77637 74142-6451
3883.97-7064 44523 95667 123886 89185-4729
3889.75-64457-69548 14742 29226-25300 2878
3895.54 103565 122111 11829-486 87478 22860
3901.32-336 46715-49080-61200 6415 72489
3907.11 74474 62322 86460 84387 99799 70054
3912.89 65030 89154 47039 23149 65827 25491
3918.68-58783-5587 35474 5530-7959 32522
3924.46 50057 54667 137245 177397 104911 56106
3930.25 50736 17825 40952 72370 132172 165610
3936.04 133219 121432 101526 127870 119067 59796
3941.82 76821 115805 114057 62349 47598 40744
3947.61 50753 79159 108173 92612 37016 46183
3953.39 93973 101115 68443 76884 66306 42336
3959.18 48055 117806 116954 81322 40678-34195
3964.96-13476 79484 120602 71387 46735 48696
3970.75 58473 58026-25308 7931
##END=
