##TITLE=Dichlorodifluoromethane
##JCAMP-DX=4.24
##DATA TYPE=INFRARED SPECTRUM
##CLASS=IUPAC A
##ORIGIN=NIST, Analytical Chemistry Division, 301-975-3108
##OWNER=COPYRIGHT (C) 2001 by the U.S. Secretary of Commerce
##DATE=01/06/01
##$SPECTRA VERSION=1.10
##$UNCERTAINTY IN Y=2.1 % relative (B=1.11E-04,C=1.83E-9,D=7.56E-14)
##CAS NAME=Dichlorodifluoromethane
##CAS REGISTRY NO=75-71-8
##MOLFORM=C Cl2 F2
##MP=-158 C
##BP=-29.8 C
##$NIST SOURCE=QUANT-IR
##SPECTROMETER/DATA SYSTEM=IFS66V (Bruker)
##INSTRUMENT PARAMETERS=KBr Beam Splitter; MCT Detector; Multipass cell
##STATE=gas
##SAMPLE DESCRIPTION=Dichlorodifluoromethane Primary Gas Standard
##PRESSURE=101.3 Pa
##TEMPERATURE=23 C
##SAMPLING PROCEDURE=1 L/min Flow
##RESOLUTION=0.9640
##DATA PROCESSING=Happ Genzel Apodization
##XUNITS=cm-1
##YUNITS=(micromol/mol)-1m-1 (base 10)
##XFACTOR=1.0
##YFACTOR=7.2759E-12
##DELTAX=0.4820
##FIRSTX=575.17
##LASTX=3974.605
##FIRSTY=-2.93E-06
##MAXX=3974.12
##MINX=575.17
##MAXY=.0043478
##MINY=-3.03E-06
##NPOINTS=7052
##XYDATA=(X++(Y..Y))
575.17-403056-193838 23269 77563-13253-153897
577.58-273852-154211-84310-46536-146244 41244
580.47 89203 356401 280151-175419-299185 42408
583.37 226568-313759-437454 86872 104882-416296
586.26-417325-219365-27369-18082 48829 179455
589.15 355777 347107 46546-162992-186403-173956
592.04-367157-456626-132301 106960 117315-209224
594.94-352586-279725-54734 156552 91120 229245
597.83 64466-85444 44473 88930 92182 28378
600.72-93494-120643-140102-35549 10863-150663
603.62-54578 87556 141259-9981-207624-270308
606.51-251211-277315-225907-99665 30446 12015
609.40 28160 70678 66733 46970-82529 830
612.29 98414 43671 15218-55337-109324-100838
615.19 33527 35584-104152-123274-248748-338815
618.08-230198-115046-92678-115745-113140-102894
620.97-30556 32644-11647-71710 92470 141137
623.86 52519-128762-277776-166565-87154-70477
626.76-21356-41612-58917-97729 51738 90156
629.65 12995 133330 139364-44634-135424-32196
632.54-1517-59243 73405 196587 112021 59912
635.44-35668-47977 142417 116178 69883 61580
638.33 70891 187417 276210 172517 103382 125503
641.22 177941 178054 422816 617174 615316 529486
644.11 493428 568347 752608 894323 949673 1060298
647.01 1152775 1240136 1433565 1651006 1799142 1998209
649.90 2249374 2541949 2681888 2729530 2952604 3216869
652.79 3578759 3782239 3929404 4304077 4623177 4751815
655.68 4971085 5335823 5527534 5517527 5728562 5969773
658.58 6080652 6226057 6261750 6435748 6797784 7036434
661.47 7506226 8052406 8510246 9178048 9883610 10353686
664.36 10586057 10395479 9871673 9159766 8240204 7585591
667.26 7618063 8370478 9700541 10952290 11471194 11075214
670.15 10208358 9362432 8578553 8092483 7699918 7442998
673.04 7378465 7388010 7503000 7675951 7771557 7719842
675.93 7625895 7585732 7435779 7236211 6965259 6678680
678.83 6419965 5923335 5470294 5082765 4700380 4262300
681.72 3886994 3598545 3197962 2841442 2515108 2249943
684.61 2080677 1897154 1598982 1303242 1179197 1067197
687.50 905416 799637 688225 608888 478629 393739
690.40 355168 355506 299683 234742 209029 226345
693.29 156152 37305 68183 159471 128672 28079
696.18-62797 43527 114167-103153-100289 41321
699.08 88856 80484 107875 155746 70055-47868
701.97-64665-20707 53768 19204-41850 53646
704.86 132184 137374 91546 118889 107593 95522
707.75 89751 66265 167373 200540 73986-6167
710.65 52080 83328 32174 95319 122526 81342
713.54 143199 158712 191995 228287 231236 106174
716.43 43133 58320 51900 30288 125480 200644
719.32 185439 221499 290165 223950 160342 139797
722.22 174641 137805 64796 97084 105629 130455
725.11 175842 171637 168671 143846 48452 78622
728.00 164487 146335 95784 75087 101591 146719
730.90 175782 210921 179484 161989 183756 154946
733.79 63053 8069 5919-766 28408 36790
736.68-20738 33272 86468 38290 31299 68983
739.57 77647 99951 158528 145570 155164 107043
742.47-29302-24788 71557 59576 73648 160058
745.36 154521 132048 124211 137327 166438 162363
748.25 164731 234914 248057 209401 186999 201077
751.14 181540 193640 201005 167837 277812 355441
754.04 214333 138236 178701 217908 165730 129342
756.93 142915 120523 107060 126758 176522 163957
759.82 126046 122021 180016 180097 157796 158689
762.72 141600 150754 169250 81380 77046 123416
765.61 133738 184386 166218 68144 58751 150356
768.50 110237 84782 77597 43791-1345-15420
771.39-23716 7310 29918-289-49396-51264
774.29-41392-36244 40148 37830-77141-69937
777.18-74805-45053-8106 2138 81865 126645
780.07 58711-54532-65604 16505-47868-99226
782.96-74641-62975 37454 155547 44808-42887
785.86 15467 78611-28588-123320-144345-76918
788.75-45016-98454-137408-150072-103444-4646
791.64-13959-123586-154104-101837-78699-89425
794.54-71826-128581-94560-49175-82513-6142
797.43-52763-51515-25669-3906-96811-155923
800.32-65302-24247-49579-44939-19990 12365
803.21-49130-154037-154335-95537-50341-70247
806.11-103158-115266-181956-124667-42201 4562
809.00-8588-111403-194425-58710-8084-115472
811.89-121300-80581-73068-101509-82846-25737
814.78-9800-91063-163156-112991-53776 36166
817.68 131614 61140-71213-79945-20723 50066
820.57 5677-43728 4851 91646 124126 52856
823.46 8759 84509 90401 120673 129738 146233
826.36 271315 389246 384732 362184 352834 456056
829.25 499756 495197 374738 386246 508027 562768
832.14 593948 546631 404585 390750 490597 518575
835.03 437906 442290 561404 630682 616109 644793
837.93 768807 821261 1000580 1286776 1323862 1256479
840.82 1084812 911134 797104 774010 740046 868989
843.71 916259 961646 1026874 1098700 1149727 1224828
846.60 1329366 1405373 1480471 1578438 1716862 1858229
849.50 1895130 1978389 2021044 2174721 2371294 2544208
852.39 2688968 2824398 3042470 3299290 3565131 3814550
855.28 4069705 4393628 4702399 5047197 5385836 5813547
858.18 6259015 6663191 7060154 7568993 8210494 8961617
861.07 9553006 10137963 10768363 11520808 12377271 13292641
863.96 14147291 15108452 16046275 16940303 17942485 19123977
866.85 20267494 21524417 22880910 24289730 25523396 26794474
869.75 28147150 29590451 31107431 32856474 34485674 36076441
872.64 37516497 38999017 40886511 42802733 44460426 46614490
875.53 49067196 51606092 53782997 54797843 55407852 55417397
878.42 54752293 54349318 54464938 55479429 57541785 60391715
881.32 63218404 67166695 70309585 72567534 71373852 65633550
884.21 58719144 53915255 52897750 55453486 59324900 63440992
887.10 69051162 75757059 83306114 80643287 68911949 61249653
889.99 61610816 66647616 69867305 66795932 60061755 54999549
892.89 52471870 51061827 49953434 48974227 47837132 46721129
895.78 45483461 44155409 42848817 41813858 40837728 40042676
898.67 39584866 39242013 38898479 39075016 39801836 41183506
901.57 42963332 45307813 48121978 51569378 55486140 60187883
904.46 65051928 70146174 76033709 82837577 90283625 98511855
907.35 107444192 117305379 127867752 138590534 149642957 161211726
910.24 171983777 181966892 191238826 199440682 206143364 212140125
913.14 217168682 219568776 219581321 220133898 220145817 215115065
916.03 209074905 211463935 217466953 211920900 209631127 238943337
918.92 273828634 265243704 266039815 351490399 430446573 400090049
921.81 391104110 459777540 347847224 200300694 188293041 195718766
924.71 200801201 222989256 239944147 241825565 248525288 259207101
927.60 270774105 278730052 282498116 282576339 279476306 271940327
930.49 261215790 246809226 229894971 210726101 190708853 169939870
933.39 149553108 129455825 110764485 93403281 77926809 64056128
936.28 52224671 42036621 33605575 26476160 20994896 16487109
939.17 12925078 9973513 7848286 6066414 4851930 3745707
942.06 2965292 2314899 1906605 1454752 1216674 940799
944.96 789874 581770 558686 445862 438497 362609
947.85 352390 278819 308426 211157 233489 210600
950.74 259109 186599 189045 112721 102486 105397
953.63 194840 121120 108535 33723 76998 30040
956.53 65831 96939 180915 138401 157645 85538
959.42 88762 41796 23029-25354 2234 21059
962.31 81594 23726 13725-23863-15086-32189
965.21 11102 13337 52699 13506 1179-50310
968.10 3612-20122-21221-55999-34682-13594
970.99 40419-61149-82893-109850-102217-81679
973.88-7393-8618 23888-17947-61216-96874
976.78 7102-21679-43932-58818-11661-27870
979.67-12312-29748-35659-102564-74960-58225
982.56-33617-76203-38829-46384 4825-290
985.45 18865-13185-6519-22178 39385 35278
988.35 34261-24216-49928-63024-27799-76168
991.24-70941-85113-63555-83940-63233-88662
994.13-78550-102281-86078-96157-64467-65578
997.03-33401-55301-34833-95486-81083-95067
999.92-73471-48864-25830-105019-100882-106190
1002.81-87595-111307-37370-74962-56751-40316
1005.70-45515-107074-82894-105434-75367-92438
1008.60-75412-89953-80930-89546-96466-154557
1011.49-99920-93863-103189-140704-113143-124307
1014.38-88035-75782-60401-114504-104430-50802
1017.27-69810-151039-88658-35608-44493-78719
1020.17-47804-46600-40084-85417-70835-119526
1023.06-82887-81546-103451-139647-102463-61381
1025.95-3872-23735-9317-5940 38796 7613
1028.85 15901-7123 15090-34427-61968-44697
1031.74 32814 28594 52185 35419-4961-63846
1034.63-19777 28425 33473-25161-8581-16530
1037.52 10534 26010 19905-24929 13902-23027
1040.42 15721 98263 120292 10897 24211 21304
1043.31 53171 108982 149024 122477 177098 156068
1046.20 136644 121023 186823 179121 189250 128145
1049.09 172953 238978 289585 295146 315771 289470
1051.99 378580 443755 538667 543308 554185 598047
1054.88 737291 741610 769690 896995 1037544 1088665
1057.77 1183701 1216061 1351396 1481160 1648639 1755101
1060.67 1845496 1952364 2120903 2220643 2396056 2532483
1063.56 2694256 2890277 3123452 3256597 3486199 3755995
1066.45 4096794 4349304 4617391 4989662 5502438 6010080
1069.34 6567740 7071878 7675568 8300763 9018761 9763438
1072.24 10610862 11507468 12719781 14347383 16260368 17851320
1075.13 19113789 20171831 21198118 22469326 24549637 26988418
1078.02 29594070 32329890 35382198 38605409 42097702 45703025
1080.91 49630846 53826188 58209494 62703808 67620026 72721637
1083.81 78054415 83488914 89141070 94987841 100959623 106929473
1086.70 113036776 119007153 124993318 130979978 136996026 142706128
1089.59 148334934 153551187 158198202 162360283 166433213 170322922
1092.49 174293242 178287276 182323265 186535504 190947010 195724830
1095.38 201631216 207571809 214313999 222224124 227252847 226744734
1098.27 226323663 230870061 234381215 229981491 220925737 224700914
1101.16 256872843 290436525 293104161 272957282 252843628 232275569
1104.06 206133781 188982038 181150777 180353701 183084482 184270259
1106.95 183375891 182635254 182772713 183097409 182457652 180640492
1109.84 177557153 173239005 167994541 161981643 155220172 147749185
1112.73 139746345 131616065 123290968 114815880 106566609 98674687
1115.63 91198776 84373292 77985683 71983523 66432404 60952264
1118.52 55687981 51428659 48568401 46862993 46387683 46671577
1121.41 46323926 44845745 42610294 39488179 36696361 35822308
1124.31 37615528 41393959 44742159 45428490 43312318 39092173
1127.20 34121011 30121462 29162873 32330363 38068583 39401157
1130.09 35952458 33386817 31685432 30364873 29501265 29087184
1132.98 29015065 29159346 29446591 29905795 30492142 31257879
1135.88 32236244 33366831 34656563 36211893 38071760 40148094
1138.77 42584067 45382261 48490986 51912950 55666197 59737008
1141.66 64203105 68982106 73941772 79017638 84235107 89595738
1144.55 95049171 100329625 105211924 109899116 114694419 118998997
1147.45 122121662 124633676 127179357 130039479 131352621 129635358
1150.34 127470232 126042486 124788498 123985800 124021999 121836443
1153.23 119727298 120321582 121516889 131060764 137719429 137448633
1156.13 145670750 149465714 174020706 231537981 223641705 189445858
1159.02 155812632 160031673 397849629 597557709 298708346 92182459
1161.91 84722572 89616794 90166908 89203448 86872670 85591745
1164.80 84412393 84337763 84134623 84544836 84587197 84789353
1167.70 84437795 84137199 83102109 81839036 79945910 77827105
1170.59 75178229 72416405 69107767 65791490 62033920 58366926
1173.48 54565523 50858767 46932146 43217465 39553376 36094235
1176.37 32573367 29397927 26292995 23535755 20921512 18575900
1179.27 16297827 14331466 12512438 10985813 9532365 8311626
1182.16 7158281 6224772 5349881 4697449 4047880 3523339
1185.05 3021432 2655527 2291074 2085079 1829986 1684507
1187.95 1560162 1541024 1399221 1284809 1149691 1158419
1190.84 1094967 1101408 1091033 1109355 1087529 1114454
1193.73 1102173 1133930 1056737 1027422 974119 981550
1196.62 973349 1017776 1000132 1071893 1100014 1131681
1199.52 1190304 1305471 1279232 1329198 1306762 1112560
1202.41 858675 827809 855800 886830 857372 943326
1205.30 1027771 1138665 1189782 1250508 1283417 1313114
1208.19 1084914 754969 618960 657634 665657 666264
1211.09 644985 647987 620145 649820 643907 647023
1213.98 590593 603776 619151 626181 577136 573911
1216.87 600066 650173 623956 635091 651960 675454
1219.77 636538 660524 665393 685176 733649 838230
1222.66 850764 889806 932121 1028788 1015673 1015737
1225.55 1079061 1142293 1222421 1314461 1346216 1377483
1228.44 1434153 1471660 1434954 1417641 1419202 1481640
1231.34 1559844 1638853 1663957 1662165 1647554 1672178
1234.23 1666597 1766971 1848382 1945510 2048600 2136436
1237.12 2230195 2360214 2497722 2679160 2802804 2921784
1240.01 3062884 3185661 3119810 2939992 2835662 2820059
1242.91 2673972 2241671 1653531 1443055 1435802 1475362
1245.80 1414780 1284105 1218546 1247317 1211325 1169198
1248.69 1198534 1219258 1220567 1263552 1268832 1220564
1251.59 1164901 1126622 1086158 1067456 992504 943446
1254.48 905398 844096 735044 655970 602065 531671
1257.37 446688 415850 358115 325046 279957 221997
1260.26 171972 158368 116880 76130 33974 9472
1263.16 25165 54998 14549-45380-76238-54093
1266.05-63790-23662-12591-18436-10369 19998
1268.94 9659-39916-62683-31480-14780-17916
1271.83-25841 4707-1704-4314-34029-71183
1274.73-87374-66077-72082-58729-36997-39792
1277.62-70749-41321-6367-2106-11445-27289
1280.51-50495-25321 3192 25395 1796-17392
1283.41 6266 8243-65585-50508-8267-13844
1286.30-20056-3781 9905 45118 10794-13734
1289.19-22349 1647 17566 44791 31248 16654
1292.08 2559 10467 19667 74834 64253 29838
1294.98 49751 56470 37505 61886 85777 66703
1297.87 50390 87027 81676 80402 58426 60097
1300.76 79268 104494 67651 64922 115458 107412
1303.65 40124 73716 111511 112645 119803 146303
1306.55 140223 126817 98872 121544 144829 149185
1309.44 172627 189608 168157 173893 200964 203905
1312.33 179528 155228 116976 139049 186964 217982
1315.23 215430 230334 251304 264165 255033 253738
1318.12 240703 223442 192459 165278 161982 219505
1321.01 261291 264022 292452 326236 280828 253948
1323.90 313423 326829 280428 290378 317138 340782
1326.80 348205 341694 304686 282596 298568 316158
1329.69 312810 325595 320890 332546 380649 438215
1332.58 432312 366239 347284 357269 380288 396863
1335.47 382115 383351 388014 363191 340742 356214
1338.37 413266 435186 410136 398127 455427 508176
1341.26 520433 516585 509501 511970 511878 536441
1344.15 557564 572856 609929 665278 648183 584869
1347.05 530332 515811 558285 607677 555052 417271
1349.94 416616 491865 451339 327549 303420 374983
1352.83 418285 432357 496946 605987 687652 761969
1355.72 825704 856303 727773 685483 798572 694960
1358.62 650069 685439 590922 505733 534794 593292
1361.51 702246 822026 767684 639659 613770 692254
1364.40 721065 763232 797967 827900 829061 801378
1367.29 736013 749514 810135 867336 913084 876305
1370.19 794568 808826 912169 897022 882124 978366
1373.08 984680 996946 1030211 1050739 1052333 1017140
1375.97 953753 881648 908111 1003899 1027609 964295
1378.87 917907 972728 1126537 1127788 974435 948700
1381.76 970797 982918 948422 925759 1012982 1195868
1384.65 1302516 1254803 1165165 1045941 893431 822740
1387.54 823710 839050 830019 789143 713238 689615
1390.44 697026 664190 630779 614217 555765 552530
1393.33 526380 490304 486079 406934 247380 195223
1396.22 223004 230164 210977 197037 153706 134834
1399.11 141413 104697 90853 136011 95705 35346
1402.01-196 3483 23410 49135 41458 16213
1404.90 30021 68160 57955 74427 76444 48763
1407.79 30427 42122 49645 31450-2793 34780
1410.69 48096-7578-31389 18062 45821 14848
1413.58-12761 25984 27777 1840-24833-19462
1416.47-2449 5430 17756 49110 5583-72426
1419.36-17375 19480-37237-32595-6636 3688
1422.26 9811 16932 14007-990-14426-11029
1425.15-166 19096 689-34282-14596 16808
1428.04 11243 1037-37543-38004-12465-12249
1430.93-18071-20860 1682-12623-30650-27721
1433.83-1744 28304 8450-15281-60290-119753
1436.72-108678-43453-4789-17982-17929-1114
1439.61-10273-24155-57089-62549-32173-18531
1442.51 1745 12942-7787-6047-18151-66820
1445.40-78718-35840-26365-51271-65582-57099
1448.29-31729-1456-3163-20175-34812-54648
1451.18-71352-77558-65017-30784-7902 7420
1454.08 15748-10013-39181-64630-188000-180003
1456.97-29185-34805-71479-27067-2384 5807
1459.86-541 26080 37373 59213 48298 39437
1462.75 63451 88319 45381-10916 34131 90149
1465.65 97742 115206 119576 136835 159167 174752
1468.54 165148 121194 109941 137348 146279 92946
1471.43 40811 65939 79397 18731 83760 159635
1474.33 148891 156285 134912 106424 172507 208927
1477.22 198222 210243 261243 237427 322234 361438
1480.11 193346 108098 114083 143822 114513 100456
1483.00 113530 144959 149847 152029 140913 110413
1485.90 86965 58238 26043 65538 89337 76817
1488.79 65321 49691 21520-5894-8957-862
1491.68-4751 9638 29904 25647 7985-6123
1494.57-11198-53256-177794-162712-75607-59693
1497.47-39620-57337-81663-56994-33898-15886
1500.36-43150-57817-14106 14416 1997-19926
1503.25-34719-32570-61525-152410-202166-133904
1506.15-180522-170959-42027-26093-65211-68917
1509.04-58630-39649-9596 31581 13520-24309
1511.93-28694-4069 3311 46018 42603 8483
1514.82-22815-9886-13105-18051-55865-48997
1517.72 34608 68177 62731 72029 42627-17880
1520.61-121727-62697 14787 218 41227 72490
1523.50 72978 65391 17146 11071 87607 134867
1526.39 121617 102012 137114 132626 116825 107273
1529.29 70924 65323 88303 96356 112125 116099
1532.18 89112 54399 12939 43802 83934 89126
1535.07 121620 167488 144698 99443 68768 61115
1537.97 21169-92830-79129-59338-82885 567
1540.86 29515-16179-6156 34415 18789 39342
1543.75 85873 83349 25138 25613 51483 50639
1546.64 53363 75676 82389 95729 83731 97571
1549.54 96813 84677 80244 79420 96147 84360
1552.43 82775 86036 79394 34309 56615 72238
1555.32 65647 52723 42459-1594-14097-65055
1558.21-71291 30989 5325-73000-11478 99193
1561.11 118144 85341 58499 62194 65067 95624
1564.00 104655 113116 100665 59278 71192 141676
1566.89 166557 165034 150350 162072 171858 135853
1569.79 156864 227188 257592 272268 256089 272741
1572.68 289455 319664 337092 333870 324227 285883
1575.57 214835 270046 394522 453884 458078 479840
1578.46 507979 524030 537290 573226 621885 604585
1581.36 576585 601391 635486 639732 640475 660884
1584.25 688268 667591 573701 587126 763332 978810
1587.14 961291 662512 637974 866170 1059631 910212
1590.03 592892 522473 546807 583169 639153 681979
1592.93 687593 694333 670470 654740 640919 637101
1595.82 624923 595156 544824 525191 546118 512420
1598.71 442410 405382 359519 292323 240386 201644
1601.61 164422 144070 120860 98619 78742 76217
1604.50 47163 51794 25527-3789-16674-21785
1607.39-15721-22554-34808-21371 17848 51749
1610.28 37620-20853-49942-31720-17598-6789
1613.18-45237-48840-44150-47267-57106-98161
1616.07-196528-155928-42519-11235-3373-1463
1618.96-14074-24481-34593-5913-3315-35732
1621.85-59019-55629-81366-72716-24932-47271
1624.75-52999-42550-24407-16638-37070-82837
1627.64-60378-20484-21853-7842-817-19010
1630.53-54553-51608-32535-11828 963-3496
1633.43-9576-35734-124245-205888-173197-45417
1636.32-49802-91563-69891-43333-65898-53828
1639.21-15760-21264-18211 1003-5862-16316
1642.10-15297 4164 1814-29446-27639-24020
1645.00-87192-157486-110186-51781-41913-45269
1647.89-82280-48032-25641 2481-31540-66361
1650.78-47233-85584-224415-267027-252077-172252
1653.67-95821-60526-10750 10413 3601-12176
1656.57-29730-30137-1630-34689-45202-1486
1659.46-35360-56873-34789-6460-11253-60327
1662.35-118647-74112-25719-26128-35206-31644
1665.25-25491-29086-29470-8697 5570-21503
1668.14-62471-111266-77913-25976-542 5885
1671.03-33524-43054-35339-15756-21241-31091
1673.92-36570-108466-155210-87886-29257-16124
1676.82-11884-25641-28291-22045-25149-30545
1679.71-43807-33040-11730-17228-58976-84743
1682.60-103602-94077-122146-258609-255282-81669
1685.49-25654-12110-14164-16893-37806-56071
1688.39-65542-37565-26562-17924-25268-50100
1691.28-48798-37224-50622-57742-54459-59133
1694.17-39834-84628-233807-236487-79611-43472
1697.07-44695-45610-55102-69047-124094-205281
1699.96-212273-156152-69010-33634-14642-42431
1702.85-55656-52159-57756-39311-25369-20257
1705.74-51870-60713-40757-27030-18241-24472
1708.64-30502-37475-32000-8404-45318-54030
1711.53-25549-32040-25754-27768-43765-53474
1714.42-79617-66439-36901-38642-103390-230826
1717.31-187442-101178-103458-81198-32860-13004
1720.21-11279 8870-8128-9795-1689-11725
1723.10-11173 1803 7218-20003-28958-23635
1725.99 8553 24489 4547-13960-14595-10003
1728.89-25468-29264 19201 27452 13770 19918
1731.78 3647-8786-89393-88971-96803-111502
1734.67-7144 33381-3432 3926 40785 24333
1737.56 8709 24251 28503-26964-47733 38515
1740.46 66122 65243 92336 118872 128604 120126
1743.35 139193 159383 167356 187082 196094 200325
1746.24 224960 221685 203815 203761 221162 270607
1749.13 276136 271066 283250 254362 254730 299577
1752.03 329482 335886 307161 319078 345029 362959
1754.92 398665 415082 397697 379974 390468 398239
1757.81 416159 424426 421376 435808 458256 444537
1760.71 426892 398590 418384 436065 406254 408509
1763.60 431562 460472 448968 401463 330402 272334
1766.49 255840 281927 242547 247384 302633 323031
1769.38 312647 301987 284113 211770 190068 151183
1772.28 137007 229335 270201 247932 197300 180091
1775.17 175885 157796 118226 93706 100108 121910
1778.06 139696 146993 121423 108479 103519 70682
1780.95 64484 68937 64802 75226 91927 103561
1783.85 107818 87020 88391 96627 88165 85230
1786.74 104999 163882 218475 211674 179271 156536
1789.63 153817 151774 158750 179357 167439 113376
1792.53 155747 209392 238544 264520 254326 254539
1795.42 245953 228986 231060 248813 278102 308810
1798.31 311449 306093 295734 285144 303957 301902
1801.20 312972 321042 321104 342468 338072 305790
1804.10 319381 354077 329914 306380 315387 340320
1806.99 336036 320143 305284 297879 301644 306775
1809.88 283596 275335 271488 228777 225007 290063
1812.77 339557 321002 267928 223399 220574 233569
1815.67 250152 281412 263922 230902 218658 252949
1818.56 312384 300798 244019 238245 232678 235479
1821.45 254546 266596 268645 274614 240919 204694
1824.35 211034 211720 194464 205719 197045 193097
1827.24 208269 191048 175934 178204 165754 166348
1830.13 205389 258089 269510 257173 272655 302253
1833.02 272486 240696 211814 204518 227793 239618
1835.92 228505 245271 270507 278913 267261 246549
1838.81 260038 302025 284383 230675 203419 175025
1841.70 188602 208713 208796 206220 183131 179388
1844.59 155954 142791 176444 232566 219839 178524
1847.49 156536 136777 105826 115151 122040 129056
1850.38 110047 80608 79606 86343 86400 65400
1853.27 23341 1242-6159-6424-34457-57155
1856.17-45947-32476-13599-38596-82809-101016
1859.06-109521-108361-89308-90550-96030-125063
1861.95-128192-95590-118420-139086-137095-119534
1864.84-95223-82362-107087-108809-113107-117208
1867.74-103209-92711-100213-100336-82051-75863
1870.63-81816-101988-105247-105840-90478-50804
1873.52-53246-49818-29511-21510-50041-67738
1876.41-53917-48024-56634-43034-13113-17716
1879.31-37781-40829-36085-32371-9208 455
1882.20-21063-16611-8320 10932 8790-28871
1885.09-21946 2228-12633-20389-30430-44603
1887.99-45876-57307-48220-35042 8454 26465
1890.88-17894-50066-31192-9244 166-8312
1893.77-27754-45815-39612-14270-3966-19384
1896.66-36021-40313-31086-19478-1961 14407
1899.56 26803 9968-16108-22777-10204-26254
1902.45-41243-7420 2148-5837-6186 450
1905.34-8067-34264-50826-39046-5012 11877
1908.23 5627 1697 2418-45-4517 9050
1911.13 809-9745-1667-15567-30987-46683
1914.02-40456-19705-23681-37155-41958-26619
1916.91-26788-49557-31009 4956-3933-20244
1919.81-14484 2649 361-21351-32156-17952
1922.70 1227 20705 7276 4383 7787 4475
1925.59-783 5175-2673 17679 17469-8814
1928.48-25966-14500-9400-20043-10347 938
1931.38-58 5003 14232-10555-27743-26775
1934.27-15955 26417 18453-10029 8908 6772
1937.16-26473-29606-8863-2839-8747 6996
1940.05-14912-34009-25884-2755 18780 11338
1942.95-29539-29456-5527-19936-5649 14583
1945.84-12080-7859-23319-26828-15579 6719
1948.73 7802-392-2347 17565 27743 30714
1951.63 13187 1034 20830 9740-16556-14279
1954.52-12689 12292 21468 4077-3139 8865
1957.41 11032 4989 2708-9928 6978 27731
1960.30 22477 8560 10058 9253-9419-15230
1963.20 13639 28397 20171 5131 13576 40628
1966.09 40609 23606-4520-2374 15770 30977
1968.98-7343-24696-15595 20452 39313 38788
1971.87 30198 26911 41199 56743 67990 32693
1974.77 875 146 5589 7962-6152-14735
1977.66-8754 14828 27051 4015-25971-8230
1980.55 1810-4774 847-12529 1751 5346
1983.45 13638 7790 2670 27666 22408 9360
1986.34 10188 6768 10556 10580 10727 27321
1989.23 36665 26201 6018-191-6626-15422
1992.12 5475 26356 10435 25937 44600-1268
1995.02-18887-13694 5812 15180 18429 43546
1997.91 52286 26136 24896 41768 43600 66539
2000.80 66315 59437 49090 37422 59282 68564
2003.69 38885 28408 38456 33291 40049 66066
2006.59 77078 89551 82710 77581 72567 63169
2009.48 78786 84677 63786 77675 85449 88222
2012.37 91327 80403 65945 53577 61933 85661
2015.27 94430 76617 57879 75673 63774 52819
2018.16 74822 79798 62601 71711 76110 67659
2021.05 72277 70721 38355-8649-4723 38885
2023.94 43127 19634 17969 22745 37463 61062
2026.84 84630 106178 99190 89688 68796 59547
2029.73 40539 18873 12452 14375 23980 28796
2032.62 8292 10904 35399 44794 29228 15386
2035.51 18510 16507 44831 56001 31677 50522
2038.41 56127 17549 24808 51178 37147 31581
2041.30 32881 18447 21509 15828-6264 29826
2044.19 41924 33956 46031 64446 44739 17963
2047.09 43305 33798 18971 27633 24875 32117
2049.98 25016 14271 58476 79868 72763 58549
2052.87 50182 23829 13216 98-4149 9589
2055.76 19860 28070 37529 34554-12824 4744
2058.66 30681 20066 45151 54774 42289 13077
2061.55-3530 5582-1690 213 19988 36519
2064.44 49721 25120 12688 16469 20587 10539
2067.33 6228 6398 7548 7250-8681-22586
2070.23-9219-23927-1458 47386 51654 26716
2073.12-12682-14657-3348-5999 86 24278
2076.01 22177 8318-17163-338 28806 6704
2078.91-47452-60041-34508-42827-47150-19419
2081.80 20609 11816-6377 35823 41456 33109
2084.69 29083 20295 1832-16122 8117 18112
2087.58-16492-25202-16385-27437-30398-29768
2090.48-10075 16897 54069 57260 13676-17396
2093.37-25842-7726 10068 28076 15479 11449
2096.26 23418 34997 10081-23852-36260-16541
2099.15 20980 20980-12199-32692-43318-29842
2102.05-2335-13547-19905-14496-45798-32622
2104.94-14162-16668-8409-5491-18354-12031
2107.83 10568 19052 22650-9156-4945 1352
2110.73-10759-23297-19463-25356-14946 6893
2113.62 10684-3083-43834-54965-6743-13430
2116.51-27697 689-906-17036-32514-51859
2119.40-32843 82-7987-9389 6200-17035
2122.30-41641-36975-30491-34092-19111 6115
2125.19 22783 32375 16604-23948-29634-9021
2128.08-9456-13382-14994-16736-3171-1827
2130.97-10402-29636-18635 4751 36601 9252
2133.87-9135-5334-15405 8350 12398-9788
2136.76 6348 4852-19845-7440 26494 35125
2139.65-3587 1956 23937-3394-11556 8659
2142.55 6324 12535 5075-10642-17999-28690
2145.44-11092 28214 30847-1972 26914 39274
2148.33-14896-41348-40208-38274-27302 109
2151.22 18508-13506-29242-23943-36567-18344
2154.12-30875-47445-69500-49274-9872-15294
2157.01-33091-40561-29434-47222-63531-15107
2159.90-6562-12283 8003-256-8410 4204
2162.79 3524-12101-13417 551-7547-10269
2165.69 32019 78071 73010 27441 13863 60533
2168.58 78947 67013 96187 107603 93694 116049
2171.47 133346 133294 145208 164509 174992 208293
2174.37 254700 276771 267748 271896 297207 336166
2177.26 367302 400899 448379 455705 425126 439916
2180.15 467930 505404 541804 572778 620104 628365
2183.04 639855 662335 678463 710620 769205 792505
2185.94 828555 882477 911110 892427 870704 884684
2188.83 957744 991601 1013301 1057583 1114576 1106236
2191.72 1042136 1046778 1140553 1263985 1312841 1260132
2194.61 1203594 1138268 1022576 951738 889654 837812
2197.51 834148 861557 895837 904671 925667 934288
2200.40 936012 967288 975884 949042 884744 820113
2203.29 774356 766715 748734 700323 630063 567302
2206.19 522802 476515 463125 460154 412833 355726
2209.08 332804 309087 300066 279161 261878 267997
2211.97 276707 307067 320176 280348 259050 248767
2214.86 268173 286986 311669 345658 355539 368079
2217.76 383274 373903 362521 401328 418899 427348
2220.65 463991 514705 534914 545490 539405 551470
2223.54 591274 616460 661390 720292 759877 811801
2226.43 873139 905393 912220 987158 1048435 1061075
2229.33 1085308 1150299 1234342 1309378 1336247 1368429
2232.22 1447074 1476558 1510460 1582145 1621051 1674806
2235.11 1729945 1745795 1804819 1881785 1927312 1968011
2238.01 2016580 2030794 2041918 2100090 2176134 2191912
2240.90 2175139 2146149 2136277 2212786 2307028 2356114
2243.79 2443430 2494550 2652883 2809762 2654187 2326952
2246.68 2256945 2364988 2540284 3082058 4226901 5205775
2249.58 4799701 2901656 1594562 1519968 1558876 1446824
2252.47 1319468 1275192 1226508 1233829 1292529 1339016
2255.36 1346160 1378328 1370830 1314113 1262544 1225030
2258.25 1180237 1142101 1068397 1025345 971886 898727
2261.15 864740 825830 730146 639054 565315 499244
2264.04 455207 436299 422837 404097 353367 301661
2266.93 298478 298782 250995 230194 241849 219755
2269.83 217066 251778 255213 251355 231751 214348
2272.72 212589 226315 225086 213149 214883 248642
2275.61 242510 221552 240270 245836 234814 269045
2278.50 359669 303266 214578 204999 216456 214499
2281.40 214570 184231 247908 293001 125311 47717
2284.29 71861 69539 54597 74018 95327 78686
2287.18 18422 5997 43231 54742 90905 127974
2290.07 119629 104900 129248 167079 167458 158432
2292.97 186096 206051 193734 203535 217779 239113
2295.86 258063 268808 303964 342805 340004 353300
2298.75 384701 423755 450676 512142 540269 553945
2301.65 541343 554585 614449 645391 621144 612946
2304.54 598541 547273 557073 619297 685649 799074
2307.43 928838 1087424 1203030 1150518 903564 622486
2310.32 534571 662985 921560 1131894 1229142 1235231
2313.22 1132016 1027933 946203 877564 748504 692510
2316.11 749057 768234 712294 707251 709382 673989
2319.00 654197 646091 588429 484023 376857 441850
2321.89 601818 680167 627427 513341 455756 455183
2324.79 419976 352141 337702 326561 262253 203948
2327.68 206495 223229 171882 148333 206698 211646
2330.57 139298 84793 91365 101220 57496 30590
2333.47 54976 52173 4065 3298 22752-23487
2336.36-39908-3524-9430-64279-49782-5098
2339.25-21137-79442-51961-6724-69794-87592
2342.14-40665-72648-109161-38141-13476-73028
2345.04-83633-65605-58770-29408-33454-84566
2347.93-93713-47682-62629-96750-101158-73590
2350.82-25467-11868-13469-6459-13855-26288
2353.71 5393-8908-38414 24844 39624 9909
2356.61 57192 68460 19779 45514 29590-3919
2359.50 62258 57267 19743 58851 44843 80839
2362.39 121869 82296 84097 86527 40623 49408
2365.29 30068 44907 84020 78477 80381 51227
2368.18 63243 63172 18850 50311 40752 80878
2371.07 116862 62653 39783 27505 36221 40904
2373.96 1534-8219 14985 13665-2838 32849
2376.86 24470-4804-15917-932-10802 16813
2379.75 47523 42099 10374-3353 6630 31579
2382.64 47370 35938 19718 14549 9312-5088
2385.53-20285 6710 42011 47146 56617 35285
2388.43-10379 5214 29643 27067 7047-13987
2391.32 3389 41986 31896 38665 46613 25781
2394.21 9551 26103 43462 72574 63573 13452
2397.11 33097 35257 45202 55826 29471 54016
2400.00 33827 12964 37923 54501 42955 10083
2402.89 10671 38760 22801 13847 22549 18648
2405.78 29116 38250 46472 56288 26441-25683
2408.68-28037-10745 50030 84256 67245 33884
2411.57 21031 19324-3007-11869-2015 6750
2414.46 28376 57183 70102 48799 27790 16579
2417.35 40401 23573-24502-13218 41096 75008
2420.25 49602 21474 21788 25470 29110 21196
2423.14-868-14920-9234 9604-9552-30153
2426.03 6018 41427 33607 28775 26246 9089
2428.93 32805 66568 46862 23629 23644 37669
2431.82 29322 4294 27604 27575-4524-9504
2434.71 12645 3083 6047-3592-392 14631
2437.60-116-18733-12199 33344 30359 26630
2440.50 37049 37559 22320 6545 16961 34433
2443.39 43191 47339 51727 47989 21584-7357
2446.28-5772 42240 21138-24317-13458 19655
2449.17 58067 35965 35431 36776 6493 10169
2452.07 27666 20538 16952 25328 15573 16925
2454.96 30518 18470 18674-627-10821 1939
2457.85 25211 43201 34888 30621 40071 38251
2460.75 36621 60059 45118 26860 50336 34319
2463.64-18111-2993 23891-3299 8145 46769
2466.53 27448 9618 16665-4231-17121-4344
2469.42 21953 65396 60913 27100 12304 10029
2472.32 45392 49679 51064 36303 10212 50556
2475.21 29805-6814-10693-16727 14339 31353
2478.10-51-17382-35413-44749-22834 5182
2480.99 6250 2450 1453 216-4776 4495
2483.89 8724 12740 10961 5444-1414-13892
2486.78-24494-14497-7623 23777 35008 24167
2489.67 31696 25140 4227-28502-17759 7640
2492.57 10773-1750-16377-25913-18343 10468
2495.46 32404 13898 11569 8623 2370-14185
2498.35-23821-27862-20930 14697 4404-34094
2501.24-37810 11112 24971 57180 66053 48066
2504.14 45093 45898 31915 20008 28956 19327
2507.03 9852 47441 70539 56387 41945 54159
2509.92 49527 31504 13863-36813-17392-5696
2512.81-27126-34684-8534 25117 7018-25619
2515.71-31206 2151 32605 53410 61986 40793
2518.60 8409 35160 49236 43695 53976 34042
2521.49-5436 17438 22039 8311 8977-22936
2524.39-45635-16512 30264 48722 29166-12476
2527.28-22870 8915 2560-10854 14360 28557
2530.17 27384 23786 23429 51904 42150 20080
2533.06 22265 19767 30302 27406-13483-20935
2535.96 25678 57840 34918-2200 2210 22476
2538.85 24061 53129 40338-1218-20448 15784
2541.74 55909 50148 78269 81079 27616-22734
2544.63 16197 42357 7302-3881-8579-8554
2547.53 13176 21199-1718 920 1258-10086
2550.42-14201-3003 31251 40686 33655 27045
2553.31 23419 11786-9151-5109 25927 31561
2556.21 17711 22576 21601 18486 28990 22755
2559.10-12058-8799 3891 20813-5530-10938
2561.99 17175 46272 39166 29633 34145 11040
2564.88-2457 17189 39117 24468 9154 21604
2567.78 27938 20386 30565 43702 32921 33638
2570.67 35265 30392 12537 8708-5150 13594
2573.56 17139-3760 22156 33282 27427 18169
2576.45 18699 53788 38116 4186 9966 24569
2579.35 18790-16568-7654 21205 41140 24842
2582.24 12696 4913-34537-12351 9510 1867
2585.13 19703 207-6402 17743 40099 36215
2588.03 53477 30726 24024 22381-13039-21542
2590.92-1450-18217-13406 3857 8228 1767
2593.81 5485 19327 36202 28740 10296-6702
2596.70-20553-12217 16321 28292 27768 25457
2599.60 34123 36772 36139 68806 52740 5605
2602.49-16222-12719-13706-25501 8575 29873
2605.38 13666 15219 10075 591-7703 24541
2608.27 36249 32067 33537 17407 8538 55757
2611.17 77406 45077 1415-3572 4142 6194
2614.06 9608 14321 6190-9065 2566 22652
2616.95 13866-23891 2889 25735-13050 673
2619.85 43204 47168 46790 54163 7370-22513
2622.74-39635-54349-41190 4976 12641-1388
2625.63-3479-3570-13742-31261-31969-43171
2628.52-25584 5156-9014-20565-11673-2427
2631.42 32122 30827 36974 54844 39957 44583
2634.31 40463 9629 8094 749-31608-22472
2637.20-9699-1656 10933 30768 31424 15991
2640.09 21243 42106 55339 2826-20814-34538
2642.99-8915 38453 15771 14246 5601-20625
2645.88-57284-19528 34014 31447 32248 5485
2648.77 14885 39637 33179 28787-9781-33086
2651.67-7320-41187-45873 7004 13192 6241
2654.56 9274 4145-11594-23329-46666-4462
2657.45 35079 19247-13427 9021 16607 21190
2660.34 33907 22926 14830-18489-44647-41076
2663.24 402 11908-3025-13893-35710-15662
2666.13 4232-4263-774-186-8332-7176
2669.02-15516-15339-2091 10222 1673-9529
2671.91-23129-1496 12066-3222-2234 18705
2674.81 14858 12405 29616 14879 13965 6692
2677.70-36547-61266-56897-48627-27735-5578
2680.59 3181 32005 64436 44380 12266 26045
2683.49 42760 34429 15024 994-17384-51315
2686.38-25256 22188 6000-664 18993 23300
2689.27 12189 251 2196-8235-6018 13638
2692.16 30368 33470 20781 8191-29592-43854
2695.06-25125 11911 6561-35749-47919-40323
2697.95-45836-72986-92146-96751-97450-83568
2700.84-36458-5084 27397 24286 19476 49544
2703.73 11176 7739 67226 75916 53994 28827
2706.63 28275 46563 20828 46341 85564 56214
2709.52 23846 16626 34283 12794 12382 29690
2712.41 24982 13425-15819-11434-33981-60169
2715.31-39636 10029-14953-71764-49632 5543
2718.20 33486-607-13203 10274 8444 4493
2721.09 15505 14120 20133-12106-37044 11027
2723.98 25931 13062 2072 18706 36224 29849
2726.88 10387-4802 8763 2406-26425-48853
2729.77-23279-7786-24173-12947-15106-5372
2732.66-28457-47968-55733-36571 7041-13967
2735.55-37534-11411 18678 52443 96539 43486
2738.45-20526-7649 17494 14119-10830-5963
2741.34-9188-47312-28335-8457 1406-23968
2744.23-26024 5499 20057-1673-46925-91999
2747.12-58508-14461-20238-7819 29718 21354
2750.02 11137-14647-30325-1156 37783 17364
2752.91 16843-4159-17962-15902-29819-24641
2755.80-8122 14 31084 18755-41181-64852
2758.70-35192-7543-33527-51905-3658 15183
2761.59 8805 16534 77939 65551 28069-27438
2764.48-43499-51276-67279-48587-50715-46507
2767.37-31098-49512-55155-22909-20236-21726
2770.27-29307-25738-29877-20569-43604-68023
2773.16-43093-19811-2880 35740 46039 49828
2776.05 45001 15252-48840-69039-42122-46659
2778.94-46244-28468 7745-11792-50789-26070
2781.84-10790-3371 11398-19117-48554-33714
2784.73-81540-95354-40032-57887-87109-64755
2787.62-22064 40446 18078-78367-112823-46531
2790.52-5855-27185-37994-36114-44954-38017
2793.41-50864-67368-74500-31506 10237-19877
2796.30-45971-81905-65208-17609-7546 4176
2799.19-15819-37570-57447-16668-5083-73475
2802.09-65165-17270-814-45690-76034-48988
2804.98-20596 14887-317-34711-36641 6723
2807.87 2777-23065-91096-79724 3975 7524
2810.76 5702-8375-42958-44792-28809-32209
2813.66-40954-50061-45375-34807-38206-50120
2816.55-66939-20143-2763-7877 14992 28949
2819.44 6101-39029-89161-103621-44370-12132
2822.34-40804-24245-22067-8456-32141-35566
2825.23-19704-27949-57042-63606-41161-39347
2828.12 3837 54002 23841-24628-88527-124357
2831.01-81914-63428-51800-33930-35511-10747
2833.91-24841-29744-12305-14836-11792-23522
2836.80-21094-38361-39988 4570-10606-63054
2839.69-51976-7688-5914-28910-51351-44964
2842.58-36499-31573-11161 5897-10623-27758
2845.48-33475-20211-41233-27317-11146-20368
2848.37-28713-46986-56382-60622-66281-33026
2851.26 10937-27829-77566-96321-71360-20303
2854.16 9188-20326-34995-16973-9081-6369
2857.05-6066 2504-1661 2523 16469-32303
2859.94-63491-75686-103374-84358-40937-50110
2862.83-51620-17760-5869-32125-37314-15859
2865.73 58333 65390-7886-52888-29113-25172
2868.62-53031-50039-3861 11349-10577-34457
2871.51-2710-44167-74245-45827-53976-67168
2874.40-39212-25521-64996-26917 72518 39701
2877.30-20227-34187-30907-31121-11901-6857
2880.19-4018 1230-13670-20224 1433 4549
2883.08-9175-25660-57884-79561-88176-51834
2885.98-33290-59275-51597 13845-19069-75841
2888.87-72682-3961 55635 10734-63080-75422
2891.76-62068-48333-3720 23576 8788-32734
2894.65-49697-38625-52128-29909 5729-28921
2897.55-59640-30134 22365 34213-26206-47250
2900.44-18481-217 5517 10343-21245-49157
2903.33-31805-17188-33333-48890-10712 9249
2906.22 8932-13478-4572 28381 7597-35311
2909.12-58107-57023-23828-18445-40471-21714
2912.01 1294 32278 26216-27784-77047-24163
2914.90 13166-26158-62206-48096-23332-24613
2917.80-6260 9447 4776-23001-24632-55358
2920.69-29161 27824 41334 33359-27465-52519
2923.58-48121-54931-41915-26466-74414-115213
2926.47-70032 8444 12250-54194-97950-63739
2929.37-2167-1799-24727-14139-12630-43768
2932.26-83095-53672-53863-39828-43623-32394
2935.15 4991-5841 13297 16797-5357-13803
2938.04-3617 8731 2556 15683 21161-12349
2940.94-22034-27901-34733-8919-11438-62418
2943.83-46205 14956 16715-36691-42392-18984
2946.72-21502-21493-38800-63121-5963 73338
2949.62 63351 40467 9821 22041-9769-57506
2952.51-30211-22107-34018-12477 6904-389
2955.40 13023 11114 926-3494-18857-34919
2958.29-55912-68499-47503-54087-48825-50295
2961.19-65794-90171-55223 35264-5111-90369
2964.08-110082-88260-60835-54380-26285 1382
2966.97-9265-31296-44101-71960-120355-62857
2969.86-2616 13733 51898 25759-19527-35801
2972.76-62754-81613-49262-13551-8831-63745
2975.65-61102-8575-4762 4278 9115-13924
2978.54-58010-55308-17820-11354-25917-34985
2981.44-70133-95207-94728-48342 14219 27748
2984.33 15423 1372-19717-9077 50349 36432
2987.22 12666-3640-57806-60996-48575-67959
2990.11-26753 21548 1591-33952-5875 15614
2993.01 10177 22325 16155-17576-14286-20314
2995.90-31488-10952 7007 28250 19694 1418
2998.79 9000 19375 13553 24181 16160-14127
3001.68-55720-66545-22929 14526-15742-64463
3004.58-31681-24376-36376-48541-68722-49421
3007.47-26339-6774 21887 42456-3567-29477
3010.36-588 55762 14114-29431-21236-49051
3013.26-25145 27611 26991 3229-49376-33955
3016.15-20485-37383-66618-46046 14515 8070
3019.04-1711 11563 8196-1878 5148 25899
3021.93 50322 49077 35984-3652-9607-12952
3024.83-37988-27812 13329 27643 12429 22909
3027.72 22325-26138-14065 1956 24109 12643
3030.61 13272 47054 26597-12084-563 12322
3033.50-35246-72747-74741-56067-38236-7118
3036.40 22171 4163 26387 31015-70110-128432
3039.29-19483 27629-37790 10557 42701 3827
3042.18 14044-7101-20660 13106 6980-37793
3045.08-41999-46334-19503 39167 27178-22715
3047.97 20993 40000 8701 4228-19231-56732
3050.86-42519-4459-11625-23411 727 25711
3053.75 75916 74401 20480-30862-40624-37880
3056.65-9817 9499-16429-11690-4804-52612
3059.54-54089-10146 12023-52277-109964-52970
3062.43 19587 18189-15299-65887-76245-73565
3065.32-60505-62831-71989-5601 20949-6003
3068.22-10463 7878 2537-66437-82778-15256
3071.11 23118-30360-41640-73742-96017-69348
3074.00-29653 26509 23995-4334 11705-6236
3076.90-35504-36152-8575-11080-25870 9406
3079.79 66917 56608 14039 18873-10523-28048
3082.68-609 12193 4862 12073 56824 42748
3085.57-27271-31058 9010 18497-26447-63670
3088.47-40946-60034-60830 2244 59617 37628
3091.36 688-2509 13010-3612 26944 34854
3094.25-24020-96991-104211-51963-12423 3339
3097.14-37962-12055-11141-45591-30927-3922
3100.04 21601 26041 10831 14056-3169 4565
3102.93 21454-4916-18540 25107 20732-1013
3105.82-14325-12360 28679 21908 38197 8680
3108.72-24524-49338-57988-39875-777-6215
3111.61-13636-1924-4027 41972 34598-22409
3114.50-23584-10987-24742-21581 2818 12187
3117.39 3664-8595-41141-51154-29939 14698
3120.29 33471 19290-1344 7899 15631 25154
3123.18 14589 16332 13355-4094-2540-19061
3126.07 5011 65813 31421-8925-27164-36246
3128.96-11782-3521 11937 91435 76740-16043
3131.86-26108-34081-77896 6226 86525 61203
3134.75 18429 11598 30460-18952-79227-60384
3137.64-9116 27241 1080 6902 50646 25669
3140.54 65178 56638-25367-2179 47617 35536
3143.43 4173-16966-12451-1016-12235-80614
3146.32-84292-36640 7383 21955 8197-10898
3149.21-11575 11758 19157 35493 38860-16488
3152.11-19710 6582 26779 54725-21062-73180
3155.00-35934 39555 63913 9560-47131-17521
3157.89 8100-32777-18118-19632-61388-54443
3160.78-23252-49821-41461 33425 54457-18455
3163.68-50664-24303 7410-13483-39290-46528
3166.57-20723 5427 53141 37290-2303 11489
3169.46 31796 12574-34731-24540-4294-4521
3172.36 22000 14582-7396-54816-83952-3336
3175.25 40106-5882-63853-34903 11118 40600
3178.14 43017 10956 23806 12374 6567 8766
3181.03-35686-93699-63176-39509-24921-27052
3183.93-35477-52014-32253-19912 9739 29219
3186.82-13858 22977 35244 2503-11044-26019
3189.71-26232-17583-24189-9139-27017-75032
3192.60-89780-21615 34657 20721-23768-41617
3195.50-64721-80999-79362-54785-4178 25555
3198.39-4425-39104-37186-72357-56922-180
3201.28 42049 84479 46679-24390-43291-59038
3204.18-28312 6306-44766-36470-23311-29133
3207.07 907 7322-23138-54946-35618 13540
3209.96 9447 10770 9287-19403-47870-22843
3212.85-2021-22719-24566-28512-56539-79736
3215.75-27398 6405-19281-47440-25121-51822
3218.64-45737-4817-1984-40046-25073-40411
3221.53-92999-66149-39651-46892-37460 6500
3224.42-2593 13946 15643-3564-30814-43502
3227.32-79581-110685-127885-97270 2337 38549
3230.21-16428-66882-49370-47182-5721-4150
3233.10-34472 3656 12049 39748 51687-5954
3236.00 3653-40015-91509-53553-6344 4979
3238.89-78236-66470 51997 45022-36313-43260
3241.78-75635-90278-33033-25944-31459-81423
3244.67-127819-129841-84787-29336 33152 17288
3247.57-767-4885-7920-27379-31206-9226
3250.46-70222-89459 1446-25181-55278-44301
3253.35-18684-1125-21148-41728-29922-21342
3256.24-52069-48758 20499 28819-20304-54576
3259.14-55939-65776-49846-10727 34936 32674
3262.03-20236-71830-38755-54184-57225-10492
3264.92-13255-54746-41587-23978 3269-10733
3267.82-38423 6113 13323 39870 32034-35860
3270.71-31782-2370 885 31166 726-34997
3273.60-13545 12507 10473 29260 30981 27398
3276.49-63946-95217-87217-64711 29040 89301
3279.39 18414-9062-27083-74038-68325 35861
3282.28 78946 39735 30765 33643 6021-26104
3285.17-17865-16621-15239-7976-30454-43419
3288.06-38299-4739 48944 35993-6593-14410
3290.96-18358 52900 33335-21487-18432-17231
3293.85-49579-16449 5654 12428 28022 3324
3296.74-18288-27193 17826-4588-22170 51312
3299.64 27242-40490-58974-64453-70463-34804
3302.53-31826-53565-18223-4223 5102-8020
3305.42-8668-24559 31732 61998-9154-19655
3308.31-34056-69225-33501-12443-37462 23730
3311.21 41453 22737 6499 18072-15853-48894
3314.10 21409 61474 53729 65265 48493-1867
3316.99 33109 90639 44981 16265 26805 8120
3319.88-28126 14953 70448 43459 47179 53288
3322.78 41959 31941 28116 19033 58824 65888
3325.67 44077 38595 51670 55574 93729 148131
3328.56 115912 47026 12929 36348-12846-78986
3331.46-106209-59433-10089-45848-39058-8074
3334.35-27789-8404 49013 58944 70967 18177
3337.24-22459-50890-94014-49900-7927-19323
3340.13-48301-39650-76729-70686-14195-20394
3343.03-49607-39942-39953-24544-3579-19859
3345.92-22898-54455-46663 34662 38279 37021
3348.81 257-50948-83445-52795-46908-42842
3351.70-4780-18468-42615-39367 20534 6223
3354.60-38391-34475-19405-27366-73393-11544
3357.49 30623-26374-44566-36393-62056-57360
3360.38 30816 54675 894 5039-7317-8292
3363.28 3566 42070 57843 16893-35211-90219
3366.17-78371-42585-32515-23094-38888 10132
3369.06 36934-71611-88242 9659 24937-34941
3371.95-4687-30352-2189 94405 8194-98946
3374.85-64865-32316-23175-85880-116871-27496
3377.74-23011-2163 91870 68532 13893 9967
3380.63 53667 61928 7358-14752-1851 12869
3383.52 61559 46552-23451-2099 9557 27444
3386.42 2450-71619-48984-29785-22186 62706
3389.31 80893 73422 114113 160567 152332 77456
3392.20 27401 10484-25253-51884-38217-33580
3395.10-23307 9893 76232 88000 7640-36402
3397.99-43888-18492 30220 10628-12237 7068
3400.88-31979-20428 1444 13795 13926-47754
3403.77-49538-7149-24161-39426-57711-50162
3406.67-17728 14542 21705-49768-109320-89980
3409.56-97391-118513-111026-85564-62377-35116
3412.45 15003-33345-74848-4417 20310-60006
3415.34-34931 14935-21743-69705-117250-47827
3418.24 64001 75788-51063-133180-83098-24619
3421.13-56027-65091-32009-2853-17738-44225
3424.02-44197-18831-16004-7507-2503 23212
3426.92 11644-54482-43555-4163-25888-53424
3429.81-95919-39142 46765 25466-34600-38485
3432.70 18697 18585 4849 26994 25885 9477
3435.59-46007-61418-55059-36050-12558 3756
3438.49 54487 26433 14042 49888 48144 37685
3441.38 57658 46309 15936-5278-61505-84835
3444.27-21291-35103-54914 40613 59434-32362
3447.16-49851 10462 3780 25770 76782 77943
3450.06 33488-243-14158 5998-77865-117030
3452.95-8182 102605 85670 38616 23515 2593
3455.84-3437 42964 49770-13900 12300 25405
3458.74-87573-63614 4867-30381-89737-62812
3461.63 22170 62195 85893 100174 42665 27573
3464.52 44664-10528-10437-60789-62882-5500
3467.41 10438 23235 9949-19332-43857-27561
3470.31-58500-45483 15884 73218 120709 66159
3473.20-8226-46120-62704-32983-42376-15990
3476.09 48073-23752-129628-109702-51296-17651
3478.98-13935-6600-14830-26026-41685-69207
3481.88-109496-79655-7954 21897 3337-66251
3484.77-46084-1493-17881-47473-77099-65403
3487.66-36798 5099 14289-57533-87467-11711
3490.56-5855-33500-27228-32459-26411 12919
3493.45 42929 37510-32932-75792-45340 3501
3496.34 27625 2313-51822-74784-40490-10264
3499.23 35268 79270 10946-67992-66941-111781
3502.13-34999 49304 33335 14779-21415-10076
3505.02 30164 15857-33527-81397-63295-47481
3507.91-88502-98393-47944-28439 5177 33255
3510.80 10441-11223-35180-53118-10666 11330
3513.70 32253 108484 63409-34101-81925-123908
3516.59-98213-82253-76321-47497-9784 9847
3519.48-22740 20168 54270 24449-14173-38459
3522.38-25585-36970-48969-2233-10112-3093
3525.27-5263-36074-3327 5386 29714 37134
3528.16-22173-41248-43235-73908-78984-78643
3531.05-54295-16775 28991 35665 21164 32110
3533.95 51380 36466-27470-63610-77321-69441
3536.84 14525 40890 44696 66709 10301 16384
3539.73 10594-53080-79063-66905-27822 23595
3542.62 82470 98980 81951 66483 9664-47377
3545.52-80956-74180-9495-13869-80586-49174
3548.41 8043-1494-16938-7338 21801 4773
3551.30-19277-41918-22957-53854-33445-44380
3554.20-21703-34385-70353-10426 46246 37464
3557.09 22064 33640 72174 75011 8801-17316
3559.98 28957 46136 26639-4311 34665 21506
3562.87 23077 66559 55347 26570-4948-18053
3565.77-28044-10162-18876-45337 7205 30802
3568.66-46060-45255 17429 2204-44211 1697
3571.55 32058 22182-9410-10981 69553 85336
3574.44 40070 11942 8596 43461 36837 54094
3577.34 53973 7230-14252 8863 14193 63699
3580.23 37629 25154 60946-13222-6197 72212
3583.12 104240 70018 49734 2167 11365 89608
3586.02 30587-5828-14361 4389 6533 8841
3588.91-1586 3189-4169 14845 29886 32108
3591.80 51318 27552 24090 55756 65211 63533
3594.69 77909 18436 1966 38196 32566 1427
3597.59-2907 46233 52432 23837 15499 10473
3600.48-1728 25157 17617 34503 77755 72957
3603.37 48131 50310 46478 27987 9947 26110
3606.26 70368 81932 52048 77060 98675 13595
3609.16-3172 85457 65994 21429 74930 82206
3612.05 5656-1206 52426 64049 64582 110873
3614.94 102598 82793 60368 31870 6583-6676
3617.84 34738 45050 46923 61773 32247-44828
3620.73 35605 106844 45338-18574 32116 78005
3623.62 52874 10816 35889 35667 4422 48803
3626.51 89429 55973-21471-80166-44377-34288
3629.41 2907 61550 66625 54354 58335 37952
3632.30 20810 38307 51307 38573 57138 49853
3635.19 30595 44238 50912 46816 37152 28780
3638.08 22902 52214 80849 63164 67855 84657
3640.98 43536 12559 23235 30735 53674 81126
3643.87 31151-18896 571-27034-26100-31146
3646.76-36382 6766 55607 22592-34026 33642
3649.66 41622 10143 34792 59620 76802 63406
3652.55 26935 6964 34355 78746 32505-57964
3655.44-83202-61269 25264 27906-6100 23291
3658.33 45565 66907 84424 86195 75818 66211
3661.23 50088 41204 17955-4307-1262 40094
3664.12 69931 76222 40656 12486 31304-6015
3667.01 26490 86782 21718-15475 15726 34268
3669.90-34064-87380 5334 65403 54718-5818
3672.80-56134-77566-71175-58491-54472-82970
3675.69-53204 49685 27665-7205-8470 15271
3678.58 62169 84908 61303 52263 83270 52582
3681.48-23 5041-15666 7193 63614 78905
3684.37 23333 39568 49097 26876 87836 103628
3687.26 50381-114995-136223-27960 32807 13079
3690.15-17113-27036 47391 96867 41500 12869
3693.05 36440 9062-19696 35323 82514 44289
3695.94 6653 41143 112382 87582 67785 66974
3698.83 32676 47192 26558 2223-22274-85982
3701.72-72611 19823 64986 16682 17736 65078
3704.62 54926 33958 34711 49343 70387 45064
3707.51 17983 95445 96975 35470-17016-11798
3710.40-16982 8168-5268-77697-33853 8878
3713.30 20451-14400-37522-34623 22589 83393
3716.19 53423 82902 113258 56635-1063 32287
3719.08 76469 66345 34266 6990-3470-19364
3721.97 39455 60775 25867 47633 78964 78212
3724.87 50037 41624 8988 61524 111208 58807
3727.76 40405 34184 3303 12091 46646 45941
3730.65 27069 15092-878 37441 41025 63027
3733.54 65923-7447-31658-12268 2386-46911
3736.44-49618 7579 48052 30546 18774 17556
3739.33-5941 6329 64479 37487-1064 48273
3742.22 40730-5910-26016-112983-158849-86618
3745.12 24585 96195 84893 19000 3070 39657
3748.01 52976-51466-149317-51471 19517 10351
3750.90 6114-102132-144423-15043 49732 16280
3753.79 25905 68609 61017 24626 27220-4670
3756.69-11027 34542 32897 31175 54488 57238
3759.58 21169 59079 73012 13513 27262 21867
3762.47 60913 102848 59604-5319 3309 3741
3765.36-41132-18191 24827 13269 36679 111157
3768.26 146948 114949 35649 26974 67959 57582
3771.15 63310 103989 84290 100954 145922 76010
3774.04 40005 14328-15686-30526 8430 76363
3776.94 83040 58526 51535 59009 4781 21710
3779.83 40971 30905 47935 88599 100772 26027
3782.72-36820 5567 23865-36651-8285 14193
3785.61 23406 66153 51146 20739 10367 54757
3788.51 49752 38147 36404 48433 59014 32842
3791.40 40170 106105 121097 87150 69207 43134
3794.29 23323 67652 115819 102348 87658 89897
3797.18 70117 71906 63415 5516-22467-1163
3800.08 36397-44549-112402 29331 131484 119226
3802.97 32865-4374 16226 64430 89988 82692
3805.86 32958-77679-76008-5573 31056 2267
3808.76-17525 2811 15680 58889 84493 63370
3811.65 65930-5930-8630 44083 32042 33179
3814.54 14353-52129-151229-127325 13152 67696
3817.43 33847 61812 58525-25672-27623-16092
3820.33-17433 14708 41092 87892 96151 81282
3823.22 30607 7811-2364 18073 43787 32605
3826.11 24424 93050 72651 43048 48061 35762
3829.00 17754 22050 44679 12058-51938-33208
3831.90 49178 49367 10616-2787-18451-64461
3834.79-66779-8069 32808 70859 3879-156867
3837.68-129544-12286 46182 46010 49357 22272
3840.58 8076 60459 74731 57764 2916-30879
3843.47 26522 115796 87628 27992-8548 32965
3846.36 24821-9723-20950-36088-15719 30377
3849.25 44263 17149 25133 44659-42273-96009
3852.15-18471-12476-78494-223288-215030-52648
3855.04 31534 37808 64238 98702 89740 75638
3857.93 67764 84526 96260 59288 42559 15683
3860.82-26842-28939 40973 90963 36469 8921
3863.72 23864 18549 15298 45531 44561 19625
3866.61 36534 22328-31952-52376-108591-92608
3869.50-66247-13803 2970 3230 43247 52964
3872.40 43876 18466-19356-13413 13158 26348
3875.29 58332 45743 33006 18709 26127 47082
3878.18 4106-25077-18553-58504-31489 30693
3881.07 4154 27534 85117 64533-5771-27356
3883.97-26000 1811-2601 3445 48162 64380
3886.86 54377 63337 83289 62705 18313-27108
3889.75-24152-41521-57701-55814-44298 20951
3892.64 64472-5297-6053-19483-38818-8066
3895.54 19754 65927 82408 103830 36406-32693
3898.43-18144-22949 16398 73482 67240 8459
3901.32-46013-39989 48997 69147-1096-70848
3904.22-66609-12032-39685-22997 48289 42023
3907.11 39281 56238 12423 21975 39246 52958
3910.00 44118 33678 39307 63866 54360 32776
3912.89 9925 17135 54896 61744 42141 2625
3915.79 3726 18630 2367 21121 80594 23472
3918.68-48504-65794-43089 16698 17470 2974
3921.57 28535 11153-39362-15701 6944 11902
3924.46 28695 17791 27200 9223 20263 89463
3927.36 108354 109789 83116 38687 35177 18477
3930.25 9183 32285 33759-22211-23345 31597
3933.14 44042 17001 27644 68914 111467 103653
3936.04 56051 49752 90266 63949 27548 48791
3938.93 65775 48755 76573 85119 36672-2074
3941.82 12489 50538 47135 51496 80629 53112
3944.71 54805 30681-10112 23442 33281 23577
3947.61-11269 5065 62736 45243 13856 53987
3950.50 96876 58343-7760 3262 29044 5933
3953.39 24948 43424 70098 76407 21924 4173
3956.28 49175 51918 29078 17047 34932 26391
3959.18-5164 2626 34447 88195 81063 44960
3962.07 58822 36063 34559 25159 1779-55253
3964.96-38894-28430 21651 44024 55287 91267
3967.86 60183 19826 13621 20417 25983 19908
3970.75 19180 22658 40252 42770 24030-46461
3973.64-69811 16006
##END=
