##TITLE=Silane, dichlorodimethyl-,
##JCAMP-DX=4.24
##DATA TYPE=INFRARED SPECTRUM
##CLASS=COBLENTZ III
##ORIGIN=DOW CORNING CORP.
##OWNER=Copyright (C) 1987 by the Coblentz Society
Collection (C) 2018 copyright by the U.S. Secretary of Commerce
on behalf of the United States of America. All rights reserved.
##DATE=1965/03/24
##NAMES=dichloro(dimethyl)silane
##CAS REGISTRY NO=75-78-5
##MOLFORM=C2 H6 Cl2 Si
##BP=69.6 C
##SOURCE REFERENCE=COBLENTZ NO. 5597
##$NIST SOURCE=COBLENTZ
##$NIST IMAGE=cob5597
##SPECTROMETER/DATA SYSTEM=PERKIN-ELMER 521 (GRATING)
##INSTRUMENT PARAMETERS=FILTERS AT 3150, 2500, 2000, 1150, 700, 410. GRATING CHANGES: 2000, 630
##STATE=SOLUTION (5% CCl4 FOR 3800-1300, 2% CS2 FOR 1300-550, AND 5% CCl4 FOR 600-230)
##PATH LENGTH=0.011 CM, 0.011 CM, AND 0.020 CM
##RESOLUTION=2
##XUNITS=1/CM
##YUNITS=TRANSMITTANCE
##XFACTOR=1.0
##YFACTOR=1
##FIRSTX=234
##LASTX=3814
##FIRSTY=0.8772
##MAXX=3814
##MINX=234
##MAXY=0.9364
##MINY=0.0001
##NPOINTS=3581
##XYDATA=(X++(Y..Y))
234.000000 0.8772 0.8781 0.8789 0.8798 0.8807
239.000000 0.8817 0.8826 0.8836 0.8845 0.8855
244.000000 0.8864 0.8874 0.8883 0.8889 0.8896
249.000000 0.8902 0.8908 0.8914 0.8920 0.8924
254.000000 0.8926 0.8928 0.8931 0.8933 0.8936
259.000000 0.8938 0.8940 0.8943 0.8945 0.8948
264.000000 0.8947 0.8946 0.8945 0.8944 0.8943
269.000000 0.8942 0.8941 0.8940 0.8939 0.8938
274.000000 0.8937 0.8936 0.8935 0.8934 0.8934
279.000000 0.8933 0.8932 0.8932 0.8931 0.8931
284.000000 0.8930 0.8929 0.8929 0.8928 0.8927
289.000000 0.8927 0.8926 0.8925 0.8925 0.8924
294.000000 0.8923 0.8923 0.8923 0.8922 0.8922
299.000000 0.8922 0.8921 0.8921 0.8921 0.8920
304.000000 0.8920 0.8920 0.8919 0.8919 0.8919
309.000000 0.8918 0.8916 0.8913 0.8911 0.8908
314.000000 0.8906 0.8904 0.8901 0.8899 0.8891
319.000000 0.8882 0.8874 0.8866 0.8858 0.8849
324.000000 0.8841 0.8833 0.8824 0.8816 0.8807
329.000000 0.8799 0.8790 0.8782 0.8773 0.8765
334.000000 0.8756 0.8748 0.8739 0.8730 0.8722
339.000000 0.8713 0.8705 0.8696 0.8687 0.8678
344.000000 0.8669 0.8660 0.8651 0.8641 0.8632
349.000000 0.8623 0.8614 0.8605 0.8596 0.8586
354.000000 0.8577 0.8566 0.8555 0.8543 0.8532
359.000000 0.8520 0.8509 0.8497 0.8486 0.8474
364.000000 0.8463 0.8453 0.8444 0.8435 0.8425
369.000000 0.8416 0.8407 0.8398 0.8389 0.8380
374.000000 0.8370 0.8361 0.8352 0.8349 0.8346
379.000000 0.8343 0.8340 0.8337 0.8334 0.8331
384.000000 0.8328 0.8325 0.8322 0.8319 0.8316
389.000000 0.8313 0.8310 0.8308 0.8307 0.8306
394.000000 0.8306 0.8305 0.8304 0.8303 0.8302
399.000000 0.8301 0.8300 0.8299 0.8298 0.8298
404.000000 0.8297 0.8295 0.8294 0.8293 0.8291
409.000000 0.8290 0.8289 0.8287 0.8286 0.8304
414.000000 0.8282 0.8276 0.8271 0.8265 0.8260
419.000000 0.8254 0.8249 0.8243 0.8232 0.8221
424.000000 0.8210 0.8198 0.8187 0.8176 0.8165
429.000000 0.8151 0.8130 0.8110 0.8089 0.8068
434.000000 0.8046 0.8013 0.7981 0.7949 0.7917
439.000000 0.7870 0.7809 0.7748 0.7677 0.7572
444.000000 0.7452 0.7179 0.6752 0.6409 0.6147
449.000000 0.5885 0.5485 0.5067 0.4650 0.4233
454.000000 0.3816 0.3399 0.2982 0.2565 0.2147
459.000000 0.1730 0.1313 0.0896 0.0806 0.0801
464.000000 0.0804 0.0804 0.0864 0.1711 0.2559
469.000000 0.3406 0.4253 0.5101 0.5948 0.6244
474.000000 0.6451 0.6837 0.6965 0.6989 0.7013
479.000000 0.7027 0.7036 0.7044 0.7046 0.7047
484.000000 0.7048 0.7048 0.7044 0.7040 0.7035
489.000000 0.7032 0.7024 0.7015 0.7007 0.6995
494.000000 0.6975 0.6956 0.6926 0.6885 0.6843
499.000000 0.6777 0.6707 0.6634 0.6559 0.6483
504.000000 0.6403 0.6303 0.6203 0.6096 0.5958
509.000000 0.5820 0.5689 0.5573 0.5458 0.5342
514.000000 0.5167 0.4986 0.4151 0.3840 0.3528
519.000000 0.3217 0.2905 0.2594 0.2282 0.1971
524.000000 0.1660 0.1348 0.1037 0.0725 0.0414
529.000000 0.0102 0.0003 0.0004 0.0008 0.0003
534.000000 0.0001 0.0261 0.0699 0.1137 0.1576
539.000000 0.2014 0.2452 0.2890 0.3328 0.3767
544.000000 0.4205 0.4643 0.5081 0.5520 0.5958
549.000000 0.6300 0.6409 0.6501 0.6594 0.6775
554.000000 0.6931 0.7056 0.7135 0.7201 0.7250
559.000000 0.7299 0.7347 0.7396 0.7445 0.7494
564.000000 0.7542 0.7576 0.7600 0.7619 0.7637
569.000000 0.7659 0.7681 0.7703 0.7725 0.7747
574.000000 0.7773 0.7798 0.7823 0.7844 0.7857
579.000000 0.7871 0.7884 0.7897 0.7910 0.7923
584.000000 0.7936 0.7952 0.7958 0.7966 0.7974
589.000000 0.7982 0.7990 0.7998 0.8003 0.8004
594.000000 0.8006 0.8007 0.8009 0.8014 0.8023
599.000000 0.8032 0.8041 0.8050 0.8059 0.8068
604.000000 0.8077 0.8086 0.8095 0.8103 0.8112
609.000000 0.8121 0.8130 0.8139 0.8148 0.8157
614.000000 0.8166 0.8175 0.8184 0.8193 0.8202
619.000000 0.8211 0.8220 0.8229 0.8238 0.8247
624.000000 0.8256 0.8265 0.8274 0.8283 0.8278
629.000000 0.8274 0.8270 0.8268 0.8266 0.8264
634.000000 0.8262 0.8261 0.8259 0.8257 0.8255
639.000000 0.8253 0.8252 0.8247 0.8241 0.8235
644.000000 0.8230 0.8221 0.8211 0.8201 0.8191
649.000000 0.8182 0.8173 0.8164 0.8157 0.8150
654.000000 0.8143 0.8136 0.8129 0.8123 0.8119
659.000000 0.8115 0.8098 0.8080 0.8058 0.8034
664.000000 0.8010 0.7984 0.7950 0.7933 0.7918
669.000000 0.7912 0.7904 0.7897 0.7889 0.7853
674.000000 0.7792 0.7717 0.7582 0.7409 0.7174
679.000000 0.6924 0.6529 0.6135 0.5740 0.5346
684.000000 0.4951 0.4573 0.4573 0.4574 0.4981
689.000000 0.5488 0.5996 0.6503 0.7011 0.7354
694.000000 0.7465 0.7596 0.7781 0.7988 0.8118
699.000000 0.8200 0.8303 0.8426 0.8486 0.8531
704.000000 0.8545 0.8558 0.8572 0.8585 0.8593
709.000000 0.8599 0.8606 0.8613 0.8617 0.8622
714.000000 0.8627 0.8631 0.8634 0.8637 0.8640
719.000000 0.8660 0.8680 0.8720 0.8766 0.8811
724.000000 0.8850 0.8879 0.8887 0.8895 0.8898
729.000000 0.8897 0.8895 0.8894 0.8892 0.8892
734.000000 0.8891 0.8891 0.8865 0.8889 0.8888
739.000000 0.8886 0.8885 0.8883 0.8882 0.8880
744.000000 0.8878 0.8876 0.8874 0.8872 0.8869
749.000000 0.8867 0.8865 0.8863 0.8861 0.8858
754.000000 0.8856 0.8854 0.8851 0.8849 0.8847
759.000000 0.8845 0.8842 0.8840 0.8837 0.8835
764.000000 0.8832 0.8829 0.8819 0.8808 0.8794
769.000000 0.8774 0.8747 0.8711 0.8678 0.8645
774.000000 0.8604 0.8557 0.8505 0.8449 0.8390
779.000000 0.8311 0.8230 0.8128 0.7950 0.7851
784.000000 0.7752 0.7578 0.7200 0.7079 0.6923
789.000000 0.6723 0.6611 0.6449 0.6012 0.5477
794.000000 0.4888 0.4299 0.3710 0.3120 0.2531
799.000000 0.2317 0.2297 0.2340 0.2866 0.3392
804.000000 0.3918 0.4191 0.4181 0.4096 0.3747
809.000000 0.3398 0.3050 0.2701 0.2352 0.2292
814.000000 0.2301 0.2524 0.2920 0.3315 0.3711
819.000000 0.4107 0.4502 0.4898 0.5293 0.5689
824.000000 0.5789 0.5815 0.5805 0.5643 0.5410
829.000000 0.5177 0.4945 0.4712 0.4479 0.4247
834.000000 0.4014 0.3781 0.3549 0.3316 0.3164
839.000000 0.3164 0.3168 0.4218 0.4986 0.5753
844.000000 0.6521 0.7288 0.7480 0.7564 0.7672
849.000000 0.7797 0.7999 0.8106 0.8164 0.8222
854.000000 0.8281 0.8328 0.8372 0.8416 0.8452
859.000000 0.8486 0.8520 0.8554 0.8588 0.8614
864.000000 0.8640 0.8665 0.8690 0.8713 0.8732
869.000000 0.8752 0.8771 0.8791 0.8810 0.8830
874.000000 0.8847 0.8859 0.8871 0.8883 0.8895
879.000000 0.8908 0.8920 0.8932 0.8941 0.8949
884.000000 0.8957 0.8965 0.8973 0.8981 0.8990
889.000000 0.8998 0.9006 0.9014 0.9022 0.9028
894.000000 0.9034 0.9040 0.9045 0.9051 0.9057
899.000000 0.9062 0.9069 0.9074 0.9077 0.9078
904.000000 0.9079 0.9079 0.9080 0.9081 0.9082
909.000000 0.9083 0.9083 0.9084 0.9085 0.9086
914.000000 0.9086 0.9087 0.9088 0.9088 0.9089
919.000000 0.9090 0.9090 0.9091 0.9092 0.9092
924.000000 0.9093 0.9095 0.9096 0.9098 0.9100
929.000000 0.9102 0.9104 0.9105 0.9107 0.9109
934.000000 0.9111 0.9113 0.9114 0.9116 0.9117
939.000000 0.9118 0.9119 0.9120 0.9121 0.9122
944.000000 0.9123 0.9123 0.9122 0.9121 0.9120
949.000000 0.9119 0.9118 0.9117 0.9115 0.9114
954.000000 0.9113 0.9111 0.9110 0.9109 0.9107
959.000000 0.9102 0.9096 0.9091 0.9086 0.9081
964.000000 0.9075 0.9070 0.9065 0.9060 0.9054
969.000000 0.9049 0.9044 0.9038 0.9033 0.9028
974.000000 0.9024 0.9021 0.9018 0.9015 0.9011
979.000000 0.9008 0.9005 0.9002 0.8999 0.8996
984.000000 0.8991 0.8987 0.8983 0.8979 0.8975
989.000000 0.8971 0.8970 0.8971 0.8973 0.8975
994.000000 0.8976 0.8978 0.8980 0.8982 0.8985
999.000000 0.8987 0.8990 0.8990 0.8989 0.8988
1004.000000 0.8988 0.8987 0.8986 0.8985 0.8984
1009.000000 0.8983 0.8982 0.8981 0.8980 0.8980
1014.000000 0.8979 0.8978 0.8977 0.8976 0.8974
1019.000000 0.8972 0.8969 0.8966 0.8964 0.8961
1024.000000 0.8958 0.8956 0.8953 0.8950 0.8948
1029.000000 0.8945 0.8940 0.8936 0.8931 0.8926
1034.000000 0.8922 0.8917 0.8913 0.8906 0.8898
1039.000000 0.8891 0.8883 0.8876 0.8868 0.8861
1044.000000 0.8853 0.8846 0.8839 0.8831 0.8823
1049.000000 0.8814 0.8805 0.8797 0.8788 0.8779
1054.000000 0.8771 0.8762 0.8754 0.8745 0.8740
1059.000000 0.8736 0.8732 0.8728 0.8723 0.8719
1064.000000 0.8715 0.8711 0.8708 0.8706 0.8703
1069.000000 0.8701 0.8698 0.8696 0.8693 0.8691
1074.000000 0.8689 0.8686 0.8686 0.8685 0.8685
1079.000000 0.8684 0.8683 0.8685 0.8687 0.8687
1084.000000 0.8687 0.8688 0.8688 0.8688 0.8656
1089.000000 0.8688 0.8688 0.8689 0.8691 0.8694
1094.000000 0.8696 0.8698 0.8700 0.8702 0.8704
1099.000000 0.8706 0.8710 0.8716 0.8722 0.8728
1104.000000 0.8735 0.8742 0.8749 0.8756 0.8764
1109.000000 0.8771 0.8778 0.8786 0.8794 0.8801
1114.000000 0.8809 0.8817 0.8824 0.8832 0.8840
1119.000000 0.8848 0.8855 0.8863 0.8871 0.8879
1124.000000 0.8887 0.8895 0.8904 0.8912 0.8920
1129.000000 0.8928 0.8935 0.8941 0.8948 0.8955
1134.000000 0.8962 0.8968 0.8975 0.8982 0.8987
1139.000000 0.8991 0.8996 0.9001 0.9005 0.9010
1144.000000 0.9015 0.9019 0.9024 0.9027 0.9028
1149.000000 0.9030 0.9032 0.9034 0.9036 0.9039
1154.000000 0.9041 0.9044 0.9046 0.9049 0.9051
1159.000000 0.9052 0.9052 0.9053 0.9053 0.9053
1164.000000 0.9054 0.9054 0.9054 0.9055 0.9055
1169.000000 0.9056 0.9056 0.9056 0.9050 0.9057
1174.000000 0.9057 0.9057 0.9057 0.9057 0.9057
1179.000000 0.9057 0.9058 0.9058 0.9058 0.9058
1184.000000 0.9058 0.9057 0.9053 0.9049 0.9046
1189.000000 0.9042 0.9038 0.9035 0.9031 0.9027
1194.000000 0.9024 0.9020 0.9016 0.9013 0.9009
1199.000000 0.9005 0.9000 0.8994 0.8988 0.8982
1204.000000 0.8976 0.8970 0.8964 0.8957 0.8951
1209.000000 0.8945 0.8937 0.8927 0.8917 0.8907
1214.000000 0.8897 0.8887 0.8877 0.8867 0.8857
1219.000000 0.8846 0.8836 0.8826 0.8810 0.8793
1224.000000 0.8776 0.8759 0.8743 0.8722 0.8700
1229.000000 0.8678 0.8656 0.8635 0.8613 0.8591
1234.000000 0.8569 0.8545 0.8512 0.8478 0.8445
1239.000000 0.8411 0.8378 0.8345 0.8300 0.8246
1244.000000 0.8192 0.8139 0.8076 0.8011 0.7946
1249.000000 0.7264 0.6859 0.6453 0.6048 0.5642
1254.000000 0.5237 0.4749 0.4753 0.4803 0.5164
1259.000000 0.5526 0.5887 0.6248 0.6610 0.6971
1264.000000 0.7333 0.7694 0.8056 0.8258 0.8367
1269.000000 0.8452 0.8506 0.8555 0.8592 0.8625
1274.000000 0.8657 0.8687 0.8718 0.8741 0.8763
1279.000000 0.8786 0.8805 0.8823 0.8834 0.8846
1284.000000 0.8857 0.8865 0.8871 0.8877 0.8887
1289.000000 0.8897 0.8907 0.8917 0.8936 0.8955
1294.000000 0.8976 0.9007 0.9038 0.9068 0.9093
1299.000000 0.9116 0.9140 0.9163 0.9176 0.9188
1304.000000 0.9194 0.9193 0.9194 0.9191 0.9190
1309.000000 0.9189 0.9188 0.9187 0.9186 0.9185
1314.000000 0.9183 0.9182 0.9181 0.9178 0.9175
1319.000000 0.9172 0.9167 0.9161 0.9155 0.9147
1324.000000 0.9136 0.9125 0.9115 0.9106 0.9098
1329.000000 0.9090 0.9082 0.9073 0.9065 0.9058
1334.000000 0.9050 0.9043 0.9035 0.9028 0.9020
1339.000000 0.9017 0.9014 0.9010 0.9007 0.9001
1344.000000 0.8996 0.8991 0.8986 0.8981 0.8975
1349.000000 0.8967 0.8960 0.8952 0.8944 0.8937
1354.000000 0.8921 0.8904 0.8888 0.8868 0.8849
1359.000000 0.8829 0.8805 0.8780 0.8754 0.8728
1364.000000 0.8702 0.8677 0.8653 0.8634 0.8615
1369.000000 0.8596 0.8575 0.8543 0.8512 0.8479
1374.000000 0.8443 0.8407 0.8372 0.8329 0.8285
1379.000000 0.8240 0.8195 0.8139 0.8084 0.8028
1384.000000 0.7959 0.7889 0.7808 0.7683 0.7557
1389.000000 0.7429 0.7299 0.7170 0.7040 0.6911
1394.000000 0.6781 0.6651 0.6522 0.6465 0.6452
1399.000000 0.6520 0.6668 0.6816 0.6964 0.7112
1404.000000 0.7260 0.7408 0.7556 0.7705 0.7853
1409.000000 0.8001 0.8149 0.8297 0.8432 0.8484
1414.000000 0.8528 0.8560 0.8591 0.8615 0.8640
1419.000000 0.8664 0.8689 0.8709 0.8729 0.8749
1424.000000 0.8767 0.8784 0.8799 0.8805 0.8811
1429.000000 0.8817 0.8823 0.8828 0.8834 0.8840
1434.000000 0.8845 0.8851 0.8855 0.8897 0.8864
1439.000000 0.8868 0.8872 0.8877 0.8881 0.8885
1444.000000 0.8888 0.8891 0.8895 0.8898 0.8901
1449.000000 0.8905 0.8908 0.8911 0.8915 0.8918
1454.000000 0.8922 0.8926 0.8929 0.8933 0.8937
1459.000000 0.8940 0.8944 0.8947 0.8951 0.8955
1464.000000 0.8958 0.8961 0.8965 0.8968 0.8972
1469.000000 0.8975 0.8979 0.8982 0.8986 0.8989
1474.000000 0.8992 0.8993 0.8994 0.8995 0.8996
1479.000000 0.8997 0.8998 0.8999 0.9000 0.9001
1484.000000 0.9002 0.9004 0.9004 0.9005 0.9005
1489.000000 0.9006 0.9006 0.9007 0.9008 0.9008
1494.000000 0.9009 0.9009 0.9010 0.9010 0.9011
1499.000000 0.9012 0.9012 0.9013 0.9013 0.9014
1504.000000 0.9015 0.9015 0.9016 0.9016 0.9017
1509.000000 0.9017 0.9017 0.9017 0.9017 0.9017
1514.000000 0.9018 0.9018 0.9018 0.9018 0.9018
1519.000000 0.9018 0.9018 0.9018 0.9018 0.9018
1524.000000 0.9018 0.9018 0.9018 0.9018 0.9018
1529.000000 0.9018 0.9018 0.9018 0.9018 0.9018
1534.000000 0.9018 0.9018 0.9018 0.9018 0.9018
1539.000000 0.9018 0.9018 0.9018 0.9018 0.9018
1544.000000 0.9018 0.9018 0.9018 0.9019 0.9019
1549.000000 0.9019 0.9020 0.9020 0.9020 0.9020
1554.000000 0.9021 0.9021 0.9021 0.9022 0.9022
1559.000000 0.9022 0.9023 0.9023 0.9023 0.9024
1564.000000 0.9024 0.9024 0.9024 0.9025 0.9025
1569.000000 0.9025 0.9026 0.9026 0.9026 0.9026
1574.000000 0.9027 0.9027 0.9027 0.9028 0.9028
1579.000000 0.9028 0.9028 0.9029 0.9029 0.9029
1584.000000 0.9030 0.9030 0.9031 0.9031 0.9032
1589.000000 0.9032 0.9033 0.9033 0.9034 0.9034
1594.000000 0.9034 0.9035 0.9035 0.9036 0.9036
1599.000000 0.9037 0.9037 0.9038 0.9038 0.9039
1604.000000 0.9039 0.9040 0.9040 0.9041 0.9041
1609.000000 0.9042 0.9043 0.9043 0.9044 0.9044
1614.000000 0.9045 0.9045 0.9046 0.9046 0.9047
1619.000000 0.9048 0.9048 0.9049 0.9049 0.9050
1624.000000 0.9050 0.9051 0.9051 0.9052 0.9052
1629.000000 0.9053 0.9053 0.9054 0.9054 0.9054
1634.000000 0.9055 0.9055 0.9056 0.9056 0.9056
1639.000000 0.9057 0.9057 0.9058 0.9058 0.9059
1644.000000 0.9059 0.9059 0.9060 0.9060 0.9061
1649.000000 0.9061 0.9061 0.9062 0.9061 0.9061
1654.000000 0.9061 0.9061 0.9060 0.9060 0.9060
1659.000000 0.9060 0.9059 0.9059 0.9059 0.9059
1664.000000 0.9058 0.9058 0.9058 0.9058 0.9057
1669.000000 0.9057 0.9057 0.9057 0.9057 0.9057
1674.000000 0.9057 0.9058 0.9058 0.9058 0.9058
1679.000000 0.9058 0.9058 0.9058 0.9058 0.9059
1684.000000 0.9058 0.9057 0.9055 0.9053 0.9052
1689.000000 0.9050 0.9048 0.9046 0.9045 0.9043
1694.000000 0.9041 0.9039 0.9038 0.9036 0.9032
1699.000000 0.9028 0.9023 0.9019 0.9015 0.9010
1704.000000 0.9006 0.9002 0.8999 0.8996 0.8992
1709.000000 0.8989 0.8986 0.8982 0.8978 0.8974
1714.000000 0.8970 0.8965 0.8966 0.8966 0.8967
1719.000000 0.8968 0.8968 0.8969 0.8970 0.8972
1724.000000 0.8974 0.8976 0.8978 0.8981 0.8986
1729.000000 0.8992 0.8997 0.9003 0.9010 0.9018
1734.000000 0.9025 0.9032 0.9040 0.9047 0.9052
1739.000000 0.9055 0.9057 0.9059 0.9062 0.9064
1744.000000 0.9066 0.9067 0.9069 0.9070 0.9071
1749.000000 0.9072 0.9074 0.9074 0.9075 0.9076
1754.000000 0.9077 0.9077 0.9078 0.9078 0.9079
1759.000000 0.9079 0.9079 0.9079 0.9080 0.9080
1764.000000 0.9080 0.9081 0.9081 0.9081 0.9082
1769.000000 0.9082 0.9082 0.9083 0.9083 0.9083
1774.000000 0.9084 0.9085 0.9086 0.9088 0.9089
1779.000000 0.9090 0.9091 0.9093 0.9094 0.9095
1784.000000 0.9097 0.9098 0.9099 0.9101 0.9102
1789.000000 0.9103 0.9105 0.9106 0.9107 0.9107
1794.000000 0.9108 0.9108 0.9108 0.9109 0.9109
1799.000000 0.9109 0.9110 0.9110 0.9111 0.9111
1804.000000 0.9111 0.9112 0.9112 0.9113 0.9113
1809.000000 0.9113 0.9114 0.9114 0.9115 0.9115
1814.000000 0.9115 0.9116 0.9116 0.9117 0.9118
1819.000000 0.9118 0.9119 0.9120 0.9120 0.9121
1824.000000 0.9122 0.9123 0.9123 0.9124 0.9125
1829.000000 0.9124 0.9122 0.9121 0.9120 0.9119
1834.000000 0.9117 0.9116 0.9115 0.9114 0.9112
1839.000000 0.9111 0.9110 0.9109 0.9107 0.9106
1844.000000 0.9105 0.9104 0.9102 0.9101 0.9100
1849.000000 0.9099 0.9098 0.9096 0.9095 0.9093
1854.000000 0.9092 0.9091 0.9089 0.9088 0.9086
1859.000000 0.9085 0.9083 0.9082 0.9081 0.9079
1864.000000 0.9078 0.9076 0.9075 0.9074 0.9072
1869.000000 0.9071 0.9069 0.9068 0.9066 0.9064
1874.000000 0.9061 0.9059 0.9057 0.9054 0.9052
1879.000000 0.9050 0.9047 0.9045 0.9043 0.9040
1884.000000 0.9038 0.9036 0.9034 0.9032 0.9030
1889.000000 0.9028 0.9026 0.9024 0.9022 0.9020
1894.000000 0.9018 0.9016 0.9014 0.9012 0.9011
1899.000000 0.9009 0.9007 0.9006 0.9004 0.9002
1904.000000 0.9001 0.8999 0.8997 0.8994 0.8992
1909.000000 0.8990 0.8987 0.8985 0.8982 0.8980
1914.000000 0.8977 0.8973 0.8968 0.8964 0.8960
1919.000000 0.8956 0.8951 0.8946 0.8940 0.8934
1924.000000 0.8927 0.8921 0.8915 0.8908 0.8902
1929.000000 0.8897 0.8891 0.8886 0.8881 0.8875
1934.000000 0.8869 0.8862 0.8856 0.8845 0.8829
1939.000000 0.8823 0.8820 0.8818 0.8794 0.8822
1944.000000 0.8832 0.8841 0.8851 0.8861 0.8872
1949.000000 0.8883 0.8895 0.8908 0.8921 0.8938
1954.000000 0.8955 0.8973 0.8992 0.9010 0.9028
1959.000000 0.9043 0.9052 0.9059 0.9062 0.9066
1964.000000 0.9070 0.9072 0.9074 0.9076 0.9078
1969.000000 0.9080 0.9082 0.9085 0.9088 0.9091
1974.000000 0.9094 0.9098 0.9101 0.9105 0.9104
1979.000000 0.9112 0.9116 0.9121 0.9130 0.9140
1984.000000 0.9156 0.9173 0.9189 0.9206 0.9225
1989.000000 0.9243 0.9261 0.9279 0.9301 0.9324
1994.000000 0.9341 0.9353 0.9364 0.9362 0.9343
1999.000000 0.9324 0.9305 0.9286 0.9268 0.9266
2004.000000 0.9265 0.9263 0.9262 0.9261 0.9261
2009.000000 0.9261 0.9261 0.9261 0.9261 0.9261
2014.000000 0.9261 0.9261 0.9261 0.9261 0.9261
2019.000000 0.9261 0.9262 0.9262 0.9263 0.9263
2024.000000 0.9264 0.9264 0.9265 0.9264 0.9263
2029.000000 0.9262 0.9262 0.9261 0.9260 0.9258
2034.000000 0.9257 0.9253 0.9249 0.9245 0.9242
2039.000000 0.9237 0.9233 0.9226 0.9220 0.9213
2044.000000 0.9207 0.9200 0.9194 0.9188 0.9183
2049.000000 0.9177 0.9172 0.9167 0.9141 0.9161
2054.000000 0.9160 0.9159 0.9158 0.9157 0.9156
2059.000000 0.9158 0.9160 0.9162 0.9165 0.9167
2064.000000 0.9170 0.9180 0.9191 0.9203 0.9215
2069.000000 0.9226 0.9238 0.9240 0.9243 0.9244
2074.000000 0.9246 0.9247 0.9248 0.9249 0.9250
2079.000000 0.9251 0.9253 0.9254 0.9255 0.9257
2084.000000 0.9259 0.9260 0.9262 0.9264 0.9266
2089.000000 0.9268 0.9270 0.9271 0.9273 0.9275
2094.000000 0.9277 0.9277 0.9277 0.9277 0.9278
2099.000000 0.9278 0.9278 0.9278 0.9279 0.9279
2104.000000 0.9280 0.9280 0.9280 0.9280 0.9281
2109.000000 0.9281 0.9281 0.9281 0.9282 0.9282
2114.000000 0.9283 0.9283 0.9283 0.9283 0.9284
2119.000000 0.9284 0.9284 0.9284 0.9285 0.9285
2124.000000 0.9286 0.9286 0.9287 0.9287 0.9288
2129.000000 0.9288 0.9289 0.9289 0.9289 0.9289
2134.000000 0.9290 0.9290 0.9291 0.9291 0.9292
2139.000000 0.9292 0.9293 0.9293 0.9294 0.9294
2144.000000 0.9295 0.9295 0.9295 0.9295 0.9296
2149.000000 0.9296 0.9297 0.9298 0.9299 0.9300
2154.000000 0.9301 0.9302 0.9303 0.9304 0.9305
2159.000000 0.9306 0.9307 0.9308 0.9309 0.9309
2164.000000 0.9310 0.9311 0.9312 0.9313 0.9314
2169.000000 0.9315 0.9316 0.9317 0.9318 0.9319
2174.000000 0.9320 0.9320 0.9320 0.9320 0.9321
2179.000000 0.9321 0.9321 0.9321 0.9322 0.9322
2184.000000 0.9322 0.9322 0.9323 0.9323 0.9323
2189.000000 0.9323 0.9324 0.9323 0.9323 0.9323
2194.000000 0.9323 0.9322 0.9322 0.9322 0.9322
2199.000000 0.9321 0.9321 0.9321 0.9322 0.9323
2204.000000 0.9324 0.9324 0.9325 0.9325 0.9326
2209.000000 0.9327 0.9328 0.9328 0.9329 0.9329
2214.000000 0.9330 0.9330 0.9330 0.9330 0.9331
2219.000000 0.9331 0.9332 0.9332 0.9333 0.9333
2224.000000 0.9333 0.9333 0.9334 0.9334 0.9335
2229.000000 0.9335 0.9336 0.9336 0.9336 0.9337
2234.000000 0.9338 0.9339 0.9340 0.9341 0.9342
2239.000000 0.9343 0.9344 0.9345 0.9346 0.9347
2244.000000 0.9348 0.9349 0.9350 0.9351 0.9352
2249.000000 0.9353 0.9354 0.9354 0.9355 0.9355
2254.000000 0.9356 0.9356 0.9356 0.9356 0.9356
2259.000000 0.9356 0.9356 0.9356 0.9356 0.9356
2264.000000 0.9356 0.9356 0.9356 0.9356 0.9356
2269.000000 0.9356 0.9356 0.9356 0.9356 0.9356
2274.000000 0.9356 0.9355 0.9355 0.9355 0.9355
2279.000000 0.9355 0.9355 0.9355 0.9355 0.9355
2284.000000 0.9355 0.9355 0.9355 0.9355 0.9355
2289.000000 0.9354 0.9354 0.9354 0.9354 0.9353
2294.000000 0.9353 0.9352 0.9352 0.9351 0.9351
2299.000000 0.9351 0.9351 0.9350 0.9350 0.9349
2304.000000 0.9349 0.9348 0.9348 0.9347 0.9347
2309.000000 0.9346 0.9346 0.9345 0.9345 0.9344
2314.000000 0.9343 0.9342 0.9342 0.9341 0.9340
2319.000000 0.9339 0.9338 0.9337 0.9336 0.9335
2324.000000 0.9335 0.9334 0.9333 0.9332 0.9331
2329.000000 0.9330 0.9330 0.9329 0.9328 0.9327
2334.000000 0.9326 0.9325 0.9325 0.9324 0.9323
2339.000000 0.9322 0.9321 0.9320 0.9319 0.9318
2344.000000 0.9317 0.9316 0.9316 0.9315 0.9314
2349.000000 0.9313 0.9312 0.9311 0.9310 0.9309
2354.000000 0.9308 0.9307 0.9306 0.9305 0.9304
2359.000000 0.9303 0.9302 0.9301 0.9300 0.9299
2364.000000 0.9298 0.9297 0.9296 0.9295 0.9294
2369.000000 0.9293 0.9292 0.9291 0.9290 0.9289
2374.000000 0.9288 0.9287 0.9286 0.9285 0.9284
2379.000000 0.9283 0.9282 0.9281 0.9280 0.9279
2384.000000 0.9278 0.9277 0.9276 0.9275 0.9275
2389.000000 0.9274 0.9273 0.9272 0.9271 0.9270
2394.000000 0.9269 0.9268 0.9267 0.9266 0.9265
2399.000000 0.9264 0.9263 0.9262 0.9261 0.9260
2404.000000 0.9259 0.9258 0.9257 0.9256 0.9255
2409.000000 0.9254 0.9253 0.9251 0.9250 0.9248
2414.000000 0.9247 0.9246 0.9245 0.9243 0.9242
2419.000000 0.9241 0.9240 0.9238 0.9237 0.9235
2424.000000 0.9234 0.9233 0.9232 0.9230 0.9229
2429.000000 0.9228 0.9227 0.9225 0.9224 0.9223
2434.000000 0.9222 0.9220 0.9219 0.9217 0.9216
2439.000000 0.9215 0.9214 0.9212 0.9211 0.9210
2444.000000 0.9209 0.9207 0.9206 0.9204 0.9203
2449.000000 0.9202 0.9201 0.9199 0.9198 0.9197
2454.000000 0.9196 0.9195 0.9194 0.9192 0.9191
2459.000000 0.9190 0.9189 0.9188 0.9187 0.9186
2464.000000 0.9185 0.9183 0.9182 0.9181 0.9180
2469.000000 0.9179 0.9178 0.9176 0.9175 0.9174
2474.000000 0.9173 0.9172 0.9171 0.9169 0.9168
2479.000000 0.9167 0.9166 0.9165 0.9164 0.9162
2484.000000 0.9161 0.9160 0.9159 0.9158 0.9157
2489.000000 0.9155 0.9154 0.9153 0.9152 0.9151
2494.000000 0.9150 0.9149 0.9149 0.9149 0.9149
2499.000000 0.9148 0.9148 0.9147 0.9147 0.9146
2504.000000 0.9146 0.9145 0.9145 0.9144 0.9144
2509.000000 0.9143 0.9143 0.9142 0.9142 0.9141
2514.000000 0.9141 0.9141 0.9141 0.9141 0.9142
2519.000000 0.9142 0.9142 0.9142 0.9142 0.9142
2524.000000 0.9142 0.9142 0.9142 0.9142 0.9142
2529.000000 0.9142 0.9142 0.9142 0.9142 0.9142
2534.000000 0.9143 0.9143 0.9143 0.9143 0.9143
2539.000000 0.9143 0.9143 0.9143 0.9143 0.9143
2544.000000 0.9143 0.9143 0.9143 0.9143 0.9143
2549.000000 0.9143 0.9143 0.9143 0.9144 0.9144
2554.000000 0.9144 0.9144 0.9144 0.9144 0.9144
2559.000000 0.9144 0.9144 0.9144 0.9144 0.9144
2564.000000 0.9144 0.9144 0.9144 0.9143 0.9143
2569.000000 0.9143 0.9143 0.9142 0.9142 0.9142
2574.000000 0.9142 0.9141 0.9141 0.9141 0.9141
2579.000000 0.9140 0.9140 0.9140 0.9140 0.9139
2584.000000 0.9139 0.9139 0.9139 0.9138 0.9138
2589.000000 0.9138 0.9138 0.9137 0.9137 0.9137
2594.000000 0.9137 0.9136 0.9136 0.9136 0.9136
2599.000000 0.9135 0.9135 0.9134 0.9134 0.9134
2604.000000 0.9134 0.9133 0.9133 0.9132 0.9132
2609.000000 0.9131 0.9131 0.9131 0.9131 0.9130
2614.000000 0.9130 0.9130 0.9130 0.9130 0.9130
2619.000000 0.9129 0.9129 0.9129 0.9129 0.9129
2624.000000 0.9129 0.9129 0.9129 0.9129 0.9129
2629.000000 0.9128 0.9128 0.9128 0.9128 0.9128
2634.000000 0.9128 0.9128 0.9128 0.9127 0.9127
2639.000000 0.9127 0.9127 0.9126 0.9126 0.9125
2644.000000 0.9125 0.9125 0.9125 0.9124 0.9124
2649.000000 0.9123 0.9123 0.9123 0.9123 0.9122
2654.000000 0.9122 0.9121 0.9121 0.9120 0.9120
2659.000000 0.9120 0.9120 0.9119 0.9119 0.9118
2664.000000 0.9118 0.9117 0.9116 0.9115 0.9114
2669.000000 0.9113 0.9112 0.9111 0.9110 0.9109
2674.000000 0.9108 0.9107 0.9106 0.9105 0.9104
2679.000000 0.9103 0.9103 0.9102 0.9101 0.9100
2684.000000 0.9099 0.9098 0.9097 0.9096 0.9095
2689.000000 0.9094 0.9094 0.9093 0.9092 0.9091
2694.000000 0.9090 0.9089 0.9089 0.9088 0.9087
2699.000000 0.9086 0.9086 0.9085 0.9084 0.9083
2704.000000 0.9082 0.9081 0.9080 0.9078 0.9077
2709.000000 0.9076 0.9075 0.9074 0.9073 0.9071
2714.000000 0.9070 0.9069 0.9068 0.9066 0.9065
2719.000000 0.9064 0.9063 0.9062 0.9061 0.9059
2724.000000 0.9058 0.9057 0.9056 0.9054 0.9053
2729.000000 0.9052 0.9051 0.9049 0.9047 0.9044
2734.000000 0.9041 0.9038 0.9036 0.9033 0.9031
2739.000000 0.9028 0.9025 0.9022 0.9020 0.9017
2744.000000 0.9014 0.9011 0.9009 0.9006 0.9004
2749.000000 0.9001 0.8998 0.8995 0.8993 0.8990
2754.000000 0.8987 0.8984 0.8981 0.8978 0.8975
2759.000000 0.8972 0.8969 0.8966 0.8963 0.8960
2764.000000 0.8957 0.8954 0.8951 0.8948 0.8945
2769.000000 0.8942 0.8939 0.8936 0.8933 0.8930
2774.000000 0.8927 0.8924 0.8921 0.8918 0.8915
2779.000000 0.8912 0.8909 0.8906 0.8903 0.8900
2784.000000 0.8897 0.8894 0.8891 0.8888 0.8885
2789.000000 0.8882 0.8880 0.8877 0.8874 0.8872
2794.000000 0.8871 0.8869 0.8868 0.8867 0.8866
2799.000000 0.8864 0.8863 0.8862 0.8861 0.8859
2804.000000 0.8858 0.8857 0.8856 0.8854 0.8853
2809.000000 0.8852 0.8851 0.8849 0.8847 0.8844
2814.000000 0.8842 0.8840 0.8838 0.8835 0.8833
2819.000000 0.8830 0.8828 0.8825 0.8823 0.8821
2824.000000 0.8819 0.8816 0.8814 0.8811 0.8809
2829.000000 0.8806 0.8804 0.8799 0.8795 0.8791
2834.000000 0.8787 0.8782 0.8778 0.8774 0.8770
2839.000000 0.8765 0.8761 0.8756 0.8752 0.8748
2844.000000 0.8744 0.8739 0.8735 0.8730 0.8725
2849.000000 0.8720 0.8715 0.8710 0.8706 0.8701
2854.000000 0.8696 0.8691 0.8686 0.8681 0.8677
2859.000000 0.8672 0.8668 0.8664 0.8661 0.8657
2864.000000 0.8654 0.8650 0.8647 0.8643 0.8640
2869.000000 0.8636 0.8632 0.8628 0.8625 0.8621
2874.000000 0.8618 0.8614 0.8611 0.8607 0.8604
2879.000000 0.8599 0.8595 0.8591 0.8587 0.8582
2884.000000 0.8578 0.8573 0.8569 0.8564 0.8560
2889.000000 0.8556 0.8552 0.8547 0.8543 0.8538
2894.000000 0.8534 0.8530 0.8527 0.8524 0.8522
2899.000000 0.8519 0.8517 0.8514 0.8511 0.8508
2904.000000 0.8506 0.8504 0.8503 0.8503 0.8503
2909.000000 0.8502 0.8502 0.8502 0.8502 0.8501
2914.000000 0.8501 0.8501 0.8501 0.8500 0.8499
2919.000000 0.8498 0.8497 0.8496 0.8495 0.8494
2924.000000 0.8522 0.8492 0.8491 0.8490 0.8489
2929.000000 0.8488 0.8488 0.8483 0.8479 0.8474
2934.000000 0.8469 0.8464 0.8459 0.8448 0.8438
2939.000000 0.8425 0.8413 0.8400 0.8388 0.8375
2944.000000 0.8363 0.8346 0.8330 0.8312 0.8294
2949.000000 0.8276 0.8258 0.8217 0.8177 0.8132
2954.000000 0.8087 0.8042 0.7997 0.7951 0.7906
2959.000000 0.7861 0.7816 0.7771 0.7726 0.7680
2964.000000 0.7635 0.7590 0.7545 0.7509 0.7473
2969.000000 0.7472 0.7471 0.7476 0.7480 0.7529
2974.000000 0.7578 0.7633 0.7689 0.7744 0.7799
2979.000000 0.7854 0.7909 0.7964 0.8019 0.8074
2984.000000 0.8130 0.8185 0.8240 0.8295 0.8350
2989.000000 0.8423 0.8496 0.8517 0.8539 0.8547
2994.000000 0.8555 0.8562 0.8570 0.8575 0.8580
2999.000000 0.8581 0.8586 0.8583 0.8584 0.8584
3004.000000 0.8584 0.8582 0.8581 0.8579 0.8577
3009.000000 0.8575 0.8573 0.8571 0.8569 0.8566
3014.000000 0.8563 0.8559 0.8556 0.8552 0.8549
3019.000000 0.8545 0.8542 0.8538 0.8534 0.8530
3024.000000 0.8526 0.8522 0.8518 0.8514 0.8510
3029.000000 0.8506 0.8502 0.8498 0.8495 0.8492
3034.000000 0.8489 0.8486 0.8483 0.8479 0.8476
3039.000000 0.8473 0.8470 0.8467 0.8465 0.8464
3044.000000 0.8463 0.8462 0.8461 0.8460 0.8460
3049.000000 0.8462 0.8465 0.8468 0.8471 0.8476
3054.000000 0.8482 0.8487 0.8493 0.8500 0.8507
3059.000000 0.8514 0.8522 0.8530 0.8539 0.8549
3064.000000 0.8559 0.8568 0.8577 0.8582 0.8604
3069.000000 0.8592 0.8597 0.8598 0.8600 0.8599
3074.000000 0.8599 0.8598 0.8598 0.8598 0.8598
3079.000000 0.8597 0.8596 0.8594 0.8593 0.8591
3084.000000 0.8590 0.8588 0.8586 0.8584 0.8582
3089.000000 0.8578 0.8574 0.8569 0.8565 0.8561
3094.000000 0.8557 0.8553 0.8549 0.8544 0.8540
3099.000000 0.8536 0.8532 0.8527 0.8523 0.8518
3104.000000 0.8513 0.8508 0.8504 0.8499 0.8494
3109.000000 0.8489 0.8485 0.8480 0.8475 0.8470
3114.000000 0.8466 0.8461 0.8456 0.8451 0.8447
3119.000000 0.8442 0.8438 0.8434 0.8430 0.8426
3124.000000 0.8423 0.8420 0.8417 0.8413 0.8410
3129.000000 0.8407 0.8404 0.8400 0.8397 0.8394
3134.000000 0.8391 0.8388 0.8385 0.8381 0.8378
3139.000000 0.8378 0.8379 0.8379 0.8379 0.8379
3144.000000 0.8380 0.8380 0.8375 0.8381 0.8381
3149.000000 0.8381 0.8382 0.8383 0.8384 0.8388
3154.000000 0.8392 0.8395 0.8399 0.8403 0.8407
3159.000000 0.8411 0.8415 0.8421 0.8428 0.8434
3164.000000 0.8441 0.8447 0.8454 0.8461 0.8468
3169.000000 0.8474 0.8481 0.8487 0.8494 0.8500
3174.000000 0.8506 0.8512 0.8518 0.8524 0.8530
3179.000000 0.8536 0.8542 0.8547 0.8553 0.8558
3184.000000 0.8564 0.8569 0.8574 0.8579 0.8585
3189.000000 0.8588 0.8591 0.8594 0.8597 0.8600
3194.000000 0.8603 0.8606 0.8609 0.8612 0.8616
3199.000000 0.8620 0.8624 0.8628 0.8632 0.8636
3204.000000 0.8640 0.8644 0.8648 0.8652 0.8656
3209.000000 0.8660 0.8664 0.8668 0.8672 0.8677
3214.000000 0.8682 0.8686 0.8691 0.8696 0.8701
3219.000000 0.8705 0.8710 0.8714 0.8719 0.8723
3224.000000 0.8728 0.8732 0.8737 0.8741 0.8746
3229.000000 0.8750 0.8755 0.8759 0.8764 0.8769
3234.000000 0.8774 0.8778 0.8783 0.8786 0.8790
3239.000000 0.8793 0.8797 0.8800 0.8804 0.8807
3244.000000 0.8810 0.8813 0.8817 0.8820 0.8824
3249.000000 0.8827 0.8831 0.8833 0.8836 0.8838
3254.000000 0.8840 0.8842 0.8844 0.8846 0.8848
3259.000000 0.8850 0.8852 0.8854 0.8856 0.8858
3264.000000 0.8860 0.8861 0.8863 0.8865 0.8867
3269.000000 0.8869 0.8871 0.8873 0.8875 0.8877
3274.000000 0.8894 0.8881 0.8883 0.8885 0.8887
3279.000000 0.8889 0.8891 0.8892 0.8894 0.8896
3284.000000 0.8898 0.8900 0.8902 0.8904 0.8906
3289.000000 0.8907 0.8909 0.8911 0.8913 0.8914
3294.000000 0.8915 0.8916 0.8917 0.8918 0.8919
3299.000000 0.8920 0.8921 0.8921 0.8922 0.8923
3304.000000 0.8924 0.8925 0.8926 0.8927 0.8928
3309.000000 0.8929 0.8930 0.8931 0.8932 0.8933
3314.000000 0.8934 0.8934 0.8935 0.8936 0.8937
3319.000000 0.8938 0.8939 0.8940 0.8941 0.8942
3324.000000 0.8943 0.8944 0.8945 0.8946 0.8947
3329.000000 0.8947 0.8948 0.8948 0.8949 0.8949
3334.000000 0.8950 0.8950 0.8951 0.8952 0.8953
3339.000000 0.8953 0.8954 0.8954 0.8955 0.8955
3344.000000 0.8956 0.8956 0.8957 0.8958 0.8959
3349.000000 0.8959 0.8960 0.8960 0.8961 0.8961
3354.000000 0.8962 0.8962 0.8963 0.8964 0.8965
3359.000000 0.8965 0.8966 0.8966 0.8967 0.8967
3364.000000 0.8968 0.8968 0.8969 0.8970 0.8971
3369.000000 0.8971 0.8972 0.8972 0.8973 0.8973
3374.000000 0.8974 0.8975 0.8976 0.8976 0.8977
3379.000000 0.8977 0.8977 0.8977 0.8978 0.8978
3384.000000 0.8978 0.8978 0.8978 0.8978 0.8978
3389.000000 0.8978 0.8978 0.8978 0.8978 0.8978
3394.000000 0.8978 0.8978 0.8978 0.8978 0.8979
3399.000000 0.8979 0.8979 0.8979 0.8979 0.8979
3404.000000 0.8979 0.8979 0.8979 0.8979 0.8979
3409.000000 0.8979 0.8979 0.8979 0.8979 0.8979
3414.000000 0.8979 0.8979 0.8980 0.8980 0.8980
3419.000000 0.8980 0.8980 0.8980 0.8980 0.8980
3424.000000 0.8980 0.8980 0.8980 0.8980 0.8980
3429.000000 0.8980 0.8980 0.8980 0.8981 0.8981
3434.000000 0.8981 0.8981 0.8981 0.8981 0.8982
3439.000000 0.8982 0.8982 0.8982 0.8983 0.8983
3444.000000 0.8983 0.8983 0.8984 0.8984 0.8985
3449.000000 0.8985 0.8985 0.8985 0.8986 0.8986
3454.000000 0.8987 0.8987 0.8987 0.8987 0.8988
3459.000000 0.8988 0.8988 0.8988 0.8989 0.8989
3464.000000 0.8990 0.8990 0.8990 0.8990 0.8991
3469.000000 0.8991 0.8991 0.8991 0.8992 0.8992
3474.000000 0.8993 0.8993 0.8993 0.8993 0.8994
3479.000000 0.8994 0.8994 0.8994 0.8995 0.8995
3484.000000 0.8996 0.8996 0.8996 0.8996 0.8997
3489.000000 0.8997 0.8998 0.8998 0.8998 0.8998
3494.000000 0.8999 0.8999 0.8999 0.8999 0.8999
3499.000000 0.8999 0.9000 0.9000 0.9000 0.9000
3504.000000 0.9001 0.9001 0.9001 0.9001 0.9001
3509.000000 0.9001 0.9002 0.9002 0.9002 0.9002
3514.000000 0.9003 0.9003 0.9003 0.9003 0.9003
3519.000000 0.9003 0.9004 0.9004 0.9004 0.9004
3524.000000 0.9005 0.9005 0.9005 0.9005 0.9005
3529.000000 0.9005 0.9006 0.9006 0.9006 0.9006
3534.000000 0.9007 0.9007 0.9007 0.9007 0.9007
3539.000000 0.9007 0.9008 0.9008 0.9008 0.9008
3544.000000 0.9008 0.9008 0.9008 0.9007 0.9007
3549.000000 0.9007 0.9007 0.9007 0.9007 0.9007
3554.000000 0.9007 0.9007 0.9007 0.9007 0.9007
3559.000000 0.9007 0.9007 0.9007 0.9007 0.9007
3564.000000 0.9007 0.9007 0.9007 0.9007 0.9007
3569.000000 0.9006 0.9006 0.9006 0.9006 0.9006
3574.000000 0.9007 0.9007 0.9007 0.9007 0.9008
3579.000000 0.9008 0.9009 0.9009 0.9010 0.9010
3584.000000 0.9011 0.9011 0.9011 0.9011 0.9012
3589.000000 0.9012 0.9013 0.9013 0.9014 0.9014
3594.000000 0.9015 0.9015 0.9016 0.9016 0.9016
3599.000000 0.9016 0.9017 0.9017 0.9018 0.9018
3604.000000 0.9019 0.9019 0.9020 0.9020 0.9021
3609.000000 0.9021 0.9022 0.9022 0.9023 0.9023
3614.000000 0.9024 0.9024 0.9024 0.9024 0.9025
3619.000000 0.9025 0.9026 0.9026 0.9027 0.9027
3624.000000 0.9028 0.9028 0.9029 0.9029 0.9030
3629.000000 0.9030 0.9030 0.9029 0.9029 0.9028
3634.000000 0.9028 0.9027 0.9027 0.9026 0.9025
3639.000000 0.9024 0.9024 0.9023 0.9023 0.9022
3644.000000 0.9021 0.9020 0.9020 0.9019 0.9019
3649.000000 0.9018 0.9018 0.9017 0.9016 0.9015
3654.000000 0.9015 0.9012 0.9010 0.9007 0.9005
3659.000000 0.9002 0.8999 0.8996 0.8993 0.8990
3664.000000 0.8988 0.8985 0.8982 0.8979 0.8976
3669.000000 0.8973 0.8970 0.8967 0.8965 0.8962
3674.000000 0.8959 0.8956 0.8953 0.8953 0.8953
3679.000000 0.8953 0.8953 0.8953 0.8953 0.8952
3684.000000 0.8952 0.8952 0.8952 0.8952 0.8952
3689.000000 0.8952 0.8952 0.8951 0.8951 0.8951
3694.000000 0.8951 0.8951 0.8951 0.8950 0.8950
3699.000000 0.8950 0.8950 0.8949 0.8949 0.8949
3704.000000 0.8949 0.8948 0.8948 0.8948 0.8948
3709.000000 0.8947 0.8947 0.8947 0.8947 0.8946
3714.000000 0.8946 0.8946 0.8946 0.8946 0.8946
3719.000000 0.8947 0.8949 0.8950 0.8952 0.8953
3724.000000 0.8955 0.8956 0.8958 0.8959 0.8961
3729.000000 0.8962 0.8964 0.8965 0.8967 0.8968
3734.000000 0.8970 0.8971 0.8973 0.8974 0.8976
3739.000000 0.8977 0.8979 0.8980 0.8981 0.8982
3744.000000 0.8984 0.8985 0.8986 0.8987 0.8989
3749.000000 0.8990 0.8992 0.8990 0.8989 0.8986
3754.000000 0.8984 0.8981 0.8979 0.8976 0.8973
3759.000000 0.8966 0.8960 0.8954 0.8948 0.8942
3764.000000 0.8936 0.8930 0.8924 0.8924 0.8924
3769.000000 0.8924 0.8924 0.8924 0.8924 0.8924
3774.000000 0.8924 0.8924 0.8925 0.8925 0.8925
3779.000000 0.8925 0.8926 0.8927 0.8928 0.8928
3784.000000 0.8929 0.8930 0.8931 0.8931 0.8932
3789.000000 0.8932 0.8933 0.8934 0.8935 0.8936
3794.000000 0.8938 0.8942 0.8946 0.8950 0.8955
3799.000000 0.8959 0.8963 0.8967 0.8972 0.8976
3804.000000 0.8980 0.8984 0.8988 0.8992 0.8997
3809.000000 0.9001 0.9005 0.9009 0.9014 0.9014
3814.000000 0.9014
##END=
