##TITLE=TETRAMETHYLSILANE
##JCAMP-DX=4.24
##DATA TYPE=INFRARED SPECTRUM
##CLASS=COBLENTZ III
##ORIGIN=DOW CORNING CORP.
##OWNER=COBLENTZ SOCIETY
Collection (C) 2018 copyright by the U.S. Secretary of Commerce
on behalf of the United States of America. All rights reserved.
##DATE=1964/12/31
##CAS REGISTRY NO=75-76-3
##MOLFORM=C4 H12 Si
##BP=27.0 C
##SOURCE REFERENCE=COBLENTZ NO. 5596
##$NIST SOURCE=COBLENTZ
##$NIST IMAGE=cob5596
##SPECTROMETER/DATA SYSTEM=PERKIN-ELMER 521 (GRATING)
##INSTRUMENT PARAMETERS=FILTERS AT 3150, 2500, 2000, 1150, 700, 410. GRATING CHANGES: 2000, 630 CM^-^1
##STATE=SOLUTION (5% IN CCl4 FOR 3800-1160, 2% IN CS2 FOR 1320-500, AND 5% IN CCl4 FOR 600-230 CM^-^1)
##PATH LENGTH=0.011 CM, 0.011 CM, AND 0.021 CM
$$ SPECTRAL FEATURE AT 1320 CM^-^1 IS AN ARTIFACT CAUSED BY A CHANGE IN SOLVENT
##SAMPLING PROCEDURE=TRANSMISSION
##RESOLUTION=2
##DATA PROCESSING=DIGITIZED BY NIST FROM HARD COPY (FROM TWO SEGMENTS)
##XUNITS=1/CM
##YUNITS=TRANSMITTANCE
##XFACTOR=1.000000
##YFACTOR=1
##DELTAX=0.936222
##FIRSTX=223.054
##LASTX=3781.63
##FIRSTY=0.871
##MAXX=3781.63
##MINX=223.054
##MAXY=0.937
##MINY=0.04
##NPOINTS=3802
##XYDATA=(X++(Y..Y))
223.054000 0.8710 0.8710 0.8710 0.8720 0.8750
227.735111 0.8780 0.8800 0.8820 0.8850 0.8711
232.416222 0.8710 0.8710 0.8720 0.8750 0.8780
237.097333 0.8800 0.8820 0.8850 0.8870 0.8890
241.778444 0.8930 0.8940 0.8950 0.8970 0.8980
246.459555 0.9000 0.9010 0.9020 0.9030 0.9050
251.140666 0.9070 0.9090 0.9100 0.9120 0.9140
255.821776 0.9150 0.9160 0.9170 0.9180 0.9190
260.502887 0.9210 0.9220 0.9220 0.9230 0.9230
265.183998 0.9230 0.9240 0.9240 0.9250 0.9250
269.865109 0.9260 0.9260 0.9270 0.9270 0.9290
274.546220 0.9290 0.9300 0.9300 0.9300 0.9300
279.227331 0.9300 0.9300 0.9300 0.9300 0.9300
283.908442 0.9300 0.9290 0.9290 0.9260 0.9250
288.589553 0.9240 0.9230 0.9220 0.9220 0.9220
293.270664 0.9220 0.9230 0.9240 0.9250 0.9260
297.951775 0.9270 0.9290 0.9300 0.9300 0.9310
302.632886 0.9320 0.9330 0.9340 0.9340 0.9360
307.313997 0.9370 0.9370 0.9370 0.9370 0.9370
311.995108 0.9370 0.9370 0.9360 0.9360 0.9340
316.676219 0.9340 0.9320 0.9310 0.9300 0.9290
321.357329 0.9270 0.9260 0.9240 0.9240 0.9240
326.038440 0.9240 0.9230 0.9230 0.9230 0.9220
330.719551 0.9220 0.9220 0.9210 0.9210 0.9190
335.400662 0.9190 0.9180 0.9180 0.9170 0.9170
340.081773 0.9160 0.9150 0.9140 0.9120 0.9110
344.762884 0.9100 0.9090 0.9080 0.9050 0.9040
349.443995 0.9030 0.9020 0.9010 0.8980 0.8970
354.125106 0.8960 0.8950 0.8940 0.8930 0.8930
358.806217 0.8910 0.8900 0.8890 0.8880 0.8870
363.487328 0.8880 0.8870 0.8860 0.8850 0.8830
368.168439 0.8820 0.8820 0.8820 0.8820 0.8820
372.849550 0.8810 0.8810 0.8810 0.8810 0.8810
377.530661 0.8810 0.8870 0.8870 0.8870 0.8870
382.211772 0.8870 0.8860 0.8830 0.8810 0.8790
386.892882 0.8780 0.8760 0.8760 0.8760 0.8750
391.573993 0.8740 0.8710 0.8660 0.8600 0.8570
396.255104 0.8550 0.8550 0.8550 0.8550 0.8570
400.936215 0.8570 0.8590 0.8600 0.8610 0.8640
405.617326 0.8650 0.8650 0.8650 0.8640 0.8640
410.298437 0.8640 0.8640 0.8640 0.8640 0.8640
414.979548 0.8610 0.8590 0.8570 0.8550 0.8550
419.660659 0.8550 0.8550 0.8570 0.8580 0.8580
424.341770 0.8580 0.8580 0.8570 0.8570 0.8550
429.022881 0.8550 0.8540 0.8540 0.8530 0.8520
433.703992 0.8520 0.8510 0.8510 0.8500 0.8500
438.385103 0.8490 0.8490 0.8470 0.8470 0.8460
443.066214 0.8460 0.8460 0.8450 0.8450 0.8450
447.747325 0.8450 0.8450 0.8440 0.8440 0.8440
452.428435 0.8430 0.8430 0.8430 0.8420 0.8420
457.109546 0.8420 0.8420 0.8420 0.8420 0.8420
461.790657 0.8420 0.8420 0.8420 0.8420 0.8420
466.471768 0.8420 0.8420 0.8420 0.8420 0.8420
471.152879 0.8420 0.8420 0.8420 0.8420 0.8420
475.833990 0.8420 0.8430 0.8440 0.8440 0.8450
480.515101 0.8460 0.8460 0.8470 0.8470 0.8470
485.196212 0.8470 0.8470 0.8490 0.8490 0.8490
489.877323 0.8490 0.8490 0.8490 0.8490 0.8490
494.558434 0.8490 0.8490 0.8490 0.8490 0.8490
499.239545 0.8490 0.8490 0.8500 0.8500 0.8500
503.920656 0.8510 0.8510 0.8510 0.8510 0.8510
508.601767 0.8510 0.8510 0.8510 0.8500 0.8500
513.282878 0.8500 0.8500 0.8500 0.8500 0.8500
517.963988 0.8490 0.8490 0.8500 0.8500 0.8510
522.645099 0.8510 0.8520 0.8520 0.8530 0.8530
527.326210 0.8540 0.8550 0.8570 0.8580 0.8590
532.007321 0.8610 0.8620 0.8640 0.8650 0.8660
536.688432 0.8670 0.8680 0.8690 0.8710 0.8720
541.369543 0.8730 0.8740 0.8750 0.8760 0.8780
546.050654 0.8780 0.8780 0.8790 0.8790 0.8790
550.731765 0.8800 0.8800 0.8800 0.8800 0.8810
555.412876 0.8810 0.8810 0.8820 0.8820 0.8820
560.093987 0.8820 0.8830 0.8830 0.8830 0.8830
564.775098 0.8850 0.8850 0.8850 0.8850 0.8860
569.456209 0.8860 0.8860 0.8860 0.8870 0.8870
574.137320 0.8870 0.8870 0.8880 0.8880 0.8880
578.818431 0.8880 0.8880 0.8890 0.8890 0.8890
583.499541 0.8890 0.8890 0.8900 0.8900 0.8900
588.180652 0.8900 0.8910 0.8910 0.8910 0.8910
592.861763 0.8910 0.8930 0.8930 0.8930 0.8930
597.542874 0.8930 0.8940 0.8940 0.8940 0.8940
602.223985 0.8950 0.8950 0.8950 0.8950 0.8950
606.905096 0.8960 0.8960 0.8960 0.8960 0.8960
611.586207 0.8970 0.8970 0.8970 0.8970 0.8970
616.267318 0.8970 0.8970 0.8970 0.8970 0.8970
620.948429 0.8970 0.8970 0.8970 0.8970 0.8970
625.629540 0.8970 0.8970 0.8960 0.8960 0.8960
630.310651 0.8960 0.8960 0.8960 0.8960 0.8960
634.991762 0.8960 0.8960 0.8960 0.8960 0.8960
639.672873 0.8960 0.8960 0.8960 0.8960 0.8960
644.353984 0.8960 0.8960 0.8960 0.8960 0.8960
649.035094 0.8960 0.8960 0.8960 0.8960 0.8960
653.716205 0.8960 0.8960 0.8960 0.8960 0.8960
658.397316 0.8950 0.8930 0.8900 0.8900 0.8890
663.078427 0.8890 0.8880 0.8870 0.8860 0.8850
667.759538 0.8830 0.8820 0.8810 0.8800 0.8760
672.440649 0.8750 0.8680 0.8650 0.8610 0.8580
677.121760 0.8540 0.8490 0.8430 0.8390 0.8370
681.802871 0.7970 0.7790 0.7530 0.7420 0.7310
686.483982 0.6931 0.6730 0.6550 0.5872 0.5561
691.165093 0.4989 0.3920 0.3900 0.3920 0.4090
695.846204 0.4270 0.4629 0.5398 0.6158 0.6917
700.527315 0.7160 0.7390 0.7540 0.7790 0.8020
705.208426 0.8040 0.8160 0.8280 0.8370 0.8420
709.889537 0.8470 0.8490 0.8500 0.8510 0.8520
714.570647 0.8530 0.8610 0.8680 0.8710 0.8720
719.251758 0.8740 0.8750 0.8750 0.8760 0.8760
723.932869 0.8760 0.8780 0.8780 0.8780 0.8780
728.613980 0.8780 0.8780 0.8780 0.8780 0.8790
733.295091 0.8830 0.8850 0.8870 0.8880 0.8880
737.976202 0.8890 0.8890 0.8900 0.8910 0.8910
742.657313 0.8930 0.8940 0.8940 0.8950 0.8950
747.338424 0.8950 0.8940 0.8940 0.8960 0.8960
752.019535 0.8960 0.8960 0.8960 0.8950 0.8950
756.700646 0.8950 0.8950 0.8940 0.8940 0.8940
761.381757 0.8940 0.8940 0.8930 0.8930 0.8910
766.062868 0.8910 0.8900 0.8900 0.8900 0.8900
770.743979 0.8900 0.8900 0.8900 0.8900 0.8900
775.425090 0.8900 0.8900 0.8900 0.8880 0.8870
780.106200 0.8870 0.8860 0.8830 0.8820 0.8810
784.787311 0.8800 0.8790 0.8780 0.8760 0.8740
789.468422 0.8740 0.8720 0.8730 0.8710 0.8670
794.149533 0.8650 0.8650 0.8610 0.8590 0.8570
798.830644 0.8540 0.8530 0.8520 0.8500 0.8470
803.511755 0.8440 0.8400 0.8360 0.8320 0.8290
808.192866 0.8280 0.8210 0.8150 0.8100 0.8070
812.873977 0.7960 0.7930 0.7880 0.7830 0.7790
817.555088 0.7740 0.7700 0.7650 0.7590 0.7520
822.236199 0.7450 0.7360 0.7240 0.7140 0.6980
826.917310 0.6880 0.6750 0.6560 0.6500 0.6430
831.598421 0.6360 0.6290 0.6210 0.5960 0.5740
836.279532 0.5630 0.5440 0.5270 0.4951 0.4791
840.960642 0.4580 0.4360 0.3900 0.3720 0.3540
845.641753 0.3360 0.3260 0.2881 0.2461 0.1743
850.322864 0.1619 0.0800 0.0740 0.0580 0.0510
855.003975 0.0450 0.0400 0.0400 0.0400 0.0420
859.685086 0.0450 0.0460 0.0540 0.0600 0.0850
864.366197 0.0950 0.1030 0.1259 0.1659 0.2019
869.047308 0.2381 0.2961 0.3530 0.3780 0.4030
873.728419 0.4509 0.4849 0.5050 0.5239 0.5629
878.409530 0.6010 0.6190 0.6310 0.6440 0.6640
883.090641 0.6790 0.6920 0.7030 0.7140 0.7250
887.771752 0.7420 0.7560 0.7630 0.7680 0.7730
892.452863 0.7810 0.7920 0.7970 0.8020 0.8090
897.133974 0.8140 0.8180 0.8220 0.8250 0.8290
901.815085 0.8320 0.8380 0.8450 0.8510 0.8550
906.496195 0.8600 0.8640 0.8660 0.8660 0.8670
911.177306 0.8670 0.8680 0.8730 0.8800 0.8820
915.858417 0.8820 0.8820 0.8820 0.8820 0.8820
920.539528 0.8830 0.8830 0.8830 0.8850 0.8850
925.220639 0.8860 0.8860 0.8870 0.8870 0.8870
929.901750 0.8880 0.8880 0.8880 0.8890 0.8890
934.582861 0.8900 0.8910 0.8930 0.8930 0.8930
939.263972 0.8930 0.8930 0.8910 0.8900 0.8890
943.945083 0.8880 0.8880 0.8870 0.8870 0.8870
948.626194 0.8860 0.8860 0.8830 0.8820 0.8810
953.307305 0.8800 0.8790 0.8780 0.8750 0.8740
957.988416 0.8730 0.8720 0.8710 0.8690 0.8680
962.669527 0.8670 0.8660 0.8650 0.8640 0.8610
967.350638 0.8600 0.8580 0.8570 0.8550 0.8530
972.031748 0.8520 0.8510 0.8490 0.8490 0.8490
976.712859 0.8490 0.8490 0.8500 0.8520 0.8540
981.393970 0.8570 0.8590 0.8610 0.8640 0.8660
986.075081 0.8660 0.8660 0.8660 0.8670 0.8680
990.756192 0.8680 0.8690 0.8690 0.8690 0.8690
995.437303 0.8690 0.8690 0.8690 0.8690 0.8690
1000.118414 0.8690 0.8690 0.8690 0.8690 0.8690
1004.799525 0.8690 0.8690 0.8690 0.8690 0.8690
1009.480636 0.8710 0.8720 0.8740 0.8750 0.8760
1014.161747 0.8780 0.8790 0.8800 0.8810 0.8830
1018.842858 0.8850 0.8860 0.8870 0.8870 0.8870
1023.523969 0.8870 0.8870 0.8870 0.8870 0.8870
1028.205080 0.8870 0.8870 0.8870 0.8870 0.8870
1032.886191 0.8870 0.8870 0.8870 0.8870 0.8870
1037.567301 0.8870 0.8870 0.8880 0.8880 0.8880
1042.248412 0.8890 0.8890 0.8890 0.8890 0.8900
1046.929523 0.8910 0.8910 0.8930 0.8940 0.8940
1051.610634 0.8950 0.8950 0.8960 0.8960 0.8970
1056.291745 0.8970 0.8970 0.8970 0.8970 0.8970
1060.972856 0.8960 0.8960 0.8950 0.8950 0.8950
1065.653967 0.8950 0.8960 0.8980 0.9000 0.9000
1070.335078 0.9000 0.9000 0.8980 0.8970 0.8960
1075.016189 0.8940 0.8930 0.8910 0.8910 0.8910
1079.697300 0.8910 0.8910 0.8930 0.8940 0.8950
1084.378411 0.8950 0.8960 0.8960 0.8960 0.8970
1089.059522 0.8970 0.8970 0.8970 0.8970 0.8980
1093.740633 0.8980 0.8980 0.8980 0.8980 0.8980
1098.421744 0.8980 0.8970 0.8970 0.8970 0.8960
1103.102854 0.8960 0.8960 0.8960 0.8960 0.8960
1107.783965 0.8960 0.8960 0.8960 0.8970 0.8970
1112.465076 0.8970 0.8970 0.8970 0.8970 0.8940
1117.146187 0.8930 0.8930 0.8930 0.8930 0.8940
1121.827298 0.8950 0.8970 0.8980 0.9000 0.9000
1126.508409 0.9010 0.9010 0.9010 0.9010 0.9000
1131.189520 0.9000 0.9000 0.9010 0.9010 0.9010
1135.870631 0.9020 0.9030 0.9030 0.9040 0.9040
1140.551742 0.9040 0.9050 0.9050 0.9050 0.9050
1145.232853 0.9070 0.9070 0.9070 0.9070 0.9080
1149.913964 0.9080 0.9080 0.9080 0.9080 0.9080
1154.595075 0.9070 0.9070 0.9050 0.9050 0.9040
1159.276186 0.9030 0.9030 0.9030 0.9030 0.9030
1163.957297 0.9030 0.9030 0.9040 0.9040 0.9040
1168.638407 0.9050 0.9050 0.9050 0.9050 0.9050
1173.319518 0.9040 0.9040 0.9030 0.9020 0.9010
1178.000629 0.9010 0.9000 0.8980 0.8980 0.8970
1182.681740 0.8970 0.8960 0.8960 0.8960 0.8960
1187.362851 0.8970 0.8970 0.8970 0.8970 0.8970
1192.043962 0.8970 0.8970 0.8970 0.8970 0.8950
1196.725073 0.8940 0.8910 0.8900 0.8890 0.8890
1201.406184 0.8880 0.8870 0.8870 0.8860 0.8850
1206.087295 0.8850 0.8830 0.8810 0.8800 0.8780
1210.768406 0.8760 0.8750 0.8730 0.8720 0.8710
1215.449517 0.8680 0.8670 0.8660 0.8680 0.8610
1220.130628 0.8550 0.8460 0.8370 0.8290 0.8230
1224.811739 0.8160 0.8110 0.8060 0.7950 0.7880
1229.492850 0.7790 0.7710 0.6961 0.6142 0.5861
1234.173960 0.5720 0.5590 0.5449 0.4619 0.1980
1238.855071 0.1760 0.1540 0.1320 0.1160 0.1130
1243.536182 0.1142 0.1951 0.2750 0.2930 0.3110
1248.217293 0.3750 0.4389 0.5019 0.5908 0.6788
1252.898404 0.6940 0.7091 0.7500 0.7630 0.7720
1257.579515 0.7800 0.7880 0.7960 0.8010 0.8040
1262.260626 0.8110 0.8170 0.8190 0.8190 0.8210
1266.941737 0.8220 0.8220 0.8220 0.8210 0.8130
1271.622848 0.8090 0.8060 0.7970 0.7930 0.7880
1276.303959 0.7830 0.7780 0.7710 0.7650 0.7570
1280.985070 0.7490 0.7380 0.7360 0.7360 0.7370
1285.666181 0.7500 0.7650 0.7880 0.7960 0.8030
1290.347292 0.8210 0.8260 0.8280 0.8540 0.8550
1295.028403 0.8590 0.8620 0.8660 0.8690 0.8740
1299.709513 0.8740 0.8740 0.8740 0.8740 0.8740
1304.390624 0.8740 0.8740 0.8740 0.8740 0.8740
1309.071735 0.8740 0.8740 0.8740 0.8740 0.8740
1313.752846 0.8740 0.8740 0.8740 0.8740 0.8740
1318.433957 0.8740 0.8739 0.8290 0.8260 0.8260
1323.115068 0.8260 0.8260 0.8260 0.8260 0.8260
1327.796179 0.8260 0.8260 0.8260 0.8260 0.8260
1332.477290 0.8250 0.8250 0.8250 0.8250 0.8250
1337.158401 0.8240 0.8230 0.8230 0.8230 0.8230
1341.839512 0.8230 0.8250 0.8260 0.8300 0.8300
1346.520623 0.8310 0.8310 0.8310 0.8310 0.8310
1351.201734 0.8310 0.8310 0.8310 0.8310 0.8300
1355.882845 0.8300 0.8290 0.8290 0.8280 0.8280
1360.563956 0.8260 0.8260 0.8250 0.8240 0.8230
1365.245066 0.8230 0.8220 0.8210 0.8190 0.8180
1369.926177 0.8170 0.8140 0.8130 0.8110 0.8090
1374.607288 0.8070 0.8040 0.7950 0.7920 0.7880
1379.288399 0.7850 0.7810 0.7800 0.7800 0.7800
1383.969510 0.7800 0.7790 0.7790 0.7790 0.7790
1388.650621 0.7790 0.7790 0.7790 0.7790 0.7780
1393.331732 0.7770 0.7770 0.7750 0.7750 0.7740
1398.012843 0.7730 0.7720 0.7680 0.7660 0.7600
1402.693954 0.7560 0.7500 0.7440 0.7420 0.7400
1407.375065 0.7310 0.7240 0.7200 0.6961 0.6820
1412.056176 0.6590 0.6430 0.6310 0.6190 0.5800
1416.737287 0.5670 0.5510 0.5360 0.4731 0.4710
1421.418398 0.4721 0.4991 0.5300 0.5620 0.5930
1426.099508 0.6230 0.6510 0.6740 0.6860 0.6980
1430.780619 0.7091 0.7400 0.7420 0.7560 0.7660
1435.461730 0.7770 0.7850 0.7890 0.7950 0.7990
1440.142841 0.8010 0.8030 0.8070 0.8100 0.8140
1444.823952 0.8160 0.8160 0.8210 0.8220 0.8230
1449.505063 0.8230 0.8230 0.8230 0.8230 0.8220
1454.186174 0.8220 0.8220 0.8220 0.8230 0.8230
1458.867285 0.8240 0.8240 0.8240 0.8240 0.8230
1463.548396 0.8220 0.8210 0.8190 0.8180 0.8170
1468.229507 0.8160 0.8150 0.8150 0.8140 0.8130
1472.910618 0.8110 0.8100 0.8090 0.8090 0.8090
1477.591729 0.8090 0.8090 0.8100 0.8140 0.8160
1482.272840 0.8180 0.8190 0.8230 0.8260 0.8310
1486.953951 0.8330 0.8350 0.8400 0.8400 0.8430
1491.635061 0.8470 0.8470 0.8500 0.8490 0.8500
1496.316172 0.8490 0.8500 0.8520 0.8550 0.8580
1500.997283 0.8590 0.8600 0.8600 0.8600 0.8600
1505.678394 0.8600 0.8600 0.8600 0.8590 0.8600
1510.359505 0.8600 0.8610 0.8610 0.8620 0.8620
1515.040616 0.8620 0.8640 0.8660 0.8670 0.8690
1519.721727 0.8690 0.8710 0.8720 0.8720 0.8730
1524.402838 0.8730 0.8740 0.8750 0.8750 0.8750
1529.083949 0.8750 0.8750 0.8750 0.8750 0.8750
1533.765060 0.8750 0.8750 0.8750 0.8750 0.8750
1538.446171 0.8750 0.8780 0.8790 0.8800 0.8800
1543.127282 0.8800 0.8800 0.8800 0.8810 0.8810
1547.808393 0.8810 0.8810 0.8810 0.8810 0.8820
1552.489504 0.8820 0.8820 0.8820 0.8820 0.8820
1557.170614 0.8820 0.8820 0.8820 0.8820 0.8820
1561.851725 0.8820 0.8820 0.8820 0.8810 0.8810
1566.532836 0.8810 0.8810 0.8810 0.8810 0.8810
1571.213947 0.8810 0.8810 0.8800 0.8800 0.8800
1575.895058 0.8800 0.8810 0.8810 0.8820 0.8830
1580.576169 0.8830 0.8830 0.8850 0.8850 0.8860
1585.257280 0.8860 0.8860 0.8860 0.8860 0.8860
1589.938391 0.8860 0.8860 0.8850 0.8830 0.8830
1594.619502 0.8820 0.8820 0.8810 0.8810 0.8800
1599.300613 0.8800 0.8790 0.8790 0.8780 0.8780
1603.981724 0.8780 0.8780 0.8780 0.8760 0.8760
1608.662835 0.8760 0.8760 0.8760 0.8760 0.8740
1613.343946 0.8730 0.8720 0.8720 0.8720 0.8720
1618.025057 0.8720 0.8720 0.8720 0.8720 0.8720
1622.706167 0.8720 0.8720 0.8720 0.8720 0.8710
1627.387278 0.8720 0.8720 0.8720 0.8720 0.8720
1632.068389 0.8720 0.8730 0.8730 0.8730 0.8730
1636.749500 0.8730 0.8730 0.8740 0.8750 0.8760
1641.430611 0.8760 0.8780 0.8790 0.8800 0.8810
1646.111722 0.8810 0.8810 0.8810 0.8810 0.8800
1650.792833 0.8800 0.8800 0.8790 0.8790 0.8790
1655.473944 0.8780 0.8780 0.8760 0.8760 0.8760
1660.155055 0.8760 0.8760 0.8760 0.8760 0.8780
1664.836166 0.8780 0.8780 0.8780 0.8780 0.8780
1669.517277 0.8790 0.8790 0.8790 0.8790 0.8790
1674.198388 0.8790 0.8790 0.8790 0.8790 0.8790
1678.879499 0.8790 0.8790 0.8790 0.8790 0.8790
1683.560610 0.8790 0.8790 0.8790 0.8790 0.8790
1688.241720 0.8790 0.8790 0.8790 0.8790 0.8790
1692.922831 0.8790 0.8800 0.8800 0.8800 0.8800
1697.603942 0.8800 0.8800 0.8800 0.8800 0.8800
1702.285053 0.8800 0.8800 0.8800 0.8800 0.8800
1706.966164 0.8800 0.8800 0.8800 0.8800 0.8800
1711.647275 0.8800 0.8800 0.8800 0.8800 0.8800
1716.328386 0.8800 0.8800 0.8800 0.8800 0.8800
1721.009497 0.8800 0.8790 0.8790 0.8800 0.8800
1725.690608 0.8800 0.8800 0.8800 0.8810 0.8810
1730.371719 0.8810 0.8810 0.8810 0.8820 0.8820
1735.052830 0.8820 0.8820 0.8820 0.8820 0.8820
1739.733941 0.8820 0.8820 0.8820 0.8820 0.8820
1744.415052 0.8820 0.8820 0.8820 0.8810 0.8810
1749.096163 0.8810 0.8800 0.8800 0.8800 0.8790
1753.777273 0.8790 0.8790 0.8790 0.8790 0.8800
1758.458384 0.8800 0.8800 0.8810 0.8810 0.8810
1763.139495 0.8810 0.8810 0.8810 0.8810 0.8810
1767.820606 0.8810 0.8810 0.8810 0.8810 0.8810
1772.501717 0.8810 0.8810 0.8810 0.8810 0.8810
1777.182828 0.8810 0.8810 0.8810 0.8810 0.8820
1781.863939 0.8820 0.8810 0.8810 0.8810 0.8810
1786.545050 0.8810 0.8810 0.8810 0.8810 0.8810
1791.226161 0.8810 0.8810 0.8810 0.8810 0.8810
1795.907272 0.8810 0.8810 0.8810 0.8810 0.8810
1800.588383 0.8810 0.8810 0.8810 0.8810 0.8810
1805.269494 0.8810 0.8810 0.8800 0.8800 0.8800
1809.950605 0.8790 0.8790 0.8780 0.8780 0.8780
1814.631716 0.8760 0.8760 0.8750 0.8740 0.8740
1819.312826 0.8730 0.8720 0.8720 0.8710 0.8690
1823.993937 0.8690 0.8680 0.8680 0.8670 0.8660
1828.675048 0.8660 0.8650 0.8640 0.8580 0.8500
1833.356159 0.8450 0.8380 0.8370 0.8310 0.8290
1838.037270 0.8280 0.8290 0.8520 0.8550 0.8590
1842.718381 0.8640 0.8680 0.8730 0.8740 0.8750
1847.399492 0.8750 0.8750 0.8750 0.8750 0.8750
1852.080603 0.8750 0.8750 0.8750 0.8750 0.8750
1856.761714 0.8740 0.8740 0.8740 0.8740 0.8740
1861.442825 0.8740 0.8740 0.8740 0.8740 0.8730
1866.123936 0.8730 0.8730 0.8730 0.8730 0.8740
1870.805047 0.8740 0.8740 0.8750 0.8750 0.8780
1875.486158 0.8780 0.8780 0.8790 0.8790 0.8800
1880.167269 0.8800 0.8810 0.8800 0.8800 0.8800
1884.848379 0.8800 0.8800 0.8790 0.8800 0.8800
1889.529490 0.8800 0.8800 0.8800 0.8790 0.8790
1894.210601 0.8790 0.8780 0.8780 0.8780 0.8760
1898.891712 0.8760 0.8750 0.8750 0.8750 0.8740
1903.572823 0.8740 0.8730 0.8730 0.8720 0.8720
1908.253934 0.8710 0.8690 0.8680 0.8670 0.8660
1912.935045 0.8650 0.8650 0.8640 0.8640 0.8620
1917.616156 0.8620 0.8610 0.8600 0.8590 0.8580
1922.297267 0.8570 0.8550 0.8550 0.8540 0.8540
1926.978378 0.8530 0.8530 0.8510 0.8470 0.8430
1931.659489 0.8430 0.8400 0.8360 0.8320 0.8300
1936.340600 0.8280 0.8260 0.8260 0.8260 0.8260
1941.021711 0.8260 0.8300 0.8310 0.8390 0.8430
1945.702821 0.8490 0.8510 0.8580 0.8610 0.8620
1950.383932 0.8640 0.8650 0.8650 0.8660 0.8690
1955.065043 0.8690 0.8690 0.8690 0.8690 0.8710
1959.746154 0.8720 0.8730 0.8730 0.8730 0.8730
1964.427265 0.8730 0.8730 0.8730 0.8720 0.8720
1969.108376 0.8720 0.8710 0.8710 0.8710 0.8690
1973.789487 0.8690 0.8690 0.8690 0.8690 0.8710
1978.470598 0.8710 0.8720 0.8720 0.8720 0.8730
1983.151709 0.8740 0.8740 0.8750 0.8750 0.8760
1987.832820 0.8760 0.8760 0.8760 0.8780 0.8780
1992.513931 0.8760 0.8750 0.8750 0.8730 0.8720
1997.195042 0.8720 0.8730 0.8730 0.8780 0.8800
2001.876153 0.8821 0.8856 0.8890 0.8895 0.8901
2006.557264 0.8916 0.8930 0.8930 0.8930 0.8935
2011.238374 0.8940 0.8940 0.8940 0.8940 0.8939
2015.919485 0.8934 0.8930 0.8930 0.8931 0.8936
2020.600596 0.8939 0.8934 0.8930 0.8930 0.8930
2025.281707 0.8930 0.8930 0.8930 0.8927 0.8917
2029.962818 0.8910 0.8910 0.8910 0.8910 0.8910
2034.643929 0.8910 0.8908 0.8903 0.8900 0.8900
2039.325040 0.8900 0.8900 0.8900 0.8900 0.8900
2044.006151 0.8900 0.8900 0.8900 0.8900 0.8900
2048.687262 0.8900 0.8900 0.8900 0.8900 0.8900
2053.368373 0.8900 0.8898 0.8892 0.8890 0.8890
2058.049484 0.8890 0.8890 0.8890 0.8890 0.8890
2062.730595 0.8890 0.8890 0.8890 0.8890 0.8890
2067.411706 0.8890 0.8890 0.8890 0.8890 0.8890
2072.092817 0.8890 0.8890 0.8890 0.8890 0.8890
2076.773927 0.8890 0.8890 0.8890 0.8890 0.8890
2081.455038 0.8890 0.8890 0.8890 0.8886 0.8881
2086.136149 0.8880 0.8880 0.8880 0.8880 0.8876
2090.817260 0.8871 0.8870 0.8870 0.8870 0.8870
2095.498371 0.8866 0.8860 0.8846 0.8831 0.8830
2100.179482 0.8830 0.8825 0.8820 0.8820 0.8820
2104.860593 0.8815 0.8810 0.8810 0.8810 0.8800
2109.541704 0.8790 0.8785 0.8780 0.8769 0.8760
2114.222815 0.8755 0.8749 0.8739 0.8729 0.8719
2118.903926 0.8710 0.8710 0.8709 0.8699 0.8690
2123.585037 0.8690 0.8690 0.8690 0.8692 0.8702
2128.266148 0.8720 0.8776 0.8823 0.8838 0.8852
2132.947259 0.8862 0.8873 0.8883 0.8890 0.8890
2137.628370 0.8893 0.8903 0.8913 0.8923 0.8930
2142.309480 0.8930 0.8932 0.8937 0.8942 0.8947
2146.990591 0.8950 0.8950 0.8950 0.8950 0.8950
2151.671702 0.8950 0.8950 0.8950 0.8950 0.8950
2156.352813 0.8950 0.8950 0.8948 0.8943 0.8940
2161.033924 0.8940 0.8940 0.8940 0.8940 0.8940
2165.715035 0.8940 0.8940 0.8940 0.8940 0.8940
2170.396146 0.8940 0.8940 0.8940 0.8940 0.8940
2175.077257 0.8940 0.8940 0.8940 0.8940 0.8940
2179.758368 0.8940 0.8940 0.8940 0.8940 0.8940
2184.439479 0.8940 0.8940 0.8940 0.8940 0.8940
2189.120590 0.8940 0.8940 0.8940 0.8940 0.8940
2193.801701 0.8940 0.8940 0.8940 0.8940 0.8940
2198.482812 0.8940 0.8944 0.8949 0.8950 0.8950
2203.163923 0.8950 0.8950 0.8955 0.8960 0.8960
2207.845033 0.8960 0.8960 0.8960 0.8960 0.8960
2212.526144 0.8965 0.8970 0.8970 0.8970 0.8975
2217.207255 0.8980 0.8990 0.9000 0.9000 0.9000
2221.888366 0.9000 0.9000 0.9005 0.9010 0.9010
2226.569477 0.9011 0.9016 0.9021 0.9026 0.9030
2231.250588 0.9030 0.9030 0.9030 0.9031 0.9036
2235.931699 0.9040 0.9040 0.9040 0.9040 0.9039
2240.612810 0.9034 0.9030 0.9030 0.9029 0.9024
2245.293921 0.9020 0.9020 0.9018 0.9013 0.9010
2249.975032 0.9010 0.9010 0.9010 0.9010 0.9010
2254.656143 0.9010 0.9010 0.9010 0.9010 0.9010
2259.337254 0.9010 0.9010 0.9010 0.9010 0.9010
2264.018365 0.9010 0.9010 0.9010 0.9010 0.9010
2268.699476 0.9010 0.9010 0.9010 0.9010 0.9010
2273.380586 0.9010 0.9010 0.9010 0.9010 0.9010
2278.061697 0.9010 0.9013 0.9018 0.9023 0.9028
2282.742808 0.9030 0.9030 0.9030 0.9030 0.9030
2287.423919 0.9030 0.9030 0.9030 0.9030 0.9030
2292.105030 0.9030 0.9030 0.9030 0.9030 0.9030
2296.786141 0.9030 0.9030 0.9030 0.9034 0.9039
2301.467252 0.9044 0.9049 0.9058 0.9068 0.9074
2306.148363 0.9079 0.9084 0.9089 0.9090 0.9090
2310.829474 0.9095 0.9100 0.9105 0.9110 0.9115
2315.510585 0.9120 0.9120 0.9120 0.9120 0.9120
2320.191696 0.9120 0.9120 0.9130 0.9140 0.9140
2324.872807 0.9140 0.9140 0.9140 0.9140 0.9140
2329.553918 0.9140 0.9140 0.9140 0.9140 0.9140
2334.235029 0.9140 0.9140 0.9138 0.9128 0.9118
2338.916139 0.9108 0.9100 0.9100 0.9099 0.9094
2343.597250 0.9090 0.9090 0.9090 0.9090 0.9090
2348.278361 0.9090 0.9090 0.9090 0.9090 0.9090
2352.959472 0.9088 0.9083 0.9080 0.9080 0.9080
2357.640583 0.9080 0.9080 0.9080 0.9080 0.9080
2362.321694 0.9080 0.9080 0.9080 0.9080 0.9080
2367.002805 0.9080 0.9080 0.9080 0.9080 0.9080
2371.683916 0.9080 0.9080 0.9077 0.9072 0.9065
2376.365027 0.9055 0.9050 0.9050 0.9050 0.9050
2381.046138 0.9050 0.9050 0.9050 0.9050 0.9050
2385.727249 0.9050 0.9047 0.9042 0.9040 0.9040
2390.408360 0.9040 0.9040 0.9040 0.9040 0.9040
2395.089471 0.9040 0.9040 0.9040 0.9040 0.9040
2399.770582 0.9040 0.9040 0.9040 0.9040 0.9040
2404.451692 0.9040 0.9040 0.9040 0.9040 0.9040
2409.132803 0.9040 0.9040 0.9040 0.9040 0.9040
2413.813914 0.9040 0.9040 0.9040 0.9040 0.9040
2418.495025 0.9040 0.9040 0.9040 0.9040 0.9045
2423.176136 0.9050 0.9050 0.9050 0.9050 0.9050
2427.857247 0.9050 0.9050 0.9050 0.9050 0.9050
2432.538358 0.9050 0.9050 0.9050 0.9050 0.9050
2437.219469 0.9050 0.9050 0.9044 0.9040 0.9040
2441.900580 0.9040 0.9040 0.9039 0.9034 0.9030
2446.581691 0.9030 0.9030 0.9030 0.9030 0.9030
2451.262802 0.9030 0.9030 0.9030 0.9030 0.9030
2455.943913 0.9030 0.9030 0.9030 0.9030 0.9030
2460.625024 0.9030 0.9030 0.9028 0.9023 0.9020
2465.306135 0.9020 0.9018 0.9013 0.9010 0.9010
2469.987245 0.9004 0.8989 0.8976 0.8966 0.8958
2474.668356 0.8953 0.8948 0.8943 0.8938 0.8933
2479.349467 0.8930 0.8930 0.8930 0.8930 0.8933
2484.030578 0.8938 0.8943 0.8948 0.8953 0.8958
2488.711689 0.8966 0.8976 0.8986 0.8996 0.9000
2493.392800 0.9000 0.9006 0.9016 0.9023 0.9028
2498.073911 0.9033 0.9038 0.9040 0.9040 0.9036
2502.755022 0.9031 0.9026 0.9021 0.9020 0.9020
2507.436133 0.9024 0.9029 0.9038 0.9048 0.9050
2512.117244 0.9050 0.9050 0.9050 0.9058 0.9068
2516.798355 0.9070 0.9070 0.9070 0.9070 0.9070
2521.479466 0.9070 0.9070 0.9070 0.9070 0.9070
2526.160577 0.9070 0.9070 0.9070 0.9070 0.9070
2530.841687 0.9070 0.9070 0.9070 0.9060 0.9050
2535.522798 0.9050 0.9050 0.9050 0.9050 0.9050
2540.203909 0.9050 0.9050 0.9050 0.9050 0.9050
2544.885020 0.9050 0.9050 0.9050 0.9050 0.9050
2549.566131 0.9050 0.9050 0.9050 0.9050 0.9050
2554.247242 0.9050 0.9050 0.9050 0.9050 0.9050
2558.928353 0.9050 0.9050 0.9050 0.9050 0.9050
2563.609464 0.9050 0.9050 0.9050 0.9050 0.9050
2568.290575 0.9050 0.9050 0.9050 0.9050 0.9050
2572.971686 0.9050 0.9050 0.9050 0.9050 0.9050
2577.652797 0.9050 0.9050 0.9050 0.9050 0.9050
2582.333908 0.9050 0.9050 0.9050 0.9048 0.9043
2587.015019 0.9040 0.9040 0.9040 0.9040 0.9040
2591.696130 0.9040 0.9040 0.9040 0.9040 0.9040
2596.377240 0.9040 0.9040 0.9040 0.9040 0.9040
2601.058351 0.9040 0.9040 0.9040 0.9040 0.9040
2605.739462 0.9040 0.9040 0.9040 0.9040 0.9040
2610.420573 0.9040 0.9036 0.9031 0.9030 0.9030
2615.101684 0.9030 0.9030 0.9030 0.9030 0.9030
2619.782795 0.9030 0.9026 0.9021 0.9020 0.9020
2624.463906 0.9020 0.9020 0.9020 0.9020 0.9020
2629.145017 0.9020 0.9015 0.9010 0.9010 0.9010
2633.826128 0.9010 0.9010 0.8991 0.8971 0.8970
2638.507239 0.8970 0.8970 0.8970 0.8965 0.8960
2643.188350 0.8960 0.8960 0.8955 0.8950 0.8950
2647.869461 0.8950 0.8950 0.8950 0.8950 0.8951
2652.550572 0.8956 0.8960 0.8960 0.8961 0.8966
2657.231683 0.8971 0.8976 0.8980 0.8980 0.8982
2661.912793 0.8992 0.9000 0.9000 0.9000 0.9000
2666.593904 0.9000 0.9000 0.9000 0.9000 0.8997
2671.275015 0.8987 0.8980 0.8980 0.8980 0.8980
2675.956126 0.8980 0.8980 0.8980 0.8980 0.8980
2680.637237 0.8980 0.8980 0.8980 0.8980 0.8980
2685.318348 0.8980 0.8980 0.8980 0.8980 0.8980
2689.999459 0.8980 0.8985 0.8995 0.9000 0.9000
2694.680570 0.9000 0.9000 0.9000 0.9000 0.9000
2699.361681 0.9000 0.9000 0.9000 0.9000 0.9000
2704.042792 0.8994 0.8984 0.8980 0.8980 0.8980
2708.723903 0.8980 0.8980 0.8980 0.8980 0.8980
2713.405014 0.8980 0.8980 0.8980 0.8980 0.8980
2718.086125 0.8980 0.8980 0.8980 0.8980 0.8980
2722.767236 0.8980 0.8980 0.8976 0.8971 0.8970
2727.448346 0.8970 0.8970 0.8970 0.8970 0.8970
2732.129457 0.8966 0.8961 0.8960 0.8960 0.8956
2736.810568 0.8951 0.8950 0.8950 0.8945 0.8940
2741.491679 0.8935 0.8930 0.8920 0.8910 0.8905
2746.172790 0.8900 0.8895 0.8890 0.8880 0.8870
2750.853901 0.8865 0.8860 0.8855 0.8849 0.8839
2755.535012 0.8830 0.8825 0.8820 0.8815 0.8810
2760.216123 0.8810 0.8809 0.8804 0.8799 0.8794
2764.897234 0.8789 0.8784 0.8778 0.8768 0.8759
2769.578345 0.8754 0.8749 0.8744 0.8739 0.8734
2774.259456 0.8729 0.8724 0.8716 0.8701 0.8683
2778.940567 0.8657 0.8634 0.8614 0.8595 0.8580
2783.621678 0.8570 0.8570 0.8566 0.8556 0.8546
2788.302789 0.8536 0.8526 0.8516 0.8500 0.8475
2792.983899 0.8451 0.8431 0.8405 0.8369 0.8327
2797.665010 0.8276 0.8139 0.7913 0.7792 0.7777
2802.346121 0.7770 0.7770 0.7773 0.7778 0.7780
2807.027232 0.7780 0.7794 0.7819 0.7877 0.7957
2811.708343 0.8011 0.8046 0.8082 0.8117 0.8136
2816.389454 0.8147 0.8153 0.8158 0.8160 0.8160
2821.070565 0.8160 0.8160 0.8160 0.8160 0.8160
2825.751676 0.8160 0.8160 0.8160 0.8164 0.8169
2830.432787 0.8174 0.8179 0.8184 0.8189 0.8198
2835.113898 0.8208 0.8248 0.8293 0.8304 0.8309
2839.795009 0.8310 0.8310 0.8314 0.8319 0.8320
2844.476120 0.8320 0.8320 0.8320 0.8320 0.8320
2849.157231 0.8320 0.8320 0.8320 0.8320 0.8305
2853.838342 0.8290 0.8275 0.8260 0.8255 0.8248
2858.519452 0.8208 0.8168 0.8127 0.8086 0.8025
2863.200563 0.7968 0.7948 0.7927 0.7897 0.7866
2867.881674 0.7831 0.7787 0.7686 0.7586 0.7495
2872.562785 0.7408 0.7342 0.7259 0.7103 0.6943
2877.243896 0.6772 0.6609 0.6473 0.6323 0.6131
2881.925007 0.5973 0.5907 0.5843 0.5783 0.5725
2886.606118 0.5675 0.5618 0.5548 0.5498 0.5493
2891.287229 0.5490 0.5490 0.5501 0.5532 0.5591
2895.968340 0.5697 0.5793 0.5873 0.5935 0.5970
2900.649451 0.6005 0.6041 0.6083 0.6133 0.6184
2905.330562 0.6234 0.6275 0.6305 0.6335 0.6366
2910.011673 0.6418 0.6488 0.6531 0.6551 0.6600
2914.692784 0.6670 0.6703 0.6708 0.6710 0.6710
2919.373895 0.6710 0.6710 0.6707 0.6702 0.6684
2924.055005 0.6659 0.6607 0.6542 0.6476 0.6409
2928.736116 0.6326 0.6235 0.6104 0.5958 0.5913
2933.417227 0.5902 0.5471 0.4902 0.4673 0.4547
2938.098338 0.4425 0.4304 0.4228 0.4162 0.4002
2942.779449 0.3821 0.3297 0.2702 0.2533 0.2441
2947.460560 0.2355 0.2269 0.1641 0.0951 0.0890
2952.141671 0.0890 0.0829 0.0764 0.0698 0.0633
2956.822782 0.0620 0.0610 0.0615 0.0620 0.0964
2961.503893 0.1311 0.1654 0.1997 0.2343 0.2687
2966.185004 0.2994 0.3302 0.3609 0.3916 0.4218
2970.866115 0.4521 0.4823 0.5117 0.5349 0.5580
2975.547226 0.5807 0.6059 0.6462 0.6811 0.6876
2980.228337 0.6940 0.6995 0.7046 0.7076 0.7116
2984.909448 0.7187 0.7274 0.7416 0.7544 0.7634
2989.590558 0.7717 0.7777 0.7832 0.7872 0.7909
2994.271669 0.7939 0.7970 0.8000 0.8034 0.8074
2998.952780 0.8112 0.8148 0.8179 0.8205 0.8228
3003.633891 0.8248 0.8266 0.8281 0.8294 0.8304
3008.315002 0.8312 0.8317 0.8327 0.8342 0.8352
3012.996113 0.8357 0.8365 0.8375 0.8385 0.8395
3017.677224 0.8400 0.8400 0.8406 0.8416 0.8423
3022.358335 0.8428 0.8433 0.8438 0.8443 0.8448
3027.039446 0.8453 0.8458 0.8463 0.8468 0.8470
3031.720557 0.8470 0.8477 0.8487 0.8493 0.8498
3036.401668 0.8504 0.8509 0.8514 0.8519 0.8524
3041.082779 0.8529 0.8534 0.8539 0.8540 0.8540
3045.763890 0.8544 0.8549 0.8558 0.8568 0.8574
3050.445001 0.8579 0.8584 0.8589 0.8594 0.8599
3055.126111 0.8604 0.8609 0.8610 0.8610 0.8615
3059.807222 0.8620 0.8620 0.8620 0.8630 0.8640
3064.488333 0.8640 0.8640 0.8645 0.8650 0.8650
3069.169444 0.8650 0.8655 0.8660 0.8660 0.8660
3073.850555 0.8665 0.8670 0.8670 0.8670 0.8676
3078.531666 0.8680 0.8680 0.8681 0.8686 0.8690
3083.212777 0.8690 0.8692 0.8702 0.8710 0.8710
3087.893888 0.8710 0.8710 0.8710 0.8710 0.8710
3092.574999 0.8710 0.8710 0.8710 0.8710 0.8710
3097.256110 0.8710 0.8710 0.8710 0.8710 0.8710
3101.937221 0.8710 0.8710 0.8710 0.8710 0.8710
3106.618332 0.8710 0.8710 0.8712 0.8717 0.8720
3111.299443 0.8720 0.8720 0.8720 0.8720 0.8720
3115.980553 0.8720 0.8720 0.8725 0.8735 0.8745
3120.661664 0.8755 0.8768 0.8783 0.8795 0.8805
3125.342775 0.8815 0.8826 0.8838 0.8854 0.8863
3130.023886 0.8868 0.8870 0.8870 0.8870 0.8870
3134.704997 0.8867 0.8862 0.8860 0.8860 0.8857
3139.386108 0.8852 0.8850 0.8850 0.8850 0.8850
3144.067219 0.8854 0.8859 0.8864 0.8869 0.8874
3148.748330 0.8879 0.8884 0.8889 0.8894 0.8899
3153.429441 0.8900 0.8900 0.8904 0.8909 0.8910
3158.110552 0.8910 0.8919 0.8929 0.8934 0.8939
3162.791663 0.8940 0.8940 0.8945 0.8950 0.8950
3167.472774 0.8950 0.8950 0.8950 0.8950 0.8950
3172.153885 0.8950 0.8950 0.8950 0.8950 0.8950
3176.834996 0.8950 0.8950 0.8950 0.8945 0.8940
3181.516106 0.8935 0.8929 0.8914 0.8900 0.8895
3186.197217 0.8889 0.8884 0.8880 0.8880 0.8880
3190.878328 0.8880 0.8881 0.8886 0.8890 0.8890
3195.559439 0.8892 0.8902 0.8912 0.8922 0.8931
3200.240550 0.8936 0.8941 0.8946 0.8951 0.8956
3204.921661 0.8961 0.8967 0.8972 0.8977 0.8983
3209.602772 0.8993 0.9002 0.9007 0.9012 0.9017
3214.283883 0.9022 0.9027 0.9032 0.9037 0.9042
3218.964994 0.9047 0.9054 0.9064 0.9072 0.9077
3223.646105 0.9082 0.9087 0.9092 0.9098 0.9100
3228.327216 0.9100 0.9103 0.9108 0.9110 0.9110
3233.008327 0.9110 0.9110 0.9113 0.9118 0.9120
3237.689438 0.9120 0.9120 0.9120 0.9126 0.9136
3242.370549 0.9140 0.9140 0.9143 0.9148 0.9140
3247.051659 0.9125 0.9120 0.9120 0.9120 0.9120
3251.732770 0.9120 0.9120 0.9120 0.9120 0.9120
3256.413881 0.9120 0.9120 0.9120 0.9120 0.9120
3261.094992 0.9120 0.9120 0.9120 0.9120 0.9120
3265.776103 0.9120 0.9120 0.9120 0.9120 0.9120
3270.457214 0.9120 0.9120 0.9120 0.9120 0.9120
3275.138325 0.9120 0.9120 0.9120 0.9130 0.9140
3279.819436 0.9140 0.9140 0.9140 0.9140 0.9140
3284.500547 0.9140 0.9140 0.9140 0.9140 0.9140
3289.181658 0.9140 0.9140 0.9140 0.9140 0.9140
3293.862769 0.9140 0.9140 0.9140 0.9140 0.9140
3298.543880 0.9140 0.9140 0.9140 0.9140 0.9140
3303.224991 0.9140 0.9140 0.9140 0.9140 0.9140
3307.906102 0.9140 0.9140 0.9140 0.9140 0.9140
3312.587212 0.9140 0.9140 0.9140 0.9140 0.9140
3317.268323 0.9140 0.9140 0.9140 0.9140 0.9140
3321.949434 0.9140 0.9140 0.9140 0.9140 0.9140
3326.630545 0.9140 0.9140 0.9140 0.9140 0.9140
3331.311656 0.9140 0.9140 0.9140 0.9140 0.9140
3335.992767 0.9140 0.9140 0.9140 0.9140 0.9140
3340.673878 0.9140 0.9140 0.9140 0.9140 0.9140
3345.354989 0.9140 0.9140 0.9140 0.9140 0.9140
3350.036100 0.9140 0.9140 0.9140 0.9140 0.9140
3354.717211 0.9140 0.9140 0.9140 0.9140 0.9140
3359.398322 0.9140 0.9140 0.9140 0.9140 0.9140
3364.079433 0.9140 0.9140 0.9140 0.9140 0.9140
3368.760544 0.9140 0.9140 0.9140 0.9140 0.9140
3373.441655 0.9140 0.9140 0.9140 0.9140 0.9140
3378.122765 0.9140 0.9140 0.9140 0.9140 0.9140
3382.803876 0.9140 0.9140 0.9140 0.9140 0.9140
3387.484987 0.9140 0.9140 0.9140 0.9140 0.9140
3392.166098 0.9140 0.9140 0.9140 0.9140 0.9140
3396.847209 0.9140 0.9140 0.9140 0.9140 0.9140
3401.528320 0.9139 0.9129 0.9120 0.9120 0.9120
3406.209431 0.9120 0.9120 0.9120 0.9120 0.9120
3410.890542 0.9120 0.9120 0.9120 0.9120 0.9120
3415.571653 0.9120 0.9120 0.9120 0.9120 0.9120
3420.252764 0.9120 0.9120 0.9120 0.9120 0.9120
3424.933875 0.9120 0.9120 0.9120 0.9120 0.9120
3429.614986 0.9120 0.9120 0.9120 0.9120 0.9120
3434.296097 0.9120 0.9120 0.9120 0.9120 0.9120
3438.977208 0.9120 0.9120 0.9120 0.9120 0.9120
3443.658318 0.9120 0.9120 0.9120 0.9120 0.9120
3448.339429 0.9120 0.9120 0.9120 0.9120 0.9120
3453.020540 0.9120 0.9120 0.9120 0.9120 0.9120
3457.701651 0.9120 0.9120 0.9120 0.9120 0.9120
3462.382762 0.9120 0.9120 0.9120 0.9120 0.9120
3467.063873 0.9120 0.9120 0.9120 0.9120 0.9120
3471.744984 0.9120 0.9120 0.9120 0.9120 0.9120
3476.426095 0.9120 0.9120 0.9120 0.9120 0.9120
3481.107206 0.9120 0.9120 0.9120 0.9120 0.9120
3485.788317 0.9115 0.9110 0.9110 0.9110 0.9110
3490.469428 0.9110 0.9110 0.9110 0.9110 0.9110
3495.150539 0.9110 0.9110 0.9110 0.9110 0.9110
3499.831650 0.9110 0.9110 0.9110 0.9110 0.9110
3504.512761 0.9110 0.9110 0.9110 0.9110 0.9110
3509.193871 0.9110 0.9110 0.9109 0.9104 0.9100
3513.874982 0.9100 0.9100 0.9100 0.9100 0.9100
3518.556093 0.9100 0.9100 0.9100 0.9100 0.9100
3523.237204 0.9100 0.9100 0.9100 0.9100 0.9100
3527.918315 0.9100 0.9100 0.9100 0.9100 0.9100
3532.599426 0.9100 0.9098 0.9093 0.9086 0.9076
3537.280537 0.9070 0.9070 0.9070 0.9070 0.9070
3541.961648 0.9070 0.9065 0.9055 0.9050 0.9050
3546.642759 0.9050 0.9050 0.9047 0.9042 0.9040
3551.323870 0.9040 0.9040 0.9040 0.9037 0.9032
3556.004981 0.9030 0.9030 0.9027 0.9022 0.9020
3560.686092 0.9020 0.9020 0.9020 0.9020 0.9020
3565.367203 0.9020 0.9020 0.9020 0.9020 0.9020
3570.048314 0.9020 0.9020 0.9020 0.9020 0.9020
3574.729424 0.9020 0.9020 0.9020 0.9020 0.9020
3579.410535 0.9020 0.9020 0.9020 0.9020 0.9020
3584.091646 0.9020 0.9020 0.9020 0.9020 0.9016
3588.772757 0.9011 0.9010 0.9010 0.9010 0.9010
3593.453868 0.9010 0.9010 0.9010 0.9010 0.9010
3598.134979 0.9010 0.9010 0.9010 0.9010 0.9010
3602.816090 0.9005 0.9000 0.8990 0.8980 0.8980
3607.497201 0.8980 0.8980 0.8980 0.8975 0.8970
3612.178312 0.8964 0.8960 0.8960 0.8959 0.8948
3616.859423 0.8940 0.8940 0.8940 0.8940 0.8941
3621.540534 0.8946 0.8951 0.8956 0.8960 0.8960
3626.221645 0.8961 0.8966 0.8970 0.8970 0.8971
3630.902756 0.8976 0.8980 0.8980 0.8980 0.8980
3635.583867 0.8980 0.8980 0.8980 0.8980 0.8980
3640.264977 0.8980 0.8980 0.8980 0.8978 0.8973
3644.946088 0.8970 0.8970 0.8970 0.8970 0.8970
3649.627199 0.8970 0.8968 0.8963 0.8960 0.8960
3654.308310 0.8960 0.8960 0.8957 0.8952 0.8950
3658.989421 0.8950 0.8950 0.8950 0.8947 0.8942
3663.670532 0.8940 0.8940 0.8940 0.8940 0.8940
3668.351643 0.8940 0.8937 0.8932 0.8930 0.8930
3673.032754 0.8930 0.8930 0.8923 0.8913 0.8906
3677.713865 0.8901 0.8900 0.8900 0.8896 0.8891
3682.394976 0.8886 0.8881 0.8880 0.8880 0.8876
3687.076087 0.8871 0.8866 0.8861 0.8860 0.8860
3691.757198 0.8856 0.8851 0.8841 0.8831 0.8830
3696.438309 0.8830 0.8839 0.8849 0.8855 0.8860
3701.119419 0.8860 0.8860 0.8865 0.8870 0.8875
3705.800530 0.8880 0.8885 0.8890 0.8895 0.8900
3710.481641 0.8900 0.8900 0.8905 0.8910 0.8910
3715.162752 0.8910 0.8910 0.8910 0.8910 0.8910
3719.843863 0.8910 0.8910 0.8910 0.8910 0.8910
3724.524974 0.8910 0.8910 0.8910 0.8910 0.8909
3729.206085 0.8904 0.8900 0.8900 0.8899 0.8894
3733.887196 0.8890 0.8890 0.8887 0.8877 0.8869
3738.568307 0.8864 0.8854 0.8834 0.8817 0.8807
3743.249418 0.8798 0.8793 0.8788 0.8783 0.8776
3747.930529 0.8766 0.8758 0.8753 0.8750 0.8750
3752.611640 0.8750 0.8750 0.8750 0.8750 0.8750
3757.292751 0.8750 0.8752 0.8757 0.8760 0.8760
3761.973862 0.8768 0.8783 0.8795 0.8806 0.8816
3766.654972 0.8826 0.8841 0.8862 0.8870 0.8870
3771.336083 0.8876 0.8886 0.8893 0.8898 0.8903
3776.017194 0.8908 0.8917 0.8927 0.8933 0.8938
3780.698305 0.8940 0.8940
##END=
