##TITLE=Carbon Tetrafluoride
##JCAMP-DX=4.24
##DATA TYPE=INFRARED SPECTRUM
##CLASS=IUPAC A
##ORIGIN=NIST, Analytical Chemistry Division, 301-975-3108
##OWNER=COPYRIGHT (C) 2000 by the U.S. Secretary of Commerce
##DATE=00/02/01
##$SPECTRA VERSION=1.10
##$UNCERTAINTY IN Y=2.2 % relative (B=1.3E-04,C=6.1E-07,D=3.6E-09)
##CAS NAME=Carbon tetrafluoride
##CAS REGISTRY NO=75-73-0
##MOLFORM=C F4
##MP=-150 C
##BP=-129 C
##$NIST SOURCE=QUANT-IR
##SPECTROMETER/DATA SYSTEM=IFS66V (Bruker)
##INSTRUMENT PARAMETERS=KBr Beam Splitter; MCT Detector; Multipass cell
##STATE=gas
##SAMPLE DESCRIPTION=Carbon Tetrafluoride Primary Gas Standard
##PRESSURE=101.3 Pa
##TEMPERATURE=23 C
##SAMPLING PROCEDURE=1 L/min Flow
##RESOLUTION=0.9640
##DATA PROCESSING=Triangular Apodization
##XUNITS=cm-1
##YUNITS=(micromol/mol)-1m-1 (base 10)
##XFACTOR=1.0
##YFACTOR=5.8207E-11
##DELTAX=0.4820
##FIRSTX=575.168
##LASTX=3974.592
##FIRSTY=-.0000944
##MAXX=3974.11
##MINX=575.17
##MAXY=.040136
##MINY=-.0002368
##NPOINTS=7052
##XYDATA=(X++(Y..Y))
575.17-1621828-745300-633546-482545-571904-1240518
577.58-981632-354910-1339242-2008566-2094731-1977564
580.47-1740629-1615625-658211-164783-119887-6363
583.36-245409-340825 596345 1057053 612461-101447
586.26-573337-396716-791523-1699101-1008350-92175
589.15-492059-869737-988958-487224-485375-326186
592.04-143084-822161-744177-556137-685119-451977
594.93-637052-919249-976128-1311570-695324-421749
597.83-809234-810601-433734-110542-454502-527220
600.72-264131-117140-349919-831264-686523-314161
603.61-155603-99937-287810-534925-123148 488876
606.51-68910-594700-505586-135075-58297-221040
609.40-208965-346944-285860-72121-50862-258313
612.29-270313-221897-296051 6245 24704-172258
615.18-121837-179712-295084-463341-664155-453534
618.08-106259-126203-100330-221839-582230-600413
620.97-297354-360652-450572-447859-685107-836927
623.86-918312-677322-626659-671885-592141-670074
626.75-649519-445436-362702-319599-277965 250746
629.65 516325 2632533 8621938 6125732 419971-315884
632.54-713029-648081-766798-673346-665787-709271
635.43-558202-348989-583577-485603-181105-226977
638.33-420777-592465-451423-457029-690629-359223
641.22 12244 59419-174447-249318 48918-102658
644.11-355129-64550 53287-25092-44073 2343
647.00-77680 185297 576071 258780 9156 76677
649.90 31564-158736-229160-173317 73068 103180
652.79-77368 18841-118749-111446-160876-138468
655.68 43247 102082 61046-47979-168704-422871
658.57-496995-610361-671227-646730-477820-394426
661.47-561938-711994-638268-418716-319905-378759
664.36-543139-411903-293921-475952-665268-811228
667.25-531347-390494-623465-516534-430402-577089
670.15-475388-477749-665049-650792-743835-846770
673.04-694793-717183-775735-588537-760538-829018
675.93-672255-805594-786887-642133-739376-695930
678.82-504792-464674-646725-699046-654672-738049
681.72-808797-788131-608709-682095-984018-905808
684.61-602524-565556-652238-790475-833335-646497
687.50-714736-999029-872171-618587-460087-535636
690.39-759300-763185-697583-655476-532308-491265
693.29-630033-698545-765536-631348-578745-781128
696.18-727961-545473-548517-585459-608151-682285
699.07-578521-449405-467375-633644-723022-592006
701.97-444131-541964-774692-742678-594730-340808
704.86-278387-328037-311166-426504-625065-676893
707.75-720347-764859-498606-251935-424442-725764
710.64-603975-551228-614345-640974-681722-576349
713.54-452778-344719-384613-488187-355676-362970
716.43-544664-511103-508641-657469-701682-778008
719.32-590068-357364-452663-500486-473342-346684
722.21-436266-369557-276178-402899-501254-492338
725.11-385283-469686-503398-501615-509058-490427
728.00-525154-534082-410585-347751-496639-699355
730.89-568985-448681-531729-507315-508000-432089
733.79-403926-398019-316734-326330-483958-517308
736.68-480261-552825-389387-266495-415342-602302
739.57-510473-460267-404366-351934-494767-481496
742.46-409879-394908-623404-645192-317915-266606
745.36-569656-602197-562231-644346-564100-515444
748.25-494811-497308-486948-403013-431433-570376
751.14-624513-646533-628650-513290-421739-495579
754.03-561802-407300-273882-283880-381662-442386
756.93-481409-449583-442228-526535-590084-615972
759.82-616869-488759-478077-503421-409652-405242
762.71-455098-643798-746936-706333-612499-478542
765.61-460914-466266-494282-565467-493162-583131
768.50-566299-439645-506415-612245-723562-662907
771.39-546571-497478-559309-575949-479602-432935
774.28-467031-507949-557592-620809-648920-627467
777.18-501847-526712-648281-630478-647220-633092
780.07-625147-646810-680061-644030-538360-667206
782.96-653477-546971-636822-677204-705260-650677
785.85-575435-638285-715125-643215-556701-647425
788.75-773303-713072-646948-633523-606445-659050
791.64-584226-445802-475618-552582-552428-565871
794.53-586198-592050-555424-590281-670680-774344
797.43-805014-587494-559591-648843-590183-542262
800.32-531270-561133-680332-702877-568862-398938
803.21-392243-562590-656979-648564-804230-850471
806.10-589662-462349-470003-564001-736561-674598
809.00-458752-582437-690213-645917-662849-642952
811.89-636744-671597-553643-364422-244904-438102
814.78-853242-888117-669218-575822-600106-572420
817.67-624683-708777-544337-391925-517209-745574
820.57-784551-613769-506135-456587-393874-523708
823.46-640363-546053-411770-442543-524616-482329
826.35-558102-591729-624306-777157-734401-656933
829.24-753151-738612-603823-624783-686717-589918
832.14-401450-389462-522007-609685-790858-930696
835.03-691653-455217-553176-571287-680953-613896
837.92-368917-487836-660369-709121-730569-755478
840.82-798127-797403-673882-514881-652891-728656
843.71-592753-541258-590586-607094-649875-710129
846.60-616523-577201-584816-423939-260968-440899
849.49-671947-576664-505006-560624-622111-605286
852.39-518454-516852-522126-577991-689068-714031
855.28-576646-556175-504096-501916-590341-637906
858.17-666443-581572-446238-391578-361843-386425
861.06-436252-389174-492367-656329-628680-571226
863.96-566412-534792-427804-353437-405954-602368
866.85-714168-494575-302674-370021-478561-531823
869.74-596629-485279-505448-658303-656185-660980
872.64-598188-635143-721440-635430-555716-515765
875.53-436394-388004-400181-417766-449197-443732
878.42-424779-476820-534264-466916-498897-584666
881.31-472523-507323-558834-514065-478551-502335
884.21-653472-496340-384693-503855-509426-562097
887.10-595066-673791-588184-544786-586746-494565
889.99-596250-568196-348361-500544-623863-430654
892.88-539372-646714-626623-653350-477893-353959
895.78-421481-463913-522245-665061-752084-714108
898.67-663271-721362-658757-557152-532210-536338
901.56-547315-607243-679280-733099-704309-491438
904.46-529276-747261-807493-619494-527117-559629
907.35-633228-571665-487583-508475-532725-498310
910.24-455787-470546-436092-511954-563692-651888
913.13-633210-549583-610300-552026-490719-648277
916.03-647492-662443-684503-605093-496379-420284
918.92-558660-664118-623602-514064-545266-620400
921.81-595675-548630-561634-580037-500332-393935
924.70-445768-560488-475489-414719-535397-559588
927.60-538996-510799-516787-557086-564678-563455
930.49-521917-551988-579407-472721-505961-559303
933.38-434314-424930-492014-457483-513281-651368
936.28-652116-515793-527228-525278-421367-587994
939.17-679970-639378-635346-558511-528413-583125
942.06-602065-527228-505602-504216-396827-433340
944.95-571432-495594-488905-552662-550986-525847
947.85-428418-460763-533159-570068-624816-539543
950.74-470386-549285-590848-584678-570604-482820
953.63-443297-480104-474652-519370-470287-465030
956.52-622366-652182-664729-556876-478821-501773
959.42-479416-511916-475552-443134-534873-476598
962.31-358482-455298-613280-594479-527455-493817
965.20-493950-547688-495938-528624-523298-563758
968.10-643535-595663-493344-449777-427511-401607
970.99-501175-491115-569785-653018-547908-454841
973.88-404908-413178-574801-742756-754347-534130
976.77-538501-675497-592860-603420-579553-595309
979.67-527448-400726-495971-493485-449900-482858
982.56-477248-532682-623563-714933-751638-636221
985.45-617418-612875-507345-513565-475172-494221
988.34-605076-550214-444081-475000-621890-608497
991.24-544526-551384-548873-541458-405818-471191
994.13-569912-568268-599809-607604-594679-608271
997.02-692008-588769-452991-414269-412962-458174
999.92-431503-389360-539493-642789-571236-557957
1002.81-515632-548741-605737-631172-552841-515220
1005.70-533787-500897-610748-587959-519788-522151
1008.59-481054-494508-545040-555692-576444-568145
1011.49-590594-681712-599663-539014-535680-538204
1014.38-569697-576834-626763-617379-569253-455513
1017.27-469562-499819-520561-560437-549615-612066
1020.16-552296-493708-480247-374237-468219-636154
1023.06-560306-426092-446039-553201-647057-605426
1025.95-512871-461152-441196-512081-539413-551083
1028.84-549497-494971-499199-495979-472842-552612
1031.74-503879-413238-491086-477947-455986-544943
1034.63-583213-563443-553577-506976-410219-403387
1037.52-481104-537896-468946-480048-590439-587023
1040.41-570642-623676-539683-406351-453202-442731
1043.31-444062-443643-522475-648184-571780-479236
1046.20-529529-609141-606876-655535-673027-523300
1049.09-431180-453846-480153-342886-314743-426580
1051.98-416845-404339-438858-430628-369388-347842
1054.88-410537-427056-337686-375193-506787-542471
1057.77-509815-570069-553992-464968-468214-453476
1060.66-356285-327848-356810-401992-471656-494579
1063.55-611751-514934-388264-434091-304262-314728
1066.45-463594-457641-587585-571867-497716-485887
1069.34-432348-430098-412965-454717-426011-395545
1072.23-463006-542978-521799-379381-364844-372671
1075.13-407788-489770-404682-310892-397055-485992
1078.02-493938-474275-475915-584520-634883-673886
1080.91-604077-532206-550754-531819-497811-464960
1083.80-470945-499080-517906-523101-472281-504084
1086.70-593077-549260-526848-462118-449986-451075
1089.59-486350-573106-501970-546550-639686-543990
1092.48-497618-555106-542570-505058-451449-367628
1095.37-447093-438235-490781-608766-567767-622924
1098.27-612361-558851-584209-516797-479289-529947
1101.16-561480-500717-463080-454174-429923-419778
1104.05-367835-502227-535206-537814-571171-476488
1106.95-419912-442515-593780-585286-493956-610917
1109.84-638730-501654-445246-457555-467788-475601
1112.73-573899-561444-493550-459155-397610-428095
1115.62-455464-464651-506965-548516-600986-645597
1118.52-550296-595257-548253-487267-547350-418695
1121.41-449047-472630-436734-482592-502024-463927
1124.30-469214-417659-414380-561692-556523-521750
1127.19-540934-523452-482230-478821-576701-620269
1130.09-606906-500373-522432-600708-532176-485800
1132.98-537353-575416-486289-488242-570677-653756
1135.87-623461-516964-468299-442218-454341-424015
1138.77-490937-550900-542038-574289-566004-483370
1141.66-482529-431323-444109-515651-492185-519586
1144.55-494291-467778-495324-576400-524406-442378
1147.44-509234-519537-441180-369724-384522-471606
1150.34-562076-528452-466941-464464-485258-498055
1153.23-503855-492542-519049-521099-510915-563344
1156.12-526901-489318-539363-531426-481115-470554
1159.01-492956-435677-461913-550959-537859-571228
1161.91-548457-481906-483079-469369-493974-497594
1164.80-514218-535730-547309-416996-370233-549878
1167.69-627730-567221-447663-407716-422706-457554
1170.59-550302-537662-461792-466695-525812-522702
1173.48-442387-433334-367788-290181-441925-501173
1176.37-479080-555866-550694-463835-407723-445094
1179.26-408263-375889-429256-415702-398878-423727
1182.16-549360-527693-468284-521002-487450-355272
1185.05-338297-419599-458693-458354-470029-490511
1187.94-470484-451376-402500-406994-514729-544379
1190.83-574279-448794-395132-519000-466659-459701
1193.73-489551-444429-445441-467240-508658-469347
1196.62-398556-466526-556005-521738-500591-493095
1199.51-422102-406551-446683-490806-537300-527202
1202.41-470041-432727-467661-421289-445350-497504
1205.30-482902-430803-468226-493439-510443-493058
1208.19-380780-390590-538317-557665-412938-347061
1211.08-348793-323049-351157-422397-429051-398645
1213.98-469042-470521-403493-432867-478683-415367
1216.87-415694-469717-405212-392337-506367-534149
1219.76-521123-483652-446097-402810-438808-448497
1222.65-380262-299840-287343-261050-297231-343627
1225.55-347516-368819-424548-423938-320730-311942
1228.44-388993-328283-242917-270988-220085-48697
1231.33-24359 49939 117775 281499 388588 455387
1234.23 629200 850579 993917 1245045 1533930 1929053
1237.12 2095556 2114441 2390785 3167761 3491903 3092705
1240.01 3189347 4728636 5883619 3532340 1766965 3155062
1242.90 5603543 4726318 1701711 987767 935152 1057829
1245.80 1118065 1186437 1306420 1494005 1656077 1902874
1248.69 2146524 2390507 2575281 2792739 3044206 3347647
1251.58 3671888 4166674 4577108 5094893 5750653 6547061
1254.47 7359533 8331735 9346887 10280507 10770494 10867945
1257.37 10649220 10305214 9596864 8425946 7141391 7425460
1260.26 11788526 13473723 10738438 11073463 12858335 15113447
1263.15 17248202 18949882 20074942 20988621 21521115 21551827
1266.05 20799457 19751627 18315646 17562043 17644307 18729547
1268.94 19965416 21392913 22702273 24021377 25186813 27770846
1271.83 31191084 36066015 41034081 47296014 54516924 64464689
1274.72 75492244 87914374 101851340 121923690 144497630 163935182
1277.62 181922245 218702284 241112453 254076293 270787852 344508106
1280.51 400326993 321135177 241788922 345654436 689541213 564921207
1283.40 224631412 221911403 261261225 263679267 212130167 146916089
1286.29 93713162 60912318 40318181 28293936 20370640 15559073
1289.19 11820416 9524380 7204515 6147818 4725913 4026503
1292.08 3278805 2827565 2224943 2012991 1570499 1495626
1294.97 1276158 1135816 861857 836414 676828 701780
1297.87 555608 508925 393408 348142 200147 228285
1300.76 151553 91645-54601-2068-63470-22638
1303.65-106368-106236-36341-83272-208106-139807
1306.54-190127-228954-260527-211674-281339-252993
1309.44-246963-257458-202468-144048-276990-294470
1312.33-215567-164616-229373-208143-243286-297134
1315.22-325020-325571-322004-301237-380016-372686
1318.11-348012-306938-347664-337368-323809-383364
1321.01-454614-431470-324500-281961-386219-434177
1323.90-392334-336973-386289-375326-375800-326774
1326.79-309681-327982-409379-435113-418904-431132
1329.68-421293-331266-351416-416089-430057-359665
1332.58-381857-399081-398058-398711-371421-401552
1335.47-460269-396699-359834-435298-429067-355442
1338.36-355788-367546-382550-451124-464072-386079
1341.26-426484-342076-270341-308998-254063-254454
1344.15-405271-468340-433700-416774-504297-536603
1347.04-524623-487479-434706-383172-430556-538935
1349.93-608861-634431-616272-617642-664299-663708
1352.83-575048-500911-423075-302353-213494-60361
1355.72 76127 7043-135969-225010-391602-374674
1358.61-326600-410560-437615-487180-529944-488076
1361.50-505450-551770-527909-516041-533735-454911
1364.40-509380-475466-478233-519721-508628-499287
1367.29-349660-345695-419171-404426-411760-446617
1370.18-426013-489906-541036-452796-436466-423980
1373.08-410145-442377-487905-465145-387332-351098
1375.97-401039-446644-527367-461648-397283-472486
1378.86-505532-547332-473833-438415-538353-568940
1381.75-530924-544869-531997-439632-397825-418864
1384.65-374439-353902-386072-407148-363891-316424
1387.54-523367-564575-503643-513310-476288-523417
1390.43-542446-491222-457852-456022-502754-461587
1393.32-377752-273260-334565-492394-432515-383095
1396.22-483519-579146-608962-608459-481833-266230
1399.11-352332-578125-555504-527956-591246-548609
1402.00-544672-526978-454835-456956-436304-370610
1404.90-422038-460467-471414-474236-475008-492567
1407.79-465508-465336-479394-505973-516367-489549
1410.68-466907-446086-436118-430459-429217-382158
1413.57-460796-550073-504787-503214-448477-482115
1416.47-480918-360432-364670-421102-291824-48169
1419.36-214173-489073-535655-517516-471694-480640
1422.25-543901-561240-506281-445984-471437-479851
1425.14-412235-410322-483592-476030-492425-484064
1428.04-471926-498762-406093-392806-482801-541962
1430.93-542593-517425-505154-452406-395754-464741
1433.82-532168-485145-461859-505215-302061 33266
1436.72-182647-429659-520516-646973-575351-503147
1439.61-486050-453078-484342-513471-517196-532726
1442.50-536740-501566-463981-506404-565804-550756
1445.39-517666-479586-424951-403117-384725-446556
1448.29-513680-591574-617288-562782-530549-488873
1451.18-485128-510244-544070-544840-498449-462431
1454.07-455966-380316-332113-295163 127135 290419
1456.96-197639-335383-301837-401630-416878-452095
1459.86-449404-504080-523852-433571-475428-510261
1462.75-474042-492385-438057-262398-273180-436316
1465.64-464796-506527-506442-429523-374357-366164
1468.54-449954-492935-468751-427324-398115-345145
1471.43-131629-183909-387777-235799-259216-428988
1474.32-443412-443817-401481-317704-328519-395991
1477.21-410398-432398-462160-445188-425690-457989
1480.11-466780-393006-421339-493940-500550-508517
1483.00-501941-483820-459281-461628-464728-405739
1485.89-409248-408347-317732-357550-465427-471896
1488.78-394414-355807-334907-229628-298273-442964
1491.68-498415-501750-461962-431195-417679-387070
1494.57-387793-361603-32586-2643-332286-417563
1497.46-389108-197321-146474-374335-514952-489576
1500.36-421082-398595-374631-392598-397092-353937
1503.25-368821-325501-302404-37582 294841 39856
1506.14 146434 348616-46561-225504-179945-181378
1509.03-144573-141380-191620-205219-173382-94050
1511.93-101026-146073-108010-110712-170156-100970
1514.82-45511-60348-16793 13622 78463 79444
1517.71 10792-28893-72498 8676 106972 169193
1520.60 510153 457739 142368 156625 74876-9551
1523.50-30006-49282 12846 157045 54891-87481
1526.39-27421-15471-97229-112857-156654-178982
1529.28-151638-232143-248879-170784-217282-318912
1532.18-280702-234272-190021-155681-253204-235726
1535.07-193579-127826-61235 99028 364245 704985
1537.96 1516638 3948615 4191033 1416862 359686 16235
1540.85-216191 58035 56582-226064-266470-290028
1543.75-346334-208129-131209-190653-276788-377064
1546.64-392810-312569-296976-282386-215769-106439
1549.53-10101-114392-208177-163656-166444-149158
1552.42-138188-140370 36002 249783 66961-92118
1555.32-110134-139587-102531 175627 326843 534047
1558.21 563101 125802 213383 490414 196022-145344
1561.10-178564-261184-261536-253214-264952-233699
1563.99-226887-216015-249158-266647-302586-359492
1566.89-423341-410179-325910-286550-209424-64971
1569.78-195625-355773-357404-356754-395546-441228
1572.67-455357-418221-387839-450058-458886-247744
1575.57 256043 71971-348366-413730-467202-438353
1578.46-485095-489086-467078-506656-481602-462246
1581.35-494341-473786-510951-525617-501189-518725
1584.24-533963-530705-505750-487678-458477-505155
1587.14-558840-504652-492369-468180-441804-551002
1590.03-595776-524990-513539-493327-459347-440120
1592.92-432058-472102-496573-521726-553205-566425
1595.81-491367-419206-492702-531908-498344-483915
1598.71-452054-465199-512807-460863-428897-487842
1601.60-513398-526706-534015-490263-481737-485174
1604.49-485994-498119-471462-441943-429131-418469
1607.39-440355-451384-478816-511568-535355-518763
1610.28-518047-524263-454147-411915-445311-478771
1613.17-465570-463031-448415-404093-421142-294757
1616.06 128096 24236-324760-356030-404463-499504
1618.96-551504-503309-531418-506158-487746-522097
1621.85-493280-422391-225085-217790-379473-459694
1624.74-542000-519813-499459-479269-438484-387208
1627.63-375939-454208-483065-448985-449155-441379
1630.53-436862-439757-478910-501822-458583-419199
1633.42-432133-413530-267612 15186 24070-345132
1636.31-454378-396934-366477-436936-516822-483492
1639.21-428535-412723-474844-472440-469707-477197
1642.10-415430-420365-435014-421630-426708-421786
1644.99-243870 1808-260542-450710-337950-318975
1647.88-293894-324134-446672-509512-463413-406864
1650.78-433751-323885 185570 390609 462438 161395
1653.67-170893-178197-396571-462954-465505-481804
1656.56-528644-545703-525265-532469-498094-448319
1659.45-409617-387301-394217-359869-404052-358248
1662.35-307644-379530-406499-455243-476606-445562
1665.24-421115-418388-442997-470656-432673-359842
1668.13-345606-226252-227127-412492-507370-444244
1671.03-322250-348579-412557-467940-523628-494507
1673.92-383602-161082-85472-329390-472463-468084
1676.81-463186-419016-399967-438222-440217-374658
1679.70-379117-417346-482691-503362-429570-337123
1682.60-255873-182199-127008 295812 407789-177363
1685.49-394248-401235-456533-481751-397711-359049
1688.38-400743-403273-376958-339645-406102-487046
1691.27-492155-446583-423047-446121-381908-326333
1694.17-280160-134352 356837 416902-207358-414667
1697.06-374282-406542-384183-292706-31662 267472
1699.95 239422 33132-198095-329446-348911-368902
1702.85-403763-380402-253977-295112-479498-454699
1705.74-299316-267555-277369-343330-436534-398974
1708.63-364301-368376-390564-407810-436793-470238
1711.52-504427-446945-375580-434330-434873-385117
1714.42-187856-101814-149860-264082-269932 64110
1717.31-70283-203466-153400-362191-458851-465109
1720.20-423131-463026-525462-443478-386066-441971
1723.09-488120-442837-440008-452110-404680-340354
1725.99-386995-431620-421827-437064-402378-385049
1728.88-421369-373328-372108-419244-471630-515649
1731.77-463249-405730-84788-87939-128231 46575
1734.67-233240-466344-459026-421172-423195-431379
1737.56-443798-456351-458993-303661-179691-388451
1740.45-527258-516465-487253-452417-474857-431349
1743.34-379684-477675-485515-472879-474184-447542
1746.24-441212-362271-383927-423717-414512-388555
1749.13-422932-469396-367124-197893-194051-322578
1752.02-410808-480298-505422-488942-464309-481902
1754.91-508387-552994-532467-425432-428105-521998
1757.81-564080-524253-487767-442095-441675-521347
1760.70-480599-312370-359561-506376-569249-563341
1763.59-570475-583918-503410-453572-484311-487462
1766.49-504222-504429-343067-343697-397956-414113
1769.38-499929-456303-345233-257700-359258-237023
1772.27-50073-311287-501901-539597-469010-408442
1775.16-435127-506855-540633-491331-473161-483352
1778.06-487113-467303-429723-426745-423502-439206
1780.95-464386-450564-482854-513337-513575-477743
1783.84-438907-336465-361944-462588-430805-422533
1786.73-422528-413419-437907-453939-460816-466142
1789.63-460682-398660-332726-372406-366500-163689
1792.52-192397-390431-434901-463849-487918-495121
1795.41-439756-399831-471785-487445-473912-469821
1798.30-467983-414285-383923-452487-479685-485801
1801.20-434720-391793-459517-505740-538378-541091
1804.09-473823-432389-444731-511863-484651-425710
1806.98-418873-384622-412286-460379-451463-502275
1809.88-505640-455729-455344-445820-394067-366125
1812.77-430313-452807-426724-495399-558295-460712
1815.66-392432-423237-453998-480707-510393-527793
1818.55-505522-489610-496902-531487-501325-454398
1821.45-462137-483612-566445-594989-476392-434843
1824.34-384255-331768-418024-521585-561973-502258
1827.23-527957-561759-423342-372155-346785-286808
1830.12-384854-462774-483539-512574-479069-441754
1833.02-452550-457453-468331-438326-448519-451876
1835.91-450169-451652-421062-447058-478670-492957
1838.80-511130-535362-500223-470385-482264-489569
1841.70-517503-500720-440865-316425-100943-209965
1844.59-415941-462788-506834-547725-554332-459919
1847.48-485397-566220-507010-459740-554426-621579
1850.37-554068-490260-491858-509900-516529-506680
1853.27-492715-486345-516814-522491-509816-575786
1856.16-571517-471733-515464-570842-529846-533046
1859.05-537409-567274-551223-553981-541684-510294
1861.94-516011-467847-456309-448790-418177-451944
1864.84-476603-508434-536203-525367-509045-403805
1867.73-447892-489581-400648-368051-360224-411865
1870.62-491682-488901-449331-470071-519888-536953
1873.52-521093-486831-516407-504462-508335-504632
1876.41-488954-508141-470713-474582-470196-461806
1879.30-443455-445855-463663-467741-511647-532940
1882.19-502553-485402-469640-519784-565538-459365
1885.09-417918-454509-480231-504903-460711-403987
1887.98-419759-431667-372199-367817-438549-523409
1890.87-546871-487556-484040-470726-440947-466068
1893.76-440080-415692-427757-456439-436082-386094
1896.66-431410-425667-376211-453497-503722-462201
1899.55-444661-447141-418927-354210-315027-379041
1902.44-466426-451588-424087-407270-420649-389348
1905.34-362793-360568-372938-402621-386720-443360
1908.23-457579-435813-422853-382378-403405-396831
1911.12-369199-361787-332001-335340-410117-422421
1914.01-388924-446569-413283-349395-381012-411663
1916.91-365115-255172-261749-329509-305097-357035
1919.80-414755-407670-375443-322696-357822-319628
1922.69-336233-417599-419983-378063-360543-401728
1925.58-432250-470820-454911-414902-445118-455556
1928.48-424362-383863-380987-405845-365937-354553
1931.37-423551-449890-463687-457398-362812-362615
1934.26-410447-426883-421790-426546-444504-433052
1937.16-472977-519716-503009-446042-401427-416514
1940.05-394274-365886-404701-415253-417392-447889
1942.94-454477-469114-491217-432427-435223-506314
1945.83-461459-414215-433895-352657-367210-459768
1948.73-450804-510022-518419-484036-456499-437849
1951.62-474794-481734-452631-443624-453751-451860
1954.51-487196-499868-454985-448157-487116-497210
1957.40-472832-453830-431397-385717-416304-466225
1960.30-439310-450347-489354-497080-508939-487532
1963.19-429002-443609-439154-452092-478571-447542
1966.08-406845-352424-364718-413630-459829-470678
1968.98-483601-504291-544371-501857-400316-438273
1971.87-496570-520306-501282-477928-461463-457181
1974.76-445578-470487-548445-475943-425646-489830
1977.65-495778-463122-484532-479825-414266-459080
1980.55-495222-428949-423608-441314-442679-481752
1983.44-531473-512566-463362-493223-497727-442026
1986.33-458367-489275-496805-489082-429374-420781
1989.22-504425-502343-423564-472721-492663-445913
1992.12-496123-524497-520174-529358-504308-488019
1995.01-509481-501474-448547-417876-454790-522025
1997.90-531832-469194-438507-465379-450635-406056
2000.80-387801-417664-483866-528347-531753-527998
2003.69-521155-497093-495469-484154-488895-466848
2006.58-467536-508982-473321-435237-505452-532394
2009.47-494260-463402-451514-490043-509801-555046
2012.37-550809-518883-509655-516963-555150-519978
2015.26-425121-447012-473442-435298-465954-516523
2018.15-510902-496999-497617-533079-552581-505089
2021.04-466105-481942-500658-496110-524051-528023
2023.94-524511-558950-567347-533939-563207-606863
2026.83-566742-549588-497918-476248-496692-498766
2029.72-524250-479909-470543-549787-553785-557074
2032.61-533321-516051-579224-566006-524958-474922
2035.51-452872-468182-469483-495743-522239-483976
2038.40-484366-531280-530296-529663-561310-552964
2041.29-498349-481626-516734-533123-505612-486924
2044.19-525547-558340-538033-512136-507000-468989
2047.08-507097-559481-582956-580460-557635-510119
2049.97-451741-458740-476568-489564-532803-539125
2052.86-504254-555553-579506-571163-551550-522588
2055.76-517079-511490-505631-468830-470732-522245
2058.65-516993-500630-509443-498373-473783-473190
2061.54-500390-541913-542375-519312-538988-529064
2064.43-507577-524900-521387-531014-531255-505109
2067.33-473980-488424-504448-489942-515680-475199
2070.22-456375-487479-482632-482278-529619-537609
2073.11-459053-427787-426542-469672-552307-563754
2076.01-575697-562109-488138-418924-416632-489417
2078.90-530656-492205-521714-517624-443526-454143
2081.79-465531-477926-518850-479715-449473-491638
2084.68-515859-527350-491992-454355-448876-483850
2087.58-486061-483797-526302-486837-509043-538153
2090.47-472196-493060-502818-425462-407742-445302
2093.36-455540-510313-516621-500396-489470-524722
2096.25-498813-447389-466449-453698-514686-545898
2099.15-513816-491718-494692-522079-554825-570750
2102.04-507520-409705-435746-531480-538217-443557
2104.93-450953-527380-532320-534801-540396-474067
2107.83-430569-508952-522198-491864-520474-491395
2110.72-464720-454477-445347-482687-522165-479121
2113.61-404489-422401-502737-531774-481626-472151
2116.50-505766-489292-459976-466296-467031-442969
2119.40-493488-541501-499766-527202-525111-484684
2122.29-495515-521061-535414-487617-486631-487074
2125.18-411202-452880-496798-485236-541976-479423
2128.07-461353-525906-438091-415983-458603-460145
2130.97-474316-458309-440097-479076-490056-460844
2133.86-432175-375022-402978-472437-506358-509380
2136.75-470918-428445-447869-460681-469194-443202
2139.65-403294-441060-459986-419073-389139-429767
2142.54-455124-402297-338685-321927-351870-401366
2145.43-392740-413445-391182-406135-461135-432450
2148.32-439619-411075-443500-539144-517415-412301
2151.22-390999-409124-454755-473594-403172-483579
2154.11-517478-506892-478109-404457-399128-411096
2157.00-426963-428093-421116-422322-484499-495599
2159.89-460572-443410-425889-474300-516991-496020
2162.79-416529-375416-364656-330001-351310-382056
2165.68-396373-404550-444518-451791-439530-445575
2168.57-439260-456060-422842-366364-379030-316441
2171.47-269423-301838-288855-258614-240872-244384
2174.36-244160-234906-240726-241595-93246 8911
2177.25-14108 46016 100153 158893 223726 338101
2180.14 442788 485629 574372 731941 821783 792743
2183.04 943461 1194731 1002387 713025 1409227 2390367
2185.93 1735784 541177 425163 673353 695249 456024
2188.82 165850-92065-250635-313773-338311-341651
2191.71-370274-409370-524065-605171-529980-487399
2194.61-486390-446152-477606-482614-441700-434239
2197.50-421841-466631-501250-495611-494790-518373
2200.39-545227-489460-447868-416162-435783-506656
2203.29-528269-505808-488036-530560-491147-482762
2206.18-502014-483974-490224-462403-440530-449350
2209.07-429304-434659-493232-524347-568915-531466
2211.96-516446-553991-496518-500265-494250-447483
2214.86-494148-529313-448538-370752-416014-439134
2217.75-445829-456570-391508-347650-353393-405390
2220.64-454071-476905-479444-445132-454574-456303
2223.53-415449-480755-501794-446522-453529-458151
2226.43-446341-439441-468074-465376-453158-450532
2229.32-481553-508262-423742-443122-493649-485631
2232.21-491923-489222-519888-534611-518328-435944
2235.11-436195-509157-489104-452329-450749-432291
2238.00-457780-512131-470472-439592-500105-489331
2240.89-417046-470255-514431-478834-507785-551754
2243.78-515530-441012-483073-469573-395720-416465
2246.68-409880-464896-520495-518584-558108-517060
2249.57-456102-425481-367091-410572-511557-498720
2252.46-494504-538017-498211-458410-443439-481944
2255.35-549690-549060-485459-464630-483397-486712
2258.25-452551-402810-442682-448068-486678-538643
2261.14-554715-556845-477891-442582-432362-448429
2264.03-448852-464107-471459-440589-469423-504290
2266.93-451070-414732-494003-566944-546259-520573
2269.82-520667-458784-467880-481165-424791-396671
2272.71-411375-436714-465579-479289-511487-528492
2275.60-456081-424855-508227-517969-444678-474558
2278.50-460445-417419-477745-521014-512702-448234
2281.39-432751-459373-449011-506595-549784-494089
2284.28-473684-443463-370069-403717-463060-458308
2287.17-422179-443185-467969-456404-427557-392097
2290.07-443176-494744-490273-445967-412042-453262
2292.96-439385-380496-362335-386039-434003-483774
2295.85-483395-475123-532183-500545-407583-363413
2298.74-438303-483549-437335-458138-478657-456123
2301.64-427450-418473-425528-507125-481715-404609
2304.53-420298-441083-459813-414429-374717-424393
2307.42-463982-444872-432365-525968-534741-410878
2310.32-359239-381807-423666-436966-361704-304097
2313.21-423234-466540-392681-394789-396115-351570
2316.10-323120-319125-350925-412651-397305-308180
2318.99-344225-397321-349784-317908-388888-431869
2321.89-415876-321415-308450-435495-350395-201339
2324.78-257514-384174-345328-165764-235839-462761
2327.67-318980-97858-239646-435429-315918-144751
2330.56-286464-422011-255895-172918-353822-369777
2333.46-149280-204739-390771-227833-69553-221042
2336.35-294873-156157-181675-415811-383292-189661
2339.24-254533-374270-244771-183705-376882-341380
2342.14-169584-335627-474929-269529-209755-349118
2345.03-332462-263177-361579-435089-455676-460740
2347.92-460574-439688-404679-403117-432828-429035
2350.81-301966-328945-410466-270474-302050-414336
2353.71-277849-254287-363018-191154-149563-350504
2356.60-160887-175514-280332-10303-155708-316870
2359.49-49164-206097-317825-58608-253570-265961
2362.38-127085-313456-128000-103745-286271-103464
2365.28-184152-189635-61376-292822-247441-244143
2368.17-267353-225036-402852-356256-326594-305493
2371.06-327946-377240-277665-322058-398175-453319
2373.96-367208-298639-368278-420607-468263-467793
2376.85-463298-419357-389405-390902-401434-412632
2379.74-391952-352656-438109-479983-445918-511176
2382.63-487388-478910-483242-464746-461702-452463
2385.53-504176-520459-531030-503226-425051-431008
2388.42-482230-516492-514924-514501-533656-492240
2391.31-422221-392192-442154-489308-456386-492255
2394.20-473553-380420-428132-465669-468266-463297
2397.10-412793-386063-434590-439798-402001-426243
2399.99-431135-391380-397469-440233-391021-403760
2402.88-482566-573107-590955-490113-453160-533267
2405.78-534791-432652-420563-405381-357387-341329
2408.67-393181-440309-412724-362588-408701-448305
2411.56-373846-389165-451769-468851-505389-465640
2414.45-463844-511530-492790-461446-438451-399860
2417.35-429507-474788-435883-437318-422737-449973
2420.24-486304-431730-451557-492601-457219-421561
2423.13-432803-442749-465783-423718-326274-376526
2426.02-444367-455348-463076-411369-376109-381837
2428.92-364458-402003-434042-440715-483344-495185
2431.81-465383-412048-470060-513359-470363-490148
2434.70-459225-376024-411147-435049-385887-394129
2437.60-450496-484354-482713-491703-435511-441789
2440.49-517162-482070-455695-471843-511298-509494
2443.38-476950-458740-409758-420784-440451-437613
2446.27-401625-398019-506635-497377-384006-411234
2449.17-430998-357847-364304-410849-425123-397353
2452.06-444538-483381-448905-389203-439913-495543
2454.95-442364-459838-493744-465491-417702-435261
2457.84-410341-438801-432850-446760-503082-535542
2460.74-518793-462537-462141-424299-372744-358930
2463.63-370388-396540-456142-445408-411522-457159
2466.52-479705-447477-457771-509309-501851-383537
2469.42-411838-487919-469849-463920-451559-438048
2472.31-478503-557485-521119-515151-501412-455178
2475.20-472508-437447-408212-437496-432675-459015
2478.09-494047-541417-538662-476273-485852-457679
2480.99-417584-399605-499870-523636-424137-411077
2483.88-486939-520451-460430-475335-522979-556121
2486.77-508455-405413-406373-412066-390565-462005
2489.66-537835-482582-478150-500095-463058-536959
2492.56-519945-433085-471874-425341-369709-431903
2495.45-452051-390409-375735-422844-436615-494376
2498.34-543287-487472-497205-518674-430625-381980
2501.24-443450-450838-379077-385661-448519-465253
2504.13-461432-451405-393261-371076-376474-411544
2507.02-455432-425407-386421-420180-423557-443684
2509.91-518749-487872-421122-423655-475524-442319
2512.81-360591-386541-473125-472552-417935-407545
2515.70-439537-412214-420691-455265-440641-425121
2518.59-449881-478538-398047-432717-510194-534135
2521.48-509713-412707-406765-434406-371360-341928
2524.38-328652-286783-353724-468758-494903-488729
2527.27-438202-400886-451716-446554-465735-480804
2530.16-401071-417636-429857-371267-413139-425680
2533.05-406171-395908-376131-421155-433262-366708
2535.95-294565-281860-314621-341938-378063-348522
2538.84-366691-406930-369779-398389-442694-443830
2541.73-400894-400300-450610-470495-455409-475250
2544.63-461167-413023-409799-418748-506009-590867
2547.52-570756-557085-554958-579331-615049-738992
2550.41-867016-929541-960921-932406-903222-932675
2553.30-1039412-1202875-1229877-1211593-1348669-1478039
2556.20-1496516-1649111-1749056-1645252-1631467-1722613
2559.09-1884652-2038957-2093286-2141567-2370198-2150578
2561.98-1657107-1509726-1716676-1819493-1822406-2516729
2564.87-3835448-4069298-2734583-1181788-649748-1010197
2567.77-1594252-2126152-2271298-2259577-2069548-1841774
2570.66-1662393-1438430-1175677-906972-718207-538847
2573.55-447055-476994-537331-588557-478521-429604
2576.45-470774-416494-323327-271367-274188-284148
2579.34-317186-351459-332688-329276-305260-278995
2582.23-334888-363979-400513-327855-250031-261455
2585.12-255439-267846-261907-309862-334876-327790
2588.02-317166-331998-408069-370723-293342-270336
2590.91-264436-295501-284020-237495-284471-287978
2593.80-254548-274378-306073-347864-398181-449209
2596.69-343014-272544-300980-278067-312235-361439
2599.59-332898-323258-337753-351798-352871-317959
2602.48-276059-285031-250706-235283-237467-253887
2605.37-335827-347117-385216-344092-327019-383402
2608.27-403095-455661-467925-419067-415996-365566
2611.16-343082-371924-383840-470091-451483-352065
2614.05-328614-343007-427283-434496-424811-431360
2616.94-416459-443747-534162-563368-470670-446001
2619.84-416518-388439-362102-421201-458465-413407
2622.73-429903-422385-408107-405842-417776-406756
2625.62-403646-495215-509823-426071-435802-535944
2628.51-575681-477800-392105-413794-415695-391682
2631.41-432135-529824-506805-459426-475290-453681
2634.30-475664-493486-490766-484076-493031-526528
2637.19-511699-518521-543290-494012-513063-483471
2640.09-335664-330880-348931-291147-322977-398122
2642.98-457037-509979-505074-578239-578078-564876
2645.87-617352-552523-431198-453443-517601-454151
2648.76-377179-335709-387282-424030-445189-531841
2651.66-479016-419348-488928-461109-458507-504531
2654.55-383806-342669-412737-404105-353349-422491
2657.44-502246-464463-486149-423175-447928-508295
2660.33-476708-437033-438142-452323-458867-474823
2663.23-451672-492713-487686-482322-443011-415690
2666.12-476196-448394-455037-449522-391827-449875
2669.01-476084-413189-390110-458769-460438-396452
2671.91-363099-340792-380805-447847-477530-450102
2674.80-390324-425863-494369-471354-444928-421558
2677.69-467707-536022-466100-394477-469979-469614
2680.58-467339-506324-505017-455814-395505-396754
2683.48-417028-402531-384022-424224-362421-435079
2686.37-536262-482087-463114-478636-417958-430058
2689.26-448719-362569-395964-504672-513992-491404
2692.15-511285-444965-442940-465452-454336-423231
2695.05-337885-342994-491702-529490-506358-484397
2697.94-483929-537935-485720-435835-431277-419087
2700.83-418772-473940-504829-431223-426930-472614
2703.73-462721-506916-459989-355429-351765-429120
2706.62-368885-190325-227593-320524-319648-273657
2709.51-295756-414652-409917-413941-471062-414248
2712.40-397182-450253-438698-451671-411559-454046
2715.30-573663-578798-476084-386060-384644-351605
2718.19-380159-395808-389404-361844-347171-399379
2721.08-459686-487597-469993-477529-466899-412913
2723.97-359058-309907-327584-403820-447320-463285
2726.87-421461-402451-375296-387643-463033-417239
2729.76-370182-366499-392527-391618-395151-389757
2732.65-401232-475642-442350-376986-456822-439599
2735.55-309626-407260-493420-455742-395394-384739
2738.44-369402-394814-470274-420823-396222-399596
2741.33-431823-485867-455849-429240-455582-441199
2744.22-470007-498835-385538-337317-371931-339316
2747.12-360888-395761-391730-463963-466017-415455
2750.01-487249-481601-478959-518636-457358-412933
2752.90-336847-297438-343236-311135-384828-422706
2755.79-413265-441696-397326-458196-489774-470160
2758.69-461371-453602-401375-427641-512146-477788
2761.58-443504-359167-320720-347741-312274-326578
2764.47-361140-394352-386715-446242-527595-437992
2767.36-436522-505365-456724-450686-456303-435988
2770.26-395123-386175-458389-445381-432387-489529
2773.15-531674-481125-455263-430918-370481-420096
2776.04-451104-362374-291996-319864-445906-569072
2778.94-509029-386199-383722-436269-468267-448994
2781.83-394980-410994-504559-512225-434211-411950
2784.72-457401-500042-461864-347389-367032-482394
2787.61-473461-454429-426907-367688-382810-486567
2790.51-539486-474920-472446-495286-515741-486570
2793.40-413875-408621-490562-491990-466902-427017
2796.29-402514-424512-403082-432274-466006-506702
2799.18-437527-387927-357186-366800-474139-437011
2802.08-402464-502710-501737-435451-411498-446041
2804.97-437738-378209-398916-450591-430911-418001
2807.86-494674-502200-444842-399368-353483-320220
2810.76-426838-464127-424989-385168-322143-427795
2813.65-468892-458851-472259-449707-441866-452415
2816.54-448294-395007-359565-398564-395241-418468
2819.43-474003-455616-449093-429309-401042-424152
2822.33-433838-435814-480321-461907-422460-430833
2825.22-490421-452815-407450-436738-414655-380234
2828.11-437168-473181-406564-430655-425987-375708
2831.00-431769-498826-475964-409532-397064-414403
2833.90-434543-493769-492992-384308-293001-321129
2836.79-402291-563950-548858-392187-320145-311668
2839.68-320925-290050-271972-224131-278314-406824
2842.58-389827-328111-390725-426631-424289-438184
2845.47-421493-405271-390725-370200-353601-369103
2848.36-388194-372230-431400-430623-407947-378284
2851.25-349303-430032-438717-344166-321195-391705
2854.15-448827-450065-402743-367998-399486-350315
2857.04-333933-395025-417107-366515-296291-348462
2859.93-366180-388636-469587-397471-336622-368100
2862.82-371284-432302-348123-262268-317154-372135
2865.72-398158-475418-478080-466406-474202-356310
2868.61-319648-368633-436123-444788-362021-364768
2871.50-492166-513626-493450-411649-334792-353823
2874.40-358032-361926-455932-486493-436313-460843
2877.29-422130-438334-435679-374834-363141-377725
2880.18-431469-376179-362102-372967-334084-357791
2883.07-403683-420368-369323-415726-400282-347401
2885.97-383146-350173-381182-406431-349755-405496
2888.86-460612-386554-320879-278770-307943-387917
2891.75-382806-440893-483683-428766-334884-277856
2894.64-333673-393751-343705-236095-256311-335531
2897.54-462762-502953-396278-294368-285209-405161
2900.43-395491-378471-433937-487318-441339-228429
2903.32-240474-386028-434880-436481-447979-346699
2906.22-397129-451115-292267-197439-166714-152789
2909.11-247075-353148-292657-330933-421735-463359
2912.00-509560-494851-372968-411125-440443-406564
2914.89-433785-327868-273983-319354-368036-404671
2917.79-429344-394799-387008-455391-474727-378752
2920.68-309058-339243-423962-359198-317871-482260
2923.57-451164-406281-476274-422548-394546-471872
2926.46-442055-378332-381775-404659-455522-569920
2929.36-493573-289664-252590-346657-477910-544174
2932.25-507819-474395-513679-484241-395839-371768
2935.14-412657-412435-390346-367513-424749-479431
2938.04-474494-476583-491349-443976-364545-320591
2940.93-308898-345520-359287-437505-478871-458520
2943.82-503198-541030-454758-429900-420143-365923
2946.71-376962-430151-419835-383652-546338-566878
2949.61-441344-361075-311632-326398-377667-322874
2952.50-280758-417247-469640-478487-451818-421465
2955.39-366451-349438-358525-305149-316245-330835
2958.28-358346-462922-528681-497052-534585-525527
2961.18-418336-393965-350587-353875-334512-385892
2964.07-513372-479955-437761-395560-307199-352283
2966.96-451068-466259-490599-493553-498910-505411
2969.86-503044-461609-383618-332401-385358-390872
2972.75-431613-434139-405221-367573-393271-437980
2975.64-350112-410696-478118-427767-399137-472606
2978.53-505348-522210-441142-390570-436148-476666
2981.43-427508-360459-402584-361330-404493-476244
2984.32-455836-465713-424163-375789-339087-366018
2987.21-406475-298205-379820-542299-548521-493607
2990.10-423928-436144-453460-393593-349550-403131
2993.00-446754-471684-444425-431808-402069-291967
2995.89-356347-333340-330943-377978-297804-285038
2998.78-276893-382783-452103-478059-434036-316428
3001.68-342562-377626-439639-419846-343548-384740
3004.57-422676-380847-367156-441096-387843-406605
3007.46-473469-452988-401212-363088-391227-387140
3010.35-455938-514779-487166-460067-434583-489734
3013.25-480081-379490-426748-429138-417896-480933
3016.14-506680-529276-499738-452536-431099-354882
3019.03-394189-459648-378651-325510-313100-401383
3021.92-442132-370967-344172-313846-323685-356631
3024.82-353559-448091-407889-381655-541947-522090
3027.71-495097-485272-445580-478170-408391-395790
3030.60-527485-480997-376677-339179-372283-442827
3033.49-453447-446007-421826-418905-356735-443214
3036.39-531014-474190-435080-360903-380851-449128
3039.28-470105-472428-432120-413150-439594-499867
3042.17-541504-468987-409557-435170-472672-394535
3045.07-372536-470501-553451-527115-474797-453252
3047.96-380056-329765-438793-549800-471074-370361
3050.85-324249-328934-484473-499782-331743-277257
3053.74-422720-442382-318601-357308-435421-468138
3056.64-397840-303893-358543-433005-457817-448845
3059.53-392144-371460-408511-539660-531577-380023
3062.42-406360-574740-592831-476684-433218-391381
3065.31-317577-303426-281327-354123-440767-432739
3068.21-443636-390988-326752-319774-322211-375597
3071.10-381363-406415-432722-380335-384715-343597
3073.99-337470-375069-393881-475070-442204-459564
3076.89-520169-456824-364187-373524-430962-366152
3079.78-357236-404314-448548-444451-381523-362163
3082.67-299015-276511-305872-335504-438119-444185
3085.56-373635-399587-403730-370828-367735-283577
3088.46-238463-321843-384060-359012-329714-353703
3091.35-411906-440628-335621-318439-370105-396773
3094.24-462579-411801-240179-324495-428429-379750
3097.13-351249-353545-404984-401846-405379-371826
3100.03-326131-340348-377500-362287-382181-420557
3102.92-344480-283459-407144-520954-440232-337068
3105.81-439675-503218-341840-289916-413486-359447
3108.71-350424-515293-526736-441965-306020-266694
3111.60-352682-392250-483261-538118-428764-444562
3114.49-486890-495556-471415-409965-402509-308501
3117.38-252928-274795-334898-383466-378742-401075
3120.28-266784-256633-406500-431322-470662-383739
3123.17-275021-343793-442730-374450-361308-411202
3126.06-329571-256900-263862-367888-352046-303079
3128.95-331622-310625-315503-370982-391215-393653
3131.85-439919-392900-224781-150207-234211-253387
3134.74-259812-302525-473126-569415-449740-448999
3137.63-340871-283535-404683-435719-399463-334932
3140.53-372598-364328-323165-240950-190734-285078
3143.42-421577-523911-413227-387886-512938-475523
3146.31-346273-248065-325352-446009-467685-445350
3149.20-413741-447448-535880-482039-375147-454181
3152.10-440282-456333-466369-351616-353693-381849
3154.99-463621-439684-354954-415955-362521-291452
3157.88-340749-371824-377743-360711-352379-353608
3160.77-386673-410238-390474-431679-445718-499193
3163.67-347421-214598-362479-526050-592021-479347
3166.56-369432-424751-533796-512485-468912-414987
3169.45-317826-298564-362637-357657-262248-341254
3172.35-582807-507145-386202-364630-397429-511506
3175.24-431368-369714-402363-392859-341104-292025
3178.13-249365-380032-421134-336884-409375-462629
3181.02-512499-382032-281616-342414-312566-350616
3183.92-492509-560943-501582-468558-391900-335231
3186.81-444681-480240-401474-357069-372211-338653
3189.70-278277-387447-398554-340842-381881-388236
3192.59-471646-389737-394169-519744-418742-358367
3195.49-312595-267386-326219-385891-441651-406204
3198.38-365904-469806-405151-371865-468603-401078
3201.27-285756-284221-250716-322477-400397-420877
3204.17-402953-317232-377147-465878-519546-496865
3207.06-505751-473903-490223-487473-438524-485935
3209.95-477798-479824-519756-511092-423821-398587
3212.84-380668-282869-313638-424189-356747-293763
3215.74-457507-573650-412422-291354-335580-383332
3218.63-392355-334673-220089-256806-384036-372139
3221.52-324484-309075-307219-348131-425868-506558
3224.41-418645-315035-421158-510888-493196-422783
3227.31-385785-407785-510908-512828-385724-382103
3230.20-337122-348925-389471-359955-482422-435824
3233.09-357102-381646-349852-313981-388758-460026
3235.99-390352-302042-241934-344036-414291-317589
3238.88-304501-501860-593530-517586-447883-395679
3241.77-428133-474677-495077-415112-349453-337261
3244.66-298290-304379-409745-426281-370760-383989
3247.56-395894-398650-338911-364621-442332-390139
3250.45-360082-451482-420913-322660-445602-448791
3253.34-253384-219155-378742-454062-391342-389714
3256.23-471726-511301-441528-231384-138249-338971
3259.13-547702-554012-427575-338683-376513-448281
3262.02-349800-117174-190172-354491-362892-398807
3264.91-375875-373454-344749-350014-419136-462075
3267.80-416997-334172-293495-255883-354612-468036
3270.70-475542-475998-463774-381386-356012-378467
3273.59-346312-299432-307907-339879-308556-281543
3276.48-290211-298757-348761-384942-406549-519670
3279.38-449105-348464-339778-367395-443785-417577
3282.27-311860-227072-315266-404536-369273-406861
3285.16-392435-288321-253823-229835-359479-490133
3288.05-401368-304733-250704-336391-431539-339874
3290.95-321784-381411-392310-449742-397087-317349
3293.84-412209-437056-400632-417587-412161-384957
3296.73-367685-346439-289282-290634-399588-499852
3299.62-446592-345660-373058-395345-335233-312858
3302.52-317987-364666-578913-547931-374587-480867
3305.41-458362-315095-236311-255128-341889-397300
3308.30-333695-319645-359294-345602-339614-442059
3311.20-593319-489287-433144-542718-372910-226965
3314.09-277935-222306-257891-404329-352953-332796
3316.98-559656-443369-282400-352355-412446-472483
3319.87-386162-344767-396627-440900-479224-399888
3322.77-387729-422308-320330-382049-549815-570275
3325.66-416142-362306-476263-564227-643176-518985
3328.55-371206-454179-457777-356449-364725-434929
3331.44-337031-292520-521026-499288-441819-480638
3334.34-395708-357125-414277-375701-305725-310161
3337.23-473976-567928-479697-444238-482302-467652
3340.12-356530-443472-421859-352473-395067-390371
3343.02-387058-310212-349403-465839-458886-489806
3345.91-529497-487187-526086-492740-289823-299250
3348.80-481991-602220-602913-464498-345864-349108
3351.69-296583-267636-351156-418335-410790-404660
3354.59-428980-429123-388798-334296-283504-376000
3357.48-515728-357607-278020-327380-352084-356839
3360.37-279137-432104-560372-376315-257127-320799
3363.26-375812-486573-600036-429428-331652-464949
3366.16-456863-448777-416147-389179-440892-416943
3369.05-420613-390104-208871-230490-307413-297170
3371.94-354051-372542-400724-379696-331911-260410
3374.84-263545-353806-340979-431463-495247-371407
3377.73-385667-397577-392640-498064-558114-450230
3380.62-358025-320897-260043-204316-182096-177451
3383.51-157689-156142-197097-389456-549960-529116
3386.41-329873-186944-200635-340593-345289-346314
3389.30-343909-337779-337387-274192-471875-473139
3392.19-411208-378182-243945-313599-484604-479077
3395.08-386436-416463-399883-336201-248350-291562
3397.98-455922-434794-394621-316769-329566-287428
3400.87-212068-346736-405461-382167-414824-358865
3403.76-293900-321325-337085-438792-348744-351827
3406.66-503020-446747-335288-279654-341111-370150
3409.55-274363-200987-253864-255504-290751-300989
3412.44-319985-467474-456796-300439-156305-158042
3415.33-276744-363276-369099-260361-201889-307892
3418.23-411269-484441-447081-334956-190140-75519
3421.12-178582-360234-367373-348268-287122-227162
3424.01-278192-266562-424561-515167-445026-404529
3426.90-279413-168701-315793-368853-297091-297693
3429.80-320833-365092-401392-392664-378568-366882
3432.69-307094-322841-320846-308343-282971-273894
3435.58-227073-201709-153524-150822-375426-390548
3438.48-163268-93101-172984-247609-191731-233531
3441.37-296026-349216-480892-377126-120476-120017
3444.26-316187-290878-180946-156209-248932-372550
3447.15-380444-204898-199349-340300-218389-183609
3450.05-254679-257362-364012-568285-527848-290715
3452.94-172114-177789-182090-162244-215804-319621
3455.83-410565-382253-420380-398970-309075-375146
3458.72-435289-414975-342568-240828-204899-335419
3461.62-363324-285737-249367-178550-117926-43494
3464.51-168087-277923-239448-287374-345309-386114
3467.40-255862-179448-314479-404379-314800-321593
3470.30-444512-516862-409955-283889-433642-493545
3473.19-411206-327293-215633-356454-463841-404185
3476.08-242152-90975-159259-131544-141552-325983
3478.97-389832-459527-466694-344193-265253-312452
3481.87-435380-424038-379133-366561-264150-240478
3484.76-316324-325044-443851-464460-384733-304829
3487.65-128127-143090-272262-253502-337810-392308
3490.54-346256-354545-370674-296557-183984-267731
3493.44-255434-252015-322572-342517-360868-214001
3496.33-166174-273014-361790-311914-334659-318043
3499.22-221540-252380-179131-191524-282292-246894
3502.11-304871-385422-424226-310618-129986-315236
3505.01-464394-447607-446064-499108-499703-315718
3507.90-255897-393723-472706-433155-321454-221532
3510.79-340065-406740-344422-416610-408048-407105
3513.69-501563-309277-202623-369815-435151-470182
3516.58-489816-387933-292972-310829-361532-351152
3519.47-436557-484587-365515-419347-286214-150648
3522.36-285550-330390-364773-330869-192207-223042
3525.26-352215-361940-332880-413979-457260-338423
3528.15-363661-442854-471145-451599-315082-329506
3531.04-394345-312451-348427-335074-366184-449425
3533.93-269552-171972-232503-263895-387994-441784
3536.83-335667-400676-425833-314882-248897-316737
3539.72-302853-230107-374553-501740-445484-334111
3542.61-414563-408972-303009-243176-368736-421128
3545.51-295382-341162-339719-328422-256337-250545
3548.40-390054-368279-386341-383633-305497-333772
3551.29-285727-314772-398840-430925-433888-418199
3554.18-383342-353409-368357-428175-427003-270202
3557.08-196506-294031-431082-515381-441538-375165
3559.97-414563-247170-99312-220154-402065-386979
3562.86-350787-427111-411207-378651-342530-268430
3565.75-330482-271710-209613-132716-65580-277928
3568.65-378117-274728-247327-386599-492458-522439
3571.54-470797-364639-355532-394722-306951-305920
3574.43-334202-344653-318709-210805-210600-304718
3577.33-366433-416548-429634-353972-313474-324010
3580.22-421262-466505-507018-449694-334917-370081
3583.11-255312-271025-309076-282216-257163-117612
3586.00-253555-508009-441232-353518-296104-184628
3588.90-433467-537437-314034-202981-279185-411536
3591.79-389068-320466-262266-206041-330642-494205
3594.68-467721-469499-511203-434614-544002-636901
3597.57-467416-297378-224679-260053-339972-381774
3600.47-265869-228926-287431-288796-342558-337252
3603.36-347631-394885-387891-339999-348484-486129
3606.25-418889-339561-418433-374152-305139-121884
3609.15-152702-222327-194831-287999-367917-257559
3612.04-137837-270627-406765-270671-209833-281821
3614.93-289533-346929-362485-403244-229511-141675
3617.82-261276-411255-290504-46120-116795-281039
3620.72-348562-312872-267672-255604-299137-277594
3623.61-298809-339845-254606-221276-261378-275468
3626.50-98388 39961 152497 180212 88077 186465
3629.39-69088-313565-253341-337914-276411-264555
3632.29-302568-173743-102221-173788-324809-288216
3635.18-208971-344301-424223-401412-334826-267222
3638.07-214058-167197-222154-217725-187647-277806
3640.97-336290-279351-284051-260822-234178-307627
3643.86-327790-333335-341573-296249-293806-273686
3646.75-129018-92026-172545 47789 325275 99031
3649.64-158342-90902-134510-288511-279864-202718
3652.54-242177-323132-368378-304038-226360-261257
3655.43-61850 59802-148536-298968-341444-283278
3658.32-305549-410497-333860-222391-176973-260765
3661.21-375890-400086-242144-112262-315547-381932
3664.11-156608-108905-208222-345528-377353-256510
3667.00-341186-370593-64171 12697-175519-207195
3669.89 104400 166349-188123-186408-210049-372872
3672.79-363219-299126-181969 8023-10406 174121
3675.68 241032-136995-247922-263167-181523-116619
3678.57-108533-203979-401492-309078-188707-319830
3681.46-387026-276541-152832-181031-270443-337499
3684.36-320194-305480-412650-349178-198056-152679
3687.25-4447 403232 311438-70732-210191-213853
3690.14-140748-78800-114720-245516-352969-245602
3693.03-103607-236702-289564-367140-378822-294049
3695.93-275820-234547-316717-371471-249207-271218
3698.82-306017-118057-91311-246152-246782-106838
3701.71-121193-287285-319730-220120-227102-248734
3704.61-273741-360483-435552-398520-319385-339306
3707.50-368843-381196-232140-42735-165590-260341
3710.39-220474-332296-93517 129933-66908-225474
3713.28-324209-447938-459160-396605-312634-284024
3716.18-423182-351378-273470-419717-420175-416377
3719.07-404420-319748-266739-187312-281541-391206
3721.96-311651-236363-254354-201538-218947-258465
3724.85-276465-370127-289221-143421-205445-282411
3727.75-279692-268377-301470-263999-211781-273289
3730.64-343825-298795-123399-203659-318703-382989
3733.53-343789-186232-209580-271366-309855-14527
3736.43 93393-266661-260001-104092-209125-349199
3739.32-283161-268944-283540-153582-117231-217509
3742.21-311679-247378-260176 120663 665262 328120
3745.10-241564-314090-234054-252162-334866-344972
3748.00-315361 130415 524396 111802-185143-237796
3750.89-246230 191315 402535 1177-186086-213577
3753.78-262942-263021-363555-433669-337530-182984
3756.67-244730-414481-385709-361296-366117-184798
3759.57-58867-166488-343528-442323-429769-312340
3762.46-276730-426347-360803-234572-317113-378402
3765.35-403754-384654-333188-238997-218644-203290
3768.24-286757-360691-154557-253804-343381-217149
3771.14-306145-347728-323051-350034-329648-278304
3774.03-154057-88352-147616-298120-382091-304764
3776.92-317588-352788-255623-182561-143898-237338
3779.82-269729-202990-287250-368977-307140-185850
3782.71-172515-292626-281825-218503-402908-329760
3785.60-345560-315455-142201-308167-407402-377418
3788.49-322000-316960-301282-230740-172287-160622
3791.39-250314-332388-181469-127790-331726-394075
3794.28-422988-364636-327533-176585-170962-439433
3797.17-425427-249737-245862-253360-268204-258702
3800.06-24178 330559 397116 2087-265572-303858
3802.96-249592-293333-268719-150877-240146-382917
3805.85-370649-75287-47583-288577-268973-183144
3808.74-313431-393311-320805-305605-281471-274103
3811.64-229488-173327-251276-305559-262853-202986
3814.53-227742-86725 340272 83292-280660-179987
3817.42-179060-238474-316111-319770-253923-131337
3820.31-166880-146059 18275-207174-255052-158519
3823.21-224865-209912-292094-342267-236496-204198
3826.10-178200-292031-399398-345293-288359-242750
3828.99-368883-400971-462828-482947-282260-265191
3831.88-421870-507986-551520-464435-320428-163475
3834.78-166819-344868-396637-459217-370709 65269
3837.67-68077-303136-271779-306406-268951-220006
3840.56-245384-484203-527065-586500-771698-709445
3843.46-438657-262877-450566-574701-398922-171801
3846.35-420871-974546-627739-64844-229762-1287009
3849.24-1629476-685935-225536-246903-99939-108984
3852.13-340920-301466 233730 634643 250681-333799
3855.03-589940-506460-334792-338037-490326-540694
3857.92-514972-596401-541758-436528-474258-502642
3860.81-443582-400247-477269-323267-176879-227932
3863.70-248419-137055-33722-169815-272024-337465
3866.60-312942-223058-325827-297724-219054-214789
3869.49 88594 10649-292447-218185-260715-389734
3872.38-354969-235529-138200-113385-251944-246779
3875.28-310971-374300-284629-351589-371183-333173
3878.17-300588-305089-267261-202066-214256-245936
3881.06-325646-412808-501214-553297-435687-387283
3883.95-341961-266473-68888 47844-148976-227039
3886.85-226124-136829-224440-358441-351705-296205
3889.74-273853-126193 149712-30973-318513-320233
3892.63-279576-228198-201392-261488-355882-403357
3895.52-280698-414279-427556-251094-295489-341676
3898.42-323638-179822-128872-245157-315154-197591
3901.31-14209-141955-223292-61332 70837 73089
3904.20-158358-219475-202802-273853-264543-229884
3907.10-183043-216096-328012-399749-243810-138491
3909.99-235428-370013-433163-280788-225832-221304
3912.88-220072-229100-212598-181926-134455-191452
3915.77-250694-185925-64051-57188-265983-543928
3918.67-541389-348951-296413-296695-249459-256603
3921.56-345051-405785-285476-271535-123473-77364
3924.45-280450-81898-22608-47159-101597-253019
3927.34-119619-95915-134711-279655-335775-201051
3930.24-430959-605786-525365-376323-351502-456423
3933.13-308676-327393-394939-323625-339917-338081
3936.02-339559-213085-153357-201414-208748-248796
3938.92-225592-357400-560118-527201-444839-397256
3941.81-278970-168434-159373-116034-92949-79929
3944.70-153069-170093-150977-320742-312842-280190
3947.59-384323-311505-269388-289523-309737-319009
3950.49-258060-353254-333991-281263-309144-371346
3953.38-486317-307968-229616-376136-389111-256118
3956.27-132835-138583-302961-292055-193397-255151
3959.16-283045-301596-372030-320227-101309-108407
3962.06-252614-345085-519657-485950-375614-347586
3964.95-229139-191082-134805-140145-185291-245053
3967.84-299630-261322-148574-153085-273339-377020
3970.74-496767-378662-240690-197810-122483-240926
3973.63-399510-307618
##END=
