##TITLE=Dichlorodifluoromethane
##JCAMP-DX=4.24
##DATA TYPE=INFRARED SPECTRUM
##CLASS=IUPAC A
##ORIGIN=NIST, Analytical Chemistry Division, 301-975-3108
##OWNER=COPYRIGHT (C) 2001 by the U.S. Secretary of Commerce
##DATE=01/06/01
##$SPECTRA VERSION=1.10
##$UNCERTAINTY IN Y=2.1 % relative (B=1.11E-04,C=1.83E-9,D=7.56E-14)
##CAS NAME=Dichlorodifluoromethane
##CAS REGISTRY NO=75-71-8
##MOLFORM=C Cl2 F2
##MP=-158 C
##BP=-29.8 C
##$NIST SOURCE=QUANT-IR
##SPECTROMETER/DATA SYSTEM=IFS66V (Bruker)
##INSTRUMENT PARAMETERS=KBr Beam Splitter; MCT Detector; Multipass cell
##STATE=gas
##SAMPLE DESCRIPTION=Dichlorodifluoromethane Primary Gas Standard
##PRESSURE=101.3 Pa
##TEMPERATURE=23 C
##SAMPLING PROCEDURE=1 L/min Flow
##RESOLUTION=1.9290
##DATA PROCESSING=Boxcar Apodization
##XUNITS=cm-1
##YUNITS=(micromol/mol)-1m-1 (base 10)
##XFACTOR=1.0
##YFACTOR=7.2759E-12
##DELTAX=0.9645
##FIRSTX=575.652
##LASTX=3974.605
##FIRSTY=3.05E-07
##MAXX=3973.64
##MINX=575.65
##MAXY=.0042634
##MINY=-.0000106
##NPOINTS=3526
##XYDATA=(X++(Y..Y))
575.65 41949-131008 83159-486589 279952-432023
580.47 789307-565679 403249-552162 240856-500040
586.26-91033-151630 355686 195840-13212-367064
592.04-292212-6433 15589-549298 392381-82347
597.83 209501-164853 310343-452979 268780-402774
603.62 372019-254329-38608-526228 153888-209877
609.40 312454-223844 214134-131263 146757-315032
615.19 286005-412266-74486-375905 158292-373792
620.97 304791-331572 458761-428536 49365-279134
626.76 198902-309142 319208-137340 254757-369265
632.54 285440-126391 349953-348301 490127-321918
638.33 543918-132501 422855-112897 949401 210206
644.11 867687 589069 1357577 931915 1957982 1656633
649.90 2882762 2400771 3571860 3444082 4604317 4471386
655.68 5611940 5282697 6227685 5921612 6708398 6795431
661.47 8265780 8886253 10746445 10183029 9454179 7156483
667.25 8523229 10846099 11515012 8959272 8359348 7113477
673.04 7676524 7379181 8054858 7252158 7568804 6382498
678.83 6293621 4718232 4627509 3210254 3196133 1877497
684.61 2268141 934474 1429375 412341 979990-1982
690.40 740625-160085 619382-357720 559643-387706
696.18 432491-428172 362380-254691 508868-414077
701.97 352705-345732 389326-202738 450921-254283
707.75 441417-162743 356648-289320 437769-245405
713.54 512158-117664 495406-352151 446199-215872
719.32 636312-157266 531422-248372 456910-249660
725.11 583104-275833 468646-223533 448680-242822
730.89 599374-231843 567566-419598 435492-407313
736.68 452006-361428 467803-314063 602545-346215
742.47 398645-348771 562814-284859 562815-267175
748.25 654010-206041 612336-238180 624826-98539
754.04 575451-231251 582995-330788 581190-280832
759.82 570401-256341 591836-290703 562608-376086
765.61 673649-404521 595366-378595 521892-511921
771.39 495811-479036 416238-500489 525926-603856
777.18 470427-504310 655390-575319 509194-608817
782.96 458365-379115 483902-452837 396584-625131
788.75 476386-735270 570593-677459 437991-626246
794.53 447788-637310 538703-625014 568950-740103
800.32 579178-662402 633423-770997 516059-670806
806.11 482404-779917 685694-786323 566644-718118
811.89 538922-732984 616937-720533 483383-574961
817.68 729580-788153 749576-751926 804233-642442
823.46 751630-576341 850020-315747 1068861-289335
829.25 1242521-407087 1387630-265465 1179945-275768
835.03 1232951-169636 1457426 8359 2088479 464974
840.82 1724042-99024 1688911 118991 1951310 353244
846.60 2295824 671305 2771841 1026008 3097353 1612199
852.39 3772425 2328669 4795129 3377585 6048657 4770661
858.17 7722183 6451979 10048554 9018875 12617653 12135096
863.96 16251716 15773382 20246180 20322295 25486696 25556195
869.75 30799230 31540128 37404331 37647564 44136956 45045533
875.53 53216147 53611476 56926954 52668068 56829579 58596114
881.32 68522297 71727357 68113995 50656777 57420128 60772064
887.10 79065527 80492745 60345318 65877747 69477740 52113576
892.89 53350255 46572820 49174447 41642403 44310917 37361290
898.67 41959692 36003920 44093695 41978661 54757710 56491029
904.46 73875037 78503451 102723939 112396358 143751660 155407981
910.24 188697320 192364053 220745729 210440000 231528605 202206845
916.03 226306437 193435338 256678613 247436268 357170537 415778816
921.81 431458950 227478832 170074723 237901095 233399677 266423380
927.60 273283369 289306370 267687156 252334403 206624267 174099938
933.39 125450875 96590991 60356329 44807132 23283219 19085136
939.17 7233620 8530753 1339016 4572081-690652 3020647
944.96-1383382 2376824-1461107 2071643-1464051 1859303
950.74-1351416 1630659-1348119 1585728-1338972 1391820
956.53-1204550 1450934-1141736 1259541-1196789 1175511
962.31-1055540 1048323-1065325 1043697-958435 922483
968.10-934142 849273-881630 841454-976698 760183
973.88-793851 774810-855025 761839-809458 725198
979.67-741533 614988-744710 620851-701338 666179
985.45-641494 607695-550119 570435-638547 516330
991.24-647641 484554-622326 436931-610316 454747
997.03-537867 414029-580647 434887-541829 334754
1002.81-519479 368779-463051 328215-505389 320773
1008.60-478813 301703-513307 279907-489894 233130
1014.38-406559 230079-393142 201719-368314 255666
1020.17-357049 243249-411878 224028-435075 236244
1025.95-290594 274077-241598 264281-280887 194677
1031.74-179864 264628-282955 249371-219259 190829
1037.52-173252 194383-213667 284999-128393 174593
1043.31-48863 307007 6797 274635 60954 273555
1049.09 96427 451886 156894 596137 419400 730080
1054.88 646488 973091 1040511 1295554 1414578 1839021
1060.67 1873749 2325621 2444573 2976290 3199361 3818441
1066.45 4305112 5006689 5989562 7117225 8246511 9816219
1072.24 11399572 14333325 17964269 20150235 22389861 26926585
1078.02 32310300 38565947 45672007 53760284 62698389 72665520
1083.81 83479382 94930500 106980539 119015934 130985943 142848233
1089.59 153583826 162567175 170163990 178512657 186101557 196224253
1095.38 206648529 223494038 226516546 230807789 231245829 219493172
1101.16 295584469 275971027 230629167 186353521 180288671 184389610
1106.95 182707469 182896502 181380302 173009338 162633863 147350544
1112.73 132146984 114287959 99087168 83637795 72595116 60202936
1118.52 51803978 45910755 47398174 44502846 40204791 34230083
1124.31 42396593 45278863 40334977 28118596 33315044 39481288
1130.09 33456920 29856591 29553225 28475050 30596513 30410560
1135.88 34207633 35188512 41132851 44166932 53059374 58357525
1141.66 70323895 77502536 91180725 98682087 111782781 117212810
1147.45 126749330 127866662 133060448 122192911 128146582 117905868
1153.23 123536956 123731745 149276580 135248734 239043984 180606253
1159.02 169255944 585962812 72196475 99057020 82001241 91158047
1164.80 79128025 88805483 80923045 87588280 78786175 80714230
1170.59 69794426 68217900 56060775 52966061 41140888 37952418
1176.37 27478940 25205938 16850672 15841607 9403529 9722191
1182.16 4762740 6008829 2192725 3877600 831135 2842709
1187.95 374672 2389549 27849 2163634 58991 2115960
1193.73 133854 1979106 24375 1924551 147034 2031571
1199.52 389607 2215152 276773 1588754 106670 1673641
1205.30 399527 1971467 612883 1464912-91104 1387950
1211.09-70842 1334049-40780 1258782-26731 1203441
1216.87 11873 1252057 55191 1250412 88164 1406883
1222.66 309113 1580440 461420 1690705 767159 1918658
1228.44 943659 1927973 954598 2156193 1160820 2146107
1234.23 1256615 2437106 1657146 2815598 2214617 3372986
1240.01 2764501 3374659 2404367 2706651 874951 1988418
1245.80 804454 1687777 732366 1651376 826457 1665785
1251.59 685559 1488459 520415 1264736 234051 948403
1257.37-16529 740945-188805 553622-320527 396467
1263.16-333981 343856-462421 361429-401171 399211
1268.94-411065 325368-374701 348474-351586 275944
1274.73-427213 293844-387636 286384-319982 289589
1280.51-355817 348892-333079 318512-383212 323730
1286.30-341464 367111-339431 311353-268799 326358
1292.08-307553 371777-256031 341977-231019 363447
1297.87-220092 373099-233782 383569-214051 390742
1303.65-232679 416203-152574 416053-179309 450305
1309.44-105904 457453-68495 421320-144468 498751
1315.23-51205 543565-25624 502435-118060 481867
1321.01 13394 573962 4551 586235 15388 611638
1326.80 77030 541660 55287 579140 70280 701244
1332.58 121006 599535 150119 629692 121247 591560
1338.37 207044 625861 281670 748868 275379 763759
1344.15 344513 890541 372731 713955 413299 632070
1349.94 268565 560915 123189 679318 348788 1022193
1355.72 595666 936348 510225 859575 314167 776949
1361.51 637403 841185 460608 977349 622000 1010346
1367.29 512547 1109355 653301 1016475 714367 1132120
1373.08 828510 1228452 856333 1038475 836473 1140005
1378.87 790159 1339464 708926 1211129 690913 1403930
1384.65 1098414 1219884 616201 1039559 594241 871699
1390.44 491484 781735 359572 692536 223348 347153
1396.22 77629 347071-19647 267164-40291 207267
1402.01-176850 221849-147505 218197-81466 206567
1407.79-115294 182509-127224 160290-157339 192287
1413.58-161013 183986-203672 184456-131653 120225
1419.36-166227 130395-157204 179757-160245 141225
1425.15-135121 122816-139406 150841-195868 148047
1430.93-173385 148051-189988 183289-164217 27194
1436.72-201127 149355-165837 134462-227102 150478
1442.51-153377 155621-221717 105897-187847 75107
1448.29-137109 120730-191674 52599-166810 142807
1454.08-124676 31391-304919 126329-196953 164342
1459.86-137091 210662-109702 234988-150865 225316
1465.65-24176 268226 51422 249611 8063 229582
1471.43-83460 184491 530 300595-28922 351074
1477.22 67396 410883 204390 233218 4380 231460
1483.00 7382 288645-15438 179944-78163 227217
1488.79-94398 136568-149164 153543-113928 142044
1494.57-203445-53719-151013 52931-184320 108179
1500.36-184434 147357-151841 100107-271105-60347
1506.15-265400 105313-204711 86691-96522 108284
1511.93-148991 179182-121553 110883-150655 77472
1517.72-50281 199347-155786 30670-76224 168775
1523.50-38487 106940 43767 202660 45977 191772
1529.29-30044 195031 26565 138692-60881 197493
1535.07 62555 204797-43949 38412-193989 98156
1540.86-94449 104141-41703 173438-77414 154323
1546.64-29098 190425-2997 183792-14330 184425
1552.43-8212 139792-23866 148121-74865 12055
1558.21-74651 33677-9057 199008-54132 192871
1564.00 22008 152372 36698 266426 63038 240815
1569.79 114808 378319 160107 420302 249509 366416
1575.57 156038 575520 364611 633202 467524 724135
1581.36 473546 769038 532858 806640 399813 1177621
1587.14 527540 976911 865306 519788 547939 734935
1592.93 634139 713606 574812 659522 456841 594057
1598.71 318892 381113 110722 226210 15659 149329
1604.50-34157 79154-104186 61285-113237 147040
1610.28-103094 37614-81656 12244-100898-47344
1616.07-245588 94976-93461 58529-97915 63359
1621.85-164313 25915-123002 33781-90601 1883
1627.64-111828 78537-100260 17644-83993 76565
1633.43-106586-143763-139570 8227-143121 35109
1639.21-97981 77035-96447 81894-99855 50150
1645.00-232446 25115-126932 10975-68558 13498
1650.78-152489-235885-231700 12250-45841 43549
1656.57-83499 33643-82563 8730-64336-200
1662.35-160118 64057-116167 51639-90829 72934
1668.14-199758 58283-76730 31286-100556 64340
1673.92-190930-35984-62443 34343-86399 33088
1679.71-104613 64049-177298 570-331661-54050
1685.49-44953 26851-107917 2424-59530-2157
1691.28-86514-15888-86355-51648-304486 54496
1697.07-130305 15015-282744-95989-76626 22054
1702.85-122765 22075-82162-5893-80028 34634
1708.64-95221 38671-109678 34869-87565-414
1714.42-132260 39603-284371-60645-133634 48746
1720.21-60013 53634-71252 61985-72084 29020
1725.99-25500 38140-67338 28335-18592 63106
1731.78-62214-67329-127785 68287-35467 71524
1737.56-18718 21572-37209 137385 56370 185291
1743.35 97412 241599 151102 279047 141445 317174
1749.13 232029 304059 241441 392635 252470 428789
1754.92 359214 435221 346959 476029 382415 508820
1760.71 343582 488866 343418 523478 350282 319902
1766.49 212816 300478 279792 350323 187580 175873
1772.28 173504 312604 113405 222607 25459 183861
1778.06 86282 167670 19837 118127 18330 164626
1783.85 33755 151364 21667 220254 171210 201276
1789.63 101281 230259 74448 250896 218944 298929
1795.42 184486 289683 265636 352438 240246 356404
1801.20 266006 392848 261233 395260 259155 385529
1806.99 274487 345205 252946 330985 177008 328978
1812.77 296178 254392 190254 323874 184536 293834
1818.56 275027 252993 211114 295797 242344 239257
1824.35 177649 228323 169482 225318 139769 196189
1830.13 225850 294569 263431 274599 166647 276513
1835.92 201167 327349 201011 339759 203414 206322
1841.70 175103 238422 140114 174701 194385 224835
1847.49 90001 145691 96833 115813 51615 104840
1853.27-43905 33967-100905 14858-72880-73003
1859.06-142358-45689-163427-67722-173878-86780
1864.84-115449-82606-145436-62949-132411-38547
1870.63-133347-75313-92191-10569-58519-31577
1876.41-85641-8556-43884-17182-56835 29575
1882.20-56941 48701-55817 26205-50481-10768
1887.99-88833-455-1693-24012-36945 26923
1893.77-83089 19177-47455-12687-51657 51998
1899.56-21695 9655-56522 11619-26507 25297
1905.34-58729-19334-6351 22878-23232 26776
1911.13-27646 12422-75354 5764-63717-2975
1916.91-69500 23186-40896 23823-40163-4692
1922.70 2798 19885-9800 13165 946 12545
1928.48-42184 10556-29205 34930-29329-13733
1934.27-322 25372-22408-7789-24529 23718
1940.05-57499 20942-9056-17238-22377 17189
1945.84-24993-16832-6340 12695-908 47612
1951.63-13205 32592-47185 36070-12762 21576
1957.41-6242 6375 10956 28353-9981 27
1963.20 18872 15847 26117 38980-25453 50211
1968.98-52631 38026 26680 37421 49724 53622
1974.77-27755 33569-43617 40717-14881-2238
1980.55-8267 1293-1869 18167 7990 28701
1986.34-8165 24642 9732 48245-25883 11565
1992.12-4794 51763-9361-4865 2954 53463
1997.91 24764 39053 59135 67688 32514 75526
2003.69 17232 46784 47541 104868 61861 82055
2009.48 66836 83638 81856 93638 38217 98303
2015.27 69435 71150 55695 81469 62830 78168
2021.05 66823-3961 24666 38605 5410 72946
2026.84 95833 98837 47413 29396 3310 37821
2032.62-4236 63232-2672 39385 34844 61153
2038.41 17497 49071 26987 32227 580 26351
2044.19 39335 59241 27576 36443 18415 34181
2049.98 16368 86009 58261 30574-4242 5493
2055.76 35567 24293-3646 35932 52344 17636
2061.55-5479 3099 40140 31852 10083 17548
2067.33 2085 7849-18212-23052 45011 29963
2073.12-23581-724 20008 6125-2940 15779
2078.91-71639-30611-30682 29178 4610 61384
2084.69-2425 6843-1063-13944-32731-25269
2090.48 12591 72001-35791-523 18829 16849
2096.26 31076-20749-26252 40314-55304-15137
2102.05-14864-18575-45091 1396-20832-3495
2107.83 16941 7620-14413-6396-40606 22431
2113.62-19314-40386-15702-5097-12410-50999
2119.40-9343 1441-17698-41797-30118 897
2125.19 40251-23557-16976-6781-21921 9476
2130.97-38883 16211 16093-16985 4331 6118
2136.76-7567-2664 29763-98 8951-8065
2142.55 21107-13902-26333 20743 18393 25870
2148.33-37541-46320 6743-4155-39643-14917
2154.12-56678-49057-6060-44150-41192-40731
2159.90 14626-15553 14752-20805 6140-21688
2165.69 93771 19406 53134 81033 101907 108955
2171.47 144832 149346 217065 273375 272982 326422
2177.26 414284 452049 430393 506352 577761 637667
2183.04 649277 720889 790589 887207 896051 879563
2188.83 1001602 1051856 1125895 1006136 1293575 1267997
2194.61 1136906 935369 845246 845238 929340 914058
2200.40 979086 948180 820383 755001 718720 550038
2206.19 492258 442205 375489 292521 298973 237775
2211.97 332008 271836 258845 274758 354050 360587
2217.76 386030 374098 451909 488479 571172 521453
2223.54 651022 678705 853325 864736 1012754 1040446
2229.33 1166579 1286384 1398920 1458196 1591361 1656382
2235.11 1780589 1839981 2016037 1988234 2135791 2172133
2240.90 2173468 2150948 2438997 2419388 2910355 2263426
2246.68 2380084 2879184 5602431 2920517 1222563 1640717
2252.47 1117390 1333288 1258519 1441641 1273379 1259208
2258.25 1104818 1048756 884179 840858 624169 507100
2264.04 422216 415154 295271 298200 226430 228966
2269.83 234898 264560 202609 231168 210993 237703
2275.61 241102 222660 293710 317561 179561 232136
2281.40 190797 280606 34729 78654 63934 90493
2287.18-13884 77159 111124 120028 149873 177549
2292.97 190226 210099 229114 282130 326885 363577
2298.75 405780 520007 543679 562317 641472 618651
2304.54 548146 603364 786717 1099424 1200302 581599
2310.32 631011 1172596 1231202 1038740 851607 699131
2316.11 762102 705608 677701 653456 472293 405560
2321.89 733940 488062 462970 352815 326709 201603
2327.68 215481 151406 222505 74463 103166 29282
2333.47 53746-3932-4284-28656-32185-38106
2339.25-35125-59309-44970-99927-35308-58411
2345.04-82598-21743-80203-65662-81439-93362
2350.82 16334-35796 9444-34934 22737 23943
2356.61 68622 17137 32717 45422 41294 78836
2362.39 112656 59469 50346 31400 108331 38661
2368.18 77821 1408 114076 57098 40461 20986
2373.96 7225-1579 34635-6401-8324 9724
2379.75 59737-26720 50703 23803 27242-20049
2385.53 9342 55628 35505-13336 49939-33219
2391.32 50047 25726 45971-4848 98613 3095
2397.11 57633 28621 62775-167 75045-5383
2402.89 46130 872 38110 18567 78019-42550
2408.68 4898 76086 50801-3381 6745-14700
2414.46 81143 32344 39243 7027-10944 73170
2420.25 27647 17923 32877-29874 19012-39518
2426.03 51159 18519 24197 49403 39419 17989
2431.82 31617 7693 3987 292 5840 2018
2437.60-8831 10052 46799 22693 20883 18780
2443.39 63388 37381-538 22263-3541 127
2449.17 74604 330 34049 3424 39058-1138
2454.96 47826-22901 17977 26095 48208 23241
2460.75 64750 27037 41701-26428 31303 8289
2466.53 44810-28488 10105 45042 55272-17831
2472.32 90271-1583 66135-23266 6292 10815
2478.10-1153-66082 24790-16200 18689-19541
2483.89 35991-15804 8875-46810 47188 7567
2489.67 50584-50732 27194-17444-12473-8339
2495.46 45903-19086 17026-63224 42279-57966
2501.24 17967 39159 76777 15729 52558-12030
2507.03 67885 41709 64779 23386-12361-26421
2512.81-19622 7827-6526-29679 88815 12725
2518.60 44173 40259 46530-16200 47172-51479
2524.39-3039 43334 655-17900 15054 10032
2530.17 40031 27086 45560 1121 46268-48335
2535.96 87413-24108 35293 33210 20752-18901
2541.74 97772 47359 11335 12276 16115-29228
2547.53 43567-27669 17739-31270 74725-2535
2553.31 39939-38087 69804-20434 62499-18065
2559.10 20084-15773 19925 11286 70111-24210
2564.88 47864-222 42494 97 65138 6308
2570.67 60228-29780 41603-25184 65234-16771
2576.45 79368-20681 53072-39206 43553 12985
2582.24 14360-45227 45705-29837 40750 21966
2588.03 64047-14742 9072-39034 25660-20185
2593.81 41638 13889 7767-33524 53422 4569
2599.60 55600 41698 38056-49744 13885-4382
2605.38 43735-30455 41319 21198 30220 29630
2611.17 81097-46080 44834-21382 26976-13666
2616.95 23884-22940 32698 25319 75063-51131
2622.74-29740-29822 37943-40776 8755-79112
2628.52 37047-56172 37155 3380 79365 11715
2634.31 53666-43245 7974-35743 66707-19309
2640.09 80425-15873-11986 1024 47089-56800
2645.88-3411 31066 21138 19949 42045-44388
2651.66-15009-32293 41990-22042-8017-35765
2657.45 58663-42706 67127-7946 18307-83078
2663.24 61941-66011 21911-33781 32646-44605
2669.02 18086-21930 19624-40187 41425-30560
2674.81 60650-19980 44739-107329-3050-55823
2680.59 81411 6532 55543 6790 32492-80218
2686.38 44683-28463 56707-30511 25378-23897
2692.16 74017-32123-15057-21236 6832-84166
2697.95-25191-148146-38521-41838 74162-16023
2703.73 62645 36387 75858-16269 98003 19921
2709.52 56771-21228 65841-29259 24217-103498
2715.30 50482-110857 45701-28577 34956-27894
2721.09 60819-54200 35650-14203 45173 4872
2726.88 25921-25320-18206-38838 8696-34257
2732.66-23783-65244 34150-76136 121878 995
2738.45 20090-17230 24614-72410 27043-53966
2744.23 32039-21591-65875-48789 23028 7702
2750.02 4495-32357 68846-43802 17296-67348
2755.80 50411-19974-33711-44745-11423-19429
2761.59 55755 51278 614-85206-28884-68030
2767.37-18231-65000 17213-68365 15504-103919
2773.16 16719-10417 100774-32240-30368-82132
2778.94 12017-41276-13514-17012 12617-84864
2784.73-53357-77516-61530 32487-54017-94871
2790.52 32323-93766 12009-121939 11455-40980
2796.30-50659-63230 50252-91636 25010-97587
2802.09 8665-61101-47504 6123-22735-15742
2807.87-6662-114218 64896-55190-11035-59188
2813.66-23362-60506-28876-60203 33009-618
2819.44-8431-138733 23702-72099 25917-72277
2825.23 11260-104614 4476 13654 15160-167853
2831.01-14923-82569 23929-66497 27876-54741
2836.80-5328-38620-15583-58252 22119-101485
2842.58 22399-44982 21979-79884 19974-60770
2848.37 1254-116154 15705-51827-79067-45730
2854.16 22423-65728 39556-46145 50784-56876
2859.94-59586-112951-11076-58334 11305-54604
2865.73 118482-104766 24481-102586 68022-78672
2871.51 21157-127146 14122-109861 42865 6228
2877.30-3503-68043 39895-49471 30842-42344
2883.08 26177-142768 2296-109228 54145-125079
2888.87 39051-9601-64757-67267 54236-54820
2894.65-29401-47011 4498-73167 79945-100108
2900.44 51411-38886-2250-62458-3485-26123
2906.22 27968-17300 12230-106816 36376-91556
2912.01 102560-92228 16227-54540-25289-45460
2917.80 36871-40421-27731-5610 66064-93075
2923.58-15585-62313-89897-17997-17244-112076
2929.37 53154-66965 7435-123402 13112-84410
2935.15 62454-41607 38955-46892 65804-47883
2940.94 4841-48624-13273-39465 28856-87982
2946.72 41981-123680 127658-15446 64142-95058
2952.51 22432-67125 62884-44564 51113-91884
2958.29-10967-103124 6725-150318 81387-130984
2964.08-53785-86666 37104-61016-44151-126232
2969.86 90412-24553 7137-132097 42056-101930
2975.65 15507-24095 20588-101406 40562-84554
2981.44-56096-99392 93288-62668 47895 5312
2987.22 25309-107796-13064-31518 23584-38521
2993.01 70633-55198 20682-63243 76545-41933
2998.79 59761-19592 32630-120400 67432-106929
3004.58 29311-103403-9786-46067 82835-77323
3010.36 89379-59360-9580-13551 39381-84869
3016.15 9366-97182 73344-51718 55871-30666
3021.93 112323-51438 29416-77903 79410-29456
3027.72 37531-52119 72183-18334 54516-51118
3033.50-17008-119056 50186-30987 67328-169020
3039.29 75726-68010 99873-85628 75658-88472
3045.08 5965-24026 54801-27018 63150-114497
3050.86 47482-77700 85630 32661 11539-81920
3056.65 49841-54421-1198-60123 10280-140339
3062.43 120571-154152 12523-152002 64110-68913
3068.22 78188-127900 31284-51865-36421-127563
3074.00 76357-41854 42082-87803 42245-51657
3079.79 133360-70522 54277-67958 96064-30119
3085.57 28817-42369 7236-127314 61210-6050
3091.36 42665-43663 92526-157982-3777-51030
3097.14 26174-80515 35041-9544 42203-30054
3102.93 38862-33301 54822-66447 94250-41837
3108.72-3043-92673 60604-76467 99841-66077
3114.50 31308-71552 67615-62739-8008-34699
3120.29 75709-55563 83105-44784 63209-80766
3126.07 115908-62971 19965-60688 130493-28167
3131.86-28712-35901 124077-43024 44379-139553
3137.64 97474-66565 126837-30034 52597-5311
3143.43 24933-42102-23600-103845 93569-76952
3149.21 65481-17506 54906-70207 123365-155582
3155.00 115862-50344 23005-54641 9619-94738
3160.78-598-23708 57570-105268 76791-138238
3166.57 101107-41185 81335-55703 31484-60419
3172.36 94284-138145 54482-51590-6770 8055
3178.14 64379-32784 54084-135228 8300-68356
3183.93-7023-57463 61870-33435 66656-81458
3189.71 27676-55623-30328-83870 95286-115723
3195.50-18337-120051 93027-97742-3935-79608
3201.28 160596-88091 8113-68523 17083-78093
3207.07 67748-115283 61306-37912 33717-89458
3212.85 54155-100791-8103-59426 24923-108674
3218.64 44828-74024 1529-132427 23030-73949
3224.42 82250-66787 17234-180530-37926-2661
3230.21-22157-81964 40907-64669 95831-26915
3236.00-6153-106985 47962-123095 129266-141922
3241.78-6865-82577-10704-214100 52750-36532
3247.57 49566-76764 24052-127731 48101-119095
3253.35 67069-102886 32996-106225 100803-122298
3259.14-3005-72521 103894-130557 13985-86511
3264.92 25687-93667 64918-93074 128009-101825
3270.71 56703-41094 37800-62307 96315-43300
3276.49-49609-112931 141986-69190-18425-42593
3282.28 135143-54698 59185-96494 68733-127153
3288.06 73660-21416 29418-20460 60417-98132
3293.85 38128-35693 63464-79573 61268-37394
3299.64 52797-157747 40563-120140 74460-77585
3305.42 56383-13731 34832-116456 34998-51293
3311.21 101086-66156 34192-10191 132382-57619
3316.99 137102-33557 58470-52988 132042-25102
3322.78 103937-43967 136638-31730 122864 82832
3328.56 114742-42315-10826-140998 56619-112344
3334.35 78106-5971 110913-151571 21470-78890
3340.13 5948-129907 56214-126143 52181-77943
3345.92 10332-54154 120793-130098 749-93053
3351.70 45139-98496 80635-111699 38476-102475
3357.49 87674-151817 47634-31555 73847-89643
3363.28 118287-40255-30155-107477 28931-49584
3369.06 19911-104400 97404-135529 176201-181262
3374.85 63302-165120 9963-46136 151873-79547
3380.63 155868-118488 120347-45002 60575-44723
3386.42 24248-128412 136204-450 243342 12846
3392.20 69110-117145 33613-60493 174294-136534
3397.99 73283-61089 66046-104873 106046-120590
3403.77 55534-110349 11581-42246 29788-191688
3409.56-18720-193454 82378-129179 71125-115513
3415.34 82000-155559 12976 32014-91785-78926
3421.13-16834-50944 6403-76415 41022-25693
3426.92 6534-63275-11526-100132 105866-118177
3432.70 104214-59061 88583-149151 38612-57419
3438.49 109930-41890 125849-23620 53146-142275
3444.27 33315-50049 78569-116542 133799-10023
3450.06 83931-95390-34620 19717 132143-89395
3455.84 117658-59660 66165-142625 65865-173526
3461.63 179671-11271 124909-77719 26838-112242
3467.41 127035-118634 55423-150911 188635-17230
3473.20 33224-143743 96499-103386-59007-74744
3478.98 55669-88299-7005-164458 120743-144032
3484.77 72069-121645-7827-51868 19015-117097
3490.56 74325-132690 103004-44063-3623-72767
3496.34 92164-171259 85737-16882 35567-197398
3502.13 138624-83377 78617-60065 2924-137698
3507.91-14382-104670 116526-99745 39562-81576
3513.70 188733-105067-43424-166753 36828-81140
3519.48 94056-38013 31480-107072 49207-65545
3525.27 39799-57091 102940-119264 12150-165573
3531.05 68889-40294 105720-30133-6246-132648
3536.84 125422-27528 89780-111647-18145-29304
3542.62 164980 5972 3665-126770 46844-129057
3548.41 85935-87548 91953-116490 34602-106724
3554.20 28362-94891 129462-52034 160505-106429
3559.98 137370-79100 108838-27294 117389-111188
3565.77 66571-107825 92509-120842 86947-100060
3571.55 120111-103418 192184-93620 125725-31856
3577.34 102529-97095 140923-46010 88903-39702
3583.12 198086-110502 173755-105609 93857-83230
3588.91 87617-79998 133071-57339 128395-6
3594.69 104030-55593 91385-54174 128672-90348
3600.48 103955-48250 166100-43408 116327-63883
3606.26 169595-13844 127515-54408 162962-42811
3612.05 103933-34402 197457-4238 121611-97257
3617.84 144551-37254 71808-2268 91346-29752
3623.62 129791-81445 148078-27650 8907-119452
3629.41 143398-22587 123850-58178 144677-46777
3635.19 130556-37536 110378-38646 167518-20889
3640.98 112169-67075 176290-112596 88653-149202
3646.76 118434-76211 99769-56292 137192-7259
3652.55 72717 9901 18384-139635 125016-87508
3658.33 170133-7415 157314-50338 81282-54918
3664.12 172641-78098 102555-29647 87740-66782
3669.90 11137-17390 94953-186889 50258-185873
3675.69 130817-95199 102017-116 140743-18321
3681.48 54305-56869 147154-46368 115170 52080
3687.26-37332-129992 122168-123355 187374-72203
3693.05 95263-61625 150450-68493 218105-59170
3698.83 144712-86826 6005-84555 138943-58264
3704.62 146995-54968 150626-35169 172504-163441
3710.40 145222-193963 136158-130948 81544-47285
3716.19 203495-48329 119537-13125 92224-100825
3721.97 152995-61643 195550-88854 166941-15819
3727.76 110509-79511 148328-89202 115823-17397
3733.54 93139-113460 64832-112944 164660-118641
3739.33 135490-69508 131015-76494-20939-216031
3745.12 236786-105956 163724-155419-3613-15323
3750.90-42911-121600 138787-50842 149503-113627
3756.69 122744-55901 143730-46220 138872-85628
3762.47 206091-95418 89007-119032 119933 2308
3768.26 231582-101068 194216-43385 238369-20974
3774.04 116133-142855 179649-34760 141931-84028
3779.83 136024-9589 140108-130855 117896-130169
3785.61 197083-111456 170708-84206 173663-87407
3791.40 213188-7613 141917-51986 241400-55688
3797.18 216100-133913 144700-177185 113029 46786
3802.97 67969-29467 198571-179262 85496-77586
3808.76 75015-29569 175224-89681 108975-34407
3814.54 18267-225980 177698-53213 108229-144967
3820.33 123519-26402 199470-121284 137551-80353
3826.11 180027-44679 127735-68767 109949-145905
3831.90 178830-128037 62239-153663 218588-275788
3837.68 86459-38106 119403-58287 181224-161183
3843.47 236343-91187 129327-103373 61254-74054
3849.25 134341-76242 12649-85068-131757-184909
3855.04 180254-33258 200555-42781 202668-123093
3860.82 98080-35373 129934-100594 156235-83519
3866.61 138844-185876 10096-130261 126632-55613
3872.40 130903-140462 158477-68175 136016-78255
3878.18 97487-164350 120850-77068 189894-164136
3883.97 120558-115315 189346-62159 199628-158189
3889.75 97148-205931 158763-104923 93048-143405
3895.54 192842-29331 105087-157120 210647-121432
3901.32 82234-37073 42389-152906 106563-63840
3907.11 158676-105273 180857-96543 190739-96722
3912.89 142089-56192 134350-125697 164788-87268
3918.68 35892-108947 141211-119399 95006-100807
3924.46 150464-119865 203880-7111 170722-115578
3930.25 165216-146561 149816-101621 192052-15589
3936.04 170386-46092 150375-48266 196063-120797
3941.82 161963-64601 197285-110192 145552-108917
3947.61 135718-76255 170628-49433 100920-87675
3953.39 151438-35065 112338-49126 124131-78345
3959.18 96351-18257 165652-69949 140271-159508
3964.96 86045-63997 193872-84446 123415-80599
3970.75 122188-44885 50770-110833
##END=
