##TITLE=Carbon Tetrafluoride
##JCAMP-DX=4.24
##DATA TYPE=INFRARED SPECTRUM
##CLASS=IUPAC A
##ORIGIN=NIST, Analytical Chemistry Division, 301-975-3108
##OWNER=COPYRIGHT (C) 2000 by the U.S. Secretary of Commerce
##DATE=00/02/01
##$SPECTRA VERSION=1.10
##$UNCERTAINTY IN Y=2.2 % relative (B=1.3E-04,C=6.1E-07,D=3.6E-09)
##CAS NAME=Carbon tetrafluoride
##CAS REGISTRY NO=75-73-0
##MOLFORM=C F4
##MP=-150 C
##BP=-129 C
##$NIST SOURCE=QUANT-IR
##SPECTROMETER/DATA SYSTEM=IFS66V (Bruker)
##INSTRUMENT PARAMETERS=KBr Beam Splitter; MCT Detector; Multipass cell
##STATE=gas
##SAMPLE DESCRIPTION=Carbon Tetrafluoride Primary Gas Standard
##PRESSURE=101.3 Pa
##TEMPERATURE=23 C
##SAMPLING PROCEDURE=1 L/min Flow
##RESOLUTION=1.9290
##DATA PROCESSING=Triangular Apodization
##XUNITS=cm-1
##YUNITS=(micromol/mol)-1m-1 (base 10)
##XFACTOR=1.0
##YFACTOR=2.9103E-11
##DELTAX=0.9645
##FIRSTX=575.65
##LASTX=3974.592
##FIRSTY=-.0000562
##MAXX=3973.63
##MINX=575.65
##MAXY=.025841
##MINY=-.0001869
##NPOINTS=3526
##XYDATA=(X++(Y..Y))
575.65-1934227-1286306-1739907-1948444-3294694-3758207
580.47-2550374-771312-363026 69732 1057527 85708
586.26-1323980-1978657-1281474-1334212-1307536-738989
592.04-1159917-1302648-1169842-1713112-1861340-1401669
597.83-1194161-799985-720377-648333-1117543-775698
603.61-456963-484221-19337-587288-547172-335421
609.40-548658-313580-391540-472194-219863-200374
615.18-446072-866043-791494-292341-627310-920014
620.97-787041-1028595-1508085-1406055-1242336-1155516
626.75-933780-359723 427210 7149295 8470416 570561
632.54-1302981-1203470-1204135-952017-774472-628738
638.33-902333-1019659-612161-164868-233983-282858
644.11-210217-23406-51037 388533 472866 76221
649.90-221236-201080 28686-89377-246079-167070
655.68 59065-160779-714770-1151909-1136134-999052
661.47-1189054-940962-827950-835698-1008308-1262441
667.25-1061259-1027204-1018111-1089828-1350379-1496673
673.04-1439279-1403063-1494247-1491519-1444858-1257332
678.82-1143177-1299509-1486118-1437614-1541801-1573045
684.61-1308719-1441853-1511921-1637637-1347047-1180703
690.39-1447156-1250246-1146679-1334319-1343798-1351417
696.18-1233528-1166457-1224973-1041709-1192472-1165336
701.97-1186828-1313472-859818-659058-924021-1320828
707.75-1249499-895364-1115789-1206993-1243038-1109928
713.54-841739-818249-879823-1017793-1258492-1301369
719.32-982735-899796-856074-723975-820184-910231
725.11-930845-984799-1027157-946331-908091-1107358
730.89-1058615-983494-911004-752645-778750-974370
736.68-929908-777760-983212-922325-850774-884461
742.46-985572-993916-845518-1101028-1177135-1054811
748.25-977542-909193-1076436-1227483-1047400-976205
754.03-829424-672451-859191-923702-1040785-1169417
759.82-1061826-929017-902957-1203211-1327280-1044884
765.61-966052-1051624-1086876-1025698-1201260-1250098
771.39-1092347-1057155-956861-1022888-1210643-1176697
777.18-1137731-1253046-1268088-1285989-1259693-1232301
782.96-1235513-1312532-1291296-1282411-1273438-1317365
788.75-1384312-1276891-1208011-1043443-1049625-1150796
794.53-1149929-1235558-1429767-1307662-1190899-1125366
800.32-1189562-1246486-977543-1061162-1402523-1426070
806.10-1080300-1164785-1241797-1178098-1301291-1289102
811.89-1217469-836011-1056017-1510009-1247216-1208942
817.67-1210204-1044439-1295980-1262187-937034-1047391
823.46-1053654-947581-1035259-1200148-1383804-1427343
829.24-1360260-1287988-1111290-927830-1283373-1521190
835.03-1171963-1175802-1119544-1069929-1358411-1513109
840.82-1450710-1266370-1271699-1182436-1221972-1297674
846.60-1175050-882899-938186-1138923-1129995-1152549
852.39-1058300-1190894-1288308-1111083-1072868-1228478
858.17-1109481-841057-792892-910913-1140053-1178441
863.96-996713-852191-1097772-1005733-813793-1037089
869.74-1071749-1198144-1272452-1278802-1244812-1008161
875.53-844035-848864-892663-944903-1008808-1029179
881.31-1041031-1021673-1068893-1018840-959183-1122068
887.10-1215068-1136107-1103274-1021088-989391-1056344
892.88-1187745-1154881-880922-956437-1268866-1400564
898.67-1335896-1180658-1084478-1235898-1345255-1191503
904.46-1331979-1297021-1139977-1123202-1027947-998154
910.24-932908-1032330-1202651-1181838-1115499-1191464
916.03-1315925-1156720-1031630-1172660-1150945-1137584
921.81-1155436-1056293-946081-957845-984461-1049563
927.60-1060830-1077939-1105988-1078074-1047144-990668
933.38-923039-986725-1169698-1128943-1001603-1135713
939.17-1260535-1150011-1124074-1089491-945873-945920
944.95-1020147-1058413-1007320-970262-1119635-1088262
950.74-1076061-1137732-1002539-952410-975553-1048004
956.52-1233139-1126965-990714-973865-972973-909742
962.31-973443-1113042-1030434-1024564-1044655-1135418
968.10-1129431-928565-891790-1035528-1151887-952620
973.88-971788-1295396-1237963-1178859-1207063-1101289
979.67-971563-949786-965386-1097733-1341106-1312797
985.45-1155331-1015710-1052034-1045887-1044803-1146107
991.24-1107205-1004699-989604-1136624-1183247-1236928
997.02-1123402-895429-862402-937446-1130445-1109271
1002.81-1113323-1171089-1068899-1083309-1124323-1025981
1008.59-1024198-1098384-1164209-1218024-1129170-1083682
1014.38-1172381-1168398-1010333-991804-1089856-1128768
1020.16-1001050-917165-1063257-986800-1072492-1147373
1025.95-964660-995722-1074900-1018526-990116-1001316
1031.73-946146-944801-1049144-1110689-972766-892488
1037.52-976511-1028160-1144144-1120275-949777-875879
1043.31-969349-1114414-1075271-1139390-1250003-1071628
1049.09-895954-780906-770378-846077-806708-772454
1054.88-774493-832895-1012714-1061532-981938-840663
1060.66-725144-812111-1012246-987983-773252-742689
1066.45-966963-1066355-943404-863402-852838-870289
1072.23-971869-842267-780614-842047-776642-890227
1078.02-974632-1116015-1233971-1116098-1033560-960503
1083.80-986381-1000781-1036738-1074701-955342-936897
1089.59-1031856-1106851-1096986-1052989-982650-847909
1095.37-920073-1097474-1181647-1139335-1044756-1029005
1101.16-1003246-894458-839040-933710-1067190-959563
1106.95-970216-1091021-1137015-1040876-912140-997117
1112.73-1049895-908492-862137-941674-1088252-1171138
1118.52-1117339-1021155-930840-894457-944124-926975
1124.30-888763-993126-1072062-998268-1034933-1134127
1130.09-1096093-1058430-1054494-1026198-1051914-1165009
1135.87-1064651-891084-915607-1025468-1091398-990365
1141.66-903483-954436-983256-971502-1017809-978668
1147.44-934625-813628-917730-1001560-935972-963046
1153.23-987411-1013018-1036204-1015638-1000495-939029
1159.01-917514-1006310-1069437-980698-939429-976267
1164.80-1013091-889100-999936-1045208-849430-919976
1170.59-987144-943896-955809-798563-733866-897235
1176.37-1011103-915203-813199-784221-792771-872792
1182.16-978554-925956-777230-771579-887199-902294
1187.94-847281-850034-1000152-912814-880579-897531
1193.73-869469-888242-874871-891976-984341-881510
1199.51-819810-907601-952685-844405-837324-864659
1205.30-864250-895335-850449-815587-895729-680754
1211.08-627651-704446-786931-786926-791135-771925
1216.87-764565-771312-907844-831928-755722-692254
1222.65-543684-437501-530885-598774-616192-501579
1228.44-464914-265555-15695 345920 705421 1241960
1234.23 1834245 2788116 3788627 4699258 5991593 6811524
1240.01 8814649 7532465 7268044 7660012 3313285 2531129
1245.80 2920919 3455706 4257448 5221710 6080028 7283362
1251.58 8784347 10875861 13542213 17062275 20319020 21663049
1257.37 20779757 17620990 19030764 24124811 24863391 30827876
1263.15 37833899 42100715 42966110 40599154 37703786 40082096
1268.94 44994400 51224607 59716079 76557035 99342619 134404543
1274.72 180331503 247847360 326644831 423415555 506372518 654708903
1280.51 622352479 822414151 887905856 520940516 459993109 309756338
1286.29 137790823 72302488 38368382 26314594 15961269 12479816
1292.08 8066093 6875516 4659062 4310064 2905090 2885515
1297.86 1969736 1886358 1191112 1149268 605245 706556
1303.65 380416 468880 115170 154619-92161-5641
1309.44-115755 3191-191572-42086-186671-236091
1315.22-397529-363922-494053-402386-476515-530584
1321.01-603355-469932-614434-549568-592708-497704
1326.79-570290-659282-705385-592871-665205-639285
1332.58-673032-650894-713242-688046-715533-648404
1338.36-661785-737286-749960-598321-500292-548811
1344.15-766936-822397-944703-872228-794375-962372
1349.93-1149534-1167808-1166579-911623-572091-125251
1355.72-58108-430297-669583-734533-903396-947336
1361.50-997344-978051-942637-910859-962008-852253
1367.29-735335-769969-832425-906393-907316-805212
1373.08-863240-836152-753523-856213-891240-894583
1378.86-970868-941665-1038593-1017436-892495-761915
1384.65-745946-723362-801257-983303-986645-984396
1390.43-960245-914256-844534-685077-800734-865134
1396.22-1068394-1053396-782363-934997-1095169-1063799
1402.00-1001218-872612-819226-868780-932954-926914
1407.79-929641-966904-954720-883847-838534-847966
1413.57-967932-966636-895490-811887-659976-450057
1419.36-775001-994898-977810-1025981-945142-882766
1425.14-872648-929555-957161-896279-869825-1000956
1430.93-1016519-898548-904088-976652-778528-393619
1436.72-725750-1123616-1020456-939412-991184-1034436
1442.50-990401-1008546-1056547-937475-822405-899768
1448.29-1109415-1103416-994591-1001563-1031652-902082
1454.07-787603-310108 6034-481672-765254-854297
1459.86-954825-930083-956167-894731-686738-770944
1465.64-962852-848091-802905-895411-853959-589864
1471.43-489001-579387-744804-829827-709749-748101
1477.21-855895-875018-878675-853863-924914-986490
1483.00-948621-900797-846854-751420-770593-852374
1488.78-712786-601262-799799-947330-841755-795664
1494.57-503333-334892-657345-537048-671844-906210
1500.36-785025-746360-719217-591800-104769 287552
1506.14 211476-219642-344494-305463-347298-251186
1511.93-224089-247229-190312-85936 46084 92041
1517.71-18058 35031 490019 648450 289222 25149
1523.50 3286 104350-6096-112954-209164-326050
1529.28-380816-424358-488096-451307-346758-398992
1535.07-131609 275844 2031328 5533546 3766311 239152
1540.85 33702-256784-523859-427898-399712-642097
1546.64-631194-495994-240497-228918-319214-302956
1552.42-111811 160675-40220-198220 306613 785393
1558.21 625019 474130-25048-464392-479674-475369
1563.99-452380-543196-692748-748433-526548-366657
1569.78-575325-743762-825501-826129-833911-339157
1575.57-138437-740088-910846-938807-961963-947102
1581.35-974848-1009928-1029981-1031043-972837-1003569
1587.14-1016897-950101-1040428-1071761-966933-903002
1592.92-931093-1043459-1041878-953047-990545-963630
1598.71-943378-935290-954480-1030762-993939-965779
1604.49-960488-896731-860879-913253-998375-1035946
1610.28-979230-885750-913259-896323-838896-418342
1616.06-224132-683505-946461-1024590-997725-989008
1621.85-763078-605898-881721-1017945-925255-822394
1627.63-863213-914797-871032-906806-923548-881105
1633.42-686722-271473-511994-813803-861290-927813
1639.21-874835-923450-903459-836491-857984-674245
1644.99-418296-646643-663380-710512-884440-852028
1650.78-349306 489047 253743-476540-824304-968339
1656.56-1032201-1016301-894976-790823-764440-719249
1662.35-745227-876371-881589-853637-876020-744576
1668.13-571993-753100-838142-738018-915156-878410
1673.92-492364-602910-904550-845269-839969-788188
1679.70-847118-891461-688372-326167 219279-136247
1685.49-817749-836220-788786-752039-770906-874439
1691.27-907238-787227-674143-36136 203883-536269
1697.06-777426-408917 193672 13713-557429-727906
1702.85-676891-698260-777291-601250-693701-781133
1708.63-752598-813495-916933-866483-831977-645599
1714.42-371246-393301-243343-298920-673914-868009
1720.20-923129-889275-870284-902700-847317-769556
1725.99-817754-836355-800841-773256-838901-935148
1731.77-657845-240316-273281-713651-871310-847826
1737.56-878411-664089-750394-985163-930302-866125
1743.34-895019-946402-885247-804467-797982-833499
1749.13-801365-563790-633034-918736-957971-975931
1754.91-1030329-939253-995971-1027373-935438-928715
1760.70-811942-934868-1125779-1076979-970043-971487
1766.48-901068-750104-861210-831777-657077-466696
1772.27-631677-955516-896055-961467-996546-951922
1778.06-922176-860574-883779-925377-991505-927994
1783.84-787463-828283-860042-843443-897924-902127
1789.63-809294-691663-539315-675470-926485-921503
1795.41-887360-932751-935974-851188-887009-919399
1801.20-872229-986046-1016111-920126-944852-888017
1806.98-819593-888603-959757-941652-856651-813168
1812.77-871850-973814-933608-861481-961739-1013946
1818.55-1001102-1005754-951224-1003774-1069038-873624
1824.34-790329-967483-1057144-986579-784048-701820
1830.12-879899-969305-919138-908475-903277-898101
1835.91-888978-902944-984161-1015470-969414-978414
1841.70-951425-614883-544962-903355-1037117-1012818
1847.48-1012553-1039989-1110632-1042014-1002269-1013445
1853.27-994889-1041354-1080585-1050850-1060995-1079206
1859.05-1093456-1091299-1033878-959427-893939-908498
1864.84-1007628-1015079-919395-879820-786490-846468
1870.62-943314-966764-1030674-1013481-1007206-1002117
1876.41-978471-948931-919651-905956-961984-1015860
1882.19-981430-1016111-956806-912819-946178-872187
1887.98-811993-817845-975675-1001795-929428-897145
1893.76-867335-866812-842501-825378-888931-926696
1899.55-865092-743560-780304-874159-833312-778748
1905.34-745235-781330-856222-861805-805444-775332
1911.12-718781-724474-813142-818245-776777-741960
1916.91-622070-604557-729452-774707-706804-684755
1922.69-776227-777356-805594-885786-879756-862835
1928.48-808501-765640-777708-875240-853676-776768
1934.26-834484-858129-902388-971207-906470-808815
1940.05-790101-822415-884388-924698-913084-922210
1945.83-870212-784104-860530-980069-961307-916619
1951.62-930929-903412-928571-950341-933878-958860
1957.40-901197-838753-877884-924980-980172-949009
1963.19-883715-909955-876527-771088-829201-935891
1968.98-1008574-958705-911692-993930-963237-913912
1974.76-965105-963022-940319-960856-921276-913809
1980.55-898084-879318-966525-997688-966025-934388
1986.33-959911-938860-915104-947065-933389-954942
1992.12-1017843-1026804-1004102-959592-906092-982812
1997.90-965616-899933-845453-871225-1016431-1042230
2003.69-1006283-971099-960234-955688-958047-999511
2009.47-956567-973567-1066791-1047610-1046584-997833
2015.26-909386-925187-987183-1010215-1043054-1015819
2021.04-972059-1011945-1051566-1089614-1110636-1142582
2026.83-1077699-990163-1004243-993723-1050628-1087615
2032.61-1082727-1089730-980452-938595-986895-999677
2038.40-1025049-1080444-1059433-1013873-1023533-1024831
2044.19-1066220-1036551-996331-1088988-1130849-1017873
2049.97-939316-1001107-1048951-1093880-1118222-1061830
2055.76-1014834-977657-1000830-1020714-983352-979839
2061.54-1043513-1064119-1044957-1039392-1049276-1008122
2067.33-980962-996006-968872-950960-1001381-1001330
2073.11-902460-962318-1110151-1061646-912819-947498
2078.90-1025560-980355-927171-965394-965488-976708
2084.68-1011263-942745-946855-988422-1009668-1008453
2090.47-978113-896794-889192-982038-1008171-998459
2096.25-945756-957150-1035873-1003858-1049372-1058353
2102.04-935408-977299-973723-997944-1060064-971978
2107.83-975433-1014276-976539-919484-964616-931214
2113.61-908150-990637-979410-962942-931550-943061
2119.40-1017101-1029934-1005557-1017319-1005774-927489
2125.18-922502-990206-990797-943892-895217-914739
2130.97-920352-934717-911703-823540-916801-973602
2136.75-903911-906919-882563-866812-848522-844764
2142.54-793468-698829-768082-802543-839374-868557
2148.32-877330-968351-887298-840010-893154-940033
2154.11-977158-858039-827871-846510-886353-939280
2159.89-894855-933910-933812-775434-708924-748473
2165.68-826247-870104-877763-853491-765816-637335
2171.47-572807-521320-475379-466116-352259-69477
2177.25 101242 339728 640812 1013720 1325714 1742842
2183.04 1886225 2258702 3182871 1938657 1070181 869168
2188.82-94678-530277-676277-841141-1053293-980501
2194.61-926705-915599-875718-917507-983735-1018425
2200.39-971687-883015-967071-1013668-998401-983611
2206.18-970022-930409-884227-913912-1033502-1067908
2211.96-1041134-987558-963831-954359-844873-859743
2217.75-859724-752022-814441-924762-916077-892253
2223.53-926480-932068-898769-908013-913795-933607
2229.32-935433-923882-964251-1002004-1020319-943532
2235.11-946887-930303-903921-948705-946500-935191
2240.89-938544-999418-1022910-965753-894111-844829
2246.68-927494-1043882-1005276-853434-869613-992295
2252.46-1011785-943195-984375-1034585-967765-935228
2258.25-878496-916915-1044567-1044139-917481-893823
2264.03-917177-930269-934730-930404-1044904-1046138
2269.82-963945-910130-844070-873191-972586-978367
2275.60-940635-968205-925465-912981-982937-935983
2281.39-903658-991470-997028-864820-842216-886804
2287.17-896610-886783-858613-929690-907837-864491
2292.96-799484-804175-918755-987835-933348-836001
2298.74-890753-924388-895194-870001-922080-881088
2304.53-866016-842353-842550-900234-970175-866050
2310.32-792200-793920-753799-824149-802642-704339
2316.10-690425-742841-724898-701091-734506-773013
2321.89-738877-682395-605214-589920-580044-595758
2327.67-535434-571947-578230-571911-580352-540085
2333.46-523149-454828-399871-463886-602324-593517
2339.24-545517-569164-580116-650441-640181-590369
2345.03-661229-805128-905658-853136-827176-770779
2350.81-687317-661670-649591-591507-485870-459271
2356.60-401556-317750-357104-392823-400733-433365
2362.38-406003-351949-359161-326307-434302-506058
2368.17-586692-680603-660838-650302-701098-778430
2373.96-719266-815155-917513-839838-800396-794297
2379.74-803929-900510-964811-961294-934833-943677
2385.53-1020983-967038-912079-992376-1033399-950879
2391.31-859783-922295-936825-863118-897775-892346
2397.10-831457-850063-838743-828141-817783-881031
2402.88-1051241-1031570-986492-930345-782947-759603
2408.67-808975-812354-810969-833253-925156-956431
2414.45-967186-923362-857487-888269-878518-894294
2420.24-914676-919708-881884-884344-818098-785474
2426.02-888207-835214-765777-806263-903607-939892
2431.81-908510-958125-937010-843935-818688-839234
2437.60-935145-938648-931470-955307-959683-984943
2443.38-902168-859407-847866-876917-909468-826015
2449.17-780521-793742-856791-891789-873596-904260
2454.95-938281-909037-861587-858789-929353-1008377
2460.74-958548-836734-757602-814399-877722-894287
2466.52-930647-950626-883663-905356-927290-924803
2472.31-1024838-1020029-945232-886725-862570-936544
2478.09-1022555-1000050-894210-900764-937493-914501
2483.88-956351-993041-1021130-897824-817105-927563
2489.66-983134-972786-997435-946231-847748-843009
2495.45-820406-840436-963548-1013045-943903-862129
2501.24-836934-830409-901101-870677-778971-826247
2507.02-847904-828355-919638-932554-889397-845929
2512.81-832804-892012-849720-851789-871624-890353
2518.59-880000-914867-994955-897440-806213-711856
2524.38-675277-869553-935482-865164-901687-899881
2530.16-836425-814237-822952-800504-816048-734081
2535.95-624757-689706-742676-768566-824919-854825
2541.73-855186-918821-936390-873650-922662-1109493
2547.52-1147459-1203452-1491571-1818223-1859815-1963243
2553.30-2284805-2546615-2854354-3231128-3309152-3506042
2559.09-3917922-4329334-3988482-3413404-3556111-5426632
2564.87-6421912-3346302-2325549-3910132-4232679-3646467
2570.66-2796364-1909174-1203663-1049831-1070727-958325
2576.45-806759-629195-607294-684032-654116-634436
2582.23-716339-659373-537954-546610-614000-653742
2588.02-702982-697458-580126-561475-552519-554610
2593.80-574575-705755-770188-628241-601740-667278
2599.59-671602-685017-637733-554284-503143-561358
2605.37-695402-708311-752891-867562-856070-753173
2611.16-755503-850985-765145-738354-850804-849509
2616.94-933986-1016011-899835-793935-828868-861250
2622.73-839847-822999-838087-920716-929574-1002030
2628.51-965537-821687-851825-959685-962687-932492
2634.30-968403-981309-1015629-1033490-1019817-885630
2640.09-705666-666098-795558-983721-1090569-1153260
2645.87-1048745-947269-883276-761004-847188-956736
2651.66-922493-934575-888974-788873-780386-861829
2657.44-937464-912488-939043-911877-898852-929093
2663.23-955192-935572-891064-907218-874722-876261
2669.01-861455-865475-815107-742738-864220-877256
2674.80-882161-918123-909363-952221-902364-923483
2680.58-977692-901994-816387-812895-798739-890544
2686.37-967153-911975-859534-825724-928069-997790
2692.15-923561-910445-812577-811604-979559-996129
2697.94-985301-912338-852468-921940-903427-916474
2703.73-924493-807922-730475-575473-565153-634750
2709.51-736979-859645-844457-867285-867933-964056
2715.30-1036704-844985-747471-777314-744676-812914
2721.08-927929-933452-817544-693668-785846-879803
2726.87-803588-816854-817803-767213-778021-809856
2732.65-857146-859477-799940-827908-876455-783191
2738.44-818343-846231-831252-903948-890164-908992
2744.22-886384-751179-717615-782411-869690-907096
2750.01-949019-958828-810448-666570-700141-808834
2755.79-847009-894567-938808-876194-895537-920562
2761.58-765701-669424-690159-768907-889282-929229
2767.36-923047-916067-852835-835297-885414-957563
2773.15-963037-846778-831385-738198-746486-967665
2778.94-872728-853606-872141-886086-938848-894379
2784.72-911196-818091-871483-900538-806385-925488
2790.51-980357-980511-934789-889454-940210-877519
2796.29-825433-881891-922076-807182-796475-878461
2802.08-924600-907950-850929-828927-841890-901203
2807.86-935416-804041-751726-853933-784449-819722
2813.65-920562-903501-884969-813312-780170-857937
2819.43-902614-858953-842465-895925-899177-893718
2825.22-894659-839942-832598-872628-843809-835085
2831.00-911991-862694-835957-927786-782228-722676
2836.79-961628-839815-645979-589032-556573-696784
2842.58-753558-809336-853672-805291-752689-739245
2848.36-794075-825734-777303-798091-749928-775160
2854.15-851768-777121-729003-759149-730588-688414
2859.93-803878-787402-743081-752747-651521-726900
2865.72-892498-919214-770272-763898-815021-830401
2871.50-952915-838250-709511-794459-899422-888635
2877.29-854272-787426-771992-777704-718780-743518
2883.07-793269-790647-748799-744091-758768-809575
2888.86-759001-638265-719650-864620-804032-663565
2894.64-690451-586013-708720-862292-696179-712175
2900.43-823700-849688-648867-701667-851221-793661
2906.22-737284-475371-418615-595175-715237-900557
2912.00-908816-823719-830771-696457-663431-787201
2917.79-813468-857129-781061-714528-756234-828442
2923.57-885338-856089-868961-806780-846707-966523
2929.36-724898-737768-986535-992944-908300-809886
2935.14-797752-808099-900250-952772-852883-691941
2940.93-698784-844604-952742-980017-870963-793707
2946.71-803718-907219-981154-774105-678369-680618
2952.50-783611-917236-822722-723530-661841-695211
2958.28-882483-1019936-962845-800330-710745-823004
2964.07-923571-777590-761301-919754-976539-989562
2969.86-888778-750782-801883-832857-795761-791794
2975.64-838374-863267-926279-954101-868205-869319
2981.43-802177-780663-887084-886900-778489-729074
2987.21-752406-945869-976685-868417-807745-807381
2993.00-898573-833535-704695-682309-679876-609668
2998.78-749867-873466-742457-763379-803420-770202
3004.57-791858-798754-853144-864544-780685-828898
3010.35-949541-933745-916619-863256-848652-939193
3016.14-1005705-905202-806346-804039-717530-758072
3021.92-770022-664423-718460-797562-893702-993040
3027.71-964214-879922-898662-886811-765259-834178
3033.49-885413-811504-890858-928006-804937-863753
3039.28-910499-870610-965446-942391-873460-839629
3045.07-922991-1018823-864601-800078-936643-789135
3050.85-775582-835104-733610-761874-780495-830851
3056.64-738371-821054-857393-816500-943650-909788
3062.42-1004841-992731-762312-639594-721123-855369
3068.21-769574-671272-725978-803821-787748-717295
3073.99-756937-866731-938092-876979-785890-766281
3079.78-806244-836557-707001-607603-719727-819189
3085.56-788196-745905-613668-639708-709479-740654
3091.35-777463-703457-801771-744728-687654-753578
3097.13-745865-788986-743169-695643-760514-740112
3102.92-737378-853125-848271-814959-729197-746066
3108.71-918194-839032-649316-815473-946132-918204
3114.49-939776-843258-652781-597802-734293-695510
3120.28-651275-825331-760556-706367-781764-718397
3126.06-608741-645534-664085-643368-712117-805725
3131.85-680270-459176-495061-710666-953506-829707
3137.63-708154-790739-744769-692300-533298-636866
3143.42-865302-891397-838429-669072-803877-888434
3149.20-916291-923080-862283-890144-783080-792789
3154.99-837343-757530-683038-719540-729156-739345
3160.77-784381-865694-827339-681397-930280-960660
3166.56-882541-984113-797188-686074-654622-806091
3172.35-921784-812515-861869-824027-735400-638183
3178.13-689390-787626-874810-796703-645320-792118
3183.92-996871-901030-797320-855100-765105-680157
3189.70-714270-751943-798902-843215-871001-740910
3195.49-626874-753621-820242-817861-831166-753115
3201.27-589021-667280-790635-752097-888246-994192
3207.06-968442-944141-937741-974691-957091-793630
3212.84-691522-704602-784649-894204-738580-716930
3218.63-649687-593550-707464-640561-743723-859481
3224.41-803445-908653-874183-866898-919309-762334
3230.20-721019-805177-834888-729356-725753-794179
3235.99-664862-661667-720230-912403-1007425-857108
3241.77-906574-837275-669931-692708-787192-778437
3247.56-758263-761344-803106-795658-811035-726220
3253.34-634354-774072-857446-890461-593005-702493
3259.13-956340-797908-727993-505586-594426-769979
3264.91-723068-756037-835094-701741-630191-845946
3270.70-918269-802125-714160-655340-634637-605304
3276.48-629412-771296-887897-768369-763823-752650
3282.27-610454-711574-776560-615557-600654-790331
3288.05-675126-669066-727000-742218-807565-763034
3293.84-814381-818646-777020-670753-688773-851947
3299.62-793821-726681-667614-829573-971136-876936
3305.41-680811-588666-703748-691136-706109-889495
3311.20-993412-876562-611738-537969-667537-827310
3316.98-815133-747081-820870-783651-841863-857874
3322.77-753836-869559-970264-881891-1060262-1026126
3328.55-848870-814408-743842-788573-933895-879493
3334.34-792565-720786-764078-967890-947689-871970
3340.12-823055-787355-763489-725876-847422-968069
3345.91-1014423-857217-775648-1051336-947621-670628
3351.69-648132-766566-834067-811450-697902-763397
3357.48-756311-655843-684818-828982-785513-675012
3363.26-931344-905286-842028-877267-821388-838981
3369.05-684675-539024-631125-741469-722825-601035
3374.84-655544-824840-819719-789723-936698-884539
3380.62-631952-455685-369893-383791-749137-873438
3386.41-543100-585156-702975-659866-723876-858460
3392.19-710644-714465-867947-806835-663296-678489
3397.98-810487-695800-578318-652456-784367-701923
3403.76-672524-735218-811746-802025-670583-628419
3409.55-519887-524137-630325-792220-612276-438209
3415.33-639533-574657-626319-856482-629831-363610
3421.12-585788-666269-532820-649537-883180-736145
3426.90-546089-627894-637293-708090-770912-696616
3432.69-642383-601355-535345-391598-479024-561567
3438.48-355413-403712-500249-718167-617939-423845
3444.26-483210-446662-608403-557161-498189-467953
3450.05-600225-898968-670599-373238-411449-610571
3455.83-789147-738549-756824-754062-566384-584980
3461.62-597781-355460-277865-437426-613140-615738
3467.40-557763-646542-762911-842855-784867-833396
3473.19-677290-691545-700850-364109-323196-586738
3478.97-839577-714703-680481-799477-677045-566044
3484.76-708601-823065-565251-397179-568767-699127
3490.54-704103-580960-492117-564697-643079-515766
3496.33-530161-656597-582876-464119-449338-557488
3502.11-713623-605229-630419-883284-919373-731804
3507.90-751795-786212-624314-717086-790649-839072
3513.69-690184-692241-899702-775622-657503-760707
3519.47-849987-708168-518445-629822-600106-541629
3525.26-691495-783802-770940-837223-817162-703441
3531.04-683167-713801-699586-498003-586221-770396
3536.83-761709-677454-570584-646021-815021-815832
3542.61-706835-653139-696960-684389-609802-615082
3548.40-731944-723771-633316-682348-818932-812201
3554.18-746839-787815-613608-643417-879451-805617
3559.97-521428-515384-737536-788325-734075-627019
3565.75-523317-338340-484746-610807-751761-938585
3571.54-803712-697150-656927-641256-525966-595429
3577.33-788409-723912-717019-889609-856365-654647
3583.11-587342-536593-477818-763365-712978-639636
3588.90-784730-602706-689852-653430-570921-840854
3594.68-940089-985276-1034662-694774-573676-646000
3600.47-550893-599677-690227-731173-744635-799822
3606.25-790118-674354-427450-393499-563483-517447
3612.04-538448-586608-527847-680267-624669-493099
3617.82-565085-373313-465355-617468-532847-586533
3623.61-565403-510383-385188 297 256567 75641
3629.39-388273-583222-537053-393796-409211-543093
3635.18-649246-738212-541849-415974-428732-529881
3640.97-582306-525612-579842-643151-607527-449852
3646.75-264984 82945 117486-255772-437418-497864
3652.54-579416-605620-351215-185186-470178-632908
3658.32-662911-509220-558598-617931-500189-505951
3664.11-403497-547595-666868-454285-247256-135823
3669.89-34037-338351-613495-515066-126770 186562
3675.68-128040-436904-296064-457769-579034-590343
3681.46-532171-433377-590348-662928-609394-199838
3687.25 342887 19107-361410-248665-452578-469562
3693.03-452628-659848-613444-554980-612151-533604
3698.82-375280-369473-363232-458482-521052-500754
3704.61-702333-737250-697555-608747-340426-437951
3710.39-411613-109529-397488-793660-754205-674244
3716.18-695032-742621-809740-636055-526535-619202
3721.96-551011-444223-528133-584884-463700-487966
3727.75-571493-508087-563728-499794-481206-629529
3733.53-520093-455468-239600-269643-425815-516690
3739.32-548577-371901-412849-480460 278040 356178
3745.10-423817-546612-556457 133011 207391-339252
3750.89 146550 85941-413104-587530-690469-556136
3756.67-659859-724771-415343-432533-744795-709806
3762.46-675460-635861-698163-730859-525191-497071
3768.24-539958-516736-567938-628984-666447-496181
3774.03-323097-520272-665762-587229-436609-421598
3779.82-528269-592760-489423-480912-596126-672583
3785.60-560625-592326-710473-623943-465479-429291
3791.39-482624-470075-707550-706008-495800-653637
3797.17-604243-507789-314766 318068 60134-528662
3802.96-501376-477781-573082-397053-374433-545886
3808.74-631110-624985-498399-463293-501848-465443
3814.53-28331 6959-370935-490448-544013-383170
3820.31-234418-322431-414557-482407-560119-453719
3826.10-573987-664124-606003-802243-795273-688504
3831.88-931044-853124-484644-624635-733386-319300
3837.67-424756-576004-552491-815075-1245805-1159621
3843.46-876546-825911-851830-1141019-895643-1791306
3849.24-1666703-388207-471162-162834 469019-359516
3855.03-934522-770847-1016251-1056308-976100-906700
3860.81-865086-637784-459287-309216-361193-577413
3866.60-567257-544739-270820-181951-485712-639039
3872.38-489701-354383-531209-642118-671667-663135
3878.17-575529-478512-530576-815519-937332-783519
3883.95-430579-192540-350111-431165-574971-604143
3889.74-199971-202749-552848-492144-547685-697102
3895.52-719981-650707-596222-449016-445378-365784
3901.31-268807-142164-62313-360041-498061-443844
3907.10-512264-595964-467965-631344-619007-445083
3912.88-448454-362117-401078-321760-340519-808056
3918.67-790232-550475-586861-665781-464060-324505
3924.45-231599-177350-304622-309452-453456-675540
3930.24-937310-868563-727273-705916-681027-656733
3936.02-482846-407056-479124-748460-956758-729167
3941.81-423004-261246-241416-345301-518409-637328
3947.59-619917-586062-603904-627643-627870-730389
3953.38-682440-648653-521576-406631-514652-503775
3959.16-626305-519182-367126-702721-872003-638031
3964.95-398439-334400-481862-467954-419684-715757
3970.74-710273-423469-500891-739068
##END=
