##TITLE=Carbon Tetrafluoride
##JCAMP-DX=4.24
##DATA TYPE=INFRARED SPECTRUM
##CLASS=IUPAC A
##ORIGIN=NIST, Analytical Chemistry Division, 301-975-3108
##OWNER=COPYRIGHT (C) 2000 by the U.S. Secretary of Commerce
##DATE=00/02/01
##$SPECTRA VERSION=1.10
##$UNCERTAINTY IN Y=2.2 % relative (B=1.3E-04,C=6.1E-07,D=3.6E-09)
##CAS NAME=Carbon tetrafluoride
##CAS REGISTRY NO=75-73-0
##MOLFORM=C F4
##MP=-150 C
##BP=-129 C
##$NIST SOURCE=QUANT-IR
##SPECTROMETER/DATA SYSTEM=IFS66V (Bruker)
##INSTRUMENT PARAMETERS=KBr Beam Splitter; MCT Detector; Multipass cell
##STATE=gas
##SAMPLE DESCRIPTION=Carbon Tetrafluoride Primary Gas Standard
##PRESSURE=101.3 Pa
##TEMPERATURE=23 C
##SAMPLING PROCEDURE=1 L/min Flow
##RESOLUTION=0.9640
##DATA PROCESSING=Boxcar Apodization
##XUNITS=cm-1
##YUNITS=(micromol/mol)-1m-1 (base 10)
##XFACTOR=1.0
##YFACTOR=5.8207E-11
##DELTAX=0.4820
##FIRSTX=575.168
##LASTX=3974.592
##FIRSTY=-.0001482
##MAXX=3974.11
##MINX=575.17
##MAXY=.060139
##MINY=-.0002953
##NPOINTS=7052
##XYDATA=(X++(Y..Y))
575.17-2546565 91484-1073290-72482-459928-1415660
577.58-1557551 904819-1929178-2150337-2240681-2343606
580.47-1386317-2495963-35447-230930 102061-52800
583.36 55821-1161218 1211062 1353429 905688-195831
586.26-859430-239760-395975-2661757-1164881 753917
589.15-857630-635654-1621784-12550-599684-523598
592.04 655779-1578405-511299-552865-773563-395122
594.93-314425-1499390-306144-2336294-155964-336160
597.83-916071-1003390-448748 288959-627133-684849
600.72-120627-67670-64576-1310898-687997-265439
603.61-98213 13233-252614-768835-375096 1284939
606.51-252523-803642-643531-65018 199789-517316
609.40 109305-667564-160470-161206 245468-510679
612.29-194697-206660-440761 62665 323280-535648
615.18 225727-425534-27813-705804-599236-864086
618.08 465762-537392 342837-438160-400699-1150464
620.97 273222-708418-211507-583040-524218-1132216
623.86-836012-957026-169234-1298134 52152-1381200
626.75-124461-1133895 376326-1261983 464447-1091864
629.65 1907851-1549471 15201391 6871778-1860855 157216
632.54-1625138-202329-1339106-391171-939154-608480
635.43-870823 99073-962791-476022-60008-154965
638.33-439987-733587-488359-214426-1161724-227273
641.22 62404 257482-243727-455534 276198 9014
644.11-750810 158019 47414 15337-133222 106556
647.00-201186 19885 1111732 96151-28061 72804
649.90 164498-294231-232964-292650 139045 338394
652.79-396851 350767-363065 19210-211383-264652
655.68 227190 21440 296434-249471 157979-783261
658.57-234723-887453-523417-906640-303679-397799
661.47-482002-913455-643020-418652-203312-357374
664.36-620729-503821 11391-676745-478565-1209356
667.25-356427-256083-768982-560017-200451-819980
670.15-334457-410667-774602-606728-707498-1043466
673.04-582179-679226-983764-334412-838427-1002592
675.93-441378-963157-834628-515847-818315-778705
678.82-397212-387113-648792-834865-472423-894963
681.72-700382-1023672-364294-682413-1073080-1150292
684.61-317612-667159-490766-941140-849685-660260
687.50-450322-1402269-758788-713433-249670-521901
690.39-822028-846834-631134-750579-457467-404301
693.29-678739-687342-848928-668758-347005-1034955
696.18-686923-544854-438370-713627-443149-906900
699.07-465452-482855-307081-741442-774098-644179
701.97-309244-477783-940387-769875-666898-256911
704.86-152091-435368-129421-484331-590159-835659
707.75-550512-1118164-294665-250020-124353-1182891
710.64-337528-687486-509538-744356-667161-681515
713.54-336182-401533-181456-765595-132093-383038
716.43-552638-609399-293571-891871-538106-1028556
719.32-575772-185538-522206-472910-582140-186189
722.21-513092-435216-43203-572828-363516-748595
725.11-73242-705423-337663-656890-382020-611562
728.00-387183-751303-227322-399589-314036-1010845
730.89-464512-408924-572757-506042-522205-457807
733.79-310888-523959-166928-352342-421412-716885
736.68-231778-869568-187914-293863-237085-895885
739.57-359611-540308-392220-217399-624266-444931
742.46-445237-234131-735512-831741-165987-87244
745.36-705029-677350-416523-855644-431816-610341
748.25-399426-568055-458372-410979-298901-699653
751.14-570534-736358-629368-558299-302689-523540
754.03-656396-397092-184557-247443-377363-463009
756.93-486517-478635-345752-597075-564725-674532
759.82-642025-503070-349857-704022-185825-555489
762.71-214598-847932-693069-855566-534431-532056
765.61-318827-609230-278784-842777-220227-782212
768.50-527901-391469-465117-634770-785640-732723
771.39-471472-505721-505764-715675-356145-483195
774.28-363604-602300-441251-761041-547706-805984
777.18-323416-554751-667540-659358-607856-712518
780.07-517604-762235-570731-852649-248491-883025
782.96-604762-502616-629562-729234-683108-747899
785.85-419331-724039-696192-748924-374480-728609
788.75-777998-824470-498623-798542-409138-868794
791.64-483275-478494-323090-720699-402192-698900
794.53-458059-740492-402049-672805-593859-858380
797.43-908438-540564-432068-824258-470086-622642
800.32-425105-602961-641350-876421-476418-431743
803.21-173716-716175-595383-703020-708980-1205405
806.10-316083-592343-253111-689580-659690-972960
809.00-61964-801582-599962-756521-553097-792850
811.89-461108-905381-428417-448317 11923-394853
814.78-980561-1097554-527527-618360-538268-641643
817.67-479081-965825-409973-369318-363539-944654
820.57-794386-689447-358811-596006-161143-640557
823.46-645163-646858-255823-462876-549337-446342
826.35-524484-687255-449874-999828-665973-657397
829.24-736636-900711-429718-706620-673081-713074
832.14-231846-365090-500463-614217-759392-1179931
835.03-681820-266694-640771-503971-717215-802998
837.92-50417-584291-620816-802641-670409-825695
840.82-770792-908025-670390-402230-627748-924830
843.71-436247-611115-485723-736894-481328-968817
846.60-427371-709695-508399-580564 74557-549174
849.49-706281-692540-293723-743771-457905-863156
852.39-238406-756253-257649-799417-477430-1076216
855.28-243593-834817-252380-651947-444796-813208
858.17-566015-777988-233481-538485-179316-488213
861.06-361906-438661-315610-921158-486163-709268
863.96-434955-715440-265172-423098-218461-742481
866.85-788415-576246-66269-450396-414081-591029
869.74-607382-534576-286554-934966-448434-901791
872.64-387394-762262-691574-762853-404832-678678
875.53-275117-486898-261213-535578-325233-590646
878.42-245432-610764-455165-583625-272717-910732
881.31-180880-689901-455877-627804-363563-515171
884.21-713437-616146-62896-808302-220837-835287
887.10-329977-980461-400942-622186-582637-474240
889.99-544974-817705-6399-620053-725524-318878
892.88-469681-853000-425712-943556-281471-397709
895.78-287807-596650-321350-861442-654404-909472
898.67-436697-965192-525363-652732-397284-638462
901.56-425691-682725-642997-795810-799791-374456
904.46-432470-851763-910923-605888-431133-603109
907.35-612820-697144-293153-671651-373381-707318
910.24-186204-748592-110195-786774-302157-923468
913.13-488263-647307-491694-770385-136796-979921
916.03-427649-840176-605735-722873-401963-381510
918.92-507774-806655-585307-531489-433842-777566
921.81-499582-635961-448573-740327-401222-430990
924.70-285704-778921-357466-404277-515783-658473
927.60-449686-608039-377688-711148-429123-728062
930.49-362291-662920-553343-510433-362377-802759
933.38-218950-517604-421451-532997-344862-857168
936.28-593053-589623-355434-794032-55266-838371
939.17-582474-761387-556301-668078-358579-735667
942.06-520979-639172-344302-709970-185378-489114
944.95-583021-566838-320629-756823-372468-758230
947.85-175086-609911-408956-690964-566063-683517
950.74-237137-739456-460005-738701-463337-618052
953.63-229516-686154-261533-724318-326037-475070
956.52-625533-737028-638549-675576-270944-709882
959.42-260298-721376-320632-520434-458433-671567
962.31-70713-607552-522927-810502-302651-720466
965.20-206443-874113-183763-798852-290849-731834
968.10-552720-773518-332023-549097-342014-396432
970.99-492256-536384-449091-899819-385682-576770
973.88-241616-463607-450859-946648-746152-598633
976.77-259947-1059113-261177-904517-319103-840007
979.67-397115-425043-398173-680739-204435-716483
982.56-229613-724286-439836-927878-666783-785815
985.45-400582-916389-186935-788447-222003-646138
988.34-497879-765568-184968-615469-498001-866482
991.24-253666-851045-238605-923530-429-723041
994.13-390845-756452-427251-806033-424448-738826
997.02-630149-789330-199072-619306-152024-710341
999.92-219678-514009-320595-1008441-248910-876826
1002.81-197710-811303-371401-921020-330708-658864
1005.70-426595-555377-542391-781374-287485-759963
1008.59-239291-681602-365800-753835-380208-795467
1011.49-308733-1029855-354883-724036-355330-682936
1014.38-444955-691146-538677-761709-481219-529681
1017.27-299679-697860-286060-840174-259499-927545
1020.16-334190-658572-356196-455860-227552-977223
1023.06-370560-562707-204472-771056-502096-866140
1025.95-249527-710050-128580-799391-297246-799138
1028.84-352317-699206-261788-770555-156277-868945
1031.74-305776-527356-338405-701844-163942-822470
1034.63-375073-806727-328983-787761-109459-617743
1037.52-232981-850984-197512-649107-452260-806070
1040.41-337376-891559-404064-457378-346927-579548
1043.31-272062-608656-275769-990444-351761-641369
1046.20-296800-885537-374817-879466-585726-678069
1049.09-204206-627900-375387-492093-6929-742540
1051.98-159026-634862-212308-709357-96173-566217
1054.88-159820-758430 5702-604630-287490-859829
1057.77-196104-882444-357091-654746-253289-724901
1060.66-95097-503882-162417-550363-359856-593620
1063.55-563938-747211-51446-784467-479-419654
1066.45-409861-519944-514613-813323-225255-797044
1069.34-107002-751963-73214-789966-146675-618955
1072.23-208323-840555-352312-554132-102285-644419
1075.13-74325-887178-100684-524759-87731-852069
1078.02-162175-833691-54050-1005334-276593-1095163
1080.91-287136-804398-282373-832855-208880-741532
1083.80-167609-804785-227909-847691-164046-730796
1086.70-437357-767480-319608-692991-164303-749758
1089.59-120599-1009038-116620-835645-458570-811614
1092.48-158848-899317-268254-783669-220927-525795
1095.37-231163-710763-109538-1085408-133271-1044529
1098.27-300029-850587-320923-837665-99112-898303
1101.16-252169-868662-57513-885474 25688-908094
1104.05 190709-1001159-156448-885351-315636-773086
1106.95-82169-692762-347421-996104-25355-1034762
1109.84-383674-797877-89982-788321-151435-758834
1112.73-300474-959868-89926-890794 66270-846331
1115.62-57207-857733-103269-980566-169548-1186330
1118.52-48012-1055126-227156-710398-404580-590514
1121.41-177399-822140-62445-843156-199776-783871
1124.30-147028-782885 62926-1056456-184506-876241
1127.19-213587-885135-138370-761306-295286-976682
1130.09-334638-802089-119924-1090058-109734-871503
1132.98-117460-1087264-7914-890476-168531-1118335
1135.87-295797-859541-117975-765829-141804-727204
1138.77-136544-980060-141926-992550-241101-822914
1141.66-129141-825160 34821-1057787 24950-1053645
1144.55-14282-938436 85-1117095-111311-801305
1147.44-133421-989484-19271-758354 64217-896998
1150.34-211434-983464-11241-908429-54371-955444
1153.23-77761-937535-77848-1023014 1276-1112039
1156.12-64495-922083-123229-1025009-11404-923292
1159.01-79645-884393 63500-1141855-1924-1126125
1161.91-97846-930233-44319-920833-52151-977496
1164.80-49873-1038067-126005-924359 291434-1196436
1167.69-131056-1186466 143221-950625 118458-980489
1170.59-71851-1143874 128447-1034317 9042-1168496
1173.48 169159-1045014 160910-721051 49244-1141713
1176.37 161521-1239740 7864-1087882 240636-1106809
1179.26 168099-912074 74375-976640 145239-936571
1182.16-84112-1156887 174101-1203066 61935-934258
1185.05 324317-1099012 152905-1126531 170465-1197425
1187.94 174115-1141552 242044-1000001 33751-1185377
1190.83-31104-1131063 406113-1389854 284034-1189199
1193.73 149559-1137321 231971-1183050 141750-1238519
1196.62 376062-1212067 76708-1273457 219360-1307218
1199.51 333448-1152575 263388-1250997 131178-1307108
1202.41 221743-1132885 165467-1133731 272051-1312912
1205.30 222909-1188440 272166-1343757 274835-1431101
1208.19 499329-1221116 226596-1558870 475862-1235585
1211.08 482163-1212762 522690-1382394 394711-1277957
1213.98 350435-1468519 525986-1399612 347312-1372306
1216.87 522935-1547116 531888-1330841 335714-1559963
1219.76 365224-1510946 462259-1407872 484878-1559196
1222.65 573659-1352164 682889-1346924 725794-1534596
1225.55 706564-1561292 616721-1716085 799749-1509207
1228.44 607766-1598117 891036-1569657 764542-1203454
1231.33 982806-1201438 1152132-1017366 1558432-983876
1234.23 1786736-511493 2144054-195758 2757084 532629
1237.12 3554233 405247 3660558 1640140 5572153 944731
1240.01 4563764 2627329 9932992 957713 2300624 693936
1242.90 8846339 4347314 1542049-547542 1789259-503521
1245.80 2276045-554196 2562773-291208 2990424 28401
1248.69 3606304 461543 4085916 739550 4587525 1246460
1251.58 5188563 2048441 6214967 2768536 7493417 4218619
1254.47 9240442 5957523 11525767 8084750 13258889 8461384
1257.37 13099655 7609538 12202834 5101619 9071155 1899301
1260.26 15256310 13190734 10473699 8136471 14348033 12324962
1263.15 19771600 16226736 22878952 17955755 24651095 18383736
1266.05 23795047 15891636 20778598 12503649 20015678 13495451
1268.94 22930283 15827982 25862351 18009250 27677149 20691856
1271.83 33886074 28634300 44294091 38681216 57894658 54938944
1274.72 80614753 77648596 106484636 110801397 155300400 156441715
1277.62 184566134 214531057 266912268 232451315 288001929 305890901
1280.51 542111500 245749232 269992147 137995006 1033179666 666989803
1283.40 47109417 261385342 240443874 321647068 197906740 161670857
1286.29 66129599 65696474 19049302 32989981 4350447 20798289
1289.19-1140923 15090341-4005762 11624043-4787409 8919471
1292.08-4834545 7423982-5074559 6394120-5011408 5556714
1294.97-4550294 4952931-4573273 4470365-4325782 4162513
1297.87-4031670 3735207-3874042 3452025-3876016 3207767
1300.76-3627814 2950202-3737252 2763334-3500282 2599188
1303.65-3299402 2265240-2955301 2294109-3190991 2207173
1306.54-2967937 1968728-2957919 1977464-2872063 1788916
1309.44-2643165 1663856-2532836 1871807-2590772 1517278
1312.33-2371963 1704218-2377136 1577016-2251979 1374237
1315.22-2289431 1324395-2251360 1383078-2300956 1214129
1318.11-2172400 1278275-2116553 1142115-1962142 1052141
1321.01-2129969 935008-1899607 1193774-2004203 916647
1323.90-1974394 1104904-1978544 1005181-1918111 1025068
1326.79-1764855 1001145-1865783 797557-1797775 795733
1329.68-1841053 952301-1679844 761693-1792779 861969
1332.58-1662715 714490-1612832 665861-1534213 683899
1335.47-1696675 658335-1438697 540761-1587715 707896
1338.36-1471071 645890-1465547 542993-1649503 718766
1341.26-1611091 660640-1255327 596243-1255522 787591
1344.15-1492507 442199-1459791 577105-1554207 360461
1347.04-1523990 399186-1391873 538490-1327344 279469
1349.93-1536479 158924-1511283 210119-1581762 86866
1352.83-1451701 305020-1335156 549584-1111557 778251
1355.72-665505 887438-1047032 674835-1367643 406600
1358.61-1080072 304081-1234846 274025-1409453 314826
1361.50-1321660 179636-1361292 300373-1457950 431168
1364.40-1399522 291990-1210306 103879-1171681 31675
1367.29-926790 321568-1143366 252325-1069681 150026
1370.18-1063520 159875-1333630 267345-1152449 237838
1373.08-1079735 212914-1205632 153601-1048015 344074
1375.97-1093003 220590-1259612 126499-916868 30379
1378.86-1054508-76874-1040265 189880-1178269-46195
1381.75-1100930-2096-1174293 150804-956917 112770
1384.65-959323 263898-1021784 198028-1048598 476457
1387.54-1281655-14627-1059588-9932-998371 2377
1390.43-1166216 86275-1052960 149219-1154921 97935
1393.32-970892 347282-811341-102617-946433 201158
1396.22-1034723-103084-1171236-142412-1091370 416350
1399.11-810241-208131-1083686 37775-1218931 3132
1402.00-1096255-58608-933343 35984-993103 211903
1404.90-959550 22455-972468-16319-936732-75330
1407.79-912611-17609-944013-61677-1017202-26669
1410.68-951142 23973-918865 45599-936655 130085
1413.57-895558-230392-876831-161766-823402-72062
1416.47-1017699 171768-830673-9826-861635 669195
1419.36-643474-161197-997908-123066-892018-31564
1422.25-1019847-166288-966078 28914-925200-91536
1425.14-822291 65635-982676-29526-935762-103208
1428.04-829838-203690-742163 35277-903604-178290
1430.93-972893-115906-937745-64723-742627-62389
1433.82-1022233-61158-871281-159642-869554 832430
1436.72-643940-92045-869684-418089-944487-116105
1439.61-891353-39661-872753-164447-882452-190329
1442.50-916810-164126-778394-161315-958774-228677
1445.39-858360-176735-718656-100450-650132-138695
1448.29-841276-287317-1028436-195515-918457-110245
1451.18-845581-155347-928626-225376-863763-101096
1454.07-853885-46213-629658-144168-122561 1086198
1456.96-821028 1234-581710-151494-709340-182560
1459.86-749695-189998-952666-12390-840820-228112
1462.75-775147-208549-830589 145402-490496-234788
1465.64-737853-244132-866700-98480-693056 8608
1468.54-807454-214416-797829-133805-695148-137044
1471.43-323017 279021-976130 257613-549037-195033
1474.32-760429-159652-748929 45175-614941-119653
1477.21-717518-122029-808612-137715-725865-148502
1480.11-844881-20575-717911-237607-796682-236509
1483.00-808855-201424-754607-160271-812960-77177
1485.89-698641-184992-527937-45911-816281-216921
1488.78-693406-19930-715684 189438-573717-205570
1491.68-805840-268363-735727-172272-691104-147264
1494.57-610115-294565-137466 497932-817831-95916
1497.46-817956 173243-286918-167493-859575-268730
1500.36-664206-164509-619987-141866-715304-50061
1503.25-698690-66272-619434 55007 508656 25268
1506.14-133322 1000113-509128-13542-442123 55800
1509.03-411313 163145-510314 64926-499600 232123
1511.93-361865 78001-367064 196289-524099 168632
1514.82-259661 134654-230843 226212-130399 371504
1517.71-276858 238737-396071 216368-52586 224685
1520.60 486677 925025-396205 622234-316133 315701
1523.50-391031 272046-403822 642601-261972 126552
1526.39-313724 347863-465459 217110-474288 66120
1529.28-382474 12137-608589 183456-504480-107684
1532.18-608169 87403-574543 284834-736346 123932
1535.07-628290 220370-528106 404102-129463 1069005
1537.96 422660 5281685 6097816 218547 436301-183473
1540.85-536857 207058 123607-339167-365198-178760
1543.75-616967-31539-231530-38924-442328-256640
1546.64-653160-94909-516071-119666-431249 85157
1549.53-111999 104744-537444 132278-469577 122213
1552.42-418033 80629-322462 812518-295188 159838
1555.32-423341 132681-547085 546285 83918 782243
1558.21 745723-25611 10013 957172 68214-183415
1561.10-246840-215427-413485-89645-484124-22329
1563.99-446856 20937-476951-48152-510535-160234
1566.89-671538-262380-506567-91163-467963 298913
1569.78-371252-273564-495633-222994-514887-367053
1572.67-569393-371767-388766-480990-524185-436965
1575.57 630951 268615-671707-197488-747257-191201
1578.46-717937-330613-607949-380806-662153-245823
1581.35-730717-248126-713489-380914-643712-373839
1584.24-699375-397321-652308-348691-583509-330335
1587.14-803383-299759-672399-319871-524759-430645
1590.03-832695-317766-703157-334871-607838-287024
1592.92-551120-336959-647309-372679-723557-448626
1595.81-673255-163746-695079-400000-650224-335981
1598.71-603036-267639-746715-276301-550818-346074
1601.60-691569-353929-751403-290579-659807-318502
1604.49-649138-354167-644856-257153-611223-215299
1607.39-630880-263572-655894-349736-726102-365602
1610.28-659966-435434-573415-247402-575934-383675
1613.17-584285-355430-591159-276783-545991-388887
1616.06 337473 297323-670150-107866-620058-296629
1618.96-850765-236140-791282-316682-638684-413767
1621.85-648220-343693-288244 70328-647724-212191
1624.74-843672-296595-723139-291954-634907-189816
1627.63-505404-304567-699726-246187-645360-259716
1630.53-613784-258365-651797-389025-612871-256747
1633.42-593730-331000-444292 246918 175028-427874
1636.31-583311-304895-432947-312232-721145-344248
1639.21-578758-212773-675225-328117-601417-397528
1642.10-509098-286587-604016-259545-607262-299195
1644.99-507754 491318-477323-477029-359952-266759
1647.88-337295-214692-545953-529674-514970-387880
1650.78-453232-604610 462001 430871 652831 349297
1653.67-549617 220380-770646-240776-708276-263751
1656.56-758239-388825-702924-383859-699939-250716
1659.45-613699-152423-644882-93829-652312-185362
1662.35-390291-272090-530402-328233-662489-285534
1665.24-580034-245233-614356-330809-643552-128004
1668.13-587484 6221-274063-336728-694731-373553
1671.03-353210-226256-543631-340474-715252-395743
1673.92-563978 21501-8159-283523-657160-336927
1676.81-635632-271079-520479-309567-635405-179926
1679.70-529048-260727-655168-425754-582674-197403
1682.60-409834 4242-404767 509354 825232-423553
1685.49-439721-390418-507332-513958-435312-253480
1688.38-515483-316075-493629-186680-505056-441786
1691.27-608378-376513-473360-443071-448745-265929
1694.17-378520-191521 424276 1019644-674857-289840
1697.06-549689-284056-603167-180772-248848 671768
1699.95 135559 261409-414841-221808-512657-226114
1702.85-575016-303343-321109-70789-748464-370920
1705.74-377707-107132-409236-148804-692699-211816
1708.63-528390-190471-562172-243792-599521-327523
1711.52-690341-352394-410552-391222-544534-357999
1714.42-258218 138781-335536-16125-756182 622961
1717.31-298065-139494-97261-356302-584329-398859
1720.20-514496-316703-760092-277269-492765-290709
1723.09-703515-259584-597412-327185-569270-135233
1725.99-526203-340679-517343-358780-512212-234559
1728.88-587474-243461-432448-372987-503705-586658
1731.77-429024-574215 70212 59821-422011 534151
1734.67-480181-393311-639363-257552-578691-290276
1737.56-591455-328938-645541-207058-70158-360039
1740.45-687897-419029-621896-306278-619551-347813
1743.34-383044-443980-603305-334789-656031-254831
1746.24-672654-121679-552491-283207-576599-220769
1749.13-550957-411774-523266 15959-234213-233409
1752.02-515623-402025-635794-391740-555569-372478
1754.91-624092-453066-725032-223267-534762-403216
1757.81-758211-371898-646376-281291-543869-424734
1760.70-708163-34161-463927-412930-727374-455818
1763.59-673019-546978-584537-320923-595311-407344
1766.49-565681-545182-312994-230366-543567-225853
1769.38-730338-324771-500911-7887-561092-219905
1772.27 192233-361764-579764-559009-528293-297211
1775.16-505995-426427-697837-363378-581485-375081
1778.06-613820-363647-529038-302712-550055-282230
1780.95-648560-260691-658909-362203-710036-301792
1783.84-645002-116703-451566-417158-524976-300418
1786.73-561287-255973-588634-316506-612160-327303
1789.63-637087-258159-432457-216964-636402 125694
1792.52-232851-360025-533642-370706-611781-406952
1795.41-573388-197261-652682-361443-604309-347354
1798.30-605913-306376-416565-398790-567882-423143
1801.20-536155-223621-584965-414133-642400-505716
1804.09-530884-346763-480889-490693-583507-301505
1806.98-534803-256109-479710-422865-487829-453097
1809.88-627311-331288-566189-357952-491317-204537
1812.77-555710-377448-480755-393418-752561-339791
1815.66-436497-340515-532545-404174-591018-481909
1818.55-571502-417912-550254-495444-589202-338921
1821.45-551212-371877-665728-617361-495550-362636
1824.34-481786-140473-533887-424827-741638-356908
1827.23-618151-579227-456442-250734-491704-54840
1830.12-530638-367331-591110-437628-601802-292537
1833.02-591979-316302-625259-289872-567601-356358
1835.91-528030-399019-454770-381493-553083-430473
1838.80-572309-507251-567894-378824-567389-408220
1841.70-610392-475252-489972-342985 50840-94561
1844.59-581008-342860-642325-433090-748540-276338
1847.48-570512-537645-602781-289856-672719-597643
1850.37-646661-365896-584777-415468-623798-408241
1853.27-590404-369551-619717-452789-552498-521834
1856.16-724827-299268-597691-557029-556973-491418
1859.05-576022-537322-615436-476066-664788-366869
1861.94-677703-318703-570950-349496-488289-343873
1864.84-599791-369085-722412-349989-742896-157425
1867.73-593584-435892-466888-252570-437469-274965
1870.62-653675-384778-543535-332705-671080-415377
1873.52-679862-309965-681808-371705-618928-431117
1876.41-535442-486533-500594-423742-535260-393155
1879.30-513391-345585-569258-348762-620567-471406
1882.19-583967-398303-544099-403031-772603-303416
1885.09-489301-369934-563525-455438-556331-278875
1887.98-503356-382999-421524-242481-528203-450532
1890.87-703558-354413-591750-399582-484089-423528
1893.76-513536-315481-510335-378824-562708-222934
1896.66-559883-358840-393883-382086-651569-345946
1899.55-547188-355309-541979-230020-376899-241816
1902.44-649282-323877-555012-266323-562452-278386
1905.34-440289-276547-421536-375540-401151-405793
1908.23-558250-334975-550249-239939-523597-312378
1911.12-440655-290091-396932-215236-514141-390127
1914.01-392821-441327-501323-218107-477760-349361
1916.91-492315-103173-301640-306491-332376-267507
1919.80-558279-289751-534056-122105-541396-161032
1922.69-408235-367747-520452-292335-400298-344596
1925.58-495064-425702-555569-292506-547903-393358
1928.48-506145-297049-427130-374739-416167-240162
1931.37-519196-396164-518882-468884-351373-290946
1934.26-484233-366223-494123-335132-550733-322172
1937.16-555200-480233-595842-376592-437916-361227
1940.05-477811-236496-510858-329163-485586-377946
1942.94-543451-366597-635271-313564-480874-491897
1945.83-549030-277266-586615-217089-377847-483141
1948.73-437829-506519-594632-412761-538338-321330
1951.62-580517-411095-531285-342148-556222-340137
1954.51-586233-448527-518058-344840-587974-431827
1957.40-555490-367743-530627-263512-474468-442631
1960.30-479349-372475-579471-427552-589151-456913
1963.19-440733-399804-500417-358642-608643-340529
1966.08-524184-203559-451490-306566-577601-372888
1968.98-577619-414208-654758-482978-371274-388811
1971.87-563101-484432-570187-405099-533863-371012
1974.76-534114-325283-742351-363442-454189-444747
1977.65-592823-358912-567766-450683-421136-386537
1980.55-637599-298455-502537-365869-502698-398719
1983.44-643256-459711-496482-429281-616527-313060
1986.33-540360-424017-572816-446064-479297-296813
1989.22-616845-481264-414959-418478-615511-294844
1992.12-608810-455119-593489-473997-582145-389186
1995.01-607260-441865-516256-305205-520112-469331
1997.90-650478-376461-485897-410418-538863-306343
2000.80-447362-309140-583329-460510-631627-435515
2003.69-636584-380693-609159-371615-598317-371832
2006.58-520076-473890-552968-299643-603779-502848
2009.47-535852-420270-451343-478843-520473-551580
2012.37-608500-459208-563970-445442-642620-508786
2015.26-406625-390744-567971-327520-521834-483807
2018.15-572986-431293-548853-470045-663259-423577
2021.04-516880-398149-597428-390370-620303-457052
2023.94-578003-502737-662462-440806-613169-611889
2026.83-594642-523344-544701-374911-598845-383463
2029.72-653112-381028-492347-528816-622481-485667
2032.61-643558-353066-752610-452821-649211-351202
2035.51-533973-373474-557645-384156-666332-356641
2038.40-561399-460316-630231-413490-686757-474753
2041.29-583692-350886-633514-443545-614118-344772
2044.19-645244-468853-663647-371277-658315-299151
2047.08-621458-468584-696273-506765-649883-447210
2049.97-480365-387279-541800-409599-603521-520435
2052.86-498001-534272-648479-517846-630228-436859
2055.76-597580-429921-597498-378783-507307-491015
2058.65-585468-420131-590284-434107-529001-391562
2061.54-562402-489328-635844-417411-634728-466613
2064.43-550355-479163-577691-469505-618272-430158
2067.33-536976-390330-630687-350066-665368-359563
2070.22-521183-421941-562375-380042-623588-514252
2073.11-498589-338059-490163-348845-696805-464684
2076.01-688302-507013-569626-302255-462447-411795
2078.90-667813-366594-617688-495322-447967-402658
2081.79-527125-390926-628063-417128-459196-466782
2084.68-556264-515348-533386-395500-475580-442378
2087.58-558958-377978-654980-387166-552978-564068
2090.47-449242-471324-582083-357348-401354-446399
2093.36-437775-524092-548539-472417-508381-497938
2096.25-593540-305185-601360-298436-636901-483870
2099.15-595842-398651-567289-441291-648379-522258
2102.04-620157-252654-495786-477663-683287-302475
2104.93-496740-496642-602190-463965-647315-403545
2107.83-424249-481718-621505-371152-648154-400885
2110.72-533632-384910-488689-415381-625198-434988
2113.61-414101-337119-580184-519740-517401-393712
2116.50-594160-434863-499977-408591-538784-352176
2119.40-533419-564448-488779-511554-596845-397125
2122.29-562625-452820-642934-401174-533672-489977
2125.18-388429-394249-609080-351898-697263-395332
2128.07-454288-586471-427524-339603-542331-381421
2130.97-558091-397685-474617-428163-588278-370670
2133.86-539178-240895-463512-417763-592355-461696
2136.75-550703-323477-525953-399137-536968-414207
2139.65-395703-421962-519262-385366-383797-409689
2142.54-522424-378010-334870-281867-344583-426037
2145.43-379818-417641-413578-320735-589076-321833
2148.32-543753-316740-467332-554120-608528-324752
2151.22-410749-377664-457000-549105-295799-531763
2154.11-551404-481777-562130-301687-464132-334217
2157.00-506542-355087-498547-315180-584477-462457
2159.89-500498-408965-436901-438284-602275-474321
2162.79-464568-283959-462963-206153-436884-299339
2165.68-490487-304027-548300-393671-501718-400351
2168.57-496514-416794-527240-242193-511575-236977
2171.47-289626-279238-346348-206216-285799-199620
2174.36-307081-190392-294181-273232-148768 165067
2177.25-174098 164701-13218 255776 111342 424474
2180.14 411770 539882 492441 836282 849610 800450
2183.04 832730 1504525 1030678 381966 1184402 3406949
2185.93 1995019 28856 345566 758387 839882 484079
2188.82 150377-133013-343425-313804-414896-292799
2191.71-435368-341895-590870-673964-559742-433924
2194.61-577630-355424-547818-475244-449922-423783
2197.50-416870-445270-565023-450161-546596-458806
2200.39-658966-420095-498732-353124-436428-517610
2203.29-560006-510221-453681-581970-486400-443168
2206.18-571513-415695-567122-406499-473290-411169
2209.07-474950-336788-589169-440010-683941-478572
2211.96-519182-596342-482136-475720-567884-345218
2214.86-558125-532093-507134-244116-488643-399003
2217.75-473994-470225-400906-292812-360080-366642
2220.64-511002-437853-552965-378164-493289-456699
2223.53-384880-467988-597091-346391-529649-394253
2226.43-515135-351011-550827-410085-498724-400013
2229.32-503345-551668-392117-387525-587440-397477
2232.21-588109-384227-624595-457855-641974-320295
2235.11-461860-503151-550795-372837-522689-354358
2238.00-489050-515227-518063-337008-589179-476521
2240.89-394776-423735-622646-373556-579617-517593
2243.78-618740-305612-573337-460048-361257-415719
2246.68-401033-419251-617304-427008-673553-473739
2249.57-478841-405948-350211-330916-619129-453653
2252.46-499929-566022-515126-422273-452535-428025
2255.35-628453-538483-514481-393340-554690-429116
2258.25-542872-265661-543010-361571-529153-535135
2261.14-574237-601716-456221-427699-427809-435460
2264.03-469707-423285-544325-355058-519303-492604
2266.93-502614-291789-568064-546664-629503-423288
2269.82-651449-334583-541625-451833-464030-315687
2272.71-462408-373347-529543-423003-561458-536394
2275.60-480544-324267-583214-537031-409206-470783
2278.50-520605-304788-553691-484627-596745-380745
2281.39-441485-458712-436938-485090-643488-440531
2284.28-504301-454335-320290-379752-507573-455416
2287.17-415276-415471-523251-416571-484210-296959
2290.07-490464-486272-538212-425446-390505-461878
2292.96-485807-321900-377924-332097-473841-460096
2295.85-552540-379218-646323-471766-436108-262405
2298.74-477465-519734-403416-462217-503686-457013
2301.64-414220-423073-379093-557910-532889-316297
2304.53-473402-387987-535914-375633-358577-402792
2307.42-517781-421799-411371-531882-660819-308069
2310.32-393927-306776-500495-403974-440623-124021
2313.21-543655-461810-408943-342875-482807-270707
2316.10-380100-231222-406917-368052-526161-153874
2318.99-420156-369584-417097-190381-483636-392060
2321.89-509191-258968-247304-533129-402214-63058
2324.78-265742-413180-458550-14914-164020-639954
2327.67-375733 118321-250404-551729-382282 52729
2330.56-322584-548401-241789-7777-463852-471189
2333.46-33475-93644-619186-176066 62557-229476
2336.35-426394-43453-97187-524281-508810-5820
2339.24-280740-444984-278181 32641-570275-351764
2342.14-51433-278139-743821-97340-189494-355027
2345.03-434423-84028-471385-383286-535737-414862
2347.92-524280-414784-423017-373838-457838-489730
2350.81-248956-248581-593535-129233-280513-547798
2353.71-225073-159593-529783-144571 56090-647416
2356.60-1275-86390-569413 295478-157325-583512
2359.49 221208-200569-620155 317669-430793-364673
2362.38 146592-613057-1219 59142-584064 141975
2365.28-242308-325883 262594-566807-141904-220501
2368.17-393390 27171-668588-222186-405145-257773
2371.06-293989-500859-144127-362649-371891-535304
2373.96-375655-185142-443518-349776-571582-398830
2376.85-558154-349926-432151-333514-450846-369678
2379.74-459128-237676-488572-520353-375740-583996
2382.63-474971-459517-533845-403436-531534-353302
2385.53-592893-468759-594632-499264-410378-379910
2388.42-525616-496048-564307-459458-616978-459234
2391.31-445645-315596-468409-511319-446145-476579
2394.20-579813-229000-510825-422040-518710-444690
2397.10-444304-305819-489096-438495-382911-423569
2399.99-463917-360569-372013-492317-354158-362416
2402.88-507701-569859-706761-412839-455150-512953
2405.78-666378-301770-506170-342129-407374-238039
2408.67-456021-411846-484469-258612-452994-469703
2411.56-363126-312722-547873-375503-626949-383665
2414.45-493148-508285-539080-415464-489507-331820
2417.35-438912-511203-415246-437077-430012-396460
2420.24-594839-334127-495289-488517-499675-354641
2423.13-481532-396793-520603-439509-257699-350322
2426.02-505226-411216-539720-364845-381205-368561
2428.92-358832-364689-498492-361591-568495-445963
2431.81-551423-294009-527526-529458-463445-485395
2434.70-532156-265141-455342-440519-373175-351870
2437.60-477844-491615-485351-513358-436713-357837
2440.49-635370-416876-490032-420632-566736-506623
2443.38-479798-472991-383292-404170-470485-417699
2446.27-434329-289777-610073-521290-338571-378519
2449.17-529190-249473-407441-359558-508259-300336
2452.06-500252-478435-493288-319141-431173-578800
2454.95-368960-494648-484076-525873-323419-521826
2457.84-321450-496895-402418-426447-537873-528292
2460.74-592704-379114-541857-372062-403626-285966
2463.63-420919-312450-548036-406987-417103-421037
2466.52-563431-366680-506546-463935-636269-240286
2469.42-435705-510401-471287-460274-456522-416647
2472.31-445403-637662-498966-511822-554153-376918
2475.20-543120-398073-397477-435416-435688-424300
2478.09-536685-503151-657934-344018-607943-360323
2480.99-503657-252386-604211-536613-413872-342561
2483.88-525576-555977-432627-450354-558939-557723
2486.77-589952-295695-451101-380848-382070-409532
2489.66-658861-412915-490680-531979-407772-567609
2492.56-604449-304051-578390-382791-338011-424410
2495.45-517272-335954-363183-420964-439432-460347
2498.34-650154-413202-527695-551701-435530-299223
2501.24-492434-470211-350803-341915-489359-462093
2504.13-470744-474879-375257-346939-377302-379686
2507.02-515832-407598-366672-410823-455430-362537
2509.91-632958-450614-442533-349476-561974-424056
2512.81-344450-314894-558536-455278-438818-341950
2515.70-510245-361354-421774-478559-430466-427823
2518.59-409892-577377-302041-434430-542869-538842
2521.48-578439-345465-402446-473525-355011-307714
2524.38-365842-197011-347604-498922-526273-486624
2527.27-476624-303121-535383-393259-488200-523055
2530.16-362264-389420-514882-257525-480834-401657
2533.05-420011-390332-351982-422355-489855-338776
2535.95-289081-217366-350657-285414-444573-296964
2538.84-352501-457666-311174-406649-446368-471343
2541.73-370667-373034-460546-487165-431391-482569
2544.63-486057-356546-419793-355051-499869-647723
2547.52-542029-560607-516149-575484-559505-723396
2550.41-923006-911878-1027800-895637-901862-865401
2553.30-1033735-1231085-1308923-1073335-1420290-1488228
2556.20-1509513-1588807-1999392-1453835-1756109-1538654
2559.09-2075433-1922237-2357567-1849242-2838505-2122665
2561.98-1638270-1192271-1859314-1756655-1655880-2154591
2564.87-4588793-4852503-2935881-673514-172672-916081
2567.77-1501718-2439164-2293961-2481354-2095210-1881042
2570.66-1708855-1464803-1192954-839397-703750-471345
2573.55-341807-474870-477323-696759-414503-376596
2576.45-524300-400916-311412-206865-281121-237689
2579.34-323367-354414-338146-298059-351514-166903
2582.23-417307-288382-503602-298226-205251-274520
2585.12-218695-288602-216028-319402-358541-300713
2588.02-346538-251797-512608-352560-287943-244225
2590.91-258123-284107-334607-144769-333396-285572
2593.80-222351-275024-283910-369933-367848-557319
2596.69-316342-207575-352962-219126-315695-394581
2599.59-325084-304306-352599-341112-386150-307578
2602.48-259773-283069-268791-162117-306087-114025
2605.37-482810-217522-523804-254584-344184-363162
2608.27-427737-428818-565375-329138-503378-304093
2611.16-339901-371972-352280-503135-530976-252903
2614.05-379130-234304-524276-397413-440915-432187
2616.94-400095-423832-544831-669974-389962-499642
2619.84-372586-417484-298925-427461-522229-345857
2622.73-478291-396017-421393-382660-430658-408949
2625.62-345905-536437-565997-370616-406848-559972
2628.51-651465-474932-329547-432529-413563-369083
2631.41-389377-598965-527894-401832-535212-392920
2634.30-508694-482997-505775-474068-481252-555123
2637.19-511375-494464-611754-447820-530813-572706
2640.09-223379-336747-367751-242711-277044-437165
2642.98-405787-604046-409732-666699-575175-536311
2645.87-691804-577085-374903-409901-618025-410564
2648.76-400769-247958-412870-425845-404054-603867
2651.66-507171-312885-587683-423467-434840-597479
2654.55-345302-259409-487483-372845-350790-334161
2657.44-671885-307728-653362-282585-500484-510684
2660.33-509850-397843-440834-461736-431761-529484
2663.23-383219-550686-470854-496406-466655-324366
2666.12-574022-389757-476888-483000-319152-474768
2669.01-519078-390906-349345-482502-513609-343004
2671.91-395903-267363-400382-434016-532049-439537
2674.80-379532-362202-600272-406476-507361-337940
2677.69-500462-559713-527166-249730-579974-418029
2680.58-480525-515441-532780-469601-349206-408375
2683.48-397381-451150-283960-542911-243639-440323
2686.37-622993-452759-456086-515394-398365-381442
2689.26-562263-231828-422518-491414-608127-380213
2692.15-659354-321036-510087-422105-509184-397832
2695.05-348691-202027-611466-511089-534880-477870
2697.94-447148-611869-473975-415188-439044-406688
2700.83-399958-470434-576378-388545-395610-532241
2703.73-405447-577086-483820-304978-323566-464806
2706.62-467588-25276-234154-336073-337098-247994
2709.51-220306-500165-396325-378370-548923-388418
2712.40-350819-512622-392459-500100-376302-395573
2715.30-679746-581687-542111-261670-489699-228604
2718.19-460501-339866-444968-316314-339740-374007
2721.08-493875-500270-477319-472242-515992-382036
2723.97-381474-251238-308694-411544-465435-486903
2726.87-426217-377118-409044-283814-603918-339119
2729.76-417482-289888-457932-341891-429425-367676
2732.65-374828-522119-479836-285413-504868-523441
2735.55-154017-447011-542942-462762-384305-360897
2738.44-395555-299206-612102-329779-447009-338858
2741.33-457194-494888-496786-354822-531835-381347
2744.22-496725-553142-379403-247571-460717-250146
2747.12-391474-387321-377565-459031-558613-277869
2750.01-604429-433829-487418-565216-459392-403600
2752.90-363804-176374-459347-179284-444646-438110
2755.79-365951-527947-296393-513527-496566-477331
2758.69-458242-474358-384979-359351-632997-418149
2761.58-517769-309759-286199-385008-265506-321717
2764.47-353631-405800-380037-388075-674785-349274
2767.36-428319-563501-439008-432826-499222-399554
2770.26-439529-271036-574336-378057-460165-443190
2773.15-638286-423352-487745-434595-328277-405855
2776.04-536873-312837-270236-248701-462826-642023
2778.94-570077-293318-396922-410677-521196-435506
2781.83-396268-336065-583949-524716-435349-354540
2784.72-491812-500858-536449-252630-330997-542156
2787.61-483124-436578-476232-288597-384983-454413
2790.51-667434-374516-533394-441951-588978-466368
2793.40-425057-320953-572843-477595-480994-438287
2796.29-337418-501049-311249-501329-393729-626636
2799.18-377709-402762-337411-295727-559810-440539
2802.08-313168-586342-513061-428279-381691-458563
2804.97-479875-313514-406248-458385-464329-331313
2807.86-578752-496482-475273-358176-392705-203293
2810.76-486920-502743-387038-457738-168793-515776
2813.65-461793-458793-496312-439724-441220-454519
2816.54-475580-386839-313388-420157-392317-371953
2819.43-555602-405561-496145-402385-404863-393968
2822.33-486240-357952-571948-416928-456449-353297
2825.22-585181-428836-382661-456878-425510-332872
2828.11-435128-552293-330956-460991-451404-310638
2831.00-439795-536745-504485-379784-381637-424868
2833.90-403912-537674-534133-391588-203782-331487
2836.79-333377-664966-642018-312399-346743-234732
2839.68-406821-195968-357022-103233-289405-423766
2842.58-473514-194157-478787-386914-468005-411467
2845.47-472034-352562-451322-304441-406464-283117
2848.36-499153-237852-552084-371156-460133-351061
2851.25-317047-437890-525086-266242-315571-361341
2854.15-516511-429710-454519-274842-494722-293142
2857.04-315425-409726-441941-395590-207407-382596
2859.93-365567-340467-565158-395755-258786-442355
2862.82-273917-556541-314503-198705-311771-388447
2865.72-369658-506192-529205-393078-622929-229884
2868.61-352929-292844-518754-430783-389702-223399
2871.50-638294-455137-590042-369130-312822-333194
2874.40-381904-291947-495832-546754-365808-536899
2877.29-372493-449321-489416-306317-407409-293847
2880.18-544397-312583-364533-403459-280361-374096
2883.07-382404-496244-285672-463134-435043-259680
2885.97-469390-276420-400404-449396-292455-399353
2888.86-548359-354309-325020-239810-262186-454453
2891.75-334067-456824-550289-421288-355681-179433
2894.64-374804-391529-426219-103676-287718-263800
2897.54-535652-567028-391194-267144-196845-481743
2900.43-406145-311718-504981-444662-632944-7511
2903.32-264045-355204-536916-344645-600046-213884
2906.22-419510-572803-222798-187612-122527-126175
2909.11-170716-506677-165249-365813-408213-506012
2912.00-495082-613189-248630-438573-496649-321132
2914.89-563588-243761-260629-284905-399263-379164
2917.79-486803-364968-367491-467270-547988-350355
2920.68-271830-303148-478823-395391-135721-662637
2923.57-404649-372969-530436-435268-301372-574372
2926.46-416659-374809-342336-431676-388350-689259
2929.36-554825-186694-207490-304649-525454-577688
2932.25-541794-410883-586960-483640-394621-304585
2935.14-468788-379586-425481-297986-444298-504871
2938.04-475004-479830-514518-482065-309226-346695
2940.93-221289-413307-266086-500457-479959-461875
2943.82-474210-651637-391518-438551-448044-311145
2946.71-382586-413479-500440-215566-680844-615688
2949.61-420729-360655-261773-320079-389072-371686
2952.50-107456-550155-411427-567186-404336-475720
2955.39-326220-333400-399849-246584-320775-319070
2958.28-316349-480710-593457-465071-550244-620130
2961.18-321418-461369-274614-386093-301373-314636
2964.07-643595-441833-465469-401033-259431-283131
2966.96-549116-394773-573157-433918-566657-453756
2969.86-587977-412590-445675-193680-490037-299722
2972.75-499589-422725-410403-365564-316848-592276
2975.64-180785-488761-466581-486305-274318-579618
2978.53-437318-636070-387857-366158-436780-503990
2981.43-474148-245721-505616-271205-407931-531966
2984.32-424097-509474-423467-357361-338459-294602
2987.21-545936-144582-368969-625915-562750-531021
2990.10-368742-449598-478311-399329-280531-429222
2993.00-443427-501263-460851-393565-515466-122924
2995.89-455680-306053-266124-510810-165680-373652
2998.78-133689-465166-439219-518426-496230-207281
3001.68-376453-339899-476317-474687-244168-432075
3004.57-411358-427040-247050-581968-293532-413934
3007.46-515495-452943-422337-289230-448856-314653
3010.35-481602-556766-482787-472556-399354-498572
3013.25-574128-245304-497364-411061-381449-515199
3016.14-500454-564023-522298-420414-482138-290613
3019.03-360645-571908-308417-354356-224773-440775
3021.92-496743-335536-351990-295599-282025-411789
3024.82-259762-530328-428902-225948-714856-468223
3027.71-520009-507255-394655-537600-400258-282346
3030.60-666416-472395-355429-310366-329770-503234
3033.49-421423-502893-356123-500571-250624-443256
3036.39-640078-406883-516695-259532-395722-443927
3039.28-500886-469440-453555-351590-477595-447384
3042.17-669827-394706-441411-353173-601878-298144
3045.07-370285-431929-654686-508160-491089-451202
3047.96-399834-220613-460186-629249-501785-304713
3050.85-357165-193730-596093-561236-295149-165140
3053.74-477778-540040-187401-391443-416925-542940
3056.64-394358-240311-330440-489116-426301-529156
3059.53-310661-413761-298178-658070-570427-327331
3062.42-306774-692355-633884-473081-400889-456616
3065.31-217670-365354-178171-375192-476405-430221
3068.21-465106-424925-252689-366261-236627-446544
3071.10-339184-417501-480562-338840-409666-341689
3073.99-268240-452640-279070-613977-364010-475361
3076.89-572158-478507-320214-332105-515180-315429
3079.78-336995-419076-446994-516585-312266-427247
3082.67-242580-258399-305369-291683-481254-507819
3085.56-296832-442229-411105-356755-400493-279275
3088.46-139540-366333-384411-401979-254651-401017
3091.35-352261-586156-220962-337731-349866-410637
3094.24-470220-538845-50818-347975-504829-336851
3097.13-382231-278394-489081-345561-469167-341586
3100.03-328131-292946-436339-318028-388734-459249
3102.92-359186-166626-435083-597486-477878-219359
3105.81-468284-618097-289532-180647-518511-345062
3108.71-221546-662204-511193-517726-225711-215021
3111.60-363134-387979-453820-694009-301978-490386
3114.49-484619-515058-517826-349075-480488-259997
3117.38-216544-261252-310265-452847-309545-519847
3120.28-196179-139472-541331-344622-599108-354642
3123.17-221015-294764-560093-330754-322763-507716
3126.06-282210-257819-174290-450433-362871-242745
3128.95-386935-266241-315051-362972-439623-337147
3131.85-525588-416126-216558-10211-313874-196681
3134.74-275709-228770-491902-742497-325195-557950
3137.63-311918-158532-511520-395793-490889-212731
3140.53-460921-329639-359749-218128-93568-297043
3143.42-391079-670490-364458-303816-633773-479418
3146.31-362038-138043-307339-501461-469080-475328
3149.20-367588-445814-571154-576001-200817-585429
3152.10-376652-466856-556403-249284-383256-330714
3154.99-510233-511132-222235-531204-330925-244914
3157.88-340667-390724-370384-377542-315973-379064
3160.77-330935-508655-271260-548587-334222-662574
3163.67-313827-56499-396519-527580-725134-446093
3166.56-331467-359912-650574-482557-509629-412534
3169.45-303344-221602-419570-359901-230866-183071
3172.35-823780-476377-349617-379803-292485-680620
3175.24-364917-366426-394310-442610-293252-331530
3178.13-125419-419595-523737-185714-511331-387663
3181.02-657009-351875-176139-423492-236915-327158
3183.92-506485-662193-462312-511045-391529-234527
3186.81-497943-533329-379471-339220-371379-384804
3189.70-152141-450868-449989-232989-482917-264101
3192.59-618085-336152-299655-708329-324387-401950
3195.49-281301-224815-309861-408003-442020-485676
3198.38-201279-648110-329756-342079-529352-458359
3201.27-169453-355098-148399-329626-445770-385010
3204.17-511779-157540-451885-399247-643671-407257
3207.06-599341-410063-515727-531285-353701-560114
3209.95-440530-494702-520849-583328-372397-402002
3212.84-417938-221391-247451-532688-336555-196728
3215.74-463462-743875-367458-224202-335367-400291
3218.63-411642-370474-141579-191946-476465-359531
3221.52-322267-290786-290096-326703-429713-571680
3224.41-470182-155239-495883-508638-570866-360417
3227.31-409406-331234-583217-582083-311809-404827
3230.20-338020-254526-540048-151480-687811-368730
3233.09-356312-376717-377519-238650-396291-540420
3235.99-372648-313702-140874-353114-502561-262398
3238.88-213733-538478-724364-454935-522722-278925
3241.77-504682-410762-620470-347017-370948-302264
3244.66-319407-202540-491779-439530-343537-389486
3247.56-395117-427428-314044-302190-552424-339186
3250.45-338984-461895-534415-126093-579506-491571
3253.34-211816-77788-460564-482004-398803-317255
3256.23-545355-516758-548685-143496-6483-318696
3259.13-669271-596939-445560-256699-393551-482791
3262.02-465039 84726-149322-456999-289012-490420
3264.91-314978-424796-308451-326952-439384-493361
3267.80-462636-270703-336402-143060-373258-509440
3270.70-494906-473121-523182-344512-333517-413467
3273.59-337421-288085-268978-396682-272964-284761
3276.48-261318-307471-303721-468579-279251-694278
3279.38-414418-326721-330352-326037-516740-431134
3282.27-323431-125123-308974-487312-309711-443200
3285.16-451757-216798-278826-138463-342706-637409
3288.05-357064-325050-162487-323849-539608-289451
3290.95-275603-437340-335651-521008-422982-204584
3293.84-473039-462286-365820-448533-409584-395258
3296.73-349991-377522-242901-248937-392870-583640
3299.62-475322-278272-379076-438576-304392-289909
3302.52-321284-261282-693035-690405-143144-653218
3305.41-438598-332664-142705-256839-309551-490642
3308.30-281562-297627-391396-318780-325212-370402
3311.20-774930-457810-342137-708339-369235-68905
3314.09-399895-102058-242922-443149-431080-87375
3316.98-851124-394258-182970-386005-369870-577881
3319.87-346870-294244-427851-406568-571044-356516
3322.77-342872-525880-204962-346906-622832-646314
3325.66-395814-233919-566069-496830-806992-509017
3328.55-271221-479984-539705-254832-380266-446044
3331.44-412678-17905-785997-416707-453954-513799
3334.34-408658-261235-507993-340201-299284-215493
3337.23-497886-699673-401518-485592-421697-628041
3340.12-143027-588346-396987-300977-437017-356474
3343.02-441608-247476-285245-567574-403837-512613
3345.91-569430-468634-522662-637639-119272-263365
3348.80-485645-689114-649903-502343-235207-421313
3351.69-241653-228487-338428-470503-396829-403044
3354.59-438548-454019-390643-327243-240679-296898
3357.48-726827-271969-220738-370576-291385-472621
3360.37-104158-476416-710107-346209-145759-353452
3363.26-333537-482346-746413-428888-150946-632310
3366.16-370393-523104-386254-363993-476300-426619
3369.05-389857-526913-48528-218613-362368-215376
3371.94-425471-321159-467188-361970-358274-222968
3374.84-192985-432259-279155-420039-652509-235174
3377.73-442518-383838-355466-516010-663922-442317
3380.62-326780-355168-219949-218507-114816-231076
3383.51-64302-209487-36388-493922-565026-701693
3386.41-228314-186178-61377-461299-312707-338206
3389.30-402916-225852-520109 21341-720728-411322
3392.19-435047-429066-138134-259755-579579-529961
3395.08-316118-457719-422299-321186-238433-143641
3397.98-657449-333904-515155-200684-386187-308355
3400.87-70089-417117-430151-361252-447674-402728
3403.76-178629-420667-191097-616386-270544-269105
3406.66-659227-417292-368230-173812-401093-384245
3409.55-310694-73422-336812-185397-318360-313714
3412.44-226805-588591-502230-309865-75358-95331
3415.33-295797-389940-425166-247297-95307-344591
3418.23-403113-563618-485918-337291-195275 61947
3421.12-146152-436105-396874-322567-371635-49361
3424.01-444579-55826-560574-540529-479902-398109
3426.90-346290 42678-422202-396494-259550-302230
3429.80-293440-393077-398156-443397-320632-470726
3432.69-188269-415011-251441-384913-210197-347905
3435.58-168327-224872-139456-17402-479939-537271
3438.48-32792-74967-109075-362907-92657-240759
3441.37-327728-273048-643039-422159-33676 33945
3444.26-486669-264441-180332-67759-261133-401310
3447.15-489123-138087-69719-547884-98328-164429
3450.05-271870-224725-302545-713422-635976-218259
3452.94-133541-142449-215536-76273-234889-271101
3455.83-529653-311120-469622-457938-197723-426411
3458.72-444298-474132-321608-256921-72438-423451
3461.62-403163-254827-288557-135444-142029 71352
3464.51-135916-416430-97445-397023-242655-572523
3467.40-145050-145795-262414-568334-195013-331053
3470.30-431397-630207-426967-143247-480585-606348
3473.19-332421-447584 5386-450869-508378-456006
3476.08-263180 69261-225188-104257-7216-440106
3478.97-350023-509032-548623-298568-245570-229081
3481.87-552984-405062-391405-386600-267332-114277
3484.76-445546-176676-573120-480020-396247-351608
3487.65-44962-28238-413690-126604-399136-432552
3490.54-318895-372082-384843-365970-23627-356615
3493.44-240456-177187-425022-244109-544817-71536
3496.33-166290-209785-495841-229106-369422-388453
3499.22-96824-357668-99304-140937-368830-170139
3502.11-307866-424369-442138-433302 154423-415167
3505.01-499706-462629-433625-509965-624155-231720
3507.90-172614-417746-544660-436529-360308-71700
3510.79-378774-484073-245615-478042-432291-303896
3513.69-701934-241600-46580-461861-418514-495656
3516.58-549410-394639-225111-303464-378067-336002
3519.47-391499-679416-166720-595715-260834 17244
3522.36-379631-290071-408913-383567-103591-158350
3525.26-430794-353702-313628-385110-607353-202757
3528.15-390709-452379-494870-521804-250870-264835
3531.04-535592-175519-426974-308803-303588-634257
3533.93-181250-102873-248226-215259-390262-584773
3536.83-189780-473531-469858-301636-182632-325632
3539.72-384812-44462-466958-511431-570257-148871
3542.61-546435-392386-322663-136271-378331-578556
3545.51-113019-464138-264712-399981-214020-152280
3548.40-505728-330913-378307-483262-165548-457574
3551.29-174251-333859-398754-465178-436363-436712
3554.18-384817-327339-366532-428395-537742-192439
3557.08-134048-258065-475110-569007-502100-249621
3559.97-594141-169687-6191-142955-533887-373791
3562.86-307456-478616-440520-340263-433260-124277
3565.75-452590-238142-185434-188863 172679-412411
3568.65-400007-302102-96819-485306-465182-632181
3571.54-448004-391614-248899-553852-171786-362226
3574.43-298484-378702-348602-156927-150188-330659
3577.33-366931-428501-496243-311318-317378-258924
3580.22-464993-483676-516871-574559-140226-574739
3583.11-84577-312675-333303-231380-367166 66461
3586.00-208918-669498-471886-269917-442381 110098
3588.90-585676-666679-258008-123918-239245-495335
3591.79-408535-293578-288615-87334-319313-588033
3594.68-473009-413942-642902-303407-580491-790121
3597.57-441487-278898-144916-259838-322306-481231
3600.47-218424-154253-363750-196674-427030-290297
3603.36-356043-409691-414698-324493-277232-585256
3606.25-482240-168483-620770-235569-503007 104992
3609.15-195398-239026-132265-298219-446872-290134
3612.04 21258-300183-508022-287559-46496-456548
3614.93-97044-559052-159996-692870-34210-166742
3617.82-150883-601868-323049 112422-74841-327234
3620.72-392303-324905-255975-230862-327014-288288
3623.61-239309-480063-156711-271195-198668-445883
3626.50-14398 43270 182694 345516-88211 449110
3629.39-65800-548558-58107-544330-180496-276825
3632.29-383934-133211-41146-124144-406249-343627
3635.18-55112-433741-444344-449583-337145-252193
3638.07-232969-84407-265477-223174-124415-289948
3640.97-412675-231422-304413-283837-149755-377287
3643.86-309715-355689-365626-299708-276727-373839
3646.75-55711-37295-285690-15194 653820 91876
3649.64-299535-27988-66174-403337-286176-176018
3652.54-201926-386296-370333-403319-67769-464059
3655.43 38842 218029-177153-347562-374169-298222
3658.32-202010-591001-267013-266915-52317-302689
3661.21-377984-514022-235210 56912-368959-568874
3664.11-3485-89895-165507-394096-482967-154137
3667.00-350748-589521 95792 121651-239423-338688
3669.89 162571 517648-518478-40928-226502-429008
3672.79-446587-264402-314564 212348-136024 205549
3675.68 599088-422002-143451-421997-103755-124388
3678.57-62885-121769-579268-319463-59845-375345
3681.46-469659-280740-88964-133120-317372-323184
3684.36-417166-147506-622760-297599-259444-55533
3687.25-270811 807669 393833-151051-265375-256403
3690.14-130061-44647-50478-286158-405153-353667
3693.03 149841-403072-182328-458987-418287-251244
3695.93-316961-163677-321030-491889-162896-253429
3698.82-451015-2140-14472-308259-319562-17024
3701.71-51759-342603-402212-140716-238088-246806
3704.61-234050-390634-468762-468863-225416-403953
3707.50-325988-496870-234202 98202-125816-428888
3710.39-5145-612269-24034 354705-100959-236303
3713.28-308253-519062-511326-386141-346255-137669
3716.18-577247-349741-131735-546480-400330-418537
3719.07-487336-238745-354182-36389-317778-453424
3721.96-345195-141488-342604-121883-219369-285895
3724.85-210345-476831-324018-22784-212544-316652
3727.75-278043-260839-310417-320496-90858-355122
3730.64-295863-481580 119852-281997-296656-438656
3733.53-442456-45192-263882-215979-493569 38774
3736.43 437322-563905-233939-37360-144447-511183
3739.32-224440-264175-383574-71713-96646-172941
3742.21-468313-156397-432322-23251 1228745 390158
3745.10-449850-387872-194285-253013-385304-384803
3748.00-445841 16870 1138776-122125-181306-300847
3750.89-414546 210697 878318-264389-115044-287740
3753.78-241491-273169-333803-578019-313994-148871
3756.67-111948-610320-310868-405144-416037-202002
3759.57 124943-198310-314550-563963-413940-373292
3762.46-85449-625675-334748-155197-325394-410013
3765.35-412956-425735-332818-233630-160400-247155
3768.24-140809-676727 161422-361997-413115-112826
3771.14-320905-427695-232962-461253-262144-389606
3774.03-50120-78677-54760-355054-448866-287125
3776.92-273261-479740-174425-226334-30694-275288
3779.82-335447-91854-331921-401687-376447-88102
3782.71-161208-266163-443173 77886-710132-166483
3785.60-403537-434983 113950-431656-409407-435692
3788.49-278129-338463-328242-209534-162737-94815
3791.39-257428-420154-190194 102083-537137-280063
3794.28-596490-255863-453207-94457-8167-623647
3797.17-486108-176663-240676-292967-218644-437068
3800.06 27887 377081 785061-185647-242152-459439
3802.96-127467-383359-305394-43721-241118-430924
3805.85-531523 46666 140817-489349-226691-141513
3808.74-270567-574263-178359-439522-163145-391416
3811.64-150242-191834-172191-465559-152557-317910
3814.53-91977-462574 917443 6598-447765-127624
3817.42-153720-255756-328898-393335-240680-127478
3820.31-59381-396219 422393-457432-225277-108157
3823.21-261061-179798-262795-492347-113933-274373
3826.10-65348-296532-517288-275296-378340-57150
3828.99-510499-332121-502786-604671-190340-161184
3831.88-512085-476077-683050-445944-364897-63350
3834.78-76439-408603-426841-434896-680097 476371
3837.67-53366-475404-111509-482350-106947-360646
3840.56 59391-766830-386802-643765-828132-898253
3843.46-325680-172097-371370-849395-239127-191220
3846.35 36785-1738266-425963 13057 376504-1755293
3849.24-2308468-426713-9459-380326 48519-23895
3852.13-436578-522375 309423 1092057 336415-465799
3855.03-746873-575141-248643-290498-521294-631171
3857.92-417945-719717-561152-367173-507147-523481
3860.81-489293-288394-642656-305931-54713-285221
3863.70-236009-207867 191819-278844-212438-421773
3866.60-341894-132886-372589-400703-44651-498097
3869.49 379128 125848-530131-88051-270848-451290
3872.38-424970-181058-162363 46183-380000-188304
3875.28-276694-540847-101658-486931-313174-410929
3878.17-217112-380927-234415-190741-169025-256999
3881.06-275076-488931-444211-749510-323394-469729
3883.95-312921-325306-63742 298018-302273-153325
3886.85-349284 2479-222104-450427-342527-348801
3889.74-227803-319049 525693-79909-379728-400474
3892.63-210073-319380-39160-388462-212359-679673
3895.52 7785-596538-479188-149526-314592-365543
3898.42-380443-157591-8582-321196-334757-311988
3901.31 216140-207034-329656-2419 91082 254742
3904.20-272243-253351-124726-376501-214301-297704
3907.10-88906-238411-290649-562640-193645-37584
3909.99-254937-351741-609021-179514-240183-212386
3912.88-198156-270386-170561-243374-23526-240106
3915.77-254449-254246 52665-11738-167586-751298
3918.67-596618-334609-225721-389764-142536-311506
3921.56-255712-621256-123541-403297-89848 145788
3924.45-598283 96288-377-82063 77397-537771
3927.34 88784-175271-15676-316922-482375 37055
3930.24-506230-751142-518031-418290-169002-723413
3933.13-115149-363224-464892-250651-397597-293701
3936.02-432134-170404-69232-264865-119432-333396
3938.92-120285-328466-711513-542760-454978-428028
3941.81-302459-74049-214705-51209-111323-10485
3944.70-156928-234022 17582-468935-310470-192466
3947.59-516433-273671-235861-327663-249958-439762
3950.49-95132-474392-328291-220264-364833-252726
3953.38-730737-197578-154821-435723-468647-228343
3956.27-98073-26940-394504-354180-62332-332486
3959.16-240114-325662-373414-469944 77714-69064
3962.06-279574-293588-627979-582713-255969-514980
3964.95-65428-305410-5544-182594-126549-277381
3967.84-319682-307959-92590-63765-345550-295604
3970.74-695760-343227-215113-202596-50706-145434
3973.63-629359-109847
##END=
