##TITLE=Dichlorodifluoromethane
##JCAMP-DX=4.24
##DATA TYPE=INFRARED SPECTRUM
##CLASS=IUPAC A
##ORIGIN=NIST, Analytical Chemistry Division, 301-975-3108
##OWNER=COPYRIGHT (C) 2001 by the U.S. Secretary of Commerce
##DATE=01/06/01
##$SPECTRA VERSION=1.10
##$UNCERTAINTY IN Y=2.1 % relative (B=1.11E-04,C=1.83E-9,D=7.56E-14)
##CAS NAME=Dichlorodifluoromethane
##CAS REGISTRY NO=75-71-8
##MOLFORM=C Cl2 F2
##MP=-158 C
##BP=-29.8 C
##$NIST SOURCE=QUANT-IR
##SPECTROMETER/DATA SYSTEM=IFS66V (Bruker)
##INSTRUMENT PARAMETERS=KBr Beam Splitter; MCT Detector; Multipass cell
##STATE=gas
##SAMPLE DESCRIPTION=Dichlorodifluoromethane Primary Gas Standard
##PRESSURE=101.3 Pa
##TEMPERATURE=23 C
##SAMPLING PROCEDURE=1 L/min Flow
##RESOLUTION=0.9640
##DATA PROCESSING=Triangular Apodization
##XUNITS=cm-1
##YUNITS=(micromol/mol)-1m-1 (base 10)
##XFACTOR=1.0
##YFACTOR=7.2759E-12
##DELTAX=0.4820
##FIRSTX=575.17
##LASTX=3974.605
##FIRSTY=-2.54E-06
##MAXX=3974.12
##MINX=575.17
##MAXY=.0040812
##MINY=-3.02E-06
##NPOINTS=7052
##XYDATA=(X++(Y..Y))
575.17-350242-179036 24891 48711-5468-145928
577.58-234396-145550-62873-44009-126415 50185
580.47 74256 312573 269981-158541-262337 33370
583.37 223186-284743-416417 98573 90955-387763
586.26-365276-184962-25870-9569 45922 166806
589.15 313442 321350 37453-136908-170012-141933
592.04-326948-412024-116386 83162 103952-194013
594.94-302580-242984-46151 154358 64795 222578
597.83 71091-79696 65330 79590 88771 35039
600.72-82112-90130-126983-25362 22799-136353
603.62-43261 82763 120880-2983-190553-233156
606.51-220741-242857-201527-86697 33906 11797
609.40 31293 72861 63033 61969-70943 12730
612.29 102136 39711 24250-39833-85977-88386
615.19 36524 38026-102911-99297-217071-302922
618.08-200294-99817-84104-99032-95328-82614
620.97-25017 43538 1119-59357 96092 133237
623.86 51819-95224-245126-126873-68953-55425
626.76-7312-25059-32002-77706 66500 106506
629.65 16233 142069 147343-20199-101375-332
632.54 28925-35552 89800 209113 114497 92255
635.44 1412-15898 169058 137348 94188 107401
638.33 97637 215955 292344 207450 142307 180167
641.22 230103 226946 450984 636850 629730 573922
644.11 547996 623944 795303 934070 985632 1104594
647.01 1202017 1288007 1479096 1691616 1834405 2035522
649.90 2267418 2556674 2698695 2758265 2989028 3233839
652.79 3583921 3792905 3927931 4301241 4606129 4738133
655.68 4948822 5305167 5498478 5494424 5714216 5953389
658.58 6051893 6226892 6267601 6446390 6814735 7032003
661.47 7486862 8017588 8429756 9059629 9705397 10121970
664.36 10345087 10176001 9707705 9098683 8285082 7716336
667.26 7761281 8413089 9586064 10680440 11143103 10785006
670.15 10019492 9271823 8547986 8100277 7728372 7468691
673.04 7406720 7389496 7481584 7620567 7699321 7640203
675.93 7541947 7501757 7341304 7151651 6884298 6598217
678.83 6354321 5871745 5441333 5067628 4695479 4270081
681.72 3900248 3621876 3225590 2883935 2569880 2299744
684.61 2127422 1939727 1657066 1364833 1248329 1125383
687.50 964661 857161 745823 663170 539991 450719
690.40 412355 401451 348885 280714 253913 264579
693.29 203680 84753 113582 192324 156433 74501
696.18-21197 76089 150989-64335-52813 78954
699.08 110688 104840 124410 174001 93982-12338
701.97-21402 8067 81870 48206-9316 80536
704.86 150490 153247 111016 141113 128801 116561
707.75 119445 85821 181322 213417 95755 24918
710.65 80208 112230 51693 121875 143651 102189
713.54 164187 177945 200641 238051 239586 129855
716.43 68393 92628 80859 60934 144957 220681
719.32 195189 233024 297469 234858 179950 159887
722.22 192867 160542 88101 126193 129036 147353
725.11 194319 182553 183076 166741 74984 102320
728.00 184201 159961 120273 100623 126826 165217
730.90 188839 223205 194064 174424 197629 169459
733.79 86651 36137 38752 24477 52604 64490
736.68 4346 57196 108974 59481 56399 95130
739.57 98920 117649 175752 155815 167356 132482
742.47 2745 8808 103608 82552 95877 179751
745.36 171233 152141 150653 157642 190887 183925
748.25 185917 250404 264132 226162 209573 224416
751.14 204416 214558 231414 186445 290740 365164
754.04 230721 166090 204537 238047 187899 154700
756.93 170880 148487 135562 152987 197291 187580
759.82 152181 148900 202495 201896 177698 185982
762.72 164636 171674 196524 108265 109653 153039
765.61 154538 200542 191917 94825 89750 174837
768.50 132948 106338 108052 69538 33840 18298
771.39 11749 34383 58741 27677-13603-16898
774.29-1421-10756 67533 64072-44243-28441
777.18-34596-12104 30464 27070 106379 141356
780.07 87649-18980-27370 50601-10683-61971
782.96-22833-29271 64602 173739 74243-10966
785.86 50615 102107 6124-79476-95078-40760
788.75-7431-63219-88891-103229-64691 25015
791.64 18852-82378-105879-57528-37566-54622
794.54-23042-89356-46596-7456-44186 33501
797.43-10206-13742 15659 32341-43638-108116
800.32-12288 15006-5489-1225 20239 49259
803.21-792-100767-92621-47850-1831-27102
806.11-50965-57775-119764-69244 9295 39856
809.00 40706-51673-131720-3528 45294-63160
811.89-56524-22025-13165-40582-21522 27356
814.78 47108-26060-88544-37660 14068 85458
817.68 183567 115584 3047-2259 50822 114171
820.57 79439 30754 84722 153658 195362 125296
823.46 92697 165842 171533 198199 222340 224116
826.36 352961 451724 458713 437493 438233 528129
829.25 572788 571734 470371 475926 601273 632866
832.14 673025 633825 510230 496684 595120 619229
835.03 551763 556564 674382 737036 733304 757485
837.93 895925 929705 1099425 1361025 1393915 1333170
840.82 1200924 1034854 952370 926692 900359 1018093
843.71 1072059 1106511 1187383 1249369 1314694 1380859
846.60 1498172 1565535 1657385 1745683 1891676 2026972
849.50 2076493 2169399 2227238 2376391 2580277 2744166
852.39 2908534 3042921 3275409 3522016 3798184 4044390
855.28 4312778 4633193 4952979 5295515 5648095 6063996
858.18 6525229 6923622 7349885 7848681 8490243 9217840
861.07 9821051 10404795 11063686 11796306 12659439 13550785
863.96 14411605 15352230 16311827 17190275 18211612 19367924
866.85 20516347 21738105 23089169 24459259 25707625 26958467
869.75 28333577 29743650 31250881 32950983 34560289 36122938
872.64 37597933 39042807 40922352 42799729 44424494 46521601
875.53 48854783 51216271 53337431 54288537 54998818 55113925
878.42 54645848 54388938 54667802 55616222 57631176 60265447
881.32 62837299 66457953 69198035 71185429 70224401 65101549
884.21 59078021 54916566 53960222 56356379 59779176 63554321
887.10 68613936 74271360 81218884 79002336 68434743 61936907
889.99 62102281 66268342 68944036 66039398 59969194 55446040
892.89 53105018 51628393 50494845 49478082 48370638 47266416
895.78 46116752 44843729 43650147 42672745 41810429 41051901
898.67 40707349 40418016 40214994 40456683 41282692 42656985
901.57 44499679 46811109 49668099 53058603 56962968 61568164
904.46 66445860 71465760 77365340 84026299 91382313 99405453
907.35 108177411 117699703 128017978 138336112 149056394 160168888
910.24 170613073 180198637 189271546 197199262 203824480 209586555
913.14 214647808 217133740 217484389 218113875 218706445 214489258
916.03 209376027 211548754 218333023 213976720 212196804 238301519
918.92 273316060 265940298 266234370 341953083 418728441 385279722
921.81 372527006 444704236 339286171 203113171 201245684 202183939
924.71 204196293 224428021 239149818 240403868 246987627 256796694
927.60 266866459 274097963 277066310 277045538 273718191 266445808
930.49 255991428 242280260 225993855 207772395 188521735 168702626
933.39 149046264 129790582 111675168 94945084 79816806 66346382
936.28 54650358 44656549 36204154 29118988 23495424 18937978
939.17 15185357 12164951 9844998 7973117 6570036 5394435
942.06 4445836 3743506 3186366 2695474 2332176 2031910
944.96 1773604 1550420 1430715 1306995 1210528 1136547
947.85 1047312 978684 940920 852422 811917 796766
950.74 783756 725524 676609 623773 559983 576641
953.63 611797 555577 504849 451447 452426 426335
956.53 415793 462355 500228 474430 461811 410539
959.42 381027 356541 306064 280453 273222 303314
962.31 331592 291243 257379 240797 220981 221605
965.21 233828 250423 260445 241618 207602 174407
968.10 201700 194804 168482 157630 148980 182780
970.99 213158 132067 94138 90502 69918 106688
973.88 151230 163781 172028 155542 94682 75714
976.78 154325 140903 98957 105606 126515 127878
979.67 119705 122752 98403 53871 58779 91941
982.56 93214 70821 88294 96329 123392 135989
985.45 133535 123570 111263 111687 149609 160000
988.35 140443 106727 63177 67452 82700 51238
991.24 39746 42856 43908 40440 42423 34816
994.13 26892 22185 18903 26918 36730 52584
997.03 63722 58732 63704 22559 19964 26419
999.92 21653 64171 66973 11358-1758 13636
1002.81 10607 2870 57800 37382 33180 71460
1005.70 45505 6790 15302 8015 19692 19695
1008.60 17872 22615 11181 21791 1682-40121
1011.49-2302 17132-7336-25794-12305-10772
1014.38 8676 32101 36249-223-7055 60010
1017.27 30424-34656 14039 75321 50873 35547
1020.17 51238 65625 58671 29583 35287 203
1023.06 21288 39333 3672-10816 8406 59963
1025.95 98915 95853 96627 114793 143510 128380
1028.85 124697 117101 126157 98180 58532 89625
1031.74 148517 153899 164288 165898 118815 79318
1034.63 106926 164853 157193 116662 125154 131042
1037.52 140721 173416 155256 127647 158800 138140
1040.42 156382 251631 260210 173141 182343 197079
1043.31 207613 280951 303615 294204 336697 336621
1046.20 306296 312012 361215 370053 373665 336655
1049.09 366417 450105 479870 509576 522916 518313
1051.99 594815 672464 751609 782514 786045 848082
1054.88 975493 1003457 1020995 1170274 1291740 1362631
1057.77 1456325 1510979 1638463 1784413 1936781 2069696
1060.67 2153213 2286631 2449826 2570933 2743164 2907994
1063.56 3062452 3284648 3515310 3679204 3911767 4205096
1066.45 4540945 4830917 5104962 5512013 6015178 6544108
1069.34 7101254 7639716 8249164 8912684 9634720 10423048
1072.24 11286013 12232828 13427650 15028725 16866010 18452752
1075.13 19726076 20894718 22001374 23356384 25431075 27864015
1078.02 30420621 33165867 36177090 39394209 42840619 46440371
1080.91 50305270 54479088 58794190 63256307 68092457 73132637
1083.81 78362526 83737224 89270803 95039178 100878465 106755931
1086.70 112735411 118622636 124480493 130374249 136252798 141862444
1089.59 147363098 152528760 157125256 161320181 165401634 169327229
1092.49 173283807 177310770 181308378 185544205 189919739 194595707
1095.38 200355953 206058075 212302764 219732916 224651991 224519954
1098.27 224274459 228678814 232041736 228846098 221490304 224415587
1101.16 253022536 282730513 284480629 266019707 248545253 230171989
1104.06 205922062 190311839 182802308 181126572 183212794 183664755
1106.95 182656622 181712097 181660788 181621176 180775846 178785582
1109.84 175726198 171430297 166340085 160445342 153900369 146634835
1112.73 138901657 131003347 122963251 114722842 106753645 99067295
1115.63 91788690 85096094 78845362 72920439 67506991 62165220
1118.52 57084750 52924876 50092154 48248301 47542172 47555122
1121.41 47028963 45500194 43440887 40564076 38033419 37186589
1124.31 38658538 41873237 44726366 45197152 43272111 39508329
1127.20 35107623 31542933 30632199 33151016 38291974 39351473
1130.09 36153590 33999761 32506994 31203603 30464066 30002149
1132.98 29988685 30068522 30408339 30816235 31463178 32176546
1135.88 33215696 34294803 35651085 37146619 39068513 41063943
1138.77 43546362 46236134 49368511 52653984 56422563 60317939
1141.66 64768079 69323573 74253619 79086566 84278543 89351348
1144.55 94762394 99744878 104650465 109024802 113827716 117819618
1147.45 121083370 123393675 126050096 128512904 130151751 128370602
1150.34 126916393 125402446 124770658 123474610 124375723 121803478
1153.23 120834986 121210844 122906165 130906653 139241348 136569295
1156.13 148905375 149783704 172094118 224668512 219579407 186514988
1159.02 173571101 155664192 369831856 560921712 275936529 97431602
1161.91 104705785 92401493 96960795 90114932 90536673 86239049
1164.80 86766423 84676951 85577813 84518873 85353343 84456118
1167.70 84721862 83585567 83078065 81186935 79788543 77195992
1170.59 74998272 71881406 68987231 65410014 62047723 58167606
1173.48 54721044 50833152 47236828 43370948 39995561 36398355
1176.37 33134576 29839579 26956010 24066749 21638515 19162072
1179.27 17049066 14957335 13272928 11613874 10274043 8926317
1182.16 7874468 6818037 6027634 5251973 4679360 4039203
1185.05 3613333 3138774 2839082 2528856 2335545 2088954
1187.95 2017608 1898356 1814484 1621318 1544285 1473275
1190.84 1458603 1386229 1426265 1368583 1396268 1353643
1193.73 1384593 1354526 1325630 1242955 1239142 1188996
1196.62 1222848 1213219 1233817 1251205 1319740 1295669
1199.52 1386697 1450118 1451598 1450939 1472555 1252748
1202.41 1058596 993553 1048919 1035741 1038040 1081564
1205.30 1186817 1249638 1324880 1343080 1391110 1389986
1208.19 1213288 879966 788872 789305 812425 780011
1211.09 784453 758769 754721 754111 770197 747895
1213.98 718334 703631 741200 720640 700521 671665
1216.87 718117 739770 736779 723241 762274 761648
1219.77 746827 749016 779081 772467 839112 916101
1222.66 946851 966158 1022452 1098398 1105112 1088572
1225.55 1172614 1209972 1300690 1372274 1417702 1431649
1228.44 1501516 1523393 1506219 1481507 1500231 1542303
1231.34 1629018 1684735 1726987 1711942 1718558 1733921
1234.23 1741589 1826210 1916563 1991196 2108731 2176249
1237.12 2283393 2393322 2533217 2690875 2818604 2912497
1240.01 3051252 3148896 3103464 2920584 2835801 2790815
1242.91 2666561 2262848 1732493 1532605 1522176 1526074
1245.80 1479352 1339352 1287882 1301819 1273539 1218020
1248.69 1256971 1260854 1265284 1293444 1305131 1247018
1251.59 1206154 1158652 1125496 1098052 1032751 973768
1254.48 945374 875004 781299 694209 653006 573327
1257.37 499275 460941 410219 366677 332970 266021
1260.26 226118 202820 169578 121414 92004 55970
1263.16 76230 92116 63039-1418-20588-7678
1266.05-14149 14903 33054 16773 32415 50511
1268.94 50630-3685-15519 4316 26406 14488
1271.83 13666 35140 33838 23660 6374-36589
1274.73-43471-30849-31079-28028 472-8569
1277.62-31464-10586 28323 21971 22886 2928
1280.51-12229 4499 35114 48321 35346 7443
1283.41 38095 35757-29072-20197 27955 9792
1286.30 15185 21840 39237 66164 41496 12502
1289.19 14409 26899 47970 64869 60844 40031
1292.08 36639 37406 48501 94886 91933 50718
1294.98 80700 79438 66720 82709 113246 87254
1297.87 78758 108198 106995 100598 88710 82115
1300.76 105860 123981 96630 84151 141241 127630
1303.65 69306 98081 138960 129978 144392 163002
1306.55 162564 147797 126571 143310 170921 166314
1309.44 194456 206502 190643 191159 221897 217809
1312.33 201167 178057 147082 162799 211037 233574
1315.23 236079 245604 269998 276845 272623 267780
1318.12 260260 240668 218420 191347 190484 239626
1321.01 281955 277802 307464 339263 300808 270602
1323.90 333018 340758 299550 309404 335980 352396
1326.80 362366 354624 325581 301732 321028 333540
1329.69 331614 343859 342146 350431 394465 444692
1332.58 442947 380283 369163 375824 396006 411720
1335.47 396985 398405 404994 382165 363914 376248
1338.37 429099 448939 428730 417006 472298 517863
1341.26 529948 527065 523729 526364 527817 549214
1344.15 571940 582471 616154 665881 650867 593736
1347.05 548457 532731 567137 610542 566958 437133
1349.94 437706 506415 468722 355763 338063 403876
1352.83 444055 455135 518266 617731 692033 759173
1355.72 813351 854180 732531 689207 810144 698400
1358.62 658184 701626 608854 533032 567817 611910
1361.51 707240 816488 772026 654106 639552 709367
1364.40 734476 769203 806298 827767 834758 810591
1367.29 754228 766251 824107 867865 914699 883033
1370.19 812198 820753 925761 903918 889778 986134
1373.08 986702 997565 1032351 1045914 1050506 1017138
1375.97 966513 898664 922035 1007660 1028510 972165
1378.87 935960 975351 1120331 1119310 977552 961600
1381.76 981929 989208 965017 941344 1020388 1179401
1384.65 1276171 1224316 1150129 1043557 905142 837750
1387.54 837958 842015 833308 792955 724218 696497
1390.44 707573 666897 638536 621397 563950 558456
1393.33 535659 489415 491133 415331 269640 219258
1396.22 246146 242160 224807 209901 171426 147255
1399.11 160571 118295 105498 146030 108516 50589
1402.01 23965 21444 41397 59455 58000 29018
1404.90 45987 78673 68251 80933 87861 57073
1407.79 45434 50901 61375 42599 10939 42992
1410.69 60192 3496-13812 27246 55722 23175
1413.58 7 34761 37124 10807-9427-7652
1416.47 10598 14349 23601 53428 18878-60860
1419.36-3100 29154-27342-19471 5456 10615
1422.26 18689 22826 22782 7398-2611-898
1425.15 8313 25069 11447-24442-2968 23173
1428.04 16220 10011-26002-26708-2121-4555
1430.93-8199-13270 10135-4793-19764-17439
1433.83 4106 32033 10921-9022-45636-101913
1436.72-90652-33791 1620-13290-10952 4722
1439.61-4917-15419-44467-51285-20178-12949
1442.51 6953 17503-3127-1393-8618-55751
1445.40-65725-27161-18864-43251-52700-46705
1448.29-23963 2349 1185-15573-25856-45436
1451.18-58113-65055-53086-23629-2256 7517
1454.08 19465-7974-35091-48274-164260-162861
1456.97-13801-31640-61501-17370 4845 11250
1459.86 8124 32027 43137 62292 55953 44614
1462.75 68459 90748 56254 841 47683 96339
1465.65 100905 119929 124066 139714 160179 173179
1468.54 167193 126698 116157 140729 147783 102163
1471.43 50616 77599 93353 30620 93070 165662
1474.33 145523 162554 143078 115578 177822 212921
1477.22 199343 211375 266249 230752 310534 352069
1480.11 192153 120624 127939 149556 124098 107650
1483.00 122862 146906 152559 150487 144892 111688
1485.90 95228 68010 36707 72069 93712 77228
1488.79 70204 53642 30400 2827 1668 7513
1491.68 3499 13786 34351 26106 13164-4931
1494.57-8148-40902-159009-144005-61090-58848
1497.47-33144-50790-72214-48486-29532-12299
1500.36-34856-51884-8007 13214 3654-18224
1503.25-29921-33278-52283-138726-186123-114782
1506.15-162583-161618-32538-28463-59167-60679
1509.04-48217-34378-5745 29844 18027-20395
1511.93-17495 1373 8200 44175 45579 10219
1514.82-13172-4223-5662-10675-40428-41803
1517.72 42408 63933 61674 68424 44069-4980
1520.61-104001-48083 26775 1340 47054 73280
1523.50 71867 71473 27212 21436 91699 133850
1526.39 121466 102905 138827 132207 116704 112547
1529.29 77169 72385 95169 97719 113660 115737
1532.18 92150 63514 24494 52495 91351 90351
1535.07 120296 162797 139526 100160 70433 62263
1537.97 32578-81167-60429-41869-73656 7532
1540.86 35530-12540 3298 40504 25322 41053
1543.75 87681 83585 32218 32298 60489 54003
1546.64 60177 79054 85442 98497 86412 100242
1549.54 99731 88395 85169 83669 98854 88824
1552.43 84037 90225 83439 41644 61146 77504
1555.32 65585 56640 47441 4128-1316-47987
1558.21-61571 39697 15369-60136 2159 99083
1561.11 115797 85702 66771 69902 72856 99940
1564.00 108946 114256 110432 69028 82830 146403
1566.89 168079 167164 156505 165351 182398 143955
1569.79 168239 230815 258426 272651 260939 276244
1572.68 294393 318191 339118 331120 328681 297859
1575.57 233983 283773 400197 449789 456570 479200
1578.46 507866 523648 537358 568669 617177 601477
1581.36 577150 602334 634011 637273 639548 657351
1584.25 682428 671875 585836 603191 751267 946326
1587.14 940596 665474 651989 848894 1019208 886796
1590.03 595934 546966 565659 587861 641247 674817
1592.93 680636 685975 665561 649019 637661 630019
1595.82 619313 590363 544713 520811 541540 505480
1598.71 439280 404487 362187 295324 249406 209511
1601.61 175016 151585 131702 105859 88687 83866
1604.50 55076 58210 35060 4295-3698-13600
1607.39-5381-14063-23584-13973 21658 48631
1610.28 39899-16570-38486-25329-12890-4335
1613.18-38632-44755-36247-46980-51661-85313
1616.07-176499-140993-33348-15453-2957-2027
1618.96-11121-20285-30430-5030-1434-32859
1621.85-53564-46710-73387-67107-19716-44369
1624.75-47991-37058-23735-15306-31416-75357
1627.64-52807-16293-20992-7836 65-16877
1630.53-47853-45614-27301-12720 1534-7594
1633.43-10993-35792-109627-187034-158460-41605
1636.32-48039-89507-62635-39822-60627-51152
1639.21-11391-21497-16389 1583-4703-14150
1642.10-13438 3292 2836-29222-26974-22934
1645.00-76784-146556-96603-50678-41033-43133
1647.89-76210-45599-25436-3679-28754-71419
1650.78-45526-82698-208397-242309-229033-161217
1653.67-88734-63118-12710 5371 472-11608
1656.57-26071-30323 2196-33017-43091 1144
1659.46-32327-53355-29637-9955-10401-54220
1662.35-107781-66669-22267-26948-32036-29442
1665.25-22673-25962-27617-8735 3630-21517
1668.14-53890-101216-68400-23999-3683 4988
1671.03-31633-38689-32128-15518-20483-33680
1673.92-31651-98119-141789-78061-27697-19435
1676.82-11160-25531-25857-21084-23516-28527
1679.71-39995-33047-12466-19563-57102-79928
1682.60-98440-94710-107121-239375-233895-73401
1685.49-30299-19550-14726-20560-34026-53052
1688.39-59598-35554-25649-19996-22987-48642
1691.28-45805-35172-49120-55631-51660-60857
1694.17-44387-74925-216637-217826-71610-48069
1697.07-50283-45118-60084-66748-117812-187681
1699.96-194838-143701-67713-37457-18098-42164
1702.85-53563-47040-54979-36821-25847-19188
1705.74-48163-56044-36071-26732-16789-24185
1708.64-27104-34439-31519-5847-42706-50770
1711.53-21017-32480-24546-26526-43103-47688
1714.42-75735-62211-39707-41394-92603-214476
1717.31-170521-90085-100007-76696-30590-13988
1720.21-12915 9389-7814-8467 959-9424
1723.10-8962 3023 8536-16488-22908-19065
1725.99 9068 24417 5062-10051-11028-5631
1728.89-18724-26587 22736 24966 13870 19353
1731.78 2508-3269-82171-76340-79570-103914
1734.67-1499 33101-3285 6994 42718 25836
1737.56 12293 26125 34376-16193-37126 46965
1740.46 68664 66947 95694 118841 130643 122076
1743.35 142121 161597 167610 188079 197162 199270
1746.24 225259 221571 207229 209338 222844 270504
1749.13 274446 268207 286318 257122 259616 300788
1752.03 326472 335232 308521 322036 347174 360703
1754.92 394467 410501 394818 380362 391358 397835
1757.81 413515 423475 418219 432648 453049 439267
1760.71 426749 398175 417318 434281 404696 407370
1763.60 427466 449818 440318 394535 334682 279006
1766.49 263014 288986 249126 251683 303664 318156
1769.38 307490 296854 284799 212542 200174 163817
1772.28 145064 231054 263978 242327 198844 181655
1775.17 179025 160116 125825 101853 108725 125652
1778.06 140350 147771 122926 111177 109176 76381
1780.95 71950 77014 70747 81684 95480 105711
1783.85 111158 91438 93516 102978 94438 94778
1786.74 110774 164010 213040 207138 178633 160862
1789.63 157831 157725 160040 181818 173669 121377
1792.53 164349 212230 234695 262875 251185 254303
1795.42 248142 232401 236464 252057 277568 306794
1798.31 307654 305157 296850 286191 306159 301991
1801.20 312984 321710 319030 340129 338267 305973
1804.10 319742 352083 329064 307401 316984 337919
1806.99 334120 318562 307293 298536 301799 306838
1809.88 284103 275819 276434 235612 231542 289688
1812.77 332657 314410 269623 228793 228560 238143
1815.67 250723 280017 264307 234886 226226 251961
1818.56 309101 296017 244580 242527 237757 236819
1821.45 256710 264464 265936 271786 242806 206608
1824.35 216132 214561 196922 209053 200533 193875
1827.24 211750 192708 180438 183763 173608 172642
1830.13 209105 255209 267890 253975 270005 297128
1833.02 269182 241272 218224 207930 231621 240758
1835.92 230424 245435 269040 274772 267046 247011
1838.81 257472 296554 279002 228803 209441 179142
1841.70 193048 208677 207692 205501 183978 180899
1844.59 162374 146286 177560 225891 214983 173990
1847.49 159022 138870 110256 117832 122781 126940
1850.38 111676 81500 82934 85018 85089 65005
1853.27 26519 6138-2378-2495-29086-50779
1856.17-39863-31858-14318-37229-78837-92583
1859.06-102060-102839-84907-89396-91033-119405
1861.95-123321-91407-114092-133187-128114-116189
1864.84-92858-81560-104545-104889-107120-113385
1867.74-98991-89889-96552-97134-79527-75353
1870.63-78821-98329-98061-99669-86846-48763
1873.52-52252-49826-29781-22654-47602-64259
1876.41-49666-44756-53093-41478-12931-18032
1879.31-35711-37280-31719-31006-8593 763
1882.20-20208-13658-7870 8857 9997-27492
1885.09-19649 3695-13908-18200-27967-40911
1887.99-40971-51874-42627-32569 5130 24570
1890.88-17768-44552-27039-8432-1327-7838
1893.77-25042-40442-36106-12806-4581-17818
1896.66-32489-35200-27282-16658-1628 12643
1899.56 24200 9570-13715-20546-7006-22420
1902.45-37916-4866 2372-5932-5175 123
1905.34-6515-30254-43925-34584-3419 10766
1908.23 5332 1991 3700 1416-4178 9891
1911.13 1390-9655-94-14832-27022-41907
1914.02-37061-17801-22321-33974-38609-24723
1916.91-22572-46136-27959 5044-3723-18731
1919.81-11881 1964 1921-19369-26406-15270
1922.70 2412 19415 8158 3879 10611 4251
1925.59 1728 6709-1384 16425 18091-7633
1928.48-21639-11766-6057-18083-7743 2368
1931.38 642 4102 15203-9475-22822-21143
1934.27-14938 25626 18540-11150 10921 7270
1937.16-22614-26256-5230-2440-8412 7464
1940.05-11838-30591-20314-3378 17474 11091
1942.95-25774-26941 159-20376-3536 14591
1945.84-11545-5803-18183-24164-11109 6033
1948.73 9835 438 748 17587 26934 29170
1951.63 15422 684 22938 10242-13186-9154
1954.52-9771 12484 22040 4806-743 10696
1957.41 11919 6025 6175-7018 8462 27794
1960.30 21960 9650 11241 11729-5383-11671
1963.20 15851 27375 21647 7034 15716 38840
1966.09 39502 23326 451-210 17271 30312
1968.98-3492-19158-9494 21014 38783 37356
1971.87 31619 27988 41553 52929 65410 32192
1974.77 4106 4241 7656 9786-2899-10639
1977.66-5427 14332 26204 6121-22980-3631
1980.55 3399-3487 3977-10194 4521 6556
1983.45 14482 10599 2893 29092 22211 10358
1986.34 13133 8392 12948 12942 12159 27302
1989.23 35517 26142 7760 3071-1675-11476
1992.12 7217 28873 9721 25263 44783 305
1995.02-12825-7916 8712 18408 18979 42975
1997.91 52733 26839 28318 44407 43434 66024
2000.80 65138 58607 52298 38281 59924 68405
2003.69 40613 31379 43492 36078 43334 67033
2006.59 75914 87836 82192 76844 75585 63251
2009.48 80195 85329 64678 79075 85924 86295
2012.37 91355 79731 69121 56520 64786 84280
2015.27 93592 76664 59117 77347 66392 53369
2018.16 76619 79588 62851 72207 76552 66435
2021.05 71161 69276 41839-1623 1424 41450
2023.94 44022 21659 23664 26582 41003 61084
2026.84 82459 101591 95290 86969 68296 59415
2029.73 43579 21726 18055 17222 26072 31158
2032.62 11775 13976 36457 44393 30398 18014
2035.51 23530 18169 45114 56888 30608 50337
2038.41 57800 18611 27454 52295 36798 31961
2041.30 36026 18814 24742 20283-3073 32703
2044.19 42951 33912 45338 63344 45509 18726
2047.09 45844 35315 19929 32070 24937 35184
2049.98 28386 16977 58008 77204 68192 57463
2052.87 49993 25603 16708 5100 37 12908
2055.76 21756 27581 36003 37264-10109 8992
2058.66 33913 18949 44854 52014 40908 15929
2061.55-809 10750 1135 4105 21131 35034
2064.44 47904 25551 13832 18862 20939 12492
2067.33 7479 8995 7446 9572-5996-19323
2070.23-3301-19849-17 45033 46612 26119
2073.12-9087-11122 1312-4475 1940 23200
2076.01 21059 9672-13850-384 27118 6441
2078.91-42347-53788-28164-38234-41256-17877
2081.80 21058 12224-6172 36211 38919 30531
2084.69 28803 19983 5431-13969 8961 19007
2087.58-15481-21265-12531-24060-25154-24927
2090.48-6412 15405 49476 52571 13757-13005
2093.37-19363-4772 11017 26890 16335 11247
2096.26 23000 32490 10929-19816-29434-14741
2099.15 19941 18594-11415-27725-37491-27975
2102.05-25-14097-18955-10522-42647-28698
2104.94-11139-16191-7376-2991-16732-8881
2107.83 10039 17340 21907-7739-4235 3898
2110.73-10286-19769-16238-21585-14072 7263
2113.62 7343-972-38725-50783-3200-12068
2116.51-27626 2571-2187-16057-27435-46573
2119.40-29943 1878-8604-9846 6598-15287
2122.30-38001-31719-26280-29985-16560 6894
2125.19 19593 29364 16441-20487-25769-5162
2128.08-8999-10493-12734-13794-2717 25
2130.97-8604-24126-15228 4827 35013 9120
2133.87-7796 388-14401 10235 14233-9517
2136.76 8894 7411-15920-4607 25757 34938
2139.65-2359 3073 26830-2448-8183 11647
2142.55 6313 13360 6636-8136-12494-22908
2145.44-8829 27830 31198-2725 25963 38732
2148.33-13939-34743-33010-32768-23370-926
2151.22 19209-13858-24919-19601-33782-15890
2154.12-27792-41901-61261-45380-7026-15470
2157.01-28701-37524-23817-40258-57976-9592
2159.90-3880-11569 11848 2032-4882 7654
2162.79 7578-6953-7610 6832 247-3312
2165.69 35710 76743 73968 34196 21931 66899
2168.58 83931 69796 101239 112191 98322 121674
2171.47 138985 138056 152019 171144 181704 211976
2174.37 256415 277316 271645 277865 303098 339525
2177.26 369849 398846 445847 455037 427556 446878
2180.15 472105 508264 542770 571136 617903 627133
2183.04 638312 665372 678732 711118 766673 789743
2185.94 821328 875271 900136 889084 870813 885660
2188.83 954028 985759 1004981 1046689 1099505 1096773
2191.72 1039712 1047941 1130276 1238492 1283126 1231001
2194.61 1182809 1126094 1016424 954651 897718 847381
2197.51 843909 865201 896464 900506 921599 928717
2200.40 927777 955572 961191 934966 877241 817512
2203.29 773727 763496 743749 696902 631485 572380
2206.19 531488 485202 468883 466131 418905 366144
2209.08 345495 320833 311830 292720 274326 282688
2211.97 285494 313863 325949 288794 272652 263180
2214.86 281686 298717 320128 353255 362100 373283
2217.76 391326 383139 373575 411717 429851 436183
2220.65 473191 519642 539161 552017 550035 561718
2223.54 604185 625880 670866 727341 766066 814217
2226.43 875869 908940 916322 989434 1050156 1062812
2229.33 1091542 1153730 1231720 1305213 1332936 1364033
2232.22 1444492 1472327 1505098 1579460 1613166 1667328
2235.11 1723740 1739198 1796750 1872360 1913211 1954673
2238.01 2002469 2020765 2031052 2087896 2157660 2174617
2240.90 2161601 2146104 2133300 2211821 2296312 2342275
2243.79 2429049 2474422 2606537 2764472 2624407 2340745
2246.68 2291907 2416133 2568380 3041410 4024534 4886413
2249.58 4547574 2830981 1674398 1628065 1606746 1478371
2252.47 1355435 1308448 1258794 1254058 1307477 1340824
2255.36 1343881 1368677 1363153 1303873 1259822 1219620
2258.25 1176202 1138276 1066354 1022925 974212 897448
2261.15 865455 824875 733291 647092 579354 513504
2264.04 471066 448776 432583 412584 366009 314383
2266.93 310945 310139 263362 242128 256373 230813
2269.83 228181 259639 260075 256051 239958 222388
2272.72 221670 232507 232231 220903 220450 253734
2275.61 246425 227022 244854 253053 239229 266700
2278.50 352875 299588 216872 215084 221193 216334
2281.40 222329 184419 240886 289379 127744 61378
2284.29 88613 78092 65322 80254 99617 85608
2287.18 30867 19931 57588 62921 96667 132026
2290.07 124894 112333 135797 170913 172601 162848
2292.97 191814 210100 199225 210234 225228 243444
2295.86 265797 272455 308728 344298 344858 356676
2298.75 390939 425249 451648 508236 536080 549541
2301.65 543434 552251 611148 638159 616452 610972
2304.54 605466 556502 572002 631138 691116 796805
2307.43 912223 1050807 1154634 1109723 896492 649334
2310.32 578209 687383 917734 1098807 1185413 1193685
2313.22 1103358 1008544 935952 873880 756557 697649
2316.11 752535 762849 708627 702749 707263 666753
2319.00 650291 638392 587537 496373 397430 452625
2321.89 594094 656804 611358 507561 455804 454223
2324.79 420123 352835 339688 328093 267459 212316
2327.68 212427 228678 178415 152650 207176 208369
2330.57 141551 92028 96889 105594 63049 36610
2333.47 59053 56699 8414 8304 28127-17185
2336.36-34513 1262-5227-57308-44279-3257
2339.25-17299-73932-48564-2877-66253-83308
2342.14-33904-66509-103651-35375-12608-71855
2345.04-75723-59639-57058-30440-30928-79905
2347.93-87941-43723-59480-89613-90883-68422
2350.82-23445-12301-14143-5228-10397-25634
2353.71 8563-3955-35970 27507 41573 6927
2356.61 57475 67791 17336 48261 35536-4823
2359.50 66901 56861 20137 64724 45624 76628
2362.39 121797 75222 84216 86900 40805 55047
2365.29 34481 45719 85447 73017 82700 49193
2368.18 64879 65794 20025 56737 41607 75935
2371.07 114750 57126 44236 29237 37142 42021
2373.96 5837-5539 20079 14860-594 32038
2376.86 26507-4039-9642 2970-6183 16117
2379.75 46940 38996 13496 369 10716 30508
2382.64 46372 34167 21134 15776 12199-312
2385.53-14731 9145 42681 42199 54507 36133
2388.43-6744 8618 31000 25525 11826-9957
2391.32 6956 42702 31144 37029 47658 26821
2394.21 13277 29799 41771 69239 63799 13190
2397.11 38503 35353 44525 57175 27478 55231
2400.00 35989 14114 40221 51613 43820 12538
2402.89 12876 40818 23075 15796 25563 20036
2405.78 30016 38794 42514 54861 26981-19092
2408.68-18784-5761 47545 79119 62003 34173
2411.57 21706 22806 35-6431 2557 10313
2414.46 28100 54912 65691 47327 29448 17344
2417.35 40292 26511-18985-7116 40020 70616
2420.25 46803 22104 24254 25450 28798 21558
2423.14 1979-10636-6896 11745-5274-25788
2426.03 8584 40680 31201 28489 29078 10903
2428.93 32289 64716 44105 25344 24046 38058
2431.82 30157 5272 27540 29244-3504-5703
2434.71 14773 3421 8187-1276 690 15612
2437.60 2513-14176-9194 34027 29447 25284
2440.50 37190 36155 24427 8952 19857 34494
2443.39 42469 45057 49622 45838 23615-2334
2446.28-4389 42906 21412-19447-7314 19568
2449.17 56514 33272 33674 39006 7191 12932
2452.07 28811 21195 17007 27548 15860 17903
2454.96 31027 17850 20210 2916-6681 5780
2457.85 25077 42449 34478 30358 41046 38565
2460.75 35181 59005 44921 24856 49791 35730
2463.64-15089 593 27547-2114 8758 46720
2466.53 25712 9575 19653-1405-11880 783
2469.42 20760 62262 56852 27021 16753 11321
2472.32 46484 45796 49255 37689 8582 50620
2475.21 29150-6061-3557-15425 14624 29395
2478.10-949-14456-29076-40118-18919 4929
2480.99 6139 1890 3078 1087-2882 5097
2483.89 9370 11670 11552 4757 788-11381
2486.78-20479-10074-6514 23147 33169 21635
2489.67 29999 23773 6082-24040-14766 8906
2492.57 9075-395-13848-20588-15993 10513
2495.46 30516 12146 11525 8677 3368-12312
2498.35-19304-23671-18814 13432 6738-30286
2501.24-31077 14278 23762 52847 63859 44365
2504.14 44969 44853 33259 20358 31501 22222
2507.03 11721 47026 67244 54152 39777 53546
2509.92 46219 29869 17451-33052-13070-2252
2512.81-23829-29457-7380 23808 7467-21384
2515.71-24597 4567 32443 48040 59316 40286
2518.60 10251 35869 49376 38897 53068 34354
2521.49-3959 19717 22704 6431 11885-18390
2524.39-38651-12567 28541 43382 28223-9364
2527.28-19253 11751 4942-9511 17020 27181
2530.17 27373 24827 22524 50501 41022 19474
2533.06 25157 19295 29464 28629-8817-16408
2535.96 26449 53620 34490-422 6540 24593
2538.85 22209 50740 39307 2944-14665 18514
2541.74 55525 45712 72282 77001 28844-18460
2544.63 18509 42252 6107-393-4150-7064
2547.53 13883 21232-1475 2887 3411-7226
2550.42-9698-1311 30727 38094 31754 26387
2553.31 23284 13871-5114-2899 26881 30215
2556.21 17634 22645 23278 16592 29397 22389
2559.10-8417-5815 5784 20935-1912-8318
2561.99 18854 43785 37483 27432 35205 12807
2564.88 788 18133 38708 24407 10724 22840
2567.78 29470 20131 31135 42587 32576 32427
2570.67 35420 29634 13802 11961-2995 14900
2573.56 20112-3547 24317 31928 27200 20380
2576.45 17210 52687 36509 5668 11668 24513
2579.35 19933-12938-4215 21059 38684 23031
2582.24 11419 10049-32306-7276 10820 1135
2585.13 20305 3490-5591 20645 37552 33688
2588.03 50701 29969 20963 25777-12240-17164
2590.92 1565-15178-11757 6286 7804 3980
2593.81 6204 19138 33664 27345 10259-2609
2596.70-16032-8637 17406 27145 27696 24841
2599.60 34415 36789 32996 64863 49776 6340
2602.49-11457-9050-8016-23366 10563 28565
2605.38 12771 15210 12233 3070-4609 24558
2608.27 36175 28675 35229 19104 10194 52526
2611.17 72543 41853 4147-68 7158 7124
2614.06 10111 14552 7802-6658 3458 21521
2616.95 16031-22418 4729 27608-11401 1842
2619.85 43539 41583 42224 50625 7003-19921
2622.74-31860-48304-36816 4942 10911-2651
2625.63-3133-3327-12285-28981-27057-38759
2628.52-24483 6793-9454-17279-7822-2202
2631.42 32326 28962 33953 53796 36246 42067
2634.31 40308 8324 9886 3838-27999-17507
2637.20-6488-92 10684 29646 29918 16818
2640.09 20550 38461 52812 1805-14267-28828
2642.99-7865 37887 12420 12951 6582-15486
2645.88-50611-15932 33594 26037 32442 5855
2648.77 14532 38909 27714 28587-7599-31726
2651.67-1451-37288-42145 8742 11517 3615
2654.56 10196 2508-9253-18842-41108-4608
2657.45 33944 16990-12066 11002 16402 18593
2660.34 32278 19436 14456-15457-38523-36961
2663.24 1287 9875-4355-10541-32783-13874
2666.13 5434-5947 231-233-7560-5989
2669.02-12785-14283-932 8713 1820-7432
2671.91-20415-943 12941-3012-1603 19190
2674.81 13989 10632 29145 12270 11692 7491
2677.70-33666-54475-49422-43609-24682-3332
2680.59 3092 28442 60030 41558 11989 26310
2683.49 40230 31931 14141 1769-11755-45718
2686.38-22254 23188 4429-279 18740 21554
2689.27 11925 660 4470-6251-3919 13106
2692.16 27970 29726 18038 8366-25820-38890
2695.06-23395 9103 4659-35195-44896-38382
2697.95-44317-68496-86068-87875-89145-77174
2700.84-32672-7559 25074 22405 15406 50450
2703.73 12185 7718 66329 69037 52312 29583
2706.63 28316 49343 20436 44404 81701 52343
2709.52 24849 17393 35932 12745 13085 28692
2712.41 22721 13493-15114-9408-28678-54804
2715.31-37285 9102-13294-65893-43337 4387
2718.20 30373-1191-12598 12349 7634 4252
2721.09 16050 11075 20657-8771-33909 13025
2723.98 24152 12364 3339 17928 33699 27293
2726.88 10674-4538 8660 2149-22647-45415
2729.77-19908-7167-23996-11586-15822-5482
2732.66-26865-43241-49526-35440 7439-12482
2735.55-34973-6226 17333 44825 88559 40479
2738.45-19083-2793 15634 14761-12468-3992
2741.34-7258-43405-25603-7540-106-20655
2744.23-26233 5961 14091-2256-42276-82772
2747.12-53979-10010-22040-7333 26255 18427
2750.02 8691-9333-28884 887 34399 14000
2752.91 14964-2152-18373-10949-28716-20885
2755.80-7058-2169 25859 17623-39193-56983
2758.70-33830-4787-32171-46758-3553 16255
2761.59 6497 14598 70006 57646 23873-24598
2764.48-40057-44622-64593-43730-48264-46422
2767.37-28077-48057-52151-22262-20570-22798
2770.27-27761-25433-29470-20594-38792-64529
2773.16-36689-18567-3972 31983 40384 42495
2776.05 39031 14152-44680-63216-36616-44085
2778.94-42809-29379 5775-11836-49438-23008
2781.84-10915-8444 9787-20610-49241-29571
2784.73-76174-92726-35068-57110-81434-59457
2787.62-25666 30978 14048-74189-103358-43650
2790.52-7263-30970-36770-35232-44531-37214
2793.41-48901-62097-70482-32490 7112-24634
2796.30-41469-76383-60619-17027-11697 797
2799.19-17188-34317-55680-18242-3638-71715
2802.09-59742-18885-2839-44586-69885-44727
2804.98-21321 9636-670-34610-34150 4061
2807.87-1680-20614-82753-75325 6092 499
2810.76 1865-8251-41618-42118-27298-32671
2813.66-38535-48513-42653-35082-36369-46269
2816.55-63477-19229-2812-12086 12326 22055
2819.44 2790-37794-78596-97953-39686-13938
2822.34-41299-23897-22651-10215-30544-36513
2825.23-18691-28272-52900-60327-35311-39252
2828.12-626 46386 14714-24587-79925-116312
2831.01-72925-61592-50769-32429-37482-10535
2833.91-25314-29928-11559-16903-11584-24636
2836.80-19430-35431-40557 3057-10462-60547
2839.69-47735-8899-8310-28888-47727-42420
2842.58-32897-32135-11517 2227-11060-27666
2845.48-31971-18504-40060-27362-11291-22981
2848.37-27816-45213-53745-54828-63668-34213
2851.26 6804-29363-72815-86482-67246-21160
2854.16 5711-21279-34096-15039-10516-6360
2857.05-8156 2419-4094-1443 13856-32817
2859.94-61138-66742-97532-78544-39003-47691
2862.83-51850-16495-8447-29453-33742-16122
2865.73 49199 59029-11023-47472-27280-21113
2868.62-51133-45172-6793 9530-12826-35358
2871.51-2514-41260-72757-39614-51984-63288
2874.40-38892-20183-62194-27790 65865 32473
2877.30-21897-28514-28328-28801-11651-6947
2880.19-6326 1236-13372-20378 814 1054
2883.08-11127-25746-53906-73321-81630-51034
2885.98-29990-57984-51541 11258-19749-70605
2888.87-65356-8121 47969 5775-59878-67223
2891.76-55303-46489-5678 17744 5547-31681
2894.65-46795-33457-49480-30749 5645-28540
2897.55-54260-28353 17765 30099-25543-43422
2900.44-15190-1852 1877 8835-20225-45561
2903.33-29767-15469-31056-45656-9788 6767
2906.22 7290-12698-6827 25708 4512-33317
2909.12-51108-53857-21368-17844-38228-19941
2912.01-244 25099 23037-25109-71515-22577
2914.90 11343-26575-57823-43358-21566-24012
2917.80-8371 7657 2342-23319-19771-50863
2920.69-27322 24899 32068 29312-27197-49448
2923.58-42268-53671-41886-26321-68620-106968
2926.47-65738 3137 6982-52305-89160-60387
2929.37-2528-6338-25410-16875-12397-42110
2932.26-78094-48249-51767-37442-40277-32981
2935.15 6468-9345 11287 15368-6005-11699
2938.04-3628 9274 446 13277 19691-13217
2940.94-19930-23775-34547-8893-9509-58054
2943.83-43531 12885 13790-36022-38765-16582
2946.72-21817-20631-31341-58601-4612 66496
2949.62 54374 36925 7237 20932-6466-54962
2952.51-24798-19224-33239-10939 6064-2639
2955.40 11026 9394-2125-3423-20433-32257
2958.29-52627-64948-44403-53143-48014-49134
2961.19-60730-83823-57322 29660-10501-86790
2964.08-99815-82601-56563-54083-27680-2779
2966.97-12278-33377-42308-63566-112717-56361
2969.86-2814 5047 45212 20396-22130-31393
2972.76-57751-75039-46541-16226-8623-60671
2975.65-57318-6749-8249 341 6281-14059
2978.54-53342-52408-16531-14311-27609-33538
2981.44-65390-86010-85936-45663 11167 22355
2984.33 10851 3147-17345-10017 47075 30326
2987.22 7653-10-55403-54469-41573-63519
2990.11-26407 19891-77-32070-4468 15580
2993.01 6268 20431 15515-17750-11073-17100
2995.90-28622-8312 5680 25334 18997 436
2998.79 9863 18326 11207 21281 13626-12800
3001.68-49360-60248-22871 11984-15548-62491
3004.58-27556-24561-35740-43888-63377-45295
3007.47-22712-9264 18484 37512-2213-26810
3010.36-1229 51326 11918-30245-12741-46655
3013.26-22140 23996 21622 3111-46189-30930
3016.15-18441-34093-59699-43444 15133 5645
3019.04-3200 12717 7492 536 5646 25181
3021.93 45478 44390 33805-2612-8133-7637
3024.83-34350-23246 12051 27262 8270 22242
3027.72 22248-23626-10245 2928 22664 13244
3030.61 9609 44950 24261-12224-1100 11802
3033.50-33725-65448-67252-49619-36239-8445
3036.40 20533-52 19340 30335-62018-119094
3039.29-14985 28680-42297 11859 40316-1244
3042.18 15029-4683-21961 13937 5467-35259
3045.08-35887-39402-21073 37415 25108-23242
3047.97 20563 38005 3659 5557-16333-50590
3050.86-39135-1376-11708-20019 2593 22530
3053.75 66902 67510 16981-26041-34653-33331
3056.65-11136 10397-19276-11790-3745-48950
3059.54-51048-11521 8182-46799-102923-47270
3062.43 14310 10997-16884-62153-69905-68731
3065.32-57086-56069-70631-5441 16359-8481
3068.22-12440 5040 1322-59528-78489-13804
3071.11 18448-33642-38737-65889-89310-60132
3074.00-31651 23804 19241-7257 10971-5164
3076.90-32719-32172-7074-8062-23178 8041
3079.79 61699 51203 10239 21076-7820-24880
3082.68 1911 12389 5650 9481 51482 40729
3085.57-26187-25998 7051 17024-25428-58942
3088.47-34808-52065-57250 2969 51793 33925
3091.36-1220-505 13828-5327 22275 30337
3094.25-22477-87789-92576-47669-14097 2718
3097.14-38696-11605-7789-44480-24938-4917
3100.04 19816 23152 9012 14726-2003 3139
3102.93 22540-3611-18141 26205 17207 918
3105.82-11657-10455 27737 17935 33674 8613
3108.72-23810-41335-52472-36383 40-6764
3111.61-13259 1314-6806 38099 32762-23021
3114.50-19274-8508-22060-20306 3517 9282
3117.39 2475-7713-35559-45424-25335 12215
3120.29 31172 16706 426 8484 15557 23838
3123.18 14079 15063 15129-4986 2975-16556
3126.07 3598 62064 27115-8286-19599-33288
3128.96-6093-794 8018 83026 71922-18928
3131.86-18936-23674-71598 7451 79990 52865
3134.75 17666 9467 29970-15418-70841-50732
3137.64-9081 27904-197 6278 51968 19677
3140.54 59879 57586-25557 2218 44674 31878
3143.43 3631-13322-12453-1684-9989-72886
3146.32-75421-31356 4490 19008 6719-8486
3149.21-10199 13316 16627 30711 38933-16411
3152.11-14431 7653 20657 51697-18202-64934
3155.00-29756 34041 56536 8983-44560-14552
3157.89 9142-33859-17698-15525-59304-49462
3160.78-20003-44499-41697 30370 47179-17614
3163.68-46840-20212 4883-11872-36630-39649
3166.57-17766 3501 47815 34929-3722 12053
3169.46 28451 13407-32679-19978-1969-6932
3172.36 20605 10139-6192-46626-77797-2795
3175.25 35419-6129-58272-28246 9567 35814
3178.14 39166 8353 22340 12332 1196 9920
3181.03-33473-85518-57015-36115-26765-25488
3183.93-33316-48644-27762-19971 6786 29130
3186.82-16868 21170 33149-1843-7542-25248
3189.71-23552-16717-24540-11137-24203-68726
3192.60-81468-21968 29290 13747-24829-38910
3195.50-59406-74378-71815-51777-7587 20982
3198.39-7447-38698-30632-66175-51245 1472
3201.28 32687 74898 40952-25257-34381-55132
3204.18-27515 7676-45292-33311-19337-30840
3207.07 604 4092-20568-50463-32781 12896
3209.96 5634 7109 8058-17575-45256-20979
3212.85-2924-23527-25610-25673-52600-73575
3215.75-28248 5605-22497-45752-22702-47929
3218.64-46104-5102-4206-42200-24253-36791
3221.53-88361-61460-35248-46880-35850 4898
3224.42-5555 8662 13095-7706-30784-41908
3227.32-74709-100780-115570-91924-2323 31484
3230.21-20045-62710-42480-46245-6486-2376
3233.10-36520 7737 7140 33628 48500-12360
3236.00 5333-35290-85151-47671-10618 6066
3238.89-72612-65387 48028 36945-41420-36151
3241.78-70521-85463-31943-29372-34776-74666
3244.67-120028-115778-80030-30106 25939 12363
3247.57-5106-4678-9809-24604-35444-4349
3250.46-66872-85905 3346-26465-54238-38969
3253.35-21706-1591-22632-39050-30229-17863
3256.24-49201-46505 16254 24342-23285-49199
3259.14-51225-58449-47656-10314 25757 28608
3262.03-20931-67408-33866-48576-57876-8423
3264.92-14392-52351-36441-24574 2783-9313
3267.82-37502 8840 9672 32990 33226-36398
3270.71-24830-934-1372 27913 3324-34840
3273.60-7434 9718 10593 23497 26334 24316
3276.49-57443-86847-70650-63921 26304 79219
3279.39 12692-10129-18519-65636-60857 33238
3282.28 72545 32145 28866 31496 7018-24299
3285.17-13473-15403-14730-6824-27380-38642
3288.06-31720-7793 46849 29567-4569-9969
3290.96-18154 48375 32232-24231-12856-13738
3293.85-45974-13083 5743 8552 26277 2226
3296.74-14134-27159 19678-3180-25561 48720
3299.64 22673-40102-51855-56934-67338-30833
3302.53-29783-51015-16467-4757 3081-7873
3305.42-4884-24253 27281 58688-13410-16964
3308.31-25810-66743-26641-9200-36538 22750
3311.21 38620 19437 6250 18932-8910-44845
3314.10 24851 58216 47565 61631 50356-140
3316.99 32681 87882 41127 16661 28992 13508
3319.88-23648 17475 69032 40021 45274 54051
3322.78 39569 34502 30603 20598 57556 64684
3325.67 43164 40263 54298 54511 87531 136965
3328.56 107902 44609 13299 36111-10550-69454
3331.46-94262-54884-6563-45033-37080-3001
3334.35-27114-7267 45980 48599 65042 13611
3337.24-20672-42587-86619-46595-7519-22113
3340.13-47442-35624-70258-69198-11770-22594
3343.03-48104-36118-37733-25738-2565-23705
3345.92-17586-50231-43852 32203 30527 29292
3348.81 541-47186-76347-46942-43218-43310
3351.70-4769-18733-38968-39311 18871 3360
3354.60-37243-32059-18959-22571-70657-12229
3357.49 29174-29712-40823-31265-54088-55788
3360.38 29488 48533-3027 6892-5259-6593
3363.28 3477 36083 51302 11815-29866-82251
3366.17-70304-38084-33539-18689-40356 5643
3369.06 35812-66217-83534 12768 21160-37585
3371.95 816-26704-11066 90088 3568-92721
3374.85-54878-33436-21321-76513-110791-17466
3377.74-21982-6772 86693 61014 13693 11739
3380.63 49701 59192 7035-10203 4042 9533
3383.52 58108 44724-22862 3235 8337 23590
3386.42 7637-67643-37460-21595-21041 62679
3389.31 77014 68488 107587 147075 141345 72231
3392.20 27888 15116-19701-44850-30718-28158
3395.10-18279 7876 67964 80253 5423-29894
3397.99-35335-19147 30846 7172-12967 10071
3400.88-30532-18209 2040 7436 15658-46733
3403.77-45775-5869-25647-36856-52722-47470
3406.67-18037 6147 16983-49158-104115-82137
3409.56-92034-111280-104068-79904-60234-39192
3412.45 11716-31605-74374-4965 19833-61856
3415.34-32765 11911-24261-61784-105654-47496
3418.24 54226 62664-47481-124136-73635-24126
3421.13-53794-62965-29664-6864-16936-43154
3424.02-39942-18145-15576-8042-4349 17452
3426.92 13161-53882-38943-4389-26880-45915
3429.81-87354-37813 42916 20108-30928-35893
3432.70 20327 15657 2965 24854 21400 9496
3435.59-42312-53307-48562-31473-9651 738
3438.49 52540 24914 11767 50308 44489 34193
3441.38 54058 42675 12399-1467-53051-79538
3444.27-13983-30384-54073 36837 56720-32585
3447.16-42590 14585 5068 21060 73274 67769
3450.06 32962 134-13132 9159-64932-106269
3452.95-3116 92493 76206 33227 26335 5371
3455.84-2048 38881 50505-18068 11553 29137
3458.74-83078-57815 7910-28778-79142-55197
3461.63 23816 55471 74517 95572 36583 26278
3464.52 45282-13184-4284-53359-57389-1660
3467.41 6749 19063 9311-18097-40479-21337
3470.31-51662-40186 17421 61007 109733 56623
3473.20-7126-38472-57626-26962-39326-22351
3476.09 44102-24647-119622-98090-46829-20223
3478.98-16185-9737-15978-27655-40155-62427
3481.88-100785-73487-9832 13933 2720-64244
3484.77-43063-2347-20812-44243-70910-59864
3487.66-35333-1465 13313-54403-82390-9026
3490.56-7059-35100-22514-30342-24300 10105
3493.45 35452 33079-29963-68108-39614 1237
3496.34 21713 1076-47244-66887-34737-9305
3499.23 24767 73063 5693-63919-52829-103219
3502.13-32888 46507 22750 15754-20846-10058
3505.02 25982 11572-31430-75376-59891-41953
3507.91-83334-90798-42237-28639 727 29677
3510.80 5454-10155-29378-49540-6458 11469
3513.70 22163 98732 53265-34807-70351-114514
3516.59-87935-75800-71080-45381-11400 9923
3519.48-24220 17054 49421 18390-11136-36999
3522.38-20697-33017-47561 1005-12725-3832
3525.27-2418-35759 87 3035 23150 35469
3528.16-24796-37242-38834-68477-71233-70543
3531.05-49508-16197 25101 32304 17986 28992
3533.95 44962 33819-26184-54803-64868-65011
3536.84 17301 35289 36603 64742 5673 14998
3539.73 12845-48996-67655-57374-22542 21112
3542.62 74867 89034 71448 61685 8603-40580
3545.52-69934-69034-9130-10506-77700-42774
3548.41 6578-1734-18188-5283 16581 5882
3551.30-20905-36720-21086-49526-30631-40697
3554.20-22107-25437-67640-5588 42127 34715
3557.09 21520 32862 65037 72845 8870-11475
3559.98 29159 44918 26716-3329 37278 22440
3562.87 20369 64365 49800 25415-2345-13575
3565.77-24681-8362-12774-44510 7345 30736
3568.66-42613-42224 20352 2787-40850 4629
3571.55 30385 21221-2885-10716 68351 77611
3574.44 38810 14956 11784 44151 35854 48969
3577.34 55419 7257-7621 14292 12436 63943
3580.23 36216 21563 65763-9765-1689 70843
3583.12 97298 62307 53729 5212 11826 87446
3586.02 28704-3840-6459 4680 10164 8681
3588.91 1882 5958-851 16345 31256 29699
3591.80 51845 28997 24289 57034 61810 58354
3594.69 77338 19707 4885 40163 33136 5253
3597.59 430 45378 51562 21730 19682 13679
3600.48 1441 28692 20784 32701 76715 68625
3603.37 47498 50146 47650 30645 15775 28079
3606.26 69101 80435 50056 72246 99463 16586
3609.16 53 87317 65386 19555 74926 81063
3612.05 9607 4356 56907 63121 61290 107495
3614.94 95998 79582 59601 35206 12279-892
3617.84 36160 46909 41141 61986 36162-37734
3620.73 34687 104791 41545-11736 32955 76520
3623.62 50129 12684 36920 40282 3537 48993
3626.51 80726 53077-16269-69131-33046-26606
3629.41 2345 61199 60527 51982 56737 40218
3632.30 21732 40702 51599 37470 56856 50683
3635.19 30741 45981 50259 46702 38387 32570
3638.08 25485 51656 79649 60128 64284 83164
3640.98 43084 16019 27646 32205 48227 78691
3643.87 29332-16267 6724-23848-21109-23630
3646.76-31541 6212 53060 24257-32642 37250
3649.66 41928 9502 37584 55940 71947 60810
3652.55 28340 11020 30956 74476 30149-49657
3655.44-68367-54559 26862 27970-5643 27562
3658.33 44852 63502 80893 81164 73067 64116
3661.23 49575 41553 21873 1370 3520 40863
3664.12 64589 72546 40182 12402 37591-4015
3667.01 23756 85464 18633-11592 14879 34755
3669.90-27661-79020 8064 58025 45824-5262
3672.80-50635-68641-63993-54839-46132-75143
3675.69-50649 48325 23597-6092-1543 15256
3678.58 59689 79424 59410 47277 81720 50275
3681.48 2335 12087-9053 8772 60798 77055
3684.37 20032 42736 50082 25383 80467 92960
3687.26 49307-99135-121418-17463 27121 13191
3690.15-12110-21776 43505 92895 36822 14058
3693.05 38772 14324-16126 36950 78516 44843
3695.94 10658 41043 108979 80415 64164 68204
3698.83 29834 48346 25798 2659-13316-74061
3701.72-62817 20632 62508 15190 18513 64396
3704.62 52746 33709 38230 45730 70839 45613
3707.51 17759 90555 91077 32944-11812-4848
3710.40-15612 8673 295-71866-26688 9002
3713.30 18577-11271-29074-27654 22451 82301
3716.19 48127 76852 108794 55424 3586 35349
3719.08 73443 62693 34280 10872 4955-15750
3721.97 41290 60618 25705 47640 77058 73989
3724.87 49164 46687 12127 58874 108786 52571
3727.76 41839 37638 7378 14215 47718 42993
3730.65 28144 19048 1098 40271 37609 57315
3733.54 63821-5639-26254-8430 5082-39702
3736.44-44057 10242 44033 28377 17073 21354
3739.33-3073 5767 62503 36619-4330 48303
3742.22 35930-9421-19643-98877-141351-73734
3745.12 20468 84672 76082 17362 4200 33829
3748.01 49417-42522-137975-41103 17266 140
3750.90 9739-89715-132277-8065 45912 13043
3753.79 24031 65454 57165 22162 30956-233
3756.69-8002 37599 32701 30496 52891 59089
3759.58 18917 59114 72407 13146 33227 24661
3762.47 55665 98605 56279-2393 7671 11014
3765.36-35268-11719 30395 16043 37812 105335
3768.26 135687 110561 38328 31373 72202 58482
3771.15 61190 105846 79866 95018 141094 70696
3774.04 42096 20823-7086-20854 12467 73342
3776.94 79584 54799 51094 61054 7583 24955
3779.83 45052 30940 48168 81367 95402 28474
3782.72-31701 10677 28949-34568-111 17174
3785.61 22098 63799 50453 22686 14000 55120
3788.51 50005 38158 39938 47188 62218 35714
3791.40 41694 102818 115393 82198 70982 48271
3794.29 28231 67949 112700 96832 84564 89322
3797.18 67459 69202 63858 8670-14165-1538
3800.08 40635-33976-99982 33059 120544 107511
3802.97 34017 1974 20744 62018 81741 74728
3805.86 35760-67193-64326-822 29030 4201
3808.76-14637 9869 14576 56949 79281 55494
3811.65 67284-3396-5654 45988 27029 29229
3814.54 13330-42990-131777-114250 16223 61856
3817.43 25930 56566 58729-25504-18137-10273
3820.33-12227 17421 40534 80805 90226 75225
3823.22 33334 10952 5725 17308 47629 32721
3826.11 23913 90149 69416 39611 50282 35339
3829.00 20293 21103 43176 15491-44471-28188
3831.90 47766 44311 8046-1242-13628-55880
3834.79-59755-3363 23163 61958 7845-142224
3837.68-112144-6622 40619 39423 48060 23665
3840.58 9388 58578 69658 53687 11078-25435
3843.47 28780 106771 81118 27673-4739 33460
3846.36 25638-9507-13296-30687-12506 28605
3849.25 41229 15186 18587 45341-39694-89181
3852.15-16633-16923-69709-199407-194858-41982
3855.04 26550 32287 58820 93057 83299 73897
3857.93 65503 80336 92600 55314 42985 20004
3860.82-17914-22681 39824 86316 33865 10070
3863.72 28167 19410 16203 43205 44845 14456
3866.61 37009 19139-29473-44338-97094-81543
3869.50-58698-13034 5242 232 42315 47454
3872.40 40245 20972-15714-7375 15779 24551
3875.29 55988 42751 32791 20483 23355 47153
3878.18 4235-22810-9026-52732-27073 33933
3881.07 3783 23872 80808 58303-3125-20142
3883.97-20393 5758 1389 4537 47619 61715
3886.86 50761 60250 76887 59046 18572-22571
3889.75-19195-34416-52473-44200-42231 19117
3892.64 61272-8953-1643-13173-33716-1729
3895.54 19375 62947 72289 97355 36030-28340
3898.43-7305-17866 15513 68839 60041 11059
3901.32-36651-35190 46399 61676 5-61747
3904.22-58724-4739-34440-22524 51295 35942
3907.11 37572 56269 13918 23808 41146 49918
3910.00 45813 33594 40123 61665 52687 34320
3912.89 14277 19277 53622 58064 41641 6148
3915.79 5792 23858 3718 18269 76747 21341
3918.68-41810-53223-38494 18547 17010 811
3921.57 28764 13898-35768-8771 9332 11829
3924.46 30569 17376 30926 14420 21042 88728
3927.36 99162 103410 80591 38796 38380 23220
3930.25 10639 33651 35778-15520-18018 35484
3933.14 43771 20666 30673 68131 104263 101041
3936.04 55484 50815 89245 65185 28601 52651
3938.93 66636 47864 73650 83560 37630 5393
3941.82 16235 53832 46179 49623 80485 48908
3944.71 55139 34664-7090 27907 32912 26652
3947.61-5266 6864 63492 45290 15355 53070
3950.50 91227 58052-4943 9642 32984 8254
3953.39 28099 43852 64256 76362 22746 8483
3956.28 50096 51171 29663 19397 35683 29940
3959.18-1527 10538 32222 86324 75292 43918
3962.07 57893 37759 31407 28479 4083-45610
3964.96-29870-21447 22110 45183 47931 88863
3967.86 55909 22361 17009 23150 26835 22042
3970.75 20688 23687 38568 39202 26128-36766
3973.64-61773 19979
##END=
