##TITLE=CHLOROTRIMETHYLSILANE
##JCAMP-DX=4.24
##DATA TYPE=INFRARED SPECTRUM
##CLASS=COBLENTZ III
##ORIGIN=DOW CORNING CORP.
##OWNER=COBLENTZ SOCIETY
Collection (C) 2018 copyright by the U.S. Secretary of Commerce
on behalf of the United States of America. All rights reserved.
##DATE=1965/01/25
##NAMES=chloro(trimethyl)silane
##CAS REGISTRY NO=75-77-4
##MOLFORM=C3 H9 Cl Si
##BP=57.7 C
##SOURCE REFERENCE=COBLENTZ NO. 5508
##$NIST SOURCE=COBLENTZ
##$NIST IMAGE=cob5508
##SPECTROMETER/DATA SYSTEM=PERKIN-ELMER 521 (GRATING)
##INSTRUMENT PARAMETERS=FILTERS AT 3150, 2500, 2000, 1150, 700, 410. GRATING CHANGES: 2000, 630 CM^-^1
##STATE=SOLUTION (5% IN CCl4 FOR 3800-1300, 2% IN CS2 FOR 1300-600, AND 5% IN CCl4 FOR 600-210 CM^-^1)
##PATH LENGTH=0.011 CM, 0.020 CM, AND 0.011 CM
##SAMPLING PROCEDURE=TRANSMISSION
##RESOLUTION=2
##DATA PROCESSING=DIGITIZED BY NIST FROM HARD COPY (FROM TWO SEGMENTS)
##XUNITS=1/CM
##YUNITS=TRANSMITTANCE
##XFACTOR=1.000000
##YFACTOR=1
##DELTAX=0.937318
##FIRSTX=214.411
##LASTX=3785.59
##FIRSTY=0.895
##MAXX=3785.59
##MINX=214.411
##MAXY=0.972
##MINY=0.05
##NPOINTS=3811
##XYDATA=(X++(Y..Y))
214.411000 0.8950 0.8950 0.8970 0.8980 0.8990
219.097591 0.8990 0.8950 0.8950 0.8970 0.8980
223.784181 0.8990 0.8990 0.8990 0.8990 0.8990
228.470772 0.8990 0.8990 0.8990 0.8990 0.8990
233.157363 0.8990 0.8990 0.8980 0.8950 0.8930
237.843953 0.8930 0.8960 0.8960 0.8960 0.8960
242.530544 0.8960 0.8980 0.9000 0.9040 0.9050
247.217135 0.9060 0.9070 0.9090 0.9140 0.9200
251.903725 0.9240 0.9260 0.9270 0.9300 0.9310
256.590316 0.9310 0.9320 0.9340 0.9370 0.9390
261.276907 0.9420 0.9420 0.9440 0.9440 0.9440
265.963497 0.9450 0.9450 0.9450 0.9460 0.9460
270.650088 0.9460 0.9460 0.9470 0.9480 0.9490
275.336679 0.9490 0.9510 0.9510 0.9510 0.9510
280.023269 0.9510 0.9510 0.9510 0.9530 0.9550
284.709860 0.9600 0.9610 0.9620 0.9630 0.9630
289.396451 0.9630 0.9630 0.9630 0.9630 0.9620
294.083041 0.9610 0.9590 0.9590 0.9590 0.9580
298.769632 0.9580 0.9560 0.9550 0.9550 0.9550
303.456223 0.9540 0.9530 0.9540 0.9540 0.9540
308.142813 0.9540 0.9550 0.9550 0.9550 0.9550
312.829404 0.9560 0.9650 0.9660 0.9670 0.9670
317.515995 0.9670 0.9670 0.9670 0.9670 0.9650
322.202585 0.9610 0.9580 0.9560 0.9560 0.9560
326.889176 0.9560 0.9560 0.9550 0.9550 0.9550
331.575767 0.9550 0.9540 0.9550 0.9560 0.9580
336.262357 0.9590 0.9600 0.9610 0.9610 0.9610
340.948948 0.9610 0.9610 0.9610 0.9620 0.9630
345.635539 0.9630 0.9630 0.9620 0.9610 0.9610
350.322129 0.9600 0.9600 0.9600 0.9600 0.9600
355.008720 0.9600 0.9600 0.9590 0.9590 0.9580
359.695311 0.9580 0.9560 0.9550 0.9540 0.9530
364.381902 0.9520 0.9510 0.9490 0.9490 0.9490
369.068492 0.9490 0.9490 0.9490 0.9490 0.9490
373.755083 0.9480 0.9450 0.9410 0.9390 0.9400
378.441674 0.9450 0.9490 0.9490 0.9510 0.9510
383.128264 0.9520 0.9530 0.9540 0.9540 0.9520
387.814855 0.9510 0.9490 0.9470 0.9460 0.9440
392.501446 0.9440 0.9440 0.9440 0.9440 0.9440
397.188036 0.9460 0.9470 0.9470 0.9480 0.9480
401.874627 0.9480 0.9490 0.9490 0.9490 0.9490
406.561218 0.9490 0.9510 0.9510 0.9510 0.9490
411.247808 0.9510 0.9510 0.9510 0.9510 0.9520
415.934399 0.9520 0.9520 0.9520 0.9530 0.9520
420.620990 0.9490 0.9490 0.9480 0.9490 0.9530
425.307580 0.9550 0.9530 0.9520 0.9490 0.9480
429.994171 0.9460 0.9450 0.9440 0.9420 0.9410
434.680762 0.9400 0.9400 0.9390 0.9370 0.9340
439.367352 0.9310 0.9280 0.9260 0.9250 0.9210
444.053943 0.9160 0.9100 0.9040 0.8980 0.8910
448.740534 0.8880 0.8790 0.8620 0.8570 0.8240
453.427124 0.7921 0.7591 0.7351 0.7220 0.6991
458.113715 0.6460 0.6010 0.5930 0.4912 0.4621
462.800306 0.4311 0.3822 0.3083 0.2632 0.2172
467.486896 0.1340 0.1040 0.0870 0.0850 0.0511
472.173487 0.0500 0.0500 0.0510 0.0580 0.0650
476.860078 0.0940 0.1000 0.1360 0.1799 0.2229
481.546668 0.3247 0.3748 0.4238 0.4698 0.5168
486.233259 0.5690 0.6360 0.6580 0.6740 0.6890
490.919850 0.6990 0.7100 0.7578 0.7749 0.7989
495.606440 0.8040 0.8190 0.8290 0.8390 0.8470
500.293031 0.8500 0.8540 0.8630 0.8720 0.8810
504.979622 0.8840 0.8880 0.8960 0.8960 0.8990
509.666212 0.9030 0.9040 0.9050 0.9090 0.9120
514.352803 0.9130 0.9160 0.9190 0.9200 0.9210
519.039394 0.9260 0.9310 0.9320 0.9340 0.9380
523.725984 0.9410 0.9470 0.9510 0.9540 0.9550
528.412575 0.9560 0.9580 0.9590 0.9600 0.9610
533.099166 0.9620 0.9630 0.9650 0.9670 0.9680
537.785756 0.9690 0.9700 0.9720 0.9720 0.9720
542.472347 0.9720 0.9720 0.9720 0.9720 0.9720
547.158938 0.9700 0.9700 0.9700 0.9700 0.9700
551.845528 0.9700 0.9690 0.9690 0.9690 0.9690
556.532119 0.9680 0.9680 0.9680 0.9670 0.9670
561.218710 0.9660 0.9650 0.9630 0.9620 0.9600
565.905300 0.9590 0.9560 0.9560 0.9550 0.9540
570.591891 0.9520 0.9520 0.9520 0.9520 0.9520
575.278482 0.9540 0.9550 0.9560 0.9580 0.9590
579.965072 0.9600 0.9610 0.9610 0.9610 0.9600
584.651663 0.9600 0.9590 0.9590 0.9580 0.9560
589.338254 0.9540 0.9530 0.9520 0.9510 0.9510
594.024844 0.9490 0.9480 0.9480 0.9470 0.9460
598.711435 0.9450 0.9450 0.9440 0.9420 0.9390
603.398026 0.9390 0.9350 0.9300 0.9300 0.9310
608.084616 0.9310 0.9310 0.9310 0.9300 0.9280
612.771207 0.9240 0.9190 0.9160 0.9120 0.9030
617.457798 0.8920 0.8880 0.8830 0.8770 0.8720
622.144388 0.8670 0.8650 0.8650 0.8650 0.8650
626.830979 0.8650 0.8290 0.7940 0.7591 0.7241
631.517570 0.6891 0.6451 0.4806 0.4770 0.4790
636.204160 0.4890 0.5120 0.5360 0.5929 0.6639
640.890751 0.7139 0.7639 0.7939 0.7960 0.8109
645.577342 0.8240 0.8320 0.8350 0.8370 0.8390
650.263933 0.8400 0.8420 0.8470 0.8490 0.8510
654.950523 0.8530 0.8540 0.8540 0.8550 0.8550
659.637114 0.8560 0.8570 0.8570 0.8580 0.8580
664.323705 0.8580 0.8580 0.8580 0.8580 0.8580
669.010295 0.8570 0.8560 0.8560 0.8560 0.8560
673.696886 0.8550 0.8540 0.8550 0.8550 0.8560
678.383477 0.8560 0.8570 0.8580 0.8620 0.8650
683.070067 0.8650 0.8620 0.8600 0.8580 0.8570
687.756658 0.8510 0.8490 0.8480 0.8440 0.8281
692.443249 0.8210 0.8140 0.8120 0.8000 0.7860
697.129839 0.7850 0.7860 0.7870 0.7980 0.8060
701.816430 0.8190 0.8330 0.8360 0.8400 0.8430
706.503021 0.8440 0.8460 0.8480 0.8490 0.8490
711.189611 0.8500 0.8510 0.8530 0.8550 0.8560
715.876202 0.8570 0.8610 0.8680 0.8670 0.8670
720.562793 0.8650 0.8630 0.8610 0.8580 0.8570
725.249383 0.8570 0.8570 0.8580 0.8580 0.8580
729.935974 0.8580 0.8580 0.8570 0.8560 0.8550
734.622565 0.8540 0.8560 0.8580 0.8600 0.8600
739.309155 0.8600 0.8600 0.8600 0.8610 0.8610
743.995746 0.8580 0.8480 0.8410 0.8310 0.8200
748.682337 0.8120 0.8070 0.7770 0.7660 0.7550
753.368927 0.7420 0.6493 0.6311 0.6011 0.4875
758.055518 0.4860 0.4860 0.5130 0.5400 0.6039
762.742109 0.6649 0.6840 0.7009 0.7219 0.7588
767.428699 0.7690 0.7840 0.8000 0.8080 0.8190
772.115290 0.8320 0.8360 0.8410 0.8420 0.8460
776.801881 0.8460 0.8470 0.8470 0.8470 0.8470
781.488471 0.8470 0.8460 0.8420 0.8400 0.8370
786.175062 0.8360 0.8350 0.8350 0.8350 0.8350
790.861653 0.8350 0.8350 0.8350 0.8340 0.8340
795.548243 0.8330 0.8330 0.8330 0.8330 0.8320
800.234834 0.8320 0.8260 0.8240 0.8190 0.8001
804.921425 0.8000 0.7990 0.7970 0.7930 0.7920
809.608015 0.7920 0.7890 0.7800 0.7730 0.7690
814.294606 0.7570 0.7540 0.7400 0.7300 0.6980
818.981197 0.6960 0.6910 0.6631 0.6481 0.6171
823.667787 0.6130 0.6060 0.5870 0.5790 0.5540
828.354378 0.5251 0.4901 0.4790 0.4312 0.3971
833.040969 0.3880 0.3790 0.3330 0.2580 0.2380
837.727559 0.2190 0.1990 0.1352 0.1210 0.1071
842.414150 0.0940 0.0800 0.0710 0.0660 0.0650
847.100741 0.0650 0.0730 0.0800 0.0959 0.1448
851.787331 0.1580 0.1700 0.2100 0.2569 0.3119
856.473922 0.3409 0.3689 0.4188 0.4588 0.4789
861.160513 0.4910 0.5040 0.5620 0.6060 0.6210
865.847103 0.6360 0.6559 0.6660 0.6710 0.6750
870.533694 0.6890 0.7080 0.7270 0.7440 0.7570
875.220285 0.7660 0.7720 0.7780 0.7890 0.7990
879.906875 0.8060 0.8100 0.8190 0.8290 0.8330
884.593466 0.8350 0.8360 0.8400 0.8440 0.8500
889.280057 0.8570 0.8630 0.8650 0.8690 0.8740
893.966647 0.8780 0.8830 0.8850 0.8880 0.8890
898.653238 0.8900 0.8910 0.8910 0.8930 0.8950
903.339829 0.8970 0.8980 0.9000 0.9020 0.9030
908.026419 0.9070 0.9090 0.9110 0.9140 0.9210
912.713010 0.9230 0.9210 0.9210 0.9200 0.9200
917.399601 0.9190 0.9200 0.9200 0.9200 0.9210
922.086192 0.9210 0.9210 0.9210 0.9230 0.9230
926.772782 0.9230 0.9240 0.9240 0.9240 0.9240
931.459373 0.9240 0.9240 0.9240 0.9240 0.9210
936.145964 0.9200 0.9200 0.9200 0.9200 0.9200
940.832554 0.9210 0.9230 0.9260 0.9280 0.9300
945.519145 0.9310 0.9310 0.9320 0.9320 0.9330
950.205736 0.9330 0.9330 0.9330 0.9330 0.9330
954.892326 0.9330 0.9330 0.9330 0.9330 0.9330
959.578917 0.9330 0.9320 0.9330 0.9330 0.9370
964.265508 0.9370 0.9370 0.9370 0.9350 0.9350
968.952098 0.9350 0.9350 0.9350 0.9350 0.9350
973.638689 0.9340 0.9340 0.9320 0.9320 0.9320
978.325280 0.9320 0.9320 0.9320 0.9320 0.9310
983.011870 0.9310 0.9310 0.9310 0.9310 0.9310
987.698461 0.9310 0.9300 0.9300 0.9300 0.9280
992.385052 0.9280 0.9280 0.9270 0.9270 0.9270
997.071642 0.9260 0.9260 0.9260 0.9250 0.9250
1001.758233 0.9250 0.9240 0.9240 0.9200 0.9190
1006.444824 0.9190 0.9190 0.9180 0.9190 0.9190
1011.131414 0.9190 0.9190 0.9180 0.9170 0.9160
1015.818005 0.9140 0.9130 0.9120 0.9110 0.9110
1020.504596 0.9110 0.9120 0.9120 0.9110 0.9100
1025.191186 0.9090 0.9090 0.9090 0.9070 0.9070
1029.877777 0.9070 0.9070 0.9100 0.9100 0.9090
1034.564368 0.9090 0.9090 0.9040 0.9030 0.9030
1039.250958 0.9030 0.9030 0.9030 0.9040 0.9040
1043.937549 0.9040 0.9030 0.9040 0.9040 0.9050
1048.624140 0.9050 0.9060 0.9060 0.9070 0.9070
1053.310730 0.9090 0.9090 0.9100 0.9100 0.9110
1057.997321 0.9110 0.9110 0.9110 0.9110 0.9110
1062.683912 0.9110 0.9120 0.9120 0.9120 0.9120
1067.370502 0.9120 0.9120 0.9120 0.9120 0.9120
1072.057093 0.9120 0.9130 0.9130 0.9140 0.9140
1076.743684 0.9160 0.9160 0.9170 0.9170 0.9180
1081.430274 0.9180 0.9180 0.9180 0.9180 0.9180
1086.116865 0.9180 0.9180 0.9180 0.9180 0.9180
1090.803456 0.9180 0.9180 0.9170 0.9140 0.9120
1095.490046 0.9120 0.9120 0.9110 0.9110 0.9100
1100.176637 0.9100 0.9100 0.9100 0.9100 0.9100
1104.863228 0.9100 0.9100 0.9100 0.9100 0.9100
1109.549818 0.9100 0.9100 0.9100 0.9100 0.9100
1114.236409 0.9110 0.9130 0.9140 0.9180 0.9180
1118.923000 0.9180 0.9180 0.9190 0.9200 0.9200
1123.609590 0.9190 0.9190 0.9190 0.9200 0.9250
1128.296181 0.9260 0.9280 0.9280 0.9280 0.9280
1132.982772 0.9260 0.9250 0.9250 0.9240 0.9250
1137.669362 0.9250 0.9240 0.9230 0.9200 0.9160
1142.355953 0.9140 0.9140 0.9140 0.9140 0.9140
1147.042544 0.9140 0.9140 0.9140 0.9140 0.9140
1151.729134 0.9140 0.9160 0.9160 0.9160 0.9170
1156.415725 0.9170 0.9170 0.9180 0.9180 0.9180
1161.102316 0.9190 0.9200 0.9200 0.9190 0.9190
1165.788906 0.9180 0.9180 0.9180 0.9180 0.9180
1170.475497 0.9180 0.9170 0.9190 0.9190 0.9180
1175.162088 0.9180 0.9180 0.9180 0.9180 0.9180
1179.848678 0.9180 0.9190 0.9200 0.9200 0.9170
1184.535269 0.9170 0.9170 0.9170 0.9170 0.9180
1189.221860 0.9180 0.9180 0.9170 0.9170 0.9160
1193.908450 0.9160 0.9140 0.9140 0.9130 0.9130
1198.595041 0.9120 0.9120 0.9120 0.9120 0.9110
1203.281632 0.9110 0.9110 0.9110 0.9110 0.9100
1207.968223 0.9100 0.9100 0.9100 0.9100 0.9070
1212.654813 0.9030 0.9000 0.9000 0.9030 0.9040
1217.341404 0.9040 0.9040 0.9040 0.9040 0.9020
1222.027995 0.8990 0.8950 0.8930 0.8910 0.8900
1226.714585 0.8860 0.8790 0.8750 0.8740 0.8710
1231.401176 0.8700 0.8670 0.8640 0.8620 0.8610
1236.087767 0.8580 0.8500 0.8320 0.8260 0.8140
1240.774357 0.8100 0.8000 0.7900 0.7800 0.7700
1245.460948 0.7430 0.7140 0.6590 0.6460 0.4842
1250.147539 0.4590 0.4321 0.1577 0.1550 0.1560
1254.834129 0.2691 0.3821 0.4950 0.5590 0.6219
1259.520720 0.6649 0.6910 0.7149 0.7579 0.7710
1264.207311 0.7850 0.7990 0.8100 0.8170 0.8180
1268.893901 0.8250 0.8280 0.8330 0.8350 0.8370
1273.580492 0.8400 0.8420 0.8430 0.8480 0.8510
1278.267083 0.8580 0.8610 0.8670 0.8710 0.8750
1282.953673 0.8760 0.8780 0.8780 0.8790 0.8820
1287.640264 0.8830 0.8850 0.8860 0.8860 0.8880
1292.326855 0.8890 0.8890 0.8890 0.8900 0.8890
1297.013445 0.8890 0.8890 0.8890 0.8890 0.8850
1301.700036 0.8830 0.8650 0.8630 0.8630 0.8630
1306.386627 0.8630 0.8630 0.8630 0.8630 0.8630
1311.073217 0.8620 0.8610 0.8600 0.8550 0.8540
1315.759808 0.8530 0.8510 0.8500 0.8490 0.8490
1320.446399 0.8480 0.8460 0.8410 0.8370 0.8310
1325.132989 0.8270 0.8260 0.8250 0.8250 0.8250
1329.819580 0.8260 0.8260 0.8270 0.8280 0.8310
1334.506171 0.8330 0.8340 0.8360 0.8420 0.8430
1339.192761 0.8430 0.8430 0.8440 0.8500 0.8560
1343.879352 0.8570 0.8570 0.8570 0.8560 0.8560
1348.565943 0.8560 0.8550 0.8550 0.8550 0.8540
1353.252533 0.8540 0.8530 0.8530 0.8530 0.8510
1357.939124 0.8510 0.8510 0.8500 0.8500 0.8330
1362.625715 0.8290 0.8270 0.8250 0.8240 0.8240
1367.312305 0.8220 0.8220 0.8210 0.8200 0.8190
1371.998896 0.8170 0.8140 0.8120 0.8100 0.8060
1376.685487 0.8040 0.8030 0.8010 0.8010 0.8030
1381.372077 0.8040 0.8010 0.8010 0.8010 0.8000
1386.058668 0.8000 0.7990 0.7980 0.7920 0.7900
1390.745259 0.7860 0.7830 0.7760 0.7690 0.7630
1395.431849 0.7580 0.7540 0.7510 0.7490 0.7340
1400.118440 0.7210 0.7120 0.7050 0.6881 0.6860
1404.805031 0.6810 0.6520 0.6500 0.6510 0.6550
1409.491621 0.6630 0.6680 0.6740 0.6860 0.6990
1414.178212 0.7000 0.7050 0.7090 0.7150 0.7200
1418.864803 0.7240 0.7270 0.7400 0.7450 0.7500
1423.551393 0.7540 0.7620 0.7760 0.7870 0.7970
1428.237984 0.8050 0.8080 0.8140 0.8200 0.8210
1432.924575 0.8240 0.8250 0.8250 0.8250 0.8240
1437.611165 0.8220 0.8210 0.8200 0.8140 0.8100
1442.297756 0.8080 0.8060 0.8050 0.8000 0.7980
1446.984347 0.7940 0.7910 0.7890 0.7860 0.7840
1451.670937 0.7830 0.7820 0.7820 0.7800 0.7800
1456.357528 0.7790 0.7770 0.7690 0.7690 0.7700
1461.044119 0.7780 0.7790 0.7830 0.7890 0.7980
1465.730709 0.8060 0.8130 0.8200 0.8260 0.8320
1470.417300 0.8340 0.8360 0.8410 0.8460 0.8490
1475.103891 0.8510 0.8550 0.8560 0.8620 0.8670
1479.790481 0.8690 0.8700 0.8720 0.8750 0.8780
1484.477072 0.8790 0.8810 0.8810 0.8810 0.8810
1489.163663 0.8810 0.8810 0.8820 0.8820 0.8820
1493.850254 0.8820 0.8830 0.8830 0.8830 0.8840
1498.536844 0.8860 0.8860 0.8880 0.8890 0.8890
1503.223435 0.8900 0.8900 0.8900 0.8910 0.8910
1507.910026 0.8900 0.8890 0.8900 0.8900 0.8900
1512.596616 0.8900 0.8900 0.8900 0.8900 0.8900
1517.283207 0.8900 0.8910 0.8910 0.8910 0.8910
1521.969798 0.8910 0.8910 0.8910 0.8920 0.8920
1526.656388 0.8930 0.8930 0.8950 0.8950 0.8960
1531.342979 0.8970 0.8970 0.8980 0.8980 0.8990
1536.029570 0.8990 0.8990 0.8990 0.9000 0.9000
1540.716160 0.9000 0.9000 0.9000 0.9000 0.9000
1545.402751 0.9020 0.9030 0.9030 0.9030 0.9030
1550.089342 0.9000 0.9000 0.9000 0.9030 0.9030
1554.775932 0.9040 0.9040 0.9040 0.9030 0.9030
1559.462523 0.9020 0.9020 0.9020 0.9000 0.9000
1564.149114 0.8990 0.8990 0.8990 0.8990 0.8990
1568.835704 0.8980 0.8970 0.8960 0.8960 0.8960
1573.522295 0.8970 0.8970 0.8980 0.8980 0.8990
1578.208886 0.9000 0.9000 0.9000 0.8980 0.8980
1582.895476 0.8980 0.8980 0.8990 0.9000 0.9000
1587.582067 0.9000 0.9000 0.9000 0.9020 0.9020
1592.268658 0.9020 0.9020 0.9020 0.9020 0.9020
1596.955248 0.9020 0.9020 0.9020 0.9020 0.9020
1601.641839 0.9000 0.9000 0.8990 0.8990 0.8990
1606.328430 0.8970 0.8970 0.8970 0.8960 0.8960
1611.015020 0.8970 0.8970 0.8970 0.8980 0.8990
1615.701611 0.8990 0.8990 0.8990 0.8990 0.8990
1620.388202 0.8990 0.8990 0.8990 0.8990 0.8990
1625.074792 0.8990 0.8990 0.8990 0.8990 0.8990
1629.761383 0.8990 0.8990 0.8990 0.8990 0.8990
1634.447974 0.8990 0.9000 0.8980 0.8980 0.8990
1639.134564 0.9020 0.9020 0.9030 0.9030 0.9030
1643.821155 0.9030 0.9020 0.9020 0.9020 0.9000
1648.507746 0.9000 0.8990 0.8990 0.8990 0.8990
1653.194336 0.8990 0.8990 0.8980 0.8970 0.8970
1657.880927 0.8970 0.8970 0.8970 0.8970 0.8970
1662.567518 0.8970 0.8970 0.8970 0.8970 0.8970
1667.254108 0.8970 0.8970 0.8970 0.8970 0.8990
1671.940699 0.9000 0.9000 0.9000 0.8990 0.8980
1676.627290 0.8980 0.8980 0.8980 0.8980 0.8980
1681.313880 0.8980 0.8980 0.8980 0.8980 0.8980
1686.000471 0.8980 0.8970 0.8970 0.8960 0.8970
1690.687062 0.8970 0.8970 0.8970 0.8970 0.8970
1695.373652 0.8970 0.8970 0.8970 0.8970 0.8970
1700.060243 0.8970 0.8970 0.8970 0.8970 0.8970
1704.746834 0.8970 0.8970 0.8970 0.8970 0.8970
1709.433424 0.8970 0.8970 0.8970 0.8970 0.8970
1714.120015 0.8970 0.8980 0.8980 0.8970 0.8970
1718.806606 0.8970 0.8970 0.8970 0.8970 0.8980
1723.493196 0.8980 0.8990 0.8990 0.9000 0.9000
1728.179787 0.8990 0.8990 0.8990 0.8980 0.8980
1732.866378 0.8980 0.8980 0.8990 0.8990 0.8990
1737.552968 0.9000 0.9000 0.9000 0.9000 0.9000
1742.239559 0.9000 0.9000 0.9000 0.9000 0.9000
1746.926150 0.9000 0.9000 0.8990 0.8990 0.8990
1751.612740 0.8990 0.8990 0.8990 0.8990 0.8990
1756.299331 0.8990 0.8990 0.8990 0.8990 0.8990
1760.985922 0.8990 0.8990 0.8990 0.8990 0.8990
1765.672513 0.8990 0.8990 0.9000 0.9000 0.9000
1770.359103 0.9000 0.9000 0.9000 0.9000 0.9020
1775.045694 0.9020 0.9020 0.8990 0.8990 0.8990
1779.732285 0.8990 0.9000 0.9030 0.9040 0.9040
1784.418875 0.9050 0.9050 0.9050 0.9050 0.9060
1789.105466 0.9070 0.9090 0.9090 0.9090 0.9070
1793.792057 0.9060 0.9050 0.9040 0.9030 0.9020
1798.478647 0.9020 0.9020 0.9020 0.9020 0.9020
1803.165238 0.9020 0.9020 0.9020 0.9030 0.9030
1807.851829 0.9030 0.9030 0.9030 0.9030 0.9030
1812.538419 0.9030 0.9030 0.9030 0.9030 0.9030
1817.225010 0.9030 0.9030 0.9030 0.9030 0.9030
1821.911601 0.9030 0.9030 0.9030 0.9030 0.9040
1826.598191 0.9030 0.9020 0.9020 0.9020 0.9020
1831.284782 0.9020 0.9020 0.9020 0.9020 0.9030
1835.971373 0.9030 0.9030 0.9030 0.9030 0.9030
1840.657963 0.9030 0.9030 0.9040 0.9040 0.9040
1845.344554 0.9050 0.9050 0.9050 0.9050 0.9050
1850.031145 0.9050 0.9050 0.9050 0.9050 0.9040
1854.717735 0.9040 0.9030 0.9030 0.9000 0.9000
1859.404326 0.9000 0.9000 0.8990 0.8990 0.8990
1864.090917 0.8990 0.8990 0.8990 0.8990 0.9000
1868.777507 0.9000 0.8990 0.8990 0.8980 0.8980
1873.464098 0.8970 0.8970 0.8960 0.8960 0.8950
1878.150689 0.8950 0.8930 0.8920 0.8910 0.8900
1882.837279 0.8890 0.8880 0.8820 0.8780 0.8760
1887.523870 0.8720 0.8680 0.8630 0.8600 0.8570
1892.210461 0.8570 0.8580 0.8760 0.8830 0.8880
1896.897051 0.8900 0.8920 0.8920 0.8950 0.8960
1901.583642 0.8970 0.8980 0.8990 0.8980 0.8980
1906.270233 0.8980 0.8990 0.8990 0.9000 0.9000
1910.956823 0.9000 0.9020 0.9000 0.9000 0.9000
1915.643414 0.9020 0.9020 0.9000 0.9000 0.9000
1920.330005 0.9000 0.9020 0.9000 0.9000 0.9000
1925.016595 0.9000 0.9000 0.9000 0.9000 0.8990
1929.703186 0.8990 0.8990 0.8980 0.8970 0.8960
1934.389777 0.8950 0.8930 0.8920 0.8910 0.8910
1939.076367 0.8910 0.8910 0.8910 0.8900 0.8900
1943.762958 0.8890 0.8890 0.8880 0.8880 0.8860
1948.449549 0.8860 0.8850 0.8850 0.8850 0.8850
1953.136139 0.8850 0.8850 0.8860 0.8880 0.8890
1957.822730 0.8900 0.8910 0.8910 0.8910 0.8910
1962.509321 0.8920 0.8920 0.8920 0.8920 0.8920
1967.195911 0.8930 0.8950 0.8950 0.8960 0.8960
1971.882502 0.8970 0.8970 0.8980 0.8990 0.8990
1976.569093 0.9000 0.9000 0.9000 0.9020 0.9000
1981.255683 0.9000 0.9000 0.9000 0.9000 0.9020
1985.942274 0.9020 0.9020 0.9020 0.9030 0.9030
1990.628865 0.9030 0.9030 0.9040 0.9040 0.9040
1995.315455 0.9040 0.9050 0.9100 0.9170 0.9190
2000.002046 0.9240 0.9220 0.9199 0.9123 0.9050
2004.688637 0.9045 0.9040 0.9040 0.9040 0.9040
2009.375227 0.9041 0.9051 0.9060 0.9060 0.9061
2014.061818 0.9066 0.9071 0.9081 0.9091 0.9096
2018.748409 0.9101 0.9106 0.9111 0.9116 0.9121
2023.434999 0.9126 0.9131 0.9136 0.9142 0.9152
2028.121590 0.9161 0.9166 0.9170 0.9170 0.9170
2032.808181 0.9170 0.9170 0.9170 0.9172 0.9177
2037.494771 0.9180 0.9180 0.9180 0.9180 0.9180
2042.181362 0.9180 0.9182 0.9187 0.9190 0.9190
2046.867953 0.9190 0.9190 0.9190 0.9190 0.9190
2051.554544 0.9190 0.9190 0.9190 0.9190 0.9190
2056.241134 0.9190 0.9190 0.9190 0.9190 0.9187
2060.927725 0.9182 0.9180 0.9180 0.9180 0.9180
2065.614316 0.9177 0.9172 0.9170 0.9170 0.9170
2070.300906 0.9170 0.9167 0.9162 0.9160 0.9160
2074.987497 0.9160 0.9160 0.9153 0.9143 0.9136
2079.674088 0.9131 0.9130 0.9130 0.9126 0.9121
2084.360678 0.9120 0.9120 0.9116 0.9111 0.9114
2089.047269 0.9119 0.9116 0.9111 0.9110 0.9110
2093.733860 0.9101 0.9091 0.9090 0.9090 0.9081
2098.420450 0.9071 0.9065 0.9060 0.9051 0.9041
2103.107041 0.9035 0.9030 0.9030 0.9030 0.9035
2107.793632 0.9040 0.9070 0.9100 0.9105 0.9110
2112.480222 0.9115 0.9120 0.9120 0.9120 0.9125
2117.166813 0.9130 0.9136 0.9141 0.9151 0.9160
2121.853404 0.9160 0.9161 0.9166 0.9171 0.9176
2126.539994 0.9180 0.9180 0.9181 0.9186 0.9190
2131.226585 0.9190 0.9191 0.9196 0.9200 0.9200
2135.913176 0.9200 0.9200 0.9200 0.9200 0.9200
2140.599766 0.9200 0.9200 0.9200 0.9200 0.9200
2145.286357 0.9200 0.9200 0.9200 0.9200 0.9202
2149.972948 0.9207 0.9210 0.9210 0.9210 0.9210
2154.659538 0.9210 0.9210 0.9210 0.9210 0.9210
2159.346129 0.9210 0.9210 0.9210 0.9210 0.9210
2164.032720 0.9210 0.9210 0.9210 0.9210 0.9216
2168.719310 0.9226 0.9230 0.9230 0.9230 0.9230
2173.405901 0.9230 0.9230 0.9230 0.9230 0.9230
2178.092492 0.9230 0.9230 0.9230 0.9230 0.9230
2182.779082 0.9230 0.9230 0.9234 0.9239 0.9240
2187.465673 0.9240 0.9240 0.9240 0.9240 0.9240
2192.152264 0.9240 0.9240 0.9240 0.9240 0.9240
2196.838854 0.9240 0.9240 0.9240 0.9240 0.9240
2201.525445 0.9240 0.9240 0.9240 0.9240 0.9240
2206.212036 0.9240 0.9240 0.9240 0.9240 0.9240
2210.898626 0.9240 0.9240 0.9240 0.9240 0.9240
2215.585217 0.9240 0.9240 0.9240 0.9240 0.9240
2220.271808 0.9240 0.9240 0.9240 0.9240 0.9246
2224.958398 0.9249 0.9244 0.9239 0.9234 0.9230
2229.644989 0.9230 0.9230 0.9230 0.9230 0.9230
2234.331580 0.9230 0.9230 0.9230 0.9230 0.9233
2239.018170 0.9248 0.9260 0.9260 0.9256 0.9241
2243.704761 0.9227 0.9217 0.9210 0.9210 0.9208
2248.391352 0.9203 0.9200 0.9200 0.9200 0.9200
2253.077942 0.9200 0.9200 0.9200 0.9200 0.9200
2257.764533 0.9200 0.9200 0.9200 0.9200 0.9200
2262.451124 0.9200 0.9200 0.9200 0.9200 0.9200
2267.137714 0.9200 0.9200 0.9200 0.9200 0.9200
2271.824305 0.9203 0.9208 0.9210 0.9210 0.9219
2276.510896 0.9234 0.9243 0.9248 0.9256 0.9266
2281.197486 0.9270 0.9270 0.9263 0.9253 0.9243
2285.884077 0.9233 0.9230 0.9230 0.9223 0.9213
2290.570668 0.9210 0.9210 0.9210 0.9210 0.9210
2295.257258 0.9210 0.9206 0.9201 0.9200 0.9200
2299.943849 0.9200 0.9200 0.9188 0.9172 0.9153
2304.630440 0.9133 0.9126 0.9121 0.9124 0.9129
2309.317030 0.9183 0.9244 0.9273 0.9298 0.9305
2314.003621 0.9310 0.9310 0.9310 0.9310 0.9310
2318.690212 0.9310 0.9310 0.9310 0.9310 0.9310
2323.376802 0.9310 0.9305 0.9300 0.9300 0.9300
2328.063393 0.9300 0.9300 0.9300 0.9300 0.9305
2332.749984 0.9310 0.9310 0.9310 0.9310 0.9310
2337.436575 0.9310 0.9310 0.9310 0.9310 0.9310
2342.123165 0.9310 0.9310 0.9310 0.9310 0.9310
2346.809756 0.9310 0.9310 0.9310 0.9310 0.9310
2351.496347 0.9310 0.9310 0.9310 0.9310 0.9310
2356.182937 0.9310 0.9310 0.9310 0.9310 0.9310
2360.869528 0.9310 0.9310 0.9304 0.9289 0.9278
2365.556119 0.9273 0.9270 0.9270 0.9270 0.9270
2370.242709 0.9265 0.9255 0.9252 0.9257 0.9252
2374.929300 0.9237 0.9230 0.9230 0.9225 0.9215
2379.615891 0.9210 0.9210 0.9216 0.9226 0.9230
2384.302481 0.9230 0.9230 0.9230 0.9236 0.9246
2388.989072 0.9250 0.9250 0.9250 0.9250 0.9250
2393.675663 0.9250 0.9250 0.9250 0.9254 0.9259
2398.362253 0.9260 0.9260 0.9260 0.9260 0.9256
2403.048844 0.9251 0.9246 0.9241 0.9236 0.9231
2407.735435 0.9222 0.9212 0.9210 0.9210 0.9210
2412.422025 0.9210 0.9210 0.9210 0.9210 0.9210
2417.108616 0.9205 0.9200 0.9200 0.9200 0.9219
2421.795207 0.9239 0.9240 0.9240 0.9240 0.9240
2426.481797 0.9240 0.9240 0.9240 0.9240 0.9240
2431.168388 0.9240 0.9240 0.9240 0.9240 0.9240
2435.854979 0.9240 0.9240 0.9240 0.9237 0.9212
2440.541569 0.9190 0.9190 0.9191 0.9201 0.9210
2445.228160 0.9210 0.9210 0.9210 0.9210 0.9210
2449.914751 0.9210 0.9210 0.9210 0.9210 0.9210
2454.601341 0.9210 0.9210 0.9210 0.9210 0.9210
2459.287932 0.9209 0.9203 0.9195 0.9180 0.9168
2463.974523 0.9163 0.9160 0.9160 0.9166 0.9181
2468.661113 0.9190 0.9190 0.9190 0.9190 0.9190
2473.347704 0.9190 0.9190 0.9190 0.9190 0.9190
2478.034295 0.9190 0.9190 0.9188 0.9183 0.9175
2482.720885 0.9165 0.9155 0.9145 0.9132 0.9117
2487.407476 0.9090 0.9055 0.9034 0.9024 0.9020
2492.094067 0.9020 0.9020 0.9020 0.9070 0.9151
2496.780657 0.9183 0.9188 0.9190 0.9190 0.9190
2501.467248 0.9190 0.9190 0.9190 0.9190 0.9190
2506.153839 0.9190 0.9190 0.9190 0.9190 0.9190
2510.840429 0.9190 0.9182 0.9172 0.9166 0.9161
2515.527020 0.9160 0.9160 0.9160 0.9160 0.9160
2520.213611 0.9160 0.9160 0.9160 0.9160 0.9160
2524.900201 0.9160 0.9160 0.9160 0.9160 0.9160
2529.586792 0.9160 0.9160 0.9160 0.9160 0.9160
2534.273383 0.9160 0.9160 0.9160 0.9160 0.9160
2538.959973 0.9160 0.9160 0.9160 0.9160 0.9160
2543.646564 0.9160 0.9160 0.9160 0.9160 0.9160
2548.333155 0.9160 0.9160 0.9160 0.9160 0.9160
2553.019745 0.9160 0.9160 0.9160 0.9160 0.9160
2557.706336 0.9160 0.9160 0.9160 0.9160 0.9160
2562.392927 0.9160 0.9160 0.9160 0.9160 0.9160
2567.079517 0.9160 0.9160 0.9157 0.9147 0.9140
2571.766108 0.9140 0.9140 0.9140 0.9140 0.9140
2576.452699 0.9140 0.9140 0.9140 0.9140 0.9140
2581.139289 0.9140 0.9140 0.9140 0.9140 0.9140
2585.825880 0.9140 0.9140 0.9140 0.9140 0.9140
2590.512471 0.9140 0.9140 0.9140 0.9140 0.9140
2595.199061 0.9140 0.9140 0.9140 0.9140 0.9140
2599.885652 0.9140 0.9140 0.9140 0.9140 0.9140
2604.572243 0.9140 0.9140 0.9140 0.9140 0.9140
2609.258834 0.9140 0.9140 0.9140 0.9136 0.9131
2613.945424 0.9130 0.9130 0.9130 0.9130 0.9126
2618.632015 0.9121 0.9120 0.9120 0.9120 0.9120
2623.318606 0.9120 0.9120 0.9120 0.9120 0.9120
2628.005196 0.9120 0.9120 0.9120 0.9125 0.9130
2632.691787 0.9130 0.9130 0.9130 0.9130 0.9130
2637.378378 0.9130 0.9130 0.9130 0.9135 0.9140
2642.064968 0.9130 0.9120 0.9120 0.9120 0.9120
2646.751559 0.9120 0.9120 0.9120 0.9120 0.9120
2651.438150 0.9120 0.9120 0.9120 0.9120 0.9120
2656.124740 0.9120 0.9120 0.9120 0.9120 0.9120
2660.811331 0.9120 0.9120 0.9120 0.9120 0.9120
2665.497922 0.9120 0.9120 0.9120 0.9120 0.9120
2670.184512 0.9120 0.9120 0.9120 0.9120 0.9120
2674.871103 0.9120 0.9120 0.9120 0.9120 0.9120
2679.557694 0.9120 0.9120 0.9120 0.9118 0.9113
2684.244284 0.9110 0.9110 0.9110 0.9110 0.9110
2688.930875 0.9110 0.9110 0.9110 0.9110 0.9110
2693.617466 0.9110 0.9110 0.9110 0.9110 0.9110
2698.304056 0.9110 0.9110 0.9110 0.9107 0.9102
2702.990647 0.9100 0.9100 0.9097 0.9092 0.9090
2707.677238 0.9090 0.9090 0.9090 0.9090 0.9090
2712.363828 0.9090 0.9090 0.9090 0.9090 0.9090
2717.050419 0.9090 0.9090 0.9090 0.9090 0.9090
2721.737010 0.9082 0.9072 0.9070 0.9070 0.9070
2726.423600 0.9070 0.9066 0.9061 0.9060 0.9060
2731.110191 0.9060 0.9060 0.9056 0.9051 0.9050
2735.796782 0.9050 0.9046 0.9040 0.9040 0.9040
2740.483372 0.9040 0.9040 0.9040 0.9040 0.9035
2745.169963 0.9030 0.9030 0.9030 0.9030 0.9030
2749.856554 0.9030 0.9030 0.9025 0.9020 0.9009
2754.543144 0.9000 0.9000 0.9000 0.8995 0.8990
2759.229735 0.8990 0.8989 0.8984 0.8980 0.8980
2763.916326 0.8975 0.8945 0.8915 0.8884 0.8858
2768.602916 0.8848 0.8840 0.8840 0.8839 0.8834
2773.289507 0.8829 0.8824 0.8819 0.8814 0.8810
2777.976098 0.8810 0.8807 0.8797 0.8790 0.8790
2782.662688 0.8790 0.8790 0.8790 0.8790 0.8790
2787.349279 0.8790 0.8790 0.8790 0.8790 0.8790
2792.035870 0.8790 0.8790 0.8790 0.8790 0.8790
2796.722460 0.8790 0.8790 0.8790 0.8790 0.8790
2801.409051 0.8790 0.8790 0.8790 0.8790 0.8790
2806.095642 0.8790 0.8787 0.8782 0.8777 0.8772
2810.782232 0.8770 0.8770 0.8767 0.8762 0.8757
2815.468823 0.8752 0.8747 0.8742 0.8740 0.8740
2820.155414 0.8733 0.8723 0.8716 0.8711 0.8706
2824.842004 0.8701 0.8689 0.8674 0.8662 0.8652
2829.528595 0.8646 0.8641 0.8636 0.8631 0.8618
2834.215186 0.8603 0.8584 0.8563 0.8547 0.8532
2838.901776 0.8513 0.8493 0.8481 0.8471 0.8457
2843.588367 0.8441 0.8431 0.8421 0.8411 0.8401
2848.274958 0.8386 0.8371 0.8346 0.8321 0.8296
2852.961548 0.8270 0.8245 0.8220 0.8194 0.8169
2857.648139 0.8134 0.8098 0.8052 0.8002 0.7876
2862.334730 0.7760 0.7755 0.7750 0.7750 0.7750
2867.021320 0.7750 0.7751 0.7756 0.7769 0.7835
2871.707911 0.7894 0.7919 0.7940 0.7940 0.7937
2876.394502 0.7922 0.7908 0.7898 0.7886 0.7871
2881.081092 0.7860 0.7860 0.7851 0.7815 0.7771
2885.767683 0.7706 0.7643 0.7588 0.7506 0.7365
2890.454274 0.7226 0.7094 0.7008 0.7003 0.7002
2895.140865 0.7007 0.7060 0.7186 0.7262 0.7267
2899.827455 0.7283 0.7313 0.7348 0.7388 0.7440
2904.514046 0.7505 0.7550 0.7570 0.7580 0.7580
2909.200637 0.7580 0.7580 0.7580 0.7580 0.7577
2913.887227 0.7572 0.7556 0.7530 0.7505 0.7480
2918.573818 0.7452 0.7422 0.7407 0.7402 0.7387
2923.260409 0.7367 0.7353 0.7343 0.7327 0.7306
2927.946999 0.7290 0.7274 0.7270 0.7270 0.7270
2932.633590 0.7270 0.7232 0.7182 0.7128 0.7072
2937.320181 0.7005 0.6935 0.6788 0.6622 0.6517
2942.006771 0.6426 0.6323 0.6217 0.6095 0.5969
2946.693362 0.5833 0.5695 0.5550 0.5404 0.5076
2951.379953 0.4728 0.4519 0.4323 0.4065 0.3803
2956.066543 0.3785 0.3780 0.3780 0.3780 0.3785
2960.753134 0.3790 0.3820 0.3850 0.3870 0.3896
2965.439725 0.4104 0.4317 0.4584 0.4846 0.5047
2970.126315 0.5248 0.5439 0.5654 0.6057 0.6428
2974.812906 0.6574 0.6720 0.6867 0.7002 0.7077
2979.499497 0.7174 0.7376 0.7566 0.7707 0.7838
2984.186087 0.7930 0.8014 0.8075 0.8130 0.8170
2988.872678 0.8208 0.8238 0.8267 0.8292 0.8316
2993.559269 0.8336 0.8356 0.8376 0.8407 0.8457
2998.245859 0.8500 0.8531 0.8555 0.8571 0.8584
3002.932450 0.8594 0.8602 0.8607 0.8610 0.8610
3007.619041 0.8612 0.8617 0.8622 0.8627 0.8630
3012.305631 0.8630 0.8632 0.8638 0.8640 0.8640
3016.992222 0.8640 0.8640 0.8640 0.8640 0.8640
3021.678813 0.8640 0.8640 0.8640 0.8637 0.8632
3026.365403 0.8630 0.8630 0.8627 0.8622 0.8617
3031.051994 0.8612 0.8607 0.8602 0.8590 0.8575
3035.738585 0.8570 0.8570 0.8570 0.8570 0.8570
3040.425175 0.8570 0.8570 0.8570 0.8570 0.8570
3045.111766 0.8574 0.8579 0.8588 0.8598 0.8604
3049.798357 0.8609 0.8614 0.8619 0.8624 0.8629
3054.484947 0.8639 0.8649 0.8659 0.8669 0.8679
3059.171538 0.8689 0.8695 0.8700 0.8710 0.8720
3063.858129 0.8730 0.8740 0.8740 0.8740 0.8745
3068.544719 0.8750 0.8750 0.8750 0.8750 0.8750
3073.231310 0.8750 0.8750 0.8750 0.8750 0.8750
3077.917901 0.8750 0.8750 0.8750 0.8750 0.8750
3082.604491 0.8750 0.8750 0.8750 0.8749 0.8744
3087.291082 0.8740 0.8740 0.8740 0.8740 0.8740
3091.977673 0.8740 0.8740 0.8740 0.8740 0.8740
3096.664263 0.8740 0.8740 0.8737 0.8727 0.8720
3101.350854 0.8720 0.8720 0.8720 0.8720 0.8720
3106.037445 0.8720 0.8720 0.8720 0.8720 0.8718
3110.724035 0.8713 0.8710 0.8710 0.8710 0.8710
3115.410626 0.8710 0.8710 0.8708 0.8703 0.8700
3120.097217 0.8700 0.8695 0.8685 0.8680 0.8680
3124.783807 0.8677 0.8672 0.8670 0.8670 0.8661
3129.470398 0.8646 0.8640 0.8640 0.8637 0.8632
3134.156989 0.8624 0.8614 0.8610 0.8610 0.8610
3138.843579 0.8610 0.8610 0.8610 0.8610 0.8610
3143.530170 0.8610 0.8610 0.8614 0.8619 0.8624
3148.216761 0.8629 0.8634 0.8639 0.8644 0.8649
3152.903351 0.8658 0.8668 0.8674 0.8679 0.8684
3157.589942 0.8689 0.8690 0.8690 0.8694 0.8699
3162.276533 0.8700 0.8700 0.8709 0.8719 0.8729
3166.963123 0.8739 0.8740 0.8740 0.8750 0.8760
3171.649714 0.8765 0.8770 0.8770 0.8770 0.8775
3176.336305 0.8780 0.8780 0.8780 0.8780 0.8780
3181.022896 0.8780 0.8780 0.8785 0.8790 0.8790
3185.709486 0.8790 0.8790 0.8790 0.8790 0.8790
3190.396077 0.8790 0.8790 0.8790 0.8790 0.8790
3195.082668 0.8790 0.8790 0.8792 0.8802 0.8811
3199.769258 0.8816 0.8820 0.8820 0.8821 0.8826
3204.455849 0.8831 0.8836 0.8840 0.8840 0.8842
3209.142440 0.8847 0.8852 0.8857 0.8860 0.8860
3213.829030 0.8864 0.8874 0.8882 0.8887 0.8890
3218.515621 0.8890 0.8892 0.8897 0.8902 0.8907
3223.202212 0.8912 0.8917 0.8922 0.8927 0.8930
3227.888802 0.8930 0.8930 0.8930 0.8935 0.8945
3232.575393 0.8950 0.8950 0.8953 0.8958 0.8960
3237.261984 0.8960 0.8960 0.8960 0.8963 0.8968
3241.948574 0.8970 0.8970 0.8973 0.8978 0.8980
3246.635165 0.8980 0.8983 0.8989 0.8994 0.8999
3251.321756 0.9007 0.9017 0.9020 0.9020 0.9024
3256.008346 0.9029 0.9030 0.9030 0.9030 0.9030
3260.694937 0.9034 0.9039 0.9040 0.9040 0.9040
3265.381528 0.9040 0.9040 0.9040 0.9040 0.9040
3270.068118 0.9040 0.9040 0.9040 0.9040 0.9040
3274.754709 0.9040 0.9040 0.9040 0.9040 0.9040
3279.441300 0.9040 0.9040 0.9040 0.9040 0.9035
3284.127890 0.9030 0.9035 0.9040 0.9040 0.9040
3288.814481 0.9040 0.9040 0.9040 0.9040 0.9040
3293.501072 0.9040 0.9040 0.9040 0.9040 0.9040
3298.187662 0.9040 0.9040 0.9040 0.9040 0.9040
3302.874253 0.9040 0.9040 0.9040 0.9040 0.9040
3307.560844 0.9040 0.9040 0.9040 0.9040 0.9040
3312.247434 0.9040 0.9040 0.9040 0.9040 0.9042
3316.934025 0.9047 0.9050 0.9050 0.9050 0.9050
3321.620616 0.9050 0.9050 0.9050 0.9050 0.9050
3326.307206 0.9050 0.9050 0.9050 0.9050 0.9050
3330.993797 0.9050 0.9050 0.9050 0.9050 0.9050
3335.680388 0.9050 0.9050 0.9050 0.9050 0.9050
3340.366978 0.9050 0.9050 0.9050 0.9050 0.9050
3345.053569 0.9050 0.9050 0.9050 0.9050 0.9050
3349.740160 0.9050 0.9050 0.9050 0.9050 0.9050
3354.426750 0.9050 0.9050 0.9050 0.9050 0.9050
3359.113341 0.9050 0.9050 0.9050 0.9050 0.9050
3363.799932 0.9050 0.9050 0.9050 0.9050 0.9050
3368.486522 0.9050 0.9050 0.9050 0.9050 0.9050
3373.173113 0.9050 0.9050 0.9050 0.9050 0.9050
3377.859704 0.9050 0.9050 0.9050 0.9050 0.9050
3382.546294 0.9050 0.9050 0.9050 0.9050 0.9050
3387.232885 0.9050 0.9050 0.9050 0.9050 0.9050
3391.919476 0.9050 0.9050 0.9050 0.9050 0.9051
3396.606066 0.9061 0.9073 0.9098 0.9121 0.9126
3401.292657 0.9129 0.9124 0.9120 0.9120 0.9118
3405.979248 0.9108 0.9099 0.9094 0.9088 0.9078
3410.665838 0.9063 0.9027 0.8998 0.8987 0.8980
3415.352429 0.8980 0.8988 0.9019 0.9040 0.9040
3420.039020 0.9042 0.9047 0.9052 0.9057 0.9060
3424.725610 0.9060 0.9060 0.9060 0.9060 0.9060
3429.412201 0.9060 0.9060 0.9060 0.9060 0.9060
3434.098792 0.9060 0.9060 0.9060 0.9058 0.9053
3438.785382 0.9050 0.9050 0.9048 0.9042 0.9040
3443.471973 0.9040 0.9040 0.9040 0.9040 0.9040
3448.158564 0.9040 0.9040 0.9040 0.9040 0.9040
3452.845154 0.9040 0.9040 0.9040 0.9040 0.9040
3457.531745 0.9040 0.9040 0.9040 0.9040 0.9040
3462.218336 0.9040 0.9040 0.9040 0.9040 0.9040
3466.904927 0.9044 0.9049 0.9050 0.9050 0.9050
3471.591517 0.9050 0.9050 0.9050 0.9050 0.9050
3476.278108 0.9050 0.9050 0.9050 0.9050 0.9050
3480.964699 0.9050 0.9050 0.9050 0.9050 0.9050
3485.651289 0.9050 0.9050 0.9050 0.9050 0.9050
3490.337880 0.9050 0.9050 0.9050 0.9050 0.9050
3495.024471 0.9050 0.9050 0.9050 0.9050 0.9050
3499.711061 0.9050 0.9050 0.9050 0.9050 0.9050
3504.397652 0.9050 0.9050 0.9050 0.9050 0.9050
3509.084243 0.9050 0.9050 0.9050 0.9050 0.9050
3513.770833 0.9050 0.9050 0.9050 0.9050 0.9050
3518.457424 0.9050 0.9050 0.9051 0.9056 0.9059
3523.144015 0.9054 0.9049 0.9043 0.9040 0.9040
3527.830605 0.9040 0.9040 0.9040 0.9040 0.9040
3532.517196 0.9040 0.9040 0.9040 0.9042 0.9047
3537.203787 0.9052 0.9057 0.9058 0.9053 0.9050
3541.890377 0.9050 0.9048 0.9043 0.9040 0.9040
3546.576968 0.9038 0.9032 0.9030 0.9030 0.9027
3551.263559 0.9022 0.9015 0.9004 0.8994 0.8984
3555.950149 0.8980 0.8980 0.8983 0.8988 0.9005
3560.636740 0.9031 0.9046 0.9057 0.9060 0.9060
3565.323331 0.9060 0.9060 0.9053 0.9043 0.9033
3570.009921 0.9023 0.9013 0.9003 0.9007 0.9017
3574.696512 0.9024 0.9029 0.9030 0.9030 0.9030
3579.383103 0.9030 0.9026 0.9021 0.9012 0.9002
3584.069693 0.9000 0.9000 0.8996 0.8991 0.8981
3588.756284 0.8971 0.8966 0.8960 0.8946 0.8931
3593.442875 0.8930 0.8930 0.8930 0.8930 0.8940
3598.129465 0.8950 0.8955 0.8960 0.8965 0.8970
3602.816056 0.8970 0.8970 0.8970 0.8970 0.8970
3607.502647 0.8970 0.8970 0.8970 0.8965 0.8960
3612.189237 0.8960 0.8960 0.8960 0.8960 0.8960
3616.875828 0.8960 0.8960 0.8960 0.8960 0.8960
3621.562419 0.8960 0.8960 0.8960 0.8960 0.8960
3626.249009 0.8960 0.8960 0.8959 0.8954 0.8950
3630.935600 0.8950 0.8950 0.8950 0.8947 0.8937
3635.622191 0.8930 0.8930 0.8928 0.8923 0.8920
3640.308781 0.8920 0.8920 0.8920 0.8918 0.8913
3644.995372 0.8908 0.8903 0.8898 0.8893 0.8888
3649.681963 0.8883 0.8880 0.8880 0.8873 0.8857
3654.368553 0.8850 0.8850 0.8845 0.8835 0.8830
3659.055144 0.8830 0.8830 0.8830 0.8833 0.8838
3663.741735 0.8855 0.8880 0.8893 0.8898 0.8900
3668.428325 0.8900 0.8900 0.8900 0.8903 0.8908
3673.114916 0.8907 0.8902 0.8900 0.8900 0.8896
3677.801507 0.8891 0.8890 0.8890 0.8890 0.8890
3682.488097 0.8890 0.8890 0.8890 0.8890 0.8890
3687.174688 0.8890 0.8890 0.8890 0.8890 0.8890
3691.861279 0.8886 0.8881 0.8880 0.8880 0.8880
3696.547869 0.8880 0.8871 0.8861 0.8860 0.8860
3701.234460 0.8860 0.8860 0.8860 0.8860 0.8855
3705.921051 0.8850 0.8850 0.8850 0.8845 0.8840
3710.607641 0.8840 0.8840 0.8835 0.8830 0.8830
3715.294232 0.8830 0.8830 0.8830 0.8830 0.8830
3719.980823 0.8830 0.8830 0.8830 0.8829 0.8824
3724.667413 0.8820 0.8820 0.8820 0.8820 0.8819
3729.354004 0.8814 0.8810 0.8810 0.8810 0.8810
3734.040595 0.8810 0.8810 0.8807 0.8797 0.8789
3738.727186 0.8784 0.8780 0.8780 0.8780 0.8780
3743.413776 0.8778 0.8773 0.8768 0.8763 0.8758
3748.100367 0.8753 0.8750 0.8750 0.8752 0.8757
3752.786958 0.8760 0.8760 0.8764 0.8775 0.8787
3757.473548 0.8802 0.8812 0.8817 0.8827 0.8842
3762.160139 0.8850 0.8850 0.8853 0.8858 0.8860
3766.846730 0.8860 0.8860 0.8860 0.8866 0.8876
3771.533320 0.8880 0.8880 0.8880 0.8880 0.8880
3776.219911 0.8880 0.8880 0.8880 0.8880 0.8880
3780.906502 0.8880 0.8880 0.8880 0.8880 0.8880
3785.593092 0.8880
##END=
