##TITLE=MERCAPTOACETAMIDE
##JCAMP-DX=4.24
##DATA TYPE=INFRARED SPECTRUM
##CLASS=COBLENTZ
##ORIGIN=ARTHUR D. LITTLE, INC.
##OWNER=COBLENTZ SOCIETY
Collection (C) 2018 copyright by the U.S. Secretary of Commerce
on behalf of the United States of America. All rights reserved.
##DATE=Not specified, most likely prior to 1970
##NAMES=2-sulfanylacetamide
##CAS REGISTRY NO=758-08-7
##MOLFORM=C2 H5 N S O
##MP=54-56 C
##SOURCE REFERENCE=COBLENTZ NO. 4587
##$NIST SOURCE=COBLENTZ
##$NIST IMAGE=cob4587
##SPECTROMETER/DATA SYSTEM=Not specified, most likely a prism, grating, or hybrid spectrometer.
##STATE=SOLID (MINERAL OIL MULL)
##SAMPLING PROCEDURE=TRANSMISSION
##RESOLUTION=4
##DATA PROCESSING=DIGITIZED BY NIST FROM HARD COPY
##XUNITS=MICROMETERS
##YUNITS=TRANSMITTANCE
##XFACTOR=1.000000
##YFACTOR=1
##DELTAX=000.006039
##FIRSTX=2.517
##LASTX=15.0063
##FIRSTY=0.956
##MAXX=15.0063
##MINX=2.517
##MAXY=0.966
##MINY=0.015
##NPOINTS=2069
##XYDATA=(X++(Y..Y))
2.517000 0.9560 0.9560 0.9560 0.9560 0.9560
2.547211 0.9560 0.9560 0.9550 0.9530 0.9510
2.577000 0.9460 0.9440 0.9390 0.9340 0.9310
2.607211 0.9250 0.9210 0.9190 0.9140 0.9090
2.638000 0.9060 0.8950 0.8810 0.8740 0.8600
2.668211 0.8530 0.8450 0.8370 0.8210 0.8160
2.698000 0.8120 0.8030 0.7970 0.7930 0.7590
2.728211 0.7540 0.7240 0.6870 0.6650 0.6440
2.758000 0.6210 0.6000 0.5690 0.5540 0.5040
2.788211 0.4860 0.4710 0.4510 0.4220 0.4030
2.819000 0.3730 0.3500 0.3250 0.2970 0.2720
2.849211 0.2390 0.2240 0.2000 0.1730 0.1440
2.879000 0.1260 0.1000 0.0840 0.0600 0.0360
2.909211 0.0220 0.0160 0.0150 0.0160 0.0180
2.940000 0.0240 0.0300 0.0360 0.0450 0.0490
2.970211 0.0510 0.0540 0.0560 0.0560 0.0570
3.000000 0.0570 0.0590 0.0600 0.0600 0.0600
3.030211 0.0610 0.0610 0.0620 0.0620 0.0620
3.060000 0.0630 0.0650 0.0660 0.0670 0.0690
3.090211 0.0730 0.0740 0.0810 0.0950 0.1130
3.121000 0.1260 0.1400 0.1590 0.1660 0.1790
3.151211 0.1900 0.2010 0.2150 0.2280 0.2420
3.181000 0.2530 0.2670 0.2790 0.2900 0.3060
3.211211 0.3180 0.3280 0.3480 0.3590 0.3690
3.242000 0.3790 0.3840 0.4020 0.4150 0.4310
3.272211 0.4420 0.4540 0.4670 0.4770 0.4830
3.302000 0.4870 0.4910 0.4920 0.4930 0.4930
3.332211 0.4950 0.4970 0.5040 0.5160 0.5330
3.362000 0.6030 0.6180 0.6300 0.6380 0.6480
3.392211 0.6600 0.6750 0.7040 0.7100 0.7220
3.423000 0.7310 0.7370 0.7390 0.7390 0.7400
3.453211 0.7400 0.7400 0.7390 0.7360 0.7340
3.483000 0.7310 0.7240 0.7120 0.6710 0.6500
3.513211 0.6390 0.6210 0.6140 0.6090 0.6010
3.544000 0.5770 0.5770 0.5910 0.5960 0.6080
3.574211 0.6270 0.6710 0.6900 0.7060 0.7200
3.604000 0.7360 0.7510 0.7680 0.7810 0.7930
3.634211 0.7980 0.8080 0.8130 0.8150 0.8160
3.664000 0.8190 0.8190 0.8200 0.8200 0.8200
3.694211 0.8210 0.8210 0.8220 0.8220 0.8240
3.725000 0.8260 0.8280 0.8300 0.8330 0.8340
3.755211 0.8360 0.8370 0.8370 0.8360 0.8210
3.785000 0.8140 0.8090 0.7970 0.7920 0.7790
3.815211 0.7680 0.7500 0.7390 0.7240 0.7020
3.845000 0.6790 0.6530 0.6440 0.6310 0.6250
3.875211 0.6250 0.6330 0.6450 0.6570 0.6690
3.906000 0.6780 0.7160 0.7570 0.7810 0.7950
3.936211 0.8080 0.8210 0.8260 0.8300 0.8320
3.966000 0.8340 0.8380 0.8400 0.8420 0.8430
3.996211 0.8440 0.8460 0.8490 0.8540 0.8590
4.027000 0.8630 0.8680 0.8710 0.8720 0.8770
4.057211 0.8870 0.8890 0.8920 0.8960 0.9020
4.087000 0.9060 0.9090 0.9120 0.9160 0.9190
4.117211 0.9200 0.9210 0.9220 0.9220 0.9240
4.147000 0.9240 0.9250 0.9250 0.9260 0.9270
4.177211 0.9270 0.9280 0.9300 0.9310 0.9320
4.208000 0.9330 0.9330 0.9360 0.9360 0.9370
4.238211 0.9370 0.9370 0.9370 0.9340 0.9340
4.268000 0.9320 0.9310 0.9270 0.9220 0.9160
4.298211 0.9120 0.9070 0.9020 0.8960 0.8950
4.329000 0.8910 0.8890 0.8860 0.8850 0.8850
4.359211 0.8860 0.8870 0.8890 0.8910 0.8920
4.389000 0.8930 0.8970 0.8970 0.9040 0.9070
4.419211 0.9080 0.9100 0.9180 0.9220 0.9260
4.449000 0.9300 0.9300 0.9240 0.9150 0.9130
4.479211 0.9100 0.9090 0.9070 0.9040 0.9040
4.510000 0.9060 0.9100 0.9140 0.9160 0.9190
4.540211 0.9260 0.9280 0.9310 0.9360 0.9380
4.570000 0.9400 0.9430 0.9430 0.9440 0.9440
4.600211 0.9450 0.9460 0.9460 0.9480 0.9490
4.631000 0.9500 0.9510 0.9530 0.9530 0.9540
4.661211 0.9550 0.9560 0.9590 0.9600 0.9610
4.691000 0.9610 0.9610 0.9620 0.9620 0.9620
4.721211 0.9620 0.9620 0.9630 0.9630 0.9630
4.751000 0.9630 0.9630 0.9630 0.9650 0.9650
4.781211 0.9650 0.9660 0.9660 0.9660 0.9660
4.812000 0.9660 0.9650 0.9630 0.9620 0.9620
4.842211 0.9610 0.9600 0.9600 0.9570 0.9560
4.872000 0.9550 0.9540 0.9510 0.9380 0.9240
4.902211 0.9210 0.9180 0.9130 0.9100 0.9080
4.933000 0.9030 0.9000 0.8950 0.8890 0.8860
4.963211 0.8800 0.8790 0.8770 0.8740 0.8730
4.993000 0.8720 0.8720 0.8730 0.8860 0.8920
5.023211 0.9060 0.9180 0.9270 0.9320 0.9340
5.053000 0.9380 0.9420 0.9430 0.9440 0.9450
5.083211 0.9460 0.9460 0.9480 0.9480 0.9490
5.114000 0.9500 0.9500 0.9510 0.9510 0.9530
5.144211 0.9530 0.9540 0.9540 0.9540 0.9540
5.174000 0.9550 0.9560 0.9560 0.9570 0.9570
5.204211 0.9590 0.9590 0.9590 0.9590 0.9590
5.235000 0.9590 0.9590 0.9570 0.9570 0.9560
5.265211 0.9550 0.9540 0.9510 0.9500 0.9480
5.295000 0.9460 0.9440 0.9420 0.9390 0.9380
5.325211 0.9370 0.9360 0.9340 0.9320 0.9310
5.355000 0.9280 0.9250 0.9220 0.9210 0.9190
5.385211 0.9160 0.9140 0.9100 0.9080 0.9040
5.416000 0.9010 0.8980 0.8950 0.8910 0.8890
5.446211 0.8870 0.8810 0.8770 0.8720 0.8680
5.476000 0.8650 0.8620 0.8590 0.8540 0.8460
5.506211 0.8400 0.8360 0.8310 0.8260 0.8220
5.536000 0.8140 0.7980 0.7920 0.7630 0.7460
5.566211 0.7330 0.7200 0.7020 0.6810 0.6560
5.597000 0.6450 0.6330 0.6300 0.6270 0.6270
5.627211 0.6300 0.6360 0.6400 0.6560 0.6670
5.657000 0.6870 0.6950 0.6980 0.7000 0.7040
5.687211 0.7040 0.7020 0.6980 0.6960 0.6890
5.718000 0.6790 0.6750 0.6650 0.6590 0.6180
5.748211 0.5970 0.5780 0.5650 0.5450 0.5280
5.778000 0.5120 0.4980 0.4770 0.4610 0.4400
5.808211 0.4210 0.4100 0.3960 0.3770 0.3600
5.838000 0.3420 0.3040 0.2900 0.2710 0.2530
5.868211 0.2280 0.2070 0.1870 0.1730 0.1510
5.899000 0.1370 0.1200 0.1080 0.1000 0.0900
5.929211 0.0890 0.0860 0.0810 0.0780 0.0740
5.959000 0.0720 0.0710 0.0680 0.0650 0.0620
5.989211 0.0600 0.0590 0.0570 0.0560 0.0560
6.020000 0.0570 0.0590 0.0600 0.0610 0.0620
6.050211 0.0630 0.0630 0.0650 0.0650 0.0630
6.080000 0.0620 0.0600 0.0550 0.0510 0.0440
6.110211 0.0360 0.0300 0.0280 0.0270 0.0270
6.140000 0.0270 0.0270 0.0270 0.0270 0.0270
6.170211 0.0270 0.0270 0.0270 0.0270 0.0280
6.201000 0.0300 0.0300 0.0300 0.0310 0.0310
6.231211 0.0320 0.0330 0.0360 0.0400 0.0450
6.261000 0.0500 0.0530 0.0620 0.0750 0.1000
6.291211 0.1020 0.1100 0.1260 0.1430 0.1630
6.322000 0.1840 0.2060 0.2130 0.2150 0.2200
6.352211 0.2310 0.2380 0.2510 0.2540 0.2720
6.382000 0.2810 0.2900 0.2980 0.3210 0.3330
6.412211 0.3430 0.3540 0.3590 0.3620 0.3650
6.442000 0.3670 0.3690 0.3720 0.3780 0.3840
6.472211 0.3870 0.3950 0.3960 0.3970 0.3970
6.503000 0.3970 0.3970 0.3970 0.3970 0.3970
6.533211 0.3970 0.3980 0.3980 0.3980 0.3980
6.563000 0.3980 0.3980 0.3980 0.3980 0.3980
6.593211 0.3980 0.3980 0.3980 0.3980 0.3980
6.624000 0.3980 0.3970 0.3960 0.3870 0.3840
6.654211 0.3790 0.3780 0.3770 0.3740 0.3670
6.684000 0.3620 0.3570 0.3540 0.3530 0.3480
6.714211 0.3440 0.3430 0.3420 0.3420 0.3430
6.744000 0.3440 0.3440 0.3450 0.3440 0.3430
6.774211 0.3380 0.3280 0.3160 0.3090 0.3030
6.805000 0.2960 0.2930 0.2920 0.2910 0.2900
6.835211 0.2900 0.2900 0.2890 0.2860 0.2850
6.865000 0.2780 0.2710 0.2630 0.2620 0.2610
6.895211 0.2600 0.2590 0.2530 0.2500 0.2360
6.926000 0.2250 0.2100 0.2070 0.2040 0.2000
6.956211 0.1920 0.1850 0.1770 0.1680 0.1620
6.986000 0.1600 0.1560 0.1390 0.1260 0.1080
7.016211 0.0970 0.0930 0.0870 0.0840 0.0810
7.046000 0.0770 0.0690 0.0630 0.0630 0.0660
7.076211 0.0750 0.0850 0.0910 0.0950 0.0980
7.107000 0.1030 0.1080 0.1130 0.1140 0.1150
7.137211 0.1180 0.1140 0.1090 0.1010 0.0980
7.167000 0.0960 0.0850 0.0750 0.0560 0.0500
7.197211 0.0340 0.0310 0.0300 0.0210 0.0190
7.227000 0.0180 0.0160 0.0150 0.0160 0.0190
7.257211 0.0210 0.0310 0.0430 0.0510 0.0650
7.288000 0.0770 0.0900 0.1260 0.1330 0.1420
7.318211 0.1550 0.1590 0.1620 0.1710 0.1750
7.348000 0.1790 0.1810 0.1860 0.1900 0.1930
7.378211 0.2000 0.2020 0.2140 0.2160 0.2190
7.409000 0.2200 0.2220 0.2240 0.2250 0.2260
7.439211 0.2270 0.2300 0.2330 0.2370 0.2390
7.469000 0.2430 0.2490 0.2500 0.2530 0.2560
7.499211 0.2600 0.2650 0.2670 0.2680 0.2710
7.529000 0.2730 0.2750 0.2770 0.2800 0.2810
7.559211 0.2830 0.2840 0.2850 0.2860 0.2890
7.590000 0.2930 0.3010 0.3150 0.3180 0.3300
7.620211 0.3400 0.3540 0.3670 0.3800 0.3930
7.650000 0.4000 0.4120 0.4220 0.4300 0.4390
7.680211 0.4500 0.4610 0.4680 0.4800 0.4890
7.711000 0.5000 0.5040 0.5160 0.5220 0.5310
7.741211 0.5400 0.5490 0.5550 0.5560 0.5570
7.771000 0.5600 0.5610 0.5620 0.5620 0.5650
7.801211 0.5650 0.5660 0.5670 0.5670 0.5680
7.831000 0.5680 0.5690 0.5690 0.5710 0.5710
7.861211 0.5710 0.5690 0.5670 0.5660 0.5630
7.892000 0.5530 0.5160 0.4970 0.4870 0.4740
7.922211 0.4550 0.4360 0.4240 0.3980 0.3690
7.952000 0.3450 0.3370 0.3270 0.3040 0.2810
7.982211 0.2590 0.2360 0.2130 0.1900 0.1630
8.013000 0.1480 0.1480 0.1730 0.1980 0.2240
8.043211 0.2490 0.2740 0.3000 0.3260 0.3510
8.073000 0.4210 0.4770 0.5010 0.5090 0.5210
8.103211 0.5250 0.5270 0.5310 0.5340 0.5390
8.133000 0.5400 0.5440 0.5460 0.5490 0.5510
8.163211 0.5540 0.5560 0.5600 0.5600 0.5610
8.194000 0.5630 0.5650 0.5680 0.5710 0.5730
8.224211 0.5750 0.5750 0.5620 0.5600 0.5500
8.254000 0.5450 0.5420 0.5370 0.5340 0.5300
8.284211 0.5280 0.5000 0.4900 0.4860 0.4670
8.315000 0.4610 0.4540 0.4400 0.4380 0.4250
8.345211 0.4140 0.4010 0.3960 0.3900 0.3900
8.375000 0.4060 0.4220 0.4400 0.4480 0.4720
8.405211 0.4900 0.5260 0.5460 0.5600 0.5620
8.435000 0.5720 0.5770 0.5860 0.5930 0.6010
8.465211 0.6060 0.6130 0.6160 0.6220 0.6300
8.496000 0.6360 0.6360 0.6380 0.6420 0.6450
8.526211 0.6490 0.6510 0.6610 0.6660 0.6710
8.556000 0.6720 0.6740 0.6770 0.6800 0.6830
8.586211 0.6850 0.6890 0.6920 0.6960 0.6980
8.617000 0.7040 0.7060 0.7070 0.7080 0.7080
8.647211 0.7090 0.7120 0.7150 0.7160 0.7190
8.677000 0.7200 0.7220 0.7240 0.7250 0.7260
8.707211 0.7270 0.7280 0.7280 0.7280 0.7300
8.737000 0.7300 0.7300 0.7300 0.7300 0.7300
8.767211 0.7300 0.7310 0.7310 0.7310 0.7310
8.798000 0.7300 0.7280 0.7280 0.7270 0.7250
8.828211 0.7240 0.7210 0.7180 0.7100 0.7040
8.858000 0.6970 0.6920 0.6900 0.6850 0.6800
8.888211 0.6720 0.6670 0.6610 0.6550 0.6510
8.918000 0.6460 0.6370 0.6310 0.6240 0.6150
8.948211 0.6120 0.6020 0.5930 0.5850 0.5810
8.979000 0.5800 0.5670 0.5650 0.5510 0.5440
9.009211 0.5370 0.5270 0.5190 0.5100 0.5040
9.039000 0.5000 0.4810 0.4740 0.4660 0.4550
9.069211 0.4480 0.4420 0.4330 0.4240 0.4120
9.100000 0.4060 0.4000 0.3950 0.3900 0.3850
9.130211 0.3830 0.3770 0.3670 0.3630 0.3560
9.160000 0.3560 0.3770 0.3870 0.4320 0.4460
9.190211 0.4730 0.4890 0.5040 0.5330 0.5620
9.220000 0.5730 0.5790 0.5870 0.6010 0.6190
9.250211 0.6330 0.6440 0.6500 0.6610 0.6660
9.281000 0.6730 0.6890 0.6980 0.7060 0.7070
9.311211 0.7090 0.7130 0.7180 0.7210 0.7250
9.341000 0.7280 0.7320 0.7390 0.7450 0.7490
9.371211 0.7510 0.7550 0.7570 0.7600 0.7610
9.402000 0.7620 0.7630 0.7650 0.7660 0.7680
9.432211 0.7690 0.7720 0.7730 0.7730 0.7740
9.462000 0.7750 0.7770 0.7780 0.7830 0.7850
9.492211 0.7870 0.7900 0.7910 0.7920 0.7930
9.522000 0.7930 0.7930 0.7950 0.7950 0.7950
9.552211 0.7950 0.7960 0.7960 0.7970 0.7970
9.583000 0.7980 0.8000 0.8000 0.8010 0.8020
9.613211 0.8030 0.8060 0.8080 0.8100 0.8130
9.643000 0.8150 0.8160 0.8190 0.8200 0.8200
9.673211 0.8210 0.8220 0.8220 0.8240 0.8240
9.704000 0.8240 0.8240 0.8240 0.8240 0.8220
9.734211 0.8220 0.8210 0.8200 0.8190 0.8160
9.764000 0.8160 0.8140 0.8130 0.8120 0.8100
9.794211 0.8080 0.8080 0.8030 0.8010 0.7980
9.824000 0.7930 0.7900 0.7740 0.7600 0.7440
9.854211 0.7280 0.7090 0.6930 0.6780 0.6620
9.885000 0.6390 0.6150 0.6080 0.5950 0.5810
9.915211 0.5770 0.5620 0.5530 0.5420 0.5420
9.945000 0.5560 0.5730 0.5870 0.5930 0.6090
9.975211 0.6340 0.6620 0.6910 0.7150 0.7330
10.006000 0.7480 0.7590 0.7650 0.7680 0.7690
10.036211 0.7740 0.7770 0.7800 0.7850 0.7890
10.066000 0.7930 0.7950 0.7960 0.7980 0.8030
10.096211 0.8070 0.8080 0.8120 0.8140 0.8200
10.126000 0.8210 0.8250 0.8270 0.8320 0.8360
10.156211 0.8370 0.8390 0.8420 0.8430 0.8450
10.187000 0.8460 0.8480 0.8490 0.8500 0.8510
10.217211 0.8550 0.8570 0.8600 0.8610 0.8610
10.247000 0.8630 0.8650 0.8660 0.8670 0.8670
10.277211 0.8680 0.8680 0.8680 0.8680 0.8680
10.307000 0.8690 0.8690 0.8690 0.8690 0.8710
10.337211 0.8710 0.8720 0.8730 0.8730 0.8740
10.368000 0.8740 0.8740 0.8750 0.8750 0.8750
10.398211 0.8750 0.8750 0.8750 0.8750 0.8750
10.428000 0.8750 0.8750 0.8770 0.8770 0.8770
10.458211 0.8770 0.8770 0.8770 0.8770 0.8770
10.489000 0.8770 0.8750 0.8750 0.8750 0.8770
10.519211 0.8770 0.8770 0.8770 0.8770 0.8770
10.549000 0.8770 0.8770 0.8770 0.8750 0.8750
10.579211 0.8750 0.8750 0.8750 0.8750 0.8750
10.609000 0.8740 0.8740 0.8740 0.8740 0.8730
10.639211 0.8730 0.8730 0.8720 0.8720 0.8720
10.670000 0.8710 0.8710 0.8690 0.8690 0.8690
10.700211 0.8680 0.8670 0.8660 0.8660 0.8660
10.730000 0.8660 0.8670 0.8670 0.8670 0.8680
10.760211 0.8680 0.8680 0.8680 0.8690 0.8690
10.791000 0.8690 0.8690 0.8690 0.8690 0.8690
10.821211 0.8680 0.8680 0.8680 0.8670 0.8670
10.851000 0.8670 0.8660 0.8660 0.8650 0.8630
10.881211 0.8630 0.8620 0.8620 0.8620 0.8620
10.911000 0.8610 0.8610 0.8610 0.8600 0.8600
10.941211 0.8600 0.8590 0.8570 0.8570 0.8560
10.972000 0.8560 0.8560 0.8550 0.8550 0.8540
11.002211 0.8540 0.8540 0.8530 0.8530 0.8530
11.032000 0.8510 0.8510 0.8510 0.8500 0.8490
11.062211 0.8480 0.8480 0.8460 0.8460 0.8460
11.093000 0.8460 0.8460 0.8450 0.8450 0.8450
11.123211 0.8440 0.8440 0.8440 0.8430 0.8400
11.153000 0.8400 0.8380 0.8320 0.8280 0.8250
11.183211 0.8220 0.8140 0.8100 0.8070 0.8030
11.213000 0.7960 0.7900 0.7810 0.7780 0.7750
11.243211 0.7750 0.7740 0.7740 0.7750 0.7750
11.274000 0.7770 0.7780 0.7790 0.7790 0.7810
11.304211 0.7830 0.7840 0.7860 0.7870 0.7890
11.334000 0.7900 0.7910 0.7920 0.7930 0.7950
11.364211 0.7960 0.7960 0.7970 0.7980 0.7980
11.395000 0.8000 0.8010 0.8010 0.8020 0.8020
11.425211 0.8030 0.8030 0.8040 0.8040 0.8060
11.455000 0.8060 0.8070 0.8070 0.8080 0.8080
11.485211 0.8080 0.8080 0.8080 0.8070 0.8070
11.515000 0.8060 0.8040 0.8040 0.8030 0.8030
11.545211 0.8030 0.8020 0.8020 0.8010 0.8010
11.576000 0.8000 0.7980 0.7970 0.7960 0.7950
11.606211 0.7930 0.7920 0.7900 0.7870 0.7860
11.636000 0.7850 0.7810 0.7770 0.7740 0.7730
11.666211 0.7690 0.7680 0.7660 0.7630 0.7620
11.697000 0.7600 0.7560 0.7540 0.7510 0.7480
11.727211 0.7450 0.7420 0.7380 0.7360 0.7330
11.757000 0.7300 0.7270 0.7240 0.7210 0.7190
11.787211 0.7150 0.7120 0.7080 0.7060 0.7060
11.817000 0.6960 0.6920 0.6890 0.6850 0.6800
11.847211 0.6750 0.6720 0.6690 0.6620 0.6550
11.878000 0.6490 0.6380 0.6320 0.6310 0.6150
11.908211 0.6120 0.6100 0.6070 0.6060 0.6040
11.938000 0.6040 0.6060 0.6060 0.6080 0.6090
11.968211 0.6100 0.6120 0.6140 0.6160 0.6190
11.998000 0.6210 0.6280 0.6320 0.6440 0.6460
12.028211 0.6490 0.6510 0.6550 0.6600 0.6650
12.059000 0.6670 0.6720 0.6740 0.6770 0.6780
12.089211 0.6790 0.6790 0.6770 0.6740 0.6690
12.119000 0.6660 0.6560 0.6500 0.6400 0.6320
12.149211 0.6140 0.6020 0.5950 0.5830 0.5720
12.180000 0.5620 0.5460 0.5340 0.5270 0.5150
12.210211 0.5020 0.4960 0.4840 0.4720 0.4650
12.240000 0.4570 0.4460 0.4340 0.4260 0.4180
12.270211 0.4100 0.4040 0.4030 0.4030 0.4040
12.300000 0.4070 0.4090 0.4250 0.4330 0.4340
12.330211 0.4380 0.4430 0.4450 0.4480 0.4510
12.361000 0.4560 0.4840 0.4890 0.5010 0.5020
12.391211 0.5100 0.5150 0.5190 0.5220 0.5270
12.421000 0.5320 0.5370 0.5400 0.5420 0.5430
12.451211 0.5430 0.5430 0.5430 0.5430 0.5440
12.482000 0.5440 0.5450 0.5460 0.5480 0.5490
12.512211 0.5500 0.5510 0.5540 0.5540 0.5550
12.542000 0.5550 0.5560 0.5560 0.5560 0.5570
12.572211 0.5570 0.5570 0.5570 0.5570 0.5560
12.602000 0.5560 0.5560 0.5550 0.5540 0.5540
12.632211 0.5530 0.5510 0.5510 0.5500 0.5500
12.663000 0.5500 0.5490 0.5490 0.5490 0.5460
12.693211 0.5420 0.5370 0.5320 0.5280 0.5240
12.723000 0.5210 0.5200 0.5180 0.5150 0.5120
12.753211 0.5080 0.5030 0.5010 0.4860 0.4800
12.784000 0.4690 0.4590 0.4430 0.4360 0.4280
12.814211 0.4150 0.4060 0.3980 0.3800 0.3730
12.844000 0.3610 0.3500 0.3420 0.3330 0.3210
12.874211 0.3160 0.3020 0.2930 0.2850 0.2770
12.904000 0.2670 0.2590 0.2500 0.2380 0.2280
12.934211 0.2200 0.2030 0.1980 0.1830 0.1710
12.965000 0.1660 0.1590 0.1540 0.1460 0.1400
12.995211 0.1280 0.1200 0.1130 0.1060 0.1020
13.025000 0.0980 0.0960 0.0950 0.0930 0.0930
13.055211 0.0930 0.0950 0.0960 0.0970 0.1000
13.086000 0.1030 0.1060 0.1190 0.1250 0.1370
13.116211 0.1500 0.1570 0.1720 0.1850 0.2000
13.146000 0.2120 0.2260 0.2360 0.2510 0.2590
13.176211 0.2710 0.2810 0.2930 0.3030 0.3160
13.206000 0.3240 0.3300 0.3500 0.3570 0.3630
13.236211 0.3670 0.3720 0.3770 0.3830 0.3890
13.267000 0.3970 0.3970 0.4020 0.4060 0.4100
13.297211 0.4160 0.4210 0.4270 0.4310 0.4340
13.327000 0.4390 0.4430 0.4480 0.4530 0.4570
13.357211 0.4620 0.4650 0.4660 0.4680 0.4690
13.388000 0.4720 0.4730 0.4750 0.4780 0.4790
13.418211 0.4800 0.4810 0.4830 0.4830 0.4840
13.448000 0.4850 0.4860 0.4870 0.4890 0.4890
13.478211 0.4890 0.4890 0.4870 0.4860 0.4860
13.508000 0.4850 0.4850 0.4840 0.4840 0.4840
13.538211 0.4840 0.4840 0.4840 0.4840 0.4840
13.569000 0.4840 0.4840 0.4830 0.4800 0.4740
13.599211 0.4720 0.4680 0.4660 0.4610 0.4590
13.629000 0.4590 0.4570 0.4570 0.4570 0.4560
13.659211 0.4560 0.4560 0.4550 0.4540 0.4530
13.689000 0.4480 0.4430 0.4420 0.4420 0.4400
13.719211 0.4400 0.4400 0.4400 0.4390 0.4390
13.750000 0.4380 0.4380 0.4370 0.4360 0.4340
13.780211 0.4340 0.4330 0.4320 0.4310 0.4300
13.810000 0.4280 0.4280 0.4270 0.4270 0.4270
13.840211 0.4260 0.4260 0.4260 0.4270 0.4270
13.871000 0.4280 0.4280 0.4300 0.4300 0.4310
13.901211 0.4320 0.4320 0.4320 0.4330 0.4330
13.931000 0.4330 0.4330 0.4330 0.4330 0.4330
13.961211 0.4330 0.4320 0.4320 0.4320 0.4310
13.991000 0.4310 0.4320 0.4320 0.4320 0.4330
14.021211 0.4330 0.4340 0.4340 0.4360 0.4360
14.052000 0.4370 0.4370 0.4380 0.4390 0.4390
14.082211 0.4400 0.4400 0.4420 0.4430 0.4440
14.112000 0.4440 0.4450 0.4460 0.4460 0.4460
14.142211 0.4480 0.4480 0.4490 0.4490 0.4500
14.173000 0.4500 0.4510 0.4510 0.4510 0.4530
14.203211 0.4530 0.4530 0.4530 0.4530 0.4530
14.233000 0.4540 0.4540 0.4540 0.4550 0.4560
14.263211 0.4560 0.4560 0.4560 0.4560 0.4560
14.293000 0.4560 0.4560 0.4560 0.4560 0.4550
14.323211 0.4550 0.4550 0.4550 0.4550 0.4550
14.354000 0.4550 0.4550 0.4550 0.4550 0.4550
14.384211 0.4550 0.4560 0.4560 0.4560 0.4560
14.414000 0.4560 0.4560 0.4550 0.4550 0.4550
14.444211 0.4550 0.4550 0.4550 0.4550 0.4550
14.475000 0.4550 0.4550 0.4550 0.4560 0.4560
14.505211 0.4570 0.4570 0.4570 0.4570 0.4590
14.535000 0.4590 0.4600 0.4600 0.4600 0.4600
14.565211 0.4600 0.4600 0.4610 0.4610 0.4620
14.595000 0.4630 0.4650 0.4650 0.4660 0.4660
14.625211 0.4660 0.4660 0.4660 0.4660 0.4660
14.656000 0.4660 0.4660 0.4660 0.4660 0.4660
14.686211 0.4660 0.4660 0.4660 0.4660 0.4650
14.716000 0.4650 0.4650 0.4650 0.4650 0.4650
14.746211 0.4650 0.4650 0.4650 0.4650 0.4650
14.777000 0.4650 0.4650 0.4650 0.4650 0.4650
14.807211 0.4650 0.4660 0.4660 0.4660 0.4660
14.837000 0.4670 0.4670 0.4680 0.4680 0.4680
14.867211 0.4690 0.4690 0.4710 0.4720 0.4730
14.897000 0.4740 0.4740 0.4740 0.4750 0.4750
14.927211 0.4750 0.4750 0.4750 0.4750 0.4750
14.958000 0.4750 0.4740 0.4740 0.4740 0.4730
14.988211 0.4730 0.4730 0.4730 0.4730
##END=
