##TITLE=PROPANOIC ACID, 2,2-DICHLORO-
##JCAMP-DX=4.24
##DATA TYPE=INFRARED SPECTRUM
##CLASS=COBLENTZ III
##ORIGIN=DOW CHEMICAL COMPANY
##OWNER=COBLENTZ SOCIETY
Collection (C) 2018 copyright by the U.S. Secretary of Commerce
on behalf of the United States of America. All rights reserved.
##DATE=1981/08/20
##NAMES=2,2-dichloropropanoic acid
##CAS REGISTRY NO=75-99-0
##MOLFORM=C3 H4 Cl2 O2
##SOURCE REFERENCE=COBLENTZ NO. 10650
##$NIST SOURCE=COBLENTZ
##$NIST IMAGE=cob10650
##SPECTROMETER/DATA SYSTEM=PERKIN-ELMER 283
##STATE=NEAT
##PATH LENGTH=
$$SPECTRAL CONTAMINATION DUE TO H2O AROUND 3450, 1620 CM^-^1
$$ SEE SPECTRUM NO. 10646 FOR "SOLUTION" STATE
##SAMPLING PROCEDURE=TRANSMISSION
##RESOLUTION=4
##DATA PROCESSING=DIGITIZED BY NIST FROM HARD COPY (FROM TWO SEGMENTS)
##XUNITS=1/CM
##YUNITS=TRANSMITTANCE
##XFACTOR=1.000000
##YFACTOR=1
##DELTAX=1.151081
##FIRSTX=200.863
##LASTX=4017.85
##FIRSTY=0.09
##MAXX=4017.85
##MINX=200.863
##MAXY=0.848
##MINY=0.02
##NPOINTS=3317
##XYDATA=(X++(Y..Y))
200.863000 0.0900 0.0890 0.0880 0.0870 0.0860
206.618405 0.0830 0.0820 0.0810 0.0790 0.0740
212.373809 0.0740 0.0750 0.0770 0.0780 0.0780
218.129214 0.0790 0.0790 0.0770 0.0750 0.0730
223.884618 0.0700 0.0680 0.0630 0.0610 0.0600
229.640023 0.0580 0.0570 0.0560 0.0560 0.0570
235.395427 0.0570 0.0570 0.0570 0.0570 0.0550
241.150832 0.0550 0.0550 0.0540 0.0540 0.0540
246.906236 0.0510 0.0460 0.0410 0.0380 0.0340
252.661641 0.0310 0.0310 0.0310 0.0310 0.0310
258.417045 0.0300 0.0300 0.0300 0.0300 0.0300
264.172450 0.0300 0.0300 0.0290 0.0280 0.0280
269.927854 0.0280 0.0260 0.0240 0.0240 0.0240
275.683259 0.0240 0.0240 0.0240 0.0240 0.0230
281.438663 0.0230 0.0230 0.0230 0.0230 0.0230
287.194068 0.0230 0.0230 0.0230 0.0230 0.0230
292.949472 0.0230 0.0230 0.0220 0.0220 0.0210
298.704877 0.0210 0.0200 0.0200 0.0210 0.0210
304.460281 0.0210 0.0210 0.0210 0.0210 0.0200
310.215686 0.0200 0.0200 0.0200 0.0200 0.0210
315.971090 0.0220 0.0220 0.0220 0.0230 0.0230
321.726495 0.0220 0.0220 0.0220 0.0210 0.0210
327.481899 0.0220 0.0220 0.0220 0.0230 0.0230
333.237304 0.0230 0.0220 0.0220 0.0210 0.0210
338.992708 0.0210 0.0210 0.0210 0.0220 0.0220
344.748113 0.0220 0.0220 0.0220 0.0220 0.0220
350.503517 0.0220 0.0210 0.0200 0.0200 0.0200
356.258922 0.0210 0.0210 0.0220 0.0220 0.0220
362.014326 0.0230 0.0230 0.0240 0.0240 0.0260
367.769731 0.0260 0.0260 0.0260 0.0260 0.0260
373.525135 0.0260 0.0260 0.0260 0.0260 0.0260
379.280540 0.0260 0.0260 0.0260 0.0260 0.0260
385.035944 0.0260 0.0260 0.0260 0.0270 0.0270
390.791349 0.0280 0.0280 0.0290 0.0290 0.0290
396.546753 0.0300 0.0300 0.0310 0.0320 0.0320
402.302158 0.0320 0.0320 0.0320 0.0320 0.0320
408.057562 0.0320 0.0320 0.0320 0.0320 0.0320
413.812967 0.0320 0.0320 0.0310 0.0300 0.0300
419.568371 0.0290 0.0290 0.0280 0.0270 0.0270
425.323776 0.0270 0.0270 0.0260 0.0260 0.0260
431.079180 0.0240 0.0230 0.0230 0.0230 0.0230
436.834585 0.0220 0.0220 0.0220 0.0210 0.0210
442.589989 0.0210 0.0210 0.0210 0.0210 0.0210
448.345394 0.0210 0.0210 0.0210 0.0210 0.0210
454.100798 0.0210 0.0210 0.0210 0.0210 0.0210
459.856203 0.0210 0.0210 0.0210 0.0210 0.0220
465.611607 0.0220 0.0220 0.0220 0.0220 0.0220
471.367012 0.0230 0.0230 0.0230 0.0240 0.0240
477.122416 0.0260 0.0260 0.0270 0.0290 0.0300
482.877821 0.0300 0.0300 0.0310 0.0320 0.0320
488.633225 0.0340 0.0350 0.0360 0.0370 0.0370
494.388630 0.0380 0.0390 0.0390 0.0390 0.0400
500.144034 0.0410 0.0410 0.0430 0.0440 0.0450
505.899439 0.0460 0.0470 0.0470 0.0480 0.0490
511.654843 0.0510 0.0520 0.0530 0.0550 0.0560
517.410248 0.0600 0.0610 0.0620 0.0630 0.0640
523.165652 0.0650 0.0660 0.0700 0.0710 0.0740
528.921057 0.0800 0.0810 0.0850 0.0870 0.0890
534.676461 0.0900 0.0940 0.0990 0.1020 0.1030
540.431866 0.1110 0.1130 0.1250 0.1300 0.1320
546.187270 0.1420 0.1460 0.1500 0.1540 0.1600
551.942675 0.1650 0.1720 0.1750 0.1810 0.1899
557.698079 0.1910 0.2000 0.2100 0.2130 0.2230
563.453484 0.2250 0.2310 0.2400 0.2460 0.2510
569.208888 0.2600 0.2610 0.2700 0.2780 0.2900
574.964293 0.2940 0.3010 0.3020 0.3100 0.3140
580.719697 0.3200 0.3230 0.3260 0.3320 0.3410
586.475102 0.3440 0.3500 0.3510 0.3560 0.3610
592.230506 0.3690 0.3710 0.3800 0.3850 0.3920
597.985911 0.3970 0.4110 0.4309 0.4419 0.4519
603.741315 0.4540 0.4600 0.4620 0.4650 0.4700
609.496720 0.4720 0.4760 0.4790 0.4800 0.4810
615.252124 0.4820 0.4850 0.4860 0.4870 0.4890
621.007529 0.4890 0.4890 0.4890 0.4890 0.4890
626.762933 0.4880 0.4870 0.4860 0.4820 0.4800
632.518338 0.4750 0.4720 0.4630 0.4600 0.4511
638.273742 0.4460 0.4360 0.4250 0.4200 0.3960
644.029147 0.3830 0.3730 0.3531 0.3430 0.3340
649.784551 0.3090 0.2920 0.2830 0.2740 0.2690
655.539956 0.2610 0.2510 0.2490 0.2480 0.2470
661.295360 0.2470 0.2480 0.2490 0.2500 0.2530
667.050765 0.2560 0.2580 0.2610 0.2640 0.2670
672.806169 0.2690 0.2700 0.2740 0.2770 0.2850
678.561574 0.2900 0.3000 0.3020 0.3080 0.3100
684.316978 0.3110 0.3120 0.3160 0.3190 0.3200
690.072383 0.3210 0.3240 0.3280 0.3290 0.3310
695.827787 0.3350 0.3410 0.3430 0.3490 0.3520
701.583192 0.3610 0.3700 0.3760 0.3820 0.3910
707.338596 0.4000 0.4030 0.4110 0.4300 0.4380
713.094001 0.4410 0.4430 0.4510 0.4540 0.4630
718.849405 0.4690 0.4750 0.4800 0.4840 0.4860
724.604810 0.4890 0.4900 0.4940 0.5000 0.5010
730.360214 0.5020 0.5030 0.5050 0.5050 0.5070
736.115619 0.5070 0.5100 0.5100 0.5090 0.5090
741.871023 0.5070 0.5070 0.5060 0.5060 0.5050
747.626428 0.5030 0.5030 0.5010 0.5000 0.4960
753.381832 0.4950 0.4940 0.4920 0.4900 0.4880
759.137237 0.4860 0.4850 0.4810 0.4790 0.4730
764.892641 0.4700 0.4620 0.4550 0.4530 0.4510
770.648046 0.4420 0.4360 0.4300 0.4250 0.4141
776.403450 0.4100 0.4020 0.3990 0.3830 0.3740
782.158855 0.3680 0.3590 0.3510 0.3410 0.3330
787.914259 0.3290 0.3280 0.3270 0.3280 0.3340
793.669664 0.3370 0.3430 0.3530 0.3709 0.3949
799.425069 0.4340 0.4630 0.5010 0.5230 0.5390
805.180473 0.5520 0.5809 0.5950 0.5950 0.6020
810.935878 0.6030 0.6040 0.6060 0.6070 0.6080
816.691282 0.6080 0.6090 0.6090 0.6090 0.6080
822.446687 0.6080 0.6080 0.6070 0.6070 0.6070
828.202091 0.6060 0.6050 0.6050 0.6050 0.6040
833.957496 0.6040 0.6030 0.6020 0.6020 0.6000
839.712900 0.6000 0.5990 0.5920 0.5900 0.5830
845.468305 0.5810 0.5800 0.5750 0.5720 0.5710
851.223709 0.5700 0.5620 0.5580 0.5530 0.5510
856.979114 0.5410 0.5390 0.5340 0.5300 0.5270
862.734518 0.5260 0.5240 0.5240 0.5240 0.5260
868.489923 0.5270 0.5300 0.5340 0.5410 0.5520
874.245327 0.5540 0.5620 0.5740 0.5830 0.5900
880.000732 0.5910 0.5940 0.5950 0.5960 0.5960
885.756136 0.5950 0.5950 0.5950 0.5950 0.5950
891.511541 0.5940 0.5940 0.5920 0.5920 0.5920
897.266945 0.5920 0.5910 0.5910 0.5910 0.5910
903.022350 0.5910 0.5920 0.5920 0.5920 0.5920
908.777754 0.5920 0.5940 0.5940 0.5950 0.5960
914.533159 0.5960 0.5970 0.5990 0.5990 0.6000
920.288563 0.6000 0.6020 0.6020 0.6030 0.6040
926.043968 0.6060 0.6070 0.6080 0.6090 0.6120
931.799372 0.6120 0.6130 0.6140 0.6150 0.6160
937.554777 0.6170 0.6190 0.6200 0.6210 0.6220
943.310181 0.6230 0.6240 0.6250 0.6250 0.6260
949.065586 0.6280 0.6280 0.6290 0.6300 0.6300
954.820990 0.6310 0.6320 0.6320 0.6330 0.6340
960.576395 0.6360 0.6370 0.6380 0.6390 0.6400
966.331799 0.6410 0.6420 0.6430 0.6430 0.6450
972.087204 0.6460 0.6470 0.6470 0.6480 0.6490
977.842608 0.6490 0.6500 0.6510 0.6510 0.6510
983.598013 0.6510 0.6510 0.6530 0.6530 0.6530
989.353417 0.6530 0.6530 0.6530 0.6530 0.6530
995.108822 0.6530 0.6540 0.6540 0.6560 0.6570
1000.864226 0.6580 0.6580 0.6600 0.6620 0.6620
1006.619631 0.6630 0.6640 0.6640 0.6650 0.6660
1012.375035 0.6660 0.6670 0.6680 0.6680 0.6700
1018.130440 0.6700 0.6700 0.6700 0.6700 0.6700
1023.885844 0.6700 0.6680 0.6680 0.6670 0.6670
1029.641249 0.6660 0.6650 0.6630 0.6620 0.6600
1035.396653 0.6590 0.6560 0.6550 0.6530 0.6500
1041.152058 0.6410 0.6320 0.6280 0.6200 0.6110
1046.907462 0.5910 0.5820 0.5720 0.5620 0.5401
1052.662867 0.5210 0.4960 0.4820 0.4530 0.4410
1058.418271 0.4300 0.4200 0.3851 0.3621 0.3212
1064.173676 0.2930 0.2770 0.2610 0.2310 0.2011
1069.929080 0.1631 0.1480 0.1331 0.1161 0.1090
1075.684485 0.1030 0.1000 0.0910 0.0860 0.0820
1081.439889 0.0790 0.0780 0.0790 0.0820 0.0900
1087.195294 0.1020 0.1220 0.1550 0.1920 0.2319
1092.950698 0.3088 0.3210 0.3439 0.3649 0.3859
1098.706103 0.4050 0.4350 0.4560 0.4720 0.4770
1104.461507 0.4840 0.4850 0.4840 0.4820 0.4810
1110.216912 0.4750 0.4690 0.4560 0.4520 0.4410
1115.972316 0.4310 0.4220 0.4041 0.3901 0.3532
1121.727721 0.3290 0.3030 0.2760 0.2520 0.2211
1127.483125 0.2011 0.1791 0.1720 0.1720 0.1889
1133.238530 0.2120 0.2300 0.2420 0.3020 0.3310
1138.993934 0.3430 0.4747 0.5099 0.5748 0.5860
1144.749339 0.6020 0.6130 0.6230 0.6300 0.6320
1150.504743 0.6390 0.6430 0.6450 0.6450 0.6430
1156.260148 0.6430 0.6420 0.6410 0.6400 0.6390
1162.015552 0.6330 0.6320 0.6300 0.6230 0.6210
1167.770957 0.6190 0.6160 0.6110 0.6050 0.5960
1173.526361 0.5910 0.5820 0.5800 0.5740 0.5720
1179.281766 0.5680 0.5630 0.5600 0.5460 0.5410
1185.037170 0.5390 0.5310 0.5240 0.5210 0.5150
1190.792575 0.5020 0.4940 0.4870 0.4800 0.4700
1196.547979 0.4610 0.4520 0.4480 0.4311 0.4270
1202.303384 0.4220 0.4110 0.4010 0.3920 0.3800
1208.058788 0.3710 0.3690 0.3521 0.3420 0.3311
1213.814193 0.3250 0.3210 0.3120 0.3020 0.2930
1219.569597 0.2890 0.2830 0.2800 0.2730 0.2700
1225.325002 0.2650 0.2610 0.2600 0.2590 0.2590
1231.080406 0.2590 0.2580 0.2580 0.2580 0.2580
1236.835811 0.2580 0.2580 0.2570 0.2550 0.2520
1242.591215 0.2500 0.2500 0.2470 0.2440 0.2420
1248.346620 0.2410 0.2400 0.2350 0.2330 0.2270
1254.102024 0.2250 0.2210 0.2150 0.2100 0.2020
1259.857429 0.2010 0.1950 0.1910 0.1900 0.1870
1265.612833 0.1840 0.1830 0.1820 0.1810 0.1810
1271.368238 0.1810 0.1820 0.1830 0.1840 0.1870
1277.123642 0.1890 0.1920 0.2000 0.2010 0.2100
1282.879047 0.2180 0.2300 0.2330 0.2420 0.2510
1288.634451 0.2610 0.2899 0.3000 0.3100 0.3200
1294.389856 0.3280 0.3410 0.3510 0.3590 0.3660
1300.145260 0.3740 0.3900 0.4010 0.4070 0.4299
1305.900665 0.4350 0.4430 0.4520 0.4620 0.4700
1311.656069 0.4750 0.4860 0.4900 0.4930 0.5010
1317.411474 0.5100 0.5110 0.5190 0.5210 0.5240
1323.166878 0.5340 0.5400 0.5410 0.5490 0.5520
1328.922283 0.5580 0.5600 0.5640 0.5720 0.5730
1334.677687 0.5800 0.5820 0.5890 0.5910 0.5920
1340.433092 0.5950 0.5980 0.5990 0.5990 0.6000
1346.188496 0.6000 0.6000 0.5990 0.5990 0.5980
1351.943901 0.5970 0.5960 0.5950 0.5900 0.5860
1357.699305 0.5820 0.5800 0.5750 0.5710 0.5710
1363.454710 0.5700 0.5650 0.5610 0.5600 0.5600
1369.210114 0.5550 0.5510 0.5410 0.5390 0.5320
1374.965519 0.5230 0.5110 0.4930 0.4770 0.4410
1380.720923 0.4031 0.3651 0.3201 0.3200 0.3369
1386.476328 0.3500 0.3730 0.3990 0.4300 0.4450
1392.231733 0.4610 0.4640 0.4700 0.4750 0.4790
1397.987137 0.4800 0.4810 0.4840 0.4840 0.4840
1403.742542 0.4850 0.4850 0.4850 0.4850 0.4850
1409.497946 0.4850 0.4860 0.4890 0.4900 0.4920
1415.253351 0.4940 0.5020 0.5060 0.5120 0.5200
1421.008755 0.5300 0.5340 0.5490 0.5520 0.5600
1426.764160 0.5620 0.5690 0.5690 0.5650 0.5630
1432.519564 0.5560 0.5510 0.5400 0.5210 0.4860
1438.274969 0.4591 0.4361 0.4131 0.3582 0.3062
1444.030373 0.2930 0.2800 0.2590 0.2580 0.2590
1449.785778 0.2700 0.3029 0.3618 0.3769 0.3929
1455.541182 0.4510 0.4800 0.4960 0.5210 0.5350
1461.296587 0.5809 0.5900 0.6000 0.6090 0.6199
1467.051991 0.6290 0.6360 0.6490 0.6540 0.6630
1472.807396 0.6640 0.6700 0.6730 0.6800 0.6820
1478.562800 0.6900 0.6950 0.6970 0.7000 0.7010
1484.318205 0.7040 0.7060 0.7070 0.7080 0.7090
1490.073609 0.7100 0.7100 0.7120 0.7120 0.7130
1495.829014 0.7130 0.7130 0.7130 0.7120 0.7120
1501.584418 0.7120 0.7100 0.7090 0.7090 0.7080
1507.339823 0.7080 0.7080 0.7090 0.7090 0.7090
1513.095227 0.7090 0.7090 0.7090 0.7090 0.7090
1518.850632 0.7090 0.7090 0.7090 0.7090 0.7090
1524.606036 0.7090 0.7090 0.7090 0.7090 0.7090
1530.361441 0.7090 0.7090 0.7090 0.7080 0.7080
1536.116845 0.7070 0.7060 0.7050 0.7040 0.7010
1541.872250 0.6990 0.6980 0.6980 0.6980 0.6980
1547.627654 0.6970 0.6970 0.6960 0.6930 0.6920
1553.383059 0.6900 0.6890 0.6820 0.6810 0.6790
1559.138463 0.6750 0.6740 0.6730 0.6730 0.6720
1564.893868 0.6710 0.6700 0.6660 0.6650 0.6600
1570.649272 0.6570 0.6550 0.6540 0.6510 0.6500
1576.404677 0.6430 0.6410 0.6400 0.6360 0.6320
1582.160081 0.6260 0.6230 0.6210 0.6150 0.6120
1587.915486 0.6050 0.5950 0.5910 0.5800 0.5750
1593.670890 0.5710 0.5680 0.5640 0.5610 0.5560
1599.426295 0.5490 0.5410 0.5340 0.5270 0.5230
1605.181699 0.5170 0.5120 0.5050 0.5030 0.4930
1610.937104 0.4900 0.4890 0.4860 0.4840 0.4820
1616.692508 0.4820 0.4810 0.4810 0.4810 0.4820
1622.447913 0.4820 0.4840 0.4840 0.4860 0.4880
1628.203317 0.4890 0.4900 0.4920 0.4960 0.4980
1633.958722 0.5000 0.5000 0.5020 0.5030 0.5040
1639.714126 0.5050 0.5060 0.5060 0.5060 0.5060
1645.469531 0.5050 0.5040 0.5030 0.5030 0.5020
1651.224935 0.5020 0.5000 0.4980 0.4960 0.4960
1656.980340 0.4960 0.4960 0.4950 0.4920 0.4900
1662.735744 0.4860 0.4810 0.4800 0.4750 0.4710
1668.491149 0.4650 0.4580 0.4520 0.4500 0.4450
1674.246553 0.4420 0.4340 0.4280 0.4220 0.4200
1680.001958 0.4110 0.4030 0.3930 0.3830 0.3800
1685.757362 0.3700 0.3610 0.3520 0.3460 0.3320
1691.512767 0.3210 0.3020 0.2920 0.2860 0.2810
1697.268171 0.2640 0.2510 0.2330 0.2140 0.2010
1703.023576 0.1850 0.1800 0.1650 0.1530 0.1470
1708.778980 0.1410 0.1320 0.1160 0.1050 0.0920
1714.534385 0.0850 0.0810 0.0720 0.0640 0.0610
1720.289789 0.0530 0.0510 0.0470 0.0450 0.0430
1726.045194 0.0430 0.0410 0.0410 0.0410 0.0410
1731.800598 0.0410 0.0400 0.0400 0.0400 0.0400
1737.556003 0.0400 0.0400 0.0400 0.0400 0.0390
1743.311407 0.0390 0.0390 0.0390 0.0390 0.0390
1749.066812 0.0400 0.0400 0.0410 0.0410 0.0410
1754.822216 0.0410 0.0430 0.0430 0.0450 0.0510
1760.577621 0.0530 0.0560 0.0769 0.0810 0.0900
1766.333025 0.1020 0.1210 0.1490 0.1730 0.2010
1772.088430 0.2210 0.2559 0.2859 0.3099 0.3239
1777.843834 0.3430 0.3580 0.3850 0.4110 0.4550
1783.599239 0.4630 0.4810 0.4999 0.5110 0.5220
1789.354643 0.5320 0.5510 0.5710 0.5740 0.5820
1795.110048 0.5910 0.6000 0.6030 0.6110 0.6150
1800.865452 0.6170 0.6200 0.6250 0.6260 0.6300
1806.620857 0.6310 0.6340 0.6380 0.6390 0.6400
1812.376261 0.6420 0.6450 0.6460 0.6480 0.6490
1818.131666 0.6500 0.6510 0.6530 0.6540 0.6550
1823.887070 0.6550 0.6560 0.6570 0.6580 0.6580
1829.642475 0.6590 0.6590 0.6600 0.6600 0.6600
1835.397879 0.6600 0.6600 0.6600 0.6620 0.6620
1841.153284 0.6620 0.6620 0.6620 0.6620 0.6620
1846.908688 0.6620 0.6620 0.6620 0.6620 0.6620
1852.664093 0.6620 0.6620 0.6620 0.6620 0.6600
1858.419497 0.6600 0.6600 0.6600 0.6600 0.6590
1864.174902 0.6590 0.6590 0.6590 0.6590 0.6580
1869.930306 0.6580 0.6580 0.6570 0.6570 0.6570
1875.685711 0.6550 0.6550 0.6550 0.6540 0.6540
1881.441115 0.6540 0.6530 0.6530 0.6510 0.6510
1887.196520 0.6500 0.6500 0.6490 0.6490 0.6480
1892.951924 0.6480 0.6470 0.6470 0.6460 0.6460
1898.707329 0.6460 0.6450 0.6450 0.6430 0.6430
1904.462733 0.6420 0.6420 0.6410 0.6410 0.6400
1910.218138 0.6400 0.6400 0.6390 0.6390 0.6380
1915.973542 0.6380 0.6370 0.6360 0.6360 0.6340
1921.728947 0.6340 0.6330 0.6330 0.6330 0.6320
1927.484351 0.6320 0.6310 0.6310 0.6310 0.6310
1933.239756 0.6310 0.6300 0.6300 0.6300 0.6290
1938.995160 0.6290 0.6290 0.6290 0.6280 0.6280
1944.750565 0.6280 0.6280 0.6290 0.6290 0.6290
1950.505969 0.6290 0.6300 0.6300 0.6300 0.6300
1956.261374 0.6310 0.6310 0.6310 0.6310 0.6310
1962.016778 0.6320 0.6320 0.6320 0.6330 0.6330
1967.772183 0.6330 0.6330 0.6330 0.6340 0.6360
1973.527587 0.6370 0.6370 0.6380 0.6390 0.6390
1979.282992 0.6400 0.6410 0.6410 0.6420 0.6420
1985.038397 0.6430 0.6430 0.6450 0.6460 0.6470
1990.793801 0.6480 0.6490 0.6490 0.6500 0.6510
1996.549206 0.6530 0.6540 0.6550 0.6570 0.6575
2002.304610 0.6580 0.6585 0.6590 0.6595 0.6600
2008.060015 0.6610 0.6620 0.6630 0.6640 0.6645
2013.815419 0.6650 0.6655 0.6660 0.6665 0.6670
2019.570824 0.6675 0.6680 0.6690 0.6700 0.6705
2025.326228 0.6710 0.6715 0.6720 0.6725 0.6730
2031.081633 0.6735 0.6740 0.6740 0.6740 0.6745
2036.837037 0.6750 0.6750 0.6750 0.6750 0.6750
2042.592442 0.6755 0.6760 0.6760 0.6760 0.6760
2048.347846 0.6760 0.6770 0.6780 0.6780 0.6780
2054.103251 0.6780 0.6780 0.6780 0.6780 0.6785
2059.858655 0.6790 0.6790 0.6790 0.6790 0.6790
2065.614060 0.6790 0.6790 0.6790 0.6790 0.6790
2071.369464 0.6790 0.6790 0.6790 0.6790 0.6790
2077.124869 0.6790 0.6790 0.6795 0.6800 0.6800
2082.880273 0.6800 0.6800 0.6800 0.6800 0.6800
2088.635678 0.6800 0.6800 0.6800 0.6800 0.6800
2094.391082 0.6800 0.6800 0.6800 0.6800 0.6800
2100.146487 0.6800 0.6800 0.6800 0.6800 0.6800
2105.901891 0.6800 0.6805 0.6810 0.6810 0.6810
2111.657296 0.6810 0.6810 0.6810 0.6810 0.6810
2117.412700 0.6810 0.6810 0.6810 0.6810 0.6810
2123.168105 0.6810 0.6810 0.6810 0.6810 0.6810
2128.923509 0.6810 0.6810 0.6810 0.6810 0.6810
2134.678914 0.6810 0.6810 0.6814 0.6819 0.6820
2140.434318 0.6820 0.6820 0.6820 0.6824 0.6829
2146.189723 0.6834 0.6839 0.6840 0.6840 0.6844
2151.945127 0.6849 0.6850 0.6850 0.6859 0.6869
2157.700532 0.6879 0.6889 0.6890 0.6890 0.6894
2163.455936 0.6899 0.6900 0.6900 0.6900 0.6900
2169.211341 0.6900 0.6900 0.6904 0.6909 0.6910
2174.966745 0.6910 0.6910 0.6910 0.6910 0.6910
2180.722150 0.6914 0.6919 0.6920 0.6920 0.6920
2186.477554 0.6920 0.6920 0.6920 0.6920 0.6920
2192.232959 0.6916 0.6911 0.6910 0.6910 0.6910
2197.988363 0.6910 0.6910 0.6910 0.6906 0.6901
2203.743768 0.6900 0.6900 0.6896 0.6891 0.6890
2209.499172 0.6890 0.6890 0.6890 0.6890 0.6890
2215.254577 0.6886 0.6881 0.6876 0.6871 0.6870
2221.009981 0.6870 0.6858 0.6843 0.6840 0.6840
2226.765386 0.6836 0.6831 0.6826 0.6821 0.6816
2232.520790 0.6811 0.6806 0.6801 0.6800 0.6800
2238.276195 0.6796 0.6791 0.6778 0.6763 0.6752
2244.031599 0.6742 0.6736 0.6731 0.6726 0.6721
2249.787004 0.6716 0.6711 0.6710 0.6710 0.6706
2255.542408 0.6701 0.6700 0.6700 0.6700 0.6700
2261.297813 0.6692 0.6682 0.6676 0.6671 0.6666
2267.053217 0.6661 0.6656 0.6651 0.6646 0.6641
2272.808622 0.6636 0.6631 0.6626 0.6621 0.6612
2278.564026 0.6602 0.6600 0.6600 0.6596 0.6591
2284.319431 0.6586 0.6581 0.6580 0.6580 0.6576
2290.074835 0.6571 0.6566 0.6561 0.6552 0.6542
2295.830240 0.6536 0.6531 0.6522 0.6512 0.6506
2301.585644 0.6501 0.6500 0.6500 0.6496 0.6491
2307.341049 0.6486 0.6481 0.6472 0.6462 0.6449
2313.096453 0.6434 0.6426 0.6421 0.6420 0.6420
2318.851858 0.6413 0.6403 0.6396 0.6391 0.6382
2324.607262 0.6372 0.6359 0.6344 0.6332 0.6323
2330.362667 0.6316 0.6311 0.6306 0.6301 0.6300
2336.118071 0.6300 0.6293 0.6283 0.6265 0.6245
2341.873476 0.6236 0.6231 0.6226 0.6221 0.6220
2347.628880 0.6220 0.6216 0.6211 0.6206 0.6201
2353.384285 0.6196 0.6191 0.6179 0.6164 0.6149
2359.139689 0.6134 0.6123 0.6113 0.6103 0.6093
2364.895094 0.6090 0.6090 0.6086 0.6081 0.6080
2370.650498 0.6080 0.6080 0.6080 0.6073 0.6063
2376.405903 0.6056 0.6051 0.6043 0.6033 0.6019
2382.161307 0.6004 0.5997 0.5992 0.5980 0.5965
2387.916712 0.5946 0.5926 0.5910 0.5894 0.5879
2393.672116 0.5864 0.5849 0.5834 0.5816 0.5796
2399.427521 0.5776 0.5756 0.5743 0.5733 0.5723
2405.182925 0.5713 0.5707 0.5702 0.5697 0.5692
2410.938330 0.5676 0.5657 0.5640 0.5625 0.5617
2416.693734 0.5612 0.5593 0.5568 0.5550 0.5535
2422.449139 0.5513 0.5488 0.5473 0.5463 0.5443
2428.204543 0.5418 0.5407 0.5402 0.5387 0.5367
2433.959948 0.5347 0.5327 0.5317 0.5312 0.5286
2439.715352 0.5252 0.5230 0.5215 0.5200 0.5185
2445.470757 0.5163 0.5139 0.5123 0.5113 0.5107
2451.226161 0.5102 0.5097 0.5092 0.5077 0.5057
2456.981566 0.5040 0.5025 0.5014 0.5003 0.4987
2462.736970 0.4967 0.4950 0.4935 0.4920 0.4905
2468.492375 0.4897 0.4892 0.4890 0.4890 0.4880
2474.247779 0.4866 0.4854 0.4844 0.4827 0.4807
2480.003184 0.4797 0.4792 0.4781 0.4765 0.4750
2485.758588 0.4735 0.4724 0.4714 0.4701 0.4686
2491.513993 0.4667 0.4648 0.4634 0.4624 0.4614
2497.269397 0.4604 0.4597 0.4592 0.4578 0.4558
2503.024802 0.4547 0.4542 0.4537 0.4532 0.4527
2508.780206 0.4522 0.4520 0.4520 0.4520 0.4520
2514.535611 0.4520 0.4520 0.4523 0.4528 0.4530
2520.291015 0.4530 0.4533 0.4538 0.4543 0.4548
2526.046420 0.4559 0.4574 0.4583 0.4588 0.4593
2531.801824 0.4598 0.4603 0.4608 0.4613 0.4618
2537.557229 0.4623 0.4628 0.4633 0.4638 0.4649
2543.312633 0.4664 0.4673 0.4678 0.4680 0.4680
2549.068038 0.4683 0.4688 0.4690 0.4690 0.4687
2554.823442 0.4682 0.4677 0.4672 0.4661 0.4646
2560.578847 0.4631 0.4616 0.4601 0.4586 0.4566
2566.334251 0.4541 0.4524 0.4514 0.4507 0.4502
2572.089656 0.4494 0.4484 0.4472 0.4456 0.4444
2577.845060 0.4434 0.4419 0.4399 0.4379 0.4359
2583.600465 0.4339 0.4319 0.4304 0.4294 0.4279
2589.355870 0.4259 0.4236 0.4211 0.4184 0.4154
2595.111274 0.4129 0.4109 0.4095 0.4084 0.4069
2600.866679 0.4049 0.4037 0.4032 0.4027 0.4022
2606.622083 0.4017 0.4012 0.4007 0.4002 0.3992
2612.377488 0.3977 0.3967 0.3962 0.3957 0.3952
2618.132892 0.3947 0.3942 0.3940 0.3940 0.3937
2623.888297 0.3932 0.3930 0.3930 0.3930 0.3930
2629.643701 0.3930 0.3930 0.3933 0.3938 0.3943
2635.399106 0.3948 0.3955 0.3965 0.3975 0.3985
2641.154510 0.3993 0.3998 0.4003 0.4008 0.4013
2646.909915 0.4018 0.4025 0.4035 0.4053 0.4078
2652.665319 0.4095 0.4105 0.4130 0.4170 0.4192
2658.420724 0.4197 0.4222 0.4267 0.4300 0.4320
2664.176128 0.4335 0.4345 0.4360 0.4380 0.4395
2669.931533 0.4405 0.4420 0.4440 0.4462 0.4487
2675.686937 0.4510 0.4530 0.4557 0.4592 0.4629
2681.442342 0.4669 0.4700 0.4719 0.4742 0.4767
2687.197746 0.4782 0.4787 0.4792 0.4797 0.4805
2692.953151 0.4815 0.4825 0.4835 0.4840 0.4840
2698.708555 0.4842 0.4847 0.4850 0.4850 0.4850
2704.463960 0.4850 0.4850 0.4850 0.4850 0.4850
2710.219364 0.4848 0.4843 0.4833 0.4818 0.4810
2715.974769 0.4810 0.4808 0.4803 0.4795 0.4785
2721.730173 0.4773 0.4758 0.4741 0.4721 0.4706
2727.485578 0.4696 0.4679 0.4654 0.4633 0.4618
2733.240982 0.4597 0.4567 0.4546 0.4536 0.4523
2738.996387 0.4508 0.4489 0.4464 0.4443 0.4428
2744.751791 0.4418 0.4413 0.4406 0.4396 0.4381
2750.507196 0.4361 0.4341 0.4322 0.4304 0.4289
2756.262600 0.4274 0.4259 0.4240 0.4214 0.4183
2762.018005 0.4143 0.4111 0.4091 0.4069 0.4044
2767.773409 0.4026 0.4016 0.4008 0.4003 0.3998
2773.528814 0.3993 0.3978 0.3948 0.3924 0.3909
2779.284218 0.3886 0.3851 0.3822 0.3802 0.3780
2785.039623 0.3755 0.3732 0.3712 0.3698 0.3693
2790.795027 0.3688 0.3683 0.3674 0.3659 0.3646
2796.550432 0.3636 0.3624 0.3609 0.3598 0.3593
2802.305836 0.3588 0.3583 0.3578 0.3573 0.3564
2808.061241 0.3549 0.3536 0.3526 0.3518 0.3513
2813.816645 0.3510 0.3510 0.3508 0.3503 0.3498
2819.572050 0.3493 0.3490 0.3490 0.3488 0.3483
2825.327454 0.3476 0.3466 0.3458 0.3453 0.3446
2831.082859 0.3436 0.3426 0.3416 0.3408 0.3403
2836.838263 0.3398 0.3393 0.3381 0.3356 0.3336
2842.593668 0.3326 0.3318 0.3313 0.3305 0.3290
2848.349072 0.3280 0.3280 0.3278 0.3273 0.3268
2854.104477 0.3263 0.3258 0.3253 0.3246 0.3236
2859.859881 0.3225 0.3210 0.3198 0.3193 0.3188
2865.615286 0.3183 0.3180 0.3180 0.3178 0.3173
2871.370690 0.3168 0.3163 0.3158 0.3153 0.3148
2877.126095 0.3143 0.3135 0.3120 0.3107 0.3097
2882.881499 0.3085 0.3070 0.3055 0.3040 0.3027
2888.636904 0.3017 0.3007 0.2997 0.2984 0.2964
2894.392308 0.2945 0.2930 0.2911 0.2880 0.2858
2900.147713 0.2853 0.2848 0.2843 0.2838 0.2833
2905.903117 0.2828 0.2823 0.2818 0.2813 0.2808
2911.658522 0.2803 0.2797 0.2787 0.2778 0.2774
2917.413926 0.2769 0.2764 0.2759 0.2753 0.2748
2923.169331 0.2743 0.2740 0.2740 0.2738 0.2733
2928.924735 0.2729 0.2724 0.2717 0.2707 0.2697
2934.680140 0.2687 0.2680 0.2680 0.2679 0.2674
2940.435544 0.2669 0.2664 0.2660 0.2660 0.2661
2946.190949 0.2666 0.2671 0.2676 0.2680 0.2680
2951.946353 0.2680 0.2680 0.2680 0.2680 0.2679
2957.701758 0.2674 0.2669 0.2664 0.2657 0.2647
2963.457162 0.2639 0.2634 0.2627 0.2617 0.2610
2969.212567 0.2610 0.2610 0.2610 0.2609 0.2604
2974.967971 0.2599 0.2594 0.2587 0.2577 0.2567
2980.723376 0.2557 0.2546 0.2531 0.2518 0.2508
2986.478780 0.2499 0.2494 0.2489 0.2484 0.2479
2992.234185 0.2474 0.2465 0.2445 0.2430 0.2430
2997.989589 0.2429 0.2424 0.2420 0.2420 0.2421
3003.744994 0.2426 0.2430 0.2430 0.2430 0.2430
3009.500398 0.2431 0.2436 0.2442 0.2452 0.2464
3015.255803 0.2479 0.2490 0.2490 0.2491 0.2496
3021.011207 0.2500 0.2500 0.2500 0.2500 0.2500
3026.766612 0.2500 0.2500 0.2500 0.2500 0.2500
3032.522016 0.2501 0.2506 0.2510 0.2510 0.2510
3038.277421 0.2510 0.2511 0.2516 0.2523 0.2538
3044.032825 0.2550 0.2550 0.2551 0.2556 0.2560
3049.788230 0.2560 0.2560 0.2560 0.2561 0.2566
3055.543634 0.2571 0.2576 0.2580 0.2580 0.2580
3061.299039 0.2580 0.2580 0.2580 0.2580 0.2580
3067.054443 0.2580 0.2580 0.2581 0.2586 0.2590
3072.809848 0.2590 0.2590 0.2590 0.2590 0.2590
3078.565252 0.2590 0.2590 0.2591 0.2596 0.2600
3084.320657 0.2600 0.2600 0.2600 0.2600 0.2600
3090.076061 0.2600 0.2600 0.2600 0.2600 0.2600
3095.831466 0.2600 0.2601 0.2606 0.2610 0.2610
3101.586870 0.2612 0.2622 0.2630 0.2630 0.2630
3107.342275 0.2630 0.2630 0.2630 0.2631 0.2636
3113.097679 0.2640 0.2640 0.2640 0.2640 0.2640
3118.853084 0.2640 0.2641 0.2646 0.2651 0.2656
3124.608488 0.2660 0.2660 0.2660 0.2660 0.2662
3130.363893 0.2672 0.2680 0.2680 0.2680 0.2680
3136.119297 0.2680 0.2680 0.2681 0.2686 0.2690
3141.874702 0.2690 0.2690 0.2690 0.2690 0.2690
3147.630106 0.2690 0.2690 0.2691 0.2696 0.2700
3153.385511 0.2700 0.2700 0.2700 0.2700 0.2700
3159.140915 0.2700 0.2700 0.2700 0.2700 0.2700
3164.896320 0.2700 0.2700 0.2700 0.2701 0.2711
3170.651724 0.2720 0.2720 0.2720 0.2720 0.2720
3176.407129 0.2720 0.2721 0.2726 0.2730 0.2730
3182.162534 0.2731 0.2736 0.2741 0.2746 0.2751
3187.917938 0.2756 0.2760 0.2760 0.2760 0.2765
3193.673343 0.2770 0.2775 0.2780 0.2780 0.2781
3199.428747 0.2791 0.2801 0.2805 0.2811 0.2821
3205.184152 0.2830 0.2835 0.2841 0.2856 0.2872
3210.939556 0.2892 0.2911 0.2921 0.2932 0.2957
3216.694961 0.2980 0.2985 0.2990 0.2995 0.3000
3222.450365 0.3000 0.3000 0.3005 0.3011 0.3021
3228.205770 0.3032 0.3057 0.3080 0.3085 0.3090
3233.961174 0.3095 0.3100 0.3100 0.3100 0.3105
3239.716579 0.3111 0.3131 0.3150 0.3150 0.3151
3245.471983 0.3161 0.3170 0.3175 0.3180 0.3185
3251.227388 0.3190 0.3195 0.3200 0.3205 0.3211
3256.982792 0.3220 0.3231 0.3246 0.3260 0.3270
3262.738197 0.3280 0.3285 0.3290 0.3290 0.3291
3268.493601 0.3301 0.3311 0.3331 0.3351 0.3371
3274.249006 0.3390 0.3395 0.3400 0.3410 0.3421
3280.004410 0.3456 0.3490 0.3495 0.3500 0.3505
3285.759815 0.3510 0.3515 0.3520 0.3541 0.3560
3291.515219 0.3570 0.3580 0.3585 0.3590 0.3595
3297.270624 0.3600 0.3605 0.3610 0.3615 0.3620
3303.026028 0.3625 0.3630 0.3640 0.3650 0.3655
3308.781433 0.3660 0.3665 0.3670 0.3670 0.3670
3314.536837 0.3675 0.3680 0.3685 0.3690 0.3695
3320.292242 0.3700 0.3705 0.3710 0.3725 0.3740
3326.047646 0.3745 0.3750 0.3765 0.3780 0.3785
3331.803051 0.3790 0.3795 0.3800 0.3820 0.3840
3337.558455 0.3845 0.3850 0.3850 0.3850 0.3855
3343.313860 0.3860 0.3860 0.3860 0.3865 0.3870
3349.069264 0.3870 0.3870 0.3870 0.3870 0.3875
3354.824669 0.3880 0.3890 0.3900 0.3900 0.3900
3360.580073 0.3905 0.3910 0.3910 0.3910 0.3910
3366.335478 0.3910 0.3910 0.3910 0.3915 0.3920
3372.090882 0.3920 0.3920 0.3920 0.3920 0.3920
3377.846287 0.3920 0.3920 0.3920 0.3920 0.3920
3383.601691 0.3920 0.3920 0.3915 0.3910 0.3910
3389.357096 0.3910 0.3910 0.3910 0.3910 0.3910
3395.112500 0.3910 0.3910 0.3910 0.3910 0.3905
3400.867905 0.3900 0.3900 0.3900 0.3891 0.3881
3406.623309 0.3880 0.3880 0.3880 0.3880 0.3880
3412.378714 0.3880 0.3875 0.3870 0.3865 0.3860
3418.134118 0.3855 0.3850 0.3850 0.3850 0.3845
3423.889523 0.3840 0.3835 0.3830 0.3830 0.3830
3429.644927 0.3825 0.3820 0.3820 0.3820 0.3811
3435.400332 0.3801 0.3795 0.3790 0.3785 0.3780
3441.155736 0.3775 0.3770 0.3765 0.3760 0.3755
3446.911141 0.3750 0.3750 0.3750 0.3745 0.3740
3452.666545 0.3740 0.3740 0.3740 0.3740 0.3740
3458.421950 0.3740 0.3740 0.3740 0.3740 0.3740
3464.177354 0.3740 0.3740 0.3744 0.3749 0.3750
3469.932759 0.3750 0.3754 0.3759 0.3764 0.3769
3475.688163 0.3774 0.3779 0.3784 0.3789 0.3794
3481.443568 0.3799 0.3800 0.3800 0.3809 0.3819
3487.198972 0.3824 0.3829 0.3834 0.3839 0.3844
3492.954377 0.3849 0.3859 0.3869 0.3874 0.3879
3498.709781 0.3889 0.3899 0.3904 0.3909 0.3914
3504.465186 0.3919 0.3924 0.3929 0.3934 0.3939
3510.220590 0.3944 0.3949 0.3954 0.3959 0.3973
3515.975995 0.3988 0.3994 0.3999 0.4004 0.4009
3521.731399 0.4014 0.4019 0.4024 0.4029 0.4034
3527.486804 0.4039 0.4044 0.4049 0.4058 0.4068
3533.242208 0.4083 0.4098 0.4113 0.4128 0.4159
3538.997613 0.4194 0.4204 0.4209 0.4223 0.4238
3544.753017 0.4265 0.4295 0.4304 0.4309 0.4323
3550.508422 0.4338 0.4348 0.4358 0.4364 0.4369
3556.263826 0.4378 0.4388 0.4398 0.4408 0.4414
3562.019231 0.4419 0.4424 0.4429 0.4438 0.4448
3567.774635 0.4454 0.4459 0.4468 0.4478 0.4488
3573.530040 0.4498 0.4504 0.4509 0.4514 0.4519
3579.285444 0.4520 0.4520 0.4528 0.4538 0.4548
3585.040849 0.4558 0.4584 0.4614 0.4628 0.4638
3590.796253 0.4660 0.4685 0.4694 0.4699 0.4704
3596.551658 0.4709 0.4718 0.4728 0.4738 0.4748
3602.307062 0.4762 0.4777 0.4784 0.4789 0.4794
3608.062467 0.4799 0.4800 0.4800 0.4800 0.4800
3613.817871 0.4804 0.4809 0.4814 0.4819 0.4828
3619.573276 0.4838 0.4844 0.4849 0.4862 0.4877
3625.328680 0.4884 0.4889 0.4902 0.4917 0.4920
3631.084085 0.4920 0.4924 0.4929 0.4961 0.5001
3636.839489 0.5018 0.5028 0.5057 0.5092 0.5108
3642.594894 0.5118 0.5151 0.5190 0.5208 0.5218
3648.350298 0.5250 0.5290 0.5308 0.5318 0.5350
3654.105703 0.5390 0.5419 0.5444 0.5484 0.5529
3659.861107 0.5639 0.5768 0.5842 0.5896 0.5955
3665.616512 0.6015 0.6108 0.6213 0.6266 0.6301
3671.371916 0.6347 0.6397 0.6447 0.6497 0.6543
3677.127321 0.6588 0.6647 0.6712 0.6770 0.6826
3682.882725 0.6966 0.7136 0.7224 0.7284 0.7373
3688.638130 0.7473 0.7529 0.7569 0.7591 0.7606
3694.393534 0.7642 0.7687 0.7736 0.7786 0.7839
3700.148939 0.7894 0.7942 0.7987 0.8014 0.8034
3705.904343 0.8051 0.8066 0.8084 0.8104 0.8121
3711.659748 0.8136 0.8147 0.8157 0.8167 0.8177
3717.415152 0.8184 0.8189 0.8194 0.8198 0.8210
3723.170557 0.8225 0.8233 0.8238 0.8247 0.8257
3728.925961 0.8264 0.8269 0.8270 0.8270 0.8273
3734.681366 0.8278 0.8280 0.8280 0.8280 0.8280
3740.436770 0.8280 0.8280 0.8280 0.8280 0.8283
3746.192175 0.8288 0.8297 0.8307 0.8310 0.8310
3751.947579 0.8310 0.8310 0.8313 0.8318 0.8320
3757.702984 0.8320 0.8330 0.8345 0.8363 0.8383
3763.458388 0.8393 0.8398 0.8403 0.8408 0.8413
3769.213793 0.8418 0.8423 0.8428 0.8430 0.8430
3774.969198 0.8430 0.8430 0.8433 0.8438 0.8440
3780.724602 0.8440 0.8443 0.8448 0.8450 0.8450
3786.480007 0.8450 0.8450 0.8450 0.8450 0.8450
3792.235411 0.8450 0.8450 0.8450 0.8450 0.8450
3797.990816 0.8447 0.8442 0.8440 0.8440 0.8437
3803.746220 0.8432 0.8430 0.8430 0.8427 0.8422
3809.501625 0.8420 0.8420 0.8420 0.8420 0.8420
3815.257029 0.8420 0.8420 0.8420 0.8420 0.8420
3821.012434 0.8417 0.8412 0.8407 0.8402 0.8397
3826.767838 0.8392 0.8390 0.8390 0.8390 0.8390
3832.523243 0.8390 0.8390 0.8390 0.8390 0.8390
3838.278647 0.8390 0.8390 0.8390 0.8381 0.8366
3844.034052 0.8360 0.8360 0.8357 0.8352 0.8350
3849.789456 0.8350 0.8350 0.8350 0.8347 0.8342
3855.544861 0.8340 0.8340 0.8337 0.8332 0.8327
3861.300265 0.8322 0.8320 0.8320 0.8323 0.8328
3867.055670 0.8330 0.8330 0.8330 0.8330 0.8330
3872.811074 0.8330 0.8330 0.8330 0.8330 0.8330
3878.566479 0.8330 0.8330 0.8330 0.8330 0.8333
3884.321883 0.8338 0.8340 0.8340 0.8340 0.8340
3890.077288 0.8340 0.8340 0.8340 0.8340 0.8340
3895.832692 0.8340 0.8340 0.8340 0.8340 0.8340
3901.588097 0.8337 0.8332 0.8330 0.8330 0.8333
3907.343501 0.8338 0.8343 0.8348 0.8353 0.8358
3913.098906 0.8360 0.8360 0.8368 0.8383 0.8390
3918.854310 0.8390 0.8390 0.8390 0.8393 0.8398
3924.609715 0.8400 0.8400 0.8403 0.8408 0.8410
3930.365119 0.8410 0.8407 0.8402 0.8400 0.8400
3936.120524 0.8403 0.8408 0.8410 0.8410 0.8410
3941.875928 0.8410 0.8410 0.8410 0.8410 0.8410
3947.631333 0.8410 0.8410 0.8413 0.8418 0.8420
3953.386737 0.8420 0.8423 0.8428 0.8430 0.8430
3959.142142 0.8433 0.8438 0.8440 0.8440 0.8440
3964.897546 0.8440 0.8443 0.8448 0.8450 0.8450
3970.652951 0.8453 0.8458 0.8465 0.8475 0.8480
3976.408355 0.8480 0.8480 0.8480 0.8480 0.8480
3982.163760 0.8480 0.8480 0.8480 0.8480 0.8480
3987.919164 0.8480 0.8480 0.8480 0.8480 0.8480
3993.674569 0.8480 0.8480 0.8480 0.8480 0.8475
3999.429973 0.8465 0.8460 0.8460 0.8460 0.8460
4005.185378 0.8460 0.8460 0.8465 0.8475 0.8475
4010.940782 0.8465 0.8460 0.8460 0.8460 0.8460
4016.696187 0.8460 0.8460
##END=
