##TITLE=METHANE, TRICHLORONITRO-
##JCAMP-DX=4.24
##DATA TYPE=INFRARED SPECTRUM
##CLASS=COBLENTZ III
##ORIGIN=DOW CHEMICAL COMPANY
##OWNER=COBLENTZ SOCIETY
Collection (C) 2018 copyright by the U.S. Secretary of Commerce
on behalf of the United States of America. All rights reserved.
##DATE=1963/01/10
##NAMES=trichloro(nitro)methane
CHLOROPICRIN
##CAS REGISTRY NO=76-06-2
##MOLFORM=C Cl3 N O2
##SOURCE REFERENCE=COBLENTZ NO. 10649
##$NIST SOURCE=COBLENTZ
##$NIST IMAGE=cob10649
##SPECTROMETER/DATA SYSTEM=DOW KBr FOREPRISM-GRATING
##INSTRUMENT PARAMETERS=BLAZED AT 3.5, 12.0, 20.0 MICRON, CHANGED AT 5.0, 7.5, 14.9 MICRON
##STATE=SOLUTION (10% IN CCl4 FOR 3800-1330, 10% IN CS2 FOR 1330-400 CM^-^1)
##PATH LENGTH=0.010, 0.010 CM
$$ SEE SPECTRUM NO.10648 FOR "GAS" STATE
$$SPECTRAL CONTAMINATION DUE TO CCl4 AROUND 1550 CM^-^1
##SAMPLING PROCEDURE=TRANSMISSION
##RESOLUTION=4
##DATA PROCESSING=DIGITIZED BY NIST FROM HARD COPY (FROM TWO SEGMENTS)
##XUNITS=1/CM
##YUNITS=TRANSMITTANCE
##XFACTOR=1.000000
##YFACTOR=1
##DELTAX=0.949369
##FIRSTX=382.278
##LASTX=3803.8
##FIRSTY=0.628
##MAXX=3803.8
##MINX=382.278
##MAXY=1.091
##MINY=0.002
##NPOINTS=3605
##XYDATA=(X++(Y..Y))
382.278000 0.6280 0.6280 0.6270 0.6270 0.6250
387.024845 0.6250 0.6270 0.6270 0.6280 0.6280
391.771690 0.6300 0.6310 0.6340 0.6370 0.6400
396.518534 0.6430 0.6460 0.6490 0.6590 0.6650
401.265379 0.6760 0.6840 0.7080 0.7260 0.7420
406.012224 0.7510 0.7779 0.7969 0.8060 0.8219
410.759069 0.8410 0.8560 0.8690 0.8830 0.8930
415.505913 0.9020 0.9120 0.9150 0.9230 0.9329
420.252758 0.9360 0.9400 0.9420 0.9430 0.9460
424.999603 0.9510 0.9550 0.9580 0.9610 0.9640
429.746448 0.9640 0.9670 0.9680 0.9680 0.9700
434.493292 0.9700 0.9710 0.9760 0.9770 0.9790
439.240137 0.9830 0.9880 1.0010 1.0040 1.0080
443.986982 1.0130 1.0160 1.0170 1.0220 1.0230
448.733827 1.0250 1.0290 1.0340 1.0350 1.0360
453.480672 1.0380 1.0410 1.0440 1.0450 1.0470
458.227516 1.0480 1.0500 1.0510 1.0530 1.0540
462.974361 1.0560 1.0570 1.0590 1.0600 1.0620
467.721206 1.0620 1.0630 1.0650 1.0650 1.0650
472.468051 1.0660 1.0680 1.0680 1.0690 1.0690
477.214895 1.0690 1.0710 1.0710 1.0720 1.0720
481.961740 1.0730 1.0730 1.0730 1.0730 1.0730
486.708585 1.0730 1.0750 1.0760 1.0760 1.0780
491.455430 1.0790 1.0790 1.0810 1.0810 1.0810
496.202275 1.0820 1.0820 1.0810 1.0810 1.0810
500.949119 1.0790 1.0790 1.0810 1.0810 1.0820
505.695964 1.0820 1.0840 1.0840 1.0840 1.0840
510.442809 1.0840 1.0840 1.0840 1.0850 1.0850
515.189654 1.0850 1.0850 1.0850 1.0850 1.0870
519.936498 1.0870 1.0870 1.0870 1.0870 1.0880
524.683343 1.0880 1.0880 1.0880 1.0880 1.0870
529.430188 1.0850 1.0850 1.0840 1.0840 1.0840
534.177033 1.0840 1.0850 1.0870 1.0880 1.0880
538.923877 1.0900 1.0900 1.0910 1.0910 1.0910
543.670722 1.0900 1.0900 1.0880 1.0880 1.0880
548.417567 1.0900 1.0910 1.0910 1.0910 1.0910
553.164412 1.0900 1.0900 1.0880 1.0870 1.0870
557.911257 1.0870 1.0870 1.0850 1.0850 1.0850
562.658101 1.0840 1.0840 1.0840 1.0840 1.0840
567.404946 1.0840 1.0840 1.0820 1.0820 1.0820
572.151791 1.0820 1.0810 1.0810 1.0810 1.0790
576.898636 1.0790 1.0790 1.0780 1.0780 1.0780
581.645480 1.0780 1.0760 1.0760 1.0760 1.0750
586.392325 1.0750 1.0750 1.0730 1.0730 1.0730
591.139170 1.0730 1.0730 1.0720 1.0720 1.0720
595.886015 1.0720 1.0710 1.0710 1.0710 1.0710
600.632860 1.0710 1.0710 1.0710 1.0710 1.0710
605.379704 1.0710 1.0690 1.0680 1.0660 1.0630
610.126549 1.0600 1.0590 1.0590 1.0570 1.0570
614.873394 1.0570 1.0560 1.0560 1.0560 1.0530
619.620239 1.0480 1.0450 1.0450 1.0420 1.0410
624.367083 1.0380 1.0340 1.0320 1.0280 1.0250
629.113928 1.0220 1.0170 1.0130 1.0080 1.0040
633.860773 1.0020 1.0000 0.9980 0.9940 0.9890
638.607618 0.9860 0.9850 0.9820 0.9800 0.9770
643.354462 0.9710 0.9670 0.9640 0.9570 0.9490
648.101307 0.9400 0.9310 0.9150 0.9030 0.8920
652.848152 0.8711 0.8600 0.8500 0.8341 0.8310
657.594997 0.7880 0.7610 0.7330 0.7041 0.6731
662.341842 0.6391 0.5164 0.4403 0.3962 0.3502
667.088686 0.3010 0.2500 0.1981 0.1980 0.2479
671.835531 0.2909 0.4175 0.5006 0.5498 0.5908
676.582376 0.6310 0.7110 0.7410 0.7730 0.7940
681.329221 0.8040 0.8190 0.8310 0.8340 0.8380
686.076065 0.8400 0.8400 0.8380 0.8320 0.8290
690.822910 0.8190 0.8120 0.7951 0.7751 0.7442
695.569755 0.7300 0.7040 0.6760 0.6191 0.5412
700.316600 0.4732 0.4182 0.3812 0.3442 0.3211
705.063444 0.2950 0.2470 0.2440 0.2470 0.2640
709.810289 0.2790 0.4275 0.5007 0.5876 0.6179
714.557134 0.6640 0.7230 0.7410 0.7550 0.7750
719.303979 0.7939 0.7980 0.8030 0.8030 0.8010
724.050824 0.7980 0.7860 0.7660 0.7600 0.7291
728.797668 0.7101 0.7020 0.6930 0.6900 0.6830
733.544513 0.6760 0.6760 0.6830 0.7150 0.7290
738.291358 0.7669 0.8398 0.9078 0.9170 0.9339
743.038203 0.9520 0.9640 0.9770 0.9860 0.9910
747.785047 1.0020 1.0080 1.0190 1.0200 1.0220
752.531892 1.0220 1.0230 1.0260 1.0280 1.0290
757.278737 1.0320 1.0320 1.0340 1.0340 1.0350
762.025582 1.0360 1.0380 1.0380 1.0390 1.0390
766.772427 1.0410 1.0410 1.0410 1.0420 1.0420
771.519271 1.0420 1.0420 1.0420 1.0420 1.0420
776.266116 1.0410 1.0410 1.0390 1.0350 1.0340
781.012961 1.0320 1.0320 1.0320 1.0310 1.0310
785.759806 1.0310 1.0310 1.0310 1.0310 1.0290
790.506650 1.0280 1.0280 1.0280 1.0260 1.0250
795.253495 1.0230 1.0220 1.0200 1.0200 1.0190
800.000340 1.0170 1.0140 1.0130 1.0110 1.0100
804.747185 1.0080 1.0050 1.0040 1.0020 1.0010
809.494029 1.0000 0.9980 0.9950 0.9910 0.9880
814.240874 0.9860 0.9830 0.9820 0.9770 0.9760
818.987719 0.9740 0.9600 0.9540 0.9430 0.9330
823.734564 0.9210 0.8991 0.8900 0.8751 0.8621
828.481409 0.8600 0.8120 0.7940 0.7481 0.7230
833.228253 0.7080 0.6930 0.6063 0.5482 0.4515
837.975098 0.4370 0.3550 0.2701 0.2081 0.1900
842.721943 0.1900 0.2239 0.2419 0.2539 0.2719
847.468788 0.3060 0.3060 0.2880 0.1641 0.1281
852.215632 0.0931 0.0651 0.0381 0.0290 0.0200
856.962477 0.0190 0.0190 0.0190 0.0200 0.0220
861.709322 0.0320 0.0340 0.0450 0.0500 0.0619
866.456167 0.0680 0.0760 0.0990 0.1050 0.1210
871.203011 0.1360 0.1420 0.1470 0.1560 0.1640
875.949856 0.1730 0.1870 0.1980 0.2070 0.2100
880.696701 0.2200 0.2210 0.2210 0.2180 0.2110
885.443546 0.2020 0.1870 0.1760 0.1590 0.1390
890.190391 0.1180 0.1030 0.0940 0.0840 0.0731
894.937235 0.0540 0.0470 0.0380 0.0360 0.0350
899.684080 0.0360 0.0380 0.0420 0.0440 0.0599
904.430925 0.0821 0.1460 0.1760 0.2130 0.2470
909.177770 0.2580 0.3119 0.4266 0.4549 0.4908
913.924614 0.5230 0.5660 0.6160 0.6470 0.6829
918.671459 0.7329 0.7659 0.8029 0.8309 0.8400
923.418304 0.8570 0.8710 0.8900 0.8990 0.9120
928.165149 0.9210 0.9310 0.9370 0.9460 0.9540
932.911994 0.9550 0.9640 0.9680 0.9760 0.9760
937.658838 0.9790 0.9830 0.9880 0.9950 0.9970
942.405683 1.0010 1.0050 1.0070 1.0100 1.0130
947.152528 1.0160 1.0160 1.0190 1.0200 1.0200
951.899373 1.0220 1.0230 1.0230 1.0250 1.0250
956.646217 1.0260 1.0280 1.0290 1.0310 1.0310
961.393062 1.0320 1.0320 1.0340 1.0340 1.0350
966.139907 1.0350 1.0350 1.0350 1.0360 1.0360
970.886752 1.0380 1.0380 1.0390 1.0390 1.0390
975.633596 1.0410 1.0410 1.0420 1.0420 1.0420
980.380441 1.0410 1.0390 1.0390 1.0390 1.0380
985.127286 1.0380 1.0380 1.0380 1.0360 1.0360
989.874131 1.0360 1.0360 1.0360 1.0360 1.0350
994.620976 1.0350 1.0340 1.0340 1.0340 1.0350
999.367820 1.0360 1.0360 1.0380 1.0390 1.0410
1004.114665 1.0410 1.0420 1.0420 1.0440 1.0440
1008.861510 1.0440 1.0450 1.0450 1.0450 1.0450
1013.608355 1.0450 1.0450 1.0450 1.0450 1.0450
1018.355199 1.0450 1.0450 1.0450 1.0450 1.0450
1023.102044 1.0450 1.0450 1.0450 1.0450 1.0450
1027.848889 1.0450 1.0450 1.0450 1.0450 1.0450
1032.595734 1.0450 1.0450 1.0450 1.0450 1.0450
1037.342579 1.0450 1.0450 1.0450 1.0440 1.0440
1042.089423 1.0420 1.0420 1.0420 1.0420 1.0410
1046.836268 1.0410 1.0390 1.0390 1.0390 1.0390
1051.583113 1.0410 1.0410 1.0410 1.0410 1.0420
1056.329958 1.0420 1.0440 1.0440 1.0440 1.0440
1061.076802 1.0440 1.0440 1.0440 1.0440 1.0440
1065.823647 1.0420 1.0420 1.0420 1.0420 1.0420
1070.570492 1.0420 1.0420 1.0420 1.0420 1.0420
1075.317337 1.0420 1.0420 1.0420 1.0420 1.0420
1080.064181 1.0420 1.0420 1.0420 1.0420 1.0440
1084.811026 1.0440 1.0440 1.0440 1.0440 1.0420
1089.557871 1.0420 1.0410 1.0390 1.0380 1.0380
1094.304716 1.0380 1.0360 1.0360 1.0360 1.0360
1099.051561 1.0350 1.0350 1.0340 1.0320 1.0310
1103.798405 1.0290 1.0280 1.0280 1.0260 1.0250
1108.545250 1.0250 1.0250 1.0260 1.0280 1.0290
1113.292095 1.0290 1.0310 1.0310 1.0320 1.0320
1118.038940 1.0320 1.0320 1.0320 1.0320 1.0320
1122.785784 1.0320 1.0320 1.0320 1.0310 1.0310
1127.532629 1.0280 1.0280 1.0260 1.0250 1.0230
1132.279474 1.0220 1.0200 1.0190 1.0170 1.0170
1137.026319 1.0190 1.0190 1.0200 1.0200 1.0220
1141.773163 1.0220 1.0220 1.0230 1.0230 1.0250
1146.520008 1.0250 1.0260 1.0260 1.0290 1.0310
1151.266853 1.0320 1.0340 1.0340 1.0350 1.0360
1156.013698 1.0350 1.0350 1.0350 1.0350 1.0340
1160.760543 1.0340 1.0340 1.0320 1.0320 1.0320
1165.507387 1.0310 1.0310 1.0310 1.0320 1.0320
1170.254232 1.0320 1.0340 1.0350 1.0350 1.0360
1175.001077 1.0360 1.0350 1.0350 1.0350 1.0350
1179.747922 1.0350 1.0350 1.0350 1.0350 1.0350
1184.494766 1.0350 1.0340 1.0340 1.0340 1.0340
1189.241611 1.0340 1.0340 1.0320 1.0320 1.0310
1193.988456 1.0310 1.0310 1.0290 1.0290 1.0290
1198.735301 1.0290 1.0290 1.0290 1.0290 1.0310
1203.482146 1.0320 1.0320 1.0340 1.0340 1.0340
1208.228990 1.0340 1.0320 1.0310 1.0290 1.0290
1212.975835 1.0310 1.0310 1.0290 1.0290 1.0290
1217.722680 1.0290 1.0280 1.0280 1.0280 1.0280
1222.469525 1.0280 1.0280 1.0280 1.0280 1.0280
1227.216369 1.0260 1.0260 1.0260 1.0260 1.0260
1231.963214 1.0260 1.0250 1.0250 1.0250 1.0250
1236.710059 1.0250 1.0250 1.0230 1.0230 1.0230
1241.456904 1.0230 1.0220 1.0220 1.0220 1.0220
1246.203748 1.0220 1.0220 1.0190 1.0160 1.0140
1250.950593 1.0130 1.0110 1.0110 1.0100 1.0080
1255.697438 1.0050 1.0050 1.0020 1.0010 1.0000
1260.444283 0.9910 0.9860 0.9790 0.9760 0.9630
1265.191128 0.9550 0.9340 0.9180 0.9140 0.8710
1269.937972 0.8550 0.8001 0.7950 0.7940 0.7761
1274.684817 0.7720 0.7700 0.7690 0.7700 0.7850
1279.431662 0.8010 0.8369 0.8500 0.8590 0.8630
1284.178507 0.8650 0.8630 0.8600 0.8520 0.8470
1288.925351 0.8210 0.8040 0.7821 0.7571 0.7291
1293.672196 0.7150 0.6980 0.6780 0.6470 0.6440
1298.419041 0.5631 0.4772 0.4281 0.3782 0.3292
1303.165886 0.2319 0.1210 0.0940 0.0680 0.0530
1307.912731 0.0410 0.0390 0.0599 0.1497 0.1799
1312.659575 0.2363 0.4001 0.4790 0.5510 0.5910
1317.406420 0.6489 0.7109 0.7479 0.7759 0.7850
1322.153265 0.7970 0.8150 0.8220 0.8340 0.8430
1326.900110 0.8490 0.8490 0.8500 0.8500 0.8500
1331.646954 0.8500 0.8500 0.8490 0.8470 0.8410
1336.393799 0.8310 0.8220 0.8130 0.7811 0.7302
1341.140644 0.7109 0.6489 0.5870 0.5350 0.5170
1345.887489 0.5100 0.4651 0.4610 0.4261 0.4260
1350.634333 0.5001 0.5451 0.6180 0.7300 0.7760
1355.381178 0.8189 0.8569 0.8750 0.8939 0.9239
1360.128023 0.9420 0.9580 0.9640 0.9760 0.9790
1364.874868 0.9830 0.9880 0.9980 1.0010 1.0020
1369.621713 1.0050 1.0070 1.0100 1.0110 1.0140
1374.368557 1.0170 1.0190 1.0200 1.0220 1.0220
1379.115402 1.0230 1.0230 1.0230 1.0250 1.0250
1383.862247 1.0250 1.0260 1.0260 1.0260 1.0280
1388.609092 1.0280 1.0290 1.0290 1.0290 1.0290
1393.355936 1.0290 1.0280 1.0260 1.0260 1.0260
1398.102781 1.0250 1.0230 1.0230 1.0220 1.0220
1402.849626 1.0220 1.0200 1.0200 1.0200 1.0220
1407.596471 1.0220 1.0230 1.0250 1.0260 1.0290
1412.343315 1.0290 1.0310 1.0310 1.0320 1.0320
1417.090160 1.0340 1.0340 1.0350 1.0350 1.0350
1421.837005 1.0340 1.0340 1.0340 1.0340 1.0340
1426.583850 1.0350 1.0350 1.0350 1.0350 1.0340
1431.330695 1.0340 1.0320 1.0320 1.0320 1.0320
1436.077539 1.0320 1.0320 1.0320 1.0320 1.0340
1440.824384 1.0340 1.0360 1.0360 1.0360 1.0350
1445.571229 1.0350 1.0340 1.0340 1.0320 1.0320
1450.318074 1.0310 1.0310 1.0310 1.0310 1.0290
1455.064918 1.0290 1.0280 1.0230 1.0190 1.0190
1459.811763 1.0220 1.0250 1.0260 1.0260 1.0260
1464.558608 1.0260 1.0260 1.0260 1.0260 1.0260
1469.305453 1.0250 1.0250 1.0230 1.0220 1.0160
1474.052298 1.0140 1.0130 1.0130 1.0110 1.0100
1478.799142 1.0100 1.0080 1.0050 1.0010 1.0010
1483.545987 1.0010 1.0000 0.9980 0.9940 0.9910
1488.292832 0.9880 0.9850 0.9790 0.9760 0.9680
1493.039677 0.9650 0.9630 0.9610 0.9570 0.9430
1497.786521 0.9330 0.9310 0.9240 0.9150 0.9110
1502.533366 0.8940 0.8920 0.8900 0.8770 0.8590
1507.280211 0.8430 0.8350 0.8340 0.8310 0.8220
1512.027056 0.8150 0.8120 0.8040 0.8000 0.7950
1516.773900 0.7860 0.7810 0.7780 0.7760 0.7690
1521.520745 0.7570 0.7540 0.7500 0.7480 0.7450
1526.267590 0.7410 0.7330 0.7290 0.7260 0.7240
1531.014435 0.7080 0.7050 0.6990 0.6920 0.6760
1535.761280 0.6620 0.6590 0.6440 0.6330 0.6191
1540.508124 0.6129 0.5790 0.5660 0.5480 0.5470
1545.254969 0.5360 0.5230 0.5170 0.5130 0.5100
1550.001814 0.5070 0.5020 0.5010 0.5000 0.5000
1554.748659 0.5010 0.5020 0.5040 0.5080 0.5100
1559.495503 0.5110 0.5140 0.5190 0.5250 0.5450
1564.242348 0.5480 0.5560 0.5570 0.5570 0.5590
1568.989193 0.5590 0.5570 0.5540 0.5510 0.5480
1573.736038 0.5470 0.5420 0.5380 0.5250 0.5170
1578.482883 0.5130 0.5110 0.5020 0.4890 0.4770
1583.229727 0.4570 0.4280 0.4140 0.3990 0.3890
1587.976572 0.3780 0.3530 0.3370 0.3290 0.2940
1592.723417 0.2730 0.2381 0.2240 0.1931 0.1870
1597.470262 0.1640 0.1490 0.1390 0.1160 0.0940
1602.217106 0.0780 0.0590 0.0390 0.0141 0.0110
1606.963951 0.0080 0.0070 0.0050 0.0040 0.0020
1611.710796 0.0020 0.0040 0.0040 0.0080 0.0100
1616.457641 0.0280 0.0380 0.0500 0.1360 0.1560
1621.204485 0.1730 0.2319 0.2968 0.3189 0.3369
1625.951330 0.4151 0.4640 0.4880 0.5130 0.5390
1630.698175 0.5600 0.5780 0.6149 0.6300 0.6649
1635.445020 0.6780 0.6890 0.6950 0.7140 0.7300
1640.191865 0.7520 0.7630 0.7860 0.7980 0.8149
1644.938709 0.8320 0.8380 0.8490 0.8530 0.8600
1649.685554 0.8650 0.8710 0.8780 0.8920 0.8990
1654.432399 0.9050 0.9060 0.9120 0.9180 0.9300
1659.179244 0.9340 0.9390 0.9430 0.9460 0.9540
1663.926088 0.9540 0.9570 0.9600 0.9610 0.9640
1668.672933 0.9670 0.9700 0.9730 0.9740 0.9760
1673.419778 0.9790 0.9820 0.9830 0.9860 0.9880
1678.166623 0.9910 0.9920 0.9950 1.0010 1.0010
1682.913467 1.0020 1.0040 1.0050 1.0070 1.0070
1687.660312 1.0080 1.0100 1.0110 1.0130 1.0140
1692.407157 1.0140 1.0160 1.0160 1.0170 1.0170
1697.154002 1.0190 1.0190 1.0190 1.0170 1.0170
1701.900847 1.0190 1.0200 1.0220 1.0220 1.0230
1706.647691 1.0230 1.0250 1.0250 1.0250 1.0260
1711.394536 1.0260 1.0260 1.0260 1.0260 1.0260
1716.141381 1.0260 1.0260 1.0260 1.0280 1.0280
1720.888226 1.0280 1.0280 1.0280 1.0280 1.0280
1725.635070 1.0280 1.0280 1.0280 1.0280 1.0260
1730.381915 1.0260 1.0260 1.0250 1.0250 1.0250
1735.128760 1.0230 1.0220 1.0220 1.0200 1.0200
1739.875605 1.0200 1.0200 1.0200 1.0190 1.0190
1744.622450 1.0200 1.0200 1.0200 1.0220 1.0230
1749.369294 1.0230 1.0250 1.0250 1.0250 1.0260
1754.116139 1.0280 1.0280 1.0290 1.0290 1.0290
1758.862984 1.0290 1.0290 1.0290 1.0290 1.0290
1763.609829 1.0290 1.0280 1.0280 1.0280 1.0280
1768.356673 1.0280 1.0280 1.0280 1.0280 1.0280
1773.103518 1.0280 1.0290 1.0290 1.0290 1.0290
1777.850363 1.0290 1.0290 1.0280 1.0280 1.0280
1782.597208 1.0280 1.0280 1.0280 1.0280 1.0260
1787.344052 1.0260 1.0260 1.0260 1.0260 1.0260
1792.090897 1.0260 1.0260 1.0260 1.0260 1.0260
1796.837742 1.0260 1.0260 1.0260 1.0260 1.0260
1801.584587 1.0260 1.0260 1.0260 1.0260 1.0260
1806.331432 1.0260 1.0260 1.0260 1.0260 1.0260
1811.078276 1.0260 1.0260 1.0260 1.0260 1.0260
1815.825121 1.0260 1.0260 1.0280 1.0280 1.0280
1820.571966 1.0280 1.0280 1.0280 1.0280 1.0280
1825.318811 1.0280 1.0280 1.0280 1.0280 1.0280
1830.065655 1.0280 1.0280 1.0280 1.0280 1.0280
1834.812500 1.0280 1.0280 1.0280 1.0280 1.0280
1839.559345 1.0280 1.0280 1.0280 1.0280 1.0280
1844.306190 1.0280 1.0280 1.0280 1.0280 1.0280
1849.053034 1.0280 1.0280 1.0280 1.0280 1.0280
1853.799879 1.0280 1.0280 1.0280 1.0280 1.0280
1858.546724 1.0280 1.0280 1.0280 1.0280 1.0280
1863.293569 1.0280 1.0280 1.0280 1.0280 1.0280
1868.040414 1.0280 1.0280 1.0280 1.0280 1.0280
1872.787258 1.0280 1.0260 1.0260 1.0260 1.0260
1877.534103 1.0260 1.0260 1.0260 1.0260 1.0260
1882.280948 1.0260 1.0260 1.0260 1.0260 1.0260
1887.027793 1.0260 1.0260 1.0260 1.0260 1.0260
1891.774637 1.0260 1.0260 1.0260 1.0260 1.0260
1896.521482 1.0260 1.0260 1.0260 1.0260 1.0260
1901.268327 1.0280 1.0280 1.0280 1.0280 1.0290
1906.015172 1.0290 1.0290 1.0290 1.0290 1.0290
1910.762017 1.0290 1.0290 1.0290 1.0290 1.0290
1915.508861 1.0310 1.0310 1.0290 1.0290 1.0290
1920.255706 1.0290 1.0290 1.0290 1.0290 1.0290
1925.002551 1.0290 1.0280 1.0280 1.0280 1.0280
1929.749396 1.0280 1.0280 1.0280 1.0280 1.0280
1934.496240 1.0280 1.0280 1.0280 1.0280 1.0290
1939.243085 1.0290 1.0290 1.0290 1.0290 1.0290
1943.989930 1.0310 1.0310 1.0310 1.0310 1.0310
1948.736775 1.0310 1.0310 1.0310 1.0310 1.0290
1953.483619 1.0290 1.0290 1.0280 1.0280 1.0280
1958.230464 1.0260 1.0260 1.0260 1.0260 1.0260
1962.977309 1.0250 1.0250 1.0250 1.0230 1.0230
1967.724154 1.0230 1.0220 1.0220 1.0220 1.0220
1972.470999 1.0220 1.0220 1.0200 1.0200 1.0200
1977.217843 1.0200 1.0200 1.0190 1.0190 1.0190
1981.964688 1.0170 1.0170 1.0170 1.0170 1.0160
1986.711533 1.0160 1.0140 1.0130 1.0130 1.0110
1991.458378 1.0100 1.0100 1.0100 1.0080 1.0080
1996.205222 1.0080 1.0070 1.0070 1.0070 1.0070
2000.952067 1.0070 1.0070 1.0070 1.0070 1.0070
2005.698912 1.0070 1.0070 1.0070 1.0070 1.0070
2010.445757 1.0070 1.0070 1.0070 1.0070 1.0075
2015.192602 1.0080 1.0080 1.0080 1.0080 1.0080
2019.939446 1.0080 1.0080 1.0089 1.0099 1.0100
2024.686291 1.0100 1.0100 1.0100 1.0100 1.0100
2029.433136 1.0100 1.0100 1.0100 1.0100 1.0100
2034.179981 1.0100 1.0100 1.0100 1.0100 1.0100
2038.926825 1.0100 1.0100 1.0100 1.0100 1.0100
2043.673670 1.0100 1.0100 1.0100 1.0092 1.0082
2048.420515 1.0080 1.0080 1.0080 1.0080 1.0080
2053.167360 1.0080 1.0076 1.0071 1.0070 1.0070
2057.914204 1.0070 1.0070 1.0070 1.0070 1.0070
2062.661049 1.0070 1.0070 1.0070 1.0070 1.0070
2067.407894 1.0074 1.0079 1.0080 1.0080 1.0088
2072.154739 1.0097 1.0100 1.0100 1.0100 1.0100
2076.901584 1.0104 1.0109 1.0110 1.0110 1.0117
2081.648428 1.0127 1.0130 1.0130 1.0130 1.0130
2086.395273 1.0130 1.0130 1.0130 1.0130 1.0130
2091.142118 1.0130 1.0130 1.0130 1.0130 1.0130
2095.888963 1.0130 1.0130 1.0130 1.0130 1.0130
2100.635807 1.0130 1.0130 1.0130 1.0130 1.0130
2105.382652 1.0130 1.0130 1.0130 1.0130 1.0124
2110.129497 1.0114 1.0110 1.0110 1.0107 1.0102
2114.876342 1.0100 1.0100 1.0100 1.0100 1.0100
2119.623186 1.0100 1.0100 1.0100 1.0094 1.0084
2124.370031 1.0080 1.0080 1.0080 1.0080 1.0080
2129.116876 1.0080 1.0077 1.0072 1.0070 1.0070
2133.863721 1.0070 1.0070 1.0065 1.0055 1.0050
2138.610566 1.0050 1.0050 1.0050 1.0042 1.0027
2143.357410 1.0020 1.0020 1.0017 1.0013 1.0010
2148.104255 1.0010 1.0010 1.0010 1.0008 1.0003
2152.851100 0.9995 0.9985 0.9980 0.9980 0.9990
2157.597945 1.0009 1.0025 1.0035 1.0040 1.0040
2162.344789 1.0042 1.0047 1.0054 1.0064 1.0072
2167.091634 1.0077 1.0080 1.0080 1.0080 1.0080
2171.838479 1.0080 1.0080 1.0080 1.0080 1.0080
2176.585324 1.0080 1.0080 1.0080 1.0080 1.0080
2181.332169 1.0080 1.0080 1.0078 1.0073 1.0070
2186.079013 1.0070 1.0066 1.0056 1.0048 1.0043
2190.825858 1.0040 1.0040 1.0040 1.0040 1.0042
2195.572703 1.0047 1.0053 1.0063 1.0072 1.0077
2200.319548 1.0080 1.0080 1.0083 1.0093 1.0100
2205.066392 1.0100 1.0100 1.0100 1.0100 1.0100
2209.813237 1.0100 1.0100 1.0100 1.0100 1.0100
2214.560082 1.0100 1.0100 1.0100 1.0100 1.0100
2219.306927 1.0100 1.0100 1.0100 1.0100 1.0100
2224.053771 1.0100 1.0100 1.0100 1.0100 1.0100
2228.800616 1.0098 1.0088 1.0080 1.0080 1.0080
2233.547461 1.0080 1.0080 1.0080 1.0080 1.0080
2238.294306 1.0080 1.0080 1.0079 1.0074 1.0070
2243.041151 1.0070 1.0070 1.0070 1.0070 1.0070
2247.787995 1.0070 1.0070 1.0068 1.0058 1.0050
2252.534840 1.0050 1.0050 1.0050 1.0049 1.0044
2257.281685 1.0040 1.0040 1.0040 1.0040 1.0039
2262.028530 1.0029 1.0020 1.0020 1.0020 1.0020
2266.775374 1.0019 1.0015 1.0010 1.0010 1.0010
2271.522219 1.0005 1.0000 1.0000 0.9999 0.9989
2276.269064 0.9980 0.9980 0.9980 0.9975 0.9970
2281.015909 0.9970 0.9970 0.9960 0.9950 0.9950
2285.762754 0.9950 0.9950 0.9950 0.9945 0.9940
2290.509598 0.9940 0.9940 0.9940 0.9940 0.9930
2295.256443 0.9920 0.9920 0.9920 0.9920 0.9920
2300.003288 0.9920 0.9920 0.9920 0.9920 0.9915
2304.750133 0.9910 0.9910 0.9910 0.9910 0.9910
2309.496977 0.9910 0.9910 0.9910 0.9910 0.9910
2314.243822 0.9910 0.9910 0.9910 0.9915 0.9920
2318.990667 0.9920 0.9920 0.9920 0.9920 0.9929
2323.737512 0.9939 0.9940 0.9940 0.9940 0.9940
2328.484356 0.9945 0.9949 0.9950 0.9950 0.9959
2333.231201 0.9969 0.9970 0.9970 0.9970 0.9970
2337.978046 0.9961 0.9951 0.9950 0.9950 0.9946
2342.724891 0.9941 0.9940 0.9940 0.9940 0.9940
2347.471736 0.9944 0.9949 0.9958 0.9968 0.9974
2352.218580 0.9979 0.9980 0.9980 0.9988 0.9998
2356.965425 1.0000 1.0000 0.9992 0.9982 0.9980
2361.712270 0.9980 0.9980 0.9980 0.9980 0.9980
2366.459115 0.9980 0.9980 0.9992 1.0007 1.0014
2371.205959 1.0019 1.0028 1.0037 1.0040 1.0040
2375.952804 1.0051 1.0066 1.0074 1.0079 1.0087
2380.699649 1.0097 1.0104 1.0109 1.0117 1.0127
2385.446494 1.0130 1.0130 1.0130 1.0130 1.0134
2390.193338 1.0139 1.0140 1.0140 1.0147 1.0157
2394.940183 1.0153 1.0143 1.0140 1.0140 1.0140
2399.687028 1.0140 1.0140 1.0140 1.0140 1.0140
2404.433873 1.0140 1.0140 1.0140 1.0140 1.0146
2409.180718 1.0156 1.0160 1.0160 1.0160 1.0160
2413.927562 1.0160 1.0160 1.0160 1.0160 1.0163
2418.674407 1.0168 1.0170 1.0170 1.0170 1.0170
2423.421252 1.0170 1.0170 1.0170 1.0170 1.0170
2428.168097 1.0170 1.0176 1.0186 1.0190 1.0190
2432.914941 1.0190 1.0190 1.0190 1.0190 1.0190
2437.661786 1.0190 1.0190 1.0190 1.0190 1.0190
2442.408631 1.0190 1.0190 1.0190 1.0190 1.0190
2447.155476 1.0190 1.0193 1.0197 1.0200 1.0200
2451.902321 1.0200 1.0200 1.0200 1.0200 1.0205
2456.649165 1.0215 1.0220 1.0220 1.0220 1.0220
2461.396010 1.0220 1.0220 1.0220 1.0220 1.0220
2466.142855 1.0220 1.0220 1.0220 1.0220 1.0220
2470.889700 1.0220 1.0220 1.0220 1.0220 1.0220
2475.636544 1.0220 1.0220 1.0220 1.0220 1.0220
2480.383389 1.0220 1.0220 1.0220 1.0220 1.0220
2485.130234 1.0220 1.0220 1.0220 1.0220 1.0220
2489.877079 1.0220 1.0220 1.0220 1.0220 1.0220
2494.623923 1.0220 1.0220 1.0220 1.0220 1.0220
2499.370768 1.0220 1.0220 1.0220 1.0220 1.0220
2504.117613 1.0220 1.0220 1.0220 1.0220 1.0220
2508.864458 1.0220 1.0220 1.0220 1.0220 1.0220
2513.611303 1.0220 1.0220 1.0220 1.0220 1.0220
2518.358147 1.0220 1.0220 1.0220 1.0220 1.0220
2523.104992 1.0220 1.0220 1.0220 1.0220 1.0220
2527.851837 1.0218 1.0208 1.0200 1.0200 1.0200
2532.598682 1.0200 1.0200 1.0200 1.0200 1.0200
2537.345526 1.0200 1.0200 1.0199 1.0194 1.0190
2542.092371 1.0190 1.0190 1.0190 1.0188 1.0178
2546.839216 1.0170 1.0170 1.0170 1.0170 1.0170
2551.586061 1.0170 1.0169 1.0164 1.0159 1.0149
2556.332906 1.0140 1.0140 1.0139 1.0134 1.0130
2561.079750 1.0130 1.0129 1.0119 1.0110 1.0110
2565.826595 1.0109 1.0094 1.0080 1.0075 1.0069
2570.573440 1.0059 1.0050 1.0045 1.0040 1.0040
2575.320285 1.0039 1.0029 1.0020 1.0020 1.0020
2580.067129 1.0015 1.0010 1.0010 1.0010 1.0010
2584.813974 1.0010 1.0005 1.0000 0.9990 0.9980
2589.560819 0.9975 0.9969 0.9955 0.9940 0.9925
2594.307664 0.9910 0.9895 0.9880 0.9865 0.9850
2599.054508 0.9835 0.9820 0.9795 0.9770 0.9770
2603.801353 0.9770 0.9785 0.9800 0.9814 0.9829
2608.548198 0.9844 0.9860 0.9875 0.9889 0.9900
2613.295043 0.9910 0.9924 0.9939 0.9940 0.9940
2618.041888 0.9940 0.9940 0.9931 0.9921 0.9920
2622.788732 0.9920 0.9915 0.9910 0.9901 0.9891
2627.535577 0.9885 0.9880 0.9866 0.9851 0.9828
2632.282422 0.9803 0.9787 0.9772 0.9766 0.9761
2637.029267 0.9751 0.9741 0.9736 0.9731 0.9734
2641.776111 0.9739 0.9753 0.9768 0.9783 0.9797
2646.522956 0.9834 0.9874 0.9897 0.9917 0.9932
2651.269801 0.9947 1.0000 1.0059 1.0074 1.0079
2656.016646 1.0080 1.0080 1.0088 1.0098 1.0104
2660.763490 1.0109 1.0118 1.0128 1.0130 1.0130
2665.510335 1.0130 1.0130 1.0130 1.0130 1.0130
2670.257180 1.0130 1.0130 1.0130 1.0130 1.0130
2675.004025 1.0130 1.0130 1.0130 1.0130 1.0130
2679.750870 1.0130 1.0130 1.0130 1.0130 1.0130
2684.497714 1.0130 1.0130 1.0130 1.0130 1.0130
2689.244559 1.0130 1.0130 1.0130 1.0130 1.0130
2693.991404 1.0130 1.0130 1.0130 1.0130 1.0130
2698.738249 1.0130 1.0130 1.0130 1.0130 1.0130
2703.485093 1.0130 1.0130 1.0130 1.0130 1.0130
2708.231938 1.0130 1.0130 1.0130 1.0130 1.0130
2712.978783 1.0130 1.0130 1.0130 1.0130 1.0130
2717.725628 1.0130 1.0130 1.0130 1.0130 1.0130
2722.472473 1.0124 1.0114 1.0110 1.0110 1.0110
2727.219317 1.0110 1.0110 1.0110 1.0110 1.0110
2731.966162 1.0110 1.0110 1.0110 1.0110 1.0110
2736.713007 1.0110 1.0110 1.0110 1.0110 1.0110
2741.459852 1.0110 1.0110 1.0110 1.0110 1.0110
2746.206696 1.0110 1.0110 1.0110 1.0110 1.0110
2750.953541 1.0110 1.0110 1.0110 1.0110 1.0110
2755.700386 1.0110 1.0110 1.0110 1.0110 1.0110
2760.447231 1.0110 1.0110 1.0110 1.0110 1.0110
2765.194075 1.0110 1.0110 1.0110 1.0110 1.0110
2769.940920 1.0110 1.0110 1.0110 1.0110 1.0110
2774.687765 1.0110 1.0110 1.0110 1.0110 1.0110
2779.434610 1.0110 1.0110 1.0108 1.0103 1.0100
2784.181455 1.0100 1.0100 1.0100 1.0100 1.0100
2788.928299 1.0100 1.0100 1.0100 1.0100 1.0100
2793.675144 1.0100 1.0100 1.0100 1.0100 1.0100
2798.421989 1.0100 1.0100 1.0100 1.0100 1.0097
2803.168834 1.0087 1.0080 1.0080 1.0080 1.0080
2807.915678 1.0080 1.0080 1.0080 1.0080 1.0079
2812.662523 1.0074 1.0070 1.0070 1.0070 1.0070
2817.409368 1.0070 1.0070 1.0070 1.0070 1.0070
2822.156213 1.0070 1.0067 1.0057 1.0049 1.0044
2826.903057 1.0040 1.0040 1.0040 1.0040 1.0041
2831.649902 1.0046 1.0050 1.0050 1.0052 1.0062
2836.396747 1.0070 1.0070 1.0070 1.0070 1.0070
2841.143592 1.0070 1.0070 1.0070 1.0070 1.0070
2845.890437 1.0070 1.0070 1.0070 1.0070 1.0070
2850.637281 1.0070 1.0069 1.0059 1.0050 1.0050
2855.384126 1.0049 1.0044 1.0040 1.0040 1.0038
2860.130971 1.0023 1.0008 0.9993 0.9978 0.9958
2864.877816 0.9938 0.9923 0.9910 0.9910 0.9909
2869.624660 0.9899 0.9887 0.9858 0.9828 0.9798
2874.371505 0.9770 0.9765 0.9757 0.9728 0.9699
2879.118350 0.9684 0.9669 0.9659 0.9648 0.9613
2883.865195 0.9579 0.9559 0.9540 0.9540 0.9540
2888.612040 0.9530 0.9519 0.9484 0.9449 0.9404
2893.358884 0.9360 0.9319 0.9279 0.9244 0.9210
2898.105729 0.9175 0.9139 0.8990 0.8841 0.8761
2902.852574 0.8681 0.8528 0.8373 0.8375 0.8380
2907.599419 0.8496 0.8615 0.8663 0.8708 0.8919
2912.346263 0.9138 0.9255 0.9365 0.9456 0.9545
2917.093108 0.9578 0.9608 0.9652 0.9697 0.9728
2921.839953 0.9758 0.9788 0.9817 0.9834 0.9849
2926.586798 0.9850 0.9850 0.9854 0.9859 0.9860
2931.333642 0.9860 0.9856 0.9851 0.9841 0.9831
2936.080487 0.9830 0.9830 0.9826 0.9821 0.9807
2940.827332 0.9792 0.9781 0.9771 0.9740 0.9705
2945.574177 0.9692 0.9682 0.9676 0.9671 0.9662
2950.321022 0.9652 0.9658 0.9668 0.9699 0.9734
2955.067866 0.9773 0.9813 0.9836 0.9856 0.9872
2959.814711 0.9887 0.9914 0.9944 0.9958 0.9968
2964.561556 0.9974 0.9979 0.9992 1.0007 1.0010
2969.308401 1.0010 1.0014 1.0019 1.0020 1.0020
2974.055245 1.0020 1.0020 1.0020 1.0020 1.0027
2978.802090 1.0037 1.0040 1.0040 1.0040 1.0040
2983.548935 1.0040 1.0040 1.0040 1.0040 1.0044
2988.295780 1.0049 1.0050 1.0050 1.0050 1.0050
2993.042625 1.0050 1.0050 1.0057 1.0067 1.0070
2997.789469 1.0070 1.0070 1.0070 1.0070 1.0070
3002.536314 1.0070 1.0070 1.0070 1.0070 1.0070
3007.283159 1.0070 1.0070 1.0070 1.0070 1.0070
3012.030004 1.0070 1.0070 1.0070 1.0070 1.0070
3016.776848 1.0070 1.0070 1.0070 1.0070 1.0070
3021.523693 1.0070 1.0070 1.0070 1.0070 1.0070
3026.270538 1.0070 1.0070 1.0070 1.0070 1.0070
3031.017383 1.0070 1.0070 1.0070 1.0070 1.0070
3035.764227 1.0070 1.0065 1.0055 1.0050 1.0050
3040.511072 1.0050 1.0050 1.0050 1.0050 1.0050
3045.257917 1.0050 1.0050 1.0050 1.0050 1.0050
3050.004762 1.0050 1.0050 1.0050 1.0050 1.0048
3054.751607 1.0043 1.0042 1.0047 1.0050 1.0050
3059.498451 1.0050 1.0050 1.0050 1.0050 1.0050
3064.245296 1.0050 1.0050 1.0050 1.0050 1.0050
3068.992141 1.0050 1.0050 1.0050 1.0050 1.0050
3073.738986 1.0050 1.0050 1.0050 1.0050 1.0050
3078.485830 1.0050 1.0050 1.0050 1.0050 1.0050
3083.232675 1.0050 1.0054 1.0064 1.0070 1.0070
3087.979520 1.0070 1.0070 1.0070 1.0070 1.0070
3092.726365 1.0070 1.0070 1.0070 1.0070 1.0070
3097.473209 1.0070 1.0070 1.0070 1.0070 1.0070
3102.220054 1.0070 1.0070 1.0070 1.0070 1.0070
3106.966899 1.0070 1.0070 1.0070 1.0070 1.0070
3111.713744 1.0070 1.0070 1.0070 1.0070 1.0070
3116.460589 1.0070 1.0070 1.0070 1.0070 1.0070
3121.207433 1.0070 1.0070 1.0070 1.0070 1.0070
3125.954278 1.0070 1.0070 1.0070 1.0070 1.0070
3130.701123 1.0070 1.0070 1.0070 1.0070 1.0070
3135.447968 1.0070 1.0070 1.0070 1.0070 1.0070
3140.194812 1.0070 1.0070 1.0070 1.0070 1.0070
3144.941657 1.0070 1.0070 1.0070 1.0070 1.0070
3149.688502 1.0070 1.0070 1.0070 1.0070 1.0070
3154.435347 1.0069 1.0059 1.0050 1.0050 1.0050
3159.182192 1.0050 1.0050 1.0050 1.0050 1.0050
3163.929036 1.0050 1.0050 1.0050 1.0050 1.0050
3168.675881 1.0050 1.0050 1.0045 1.0040 1.0040
3173.422726 1.0040 1.0040 1.0039 1.0029 1.0020
3178.169571 1.0020 1.0020 1.0020 1.0020 1.0015
3182.916415 1.0010 1.0010 1.0010 1.0010 1.0010
3187.663260 1.0010 1.0010 1.0005 1.0000 1.0000
3192.410105 1.0000 1.0000 1.0000 1.0000 1.0000
3197.156950 0.9990 0.9980 0.9980 0.9980 0.9980
3201.903794 0.9980 0.9980 0.9980 0.9975 0.9970
3206.650639 0.9970 0.9970 0.9970 0.9970 0.9975
3211.397484 0.9980 0.9980 0.9980 0.9989 0.9999
3216.144329 1.0000 1.0000 1.0000 1.0000 1.0000
3220.891174 1.0000 1.0000 1.0000 1.0005 1.0010
3225.638018 1.0010 1.0010 1.0010 1.0010 1.0010
3230.384863 1.0010 1.0010 1.0010 1.0010 1.0010
3235.131708 1.0010 1.0010 1.0010 1.0010 1.0010
3239.878553 1.0010 1.0010 1.0010 1.0006 1.0001
3244.625397 1.0000 1.0000 1.0000 1.0000 1.0000
3249.372242 1.0000 1.0000 1.0000 1.0000 1.0000
3254.119087 1.0000 1.0000 1.0000 1.0000 1.0000
3258.865932 1.0000 1.0000 1.0000 1.0000 1.0000
3263.612777 1.0000 1.0000 1.0000 1.0000 0.9992
3268.359621 0.9982 0.9980 0.9980 0.9980 0.9980
3273.106466 0.9980 0.9980 0.9980 0.9980 0.9980
3277.853311 0.9980 0.9976 0.9971 0.9970 0.9970
3282.600156 0.9970 0.9970 0.9970 0.9970 0.9970
3287.347000 0.9970 0.9970 0.9970 0.9970 0.9970
3292.093845 0.9963 0.9953 0.9950 0.9950 0.9950
3296.840690 0.9950 0.9950 0.9950 0.9950 0.9950
3301.587535 0.9957 0.9967 0.9970 0.9970 0.9970
3306.334379 0.9970 0.9970 0.9970 0.9970 0.9970
3311.081224 0.9970 0.9970 0.9970 0.9970 0.9970
3315.828069 0.9970 0.9970 0.9970 0.9970 0.9970
3320.574914 0.9970 0.9970 0.9970 0.9970 0.9970
3325.321759 0.9970 0.9964 0.9954 0.9950 0.9950
3330.068603 0.9950 0.9950 0.9950 0.9950 0.9947
3334.815448 0.9942 0.9940 0.9940 0.9940 0.9940
3339.562293 0.9940 0.9940 0.9940 0.9940 0.9940
3344.309138 0.9940 0.9940 0.9940 0.9940 0.9940
3349.055982 0.9940 0.9940 0.9940 0.9940 0.9940
3353.802827 0.9940 0.9940 0.9940 0.9940 0.9940
3358.549672 0.9940 0.9940 0.9940 0.9940 0.9940
3363.296517 0.9940 0.9940 0.9940 0.9940 0.9940
3368.043361 0.9940 0.9940 0.9940 0.9940 0.9940
3372.790206 0.9940 0.9940 0.9940 0.9940 0.9940
3377.537051 0.9940 0.9940 0.9940 0.9940 0.9940
3382.283896 0.9940 0.9940 0.9940 0.9940 0.9940
3387.030741 0.9940 0.9940 0.9940 0.9940 0.9940
3391.777585 0.9940 0.9940 0.9940 0.9936 0.9927
3396.524430 0.9920 0.9920 0.9920 0.9920 0.9920
3401.271275 0.9920 0.9920 0.9920 0.9920 0.9920
3406.018120 0.9920 0.9920 0.9920 0.9920 0.9920
3410.764964 0.9920 0.9919 0.9914 0.9910 0.9910
3415.511809 0.9910 0.9910 0.9910 0.9910 0.9910
3420.258654 0.9910 0.9910 0.9910 0.9910 0.9910
3425.005499 0.9910 0.9910 0.9910 0.9910 0.9910
3429.752344 0.9910 0.9910 0.9910 0.9910 0.9910
3434.499188 0.9910 0.9910 0.9910 0.9910 0.9910
3439.246033 0.9910 0.9910 0.9910 0.9910 0.9910
3443.992878 0.9908 0.9898 0.9890 0.9890 0.9890
3448.739723 0.9890 0.9890 0.9890 0.9890 0.9890
3453.486567 0.9890 0.9890 0.9890 0.9890 0.9890
3458.233412 0.9890 0.9889 0.9884 0.9880 0.9880
3462.980257 0.9880 0.9880 0.9880 0.9880 0.9880
3467.727102 0.9880 0.9880 0.9880 0.9880 0.9880
3472.473946 0.9880 0.9880 0.9880 0.9880 0.9880
3477.220791 0.9880 0.9879 0.9869 0.9860 0.9860
3481.967636 0.9860 0.9860 0.9860 0.9860 0.9860
3486.714481 0.9860 0.9860 0.9860 0.9860 0.9860
3491.461326 0.9860 0.9860 0.9860 0.9860 0.9860
3496.208170 0.9860 0.9860 0.9860 0.9860 0.9860
3500.955015 0.9860 0.9860 0.9860 0.9870 0.9880
3505.701860 0.9880 0.9880 0.9880 0.9880 0.9880
3510.448705 0.9880 0.9880 0.9880 0.9880 0.9880
3515.195549 0.9880 0.9880 0.9880 0.9880 0.9871
3519.942394 0.9861 0.9860 0.9860 0.9860 0.9860
3524.689239 0.9855 0.9850 0.9850 0.9850 0.9850
3529.436084 0.9850 0.9850 0.9850 0.9850 0.9850
3534.182929 0.9850 0.9850 0.9850 0.9850 0.9850
3538.929773 0.9850 0.9850 0.9850 0.9850 0.9850
3543.676618 0.9850 0.9850 0.9850 0.9850 0.9850
3548.423463 0.9850 0.9850 0.9850 0.9850 0.9850
3553.170308 0.9850 0.9850 0.9850 0.9850 0.9850
3557.917152 0.9850 0.9850 0.9850 0.9850 0.9850
3562.663997 0.9850 0.9850 0.9850 0.9850 0.9850
3567.410842 0.9850 0.9850 0.9850 0.9850 0.9850
3572.157687 0.9850 0.9850 0.9850 0.9850 0.9850
3576.904531 0.9850 0.9850 0.9850 0.9850 0.9850
3581.651376 0.9850 0.9850 0.9850 0.9850 0.9850
3586.398221 0.9850 0.9850 0.9850 0.9850 0.9850
3591.145066 0.9850 0.9850 0.9850 0.9850 0.9850
3595.891911 0.9850 0.9850 0.9850 0.9850 0.9850
3600.638755 0.9850 0.9850 0.9850 0.9850 0.9843
3605.385600 0.9834 0.9830 0.9830 0.9830 0.9830
3610.132445 0.9830 0.9830 0.9830 0.9830 0.9830
3614.879290 0.9830 0.9830 0.9830 0.9827 0.9822
3619.626134 0.9820 0.9820 0.9820 0.9820 0.9820
3624.372979 0.9820 0.9820 0.9820 0.9820 0.9820
3629.119824 0.9820 0.9820 0.9814 0.9804 0.9797
3633.866669 0.9792 0.9790 0.9790 0.9790 0.9790
3638.613513 0.9793 0.9798 0.9800 0.9800 0.9800
3643.360358 0.9800 0.9800 0.9800 0.9797 0.9792
3648.107203 0.9790 0.9790 0.9790 0.9790 0.9785
3652.854048 0.9775 0.9770 0.9770 0.9770 0.9770
3657.600893 0.9770 0.9770 0.9775 0.9785 0.9790
3662.347737 0.9790 0.9790 0.9790 0.9790 0.9790
3667.094582 0.9790 0.9790 0.9790 0.9790 0.9790
3671.841427 0.9790 0.9790 0.9790 0.9792 0.9797
3676.588272 0.9800 0.9800 0.9800 0.9800 0.9800
3681.335116 0.9800 0.9800 0.9800 0.9800 0.9800
3686.081961 0.9800 0.9800 0.9800 0.9800 0.9800
3690.828806 0.9800 0.9798 0.9793 0.9790 0.9790
3695.575651 0.9786 0.9777 0.9768 0.9763 0.9760
3700.322496 0.9760 0.9760 0.9760 0.9760 0.9760
3705.069340 0.9760 0.9760 0.9760 0.9760 0.9760
3709.816185 0.9760 0.9761 0.9766 0.9770 0.9770
3714.563030 0.9773 0.9783 0.9790 0.9790 0.9791
3719.309875 0.9796 0.9803 0.9813 0.9821 0.9826
3724.056719 0.9830 0.9830 0.9830 0.9830 0.9830
3728.803564 0.9830 0.9829 0.9824 0.9820 0.9820
3733.550409 0.9818 0.9808 0.9800 0.9800 0.9799
3738.297254 0.9794 0.9790 0.9790 0.9790 0.9790
3743.044098 0.9790 0.9790 0.9790 0.9790 0.9790
3747.790943 0.9790 0.9790 0.9790 0.9790 0.9790
3752.537788 0.9790 0.9790 0.9790 0.9790 0.9791
3757.284633 0.9796 0.9800 0.9800 0.9800 0.9800
3762.031478 0.9800 0.9800 0.9801 0.9811 0.9820
3766.778322 0.9820 0.9820 0.9820 0.9820 0.9820
3771.525167 0.9821 0.9825 0.9830 0.9830 0.9830
3776.272012 0.9830 0.9830 0.9830 0.9830 0.9830
3781.018857 0.9830 0.9830 0.9830 0.9830 0.9830
3785.765701 0.9830 0.9830 0.9830 0.9830 0.9830
3790.512546 0.9830 0.9830 0.9830 0.9825 0.9820
3795.259391 0.9820 0.9820 0.9810 0.9800 0.9800
3800.006236 0.9800 0.9800 0.9800 0.9800 0.9800
##END=
