##TITLE=PENTACHLOROETHANE
##JCAMP-DX=4.24
##DATA TYPE=INFRARED SPECTRUM
##CLASS=COBLENTZ
##ORIGIN=W.T. BOLLETER
##OWNER=COBLENTZ SOCIETY
Collection (C) 2018 copyright by the U.S. Secretary of Commerce
on behalf of the United States of America. All rights reserved.
##DATE=Not specified, most likely prior to 1970
##NAMES=1,1,1,2,2-pentachloroethane
##CAS REGISTRY NO=76-01-7
##MOLFORM=C2 H Cl5
##SOURCE REFERENCE=COBLENTZ NO. 4476
##$NIST SOURCE=COBLENTZ
##$NIST IMAGE=cob4476
##SPECTROMETER/DATA SYSTEM=Not specified, most likely a prism, grating, or hybrid spectrometer.
##PATH LENGTH=0.0025 CM
##SAMPLING PROCEDURE=TRANSMISSION
##RESOLUTION=4
##DATA PROCESSING=DIGITIZED BY NIST FROM HARD COPY
##XUNITS=MICROMETERS
##YUNITS=TRANSMITTANCE
##XFACTOR=1.000000
##YFACTOR=1
##DELTAX=000.017493
##FIRSTX=14.525
##LASTX=37.965
##FIRSTY=0.394
##MAXX=37.965
##MINX=14.525
##MAXY=0.937
##MINY=0.053
##NPOINTS=1341
##XYDATA=(X++(Y..Y))
14.525000 0.3940 0.3920 0.3920 0.3900 0.3870
14.612529 0.3830 0.3800 0.3780 0.3710 0.3690
14.700000 0.3650 0.3640 0.3640 0.3650 0.3730
14.787529 0.3760 0.3850 0.3960 0.3970 0.4060
14.875000 0.4120 0.4240 0.4360 0.4450 0.4510
14.962529 0.4610 0.4650 0.4790 0.4970 0.5040
15.050000 0.5150 0.5200 0.5290 0.5390 0.5470
15.137529 0.5500 0.5540 0.5570 0.5590 0.5610
15.224000 0.5610 0.5590 0.5590 0.5570 0.5570
15.311529 0.5550 0.5540 0.5500 0.5480 0.5500
15.399000 0.5540 0.5610 0.5660 0.5750 0.5800
15.486529 0.5860 0.5950 0.6020 0.6110 0.6160
15.574000 0.6230 0.6300 0.6350 0.6460 0.6480
15.661529 0.6530 0.6580 0.6640 0.6710 0.6760
15.749000 0.6820 0.6850 0.6980 0.6990 0.7010
15.836529 0.7080 0.7150 0.7170 0.7190 0.7210
15.924000 0.7210 0.7210 0.7220 0.7220 0.7220
16.011529 0.7210 0.7170 0.7170 0.7150 0.7150
16.099000 0.7120 0.7100 0.7080 0.7010 0.6980
16.186529 0.6890 0.6830 0.6780 0.6710 0.6620
16.274000 0.6580 0.6510 0.6480 0.6320 0.6260
16.361529 0.6210 0.6030 0.5960 0.5770 0.5700
16.449000 0.5630 0.5520 0.5360 0.5220 0.5060
16.536529 0.4930 0.4830 0.4740 0.4520 0.4450
16.624000 0.4330 0.4200 0.4010 0.3970 0.3780
16.711529 0.3530 0.3460 0.3260 0.3140 0.3010
16.799000 0.2840 0.2690 0.2460 0.2250 0.2130
16.886529 0.1950 0.1750 0.1590 0.1420 0.1290
16.974000 0.1170 0.0900 0.0880 0.0710 0.0690
17.061529 0.0650 0.0600 0.0600 0.0580 0.0560
17.149000 0.0560 0.0550 0.0550 0.0550 0.0550
17.236529 0.0550 0.0530 0.0530 0.0530 0.0530
17.324000 0.0530 0.0530 0.0550 0.0560 0.0580
17.411529 0.0600 0.0630 0.0690 0.0720 0.0850
17.499000 0.0950 0.1040 0.1150 0.1200 0.1360
17.586529 0.1520 0.1840 0.2040 0.2290 0.2520
17.673000 0.2770 0.3000 0.3140 0.3350 0.3490
17.760529 0.3730 0.3940 0.3990 0.4120 0.4240
17.848000 0.4330 0.4470 0.4510 0.4600 0.4700
17.935529 0.4770 0.4840 0.4930 0.4970 0.5020
18.023000 0.5150 0.5180 0.5250 0.5290 0.5360
18.110529 0.5410 0.5480 0.5540 0.5610 0.5660
18.198000 0.5680 0.5730 0.5820 0.5890 0.5980
18.285529 0.6000 0.6020 0.6050 0.6110 0.6140
18.373000 0.6160 0.6210 0.6260 0.6320 0.6350
18.460529 0.6410 0.6480 0.6530 0.6620 0.6710
18.548000 0.6740 0.6820 0.6890 0.6990 0.7080
18.635529 0.7220 0.7310 0.7380 0.7510 0.7580
18.723000 0.7650 0.7700 0.7770 0.7810 0.7900
18.810529 0.7970 0.7990 0.8020 0.8080 0.8110
18.898000 0.8150 0.8170 0.8180 0.8180 0.8220
18.985529 0.8250 0.8270 0.8290 0.8310 0.8310
19.073000 0.8330 0.8380 0.8450 0.8470 0.8470
19.160529 0.8490 0.8490 0.8500 0.8500 0.8500
19.248000 0.8500 0.8500 0.8500 0.8500 0.8490
19.335529 0.8490 0.8490 0.8470 0.8430 0.8410
19.423000 0.8400 0.8360 0.8340 0.8330 0.8310
19.510529 0.8270 0.8240 0.8180 0.8170 0.8150
19.598000 0.8110 0.8090 0.8060 0.8040 0.8040
19.685529 0.8020 0.7990 0.7950 0.7950 0.7930
19.773000 0.7930 0.7930 0.7950 0.7970 0.7970
19.860529 0.7990 0.7990 0.8010 0.8010 0.8020
19.948000 0.8020 0.8020 0.8020 0.8020 0.8020
20.035529 0.8010 0.8010 0.7990 0.7990 0.7970
20.122000 0.7950 0.7920 0.7880 0.7860 0.7850
20.209529 0.7830 0.7830 0.7810 0.7810 0.7810
20.297000 0.7810 0.7790 0.7790 0.7790 0.7790
20.384529 0.7790 0.7790 0.7790 0.7790 0.7790
20.472000 0.7810 0.7810 0.7810 0.7830 0.7850
20.559529 0.7860 0.7860 0.7900 0.7920 0.7930
20.647000 0.7930 0.7950 0.7970 0.7990 0.8010
20.734529 0.8010 0.8020 0.8060 0.8080 0.8080
20.822000 0.8090 0.8090 0.8110 0.8130 0.8130
20.909529 0.8150 0.8150 0.8170 0.8170 0.8180
20.997000 0.8200 0.8200 0.8220 0.8220 0.8220
21.084529 0.8220 0.8220 0.8240 0.8240 0.8250
21.172000 0.8270 0.8270 0.8270 0.8310 0.8310
21.259529 0.8310 0.8330 0.8330 0.8330 0.8340
21.347000 0.8340 0.8340 0.8380 0.8400 0.8430
21.434529 0.8430 0.8450 0.8450 0.8430 0.8410
21.522000 0.8410 0.8410 0.8410 0.8410 0.8410
21.609529 0.8410 0.8410 0.8400 0.8400 0.8380
21.697000 0.8360 0.8340 0.8330 0.8330 0.8310
21.784529 0.8310 0.8290 0.8270 0.8270 0.8240
21.872000 0.8220 0.8200 0.8180 0.8170 0.8150
21.959529 0.8110 0.8090 0.8080 0.8060 0.8020
22.047000 0.8010 0.7990 0.7970 0.7930 0.7900
22.134529 0.7850 0.7830 0.7810 0.7770 0.7760
22.222000 0.7740 0.7720 0.7700 0.7690 0.7670
22.309529 0.7650 0.7630 0.7610 0.7560 0.7560
22.397000 0.7540 0.7540 0.7540 0.7530 0.7530
22.484529 0.7530 0.7530 0.7530 0.7530 0.7530
22.571000 0.7530 0.7540 0.7540 0.7560 0.7580
22.658529 0.7580 0.7600 0.7600 0.7610 0.7630
22.746000 0.7650 0.7690 0.7700 0.7740 0.7740
22.833529 0.7770 0.7810 0.7830 0.7850 0.7860
22.921000 0.7900 0.7920 0.7970 0.7970 0.7990
23.008529 0.8020 0.8040 0.8080 0.8080 0.8090
23.096000 0.8110 0.8130 0.8170 0.8170 0.8180
23.183529 0.8180 0.8200 0.8220 0.8240 0.8250
23.271000 0.8270 0.8290 0.8310 0.8330 0.8340
23.358529 0.8340 0.8360 0.8380 0.8380 0.8380
23.446000 0.8400 0.8410 0.8430 0.8430 0.8430
23.533529 0.8450 0.8450 0.8450 0.8450 0.8450
23.621000 0.8450 0.8470 0.8470 0.8490 0.8490
23.708529 0.8490 0.8500 0.8500 0.8500 0.8500
23.796000 0.8500 0.8490 0.8470 0.8470 0.8470
23.883529 0.8450 0.8430 0.8410 0.8410 0.8400
23.971000 0.8380 0.8360 0.8340 0.8330 0.8310
24.058529 0.8290 0.8250 0.8220 0.8170 0.8150
24.146000 0.8110 0.8040 0.8020 0.8010 0.7920
24.233529 0.7880 0.7810 0.7700 0.7530 0.7380
24.321000 0.7210 0.7050 0.6960 0.6690 0.6460
24.408529 0.6180 0.5960 0.5770 0.5520 0.5250
24.496000 0.5000 0.4770 0.4540 0.4420 0.4280
24.583529 0.4120 0.3990 0.3810 0.3640 0.3510
24.671000 0.3490 0.3390 0.3350 0.3330 0.3320
24.758529 0.3320 0.3300 0.3300 0.3300 0.3320
24.845000 0.3350 0.3460 0.3530 0.3600 0.3670
24.932529 0.3760 0.3900 0.4150 0.4280 0.4400
25.020000 0.4520 0.4630 0.4700 0.4860 0.5000
25.107529 0.5070 0.5150 0.5320 0.5390 0.5520
25.195000 0.5680 0.5860 0.6020 0.6120 0.6250
25.282529 0.6350 0.6480 0.6550 0.6710 0.6800
25.370000 0.6900 0.7030 0.7190 0.7300 0.7380
25.457529 0.7510 0.7630 0.7770 0.7900 0.8040
25.545000 0.8150 0.8180 0.8250 0.8330 0.8380
25.632529 0.8430 0.8490 0.8500 0.8540 0.8560
25.720000 0.8610 0.8660 0.8700 0.8720 0.8770
25.807529 0.8800 0.8820 0.8840 0.8880 0.8930
25.895000 0.8950 0.8960 0.8980 0.9000 0.9000
25.982529 0.9020 0.9020 0.9040 0.9040 0.9040
26.070000 0.9040 0.9040 0.9050 0.9050 0.9050
26.157529 0.9050 0.9050 0.9070 0.9070 0.9070
26.245000 0.9070 0.9070 0.9070 0.9070 0.9070
26.332529 0.9090 0.9110 0.9110 0.9110 0.9110
26.420000 0.9090 0.9090 0.9110 0.9110 0.9110
26.507529 0.9110 0.9110 0.9090 0.9090 0.9090
26.595000 0.9090 0.9090 0.9090 0.9090 0.9090
26.682529 0.9070 0.9050 0.9050 0.9040 0.9020
26.770000 0.9020 0.9020 0.9020 0.9020 0.9020
26.857529 0.9020 0.9020 0.9020 0.9000 0.9000
26.945000 0.9000 0.8980 0.8960 0.8960 0.8950
27.032529 0.8950 0.8950 0.8930 0.8930 0.8930
27.120000 0.8910 0.8890 0.8890 0.8890 0.8890
27.207529 0.8890 0.8890 0.8910 0.8910 0.8910
27.294000 0.8910 0.8910 0.8910 0.8910 0.8910
27.381529 0.8910 0.8930 0.8930 0.8930 0.8950
27.469000 0.8960 0.8960 0.8960 0.8980 0.8980
27.556529 0.8980 0.8980 0.8980 0.8980 0.9000
27.644000 0.9000 0.9000 0.9000 0.9000 0.9020
27.731529 0.9040 0.9040 0.9050 0.9050 0.9050
27.819000 0.9090 0.9090 0.9120 0.9120 0.9140
27.906529 0.9140 0.9160 0.9180 0.9200 0.9210
27.994000 0.9230 0.9250 0.9250 0.9270 0.9270
28.081529 0.9280 0.9280 0.9280 0.9300 0.9300
28.169000 0.9300 0.9300 0.9300 0.9300 0.9300
28.256529 0.9300 0.9320 0.9320 0.9320 0.9340
28.344000 0.9340 0.9340 0.9360 0.9360 0.9370
28.431529 0.9370 0.9370 0.9360 0.9360 0.9360
28.519000 0.9360 0.9360 0.9340 0.9340 0.9340
28.606529 0.9340 0.9340 0.9320 0.9320 0.9320
28.694000 0.9320 0.9320 0.9300 0.9300 0.9300
28.781529 0.9300 0.9300 0.9300 0.9300 0.9300
28.869000 0.9300 0.9280 0.9280 0.9270 0.9270
28.956529 0.9270 0.9270 0.9270 0.9270 0.9250
29.044000 0.9250 0.9230 0.9230 0.9230 0.9210
29.131529 0.9200 0.9180 0.9180 0.9180 0.9160
29.219000 0.9140 0.9120 0.9110 0.9110 0.9090
29.306529 0.9090 0.9090 0.9090 0.9070 0.9050
29.394000 0.9020 0.9020 0.9000 0.9000 0.8980
29.481529 0.8980 0.8960 0.8950 0.8930 0.8910
29.569000 0.8910 0.8880 0.8860 0.8840 0.8820
29.656529 0.8790 0.8770 0.8730 0.8720 0.8680
29.743000 0.8650 0.8610 0.8570 0.8540 0.8520
29.830529 0.8470 0.8330 0.8270 0.8220 0.8150
29.918000 0.8110 0.8060 0.7970 0.7880 0.7770
30.005529 0.7630 0.7510 0.7370 0.7260 0.7120
30.093000 0.6990 0.6820 0.6640 0.6500 0.6300
30.180529 0.6050 0.5960 0.5750 0.5520 0.5340
30.268000 0.5150 0.4990 0.4830 0.4610 0.4400
30.355529 0.4200 0.4100 0.3970 0.3780 0.3620
30.443000 0.3510 0.3410 0.3280 0.3140 0.2980
30.530529 0.2840 0.2730 0.2660 0.2590 0.2550
30.618000 0.2520 0.2480 0.2460 0.2430 0.2430
30.705529 0.2410 0.2410 0.2410 0.2410 0.2430
30.793000 0.2480 0.2500 0.2520 0.2590 0.2640
30.880529 0.2730 0.2840 0.2980 0.3090 0.3230
30.968000 0.3390 0.3640 0.3940 0.4040 0.4060
31.055529 0.4130 0.4440 0.4520 0.4740 0.4860
31.143000 0.4990 0.5130 0.5270 0.5480 0.5640
31.230529 0.5840 0.6020 0.6180 0.6300 0.6410
31.318000 0.6510 0.6690 0.6870 0.7010 0.7100
31.405529 0.7210 0.7280 0.7420 0.7610 0.7760
31.493000 0.7850 0.7920 0.7970 0.7990 0.8010
31.580529 0.8020 0.8020 0.8080 0.8090 0.8110
31.668000 0.8130 0.8170 0.8180 0.8200 0.8220
31.755529 0.8240 0.8250 0.8270 0.8310 0.8310
31.843000 0.8330 0.8330 0.8330 0.8340 0.8360
31.930529 0.8380 0.8380 0.8400 0.8430 0.8470
32.017000 0.8490 0.8500 0.8520 0.8540 0.8540
32.104529 0.8570 0.8570 0.8590 0.8610 0.8630
32.192000 0.8630 0.8650 0.8650 0.8650 0.8650
32.279529 0.8650 0.8650 0.8650 0.8650 0.8660
32.367000 0.8660 0.8660 0.8660 0.8660 0.8650
32.454529 0.8650 0.8650 0.8660 0.8650 0.8650
32.542000 0.8650 0.8650 0.8650 0.8650 0.8650
32.629529 0.8630 0.8630 0.8610 0.8610 0.8610
32.717000 0.8610 0.8610 0.8630 0.8630 0.8630
32.804529 0.8630 0.8650 0.8650 0.8650 0.8660
32.892000 0.8660 0.8660 0.8660 0.8660 0.8680
32.979529 0.8680 0.8660 0.8660 0.8650 0.8650
33.067000 0.8650 0.8650 0.8650 0.8650 0.8650
33.154529 0.8650 0.8630 0.8630 0.8630 0.8610
33.242000 0.8610 0.8610 0.8590 0.8590 0.8590
33.329529 0.8570 0.8570 0.8570 0.8570 0.8570
33.417000 0.8570 0.8570 0.8570 0.8570 0.8560
33.504529 0.8560 0.8540 0.8540 0.8520 0.8520
33.592000 0.8520 0.8520 0.8520 0.8520 0.8520
33.679529 0.8520 0.8520 0.8520 0.8520 0.8520
33.767000 0.8520 0.8520 0.8500 0.8500 0.8500
33.854529 0.8500 0.8500 0.8500 0.8500 0.8500
33.942000 0.8500 0.8500 0.8500 0.8490 0.8490
34.029529 0.8490 0.8490 0.8490 0.8490 0.8490
34.117000 0.8470 0.8470 0.8470 0.8450 0.8450
34.204529 0.8430 0.8430 0.8430 0.8430 0.8430
34.292000 0.8430 0.8430 0.8430 0.8430 0.8430
34.379529 0.8430 0.8430 0.8430 0.8430 0.8430
34.466000 0.8410 0.8410 0.8410 0.8410 0.8400
34.553529 0.8400 0.8400 0.8380 0.8380 0.8360
34.641000 0.8360 0.8340 0.8340 0.8330 0.8330
34.728529 0.8330 0.8310 0.8310 0.8290 0.8290
34.816000 0.8270 0.8270 0.8250 0.8240 0.8200
34.903529 0.8180 0.8170 0.8170 0.8150 0.8110
34.991000 0.8080 0.8060 0.8040 0.8040 0.8020
35.078529 0.8020 0.8010 0.7990 0.7970 0.7950
35.166000 0.7930 0.7920 0.7880 0.7850 0.7850
35.253529 0.7850 0.7830 0.7830 0.7810 0.7810
35.341000 0.7790 0.7770 0.7740 0.7720 0.7720
35.428529 0.7690 0.7670 0.7630 0.7610 0.7600
35.516000 0.7560 0.7540 0.7530 0.7510 0.7490
35.603529 0.7470 0.7420 0.7380 0.7330 0.7280
35.691000 0.7260 0.7260 0.7240 0.7220 0.7210
35.778529 0.7210 0.7190 0.7170 0.7170 0.7150
35.866000 0.7150 0.7150 0.7140 0.7120 0.7120
35.953529 0.7120 0.7100 0.7080 0.7080 0.7060
36.041000 0.7060 0.7050 0.7050 0.7050 0.7050
36.128529 0.7030 0.7030 0.7030 0.7030 0.7010
36.216000 0.7010 0.7010 0.7010 0.7010 0.7010
36.303529 0.7010 0.7030 0.7030 0.7030 0.7030
36.391000 0.7050 0.7050 0.7050 0.7050 0.7060
36.478529 0.7060 0.7080 0.7080 0.7100 0.7100
36.566000 0.7100 0.7120 0.7120 0.7120 0.7140
36.653529 0.7150 0.7150 0.7170 0.7170 0.7190
36.741000 0.7190 0.7210 0.7210 0.7210 0.7210
36.828529 0.7220 0.7220 0.7240 0.7260 0.7260
36.915000 0.7280 0.7280 0.7300 0.7310 0.7310
37.002529 0.7330 0.7350 0.7350 0.7370 0.7370
37.090000 0.7370 0.7370 0.7380 0.7380 0.7400
37.177529 0.7420 0.7420 0.7420 0.7440 0.7460
37.265000 0.7470 0.7470 0.7470 0.7490 0.7490
37.352529 0.7490 0.7510 0.7510 0.7510 0.7530
37.440000 0.7530 0.7530 0.7540 0.7560 0.7600
37.527529 0.7610 0.7610 0.7630 0.7650 0.7670
37.615000 0.7690 0.7700 0.7700 0.7700 0.7720
37.702529 0.7740 0.7740 0.7740 0.7740 0.7760
37.790000 0.7760 0.7760 0.7770 0.7790 0.7790
37.877529 0.7810 0.7830 0.7850 0.7860 0.7880
37.965000 0.7880
##END=
