##TITLE=3,4-DICHLORO-1-BUTENE
##JCAMP-DX=4.24
##DATA TYPE=INFRARED SPECTRUM
##CLASS=COBLENTZ
##ORIGIN=W.T. BOLLETER
##OWNER=COBLENTZ SOCIETY
Collection (C) 2018 copyright by the U.S. Secretary of Commerce
on behalf of the United States of America. All rights reserved.
##DATE=Not specified, most likely prior to 1970
##CAS REGISTRY NO=760-23-6
##MOLFORM=C4 H6 Cl2
##SOURCE REFERENCE=COBLENTZ NO. 4513
##$NIST SOURCE=COBLENTZ
##$NIST IMAGE=cob4513
##SPECTROMETER/DATA SYSTEM=Not specified, most likely a prism, grating, or hybrid spectrometer.
##PATH LENGTH=0.0025 CM
##SAMPLING PROCEDURE=TRANSMISSION
##RESOLUTION=4
##DATA PROCESSING=DIGITIZED BY NIST FROM HARD COPY
##XUNITS=MICROMETERS
##YUNITS=TRANSMITTANCE
##XFACTOR=1.000000
##YFACTOR=1
##DELTAX=000.017502
##FIRSTX=14.495
##LASTX=37.982
##FIRSTY=0.023
##MAXX=37.982
##MINX=14.495
##MAXY=0.88
##MINY=0.023
##NPOINTS=1343
##XYDATA=(X++(Y..Y))
14.495000 0.0230 0.0230 0.0230 0.0250 0.0250
14.582575 0.0250 0.0250 0.0250 0.0250 0.0250
14.670000 0.0260 0.0260 0.0260 0.0260 0.0280
14.757575 0.0280 0.0280 0.0280 0.0300 0.0320
14.845000 0.0320 0.0330 0.0350 0.0370 0.0390
14.932575 0.0390 0.0420 0.0420 0.0440 0.0460
15.020000 0.0460 0.0480 0.0480 0.0480 0.0480
15.107575 0.0480 0.0480 0.0480 0.0480 0.0480
15.195000 0.0480 0.0480 0.0480 0.0480 0.0500
15.282575 0.0500 0.0500 0.0510 0.0550 0.0570
15.370000 0.0590 0.0640 0.0710 0.0780 0.0890
15.457575 0.0940 0.1000 0.1070 0.1140 0.1180
15.545000 0.1180 0.1190 0.1210 0.1230 0.1280
15.632575 0.1320 0.1350 0.1370 0.1390 0.1410
15.720000 0.1390 0.1370 0.1340 0.1280 0.1230
15.807575 0.1180 0.1160 0.1120 0.1090 0.1070
15.895000 0.1010 0.1000 0.1000 0.0980 0.0940
15.982575 0.0930 0.0890 0.0760 0.0690 0.0620
16.070000 0.0600 0.0600 0.0590 0.0590 0.0590
16.157575 0.0590 0.0600 0.0600 0.0620 0.0640
16.245000 0.0660 0.0670 0.0690 0.0710 0.0750
16.332575 0.0800 0.0980 0.1030 0.1050 0.1100
16.420000 0.1140 0.1160 0.1210 0.1340 0.1430
16.507575 0.1530 0.1660 0.1770 0.1840 0.1980
16.595000 0.2090 0.2160 0.2250 0.2340 0.2500
16.682575 0.2550 0.2710 0.2840 0.2980 0.3110
16.770000 0.3250 0.3520 0.3630 0.3770 0.3930
16.857575 0.4000 0.4110 0.4180 0.4340 0.4470
16.945000 0.4540 0.4610 0.4720 0.4830 0.4880
17.032575 0.4950 0.4990 0.5020 0.5060 0.5130
17.120000 0.5150 0.5160 0.5200 0.5200 0.5220
17.207575 0.5220 0.5240 0.5240 0.5250 0.5270
17.295000 0.5270 0.5290 0.5290 0.5310 0.5330
17.382575 0.5360 0.5380 0.5450 0.5490 0.5500
17.470000 0.5540 0.5580 0.5650 0.5720 0.5770
17.557575 0.5830 0.5880 0.5950 0.6020 0.6110
17.645000 0.6260 0.6330 0.6400 0.6520 0.6560
17.732575 0.6630 0.6760 0.6830 0.6880 0.6990
17.820000 0.7010 0.7030 0.7100 0.7150 0.7220
17.907575 0.7260 0.7330 0.7350 0.7370 0.7380
17.995000 0.7400 0.7440 0.7450 0.7450 0.7470
18.082575 0.7470 0.7490 0.7510 0.7530 0.7540
18.170000 0.7580 0.7630 0.7650 0.7670 0.7710
18.257575 0.7740 0.7760 0.7780 0.7780 0.7810
18.345000 0.7830 0.7830 0.7830 0.7810 0.7810
18.432575 0.7810 0.7790 0.7780 0.7760 0.7740
18.520000 0.7740 0.7720 0.7690 0.7650 0.7620
18.607575 0.7560 0.7530 0.7510 0.7490 0.7420
18.695000 0.7380 0.7310 0.7280 0.7200 0.7150
18.782575 0.7060 0.6990 0.6880 0.6790 0.6700
18.870000 0.6650 0.6600 0.6540 0.6510 0.6440
18.957575 0.6290 0.6100 0.5950 0.5810 0.5670
19.045000 0.5520 0.5380 0.5250 0.5020 0.4910
19.132575 0.4680 0.4500 0.4340 0.4200 0.3980
19.220000 0.3820 0.3660 0.3520 0.3430 0.3320
19.307575 0.3160 0.3040 0.2960 0.2770 0.2710
19.395000 0.2620 0.2570 0.2500 0.2460 0.2450
19.482575 0.2430 0.2450 0.2460 0.2480 0.2540
19.570000 0.2570 0.2620 0.2730 0.2820 0.2910
19.657575 0.3000 0.3110 0.3230 0.3480 0.3550
19.745000 0.3700 0.3820 0.4040 0.4150 0.4230
19.832575 0.4400 0.4520 0.4650 0.4750 0.4860
19.920000 0.4970 0.5060 0.5160 0.5270 0.5380
20.007575 0.5500 0.5610 0.5700 0.5770 0.5900
20.095000 0.6010 0.6060 0.6150 0.6260 0.6330
20.182575 0.6400 0.6510 0.6540 0.6580 0.6650
20.270000 0.6770 0.6850 0.6880 0.6920 0.6990
20.357575 0.7010 0.7030 0.7080 0.7110 0.7150
20.446000 0.7170 0.7190 0.7200 0.7220 0.7220
20.533575 0.7240 0.7240 0.7240 0.7240 0.7220
20.621000 0.7220 0.7200 0.7200 0.7190 0.7170
20.708575 0.7130 0.7110 0.7100 0.7040 0.7010
20.796000 0.6970 0.6940 0.6860 0.6810 0.6790
20.883575 0.6760 0.6700 0.6670 0.6650 0.6610
20.971000 0.6540 0.6490 0.6400 0.6310 0.6220
21.058575 0.6150 0.6040 0.6010 0.5920 0.5810
21.146000 0.5740 0.5680 0.5630 0.5520 0.5490
21.233575 0.5420 0.5310 0.5200 0.5110 0.5020
21.321000 0.5000 0.4900 0.4830 0.4750 0.4700
21.408575 0.4630 0.4520 0.4470 0.4380 0.4290
21.496000 0.4160 0.4090 0.4020 0.3930 0.3860
21.583575 0.3790 0.3680 0.3630 0.3540 0.3500
21.671000 0.3360 0.3300 0.3250 0.3140 0.3020
21.758575 0.2930 0.2800 0.2730 0.2660 0.2550
21.846000 0.2450 0.2340 0.2280 0.2250 0.2160
21.933575 0.2110 0.2050 0.2000 0.1980 0.1960
22.021000 0.1960 0.1980 0.2000 0.2050 0.2090
22.108575 0.2120 0.2180 0.2230 0.2320 0.2430
22.196000 0.2550 0.2730 0.2880 0.3040 0.3160
22.283575 0.3300 0.3630 0.3750 0.3910 0.4060
22.371000 0.4250 0.4430 0.4520 0.4680 0.4790
22.458575 0.4970 0.5130 0.5290 0.5420 0.5520
22.546000 0.5650 0.5740 0.5830 0.6010 0.6060
22.633575 0.6200 0.6330 0.6490 0.6580 0.6850
22.721000 0.6900 0.7010 0.7030 0.7080 0.7150
22.808575 0.7220 0.7290 0.7350 0.7420 0.7470
22.896000 0.7510 0.7540 0.7580 0.7630 0.7670
22.983575 0.7740 0.7810 0.7850 0.7870 0.7900
23.071000 0.7940 0.7960 0.7970 0.7970 0.8010
23.158575 0.8030 0.8050 0.8060 0.8060 0.8080
23.246000 0.8120 0.8120 0.8130 0.8130 0.8130
23.333575 0.8150 0.8170 0.8170 0.8170 0.8170
23.421000 0.8190 0.8190 0.8190 0.8210 0.8220
23.508575 0.8260 0.8260 0.8280 0.8300 0.8310
23.596000 0.8330 0.8350 0.8380 0.8400 0.8420
23.683575 0.8440 0.8470 0.8470 0.8490 0.8510
23.771000 0.8550 0.8560 0.8580 0.8600 0.8620
23.858575 0.8640 0.8650 0.8650 0.8690 0.8740
23.946000 0.8740 0.8760 0.8760 0.8780 0.8780
24.033575 0.8800 0.8800 0.8800 0.8800 0.8800
24.121000 0.8800 0.8800 0.8780 0.8780 0.8780
24.208575 0.8780 0.8780 0.8760 0.8760 0.8760
24.296000 0.8760 0.8760 0.8740 0.8740 0.8740
24.383575 0.8720 0.8720 0.8720 0.8710 0.8710
24.471000 0.8710 0.8710 0.8690 0.8690 0.8690
24.558575 0.8690 0.8690 0.8670 0.8670 0.8670
24.646000 0.8670 0.8670 0.8670 0.8670 0.8650
24.733575 0.8650 0.8650 0.8650 0.8650 0.8650
24.821000 0.8640 0.8640 0.8640 0.8640 0.8640
24.908575 0.8640 0.8640 0.8620 0.8620 0.8620
24.996000 0.8620 0.8620 0.8620 0.8600 0.8600
25.083575 0.8600 0.8600 0.8600 0.8600 0.8600
25.171000 0.8580 0.8580 0.8580 0.8560 0.8560
25.258575 0.8550 0.8530 0.8530 0.8510 0.8490
25.346000 0.8490 0.8470 0.8460 0.8440 0.8420
25.433575 0.8370 0.8350 0.8330 0.8310 0.8300
25.521000 0.8300 0.8280 0.8260 0.8210 0.8150
25.608575 0.8130 0.8100 0.8050 0.8030 0.8030
25.696000 0.7970 0.7870 0.7850 0.7810 0.7780
25.783575 0.7760 0.7720 0.7620 0.7540 0.7530
25.871000 0.7490 0.7420 0.7350 0.7310 0.7190
25.958575 0.7100 0.7030 0.6950 0.6830 0.6760
26.046000 0.6670 0.6650 0.6610 0.6520 0.6420
26.133575 0.6290 0.6100 0.5990 0.5770 0.5560
26.221000 0.5490 0.5380 0.5160 0.5060 0.4990
26.308575 0.4740 0.4560 0.4430 0.4230 0.4020
26.396000 0.3810 0.3630 0.3500 0.3410 0.3270
26.483575 0.3110 0.2910 0.2730 0.2550 0.2500
26.571000 0.2340 0.2180 0.2000 0.1870 0.1800
26.658575 0.1680 0.1620 0.1590 0.1530 0.1520
26.746000 0.1500 0.1500 0.1480 0.1480 0.1500
26.833575 0.1530 0.1610 0.1680 0.1780 0.1980
26.921000 0.2020 0.2110 0.2300 0.2430 0.2540
27.008575 0.2700 0.2800 0.3020 0.3250 0.3590
27.096000 0.3840 0.4040 0.4160 0.4360 0.4500
27.183575 0.4720 0.4840 0.5000 0.5060 0.5290
27.271000 0.5360 0.5520 0.5680 0.5830 0.6020
27.358575 0.6130 0.6240 0.6330 0.6470 0.6560
27.446000 0.6630 0.6830 0.6920 0.6990 0.7040
27.533575 0.7150 0.7170 0.7220 0.7290 0.7330
27.621000 0.7400 0.7490 0.7510 0.7530 0.7540
27.708575 0.7600 0.7630 0.7650 0.7710 0.7720
27.796000 0.7740 0.7760 0.7790 0.7790 0.7810
27.883575 0.7810 0.7830 0.7830 0.7850 0.7850
27.971000 0.7870 0.7870 0.7880 0.7880 0.7900
28.058575 0.7900 0.7920 0.7920 0.7940 0.7960
28.146000 0.7960 0.7960 0.7960 0.7970 0.7970
28.233575 0.7970 0.7990 0.7990 0.8010 0.8010
28.321000 0.8010 0.8030 0.8030 0.8050 0.8050
28.408575 0.8050 0.8060 0.8060 0.8060 0.8080
28.496000 0.8080 0.8080 0.8080 0.8100 0.8100
28.583575 0.8100 0.8100 0.8120 0.8120 0.8120
28.671000 0.8120 0.8120 0.8120 0.8120 0.8120
28.758575 0.8100 0.8100 0.8100 0.8080 0.8080
28.846000 0.8080 0.8060 0.8060 0.8060 0.8050
28.933575 0.8050 0.8050 0.8030 0.8030 0.8030
29.021000 0.8010 0.8010 0.7990 0.7990 0.7960
29.108575 0.7940 0.7920 0.7870 0.7790 0.7760
29.196000 0.7760 0.7740 0.7720 0.7710 0.7690
29.283575 0.7670 0.7650 0.7630 0.7600 0.7580
29.372000 0.7540 0.7530 0.7510 0.7470 0.7450
29.459575 0.7420 0.7380 0.7310 0.7260 0.7170
29.547000 0.7150 0.7110 0.7100 0.7040 0.7010
29.634575 0.6990 0.6940 0.6860 0.6790 0.6700
29.722000 0.6670 0.6650 0.6630 0.6600 0.6540
29.809575 0.6520 0.6510 0.6490 0.6420 0.6380
29.897000 0.6290 0.6240 0.6150 0.6040 0.5970
29.984575 0.5840 0.5810 0.5680 0.5630 0.5580
30.072000 0.5520 0.5500 0.5470 0.5420 0.5360
30.159575 0.5310 0.5250 0.5180 0.5130 0.5060
30.247000 0.5020 0.4910 0.4860 0.4790 0.4770
30.334575 0.4740 0.4700 0.4650 0.4560 0.4500
30.422000 0.4430 0.4380 0.4310 0.4220 0.4070
30.509575 0.4000 0.3970 0.3840 0.3770 0.3700
30.597000 0.3630 0.3550 0.3520 0.3480 0.3410
30.684575 0.3340 0.3270 0.3160 0.3130 0.3040
30.772000 0.3020 0.3000 0.2880 0.2750 0.2730
30.859575 0.2710 0.2710 0.2700 0.2660 0.2590
30.947000 0.2540 0.2500 0.2390 0.2370 0.2340
31.034575 0.2280 0.2210 0.2140 0.2120 0.2110
31.122000 0.2030 0.1960 0.1930 0.1930 0.1910
31.209575 0.1890 0.1890 0.1890 0.1890 0.1870
31.297000 0.1870 0.1870 0.1870 0.1870 0.1870
31.384575 0.1870 0.1870 0.1870 0.1870 0.1870
31.472000 0.1890 0.1890 0.1890 0.1910 0.1910
31.559575 0.1930 0.1940 0.1960 0.2000 0.2030
31.647000 0.2120 0.2160 0.2200 0.2230 0.2270
31.734575 0.2300 0.2300 0.2320 0.2360 0.2410
31.822000 0.2500 0.2540 0.2680 0.2730 0.2800
31.909575 0.2840 0.2930 0.3000 0.3020 0.3110
31.997000 0.3180 0.3270 0.3430 0.3500 0.3520
32.084575 0.3550 0.3640 0.3660 0.3750 0.3810
32.172000 0.3880 0.3930 0.4000 0.4000 0.4020
32.259575 0.4110 0.4130 0.4200 0.4230 0.4290
32.347000 0.4340 0.4380 0.4410 0.4430 0.4470
32.434575 0.4520 0.4560 0.4570 0.4610 0.4660
32.522000 0.4720 0.4740 0.4770 0.4790 0.4830
32.609575 0.4880 0.4930 0.4950 0.4970 0.5000
32.697000 0.5020 0.5040 0.5080 0.5090 0.5110
32.784575 0.5130 0.5160 0.5240 0.5250 0.5330
32.872000 0.5380 0.5420 0.5430 0.5470 0.5490
32.959575 0.5500 0.5520 0.5560 0.5580 0.5590
33.047000 0.5590 0.5610 0.5610 0.5610 0.5630
33.134575 0.5630 0.5630 0.5630 0.5650 0.5650
33.222000 0.5670 0.5680 0.5680 0.5700 0.5720
33.309575 0.5740 0.5740 0.5770 0.5790 0.5830
33.397000 0.5840 0.5860 0.5880 0.5900 0.5920
33.484575 0.5930 0.5950 0.5970 0.5970 0.5990
33.572000 0.6010 0.6020 0.6020 0.6020 0.6040
33.659575 0.6040 0.6040 0.6040 0.6040 0.6020
33.747000 0.6020 0.6020 0.6010 0.6010 0.5990
33.834575 0.5990 0.5970 0.5970 0.5950 0.5950
33.922000 0.5930 0.5920 0.5900 0.5880 0.5880
34.009575 0.5840 0.5810 0.5810 0.5790 0.5790
34.097000 0.5770 0.5720 0.5670 0.5650 0.5650
34.184575 0.5650 0.5630 0.5630 0.5610 0.5610
34.272000 0.5590 0.5580 0.5580 0.5560 0.5540
34.359575 0.5500 0.5490 0.5430 0.5420 0.5420
34.447000 0.5420 0.5420 0.5420 0.5400 0.5380
34.534575 0.5340 0.5340 0.5330 0.5330 0.5310
34.622000 0.5290 0.5250 0.5220 0.5200 0.5180
34.709575 0.5160 0.5130 0.5110 0.5090 0.5090
34.797000 0.5040 0.5020 0.5020 0.5000 0.4990
34.884575 0.4950 0.4910 0.4910 0.4880 0.4880
34.972000 0.4860 0.4860 0.4860 0.4860 0.4860
35.059575 0.4860 0.4860 0.4840 0.4830 0.4830
35.147000 0.4790 0.4750 0.4750 0.4740 0.4740
35.234575 0.4750 0.4750 0.4750 0.4750 0.4750
35.322000 0.4770 0.4770 0.4770 0.4770 0.4770
35.409575 0.4770 0.4770 0.4770 0.4770 0.4770
35.497000 0.4770 0.4770 0.4770 0.4770 0.4770
35.584575 0.4770 0.4770 0.4750 0.4750 0.4750
35.672000 0.4750 0.4740 0.4740 0.4740 0.4740
35.759575 0.4740 0.4740 0.4720 0.4720 0.4720
35.847000 0.4700 0.4700 0.4680 0.4680 0.4660
35.934575 0.4650 0.4650 0.4650 0.4660 0.4660
36.022000 0.4660 0.4660 0.4660 0.4650 0.4630
36.109575 0.4610 0.4610 0.4610 0.4610 0.4610
36.197000 0.4590 0.4590 0.4590 0.4590 0.4590
36.284575 0.4590 0.4590 0.4570 0.4560 0.4560
36.372000 0.4540 0.4500 0.4500 0.4490 0.4490
36.459575 0.4490 0.4470 0.4470 0.4470 0.4470
36.547000 0.4470 0.4450 0.4430 0.4410 0.4400
36.634575 0.4340 0.4320 0.4310 0.4290 0.4270
36.722000 0.4250 0.4250 0.4230 0.4220 0.4160
36.809575 0.4130 0.4110 0.4110 0.4090 0.4090
36.897000 0.4090 0.4090 0.4070 0.4070 0.4060
36.984575 0.4060 0.4040 0.4020 0.4020 0.4020
37.072000 0.4000 0.4000 0.4000 0.3980 0.3980
37.159575 0.3970 0.3950 0.3950 0.3930 0.3930
37.247000 0.3910 0.3890 0.3890 0.3890 0.3880
37.334575 0.3880 0.3880 0.3860 0.3860 0.3860
37.422000 0.3860 0.3840 0.3840 0.3840 0.3840
37.509575 0.3820 0.3810 0.3810 0.3790 0.3790
37.597000 0.3790 0.3790 0.3770 0.3750 0.3750
37.684575 0.3730 0.3730 0.3700 0.3680 0.3680
37.772000 0.3700 0.3700 0.3720 0.3750 0.3750
37.859575 0.3720 0.3720 0.3700 0.3700 0.3700
37.947000 0.3700 0.3700 0.3700
##END=
