##TITLE=1-BUTENE, 3,4-DICHLORO-
##JCAMP-DX=4.24
##DATA TYPE=INFRARED SPECTRUM
##CLASS=COBLENTZ III
##ORIGIN=DOW CHEMICAL COMPANY
##OWNER=COBLENTZ SOCIETY
Collection (C) 2018 copyright by the U.S. Secretary of Commerce
on behalf of the United States of America. All rights reserved.
##DATE=1963/11/12
##NAMES=3,4-dichloro-1-butene
##CAS REGISTRY NO=760-23-6
##MOLFORM=C4 H6 Cl2
##SOURCE REFERENCE=COBLENTZ NO. 10038
##$NIST SOURCE=COBLENTZ
##$NIST IMAGE=cob10038
##SPECTROMETER/DATA SYSTEM=DOW KBr FOREPRISM-GRATING
##INSTRUMENT PARAMETERS=BLAZED AT 3.5, 12.0, 20.0 MICRON, CHANGED AT 5.0, 7.5, 14.9 MICRON
##STATE=SOLUTION (10% IN CCl4 FOR 3800-1333 AND 10% IN CS2 FOR 1333-430 CM^-^1)
##PATH LENGTH=0.011, 0.010 CM
$$SPECTRAL CONTAMINATION DUE TO CCl4 AROUND 1550, AND CS2 AROUND 850 CM^-^1
##SAMPLING PROCEDURE=TRANSMISSION
##RESOLUTION=4
##DATA PROCESSING=DIGITIZED BY NIST FROM HARD COPY (FROM TWO SEGMENTS)
##XUNITS=1/CM
##YUNITS=TRANSMITTANCE
##XFACTOR=1.000000
##YFACTOR=1
##DELTAX=0.869567
##FIRSTX=379.13
##LASTX=3798.27
##FIRSTY=0.204
##MAXX=3798.27
##MINX=379.13
##MAXY=1.051
##MINY=0.032
##NPOINTS=3933
##XYDATA=(X++(Y..Y))
379.130000 0.2040 0.2030 0.2020 0.2020 0.2000
383.477833 0.2000 0.2020 0.2020 0.2030 0.2070
387.825666 0.2130 0.2210 0.2320 0.2440 0.2480
392.173499 0.2520 0.2640 0.2759 0.2899 0.3019
396.521332 0.3160 0.3280 0.3430 0.3580 0.3700
400.869165 0.4587 0.5795 0.6029 0.6259 0.6429
405.216998 0.6740 0.6940 0.7160 0.7350 0.7689
409.564831 0.7969 0.8199 0.8429 0.8569 0.8719
413.912664 0.8940 0.9100 0.9240 0.9370 0.9480
418.260497 0.9520 0.9600 0.9680 0.9740 0.9760
422.608330 0.9780 0.9790 0.9860 0.9910 0.9940
426.956163 0.9940 0.9950 1.0010 1.0020 1.0040
431.303996 1.0040 1.0060 1.0080 1.0080 1.0080
435.651828 1.0090 1.0080 1.0080 1.0080 1.0080
439.999661 1.0100 1.0090 1.0080 1.0060 1.0020
444.347494 1.0010 1.0010 1.0000 0.9980 0.9930
448.695327 0.9860 0.9810 0.9720 0.9710 0.9710
453.043160 0.9740 0.9760 0.9860 0.9940 0.9980
457.390993 1.0010 1.0060 1.0090 1.0130 1.0160
461.738826 1.0180 1.0200 1.0210 1.0240 1.0290
466.086659 1.0330 1.0360 1.0360 1.0400 1.0430
470.434492 1.0460 1.0470 1.0440 1.0480 1.0500
474.782325 1.0460 1.0440 1.0480 1.0480 1.0510
479.130158 1.0510 1.0480 1.0470 1.0470 1.0470
483.477991 1.0470 1.0470 1.0470 1.0470 1.0460
487.825824 1.0430 1.0400 1.0390 1.0360 1.0350
492.173657 1.0330 1.0330 1.0330 1.0330 1.0320
496.521490 1.0320 1.0280 1.0250 1.0210 1.0200
500.869323 1.0170 1.0130 1.0120 1.0100 1.0050
505.217156 1.0020 1.0010 1.0000 0.9980 0.9950
509.564989 0.9910 0.9890 0.9850 0.9830 0.9820
513.912822 0.9830 0.9830 0.9860 0.9910 0.9940
518.260655 0.9950 1.0020 1.0080 1.0090 1.0100
522.608488 1.0130 1.0130 1.0120 1.0130 1.0140
526.956321 1.0160 1.0160 1.0160 1.0170 1.0180
531.304154 1.0180 1.0170 1.0180 1.0200 1.0200
535.651987 1.0200 1.0210 1.0210 1.0210 1.0200
539.999820 1.0200 1.0210 1.0210 1.0210 1.0210
544.347653 1.0240 1.0250 1.0240 1.0240 1.0240
548.695485 1.0250 1.0270 1.0270 1.0250 1.0280
553.043318 1.0280 1.0290 1.0310 1.0310 1.0310
557.391151 1.0310 1.0310 1.0310 1.0310 1.0290
561.738984 1.0290 1.0280 1.0270 1.0270 1.0270
566.086817 1.0250 1.0250 1.0240 1.0240 1.0210
570.434650 1.0210 1.0200 1.0200 1.0200 1.0200
574.782483 1.0200 1.0200 1.0200 1.0200 1.0200
579.130316 1.0200 1.0200 1.0210 1.0210 1.0230
583.478149 1.0250 1.0250 1.0240 1.0230 1.0210
587.825982 1.0170 1.0140 1.0090 1.0080 1.0060
592.173815 1.0050 1.0050 1.0040 1.0020 1.0010
596.521648 1.0000 0.9980 0.9940 0.9900 0.9850
600.869481 0.9810 0.9760 0.9700 0.9640 0.9620
605.217314 0.9570 0.9550 0.9480 0.9440 0.9360
609.565147 0.9320 0.9250 0.9170 0.9130 0.9110
613.912980 0.9030 0.9000 0.8990 0.8980 0.8980
618.260813 0.8980 0.8990 0.9020 0.9060 0.9100
622.608646 0.9130 0.9150 0.9210 0.9250 0.9280
626.956479 0.9320 0.9330 0.9340 0.9360 0.9360
631.304312 0.9360 0.9340 0.9330 0.9300 0.9240
635.652145 0.9210 0.9190 0.9180 0.9130 0.9090
639.999978 0.9000 0.8960 0.8910 0.8900 0.8810
644.347811 0.8790 0.8760 0.8720 0.8690 0.8650
648.695644 0.8570 0.8490 0.8380 0.8310 0.8300
653.043477 0.8300 0.8310 0.8340 0.8390 0.8460
657.391310 0.8570 0.8610 0.8680 0.8760 0.8830
661.739142 0.8900 0.8950 0.9000 0.9030 0.9050
666.086975 0.9030 0.8990 0.8980 0.8940 0.8880
670.434808 0.8790 0.8710 0.8680 0.8580 0.8520
674.782641 0.8500 0.8500 0.8490 0.8430 0.8350
679.130474 0.8260 0.8200 0.8100 0.7931 0.7761
683.478307 0.7590 0.7420 0.7280 0.7160 0.7080
687.826140 0.7020 0.7010 0.7020 0.7060 0.7100
692.173973 0.7160 0.7250 0.7440 0.7690 0.7780
696.521806 0.7930 0.8000 0.8030 0.8040 0.7990
700.869639 0.7950 0.7820 0.7780 0.7670 0.7510
705.217472 0.7400 0.7290 0.7131 0.6851 0.6721
709.565305 0.6220 0.5610 0.5400 0.5180 0.4950
713.913138 0.4511 0.4211 0.3941 0.3671 0.3471
718.260971 0.3220 0.2830 0.2381 0.1941 0.1501
722.608804 0.1121 0.0970 0.0811 0.0611 0.0501
726.956637 0.0390 0.0360 0.0360 0.0480 0.1219
731.304470 0.1759 0.2289 0.3137 0.3469 0.4257
735.652303 0.5990 0.6290 0.6580 0.6680 0.6900
740.000136 0.7080 0.7190 0.7280 0.7320 0.7400
744.347969 0.7440 0.7570 0.7620 0.7700 0.7780
748.695802 0.7910 0.7970 0.8050 0.8140 0.8200
753.043635 0.8260 0.8300 0.8260 0.8200 0.8150
757.391468 0.8110 0.7960 0.7840 0.7671 0.7421
761.739301 0.7150 0.6890 0.6560 0.6170 0.5681
766.087134 0.5570 0.5460 0.5370 0.5539 0.5759
770.434966 0.6110 0.6470 0.6580 0.6780 0.6900
774.782799 0.6910 0.6910 0.6890 0.6850 0.6820
779.130632 0.6850 0.6900 0.6940 0.6980 0.7050
783.478465 0.7090 0.7240 0.7390 0.7589 0.7779
787.826298 0.8030 0.8240 0.8390 0.8560 0.8730
792.174131 0.8790 0.8900 0.8990 0.9100 0.9180
796.521964 0.9240 0.9290 0.9300 0.9330 0.9330
800.869797 0.9380 0.9410 0.9440 0.9470 0.9490
805.217630 0.9530 0.9570 0.9600 0.9630 0.9670
809.565463 0.9680 0.9710 0.9750 0.9760 0.9760
813.913296 0.9780 0.9790 0.9790 0.9790 0.9790
818.261129 0.9790 0.9780 0.9760 0.9760 0.9720
822.608962 0.9700 0.9700 0.9680 0.9680 0.9670
826.956795 0.9640 0.9630 0.9620 0.9590 0.9560
831.304628 0.9530 0.9480 0.9430 0.9360 0.9320
835.652461 0.9150 0.9050 0.8920 0.8870 0.8800
840.000294 0.8710 0.8690 0.8650 0.8560 0.8500
844.348127 0.8420 0.8350 0.8340 0.8330 0.8300
848.695960 0.8290 0.8270 0.8240 0.8200 0.8180
853.043793 0.8160 0.8160 0.8180 0.8190 0.8190
857.391626 0.8200 0.8230 0.8270 0.8270 0.8330
861.739459 0.8330 0.8340 0.8370 0.8380 0.8410
866.087292 0.8420 0.8450 0.8450 0.8460 0.8530
870.435125 0.8600 0.8680 0.8730 0.8750 0.8810
874.782958 0.8840 0.8910 0.8920 0.8940 0.8950
879.130791 0.9000 0.9050 0.9110 0.9150 0.9170
883.478623 0.9210 0.9250 0.9320 0.9330 0.9340
887.826456 0.9360 0.9380 0.9400 0.9430 0.9440
892.174289 0.9450 0.9450 0.9450 0.9440 0.9440
896.522122 0.9430 0.9430 0.9410 0.9380 0.9340
900.869955 0.9290 0.9210 0.9140 0.9110 0.8990
905.217788 0.8920 0.8810 0.8720 0.8620 0.8411
909.565621 0.8160 0.8030 0.7990 0.7970 0.7970
913.913454 0.7930 0.7770 0.7630 0.7471 0.7251
918.261287 0.7020 0.6370 0.5690 0.5420 0.5150
922.609120 0.4512 0.3852 0.3103 0.2403 0.1653
926.956953 0.1310 0.0970 0.0780 0.0500 0.0320
931.304786 0.0320 0.0629 0.1069 0.1469 0.1918
935.652619 0.2780 0.3080 0.3540 0.4109 0.4320
940.000452 0.5667 0.5949 0.5950 0.5940 0.5870
944.348285 0.5650 0.5520 0.5370 0.5070 0.4920
948.696118 0.4730 0.4730 0.6215 0.6738 0.6929
953.043951 0.7120 0.7420 0.7670 0.7820 0.7950
957.391784 0.8010 0.8050 0.8080 0.8070 0.8040
961.739617 0.7990 0.7960 0.7930 0.7810 0.7760
966.087450 0.7590 0.7440 0.7390 0.7161 0.6891
970.435283 0.6360 0.5710 0.5600 0.5490 0.5001
974.783116 0.4571 0.4151 0.3213 0.2911 0.2910
979.130949 0.3120 0.3330 0.3820 0.4350 0.4650
983.478782 0.4890 0.5539 0.6099 0.6389 0.6749
987.826615 0.6940 0.7310 0.7730 0.8070 0.8180
992.174448 0.8370 0.8560 0.8710 0.8790 0.8910
996.522280 0.8950 0.9000 0.9070 0.9130 0.9180
1000.870113 0.9190 0.9210 0.9220 0.9220 0.9220
1005.217946 0.9210 0.9210 0.9180 0.9150 0.9130
1009.565779 0.9100 0.9100 0.9110 0.9130 0.9190
1013.913612 0.9300 0.9330 0.9370 0.9450 0.9490
1018.261445 0.9550 0.9560 0.9570 0.9590 0.9590
1022.609278 0.9590 0.9570 0.9570 0.9570 0.9570
1026.957111 0.9570 0.9570 0.9570 0.9570 0.9590
1031.304944 0.9600 0.9600 0.9600 0.9590 0.9560
1035.652777 0.9560 0.9560 0.9560 0.9560 0.9550
1040.000610 0.9550 0.9550 0.9550 0.9550 0.9530
1044.348443 0.9530 0.9530 0.9510 0.9490 0.9480
1048.696276 0.9450 0.9440 0.9410 0.9380 0.9370
1053.044109 0.9360 0.9340 0.9340 0.9340 0.9360
1057.391942 0.9370 0.9380 0.9400 0.9410 0.9430
1061.739775 0.9440 0.9440 0.9430 0.9410 0.9380
1066.087608 0.9360 0.9340 0.9330 0.9330 0.9330
1070.435441 0.9330 0.9340 0.9340 0.9340 0.9380
1074.783274 0.9440 0.9480 0.9550 0.9560 0.9590
1079.131107 0.9640 0.9680 0.9720 0.9760 0.9760
1083.478940 0.9790 0.9810 0.9830 0.9850 0.9860
1087.826773 0.9870 0.9890 0.9910 0.9930 0.9940
1092.174606 0.9940 0.9950 0.9950 0.9950 0.9950
1096.522439 0.9950 0.9940 0.9940 0.9940 0.9940
1100.870272 0.9930 0.9930 0.9930 0.9910 0.9900
1105.218105 0.9890 0.9870 0.9830 0.9820 0.9790
1109.565937 0.9720 0.9660 0.9630 0.9620 0.9640
1113.913770 0.9670 0.9700 0.9720 0.9760 0.9790
1118.261603 0.9810 0.9820 0.9830 0.9850 0.9870
1122.609436 0.9910 0.9930 0.9930 0.9950 0.9970
1126.957269 0.9980 0.9980 0.9970 0.9970 0.9950
1131.305102 0.9950 0.9950 0.9950 0.9950 0.9940
1135.652935 0.9940 0.9930 0.9930 0.9930 0.9930
1140.000768 0.9910 0.9890 0.9890 0.9870 0.9860
1144.348601 0.9860 0.9850 0.9830 0.9810 0.9780
1148.696434 0.9750 0.9750 0.9700 0.9660 0.9600
1153.044267 0.9560 0.9530 0.9430 0.9370 0.9320
1157.392100 0.9240 0.9170 0.9170 0.9210 0.9340
1161.739933 0.9470 0.9470 0.9430 0.9320 0.9220
1166.087766 0.9170 0.9060 0.8960 0.8920 0.8751
1170.435599 0.8380 0.7930 0.7760 0.7460 0.6631
1174.783432 0.5562 0.5560 0.5859 0.6209 0.6479
1179.131265 0.7101 0.7780 0.8190 0.8530 0.8710
1183.479098 0.8910 0.9050 0.9130 0.9220 0.9300
1187.826931 0.9300 0.9300 0.9290 0.9280 0.9240
1192.174764 0.9190 0.9150 0.9130 0.9110 0.9110
1196.522597 0.9130 0.9140 0.9170 0.9180 0.9190
1200.870430 0.9180 0.9150 0.9140 0.9110 0.9050
1205.218263 0.9000 0.8940 0.8910 0.8790 0.8730
1209.566096 0.8500 0.8151 0.7811 0.7650 0.7421
1213.913929 0.7290 0.7170 0.7160 0.7230 0.7400
1218.261761 0.7530 0.7540 0.7550 0.7610 0.7730
1222.609594 0.7920 0.8200 0.8370 0.8500 0.8570
1226.957427 0.8600 0.8610 0.8610 0.8610 0.8610
1231.305260 0.8610 0.8620 0.8620 0.8690 0.8710
1235.653093 0.8730 0.8770 0.8840 0.8910 0.8920
1240.000926 0.8920 0.8940 0.8920 0.8910 0.8900
1244.348759 0.8830 0.8790 0.8750 0.8710 0.8690
1248.696592 0.8540 0.8310 0.8040 0.7930 0.7720
1253.044425 0.7670 0.7670 0.7820 0.7950 0.8070
1257.392258 0.8190 0.8230 0.8220 0.8200 0.8140
1261.740091 0.8080 0.7950 0.7880 0.7800 0.7800
1266.087924 0.7860 0.7990 0.8140 0.8290 0.8460
1270.435757 0.8560 0.8600 0.8670 0.8750 0.8770
1274.783590 0.8790 0.8770 0.8750 0.8720 0.8690
1279.131423 0.8670 0.8640 0.8620 0.8580 0.8540
1283.479256 0.8490 0.8430 0.8420 0.8420 0.8450
1287.827089 0.8490 0.8490 0.8370 0.8230 0.8100
1292.174922 0.7950 0.7950 0.8050 0.8200 0.8310
1296.522755 0.8430 0.8490 0.8520 0.8530 0.8520
1300.870588 0.8460 0.8370 0.8260 0.8040 0.7760
1305.218421 0.7580 0.7400 0.7390 0.7400 0.7500
1309.566254 0.7610 0.7620 0.7590 0.7500 0.7420
1313.914087 0.7390 0.7400 0.7649 0.7949 0.8179
1318.261920 0.8420 0.8680 0.8900 0.9050 0.9140
1322.609753 0.9190 0.9240 0.9300 0.9340 0.9370
1326.957586 0.9400 0.9430 0.9450 0.9470 0.9480
1331.305418 0.9510 0.9520 0.9520 0.9530 0.9530
1335.653251 0.9550 0.9570 0.9600 0.9620 0.9630
1340.001084 0.9640 0.9660 0.9670 0.9680 0.9680
1344.348917 0.9710 0.9720 0.9740 0.9750 0.9760
1348.696750 0.9760 0.9760 0.9780 0.9780 0.9780
1353.044583 0.9780 0.9780 0.9780 0.9780 0.9790
1357.392416 0.9810 0.9830 0.9850 0.9860 0.9870
1361.740249 0.9890 0.9900 0.9910 0.9910 0.9910
1366.088082 0.9910 0.9910 0.9910 0.9910 0.9930
1370.435915 0.9930 0.9910 0.9910 0.9910 0.9910
1374.783748 0.9910 0.9910 0.9900 0.9900 0.9900
1379.131581 0.9900 0.9900 0.9910 0.9930 0.9950
1383.479414 0.9970 0.9950 0.9930 0.9900 0.9870
1387.827247 0.9860 0.9860 0.9860 0.9830 0.9820
1392.175080 0.9790 0.9760 0.9700 0.9660 0.9630
1396.522913 0.9620 0.9570 0.9550 0.9480 0.9410
1400.870746 0.9330 0.9260 0.9140 0.8990 0.8910
1405.218579 0.8760 0.8580 0.8310 0.8030 0.7930
1409.566412 0.7760 0.7580 0.7231 0.7150 0.7130
1413.914245 0.7130 0.7130 0.7120 0.7080 0.6930
1418.262078 0.6700 0.5921 0.5561 0.5181 0.4682
1422.609911 0.4210 0.4210 0.4360 0.4450 0.5868
1426.957744 0.6409 0.6430 0.6430 0.6659 0.6899
1431.305577 0.7130 0.7380 0.7610 0.7810 0.8290
1435.653410 0.8350 0.8370 0.8340 0.8240 0.8150
1440.001243 0.8050 0.7780 0.7500 0.6830 0.6130
1444.349075 0.6260 0.6899 0.7339 0.7958 0.8309
1448.696908 0.8390 0.8540 0.8690 0.8720 0.8750
1453.044741 0.8760 0.8830 0.8960 0.8990 0.9020
1457.392574 0.9020 0.9050 0.9140 0.9220 0.9320
1461.740407 0.9330 0.9330 0.9330 0.9340 0.9360
1466.088240 0.9380 0.9400 0.9440 0.9480 0.9520
1470.436073 0.9520 0.9480 0.9470 0.9480 0.9490
1474.783906 0.9510 0.9520 0.9530 0.9520 0.9520
1479.131739 0.9510 0.9480 0.9470 0.9440 0.9430
1483.479572 0.9400 0.9360 0.9330 0.9300 0.9260
1487.827405 0.9190 0.9180 0.9150 0.9110 0.9060
1492.175238 0.9050 0.9020 0.8990 0.8950 0.8910
1496.523071 0.8830 0.8800 0.8790 0.8760 0.8720
1500.870904 0.8680 0.8610 0.8560 0.8530 0.8490
1505.218737 0.8350 0.8220 0.8150 0.8140 0.8140
1509.566570 0.8120 0.8110 0.8010 0.7950 0.7920
1513.914403 0.7860 0.7800 0.7740 0.7660 0.7590
1518.262236 0.7580 0.7530 0.7470 0.7430 0.7390
1522.610069 0.7390 0.7360 0.7320 0.7250 0.7230
1526.957902 0.7170 0.7130 0.7090 0.7080 0.6960
1531.305735 0.6820 0.6770 0.6630 0.6580 0.6470
1535.653568 0.6430 0.6320 0.6160 0.5990 0.5840
1540.001401 0.5730 0.5630 0.5590 0.5540 0.5490
1544.349234 0.5460 0.5370 0.5340 0.5290 0.5270
1548.697067 0.5260 0.5250 0.5250 0.5250 0.5250
1553.044899 0.5260 0.5270 0.5340 0.5370 0.5410
1557.392732 0.5460 0.5590 0.5670 0.5750 0.5920
1561.740565 0.6050 0.6140 0.6180 0.6280 0.6320
1566.088398 0.6390 0.6450 0.6580 0.6590 0.6600
1570.436231 0.6830 0.6900 0.6980 0.7000 0.7010
1574.784064 0.7040 0.7040 0.7050 0.7060 0.7080
1579.131897 0.7100 0.7120 0.7150 0.7170 0.7170
1583.479730 0.7200 0.7210 0.7230 0.7240 0.7270
1587.827563 0.7310 0.7340 0.7400 0.7470 0.7550
1592.175396 0.7630 0.7670 0.7740 0.7820 0.7930
1596.523229 0.8010 0.8150 0.8220 0.8310 0.8370
1600.871062 0.8480 0.8580 0.8680 0.8690 0.8770
1605.218895 0.8840 0.8910 0.8980 0.9030 0.9100
1609.566728 0.9110 0.9170 0.9250 0.9300 0.9320
1613.914561 0.9340 0.9340 0.9340 0.9340 0.9370
1618.262394 0.9410 0.9510 0.9520 0.9520 0.9520
1622.610227 0.9520 0.9550 0.9550 0.9560 0.9590
1626.958060 0.9590 0.9600 0.9600 0.9590 0.9560
1631.305893 0.9550 0.9530 0.9520 0.9410 0.9380
1635.653726 0.9360 0.9330 0.9190 0.9110 0.9050
1640.001559 0.8840 0.8620 0.8500 0.8380 0.8390
1644.349392 0.8490 0.8540 0.8710 0.9029 0.9299
1648.697225 0.9440 0.9520 0.9570 0.9590 0.9600
1653.045058 0.9640 0.9710 0.9760 0.9760 0.9780
1657.392891 0.9780 0.9790 0.9780 0.9780 0.9780
1661.740724 0.9780 0.9790 0.9810 0.9820 0.9830
1666.088556 0.9830 0.9820 0.9820 0.9820 0.9830
1670.436389 0.9830 0.9830 0.9830 0.9790 0.9790
1674.784222 0.9830 0.9850 0.9860 0.9870 0.9870
1679.132055 0.9860 0.9850 0.9790 0.9670 0.9670
1683.479888 0.9810 0.9860 0.9860 0.9850 0.9830
1687.827721 0.9820 0.9810 0.9810 0.9790 0.9780
1692.175554 0.9760 0.9760 0.9750 0.9750 0.9750
1696.523387 0.9750 0.9740 0.9740 0.9750 0.9790
1700.871220 0.9820 0.9830 0.9830 0.9830 0.9820
1705.219053 0.9820 0.9830 0.9830 0.9830 0.9830
1709.566886 0.9860 0.9890 0.9890 0.9860 0.9830
1713.914719 0.9790 0.9740 0.9740 0.9820 0.9860
1718.262552 0.9890 0.9890 0.9890 0.9890 0.9870
1722.610385 0.9860 0.9860 0.9850 0.9830 0.9830
1726.958218 0.9830 0.9830 0.9820 0.9810 0.9780
1731.306051 0.9750 0.9720 0.9720 0.9790 0.9790
1735.653884 0.9790 0.9790 0.9790 0.9810 0.9820
1740.001717 0.9850 0.9860 0.9870 0.9890 0.9890
1744.349550 0.9890 0.9890 0.9890 0.9870 0.9870
1748.697383 0.9860 0.9860 0.9890 0.9940 0.9940
1753.045216 0.9950 0.9950 0.9970 0.9950 0.9950
1757.393049 0.9940 0.9940 0.9950 0.9970 0.9980
1761.740882 1.0000 1.0000 1.0000 1.0000 1.0000
1766.088715 1.0000 0.9980 0.9980 0.9980 0.9970
1770.436548 1.0020 1.0020 1.0020 1.0040 1.0040
1774.784381 1.0040 1.0020 1.0020 1.0020 1.0020
1779.132213 1.0040 1.0040 1.0020 1.0020 1.0020
1783.480046 1.0020 1.0010 1.0010 1.0010 1.0010
1787.827879 1.0000 0.9980 0.9980 1.0010 1.0010
1792.175712 1.0010 1.0000 1.0000 1.0000 1.0000
1796.523545 1.0000 1.0010 1.0010 1.0010 1.0020
1800.871378 1.0020 1.0020 1.0020 1.0010 1.0010
1805.219211 1.0010 1.0020 1.0020 1.0020 1.0020
1809.567044 1.0040 1.0040 1.0010 1.0010 1.0010
1813.914877 1.0020 1.0020 1.0020 1.0040 1.0020
1818.262710 1.0020 1.0020 1.0010 1.0010 1.0010
1822.610543 1.0010 1.0010 1.0010 1.0010 1.0010
1826.958376 1.0010 1.0010 1.0010 1.0010 1.0010
1831.306209 1.0010 1.0010 1.0000 1.0000 1.0010
1835.654042 1.0010 1.0010 1.0000 1.0000 1.0000
1840.001875 0.9970 0.9950 0.9950 0.9940 0.9940
1844.349708 0.9930 0.9930 0.9910 0.9900 0.9890
1848.697541 0.9870 0.9870 0.9850 0.9820 0.9810
1853.045374 0.9780 0.9760 0.9710 0.9680 0.9640
1857.393207 0.9570 0.9550 0.9550 0.9470 0.9370
1861.741040 0.9330 0.9260 0.9180 0.9130 0.9070
1866.088873 0.9030 0.9030 0.9020 0.9030 0.9050
1870.436706 0.9070 0.9100 0.9170 0.9210 0.9250
1874.784539 0.9330 0.9440 0.9490 0.9550 0.9570
1879.132372 0.9620 0.9670 0.9700 0.9740 0.9760
1883.480205 0.9760 0.9790 0.9820 0.9850 0.9860
1887.828038 0.9860 0.9870 0.9870 0.9890 0.9900
1892.175870 0.9910 0.9930 0.9930 0.9970 0.9970
1896.523703 0.9980 1.0000 1.0000 1.0000 1.0000
1900.871536 1.0000 1.0010 1.0010 1.0010 1.0000
1905.219369 1.0000 1.0000 1.0000 1.0000 1.0000
1909.567202 1.0000 1.0010 1.0010 1.0010 1.0010
1913.915035 1.0020 1.0020 1.0020 1.0020 1.0040
1918.262868 1.0040 1.0040 1.0040 1.0040 1.0040
1922.610701 1.0050 1.0050 1.0050 1.0050 1.0050
1926.958534 1.0050 1.0050 1.0050 1.0050 1.0050
1931.306367 1.0040 1.0040 1.0040 1.0040 1.0040
1935.654200 1.0040 1.0040 1.0040 1.0020 1.0020
1940.002033 1.0010 1.0010 1.0000 1.0000 1.0010
1944.349866 1.0010 1.0010 1.0000 1.0000 1.0000
1948.697699 1.0000 1.0000 0.9980 0.9940 0.9930
1953.045532 0.9910 0.9910 0.9910 0.9910 0.9930
1957.393365 1.0080 1.0160 1.0170 1.0090 1.0040
1961.741198 0.9970 0.9950 0.9950 0.9970 0.9980
1966.089031 0.9980 0.9980 0.9980 0.9980 0.9980
1970.436864 0.9980 0.9980 0.9980 1.0000 1.0000
1974.784697 1.0000 1.0010 1.0010 1.0010 1.0010
1979.132530 1.0000 1.0010 1.0010 1.0010 1.0000
1983.480363 1.0000 1.0000 1.0000 1.0000 1.0000
1987.828196 0.9980 0.9980 0.9980 0.9980 0.9980
1992.176029 0.9980 0.9970 0.9970 0.9950 0.9970
1996.523862 0.9980 0.9980 0.9980 1.0010 1.0020
2000.871694 1.0030 1.0040 1.0040 1.0040 1.0045
2005.219527 1.0050 1.0050 1.0050 1.0050 1.0050
2009.567360 1.0045 1.0040 1.0025 1.0010 1.0010
2013.915193 1.0010 1.0015 1.0020 1.0030 1.0040
2018.263026 1.0040 1.0040 1.0045 1.0050 1.0050
2022.610859 1.0050 1.0050 1.0050 1.0045 1.0040
2026.958692 1.0025 1.0010 1.0010 1.0011 1.0046
2031.306525 1.0080 1.0080 1.0079 1.0044 1.0010
2035.654358 1.0010 1.0010 1.0005 1.0000 1.0000
2040.002191 1.0000 1.0000 1.0000 1.0005 1.0010
2044.350024 1.0010 1.0010 1.0015 1.0020 1.0020
2048.697857 1.0020 1.0030 1.0040 1.0040 1.0039
2053.045690 1.0029 1.0020 1.0020 1.0020 1.0020
2057.393523 1.0020 1.0020 1.0021 1.0031 1.0040
2061.741356 1.0040 1.0040 1.0045 1.0050 1.0050
2066.089189 1.0050 1.0050 1.0050 1.0055 1.0060
2070.437022 1.0060 1.0060 1.0060 1.0060 1.0055
2074.784855 1.0050 1.0050 1.0050 1.0050 1.0050
2079.132688 1.0050 1.0050 1.0050 1.0050 1.0050
2083.480521 1.0050 1.0045 1.0040 1.0040 1.0039
2087.828354 1.0029 1.0020 1.0020 1.0020 1.0020
2092.176187 1.0020 1.0020 1.0020 1.0020 1.0020
2096.524020 1.0020 1.0020 1.0015 1.0010 1.0010
2100.871853 1.0010 1.0010 1.0010 1.0010 1.0010
2105.219686 1.0010 1.0011 1.0016 1.0020 1.0020
2109.567519 1.0021 1.0031 1.0040 1.0040 1.0039
2113.915351 1.0029 1.0020 1.0020 1.0020 1.0020
2118.263184 1.0020 1.0020 1.0020 1.0020 1.0020
2122.611017 1.0020 1.0020 1.0020 1.0021 1.0031
2126.958850 1.0040 1.0040 1.0040 1.0040 1.0040
2131.306683 1.0040 1.0040 1.0040 1.0038 1.0023
2135.654516 1.0010 1.0010 1.0010 1.0010 1.0010
2140.002349 1.0010 1.0010 1.0010 1.0011 1.0016
2144.350182 1.0020 1.0020 1.0020 1.0020 1.0019
2148.698015 1.0014 1.0010 1.0010 1.0010 1.0010
2153.045848 1.0010 1.0010 1.0009 1.0004 1.0000
2157.393681 1.0000 1.0000 1.0000 1.0000 1.0000
2161.741514 1.0000 1.0000 1.0000 1.0000 1.0000
2166.089347 1.0000 1.0000 1.0000 1.0000 1.0000
2170.437180 0.9998 0.9988 0.9980 0.9980 0.9980
2174.785013 0.9980 0.9980 0.9980 0.9980 0.9980
2179.132846 0.9980 0.9980 0.9980 0.9980 0.9980
2183.480679 0.9980 0.9980 0.9980 0.9980 0.9980
2187.828512 0.9980 0.9980 0.9980 0.9980 0.9980
2192.176345 0.9980 0.9980 0.9980 0.9980 0.9980
2196.524178 0.9980 0.9980 0.9980 0.9980 0.9980
2200.872011 0.9980 0.9980 0.9980 0.9980 0.9980
2205.219844 0.9980 0.9980 0.9980 0.9980 0.9979
2209.567677 0.9974 0.9970 0.9970 0.9970 0.9970
2213.915510 0.9970 0.9970 0.9968 0.9958 0.9950
2218.263343 0.9950 0.9950 0.9950 0.9950 0.9950
2222.611176 0.9950 0.9950 0.9950 0.9950 0.9949
2226.959008 0.9944 0.9940 0.9940 0.9940 0.9940
2231.306841 0.9940 0.9940 0.9940 0.9940 0.9940
2235.654674 0.9940 0.9940 0.9940 0.9940 0.9940
2240.002507 0.9939 0.9934 0.9926 0.9911 0.9900
2244.350340 0.9900 0.9900 0.9900 0.9896 0.9881
2248.698173 0.9870 0.9870 0.9869 0.9864 0.9859
2253.046006 0.9854 0.9850 0.9850 0.9850 0.9850
2257.393839 0.9847 0.9837 0.9829 0.9824 0.9819
2261.741672 0.9814 0.9806 0.9791 0.9780 0.9780
2266.089505 0.9780 0.9780 0.9780 0.9780 0.9777
2270.437338 0.9767 0.9760 0.9760 0.9760 0.9760
2274.785171 0.9754 0.9734 0.9719 0.9713 0.9705
2279.133004 0.9690 0.9680 0.9680 0.9678 0.9673
2283.480837 0.9670 0.9670 0.9670 0.9670 0.9670
2287.828670 0.9670 0.9670 0.9670 0.9670 0.9670
2292.176503 0.9670 0.9670 0.9670 0.9670 0.9670
2296.524336 0.9670 0.9668 0.9663 0.9660 0.9660
2300.872169 0.9660 0.9660 0.9662 0.9667 0.9672
2305.220002 0.9677 0.9683 0.9693 0.9700 0.9700
2309.567835 0.9700 0.9700 0.9700 0.9700 0.9700
2313.915668 0.9700 0.9700 0.9700 0.9700 0.9700
2318.263501 0.9700 0.9700 0.9700 0.9700 0.9696
2322.611334 0.9686 0.9680 0.9680 0.9678 0.9673
2326.959167 0.9670 0.9670 0.9672 0.9677 0.9680
2331.307000 0.9680 0.9684 0.9694 0.9700 0.9700
2335.654832 0.9694 0.9679 0.9661 0.9636 0.9602
2340.002665 0.9552 0.9513 0.9493 0.9480 0.9480
2344.350498 0.9487 0.9507 0.9533 0.9568 0.9596
2348.698331 0.9611 0.9624 0.9634 0.9646 0.9661
2353.046164 0.9676 0.9691 0.9702 0.9707 0.9712
2357.393997 0.9717 0.9724 0.9734 0.9742 0.9747
2361.741830 0.9752 0.9757 0.9760 0.9760 0.9760
2366.089663 0.9760 0.9760 0.9760 0.9758 0.9753
2370.437496 0.9744 0.9729 0.9718 0.9713 0.9708
2374.785329 0.9703 0.9696 0.9686 0.9680 0.9680
2379.133162 0.9680 0.9680 0.9684 0.9694 0.9700
2383.480995 0.9700 0.9702 0.9707 0.9712 0.9717
2387.828828 0.9726 0.9741 0.9750 0.9750 0.9752
2392.176661 0.9757 0.9758 0.9753 0.9750 0.9750
2396.524494 0.9748 0.9743 0.9744 0.9754 0.9760
2400.872327 0.9760 0.9764 0.9774 0.9780 0.9780
2405.220160 0.9780 0.9780 0.9780 0.9780 0.9776
2409.567993 0.9766 0.9760 0.9760 0.9758 0.9753
2413.915826 0.9748 0.9743 0.9742 0.9747 0.9750
2418.263659 0.9750 0.9752 0.9757 0.9760 0.9760
2422.611492 0.9765 0.9775 0.9780 0.9780 0.9780
2426.959325 0.9780 0.9780 0.9780 0.9780 0.9780
2431.307158 0.9775 0.9765 0.9758 0.9753 0.9750
2435.654991 0.9750 0.9752 0.9757 0.9760 0.9760
2440.002824 0.9760 0.9760 0.9760 0.9760 0.9765
2444.350657 0.9775 0.9780 0.9780 0.9780 0.9780
2448.698489 0.9780 0.9780 0.9780 0.9780 0.9780
2453.046322 0.9780 0.9780 0.9780 0.9775 0.9765
2457.394155 0.9760 0.9760 0.9757 0.9752 0.9750
2461.741988 0.9750 0.9747 0.9742 0.9740 0.9740
2466.089821 0.9743 0.9748 0.9750 0.9750 0.9750
2470.437654 0.9750 0.9750 0.9750 0.9747 0.9742
2474.785487 0.9740 0.9740 0.9740 0.9740 0.9740
2479.133320 0.9740 0.9740 0.9740 0.9743 0.9748
2483.481153 0.9753 0.9758 0.9760 0.9760 0.9760
2487.828986 0.9760 0.9760 0.9760 0.9749 0.9729
2492.176819 0.9717 0.9712 0.9710 0.9710 0.9710
2496.524652 0.9710 0.9710 0.9710 0.9710 0.9710
2500.872485 0.9713 0.9718 0.9725 0.9736 0.9740
2505.220318 0.9740 0.9740 0.9740 0.9740 0.9740
2509.568151 0.9734 0.9724 0.9720 0.9720 0.9720
2513.915984 0.9720 0.9726 0.9736 0.9740 0.9740
2518.263817 0.9743 0.9748 0.9750 0.9750 0.9747
2522.611650 0.9742 0.9734 0.9724 0.9720 0.9720
2526.959483 0.9717 0.9712 0.9710 0.9710 0.9707
2531.307316 0.9702 0.9694 0.9684 0.9680 0.9680
2535.655149 0.9677 0.9672 0.9670 0.9670 0.9670
2540.002982 0.9670 0.9673 0.9678 0.9680 0.9680
2544.350815 0.9686 0.9696 0.9703 0.9708 0.9707
2548.698648 0.9702 0.9700 0.9700 0.9700 0.9700
2553.046481 0.9700 0.9700 0.9700 0.9700 0.9700
2557.394314 0.9700 0.9700 0.9700 0.9700 0.9700
2561.742146 0.9700 0.9700 0.9700 0.9700 0.9700
2566.089979 0.9700 0.9700 0.9700 0.9700 0.9700
2570.437812 0.9700 0.9700 0.9700 0.9700 0.9700
2574.785645 0.9700 0.9703 0.9708 0.9710 0.9710
2579.133478 0.9707 0.9702 0.9700 0.9700 0.9700
2583.481311 0.9700 0.9700 0.9700 0.9700 0.9700
2587.829144 0.9700 0.9700 0.9700 0.9700 0.9693
2592.176977 0.9683 0.9677 0.9672 0.9670 0.9670
2596.524810 0.9670 0.9670 0.9667 0.9662 0.9660
2600.872643 0.9660 0.9663 0.9668 0.9673 0.9678
2605.220476 0.9680 0.9680 0.9680 0.9680 0.9680
2609.568309 0.9680 0.9677 0.9672 0.9670 0.9670
2613.916142 0.9667 0.9662 0.9660 0.9660 0.9660
2618.263975 0.9660 0.9653 0.9643 0.9640 0.9640
2622.611808 0.9640 0.9640 0.9640 0.9640 0.9647
2626.959641 0.9657 0.9660 0.9660 0.9660 0.9660
2631.307474 0.9660 0.9660 0.9653 0.9643 0.9640
2635.655307 0.9640 0.9640 0.9640 0.9640 0.9640
2640.003140 0.9647 0.9657 0.9664 0.9669 0.9674
2644.350973 0.9679 0.9680 0.9680 0.9680 0.9680
2648.698806 0.9676 0.9671 0.9670 0.9670 0.9666
2653.046639 0.9661 0.9660 0.9660 0.9660 0.9660
2657.394472 0.9660 0.9660 0.9660 0.9660 0.9660
2661.742305 0.9660 0.9660 0.9660 0.9660 0.9660
2666.090138 0.9660 0.9660 0.9660 0.9660 0.9664
2670.437970 0.9669 0.9670 0.9670 0.9670 0.9670
2674.785803 0.9670 0.9670 0.9670 0.9670 0.9666
2679.133636 0.9661 0.9660 0.9660 0.9660 0.9660
2683.481469 0.9652 0.9642 0.9640 0.9640 0.9640
2687.829302 0.9640 0.9636 0.9631 0.9630 0.9630
2692.177135 0.9630 0.9630 0.9630 0.9630 0.9630
2696.524968 0.9630 0.9630 0.9630 0.9630 0.9630
2700.872801 0.9626 0.9621 0.9620 0.9620 0.9612
2705.220634 0.9602 0.9596 0.9591 0.9582 0.9572
2709.568467 0.9566 0.9561 0.9560 0.9560 0.9560
2713.916300 0.9560 0.9564 0.9569 0.9578 0.9588
2718.264133 0.9590 0.9590 0.9590 0.9590 0.9578
2722.611966 0.9563 0.9560 0.9560 0.9560 0.9560
2726.959799 0.9560 0.9560 0.9560 0.9560 0.9560
2731.307632 0.9560 0.9560 0.9560 0.9560 0.9560
2735.655465 0.9560 0.9560 0.9564 0.9569 0.9570
2740.003298 0.9570 0.9570 0.9570 0.9578 0.9588
2744.351131 0.9590 0.9590 0.9582 0.9572 0.9570
2748.698964 0.9570 0.9570 0.9570 0.9570 0.9570
2753.046797 0.9570 0.9570 0.9570 0.9570 0.9570
2757.394630 0.9570 0.9570 0.9570 0.9566 0.9561
2761.742463 0.9560 0.9560 0.9560 0.9560 0.9564
2766.090296 0.9569 0.9579 0.9589 0.9590 0.9590
2770.438129 0.9594 0.9599 0.9596 0.9591 0.9594
2774.785962 0.9599 0.9600 0.9600 0.9600 0.9600
2779.133795 0.9600 0.9600 0.9596 0.9591 0.9590
2783.481627 0.9590 0.9590 0.9590 0.9581 0.9571
2787.829460 0.9570 0.9570 0.9570 0.9570 0.9570
2792.177293 0.9570 0.9570 0.9570 0.9570 0.9570
2796.525126 0.9570 0.9570 0.9566 0.9561 0.9564
2800.872959 0.9569 0.9570 0.9570 0.9566 0.9561
2805.220792 0.9560 0.9560 0.9560 0.9560 0.9560
2809.568625 0.9560 0.9560 0.9560 0.9556 0.9551
2813.916458 0.9550 0.9550 0.9541 0.9531 0.9530
2818.264291 0.9530 0.9530 0.9530 0.9525 0.9520
2822.612124 0.9515 0.9510 0.9510 0.9510 0.9501
2826.959957 0.9491 0.9485 0.9480 0.9466 0.9451
2831.307790 0.9441 0.9431 0.9407 0.9382 0.9361
2835.655623 0.9341 0.9331 0.9321 0.9311 0.9301
2840.003456 0.9300 0.9300 0.9309 0.9319 0.9343
2844.351289 0.9368 0.9384 0.9399 0.9414 0.9429
2848.699122 0.9430 0.9430 0.9416 0.9401 0.9386
2853.046955 0.9371 0.9351 0.9331 0.9325 0.9320
2857.394788 0.9301 0.9281 0.9270 0.9260 0.9241
2861.742621 0.9221 0.9220 0.9220 0.9220 0.9220
2866.090454 0.9230 0.9240 0.9245 0.9250 0.9250
2870.438287 0.9250 0.9255 0.9260 0.9275 0.9290
2874.786120 0.9305 0.9320 0.9320 0.9320 0.9325
2879.133953 0.9330 0.9330 0.9330 0.9330 0.9330
2883.481786 0.9330 0.9330 0.9330 0.9330 0.9345
2887.829619 0.9360 0.9365 0.9370 0.9370 0.9370
2892.177452 0.9385 0.9400 0.9400 0.9400 0.9400
2896.525284 0.9400 0.9400 0.9400 0.9385 0.9370
2900.873117 0.9365 0.9360 0.9350 0.9340 0.9340
2905.220950 0.9340 0.9335 0.9330 0.9330 0.9330
2909.568783 0.9330 0.9330 0.9330 0.9330 0.9330
2913.916616 0.9330 0.9325 0.9320 0.9310 0.9300
2918.264449 0.9300 0.9300 0.9275 0.9249 0.9214
2922.612282 0.9180 0.9165 0.9149 0.9129 0.9110
2926.960115 0.9105 0.9099 0.9079 0.9059 0.9029
2931.307948 0.8999 0.8979 0.8959 0.8934 0.8910
2935.655781 0.8905 0.8900 0.8900 0.8898 0.8848
2940.003614 0.8798 0.8753 0.8709 0.8689 0.8667
2944.351447 0.8612 0.8559 0.8529 0.8498 0.8453
2948.699280 0.8403 0.8253 0.8103 0.7948 0.7797
2953.047113 0.7742 0.7689 0.7658 0.7630 0.7630
2957.394946 0.7631 0.7646 0.7666 0.7756 0.7840
2961.742779 0.7840 0.7834 0.7744 0.7657 0.7612
2966.090612 0.7567 0.7517 0.7470 0.7465 0.7460
2970.438445 0.7465 0.7474 0.7529 0.7580 0.7585
2974.786278 0.7593 0.7633 0.7673 0.7703 0.7743
2979.134111 0.7893 0.8039 0.8144 0.8242 0.8267
2983.481944 0.8290 0.8295 0.8300 0.8300 0.8297
2987.829777 0.8262 0.8228 0.8203 0.8159 0.7959
2992.177610 0.7769 0.7664 0.7568 0.7553 0.7542
2996.525443 0.7557 0.7581 0.7686 0.7791 0.7896
3000.873276 0.7993 0.8023 0.8073 0.8293 0.8501
3005.221109 0.8601 0.8692 0.8712 0.8732 0.8747
3009.568941 0.8761 0.8766 0.8770 0.8770 0.8766
3013.916774 0.8736 0.8709 0.8699 0.8689 0.8679
3018.264607 0.8668 0.8653 0.8639 0.8629 0.8621
3022.612440 0.8631 0.8642 0.8657 0.8671 0.8681
3026.960273 0.8691 0.8701 0.8716 0.8756 0.8799
3031.308106 0.8859 0.8916 0.8961 0.9007 0.9057
3035.655939 0.9101 0.9106 0.9112 0.9127 0.9142
3040.003772 0.9157 0.9173 0.9193 0.9210 0.9210
3044.351605 0.9211 0.9216 0.9220 0.9220 0.9220
3048.699438 0.9220 0.9220 0.9220 0.9218 0.9203
3053.047271 0.9190 0.9190 0.9190 0.9190 0.9187
3057.395104 0.9167 0.9149 0.9144 0.9137 0.9122
3061.742937 0.9105 0.9075 0.9048 0.9038 0.9027
3066.090770 0.9012 0.8995 0.8970 0.8944 0.8909
3070.438603 0.8874 0.8839 0.8805 0.8780 0.8756
3074.786436 0.8736 0.8720 0.8720 0.8720 0.8720
3079.134269 0.8719 0.8714 0.8708 0.8698 0.8690
3083.482102 0.8690 0.8682 0.8642 0.8602 0.8562
3087.829935 0.8527 0.8512 0.8462 0.8272 0.8090
3092.177768 0.7940 0.7814 0.7784 0.7757 0.7742
3096.525601 0.7730 0.7730 0.7733 0.7748 0.7791
3100.873434 0.7931 0.8069 0.8199 0.8324 0.8434
3105.221267 0.8541 0.8636 0.8732 0.8832 0.8930
3109.569100 0.9020 0.9097 0.9127 0.9162 0.9212
3113.916933 0.9260 0.9300 0.9331 0.9336 0.9344
3118.264765 0.9359 0.9370 0.9370 0.9374 0.9389
3122.612598 0.9401 0.9406 0.9412 0.9422 0.9430
3126.960431 0.9430 0.9430 0.9430 0.9431 0.9436
3131.308264 0.9444 0.9459 0.9471 0.9476 0.9480
3135.656097 0.9480 0.9480 0.9480 0.9480 0.9480
3140.003930 0.9480 0.9480 0.9481 0.9486 0.9490
3144.351763 0.9490 0.9490 0.9490 0.9493 0.9503
3148.699596 0.9510 0.9510 0.9513 0.9523 0.9530
3153.047429 0.9530 0.9527 0.9517 0.9510 0.9510
3157.395262 0.9510 0.9510 0.9511 0.9516 0.9521
3161.743095 0.9526 0.9530 0.9530 0.9530 0.9530
3166.090928 0.9530 0.9530 0.9530 0.9530 0.9533
3170.438761 0.9543 0.9551 0.9556 0.9560 0.9560
3174.786594 0.9560 0.9560 0.9560 0.9560 0.9560
3179.134427 0.9560 0.9560 0.9560 0.9562 0.9567
3183.482260 0.9570 0.9570 0.9573 0.9583 0.9590
3187.830093 0.9590 0.9590 0.9590 0.9592 0.9597
3192.177926 0.9600 0.9600 0.9603 0.9613 0.9620
3196.525759 0.9620 0.9620 0.9620 0.9620 0.9620
3200.873592 0.9622 0.9627 0.9630 0.9630 0.9628
3205.221425 0.9623 0.9617 0.9607 0.9600 0.9600
3209.569258 0.9600 0.9600 0.9603 0.9613 0.9620
3213.917091 0.9620 0.9620 0.9620 0.9620 0.9620
3218.264924 0.9620 0.9620 0.9620 0.9620 0.9622
3222.612757 0.9627 0.9630 0.9630 0.9630 0.9630
3226.960590 0.9630 0.9630 0.9630 0.9630 0.9630
3231.308422 0.9630 0.9630 0.9630 0.9630 0.9630
3235.656255 0.9630 0.9630 0.9632 0.9637 0.9640
3240.004088 0.9640 0.9640 0.9640 0.9640 0.9640
3244.351921 0.9640 0.9640 0.9640 0.9640 0.9640
3248.699754 0.9640 0.9640 0.9640 0.9644 0.9654
3253.047587 0.9660 0.9660 0.9662 0.9667 0.9670
3257.395420 0.9670 0.9670 0.9670 0.9670 0.9670
3261.743253 0.9670 0.9670 0.9670 0.9670 0.9670
3266.091086 0.9670 0.9668 0.9663 0.9660 0.9660
3270.438919 0.9660 0.9660 0.9660 0.9660 0.9660
3274.786752 0.9660 0.9660 0.9660 0.9662 0.9667
3279.134585 0.9670 0.9670 0.9670 0.9670 0.9670
3283.482418 0.9670 0.9672 0.9677 0.9680 0.9680
3287.830251 0.9680 0.9680 0.9680 0.9680 0.9678
3292.178084 0.9673 0.9670 0.9670 0.9672 0.9677
3296.525917 0.9684 0.9694 0.9700 0.9700 0.9700
3300.873750 0.9700 0.9700 0.9700 0.9700 0.9700
3305.221583 0.9700 0.9700 0.9702 0.9707 0.9708
3309.569416 0.9703 0.9700 0.9700 0.9700 0.9700
3313.917249 0.9695 0.9685 0.9680 0.9680 0.9680
3318.265082 0.9680 0.9680 0.9680 0.9685 0.9695
3322.612915 0.9702 0.9707 0.9708 0.9703 0.9700
3326.960748 0.9700 0.9700 0.9700 0.9700 0.9700
3331.308581 0.9702 0.9707 0.9710 0.9710 0.9710
3335.656414 0.9710 0.9710 0.9710 0.9710 0.9710
3340.004247 0.9710 0.9710 0.9710 0.9710 0.9710
3344.352079 0.9710 0.9710 0.9710 0.9708 0.9703
3348.699912 0.9700 0.9700 0.9702 0.9707 0.9712
3353.047745 0.9717 0.9720 0.9720 0.9720 0.9720
3357.395578 0.9720 0.9720 0.9720 0.9720 0.9720
3361.743411 0.9720 0.9720 0.9720 0.9720 0.9720
3366.091244 0.9720 0.9720 0.9728 0.9743 0.9750
3370.439077 0.9750 0.9750 0.9750 0.9750 0.9750
3374.786910 0.9747 0.9742 0.9740 0.9740 0.9740
3379.134743 0.9740 0.9740 0.9740 0.9740 0.9740
3383.482576 0.9740 0.9740 0.9740 0.9740 0.9740
3387.830409 0.9740 0.9743 0.9748 0.9753 0.9758
3392.178242 0.9760 0.9760 0.9757 0.9752 0.9750
3396.526075 0.9750 0.9750 0.9750 0.9747 0.9742
3400.873908 0.9746 0.9756 0.9757 0.9752 0.9750
3405.221741 0.9750 0.9750 0.9750 0.9750 0.9750
3409.569574 0.9750 0.9750 0.9753 0.9758 0.9760
3413.917407 0.9760 0.9760 0.9760 0.9760 0.9760
3418.265240 0.9760 0.9760 0.9760 0.9760 0.9757
3422.613073 0.9752 0.9750 0.9750 0.9750 0.9750
3426.960906 0.9750 0.9750 0.9750 0.9750 0.9747
3431.308739 0.9742 0.9740 0.9740 0.9740 0.9740
3435.656572 0.9740 0.9740 0.9740 0.9740 0.9734
3440.004405 0.9724 0.9720 0.9720 0.9720 0.9720
3444.352238 0.9720 0.9720 0.9726 0.9736 0.9743
3448.700071 0.9748 0.9750 0.9750 0.9741 0.9726
3453.047903 0.9720 0.9720 0.9720 0.9720 0.9720
3457.395736 0.9720 0.9720 0.9720 0.9720 0.9720
3461.743569 0.9720 0.9720 0.9720 0.9720 0.9720
3466.091402 0.9720 0.9720 0.9720 0.9720 0.9720
3470.439235 0.9726 0.9736 0.9734 0.9724 0.9720
3474.787068 0.9720 0.9720 0.9720 0.9720 0.9720
3479.134901 0.9720 0.9720 0.9720 0.9720 0.9720
3483.482734 0.9720 0.9720 0.9720 0.9720 0.9720
3487.830567 0.9720 0.9720 0.9717 0.9712 0.9710
3492.178400 0.9710 0.9710 0.9710 0.9710 0.9710
3496.526233 0.9710 0.9710 0.9707 0.9702 0.9700
3500.874066 0.9700 0.9700 0.9700 0.9700 0.9700
3505.221899 0.9700 0.9700 0.9700 0.9700 0.9703
3509.569732 0.9708 0.9710 0.9710 0.9710 0.9710
3513.917565 0.9710 0.9710 0.9710 0.9710 0.9707
3518.265398 0.9702 0.9700 0.9700 0.9700 0.9700
3522.613231 0.9700 0.9700 0.9700 0.9700 0.9700
3526.961064 0.9700 0.9700 0.9700 0.9700 0.9700
3531.308897 0.9700 0.9700 0.9693 0.9683 0.9680
3535.656730 0.9680 0.9687 0.9697 0.9700 0.9700
3540.004563 0.9700 0.9700 0.9693 0.9683 0.9680
3544.352396 0.9680 0.9680 0.9680 0.9680 0.9680
3548.700229 0.9680 0.9680 0.9687 0.9697 0.9700
3553.048062 0.9700 0.9700 0.9700 0.9700 0.9700
3557.395895 0.9700 0.9700 0.9700 0.9700 0.9700
3561.743728 0.9700 0.9700 0.9700 0.9704 0.9709
3566.091560 0.9706 0.9701 0.9700 0.9700 0.9693
3570.439393 0.9683 0.9680 0.9680 0.9680 0.9680
3574.787226 0.9680 0.9680 0.9676 0.9671 0.9670
3579.135059 0.9670 0.9666 0.9661 0.9652 0.9642
3583.482892 0.9640 0.9640 0.9640 0.9640 0.9640
3587.830725 0.9640 0.9640 0.9640 0.9640 0.9640
3592.178558 0.9640 0.9640 0.9648 0.9658 0.9660
3596.526391 0.9660 0.9660 0.9660 0.9660 0.9660
3600.874224 0.9660 0.9660 0.9660 0.9660 0.9660
3605.222057 0.9660 0.9660 0.9660 0.9660 0.9660
3609.569890 0.9660 0.9660 0.9660 0.9660 0.9660
3613.917723 0.9660 0.9660 0.9660 0.9660 0.9660
3618.265556 0.9660 0.9660 0.9660 0.9660 0.9664
3622.613389 0.9669 0.9670 0.9670 0.9666 0.9661
3626.961222 0.9648 0.9633 0.9630 0.9630 0.9634
3631.309055 0.9639 0.9652 0.9667 0.9682 0.9697
3635.656888 0.9704 0.9709 0.9710 0.9710 0.9706
3640.004721 0.9701 0.9700 0.9700 0.9700 0.9700
3644.352554 0.9692 0.9682 0.9676 0.9671 0.9666
3648.700387 0.9661 0.9664 0.9669 0.9670 0.9670
3653.048220 0.9670 0.9670 0.9674 0.9679 0.9680
3657.396053 0.9680 0.9688 0.9698 0.9704 0.9709
3661.743886 0.9714 0.9719 0.9720 0.9720 0.9720
3666.091719 0.9720 0.9716 0.9711 0.9697 0.9682
3670.439552 0.9676 0.9671 0.9657 0.9642 0.9640
3674.787385 0.9640 0.9636 0.9631 0.9634 0.9639
3679.135217 0.9657 0.9677 0.9689 0.9699 0.9704
3683.483050 0.9709 0.9710 0.9710 0.9706 0.9701
3687.830883 0.9700 0.9700 0.9691 0.9681 0.9676
3692.178716 0.9671 0.9674 0.9679 0.9680 0.9680
3696.526549 0.9680 0.9680 0.9680 0.9680 0.9689
3700.874382 0.9699 0.9704 0.9709 0.9710 0.9710
3705.222215 0.9710 0.9710 0.9706 0.9701 0.9700
3709.570048 0.9700 0.9691 0.9681 0.9689 0.9699
3713.917881 0.9700 0.9700 0.9700 0.9700 0.9704
3718.265714 0.9709 0.9710 0.9710 0.9705 0.9700
3722.613547 0.9700 0.9700 0.9700 0.9700 0.9691
3726.961380 0.9681 0.9680 0.9680 0.9675 0.9670
3731.309213 0.9670 0.9670 0.9665 0.9660 0.9660
3735.657046 0.9660 0.9651 0.9641 0.9649 0.9659
3740.004879 0.9665 0.9670 0.9665 0.9660 0.9660
3744.352712 0.9660 0.9651 0.9641 0.9649 0.9659
3748.700545 0.9669 0.9679 0.9689 0.9699 0.9700
3753.048378 0.9700 0.9700 0.9700 0.9700 0.9700
3757.396211 0.9700 0.9700 0.9700 0.9700 0.9700
3761.744044 0.9700 0.9700 0.9700 0.9705 0.9710
3766.091877 0.9715 0.9720 0.9720 0.9720 0.9720
3770.439710 0.9720 0.9730 0.9740 0.9740 0.9740
3774.787543 0.9740 0.9740 0.9745 0.9750 0.9745
3779.135376 0.9740 0.9740 0.9740 0.9740 0.9740
3783.483209 0.9740 0.9740 0.9745 0.9750 0.9750
3787.831042 0.9750 0.9750 0.9750 0.9745 0.9740
3792.178874 0.9740 0.9740 0.9740 0.9740 0.9730
3796.526707 0.9720 0.9720 0.9720
##END=
