##TITLE=3,4-DICHLORO-1-BUTENE
##JCAMP-DX=4.24
##DATA TYPE=INFRARED SPECTRUM
##CLASS=COBLENTZ
##ORIGIN=DOW CHEMICAL COMPANY
##OWNER=COBLENTZ SOCIETY
Collection (C) 2018 copyright by the U.S. Secretary of Commerce
on behalf of the United States of America. All rights reserved.
##DATE=Not specified, most likely prior to 1970
##CAS REGISTRY NO=760-23-6
##MOLFORM=C4 H6 Cl2
##SOURCE REFERENCE=COBLENTZ NO. 140
##$NIST SOURCE=COBLENTZ
##$NIST IMAGE=cob140
##SPECTROMETER/DATA SYSTEM=Not specified, most likely a prism, grating, or hybrid spectrometer.
##STATE=SOLUTION (10% CCl4 FOR 2.5-7.5, 10% CS2 FOR 7.5-16 MICRON)
##PATH LENGTH=0.01 CM, 0.01 CM
$$SPECTRAL CONTAMINATION DUE TO CCl4 AROUND 1550 CM^-^1
##SAMPLING PROCEDURE=TRANSMISSION
##RESOLUTION=4
##DATA PROCESSING=DIGITIZED BY NIST FROM HARD COPY
##XUNITS=MICROMETERS
##YUNITS=TRANSMITTANCE
##XFACTOR=1.000000
##YFACTOR=1
##DELTAX=000.006734
##FIRSTX=2.064
##LASTX=15.9427
##FIRSTY=0.898
##MAXX=15.9427
##MINX=2.064
##MAXY=0.914
##MINY=0.046
##NPOINTS=2062
##XYDATA=(X++(Y..Y))
2.064000 0.8980 0.8980 0.9000 0.8980 0.8980
2.097686 0.9000 0.8980 0.8930 0.8930 0.8950
2.131000 0.8960 0.8980 0.8980 0.9000 0.9000
2.164686 0.9000 0.9000 0.9000 0.8980 0.8980
2.199000 0.8950 0.8930 0.8900 0.8860 0.8860
2.232686 0.8860 0.8840 0.8840 0.8830 0.8830
2.266000 0.8830 0.8830 0.8840 0.8840 0.8840
2.299686 0.8840 0.8840 0.8860 0.8880 0.8880
2.333000 0.8860 0.8840 0.8830 0.8830 0.8830
2.366686 0.8830 0.8840 0.8880 0.8880 0.8880
2.401000 0.8880 0.8880 0.8860 0.8880 0.8900
2.434686 0.8910 0.8910 0.8930 0.8950 0.8960
2.468000 0.8980 0.9020 0.9020 0.8980 0.8980
2.501686 0.8980 0.8960 0.8950 0.8980 0.9020
2.535000 0.9020 0.9000 0.9000 0.9000 0.8980
2.568686 0.9000 0.9000 0.9000 0.8980 0.8980
2.603000 0.9000 0.9000 0.8980 0.8980 0.8960
2.636686 0.8960 0.8960 0.8960 0.8980 0.8980
2.670000 0.9000 0.8980 0.8960 0.8950 0.8950
2.703686 0.8950 0.8960 0.8960 0.8960 0.8980
2.737000 0.8980 0.9000 0.9000 0.9000 0.8980
2.770686 0.8960 0.8950 0.8930 0.8910 0.8900
2.805000 0.8860 0.8860 0.8880 0.8880 0.8900
2.838686 0.8900 0.8910 0.8900 0.8900 0.8880
2.872000 0.8860 0.8860 0.8840 0.8830 0.8830
2.905686 0.8830 0.8830 0.8810 0.8810 0.8810
2.939000 0.8810 0.8790 0.8810 0.8790 0.8810
2.972686 0.8790 0.8790 0.8790 0.8810 0.8810
3.007000 0.8810 0.8810 0.8810 0.8810 0.8810
3.040686 0.8810 0.8810 0.8790 0.8790 0.8810
3.074000 0.8810 0.8790 0.8780 0.8790 0.8790
3.107686 0.8790 0.8810 0.8810 0.8830 0.8830
3.141000 0.8840 0.8840 0.8860 0.8880 0.8880
3.174686 0.8860 0.8860 0.8840 0.8830 0.8810
3.209000 0.8710 0.8620 0.8480 0.8360 0.8260
3.242686 0.8190 0.8090 0.7970 0.7950 0.7970
3.276000 0.7980 0.8090 0.8190 0.8330 0.8360
3.309686 0.8400 0.8380 0.8360 0.8230 0.8190
3.343000 0.8040 0.7860 0.7690 0.7430 0.7260
3.376686 0.7090 0.7020 0.7010 0.7040 0.7330
3.411000 0.7610 0.7970 0.8090 0.8190 0.8260
3.444686 0.8290 0.8400 0.8530 0.8590 0.8600
3.478000 0.8620 0.8620 0.8640 0.8640 0.8640
3.511686 0.8640 0.8640 0.8670 0.8690 0.8760
3.545000 0.8780 0.8790 0.8810 0.8840 0.8980
3.578686 0.8980 0.9000 0.9020 0.9020 0.9020
3.613000 0.9000 0.9000 0.8980 0.8960 0.8950
3.646686 0.8930 0.8930 0.8930 0.8930 0.8930
3.680000 0.8930 0.8910 0.8910 0.8910 0.8930
3.713686 0.8950 0.8950 0.8950 0.8950 0.8950
3.747000 0.8950 0.8960 0.8960 0.8960 0.8960
3.780686 0.8960 0.8960 0.8960 0.8960 0.8960
3.815000 0.8960 0.8960 0.8980 0.8980 0.8980
3.848686 0.8960 0.8960 0.8960 0.8960 0.8960
3.882000 0.8960 0.8960 0.8960 0.8960 0.8950
3.915686 0.8950 0.8950 0.8950 0.8950 0.8950
3.949000 0.8950 0.8950 0.8950 0.8950 0.8960
3.982686 0.8960 0.8960 0.8960 0.8960 0.8960
4.017000 0.8960 0.8960 0.8960 0.8960 0.8960
4.050686 0.8960 0.8960 0.8950 0.8950 0.8950
4.084000 0.8950 0.8950 0.8930 0.8930 0.8930
4.117686 0.8910 0.8910 0.8900 0.8900 0.8900
4.152000 0.8900 0.8900 0.8910 0.8910 0.8930
4.185686 0.8960 0.8960 0.9030 0.9070 0.9080
4.219000 0.9100 0.9120 0.9120 0.9140 0.9120
4.252686 0.9100 0.9070 0.9030 0.9020 0.8980
4.286000 0.8960 0.8960 0.8910 0.8900 0.8840
4.319686 0.8780 0.8740 0.8740 0.8720 0.8720
4.354000 0.8720 0.8720 0.8710 0.8710 0.8690
4.387686 0.8690 0.8690 0.8720 0.8740 0.8760
4.421000 0.8760 0.8780 0.8780 0.8790 0.8790
4.454686 0.8830 0.8880 0.8900 0.8910 0.8930
4.488000 0.8930 0.8930 0.8930 0.8930 0.8950
4.521686 0.8950 0.8950 0.8960 0.8960 0.8980
4.556000 0.8980 0.8960 0.8960 0.8960 0.8980
4.589686 0.8980 0.9000 0.8980 0.8960 0.8960
4.623000 0.8960 0.8960 0.8960 0.8960 0.8960
4.656686 0.8950 0.8950 0.8960 0.8960 0.8960
4.690000 0.8960 0.8960 0.8960 0.8950 0.8960
4.723686 0.8960 0.8960 0.8960 0.8960 0.8960
4.758000 0.8960 0.8960 0.8960 0.8960 0.8960
4.791686 0.8960 0.8960 0.8950 0.8950 0.8930
4.825000 0.8930 0.8900 0.8900 0.8910 0.8930
4.858686 0.8960 0.8960 0.8950 0.8960 0.8960
4.892000 0.8910 0.8910 0.8910 0.8930 0.8930
4.925686 0.8930 0.8930 0.8950 0.8960 0.8960
4.960000 0.8950 0.8950 0.8950 0.8930 0.8930
4.993686 0.8910 0.8910 0.8910 0.8910 0.8910
5.027000 0.8930 0.8930 0.8930 0.8930 0.8930
5.060686 0.8930 0.8930 0.8930 0.8930 0.8900
5.094000 0.8900 0.8860 0.8860 0.8840 0.8840
5.127686 0.8830 0.8840 0.8840 0.8880 0.8910
5.162000 0.8930 0.8930 0.8930 0.8950 0.8950
5.195686 0.8950 0.8950 0.8950 0.8950 0.8930
5.229000 0.8930 0.8910 0.8900 0.8860 0.8860
5.262686 0.8860 0.8860 0.8860 0.8840 0.8790
5.296000 0.8780 0.8760 0.8690 0.8590 0.8480
5.329686 0.8380 0.8310 0.8260 0.8210 0.8190
5.364000 0.8210 0.8230 0.8280 0.8330 0.8410
5.397686 0.8480 0.8570 0.8640 0.8710 0.8760
5.431000 0.8780 0.8810 0.8830 0.8910 0.8930
5.464686 0.8930 0.8930 0.8950 0.8950 0.8950
5.498000 0.8950 0.8950 0.8950 0.8950 0.8950
5.531686 0.8950 0.8950 0.8950 0.8950 0.8950
5.566000 0.8960 0.8960 0.8980 0.9000 0.9000
5.599686 0.9000 0.8980 0.8980 0.8960 0.8960
5.633000 0.8950 0.8960 0.8960 0.8960 0.8960
5.666686 0.8950 0.8950 0.8950 0.8930 0.8930
5.700000 0.8910 0.8910 0.8930 0.8910 0.8910
5.733686 0.8910 0.8900 0.8900 0.8900 0.8900
5.768000 0.8900 0.8900 0.8900 0.8910 0.8910
5.801686 0.8910 0.8930 0.8910 0.8910 0.8930
5.835000 0.8950 0.8950 0.8950 0.8950 0.8950
5.868686 0.8930 0.8930 0.8910 0.8930 0.8930
5.902000 0.8930 0.8930 0.8930 0.8930 0.8910
5.935686 0.8910 0.8910 0.8900 0.8930 0.8930
5.970000 0.8910 0.8900 0.8900 0.8860 0.8860
6.003686 0.8840 0.8830 0.8790 0.8780 0.8720
6.037000 0.8670 0.8640 0.8470 0.8360 0.8240
6.070686 0.8090 0.7920 0.7780 0.7710 0.7710
6.104000 0.7690 0.7740 0.7900 0.8070 0.8240
6.137686 0.8310 0.8330 0.8330 0.8350 0.8360
6.172000 0.8330 0.8290 0.8280 0.8190 0.8120
6.205686 0.8040 0.7980 0.7900 0.7830 0.7710
6.239000 0.7590 0.7470 0.7280 0.7140 0.6940
6.272686 0.6760 0.6610 0.6580 0.6520 0.6370
6.306000 0.6210 0.6110 0.6040 0.5970 0.5940
6.339686 0.5940 0.5910 0.5750 0.5670 0.5540
6.374000 0.5410 0.5220 0.5150 0.5060 0.4980
6.407686 0.4860 0.4720 0.4600 0.4530 0.4460
6.441000 0.4450 0.4430 0.4430 0.4450 0.4530
6.474686 0.4550 0.4690 0.4820 0.4910 0.5010
6.508000 0.5270 0.5410 0.5540 0.5730 0.5890
6.541686 0.5960 0.6040 0.6080 0.6160 0.6210
6.576000 0.6300 0.6390 0.6460 0.6520 0.6680
6.609686 0.6820 0.6970 0.7020 0.7040 0.7110
6.643000 0.7130 0.7210 0.7430 0.7500 0.7620
6.676686 0.7660 0.7690 0.7880 0.7930 0.7970
6.710000 0.8070 0.8140 0.8170 0.8190 0.8260
6.743686 0.8290 0.8330 0.8350 0.8380 0.8400
6.778000 0.8400 0.8410 0.8400 0.8380 0.8380
6.811686 0.8360 0.8330 0.8240 0.8190 0.8120
6.845000 0.8100 0.8070 0.8040 0.7970 0.7900
6.878686 0.7880 0.7710 0.7590 0.7470 0.7210
6.912000 0.6940 0.6680 0.6590 0.6560 0.6510
6.945686 0.6460 0.6510 0.6540 0.6780 0.6680
6.980000 0.6560 0.6420 0.6060 0.5820 0.5580
7.013686 0.5460 0.5340 0.5130 0.5100 0.4690
7.047000 0.4690 0.5100 0.5390 0.5790 0.5940
7.080686 0.6010 0.6250 0.6460 0.6560 0.6920
7.114000 0.7010 0.7180 0.7380 0.7610 0.7920
7.147686 0.7980 0.8170 0.8290 0.8380 0.8400
7.182000 0.8480 0.8530 0.8550 0.8570 0.8570
7.215686 0.8570 0.8570 0.8570 0.8570 0.8570
7.249000 0.8570 0.8590 0.8600 0.8620 0.8650
7.282686 0.8710 0.8720 0.8740 0.8760 0.8780
7.316000 0.8790 0.8790 0.8790 0.8790 0.8790
7.349686 0.8780 0.8760 0.8760 0.8740 0.8740
7.384000 0.8740 0.8740 0.8760 0.8760 0.8760
7.417686 0.8760 0.8790 0.8810 0.8790 0.8790
7.451000 0.8780 0.8720 0.8710 0.8640 0.8600
7.484686 0.8590 0.8570 0.8550 0.8530 0.8530
7.519000 0.8520 0.8500 0.8480 0.8410 0.8380
7.552686 0.8350 0.8210 0.7900 0.7780 0.7660
7.586000 0.7310 0.6900 0.6660 0.6610 0.6540
7.619686 0.6490 0.6390 0.6350 0.6300 0.6280
7.653000 0.6280 0.6300 0.6350 0.6440 0.6520
7.686686 0.6680 0.6750 0.6780 0.6820 0.6820
7.721000 0.6820 0.6820 0.6820 0.6830 0.6850
7.754686 0.6890 0.6940 0.6990 0.7020 0.7060
7.788000 0.7110 0.7180 0.7230 0.7250 0.7260
7.821686 0.7380 0.7500 0.7560 0.7590 0.7570
7.855000 0.7520 0.7430 0.7330 0.7230 0.7060
7.888686 0.6920 0.6820 0.6760 0.6750 0.6730
7.923000 0.6730 0.6730 0.6750 0.6750 0.6750
7.956686 0.6730 0.6710 0.6700 0.6700 0.6710
7.990000 0.6710 0.6780 0.6890 0.7160 0.7250
8.023686 0.7310 0.7500 0.7570 0.7620 0.7680
8.057000 0.7690 0.7690 0.7710 0.7690 0.7680
8.090686 0.7620 0.7560 0.7540 0.7490 0.7430
8.125000 0.7400 0.7330 0.7300 0.7260 0.7210
8.158686 0.7160 0.7040 0.6850 0.6700 0.6630
8.192000 0.6540 0.6490 0.6420 0.6340 0.6250
8.225686 0.6150 0.6130 0.6150 0.6210 0.6280
8.259000 0.6460 0.6800 0.6940 0.7130 0.7260
8.292686 0.7380 0.7490 0.7590 0.7660 0.7690
8.327000 0.7860 0.7900 0.7900 0.7920 0.7930
8.360686 0.7970 0.7980 0.7980 0.7970 0.7970
8.394000 0.7970 0.7980 0.7980 0.7980 0.8000
8.427686 0.7970 0.7900 0.7740 0.7690 0.7640
8.461000 0.7380 0.6990 0.6760 0.6520 0.5890
8.494686 0.5670 0.5480 0.5420 0.5370 0.5370
8.529000 0.5720 0.5890 0.6080 0.6160 0.6420
8.562686 0.7180 0.7380 0.7490 0.7660 0.7800
8.596000 0.7900 0.7920 0.7930 0.7950 0.7930
8.629686 0.7930 0.7950 0.7970 0.7980 0.8040
8.663000 0.8090 0.8170 0.8190 0.8240 0.8280
8.696686 0.8310 0.8330 0.8360 0.8430 0.8520
8.731000 0.8530 0.8550 0.8570 0.8600 0.8640
8.764686 0.8640 0.8640 0.8650 0.8650 0.8670
8.798000 0.8670 0.8670 0.8690 0.8710 0.8710
8.831686 0.8690 0.8690 0.8670 0.8670 0.8670
8.865000 0.8650 0.8650 0.8650 0.8640 0.8620
8.898686 0.8600 0.8600 0.8590 0.8590 0.8590
8.933000 0.8590 0.8570 0.8550 0.8530 0.8520
8.966686 0.8500 0.8480 0.8450 0.8410 0.8400
9.000000 0.8380 0.8400 0.8410 0.8430 0.8430
9.033686 0.8450 0.8480 0.8500 0.8550 0.8570
9.067000 0.8570 0.8600 0.8620 0.8640 0.8640
9.100686 0.8640 0.8640 0.8620 0.8620 0.8620
9.135000 0.8620 0.8650 0.8670 0.8670 0.8670
9.168686 0.8670 0.8650 0.8650 0.8640 0.8620
9.202000 0.8620 0.8620 0.8620 0.8620 0.8590
9.235686 0.8550 0.8530 0.8520 0.8520 0.8500
9.269000 0.8450 0.8410 0.8380 0.8360 0.8350
9.302686 0.8310 0.8260 0.8240 0.8210 0.8190
9.337000 0.8170 0.8170 0.8160 0.8160 0.8160
9.370686 0.8160 0.8160 0.8170 0.8190 0.8210
9.404000 0.8210 0.8230 0.8230 0.8240 0.8240
9.437686 0.8240 0.8240 0.8240 0.8230 0.8230
9.471000 0.8210 0.8190 0.8190 0.8190 0.8210
9.504686 0.8210 0.8230 0.8230 0.8240 0.8260
9.539000 0.8280 0.8290 0.8310 0.8330 0.8350
9.572686 0.8350 0.8360 0.8360 0.8380 0.8400
9.606000 0.8400 0.8400 0.8410 0.8410 0.8410
9.639686 0.8410 0.8410 0.8410 0.8430 0.8430
9.673000 0.8430 0.8470 0.8480 0.8480 0.8480
9.706686 0.8480 0.8480 0.8480 0.8480 0.8480
9.741000 0.8470 0.8470 0.8450 0.8430 0.8410
9.774686 0.8400 0.8400 0.8400 0.8380 0.8380
9.808000 0.8360 0.8350 0.8330 0.8230 0.8190
9.841686 0.8140 0.8120 0.8100 0.8100 0.8090
9.875000 0.8050 0.8050 0.8040 0.8050 0.8070
9.908686 0.8090 0.8090 0.8100 0.8100 0.8120
9.943000 0.8140 0.8140 0.8160 0.8160 0.8160
9.976686 0.8160 0.8140 0.8140 0.8090 0.8050
10.010000 0.8040 0.7930 0.7900 0.7860 0.7800
10.043686 0.7730 0.7690 0.7640 0.7570 0.7470
10.077000 0.7370 0.7210 0.7040 0.6820 0.6660
10.110686 0.6510 0.6300 0.5990 0.5720 0.5530
10.145000 0.5320 0.4870 0.4630 0.4360 0.4220
10.178686 0.4070 0.3720 0.3400 0.3210 0.3000
10.212000 0.2860 0.2710 0.2640 0.2620 0.2660
10.245686 0.2810 0.2980 0.3330 0.3470 0.3640
10.279000 0.3860 0.4240 0.4790 0.5000 0.5200
10.312686 0.5390 0.5890 0.5970 0.6210 0.6320
10.347000 0.6390 0.6540 0.6710 0.6800 0.6890
10.380686 0.6920 0.6950 0.6990 0.7040 0.7070
10.414000 0.7110 0.7130 0.7140 0.7110 0.7010
10.447686 0.6900 0.6830 0.6640 0.6560 0.6460
10.481000 0.6300 0.6010 0.5700 0.5510 0.5320
10.514686 0.4930 0.4670 0.4380 0.4320 0.4260
10.549000 0.4140 0.4100 0.4100 0.4200 0.4260
10.582686 0.4390 0.4450 0.4480 0.4510 0.4500
10.616000 0.4380 0.4260 0.3760 0.3640 0.3550
10.649686 0.3380 0.3210 0.3040 0.2610 0.2300
10.684000 0.2110 0.1900 0.1420 0.1230 0.0850
10.717686 0.0790 0.0720 0.0600 0.0540 0.0480
10.751000 0.0460 0.0460 0.0490 0.0720 0.0770
10.784686 0.1230 0.1340 0.1490 0.1590 0.1820
10.818000 0.2680 0.3050 0.3670 0.3790 0.4000
10.851686 0.4270 0.4670 0.4980 0.5180 0.5600
10.886000 0.5750 0.5890 0.6040 0.6180 0.6300
10.919686 0.6390 0.6460 0.6560 0.6660 0.6700
10.953000 0.6710 0.6750 0.6800 0.6890 0.6940
10.986686 0.6990 0.7040 0.7110 0.7190 0.7300
11.020000 0.7400 0.7500 0.7610 0.7780 0.7810
11.053686 0.7850 0.7860 0.7900 0.7920 0.7980
11.088000 0.8000 0.8040 0.8090 0.8120 0.8120
11.121686 0.8160 0.8170 0.8170 0.8190 0.8190
11.155000 0.8210 0.8230 0.8230 0.8230 0.8230
11.188686 0.8230 0.8240 0.8240 0.8240 0.8240
11.222000 0.8210 0.8210 0.8210 0.8190 0.8170
11.255686 0.8160 0.8140 0.8120 0.8090 0.8070
11.290000 0.8040 0.8020 0.8020 0.7970 0.7950
11.323686 0.7930 0.7930 0.7920 0.7920 0.7900
11.357000 0.7900 0.7810 0.7760 0.7740 0.7730
11.390686 0.7710 0.7710 0.7690 0.7660 0.7620
11.424000 0.7570 0.7540 0.7490 0.7470 0.7450
11.457686 0.7430 0.7420 0.7380 0.7330 0.7300
11.492000 0.7250 0.7210 0.7180 0.7140 0.7110
11.525686 0.7090 0.7090 0.7070 0.7060 0.7040
11.559000 0.7040 0.7040 0.7020 0.7020 0.7010
11.592686 0.6950 0.6950 0.6950 0.6950 0.6940
11.626000 0.6940 0.6920 0.6920 0.6920 0.6900
11.659686 0.6890 0.6870 0.6870 0.6850 0.6850
11.694000 0.6830 0.6830 0.6830 0.6850 0.6850
11.727686 0.6870 0.6890 0.6890 0.6890 0.6890
11.761000 0.6890 0.6890 0.6890 0.6890 0.6890
11.794686 0.6890 0.6900 0.6900 0.6920 0.6920
11.828000 0.6940 0.6950 0.6950 0.7010 0.7060
11.861686 0.7090 0.7130 0.7180 0.7230 0.7280
11.896000 0.7350 0.7400 0.7470 0.7490 0.7540
11.929686 0.7610 0.7690 0.7760 0.7830 0.7900
11.963000 0.7930 0.7980 0.8040 0.8070 0.8120
11.996686 0.8170 0.8190 0.8230 0.8230 0.8240
12.030000 0.8240 0.8260 0.8260 0.8280 0.8280
12.063686 0.8280 0.8280 0.8280 0.8290 0.8290
12.098000 0.8290 0.8310 0.8310 0.8310 0.8330
12.131686 0.8350 0.8360 0.8360 0.8380 0.8380
12.165000 0.8380 0.8400 0.8400 0.8400 0.8400
12.198686 0.8400 0.8400 0.8410 0.8410 0.8430
12.232000 0.8430 0.8450 0.8450 0.8450 0.8450
12.265686 0.8430 0.8430 0.8410 0.8380 0.8350
12.300000 0.8330 0.8290 0.8260 0.8230 0.8190
12.333686 0.8170 0.8170 0.8170 0.8160 0.8140
12.367000 0.8120 0.8090 0.8070 0.8070 0.8050
12.400686 0.8050 0.7970 0.7970 0.7930 0.7920
12.434000 0.7920 0.7900 0.7880 0.7880 0.7880
12.467686 0.7880 0.7860 0.7860 0.7860 0.7850
12.502000 0.7850 0.7830 0.7830 0.7810 0.7780
12.535686 0.7760 0.7730 0.7710 0.7690 0.7680
12.569000 0.7640 0.7590 0.7570 0.7540 0.7450
12.602686 0.7420 0.7350 0.7310 0.7260 0.7160
12.636000 0.7070 0.6990 0.6940 0.6900 0.6830
12.669686 0.6730 0.6660 0.6610 0.6560 0.6460
12.704000 0.6370 0.6300 0.6210 0.6130 0.5990
12.737686 0.5970 0.5870 0.5820 0.5650 0.5610
12.771000 0.5600 0.5560 0.5530 0.5490 0.5460
12.804686 0.5420 0.5420 0.5410 0.5390 0.5390
12.838000 0.5370 0.5370 0.5370 0.5360 0.5340
12.871686 0.5320 0.5300 0.5290 0.5250 0.5220
12.906000 0.5150 0.5120 0.5030 0.4960 0.4930
12.939686 0.4720 0.4630 0.4580 0.4460 0.4380
12.973000 0.4310 0.4270 0.4240 0.4170 0.4150
13.006686 0.4140 0.4140 0.4150 0.4190 0.4240
13.040000 0.4260 0.4270 0.4460 0.4510 0.4570
13.073686 0.4650 0.4700 0.4860 0.4980 0.5060
13.108000 0.5200 0.5270 0.5370 0.5530 0.5700
13.141686 0.5750 0.5890 0.5920 0.5920 0.5960
13.175000 0.6030 0.6110 0.6210 0.6350 0.6440
13.208686 0.6510 0.6560 0.6590 0.6580 0.6580
13.242000 0.6580 0.6560 0.6560 0.6540 0.6540
13.275686 0.6540 0.6540 0.6520 0.6520 0.6520
13.310000 0.6510 0.6490 0.6470 0.6460 0.6440
13.343686 0.6400 0.6390 0.6350 0.6300 0.6280
13.377000 0.6270 0.6250 0.6210 0.6160 0.6040
13.410686 0.6030 0.6010 0.5990 0.5970 0.5960
13.444000 0.5910 0.5820 0.5790 0.5700 0.5610
13.477686 0.5510 0.5480 0.5440 0.5410 0.5300
13.512000 0.5200 0.5100 0.5010 0.4890 0.4770
13.545686 0.4500 0.4340 0.4260 0.4150 0.3950
13.579000 0.3740 0.3530 0.3310 0.3210 0.3100
13.612686 0.2920 0.2710 0.2380 0.2020 0.1900
13.646000 0.1760 0.1560 0.1350 0.1160 0.1010
13.679686 0.0920 0.0870 0.0800 0.0680 0.0630
13.714000 0.0580 0.0560 0.0530 0.0490 0.0480
13.747686 0.0480 0.0460 0.0460 0.0480 0.0510
13.781000 0.0580 0.0600 0.0630 0.0680 0.0770
13.814686 0.0820 0.0890 0.0940 0.0990 0.1060
13.848000 0.1150 0.1230 0.1370 0.1440 0.1540
13.881686 0.1610 0.1680 0.1750 0.1780 0.1920
13.916000 0.1950 0.2160 0.2260 0.2330 0.2450
13.949686 0.2490 0.2610 0.2620 0.2690 0.2830
13.983000 0.2850 0.2900 0.3410 0.3550 0.3600
14.016686 0.3740 0.3930 0.4000 0.4050 0.4140
14.051000 0.4240 0.4390 0.4460 0.4480 0.4570
14.084686 0.4650 0.4740 0.4820 0.4940 0.5000
14.118000 0.5060 0.5100 0.5150 0.5200 0.5270
14.151686 0.5340 0.5390 0.5410 0.5510 0.5530
14.185000 0.5580 0.5600 0.5610 0.5630 0.5650
14.218686 0.5700 0.5720 0.5750 0.5750 0.5770
14.253000 0.5790 0.5790 0.5790 0.5790 0.5790
14.286686 0.5790 0.5790 0.5790 0.5770 0.5770
14.320000 0.5750 0.5730 0.5700 0.5670 0.5630
14.353686 0.5600 0.5560 0.5510 0.5480 0.5440
14.387000 0.5420 0.5410 0.5370 0.5360 0.5320
14.420686 0.5300 0.5270 0.5250 0.5240 0.5220
14.455000 0.5200 0.5200 0.5200 0.5180 0.5180
14.488686 0.5180 0.5170 0.5180 0.5200 0.5220
14.522000 0.5240 0.5250 0.5290 0.5360 0.5390
14.555686 0.5460 0.5480 0.5510 0.5540 0.5580
14.589000 0.5650 0.5650 0.5670 0.5680 0.5730
14.622686 0.5770 0.5790 0.5820 0.5840 0.5850
14.657000 0.5890 0.5920 0.5990 0.5990 0.6010
14.690686 0.6010 0.6030 0.6030 0.6030 0.6030
14.724000 0.6030 0.6030 0.6030 0.6040 0.6040
14.757686 0.6060 0.6060 0.6080 0.6080 0.6090
14.791000 0.6090 0.6090 0.6090 0.6090 0.6090
14.824686 0.6080 0.6080 0.6080 0.6090 0.6090
14.859000 0.6090 0.6080 0.6080 0.6080 0.6080
14.892686 0.6090 0.6090 0.6110 0.6110 0.6110
14.926000 0.6110 0.6110 0.6110 0.6110 0.6130
14.959686 0.6130 0.6130 0.6150 0.6180 0.6180
14.993000 0.6180 0.6180 0.6160 0.6150 0.6150
15.026686 0.6110 0.6080 0.6080 0.6040 0.6040
15.061000 0.6040 0.6010 0.5970 0.5970 0.5940
15.094686 0.5890 0.5840 0.5820 0.5800 0.5790
15.128000 0.5790 0.5770 0.5730 0.5720 0.5720
15.161686 0.5720 0.5720 0.5700 0.5700 0.5680
15.195000 0.5700 0.5680 0.5680 0.5680 0.5670
15.228686 0.5650 0.5650 0.5630 0.5630 0.5630
15.263000 0.5630 0.5610 0.5610 0.5630 0.5630
15.296686 0.5630 0.5630 0.5630 0.5630 0.5630
15.330000 0.5630 0.5650 0.5650 0.5650 0.5670
15.363686 0.5680 0.5680 0.5700 0.5700 0.5720
15.397000 0.5730 0.5750 0.5770 0.5790 0.5800
15.430686 0.5800 0.5800 0.5800 0.5790 0.5800
15.465000 0.5820 0.5840 0.5840 0.5850 0.5870
15.498686 0.5890 0.5910 0.5910 0.5910 0.5910
15.532000 0.5910 0.5920 0.5920 0.5920 0.5940
15.565686 0.5940 0.5940 0.5940 0.5940 0.5940
15.599000 0.5940 0.5940 0.5940 0.5940 0.5940
15.632686 0.5940 0.5940 0.5940 0.5960 0.5960
15.667000 0.5960 0.5960 0.5970 0.5970 0.5990
15.700686 0.5990 0.6010 0.6010 0.6030 0.6030
15.734000 0.6030 0.6040 0.6040 0.6010 0.6010
15.767686 0.6010 0.6010 0.6010 0.6010 0.6010
15.801000 0.6040 0.6040 0.6040 0.6040 0.6040
15.834686 0.6040 0.6030 0.6030 0.6030 0.6030
15.869000 0.6030 0.6030 0.6030 0.6030 0.6030
15.902686 0.6030 0.6030 0.6030 0.6030 0.6030
15.936000 0.6030 0.6030
##END=
