##TITLE=Hexafluoroethane
##JCAMP-DX=4.24
##DATA TYPE=INFRARED SPECTRUM
##CLASS=IUPAC A
##ORIGIN=NIST, Analytical Chemistry Division, 301-975-3108
##OWNER=COPYRIGHT (C) 2000 by the U.S. Secretary of Commerce
##DATE=00/02/01
##$SPECTRA VERSION=1.10
##$UNCERTAINTY IN Y=2.0 % relative (B=1.0E-04,C=8.6E-09,D=5.8E-12)
##CAS NAME=Hexafluoroethane
##CAS REGISTRY NO=76-16-4
##MOLFORM=C2 F6
##MP=-94 C
##BP=-79 C
##$NIST SOURCE=QUANT-IR
##SPECTROMETER/DATA SYSTEM=IFS66V (Bruker)
##INSTRUMENT PARAMETERS=KBr Beam Splitter; MCT Detector; Multipass cell
##STATE=gas
##SAMPLE DESCRIPTION=Hexafluoroethane Primary Gas Standard
##PRESSURE=101.3 Pa
##TEMPERATURE=23 C
##SAMPLING PROCEDURE=1 L/min Flow
##RESOLUTION=0.9640
##DATA PROCESSING=NB Strong Apodization
##XUNITS=cm-1
##YUNITS=(micromol/mol)-1m-1 (base 10)
##XFACTOR=1.0
##YFACTOR=14.551E-12
##DELTAX=0.4820
##FIRSTX=575.171
##LASTX=3974.609
##FIRSTY=1.05E-06
##MAXX=3974.12
##MINX=575.17
##MAXY=.012945
##MINY=-.0000109
##NPOINTS=7052
##XYDATA=(X++(Y..Y))
575.17 72761 183402 71893-17701 21466-139958
577.58 13673 258079 293482 47104-108774 142334
580.47 112313 3122-23581 40342-88028-175098
583.37-197719-141199 85678 177337 358-89085
586.26 113459 349645 232055 25890-161628 57435
589.15 157568 202800 144063 39878-354491-538632
592.05-204963-197285-42803 14731-69045 106164
594.94 57701 31112-39659-258680-141241 106074
597.83 28323 34674 110809 278892 167417 170731
600.72 77895-16603-88283-22564 44214 1932
603.62 25216-21238 18760 116613 91174 42585
606.51 58921 55797-96173-100718-6858 33167
609.40-19996 24384 114146 120754 119163 155338
612.29 108391-43932-76036-108257-73587-68791
615.19-91973-129047-109316-56504-49942-65498
618.08-142325 1032 116580 55969 19596-21501
620.97-85105-46738 41990 10048-47978 42782
623.87 7744-41340 951 3673-10336 63062
626.76 19962-8168-44094-61173-80733-52304
629.65-8518 24137-23289-139458-160813-64757
632.54-61677-2885 24723 23768-15995-141954
635.44-195924-84484 54928 22340-143595-126193
638.33-23547 64694 54920-14797-53951-111435
641.22-86905-43304-14961 81120 113486-9010
644.11-96166-87007-63179-6564-35636-78241
647.01-29895 14716-42367-34001-47083-67890
649.90-25745-26198-72911-21745-70235-141387
652.79-105143-15171-2612-33373-95451-45355
655.69-23893-82679-106410-22023 37323-15191
658.58-157049-87851 6236-22120-52683-49028
661.47-156614-153770-135122-83520-38972-24003
664.36-50053-25992 673-3050-75251-290941
667.26-537744-372924-214460-94626 17466 76792
670.15 31345 38842-37375-50256-141576-137355
673.04-107825-109427-203879-143922-74168-61689
675.93-68968-34444-58935-7332-122510-133719
678.83-116680-59433-41948-63937-124807-62262
681.72-85216-76647-42941-3196-42900-64184
684.61-95266 39768 9036-14831-20172-15578
687.51-58035-18009-95304-70141-47061 43731
690.40 59314 88849 74600 157801 167734 283581
693.29 303156 338742 366626 501479 624160 780376
696.18 888580 1178540 1444386 1801744 2091125 2598989
699.08 3076240 3709588 4397432 5273057 6112018 7159922
701.97 8177650 9419815 10558083 11758469 12753341 13933389
704.86 14865194 15736453 16264353 16736958 16796587 16771061
707.75 16184335 15662369 14750022 14080401 13339036 13421649
710.65 12426784 10733194 8768004 9493008 24215355 60269980
713.54 65054232 38907906 22973607 14965656 11361281 10576062
716.43 11792444 12821022 14207344 15306624 16686590 17634993
719.33 18513152 18856608 19184382 19003877 18720296 17995030
722.22 17273237 16279261 15311580 13986628 12702811 11295655
725.11 10071146 8804672 7773306 6651989 5704016 4813532
728.00 4085343 3373250 2847862 2359825 1993201 1605164
730.90 1394211 1100987 992393 850936 731883 591937
733.79 519421 392658 330132 258585 242245 189983
736.68 213698 177503 208945 117607 74052-14213
739.57 40521 45430 63236 39926 39796 15768
742.47 66463 6329-7093-42716-49647-82540
745.36-19408-7552-10642-93551-45337-70588
748.25-96245-63726-21828-20402 32076 5063
751.15 4640-61853-69153-84515-17475-39622
754.04-29774-22219-43684-70981-49860-111351
756.93-82359-105268-97738-66097 26339 3054
759.82-13323-50317-40765-53998-14436-64793
762.72-8956-1194-24084-70813-29338-49381
765.61-88180-73385 4297-16997-39533-52336
768.50-12437-34310-28520-68597-73842-60915
771.39-19 20107 12533 17620 10885 21410
774.29 29995-32694-58036-55705 23433 27022
777.18 7156-31336-52178-98523-95397-68758
780.07-19149-14340-19492-44899-54947-71920
782.97-57858-16119 7337-70094-82708-42476
785.86 30429-32339-90460-132717-120287-46853
788.75-15233-7096-18549-91018-97881-95475
791.64-73203-67377-63333-110084-117050-141301
794.54-148136-92129-23129-55114-64279-78945
797.43-79313-118951-103061-92478-46031-78820
800.32-106420-108310-73891-64101-57368-93598
803.21-146547-101260-39806-59933-72328-76491
806.11-56947-85438-71605-104303-75289-71103
809.00-39180-84854-66401-58713-63637-70180
811.89-63771-103087-92911-85311-69351-55498
814.79-10752-24733-57974-84193-105754-123024
817.68-45930-61669-136356-115778-40205-76481
820.57-127510-124945-64495-37548-45407-70682
823.46-70676-100889-91535-100387-54431-57073
826.36-46594-31540-26307-57835-95119-58977
829.25 20008-17230-476-33312-37532-43175
832.14-16545-38535-33398-35393-61573-61105
835.03-39846-71469-64535-75393-53521-11388
837.93 39600 40234-29036-82736-80967-91807
840.82-97469-84924-63522-36725-2651-35203
843.71-90762-135376-67301-72093-97244-54577
846.61 10775-21251-76953-81982-31551-54990
849.50-44036-57925-101089-107509-77662-67537
852.39-81812-111549-102834-105263-81355-57747
855.28-81885-96044-116466-134798-99716-71800
858.18-22368-28195-67494-82630-46248-55821
861.07-100213-111472-79239-44785-7424-42269
863.96-83915-43792-20871-56412-53504-72437
866.85-77854-68816-25395-16337-39926-34361
869.75-33085-72297-43263-44719-27594-50832
872.64-53146-53163-7696-7938-11746-24476
875.53-33592-43614-43376-6827 4953-49810
878.43-67188-81041-48485-44 9455-35579
881.32-53273-50420-51004-56242-34496-29348
884.21-35601-6696 24922-51525-96238-37503
887.10 32502 38738 14881-31697-1638 41672
890.00 39683 13427 44597 11808-20291-15429
892.89 49658 51383 48838 31911 44428 72138
895.78 56980 61336 64483 35154 44532 61793
898.67 60160 49701 80727 62809 12161 13786
901.57 46416 77891 120049 72010 41870 51008
904.46 89357 78716 63554 39490 28840 4918
907.35 410-19668-6070 13824 24642 17226
910.25 6668-29640-43579-50826-46726-46923
913.14-28810-5186-20245-69537-67582-54314
916.03-52304-79026-82559-66961-54822-102949
918.92-97477-58192-59875-97161-86441-70957
921.82-74196-95220-78506-61499-93857-123456
924.71-139979-114217-87538-87126-80493-112944
927.60-88006-61264-51685-68952-48895-66284
930.49-80641-79135-65639-67633-78102-94489
933.39-75002-103615-128525-114206-92568-69886
936.28-55116-80362-75134-73722-79017-79724
939.17-64268-73248-62847-73736-65144-67834
942.07-57899-63868-83659-100198-117362-112054
944.96-80481-67147-83774-92386-82137-93243
947.85-81987-58883-80933-104886-97988-93506
950.74-80122-90980-79531-78387-90408-86219
953.64-74667-65485-43739-47621-66594-84723
956.53-71331-91389-121476-113451-85008-94666
959.42-90597-113894-137559-102168-82891-107864
962.31-99615-103199-109114-101002-92988-90060
965.21-76399-102343-123552-132843-95490-75682
968.10-71424-66705-81427-124731-129558-114050
970.99-84738-95570-107287-121152-121596-125014
973.89-115513-110203-109944-90232-74781-91102
976.78-84836-76719-76356-75099-80866-61320
979.67-49043-68245-60746-78801-84494-48153
982.56-37219-70110-93914-81461-54340-46550
985.46-61273-76198-42137-20401-35696-49908
988.35-35654-52524-60593-52930-36372-20566
991.24-31123-46370-46521-42399-51289-40191
994.13-29007-12756-6029-30408-36071-42289
997.03-34756-19398-17621-18521-18386-13092
999.92 23850 30389 13917 5584-18108-22512
1002.81-27458-12387 30556 25919 21293 39810
1005.71 47727 55612 68248 45458 45186 69247
1008.60 60451 50784 50884 74857 98807 101611
1011.49 117161 123161 111022 104905 97206 107205
1014.38 144768 168939 158247 147832 162586 175183
1017.28 186368 187346 170680 137155 152283 166769
1020.17 180101 216816 269794 295214 307282 347989
1023.06 380782 384464 378352 348982 320768 335293
1025.95 325811 313150 318804 322424 302840 298119
1028.85 313381 283524 262899 253541 239939 242559
1031.74 276762 268969 235449 242249 243643 247109
1034.63 226605 162314 164196 163592 145741 108813
1037.53 98840 111933 114265 86730 69880 44684
1040.42 42030 41343-14959-42377-11398-8539
1043.31-46533-50436-15349-9377-26771-30172
1046.20-20666-4041-43271-41446-17834-31007
1049.10-23421 7198-4099-12200-5929 12463
1051.99-13190-5045 8177 30165 16728 11002
1054.88 9933 8189 5999 42070 28105 38878
1057.77 76789 93630 65115 40374 32862 79773
1060.67 123092 192721 169713 136092 109181 106495
1063.56 123171 109800 78946 71908 71949 68381
1066.45 80726 82842 58350 86576 87410 77169
1069.35 76970 106693 106850 82848 54399 75360
1072.24 61261 49043-9308-26005-48840-24578
1075.13-17884-37932-66698-51806-60696-25450
1078.02-31279-27336-11206 39343 9151 27010
1080.92 53950 59582 45322 94886 106711 178216
1083.81 210026 261894 289542 390153 440549 542053
1086.70 642109 806715 907211 1041831 1162226 1356292
1089.59 1542077 1761826 1970151 2258499 2502729 2801575
1092.49 3108611 3451204 3775642 4213245 4688010 5260648
1095.38 5881861 6760330 7745608 9021238 10520427 12453001
1098.27 14781761 17725721 21137647 25248703 29737104 34459722
1101.17 39130178 43565854 47088582 51231242 57073770 63907572
1104.06 70877355 78032319 84937217 91675029 97747937 103152677
1106.95 107522566 110968712 112866610 113573982 112894001 111305776
1109.84 108777490 106334354 104396053 104535897 107540421 116374156
1112.74 132374476 156711668 190189181 231453566 264942382 284853225
1115.63 286350470 233349245 125933906 62580537 63405196 77592744
1118.52 93932804 109962233 126023900 139974369 152182518 161115884
1121.41 167179834 169223683 168004463 163035839 155298746 144773537
1124.31 132682603 119061146 105033576 90721530 77156792 64310939
1127.20 52898417 42726436 34259127 27098740 21570912 17128279
1130.09 13946376 11492057 9966104 8809442 8164661 7635217
1132.99 7427049 7174241 7122243 6999999 7056522 7065032
1135.88 7362590 7761680 8703405 9871297 11226713 11960578
1138.77 11416072 9182974 7126402 7253873 8820089 9131025
1141.66 8098272 6700696 6181900 6341188 6903699 7380097
1144.56 7886566 8119478 8294538 8239605 8128564 7807140
1147.45 7519639 7012643 6537142 5956152 5433064 4778499
1150.34 4253345 3708181 3274224 2765181 2401548 1969405
1153.23 1647390 1340672 1191932 927665 770506 567315
1156.13 497084 366902 354101 262521 253886 177212
1159.02 201237 126007 146999 105035 135960 71443
1161.91 132264 109798 137591 89396 138557 89228
1164.81 134052 80576 126838 89781 133057 123366
1167.70 201162 169717 193645 145870 176756 146687
1170.59 201199 154630 207135 173869 225565 196516
1173.48 261614 220130 244113 195036 249920 224229
1176.38 278427 243263 325418 300807 328695 281766
1179.27 357363 348692 395337 374556 443011 443729
1182.16 502499 467639 552011 534212 583217 607178
1185.05 709038 671163 750163 758080 846636 847865
1187.95 927684 951831 1081051 1094316 1231803 1283815
1190.84 1404986 1464257 1641284 1696677 1853690 1948986
1193.73 2155542 2279482 2491842 2592866 2815569 2994886
1196.63 3274606 3443288 3690667 3858726 4152853 4352274
1199.52 4630103 4791667 5028067 5194344 5451969 5542317
1202.41 5696533 5757971 5894672 5925191 6046559 6073361
1205.30 6183685 6072193 5988297 5751546 5553159 5124148
1208.20 4686938 4124344 3774189 3436658 3258349 2988879
1211.09 2859864 2636154 2555016 2333903 2253471 2085922
1213.98 2033029 1869896 1853114 1713111 1704011 1595250
1216.87 1625863 1539716 1594463 1516696 1595896 1547569
1219.77 1664963 1653372 1803241 1830966 1995759 2017988
1222.66 2202551 2275039 2560460 2684064 3014013 3247081
1225.55 3710095 4063632 4661489 5171526 5984058 6775622
1228.45 7913078 9034694 10592737 12244262 14360145 16632085
1231.34 19516484 22624784 26473953 30665459 35730885 41313431
1234.23 48001149 55393355 64122507 73705186 84756152 96834206
1237.12 110704716 125881980 143041248 161535301 182316134 204966642
1240.02 230396883 258088652 288777061 321439843 356940260 394367399
1242.91 434463937 476031472 519810046 564410025 610785662 655487183
1245.80 699892209 740503824 778542193 811949055 841453035 863626372
1248.69 881288381 889619063 884802113 874449438 859943997 843439573
1251.59 818234853 784403949 742805739 716223650 706849916 669242611
1254.48 591440587 509224118 457554063 415226311 360817841 312903718
1257.37 273385758 239943267 209751770 183242837 159151630 138188462
1260.27 119208755 102802562 88029823 75449798 64165734 54690049
1263.16 46197760 39092643 32701774 27503513 22857659 19126926
1266.05 15758489 13160073 10789755 9020652 7364996 6195718
1268.94 5064056 4313407 3553678 3103465 2575099 2324936
1271.84 1959270 1802726 1550379 1487335 1309071 1303208
1274.73 1168882 1189319 1057102 1056570 943636 970475
1277.62 878329 916311 846427 878305 808579 848108
1280.51 746309 779927 727096 780237 729105 757425
1283.41 706704 741864 690952 741972 685403 746420
1286.30 692926 720162 688935 750407 719658 755847
1289.19 727256 777252 753427 808258 766515 842123
1292.09 830669 876790 845110 904660 898827 960420
1294.98 955590 1029752 1003889 1060290 1086444 1177189
1297.87 1179167 1281905 1332836 1434422 1476399 1595485
1300.76 1675210 1833454 1918817 2049155 2133755 2287449
1303.66 2384184 2528386 2621382 2774586 2830890 2969142
1306.55 3083728 3254917 3352986 3522324 3651248 3829809
1309.44 3948286 4135906 4302073 4513956 4669513 4867020
1312.33 5029980 5243450 5418596 5647073 5825069 6038554
1315.23 6199808 6421476 6601128 6814737 6993162 7235935
1318.12 7435484 7634510 7790674 7972466 8106147 8287409
1321.01 8415714 8564934 8643968 8794378 8917716 9055565
1323.91 9165834 9305809 9397208 9490005 9528526 9608003
1326.80 9646426 9665704 9593026 9549011 9458286 9420497
1329.69 9332391 9264175 9194785 9137321 9010184 8905596
1332.58 8748686 8625376 8452276 8288926 8079367 7879558
1335.48 7616981 7415074 7196297 7001448 6777729 6593363
1338.37 6397540 6247078 6045400 5871720 5674267 5504451
1341.26 5277925 5089977 4875458 4670567 4453243 4269898
1344.15 4064669 3903000 3700407 3514347 3318630 3175521
1347.05 2956165 2790483 2642524 2507623 2319329 2161186
1349.94 1984754 1840971 1672246 1556235 1416876 1291070
1352.83 1172156 1071443 975701 949733 858385 785950
1355.73 729557 692413 625419 582490 508739 440822
1358.62 358950 321507 276210 260393 195256 189347
1361.51 147757 115758 105569 117164 84959 104691
1364.40 73794 51214 42789 52858 28354 30943
1367.30 32867 51188 28811 36397 24718 19698
1370.19 9420 26432 11811 15362 1787-13221
1373.08-28630-8501-14861 3806 4765 7336
1375.97 12492 25538 7684 2504-22643-15606
1378.87-27767-6296-7933-11908-41779-57100
1381.76-68193-63338-76252-49906-45586-44566
1384.65-68972-33742-15733-11611-52010-53384
1387.55-49903-42317-44158-39257-37505-32518
1390.44-59627-48972-47319-55439-81829-63568
1393.33-53808-42589-45394-29953-54847-65029
1396.22-65529-46495-55995-48223-54222-38178
1399.12-55667-96061-121750-73454-47843-49811
1402.01-63638-45482-46345-40889-55590-78603
1404.90-87659-55313-51368-44255-59157-61191
1407.79-80759-73673-91035-77439-88517-88939
1410.69-94868-103287-117646-84175-83380-71382
1413.58-82157-83691-91311-86831-93388-88242
1416.47-82569-84276-109890-115593-130833-134806
1419.37-114899-72338-83826-68861-70376-52832
1422.26-74784-69873-73936-58355-50475-48372
1425.15-65009-85168-163303-158942-76707-8448
1428.04 19308 56933 65216 75391 71497 81391
1430.94 87354 116705 143706 152451 152432 180312
1433.83 190591 217129 216772 253558 255788 251190
1436.72 282846 332882 335180 353388 366251 387109
1439.61 403787 411770 395375 404104 407743 426112
1442.51 418494 424510 423756 422820 432443 446393
1445.40 453801 477584 498637 507596 492105 501012
1448.29 496505 497282 502017 524226 520151 515398
1451.19 518470 552432 554745 541516 518626 526942
1454.08 519198 471307 440811 450947 400976 375112
1456.97 416717 433830 407740 418639 408030 406990
1459.86 422296 421081 407934 416817 411216 414507
1462.76 398099 395564 384438 361687 352968 365492
1465.65 352733 360013 338295 326941 305682 299965
1468.54 285081 262311 236854 246121 225368 201934
1471.43 151453 147312 142450 106268 98273 106325
1474.33 95502 87380 60863 34299 1458 19015
1477.22 19740 17785 24360 20823 407-5691
1480.11-19803-21614-35734-42694-56823-52219
1483.01-39603-30125-58382-50553-58812-62519
1485.90-62971-51262-70559-59152-53766-62066
1488.79-73113-97523-106197-84640-70289-56716
1491.68-43102-17146-37041-47871-52106-55229
1494.58-73083-58356-109948-121143-90968-86954
1497.47-101240-111794-109504-90943-108108-97721
1500.36-80272-91048-105061-93744-102424-108209
1503.25-97773-94159-118179-153790-160786-122114
1506.15-136752-146992-111338-83936-93749-90348
1509.04-99777-99433-90631-89932-79998-63747
1511.93-71901-62277-59384-49056-59456-67619
1514.83-85716-101790-120446-112212-110915-86477
1517.72-53885-26401-3626 17431 7762-28538
1520.61-130078-159677-117117-102785-104482-81045
1523.50-76185-75592-97095-111509-91014-59864
1526.40-64572-65661-73879-80581-94957-86130
1529.29-83161-83653-106066-107604-109880-97048
1532.18-101385-108900-128564-122347-117754-112275
1535.07-110457-109659-115649-126296-113416-95624
1537.97-137008-202694-185182-165667-194112-154281
1540.86-130677-138968-145233-123143-127742-122436
1543.75-117760-110095-122235-94440-81961-84710
1546.65-91787-98676-103605-96993-99356-98255
1549.54-110524-98316-88416-84698-88434-71069
1552.43-57680-77549-105792-128084-128543-93630
1555.32-78808-88038-95014-107346-125130-150311
1558.22-167114-123709-137109-162751-141834-103927
1561.11-111309-96504-77109-64584-85229-88285
1564.00-100317-105036-104214-86764-81883-76364
1566.89-87192-80688-74701-87157-112972-129531
1569.79-120103-101692-112375-121058-124556-103818
1572.68-89679-79299-83954-66750-87061-130439
1575.57-177021-142544-92767-77870-76451-70084
1578.47-82663-83666-84906-77133-64699-55209
1581.36-81333-100088-90908-81987-72225-57176
1584.25-50739-22125-2301 12466 17601 19694
1587.14 22846 32892 40987 55110 71145 105880
1590.04 115669 119137 129035 165671 208682 246238
1592.93 266319 300477 329334 363003 389818 417787
1595.82 452213 478587 497320 511007 520398 530120
1598.71 527025 509594 499562 494590 476004 473474
1601.61 480982 500319 483968 463837 445122 417059
1604.50 370070 335519 302202 285026 277487 272585
1607.39 263902 258936 247721 253876 251597 264330
1610.29 291495 307231 304044 322817 335481 349491
1613.18 358954 370253 378704 410318 428854 425410
1616.07 380761 410628 495411 543502 564733 598713
1618.96 626804 660448 676752 681979 711872 747577
1621.86 737966 733987 755522 782812 797048 824417
1624.75 845960 863684 878843 893337 902498 898038
1627.64 910413 951812 985692 1005107 1003518 1012666
1630.53 1014312 1038384 1047003 1045758 1033361 1020320
1633.43 1016236 991400 912706 826873 771314 757702
1636.32 743302 713569 670495 654913 634584 625482
1639.21 621037 623591 604386 577674 572318 574434
1642.11 540695 507676 457260 426895 377597 336315
1645.00 292484 246751 249951 235097 178917 143350
1647.89 124814 115408 94343 89586 72573 57757
1650.78 28315-13591-100639-130528-141356-102262
1653.68-59601-71610-72079-65472-70809-67148
1656.57-61248-68530-72534-72140-82589-82604
1659.46-86234-89529-105736-115207-127168-126078
1662.35-135614-138453-124419-112773-107469-107683
1665.25-111094-118329-127305-115632-114861-133447
1668.14-148120-149514-125174-91099-95348-100708
1671.03-127182-137013-126661-110379-115505-108778
1673.93-99164-113209-143727-113958-93485-95579
1676.82-89317-80398-89744-88619-87507-80710
1679.71-82049-89181-83992-77920-85884-86897
1682.60-101272-103703-114143-173412-170475-96007
1685.50-71857-50453-47390-60872-60875-50313
1688.39-59141-53724-46050-38287-54205-51785
1691.28-43520-34856-46116-42519-47400-48250
1694.17-64139-72183-118647-122082-58251-39967
1697.07-37589-31537-29551-30201-66495-113390
1699.96-114113-67992-22402-3392-10173-143
1702.85 5407 3131-4546-8339 2110 23015
1705.75 27879 44561 53564 50943 55994 72917
1708.64 80121 89793 95172 112298 138841 156752
1711.53 147483 148213 155762 174990 183298 194163
1714.42 202878 226043 241593 249482 239965 213478
1717.32 259580 314597 337837 361196 385207 408416
1720.21 400454 416604 452472 482424 482808 488942
1723.10 494947 516088 529297 543614 579388 594687
1725.99 604160 613770 612455 626712 639349 662819
1728.89 676074 697329 719720 733462 740837 724330
1731.78 711144 692317 634030 644837 650055 627909
1734.67 647568 659412 647594 634516 618370 594019
1737.57 583881 578797 547936 515659 495639 505597
1740.46 499124 475555 459993 431659 397742 386456
1743.35 368728 358001 361629 351773 324008 305765
1746.24 287716 256993 229948 206760 185783 197635
1749.14 190041 165567 144501 111558 86390 107312
1752.03 112274 98166 80894 69662 44758 35008
1754.92 28159 24531 26456 13651 4753 13766
1757.81 18197 8018-2441-8836-16173-30051
1760.71-49685-60376-58062-45639-49169-44333
1763.60-55573-66950-56835-44761-47815-56204
1766.49-63156-69942-77846-59568-53810-61331
1769.39-73700-82285-62847-67934-79258-101070
1772.28-118347-88816-78626-74404-88067-101538
1775.17-100864-86674-86142-83393-94698-104001
1778.06-102800-107128-91004-85652-104843-101506
1780.96-93956-99811-116369-130201-123297-114185
1783.85-115505-123507-138391-130652-117246-126508
1786.74-143697-147979-135847-128676-128372-114096
1789.63-122908-134603-143131-129093-145138-186136
1792.53-174153-151407-137775-118843-116955-134521
1795.42-154601-144344-137347-128849-124322-125550
1798.31-132648-157662-171078-152438-141617-126411
1801.21-120158-113871-116498-131416-132459-141231
1804.10-156598-140509-118629-117170-132913-125741
1806.99-111717-106787-115769-137183-141942-132303
1809.88-131501-129225-136500-142998-128414-109990
1812.78-130777-133738-123611-126822-146158-143180
1815.67-133014-126848-127243-111337-109985-114271
1818.56-111268-106277-116894-126403-111252-98912
1821.45-91504-80162-96437-92716-78004-88988
1824.35-118404-127495-105596-88096-85807-100223
1827.24-94886-72379-70776-77836-118398-149341
1830.13-126538-80946-57445-67871-94722-102269
1833.03-84901-72880-77762-76763-73762-83544
1835.92-77929-66127-70988-74156-79960-70166
1838.81-70204-87331-84765-65967-57845-58154
1841.70-64497-52112-48385-66959-95974-60532
1844.60-16520-2361-5767 4168 2263-1536
1847.49 8769 37617 50946 69186 77738 80603
1850.38 93843 128475 151013 165686 182838 195496
1853.27 219714 248902 270462 273721 279895 302217
1856.17 321185 343830 359989 370002 388199 421814
1859.06 439468 451747 461003 470814 483100 487458
1861.95 491750 506522 525836 560222 597187 633153
1864.85 662501 678410 676818 696836 726454 725750
1867.74 701372 675014 634517 595365 549374 536473
1870.63 512751 485194 472385 456588 422393 395855
1873.52 393990 411025 420808 403232 375575 363684
1876.42 351737 348434 332851 298022 273477 264502
1879.31 233287 194043 169585 149554 119709 91293
1882.20 49151 40727 39349 39340 18547-14615
1885.09-24973-29696-55193-68012-76891-96563
1887.99-102772-102958-108019-107327-110544-120349
1890.88-122385-116029-120986-123261-120996-123154
1893.77-132225-129827-137894-139835-146928-130145
1896.67-119637-121509-127303-131667-137116-142252
1899.56-144250-137301-120352-129141-135942-119470
1902.45-121607-129207-145653-143102-119269-107085
1905.34-97648-96467-106758-101725-92927-85196
1908.24-79886-77389-88845-91987-61581-48978
1911.13-61338-47895-47562-51509-42590-19247
1914.02-19322-28256-26720-31428-29501-835
1916.91 2325-7950-280 5036 15286 39019
1919.81 52417 54849 71147 90144 97843 85179
1922.70 57863 33089 20274 29881 39949 54585
1925.59 67929 85044 103939 125569 137253 129976
1928.49 152794 161998 150028 152833 120170 113501
1931.38 100299 92137 96738 100267 97650 113918
1934.27 133571 136666 132500 145093 147582 171389
1937.16 198606 224884 194248 136317 95484 92994
1940.06 96922 109891 119291 150248 174551 181514
1942.95 189243 204018 210544 220896 214557 200672
1945.84 197195 200916 183315 172482 160916 152629
1948.73 159816 160226 141034 140231 148177 151867
1951.63 163435 174911 175238 179299 202381 207390
1954.52 184603 170270 171711 153348 131441 129237
1957.41 154654 220852 287431 364461 342313 229810
1960.31 160032 105712 70035 50541 34692 33576
1963.20 34724 42757 51336 26621 16458 31824
1966.09 26375 6182-2498-1851-25-6709
1968.98-38190-67530-58972-40434-49127-59209
1971.88-70961-75221-88823-95048-88755-87767
1974.77-92409-97443-111528-133579-120934-87494
1977.66-98419-92466-102522-115914-118745-110535
1980.55-111424-130126-141246-126049-109911-104983
1983.45-126268-123041-100258-95823-114141-119170
1986.34-114347-122798-126506-119872-115768-130716
1989.23-130992-117788-101584-101581-123279-122687
1992.13-114022-128480-125525-112372-124497-137304
1995.02-129838-106644-110221-114958-119482-125436
1997.91-125304-118765-122592-121988-118899-125867
2000.80-124026-133026-134716-124013-117463-119462
2003.70-125619-112969-107911-103875-102396-104772
2006.59-107799-118921-119192-99974-113552-128332
2009.48-136637-131565-123929-130190-125577-124491
2012.37-128372-136460-129630-120147-130793-126062
2015.27-118173-114492-120778-121621-122762-130661
2018.16-123891-118545-129086-141207-127564-120242
2021.05-129307-140209-138947-129849-111570-113506
2023.95-123648-123348-147413-139741-134115-132915
2026.84-142820-144900-137399-112251-101862-114436
2029.73-117742-116254-120468-106635-102185-104769
2032.62-100405-101048-107930-101697-93386-70199
2035.52-54111-52330-44751-17998-9433-1266
2038.41 19709 42362 54069 86034 119976 138567
2041.30 178232 225662 263714 308724 363622 423622
2044.19 486531 552958 622948 708218 789172 863781
2047.09 942857 1033284 1108650 1185241 1271014 1357465
2049.98 1439563 1519127 1591061 1653499 1688408 1712450
2052.87 1742101 1761623 1744481 1707436 1674791 1641909
2055.77 1582048 1497162 1399287 1308078 1227654 1158998
2058.66 1069456 963082 816263 671374 573385 502601
2061.55 425027 351972 289816 246771 203776 153190
2064.44 108938 60790 18806 8505 5992-19055
2067.34-64197-69458-70861-80348-83726-89594
2070.23-107258-121482-126864-125764-124312-129287
2073.12-132794-128761-131661-135107-142432-130084
2076.01-132695-137211-118948-124646-157220-157349
2078.91-154213-151672-149316-145841-133672-120855
2081.80-119478-123095-123326-120835-129253-148536
2084.69-138361-129098-145449-139345-142307-145699
2087.59-151442-153290-152683-165126-141470-117834
2090.48-131665-143471-136438-121956-115579-127778
2093.37-150790-131875-104466-120593-141631-158348
2096.26-160621-138475-138375-141588-126966-110052
2099.16-131275-135182-133243-140565-135987-136445
2102.05-121780-90377-106294-125064-116415-117614
2104.94-127501-123358-123036-117235-95235-118135
2107.83-130190-121240-109638-118600-144827-148839
2110.73-112797-89190-102875-102235-111251-107120
2113.62-107488-122661-114289-84920-91220-94852
2116.51-101994-105459-100186-100632-75579-60080
2119.41-76940-91808-92768-100923-107295-94781
2122.30-81147-55225-26287-31268-44675-52330
2125.19-61015-75040-87157-66476-28987-38671
2128.08-79681-87530-67025-52119-60150-71324
2130.98-54037-55886-75814-57603-44853-56823
2133.87-40314-26470-35758-54555-77848-69733
2136.76-58127-64611-71332-58826-51749-53047
2139.65-60734-87638-94569-71579-78295-102789
2142.55-106954-92526-84390-69533-67173-79661
2145.44-86581-91604-114712-126791-114206-110980
2148.33-104805-95292-112032-118852-110579-110208
2151.23-122848-120483-116163-119606-114946-102260
2154.12-104347-118780-124336-128977-154898-143288
2157.01-136489-119713-105581-118009-133322-150567
2159.90-146216-133403-128607-117494-140771-156200
2162.80-143768-130055-120530-120361-107618-95213
2165.69-129458-150315-129507-127464-134681-105419
2168.58-79670-100628-137023-150956-146280-130114
2171.47-114806-95563-88162-114265-134330-140927
2174.37-144171-139925-134345-114534-126344-139543
2177.26-140324-129316-130599-122590-93612-109029
2180.15-134406-127398-148157-170988-146278-114464
2183.05-119438-129192-138430-148603-149392-149886
2185.94-129274-125301-149946-164857-164320-154364
2188.83-155228-139717-131608-130363-127839-150125
2191.72-168187-171403-170521-167522-165380-172766
2194.62-185022-190512-199692-201807-185520-184759
2197.51-189919-210444-218248-220724-236697-261873
2200.40-277560-286411-306523-300001-286137-296939
2203.29-307227-312558-303153-317318-340335-351081
2206.19-362710-374232-376395-401680-420937-416473
2209.08-406550-425475-447890-449297-452991-461106
2211.97-466340-481157-487873-498176-492679-484725
2214.87-498425-515320-511237-515364-512442-498148
2217.76-501581-511450-520876-501307-483082-481135
2220.65-490479-486506-480063-463178-449849-464602
2223.54-478707-490888-505640-517368-539905-574578
2226.44-606647-630820-686367-716076-724136-746553
2229.33-762559-758361-759146-750378-729074-698760
2232.22-645455-507784-299467-154357-229773-360710
2235.11-416336-442726-474016-498738-518277-543811
2238.01-570807-574983-574444-583952-604202-627173
2240.90-615512-596833-588297-589563-600805-595086
2243.79-603438-614638-612960-602412-601528-610772
2246.69-605600-595921-596740-597728-584969-547151
2249.58-526426-539220-529856-511920-493214-474693
2252.47-453937-426375-405438-381262-363253-340193
2255.36-315884-304711-299497-300926-279986-266396
2258.26-252747-233327-220668-218283-213344-214194
2261.15-220098-203538-190296-193049-194473-182475
2264.04-187844-195706-202295-201642-184985-175022
2266.93-175333-173416-167441-165053-183100-191747
2269.83-188304-182527-163410-175445-186074-177956
2272.72-173948-179125-199926-196976-192301-199561
2275.61-196420-208787-230203-214806-204135-199633
2278.51-186293-166767-157762-158691-170494-183081
2281.40-198775-217272-211183-193418-192725-177805
2284.29-171898-183925-195654-188447-171280-182607
2287.18-196645-195208-200877-202183-194265-172380
2290.08-164364-171683-171804-192992-210143-210783
2292.97-211538-213926-209107-192868-180302-173461
2295.86-174678-163949-146136-129768-133717-152012
2298.76-140586-129076-135036-156723-157064-148789
2301.65-143883-157803-156318-171392-161888-169274
2304.54-167017-119266-99823-137752-176811-171332
2307.43-151849-154033-178250-178919-169280-171866
2310.33-197800-205461-160475-148505-178916-223847
2313.22-186162-154226-176193-233267-170367-129553
2316.11-152573-242911-214254-168808-183299-280380
2319.00-238108-124409-143975-283566-265086-150450
2321.90-167960-310373-283503-132924-142737-297627
2324.79-264679-92599-144572-333487-259596-65520
2327.68-148921-319618-209263-29710-154534-289271
2330.58-111879 18895-174944-233006 22391 64861
2333.47-161194-106098 155106 91627-102774 86771
2336.36 302270 141232 97362 373115 396967 231136
2339.25 395271 648432 570301 547408 809149 866184
2342.15 737980 834273 920546 727891 663158 851353
2345.04 907292 912854 1049523 1112166 1065274 1055207
2347.93 1051404 1016085 960003 922503 941461 947293
2350.82 917302 998355 1061020 977835 1003509 1071568
2353.72 885437 827350 917551 763784 754524 911234
2356.61 767916 815658 938611 681632 570318 476992
2359.50 70192 66213 83873-148064 7055 4347
2362.40-138845 53451-68526-107531 45392-137497
2365.29-64498-51695-158158-39102-164759-152544
2368.18-102052-209430-130920-195012-171700-163905
2371.07-213543-147963-192142-150598-170271-170171
2373.97-187331-214614-189232-179528-135944-139289
2376.86-142359-148635-134253-131800-105498-99004
2379.75-97286-78459-79082-101385-97696-100724
2382.64-97883-75452-77234-87186-93503-86290
2385.54-83905-93516-105698-109630-115250-117953
2388.43-119488-128289-142493-144383-138620-130705
2391.32-121827-131762-131818-121825-127869-141388
2394.22-143046-124712-130737-133225-124755-117285
2397.11-139237-137596-131112-124849-108711-102521
2400.00-112461-129689-140453-133511-125310-131219
2402.89-150144-153168-133272-114990-126221-143037
2405.79-154336-156929-140835-139434-153816-147670
2408.68-128865-133018-140681-133586-143026-152157
2411.57-138729-118184-134212-155155-134898-125540
2414.46-125440-128725-152549-145171-120618-133957
2417.36-143549-123038-120006-114835-114370-124755
2420.25-124571-113670-104822-105445-115612-130813
2423.14-122841-101875-88341-92211-82025-75096
2426.04-95037-96537-83781-87494-90518-107959
2428.93-116864-109299-89399-80255-71645-70976
2431.82-65071-56100-64504-61312-32369-32686
2434.71-52516-50378-48349-49339-40327-29807
2437.61-9731 1573-22350-19430-6573 6155
2440.50-6859-23211-3812 26014 23106 23148
2443.39 43182 66158 77595 66681 49760 62594
2446.28 89527 108500 108394 117654 139161 146966
2449.18 154837 166301 170158 176479 201070 228591
2452.07 241635 236501 224443 254813 293886 310248
2454.96 329714 353156 375220 377052 381292 414317
2457.86 412378 412343 440312 441964 430168 451287
2460.75 458753 463824 481831 487535 483465 490317
2463.64 499542 494360 488813 496910 493143 496436
2466.53 509486 482872 463711 483725 486310 479777
2469.43 479095 478545 472576 454456 434524 408760
2472.32 373629 338948 321046 313862 303095 280051
2475.21 236424 186974 145670 90092 34805 3846
2478.10 19465 46228 20392-15476-57008-83046
2481.00-87275-100686-123238-130543-143313-155476
2483.89-152200-158956-183779-209699-235998-231246
2486.78-225415-226275-221229-221048-241872-259890
2489.68-261962-274982-292679-285056-293164-312489
2492.57-306064-312001-342496-368651-378798-394016
2495.46-408325-410888-417092-434824-438651-466737
2498.35-504741-515856-511018-514681-507314-525749
2501.25-539839-548370-579867-602269-595321-619306
2504.14-650730-633240-627720-628729-641671-681111
2507.03-713829-726119-708947-687489-701496-714842
2509.92-707499-682675-703353-733047-696116-690315
2512.82-699456-674979-648632-613275-609746-611925
2515.71-611284-607376-586609-548547-530112-490086
2518.60-443353-405781-382848-365924-356927-329131
2521.50-299342-275100-251739-230874-210283-199159
2524.39-188154-160988-129173-101822-93637-89524
2527.28-75750-51014-33519-17217-5500-4496
2530.17 13376 42650 46349 39213 35195 45009
2533.07 53527 26987 3224 17039 12091 13267
2535.96 10818 14277 19749 26335 16937 8584
2538.85-12189-7852-14884-44638-53382-36010
2541.74-49166-63347-58751-55847-78153-131408
2544.64-130422-89443-81679-88187-84579-69351
2547.53-70537-69357-73131-66552-83045-99160
2550.42-84014-67813-72802-66057-74882-82203
2553.32-82745-98507-96939-70964-72517-75062
2556.21-76054-95801-98630-78503-89948-107117
2559.10-85811-55578-54646-55865-74286-93702
2561.99-79089-66187-65835-79788-82450-71735
2564.89-87834-113761-115294-95378-104171-104930
2567.78-92604-83124-69047-70782-69626-70305
2570.67-63374-62443-67315-68817-93377-91700
2573.56-71650-75182-75804-59427-54576-66424
2576.46-97151-101398-67507-53043-44096-52255
2579.35-91561-116836-95234-78105-93362-98627
2582.24-83182-87559-107432-103386-98811-99813
2585.14-100605-97494-85001-90767-122965-113931
2588.03-105352-111882-141674-142813-137616-133380
2590.92-127123-129475-127097-110452-110258-135017
2593.81-140790-128724-140023-144454-124069-131103
2596.71-132583-114751-118809-134209-137278-117878
2599.60-119220-131552-134288-146777-148868-140928
2602.49-148934-156107-161224-151911-153534-165257
2605.38-166222-169318-178021-178417-175446-145969
2608.28-148583-166142-166039-153011-145248-134008
2611.17-153009-178277-158524-146392-157812-152488
2614.06-167706-191789-189926-166159-176402-178747
2616.96-148803-125496-143228-153296-163722-173986
2619.85-182484-183412-172490-173071-172882-165662
2622.74-175574-176181-143349-139454-160793-163502
2625.63-167018-169081-154113-170205-179076-172333
2628.53-181643-191407-187704-169995-155292-155160
2631.42-155966-170450-189099-183420-160359-149252
2634.31-151196-157127-161430-139126-133936-130434
2637.20-133457-131454-136009-155992-178305-147918
2640.10-98884-70302-45215-53374-78673-67115
2642.99-53109-61800-70256-58158-49521-43352
2645.88-21487 20638 45216 62751 66912 91451
2648.78 124933 139639 156306 167502 194525 239705
2651.67 265740 279074 293929 332792 366851 399156
2654.56 438422 473539 523711 550254 560272 576979
2657.45 604561 655257 678621 709772 749549 784605
2660.35 816762 839724 851238 849776 861373 887346
2663.24 898061 881202 852204 848332 845986 841338
2666.13 840775 814069 782758 769575 765237 753179
2669.02 727152 678414 627237 586859 568480 536188
2671.92 485981 454011 419125 397114 371902 332470
2674.81 303083 296794 289742 272556 237930 208508
2677.70 178400 146297 110176 74374 26376-5288
2680.60-17275-40849-56511-67436-107967-116321
2683.49-119681-109315-140885-180896-194082-170380
2686.38-148777-153785-171246-174396-185164-186145
2689.27-185565-177344-171581-180102-186108-184331
2692.17-166718-158909-165816-168204-180887-198931
2695.06-189808-190788-192762-181399-172051-150402
2697.95-157605-183541-181230-178081-176670-168256
2700.84-166499-177503-172333-163851-149925-134535
2703.74-131276-105954-116386-138957-137488-140352
2706.63-146445-134102-115247-122109-140814-147251
2709.52-158395-150405-134422-148985-146169-120001
2712.42-128642-142078-130511-124566-137248-137425
2715.31-131784-112979-101836-104470-105064-122568
2718.20-143703-147761-125247-117716-147565-170164
2721.09-158077-130886-129176-132501-140620-144381
2723.99-129238-118743-118632-133630-145610-134468
2726.88-139722-134128-143395-145876-141863-149500
2729.77-148741-158598-172493-149158-118767-123645
2732.66-144512-143918-114855-114101-139426-118119
2735.56-106967-118377-148469-165541-175046-163038
2738.45-140211-142076-133537-106938-120352-128779
2741.34-132278-136690-158555-150770-145147-143244
2744.24-162308-152797-127048-126684-133727-140446
2747.13-130233-125385-134752-137748-142688-141052
2750.02-131607-143857-176164-155267-137970-158281
2752.91-158080-151763-153848-161920-162376-168603
2755.81-180313-159130-147119-163940-155620-132790
2758.70-129653-148036-174867-188764-161826-143691
2761.59-145275-151479-161147-141781-120640-139332
2764.48-182854-175486-171446-165511-158038-159134
2767.38-155840-154917-175089-192740-199066-186392
2770.27-154760-149338-156844-147226-164181-173772
2773.16-162840-167284-152749-141619-159562-176953
2776.06-186394-183302-180181-173405-166263-187587
2778.95-169972-155996-167106-162771-162290-172597
2781.84-180055-179417-172877-159019-141494-125108
2784.73-124942-147049-180536-190363-186700-166604
2787.63-149232-161067-173275-192051-184654-170227
2790.52-174011-177487-184229-153045-140414-161258
2793.41-150983-152138-186492-183586-160683-161482
2796.30-159487-174662-178182-171526-167646-173222
2799.20-182286-178254-170860-174150-180265-183886
2802.09-175332-175604-175502-179093-198868-185201
2804.98-163467-143764-155334-172152-182851-175491
2807.88-173699-165221-166371-175673-168743-172631
2810.77-190076-186678-183066-161119-159900-173980
2813.66-174261-182199-196776-171066-149173-152720
2816.55-151064-145577-165101-159628-174747-166864
2819.45-136478-144713-181892-197841-181979-155260
2822.34-148144-149180-136153-134545-138273-149850
2825.23-167492-181288-183492-165841-183215-184222
2828.12-150343-145582-133894-126961-150257-202239
2831.02-210925-178997-156769-153743-160405-193144
2833.91-189300-170897-167393-179526-168634-119762
2836.80-128967-166792-174766-171300-158193-173594
2839.70-190510-188044-188108-188847-175144-168623
2842.59-182505-175062-166701-158228-160755-170535
2845.48-173535-163209-162853-165499-148425-108609
2848.37-131549-179247-186987-172643-171890-151457
2851.27-145832-144850-148751-154612-132297-141184
2854.16-161365-143455-132736-180565-202270-149213
2857.05-123952-133296-123569-130428-144737-150712
2859.94-147579-157227-175095-162912-134727-128799
2862.84-155767-166258-160703-163449-161598-180520
2865.73-201876-196327-176891-178141-192310-189793
2868.62-168381-161754-190882-175914-128293-115926
2871.52-140859-168195-173970-182115-153873-167313
2874.41-187890-171360-156054-151958-160951-178676
2877.30-175876-158567-139367-118350-119118-146603
2880.19-155052-154056-175804-203053-194173-169942
2883.09-151672-168364-187106-171420-159077-157243
2885.98-157211-159778-188839-195276-175646-174736
2888.87-169120-165393-167397-177793-170236-162246
2891.76-159794-151485-167580-193182-190664-175939
2894.66-155372-153771-175146-178636-166980-177480
2897.55-185492-183409-175943-174589-183955-187518
2900.44-168781-164426-159840-147487-181597-216818
2903.34-184330-144864-144356-156062-168636-184160
2906.23-199793-199091-170294-153141-169362-190275
2909.12-198713-171863-159594-163202-186014-211283
2912.01-202843-174779-191409-184867-149054-158972
2914.91-170597-173947-200072-206408-196327-200904
2917.80-198605-194920-188448-185175-193541-178491
2920.69-164437-170287-186543-183358-152801-143823
2923.58-162515-177848-187717-181142-154141-177518
2926.48-190919-185125-195618-190615-156779-158304
2929.37-152470-126540-145779-180087-192157-197989
2932.26-201262-194227-204226-196964-189431-185946
2935.16-167353-158698-169800-192168-200706-183097
2938.05-170069-219672-222005-161841-146312-161968
2940.94-177912-178115-158160-141025-168782-165504
2943.83-181893-198793-203942-194728-198986-224930
2946.73-234957-194971-138120-90770-133298-176372
2949.62-193455-227419-214296-209110-185295-127850
2952.51-154874-175168-164386-186918-204740-200544
2955.40-168695-141242-148749-158098-129887-112826
2958.30-151578-198797-204560-194649-162340-156550
2961.19-147541-134286-119960-143405-170595-175945
2964.08-170022-172245-184152-198156-201559-157969
2966.98-127303-174397-200675-180621-144553-141316
2969.87-175951-172695-160268-180107-171230-175427
2972.76-182898-189033-184112-176597-164985-176784
2975.65-174216-153193-123369-125524-138034-139230
2978.55-155080-183481-176877-162475-133237-122566
2981.44-153114-158105-160365-164748-171702-163471
2984.33-150156-165443-159572-122691-131294-183546
2987.22-205800-201558-190188-201506-180519-151484
2990.12-156334-149800-134219-145644-163222-159966
2993.01-163762-170493-153122-123414-140661-177226
2995.90-178810-168153-178380-174874-147020-134496
2998.80-132679-145639-160440-173482-177648-161826
3001.69-129929-134229-165551-169273-141687-143880
3004.58-156475-156187-137908-116832-131741-137702
3007.47-156346-175151-176798-153981-146065-153343
3010.37-158090-152596-156579-156029-130022-124738
3013.26-141461-142066-143658-151647-154160-161895
3016.15-172778-164637-168041-177398-182133-158555
3019.04-149933-161617-160542-146216-158179-167307
3021.94-157924-160668-171395-159231-169202-180462
3024.83-158180-176626-184779-190753-191358-194839
3027.72-197029-178475-154087-142270-151861-141470
3030.62-156887-178424-176942-176833-190234-210500
3033.51-220947-187467-141126-150880-185387-194992
3036.40-187279-167788-170331-186501-160756-151507
3039.29-172334-213516-224348-192620-160032-148509
3042.19-168261-189867-180218-166813-161302-157419
3045.08-189013-193502-172559-138808-170214-223135
3047.97-246043-196631-166924-181628-177629-145723
3050.86-129857-150458-162906-157286-147051-160196
3053.76-171001-146214-142640-171475-194038-176714
3056.65-177398-179708-170782-182127-185585-175871
3059.54-176572-164860-153223-167292-152982-121186
3062.44-155520-160801-144954-157843-177996-171191
3065.33-169884-187182-175084-157170-170778-172902
3068.22-166443-145320-108835-108550-132895-161064
3071.11-139076-128119-138164-139608-151855-149083
3074.01-161923-153187-160042-164325-147890-135729
3076.90-135943-143774-154813-160032-165325-144738
3079.79-145471-173050-197130-174875-166685-169657
3082.68-148438-150921-159907-139219-159218-190432
3085.58-189272-182821-177699-186585-176052-144799
3088.47-119250-125183-146219-139757-154448-164263
3091.36-163053-157446-155116-160067-166181-171772
3094.26-153953-137420-130024-136268-155857-168709
3097.15-166889-162551-134898-106654-123912-166228
3100.04-149742-139178-137917-156281-138428-129813
3102.93-115450-107935-117960-135740-145618-149635
3105.83-152458-149036-142535-173998-178648-155290
3108.72-146810-159229-151086-145253-142809-135779
3111.61-157372-138009-118211-122644-119292-115002
3114.50-113162-115605-117564-125515-154611-155022
3117.40-141659-128837-129392-134721-151365-142173
3120.29-116242-148371-149060-128308-117581-130890
3123.18-126491-151667-162896-127620-105007-117566
3126.08-137526-144852-138592-137287-148450-147718
3128.97-114290-111942-124995-149595-176372-148854
3131.86-120378-123770-138497-156860-162627-158460
3134.75-139942-103523-121163-146527-160712-129406
3137.65-116919-126678-135410-125143-121651-135338
3140.54-144003-180438-176503-164933-160552-159389
3143.43-138069-137281-113167-129632-162113-132761
3146.32-111067-119501-129438-152256-140303-122781
3149.22-154435-187635-184283-159531-129701-121462
3152.11-144887-165233-171789-171879-164416-136793
3155.00-95813-136535-166646-146573-161810-179624
3157.90-183685-156616-127703-115759-112500-129717
3160.79-156946-156551-127774-132561-168982-164156
3163.68-152050-163359-166129-153640-142122-143504
3166.57-171548-205089-205088-189301-189063-147049
3169.47-129371-161110-174870-156420-131213-133022
3172.36-147945-151481-152962-148668-171017-170579
3175.25-156133-139964-138826-165191-199663-218164
3178.14-203866-208069-190678-163006-157538-167790
3181.04-178560-164157-143583-118127-135167-163516
3183.93-178068-154233-149323-185189-167811-164580
3186.82-207368-202229-185407-164678-177804-159736
3189.72-150755-160924-148362-147019-184695-189283
3192.61-166700-164449-200102-196910-192031-194447
3195.50-180180-152538-151885-160914-172055-194555
3198.39-187066-165392-183185-208107-192713-167307
3201.29-137409-125838-124734-148184-199299-210007
3204.18-201985-188443-195764-195744-223179-210441
3207.07-190094-166445-157731-173300-153074-131051
3209.96-123978-117904-143594-171685-165574-162217
3212.86-177232-175511-184657-191110-169836-150004
3215.75-179447-194326-160124-151105-141840-149734
3218.64-164387-135847-112269-111148-138096-155893
3221.54-143389-163690-182381-171933-157554-142398
3224.43-164766-161646-137610-144099-175800-175607
3227.32-190787-180714-150559-140679-140483-138562
3230.21-132564-134695-135897-154476-180328-196279
3233.11-185046-165328-179252-170204-170615-152978
3236.00-147066-165313-211320-206073-177092-164152
3238.89-156825-155616-136931-133575-143111-150193
3241.78-161404-164565-184684-184525-170466-158090
3244.68-171817-181952-189429-186929-155887-127898
3247.57-138057-142035-159068-159493-145067-153574
3250.46-165091-175929-191641-162110-149937-167843
3253.36-161164-145383-155523-161659-164113-192962
3256.25-199255-187084-169874-150845-127538-133394
3259.14-155992-162064-156007-145812-163854-167326
3262.03-159584-153538-193148-184453-130882-120254
3264.93-140039-159970-150832-154476-162097-154240
3267.82-150634-189059-201197-168111-165869-173877
3270.71-171956-158299-147831-144065-123073-121598
3273.60-160538-144309-112739-129035-143224-147058
3276.50-145652-137795-143648-173815-168564-137334
3279.39-135528-152789-138815-143834-156700-167510
3282.28-182670-204162-196615-161447-134965-150923
3285.18-175992-191928-162378-139997-139453-135702
3288.07-135437-144307-145742-136691-147934-143561
3290.96-138997-127861-155017-180478-169832-165996
3293.85-179124-171859-149255-150456-184189-184990
3296.75-175010-151986-129286-158250-149205-164453
3299.64-185930-175598-155770-155236-139613-125986
3302.53-145651-161126-154250-148463-182026-196140
3305.42-168488-159724-193463-205423-201515-208747
3308.32-198892-167385-160006-140777-143628-146641
3311.21-163415-182899-185867-189015-167359-195624
3314.10-197746-189661-214298-200525-187707-193566
3317.00-201471-188369-146297-131849-140822-164592
3319.89-166749-174282-199032-189925-173848-167433
3322.78-170531-189742-196471-203569-206349-176295
3325.67-162608-187867-184848-199155-235323-233323
3328.57-227458-203776-182293-194894-196336-221538
3331.46-216393-205602-198842-167778-173730-186112
3334.35-148438-173463-190703-171307-143096-188649
3337.24-254248-239059-235581-259654-234035-217721
3340.14-226580-200209-166568-167402-184092-178154
3343.03-138474-130890-149590-179030-164134-193984
3345.92-245727-285775-282951-283718-292147-213059
3348.82-129216-81894-65760-89462-134980-226912
3351.71-270783-276466-257218-223750-242931-226980
3354.60-199500-194523-206774-232502-232466-216278
3357.49-207765-214762-224983-197974-166999-131991
3360.39-147411-149788-159413-227259-251719-260080
3363.28-248971-229569-268895-276610-264008-239910
3366.17-228772-215416-166253-150541-170438-198981
3369.06-216649-234719-230566-207981-187938-171266
3371.96-167185-160466-180738-206175-211863-201687
3374.85-170681-171375-183488-182361-217825-258463
3377.74-245007-208085-191134-208032-193235-196826
3380.64-217075-226327-186634-197163-229255-213338
3383.53-194638-191821-200333-227751-222603-227526
3386.42-215573-230562-242044-198276-193822-205104
3389.31-162915-181367-234108-201783-172325-190646
3392.21-195015-212518-212380-205385-223266-220533
3395.10-211682-193462-191211-171482-172290-218468
3397.99-232260-248340-236459-215909-221889-206119
3400.88-180582-184748-208941-247310-226966-211667
3403.78-202504-202175-189637-174832-209108-229759
3406.67-246543-242082-237846-186183-167527-209872
3409.56-194221-188936-243378-235189-238167-198286
3412.46-190559-228982-192113-160212-200369-225432
3415.35-236224-255504-218529-190823-218357-227724
3418.24-222620-213912-207733-194651-261991-277738
3421.13-204870-150064-146990-165805-189282-243009
3424.03-240248-194071-197076-203835-204635-216911
3426.92-185137-168561-218466-242004-223392-219286
3429.81-213485-202034-209418-228171-275933-257823
3432.70-208119-181627-200798-195713-197944-186355
3435.60-174333-176209-223726-230488-203541-196321
3438.49-213635-211946-198339-214610-217114-209454
3441.38-254560-295848-228488-150375-173235-222545
3444.28-237821-255191-224523-216633-240017-228462
3447.17-209927-213702-181577-152673-162214-213367
3450.06-216673-185935-189900-180828-173549-210759
3452.95-244862-215717-197505-222995-192615-145294
3455.85-172706-225346-231449-204269-176846-204230
3458.74-235367-230910-199633-202507-219990-213669
3461.63-191554-194605-205620-197541-185057-174275
3464.52-190521-228581-213232-193408-151936-127376
3467.42-171488-183124-165722-156807-184538-215230
3470.31-222715-251273-203105-206293-229181-205774
3473.20-185522-177910-191848-206548-197442-151250
3476.10-181343-227120-210603-171701-185207-214926
3478.99-212139-200161-211009-194376-166502-183298
3481.88-225742-220534-203180-178260-186795-197148
3484.77-208622-215821-194353-197838-230667-254327
3487.67-182109-162701-166013-178285-192249-183318
3490.56-179720-184181-202302-203139-179569-146150
3493.45-153975-182949-212057-213217-206070-181478
3496.34-176146-185041-200515-198479-201060-223558
3499.24-214754-205227-206439-157897-173423-225700
3502.13-209313-187222-209423-206311-191359-159906
3505.02-168907-162259-144296-152124-209591-230750
3507.92-221108-209474-200766-198907-184548-162355
3510.81-173498-185089-184033-200450-193837-173742
3513.70-183980-199286-211792-193268-158327-175658
3516.59-161316-157405-158445-170845-201670-219147
3519.49-219942-237668-225542-194941-209977-196856
3522.38-189096-193271-173455-165999-178168-173520
3525.27-189499-189117-201379-201155-185652-173158
3528.16-205391-237172-230296-211154-221900-225290
3531.06-187311-193505-209365-173865-184057-210240
3533.95-217908-179955-152741-172387-199600-222858
3536.84-225833-230370-196563-209737-223623-225804
3539.74-207027-222754-241254-221995-197204-211545
3542.63-188889-187205-255354-265341-236565-221557
3545.52-200037-178856-179775-163464-145378-154883
3548.41-179898-199699-204360-205349-203921-215511
3551.31-199979-202931-219224-205428-211972-188384
3554.20-181730-220525-225172-227180-240786-230906
3557.09-215652-211531-192586-198918-249298-254654
3559.98-242885-210741-191836-190299-157213-149069
3562.88-199709-205387-171475-174669-192585-197874
3565.77-177853-174418-178491-175005-198671-216125
3568.66-215807-207135-195611-194884-173394-166458
3571.56-189363-213061-225437-191187-212031-217727
3574.45-176164-150096-145784-180213-213553-220667
3577.34-239684-221470-196680-171978-198261-256598
3580.23-270268-250205-206995-190818-190228-169934
3583.13-167467-163375-147771-189097-239485-243554
3586.02-246334-239939-255826-215550-194891-192523
3588.91-172831-183625-213332-207124-202364-218192
3591.80-231737-227701-205914-226739-254545-264856
3594.70-246150-207591-200980-214776-233819-215905
3597.59-182859-183874-167172-182013-216167-217569
3600.48-179869-157938-183464-225432-194946-190518
3603.38-222546-242453-230402-217404-201798-196973
3606.27-233914-241401-220194-174029-168750-214010
3609.16-226165-200675-175366-189583-185407-192419
3612.05-196692-184577-176565-188009-230271-202286
3614.95-201144-214309-175783-181728-214083-201506
3617.84-166724-159139-176572-224396-268517-227533
3620.73-196254-214873-230505-218638-198708-193339
3623.62-196693-202297-183961-178274-189042-201543
3626.52-207100-213004-229702-252116-224309-222624
3629.41-217534-199166-192610-172816-189293-221641
3632.30-224982-198307-171513-167870-183710-188249
3635.20-190800-186354-205910-199005-180494-178270
3638.09-195211-233243-240001-212104-215140-259224
3640.98-261017-237827-230518-231061-219662-191597
3643.87-182353-184528-197717-198858-239498-238224
3646.77-191995-179617-193595-190179-176048-160181
3649.66-174914-219705-250219-250338-224872-178898
3652.55-156439-201180-209198-198467-208501-189438
3655.44-181105-228104-219110-176313-130336-92173
3658.34-133840-159381-193585-224690-229946-219825
3661.23-199750-217878-235044-194624-169865-179027
3664.12-204154-174190-152226-179222-187490-185114
3667.02-186333-194805-219375-226781-190793-198403
3669.91-233106-232615-205563-201745-180797-187498
3672.80-199846-169821-168087-199529-213617-207892
3675.69-206951-179206-133870-111442-127276-161878
3678.59-169714-133156-126037-135100-169988-181750
3681.48-164527-153582-152153-135323-137170-142331
3684.37-154561-173508-150898-134218-140996-153067
3687.26-150516-176263-175232-107864-98936-150389
3690.16-206822-238296-223602-173270-119490-122991
3693.05-144449-173565-159897-121429-113306-145716
3695.94-188665-174200-159646-188051-185698-183277
3698.84-201962-193279-187722-167659-152502-170781
3701.73-167205-166304-201045-187417-193666-213492
3704.62-212701-205106-209140-231667-237134-227901
3707.51-228788-249274-252603-244675-227098-204903
3710.41-195082-248810-316121-275314-198183-204437
3713.30-255195-262658-220451-223318-263810-249741
3716.19-228977-239084-226441-227157-280131-281666
3719.08-221702-223075-253834-279794-276291-298844
3721.98-289142-254851-255661-265270-277813-297307
3724.87-295044-296836-260430-259760-244084-242170
3727.76-267807-259608-256364-256533-272784-265000
3730.66-274749-300304-310438-297627-321445-316611
3733.55-290054-287321-309982-315514-280816-303158
3736.44-297738-267949-283665-267948-244500-245899
3739.33-253145-266875-317673-327405-284805-262688
3742.23-313354-351986-322198-375639-446252-375811
3745.12-317511-315876-299566-265466-246155-201224
3748.01-234577-351225-406148-340529-329585-327926
3750.90-321714-374473-372464-294467-274938-273636
3753.80-251089-265056-292012-299968-289099-306356
3756.69-332382-312175-288639-275713-293425-302110
3759.58-308720-278345-275948-280029-280225-274278
3762.48-282857-283882-287250-254836-269675-263929
3765.37-233434-229693-253643-287732-285609-285076
3768.26-309020-275864-254541-272740-286974-294533
3771.15-284440-274301-296437-284547-230891-207623
3774.05-241647-268844-248579-232299-243677-267357
3776.94-300671-281758-248721-275911-280361-253561
3779.83-243352-261643-269839-254577-249567-236934
3782.72-237125-264039-253516-251623-282612-268628
3785.62-254289-259201-247093-231442-215261-219698
3788.51-251737-273074-245668-219882-234640-239536
3791.40-233194-239523-265532-244176-234464-248904
3794.30-218951-205940-212895-249502-247670-229315
3797.19-239311-227319-211012-207526-200534-212826
3800.08-215432-284376-334830-272186-234374-241798
3802.97-223090-217668-210274-205336-220264-219791
3805.87-219222-260198-281800-226588-218939-253269
3808.76-259210-243754-215832-211288-237273-236012
3811.65-191530-161818-167244-201959-223151-201930
3814.54-182233-203393-250229-249021-230885-240012
3817.44-245087-243721-229446-200853-214346-238137
3820.33-234614-234427-265107-242937-222962-212696
3823.22-220906-219384-216255-224685-215859-206430
3826.12-178848-178900-202235-222848-237366-190561
3829.01-159834-176015-212555-217093-223348-215477
3831.90-165873-177932-227593-234038-221928-251998
3834.79-242310-203797-213161-229091-248079-308582
3837.69-291223-242529-241162-208500-230441-273130
3840.58-250747-225795-223979-234977-249308-255488
3843.47-240079-214596-192595-174269-204995-225270
3846.36-218722-209177-233899-229722-217931-192223
3849.26-204295-208693-238366-254047-279436-282288
3852.15-205973-189549-261812-315136-281656-251605
3855.04-240279-230419-222198-236193-264778-234463
3857.94-250385-283014-276088-230239-201418-183326
3860.83-165126-185194-231918-239754-205098-212631
3863.72-232662-230776-247481-256999-235598-207459
3866.61-176606-150911-168352-197261-226539-243105
3869.51-288168-287299-243354-222725-223034-196585
3872.40-187707-184949-183299-197709-223800-214571
3875.29-187454-182576-187806-192375-214945-224053
3878.18-204851-171499-203250-256230-259945-257335
3881.08-227217-216862-197815-233298-239747-245990
3883.97-241443-244866-289929-276245-239368-228758
3886.86-247566-271143-243199-207460-199731-187627
3889.76-223998-282024-310486-281682-240408-191203
3892.65-189458-213254-238181-255443-230820-226322
3895.54-262177-230782-211255-210216-195628-179175
3898.43-215927-232359-202032-199568-231740-235415
3901.33-246256-235074-231674-234192-259329-287085
3904.22-253367-204715-220202-235211-229790-198105
3907.11-166496-177025-209789-202570-179668-202469
3910.00-225018-184655-186375-224830-229025-198359
3912.90-182809-225131-248065-249131-239105-219820
3915.79-216499-218960-224528-232886-231596-240665
3918.68-230517-214959-213007-188699-195127-223368
3921.58-227691-244235-256013-260156-281859-256991
3924.47-234558-207222-169430-173468-222106-243277
3927.36-234682-217121-241473-209126-176062-210672
3930.25-247491-257966-244312-237239-261010-237073
3933.15-193384-165645-209558-245702-257959-246132
3936.04-238561-261062-276936-258579-278189-268681
3938.93-233923-206677-195463-197314-204174-230887
3941.82-270019-247649-243422-228033-237915-240355
3944.72-222405-228987-210399-229541-247002-231492
3947.61-224669-204970-204747-239100-253755-220540
3950.50-192367-204121-263161-275998-216733-206142
3953.40-231545-241641-225071-229942-211345-245049
3956.29-296588-267749-269743-281890-225280-188741
3959.18-182099-206828-258522-279936-249646-217060
3962.07-217019-234976-227883-253170-257089-233674
3964.97-241896-226434-219702-222501-216441-220861
3967.86-239024-228897-251365-258259-234402-233207
3970.75-228468-238748-254266-217994-206666-228032
3973.64-238068-268599
##END=
