##TITLE=Hexafluoroethane
##JCAMP-DX=4.24
##DATA TYPE=INFRARED SPECTRUM
##CLASS=IUPAC A
##ORIGIN=NIST, Analytical Chemistry Division, 301-975-3108
##OWNER=COPYRIGHT (C) 2000 by the U.S. Secretary of Commerce
##DATE=00/02/01
##$SPECTRA VERSION=1.10
##$UNCERTAINTY IN Y=2.0 % relative (B=1.0E-04,C=8.6E-09,D=5.8E-12)
##CAS NAME=Hexafluoroethane
##CAS REGISTRY NO=76-16-4
##MOLFORM=C2 F6
##MP=-94 C
##BP=-79 C
##$NIST SOURCE=QUANT-IR
##SPECTROMETER/DATA SYSTEM=IFS66V (Bruker)
##INSTRUMENT PARAMETERS=KBr Beam Splitter; MCT Detector; Multipass cell
##STATE=gas
##SAMPLE DESCRIPTION=Hexafluoroethane Primary Gas Standard
##PRESSURE=101.3 Pa
##TEMPERATURE=23 C
##SAMPLING PROCEDURE=1 L/min Flow
##RESOLUTION=1.9290
##DATA PROCESSING=Happ Genzel Apodization
##XUNITS=cm-1
##YUNITS=(micromol/mol)-1m-1 (base 10)
##XFACTOR=1.0
##YFACTOR=14.551E-12
##DELTAX=0.9645
##FIRSTX=575.653
##LASTX=3974.609
##FIRSTY=1.00E-06
##MAXX=3973.64
##MINX=575.65
##MAXY=.012834
##MINY=-.0000108
##NPOINTS=3526
##XYDATA=(X++(Y..Y))
575.65 68856 23840-6099 139357 102222 51298
580.47 39079-33914-130703-70264 47152 61799
586.26 175441 71525 42311 139798-74342-309076
592.05-182744-28207 34633-5083-107169-18044
597.83 83325 174273 135417 11387-20502 12937
603.62 15948 66926 63301 5144-48555-1901
609.40 43187 116259 105182 4641-84957-81798
615.19-105216-73413-75101-1982 39709-13903
620.97-31388 5281-3939-1578-4188 26766
626.76-14958-48764-46603-17031-96637-81238
632.54-20620-2850-103777-67498-44700-60596
638.33 4571-4372-78794-33633 34926 6378
644.11-71101-37588-46391-17297-45090-37431
649.90-49435-50988-97042-42012-48192-47277
655.69-71214-27250-52794-58130-42939-76037
661.47-137663-80099-48613-12371-67093-264748
667.26-342595-101086 16901 25034-80979-107600
673.04-151175-115749-87003-35670-78063-90795
678.83-93609-58104-99416-45600-55504-30222
684.61-35920 13045-47525-31162-74113 39264
690.40 56502 171391 225477 375450 481508 811735
696.18 1163903 1837583 2588112 3810262 5255372 7239365
701.97 9351128 11744923 13772981 15630337 16457271 16590799
707.75 15418903 14272666 12836714 10707743 18894527 44637821
713.54 40872788 18415077 11796143 12820176 15461667 17407282
719.33 18820956 18779648 17990757 16161612 14011194 11311002
725.11 8948574 6681722 4940888 3423870 2457074 1638272
730.90 1208731 822645 646891 384825 309237 186918
736.68 215884 95314 67748 16912 68270 12360
742.47 35792-55825-24645-49579-29815-91694
748.25-36850-29334 19733-59641-39309-52458
754.04-18367-74808-68708-108773-32232-24652
759.82-17047-56761-16367-36728-25716-71895
765.61-35571-40916-19713-46785-42198-53593
771.39 16197 4096 26214-31960-13050-6186
777.18-16343-86722-49081-37445-29947-64915
782.97-22955-54841-26108-54418-88001-71061
788.75-16998-75426-77069-84895-90792-135822
794.54-81624-65318-68306-105767-77541-90009
800.32-82756-81851-86584-99428-57261-76924
806.11-68598-90793-61643-72762-57438-76971
811.89-78357-88370-41066-46592-72544-97320
817.68-80686-99199-83039-102407-52048-71652
823.46-79928-90071-47901-47686-47857-51089
829.25-3864-32298-25805-40249-36015-61784
835.03-54661-66411-3594-3068-49660-95703
840.82-70966-47113-44980-97039-74554-54397
846.61-30250-65320-43545-76856-81137-90351
852.39-89385-101418-71697-104534-103339-76126
858.18-39735-68156-66619-93385-45410-50650
863.96-41787-54963-59921-61534-25639-43420
869.75-42372-50232-38537-43074-9368-30346
875.53-27819-28225-33628-62792-16379-33067
881.32-43518-52795-25444-20641-30810-33259
887.10 20631-3292 26862 22777 16523 3244
892.89 46978 39135 63403 52277 56955 46924
898.67 68487 41496 41523 65208 81470 57615
904.46 76408 37063 17251-11542 15145 4182
910.25-14817-51612-31709-32825-41776-67925
916.03-62439-79943-74279-83768-71703-87752
921.82-72791-91213-105147-118684-85064-97110
927.60-64578-65999-60147-80142-66813-91143
933.39-95907-112634-71215-78302-69223-81350
939.17-62448-75044-57987-78755-90368-106509
944.96-75163-92153-76927-85633-83853-99480
950.74-77486-90832-73770-70256-49772-81350
956.53-87784-111029-88966-117398-100112-106949
962.31-96159-107101-82962-110508-104242-92037
968.10-71642-114802-102479-108106-107971-127252
973.89-103273-100952-76690-87560-67490-72939
979.67-55085-78388-52473-74665-64748-66997
985.46-47244-46108-32630-57756-39275-41135
991.24-31929-53392-29352-28085-17509-42806
997.03-17169-25648 6773 8948 9722-26097
1002.81 5129 14919 46293 45247 62899 48429
1008.60 66304 66676 112519 105599 115916 111400
1014.38 160270 150294 182497 166836 166919 159761
1020.17 233013 279761 354198 363918 361605 319149
1025.95 330326 303676 313851 273622 265574 243516
1031.74 267162 234624 241699 177024 164244 110925
1037.53 117478 76009 65633 8074-4205-38202
1043.31-20193-33769-10278-35952-19335-35145
1049.10 2999-16396 9512-10526 28152 681
1054.88 25164 12804 65228 56243 69000 73012
1060.67 165505 126164 129589 85751 93133 57991
1066.45 91381 62172 100464 76262 101057 46816
1072.24 50326-37417-11748-60393-32593-59454
1078.02 3574-9936 55475 31921 114567 144125
1083.81 284878 355152 579786 760316 1074759 1334802
1089.59 1798583 2221647 2846560 3424979 4287146 5283928
1095.38 6905700 9160197 12788372 18040875 25572475 34376430
1101.17 43229767 52143376 64157583 77850609 91347809 102429902
1106.95 110108910 112613752 110875069 106665766 106814461 121060628
1112.74 162880733 227497389 268315092 206892061 99085416 79756854
1118.52 109524122 138729036 158887554 166993625 160961612 143677759
1124.31 118599058 91185442 65115739 43846681 28050331 17954936
1130.09 11987045 9141119 7747255 7293110 7032314 7236817
1135.88 8020885 9960004 11055356 9369412 8005281 8338544
1141.66 7117325 6635433 7313108 8072933 8134988 7807884
1147.45 6962932 5986695 4794449 3777286 2789706 2041243
1153.23 1378091 983588 594188 429731 262296 228393
1159.02 131186 143719 88922 137159 95514 131732
1164.81 87341 132540 127228 194654 149921 187129
1170.59 161884 213962 202006 248928 209513 260613
1176.38 259119 322894 304655 374906 385015 470187
1182.16 484586 568961 609174 718700 762205 885936
1187.95 965567 1146322 1284294 1515383 1707469 2002162
1193.73 2282678 2649386 3008710 3475532 3882427 4382202
1199.52 4790487 5227779 5527146 5788508 5930369 6094268
1205.30 6028767 5744860 5064625 4228544 3486142 3050384
1211.09 2659706 2392015 2100866 1930201 1731946 1655238
1216.87 1559707 1580303 1577884 1720864 1846246 2086396
1222.66 2323498 2772781 3310152 4177037 5277167 6954304
1228.45 9220090 12509728 16929252 23051764 31131800 41980167
1234.23 56144928 74608560 97874491 127101720 162883140 206716598
1240.02 259863834 323179437 395881388 477317485 565048905 654775319
1245.80 738325959 808947766 859652336 882005508 871765267 838148449
1251.59 781723480 722785363 646726909 523949356 411405257 317984436
1257.37 242522381 184995224 139746135 104012083 76506127 55444678
1263.16 39724707 27951685 19498428 13384916 9211231 6282393
1268.94 4402630 3109932 2341650 1782767 1489051 1262816
1274.73 1163954 1019019 958033 877907 865824 797026
1280.51 777429 740435 748764 711743 725745 704994
1286.30 720696 715795 749884 751132 793110 812378
1292.09 864245 883756 952565 993522 1068742 1147046
1297.87 1280756 1413555 1600547 1806544 2046028 2267748
1303.66 2521558 2739524 2978435 3229297 3521633 3809570
1309.44 4143290 4492170 4865504 5232391 5637427 6020349
1315.23 6416163 6805158 7226677 7612961 7962141 8266331
1321.01 8546071 8787650 9050919 9282862 9473324 9587723
1326.80 9627193 9533121 9408700 9263264 9112027 8884333
1332.58 8610335 8265896 7861465 7413379 6997564 6594235
1338.37 6234271 5863400 5488476 5079778 4672059 4265555
1344.15 3893059 3514228 3154815 2802954 2489893 2156710
1349.94 1841433 1549963 1299529 1080951 931726 794557
1355.73 685798 568787 442083 323356 249642 177853
1361.51 131022 102736 90197 57867 44218 32890
1367.30 39691 29014 23078 14635 11185-12151
1373.08-11604-3973 11654 11079 312-19389
1378.87-11488-25109-49703-67552-54485-52151
1384.65-34793-31749-44314-47536-38151-44353
1390.44-48677-61846-60725-48846-43457-58456
1396.22-54298-51522-53090-84712-77529-56576
1402.01-48492-52087-67355-64544-51944-66282
1407.79-77372-85560-89876-102279-91431-81240
1413.58-83080-90353-86638-95143-115519-121294
1419.37-90976-72680-65253-69845-59398-59962
1425.15-101738-116446-26992 43406 71795 82533
1430.94 117255 147916 178277 209401 241869 267841
1436.72 315687 352607 385738 401313 407089 416281
1442.51 423583 427157 446622 475788 498356 497285
1448.29 502417 512750 523460 538203 540090 517124
1454.08 480245 429687 406978 413720 415560 412088
1459.86 417284 412425 409142 390362 370340 357169
1465.65 351073 323938 297522 262868 236647 193354
1471.43 149487 116398 100782 77901 37830 15965
1477.22 20570 12669-5538-26194-42280-47918
1483.01-43143-54316-58749-61559-59088-67732
1488.79-87331-85497-54847-36732-43127-59452
1494.58-79757-101477-97516-104455-101421-95783
1500.36-92125-100524-100193-110455-135587-142063
1506.15-125549-101759-92475-96517-85042-73282
1511.93-61650-58581-71094-100738-108949-81676
1517.72-28406-1377-52386-122394-109952-88276
1523.50-84519-94606-73602-69919-80020-88043
1529.29-90848-105038-102768-113259-118873-115247
1535.07-112440-116177-124143-168324-178393-159048
1540.86-137832-132089-120571-115581-97524-89970
1546.65-95160-100785-100149-98727-85111-75550
1552.43-83622-114214-100340-91774-110356-141449
1558.22-143591-142304-119283-93862-77938-90693
1564.00-98817-91959-80656-82369-93262-116640
1569.79-112812-117087-103403-85406-83683-126311
1575.57-129130-89073-75936-82212-73706-71982
1581.36-85586-82067-57182-25130 7781 19720
1587.14 34254 57882 96382 123468 171818 238077
1592.93 300988 359693 420773 472782 509468 521802
1598.71 512693 489831 482133 483790 463764 407660
1604.50 340290 290557 272254 257322 254722 270054
1610.29 300660 321591 348525 370883 404839 411433
1616.07 441274 526941 599206 650960 693418 727245
1621.86 747672 778126 823512 861253 889804 906969
1627.64 950725 993858 1013876 1031825 1040178 1021457
1633.43 963791 844331 760945 707617 657882 628878
1639.21 613977 586902 559318 501242 421928 335220
1645.00 267526 215640 155178 112116 86695 48717
1650.78-29255-109669-101082-72637-68078-67212
1656.57-67659-75859-82632-95393-113641-129332
1662.35-129690-117110-109885-117468-120205-132922
1668.14-134495-108385-108540-125504-117830-109703
1673.93-116113-114362-93917-87833-86129-85216
1679.71-83475-84250-89833-112943-141332-111863
1685.50-60856-56291-55359-52271-46275-48033
1691.28-41539-45259-53442-84710-90583-53055
1697.07-32165-49248-87059-66687-15994-1772
1702.85 816-1038 19076 39949 55357 69099
1708.64 90348 115959 145135 152914 172314 194102
1714.42 224363 237513 247153 300136 362059 395801
1720.21 428640 467575 492107 513568 552028 588816
1725.99 611333 628118 660890 697150 727666 721237
1731.78 682501 646110 643741 646718 633103 599220
1737.57 568128 523647 500549 474538 431208 386109
1743.35 364548 342200 306520 256422 213092 189594
1749.14 164197 118420 103924 93883 66715 37698
1754.92 26298 15179 12814 5920-8826-33197
1760.71-51589-51621-50318-57428-51485-57010
1766.49-66629-64698-63890-72225-74383-95422
1772.28-92292-84560-92635-91956-88782-100143
1778.06-99029-96178-97847-106761-119288-120318
1783.85-124116-128728-130715-140163-130085-124556
1789.63-129861-144338-162426-154473-127626-135511
1795.42-141093-132164-130326-151480-151059-130951
1801.21-118582-128257-140540-137570-124115-121690
1806.99-114938-130228-133450-134585-131827-126576
1812.78-126395-134303-136890-129502-115979-112287
1818.56-112232-116060-100414-90814-87657-99050
1824.35-110208-98652-90063-81884-92686-121354
1830.13-91759-78139-88068-81548-75799-78012
1835.92-72181-74122-74242-79119-69317-60359
1841.70-56379-67432-52159-13167 386 6487
1847.49 33392 64051 87503 124168 165563 200766
1853.27 244137 274393 303465 339937 375223 415234
1859.06 450148 470697 488014 511126 563500 627677
1864.85 672014 699873 711598 667750 596820 534055
1870.63 491713 447678 411362 405656 397937 365902
1876.42 342197 301486 256050 199546 146261 88114
1882.20 48770 27476-4215-37744-65384-91717
1887.99-103024-110074-115872-120673-120735-126375
1893.77-132062-139579-131050-125460-131249-140224
1899.56-134135-129092-125473-132394-131800-111363
1905.34-100373-98789-86442-83565-77216-60114
1911.13-51074-44941-28959-25829-25456-11492
1916.91-1308 8326 34946 59947 83442 75781
1922.70 41967 32689 55102 86336 119605 139738
1928.49 152655 140739 114240 97784 99922 115269
1934.27 133408 144438 175840 194431 145985 100771
1940.06 112135 146883 181216 200940 213350 204688
1945.84 193328 172657 159787 151933 146443 154346
1951.63 170825 185927 194073 175798 151837 148263
1957.41 228048 308411 241764 117664 56310 36349
1963.20 40546 31793 24279 10136-540-19573
1968.98-48049-52610-58963-78256-88644-91405
1974.77-102303-116549-103343-98916-109781-116039
1980.55-125246-124407-115174-113848-106407-115191
1986.34-120204-122769-123732-117561-110000-119901
1992.13-121093-123918-125285-118385-114284-123105
1997.91-121237-122436-123310-130255-124659-121201
2003.70-113529-106482-105791-113280-112450-124658
2009.48-129776-127788-126989-130402-126783-123993
2015.27-118420-122480-124195-126789-129488-129493
2021.05-133006-127736-118027-130330-137051-138751
2026.84-136653-120461-111779-116773-109021-103852
2032.62-102385-98072-73051-49787-23599 3924
2038.41 40466 86868 147830 222472 315193 425119
2044.19 557411 706443 866979 1027090 1190333 1354605
2049.98 1515025 1637858 1713630 1740620 1708233 1625932
2055.77 1489743 1314712 1149503 941580 697313 502001
2061.55 360383 247255 155271 66226 13623-27292
2067.34-63217-79640-94384-116693-125216-128960
2073.12-130843-135228-134346-130442-135613-152565
2078.91-151446-142100-126123-122244-126217-136944
2084.69-137917-141590-145960-153688-149413-135467
2090.48-132922-127980-129150-128754-127015-148878
2096.26-145476-134668-124474-132412-136070-128893
2102.05-109711-114911-120358-123296-113740-116360
2107.83-119197-127008-128688-106913-102989-110027
2113.62-110792-99059-95470-102009-90186-76186
2119.41-85665-99256-90105-56782-38030-53158
2125.19-70282-61065-54373-71556-63106-61716
2130.98-61047-59349-46007-39585-52943-67798
2136.76-63661-60910-58415-78020-82942-94547
2142.55-91407-77238-77863-99109-114454-111243
2148.33-105006-112583-114617-119615-114969-110392
2154.12-115394-135399-139017-124018-121734-140615
2159.90-134535-132883-141235-133967-114747-116061
2165.69-131035-130331-107429-111589-137563-129244
2171.47-104078-114238-136452-137334-127484-133200
2177.26-131819-117666-114499-137141-147985-131906
2183.05-128921-144901-141303-140094-154866-157164
2188.83-141278-134233-148598-167991-168260-176091
2194.62-189785-194863-190433-206132-226691-258677
2200.40-286896-297214-298171-308553-321896-350594
2206.19-371956-399401-413758-428837-447549-462078
2211.97-478344-491418-494224-507557-511072-506593
2217.76-507974-501247-486271-483079-466163-468132
2223.54-490430-524196-573386-641956-704362-743798
2229.33-756577-744035-676494-473024-269874-329126
2235.11-439614-497647-541638-572187-589702-611407
2240.90-601039-594304-599107-608910-606203-605581
2246.69-599676-589036-555423-532594-509812-473571
2252.47-427823-383640-339997-310175-291625-266906
2258.26-236374-219643-213904-204971-192262-189858
2264.04-193928-194924-179513-172511-173102-185338
2269.83-179083-176828-178073-185393-194038-198895
2275.61-209819-214104-195076-172718-164155-185752
2281.40-204179-199043-181861-184283-184199-186140
2287.18-195577-196403-178289-173217-190942-209691
2292.97-208934-194692-175829-160094-140268-140521
2298.75-138107-148315-150509-155314-163411-161526
2304.54-133533-140177-161846-164269-173004-181650
2310.33-182939-173165-187922-183033-184231-168614
2316.11-193174-203863-216403-192011-212065-215996
2321.90-230232-211821-208572-199127-210323-194019
2327.68-187747-167726-147916-124125-94421-53438
2333.47-14809 37523 99392 188935 271162 372376
2339.25 511431 662652 782158 824841 781716 816089
2345.04 957400 1057422 1059890 1004223 948914 942663
2350.82 985720 1014638 976329 881360 819046 817734
2356.61 827922 703360 384563 94437-20543-39521
2362.39-40681-49810-65507-87122-109427-138340
2368.18-157515-172593-178231-176809-167135-178217
2373.97-192220-171520-143977-140945-123870-101885
2379.75-87182-93425-95762-85982-84392-88912
2385.54-94665-109587-117463-130872-138396-132935
2391.32-127496-129601-133937-133910-127520-129038
2397.11-131973-122158-111493-125834-132134-137593
2402.89-140393-130025-139627-149463-145558-142533
2408.68-135236-139932-140421-135342-137299-132273
2414.46-134045-138882-132639-127839-117559-120593
2420.25-113564-112473-118238-106464-87601-86235
2426.04-88903-91616-102915-103429-82125-69791
2431.82-61482-52331-41825-48899-44104-27306
2437.61-11723-12701-5424-6890 13376 32194
2443.39 59319 63890 72523 98887 123654 145024
2449.18 164245 185009 220432 235623 261671 308970
2454.96 351029 378743 402298 421742 436836 448376
2460.75 468150 482649 491385 493564 494595 496431
2466.53 486749 478846 481803 474207 452245 403140
2472.32 348795 311349 269264 187642 92063 28832
2478.10 22446-18198-71559-105050-130490-150078
2483.89-168258-206889-227445-225617-230320-254112
2489.68-274934-291117-302899-324698-360769-393373
2495.46-411749-433293-470341-506573-513150-526638
2501.25-556225-592293-620027-634274-637752-679442
2507.03-708672-704470-702404-703265-706424-697650
2512.82-668331-628577-610413-598018-552547-486311
2518.60-413894-368687-325989-277129-231801-199015
2524.39-156803-112470-83624-53738-20278 2932
2530.17 31360 40740 42208 28094 13770 12450
2535.96 16147 18790 6168-13270-34444-47453
2541.74-54498-71992-104598-102382-83473-76013
2547.53-69564-76775-83950-76931-70891-81643
2553.32-88709-81515-76233-88111-90444-89729
2559.10-67736-64791-77580-74464-73984-84403
2564.89-100683-105926-97618-83896-70599-68316
2570.67-64897-76605-82427-75194-64266-74463
2576.46-82335-60344-66538-94309-92116-90651
2582.24-93893-101413-99406-95639-99619-111997
2588.03-120651-137350-133061-127213-118578-127942
2593.81-135627-136297-128675-124700-126522-126848
2599.60-128831-142719-146248-154301-155618-162624
2605.38-170571-173520-158972-159096-152763-148980
2611.17-158572-156683-160677-179018-177897-164381
2616.96-143907-153100-171718-178986-172807-171969
2622.74-162591-152920-160611-165345-168068-178489
2628.53-183091-171923-158481-171564-173244-158080
2634.31-153106-144852-132460-136785-151975-136070
2640.10-77870-61326-63517-62915-57070-34701
2645.88 14315 57675 96240 137160 176868 230950
2651.67 281313 332771 402182 476849 541080 584968
2657.45 646592 713476 782295 831283 856871 878074
2663.24 875844 851395 840328 810437 775905 742359
2669.02 676802 596051 528862 455734 395813 337479
2674.81 298577 263216 209172 143588 71190 3873
2680.60-37871-77438-108276-129191-164578-170810
2686.38-160658-175722-182724-180144-178850-177965
2692.17-165531-173720-187418-191782-178378-165422
2697.95-171813-178566-171230-171926-160110-138153
2703.74-120623-130735-139207-132713-128670-146166
2709.52-147558-142575-133033-132604-131865-132287
2715.31-115943-107863-123327-135843-135443-152148
2721.09-140888-135656-134688-126803-130519-139040
2726.88-138197-144312-147567-157961-144973-133364
2732.66-130992-124589-119531-129022-157373-159020
2738.45-137796-123056-125938-141964-148618-150562
2744.24-144546-133397-132775-132159-136678-139960
2750.02-148910-155566-152127-155911-159383-168459
2755.81-162405-154515-142138-153328-168869-155012
2761.59-149547-142951-149316-171248-165298-159011
2767.38-164073-185496-177976-157122-155894-165803
2773.16-160178-155848-171347-181725-175639-173809
2778.95-165495-164541-171290-175355-155977-136017
2784.73-151747-179731-168926-165982-179083-178671
2790.52-173909-161591-151935-164718-172012-165768
2796.30-169212-173278-173862-176970-175808-179447
2802.09-176520-183734-177258-160000-167357-175683
2807.88-169382-170992-177362-182443-169952-171156
2813.66-180719-171672-152651-154509-162759-159302
2819.45-159550-179927-163312-145734-138284-153999
2825.23-172530-178548-168935-146706-144272-181182
2831.02-180234-164183-176820-178454-165762-146131
2836.80-154309-169436-174614-187670-182506-177331
2842.59-171216-165262-165783-167701-153069-139027
2848.37-160298-175098-155659-148846-144561-146033
2854.16-148697-167318-156446-131333-134023-147505
2859.94-158547-155170-144262-158195-164285-181393
2865.73-188552-185199-180578-175197-159400-138012
2871.52-157921-170765-170812-168877-160373-168816
2877.30-155174-131858-139248-164562-184475-175766
2883.09-168738-170659-159294-170264-182041-175667
2888.87-168443-170998-163408-163856-179182-174681
2894.66-163801-172735-177045-181136-178736-179031
2900.44-164220-169087-183888-164339-157480-183384
2906.23-184614-171723-179931-177244-173646-194781
2912.01-189227-175152-163206-181969-197191-200476
2917.80-192799-189174-177708-176103-169867-159924
2923.58-171563-176685-175680-189125-178777-157709
2929.37-145532-172113-193871-200112-194252-181661
2935.16-169352-184521-188817-198640-177811-165001
2940.94-166670-159273-170735-192287-201733-214805
2946.73-182027-134131-165750-209081-197132-162475
2952.51-163781-186461-185051-158683-141595-141491
2958.30-177958-186176-156639-138431-145917-169922
2964.08-177399-188535-166813-169273-170627-159057
2969.87-166906-172739-177592-183650-176800-170920
2975.65-150108-133146-145549-168171-156538-141262
2981.44-153821-164743-162620-155320-145052-171714
2987.22-197562-188508-164599-147607-149170-161262
2993.01-158029-146335-161620-175109-163249-143504
2998.80-147468-167032-156012-148039-154478-151162
3004.58-145655-132458-142607-164560-159744-153134
3010.37-154820-146515-135164-141506-150378-162014
3016.15-168361-173022-164335-157011-156027-160337
3021.94-162906-166913-169591-176476-187914-192430
3027.72-174747-151652-151549-168808-184300-201272
3033.51-183145-166106-182540-178003-170712-169544
3039.29-196917-189444-166108-174808-170573-170946
3045.08-177109-170642-203246-202729-174936-154188
3050.86-148357-156318-156938-156550-167185-181154
3056.65-176504-180282-176500-167551-154518-146928
3062.44-150544-162223-171899-175947-169238-166241
3068.22-140266-124898-138922-138552-141699-152557
3074.01-157467-155303-142533-145976-155785-155593
3079.79-168817-177569-162388-153680-155212-176810
3085.58-184019-177035-148421-133075-145467-158429
3091.36-159209-161497-160761-143497-143120-160928
3097.15-151124-130653-142174-146341-142503-128973
3102.93-117481-132533-147121-151743-162311-161400
3108.72-152188-147176-143166-136515-121386-116799
3114.50-116224-133243-144830-136641-136503-138863
3120.29-137310-133253-128619-143518-131465-124389
3126.08-137103-142479-134319-124683-145004-146071
3131.86-133179-150584-148087-128387-136394-136258
3137.65-126058-128447-137491-164727-166638-153208
3143.43-133232-134795-131877-125968-136383-145463
3149.22-168089-157503-138056-158247-164197-138693
3155.00-134472-158095-169287-155083-123308-134245
3160.79-143195-147357-157734-161374-152822-158826
3166.57-188030-190107-159088-155226-152062-141396
3172.36-148365-158040-160989-150319-169859-203473
3178.14-198615-174423-166553-158209-138496-154308
3183.93-162517-167933-181212-191675-176018-163099
3189.72-153670-162905-174874-180647-192013-186696
3195.50-164052-164858-179816-183307-188664-166361
3201.29-135428-159565-195498-197769-202648-202345
3207.07-175563-159771-137152-133500-156037-169667
3212.86-177759-178970-170555-173254-155628-150137
3218.64-135205-126214-144140-163772-166445-156948
3224.43-152628-156085-175792-171200-147321-137153
3230.21-137155-158771-181558-177695-169624-159853
3236.00-174841-191203-169153-150272-140483-151507
3241.78-168653-176643-169604-179722-172396-146035
3247.57-144653-153979-157368-173154-167947-159788
3253.36-154862-163273-182924-182608-151633-143214
3259.14-153377-157441-160574-169641-162654-139803
3264.93-147516-155832-159425-176532-178309-169294
3270.71-159069-139489-135874-136357-132678-142306
3276.50-146280-157352-149661-143013-149019-170275
3282.28-187814-167442-158730-170752-150105-138510
3288.07-140308-143658-140510-145220-164069-172553
3293.85-164940-165139-173896-156857-149338-166164
3299.64-169422-151140-140779-150752-164279-177148
3305.42-178817-197240-199509-175118-149313-153983
3311.21-174602-183847-187718-199370-198449-194889
3317.00-174932-148023-156537-179200-183516-175245
3322.78-185800-197672-184259-181800-206657-224926
3328.57-206704-196449-209435-203956-182365-171465
3334.35-171781-172102-196555-238632-240833-226916
3340.14-195892-177068-162411-148497-163962-208252
3345.92-264965-278001-204543-105362-109204-205345
3351.71-259116-242512-220407-206706-220171-219752
3357.49-214106-191406-153194-158482-211888-248352
3363.28-252184-262780-243968-202763-171367-195267
3369.06-221913-207917-176809-173824-195074-194476
3374.85-178174-199049-230457-219140-198753-205470
3380.64-207645-208050-207287-201903-215000-224804
3386.42-224975-211911-189508-194525-197824-192239
3392.21-204448-214059-214304-197830-183970-209230
3397.99-234366-224672-202351-199217-221891-216133
3403.78-197181-195944-224334-234156-202955-191922
3409.56-210539-227969-214078-200202-192102-217836
3415.35-231919-215146-218681-214275-225303-232713
3421.13-178716-174015-215144-212161-202883-199864
3426.92-197649-221366-219242-212215-234767-239062
3432.70-202603-195118-185981-194873-211976-208332
3438.49-207158-210957-231929-243983-198796-209949
3444.28-235868-229471-223855-199581-176028-191700
3450.06-196478-185534-207355-218039-200662-180686
3455.85-202505-206927-207776-218580-209949-207063
3461.63-198446-193902-188937-206318-184299-157879
3467.42-166397-175566-206351-224690-215331-203455
3473.20-189622-191597-183907-198028-194871-201369
3478.99-205779-191876-194716-208714-193062-197699
3484.77-204525-213261-214272-180782-176730-184450
3490.56-189499-188736-166624-182672-203715-190639
3496.34-187435-200966-211590-204208-185992-198063
3502.13-203993-196299-174954-158558-173982-211971
3507.92-211654-193107-176645-181532-190059-187119
3513.70-194589-188203-167940-162203-178564-212295
3519.49-223605-210966-197168-185579-174260-179601
3525.27-191565-193335-194118-218100-222176-211095
3531.06-196680-191534-197765-185652-180338-213255
3536.84-217525-214458-218064-223983-218734-202316
3542.63-214581-242535-220452-187125-163530-165049
3548.41-191136-205381-206606-208098-207395-198340
3554.20-209822-229312-226680-209472-216962-239206
3559.98-216471-181221-173262-186457-184079-186810
3565.77-178564-186482-205720-206551-187649-182756
3571.56-202162-210111-195428-167059-180764-219260
3577.34-213617-200371-234821-239360-198472-175782
3583.13-164131-195110-236209-243511-219833-190977
3588.91-191143-206324-217033-222741-232597-247228
3594.70-222389-215723-207685-184070-190033-197613
3600.48-183201-197104-208402-226372-217147-214926
3606.27-220901-197022-199328-201236-186465-190858
3612.05-186498-197362-207080-198713-192804-189323
3617.84-177594-216497-227481-217057-212647-199675
3623.62-192574-187661-198304-218611-232446-222719
3629.41-201115-190483-206243-197777-178061-185794
3635.20-193077-192953-191260-217310-226711-242085
3640.98-242736-224890-199498-190220-210425-217029
3646.77-193688-182890-177471-213787-231407-196066
3652.55-189420-202333-197189-205413-170959-129029
3658.34-160774-210853-217953-215300-199223-184093
3664.12-177118-174999-186525-200405-210490-211251
3669.91-219035-199586-188581-181234-194101-203929
3675.69-171026-134050-146560-143357-146801-166199
3681.48-157280-142342-146963-155509-146145-150568
3687.26-159018-134261-157437-209264-174155-139269
3693.05-150849-137873-148339-172446-178993-190125
3698.84-189318-172658-164833-177557-192526-205049
3704.62-211813-223960-233327-242200-237945-218125
3710.41-249412-255790-229606-240294-238922-244458
3716.19-233409-247282-253398-244026-267649-284573
3721.98-268687-268927-287863-283742-258436-252508
3727.76-258446-261819-272301-292709-308501-306296
3733.55-299622-301376-294386-282115-263696-252765
3739.33-279651-301120-296620-329802-376007-372264
3745.12-313873-267137-244096-319474-351305-335831
3750.90-346294-314864-270167-273206-291812-308960
3756.69-305984-291109-295416-288313-278183-280062
3762.48-279819-270672-252865-247215-272149-290076
3768.26-279176-275151-285540-285121-265058-236778
3774.05-246438-247204-266969-276218-268801-260763
3779.83-257652-255676-244778-251485-261978-265966
3785.62-252845-233508-233095-249976-237061-235688
3791.40-243862-247552-232241-221321-232231-238847
3797.19-223292-210058-217965-270784-274823-237678
3802.97-217920-212805-223247-246970-244698-242555
3808.76-238510-224539-214725-183091-194202-202265
3814.54-214833-238419-241029-235135-219764-227701
3820.33-242759-239348-221301-219071-217461-201305
3826.12-192730-212382-196521-187805-211727-202223
3831.90-197066-225272-235177-223102-236015-274307
3837.69-256449-233301-244745-237983-236703-243782
3843.47-215142-196750-211033-222067-220968-207981
3849.26-217856-254318-249839-235606-272586-260861
3855.04-234332-238454-251483-262287-234799-189093
3860.83-197320-220092-221245-235731-241293-205991
3866.61-172796-197686-249262-265294-232139-202228
3872.40-188254-200896-204534-190160-199021-207604
3878.18-202725-234949-245718-221156-225885-241859
3883.97-258252-261787-246289-246937-218564-212803
3889.76-264104-268486-215391-215849-237638-239652
3895.54-230657-206377-201063-211553-216109-232481
3901.33-237316-245629-257437-232607-222731-200089
3907.11-187432-196184-200214-201488-208693-208467
3912.90-219841-240786-226175-222170-229073-233294
3918.68-217101-203584-215533-243550-261305-252870
3924.47-206279-196533-224846-229358-209861-216991
3930.25-244239-247019-224343-200236-230665-249086
3936.04-257886-268804-254594-216583-203588-232003
3941.82-247692-237996-232533-224734-229168-229809
3947.61-217101-228140-222281-224955-243206-226223
3953.40-229797-227526-250521-273023-254321-208142
3959.18-219589-251746-234102-229079-244093-242041
3964.97-229225-220772-225536-238457-245249-236000
3970.75-236946-226771-229413-261137
##END=
