##TITLE=Hexafluoroethane
##JCAMP-DX=4.24
##DATA TYPE=INFRARED SPECTRUM
##CLASS=IUPAC A
##ORIGIN=NIST, Analytical Chemistry Division, 301-975-3108
##OWNER=COPYRIGHT (C) 2000 by the U.S. Secretary of Commerce
##DATE=00/02/01
##$SPECTRA VERSION=1.10
##$UNCERTAINTY IN Y=2.0 % relative (B=1.0E-04,C=8.6E-09,D=5.8E-12)
##CAS NAME=Hexafluoroethane
##CAS REGISTRY NO=76-16-4
##MOLFORM=C2 F6
##MP=-94 C
##BP=-79 C
##$NIST SOURCE=QUANT-IR
##SPECTROMETER/DATA SYSTEM=IFS66V (Bruker)
##INSTRUMENT PARAMETERS=KBr Beam Splitter; MCT Detector; Multipass cell
##STATE=gas
##SAMPLE DESCRIPTION=Hexafluoroethane Primary Gas Standard
##PRESSURE=101.3 Pa
##TEMPERATURE=23 C
##SAMPLING PROCEDURE=1 L/min Flow
##RESOLUTION=0.9640
##DATA PROCESSING=Happ Genzel Apodization
##XUNITS=cm-1
##YUNITS=(micromol/mol)-1m-1 (base 10)
##XFACTOR=1.0
##YFACTOR=14.551E-12
##DELTAX=0.4820
##FIRSTX=575.171
##LASTX=3974.609
##FIRSTY=1.06E-06
##MAXX=3974.12
##MINX=575.17
##MAXY=.012948
##MINY=-.0000109
##NPOINTS=7052
##XYDATA=(X++(Y..Y))
575.17 73163 188145 69870-15908 19238-140710
577.58 9360 262922 298778 42878-110737 141542
580.47 117801-1110-22206 40622-86508-177000
583.37-199936-143091 87868 181391-444-95084
586.26 114861 352415 238396 19839-162522 53579
589.15 163006 201269 148362 43027-360277-541303
592.05-207947-193276-43102 14701-68229 104719
594.94 60570 31884-39167-263253-142084 107646
597.83 31735 28602 114724 277557 171390 168055
600.72 80801-18977-89710-22341 44436 3326
603.62 24130-21603 17901 117968 92292 40827
606.51 60702 56160-96724-103733-5046 33717
609.40-20792 23425 115218 121165 118493 157481
612.29 108543-43602-78515-107544-74384-67437
615.19-92262-129930-109442-56863-47514-67207
618.08-143707 468 119167 56640 19309-21464
620.97-86629-47509 44149 9343-48269 42799
623.87 8948-42849 1626 2885-9688 62615
626.76 21822-9490-43367-62052-80877-53143
629.65-7903 25495-22103-141660-161339-65515
632.54-60469-3689 25739 24802-15033-143054
635.44-198802-85135 58567 23291-144989-129168
638.33-22588 66286 55635-14301-54919-111944
641.22-87553-43533-15536 82325 115668-9220
644.11-97535-88333-62543-5958-35074-79937
647.01-29180 15065-41879-34614-46857-68719
649.90-24789-26636-72639-21658-69081-143603
652.79-105566-14786-509-34366-95929-45771
655.69-22144-83701-107597-22500 40682-15670
658.58-158657-89500 8661-22565-51555-49690
661.47-155946-156090-134477-84195-37706-24112
664.36-50100-26649 1628-2203-71141-293880
667.26-540590-376774-211686-95588 19858 76474
670.15 33454 36926-34984-52140-140664-139836
673.04-105232-110290-204151-145857-72050-62619
675.93-67537-36612-56145-8711-120670-136893
678.83-115581-60207-39557-65549-124100-63577
681.72-83662-78657-41453-3765-40604-67532
684.61-94000 38662 11939-17205-18345-17453
687.51-55934-19901-93374-73460-45262 42190
690.40 61992 86420 76554 155006 169899 281733
693.29 305838 336218 367287 498960 626607 777424
696.18 889636 1174298 1447582 1797548 2092751 2594127
699.08 3078135 3703848 4399035 5267883 6114455 7153677
701.97 8180496 9414583 10564443 11754032 12758669 13929592
704.86 14874479 15734606 16274520 16734643 16809864 16768463
707.75 16197527 15654394 14762531 14061008 13347980 13418204
710.65 12462236 10710740 8772917 9066128 24094025 60667468
713.54 65581586 38891667 22705595 14935634 11276707 10563986
716.43 11770948 12835883 14194101 15318134 16679679 17650105
719.33 18510089 18869722 19182039 19016956 18718260 18004758
722.22 17269151 16287914 15309444 13994048 12697616 11299479
725.11 10064705 8807366 7768409 6654190 5698426 4814532
728.00 4080980 3373699 2843246 2361640 1988834 1607264
730.90 1390060 1102660 988987 853496 729675 593324
733.79 517730 394022 327856 260083 240052 191820
736.68 211164 180236 207118 120754 70909-13083
739.57 38209 47727 61848 41671 37685 17459
742.47 65265 8379-9114-40979-51649-81636
745.36-21138-4479-12376-92623-46599-69174
748.25-98020-63019-22692-19047 30900 7337
751.15 3112-60240-71762-83196-18464-38275
754.04-30877-20814-44880-69696-51249-109939
756.93-84094-103684-100228-64845 25915 5277
759.82-15027-49039-42823-51984-16176-63503
762.72-10609 1306-25533-70427-29867-47978
765.61-90162-73042 4286-15277-41310-51472
768.50-13364-32782-29466-67784-75390-60776
771.39 48 20785 12520 17593 10486 22147
774.29 30061-31901-60189-55302 23089 28817
777.18 6422-30554-52882-98365-96783-68266
780.07-19234-13322-19853-44473-55480-71943
782.97-58990-14678 7551-69551-85349-41169
785.86 30884-30812-91605-133597-121042-46544
788.75-14773-6041-18693-90782-99303-94828
791.64-73889-66195-63718-109523-117673-141141
794.54-149748-91394-22802-53908-65608-77757
797.43-80241-118215-104759-91321-46216-77700
800.32-107753-108204-74189-63474-56706-93692
803.21-147888-101421-39130-59019-73584-75522
806.11-57911-84022-73120-103066-77161-69236
809.00-40141-83983-67593-57626-64372-69371
811.89-64264-102665-93954-84586-70241-55005
814.79-10626-23722-58573-83571-107134-123091
817.68-45458-60244-138214-116064-39298-75323
820.57-129091-125376-64556-36286-45837-70030
823.46-71561-99977-92987-99594-55101-56242
826.36-47284-30969-25882-57568-97017-58233
829.25 19666-15490-1924-31969-39076-42275
832.14-17052-37989-33766-34816-62312-60711
835.03-40156-70755-65436-75136-54459-11194
837.93 40454 41407-29353-83359-81247-91601
840.82-97955-84909-64041-36104-2372-33656
843.71-92488-135552-67576-70944-98848-54363
846.61 11701-20079-78660-81723-31875-54156
849.50-44365-57203-101796-107970-77656-66652
852.39-82139-111467-103375-105347-81252-57319
855.28-81626-95998-116956-134932-100640-71167
858.18-22119-27104-68389-82942-45943-54983
861.07-100920-111975-79841-44144-6597-42182
863.96-85033-43490-20517-55984-54160-71880
866.85-78802-68842-25124-15719-40452-33760
869.75-33613-71808-44503-43412-28327-49887
872.64-54483-52682-8043-7016-12087-24263
875.53-33670-43901-43959-6046 5307-49374
878.43-68253-81231-49152 1019 9948-35556
881.32-53969-50135-51268-56303-34502-29029
884.21-36482-5980 25883-51517-98222-37578
887.10 33163 40088 14334-32173-2521 43040
890.00 39179 13838 44285 12960-22054-15228
892.89 49423 52597 48373 31650 44381 72373
895.78 57043 61430 64560 35056 43949 62508
898.67 59735 49717 81098 63445 11346 13360
901.57 45749 78889 120336 72817 40302 51319
904.46 89334 79633 63011 39960 28295 5410
907.35-155-19589-6666 14341 24590 17818
910.25 6518-29455-44187-50647-46992-47038
913.14-29006-4258-20153-69772-68386-53608
916.03-52319-78909-83469-66105-54745-103102
918.92-98459-57221-59712-97378-87049-70233
921.82-74274-95609-78433-61016-93400-124137
924.71-140482-114173-87600-86243-81048-112763
927.60-89000-60138-52149-68507-49209-65681
930.49-81330-79012-65743-66983-78716-94196
933.39-74972-103268-129276-114393-92734-69274
936.28-55118-80144-75627-73229-79514-79387
939.17-64679-72632-63422-73217-65675-67509
942.07-57917-63545-83621-100314-117766-112428
944.96-80230-66603-83996-92408-82185-93422
947.85-82071-58321-80866-105131-98490-93009
950.74-80399-90764-79684-78093-90662-86289
953.64-74891-65307-43681-46948-67097-84677
956.53-71243-90963-122352-113383-85049-94171
959.42-90498-113979-138314-101916-82568-107736
962.31-99963-102902-109460-100853-93270-89621
965.21-76416-101713-124481-133001-95707-75146
968.10-71532-66085-81427-124793-130579-113628
970.99-84705-94939-107723-120989-121913-124975
973.89-115556-110154-110260-89965-74638-91059
976.78-85104-76599-76170-75266-81125-61047
979.67-49027-67960-60880-78869-85085-47828
982.56-36474-70186-94602-81677-54118-45921
985.46-61663-76591-42264-19553-35992-49866
988.35-35726-52250-61057-53111-36212-20267
991.24-30915-46726-46410-42516-51265-40480
994.13-29020-12373-5913-30216-36480-42335
997.03-34916-19222-17552-18403-18836-13192
999.92 24075 30785 14138 5359-17998-22768
1002.81-27943-12401 30835 26235 20896 39899
1005.71 47639 55895 68431 45268 44939 69418
1008.60 60848 50344 50579 74919 98925 101679
1011.49 117222 123397 111118 104765 96893 106791
1014.38 144974 169537 158204 147579 162360 175434
1017.28 186341 188029 170395 136949 151792 166982
1020.17 179569 216675 270188 295348 307005 348024
1023.06 381225 384825 378763 348651 320576 335163
1025.95 326155 312733 318937 322727 302475 298230
1028.85 313543 283864 262479 253699 239415 242369
1031.74 277293 269239 235237 241870 243758 247928
1034.63 226486 162223 163360 164484 145643 108649
1037.53 98213 112366 114404 87049 69602 44419
1040.42 42271 41868-15261-43285-11046-7897
1043.31-47057-51006-15007-8991-26746-30889
1046.20-20020-3973-43342-41938-17441-31277
1049.10-23504 7357-3564-13052-5340 12218
1051.99-12765-6026 8810 30081 17173 10490
1054.88 10410 7435 6393 41845 28430 38013
1057.77 77470 94016 65652 39270 32896 78486
1060.67 124183 192945 170966 135442 108879 106242
1063.56 123590 110075 78672 71704 71947 68098
1066.45 81249 82510 58466 86142 88244 76453
1069.35 77028 106624 107915 82083 54689 74607
1072.24 62709 48348-8537-27310-48534-25117
1075.13-16710-38623-66271-52905-59896-26165
1078.02-30210-28848-10197 38953 9870 25761
1080.92 55268 58633 46012 93356 107885 176789
1083.81 211730 260124 290633 388583 441937 539799
1086.70 643283 805498 908820 1040001 1162832 1354578
1089.59 1543269 1759991 1970950 2257014 2503715 2799674
1092.49 3109724 3449453 3775785 4210191 4688769 5256444
1095.38 5880823 6754299 7743948 9013185 10516026 12441339
1098.27 14774662 17711834 21129292 25237276 29736803 34455281
1101.17 39143010 43573531 47081340 51199653 57056149 63900034
1104.06 70880288 78030245 84947452 91680829 97767597 103164640
1106.95 107549235 110988372 112898775 113590969 112921252 111312503
1109.84 108788037 106310856 104372513 104463155 107446246 116223470
1112.74 132235107 156500859 190104194 231561580 265176671 285259245
1115.63 287486098 234032447 125373462 61433412 62962293 77664180
1118.52 93876748 110007067 126027436 140038713 152217651 161195141
1121.41 167233713 169306145 168057299 163105573 155335565 144819132
1124.31 132696963 119083008 105025797 90720181 77131291 64295114
1127.20 52863988 42704858 34223551 27078368 21539918 17114360
1130.09 13922609 11484075 9949922 8808219 8154275 7637099
1132.99 7420101 7177905 7116310 7003835 7049999 7067212
1135.88 7352704 7759113 8692118 9874169 11233142 11990815
1138.77 11441339 9181504 7085114 7234006 8833182 9163103
1141.66 8099158 6691268 6163216 6338746 6899465 7385616
1144.56 7885763 8126211 8293616 8245954 8126966 7812450
1147.45 7517888 7017547 6534012 5960203 5430280 4781168
1150.34 4248886 3710933 3270530 2767625 2397890 1971911
1153.23 1642470 1342794 1188679 930922 766304 569812
1156.13 493214 369615 350787 265621 250480 180142
1159.02 198222 128941 143591 108321 132860 74038
1161.91 129138 113291 134513 92356 135384 92577
1164.81 130803 83644 123732 92664 129764 126082
1167.70 198853 172882 190915 148486 173651 149634
1170.59 198280 157690 203879 177066 222281 199587
1173.48 258844 223533 240880 197771 246678 227575
1176.38 275073 246189 322471 304521 325434 284158
1179.27 354457 351839 392535 376970 440138 446979
1182.16 499559 470308 549233 537214 579538 610322
1185.05 706504 674215 746544 761243 843738 850889
1187.95 924047 954948 1077787 1097400 1228324 1287318
1190.84 1401249 1467289 1638140 1700050 1849760 1951933
1193.73 2152001 2283018 2488656 2595726 2811422 2997959
1196.63 3271645 3446880 3686993 3861641 4149369 4355957
1199.52 4627248 4795200 5024364 5197986 5449587 5546449
1202.41 5693222 5761580 5891524 5928816 6042703 6077890
1205.30 6181563 6077803 5985262 5756824 5551547 5130179
1208.20 4683307 4126389 3768079 3439545 3253882 2992639
1211.09 2855016 2640328 2550708 2337989 2248658 2090147
1213.98 2028531 1873921 1848595 1717409 1699141 1599481
1216.87 1621000 1544357 1589422 1521451 1590469 1552323
1219.77 1659531 1658097 1797856 1836107 1990528 2023105
1222.66 2196087 2280062 2554211 2689390 3006708 3251927
1225.55 3702802 4068505 4653489 5175531 5974580 6779178
1228.45 7902968 9036802 10580719 12245707 14346442 16631810
1231.34 19500281 22623005 26454911 30661568 35707953 41306036
1234.23 47973588 55382648 64091269 73692744 84720592 96816889
1237.12 110662694 125862684 142996916 161511200 182261679 204933657
1240.02 230333794 258054478 288716346 321411004 356879209 394344516
1242.91 434407382 476024581 519754190 564428856 610760671 655554341
1245.80 699907538 740607354 778578807 812079958 841536568 863751127
1248.69 881472376 889816233 884974477 874460402 860061177 843524241
1251.59 818483268 784467442 742517601 716040515 707269302 670012328
1254.48 591472757 508773100 457370799 415321855 360832883 312671740
1257.37 273312425 239847581 209712430 183169799 159117910 138127256
1260.27 119182044 102750754 88008137 75406192 64149399 54654465
1263.16 46187359 39063693 32693872 27479001 22853632 19106986
1266.05 15756611 13143328 10790311 9006873 7366954 6184231
1268.94 5067146 4303530 3557725 3095028 2579600 2317702
1271.84 1964203 1796061 1555032 1481385 1313858 1297651
1274.73 1173849 1184507 1061992 1051593 947924 965956
1277.62 882398 912095 850570 874138 812808 844329
1280.51 750053 775630 730669 776944 732576 754103
1283.41 709947 738414 694389 738403 688817 743215
1286.30 696317 716679 691660 747772 722595 752965
1289.19 729939 774299 756558 805191 769244 839071
1292.09 833972 874008 847566 901837 901533 957626
1294.98 958297 1027429 1006301 1057136 1089017 1174853
1297.87 1181251 1279188 1335320 1432168 1478324 1592834
1300.76 1677142 1831493 1921134 2046936 2135551 2285428
1303.66 2386390 2526103 2623782 2772705 2832897 2966314
1306.55 3085868 3253017 3354857 3520039 3653262 3828027
1309.44 3949752 4133739 4303696 4512539 4671152 4865282
1312.33 5031441 5241692 5420128 5645471 5826966 6036929
1315.23 6201263 6419809 6602818 6813095 6994198 7234730
1318.12 7437291 7633521 7792178 7971159 8107634 8285953
1321.01 8417865 8563612 8645140 8792772 8919196 9054443
1323.91 9166959 9305011 9398949 9489150 9529679 9606929
1326.80 9648724 9665246 9594863 9547500 9459591 9419430
1329.69 9333630 9262792 9196134 9136749 9011836 8904465
1332.58 8750133 8624365 8453926 8287973 8081161 7878585
1335.48 7617968 7413508 7197531 7000344 6778659 6591824
1338.37 6398582 6246083 6046751 5870353 5675633 5503570
1341.26 5279015 5088958 4876559 4669542 4454006 4268717
1344.15 4065568 3902059 3701761 3512703 3319813 3174653
1347.05 2957115 2788640 2643684 2507074 2320374 2159951
1349.94 1985737 1839787 1672843 1555349 1417597 1290141
1352.83 1172732 1070009 976169 949140 859439 784618
1355.73 730190 691832 626188 581891 509763 439878
1358.62 359463 320143 277406 259324 196120 188416
1361.51 148686 114419 106360 116345 85822 104027
1364.40 74796 50079 43361 52435 28930 29899
1367.30 33715 50659 29519 35676 25510 18875
1370.19 9953 25924 12468 14877 2513-14012
1373.08-28281-9135-14292 3325 5326 6753
1375.97 13026 25231 8489 1716-21987-16540
1378.87-27174-6918-7001-12210-41338-57874
1381.76-67671-64046-75823-50635-44373-45403
1384.65-68693-34667-14354-11906-51710-54225
1387.55-49461-42582-43841-39723-36830-32885
1390.44-59325-49653-46374-55976-81691-64301
1393.33-53044-43177-44736-30227-54233-65987
1396.22-65053-46925-55324-48933-53733-38266
1399.12-54671-97057-122182-73900-46689-50237
1402.01-63441-45933-45784-41018-55022-79410
1404.90-87614-55749-50480-44771-58415-61946
1407.79-80056-74490-90380-78040-87900-89467
1410.69-94168-104090-117342-84827-82475-71870
1413.58-81589-84196-90979-87132-93187-88604
1416.47-82016-84396-109616-115992-130564-135849
1419.37-114347-72667-82891-69918-69378-53436
1422.26-74075-70696-73528-58826-49784-48755
1425.15-63878-85354-163909-160756-76247-8201
1428.04 19895 56689 65906 75002 71849 80899
1430.94 87383 116424 144344 152115 152700 179646
1433.83 191422 216383 217293 253304 256378 250194
1436.72 283088 332900 335743 352836 366576 386789
1439.61 404430 411566 395690 403392 408281 425813
1442.51 418880 424233 423949 422518 432527 446229
1445.40 453837 477294 499289 507443 492375 500602
1448.29 496942 496694 502279 524111 520712 514667
1451.19 518599 552325 555623 541148 518541 526994
1454.08 520007 470685 440842 451162 400939 373940
1456.97 417198 434066 407959 418247 408275 406572
1459.86 422695 420979 408097 416403 411749 414216
1462.76 398371 395408 384827 361150 353158 365078
1465.65 353379 359569 338958 326412 305984 299658
1468.54 285695 261710 237105 245682 226417 201462
1471.43 151356 147053 142849 105965 98047 106313
1474.33 95953 87169 61514 33589 1433 18593
1477.22 20169 17480 24720 20791 638-6097
1480.11-19468-21933-35348-43055-56716-52845
1483.01-38868-30388-57980-51164-58214-63200
1485.90-62447-51566-70350-59489-53404-61916
1488.79-72989-97852-106506-84870-69893-57220
1491.68-42596-17136-36483-48571-51457-55976
1494.58-72285-58556-109787-122132-90585-86590
1497.47-101169-112362-109208-91044-108015-98095
1500.36-79693-91180-105116-93798-102256-108561
1503.25-97587-93759-117802-154715-160879-121931
1506.15-136442-147873-111067-83682-93403-90600
1509.04-99688-99639-90529-90170-79782-63870
1511.93-71567-62786-58922-49232-58997-67868
1514.83-85318-102263-120339-112687-110895-86891
1517.72-53629-26536-3197 17416 9136-28361
1520.61-130723-161076-116782-102616-104474-81258
1523.50-75614-75533-97058-112273-90910-59719
1526.40-64091-65991-73460-80949-94834-86562
1529.29-82537-83883-105781-108235-109552-97301
1532.18-100777-109238-128504-122731-117516-112354
1535.07-110363-109515-115670-126673-113396-94549
1537.97-136943-203722-185154-165682-194175-154857
1540.86-129615-139442-145102-123413-127245-123017
1543.75-117151-110560-122121-94778-81361-84778
1546.65-91651-98924-103503-97235-98931-98566
1549.54-110441-98685-87994-84855-88596-71018
1552.43-57196-77272-105898-128670-128891-93497
1555.32-78345-87964-94981-107299-124702-151187
1558.22-167135-123661-136372-163859-141676-103876
1561.11-110933-97205-76387-64664-84835-88714
1564.00-99998-105554-104073-87018-81396-76545
1566.89-87130-80870-74287-86959-113105-130092
1569.79-120022-101566-111971-121594-124536-104186
1572.68-89073-79699-83547-66816-85932-131169
1575.57-177768-143253-92021-77744-76209-70181
1578.47-82443-84009-84814-77472-64309-54899
1581.36-81299-100552-90999-82057-72075-57436
1584.25-50672-22363-1934 12470 17788 19544
1587.14 22888 32706 41157 54678 71302 105856
1590.04 116156 118713 128829 165279 209080 246169
1592.93 266501 300185 329540 362946 389850 417719
1595.82 452292 478760 497435 511031 520468 530335
1598.71 527256 509452 499646 494499 476106 472848
1601.61 481289 500444 484430 463586 445528 417081
1604.50 370216 335161 302141 284681 277583 272452
1607.39 264128 258652 247857 253612 251580 263931
1610.29 291887 307207 304131 322486 335796 349284
1613.18 359248 369867 378805 409993 429961 425325
1616.07 380000 409506 495947 543934 564809 598461
1618.96 627008 660609 676951 681512 712031 747974
1621.86 738193 733359 755589 782746 797148 824270
1624.75 846171 863675 878856 893514 902642 897709
1627.64 910075 951657 986300 1005057 1003879 1012184
1630.53 1014500 1038197 1047482 1045821 1033410 1020150
1633.43 1016782 992114 913096 826089 770814 757410
1636.32 743898 713375 670544 654469 634784 625062
1639.21 621218 623756 604633 577163 572533 574492
1642.11 541415 507232 457651 426611 377819 336353
1645.00 292154 246330 250086 235635 178932 142674
1647.89 125023 115123 94615 89244 73088 57412
1650.78 29414-13908-100500-131849-141772-102288
1653.68-59046-71378-72349-65337-70876-67176
1656.57-61089-68573-72469-72226-82445-82865
1659.46-85906-89650-105481-115547-127034-126176
1662.35-135625-138725-124455-112612-107372-107649
1665.25-110920-118514-127424-115578-114517-133447
1668.14-148403-150102-124983-90995-94652-100900
1671.03-127074-137678-126460-110371-115390-109050
1673.93-98414-113531-144060-114328-92903-95771
1676.82-89193-80384-89584-88909-87405-80661
1679.71-81951-89386-83902-77936-85642-86979
1682.60-101383-103260-113774-174402-171242-96034
1685.50-71021-50507-46957-61213-60801-50397
1688.39-58940-54192-45583-38393-54024-52332
1691.28-43078-35034-45789-42948-46880-48639
1694.17-63517-72132-119317-122815-58126-39252
1697.07-37717-31594-29258-29724-66295-114213
1699.96-114901-68144-21714-3227-10100-339
1702.85 5704 3146-4552-8726 2177 22927
1705.75 28022 44498 53847 50730 55956 72832
1708.64 80345 89633 95130 111982 139226 156902
1711.53 147686 147733 155894 174834 183587 193878
1714.42 202905 225995 241738 250114 239609 212860
1717.32 259057 315092 338111 360858 385688 408418
1720.21 400495 415922 452885 482566 483142 488556
1723.10 494977 516085 529159 543548 579438 594927
1725.99 604282 613656 612577 626313 639559 662650
1728.89 676155 697250 719795 733768 741114 724211
1731.78 711792 692037 633777 644465 650332 627658
1734.67 647360 659924 647650 634612 618417 593796
1737.57 583936 578990 548263 515106 495441 505662
1740.46 499432 475563 460162 431610 397635 386288
1743.35 368706 357772 361865 352000 323968 305736
1746.24 287888 256945 230023 206347 185663 197626
1749.14 190459 165571 144730 111125 86045 107143
1752.03 112901 98011 81093 69532 44811 34768
1754.92 28105 24558 26575 13623 4483 13812
1757.81 18429 8073-2524-8829-16013-30030
1760.71-49730-60799-57948-45766-48891-44331
1763.60-55488-67303-56882-44547-47636-56312
1766.49-62990-70243-77934-59631-53475-61123
1769.39-74111-82276-62917-67497-79067-101537
1772.28-118535-89171-77967-74435-87841-101994
1775.17-100844-86773-85842-83361-94696-104021
1778.06-103014-107229-90840-85444-104939-101760
1780.96-93672-99586-116507-130467-123388-114055
1783.85-115225-123600-138630-130776-116914-126303
1786.74-143962-148252-135706-128806-128186-114148
1789.63-122436-135058-143179-128640-145008-186602
1792.53-174659-151263-137684-118709-116412-134761
1795.42-154763-144655-137147-128868-124226-125340
1798.31-132405-157972-171345-152723-141327-126517
1801.21-120004-113694-116440-131460-132378-141286
1804.10-156912-140805-118102-117090-133067-126018
1806.99-111527-106464-115656-137424-142124-132346
1809.88-131311-129198-136451-143496-128143-109805
1812.78-130642-134220-123189-126804-146247-143567
1815.67-132719-127033-127169-111374-109726-114472
1818.56-111222-106053-116983-126691-111290-98964
1821.45-91187-80146-96447-93011-77552-88664
1824.35-118804-127917-105719-87625-85681-100526
1827.24-95017-72372-70171-77552-118495-150253
1830.13-127002-80573-56775-67621-95042-102695
1833.03-84820-72646-77808-76715-73724-83690
1835.92-77984-66051-70722-74411-79996-70070
1838.81-69985-87595-85016-65938-57468-58335
1841.70-64500-52261-47608-67350-96514-61116
1844.60-15768-2268-5670 4082 2504-2015
1847.49 8762 37483 51229 69121 77991 80242
1850.38 93683 128497 151206 165743 182749 195437
1853.27 219519 249137 270716 273654 279750 302061
1856.17 321304 343834 360176 369720 388157 421840
1859.06 439754 451724 460996 470822 483199 487429
1861.95 491674 506260 525731 560032 597303 633185
1864.85 662915 678491 676610 696648 726973 726103
1867.74 701681 674909 634956 594914 549363 536237
1870.63 512980 484914 472489 456805 422339 395358
1873.52 393667 411158 421311 403316 375524 363407
1876.42 351797 348576 333184 297806 273375 264698
1879.31 233526 193754 169609 149463 120123 90970
1882.20 49099 40153 39610 39599 18729-14950
1885.09-24993-29569-55207-68107-76838-96665
1887.99-102913-102956-108014-107309-110425-120522
1890.88-122411-116005-120894-123433-120788-123279
1893.77-132058-130074-137543-140227-146925-130321
1896.67-119282-121485-127288-131672-137127-142267
1899.56-144553-137235-120104-129195-136066-119535
1902.45-121148-129300-145918-143383-119261-106900
1905.34-97468-96427-106823-101956-92817-85230
1908.24-79734-77185-89113-92379-61311-48823
1911.13-61292-48096-47226-51946-42598-19048
1914.02-19091-28368-26648-31721-29642-655
1916.91 2598-8101-408 4972 15111 39174
1919.81 52525 54743 71001 90400 98218 85406
1922.70 57919 32701 20082 29631 40054 54468
1925.59 67953 84965 103855 125964 137181 129869
1928.49 152908 162039 150535 152522 120572 113019
1931.38 100495 91791 96859 100190 97499 113742
1934.27 133975 136553 132640 144716 147739 170795
1937.16 199187 225454 195065 135766 95093 92484
1940.06 97135 109549 119255 150163 174931 181444
1942.95 189281 203909 210761 220987 214819 200358
1945.84 197315 200951 183507 172329 160866 152382
1948.73 160013 160358 140930 139987 148190 151805
1951.63 163415 175118 175074 179132 202613 207873
1954.52 184449 170142 171883 153454 131209 128392
1957.41 154418 220130 287979 366015 343587 229805
1960.31 159149 105617 69710 50344 34574 33432
1963.20 34542 43011 51599 26528 16088 32041
1966.09 26682 6025-2698-1908 231-6340
1968.98-38259-68158-59065-40220-48773-59466
1971.88-70823-75280-88857-95255-88717-87648
1974.77-92388-97228-111490-134282-120840-87504
1977.66-97886-92756-102158-116255-118852-110401
1980.55-111106-130335-141538-126327-109380-104890
1983.45-126421-123497-99883-95522-114280-119295
1986.34-114273-122740-126806-119646-115692-130742
1989.23-131375-117808-101197-101396-123516-122758
1992.13-113873-128606-125649-112125-124292-137872
1995.02-129808-106548-109895-115103-119402-125615
1997.91-125290-118730-122608-121931-118971-125700
2000.80-124110-133025-134931-124025-117165-119628
2003.70-125639-113125-107713-103889-102341-104697
2006.59-107673-119286-119133-99880-113143-128657
2009.48-136828-131507-123932-130094-125740-124235
2012.37-128433-136683-129532-120110-130724-126369
2015.27-117922-114460-120780-121583-122801-130742
2018.16-123975-118174-129236-141415-127646-119855
2021.05-129346-140308-139270-129824-111287-113537
2023.95-123310-123657-147249-140268-133649-133010
2026.84-142708-145320-137512-112064-101516-114508
2029.73-117768-116400-120485-106685-101998-104863
2032.62-100289-101088-107918-102029-93404-70224
2035.52-53765-52593-44801-17988-9232-1600
2038.41 19828 42310 53905 86003 120036 138411
2041.30 178016 225758 263671 308499 363546 423522
2044.19 486551 552737 622855 708142 789391 863560
2047.09 942881 1033315 1108772 1185031 1271020 1357494
2049.98 1439697 1519153 1591407 1653859 1688680 1712341
2052.87 1742371 1762190 1744910 1707340 1674893 1642284
2055.77 1582628 1497294 1399315 1307666 1227743 1159009
2058.66 1070175 963520 816329 670532 572930 502546
2061.55 425109 351623 289582 246729 203835 153199
2064.44 108955 60573 18395 8208 6618-19100
2067.34-64433-69850-70645-80435-83655-89460
2070.23-107250-121675-126983-125756-124204-129369
2073.12-132780-128856-131373-135394-142404-130069
2076.01-132672-137448-118536-124451-157351-157771
2078.91-154034-151719-149355-145974-133668-120687
2081.80-119361-123156-123388-120535-129289-148864
2084.69-138275-129046-145299-139643-142017-145773
2087.59-151561-153077-152885-165402-141557-117313
2090.48-131535-143874-136549-121865-115089-127859
2093.37-151325-131969-103977-120217-141791-158769
2096.26-160731-138438-138082-142105-126638-109888
2099.16-131146-135428-133211-140539-136072-136804
2102.05-121694-89968-106041-125468-116360-117496
2104.94-127621-123329-123384-116953-95106-117829
2107.83-130812-121179-109299-118310-145264-149489
2110.73-112483-88919-102540-102599-111129-107162
2113.62-107255-123162-114308-84818-90792-95034
2116.51-102047-105422-100439-100762-75529-59554
2119.41-76912-92002-92709-101016-107469-94984
2122.30-81337-55112-25915-30943-44808-52332
2125.19-60864-75182-87734-66634-28263-38167
2128.08-80112-88128-66931-51653-60278-71548
2130.98-53814-55768-76173-57590-44680-56961
2133.87-40450-26102-35362-54790-78114-69966
2136.76-57753-64694-71515-58858-51599-52778
2139.65-60558-88008-94866-71320-77859-103194
2142.55-107160-92668-84267-69429-66891-79757
2145.44-86511-91422-114903-127072-114245-110999
2148.33-104658-95133-111976-119216-110360-110141
2151.23-122932-120602-116047-119743-115026-102064
2154.12-104087-119034-124002-129241-154829-143820
2157.01-136356-119664-105298-117676-133540-150820
2159.90-146316-133563-128235-117328-140687-156674
2162.80-143946-129826-120490-120590-107349-94723
2165.69-129576-150882-129374-127366-135147-105395
2168.58-78907-100319-137335-151422-146394-130201
2171.47-114846-95207-87793-114182-134593-141125
2174.37-144073-140330-134087-114470-125952-140001
2177.26-140340-129231-130875-122598-93140-108877
2180.15-134598-127267-148070-171742-146377-114021
2183.05-119134-129238-138531-148541-149728-149962
2185.94-129086-124888-149915-165353-164221-154544
2188.83-155166-139783-131513-130147-127673-150018
2191.72-168499-171505-170556-167485-165209-172730
2194.62-185046-190493-199942-201847-185616-184269
2197.51-189975-210439-218429-220474-236531-262086
2200.40-277495-286527-306772-300119-285922-296645
2203.29-307641-312466-303014-317047-340526-351067
2206.19-362870-374085-376313-401581-421483-416420
2209.08-406195-425374-448161-449351-452960-460963
2211.97-466451-480981-488113-498268-492768-484336
2214.87-498482-515437-511345-515430-512497-498085
2217.76-501171-511792-521066-501538-482607-481126
2220.65-490482-486758-480177-463005-449561-464410
2223.54-478802-490896-505585-517264-539584-574837
2226.44-606348-630805-686456-716541-723978-746676
2229.33-762753-758519-759145-750727-729098-699486
2232.22-646778-509354-297563-151270-228194-361966
2235.11-417062-442675-474066-498862-518121-543924
2238.01-571060-575156-574289-583614-604420-627513
2240.90-615815-596661-587951-589683-600725-595147
2243.79-603233-614927-613088-602228-601443-610920
2246.69-605704-595796-596650-598114-585296-546788
2249.58-526126-539231-530268-511842-493215-474812
2252.47-453900-426468-405278-381325-363267-340157
2255.36-315809-304338-299737-300926-280181-266242
2258.26-252884-233178-220547-218258-213199-214295
2261.15-220259-203642-189929-193202-194455-182449
2264.04-187599-195795-202486-201815-184952-174836
2266.93-175316-173576-167208-164892-183146-191896
2269.83-188645-182320-163265-175272-186357-178070
2272.72-173512-179187-200046-197116-192212-199548
2275.61-196169-208887-230443-215073-203875-199854
2278.51-186323-166683-157471-158575-170425-182990
2281.40-198839-217671-211247-193459-192621-177839
2284.29-171520-183926-196062-188441-170984-182490
2287.18-196782-195304-200770-202522-194369-172164
2290.08-164252-171468-171748-192901-210442-210841
2292.97-211473-214118-209208-192939-180042-173491
2295.86-174734-164189-146056-129320-133724-152184
2298.76-140888-128513-135047-156773-157547-148344
2301.65-144094-157357-156815-171116-162029-169455
2304.54-167557-118941-98767-137765-177461-171740
2307.43-151314-153880-178394-179286-168956-171452
2310.33-198411-205831-160533-147055-179546-224297
2313.22-186994-152263-177033-233620-171617-126865
2316.11-153118-243247-216009-166399-183364-281630
2319.00-239914-121568-142861-285312-267235-147754
2321.90-166645-312568-285764-130067-140847-300406
2324.79-266707-89105-142741-337369-261318-61524
2327.68-147437-324060-209959-25500-154291-293934
2330.58-110908 23302-176915-237384 25429 68582
2333.47-165098-109130 159892 93134-107944 86400
2336.36 307246 139643 93429 376026 399688 226621
2339.25 394047 652697 569585 544080 811389 868865
2342.15 735430 834588 924025 726247 659794 852113
2345.04 908350 911541 1050124 1113946 1065295 1054699
2347.93 1052075 1016493 959509 921624 941952 947053
2350.82 916091 998928 1062528 976377 1004209 1073666
2353.72 884216 826342 919069 762076 754124 912205
2356.61 767139 815632 941701 681553 571765 477336
2359.50 67807 65214 83985-149231 7121 4337
2362.40-138604 53220-68363-107308 44628-136011
2365.29-65690-51917-156656-40662-163623-153048
2368.18-102818-207461-133412-193260-172298-164414
2371.07-212355-149942-189998-152321-168863-170536
2373.97-187428-214615-190280-178735-136359-138277
2376.86-143116-148234-134834-131518-105615-98773
2379.75-97528-78077-78974-101423-97884-100838
2382.64-97960-75363-76813-87443-93587-86310
2385.54-83629-93537-105732-109719-115234-117998
2388.43-119323-128268-142641-144534-138765-130508
2391.32-121735-131797-131961-121664-127591-141832
2394.22-143018-124730-130437-133718-124335-117294
2397.11-139161-137965-131081-124937-108603-102203
2400.00-112306-129868-140692-133606-124981-131087
2402.89-150350-153644-133128-114629-125988-143128
2405.79-154636-157078-140675-139197-154127-147827
2408.68-128573-132979-140728-133527-142915-152640
2411.57-138706-117641-134269-155510-135053-125290
2414.46-125167-128700-152904-145384-120171-134006
2417.36-143786-123150-119742-114838-114228-124870
2420.25-124802-113615-104694-105159-115702-131052
2423.14-123221-101591-88237-92301-81901-74852
2426.04-95195-96717-83776-87136-90584-107877
2428.93-117355-109315-89458-80004-71672-71013
2431.82-65041-55905-64761-61537-32037-32379
2434.71-52695-50534-48306-49417-40464-29998
2437.61-9286 1682-22265-20049-6259 6437
2440.50-6787-23823-3883 26348 23228 22766
2443.39 43087 66405 78028 66658 49407 62181
2446.28 89799 108705 108290 117526 139238 147069
2449.18 154778 166409 170077 176211 201000 228796
2452.07 242136 236323 223971 254560 294150 310394
2454.96 329492 353307 375561 376775 381278 414456
2457.86 412503 412001 440655 442022 430009 451148
2460.75 458923 463666 481971 487697 483325 490278
2463.64 499778 494294 488763 496939 492991 496553
2466.53 509875 482783 463285 483691 486646 479663
2469.43 479047 478723 472697 454589 434589 408955
2472.32 373572 338691 320833 313900 303373 280410
2475.21 236461 187023 145727 90211 34261 2964
2478.10 19547 46686 21063-15660-57205-83398
2481.00-87145-100638-123299-130599-143334-155655
2483.89-152051-158739-183503-210047-236212-231498
2486.78-225244-226372-221076-220766-241898-260096
2489.68-261795-275074-292837-284946-293076-312675
2492.57-306022-311525-342589-368835-378832-393994
2495.46-408544-410714-417174-434673-438507-466468
2498.35-505253-515987-511254-514368-507305-525582
2501.25-539909-548067-580101-602516-594958-619386
2504.14-651077-633555-627331-628487-641356-681053
2507.03-714329-726657-708848-687161-701207-715495
2509.92-707496-681991-703561-733478-696192-689949
2512.82-699724-675540-648240-613179-609317-612114
2515.71-611273-607862-586553-548713-530055-490482
2518.60-443023-405671-382513-366055-357011-329320
2521.50-299216-275039-251764-230783-210156-199204
2524.39-188335-161208-128945-101612-93455-89789
2527.28-75829-51018-33428-17082-5428-4755
2530.17 13295 42906 46711 39075 34947 45150
2533.07 54061 26773 3044 16746 12504 12958
2535.96 10980 13997 20024 26249 17391 8281
2538.85-12175-7883-14449-45096-53552-35840
2541.74-48951-63666-58846-55107-78027-132093
2544.64-131083-89148-81171-88555-84513-69429
2547.53-70173-69683-72893-66445-82968-99694
2550.42-83945-67757-72571-66120-74780-82229
2553.32-82636-98839-97098-70850-72275-75046
2556.21-75866-96103-98813-78197-89788-107762
2559.10-85880-55344-54273-55692-74396-94026
2561.99-79345-65764-65699-79993-82511-71472
2564.89-87516-114364-115347-95296-104038-105181
2567.78-92746-82905-69093-70527-69837-70275
2570.67-63302-62491-67011-68843-93575-92016
2573.56-71402-75169-75991-59409-54063-66247
2576.46-97664-101796-67572-52658-43816-51751
2579.35-91869-117518-95229-77626-93466-98923
2582.24-82874-87428-107590-103604-98639-99809
2585.14-100723-97652-84457-90815-123041-114502
2588.03-104586-111977-141710-143229-137524-133366
2590.92-127032-129579-127272-110152-109929-135284
2593.81-140991-128491-140186-144568-123970-131050
2596.71-132790-114589-118422-134626-137416-117725
2599.60-119005-131537-134331-146887-148930-140886
2602.49-148683-156405-161248-151848-153370-165359
2605.38-166197-169358-177875-178951-175354-145855
2608.28-148088-166539-166146-153172-145007-133607
2611.17-153047-178776-158523-146196-157674-152465
2614.06-167373-192438-189964-165987-176288-179429
2616.96-148480-125150-142931-153562-163603-174045
2619.85-182699-183469-172438-173057-172890-165460
2622.74-175861-176464-143070-139027-160930-163572
2625.63-167244-168943-154028-170083-179313-172216
2628.53-181514-191711-187941-169896-155163-154962
2631.42-155811-170398-189503-183713-160191-149049
2634.31-150939-157516-161411-139333-133490-130619
2637.20-133319-131491-135540-156269-178975-148319
2640.10-98741-69923-44730-53219-79042-67338
2642.99-52668-61872-70458-58268-49374-43800
2645.88-21560 20574 45732 62657 66740 91329
2648.78 125036 139893 156191 167248 194349 239819
2651.67 266194 278802 293769 332676 366888 399218
2654.56 438157 473658 523876 550602 560318 576422
2657.45 604665 655190 678861 709482 749614 784732
2660.35 816854 840049 851346 849602 861157 887544
2663.24 898679 881222 852012 848143 845971 841493
2666.13 841019 814265 782417 769436 765296 753578
2669.02 727407 678630 626854 586640 568690 536303
2671.92 486034 453672 419161 397070 372151 332252
2674.81 302792 296629 290121 272655 238060 208355
2677.70 178568 146221 110377 74387 26152-5543
2680.60-17228-41028-56197-67616-107731-117207
2683.49-119187-109153-140363-181610-194573-170479
2686.38-148199-153736-171175-174630-185033-186397
2689.27-185594-177278-171442-179990-186424-184455
2692.17-166617-158699-165780-168005-181024-199056
2695.06-189917-190724-192823-181694-171919-150050
2697.95-157387-183746-181495-177969-176808-168049
2700.84-166476-177551-172553-163975-149700-134815
2703.74-131041-105779-116037-139249-137561-140283
2706.63-146764-134156-114849-121958-140802-147429
2709.52-158649-150383-134169-149186-146377-119687
2712.42-128425-142479-130399-124421-137192-137799
2715.31-131837-112892-101699-104272-104964-122364
2718.20-144149-148113-124981-117171-147567-170891
2721.09-158170-130712-128835-132507-140765-144564
2723.99-129314-118455-118339-133903-145571-134771
2726.88-139339-134295-143311-145947-141869-149418
2729.77-148627-158666-172991-149309-118225-123274
2732.66-144989-144296-114307-114065-139591-118509
2735.56-106167-118349-148403-165912-175381-163107
2738.45-139955-142303-133445-106828-119886-129288
2741.34-131810-136964-158456-151302-144568-143341
2744.24-162531-153080-126813-126289-133962-140566
2747.13-130196-125228-134683-137866-142748-141212
2750.02-131032-143958-176616-155368-137553-158262
2752.91-158438-151493-153838-161978-162214-168764
2755.81-180614-159033-146815-164138-155973-132444
2758.70-129269-147773-175356-189175-161907-143320
2761.59-145005-151708-161404-141976-119689-139394
2764.48-183051-176045-171173-165605-157928-159189
2767.38-155695-154708-174993-192990-199519-186534
2770.27-154419-149238-156744-147148-164191-173917
2773.16-162982-167301-152744-141244-159367-177252
2776.06-186519-183339-180398-172975-166421-187668
2778.95-170170-155673-167105-162876-162053-172647
2781.84-180184-179573-172966-159145-141396-124879
2784.73-124415-147040-180717-190822-186945-166405
2787.63-149031-160633-173556-192271-184791-170137
2790.52-173610-177949-184439-152865-140069-161428
2793.41-150863-151803-186903-183892-160637-161031
2796.30-159619-174577-178503-171436-167468-173213
2799.20-182465-178303-170756-173972-180477-183901
2802.09-175347-175584-175211-179259-198947-185827
2804.98-163003-143586-154897-172561-182862-175722
2807.88-173571-165130-166321-175795-168572-172619
2810.77-190028-187187-182943-161017-159592-174130
2813.66-174088-182379-197118-171227-148680-152887
2816.55-150759-145807-164727-159965-174827-167234
2819.45-135903-144192-182188-198492-182117-154952
2822.34-148087-149190-136197-134280-138177-149781
2825.23-167422-181809-183362-165685-183402-184494
2828.12-150407-145222-134072-126150-150085-202747
2831.02-211747-178825-156579-153148-160498-193305
2833.91-189837-170540-167103-180194-168778-119204
2836.80-128342-167066-175371-171066-158015-173427
2839.70-190807-188081-188116-189072-174896-168584
2842.59-182477-175422-166474-158161-160541-170762
2845.48-173606-163217-162628-166172-148291-107976
2848.37-130891-179993-187208-172861-171709-151604
2851.27-145550-144691-149060-154614-132113-140929
2854.16-161958-143203-131947-181062-203225-149057
2857.05-123426-133218-123643-130090-144990-150793
2859.94-147354-157218-175474-163303-134205-128409
2862.84-155897-166497-160812-163206-161458-180402
2865.73-202371-196521-176596-177913-192558-190213
2868.62-167867-161553-191339-176524-127813-115083
2871.52-141050-168088-174712-181886-153798-166971
2874.41-188410-171549-155759-151677-160921-178923
2877.30-176187-158665-139327-117896-118831-146743
2880.19-155274-153638-175857-203453-194712-169605
2883.09-151189-168381-187476-171621-158731-157363
2885.98-156876-159634-189102-195580-175680-174475
2888.87-169326-165071-167497-177889-170338-162246
2891.76-159683-151175-167479-193479-191117-175897
2894.66-155043-153450-175416-178759-166859-177304
2897.55-185787-183450-175864-174350-184212-187657
2900.44-168747-164451-159685-146897-181669-217740
2903.34-184626-144245-143990-156083-168576-184153
2906.23-200180-199482-170094-152688-169005-190868
2909.12-198910-172014-159024-162972-185938-212024
2912.01-202799-174516-191585-185132-148707-158667
2914.91-170626-173850-200227-206650-196309-200786
2917.80-198773-194957-188243-185263-193653-178652
2920.69-164012-170119-186965-183678-152547-143332
2923.58-162487-177923-188315-180905-153931-177254
2926.48-191312-184943-196003-190727-156613-158281
2929.37-152573-126072-145349-180445-192291-198206
2932.26-201097-194370-204165-197130-189438-186028
2935.16-167325-158233-169687-192319-201386-182516
2938.05-169610-220199-222889-161523-145421-162088
2940.94-178094-178717-157569-141094-168345-165924
2943.83-181426-199274-204016-194581-198542-225402
2946.73-235509-195837-137178-89903-132898-176549
2949.62-193928-227445-214670-209613-185066-127332
2952.51-154430-175607-164226-186633-205382-200921
2955.40-168620-140654-148796-158595-129720-111872
2958.30-151528-199165-205422-194429-162481-156110
2961.19-148012-133888-119647-143125-171045-176134
2964.08-169895-172098-183992-198589-202262-157487
2966.98-126482-174249-201757-180854-143851-140950
2969.87-176341-172738-160275-179874-171604-174973
2972.76-183197-188980-184466-176273-165007-176668
2975.65-174858-153044-123055-125228-138194-138906
2978.55-155159-183667-177443-162536-132760-122282
2981.44-153005-158572-160087-164850-171964-163370
2984.33-149933-165728-159962-121972-130691-183716
2987.22-206648-201288-190286-201725-180669-151141
2990.12-156316-149949-133822-145574-163402-160014
2993.01-163659-171012-153105-122796-140284-177752
2995.90-179014-167935-178591-175135-147026-134044
2998.80-132591-145466-160559-173585-178156-161876
3001.69-129464-133688-166123-169563-141503-143495
3004.58-156721-156663-137592-116740-131309-137898
3007.47-156085-175693-176982-153939-145666-153472
3010.37-158154-152500-156775-156244-129795-124423
3013.26-141537-142181-143549-151693-154029-162047
3016.15-172790-164760-167647-177807-182293-158522
3019.04-149500-161908-160559-146024-158097-167603
3021.94-157711-160733-171457-159020-169446-180337
3024.83-158336-176085-185267-190618-191382-194944
3027.72-197252-178768-153575-142350-151633-141439
3030.62-156642-178761-177001-176585-190041-210818
3033.51-221691-187544-140337-150376-185676-195519
3036.40-187349-167344-170458-186679-160949-150625
3039.29-172197-213974-225059-192785-159521-147997
3042.19-168282-190297-180326-166896-160753-157459
3045.08-188841-194598-172082-138322-169247-224237
3047.97-246784-196627-166152-181825-178173-145352
3050.86-129410-150368-163394-157229-146709-160388
3053.76-171293-146135-141857-171868-194303-176815
3056.65-177240-179737-170682-182142-185730-175899
3059.54-176672-164758-152978-167839-152722-120899
3062.44-155329-161415-144455-157772-178331-171104
3065.33-169761-187516-175113-156928-170648-173217
3068.22-166817-145266-108594-107648-133365-161399
3071.11-139217-127813-137914-139992-151436-149547
3074.01-161627-153382-159918-164661-147885-135500
3076.90-135728-143862-154654-160446-165320-144727
3079.79-144695-173487-197497-174939-166556-169768
3082.68-148219-150983-159923-138947-158904-190816
3085.58-189670-182502-177740-186742-176502-144685
3088.47-118581-125237-146143-139943-154176-164620
3091.36-163093-157366-155065-159884-166441-171924
3094.26-154141-137150-129780-136043-156010-168834
3097.15-167180-162788-134985-105633-124020-166431
3100.04-150490-138257-138354-156115-138949-129486
3102.93-115516-107540-117871-135815-145783-149586
3105.83-152784-148638-142430-174054-179326-154916
3108.72-146680-159294-151182-145366-142374-136007
3111.61-157447-138322-117835-122588-119451-114887
3114.50-113101-115684-117199-125556-154703-155586
3117.40-141436-128802-129072-134682-151958-141864
3120.29-116131-148109-149971-127711-117705-130513
3123.18-126505-151766-163592-127541-104369-117365
3126.08-137798-145048-138555-136987-148924-147837
3128.97-114208-111394-124712-149933-176909-149122
3131.86-119822-123417-138549-157030-162746-159061
3134.75-139620-103315-120303-147395-160891-129567
3137.65-116251-126841-135649-124958-121691-134761
3140.54-144344-180391-177197-164412-160975-159059
3143.43-138553-136892-112846-129509-162743-132946
3146.32-110598-119100-129655-152594-140355-122136
3149.22-154267-188257-184783-159572-129261-121007
3152.11-144825-165495-171982-171886-165163-136290
3155.00-95119-136426-167179-146585-161244-180236
3157.90-184007-156761-127445-115467-112185-129553
3160.79-157482-156929-127193-132264-169338-164452
3163.68-151723-163398-166419-153679-141796-143068
3166.57-171471-205717-205099-189641-189177-146885
3169.47-128590-161211-175589-156444-130803-132832
3172.36-147922-151881-152566-148767-170950-171115
3175.25-156063-139655-138432-164859-200279-218239
3178.14-204143-208056-190966-162689-157085-168024
3181.04-178675-164714-143149-117854-134558-164091
3183.93-178542-153771-149167-185498-167682-164291
3186.82-207387-203273-184675-164925-177628-159926
3189.72-150448-161190-148037-146728-184870-190052
3192.61-165995-164353-200138-197373-191755-194854
3195.50-180210-152289-151601-160747-172106-194942
3198.39-187246-164819-183135-208527-193271-167081
3201.29-137308-125533-124109-148139-199460-210888
3204.18-201558-188734-195041-196190-223082-211136
3207.07-189935-166057-157691-173491-153338-130864
3209.96-123675-117552-143537-172176-165536-162141
3212.86-177147-175607-184617-191656-169606-149376
3215.75-179751-194731-160334-150615-141660-149861
3218.64-164724-136148-111611-110735-138400-156017
3221.54-143247-163563-182737-172404-157010-142339
3224.43-164782-162191-136899-144083-175663-176026
3227.32-190864-181117-150340-140358-140626-138472
3230.21-132641-134458-135770-154241-180538-196895
3233.11-184790-165447-178810-170829-170298-153259
3236.00-146122-165403-211745-206696-176932-163782
3238.89-157050-155574-136886-133316-142979-150430
3241.78-161115-164747-184646-185084-170140-157942
3244.68-171602-182132-189634-187442-155625-127668
3247.57-137596-142247-159175-159687-144839-153451
3250.46-164890-176343-191898-162101-149453-168125
3253.36-161302-145086-155533-161491-164065-192984
3256.25-199824-187054-170074-150694-127152-133119
3259.14-156104-162567-155675-145821-163607-168020
3262.03-158924-153433-193610-185164-130480-119349
3264.93-140366-160090-150954-154234-162493-153888
3267.82-150227-189447-201698-168025-165378-174182
3270.71-172119-158215-147850-144266-122510-121423
3273.60-161022-144648-112202-128725-143565-147136
3276.50-145789-137381-143526-174205-169085-136768
3279.39-135487-152804-138970-143405-156864-167293
3282.28-182764-204523-197247-161087-134517-150350
3285.18-176616-192302-162534-139582-139403-135695
3288.07-135244-144574-145586-136846-147653-144116
3290.96-138562-127594-154917-181013-169800-165788
3293.85-179354-172222-148633-150279-184303-185473
3296.75-175368-151359-129390-157804-149551-164032
3299.64-186582-175634-155703-155294-139531-125597
3302.53-145532-161679-153961-148110-182193-196871
3305.42-168095-159238-193553-205788-201384-209153
3308.32-198878-167610-159497-140988-143185-146571
3311.21-163474-182789-186590-188477-167465-195476
3314.10-197891-189636-214339-200908-187252-193494
3317.00-202048-188530-146214-131046-140882-164718
3319.89-166663-174266-199273-190277-173664-167104
3322.78-170478-189735-196547-203791-206760-175926
3325.67-162338-187834-184740-199025-235498-233868
3328.57-227604-203523-182251-194283-196720-221493
3331.46-216710-205742-198871-167291-174051-185960
3334.35-148472-172798-191850-171023-142012-188547
3337.24-255083-239211-235344-260035-234125-217434
3340.14-226938-200419-166033-166984-184741-178316
3343.03-138450-129803-150172-178852-164184-193026
3345.92-246307-286317-282793-284234-292917-213689
3348.82-128465-81074-65446-88359-134963-227114
3351.71-271771-277148-256810-223734-242778-227542
3354.60-199088-194030-206775-232761-232839-216191
3357.49-207311-215073-225112-198719-166312-131800
3360.39-147255-149369-159159-227189-252523-260478
3363.28-248535-229429-268605-277546-263922-239753
3366.17-229065-215567-166088-149629-170441-198953
3369.06-216891-234997-230886-208088-187644-171343
3371.96-166862-160248-180572-206401-212457-201678
3374.85-170404-171165-183427-181948-217787-259193
3377.74-245717-207363-191136-207835-193531-196037
3380.64-217880-226433-186318-196703-229839-213607
3383.53-194417-191247-200617-227536-223248-227151
3386.42-215424-230822-242479-197956-193787-205349
3389.31-162269-181014-235014-202019-171778-190275
3392.21-195315-212594-212364-205381-223106-221148
3395.10-211367-193658-191210-170980-172058-218237
3397.99-232929-248484-236591-215728-222051-206233
3400.88-180357-183845-209455-247496-227609-211117
3403.78-202553-202454-189228-174673-208562-230543
3406.67-246236-242853-238088-185661-166955-210320
3409.56-193910-188891-242996-236464-237919-197979
3412.46-190218-229647-192217-159252-200275-225608
3415.35-236589-256012-218450-190204-218162-228396
3418.24-222291-214517-206805-194320-262325-279314
3421.13-204803-148975-146755-165255-189330-243733
3424.03-240817-193694-196695-203810-204884-217298
3426.92-184846-167738-218648-242690-223396-219222
3429.81-213406-202095-208548-228514-276336-258958
3432.70-207208-181479-200415-196303-197650-186830
3435.60-173493-176078-223930-231304-203139-195980
3438.49-213926-211969-198136-214690-217145-208634
3441.38-254911-297391-228741-148812-172709-222650
3444.28-238622-255286-224516-216128-240453-228497
3447.17-210000-213786-181939-151581-161910-213945
3450.06-217132-185802-189748-180838-172805-210971
3452.95-245710-215532-197168-223564-192912-144174
3455.85-172209-225966-232383-203860-176311-203819
3458.74-236260-231084-199335-202092-220478-213817
3461.63-191260-194444-205842-197761-184976-173578
3464.52-190688-228781-214000-193518-151350-126810
3467.42-171411-184012-165405-156163-184801-214760
3470.31-223779-251077-203315-205615-229753-206115
3473.20-184965-177794-191513-207533-197259-150668
3476.10-180707-228297-210849-171036-184780-215516
3478.99-212153-200116-211208-194649-165610-183201
3481.88-225990-221411-202724-178169-186420-197176
3484.77-208961-215873-194409-196686-231888-254611
3487.67-182512-161477-166097-178344-192401-183521
3490.56-179289-184211-202376-203839-179402-145789
3493.45-153229-183282-212174-213828-205946-181498
3496.34-175604-185144-200686-198322-201007-223847
3499.24-214674-205688-206389-157367-172785-226595
3502.13-209434-186927-209160-207273-190857-159986
3505.02-168571-162846-143395-151806-209730-231550
3507.92-221153-209348-200717-199166-184469-162020
3510.81-173403-185103-184071-200670-193977-173484
3513.70-183607-199479-212519-192936-158406-175184
3516.59-161864-156932-158331-170543-201947-219212
3519.49-219973-238141-225450-194919-209725-197130
3522.38-188926-193502-173252-165973-177838-173899
3525.27-189071-189473-201221-201719-185258-172681
3528.16-205231-237901-230446-210704-222227-225541
3531.06-186875-193562-209506-173883-183181-210987
3533.95-218433-179826-152108-171868-200117-222608
3536.84-226715-229957-196773-208916-224450-225598
3539.74-206883-222483-242057-221746-197145-211676
3542.63-188406-186631-255700-266317-236424-221595
3545.52-199886-178765-179815-163561-144936-154521
3548.41-180075-199825-204676-205027-204191-215508
3551.31-199844-202970-219083-205884-211918-188153
3554.20-181323-220596-225493-227036-241068-231006
3557.09-215639-211628-191941-198721-249349-255609
3559.98-242883-210581-191755-190568-156700-148432
3562.88-200176-206014-171163-174089-193070-198044
3565.77-177770-174316-178324-174877-198556-216484
3568.66-216079-206952-195775-194919-173235-166091
3571.56-188909-214014-225248-191173-211857-218466
3574.45-176248-149341-145279-180304-213576-221170
3577.34-239654-222189-196220-171223-197860-257007
3580.23-271313-250283-206708-190619-190264-169874
3583.13-167543-163196-147094-188972-239833-244330
3586.02-245599-240635-255780-215868-194449-192595
3588.91-172427-183435-213665-207280-202031-218076
3591.80-232339-227558-205643-226281-254973-265483
3594.70-246245-207353-200293-214925-234424-215888
3597.59-182902-183446-167084-181489-216855-218108
3600.48-179799-156738-183846-225809-195190-189561
3603.38-222897-242851-230598-217479-201246-196810
3606.27-233839-242430-220288-173360-168095-214226
3609.16-227179-200257-175286-189232-185661-192334
3612.05-196872-184810-175596-188466-230402-202492
3614.95-201007-214585-175537-181135-214789-201903
3617.84-166377-158562-175873-224999-269356-227804
3620.73-195320-214835-231029-218738-198585-192963
3623.62-196959-202372-184003-177842-189078-201573
3626.52-207243-212489-230240-252162-224599-222346
3629.41-217661-199380-192300-172561-188854-222186
3632.30-225503-198373-170990-167722-183577-188703
3635.20-190406-186499-205953-199380-180255-177717
3638.09-195080-233676-240608-211470-214750-259590
3640.98-261625-237604-230283-231426-219686-191625
3643.87-181712-184886-197154-198952-239809-239029
3646.77-191550-179157-193719-190577-175912-159674
3649.66-174435-219864-250817-250831-225341-178046
3652.55-155931-201220-209674-198369-208810-188973
3655.44-180831-228419-219994-176679-129373-91818
3658.34-133090-159839-193461-225085-230471-219687
3661.23-199255-218092-235557-194890-168777-179282
3664.12-204632-174178-151649-179141-187913-185005
3667.02-186159-194502-219961-227028-190487-197725
3669.91-233840-232756-205775-201405-180644-187518
3672.80-200175-169648-167420-199821-213841-208095
3675.69-207244-179569-133456-110752-126860-162621
3678.59-169991-133290-125121-135115-170120-182366
3681.48-164361-153643-152045-135341-136927-142100
3684.37-154831-173766-151165-133568-141159-152924
3687.26-150317-176927-175802-107401-97592-150247
3690.16-207405-239006-224513-172902-119016-122070
3693.05-144794-174056-160383-120999-112351-145879
3695.94-189345-174207-159306-188125-185806-183226
3698.84-201929-193701-187754-167469-152220-170955
3701.73-166891-166445-200963-187733-193199-213819
3704.62-212926-204752-209018-231779-237520-227576
3707.51-228684-249304-253023-244723-227330-204445
3710.41-193979-248910-317661-276015-196927-203479
3713.30-256066-263307-219790-222901-264354-250000
3716.19-228684-239208-226099-226582-280979-282276
3719.08-221373-221877-254489-279625-276553-299028
3721.98-289542-254492-255322-265098-278097-297023
3724.87-295920-296424-260839-259320-243977-242046
3727.76-267782-260150-255720-256858-272608-265119
3730.66-274199-300909-310262-297704-321447-317153
3733.55-289676-286711-310727-315371-280785-303125
3736.44-297962-267836-283572-268391-243994-245889
3739.33-252651-266727-318075-328463-284316-261495
3742.23-313851-352412-321262-375774-447701-376453
3745.12-316285-316155-299559-265916-245767-200274
3748.01-232917-352766-407296-340726-328894-327701
3750.90-321262-375271-373377-294078-274379-273716
3753.80-250831-264560-292523-300109-288688-306425
3756.69-332748-312755-287937-275728-292915-302922
3759.58-308563-278568-275330-280447-279952-274514
3762.48-282346-284716-286812-255020-269436-264480
3765.37-233095-228967-253725-288182-285432-285263
3768.26-309310-276056-253847-272594-287264-294848
3771.15-284206-274114-296819-285290-230357-206671
3774.05-241766-269529-248628-231902-243140-267582
3776.94-301410-281756-248251-275823-281085-253234
3779.83-242894-261845-270050-254707-249517-236577
3782.72-237060-264288-253389-251483-282849-268922
3785.62-254041-259243-247404-231281-214938-219179
3788.51-252046-273801-245603-219452-234471-239984
3791.40-232638-239722-265821-244137-234454-248940
3794.30-219395-204914-212956-249806-247942-229186
3797.19-239341-227482-211022-207075-200911-212123
3800.08-214829-284851-336191-272275-233681-241720
3802.97-223354-217455-210186-205186-220384-219726
3805.87-218548-260881-282457-226348-218064-253555
3808.76-259859-243811-215431-210837-237750-236626
3811.65-191486-161015-166783-202256-223758-202050
3814.54-181322-203245-250769-249390-230610-239856
3817.44-245275-244119-229332-200473-213959-238734
3820.33-234186-234654-265142-243645-222289-212704
3823.22-220885-219360-216345-224559-216376-206288
3826.12-178618-178501-201927-223607-237760-190801
3829.01-158656-175969-212739-217268-223876-215600
3831.90-165294-177094-228376-234066-221771-252327
3834.79-242734-203266-212945-228560-248181-309375
3837.69-291670-242564-240607-208198-230076-273863
3840.58-251190-225232-223762-234892-249504-255871
3843.47-240172-214830-191992-173990-204687-226125
3846.36-218288-209292-233596-230684-217310-192490
3849.26-203474-209055-238019-254074-280259-282943
3852.15-205456-187739-262395-316180-282127-251054
3855.04-240261-230457-221464-236708-264745-234559
3857.94-249612-283963-276545-230187-201175-183159
3860.83-164540-184720-232709-240164-204755-212305
3863.72-232797-230752-247510-257493-235807-207595
3866.61-176201-150542-167689-197733-226126-243310
3869.51-288548-288194-242907-222634-222999-196731
3872.40-187336-185018-182889-197724-224243-214926
3875.29-187131-182409-187600-192347-214924-224874
3878.18-204680-170627-203004-256493-260955-256860
3881.08-227964-215757-198111-232736-240431-245992
3883.97-240960-244859-290272-277029-238857-228086
3886.86-247758-271798-243346-207356-199171-187266
3889.76-223266-282877-311104-282482-239985-190769
3892.65-188789-213144-238602-255961-230283-226381
3895.54-262345-231351-210568-210692-195219-178741
3898.43-216031-233137-201537-199323-231550-236045
3901.33-246017-235408-231261-233854-259456-288065
3904.22-253406-204110-219690-235882-230153-198086
3907.11-165738-176757-210349-202818-178908-202795
3910.00-225460-184452-185601-225315-229830-197749
3912.90-182307-224971-248700-249363-239124-219703
3915.79-216294-218861-224658-232759-231747-240820
3918.68-230524-215112-212904-188426-194828-223429
3921.58-227795-244290-255789-260544-281932-257516
3924.47-234456-207359-168611-172963-222146-244334
3927.36-234129-217333-241711-209322-175114-210312
3930.25-248093-258470-243870-237327-261153-238079
3933.15-192397-165102-209052-246517-258220-246103
3936.04-237980-261484-276845-258773-278087-269404
3938.93-233746-206379-195217-197267-203494-231424
3941.82-270040-248457-242719-228128-237966-240290
3944.72-222781-228510-210406-229365-247350-231797
3947.61-224519-204746-204157-239507-254405-220720
3950.50-191343-203533-264056-276777-216506-205073
3953.40-232153-241547-225531-229519-210779-245100
3956.29-297181-267818-269709-282469-225564-187855
3959.18-181542-206438-259057-280758-249857-216273
3962.07-217107-234736-227954-253327-257253-233809
3964.97-241628-226700-219392-222685-216068-221105
3967.86-238798-228973-251396-258605-234434-232918
3970.75-228221-239039-254629-217878-206225-227679
3973.64-238370-268467
##END=
