##TITLE=Hexafluoroethane
##JCAMP-DX=4.24
##DATA TYPE=INFRARED SPECTRUM
##CLASS=IUPAC A
##ORIGIN=NIST, Analytical Chemistry Division, 301-975-3108
##OWNER=COPYRIGHT (C) 2000 by the U.S. Secretary of Commerce
##DATE=00/02/01
##$SPECTRA VERSION=1.10
##$UNCERTAINTY IN Y=2.0 % relative (B=1.0E-04,C=8.6E-09,D=5.8E-12)
##CAS NAME=Hexafluoroethane
##CAS REGISTRY NO=76-16-4
##MOLFORM=C2 F6
##MP=-94 C
##BP=-79 C
##$NIST SOURCE=QUANT-IR
##SPECTROMETER/DATA SYSTEM=IFS66V (Bruker)
##INSTRUMENT PARAMETERS=KBr Beam Splitter; MCT Detector; Multipass cell
##STATE=gas
##SAMPLE DESCRIPTION=Hexafluoroethane Primary Gas Standard
##PRESSURE=101.3 Pa
##TEMPERATURE=23 C
##SAMPLING PROCEDURE=1 L/min Flow
##RESOLUTION=1.9290
##DATA PROCESSING=3-Term B-H Apodization
##XUNITS=cm-1
##YUNITS=(micromol/mol)-1m-1 (base 10)
##XFACTOR=1.0
##YFACTOR=14.551E-12
##DELTAX=0.9645
##FIRSTX=575.653
##LASTX=3974.609
##FIRSTY=5.40E-07
##MAXX=3973.64
##MINX=575.65
##MAXY=.012749
##MINY=-.0000109
##NPOINTS=3526
##XYDATA=(X++(Y..Y))
575.65 37147 25976 27385 104249 101448 57696
580.47 28436-38532-102753-58901 26050 83140
586.26 133470 86249 65810 82965-78350-243083
592.05-179241-44239 17126-17876-70876-17956
597.83 83027 150303 120526 27739-8339 6332
603.62 25823 56104 54536 4823-29294-3730
609.40 49571 100270 90087 5578-66870-88530
615.19-93389-81319-60271-8298 22853-7616
620.97-21040-4004-673-3764 3303 12286
626.76-12169-43757-39849-38816-77555-74919
632.54-26431-26285-77110-71157-51598-45546
638.33-8849-16665-56477-30237 18408-3785
644.11-49104-47639-37205-29740-36621-42951
649.90-45429-61429-76289-55542-44597-53923
655.69-56898-41592-47810-55310-50672-82540
661.47-114605-86540-46351-29299-91915-245190
667.26-282624-126622 426 1906-63874-113434
673.04-134617-119315-80613-54735-70497-91273
678.83-84206-74905-79079-60291-46042-39042
684.61-22430-10699-29177-46797-40926 16654
690.40 79161 155335 247888 361642 527759 808320
696.18 1228555 1842594 2680319 3840308 5360474 7251325
701.97 9412809 11666913 13758185 15431122 16354234 16337131
707.75 15449014 14192975 12755849 12405097 22255613 39195355
713.54 37572301 21327365 13074497 13141583 15307534 17338515
719.33 18541990 18666438 17790380 16120405 13899221 11384474
725.11 8953320 6785630 4970105 3530830 2473960 1715562
730.90 1208407 867368 624141 424941 294128 220356
736.68 183029 117459 58453 40163 43965 31781
742.47 10046-28952-39240-37287-48718-66570
748.25-49521-17662-7498-37648-49176-40308
754.04-38235-59905-80730-84323-47884-21617
759.82-28432-39414-30254-28136-38907-54258
765.61-45737-33670-30710-38721-47707-36162
771.39-1555 13390 8855-15477-17517-7007
777.18-29543-64858-56179-35870-40024-48374
782.97-39022-41397-38335-53869-80398-62587
788.75-39367-62990-80162-82638-99934-115872
794.54-90438-66947-76248-92169-86550-85071
800.32-85034-81730-89449-87806-70339-69838
806.11-76115-79580-70805-66212-65315-72175
811.89-81488-76538-51939-48984-73567-88442
817.68-88761-90986-91650-87574-66773-67695
823.46-81996-79062-56998-46235-50038-40141
829.25-19478-24040-31326-35244-43047-54171
835.03-59924-51248-16221-10307-50601-81973
840.82-72289-49704-56222-81985-76726-51880
846.61-42837-52979-55424-69953-83437-87233
852.39-93150-92313-84553-96994-100007-73054
858.18-53027-60807-73837-77845-56951-46434
863.96-47060-52330-60539-53464-36686-38664
869.75-45234-45473-42853-34677-20703-24738
875.53-29556-27839-39483-47412-29474-30440
881.32-44557-45142-30495-22292-30764-21359
887.10 4528 8546 18895 24012 13609 15266
892.89 35806 46745 55418 56610 52887 54022
898.67 58446 47428 44835 64884 72957 66942
904.46 64262 42251 13998-46 6948 4090
910.25-19312-40174-36670-33155-45910-61111
916.03-67772-74592-78216-78640-78077-80831
921.82-80056-89156-106455-108654-95058-87316
927.60-72320-63134-66293-72589-75150-86032
933.39-99770-100429-81707-73709-74604-74220
939.17-69676-68165-66217-75710-92659-96392
944.96-85543-84737-82683-82373-88383-91245
950.74-85372-83880-77685-65647-60724-75115
956.53-92610-100992-100022-107288-106188-102170
962.31-101678-99111-93908-102911-104628-89019
968.10-84739-103112-107270-105666-112860-118049
973.89-108678-95475-84569-80380-73739-66978
979.67-64372-67573-63005-67216-68414-61729
985.46-51884-42498-41037-48414-44411-37679
991.24-38952-43673-35006-24798-25672-31820
997.03-25190-16528-299 10368 1415-12285
1002.81-498 20423 38928 50184 55545 55879
1008.60 61385 76688 101177 110585 111284 123098
1014.38 147455 160105 171873 171587 163629 176143
1020.17 226171 286734 340777 363675 352518 330822
1025.95 321393 312436 302713 281456 260935 253976
1031.74 254604 244437 226088 189110 154246 124274
1037.53 106355 83994 54881 18406-10308-26742
1043.31-28064-24879-21393-26002-27624-22895
1049.10-10004-5511-1558 2915 13356 12887
1054.88 15691 27218 51500 62837 64458 92256
1060.67 138298 137379 117902 98026 82349 73521
1066.45 76762 77729 85754 88694 83106 61288
1072.24 29607-12616-29530-42423-46669-39056
1078.02-14589 8775 34821 55692 100120 169017
1083.81 266888 388129 566209 789926 1058765 1377556
1089.59 1784343 2264591 2830682 3482856 4302673 5402553
1095.38 7008468 9411478 13065455 18454208 25787703 34395275
1101.17 43218215 52715515 64436494 77829893 90903834 101847105
1106.95 109173203 111885438 110408943 107459925 109259731 125978186
1112.74 166886496 223425793 250071494 198309063 115293554 88153777
1118.52 109468376 137082603 156791471 164464011 158997959 142276494
1124.31 118203167 91402314 65977994 44797331 29070217 18670617
1130.09 12549508 9385999 7922529 7317746 7122262 7331091
1135.88 8233403 9811246 10555074 9423649 8328509 8033812
1141.66 7268344 6831547 7334230 7941423 8073934 7709126
1147.45 6946814 5941712 4831986 3776431 2837723 2050535
1153.23 1431513 978377 639818 423632 291189 211968
1159.02 155709 126742 112170 116320 114069 112815
1164.81 107704 119185 144611 170173 168951 171760
1170.59 179740 198535 216546 229423 229749 247193
1176.38 274780 304166 324529 360147 402315 453736
1182.16 500748 557456 625161 703194 780250 874240
1187.95 987365 1134854 1304573 1504733 1729208 1996199
1193.73 2301294 2644531 3031563 3460805 3903080 4361878
1199.52 4799621 5199620 5524042 5763691 5938276 6050019
1205.30 5993715 5671415 5039756 4242359 3544135 3054298
1211.09 2685339 2383831 2126244 1921178 1757548 1647776
1216.87 1584391 1571925 1607952 1713385 1870881 2081213
1222.66 2365807 2783262 3373511 4212743 5384409 7052596
1228.45 9406325 12703216 17235483 23390747 31625874 42558033
1234.23 56909248 75445678 98930633 128243975 164301743 208339901
1240.02 261648893 324798617 397400101 478376029 565374783 653621904
1245.80 736025467 805391085 854674651 876169235 867728870 834017911
1251.59 781288092 719931304 638012406 526013198 414560906 321186659
1257.37 245637097 187155785 141404669 105467915 77631226 56393192
1263.16 40412283 28544030 19904288 13733145 9425036 6472716
1268.94 4501210 3207082 2374108 1833684 1497070 1289022
1274.73 1152140 1037244 951504 892947 852910 808347
1280.51 771938 750825 738338 723110 717398 713476
1286.30 715107 724623 742130 760245 787228 820010
1292.09 856603 894381 945853 1001167 1067803 1158289
1297.87 1279185 1424411 1602732 1813654 2041578 2274792
1303.66 2513889 2744372 2979515 3237683 3519760 3818680
1309.44 4145047 4497407 4863325 5240266 5632401 6023641
1315.23 6413969 6811905 7219610 7607064 7953552 8262737
1321.01 8538463 8792439 9044563 9276304 9459062 9575516
1326.80 9602372 9528889 9404070 9263237 9097540 8876994
1332.58 8597208 8255925 7852980 7419986 6998878 6602808
1338.37 6231497 5863449 5481752 5080653 4671559 4272361
1344.15 3891128 3518429 3155333 2810718 2485448 2160571
1349.94 1845046 1557824 1304423 1094048 933039 800262
1355.73 683799 567481 442996 331958 249328 182808
1361.51 133807 106087 86015 61845 43991 36739
1367.30 35974 30398 22132 16074 7033-7325
1373.08-10844-2111 8355 9710-1804-13855
1378.87-15880-26611-48968-61497-57003-48965
1384.65-37675-34341-42816-45018-41283-43644
1390.44-50602-59015-59055-49700-47524-54531
1396.22-55055-51721-59098-77244-75388-58783
1402.01-50548-54218-64147-62602-57078-65359
1407.79-77150-84555-91701-97776-91815-83198
1413.58-84243-88149-89017-97098-113174-114498
1419.37-93523-74267-67710-66873-61491-67184
1425.15-97406-97117-31151 36421 68244 87269
1430.94 116134 148148 178161 209940 240310 272189
1436.72 313328 352263 382413 399685 407656 416018
1442.51 422778 430129 448213 474788 493926 498592
1448.29 503246 512830 524188 535981 535553 514862
1454.08 477581 434793 412172 412845 414485 413879
1459.86 415195 413031 406096 390392 371310 358766
1465.65 346924 324495 295648 264783 233261 193495
1471.43 151223 119652 99423 74807 41043 20829
1477.22 18142 10975-6067-25280-40583-45815
1483.01-46301-52825-58689-60443-61158-69678
1488.79-83566-80236-57215-41010-44963-59965
1494.58-80349-96454-99936-102304-101242-95883
1500.36-94530-98736-102169-113149-132206-138000
1506.15-124269-104287-95010-93518-85205-73139
1511.93-63297-61188-74343-96765-102786-76931
1517.72-33097-15170-56168-107025-108957-90994
1523.50-87516-88468-77174-72050-79902-86782
1529.29-93308-101636-105455-112106-117425-115187
1535.07-113910-116431-131204-161727-173517-158448
1540.86-140926-130677-122114-112908-99635-92089
1546.65-95355-99508-100236-96302-86104-78299
1552.43-88208-105647-101780-96243-112988-135801
1558.22-143496-138027-119198-95224-83358-89606
1564.00-96333-90969-83240-83630-95984-111193
1569.79-114868-113397-103038-87839-92103-118882
1575.57-121521-93975-79425-79434-74966-74772
1581.36-82501-78222-56063-24749 3765 20465
1587.14 35587 60859 93972 127508 174878 237522
1592.93 300166 360227 419072 470173 505061 518119
1598.71 510115 492656 483756 480002 457253 405779
1604.50 343277 296364 272570 259711 257686 273047
1610.29 298567 323058 347279 373417 399577 415628
1616.07 451431 524263 595712 649249 691983 724770
1621.86 749474 780886 821973 859849 887480 911986
1627.64 950488 989728 1013545 1030238 1035162 1015003
1633.43 952195 851307 766019 708280 661494 631562
1639.21 611516 587165 553626 497676 420484 338656
1645.00 270410 213928 158375 115258 84432 41724
1650.78-30106-93304-97915-76842-68725-67381
1656.57-69138-75488-83776-96314-113249-126557
1662.35-127433-117983-112681-116398-122119-130986
1668.14-129361-113229-111574-120944-117861-112266
1673.93-114749-110828-96712-88439-86367-84998
1679.71-83965-85068-92901-114085-130900-107886
1685.50-69529-56529-55266-51467-47981-46208
1691.28-43698-45700-57852-80115-82705-56238
1697.07-38697-53242-76472-61228-22814-3481
1702.85-303 3186 18965 39137 54904 70618
1708.64 90884 116929 140914 155383 172407 195872
1714.42 221184 236802 255015 301700 356916 395739
1720.21 429757 464974 491509 516717 551630 586361
1725.99 610175 631155 661314 696352 720939 715628
1731.78 682759 652399 644467 643980 629210 600131
1737.57 565293 527858 499770 471614 430705 390527
1743.35 364222 339962 303837 257716 216537 189456
1749.14 160180 124387 104467 90957 66229 41064
1754.92 26087 16952 11848 4647-10630-32093
1760.71-48342-51309-52024-54835-53741-57634
1766.49-64628-64770-65784-70721-78207-90750
1772.28-91635-87391-91056-91405-91587-97703
1778.06-98855-96924-99130-107472-117140-120870
1783.85-124310-128092-132320-136396-131103-126372
1789.63-131526-144981-157886-150825-134208-134799
1795.42-138674-133227-134709-147393-147687-132234
1801.21-122627-128602-137955-135477-126442-120460
1806.99-119336-127670-133360-133733-131479-127392
1812.78-127936-133256-135225-128263-117926-112699
1818.56-113213-112277-101757-91774-90326-99061
1824.35-106014-99324-90110-85044-96405-110303
1830.13-95083-82208-85094-81663-77374-76329
1835.92-73844-73506-75401-76205-69735-60989
1841.70-59315-62620-47863-17854-902 10244
1847.49 34047 62682 89918 125046 164300 202442
1853.27 241618 274267 304799 339664 376110 414351
1859.06 447517 470233 488892 516451 565550 624160
1864.85 669005 697290 701464 663137 598163 537832
1870.63 491275 449041 416838 405397 393298 367822
1876.42 338773 301009 253776 200405 145152 91575
1882.20 51992 25547-4534-36618-65302-88893
1887.99-102407-109750-115817-119677-121903-126191
1893.77-132616-136496-131746-127355-131978-137337
1899.56-134520-129180-127472-131038-128201-113085
1905.34-102143-96676-88309-82871-75285-61569
1911.13-51662-43034-31376-26296-22985-12184
1916.91-1517 11542 34437 59894 77812 71091
1922.70 46383 38368 56519 86859 117085 138670
1928.49 148106 138212 116000 101125 102194 115865
1934.27 131969 148182 173711 182245 146651 110970
1940.06 116086 146963 178411 199921 209323 204503
1945.84 191432 174218 160592 152354 148813 155918
1951.63 170465 184894 189139 175038 155112 163310
1957.41 228395 281869 231626 129181 63262 40975
1963.20 37862 32331 22869 10904-2033-21405
1968.98-43590-53032-61308-76595-87334-92776
1974.77-103108-111394-105078-101635-108864-116650
1980.55-123464-122785-116835-112434-109610-114271
1986.34-119923-122390-122577-117114-113386-118074
1992.13-121579-123554-123895-118739-116828-120906
1997.91-122064-122108-124682-127731-125299-120255
2003.70-113794-107440-107482-111488-115078-123167
2009.48-128657-127882-127893-128971-127121-123300
2015.27-120322-121912-124432-126788-128985-130152
2021.05-131479-126778-122189-129132-136248-138096
2026.84-134102-121766-114378-114267-109689-104337
2032.62-102103-94128-73623-49081-23517 5639
2038.41 42106 89530 150156 225752 318136 429167
2044.19 560276 708580 866777 1027757 1190401 1354089
2049.98 1508261 1629576 1705057 1730072 1699449 1616494
2055.77 1482600 1316882 1141719 935016 706166 511517
2061.55 365250 251237 155418 73025 15479-26384
2067.34-59734-79310-95880-114066-124517-128515
2073.12-131404-134196-133886-131929-137933-149086
2078.91-150239-140687-128496-123427-127629-134986
2084.69-138586-141570-146672-151522-147614-137653
2090.48-132355-129115-128966-128209-131689-143895
2096.26-144560-134433-128040-131341-134454-126373
2102.05-114474-114575-120239-120749-116195-116201
2107.83-120148-126029-124264-110341-104792-109000
2113.62-108479-100538-97358-98638-89789-80444
2119.41-86355-95249-85737-59392-44117-53469
2125.19-65605-61342-59045-66472-64805-61534
2130.98-61112-57070-47364-43012-53373-64135
2136.76-64269-60522-62853-74889-84564-91659
2142.55-89564-79787-81641-97962-111220-110584
2148.33-107689-111331-115398-117685-115146-111926
2154.12-118263-132325-135793-126137-125809-135804
2159.90-135560-134601-138497-131721-118533-118421
2165.69-128333-126201-112367-115538-131363-126161
2171.47-110549-116288-132681-135320-130442-131811
2177.26-129591-119540-119224-134979-143139-134250
2183.05-132450-141202-141821-142975-152630-153866
2188.83-142923-137972-149632-164349-169824-176994
2194.62-188405-192923-194310-206712-228928-257882
2200.40-283815-295399-300088-308771-324975-348913
2206.19-373389-396795-414058-429424-446815-462360
2211.97-477884-489398-496328-505655-509703-507641
2217.76-506604-499569-488711-480258-469789-471587
2223.54-492522-526831-576942-640781-700334-739058
2229.33-752142-734434-652468-472010-318116-337017
2235.11-430600-495067-539440-569580-590900-605239
2240.90-602058-596099-600246-606399-606868-604365
2246.69-599167-584592-557658-532432-507516-471795
2252.47-428216-383620-342521-312159-290535-265802
2258.26-238901-221557-213365-204208-194212-190878
2264.04-193569-191742-181299-173557-175520-181688
2269.83-180077-177273-179247-185597-193338-199997
2275.61-208715-209819-194641-174981-169731-185013
2281.40-200124-196701-185625-183606-184672-187423
2287.18-194138-192883-180719-177225-191183-206117
2292.97-206672-193720-176635-159008-144257-139603
2298.75-140752-146547-151228-155695-161926-156486
2304.54-140007-142804-158216-165665-172719-180703
2310.33-180417-178283-183569-185050-180183-176900
2316.11-189551-205399-208497-201305-207906-219012
2321.90-223322-215541-206522-203727-204553-196559
2327.68-184736-168176-146920-123341-92133-54195
2333.47-12033 38811 104734 187226 274735 378990
2339.25 513720 656873 768885 809036 795819 835275
2345.04 949814 1040145 1049605 1004311 957587 951541
2350.82 983109 1002819 966031 887393 829774 819959
2356.61 804187 668352 389909 125775-3792-36355
2362.39-42196-50868-66675-87078-110803-136405
2368.18-156981-170754-177161-175132-170993-178725
2373.97-186013-170195-148642-138131-123219-102986
2379.75-91085-92625-93595-87466-85517-88996
2385.54-96487-108118-118623-129746-136104-132930
2391.32-128874-129956-133217-132685-129023-129239
2397.11-129767-121828-116216-124157-132086-137193
2402.89-137850-133781-139602-146934-145884-141580
2408.68-137545-139097-139391-136720-135924-133535
2414.46-134667-136724-133155-126557-120259-118518
2420.25-114770-113685-115100-105140-90832-86870
2426.04-88904-93166-101073-99360-83954-70317
2431.82-61518-51826-45271-46502-42207-27241
2437.61-15065-10737-7529-2479 12597 34149
2443.39 54917 64824 75630 98602 123002 144756
2449.18 164298 187952 216481 237752 265404 308050
2454.96 348419 378094 401501 421058 436081 449991
2460.75 467091 481708 490181 493364 494793 494332
2466.53 487036 480910 479768 471840 447277 402295
2472.32 351768 310683 262003 185395 97450 39506
2478.10 15782-20185-68088-103588-129562-149613
2483.89-172183-203469-223551-226708-233855-253429
2489.68-274223-290239-304728-327225-360183-390759
2495.46-412386-435975-470384-501017-514620-529349
2501.25-557513-590641-617878-631976-644970-677015
2507.03-702685-705002-702812-703776-704246-694059
2512.82-666390-632480-611546-591931-549102-484944
2518.60-419030-368907-325011-277631-234192-197209
2524.39-156443-115262-83453-52950-22360 4193
2530.17 27667 39604 39270 28122 16110 13267
2535.96 16066 15958 5072-13672-32908-46466
2541.74-56215-74947-98170-99478-85629-76020
2547.53-72129-76707-81437-77043-74002-80885
2553.32-86249-81699-79566-86070-90274-85590
2559.10-71343-67590-74613-75038-75863-85497
2564.89-98698-103493-96746-83829-72767-67843
2570.67-67842-75377-80224-74416-68113-74135
2576.46-76775-65502-70521-88647-92547-91279
2582.24-94842-99548-99227-96874-101321-111021
2588.03-122479-133207-133168-126368-122093-127406
2593.81-134542-134696-129422-125666-126333-126972
2599.60-131217-140552-147374-152811-156882-162568
2605.38-169954-170066-161934-157709-153274-151438
2611.17-156429-157692-163436-175285-175981-162826
2616.96-149486-154565-169838-176433-173946-170342
2622.74-162517-156113-159997-164977-169509-177395
2628.53-180365-171343-163449-169382-170222-160005
2634.31-152476-144055-135514-138656-146665-128087
2640.10-85795-64328-63156-61894-54286-29778
2645.88 13140 56861 96727 136799 179584 230184
2651.67 281473 336070 402981 475191 537160 588451
2657.45 647269 714007 778693 827115 856180 873966
2663.24 871677 854136 836693 809745 776135 736636
2669.02 673995 598754 527450 458418 395779 341145
2674.81 299126 259890 207137 142422 71965 8592
2680.60-37634-75903-106337-132053-159230-167813
2686.38-165419-174041-181172-180245-179134-175611
2692.17-169483-174507-185889-188523-178497-168863
2697.95-171958-175842-172943-169469-158494-138718
2703.74-125791-130239-136682-132933-132844-142940
2709.52-146727-141505-134909-132301-132330-129062
2715.31-117555-111974-122958-133174-139026-146646
2721.09-142329-136268-133465-128853-131485-137145
2726.88-139725-143474-149209-153472-145414-134976
2732.66-130228-124879-121992-132591-152447-155004
2738.45-138984-126133-128367-140174-147863-149153
2744.24-143545-135420-132612-133208-136347-141018
2750.02-148554-153609-153639-155597-160674-165470
2755.81-162358-153471-146461-154194-163359-156802
2761.59-149176-145217-152342-165920-165567-160731
2767.38-167326-180060-175729-160583-157961-162916
2773.16-160435-159418-170460-178644-176627-172438
2778.95-166967-165788-170957-171050-155913-142327
2784.73-154131-172489-170546-168853-176557-178007
2790.52-172534-161990-156056-163674-169541-167592
2796.30-169291-172596-174447-176020-176897-178018
2802.09-178564-181190-175270-164514-167503-172954
2807.88-170966-171666-177348-179058-172589-172578
2813.66-177442-169774-156541-155514-160792-159684
2819.45-163632-172789-163587-147213-142639-154343
2825.23-170387-175729-166753-150015-151666-174101
2831.02-177569-169542-174588-176131-164295-151266
2836.80-155515-167482-176320-184126-182740-177036
2842.59-171303-166374-166098-164713-153091-145432
2848.37-159203-168705-158299-148958-145884-145901
2854.16-151914-161810-153945-136383-135864-147060
2859.94-156093-153553-149105-156342-166618-179392
2865.73-186783-184972-180408-173495-158061-145783
2871.52-156358-168556-170583-167461-163707-164674
2877.30-153444-137439-142313-163728-179243-176107
2883.09-170506-167972-163567-170251-178857-175452
2888.87-170332-169038-164876-166591-175578-173458
2894.66-167568-171630-177272-179711-179525-176043
2900.44-167877-170947-177559-166653-163483-178811
2906.23-182081-175639-177923-176888-178477-189550
2912.01-188136-175119-169081-180993-195323-198288
2917.80-193798-187511-179674-175193-169129-163905
2923.58-170354-175432-178591-184537-177184-158939
2929.37-152818-170916-191336-197779-193313-181320
2935.16-174767-181988-190395-192689-179526-167552
2940.94-164924-162699-172612-189893-202694-206534
2946.73-179068-148714-167609-199259-193007-169036
2952.51-167525-182212-180455-160596-144270-148366
2958.30-172719-179416-158835-142772-149203-166450
2964.08-178713-182002-171674-168825-168280-162679
2969.87-166422-172564-177932-181154-177217-168072
2975.65-150870-138316-147516-161879-155945-146300
2981.44-153483-162344-161889-154493-151914-171446
2987.22-191332-185914-165816-150912-151058-158544
2993.01-156379-151338-161205-170596-161848-147681
2998.80-150439-161316-156690-150680-152559-150984
3004.58-144069-136728-144777-159616-159548-154608
3010.37-153049-145863-138495-141753-151048-160893
3016.15-168261-170465-164720-158041-157054-159931
3021.94-163248-166600-170388-177255-186751-188417
3027.72-173800-155730-154722-168287-184832-194845
3033.51-183257-172450-178317-177947-171355-175108
3039.29-190388-186604-172095-172235-171428-172239
3045.08-174301-178282-196840-198103-176162-156799
3050.86-150902-154882-156846-158408-167985-177528
3056.65-178335-178691-175754-166705-155564-148850
3062.44-152056-161751-171061-173811-170198-161910
3068.22-142187-130319-136089-139325-143064-151432
3074.01-156330-153259-145540-147109-153883-158078
3079.79-168089-173092-163819-155194-159120-173922
3085.58-181794-172949-150906-138003-145549-156220
3091.36-159503-161045-157669-146578-146425-155959
3097.15-149067-136677-140563-145095-140722-129266
3102.93-122330-132382-145274-152944-160180-159930
3108.72-153000-147267-142831-134808-123487-117280
3114.50-119523-132235-141217-138192-136923-138096
3120.29-137029-132848-132525-138314-132551-127928
3126.08-135696-140204-133816-130330-141398-143470
3131.86-138866-146869-144927-133564-134800-134398
3137.65-128514-129297-141142-159820-164254-151741
3143.43-137344-133850-131265-129114-135793-148261
3149.22-161927-155888-145354-155573-158542-142514
3155.00-139561-155655-165073-151502-131447-133479
3160.79-142516-148413-156589-159124-155420-163038
3166.57-183224-183978-164253-155188-150656-144701
3172.36-148668-157041-158308-155865-172409-196490
3178.14-195242-177325-166632-155773-145328-152518
3183.93-162277-169149-180964-186715-176818-163461
3189.72-157171-163309-173723-181746-189028-183516
3195.50-168316-167426-177583-183869-183656-164666
3201.29-145460-161606-189351-198356-201854-197326
3207.07-177903-158241-140646-138193-154356-168688
3212.86-176680-176963-172987-169127-158250-148150
3218.64-136346-131044-144386-160798-164197-158018
3224.43-153808-159218-171313-167755-149891-138814
3230.21-141060-159055-176619-177181-169122-164353
3236.00-175224-184044-170064-151606-144410-152395
3241.78-167236-173674-172989-176448-168976-150560
3247.57-146612-152665-159940-169068-167684-160196
3253.36-157321-165235-179488-176915-155876-146440
3259.14-152264-157272-161661-166859-159588-145546
3264.93-147444-154948-161993-173677-176410-169192
3270.71-157237-142456-136608-135431-135339-140946
3276.50-147913-153701-150039-145174-151729-169752
3282.28-180866-169562-162697-164507-152054-140711
3288.07-140688-142408-141923-147795-162174-169694
3293.85-166284-166860-169055-158664-153726-163683
3299.64-165586-152523-144518-151184-164408-174825
3305.42-182152-194146-194885-174750-154856-156758
3311.21-172587-182798-189301-196924-198157-191929
3317.00-173572-154492-158967-175955-181192-178688
3322.78-186088-193003-186316-186636-205580-218252
3328.57-208212-200688-206029-201107-184294-173479
3334.35-171718-176307-200003-231106-238399-223544
3340.14-198310-177717-162456-153814-168968-210579
3345.92-257214-262634-199782-123835-125711-197669
3351.71-246427-241917-221526-211951-217321-219072
3357.49-211028-188520-161010-167064-208888-242290
3363.28-253830-257200-240265-204183-181543-195565
3369.06-214716-204818-181876-178175-191146-191548
3374.85-184948-200952-222730-217512-203775-204466
3380.64-207400-207899-206295-205394-214278-223131
3386.42-222704-210048-194626-194104-196146-195590
3392.21-203834-212492-211310-198179-191098-209162
3397.99-228079-222540-205604-204108-216515-213969
3403.78-200205-201340-221061-226616-206807-197021
3409.56-210545-222069-214437-200885-198396-215718
3415.35-226167-219165-216952-217080-225007-221181
3421.13-187882-182261-206943-211247-204064-199717
3426.92-202677-216411-218495-217488-231700-231332
3432.70-208371-194320-189449-196303-208167-208882
3438.49-208017-213870-230832-232990-209560-212277
3444.28-230020-229839-220423-199616-183214-189684
3450.06-193441-191766-205048-213304-199832-188620
3455.85-199004-206393-209740-214776-211365-205663
3461.63-199567-193347-193470-198877-183604-164319
3467.42-166145-179698-204048-219644-215167-202732
3473.20-192931-189265-188424-194385-196974-200849
3478.99-202524-194790-197001-202956-197116-197833
3484.77-204893-212125-207705-186429-178626-183937
3490.56-188698-184545-173762-183484-197482-192543
3496.34-190400-200392-208521-201996-191766-196652
3502.13-201785-193724-175929-164063-178297-204794
3507.92-208686-193309-180557-182182-187860-189179
3513.70-192020-185701-170613-166001-181818-208170
3519.49-219398-210766-197621-185501-177343-180690
3525.27-189843-192936-198588-214259-219661-210428
3531.06-198336-193623-194470-186640-187608-207665
3536.84-216529-215507-218562-221975-216694-207384
3542.63-217660-233227-218765-188710-168001-169503
3548.41-188903-203127-206623-207813-205730-202139
3554.20-211218-225357-224061-213838-219834-230875
3559.98-214466-185918-177292-183284-185399-184497
3565.77-181667-188426-202467-202995-190127-187218
3571.56-199953-206263-192762-174698-185245-211259
3577.34-212153-209194-229358-231066-202130-177305
3583.13-172015-196789-230188-238055-218836-196241
3588.91-193778-205455-216261-223249-233894-239641
3594.70-226100-215299-204833-189428-190454-193259
3600.48-188812-196077-210098-221139-218550-216576
3606.27-215180-202044-199174-198037-190275-188876
3612.05-189527-196993-203938-199016-193587-187221
3617.84-187348-210968-223879-218207-210954-200907
3623.62-192773-190567-199916-217577-228134-220735
3629.41-202890-195443-201743-195708-183203-185426
3635.20-192045-192261-196738-213784-228232-239193
3640.98-239608-223461-202370-195504-208080-211404
3646.77-196356-183359-185295-210364-221763-201389
3652.55-193003-198719-200082-197484-169592-142318
3658.34-164049-202920-216548-212717-199485-185559
3664.12-177869-177571-186762-199963-208488-212990
3669.91-213663-201560-188858-185076-193485-196378
3675.69-170030-143368-143273-144723-149742-160974
3681.48-156303-145807-147738-152172-148649-151490
3687.26-152725-142947-162882-193253-174389-147882
3693.05-145925-142403-150698-169169-180008-187902
3698.84-186524-174186-168591-177823-192202-203905
3704.62-212883-223410-233210-240086-234706-227757
3710.41-244766-249685-236828-237427-240825-240878
3716.19-238334-245693-250529-250112-266412-278581
3721.98-271696-272271-283741-279871-262031-254559
3727.76-257953-263094-274078-291898-305284-305468
3733.55-301244-299702-293525-281015-264911-259624
3739.33-278726-296170-303690-331914-367392-362056
3745.12-316701-270343-262671-310994-342938-340874
3750.90-338512-312500-278879-275757-291654-305379
3756.69-303721-294793-293166-287845-280353-279644
3762.48-278264-269116-254960-252771-270865-284865
3768.26-280447-277819-283443-281894-263140-244159
3774.05-244185-251107-264789-273371-268689-261595
3779.83-257987-253853-248153-251971-260972-262799
3785.62-251846-236697-236529-244195-239510-237143
3791.40-243253-244004-233104-225191-231555-234686
3797.19-223995-213381-226529-261662-267626-240846
3802.97-220497-215454-225842-242071-244879-242294
3808.76-236453-225804-210132-191399-193154-203231
3814.54-216895-234458-239801-233149-224174-228815
3820.33-239581-236575-224327-219046-214976-202408
3826.12-198187-205648-197884-193876-205440-203084
3831.90-203166-221842-231320-227414-240924-263886
3837.69-255640-239679-241217-239044-238375-237151
3843.47-217083-202648-210302-220031-218737-212056
3849.26-222739-246952-247780-245429-263270-258499
3855.04-239821-239914-251221-255455-231355-198970
3860.83-199818-216064-223820-234125-233976-206276
3866.61-183291-202334-243037-256327-233013-204816
3872.40-193186-199208-201223-194426-199032-204874
3878.18-209733-230970-239258-226665-227701-241952
3883.97-256118-258059-249665-241342-222667-223169
3889.76-255690-257908-225402-219430-234059-237859
3895.54-227760-209854-203930-210285-218442-230286
3901.33-237868-246621-250350-235878-220007-202077
3907.11-191209-195309-199690-202630-207302-210448
3912.90-221866-234001-228461-223860-228803-229473
3918.68-217683-208042-218499-241553-256935-245711
3924.47-213101-203285-220548-225015-214659-220693
3930.25-239653-242790-223622-210537-228026-247592
3936.04-258257-264359-250282-221039-211069-229654
3941.82-243079-238952-231942-227002-228571-227143
3947.61-221718-224848-223767-228151-236243-230627
3953.40-228093-232501-250177-265907-249100-218679
3959.18-223348-242510-236628-232630-240964-240192
3964.97-229951-223187-226895-237526-242126-238157
3970.75-234670-229189-234532-259028
##END=
