##TITLE=Hexafluoroethane
##JCAMP-DX=4.24
##DATA TYPE=INFRARED SPECTRUM
##CLASS=IUPAC A
##ORIGIN=NIST, Analytical Chemistry Division, 301-975-3108
##OWNER=COPYRIGHT (C) 2000 by the U.S. Secretary of Commerce
##DATE=00/02/01
##$SPECTRA VERSION=1.10
##$UNCERTAINTY IN Y=2.0 % relative (B=1.0E-04,C=8.6E-09,D=5.8E-12)
##CAS NAME=Hexafluoroethane
##CAS REGISTRY NO=76-16-4
##MOLFORM=C2 F6
##MP=-94 C
##BP=-79 C
##$NIST SOURCE=QUANT-IR
##SPECTROMETER/DATA SYSTEM=IFS66V (Bruker)
##INSTRUMENT PARAMETERS=KBr Beam Splitter; MCT Detector; Multipass cell
##STATE=gas
##SAMPLE DESCRIPTION=Hexafluoroethane Primary Gas Standard
##PRESSURE=101.3 Pa
##TEMPERATURE=23 C
##SAMPLING PROCEDURE=1 L/min Flow
##RESOLUTION=0.9640
##DATA PROCESSING=Triangular Apodization
##XUNITS=cm-1
##YUNITS=(micromol/mol)-1m-1 (base 10)
##XFACTOR=1.0
##YFACTOR=14.551E-12
##DELTAX=0.4820
##FIRSTX=575.171
##LASTX=3974.609
##FIRSTY=7.68E-07
##MAXX=3974.12
##MINX=575.17
##MAXY=.012671
##MINY=-.0000108
##NPOINTS=7052
##XYDATA=(X++(Y..Y))
575.17 52786 186980 50054-7414 37746-121568
577.58 14226 240530 275473 47111-101210 145674
580.47 112903-6323-13348 40240-73548-158477
583.37-160662-136559 87109 163155 13757-86830
586.26 118882 314965 222365 25997-134448 58971
589.15 154064 171058 123483 46951-316377-501191
592.05-154433-197510-38884 19443-79459 105632
594.94 49745 17405-7416-249081-113296 104484
597.83 35899 24989 116048 256134 158933 153080
600.72 89528-12283-66807-16764 54800-2098
603.62 37995-16170 22120 113797 90296 36275
606.51 61467 60133-81022-88783 6388 36786
609.40-13269 26485 114336 114528 107230 148127
612.29 103693-38158-61467-93666-65485-59976
615.19-81639-117610-96471-52289-43171-52480
618.08-131002 1762 115757 42425 23844-13318
620.97-71061-43587 50566 9882-43950 45892
623.87 16406-43549 15988 3367-5773 60536
626.76 23572-9487-30639-55164-65292-48970
629.65-3744 17211-12173-129952-140477-52734
632.54-55067-4677 25412 15362-5953-127428
635.44-172078-78755 55132 22237-130005-109630
638.33-15426 58933 52303-14425-39469-98107
641.22-71054-31106-13397 73967 111150-9148
644.11-79890-71976-52692-2589-23400-74231
647.01-18662 17688-36139-28584-31604-66016
649.90-12383-22206-65117-16387-52566-131500
652.79-85123-13880 4506-29279-80942-40952
655.69-7968-76258-87059-22078 44303-10433
658.58-136839-79735 22910-28307-40049-40686
661.47-134169-138121-108826-79204-23665-23445
664.36-35806-28010 10361-16972-54602-261271
667.26-480710-331720-174952-99582 31580 62943
670.15 41538 34501-17171-43246-107577-127933
673.04-75116-96126-167352-129831-40353-58980
675.93-38720-28069-33698 2745-86435-115609
678.83-73972-50401-6556-49059-85318-40894
681.72-41862-59578 187 10815 3140-37594
684.61-46961 62388 56157 5149 38679 13225
687.51 2546 21276-22878-23009 31214 86382
690.40 137145 138212 162399 218699 260170 346925
693.29 407441 417179 492243 593432 760483 885415
696.18 1041414 1293847 1604459 1920955 2259555 2721793
699.08 3248163 3818351 4551149 5348973 6224395 7182552
701.97 8228086 9355523 10521000 11604151 12634892 13687260
704.86 14666388 15405521 16021042 16373069 16564071 16441984
707.75 16058961 15456349 14827674 14048887 13588257 13481036
710.65 13038529 11323708 10668831 10917767 22871242 56624271
713.54 60746239 35912377 23120500 16008123 12277348 11533334
716.43 12313807 13236911 14308711 15389812 16522133 17478374
719.33 18176080 18568683 18776446 18673947 18316402 17697809
722.22 16929169 16041105 15044536 13837744 12549192 11262376
725.11 10028061 8853033 7803924 6761007 5789494 4967320
728.00 4206939 3547242 2982613 2535540 2126324 1770431
730.90 1522669 1252787 1101240 984441 822223 710245
733.79 603132 502187 406622 360591 308807 279571
736.68 267746 251793 251178 188239 121585 60250
739.57 83376 108741 93078 97444 69090 65967
742.47 91848 53423 17430 9037-22060-33688
745.36 696 31265 8511-54320-22888-27276
748.25-77653-22095-7229 9286 40782 31534
751.15 14378-27303-52342-51089-5355-11613
754.04-24030 7383-37016-42495-37371-81939
756.93-69267-70574-86828-39253 27446 22528
759.82-11633-22400-34666-28623-7151-41901
762.72-6610 20087-20765-48346-22947-24218
765.61-79782-50520 8233-55-34889-32061
768.50-7180-18069-21971-46798-61965-41347
771.39 5286 32271 13793 31780 13010 32181
774.29 33396-16139-46747-38091 25705 36041
777.18 6354-16667-43693-77083-83809-51470
780.07-16052-4252-17334-30929-47819-53477
782.97-53712-5350 8843-54647-75236-30902
785.86 29216-24093-81657-109248-110590-32210
788.75-17600-2171-16316-77865-89017-78831
791.64-70097-56281-60286-96337-108703-119052
794.54-140288-77864-23873-47008-64113-64842
797.43-75430-101762-96998-79736-45182-66342
800.32-101189-92716-69705-55929-55580-77323
803.21-138766-85904-37853-50620-71107-62576
806.11-55798-71643-68615-87286-73502-57810
809.00-38839-71544-65594-44002-64432-57399
811.89-60123-88393-87080-69730-66206-46439
814.79-12878-17400-58178-69016-96715-111084
817.68-43057-48593-131293-101662-36999-65828
820.57-119892-107849-61601-29016-46820-59351
823.46-66498-85730-84398-86098-50558-45399
826.36-46533-21386-26960-41119-90136-44936
829.25 19987-11470-1246-20323-35895-30332
832.14-14700-27945-32449-21812-58679-48513
835.03-34387-60115-56474-60753-47860-4969
837.93 34222 42548-27300-70302-70448-77066
840.82-88934-70236-59228-29834-5027-26374
843.71-82764-119901-58992-57174-93253-44160
846.61 8765-13349-72893-69071-26233-48202
849.50-42122-45876-94538-93236-71780-58430
852.39-75772-99792-92392-93818-76560-48755
855.28-78562-83619-105410-119514-89318-63620
858.18-21868-21277-62780-72194-41070-45259
861.07-91654-95393-70084-38472-5116-32375
863.96-78787-32168-16675-48562-46185-58638
866.85-69032-56368-22211-6385-38991-22401
869.75-27553-59546-36920-32617-24461-36702
872.64-46678-40110-4279 551-9332-13499
875.53-27456-29506-38487 1779 8462-39533
878.43-55444-64408-41932 7906 11585-25955
881.32-44954-36223-41829-43694-26807-16422
884.21-30305 455 30365-36844-83581-21003
887.10 34563 44595 20455-17148 4349 53351
890.00 41570 22684 49134 26229-11248 219
892.89 55408 59541 53848 43612 49439 82815
895.78 60235 70259 71841 45864 51811 72850
898.67 66184 57932 85270 74636 20447 31446
901.57 53884 84599 121338 81369 48019 63773
904.46 92005 86739 66328 51356 35611 18782
907.35 10399-4152 2272 25755 28436 26255
910.25 13225-16396-32656-35131-35814-32857
913.14-22794 4496-13376-55884-56891-40516
916.03-43987-63892-72984-53904-44869-87769
918.92-87456-44408-51759-83719-75653-58112
921.82-64050-82753-69423-49961-84203-105624
924.71-125350-97156-77795-74780-69543-96844
927.60-78366-47036-45394-57001-41136-52058
930.49-71635-63436-57637-53817-68392-80942
933.39-63774-86729-115066-94502-81953-57163
936.28-46209-67212-64961-57717-69143-64153
939.17-54046-59173-52537-59251-54631-54392
942.07-48717-50552-72332-82640-101222-95251
944.96-68204-53894-72232-77775-67567-78345
947.85-70960-44622-69430-88159-82848-77643
950.74-66646-75940-66990-61840-77479-68811
953.64-61543-51656-34204-34434-55022-69475
956.53-58329-73023-106226-94345-70628-80425
959.42-76654-93638-122257-83309-68926-92427
962.31-84354-84393-94810-81837-79436-74076
965.21-63510-83677-105591-111131-79976-58681
968.10-61441-50910-67255-103482-110634-93671
970.99-70373-77919-91381-100015-102830-103684
973.89-97218-88831-92803-71505-57792-73146
976.78-66933-57521-59494-54550-63762-42653
979.67-32036-51149-41428-56931-66186-29090
982.56-20851-49672-72046-58343-35923-26565
985.46-41008-54094-23590-767-18573-29471
988.35-14985-30417-38545-29760-16788-678
991.24-10843-24659-23570-18733-28420-16296
994.13-7806 7599 14679-8256-11697-16512
997.03-11274 5286 4780 6434 6679 10040
999.92 45695 51044 34866 31023 7641 6959
1002.81 1424 13875 56146 50589 45509 66634
1005.71 71569 79180 93816 71409 71433 96586
1008.60 86884 80012 80176 102774 125801 126621
1011.49 142590 149433 137740 135296 128403 137388
1014.38 171923 195699 184844 177441 191407 204127
1017.28 212238 216601 201783 171905 187750 203610
1020.17 213728 249246 298802 323443 333295 373135
1023.06 403784 405588 403720 377241 350636 366865
1025.95 357208 344193 350229 354868 334501 330253
1028.85 346116 317167 297727 292685 277686 278862
1031.74 311401 304485 270006 281243 277165 282532
1034.63 264064 203024 205335 206230 186436 154965
1037.53 142354 156661 156108 130384 116218 91714
1040.42 87680 90880 36600 10160 41643 43251
1043.31 7612 3199 39037 41170 27906 23121
1046.20 33900 50505 14309 14326 43914 24428
1049.10 36491 63284 56662 44920 57301 71497
1051.99 52174 56063 74466 89988 84205 73607
1054.88 82294 74909 78234 110536 102367 106021
1057.77 150486 159541 142683 116194 118234 156163
1060.67 198954 260928 244760 211377 195828 187468
1063.56 210560 194284 170917 163083 169796 160550
1066.45 180253 179453 160821 185852 194561 178915
1069.35 188150 209473 220545 191208 175794 189282
1072.24 186148 169010 127237 106725 97351 110751
1075.13 132742 104397 94039 102403 107065 133717
1078.02 146148 140196 173517 216135 204471 213713
1080.92 264571 259822 270761 312994 346560 407191
1083.81 465837 507978 564482 655994 735923 827276
1086.70 955949 1109491 1241399 1370973 1527014 1713597
1089.59 1934848 2148807 2393775 2680050 2965287 3263697
1092.49 3621292 3969990 4354635 4802897 5346972 5936054
1095.38 6634261 7531041 8594825 9881138 11457966 13379013
1098.27 15751576 18632316 22019547 25981709 30388984 34921239
1101.17 39526676 43924883 47548540 51649176 57442812 63973848
1104.06 70715572 77551037 84251809 90677933 96605005 101759725
1106.95 106087812 109413612 111455461 112240360 111954033 110664043
1109.84 108774431 106806272 105634669 106225742 109768602 118335418
1112.74 133826126 156146643 186610097 223850954 253708619 269372111
1115.63 271741327 225794314 127259651 70821630 72848651 83229423
1118.52 96873828 111201514 125505928 138388819 149389645 157734354
1121.41 163115363 165059245 163678103 159065756 151589013 141728694
1124.31 130143653 117316428 103864891 90322428 77253185 65024726
1127.20 53930908 44170969 35827858 28880136 23309259 18931046
1130.09 15599746 13124440 11399623 10191833 9348070 8778929
1132.99 8399433 8131024 7939557 7828542 7772894 7805832
1135.88 7999119 8388342 9159189 10220820 11334205 12013627
1138.77 11494810 9547403 7590805 7733666 9073480 9322214
1141.66 8310049 7103002 6591649 6769461 7194112 7641351
1144.56 8036313 8277240 8374544 8358989 8193813 7924067
1147.45 7598359 7152986 6645853 6131973 5581462 4994239
1150.34 4439638 3953921 3483201 3026928 2626574 2248404
1153.23 1883787 1621770 1424635 1201301 999753 840336
1156.13 721209 628886 565151 512245 454299 416609
1159.02 393506 357667 331303 329683 315015 289608
1161.91 303983 321309 302459 296832 301954 292760
1164.81 295455 282918 286863 291713 290786 319348
1167.70 352553 360709 344573 341096 330453 341615
1170.59 354539 348859 360231 369188 377936 390298
1173.48 412271 414919 398497 395224 407431 424926
1176.38 437214 443623 483140 501986 490825 488483
1179.27 523220 556270 562212 585718 612255 655558
1182.16 675302 682769 729084 756723 762788 831333
1185.05 891707 897952 938840 992555 1038200 1088969
1187.95 1126423 1197780 1285143 1343518 1438201 1539374
1190.84 1615573 1723093 1856437 1959755 2073894 2217959
1193.73 2376802 2546775 2715075 2865413 3042340 3266338
1196.63 3495097 3709761 3910987 4125205 4369386 4611326
1199.52 4838799 5048808 5235479 5446946 5654947 5794256
1202.41 5903580 6020161 6108890 6193609 6262959 6337334
1205.30 6395275 6339917 6213233 6043925 5810121 5466541
1208.20 5016372 4551529 4177260 3916465 3693750 3494911
1211.09 3321515 3168418 3043865 2897380 2773154 2683946
1213.98 2586071 2502289 2442712 2384966 2332698 2310091
1216.87 2296401 2298836 2311453 2327094 2366166 2415252
1219.77 2492685 2583144 2692714 2829656 2958504 3101647
1222.66 3256937 3455496 3715156 3974543 4284277 4665203
1225.55 5111614 5624205 6216219 6901031 7715041 8692568
1228.45 9839570 11160992 12733529 14599236 16732389 19230949
1231.34 22137685 25480830 29350815 33787995 38867155 44696478
1234.23 51376852 58996056 67677972 77463159 88426419 100677525
1237.12 114395928 129683759 146615546 165165383 185624819 208225133
1240.02 233137298 260567181 290489919 322679204 357162439 393907325
1242.91 432689582 473339535 515490872 558841698 603313120 646538999
1245.80 689006177 728257417 764541767 796694336 824884166 845853632
1248.69 862673503 870781335 866364277 856751885 842931589 826854526
1251.59 802681040 771071177 730908505 703373647 692740518 655892760
1254.48 582479977 504851754 456166825 414932053 361533228 315377731
1257.37 277165764 243812444 214155704 187589674 163855555 142752726
1260.27 123987055 107369755 92707630 79865249 68611933 58838976
1263.16 50332588 42925511 36500370 31003435 26307723 22286374
1266.05 18864726 15992015 13568984 11543486 9842735 8437372
1268.94 7270746 6303201 5518211 4872090 4326626 3900686
1271.84 3529374 3213756 2965770 2757387 2587991 2450001
1274.73 2328545 2229769 2118098 2010444 1922364 1849298
1277.62 1782219 1726017 1683866 1627143 1586060 1546690
1280.51 1474971 1434749 1410767 1389926 1369649 1329061
1283.41 1311400 1281101 1261386 1251469 1223812 1226973
1286.30 1205397 1176410 1176844 1182239 1182354 1166030
1289.19 1170052 1168144 1175378 1182391 1170431 1198176
1292.09 1217034 1216816 1218179 1232650 1257826 1274642
1294.98 1299338 1332933 1338598 1354557 1410522 1461259
1297.87 1491103 1555653 1633685 1696801 1767186 1849459
1300.76 1952627 2072560 2181927 2276838 2386872 2504456
1303.66 2625808 2734451 2851815 2973890 3056650 3163700
1306.55 3302707 3440476 3562125 3700471 3851750 4000349
1309.44 4141259 4299032 4484187 4665031 4839984 5009601
1312.33 5192152 5377179 5569450 5769014 5964112 6151267
1315.23 6330287 6525697 6722136 6909741 7102696 7316916
1318.12 7530060 7701782 7875569 8033731 8183450 8340420
1321.01 8484348 8613115 8709214 8837861 8975984 9088308
1323.91 9212282 9327196 9431644 9503116 9556397 9612510
1326.80 9664941 9664552 9612490 9555883 9484362 9430381
1329.69 9361131 9272644 9220167 9142307 9031722 8912095
1332.58 8773132 8633399 8479327 8299792 8111770 7901359
1335.48 7661466 7448165 7249609 7039829 6836505 6636996
1338.37 6457220 6290017 6104246 5914812 5733749 5549798
1341.26 5339926 5139255 4943530 4725112 4526693 4329913
1344.15 4139891 3963637 3778541 3578423 3398639 3243454
1347.05 3040402 2860663 2727867 2576308 2404087 2234927
1349.94 2074856 1920248 1765184 1637552 1512300 1373366
1352.83 1270688 1156994 1069835 1030818 948634 862951
1355.73 818475 765797 708577 652833 592203 513290
1358.62 446208 395280 360733 332028 276875 258915
1361.51 230634 183105 185472 182332 157590 166221
1364.40 146324 111449 114662 112028 97432 88389
1367.30 98697 105328 91322 88947 87345 71591
1370.19 70136 76997 69744 63716 60588 36723
1373.08 30201 41413 40670 49720 58806 50486
1375.97 63939 66737 57665 45033 29312 28012
1378.87 22926 33561 39515 26456 8044-15623
1381.76-16564-21122-26424-11095 1500-6179
1384.65-21720 2400 26468 22068-7966-16093
1387.55-4877-7341-1239-5627 3253 1510
1390.44-18420-15467-6050-21523-39188-29329
1393.33-13179-12112-8002-17-15906-33374
1396.22-25750-16103-18884-18693-18652-11261
1399.12-18251-62868-80549-42071-12902-23198
1402.01-29134-17900-13607-15705-20466-49740
1404.90-51188-28151-19212-20726-26344-36068
1407.79-46681-47185-57216-51873-54672-64568
1410.69-59913-76338-83314-58195-52738-48543
1413.58-51284-59716-59898-62176-62273-64953
1416.47-53124-61003-78969-89360-95109-108099
1419.37-82100-49688-54984-47821-41415-32111
1422.26-45147-47432-43197-37955-22272-29438
1425.15-37281-56668-123148-125328-40510 12478
1428.04 42740 74165 88160 93600 97274 102469
1430.94 114131 135270 168328 169860 177247 198613
1433.83 214157 234650 238934 269588 280187 267769
1436.72 305619 347335 353410 366732 385487 398267
1439.61 420789 423413 413829 418301 426262 439520
1442.51 436442 438412 443614 437537 452214 461092
1445.40 471736 489168 513432 517760 507299 512924
1448.29 513858 509330 518450 534561 535833 526441
1451.19 533237 560185 565862 549274 531407 534307
1454.08 533364 482008 457024 466861 422050 390866
1456.97 436803 445981 422416 432238 425222 418007
1459.86 438495 431213 422656 427425 424907 423987
1462.76 412007 404535 400575 372080 369489 375752
1465.65 366135 368280 352146 335791 321114 308513
1468.54 301001 272504 252828 255958 239445 214032
1471.43 169226 160890 162091 119616 117363 119548
1474.33 111122 98960 78779 50563 22196 35288
1477.22 38679 29511 41229 32251 17039 7557
1480.11-2047-8430-17277-28600-36593-39344
1483.01-22361-18670-41869-38069-40339-50738
1485.90-45812-38733-54698-47557-38464-51983
1488.79-55679-82698-86732-70388-53727-46878
1491.68-30721-10153-24541-40372-36686-46348
1494.58-60167-46642-92648-108555-73359-77672
1497.47-85589-99481-94337-78623-93989-87833
1500.36-66550-81622-91917-82420-88663-98227
1503.25-85173-85597-103088-139294-144011-108057
1506.15-120497-135260-96486-75389-83281-80484
1509.04-86254-89407-76126-80746-67624-55228
1511.93-60590-54484-48625-43021-48886-60464
1514.83-71984-90425-103788-98461-94442-76441
1517.72-41896-22851 1752 15927 10056-21722
1520.61-113109-143815-97730-92728-92511-72678
1523.50-66568-68249-83250-101385-78249-53349
1526.40-55921-60128-62965-73042-82607-78888
1529.29-72215-76913-93727-98756-97413-90159
1532.18-90487-100617-115877-112671-106016-104496
1535.07-100547-102200-104826-118203-106118-89876
1537.97-124450-191341-167608-151750-180951-144593
1540.86-118413-132783-132929-115464-116035-115988
1543.75-105962-102358-111343-88314-73039-80712
1546.65-81685-91883-92716-89860-89167-90254
1549.54-99499-90630-78669-77875-80010-66559
1552.43-51355-72817-94808-116499-116769-86161
1555.32-71675-84265-86364-101657-112782-139164
1558.22-154274-114304-123466-154049-127600-96653
1561.11-101353-91896-68763-61739-77022-82564
1564.00-88631-97598-92716-80674-73361-70918
1566.89-78572-75840-66747-81617-101167-120067
1569.79-108233-94325-101635-112395-111707-96911
1572.68-79891-75044-76594-64031-77450-119309
1575.57-159120-130467-80744-73992-68466-64050
1578.47-72979-75688-73523-69916-56307-48408
1581.36-70221-89455-76270-71455-59732-46736
1584.25-39483-13929 6667 18229 26894 27115
1587.14 33948 41633 52907 64250 81508 112921
1590.04 125627 127811 141628 173660 217127 250494
1592.93 272099 303983 333641 364480 392431 417156
1595.82 452159 475460 495025 507278 517427 525646
1598.71 525476 507105 500828 495003 479509 474572
1601.61 482412 497737 483543 461170 447230 418138
1604.50 376591 342878 314084 294550 289886 281378
1607.39 275733 268788 260336 264771 265145 273031
1610.29 302396 314033 313587 329855 345105 354941
1613.18 368656 376501 387892 414096 435451 433861
1616.07 395368 421327 505493 544802 567697 599932
1618.96 628337 659155 678896 681063 712370 745983
1621.86 739147 734873 759302 783234 797910 823008
1624.75 845359 860601 877347 889683 902480 896839
1627.64 911012 947557 980781 996464 998037 1005558
1630.53 1008557 1028567 1038151 1033520 1024631 1007295
1633.43 1004739 978938 908066 826485 777077 759542
1636.32 746790 714439 675517 658316 640523 627099
1639.21 623993 621937 606612 575689 573176 570262
1642.11 539129 505341 459072 428226 382379 340651
1645.00 302773 252421 257969 239933 187288 151690
1647.89 136386 122396 103813 94183 80671 59899
1650.78 36290-4720-83592-111251-121490-91119
1653.68-48286-66080-63260-57575-62987-60884
1656.57-53548-63198-65107-66122-75084-77063
1659.46-78907-84242-97489-107885-117805-117795
1662.35-125324-130443-115494-107329-101298-103127
1665.25-104433-111951-120158-110243-107731-127187
1668.14-136779-141439-117359-88295-91809-97259
1671.03-118231-130526-117428-105553-108353-106030
1673.93-92148-107193-134749-107521-86147-93280
1676.82-83436-76933-84161-84229-81581-77202
1679.71-75953-85522-78261-74340-81515-82303
1682.60-95737-99912-102217-162157-157033-87591
1685.50-68629-50699-42726-59378-54643-47029
1688.39-52903-50959-40385-36020-47709-48871
1691.28-37249-33098-40656-40349-41749-45600
1694.17-58837-64059-106262-112999-49103-37848
1697.07-34773-28801-27578-27019-57670-101525
1699.96-99765-59517-17216-1249-6373 3109
1702.85 10532 6923 3270-2002 9952 28540
1705.75 33497 48178 59699 55144 62809 77661
1708.64 86128 94451 102092 115603 142945 158312
1711.53 152120 152443 162171 178832 188603 198269
1714.42 207563 229304 243926 252423 248274 221144
1717.32 267748 318117 339119 361046 385721 408341
1720.21 403135 417070 453788 479832 482514 488793
1723.10 496454 516459 530783 541773 578800 590727
1725.99 601836 611461 611733 625214 638267 659607
1728.89 673005 691239 713820 723439 733840 714710
1731.78 705401 690104 632756 644935 651400 624570
1734.67 645866 654640 642258 629929 616132 590981
1737.57 581849 575974 547362 516411 497127 504813
1740.46 498293 472512 460411 432186 400043 389466
1743.35 372223 358847 362811 351249 324672 306279
1746.24 290591 258858 235463 212300 191107 200695
1749.14 193440 166614 151022 118036 94187 112127
1752.03 116582 99712 85580 74128 51051 41017
1754.92 35170 29069 32439 18781 10236 17948
1757.81 21889 10832 1807-5320-11457-25421
1760.71-42253-53813-50951-40818-44848-40569
1763.60-49496-62425-51271-42028-44254-53330
1766.49-57884-64674-72892-55796-51169-58470
1769.39-68736-78928-58719-66530-74628-94861
1772.28-111543-83958-75382-73375-83014-97821
1775.17-95101-83573-83331-80999-90684-100301
1778.06-96842-104060-87794-82790-102063-98402
1780.96-91113-97548-111557-125514-118190-111192
1783.85-112391-119328-133473-127083-113576-123639
1786.74-138030-143242-130247-125733-125602-112531
1789.63-119994-131483-139878-126276-138960-180156
1792.53-165371-146126-135186-118297-115028-131801
1795.42-149289-139610-133120-127119-121697-124889
1798.31-128160-152708-163886-146580-137349-124310
1801.21-118139-113311-113657-129766-127864-136222
1804.10-150758-136593-115408-115220-129355-122901
1806.99-109347-106566-112586-133858-136586-128466
1809.88-127796-126537-130827-139926-124571-108034
1812.78-127274-131607-118937-124203-140378-138962
1815.67-127253-123807-123399-109204-106600-112414
1818.56-107937-103652-111999-122637-105933-96825
1821.45-90019-78238-94078-91488-75995-86784
1824.35-112983-121559-100676-86234-82722-97388
1827.24-91634-71182-71191-75946-111289-140927
1830.13-118554-78870-57740-67090-90418-97429
1833.03-80500-70052-75161-74125-69327-80418
1835.92-73873-63297-67762-70470-75645-67112
1838.81-64703-82988-78217-62347-53546-55216
1841.70-59298-49897-42618-60434-85905-54261
1844.60-10954-1830-1995 6927 8844 3357
1847.49 15911 41782 55248 71515 82999 84879
1850.38 99102 131663 153569 167022 185878 197457
1853.27 221391 248497 270541 273859 281564 303410
1856.17 321865 342875 360606 369420 387965 419619
1859.06 436899 448382 459348 467983 482140 486028
1861.95 492299 506669 525902 557274 592879 624540
1864.85 653719 668677 668078 684824 714399 710163
1867.74 689274 663586 627911 590404 547549 534214
1870.63 512756 482797 472447 455740 424608 398327
1873.52 396548 408907 418090 399333 374221 362421
1876.42 350259 344705 331305 295663 273047 263149
1879.31 234069 194142 173168 150934 123644 95905
1882.20 56434 46482 44585 41288 23512-10799
1885.09-18999-24468-49749-62441-69463-90454
1887.99-95349-96624-102091-102425-104415-115387
1890.88-116414-111466-115588-119779-115520-119781
1893.77-126852-125848-131879-134712-140720-126649
1896.67-115700-119625-123292-127986-132089-137070
1899.56-138470-133863-115887-125895-132064-115881
1902.45-118419-124688-138856-137598-113748-105112
1905.34-95169-93669-102877-97874-88908-82916
1908.24-77264-74376-83360-88780-57544-47302
1911.13-59358-45474-43546-49008-39399-18226
1914.02-17384-27152-22131-27499-26290 1582
1916.91 4641-5953 4200 8607 17755 40548
1919.81 53379 54770 70762 87426 94945 83258
1922.70 59960 37642 26833 35557 45072 57955
1925.59 71163 86634 104334 123964 137391 126871
1928.49 152211 158212 147396 151399 121212 114687
1931.38 105558 94061 102194 102857 102254 114665
1934.27 136312 135884 135119 145743 150017 168554
1937.16 194690 216371 191824 136386 103598 99359
1940.06 104728 114403 124066 150607 175734 179181
1942.95 189148 201555 208407 216923 213352 198184
1945.84 196916 199597 183383 172904 164055 153643
1948.73 161887 161809 143610 143238 151641 153352
1951.63 164464 175418 175606 178070 200060 204852
1954.52 183213 169978 173740 155766 137925 136014
1957.41 159286 218819 273574 345060 325586 219450
1960.31 161241 110739 75938 58163 40664 39775
1963.20 38466 44275 53463 28706 18475 33767
1966.09 27395 7748 445-409 407-5792
1968.98-33825-62918-53862-38386-47390-57407
1971.88-67554-72037-84088-91738-84591-85825
1974.77-89612-95338-105011-129107-115591-85361
1977.66-97468-92001-98829-113945-114279-109150
1980.55-107520-126768-135348-122860-107545-103222
1983.45-122651-120789-98217-95286-112458-116730
1986.34-111178-119799-123697-117186-112911-127353
1989.23-127167-115544-101195-100146-121512-120292
1992.13-110279-126488-122850-110246-121175-134010
1995.02-126310-105248-109089-114078-116237-123085
1997.91-122394-116179-120463-119904-116292-124050
2000.80-120664-129631-131103-121384-114941-117159
2003.70-122740-110782-106012-103478-100680-104547
2006.59-104749-116887-117109-98640-111953-125423
2009.48-132268-128413-120501-127975-122839-122071
2012.37-124924-133407-126423-117181-127988-123441
2015.27-115656-112793-118644-119185-119369-127745
2018.16-121437-115640-125767-137393-124260-117423
2021.05-126255-135697-133678-127402-108470-112793
2023.95-120753-119534-141904-135555-128319-129651
2026.84-135987-139284-131401-109654-97981-112019
2029.73-111938-110769-114686-101757-96252-100583
2032.62-93510-94869-99457-93407-84673-64054
2035.52-46215-45768-36526-10665-797 6380
2038.41 29274 51511 63482 94982 130264 147307
2041.30 187956 234427 272140 316569 371503 429245
2044.19 491945 556311 625073 707014 786969 858380
2047.09 936349 1023885 1098006 1171476 1256042 1337810
2049.98 1417483 1492495 1561634 1621090 1655926 1677829
2052.87 1706803 1724179 1708734 1672399 1641963 1608326
2055.77 1551409 1469227 1377988 1288715 1211020 1141137
2058.66 1053467 950959 813599 674022 581702 510347
2061.55 434200 361758 300829 256484 214160 162331
2064.44 121027 73371 32579 19149 16248-9582
2067.34-53056-58701-60224-73171-75656-82793
2070.23-99137-113491-118083-119072-117010-123617
2073.12-126165-123781-125695-129851-136868-125526
2076.01-127126-135276-115193-121667-152321-151261
2078.91-147949-147307-143767-142092-130330-119116
2081.80-117720-121387-121509-119268-125469-145936
2084.69-134512-126227-143215-136300-139240-142803
2087.59-147727-149853-147098-161466-138896-116336
2090.48-130397-140712-133278-121424-114820-125104
2093.37-147627-130348-103600-121565-138062-153615
2096.26-155997-135395-134820-140450-125244-109473
2099.16-130069-133273-129142-138637-131263-133798
2102.05-121347-90378-106315-124359-113762-115424
2104.94-125999-119645-121231-116738-94470-116724
2107.83-128132-118688-109095-116085-139718-144912
2110.73-110036-89779-103329-101250-109075-106552
2113.62-103321-120708-111584-84130-91426-94033
2116.51-99434-103285-96439-99443-75840-60908
2119.41-77554-90483-89619-97256-103421-90392
2122.30-79337-56482-28835-34457-46279-52167
2125.19-59841-71489-83756-66155-30719-39870
2128.08-78041-83664-65203-51759-59228-71009
2130.98-52850-54000-75163-55936-43514-57818
2133.87-40723-28773-37537-53559-75389-68072
2136.76-56358-64092-70118-58561-52462-55185
2139.65-59539-85947-92586-70657-76855-101014
2142.55-102881-90248-83909-71031-67819-81068
2145.44-86440-90284-111677-123944-110199-110015
2148.33-104405-94820-110660-117908-108459-109293
2151.23-120915-119057-113570-118916-113764-103324
2154.12-103646-119798-122106-126559-151217-139602
2157.01-133789-120839-105703-119457-130559-148000
2159.90-142516-131875-128893-116998-138436-153327
2162.80-139770-129230-119216-121062-109456-95722
2165.69-128136-148231-125639-125166-133837-106865
2168.58-82371-102807-134836-146478-142165-127989
2171.47-115267-98652-90140-115778-132102-138456
2174.37-140685-138183-133477-115116-125516-138634
2177.26-137915-127765-129204-124827-94655-111075
2180.15-135529-125573-144600-168126-143962-115274
2183.05-121924-129894-137574-147217-146956-149749
2185.94-130155-126543-149581-162791-161628-152566
2188.83-154922-140204-133255-133701-129579-150881
2191.72-167411-169535-170053-167802-166341-172973
2194.62-185451-188761-198752-201025-186715-186858
2197.51-192036-211032-219486-221105-237051-260612
2200.40-275540-282198-303890-297456-285448-296388
2203.29-306614-311994-303982-316857-340581-348162
2206.19-361360-372427-374514-397792-417668-413146
2209.08-405088-422834-445379-444724-450449-457950
2211.97-463337-477160-483436-493323-489992-481233
2214.87-495358-511221-505756-511098-508922-495617
2217.76-498621-507673-516047-498883-481212-480866
2220.65-488594-484656-479214-465291-451878-467844
2223.54-479748-491819-506118-518633-538616-573461
2226.44-602731-624548-676919-706005-710429-734619
2229.33-747848-743859-742840-735233-710554-681503
2232.22-629935-509996-320789-186475-255681-373994
2235.11-416352-442714-472475-497173-514635-539253
2238.01-565161-569531-569959-579474-597023-619793
2240.90-608009-592406-585004-586129-597081-590758
2243.79-597954-609150-606790-597344-595751-605085
2246.69-599184-589603-589925-589625-578986-542718
2249.58-522667-535083-523849-506130-488535-470306
2252.47-450594-423650-404127-379983-363179-340680
2255.36-317667-305983-299931-300533-279759-266369
2258.26-254607-235070-223185-221004-214822-214702
2261.15-220473-204755-191298-195156-195774-183895
2264.04-188884-195797-200469-201048-184669-176168
2266.93-176385-174750-169272-165865-183373-190076
2269.83-186688-183286-163838-176179-186040-177926
2272.72-174773-178910-198952-195820-190379-200272
2275.61-194524-206225-226717-211260-201035-198862
2278.51-185425-168506-160049-161262-171470-182979
2281.40-195344-214090-207417-190989-192318-178318
2284.29-172043-183441-193791-187972-170742-182605
2287.18-195371-192505-198153-199142-192906-172255
2290.08-165659-173477-171632-191269-207342-206558
2292.97-207658-209845-205547-190409-179120-171966
2295.86-173458-162563-147562-130973-135019-151390
2298.76-141575-128914-136701-154223-156996-146327
2301.65-145035-156010-155120-168631-159609-164403
2304.54-167498-120800-104237-138601-174500-168037
2307.43-151346-152703-177337-175596-169283-167821
2310.33-195378-200170-162609-146567-179741-215713
2313.22-188062-148970-177817-224972-174311-127542
2316.11-157486-233493-215063-163101-182947-268174
2319.00-239043-122820-147490-274105-261866-146828
2321.90-166916-298763-278186-130920-141993-288664
2324.79-261195-91923-140833-322942-252347-63846
2327.68-144432-309499-202355-27115-147577-280823
2330.58-106574 23383-165713-225017 27413 69157
2333.47-152157-98546 160176 98211-93935 93215
2336.36 308504 143544 100195 377934 401022 232925
2339.25 396561 646179 561194 534242 796802 848162
2342.15 714888 816908 912113 723631 665975 855816
2345.04 898502 894073 1031249 1086914 1040148 1035958
2347.93 1034726 1001359 953270 915268 936612 943094
2350.82 907496 981991 1048733 954989 980257 1058129
2353.72 870108 812351 922149 751807 741783 908177
2356.61 743319 781807 921005 641758 552537 490772
2359.50 75050 91211 121061-143747 34134 22794
2362.40-143796 76906-65921-109058 65485-145196
2365.29-54502-40849-165560-22301-165581-146507
2368.18-89874-210965-117708-191842-165398-155317
2371.07-210316-140136-188758-148415-165482-168367
2373.97-178664-208113-180749-175094-135072-136182
2376.86-141955-142949-132013-128285-105478-96845
2379.75-99626-78010-79911-100828-95184-98269
2382.64-97498-75270-77910-87145-92427-86483
2385.54-83737-93652-104346-108044-113300-116803
2388.43-117660-125921-139159-140578-135554-129553
2391.32-119926-130768-130191-121084-125603-139546
2394.22-139963-123427-128256-133136-122905-116653
2397.11-136948-135347-127688-124975-108577-104310
2400.00-112339-128268-137642-132092-124165-129931
2402.89-146643-150337-131931-115553-126535-141259
2405.79-150474-154404-138684-137289-151580-145909
2408.68-127225-132598-139882-131746-140336-149708
2411.57-137603-117381-132556-153277-131809-125188
2414.46-125738-126104-149688-143246-117724-132700
2417.36-141313-120443-119401-114627-112708-122961
2420.25-122324-112066-104790-104590-113333-126793
2423.14-119842-99971-87891-92305-82882-73903
2426.04-94899-94456-82809-86886-89193-103760
2428.93-112898-104546-87199-78712-70740-69462
2431.82-64734-53966-62702-60634-31950-32737
2434.71-51709-47580-45084-47185-36643-29504
2437.61-9524 1458-20732-17591-4623 6320
2440.50-3049-20129-35 27709 24902 24778
2443.39 45076 64803 77156 67776 53390 65798
2446.28 91280 108983 109228 118139 140115 146696
2449.18 154912 167039 171704 177454 201464 226388
2452.07 239985 237300 226347 255903 293487 307037
2454.96 327067 348329 371502 372875 376792 410342
2457.86 408531 406373 436950 437056 425936 447849
2460.75 454853 457848 476842 481441 477906 484220
2463.64 493970 488428 483111 492054 487320 488650
2466.53 503736 477286 458795 479130 479492 472185
2469.43 471593 469722 463551 445404 426226 402071
2472.32 368839 335643 317626 308840 296021 273477
2475.21 231406 183978 146121 93433 42583 10578
2478.10 22850 45327 18261-15028-52509-79589
2481.00-82559-97672-119838-127026-139202-153700
2483.89-149891-158505-181236-205125-230184-226562
2486.78-221371-225352-220537-220994-240630-258736
2489.68-259328-272485-291186-282946-291538-312119
2492.57-305820-311616-341756-365553-375440-389833
2495.46-405838-407416-415220-433202-436969-461819
2498.35-499977-508155-506016-511338-504784-522930
2501.25-538034-543469-574778-597338-588464-612319
2504.14-643751-625832-623541-626503-636541-674158
2507.03-702190-715182-699849-680441-693891-706330
2509.92-700436-675265-694029-724803-684596-681457
2512.82-689985-665592-641887-609123-604043-606597
2515.71-600805-598889-576540-540756-522551-486023
2518.60-439541-406346-381709-364997-354338-327722
2521.50-297853-275803-251683-232364-210471-199473
2524.39-187436-161807-131254-105657-95983-91712
2527.28-76965-53668-36767-21747-8054-8342
2530.17 9382 36732 40547 33915 31703 38642
2533.07 50188 23041 2681 15927 11455 10454
2535.96 10951 10707 18251 21401 14581 5750
2538.85-13043-10614-13966-45270-52067-35892
2541.74-49046-63748-58931-57551-74904-126698
2544.64-124385-86613-80642-88472-82899-70206
2547.53-70283-70584-73111-67406-80365-98463
2550.42-81319-68378-73671-66952-74369-82990
2553.32-79764-96974-95161-70513-73326-76787
2556.21-74292-94804-97087-77251-87423-105394
2559.10-83939-56838-57958-57469-73196-92505
2561.99-77534-67140-66353-80035-82661-72114
2564.89-86286-111425-112045-92617-102366-102851
2567.78-90542-83215-69367-71541-69732-70837
2570.67-63804-63541-68470-67644-91472-90381
2573.56-69599-75407-75901-60575-56838-65933
2576.46-94466-98778-66385-56109-48591-53664
2579.35-89996-113789-92965-77495-93066-98708
2582.24-82451-87580-106334-102044-97172-100012
2585.14-98800-99374-85124-91605-121348-113798
2588.03-104207-112177-138589-140156-133860-132808
2590.92-124919-128586-126692-111474-110081-134403
2593.81-139198-126187-138182-143549-121758-130679
2596.71-132435-114870-118614-133426-136210-117932
2599.60-119569-132600-132266-145878-147192-140123
2602.49-147548-154674-159144-151344-151591-165005
2605.38-163112-167822-174061-175451-173200-146244
2608.28-147271-165971-162712-152420-145936-135172
2611.17-150779-177496-155470-146406-158228-152560
2614.06-164278-189197-185582-163728-172710-178005
2616.96-147806-127914-144707-153520-161528-171806
2619.85-178647-180888-169569-171204-171690-162869
2622.74-172764-174949-143009-139737-161410-160620
2625.63-164928-168112-152284-168568-177295-168867
2628.53-178569-186936-183731-167651-154286-155331
2631.42-154554-167079-183975-179117-156758-148649
2634.31-148405-154335-157537-137071-131643-129831
2637.20-130545-130363-131346-149134-169272-141022
2640.10-94848-72623-46268-53131-76233-64141
2642.99-49174-58559-64328-52558-42081-37535
2645.88-15382 23545 47216 64854 70216 93620
2648.78 127493 140209 159509 170375 196744 240043
2651.67 265704 279674 295361 333844 366654 397504
2654.56 436746 468464 518317 543577 555831 573340
2657.45 600158 649534 671751 701200 740863 772590
2660.35 804025 825664 838685 837425 848820 872527
2663.24 882818 867591 840611 838273 835124 828505
2666.13 828708 803011 772878 760450 753996 740805
2669.02 715519 669492 621686 581571 564082 531634
2671.92 482961 452784 418498 395160 372340 332277
2674.81 304813 295910 288042 269061 236366 206554
2677.70 178768 145603 111917 77058 32336-682
2680.60-9491-37501-50577-62774-100474-110753
2683.49-113801-107145-133924-173918-183530-165559
2686.38-144323-152373-167042-170135-179662-181491
2689.27-180738-174512-168301-177005-181653-181027
2692.17-164709-157690-165697-166122-177490-195507
2695.06-184996-186903-189278-177794-171689-150333
2697.95-156671-181758-177365-174649-174781-166119
2700.84-163934-175002-168244-161695-148140-134014
2703.74-132974-107807-116968-139582-134889-138392
2706.63-144469-134053-115668-123211-140184-144182
2709.52-155433-149048-131629-147904-145276-119311
2712.42-128084-141958-128790-124046-135855-135215
2715.31-130503-113568-103320-107209-106219-122027
2718.20-141044-145961-125099-118162-145421-166488
2721.09-154520-130127-129677-132460-138420-143543
2723.99-128089-120670-118628-133786-143846-133347
2726.88-139035-133843-141892-145696-139660-149514
2729.77-146455-155217-169112-147985-119043-124889
2732.66-142459-144115-114054-115116-139451-119456
2735.56-108122-120981-146115-162160-169352-161482
2738.45-136624-143064-133473-109207-120967-131193
2741.34-130406-136820-155395-150036-143036-142306
2744.24-159303-152083-126118-128455-133069-140499
2747.13-129932-126018-134996-137370-141311-142184
2750.02-131472-142266-174559-153587-136672-158794
2752.91-156757-150932-153262-161310-160716-165526
2755.81-178601-157712-145845-163527-155306-133886
2758.70-132365-147874-171393-185420-159275-144364
2761.59-145866-150787-159727-144193-121991-140793
2764.48-180697-172269-168394-165784-156501-160293
2767.38-156158-155252-173525-189077-194013-184686
2770.27-153919-150644-158768-146736-163694-172806
2773.16-160238-167353-153776-142600-160547-174864
2776.06-184089-180029-179139-172542-164387-186638
2778.95-169111-154966-168303-162285-161701-171556
2781.84-177476-176821-170670-158757-143055-129076
2784.73-128180-147908-178316-185842-183900-166226
2787.63-150248-162297-171387-189655-182274-168972
2790.52-173210-174803-183330-153419-140781-163883
2793.41-151716-150659-185671-180748-159788-162527
2796.30-159579-173396-177289-170234-167716-172004
2799.20-181240-176966-170326-173649-178770-183021
2802.09-173580-176025-174378-177411-195416-183791
2804.98-162956-147052-155615-172542-180003-174416
2807.88-172441-166001-164903-176868-167072-172285
2810.77-187504-184299-181382-162183-159201-175563
2813.66-171544-179836-193483-170596-147999-155964
2816.55-150960-146636-164905-158305-171987-168257
2819.45-136895-146498-179310-193467-178766-154530
2822.34-148717-150678-137289-136960-139995-150444
2825.23-165787-178450-181980-162575-181214-182438
2828.12-149314-147381-138386-129534-150896-197454
2831.02-206596-174961-158806-155223-160049-190599
2833.91-186813-168974-166043-177301-170071-121843
2836.80-132381-167362-172373-170762-157960-172700
2839.70-188855-185053-185168-187814-173658-167993
2842.59-181149-174053-165654-159518-159639-170279
2845.48-171254-162815-160192-165409-149983-112848
2848.37-132581-179050-181637-169500-170445-151184
2851.27-146444-145577-147788-155683-132582-140779
2854.16-162158-144238-131856-177036-198783-146189
2857.05-125709-136749-125223-131512-145233-150335
2859.94-147060-155230-172741-161858-136269-130582
2862.84-156774-165109-159617-164000-161389-178125
2865.73-198797-193227-175398-176845-189886-188016
2868.62-167927-159667-189088-174489-131045-119682
2871.52-144323-166263-171426-180714-153382-165152
2874.41-187258-168286-157066-152501-160296-176111
2877.30-173366-156865-141890-121728-122364-148045
2880.19-156005-152856-173845-198686-190575-169443
2883.09-152425-167801-185714-169761-159030-158799
2885.98-158718-158836-187074-192446-173279-174099
2888.87-169504-164877-167036-176632-169532-161684
2891.76-161969-152000-167175-190559-187416-174883
2894.66-157064-154062-175634-177588-166221-176523
2897.55-184310-181429-175793-173239-182507-186139
2900.44-167655-164909-162898-147792-179182-213225
2903.34-181536-146192-148015-158038-168427-182115
2906.23-195696-197072-169753-155443-169434-188522
2909.12-195951-171893-160870-165601-183211-208702
2912.01-200082-172327-190487-185867-149135-162193
2914.91-172330-172486-198537-203808-193276-199467
2917.80-196383-193641-187474-183529-192601-178189
2920.69-164988-170078-184799-182480-154154-145742
2923.58-164730-175324-186172-180696-154273-177189
2926.48-190647-180673-193535-189189-155801-159721
2929.37-156173-129394-148329-180491-188718-195529
2932.26-198854-191538-202122-194856-187253-186050
2935.16-168425-160494-170804-189817-199159-183196
2938.05-167389-216385-218496-161056-148839-164726
2940.94-175073-179005-157967-143851-170114-166806
2943.83-179213-198254-200030-194620-194520-220801
2946.73-227259-193239-142977-98236-139184-177711
2949.62-187598-223861-206837-205135-187028-128953
2952.51-158393-176866-162352-185035-200389-196291
2955.40-168697-141849-150287-159062-134074-115597
2958.30-153841-193962-199314-189978-161970-155697
2961.19-150314-136337-124165-144116-170618-173268
2964.08-169450-170896-182436-192638-199975-158756
2966.98-129517-174203-197604-177818-147074-141416
2969.87-177879-170552-159617-179445-171048-172890
2972.76-182682-184889-183305-174348-164779-173823
2975.65-173431-152657-126741-127630-141756-138993
2978.55-154191-180374-172863-161825-135606-124416
2981.44-154838-157137-159000-163167-170091-163043
2984.33-148941-164590-161714-125006-134385-181983
2987.22-201585-196612-186016-198357-179386-150335
2990.12-157986-151453-135331-146752-163010-158514
2993.01-161379-169318-154083-125734-141768-176260
2995.90-175996-164781-176267-172970-147108-136643
2998.80-135354-146022-159721-169738-174903-161102
3001.69-131900-134756-164885-167595-140630-144381
3004.58-155009-155488-138420-119373-134070-139164
3007.47-153790-172933-173332-153537-145617-153796
3010.37-157099-151472-154664-156578-130584-126716
3013.26-142922-142562-143155-152655-152844-161201
3016.15-171053-163953-165809-175679-179727-158672
3019.04-149239-162652-160357-146538-157912-167679
3021.94-156896-160005-172318-157535-168944-180439
3024.83-157400-176296-183717-187905-189137-191331
3027.72-193998-177641-154693-144619-154682-143421
3030.62-156928-178794-175250-176392-187982-205430
3033.51-216257-186868-143301-153630-185102-191352
3036.40-186321-166938-169844-186618-161826-153529
3039.29-172261-208858-218981-189718-161603-151311
3042.19-167849-189367-177082-168107-161994-158635
3045.08-185849-192791-171995-143299-169036-218919
3047.97-238369-193689-164880-182152-176673-147576
3050.86-132122-152336-162215-157756-146597-160047
3053.76-170701-147776-143095-171422-191450-174189
3056.65-175601-180047-168434-181314-183409-173680
3059.54-175190-165554-150908-168457-153955-122213
3062.44-156684-162032-143551-158304-176521-169710
3065.33-166750-185841-173171-155623-170021-169755
3068.22-164245-146230-112480-112188-133253-160526
3071.11-137684-129333-139153-140071-150877-148498
3074.01-160348-152610-157084-164370-146281-138078
3076.90-136527-145379-153196-159125-164073-146552
3079.79-144903-171902-193492-172068-164098-171099
3082.68-147310-151728-161910-139676-158866-188444
3085.58-185154-180366-174654-183563-173774-146125
3088.47-121867-128157-147833-139509-153493-163109
3091.36-161094-156705-154721-158784-164014-169347
3094.26-153336-138018-132972-136310-155668-165018
3097.15-164037-159489-138200-107756-126618-163668
3100.04-149136-136642-138919-153490-138497-128769
3102.93-119457-109057-121177-134690-145676-146736
3105.83-152547-148341-141651-170838-176578-152505
3108.72-146297-158757-149332-144876-143028-133923
3111.61-156377-137410-117757-124766-119583-116518
3114.50-114082-117697-118596-124955-152354-152350
3117.40-140045-129189-130699-132707-150995-141371
3120.29-116034-146895-149195-126241-120035-131746
3123.18-126310-147854-161789-126289-108063-119085
3126.08-137542-142890-138219-135235-146971-147140
3128.97-115194-115069-126324-146269-173289-146916
3131.86-121034-126690-137551-155546-157881-156700
3134.75-139888-106620-122006-145792-157703-129471
3137.65-117604-127886-136151-125223-123992-135960
3140.54-142968-176129-174182-159757-160423-156750
3143.43-138098-138733-115607-127772-162853-130721
3146.32-113590-122172-129072-151566-141438-122771
3149.22-153888-183153-179246-158079-132047-123760
3152.11-146159-162821-168836-167420-162973-139740
3155.00-98200-138800-166867-143916-160178-175958
3157.90-179212-155264-128702-120054-115480-130459
3160.79-155184-156408-128214-133090-168502-162481
3163.68-150060-163054-164575-154107-143966-145623
3166.57-169180-201827-199149-184498-187900-148726
3169.47-130342-162186-172091-156325-132108-135848
3172.36-148092-151963-152744-148343-169286-169341
3175.25-155842-142996-141566-165109-196287-213377
3178.14-198048-204595-188886-163268-158186-167716
3181.04-175930-163849-145126-122563-136858-163259
3183.93-176374-154992-147295-187625-165647-163654
3186.82-203875-199239-181900-164937-176812-161591
3189.72-149100-164851-148590-148490-182364-189151
3192.61-164801-165065-197848-194661-187329-193445
3195.50-178912-154221-154012-162963-170003-192841
3198.39-185960-164306-181460-204786-188461-167559
3201.29-139698-132077-128828-150199-195831-206883
3204.18-196885-188675-193419-193634-217993-206956
3207.07-187111-167903-156231-174292-152391-133439
3209.96-128527-121321-143949-171770-163255-161425
3212.86-176401-173658-181074-189437-169531-149265
3215.75-177932-192120-157251-152780-142573-148531
3218.64-163892-136316-115866-114730-138864-156998
3221.54-141276-162877-178905-169905-156993-142940
3224.43-163367-163473-136893-146212-174537-172201
3227.32-186222-179243-149074-142678-141618-140258
3230.21-133918-137675-137129-155199-176443-193784
3233.11-181227-164776-177549-170022-168801-156411
3236.00-147541-165102-206444-201913-173421-164891
3238.89-156058-157412-137873-136530-144279-151352
3241.78-160665-163681-181222-183250-168535-159086
3244.68-170530-180502-184094-185700-154985-130864
3247.57-140708-143171-157770-160553-143987-155485
3250.46-163572-172904-189388-161292-148947-168828
3253.36-160981-145507-157124-162172-162328-189946
3256.25-195032-182956-168576-152571-129927-135967
3259.14-155603-161617-155087-146466-162334-167413
3262.03-158849-151467-189589-182627-131248-123966
3264.93-141913-159705-150268-153330-162724-154895
3267.82-149398-186422-198027-165044-165021-172612
3270.71-169693-157531-146787-146232-125191-121458
3273.60-160868-144117-113568-131436-143506-145399
3276.50-146591-137943-143018-170902-167816-136029
3279.39-137459-153626-139950-143932-158297-165165
3282.28-179924-198193-193806-160344-138080-151423
3285.18-173720-188155-160719-140078-141622-137227
3288.07-135553-145324-145318-137138-147487-144472
3290.96-140319-129883-153814-179713-166607-164456
3293.85-177020-171615-149801-150292-183308-180206
3296.75-174011-152688-130910-160428-149826-161388
3299.64-184895-172148-154819-156054-142024-128038
3302.53-146924-161773-154721-148535-179851-195044
3305.42-167245-160362-192212-203051-195850-206157
3308.32-195634-166931-161822-143573-146818-148710
3311.21-164024-181229-183947-188783-166079-195170
3314.10-197030-185500-213256-197628-186343-191350
3317.00-198696-187122-148641-135997-144181-165995
3319.89-167024-172021-197700-187407-174043-169002
3322.78-171199-189355-194562-199650-205915-176419
3325.67-164125-190596-185119-196566-233039-226662
3328.57-225209-202494-183741-195952-195411-218406
3331.46-214274-201056-201440-166124-176031-187805
3334.35-150054-173392-192548-173137-147558-187520
3337.24-252702-231934-230267-256072-230057-213395
3340.14-225925-198836-169150-167900-185315-177750
3343.03-143575-134533-154578-181009-167137-193109
3345.92-242096-277256-273447-271296-284686-208889
3348.82-135395-94191-79825-101085-138763-224047
3351.71-261288-267427-252628-219638-241191-226088
3354.60-199386-197445-205661-230774-228764-215318
3357.49-205944-213242-221414-197324-170030-137077
3360.39-154119-156396-160232-227572-244926-255213
3363.28-246626-226385-265197-270681-258420-236596
3366.17-226059-216515-169789-155819-174867-198927
3369.06-213548-230193-226532-205855-188617-173343
3371.96-170970-162887-181660-204117-208650-201105
3374.85-172110-173562-187741-181756-215836-251965
3377.74-241237-205378-192965-208225-195410-194646
3380.64-216765-224594-187442-195374-230077-209533
3383.53-196923-192409-201279-225583-220450-225601
3386.42-214202-225857-241833-195271-194061-208644
3389.31-164395-180503-234456-199180-173326-193739
3392.21-194018-211726-211302-203397-221440-218103
3395.10-210354-193004-194140-174760-174378-218753
3397.99-227926-243342-234334-212021-222473-205763
3400.88-184014-186589-208073-243774-223483-210328
3403.78-202365-203459-191766-177476-209015-228079
3406.67-240509-237519-235370-189429-167062-215815
3409.56-193013-189116-241349-230073-235390-199890
3412.46-187625-231629-192590-162816-203342-223960
3415.35-229706-253482-216483-191938-218208-227267
3418.24-218826-215247-209160-193190-255536-272377
3421.13-201765-155686-154219-171056-187347-239296
3424.03-236792-191675-198849-204459-201764-217909
3426.92-187097-170185-218189-239675-218490-219718
3429.81-212492-204625-208907-225848-268043-254799
3432.70-204851-185671-200899-197386-195950-190261
3435.60-175814-178254-221041-228966-201246-197040
3438.49-213358-212302-197442-215135-218593-207006
3441.38-248299-289051-227492-153527-180353-222277
3444.28-233095-251405-223069-213070-239948-224378
3447.17-208027-212958-184599-156589-164808-212217
3450.06-214864-183498-192070-183575-174373-208456
3452.95-242096-212096-194612-222364-194921-147954
3455.85-176295-222362-228054-203167-178980-203067
3458.74-233176-227180-199245-201110-219320-211691
3461.63-191576-193920-205633-195702-187362-174975
3464.52-189579-225232-208148-192757-156655-130185
3467.42-174931-182632-168040-158028-187009-212150
3470.31-217380-248178-200524-203422-228732-203163
3473.20-186396-180259-190225-205695-198087-153802
3476.10-180622-226350-207431-173127-185066-214958
3478.99-208784-198311-209159-196584-167139-184866
3481.88-222722-217208-201900-179564-188428-196620
3484.77-206912-213986-195571-194759-226965-249606
3487.67-180915-165063-170396-177546-192566-182729
3490.56-179866-183992-199071-201744-179366-150687
3493.45-156436-184388-207875-210313-203269-182917
3496.34-176708-186412-199407-198576-197387-222972
3499.24-210190-202965-207730-160632-172185-227009
3502.13-204374-186734-206564-205295-189306-162347
3505.02-169141-167482-146705-155413-207001-226769
3507.92-215196-208064-197986-198527-185253-163700
3510.81-175170-185981-181924-199300-193521-173198
3513.70-185197-195727-209835-191654-158777-177610
3516.59-163616-159067-162739-170839-201169-216491
3519.49-214446-234365-222549-192700-209751-196711
3522.38-186614-195647-172703-168889-179092-174818
3525.27-188786-189355-198357-201861-185997-175452
3528.16-203679-234492-226363-208564-218897-225578
3531.06-185167-193996-210606-174222-184442-208358
3533.95-215871-180741-157141-174871-200815-218298
3536.84-223486-227449-197507-207681-224205-222850
3539.74-207488-218913-240353-219199-196425-214000
3542.63-191824-185746-252815-258716-230216-220398
3545.52-199881-179329-181937-166598-149437-158377
3548.41-181190-198054-202909-203774-201934-215289
3551.31-198624-201950-218747-202543-212609-190372
3554.20-181799-221637-222360-223562-238101-228390
3557.09-213333-213872-193773-198850-245932-248406
3559.98-237890-209778-190417-193781-160666-150796
3562.88-200225-204053-170815-175824-191948-197079
3565.77-177440-175778-180756-175246-197854-213412
3568.66-212312-205527-193614-196401-174492-169765
3571.56-188777-210959-223060-188623-208927-217377
3574.45-175188-156650-149367-183101-211351-216511
3577.34-235047-219394-198063-175986-197911-252560
3580.23-261620-245506-205179-191595-192521-171467
3583.13-170065-169835-150161-191518-235502-239289
3586.02-240761-235606-251738-214451-193885-197414
3588.91-174222-185439-213684-206301-202046-216951
3591.80-229710-226973-205669-225669-250356-258709
3594.70-243435-207103-202822-212796-231938-213656
3597.59-183392-186959-170739-180999-215420-213807
3600.48-182809-159733-185161-224472-194855-189480
3603.38-222058-238025-226639-216650-202993-196354
3606.27-231338-236529-218974-176495-170889-212956
3609.16-223550-198799-176242-191416-185362-191885
3612.05-196183-186078-177640-186846-229299-199212
3614.95-198084-216246-175060-181858-213241-200579
3617.84-168596-164930-178007-220315-263341-223728
3620.73-195154-214812-227961-216195-198827-193526
3623.62-196836-202061-185476-179275-191325-200487
3626.52-207850-210407-226626-248481-220307-220410
3629.41-216901-198020-195163-174984-188987-219670
3632.30-220471-198070-172633-171175-184168-189011
3635.20-190406-185908-204682-199199-181495-181573
3638.09-194729-230517-237822-210966-213337-256233
3640.98-255658-234278-227761-229633-217875-193635
3643.87-183656-187751-198456-197104-234549-236042
3646.77-189510-181741-194032-190516-178285-164132
3649.66-176633-217343-244004-242716-223040-180935
3652.55-158831-202501-208058-194327-209209-189393
3655.44-178345-225646-213135-176284-136610-99960
3658.34-140694-161958-190292-221418-223709-218593
3661.23-196497-215301-231630-193867-170686-179487
3664.12-203868-175130-153345-181623-187235-184444
3667.02-187643-192553-216796-224553-190318-196274
3669.91-231332-227573-202735-202154-180884-186343
3672.80-200882-170260-168478-198980-209160-202804
3675.69-202602-178983-136270-117960-129054-162105
3678.59-167760-134703-128814-137401-167240-180035
3681.48-161052-153631-152928-136474-139294-143217
3684.37-152838-172146-150643-134951-142912-154178
3687.26-148217-173013-176066-111248-105784-152612
3690.16-201358-228376-216963-171841-123869-127632
3693.05-145518-171420-160092-124539-118370-146327
3695.94-187938-172718-157909-189055-183749-181111
3698.84-200371-190429-186647-170028-152790-174765
3701.73-168055-166512-201889-186917-192271-213357
3704.62-211131-205232-208605-229910-235585-226155
3707.51-227671-246563-249408-241693-227803-209069
3710.41-197920-244478-309503-270675-199694-207451
3713.30-254310-260923-220084-222729-263740-247297
3716.19-227931-241006-229138-224553-278415-278484
3719.08-222950-225193-255905-276716-272704-293801
3721.98-288351-252476-259079-264041-277194-292659
3724.87-291341-293724-259194-260993-246468-242436
3727.76-268471-259537-256023-257809-272375-266568
3730.66-272344-299768-307012-294185-317761-314460
3733.55-288718-286408-307765-314286-277002-302598
3736.44-296941-265737-284257-269630-245622-251309
3739.33-255957-266836-313570-324898-285142-265201
3742.23-312531-353016-315588-367392-436063-367105
3745.12-312519-318726-297751-268924-253309-213554
3748.01-236543-348521-395979-332753-327128-330284
3750.90-314846-369093-366438-291428-277198-278814
3753.80-253184-267912-291210-300008-286446-304560
3756.69-327367-310268-286619-278544-290806-301229
3759.58-304655-279336-273680-282693-277037-276094
3762.48-279150-283542-284953-254844-268044-266608
3765.37-234212-234866-252894-287759-281666-281226
3768.26-306529-275076-254104-274478-283514-292452
3771.15-282140-271267-292544-283358-232655-211922
3774.05-242960-268503-247575-234362-245444-264130
3776.94-297231-279384-246453-275063-278777-252588
3779.83-243774-260957-268302-252431-250457-238382
3782.72-236416-264834-252208-248858-281111-265337
3785.62-251730-258487-245966-232789-218266-220910
3788.51-249455-270300-243716-220340-235430-240158
3791.40-232468-237313-264481-241220-232654-248702
3794.30-219874-208014-214061-247570-246241-225619
3797.19-239985-225891-212723-209641-203605-217121
3800.08-214889-276854-328251-264197-233098-243406
3802.97-222617-218955-212594-206211-221697-221756
3805.87-217160-256507-278726-224524-218740-252445
3808.76-254443-241978-216255-210641-235140-234017
3811.65-192565-167191-171104-202428-221718-202957
3814.54-184369-203981-247754-245960-227388-239480
3817.44-241355-241852-229119-202946-213895-239562
3820.33-231306-232142-261213-240688-221296-213949
3823.22-220362-219279-214373-223730-213641-207810
3826.12-180686-182161-201961-219187-234285-191815
3829.01-162907-179562-212521-213690-220068-216996
3831.90-168812-179985-228809-231476-218358-249464
3834.79-241944-203151-217077-230568-242296-303305
3837.69-284395-238414-244538-209938-228820-271798
3840.58-246555-225999-224694-234538-245395-252683
3843.47-236128-216074-195097-178893-204613-226875
3846.36-215537-210292-230447-230005-216068-196154
3849.26-205944-210961-236963-250478-271602-280929
3852.15-208019-192876-260487-308411-274312-249661
3855.04-240161-232920-222054-235915-263585-233154
3857.94-245942-279106-269445-228649-202765-189243
3860.83-169823-187269-230224-238212-203335-213455
3863.72-232384-227878-242940-253362-230785-208757
3866.61-180014-157969-172253-200648-224577-238872
3869.51-279449-282070-237168-222694-222659-197974
3872.40-188813-188931-184096-197680-221129-213611
3875.29-186996-185591-189646-192766-213106-222072
3878.18-207133-173356-205464-252154-254946-251706
3881.08-227723-217509-200514-233042-238814-243748
3883.97-241808-240367-286138-271789-237736-230026
3886.86-244293-268836-239991-209486-204541-192907
3889.76-222758-277678-299814-275587-238838-195877
3892.65-192925-216423-233669-255125-227161-224549
3895.54-259336-229347-208585-213904-196844-182036
3898.43-214324-233812-199864-202137-230534-233613
3901.33-242727-234858-230203-234322-252604-283028
3904.22-249225-204955-220145-233564-226395-200477
3907.11-169017-179790-209365-203704-178657-202374
3910.00-225097-184797-186728-223905-227052-199420
3912.90-184266-225201-244255-244213-237206-218743
3915.79-217213-218926-223509-231830-228457-238877
3918.68-228414-213888-215033-191186-196385-225582
3921.58-224586-243247-251935-255138-276019-252857
3924.47-230975-211966-172600-179011-220444-241776
3927.36-230674-215075-239950-212170-176841-214518
3930.25-242975-255567-239821-235101-256087-237400
3933.15-195153-172403-210548-245273-252346-246545
3936.04-234684-260389-272435-254402-272449-266399
3938.93-230743-210716-197107-203119-203921-230271
3941.82-265544-243949-241362-227513-236031-239942
3944.72-220124-230859-209748-228387-245322-228247
3947.61-225123-207114-204564-237362-250500-220177
3950.50-196059-203881-259710-271544-215612-206551
3953.40-233247-239198-224101-232053-212402-241256
3956.29-294480-259643-264147-278901-224226-193098
3959.18-188828-207157-255438-273452-247022-216623
3962.07-218588-236033-225228-250916-254455-230356
3964.97-241176-226381-218357-224788-215510-221201
3967.86-238706-226619-248131-256469-230940-234192
3970.75-227375-235847-253718-217264-208537-230130
3973.64-235631-265857
##END=
