##TITLE=FREON 112
##JCAMP-DX=4.24
##DATA TYPE=INFRARED SPECTRUM
##CLASS=COBLENTZ
##ORIGIN=DOW CHEMICAL COMPANY
##OWNER=COBLENTZ SOCIETY
Collection (C) 2018 copyright by the U.S. Secretary of Commerce
on behalf of the United States of America. All rights reserved.
##DATE=1976/06/02
##NAMES=1,1,2,2-tetrachloro-1,2-difluoroethane
ETHANE, 1,1,2,2-TETRACHLORO-1,2-DIFLUORO-
##CAS REGISTRY NO=76-12-0
##MOLFORM=C2 Cl4 F2
##SOURCE REFERENCE=COBLENTZ NO. 10482
##$NIST SOURCE=COBLENTZ
##$NIST IMAGE=cob-r10482
##SPECTROMETER/DATA SYSTEM=DIGILAB FTS-14
##STATE=GAS
##SAMPLING PROCEDURE=TRANSMISSION
##RESOLUTION=2
##DATA PROCESSING=DIGITIZED BY NIST FROM HARD COPY (FROM TWO SEGMENTS)
##XUNITS=1/CM
##YUNITS=TRANSMITTANCE
##XFACTOR=1.000000
##YFACTOR=1
##DELTAX=1.305059
##FIRSTX=719.739
##LASTX=3648.29
##FIRSTY=0.82
##MAXX=3648.29
##MINX=719.739
##MAXY=0.830452
##MINY=0.002
##NPOINTS=2245
##XYDATA=(X++(Y..Y))
719.739000 0.8200 0.8160 0.7980 0.8199 0.8160
726.264293 0.7981 0.7831 0.7830 0.7939 0.8019
732.789585 0.8180 0.8180 0.8160 0.7941 0.7651
739.314878 0.7421 0.6397 0.6112 0.5575 0.5204
745.840170 0.4770 0.3701 0.3231 0.2961 0.2462
752.365463 0.2072 0.1543 0.1292 0.0863 0.0692
758.890755 0.0630 0.0590 0.0590 0.0650 0.0720
765.416048 0.0800 0.0840 0.0880 0.0920 0.0979
771.941340 0.1000 0.1000 0.1020 0.1000 0.0861
778.466633 0.0691 0.0511 0.0391 0.0221 0.0121
784.991925 0.0040 0.0040 0.0040 0.0040 0.0040
791.517218 0.0040 0.0040 0.0060 0.0100 0.0179
798.042510 0.0370 0.0650 0.0979 0.1289 0.2974
804.567803 0.4662 0.5237 0.5796 0.6187 0.6438
811.093095 0.6580 0.6640 0.6680 0.6680 0.6640
817.618388 0.6620 0.6521 0.6371 0.6271 0.5983
824.143680 0.5690 0.5370 0.5041 0.4651 0.3704
830.668973 0.3312 0.2754 0.2224 0.1853 0.1275
837.194265 0.0820 0.0570 0.0390 0.0280 0.0141
843.719558 0.0080 0.0040 0.0020 0.0040 0.0040
850.244850 0.0080 0.0120 0.0160 0.0319 0.0549
856.770143 0.0739 0.0919 0.1089 0.1437 0.1717
863.295435 0.2300 0.2570 0.2750 0.2900 0.2920
869.820728 0.2920 0.2831 0.2651 0.2362 0.2182
876.346020 0.1930 0.1660 0.1480 0.1211 0.0802
882.871313 0.0551 0.0411 0.0281 0.0161 0.0081
889.396605 0.0040 0.0020 0.0020 0.0020 0.0040
895.921898 0.0040 0.0040 0.0040 0.0040 0.0060
902.447190 0.0080 0.0100 0.0200 0.0260 0.0300
908.972483 0.0300 0.0409 0.0489 0.0530 0.0629
915.497775 0.0820 0.0940 0.1060 0.1289 0.1658
922.023068 0.1849 0.2029 0.2238 0.2508 0.2530
928.548360 0.2530 0.2460 0.2320 0.2220 0.2031
935.073653 0.1911 0.1791 0.1760 0.1760 0.1790
941.598945 0.1970 0.2160 0.2749 0.3328 0.3738
948.124238 0.3949 0.4149 0.4726 0.5196 0.5794
954.649530 0.6210 0.6290 0.6350 0.6440 0.6560
961.174823 0.6640 0.6789 0.6850 0.6969 0.7010
967.700115 0.7030 0.7110 0.7160 0.7220 0.7280
974.225408 0.7300 0.7320 0.7340 0.7360 0.7380
980.750700 0.7420 0.7420 0.7420 0.7400 0.7400
987.275993 0.7400 0.7380 0.7380 0.7380 0.7380
993.801285 0.7400 0.7440 0.7440 0.7440 0.7440
1000.326578 0.7440 0.7420 0.7400 0.7321 0.7261
1006.851870 0.7160 0.7110 0.6950 0.6790 0.6541
1013.377163 0.6331 0.6002 0.5762 0.5453 0.5222
1019.902455 0.4870 0.4540 0.3602 0.3181 0.2772
1026.427748 0.2511 0.2182 0.1832 0.1562 0.1332
1032.953040 0.0980 0.0900 0.0860 0.0920 0.0980
1039.478333 0.1020 0.1209 0.1349 0.1618 0.2125
1046.003625 0.2590 0.3549 0.3949 0.4339 0.4848
1052.528918 0.5686 0.6207 0.6369 0.6499 0.6639
1059.054210 0.6720 0.6810 0.6890 0.6950 0.6990
1065.579503 0.7010 0.7030 0.7050 0.7030 0.6990
1072.104795 0.6930 0.6850 0.6790 0.6640 0.6500
1078.630088 0.6371 0.6211 0.6021 0.5742 0.5472
1085.155380 0.5080 0.4790 0.4461 0.3662 0.3351
1091.680673 0.3141 0.2862 0.2572 0.2461 0.2282
1098.205965 0.2030 0.1950 0.1950 0.2129 0.2319
1104.731258 0.2380 0.2400 0.2400 0.2380 0.2321
1111.256550 0.2260 0.1990 0.1641 0.1291 0.0941
1117.781843 0.0781 0.0611 0.0491 0.0411 0.0202
1124.307135 0.0200 0.0240 0.0320 0.0529 0.0719
1130.832428 0.0800 0.0860 0.0939 0.0980 0.1000
1137.357720 0.1090 0.1170 0.1190 0.1150 0.0941
1143.883013 0.0821 0.0691 0.0630 0.0610 0.0590
1150.408305 0.0610 0.0760 0.0900 0.1040 0.1498
1156.933598 0.1808 0.2237 0.2607 0.3503 0.3817
1163.458890 0.4110 0.4500 0.4480 0.4271 0.3722
1169.984183 0.3451 0.3201 0.2942 0.2811 0.2443
1176.509475 0.2400 0.2420 0.2809 0.3179 0.3598
1183.034768 0.3948 0.4298 0.6237 0.6409 0.6638
1189.560060 0.6810 0.6970 0.7010 0.7030 0.7130
1196.085353 0.7180 0.7200 0.7220 0.7240 0.7260
1202.610645 0.7260 0.7300 0.7320 0.7320 0.7340
1209.135938 0.7380 0.7400 0.7440 0.7460 0.7510
1215.661230 0.7530 0.7550 0.7590 0.7610 0.7610
1222.186523 0.7630 0.7630 0.7630 0.7630 0.7630
1228.711815 0.7630 0.7630 0.7610 0.7610 0.7610
1235.237108 0.7610 0.7610 0.7590 0.7590 0.7570
1241.762400 0.7570 0.7550 0.7530 0.7510 0.7510
1248.287693 0.7480 0.7480 0.7480 0.7480 0.7480
1254.812985 0.7460 0.7460 0.7460 0.7460 0.7460
1261.338278 0.7460 0.7460 0.7480 0.7480 0.7480
1267.863570 0.7480 0.7510 0.7510 0.7530 0.7550
1274.388863 0.7550 0.7570 0.7590 0.7610 0.7610
1280.914155 0.7630 0.7630 0.7630 0.7630 0.7630
1287.439448 0.7630 0.7650 0.7650 0.7650 0.7650
1293.964740 0.7670 0.7670 0.7670 0.7670 0.7670
1300.490033 0.7670 0.7670 0.7650 0.7630 0.7610
1307.015325 0.7610 0.7610 0.7590 0.7590 0.7590
1313.540618 0.7590 0.7570 0.7550 0.7530 0.7510
1320.065910 0.7510 0.7510 0.7510 0.7510 0.7530
1326.591203 0.7570 0.7630 0.7650 0.7670 0.7690
1333.116495 0.7690 0.7670 0.7670 0.7670 0.7650
1339.641788 0.7650 0.7650 0.7650 0.7650 0.7650
1346.167080 0.7650 0.7650 0.7650 0.7630 0.7630
1352.692373 0.7610 0.7610 0.7630 0.7650 0.7650
1359.217665 0.7670 0.7690 0.7690 0.7690 0.7730
1365.742958 0.7750 0.7770 0.7770 0.7790 0.7790
1372.268250 0.7790 0.7790 0.7770 0.7770 0.7770
1378.793543 0.7770 0.7790 0.7770 0.7770 0.7770
1385.318835 0.7770 0.7770 0.7770 0.7770 0.7770
1391.844128 0.7750 0.7750 0.7750 0.7750 0.7730
1398.369420 0.7730 0.7730 0.7730 0.7750 0.7750
1404.894713 0.7750 0.7730 0.7730 0.7730 0.7730
1411.420005 0.7730 0.7730 0.7730 0.7730 0.7730
1417.945298 0.7710 0.7690 0.7690 0.7690 0.7690
1424.470590 0.7690 0.7710 0.7730 0.7730 0.7750
1430.995883 0.7750 0.7750 0.7750 0.7750 0.7770
1437.521175 0.7770 0.7790 0.7790 0.7790 0.7790
1444.046468 0.7810 0.7810 0.7810 0.7810 0.7830
1450.571760 0.7830 0.7830 0.7830 0.7830 0.7830
1457.097053 0.7830 0.7830 0.7830 0.7830 0.7830
1463.622345 0.7830 0.7830 0.7830 0.7830 0.7830
1470.147638 0.7830 0.7830 0.7830 0.7830 0.7830
1476.672930 0.7830 0.7830 0.7830 0.7860 0.7880
1483.198223 0.7880 0.7900 0.7900 0.7880 0.7860
1489.723515 0.7860 0.7830 0.7830 0.7830 0.7830
1496.248808 0.7830 0.7860 0.7860 0.7860 0.7860
1502.774100 0.7830 0.7830 0.7810 0.7810 0.7810
1509.299393 0.7830 0.7830 0.7830 0.7810 0.7810
1515.824685 0.7810 0.7810 0.7790 0.7790 0.7790
1522.349978 0.7770 0.7770 0.7750 0.7750 0.7750
1528.875270 0.7750 0.7750 0.7750 0.7750 0.7750
1535.400563 0.7750 0.7750 0.7750 0.7770 0.7770
1541.925855 0.7790 0.7810 0.7830 0.7880 0.7880
1548.451148 0.7880 0.7860 0.7830 0.7810 0.7810
1554.976440 0.7810 0.7810 0.7790 0.7790 0.7790
1561.501733 0.7790 0.7790 0.7810 0.7810 0.7830
1568.027025 0.7830 0.7830 0.7830 0.7830 0.7830
1574.552318 0.7830 0.7860 0.7860 0.7860 0.7860
1581.077610 0.7860 0.7830 0.7830 0.7860 0.7860
1587.602903 0.7860 0.7860 0.7880 0.7860 0.7860
1594.128195 0.7860 0.7860 0.7860 0.7880 0.7900
1600.653488 0.7900 0.7900 0.7880 0.7860 0.7860
1607.178780 0.7860 0.7860 0.7860 0.7860 0.7830
1613.704073 0.7830 0.7830 0.7860 0.7860 0.7860
1620.229365 0.7880 0.7880 0.7880 0.7880 0.7860
1626.754658 0.7860 0.7860 0.7830 0.7830 0.7830
1633.279950 0.7830 0.7830 0.7830 0.7830 0.7860
1639.805243 0.7860 0.7900 0.7900 0.7880 0.7880
1646.330535 0.7880 0.7880 0.7860 0.7860 0.7860
1652.855828 0.7880 0.7880 0.7860 0.7830 0.7830
1659.381120 0.7830 0.7830 0.7830 0.7830 0.7830
1665.906413 0.7830 0.7830 0.7860 0.7860 0.7860
1672.431705 0.7860 0.7830 0.7830 0.7830 0.7830
1678.956998 0.7830 0.7830 0.7830 0.7810 0.7810
1685.482290 0.7810 0.7810 0.7790 0.7790 0.7770
1692.007583 0.7770 0.7770 0.7770 0.7770 0.7770
1698.532875 0.7770 0.7770 0.7770 0.7770 0.7770
1705.058168 0.7770 0.7770 0.7790 0.7790 0.7810
1711.583460 0.7830 0.7830 0.7830 0.7830 0.7830
1718.108753 0.7860 0.7860 0.7860 0.7830 0.7830
1724.634045 0.7830 0.7830 0.7860 0.7880 0.7880
1731.159338 0.7880 0.7880 0.7860 0.7830 0.7790
1737.684630 0.7790 0.7790 0.7790 0.7790 0.7810
1744.209923 0.7830 0.7830 0.7810 0.7810 0.7790
1750.735215 0.7790 0.7810 0.7810 0.7810 0.7810
1757.260508 0.7810 0.7790 0.7790 0.7810 0.7830
1763.785800 0.7830 0.7830 0.7830 0.7810 0.7810
1770.311093 0.7810 0.7810 0.7810 0.7830 0.7830
1776.836385 0.7860 0.7880 0.7880 0.7880 0.7880
1783.361678 0.7860 0.7860 0.7860 0.7860 0.7860
1789.886970 0.7860 0.7830 0.7830 0.7830 0.7830
1796.412263 0.7830 0.7830 0.7810 0.7810 0.7830
1802.937555 0.7830 0.7830 0.7810 0.7810 0.7810
1809.462848 0.7810 0.7810 0.7790 0.7790 0.7790
1815.988140 0.7790 0.7790 0.7790 0.7790 0.7790
1822.513433 0.7790 0.7810 0.7830 0.7860 0.7860
1829.038725 0.7830 0.7830 0.7860 0.7880 0.7880
1835.564018 0.7880 0.7900 0.7900 0.7880 0.7860
1842.089310 0.7830 0.7830 0.7830 0.7830 0.7830
1848.614603 0.7830 0.7830 0.7860 0.7880 0.7880
1855.139895 0.7880 0.7880 0.7880 0.7880 0.7860
1861.665188 0.7860 0.7860 0.7860 0.7860 0.7880
1868.190480 0.7880 0.7880 0.7880 0.7880 0.7880
1874.715773 0.7880 0.7880 0.7880 0.7880 0.7860
1881.241065 0.7860 0.7860 0.7860 0.7860 0.7830
1887.766358 0.7830 0.7830 0.7830 0.7830 0.7830
1894.291650 0.7830 0.7830 0.7830 0.7810 0.7810
1900.816943 0.7830 0.7830 0.7830 0.7830 0.7830
1907.342235 0.7830 0.7830 0.7830 0.7810 0.7810
1913.867528 0.7810 0.7810 0.7810 0.7810 0.7830
1920.392820 0.7810 0.7810 0.7810 0.7810 0.7810
1926.918113 0.7810 0.7810 0.7810 0.7830 0.7830
1933.443405 0.7860 0.7860 0.7830 0.7830 0.7810
1939.968698 0.7810 0.7810 0.7830 0.7860 0.7860
1946.493990 0.7860 0.7830 0.7830 0.7810 0.7810
1953.019283 0.7810 0.7810 0.7810 0.7830 0.7830
1959.544575 0.7830 0.7810 0.7830 0.7830 0.7830
1966.069868 0.7830 0.7830 0.7810 0.7810 0.7810
1972.595160 0.7810 0.7810 0.7810 0.7810 0.7810
1979.120453 0.7810 0.7810 0.7810 0.7810 0.7810
1985.645745 0.7810 0.7810 0.7830 0.7830 0.7830
1992.171038 0.7830 0.7830 0.7830 0.7810 0.7810
1998.696330 0.7810 0.7790 0.7790 0.7790 0.7800
2005.221623 0.7810 0.7810 0.7810 0.7810 0.7810
2011.746915 0.7810 0.7810 0.7810 0.7810 0.7810
2018.272208 0.7810 0.7810 0.7810 0.7810 0.7810
2024.797500 0.7810 0.7810 0.7802 0.7792 0.7790
2031.322793 0.7790 0.7790 0.7790 0.7797 0.7807
2037.848085 0.7810 0.7810 0.7810 0.7810 0.7816
2044.373378 0.7826 0.7830 0.7830 0.7830 0.7830
2050.898670 0.7844 0.7869 0.7880 0.7880 0.7880
2057.423963 0.7880 0.7880 0.7880 0.7880 0.7880
2063.949255 0.7876 0.7866 0.7854 0.7839 0.7830
2070.474548 0.7830 0.7830 0.7830 0.7830 0.7830
2076.999840 0.7830 0.7830 0.7830 0.7830 0.7830
2083.525133 0.7830 0.7830 0.7830 0.7830 0.7830
2090.050425 0.7830 0.7830 0.7833 0.7848 0.7860
2096.575718 0.7860 0.7858 0.7843 0.7830 0.7830
2103.101010 0.7830 0.7830 0.7830 0.7830 0.7830
2109.626303 0.7830 0.7830 0.7830 0.7830 0.7820
2116.151595 0.7810 0.7810 0.7810 0.7800 0.7790
2122.676888 0.7790 0.7790 0.7781 0.7771 0.7770
2129.202180 0.7770 0.7770 0.7770 0.7770 0.7770
2135.727473 0.7770 0.7770 0.7770 0.7770 0.7770
2142.252765 0.7770 0.7762 0.7752 0.7743 0.7733
2148.778058 0.7701 0.7662 0.7643 0.7633 0.7623
2155.303350 0.7613 0.7577 0.7527 0.7494 0.7469
2161.828643 0.7460 0.7460 0.7454 0.7444 0.7440
2168.353935 0.7440 0.7445 0.7455 0.7465 0.7475
2174.879228 0.7487 0.7502 0.7519 0.7539 0.7568
2181.404520 0.7607 0.7639 0.7659 0.7683 0.7713
2187.929813 0.7738 0.7758 0.7774 0.7784 0.7790
2194.455105 0.7790 0.7790 0.7790 0.7787 0.7777
2200.980398 0.7770 0.7770 0.7767 0.7758 0.7750
2207.505690 0.7750 0.7750 0.7750 0.7750 0.7750
2214.030983 0.7752 0.7762 0.7772 0.7781 0.7789
2220.556275 0.7779 0.7769 0.7759 0.7750 0.7750
2227.081568 0.7751 0.7760 0.7770 0.7770 0.7770
2233.606860 0.7760 0.7750 0.7750 0.7750 0.7750
2240.132153 0.7750 0.7740 0.7731 0.7721 0.7711
2246.657445 0.7701 0.7691 0.7690 0.7690 0.7690
2253.182738 0.7690 0.7690 0.7690 0.7690 0.7690
2259.708030 0.7690 0.7690 0.7698 0.7708 0.7718
2266.233323 0.7727 0.7737 0.7747 0.7757 0.7767
2272.758615 0.7770 0.7770 0.7777 0.7786 0.7796
2279.283908 0.7806 0.7810 0.7810 0.7810 0.7810
2285.809200 0.7816 0.7825 0.7843 0.7868 0.7885
2292.334493 0.7895 0.7900 0.7900 0.7900 0.7900
2298.859785 0.7909 0.7929 0.7944 0.7954 0.7960
2305.385078 0.7960 0.7960 0.7960 0.7953 0.7933
2311.910370 0.7917 0.7907 0.7894 0.7874 0.7855
2318.435663 0.7840 0.7827 0.7817 0.7810 0.7810
2324.960955 0.7812 0.7822 0.7833 0.7848 0.7862
2331.486248 0.7872 0.7880 0.7880 0.7880 0.7880
2338.011540 0.7880 0.7880 0.7879 0.7869 0.7861
2344.536833 0.7871 0.7880 0.7880 0.7881 0.7901
2351.062125 0.7920 0.7930 0.7940 0.7940 0.7940
2357.587418 0.7940 0.7940 0.7921 0.7902 0.7900
2364.112710 0.7900 0.7891 0.7881 0.7880 0.7880
2370.638003 0.7871 0.7862 0.7860 0.7860 0.7848
2377.163295 0.7833 0.7822 0.7812 0.7810 0.7810
2383.688588 0.7810 0.7810 0.7803 0.7793 0.7797
2390.213880 0.7807 0.7810 0.7810 0.7816 0.7826
2396.739173 0.7840 0.7854 0.7860 0.7860 0.7860
2403.264465 0.7860 0.7860 0.7860 0.7852 0.7837
2409.789758 0.7830 0.7830 0.7825 0.7815 0.7815
2416.315050 0.7824 0.7830 0.7830 0.7836 0.7851
2422.840343 0.7860 0.7860 0.7860 0.7860 0.7860
2429.365635 0.7860 0.7860 0.7860 0.7860 0.7860
2435.890928 0.7860 0.7860 0.7860 0.7860 0.7860
2442.416220 0.7860 0.7855 0.7830 0.7810 0.7810
2448.941513 0.7815 0.7840 0.7863 0.7883 0.7900
2455.466805 0.7900 0.7898 0.7878 0.7860 0.7860
2461.992098 0.7860 0.7860 0.7859 0.7845 0.7830
2468.517390 0.7830 0.7830 0.7830 0.7830 0.7830
2475.042683 0.7830 0.7830 0.7830 0.7830 0.7830
2481.567975 0.7853 0.7878 0.7889 0.7899 0.7900
2488.093268 0.7900 0.7908 0.7918 0.7920 0.7920
2494.618560 0.7920 0.7920 0.7935 0.7955 0.7967
2501.143853 0.7978 0.7980 0.7980 0.7958 0.7929
2507.669145 0.7913 0.7903 0.7900 0.7900 0.7894
2514.194438 0.7884 0.7874 0.7864 0.7866 0.7876
2520.719730 0.7880 0.7880 0.7880 0.7880 0.7885
2527.245023 0.7895 0.7900 0.7900 0.7900 0.7900
2533.770315 0.7905 0.7915 0.7920 0.7920 0.7920
2540.295608 0.7920 0.7932 0.7962 0.7980 0.7980
2546.820900 0.7966 0.7927 0.7897 0.7887 0.7880
2553.346193 0.7880 0.7880 0.7880 0.7880 0.7880
2559.871485 0.7880 0.7880 0.7880 0.7880 0.7880
2566.396778 0.7880 0.7880 0.7880 0.7880 0.7880
2572.922070 0.7880 0.7880 0.7884 0.7923 0.7960
2579.447363 0.7960 0.7955 0.7891 0.7829 0.7820
2585.972655 0.7810 0.7810 0.7810 0.7810 0.7810
2592.497948 0.7810 0.7810 0.7843 0.7878 0.7880
2599.023240 0.7880 0.7871 0.7861 0.7847 0.7832
2605.548533 0.7821 0.7811 0.7810 0.7810 0.7810
2612.073825 0.7810 0.7830 0.7855 0.7899 0.7948
2618.599118 0.7938 0.7908 0.7893 0.7883 0.7863
2625.124410 0.7838 0.7810 0.7780 0.7770 0.7770
2631.649703 0.7783 0.7803 0.7816 0.7826 0.7845
2638.174995 0.7870 0.7886 0.7896 0.7900 0.7900
2644.700288 0.7889 0.7870 0.7860 0.7860 0.7860
2651.225580 0.7860 0.7860 0.7860 0.7860 0.7860
2657.750873 0.7854 0.7839 0.7826 0.7816 0.7810
2664.276165 0.7810 0.7810 0.7810 0.7810 0.7810
2670.801458 0.7810 0.7810 0.7810 0.7810 0.7810
2677.326750 0.7810 0.7810 0.7810 0.7817 0.7852
2683.852043 0.7880 0.7880 0.7875 0.7851 0.7830
2690.377335 0.7830 0.7829 0.7819 0.7809 0.7799
2696.902628 0.7790 0.7790 0.7790 0.7790 0.7790
2703.427921 0.7800 0.7810 0.7810 0.7810 0.7810
2709.953213 0.7810 0.7820 0.7830 0.7844 0.7859
2716.478506 0.7879 0.7898 0.7909 0.7919 0.7920
2723.003798 0.7920 0.7937 0.7957 0.7960 0.7960
2729.529091 0.7960 0.7960 0.7921 0.7872 0.7860
2736.054383 0.7860 0.7860 0.7860 0.7867 0.7877
2742.579676 0.7880 0.7880 0.7887 0.7897 0.7907
2749.104968 0.7916 0.7920 0.7920 0.7926 0.7936
2755.630261 0.7934 0.7924 0.7926 0.7935 0.7940
2762.155553 0.7940 0.7940 0.7940 0.7940 0.7940
2768.680846 0.7935 0.7925 0.7920 0.7920 0.7916
2775.206138 0.7906 0.7896 0.7886 0.7884 0.7894
2781.731431 0.7904 0.7913 0.7923 0.7933 0.7937
2788.256723 0.7927 0.7923 0.7933 0.7940 0.7940
2794.782016 0.7943 0.7953 0.7953 0.7923 0.7900
2801.307308 0.7900 0.7898 0.7888 0.7878 0.7868
2807.832601 0.7858 0.7843 0.7833 0.7858 0.7878
2814.357893 0.7853 0.7829 0.7819 0.7812 0.7836
2820.883186 0.7860 0.7870 0.7880 0.7880 0.7880
2827.408478 0.7870 0.7860 0.7860 0.7860 0.7846
2833.933771 0.7831 0.7830 0.7830 0.7830 0.7830
2840.459063 0.7830 0.7830 0.7843 0.7858 0.7868
2846.984356 0.7878 0.7888 0.7898 0.7900 0.7900
2853.509648 0.7885 0.7865 0.7842 0.7817 0.7828
2860.034941 0.7852 0.7867 0.7877 0.7880 0.7880
2866.560233 0.7880 0.7880 0.7874 0.7864 0.7851
2873.085526 0.7836 0.7812 0.7783 0.7795 0.7840
2879.610818 0.7860 0.7860 0.7865 0.7875 0.7875
2886.136111 0.7865 0.7853 0.7838 0.7826 0.7816
2892.661403 0.7802 0.7782 0.7746 0.7686 0.7646
2899.186696 0.7636 0.7634 0.7644 0.7660 0.7690
2905.711988 0.7720 0.7749 0.7786 0.7840 0.7888
2912.237281 0.7918 0.7940 0.7940 0.7926 0.7862
2918.762573 0.7810 0.7810 0.7810 0.7810 0.7808
2925.287866 0.7798 0.7790 0.7790 0.7794 0.7829
2931.813158 0.7860 0.7860 0.7861 0.7871 0.7878
2938.338451 0.7833 0.7790 0.7790 0.7790 0.7824
2944.863743 0.7859 0.7870 0.7879 0.7871 0.7860
2951.389036 0.7860 0.7860 0.7860 0.7860 0.7869
2957.914328 0.7879 0.7889 0.7899 0.7925 0.7955
2964.439621 0.7960 0.7960 0.7944 0.7924 0.7905
2970.964913 0.7885 0.7862 0.7837 0.7823 0.7813
2977.490206 0.7817 0.7827 0.7854 0.7889 0.7913
2984.015498 0.7933 0.7946 0.7956 0.7966 0.7976
2990.540791 0.7974 0.7964 0.7923 0.7859 0.7830
2997.066083 0.7830 0.7869 0.7943 0.7955 0.7905
3003.591376 0.7880 0.7880 0.7899 0.7938 0.7969
3010.116668 0.7989 0.7983 0.7944 0.7920 0.7920
3016.641961 0.7920 0.7920 0.7913 0.7893 0.7880
3023.167253 0.7880 0.7886 0.7906 0.7923 0.7933
3029.692546 0.7937 0.7927 0.7917 0.7908 0.7898
3036.217838 0.7888 0.7880 0.7880 0.7870 0.7816
3042.743131 0.7770 0.7770 0.7776 0.7820 0.7862
3049.268423 0.7882 0.7901 0.7911 0.7920 0.7920
3055.793716 0.7920 0.7920 0.7920 0.7920 0.7920
3062.319008 0.7910 0.7900 0.7890 0.7880 0.7871
3068.844301 0.7861 0.7837 0.7812 0.7810 0.7810
3075.369593 0.7840 0.7875 0.7880 0.7880 0.7834
3081.894886 0.7779 0.7770 0.7770 0.7794 0.7824
3088.420178 0.7830 0.7830 0.7830 0.7830 0.7830
3094.945471 0.7830 0.7830 0.7830 0.7803 0.7764
3101.470763 0.7744 0.7734 0.7724 0.7714 0.7746
3107.996056 0.7807 0.7851 0.7886 0.7900 0.7900
3114.521348 0.7875 0.7831 0.7805 0.7795 0.7785
3121.046641 0.7775 0.7765 0.7755 0.7750 0.7750
3127.571933 0.7754 0.7764 0.7774 0.7784 0.7794
3134.097226 0.7804 0.7810 0.7810 0.7814 0.7823
3140.622518 0.7820 0.7790 0.7764 0.7744 0.7730
3147.147811 0.7730 0.7735 0.7755 0.7780 0.7825
3153.673103 0.7862 0.7872 0.7882 0.7892 0.7902
3160.198396 0.7912 0.7920 0.7920 0.7921 0.7931
3166.723688 0.7941 0.7951 0.7960 0.7960 0.7961
3173.248981 0.7970 0.7980 0.7970 0.7960 0.7940
3179.774273 0.7920 0.7901 0.7881 0.7899 0.7919
3186.299566 0.7929 0.7939 0.7921 0.7902 0.7882
3192.824858 0.7862 0.7838 0.7813 0.7810 0.7810
3199.350151 0.7818 0.7828 0.7842 0.7857 0.7868
3205.875443 0.7878 0.7888 0.7897 0.7907 0.7917
3212.400736 0.7920 0.7920 0.7920 0.7920 0.7920
3218.926028 0.7920 0.7920 0.7920 0.7920 0.7920
3225.451321 0.7914 0.7904 0.7900 0.7900 0.7906
3231.976613 0.7915 0.7891 0.7837 0.7800 0.7780
3238.501906 0.7775 0.7785 0.7812 0.7856 0.7889
3245.027198 0.7909 0.7924 0.7934 0.7940 0.7940
3251.552491 0.7907 0.7823 0.7774 0.7783 0.7818
3258.077783 0.7902 0.7960 0.7960 0.7949 0.7909
3264.603076 0.7880 0.7880 0.7880 0.7880 0.7878
3271.128368 0.7868 0.7860 0.7860 0.7885 0.8013
3277.653661 0.8113 0.8074 0.8029 0.7950 0.7873
3284.178953 0.7808 0.7749 0.7739 0.7731 0.7741
3290.704246 0.7753 0.7828 0.7900 0.7890 0.7880
3297.229538 0.7880 0.7880 0.7880 0.7880 0.7870
3303.754831 0.7861 0.7860 0.7860 0.7846 0.7832
3310.280123 0.7812 0.7793 0.7773 0.7753 0.7750
3316.805416 0.7750 0.7758 0.7768 0.7823 0.7887
3323.330708 0.7916 0.7935 0.7940 0.7940 0.7885
3329.856001 0.7811 0.7776 0.7756 0.7788 0.7842
3336.381293 0.7850 0.7835 0.7824 0.7814 0.7798
3342.906586 0.7778 0.7764 0.7754 0.7756 0.7766
3349.431878 0.7781 0.7801 0.7845 0.7909 0.7955
3355.957171 0.7985 0.8000 0.8000 0.7972 0.7913
3362.482463 0.7869 0.7844 0.7822 0.7802 0.7790
3369.007756 0.7790 0.7821 0.7907 0.7964 0.7974
3375.533048 0.7980 0.7980 0.7980 0.7980 0.7952
3382.058341 0.7858 0.7782 0.7752 0.7730 0.7730
3388.583633 0.7744 0.7808 0.7877 0.7966 0.8042
3395.108926 0.8052 0.8060 0.8060 0.8057 0.8037
3401.634218 0.8000 0.7837 0.7689 0.7679 0.7672
3408.159511 0.7702 0.7739 0.7922 0.8100 0.8100
3414.684803 0.8100 0.8011 0.7923 0.7930 0.7939
3421.210096 0.7949 0.7959 0.7960 0.7960 0.7960
3427.735388 0.7960 0.7960 0.7960 0.7934 0.7904
3434.260681 0.7900 0.7900 0.7924 0.7954 0.8023
3440.785973 0.8102 0.8177 0.8251 0.8285 0.8305
3447.311266 0.8221 0.8097 0.8053 0.8043 0.8040
3453.836558 0.8040 0.8067 0.8106 0.8139 0.8169
3460.361851 0.8208 0.8252 0.8270 0.8270 0.8264
3466.887143 0.8254 0.8250 0.8250 0.8232 0.8197
3473.412436 0.8150 0.8091 0.8041 0.8001 0.7980
3479.937728 0.7980 0.7980 0.7980 0.8014 0.8093
3486.463021 0.8140 0.8140 0.8136 0.8126 0.8106
3492.988313 0.8067 0.8034 0.8014 0.7997 0.7987
3499.513606 0.7980 0.7980 0.7977 0.7967 0.7957
3506.038898 0.7948 0.7931 0.7891 0.7853 0.7818
3512.564191 0.7788 0.7778 0.7772 0.7781 0.7796
3519.089483 0.7840 0.7884 0.7924 0.7963 0.8003
3525.614776 0.8042 0.8082 0.8121 0.8151 0.8180
3532.140068 0.8170 0.8159 0.8011 0.7863 0.7816
3538.665361 0.7772 0.7897 0.8031 0.8049 0.8059
3545.190653 0.8042 0.8022 0.8011 0.8001 0.7958
3551.715946 0.7908 0.7839 0.7765 0.7718 0.7678
3558.241238 0.7670 0.7670 0.7685 0.7705 0.7717
3564.766531 0.7727 0.7730 0.7730 0.7737 0.7747
3571.291823 0.7757 0.7767 0.7819 0.7893 0.7926
3577.817116 0.7936 0.7952 0.7972 0.7986 0.7996
3584.342408 0.8006 0.8016 0.8026 0.8035 0.8040
3590.867701 0.8040 0.8035 0.8025 0.8020 0.8020
3597.392993 0.8020 0.8020 0.8011 0.7992 0.7972
3603.918286 0.7952 0.7932 0.7913 0.7900 0.7900
3610.443578 0.7907 0.7927 0.7953 0.7993 0.8026
3616.968871 0.8046 0.8066 0.8085 0.8103 0.8112
3623.494163 0.8120 0.8120 0.8116 0.8096 0.8078
3630.019456 0.8068 0.8055 0.8026 0.7999 0.7989
3636.544748 0.7979 0.7969 0.7961 0.7971 0.7982
3643.070041 0.8001 0.8021 0.8041 0.8060 0.8060
##END=
