##TITLE=Hexafluoroethane
##JCAMP-DX=4.24
##DATA TYPE=INFRARED SPECTRUM
##CLASS=IUPAC A
##ORIGIN=NIST, Analytical Chemistry Division, 301-975-3108
##OWNER=COPYRIGHT (C) 2000 by the U.S. Secretary of Commerce
##DATE=00/02/01
##$SPECTRA VERSION=1.10
##$UNCERTAINTY IN Y=2.0 % relative (B=1.0E-04,C=8.6E-09,D=5.8E-12)
##CAS NAME=Hexafluoroethane
##CAS REGISTRY NO=76-16-4
##MOLFORM=C2 F6
##MP=-94 C
##BP=-79 C
##$NIST SOURCE=QUANT-IR
##SPECTROMETER/DATA SYSTEM=IFS66V (Bruker)
##INSTRUMENT PARAMETERS=KBr Beam Splitter; MCT Detector; Multipass cell
##STATE=gas
##SAMPLE DESCRIPTION=Hexafluoroethane Primary Gas Standard
##PRESSURE=101.3 Pa
##TEMPERATURE=23 C
##SAMPLING PROCEDURE=1 L/min Flow
##RESOLUTION=0.9640
##DATA PROCESSING=3-Term B-H Apodization
##XUNITS=cm-1
##YUNITS=(micromol/mol)-1m-1 (base 10)
##XFACTOR=1.0
##YFACTOR=14.551E-12
##DELTAX=0.4820
##FIRSTX=575.171
##LASTX=3974.609
##FIRSTY=7.81E-07
##MAXX=3974.12
##MINX=575.17
##MAXY=.012913
##MINY=-.0000108
##NPOINTS=7052
##XYDATA=(X++(Y..Y))
575.17 53677 147543 74150 9120-20398-81488
577.58 25730 224965 246910 59096-34010 87517
580.47 104156 14049-4642 4026-78036-165748
583.37-186210-111264 63355 131462 15903-41539
586.26 121640 286617 223781 21539-86160 29518
589.15 154023 182334 141894-11843-322190-444479
592.05-271742-163976-61140-12333-18348 61765
594.94 66011 24117-67955-200810-117703 45857
597.83 48863 40512 133085 224271 194827 149401
600.72 81031-15560-64113-22402 23918 16324
603.62 10465-5494 28873 94827 88295 53086
606.51 57540 27770-68980-85926-15040 16110
609.40-2359 31782 99545 119888 125928 142392
612.29 88694-20661-79499-94907-80172-72394
615.19-95003-119461-103318-65537-51093-79595
618.08-102262-4977 86466 61968 18494-26202
620.97-67725-38100 21624 4302-19777 18655
623.87 6593-25691-5981-580 7330 40349
626.76 25297-11192-39713-62939-71920-50555
629.65-9561 10886-34876-124329-139437-83713
632.54-49453-9674 20831 18071-31161-130123
635.44-168445-79942 27109-1601-110617-114145
638.33-25200 48391 44842-8260-58861-96691
641.22-84340-46787-2547 70887 87008-2389
644.11-79825-86266-56058-22043-37558-62990
647.01-29765-4217-29038-38955-48417-56846
649.90-32717-35588-53640-40640-73259-123863
652.79-95612-29337-7960-40605-74678-51347
655.69-37009-77428-87411-27239 20511-32874
658.58-118953-85432-14104-22677-44500-71215
661.47-134826-153955-128271-85647-42847-31972
664.36-40457-26421-3537-14256-97201-301128
667.26-463648-379956-218602-96809 10841 56726
670.15 44446 20572-22202-67731-122403-135656
673.04-110481-128386-174790-144733-82427-66462
675.93-59138-48387-40679-40828-100432-132573
678.83-107797-67856-46286-73407-100322-80451
681.72-77288-74394-39812-18920-36505-70482
684.61-62001 6723 14201-14121-16067-26951
687.51-39502-42904-73455-74960-31985 27487
690.40 65481 77428 95551 140090 190727 262929
693.29 309636 333859 387633 495667 633497 767083
696.18 924191 1168101 1465462 1782981 2134341 2586145
699.08 3107566 3711806 4434440 5258577 6154243 7145349
701.97 8223543 9393190 10578191 11713841 12796099 13881934
704.86 14866970 15670267 16268956 16657282 16800020 16662659
707.75 16215851 15578373 14812075 14039770 13510280 13212656
710.65 12344986 10646406 9208126 11551949 28144375 54890289
713.54 59928348 40899413 24110588 15700206 11769189 10926864
716.43 11722039 12907147 14135683 15375583 16596746 17643135
719.33 18409677 18873048 19086891 19003406 18635547 18009770
722.22 17217461 16296669 15241835 14004763 12672867 11334909
725.11 10054244 8852334 7749141 6687127 5707002 4844862
728.00 4081817 3408640 2848279 2384568 1983025 1641089
730.90 1372648 1137921 981533 858262 725028 606556
733.79 506692 406576 325311 270864 232440 206713
736.68 199029 193999 183428 130740 61381 14266
739.57 27896 50853 53745 46568 32507 32261
742.47 43814 17954-13847-35166-57334-63152
745.36-31295-6419-27990-67278-61109-68968
748.25-87449-61146-30727-8767 15543 13183
751.15-9791-48673-74141-67200-35812-31672
754.04-31526-25966-46263-60063-67483-92260
756.93-94531-97686-96393-52871 3834 7445
759.82-19343-39948-47761-41406-33884-42873
762.72-20113-3863-30435-53412-41830-51268
765.61-80560-60961-14585-14930-39884-41280
768.50-25381-26986-38416-61065-72509-51648
771.39-7725 15856 14980 15333 13678 22135
774.29 16545-24660-55679-40686 8669 25015
777.18 2882-26949-58059-89054-92850-63801
780.07-27719-14775-23731-41395-57092-66173
782.97-53999-17619-11552-57160-76080-34603
785.86 5375-29280-89024-123708-109849-54418
788.75-18921-9203-30336-78257-98069-91016
791.64-77124-66109-73444-101692-121270-138019
794.54-138309-88680-41879-49032-66923-74763
797.43-88010-107549-106302-84129-61263-76377
800.32-103258-101378-79006-63641-64675-97001
803.21-129680-98412-54516-57129-72306-70803
806.11-67301-75545-82431-91088-82362-63430
809.00-55174-71474-69990-59776-64805-66610
811.89-73187-93119-94808-82919-70914-48869
814.79-21704-26962-57279-82686-106892-105022
817.68-62981-71153-120541-105668-60387-77713
820.57-119396-114623-70995-42421-49124-64997
823.46-77596-92289-96922-88980-64568-53491
826.36-46551-32522-32772-58696-83651-49941
829.25-2542-4525-11664-26282-39757-35909
832.14-26501-32559-35213-39313-57428-56634
835.03-50352-63178-69144-69009-50947-9341
837.93 31327 28615-26426-73013-83929-90622
840.82-94683-83319-63184-34378-14764-37601
843.71-90955-114204-81668-74626-86327-49898
846.61-6512-24173-69456-71228-46123-47212
849.50-49071-62646-95060-101241-81436-70981
852.39-85111-104159-105790-100362-81240-66207
855.28-79549-97180-116832-124939-102370-66821
858.18-32384-33139-64027-73202-54623-61356
861.07-94834-104021-79685-43229-20052-43450
863.96-69747-46759-31546-48394-58514-69292
866.85-76395-62283-31602-21688-34929-34420
869.75-41543-58681-50682-39520-36124-45713
872.64-54470-43924-16829-7345-13811-23477
875.53-33973-42103-37185-10460-7177-42070
878.43-68046-72649-46277-5989-190-30258
881.32-50301-50818-52287-51133-37711-31205
884.21-29932-5079 5561-45543-79233-35618
887.10 21329 34972 9817-17797-284 34740
890.00 34524 25041 32016 13296-15547-3821
892.89 37296 52236 45524 37178 47219 64275
895.78 60849 61303 58303 42405 45295 59021
898.67 57950 57759 71901 57392 21023 18939
901.57 45272 81380 103357 76455 47316 56872
904.46 80021 79149 61242 42630 25602 9223
907.35-3368-13220-5670 12764 21206 17495
910.25 1590-25161-43143-48508-47979-43593
913.14-27922-11276-26626-60082-66518-55572
916.03-57776-74495-80051-66503-66253-92950
918.92-92274-64792-66416-88255-86332-73637
921.82-77694-88482-78340-70195-92736-121890
924.71-132717-114046-92557-84727-88678-101848
927.60-88921-63147-57309-61181-56438-64951
930.49-78515-76718-68703-68406-79993-87217
933.39-84157-102491-122078-113177-92585-70513
936.28-62715-74217-76501-74429-78762-76225
939.17-69453-68754-67617-69392-67970-64990
942.07-60906-66022-82974-100533-113729-107544
944.96-83620-72118-82458-88825-86374-89198
947.85-79776-66746-81179-99342-99155-91206
950.74-85080-86419-81675-80539-87651-84952
953.64-75462-62801-48466-49609-67050-78617
956.53-77611-92815-115344-109554-92332-91269
959.42-95686-114169-127279-104954-90914-101254
962.31-102341-103316-106877-100873-94311-87364
965.21-83898-100661-122551-124253-99171-77908
968.10-71322-69517-86885-117551-127089-110925
970.99-92277-94859-108218-118435-122626-122505
973.89-116404-111142-106615-90682-80651-86702
976.78-84841-78041-75953-76677-76365-62358
979.67-54986-62706-65836-76638-77216-52527
982.56-44569-68442-87986-79014-57694-49997
985.46-61849-67392-44641-26366-35769-44402
988.35-41716-50526-58227-51517-36276-25143
991.24-31732-43917-45623-45056-47486-40581
994.13-28036-14016-11747-26576-36749-39800
997.03-33478-21754-18004-18214-18038-7181
999.92 18376 26613 15832 2380-14344-23055
1002.81-24351-7080 21843 26363 25243 37824
1005.71 47653 56956 61705 49512 49516 63195
1008.60 60791 52055 54975 74894 94935 104195
1011.49 115474 120040 112331 104360 100053 111906
1014.38 142512 163121 158292 152287 161822 175252
1017.28 184515 184898 167088 146108 151424 166672
1020.17 183833 219739 265031 292866 312435 346548
1023.06 375901 383247 374487 348762 328647 330498
1025.95 325592 316169 318581 318347 305254 302103
1028.85 304995 285760 264540 252786 242289 248385
1031.74 269436 264478 242864 240687 244258 243695
1034.63 218111 174782 162635 161410 142008 113687
1037.53 102390 110424 108827 89237 67875 48658
1040.42 42788 31376-9905-32417-16362-15539
1043.31-40689-43789-20483-13290-24068-28607
1046.20-18471-14623-35504-37942-24452-27394
1049.10-19064-619-2789-10498-2888 3741
1051.99-6228-5346 10650 23341 18830 11253
1054.88 10327 7110 13817 32168 33205 42980
1057.77 73712 85582 66571 42120 43021 77363
1060.67 129604 175579 169463 136569 113311 109824
1063.56 118031 106819 83188 72888 71200 71089
1066.45 79436 77311 68584 80793 86323 78163
1069.35 82770 101010 103670 81045 64166 67740
1072.24 63547 39459-434-28990-39544-28600
1075.13-21440-40442-57875-57870-51251-34190
1078.02-28129-26917-3331 23392 19300 27175
1080.92 51508 54566 58331 85570 119535 168842
1083.81 215957 254976 304769 378441 451893 538775
1086.70 655810 792896 915745 1036639 1176847 1352321
1089.59 1549877 1757128 1986301 2247959 2514252 2800559
1092.49 3116609 3445124 3797001 4215838 4706836 5263496
1095.38 5928245 6771227 7796721 9050950 10594050 12509615
1098.27 14885333 17792098 21255675 25302409 29779106 34445107
1101.17 39104371 43401275 47193289 51507516 57231983 63918792
1104.06 70915593 77982810 84921071 91560211 97651935 102978824
1106.95 107390488 110709528 112692301 113341914 112764586 111140346
1109.84 108807325 106393087 104744747 104956371 108484776 117485657
1112.74 133706875 158116066 191541353 230126277 262776193 282161739
1115.63 277694574 223913083 133477844 73087011 65126287 77998502
1118.52 93810951 110025529 125638324 139742439 151627021 160698445
1121.41 166512778 168738377 167386670 162623341 154835460 144549276
1124.31 132419229 119016336 104968747 90857180 77252365 64552622
1127.20 53077974 43010317 34449343 27371374 21726880 17341057
1130.09 14046571 11652388 10010899 8901945 8170970 7697310
1132.99 7408555 7216553 7100719 7038364 7038164 7121389
1135.88 7366964 7859074 8730023 9911463 11122267 11764790
1138.77 11131891 9212404 7483073 7497702 8598619 8921498
1141.66 8033108 6853779 6282560 6411423 6880836 7393507
1144.56 7834486 8118388 8250857 8238135 8087422 7821324
1147.45 7476238 7025448 6513476 5972592 5404433 4806445
1150.34 4243542 3732534 3254868 2795834 2383458 1993107
1153.23 1643575 1373124 1165458 952078 756144 595504
1156.13 480407 392570 334725 282199 236503 200119
1159.02 178371 148057 130637 123071 113717 98651
1161.91 112365 123838 119234 111742 115710 111463
1164.81 111163 103495 106945 108679 118690 143549
1167.70 177434 184463 176523 164167 161113 166562
1170.59 178177 177439 186618 194094 205970 218435
1173.48 237816 237009 226038 218287 230370 243684
1176.38 257070 269389 301368 315580 310256 308137
1179.27 337509 363271 378884 394635 426420 458957
1182.16 480884 493846 528911 550672 573764 626033
1185.05 679140 697402 731941 777444 826279 866648
1187.95 912360 975768 1054660 1121936 1211036 1301351
1190.84 1388372 1490548 1613989 1720302 1836791 1973791
1193.73 2135206 2300869 2466467 2619572 2801817 3017847
1196.63 3249659 3462904 3670788 3886394 4130298 4372030
1199.52 4604408 4810489 5010046 5216596 5417239 5560064
1202.41 5674805 5777035 5870461 5947187 6023760 6095464
1205.30 6139237 6085260 5955973 5766344 5507953 5130913
1208.20 4658444 4167007 3768074 3470110 3234909 3020244
1211.09 2835464 2668565 2522713 2365853 2230622 2113034
1213.98 2006153 1902892 1823715 1743463 1678664 1627099
1216.87 1597275 1572432 1562668 1552582 1564506 1585084
1219.77 1633253 1690064 1772964 1863629 1961809 2055297
1222.66 2172658 2321783 2521290 2729840 2985761 3296545
1225.55 3679298 4115784 4633643 5233228 5966663 6844630
1228.45 7895322 9118588 10592798 12331898 14369260 16744966
1231.34 19534320 22759186 26509630 30821116 35793298 41506854
1234.23 48091363 55624902 64234751 73957745 84893784 97139759
1237.12 110884908 126218914 143221231 161920857 182580613 205429577
1240.02 230720645 258588857 289047475 321915903 357200720 394818965
1242.91 434644620 476417477 519872850 564754522 610426157 655517247
1245.80 699201309 740162858 777738192 811406696 840207767 862989816
1248.69 879820445 887440288 884028316 873721175 859750307 841954313
1251.59 816953274 782979920 745257786 719304438 702125309 662667581
1254.48 590660471 514405199 459006313 412981838 362045652 314161726
1257.37 274380554 240396131 210369572 183580110 159678648 138464120
1260.27 119643982 103028309 88402932 75625476 64476038 54820029
1263.16 46438518 39182487 32910918 27570197 23020705 19165011
1266.05 15898197 13178016 10901621 9021684 7457758 6186057
1268.94 5138878 4297581 3616652 3076777 2633160 2293032
1271.84 2004950 1775522 1592052 1457447 1347846 1271459
1274.73 1204698 1154044 1088435 1028725 975678 941895
1277.62 908313 890311 871095 853650 834861 816315
1280.51 776872 757866 751814 756143 748745 738106
1283.41 727206 721021 714749 716875 712213 720512
1286.30 712608 704533 710064 729418 736227 739796
1289.19 745640 759402 772413 785881 792358 821638
1292.09 845868 858426 865621 888522 915087 944195
1294.98 974162 1007679 1022590 1050453 1101952 1157198
1297.87 1201013 1268491 1345606 1420141 1493464 1584450
1300.76 1692596 1817037 1930373 2037578 2149202 2273967
1303.66 2396038 2515765 2635992 2753697 2849014 2960957
1306.55 3097150 3238512 3368943 3511669 3663245 3816017
1309.44 3963262 4128947 4312819 4501397 4679632 4858178
1312.33 5041417 5233833 5430703 5635429 5834283 6026531
1315.23 6213173 6411326 6609713 6805868 7006754 7226175
1318.12 7437811 7625224 7797587 7961652 8117170 8275579
1321.01 8422538 8549919 8659079 8787132 8922344 9048911
1323.91 9173037 9295644 9399880 9478669 9537935 9599006
1326.80 9645980 9647914 9601038 9538242 9470081 9409537
1329.69 9337758 9262241 9198872 9123443 9016791 8894290
1332.58 8757045 8614716 8456377 8279109 8083672 7866395
1335.48 7629808 7409794 7202371 6994499 6786343 6589119
1338.37 6407487 6236038 6052480 5865507 5681316 5492546
1341.26 5286747 5083630 4878690 4666867 4460645 4264118
1344.15 4074130 3894001 3705231 3510424 3330168 3159798
1347.05 2967536 2791466 2646437 2496779 2326477 2156110
1349.94 1992147 1834608 1683011 1550558 1420328 1291144
1352.83 1176182 1070392 989558 936435 863308 787307
1355.73 733954 685947 631081 575893 511187 436912
1358.62 367962 318200 283289 249597 207681 181313
1361.51 150670 118196 110645 107718 96058 94204
1364.40 76629 52473 47014 45670 34247 29468
1367.30 37061 42766 35481 31820 26960 17641
1370.19 15299 19729 16173 11524 2415-14334
1373.08-21460-14434-9344-177 5781 7102
1375.97 14718 19295 11178-2298-15726-20516
1378.87-20626-11455-7109-17179-38433-57326
1381.76-64548-67712-68232-54997-44666-50501
1384.65-57297-38182-16554-20394-44174-53611
1387.55-48597-44467-42449-40428-35989-39126
1390.44-52029-51533-47989-59621-73173-66185
1393.33-52587-45959-40997-37972-51269-64430
1396.22-61248-52490-51832-51760-49326-44574
1399.12-58771-94640-108306-78414-51589-52526
1402.01-57275-49725-44351-44826-56469-77046
1404.90-79767-61325-49568-49024-55746-65485
1407.79-74810-79401-84297-82920-85681-90621
1410.69-94489-105498-108177-91266-80052-76275
1413.58-79661-85499-88580-89365-90899-88584
1416.47-83220-88964-105683-117988-128465-131647
1419.37-109904-83046-77543-73288-65476-61095
1422.26-68752-72681-69703-60416-50650-52265
1425.15-64093-96592-148590-146663-78965-15782
1428.04 22134 51117 66518 72257 74555 79929
1430.94 91826 115900 141066 150371 158086 176093
1433.83 194721 211060 224570 246656 255168 256816
1436.72 286630 323788 339019 351669 368166 385954
1439.61 403010 406893 400560 402203 411217 420795
1442.51 421621 422863 423940 424421 433355 444869
1445.40 456970 476727 497209 502792 497143 497916
1448.29 498016 497270 505692 519086 520724 515928
1451.19 524510 546317 552974 539230 524521 524000
1454.08 512569 473885 448649 439621 405429 386458
1456.97 412562 425926 415196 413984 410117 409604
1459.86 419646 418685 412368 413519 413607 410399
1462.76 401138 393745 382693 363657 357221 360119
1465.65 357423 353973 341132 324380 309036 297847
1468.54 284351 261017 243783 239891 226238 196174
1471.43 160161 146798 136935 111237 101035 102665
1474.33 96677 83698 61660 32139 10963 15186
1477.22 19756 19083 22928 17582 3467-7760
1480.11-17039-24363-33870-44571-53177-51487
1483.01-39252-37626-50945-54413-57248-62730
1485.90-59998-57590-64415-60732-55868-62335
1488.79-75499-95044-100883-86392-69965-57309
1491.68-40029-25828-34544-47457-51152-58936
1494.58-65776-71301-102099-114556-95509-89942
1497.47-100400-110104-106042-97934-102719-96807
1500.36-84934-91797-100261-97682-101677-105550
1503.25-98768-98845-119936-149579-152235-132125
1506.15-135557-139344-112613-90663-90672-93125
1509.04-97821-98107-92086-88480-78497-68563
1511.93-68074-64197-57367-53180-58386-69782
1514.83-84837-102924-115249-114260-106554-85504
1517.72-54551-27427-3304 11804 4678-40755
1520.61-117333-147900-122269-105624-99591-84845
1523.50-76182-79690-95767-105900-88885-66499
1526.40-63169-67380-73065-82543-90405-87794
1529.29-82999-88093-101740-108594-106609-100596
1532.18-101186-111645-123589-123192-117302-113057
1535.07-110480-110768-116610-122305-112293-105490
1537.97-141556-188156-184927-174980-181124-158087
1540.86-135442-139098-139648-128624-125215-123246
1543.75-116449-114500-114475-97791-84057-85553
1546.65-91561-98658-101286-99009-98148-101218
1549.54-105783-99227-89075-86337-84592-71719
1552.43-63306-78714-104843-124820-122308-97304
1555.32-82715-87428-95927-108287-126063-149915
1558.22-155658-134507-138554-155267-138465-112552
1561.11-106553-96473-77479-70939-81307-90553
1564.00-98575-104684-100902-89478-81104-79705
1566.89-83794-80990-77622-89431-111414-125375
1569.79-118306-107063-111449-120793-119979-105558
1572.68-89622-82633-79175-73834-89984-132090
1575.57-162698-140675-98479-80144-75092-73820
1578.47-80168-84179-83135-76656-64684-61570
1581.36-79868-95411-91163-81948-71032-59189
1584.25-46444-24100-2764 10693 17290 19695
1587.14 24202 32253 42304 54889 74920 101128
1590.04 115098 119781 133774 166332 208146 242852
1592.93 269253 299089 330511 361625 390082 418939
1595.82 450812 477392 496561 510246 520622 528005
1598.71 524629 510856 500638 491841 479131 474559
1601.61 483639 493736 483922 463884 443902 413516
1604.50 372644 335226 305117 286356 278074 271691
1607.39 264895 257363 251186 251858 254374 266570
1610.29 289813 303604 308371 321203 336132 348386
1613.18 359665 369174 383229 407524 426165 417370
1616.07 393833 419508 489014 539023 567368 597255
1618.96 628173 657388 674874 686107 713234 739465
1621.86 739356 738035 756616 780206 799701 823127
1624.75 845513 863204 878789 892574 900070 900747
1627.64 915452 950164 983771 1001144 1006040 1010601
1630.53 1018809 1035235 1045804 1043766 1033327 1021893
1633.43 1013164 982204 911905 831528 778502 757105
1636.32 741144 710807 675778 653368 636902 625809
1639.21 622639 619672 603276 581099 574030 567745
1642.11 541837 503869 461580 422929 379441 335819
1645.00 291603 255506 246716 227908 182911 145676
1647.89 126724 112792 97812 86822 73678 54692
1650.78 27431-22562-89704-128854-132560-101633
1653.68-69261-69022-71013-67650-69149-66745
1656.57-63559-67933-71599-74332-80417-83608
1659.46-85743-92108-104133-116125-124524-128265
1662.35-134394-135621-124936-113768-108340-108207
1665.25-111602-118927-123511-117625-118067-132710
1668.14-146052-145450-123088-98191-94544-104932
1671.03-123942-134065-125315-114480-113055-108487
1673.93-102722-116804-132687-116270-97071-94147
1676.82-88621-83872-87528-89006-86290-82194
1679.71-83030-87086-83717-80594-84210-89569
1682.60-99036-104595-123099-162959-157969-105750
1685.50-71178-53848-49981-58714-58768-54164
1688.39-56171-53875-45426-42929-50483-51377
1691.28-42893-38860-42843-44657-45985-51516
1694.17-61778-79548-111431-110305-66834-42023
1697.07-36928-32357-29557-36293-68312-105809
1699.96-106393-68356-26519-7989-6811-1233
1702.85 4312 2140-3851-6164 4147 19817
1705.75 30354 43050 51703 52136 58196 70935
1708.64 80892 88745 97312 113697 137729 151815
1711.53 149668 148875 158107 172714 184142 193386
1714.42 205644 224543 240440 246988 236190 226399
1717.32 260526 309125 338291 360978 385698 402485
1720.21 405060 419478 451856 477042 484376 488416
1723.10 497845 514514 529316 547618 575568 593926
1725.99 604402 611536 615544 625874 641643 660645
1728.89 677703 697445 718235 732712 736710 724955
1731.78 710927 684380 646860 643213 645077 635593
1734.67 645834 655553 647552 634084 616838 596449
1737.57 584943 574167 548072 517241 501049 502528
1740.46 496307 477184 457786 430512 401913 384937
1743.35 369977 360467 359383 348675 325838 305774
1746.24 285525 257659 230724 206568 191868 193914
1749.14 187418 166323 142489 112382 94683 104022
1752.03 109464 97468 82317 66868 47696 35207
1754.92 28675 25637 23797 14328 7824 12941
1757.81 15735 8069-1756-9001-17188-31125
1760.71-48089-58484-56042-48835-47165-47376
1763.60-55525-63328-56532-47363-48548-56029
1766.49-62954-70584-72994-62022-55862-61981
1769.39-73513-76972-67573-68498-81001-100878
1772.28-109745-92981-78879-77757-87761-99454
1775.17-98311-89406-85283-86005-94296-102062
1778.06-104182-103351-92820-90070-100649-101019
1780.96-96133-101532-116040-126641-123022-115977
1783.85-116382-124961-134411-129726-121112-127742
1786.74-141587-145251-136663-130140-125427-118508
1789.63-122870-134570-138838-134239-149749-176686
1792.53-172858-153050-136562-121816-119931-135291
1795.42-149079-145428-136822-129601-125231-126336
1798.31-135750-155896-165388-154363-140424-128211
1801.21-119900-115308-118737-128792-133841-142639
1804.10-151046-139786-121841-120311-128744-124820
1806.99-113175-108959-117970-134345-139474-134079
1809.88-130933-131002-136345-139613-127321-117228
1812.78-127177-131826-125634-129874-142025-142341
1815.67-133447-128332-124015-114150-110728-113109
1818.56-110798-108987-116806-122108-111898-99896
1821.45-90289-85407-92641-90943-82291-92075
1824.35-115077-122233-106609-90359-88804-96858
1827.24-91815-76305-71514-83795-116797-140420
1830.13-122906-84637-62894-70609-91489-98128
1833.03-85854-75795-76636-76314-76181-80801
1835.92-76818-69195-70309-74991-77023-71905
1838.81-73198-83943-82021-67981-58937-59530
1841.70-60919-53878-51640-69525-84482-59719
1844.60-21252-5485-3012 1792 2165 504
1847.49 12243 34459 52286 67305 76944 82083
1850.38 97684 126172 149796 166260 181849 197580
1853.27 220429 247779 267337 274204 282761 301334
1856.17 322044 342630 359034 371187 391074 418812
1859.06 438854 451176 461112 471307 481723 487396
1861.95 493611 506973 528510 560433 597149 632013
1864.85 660543 675180 680685 698458 721418 721831
1867.74 701520 672260 635325 593456 555626 534061
1870.63 512267 487673 471970 453343 423746 399809
1873.52 397110 409839 416316 401489 378514 363268
1876.42 353476 346330 329624 299724 276345 260506
1879.31 232086 196503 170431 147587 120524 88228
1882.20 55422 41276 39952 35764 16437-10689
1885.09-23944-33532-52759-67387-78925-94143
1887.99-101827-103926-106895-108038-111663-119094
1890.88-120820-118178-120346-122597-121580-124621
1893.77-129817-132127-136309-141351-142408-131563
1896.67-121520-122175-126986-131890-137074-141734
1899.56-142944-135301-124945-128819-131650-123086
1902.45-122030-131016-142435-139470-121508-107323
1905.34-98927-98601-103930-101329-93019-85666
1908.24-80169-79821-87648-86103-64654-53519
1911.13-56292-50651-48012-49614-39847-23451
1914.02-20660-26359-27884-30594-24569-5470
1916.91 138-4688-954 5832 17648 37241
1919.81 50465 57363 71493 88379 94559 82762
1922.70 58409 34800 24199 29580 40914 54184
1925.59 68654 85261 104412 124178 133573 135606
1928.49 150351 158074 153576 145709 125632 111627
1931.38 101433 94115 96661 98928 101057 114332
1934.27 130942 135173 135874 142620 151766 171300
1937.16 199306 214966 190214 138860 102146 93418
1940.06 98829 108714 123341 148881 171757 181614
1942.95 190649 202301 211612 217881 213463 202280
1945.84 198723 196902 184888 172129 161418 155266
1948.73 158782 156646 144410 141543 147319 153291
1951.63 163416 173024 175729 182745 199290 202747
1954.52 186084 173127 168148 152784 134772 133231
1957.41 161866 219954 290404 347945 327054 238111
1960.31 161733 108928 72606 50889 37273 33758
1963.20 35807 43243 45329 29275 20868 28118
1966.09 23981 8194-1023-1696-1230-10931
1968.98-37916-61175-57249-45340-48881-59813
1971.88-69367-77102-87488-92947-89727-88682
1974.77-92370-98892-113076-127909-116905-95961
1977.66-94433-95819-102731-114355-116777-112087
1980.55-114391-128985-136666-126238-111332-109844
1983.45-121816-119898-103275-99738-111739-117461
1986.34-116819-121840-124894-120070-119300-127982
1989.23-128956-117231-104128-105458-119302-121256
1992.13-118296-125311-123701-116885-124387-134180
1995.02-126841-111612-109969-115062-119689-124515
1997.91-124073-120713-121746-121441-120896-123961
2000.80-126203-131675-132638-124819-118713-120455
2003.70-122077-114632-107844-104355-103025-104777
2006.59-109215-117334-115391-106077-113236-127514
2009.48-134378-131034-126578-127989-126421-125126
2012.37-129262-133900-129011-123946-127777-125838
2015.27-118669-116324-119712-121635-124130-127969
2018.16-124238-121110-129586-136574-128876-122858
2021.05-129670-138075-137909-128069-115037-115032
2023.95-121192-128414-141196-140803-134383-135119
2026.84-141220-143683-134183-114804-105744-112710
2029.73-116881-117584-117044-108495-103283-103526
2032.62-101208-102303-105444-101792-90596-71564
2035.52-56405-51553-41156-21479-9267 767
2038.41 20139 40158 57726 86340 117073 142364
2041.30 179411 223937 264966 310278 364439 424015
2044.19 487182 553300 625712 707285 788219 864357
2047.09 945055 1030440 1109039 1186720 1271134 1356681
2049.98 1439292 1517784 1589818 1648826 1686771 1713477
2052.87 1740646 1755502 1741372 1708245 1674968 1637373
2055.77 1578179 1494951 1400580 1309566 1229995 1155134
2058.66 1067357 956051 816672 679102 577812 501116
2061.55 425940 353532 293092 246673 202403 154425
2064.44 108182 61571 24236 9603 2495-22934
2067.34-56920-69300-72186-79259-84077-91670
2070.23-106587-120085-125813-125701-125397-129114
2073.12-131337-130191-131413-136218-138638-132957
2076.01-133047-133100-122959-129507-151188-157325
2078.91-154152-151765-149177-144374-133528-122797
2081.80-120251-122515-122840-122534-131391-143334
2084.69-138456-133923-140949-141437-142042-146230
2087.59-150828-152585-155496-158624-141553-124293
2090.48-131069-140414-135213-123320-118452-129987
2093.37-143508-130388-112085-120951-141021-156232
2096.26-156139-142656-138665-138794-126100-117093
2099.16-127754-134393-135004-138273-137128-134054
2102.05-118419-98843-106473-120304-118286-119129
2104.94-124958-124124-122436-113736-103601-115687
2107.83-126979-120676-113064-121528-141237-142092
2110.73-114801-95877-99634-104542-108595-108015
2113.62-110078-118832-110326-91581-90100-95722
2116.51-101381-103796-101663-95946-77272-65537
2119.41-76453-89385-94128-100738-103971-94925
2122.30-79072-54445-32199-32375-43692-52522
2125.19-61868-74960-81722-63436-36971-43927
2128.08-73929-82981-68003-55880-60885-66143
2130.98-57431-59220-68965-58670-49392-51534
2133.87-40963-30353-36995-55735-72260-69388
2136.76-61128-64750-67902-59930-53091-53841
2139.65-64193-84351-89243-76914-81114-99421
2142.55-103760-93973-82915-71722-69614-78664
2145.44-86091-94857-112875-122498-116114-110428
2148.33-103916-100090-110070-116423-111833-112608
2151.23-120074-120283-117531-118249-113482-104812
2154.12-106336-117345-123755-133402-147707-144958
2157.01-134451-120091-110194-118093-133974-146846
2159.90-144802-135129-126850-123799-139190-151543
2162.80-143810-130580-122264-118204-107245-103471
2165.69-127057-143104-133021-129183-128290-106001
2168.58-87505-103076-133166-148127-144345-130437
2171.47-114047-97273-93991-112972-132119-140617
2174.37-142692-140198-131278-120429-126106-137750
2177.26-138136-131636-129173-118537-101448-110677
2180.15-128382-132585-148551-162922-145103-120881
2183.05-119847-129110-138754-146797-149817-145959
2185.94-132141-130183-148036-162573-162491-156684
2188.83-152027-141211-132756-129760-132312-149185
2191.72-165779-170822-170182-167603-166960-173614
2194.62-183755-191237-198710-198372-188573-185213
2197.51-192876-208014-217441-222961-238231-260301
2200.40-276222-288779-301805-298754-290557-296448
2203.29-306798-309625-307442-318623-338212-351276
2206.19-362907-372218-380702-400454-417134-415368
2209.08-411586-425972-444236-449845-453799-460348
2211.97-468296-479402-488907-495310-492294-488352
2214.87-499078-511476-513008-514139-510322-501413
2217.76-502279-511829-515654-501864-485562-483223
2220.65-487952-486423-478222-463589-454764-464171
2223.54-478427-491408-504947-519243-541791-574342
2226.44-604728-636821-681585-712585-726767-745530
2229.33-758979-759608-757385-748499-727565-695693
2232.22-631515-496330-308579-191748-237800-347844
2235.11-411950-443786-472827-497905-519251-544280
2238.01-566829-574339-576128-585553-605037-621096
2240.90-614622-598540-589674-591575-597449-597839
2243.79-603753-612566-611444-604028-603345-608213
2246.69-604882-597769-596703-595669-580622-549924
2249.58-532389-534986-528784-511741-493266-474425
2252.47-452616-427746-404617-382509-362309-339880
2255.36-318236-305345-301059-296688-281667-266215
2258.26-251785-234409-222442-217704-214263-215322
2261.15-216031-204298-192888-192950-191871-185741
2264.04-187979-195588-201215-198847-186218-176732
2266.93-174869-172813-167801-168717-181361-189702
2269.83-188334-179700-169130-174953-182855-178879
2272.72-175129-182164-195553-196864-194478-197492
2275.61-199049-210685-223516-216109-205035-198220
2278.51-185151-168633-159208-160553-170493-183562
2281.40-199455-213147-209105-196767-189844-179499
2284.29-174811-183883-192579-186549-176317-182934
2287.18-193852-196722-199973-200890-191750-174739
2290.08-167071-169952-175723-192128-207389-210933
2292.97-211813-212825-207097-193652-181049-175020
2295.86-172510-162917-146267-133016-136451-146569
2298.76-140950-131665-138021-152733-156066-148889
2301.65-147686-154292-160112-166358-165361-167781
2304.54-159017-124137-109309-137912-169233-169250
2307.43-155308-157985-173963-177408-171188-175802
2310.33-195186-195920-166775-154652-182517-208738
2313.22-188295-161999-183996-210903-176111-138198
2316.11-166032-220739-213278-177130-199229-255540
2319.00-226737-146051-165402-255705-249520-172160
2321.90-190126-281008-262813-159789-168018-265386
2324.79-240645-130814-168431-288363-238869-113345
2327.68-163702-271654-196954-82469-156161-235557
2330.58-119516-37581-151569-178661-14418 18241
2333.47-112437-70551 99079 68464-35934 91175
2336.36 236459 161727 153604 328487 363992 288547
2339.25 410627 590308 580103 597800 772788 834280
2342.15 778184 832992 871523 750187 706896 826502
2345.04 898977 936550 1036259 1093718 1072660 1055840
2347.93 1046283 1012673 962817 932094 939411 939898
2350.82 937052 995638 1034965 997137 1012804 1025513
2353.72 908605 854443 872293 789320 785772 854629
2356.61 803815 830475 870010 710361 575937 416985
2359.50 144160 68467 35642-75330-23378-22643
2362.40-74064-7183-52381-70407-19925-86588
2365.29-77501-74874-113038-87831-137062-145796
2368.18-133251-171483-161199-176277-175316-175577
2371.07-190117-171340-173199-164262-164748-173851
2373.97-189436-204721-193609-172112-145289-137936
2376.86-143866-144266-137319-126880-109436-99610
2379.75-94258-81650-83056-96440-99293-99809
2382.64-94226-79922-78233-86797-91055-87227
2385.54-85815-94005-104169-110094-114684-117763
2388.43-120652-129299-140361-143181-138403-130251
2391.32-125283-129923-130051-124672-128951-139698
2394.22-139218-129400-129691-131711-124411-122898
2397.11-134632-137194-131178-123067-110408-105132
2400.00-113607-128722-137430-133394-127542-133524
2402.89-147434-149453-133394-120087-126907-142120
2405.79-153132-153573-143422-142164-150289-145461
2408.68-132889-133594-137879-136679-142890-148475
2411.57-137312-124461-135201-147771-137234-126944
2414.46-125653-132656-147079-142162-127316-133279
2417.36-138110-126563-119234-115673-116272-122907
2420.25-122848-114001-106404-106857-116712-126772
2423.14-120884-102949-91514-89574-82457-79914
2426.04-91716-94062-86924-86848-93322-106286
2428.93-114407-107034-91529-80001-73184-70003
2431.82-64421-59205-62647-56657-37513-35975
2434.71-48509-50648-48910-47561-40262-28199
2437.61-10779-4974-17136-18342-6189 1644
2440.50-7438-17220-1944 20181 23848 26449
2443.39 43602 64343 73964 65497 54909 64695
2446.28 88344 105144 110071 119823 136631 147129
2449.18 155486 164963 170485 179580 201532 226174
2452.07 238859 234916 231859 256080 289872 311053
2454.96 330238 353118 371796 377178 386798 407790
2457.86 412904 417318 435701 439474 436276 448452
2460.75 458486 466138 479675 485875 485401 490731
2463.64 497089 494231 491361 494627 494320 498523
2466.53 502415 484169 470625 480303 485001 480798
2469.43 479071 477769 470472 454340 433557 407239
2472.32 373617 341761 322759 313245 301202 276671
2475.21 235436 188636 143036 90207 38567 11453
2478.10 21655 36889 19487-16750-54388-79386
2481.00-88901-102379-120380-131702-143260-152748
2483.89-153891-162058-183608-210271-230429-231425
2486.78-226514-225225-221897-224676-241343-257094
2489.68-263886-276014-288026-287941-295215-307767
2492.57-308329-316054-341746-365842-379871-393845
2495.46-406357-411382-419382-431896-443057-468307
2498.35-500298-513089-512983-512136-512194-524661
2501.25-538796-552405-578443-596947-600819-620860
2504.14-641879-635989-628429-630552-646247-679788
2507.03-710693-721303-708014-693787-701016-711727
2509.92-704123-690506-705331-720896-702223-692755
2512.82-693397-675403-646413-619131-610216-611604
2515.71-610734-604851-583297-552575-525953-489315
2518.60-444668-408342-383503-367606-353473-329024
2521.50-300245-275174-252212-230784-211909-199265
2524.39-185345-160405-129699-105144-94160-88032
2527.28-73795-52420-33584-17885-7475-1627
2530.17 15465 38139 44809 39630 37528 44992
2533.07 47549 27259 10134 13022 13774 12200
2535.96 12118 14303 20331 23237 17747 5819
2538.85-7361-10034-18703-41220-48631-41653
2541.74-49082-60162-59120-59651-83917-122051
2544.64-123735-95464-83704-86671-82303-72573
2547.53-69611-70683-70810-70814-82914-93906
2550.42-83779-71778-70195-69094-74443-80917
2553.32-85571-95671-92497-76094-72324-74669
2556.21-79437-92986-94458-84166-90880-100624
2559.10-84260-60833-54445-58877-74663-87685
2561.99-79761-68027-68352-77889-79942-76485
2564.89-89329-109884-111331-100784-102466-102771
2567.78-93361-81962-72069-69905-70228-68823
2570.67-64429-63554-66246-73279-88666-88616
2573.56-75886-74605-72781-61552-57028-69803
2576.46-92831-94735-71349-53502-46823-57527
2579.35-89342-108835-96135-83682-91544-95024
2582.24-86586-90337-103059-103603-99669-99781
2585.14-100020-95859-87748-95869-115215-114734
2588.03-107262-116393-136272-142207-137724-132959
2590.92-128654-128736-124552-113166-114585-131713
2593.81-137653-132959-138914-139851-129217-129982
2596.71-129111-118703-120488-132384-133191-121647
2599.60-120987-129661-136232-144965-147027-143912
2602.49-148456-156102-158509-153919-155231-163317
2605.38-166597-170452-176303-178509-170265-151901
2608.28-150779-163262-163786-154246-144174-139235
2611.17-154269-170347-160032-150639-154327-156339
2614.06-169036-187690-185826-172485-174789-173445
2616.96-149655-132810-141290-153676-163572-173765
2619.85-181346-181252-174638-172888-171505-168725
2622.74-174212-170141-148501-143663-157347-163810
2625.63-167061-165626-159928-168660-176370-175268
2628.53-181597-189263-185389-170453-157854-154999
2631.42-158331-171228-185036-180547-162425-151414
2634.31-151610-157339-156369-142656-133670-131870
2637.20-132298-132678-138353-156895-169236-145019
2640.10-102608-70322-50806-56435-72106-66958
2642.99-56898-61829-66600-59016-49878-40980
2645.88-17767 17234 44580 60097 70561 92975
2648.78 121500 140365 155096 170124 197749 236227
2651.67 263918 279031 298253 331673 366554 400537
2654.56 437285 476585 519496 547601 561596 578297
2657.45 609049 649949 680409 711063 748717 784248
2660.35 815223 838019 848928 852020 863846 884767
2663.24 893681 878977 856738 848314 845515 842392
2666.13 836157 813449 785763 771038 763876 751134
2669.02 723258 678232 628771 590744 566085 532946
2671.92 489533 452972 421595 396469 369488 334061
2674.81 307060 296410 288336 269421 239131 208197
2677.70 178232 145469 110529 72020 29177-1930
2680.60-19490-39552-55178-73334-101598-116529
2683.49-116422-117015-141825-176792-187796-170950
2686.38-153054-156013-168397-176179-183173-186199
2689.27-184160-177710-174094-179494-185063-181497
2692.17-168454-161403-164825-169912-182105-193927
2695.06-191922-190924-190332-182186-169486-155384
2697.95-160870-178403-181470-178329-175467-169256
2700.84-168896-174501-172032-162992-149392-137189
2703.74-126699-112487-118230-134706-138457-140965
2706.63-143340-132913-119607-124096-138439-148460
2709.52-155100-148847-139970-145923-141940-126262
2712.42-129265-137781-131467-127929-134798-136842
2715.31-129378-114318-104232-103744-108101-123044
2718.20-141083-143178-127714-124092-146201-164548
2721.09-155402-135506-129619-133401-140015-141059
2723.99-130204-120307-121099-133393-141194-137996
2726.88-137160-137156-141994-144731-144094-147757
2729.77-150617-159551-166076-148006-124739-126195
2732.66-141039-138981-119573-119023-130720-120531
2735.56-110210-121796-145904-164697-171441-161106
2738.45-144626-140360-129914-114414-118759-128420
2741.34-131886-140387-152811-151855-145126-147384
2744.24-157172-150089-131566-127559-133937-137397
2747.13-131205-127880-133414-138299-141544-139691
2750.02-135007-147846-166598-156116-144632-154296
2752.91-157351-153063-154948-160498-163306-169911
2755.81-174425-160757-152261-159388-153302-136069
2758.70-133142-149299-173108-181599-163644-146928
2761.59-145744-152483-155978-141611-126970-144086
2764.48-173426-176938-170794-165305-159532-158336
2767.38-156044-158640-174471-190994-196122-182980
2770.27-159321-151598-153368-152209-162793-170062
2773.16-166031-163683-153327-146636-159171-175822
2776.06-184240-183401-179726-172782-171912-180261
2778.95-170922-160390-164100-163607-164060-172105
2781.84-178715-178556-171646-158500-141541-127789
2784.73-128422-149165-176327-188505-183943-166848
2787.63-154448-160533-174900-187407-183520-173558
2790.52-173454-178738-177273-156346-146353-155421
2793.41-152980-158102-179916-180224-165169-160306
2796.30-162889-172367-176663-171943-169210-173869
2799.20-180036-177683-172750-174458-180053-181614
2802.09-177040-175465-175807-182430-192669-184498
2804.98-163246-149395-155726-171507-179485-176897
2807.88-172233-166935-167849-172704-170578-175208
2810.77-186072-187349-179418-164908-162382-171471
2813.66-175527-183795-189548-172034-153395-151841
2816.55-149924-150622-159836-164049-170537-162991
2819.45-143037-149510-178241-192732-180158-158613
2822.34-149576-146480-138362-135184-139577-150893
2825.23-166736-179759-179561-172371-180361-177934
2828.12-156037-143762-134852-131596-155509-194724
2831.02-204379-180712-160076-154713-165494-186436
2833.91-187237-173301-170064-176004-161551-130048
2836.80-133537-161426-173432-169194-163359-173660
2839.70-187182-188644-188297-186352-176194-172460
2842.59-178403-175368-166389-160191-161850-169551
2845.48-171087-165144-163217-162616-143829-119668
2848.37-135363-172566-183208-175610-167899-154434
2851.27-146315-145575-149531-149212-138004-143063
2854.16-154780-144434-142945-176269-189312-154419
2857.05-129830-129413-126786-131440-143448-149071
2859.94-149741-158831-169920-160360-138268-134500
2862.84-152750-163551-162459-162207-165335-180883
2865.73-197424-193964-180450-180301-189479-186705
2868.62-170540-168346-183125-170480-134365-121825
2871.52-141434-164040-175450-174885-161713-168257
2874.41-181486-171882-157793-154004-162587-175127
2877.30-173603-158386-138898-121821-123798-143108
2880.19-153506-157881-176955-196772-192004-170618
2883.09-157656-168759-181042-172363-160661-157633
2885.98-157222-164662-184891-190746-179318-173496
2888.87-169676-166082-169126-174500-170329-163297
2891.76-158456-155689-169273-188256-189014-174772
2894.66-158497-157711-172058-175912-171075-176777
2897.55-183954-182458-176985-176336-183192-183463
2900.44-171540-164368-158018-155572-181982-205168
2903.34-183466-151472-146069-156167-169120-184245
2906.23-197268-194287-172222-158830-169765-188707
2909.12-192323-174838-161793-166477-186448-205847
2912.01-199087-183049-187189-179584-157344-158809
2914.91-168964-178222-196519-203617-199147-199449
2917.80-198554-194433-188795-187527-189236-178853
2920.69-167659-172056-183428-178572-156569-148378
2923.58-161770-176987-185395-176927-163468-175228
2926.48-187728-188126-193194-185254-163377-156834
2929.37-148650-134502-148040-176270-191241-197821
2932.26-199101-197676-200868-197147-190263-183152
2935.16-169152-161800-171766-189811-196567-183190
2938.05-181473-211403-211267-169988-150994-162086
2940.94-175232-175063-157943-149614-162226-169762
2943.83-181451-197192-201294-197090-202553-222609
2946.73-226341-192909-138585-106584-132678-171645
2949.62-197402-218587-216453-206271-178496-143237
2952.51-152925-169693-170593-185712-201438-195855
2955.40-169412-147119-149166-151525-131725-122142
2958.30-153056-191460-202841-190184-167565-155376
2961.19-147268-133500-126686-143725-167034-174090
2964.08-171431-173834-184402-196823-193515-159734
2966.98-140996-170220-193320-177926-149878-147994
2969.87-169173-171039-166484-174291-174179-175500
2972.76-183018-186909-184089-175379-169479-173948
2975.65-171557-151319-129023-127030-135986-141612
2978.55-157603-177128-176232-159725-136087-129984
2981.44-148064-158176-160484-165399-169140-162363
2984.33-155386-161797-154081-130362-138754-178036
2987.22-201905-199976-194707-195630-179173-157534
2990.12-154082-148186-138861-146695-159452-161420
2993.01-164287-166576-150692-131506-143818-171206
2995.90-176806-171947-176056-170589-149952-135884
2998.80-135287-145733-160280-172028-174570-158792
3001.69-136157-138667-161013-163724-147144-145356
3004.58-154350-153400-136977-123505-129391-140317
3007.47-156119-172639-172421-156773-148421-152984
3010.37-156206-154346-156000-151434-133663-128501
3013.26-138421-142418-144753-150629-154998-162715
3016.15-169163-166985-168708-177071-176955-161363
3019.04-153253-159512-158014-151008-157522-164117
3021.94-160020-162264-167062-163231-169755-173880
3024.83-166136-173975-184946-189603-191960-194786
3027.72-193425-177726-155834-146377-147675-146321
3030.62-157757-174455-177290-179067-191296-209175
3033.51-213626-185094-150717-154827-181013-192464
3036.40-185148-171424-173099-178726-164081-156037
3039.29-175994-208425-217301-192724-163292-153711
3042.19-168611-184512-179718-168401-160814-164214
3045.08-183719-190095-169467-150439-173048-218927
3047.97-233351-200453-174394-178278-172980-148305
3050.86-136154-148766-160087-156351-151089-160019
3053.76-164568-150107-147808-170745-186813-180365
3056.65-177498-177551-174534-180650-183259-177970
3059.54-174297-164725-157882-162533-149271-133445
3062.44-149691-157496-149857-159133-173233-172182
3065.33-173332-181988-174018-162874-168408-171737
3068.22-164216-142295-115288-112036-134200-151997
3071.11-141408-131718-136148-142126-148503-152645
3074.01-157441-156424-159439-160824-148694-137772
3076.90-137046-144469-153538-160635-160379-148708
3079.79-149587-172946-188805-177748-168662-165114
3082.68-152703-152230-154169-146605-160955-184763
3085.58-188831-182713-180429-183166-172707-145701
3088.47-124333-128032-140844-144044-153215-162620
3091.36-162305-157967-156395-160067-166456-167559
3094.26-154458-138766-132223-138476-154779-166130
3097.15-166922-158435-134798-113946-128786-155297
3100.04-151872-139827-142175-149195-140912-128303
3102.93-116767-110700-119299-134306-144764-149401
3105.83-151659-147893-149657-169001-174185-157710
3108.72-150601-155355-151691-146012-141363-141557
3111.61-149684-138332-122371-121043-119282-115345
3114.50-113876-115553-118204-129610-149322-153166
3117.40-141537-131261-129849-136878-147191-138574
3120.29-127192-142054-146113-129536-122245-126927
3123.18-132189-149232-154965-129931-110834-118618
3126.08-135489-142545-139494-139332-146815-141658
3128.97-120076-114049-126779-150541-166805-149054
3131.86-125693-125369-139207-154743-161006-156550
3134.75-136069-113447-121509-145522-152366-133203
3137.65-120292-126637-132089-126220-124893-133587
3140.54-149758-172748-175976-165730-161676-155161
3143.43-142610-132229-120459-132566-151149-134503
3146.32-116174-119164-132216-146087-139253-131299
3149.22-154500-181547-181007-158626-133151-126802
3152.11-144175-162961-170897-170605-161512-133507
3155.00-110438-134298-157721-153383-161626-177813
3157.90-178284-156499-130559-116908-115896-131461
3160.79-152425-151622-133421-138191-161539-163187
3163.68-156153-161777-163607-153880-144051-147953
3166.57-172513-199536-202242-192823-181200-151383
3169.47-137744-157797-169698-155230-135785-135210
3172.36-145736-151594-151362-153873-166640-168636
3175.25-155732-142329-143438-166309-197429-212121
3178.14-207854-203996-189049-166795-159896-168174
3181.04-174008-163727-142048-125742-136514-161667
3183.93-171355-157308-156893-175350-170320-173048
3186.82-198278-201369-183820-171424-171577-161715
3189.72-154041-156849-150009-154130-178627-185082
3192.61-169705-171521-192707-197236-193183-191797
3195.50-177655-157343-153250-161044-174354-189375
3198.39-184563-172192-184471-201036-191623-166216
3201.29-140677-127284-128477-153386-191871-207658
3204.18-200486-192713-193405-201558-215486-209954
3207.07-189260-168759-162288-166738-153096-133655
3209.96-123631-123449-143990-165795-166117-165636
3212.86-173881-177730-184196-186501-169770-158609
3215.75-177039-185550-165255-150368-144819-151241
3218.64-156640-137163-115634-115897-136697-150278
3221.54-149492-163262-177327-171827-156690-149469
3224.43-159931-158303-142532-148805-169509-179182
3227.32-186175-177416-154150-142080-140271-137687
3230.21-134176-134167-138961-155574-178774-191947
3233.11-183157-171886-174297-172821-166804-155442
3236.00-150396-170726-202167-202468-179991-164733
3238.89-158229-152231-139750-135663-142430-151259
3241.78-159502-168057-180839-182607-170373-162830
3244.68-170795-181729-187906-182188-156127-134796
3247.57-136184-144802-156077-156916-149140-153921
3250.46-164713-177481-183364-165412-155079-163452
3253.36-159599-149974-154684-160689-169111-188742
3256.25-196527-186212-169785-149764-132513-136184
3259.14-152994-160426-154808-151189-160793-166009
3262.03-159058-162169-184607-176845-138537-124803
3264.93-140385-154610-153469-154978-159577-154545
3267.82-158161-184568-193261-173933-167186-172342
3270.71-169958-158850-149152-140937-126029-129117
3273.60-150635-141827-121195-128150-141676-146236
3276.50-144558-139831-148173-167603-164298-142259
3279.39-139063-146786-142637-144766-156441-168057
3282.28-184088-199200-192228-162610-142345-151868
3285.18-175105-183838-163993-143620-138683-136318
3288.07-136955-143211-143554-140768-144634-144203
3290.96-137136-134782-154569-174289-171141-169031
3293.85-175536-169356-152980-156368-178084-183673
3296.75-173009-151219-139199-150345-154247-165204
3299.64-180703-173905-159432-152372-139815-131805
3302.53-144699-157536-154073-155536-178571-189114
3305.42-171593-167179-189348-202908-203596-206048
3308.32-194793-172277-157060-145156-143041-149115
3311.21-163997-179700-186824-183618-177005-190408
3314.10-195974-195945-207048-201163-190724-193882
3317.00-198272-183105-151384-135196-143630-160591
3319.89-167695-177598-192932-189090-175454-168749
3322.78-173487-187330-196707-203136-200599-178939
3325.67-169644-182298-187997-203185-228326-233399
3328.57-224318-203838-188646-191918-201353-215740
3331.46-215819-206596-194191-174229-175341-176283
3334.35-160441-171210-185129-169176-155716-192283
3337.24-239913-241638-240665-250601-235978-222240
3340.14-220309-199047-172431-169855-180643-171961
3343.03-144493-134455-152289-170303-172646-196921
3345.92-244247-278358-283653-286050-276633-213037
3348.82-135148-86501-72598-92006-143722-218138
3351.71-265018-272761-254033-233766-236040-225465
3354.60-203233-197081-209303-228000-229902-217640
3357.49-210125-215795-218174-198191-165332-141273
3360.39-144535-150516-170146-218937-249812-256986
3363.28-246797-240549-262537-273974-261813-242242
3366.17-228754-208756-172315-156048-171934-196878
3369.06-217133-230947-227551-208634-188200-173680
3371.96-166181-165256-181498-202782-209698-197727
3374.85-176354-173188-180744-188777-218860-249191
3377.74-241540-211006-197520-201647-197059-199074
3380.64-216019-217102-195830-200671-220850-213207
3383.53-197369-193157-204258-221322-225375-223813
3386.42-220561-230278-232047-205452-196791-195021
3389.31-173652-187509-219014-202723-180729-187387
3392.21-197900-209292-211047-210147-219178-220153
3395.10-209581-196758-187781-174666-180556-211980
3397.99-233653-243299-235007-220783-217954-204345
3400.88-185858-187341-212294-236467-228811-212189
3403.78-204226-200152-188619-183898-205787-230012
3406.67-242282-243256-229062-191784-178378-199229
3409.56-195787-200290-230982-239066-229712-203978
3412.46-198982-215415-193139-172720-197180-222989
3415.35-238504-245474-220158-200548-214559-225834
3418.24-221658-215059-205092-209591-252747-263002
3421.13-208330-158424-150536-165876-195213-233282
3424.03-232782-203030-197188-202627-207260-208977
3426.92-187560-180168-213617-234914-226291-218893
3429.81-212239-205599-210400-234213-264050-253332
3432.70-211412-190030-195591-197900-195003-186788
3435.60-175821-184735-216260-225154-206839-200559
3438.49-210312-209706-203824-212026-215064-218517
3441.38-254487-277226-226797-167506-177322-216158
3444.28-239429-246210-228858-221978-233862-227230
3447.17-214389-206964-182534-158510-169710-204991
3450.06-210873-192484-187148-181010-181096-210484
3452.95-233898-217663-205526-213029-189675-158028
3455.85-176786-217326-226435-203695-186508-204406
3458.74-229766-226081-205769-204744-216066-210858
3461.63-195996-195881-202290-197007-185200-178481
3464.52-194878-218760-213534-189424-154277-139648
3467.42-165197-178700-166976-162901-185305-210309
3470.31-228200-236433-213163-209238-221045-206852
3473.20-187200-181748-191651-203299-190079-164993
3476.10-183535-216762-206703-180850-187674-209450
3478.99-210471-204568-206012-192496-173828-188013
3481.88-217036-219434-201206-184424-186588-197391
3484.77-208317-210412-199077-202040-230535-236528
3487.67-192723-165379-167670-178701-188128-184575
3490.56-180694-186809-199196-199451-177464-153434
3493.45-156936-183366-206989-212529-202624-185116
3496.34-178108-186402-197352-199197-204816-217951
3499.24-214625-207946-196748-169375-179618-213703
3502.13-208448-195364-204255-205303-187614-167711
3505.02-165476-160728-147973-161127-202854-226028
3507.92-220897-209890-202022-196853-182908-168261
3510.81-173382-182666-187494-196366-191439-179151
3513.70-184441-199058-206860-189761-168383-168968
3516.59-163955-157723-160358-173960-199465-216091
3519.49-223345-232600-221929-203644-204226-198225
3522.38-191211-188954-175537-169680-174485-177923
3525.27-185839-191995-198882-198949-185648-181015
3528.16-205101-230779-228195-216380-220892-217681
3531.06-195235-195410-199668-182561-186027-207685
3533.95-209981-181815-160753-173042-199472-218814
3536.84-227330-222543-205741-208834-222414-221539
3539.74-213439-222976-235069-220696-204647-204488
3542.63-192155-199802-244729-259320-239202-220324
3545.52-199861-182967-176510-163178-150006-157294
3548.41-179108-197044-204084-204532-206752-210312
3551.31-203348-205506-213328-209955-206132-191235
3554.20-189853-214044-225103-229327-236663-230073
3557.09-217799-208705-196488-207024-240833-252747
3559.98-239098-213080-195057-184501-161203-159471
3562.88-191720-198679-178193-176713-190765-193317
3565.77-180948-175664-176753-179990-197361-213246
3568.66-214619-206420-197885-190950-175878-171588
3571.56-188954-212138-216349-201740-208982-209695
3574.45-179223-153160-152358-180061-208628-223706
3577.34-232695-221153-196010-180564-203781-248716
3580.23-265356-246015-211776-193476-186439-173299
3583.13-167200-160804-157672-190638-231146-244384
3586.02-243771-245119-245098-219734-197810-189162
3588.91-178069-186997-206877-207620-205874-217633
3591.80-229166-224132-213625-227455-251829-260259
3594.70-242547-213281-203924-215967-227607-213079
3597.59-189411-179814-172963-185064-210893-210875
3600.48-182727-165386-187051-212096-200235-196261
3603.38-220632-236956-230599-216944-203058-204672
3606.27-228299-237354-215585-180843-177465-207997
3609.16-220341-200277-182736-185557-187844-191858
3612.05-193808-185562-179047-194447-217044-207773
3614.95-203775-204695-183918-186066-206399-197863
3617.84-171419-162942-181418-224583-253487-229784
3620.73-204569-214173-225961-217301-201298-194495
3623.62-197461-197832-186410-180814-189380-200242
3626.52-207314-214449-231507-242653-229727-221644
3629.41-215159-201697-189609-179296-191765-216872
3632.30-220041-198406-175182-171310-181371-188438
3635.20-188985-191141-200958-197281-183237-181109
3638.09-199062-227922-234162-217194-222446-251642
3640.98-257099-240652-231715-229259-216532-195177
3643.87-183670-186956-194646-206589-232013-230726
3646.77-197917-184001-190392-188684-175490-165230
3649.66-179949-217202-245368-246308-221544-182186
3652.55-168510-194136-206283-202449-203256-190834
3655.44-191341-217911-213975-176227-130449-106716
3658.34-129651-161558-192949-220395-227750-217750
3661.23-206395-218026-224754-197927-174932-182361
3664.12-194253-175708-160805-175474-186007-185681
3667.02-187428-197530-216916-218805-198700-202705
3669.91-227306-227856-210324-197959-185853-188633
3672.80-192131-174954-173541-196530-210205-209225
3675.69-202307-176328-137597-117693-130273-157788
3678.59-161699-138924-127843-139976-165806-177081
3681.48-165604-155472-149034-138876-137419-143365
3684.37-156251-165967-152362-137876-142100-150035
3687.26-155792-172125-163311-118295-108528-150990
3690.16-202968-230705-218133-172142-129614-125084
3693.05-146351-166171-155840-126556-119708-147912
3695.94-178612-174269-167440-182202-185830-187292
3698.84-196719-194488-185004-168312-158498-166737
3701.73-167305-173312-191684-191607-195722-209961
3704.62-211690-206867-212485-228580-234826-229426
3707.51-232375-246059-251067-243003-226460-206450
3710.41-205687-251650-297658-269369-212407-211569
3713.30-248026-254057-228245-229943-254051-248867
3716.19-234582-234746-228454-236476-271476-270757
3719.08-232970-227050-253613-274016-281734-292986
3721.98-284987-261062-256816-265526-279517-292895
3724.87-296986-289108-267759-256276-246486-247265
3727.76-261329-261226-256239-259975-267938-268458
3730.66-277098-298101-305866-304789-316035-313134
3733.55-294091-291410-307600-307699-291726-297800
3736.44-293341-276573-277540-266991-248615-246841
3739.33-253628-273810-310501-318828-288019-275021
3742.23-311562-339351-336985-379269-421289-379143
3745.12-326818-313265-296210-268926-240501-214600
3748.01-248302-341491-384872-351473-330346-326545
3750.90-332499-365185-359206-305245-277591-269495
3753.80-257658-266910-289000-296574-293957-308164
3756.69-324093-312338-289745-281459-291055-302804
3759.58-301509-283973-276366-279778-278699-277340
3762.48-280812-285401-279878-264120-265466-259876
3765.37-238024-233978-255621-281406-285775-290097
3768.26-298500-278351-261150-271715-286108-291608
3771.15-284118-280292-290530-277537-235930-217228
3774.05-240438-260718-249464-236967-245254-269561
3776.94-291718-279086-259639-271451-275296-256333
3779.83-248174-259931-265693-256761-247986-238876
3782.72-242144-257155-255016-257777-274327-268975
3785.62-257710-256003-246826-231101-218641-224269
3788.51-250155-264779-245938-227047-232484-237881
3791.40-234959-243548-256859-246409-239118-240473
3794.30-222669-208398-218577-242567-244942-234622
3797.19-235161-226697-213466-206261-204563-209897
3800.08-227326-281618-315135-277208-242118-236567
3802.97-225958-217017-210557-208947-217415-219586
3805.87-226370-257453-268020-235372-225778-248179
3808.76-256066-241488-219692-216533-232746-228643
3811.65-194273-167342-172124-199809-215921-202344
3814.54-188791-208061-241778-246352-235771-239017
3817.44-244142-241834-226507-208348-215776-233613
3820.33-234761-240668-255122-244281-223980-216158
3823.22-218976-219064-218578-221305-216425-202790
3826.12-183724-182719-201331-222794-226291-193873
3829.01-167199-179690-206669-217822-221441-207598
3831.90-176796-183993-220250-230605-229923-244845
3834.79-237349-212269-213925-228895-256263-294846
3837.69-285987-251670-234293-218404-233985-261679
3840.58-250900-229503-226006-235496-248065-251960
3843.47-238367-215531-192392-183185-202596-221243
3846.36-217645-215877-228036-229525-214529-199666
3849.26-201707-213887-235222-256081-276390-268035
3852.15-216550-204042-258866-300095-283101-254524
3855.04-240418-230659-225509-239617-253468-243389
3857.94-252668-276733-269387-233518-203074-182905
3860.83-171527-189691-225544-232244-212752-214532
3863.72-228563-234356-246227-251819-234699-207120
3866.61-176939-158514-169589-197830-223595-248929
3869.51-280039-280319-247324-226575-217806-200123
3872.40-188366-185133-185797-200011-217684-211677
3875.29-191295-184197-187327-195773-212475-219730
3878.18-201884-182686-206904-247218-260189-251640
3881.08-231855-213739-208475-227041-240615-243917
3883.97-242320-252832-279266-272866-243707-233427
3886.86-248729-262248-241994-212646-197964-196221
3889.76-227180-277577-300626-280505-238316-199535
3892.65-193276-213304-237337-248141-234007-234145
3895.54-249549-233824-213990-208120-194641-188791
3898.43-212180-224435-206747-205806-226014-237648
3901.33-241828-236957-232183-238054-260103-276711
3904.22-250593-216136-219375-232223-225351-198040
3907.11-173453-180903-202857-199886-187484-202839
3910.00-213543-192410-192404-218929-223432-200455
3912.90-193096-221183-244786-247442-237391-222676
3915.79-217287-219392-225208-230905-233810-237222
3918.68-229547-217775-208530-194152-198841-218833
3921.58-230185-243402-254290-264087-273154-258243
3924.47-233555-205268-176188-181233-216928-238997
3927.36-232382-225475-230933-209163-187667-210561
3930.25-243258-254110-245032-243297-252191-234589
3933.15-195080-178431-207336-242268-253791-246911
3936.04-243548-260302-270294-266172-272583-264838
3938.93-235153-209306-197500-198079-207069-233966
3941.82-258425-252201-240421-232931-236543-236431
3944.72-227551-223535-217552-229026-241191-233629
3947.61-221990-208264-210586-235916-245565-221691
3950.50-198527-212353-255590-263333-225759-211588
3953.40-229276-236540-229780-224777-220559-248528
3956.29-282013-273875-271799-269521-229489-193165
3959.18-187112-211432-253566-271274-249540-222243
3962.07-220420-229830-234203-249329-252116-239945
3964.97-237019-228407-221143-220966-217971-223766
3967.86-233296-235263-248476-252866-238797-232089
3970.75-231003-240187-244856-222604-212247-225316
3973.64-242342-264015
##END=
