##TITLE=Hexafluoroethane
##JCAMP-DX=4.24
##DATA TYPE=INFRARED SPECTRUM
##CLASS=IUPAC A
##ORIGIN=NIST, Analytical Chemistry Division, 301-975-3108
##OWNER=COPYRIGHT (C) 2000 by the U.S. Secretary of Commerce
##DATE=00/02/01
##$SPECTRA VERSION=1.10
##$UNCERTAINTY IN Y=2.0 % relative (B=1.0E-04,C=8.6E-09,D=5.8E-12)
##CAS NAME=Hexafluoroethane
##CAS REGISTRY NO=76-16-4
##MOLFORM=C2 F6
##MP=-94 C
##BP=-79 C
##$NIST SOURCE=QUANT-IR
##SPECTROMETER/DATA SYSTEM=IFS66V (Bruker)
##INSTRUMENT PARAMETERS=KBr Beam Splitter; MCT Detector; Multipass cell
##STATE=gas
##SAMPLE DESCRIPTION=Hexafluoroethane Primary Gas Standard
##PRESSURE=101.3 Pa
##TEMPERATURE=23 C
##SAMPLING PROCEDURE=1 L/min Flow
##RESOLUTION=1.9290
##DATA PROCESSING=NB Strong Apodization
##XUNITS=cm-1
##YUNITS=(micromol/mol)-1m-1 (base 10)
##XFACTOR=1.0
##YFACTOR=14.551E-12
##DELTAX=0.9645
##FIRSTX=575.653
##LASTX=3974.609
##FIRSTY=9.76E-07
##MAXX=3973.64
##MINX=575.65
##MAXY=.012827
##MINY=-.0000108
##NPOINTS=3526
##XYDATA=(X++(Y..Y))
575.65 67090 24592-5590 139203 99991 52563
580.47 37786-33849-127953-70641 48658 59096
586.26 175421 71324 43261 136028-74416-304716
592.05-180322-30317 31946-4182-106430-15365
597.83 81372 172844 133763 12926-19831 13679
603.62 15322 67144 61346 6399-48291-220
609.40 42176 115786 102805 5854-85007-80039
615.19-106516-71816-75420-1857 38070-13267
620.97-31093 5645-5037-254-5225 27112
626.76-16249-46661-48149-16395-97318-78559
632.54-23383-2365-103874-66385-45195-60086
638.33 3694-4929-77740-32446 32452 7038
644.11-71586-35536-48412-15808-46734-35675
649.90-51514-49061-98255-40229-50593-45315
655.69-72419-26383-53832-57020-44595-75060
661.47-137556-78594-49958-13417-70091-260799
667.26-340355-99323 11532 26053-82746-104896
673.04-152403-113390-89068-34872-79874-88326
678.83-95618-56146-101368-43190-58202-27359
684.61-38864 15578-51119-26780-77082 43398
690.40 52689 175720 221659 380853 478836 819755
696.18 1161755 1847952 2587799 3824080 5255482 7252509
701.97 9344507 11751447 13754450 15627674 16425456 16587059
707.75 15398227 14289020 12778084 11057152 18924251 44336155
713.54 40509473 18579501 12038989 12802693 15482946 17369772
719.33 18816661 18745640 17988488 16139179 14016430 11302814
725.11 8963157 6680163 4955901 3424041 2469572 1636693
730.90 1217912 818681 653118 380792 315609 182677
736.68 219822 91092 72699 13446 71858 8118
742.47 39381-58980-20781-53340-26676-94202
748.25-33193-33148 22116-62392-35764-55559
754.04-16015-77716-65454-110647-29886-27825
759.82-14791-58586-14187-39376-23520-73570
765.61-33410-43068-18098-48733-39678-55343
771.39 18188 1215 28103-33513-10853-8773
777.18-14811-87597-46934-39954-28017-66644
782.97-21056-56644-24961-55967-85747-72338
788.75-16473-76933-75054-86887-89161-136523
794.54-80079-67579-67000-106638-76385-91128
800.32-81748-83046-85273-100403-56109-78721
806.11-66876-92121-60214-74255-56299-78291
811.89-76824-89071-40480-48206-71292-98132
817.68-79385-100797-81161-103826-50821-73526
823.46-78141-90901-46971-49256-46195-52302
829.25-2876-33886-24266-41678-34771-63086
835.03-52924-67136-3066-5075-48625-95565
840.82-69801-48828-44250-97624-72711-56270
846.61-29076-66746-42263-78186-79767-91494
852.39-88106-102462-70974-105477-101554-77438
858.18-39030-69815-64719-94524-44096-52218
863.96-40795-55988-58623-62333-25003-44575
869.75-41198-51216-37309-44109-8618-31424
875.53-26630-29635-32301-63566-15456-34589
881.32-42204-53272-24842-21895-29300-34288
887.10 21739-4764 28265 21043 18142 2254
892.89 48218 37655 64576 50954 58227 45919
898.67 69093 40838 42813 64088 82200 56490
904.46 77345 35543 18880-12292 16063 2623
910.25-13729-52024-30804-34064-40976-68600
916.03-61537-80828-73241-84754-70743-88686
921.82-72002-92435-103697-119601-83848-98337
927.60-63361-67525-58985-81252-65760-92521
933.39-94267-113597-70079-79847-67900-82496
939.17-61288-76210-57092-80067-88886-107448
944.96-74104-93387-75774-86897-82667-100437
950.74-76424-91916-72432-71622-48918-82772
956.53-86118-112355-87623-118710-98648-108358
962.31-94806-108334-82025-111563-102633-93538
968.10-70855-115771-101099-109479-106830-128056
973.89-102025-102223-75598-88777-66132-74465
979.67-53692-79752-51190-75948-63399-67991
985.46-46214-47364-31690-58661-38033-42506
991.24-30825-54292-28070-29644-16249-43970
997.03-15674-26884 8016 7165 10977-26916
1002.81 6683 13547 47383 43905 64038 47225
1008.60 67903 65446 113649 103878 117768 109993
1014.38 161755 148562 183883 165065 168894 158992
1020.17 234806 278088 355043 361727 362934 317851
1025.95 332002 301983 315237 271994 267565 241881
1031.74 268893 232355 243492 174874 166516 109110
1037.53 119364 73967 67271 6494-2250-39584
1043.31-18398-35520-8666-37755-17250-36995
1049.10 4914-18597 11783-12680 30203-1547
1054.88 27599 10925 67044 53800 71994 70833
1060.67 167214 123048 132221 83358 95739 55705
1066.45 93937 59635 103130 73229 103759 43373
1072.24 53507-40358-8207-63660-28990-62486
1078.02 7001-13469 58988 28661 118892 140705
1083.81 289371 352072 585024 756592 1080439 1331524
1089.59 1805252 2217758 2853735 3422144 4298309 5287059
1095.38 6926940 9177096 12829248 18073117 25605606 34365538
1101.17 43254376 52174954 64207900 77831332 91318878 102345552
1106.95 110033381 112509642 110858857 106718104 107132395 121527085
1112.74 163351968 226848153 266543746 206396805 100077233 81031924
1118.52 109451468 138582138 158635130 166751715 160726297 143549848
1124.31 118534953 91226798 65189189 43964555 28144174 18046348
1130.09 12034492 9180371 7755173 7306466 7032755 7256643
1135.88 8034816 9941498 11013845 9377653 8011502 8343443
1141.66 7107840 6667122 7308434 8067599 8119725 7805624
1147.45 6953077 5989753 4790867 3784187 2788226 2048890
1153.23 1376887 990154 592193 435556 259241 232690
1159.02 127858 147803 85545 140693 91921 135120
1164.81 84281 136246 123817 197470 146646 190526
1170.59 158946 217065 198764 251776 206747 263981
1176.38 255987 325828 301832 378155 382163 473003
1182.16 481922 572007 606558 721494 759627 889242
1187.95 963308 1149659 1281996 1518610 1705624 2005490
1193.73 2280788 2652957 3006660 3478816 3879636 4384922
1199.52 4786781 5229156 5522627 5790183 5926551 6093913
1205.30 6020882 5740846 5058959 4233144 3487991 3055554
1211.09 2657839 2395850 2098802 1934067 1729883 1659238
1216.87 1557507 1584410 1576022 1725114 1843830 2091205
1222.66 2322413 2779805 3310899 4187227 5282406 6971369
1228.45 9233681 12537343 16955490 23095438 31178117 42050040
1234.23 56218984 74708086 97978855 127234322 163028448 206899337
1240.02 260044761 323365974 396031719 477444566 565061288 654672749
1245.80 738059552 808586272 859067041 881483396 871196006 837837028
1251.59 781642074 722226429 646293645 523738547 411951997 318248821
1257.37 242875442 185228221 139929833 104162187 76635111 55539439
1263.16 39806940 28008010 19549541 13415791 9240736 6297060
1268.94 4418884 3115176 2350237 1783558 1494351 1261362
1274.73 1166901 1017057 960962 876040 867764 795223
1280.51 779609 738813 750434 710233 727404 703551
1286.30 722334 714509 751307 749889 794650 811011
1292.09 865683 882644 953939 992490 1070357 1146571
1297.87 1282211 1413249 1602121 1805933 2047078 2266881
1303.66 2522301 2738706 2979742 3228976 3522696 3809370
1309.44 4144532 4491676 4866479 5231898 5638206 6019501
1315.23 6417094 6804718 7226886 7611589 7961928 8265119
1321.01 8546269 8787054 9051194 9281286 9472747 9585196
1326.80 9625989 9531330 9409306 9262101 9111619 8882576
1332.58 8609693 8264120 7861438 7413032 6998769 6594081
1338.37 6234965 5862513 5488618 5079065 4672830 4265361
1344.15 3893795 3513774 3155834 2802707 2490460 2156312
1349.94 1842488 1550110 1300912 1081350 932842 794362
1355.73 686188 568195 442742 323525 250373 177752
1361.51 131883 102436 90549 57491 44949 32544
1367.30 40023 28532 23556 14139 11490-12345
1373.08-10948-4281 11787 10436 722-19571
1378.87-11268-25781-49091-67604-54003-52444
1384.65-34703-32191-44006-47585-38044-44729
1390.44-48461-61883-60294-49269-43353-58675
1396.22-53756-52248-52879-84654-76950-56862
1402.01-48780-52183-67055-64576-52047-66609
1407.79-76996-85838-89595-102266-91161-81638
1413.58-82979-90410-86653-95510-114994-121058
1419.37-90739-73257-65126-69863-59500-60784
1425.15-100732-115486-26464 42108 71915 82470
1430.94 117600 147622 178535 209116 242193 267722
1436.72 315959 352178 385634 401039 407168 416187
1442.51 423658 427288 446941 475477 498187 497169
1448.29 502609 512764 523499 537920 539774 516633
1454.08 480263 430024 407530 413660 415586 411974
1459.86 417441 412095 409176 390083 370720 356936
1465.65 351143 323476 297833 262560 236724 193083
1471.43 149869 116569 100699 77657 38166 16273
1477.22 20571 12334-5493-26206-41924-48010
1483.01-43066-54528-58463-61652-59206-67911
1488.79-86912-85118-54930-37241-43250-59721
1494.58-79404-101536-97167-104699-101067-96092
1500.36-92054-100623-100293-110645-135351-141597
1506.15-125423-102072-92532-96509-84796-73461
1511.93-61675-59034-71186-100527-108164-81305
1517.72-28896-2841-52286-121703-109057-89123
1523.50-84184-94712-73383-70490-79742-88290
1529.29-90581-105267-102545-113461-118532-115446
1535.07-112240-116805-124097-168301-177490-159284
1540.86-137756-132402-120266-115724-97461-90334
1546.65-95070-100825-99911-98765-84904-76288
1552.43-83376-114147-99893-92636-110156-141470
1558.22-142969-142360-118879-94374-78121-90873
1564.00-98380-92061-80625-82929-92931-116833
1569.79-112275-117306-102887-86213-83884-125975
1575.57-128372-89394-76270-82100-73776-72168
1581.36-85351-81715-56889-25370 7722 19453
1587.14 34734 57772 96601 123562 172262 237993
1592.93 300974 359627 420705 472391 509115 521279
1598.71 512594 489973 482340 483343 463207 407335
1604.50 340765 290883 272615 257332 255275 270031
1610.29 300893 321247 348945 370538 404799 411793
1616.07 441983 527068 598638 650871 693146 727119
1621.86 747823 778283 823579 860817 889949 907122
1627.64 950841 993499 1013759 1031562 1039916 1020219
1633.43 963392 844339 761775 707687 658291 628955
1639.21 614091 586492 559084 500623 421938 335516
1645.00 267701 215721 155345 112456 86485 47855
1650.78-28811-108702-100308-73107-68186-67284
1656.57-67693-75960-82654-95547-113536-129100
1662.35-129416-117295-109958-117631-120223-132653
1668.14-134263-108640-108799-125265-117695-109985
1673.93-115875-114262-93896-88111-86035-85274
1679.71-83474-84366-90234-112774-140484-111631
1685.50-61219-56827-54992-52528-46058-48281
1691.28-41328-45750-53510-84337-90000-53072
1697.07-33140-49236-86308-66211-16264-2410
1702.85 1122-998 19352 39692 55475 69053
1708.64 90680 115650 145222 152662 172738 193960
1714.42 224187 237576 247728 300339 361696 395675
1720.21 428708 467375 492100 513740 552106 588474
1725.99 611377 628195 661174 696808 727167 720523
1731.78 682706 646475 644071 646198 633052 598808
1737.57 568403 523576 500774 474072 431366 386288
1743.35 364731 341825 306370 256472 213518 189342
1749.14 164275 118522 104276 93459 66836 37765
1754.92 26592 15096 12906 5652-8914-33113
1760.71-51262-51669-50237-57501-51453-57180
1766.49-66391-64836-63761-72583-74180-95413
1772.28-92046-84790-92534-92017-88793-100176
1778.06-98839-96318-97999-106727-119223-120279
1783.85-124088-128876-130525-140154-129929-124859
1789.63-130019-144371-161873-154457-127790-135808
1795.42-140659-132501-130421-151364-150574-131172
1801.21-118867-128409-140147-137621-123908-122137
1806.99-114787-130475-133107-134673-131702-126739
1812.78-126447-134302-136604-129544-115944-112615
1818.56-111972-116074-100214-91138-87842-98957
1824.35-110017-98493-90134-82470-92367-121120
1830.13-91490-78676-87874-81542-75789-78141
1835.92-72008-74415-73982-79192-69032-60741
1841.70-56354-67094-51843-13420 195 6800
1847.49 33469 64030 87651 124217 165643 200645
1853.27 244123 274278 303565 340007 375240 415127
1859.06 449973 470508 488290 511520 563751 627327
1864.85 671804 699270 710895 667039 597089 534270
1870.63 491812 447854 411841 405531 397849 365553
1876.42 342354 300994 256192 199285 146440 88335
1882.20 49053 27406-4280-37719-65194-91618
1887.99-102799-110157-115730-120748-120646-126588
1893.77-131843-139542-130918-125798-131133-140183
1899.56-133929-129306-125531-132263-131546-111469
1905.34-100437-98829-86400-83585-77058-60222
1911.13-51051-44943-29040-25895-25292-11521
1916.91-1200 8404 35182 59675 82974 75377
1922.70 42326 33225 55424 86186 119585 139366
1928.49 152358 140413 114435 98091 100240 115193
1934.27 133490 144677 175422 193556 145915 101642
1940.06 112789 146698 181183 200495 213292 204307
1945.84 193432 172611 159956 151997 146669 154467
1951.63 170921 185577 193868 175386 152616 149531
1957.41 227743 306275 240608 118398 57537 36383
1963.20 40746 31449 24427 10035-701-19542
1968.98-47879-52508-59154-78181-88457-91640
1974.77-102118-116376-103300-99180-109837-115962
1980.55-125084-124394-115024-114115-106334-115398
1986.34-120005-122821-123497-117750-110000-120056
1992.13-120914-123987-125074-118577-114252-123240
1997.91-120983-122726-123101-130350-124419-121326
2003.70-113391-106768-105683-113478-112339-124780
2009.48-129504-127922-126908-130469-126588-124164
2015.27-118380-122603-124128-126796-129490-129496
2021.05-132819-127849-118132-130468-136868-138637
2026.84-136478-120613-111843-116812-108837-104110
2032.62-102091-97992-72795-49942-23414 3972
2038.41 40754 87054 148179 222726 315618 425442
2044.19 557825 706549 867104 1027025 1190485 1354352
2049.98 1514451 1636941 1712638 1739589 1707232 1624818
2055.77 1489348 1314402 1148952 941063 697982 503027
2061.55 361098 247360 155754 66502 14073-27210
2067.34-62914-79628-94362-116642-124962-129048
2073.12-130773-135223-134222-130735-135581-152536
2078.91-151014-142236-126102-122615-126107-137015
2084.69-137755-141765-145897-153497-149351-135462
2090.48-133075-128004-129031-129076-126893-148982
2096.26-144894-135050-124445-132658-135546-129095
2102.05-109680-115337-119948-123433-113630-116589
2107.83-119220-126751-128577-106926-103365-109810
2113.62-110666-99182-95541-101808-90152-76514
2119.41-85797-98794-89755-57015-38585-53220
2125.19-69819-61294-54318-71702-62725-62074
2130.98-60768-59344-46024-40007-52818-67753
2136.76-63291-61401-58236-78347-82579-94564
2142.55-91102-77568-78137-99088-114066-111311
2148.33-105008-112781-114387-119672-114797-110743
2154.12-115454-135263-138604-124396-121762-140592
2159.90-134350-133119-140929-133871-114977-116381
2165.69-130652-130137-107786-111887-137075-129028
2171.47-104504-114561-136046-137256-127554-133214
2177.26-131543-117950-114817-136987-147580-132116
2183.05-129084-144800-141242-140327-154680-156893
2188.83-141366-134687-148534-167912-168157-176343
2194.62-189472-194962-190461-206535-226680-258726
2200.40-286487-297191-298087-308947-321780-350888
2206.19-371668-399474-413595-428943-447491-462116
2211.97-478177-491453-494150-507551-510892-506665
2217.76-507772-501330-486085-483270-466197-468659
2223.54-490590-524572-573625-641921-703913-743294
2229.33-756141-742776-673909-474269-272733-331454
2235.11-438325-497399-541265-572244-589286-611346
2240.90-600701-594778-598946-608981-605932-605786
2246.69-599225-589025-555269-532776-509482-473480
2252.47-427733-383772-340180-310386-291514-266870
2258.26-236548-219876-213825-204991-192328-190111
2264.04-193672-194917-179343-172989-172920-185414
2269.83-178839-177082-178094-185426-194026-198959
2275.61-209630-213833-194841-173179-164465-185881
2281.40-203611-199047-181902-184495-184120-186315
2287.18-195331-196222-178408-173666-190913-209438
2292.97-208561-194763-175618-160417-140157-140973
2298.75-137885-148543-150291-155592-162899-161525
2304.54-133777-140510-161728-164084-173282-181147
2310.33-183327-172794-188500-182129-185072-168106
2316.11-194169-202589-217195-191292-213183-214906
2321.90-230824-211004-209476-198497-210782-193386
2327.68-188095-167320-148115-123771-94496-53135
2333.47-14929 38140 99415 189243 271299 373148
2339.25 511551 662233 780324 823939 782747 817809
2345.04 956969 1055567 1058789 1004220 949851 943434
2350.82 985576 1013271 975570 881680 820316 817762
2356.61 825217 700438 384775 97365-18452-39233
2362.39-40736-50041-65489-87315-109324-138390
2368.18-157231-172598-177900-176894-167337-178258
2373.97-191662-171506-144076-141058-123522-102231
2379.75-87366-93458-95576-86074-84474-89081
2385.54-94608-109711-117363-130850-138157-132932
2391.32-127603-129682-133798-133895-127563-129110
2397.11-131680-122349-111615-125986-132002-137446
2402.89-140414-130126-139723-149314-145367-142695
2408.68-135240-139956-140380-135299-137351-132315
2414.46-134023-138893-132365-128100-117412-120737
2420.25-113513-112583-117964-106395-87786-86392
2426.04-88929-91725-102651-103243-82030-70067
2431.82-61272-52590-41797-48987-43649-27614
2437.61-11597-13098-4969-7112 13935 31809
2443.39 59339 63751 72859 98901 123611 144875
2449.18 164521 184883 220472 235597 262088 308884
2454.96 350820 378579 402293 421570 436910 448354
2460.75 468195 482454 491304 493554 494530 496298
2466.53 486804 478896 481798 473739 451910 402972
2472.32 349117 311115 268788 187135 93062 29201
2478.10 22480-18731-71165-104898-130283-150290
2483.89-168302-206792-226957-225799-230517-254229
2489.68-274723-291136-303038-324953-360685-393195
2495.46-411738-433649-470118-506356-513007-527085
2501.25-556213-592315-619502-634530-637949-679461
2507.03-708132-704312-702611-703182-706281-697200
2512.82-668257-628884-610407-597657-551888-486512
2518.60-414048-368981-325753-277324-231854-198980
2524.39-156764-112679-83611-53832-20163 2640
2530.17 31378 40286 42117 28023 13963 12636
2535.96 15999 18653 5915-13199-34379-47269
2541.74-54854-71948-104254-102007-83532-76245
2547.53-69646-76839-83692-77007-71066-81678
2553.32-88382-81712-76228-88338-89951-89759
2559.10-67832-65056-77473-74366-74265-84440
2564.89-100521-105701-97427-84062-70556-68607
2570.67-64877-76704-82058-75263-64558-74296
2576.46-82116-60659-66769-94158-91775-90975
2582.24-93772-101412-99247-95912-99557-112271
2588.03-120353-137434-132605-127551-118561-128164
2593.81-135336-136267-128656-124849-126432-127052
2599.60-128750-142896-145971-154496-155457-162876
2605.38-170185-173593-158834-159245-152767-149091
2611.17-158516-156806-160711-178977-177343-164617
2616.96-144103-153499-171366-178921-172694-171933
2622.74-162627-153092-160676-165309-168132-178449
2628.53-182718-172090-158665-171534-172984-158111
2634.31-153124-144826-132691-137037-151168-135844
2640.10-78019-62039-63329-62899-56613-34434
2645.88 14404 57546 96189 137327 176919 231016
2651.67 281360 332979 402428 476435 541060 584908
2657.45 646986 713308 782007 830908 856667 877611
2663.24 875695 851217 840327 810221 775832 741857
2669.02 676629 595971 529166 455577 396200 337596
2674.81 298715 262910 208924 143424 71431 4121
2680.60-37654-77258-108326-129092-164266-170608
2686.38-160791-175866-182385-180300-178627-178095
2692.17-165580-174034-187114-191553-178369-165745
2697.95-171746-178551-171056-171958-159725-138470
2703.74-120851-130914-138804-132982-128682-146278
2709.52-147111-142770-132928-132865-131606-132237
2715.31-115963-108334-123126-136024-135127-152259
2721.09-140583-135873-134596-126985-130507-139116
2726.88-137995-144641-147266-157923-144778-133557
2732.66-130984-124539-119953-129103-157108-158545
2738.45-137870-123449-126056-141947-148429-150416
2744.24-144560-133404-132974-132083-136795-139995
2750.02-148814-155566-151997-156203-159147-168531
2755.81-162043-154723-142415-153281-168698-154780
2761.59-149752-143220-149296-171175-164909-159561
2767.38-163980-185295-177610-157493-156013-165648
2773.16-160187-156136-171246-181595-175452-173941
2778.95-165447-164812-171088-175069-155939-136690
2784.73-151729-179435-168808-166245-179006-178444
2790.52-173818-161729-152181-164697-171850-165808
2796.30-169277-173277-173755-177112-175619-179638
2802.09-176425-183601-177169-160259-167427-175554
2807.88-169325-171276-177091-182421-169980-171362
2813.66-180368-171611-152848-154746-162441-159669
2819.45-159343-179905-162784-146272-138454-154201
2825.23-172242-178279-168656-147311-144504-180916
2831.02-179936-164390-176967-177911-165923-146399
2836.80-154472-169476-174389-187705-182234-177455
2842.59-171166-165413-165742-167433-153202-139491
2848.37-160138-174823-155435-149278-144327-146446
2854.16-148553-167077-156177-131676-134347-147440
2859.94-158178-155350-144214-158593-164047-181480
2865.73-188254-185178-180610-174824-159716-138237
2871.52-158166-170453-170619-169076-160285-168676
2877.30-155010-132257-139734-164294-184143-175740
2883.09-168694-170805-159341-170454-181678-175712
2888.87-168453-170989-163523-163996-178941-174650
2894.66-163886-172974-176738-181331-178425-179107
2900.44-164407-169130-183550-164485-157867-183152
2906.23-184400-171880-179852-177430-173601-194856
2912.01-188589-175650-163305-182278-196708-200531
2917.80-192570-189335-177651-176096-169925-160107
2923.58-171536-176744-175558-189100-178234-158257
2929.37-145797-172388-193371-200060-193878-182086
2935.16-169254-185012-188229-198659-177645-165250
2940.94-166703-159494-170828-192370-201410-214120
2946.73-182079-135036-166230-208077-196804-162957
2952.51-164218-186004-184767-158545-142317-141701
2958.30-177711-185536-156643-139148-145823-170233
2964.08-176690-188753-166604-169523-170489-159163
2969.87-167055-172699-177476-183654-176534-170865
2975.65-150099-133726-145565-167777-156421-141642
2981.44-153872-164584-162302-155623-145372-171842
2987.22-196972-188171-164749-147940-149334-160974
2993.01-158050-146577-161708-174651-163105-143987
2998.80-147505-166818-155897-148209-154531-150853
3004.58-145785-132738-142732-164299-159568-153278
3010.37-154647-146574-135275-141779-150227-162118
3016.15-168110-172984-164206-157226-156034-160406
3021.94-162840-166968-169619-176589-187719-192096
3027.72-174642-152068-151760-169033-183984-200881
3033.51-183248-166257-182737-177440-171347-169492
3039.29-196661-189214-166296-174950-170572-170751
3045.08-177552-170524-203262-201982-175075-154529
3050.86-148483-156335-156826-156855-167014-181180
3056.65-176274-180427-176221-167596-154545-147190
3062.44-150617-162304-171617-176019-168948-166117
3068.22-140424-125180-139003-138423-141853-152534
3074.01-157189-155304-142682-146075-155771-155695
3079.79-168679-177383-162184-154216-155188-176927
3085.58-183423-176913-148530-133565-145508-158251
3091.36-159211-161339-160643-143720-143349-160513
3097.15-151111-130835-142407-145986-142384-129109
3102.93-117790-132612-147029-151673-162224-161236
3108.72-152194-147293-142964-136591-121308-117144
3114.50-116346-133178-144607-136621-136604-138857
3120.29-137079-133601-128456-143520-131319-124719
3126.08-137102-142061-134595-124834-144871-145972
3131.86-133354-150443-147904-128568-136449-136134
3137.65-126039-128955-137338-164737-165966-153444
3143.43-133293-134883-131921-125959-136799-145230
3149.22-167793-157400-138470-158159-163709-139009
3155.00-134846-158119-168483-155298-123448-134680
3160.79-142923-147501-157574-161225-153097-159128
3166.57-187527-189803-159174-155440-152008-141507
3172.36-148634-157672-161054-150659-170060-202942
3178.14-198205-174700-166372-158476-138539-154667
3183.93-162190-168256-180897-191554-175713-163456
3189.72-153804-163030-174840-180611-191739-186505
3195.50-164357-165053-179853-183057-188271-166400
3201.29-136133-159838-195098-197649-202425-202235
3207.07-175299-160016-137364-133895-156027-169524
3212.86-177494-179132-170227-173490-155304-150316
3218.64-135229-126628-144252-163413-166324-156866
3224.43-153015-156088-175539-170878-147394-137528
3230.21-137459-158703-181322-177324-169852-160177
3236.00-174708-190894-168802-150758-140615-151825
3241.78-168258-176710-169537-179589-172125-146350
3247.57-144810-154159-157165-173186-167598-160021
3253.36-155029-163499-182443-182332-151772-143638
3259.14-153301-157427-160644-169265-162665-139981
3264.93-147740-155806-159458-176426-178089-169129
3270.71-159120-139603-135957-136489-132574-142621
3276.50-145974-157378-149462-143330-149324-170012
3282.28-187403-167583-158782-170679-149862-138961
3288.07-140223-143635-140643-145398-163941-172262
3293.85-165137-165055-173734-156891-149710-165999
3299.64-169043-151299-141018-151036-163983-177330
3305.42-178716-197198-198908-175209-149739-154320
3311.21-174403-183848-187630-199399-198192-194639
3317.00-174961-148452-156899-178839-183392-175473
3322.78-185762-197415-184329-182322-206427-224483
3328.57-206747-196739-209258-203633-182537-171625
3334.35-171872-172619-196515-238427-240035-226999
3340.14-195831-177233-162534-148894-164632-208348
3345.92-264160-276427-204288-107056-110734-204766
3351.71-258024-241980-221009-206708-220367-219375
3357.49-213835-191283-153882-159306-211580-248057
3363.28-251803-262658-243247-203307-171980-195522
3369.06-221158-207653-177262-174199-194731-194346
3374.85-178661-199197-229848-218989-199002-205631
3380.64-207521-207957-207415-201983-215115-224581
3386.42-224631-211998-189704-194634-197780-192327
3392.21-204596-213768-214019-198029-184459-209297
3397.99-233833-224315-202887-199330-221752-215673
3403.78-197655-196332-223964-233699-203013-192654
3409.56-210277-227778-213660-200718-192387-217665
3415.35-231701-214991-218950-214478-224806-232351
3421.13-179125-174713-214806-211760-202939-200221
3426.92-197623-221306-219042-212694-234264-238878
3432.70-202404-195678-186014-195019-211790-208191
3438.49-207327-211410-231190-243920-198928-210557
3444.28-235441-229175-223676-199712-176466-191613
3450.06-196464-185658-207531-217239-201044-180845
3455.85-202680-206737-207726-218644-209595-207392
3461.63-198069-194454-188685-206112-184131-158203
3467.42-166885-175575-206263-224314-214974-203845
3473.20-189340-192124-183564-198364-194628-201457
3478.99-205500-192212-194584-208750-192890-198047
3484.77-204539-212818-214189-180800-177194-184447
3490.56-189098-188837-166891-182844-203314-190611
3496.34-187781-200962-211117-204343-186091-198319
3502.13-203516-196193-174961-159289-174049-211701
3507.92-211008-193342-176906-181576-190059-187043
3513.70-194477-187984-168092-162758-178684-212047
3519.49-223126-210927-197154-185717-174433-179804
3525.27-191289-193569-194140-218092-221703-211102
3531.06-196874-191623-197498-186018-180476-213320
3536.84-217036-214724-218037-223769-218626-202855
3542.63-214533-242118-219876-187468-163988-165374
3548.41-191076-205072-206648-207935-207458-198534
3554.20-210005-228926-226459-209944-216949-238771
3559.98-216003-181874-173352-186632-183692-187026
3565.77-178603-186753-205376-206240-187921-183033
3571.56-202162-209485-195454-167647-181109-218644
3577.34-213621-200816-234475-238786-198290-176512
3583.13-164537-195424-235631-242868-219855-191360
3588.91-191475-206301-216826-223076-232163-247185
3594.70-222168-215878-207553-184431-189947-197712
3600.48-183041-197723-207923-226343-217112-214811
3606.27-220897-197022-199444-201203-186330-191200
3612.05-186412-197498-206717-198869-192460-189914
3617.84-177620-216657-226869-217047-212723-199540
3623.62-192840-187780-198594-218371-232154-222359
3629.41-201531-190633-206044-197641-178263-186109
3635.20-192624-193389-191137-217660-226301-242119
3640.98-242247-224817-199823-190666-210122-216823
3646.77-193398-183568-177760-213532-230764-196282
3652.55-189676-202488-196812-205034-170890-130104
3658.34-161110-210411-217382-215304-199128-184221
3664.12-177330-175086-186758-200088-210706-210823
3669.91-219150-199201-189059-181353-194088-203139
3675.69-171254-134336-146855-143264-146946-165935
3681.48-157046-142722-146933-155372-146336-150375
3687.26-158894-134938-157518-208382-173911-139689
3693.05-151090-137840-148663-172327-178827-190035
3698.84-189008-172857-165089-177748-192348-205090
3704.62-211770-223991-233351-241686-238257-218366
3710.41-249251-255558-229488-240937-238249-244892
3716.19-233298-247352-253294-244327-267605-284156
3721.98-268818-269241-287479-283475-258614-252789
3727.76-258443-261923-272475-292607-308203-306253
3733.55-299632-301363-294201-281992-263995-253259
3739.33-279525-301015-296899-330243-374851-371806
3745.12-313217-268749-244600-319529-350449-335734
3750.90-345992-314603-270760-273760-291648-308599
3756.69-305953-291126-295477-288177-278349-280088
3762.48-279613-270537-253162-247633-272054-289673
3768.26-279218-275324-285523-284477-265429-236724
3774.05-247059-246937-267127-275802-268776-260918
3779.83-257507-255792-244812-251765-261706-265772
3785.62-252640-234032-233001-249990-236817-236129
3791.40-243585-247374-232258-221696-232086-238669
3797.19-223007-210950-218103-270418-273957-237869
3802.97-218250-213210-223199-246848-244488-242456
3808.76-238666-223992-215179-183017-194741-202162
3814.54-214891-238336-240527-235321-219885-227991
3820.33-242320-239263-221364-219218-217097-201725
3826.12-192718-212236-196553-188048-211559-202176
3831.90-197482-225140-234721-223711-236003-273812
3837.69-256207-233637-244789-237967-236629-243482
3843.47-215174-197238-211162-221692-220883-208413
3849.26-218116-253706-250040-235680-272491-260277
3855.04-234814-238805-251255-261629-234719-189719
3860.83-197688-219919-221243-235594-240622-206116
3866.61-173663-198270-248519-264657-231858-202808
3872.40-188508-200809-204363-190396-198952-207766
3878.18-202899-234757-245307-221299-226341-241821
3883.97-257847-261861-245975-246917-218905-213541
3889.76-263364-267861-215775-216495-237363-239232
3895.54-230617-206586-201274-211715-216015-232473
3901.33-237441-245263-257459-232152-223032-200036
3907.11-187825-196159-200194-201480-208658-208761
3912.90-219639-240685-225903-222651-228805-233120
3918.68-217051-204096-215723-243554-260497-252621
3924.47-206635-197232-224493-229008-210256-217234
3930.25-244054-246218-224863-200513-231029-248677
3936.04-257910-268350-254236-217043-204182-231883
3941.82-247346-237825-232717-224838-228997-229940
3947.61-217023-228215-222445-224746-243390-225711
3953.40-230458-227449-250782-272053-254204-208860
3959.18-219850-251319-233971-229472-243898-241766
3964.97-229355-220951-225773-238172-245272-235786
3970.75-237081-226858-229985-260718
##END=
