##TITLE=1,1,2-TRICHLORO-1,2,2-TRIFLUORO ETHANE
##JCAMP-DX=4.24
##DATA TYPE=INFRARED SPECTRUM
##CLASS=COBLENTZ
##ORIGIN=DOW CHEMICAL COMPANY
##OWNER=COBLENTZ SOCIETY
Collection (C) 2018 copyright by the U.S. Secretary of Commerce
on behalf of the United States of America. All rights reserved.
##DATE=Not specified, most likely prior to 1970
##NAMES=1,1,2-trichloro-1,2,2-trifluoroethane
##CAS REGISTRY NO=76-13-1
##MOLFORM=C2 Cl3 F3
##BP=47.6 C
##SOURCE REFERENCE=COBLENTZ NO. 1925
##$NIST SOURCE=COBLENTZ
##$NIST IMAGE=cob1925
##SPECTROMETER/DATA SYSTEM=Not specified, most likely a prism, grating, or hybrid spectrometer.
##STATE=SOLUTION (10% CCl4 FOR 5000-1330, 10% CS2 FOR 1330-625 CM^-^1)
##PATH LENGTH=0.0113 CM, 0.0109 CM
$$SPECTRAL CONTAMINATION DUE TO CCl4 AROUND 1550 CM^-^1
##SAMPLING PROCEDURE=TRANSMISSION
##RESOLUTION=4
##DATA PROCESSING=DIGITIZED BY NIST FROM HARD COPY
##XUNITS=MICROMETERS
##YUNITS=TRANSMITTANCE
##XFACTOR=1.000000
##YFACTOR=1
##DELTAX=000.006829
##FIRSTX=2.034
##LASTX=15.9185
##FIRSTY=0.839
##MAXX=15.9185
##MINX=2.034
##MAXY=0.88
##MINY=0
##NPOINTS=2034
##XYDATA=(X++(Y..Y))
2.034000 0.8390 0.8390 0.8390 0.8400 0.8400
2.068163 0.8390 0.8390 0.8390 0.8390 0.8390
2.102000 0.8390 0.8390 0.8390 0.8390 0.8390
2.136163 0.8390 0.8390 0.8400 0.8400 0.8400
2.171000 0.8400 0.8400 0.8420 0.8420 0.8440
2.205163 0.8440 0.8440 0.8440 0.8440 0.8440
2.239000 0.8440 0.8420 0.8420 0.8420 0.8420
2.273163 0.8420 0.8420 0.8420 0.8420 0.8420
2.307000 0.8420 0.8420 0.8420 0.8420 0.8420
2.341163 0.8420 0.8440 0.8440 0.8440 0.8440
2.376000 0.8440 0.8440 0.8450 0.8450 0.8470
2.410163 0.8490 0.8490 0.8490 0.8510 0.8510
2.444000 0.8520 0.8540 0.8560 0.8570 0.8570
2.478163 0.8590 0.8590 0.8610 0.8610 0.8610
2.512000 0.8610 0.8610 0.8610 0.8610 0.8610
2.546163 0.8610 0.8610 0.8610 0.8610 0.8610
2.580000 0.8630 0.8610 0.8610 0.8610 0.8610
2.614163 0.8610 0.8610 0.8610 0.8630 0.8630
2.649000 0.8630 0.8630 0.8630 0.8610 0.8590
2.683163 0.8590 0.8590 0.8590 0.8590 0.8590
2.717000 0.8590 0.8590 0.8590 0.8590 0.8570
2.751163 0.8570 0.8520 0.8490 0.8490 0.8450
2.785000 0.8450 0.8420 0.8420 0.8420 0.8420
2.819163 0.8420 0.8420 0.8400 0.8400 0.8400
2.854000 0.8390 0.8390 0.8390 0.8390 0.8390
2.888163 0.8370 0.8370 0.8350 0.8350 0.8330
2.922000 0.8330 0.8330 0.8330 0.8320 0.8320
2.956163 0.8320 0.8320 0.8330 0.8330 0.8330
2.990000 0.8330 0.8350 0.8330 0.8330 0.8320
3.024163 0.8300 0.8280 0.8280 0.8280 0.8280
3.059000 0.8280 0.8280 0.8280 0.8280 0.8280
3.093163 0.8300 0.8300 0.8300 0.8320 0.8320
3.127000 0.8330 0.8330 0.8390 0.8390 0.8390
3.161163 0.8390 0.8390 0.8390 0.8370 0.8370
3.195000 0.8370 0.8370 0.8370 0.8370 0.8370
3.229163 0.8390 0.8390 0.8400 0.8400 0.8400
3.263000 0.8390 0.8390 0.8370 0.8370 0.8350
3.297163 0.8350 0.8370 0.8390 0.8400 0.8400
3.332000 0.8400 0.8400 0.8400 0.8400 0.8400
3.366163 0.8400 0.8400 0.8420 0.8420 0.8420
3.400000 0.8450 0.8450 0.8470 0.8490 0.8490
3.434163 0.8490 0.8490 0.8490 0.8470 0.8470
3.468000 0.8470 0.8470 0.8470 0.8490 0.8490
3.502163 0.8490 0.8490 0.8490 0.8440 0.8440
3.537000 0.8420 0.8420 0.8420 0.8420 0.8440
3.571163 0.8440 0.8440 0.8440 0.8440 0.8450
3.605000 0.8450 0.8450 0.8450 0.8470 0.8470
3.639163 0.8510 0.8510 0.8520 0.8510 0.8520
3.673000 0.8540 0.8540 0.8540 0.8540 0.8540
3.707163 0.8540 0.8560 0.8560 0.8570 0.8570
3.741000 0.8590 0.8590 0.8590 0.8590 0.8590
3.775163 0.8590 0.8610 0.8590 0.8590 0.8590
3.810000 0.8590 0.8590 0.8590 0.8590 0.8590
3.844163 0.8590 0.8590 0.8590 0.8610 0.8610
3.878000 0.8610 0.8610 0.8610 0.8610 0.8610
3.912163 0.8590 0.8590 0.8590 0.8590 0.8610
3.946000 0.8610 0.8610 0.8610 0.8590 0.8570
3.980163 0.8570 0.8590 0.8610 0.8610 0.8610
4.015000 0.8610 0.8610 0.8590 0.8570 0.8570
4.049163 0.8570 0.8570 0.8570 0.8570 0.8570
4.083000 0.8570 0.8570 0.8570 0.8570 0.8570
4.117163 0.8570 0.8570 0.8560 0.8540 0.8520
4.151000 0.8510 0.8490 0.8490 0.8470 0.8470
4.185163 0.8470 0.8470 0.8470 0.8470 0.8440
4.220000 0.8400 0.8400 0.8390 0.8370 0.8320
4.254163 0.8320 0.8300 0.8300 0.8280 0.8250
4.288000 0.8250 0.8230 0.8230 0.8250 0.8250
4.322163 0.8280 0.8300 0.8320 0.8330 0.8390
4.356000 0.8390 0.8390 0.8400 0.8420 0.8440
4.390163 0.8440 0.8440 0.8440 0.8440 0.8440
4.424000 0.8440 0.8440 0.8450 0.8450 0.8470
4.458163 0.8470 0.8490 0.8490 0.8510 0.8510
4.493000 0.8490 0.8490 0.8450 0.8400 0.8390
4.527163 0.8390 0.8390 0.8400 0.8450 0.8490
4.561000 0.8510 0.8520 0.8540 0.8560 0.8570
4.595163 0.8590 0.8590 0.8610 0.8590 0.8570
4.629000 0.8560 0.8560 0.8560 0.8560 0.8560
4.663163 0.8570 0.8610 0.8610 0.8610 0.8630
4.698000 0.8610 0.8610 0.8610 0.8610 0.8610
4.732163 0.8610 0.8610 0.8610 0.8610 0.8610
4.766000 0.8610 0.8610 0.8610 0.8640 0.8680
4.800163 0.8690 0.8690 0.8690 0.8690 0.8690
4.834000 0.8690 0.8690 0.8690 0.8690 0.8690
4.868163 0.8690 0.8690 0.8690 0.8690 0.8690
4.902000 0.8690 0.8710 0.8710 0.8710 0.8710
4.936163 0.8690 0.8690 0.8690 0.8680 0.8660
4.971000 0.8640 0.8640 0.8640 0.8640 0.8640
5.005163 0.8640 0.8640 0.8640 0.8660 0.8710
5.039000 0.8710 0.8730 0.8730 0.8730 0.8750
5.073163 0.8780 0.8780 0.8780 0.8780 0.8780
5.107000 0.8780 0.8780 0.8780 0.8780 0.8780
5.141163 0.8780 0.8780 0.8780 0.8780 0.8780
5.176000 0.8780 0.8780 0.8780 0.8710 0.8710
5.210163 0.8710 0.8710 0.8710 0.8710 0.8730
5.244000 0.8750 0.8760 0.8780 0.8780 0.8760
5.278163 0.8760 0.8750 0.8750 0.8730 0.8730
5.312000 0.8730 0.8730 0.8730 0.8730 0.8710
5.346163 0.8710 0.8690 0.8680 0.8640 0.8640
5.380000 0.8640 0.8610 0.8610 0.8610 0.8610
5.414163 0.8610 0.8610 0.8610 0.8610 0.8610
5.449000 0.8610 0.8610 0.8610 0.8610 0.8610
5.483163 0.8610 0.8640 0.8640 0.8660 0.8680
5.517000 0.8690 0.8710 0.8710 0.8730 0.8730
5.551163 0.8730 0.8710 0.8730 0.8730 0.8730
5.585000 0.8730 0.8750 0.8730 0.8730 0.8730
5.619163 0.8730 0.8730 0.8730 0.8730 0.8730
5.654000 0.8730 0.8730 0.8730 0.8710 0.8750
5.688163 0.8750 0.8780 0.8780 0.8780 0.8780
5.722000 0.8780 0.8780 0.8750 0.8730 0.8730
5.756163 0.8710 0.8710 0.8710 0.8690 0.8690
5.790000 0.8690 0.8710 0.8710 0.8710 0.8690
5.824163 0.8690 0.8680 0.8680 0.8680 0.8680
5.859000 0.8680 0.8680 0.8660 0.8660 0.8660
5.893163 0.8640 0.8640 0.8640 0.8630 0.8630
5.927000 0.8630 0.8630 0.8630 0.8630 0.8630
5.961163 0.8630 0.8630 0.8630 0.8630 0.8630
5.995000 0.8630 0.8630 0.8590 0.8590 0.8590
6.029163 0.8590 0.8590 0.8590 0.8570 0.8560
6.063000 0.8540 0.8520 0.8510 0.8490 0.8470
6.097163 0.8470 0.8450 0.8440 0.8400 0.8400
6.132000 0.8390 0.8390 0.8390 0.8320 0.8300
6.166163 0.8250 0.8200 0.8180 0.8110 0.7990
6.200000 0.7910 0.7790 0.7680 0.7560 0.7460
6.234163 0.7360 0.7200 0.7070 0.6960 0.6840
6.268000 0.6710 0.6600 0.6500 0.6420 0.6400
6.302163 0.6330 0.6300 0.6280 0.6280 0.6210
6.337000 0.6140 0.6060 0.5990 0.5820 0.5800
6.371163 0.5750 0.5700 0.5610 0.5560 0.5420
6.405000 0.5220 0.5100 0.5010 0.4960 0.4820
6.439163 0.4810 0.4810 0.4810 0.4810 0.4820
6.473000 0.4940 0.5060 0.5230 0.5410 0.5610
6.507163 0.5820 0.5950 0.6020 0.6110 0.6190
6.541000 0.6210 0.6300 0.6420 0.6500 0.6550
6.575163 0.6640 0.6720 0.6810 0.6900 0.7020
6.610000 0.7100 0.7190 0.7320 0.7410 0.7550
6.644163 0.7650 0.7720 0.7770 0.7820 0.7870
6.678000 0.7940 0.8010 0.8080 0.8130 0.8200
6.712163 0.8270 0.8320 0.8370 0.8370 0.8370
6.746000 0.8370 0.8390 0.8390 0.8420 0.8470
6.780163 0.8470 0.8560 0.8590 0.8610 0.8610
6.815000 0.8610 0.8610 0.8590 0.8570 0.8570
6.849163 0.8570 0.8590 0.8630 0.8660 0.8680
6.883000 0.8690 0.8690 0.8710 0.8710 0.8710
6.917163 0.8710 0.8710 0.8710 0.8690 0.8690
6.951000 0.8690 0.8680 0.8680 0.8680 0.8680
6.985163 0.8680 0.8680 0.8680 0.8660 0.8660
7.020000 0.8610 0.8570 0.8570 0.8560 0.8540
7.054163 0.8540 0.8540 0.8540 0.8540 0.8540
7.088000 0.8540 0.8560 0.8560 0.8570 0.8590
7.122163 0.8590 0.8610 0.8610 0.8610 0.8590
7.156000 0.8590 0.8590 0.8590 0.8590 0.8590
7.190163 0.8590 0.8590 0.8570 0.8560 0.8560
7.224000 0.8560 0.8510 0.8490 0.8470 0.8450
7.258163 0.8450 0.8440 0.8440 0.8440 0.8440
7.293000 0.8440 0.8440 0.8450 0.8450 0.8470
7.327163 0.8470 0.8470 0.8510 0.8510 0.8520
7.361000 0.8540 0.8540 0.8560 0.8560 0.8560
7.395163 0.8560 0.8540 0.8520 0.8510 0.8490
7.429000 0.8470 0.8450 0.8450 0.8440 0.8440
7.463163 0.8440 0.8440 0.8450 0.8510 0.8540
7.498000 0.8570 0.8590 0.8610 0.8610 0.8640
7.532163 0.8660 0.8660 0.8680 0.8690 0.8710
7.566000 0.8710 0.8710 0.8730 0.8730 0.8750
7.600163 0.8750 0.8750 0.8750 0.8750 0.8730
7.634000 0.8730 0.8710 0.8710 0.8690 0.8690
7.668163 0.8690 0.8710 0.8710 0.8730 0.8730
7.702000 0.8750 0.8760 0.8780 0.8800 0.8800
7.736163 0.8780 0.8780 0.8780 0.8780 0.8760
7.771000 0.8750 0.8750 0.8750 0.8750 0.8730
7.805163 0.8710 0.8690 0.8690 0.8680 0.8680
7.839000 0.8680 0.8680 0.8680 0.8680 0.8680
7.873163 0.8660 0.8660 0.8610 0.8590 0.8570
7.907000 0.8560 0.8540 0.8540 0.8520 0.8510
7.941163 0.8490 0.8470 0.8470 0.8440 0.8440
7.976000 0.8400 0.8390 0.8350 0.8320 0.8280
8.010163 0.8270 0.8270 0.8230 0.8210 0.8200
8.044000 0.8200 0.8200 0.8200 0.8270 0.8270
8.078163 0.8270 0.8270 0.8270 0.8270 0.8200
8.112000 0.8130 0.8090 0.8030 0.7960 0.7820
8.146163 0.7720 0.7550 0.7380 0.7070 0.6830
8.180000 0.6670 0.6400 0.5800 0.5230 0.4620
8.214163 0.4280 0.3440 0.3040 0.2530 0.1930
8.249000 0.1660 0.1400 0.1140 0.0950 0.0920
8.283163 0.0900 0.0900 0.1140 0.1480 0.1860
8.317000 0.2240 0.2560 0.2920 0.3250 0.3570
8.351163 0.3880 0.4040 0.4210 0.4290 0.4330
8.385000 0.4280 0.4220 0.4100 0.3930 0.3780
8.419163 0.3630 0.3490 0.3370 0.3250 0.3110
8.454000 0.2970 0.2820 0.2650 0.2480 0.2260
8.488163 0.2020 0.1710 0.1400 0.1130 0.0920
8.522000 0.0650 0.0530 0.0440 0.0340 0.0290
8.556163 0.0290 0.0290 0.0300 0.0320 0.0350
8.590000 0.0370 0.0410 0.0530 0.0660 0.0780
8.624163 0.0830 0.0950 0.1180 0.1380 0.1720
8.659000 0.1900 0.2320 0.2630 0.3090 0.3540
8.693163 0.3980 0.4450 0.4890 0.5270 0.5560
8.727000 0.5680 0.5920 0.6020 0.6110 0.6180
8.761163 0.6210 0.6260 0.6280 0.6300 0.6330
8.795000 0.6360 0.6420 0.6450 0.6480 0.6500
8.829163 0.6570 0.6570 0.6600 0.6600 0.6620
8.863000 0.6620 0.6600 0.6570 0.6520 0.6420
8.897163 0.6300 0.6140 0.6010 0.5870 0.5680
8.932000 0.5410 0.5180 0.4840 0.4480 0.4170
8.966163 0.3750 0.3540 0.3010 0.2610 0.2240
9.000000 0.1600 0.1360 0.1020 0.0680 0.0490
9.034163 0.0370 0.0300 0.0270 0.0220 0.0220
9.068000 0.0220 0.0220 0.0250 0.0300 0.0440
9.102163 0.0540 0.0770 0.0940 0.1180 0.1480
9.137000 0.1550 0.1900 0.2070 0.2290 0.2500
9.171163 0.2680 0.2890 0.3210 0.3590 0.3920
9.205000 0.4190 0.4460 0.4700 0.4930 0.5170
9.239163 0.5420 0.5680 0.5780 0.6020 0.6230
9.273000 0.6430 0.6520 0.6640 0.6740 0.6790
9.307163 0.6860 0.6950 0.6980 0.6980 0.6980
9.341000 0.7000 0.7020 0.7020 0.7020 0.7020
9.375163 0.7000 0.7000 0.6980 0.6960 0.6900
9.410000 0.6840 0.6830 0.6790 0.6780 0.6710
9.444163 0.6690 0.6670 0.6600 0.6540 0.6450
9.478000 0.6330 0.6190 0.6010 0.5780 0.5510
9.512163 0.5150 0.4880 0.4530 0.4280 0.3730
9.546000 0.3300 0.2840 0.2390 0.1980 0.1670
9.580163 0.1470 0.1300 0.1130 0.0940 0.0680
9.615000 0.0540 0.0530 0.0540 0.0590 0.0680
9.649163 0.0770 0.0800 0.0820 0.0820 0.0820
9.683000 0.0780 0.0730 0.0650 0.0580 0.0540
9.717163 0.0530 0.0560 0.0770 0.0850 0.1360
9.751000 0.1810 0.2200 0.2580 0.2970 0.3420
9.785163 0.3920 0.4450 0.4860 0.5110 0.5320
9.820000 0.5540 0.5780 0.5990 0.6180 0.6300
9.854163 0.6430 0.6540 0.6640 0.6690 0.6790
9.888000 0.6880 0.6950 0.7020 0.7080 0.7170
9.922163 0.7240 0.7320 0.7390 0.7440 0.7500
9.956000 0.7580 0.7650 0.7700 0.7790 0.7840
9.990163 0.7910 0.7970 0.8010 0.8060 0.8090
10.024000 0.8110 0.8180 0.8210 0.8270 0.8280
10.058163 0.8280 0.8300 0.8300 0.8300 0.8300
10.093000 0.8300 0.8300 0.8300 0.8300 0.8300
10.127163 0.8300 0.8300 0.8300 0.8300 0.8300
10.161000 0.8300 0.8300 0.8300 0.8300 0.8300
10.195163 0.8280 0.8270 0.8270 0.8250 0.8210
10.229000 0.8200 0.8200 0.8180 0.8180 0.8160
10.263163 0.8110 0.8090 0.8080 0.8060 0.8030
10.298000 0.8010 0.8010 0.7990 0.7990 0.7970
10.332163 0.7960 0.7960 0.7960 0.7960 0.7970
10.366000 0.7970 0.7990 0.8030 0.8060 0.8080
10.400163 0.8110 0.8180 0.8200 0.8210 0.8230
10.434000 0.8250 0.8250 0.8270 0.8270 0.8270
10.468163 0.8280 0.8280 0.8280 0.8280 0.8280
10.502000 0.8280 0.8280 0.8280 0.8280 0.8280
10.536163 0.8270 0.8250 0.8250 0.8230 0.8210
10.571000 0.8200 0.8180 0.8160 0.8150 0.8110
10.605163 0.8090 0.8060 0.8060 0.8030 0.8010
10.639000 0.7970 0.7940 0.7920 0.7910 0.7870
10.673163 0.7820 0.7770 0.7720 0.7650 0.7560
10.707000 0.7480 0.7380 0.7260 0.7140 0.7000
10.741163 0.6860 0.6690 0.6500 0.6310 0.6060
10.776000 0.5800 0.5560 0.5350 0.5080 0.4740
10.810163 0.4530 0.4310 0.4240 0.4070 0.4040
10.844000 0.4040 0.4020 0.4000 0.4000 0.4000
10.878163 0.4020 0.4040 0.4070 0.4090 0.4100
10.912000 0.4100 0.4100 0.4090 0.4050 0.3950
10.946163 0.3850 0.3730 0.3520 0.3390 0.3300
10.980000 0.3210 0.3090 0.2890 0.2550 0.2020
11.014163 0.1860 0.1690 0.1520 0.1350 0.1160
11.049000 0.0990 0.0800 0.0630 0.0540 0.0460
11.083163 0.0370 0.0320 0.0290 0.0230 0.0200
11.117000 0.0180 0.0130 0.0110 0.0110 0.0110
11.151163 0.0100 0.0100 0.0100 0.0100 0.0100
11.185000 0.0100 0.0170 0.0220 0.0300 0.0410
11.219163 0.0510 0.0650 0.0780 0.0940 0.1060
11.254000 0.1190 0.1300 0.1400 0.1450 0.1500
11.288163 0.1520 0.1550 0.1550 0.1550 0.1550
11.322000 0.1540 0.1500 0.1500 0.1500 0.1500
11.356163 0.1540 0.1600 0.1720 0.1810 0.1930
11.390000 0.2080 0.2200 0.2320 0.2410 0.2460
11.424163 0.2500 0.2550 0.2560 0.2580 0.2580
11.459000 0.2580 0.2560 0.2550 0.2500 0.2500
11.493163 0.2500 0.2500 0.2580 0.2730 0.2850
11.527000 0.3010 0.3180 0.3200 0.3590 0.3750
11.561163 0.3880 0.4090 0.4220 0.4340 0.4430
11.595000 0.4570 0.4760 0.4890 0.4980 0.5050
11.629163 0.5100 0.5170 0.5250 0.5300 0.5370
11.663000 0.5390 0.5440 0.5470 0.5490 0.5510
11.697163 0.5510 0.5540 0.5540 0.5540 0.5540
11.732000 0.5540 0.5540 0.5560 0.5560 0.5580
11.766163 0.5630 0.5630 0.5650 0.5680 0.5730
11.800000 0.5780 0.5830 0.5850 0.5900 0.5990
11.834163 0.6040 0.6140 0.6180 0.6230 0.6300
11.868000 0.6380 0.6400 0.6470 0.6470 0.6480
11.902163 0.6480 0.6480 0.6480 0.6480 0.6480
11.937000 0.6480 0.6480 0.6480 0.6470 0.6400
11.971163 0.6360 0.6330 0.6310 0.6280 0.6260
12.005000 0.6210 0.6210 0.6190 0.6190 0.6190
12.039163 0.6180 0.6180 0.6180 0.6160 0.6160
12.073000 0.6130 0.6110 0.6070 0.6070 0.6020
12.107163 0.5990 0.5920 0.5850 0.5730 0.5630
12.141000 0.5490 0.5350 0.5200 0.5060 0.4910
12.175163 0.4770 0.4640 0.4400 0.4190 0.4020
12.210000 0.3880 0.3730 0.3590 0.3420 0.3230
12.244163 0.2990 0.2890 0.2630 0.2480 0.2270
12.278000 0.2080 0.1880 0.1710 0.1520 0.1350
12.312163 0.1160 0.0970 0.0780 0.0630 0.0460
12.346000 0.0340 0.0270 0.0200 0.0150 0.0060
12.380163 0.0050 0.0050 0.0030 0.0030 0.0010
12.415000 0.0010 0.0010 0.0000 0.0000 0.0000
12.449163 0.0000 0.0000 0.0000 0.0000 0.0000
12.483000 0.0000 0.0050 0.0080 0.0110 0.0150
12.517163 0.0300 0.0470 0.0650 0.0780 0.0970
12.551000 0.1070 0.1640 0.1900 0.2200 0.2310
12.585163 0.2530 0.2840 0.3200 0.3540 0.3830
12.620000 0.4020 0.4050 0.4190 0.4340 0.4450
12.654163 0.4480 0.4500 0.4570 0.4570 0.4580
12.688000 0.4600 0.4620 0.4640 0.4670 0.4690
12.722163 0.4700 0.4740 0.4790 0.4840 0.4890
12.756000 0.5000 0.5150 0.5270 0.5370 0.5470
12.790163 0.5580 0.5660 0.5770 0.5870 0.5970
12.824000 0.6060 0.6160 0.6250 0.6330 0.6420
12.858163 0.6500 0.6590 0.6670 0.6710 0.6780
12.893000 0.6840 0.6900 0.6930 0.7000 0.7070
12.927163 0.7100 0.7140 0.7200 0.7240 0.7290
12.961000 0.7310 0.7340 0.7380 0.7390 0.7410
12.995163 0.7440 0.7480 0.7500 0.7530 0.7530
13.029000 0.7580 0.7600 0.7600 0.7610 0.7650
13.063163 0.7650 0.7670 0.7670 0.7670 0.7680
13.098000 0.7680 0.7680 0.7700 0.7700 0.7730
13.132163 0.7730 0.7730 0.7730 0.7750 0.7750
13.166000 0.7750 0.7750 0.7750 0.7750 0.7750
13.200163 0.7750 0.7730 0.7730 0.7720 0.7720
13.234000 0.7680 0.7670 0.7650 0.7630 0.7610
13.268163 0.7580 0.7560 0.7560 0.7530 0.7510
13.302000 0.7500 0.7500 0.7480 0.7480 0.7480
13.336163 0.7480 0.7460 0.7460 0.7460 0.7460
13.371000 0.7480 0.7480 0.7500 0.7510 0.7530
13.405163 0.7550 0.7550 0.7560 0.7560 0.7560
13.439000 0.7560 0.7580 0.7580 0.7580 0.7580
13.473163 0.7580 0.7580 0.7580 0.7580 0.7580
13.507000 0.7580 0.7580 0.7580 0.7580 0.7580
13.541163 0.7580 0.7580 0.7580 0.7580 0.7580
13.576000 0.7580 0.7580 0.7580 0.7580 0.7580
13.610163 0.7580 0.7580 0.7580 0.7580 0.7580
13.644000 0.7580 0.7580 0.7580 0.7560 0.7560
13.678163 0.7550 0.7530 0.7530 0.7530 0.7510
13.712000 0.7510 0.7500 0.7500 0.7480 0.7480
13.746163 0.7480 0.7460 0.7460 0.7460 0.7440
13.780000 0.7440 0.7440 0.7430 0.7430 0.7430
13.814163 0.7410 0.7410 0.7410 0.7390 0.7390
13.849000 0.7390 0.7380 0.7380 0.7380 0.7360
13.883163 0.7360 0.7340 0.7340 0.7320 0.7320
13.917000 0.7310 0.7310 0.7310 0.7290 0.7290
13.951163 0.7270 0.7270 0.7260 0.7260 0.7240
13.985000 0.7220 0.7220 0.7200 0.7200 0.7190
14.019163 0.7190 0.7170 0.7150 0.7140 0.7120
14.054000 0.7100 0.7080 0.7080 0.7080 0.7070
14.088163 0.7070 0.7050 0.7050 0.7030 0.7030
14.122000 0.7020 0.7020 0.7000 0.7000 0.6960
14.156163 0.6960 0.6950 0.6950 0.6930 0.6930
14.190000 0.6910 0.6910 0.6900 0.6900 0.6900
14.224163 0.6880 0.6860 0.6840 0.6830 0.6830
14.259000 0.6830 0.6810 0.6810 0.6790 0.6790
14.293163 0.6780 0.6780 0.6760 0.6760 0.6740
14.327000 0.6720 0.6710 0.6710 0.6690 0.6670
14.361163 0.6660 0.6660 0.6640 0.6640 0.6620
14.395000 0.6620 0.6600 0.6600 0.6590 0.6570
14.429163 0.6570 0.6550 0.6550 0.6540 0.6520
14.463000 0.6520 0.6500 0.6500 0.6480 0.6470
14.497163 0.6470 0.6430 0.6430 0.6430 0.6420
14.532000 0.6400 0.6400 0.6380 0.6380 0.6360
14.566163 0.6350 0.6330 0.6300 0.6280 0.6280
14.600000 0.6280 0.6260 0.6250 0.6230 0.6210
14.634163 0.6190 0.6190 0.6180 0.6130 0.6130
14.668000 0.6110 0.6110 0.6090 0.6070 0.6070
14.702163 0.6060 0.6040 0.6020 0.6020 0.6010
14.737000 0.5990 0.5970 0.5950 0.5940 0.5920
14.771163 0.5900 0.5890 0.5870 0.5830 0.5820
14.805000 0.5800 0.5800 0.5780 0.5750 0.5730
14.839163 0.5730 0.5710 0.5710 0.5700 0.5700
14.873000 0.5680 0.5680 0.5660 0.5650 0.5630
14.907163 0.5610 0.5590 0.5580 0.5560 0.5540
14.941000 0.5530 0.5510 0.5490 0.5490 0.5470
14.975163 0.5460 0.5440 0.5420 0.5410 0.5390
15.010000 0.5370 0.5320 0.5320 0.5300 0.5250
15.044163 0.5230 0.5200 0.5200 0.5150 0.5130
15.078000 0.5110 0.5060 0.5050 0.5030 0.5010
15.112163 0.5000 0.4980 0.4910 0.4890 0.4860
15.146000 0.4840 0.4810 0.4770 0.4760 0.4740
15.180163 0.4720 0.4700 0.4690 0.4640 0.4580
15.215000 0.4570 0.4530 0.4520 0.4460 0.4430
15.249163 0.4400 0.4360 0.4310 0.4260 0.4220
15.283000 0.4170 0.4140 0.4100 0.3970 0.3970
15.317163 0.3880 0.3830 0.3760 0.3760 0.3690
15.351000 0.3630 0.3610 0.3560 0.3540 0.3520
15.385163 0.3520 0.3510 0.3490 0.3490 0.3470
15.420000 0.3470 0.3470 0.3470 0.3470 0.3490
15.454163 0.3490 0.3510 0.3520 0.3560 0.3570
15.488000 0.3610 0.3630 0.3660 0.3690 0.3730
15.522163 0.3750 0.3760 0.3780 0.3800 0.3810
15.556000 0.3850 0.3850 0.3860 0.3860 0.3880
15.590163 0.3880 0.3880 0.3900 0.3900 0.3900
15.624000 0.3900 0.3900 0.3900 0.3900 0.3900
15.658163 0.3900 0.3900 0.3900 0.3900 0.3900
15.693000 0.3900 0.3900 0.3900 0.3900 0.3900
15.727163 0.3900 0.3900 0.3900 0.3900 0.3900
15.761000 0.3900 0.3900 0.3900 0.3920 0.3920
15.795163 0.3920 0.3920 0.3920 0.3900 0.3900
15.829000 0.3880 0.3880 0.3860 0.3860 0.3850
15.863163 0.3850 0.3830 0.3830 0.3830 0.3830
15.898000 0.3830 0.3830 0.3830 0.3830
##END=
