##TITLE=Hexafluoroethane
##JCAMP-DX=4.24
##DATA TYPE=INFRARED SPECTRUM
##CLASS=IUPAC A
##ORIGIN=NIST, Analytical Chemistry Division, 301-975-3108
##OWNER=COPYRIGHT (C) 2000 by the U.S. Secretary of Commerce
##DATE=00/02/01
##$SPECTRA VERSION=1.10
##$UNCERTAINTY IN Y=2.0 % relative (B=1.0E-04,C=8.6E-09,D=5.8E-12)
##CAS NAME=Hexafluoroethane
##CAS REGISTRY NO=76-16-4
##MOLFORM=C2 F6
##MP=-94 C
##BP=-79 C
##$NIST SOURCE=QUANT-IR
##SPECTROMETER/DATA SYSTEM=IFS66V (Bruker)
##INSTRUMENT PARAMETERS=KBr Beam Splitter; MCT Detector; Multipass cell
##STATE=gas
##SAMPLE DESCRIPTION=Hexafluoroethane Primary Gas Standard
##PRESSURE=101.3 Pa
##TEMPERATURE=23 C
##SAMPLING PROCEDURE=1 L/min Flow
##RESOLUTION=0.9640
##DATA PROCESSING=Boxcar Apodization
##XUNITS=cm-1
##YUNITS=(micromol/mol)-1m-1 (base 10)
##XFACTOR=1.0
##YFACTOR=14.551E-12
##DELTAX=0.4820
##FIRSTX=575.171
##LASTX=3974.609
##FIRSTY=2.64E-06
##MAXX=3974.12
##MINX=575.17
##MAXY=.013026
##MINY=-.0000138
##NPOINTS=7052
##XYDATA=(X++(Y..Y))
575.17 181550 214960 132111-220489 313638-428266
577.58 76223 290924 384237 107116-448416 459710
580.47-11220 77058-173450 231581-191075-160504
583.37-201422-235903 131919 308796-66558-155350
586.26 17107 613260 78809 236045-543804 328984
589.15 8086 358648 27084 221174-356907-949567
592.05 227390-482571 61391 152436-353519 377099
594.94-72879 55561 81387-415338-252830 389695
597.83-190287 192049-134023 618058-105708 371567
600.72-33235 56223-180250-24289 140119-110206
603.62 131568-92338-9648 192459 71688 40219
606.51 11396 196277-226165-87557-19048 110139
609.40-91916 14311 160047 111468 104916 157219
612.29 210647-178481 17011-201540-12681-91263
615.19-66579-153215-138921 3143-114884 59085
618.08-314342 51839 195364 8606 30051 4934
620.97-134606-66192 83208 63300-190471 172122
623.87-25819-73071 10684 55169-126958 199206
626.76-66663 50992-93496-20715-127098-33147
629.65-25858 59250-1946-150519-260680 59743
632.54-162752 58085 11172 27392 32388-168168
635.44-259863-86886 93687 122020-277575-102480
638.33-43050 105063 85099-62579-1002-173123
641.22-80067-19456-63208 99674 187359-35704
644.11-143970-50964-119928 59836-45581-105463
647.01-54695 106658-128989 12933-51227-96455
649.90-21453 39079-185219 78448-91786-163619
652.79-148680 53130-39432 36699-195188 3150
655.69-10550-74515-178285 24335 23960 96048
658.58-316089-45850 35204 1192-135782 92306
661.47-295067-79436-196040-45816-61931 26943
664.36-105470 2105-14942 39821-87556-143811
667.26-850503-213894-283251-42437-31980 203148
670.15-110763 200411-197006 107829-280691-62293
673.04-179975 26287-359420-72136-104368 3457
675.93-175104 112558-246322 219084-302849-35159
678.83-208403 20661-100774 43107-283958 81853
681.72-182675-18059-116077 109336-155463 77559
684.61-318276 257982-116359 65375-110803 113743
687.51-230348 181521-279636 66521-194029 190214
690.40-67114 235135-107178 346861-30648 461078
693.29 175475 454892 219957 623589 487058 955360
696.18 652449 1377584 1221637 2045002 1795846 2833580
699.08 2833481 3893792 4130872 5530270 5792451 7450327
701.97 7822495 9746397 10232197 12158081 12332758 14353507
704.86 14536950 16183337 15884836 17275320 16322387 17482290
707.75 15548305 16428234 13954214 14983692 12014164 14825935
710.65 11536372 12259673 6270066 11128931 7048555 76911949
713.54 76426267 28962526 24567277 12106133 11911149 8966738
716.43 12945591 11833398 15066372 14518811 17435837 17075558
719.33 19205545 18321266 19814154 18567292 19269390 17582754
722.22 17725215 15891008 15777133 13636209 13046320 10945130
725.11 10379858 8448699 8072170 6379103 5878386 4597723
728.00 4256795 3153870 3003765 2157953 2194983 1338520
730.90 1646882 842108 1166655 721149 849264 459061
733.79 650789 265806 436544 136207 372780 34081
736.68 379066-3677 410715-57338 246511-210743
739.57 188726-64180 167944-59772 152193-132140
742.47 231938-126391 99414-145167 61826-223011
745.36 104915-113504 140611-268367 84388-130594
748.25-79373-108954 60552-130744 162083-113671
751.15 135060-188105 42932-223142 117351-130821
754.04 22124-54647 15209-175372 92074-261687
756.93 42273-201479-21365-183052 167603-95859
759.82 79026-153736 67284-188928 148413-227629
762.72 107703-69762 60795-182818 60704-88338
765.61-62459-156642 111521-85105 20919-142769
768.50 89249-123490 56923-137101-30686-118025
771.39 42770 18396 4369 25679 11934-8078
774.29 102912-101857-3417-151037 116291-20348
777.18 56104-82775 4683-157364-63692-113442
780.07 32612-46053 17142-80013-23133-106453
782.97-40200-55382 105854-158989-36177-126484
785.86 152989-96783-60621-158746-147868-20707
788.75-5541-30388 50288-168026-51540-142069
791.64-27844-113189 5148-175007-71337-168500
794.54-147083-137205 71230-127904-6319-141704
797.43 73-206256-30989-175460 44752-129324
800.32-79651-151773-35056-87954-34752-76705
803.21-192290-115407 22094-105778-30988-140817
806.11 32360-185726 37003-217575 24161-173260
809.00 80186-187907-5561-92074-29286-118566
811.89 5374-172522-47636-123504-30693-109292
814.79 47403-47422-39530-114171-56186-219020
817.68 33939-57242-161448-164933 43398-106713
820.57-120775-170871-23774-53437-8771-124756
823.46-3544-177136-16299-187850 23128-104963
826.36-21888-48881 1756-67400-93949-133783
829.25 153841-140093 106042-115782 25660-113483
832.14 56010-91171-7844-36868-57008-100130
835.03 27601-138351-11318-118848-36918-31010
837.93 60785 64457-31786-117479-55281-105630
840.82-95175-96764-46973-71154 56580-71208
843.71-36240-245064 20781-96348-103376-90765
846.61 79624-44389-63045-149373 57519-123058
849.50-4992-57579-108541-130261-55364-77086
852.39-53587-153839-70436-129801-83174-28216
855.28-99405-93532-98348-183812-57412-118377
858.18 25283-36517-57525-125616-8741-53116
861.07-105590-137817-58034-72769 36563-41180
863.96-123269-39619 27246-112913-6322-107077
866.85-55276-105440 3023-10513-46622-55980
869.75 30964-161990 35937-114786 43847-110346
872.64-2495-119970 54200-41414 12057-39121
875.53-25903-46345-56196-12999 60327-104824
878.43-29634-121829-38056-2370 48003-66568
881.32-46724-58276-34545-83297-15049-31116
884.21-38142-37968 100849-85268-125095-48434
887.10 75276 16452 60068-94540 21173 34190
890.00 85556-64087 124025-33482 10304-86152
892.89 124798 9045 82057 9074 33946 104053
895.78 36841 57195 95905-1247 58953 54124
898.67 85630 4899 118427 70156-7207-4143
901.57 74786 27862 202104 21932 62312 7301
904.46 143075 45918 94890 5692 65021-34828
907.35 39729-58583 12117 1408 46751-3956
910.25 39710-60487-26181-69916-30132-63421
913.14-25700-2305 12616-114498-47752-70437
916.03-20184-109216-66888-96420 5440-153568
918.92-93839-54131-27822-139734-68057-78698
921.82-52655-120315-80885-30825-111627-113422
924.71-161659-118100-57521-127316-19088-179419
927.60-50838-87658-5204-126227 2926-93894
930.49-68434-98866-43249-85126-48369-143141
933.39-25768-121663-137830-116913-85075-86429
936.28-13433-121117-51208-87138-62785-110938
939.17-22339-117257-18754-113858-32810-94207
942.07-39889-63707-86825-96056-123745-125516
944.96-70556-57525-83844-110821-57988-110036
947.85-90072-35427-80016-128288-76188-120754
950.74-45065-122525-62320-77374-95548-92539
953.64-62440-86306-19156-58305-48230-119926
956.53-38838-98206-126183-137550-44171-127973
959.42-65268-111920-167500-96570-48812-147366
962.31-74145-112827-108494-108345-75728-119140
965.21-34607-131291-99776-175340-67391-82172
968.10-66503-72627-50400-162654-110803-144664
970.99-44006-119754-87950-141846-105341-140663
973.89-107989-108113-117085-96472-47658-115785
976.78-76739-73949-82647-63271-95885-64522
979.67-18097-105736-29640-88952-104562-35750
982.56-19291-77311-104450-88900-42043-47526
985.46-46055-112235-23920-15113-25553-81234
988.35-954-71388-58872-55824-41015-5388
991.24-34254-48649-54706-24807-71665-30102
994.13-33521-17433 20583-56250-20241-54619
997.03-35756-13251-16629-24006-7098-41066
999.92 45783 38541-2321 28161-40190-12354
1002.81-29658-39527 68180 14017 12811 46651
1005.71 51224 40260 97062 29763 29671 95758
1008.60 47677 56687 38206 73355 115281 86314
1011.49 123945 132437 101744 111683 91635 94376
1014.38 150929 181672 159814 130977 174100 166341
1017.28 197994 179140 198813 95314 172278 160450
1020.17 176933 204844 284038 303198 288333 354403
1023.06 392821 380975 385814 360089 284791 364604
1025.95 316807 309526 316149 334854 300994 273557
1028.85 353065 261270 267405 252192 243509 217085
1031.74 300254 283900 203996 259504 238577 240108
1034.63 275531 98374 197965 147568 170488 85721
1037.53 100334 105758 139821 63715 88747 30799
1040.42 31884 77991-32477-68323 4361 10257
1043.31-62537-68234 743 1445-43092-16782
1046.20-51615 50495-83481-43478 3201-39598
1049.10-46329 45872-28864 6056-41843 68468
1051.99-65024 27990-26431 71894-11010 28239
1054.88-9435 38904-49149 103538-11175 45774
1057.77 69091 128719 37933 67285-24781 133149
1060.67 54156 278681 131596 155151 93286 99004
1063.56 136100 118970 63287 74286 74096 64589
1066.45 70294 123476-900 132039 66045 96266
1069.35 40619 142781 88229 118999-10229 141921
1072.24 2315 124471-83310 32998-112086 18283
1075.13-39455 1380-131168 17565-139139 47620
1078.02-85429 20852-88276 141013-72059 69975
1080.92 20380 121989-51000 196492-3034 278200
1083.81 119893 359630 168083 507708 331015 635088
1086.70 526157 924884 806157 1132399 1058169 1437581
1089.59 1457240 1849771 1853179 2367043 2404015 2873115
1092.49 3023914 3546633 3648156 4302867 4555912 5384806
1095.38 5657366 6898489 7514699 9124598 10251694 12524606
1098.27 14436806 17813652 20749575 25331831 29504950 34683720
1101.17 38873124 44233034 46734928 50738670 56741496 64109675
1104.06 70570834 78374968 84686651 92130281 97627245 103733581
1106.95 107374726 111772687 112771391 114322144 112703744 112028022
1109.84 108251203 106801395 103225760 104620756 105332966 115206472
1112.74 129493593 155678148 185455690 235437110 268679457 286761426
1115.63 298339505 262885580 102758453 41111696 67596926 74005256
1118.52 96280619 108147173 128083759 139115919 154153303 160805059
1121.41 169149154 169191793 169729757 163019102 156684393 144506314
1124.31 133688353 118579050 105660582 89997663 77473073 63473098
1127.20 53041118 41845460 34377768 26243829 21728530 16396660
1130.09 14176104 10857171 10255633 8329169 8479107 7221181
1132.99 7765987 6811653 7444767 6654280 7378865 6678077
1135.88 7663932 7300871 8924024 9542113 11599498 12069030
1138.77 12199432 9044016 6484770 6527919 9631700 9274466
1141.66 8434421 6141332 6231957 6024715 7178602 7122652
1144.56 8206466 7900264 8573364 8033963 8413374 7551418
1147.45 7820849 6777170 6775355 5727514 5688216 4530967
1150.34 4458177 3478287 3506758 2511368 2626680 1750368
1153.23 1834288 1086839 1448778 683385 990892 324988
1156.13 720225 131546 574728 47297 466142-49739
1159.02 430753-96601 353609-106444 364354-168198
1161.91 349176-87145 345275-135792 372001-145760
1164.81 369502-149814 342747-113954 324884-81969
1167.70 412930-20033 383151-46857 369806-63712
1170.59 427474-74722 430424-46328 445174-29394
1173.48 488512 10982 454704-28337 468641 3582
1176.38 509370-344 558492 94356 541132 53025
1179.27 566721 160414 583793 178215 634095 249323
1182.16 721243 232332 774881 339416 761257 395491
1185.05 960859 423782 972156 542674 1060528 638764
1187.95 1136408 713635 1336782 837379 1464987 1066840
1190.84 1624302 1215002 1899191 1451919 2080116 1709898
1193.73 2388731 2041521 2741027 2346695 3031738 2761886
1196.63 3515244 3212785 3924959 3605736 4395680 4118053
1199.52 4871568 4566145 5253508 4947712 5726676 5304662
1202.41 5930618 5527645 6138609 5678648 6302982 5799207
1205.30 6503323 5812842 6270773 5491230 5862845 4885215
1208.20 4969322 3813780 4013193 3150244 3541214 2686822
1211.09 3157930 2316144 2879470 2017860 2543784 1790568
1213.98 2335807 1549241 2169935 1397870 2010779 1272981
1216.87 1950329 1200292 1941532 1156650 1952926 1178231
1219.77 2024960 1287838 2155528 1472990 2364304 1635589
1222.66 2586480 1845325 2988456 2249470 3417233 2805698
1225.55 4128259 3606804 5086514 4689415 6399313 6268360
1228.45 8351491 8490680 10997008 11699161 14770348 16004422
1231.34 19958050 21927939 26910920 29918044 36148610 40470270
1234.23 48415749 54446525 64537048 72698355 85173354 95690523
1237.12 111095523 124631701 143512359 160169691 182654631 203452314
1240.02 230690243 256406965 289293662 319711919 357533912 392562955
1242.91 435364943 474072516 521303172 561885038 613564487 653161742
1245.80 703196932 739037363 781734196 810798318 845451282 863160324
1248.69 883441973 895194988 883636126 877880375 857307959 848676498
1251.59 817728269 790080574 738158574 705193301 719258274 681373639
1254.48 594383328 495068842 455333967 424470058 354046508 313145652
1257.37 270250365 240672067 207553536 183819950 157289885 138700526
1260.27 117639867 103274309 86647768 75924006 62960764 55153242
1263.16 45186671 39559560 31784840 27951383 22071381 19582551
1266.05 15032983 13620196 10140799 9476771 6776221 6636182
1268.94 4537350 4734863 3062919 3535638 2098671 2746209
1271.84 1536506 2180575 1158080 1856096 930036 1667576
1274.73 801778 1548649 717241 1380084 619173 1283161
1277.62 572309 1205474 567069 1157434 519930 1151843
1280.51 450914 1046541 467978 1027991 499910 980265
1283.41 480383 975493 443048 999989 423154 997782
1286.30 469053 925350 477220 958532 526361 944718
1289.19 531975 977262 542860 1034683 531827 1058010
1292.09 635255 1073790 646424 1090866 716011 1145258
1294.98 761263 1231270 817778 1221397 913076 1367330
1297.87 987339 1447823 1177403 1591436 1315162 1746079
1300.76 1512798 1991831 1775918 2189409 1985390 2432209
1303.66 2242841 2675651 2460285 2953561 2662957 3108922
1306.55 2936793 3410794 3200950 3658183 3516671 3967183
1309.44 3814558 4247901 4186442 4633194 4556996 4975582
1312.33 4916105 5356524 5299236 5765929 5710527 6159804
1315.23 6076510 6533929 6496722 6919361 6881418 7332299
1318.12 7360294 7722010 7700197 8077055 7994934 8401287
1321.01 8307754 8691469 8521017 8888555 8840946 9132490
1323.91 9085760 9390966 9323620 9582768 9436152 9694910
1326.80 9572336 9780839 9488326 9657572 9349735 9518044
1329.69 9258933 9323577 9124770 9235269 8918752 9005688
1332.58 8653896 8719223 8373409 8376576 7995715 7985199
1335.48 7512587 7496730 7120172 7078909 6697129 6668720
1338.37 6307030 6342155 5960879 5951797 5589718 5600019
1341.26 5192286 5160463 4818723 4727660 4384706 4342117
1344.15 3981394 3985505 3627939 3590339 3216248 3291040
1347.05 2861376 2846675 2580444 2588310 2244078 2230534
1349.94 1911066 1915242 1592375 1618280 1371425 1324688
1352.83 1128221 1124677 884191 1042370 796461 823513
1355.73 681989 749377 567349 640345 459988 495366
1358.62 290245 385133 198338 354246 98732 265330
1361.51 98562 149043 49465 196483-3841 184465
1364.40 24126 83402-1744 108609-24508 73991
1367.30-18611 115583-31623 86180-14909 59191
1370.19-41444 80693-34552 54000-27014 19946
1373.08-80278 44867-64050 42697-21201 29875
1375.97-19259 71539-38372 54826-82168 41680
1378.87-86815 43189-43984 29132-76941-28705
1381.76-106891-15087-135485 2708-90303 15756
1384.65-143269 20943-55878 47273-106077-23784
1387.55-73426-19198-66320-16014-68468 16202
1390.44-111891-12147-74961-13877-135262-24455
1393.33-86349-3891-91709 24065-95481-36247
1396.22-105909 1512-101007-5526-98183 1820
1399.12-71923-70899-183249-30911-64899-19966
1402.01-106233-7025-76455-12951-71098-59573
1404.90-134024-7319-90523-171-103125-12295
1407.79-136667-15670-149614-26818-126031-59977
1410.69-121738-64008-180001-24407-130689-27996
1413.58-115466-56104-118498-61618-115324-73086
1416.47-98104-53398-143048-87792-154762-116852
1419.37-161276-2296-148326-10739-129649 12669
1422.26-131533-26694-112571-29225-74177-13407
1425.15-105842-16395-225839-166852-81432 26453
1428.04-15866 96813 35583 105781 42574 106250
1430.94 60048 132323 135690 176559 111480 225063
1433.83 141793 273627 157349 300887 238184 254333
1436.72 252548 383131 295995 381136 343616 405608
1439.61 386034 446188 356277 437195 371603 464983
1442.51 388586 443490 414928 425463 423238 461270
1445.40 434110 492453 485094 539258 455523 531515
1448.29 473521 517037 472381 557308 498347 536319
1451.19 480447 589940 536399 566180 487468 543437
1454.08 528137 477590 397119 506159 376819 352021
1456.97 422235 470609 360591 455885 388045 407887
1459.86 422032 439046 377753 447982 381338 446505
1462.76 371724 412437 379342 370017 322264 408415
1465.65 306733 407227 301155 358932 275757 323594
1468.54 267685 289834 190088 294129 188186 247946
1471.43 106227 160115 157392 91628 88011 127893
1474.33 74242 114693 35847 68245-49562 53664
1477.22 4884 22349 18715 41106-24552 18975
1480.11-46171 4419-59210-19416-82078-34814
1483.01-65701 19707-112016-9528-87502-38533
1485.90-96474-6932-110849-39229-55420-62879
1488.79-66160-99046-126753-66702-85396-36900
1491.68-76476 30791-69678-26272-79512-11155
1494.58-137065 17802-158296-124139-81279-78759
1497.47-110180-102548-137452-49938-140594-90042
1500.36-74389-81730-130027-70352-112299-110720
1503.25-99778-79343-121394-147879-203990-73241
1506.15-153535-159744-114492-54399-121228-67454
1509.04-114002-98511-87905-88675-95923-33213
1511.93-103378-35663-85508-20123-80907-46727
1514.83-104178-79884-152584-85523-136201-77196
1517.72-60209-14706-20474 48638-17572 31975
1520.61-180000-178390-101725-90329-132189-53922
1523.50-94139-54062-107047-116739-107067-27364
1526.40-87898-45244-92515-57197-124828-62456
1529.29-104564-51206-139480-81691-138948-68797
1532.18-122190-82775-158061-105238-128233-104780
1535.07-114155-107093-110530-136248-120464-74046
1537.97-116502-247562-188594-114718-261740-115909
1540.86-138892-121672-181469-83640-158200-98592
1543.75-144848-71060-168475-64974-90650-76069
1546.65-99232-89538-120525-77733-119468-72189
1549.54-139237-81473-98311-70432-105068-68307
1552.43-43296-78538-108292-127669-151384-77605
1555.32-72711-92240-93234-101802-134194-125450
1558.22-228256-66138-153344-166993-167051-57128
1561.11-149825-73951-98862-26361-119878-61509
1564.00-121051-89345-127891-63202-101739-52103
1566.89-108407-72491-72891-79346-118800-133572
1569.79-133257-75578-130538-105024-151326-81513
1572.68-109969-47857-123756-25376-106609-98225
1575.57-232627-129246-86569-67529-92761-46252
1578.47-103460-69574-98251-68687-77196-29851
1581.36-91078-109921-88151-78727-83738-38200
1584.25-76036-3936-11703 22870 12367 25358
1587.14 13154 43139 27904 70112 45426 132894
1590.04 103168 129734 108534 175302 198630 267250
1592.93 244500 317113 316356 372742 386670 414379
1595.82 456566 480228 497528 514424 516616 535502
1598.71 531991 507954 490411 512894 455646 487077
1601.61 456838 532578 469039 472209 438005 436405
1604.50 351051 348766 287514 289659 270229 282669
1607.39 250824 276642 224486 273629 236013 265871
1610.29 287325 328550 277268 342422 321167 363315
1613.18 344649 389257 349826 435999 409453 471792
1616.07 332726 398566 511833 556241 547305 614240
1618.96 612783 672983 679548 674854 699020 779579
1621.86 723147 731929 746912 799501 779466 836072
1624.75 841523 867119 877788 893086 910240 894461
1627.64 892762 966103 976832 1028597 978333 1038795
1630.53 983918 1061596 1037856 1055836 1030406 1017992
1633.43 1014932 1019889 904455 826471 746836 771129
1636.32 735961 735192 639863 677516 615278 637584
1639.21 605615 641272 601009 576450 554984 609579
1642.11 512092 541698 421918 457016 360330 339446
1645.00 305155 214511 261791 258333 156491 151918
1647.89 107284 139537 65972 116556 48761 86405
1650.78-1613 44847-163358-99110-176761-102757
1653.68-26719-90805-70685-57777-77639-68186
1656.57-54352-69719-80118-57365-99024-68824
1659.46-99482-71298-122658-99570-145733-110846
1662.35-142403-144584-121367-111537-106366-105558
1665.25-113810-109535-144177-106205-108861-136035
1668.14-151989-152401-142843-55874-121134-71612
1671.03-149033-131276-141263-87091-133820-100668
1673.93-103842-83494-193334-89600-93044-95882
1676.82-98237-61395-106859-77448-97712-73300
1679.71-80791-93310-88817-63022-101867-70387
1682.60-110825-110338-79172-197990-214563-43361
1685.50-100463-29953-48528-60296-76033-25753
1688.39-82289-37624-64769-8759-81192-35870
1691.28-61896-6361-75102-16794-71846-18687
1694.17-95348-34046-137824-161385-17764-49092
1697.07-37772-26212-37980-11945-62975-128395
1699.96-132339-60700-21328 16366-30864 11903
1702.85 1606 9068-9137-7472-11240 43151
1705.75 9884 55235 54047 51988 44477 86721
1708.64 68766 100998 83973 115305 132236 179461
1711.53 128909 159746 138519 192603 169670 207058
1714.42 187321 235128 243350 244583 269789 164181
1717.32 269571 329392 327229 372231 367939 440575
1720.21 373830 422661 442285 507849 463827 503520
1723.10 478354 525237 532451 525395 597025 592424
1725.99 598673 629232 592279 643304 620685 679871
1728.89 664415 699841 724037 729844 752658 725432
1731.78 692917 742211 574030 664820 667385 596034
1734.67 661758 665076 646061 633931 624754 588109
1737.57 576117 598016 537446 523761 472563 520526
1740.46 504062 467530 465818 439588 378777 399702
1743.35 362484 352233 365991 361864 314981 307052
1746.24 293419 255812 223116 220355 156880 218163
1749.14 190432 162817 147139 121017 52021 130500
1752.03 107741 107345 66495 88915 27320 41538
1754.92 26416 18615 36572 11198-3666 16796
1757.81 24325 6296-4028-7836-15950-24340
1760.71-57394-57232-72530-24623-68358-27714
1763.60-59095-74841-57912-36522-49918-53427
1766.49-69440-57495-100803-44987-52644-63907
1769.39-63104-110010-36705-77011-76077-88104
1772.28-158352-56016-97386-54591-97809-97824
1775.17-115911-68691-99845-70306-97353-112887
1778.06-89992-123539-86390-68531-123983-96889
1780.96-90906-96912-114511-140760-122394-108335
1783.85-119068-113144-152539-131645-106983-125365
1786.74-147813-153571-136274-116517-150022-88880
1789.63-137261-121386-164767-114576-125345-221343
1792.53-166758-146419-147077-107022-117623-122978
1795.42-179404-129023-146396-123683-123445-126595
1798.31-124306-157123-193617-133575-156527-113598
1801.21-126664-110863-107333-143278-127998-131703
1804.10-176945-135354-117387-102523-150798-122219
1806.99-110106-104155-108211-144536-150031-121255
1809.88-140553-119793-139796-145302-142977-76359
1812.78-154709-128745-126509-109885-166592-135115
1815.67-140270-112696-147261-94738-114322-113989
1818.56-115746-97894-115405-139757-107474-91732
1821.45-107336-52943-116457-93239-69033-81754
1824.35-124426-142728-96831-89457-74141-108844
1827.24-107491-52070-84644-54485-124310-168929
1830.13-132595-72016-48527-60791-102661-111506
1833.03-82159-64346-82509-80293-62567-93198
1835.92-82618-51951-82398-62236-94845-63091
1838.81-61585-96492-92833-55295-63890-44654
1841.70-84719-37149-55078-40632-141990-46236
1844.60-14976 12845-24842 20565-5471 3058
1847.49-10402 59206 34660 81928 73688 84095
1850.38 77804 140342 151539 161291 190342 186483
1853.27 221437 248077 279313 273286 268855 311650
1856.17 312884 350612 358961 372573 373819 437213
1859.06 433972 455792 459979 468572 486917 489146
1861.95 483935 512267 514563 565266 593282 638727
1864.85 660150 693554 661667 694549 736533 737077
1867.74 690055 693422 616547 619460 515982 557190
1870.63 507581 481370 470525 468192 416503 390109
1873.52 386468 414030 429145 410304 361178 374233
1876.42 340365 356047 339347 295930 260646 280531
1879.31 231787 190578 163138 163744 102451 117755
1882.20 16965 55458 27614 51763 23189-24720
1885.09-30282-12919-67724-68274-68098-105805
1887.99-103893-97732-114212-103826-108537-121433
1890.88-130380-104786-127818-120838-125103-110667
1893.77-150894-109479-157330-119419-171698-116601
1896.67-120972-118022-130080-130037-137082-144321
1899.56-142655-149213-103853-128933-155149-98650
1902.45-132676-116735-155254-153307-108341-110708
1905.34-96568-86327-119862-96879-95902-81554
1908.24-83139-69968-88080-110670-53975-29081
1911.13-89755-27059-55547-47973-57615-2168
1914.02-19886-34162-23323-26896-51382 18360
1916.91 5678-20354 6725 2882 8097 43717
1919.81 59648 44703 73278 91984 103822 91367
1922.70 53075 35776 5152 39241 31676 60423
1925.59 63357 86210 103667 121939 157655 104629
1928.49 161005 182283 115817 199831 78791 138846
1931.38 86959 93739 92079 111135 82751 118289
1934.27 134121 149318 109190 170700 119587 190495
1937.16 176021 261954 189682 140737 70251 107442
1940.06 79800 127293 97879 161115 176883 184187
1942.95 179602 216969 197728 234977 211586 202207
1945.84 184817 221600 168886 179547 158922 146721
1948.73 159057 175536 126226 140649 152203 146363
1951.63 164113 178838 177439 165788 211977 217576
1954.52 181119 159099 184944 154178 120275 133764
1957.41 123973 246142 255566 405479 384333 186573
1960.31 176201 91921 67002 53822 25568 36353
1963.20 34476 32888 75180 15264 4171 44735
1966.09 30278 233-4707-939-1368 5136
1968.98-38105-82014-65864-20247-61203-48284
1971.88-83830-62998-95400-99442-85334-85891
1974.77-94065-94972-105656-141629-145755-41891
1977.66-135731-65536-113319-112726-127428-104959
1980.55-106078-128995-157721-116303-118333-81560
1983.45-145910-125789-95732-83671-122978-124584
1986.34-103264-129664-126054-125701-99103-144408
1989.23-130480-120431-99016-87055-137254-127905
1992.13-96247-140989-132055-95353-131347-136763
1995.02-146984-82758-121646-109603-121398-124541
1997.91-132339-109587-126465-126626-106435-140579
2000.80-110232-140037-139448-119281-119676-109189
2003.70-143951-99342-114473-100303-101677-105927
2006.59-104842-116029-141333-70412-127220-123016
2009.48-143259-135626-110136-144441-116562-128464
2012.37-122036-143335-135798-101102-148796-118158
2015.27-123109-105576-126548-122519-114432-142620
2018.16-119325-116183-121673-159945-117901-118099
2021.05-125911-148610-135323-139145-102565-103791
2023.95-147256-86932-185787-117603-147653-117008
2026.84-155720-138033-151925-103346-92552-120611
2029.73-122216-104542-138266-94918-102574-107735
2032.62-100445-92481-121824-90894-108225-61318
2035.52-53013-47970-62963 764-16788-1592
2038.41 13571 55853 39432 85742 133182 123639
2041.30 178124 232143 258487 307300 361313 425006
2044.19 482269 558092 610704 715984 787276 867733
2047.09 930103 1047857 1102580 1184144 1269554 1361320
2049.98 1436506 1525524 1586931 1667736 1688391 1710299
2052.87 1741060 1777505 1747569 1706109 1669984 1655134
2055.77 1584588 1505544 1390740 1313103 1211905 1179356
2058.66 1058617 987974 811336 656339 562866 513016
2061.55 417783 354301 279214 249066 208789 147040
2064.44 111990 63787 1655 12083 5719 3250
2067.34-96098-58198-70799-82731-84707-82125
2070.23-111335-122839-129297-125728-122278-127179
2073.12-141572-117856-141815-120517-163701-114575
2076.01-132606-150926-110823-104155-185457-144934
2078.91-160049-149093-149516-149240-134809-115434
2081.80-118826-124538-124257-120212-117567-165733
2084.69-140778-104974-173509-119769-152172-140562
2087.59-151536-162618-132346-191102-138463-99236
2090.48-138363-147895-139995-117157-114724-113874
2093.37-173640-136682-79294-128894-140884-156805
2096.26-181237-116785-146188-140459-141863-77277
2099.16-154043-131566-125827-152097-128270-138263
2102.05-141932-57883-112904-138178-108359-113219
2104.94-136620-121013-115446-144283-54661-140344
2107.83-128441-126813-100767-111704-151273-164794
2110.73-111975-61358-130199-79154-129728-99686
2113.62-102047-126981-135358-52497-109729-84884
2116.51-104034-114573-85447-121302-68126-47034
2119.41-80208-99093-87241-99090-119288-88255
2122.30-86388-62625-6299-34997-46123-51546
2125.19-60378-71318-99006-77833-8119-25722
2128.08-97269-94446-64233-45714-52938-91977
2130.98-42468-42140-100882-52524-26127-80148
2133.87-33667-16586-40752-41557-99716-64240
2136.76-53581-61005-84415-51907-49525-56133
2139.65-48200-93832-114216-50728-76493-108181
2142.55-118250-80249-96078-60714-63124-81864
2145.44-91473-79575-119027-140601-103532-112899
2148.33-114031-74540-124310-120621-110839-98984
2151.23-135490-117566-112799-122114-121152-93636
2154.12-102650-117894-138076-97259-195062-118478
2157.01-151736-118333-90698-126348-124408-162049
2159.90-151017-119611-148677-89139-151784-166328
2162.80-139028-133045-113108-125169-117379-66116
2165.69-138850-171389-115040-120823-154965-103205
2168.58-60936-96562-148471-152112-152763-125809
2171.47-117892-96769-68878-122974-138962-136012
2174.37-155224-126104-158645-84741-139696-135083
2177.26-151784-118882-130835-142963-66820-104761
2180.15-160541-103870-148613-191001-149908-93510
2183.05-126018-128689-133741-159553-137636-168129
2185.94-119879-111535-161067-162261-176855-136691
2188.83-173907-129890-128754-139576-109528-158129
2191.72-171574-171691-171001-168379-161881-169807
2194.62-190403-187781-196916-219167-166347-197045
2197.51-172367-224008-216836-216567-233236-264189
2200.40-286028-270881-323552-303492-268813-308293
2203.29-297286-331162-284003-319246-344962-351447
2206.19-356289-389656-355535-411475-424533-424369
2209.08-389751-426410-458582-445582-448921-469766
2211.97-452460-495799-474914-511237-491347-477617
2214.87-493012-532114-498930-519558-522292-482571
2217.76-510098-498936-543497-490832-484572-469800
2220.65-504121-479324-486749-465690-432992-472113
2223.54-477847-487720-511358-509972-540191-567780
2226.44-625956-599144-709564-719823-715856-747095
2229.33-776516-746281-769089-748798-736865-691270
2232.22-681283-521735-308515-47831-235506-391491
2235.11-419495-436953-479211-499171-517792-537840
2238.01-584257-573470-569988-585148-593658-648812
2240.90-611646-592549-591276-575591-620984-578566
2243.79-608019-616729-617626-598852-594710-619755
2246.69-606504-589786-599118-597753-597950-543298
2249.58-503776-561130-523567-515051-492629-472746
2252.47-461819-416568-414226-373100-367623-343266
2255.36-305434-312570-284028-323572-264958-272326
2258.26-253325-232409-214828-222038-212864-205143
2261.15-237093-196077-187848-188641-209201-165847
2264.04-194451-193358-202826-210820-179780-171159
2266.93-178475-172097-172131-150828-190483-198334
2269.83-178282-203148-137737-182977-194819-169982
2272.72-180200-161430-219625-192956-184315-209904
2275.61-190605-195426-258592-199745-207336-199928
2278.51-192196-159006-159088-152161-173035-182595
2281.40-193867-226689-220421-174389-211013-167920
2284.29-167818-183762-200418-198192-153704-184117
2287.18-207478-184480-208398-199255-204269-166373
2290.08-153580-187042-152998-200225-215705-208371
2292.97-211745-213939-216909-186499-184000-164348
2295.86-184325-162731-147458-126109-118681-176454
2298.76-129029-133003-117517-178012-146449-162987
2301.65-116059-190644-120950-206707-138198-172981
2304.54-192480-103950-80400-136466-198165-170125
2307.43-149087-137705-196434-176970-167546-164235
2310.33-192208-247062-123205-161142-138028-294865
2313.22-145832-175204-105155-346649-98232-167887
2316.11-59752-356294-162845-199820-91948-380307
2319.00-240957-97070-59383-383523-281973-116529
2321.90-86442-403989-325272-75299-62728-388765
2324.79-331806 7329-71535-459044-319144 71408
2327.68-114240-443785-254374 127553-153932-436974
2330.58-100002 189696-241841-391950 127915 203556
2333.47-305848-205165 311789 170340-305756 75572
2336.36 503842 79965-85232 523987 491874 60180
2339.25 349935 830897 539446 378634 934954 955684
2342.15 600097 831116 1077185 659381 531411 959920
2345.04 921145 826908 1099515 1158040 1025437 1065595
2347.93 1058526 1023493 958117 898774 938477 993241
2350.82 847808 998348 1151403 919228 934769 1251291
2353.72 797904 718638 1106214 682611 603456 1177370
2356.61 601944 742553 1199927 538028 498245 777127
2359.50-243410 85028 327588-485733 159512 144226
2362.40-477395 369463-154407-305321 402045-439780
2365.29 35067 73191-430961 253847-337869-174326
2368.18 81450-461469 96589-342264-135276-88754
2371.07-370171 32449-355481-26147-243692-136903
2373.97-175890-264889-135979-242431-72801-178653
2376.86-109505-186036-98723-167926-79323-104678
2379.75-104439-74240-60675-126426-83804-102212
2382.64-114667-54706-84283-81483-104515-80180
2385.54-82416-89910-113126-104293-118976-117440
2388.43-118321-123547-149236-146341-135614-138543
2391.32-106644-140158-137432-110991-130811-136678
2394.22-164880-98321-146229-125688-139948-86536
2397.11-166440-128105-132505-130734-103835-97602
2400.00-111311-129334-149670-131092-123410-122536
2402.89-158724-158614-136958-98702-129481-145119
2405.79-152126-170015-131828-131988-163396-154626
2408.68-116385-130975-154249-118917-146909-157592
2411.57-146809-100903-127550-183320-118547-125321
2414.46-131961-109153-171071-154244-99013-135492
2417.36-165531-101316-131739-110161-108855-130838
2420.25-126951-113747-99971-106665-106832-145443
2423.14-121677-104601-74481-103986-82843-57618
2426.04-107093-104996-67015-101683-73300-119832
2428.93-114548-121428-75806-89355-62373-75697
2431.82-68720-45793-66696-79212-15115-24368
2434.71-68344-44487-46837-55553-37671-31896
2437.61-17892 33410-52810-6638-18590 22903
2440.50-6971-36052-12125 47525 15385 17239
2443.39 43050 69023 83651 73905 32749 63798
2446.28 87840 120375 102327 110127 150000 143227
2449.18 153109 170225 170803 168233 200242 235536
2452.07 241617 249947 199227 255758 307098 302315
2454.96 332552 349526 382890 384485 352661 444874
2457.86 405241 397085 453585 454038 402408 470412
2460.75 454918 456780 488489 491944 476993 489487
2463.64 505409 496926 477038 507973 491080 482471
2466.53 534901 478858 439829 502471 483715 477661
2469.43 480288 477535 479932 450968 437696 410955
2472.32 375541 331594 318408 315734 305110 286958
2475.21 240424 176710 157698 86798 30690-9940
2478.10 5368 82136 5247-3090-65909-91000
2481.00-83139-92642-136804-122428-143469-163925
2483.89-148532-148391-193103-196208-259298-222321
2486.78-225117-228467-222734-209815-244364-268227
2489.68-256847-266913-312350-273208-284945-331927
2492.57-295463-304765-343372-378585-371537-396106
2495.46-411524-414025-402177-455334-418937-467363
2498.35-511909-527599-492958-537619-481503-537226
2501.25-542480-536588-580452-622794-577240-608486
2504.14-686976-609862-635444-625866-627649-688845
2507.03-716267-735288-716895-663623-712376-712720
2509.92-725090-661198-687434-783570-662585-687267
2512.82-723576-656502-671946-584639-621037-606639
2515.71-615972-604939-606575-521430-554539-481525
2518.60-447334-394463-390172-352685-373147-323668
2521.50-298688-276001-249144-233643-205744-196971
2524.39-197877-157425-133370-90137-96643-89333
2527.28-83999-43251-36167-17211 2306-11704
2530.17 4406 59044 43732 41330 29157 42081
2533.07 68310 32774-28767 47575-9704 29275
2535.96-2465 24073 6941 46512-1741 32930
2538.85-39234 5884-8671-48275-74095-10871
2541.74-55874-70872-54633-56654-51973-160220
2544.64-146549-65841-86156-84863-99570-49016
2547.53-86942-52187-93263-46048-87241-109914
2550.42-88286-47843-93717-47934-80975-87164
2553.32-71962-103030-115932-47199-80979-77033
2556.21-64474-101295-115611-57118-89993-121982
2559.10-92334-34713-66516-45255-69231-115597
2561.99-68463-68494-56693-83931-94100-54039
2564.89-89541-116269-134736-69164-116862-108977
2567.78-84640-95439-51913-82851-60372-78917
2570.67-60005-55385-81564-44667-112561-98161
2573.56-57122-77982-86650-49118-56190-54046
2576.46-104786-124653-45449-62138-37736-39687
2579.35-93927-139246-90384-62524-100123-108866
2582.24-74511-76407-126072-95629-99753-99051
2585.14-101634-100269-87560-61403-162728-92034
2588.03-118720-84148-170193-132781-140654-134962
2590.92-122351-130031-135749-104722-97232-144775
2593.81-151178-113425-140977-165100-100229-138260
2596.71-145038-98725-121175-131693-154920-102276
2599.60-116594-141365-123538-152493-157148-126182
2602.49-158948-147221-175300-142472-150281-171480
2605.38-166148-161028-192015-161714-206122-117168
2608.28-152556-168581-175754-141284-158338-117612
2611.17-146216-204430-151447-129136-180771-132293
2614.06-171246-193414-211348-136594-189241-185746
2616.96-154866-96311-162757-143271-168389-172764
2619.85-182692-192649-162816-174686-179493-155680
2622.74-174261-199775-124247-130305-174167-160655
2625.63-159790-191236-126058-182113-186027-160841
2628.53-184961-194142-192785-170431-145759-161847
2631.42-148093-167795-198778-189557-155005-142933
2634.31-157370-143936-189361-113639-149284-116470
2637.20-144978-122951-137935-142538-206653-150795
2640.10-84202-80627-30656-41689-102699-61171
2642.99-46371-58868-84386-49533-52538-41830
2645.88-39658 40956 33228 79695 52315 87458
2648.78 139380 129126 165542 161429 182539 254837
2651.67 262039 287251 275844 342133 367431 390376
2654.56 451644 454455 540501 554485 551637 586419
2657.45 577873 685455 661859 711954 751334 783257
2660.35 821573 839434 859959 843152 854304 895162
2663.24 902999 892108 834033 853887 848845 831346
2666.13 857830 811450 777270 765398 771029 751811
2669.02 740251 673020 630102 573106 574771 550079
2671.92 465677 469514 404687 402594 376559 331418
2674.81 289893 304275 285519 286707 226986 215264
2677.70 173594 153482 101898 87066 17280-14049
2680.60-8509-40765-74160-29698-149586-88061
2683.49-152864-71701-152868-179834-214495-162804
2686.38-144377-142523-189272-157582-199786-178044
2689.27-192507-177008-162680-186330-182499-195680
2692.17-160207-152518-171619-165412-170447-221328
2695.06-175675-191756-203364-169285-188992-134696
2697.95-146952-204438-172236-180167-178573-169326
2700.84-154542-191485-168032-164174-159451-112465
2703.74-162353-76523-117501-152135-130914-138503
2706.63-153808-138581-104172-116043-153550-135804
2709.52-168447-158621-113089-158927-162542-96092
2712.42-131916-152609-129392-110540-151855-129613
2715.31-142854-108342-93553-114071-92115-125854
2718.20-144467-161701-120037-99804-154851-178328
2721.09-169566-111408-136920-127389-140038-155838
2723.99-122769-118069-115042-126306-170496-106654
2726.88-164679-112870-153926-148975-130897-160376
2729.77-142358-151514-191668-150866-103315-120394
2732.66-149956-157988-106671-88458-181239-93499
2735.56-114159-100184-164943-158010-185327-169533
2738.45-125885-143223-156569-69687-143790-114286
2741.34-149805-107330-193299-128246-163123-117575
2744.24-183706-158056-110833-132876-126370-152772
2747.13-126266-116794-143879-131105-147633-142988
2750.02-130645-119984-213234-147763-115256-179394
2752.91-151934-152662-148324-167885-161841-157415
2755.81-202178-153475-128865-182061-157569-126156
2758.70-121999-149353-169861-214184-150103-137187
2761.59-150854-139169-181833-135947-116193-111596
2764.48-227484-150782-183577-162607-154628-160956
2767.38-159626-141260-181181-194279-201787-199464
2770.27-141096-140476-177833-123781-171013-188674
2773.16-142371-185407-149963-126571-166781-174857
2776.06-193312-182322-175740-189348-131989-223870
2778.95-158835-142927-182268-155886-159801-173477
2781.84-183556-179020-176882-157771-144616-117505
2784.73-122357-136133-197186-186855-193716-171227
2787.63-127837-176311-156833-209840-186694-155298
2790.52-188218-157822-214664-140496-119939-186638
2793.41-144063-130961-208201-193123-138033-180918
2796.30-137605-189708-176225-172612-163903-170647
2799.20-188512-180168-163742-177716-175459-194949
2802.09-166552-176278-182996-155972-229882-169708
2804.98-179400-118024-167443-162486-201196-160442
2807.88-185915-157882-161265-186566-165180-158498
2810.77-213022-167881-206418-143207-157190-181586
2813.66-173664-167580-225639-160077-142842-150917
2816.55-167529-111458-204269-125689-195674-175299
2819.45-119965-133717-192875-205710-187257-146525
2822.34-142322-163110-123565-138773-134505-146155
2825.23-173524-174444-207284-136437-192365-209442
2828.12-118384-166127-123263-127247-126480-228029
2831.02-219996-176207-143769-166852-130539-224081
2833.91-184228-168685-161182-179343-201189-82548
2836.80-122791-187098-164577-188841-136063-178434
2839.70-199104-183810-187029-194961-177367-149064
2842.59-205367-162455-175748-148845-162321-168084
2845.48-185451-151475-168391-160331-177586-67866
2848.37-132002-191323-201531-149660-198351-131564
2851.27-151637-145328-136256-182682-107449-139123
2854.16-178626-145878-101536-189012-242027-126854
2857.05-107918-156200-104865-134921-144040-157274
2859.94-142416-148964-191289-165063-131205-110350
2862.84-167773-173720-148358-176977-145907-182244
2865.73-210600-203288-166647-173130-200346-193808
2868.62-171687-133011-218051-187309-109818-110324
2871.52-131463-194153-143869-227270-113959-173327
2874.41-205148-164415-154605-149795-153142-190204
2877.30-178366-157082-142661-113788-102721-161482
2880.19-156358-146535-167503-224682-189845-176100
2883.09-134202-165933-208275-160462-161015-151668
2885.98-167006-138435-201749-210243-155182-188969
2888.87-159935-171605-154956-192664-166330-157369
2891.76-169547-138968-161301-210413-186124-183474
2894.66-147983-143093-183099-189801-148643-186442
2897.55-184637-187817-172070-172766-180328-204727
2900.44-155136-164539-173559-122441-177327-251031
2903.34-180433-128008-145963-155369-167870-183432
2906.23-202119-212402-166683-135751-178229-180728
2909.12-227176-151108-165654-151466-187152-217576
2912.01-223933-138690-208734-204449-116434-168309
2914.91-178390-154816-213742-214086-182195-211480
2917.80-194413-196244-192497-170315-212924-172006
2920.69-159893-165632-190822-199293-140079-134905
2923.58-166259-181261-181794-210588-110724-198140
2926.48-195030-175800-196202-215738-126864-166937
2929.37-169490-98715-146521-189247-193821-191766
2932.26-217624-171845-223696-190890-185128-198048
2935.16-158869-156342-162013-200945-202491-199246
2938.05-123487-247650-252827-128236-147927-156761
2940.94-188682-174713-178093-92519-217486-129458
2943.83-199488-191233-217827-184561-194727-221435
2946.73-265336-179956-163409-33168-148843-195404
2949.62-160237-271101-192738-209437-226899-63041
2952.51-177850-191148-137084-200666-203423-214667
2955.40-166328-127924-144701-179225-124330-92795
2958.30-143953-227942-187199-225437-129274-177041
2961.19-134088-151484-92614-150914-175453-180883
2964.08-165731-168628-186568-193343-222856-163100
2966.98-79018-200669-207807-188716-135546-118374
2969.87-199059-181273-126494-218136-143934-189663
2972.76-171721-203520-172302-193808-139312-196187
2975.65-168460-168460-101641-127640-143185-137095
2978.55-138856-211279-164019-174941-132094-92136
2981.44-182846-144212-167821-157912-178077-171744
2984.33-129114-176724-176670-104193-108783-208334
2987.22-201180-217724-163029-226476-182643-130252
2990.12-168406-154157-121670-141855-178163-150492
2993.01-164093-175815-166716-98623-135308-193562
2995.90-183286-154494-183963-190148-131260-140711
2998.80-121264-150911-156961-178607-178483-176937
3001.69-110109-127174-172478-190235-118388-146730
3004.58-161052-156599-152420-83973-157551-117386
3007.47-166126-171347-195405-139611-145920-151129
3010.37-166491-145717-154345-173505-117847-113980
3013.26-155380-136778-141593-154887-154337-152456
3016.15-192144-147946-176623-166397-205624-143725
3019.04-145964-163533-174055-126080-164550-175050
3021.94-153269-150742-191521-145331-158477-219165
3024.83-111557-206710-169122-201510-186689-192209
3027.72-209584-173507-160231-118108-181061-116460
3030.62-160130-188685-174225-171799-190118-208105
3033.51-237853-197548-113883-144885-199688-193756
3036.40-195466-161993-151716-222673-137614-153696
3039.29-156472-227407-240115-187559-157652-135845
3042.19-166710-204387-180987-154721-181226-118993
3045.08-223485-177817-204878-89792-185056-211805
3047.97-292434-175199-150842-192848-187075-142715
3050.86-109786-161920-163985-163487-135864-155249
3053.76-196909-127537-138774-163378-224782-154077
3056.65-181929-189458-154851-188862-193747-163883
3059.54-186102-167446-137136-175492-180671-64708
3062.44-192300-159644-134661-152132-194047-167842
3065.33-155777-204328-180005-134477-186262-170371
3068.22-166814-163268-81696-116709-112450-198846
3071.11-122932-117605-156524-114782-182309-116022
3074.01-195044-129226-168107-171495-145258-130408
3076.90-137627-136618-167006-143859-192605-123089
3079.79-147360-160084-230900-156932-161015-189114
3082.68-133357-142018-189537-108693-158982-208935
3085.58-180349-192162-162107-199811-180868-143000
3088.47-112437-108508-177086-111545-169092-161991
3091.36-166286-156741-149908-165429-156917-189686
3094.26-145464-138850-124869-132175-156249-179286
3097.15-157022-178785-131212-99990-93231-219920
3100.04-114763-164457-100595-200395-108271-149114
3102.93-104885-106733-112083-142520-143897-153448
3105.83-146258-167350-107338-199427-181538-154059
3108.72-130296-177548-145679-137659-163043-98838
3111.61-195739-126668-108109-131709-115773-115777
3114.50-111923-113176-125297-102318-180064-147885
3117.40-149081-117142-135745-125426-155228-170853
3120.29-60830-190502-136427-141051-87860-164027
3123.18-94933-162684-183113-118923-92087-118488
3126.08-140023-151913-134046-135721-142884-176226
3128.97-86518-116830-123580-135235-210596-139941
3131.86-109079-124785-134565-161616-168787-149775
3134.75-171008-56192-145625-125308-200721-103493
3137.65-119279-121944-145833-125582-102628-162300
3140.54-102610-223811-156815-178157-139928-192923
3143.43-99141-176181-82926-119356-199794-119632
3146.32-97179-132890-108829-175039-143962-97249
3149.22-158408-201618-186915-162972-124292-107150
3152.11-150074-170247-169824-178754-157919-168482
3155.00-39514-151565-197996-110850-178593-171141
3157.90-203107-152287-120861-117975-104219-124993
3160.79-165533-171176-115063-111528-197875-160531
3163.68-140180-169864-171522-151060-141947-132179
3166.57-169612-215104-219904-160532-227330-128755
3169.47-108762-174714-182138-161176-119704-126343
3172.36-161109-138719-173376-117835-196364-164740
3175.25-160747-136453-126041-169340-193217-247700
3178.14-174488-229815-190829-152438-158479-158480
3181.04-199845-149452-165209-85350-146378-156178
3183.93-200275-150171-115672-226357-159938-127086
3186.82-255497-175380-216156-120484-217435-141848
3189.72-144618-172663-150976-116554-212916-187717
3192.61-172637-128774-239124-180494-195023-195387
3195.50-193435-134162-153462-164695-158814-210547
3198.39-194640-146686-177332-233131-182287-179052
3201.29-123932-126790-124201-121214-234932-194900
3204.18-224161-155455-230990-150709-267556-191634
3207.07-200235-164193-136230-201293-145848-122866
3209.96-134553-99093-143644-187731-164394-146007
3212.86-197549-160661-188554-199382-176719-123228
3215.75-183077-228508-127535-168728-131412-138518
3218.64-194788-120748-113458-98163-137361-181065
3221.54-116200-168572-199233-158394-178276-105985
3224.43-191268-161749-134141-118492-213764-143890
3227.32-213306-185447-138815-142137-137748-145835
3230.21-122007-144273-123998-154747-183301-199880
3233.11-203518-125985-219497-136659-201926-130107
3236.00-158633-132937-247961-206009-167034-170965
3238.89-143760-174158-124004-129687-151099-137317
3241.78-180370-139969-206964-177227-181541-136440
3244.68-184539-176567-192715-195511-163332-97751
3247.57-161843-120843-172618-166127-131722-154175
3250.46-173490-155531-227777-144508-137496-182316
3253.36-165623-130200-159301-172070-138983-214610
3256.25-196499-192796-164207-161049-113010-126270
3259.14-169218-155323-172826-115990-188453-153226
3262.03-182117-110482-225013-203429-102674-122444
3264.93-128800-185285-132565-159549-163497-163091
3267.82-122796-201399-228193-140144-172941-172958
3270.71-178278-156902-141218-154280-123937-87414
3273.60-198302-147602-84096-142419-141387-149795
3276.50-146677-139707-122658-196059-174733-128920
3279.39-117125-184918-113518-152436-152213-172148
3282.28-171040-220747-200132-167008-108220-163415
3285.18-161984-223971-148692-133410-144882-132606
3288.07-133717-141446-162731-109705-174319-123355
3290.96-162377-98178-161482-196331-164783-154984
3293.85-192015-174166-147888-124840-212053-178982
3296.75-174046-174841-73857-213577-111555-174219
3299.64-192730-184589-137634-168999-140962-106722
3302.53-154298-163877-163928-120778-196098-211145
3305.42-164319-133863-213395-206923-195530-209512
3308.32-221936-134416-190770-111577-159862-135862
3311.21-158281-203211-159626-232913-113597-227765
3314.10-201979-158473-250042-186860-184568-193913
3317.00-201445-211590-121783-137870-124381-182415
3319.89-163741-157734-223382-184529-170593-169971
3322.78-156924-202625-192456-200021-223926-173424
3325.67-133768-217948-171601-182203-265719-218244
3328.57-238488-211554-149811-228676-158470-254051
3331.46-208512-198504-219870-150215-154581-243334
3334.35-83406-205498-185857-192185-106788-174071
3337.24-304100-221664-215287-295847-221182-202620
3340.14-248271-201454-150153-167684-182184-207761
3343.03-105712-145560-117116-231947-116647-207394
3345.92-235869-309583-282452-256801-350056-195639
3348.82-119456-82324-39777-108492-89944-266526
3351.71-272276-275835-285085-171782-283660-218340
3354.60-192901-194281-194575-247748-235958-210648
3357.49-209365-199182-257873-174564-195949-88877
3360.39-167851-157554-111782-271365-239470-264150
3363.28-272912-176015-310636-263077-278229-231372
3366.17-220842-245953-139358-148624-162251-211374
3369.06-206658-246292-236965-201287-195089-156623
3371.96-181962-141853-181478-217174-206176-222402
3374.85-148803-168831-198977-161723-212138-287036
3377.74-241249-214826-156061-249324-162760-209567
3380.64-197735-273212-145930-193706-254476-208455
3383.53-184769-202903-170520-268588-188719-258509
3386.42-192380-226131-280215-170732-179253-250772
3389.31-125406-159820-286100-190947-143782-217964
3392.21-172132-226783-219931-180283-249423-204494
3395.10-231749-170663-209247-169649-135823-259055
3397.99-205365-271148-238698-197114-236212-213927
3400.88-158292-198296-175668-299483-197964-224938
3403.78-192008-204783-207460-131115-243567-204296
3406.67-278789-212186-278502-169647-130201-250068
3409.56-197644-129037-319860-177524-290654-175210
3412.46-158455-279379-184741-122508-219545-233060
3415.35-214273-292214-213235-156858-245016-216777
3418.24-238896-189046-249594-124681-301614-308250
3421.13-189459-137176-136040-181348-156902-273014
3424.03-262210-158677-206926-210829-184310-246965
3426.92-181028-131638-238722-258796-209055-221475
3429.81-224130-180305-230926-184555-328717-245839
3432.70-219818-139147-241958-164706-224405-168140
3435.60-192883-133586-258465-233653-198654-183098
3438.49-223378-222686-175539-226338-226648-185766
3441.38-244009-349505-229113-107106-165878-254259
3444.28-205632-299994-200572-204931-257826-235415
3447.17-183017-247574-165681-154256-131241-241161
3450.06-233114-155790-208554-179805-155532-206131
3452.95-277705-210596-164883-259108-199268-111877
3455.85-164480-250584-229982-219783-140567-216281
3458.74-237983-252212-174866-203579-225850-224832
3461.63-176069-193152-215835-195203-185660-173149
3464.52-162500-274027-189438-211310-156065-80383
3467.42-205936-181840-167156-144886-171499-255767
3470.31-162295-335315-143211-211619-254007-191265
3473.20-192887-160176-203826-194107-242576-94623
3476.10-189594-246051-225549-141332-185866-225694
3478.99-221400-177027-232731-195144-155408-159897
3481.88-265393-200100-227173-148276-198946-195322
3484.77-199732-244141-166024-210937-194086-341077
3487.67-113285-185548-153481-176095-208457-171227
3490.56-187283-168692-217367-201066-196781-117169
3493.45-161608-169734-236580-197640-228861-160760
3496.34-182545-174246-213180-197962-184306-243042
3499.24-218575-177201-259300-112058-161205-260552
3502.13-212709-150674-245772-182180-227346-114358
3505.02-199138-151430-153200-112475-242228-231119
3507.92-221873-209509-196447-201893-195519-141251
3510.81-177005-197147-165083-215321-202055-153775
3513.70-190924-196356-215324-222130-102398-225427
3516.59-130683-171089-150135-164701-204591-233020
3519.49-201601-249813-247433-149771-247799-180799
3522.38-184584-207192-170457-145841-208488-138288
3525.27-222441-161958-220735-194932-198541-144580
3528.16-212422-249096-237246-195924-218669-256834
3531.06-159360-181152-256733-127612-199050-201708
3533.95-244582-174113-128409-185429-183672-253192
3536.84-190150-285592-139893-240731-203672-256670
3539.74-174990-231546-248821-236772-159598-245171
3542.63-185560-138286-300563-268383-227245-225894
3545.52-205908-159821-195846-162385-134020-152970
3548.41-178644-210517-196044-218984-181432-242526
3551.31-186511-188286-253709-169049-244050-179778
3554.20-151804-251778-216595-219979-253952-232077
3557.09-205559-222735-191767-161557-292430-236573
3559.98-263222-201715-178639-212414-151496-113135
3562.88-227771-222799-145072-180435-188293-216852
3565.77-163888-171097-192257-153024-208511-220851
3568.66-214264-215542-179586-213800-166176-149148
3571.56-205556-189810-278969-135280-233855-237084
3574.45-159611-154249-127614-177549-239426-189259
3577.34-277408-201919-214287-148347-181562-285421
3580.23-266118-269330-189982-183134-208728-154289
3583.13-167401-181129-117129-183013-274722-215208
3586.02-281916-191213-314724-182748-194324-206444
3588.91-158534-170848-237719-200326-193074-224647
3591.80-227739-250766-173200-236256-256079-271105
3594.70-261762-185161-204750-205023-248216-231627
3597.59-146818-218412-138448-182603-221932-239249
3600.48-164932-155053-152486-285843-158988-189044
3603.38-221346-260370-223457-217498-211457-161159
3606.27-265389-232869-241786-157523-141908-239802
3609.16-226837-215351-138442-221231-165327-197560
3612.05-207140-172214-191882-140961-295944-166837
3614.95-192274-255565-141227-175605-233953-209232
3617.84-152742-155355-171870-205737-323093-207527
3620.73-179846-219237-239546-222937-188129-198643
3623.62-184539-224265-169097-178540-184961-209226
3626.52-200320-221418-203815-300745-187095-236003
3629.41-225719-180510-217093-146214-189534-229909
3632.30-236804-194715-168478-153132-201027-173289
3635.20-212362-156274-231194-196707-173804-178861
3638.09-178959-248934-252772-203882-187886-288333
3640.98-264196-228915-231297-229284-236555-170709
3643.87-195520-160487-231208-154326-270873-252777
3646.77-175088-168758-207502-186506-183156-148406
3649.66-162496-228336-257455-257801-227937-186820
3652.55-107677-237690-209628-181764-225875-196017
3655.44-135629-271167-221412-165507-158024-26357
3658.34-178425-133995-201580-233979-227827-233133
3661.23-180157-209965-275001-169068-175056-153831
3664.12-242918-166056-124399-200858-183186-186002
3667.02-184495-190198-214556-262337-157073-196638
3669.91-240919-254513-173804-231670-158354-181655
3672.80-230369-148205-158986-206325-225473-194205
3675.69-223141-183172-127584-97449-124977-160670
3678.59-204814-98020-144102-107916-189621-186800
3681.48-164758-140997-172048-116398-142856-143614
3684.37-137809-205782-134984-134322-130395-173124
3687.26-128300-178906-220933-67342-87386-151669
3690.16-209789-257576-224871-190608-79599-139441
3693.05-123995-198700-166589-107576-106747-130210
3695.94-221590-173205-129163-215773-182541-163463
3698.84-230045-174761-201568-168499-130965-185565
3701.73-176840-124995-252809-155900-196965-221709
3704.62-212252-205718-194998-245045-237592-229826
3707.51-212307-265773-247856-252333-223825-210507
3710.41-170913-231300-368015-286466-159614-194498
3713.30-268313-289043-198223-200888-298969-247012
3716.19-208006-258631-225069-195973-299555-322618
3719.08-170822-238137-234982-316376-238478-325613
3721.98-297518-234849-257326-271116-258824-330067
3724.87-258084-350095-209477-291480-234091-219552
3727.76-302512-234940-276639-227669-305213-241434
3730.66-280313-292693-340682-256820-350165-319034
3733.55-279747-283499-301175-360249-224801-332013
3736.44-314009-226447-318283-259665-238867-240295
3739.33-265967-233923-344066-341552-282302-231783
3742.23-310053-404783-272510-351555-535573-338710
3745.12-305439-319185-319795-232695-289584-156552
3748.01-213030-355714-485610-276055-346811-339909
3750.90-280088-398736-415673-249277-277069-293202
3753.80-224873-269059-293745-313132-276071-293701
3756.69-366481-293047-305033-242924-323000-272680
3759.58-353436-239694-294446-266347-299357-248264
3762.48-310949-249662-340309-199079-300317-267705
3765.37-221111-226464-242666-306801-290230-252866
3768.26-355924-256935-240823-281168-284349-300164
3771.15-292933-247878-316541-299718-220352-184352
3774.05-245097-291404-242892-219242-250466-249938
3776.94-325885-295742-204976-301786-286060-248766
3779.83-230839-265166-285098-239803-259108-236841
3782.72-213430-292442-249421-223599-318640-258547
3785.62-243426-274317-239872-238074-206832-210726
3788.51-251260-295199-246387-194178-251516-234976
3791.40-240140-212790-302174-233987-209796-292485
3794.30-186434-223249-180595-278207-252719-206523
3797.19-258561-227288-196858-227822-168863-248810
3800.08-169742-286100-397046-244215-213009-271406
3802.97-201131-227177-211085-191096-232179-222134
3805.87-201650-254414-335209-187354-208516-271066
3808.76-257714-253656-206925-197065-246898-257079
3811.65-178605-155963-155222-204591-243837-196051
3814.54-174267-183065-279331-251795-213831-248596
3817.44-245478-241482-248917-171463-219749-242943
3820.33-247891-193438-317628-214323-238106-193336
3823.22-232514-221289-201705-245579-198341-229271
3826.12-160582-170069-216106-200687-284612-165458
3829.01-156148-157712-238409-207842-218134-253314
3831.90-125024-171285-242731-251952-183647-280587
3834.79-255036-176158-214781-245442-202931-356554
3837.69-305680-194079-292632-165687-223001-310983
3840.58-238067-222031-219872-234577-250646-261764
3843.47-247339-201852-212613-133996-228728-219258
3846.36-239546-167697-276134-200198-256397-143181
3849.26-243688-169895-265835-241209-272343-337789
3852.15-165504-166389-259821-364405-259958-251599
3855.04-240881-227477-226989-202557-326146-183597
3857.94-261939-286855-299233-213272-200626-190362
3860.83-148876-175286-242589-267065-174940-212048
3863.72-250274-212747-253261-268849-235211-204157
3866.61-188001-120700-182747-179529-255212-204826
3869.51-321245-295944-237047-203553-252763-172965
3872.40-196177-181070-183075-184276-243767-218630
3875.29-177436-178268-197049-174876-228431-223442
3878.18-224660-139277-189784-297593-227256-302979
3881.08-178806-267700-131456-284118-214072-258272
3883.97-249247-204302-335148-271483-231856-222576
3886.86-237182-297628-246113-182604-226380-152224
3889.76-229954-278700-345548-263101-264654-159281
3892.65-190391-214560-232590-276679-230963-182304
3895.54-324692-196841-218568-205623-214643-139475
3898.43-234503-249464-193651-172024-268721-204306
3901.33-277458-214335-242548-221843-253196-311683
3904.22-267795-161540-239804-230889-243611-197999
3907.11-152763-163768-231074-208550-161177-190664
3910.00-272733-149901-176829-241781-235359-204967
3912.90-143291-250726-246528-251743-246641-208955
3915.79-217859-219980-217251-246628-215892-253881
3918.68-235257-196116-239310-168049-185112-244289
3921.58-213047-245731-272168-227615-325790-233868
3924.47-244444-211732-160063-145450-250086-233618
3927.36-263590-165867-291216-201991-144537-219622
3930.25-254351-261956-254449-201093-304788-219354
3933.15-215078-112500-237921-238216-274485-240256
3936.04-231369-251143-315735-211763-311550-266297
3938.93-234506-199422-194492-192706-210689-197489
3941.82-331373-199414-280022-198947-244353-262076
3944.72-185369-270824-172872-237609-266614-212119
3947.61-242919-193965-191739-243339-278327-209622
3950.50-189020-178493-276505-320554-174856-209686
3953.40-224526-272420-186497-269759-178605-226907
3956.29-354063-234665-258967-329830-195409-191690
3959.18-171353-195178-267813-302490-242968-213303
3962.07-196517-268977-193022-268475-278268-196973
3964.97-275341-207583-222686-223515-220743-197713
3967.86-276073-192866-266164-275452-211717-246448
3970.75-222536-223266-292362-197903-190026-252364
3973.64-207706-295960
##END=
