##TITLE=FREON 114
##JCAMP-DX=4.24
##DATA TYPE=INFRARED SPECTRUM
##CLASS=COBLENTZ
##ORIGIN=DOW CHEMICAL COMPANY
##OWNER=COBLENTZ SOCIETY
Collection (C) 2018 copyright by the U.S. Secretary of Commerce
on behalf of the United States of America. All rights reserved.
##DATE=1976/07/01
##NAMES=1,2-dichloro-1,1,2,2-tetrafluoroethane
CRYOFLUORANE
##CAS REGISTRY NO=76-14-2
##MOLFORM=C2 Cl2 F4
##SOURCE REFERENCE=COBLENTZ NO. 10481
##$NIST SOURCE=COBLENTZ
##$NIST IMAGE=cob-r10481
##SPECTROMETER/DATA SYSTEM=PERKIN-ELMER 180
##INSTRUMENT PARAMETERS=I0 MODE
##STATE=GAS (6.5 mmHg, N2 ADDED, TOTAL PRESSURE 600 mmHg)
##PATH LENGTH=5 CM CELL
##SAMPLING PROCEDURE=TRANSMISSION
##RESOLUTION=2
##DATA PROCESSING=DIGITIZED BY NIST FROM HARD COPY (FROM TWO SEGMENTS)
##XUNITS=1/CM
##YUNITS=TRANSMITTANCE
##XFACTOR=1.000000
##YFACTOR=1
##DELTAX=1.559463
##FIRSTX=242.495
##LASTX=4022.63
##FIRSTY=0.004
##MAXX=4022.63
##MINX=242.495
##MAXY=0.957
##MINY=0.004
##NPOINTS=2425
##XYDATA=(X++(Y..Y))
242.495000 0.0040 0.0040 0.0060 0.0060 0.0060
250.292315 0.0060 0.0060 0.0060 0.0060 0.0060
258.089631 0.0060 0.0060 0.0060 0.0060 0.0060
265.886946 0.0060 0.0060 0.0060 0.0060 0.0060
273.684261 0.0060 0.0060 0.0070 0.0070 0.0070
281.481577 0.0090 0.0090 0.0090 0.0100 0.0100
289.278892 0.0100 0.0120 0.0130 0.0150 0.0180
297.076207 0.0210 0.0240 0.0270 0.0280 0.0280
304.873523 0.0330 0.0370 0.0420 0.0450 0.0470
312.670838 0.0500 0.0510 0.0560 0.0600 0.0719
320.468153 0.0740 0.0770 0.0830 0.0910 0.0980
328.265469 0.1099 0.1180 0.1260 0.1349 0.1390
336.062784 0.1480 0.1640 0.1790 0.1830 0.1940
343.860099 0.1990 0.2169 0.2319 0.2469 0.2609
351.657415 0.2650 0.2730 0.2850 0.3000 0.3159
359.454730 0.3230 0.3369 0.3440 0.3579 0.3669
367.252045 0.3890 0.4170 0.4310 0.4370 0.4480
375.049361 0.4629 0.4769 0.4869 0.4999 0.5089
382.846676 0.5130 0.5280 0.5440 0.5560 0.5680
390.643991 0.5790 0.5880 0.5999 0.6099 0.6229
398.441306 0.6360 0.6470 0.6550 0.6640 0.6730
406.238622 0.6859 0.6999 0.7139 0.7210 0.7289
414.035937 0.7350 0.7440 0.7550 0.7620 0.7650
421.833252 0.7700 0.7750 0.7790 0.7939 0.7990
429.630568 0.8030 0.8080 0.8140 0.8220 0.8290
437.427883 0.8350 0.8410 0.8460 0.8510 0.8599
445.225198 0.8600 0.8640 0.8690 0.8780 0.8810
453.022514 0.8840 0.8870 0.8920 0.8960 0.8990
460.819829 0.8990 0.9010 0.9020 0.9080 0.9100
468.617144 0.9100 0.9110 0.9110 0.9140 0.9190
476.414460 0.9200 0.9220 0.9220 0.9240 0.9250
484.211775 0.9270 0.9270 0.9270 0.9270 0.9270
492.009090 0.9270 0.9270 0.9270 0.9300 0.9300
499.806406 0.9310 0.9310 0.9310 0.9340 0.9360
507.603721 0.9370 0.9390 0.9400 0.9400 0.9400
515.401036 0.9420 0.9450 0.9480 0.9480 0.9490
523.198352 0.9490 0.9480 0.9480 0.9480 0.9490
530.995667 0.9490 0.9490 0.9510 0.9510 0.9520
538.792982 0.9520 0.9520 0.9510 0.9490 0.9490
546.590298 0.9490 0.9490 0.9490 0.9490 0.9510
554.387613 0.9520 0.9540 0.9540 0.9550 0.9550
562.184928 0.9550 0.9550 0.9570 0.9570 0.9550
569.982244 0.9540 0.9520 0.9520 0.9510 0.9480
577.779559 0.9480 0.9460 0.9460 0.9450 0.9430
585.576874 0.9370 0.9310 0.9280 0.9220 0.9190
593.374190 0.9110 0.9040 0.8901 0.8761 0.8661
601.171505 0.8570 0.8510 0.8430 0.8350 0.8320
608.968820 0.8310 0.8320 0.8340 0.8350 0.8400
616.766136 0.8550 0.8730 0.8860 0.8960 0.9080
624.563451 0.9190 0.9310 0.9400 0.9480 0.9490
632.360766 0.9490 0.9510 0.9520 0.9550 0.9550
640.158082 0.9540 0.9520 0.9510 0.9510 0.9490
647.955397 0.9480 0.9480 0.9460 0.9450 0.9430
655.752712 0.9400 0.9310 0.9250 0.9220 0.9190
663.550027 0.9170 0.9110 0.9020 0.9010 0.9010
671.347343 0.9010 0.9010 0.9020 0.9070 0.9140
679.144658 0.9240 0.9280 0.9310 0.9360 0.9420
686.941973 0.9490 0.9510 0.9520 0.9520 0.9540
694.739289 0.9550 0.9570 0.9570 0.9570 0.9570
702.536604 0.9570 0.9550 0.9540 0.9540 0.9520
710.333919 0.9510 0.9490 0.9480 0.9460 0.9430
718.131235 0.9390 0.9360 0.9310 0.9280 0.9240
725.928550 0.9200 0.9170 0.9130 0.9110 0.9130
733.725865 0.9140 0.9190 0.9240 0.9280 0.9310
741.523181 0.9390 0.9400 0.9460 0.9490 0.9510
749.320496 0.9520 0.9520 0.9520 0.9520 0.9490
757.117811 0.9490 0.9510 0.9510 0.9520 0.9520
764.915127 0.9540 0.9550 0.9570 0.9570 0.9570
772.712442 0.9570 0.9570 0.9570 0.9570 0.9540
780.509757 0.9540 0.9540 0.9520 0.9510 0.9510
788.307073 0.9510 0.9490 0.9490 0.9490 0.9490
796.104388 0.9490 0.9490 0.9490 0.9490 0.9490
803.901703 0.9460 0.9450 0.9420 0.9390 0.9390
811.699019 0.9330 0.9300 0.9200 0.9110 0.8931
819.496334 0.8720 0.8570 0.8410 0.8260 0.7940
827.293649 0.7461 0.6593 0.6062 0.5632 0.5093
835.090965 0.4079 0.3399 0.2720 0.2060 0.1731
842.888280 0.1471 0.1360 0.1350 0.1360 0.1509
850.685595 0.1671 0.1940 0.2030 0.2470 0.2850
858.482911 0.6672 0.7817 0.7820 0.7750 0.7591
866.280226 0.7370 0.7260 0.7050 0.6930 0.6790
874.077541 0.6650 0.6500 0.6361 0.6241 0.6210
881.874857 0.6200 0.6210 0.6270 0.6350 0.6510
889.672172 0.6789 0.6910 0.7049 0.7199 0.7319
897.469487 0.7490 0.7550 0.7550 0.7460 0.7260
905.266803 0.7080 0.6452 0.5743 0.4924 0.4403
913.064118 0.3688 0.3110 0.2850 0.2610 0.2320
920.861433 0.2110 0.2030 0.2030 0.2229 0.2499
928.658748 0.2721 0.2941 0.3492 0.7149 0.7380
936.456064 0.7500 0.7530 0.7500 0.7470 0.7520
944.253379 0.7590 0.7680 0.7810 0.7960 0.8130
952.050694 0.8280 0.8440 0.8599 0.8729 0.8949
959.848010 0.8990 0.9040 0.9100 0.9110 0.9190
967.645325 0.9220 0.9240 0.9240 0.9240 0.9250
975.442640 0.9250 0.9250 0.9240 0.9240 0.9240
983.239956 0.9220 0.9220 0.9220 0.9200 0.9200
991.037271 0.9200 0.9200 0.9200 0.9200 0.9190
998.834586 0.9170 0.9170 0.9160 0.9160 0.9160
1006.631902 0.9140 0.9130 0.9130 0.9130 0.9110
1014.429217 0.9110 0.9050 0.9010 0.8920 0.8870
1022.226532 0.8810 0.8670 0.8540 0.8230 0.8030
1030.023848 0.7371 0.7151 0.6881 0.6452 0.6122
1037.821163 0.5437 0.4368 0.3489 0.2410 0.2080
1045.618478 0.1830 0.1591 0.1351 0.1131 0.1130
1053.415794 0.1170 0.1261 0.1550 0.1790 0.2060
1061.213109 0.2619 0.5903 0.6528 0.8452 0.8749
1069.010424 0.8860 0.8890 0.8900 0.8920 0.8920
1076.807740 0.8920 0.8900 0.8840 0.8780 0.8750
1084.605055 0.8720 0.8630 0.8520 0.8380 0.8250
1092.402370 0.8190 0.8080 0.7681 0.7521 0.7371
1100.199686 0.7210 0.7060 0.6910 0.6760 0.6610
1107.997001 0.6181 0.5921 0.5820 0.5651 0.5451
1115.794316 0.5129 0.4900 0.4719 0.3900 0.3580
1123.591632 0.3160 0.2960 0.2721 0.2431 0.2141
1131.388947 0.1759 0.1549 0.1320 0.1240 0.1180
1139.186262 0.1180 0.1200 0.1240 0.1449 0.1699
1146.983578 0.1961 0.2321 0.2781 0.3320 0.4539
1154.780893 0.6297 0.6589 0.6730 0.6730 0.6561
1162.578208 0.6319 0.6059 0.5829 0.5480 0.5090
1170.375524 0.4461 0.3791 0.2932 0.2522 0.1943
1178.172839 0.1549 0.1319 0.1030 0.0740 0.0530
1185.970154 0.0420 0.0410 0.0420 0.0530 0.0590
1193.767469 0.0680 0.0790 0.0830 0.1070 0.1450
1201.564785 0.2119 0.2699 0.3348 0.4008 0.4548
1209.362100 0.6742 0.7291 0.7780 0.7780 0.7760
1217.159415 0.7520 0.7340 0.7081 0.6801 0.6681
1224.956731 0.6389 0.6210 0.6210 0.6230 0.6380
1232.754046 0.6500 0.6700 0.6909 0.7030 0.7269
1240.551361 0.7430 0.7550 0.7580 0.7590 0.7590
1248.348677 0.7590 0.7580 0.7440 0.7291 0.7141
1256.145992 0.6959 0.6789 0.6319 0.6010 0.5790
1263.943307 0.5680 0.5540 0.5420 0.5340 0.5340
1271.740623 0.5441 0.5851 0.6041 0.6360 0.6650
1279.537938 0.7289 0.7719 0.7870 0.7940 0.7970
1287.335253 0.8020 0.8030 0.8100 0.8170 0.8230
1295.132569 0.8290 0.8430 0.8550 0.8729 0.8859
1302.929884 0.8980 0.9020 0.9070 0.9130 0.9200
1310.727199 0.9220 0.9220 0.9220 0.9220 0.9220
1318.524515 0.9250 0.9270 0.9280 0.9280 0.9300
1326.321830 0.9300 0.9300 0.9300 0.9300 0.9300
1334.119145 0.9300 0.9300 0.9280 0.9280 0.9250
1341.916461 0.9250 0.9240 0.9240 0.9220 0.9220
1349.713776 0.9220 0.9220 0.9220 0.9220 0.9220
1357.511091 0.9240 0.9240 0.9220 0.9220 0.9220
1365.308407 0.9200 0.9200 0.9200 0.9200 0.9220
1373.105722 0.9220 0.9220 0.9220 0.9240 0.9250
1380.903037 0.9280 0.9280 0.9300 0.9300 0.9300
1388.700353 0.9300 0.9300 0.9300 0.9300 0.9280
1396.497668 0.9280 0.9270 0.9270 0.9250 0.9250
1404.294983 0.9250 0.9250 0.9250 0.9250 0.9250
1412.092299 0.9240 0.9240 0.9220 0.9220 0.9200
1419.889614 0.9200 0.9200 0.9200 0.9190 0.9190
1427.686929 0.9190 0.9190 0.9200 0.9220 0.9220
1435.484245 0.9220 0.9240 0.9240 0.9250 0.9250
1443.281560 0.9250 0.9250 0.9250 0.9250 0.9250
1451.078875 0.9240 0.9240 0.9240 0.9240 0.9240
1458.876190 0.9240 0.9240 0.9240 0.9250 0.9250
1466.673506 0.9250 0.9250 0.9270 0.9270 0.9280
1474.470821 0.9300 0.9310 0.9310 0.9310 0.9330
1482.268136 0.9330 0.9330 0.9310 0.9300 0.9300
1490.065452 0.9280 0.9280 0.9300 0.9310 0.9330
1497.862767 0.9340 0.9340 0.9340 0.9340 0.9340
1505.660082 0.9390 0.9400 0.9400 0.9400 0.9400
1513.457398 0.9400 0.9400 0.9370 0.9370 0.9390
1521.254713 0.9390 0.9390 0.9400 0.9400 0.9390
1529.052028 0.9390 0.9390 0.9370 0.9370 0.9340
1536.849344 0.9340 0.9330 0.9330 0.9330 0.9340
1544.646659 0.9360 0.9370 0.9370 0.9390 0.9400
1552.443974 0.9400 0.9370 0.9360 0.9360 0.9370
1560.241290 0.9370 0.9390 0.9400 0.9400 0.9400
1568.038605 0.9400 0.9400 0.9400 0.9400 0.9400
1575.835920 0.9400 0.9390 0.9390 0.9390 0.9370
1583.633236 0.9360 0.9340 0.9340 0.9330 0.9330
1591.430551 0.9330 0.9330 0.9310 0.9310 0.9310
1599.227866 0.9310 0.9310 0.9310 0.9310 0.9310
1607.025182 0.9310 0.9330 0.9330 0.9340 0.9340
1614.822497 0.9340 0.9340 0.9340 0.9340 0.9340
1622.619812 0.9340 0.9360 0.9360 0.9360 0.9360
1630.417128 0.9360 0.9360 0.9370 0.9370 0.9390
1638.214443 0.9400 0.9400 0.9400 0.9400 0.9400
1646.011758 0.9390 0.9390 0.9390 0.9390 0.9360
1653.809074 0.9360 0.9360 0.9360 0.9360 0.9360
1661.606389 0.9340 0.9330 0.9330 0.9330 0.9330
1669.403704 0.9330 0.9330 0.9360 0.9360 0.9370
1677.201020 0.9360 0.9360 0.9340 0.9340 0.9340
1684.998335 0.9330 0.9330 0.9330 0.9310 0.9310
1692.795650 0.9330 0.9330 0.9340 0.9340 0.9340
1700.592966 0.9370 0.9370 0.9370 0.9390 0.9400
1708.390281 0.9400 0.9370 0.9330 0.9330 0.9330
1716.187596 0.9340 0.9340 0.9340 0.9370 0.9370
1723.984911 0.9360 0.9340 0.9330 0.9330 0.9330
1731.782227 0.9330 0.9330 0.9340 0.9370 0.9370
1739.579542 0.9390 0.9390 0.9390 0.9390 0.9370
1747.376857 0.9370 0.9370 0.9370 0.9370 0.9390
1755.174173 0.9390 0.9400 0.9400 0.9400 0.9400
1762.971488 0.9400 0.9400 0.9400 0.9400 0.9400
1770.768803 0.9400 0.9390 0.9370 0.9370 0.9370
1778.566119 0.9370 0.9360 0.9330 0.9330 0.9330
1786.363434 0.9340 0.9360 0.9390 0.9390 0.9390
1794.160749 0.9370 0.9360 0.9360 0.9360 0.9360
1801.958065 0.9340 0.9340 0.9340 0.9340 0.9340
1809.755380 0.9340 0.9340 0.9340 0.9340 0.9340
1817.552695 0.9340 0.9340 0.9340 0.9340 0.9340
1825.350011 0.9340 0.9340 0.9340 0.9340 0.9340
1833.147326 0.9340 0.9330 0.9310 0.9310 0.9310
1840.944641 0.9310 0.9310 0.9300 0.9300 0.9300
1848.741957 0.9300 0.9310 0.9310 0.9330 0.9340
1856.539272 0.9340 0.9340 0.9360 0.9360 0.9340
1864.336587 0.9340 0.9330 0.9330 0.9310 0.9310
1872.133903 0.9300 0.9300 0.9300 0.9310 0.9310
1879.931218 0.9310 0.9330 0.9340 0.9340 0.9340
1887.728533 0.9340 0.9340 0.9340 0.9340 0.9340
1895.525849 0.9340 0.9330 0.9330 0.9330 0.9340
1903.323164 0.9340 0.9340 0.9340 0.9330 0.9330
1911.120479 0.9310 0.9310 0.9330 0.9330 0.9330
1918.917795 0.9330 0.9330 0.9330 0.9330 0.9330
1926.715110 0.9330 0.9310 0.9300 0.9300 0.9310
1934.512425 0.9310 0.9310 0.9310 0.9310 0.9310
1942.309741 0.9310 0.9310 0.9330 0.9310 0.9310
1950.107056 0.9310 0.9310 0.9310 0.9310 0.9310
1957.904371 0.9310 0.9310 0.9310 0.9310 0.9310
1965.701687 0.9310 0.9310 0.9310 0.9330 0.9340
1973.499002 0.9340 0.9340 0.9340 0.9340 0.9340
1981.296317 0.9330 0.9330 0.9330 0.9310 0.9310
1989.093633 0.9300 0.9300 0.9280 0.9300 0.9300
1996.890948 0.9310 0.9310 0.9280 0.9280 0.9280
2004.688263 0.9276 0.9271 0.9270 0.9270 0.9274
2012.485578 0.9279 0.9287 0.9296 0.9300 0.9300
2020.282894 0.9300 0.9300 0.9300 0.9300 0.9300
2028.080209 0.9300 0.9301 0.9306 0.9310 0.9310
2035.877524 0.9310 0.9310 0.9310 0.9310 0.9310
2043.674840 0.9310 0.9310 0.9310 0.9310 0.9310
2051.472155 0.9310 0.9310 0.9310 0.9307 0.9302
2059.269470 0.9300 0.9300 0.9295 0.9285 0.9280
2067.066786 0.9280 0.9280 0.9280 0.9280 0.9280
2074.864101 0.9279 0.9274 0.9270 0.9270 0.9269
2082.661416 0.9259 0.9250 0.9245 0.9240 0.9240
2090.458732 0.9240 0.9240 0.9240 0.9240 0.9240
2098.256047 0.9240 0.9240 0.9240 0.9240 0.9240
2106.053362 0.9240 0.9240 0.9240 0.9242 0.9247
2113.850678 0.9253 0.9263 0.9270 0.9270 0.9270
2121.647993 0.9270 0.9268 0.9254 0.9240 0.9240
2129.445308 0.9240 0.9240 0.9240 0.9240 0.9240
2137.242624 0.9240 0.9240 0.9240 0.9240 0.9240
2145.039939 0.9240 0.9240 0.9240 0.9240 0.9240
2152.837254 0.9240 0.9240 0.9240 0.9240 0.9237
2160.634570 0.9227 0.9220 0.9220 0.9220 0.9220
2168.431885 0.9220 0.9220 0.9220 0.9220 0.9220
2176.229200 0.9220 0.9220 0.9220 0.9220 0.9220
2184.026516 0.9220 0.9213 0.9204 0.9200 0.9200
2191.823831 0.9197 0.9192 0.9185 0.9176 0.9168
2199.621146 0.9163 0.9155 0.9141 0.9128 0.9118
2207.418462 0.9110 0.9110 0.9110 0.9110 0.9110
2215.215777 0.9110 0.9110 0.9110 0.9110 0.9110
2223.013092 0.9110 0.9110 0.9110 0.9117 0.9127
2230.810408 0.9130 0.9130 0.9130 0.9130 0.9125
2238.607723 0.9116 0.9110 0.9110 0.9110 0.9110
2246.405038 0.9110 0.9110 0.9110 0.9110 0.9110
2254.202354 0.9110 0.9110 0.9110 0.9110 0.9110
2261.999669 0.9110 0.9106 0.9101 0.9100 0.9100
2269.796984 0.9100 0.9100 0.9103 0.9108 0.9110
2277.594299 0.9110 0.9108 0.9103 0.9096 0.9086
2285.391615 0.9075 0.9060 0.9050 0.9050 0.9049
2293.188930 0.9044 0.9041 0.9046 0.9051 0.9060
2300.986245 0.9070 0.9070 0.9070 0.9083 0.9098
2308.783561 0.9100 0.9100 0.9104 0.9108 0.9110
2316.580876 0.9110 0.9110 0.9110 0.9107 0.9103
2324.378191 0.9100 0.9100 0.9094 0.9080 0.9067
2332.175507 0.9057 0.9050 0.9050 0.9049 0.9044
2339.972822 0.9040 0.9040 0.9040 0.9045 0.9050
2347.770137 0.9050 0.9050 0.9058 0.9068 0.9074
2355.567453 0.9079 0.9091 0.9105 0.9110 0.9110
2363.364768 0.9110 0.9110 0.9110 0.9110 0.9110
2371.162083 0.9110 0.9108 0.9104 0.9100 0.9100
2378.959399 0.9103 0.9117 0.9130 0.9135 0.9140
2386.756714 0.9140 0.9140 0.9140 0.9140 0.9140
2394.554029 0.9140 0.9136 0.9131 0.9123 0.9113
2402.351345 0.9110 0.9110 0.9107 0.9102 0.9100
2410.148660 0.9100 0.9102 0.9107 0.9110 0.9110
2417.945975 0.9110 0.9110 0.9109 0.9104 0.9100
2425.743291 0.9100 0.9099 0.9090 0.9080 0.9080
2433.540606 0.9080 0.9080 0.9080 0.9080 0.9080
2441.337921 0.9087 0.9097 0.9103 0.9108 0.9110
2449.135237 0.9110 0.9110 0.9110 0.9110 0.9110
2456.932552 0.9110 0.9110 0.9110 0.9110 0.9110
2464.729867 0.9110 0.9112 0.9121 0.9130 0.9135
2472.527183 0.9140 0.9140 0.9140 0.9140 0.9140
2480.324498 0.9140 0.9140 0.9136 0.9131 0.9130
2488.121813 0.9130 0.9133 0.9138 0.9140 0.9140
2495.919129 0.9140 0.9140 0.9140 0.9140 0.9145
2503.716444 0.9159 0.9170 0.9170 0.9167 0.9147
2511.513759 0.9129 0.9119 0.9110 0.9110 0.9110
2519.311075 0.9110 0.9110 0.9110 0.9110 0.9110
2527.108390 0.9110 0.9110 0.9110 0.9110 0.9110
2534.905705 0.9110 0.9110 0.9110 0.9110 0.9114
2542.703020 0.9124 0.9130 0.9130 0.9131 0.9136
2550.500336 0.9140 0.9140 0.9139 0.9135 0.9130
2558.297651 0.9130 0.9130 0.9130 0.9130 0.9121
2566.094966 0.9112 0.9110 0.9110 0.9110 0.9110
2573.892282 0.9110 0.9110 0.9110 0.9110 0.9110
2581.689597 0.9110 0.9110 0.9110 0.9110 0.9110
2589.486912 0.9110 0.9110 0.9110 0.9110 0.9111
2597.284228 0.9121 0.9129 0.9120 0.9110 0.9110
2605.081543 0.9110 0.9110 0.9110 0.9110 0.9110
2612.878858 0.9110 0.9110 0.9110 0.9110 0.9110
2620.676174 0.9110 0.9110 0.9110 0.9110 0.9110
2628.473489 0.9114 0.9123 0.9130 0.9130 0.9128
2636.270804 0.9118 0.9112 0.9121 0.9130 0.9130
2644.068120 0.9130 0.9130 0.9130 0.9130 0.9130
2651.865435 0.9130 0.9130 0.9130 0.9130 0.9130
2659.662750 0.9130 0.9130 0.9130 0.9130 0.9130
2667.460066 0.9130 0.9130 0.9130 0.9130 0.9130
2675.257381 0.9130 0.9130 0.9130 0.9130 0.9130
2683.054696 0.9130 0.9130 0.9130 0.9120 0.9110
2690.852012 0.9110 0.9110 0.9110 0.9110 0.9110
2698.649327 0.9110 0.9110 0.9110 0.9110 0.9110
2706.446642 0.9110 0.9110 0.9110 0.9110 0.9110
2714.243958 0.9110 0.9114 0.9123 0.9127 0.9118
2722.041273 0.9110 0.9110 0.9110 0.9110 0.9110
2729.838588 0.9105 0.9100 0.9100 0.9100 0.9104
2737.635904 0.9109 0.9110 0.9110 0.9110 0.9110
2745.433219 0.9110 0.9110 0.9110 0.9110 0.9110
2753.230534 0.9110 0.9108 0.9103 0.9100 0.9100
2761.027850 0.9097 0.9087 0.9080 0.9080 0.9080
2768.825165 0.9080 0.9080 0.9080 0.9080 0.9080
2776.622480 0.9080 0.9080 0.9080 0.9076 0.9071
2784.419796 0.9070 0.9070 0.9070 0.9070 0.9070
2792.217111 0.9070 0.9070 0.9070 0.9070 0.9070
2800.014426 0.9070 0.9070 0.9070 0.9070 0.9070
2807.811741 0.9070 0.9070 0.9070 0.9070 0.9070
2815.609057 0.9070 0.9070 0.9070 0.9070 0.9070
2823.406372 0.9061 0.9052 0.9050 0.9050 0.9050
2831.203687 0.9050 0.9047 0.9042 0.9026 0.9002
2839.001003 0.8988 0.8983 0.8976 0.8966 0.8964
2846.798318 0.8973 0.8981 0.8986 0.8993 0.9007
2854.595633 0.9020 0.9020 0.9020 0.9020 0.9020
2862.392949 0.9020 0.9020 0.9020 0.9020 0.9020
2870.190264 0.9020 0.9020 0.9020 0.9017 0.9012
2877.987579 0.9010 0.9010 0.9010 0.9010 0.9006
2885.784895 0.8996 0.8988 0.8983 0.8980 0.8980
2893.582210 0.8978 0.8968 0.8958 0.8943 0.8930
2901.379525 0.8930 0.8930 0.8925 0.8920 0.8911
2909.176841 0.8901 0.8896 0.8891 0.8890 0.8890
2916.974156 0.8890 0.8890 0.8893 0.8898 0.8900
2924.771471 0.8900 0.8905 0.8914 0.8926 0.8940
2932.568787 0.8952 0.8956 0.8962 0.8972 0.8983
2940.366102 0.8997 0.9010 0.9010 0.9010 0.9015
2948.163417 0.9020 0.9020 0.9020 0.9020 0.9020
2955.960733 0.9020 0.9020 0.9020 0.9020 0.9020
2963.758048 0.9020 0.9020 0.9020 0.9020 0.9020
2971.555363 0.9020 0.9020 0.9020 0.9020 0.9020
2979.352679 0.9020 0.9020 0.9020 0.9020 0.9020
2987.149994 0.9020 0.9020 0.9020 0.9020 0.9020
2994.947309 0.9020 0.9020 0.9020 0.9020 0.9016
3002.744625 0.9012 0.9010 0.9010 0.9010 0.9010
3010.541940 0.9010 0.9010 0.9010 0.9010 0.9010
3018.339255 0.9010 0.9010 0.9010 0.9010 0.9010
3026.136571 0.9010 0.9010 0.9010 0.9010 0.9010
3033.933886 0.9010 0.9010 0.9010 0.9010 0.9002
3041.731201 0.8992 0.8990 0.8990 0.8990 0.8990
3049.528517 0.8990 0.8990 0.8990 0.8990 0.8990
3057.325832 0.8990 0.8996 0.9010 0.9020 0.9020
3065.123147 0.9019 0.9014 0.9007 0.8993 0.8980
3072.920462 0.8980 0.8980 0.8980 0.8980 0.8980
3080.717778 0.8980 0.8980 0.8980 0.8972 0.8963
3088.515093 0.8960 0.8960 0.8966 0.8976 0.8975
3096.312408 0.8965 0.8960 0.8960 0.8960 0.8960
3104.109724 0.8960 0.8960 0.8967 0.8991 0.9010
3111.907039 0.9010 0.9010 0.9010 0.9010 0.9000
3119.704354 0.8990 0.8985 0.8981 0.8972 0.8962
3127.501670 0.8960 0.8960 0.8956 0.8952 0.8950
3135.298985 0.8950 0.8950 0.8950 0.8950 0.8950
3143.096300 0.8946 0.8936 0.8930 0.8930 0.8933
3150.893616 0.8942 0.8950 0.8950 0.8950 0.8950
3158.690931 0.8950 0.8950 0.8950 0.8950 0.8950
3166.488246 0.8941 0.8932 0.8930 0.8930 0.8930
3174.285562 0.8930 0.8937 0.8946 0.8950 0.8950
3182.082877 0.8950 0.8950 0.8943 0.8929 0.8920
3189.880192 0.8920 0.8920 0.8920 0.8918 0.8908
3197.677508 0.8900 0.8900 0.8900 0.8900 0.8900
3205.474823 0.8900 0.8900 0.8909 0.8919 0.8920
3213.272138 0.8920 0.8920 0.8920 0.8913 0.8904
3221.069454 0.8900 0.8900 0.8905 0.8915 0.8920
3228.866769 0.8920 0.8920 0.8920 0.8917 0.8907
3236.664084 0.8900 0.8900 0.8900 0.8900 0.8900
3244.461400 0.8900 0.8900 0.8895 0.8890 0.8881
3252.258715 0.8871 0.8870 0.8870 0.8866 0.8861
3260.056030 0.8860 0.8860 0.8860 0.8860 0.8854
3267.853346 0.8845 0.8840 0.8840 0.8840 0.8840
3275.650661 0.8840 0.8840 0.8840 0.8840 0.8840
3283.447976 0.8840 0.8840 0.8840 0.8840 0.8840
3291.245292 0.8840 0.8840 0.8840 0.8840 0.8840
3299.042607 0.8840 0.8840 0.8840 0.8840 0.8840
3306.839922 0.8840 0.8846 0.8855 0.8860 0.8860
3314.637238 0.8860 0.8860 0.8860 0.8860 0.8860
3322.434553 0.8860 0.8858 0.8848 0.8840 0.8840
3330.231868 0.8839 0.8830 0.8820 0.8820 0.8820
3338.029184 0.8820 0.8820 0.8820 0.8820 0.8820
3345.826499 0.8820 0.8827 0.8836 0.8846 0.8856
3353.623814 0.8860 0.8860 0.8856 0.8846 0.8840
3361.421129 0.8840 0.8840 0.8840 0.8840 0.8840
3369.218445 0.8842 0.8851 0.8860 0.8860 0.8860
3377.015760 0.8850 0.8841 0.8840 0.8840 0.8832
3384.813075 0.8822 0.8816 0.8811 0.8810 0.8810
3392.610391 0.8810 0.8810 0.8818 0.8833 0.8840
3400.407706 0.8840 0.8840 0.8840 0.8840 0.8840
3408.205021 0.8840 0.8840 0.8840 0.8840 0.8840
3416.002337 0.8840 0.8840 0.8840 0.8840 0.8840
3423.799652 0.8840 0.8840 0.8840 0.8832 0.8822
3431.596967 0.8820 0.8820 0.8817 0.8812 0.8804
3439.394283 0.8795 0.8790 0.8790 0.8794 0.8804
3447.191598 0.8810 0.8810 0.8810 0.8810 0.8810
3454.988913 0.8810 0.8811 0.8816 0.8821 0.8830
3462.786229 0.8840 0.8840 0.8840 0.8840 0.8840
3470.583544 0.8840 0.8840 0.8840 0.8840 0.8833
3478.380859 0.8824 0.8820 0.8820 0.8825 0.8835
3486.178175 0.8840 0.8840 0.8840 0.8840 0.8837
3493.975490 0.8827 0.8820 0.8820 0.8820 0.8820
3501.772805 0.8821 0.8830 0.8840 0.8840 0.8840
3509.570121 0.8840 0.8840 0.8840 0.8840 0.8847
3517.367436 0.8857 0.8853 0.8843 0.8840 0.8840
3525.164751 0.8840 0.8840 0.8840 0.8840 0.8840
3532.962067 0.8840 0.8845 0.8859 0.8870 0.8870
3540.759382 0.8867 0.8853 0.8840 0.8840 0.8840
3548.556697 0.8840 0.8840 0.8840 0.8840 0.8849
3556.354013 0.8858 0.8860 0.8860 0.8864 0.8868
3564.151328 0.8870 0.8870 0.8876 0.8885 0.8892
3571.948643 0.8897 0.8900 0.8900 0.8898 0.8894
3579.745959 0.8887 0.8878 0.8869 0.8864 0.8859
3587.543274 0.8849 0.8840 0.8840 0.8840 0.8849
3595.340589 0.8859 0.8860 0.8860 0.8864 0.8869
3603.137905 0.8881 0.8895 0.8900 0.8900 0.8891
3610.935220 0.8877 0.8870 0.8870 0.8868 0.8863
3618.732535 0.8860 0.8860 0.8860 0.8860 0.8858
3626.529850 0.8848 0.8840 0.8840 0.8840 0.8840
3634.327166 0.8840 0.8840 0.8840 0.8840 0.8840
3642.124481 0.8848 0.8858 0.8860 0.8860 0.8860
3649.921796 0.8860 0.8860 0.8860 0.8860 0.8860
3657.719112 0.8860 0.8860 0.8860 0.8860 0.8860
3665.516427 0.8860 0.8860 0.8860 0.8860 0.8860
3673.313742 0.8860 0.8860 0.8860 0.8860 0.8860
3681.111058 0.8860 0.8860 0.8860 0.8860 0.8860
3688.908373 0.8860 0.8860 0.8860 0.8860 0.8860
3696.705688 0.8860 0.8860 0.8860 0.8860 0.8860
3704.503004 0.8860 0.8860 0.8860 0.8860 0.8860
3712.300319 0.8860 0.8860 0.8860 0.8860 0.8860
3720.097634 0.8860 0.8860 0.8851 0.8841 0.8840
3727.894950 0.8840 0.8840 0.8840 0.8840 0.8840
3735.692265 0.8840 0.8840 0.8846 0.8855 0.8855
3743.489580 0.8846 0.8840 0.8840 0.8840 0.8840
3751.286896 0.8840 0.8840 0.8840 0.8840 0.8840
3759.084211 0.8840 0.8840 0.8840 0.8840 0.8850
3766.881526 0.8859 0.8851 0.8842 0.8840 0.8840
3774.678842 0.8840 0.8840 0.8840 0.8840 0.8840
3782.476157 0.8840 0.8832 0.8818 0.8810 0.8810
3790.273472 0.8812 0.8817 0.8820 0.8820 0.8820
3798.070788 0.8820 0.8820 0.8820 0.8820 0.8820
3805.868103 0.8820 0.8830 0.8839 0.8840 0.8840
3813.665418 0.8840 0.8840 0.8840 0.8840 0.8840
3821.462734 0.8840 0.8840 0.8840 0.8840 0.8840
3829.260049 0.8835 0.8826 0.8820 0.8820 0.8820
3837.057364 0.8820 0.8820 0.8820 0.8820 0.8820
3844.854680 0.8820 0.8820 0.8820 0.8820 0.8820
3852.651995 0.8839 0.8858 0.8860 0.8860 0.8860
3860.449310 0.8860 0.8860 0.8860 0.8854 0.8844
3868.246626 0.8840 0.8840 0.8835 0.8826 0.8820
3876.043941 0.8820 0.8824 0.8833 0.8843 0.8852
3883.841256 0.8860 0.8860 0.8860 0.8860 0.8860
3891.638571 0.8860 0.8860 0.8860 0.8860 0.8860
3899.435887 0.8860 0.8860 0.8860 0.8853 0.8843
3907.233202 0.8840 0.8840 0.8840 0.8840 0.8845
3915.030517 0.8855 0.8862 0.8867 0.8870 0.8870
3922.827833 0.8869 0.8864 0.8860 0.8860 0.8860
3930.625148 0.8860 0.8859 0.8850 0.8840 0.8840
3938.422463 0.8840 0.8840 0.8840 0.8832 0.8822
3946.219779 0.8820 0.8820 0.8820 0.8820 0.8826
3954.017094 0.8836 0.8840 0.8840 0.8840 0.8840
3961.814409 0.8840 0.8840 0.8837 0.8827 0.8820
3969.611725 0.8820 0.8820 0.8820 0.8820 0.8820
3977.409040 0.8820 0.8820 0.8820 0.8820 0.8820
3985.206355 0.8816 0.8811 0.8810 0.8810 0.8810
3993.003671 0.8810 0.8810 0.8810 0.8810 0.8810
4000.800986 0.8810 0.8810 0.8810 0.8810 0.8810
4008.598301 0.8810 0.8810 0.8810 0.8810 0.8810
4016.395617 0.8810 0.8810 0.8810 0.8800 0.8790
##END=
