##TITLE=Hexafluoroethane
##JCAMP-DX=4.24
##DATA TYPE=INFRARED SPECTRUM
##CLASS=IUPAC A
##ORIGIN=NIST, Analytical Chemistry Division, 301-975-3108
##OWNER=COPYRIGHT (C) 2000 by the U.S. Secretary of Commerce
##DATE=00/02/01
##$SPECTRA VERSION=1.10
##$UNCERTAINTY IN Y=2.0 % relative (B=1.0E-04,C=8.6E-09,D=5.8E-12)
##CAS NAME=Hexafluoroethane
##CAS REGISTRY NO=76-16-4
##MOLFORM=C2 F6
##MP=-94 C
##BP=-79 C
##$NIST SOURCE=QUANT-IR
##SPECTROMETER/DATA SYSTEM=IFS66V (Bruker)
##INSTRUMENT PARAMETERS=KBr Beam Splitter; MCT Detector; Multipass cell
##STATE=gas
##SAMPLE DESCRIPTION=Hexafluoroethane Primary Gas Standard
##PRESSURE=101.3 Pa
##TEMPERATURE=23 C
##SAMPLING PROCEDURE=1 L/min Flow
##RESOLUTION=1.9290
##DATA PROCESSING=Triangular Apodization
##XUNITS=cm-1
##YUNITS=(micromol/mol)-1m-1 (base 10)
##XFACTOR=1.0
##YFACTOR=14.551E-12
##DELTAX=0.9645
##FIRSTX=575.653
##LASTX=3974.609
##FIRSTY=1.24E-06
##MAXX=3973.64
##MINX=575.65
##MAXY=.012343
##MINY=-.0000106
##NPOINTS=3526
##XYDATA=(X++(Y..Y))
575.65 85539 23849-2387 139700 97559 48231
580.47 46920-17167-110364-50788 57459 50767
586.26 174137 69636 30271 144013-58477-276864
592.05-145153-23740 34818 3806-89725-4226
597.83 84085 158668 137011 13022-265 22408
603.62 26157 65062 72084 10515-27910 7458
609.40 51381 105039 108900 5058-62607-65956
615.19-83034-59349-56988-1755 52076-13571
620.97-14032 10258 10101 2142 9073 27334
626.76 2132-43345-28014-9448-73663-72677
632.54-4319 3092-84904-55007-20346-58459
638.33 22498 2131-56838-26713 51181 8940
644.11-48305-25532-23910-11400-20503-31842
649.90-22694-40475-68159-31676-21712-37346
655.69-43601-16907-24200-50099-12153-59965
661.47-101529-61345-21449-11726-26621-227011
667.26-279364-74036 42831 29628-39087-79655
673.04-92994-86159-33691-11791-19534-57957
678.83-25632-19268-25962-2419 27733 16606
684.61 57217 69113 63576 48648 63948 136002
690.40 216986 285636 422049 527060 729260 1008132
696.18 1456369 2056058 2895437 3990404 5486167 7244811
701.97 9358942 11446728 13498881 15050274 16079446 16030382
707.75 15425056 14072676 13833801 11640419 17732779 41999522
713.54 38239248 17393135 13036986 13436471 15526514 17115572
719.33 18239785 18187697 17355292 15713966 13651736 11198145
725.11 8926473 6850119 5124089 3718051 2705750 1939360
730.90 1431434 1075069 822219 592726 450777 354946
736.68 321195 235207 154822 138743 135669 110551
742.47 92901 35806 25354 32719 12778-14811
748.25-231 33039 46403-267-11580 3722
754.04 3574-21500-41301-55561-12580 18662
759.82-2125-13640-728 2374-9815-31121
765.61-20004-3550-8685-8753-27483-18022
771.39 25629 30635 33784-413-5474 23624
777.18-7017-52763-37180-7406-21784-36943
782.97-12513-29683-19662-23996-78397-43533
788.75-9959-51611-67802-56908-78288-106424
794.54-71258-42089-60740-80595-66958-64919
800.32-75299-55872-77260-75001-48721-55174
806.11-59661-66875-53300-50602-50786-53162
811.89-68304-65131-35942-26109-66161-71620
817.68-70856-74610-71974-79311-44612-48900
823.46-70934-64326-41332-25060-41223-30038
829.25 1484-13468-20216-18248-29006-38058
835.03-43069-44985-4 14093-42562-68464
840.82-60758-26000-36941-72178-63716-32835
846.61-24220-45946-35340-53744-72078-64135
852.39-78780-77466-60943-78161-92114-51738
858.18-33523-46714-54632-69060-35183-29134
863.96-34573-30242-49228-37900-16285-21570
869.75-32249-25500-27324-20936-58-8181
875.53-19158-4029-21405-38786-4383-9621
881.32-31080-25239-14954 5770-18631-7884
887.10 32690 18642 35764 47508 27243 29273
892.89 58084 61178 71910 75224 66876 69762
898.67 79088 66814 52297 88980 89581 77401
904.46 85917 60079 31699 15784 28023 29038
910.25 16-22740-15902-6077-26926-39219
916.03-44769-50377-56658-54369-54485-58956
921.82-56695-60081-85791-85469-65252-67045
927.60-48721-37080-45205-49831-50171-58493
933.39-75267-78516-52346-47093-51695-48969
939.17-44325-43754-40785-45333-69223-71112
944.96-53547-58608-56856-50612-62483-63390
950.74-55120-54722-52820-36149-30883-45840
956.53-64213-72356-63712-78120-75083-66775
962.31-71440-68050-57633-69381-78059-52458
968.10-46013-74178-73730-64676-78323-81596
973.89-72318-57080-47671-43776-38284-29249
979.67-24682-34198-20304-28036-31520-18461
985.46-14960 494 1040-9069-3788 8401
991.24 4400-1419 7903 23559 20607 11268
997.03 24074 29229 45143 63088 51405 33404
1002.81 50691 73779 88314 103578 106567 110250
1008.60 113612 129182 157983 168571 164045 176880
1014.38 209153 214517 231162 236489 222781 234736
1020.17 287594 345179 396999 424866 407906 388247
1025.95 384395 376566 370025 352454 326951 326176
1031.74 329416 316428 306948 265583 237734 207181
1037.53 195019 175914 148417 116480 87669 77242
1043.31 75337 83259 87236 85624 83765 91445
1049.10 109400 114324 121231 126306 145522 145000
1054.88 150506 165076 194197 216093 207359 237656
1060.67 306947 295713 282446 275508 262416 262812
1066.45 274606 280305 295833 309186 312130 300434
1072.24 288560 246589 256354 255277 264802 289319
1078.02 333838 374739 427490 467273 540936 639119
1083.81 773868 920304 1141572 1406552 1724705 2083466
1089.59 2561795 3100715 3762516 4498249 5440058 6642423
1095.38 8367339 10822491 14454444 19686921 26866807 35435943
1101.17 43993051 52666149 64094899 77046912 89610402 100149591
1106.95 107590998 110591313 109975306 107401554 108913603 122057296
1112.74 158795207 213503793 252452085 198409662 101049204 87136532
1118.52 113062187 135724455 153718108 159735063 154378183 138075584
1124.31 115425568 89951563 66048799 45910667 31022236 20932713
1130.09 14940220 11597589 9951372 9048866 8648985 8538787
1135.88 9113376 10574652 11656092 9858895 8652541 8975577
1141.66 7774005 7205176 7874217 8356282 8419806 7996822
1147.45 7259040 6266530 5204090 4173015 3288607 2499995
1153.23 1905069 1451656 1106487 873159 740061 635568
1159.02 573804 523578 504101 494527 489983 475362
1164.81 471831 467837 499346 521084 516060 514126
1170.59 529546 540588 568379 579186 581822 598738
1176.38 636911 667613 690504 730715 780642 835987
1182.16 892539 949017 1031458 1114792 1201722 1303237
1187.95 1425434 1582776 1761004 1968515 2200956 2469075
1193.73 2788013 3123898 3515027 3947515 4378656 4842136
1199.52 5274298 5677096 6011866 6251223 6431529 6574899
1205.30 6558036 6296819 5742472 4986126 4373740 3980903
1211.09 3676579 3439827 3244378 3114107 3022995 2997376
1216.87 3023883 3112451 3252464 3485199 3783621 4151984
1222.66 4610255 5239286 6053337 7163480 8613670 10608698
1228.45 13299164 16972143 21874436 28421921 37003913 48242357
1234.23 62798681 81455612 104814718 133837096 169182270 212011606
1240.02 263584953 324421424 393838117 470918852 553447131 637295911
1245.80 715058991 780348644 827231968 848240825 838254453 808470463
1251.59 754075956 698455703 628043613 512579943 408617057 321449343
1257.37 248214665 193057940 147828560 112651105 84670512 63453048
1263.16 47013395 34814834 25614162 19021838 14168982 10808540
1268.94 8363542 6724560 5511542 4695741 4060317 3647480
1274.73 3286979 3012208 2750680 2576596 2402919 2266617
1280.51 2116285 2028844 1927533 1851795 1774345 1725050
1286.30 1661605 1635199 1600389 1585373 1567222 1574307
1292.09 1574089 1585038 1608533 1644847 1679793 1754861
1297.87 1849766 1977562 2125069 2323186 2523915 2737552
1303.66 2958700 3173841 3384620 3633502 3896887 4180358
1309.44 4483701 4825527 5167504 5525415 5899918 6273552
1315.23 6640162 7018151 7406680 7781423 8101667 8401637
1321.01 8659318 8896076 9133250 9355914 9518521 9628814
1326.80 9654496 9570872 9441900 9305339 9143291 8924002
1332.58 8645029 8319394 7920522 7496802 7086223 6697337
1338.37 6332638 5971455 5592685 5199305 4792256 4400794
1344.15 4026554 3660447 3299096 2957950 2641955 2320745
1349.94 2004331 1726096 1471829 1258915 1100056 962357
1355.73 841401 728385 594735 481821 400575 331095
1361.51 273881 246199 222819 192081 169832 159437
1367.30 156247 147494 132974 127356 117129 97355
1373.08 90862 99713 105560 107836 91521 75056
1378.87 76766 66941 38254 24657 31933 34120
1384.65 44503 50564 32708 32950 36847 32437
1390.44 24783 15259 10733 24435 24492 12597
1396.22 12369 16523 12897-15463-11815 9280
1402.01 10720 11471-7327-2630 6043-6548
1407.79-19426-24713-31350-41796-35119-23783
1413.58-29478-34083-33649-37995-59632-62712
1419.37-37617-19751-15714-17153-11397-4432
1425.15-44592-55751 25417 90737 113603 129003
1430.94 159998 192790 217983 251751 280360 307065
1436.72 350418 386373 415417 433619 437244 449810
1442.51 455619 461318 477579 505712 525328 525503
1448.29 529522 540951 547343 561894 560899 540624
1454.08 506953 461965 438568 446295 443406 440522
1459.86 442771 438184 432397 416627 394308 383207
1465.65 373801 348747 321301 289301 262109 222814
1471.43 179103 148802 130336 110411 69669 49802
1477.22 51257 43091 23482 6239-11423-16267
1483.01-13828-24350-30100-32201-32306-37817
1488.79-58117-55460-30130-13184-22337-34283
1494.58-54285-73460-70610-76799-76621-70056
1500.36-68894-76161-77260-84119-109206-112694
1506.15-100195-77441-70511-73262-63339-51678
1511.93-43580-38824-50897-75105-84084-58499
1517.72-15965 12570-35798-97100-85903-65029
1523.50-65799-73238-56431-50289-64127-67314
1529.29-72869-84283-84307-91413-100852-93745
1535.07-96170-97425-105342-143749-155163-134213
1540.86-119283-111689-102966-96504-82474-72429
1546.65-80381-81574-83658-79773-71360-59551
1552.43-68738-95478-84997-74135-94966-119503
1558.22-122896-119654-102566-77074-65391-73625
1564.00-83860-73790-67706-66103-78075-97135
1569.79-94502-96656-87959-69351-67861-104992
1575.57-109448-68967-60661-64867-56842-52041
1581.36-65662-58717-36886-6012 24166 38161
1587.14 52257 77406 114408 142085 186860 251658
1592.93 308581 365386 421328 471162 504388 518362
1598.71 510805 491870 483167 485378 464734 415566
1604.50 353456 309921 292073 279607 274944 290997
1610.29 317596 338464 363457 385323 419809 428954
1616.07 455799 538919 603394 653119 693866 729041
1621.86 748951 779965 822357 858771 886490 903361
1627.64 943189 984796 999037 1017297 1020577 1002882
1633.43 950453 840247 762837 715128 662380 634735
1639.21 615682 586815 557432 502059 426406 345843
1645.00 279582 231368 170145 128641 99994 64862
1650.78-7292-83190-76166-52313-53675-52052
1656.57-54425-62170-69734-80804-98557-112120
1662.35-114337-102783-97443-105107-106571-117608
1668.14-121686-95556-97265-112948-105354-96782
1673.93-104082-101804-83125-77794-76878-74900
1679.71-74316-74515-79876-97108-125807-97172
1685.50-51496-48536-47632-42377-38224-38708
1691.28-33666-36607-42752-70028-77015-41301
1697.07-24583-36215-72111-51005-5006 7200
1702.85 11019 11535 29919 51766 64645 80940
1708.64 99502 125489 152812 161959 181013 203037
1714.42 231787 248318 256228 308502 365719 397843
1720.21 429035 468733 491834 514071 550028 586301
1725.99 606995 624802 654338 687892 714029 710698
1731.78 674537 643533 638788 641772 625337 594725
1737.57 564836 523273 498721 475510 431665 390281
1743.35 366816 345422 308818 263715 219679 198495
1749.14 172567 128692 112886 104079 75134 49302
1754.92 36792 25912 20890 14726-936-21762
1760.71-41274-39980-41034-48152-43689-47681
1766.49-59498-55451-57259-64657-66228-86026
1772.28-84425-75248-86384-83879-81764-92520
1778.06-92040-89124-92221-98912-112404-111461
1783.85-116990-120506-122501-131693-123244-117621
1789.63-124531-134346-153281-145096-121083-128422
1795.42-135245-124711-124089-142212-143293-123225
1801.21-114550-120866-133982-128709-118486-115906
1806.99-109960-123074-126845-125794-125966-118973
1812.78-120584-125594-129450-120999-110369-105529
1818.56-105967-108661-94849-85697-83583-91493
1824.35-103918-89998-86091-76092-85112-112886
1830.13-84140-70658-83498-73114-70006-70545
1835.92-65831-66013-66556-69427-61190-51524
1841.70-46971-55513-42215-3263 8346 15994
1847.49 42433 73135 94535 131221 170482 203858
1853.27 246101 276061 303928 340995 373363 412719
1859.06 445772 467395 485565 508796 556142 616301
1864.85 653980 679181 689808 650643 585410 529462
1870.63 488999 448933 410550 405465 394099 362267
1876.42 338281 299600 254825 202454 151330 97286
1882.20 57097 37636 4066-26843-54060-78983
1887.99-91509-98076-106023-110092-112083-116607
1893.77-122930-129455-123211-116958-123739-130834
1899.56-125848-120914-117903-122711-123775-102867
1905.34-94019-92274-79787-76361-71373-53486
1911.13-45990-39805-24243-20119-20532-4907
1916.91 3956 13554 38236 60364 81784 77738
1922.70 46743 41541 61549 89811 119276 137516
1928.49 149454 140617 116603 104090 105396 119829
1934.27 136494 145079 172057 192484 147287 109014
1940.06 120190 151282 180280 198501 209388 202348
1945.84 192141 174604 161995 156876 149721 158378
1951.63 171191 185054 191927 176884 157144 151353
1957.41 218253 293557 228435 118646 65502 45423
1963.20 46307 36297 27623 13998 2508-13655
1968.98-42987-45911-53426-71725-82476-84327
1974.77-95184-109363-97480-93394-105692-108647
1980.55-119216-117263-109974-109181-102606-109992
1986.34-115776-115814-119309-112226-106418-114968
1992.13-116754-117330-121331-112828-110843-117801
1997.91-117174-116677-118888-123746-119890-115155
2003.70-110662-102021-103314-108955-108556-118546
2009.48-124846-120927-122120-123838-121637-118282
2015.27-113955-116858-119124-119967-123902-121670
2021.05-126610-121001-111799-122906-128643-127851
2026.84-128024-110797-103444-106713-98922-91484
2032.62-89741-83044-58828-34582-9081 20882
2038.41 56962 105065 164491 239153 328631 436012
2044.19 561865 704890 856639 1009545 1162980 1317264
2049.98 1466005 1580274 1648806 1675200 1642503 1567235
2055.77 1439947 1274312 1119553 926350 695132 514322
2061.55 376589 266064 175519 87757 34473-6047
2067.34-45597-61804-79296-101408-111617-115664
2073.12-120072-123879-125971-121427-127759-142544
2078.91-142587-133766-121449-117058-121991-130734
2084.69-132540-135162-139866-146090-143862-129266
2090.48-130037-122928-126371-124704-122955-142636
2096.26-140362-129016-122138-126755-132263-123897
2102.05-107956-111509-117533-118838-110876-112967
2107.83-115636-121189-124862-103024-100775-106436
2113.62-107243-95877-92197-98868-87919-74152
2119.41-83077-93926-86676-55912-39956-52093
2125.19-69269-58188-53002-69199-61074-58675
2130.98-60037-56676-47366-38641-53586-64507
2136.76-62792-59372-58490-75785-80585-89871
2142.55-90258-75332-78497-95712-111642-106881
2148.33-103212-109624-112262-115883-113767-108272
2154.12-114034-130680-136244-120687-119981-137500
2159.90-131708-128544-138596-130668-114295-114321
2165.69-128863-128014-107338-109752-135651-126739
2171.47-104278-113613-134707-134003-125501-130895
2177.26-131075-117486-115054-135023-146382-130104
2183.05-128692-144116-140749-138368-153900-155106
2188.83-142498-135524-150195-167375-168511-174939
2194.62-190254-194380-192449-207327-227738-255274
2200.40-284207-292461-297028-306777-321199-347425
2206.19-368355-393583-409172-422135-442770-454394
2211.97-471903-483655-487143-499363-504599-498322
2217.76-502810-495375-483012-481411-467548-469221
2223.54-492911-522088-568497-628774-686484-718643
2229.33-731268-712584-661063-479291-293091-351266
2235.11-448602-490485-536764-561080-579893-599230
2240.90-592258-584120-591595-597402-596396-592795
2246.69-588275-576544-545636-522047-501764-464926
2252.47-423435-380985-340699-310242-293021-267768
2258.26-239521-222005-216992-206377-195199-190726
2264.04-194991-194164-181018-173443-174457-184705
2269.83-179293-176370-178985-183802-193401-195252
2275.61-206330-209266-193298-172980-165811-183727
2281.40-201187-195114-180323-182780-183390-182949
2287.18-192828-192977-177487-171764-188768-203439
2292.97-203514-189089-173722-158764-141047-140942
2298.75-138449-146819-149455-151992-159893-160025
2304.54-132427-140658-159575-161914-167628-179307
2310.33-176829-171506-181416-181411-178162-169014
2316.11-185496-200813-206627-189425-202541-211110
2321.90-217368-206423-197195-192962-197437-185021
2327.68-173560-158354-133110-113830-79748-42541
2333.47-600 48876 111207 196413 278236 371767
2339.25 504659 641220 754656 801751 767662 801270
2345.04 933353 1020692 1024551 978519 930971 924543
2350.82 960203 983081 946989 858795 799249 788260
2356.61 788223 674415 381658 119089 13332-12725
2362.39-23017-36104-54862-76329-99062-126410
2368.18-145767-159722-167116-166686-158845-167527
2373.97-182845-161964-137708-135629-120212-99544
2379.75-86741-91353-94623-83767-84414-87809
2385.54-93299-107045-114057-125751-134015-128176
2391.32-124693-125941-130608-130092-124780-125260
2397.11-129461-120049-110124-124244-129071-133262
2402.89-138120-126403-136885-145176-141173-139347
2408.68-132164-136583-137533-131187-135093-128444
2414.46-131000-134523-128914-124413-114805-117553
2420.25-111250-107975-115159-102717-86255-84489
2426.04-87696-87064-98521-97425-78514-66025
2431.82-60085-49325-40273-44224-41593-22829
2437.61-10773-8897-2347-1168 16740 35745
2443.39 60288 67662 74260 102981 123706 146980
2449.18 164598 185557 220017 235953 259678 306295
2454.96 343831 371483 393432 413802 428000 439956
2460.75 458207 472346 479809 482970 482435 485685
2466.53 474823 467351 467877 459156 436686 391772
2472.32 337750 302730 259856 185472 95001 34701
2478.10 26308-14017-67730-96831-125402-144434
2483.89-163206-199668-221600-220181-228062-250639
2489.68-271701-287365-301180-321242-356976-387103
2495.46-406896-426677-463073-497324-505510-518707
2501.25-548920-580616-608503-622890-625881-664957
2507.03-692763-686926-687513-686743-689286-679761
2512.82-653523-614430-596837-582442-538840-476724
2518.60-409113-365117-324512-275625-232471-199556
2524.39-159813-115139-89073-58373-26776-4717
2530.17 22401 31641 33968 22857 9724 9544
2535.96 11606 14048 1956-15562-34704-47628
2541.74-54151-69041-100365-97477-80788-75981
2547.53-69490-75511-83107-75646-70944-79877
2553.32-87689-79616-75841-86193-87791-87977
2559.10-68072-64609-78434-73370-74311-82582
2564.89-97935-101384-94961-82189-71028-68927
2570.67-65435-75224-81296-74220-64643-72938
2576.46-83327-60032-67519-93062-90298-88764
2582.24-93459-98882-99396-94091-100384-109845
2588.03-118604-132887-130450-124431-118348-125256
2593.81-133926-132550-128014-122482-126930-125188
2599.60-128521-140271-144447-150738-153858-158068
2605.38-167201-168926-156175-156414-152188-146004
2611.17-158194-153611-158214-174038-173602-161417
2616.96-143817-151118-168952-173673-168558-167859
2622.74-160623-150011-158965-161641-164191-172616
2628.53-177684-167049-154145-166063-167773-151215
2634.31-148712-139539-128402-128802-142966-127668
2640.10-73211-57997-59409-53577-47488-24607
2645.88 21763 63454 100081 142157 179440 233898
2651.67 282052 332803 398311 470144 531590 574965
2657.45 634148 697678 760723 808615 830357 853272
2663.24 850827 828117 818277 789902 753832 724155
2669.02 659611 584753 521098 451438 393451 336967
2674.81 296079 261543 206529 145613 76653 12563
2680.60-27523-66573-98644-116678-153744-159844
2686.38-151676-167423-175110-171626-172817-172237
2692.17-161583-168413-181900-184436-174532-160766
2697.95-168826-173220-166553-166325-157399-136142
2703.74-121618-128950-138658-130111-127874-142718
2709.52-144906-138676-132228-129913-130630-129775
2715.31-117326-107024-124408-133231-132735-148721
2721.09-138688-132572-135240-124694-130754-136865
2726.88-136956-141799-144666-154295-142767-131485
2732.66-131162-124595-120788-127439-154214-154761
2738.45-136200-123786-126195-140757-145710-147697
2744.24-142985-132369-133114-131645-136735-138599
2750.02-147539-153312-150553-153926-157221-165210
2755.81-159946-153593-142160-151314-167557-151730
2761.59-150326-142911-148589-169018-163504-157501
2767.38-162377-181459-175747-155230-156122-164415
2773.16-160151-154308-170280-178277-172904-171597
2778.95-164830-162660-169389-172411-156794-136941
2784.73-152050-177892-166630-163696-177643-174880
2790.52-172294-161221-152029-163920-171056-163620
2796.30-168641-171320-172410-174908-174123-177532
2802.09-174305-180770-176685-158425-167564-173880
2807.88-168376-169174-175582-179885-168854-168370
2813.66-179260-169168-153338-153496-163496-157480
2819.45-158106-176947-162045-145734-140917-152863
2825.23-170931-173840-168342-147471-144309-179585
2831.02-177670-161247-175497-175234-165534-146433
2836.80-155404-168480-171750-184504-179481-174477
2842.59-170361-163447-164521-165734-154221-138448
2848.37-159912-172043-153956-148185-145623-145679
2854.16-147565-164350-156030-131009-136788-146120
2859.94-157810-153993-144470-158273-162837-178021
2865.73-185176-181231-177582-172926-160339-138451
2871.52-158799-168630-168041-167684-157985-167421
2877.30-155535-133496-141686-162608-181883-172276
2883.09-167133-170324-158741-168553-180478-172895
2888.87-167376-170112-163652-161994-178562-172537
2894.66-163455-171639-175779-178496-176789-177711
2900.44-164185-166870-183844-163315-157540-181957
2906.23-183256-168742-180490-175636-172513-191807
2912.01-187472-173979-164790-180092-195311-195747
2917.80-190633-186645-176976-174497-171269-158659
2923.58-172646-174702-174010-185774-178106-158114
2929.37-148662-171018-192178-194231-192840-179512
2935.16-170061-182930-186206-195110-177093-163790
2940.94-169316-159059-171022-190090-195694-209965
2946.73-182242-136129-166528-205172-192861-162223
2952.51-163294-184349-181735-158355-144698-141845
2958.30-176069-182324-156271-140040-148072-168373
2964.08-174158-185695-165040-167416-171319-157012
2969.87-167573-170355-175324-180362-173778-168837
2975.65-151457-134454-146120-166411-155971-140717
2981.44-154513-162520-161238-155894-145436-169387
2987.22-193114-183439-163529-148366-149354-160430
2993.01-157755-145627-160335-172130-161720-143678
2998.80-146857-166010-154117-146998-154073-149498
3004.58-146479-133258-142349-162973-157427-151027
3010.37-154463-146108-136416-142188-150423-159981
3016.15-166145-170164-163211-156131-156380-159580
3021.94-162421-165743-168768-174095-184550-188588
3027.72-173676-152611-153403-169019-180223-198316
3033.51-180541-165120-181663-176840-170321-168120
3039.29-193853-187759-163294-176363-168723-170552
3045.08-177176-167870-199342-198271-172216-155636
3050.86-149371-156899-157399-155901-166189-178675
3056.65-173705-177223-174503-165498-155314-147230
3062.44-151582-160493-169627-172600-165747-164688
3068.22-141097-125832-141187-138245-141575-151303
3074.01-155394-154324-142533-145640-156271-153266
3079.79-166850-174354-161085-153487-154967-173610
3085.58-179743-173594-148930-134119-146467-156993
3091.36-156966-158829-159566-143133-141753-159639
3097.15-149739-130127-142315-144625-141195-130307
3102.93-118598-133440-146164-148771-159622-158135
3108.72-150103-145323-142005-135831-122197-118614
3114.50-117424-132042-143822-134153-136178-137104
3120.29-136672-132796-127477-142814-131040-123916
3126.08-136750-140603-134573-123634-144420-145044
3131.86-130897-149184-147094-126582-137217-135459
3137.65-126956-129326-136679-161102-162817-150824
3143.43-133019-135227-132996-126268-137736-142687
3149.22-165645-155826-136631-156587-162997-137657
3155.00-135798-155586-166244-153577-124507-135670
3160.79-144254-145455-156983-159642-153146-156315
3166.57-184480-186081-156562-155316-152944-141682
3172.36-149156-156920-161494-150118-167992-198522
3178.14-194138-170674-166629-158782-140039-154963
3183.93-163151-165188-179135-187530-174148-162815
3189.72-155094-162557-174471-177126-188948-184549
3195.50-163554-164758-179068-179150-186239-167125
3201.29-137801-160367-193798-191790-198009-198089
3207.07-172858-160404-140493-135016-157802-166470
3212.86-175533-175571-167968-171308-154318-150095
3218.64-137808-127713-145106-161611-164116-155714
3224.43-152895-154337-173150-168797-146829-139953
3230.21-138680-157749-178928-173783-169210-158516
3236.00-172570-187623-166955-150725-143138-151172
3241.78-167765-173855-167008-176195-171872-144995
3247.57-146994-153980-156217-170832-166402-158547
3253.36-155857-160888-179821-179413-151143-144030
3259.14-154175-156430-158574-167213-162071-139560
3264.93-148776-155842-157164-173914-174618-165815
3270.71-158745-139069-137555-137229-133562-142519
3276.50-145333-155830-149490-143179-149579-166383
3282.28-185261-163914-156908-169618-149318-139023
3288.07-141697-143972-141694-144880-162627-170241
3293.85-162994-162754-172865-156084-149214-164864
3299.64-168155-150763-143042-151506-164050-175453
3305.42-176250-192624-196170-173482-151853-155238
3311.21-175093-181600-185223-196233-194467-191818
3317.00-175537-149859-158589-178552-182586-174057
3322.78-184529-196254-183884-181202-204089-220983
3328.57-203852-194033-207603-201438-182441-172622
3334.35-175203-173250-195105-233172-233490-222085
3340.14-194590-178023-166701-153050-167637-205027
3345.92-253961-266990-203683-115725-118407-206073
3351.71-250570-235305-217895-205343-218270-216315
3357.49-211148-193280-158486-162550-211921-242602
3363.28-244591-255194-239721-202806-174523-195073
3369.06-219526-205225-178454-174847-195518-194587
3374.85-178869-197505-227479-215666-197393-205462
3380.64-206250-206502-207080-200616-213581-221194
3386.42-221335-210934-189150-195336-198323-191544
3392.21-203752-211301-212167-198667-184564-208340
3397.99-230294-221649-201886-198609-220245-214269
3403.78-197704-195666-221680-230872-202236-192366
3409.56-210021-224714-212104-200982-192620-215903
3415.35-230020-211118-218885-211619-220922-231795
3421.13-179623-175279-216355-208188-202627-200259
3426.92-197010-219430-218563-208150-232132-234818
3432.70-200992-196438-188300-193817-212471-205410
3438.49-208260-208286-228130-241628-197238-208933
3444.28-234165-223300-221834-199847-176738-193213
3450.06-196841-184742-205459-215477-199819-180488
3455.85-203193-204909-205189-216082-207474-204706
3461.63-198067-193187-187332-204460-184830-158935
3467.42-171363-174716-204760-219332-212007-200934
3473.20-189924-191345-184152-196879-194462-197899
3478.99-206102-189434-194241-207413-191585-196873
3484.77-202768-208577-212986-179199-178525-184128
3490.56-187836-189249-167064-182009-203136-188127
3496.34-187603-198358-209053-201922-185245-196263
3502.13-201964-193475-177252-160462-174803-208519
3507.92-207675-191068-177359-181106-190085-184470
3513.70-193281-187073-169594-164718-178941-208642
3519.49-219157-206469-196234-185544-176028-179551
3525.27-192105-192348-192848-214809-218669-207722
3531.06-197004-189835-199006-186047-180833-212045
3536.84-215105-211187-216476-220054-218283-200645
3542.63-212039-237809-216460-187457-167826-167418
3548.41-191855-203275-204288-206010-206933-197491
3554.20-208382-225648-224296-207105-214160-234427
3559.98-214158-180983-175893-186766-183787-186703
3565.77-179543-185208-203848-204015-187476-182628
3571.56-200700-206909-195565-169161-181119-217730
3577.34-211755-196745-231403-234299-196682-179704
3583.13-168112-194701-232157-236705-217990-191050
3588.91-193511-205391-216270-219367-228610-242857
3594.70-219000-212729-209311-182718-192079-197482
3600.48-183888-197064-206465-222979-214645-210673
3606.27-220767-193956-199599-200390-186066-191283
3612.05-186994-194908-206737-195434-193415-190569
3617.84-177613-214560-223949-212270-211687-198275
3623.62-193653-188557-197874-215583-227721-219229
3629.41-200630-189305-205966-196673-178964-186111
3635.20-193937-192525-191552-215416-223336-235818
3640.98-238519-220836-200955-189212-209850-213825
3646.77-192954-184962-178227-209931-228990-192128
3652.55-189775-201328-193251-203083-174009-132859
3658.34-164297-208166-211838-211219-196988-183973
3664.12-178119-176306-185637-199112-206657-207513
3669.91-214927-197476-187298-181407-189455-201546
3675.69-169620-135908-149729-145051-145719-165932
3681.48-155994-142927-147138-156130-145762-149757
3687.26-161176-135334-154744-206495-170279-139415
3693.05-155110-139409-149760-172751-176306-187570
3698.84-187941-172844-166925-178761-192277-203863
3704.62-209985-221931-229921-238308-237689-214979
3710.41-248163-252548-227374-239853-237542-243431
3716.19-233000-245448-254080-241359-265868-280977
3721.98-266071-265920-284691-280306-257605-253068
3727.76-259561-261498-271510-289127-304337-301607
3733.55-296085-298012-291816-280681-266628-253824
3739.33-281016-299777-295338-322839-367482-360880
3745.12-311672-272316-248043-317800-346039-325124
3750.90-342094-311503-271200-275616-290375-305216
3756.69-302864-287801-293633-286428-276312-278715
3762.48-277413-270021-254062-248290-270436-287474
3768.26-275344-273321-281220-282137-263443-237778
3774.05-248220-246936-264215-273309-265311-258999
3779.83-255981-254866-244250-249949-259657-261629
3785.62-252025-232583-233170-248570-236103-233847
3791.40-242651-244378-232386-219996-232255-236229
3797.19-224057-211941-217297-265581-269362-233601
3802.97-220059-214029-222354-244901-240207-239553
3808.76-235483-222249-215941-184575-197210-203516
3814.54-212986-235785-236778-232961-218963-225381
3820.33-240071-235523-219766-216903-217388-201191
3826.12-192458-212658-197092-186883-213250-201792
3831.90-197180-223865-233713-221408-232501-269782
3837.69-251990-229818-244336-235072-233124-242104
3843.47-214531-198153-211961-220677-220450-209366
3849.26-215817-252571-246645-231274-269110-256886
3855.04-231626-238222-246309-257474-233500-190509
3860.83-199861-220403-218278-231327-238231-206252
3866.61-176993-198450-244685-257588-228042-202612
3872.40-189959-200722-205512-189413-200070-208513
3878.18-201089-232136-243297-218258-226376-238634
3883.97-253926-257247-241656-245586-220206-210652
3889.76-260623-263752-213268-216441-236060-235008
3895.54-229297-206229-202145-212741-214083-231295
3901.33-233387-240750-252955-228028-221387-201172
3907.11-188112-197778-200008-200563-208934-207127
3912.90-217352-237730-223391-219831-227160-230117
3918.68-217159-203751-215946-239011-254679-248881
3924.47-206303-197503-224283-227827-208798-216480
3930.25-240123-243387-223587-201100-230317-246171
3936.04-251157-263420-250384-217350-204267-231436
3941.82-243863-234267-230962-223053-227049-229318
3947.61-214176-228704-220055-223104-241051-223999
3953.40-228914-226890-244838-267565-250522-208372
3959.18-218538-250622-230074-227208-241204-238892
3964.97-227089-220730-223690-236073-241558-232849
3970.75-234891-226511-226425-255330
##END=
