##TITLE=SILICON DIOXIDE
##JCAMP-DX=4.24
##DATA TYPE=INFRARED SPECTRUM
##CLASS=COBLENTZ III
##ORIGIN=DOW CORNING CORP.
##OWNER=Copyright (C) 1987 by the Coblentz Society
Collection (C) 2018 copyright by the U.S. Secretary of Commerce
on behalf of the United States of America. All rights reserved.
##DATE=1966/02/04
##NAMES=dioxosilane
Silica
##CAS REGISTRY NO=7631-86-9
##MOLFORM=Si O2
##SOURCE REFERENCE=COBLENTZ NO. 5585
##$NIST SOURCE=COBLENTZ
##$NIST IMAGE=cob5585
##SPECTROMETER/DATA SYSTEM=PERKIN-ELMER 521 (GRATING)
##INSTRUMENT PARAMETERS=FILTERS AT 3150, 2500, 2000, 1150, 700, 410. GRATING CHANGES: 2000, 630
##STATE=SOLID (MULL)
$$ SEE 4662 FOR KBr DISC
##PATH LENGTH=
$$SPECTRAL CONTAMINATION DUE TO OIL AROUND 2925, 1460 AND 1375 CM^-^1
$$ THE SPECTRAL FEATURE (SMALL) AT 623 CM^-^1 IS AN ARTIFACT CAUSED BY GRATING CHANGE
##RESOLUTION=2
##XUNITS=1/CM
##YUNITS=TRANSMITTANCE
##XFACTOR=1.0
##YFACTOR=1
##FIRSTX=244
##LASTX=3806
##FIRSTY=0.7407
##MAXX=3806
##MINX=244
##MAXY=0.8736
##MINY=0.0361
##NPOINTS=3563
##XYDATA=(X++(Y..Y))
244.000000 0.7407 0.7413 0.7423 0.7433 0.7440
249.000000 0.7448 0.7463 0.7479 0.7495 0.7511
254.000000 0.7540 0.7572 0.7604 0.7637 0.7670
259.000000 0.7705 0.7742 0.7779 0.7817 0.7857
264.000000 0.7896 0.7936 0.7976 0.8010 0.8044
269.000000 0.8079 0.8113 0.8138 0.8155 0.8172
274.000000 0.8189 0.8206 0.8223 0.8238 0.8254
279.000000 0.8270 0.8285 0.8301 0.8316 0.8333
284.000000 0.8351 0.8369 0.8387 0.8405 0.8423
289.000000 0.8437 0.8450 0.8462 0.8474 0.8487
294.000000 0.8499 0.8512 0.8524 0.8536 0.8548
299.000000 0.8557 0.8567 0.8577 0.8586 0.8596
304.000000 0.8606 0.8615 0.8625 0.8634 0.8642
309.000000 0.8651 0.8660 0.8669 0.8678 0.8687
314.000000 0.8695 0.8699 0.8703 0.8707 0.8711
319.000000 0.8736 0.8719 0.8724 0.8725 0.8722
324.000000 0.8720 0.8718 0.8716 0.8713 0.8711
329.000000 0.8709 0.8705 0.8701 0.8696 0.8692
334.000000 0.8687 0.8683 0.8678 0.8674 0.8670
339.000000 0.8667 0.8663 0.8659 0.8655 0.8651
344.000000 0.8647 0.8643 0.8636 0.8629 0.8623
349.000000 0.8616 0.8609 0.8602 0.8596 0.8589
354.000000 0.8582 0.8576 0.8569 0.8559 0.8549
359.000000 0.8538 0.8528 0.8517 0.8507 0.8496
364.000000 0.8486 0.8475 0.8465 0.8454 0.8444
369.000000 0.8432 0.8420 0.8408 0.8395 0.8383
374.000000 0.8370 0.8358 0.8345 0.8333 0.8320
379.000000 0.8299 0.8273 0.8246 0.8220 0.8194
384.000000 0.8168 0.8142 0.8115 0.8086 0.8057
389.000000 0.8028 0.7999 0.7970 0.7941 0.7912
394.000000 0.7880 0.7842 0.7804 0.7766 0.7730
399.000000 0.7698 0.7665 0.7633 0.7601 0.7569
404.000000 0.7537 0.7505 0.7473 0.7434 0.7392
409.000000 0.7351 0.7309 0.7267 0.7225 0.7172
414.000000 0.7111 0.7050 0.6997 0.6960 0.6923
419.000000 0.6885 0.6848 0.6811 0.6774 0.6737
424.000000 0.6700 0.6655 0.6607 0.6559 0.6512
429.000000 0.6464 0.6416 0.6368 0.6316 0.6233
434.000000 0.6150 0.6066 0.5983 0.5906 0.5849
439.000000 0.5791 0.5734 0.5677 0.5619 0.5562
444.000000 0.5506 0.5451 0.5396 0.5341 0.5286
449.000000 0.5231 0.5176 0.5114 0.5049 0.4983
454.000000 0.4918 0.4853 0.4801 0.4755 0.4709
459.000000 0.4663 0.4617 0.4571 0.4525 0.4480
464.000000 0.4443 0.4407 0.4370 0.4334 0.4299
469.000000 0.4266 0.4233 0.4200 0.4187 0.4179
474.000000 0.4182 0.4187 0.4182 0.4197 0.4206
479.000000 0.4235 0.4265 0.4300 0.4341 0.4393
484.000000 0.4445 0.4496 0.4547 0.4599 0.4666
489.000000 0.4742 0.4818 0.4895 0.4974 0.5053
494.000000 0.5132 0.5199 0.5261 0.5323 0.5386
499.000000 0.5448 0.5523 0.5622 0.5720 0.5819
504.000000 0.5926 0.6037 0.6141 0.6233 0.6330
509.000000 0.6463 0.6595 0.6677 0.6755 0.6832
514.000000 0.6898 0.6965 0.7032 0.7090 0.7139
519.000000 0.7189 0.7238 0.7283 0.7318 0.7354
524.000000 0.7389 0.7425 0.7455 0.7481 0.7507
529.000000 0.7532 0.7558 0.7579 0.7598 0.7618
534.000000 0.7637 0.7656 0.7669 0.7677 0.7685
539.000000 0.7693 0.7701 0.7709 0.7716 0.7720
544.000000 0.7725 0.7729 0.7734 0.7738 0.7742
549.000000 0.7747 0.7751 0.7756 0.7761 0.7766
554.000000 0.7771 0.7776 0.7782 0.7789 0.7796
559.000000 0.7802 0.7809 0.7816 0.7822 0.7829
564.000000 0.7836 0.7842 0.7848 0.7854 0.7860
569.000000 0.7866 0.7872 0.7878 0.7884 0.7890
574.000000 0.7896 0.7902 0.7907 0.7913 0.7919
579.000000 0.7926 0.7933 0.7939 0.7946 0.7953
584.000000 0.7960 0.7967 0.7973 0.7980 0.7987
589.000000 0.7994 0.8001 0.8007 0.8014 0.8023
594.000000 0.8033 0.8043 0.8053 0.8064 0.8073
599.000000 0.8079 0.8085 0.8091 0.8098 0.8104
604.000000 0.8110 0.8116 0.8122 0.8128 0.8135
609.000000 0.8140 0.8144 0.8147 0.8151 0.8155
614.000000 0.8158 0.8162 0.8163 0.8149 0.8134
619.000000 0.8120 0.8084 0.8040 0.8002 0.7985
624.000000 0.7967 0.7956 0.7957 0.7957 0.7957
629.000000 0.7960 0.7962 0.7965 0.7967 0.7970
634.000000 0.7972 0.7974 0.7977 0.7979 0.7981
639.000000 0.7986 0.7990 0.7995 0.8000 0.8005
644.000000 0.8009 0.8014 0.8019 0.8024 0.8028
649.000000 0.8033 0.8040 0.8047 0.8054 0.8060
654.000000 0.8067 0.8069 0.8071 0.8072 0.8074
659.000000 0.8075 0.8077 0.8078 0.8080 0.8087
664.000000 0.8115 0.8106 0.8116 0.8126 0.8130
669.000000 0.8134 0.8138 0.8135 0.8131 0.8127
674.000000 0.8124 0.8120 0.8116 0.8113 0.8109
679.000000 0.8106 0.8103 0.8099 0.8096 0.8093
684.000000 0.8089 0.8086 0.8083 0.8078 0.8073
689.000000 0.8068 0.8062 0.8057 0.8051 0.8046
694.000000 0.8041 0.8035 0.8030 0.8025 0.8019
699.000000 0.8014 0.8005 0.7995 0.7985 0.7975
704.000000 0.7965 0.7955 0.7945 0.7936 0.7916
709.000000 0.7897 0.7877 0.7858 0.7838 0.7819
714.000000 0.7799 0.7775 0.7750 0.7726 0.7701
719.000000 0.7681 0.7669 0.7656 0.7644 0.7631
724.000000 0.7650 0.7618 0.7617 0.7626 0.7634
729.000000 0.7649 0.7674 0.7703 0.7756 0.7765
734.000000 0.7768 0.7768 0.7768 0.7772 0.7779
739.000000 0.7786 0.7803 0.7816 0.7814 0.7811
744.000000 0.7808 0.7806 0.7804 0.7803 0.7802
749.000000 0.7802 0.7800 0.7797 0.7794 0.7851
754.000000 0.7789 0.7786 0.7782 0.7776 0.7769
759.000000 0.7762 0.7755 0.7748 0.7738 0.7729
764.000000 0.7719 0.7710 0.7692 0.7672 0.7652
769.000000 0.7632 0.7612 0.7592 0.7571 0.7551
774.000000 0.7528 0.7492 0.7456 0.7420 0.7386
779.000000 0.7351 0.7317 0.7283 0.7248 0.7207
784.000000 0.7167 0.7127 0.7087 0.7043 0.6996
789.000000 0.6949 0.6910 0.6884 0.6857 0.6831
794.000000 0.6805 0.6780 0.6758 0.6737 0.6715
799.000000 0.6697 0.6690 0.6684 0.6677 0.6670
804.000000 0.6663 0.6656 0.6649 0.6642 0.6635
809.000000 0.6629 0.6628 0.6626 0.6624 0.6631
814.000000 0.6625 0.6626 0.6628 0.6629 0.6630
819.000000 0.6632 0.6642 0.6655 0.6669 0.6682
824.000000 0.6695 0.6712 0.6732 0.6751 0.6771
829.000000 0.6790 0.6810 0.6831 0.6856 0.6882
834.000000 0.6907 0.6932 0.6958 0.6985 0.7013
839.000000 0.7040 0.7067 0.7095 0.7122 0.7150
844.000000 0.7177 0.7204 0.7231 0.7256 0.7281
849.000000 0.7306 0.7332 0.7357 0.7382 0.7407
854.000000 0.7433 0.7462 0.7496 0.7530 0.7564
859.000000 0.7598 0.7632 0.7666 0.7696 0.7725
864.000000 0.7754 0.7783 0.7812 0.7840 0.7867
869.000000 0.7893 0.7907 0.7915 0.7923 0.7925
874.000000 0.7905 0.7928 0.7927 0.7927 0.7927
879.000000 0.7926 0.7926 0.7926 0.7925 0.7924
884.000000 0.7922 0.7920 0.7919 0.7917 0.7915
889.000000 0.7914 0.7912 0.7911 0.7909 0.7907
894.000000 0.7904 0.7902 0.7899 0.7897 0.7894
899.000000 0.7892 0.7890 0.7887 0.7885 0.7882
904.000000 0.7879 0.7876 0.7874 0.7871 0.7868
909.000000 0.7865 0.7862 0.7857 0.7852 0.7848
914.000000 0.7843 0.7839 0.7834 0.7830 0.7825
919.000000 0.7820 0.7816 0.7811 0.7807 0.7802
924.000000 0.7795 0.7787 0.7780 0.7773 0.7765
929.000000 0.7758 0.7751 0.7744 0.7736 0.7729
934.000000 0.7722 0.7715 0.7705 0.7694 0.7683
939.000000 0.7672 0.7661 0.7650 0.7639 0.7628
944.000000 0.7617 0.7606 0.7595 0.7584 0.7573
949.000000 0.7561 0.7550 0.7539 0.7528 0.7517
954.000000 0.7506 0.7495 0.7483 0.7472 0.7461
959.000000 0.7449 0.7438 0.7421 0.7391 0.7361
964.000000 0.7331 0.7301 0.7271 0.7238 0.7205
969.000000 0.7171 0.7147 0.7126 0.7106 0.7086
974.000000 0.7065 0.7045 0.7028 0.7015 0.7002
979.000000 0.6989 0.6975 0.6960 0.6945 0.6931
984.000000 0.6916 0.6901 0.6886 0.6862 0.6831
989.000000 0.6801 0.6770 0.6739 0.6693 0.6639
994.000000 0.6586 0.6531 0.6468 0.6405 0.6342
999.000000 0.6278 0.6198 0.6112 0.6027 0.5937
1004.000000 0.5805 0.5672 0.5551 0.5441 0.5332
1009.000000 0.5232 0.5151 0.5070 0.4989 0.4908
1014.000000 0.4808 0.4705 0.4601 0.4497 0.4428
1019.000000 0.4369 0.4310 0.4251 0.4192 0.4132
1024.000000 0.4072 0.4012 0.3951 0.3890 0.3829
1029.000000 0.3763 0.3696 0.3630 0.3564 0.3494
1034.000000 0.3424 0.3354 0.3284 0.3214 0.3140
1039.000000 0.3056 0.2973 0.2889 0.2806 0.2752
1044.000000 0.2697 0.2642 0.2588 0.2534 0.2493
1049.000000 0.2453 0.2412 0.2372 0.2332 0.2291
1054.000000 0.2250 0.2202 0.2154 0.2106 0.2058
1059.000000 0.2010 0.1965 0.1931 0.1897 0.1863
1064.000000 0.1829 0.1795 0.1761 0.1731 0.1703
1069.000000 0.1675 0.1647 0.1618 0.1590 0.1562
1074.000000 0.1534 0.1506 0.1482 0.1461 0.1441
1079.000000 0.1420 0.1400 0.1379 0.1359 0.1338
1084.000000 0.1318 0.1298 0.1279 0.1264 0.1249
1089.000000 0.1234 0.1219 0.1203 0.1188 0.1173
1094.000000 0.1162 0.1156 0.1149 0.1142 0.1135
1099.000000 0.1129 0.1122 0.1115 0.1110 0.1107
1104.000000 0.1104 0.1101 0.1098 0.1096 0.1095
1109.000000 0.1068 0.1100 0.1108 0.1117 0.1126
1114.000000 0.1134 0.1150 0.1168 0.1188 0.1208
1119.000000 0.1229 0.1249 0.1269 0.1293 0.1323
1124.000000 0.1352 0.1381 0.1410 0.1438 0.1466
1129.000000 0.1495 0.1525 0.1559 0.1594 0.1628
1134.000000 0.1662 0.1683 0.1702 0.1721 0.1740
1139.000000 0.1759 0.1778 0.1798 0.1823 0.1847
1144.000000 0.1873 0.1899 0.1925 0.1948 0.1966
1149.000000 0.1984 0.2003 0.2021 0.2039 0.2058
1154.000000 0.2076 0.2090 0.2102 0.2114 0.2125
1159.000000 0.2137 0.2148 0.2160 0.2172 0.2192
1164.000000 0.2215 0.2238 0.2262 0.2283 0.2304
1169.000000 0.2324 0.2346 0.2375 0.2404 0.2433
1174.000000 0.2463 0.2492 0.2521 0.2551 0.2580
1179.000000 0.2609 0.2639 0.2665 0.2687 0.2708
1184.000000 0.2730 0.2752 0.2773 0.2795 0.2817
1189.000000 0.2838 0.2860 0.2882 0.2903 0.2925
1194.000000 0.2951 0.2976 0.3002 0.3027 0.3052
1199.000000 0.3077 0.3101 0.3126 0.3151 0.3176
1204.000000 0.3203 0.3230 0.3258 0.3285 0.3312
1209.000000 0.3339 0.3366 0.3401 0.3438 0.3475
1214.000000 0.3512 0.3549 0.3586 0.3623 0.3660
1219.000000 0.3697 0.3739 0.3786 0.3833 0.3880
1224.000000 0.3926 0.3972 0.4018 0.4064 0.4110
1229.000000 0.4167 0.4231 0.4295 0.4360 0.4424
1234.000000 0.4490 0.4557 0.4624 0.4691 0.4759
1239.000000 0.4827 0.4894 0.4962 0.5027 0.5092
1244.000000 0.5157 0.5222 0.5289 0.5361 0.5433
1249.000000 0.5506 0.5595 0.5684 0.5774 0.5874
1254.000000 0.5962 0.6034 0.6112 0.6168 0.6225
1259.000000 0.6280 0.6334 0.6388 0.6441 0.6495
1264.000000 0.6548 0.6600 0.6652 0.6703 0.6755
1269.000000 0.6807 0.6865 0.6924 0.6983 0.7037
1274.000000 0.7068 0.7098 0.7129 0.7160 0.7189
1279.000000 0.7217 0.7245 0.7274 0.7302 0.7331
1284.000000 0.7362 0.7393 0.7425 0.7449 0.7467
1289.000000 0.7485 0.7493 0.7495 0.7496 0.7498
1294.000000 0.7499 0.7520 0.7505 0.7510 0.7514
1299.000000 0.7519 0.7524 0.7531 0.7540 0.7548
1304.000000 0.7559 0.7572 0.7585 0.7598 0.7610
1309.000000 0.7621 0.7632 0.7643 0.7654 0.7665
1314.000000 0.7677 0.7683 0.7689 0.7695 0.7700
1319.000000 0.7706 0.7712 0.7718 0.7724 0.7729
1324.000000 0.7735 0.7742 0.7752 0.7762 0.7769
1329.000000 0.7786 0.7745 0.7728 0.7712 0.7700
1334.000000 0.7687 0.7675 0.7663 0.7653 0.7647
1339.000000 0.7641 0.7636 0.7630 0.7624 0.7623
1344.000000 0.7622 0.7621 0.7621 0.7617 0.7609
1349.000000 0.7601 0.7594 0.7586 0.7578 0.7571
1354.000000 0.7555 0.7538 0.7521 0.7503 0.7480
1359.000000 0.7442 0.7404 0.7367 0.7299 0.7226
1364.000000 0.7162 0.7103 0.7043 0.6984 0.6850
1369.000000 0.6667 0.6484 0.6301 0.5999 0.5948
1374.000000 0.5936 0.5939 0.5947 0.5933 0.6235
1379.000000 0.6434 0.6632 0.6830 0.7029 0.7227
1384.000000 0.7426 0.7613 0.7694 0.7795 0.7879
1389.000000 0.7943 0.7987 0.8025 0.8046 0.8058
1394.000000 0.8070 0.8082 0.8088 0.8093 0.8097
1399.000000 0.8101 0.8106 0.8110 0.8131 0.8108
1404.000000 0.8106 0.8103 0.8100 0.8095 0.8083
1409.000000 0.8071 0.8058 0.8046 0.8035 0.8026
1414.000000 0.8018 0.8009 0.8000 0.7993 0.7987
1419.000000 0.7981 0.7975 0.7970 0.7957 0.7945
1424.000000 0.7933 0.7920 0.7901 0.7858 0.7815
1429.000000 0.7759 0.7694 0.7630 0.7451 0.7353
1434.000000 0.7256 0.7140 0.7000 0.6866 0.6736
1439.000000 0.6606 0.6517 0.6432 0.6346 0.6255
1444.000000 0.6150 0.6044 0.5957 0.5877 0.5792
1449.000000 0.5699 0.5423 0.5259 0.5121 0.4967
1454.000000 0.4869 0.4844 0.4819 0.4804 0.4800
1459.000000 0.4803 0.4792 0.4824 0.4865 0.4905
1464.000000 0.4958 0.5032 0.5123 0.5188 0.5263
1469.000000 0.5374 0.5930 0.6487 0.6916 0.7082
1474.000000 0.7253 0.7358 0.7456 0.7535 0.7621
1479.000000 0.7727 0.7821 0.7875 0.7928 0.7969
1484.000000 0.8003 0.8037 0.8068 0.8087 0.8106
1489.000000 0.8125 0.8144 0.8163 0.8182 0.8197
1494.000000 0.8212 0.8227 0.8238 0.8245 0.8253
1499.000000 0.8261 0.8268 0.8276 0.8283 0.8291
1504.000000 0.8299 0.8306 0.8309 0.8312 0.8314
1509.000000 0.8317 0.8320 0.8322 0.8315 0.8327
1514.000000 0.8329 0.8331 0.8332 0.8333 0.8335
1519.000000 0.8336 0.8337 0.8338 0.8339 0.8340
1524.000000 0.8341 0.8341 0.8342 0.8343 0.8344
1529.000000 0.8345 0.8345 0.8346 0.8347 0.8348
1534.000000 0.8348 0.8349 0.8349 0.8349 0.8349
1539.000000 0.8349 0.8349 0.8348 0.8348 0.8348
1544.000000 0.8348 0.8348 0.8348 0.8348 0.8348
1549.000000 0.8348 0.8349 0.8349 0.8349 0.8349
1554.000000 0.8349 0.8350 0.8350 0.8350 0.8350
1559.000000 0.8350 0.8350 0.8349 0.8349 0.8349
1564.000000 0.8349 0.8348 0.8348 0.8348 0.8348
1569.000000 0.8347 0.8347 0.8347 0.8347 0.8346
1574.000000 0.8346 0.8345 0.8344 0.8344 0.8343
1579.000000 0.8342 0.8341 0.8340 0.8339 0.8338
1584.000000 0.8337 0.8337 0.8336 0.8335 0.8334
1589.000000 0.8333 0.8332 0.8331 0.8330 0.8329
1594.000000 0.8328 0.8327 0.8326 0.8325 0.8324
1599.000000 0.8323 0.8322 0.8321 0.8320 0.8319
1604.000000 0.8318 0.8317 0.8316 0.8315 0.8314
1609.000000 0.8313 0.8312 0.8311 0.8311 0.8310
1614.000000 0.8309 0.8308 0.8308 0.8307 0.8306
1619.000000 0.8306 0.8305 0.8304 0.8304 0.8303
1624.000000 0.8302 0.8302 0.8301 0.8300 0.8301
1629.000000 0.8301 0.8301 0.8302 0.8302 0.8303
1634.000000 0.8303 0.8304 0.8304 0.8304 0.8305
1639.000000 0.8305 0.8306 0.8306 0.8306 0.8307
1644.000000 0.8307 0.8307 0.8307 0.8307 0.8307
1649.000000 0.8307 0.8306 0.8306 0.8306 0.8306
1654.000000 0.8306 0.8306 0.8306 0.8305 0.8305
1659.000000 0.8305 0.8305 0.8305 0.8305 0.8304
1664.000000 0.8304 0.8304 0.8304 0.8305 0.8305
1669.000000 0.8305 0.8305 0.8305 0.8306 0.8306
1674.000000 0.8306 0.8306 0.8306 0.8307 0.8307
1679.000000 0.8307 0.8307 0.8307 0.8308 0.8308
1684.000000 0.8308 0.8316 0.8325 0.8333 0.8341
1689.000000 0.8350 0.8358 0.8356 0.8352 0.8343
1694.000000 0.8335 0.8329 0.8328 0.8327 0.8326
1699.000000 0.8328 0.8329 0.8331 0.8333 0.8335
1704.000000 0.8337 0.8339 0.8341 0.8343 0.8345
1709.000000 0.8348 0.8350 0.8351 0.8352 0.8352
1714.000000 0.8353 0.8354 0.8354 0.8355 0.8356
1719.000000 0.8356 0.8357 0.8357 0.8358 0.8359
1724.000000 0.8359 0.8360 0.8361 0.8361 0.8362
1729.000000 0.8363 0.8363 0.8364 0.8364 0.8365
1734.000000 0.8366 0.8366 0.8367 0.8369 0.8373
1739.000000 0.8377 0.8381 0.8385 0.8389 0.8393
1744.000000 0.8398 0.8404 0.8411 0.8417 0.8422
1749.000000 0.8422 0.8423 0.8423 0.8423 0.8423
1754.000000 0.8423 0.8423 0.8423 0.8423 0.8423
1759.000000 0.8422 0.8422 0.8421 0.8421 0.8420
1764.000000 0.8420 0.8419 0.8419 0.8418 0.8418
1769.000000 0.8418 0.8418 0.8417 0.8417 0.8417
1774.000000 0.8417 0.8416 0.8416 0.8416 0.8416
1779.000000 0.8415 0.8415 0.8415 0.8415 0.8414
1784.000000 0.8414 0.8413 0.8413 0.8412 0.8411
1789.000000 0.8411 0.8410 0.8409 0.8408 0.8408
1794.000000 0.8407 0.8406 0.8406 0.8405 0.8404
1799.000000 0.8403 0.8403 0.8402 0.8401 0.8401
1804.000000 0.8400 0.8399 0.8398 0.8398 0.8397
1809.000000 0.8396 0.8395 0.8395 0.8394 0.8393
1814.000000 0.8393 0.8392 0.8391 0.8389 0.8387
1819.000000 0.8384 0.8381 0.8378 0.8377 0.8379
1824.000000 0.8380 0.8381 0.8382 0.8384 0.8385
1829.000000 0.8386 0.8387 0.8389 0.8390 0.8391
1834.000000 0.8392 0.8393 0.8394 0.8395 0.8392
1839.000000 0.8387 0.8383 0.8378 0.8374 0.8369
1844.000000 0.8365 0.8360 0.8356 0.8354 0.8353
1849.000000 0.8351 0.8349 0.8348 0.8346 0.8345
1854.000000 0.8343 0.8342 0.8340 0.8338 0.8337
1859.000000 0.8335 0.8335 0.8334 0.8334 0.8333
1864.000000 0.8333 0.8332 0.8332 0.8331 0.8331
1869.000000 0.8330 0.8330 0.8330 0.8329 0.8329
1874.000000 0.8328 0.8328 0.8327 0.8327 0.8327
1879.000000 0.8327 0.8327 0.8327 0.8327 0.8327
1884.000000 0.8327 0.8327 0.8327 0.8327 0.8327
1889.000000 0.8327 0.8327 0.8327 0.8327 0.8328
1894.000000 0.8328 0.8329 0.8329 0.8330 0.8331
1899.000000 0.8331 0.8332 0.8332 0.8333 0.8333
1904.000000 0.8334 0.8334 0.8335 0.8336 0.8336
1909.000000 0.8337 0.8337 0.8338 0.8338 0.8339
1914.000000 0.8339 0.8339 0.8339 0.8340 0.8340
1919.000000 0.8340 0.8340 0.8340 0.8341 0.8341
1924.000000 0.8341 0.8341 0.8341 0.8342 0.8342
1929.000000 0.8343 0.8345 0.8347 0.8349 0.8351
1934.000000 0.8353 0.8355 0.8357 0.8359 0.8361
1939.000000 0.8363 0.8365 0.8367 0.8368 0.8370
1944.000000 0.8372 0.8374 0.8376 0.8378 0.8380
1949.000000 0.8381 0.8383 0.8383 0.8383 0.8382
1954.000000 0.8381 0.8380 0.8380 0.8379 0.8378
1959.000000 0.8377 0.8377 0.8376 0.8375 0.8373
1964.000000 0.8370 0.8367 0.8364 0.8361 0.8358
1969.000000 0.8356 0.8353 0.8350 0.8347 0.8344
1974.000000 0.8343 0.8342 0.8341 0.8340 0.8339
1979.000000 0.8338 0.8337 0.8336 0.8336 0.8335
1984.000000 0.8336 0.8339 0.8342 0.8345 0.8349
1989.000000 0.8352 0.8355 0.8358 0.8361 0.8371
1994.000000 0.8384 0.8397 0.8410 0.8418 0.8425
1999.000000 0.8432 0.8438 0.8427 0.8416 0.8414
2004.000000 0.8413 0.8411 0.8409 0.8407 0.8405
2009.000000 0.8403 0.8401 0.8399 0.8397 0.8395
2014.000000 0.8393 0.8391 0.8390 0.8388 0.8386
2019.000000 0.8384 0.8382 0.8380 0.8378 0.8378
2024.000000 0.8378 0.8379 0.8380 0.8380 0.8381
2029.000000 0.8381 0.8382 0.8382 0.8383 0.8384
2034.000000 0.8385 0.8385 0.8386 0.8386 0.8387
2039.000000 0.8387 0.8388 0.8388 0.8389 0.8390
2044.000000 0.8391 0.8392 0.8394 0.8396 0.8399
2049.000000 0.8401 0.8403 0.8405 0.8408 0.8411
2054.000000 0.8415 0.8418 0.8421 0.8424 0.8428
2059.000000 0.8431 0.8435 0.8436 0.8437 0.8436
2064.000000 0.8436 0.8435 0.8434 0.8433 0.8433
2069.000000 0.8432 0.8432 0.8431 0.8431 0.8430
2074.000000 0.8429 0.8428 0.8428 0.8427 0.8427
2079.000000 0.8426 0.8426 0.8425 0.8424 0.8423
2084.000000 0.8422 0.8420 0.8419 0.8418 0.8417
2089.000000 0.8416 0.8415 0.8414 0.8413 0.8411
2094.000000 0.8410 0.8409 0.8408 0.8407 0.8406
2099.000000 0.8405 0.8404 0.8404 0.8405 0.8405
2104.000000 0.8405 0.8405 0.8406 0.8406 0.8407
2109.000000 0.8407 0.8408 0.8408 0.8408 0.8408
2114.000000 0.8409 0.8408 0.8407 0.8405 0.8403
2119.000000 0.8401 0.8400 0.8398 0.8397 0.8395
2124.000000 0.8393 0.8391 0.8390 0.8388 0.8386
2129.000000 0.8384 0.8383 0.8381 0.8379 0.8377
2134.000000 0.8376 0.8374 0.8373 0.8371 0.8369
2139.000000 0.8367 0.8366 0.8364 0.8362 0.8360
2144.000000 0.8359 0.8357 0.8356 0.8354 0.8353
2149.000000 0.8352 0.8351 0.8349 0.8348 0.8347
2154.000000 0.8346 0.8344 0.8343 0.8342 0.8341
2159.000000 0.8339 0.8338 0.8337 0.8336 0.8334
2164.000000 0.8333 0.8332 0.8331 0.8329 0.8328
2169.000000 0.8327 0.8326 0.8324 0.8323 0.8321
2174.000000 0.8320 0.8319 0.8318 0.8316 0.8315
2179.000000 0.8314 0.8313 0.8311 0.8310 0.8309
2184.000000 0.8308 0.8307 0.8306 0.8304 0.8303
2189.000000 0.8302 0.8301 0.8299 0.8298 0.8297
2194.000000 0.8296 0.8294 0.8293 0.8292 0.8291
2199.000000 0.8289 0.8288 0.8287 0.8286 0.8284
2204.000000 0.8283 0.8282 0.8282 0.8281 0.8281
2209.000000 0.8280 0.8279 0.8278 0.8278 0.8277
2214.000000 0.8277 0.8276 0.8275 0.8274 0.8274
2219.000000 0.8273 0.8273 0.8272 0.8272 0.8271
2224.000000 0.8270 0.8269 0.8269 0.8268 0.8268
2229.000000 0.8267 0.8267 0.8266 0.8266 0.8266
2234.000000 0.8266 0.8266 0.8266 0.8265 0.8265
2239.000000 0.8265 0.8265 0.8265 0.8265 0.8264
2244.000000 0.8264 0.8264 0.8264 0.8263 0.8263
2249.000000 0.8263 0.8263 0.8263 0.8263 0.8262
2254.000000 0.8262 0.8262 0.8262 0.8262 0.8263
2259.000000 0.8263 0.8264 0.8264 0.8265 0.8265
2264.000000 0.8266 0.8266 0.8267 0.8267 0.8268
2269.000000 0.8268 0.8269 0.8269 0.8270 0.8270
2274.000000 0.8271 0.8271 0.8272 0.8273 0.8275
2279.000000 0.8276 0.8278 0.8279 0.8280 0.8281
2284.000000 0.8283 0.8284 0.8285 0.8286 0.8288
2289.000000 0.8289 0.8291 0.8292 0.8293 0.8294
2294.000000 0.8296 0.8297 0.8298 0.8299 0.8301
2299.000000 0.8302 0.8304 0.8305 0.8306 0.8307
2304.000000 0.8309 0.8310 0.8312 0.8313 0.8314
2309.000000 0.8315 0.8317 0.8318 0.8319 0.8320
2314.000000 0.8322 0.8323 0.8325 0.8326 0.8327
2319.000000 0.8328 0.8330 0.8331 0.8333 0.8334
2324.000000 0.8335 0.8336 0.8338 0.8339 0.8340
2329.000000 0.8342 0.8344 0.8345 0.8347 0.8349
2334.000000 0.8351 0.8352 0.8354 0.8356 0.8358
2339.000000 0.8359 0.8361 0.8363 0.8365 0.8366
2344.000000 0.8368 0.8366 0.8364 0.8362 0.8360
2349.000000 0.8358 0.8356 0.8353 0.8351 0.8347
2354.000000 0.8343 0.8338 0.8333 0.8328 0.8323
2359.000000 0.8318 0.8314 0.8309 0.8304 0.8299
2364.000000 0.8294 0.8289 0.8285 0.8280 0.8276
2369.000000 0.8271 0.8267 0.8262 0.8258 0.8253
2374.000000 0.8249 0.8245 0.8241 0.8236 0.8232
2379.000000 0.8230 0.8228 0.8227 0.8226 0.8225
2384.000000 0.8224 0.8223 0.8222 0.8221 0.8220
2389.000000 0.8219 0.8218 0.8217 0.8216 0.8215
2394.000000 0.8214 0.8213 0.8212 0.8213 0.8215
2399.000000 0.8216 0.8217 0.8218 0.8219 0.8220
2404.000000 0.8222 0.8223 0.8224 0.8225 0.8227
2409.000000 0.8227 0.8228 0.8227 0.8227 0.8226
2414.000000 0.8226 0.8225 0.8225 0.8224 0.8224
2419.000000 0.8223 0.8223 0.8222 0.8222 0.8221
2424.000000 0.8220 0.8219 0.8219 0.8218 0.8217
2429.000000 0.8216 0.8215 0.8213 0.8212 0.8210
2434.000000 0.8209 0.8207 0.8206 0.8205 0.8204
2439.000000 0.8202 0.8201 0.8199 0.8198 0.8197
2444.000000 0.8196 0.8194 0.8193 0.8191 0.8190
2449.000000 0.8188 0.8187 0.8185 0.8183 0.8181
2454.000000 0.8179 0.8177 0.8175 0.8173 0.8171
2459.000000 0.8169 0.8167 0.8165 0.8163 0.8161
2464.000000 0.8159 0.8157 0.8155 0.8153 0.8151
2469.000000 0.8149 0.8147 0.8145 0.8143 0.8141
2474.000000 0.8140 0.8139 0.8138 0.8137 0.8136
2479.000000 0.8134 0.8133 0.8132 0.8131 0.8130
2484.000000 0.8129 0.8128 0.8127 0.8126 0.8125
2489.000000 0.8124 0.8123 0.8122 0.8121 0.8120
2494.000000 0.8119 0.8118 0.8117 0.8116 0.8115
2499.000000 0.8114 0.8113 0.8112 0.8111 0.8110
2504.000000 0.8109 0.8108 0.8107 0.8106 0.8105
2509.000000 0.8104 0.8103 0.8102 0.8101 0.8099
2514.000000 0.8098 0.8097 0.8096 0.8095 0.8094
2519.000000 0.8093 0.8092 0.8091 0.8090 0.8089
2524.000000 0.8088 0.8087 0.8086 0.8085 0.8084
2529.000000 0.8082 0.8081 0.8079 0.8078 0.8076
2534.000000 0.8075 0.8073 0.8071 0.8069 0.8068
2539.000000 0.8066 0.8064 0.8062 0.8061 0.8059
2544.000000 0.8057 0.8055 0.8054 0.8052 0.8051
2549.000000 0.8049 0.8047 0.8045 0.8044 0.8042
2554.000000 0.8040 0.8038 0.8037 0.8035 0.8033
2559.000000 0.8031 0.8030 0.8028 0.8026 0.8024
2564.000000 0.8023 0.8021 0.8019 0.8017 0.8016
2569.000000 0.8014 0.8012 0.8010 0.8009 0.8007
2574.000000 0.8005 0.8003 0.8001 0.7999 0.7998
2579.000000 0.7996 0.7994 0.7992 0.7991 0.7989
2584.000000 0.7987 0.7985 0.7983 0.7981 0.7979
2589.000000 0.7976 0.7974 0.7972 0.7970 0.7968
2594.000000 0.7966 0.7963 0.7961 0.7959 0.7957
2599.000000 0.7955 0.7953 0.7950 0.7948 0.7946
2604.000000 0.7944 0.7942 0.7940 0.7938 0.7936
2609.000000 0.7933 0.7931 0.7928 0.7926 0.7923
2614.000000 0.7921 0.7918 0.7916 0.7913 0.7911
2619.000000 0.7908 0.7906 0.7903 0.7901 0.7898
2624.000000 0.7896 0.7893 0.7891 0.7888 0.7885
2629.000000 0.7882 0.7880 0.7877 0.7875 0.7872
2634.000000 0.7870 0.7867 0.7865 0.7862 0.7860
2639.000000 0.7857 0.7855 0.7852 0.7850 0.7847
2644.000000 0.7845 0.7842 0.7840 0.7838 0.7837
2649.000000 0.7835 0.7833 0.7831 0.7830 0.7828
2654.000000 0.7826 0.7824 0.7822 0.7820 0.7819
2659.000000 0.7817 0.7815 0.7813 0.7811 0.7809
2664.000000 0.7808 0.7806 0.7804 0.7802 0.7801
2669.000000 0.7799 0.7797 0.7795 0.7793 0.7791
2674.000000 0.7790 0.7788 0.7786 0.7784 0.7783
2679.000000 0.7781 0.7779 0.7778 0.7777 0.7776
2684.000000 0.7776 0.7775 0.7775 0.7774 0.7773
2689.000000 0.7772 0.7772 0.7771 0.7770 0.7769
2694.000000 0.7769 0.7768 0.7768 0.7767 0.7766
2699.000000 0.7765 0.7765 0.7764 0.7764 0.7763
2704.000000 0.7762 0.7761 0.7761 0.7760 0.7759
2709.000000 0.7758 0.7758 0.7757 0.7757 0.7756
2714.000000 0.7756 0.7756 0.7756 0.7755 0.7755
2719.000000 0.7755 0.7755 0.7755 0.7755 0.7755
2724.000000 0.7755 0.7755 0.7755 0.7755 0.7755
2729.000000 0.7755 0.7755 0.7755 0.7755 0.7755
2734.000000 0.7755 0.7755 0.7755 0.7755 0.7755
2739.000000 0.7755 0.7755 0.7756 0.7757 0.7759
2744.000000 0.7761 0.7763 0.7765 0.7767 0.7769
2749.000000 0.7771 0.7773 0.7775 0.7801 0.7776
2754.000000 0.7776 0.7775 0.7774 0.7772 0.7771
2759.000000 0.7769 0.7767 0.7763 0.7760 0.7756
2764.000000 0.7752 0.7748 0.7744 0.7740 0.7737
2769.000000 0.7733 0.7729 0.7724 0.7719 0.7713
2774.000000 0.7708 0.7702 0.7697 0.7691 0.7686
2779.000000 0.7680 0.7675 0.7667 0.7659 0.7649
2784.000000 0.7640 0.7631 0.7622 0.7606 0.7591
2789.000000 0.7575 0.7559 0.7543 0.7528 0.7512
2794.000000 0.7496 0.7480 0.7464 0.7448 0.7433
2799.000000 0.7414 0.7396 0.7377 0.7358 0.7339
2804.000000 0.7321 0.7302 0.7284 0.7265 0.7247
2809.000000 0.7229 0.7211 0.7193 0.7175 0.7157
2814.000000 0.7139 0.7121 0.7103 0.7085 0.7067
2819.000000 0.7049 0.7031 0.6994 0.6957 0.6920
2824.000000 0.6884 0.6839 0.6795 0.6745 0.6695
2829.000000 0.6640 0.6585 0.6490 0.6396 0.6297
2834.000000 0.6198 0.5853 0.5509 0.5307 0.5106
2839.000000 0.4957 0.4809 0.4600 0.4391 0.4169
2844.000000 0.3947 0.3725 0.3504 0.3282 0.3060
2849.000000 0.2838 0.2617 0.2395 0.2173 0.1951
2854.000000 0.1730 0.1687 0.1644 0.1644 0.1637
2859.000000 0.1650 0.1656 0.1778 0.1900 0.2022
2864.000000 0.2144 0.2192 0.2241 0.2255 0.2269
2869.000000 0.2281 0.2294 0.2300 0.2306 0.2312
2874.000000 0.2318 0.2324 0.2330 0.2415 0.2501
2879.000000 0.2704 0.2908 0.2974 0.3040 0.3038
2884.000000 0.3055 0.3030 0.3024 0.2957 0.2891
2889.000000 0.2818 0.2745 0.2672 0.2599 0.2526
2894.000000 0.2454 0.2381 0.2308 0.2235 0.2163
2899.000000 0.2090 0.2017 0.1944 0.1871 0.1798
2904.000000 0.1726 0.1653 0.1580 0.1507 0.1435
2909.000000 0.1362 0.1289 0.1216 0.1143 0.1070
2914.000000 0.0998 0.0925 0.0852 0.0777 0.0703
2919.000000 0.0597 0.0491 0.0441 0.0392 0.0378
2924.000000 0.0370 0.0363 0.0361 0.0368 0.0376
2929.000000 0.0421 0.0467 0.0490 0.0513 0.0574
2934.000000 0.0636 0.0712 0.0788 0.0864 0.0940
2939.000000 0.1015 0.1091 0.1167 0.1243 0.1320
2944.000000 0.1397 0.1410 0.1458 0.1425 0.1428
2949.000000 0.1422 0.1416 0.1386 0.1357 0.1344
2954.000000 0.1331 0.1326 0.1321 0.1324 0.1312
2959.000000 0.1330 0.1333 0.1382 0.1432 0.1588
2964.000000 0.1744 0.1899 0.2055 0.2211 0.2367
2969.000000 0.2523 0.2679 0.2835 0.2991 0.3147
2974.000000 0.3303 0.3459 0.3615 0.3771 0.3927
2979.000000 0.3970 0.4014 0.4365 0.4716 0.5350
2984.000000 0.5985 0.6042 0.6099 0.6156 0.6213
2989.000000 0.6263 0.6314 0.6364 0.6414 0.6481
2994.000000 0.6548 0.6614 0.6681 0.6746 0.6811
2999.000000 0.6882 0.6954 0.7029 0.7105 0.7179
3004.000000 0.7254 0.7293 0.7332 0.7365 0.7399
3009.000000 0.7412 0.7425 0.7438 0.7452 0.7465
3014.000000 0.7479 0.7492 0.7505 0.7517 0.7530
3019.000000 0.7540 0.7550 0.7560 0.7570 0.7580
3024.000000 0.7591 0.7601 0.7611 0.7621 0.7631
3029.000000 0.7645 0.7659 0.7670 0.7681 0.7685
3034.000000 0.7689 0.7692 0.7696 0.7700 0.7704
3039.000000 0.7708 0.7712 0.7715 0.7719 0.7723
3044.000000 0.7727 0.7730 0.7734 0.7738 0.7742
3049.000000 0.7746 0.7750 0.7754 0.7758 0.7761
3054.000000 0.7765 0.7768 0.7772 0.7773 0.7775
3059.000000 0.7776 0.7778 0.7779 0.7781 0.7782
3064.000000 0.7784 0.7785 0.7787 0.7789 0.7791
3069.000000 0.7792 0.7769 0.7795 0.7797 0.7798
3074.000000 0.7799 0.7799 0.7799 0.7799 0.7799
3079.000000 0.7798 0.7798 0.7798 0.7798 0.7798
3084.000000 0.7798 0.7797 0.7797 0.7797 0.7797
3089.000000 0.7796 0.7795 0.7794 0.7793 0.7791
3094.000000 0.7790 0.7789 0.7788 0.7786 0.7785
3099.000000 0.7784 0.7783 0.7781 0.7780 0.7779
3104.000000 0.7778 0.7776 0.7775 0.7773 0.7772
3109.000000 0.7770 0.7769 0.7768 0.7767 0.7779
3114.000000 0.7791 0.7803 0.7815 0.7823 0.7832
3119.000000 0.7835 0.7839 0.7842 0.7845 0.7846
3124.000000 0.7848 0.7845 0.7843 0.7840 0.7838
3129.000000 0.7835 0.7833 0.7828 0.7824 0.7819
3134.000000 0.7815 0.7810 0.7805 0.7800 0.7796
3139.000000 0.7791 0.7786 0.7784 0.7782 0.7781
3144.000000 0.7781 0.7780 0.7779 0.7778 0.7777
3149.000000 0.7776 0.7776 0.7775 0.7774 0.7773
3154.000000 0.7773 0.7772 0.7771 0.7770 0.7770
3159.000000 0.7769 0.7769 0.7768 0.7767 0.7766
3164.000000 0.7766 0.7765 0.7765 0.7764 0.7764
3169.000000 0.7764 0.7765 0.7765 0.7766 0.7766
3174.000000 0.7767 0.7767 0.7768 0.7768 0.7769
3179.000000 0.7769 0.7770 0.7770 0.7771 0.7771
3184.000000 0.7772 0.7772 0.7773 0.7773 0.7774
3189.000000 0.7774 0.7775 0.7775 0.7776 0.7776
3194.000000 0.7777 0.7777 0.7778 0.7778 0.7779
3199.000000 0.7779 0.7780 0.7780 0.7781 0.7782
3204.000000 0.7783 0.7783 0.7784 0.7784 0.7785
3209.000000 0.7785 0.7786 0.7787 0.7788 0.7788
3214.000000 0.7789 0.7789 0.7790 0.7791 0.7792
3219.000000 0.7792 0.7793 0.7793 0.7794 0.7794
3224.000000 0.7795 0.7796 0.7797 0.7797 0.7798
3229.000000 0.7798 0.7799 0.7799 0.7800 0.7799
3234.000000 0.7798 0.7797 0.7796 0.7795 0.7794
3239.000000 0.7793 0.7792 0.7791 0.7790 0.7789
3244.000000 0.7789 0.7788 0.7787 0.7786 0.7785
3249.000000 0.7784 0.7783 0.7782 0.7781 0.7780
3254.000000 0.7779 0.7778 0.7777 0.7776 0.7775
3259.000000 0.7774 0.7773 0.7771 0.7770 0.7768
3264.000000 0.7767 0.7765 0.7763 0.7761 0.7760
3269.000000 0.7758 0.7756 0.7754 0.7753 0.7751
3274.000000 0.7749 0.7747 0.7746 0.7744 0.7742
3279.000000 0.7740 0.7739 0.7737 0.7735 0.7733
3284.000000 0.7732 0.7730 0.7728 0.7726 0.7725
3289.000000 0.7723 0.7721 0.7719 0.7718 0.7716
3294.000000 0.7714 0.7712 0.7711 0.7709 0.7707
3299.000000 0.7705 0.7704 0.7702 0.7700 0.7698
3304.000000 0.7697 0.7695 0.7694 0.7692 0.7691
3309.000000 0.7689 0.7687 0.7685 0.7684 0.7682
3314.000000 0.7681 0.7679 0.7678 0.7676 0.7674
3319.000000 0.7672 0.7671 0.7669 0.7668 0.7666
3324.000000 0.7665 0.7663 0.7661 0.7659 0.7658
3329.000000 0.7656 0.7655 0.7653 0.7652 0.7650
3334.000000 0.7649 0.7647 0.7646 0.7644 0.7643
3339.000000 0.7641 0.7640 0.7638 0.7637 0.7635
3344.000000 0.7634 0.7632 0.7631 0.7629 0.7628
3349.000000 0.7626 0.7625 0.7623 0.7622 0.7620
3354.000000 0.7619 0.7617 0.7616 0.7614 0.7613
3359.000000 0.7611 0.7610 0.7608 0.7607 0.7605
3364.000000 0.7604 0.7603 0.7602 0.7601 0.7601
3369.000000 0.7600 0.7599 0.7598 0.7598 0.7597
3374.000000 0.7596 0.7595 0.7595 0.7594 0.7594
3379.000000 0.7593 0.7592 0.7591 0.7591 0.7590
3384.000000 0.7589 0.7588 0.7588 0.7587 0.7586
3389.000000 0.7585 0.7585 0.7584 0.7583 0.7582
3394.000000 0.7582 0.7581 0.7580 0.7579 0.7579
3399.000000 0.7578 0.7577 0.7576 0.7576 0.7575
3404.000000 0.7574 0.7574 0.7574 0.7574 0.7575
3409.000000 0.7576 0.7577 0.7577 0.7578 0.7578
3414.000000 0.7579 0.7580 0.7581 0.7581 0.7582
3419.000000 0.7582 0.7583 0.7584 0.7585 0.7585
3424.000000 0.7586 0.7586 0.7587 0.7588 0.7589
3429.000000 0.7589 0.7590 0.7590 0.7591 0.7592
3434.000000 0.7593 0.7593 0.7594 0.7594 0.7595
3439.000000 0.7596 0.7597 0.7597 0.7598 0.7598
3444.000000 0.7599 0.7600 0.7601 0.7602 0.7604
3449.000000 0.7605 0.7606 0.7607 0.7609 0.7610
3454.000000 0.7611 0.7612 0.7613 0.7614 0.7616
3459.000000 0.7617 0.7618 0.7619 0.7621 0.7622
3464.000000 0.7623 0.7624 0.7626 0.7627 0.7628
3469.000000 0.7629 0.7631 0.7632 0.7633 0.7634
3474.000000 0.7635 0.7636 0.7638 0.7639 0.7640
3479.000000 0.7641 0.7643 0.7644 0.7645 0.7646
3484.000000 0.7648 0.7649 0.7650 0.7651 0.7653
3489.000000 0.7654 0.7656 0.7658 0.7660 0.7661
3494.000000 0.7663 0.7665 0.7667 0.7669 0.7671
3499.000000 0.7672 0.7674 0.7676 0.7678 0.7680
3504.000000 0.7682 0.7684 0.7686 0.7687 0.7689
3509.000000 0.7691 0.7693 0.7695 0.7697 0.7698
3514.000000 0.7700 0.7702 0.7704 0.7706 0.7708
3519.000000 0.7709 0.7711 0.7713 0.7715 0.7717
3524.000000 0.7719 0.7721 0.7723 0.7724 0.7726
3529.000000 0.7728 0.7730 0.7731 0.7733 0.7734
3534.000000 0.7735 0.7736 0.7737 0.7738 0.7739
3539.000000 0.7740 0.7741 0.7742 0.7743 0.7743
3544.000000 0.7744 0.7745 0.7746 0.7747 0.7748
3549.000000 0.7749 0.7750 0.7751 0.7752 0.7753
3554.000000 0.7754 0.7755 0.7756 0.7757 0.7758
3559.000000 0.7758 0.7759 0.7760 0.7761 0.7762
3564.000000 0.7763 0.7764 0.7765 0.7766 0.7767
3569.000000 0.7768 0.7769 0.7769 0.7770 0.7770
3574.000000 0.7771 0.7771 0.7771 0.7771 0.7771
3579.000000 0.7771 0.7771 0.7771 0.7771 0.7771
3584.000000 0.7772 0.7772 0.7772 0.7772 0.7772
3589.000000 0.7772 0.7772 0.7772 0.7772 0.7772
3594.000000 0.7773 0.7773 0.7773 0.7773 0.7773
3599.000000 0.7773 0.7773 0.7773 0.7773 0.7773
3604.000000 0.7774 0.7774 0.7774 0.7774 0.7774
3609.000000 0.7774 0.7774 0.7774 0.7774 0.7774
3614.000000 0.7775 0.7775 0.7775 0.7775 0.7775
3619.000000 0.7775 0.7775 0.7775 0.7775 0.7775
3624.000000 0.7776 0.7776 0.7776 0.7776 0.7776
3629.000000 0.7776 0.7776 0.7776 0.7776 0.7776
3634.000000 0.7777 0.7777 0.7777 0.7777 0.7777
3639.000000 0.7777 0.7777 0.7777 0.7777 0.7777
3644.000000 0.7778 0.7777 0.7776 0.7775 0.7774
3649.000000 0.7773 0.7772 0.7771 0.7770 0.7769
3654.000000 0.7768 0.7767 0.7766 0.7765 0.7764
3659.000000 0.7763 0.7762 0.7760 0.7759 0.7758
3664.000000 0.7757 0.7756 0.7755 0.7754 0.7753
3669.000000 0.7752 0.7751 0.7750 0.7749 0.7748
3674.000000 0.7747 0.7746 0.7745 0.7744 0.7743
3679.000000 0.7741 0.7740 0.7739 0.7738 0.7737
3684.000000 0.7736 0.7735 0.7734 0.7733 0.7732
3689.000000 0.7731 0.7730 0.7729 0.7728 0.7728
3694.000000 0.7729 0.7733 0.7738 0.7742 0.7747
3699.000000 0.7752 0.7757 0.7761 0.7766 0.7770
3704.000000 0.7775 0.7783 0.7792 0.7801 0.7810
3709.000000 0.7819 0.7828 0.7836 0.7844 0.7849
3714.000000 0.7855 0.7860 0.7866 0.7872 0.7878
3719.000000 0.7883 0.7889 0.7893 0.7898 0.7898
3724.000000 0.7899 0.7899 0.7900 0.7900 0.7900
3729.000000 0.7900 0.7901 0.7901 0.7902 0.7902
3734.000000 0.7902 0.7902 0.7903 0.7903 0.7903
3739.000000 0.7902 0.7902 0.7901 0.7901 0.7900
3744.000000 0.7900 0.7900 0.7900 0.7899 0.7899
3749.000000 0.7898 0.7898 0.7897 0.7897 0.7896
3754.000000 0.7896 0.7896 0.7896 0.7895 0.7895
3759.000000 0.7895 0.7895 0.7894 0.7894 0.7894
3764.000000 0.7894 0.7893 0.7893 0.7892 0.7892
3769.000000 0.7892 0.7892 0.7891 0.7891 0.7891
3774.000000 0.7891 0.7890 0.7890 0.7890 0.7890
3779.000000 0.7889 0.7889 0.7889 0.7889 0.7888
3784.000000 0.7888 0.7888 0.7888 0.7887 0.7887
3789.000000 0.7887 0.7887 0.7887 0.7887 0.7887
3794.000000 0.7887 0.7887 0.7888 0.7888 0.7889
3799.000000 0.7889 0.7889 0.7889 0.7890 0.7890
3804.000000 0.7891 0.7891 0.7891
##END=
