##TITLE=HYDROLYZED SILICA (Cab-O-Sil)
##JCAMP-DX=4.24
##DATA TYPE=INFRARED SPECTRUM
##CLASS=COBLENTZ
##ORIGIN=DESOTO CHEMICAL COATINGS, INC.
##OWNER=COBLENTZ SOCIETY
Collection (C) 2018 copyright by the U.S. Secretary of Commerce
on behalf of the United States of America. All rights reserved.
##DATE=Not specified, most likely prior to 1970
##NAMES=dioxosilane
##CAS REGISTRY NO=7631-86-9
##MOLFORM=O2 Si
$$ 99+% PURE
##SOURCE REFERENCE=COBLENTZ NO. 4662
##$NIST SOURCE=COBLENTZ
##$NIST IMAGE=cob4662
##SPECTROMETER/DATA SYSTEM=Not specified, most likely a grating spectrometer.
##STATE=SOLID (0.5 mg / 300 mg CsI PELLET)
##SAMPLING PROCEDURE=TRANSMISSION
##RESOLUTION=4
##DATA PROCESSING=DIGITIZED BY NIST FROM HARD COPY (FROM TWO SEGMENTS)
##XUNITS=1/CM
##YUNITS=TRANSMITTANCE
##XFACTOR=1.000000
##YFACTOR=1
##DELTAX=1.330381
##FIRSTX=197.339
##LASTX=3988.92
##FIRSTY=0.917
##MAXX=3988.92
##MINX=197.339
##MAXY=0.97
##MINY=0.236
##NPOINTS=2851
##XYDATA=(X++(Y..Y))
197.339000 0.9170 0.9170 0.9180 0.9170 0.9170
203.990903 0.9180 0.9170 0.9180 0.9180 0.9180
210.642807 0.9170 0.9170 0.9170 0.9180 0.9180
217.294710 0.9180 0.9180 0.9200 0.9200 0.9210
223.946613 0.9210 0.9240 0.9240 0.9250 0.9250
230.598517 0.9260 0.9260 0.9260 0.9280 0.9280
237.250420 0.9280 0.9280 0.9280 0.9280 0.9280
243.902323 0.9260 0.9260 0.9260 0.9280 0.9290
250.554226 0.9290 0.9320 0.9320 0.9320 0.9320
257.206130 0.9320 0.9330 0.9330 0.9340 0.9340
263.858033 0.9340 0.9330 0.9330 0.9320 0.9320
270.509936 0.9300 0.9300 0.9290 0.9290 0.9280
277.161840 0.9280 0.9250 0.9240 0.9220 0.9220
283.813743 0.9220 0.9220 0.9240 0.9240 0.9250
290.465646 0.9250 0.9250 0.9260 0.9260 0.9260
297.117550 0.9250 0.9220 0.9220 0.9210 0.9200
303.769453 0.9200 0.9200 0.9200 0.9200 0.9200
310.421356 0.9200 0.9200 0.9200 0.9180 0.9180
317.073260 0.9170 0.9170 0.9170 0.9160 0.9160
323.725163 0.9140 0.9130 0.9120 0.9100 0.9100
330.377066 0.9090 0.9090 0.9080 0.9080 0.9080
337.028970 0.9050 0.9050 0.9050 0.9040 0.9020
343.680873 0.9020 0.9020 0.9020 0.9020 0.9010
350.332776 0.9010 0.9010 0.9010 0.9000 0.9000
356.984679 0.8980 0.8970 0.8960 0.8940 0.8930
363.636583 0.8920 0.8900 0.8890 0.8890 0.8890
370.288486 0.8880 0.8880 0.8860 0.8860 0.8860
376.940389 0.8860 0.8860 0.8850 0.8840 0.8820
383.592293 0.8800 0.8800 0.8780 0.8780 0.8780
390.244196 0.8770 0.8770 0.8770 0.8770 0.8760
396.896099 0.8760 0.8730 0.8720 0.8710 0.8680
403.548003 0.8680 0.8670 0.8670 0.8650 0.8650
410.199906 0.8630 0.8610 0.8600 0.8590 0.8590
416.851809 0.8570 0.8560 0.8530 0.8520 0.8510
423.503713 0.8490 0.8480 0.8440 0.8410 0.8400
430.155616 0.8370 0.8330 0.8240 0.8200 0.8160
436.807519 0.8110 0.8050 0.8000 0.7920 0.7830
443.459423 0.7770 0.7720 0.7680 0.7640 0.7521
450.111326 0.7400 0.7310 0.7220 0.7160 0.7100
456.763229 0.7020 0.6940 0.6831 0.6721 0.6670
463.415132 0.6600 0.6580 0.6480 0.6400 0.6380
470.067036 0.6310 0.6270 0.6260 0.6250 0.6250
476.718939 0.6250 0.6260 0.6270 0.6340 0.6460
483.370842 0.6560 0.6670 0.6839 0.6939 0.7069
490.022746 0.7200 0.7340 0.7480 0.7590 0.7710
496.674649 0.7760 0.7929 0.8069 0.8189 0.8279
503.326552 0.8370 0.8430 0.8520 0.8560 0.8650
509.978456 0.8770 0.8820 0.8880 0.8920 0.8980
516.630359 0.9000 0.9020 0.9050 0.9090 0.9100
523.282262 0.9130 0.9140 0.9160 0.9170 0.9200
529.934166 0.9210 0.9210 0.9220 0.9240 0.9250
536.586069 0.9250 0.9250 0.9260 0.9260 0.9260
543.237972 0.9280 0.9290 0.9290 0.9300 0.9320
549.889876 0.9320 0.9320 0.9330 0.9330 0.9340
556.541779 0.9340 0.9340 0.9360 0.9360 0.9360
563.193682 0.9360 0.9370 0.9370 0.9370 0.9370
569.845585 0.9370 0.9380 0.9380 0.9380 0.9400
576.497489 0.9400 0.9400 0.9400 0.9410 0.9410
583.149392 0.9410 0.9410 0.9420 0.9440 0.9450
589.801295 0.9450 0.9450 0.9450 0.9450 0.9460
596.453199 0.9460 0.9460 0.9480 0.9480 0.9480
603.105102 0.9490 0.9490 0.9490 0.9500 0.9500
609.757005 0.9520 0.9520 0.9520 0.9520 0.9520
616.408909 0.9530 0.9530 0.9530 0.9530 0.9540
623.060812 0.9540 0.9540 0.9540 0.9560 0.9560
629.712715 0.9560 0.9570 0.9570 0.9570 0.9570
636.364619 0.9570 0.9570 0.9570 0.9600 0.9600
643.016522 0.9600 0.9600 0.9600 0.9600 0.9600
649.668425 0.9610 0.9610 0.9600 0.9570 0.9540
656.320329 0.9520 0.9520 0.9500 0.9500 0.9500
662.972232 0.9520 0.9520 0.9520 0.9520 0.9530
669.624135 0.9540 0.9540 0.9570 0.9570 0.9570
676.276038 0.9570 0.9570 0.9570 0.9580 0.9580
682.927942 0.9600 0.9600 0.9600 0.9610 0.9610
689.579845 0.9610 0.9620 0.9640 0.9640 0.9650
696.231748 0.9660 0.9660 0.9660 0.9660 0.9680
702.883652 0.9680 0.9680 0.9680 0.9680 0.9680
709.535555 0.9680 0.9680 0.9660 0.9660 0.9660
716.187458 0.9650 0.9650 0.9650 0.9660 0.9690
722.839362 0.9700 0.9700 0.9690 0.9660 0.9650
729.491265 0.9650 0.9650 0.9640 0.9640 0.9640
736.143168 0.9640 0.9640 0.9650 0.9660 0.9660
742.795072 0.9660 0.9660 0.9660 0.9650 0.9640
749.446975 0.9640 0.9640 0.9650 0.9660 0.9660
756.098878 0.9650 0.9650 0.9650 0.9650 0.9650
762.750781 0.9650 0.9640 0.9640 0.9620 0.9610
769.402685 0.9580 0.9540 0.9530 0.9530 0.9520
776.054588 0.9520 0.9500 0.9460 0.9440 0.9400
782.706491 0.9340 0.9300 0.9260 0.9210 0.9200
789.358395 0.9170 0.9130 0.9100 0.9100 0.9090
796.010298 0.9050 0.9020 0.9010 0.9000 0.9000
802.662201 0.9000 0.8980 0.8980 0.8980 0.8970
809.314105 0.8970 0.8970 0.8970 0.8970 0.8960
815.966008 0.8960 0.8960 0.8970 0.8970 0.8980
822.617911 0.9000 0.9010 0.9010 0.9020 0.9040
829.269815 0.9050 0.9060 0.9080 0.9090 0.9120
835.921718 0.9130 0.9160 0.9180 0.9200 0.9210
842.573621 0.9220 0.9240 0.9250 0.9260 0.9300
849.225525 0.9320 0.9340 0.9370 0.9400 0.9420
855.877428 0.9440 0.9480 0.9500 0.9530 0.9540
862.529331 0.9560 0.9580 0.9600 0.9600 0.9610
869.181234 0.9610 0.9610 0.9620 0.9640 0.9650
875.833138 0.9660 0.9680 0.9680 0.9680 0.9680
882.485041 0.9680 0.9660 0.9660 0.9660 0.9660
889.136944 0.9660 0.9650 0.9650 0.9650 0.9650
895.788848 0.9650 0.9650 0.9640 0.9640 0.9620
902.440751 0.9620 0.9610 0.9610 0.9600 0.9600
909.092654 0.9580 0.9580 0.9570 0.9570 0.9570
915.744558 0.9570 0.9570 0.9560 0.9560 0.9540
922.396461 0.9540 0.9530 0.9530 0.9530 0.9520
929.048364 0.9520 0.9520 0.9520 0.9500 0.9490
935.700268 0.9490 0.9480 0.9460 0.9450 0.9450
942.352171 0.9420 0.9420 0.9410 0.9400 0.9380
949.004074 0.9380 0.9370 0.9360 0.9340 0.9330
955.655978 0.9320 0.9300 0.9300 0.9290 0.9280
962.307881 0.9260 0.9250 0.9250 0.9240 0.9240
968.959784 0.9220 0.9220 0.9210 0.9200 0.9180
975.611687 0.9170 0.9170 0.9170 0.9170 0.9160
982.263591 0.9160 0.9140 0.9130 0.9130 0.9130
988.915494 0.9130 0.9130 0.9120 0.9120 0.9100
995.567397 0.9100 0.9090 0.9060 0.9040 0.8980
1002.219301 0.8960 0.8900 0.8890 0.8850 0.8810
1008.871204 0.8780 0.8680 0.8600 0.8570 0.8490
1015.523107 0.8400 0.8290 0.8210 0.8130 0.8011
1022.175011 0.7910 0.7800 0.7720 0.7600 0.7510
1028.826914 0.7460 0.7360 0.7230 0.7150 0.7060
1035.478817 0.6990 0.6900 0.6780 0.6720 0.6590
1042.130721 0.6420 0.6340 0.6230 0.6190 0.6071
1048.782624 0.5980 0.5860 0.5770 0.5670 0.5490
1055.434527 0.5410 0.5330 0.5270 0.5190 0.5071
1062.086431 0.4960 0.4820 0.4740 0.4640 0.4600
1068.738334 0.4490 0.4400 0.4320 0.4200 0.4061
1075.390237 0.4000 0.3920 0.3820 0.3780 0.3690
1082.042140 0.3610 0.3510 0.3410 0.3350 0.3241
1088.694044 0.3150 0.3080 0.3030 0.2990 0.2880
1095.345947 0.2840 0.2790 0.2750 0.2710 0.2670
1101.997850 0.2600 0.2520 0.2500 0.2460 0.2430
1108.649754 0.2400 0.2390 0.2380 0.2360 0.2360
1115.301657 0.2380 0.2390 0.2430 0.2460 0.2480
1121.953560 0.2510 0.2570 0.2630 0.2650 0.2809
1128.605464 0.2910 0.2970 0.3050 0.3250 0.3440
1135.257367 0.3490 0.3570 0.3650 0.3750 0.3850
1141.909270 0.3940 0.4040 0.4100 0.4170 0.4210
1148.561174 0.4280 0.4330 0.4420 0.4500 0.4520
1155.213077 0.4570 0.4580 0.4680 0.4700 0.4760
1161.864980 0.4810 0.4890 0.4940 0.4970 0.5000
1168.516884 0.5070 0.5130 0.5180 0.5230 0.5270
1175.168787 0.5300 0.5340 0.5370 0.5380 0.5410
1181.820690 0.5470 0.5500 0.5510 0.5530 0.5570
1188.472593 0.5610 0.5670 0.5710 0.5740 0.5770
1195.124497 0.5790 0.5860 0.5870 0.5940 0.5980
1201.776400 0.6060 0.6110 0.6150 0.6180 0.6220
1208.428303 0.6280 0.6310 0.6340 0.6380 0.6440
1215.080207 0.6500 0.6560 0.6630 0.6680 0.6740
1221.732110 0.6800 0.6860 0.6910 0.6940 0.7000
1228.384013 0.7080 0.7120 0.7200 0.7340 0.7390
1235.035917 0.7420 0.7500 0.7550 0.7630 0.7670
1241.687820 0.7720 0.7800 0.7870 0.7950 0.8000
1248.339723 0.8010 0.8110 0.8200 0.8290 0.8390
1254.991627 0.8400 0.8430 0.8490 0.8550 0.8600
1261.643530 0.8710 0.8770 0.8780 0.8800 0.8820
1268.295433 0.8880 0.8900 0.8980 0.9000 0.9010
1274.947336 0.9020 0.9060 0.9080 0.9080 0.9100
1281.599240 0.9100 0.9130 0.9140 0.9140 0.9180
1288.251143 0.9180 0.9200 0.9210 0.9220 0.9240
1294.903046 0.9240 0.9250 0.9280 0.9280 0.9290
1301.554950 0.9290 0.9290 0.9290 0.9290 0.9290
1308.206853 0.9290 0.9300 0.9300 0.9320 0.9320
1314.858756 0.9320 0.9320 0.9320 0.9320 0.9320
1321.510660 0.9330 0.9370 0.9380 0.9380 0.9400
1328.162563 0.9400 0.9410 0.9410 0.9410 0.9410
1334.814466 0.9410 0.9410 0.9400 0.9400 0.9400
1341.466370 0.9400 0.9400 0.9380 0.9380 0.9380
1348.118273 0.9380 0.9370 0.9370 0.9370 0.9370
1354.770176 0.9370 0.9360 0.9360 0.9360 0.9360
1361.422080 0.9360 0.9360 0.9360 0.9360 0.9360
1368.073983 0.9360 0.9340 0.9340 0.9340 0.9340
1374.725886 0.9360 0.9360 0.9360 0.9360 0.9360
1381.377789 0.9360 0.9360 0.9360 0.9360 0.9360
1388.029693 0.9360 0.9360 0.9360 0.9370 0.9370
1394.681596 0.9370 0.9370 0.9360 0.9360 0.9360
1401.333499 0.9360 0.9360 0.9370 0.9370 0.9370
1407.985403 0.9370 0.9380 0.9380 0.9370 0.9370
1414.637306 0.9360 0.9360 0.9370 0.9370 0.9380
1421.289209 0.9380 0.9380 0.9370 0.9370 0.9360
1427.941113 0.9360 0.9340 0.9330 0.9330 0.9330
1434.593016 0.9330 0.9340 0.9340 0.9360 0.9370
1441.244919 0.9370 0.9370 0.9370 0.9370 0.9360
1447.896823 0.9360 0.9360 0.9360 0.9360 0.9370
1454.548726 0.9370 0.9370 0.9360 0.9360 0.9360
1461.200629 0.9340 0.9340 0.9330 0.9330 0.9320
1467.852533 0.9300 0.9300 0.9300 0.9300 0.9320
1474.504436 0.9320 0.9320 0.9300 0.9300 0.9320
1481.156339 0.9340 0.9340 0.9320 0.9320 0.9320
1487.808242 0.9330 0.9330 0.9340 0.9360 0.9360
1494.460146 0.9360 0.9340 0.9340 0.9340 0.9340
1501.112049 0.9340 0.9340 0.9340 0.9340 0.9340
1507.763952 0.9340 0.9330 0.9330 0.9330 0.9330
1514.415856 0.9330 0.9330 0.9330 0.9320 0.9320
1521.067759 0.9320 0.9300 0.9300 0.9300 0.9300
1527.719662 0.9300 0.9300 0.9290 0.9290 0.9290
1534.371566 0.9290 0.9290 0.9290 0.9290 0.9290
1541.023469 0.9290 0.9280 0.9280 0.9280 0.9280
1547.675372 0.9280 0.9260 0.9260 0.9250 0.9240
1554.327276 0.9240 0.9220 0.9220 0.9220 0.9220
1560.979179 0.9220 0.9210 0.9210 0.9210 0.9210
1567.631082 0.9210 0.9200 0.9200 0.9180 0.9170
1574.282986 0.9170 0.9170 0.9170 0.9170 0.9160
1580.934889 0.9160 0.9160 0.9160 0.9140 0.9140
1587.586792 0.9140 0.9140 0.9130 0.9130 0.9130
1594.238695 0.9130 0.9100 0.9090 0.9090 0.9080
1600.890599 0.9060 0.9060 0.9050 0.9050 0.9040
1607.542502 0.9040 0.9020 0.9020 0.9010 0.9010
1614.194405 0.9000 0.9000 0.8980 0.8980 0.8980
1620.846309 0.8980 0.8980 0.8980 0.9000 0.9000
1627.498212 0.9000 0.9000 0.9000 0.9000 0.9010
1634.150115 0.9010 0.9010 0.9020 0.9020 0.9040
1640.802019 0.9040 0.9040 0.9040 0.9040 0.9040
1647.453922 0.9040 0.9040 0.9040 0.9040 0.9040
1654.105825 0.9040 0.9040 0.9040 0.9040 0.9040
1660.757729 0.9040 0.9040 0.9050 0.9050 0.9050
1667.409632 0.9050 0.9050 0.9060 0.9060 0.9060
1674.061535 0.9050 0.9050 0.9060 0.9060 0.9060
1680.713438 0.9060 0.9060 0.9060 0.9080 0.9080
1687.365342 0.9060 0.9060 0.9060 0.9060 0.9050
1694.017245 0.9050 0.9050 0.9050 0.9050 0.9040
1700.669148 0.9040 0.9040 0.9040 0.9020 0.9020
1707.321052 0.9020 0.9020 0.9020 0.9020 0.9020
1713.972955 0.9020 0.9020 0.9020 0.9020 0.9020
1720.624858 0.9020 0.9020 0.9020 0.9020 0.9020
1727.276762 0.9020 0.9020 0.9020 0.9020 0.9020
1733.928665 0.9020 0.9020 0.9020 0.9020 0.9020
1740.580568 0.9020 0.9020 0.9020 0.9020 0.9020
1747.232472 0.9020 0.9020 0.9020 0.9020 0.9020
1753.884375 0.9020 0.9020 0.9020 0.9020 0.9020
1760.536278 0.9020 0.9020 0.9020 0.9020 0.9020
1767.188182 0.9020 0.9020 0.9020 0.9020 0.9020
1773.840085 0.9020 0.9020 0.9020 0.9010 0.9010
1780.491988 0.9010 0.9010 0.9010 0.9010 0.9010
1787.143891 0.9010 0.9010 0.9010 0.9010 0.9000
1793.795795 0.9000 0.9000 0.9010 0.9010 0.9010
1800.447698 0.9010 0.9000 0.9000 0.9000 0.8980
1807.099601 0.9000 0.9000 0.8980 0.8980 0.8970
1813.751505 0.8970 0.8970 0.8970 0.8970 0.8980
1820.403408 0.8980 0.8980 0.8980 0.9000 0.9000
1827.055311 0.8980 0.8980 0.8970 0.8960 0.8960
1833.707215 0.8960 0.8940 0.8940 0.8940 0.8940
1840.359118 0.8930 0.8930 0.8930 0.8930 0.8900
1847.011021 0.8900 0.8900 0.8900 0.8900 0.8900
1853.662925 0.8900 0.8900 0.8900 0.8900 0.8900
1860.314828 0.8890 0.8890 0.8890 0.8890 0.8890
1866.966731 0.8880 0.8880 0.8880 0.8880 0.8860
1873.618635 0.8860 0.8860 0.8860 0.8860 0.8860
1880.270538 0.8860 0.8860 0.8860 0.8860 0.8860
1886.922441 0.8860 0.8860 0.8850 0.8850 0.8850
1893.574344 0.8840 0.8840 0.8840 0.8840 0.8820
1900.226248 0.8820 0.8820 0.8820 0.8810 0.8810
1906.878151 0.8810 0.8810 0.8810 0.8800 0.8800
1913.530054 0.8800 0.8800 0.8800 0.8800 0.8800
1920.181958 0.8800 0.8800 0.8800 0.8800 0.8800
1926.833861 0.8800 0.8800 0.8800 0.8800 0.8800
1933.485764 0.8800 0.8800 0.8800 0.8800 0.8800
1940.137668 0.8800 0.8800 0.8800 0.8800 0.8800
1946.789571 0.8800 0.8800 0.8800 0.8780 0.8780
1953.441474 0.8780 0.8780 0.8780 0.8770 0.8770
1960.093378 0.8770 0.8770 0.8760 0.8760 0.8760
1966.745281 0.8760 0.8760 0.8750 0.8750 0.8730
1973.397184 0.8730 0.8720 0.8720 0.8720 0.8720
1980.049088 0.8720 0.8720 0.8710 0.8710 0.8710
1986.700991 0.8710 0.8710 0.8710 0.8710 0.8710
1993.352894 0.8710 0.8710 0.8710 0.8710 0.8690
2000.004797 0.8690 0.8690 0.8690 0.8690 0.8690
2006.656701 0.8690 0.8690 0.8690 0.8690 0.8685
2013.308604 0.8680 0.8680 0.8680 0.8680 0.8680
2019.960507 0.8680 0.8680 0.8680 0.8680 0.8680
2026.612411 0.8680 0.8680 0.8680 0.8675 0.8670
2033.264314 0.8670 0.8670 0.8670 0.8670 0.8670
2039.916217 0.8670 0.8660 0.8650 0.8650 0.8650
2046.568121 0.8650 0.8650 0.8650 0.8650 0.8645
2053.220024 0.8640 0.8640 0.8640 0.8640 0.8640
2059.871927 0.8640 0.8640 0.8635 0.8630 0.8630
2066.523831 0.8630 0.8630 0.8630 0.8630 0.8630
2073.175734 0.8621 0.8611 0.8610 0.8610 0.8591
2079.827637 0.8571 0.8565 0.8560 0.8560 0.8560
2086.479541 0.8560 0.8560 0.8560 0.8560 0.8560
2093.131444 0.8560 0.8560 0.8560 0.8560 0.8560
2099.783347 0.8560 0.8560 0.8560 0.8560 0.8555
2106.435250 0.8550 0.8550 0.8550 0.8550 0.8550
2113.087154 0.8541 0.8531 0.8530 0.8530 0.8530
2119.739057 0.8530 0.8525 0.8520 0.8520 0.8520
2126.390960 0.8520 0.8520 0.8516 0.8511 0.8510
2133.042864 0.8510 0.8501 0.8491 0.8485 0.8480
2139.694767 0.8480 0.8480 0.8476 0.8471 0.8470
2146.346670 0.8470 0.8470 0.8470 0.8457 0.8442
2152.998574 0.8440 0.8440 0.8427 0.8412 0.8410
2159.650477 0.8410 0.8406 0.8401 0.8400 0.8400
2166.302380 0.8400 0.8400 0.8400 0.8400 0.8400
2172.954284 0.8400 0.8400 0.8400 0.8400 0.8400
2179.606187 0.8396 0.8391 0.8390 0.8390 0.8390
2186.258090 0.8390 0.8390 0.8390 0.8381 0.8371
2192.909993 0.8370 0.8370 0.8366 0.8361 0.8356
2199.561897 0.8351 0.8350 0.8350 0.8350 0.8350
2206.213800 0.8342 0.8332 0.8330 0.8330 0.8330
2212.865703 0.8330 0.8326 0.8321 0.8320 0.8320
2219.517607 0.8320 0.8320 0.8307 0.8292 0.8290
2226.169510 0.8290 0.8290 0.8290 0.8286 0.8281
2232.821413 0.8280 0.8280 0.8276 0.8271 0.8270
2239.473317 0.8270 0.8270 0.8270 0.8270 0.8270
2246.125220 0.8262 0.8252 0.8250 0.8250 0.8250
2252.777123 0.8250 0.8246 0.8241 0.8240 0.8240
2259.429027 0.8240 0.8240 0.8240 0.8240 0.8240
2266.080930 0.8240 0.8236 0.8231 0.8230 0.8230
2272.732833 0.8230 0.8230 0.8230 0.8230 0.8222
2279.384737 0.8212 0.8210 0.8210 0.8210 0.8210
2286.036640 0.8210 0.8210 0.8202 0.8192 0.8190
2292.688543 0.8190 0.8182 0.8172 0.8170 0.8170
2299.340446 0.8170 0.8170 0.8166 0.8161 0.8160
2305.992350 0.8160 0.8160 0.8160 0.8156 0.8151
2312.644253 0.8142 0.8132 0.8126 0.8121 0.8116
2319.296156 0.8111 0.8098 0.8083 0.8068 0.8053
2325.948060 0.8046 0.8041 0.8036 0.8031 0.8022
2332.599963 0.8012 0.8010 0.8010 0.8006 0.8001
2339.251866 0.7996 0.7991 0.7982 0.7972 0.7966
2345.903770 0.7961 0.7960 0.7960 0.7964 0.7969
2352.555673 0.7978 0.7988 0.7990 0.7990 0.7990
2359.207576 0.7990 0.7990 0.7990 0.7990 0.7990
2365.859480 0.7990 0.7990 0.7990 0.7990 0.7990
2372.511383 0.7990 0.7990 0.7990 0.7994 0.7999
2379.163286 0.8000 0.8000 0.7996 0.7991 0.7990
2385.815190 0.7990 0.7990 0.7990 0.7983 0.7973
2392.467093 0.7956 0.7936 0.7926 0.7921 0.7920
2399.118996 0.7920 0.7916 0.7911 0.7910 0.7910
2405.770899 0.7903 0.7893 0.7890 0.7890 0.7886
2412.422803 0.7881 0.7880 0.7880 0.7880 0.7880
2419.074706 0.7880 0.7880 0.7876 0.7872 0.7870
2425.726609 0.7870 0.7870 0.7870 0.7870 0.7870
2432.378513 0.7863 0.7853 0.7846 0.7841 0.7840
2439.030416 0.7840 0.7837 0.7832 0.7830 0.7830
2445.682319 0.7823 0.7813 0.7807 0.7802 0.7800
2452.334223 0.7800 0.7796 0.7792 0.7790 0.7790
2458.986126 0.7790 0.7790 0.7783 0.7773 0.7770
2465.638029 0.7770 0.7770 0.7770 0.7770 0.7770
2472.289933 0.7767 0.7762 0.7760 0.7760 0.7757
2478.941836 0.7752 0.7750 0.7750 0.7743 0.7733
2485.593739 0.7730 0.7730 0.7730 0.7730 0.7727
2492.245643 0.7722 0.7717 0.7712 0.7710 0.7710
2498.897546 0.7710 0.7710 0.7710 0.7710 0.7703
2505.549449 0.7693 0.7690 0.7690 0.7690 0.7690
2512.201352 0.7687 0.7682 0.7680 0.7680 0.7680
2518.853256 0.7680 0.7680 0.7680 0.7680 0.7680
2525.505159 0.7680 0.7680 0.7677 0.7672 0.7670
2532.157062 0.7670 0.7670 0.7670 0.7670 0.7670
2538.808966 0.7670 0.7670 0.7670 0.7670 0.7664
2545.460869 0.7654 0.7647 0.7642 0.7640 0.7640
2552.112772 0.7631 0.7616 0.7607 0.7602 0.7597
2558.764676 0.7592 0.7590 0.7590 0.7584 0.7574
2565.416579 0.7570 0.7570 0.7570 0.7570 0.7570
2572.068482 0.7570 0.7570 0.7570 0.7567 0.7562
2578.720386 0.7551 0.7536 0.7527 0.7522 0.7517
2585.372289 0.7512 0.7507 0.7502 0.7500 0.7500
2592.024192 0.7500 0.7500 0.7500 0.7500 0.7500
2598.676096 0.7500 0.7494 0.7484 0.7480 0.7480
2605.327999 0.7480 0.7480 0.7477 0.7472 0.7470
2611.979902 0.7470 0.7470 0.7470 0.7470 0.7470
2618.631805 0.7467 0.7462 0.7454 0.7444 0.7440
2625.283709 0.7440 0.7434 0.7424 0.7420 0.7420
2631.935612 0.7414 0.7404 0.7400 0.7400 0.7397
2638.587515 0.7392 0.7390 0.7390 0.7390 0.7390
2645.239419 0.7390 0.7390 0.7387 0.7382 0.7380
2651.891322 0.7380 0.7380 0.7380 0.7380 0.7380
2658.543225 0.7380 0.7380 0.7380 0.7380 0.7380
2665.195129 0.7380 0.7372 0.7357 0.7347 0.7342
2671.847032 0.7334 0.7325 0.7320 0.7320 0.7317
2678.498935 0.7312 0.7307 0.7302 0.7295 0.7285
2685.150839 0.7280 0.7280 0.7280 0.7280 0.7277
2691.802742 0.7272 0.7270 0.7270 0.7267 0.7262
2698.454645 0.7260 0.7260 0.7255 0.7245 0.7237
2705.106548 0.7232 0.7230 0.7230 0.7230 0.7230
2711.758452 0.7227 0.7222 0.7220 0.7220 0.7220
2718.410355 0.7220 0.7220 0.7220 0.7220 0.7220
2725.062258 0.7220 0.7220 0.7220 0.7220 0.7215
2731.714162 0.7205 0.7200 0.7200 0.7200 0.7200
2738.366065 0.7200 0.7200 0.7200 0.7200 0.7200
2745.017968 0.7200 0.7200 0.7200 0.7200 0.7200
2751.669872 0.7198 0.7193 0.7190 0.7190 0.7183
2758.321775 0.7168 0.7150 0.7130 0.7120 0.7120
2764.973678 0.7118 0.7113 0.7108 0.7103 0.7095
2771.625582 0.7085 0.7078 0.7073 0.7068 0.7063
2778.277485 0.7060 0.7060 0.7055 0.7045 0.7040
2784.929388 0.7040 0.7040 0.7040 0.7038 0.7033
2791.581292 0.7030 0.7030 0.7028 0.7023 0.7020
2798.233195 0.7020 0.7015 0.7005 0.7000 0.7000
2804.885098 0.7000 0.7000 0.6998 0.6993 0.6990
2811.537001 0.6990 0.6990 0.6990 0.6988 0.6983
2818.188905 0.6980 0.6980 0.6980 0.6980 0.6976
2824.840808 0.6966 0.6958 0.6953 0.6948 0.6943
2831.492711 0.6936 0.6926 0.6918 0.6913 0.6908
2838.144615 0.6903 0.6896 0.6886 0.6880 0.6880
2844.796518 0.6878 0.6873 0.6864 0.6849 0.6838
2851.448421 0.6833 0.6828 0.6823 0.6816 0.6806
2858.100325 0.6798 0.6793 0.6790 0.6790 0.6790
2864.752228 0.6790 0.6790 0.6790 0.6788 0.6783
2871.404131 0.6780 0.6780 0.6780 0.6780 0.6780
2878.056035 0.6780 0.6774 0.6759 0.6750 0.6750
2884.707938 0.6748 0.6743 0.6740 0.6740 0.6740
2891.359841 0.6740 0.6736 0.6726 0.6720 0.6720
2898.011745 0.6720 0.6720 0.6718 0.6713 0.6710
2904.663648 0.6710 0.6708 0.6703 0.6700 0.6700
2911.315551 0.6694 0.6679 0.6670 0.6670 0.6668
2917.967454 0.6663 0.6649 0.6619 0.6596 0.6586
2924.619358 0.6576 0.6566 0.6558 0.6553 0.6548
2931.271261 0.6543 0.6540 0.6540 0.6536 0.6526
2937.923164 0.6520 0.6520 0.6518 0.6513 0.6510
2944.575068 0.6510 0.6510 0.6510 0.6510 0.6510
2951.226971 0.6512 0.6517 0.6520 0.6520 0.6520
2957.878874 0.6520 0.6524 0.6534 0.6540 0.6540
2964.530778 0.6540 0.6540 0.6540 0.6540 0.6540
2971.182681 0.6540 0.6537 0.6527 0.6518 0.6513
2977.834584 0.6510 0.6510 0.6510 0.6510 0.6510
2984.486488 0.6510 0.6508 0.6503 0.6497 0.6487
2991.138391 0.6480 0.6480 0.6480 0.6480 0.6480
2997.790294 0.6480 0.6480 0.6480 0.6480 0.6480
3004.442198 0.6478 0.6473 0.6470 0.6470 0.6468
3011.094101 0.6463 0.6457 0.6447 0.6440 0.6440
3017.746004 0.6440 0.6440 0.6440 0.6440 0.6438
3024.397907 0.6433 0.6430 0.6430 0.6430 0.6430
3031.049811 0.6430 0.6430 0.6430 0.6430 0.6429
3037.701714 0.6423 0.6420 0.6420 0.6417 0.6407
3044.353617 0.6400 0.6400 0.6399 0.6394 0.6389
3051.005521 0.6384 0.6380 0.6380 0.6377 0.6367
3057.657424 0.6359 0.6354 0.6350 0.6350 0.6349
3064.309327 0.6344 0.6337 0.6327 0.6320 0.6320
3070.961231 0.6319 0.6314 0.6309 0.6304 0.6297
3077.613134 0.6287 0.6280 0.6280 0.6279 0.6274
3084.265037 0.6269 0.6264 0.6259 0.6254 0.6250
3090.916941 0.6250 0.6250 0.6250 0.6247 0.6237
3097.568844 0.6230 0.6230 0.6230 0.6230 0.6229
3104.220747 0.6224 0.6220 0.6220 0.6220 0.6220
3110.872651 0.6219 0.6214 0.6208 0.6198 0.6190
3117.524554 0.6190 0.6189 0.6184 0.6180 0.6180
3124.176457 0.6176 0.6161 0.6149 0.6144 0.6139
3130.828360 0.6134 0.6130 0.6130 0.6128 0.6118
3137.480264 0.6110 0.6110 0.6109 0.6104 0.6099
3144.132167 0.6094 0.6088 0.6078 0.6070 0.6070
3150.784070 0.6070 0.6070 0.6069 0.6064 0.6059
3157.435974 0.6054 0.6048 0.6038 0.6029 0.6024
3164.087877 0.6020 0.6020 0.6020 0.6020 0.6019
3170.739780 0.6014 0.6010 0.6010 0.6008 0.5998
3177.391684 0.5990 0.5990 0.5989 0.5984 0.5980
3184.043587 0.5980 0.5979 0.5974 0.5970 0.5970
3190.695490 0.5970 0.5970 0.5968 0.5958 0.5950
3197.347394 0.5950 0.5948 0.5938 0.5930 0.5930
3203.999297 0.5928 0.5918 0.5909 0.5904 0.5900
3210.651200 0.5900 0.5899 0.5894 0.5888 0.5878
3217.303103 0.5869 0.5864 0.5859 0.5854 0.5848
3223.955007 0.5838 0.5829 0.5824 0.5819 0.5814
3230.606910 0.5808 0.5798 0.5789 0.5784 0.5780
3237.258813 0.5780 0.5780 0.5780 0.5779 0.5774
3243.910717 0.5770 0.5770 0.5770 0.5770 0.5768
3250.562620 0.5753 0.5739 0.5734 0.5730 0.5730
3257.214523 0.5730 0.5730 0.5728 0.5718 0.5709
3263.866427 0.5704 0.5700 0.5700 0.5699 0.5694
3270.518330 0.5690 0.5690 0.5689 0.5679 0.5670
3277.170233 0.5670 0.5668 0.5658 0.5649 0.5639
3283.822137 0.5629 0.5624 0.5619 0.5614 0.5609
3290.474040 0.5599 0.5589 0.5584 0.5580 0.5580
3297.125943 0.5579 0.5574 0.5570 0.5570 0.5569
3303.777847 0.5559 0.5550 0.5550 0.5549 0.5544
3310.429750 0.5539 0.5534 0.5530 0.5530 0.5529
3317.081653 0.5519 0.5510 0.5510 0.5509 0.5499
3323.733556 0.5490 0.5490 0.5489 0.5479 0.5470
3330.385460 0.5470 0.5470 0.5470 0.5469 0.5464
3337.037363 0.5460 0.5460 0.5459 0.5454 0.5450
3343.689266 0.5450 0.5450 0.5450 0.5449 0.5439
3350.341170 0.5430 0.5430 0.5430 0.5425 0.5420
3356.993073 0.5415 0.5409 0.5399 0.5390 0.5390
3363.644976 0.5390 0.5385 0.5380 0.5375 0.5370
3370.296880 0.5370 0.5369 0.5359 0.5350 0.5345
3376.948783 0.5340 0.5335 0.5329 0.5319 0.5310
3383.600686 0.5310 0.5310 0.5305 0.5300 0.5300
3390.252590 0.5300 0.5295 0.5290 0.5290 0.5289
3396.904493 0.5279 0.5270 0.5270 0.5270 0.5265
3403.556396 0.5260 0.5260 0.5260 0.5255 0.5250
3410.208300 0.5239 0.5230 0.5230 0.5230 0.5225
3416.860203 0.5220 0.5215 0.5210 0.5210 0.5210
3423.512106 0.5200 0.5190 0.5190 0.5190 0.5185
3430.164009 0.5180 0.5175 0.5170 0.5170 0.5170
3436.815913 0.5160 0.5150 0.5145 0.5140 0.5140
3443.467816 0.5140 0.5140 0.5140 0.5135 0.5130
3450.119719 0.5130 0.5130 0.5130 0.5130 0.5130
3456.771623 0.5130 0.5120 0.5110 0.5110 0.5110
3463.423526 0.5110 0.5110 0.5105 0.5100 0.5100
3470.075429 0.5100 0.5100 0.5100 0.5095 0.5090
3476.727333 0.5090 0.5090 0.5090 0.5090 0.5090
3483.379236 0.5090 0.5090 0.5090 0.5090 0.5090
3490.031139 0.5080 0.5070 0.5070 0.5070 0.5070
3496.683043 0.5070 0.5070 0.5070 0.5065 0.5060
3503.334946 0.5060 0.5060 0.5055 0.5050 0.5050
3509.986849 0.5050 0.5050 0.5050 0.5040 0.5030
3516.638753 0.5030 0.5030 0.5030 0.5030 0.5030
3523.290656 0.5030 0.5030 0.5030 0.5030 0.5030
3529.942559 0.5030 0.5030 0.5030 0.5030 0.5040
3536.594462 0.5050 0.5050 0.5050 0.5050 0.5050
3543.246366 0.5050 0.5050 0.5050 0.5050 0.5050
3549.898269 0.5050 0.5050 0.5050 0.5050 0.5050
3556.550172 0.5050 0.5050 0.5050 0.5050 0.5050
3563.202076 0.5050 0.5050 0.5050 0.5050 0.5050
3569.853979 0.5050 0.5050 0.5050 0.5050 0.5050
3576.505882 0.5050 0.5050 0.5050 0.5050 0.5050
3583.157786 0.5050 0.5050 0.5050 0.5050 0.5050
3589.809689 0.5050 0.5050 0.5050 0.5041 0.5031
3596.461592 0.5030 0.5030 0.5030 0.5030 0.5030
3603.113496 0.5030 0.5030 0.5030 0.5030 0.5030
3609.765399 0.5030 0.5030 0.5025 0.5020 0.5020
3616.417302 0.5020 0.5020 0.5020 0.5015 0.5010
3623.069205 0.5005 0.5000 0.5000 0.5000 0.5000
3629.721109 0.5000 0.5000 0.5000 0.5000 0.5000
3636.373012 0.4991 0.4981 0.4980 0.4980 0.4980
3643.024915 0.4980 0.4980 0.4980 0.4980 0.4980
3649.676819 0.4980 0.4980 0.4980 0.4980 0.4980
3656.328722 0.4980 0.4980 0.4980 0.4980 0.4980
3662.980625 0.4980 0.4980 0.4976 0.4971 0.4970
3669.632529 0.4970 0.4970 0.4970 0.4970 0.4970
3676.284432 0.4966 0.4961 0.4960 0.4960 0.4960
3682.936335 0.4960 0.4960 0.4960 0.4960 0.4960
3689.588239 0.4951 0.4941 0.4940 0.4940 0.4940
3696.240142 0.4940 0.4940 0.4940 0.4936 0.4931
3702.892045 0.4930 0.4930 0.4926 0.4921 0.4920
3709.543949 0.4920 0.4911 0.4901 0.4900 0.4900
3716.195852 0.4900 0.4900 0.4900 0.4900 0.4900
3722.847755 0.4900 0.4896 0.4891 0.4890 0.4890
3729.499658 0.4886 0.4881 0.4880 0.4880 0.4872
3736.151562 0.4862 0.4860 0.4860 0.4856 0.4851
3742.803465 0.4850 0.4850 0.4846 0.4841 0.4840
3749.455368 0.4840 0.4840 0.4840 0.4832 0.4822
3756.107272 0.4820 0.4820 0.4820 0.4820 0.4820
3762.759175 0.4820 0.4816 0.4811 0.4810 0.4810
3769.411078 0.4810 0.4810 0.4806 0.4801 0.4800
3776.062982 0.4800 0.4800 0.4800 0.4792 0.4782
3782.714885 0.4780 0.4780 0.4780 0.4780 0.4780
3789.366788 0.4780 0.4776 0.4771 0.4770 0.4770
3796.018692 0.4770 0.4770 0.4766 0.4761 0.4760
3802.670595 0.4760 0.4760 0.4760 0.4752 0.4742
3809.322498 0.4736 0.4731 0.4730 0.4730 0.4726
3815.974402 0.4721 0.4720 0.4720 0.4712 0.4702
3822.626305 0.4700 0.4700 0.4696 0.4691 0.4690
3829.278208 0.4690 0.4686 0.4681 0.4680 0.4680
3835.930111 0.4672 0.4662 0.4660 0.4660 0.4660
3842.582015 0.4660 0.4656 0.4651 0.4650 0.4650
3849.233918 0.4646 0.4641 0.4640 0.4640 0.4632
3855.885821 0.4622 0.4620 0.4620 0.4620 0.4620
3862.537725 0.4616 0.4611 0.4610 0.4610 0.4610
3869.189628 0.4610 0.4610 0.4610 0.4606 0.4601
3875.841531 0.4600 0.4600 0.4600 0.4600 0.4600
3882.493435 0.4600 0.4593 0.4583 0.4576 0.4571
3889.145338 0.4570 0.4570 0.4566 0.4561 0.4560
3895.797241 0.4560 0.4553 0.4543 0.4540 0.4540
3902.449145 0.4536 0.4531 0.4530 0.4530 0.4526
3909.101048 0.4521 0.4513 0.4503 0.4496 0.4491
3915.752951 0.4490 0.4490 0.4490 0.4490 0.4486
3922.404855 0.4481 0.4480 0.4480 0.4473 0.4463
3929.056758 0.4460 0.4460 0.4456 0.4451 0.4450
3935.708661 0.4450 0.4450 0.4450 0.4447 0.4442
3942.360564 0.4433 0.4423 0.4416 0.4411 0.4410
3949.012468 0.4410 0.4410 0.4410 0.4410 0.4410
3955.664371 0.4410 0.4410 0.4410 0.4410 0.4407
3962.316274 0.4402 0.4400 0.4400 0.4400 0.4400
3968.968178 0.4393 0.4383 0.4380 0.4380 0.4377
3975.620081 0.4372 0.4360 0.4345 0.4337 0.4332
3982.271984 0.4327 0.4322 0.4320 0.4320 0.4320
3988.923888 0.4320
##END=
