##TITLE=CRYSTALLINE SILICA
##JCAMP-DX=4.24
##DATA TYPE=INFRARED SPECTRUM
##CLASS=COBLENTZ III
##ORIGIN=DESOTO CHEMICAL COATINGS, INC.
##OWNER=COBLENTZ SOCIETY
Collection (C) 2018 copyright by the U.S. Secretary of Commerce
on behalf of the United States of America. All rights reserved.
##DATE=Not specified, most likely prior to 1970
##NAMES=dioxosilane
##CAS REGISTRY NO=7631-86-9
##MOLFORM=O2 Si
##SOURCE REFERENCE=COBLENTZ NO. 4663
##$NIST SOURCE=COBLENTZ
##$NIST IMAGE=cob4663
##SPECTROMETER/DATA SYSTEM=BECKMAN IR-12 (GRATING)
##INSTRUMENT PARAMETERS=GRATING BLAZED AT 3330, 1330, 445, 220 CM^-^1
##STATE=SOLID (0.5 mg / 300 mg CsI DISC)
##SAMPLING PROCEDURE=TRANSMISSION
##RESOLUTION=4
##DATA PROCESSING=DIGITIZED BY NIST FROM HARD COPY (FROM TWO SEGMENTS)
##XUNITS=1/CM
##YUNITS=TRANSMITTANCE
##XFACTOR=1.000000
##YFACTOR=1
##DELTAX=1.332347
##FIRSTX=198.668
##LASTX=3986.53
##FIRSTY=0.763
##MAXX=3986.53
##MINX=198.668
##MAXY=0.973
##MINY=0.036
##NPOINTS=2844
##XYDATA=(X++(Y..Y))
198.668000 0.7630 0.7630 0.7640 0.7640 0.7630
205.329737 0.7630 0.7640 0.7640 0.7640 0.7670
211.991474 0.7680 0.7680 0.7680 0.7680 0.7680
218.653211 0.7690 0.7690 0.7690 0.7710 0.7750
225.314948 0.7760 0.7760 0.7800 0.7830 0.7840
231.976685 0.7850 0.7870 0.7880 0.7890 0.7910
238.638422 0.7920 0.7920 0.7950 0.7960 0.7960
245.300158 0.7960 0.7960 0.7970 0.7970 0.7970
251.961895 0.7970 0.7970 0.7970 0.7960 0.7960
258.623632 0.7950 0.7920 0.7910 0.7880 0.7850
265.285369 0.7840 0.7830 0.7790 0.7770 0.7750
271.947106 0.7750 0.7770 0.7800 0.7800 0.7800
278.608843 0.7840 0.7840 0.7830 0.7810 0.7800
285.270580 0.7790 0.7760 0.7760 0.7760 0.7770
291.932317 0.7770 0.7790 0.7790 0.7790 0.7760
298.594054 0.7760 0.7750 0.7750 0.7720 0.7720
305.255791 0.7730 0.7750 0.7750 0.7730 0.7720
311.917528 0.7720 0.7720 0.7710 0.7710 0.7720
318.579265 0.7720 0.7710 0.7710 0.7710 0.7710
325.241002 0.7710 0.7710 0.7720 0.7710 0.7710
331.902739 0.7710 0.7710 0.7710 0.7710 0.7690
338.564475 0.7690 0.7680 0.7680 0.7670 0.7640
345.226212 0.7630 0.7600 0.7600 0.7590 0.7590
351.887949 0.7570 0.7530 0.7480 0.7450 0.7420
358.549686 0.7410 0.7380 0.7380 0.7320 0.7170
365.211423 0.7050 0.7010 0.6701 0.6312 0.6012
371.873160 0.5100 0.4640 0.4440 0.4440 0.4490
378.534897 0.4649 0.4879 0.5298 0.5598 0.5898
385.196634 0.6010 0.6260 0.6490 0.6490 0.6410
391.858371 0.6310 0.6190 0.6031 0.4797 0.3607
398.520108 0.3600 0.3890 0.4190 0.4799 0.5189
405.181845 0.5559 0.6177 0.6409 0.6778 0.6919
411.843582 0.7080 0.7080 0.7130 0.7140 0.7160
418.505319 0.7170 0.7180 0.7200 0.7210 0.7210
425.167056 0.7220 0.7220 0.7220 0.7210 0.7200
431.828792 0.7200 0.7180 0.7140 0.7120 0.7090
438.490529 0.7020 0.7000 0.6940 0.6890 0.6760
445.152266 0.6551 0.6430 0.6301 0.6101 0.5951
451.814003 0.5190 0.4690 0.4200 0.3501 0.3111
458.475740 0.2791 0.2342 0.2230 0.2121 0.1921
465.137477 0.1900 0.1900 0.1910 0.2020 0.2120
471.799214 0.2349 0.2499 0.2609 0.2859 0.3228
478.460951 0.3440 0.3660 0.3890 0.4469 0.4889
485.122688 0.5109 0.5299 0.5400 0.5509 0.5619
491.784425 0.5760 0.5830 0.5860 0.5890 0.5870
498.446162 0.5830 0.5760 0.5700 0.5312 0.5201
505.107899 0.5070 0.4930 0.4800 0.4600 0.4480
511.769636 0.4370 0.4350 0.4350 0.4360 0.4390
518.431373 0.4470 0.4560 0.4840 0.5189 0.5499
525.093109 0.5789 0.6019 0.6309 0.6618 0.6888
531.754846 0.7080 0.7240 0.7400 0.7590 0.7720
538.416583 0.7909 0.8030 0.8130 0.8210 0.8309
545.078320 0.8420 0.8510 0.8540 0.8620 0.8670
551.740057 0.8720 0.8780 0.8840 0.8939 0.8940
558.401794 0.8980 0.9000 0.9020 0.9030 0.9040
565.063531 0.9070 0.9100 0.9120 0.9140 0.9150
571.725268 0.9150 0.9170 0.9180 0.9190 0.9220
578.387005 0.9230 0.9260 0.9290 0.9310 0.9330
585.048742 0.9350 0.9370 0.9380 0.9390 0.9410
591.710479 0.9420 0.9420 0.9430 0.9460 0.9490
598.372216 0.9500 0.9500 0.9510 0.9530 0.9530
605.033953 0.9540 0.9550 0.9550 0.9550 0.9550
611.695690 0.9570 0.9570 0.9570 0.9580 0.9580
618.357426 0.9580 0.9590 0.9610 0.9620 0.9620
625.019163 0.9630 0.9630 0.9650 0.9650 0.9650
631.680900 0.9660 0.9660 0.9660 0.9670 0.9670
638.342637 0.9690 0.9690 0.9690 0.9690 0.9690
645.004374 0.9690 0.9690 0.9700 0.9700 0.9700
651.666111 0.9710 0.9710 0.9710 0.9710 0.9710
658.327848 0.9700 0.9700 0.9700 0.9690 0.9670
664.989585 0.9660 0.9650 0.9620 0.9610 0.9610
671.651322 0.9610 0.9620 0.9620 0.9620 0.9630
678.313059 0.9630 0.9630 0.9630 0.9620 0.9620
684.974796 0.9590 0.9590 0.9580 0.9570 0.9540
691.636533 0.9510 0.9500 0.9410 0.9330 0.8821
698.298270 0.8471 0.8251 0.8081 0.8080 0.8458
704.960006 0.8620 0.8780 0.8950 0.9110 0.9220
711.621743 0.9300 0.9310 0.9410 0.9430 0.9500
718.283480 0.9500 0.9550 0.9610 0.9610 0.9620
724.945217 0.9630 0.9650 0.9660 0.9660 0.9670
731.606954 0.9670 0.9690 0.9690 0.9690 0.9700
738.268691 0.9700 0.9690 0.9690 0.9670 0.9660
744.930428 0.9650 0.9630 0.9610 0.9590 0.9580
751.592165 0.9570 0.9550 0.9540 0.9530 0.9500
758.253902 0.9450 0.9420 0.9410 0.9380 0.9370
764.915639 0.9300 0.9210 0.9120 0.8921 0.8671
771.577376 0.8560 0.8310 0.8030 0.7631 0.6892
778.239113 0.6412 0.5484 0.5142 0.5140 0.5339
784.900850 0.5520 0.5600 0.5640 0.5850 0.6219
791.562587 0.6230 0.6180 0.6051 0.4976 0.4632
798.224323 0.4190 0.4100 0.3800 0.3800 0.4558
804.886060 0.4969 0.5388 0.5599 0.5799 0.6217
811.547797 0.7050 0.7240 0.7420 0.7789 0.8149
818.209534 0.8339 0.8509 0.8629 0.8720 0.8839
824.871271 0.8940 0.9030 0.9100 0.9110 0.9210
831.533008 0.9250 0.9270 0.9300 0.9340 0.9410
838.194745 0.9410 0.9430 0.9460 0.9510 0.9530
844.856482 0.9540 0.9570 0.9580 0.9590 0.9610
851.518219 0.9620 0.9630 0.9650 0.9660 0.9660
858.179956 0.9670 0.9670 0.9690 0.9700 0.9700
864.841693 0.9710 0.9710 0.9730 0.9730 0.9730
871.503430 0.9730 0.9730 0.9730 0.9730 0.9730
878.165167 0.9730 0.9710 0.9710 0.9710 0.9710
884.826904 0.9700 0.9700 0.9700 0.9690 0.9690
891.488640 0.9670 0.9670 0.9660 0.9660 0.9650
898.150377 0.9650 0.9630 0.9620 0.9610 0.9590
904.812114 0.9580 0.9550 0.9540 0.9540 0.9530
911.473851 0.9530 0.9510 0.9500 0.9490 0.9470
918.135588 0.9460 0.9430 0.9410 0.9410 0.9390
924.797325 0.9370 0.9350 0.9330 0.9300 0.9270
931.459062 0.9260 0.9260 0.9230 0.9210 0.9190
938.120799 0.9190 0.9170 0.9140 0.9120 0.9120
944.782536 0.9110 0.9060 0.9030 0.9020 0.8940
951.444273 0.8920 0.8880 0.8840 0.8820 0.8820
958.106010 0.8800 0.8750 0.8710 0.8710 0.8660
964.767747 0.8630 0.8620 0.8550 0.8520 0.8510
971.429484 0.8500 0.8430 0.8340 0.8310 0.8250
978.091221 0.8230 0.8150 0.8110 0.8050 0.8010
984.752957 0.7960 0.7910 0.7840 0.7800 0.7750
991.414694 0.7720 0.7680 0.7630 0.7550 0.7510
998.076431 0.7420 0.7410 0.7380 0.7240 0.7160
1004.738168 0.7100 0.7020 0.7010 0.6920 0.6900
1011.399905 0.6860 0.6740 0.6620 0.6590 0.6510
1018.061642 0.6430 0.6330 0.6260 0.6220 0.6071
1024.723379 0.5910 0.5860 0.5720 0.5660 0.5600
1031.385116 0.5401 0.5280 0.5190 0.5071 0.5020
1038.046853 0.4890 0.4730 0.4640 0.4510 0.4360
1044.708590 0.4240 0.4160 0.4051 0.3901 0.3701
1051.370327 0.3520 0.3360 0.3210 0.3100 0.2990
1058.032064 0.2860 0.2730 0.2511 0.2381 0.2300
1064.693801 0.1990 0.1880 0.1800 0.1640 0.1490
1071.355538 0.1311 0.1190 0.1090 0.1000 0.0811
1078.017274 0.0720 0.0610 0.0540 0.0490 0.0480
1084.679011 0.0440 0.0420 0.0400 0.0400 0.0380
1091.340748 0.0370 0.0370 0.0360 0.0360 0.0360
1098.002485 0.0360 0.0360 0.0370 0.0370 0.0380
1104.664222 0.0400 0.0410 0.0450 0.0450 0.0480
1111.325959 0.0520 0.0560 0.0580 0.0610 0.0650
1117.987696 0.0690 0.0730 0.0820 0.0890 0.0910
1124.649433 0.0930 0.1000 0.1050 0.1120 0.1190
1131.311170 0.1320 0.1320 0.1350 0.1390 0.1430
1137.972907 0.1490 0.1520 0.1590 0.1610 0.1640
1144.634644 0.1720 0.1790 0.1820 0.1940 0.1990
1151.296381 0.2040 0.2239 0.2280 0.2389 0.2499
1157.958118 0.2590 0.2660 0.2660 0.2610 0.2500
1164.619854 0.2400 0.2380 0.2360 0.2380 0.2420
1171.281591 0.2530 0.2730 0.2810 0.3010 0.3100
1177.943328 0.3210 0.3290 0.3419 0.3609 0.3690
1184.605065 0.3760 0.3900 0.4010 0.4100 0.4270
1191.266802 0.4360 0.4509 0.4610 0.4690 0.4760
1197.928539 0.4890 0.4970 0.5070 0.5150 0.5280
1204.590276 0.5360 0.5420 0.5460 0.5500 0.5550
1211.252013 0.5630 0.5710 0.5750 0.5830 0.5860
1217.913750 0.5940 0.6030 0.6070 0.6140 0.6210
1224.575487 0.6310 0.6330 0.6350 0.6410 0.6430
1231.237224 0.6500 0.6510 0.6550 0.6610 0.6620
1237.898961 0.6650 0.6680 0.6700 0.6720 0.6740
1244.560698 0.6810 0.6810 0.6840 0.6850 0.6880
1251.222435 0.6900 0.6900 0.6930 0.6960 0.6960
1257.884171 0.6970 0.7010 0.7040 0.7040 0.7060
1264.545908 0.7100 0.7100 0.7130 0.7130 0.7170
1271.207645 0.7180 0.7200 0.7210 0.7210 0.7220
1277.869382 0.7240 0.7250 0.7250 0.7280 0.7290
1284.531119 0.7300 0.7300 0.7300 0.7330 0.7340
1291.192856 0.7370 0.7380 0.7400 0.7400 0.7400
1297.854593 0.7410 0.7410 0.7420 0.7450 0.7460
1304.516330 0.7460 0.7490 0.7510 0.7510 0.7520
1311.178067 0.7530 0.7560 0.7570 0.7610 0.7610
1317.839804 0.7610 0.7630 0.7630 0.7630 0.7630
1324.501541 0.7640 0.7650 0.7650 0.7670 0.7690
1331.163278 0.7690 0.7710 0.7720 0.7730 0.7750
1337.825015 0.7750 0.7750 0.7750 0.7760 0.7770
1344.486752 0.7790 0.7790 0.7800 0.7800 0.7800
1351.148488 0.7800 0.7800 0.7830 0.7840 0.7840
1357.810225 0.7840 0.7850 0.7850 0.7870 0.7870
1364.471962 0.7870 0.7880 0.7880 0.7880 0.7890
1371.133699 0.7890 0.7890 0.7910 0.7890 0.7910
1377.795436 0.7910 0.7910 0.7910 0.7910 0.7910
1384.457173 0.7920 0.7920 0.7920 0.7920 0.7930
1391.118910 0.7950 0.7950 0.7950 0.7950 0.7960
1397.780647 0.7960 0.7970 0.7970 0.7990 0.7990
1404.442384 0.7990 0.7990 0.8000 0.8000 0.8000
1411.104121 0.8000 0.8000 0.8010 0.8010 0.8010
1417.765858 0.8010 0.8030 0.8030 0.8030 0.8030
1424.427595 0.8030 0.8030 0.8030 0.8030 0.8030
1431.089332 0.8030 0.8040 0.8050 0.8050 0.8050
1437.751069 0.8050 0.8070 0.8070 0.8070 0.8080
1444.412805 0.8080 0.8080 0.8080 0.8080 0.8080
1451.074542 0.8080 0.8080 0.8080 0.8080 0.8080
1457.736279 0.8080 0.8090 0.8090 0.8090 0.8090
1464.398016 0.8090 0.8090 0.8090 0.8090 0.8090
1471.059753 0.8090 0.8090 0.8090 0.8090 0.8090
1477.721490 0.8090 0.8090 0.8090 0.8090 0.8110
1484.383227 0.8110 0.8110 0.8120 0.8130 0.8150
1491.044964 0.8150 0.8150 0.8130 0.8130 0.8130
1497.706701 0.8130 0.8130 0.8130 0.8130 0.8130
1504.368438 0.8130 0.8130 0.8130 0.8130 0.8130
1511.030175 0.8130 0.8130 0.8130 0.8130 0.8130
1517.691912 0.8130 0.8130 0.8130 0.8130 0.8130
1524.353649 0.8130 0.8130 0.8130 0.8130 0.8130
1531.015386 0.8130 0.8150 0.8150 0.8150 0.8150
1537.677122 0.8150 0.8160 0.8160 0.8160 0.8160
1544.338859 0.8160 0.8170 0.8170 0.8170 0.8190
1551.000596 0.8190 0.8190 0.8200 0.8200 0.8200
1557.662333 0.8200 0.8200 0.8190 0.8190 0.8190
1564.324070 0.8170 0.8170 0.8170 0.8170 0.8170
1570.985807 0.8170 0.8170 0.8160 0.8160 0.8160
1577.647544 0.8150 0.8150 0.8150 0.8130 0.8130
1584.309281 0.8130 0.8120 0.8120 0.8120 0.8110
1590.971018 0.8080 0.8070 0.8050 0.8030 0.8010
1597.632755 0.8010 0.7970 0.7960 0.7950 0.7930
1604.294492 0.7920 0.7920 0.7910 0.7910 0.7890
1610.956229 0.7890 0.7880 0.7870 0.7870 0.7850
1617.617966 0.7850 0.7850 0.7850 0.7870 0.7870
1624.279702 0.7870 0.7880 0.7880 0.7880 0.7890
1630.941439 0.7890 0.7910 0.7920 0.7930 0.7930
1637.603176 0.7930 0.7930 0.7930 0.7950 0.7960
1644.264913 0.7970 0.7970 0.8000 0.8010 0.8010
1650.926650 0.8030 0.8030 0.8030 0.8030 0.8030
1657.588387 0.8030 0.8030 0.8040 0.8040 0.8040
1664.250124 0.8040 0.8050 0.8050 0.8050 0.8050
1670.911861 0.8070 0.8070 0.8080 0.8080 0.8090
1677.573598 0.8090 0.8110 0.8110 0.8110 0.8110
1684.235335 0.8110 0.8110 0.8110 0.8110 0.8110
1690.897072 0.8110 0.8110 0.8110 0.8120 0.8120
1697.558809 0.8120 0.8120 0.8120 0.8120 0.8130
1704.220546 0.8130 0.8150 0.8160 0.8160 0.8170
1710.882283 0.8170 0.8160 0.8160 0.8160 0.8160
1717.544019 0.8160 0.8170 0.8170 0.8170 0.8170
1724.205756 0.8170 0.8170 0.8170 0.8170 0.8170
1730.867493 0.8190 0.8190 0.8200 0.8200 0.8200
1737.529230 0.8200 0.8200 0.8200 0.8200 0.8200
1744.190967 0.8210 0.8210 0.8210 0.8210 0.8210
1750.852704 0.8210 0.8210 0.8210 0.8210 0.8210
1757.514441 0.8210 0.8210 0.8210 0.8210 0.8210
1764.176178 0.8210 0.8210 0.8210 0.8210 0.8230
1770.837915 0.8230 0.8230 0.8210 0.8210 0.8210
1777.499652 0.8210 0.8230 0.8230 0.8200 0.8200
1784.161389 0.8190 0.8190 0.8190 0.8190 0.8190
1790.823126 0.8190 0.8190 0.8200 0.8200 0.8170
1797.484863 0.8170 0.8160 0.8160 0.8190 0.8190
1804.146600 0.8210 0.8210 0.8200 0.8200 0.8190
1810.808336 0.8190 0.8170 0.8170 0.8170 0.8160
1817.470073 0.8160 0.8170 0.8190 0.8190 0.8190
1824.131810 0.8200 0.8200 0.8210 0.8210 0.8210
1830.793547 0.8210 0.8210 0.8210 0.8210 0.8210
1837.455284 0.8210 0.8210 0.8200 0.8200 0.8200
1844.117021 0.8200 0.8200 0.8200 0.8200 0.8200
1850.778758 0.8200 0.8200 0.8210 0.8210 0.8200
1857.440495 0.8200 0.8200 0.8190 0.8170 0.8160
1864.102232 0.8150 0.8130 0.8120 0.8120 0.8110
1870.763969 0.8090 0.8090 0.8080 0.8070 0.8050
1877.425706 0.8040 0.8030 0.8030 0.8010 0.8010
1884.087443 0.8000 0.8000 0.8000 0.8000 0.8000
1890.749180 0.8000 0.8000 0.8000 0.8000 0.8000
1897.410917 0.8010 0.8010 0.8030 0.8030 0.8030
1904.072653 0.8030 0.8030 0.8040 0.8050 0.8050
1910.734390 0.8050 0.8070 0.8070 0.8070 0.8070
1917.396127 0.8070 0.8070 0.8080 0.8110 0.8090
1924.057864 0.8110 0.8120 0.8120 0.8120 0.8120
1930.719601 0.8120 0.8130 0.8130 0.8120 0.8120
1937.381338 0.8120 0.8120 0.8120 0.8120 0.8120
1944.043075 0.8110 0.8110 0.8120 0.8120 0.8120
1950.704812 0.8120 0.8120 0.8120 0.8120 0.8110
1957.366549 0.8110 0.8090 0.8090 0.8110 0.8110
1964.028286 0.8110 0.8090 0.8090 0.8110 0.8110
1970.690023 0.8110 0.8110 0.8090 0.8090 0.8080
1977.351760 0.8080 0.8080 0.8070 0.8070 0.8070
1984.013497 0.8050 0.8050 0.8050 0.8040 0.8040
1990.675234 0.8040 0.8030 0.8030 0.8030 0.8010
1997.336970 0.8010 0.8010 0.8010 0.8020 0.8030
2003.998707 0.8030 0.8030 0.8035 0.8040 0.8045
2010.660444 0.8050 0.8050 0.8050 0.8050 0.8050
2017.322181 0.8060 0.8070 0.8070 0.8070 0.8070
2023.983918 0.8070 0.8075 0.8080 0.8080 0.8080
2030.645655 0.8080 0.8080 0.8080 0.8080 0.8085
2037.307392 0.8091 0.8101 0.8110 0.8110 0.8110
2043.969129 0.8110 0.8110 0.8110 0.8110 0.8110
2050.630866 0.8110 0.8110 0.8110 0.8110 0.8110
2057.292603 0.8110 0.8109 0.8099 0.8091 0.8101
2063.954340 0.8110 0.8110 0.8110 0.8110 0.8110
2070.616077 0.8110 0.8110 0.8110 0.8111 0.8116
2077.277814 0.8119 0.8114 0.8110 0.8110 0.8111
2083.939551 0.8116 0.8120 0.8120 0.8119 0.8114
2090.601287 0.8110 0.8110 0.8110 0.8110 0.8110
2097.263024 0.8110 0.8110 0.8110 0.8110 0.8110
2103.924761 0.8110 0.8110 0.8111 0.8116 0.8120
2110.586498 0.8120 0.8120 0.8120 0.8120 0.8120
2117.248235 0.8119 0.8114 0.8110 0.8110 0.8107
2123.909972 0.8097 0.8089 0.8084 0.8080 0.8080
2130.571709 0.8079 0.8073 0.8070 0.8070 0.8067
2137.233446 0.8057 0.8050 0.8050 0.8050 0.8050
2143.895183 0.8050 0.8050 0.8050 0.8050 0.8054
2150.556920 0.8064 0.8070 0.8070 0.8070 0.8070
2157.218657 0.8072 0.8077 0.8080 0.8080 0.8080
2163.880394 0.8080 0.8080 0.8080 0.8080 0.8080
2170.542131 0.8078 0.8073 0.8070 0.8070 0.8066
2177.203867 0.8056 0.8048 0.8043 0.8040 0.8040
2183.865604 0.8040 0.8040 0.8040 0.8040 0.8040
2190.527341 0.8040 0.8040 0.8040 0.8042 0.8047
2197.189078 0.8055 0.8065 0.8070 0.8070 0.8065
2203.850815 0.8055 0.8050 0.8050 0.8050 0.8050
2210.512552 0.8048 0.8042 0.8040 0.8040 0.8037
2217.174289 0.8032 0.8030 0.8030 0.8030 0.8030
2223.836026 0.8030 0.8030 0.8030 0.8030 0.8030
2230.497763 0.8030 0.8030 0.8030 0.8030 0.8030
2237.159500 0.8030 0.8030 0.8030 0.8030 0.8030
2243.821237 0.8030 0.8030 0.8030 0.8024 0.8014
2250.482974 0.8010 0.8010 0.8010 0.8010 0.8010
2257.144711 0.8010 0.8007 0.8002 0.8000 0.8000
2263.806448 0.8000 0.8000 0.8000 0.8000 0.8000
2270.468184 0.8000 0.8000 0.8000 0.8000 0.8000
2277.129921 0.7997 0.7992 0.7990 0.7990 0.7990
2283.791658 0.7990 0.7990 0.7990 0.7990 0.7990
2290.453395 0.7990 0.7990 0.7990 0.7990 0.7990
2297.115132 0.7990 0.7990 0.7990 0.7990 0.7990
2303.776869 0.7990 0.7990 0.7994 0.7999 0.8004
2310.438606 0.8009 0.8010 0.8010 0.8010 0.8010
2317.100343 0.8006 0.8001 0.7996 0.7991 0.7990
2323.762080 0.7990 0.7982 0.7972 0.7966 0.7961
2330.423817 0.7956 0.7951 0.7942 0.7932 0.7926
2337.085554 0.7921 0.7920 0.7920 0.7916 0.7911
2343.747291 0.7902 0.7892 0.7890 0.7890 0.7886
2350.409028 0.7881 0.7876 0.7871 0.7870 0.7870
2357.070765 0.7870 0.7870 0.7870 0.7870 0.7870
2363.732501 0.7870 0.7870 0.7870 0.7857 0.7842
2370.394238 0.7836 0.7830 0.7830 0.7830 0.7830
2377.055975 0.7830 0.7835 0.7840 0.7845 0.7850
2383.717712 0.7859 0.7869 0.7879 0.7889 0.7899
2390.379449 0.7909 0.7910 0.7910 0.7910 0.7910
2397.041186 0.7910 0.7910 0.7915 0.7920 0.7920
2403.702923 0.7920 0.7920 0.7920 0.7920 0.7920
2410.364660 0.7920 0.7920 0.7915 0.7910 0.7910
2417.026397 0.7910 0.7910 0.7910 0.7910 0.7910
2423.688134 0.7910 0.7910 0.7910 0.7910 0.7900
2430.349871 0.7890 0.7890 0.7890 0.7890 0.7890
2437.011608 0.7890 0.7890 0.7890 0.7890 0.7890
2443.673345 0.7890 0.7890 0.7890 0.7890 0.7890
2450.335082 0.7890 0.7890 0.7890 0.7890 0.7890
2456.996818 0.7890 0.7890 0.7889 0.7884 0.7880
2463.658555 0.7880 0.7880 0.7880 0.7880 0.7880
2470.320292 0.7879 0.7874 0.7870 0.7870 0.7870
2476.982029 0.7870 0.7868 0.7858 0.7850 0.7850
2483.643766 0.7849 0.7844 0.7839 0.7834 0.7830
2490.305503 0.7830 0.7830 0.7830 0.7830 0.7830
2496.967240 0.7830 0.7830 0.7830 0.7830 0.7831
2503.628977 0.7836 0.7840 0.7840 0.7839 0.7834
2510.290714 0.7830 0.7830 0.7830 0.7830 0.7830
2516.952451 0.7830 0.7830 0.7830 0.7830 0.7830
2523.614188 0.7830 0.7830 0.7830 0.7830 0.7830
2530.275925 0.7830 0.7830 0.7830 0.7830 0.7830
2536.937662 0.7830 0.7830 0.7827 0.7817 0.7808
2543.599399 0.7803 0.7800 0.7800 0.7800 0.7800
2550.261135 0.7800 0.7800 0.7798 0.7793 0.7792
2556.922872 0.7797 0.7798 0.7793 0.7790 0.7790
2563.584609 0.7790 0.7790 0.7790 0.7790 0.7786
2570.246346 0.7776 0.7768 0.7763 0.7760 0.7760
2576.908083 0.7760 0.7760 0.7762 0.7767 0.7776
2583.569820 0.7791 0.7800 0.7800 0.7798 0.7793
2590.231557 0.7786 0.7776 0.7768 0.7763 0.7753
2596.893294 0.7738 0.7730 0.7730 0.7730 0.7730
2603.555031 0.7730 0.7730 0.7730 0.7730 0.7728
2610.216768 0.7723 0.7720 0.7720 0.7722 0.7728
2616.878505 0.7730 0.7730 0.7730 0.7730 0.7730
2623.540242 0.7730 0.7727 0.7722 0.7720 0.7720
2630.201979 0.7723 0.7728 0.7730 0.7730 0.7727
2636.863715 0.7722 0.7720 0.7720 0.7720 0.7720
2643.525452 0.7720 0.7720 0.7720 0.7720 0.7720
2650.187189 0.7720 0.7720 0.7720 0.7720 0.7720
2656.848926 0.7720 0.7720 0.7720 0.7720 0.7720
2663.510663 0.7720 0.7717 0.7712 0.7710 0.7710
2670.172400 0.7710 0.7710 0.7710 0.7710 0.7710
2676.834137 0.7710 0.7704 0.7694 0.7690 0.7690
2683.495874 0.7687 0.7682 0.7680 0.7680 0.7677
2690.157611 0.7672 0.7670 0.7670 0.7663 0.7653
2696.819348 0.7650 0.7650 0.7646 0.7641 0.7640
2703.481085 0.7640 0.7640 0.7640 0.7640 0.7640
2710.142822 0.7640 0.7640 0.7640 0.7640 0.7636
2716.804559 0.7631 0.7630 0.7630 0.7630 0.7630
2723.466296 0.7630 0.7630 0.7630 0.7630 0.7630
2730.128032 0.7630 0.7622 0.7612 0.7610 0.7610
2736.789769 0.7610 0.7610 0.7610 0.7610 0.7610
2743.451506 0.7610 0.7610 0.7610 0.7610 0.7610
2750.113243 0.7606 0.7601 0.7600 0.7600 0.7600
2756.774980 0.7600 0.7600 0.7600 0.7600 0.7600
2763.436717 0.7600 0.7600 0.7600 0.7600 0.7596
2770.098454 0.7591 0.7590 0.7590 0.7590 0.7590
2776.760191 0.7590 0.7590 0.7590 0.7590 0.7590
2783.421928 0.7590 0.7590 0.7590 0.7576 0.7561
2790.083665 0.7560 0.7560 0.7555 0.7550 0.7550
2796.745402 0.7550 0.7540 0.7530 0.7530 0.7530
2803.407139 0.7530 0.7530 0.7530 0.7530 0.7530
2810.068876 0.7530 0.7530 0.7530 0.7530 0.7530
2816.730613 0.7530 0.7530 0.7530 0.7530 0.7525
2823.392349 0.7520 0.7520 0.7520 0.7520 0.7520
2830.054086 0.7520 0.7520 0.7520 0.7520 0.7515
2836.715823 0.7510 0.7510 0.7510 0.7510 0.7510
2843.377560 0.7510 0.7510 0.7500 0.7490 0.7490
2850.039297 0.7490 0.7485 0.7480 0.7480 0.7479
2856.701034 0.7469 0.7460 0.7460 0.7460 0.7455
2863.362771 0.7450 0.7450 0.7449 0.7444 0.7440
2870.024508 0.7440 0.7440 0.7440 0.7440 0.7440
2876.686245 0.7440 0.7440 0.7440 0.7440 0.7440
2883.347982 0.7440 0.7438 0.7428 0.7420 0.7420
2890.009719 0.7420 0.7420 0.7420 0.7420 0.7420
2896.671456 0.7420 0.7420 0.7420 0.7419 0.7414
2903.333193 0.7410 0.7410 0.7409 0.7404 0.7400
2909.994930 0.7400 0.7397 0.7382 0.7370 0.7370
2916.656666 0.7369 0.7364 0.7360 0.7360 0.7358
2923.318403 0.7348 0.7340 0.7340 0.7339 0.7334
2929.980140 0.7330 0.7330 0.7330 0.7330 0.7330
2936.641877 0.7330 0.7330 0.7330 0.7330 0.7330
2943.303614 0.7330 0.7330 0.7330 0.7330 0.7332
2949.965351 0.7337 0.7340 0.7340 0.7340 0.7340
2956.627088 0.7338 0.7333 0.7330 0.7330 0.7330
2963.288825 0.7330 0.7330 0.7330 0.7330 0.7330
2969.950562 0.7330 0.7330 0.7330 0.7330 0.7330
2976.612299 0.7330 0.7330 0.7330 0.7330 0.7330
2983.274036 0.7330 0.7330 0.7330 0.7330 0.7330
2989.935773 0.7330 0.7330 0.7330 0.7330 0.7330
2996.597510 0.7330 0.7330 0.7332 0.7337 0.7340
3003.259247 0.7340 0.7340 0.7340 0.7340 0.7340
3009.920983 0.7338 0.7333 0.7330 0.7330 0.7328
3016.582720 0.7323 0.7320 0.7320 0.7320 0.7320
3023.244457 0.7320 0.7320 0.7320 0.7320 0.7320
3029.906194 0.7320 0.7320 0.7320 0.7320 0.7320
3036.567931 0.7320 0.7320 0.7315 0.7305 0.7300
3043.229668 0.7300 0.7300 0.7300 0.7300 0.7300
3049.891405 0.7300 0.7300 0.7300 0.7300 0.7300
3056.553142 0.7300 0.7297 0.7292 0.7290 0.7290
3063.214879 0.7290 0.7290 0.7290 0.7290 0.7290
3069.876616 0.7290 0.7290 0.7290 0.7287 0.7282
3076.538353 0.7280 0.7280 0.7280 0.7280 0.7274
3083.200090 0.7264 0.7260 0.7260 0.7260 0.7260
3089.861827 0.7257 0.7252 0.7250 0.7250 0.7247
3096.523563 0.7242 0.7240 0.7240 0.7240 0.7240
3103.185300 0.7233 0.7223 0.7220 0.7220 0.7220
3109.847037 0.7220 0.7220 0.7220 0.7216 0.7211
3116.508774 0.7210 0.7210 0.7210 0.7210 0.7210
3123.170511 0.7210 0.7206 0.7201 0.7200 0.7200
3129.832248 0.7200 0.7200 0.7192 0.7182 0.7180
3136.493985 0.7180 0.7180 0.7180 0.7176 0.7171
3143.155722 0.7170 0.7170 0.7166 0.7161 0.7160
3149.817459 0.7160 0.7160 0.7160 0.7160 0.7160
3156.479196 0.7152 0.7142 0.7140 0.7140 0.7140
3163.140933 0.7140 0.7140 0.7140 0.7136 0.7131
3169.802670 0.7130 0.7130 0.7130 0.7130 0.7130
3176.464407 0.7130 0.7130 0.7130 0.7126 0.7121
3183.126144 0.7120 0.7120 0.7120 0.7120 0.7120
3189.787880 0.7120 0.7111 0.7101 0.7100 0.7100
3196.449617 0.7100 0.7100 0.7095 0.7090 0.7090
3203.111354 0.7090 0.7090 0.7090 0.7085 0.7080
3209.773091 0.7080 0.7080 0.7080 0.7080 0.7066
3216.434828 0.7051 0.7050 0.7050 0.7050 0.7050
3223.096565 0.7045 0.7040 0.7040 0.7040 0.7030
3229.758302 0.7020 0.7020 0.7020 0.7015 0.7010
3236.420039 0.7010 0.7010 0.7005 0.7000 0.7000
3243.081776 0.7000 0.6990 0.6980 0.6975 0.6970
3249.743513 0.6970 0.6970 0.6965 0.6960 0.6960
3256.405250 0.6959 0.6949 0.6940 0.6940 0.6940
3263.066987 0.6935 0.6930 0.6930 0.6930 0.6930
3269.728724 0.6930 0.6925 0.6920 0.6920 0.6920
3276.390461 0.6920 0.6920 0.6920 0.6920 0.6920
3283.052197 0.6920 0.6920 0.6919 0.6909 0.6900
3289.713934 0.6900 0.6899 0.6894 0.6889 0.6884
3296.375671 0.6880 0.6880 0.6878 0.6868 0.6860
3303.037408 0.6860 0.6859 0.6854 0.6850 0.6850
3309.699145 0.6849 0.6844 0.6840 0.6840 0.6838
3316.360882 0.6828 0.6819 0.6814 0.6810 0.6810
3323.022619 0.6809 0.6804 0.6800 0.6800 0.6798
3329.684356 0.6787 0.6780 0.6780 0.6779 0.6774
3336.346093 0.6769 0.6764 0.6757 0.6747 0.6739
3343.007830 0.6734 0.6730 0.6730 0.6729 0.6724
3349.669567 0.6720 0.6720 0.6717 0.6707 0.6700
3356.331304 0.6700 0.6698 0.6693 0.6688 0.6683
3362.993041 0.6677 0.6667 0.6658 0.6653 0.6650
3369.654778 0.6650 0.6647 0.6637 0.6628 0.6623
3376.316514 0.6618 0.6613 0.6606 0.6596 0.6588
3382.978251 0.6583 0.6578 0.6573 0.6566 0.6556
3389.639988 0.6548 0.6543 0.6538 0.6533 0.6526
3396.301725 0.6516 0.6508 0.6503 0.6498 0.6493
3402.963462 0.6486 0.6476 0.6466 0.6456 0.6446
3409.625199 0.6436 0.6428 0.6423 0.6418 0.6413
3416.286936 0.6405 0.6395 0.6388 0.6383 0.6378
3422.948673 0.6373 0.6370 0.6370 0.6365 0.6355
3429.610410 0.6348 0.6343 0.6338 0.6332 0.6325
3436.272147 0.6315 0.6307 0.6302 0.6300 0.6300
3442.933884 0.6297 0.6292 0.6290 0.6290 0.6285
3449.595621 0.6275 0.6270 0.6270 0.6267 0.6262
3456.257358 0.6260 0.6260 0.6260 0.6260 0.6260
3462.919095 0.6260 0.6260 0.6260 0.6260 0.6260
3469.580831 0.6260 0.6260 0.6260 0.6260 0.6260
3476.242568 0.6260 0.6263 0.6268 0.6270 0.6270
3482.904305 0.6270 0.6270 0.6270 0.6270 0.6270
3489.566042 0.6270 0.6270 0.6270 0.6270 0.6270
3496.227779 0.6277 0.6287 0.6290 0.6290 0.6290
3502.889516 0.6290 0.6290 0.6290 0.6290 0.6290
3509.551253 0.6293 0.6298 0.6300 0.6300 0.6300
3516.212990 0.6300 0.6300 0.6300 0.6300 0.6300
3522.874727 0.6300 0.6300 0.6300 0.6300 0.6300
3529.536464 0.6300 0.6300 0.6300 0.6300 0.6300
3536.198201 0.6304 0.6309 0.6317 0.6328 0.6330
3542.859938 0.6330 0.6334 0.6339 0.6340 0.6340
3549.521675 0.6356 0.6376 0.6384 0.6389 0.6390
3556.183411 0.6390 0.6390 0.6390 0.6398 0.6408
3562.845148 0.6410 0.6410 0.6410 0.6410 0.6414
3569.506885 0.6419 0.6420 0.6420 0.6420 0.6420
3576.168622 0.6433 0.6448 0.6454 0.6459 0.6460
3582.830359 0.6460 0.6464 0.6469 0.6470 0.6470
3589.492096 0.6479 0.6489 0.6494 0.6499 0.6505
3596.153833 0.6510 0.6510 0.6510 0.6519 0.6529
3602.815570 0.6530 0.6530 0.6530 0.6530 0.6530
3609.477307 0.6530 0.6530 0.6530 0.6535 0.6540
3616.139044 0.6545 0.6550 0.6550 0.6550 0.6560
3622.800781 0.6570 0.6570 0.6570 0.6575 0.6580
3629.462518 0.6580 0.6580 0.6580 0.6580 0.6580
3636.124255 0.6580 0.6585 0.6590 0.6590 0.6590
3642.785992 0.6590 0.6590 0.6590 0.6590 0.6590
3649.447728 0.6590 0.6600 0.6610 0.6610 0.6610
3656.109465 0.6600 0.6590 0.6590 0.6590 0.6585
3662.771202 0.6580 0.6575 0.6570 0.6570 0.6570
3669.432939 0.6570 0.6570 0.6570 0.6570 0.6570
3676.094676 0.6569 0.6559 0.6550 0.6550 0.6550
3682.756413 0.6550 0.6550 0.6550 0.6550 0.6550
3689.418150 0.6551 0.6561 0.6570 0.6570 0.6571
3696.079887 0.6576 0.6581 0.6586 0.6590 0.6590
3702.741624 0.6590 0.6590 0.6590 0.6590 0.6590
3709.403361 0.6590 0.6590 0.6590 0.6589 0.6584
3716.065098 0.6579 0.6574 0.6570 0.6570 0.6570
3722.726835 0.6570 0.6570 0.6570 0.6570 0.6570
3729.388572 0.6570 0.6570 0.6570 0.6570 0.6568
3736.050309 0.6558 0.6550 0.6550 0.6550 0.6550
3742.712045 0.6550 0.6550 0.6550 0.6550 0.6550
3749.373782 0.6550 0.6550 0.6550 0.6550 0.6550
3756.035519 0.6550 0.6550 0.6550 0.6550 0.6550
3762.697256 0.6550 0.6550 0.6550 0.6550 0.6550
3769.358993 0.6550 0.6550 0.6550 0.6550 0.6550
3776.020730 0.6550 0.6550 0.6550 0.6548 0.6543
3782.682467 0.6540 0.6540 0.6540 0.6540 0.6540
3789.344204 0.6540 0.6540 0.6540 0.6540 0.6540
3796.005941 0.6540 0.6540 0.6538 0.6533 0.6530
3802.667678 0.6530 0.6530 0.6530 0.6530 0.6530
3809.329415 0.6530 0.6530 0.6530 0.6530 0.6530
3815.991152 0.6530 0.6526 0.6516 0.6508 0.6503
3822.652889 0.6500 0.6500 0.6500 0.6500 0.6500
3829.314626 0.6500 0.6500 0.6500 0.6500 0.6500
3835.976362 0.6498 0.6493 0.6490 0.6490 0.6490
3842.638099 0.6490 0.6483 0.6467 0.6460 0.6460
3849.299836 0.6460 0.6460 0.6460 0.6460 0.6457
3855.961573 0.6452 0.6450 0.6450 0.6445 0.6435
3862.623310 0.6430 0.6430 0.6427 0.6422 0.6420
3869.285047 0.6420 0.6420 0.6420 0.6423 0.6428
3875.946784 0.6430 0.6430 0.6430 0.6430 0.6430
3882.608521 0.6430 0.6430 0.6430 0.6430 0.6430
3889.270258 0.6430 0.6430 0.6430 0.6430 0.6430
3895.931995 0.6430 0.6427 0.6422 0.6420 0.6420
3902.593732 0.6417 0.6412 0.6410 0.6410 0.6410
3909.255469 0.6410 0.6410 0.6410 0.6403 0.6393
3915.917206 0.6390 0.6390 0.6390 0.6390 0.6390
3922.578943 0.6390 0.6390 0.6390 0.6387 0.6382
3929.240679 0.6380 0.6380 0.6376 0.6371 0.6370
3935.902416 0.6370 0.6370 0.6370 0.6370 0.6370
3942.564153 0.6363 0.6353 0.6350 0.6350 0.6350
3949.225890 0.6350 0.6350 0.6350 0.6350 0.6350
3955.887627 0.6346 0.6341 0.6336 0.6331 0.6330
3962.549364 0.6330 0.6330 0.6330 0.6330 0.6330
3969.211101 0.6330 0.6330 0.6330 0.6330 0.6330
3975.872838 0.6330 0.6322 0.6312 0.6306 0.6301
3982.534575 0.6300 0.6300 0.6300 0.6300
##END=
