##TITLE=AMORPHOUS SILICA
##JCAMP-DX=4.24
##DATA TYPE=INFRARED SPECTRUM
##CLASS=COBLENTZ III
##ORIGIN=DESOTO CHEMICAL COATINGS, INC.
##OWNER=COBLENTZ SOCIETY
Collection (C) 2018 copyright by the U.S. Secretary of Commerce
on behalf of the United States of America. All rights reserved.
##DATE=Not specified, most likely prior to 1970
##NAMES=dioxosilane
DIATOMACEOUS EARTH
##CAS REGISTRY NO=7631-86-9
##MOLFORM=O2 Si
##SOURCE REFERENCE=COBLENTZ NO. 4661
##$NIST SOURCE=COBLENTZ
##$NIST IMAGE=cob4661
##SPECTROMETER/DATA SYSTEM=BECKMAN IR-12 (GRATING)
##INSTRUMENT PARAMETERS=GRATING BLAZED AT 3330, 1330, 445, 220 CM^-^1
##STATE=SOLID (0.5 mg / 300 mg CsI DISC)
##SAMPLING PROCEDURE=TRANSMISSION
##RESOLUTION=4
##DATA PROCESSING=DIGITIZED BY NIST FROM HARD COPY (FROM TWO SEGMENTS)
##XUNITS=1/CM
##YUNITS=TRANSMITTANCE
##XFACTOR=1.000000
##YFACTOR=1
##DELTAX=1.330379
##FIRSTX=200
##LASTX=3988.92
##FIRSTY=0.753
##MAXX=3988.92
##MINX=200
##MAXY=0.973
##MINY=0.066
##NPOINTS=2849
##XYDATA=(X++(Y..Y))
200.000000 0.7530 0.7530 0.7530 0.7530 0.7530
206.651896 0.7530 0.7530 0.7550 0.7550 0.7550
213.303792 0.7560 0.7570 0.7570 0.7570 0.7570
219.955688 0.7590 0.7600 0.7610 0.7630 0.7630
226.607584 0.7640 0.7640 0.7650 0.7650 0.7650
233.259480 0.7670 0.7670 0.7670 0.7680 0.7680
239.911377 0.7680 0.7680 0.7680 0.7690 0.7690
246.563273 0.7690 0.7690 0.7680 0.7680 0.7680
253.215169 0.7670 0.7670 0.7670 0.7650 0.7650
259.867065 0.7650 0.7640 0.7640 0.7640 0.7630
266.518961 0.7630 0.7630 0.7630 0.7640 0.7640
273.170857 0.7640 0.7640 0.7630 0.7610 0.7600
279.822753 0.7590 0.7560 0.7550 0.7550 0.7550
286.474649 0.7530 0.7520 0.7510 0.7490 0.7450
293.126545 0.7420 0.7420 0.7400 0.7380 0.7360
299.778441 0.7360 0.7340 0.7320 0.7280 0.7250
306.430337 0.7240 0.7240 0.7240 0.7240 0.7240
313.082234 0.7240 0.7250 0.7250 0.7250 0.7250
319.734130 0.7250 0.7240 0.7220 0.7210 0.7200
326.386026 0.7180 0.7170 0.7160 0.7140 0.7130
333.037922 0.7120 0.7120 0.7100 0.7100 0.7120
339.689818 0.7140 0.7170 0.7200 0.7220 0.7240
346.341714 0.7250 0.7250 0.7250 0.7250 0.7250
352.993610 0.7250 0.7250 0.7240 0.7240 0.7220
359.645506 0.7210 0.7210 0.7210 0.7210 0.7200
366.297402 0.7180 0.7160 0.7160 0.7140 0.7120
372.949298 0.7090 0.7060 0.7020 0.7010 0.7000
379.601195 0.6960 0.6900 0.6800 0.6681 0.6630
386.253091 0.6550 0.6470 0.6430 0.6390 0.6350
392.904987 0.6330 0.6310 0.6330 0.6340 0.6340
399.556883 0.6350 0.6410 0.6460 0.6500 0.6540
406.208779 0.6540 0.6550 0.6550 0.6550 0.6570
412.860675 0.6570 0.6570 0.6570 0.6570 0.6550
419.512571 0.6550 0.6530 0.6510 0.6510 0.6510
426.164467 0.6510 0.6510 0.6500 0.6500 0.6490
432.816363 0.6490 0.6470 0.6430 0.6410 0.6390
439.468259 0.6380 0.6350 0.6230 0.6090 0.5980
446.120155 0.5761 0.5660 0.5431 0.5341 0.5270
452.772052 0.5220 0.5150 0.5100 0.5000 0.4870
459.423948 0.4691 0.4471 0.4142 0.3981 0.3493
466.075844 0.3330 0.3130 0.2940 0.2740 0.2550
472.727740 0.2311 0.2230 0.2160 0.2080 0.2060
479.379636 0.2060 0.2070 0.2100 0.2120 0.2160
486.031532 0.2190 0.2230 0.2260 0.2350 0.2400
492.683428 0.2550 0.2740 0.2850 0.2950 0.2990
499.335324 0.3110 0.3230 0.3310 0.3370 0.3380
505.987220 0.3450 0.3540 0.3600 0.3680 0.3770
512.639116 0.3840 0.3900 0.3999 0.4099 0.4229
519.291012 0.4360 0.4510 0.4680 0.4870 0.5100
525.942909 0.5359 0.5509 0.5639 0.5909 0.6218
532.594805 0.6550 0.6730 0.6930 0.7060 0.7220
539.246701 0.7340 0.7450 0.7550 0.7669 0.7809
545.898597 0.7920 0.8000 0.8080 0.8150 0.8230
552.550493 0.8310 0.8360 0.8400 0.8460 0.8480
559.202389 0.8500 0.8510 0.8550 0.8600 0.8630
565.854285 0.8630 0.8640 0.8640 0.8660 0.8670
572.506181 0.8680 0.8700 0.8710 0.8720 0.8760
579.158077 0.8790 0.8800 0.8830 0.8860 0.8870
585.809973 0.8900 0.8920 0.8940 0.8940 0.8950
592.461870 0.8980 0.8990 0.9000 0.9000 0.8990
599.113766 0.8990 0.8980 0.8960 0.8950 0.8920
605.765662 0.8880 0.8840 0.8800 0.8750 0.8631
612.417558 0.8520 0.8440 0.8350 0.8250 0.8160
619.069454 0.8070 0.8050 0.8070 0.8110 0.8150
625.721350 0.8190 0.8230 0.8290 0.8400 0.8500
632.373246 0.8580 0.8670 0.8740 0.8800 0.8830
639.025142 0.8860 0.8900 0.8990 0.9000 0.9000
645.677038 0.9040 0.9100 0.9110 0.9140 0.9170
652.328934 0.9190 0.9210 0.9220 0.9220 0.9220
658.980830 0.9230 0.9230 0.9260 0.9260 0.9270
665.632727 0.9270 0.9290 0.9300 0.9300 0.9310
672.284623 0.9310 0.9330 0.9340 0.9340 0.9350
678.936519 0.9350 0.9370 0.9390 0.9410 0.9420
685.588415 0.9420 0.9430 0.9430 0.9450 0.9450
692.240311 0.9450 0.9460 0.9460 0.9460 0.9460
698.892207 0.9470 0.9470 0.9470 0.9470 0.9470
705.544103 0.9470 0.9470 0.9470 0.9460 0.9460
712.195999 0.9460 0.9460 0.9460 0.9460 0.9460
718.847895 0.9460 0.9460 0.9460 0.9460 0.9460
725.499791 0.9460 0.9450 0.9450 0.9450 0.9450
732.151687 0.9450 0.9430 0.9430 0.9420 0.9420
738.803584 0.9410 0.9410 0.9410 0.9390 0.9390
745.455480 0.9380 0.9370 0.9350 0.9340 0.9340
752.107376 0.9330 0.9330 0.9300 0.9300 0.9290
758.759272 0.9270 0.9250 0.9230 0.9210 0.9180
765.411168 0.9170 0.9120 0.9100 0.9070 0.9040
772.063064 0.8920 0.8840 0.8740 0.8600 0.8510
778.714960 0.8380 0.8171 0.7971 0.7791 0.7611
785.366856 0.7460 0.7340 0.7120 0.6930 0.6720
792.018752 0.6541 0.6420 0.6301 0.6220 0.6210
798.670648 0.6220 0.6340 0.6430 0.6630 0.6919
805.322544 0.7139 0.7379 0.7639 0.7809 0.7929
811.974441 0.8190 0.8400 0.8510 0.8620 0.8720
818.626337 0.8790 0.8860 0.8910 0.8960 0.8990
825.278233 0.9000 0.9040 0.9100 0.9140 0.9190
831.930129 0.9250 0.9270 0.9290 0.9300 0.9330
838.582025 0.9350 0.9410 0.9420 0.9450 0.9470
845.233921 0.9500 0.9510 0.9540 0.9570 0.9590
851.885817 0.9610 0.9620 0.9650 0.9660 0.9670
858.537713 0.9670 0.9690 0.9690 0.9700 0.9700
865.189609 0.9710 0.9710 0.9710 0.9710 0.9710
871.841505 0.9730 0.9730 0.9730 0.9730 0.9730
878.493402 0.9730 0.9730 0.9730 0.9730 0.9730
885.145298 0.9710 0.9710 0.9700 0.9690 0.9690
891.797194 0.9690 0.9690 0.9670 0.9670 0.9650
898.449090 0.9620 0.9590 0.9570 0.9550 0.9550
905.100986 0.9540 0.9530 0.9530 0.9510 0.9500
911.752882 0.9450 0.9420 0.9390 0.9370 0.9340
918.404778 0.9310 0.9300 0.9260 0.9260 0.9250
925.056674 0.9210 0.9210 0.9170 0.9110 0.9100
931.708570 0.9040 0.9030 0.9020 0.8960 0.8940
938.360466 0.8910 0.8870 0.8830 0.8790 0.8740
945.012362 0.8700 0.8660 0.8620 0.8580 0.8520
951.664259 0.8480 0.8430 0.8390 0.8340 0.8310
958.316155 0.8240 0.8210 0.8160 0.8130 0.8040
964.968051 0.8010 0.8000 0.7960 0.7930 0.7920
971.619947 0.7880 0.7830 0.7790 0.7730 0.7690
978.271843 0.7640 0.7600 0.7560 0.7510 0.7421
984.923739 0.7410 0.7400 0.7340 0.7320 0.7260
991.575635 0.7200 0.7120 0.7050 0.7020 0.6980
998.227531 0.6920 0.6850 0.6780 0.6680 0.6590
1004.879427 0.6540 0.6490 0.6460 0.6420 0.6370
1011.531323 0.6270 0.6190 0.6060 0.6010 0.5930
1018.183219 0.5860 0.5760 0.5680 0.5590 0.5431
1024.835116 0.5360 0.5310 0.5220 0.5160 0.5030
1031.487012 0.4890 0.4751 0.4690 0.4630 0.4521
1038.138908 0.4410 0.4310 0.4210 0.4130 0.4020
1044.790804 0.3980 0.3860 0.3760 0.3700 0.3581
1051.442700 0.3450 0.3330 0.3190 0.3060 0.2940
1058.094596 0.2820 0.2690 0.2551 0.2431 0.2301
1064.746492 0.2150 0.1900 0.1800 0.1640 0.1450
1071.398388 0.1330 0.1280 0.1190 0.1120 0.1031
1078.050284 0.0970 0.0890 0.0870 0.0820 0.0770
1084.702180 0.0740 0.0730 0.0730 0.0720 0.0720
1091.354076 0.0700 0.0690 0.0690 0.0680 0.0660
1098.005973 0.0660 0.0680 0.0690 0.0700 0.0730
1104.657869 0.0740 0.0780 0.0810 0.0840 0.0910
1111.309765 0.0990 0.1010 0.1050 0.1090 0.1120
1117.961661 0.1200 0.1230 0.1250 0.1290 0.1310
1124.613557 0.1320 0.1330 0.1360 0.1390 0.1410
1131.265453 0.1430 0.1440 0.1480 0.1490 0.1520
1137.917349 0.1550 0.1560 0.1590 0.1630 0.1640
1144.569245 0.1700 0.1710 0.1720 0.1750 0.1790
1151.221141 0.1800 0.1800 0.1820 0.1840 0.1900
1157.873037 0.1910 0.1940 0.1960 0.1980 0.1990
1164.524934 0.2000 0.2040 0.2070 0.2080 0.2150
1171.176830 0.2200 0.2260 0.2300 0.2340 0.2420
1177.828726 0.2480 0.2530 0.2630 0.2700 0.2809
1184.480622 0.2850 0.2930 0.3010 0.3070 0.3110
1191.132518 0.3190 0.3230 0.3250 0.3260 0.3260
1197.784414 0.3260 0.3270 0.3270 0.3270 0.3270
1204.436310 0.3290 0.3300 0.3340 0.3360 0.3380
1211.088206 0.3440 0.3520 0.3620 0.3760 0.3850
1217.740102 0.3920 0.3970 0.4020 0.4090 0.4170
1224.391998 0.4240 0.4320 0.4410 0.4490 0.4520
1231.043894 0.4610 0.4690 0.4720 0.4760 0.4810
1237.695791 0.4890 0.4910 0.4960 0.5020 0.5070
1244.347687 0.5110 0.5150 0.5200 0.5220 0.5260
1250.999583 0.5340 0.5380 0.5420 0.5440 0.5470
1257.651479 0.5500 0.5540 0.5560 0.5630 0.5700
1264.303375 0.5740 0.5790 0.5850 0.5900 0.5930
1270.955271 0.5950 0.6010 0.6050 0.6100 0.6130
1277.607167 0.6150 0.6190 0.6210 0.6250 0.6310
1284.259063 0.6340 0.6380 0.6410 0.6430 0.6470
1290.910959 0.6500 0.6510 0.6550 0.6610 0.6620
1297.562855 0.6630 0.6650 0.6680 0.6700 0.6700
1304.214751 0.6730 0.6740 0.6770 0.6780 0.6800
1310.866648 0.6810 0.6840 0.6850 0.6860 0.6890
1317.518544 0.6900 0.6920 0.6930 0.6940 0.6960
1324.170440 0.6980 0.7010 0.7010 0.7020 0.7040
1330.822336 0.7050 0.7060 0.7080 0.7090 0.7100
1337.474232 0.7120 0.7120 0.7140 0.7160 0.7160
1344.126128 0.7170 0.7200 0.7210 0.7220 0.7240
1350.778024 0.7240 0.7250 0.7260 0.7280 0.7280
1357.429920 0.7290 0.7300 0.7300 0.7320 0.7320
1364.081816 0.7320 0.7320 0.7320 0.7320 0.7330
1370.733712 0.7330 0.7360 0.7370 0.7380 0.7380
1377.385609 0.7400 0.7410 0.7410 0.7410 0.7410
1384.037505 0.7410 0.7420 0.7420 0.7420 0.7440
1390.689401 0.7450 0.7460 0.7490 0.7510 0.7510
1397.341297 0.7520 0.7520 0.7520 0.7530 0.7530
1403.993193 0.7550 0.7550 0.7550 0.7550 0.7550
1410.645089 0.7550 0.7560 0.7560 0.7560 0.7560
1417.296985 0.7560 0.7560 0.7560 0.7560 0.7570
1423.948881 0.7570 0.7570 0.7570 0.7590 0.7600
1430.600777 0.7600 0.7610 0.7630 0.7640 0.7640
1437.252673 0.7640 0.7630 0.7630 0.7630 0.7640
1443.904569 0.7640 0.7640 0.7640 0.7670 0.7670
1450.556466 0.7670 0.7680 0.7680 0.7680 0.7690
1457.208362 0.7680 0.7680 0.7680 0.7710 0.7720
1463.860258 0.7720 0.7720 0.7720 0.7710 0.7710
1470.512154 0.7720 0.7720 0.7730 0.7730 0.7750
1477.164050 0.7760 0.7760 0.7760 0.7750 0.7730
1483.815946 0.7730 0.7730 0.7750 0.7750 0.7760
1490.467842 0.7760 0.7770 0.7770 0.7790 0.7790
1497.119738 0.7790 0.7800 0.7800 0.7800 0.7800
1503.771634 0.7810 0.7810 0.7810 0.7810 0.7810
1510.423530 0.7800 0.7800 0.7800 0.7790 0.7790
1517.075426 0.7790 0.7790 0.7800 0.7800 0.7800
1523.727323 0.7810 0.7810 0.7810 0.7830 0.7830
1530.379219 0.7830 0.7830 0.7840 0.7840 0.7840
1537.031115 0.7840 0.7840 0.7840 0.7850 0.7850
1543.683011 0.7850 0.7850 0.7850 0.7850 0.7850
1550.334907 0.7850 0.7870 0.7870 0.7870 0.7870
1556.986803 0.7870 0.7870 0.7870 0.7870 0.7870
1563.638699 0.7870 0.7870 0.7850 0.7850 0.7850
1570.290595 0.7850 0.7850 0.7840 0.7840 0.7840
1576.942491 0.7840 0.7840 0.7830 0.7830 0.7830
1583.594387 0.7810 0.7810 0.7800 0.7790 0.7760
1590.246283 0.7750 0.7720 0.7690 0.7670 0.7670
1596.898180 0.7640 0.7640 0.7630 0.7610 0.7600
1603.550076 0.7550 0.7520 0.7510 0.7490 0.7460
1610.201972 0.7450 0.7440 0.7420 0.7410 0.7400
1616.853868 0.7400 0.7380 0.7380 0.7380 0.7380
1623.505764 0.7380 0.7380 0.7400 0.7400 0.7410
1630.157660 0.7410 0.7420 0.7460 0.7480 0.7490
1636.809556 0.7510 0.7510 0.7520 0.7530 0.7550
1643.461452 0.7560 0.7570 0.7600 0.7600 0.7610
1650.113348 0.7610 0.7630 0.7670 0.7670 0.7680
1656.765244 0.7690 0.7690 0.7690 0.7690 0.7710
1663.417141 0.7730 0.7750 0.7750 0.7750 0.7770
1670.069037 0.7770 0.7790 0.7790 0.7800 0.7800
1676.720933 0.7800 0.7810 0.7810 0.7830 0.7830
1683.372829 0.7830 0.7840 0.7840 0.7840 0.7850
1690.024725 0.7850 0.7850 0.7870 0.7870 0.7870
1696.676621 0.7880 0.7880 0.7880 0.7880 0.7880
1703.328517 0.7880 0.7880 0.7880 0.7880 0.7880
1709.980413 0.7890 0.7890 0.7890 0.7890 0.7890
1716.632309 0.7910 0.7910 0.7910 0.7910 0.7910
1723.284205 0.7910 0.7910 0.7910 0.7910 0.7890
1729.936101 0.7890 0.7890 0.7890 0.7890 0.7890
1736.587998 0.7880 0.7880 0.7880 0.7890 0.7890
1743.239894 0.7890 0.7890 0.7910 0.7910 0.7910
1749.891790 0.7920 0.7920 0.7920 0.7920 0.7920
1756.543686 0.7920 0.7920 0.7920 0.7920 0.7920
1763.195582 0.7920 0.7920 0.7910 0.7910 0.7910
1769.847478 0.7910 0.7910 0.7910 0.7910 0.7910
1776.499374 0.7910 0.7910 0.7920 0.7910 0.7910
1783.151270 0.7910 0.7910 0.7910 0.7910 0.7910
1789.803166 0.7910 0.7910 0.7910 0.7910 0.7890
1796.455062 0.7890 0.7910 0.7910 0.7910 0.7890
1803.106958 0.7890 0.7890 0.7890 0.7910 0.7910
1809.758855 0.7910 0.7920 0.7910 0.7910 0.7910
1816.410751 0.7910 0.7910 0.7910 0.7910 0.7920
1823.062647 0.7920 0.7910 0.7910 0.7910 0.7910
1829.714543 0.7910 0.7890 0.7890 0.7890 0.7890
1836.366439 0.7890 0.7890 0.7890 0.7910 0.7910
1843.018335 0.7890 0.7890 0.7890 0.7890 0.7890
1849.670231 0.7890 0.7890 0.7890 0.7890 0.7890
1856.322127 0.7880 0.7880 0.7870 0.7870 0.7870
1862.974023 0.7850 0.7850 0.7840 0.7840 0.7830
1869.625919 0.7830 0.7800 0.7800 0.7790 0.7790
1876.277816 0.7770 0.7770 0.7760 0.7760 0.7750
1882.929712 0.7730 0.7730 0.7730 0.7730 0.7730
1889.581608 0.7730 0.7730 0.7730 0.7730 0.7730
1896.233504 0.7750 0.7750 0.7750 0.7750 0.7750
1902.885400 0.7750 0.7750 0.7760 0.7760 0.7760
1909.537296 0.7760 0.7760 0.7760 0.7770 0.7790
1916.189192 0.7790 0.7800 0.7810 0.7810 0.7810
1922.841088 0.7810 0.7810 0.7810 0.7810 0.7800
1929.492984 0.7800 0.7810 0.7830 0.7830 0.7830
1936.144880 0.7830 0.7830 0.7810 0.7810 0.7800
1942.796776 0.7800 0.7800 0.7800 0.7810 0.7810
1949.448673 0.7810 0.7800 0.7800 0.7830 0.7830
1956.100569 0.7830 0.7830 0.7830 0.7830 0.7830
1962.752465 0.7810 0.7810 0.7810 0.7810 0.7810
1969.404361 0.7810 0.7810 0.7810 0.7800 0.7800
1976.056257 0.7800 0.7800 0.7800 0.7790 0.7790
1982.708153 0.7790 0.7790 0.7790 0.7790 0.7770
1989.360049 0.7770 0.7770 0.7770 0.7770 0.7760
1996.011945 0.7760 0.7750 0.7750 0.7750 0.7740
2002.663841 0.7730 0.7725 0.7720 0.7720 0.7720
2009.315737 0.7715 0.7710 0.7710 0.7710 0.7710
2015.967633 0.7710 0.7710 0.7710 0.7710 0.7710
2022.619530 0.7710 0.7710 0.7700 0.7690 0.7690
2029.271426 0.7690 0.7690 0.7690 0.7690 0.7690
2035.923322 0.7690 0.7690 0.7690 0.7690 0.7690
2042.575218 0.7690 0.7690 0.7690 0.7690 0.7690
2049.227114 0.7700 0.7710 0.7710 0.7710 0.7710
2055.879010 0.7710 0.7710 0.7710 0.7715 0.7720
2062.530906 0.7720 0.7720 0.7720 0.7720 0.7720
2069.182802 0.7720 0.7720 0.7720 0.7720 0.7720
2075.834698 0.7720 0.7720 0.7720 0.7720 0.7720
2082.486594 0.7721 0.7726 0.7730 0.7730 0.7730
2089.138490 0.7730 0.7730 0.7730 0.7730 0.7730
2095.790387 0.7730 0.7730 0.7730 0.7730 0.7730
2102.442283 0.7730 0.7729 0.7724 0.7720 0.7720
2109.094179 0.7720 0.7720 0.7720 0.7720 0.7720
2115.746075 0.7720 0.7720 0.7720 0.7720 0.7720
2122.397971 0.7721 0.7726 0.7732 0.7742 0.7750
2129.049867 0.7750 0.7750 0.7750 0.7750 0.7750
2135.701763 0.7750 0.7750 0.7747 0.7732 0.7720
2142.353659 0.7720 0.7719 0.7714 0.7710 0.7710
2149.005555 0.7710 0.7710 0.7710 0.7710 0.7708
2155.657451 0.7698 0.7690 0.7690 0.7690 0.7690
2162.309348 0.7690 0.7690 0.7690 0.7690 0.7690
2168.961244 0.7690 0.7690 0.7690 0.7690 0.7690
2175.613140 0.7690 0.7690 0.7690 0.7690 0.7690
2182.265036 0.7690 0.7690 0.7690 0.7689 0.7684
2188.916932 0.7680 0.7680 0.7680 0.7680 0.7680
2195.568828 0.7680 0.7679 0.7674 0.7670 0.7670
2202.220724 0.7670 0.7670 0.7670 0.7670 0.7670
2208.872620 0.7670 0.7670 0.7670 0.7667 0.7657
2215.524516 0.7650 0.7650 0.7650 0.7650 0.7650
2222.176412 0.7650 0.7650 0.7650 0.7649 0.7644
2228.828308 0.7640 0.7640 0.7640 0.7640 0.7640
2235.480205 0.7640 0.7639 0.7633 0.7630 0.7630
2242.132101 0.7630 0.7630 0.7630 0.7630 0.7630
2248.783997 0.7630 0.7630 0.7630 0.7630 0.7630
2255.435893 0.7630 0.7630 0.7630 0.7630 0.7630
2262.087789 0.7630 0.7627 0.7617 0.7610 0.7610
2268.739685 0.7610 0.7610 0.7610 0.7610 0.7610
2275.391581 0.7610 0.7610 0.7610 0.7610 0.7610
2282.043477 0.7608 0.7603 0.7600 0.7600 0.7600
2288.695373 0.7600 0.7600 0.7600 0.7598 0.7593
2295.347269 0.7590 0.7590 0.7590 0.7590 0.7590
2301.999165 0.7590 0.7586 0.7576 0.7570 0.7570
2308.651062 0.7570 0.7570 0.7568 0.7563 0.7560
2315.302958 0.7560 0.7558 0.7553 0.7550 0.7550
2321.954854 0.7550 0.7550 0.7546 0.7536 0.7530
2328.606750 0.7530 0.7528 0.7523 0.7518 0.7513
2335.258646 0.7510 0.7510 0.7506 0.7496 0.7488
2341.910542 0.7483 0.7480 0.7480 0.7475 0.7465
2348.562438 0.7460 0.7460 0.7460 0.7460 0.7460
2355.214334 0.7460 0.7458 0.7453 0.7450 0.7450
2361.866230 0.7450 0.7450 0.7452 0.7457 0.7460
2368.518126 0.7460 0.7465 0.7475 0.7480 0.7480
2375.170023 0.7482 0.7488 0.7490 0.7490 0.7490
2381.821919 0.7490 0.7495 0.7505 0.7510 0.7510
2388.473815 0.7510 0.7510 0.7510 0.7510 0.7510
2395.125711 0.7510 0.7505 0.7495 0.7490 0.7490
2401.777607 0.7490 0.7490 0.7490 0.7490 0.7495
2408.429503 0.7505 0.7513 0.7518 0.7520 0.7520
2415.081399 0.7520 0.7520 0.7523 0.7528 0.7530
2421.733295 0.7530 0.7527 0.7522 0.7517 0.7512
2428.385191 0.7510 0.7510 0.7504 0.7494 0.7490
2435.037087 0.7490 0.7487 0.7482 0.7480 0.7480
2441.688983 0.7480 0.7480 0.7480 0.7480 0.7480
2448.340880 0.7480 0.7480 0.7480 0.7480 0.7480
2454.992776 0.7483 0.7488 0.7490 0.7490 0.7490
2461.644672 0.7490 0.7490 0.7490 0.7490 0.7490
2468.296568 0.7487 0.7482 0.7480 0.7480 0.7474
2474.948464 0.7464 0.7460 0.7460 0.7457 0.7452
2481.600360 0.7450 0.7450 0.7447 0.7442 0.7434
2488.252256 0.7424 0.7420 0.7420 0.7420 0.7420
2494.904152 0.7420 0.7420 0.7420 0.7420 0.7420
2501.556048 0.7420 0.7417 0.7412 0.7410 0.7410
2508.207944 0.7410 0.7410 0.7410 0.7410 0.7410
2514.859840 0.7410 0.7410 0.7410 0.7410 0.7410
2521.511737 0.7410 0.7410 0.7410 0.7410 0.7410
2528.163633 0.7410 0.7407 0.7401 0.7400 0.7400
2534.815529 0.7400 0.7400 0.7400 0.7400 0.7400
2541.467425 0.7400 0.7400 0.7400 0.7400 0.7400
2548.119321 0.7400 0.7400 0.7400 0.7400 0.7393
2554.771217 0.7383 0.7387 0.7397 0.7400 0.7400
2561.423113 0.7400 0.7400 0.7393 0.7383 0.7380
2568.075009 0.7380 0.7380 0.7380 0.7380 0.7380
2574.726905 0.7376 0.7371 0.7366 0.7361 0.7360
2581.378801 0.7360 0.7352 0.7342 0.7340 0.7340
2588.030697 0.7340 0.7340 0.7336 0.7331 0.7330
2594.682594 0.7330 0.7330 0.7330 0.7330 0.7330
2601.334490 0.7330 0.7330 0.7330 0.7330 0.7330
2607.986386 0.7330 0.7330 0.7330 0.7330 0.7330
2614.638282 0.7330 0.7330 0.7326 0.7321 0.7320
2621.290178 0.7320 0.7320 0.7320 0.7320 0.7320
2627.942074 0.7320 0.7320 0.7320 0.7320 0.7320
2634.593970 0.7320 0.7320 0.7320 0.7311 0.7301
2641.245866 0.7300 0.7300 0.7300 0.7300 0.7300
2647.897762 0.7300 0.7296 0.7291 0.7290 0.7290
2654.549658 0.7290 0.7290 0.7290 0.7290 0.7290
2661.201555 0.7290 0.7286 0.7281 0.7280 0.7280
2667.853451 0.7280 0.7280 0.7280 0.7280 0.7271
2674.505347 0.7261 0.7260 0.7260 0.7260 0.7260
2681.157243 0.7260 0.7260 0.7260 0.7260 0.7256
2687.809139 0.7251 0.7250 0.7250 0.7250 0.7250
2694.461035 0.7250 0.7250 0.7250 0.7250 0.7245
2701.112931 0.7240 0.7240 0.7240 0.7240 0.7240
2707.764827 0.7240 0.7240 0.7240 0.7240 0.7226
2714.416723 0.7211 0.7210 0.7210 0.7210 0.7210
2721.068619 0.7205 0.7200 0.7200 0.7200 0.7200
2727.720515 0.7200 0.7200 0.7200 0.7200 0.7200
2734.372412 0.7190 0.7180 0.7180 0.7180 0.7180
2741.024308 0.7180 0.7180 0.7180 0.7175 0.7170
2747.676204 0.7170 0.7170 0.7170 0.7170 0.7170
2754.328100 0.7170 0.7170 0.7170 0.7170 0.7170
2760.979996 0.7170 0.7170 0.7170 0.7170 0.7165
2767.631892 0.7160 0.7160 0.7160 0.7160 0.7160
2774.283788 0.7160 0.7160 0.7150 0.7140 0.7140
2780.935684 0.7140 0.7140 0.7140 0.7140 0.7140
2787.587580 0.7135 0.7130 0.7130 0.7130 0.7130
2794.239476 0.7130 0.7130 0.7130 0.7130 0.7130
2800.891372 0.7130 0.7130 0.7130 0.7130 0.7130
2807.543269 0.7130 0.7130 0.7130 0.7125 0.7119
2814.195165 0.7109 0.7100 0.7100 0.7100 0.7100
2820.847061 0.7100 0.7095 0.7090 0.7090 0.7089
2827.498957 0.7084 0.7080 0.7080 0.7079 0.7069
2834.150853 0.7060 0.7060 0.7059 0.7054 0.7050
2840.802749 0.7050 0.7050 0.7050 0.7050 0.7050
2847.454645 0.7049 0.7044 0.7040 0.7040 0.7040
2854.106541 0.7040 0.7039 0.7029 0.7020 0.7020
2860.758437 0.7020 0.7020 0.7020 0.7020 0.7019
2867.410333 0.7014 0.7010 0.7010 0.7010 0.7010
2874.062229 0.7010 0.7010 0.7010 0.7010 0.7010
2880.714126 0.7010 0.7010 0.7010 0.7010 0.7010
2887.366022 0.7009 0.7004 0.7000 0.7000 0.7000
2894.017918 0.7000 0.6998 0.6988 0.6980 0.6980
2900.669814 0.6980 0.6980 0.6979 0.6974 0.6970
2907.321710 0.6970 0.6970 0.6970 0.6969 0.6964
2913.973606 0.6960 0.6960 0.6960 0.6960 0.6958
2920.625502 0.6948 0.6940 0.6940 0.6940 0.6940
2927.277398 0.6939 0.6934 0.6930 0.6930 0.6930
2933.929294 0.6930 0.6930 0.6930 0.6930 0.6930
2940.581190 0.6930 0.6930 0.6930 0.6930 0.6930
2947.233087 0.6930 0.6930 0.6930 0.6930 0.6930
2953.884983 0.6930 0.6930 0.6930 0.6930 0.6930
2960.536879 0.6930 0.6930 0.6930 0.6930 0.6930
2967.188775 0.6930 0.6930 0.6930 0.6930 0.6930
2973.840671 0.6930 0.6930 0.6930 0.6930 0.6930
2980.492567 0.6930 0.6930 0.6930 0.6930 0.6930
2987.144463 0.6930 0.6928 0.6923 0.6920 0.6920
2993.796359 0.6920 0.6920 0.6920 0.6920 0.6917
3000.448255 0.6907 0.6900 0.6900 0.6900 0.6900
3007.100151 0.6900 0.6900 0.6898 0.6893 0.6890
3013.752047 0.6890 0.6890 0.6890 0.6890 0.6890
3020.403944 0.6888 0.6883 0.6880 0.6880 0.6880
3027.055840 0.6880 0.6880 0.6880 0.6876 0.6866
3033.707736 0.6860 0.6860 0.6860 0.6860 0.6858
3040.359632 0.6853 0.6850 0.6850 0.6850 0.6850
3047.011528 0.6848 0.6843 0.6840 0.6840 0.6840
3053.663424 0.6840 0.6840 0.6840 0.6836 0.6826
3060.315320 0.6820 0.6820 0.6820 0.6820 0.6818
3066.967216 0.6813 0.6810 0.6810 0.6810 0.6810
3073.619112 0.6810 0.6810 0.6808 0.6803 0.6800
3080.271008 0.6800 0.6800 0.6800 0.6796 0.6786
3086.922904 0.6780 0.6780 0.6780 0.6780 0.6780
3093.574801 0.6780 0.6780 0.6780 0.6778 0.6773
3100.226697 0.6770 0.6770 0.6770 0.6770 0.6770
3106.878593 0.6770 0.6770 0.6770 0.6768 0.6763
3113.530489 0.6760 0.6760 0.6760 0.6760 0.6760
3120.182385 0.6760 0.6760 0.6760 0.6760 0.6760
3126.834281 0.6755 0.6745 0.6740 0.6740 0.6740
3133.486177 0.6740 0.6740 0.6740 0.6740 0.6740
3140.138073 0.6737 0.6732 0.6730 0.6730 0.6727
3146.789969 0.6722 0.6720 0.6720 0.6720 0.6720
3153.441865 0.6715 0.6705 0.6700 0.6700 0.6700
3160.093762 0.6700 0.6697 0.6692 0.6690 0.6690
3166.745658 0.6690 0.6690 0.6687 0.6682 0.6680
3173.397554 0.6680 0.6674 0.6664 0.6660 0.6660
3180.049450 0.6660 0.6660 0.6657 0.6652 0.6650
3186.701346 0.6650 0.6644 0.6634 0.6630 0.6630
3193.353242 0.6630 0.6630 0.6627 0.6622 0.6620
3200.005138 0.6620 0.6620 0.6620 0.6620 0.6620
3206.657034 0.6617 0.6612 0.6610 0.6610 0.6610
3213.308930 0.6610 0.6610 0.6610 0.6610 0.6610
3219.960826 0.6604 0.6594 0.6587 0.6582 0.6570
3226.612722 0.6555 0.6547 0.6542 0.6540 0.6540
3233.264619 0.6540 0.6540 0.6540 0.6540 0.6537
3239.916515 0.6532 0.6530 0.6530 0.6530 0.6530
3246.568411 0.6530 0.6530 0.6530 0.6530 0.6530
3253.220307 0.6530 0.6523 0.6513 0.6510 0.6510
3259.872203 0.6507 0.6502 0.6500 0.6500 0.6490
3266.524099 0.6475 0.6467 0.6462 0.6457 0.6452
3273.175995 0.6443 0.6433 0.6426 0.6421 0.6420
3279.827891 0.6420 0.6416 0.6411 0.6410 0.6410
3286.479787 0.6410 0.6410 0.6403 0.6393 0.6390
3293.131683 0.6390 0.6390 0.6390 0.6390 0.6390
3299.783579 0.6390 0.6390 0.6383 0.6373 0.6370
3306.435476 0.6370 0.6359 0.6344 0.6329 0.6314
3313.087372 0.6306 0.6301 0.6300 0.6300 0.6296
3319.739268 0.6291 0.6283 0.6273 0.6266 0.6261
3326.391164 0.6256 0.6251 0.6242 0.6232 0.6226
3333.043060 0.6221 0.6216 0.6211 0.6202 0.6192
3339.694956 0.6186 0.6181 0.6176 0.6171 0.6162
3346.346852 0.6152 0.6146 0.6141 0.6136 0.6131
3352.998748 0.6122 0.6112 0.6102 0.6092 0.6082
3359.650644 0.6072 0.6062 0.6052 0.6042 0.6032
3366.302540 0.6022 0.6012 0.5998 0.5983 0.5968
3372.954436 0.5953 0.5946 0.5941 0.5936 0.5931
3379.606333 0.5918 0.5902 0.5887 0.5872 0.5853
3386.258229 0.5833 0.5817 0.5802 0.5796 0.5791
3392.910125 0.5773 0.5753 0.5737 0.5722 0.5711
3399.562021 0.5701 0.5687 0.5672 0.5666 0.5661
3406.213917 0.5651 0.5641 0.5631 0.5621 0.5611
3412.865813 0.5601 0.5596 0.5591 0.5586 0.5581
3419.517709 0.5571 0.5561 0.5556 0.5551 0.5546
3426.169605 0.5541 0.5540 0.5540 0.5531 0.5521
3432.821501 0.5520 0.5520 0.5515 0.5510 0.5505
3439.473397 0.5500 0.5491 0.5481 0.5480 0.5480
3446.125294 0.5480 0.5480 0.5475 0.5470 0.5470
3452.777190 0.5470 0.5470 0.5470 0.5465 0.5460
3459.429086 0.5460 0.5460 0.5460 0.5460 0.5460
3466.080982 0.5460 0.5460 0.5460 0.5460 0.5460
3472.732878 0.5460 0.5460 0.5460 0.5460 0.5465
3479.384774 0.5470 0.5470 0.5470 0.5470 0.5470
3486.036670 0.5470 0.5470 0.5470 0.5470 0.5470
3492.688566 0.5470 0.5475 0.5480 0.5480 0.5480
3499.340462 0.5490 0.5500 0.5500 0.5500 0.5500
3505.992358 0.5500 0.5500 0.5500 0.5505 0.5510
3512.644254 0.5510 0.5510 0.5515 0.5520 0.5520
3519.296151 0.5520 0.5530 0.5540 0.5545 0.5550
3525.948047 0.5550 0.5550 0.5555 0.5560 0.5570
3532.599943 0.5580 0.5585 0.5590 0.5590 0.5590
3539.251839 0.5595 0.5601 0.5611 0.5620 0.5625
3545.903735 0.5630 0.5630 0.5630 0.5635 0.5641
3552.555631 0.5651 0.5660 0.5665 0.5670 0.5675
3559.207527 0.5681 0.5691 0.5700 0.5705 0.5710
3565.859423 0.5715 0.5721 0.5731 0.5741 0.5751
3572.511319 0.5761 0.5771 0.5780 0.5785 0.5790
3579.163215 0.5795 0.5801 0.5816 0.5831 0.5841
3585.815111 0.5850 0.5856 0.5862 0.5877 0.5891
3592.467008 0.5896 0.5901 0.5906 0.5912 0.5927
3599.118904 0.5941 0.5946 0.5951 0.5961 0.5971
3605.770800 0.5981 0.5991 0.6001 0.6011 0.6016
3612.422696 0.6021 0.6026 0.6031 0.6041 0.6051
3619.074592 0.6056 0.6060 0.6060 0.6061 0.6066
3625.726488 0.6072 0.6082 0.6090 0.6090 0.6091
3632.378384 0.6096 0.6101 0.6106 0.6112 0.6122
3639.030280 0.6130 0.6130 0.6131 0.6136 0.6140
3645.682176 0.6140 0.6141 0.6146 0.6150 0.6150
3652.334072 0.6152 0.6162 0.6170 0.6170 0.6171
3658.985969 0.6176 0.6180 0.6180 0.6180 0.6180
3665.637865 0.6180 0.6180 0.6180 0.6180 0.6180
3672.289761 0.6180 0.6180 0.6180 0.6180 0.6180
3678.941657 0.6180 0.6180 0.6180 0.6180 0.6180
3685.593553 0.6180 0.6180 0.6180 0.6180 0.6180
3692.245449 0.6180 0.6180 0.6180 0.6180 0.6180
3698.897345 0.6180 0.6180 0.6180 0.6179 0.6174
3705.549241 0.6170 0.6170 0.6170 0.6170 0.6170
3712.201137 0.6170 0.6170 0.6170 0.6170 0.6170
3718.853033 0.6170 0.6170 0.6167 0.6157 0.6150
3725.504929 0.6150 0.6150 0.6150 0.6150 0.6150
3732.156826 0.6150 0.6150 0.6150 0.6150 0.6150
3738.808722 0.6150 0.6148 0.6143 0.6140 0.6140
3745.460618 0.6140 0.6140 0.6140 0.6140 0.6140
3752.112514 0.6140 0.6140 0.6140 0.6140 0.6140
3758.764410 0.6138 0.6133 0.6130 0.6130 0.6130
3765.416306 0.6130 0.6130 0.6130 0.6130 0.6130
3772.068202 0.6130 0.6130 0.6127 0.6117 0.6108
3778.720098 0.6103 0.6100 0.6100 0.6100 0.6100
3785.371994 0.6100 0.6100 0.6100 0.6100 0.6100
3792.023890 0.6100 0.6098 0.6093 0.6090 0.6090
3798.675786 0.6090 0.6090 0.6090 0.6090 0.6090
3805.327683 0.6090 0.6090 0.6090 0.6086 0.6076
3811.979579 0.6070 0.6070 0.6070 0.6070 0.6068
3818.631475 0.6063 0.6060 0.6060 0.6060 0.6060
3825.283371 0.6058 0.6053 0.6050 0.6050 0.6050
3831.935267 0.6050 0.6050 0.6050 0.6050 0.6050
3838.587163 0.6050 0.6050 0.6050 0.6050 0.6050
3845.239059 0.6050 0.6050 0.6050 0.6050 0.6050
3851.890955 0.6045 0.6035 0.6030 0.6030 0.6030
3858.542851 0.6030 0.6030 0.6030 0.6030 0.6030
3865.194747 0.6030 0.6030 0.6030 0.6030 0.6030
3871.846643 0.6030 0.6030 0.6030 0.6030 0.6030
3878.498540 0.6028 0.6023 0.6020 0.6020 0.6020
3885.150436 0.6020 0.6020 0.6020 0.6020 0.6020
3891.802332 0.6017 0.6012 0.6010 0.6010 0.6010
3898.454228 0.6010 0.6010 0.6010 0.6010 0.6010
3905.106124 0.6005 0.5995 0.5990 0.5990 0.5990
3911.758020 0.5990 0.5990 0.5990 0.5990 0.5990
3918.409916 0.5987 0.5982 0.5980 0.5980 0.5980
3925.061812 0.5980 0.5980 0.5980 0.5977 0.5972
3931.713708 0.5970 0.5970 0.5970 0.5970 0.5970
3938.365604 0.5970 0.5964 0.5954 0.5950 0.5950
3945.017501 0.5950 0.5950 0.5950 0.5950 0.5950
3951.669397 0.5950 0.5947 0.5942 0.5940 0.5940
3958.321293 0.5940 0.5940 0.5940 0.5940 0.5940
3964.973189 0.5940 0.5940 0.5940 0.5937 0.5932
3971.625085 0.5930 0.5930 0.5930 0.5930 0.5924
3978.276981 0.5914 0.5910 0.5910 0.5910 0.5910
3984.928877 0.5910 0.5910 0.5910 0.5910
##END=
