##TITLE=CYCLOPROPYLAMINE
##JCAMP-DX=4.24
##DATA TYPE=INFRARED SPECTRUM
##CLASS=COBLENTZ
##ORIGIN=ABBOTT LABORATORIES - WASHBURN
##OWNER=COBLENTZ SOCIETY
Collection (C) 2018 copyright by the U.S. Secretary of Commerce
on behalf of the United States of America. All rights reserved.
##DATE=Not specified, most likely prior to 1970
##NAMES=cyclopropanamine
##CAS REGISTRY NO=765-30-0
##MOLFORM=C3 H7 N
##SOURCE REFERENCE=COBLENTZ NO. 3413
##$NIST SOURCE=COBLENTZ
##$NIST IMAGE=cob3413
##SPECTROMETER/DATA SYSTEM=PERKIN-ELMER
##STATE=SOLUTION (10% IN CCl4)
##PATH LENGTH=0.010 CM
$$ INACTIVE (CCl4) AROUND 750 CM^-^1
##SAMPLING PROCEDURE=TRANSMISSION
##RESOLUTION=4
##DATA PROCESSING=DIGITIZED BY NIST FROM HARD COPY (FROM TWO SEGMENTS)
##XUNITS=MICROMETERS
##YUNITS=TRANSMITTANCE
##XFACTOR=1.000000
##YFACTOR=1
##DELTAX=0.006849
##FIRSTX=2.014
##LASTX=15.4312
##FIRSTY=0.882
##MAXX=15.4312
##MINX=2.014
##MAXY=0.917
##MINY=0.129128
##NPOINTS=1960
##XYDATA=(X++(Y..Y))
2.014000 0.8820 0.8820 0.8820 0.8820 0.8820
2.048245 0.8820 0.8820 0.8810 0.8790 0.8770
2.082490 0.8719 0.8700 0.8703 0.8742 0.8771
2.116735 0.8792 0.8821 0.8841 0.8860 0.8860
2.150980 0.8860 0.8860 0.8860 0.8870 0.8890
2.185225 0.8890 0.8890 0.8890 0.8890 0.8890
2.219470 0.8890 0.8890 0.8890 0.8890 0.8890
2.253715 0.8889 0.8869 0.8860 0.8858 0.8806
2.287960 0.8720 0.8680 0.8680 0.8739 0.8789
2.322205 0.8810 0.8820 0.8840 0.8860 0.8870
2.356450 0.8871 0.8891 0.8910 0.8910 0.8909
2.390695 0.8889 0.8867 0.8809 0.8790 0.8790
2.424940 0.8790 0.8790 0.8790 0.8790 0.8810
2.459185 0.8820 0.8840 0.8860 0.8870 0.8889
2.493430 0.8911 0.8931 0.8940 0.8941 0.8961
2.527675 0.8980 0.8980 0.8981 0.9000 0.9000
2.561920 0.9010 0.9030 0.9030 0.9050 0.9030
2.596165 0.9030 0.9030 0.9030 0.9011 0.9010
2.630410 0.9000 0.8999 0.8980 0.8980 0.8980
2.664655 0.8980 0.8980 0.8981 0.9000 0.9000
2.698900 0.9000 0.9010 0.9010 0.9000 0.9000
2.733145 0.8981 0.8941 0.8940 0.8930 0.8911
2.767390 0.8890 0.8891 0.8912 0.8941 0.8962
2.801635 0.9000 0.8999 0.8980 0.8979 0.8960
2.835880 0.8960 0.8960 0.8960 0.8940 0.8911
2.870125 0.8910 0.8891 0.8842 0.8811 0.8752
2.904370 0.8739 0.8719 0.8696 0.8615 0.8505
2.938615 0.8387 0.8317 0.8243 0.8053 0.7841
2.972860 0.7252 0.7220 0.7249 0.7454 0.7693
3.007105 0.7787 0.7858 0.7956 0.8008 0.8029
3.041350 0.8030 0.8031 0.8051 0.8083 0.8152
3.075595 0.8203 0.8271 0.8310 0.8322 0.8373
3.109840 0.8458 0.8548 0.8579 0.8580 0.8580
3.144085 0.8580 0.8561 0.8560 0.8560 0.8560
3.178330 0.8581 0.8601 0.8620 0.8620 0.8620
3.212575 0.8619 0.8599 0.8558 0.8495 0.8330
3.246820 0.7950 0.6570 0.6210 0.5833 0.5820
3.281065 0.6407 0.6574 0.6848 0.7338 0.7360
3.315310 0.7299 0.6416 0.5845 0.4779 0.4498
3.349555 0.4170 0.4172 0.4241 0.4269 0.4244
3.383800 0.4007 0.4000 0.4213 0.5203 0.5615
3.418045 0.6014 0.6595 0.7040 0.7374 0.7618
3.452290 0.7755 0.7868 0.8069 0.8293 0.8371
3.486535 0.8411 0.8430 0.8430 0.8430 0.8440
3.520780 0.8440 0.8459 0.8527 0.8549 0.8579
3.555025 0.8599 0.8629 0.8697 0.8700 0.8719
3.589270 0.8740 0.8753 0.8822 0.8891 0.8930
3.623515 0.8942 0.9010 0.9010 0.9031 0.9060
3.657760 0.9079 0.9099 0.9100 0.9100 0.9081
3.692005 0.9080 0.9051 0.9012 0.9010 0.9010
3.726250 0.9030 0.9030 0.9031 0.9050 0.9061
3.760495 0.9080 0.9100 0.9120 0.9120 0.9130
3.794740 0.9130 0.9149 0.9150 0.9131 0.9130
3.828985 0.9130 0.9130 0.9130 0.9130 0.9130
3.863230 0.9170 0.9169 0.9149 0.9120 0.9120
3.897475 0.9120 0.9120 0.9120 0.9120 0.9120
3.931720 0.9120 0.9120 0.9130 0.9130 0.9130
3.965965 0.9121 0.9120 0.9120 0.9120 0.9129
4.000210 0.9130 0.9120 0.9120 0.9120 0.9120
4.034455 0.9120 0.9120 0.9120 0.9120 0.9120
4.068700 0.9118 0.9100 0.9100 0.9102 0.9120
4.102945 0.9116 0.9077 0.9048 0.9028 0.9000
4.137190 0.9000 0.9010 0.9010 0.9010 0.9010
4.171435 0.9010 0.9010 0.9010 0.9010 0.9010
4.205680 0.9032 0.9050 0.9051 0.9064 0.9100
4.239925 0.9100 0.9100 0.9100 0.9100 0.9100
4.274170 0.9100 0.9100 0.9100 0.9100 0.9100
4.308415 0.9120 0.9120 0.9120 0.9130 0.9130
4.342660 0.9118 0.9100 0.9100 0.9098 0.9080
4.376905 0.9080 0.9078 0.9062 0.9078 0.9058
4.411150 0.9030 0.9050 0.9029 0.9000 0.9000
4.445395 0.8980 0.8960 0.8940 0.8940 0.8930
4.479640 0.8888 0.8869 0.8861 0.8870 0.8872
4.513885 0.8890 0.8892 0.8908 0.8891 0.8911
4.548130 0.8930 0.8910 0.8890 0.8860 0.8840
4.582375 0.8840 0.8840 0.8860 0.8860 0.8890
4.616620 0.8892 0.8910 0.8910 0.8912 0.8928
4.650865 0.8908 0.8890 0.8889 0.8870 0.8870
4.685110 0.8870 0.8860 0.8840 0.8820 0.8820
4.719355 0.8820 0.8820 0.8820 0.8810 0.8790
4.753600 0.8792 0.8810 0.8811 0.8820 0.8822
4.787845 0.8840 0.8840 0.8839 0.8820 0.8819
4.822090 0.8809 0.8770 0.8740 0.8720 0.8700
4.856335 0.8700 0.8700 0.8680 0.8670 0.8620
4.890580 0.8556 0.8508 0.8476 0.8430 0.8432
4.924825 0.8460 0.8463 0.8501 0.8511 0.8530
4.959070 0.8530 0.8510 0.8530 0.8550 0.8580
4.993315 0.8620 0.8651 0.8680 0.8680 0.8670
5.027560 0.8670 0.8670 0.8679 0.8680 0.8680
5.061805 0.8698 0.8700 0.8700 0.8718 0.8720
5.096050 0.8720 0.8720 0.8720 0.8720 0.8720
5.130295 0.8720 0.8720 0.8720 0.8720 0.8720
5.164540 0.8720 0.8720 0.8720 0.8720 0.8720
5.198785 0.8696 0.8648 0.8624 0.8595 0.8568
5.233030 0.8560 0.8560 0.8560 0.8560 0.8571
5.267275 0.8569 0.8560 0.8556 0.8542 0.8530
5.301520 0.8530 0.8530 0.8530 0.8530 0.8530
5.335765 0.8536 0.8560 0.8580 0.8580 0.8573
5.370010 0.8557 0.8550 0.8550 0.8550 0.8550
5.404255 0.8552 0.8560 0.8560 0.8560 0.8560
5.438500 0.8560 0.8559 0.8549 0.8531 0.8550
5.472745 0.8550 0.8550 0.8563 0.8600 0.8600
5.506990 0.8600 0.8580 0.8580 0.8580 0.8580
5.541235 0.8580 0.8580 0.8563 0.8560 0.8560
5.575480 0.8560 0.8560 0.8560 0.8537 0.8530
5.609725 0.8545 0.8550 0.8550 0.8535 0.8515
5.643970 0.8503 0.8471 0.8446 0.8440 0.8433
5.678215 0.8430 0.8430 0.8430 0.8430 0.8464
5.712460 0.8500 0.8523 0.8543 0.8556 0.8572
5.746705 0.8580 0.8580 0.8580 0.8580 0.8580
5.780950 0.8580 0.8589 0.8612 0.8626 0.8620
5.815195 0.8620 0.8620 0.8624 0.8638 0.8658
5.849440 0.8652 0.8606 0.8573 0.8560 0.8557
5.883685 0.8553 0.8560 0.8560 0.8558 0.8547
5.917930 0.8527 0.8506 0.8475 0.8439 0.8431
5.952175 0.8439 0.8429 0.8408 0.8369 0.8358
5.986420 0.8339 0.8319 0.8307 0.8247 0.8149
6.020665 0.8120 0.8061 0.8002 0.7982 0.7936
6.054910 0.7810 0.7689 0.7653 0.7626 0.7604
6.089155 0.7529 0.7402 0.7294 0.7230 0.7140
6.123400 0.7089 0.7003 0.6897 0.6774 0.6587
6.157645 0.6480 0.6341 0.6194 0.6106 0.5999
6.191890 0.5895 0.5794 0.5718 0.5690 0.5675
6.226135 0.5670 0.5684 0.5719 0.5813 0.5951
6.260380 0.6114 0.6278 0.6405 0.6548 0.6652
6.294625 0.6718 0.6807 0.6899 0.7009 0.7089
6.328870 0.7159 0.7268 0.7314 0.7335 0.7364
6.363115 0.7391 0.7433 0.7446 0.7466 0.7491
6.397360 0.7544 0.7609 0.7662 0.7723 0.7741
6.431605 0.7755 0.7790 0.7790 0.7793 0.7833
6.465850 0.7914 0.7945 0.7987 0.8054 0.8102
6.500095 0.8132 0.8170 0.8170 0.8180 0.8180
6.534340 0.8180 0.8180 0.8198 0.8200 0.8217
6.568585 0.8220 0.8220 0.8236 0.8248 0.8267
6.602830 0.8270 0.8286 0.8290 0.8274 0.8286
6.637075 0.8290 0.8305 0.8310 0.8310 0.8310
6.671320 0.8310 0.8298 0.8266 0.8244 0.8240
6.705565 0.8229 0.8209 0.8190 0.8175 0.8175
6.739810 0.8180 0.8180 0.8180 0.8175 0.8170
6.774055 0.8160 0.8150 0.8137 0.8111 0.8084
6.808300 0.8050 0.8014 0.7980 0.7968 0.7918
6.842545 0.7800 0.7618 0.7529 0.7289 0.6978
6.876790 0.6746 0.6552 0.6297 0.6062 0.5440
6.911035 0.4192 0.3903 0.3525 0.3501 0.3549
6.945280 0.3886 0.4383 0.4796 0.5141 0.5408
6.979525 0.5546 0.5689 0.5877 0.6076 0.6300
7.013770 0.6474 0.6670 0.6736 0.6768 0.6788
7.048015 0.6835 0.6858 0.6843 0.6823 0.6778
7.082260 0.6752 0.6750 0.6750 0.6742 0.6740
7.116505 0.6748 0.6766 0.6810 0.6906 0.7022
7.150750 0.7106 0.7209 0.7308 0.7340 0.7352
7.184995 0.7348 0.7340 0.7340 0.7340 0.7324
7.219240 0.7287 0.7229 0.7189 0.7152 0.7114
7.253485 0.7010 0.6868 0.6679 0.6457 0.6275
7.287730 0.6065 0.5825 0.5405 0.4698 0.4142
7.321975 0.3752 0.3294 0.2542 0.2196 0.2130
7.356220 0.2143 0.2311 0.2711 0.3029 0.3428
7.390465 0.4032 0.4588 0.5047 0.5402 0.5557
7.424710 0.5721 0.5958 0.6186 0.6420 0.6607
7.458955 0.6794 0.6981 0.7060 0.7119 0.7217
7.493200 0.7287 0.7411 0.7499 0.7529 0.7559
7.527445 0.7579 0.7627 0.7648 0.7677 0.7734
7.561690 0.7740 0.7749 0.7750 0.7750 0.7803
7.595935 0.7880 0.7924 0.7955 0.7977 0.8005
7.630180 0.8026 0.8045 0.8057 0.8060 0.8060
7.664425 0.8100 0.8126 0.8143 0.8150 0.8150
7.698670 0.8150 0.8150 0.8163 0.8170 0.8176
7.732915 0.8192 0.8223 0.8240 0.8240 0.8240
7.767160 0.8230 0.8220 0.8220 0.8220 0.8220
7.801405 0.8220 0.8227 0.8243 0.8250 0.8262
7.835650 0.8290 0.8290 0.8297 0.8310 0.8304
7.869895 0.8290 0.8290 0.8290 0.8285 0.8279
7.904140 0.8310 0.8306 0.8290 0.8290 0.8288
7.938385 0.8270 0.8270 0.8270 0.8270 0.8270
7.972630 0.8290 0.8290 0.8290 0.8291 0.8310
8.006875 0.8290 0.8270 0.8250 0.8240 0.8202
8.041120 0.8181 0.8180 0.8172 0.8170 0.8170
8.075365 0.8154 0.8150 0.8135 0.8123 0.8069
8.109610 0.8036 0.7995 0.7965 0.7908 0.7868
8.143855 0.7810 0.7727 0.7686 0.7660 0.7617
8.178100 0.7568 0.7506 0.7454 0.7373 0.7307
8.212345 0.7264 0.7231 0.7147 0.7040 0.6948
8.246590 0.6853 0.6788 0.6735 0.6686 0.6653
8.280835 0.6626 0.6604 0.6572 0.6511 0.6415
8.315080 0.6372 0.6333 0.6334 0.6413 0.6536
8.349325 0.6642 0.6753 0.6849 0.6938 0.7029
8.383570 0.7119 0.7178 0.7221 0.7306 0.7403
8.417815 0.7483 0.7501 0.7514 0.7551 0.7561
8.452060 0.7581 0.7601 0.7620 0.7620 0.7621
8.486305 0.7631 0.7651 0.7671 0.7700 0.7700
8.520550 0.7700 0.7700 0.7700 0.7700 0.7700
8.554795 0.7683 0.7655 0.7626 0.7620 0.7604
8.589040 0.7585 0.7565 0.7553 0.7511 0.7484
8.623285 0.7465 0.7460 0.7445 0.7440 0.7440
8.657530 0.7468 0.7480 0.7493 0.7500 0.7500
8.691775 0.7506 0.7505 0.7479 0.7450 0.7435
8.726020 0.7420 0.7378 0.7318 0.7257 0.7171
8.760265 0.7087 0.6999 0.6936 0.6921 0.6910
8.794510 0.6922 0.6963 0.7023 0.7087 0.7168
8.828755 0.7248 0.7317 0.7386 0.7448 0.7497
8.863000 0.7553 0.7616 0.7665 0.7711 0.7742
8.897245 0.7757 0.7790 0.7793 0.7810 0.7811
8.931490 0.7825 0.7861 0.7870 0.7870 0.7873
8.965735 0.7890 0.7888 0.7869 0.7860 0.7860
8.999980 0.7860 0.7870 0.7870 0.7870 0.7870
9.034225 0.7870 0.7870 0.7861 0.7843 0.7823
9.068470 0.7812 0.7794 0.7758 0.7672 0.7609
9.102715 0.7526 0.7389 0.7289 0.7254 0.7196
9.136960 0.7105 0.7058 0.7050 0.7085 0.7145
9.171205 0.7212 0.7287 0.7349 0.7404 0.7474
9.205450 0.7521 0.7540 0.7565 0.7590 0.7600
9.239695 0.7616 0.7630 0.7640 0.7650 0.7650
9.273940 0.7659 0.7670 0.7674 0.7688 0.7707
9.308185 0.7726 0.7743 0.7761 0.7790 0.7795
9.342430 0.7810 0.7810 0.7810 0.7810 0.7810
9.376675 0.7810 0.7810 0.7810 0.7810 0.7810
9.410920 0.7810 0.7810 0.7807 0.7787 0.7770
9.445165 0.7770 0.7767 0.7753 0.7770 0.7770
9.479410 0.7768 0.7750 0.7748 0.7720 0.7720
9.513655 0.7720 0.7720 0.7683 0.7653 0.7605
9.547900 0.7565 0.7491 0.7446 0.7432 0.7356
9.582145 0.7297 0.7247 0.7181 0.7078 0.6962
9.616390 0.6884 0.6767 0.6600 0.6469 0.6350
9.650635 0.6224 0.6025 0.5858 0.5724 0.5640
9.684880 0.5579 0.5527 0.5510 0.5548 0.5606
9.719125 0.5669 0.5791 0.5916 0.5987 0.6047
9.753370 0.6080 0.6080 0.6080 0.6071 0.6046
9.787615 0.5993 0.5912 0.5843 0.5729 0.5432
9.821860 0.5123 0.4998 0.4765 0.4481 0.4197
9.856105 0.3926 0.3395 0.2787 0.2492 0.2233
9.890350 0.1999 0.1778 0.1579 0.1401 0.1352
9.924595 0.1307 0.1291 0.1319 0.1507 0.1708
9.958840 0.2082 0.2457 0.2851 0.3053 0.3240
9.993085 0.3652 0.4125 0.4520 0.4857 0.5154
10.027330 0.5413 0.5522 0.5611 0.5789 0.5924
10.061575 0.6138 0.6298 0.6427 0.6520 0.6617
10.095820 0.6647 0.6709 0.6762 0.6786 0.6806
10.130065 0.6818 0.6870 0.6965 0.7034 0.7050
10.164310 0.7056 0.7085 0.7112 0.7156 0.7203
10.198555 0.7231 0.7258 0.7313 0.7382 0.7422
10.232800 0.7436 0.7473 0.7543 0.7591 0.7610
10.267045 0.7625 0.7630 0.7630 0.7630 0.7630
10.301290 0.7637 0.7657 0.7673 0.7680 0.7680
10.335535 0.7680 0.7680 0.7677 0.7655 0.7614
10.369780 0.7600 0.7600 0.7600 0.7600 0.7600
10.404025 0.7596 0.7580 0.7580 0.7582 0.7600
10.438270 0.7601 0.7620 0.7620 0.7620 0.7600
10.472515 0.7600 0.7600 0.7600 0.7600 0.7620
10.506760 0.7630 0.7630 0.7630 0.7630 0.7630
10.541005 0.7630 0.7621 0.7603 0.7616 0.7620
10.575250 0.7605 0.7600 0.7600 0.7600 0.7600
10.609495 0.7600 0.7600 0.7600 0.7600 0.7600
10.643740 0.7600 0.7586 0.7593 0.7587 0.7580
10.677985 0.7580 0.7580 0.7580 0.7580 0.7567
10.712230 0.7554 0.7550 0.7520 0.7500 0.7489
10.746475 0.7480 0.7469 0.7460 0.7451 0.7436
10.780720 0.7422 0.7402 0.7390 0.7383 0.7353
10.814965 0.7317 0.7304 0.7290 0.7290 0.7283
10.849210 0.7270 0.7264 0.7241 0.7214 0.7195
10.883455 0.7177 0.7165 0.7144 0.7114 0.7077
10.917700 0.7060 0.7060 0.7059 0.7049 0.7029
10.951945 0.7010 0.6999 0.6960 0.6927 0.6890
10.986190 0.6889 0.6870 0.6859 0.6820 0.6790
11.020435 0.6742 0.6721 0.6701 0.6657 0.6625
11.054680 0.6604 0.6584 0.6580 0.6564 0.6560
11.088925 0.6552 0.6520 0.6503 0.6485 0.6465
11.123170 0.6445 0.6418 0.6396 0.6369 0.6346
11.157415 0.6326 0.6313 0.6297 0.6278 0.6232
11.191660 0.6189 0.6164 0.6150 0.6135 0.6110
11.225905 0.6091 0.6071 0.6056 0.6041 0.6016
11.260150 0.5968 0.5899 0.5821 0.5762 0.5746
11.294395 0.5732 0.5701 0.5652 0.5579 0.5454
11.328640 0.5358 0.5303 0.5215 0.5132 0.5034
11.362885 0.4958 0.4889 0.4820 0.4745 0.4653
11.397130 0.4572 0.4527 0.4510 0.4513 0.4530
11.431375 0.4533 0.4562 0.4581 0.4602 0.4636
11.465620 0.4689 0.4776 0.4846 0.4936 0.5055
11.499865 0.5171 0.5221 0.5290 0.5310 0.5337
11.534110 0.5402 0.5436 0.5457 0.5477 0.5496
11.568355 0.5508 0.5510 0.5526 0.5568 0.5612
11.602600 0.5620 0.5644 0.5650 0.5650 0.5635
11.636845 0.5630 0.5630 0.5623 0.5620 0.5620
11.671090 0.5608 0.5600 0.5589 0.5569 0.5555
11.705335 0.5540 0.5495 0.5426 0.5376 0.5350
11.739580 0.5325 0.5280 0.5226 0.5176 0.5109
11.773825 0.5047 0.5030 0.5018 0.4984 0.4942
11.808070 0.4883 0.4792 0.4701 0.4642 0.4610
11.842315 0.4569 0.4515 0.4454 0.4417 0.4351
11.876560 0.4301 0.4264 0.4232 0.4187 0.4118
11.910805 0.4042 0.3923 0.3805 0.3691 0.3614
11.945050 0.3555 0.3526 0.3491 0.3424 0.3367
11.979295 0.3336 0.3287 0.3241 0.3075 0.2937
12.013540 0.2818 0.2727 0.2684 0.2653 0.2624
12.047785 0.2560 0.2491 0.2422 0.2353 0.2300
12.082030 0.2256 0.2208 0.2142 0.2073 0.1996
12.116275 0.1964 0.1960 0.1945 0.1933 0.1930
12.150520 0.1903 0.1877 0.1864 0.1836 0.1814
12.184765 0.1810 0.1816 0.1820 0.1831 0.1840
12.219010 0.1851 0.1866 0.1881 0.1890 0.1900
12.253255 0.1920 0.1944 0.1969 0.1989 0.2000
12.287500 0.2004 0.2017 0.2036 0.2065 0.2106
12.321745 0.2120 0.2123 0.2140 0.2170 0.2172
12.355990 0.2189 0.2239 0.2298 0.2325 0.2347
12.390235 0.2374 0.2394 0.2410 0.2410 0.2413
12.424480 0.2430 0.2430 0.2430 0.2440 0.2460
12.458725 0.2460 0.2480 0.2480 0.2499 0.2500
12.492970 0.2509 0.2529 0.2549 0.2559 0.2579
12.527215 0.2617 0.2620 0.2647 0.2667 0.2670
12.561460 0.2670 0.2670 0.2679 0.2680 0.2697
12.595705 0.2700 0.2717 0.2720 0.2720 0.2720
12.629950 0.2735 0.2747 0.2763 0.2770 0.2783
12.664195 0.2803 0.2816 0.2832 0.2840 0.2851
12.698440 0.2866 0.2882 0.2890 0.2878 0.2864
12.732685 0.2860 0.2849 0.2850 0.2860 0.2865
12.766930 0.2870 0.2870 0.2878 0.2890 0.2897
12.801175 0.2910 0.2910 0.2910 0.2910 0.2910
12.835420 0.2915 0.2930 0.2933 0.2946 0.2966
12.869665 0.2985 0.3000 0.3000 0.3000 0.3000
12.903910 0.2996 0.2983 0.3000 0.3000 0.3000
12.938155 0.3000 0.3010 0.3010 0.3010 0.3010
12.972400 0.3010 0.3010 0.3010 0.3010 0.3030
13.006645 0.3030 0.3030 0.3011 0.3010 0.3010
13.040890 0.3001 0.3000 0.3000 0.3000 0.3000
13.075135 0.3000 0.3000 0.3000 0.3007 0.3038
13.109380 0.3050 0.3037 0.3030 0.3009 0.3000
13.143625 0.3000 0.3020 0.3076 0.3113 0.3139
13.177870 0.3150 0.3162 0.3176 0.3180 0.3149
13.212115 0.3130 0.3142 0.3150 0.3178 0.3211
13.246360 0.3231 0.3245 0.3250 0.3250 0.3258
13.280605 0.3278 0.3282 0.3277 0.3297 0.3313
13.314850 0.3326 0.3340 0.3349 0.3384 0.3410
13.349095 0.3416 0.3430 0.3430 0.3430 0.3433
13.383340 0.3440 0.3440 0.3440 0.3443 0.3462
13.417585 0.3480 0.3480 0.3481 0.3500 0.3500
13.451830 0.3511 0.3530 0.3530 0.3550 0.3550
13.486075 0.3561 0.3600 0.3620 0.3630 0.3649
13.520320 0.3650 0.3669 0.3679 0.3697 0.3700
13.554565 0.3700 0.3716 0.3720 0.3720 0.3735
13.588810 0.3740 0.3747 0.3764 0.3770 0.3785
13.623055 0.3790 0.3804 0.3817 0.3834 0.3860
13.657300 0.3897 0.3923 0.3930 0.3936 0.3951
13.691545 0.3960 0.3970 0.3990 0.4000 0.4005
13.725790 0.4010 0.4019 0.4030 0.4043 0.4060
13.760035 0.4078 0.4100 0.4108 0.4124 0.4138
13.794280 0.4161 0.4194 0.4227 0.4240 0.4252
13.828525 0.4277 0.4301 0.4327 0.4350 0.4376
13.862770 0.4390 0.4396 0.4415 0.4432 0.4443
13.897015 0.4466 0.4504 0.4532 0.4551 0.4562
13.931260 0.4582 0.4601 0.4622 0.4651 0.4673
13.965505 0.4703 0.4742 0.4772 0.4810 0.4821
13.999750 0.4870 0.4910 0.4930 0.4959 0.4960
14.033995 0.4977 0.5005 0.5043 0.5091 0.5124
14.068240 0.5162 0.5178 0.5195 0.5215 0.5244
14.102485 0.5266 0.5301 0.5333 0.5340 0.5362
14.136730 0.5384 0.5404 0.5424 0.5437 0.5440
14.170975 0.5451 0.5471 0.5491 0.5500 0.5505
14.205220 0.5520 0.5554 0.5589 0.5609 0.5620
14.239465 0.5625 0.5649 0.5670 0.5670 0.5674
14.273710 0.5689 0.5708 0.5728 0.5740 0.5743
14.307955 0.5750 0.5750 0.5750 0.5750 0.5754
14.342200 0.5770 0.5770 0.5774 0.5793 0.5815
14.376445 0.5846 0.5878 0.5914 0.5932 0.5943
14.410690 0.5963 0.5980 0.5982 0.6000 0.6001
14.444935 0.6010 0.6012 0.6032 0.6050 0.6050
14.479180 0.6050 0.6050 0.6050 0.6060 0.6060
14.513425 0.6078 0.6080 0.6080 0.6080 0.6080
14.547670 0.6063 0.6052 0.6050 0.6050 0.6050
14.581915 0.6050 0.6050 0.6050 0.6050 0.6058
14.616160 0.6060 0.6060 0.6075 0.6109 0.6127
14.650405 0.6143 0.6150 0.6150 0.6150 0.6161
14.684650 0.6170 0.6175 0.6180 0.6180 0.6190
14.718895 0.6200 0.6211 0.6210 0.6200 0.6200
14.753140 0.6200 0.6200 0.6200 0.6200 0.6200
14.787385 0.6192 0.6177 0.6164 0.6150 0.6150
14.821630 0.6145 0.6130 0.6130 0.6130 0.6134
14.855875 0.6150 0.6150 0.6155 0.6170 0.6170
14.890120 0.6170 0.6172 0.6180 0.6180 0.6183
14.924365 0.6200 0.6201 0.6220 0.6220 0.6240
14.958610 0.6250 0.6269 0.6308 0.6319 0.6357
14.992855 0.6387 0.6457 0.6479 0.6480 0.6480
15.027100 0.6462 0.6354 0.6279 0.6184 0.6069
15.061345 0.6033 0.6030 0.6030 0.6047 0.6058
15.095590 0.6077 0.6112 0.6128 0.6146 0.6150
15.129835 0.6173 0.6180 0.6193 0.6213 0.6220
15.164080 0.6220 0.6220 0.6232 0.6240 0.6240
15.198325 0.6245 0.6250 0.6250 0.6250 0.6250
15.232570 0.6261 0.6270 0.6280 0.6290 0.6290
15.266815 0.6290 0.6298 0.6310 0.6303 0.6290
15.301060 0.6290 0.6284 0.6261 0.6235 0.6215
15.335305 0.6195 0.6180 0.6180 0.6185 0.6200
15.369550 0.6200 0.6195 0.6180 0.6180 0.6178
15.403795 0.6167 0.6147 0.6130 0.6129 0.6119
##END=
