##TITLE=Methanol, triphenyl-,
##JCAMP-DX=4.24
##DATA TYPE=INFRARED SPECTRUM
##CLASS=COBLENTZ II
##ORIGIN=K. K. DEB-NCI FREDERICK CANCER RESEARCH CENTER
##OWNER=COBLENTZ SOC.
Collection (C) 2018 copyright by the U.S. Secretary of Commerce
on behalf of the United States of America. All rights reserved.
##DATE=1973/05/20
##NAMES=triphenylmethanol
##CAS REGISTRY NO=76-84-6
##MOLFORM=C19 H16 O
##SOURCE REFERENCE=COBLENTZ NO. 9005
##$NIST SOURCE=COBLENTZ
##$NIST IMAGE=cob9005
##SPECTROMETER/DATA SYSTEM=PERKIN-ELMER 180 (GRATING)
##INSTRUMENT PARAMETERS=GRATINGS: 2000, 1000, 500, 250 CM^-^1; FILTER CHANGE: 2970, 2000, 1485, 1000, 743, 500, 372, 250, 186 CM^-^1.
##STATE=SOLID (1 mg / 300 mg KBr DISC)
$$ PURITY - ANALYTICAL
##SAMPLING PROCEDURE=TRANSMISSION
##RESOLUTION=2
##DATA PROCESSING=DIGITIZED BY COBLENTZ SOCIETY (BATCH I) FROM HARD COPY
##XUNITS=1/CM
##YUNITS=TRANSMITTANCE
##XLABEL=Wavenumbers (cm-1)
##YLABEL=% Transmission
##XFACTOR=1
##YFACTOR=1
##DELTAX=1
##FIRSTX=407
##LASTX=3794
##FIRSTY=0.8151
##MAXX=3794
##MINX=407
##MAXY=0.9051
##MINY=0.1195
##NPOINTS=3388
##XYDATA=(X++(Y..Y))
407.000000 0.8151 0.8145 0.8144 0.8143 0.8142
412.000000 0.8158 0.8184 0.8214 0.8241 0.8266
417.000000 0.8296 0.8284 0.8277 0.8268 0.8260
422.000000 0.8251 0.8243 0.8235 0.8227 0.8218
427.000000 0.8210 0.8198 0.8185 0.8172 0.8160
432.000000 0.8144 0.8125 0.8107 0.8088 0.8069
437.000000 0.8045 0.8015 0.7986 0.7957 0.7906
442.000000 0.7851 0.7790 0.7721 0.7655 0.7600
447.000000 0.7548 0.7496 0.7458 0.7421 0.7401
452.000000 0.7388 0.7378 0.7384 0.7435 0.7494
457.000000 0.7553 0.7611 0.7671 0.7731 0.7790
462.000000 0.7849 0.7908 0.7912 0.7914 0.7914
467.000000 0.7914 0.7915 0.7914 0.7914 0.7910
472.000000 0.7907 0.7903 0.7899 0.7892 0.7886
477.000000 0.7878 0.7872 0.7865 0.7860 0.7854
482.000000 0.7847 0.7840 0.7834 0.7826 0.7821
487.000000 0.7814 0.7807 0.7801 0.7794 0.7788
492.000000 0.7780 0.7768 0.7756 0.7743 0.7731
497.000000 0.7718 0.7703 0.7684 0.7665 0.7647
502.000000 0.7628 0.7615 0.7605 0.7594 0.7582
507.000000 0.7571 0.7560 0.7549 0.7538 0.7526
512.000000 0.7525 0.7524 0.7522 0.7528 0.7530
517.000000 0.7541 0.7561 0.7582 0.7606 0.7628
522.000000 0.7653 0.7681 0.7718 0.7757 0.7800
527.000000 0.7857 0.7915 0.7938 0.7958 0.7972
532.000000 0.7974 0.7975 0.7975 0.7975 0.7975
537.000000 0.7975 0.7975 0.7975 0.7975 0.7974
542.000000 0.7972 0.7971 0.7968 0.7968 0.7965
547.000000 0.7965 0.7962 0.7960 0.7955 0.7950
552.000000 0.7945 0.7940 0.7935 0.7930 0.7925
557.000000 0.7917 0.7908 0.7900 0.7891 0.7883
562.000000 0.7874 0.7865 0.7857 0.7849 0.7840
567.000000 0.7828 0.7812 0.7796 0.7780 0.7764
572.000000 0.7747 0.7710 0.7667 0.7619 0.7562
577.000000 0.7505 0.7447 0.7375 0.7301 0.7225
582.000000 0.7085 0.6925 0.6898 0.6876 0.6871
587.000000 0.6858 0.6905 0.7075 0.7245 0.7415
592.000000 0.7586 0.7697 0.7757 0.7790 0.7824
597.000000 0.7858 0.7883 0.7903 0.7924 0.7944
602.000000 0.7964 0.7978 0.7992 0.8005 0.8017
607.000000 0.8030 0.8043 0.8055 0.8062 0.8071
612.000000 0.8078 0.8087 0.8093 0.8093 0.8091
617.000000 0.8084 0.8026 0.7915 0.7803 0.7750
622.000000 0.7748 0.7772 0.7812 0.7853 0.7891
627.000000 0.7887 0.7878 0.7856 0.7801 0.7675
632.000000 0.7562 0.7458 0.7337 0.7201 0.6850
637.000000 0.6015 0.5180 0.4345 0.3509 0.2709
642.000000 0.2716 0.3005 0.3595 0.4186 0.4777
647.000000 0.5367 0.5958 0.6548 0.7139 0.7728
652.000000 0.8011 0.8058 0.8091 0.8108 0.8119
657.000000 0.8115 0.8122 0.8121 0.8111 0.8098
662.000000 0.8085 0.8065 0.8044 0.8011 0.7974
667.000000 0.7936 0.7900 0.7864 0.7828 0.7792
672.000000 0.7747 0.7693 0.7640 0.7586 0.7530
677.000000 0.7467 0.7404 0.7342 0.7278 0.7215
682.000000 0.7154 0.7091 0.7028 0.6965 0.6904
687.000000 0.6841 0.6708 0.6461 0.6201 0.6010
692.000000 0.5778 0.5452 0.4920 0.4432 0.3944
697.000000 0.3456 0.2968 0.2480 0.1992 0.1503
702.000000 0.1201 0.1203 0.1195 0.1234 0.1716
707.000000 0.2329 0.2941 0.3554 0.4167 0.4779
712.000000 0.5392 0.6005 0.6617 0.7230 0.7811
717.000000 0.7937 0.8050 0.8186 0.8321 0.8415
722.000000 0.8510 0.8534 0.8558 0.8582 0.8588
727.000000 0.8587 0.8587 0.8584 0.8575 0.8565
732.000000 0.8555 0.8538 0.8515 0.8491 0.8460
737.000000 0.8430 0.8386 0.8339 0.8290 0.8240
742.000000 0.8190 0.8132 0.8039 0.7946 0.7842
747.000000 0.7737 0.7582 0.7391 0.7244 0.7084
752.000000 0.6857 0.6464 0.5969 0.5474 0.4979
757.000000 0.4484 0.3989 0.3494 0.2999 0.2504
762.000000 0.2009 0.1666 0.1676 0.1679 0.2428
767.000000 0.2845 0.3262 0.3680 0.4097 0.4514
772.000000 0.4932 0.5349 0.5766 0.6184 0.6601
777.000000 0.7018 0.7436 0.7853 0.8528 0.8652
782.000000 0.8767 0.8805 0.8842 0.8880 0.8917
787.000000 0.8955 0.8975 0.8991 0.9007 0.9023
792.000000 0.9038 0.9040 0.9051 0.9045 0.9047
797.000000 0.9047 0.9047 0.9046 0.9045 0.9044
802.000000 0.9043 0.9042 0.9041 0.9039 0.9038
807.000000 0.9036 0.9034 0.9033 0.9031 0.9030
812.000000 0.9028 0.9025 0.9024 0.9021 0.9020
817.000000 0.9018 0.9016 0.9014 0.9012 0.9010
822.000000 0.9008 0.9005 0.9002 0.8997 0.8992
827.000000 0.8988 0.8983 0.8978 0.8973 0.8968
832.000000 0.8964 0.8949 0.8935 0.8921 0.8907
837.000000 0.8891 0.8863 0.8835 0.8806 0.8778
842.000000 0.8738 0.8690 0.8660 0.8660 0.8660
847.000000 0.8660 0.8664 0.8671 0.8678 0.8687
852.000000 0.8694 0.8702 0.8709 0.8716 0.8723
857.000000 0.8728 0.8736 0.8742 0.8746 0.8748
862.000000 0.8750 0.8751 0.8750 0.8750 0.8746
867.000000 0.8741 0.8728 0.8715 0.8702 0.8675
872.000000 0.8645 0.8615 0.8577 0.8535 0.8493
877.000000 0.8439 0.8368 0.8298 0.8236 0.8174
882.000000 0.8111 0.8044 0.7975 0.7907 0.7838
887.000000 0.7746 0.7624 0.7510 0.7224 0.6918
892.000000 0.6611 0.6304 0.6006 0.6010 0.6018
897.000000 0.6007 0.6183 0.6333 0.6441 0.6505
902.000000 0.6656 0.6845 0.7035 0.7225 0.7414
907.000000 0.7604 0.7793 0.7983 0.8024 0.8021
912.000000 0.7928 0.7782 0.7635 0.7488 0.7341
917.000000 0.7194 0.7056 0.7058 0.7171 0.7317
922.000000 0.7462 0.7608 0.7755 0.7901 0.8048
927.000000 0.8161 0.8186 0.8126 0.8034 0.7940
932.000000 0.7846 0.7751 0.7658 0.7564 0.7469
937.000000 0.7289 0.7314 0.7311 0.7415 0.7549
942.000000 0.7660 0.7698 0.7741 0.7786 0.7831
947.000000 0.8333 0.8499 0.8537 0.8565 0.8584
952.000000 0.8597 0.8610 0.8611 0.8611 0.8611
957.000000 0.8605 0.8594 0.8578 0.8561 0.8541
962.000000 0.8521 0.8501 0.8478 0.8454 0.8428
967.000000 0.8403 0.8373 0.8342 0.8308 0.8246
972.000000 0.8198 0.8160 0.8131 0.8115 0.8099
977.000000 0.8082 0.8065 0.8050 0.8035 0.8019
982.000000 0.8004 0.7985 0.7956 0.7925 0.7896
987.000000 0.7865 0.7814 0.7761 0.7672 0.7567
992.000000 0.7305 0.7192 0.7125 0.7057 0.6989
997.000000 0.6919 0.6850 0.6632 0.5699 0.4767
1002.000000 0.4230 0.4250 0.4339 0.4429 0.4519
1007.000000 0.4608 0.4698 0.4708 0.4608 0.4301
1012.000000 0.3994 0.3687 0.3478 0.3480 0.3788
1017.000000 0.4068 0.4347 0.4627 0.4907 0.5187
1022.000000 0.5467 0.5747 0.6027 0.6307 0.6586
1027.000000 0.6865 0.7038 0.7048 0.6869 0.6545
1032.000000 0.6219 0.5894 0.5569 0.5405 0.5395
1037.000000 0.5773 0.6157 0.6541 0.6925 0.7308
1042.000000 0.7658 0.7755 0.7849 0.7993 0.8423
1047.000000 0.8675 0.8709 0.8741 0.8774 0.8792
1052.000000 0.8811 0.8830 0.8842 0.8848 0.8853
1057.000000 0.8859 0.8864 0.8868 0.8871 0.8874
1062.000000 0.8873 0.8873 0.8849 0.8863 0.8859
1067.000000 0.8854 0.8840 0.8825 0.8809 0.8794
1072.000000 0.8768 0.8741 0.8708 0.8674 0.8618
1077.000000 0.8532 0.8445 0.8359 0.8271 0.8186
1082.000000 0.8128 0.8111 0.8158 0.8215 0.8271
1087.000000 0.8330 0.8387 0.8444 0.8501 0.8559
1092.000000 0.8616 0.8673 0.8731 0.8738 0.8735
1097.000000 0.8733 0.8731 0.8728 0.8728 0.8727
1102.000000 0.8718 0.8710 0.8702 0.8694 0.8686
1107.000000 0.8675 0.8666 0.8656 0.8646 0.8637
1112.000000 0.8627 0.8617 0.8606 0.8596 0.8586
1117.000000 0.8575 0.8565 0.8554 0.8540 0.8525
1122.000000 0.8512 0.8498 0.8483 0.8468 0.8453
1127.000000 0.8432 0.8410 0.8389 0.8363 0.8323
1132.000000 0.8282 0.8242 0.8195 0.8145 0.8095
1137.000000 0.8043 0.7988 0.7932 0.7875 0.7821
1142.000000 0.7757 0.7680 0.7601 0.7525 0.7228
1147.000000 0.7082 0.6988 0.6893 0.6595 0.6204
1152.000000 0.5812 0.5524 0.5474 0.5423 0.5371
1157.000000 0.5315 0.5239 0.5143 0.4904 0.4847
1162.000000 0.4853 0.4852 0.5184 0.5390 0.5595
1167.000000 0.5801 0.6007 0.6212 0.6418 0.6624
1172.000000 0.6830 0.7035 0.7241 0.7447 0.7660
1177.000000 0.7678 0.7650 0.7551 0.7454 0.7357
1182.000000 0.7258 0.7161 0.7064 0.7038 0.7021
1187.000000 0.7032 0.7188 0.7354 0.7519 0.7671
1192.000000 0.7669 0.7665 0.7645 0.7582 0.7518
1197.000000 0.7518 0.7519 0.7564 0.7608 0.7637
1202.000000 0.7632 0.7575 0.7521 0.7465 0.7410
1207.000000 0.7401 0.7403 0.7403 0.7403 0.7415
1212.000000 0.7501 0.7590 0.7678 0.7775 0.7861
1217.000000 0.7925 0.7989 0.8034 0.8075 0.8115
1222.000000 0.8157 0.8216 0.8275 0.8334 0.8374
1227.000000 0.8412 0.8449 0.8480 0.8491 0.8503
1232.000000 0.8511 0.8507 0.8504 0.8500 0.8497
1237.000000 0.8517 0.8488 0.8484 0.8480 0.8475
1242.000000 0.8468 0.8460 0.8452 0.8444 0.8436
1247.000000 0.8428 0.8420 0.8412 0.8404 0.8394
1252.000000 0.8383 0.8371 0.8361 0.8350 0.8339
1257.000000 0.8328 0.8313 0.8292 0.8271 0.8250
1262.000000 0.8228 0.8208 0.8187 0.8157 0.8115
1267.000000 0.8071 0.8030 0.7980 0.7921 0.7861
1272.000000 0.7801 0.7753 0.7706 0.7660 0.7612
1277.000000 0.7558 0.7542 0.7540 0.7504 0.7558
1282.000000 0.7598 0.7658 0.7715 0.7750 0.7785
1287.000000 0.7799 0.7808 0.7805 0.7778 0.7744
1292.000000 0.7708 0.7671 0.7636 0.7598 0.7558
1297.000000 0.7518 0.7480 0.7421 0.7361 0.7301
1302.000000 0.7260 0.7221 0.7082 0.7142 0.7124
1307.000000 0.7128 0.7135 0.7143 0.7151 0.7157
1312.000000 0.7161 0.7171 0.7162 0.7158 0.7141
1317.000000 0.7118 0.7071 0.7025 0.6978 0.6933
1322.000000 0.6855 0.6778 0.6692 0.6605 0.6439
1327.000000 0.6336 0.6234 0.6129 0.6083 0.6037
1332.000000 0.5989 0.5943 0.5925 0.5924 0.5933
1337.000000 0.5950 0.5973 0.6012 0.6064 0.6437
1342.000000 0.6542 0.6648 0.6760 0.6878 0.6998
1347.000000 0.7097 0.7190 0.7283 0.7358 0.7426
1352.000000 0.7495 0.7562 0.7631 0.7701 0.7771
1357.000000 0.7840 0.7904 0.7967 0.8031 0.8058
1362.000000 0.8086 0.8112 0.8139 0.8165 0.8193
1367.000000 0.8206 0.8218 0.8232 0.8244 0.8257
1372.000000 0.8259 0.8260 0.8281 0.8262 0.8262
1377.000000 0.8256 0.8250 0.8244 0.8238 0.8228
1382.000000 0.8216 0.8204 0.8192 0.8178 0.8162
1387.000000 0.8147 0.8154 0.8143 0.8171 0.8182
1392.000000 0.8195 0.8208 0.8221 0.8235 0.8249
1397.000000 0.8262 0.8275 0.8290 0.8303 0.8317
1402.000000 0.8331 0.8344 0.8358 0.8368 0.8380
1407.000000 0.8390 0.8401 0.8411 0.8417 0.8423
1412.000000 0.8428 0.8428 0.8428 0.8418 0.8409
1417.000000 0.8398 0.8387 0.8375 0.8364 0.8351
1422.000000 0.8339 0.8324 0.8305 0.8285 0.8266
1427.000000 0.8236 0.8191 0.8143 0.8084 0.8025
1432.000000 0.7958 0.7850 0.7746 0.7658 0.7571
1437.000000 0.7501 0.7431 0.7361 0.6933 0.6574
1442.000000 0.6034 0.5495 0.4955 0.4415 0.3876
1447.000000 0.3336 0.2797 0.2257 0.2201 0.2214
1452.000000 0.3366 0.4945 0.6522 0.7689 0.7768
1457.000000 0.7828 0.7878 0.7925 0.7974 0.8271
1462.000000 0.8442 0.8478 0.8514 0.8516 0.8512
1467.000000 0.8508 0.8503 0.8497 0.8488 0.8473
1472.000000 0.8457 0.8441 0.8421 0.8401 0.8371
1477.000000 0.8343 0.8314 0.8266 0.8215 0.8145
1482.000000 0.8030 0.7528 0.7435 0.7230 0.6888
1487.000000 0.6546 0.6204 0.5862 0.5521 0.5179
1492.000000 0.4837 0.4552 0.4564 0.4949 0.5368
1497.000000 0.5787 0.6206 0.6625 0.7044 0.7462
1502.000000 0.7558 0.7611 0.7661 0.7714 0.7767
1507.000000 0.7821 0.7876 0.7932 0.8072 0.8232
1512.000000 0.8385 0.8521 0.8620 0.8705 0.8730
1517.000000 0.8754 0.8778 0.8795 0.8803 0.8810
1522.000000 0.8817 0.8821 0.8828 0.8833 0.8850
1527.000000 0.8840 0.8841 0.8842 0.8844 0.8844
1532.000000 0.8844 0.8841 0.8838 0.8835 0.8832
1537.000000 0.8827 0.8818 0.8809 0.8799 0.8790
1542.000000 0.8780 0.8771 0.8762 0.8752 0.8744
1547.000000 0.8736 0.8728 0.8720 0.8712 0.8704
1552.000000 0.8696 0.8693 0.8692 0.8692 0.8691
1557.000000 0.8690 0.8689 0.8688 0.8688 0.8690
1562.000000 0.8695 0.8699 0.8704 0.8708 0.8713
1567.000000 0.8717 0.8718 0.8721 0.8723 0.8724
1572.000000 0.8716 0.8700 0.8684 0.8665 0.8637
1577.000000 0.8609 0.8575 0.8521 0.8467 0.8409
1582.000000 0.8349 0.8288 0.8225 0.8160 0.8096
1587.000000 0.8058 0.8049 0.8101 0.8153 0.8205
1592.000000 0.8206 0.8115 0.7962 0.7811 0.7660
1597.000000 0.7508 0.7358 0.7206 0.7055 0.6982
1602.000000 0.6975 0.6961 0.7341 0.7618 0.7897
1607.000000 0.8153 0.8199 0.8255 0.8296 0.8336
1612.000000 0.8373 0.8395 0.8418 0.8436 0.8440
1617.000000 0.8444 0.8444 0.8443 0.8443 0.8442
1622.000000 0.8439 0.8436 0.8432 0.8432 0.8434
1627.000000 0.8435 0.8441 0.8452 0.8462 0.8473
1632.000000 0.8484 0.8494 0.8505 0.8512 0.8516
1637.000000 0.8520 0.8524 0.8528 0.8530 0.8533
1642.000000 0.8533 0.8534 0.8535 0.8536 0.8538
1647.000000 0.8538 0.8537 0.8537 0.8537 0.8537
1652.000000 0.8535 0.8534 0.8532 0.8530 0.8528
1657.000000 0.8527 0.8525 0.8525 0.8524 0.8524
1662.000000 0.8524 0.8525 0.8525 0.8525 0.8525
1667.000000 0.8525 0.8528 0.8528 0.8531 0.8533
1672.000000 0.8534 0.8536 0.8537 0.8537 0.8537
1677.000000 0.8537 0.8537 0.8537 0.8536 0.8534
1682.000000 0.8532 0.8530 0.8528 0.8525 0.8524
1687.000000 0.8521 0.8518 0.8515 0.8510 0.8506
1692.000000 0.8502 0.8498 0.8494 0.8489 0.8484
1697.000000 0.8478 0.8473 0.8467 0.8462 0.8456
1702.000000 0.8451 0.8446 0.8446 0.8446 0.8447
1707.000000 0.8450 0.8452 0.8454 0.8458 0.8462
1712.000000 0.8466 0.8470 0.8475 0.8478 0.8481
1717.000000 0.8484 0.8486 0.8488 0.8487 0.8487
1722.000000 0.8483 0.8480 0.8475 0.8471 0.8467
1727.000000 0.8462 0.8456 0.8451 0.8446 0.8441
1732.000000 0.8438 0.8436 0.8433 0.8431 0.8428
1737.000000 0.8428 0.8427 0.8431 0.8435 0.8439
1742.000000 0.8443 0.8447 0.8451 0.8455 0.8458
1747.000000 0.8462 0.8466 0.8470 0.8474 0.8475
1752.000000 0.8475 0.8475 0.8477 0.8477 0.8477
1757.000000 0.8477 0.8478 0.8478 0.8477 0.8475
1762.000000 0.8473 0.8471 0.8468 0.8467 0.8465
1767.000000 0.8463 0.8461 0.8459 0.8457 0.8455
1772.000000 0.8453 0.8451 0.8450 0.8449 0.8448
1777.000000 0.8446 0.8445 0.8444 0.8443 0.8442
1782.000000 0.8440 0.8439 0.8438 0.8436 0.8435
1787.000000 0.8433 0.8432 0.8431 0.8428 0.8428
1792.000000 0.8425 0.8421 0.8417 0.8412 0.8408
1797.000000 0.8403 0.8399 0.8394 0.8389 0.8383
1802.000000 0.8377 0.8371 0.8366 0.8360 0.8354
1807.000000 0.8348 0.8342 0.8336 0.8330 0.8324
1812.000000 0.8318 0.8312 0.8306 0.8301 0.8301
1817.000000 0.8302 0.8309 0.8317 0.8324 0.8331
1822.000000 0.8338 0.8345 0.8352 0.8359 0.8366
1827.000000 0.8373 0.8380 0.8387 0.8395 0.8402
1832.000000 0.8410 0.8418 0.8425 0.8433 0.8440
1837.000000 0.8448 0.8456 0.8463 0.8471 0.8475
1842.000000 0.8478 0.8483 0.8487 0.8490 0.8494
1847.000000 0.8497 0.8489 0.8480 0.8470 0.8461
1852.000000 0.8452 0.8442 0.8433 0.8423 0.8412
1857.000000 0.8402 0.8392 0.8381 0.8371 0.8360
1862.000000 0.8350 0.8340 0.8335 0.8330 0.8325
1867.000000 0.8320 0.8316 0.8311 0.8306 0.8301
1872.000000 0.8296 0.8293 0.8290 0.8287 0.8283
1877.000000 0.8280 0.8277 0.8274 0.8271 0.8268
1882.000000 0.8268 0.8270 0.8270 0.8274 0.8280
1887.000000 0.8286 0.8292 0.8298 0.8304 0.8309
1892.000000 0.8312 0.8314 0.8316 0.8318 0.8320
1897.000000 0.8315 0.8310 0.8304 0.8299 0.8296
1902.000000 0.8295 0.8293 0.8291 0.8292 0.8292
1907.000000 0.8296 0.8301 0.8305 0.8309 0.8314
1912.000000 0.8318 0.8321 0.8325 0.8330 0.8334
1917.000000 0.8337 0.8341 0.8344 0.8348 0.8352
1922.000000 0.8355 0.8359 0.8362 0.8366 0.8368
1927.000000 0.8373 0.8375 0.8378 0.8382 0.8385
1932.000000 0.8389 0.8392 0.8395 0.8390 0.8385
1937.000000 0.8381 0.8375 0.8371 0.8366 0.8352
1942.000000 0.8337 0.8323 0.8304 0.8286 0.8267
1947.000000 0.8249 0.8225 0.8193 0.8161 0.8125
1952.000000 0.8089 0.8068 0.8065 0.8060 0.8056
1957.000000 0.8051 0.8047 0.8048 0.8055 0.8068
1962.000000 0.8082 0.8056 0.8111 0.8128 0.8144
1967.000000 0.8162 0.8184 0.8204 0.8225 0.8241
1972.000000 0.8256 0.8271 0.8287 0.8302 0.8313
1977.000000 0.8325 0.8336 0.8348 0.8359 0.8371
1982.000000 0.8382 0.8393 0.8400 0.8406 0.8413
1987.000000 0.8418 0.8425 0.8432 0.8439 0.8446
1992.000000 0.8453 0.8461 0.8468 0.8475 0.8483
1997.000000 0.8488 0.8489 0.8490 0.8510 0.8492
2002.000000 0.8494 0.8494 0.8494 0.8494 0.8494
2007.000000 0.8493 0.8492 0.8491 0.8491 0.8490
2012.000000 0.8489 0.8488 0.8488 0.8487 0.8486
2017.000000 0.8485 0.8485 0.8484 0.8483 0.8482
2022.000000 0.8482 0.8481 0.8480 0.8478 0.8478
2027.000000 0.8478 0.8477 0.8475 0.8475 0.8475
2032.000000 0.8474 0.8473 0.8473 0.8471 0.8471
2037.000000 0.8471 0.8470 0.8468 0.8468 0.8468
2042.000000 0.8467 0.8466 0.8466 0.8465 0.8465
2047.000000 0.8464 0.8463 0.8462 0.8462 0.8461
2052.000000 0.8461 0.8460 0.8459 0.8458 0.8458
2057.000000 0.8458 0.8458 0.8458 0.8458 0.8458
2062.000000 0.8458 0.8458 0.8459 0.8459 0.8459
2067.000000 0.8459 0.8459 0.8459 0.8459 0.8459
2072.000000 0.8460 0.8460 0.8460 0.8460 0.8460
2077.000000 0.8460 0.8460 0.8460 0.8460 0.8459
2082.000000 0.8459 0.8459 0.8459 0.8459 0.8459
2087.000000 0.8458 0.8458 0.8458 0.8458 0.8458
2092.000000 0.8458 0.8457 0.8457 0.8457 0.8457
2097.000000 0.8457 0.8457 0.8456 0.8456 0.8456
2102.000000 0.8456 0.8455 0.8455 0.8454 0.8453
2107.000000 0.8452 0.8451 0.8450 0.8449 0.8448
2112.000000 0.8447 0.8446 0.8445 0.8444 0.8443
2117.000000 0.8442 0.8441 0.8439 0.8438 0.8437
2122.000000 0.8436 0.8435 0.8434 0.8433 0.8432
2127.000000 0.8431 0.8430 0.8428 0.8428 0.8427
2132.000000 0.8425 0.8425 0.8424 0.8423 0.8421
2137.000000 0.8421 0.8420 0.8418 0.8418 0.8417
2142.000000 0.8416 0.8414 0.8413 0.8411 0.8410
2147.000000 0.8408 0.8407 0.8405 0.8404 0.8402
2152.000000 0.8401 0.8399 0.8398 0.8396 0.8395
2157.000000 0.8393 0.8392 0.8390 0.8389 0.8387
2162.000000 0.8386 0.8384 0.8383 0.8381 0.8380
2167.000000 0.8378 0.8377 0.8375 0.8374 0.8371
2172.000000 0.8371 0.8368 0.8368 0.8366 0.8365
2177.000000 0.8363 0.8362 0.8360 0.8359 0.8357
2182.000000 0.8356 0.8354 0.8353 0.8351 0.8350
2187.000000 0.8348 0.8346 0.8344 0.8343 0.8342
2192.000000 0.8341 0.8340 0.8339 0.8338 0.8337
2197.000000 0.8336 0.8336 0.8335 0.8334 0.8333
2202.000000 0.8332 0.8331 0.8330 0.8328 0.8328
2207.000000 0.8327 0.8325 0.8325 0.8325 0.8324
2212.000000 0.8323 0.8321 0.8321 0.8320 0.8318
2217.000000 0.8318 0.8317 0.8316 0.8315 0.8314
2222.000000 0.8314 0.8313 0.8312 0.8311 0.8310
2227.000000 0.8309 0.8308 0.8307 0.8306 0.8305
2232.000000 0.8304 0.8303 0.8303 0.8302 0.8301
2237.000000 0.8300 0.8299 0.8298 0.8297 0.8296
2242.000000 0.8295 0.8293 0.8292 0.8291 0.8290
2247.000000 0.8289 0.8288 0.8287 0.8286 0.8284
2252.000000 0.8283 0.8282 0.8281 0.8280 0.8278
2257.000000 0.8278 0.8277 0.8275 0.8274 0.8273
2262.000000 0.8271 0.8271 0.8270 0.8268 0.8268
2267.000000 0.8266 0.8265 0.8264 0.8263 0.8262
2272.000000 0.8261 0.8260 0.8259 0.8258 0.8257
2277.000000 0.8255 0.8254 0.8253 0.8252 0.8251
2282.000000 0.8250 0.8249 0.8248 0.8246 0.8245
2287.000000 0.8244 0.8243 0.8242 0.8241 0.8240
2292.000000 0.8239 0.8238 0.8238 0.8237 0.8237
2297.000000 0.8236 0.8235 0.8234 0.8234 0.8233
2302.000000 0.8233 0.8232 0.8231 0.8230 0.8230
2307.000000 0.8228 0.8228 0.8228 0.8227 0.8225
2312.000000 0.8225 0.8225 0.8225 0.8224 0.8223
2317.000000 0.8221 0.8221 0.8221 0.8221 0.8218
2322.000000 0.8218 0.8216 0.8215 0.8213 0.8211
2327.000000 0.8209 0.8208 0.8206 0.8204 0.8200
2332.000000 0.8197 0.8193 0.8189 0.8185 0.8182
2337.000000 0.8178 0.8175 0.8171 0.8168 0.8165
2342.000000 0.8162 0.8161 0.8161 0.8161 0.8162
2347.000000 0.8164 0.8165 0.8165 0.8165 0.8165
2352.000000 0.8167 0.8167 0.8168 0.8168 0.8168
2357.000000 0.8168 0.8169 0.8169 0.8171 0.8171
2362.000000 0.8171 0.8171 0.8171 0.8171 0.8171
2367.000000 0.8171 0.8171 0.8171 0.8171 0.8171
2372.000000 0.8172 0.8172 0.8172 0.8172 0.8172
2377.000000 0.8172 0.8174 0.8174 0.8174 0.8172
2382.000000 0.8172 0.8171 0.8171 0.8169 0.8168
2387.000000 0.8168 0.8167 0.8165 0.8165 0.8164
2392.000000 0.8164 0.8162 0.8161 0.8161 0.8160
2397.000000 0.8158 0.8158 0.8156 0.8155 0.8153
2402.000000 0.8151 0.8150 0.8148 0.8146 0.8145
2407.000000 0.8143 0.8142 0.8140 0.8138 0.8136
2412.000000 0.8135 0.8133 0.8132 0.8130 0.8128
2417.000000 0.8126 0.8125 0.8122 0.8121 0.8119
2422.000000 0.8118 0.8117 0.8115 0.8112 0.8111
2427.000000 0.8110 0.8108 0.8107 0.8105 0.8103
2432.000000 0.8101 0.8100 0.8099 0.8097 0.8096
2437.000000 0.8094 0.8092 0.8090 0.8089 0.8087
2442.000000 0.8086 0.8084 0.8083 0.8081 0.8080
2447.000000 0.8078 0.8076 0.8075 0.8074 0.8071
2452.000000 0.8071 0.8068 0.8068 0.8065 0.8064
2457.000000 0.8061 0.8061 0.8058 0.8058 0.8056
2462.000000 0.8055 0.8054 0.8053 0.8051 0.8051
2467.000000 0.8050 0.8049 0.8048 0.8047 0.8046
2472.000000 0.8046 0.8045 0.8044 0.8043 0.8042
2477.000000 0.8041 0.8040 0.8039 0.8039 0.8038
2482.000000 0.8037 0.8036 0.8035 0.8034 0.8033
2487.000000 0.8032 0.8031 0.8030 0.8030 0.8028
2492.000000 0.8028 0.8026 0.8025 0.8025 0.8024
2497.000000 0.8022 0.8022 0.8021 0.8021 0.8021
2502.000000 0.8021 0.8021 0.8021 0.8021 0.8022
2507.000000 0.8022 0.8022 0.8022 0.8022 0.8022
2512.000000 0.8022 0.8022 0.8022 0.8022 0.8022
2517.000000 0.8022 0.8022 0.8022 0.8024 0.8024
2522.000000 0.8024 0.8024 0.8024 0.8024 0.8024
2527.000000 0.8024 0.8024 0.8024 0.8024 0.8024
2532.000000 0.8024 0.8021 0.8019 0.8018 0.8015
2537.000000 0.8014 0.8011 0.8010 0.8008 0.8006
2542.000000 0.8004 0.8001 0.8000 0.7998 0.7996
2547.000000 0.7994 0.7992 0.7990 0.7989 0.7987
2552.000000 0.7985 0.7983 0.7981 0.7978 0.7976
2557.000000 0.7975 0.7972 0.7971 0.7971 0.7968
2562.000000 0.7968 0.7967 0.7965 0.7965 0.7964
2567.000000 0.7962 0.7961 0.7961 0.7960 0.7958
2572.000000 0.7957 0.7956 0.7955 0.7954 0.7953
2577.000000 0.7951 0.7951 0.7949 0.7948 0.7947
2582.000000 0.7946 0.7945 0.7944 0.7942 0.7941
2587.000000 0.7940 0.7939 0.7937 0.7936 0.7934
2592.000000 0.7933 0.7931 0.7930 0.7928 0.7926
2597.000000 0.7925 0.7924 0.7921 0.7921 0.7918
2602.000000 0.7918 0.7915 0.7915 0.7912 0.7911
2607.000000 0.7910 0.7908 0.7906 0.7905 0.7903
2612.000000 0.7901 0.7900 0.7899 0.7897 0.7895
2617.000000 0.7893 0.7892 0.7890 0.7889 0.7887
2622.000000 0.7885 0.7883 0.7882 0.7880 0.7878
2627.000000 0.7876 0.7875 0.7872 0.7871 0.7869
2632.000000 0.7868 0.7867 0.7865 0.7862 0.7861
2637.000000 0.7860 0.7858 0.7858 0.7857 0.7856
2642.000000 0.7855 0.7853 0.7851 0.7851 0.7850
2647.000000 0.7848 0.7847 0.7846 0.7845 0.7844
2652.000000 0.7843 0.7841 0.7840 0.7839 0.7838
2657.000000 0.7836 0.7835 0.7834 0.7833 0.7832
2662.000000 0.7831 0.7830 0.7830 0.7828 0.7828
2667.000000 0.7828 0.7828 0.7828 0.7828 0.7826
2672.000000 0.7826 0.7825 0.7825 0.7825 0.7825
2677.000000 0.7824 0.7824 0.7822 0.7822 0.7822
2682.000000 0.7822 0.7821 0.7821 0.7821 0.7821
2687.000000 0.7819 0.7819 0.7819 0.7819 0.7818
2692.000000 0.7818 0.7818 0.7818 0.7818 0.7818
2697.000000 0.7818 0.7818 0.7817 0.7817 0.7817
2702.000000 0.7817 0.7815 0.7815 0.7815 0.7815
2707.000000 0.7815 0.7815 0.7815 0.7815 0.7815
2712.000000 0.7815 0.7814 0.7814 0.7812 0.7811
2717.000000 0.7810 0.7808 0.7808 0.7807 0.7806
2722.000000 0.7805 0.7804 0.7803 0.7801 0.7800
2727.000000 0.7799 0.7798 0.7797 0.7796 0.7794
2732.000000 0.7793 0.7792 0.7791 0.7790 0.7789
2737.000000 0.7788 0.7787 0.7785 0.7784 0.7783
2742.000000 0.7782 0.7781 0.7780 0.7778 0.7778
2747.000000 0.7775 0.7775 0.7774 0.7772 0.7771
2752.000000 0.7771 0.7768 0.7768 0.7767 0.7765
2757.000000 0.7764 0.7762 0.7761 0.7761 0.7758
2762.000000 0.7758 0.7757 0.7756 0.7754 0.7753
2767.000000 0.7751 0.7751 0.7749 0.7748 0.7747
2772.000000 0.7746 0.7744 0.7743 0.7741 0.7740
2777.000000 0.7739 0.7738 0.7736 0.7735 0.7734
2782.000000 0.7733 0.7731 0.7730 0.7728 0.7728
2787.000000 0.7725 0.7725 0.7722 0.7721 0.7719
2792.000000 0.7718 0.7717 0.7715 0.7714 0.7711
2797.000000 0.7710 0.7708 0.7707 0.7706 0.7704
2802.000000 0.7701 0.7700 0.7699 0.7697 0.7696
2807.000000 0.7694 0.7692 0.7690 0.7689 0.7687
2812.000000 0.7686 0.7684 0.7682 0.7680 0.7678
2817.000000 0.7676 0.7675 0.7674 0.7671 0.7669
2822.000000 0.7668 0.7667 0.7665 0.7662 0.7661
2827.000000 0.7658 0.7656 0.7653 0.7650 0.7647
2832.000000 0.7644 0.7641 0.7639 0.7636 0.7633
2837.000000 0.7630 0.7626 0.7624 0.7621 0.7618
2842.000000 0.7615 0.7612 0.7610 0.7607 0.7605
2847.000000 0.7601 0.7599 0.7596 0.7593 0.7591
2852.000000 0.7589 0.7587 0.7585 0.7583 0.7582
2857.000000 0.7580 0.7578 0.7575 0.7575 0.7572
2862.000000 0.7571 0.7568 0.7568 0.7565 0.7564
2867.000000 0.7561 0.7561 0.7558 0.7557 0.7555
2872.000000 0.7554 0.7551 0.7550 0.7548 0.7547
2877.000000 0.7544 0.7541 0.7537 0.7534 0.7530
2882.000000 0.7526 0.7522 0.7519 0.7515 0.7512
2887.000000 0.7508 0.7506 0.7501 0.7499 0.7495
2892.000000 0.7492 0.7488 0.7485 0.7481 0.7478
2897.000000 0.7474 0.7471 0.7467 0.7464 0.7460
2902.000000 0.7457 0.7453 0.7450 0.7446 0.7443
2907.000000 0.7440 0.7437 0.7435 0.7433 0.7430
2912.000000 0.7428 0.7425 0.7424 0.7421 0.7419
2917.000000 0.7418 0.7415 0.7414 0.7411 0.7410
2922.000000 0.7408 0.7405 0.7403 0.7401 0.7399
2927.000000 0.7397 0.7395 0.7394 0.7394 0.7395
2932.000000 0.7398 0.7400 0.7401 0.7404 0.7407
2937.000000 0.7408 0.7408 0.7408 0.7410 0.7411
2942.000000 0.7411 0.7411 0.7412 0.7412 0.7414
2947.000000 0.7414 0.7415 0.7415 0.7415 0.7415
2952.000000 0.7415 0.7415 0.7415 0.7410 0.7405
2957.000000 0.7399 0.7394 0.7388 0.7383 0.7378
2962.000000 0.7372 0.7367 0.7361 0.7356 0.7351
2967.000000 0.7346 0.7341 0.7335 0.7330 0.7324
2972.000000 0.7318 0.7311 0.7306 0.7299 0.7292
2977.000000 0.7285 0.7278 0.7271 0.7265 0.7258
2982.000000 0.7251 0.7244 0.7237 0.7230 0.7222
2987.000000 0.7214 0.7206 0.7194 0.7182 0.7169
2992.000000 0.7158 0.7146 0.7134 0.7121 0.7110
2997.000000 0.7089 0.7068 0.7044 0.7019 0.6995
3002.000000 0.6971 0.6947 0.6924 0.6903 0.6882
3007.000000 0.6861 0.6841 0.6819 0.6799 0.6778
3012.000000 0.6757 0.6736 0.6715 0.6683 0.6651
3017.000000 0.6618 0.6585 0.6547 0.6508 0.6436
3022.000000 0.6362 0.6319 0.6276 0.6234 0.6193
3027.000000 0.6152 0.6112 0.6103 0.6095 0.6093
3032.000000 0.6110 0.6091 0.6091 0.6091 0.6092
3037.000000 0.6094 0.6096 0.6101 0.6107 0.6179
3042.000000 0.6251 0.6347 0.6444 0.6517 0.6590
3047.000000 0.6591 0.6593 0.6567 0.6543 0.6478
3052.000000 0.6415 0.6352 0.6289 0.6225 0.6162
3057.000000 0.6098 0.6034 0.5970 0.5907 0.5843
3062.000000 0.5780 0.5716 0.5653 0.5589 0.5526
3067.000000 0.5519 0.5498 0.5592 0.5671 0.5793
3072.000000 0.5915 0.6037 0.6160 0.6282 0.6404
3077.000000 0.6525 0.6649 0.6675 0.6701 0.6703
3082.000000 0.6704 0.6685 0.6667 0.6647 0.6628
3087.000000 0.6615 0.6601 0.6601 0.6600 0.6637
3092.000000 0.6675 0.6718 0.6762 0.6807 0.6851
3097.000000 0.6895 0.6940 0.6984 0.7028 0.7055
3102.000000 0.7082 0.7101 0.7122 0.7140 0.7157
3107.000000 0.7171 0.7187 0.7199 0.7211 0.7222
3112.000000 0.7236 0.7248 0.7260 0.7274 0.7288
3117.000000 0.7301 0.7315 0.7328 0.7341 0.7346
3122.000000 0.7376 0.7358 0.7364 0.7368 0.7374
3127.000000 0.7374 0.7374 0.7372 0.7371 0.7368
3132.000000 0.7367 0.7365 0.7362 0.7361 0.7358
3137.000000 0.7356 0.7354 0.7351 0.7350 0.7347
3142.000000 0.7344 0.7340 0.7337 0.7333 0.7330
3147.000000 0.7325 0.7322 0.7318 0.7315 0.7311
3152.000000 0.7308 0.7304 0.7300 0.7296 0.7292
3157.000000 0.7287 0.7283 0.7278 0.7275 0.7271
3162.000000 0.7267 0.7265 0.7262 0.7271 0.7278
3167.000000 0.7284 0.7289 0.7293 0.7297 0.7297
3172.000000 0.7297 0.7296 0.7296 0.7296 0.7296
3177.000000 0.7294 0.7293 0.7291 0.7290 0.7288
3182.000000 0.7287 0.7285 0.7284 0.7282 0.7280
3187.000000 0.7278 0.7275 0.7274 0.7271 0.7269
3192.000000 0.7268 0.7267 0.7265 0.7262 0.7261
3197.000000 0.7258 0.7257 0.7255 0.7253 0.7251
3202.000000 0.7249 0.7247 0.7245 0.7243 0.7241
3207.000000 0.7239 0.7237 0.7235 0.7233 0.7231
3212.000000 0.7228 0.7226 0.7225 0.7221 0.7219
3217.000000 0.7217 0.7215 0.7211 0.7210 0.7207
3222.000000 0.7205 0.7201 0.7200 0.7197 0.7195
3227.000000 0.7192 0.7190 0.7187 0.7185 0.7182
3232.000000 0.7178 0.7175 0.7171 0.7167 0.7164
3237.000000 0.7160 0.7156 0.7151 0.7149 0.7145
3242.000000 0.7141 0.7137 0.7133 0.7128 0.7125
3247.000000 0.7121 0.7118 0.7114 0.7111 0.7107
3252.000000 0.7103 0.7099 0.7096 0.7091 0.7086
3257.000000 0.7081 0.7075 0.7071 0.7065 0.7061
3262.000000 0.7056 0.7050 0.7045 0.7040 0.7035
3267.000000 0.7030 0.7025 0.7019 0.7015 0.7010
3272.000000 0.7005 0.7000 0.6995 0.6989 0.6984
3277.000000 0.6978 0.6972 0.6967 0.6961 0.6955
3282.000000 0.6949 0.6943 0.6937 0.6931 0.6925
3287.000000 0.6918 0.6912 0.6907 0.6901 0.6895
3292.000000 0.6889 0.6883 0.6876 0.6869 0.6864
3297.000000 0.6858 0.6851 0.6846 0.6840 0.6832
3302.000000 0.6825 0.6815 0.6807 0.6798 0.6789
3307.000000 0.6780 0.6771 0.6761 0.6753 0.6744
3312.000000 0.6735 0.6725 0.6717 0.6707 0.6698
3317.000000 0.6689 0.6680 0.6669 0.6660 0.6649
3322.000000 0.6639 0.6628 0.6617 0.6606 0.6596
3327.000000 0.6585 0.6574 0.6562 0.6551 0.6541
3332.000000 0.6531 0.6519 0.6508 0.6498 0.6487
3337.000000 0.6475 0.6465 0.6455 0.6444 0.6433
3342.000000 0.6421 0.6408 0.6397 0.6385 0.6373
3347.000000 0.6360 0.6349 0.6337 0.6325 0.6312
3352.000000 0.6301 0.6289 0.6277 0.6265 0.6253
3357.000000 0.6241 0.6229 0.6216 0.6204 0.6190
3362.000000 0.6177 0.6162 0.6148 0.6133 0.6119
3367.000000 0.6104 0.6090 0.6075 0.6060 0.6046
3372.000000 0.6031 0.6016 0.6002 0.5987 0.5973
3377.000000 0.5958 0.5944 0.5929 0.5915 0.5900
3382.000000 0.5886 0.5871 0.5857 0.5842 0.5828
3387.000000 0.5814 0.5800 0.5785 0.5771 0.5757
3392.000000 0.5743 0.5728 0.5714 0.5700 0.5686
3397.000000 0.5671 0.5657 0.5642 0.5628 0.5606
3402.000000 0.5584 0.5562 0.5540 0.5518 0.5496
3407.000000 0.5474 0.5452 0.5430 0.5408 0.5386
3412.000000 0.5364 0.5342 0.5320 0.5298 0.5276
3417.000000 0.5254 0.5232 0.5209 0.5187 0.5165
3422.000000 0.5143 0.5121 0.5099 0.5076 0.5054
3427.000000 0.5035 0.5016 0.4999 0.4982 0.4965
3432.000000 0.4948 0.4931 0.4914 0.4897 0.4880
3437.000000 0.4862 0.4846 0.4829 0.4812 0.4795
3442.000000 0.4778 0.4759 0.4740 0.4714 0.4689
3447.000000 0.4662 0.4638 0.4612 0.4587 0.4560
3452.000000 0.4536 0.4506 0.4477 0.4439 0.4402
3457.000000 0.4364 0.4327 0.4289 0.4252 0.4214
3462.000000 0.4177 0.4116 0.4056 0.4012 0.3968
3467.000000 0.3964 0.3964 0.3964 0.3964 0.3966
3472.000000 0.3968 0.3970 0.3955 0.3975 0.3978
3477.000000 0.3980 0.3982 0.3989 0.3995 0.4003
3482.000000 0.4010 0.4020 0.4030 0.4039 0.4049
3487.000000 0.4068 0.4088 0.4109 0.4131 0.4153
3492.000000 0.4176 0.4196 0.4217 0.4237 0.4258
3497.000000 0.4278 0.4299 0.4319 0.4339 0.4377
3502.000000 0.4416 0.4459 0.4503 0.4547 0.4591
3507.000000 0.4651 0.4710 0.4781 0.4852 0.4893
3512.000000 0.4934 0.4972 0.5010 0.5138 0.5266
3517.000000 0.5296 0.5326 0.5356 0.5386 0.5416
3522.000000 0.5446 0.5480 0.5515 0.5560 0.5608
3527.000000 0.5655 0.5702 0.5748 0.5795 0.5837
3532.000000 0.5880 0.5920 0.5960 0.6000 0.6039
3537.000000 0.6073 0.6107 0.6141 0.6175 0.6209
3542.000000 0.6243 0.6277 0.6310 0.6335 0.6359
3547.000000 0.6381 0.6403 0.6425 0.6448 0.6469
3552.000000 0.6493 0.6515 0.6538 0.6557 0.6575
3557.000000 0.6594 0.6611 0.6628 0.6647 0.6665
3562.000000 0.6683 0.6700 0.6718 0.6736 0.6754
3567.000000 0.6771 0.6789 0.6807 0.6825 0.6842
3572.000000 0.6860 0.6876 0.6895 0.6911 0.6928
3577.000000 0.6945 0.6961 0.6978 0.6995 0.7011
3582.000000 0.7028 0.7046 0.7062 0.7078 0.7096
3587.000000 0.7112 0.7130 0.7143 0.7157 0.7168
3592.000000 0.7180 0.7191 0.7203 0.7214 0.7225
3597.000000 0.7233 0.7241 0.7245 0.7250 0.7254
3602.000000 0.7258 0.7262 0.7268 0.7271 0.7276
3607.000000 0.7281 0.7286 0.7290 0.7295 0.7298
3612.000000 0.7301 0.7303 0.7304 0.7305 0.7307
3617.000000 0.7308 0.7308 0.7310 0.7311 0.7311
3622.000000 0.7314 0.7315 0.7315 0.7317 0.7318
3627.000000 0.7319 0.7321 0.7321 0.7321 0.7318
3632.000000 0.7318 0.7317 0.7315 0.7315 0.7314
3637.000000 0.7312 0.7311 0.7310 0.7308 0.7308
3642.000000 0.7307 0.7306 0.7305 0.7304 0.7303
3647.000000 0.7301 0.7300 0.7299 0.7298 0.7297
3652.000000 0.7296 0.7295 0.7294 0.7292 0.7291
3657.000000 0.7290 0.7289 0.7288 0.7288 0.7289
3662.000000 0.7289 0.7290 0.7291 0.7291 0.7288
3667.000000 0.7293 0.7294 0.7295 0.7296 0.7297
3672.000000 0.7298 0.7299 0.7300 0.7301 0.7301
3677.000000 0.7297 0.7293 0.7288 0.7284 0.7278
3682.000000 0.7274 0.7268 0.7265 0.7262 0.7261
3687.000000 0.7258 0.7258 0.7257 0.7256 0.7255
3692.000000 0.7254 0.7251 0.7251 0.7250 0.7249
3697.000000 0.7247 0.7246 0.7245 0.7244 0.7243
3702.000000 0.7242 0.7241 0.7241 0.7240 0.7239
3707.000000 0.7238 0.7238 0.7237 0.7237 0.7236
3712.000000 0.7235 0.7234 0.7234 0.7233 0.7232
3717.000000 0.7231 0.7231 0.7230 0.7228 0.7228
3722.000000 0.7228 0.7226 0.7226 0.7226 0.7226
3727.000000 0.7225 0.7225 0.7225 0.7225 0.7225
3732.000000 0.7225 0.7224 0.7224 0.7222 0.7222
3737.000000 0.7221 0.7221 0.7221 0.7221 0.7221
3742.000000 0.7221 0.7219 0.7219 0.7218 0.7218
3747.000000 0.7218 0.7218 0.7218 0.7218 0.7217
3752.000000 0.7217 0.7215 0.7215 0.7215 0.7215
3757.000000 0.7214 0.7214 0.7212 0.7212 0.7211
3762.000000 0.7211 0.7211 0.7211 0.7210 0.7210
3767.000000 0.7208 0.7208 0.7207 0.7206 0.7204
3772.000000 0.7203 0.7201 0.7201 0.7200 0.7199
3777.000000 0.7198 0.7197 0.7195 0.7194 0.7193
3782.000000 0.7192 0.7191 0.7190 0.7188 0.7187
3787.000000 0.7186 0.7185 0.7184 0.7183 0.7181
3792.000000 0.7180 0.7178 0.7178
##END=
