##TITLE=2,3,5,6-Tetrafluorophenol
##JCAMP-DX=4.24
$$ By DXEDIT 1.05 (RS McDonald)
##DATA TYPE=INFRARED SPECTRUM
##CLASS=COBLENTZ II
##ORIGIN=DOW CHEMICAL COMPANY
##OWNER=COPYRIGHT (C) 1988 by COBLENTZ SOCIETY INC.
Collection (C) 2018 copyright by the U.S. Secretary of Commerce
on behalf of the United States of America. All rights reserved.
##DATE=1965/02/18
##CAS REGISTRY NO=769-39-1
##MOLFORM=C6 H2 F4 O
##MP=27 C
##BP=142 C
##SOURCE REFERENCE=COBLENTZ NO. 06601
##$NIST SOURCE=COBLENTZ
##$NIST IMAGE=cob6601
##SPECTROMETER/DATA SYSTEM=DOW KBr FOREPRISM-GRATING
##INSTRUMENT PARAMETERS=BLAZED AT 3.5, 12.0, 20.0 MICRON AND CHANGED AT 5.0, 7.5, 14.9 MICRON
##STATE=LIQUID (NEAT); KBr PLATES
##PATH LENGTH=CAPILLARY
##SAMPLING PROCEDURE=TRANSMISSION
##RESOLUTION=2
##DATA PROCESSING=DIGITIZED BY COBLENTZ SOCIETY (BATCH I) FROM HARD COPY
##XUNITS=1/CM
##YUNITS=TRANSMITTANCE
##XFACTOR=1
##YFACTOR=1
##DELTAX=1
##FIRSTX=3800
##LASTX=453
##FIRSTY=0.9966
##MAXX=3800
##MINX=453
##MAXY=1.0037
##MINY=0.0155
##NPOINTS=3348
##XYDATA=(X++(Y..Y))
3800.000000 0.9966 0.9966 0.9966 0.9963 0.9961
3795.000000 0.9958 0.9956 0.9953 0.9951 0.9948
3790.000000 0.9946 0.9943 0.9941 0.9938 0.9936
3785.000000 0.9933 0.9931 0.9928 0.9925 0.9923
3780.000000 0.9921 0.9918 0.9916 0.9913 0.9911
3775.000000 0.9908 0.9906 0.9903 0.9901 0.9898
3770.000000 0.9896 0.9893 0.9891 0.9888 0.9886
3765.000000 0.9883 0.9880 0.9877 0.9894 0.9871
3760.000000 0.9870 0.9867 0.9865 0.9862 0.9860
3755.000000 0.9858 0.9856 0.9853 0.9851 0.9848
3750.000000 0.9846 0.9844 0.9842 0.9839 0.9837
3745.000000 0.9835 0.9833 0.9830 0.9828 0.9824
3740.000000 0.9821 0.9816 0.9812 0.9808 0.9804
3735.000000 0.9799 0.9795 0.9790 0.9786 0.9781
3730.000000 0.9775 0.9770 0.9765 0.9757 0.9749
3725.000000 0.9740 0.9732 0.9723 0.9714 0.9700
3720.000000 0.9686 0.9668 0.9652 0.9635 0.9618
3715.000000 0.9597 0.9575 0.9552 0.9530 0.9506
3710.000000 0.9482 0.9453 0.9425 0.9396 0.9368
3705.000000 0.9339 0.9310 0.9280 0.9251 0.9221
3700.000000 0.9192 0.9160 0.9128 0.9096 0.9064
3695.000000 0.9032 0.9000 0.8971 0.8945 0.8917
3690.000000 0.8890 0.8865 0.8841 0.8818 0.8795
3685.000000 0.8774 0.8753 0.8740 0.8727 0.8714
3680.000000 0.8702 0.8689 0.8677 0.8667 0.8658
3675.000000 0.8648 0.8639 0.8632 0.8625 0.8621
3670.000000 0.8618 0.8614 0.8610 0.8606 0.8603
3665.000000 0.8600 0.8598 0.8595 0.8592 0.8590
3660.000000 0.8604 0.8586 0.8584 0.8582 0.8580
3655.000000 0.8578 0.8577 0.8575 0.8575 0.8575
3650.000000 0.8577 0.8580 0.8584 0.8587 0.8590
3645.000000 0.8594 0.8598 0.8602 0.8607 0.8615
3640.000000 0.8623 0.8631 0.8640 0.8648 0.8657
3635.000000 0.8661 0.8666 0.8668 0.8671 0.8671
3630.000000 0.8671 0.8675 0.8675 0.8671 0.8668
3625.000000 0.8654 0.8641 0.8621 0.8602 0.8584
3620.000000 0.8567 0.8542 0.8517 0.8494 0.8471
3615.000000 0.8454 0.8436 0.8418 0.8402 0.8388
3610.000000 0.8375 0.8361 0.8348 0.8328 0.8310
3605.000000 0.8278 0.8248 0.8128 0.8011 0.7890
3600.000000 0.7768 0.7648 0.7528 0.7407 0.7287
3595.000000 0.7165 0.7045 0.6924 0.6804 0.6682
3590.000000 0.6561 0.6383 0.6205 0.6136 0.6068
3585.000000 0.6012 0.5959 0.5902 0.5846 0.5823
3580.000000 0.5801 0.5798 0.5788 0.5794 0.5793
3575.000000 0.5804 0.5816 0.5843 0.5871 0.5904
3570.000000 0.5937 0.5977 0.6018 0.6060 0.6102
3565.000000 0.6144 0.6187 0.6237 0.6288 0.6343
3560.000000 0.6399 0.6442 0.6485 0.6525 0.6568
3555.000000 0.6601 0.6636 0.6667 0.6699 0.6728
3550.000000 0.6758 0.6786 0.6815 0.6844 0.6874
3545.000000 0.6900 0.6925 0.6947 0.6968 0.6985
3540.000000 0.7001 0.7012 0.7025 0.7034 0.7043
3535.000000 0.7048 0.7054 0.7058 0.7064 0.7065
3530.000000 0.7068 0.7069 0.7071 0.7072 0.7101
3525.000000 0.7075 0.7075 0.7075 0.7075 0.7069
3520.000000 0.7065 0.7061 0.7056 0.7051 0.7046
3515.000000 0.7041 0.7036 0.7028 0.7022 0.7012
3510.000000 0.7004 0.6994 0.6985 0.6975 0.6965
3505.000000 0.6956 0.6947 0.6937 0.6928 0.6915
3500.000000 0.6905 0.6894 0.6883 0.6871 0.6860
3495.000000 0.6848 0.6837 0.6825 0.6814 0.6801
3490.000000 0.6789 0.6775 0.6761 0.6748 0.6735
3485.000000 0.6721 0.6708 0.6695 0.6682 0.6668
3480.000000 0.6656 0.6643 0.6630 0.6615 0.6603
3475.000000 0.6590 0.6576 0.6564 0.6551 0.6541
3470.000000 0.6532 0.6521 0.6512 0.6503 0.6494
3465.000000 0.6484 0.6475 0.6465 0.6456 0.6446
3460.000000 0.6437 0.6426 0.6418 0.6408 0.6399
3455.000000 0.6391 0.6383 0.6375 0.6367 0.6358
3450.000000 0.6350 0.6342 0.6334 0.6326 0.6318
3445.000000 0.6309 0.6301 0.6293 0.6285 0.6277
3440.000000 0.6269 0.6260 0.6252 0.6244 0.6236
3435.000000 0.6228 0.6220 0.6212 0.6204 0.6196
3430.000000 0.6189 0.6181 0.6173 0.6165 0.6157
3425.000000 0.6149 0.6141 0.6135 0.6130 0.6125
3420.000000 0.6120 0.6114 0.6109 0.6104 0.6099
3415.000000 0.6094 0.6089 0.6084 0.6079 0.6074
3410.000000 0.6069 0.6064 0.6059 0.6054 0.6049
3405.000000 0.6045 0.6042 0.6038 0.6035 0.6031
3400.000000 0.6027 0.6023 0.6020 0.6016 0.6012
3395.000000 0.6009 0.6006 0.6002 0.5998 0.5994
3390.000000 0.5991 0.5989 0.5987 0.5986 0.5986
3385.000000 0.5985 0.5985 0.5984 0.5984 0.5983
3380.000000 0.5983 0.5982 0.5982 0.5982 0.5982
3375.000000 0.5981 0.5981 0.5980 0.5980 0.5979
3370.000000 0.5979 0.5979 0.5980 0.5981 0.5983
3365.000000 0.5985 0.5987 0.5988 0.5990 0.5992
3360.000000 0.5994 0.5995 0.5997 0.5998 0.6000
3355.000000 0.6002 0.6004 0.6005 0.6007 0.6008
3350.000000 0.6010 0.6012 0.6014 0.6015 0.6017
3345.000000 0.6019 0.6022 0.6024 0.6027 0.6029
3340.000000 0.6031 0.6033 0.6036 0.6038 0.6041
3335.000000 0.6043 0.6046 0.6048 0.6051 0.6053
3330.000000 0.6056 0.6058 0.6060 0.6062 0.6066
3325.000000 0.6068 0.6071 0.6073 0.6076 0.6078
3320.000000 0.6081 0.6083 0.6086 0.6089 0.6092
3315.000000 0.6095 0.6098 0.6100 0.6103 0.6106
3310.000000 0.6109 0.6110 0.6114 0.6117 0.6120
3305.000000 0.6122 0.6125 0.6128 0.6131 0.6134
3300.000000 0.6137 0.6139 0.6142 0.6145 0.6148
3295.000000 0.6150 0.6153 0.6156 0.6159 0.6160
3290.000000 0.6164 0.6167 0.6171 0.6174 0.6178
3285.000000 0.6181 0.6185 0.6189 0.6193 0.6196
3280.000000 0.6200 0.6203 0.6207 0.6210 0.6214
3275.000000 0.6218 0.6222 0.6225 0.6229 0.6232
3270.000000 0.6236 0.6239 0.6243 0.6247 0.6251
3265.000000 0.6254 0.6258 0.6260 0.6265 0.6268
3260.000000 0.6272 0.6276 0.6280 0.6283 0.6287
3255.000000 0.6290 0.6294 0.6297 0.6301 0.6304
3250.000000 0.6308 0.6310 0.6315 0.6318 0.6321
3245.000000 0.6324 0.6327 0.6330 0.6334 0.6337
3240.000000 0.6340 0.6343 0.6346 0.6349 0.6353
3235.000000 0.6356 0.6359 0.6362 0.6365 0.6368
3230.000000 0.6371 0.6374 0.6378 0.6381 0.6384
3225.000000 0.6387 0.6390 0.6393 0.6396 0.6398
3220.000000 0.6401 0.6403 0.6406 0.6408 0.6410
3215.000000 0.6411 0.6415 0.6417 0.6419 0.6421
3210.000000 0.6425 0.6426 0.6430 0.6432 0.6435
3205.000000 0.6437 0.6440 0.6442 0.6445 0.6447
3200.000000 0.6450 0.6451 0.6455 0.6458 0.6461
3195.000000 0.6462 0.6465 0.6468 0.6471 0.6475
3190.000000 0.6478 0.6481 0.6484 0.6487 0.6490
3185.000000 0.6493 0.6496 0.6498 0.6501 0.6504
3180.000000 0.6507 0.6510 0.6512 0.6515 0.6518
3175.000000 0.6521 0.6525 0.6528 0.6531 0.6533
3170.000000 0.6536 0.6539 0.6543 0.6546 0.6550
3165.000000 0.6553 0.6556 0.6558 0.6562 0.6565
3160.000000 0.6569 0.6572 0.6576 0.6578 0.6581
3155.000000 0.6583 0.6586 0.6588 0.6591 0.6593
3150.000000 0.6595 0.6597 0.6600 0.6601 0.6605
3145.000000 0.6607 0.6608 0.6610 0.6611 0.6612
3140.000000 0.6614 0.6615 0.6615 0.6617 0.6618
3135.000000 0.6618 0.6619 0.6619 0.6618 0.6618
3130.000000 0.6618 0.6617 0.6637 0.6615 0.6612
3125.000000 0.6610 0.6608 0.6606 0.6604 0.6598
3120.000000 0.6592 0.6584 0.6576 0.6561 0.6548
3115.000000 0.6534 0.6519 0.6501 0.6485 0.6465
3110.000000 0.6448 0.6421 0.6397 0.6345 0.6293
3105.000000 0.6241 0.6189 0.6137 0.6086 0.6072
3100.000000 0.6041 0.6057 0.6057 0.6082 0.6107
3095.000000 0.6167 0.6228 0.6289 0.6350 0.6410
3090.000000 0.6471 0.6531 0.6592 0.6643 0.6694
3085.000000 0.6728 0.6765 0.6790 0.6815 0.6838
3080.000000 0.6860 0.6881 0.6903 0.6925 0.6947
3075.000000 0.6965 0.6983 0.6998 0.7014 0.7030
3070.000000 0.7046 0.7061 0.7078 0.7092 0.7107
3065.000000 0.7121 0.7135 0.7149 0.7162 0.7176
3060.000000 0.7192 0.7206 0.7219 0.7235 0.7250
3055.000000 0.7265 0.7280 0.7295 0.7310 0.7325
3050.000000 0.7340 0.7355 0.7369 0.7382 0.7394
3045.000000 0.7405 0.7417 0.7428 0.7440 0.7449
3040.000000 0.7458 0.7467 0.7475 0.7485 0.7494
3035.000000 0.7503 0.7511 0.7521 0.7531 0.7542
3030.000000 0.7553 0.7564 0.7575 0.7585 0.7595
3025.000000 0.7599 0.7604 0.7608 0.7614 0.7618
3020.000000 0.7624 0.7628 0.7633 0.7638 0.7644
3015.000000 0.7650 0.7656 0.7658 0.7661 0.7664
3010.000000 0.7711 0.7668 0.7671 0.7671 0.7671
3005.000000 0.7672 0.7672 0.7665 0.7657 0.7649
3000.000000 0.7641 0.7631 0.7621 0.7608 0.7598
2995.000000 0.7586 0.7575 0.7561 0.7549 0.7535
2990.000000 0.7521 0.7514 0.7506 0.7499 0.7492
2985.000000 0.7485 0.7478 0.7475 0.7450 0.7468
2980.000000 0.7469 0.7471 0.7475 0.7485 0.7495
2975.000000 0.7504 0.7512 0.7535 0.7557 0.7586
2970.000000 0.7615 0.7653 0.7691 0.7721 0.7753
2965.000000 0.7772 0.7794 0.7815 0.7836 0.7854
2960.000000 0.7871 0.7888 0.7905 0.7921 0.7939
2955.000000 0.7947 0.7956 0.7961 0.7965 0.7971
2950.000000 0.7976 0.7982 0.7987 0.7992 0.7998
2945.000000 0.8001 0.8007 0.8011 0.8015 0.8021
2940.000000 0.8025 0.8030 0.8035 0.8039 0.8044
2935.000000 0.8048 0.8053 0.8057 0.8061 0.8065
2930.000000 0.8071 0.8075 0.8081 0.8087 0.8093
2925.000000 0.8098 0.8104 0.8108 0.8115 0.8121
2920.000000 0.8126 0.8132 0.8138 0.8143 0.8149
2915.000000 0.8155 0.8161 0.8165 0.8171 0.8176
2910.000000 0.8183 0.8189 0.8195 0.8201 0.8207
2905.000000 0.8213 0.8218 0.8225 0.8232 0.8238
2900.000000 0.8244 0.8250 0.8256 0.8262 0.8268
2895.000000 0.8274 0.8280 0.8286 0.8292 0.8298
2890.000000 0.8305 0.8311 0.8317 0.8323 0.8328
2885.000000 0.8335 0.8341 0.8347 0.8353 0.8359
2880.000000 0.8366 0.8373 0.8380 0.8387 0.8394
2875.000000 0.8400 0.8407 0.8414 0.8421 0.8428
2870.000000 0.8435 0.8441 0.8448 0.8455 0.8462
2865.000000 0.8468 0.8475 0.8483 0.8490 0.8496
2860.000000 0.8503 0.8510 0.8517 0.8524 0.8532
2855.000000 0.8540 0.8548 0.8556 0.8565 0.8573
2850.000000 0.8581 0.8589 0.8597 0.8605 0.8613
2845.000000 0.8621 0.8628 0.8637 0.8645 0.8653
2840.000000 0.8662 0.8670 0.8678 0.8686 0.8694
2835.000000 0.8701 0.8708 0.8714 0.8721 0.8728
2830.000000 0.8735 0.8741 0.8748 0.8754 0.8761
2825.000000 0.8767 0.8774 0.8780 0.8787 0.8793
2820.000000 0.8800 0.8806 0.8813 0.8820 0.8827
2815.000000 0.8833 0.8839 0.8843 0.8848 0.8852
2810.000000 0.8856 0.8860 0.8864 0.8868 0.8873
2805.000000 0.8877 0.8881 0.8885 0.8889 0.8890
2800.000000 0.8892 0.8892 0.8892 0.8892 0.8892
2795.000000 0.8892 0.8892 0.8892 0.8892 0.8891
2790.000000 0.8891 0.8891 0.8891 0.8891 0.8891
2785.000000 0.8889 0.8887 0.8885 0.8884 0.8882
2780.000000 0.8880 0.8878 0.8877 0.8875 0.8873
2775.000000 0.8871 0.8868 0.8867 0.8866 0.8861
2770.000000 0.8856 0.8850 0.8845 0.8840 0.8835
2765.000000 0.8830 0.8825 0.8818 0.8814 0.8808
2760.000000 0.8803 0.8797 0.8792 0.8786 0.8781
2755.000000 0.8775 0.8770 0.8764 0.8759 0.8753
2750.000000 0.8748 0.8743 0.8739 0.8735 0.8732
2745.000000 0.8728 0.8725 0.8721 0.8717 0.8713
2740.000000 0.8710 0.8706 0.8703 0.8700 0.8697
2735.000000 0.8695 0.8694 0.8692 0.8690 0.8688
2730.000000 0.8687 0.8685 0.8684 0.8682 0.8680
2725.000000 0.8678 0.8677 0.8675 0.8675 0.8674
2720.000000 0.8673 0.8673 0.8673 0.8673 0.8674
2715.000000 0.8674 0.8675 0.8675 0.8675 0.8675
2710.000000 0.8675 0.8675 0.8675 0.8675 0.8677
2705.000000 0.8677 0.8678 0.8678 0.8678 0.8678
2700.000000 0.8678 0.8678 0.8678 0.8680 0.8682
2695.000000 0.8684 0.8686 0.8687 0.8689 0.8691
2690.000000 0.8693 0.8695 0.8697 0.8698 0.8700
2685.000000 0.8702 0.8704 0.8706 0.8708 0.8709
2680.000000 0.8711 0.8713 0.8715 0.8717 0.8718
2675.000000 0.8721 0.8723 0.8725 0.8727 0.8728
2670.000000 0.8730 0.8731 0.8733 0.8733 0.8734
2665.000000 0.8734 0.8735 0.8736 0.8737 0.8737
2660.000000 0.8738 0.8738 0.8739 0.8739 0.8739
2655.000000 0.8739 0.8739 0.8739 0.8739 0.8739
2650.000000 0.8740 0.8742 0.8744 0.8746 0.8748
2645.000000 0.8756 0.8764 0.8771 0.8778 0.8784
2640.000000 0.8790 0.8792 0.8794 0.8796 0.8799
2635.000000 0.8801 0.8804 0.8805 0.8808 0.8808
2630.000000 0.8809 0.8810 0.8811 0.8812 0.8813
2625.000000 0.8813 0.8814 0.8814 0.8813 0.8812
2620.000000 0.8810 0.8808 0.8806 0.8806 0.8806
2615.000000 0.8806 0.8809 0.8811 0.8814 0.8816
2610.000000 0.8818 0.8821 0.8824 0.8827 0.8830
2605.000000 0.8834 0.8839 0.8843 0.8847 0.8851
2600.000000 0.8856 0.8861 0.8866 0.8871 0.8875
2595.000000 0.8881 0.8886 0.8891 0.8896 0.8898
2590.000000 0.8900 0.8902 0.8905 0.8907 0.8909
2585.000000 0.8911 0.8913 0.8913 0.8914 0.8915
2580.000000 0.8916 0.8917 0.8918 0.8918 0.8918
2575.000000 0.8920 0.8921 0.8921 0.8921 0.8921
2570.000000 0.8923 0.8928 0.8935 0.8944 0.8954
2565.000000 0.8965 0.8975 0.8992 0.9009 0.9021
2560.000000 0.9034 0.9046 0.9058 0.9068 0.9081
2555.000000 0.9091 0.9101 0.9111 0.9121 0.9127
2550.000000 0.9133 0.9137 0.9142 0.9146 0.9151
2545.000000 0.9156 0.9161 0.9165 0.9170 0.9173
2540.000000 0.9177 0.9180 0.9184 0.9187 0.9191
2535.000000 0.9194 0.9198 0.9200 0.9201 0.9201
2530.000000 0.9201 0.9200 0.9200 0.9199 0.9198
2525.000000 0.9196 0.9195 0.9193 0.9191 0.9189
2520.000000 0.9188 0.9186 0.9185 0.9183 0.9182
2515.000000 0.9186 0.9190 0.9198 0.9206 0.9215
2510.000000 0.9224 0.9234 0.9245 0.9255 0.9266
2505.000000 0.9277 0.9288 0.9298 0.9309 0.9318
2500.000000 0.9328 0.9339 0.9349 0.9359 0.9368
2495.000000 0.9374 0.9380 0.9384 0.9389 0.9393
2490.000000 0.9397 0.9401 0.9406 0.9410 0.9414
2485.000000 0.9413 0.9413 0.9412 0.9411 0.9411
2480.000000 0.9411 0.9416 0.9421 0.9427 0.9433
2475.000000 0.9438 0.9444 0.9449 0.9455 0.9460
2470.000000 0.9466 0.9471 0.9478 0.9483 0.9489
2465.000000 0.9495 0.9501 0.9506 0.9512 0.9517
2460.000000 0.9523 0.9525 0.9530 0.9533 0.9537
2455.000000 0.9540 0.9544 0.9548 0.9552 0.9555
2450.000000 0.9558 0.9561 0.9564 0.9566 0.9568
2445.000000 0.9571 0.9575 0.9577 0.9580 0.9582
2440.000000 0.9584 0.9586 0.9589 0.9591 0.9593
2435.000000 0.9595 0.9597 0.9599 0.9602 0.9606
2430.000000 0.9610 0.9614 0.9618 0.9621 0.9625
2425.000000 0.9630 0.9634 0.9638 0.9642 0.9646
2420.000000 0.9650 0.9654 0.9658 0.9662 0.9667
2415.000000 0.9671 0.9675 0.9680 0.9685 0.9689
2410.000000 0.9694 0.9696 0.9699 0.9699 0.9699
2405.000000 0.9695 0.9692 0.9687 0.9682 0.9678
2400.000000 0.9674 0.9670 0.9666 0.9662 0.9658
2395.000000 0.9654 0.9650 0.9649 0.9648 0.9648
2390.000000 0.9648 0.9652 0.9657 0.9661 0.9666
2385.000000 0.9670 0.9675 0.9682 0.9689 0.9697
2380.000000 0.9705 0.9712 0.9720 0.9728 0.9738
2375.000000 0.9747 0.9756 0.9765 0.9774 0.9781
2370.000000 0.9789 0.9796 0.9803 0.9810 0.9818
2365.000000 0.9823 0.9828 0.9833 0.9838 0.9843
2360.000000 0.9848 0.9850 0.9853 0.9855 0.9856
2355.000000 0.9856 0.9854 0.9847 0.9841 0.9834
2350.000000 0.9828 0.9820 0.9813 0.9805 0.9797
2345.000000 0.9789 0.9782 0.9774 0.9767 0.9760
2340.000000 0.9753 0.9749 0.9746 0.9746 0.9746
2335.000000 0.9746 0.9748 0.9749 0.9751 0.9756
2330.000000 0.9762 0.9768 0.9775 0.9778 0.9784
2325.000000 0.9788 0.9793 0.9795 0.9797 0.9784
2320.000000 0.9771 0.9759 0.9746 0.9732 0.9718
2315.000000 0.9703 0.9688 0.9708 0.9728 0.9747
2310.000000 0.9766 0.9784 0.9803 0.9818 0.9834
2305.000000 0.9838 0.9843 0.9848 0.9853 0.9853
2300.000000 0.9853 0.9852 0.9852 0.9851 0.9851
2295.000000 0.9851 0.9851 0.9850 0.9850 0.9849
2290.000000 0.9849 0.9849 0.9849 0.9848 0.9848
2285.000000 0.9848 0.9848 0.9848 0.9848 0.9848
2280.000000 0.9848 0.9848 0.9848 0.9848 0.9848
2275.000000 0.9848 0.9848 0.9847 0.9847 0.9846
2270.000000 0.9846 0.9845 0.9845 0.9844 0.9844
2265.000000 0.9841 0.9838 0.9832 0.9827 0.9821
2260.000000 0.9816 0.9808 0.9800 0.9790 0.9781
2255.000000 0.9771 0.9761 0.9751 0.9742 0.9734
2250.000000 0.9727 0.9724 0.9725 0.9725 0.9728
2245.000000 0.9732 0.9736 0.9740 0.9745 0.9749
2240.000000 0.9753 0.9757 0.9761 0.9765 0.9768
2235.000000 0.9773 0.9777 0.9781 0.9786 0.9790
2230.000000 0.9794 0.9798 0.9802 0.9803 0.9805
2225.000000 0.9805 0.9806 0.9806 0.9805 0.9804
2220.000000 0.9802 0.9799 0.9796 0.9793 0.9790
2215.000000 0.9787 0.9784 0.9782 0.9780 0.9778
2210.000000 0.9778 0.9775 0.9775 0.9773 0.9771
2205.000000 0.9771 0.9771 0.9771 0.9771 0.9773
2200.000000 0.9775 0.9775 0.9778 0.9778 0.9781
2195.000000 0.9782 0.9784 0.9785 0.9787 0.9788
2190.000000 0.9790 0.9791 0.9793 0.9794 0.9796
2185.000000 0.9799 0.9803 0.9806 0.9810 0.9814
2180.000000 0.9818 0.9821 0.9825 0.9828 0.9832
2175.000000 0.9835 0.9839 0.9841 0.9844 0.9846
2170.000000 0.9849 0.9851 0.9854 0.9856 0.9859
2165.000000 0.9861 0.9864 0.9866 0.9868 0.9871
2160.000000 0.9875 0.9877 0.9880 0.9883 0.9886
2155.000000 0.9889 0.9892 0.9895 0.9898 0.9901
2150.000000 0.9904 0.9907 0.9911 0.9915 0.9918
2145.000000 0.9923 0.9928 0.9932 0.9936 0.9938
2140.000000 0.9941 0.9943 0.9944 0.9944 0.9942
2135.000000 0.9939 0.9936 0.9933 0.9930 0.9927
2130.000000 0.9924 0.9921 0.9918 0.9917 0.9915
2125.000000 0.9913 0.9911 0.9908 0.9906 0.9904
2120.000000 0.9902 0.9900 0.9898 0.9895 0.9895
2115.000000 0.9895 0.9898 0.9902 0.9907 0.9911
2110.000000 0.9916 0.9920 0.9924 0.9927 0.9931
2105.000000 0.9933 0.9935 0.9937 0.9937 0.9938
2100.000000 0.9937 0.9933 0.9930 0.9925 0.9923
2095.000000 0.9918 0.9916 0.9914 0.9912 0.9912
2090.000000 0.9913 0.9913 0.9914 0.9914 0.9915
2085.000000 0.9917 0.9918 0.9921 0.9923 0.9924
2080.000000 0.9925 0.9928 0.9930 0.9931 0.9932
2075.000000 0.9933 0.9934 0.9934 0.9935 0.9936
2070.000000 0.9937 0.9937 0.9938 0.9939 0.9940
2065.000000 0.9940 0.9941 0.9942 0.9943 0.9943
2060.000000 0.9943 0.9943 0.9944 0.9944 0.9944
2055.000000 0.9944 0.9944 0.9944 0.9945 0.9945
2050.000000 0.9945 0.9945 0.9945 0.9945 0.9945
2045.000000 0.9945 0.9945 0.9944 0.9944 0.9944
2040.000000 0.9944 0.9943 0.9943 0.9943 0.9943
2035.000000 0.9942 0.9942 0.9941 0.9941 0.9941
2030.000000 0.9941 0.9941 0.9942 0.9942 0.9943
2025.000000 0.9944 0.9945 0.9946 0.9947 0.9947
2020.000000 0.9948 0.9949 0.9950 0.9951 0.9952
2015.000000 0.9952 0.9953 0.9954 0.9955 0.9955
2010.000000 0.9956 0.9957 0.9958 0.9958 0.9959
2005.000000 0.9960 0.9961 0.9961 0.9962 0.9961
2000.000000 0.9960 0.9956 0.9951 0.9932 0.9912
1995.000000 0.9891 0.9871 0.9857 0.9852 0.9854
1990.000000 0.9855 0.9857 0.9858 0.9861 0.9864
1985.000000 0.9866 0.9868 0.9871 0.9875 0.9877
1980.000000 0.9880 0.9883 0.9886 0.9888 0.9891
1975.000000 0.9894 0.9896 0.9899 0.9901 0.9904
1970.000000 0.9906 0.9909 0.9911 0.9914 0.9916
1965.000000 0.9918 0.9918 0.9918 0.9918 0.9920
1960.000000 0.9920 0.9920 0.9921 0.9921 0.9921
1955.000000 0.9921 0.9920 0.9920 0.9920 0.9918
1950.000000 0.9918 0.9918 0.9918 0.9918 0.9917
1945.000000 0.9917 0.9917 0.9916 0.9916 0.9916
1940.000000 0.9916 0.9916 0.9917 0.9917 0.9918
1935.000000 0.9918 0.9918 0.9918 0.9920 0.9920
1930.000000 0.9921 0.9921 0.9921 0.9921 0.9921
1925.000000 0.9921 0.9921 0.9923 0.9923 0.9923
1920.000000 0.9923 0.9923 0.9923 0.9923 0.9924
1915.000000 0.9924 0.9924 0.9924 0.9924 0.9925
1910.000000 0.9925 0.9925 0.9927 0.9928 0.9928
1905.000000 0.9928 0.9930 0.9931 0.9931 0.9932
1900.000000 0.9933 0.9934 0.9935 0.9935 0.9936
1895.000000 0.9936 0.9937 0.9937 0.9938 0.9938
1890.000000 0.9938 0.9938 0.9938 0.9938 0.9938
1885.000000 0.9938 0.9938 0.9939 0.9941 0.9943
1880.000000 0.9945 0.9947 0.9948 0.9950 0.9952
1875.000000 0.9954 0.9956 0.9957 0.9957 0.9958
1870.000000 0.9958 0.9958 0.9958 0.9959 0.9959
1865.000000 0.9959 0.9959 0.9960 0.9960 0.9960
1860.000000 0.9961 0.9961 0.9961 0.9961 0.9962
1855.000000 0.9962 0.9962 0.9963 0.9958 0.9950
1850.000000 0.9943 0.9937 0.9931 0.9924 0.9912
1845.000000 0.9900 0.9888 0.9873 0.9857 0.9841
1840.000000 0.9825 0.9812 0.9797 0.9778 0.9761
1835.000000 0.9740 0.9718 0.9699 0.9699 0.9700
1830.000000 0.9699 0.9704 0.9708 0.9713 0.9717
1825.000000 0.9723 0.9731 0.9739 0.9746 0.9754
1820.000000 0.9762 0.9770 0.9778 0.9786 0.9794
1815.000000 0.9802 0.9810 0.9818 0.9825 0.9834
1810.000000 0.9842 0.9849 0.9856 0.9863 0.9868
1805.000000 0.9874 0.9871 0.9870 0.9868 0.9864
1800.000000 0.9857 0.9851 0.9845 0.9845 0.9845
1795.000000 0.9845 0.9847 0.9849 0.9851 0.9853
1790.000000 0.9854 0.9855 0.9854 0.9852 0.9850
1785.000000 0.9849 0.9845 0.9840 0.9860 0.9830
1780.000000 0.9825 0.9820 0.9815 0.9810 0.9805
1775.000000 0.9800 0.9795 0.9790 0.9785 0.9778
1770.000000 0.9773 0.9767 0.9762 0.9756 0.9750
1765.000000 0.9744 0.9738 0.9732 0.9725 0.9721
1760.000000 0.9716 0.9711 0.9707 0.9702 0.9698
1755.000000 0.9693 0.9688 0.9684 0.9678 0.9675
1750.000000 0.9671 0.9668 0.9665 0.9661 0.9658
1745.000000 0.9654 0.9651 0.9647 0.9644 0.9639
1740.000000 0.9634 0.9630 0.9625 0.9621 0.9616
1735.000000 0.9611 0.9606 0.9599 0.9593 0.9587
1730.000000 0.9580 0.9570 0.9561 0.9551 0.9541
1725.000000 0.9531 0.9521 0.9507 0.9482 0.9453
1720.000000 0.9425 0.9396 0.9366 0.9312 0.9258
1715.000000 0.9198 0.9136 0.9074 0.9016 0.8957
1710.000000 0.8887 0.8816 0.8728 0.8635 0.8554
1705.000000 0.8517 0.8478 0.8444 0.8416 0.8388
1700.000000 0.8360 0.8337 0.8315 0.8293 0.8271
1695.000000 0.8248 0.8224 0.8201 0.8185 0.8168
1690.000000 0.8155 0.8118 0.8146 0.8157 0.8195
1685.000000 0.8242 0.8292 0.8349 0.8408 0.8471
1680.000000 0.8512 0.8547 0.8568 0.8590 0.8608
1675.000000 0.8671 0.8627 0.8628 0.8613 0.8588
1670.000000 0.8562 0.8510 0.8459 0.8394 0.8312
1665.000000 0.8231 0.8087 0.7799 0.7403 0.7030
1660.000000 0.6657 0.6284 0.5910 0.5538 0.5165
1655.000000 0.4912 0.4877 0.4846 0.4859 0.4878
1650.000000 0.4903 0.4943 0.4990 0.5037 0.5091
1645.000000 0.5145 0.5198 0.5278 0.5357 0.5422
1640.000000 0.5488 0.5562 0.5641 0.5719 0.5794
1635.000000 0.5870 0.5950 0.6056 0.6160 0.6246
1630.000000 0.6320 0.6394 0.6474 0.6554 0.6642
1625.000000 0.6737 0.6828 0.6905 0.6983 0.7061
1620.000000 0.7138 0.7215 0.7294 0.7371 0.7449
1615.000000 0.7525 0.7604 0.7682 0.7758 0.7837
1610.000000 0.7915 0.7992 0.8069 0.8147 0.8225
1605.000000 0.8303 0.8380 0.8458 0.8535 0.8606
1600.000000 0.8657 0.8695 0.8725 0.8745 0.8762
1595.000000 0.8778 0.8795 0.8808 0.8821 0.8830
1590.000000 0.8838 0.8847 0.8853 0.8858 0.8858
1585.000000 0.8858 0.8854 0.8847 0.8840 0.8834
1580.000000 0.8815 0.8796 0.8770 0.8740 0.8709
1575.000000 0.8673 0.8634 0.8595 0.8541 0.8478
1570.000000 0.8414 0.8335 0.8220 0.8098 0.7968
1565.000000 0.7853 0.7764 0.7674 0.7584 0.7487
1560.000000 0.7367 0.7248 0.7115 0.6968 0.6818
1555.000000 0.6657 0.6433 0.6145 0.5864 0.5671
1550.000000 0.5278 0.4837 0.3587 0.3056 0.2525
1545.000000 0.1994 0.1463 0.0932 0.0735 0.0564
1540.000000 0.0421 0.0308 0.0262 0.0228 0.0205
1535.000000 0.0192 0.0155 0.0178 0.0174 0.0210
1530.000000 0.0298 0.0466 0.0732 0.0997 0.1263
1525.000000 0.1529 0.1794 0.2060 0.2326 0.2591
1520.000000 0.2857 0.3123 0.3388 0.3414 0.3426
1515.000000 0.3426 0.3427 0.3316 0.2840 0.2364
1510.000000 0.1887 0.1411 0.0935 0.0663 0.0571
1505.000000 0.0502 0.0464 0.0419 0.0441 0.0464
1500.000000 0.0568 0.0980 0.1545 0.2111 0.2676
1495.000000 0.3241 0.3806 0.4371 0.4936 0.5224
1490.000000 0.5500 0.5799 0.6132 0.6368 0.6521
1485.000000 0.6649 0.6756 0.6846 0.6946 0.7042
1480.000000 0.7134 0.7219 0.7301 0.7365 0.7421
1475.000000 0.7465 0.7508 0.7551 0.7595 0.7640
1470.000000 0.7686 0.7742 0.7804 0.7878 0.7958
1465.000000 0.8037 0.8111 0.8178 0.8248 0.8317
1460.000000 0.8384 0.8444 0.8501 0.8556 0.8590
1455.000000 0.8624 0.8653 0.8674 0.8687 0.8699
1450.000000 0.8711 0.8718 0.8724 0.8731 0.8730
1445.000000 0.8736 0.8737 0.8738 0.8723 0.8709
1440.000000 0.8694 0.8671 0.8644 0.8617 0.8589
1435.000000 0.8562 0.8535 0.8509 0.8483 0.8457
1430.000000 0.8430 0.8404 0.8378 0.8349 0.8318
1425.000000 0.8289 0.8258 0.8228 0.8191 0.8145
1420.000000 0.8099 0.8053 0.8006 0.7960 0.7914
1415.000000 0.7871 0.7828 0.7764 0.7655 0.7246
1410.000000 0.6734 0.6222 0.5766 0.5750 0.5762
1405.000000 0.5907 0.6100 0.6293 0.6486 0.6678
1400.000000 0.6871 0.7064 0.7257 0.7458 0.7489
1395.000000 0.7490 0.7491 0.7491 0.7468 0.7445
1390.000000 0.7391 0.7308 0.7183 0.7036 0.6769
1385.000000 0.6640 0.6545 0.6475 0.6434 0.6408
1380.000000 0.6399 0.6388 0.6343 0.6293 0.6242
1375.000000 0.6192 0.6142 0.6091 0.6040 0.5991
1370.000000 0.5942 0.5882 0.5817 0.5770 0.5762
1365.000000 0.5762 0.5760 0.5744 0.5739 0.5735
1360.000000 0.5749 0.5783 0.5815 0.5844 0.5869
1355.000000 0.5890 0.5904 0.5918 0.5929 0.5914
1350.000000 0.5910 0.5902 0.5892 0.5882 0.5871
1345.000000 0.5860 0.5851 0.5841 0.5832 0.5822
1340.000000 0.5810 0.5797 0.5783 0.5770 0.5753
1335.000000 0.5735 0.5715 0.5696 0.5672 0.5642
1330.000000 0.5612 0.5576 0.5538 0.5514 0.5497
1325.000000 0.5497 0.5488 0.5530 0.5645 0.5792
1320.000000 0.5939 0.6087 0.6234 0.6381 0.6528
1315.000000 0.6675 0.6811 0.6889 0.6967 0.7045
1310.000000 0.7132 0.7240 0.7341 0.7431 0.7515
1305.000000 0.7571 0.7628 0.7683 0.7725 0.7767
1300.000000 0.7808 0.7851 0.7899 0.7947 0.7995
1295.000000 0.8058 0.8136 0.8195 0.8242 0.8284
1290.000000 0.8448 0.8378 0.8378 0.8345 0.8283
1285.000000 0.8031 0.7681 0.7330 0.6980 0.6630
1280.000000 0.6280 0.6014 0.5995 0.6024 0.6158
1275.000000 0.6292 0.6425 0.6560 0.6694 0.6826
1270.000000 0.6961 0.7095 0.7161 0.7174 0.7146
1265.000000 0.7111 0.7064 0.7015 0.6965 0.6914
1260.000000 0.6861 0.6801 0.6731 0.6658 0.6555
1255.000000 0.6481 0.6391 0.6302 0.6212 0.6124
1250.000000 0.6034 0.5945 0.5856 0.5766 0.5677
1245.000000 0.5588 0.5518 0.5470 0.5371 0.5384
1240.000000 0.5369 0.5376 0.5407 0.5478 0.5603
1235.000000 0.5730 0.5909 0.6060 0.6212 0.6362
1230.000000 0.6514 0.6665 0.6817 0.6968 0.7119
1225.000000 0.7271 0.7378 0.7465 0.7558 0.7661
1220.000000 0.7761 0.7858 0.7944 0.8006 0.8068
1215.000000 0.8128 0.8182 0.8225 0.8271 0.8312
1210.000000 0.8352 0.8387 0.8420 0.8448 0.8475
1205.000000 0.8499 0.8523 0.8537 0.8546 0.8554
1200.000000 0.8561 0.8561 0.8561 0.8561 0.8561
1195.000000 0.8559 0.8556 0.8554 0.8551 0.8549
1190.000000 0.8545 0.8540 0.8534 0.8503 0.8473
1185.000000 0.8442 0.8393 0.8334 0.8236 0.8068
1180.000000 0.7904 0.7575 0.6749 0.5924 0.5099
1175.000000 0.4273 0.3448 0.2623 0.2127 0.2109
1170.000000 0.2149 0.2599 0.3171 0.3743 0.4315
1165.000000 0.4888 0.5460 0.6032 0.6604 0.7034
1160.000000 0.7218 0.7369 0.7600 0.7848 0.7915
1155.000000 0.7997 0.8065 0.8140 0.8259 0.8397
1150.000000 0.8578 0.8771 0.8921 0.9040 0.9145
1145.000000 0.9201 0.9234 0.9263 0.9293 0.9311
1140.000000 0.9325 0.9342 0.9330 0.9321 0.9306
1135.000000 0.9283 0.9240 0.9187 0.9113 0.8997
1130.000000 0.8686 0.8366 0.8047 0.7726 0.7407
1125.000000 0.7274 0.7244 0.7260 0.7262 0.7401
1120.000000 0.7580 0.7758 0.7938 0.8115 0.8295
1115.000000 0.8412 0.8440 0.8448 0.8452 0.8439
1110.000000 0.8433 0.8437 0.8468 0.8511 0.8571
1105.000000 0.8627 0.8668 0.8697 0.8727 0.8718
1100.000000 0.8698 0.8615 0.8408 0.8181 0.7443
1095.000000 0.7198 0.6953 0.6665 0.5758 0.4849
1090.000000 0.3940 0.3032 0.2163 0.1884 0.1690
1085.000000 0.1534 0.1427 0.1296 0.1170 0.1029
1080.000000 0.0988 0.0972 0.0965 0.0956 0.0980
1075.000000 0.1013 0.1088 0.1274 0.1480 0.2123
1070.000000 0.2359 0.2904 0.3482 0.4062 0.4642
1065.000000 0.5171 0.5345 0.5910 0.6339 0.6595
1060.000000 0.6793 0.6994 0.7238 0.7368 0.7499
1055.000000 0.7638 0.7767 0.7883 0.8005 0.8105
1050.000000 0.8210 0.8274 0.8286 0.8291 0.8295
1045.000000 0.8300 0.8305 0.8314 0.8363 0.8432
1040.000000 0.8505 0.8575 0.8644 0.8707 0.8759
1035.000000 0.8811 0.8856 0.8900 0.8946 0.8991
1030.000000 0.9037 0.9082 0.9127 0.9171 0.9212
1025.000000 0.9248 0.9285 0.9320 0.9346 0.9371
1020.000000 0.9397 0.9423 0.9448 0.9471 0.9495
1015.000000 0.9518 0.9540 0.9560 0.9581 0.9602
1010.000000 0.9621 0.9635 0.9649 0.9659 0.9670
1005.000000 0.9681 0.9688 0.9692 0.9698 0.9700
1000.000000 0.9704 0.9704 0.9699 0.9695 0.9690
995.000000 0.9686 0.9682 0.9673 0.9662 0.9652
990.000000 0.9639 0.9625 0.9613 0.9600 0.9586
985.000000 0.9556 0.9521 0.9489 0.9428 0.9362
980.000000 0.9294 0.9203 0.9102 0.8996 0.8882
975.000000 0.8751 0.8548 0.8428 0.8311 0.8234
970.000000 0.8217 0.8202 0.8186 0.8186 0.8187
965.000000 0.8157 0.8090 0.8011 0.7915 0.7796
960.000000 0.7704 0.7625 0.7548 0.7471 0.7412
955.000000 0.7353 0.7301 0.7254 0.7208 0.7158
950.000000 0.7135 0.7138 0.7139 0.7134 0.7128
945.000000 0.7086 0.6895 0.6330 0.5758 0.5186
940.000000 0.4612 0.4041 0.3468 0.2968 0.2679
935.000000 0.2119 0.1921 0.1758 0.1640 0.1603
930.000000 0.1584 0.1570 0.1571 0.1572 0.1583
925.000000 0.1609 0.1675 0.1799 0.1973 0.2134
920.000000 0.2754 0.3542 0.4331 0.5119 0.5908
915.000000 0.6736 0.7011 0.7288 0.7564 0.7840
910.000000 0.8115 0.8392 0.8668 0.8944 0.9062
905.000000 0.9128 0.9194 0.9236 0.9263 0.9277
900.000000 0.9277 0.9275 0.9271 0.9268 0.9266
895.000000 0.9265 0.9265 0.9266 0.9289 0.9318
890.000000 0.9348 0.9377 0.9406 0.9436 0.9467
885.000000 0.9499 0.9530 0.9562 0.9593 0.9624
880.000000 0.9654 0.9683 0.9712 0.9742 0.9771
875.000000 0.9799 0.9824 0.9849 0.9874 0.9889
870.000000 0.9901 0.9913 0.9924 0.9934 0.9941
865.000000 0.9949 0.9955 0.9955 0.9954 0.9954
860.000000 0.9954 0.9948 0.9943 0.9937 0.9927
855.000000 0.9917 0.9907 0.9897 0.9875 0.9851
850.000000 0.9827 0.9803 0.9771 0.9727 0.9684
845.000000 0.9625 0.9553 0.9482 0.9402 0.9315
840.000000 0.9227 0.9125 0.9018 0.8883 0.8621
835.000000 0.8218 0.8047 0.7883 0.7682 0.7480
830.000000 0.7278 0.7078 0.6876 0.6675 0.6474
825.000000 0.6273 0.6183 0.6140 0.6102 0.6133
820.000000 0.6152 0.6210 0.6289 0.6386 0.6495
815.000000 0.6603 0.6754 0.6980 0.7287 0.7541
810.000000 0.7785 0.8028 0.8273 0.8517 0.8761
805.000000 0.9005 0.9248 0.9353 0.9437 0.9527
800.000000 0.9605 0.9674 0.9718 0.9760 0.9794
795.000000 0.9825 0.9858 0.9880 0.9896 0.9911
790.000000 0.9921 0.9934 0.9945 0.9950 0.9956
785.000000 0.9961 0.9966 0.9970 0.9971 0.9974
780.000000 0.9975 0.9978 0.9980 0.9982 0.9984
775.000000 0.9985 0.9986 0.9987 0.9988 0.9989
770.000000 0.9990 0.9991 0.9992 0.9993 0.9993
765.000000 0.9994 0.9994 0.9994 0.9994 0.9992
760.000000 0.9990 0.9989 0.9986 0.9981 0.9975
755.000000 0.9968 0.9956 0.9946 0.9936 0.9909
750.000000 0.9875 0.9846 0.9818 0.9792 0.9778
745.000000 0.9767 0.9767 0.9767 0.9770 0.9787
740.000000 0.9803 0.9810 0.9818 0.9824 0.9825
735.000000 0.9825 0.9818 0.9809 0.9778 0.9747
730.000000 0.9716 0.9685 0.9636 0.9584 0.9532
725.000000 0.9478 0.9417 0.9356 0.9291 0.9178
720.000000 0.9030 0.4949 0.3564 0.3614 0.4451
715.000000 0.5286 0.6122 0.6958 0.7793 0.8628
710.000000 0.9402 0.9555 0.9609 0.9620 0.9634
705.000000 0.9663 0.9699 0.9736 0.9768 0.9800
700.000000 0.9827 0.9846 0.9865 0.9865 0.9866
695.000000 0.9867 0.9867 0.9868 0.9860 0.9825
690.000000 0.9774 0.9566 0.9180 0.8794 0.8418
685.000000 0.8190 0.8097 0.8069 0.8071 0.8188
680.000000 0.8456 0.8724 0.8992 0.9260 0.9518
675.000000 0.9618 0.9717 0.9804 0.9873 0.9921
670.000000 0.9943 0.9962 0.9980 0.9984 0.9988
665.000000 0.9992 0.9996 1.0000 1.0002 1.0004
660.000000 1.0005 1.0007 1.0008 1.0037 1.0012
655.000000 1.0012 1.0012 1.0012 1.0012 1.0012
650.000000 1.0012 1.0012 1.0011 1.0009 1.0008
645.000000 1.0007 1.0005 1.0004 1.0003 1.0001
640.000000 1.0000 0.9998 0.9996 0.9992 0.9989
635.000000 0.9986 0.9982 0.9978 0.9975 0.9971
630.000000 0.9968 0.9966 0.9961 0.9954 0.9947
625.000000 0.9940 0.9933 0.9925 0.9918 0.9912
620.000000 0.9907 0.9903 0.9898 0.9894 0.9890
615.000000 0.9886 0.9882 0.9877 0.9873 0.9868
610.000000 0.9863 0.9858 0.9852 0.9847 0.9841
605.000000 0.9834 0.9825 0.9818 0.9812 0.9805
600.000000 0.9798 0.9790 0.9775 0.9759 0.9724
595.000000 0.9656 0.9568 0.9478 0.9390 0.9302
590.000000 0.9178 0.9175 0.9188 0.9225 0.9301
585.000000 0.9370 0.9436 0.9487 0.9536 0.9584
580.000000 0.9605 0.9616 0.9621 0.9628 0.9636
575.000000 0.9639 0.9630 0.9606 0.9555 0.9487
570.000000 0.9362 0.9112 0.8862 0.8612 0.8570
565.000000 0.8557 0.8553 0.8568 0.8642 0.8735
560.000000 0.8821 0.8902 0.8967 0.9008 0.9033
555.000000 0.9047 0.9057 0.9068 0.9078 0.9089
550.000000 0.9099 0.9108 0.9117 0.9125 0.9135
545.000000 0.9144 0.9153 0.9161 0.9170 0.9178
540.000000 0.9189 0.9199 0.9208 0.9218 0.9228
535.000000 0.9238 0.9247 0.9258 0.9270 0.9281
530.000000 0.9292 0.9303 0.9314 0.9324 0.9331
525.000000 0.9339 0.9347 0.9354 0.9361 0.9364
520.000000 0.9367 0.9368 0.9371 0.9375 0.9378
515.000000 0.9378 0.9378 0.9378 0.9375 0.9374
510.000000 0.9371 0.9370 0.9368 0.9367 0.9364
505.000000 0.9361 0.9359 0.9356 0.9338 0.9351
500.000000 0.9349 0.9346 0.9341 0.9335 0.9330
495.000000 0.9325 0.9318 0.9314 0.9307 0.9300
490.000000 0.9294 0.9287 0.9280 0.9273 0.9263
485.000000 0.9251 0.9240 0.9228 0.9197 0.9165
480.000000 0.9135 0.9104 0.9075 0.9054 0.9031
475.000000 0.9008 0.8996 0.8989 0.8983 0.8978
470.000000 0.8978 0.8977 0.8975 0.8975 0.8974
465.000000 0.8970 0.8966 0.8962 0.8958 0.8954
460.000000 0.8951 0.8949 0.8946 0.8944 0.8942
455.000000 0.8940 0.8938 0.8934
##END=
