##TITLE=ANILINE, 4-TERT-BUTYL-
##JCAMP-DX=4.24
##DATA TYPE=INFRARED SPECTRUM
##CLASS=COBLENTZ
##ORIGIN=MONSANTO (J. FREEMAN)
##OWNER=COBLENTZ SOCIETY
Collection (C) 2018 copyright by the U.S. Secretary of Commerce
on behalf of the United States of America. All rights reserved.
##DATE=1958/10/13
##NAMES=4-tert-butylphenylamine
4-tert-butylaniline
##CAS REGISTRY NO=769-92-6
##MOLFORM=C10 H15 N
##BP=120 C
##SOURCE REFERENCE=COBLENTZ NO. 9264
##$NIST SOURCE=COBLENTZ
##$NIST IMAGE=cob9264
##SPECTROMETER/DATA SYSTEM=BECKMAN IR-4 (HYBRID PRISM-GRATING)
##INSTRUMENT PARAMETERS=NaCl PRISM
##STATE=LIQUID (NEAT)
##PATH LENGTH=CAPILLARY
$$ SEE SPECTRUM NO. 8460 FOR 2-16 MICRON REGION
##SAMPLING PROCEDURE=TRANSMISSION
##RESOLUTION=4
##DATA PROCESSING=DIGITIZED BY NIST FROM HARD COPY
##XUNITS=MICROMETERS
##YUNITS=TRANSMITTANCE
##XFACTOR=1.000000
##YFACTOR=1
##DELTAX=000.006166
##FIRSTX=9.995
##LASTX=23.0297
##FIRSTY=0.828
##MAXX=23.0297
##MINX=9.995
##MAXY=0.958
##MINY=0.069
##NPOINTS=2115
##XYDATA=(X++(Y..Y))
9.995000 0.8280 0.8280 0.8280 0.8270 0.8270
10.025844 0.8270 0.8260 0.8260 0.8240 0.8230
10.057000 0.8220 0.8210 0.8190 0.8180 0.8170
10.087844 0.8160 0.8160 0.8180 0.8240 0.8320
10.118000 0.8430 0.8560 0.8710 0.8850 0.9010
10.148844 0.9170 0.9300 0.9410 0.9500 0.9530
10.180000 0.9540 0.9560 0.9560 0.9560 0.9570
10.210844 0.9570 0.9580 0.9580 0.9580 0.9580
10.242000 0.9580 0.9580 0.9580 0.9570 0.9570
10.272844 0.9570 0.9570 0.9570 0.9560 0.9560
10.303000 0.9560 0.9560 0.9540 0.9540 0.9540
10.333844 0.9540 0.9540 0.9530 0.9530 0.9530
10.365000 0.9530 0.9520 0.9520 0.9520 0.9520
10.395844 0.9510 0.9510 0.9510 0.9510 0.9510
10.427000 0.9500 0.9500 0.9500 0.9500 0.9500
10.457844 0.9480 0.9480 0.9480 0.9480 0.9470
10.488000 0.9470 0.9460 0.9460 0.9460 0.9450
10.518844 0.9450 0.9450 0.9450 0.9420 0.9420
10.550000 0.9410 0.9410 0.9400 0.9400 0.9390
10.580844 0.9390 0.9370 0.9370 0.9360 0.9360
10.612000 0.9350 0.9340 0.9330 0.9310 0.9300
10.642844 0.9290 0.9280 0.9270 0.9250 0.9240
10.673000 0.9230 0.9220 0.9190 0.9180 0.9180
10.703844 0.9170 0.9170 0.9160 0.9160 0.9140
10.735000 0.9140 0.9130 0.9130 0.9120 0.9110
10.765844 0.9090 0.9080 0.9080 0.9070 0.9060
10.797000 0.9060 0.9050 0.9030 0.9020 0.9020
10.827844 0.9010 0.9000 0.8990 0.8960 0.8960
10.858000 0.8950 0.8950 0.8940 0.8910 0.8900
10.888844 0.8900 0.8880 0.8880 0.8880 0.8860
10.920000 0.8860 0.8850 0.8850 0.8850 0.8840
10.950844 0.8840 0.8840 0.8830 0.8830 0.8830
10.982000 0.8830 0.8830 0.8830 0.8800 0.8800
11.012844 0.8800 0.8800 0.8800 0.8800 0.8800
11.043000 0.8800 0.8800 0.8810 0.8810 0.8810
11.073844 0.8830 0.8830 0.8850 0.8880 0.8890
11.105000 0.8920 0.8950 0.8970 0.8990 0.9020
11.135844 0.9060 0.9080 0.9090 0.9110 0.9140
11.166000 0.9140 0.9160 0.9160 0.9170 0.9170
11.196844 0.9170 0.9170 0.9170 0.9170 0.9160
11.228000 0.9140 0.9140 0.9130 0.9120 0.9110
11.258844 0.9110 0.9090 0.9080 0.9070 0.9060
11.290000 0.9050 0.9030 0.9020 0.9020 0.9010
11.320844 0.8990 0.8970 0.8970 0.8960 0.8950
11.351000 0.8940 0.8910 0.8900 0.8900 0.8850
11.381844 0.8840 0.8840 0.8830 0.8800 0.8800
11.413000 0.8770 0.8740 0.8730 0.8720 0.8710
11.443844 0.8710 0.8690 0.8630 0.8630 0.8620
11.475000 0.8610 0.8560 0.8550 0.8540 0.8510
11.505844 0.8500 0.8450 0.8430 0.8410 0.8400
11.536000 0.8400 0.8350 0.8340 0.8330 0.8300
11.566844 0.8270 0.8230 0.8220 0.8210 0.8190
11.598000 0.8130 0.8110 0.8090 0.8050 0.8040
11.628844 0.8020 0.8010 0.7940 0.7900 0.7850
11.660000 0.7830 0.7810 0.7780 0.7720 0.7710
11.690844 0.7660 0.7610 0.7530 0.7510 0.7500
11.721000 0.7430 0.7390 0.7330 0.7290 0.7230
11.751844 0.7220 0.7150 0.7110 0.7040 0.7010
11.783000 0.7000 0.6920 0.6830 0.6810 0.6760
11.813844 0.6720 0.6640 0.6600 0.6500 0.6430
11.845000 0.6390 0.6310 0.6220 0.6150 0.6100
11.875844 0.6050 0.6020 0.6000 0.5940 0.5900
11.906000 0.5870 0.5820 0.5790 0.5740 0.5710
11.936844 0.5700 0.5630 0.5600 0.5540 0.5490
11.968000 0.5420 0.5380 0.5290 0.5180 0.5080
11.998844 0.4970 0.4840 0.4620 0.4470 0.4300
12.030000 0.4170 0.4050 0.3890 0.3690 0.3600
12.060844 0.3490 0.3280 0.3100 0.2990 0.2770
12.091000 0.2600 0.2490 0.2320 0.2110 0.1990
12.121844 0.1830 0.1710 0.1590 0.1470 0.1370
12.153000 0.1260 0.1190 0.1100 0.1050 0.1000
12.183844 0.0880 0.0860 0.0830 0.0820 0.0810
12.215000 0.0800 0.0790 0.0790 0.0790 0.0790
12.245844 0.0800 0.0810 0.0820 0.0850 0.0860
12.276000 0.0880 0.0910 0.0920 0.0940 0.0970
12.306844 0.0980 0.0990 0.1070 0.1160 0.1220
12.338000 0.1280 0.1470 0.1560 0.1690 0.1820
12.368844 0.1990 0.2080 0.2270 0.2380 0.2500
12.400000 0.2680 0.2830 0.3090 0.3270 0.3340
12.430844 0.3490 0.3580 0.3790 0.4000 0.4090
12.461000 0.4230 0.4390 0.4480 0.4580 0.4700
12.491844 0.4930 0.5290 0.5510 0.5710 0.5800
12.523000 0.5860 0.6000 0.6110 0.6250 0.6350
12.553844 0.6440 0.6610 0.6720 0.6820 0.6920
12.585000 0.7010 0.7030 0.7090 0.7110 0.7150
12.615844 0.7180 0.7220 0.7250 0.7290 0.7330
12.646000 0.7360 0.7370 0.7390 0.7400 0.7400
12.676844 0.7430 0.7430 0.7420 0.7420 0.7400
12.708000 0.7400 0.7390 0.7380 0.7380 0.7370
12.738844 0.7370 0.7340 0.7340 0.7330 0.7320
12.770000 0.7310 0.7290 0.7280 0.7270 0.7260
12.800844 0.7260 0.7250 0.7250 0.7230 0.7230
12.831000 0.7230 0.7220 0.7210 0.7180 0.7170
12.861844 0.7160 0.7140 0.7110 0.7090 0.7080
12.893000 0.7080 0.7060 0.7050 0.7040 0.7030
12.923844 0.7010 0.7010 0.7000 0.6990 0.6980
12.955000 0.6970 0.6950 0.6940 0.6940 0.6900
12.985844 0.6890 0.6880 0.6870 0.6840 0.6830
13.016000 0.6820 0.6810 0.6780 0.6750 0.6730
13.046844 0.6720 0.6710 0.6690 0.6660 0.6650
13.078000 0.6630 0.6610 0.6600 0.6560 0.6550
13.108844 0.6540 0.6540 0.6530 0.6530 0.6520
13.140000 0.6520 0.6500 0.6470 0.6440 0.6430
13.170844 0.6420 0.6410 0.6380 0.6370 0.6360
13.201000 0.6350 0.6330 0.6320 0.6310 0.6300
13.231844 0.6270 0.6250 0.6250 0.6240 0.6210
13.263000 0.6200 0.6190 0.6190 0.6180 0.6160
13.293844 0.6150 0.6140 0.6130 0.6100 0.6100
13.325000 0.6090 0.6090 0.6050 0.6030 0.6020
13.355844 0.6020 0.6000 0.5990 0.5970 0.5960
13.386000 0.5930 0.5920 0.5910 0.5880 0.5880
13.416844 0.5870 0.5860 0.5850 0.5850 0.5820
13.448000 0.5800 0.5790 0.5790 0.5770 0.5770
13.478844 0.5760 0.5750 0.5740 0.5720 0.5710
13.510000 0.5700 0.5690 0.5690 0.5680 0.5660
13.540844 0.5650 0.5640 0.5630 0.5620 0.5600
13.571000 0.5600 0.5590 0.5590 0.5580 0.5580
13.601844 0.5570 0.5570 0.5550 0.5540 0.5540
13.633000 0.5540 0.5540 0.5540 0.5540 0.5530
13.663844 0.5530 0.5530 0.5530 0.5530 0.5530
13.695000 0.5530 0.5540 0.5540 0.5540 0.5550
13.725844 0.5550 0.5550 0.5550 0.5550 0.5570
13.756000 0.5570 0.5570 0.5590 0.5600 0.5620
13.786844 0.5640 0.5660 0.5710 0.5750 0.5790
13.818000 0.5820 0.5870 0.5970 0.6030 0.6110
13.848844 0.6140 0.6240 0.6320 0.6350 0.6380
13.879000 0.6390 0.6410 0.6410 0.6410 0.6410
13.909844 0.6410 0.6390 0.6380 0.6370 0.6360
13.941000 0.6320 0.6270 0.6260 0.6240 0.6210
13.971844 0.6190 0.6160 0.6110 0.6050 0.5990
14.003000 0.5970 0.5920 0.5910 0.5850 0.5820
14.033844 0.5790 0.5740 0.5740 0.5720 0.5720
14.064000 0.5720 0.5710 0.5710 0.5700 0.5660
14.094844 0.5640 0.5620 0.5620 0.5620 0.5600
14.126000 0.5580 0.5570 0.5540 0.5530 0.5520
14.156844 0.5520 0.5520 0.5510 0.5490 0.5490
14.188000 0.5480 0.5450 0.5450 0.5450 0.5430
14.218844 0.5420 0.5410 0.5410 0.5410 0.5410
14.249000 0.5400 0.5400 0.5380 0.5370 0.5360
14.279844 0.5360 0.5360 0.5340 0.5340 0.5340
14.311000 0.5340 0.5340 0.5340 0.5340 0.5340
14.341844 0.5340 0.5340 0.5340 0.5320 0.5320
14.373000 0.5320 0.5320 0.5320 0.5320 0.5320
14.403844 0.5320 0.5320 0.5320 0.5320 0.5320
14.434000 0.5320 0.5340 0.5340 0.5340 0.5340
14.464844 0.5340 0.5340 0.5340 0.5340 0.5350
14.496000 0.5350 0.5350 0.5350 0.5360 0.5360
14.526844 0.5360 0.5360 0.5360 0.5360 0.5350
14.558000 0.5350 0.5350 0.5340 0.5340 0.5340
14.588844 0.5340 0.5350 0.5350 0.5360 0.5360
14.619000 0.5360 0.5370 0.5370 0.5370 0.5380
14.649844 0.5380 0.5400 0.5410 0.5410 0.5420
14.681000 0.5420 0.5430 0.5450 0.5450 0.5460
14.711844 0.5460 0.5470 0.5480 0.5490 0.5510
14.743000 0.5520 0.5520 0.5530 0.5530 0.5550
14.773844 0.5570 0.5570 0.5570 0.5570 0.5580
14.804000 0.5590 0.5590 0.5590 0.5600 0.5620
14.834844 0.5630 0.5630 0.5640 0.5650 0.5660
14.866000 0.5680 0.5700 0.5720 0.5720 0.5740
14.896844 0.5740 0.5750 0.5760 0.5770 0.5770
14.928000 0.5790 0.5800 0.5810 0.5820 0.5820
14.958844 0.5830 0.5850 0.5860 0.5870 0.5870
14.989000 0.5870 0.5880 0.5880 0.5880 0.5880
15.019844 0.5900 0.5900 0.5900 0.5900 0.5910
15.051000 0.5920 0.5920 0.5930 0.5940 0.5940
15.081844 0.5960 0.5960 0.5960 0.5970 0.5970
15.113000 0.5980 0.5990 0.5990 0.5980 0.5970
15.143844 0.5970 0.5960 0.5940 0.5920 0.5880
15.174000 0.5810 0.5740 0.5640 0.5550 0.5490
15.204844 0.5410 0.5320 0.5300 0.5230 0.5180
15.236000 0.5080 0.5010 0.5000 0.4840 0.4790
15.266844 0.4730 0.4690 0.4680 0.4580 0.4510
15.298000 0.4480 0.4410 0.4400 0.4360 0.4350
15.328844 0.4330 0.4310 0.4310 0.4300 0.4290
15.359000 0.4280 0.4270 0.4270 0.4270 0.4270
15.389844 0.4270 0.4250 0.4250 0.4250 0.4250
15.421000 0.4270 0.4270 0.4270 0.4280 0.4280
15.451844 0.4280 0.4290 0.4290 0.4290 0.4290
15.483000 0.4300 0.4300 0.4310 0.4310 0.4310
15.513844 0.4310 0.4310 0.4310 0.4330 0.4330
15.544000 0.4330 0.4330 0.4340 0.4340 0.4340
15.574844 0.4350 0.4350 0.4350 0.4360 0.4360
15.606000 0.4360 0.4370 0.4370 0.4370 0.4370
15.636844 0.4390 0.4390 0.4410 0.4420 0.4440
15.668000 0.4450 0.4450 0.4460 0.4460 0.4480
15.698844 0.4500 0.4500 0.4500 0.4510 0.4510
15.729000 0.4520 0.4540 0.4560 0.4580 0.4580
15.759844 0.4590 0.4590 0.4610 0.4610 0.4610
15.791000 0.4610 0.4610 0.4610 0.4610 0.4610
15.821844 0.4610 0.4620 0.4620 0.4630 0.4640
15.853000 0.4650 0.4670 0.4670 0.4670 0.4680
15.883844 0.4690 0.4700 0.4720 0.4730 0.4740
15.914000 0.4760 0.4800 0.4810 0.4820 0.4820
15.944844 0.4820 0.4820 0.4820 0.4840 0.4840
15.976000 0.4850 0.4850 0.4850 0.4850 0.4850
16.006844 0.4850 0.4850 0.4850 0.4850 0.4850
16.038000 0.4860 0.4860 0.4860 0.4860 0.4860
16.068844 0.4870 0.4870 0.4900 0.4920 0.4930
16.099000 0.4930 0.4950 0.4950 0.4960 0.4960
16.129844 0.4970 0.4970 0.4980 0.4980 0.5000
16.161000 0.5000 0.5010 0.5010 0.5010 0.5010
16.191844 0.5020 0.5020 0.5020 0.5020 0.5030
16.223000 0.5030 0.5030 0.5040 0.5040 0.5060
16.253844 0.5060 0.5070 0.5070 0.5070 0.5080
16.284000 0.5090 0.5100 0.5120 0.5150 0.5180
16.314844 0.5180 0.5190 0.5200 0.5200 0.5200
16.346000 0.5210 0.5210 0.5230 0.5230 0.5230
16.376844 0.5230 0.5230 0.5230 0.5230 0.5230
16.408000 0.5230 0.5230 0.5230 0.5230 0.5230
16.438844 0.5230 0.5230 0.5230 0.5240 0.5250
16.469000 0.5250 0.5250 0.5250 0.5260 0.5270
16.499844 0.5290 0.5290 0.5300 0.5300 0.5300
16.531000 0.5310 0.5320 0.5320 0.5350 0.5360
16.561844 0.5360 0.5360 0.5370 0.5370 0.5380
16.592000 0.5380 0.5400 0.5400 0.5400 0.5410
16.622844 0.5410 0.5420 0.5420 0.5420 0.5420
16.654000 0.5430 0.5430 0.5430 0.5450 0.5450
16.684844 0.5450 0.5450 0.5450 0.5450 0.5450
16.716000 0.5450 0.5450 0.5450 0.5450 0.5450
16.746844 0.5450 0.5470 0.5490 0.5510 0.5520
16.777000 0.5520 0.5520 0.5540 0.5580 0.5590
16.807844 0.5600 0.5600 0.5600 0.5600 0.5620
16.839000 0.5620 0.5630 0.5640 0.5650 0.5650
16.869844 0.5660 0.5650 0.5650 0.5650 0.5660
16.901000 0.5660 0.5660 0.5660 0.5680 0.5680
16.931844 0.5690 0.5690 0.5700 0.5700 0.5710
16.962000 0.5710 0.5710 0.5720 0.5720 0.5750
16.992844 0.5760 0.5770 0.5790 0.5810 0.5820
17.024000 0.5820 0.5820 0.5820 0.5820 0.5820
17.054844 0.5820 0.5820 0.5820 0.5830 0.5850
17.086000 0.5850 0.5850 0.5850 0.5860 0.5860
17.116844 0.5860 0.5860 0.5870 0.5880 0.5880
17.147000 0.5900 0.5900 0.5900 0.5910 0.5930
17.177844 0.5940 0.5940 0.5960 0.5960 0.5960
17.209000 0.5970 0.5970 0.5980 0.5980 0.5980
17.239844 0.5980 0.5990 0.5990 0.6000 0.6000
17.271000 0.6000 0.6020 0.6020 0.6030 0.6030
17.301844 0.6040 0.6040 0.6040 0.6050 0.6070
17.332000 0.6090 0.6100 0.6110 0.6130 0.6140
17.362844 0.6150 0.6150 0.6150 0.6160 0.6160
17.394000 0.6160 0.6160 0.6160 0.6160 0.6160
17.424844 0.6160 0.6180 0.6190 0.6190 0.6200
17.456000 0.6210 0.6210 0.6220 0.6240 0.6250
17.486844 0.6250 0.6260 0.6260 0.6260 0.6270
17.517000 0.6270 0.6270 0.6280 0.6280 0.6300
17.547844 0.6300 0.6300 0.6300 0.6300 0.6300
17.579000 0.6310 0.6310 0.6320 0.6320 0.6330
17.609844 0.6330 0.6330 0.6330 0.6330 0.6320
17.641000 0.6320 0.6320 0.6310 0.6310 0.6310
17.671844 0.6300 0.6300 0.6280 0.6270 0.6270
17.702000 0.6260 0.6250 0.6250 0.6250 0.6250
17.732844 0.6250 0.6240 0.6220 0.6210 0.6200
17.764000 0.6190 0.6190 0.6180 0.6150 0.6140
17.794844 0.6130 0.6110 0.6100 0.6080 0.6050
17.826000 0.6040 0.6030 0.5990 0.5980 0.5970
17.856844 0.5970 0.5960 0.5920 0.5900 0.5900
17.887000 0.5830 0.5790 0.5740 0.5710 0.5700
17.917844 0.5650 0.5600 0.5540 0.5510 0.5480
17.949000 0.5430 0.5380 0.5350 0.5300 0.5250
17.979844 0.5140 0.5030 0.4920 0.4910 0.4850
18.011000 0.4760 0.4670 0.4580 0.4480 0.4470
18.041844 0.4300 0.4200 0.4110 0.4090 0.4080
18.072000 0.3910 0.3800 0.3710 0.3600 0.3400
18.102844 0.3280 0.3160 0.3010 0.2900 0.2790
18.134000 0.2680 0.2590 0.2490 0.2380 0.2280
18.164844 0.2170 0.2080 0.1990 0.1900 0.1830
18.196000 0.1610 0.1580 0.1490 0.1430 0.1370
18.226844 0.1320 0.1270 0.1190 0.1100 0.1080
18.257000 0.1030 0.0910 0.0860 0.0850 0.0810
18.287844 0.0800 0.0770 0.0760 0.0740 0.0740
18.319000 0.0720 0.0710 0.0700 0.0700 0.0690
18.349844 0.0690 0.0690 0.0690 0.0690 0.0700
18.381000 0.0700 0.0710 0.0740 0.0740 0.0760
18.411844 0.0770 0.0800 0.0820 0.0830 0.0850
18.442000 0.0860 0.0880 0.0920 0.0940 0.0980
18.472844 0.1000 0.1020 0.1040 0.1080 0.1080
18.504000 0.1130 0.1190 0.1250 0.1330 0.1410
18.534844 0.1430 0.1490 0.1580 0.1670 0.1770
18.566000 0.1820 0.1890 0.1990 0.2000 0.2030
18.596844 0.2170 0.2280 0.2390 0.2400 0.2490
18.627000 0.2530 0.2590 0.2660 0.2710 0.2780
18.657844 0.2830 0.2900 0.3000 0.3020 0.3050
18.689000 0.3150 0.3220 0.3300 0.3380 0.3390
18.719844 0.3410 0.3500 0.3540 0.3580 0.3610
18.751000 0.3680 0.3720 0.3790 0.3810 0.3840
18.781844 0.3910 0.3970 0.4030 0.4110 0.4220
18.812000 0.4220 0.4240 0.4250 0.4290 0.4330
18.842844 0.4360 0.4390 0.4410 0.4450 0.4480
18.874000 0.4500 0.4510 0.4530 0.4560 0.4610
18.904844 0.4640 0.4680 0.4720 0.4730 0.4790
18.936000 0.4820 0.4860 0.4910 0.4930 0.4960
18.966844 0.4970 0.4980 0.5010 0.5020 0.5040
18.997000 0.5070 0.5090 0.5120 0.5150 0.5180
19.027844 0.5210 0.5230 0.5250 0.5310 0.5340
19.059000 0.5350 0.5370 0.5380 0.5410 0.5420
19.089844 0.5460 0.5510 0.5540 0.5570 0.5590
19.121000 0.5600 0.5620 0.5640 0.5650 0.5660
19.151844 0.5690 0.5710 0.5720 0.5750 0.5770
19.182000 0.5770 0.5790 0.5790 0.5790 0.5800
19.212844 0.5800 0.5800 0.5810 0.5820 0.5830
19.244000 0.5850 0.5850 0.5860 0.5860 0.5870
19.274844 0.5900 0.5900 0.5910 0.5920 0.5940
19.305000 0.6000 0.6030 0.6040 0.6040 0.6050
19.335844 0.6070 0.6100 0.6110 0.6130 0.6140
19.367000 0.6150 0.6180 0.6200 0.6220 0.6250
19.397844 0.6270 0.6310 0.6330 0.6350 0.6350
19.429000 0.6350 0.6360 0.6360 0.6370 0.6390
19.459844 0.6420 0.6450 0.6450 0.6470 0.6480
19.490000 0.6480 0.6490 0.6490 0.6490 0.6490
19.520844 0.6480 0.6470 0.6450 0.6450 0.6440
19.552000 0.6430 0.6420 0.6410 0.6390 0.6380
19.582844 0.6370 0.6360 0.6350 0.6330 0.6330
19.614000 0.6320 0.6320 0.6310 0.6280 0.6270
19.644844 0.6250 0.6240 0.6220 0.6200 0.6180
19.675000 0.6150 0.6140 0.6130 0.6110 0.6100
19.705844 0.6090 0.6090 0.6070 0.6050 0.6040
19.737000 0.6030 0.6000 0.5960 0.5930 0.5910
19.767844 0.5870 0.5860 0.5850 0.5820 0.5810
19.799000 0.5790 0.5770 0.5760 0.5760 0.5750
19.829844 0.5740 0.5740 0.5720 0.5720 0.5720
19.860000 0.5720 0.5720 0.5720 0.5740 0.5750
19.890844 0.5790 0.5790 0.5800 0.5810 0.5820
19.922000 0.5850 0.5910 0.5940 0.6000 0.6020
19.952844 0.6030 0.6050 0.6090 0.6130 0.6150
19.984000 0.6190 0.6210 0.6240 0.6280 0.6350
20.014844 0.6370 0.6390 0.6390 0.6410 0.6430
20.045000 0.6450 0.6450 0.6480 0.6490 0.6490
20.075844 0.6500 0.6520 0.6520 0.6530 0.6530
20.107000 0.6540 0.6550 0.6550 0.6560 0.6580
20.137844 0.6590 0.6600 0.6610 0.6630 0.6640
20.169000 0.6640 0.6640 0.6650 0.6660 0.6670
20.199844 0.6690 0.6720 0.6730 0.6730 0.6730
20.230000 0.6750 0.6750 0.6750 0.6750 0.6760
20.260844 0.6760 0.6760 0.6770 0.6770 0.6770
20.292000 0.6780 0.6780 0.6780 0.6810 0.6830
20.322844 0.6830 0.6860 0.6870 0.6890 0.6930
20.354000 0.6950 0.6980 0.7000 0.7010 0.7030
20.384844 0.7040 0.7050 0.7050 0.7060 0.7080
20.415000 0.7060 0.7080 0.7080 0.7090 0.7090
20.445844 0.7090 0.7090 0.7090 0.7090 0.7090
20.477000 0.7090 0.7090 0.7080 0.7080 0.7060
20.507844 0.7060 0.7060 0.7060 0.7060 0.7060
20.539000 0.7060 0.7060 0.7060 0.7060 0.7060
20.569844 0.7060 0.7060 0.7080 0.7090 0.7090
20.600000 0.7100 0.7100 0.7110 0.7110 0.7140
20.630844 0.7150 0.7160 0.7170 0.7180 0.7200
20.662000 0.7220 0.7230 0.7250 0.7260 0.7270
20.692844 0.7270 0.7280 0.7310 0.7330 0.7330
20.724000 0.7340 0.7360 0.7360 0.7370 0.7370
20.754844 0.7370 0.7380 0.7380 0.7380 0.7380
20.785000 0.7380 0.7390 0.7390 0.7390 0.7390
20.815844 0.7390 0.7380 0.7370 0.7370 0.7370
20.847000 0.7360 0.7340 0.7340 0.7340 0.7340
20.877844 0.7340 0.7330 0.7330 0.7320 0.7320
20.909000 0.7310 0.7310 0.7310 0.7310 0.7310
20.939844 0.7310 0.7310 0.7310 0.7310 0.7290
20.970000 0.7290 0.7290 0.7280 0.7280 0.7280
21.000844 0.7280 0.7280 0.7280 0.7280 0.7280
21.032000 0.7280 0.7280 0.7280 0.7280 0.7280
21.062844 0.7280 0.7280 0.7280 0.7280 0.7280
21.094000 0.7280 0.7290 0.7310 0.7310 0.7310
21.124844 0.7320 0.7320 0.7330 0.7330 0.7340
21.155000 0.7360 0.7380 0.7380 0.7390 0.7430
21.185844 0.7450 0.7460 0.7480 0.7530 0.7550
21.217000 0.7560 0.7560 0.7560 0.7570 0.7570
21.247844 0.7590 0.7590 0.7590 0.7600 0.7600
21.279000 0.7600 0.7610 0.7610 0.7600 0.7590
21.309844 0.7590 0.7570 0.7570 0.7570 0.7570
21.340000 0.7560 0.7560 0.7550 0.7550 0.7540
21.370844 0.7530 0.7530 0.7540 0.7540 0.7540
21.402000 0.7550 0.7560 0.7560 0.7560 0.7570
21.432844 0.7570 0.7570 0.7570 0.7590 0.7590
21.464000 0.7600 0.7600 0.7600 0.7590 0.7590
21.494844 0.7590 0.7590 0.7590 0.7590 0.7570
21.525000 0.7570 0.7560 0.7540 0.7530 0.7500
21.555844 0.7480 0.7460 0.7460 0.7450 0.7450
21.587000 0.7450 0.7440 0.7430 0.7420 0.7400
21.617844 0.7400 0.7390 0.7390 0.7390 0.7390
21.649000 0.7390 0.7400 0.7400 0.7400 0.7400
21.679844 0.7420 0.7420 0.7430 0.7430 0.7440
21.710000 0.7450 0.7450 0.7450 0.7450 0.7450
21.740844 0.7460 0.7460 0.7480 0.7480 0.7480
21.772000 0.7490 0.7500 0.7500 0.7500 0.7510
21.802844 0.7540 0.7550 0.7570 0.7590 0.7590
21.834000 0.7600 0.7610 0.7630 0.7660 0.7660
21.864844 0.7670 0.7680 0.7700 0.7700 0.7720
21.895000 0.7740 0.7760 0.7780 0.7780 0.7790
21.925844 0.7790 0.7810 0.7810 0.7810 0.7810
21.957000 0.7810 0.7810 0.7810 0.7810 0.7790
21.987844 0.7780 0.7770 0.7740 0.7730 0.7730
22.018000 0.7710 0.7700 0.7670 0.7590 0.7530
22.048844 0.7490 0.7450 0.7440 0.7430 0.7380
22.080000 0.7360 0.7340 0.7340 0.7340 0.7340
22.110844 0.7340 0.7330 0.7330 0.7330 0.7330
22.142000 0.7330 0.7330 0.7330 0.7330 0.7330
22.172844 0.7330 0.7330 0.7320 0.7320 0.7310
22.203000 0.7310 0.7290 0.7280 0.7270 0.7260
22.233844 0.7250 0.7230 0.7220 0.7210 0.7180
22.265000 0.7160 0.7100 0.7060 0.7050 0.7040
22.295844 0.7040 0.7030 0.7000 0.6950 0.6930
22.327000 0.6900 0.6890 0.6880 0.6870 0.6860
22.357844 0.6840 0.6830 0.6820 0.6820 0.6810
22.388000 0.6800 0.6800 0.6780 0.6770 0.6770
22.418844 0.6760 0.6750 0.6750 0.6730 0.6720
22.450000 0.6720 0.6710 0.6700 0.6700 0.6690
22.480844 0.6670 0.6670 0.6660 0.6650 0.6650
22.512000 0.6640 0.6640 0.6630 0.6600 0.6580
22.542844 0.6560 0.6550 0.6530 0.6530 0.6500
22.573000 0.6450 0.6440 0.6440 0.6430 0.6430
22.603844 0.6420 0.6420 0.6430 0.6430 0.6430
22.635000 0.6440 0.6440 0.6440 0.6440 0.6440
22.665844 0.6440 0.6440 0.6430 0.6420 0.6410
22.697000 0.6390 0.6370 0.6330 0.6310 0.6270
22.727844 0.6260 0.6240 0.6220 0.6210 0.6190
22.758000 0.6180 0.6150 0.6130 0.6130 0.6080
22.788844 0.6070 0.6040 0.6030 0.6000 0.6000
22.820000 0.5970 0.5960 0.5940 0.5930 0.5930
22.850844 0.5920 0.5920 0.5920 0.5920 0.5920
22.882000 0.5920 0.5910 0.5910 0.5910 0.5910
22.912844 0.5910 0.5910 0.5910 0.5910 0.5910
22.943000 0.5910 0.5910 0.5910 0.5920 0.5920
22.973844 0.5920 0.5920 0.5920 0.5930 0.5930
23.005000 0.5940 0.5940 0.5960 0.5960 0.5970
##END=
