##TITLE=CYCLOPENTADIENE, HEXACHLORO-
##JCAMP-DX=4.24
##DATA TYPE=INFRARED SPECTRUM
##CLASS=COBLENTZ III
##ORIGIN=PERKIN-ELMER
##OWNER=COBLENTZ SOCIETY
Collection (C) 2018 copyright by the U.S. Secretary of Commerce
on behalf of the United States of America. All rights reserved.
##DATE=1978/06/24
##NAMES=1,2,3,4,5,5-hexachloro-1,3-cyclopentadiene
##CAS REGISTRY NO=77-47-4
##MOLFORM=C5 Cl6
##SOURCE REFERENCE=COBLENTZ NO. 10295
##$NIST SOURCE=COBLENTZ
##$NIST IMAGE=cob10295
##SPECTROMETER/DATA SYSTEM=PERKIN-ELMER 283
##STATE=LIQUID (NEAT)
##PATH LENGTH=FILM, CsI WINDOW
$$ SEE SPECTRUM NO. 10042 FOR "SOLUTION" STATE
##SAMPLING PROCEDURE=TRANSMISSION
##RESOLUTION=4
##DATA PROCESSING=DIGITIZED BY NIST FROM HARD COPY (FROM TWO SEGMENTS)
##XUNITS=1/CM
##YUNITS=TRANSMITTANCE
##XFACTOR=1.000000
##YFACTOR=1
##DELTAX=0.974661
##FIRSTX=197.856
##LASTX=3997.09
##FIRSTY=0.596
##MAXX=3997.09
##MINX=197.856
##MAXY=0.976
##MINY=0.0470058
##NPOINTS=3899
##XYDATA=(X++(Y..Y))
197.856000 0.5960 0.6110 0.6210 0.6270 0.6360
202.729306 0.6470 0.6560 0.6580 0.6769 0.6959
207.602613 0.7130 0.7260 0.7370 0.7440 0.7490
212.475919 0.7500 0.7510 0.7510 0.7480 0.7480
217.349225 0.7500 0.7710 0.7950 0.8100 0.8160
222.222532 0.8190 0.8200 0.8200 0.8190 0.8190
227.095838 0.8190 0.8200 0.8220 0.8420 0.8600
231.969144 0.8610 0.8610 0.8600 0.8600 0.8600
236.842451 0.8610 0.8690 0.8750 0.8780 0.8820
241.715757 0.8830 0.8870 0.8900 0.8920 0.9209
246.589063 0.9320 0.9370 0.9400 0.9410 0.9430
251.462370 0.9440 0.9440 0.9450 0.9470 0.9490
256.335676 0.9490 0.9500 0.9500 0.9500 0.9500
261.208982 0.9500 0.9500 0.9500 0.9490 0.9490
266.082288 0.9480 0.9480 0.9480 0.9490 0.9530
270.955595 0.9540 0.9560 0.9580 0.9580 0.9570
275.828901 0.9570 0.9570 0.9560 0.9560 0.9570
280.702207 0.9580 0.9610 0.9620 0.9630 0.9650
285.575514 0.9660 0.9660 0.9630 0.9620 0.9610
290.448820 0.9610 0.9590 0.9580 0.9570 0.9580
295.322126 0.9620 0.9660 0.9680 0.9680 0.9670
300.195433 0.9660 0.9660 0.9650 0.9650 0.9660
305.068739 0.9670 0.9680 0.9680 0.9700 0.9700
309.942045 0.9710 0.9710 0.9710 0.9710 0.9710
314.815352 0.9710 0.9710 0.9710 0.9680 0.9680
319.688658 0.9700 0.9710 0.9710 0.9720 0.9720
324.561964 0.9720 0.9740 0.9740 0.9720 0.9710
329.435271 0.9710 0.9710 0.9710 0.9710 0.9710
334.308577 0.9710 0.9700 0.9700 0.9700 0.9680
339.181883 0.9680 0.9660 0.9650 0.9620 0.9590
344.055190 0.9580 0.9560 0.9490 0.9450 0.9410
348.928496 0.9370 0.9340 0.9230 0.9210 0.9210
353.801802 0.9220 0.9360 0.9410 0.9480 0.9590
358.675109 0.9620 0.9650 0.9650 0.9650 0.9650
363.548415 0.9650 0.9660 0.9660 0.9660 0.9670
368.421721 0.9680 0.9680 0.9710 0.9720 0.9720
373.295027 0.9740 0.9740 0.9740 0.9710 0.9700
378.168334 0.9700 0.9710 0.9710 0.9710 0.9710
383.041640 0.9700 0.9700 0.9700 0.9680 0.9670
387.914946 0.9660 0.9650 0.9630 0.9630 0.9650
392.788253 0.9660 0.9670 0.9680 0.9680 0.9680
397.661559 0.9680 0.9670 0.9650 0.9630 0.9630
402.534865 0.9620 0.9620 0.9620 0.9620 0.9620
407.408172 0.9620 0.9620 0.9610 0.9610 0.9610
412.281478 0.9590 0.9590 0.9590 0.9590 0.9590
417.154784 0.9610 0.9610 0.9620 0.9630 0.9650
422.028091 0.9670 0.9670 0.9680 0.9700 0.9700
426.901397 0.9700 0.9700 0.9700 0.9710 0.9720
431.774703 0.9720 0.9720 0.9720 0.9720 0.9720
436.648010 0.9710 0.9710 0.9710 0.9720 0.9720
441.521316 0.9720 0.9740 0.9740 0.9740 0.9740
446.394622 0.9740 0.9710 0.9710 0.9710 0.9720
451.267929 0.9740 0.9750 0.9760 0.9760 0.9760
456.141235 0.9750 0.9750 0.9750 0.9740 0.9720
461.014541 0.9720 0.9720 0.9710 0.9710 0.9700
465.887848 0.9700 0.9700 0.9680 0.9680 0.9680
470.761154 0.9680 0.9680 0.9680 0.9680 0.9680
475.634460 0.9680 0.9680 0.9700 0.9700 0.9700
480.507766 0.9700 0.9700 0.9700 0.9700 0.9710
485.381073 0.9710 0.9710 0.9710 0.9710 0.9710
490.254379 0.9710 0.9710 0.9710 0.9710 0.9710
495.127685 0.9720 0.9720 0.9720 0.9720 0.9700
500.000992 0.9700 0.9680 0.9680 0.9680 0.9670
504.874298 0.9670 0.9670 0.9670 0.9670 0.9670
509.747604 0.9670 0.9670 0.9670 0.9660 0.9660
514.620911 0.9660 0.9660 0.9660 0.9660 0.9660
519.494217 0.9650 0.9650 0.9650 0.9630 0.9630
524.367523 0.9620 0.9620 0.9620 0.9610 0.9590
529.240830 0.9590 0.9580 0.9580 0.9570 0.9560
534.114136 0.9530 0.9500 0.9450 0.9360 0.9270
538.987442 0.9170 0.9060 0.8940 0.8690 0.8520
543.860749 0.8510 0.8520 0.8680 0.8810 0.9059
548.734055 0.9260 0.9390 0.9410 0.9440 0.9440
553.607361 0.9470 0.9480 0.9490 0.9490 0.9490
558.480668 0.9480 0.9480 0.9470 0.9470 0.9470
563.353974 0.9470 0.9480 0.9480 0.9490 0.9490
568.227280 0.9500 0.9500 0.9500 0.9520 0.9530
573.100587 0.9530 0.9540 0.9540 0.9540 0.9530
577.973893 0.9530 0.9530 0.9520 0.9500 0.9500
582.847199 0.9500 0.9490 0.9490 0.9490 0.9480
587.720505 0.9480 0.9490 0.9490 0.9490 0.9470
592.593812 0.9450 0.9440 0.9400 0.9370 0.9310
597.467118 0.9250 0.9190 0.9170 0.9160 0.9160
602.340424 0.9160 0.9160 0.9170 0.9170 0.9160
607.213731 0.9130 0.9100 0.9090 0.9090 0.9120
612.087037 0.9140 0.9140 0.9140 0.9140 0.9140
616.960343 0.9130 0.9120 0.9100 0.9100 0.9080
621.833650 0.9040 0.9010 0.9000 0.8960 0.8920
626.706956 0.8850 0.8770 0.8660 0.8560 0.8430
631.580262 0.8280 0.8011 0.7681 0.7411 0.7410
636.453569 0.7640 0.7720 0.7900 0.8170 0.8480
641.326875 0.8660 0.8790 0.8820 0.8820 0.8810
646.200181 0.8720 0.8590 0.8510 0.8480 0.8440
651.073488 0.8420 0.8350 0.8250 0.8061 0.7891
655.946794 0.7860 0.7820 0.7800 0.7790 0.7790
660.820100 0.7790 0.7760 0.7720 0.7550 0.7171
665.693407 0.6749 0.6379 0.5310 0.4500 0.3701
670.566713 0.3340 0.2911 0.2311 0.2001 0.1651
675.440019 0.1640 0.1650 0.1950 0.2710 0.5067
680.313326 0.5589 0.6249 0.6818 0.7229 0.7509
685.186632 0.7710 0.7890 0.7910 0.7910 0.7890
690.059938 0.7720 0.7600 0.7231 0.6801 0.6361
694.933244 0.5849 0.5270 0.4880 0.4480 0.3821
699.806551 0.3081 0.2501 0.2261 0.2230 0.2240
704.679857 0.2491 0.2851 0.3420 0.3940 0.4400
709.553163 0.5239 0.5590 0.5909 0.6209 0.6449
714.426470 0.6650 0.6830 0.7000 0.7150 0.7310
719.299776 0.7450 0.7570 0.7680 0.7800 0.7890
724.173082 0.7980 0.8060 0.8200 0.8300 0.8410
729.046389 0.8480 0.8560 0.8610 0.8660 0.8700
733.919695 0.8720 0.8730 0.8730 0.8730 0.8740
738.793001 0.8770 0.8780 0.8790 0.8750 0.8700
743.666308 0.8650 0.8560 0.8470 0.8370 0.8260
748.539614 0.8130 0.8100 0.8100 0.8110 0.8210
753.412920 0.8350 0.8420 0.8440 0.8460 0.8510
758.286227 0.8550 0.8550 0.8540 0.8540 0.8550
763.159533 0.8550 0.8570 0.8590 0.8590 0.8570
768.032839 0.8550 0.8520 0.8460 0.8370 0.8220
772.906146 0.8020 0.7890 0.7820 0.7810 0.7820
777.779452 0.7900 0.7900 0.7850 0.7750 0.7710
782.652758 0.7620 0.7410 0.7110 0.6560 0.6050
787.526065 0.5281 0.4921 0.4541 0.3732 0.3022
792.399371 0.2409 0.1910 0.1490 0.1160 0.0910
797.272677 0.0740 0.0640 0.0520 0.0510 0.0520
802.145983 0.0650 0.0760 0.0950 0.1211 0.3690
807.019290 0.4170 0.5189 0.5759 0.6249 0.6669
811.892596 0.7041 0.7360 0.7620 0.7820 0.8010
816.765902 0.8150 0.8280 0.8370 0.8440 0.8510
821.639209 0.8570 0.8630 0.8650 0.8660 0.8660
826.512515 0.8680 0.8680 0.8680 0.8690 0.8690
831.385821 0.8700 0.8720 0.8740 0.8770 0.8790
836.259128 0.8810 0.8820 0.8830 0.8850 0.8850
841.132434 0.8860 0.8860 0.8860 0.8850 0.8820
846.005740 0.8810 0.8780 0.8750 0.8610 0.8441
850.879047 0.8280 0.8040 0.7810 0.7580 0.7100
855.752353 0.7080 0.7090 0.7509 0.8368 0.8390
860.625659 0.8651 0.8960 0.9060 0.9100 0.9140
865.498966 0.9140 0.9170 0.9170 0.9190 0.9190
870.372272 0.9190 0.9190 0.9180 0.9170 0.9170
875.245578 0.9170 0.9170 0.9170 0.9170 0.9180
880.118885 0.9180 0.9210 0.9230 0.9250 0.9260
884.992191 0.9260 0.9260 0.9260 0.9250 0.9250
889.865497 0.9250 0.9230 0.9230 0.9230 0.9220
894.738804 0.9190 0.9170 0.9170 0.9170 0.9170
899.612110 0.9180 0.9190 0.9210 0.9230 0.9230
904.485416 0.9250 0.9250 0.9260 0.9260 0.9260
909.358722 0.9250 0.9210 0.9190 0.9170 0.9170
914.232029 0.9160 0.9160 0.9160 0.9130 0.9130
919.105335 0.9120 0.9100 0.9090 0.9030 0.9010
923.978641 0.8970 0.8920 0.8900 0.8880 0.8830
928.851948 0.8780 0.8720 0.8680 0.8640 0.8610
933.725254 0.8590 0.8570 0.8590 0.8600 0.8640
938.598560 0.8660 0.8700 0.8730 0.8770 0.8790
943.471867 0.8790 0.8790 0.8790 0.8780 0.8750
948.345173 0.8740 0.8720 0.8690 0.8650 0.8570
953.218479 0.8480 0.8280 0.7951 0.7750 0.7501
958.091786 0.7260 0.7010 0.7010 0.7170 0.7290
962.965092 0.7310 0.7989 0.8200 0.8220 0.8220
967.838398 0.7889 0.7670 0.7590 0.7440 0.7440
972.711705 0.7840 0.8020 0.8260 0.8679 0.8770
977.585011 0.8860 0.8910 0.8920 0.8920 0.8940
982.458317 0.8940 0.8920 0.8920 0.8920 0.8920
987.331624 0.8950 0.8960 0.8990 0.9000 0.9030
992.204930 0.9050 0.9060 0.9060 0.9050 0.9050
997.078236 0.9040 0.9030 0.9030 0.9010 0.8990
1001.951543 0.8970 0.8950 0.8950 0.8920 0.8910
1006.824849 0.8900 0.8870 0.8830 0.8790 0.8770
1011.698155 0.8730 0.8700 0.8650 0.8630 0.8460
1016.571461 0.8350 0.8300 0.8210 0.8110 0.8030
1021.444768 0.8020 0.8030 0.8110 0.8170 0.8260
1026.318074 0.8350 0.8370 0.8470 0.8520 0.8550
1031.191380 0.8550 0.8560 0.8590 0.8590 0.8610
1036.064687 0.8630 0.8640 0.8660 0.8700 0.8720
1040.937993 0.8730 0.8730 0.8730 0.8740 0.8790
1045.811299 0.8810 0.8820 0.8830 0.8830 0.8830
1050.684606 0.8830 0.8830 0.8820 0.8810 0.8790
1055.557912 0.8790 0.8790 0.8780 0.8780 0.8770
1060.431218 0.8770 0.8780 0.8790 0.8790 0.8790
1065.304525 0.8790 0.8810 0.8830 0.8830 0.8860
1070.177831 0.8900 0.8920 0.8920 0.8940 0.8940
1075.051137 0.8950 0.8950 0.8950 0.8920 0.8920
1079.924444 0.8920 0.8910 0.8880 0.8870 0.8860
1084.797750 0.8810 0.8790 0.8770 0.8740 0.8690
1089.671056 0.8630 0.8610 0.8600 0.8600 0.8590
1094.544363 0.8590 0.8600 0.8600 0.8650 0.8700
1099.417669 0.8750 0.8780 0.8790 0.8810 0.8820
1104.290975 0.8820 0.8810 0.8790 0.8770 0.8750
1109.164282 0.8730 0.8700 0.8650 0.8570 0.8500
1114.037588 0.8390 0.8260 0.8110 0.7930 0.7720
1118.910894 0.7570 0.7460 0.7390 0.7350 0.7320
1123.784200 0.7270 0.7170 0.6950 0.6570 0.6070
1128.657507 0.5410 0.5010 0.4611 0.3652 0.3071
1133.530813 0.2529 0.2059 0.1660 0.1640 0.1660
1138.404119 0.2040 0.2910 0.5138 0.5499 0.6049
1143.277426 0.6471 0.6920 0.7130 0.7350 0.7410
1148.150732 0.7640 0.7800 0.7860 0.7900 0.7880
1153.024038 0.7850 0.7800 0.7710 0.7620 0.7530
1157.897345 0.7420 0.7280 0.7260 0.7260 0.7290
1162.770651 0.7420 0.7550 0.7750 0.7800 0.7800
1167.643957 0.7770 0.7700 0.7630 0.7600 0.7580
1172.517264 0.7570 0.7550 0.7510 0.7460 0.7320
1177.390570 0.6950 0.6530 0.6111 0.5421 0.5211
1182.263876 0.5050 0.4880 0.4831 0.5140 0.5370
1187.137183 0.5820 0.6250 0.6660 0.7020 0.7349
1192.010489 0.7631 0.7850 0.8010 0.8100 0.8130
1196.883795 0.8150 0.8160 0.8120 0.7890 0.7710
1201.757102 0.7439 0.7169 0.6729 0.6400 0.6090
1206.630408 0.6020 0.6180 0.6530 0.6920 0.7140
1211.503714 0.7140 0.7130 0.7039 0.6710 0.6420
1216.377021 0.6000 0.5620 0.5290 0.4970 0.4232
1221.250327 0.3388 0.2669 0.2049 0.1530 0.1120
1226.123633 0.0820 0.0600 0.0500 0.0470 0.0500
1230.996939 0.2102 0.2702 0.3654 0.5641 0.6450
1235.870246 0.6930 0.7240 0.7410 0.7770 0.7970
1240.743552 0.8110 0.8160 0.8250 0.8330 0.8380
1245.616858 0.8410 0.8420 0.8460 0.8470 0.8510
1250.490165 0.8550 0.8600 0.8640 0.8690 0.8720
1255.363471 0.8780 0.8810 0.8820 0.8880 0.8900
1260.236777 0.8910 0.8910 0.8910 0.8920 0.8920
1265.110084 0.8920 0.8940 0.8950 0.8960 0.8960
1269.983390 0.8950 0.8940 0.8920 0.8910 0.8900
1274.856696 0.8900 0.8910 0.8920 0.8960 0.9000
1279.730003 0.9010 0.9030 0.9040 0.9060 0.9090
1284.603309 0.9090 0.9090 0.9090 0.9090 0.9090
1289.476615 0.9080 0.9080 0.9090 0.9090 0.9090
1294.349922 0.9080 0.9080 0.9080 0.9080 0.9080
1299.223228 0.9090 0.9090 0.9090 0.9080 0.9080
1304.096534 0.9080 0.9080 0.9080 0.9090 0.9100
1308.969841 0.9100 0.9100 0.9100 0.9120 0.9100
1313.843147 0.9100 0.9090 0.9090 0.9090 0.9090
1318.716453 0.9090 0.9090 0.9090 0.9100 0.9100
1323.589760 0.9100 0.9100 0.9080 0.9080 0.9060
1328.463066 0.9060 0.9060 0.9050 0.9040 0.9040
1333.336372 0.9040 0.9040 0.9030 0.9030 0.9030
1338.209678 0.9030 0.9030 0.9030 0.9010 0.9010
1343.082985 0.9010 0.9010 0.9010 0.9010 0.9010
1347.956291 0.9010 0.9010 0.9010 0.9010 0.9010
1352.829597 0.9010 0.9010 0.9010 0.9030 0.9030
1357.702904 0.9030 0.9030 0.9030 0.9030 0.9030
1362.576210 0.9040 0.9050 0.9050 0.9050 0.9050
1367.449516 0.9050 0.9050 0.9060 0.9060 0.9060
1372.322823 0.9060 0.9080 0.9080 0.9080 0.9080
1377.196129 0.9080 0.9090 0.9090 0.9090 0.9090
1382.069435 0.9080 0.9060 0.9060 0.9060 0.9040
1386.942742 0.9040 0.9030 0.9010 0.9000 0.8990
1391.816048 0.9000 0.9010 0.9010 0.9030 0.9030
1396.689354 0.9030 0.9040 0.9040 0.9080 0.9090
1401.562661 0.9090 0.9090 0.9090 0.9090 0.9090
1406.435967 0.9090 0.9080 0.9080 0.9080 0.9080
1411.309273 0.9080 0.9080 0.9080 0.9080 0.9080
1416.182580 0.9080 0.9090 0.9090 0.9090 0.9090
1421.055886 0.9090 0.9100 0.9100 0.9100 0.9090
1425.929192 0.9090 0.9100 0.9100 0.9100 0.9090
1430.802499 0.9090 0.9090 0.9080 0.9080 0.9060
1435.675805 0.9050 0.9050 0.9050 0.9050 0.9040
1440.549111 0.9040 0.9040 0.9040 0.9040 0.9040
1445.422417 0.9040 0.9040 0.9040 0.9040 0.9030
1450.295724 0.9030 0.9030 0.9030 0.9030 0.9030
1455.169030 0.9040 0.9040 0.9050 0.9050 0.9040
1460.042336 0.9030 0.9010 0.9010 0.9000 0.9000
1464.915643 0.9010 0.9010 0.9000 0.9000 0.9000
1469.788949 0.9000 0.9010 0.9010 0.9030 0.9040
1474.662255 0.9040 0.9040 0.9040 0.9040 0.9040
1479.535562 0.9040 0.9040 0.9040 0.9040 0.9030
1484.408868 0.9030 0.9030 0.9030 0.9040 0.9050
1489.282174 0.9060 0.9080 0.9090 0.9090 0.9080
1494.155481 0.9060 0.9050 0.9040 0.9040 0.9040
1499.028787 0.9030 0.9010 0.8970 0.8970 0.8960
1503.902093 0.8950 0.8950 0.8950 0.8960 0.8970
1508.775400 0.8990 0.8990 0.8990 0.8990 0.8990
1513.648706 0.8990 0.8990 0.8990 0.8990 0.8990
1518.522012 0.8970 0.8970 0.8970 0.8970 0.8970
1523.395319 0.8970 0.8970 0.8960 0.8960 0.8960
1528.268625 0.8960 0.8950 0.8920 0.8910 0.8910
1533.141931 0.8900 0.8880 0.8820 0.8790 0.8730
1538.015238 0.8700 0.8680 0.8660 0.8660 0.8650
1542.888544 0.8640 0.8630 0.8610 0.8600 0.8470
1547.761850 0.8440 0.8430 0.8420 0.8410 0.8390
1552.635156 0.8390 0.8350 0.8330 0.8260 0.8220
1557.508463 0.8220 0.8210 0.8200 0.8080 0.7880
1562.381769 0.7659 0.7439 0.7169 0.6869 0.6489
1567.255075 0.6000 0.5870 0.5870 0.5980 0.6609
1572.128382 0.6951 0.7281 0.7590 0.7770 0.7890
1577.001688 0.7910 0.7890 0.7800 0.7660 0.7460
1581.874994 0.7219 0.6919 0.6579 0.6199 0.5760
1586.748301 0.5520 0.5360 0.5090 0.4900 0.4720
1591.621607 0.4570 0.4500 0.4349 0.4089 0.3719
1596.494913 0.3300 0.2940 0.2550 0.2270 0.1771
1601.368220 0.1490 0.1490 0.1581 0.1961 0.2461
1606.241526 0.2950 0.3700 0.5149 0.5829 0.6329
1611.114832 0.6641 0.6891 0.7110 0.7280 0.7440
1615.988139 0.7550 0.7670 0.7770 0.7860 0.7930
1620.861445 0.7980 0.8040 0.8080 0.8130 0.8200
1625.734751 0.8250 0.8300 0.8370 0.8390 0.8410
1630.608058 0.8410 0.8390 0.8390 0.8410 0.8410
1635.481364 0.8410 0.8410 0.8390 0.8370 0.8350
1640.354670 0.8340 0.8350 0.8370 0.8380 0.8390
1645.227977 0.8420 0.8470 0.8500 0.8550 0.8590
1650.101283 0.8630 0.8640 0.8650 0.8680 0.8700
1654.974589 0.8720 0.8730 0.8730 0.8730 0.8700
1659.847895 0.8700 0.8720 0.8730 0.8770 0.8780
1664.721202 0.8810 0.8810 0.8820 0.8820 0.8830
1669.594508 0.8830 0.8860 0.8860 0.8850 0.8830
1674.467814 0.8830 0.8830 0.8820 0.8820 0.8820
1679.341121 0.8820 0.8830 0.8830 0.8850 0.8850
1684.214427 0.8850 0.8860 0.8860 0.8870 0.8900
1689.087733 0.8910 0.8850 0.8830 0.8820 0.8810
1693.961040 0.8790 0.8790 0.8790 0.8790 0.8790
1698.834346 0.8780 0.8780 0.8780 0.8780 0.8780
1703.707652 0.8790 0.8790 0.8810 0.8810 0.8810
1708.580959 0.8820 0.8820 0.8820 0.8820 0.8810
1713.454265 0.8810 0.8790 0.8790 0.8810 0.8820
1718.327571 0.8820 0.8820 0.8830 0.8830 0.8830
1723.200878 0.8830 0.8820 0.8820 0.8810 0.8790
1728.074184 0.8780 0.8770 0.8730 0.8720 0.8700
1732.947490 0.8700 0.8720 0.8730 0.8730 0.8730
1737.820797 0.8730 0.8720 0.8700 0.8680 0.8630
1742.694103 0.8610 0.8610 0.8590 0.8570 0.8560
1747.567409 0.8550 0.8520 0.8510 0.8480 0.8440
1752.440716 0.8430 0.8410 0.8370 0.8330 0.8330
1757.314022 0.8320 0.8320 0.8290 0.8220 0.8170
1762.187328 0.8150 0.8120 0.8020 0.7880 0.7710
1767.060634 0.7590 0.7530 0.7510 0.7500 0.7510
1771.933941 0.7620 0.7760 0.7950 0.8060 0.8170
1776.807247 0.8280 0.8370 0.8430 0.8500 0.8510
1781.680553 0.8520 0.8520 0.8540 0.8540 0.8520
1786.553860 0.8510 0.8500 0.8470 0.8430 0.8420
1791.427166 0.8420 0.8410 0.8370 0.8330 0.8300
1796.300472 0.8260 0.8190 0.8110 0.8020 0.7940
1801.173779 0.7860 0.7800 0.7800 0.7820 0.7970
1806.047085 0.8070 0.8190 0.8240 0.8380 0.8470
1810.920391 0.8550 0.8610 0.8650 0.8700 0.8700
1815.793698 0.8720 0.8730 0.8730 0.8740 0.8740
1820.667004 0.8740 0.8740 0.8750 0.8750 0.8750
1825.540310 0.8770 0.8790 0.8790 0.8780 0.8750
1830.413617 0.8750 0.8740 0.8730 0.8720 0.8700
1835.286923 0.8690 0.8660 0.8640 0.8640 0.8610
1840.160229 0.8600 0.8590 0.8590 0.8600 0.8640
1845.033536 0.8690 0.8730 0.8730 0.8750 0.8750
1849.906842 0.8770 0.8780 0.8780 0.8790 0.8790
1854.780148 0.8810 0.8810 0.8810 0.8810 0.8820
1859.653455 0.8820 0.8820 0.8820 0.8830 0.8830
1864.526761 0.8830 0.8830 0.8830 0.8830 0.8830
1869.400067 0.8830 0.8820 0.8820 0.8820 0.8810
1874.273373 0.8810 0.8810 0.8790 0.8790 0.8790
1879.146680 0.8790 0.8790 0.8790 0.8790 0.8790
1884.019986 0.8790 0.8790 0.8790 0.8790 0.8790
1888.893292 0.8790 0.8790 0.8780 0.8780 0.8780
1893.766599 0.8780 0.8780 0.8780 0.8780 0.8780
1898.639905 0.8750 0.8750 0.8740 0.8730 0.8690
1903.513211 0.8680 0.8680 0.8700 0.8700 0.8720
1908.386518 0.8730 0.8750 0.8770 0.8780 0.8790
1913.259824 0.8810 0.8810 0.8820 0.8820 0.8830
1918.133130 0.8830 0.8830 0.8850 0.8850 0.8830
1923.006437 0.8820 0.8820 0.8810 0.8780 0.8780
1927.879743 0.8770 0.8770 0.8770 0.8770 0.8780
1932.753049 0.8780 0.8790 0.8790 0.8790 0.8790
1937.626356 0.8810 0.8810 0.8810 0.8810 0.8810
1942.499662 0.8810 0.8810 0.8820 0.8830 0.8830
1947.372968 0.8850 0.8870 0.8900 0.8910 0.8910
1952.246275 0.8880 0.8880 0.8880 0.8870 0.8870
1957.119581 0.8880 0.8880 0.8880 0.8880 0.8900
1961.992887 0.8900 0.8900 0.8900 0.8880 0.8880
1966.866194 0.8880 0.8880 0.8900 0.8910 0.8900
1971.739500 0.8900 0.8900 0.8900 0.8910 0.8910
1976.612806 0.8920 0.8920 0.8940 0.8940 0.8920
1981.486112 0.8920 0.8920 0.8920 0.8910 0.8920
1986.359419 0.8920 0.8920 0.8920 0.8910 0.8880
1991.232725 0.8880 0.8870 0.8870 0.8880 0.8900
1996.106031 0.8920 0.8920 0.8950 0.8950 0.8950
2000.979338 0.8950 0.8950 0.8945 0.8940 0.8940
2005.852644 0.8940 0.8930 0.8920 0.8920 0.8920
2010.725950 0.8920 0.8920 0.8920 0.8920 0.8920
2015.599257 0.8920 0.8930 0.8940 0.8940 0.8940
2020.472563 0.8925 0.8910 0.8910 0.8910 0.8910
2025.345869 0.8910 0.8910 0.8910 0.8905 0.8900
2030.219176 0.8900 0.8900 0.8900 0.8900 0.8900
2035.092482 0.8900 0.8900 0.8900 0.8900 0.8900
2039.965788 0.8900 0.8900 0.8890 0.8880 0.8880
2044.839095 0.8880 0.8880 0.8880 0.8880 0.8880
2049.712401 0.8880 0.8880 0.8889 0.8899 0.8900
2054.585707 0.8900 0.8900 0.8900 0.8905 0.8910
2059.459014 0.8910 0.8910 0.8896 0.8881 0.8880
2064.332320 0.8880 0.8880 0.8880 0.8889 0.8899
2069.205626 0.8905 0.8910 0.8915 0.8920 0.8920
2074.078933 0.8920 0.8920 0.8920 0.8920 0.8920
2078.952239 0.8915 0.8910 0.8910 0.8910 0.8905
2083.825545 0.8900 0.8900 0.8900 0.8900 0.8900
2088.698851 0.8891 0.8881 0.8880 0.8880 0.8880
2093.572158 0.8880 0.8880 0.8880 0.8889 0.8899
2098.445464 0.8905 0.8910 0.8915 0.8920 0.8911
2103.318770 0.8901 0.8900 0.8900 0.8900 0.8900
2108.192077 0.8900 0.8900 0.8904 0.8909 0.8910
2113.065383 0.8910 0.8914 0.8919 0.8920 0.8920
2117.938689 0.8920 0.8920 0.8916 0.8911 0.8910
2122.811996 0.8910 0.8906 0.8901 0.8900 0.8900
2127.685302 0.8900 0.8900 0.8900 0.8900 0.8900
2132.558608 0.8900 0.8891 0.8881 0.8876 0.8871
2137.431915 0.8861 0.8851 0.8841 0.8831 0.8830
2142.305221 0.8830 0.8839 0.8849 0.8854 0.8859
2147.178527 0.8860 0.8860 0.8864 0.8869 0.8874
2152.051834 0.8879 0.8880 0.8880 0.8888 0.8898
2156.925140 0.8904 0.8909 0.8910 0.8910 0.8914
2161.798446 0.8919 0.8920 0.8920 0.8920 0.8920
2166.671753 0.8920 0.8920 0.8920 0.8920 0.8920
2171.545059 0.8920 0.8928 0.8938 0.8940 0.8940
2176.418365 0.8940 0.8940 0.8928 0.8913 0.8906
2181.291672 0.8901 0.8900 0.8900 0.8904 0.8909
2186.164978 0.8914 0.8919 0.8928 0.8938 0.8944
2191.038284 0.8949 0.8950 0.8950 0.8950 0.8950
2195.911590 0.8950 0.8950 0.8934 0.8914 0.8910
2200.784897 0.8910 0.8910 0.8910 0.8910 0.8910
2205.658203 0.8910 0.8910 0.8910 0.8910 0.8914
2210.531509 0.8919 0.8928 0.8938 0.8948 0.8958
2215.404816 0.8972 0.8987 0.8990 0.8990 0.8982
2220.278122 0.8972 0.8966 0.8961 0.8956 0.8951
2225.151428 0.8938 0.8923 0.8916 0.8911 0.8910
2230.024735 0.8910 0.8910 0.8910 0.8910 0.8910
2234.898041 0.8910 0.8910 0.8910 0.8910 0.8906
2239.771347 0.8901 0.8900 0.8900 0.8900 0.8900
2244.644654 0.8900 0.8900 0.8900 0.8900 0.8900
2249.517960 0.8900 0.8900 0.8900 0.8900 0.8900
2254.391266 0.8900 0.8900 0.8904 0.8909 0.8910
2259.264573 0.8910 0.8906 0.8901 0.8900 0.8900
2264.137879 0.8900 0.8900 0.8900 0.8900 0.8900
2269.011185 0.8900 0.8900 0.8900 0.8900 0.8900
2273.884492 0.8893 0.8883 0.8880 0.8880 0.8887
2278.757798 0.8897 0.8900 0.8900 0.8900 0.8900
2283.631104 0.8900 0.8900 0.8900 0.8900 0.8900
2288.504411 0.8900 0.8900 0.8900 0.8900 0.8900
2293.377717 0.8900 0.8900 0.8900 0.8900 0.8893
2298.251023 0.8883 0.8880 0.8880 0.8880 0.8880
2303.124329 0.8880 0.8880 0.8880 0.8880 0.8887
2307.997636 0.8897 0.8903 0.8908 0.8913 0.8918
2312.870942 0.8920 0.8920 0.8920 0.8920 0.8917
2317.744248 0.8912 0.8907 0.8902 0.8893 0.8883
2322.617555 0.8880 0.8880 0.8887 0.8897 0.8900
2327.490861 0.8900 0.8900 0.8900 0.8903 0.8908
2332.364167 0.8907 0.8902 0.8900 0.8900 0.8893
2337.237474 0.8883 0.8877 0.8872 0.8863 0.8853
2342.110780 0.8843 0.8833 0.8830 0.8830 0.8827
2346.984086 0.8822 0.8817 0.8812 0.8804 0.8793
2351.857393 0.8790 0.8790 0.8790 0.8790 0.8787
2356.730699 0.8782 0.8780 0.8780 0.8780 0.8780
2361.604005 0.8780 0.8780 0.8783 0.8788 0.8796
2366.477312 0.8806 0.8810 0.8810 0.8810 0.8810
2371.350618 0.8813 0.8818 0.8823 0.8828 0.8836
2376.223924 0.8846 0.8850 0.8850 0.8853 0.8858
2381.097231 0.8860 0.8860 0.8863 0.8868 0.8867
2385.970537 0.8862 0.8860 0.8860 0.8860 0.8860
2390.843843 0.8860 0.8860 0.8857 0.8852 0.8850
2395.717150 0.8850 0.8844 0.8834 0.8827 0.8822
2400.590456 0.8823 0.8828 0.8827 0.8822 0.8817
2405.463762 0.8812 0.8810 0.8810 0.8804 0.8794
2410.337068 0.8796 0.8806 0.8810 0.8810 0.8810
2415.210375 0.8810 0.8810 0.8810 0.8810 0.8810
2420.083681 0.8810 0.8810 0.8804 0.8794 0.8790
2424.956987 0.8790 0.8790 0.8790 0.8790 0.8790
2429.830294 0.8790 0.8790 0.8796 0.8806 0.8810
2434.703600 0.8810 0.8810 0.8810 0.8802 0.8787
2439.576906 0.8780 0.8780 0.8783 0.8788 0.8790
2444.450213 0.8790 0.8790 0.8790 0.8790 0.8790
2449.323519 0.8784 0.8774 0.8770 0.8770 0.8765
2454.196825 0.8755 0.8750 0.8750 0.8750 0.8750
2459.070132 0.8758 0.8773 0.8780 0.8780 0.8780
2463.943438 0.8780 0.8783 0.8788 0.8790 0.8790
2468.816744 0.8790 0.8790 0.8790 0.8790 0.8787
2473.690051 0.8782 0.8777 0.8772 0.8770 0.8770
2478.563357 0.8765 0.8755 0.8745 0.8735 0.8730
2483.436663 0.8730 0.8735 0.8745 0.8755 0.8765
2488.309970 0.8770 0.8770 0.8770 0.8770 0.8770
2493.183276 0.8770 0.8770 0.8770 0.8765 0.8755
2498.056582 0.8750 0.8750 0.8745 0.8735 0.8730
2502.929889 0.8730 0.8728 0.8723 0.8720 0.8720
2507.803195 0.8720 0.8720 0.8720 0.8720 0.8720
2512.676501 0.8720 0.8720 0.8720 0.8720 0.8720
2517.549807 0.8720 0.8720 0.8720 0.8720 0.8720
2522.423114 0.8720 0.8715 0.8705 0.8700 0.8700
2527.296420 0.8698 0.8693 0.8690 0.8690 0.8690
2532.169726 0.8690 0.8688 0.8683 0.8680 0.8680
2537.043033 0.8680 0.8680 0.8680 0.8680 0.8675
2541.916339 0.8666 0.8660 0.8660 0.8660 0.8660
2546.789645 0.8660 0.8660 0.8660 0.8660 0.8660
2551.662952 0.8660 0.8658 0.8653 0.8650 0.8650
2556.536258 0.8650 0.8650 0.8652 0.8657 0.8660
2561.409564 0.8660 0.8660 0.8660 0.8660 0.8660
2566.282871 0.8660 0.8660 0.8660 0.8660 0.8658
2571.156177 0.8653 0.8650 0.8650 0.8648 0.8643
2576.029483 0.8640 0.8640 0.8642 0.8647 0.8652
2580.902790 0.8657 0.8660 0.8660 0.8664 0.8674
2585.776096 0.8680 0.8680 0.8682 0.8687 0.8690
2590.649402 0.8690 0.8690 0.8690 0.8690 0.8690
2595.522709 0.8690 0.8690 0.8688 0.8683 0.8680
2600.396015 0.8680 0.8680 0.8680 0.8680 0.8680
2605.269321 0.8676 0.8666 0.8660 0.8660 0.8660
2610.142628 0.8660 0.8660 0.8660 0.8660 0.8660
2615.015934 0.8660 0.8660 0.8660 0.8660 0.8658
2619.889240 0.8653 0.8650 0.8650 0.8650 0.8650
2624.762547 0.8648 0.8643 0.8640 0.8640 0.8640
2629.635853 0.8640 0.8640 0.8640 0.8640 0.8640
2634.509159 0.8638 0.8633 0.8630 0.8630 0.8630
2639.382465 0.8630 0.8630 0.8630 0.8632 0.8637
2644.255772 0.8640 0.8640 0.8640 0.8640 0.8640
2649.129078 0.8640 0.8640 0.8640 0.8640 0.8640
2654.002384 0.8640 0.8640 0.8640 0.8640 0.8640
2658.875691 0.8640 0.8640 0.8640 0.8640 0.8640
2663.748997 0.8642 0.8647 0.8648 0.8643 0.8640
2668.622303 0.8640 0.8638 0.8633 0.8630 0.8630
2673.495610 0.8630 0.8630 0.8630 0.8630 0.8630
2678.368916 0.8630 0.8630 0.8630 0.8630 0.8630
2683.242222 0.8630 0.8630 0.8630 0.8630 0.8630
2688.115529 0.8630 0.8630 0.8630 0.8630 0.8630
2692.988835 0.8630 0.8630 0.8630 0.8630 0.8630
2697.862141 0.8630 0.8630 0.8630 0.8633 0.8643
2702.735448 0.8650 0.8650 0.8650 0.8650 0.8649
2707.608754 0.8644 0.8636 0.8621 0.8610 0.8610
2712.482060 0.8609 0.8604 0.8600 0.8600 0.8600
2717.355367 0.8600 0.8601 0.8606 0.8610 0.8610
2722.228673 0.8607 0.8597 0.8590 0.8590 0.8590
2727.101979 0.8590 0.8590 0.8590 0.8591 0.8596
2731.975286 0.8600 0.8600 0.8600 0.8600 0.8600
2736.848592 0.8600 0.8600 0.8600 0.8600 0.8600
2741.721898 0.8600 0.8600 0.8600 0.8600 0.8600
2746.595204 0.8600 0.8600 0.8600 0.8600 0.8600
2751.468511 0.8599 0.8594 0.8590 0.8590 0.8590
2756.341817 0.8590 0.8590 0.8590 0.8591 0.8596
2761.215123 0.8599 0.8594 0.8590 0.8590 0.8590
2766.088430 0.8590 0.8590 0.8590 0.8588 0.8578
2770.961736 0.8570 0.8570 0.8570 0.8570 0.8570
2775.835042 0.8570 0.8570 0.8570 0.8572 0.8582
2780.708349 0.8588 0.8578 0.8569 0.8564 0.8560
2785.581655 0.8560 0.8560 0.8560 0.8558 0.8548
2790.454961 0.8538 0.8528 0.8520 0.8520 0.8522
2795.328268 0.8532 0.8540 0.8540 0.8542 0.8552
2800.201574 0.8561 0.8566 0.8570 0.8570 0.8570
2805.074880 0.8570 0.8570 0.8570 0.8569 0.8564
2809.948187 0.8560 0.8560 0.8559 0.8554 0.8547
2814.821493 0.8532 0.8520 0.8520 0.8520 0.8520
2819.694799 0.8519 0.8514 0.8510 0.8510 0.8511
2824.568106 0.8516 0.8522 0.8532 0.8540 0.8540
2829.441412 0.8541 0.8546 0.8550 0.8550 0.8550
2834.314718 0.8550 0.8549 0.8544 0.8540 0.8540
2839.188025 0.8538 0.8528 0.8518 0.8508 0.8500
2844.061331 0.8500 0.8498 0.8488 0.8479 0.8474
2848.934637 0.8469 0.8464 0.8460 0.8460 0.8460
2853.807943 0.8460 0.8461 0.8466 0.8471 0.8476
2858.681250 0.8480 0.8480 0.8480 0.8480 0.8481
2863.554556 0.8491 0.8500 0.8500 0.8501 0.8506
2868.427862 0.8510 0.8510 0.8510 0.8510 0.8510
2873.301169 0.8510 0.8510 0.8510 0.8510 0.8510
2878.174475 0.8510 0.8510 0.8510 0.8510 0.8509
2883.047781 0.8504 0.8500 0.8500 0.8500 0.8500
2887.921088 0.8499 0.8489 0.8479 0.8474 0.8469
2892.794394 0.8465 0.8460 0.8460 0.8460 0.8460
2897.667700 0.8460 0.8460 0.8460 0.8460 0.8460
2902.541007 0.8460 0.8460 0.8460 0.8460 0.8465
2907.414313 0.8470 0.8465 0.8459 0.8449 0.8439
2912.287619 0.8429 0.8420 0.8415 0.8409 0.8394
2917.160926 0.8380 0.8375 0.8369 0.8359 0.8351
2922.034232 0.8361 0.8370 0.8375 0.8381 0.8396
2926.907538 0.8411 0.8421 0.8430 0.8430 0.8430
2931.780845 0.8435 0.8441 0.8451 0.8460 0.8460
2936.654151 0.8460 0.8460 0.8460 0.8460 0.8460
2941.527457 0.8465 0.8470 0.8470 0.8470 0.8470
2946.400764 0.8470 0.8470 0.8470 0.8470 0.8470
2951.274070 0.8470 0.8470 0.8470 0.8470 0.8470
2956.147376 0.8470 0.8475 0.8480 0.8480 0.8480
2961.020682 0.8480 0.8480 0.8480 0.8480 0.8480
2965.893989 0.8480 0.8480 0.8480 0.8480 0.8480
2970.767295 0.8480 0.8480 0.8490 0.8500 0.8500
2975.640601 0.8500 0.8500 0.8500 0.8500 0.8500
2980.513908 0.8500 0.8500 0.8500 0.8500 0.8500
2985.387214 0.8500 0.8500 0.8500 0.8505 0.8510
2990.260520 0.8510 0.8510 0.8510 0.8510 0.8510
2995.133827 0.8510 0.8510 0.8510 0.8510 0.8510
3000.007133 0.8510 0.8510 0.8510 0.8510 0.8510
3004.880439 0.8510 0.8510 0.8510 0.8510 0.8510
3009.753746 0.8510 0.8510 0.8510 0.8510 0.8510
3014.627052 0.8510 0.8510 0.8510 0.8510 0.8510
3019.500358 0.8510 0.8510 0.8510 0.8510 0.8495
3024.373665 0.8480 0.8480 0.8480 0.8480 0.8480
3029.246971 0.8480 0.8480 0.8480 0.8480 0.8480
3034.120277 0.8480 0.8480 0.8480 0.8475 0.8470
3038.993584 0.8470 0.8470 0.8470 0.8470 0.8470
3043.866890 0.8470 0.8470 0.8470 0.8470 0.8470
3048.740196 0.8470 0.8470 0.8470 0.8470 0.8470
3053.613503 0.8470 0.8465 0.8460 0.8460 0.8460
3058.486809 0.8460 0.8460 0.8451 0.8441 0.8440
3063.360115 0.8440 0.8440 0.8440 0.8435 0.8430
3068.233421 0.8430 0.8430 0.8430 0.8430 0.8430
3073.106728 0.8430 0.8430 0.8430 0.8430 0.8430
3077.980034 0.8425 0.8420 0.8420 0.8420 0.8420
3082.853340 0.8420 0.8420 0.8420 0.8425 0.8430
3087.726647 0.8430 0.8430 0.8430 0.8430 0.8425
3092.599953 0.8420 0.8420 0.8420 0.8420 0.8420
3097.473259 0.8420 0.8420 0.8420 0.8420 0.8420
3102.346566 0.8420 0.8420 0.8420 0.8420 0.8420
3107.219872 0.8420 0.8420 0.8420 0.8420 0.8420
3112.093178 0.8420 0.8420 0.8420 0.8420 0.8420
3116.966485 0.8424 0.8429 0.8430 0.8430 0.8421
3121.839791 0.8411 0.8401 0.8391 0.8390 0.8390
3126.713097 0.8399 0.8409 0.8414 0.8419 0.8420
3131.586404 0.8420 0.8416 0.8411 0.8401 0.8391
3136.459710 0.8390 0.8390 0.8390 0.8390 0.8390
3141.333016 0.8390 0.8390 0.8390 0.8390 0.8390
3146.206323 0.8390 0.8390 0.8390 0.8390 0.8390
3151.079629 0.8390 0.8390 0.8390 0.8399 0.8408
3155.952935 0.8414 0.8419 0.8424 0.8429 0.8426
3160.826242 0.8421 0.8416 0.8411 0.8402 0.8392
3165.699548 0.8390 0.8390 0.8386 0.8381 0.8368
3170.572854 0.8352 0.8346 0.8341 0.8336 0.8331
3175.446160 0.8326 0.8321 0.8308 0.8293 0.8278
3180.319467 0.8263 0.8260 0.8260 0.8252 0.8242
3185.192773 0.8240 0.8240 0.8232 0.8222 0.8220
3190.066079 0.8220 0.8216 0.8211 0.8206 0.8201
3194.939386 0.8196 0.8191 0.8190 0.8190 0.8194
3199.812692 0.8199 0.8204 0.8209 0.8206 0.8201
3204.685998 0.8200 0.8200 0.8200 0.8200 0.8196
3209.559305 0.8191 0.8190 0.8190 0.8190 0.8190
3214.432611 0.8194 0.8199 0.8204 0.8209 0.8222
3219.305917 0.8237 0.8256 0.8276 0.8284 0.8289
3224.179224 0.8294 0.8299 0.8300 0.8300 0.8308
3229.052530 0.8318 0.8324 0.8329 0.8330 0.8330
3233.925836 0.8318 0.8303 0.8296 0.8291 0.8275
3238.799143 0.8255 0.8231 0.8206 0.8200 0.8200
3243.672449 0.8200 0.8200 0.8200 0.8200 0.8204
3248.545755 0.8209 0.8210 0.8210 0.8214 0.8219
3253.419062 0.8220 0.8220 0.8220 0.8220 0.8220
3258.292368 0.8220 0.8216 0.8211 0.8210 0.8210
3263.165674 0.8214 0.8219 0.8220 0.8220 0.8220
3268.038981 0.8220 0.8216 0.8211 0.8210 0.8210
3272.912287 0.8210 0.8210 0.8210 0.8210 0.8221
3277.785593 0.8236 0.8240 0.8240 0.8233 0.8223
3282.658899 0.8220 0.8220 0.8220 0.8220 0.8220
3287.532206 0.8220 0.8220 0.8220 0.8216 0.8211
3292.405512 0.8206 0.8201 0.8200 0.8200 0.8200
3297.278818 0.8200 0.8196 0.8192 0.8183 0.8173
3302.152125 0.8170 0.8170 0.8170 0.8170 0.8170
3307.025431 0.8170 0.8177 0.8187 0.8190 0.8190
3311.898737 0.8190 0.8190 0.8190 0.8190 0.8190
3316.772044 0.8190 0.8190 0.8190 0.8190 0.8190
3321.645350 0.8183 0.8173 0.8167 0.8162 0.8160
3326.518656 0.8160 0.8157 0.8152 0.8150 0.8150
3331.391963 0.8150 0.8150 0.8150 0.8150 0.8150
3336.265269 0.8150 0.8150 0.8150 0.8163 0.8183
3341.138575 0.8190 0.8190 0.8184 0.8174 0.8170
3346.011882 0.8170 0.8167 0.8162 0.8157 0.8152
3350.885188 0.8150 0.8150 0.8150 0.8150 0.8150
3355.758494 0.8150 0.8150 0.8150 0.8153 0.8158
3360.631801 0.8157 0.8152 0.8150 0.8150 0.8150
3365.505107 0.8150 0.8150 0.8150 0.8150 0.8150
3370.378413 0.8153 0.8158 0.8160 0.8160 0.8160
3375.251720 0.8160 0.8163 0.8168 0.8170 0.8170
3380.125026 0.8167 0.8162 0.8151 0.8136 0.8127
3384.998332 0.8122 0.8117 0.8112 0.8110 0.8110
3389.871638 0.8110 0.8110 0.8113 0.8118 0.8120
3394.744945 0.8120 0.8123 0.8128 0.8130 0.8130
3399.618251 0.8136 0.8146 0.8153 0.8158 0.8160
3404.491557 0.8160 0.8160 0.8160 0.8163 0.8168
3409.364864 0.8167 0.8162 0.8163 0.8168 0.8170
3414.238170 0.8170 0.8176 0.8186 0.8190 0.8190
3419.111476 0.8184 0.8174 0.8170 0.8170 0.8170
3423.984783 0.8170 0.8176 0.8186 0.8190 0.8190
3428.858089 0.8190 0.8190 0.8190 0.8190 0.8190
3433.731395 0.8190 0.8182 0.8167 0.8160 0.8160
3438.604702 0.8163 0.8168 0.8176 0.8186 0.8190
3443.478008 0.8190 0.8190 0.8190 0.8190 0.8190
3448.351314 0.8190 0.8190 0.8190 0.8190 0.8190
3453.224621 0.8190 0.8190 0.8190 0.8190 0.8190
3458.097927 0.8193 0.8198 0.8200 0.8200 0.8200
3462.971233 0.8200 0.8197 0.8192 0.8190 0.8190
3467.844540 0.8190 0.8190 0.8193 0.8198 0.8200
3472.717846 0.8200 0.8200 0.8200 0.8200 0.8200
3477.591152 0.8200 0.8200 0.8203 0.8208 0.8213
3482.464459 0.8218 0.8220 0.8220 0.8220 0.8220
3487.337765 0.8220 0.8220 0.8228 0.8243 0.8250
3492.211071 0.8250 0.8250 0.8250 0.8258 0.8272
3497.084377 0.8280 0.8280 0.8275 0.8265 0.8265
3501.957684 0.8275 0.8283 0.8288 0.8287 0.8283
3506.830990 0.8280 0.8280 0.8280 0.8280 0.8280
3511.704296 0.8280 0.8280 0.8280 0.8280 0.8280
3516.577603 0.8280 0.8280 0.8280 0.8280 0.8280
3521.450909 0.8280 0.8275 0.8265 0.8260 0.8260
3526.324215 0.8265 0.8275 0.8280 0.8280 0.8280
3531.197522 0.8280 0.8280 0.8280 0.8280 0.8280
3536.070828 0.8280 0.8280 0.8280 0.8280 0.8282
3540.944134 0.8287 0.8297 0.8312 0.8320 0.8320
3545.817441 0.8322 0.8327 0.8332 0.8337 0.8349
3550.690747 0.8369 0.8380 0.8380 0.8387 0.8402
3555.564053 0.8412 0.8417 0.8422 0.8427 0.8430
3560.437360 0.8430 0.8426 0.8416 0.8410 0.8410
3565.310666 0.8410 0.8410 0.8410 0.8410 0.8410
3570.183972 0.8410 0.8412 0.8417 0.8420 0.8420
3575.057279 0.8422 0.8427 0.8430 0.8430 0.8430
3579.930585 0.8430 0.8432 0.8437 0.8440 0.8440
3584.803891 0.8444 0.8454 0.8460 0.8460 0.8460
3589.677198 0.8460 0.8462 0.8467 0.8470 0.8470
3594.550504 0.8470 0.8470 0.8470 0.8470 0.8468
3599.423810 0.8463 0.8460 0.8460 0.8460 0.8460
3604.297116 0.8460 0.8460 0.8462 0.8467 0.8470
3609.170423 0.8470 0.8472 0.8477 0.8480 0.8480
3614.043729 0.8480 0.8480 0.8480 0.8480 0.8484
3618.917035 0.8494 0.8500 0.8500 0.8502 0.8507
3623.790342 0.8510 0.8510 0.8510 0.8510 0.8510
3628.663648 0.8510 0.8510 0.8510 0.8512 0.8517
3633.536954 0.8520 0.8520 0.8520 0.8520 0.8520
3638.410261 0.8520 0.8520 0.8520 0.8524 0.8534
3643.283567 0.8542 0.8547 0.8552 0.8557 0.8560
3648.156873 0.8560 0.8560 0.8560 0.8560 0.8560
3653.030180 0.8560 0.8560 0.8560 0.8560 0.8558
3657.903486 0.8553 0.8550 0.8550 0.8548 0.8543
3662.776792 0.8540 0.8540 0.8540 0.8540 0.8542
3667.650099 0.8547 0.8552 0.8557 0.8560 0.8560
3672.523405 0.8560 0.8560 0.8560 0.8560 0.8558
3677.396711 0.8553 0.8548 0.8543 0.8540 0.8540
3682.270018 0.8543 0.8553 0.8560 0.8560 0.8562
3687.143324 0.8567 0.8567 0.8557 0.8552 0.8557
3692.016630 0.8562 0.8567 0.8570 0.8570 0.8570
3696.889937 0.8570 0.8570 0.8570 0.8570 0.8570
3701.763243 0.8570 0.8570 0.8567 0.8557 0.8550
3706.636549 0.8550 0.8553 0.8563 0.8574 0.8589
3711.509855 0.8601 0.8606 0.8610 0.8610 0.8610
3716.383162 0.8610 0.8610 0.8610 0.8609 0.8604
3721.256468 0.8601 0.8606 0.8609 0.8604 0.8599
3726.129774 0.8594 0.8590 0.8590 0.8590 0.8590
3731.003081 0.8591 0.8596 0.8600 0.8600 0.8601
3735.876387 0.8606 0.8610 0.8610 0.8610 0.8610
3740.749693 0.8613 0.8623 0.8630 0.8630 0.8630
3745.623000 0.8630 0.8630 0.8630 0.8630 0.8630
3750.496306 0.8628 0.8618 0.8610 0.8610 0.8610
3755.369612 0.8610 0.8610 0.8610 0.8609 0.8604
3760.242919 0.8601 0.8606 0.8609 0.8604 0.8600
3765.116225 0.8600 0.8599 0.8594 0.8588 0.8578
3769.989531 0.8570 0.8570 0.8570 0.8570 0.8573
3774.862838 0.8588 0.8600 0.8600 0.8599 0.8594
3779.736144 0.8588 0.8578 0.8569 0.8564 0.8560
3784.609450 0.8560 0.8560 0.8560 0.8560 0.8560
3789.482757 0.8559 0.8554 0.8550 0.8550 0.8550
3794.356063 0.8550 0.8552 0.8562 0.8570 0.8570
3799.229369 0.8572 0.8582 0.8590 0.8590 0.8587
3804.102676 0.8572 0.8560 0.8560 0.8560 0.8560
3808.975982 0.8561 0.8566 0.8570 0.8570 0.8570
3813.849288 0.8570 0.8570 0.8570 0.8573 0.8588
3818.722594 0.8600 0.8600 0.8600 0.8600 0.8600
3823.595901 0.8600 0.8599 0.8594 0.8588 0.8578
3828.469207 0.8570 0.8570 0.8570 0.8570 0.8570
3833.342513 0.8570 0.8570 0.8570 0.8570 0.8570
3838.215820 0.8570 0.8570 0.8569 0.8564 0.8560
3843.089126 0.8560 0.8560 0.8560 0.8560 0.8560
3847.962432 0.8560 0.8560 0.8560 0.8560 0.8560
3852.835739 0.8560 0.8560 0.8560 0.8560 0.8560
3857.709045 0.8560 0.8560 0.8560 0.8560 0.8560
3862.582351 0.8560 0.8560 0.8560 0.8560 0.8560
3867.455658 0.8560 0.8560 0.8560 0.8560 0.8560
3872.328964 0.8560 0.8560 0.8560 0.8560 0.8560
3877.202270 0.8560 0.8560 0.8560 0.8560 0.8560
3882.075577 0.8560 0.8560 0.8560 0.8560 0.8560
3886.948883 0.8560 0.8560 0.8560 0.8560 0.8560
3891.822189 0.8560 0.8559 0.8554 0.8550 0.8550
3896.695496 0.8549 0.8544 0.8540 0.8540 0.8540
3901.568802 0.8540 0.8540 0.8540 0.8540 0.8540
3906.442108 0.8540 0.8540 0.8540 0.8540 0.8540
3911.315415 0.8540 0.8540 0.8540 0.8540 0.8540
3916.188721 0.8540 0.8540 0.8540 0.8540 0.8540
3921.062027 0.8545 0.8550 0.8550 0.8550 0.8550
3925.935333 0.8550 0.8550 0.8550 0.8550 0.8550
3930.808640 0.8550 0.8550 0.8550 0.8550 0.8550
3935.681946 0.8550 0.8550 0.8550 0.8545 0.8540
3940.555252 0.8540 0.8540 0.8540 0.8540 0.8540
3945.428559 0.8540 0.8540 0.8540 0.8545 0.8550
3950.301865 0.8550 0.8550 0.8545 0.8540 0.8540
3955.175171 0.8540 0.8545 0.8550 0.8550 0.8550
3960.048478 0.8550 0.8550 0.8550 0.8550 0.8550
3964.921784 0.8550 0.8550 0.8550 0.8550 0.8550
3969.795090 0.8550 0.8550 0.8550 0.8550 0.8550
3974.668397 0.8550 0.8550 0.8550 0.8550 0.8550
3979.541703 0.8550 0.8550 0.8550 0.8550 0.8550
3984.415009 0.8550 0.8550 0.8550 0.8550 0.8550
3989.288316 0.8550 0.8550 0.8550 0.8550 0.8550
3994.161622 0.8550 0.8550 0.8550 0.8550
##END=
