##TITLE=1,3-CYCLOPENTADIENE, HEXACHLORO-
##JCAMP-DX=4.24
##DATA TYPE=INFRARED SPECTRUM
##CLASS=COBLENTZ III
##ORIGIN=DOW CHEMICAL COMPANY
##OWNER=COBLENTZ SOCIETY
Collection (C) 2018 copyright by the U.S. Secretary of Commerce
on behalf of the United States of America. All rights reserved.
##DATE=1964/05/04
##NAMES=1,2,3,4,5,5-hexachloro-1,3-cyclopentadiene
##CAS REGISTRY NO=77-47-4
##MOLFORM=C5 Cl6
##SOURCE REFERENCE=COBLENTZ NO. 10042
##$NIST SOURCE=COBLENTZ
##$NIST IMAGE=cob10042
##SPECTROMETER/DATA SYSTEM=DOW KBr FOREPRISM-GRATING
##INSTRUMENT PARAMETERS=BLAZED AT 3.5, 12.0, 20.0 MICRON, CHANGED AT 5.0, 7.5, 14.9 MICRON
##STATE=SOLUTION (10% IN CCl4 FOR 3800-1330 AND 10% IN CS2 FOR 1330-450 CM^-^1)
##PATH LENGTH=0.011, 0.011 CM
$$SPECTRAL CONTAMINATION DUE TO CCl4 AROUND 1550 CM^-^1
##SAMPLING PROCEDURE=TRANSMISSION
##RESOLUTION=4
##DATA PROCESSING=DIGITIZED BY NIST FROM HARD COPY (FROM TWO SEGMENTS)
##XUNITS=1/CM
##YUNITS=TRANSMITTANCE
##XFACTOR=1.000000
##YFACTOR=1
##DELTAX=0.870038
##FIRSTX=380.859
##LASTX=3795.76
##FIRSTY=0.123
##MAXX=3795.76
##MINX=380.859
##MAXY=1.008
##MINY=0.008
##NPOINTS=3926
##XYDATA=(X++(Y..Y))
380.859000 0.1230 0.1230 0.1230 0.1230 0.1230
385.209192 0.1230 0.1230 0.1250 0.1260 0.1260
389.559384 0.1270 0.1300 0.1330 0.1370 0.1440
393.909576 0.1490 0.1570 0.1610 0.1670 0.1710
398.259768 0.1830 0.2030 0.2350 0.2480 0.2889
402.609961 0.3159 0.3608 0.3909 0.4149 0.4439
406.960153 0.4830 0.4850 0.5579 0.5949 0.6140
411.310345 0.6300 0.6479 0.6629 0.6789 0.6939
415.660537 0.7060 0.7210 0.7320 0.7470 0.7560
420.010729 0.7640 0.7730 0.7780 0.7830 0.7920
424.360921 0.7970 0.8040 0.8110 0.8130 0.8190
428.711113 0.8230 0.8280 0.8300 0.8320 0.8380
433.061305 0.8420 0.8470 0.8530 0.8550 0.8600
437.411498 0.8610 0.8680 0.8700 0.8750 0.8760
441.761690 0.8790 0.8800 0.8800 0.8810 0.8810
446.111882 0.8810 0.8810 0.8830 0.8890 0.8910
450.462074 0.8960 0.9000 0.9030 0.9060 0.9080
454.812266 0.9080 0.9110 0.9130 0.9150 0.9170
459.162458 0.9190 0.9220 0.9220 0.9230 0.9230
463.512650 0.9290 0.9320 0.9330 0.9340 0.9360
467.862842 0.9360 0.9380 0.9410 0.9410 0.9420
472.213034 0.9420 0.9440 0.9470 0.9470 0.9470
476.563227 0.9470 0.9480 0.9510 0.9530 0.9530
480.913419 0.9550 0.9560 0.9560 0.9570 0.9590
485.263611 0.9600 0.9610 0.9610 0.9630 0.9640
489.613803 0.9640 0.9640 0.9640 0.9660 0.9670
493.963995 0.9680 0.9700 0.9700 0.9710 0.9720
498.314187 0.9720 0.9740 0.9740 0.9740 0.9750
502.664379 0.9760 0.9780 0.9780 0.9760 0.9760
507.014571 0.9790 0.9800 0.9830 0.9830 0.9830
511.364764 0.9850 0.9860 0.9860 0.9850 0.9850
515.714956 0.9850 0.9850 0.9850 0.9850 0.9850
520.065148 0.9860 0.9870 0.9900 0.9900 0.9900
524.415340 0.9900 0.9900 0.9900 0.9900 0.9890
528.765532 0.9890 0.9890 0.9870 0.9870 0.9860
533.115724 0.9850 0.9830 0.9800 0.9760 0.9750
537.465916 0.9740 0.9720 0.9490 0.9420 0.9320
541.816108 0.9230 0.9081 0.9080 0.9110 0.9190
546.166300 0.9410 0.9550 0.9700 0.9790 0.9870
550.516493 0.9870 0.9900 0.9930 0.9940 0.9930
554.866685 0.9930 0.9910 0.9900 0.9870 0.9890
559.216877 0.9930 0.9940 0.9970 0.9910 0.9950
563.567069 0.9950 0.9970 0.9950 0.9950 0.9940
567.917261 1.0010 1.0010 1.0000 1.0000 1.0000
572.267453 0.9980 0.9980 0.9970 0.9970 0.9980
576.617645 1.0000 1.0000 0.9980 0.9970 0.9950
580.967837 0.9950 0.9940 0.9940 0.9950 0.9950
585.318029 0.9950 0.9950 0.9950 0.9940 0.9940
589.668222 0.9970 0.9970 0.9970 0.9940 0.9940
594.018414 0.9940 0.9930 0.9910 0.9900 0.9900
598.368606 0.9900 0.9890 0.9870 0.9870 0.9860
602.718798 0.9850 0.9850 0.9850 0.9850 0.9850
607.068990 0.9850 0.9830 0.9750 0.9710 0.9720
611.419182 0.9740 0.9750 0.9750 0.9760 0.9750
615.769374 0.9750 0.9740 0.9710 0.9660 0.9630
620.119566 0.9550 0.9520 0.9480 0.9480 0.9470
624.469759 0.9440 0.9420 0.9410 0.9400 0.9360
628.819951 0.9270 0.9170 0.9100 0.8891 0.8691
633.170143 0.8490 0.7750 0.7330 0.7030 0.6232
637.520335 0.6230 0.6609 0.7806 0.7920 0.8109
641.870527 0.8300 0.8680 0.8720 0.8720 0.8680
646.220719 0.8640 0.8550 0.8421 0.8340 0.8320
650.570911 0.8310 0.8310 0.8390 0.8390 0.8350
654.921103 0.8260 0.8200 0.8170 0.8160 0.8170
659.271295 0.8220 0.8270 0.8280 0.8310 0.8380
663.621488 0.8470 0.8470 0.8500 0.8530 0.8530
667.971680 0.8430 0.8310 0.7941 0.7740 0.7321
672.321872 0.6951 0.6442 0.5783 0.5133 0.4553
676.672064 0.3700 0.2850 0.2251 0.1980 0.1581
681.022256 0.1480 0.1480 0.1879 0.2059 0.3195
685.372448 0.5891 0.6900 0.7640 0.8129 0.8310
689.722640 0.8530 0.8610 0.8700 0.8810 0.8810
694.072832 0.8770 0.8750 0.8680 0.8650 0.8411
698.423025 0.8121 0.7741 0.7371 0.7061 0.6443
702.773217 0.5960 0.5480 0.4781 0.3202 0.3170
707.123409 0.2182 0.2011 0.2010 0.2408 0.2430
711.473601 0.3050 0.3689 0.4139 0.5767 0.6039
715.823793 0.6299 0.6449 0.6689 0.7058 0.7299
720.173985 0.7390 0.7470 0.7730 0.7980 0.8339
724.524177 0.8470 0.8550 0.8660 0.8690 0.8760
728.874369 0.8810 0.8960 0.9000 0.9080 0.9140
733.224561 0.9300 0.9380 0.9420 0.9470 0.9510
737.574754 0.9520 0.9570 0.9610 0.9640 0.9660
741.924946 0.9670 0.9670 0.9700 0.9710 0.9720
746.275138 0.9720 0.9740 0.9740 0.9750 0.9750
750.625330 0.9740 0.9740 0.9720 0.9700 0.9680
754.975522 0.9640 0.9630 0.9600 0.9590 0.9570
759.325714 0.9570 0.9560 0.9560 0.9550 0.9530
763.675906 0.9530 0.9520 0.9510 0.9490 0.9470
768.026098 0.9420 0.9400 0.9400 0.9380 0.9340
772.376291 0.9320 0.9300 0.9290 0.9210 0.9140
776.726483 0.9100 0.8950 0.8771 0.8551 0.8540
781.076675 0.8550 0.8600 0.8640 0.8690 0.8730
785.426867 0.8730 0.8620 0.8610 0.8530 0.8341
789.777059 0.8200 0.7830 0.7500 0.7161 0.6761
794.127251 0.6331 0.5842 0.5352 0.4862 0.4213
798.477443 0.3339 0.2240 0.1720 0.1031 0.0770
802.827635 0.0511 0.0380 0.0171 0.0090 0.0080
807.177827 0.0080 0.0090 0.0120 0.1418 0.2787
811.528020 0.4405 0.6044 0.6727 0.7387 0.7927
815.878212 0.8280 0.8390 0.8570 0.8690 0.8790
820.228404 0.8880 0.8890 0.8940 0.8950 0.8960
824.578596 0.8980 0.8990 0.9000 0.9020 0.9080
828.928788 0.9100 0.9130 0.9130 0.9140 0.9130
833.278980 0.9110 0.9100 0.9060 0.9030 0.9020
837.629172 0.9000 0.8950 0.8801 0.8760 0.8680
841.979364 0.8540 0.8470 0.8380 0.8300 0.8190
846.329556 0.8110 0.7930 0.7731 0.7451 0.7241
850.679749 0.7070 0.6910 0.6760 0.6580 0.6440
855.029941 0.6201 0.5811 0.5591 0.5391 0.5171
859.380133 0.4750 0.4700 0.5779 0.6649 0.7299
863.730325 0.7689 0.7929 0.8149 0.8279 0.8310
868.080517 0.8390 0.8470 0.8500 0.8510 0.8580
872.430709 0.8640 0.8690 0.8720 0.8760 0.8790
876.780901 0.8810 0.8880 0.8910 0.9000 0.9080
881.131093 0.9100 0.9150 0.9220 0.9300 0.9380
885.481286 0.9440 0.9520 0.9560 0.9600 0.9630
889.831478 0.9670 0.9680 0.9710 0.9740 0.9740
894.181670 0.9740 0.9750 0.9750 0.9750 0.9720
898.531862 0.9700 0.9670 0.9670 0.9670 0.9680
902.882054 0.9750 0.9790 0.9820 0.9830 0.9830
907.232246 0.9850 0.9850 0.9850 0.9830 0.9820
911.582438 0.9800 0.9780 0.9750 0.9740 0.9740
915.932630 0.9740 0.9750 0.9780 0.9790 0.9790
920.282822 0.9790 0.9780 0.9780 0.9760 0.9750
924.633015 0.9740 0.9640 0.9610 0.9590 0.9530
928.983207 0.9470 0.9440 0.9420 0.9420 0.9410
933.333399 0.9360 0.9320 0.9300 0.9300 0.9300
937.683591 0.9300 0.9320 0.9400 0.9400 0.9450
942.033783 0.9520 0.9570 0.9570 0.9520 0.9450
946.383975 0.9410 0.9370 0.9320 0.9270 0.9210
950.734167 0.9190 0.9170 0.9110 0.9080 0.9030
955.084359 0.8960 0.8890 0.8880 0.8760 0.8620
959.434552 0.8460 0.8221 0.8220 0.8300 0.8380
963.784744 0.8750 0.8960 0.9080 0.9100 0.9100
968.134936 0.9040 0.8940 0.8791 0.8541 0.8202
972.485128 0.8200 0.8360 0.8570 0.8959 0.9130
976.835320 0.9220 0.9290 0.9370 0.9509 0.9530
981.185512 0.9590 0.9630 0.9660 0.9670 0.9680
985.535704 0.9670 0.9630 0.9600 0.9590 0.9590
989.885896 0.9700 0.9790 0.9850 0.9900 0.9930
994.236088 0.9950 0.9970 0.9950 0.9940 0.9970
998.586281 0.9980 0.9980 0.9970 0.9970 0.9930
1002.936473 0.9930 0.9930 0.9910 0.9900 0.9890
1007.286665 0.9870 0.9870 0.9860 0.9850 0.9800
1011.636857 0.9780 0.9750 0.9740 0.9710 0.9660
1015.987049 0.9630 0.9550 0.9490 0.9370 0.9190
1020.337241 0.9170 0.9210 0.9300 0.9400 0.9470
1024.687433 0.9640 0.9710 0.9750 0.9780 0.9790
1029.037625 0.9800 0.9800 0.9790 0.9790 0.9790
1033.387818 0.9790 0.9790 0.9790 0.9790 0.9780
1037.738010 0.9780 0.9780 0.9800 0.9800 0.9820
1042.088202 0.9830 0.9830 0.9830 0.9850 0.9850
1046.438394 0.9860 0.9870 0.9870 0.9870 0.9890
1050.788586 0.9900 0.9900 0.9910 0.9910 0.9910
1055.138778 0.9930 0.9940 0.9950 0.9950 0.9970
1059.488970 0.9970 0.9970 0.9970 0.9950 0.9940
1063.839162 0.9940 0.9940 0.9940 0.9950 0.9970
1068.189354 0.9970 1.0000 1.0010 1.0010 1.0010
1072.539547 1.0010 1.0010 1.0020 1.0020 1.0020
1076.889739 1.0040 1.0040 1.0040 1.0040 1.0020
1081.239931 1.0020 1.0010 1.0000 1.0000 1.0000
1085.590123 0.9980 1.0000 1.0000 0.9980 0.9970
1089.940315 0.9970 0.9950 0.9970 0.9970 0.9950
1094.290507 0.9950 0.9940 0.9950 0.9950 0.9970
1098.640699 0.9970 0.9970 0.9970 0.9950 0.9950
1102.990891 0.9950 0.9940 0.9930 0.9910 0.9900
1107.341083 0.9890 0.9870 0.9860 0.9830 0.9790
1111.691276 0.9760 0.9680 0.9640 0.9570 0.9530
1116.041468 0.9450 0.9340 0.9220 0.9100 0.8981
1120.391660 0.8880 0.8700 0.8640 0.8620 0.8620
1124.741852 0.8600 0.8570 0.8540 0.8510 0.8430
1129.092044 0.8300 0.7850 0.7580 0.7251 0.6761
1133.442236 0.6152 0.5721 0.5282 0.4454 0.3793
1137.792428 0.3359 0.2290 0.1800 0.1390 0.1390
1142.142620 0.1639 0.2069 0.2130 0.5607 0.6626
1146.492813 0.7070 0.7779 0.8199 0.8430 0.8570
1150.843005 0.8700 0.8760 0.8800 0.8850 0.8870
1155.193197 0.8870 0.8840 0.8810 0.8790 0.8680
1159.543389 0.8411 0.8300 0.8260 0.8260 0.8300
1163.893581 0.8350 0.8490 0.8510 0.8700 0.8790
1168.243773 0.8770 0.8750 0.8700 0.8650 0.8620
1172.593965 0.8620 0.8650 0.8660 0.8680 0.8690
1176.944157 0.8700 0.8700 0.8640 0.8391 0.8300
1181.294349 0.7930 0.7440 0.7160 0.6800 0.6331
1185.644542 0.6140 0.6010 0.6000 0.6120 0.6409
1189.994734 0.6580 0.6750 0.6830 0.7109 0.7659
1194.344926 0.8298 0.8499 0.8689 0.8799 0.8890
1198.695118 0.8940 0.8940 0.8910 0.8890 0.8760
1203.045310 0.8640 0.8421 0.7862 0.7472 0.7072
1207.395502 0.6749 0.5860 0.5540 0.5200 0.5539
1211.745694 0.5799 0.6678 0.7747 0.7820 0.7790
1216.095886 0.7750 0.7590 0.7480 0.7131 0.6831
1220.446079 0.6631 0.6311 0.5623 0.5102 0.4573
1224.796271 0.3960 0.3500 0.2291 0.1901 0.1231
1229.146463 0.0881 0.0521 0.0231 0.0200 0.0230
1233.496655 0.0390 0.0540 0.2259 0.3279 0.5986
1237.846847 0.6639 0.7777 0.8388 0.8490 0.8600
1242.197039 0.8720 0.8830 0.8910 0.8980 0.9020
1246.547231 0.9040 0.9080 0.9100 0.9100 0.9110
1250.897423 0.9110 0.9110 0.9110 0.9110 0.9110
1255.247615 0.9110 0.9110 0.9100 0.9100 0.9080
1259.597808 0.9070 0.9070 0.9060 0.9060 0.9060
1263.948000 0.9060 0.9060 0.9070 0.9070 0.9070
1268.298192 0.9080 0.9080 0.9130 0.9140 0.9150
1272.648384 0.9150 0.9170 0.9170 0.9180 0.9190
1276.998576 0.9210 0.9260 0.9300 0.9360 0.9420
1281.348768 0.9450 0.9480 0.9510 0.9520 0.9530
1285.698960 0.9560 0.9590 0.9610 0.9640 0.9670
1290.049152 0.9670 0.9680 0.9680 0.9680 0.9700
1294.399345 0.9700 0.9710 0.9710 0.9720 0.9740
1298.749537 0.9740 0.9740 0.9740 0.9740 0.9740
1303.099729 0.9740 0.9740 0.9740 0.9750 0.9760
1307.449921 0.9760 0.9760 0.9760 0.9760 0.9760
1311.800113 0.9750 0.9750 0.9760 0.9760 0.9760
1316.150305 0.9780 0.9780 0.9780 0.9760 0.9750
1320.500497 0.9750 0.9750 0.9750 0.9750 0.9750
1324.850689 0.9760 0.9780 0.9790 0.9790 0.9790
1329.200881 0.9790 0.9780 0.9780 0.9780 0.9780
1333.551074 0.9760 0.9780 0.9780 0.9760 0.9760
1337.901266 0.9760 0.9760 0.9760 0.9760 0.9760
1342.251458 0.9760 0.9750 0.9750 0.9740 0.9680
1346.601650 0.9660 0.9640 0.9630 0.9600 0.9590
1350.951842 0.9570 0.9550 0.9520 0.9520 0.9480
1355.302034 0.9480 0.9470 0.9470 0.9470 0.9470
1359.652226 0.9450 0.9450 0.9450 0.9450 0.9450
1364.002418 0.9450 0.9470 0.9470 0.9470 0.9490
1368.352610 0.9490 0.9490 0.9490 0.9490 0.9490
1372.702803 0.9510 0.9510 0.9530 0.9530 0.9550
1377.052995 0.9550 0.9550 0.9550 0.9530 0.9530
1381.403187 0.9530 0.9530 0.9530 0.9570 0.9600
1385.753379 0.9630 0.9630 0.9630 0.9630 0.9610
1390.103571 0.9590 0.9570 0.9550 0.9530 0.9530
1394.453763 0.9530 0.9530 0.9530 0.9530 0.9550
1398.803955 0.9550 0.9550 0.9530 0.9530 0.9520
1403.154147 0.9510 0.9510 0.9480 0.9470 0.9470
1407.504340 0.9470 0.9480 0.9490 0.9510 0.9510
1411.854532 0.9520 0.9530 0.9560 0.9570 0.9590
1416.204724 0.9590 0.9600 0.9630 0.9640 0.9640
1420.554916 0.9660 0.9670 0.9680 0.9740 0.9740
1424.905108 0.9750 0.9750 0.9750 0.9760 0.9760
1429.255300 0.9760 0.9780 0.9760 0.9790 0.9800
1433.605492 0.9820 0.9830 0.9830 0.9830 0.9830
1437.955684 0.9850 0.9850 0.9860 0.9860 0.9860
1442.305876 0.9860 0.9860 0.9860 0.9860 0.9860
1446.656069 0.9870 0.9870 0.9870 0.9870 0.9870
1451.006261 0.9870 0.9870 0.9870 0.9870 0.9870
1455.356453 0.9860 0.9850 0.9830 0.9830 0.9820
1459.706645 0.9800 0.9800 0.9800 0.9800 0.9800
1464.056837 0.9790 0.9780 0.9780 0.9760 0.9760
1468.407029 0.9760 0.9760 0.9750 0.9750 0.9750
1472.757221 0.9740 0.9740 0.9740 0.9700 0.9670
1477.107413 0.9630 0.9610 0.9610 0.9600 0.9590
1481.457606 0.9550 0.9520 0.9450 0.9420 0.9380
1485.807798 0.9360 0.9340 0.9330 0.9260 0.9180
1490.157990 0.9130 0.9110 0.9080 0.9040 0.9000
1494.508182 0.8960 0.8920 0.8890 0.8870 0.8810
1498.858374 0.8720 0.8610 0.8510 0.8470 0.8380
1503.208566 0.8310 0.8280 0.8170 0.8160 0.8150
1507.558758 0.8040 0.7940 0.7850 0.7780 0.7770
1511.908950 0.7740 0.7640 0.7580 0.7550 0.7440
1516.259142 0.7400 0.7370 0.7320 0.7220 0.7160
1520.609335 0.7130 0.7070 0.7050 0.6970 0.6900
1524.959527 0.6800 0.6730 0.6650 0.6610 0.6500
1529.309719 0.6450 0.6350 0.6290 0.6180 0.6080
1533.659911 0.5990 0.5780 0.5620 0.5500 0.5480
1538.010103 0.5460 0.5380 0.5290 0.5230 0.5170
1542.360295 0.5090 0.4980 0.4900 0.4870 0.4820
1546.710487 0.4780 0.4750 0.4750 0.4750 0.4760
1551.060679 0.4780 0.4800 0.4860 0.4870 0.4910
1555.410872 0.4980 0.5010 0.5090 0.5100 0.5120
1559.761064 0.5160 0.5230 0.5280 0.5290 0.5320
1564.111256 0.5290 0.5270 0.5170 0.5040 0.4761
1568.461448 0.4720 0.4640 0.4491 0.4490 0.4699
1572.811640 0.5860 0.6140 0.6200 0.6290 0.6300
1577.161832 0.6310 0.6310 0.6300 0.6270 0.6260
1581.512024 0.6200 0.6150 0.6040 0.5910 0.5740
1585.862216 0.5610 0.5470 0.5350 0.5131 0.4891
1590.212408 0.4710 0.4610 0.4610 0.4710 0.4710
1594.562601 0.4680 0.4530 0.4371 0.4151 0.3831
1598.912793 0.3579 0.2560 0.1340 0.0990 0.0850
1603.262985 0.0700 0.0391 0.0390 0.0609 0.0660
1607.613177 0.2921 0.5799 0.6579 0.7509 0.7750
1611.963369 0.8009 0.8199 0.8320 0.8499 0.8550
1616.313561 0.8680 0.8750 0.8810 0.8890 0.8940
1620.663753 0.8990 0.9020 0.9100 0.9150 0.9210
1625.013945 0.9300 0.9330 0.9370 0.9380 0.9400
1629.364137 0.9420 0.9450 0.9450 0.9450 0.9440
1633.714330 0.9420 0.9420 0.9410 0.9400 0.9400
1638.064522 0.9400 0.9410 0.9420 0.9450 0.9450
1642.414714 0.9470 0.9480 0.9530 0.9570 0.9600
1646.764906 0.9630 0.9640 0.9660 0.9670 0.9670
1651.115098 0.9670 0.9670 0.9670 0.9670 0.9700
1655.465290 0.9710 0.9740 0.9740 0.9740 0.9750
1659.815482 0.9750 0.9750 0.9750 0.9750 0.9760
1664.165674 0.9790 0.9790 0.9800 0.9800 0.9800
1668.515867 0.9800 0.9800 0.9790 0.9790 0.9790
1672.866059 0.9790 0.9800 0.9790 0.9790 0.9780
1677.216251 0.9780 0.9780 0.9790 0.9790 0.9780
1681.566443 0.9760 0.9750 0.9750 0.9750 0.9740
1685.916635 0.9740 0.9710 0.9700 0.9680 0.9670
1690.266827 0.9660 0.9640 0.9610 0.9560 0.9550
1694.617019 0.9530 0.9520 0.9470 0.9450 0.9440
1698.967211 0.9370 0.9270 0.9210 0.9130 0.9100
1703.317403 0.9020 0.8940 0.8890 0.8800 0.8760
1707.667596 0.8700 0.8680 0.8680 0.8730 0.8760
1712.017788 0.8770 0.8880 0.8920 0.9100 0.9140
1716.367980 0.9250 0.9300 0.9320 0.9360 0.9380
1720.718172 0.9440 0.9440 0.9450 0.9470 0.9480
1725.068364 0.9490 0.9520 0.9520 0.9550 0.9570
1729.418556 0.9560 0.9560 0.9550 0.9550 0.9550
1733.768748 0.9550 0.9550 0.9550 0.9550 0.9530
1738.118940 0.9520 0.9480 0.9450 0.9440 0.9400
1742.469133 0.9360 0.9300 0.9250 0.9180 0.9180
1746.819325 0.9230 0.9320 0.9360 0.9380 0.9450
1751.169517 0.9490 0.9510 0.9510 0.9510 0.9510
1755.519709 0.9490 0.9470 0.9440 0.9420 0.9330
1759.869901 0.9230 0.9140 0.9100 0.8921 0.8761
1764.220093 0.8530 0.8240 0.8070 0.8020 0.8070
1768.570285 0.8190 0.8419 0.8809 0.8979 0.9269
1772.920477 0.9410 0.9480 0.9550 0.9600 0.9630
1777.270669 0.9660 0.9680 0.9700 0.9700 0.9700
1781.620862 0.9700 0.9680 0.9680 0.9670 0.9670
1785.971054 0.9660 0.9630 0.9600 0.9570 0.9470
1790.321246 0.9360 0.9300 0.9220 0.9130 0.9060
1794.671438 0.8980 0.8771 0.8501 0.8301 0.8111
1799.021630 0.8120 0.8240 0.8300 0.8380 0.8680
1803.371822 0.8910 0.9219 0.9509 0.9550 0.9610
1807.722014 0.9640 0.9680 0.9710 0.9720 0.9740
1812.072206 0.9750 0.9750 0.9760 0.9760 0.9760
1816.422399 0.9760 0.9780 0.9780 0.9790 0.9790
1820.772591 0.9780 0.9780 0.9760 0.9760 0.9760
1825.122783 0.9750 0.9750 0.9750 0.9740 0.9740
1829.472975 0.9740 0.9710 0.9680 0.9670 0.9640
1833.823167 0.9600 0.9570 0.9560 0.9560 0.9560
1838.173359 0.9570 0.9590 0.9600 0.9610 0.9630
1842.523551 0.9660 0.9670 0.9700 0.9740 0.9740
1846.873743 0.9750 0.9750 0.9760 0.9790 0.9820
1851.223935 0.9830 0.9830 0.9830 0.9830 0.9830
1855.574128 0.9830 0.9850 0.9850 0.9860 0.9870
1859.924320 0.9890 0.9890 0.9890 0.9900 0.9900
1864.274512 0.9900 0.9900 0.9900 0.9900 0.9900
1868.624704 0.9890 0.9890 0.9890 0.9890 0.9890
1872.974896 0.9890 0.9890 0.9900 0.9910 0.9930
1877.325088 0.9930 0.9930 0.9910 0.9910 0.9900
1881.675280 0.9900 0.9900 0.9890 0.9890 0.9890
1886.025472 0.9890 0.9890 0.9870 0.9870 0.9860
1890.375664 0.9850 0.9830 0.9830 0.9850 0.9850
1894.725857 0.9850 0.9850 0.9830 0.9830 0.9830
1899.076049 0.9830 0.9820 0.9820 0.9800 0.9800
1903.426241 0.9800 0.9800 0.9800 0.9820 0.9820
1907.776433 0.9830 0.9830 0.9860 0.9860 0.9870
1912.126625 0.9890 0.9900 0.9910 0.9910 0.9930
1916.476817 0.9930 0.9930 0.9930 0.9930 0.9910
1920.827009 0.9910 0.9910 0.9910 0.9900 0.9890
1925.177201 0.9870 0.9850 0.9850 0.9860 0.9870
1929.527394 0.9870 0.9860 0.9850 0.9850 0.9830
1933.877586 0.9830 0.9830 0.9830 0.9830 0.9850
1938.227778 0.9860 0.9860 0.9860 0.9850 0.9860
1942.577970 0.9860 0.9860 0.9860 0.9870 0.9890
1946.928162 0.9900 0.9900 0.9900 0.9900 0.9900
1951.278354 0.9900 0.9900 0.9910 0.9930 0.9930
1955.628546 0.9930 0.9930 0.9910 0.9910 0.9910
1959.978738 0.9900 0.9890 0.9890 0.9870 0.9860
1964.328930 0.9860 0.9860 0.9850 0.9830 0.9830
1968.679123 0.9830 0.9860 0.9860 0.9830 0.9820
1973.029315 0.9820 0.9850 0.9850 0.9850 0.9850
1977.379507 0.9830 0.9820 0.9820 0.9790 0.9780
1981.729699 0.9760 0.9750 0.9750 0.9750 0.9750
1986.079891 0.9750 0.9760 0.9760 0.9760 0.9750
1990.430083 0.9590 0.9320 0.9250 0.9250 0.9609
1994.780275 0.9710 0.9740 0.9750 0.9750 0.9750
1999.130467 0.9750 0.9700 0.9720 0.9740 0.9745
2003.480660 0.9750 0.9750 0.9750 0.9750 0.9750
2007.830852 0.9750 0.9750 0.9755 0.9760 0.9770
2012.181044 0.9780 0.9780 0.9780 0.9780 0.9780
2016.531236 0.9780 0.9780 0.9790 0.9800 0.9800
2020.881428 0.9800 0.9790 0.9780 0.9780 0.9780
2025.231620 0.9780 0.9780 0.9785 0.9790 0.9795
2029.581812 0.9800 0.9800 0.9800 0.9809 0.9819
2033.932004 0.9811 0.9801 0.9800 0.9800 0.9791
2038.282196 0.9781 0.9780 0.9780 0.9789 0.9799
2042.632389 0.9800 0.9800 0.9800 0.9800 0.9800
2046.982581 0.9800 0.9800 0.9800 0.9800 0.9800
2051.332773 0.9800 0.9800 0.9800 0.9800 0.9800
2055.682965 0.9800 0.9800 0.9800 0.9800 0.9800
2060.033157 0.9809 0.9819 0.9820 0.9820 0.9820
2064.383349 0.9820 0.9811 0.9801 0.9796 0.9791
2068.733541 0.9786 0.9781 0.9784 0.9789 0.9803
2073.083733 0.9818 0.9833 0.9848 0.9872 0.9897
2077.433926 0.9878 0.9853 0.9841 0.9831 0.9830
2081.784118 0.9830 0.9830 0.9830 0.9830 0.9830
2086.134310 0.9830 0.9830 0.9830 0.9830 0.9830
2090.484502 0.9830 0.9830 0.9830 0.9830 0.9830
2094.834694 0.9838 0.9848 0.9850 0.9850 0.9850
2099.184886 0.9850 0.9854 0.9859 0.9856 0.9851
2103.535078 0.9850 0.9850 0.9850 0.9850 0.9850
2107.885270 0.9850 0.9854 0.9859 0.9860 0.9860
2112.235462 0.9860 0.9860 0.9860 0.9860 0.9860
2116.585655 0.9860 0.9860 0.9860 0.9860 0.9860
2120.935847 0.9860 0.9860 0.9860 0.9860 0.9860
2125.286039 0.9860 0.9860 0.9860 0.9864 0.9869
2129.636231 0.9866 0.9861 0.9848 0.9833 0.9826
2133.986423 0.9821 0.9820 0.9820 0.9812 0.9802
2138.336615 0.9800 0.9800 0.9796 0.9791 0.9790
2142.686807 0.9790 0.9790 0.9790 0.9786 0.9781
2147.036999 0.9772 0.9762 0.9760 0.9760 0.9756
2151.387191 0.9751 0.9750 0.9750 0.9750 0.9750
2155.737384 0.9750 0.9750 0.9750 0.9750 0.9754
2160.087576 0.9759 0.9767 0.9777 0.9784 0.9789
2164.437768 0.9801 0.9816 0.9820 0.9820 0.9824
2168.787960 0.9829 0.9830 0.9830 0.9830 0.9830
2173.138152 0.9830 0.9830 0.9830 0.9830 0.9830
2177.488344 0.9830 0.9830 0.9830 0.9826 0.9821
2181.838536 0.9813 0.9803 0.9797 0.9792 0.9790
2186.188728 0.9790 0.9790 0.9790 0.9790 0.9790
2190.538921 0.9793 0.9798 0.9800 0.9800 0.9807
2194.889113 0.9817 0.9823 0.9828 0.9830 0.9830
2199.239305 0.9827 0.9822 0.9823 0.9828 0.9830
2203.589497 0.9830 0.9830 0.9830 0.9837 0.9847
2207.939689 0.9850 0.9850 0.9843 0.9833 0.9830
2212.289881 0.9830 0.9830 0.9830 0.9830 0.9830
2216.640073 0.9827 0.9822 0.9823 0.9828 0.9830
2220.990265 0.9830 0.9827 0.9822 0.9820 0.9820
2225.340457 0.9820 0.9820 0.9820 0.9820 0.9814
2229.690650 0.9804 0.9797 0.9792 0.9790 0.9790
2234.040842 0.9790 0.9790 0.9790 0.9790 0.9787
2238.391034 0.9782 0.9783 0.9788 0.9787 0.9782
2242.741226 0.9780 0.9780 0.9774 0.9764 0.9766
2247.091418 0.9776 0.9780 0.9780 0.9774 0.9764
2251.441610 0.9757 0.9752 0.9747 0.9742 0.9740
2255.791802 0.9740 0.9740 0.9740 0.9734 0.9724
2260.141994 0.9720 0.9720 0.9720 0.9720 0.9720
2264.492187 0.9720 0.9717 0.9712 0.9707 0.9702
2268.842379 0.9689 0.9669 0.9654 0.9644 0.9640
2273.192571 0.9640 0.9640 0.9640 0.9637 0.9632
2277.542763 0.9630 0.9630 0.9608 0.9568 0.9545
2281.892955 0.9535 0.9527 0.9522 0.9523 0.9528
2286.243147 0.9535 0.9545 0.9553 0.9558 0.9563
2290.593339 0.9568 0.9570 0.9570 0.9570 0.9570
2294.943531 0.9570 0.9570 0.9575 0.9585 0.9593
2299.293723 0.9598 0.9603 0.9608 0.9610 0.9610
2303.643916 0.9610 0.9610 0.9610 0.9610 0.9610
2307.994108 0.9610 0.9615 0.9625 0.9632 0.9637
2312.344300 0.9645 0.9655 0.9662 0.9667 0.9670
2316.694492 0.9670 0.9663 0.9648 0.9640 0.9640
2321.044684 0.9650 0.9670 0.9689 0.9709 0.9725
2325.394876 0.9735 0.9740 0.9740 0.9742 0.9747
2329.745068 0.9750 0.9750 0.9757 0.9772 0.9782
2334.095260 0.9787 0.9790 0.9790 0.9790 0.9790
2338.445453 0.9788 0.9783 0.9780 0.9780 0.9780
2342.795645 0.9780 0.9780 0.9780 0.9776 0.9766
2347.145837 0.9764 0.9774 0.9780 0.9780 0.9782
2351.496029 0.9787 0.9788 0.9783 0.9780 0.9780
2355.846221 0.9780 0.9780 0.9780 0.9780 0.9780
2360.196413 0.9780 0.9780 0.9780 0.9780 0.9780
2364.546605 0.9780 0.9780 0.9780 0.9780 0.9780
2368.896797 0.9780 0.9780 0.9780 0.9780 0.9780
2373.246989 0.9780 0.9780 0.9780 0.9780 0.9780
2377.597182 0.9780 0.9780 0.9780 0.9780 0.9780
2381.947374 0.9780 0.9780 0.9776 0.9766 0.9760
2386.297566 0.9760 0.9760 0.9760 0.9760 0.9760
2390.647758 0.9760 0.9760 0.9760 0.9760 0.9764
2394.997950 0.9774 0.9780 0.9780 0.9780 0.9780
2399.348142 0.9782 0.9787 0.9790 0.9790 0.9790
2403.698334 0.9790 0.9790 0.9790 0.9790 0.9790
2408.048526 0.9790 0.9790 0.9790 0.9790 0.9788
2412.398718 0.9783 0.9780 0.9780 0.9780 0.9780
2416.748911 0.9780 0.9780 0.9780 0.9780 0.9777
2421.099103 0.9767 0.9760 0.9760 0.9760 0.9760
2425.449295 0.9760 0.9760 0.9763 0.9773 0.9782
2429.799487 0.9787 0.9790 0.9790 0.9790 0.9790
2434.149679 0.9790 0.9790 0.9792 0.9797 0.9800
2438.499871 0.9800 0.9794 0.9774 0.9760 0.9760
2442.850063 0.9760 0.9760 0.9760 0.9760 0.9760
2447.200255 0.9760 0.9760 0.9760 0.9764 0.9779
2451.550448 0.9790 0.9790 0.9789 0.9784 0.9777
2455.900640 0.9767 0.9759 0.9754 0.9750 0.9750
2460.250832 0.9750 0.9750 0.9750 0.9750 0.9750
2464.601024 0.9750 0.9750 0.9750 0.9751 0.9756
2468.951216 0.9762 0.9772 0.9780 0.9780 0.9778
2473.301408 0.9768 0.9760 0.9760 0.9760 0.9760
2477.651600 0.9759 0.9754 0.9749 0.9744 0.9737
2482.001792 0.9722 0.9709 0.9704 0.9701 0.9706
2486.351984 0.9710 0.9710 0.9710 0.9710 0.9711
2490.702177 0.9716 0.9722 0.9732 0.9740 0.9740
2495.052369 0.9740 0.9740 0.9740 0.9740 0.9740
2499.402561 0.9740 0.9738 0.9728 0.9720 0.9720
2503.752753 0.9719 0.9714 0.9710 0.9710 0.9710
2508.102945 0.9710 0.9710 0.9710 0.9710 0.9710
2512.453137 0.9710 0.9710 0.9709 0.9704 0.9698
2516.803329 0.9688 0.9680 0.9680 0.9680 0.9680
2521.153521 0.9679 0.9674 0.9670 0.9670 0.9670
2525.503714 0.9670 0.9670 0.9670 0.9670 0.9670
2529.853906 0.9671 0.9676 0.9680 0.9680 0.9681
2534.204098 0.9691 0.9701 0.9711 0.9721 0.9731
2538.554290 0.9740 0.9740 0.9741 0.9746 0.9750
2542.904482 0.9750 0.9749 0.9744 0.9739 0.9729
2547.254674 0.9720 0.9720 0.9720 0.9720 0.9720
2551.604866 0.9720 0.9720 0.9720 0.9720 0.9720
2555.955058 0.9720 0.9720 0.9720 0.9720 0.9720
2560.305250 0.9720 0.9720 0.9715 0.9710 0.9710
2564.655443 0.9710 0.9710 0.9710 0.9715 0.9720
2569.005635 0.9720 0.9720 0.9720 0.9721 0.9731
2573.355827 0.9740 0.9740 0.9740 0.9740 0.9740
2577.706019 0.9740 0.9740 0.9740 0.9740 0.9740
2582.056211 0.9740 0.9740 0.9740 0.9740 0.9740
2586.406403 0.9740 0.9740 0.9740 0.9740 0.9730
2590.756595 0.9720 0.9715 0.9710 0.9710 0.9710
2595.106787 0.9710 0.9710 0.9710 0.9710 0.9710
2599.456980 0.9710 0.9705 0.9700 0.9700 0.9700
2603.807172 0.9690 0.9680 0.9680 0.9680 0.9680
2608.157364 0.9680 0.9680 0.9680 0.9680 0.9680
2612.507556 0.9680 0.9680 0.9680 0.9680 0.9680
2616.857748 0.9680 0.9680 0.9680 0.9680 0.9680
2621.207940 0.9680 0.9680 0.9680 0.9680 0.9690
2625.558132 0.9700 0.9690 0.9680 0.9680 0.9680
2629.908324 0.9680 0.9680 0.9680 0.9680 0.9675
2634.258516 0.9670 0.9670 0.9670 0.9670 0.9670
2638.608709 0.9665 0.9660 0.9665 0.9670 0.9670
2642.958901 0.9670 0.9665 0.9660 0.9650 0.9640
2647.309093 0.9640 0.9640 0.9640 0.9640 0.9640
2651.659285 0.9640 0.9650 0.9659 0.9660 0.9660
2656.009477 0.9660 0.9660 0.9660 0.9660 0.9665
2660.359669 0.9670 0.9665 0.9660 0.9665 0.9670
2664.709861 0.9670 0.9670 0.9670 0.9670 0.9670
2669.060053 0.9670 0.9670 0.9670 0.9670 0.9670
2673.410245 0.9670 0.9670 0.9670 0.9670 0.9670
2677.760438 0.9670 0.9670 0.9670 0.9675 0.9680
2682.110630 0.9680 0.9680 0.9680 0.9680 0.9680
2686.460822 0.9680 0.9680 0.9680 0.9689 0.9699
2690.811014 0.9700 0.9700 0.9691 0.9681 0.9680
2695.161206 0.9680 0.9680 0.9680 0.9680 0.9680
2699.511398 0.9680 0.9680 0.9676 0.9671 0.9666
2703.861590 0.9661 0.9660 0.9660 0.9660 0.9660
2708.211782 0.9660 0.9660 0.9660 0.9660 0.9660
2712.561975 0.9660 0.9660 0.9660 0.9660 0.9660
2716.912167 0.9660 0.9660 0.9664 0.9669 0.9670
2721.262359 0.9670 0.9666 0.9661 0.9660 0.9660
2725.612551 0.9660 0.9660 0.9660 0.9660 0.9660
2729.962743 0.9660 0.9652 0.9642 0.9636 0.9631
2734.312935 0.9630 0.9630 0.9630 0.9630 0.9630
2738.663127 0.9630 0.9630 0.9630 0.9630 0.9630
2743.013319 0.9630 0.9630 0.9630 0.9630 0.9630
2747.363511 0.9630 0.9630 0.9630 0.9634 0.9639
2751.713704 0.9652 0.9667 0.9670 0.9670 0.9666
2756.063896 0.9661 0.9660 0.9660 0.9652 0.9642
2760.414088 0.9636 0.9631 0.9622 0.9612 0.9606
2764.764280 0.9601 0.9600 0.9600 0.9600 0.9600
2769.114472 0.9600 0.9600 0.9596 0.9591 0.9590
2773.464664 0.9590 0.9590 0.9590 0.9590 0.9590
2777.814856 0.9594 0.9599 0.9600 0.9600 0.9589
2782.165048 0.9574 0.9570 0.9570 0.9563 0.9553
2786.515241 0.9550 0.9550 0.9543 0.9533 0.9530
2790.865433 0.9530 0.9537 0.9547 0.9550 0.9550
2795.215625 0.9550 0.9550 0.9554 0.9559 0.9560
2799.565817 0.9560 0.9560 0.9560 0.9560 0.9560
2803.916009 0.9560 0.9560 0.9560 0.9560 0.9560
2808.266201 0.9560 0.9564 0.9568 0.9570 0.9570
2812.616393 0.9567 0.9562 0.9557 0.9552 0.9550
2816.966585 0.9550 0.9550 0.9550 0.9550 0.9550
2821.316777 0.9543 0.9533 0.9530 0.9530 0.9530
2825.666970 0.9530 0.9530 0.9530 0.9530 0.9530
2830.017162 0.9530 0.9530 0.9527 0.9522 0.9520
2834.367354 0.9520 0.9517 0.9512 0.9503 0.9493
2838.717546 0.9490 0.9490 0.9497 0.9507 0.9510
2843.067738 0.9510 0.9510 0.9510 0.9510 0.9510
2847.417930 0.9504 0.9494 0.9490 0.9490 0.9490
2851.768122 0.9490 0.9490 0.9490 0.9490 0.9490
2856.118314 0.9490 0.9490 0.9490 0.9490 0.9487
2860.468507 0.9482 0.9480 0.9480 0.9483 0.9488
2864.818699 0.9490 0.9490 0.9490 0.9490 0.9496
2869.168891 0.9506 0.9510 0.9510 0.9510 0.9510
2873.519083 0.9510 0.9510 0.9510 0.9510 0.9504
2877.869275 0.9494 0.9490 0.9490 0.9487 0.9482
2882.219467 0.9483 0.9488 0.9490 0.9490 0.9490
2886.569659 0.9490 0.9496 0.9506 0.9510 0.9510
2890.919851 0.9510 0.9510 0.9510 0.9510 0.9510
2895.270043 0.9510 0.9513 0.9518 0.9520 0.9520
2899.620236 0.9523 0.9528 0.9535 0.9545 0.9550
2903.970428 0.9550 0.9550 0.9550 0.9550 0.9550
2908.320620 0.9550 0.9550 0.9550 0.9550 0.9545
2912.670812 0.9535 0.9530 0.9530 0.9527 0.9522
2917.021004 0.9520 0.9520 0.9520 0.9520 0.9523
2921.371196 0.9528 0.9527 0.9522 0.9520 0.9520
2925.721388 0.9520 0.9520 0.9520 0.9520 0.9520
2930.071580 0.9520 0.9517 0.9512 0.9513 0.9517
2934.421772 0.9520 0.9520 0.9520 0.9520 0.9520
2938.771965 0.9520 0.9520 0.9520 0.9520 0.9520
2943.122157 0.9520 0.9520 0.9520 0.9520 0.9520
2947.472349 0.9520 0.9520 0.9520 0.9518 0.9513
2951.822541 0.9505 0.9495 0.9490 0.9490 0.9490
2956.172733 0.9490 0.9495 0.9505 0.9510 0.9510
2960.522925 0.9512 0.9517 0.9520 0.9520 0.9520
2964.873117 0.9520 0.9520 0.9520 0.9520 0.9520
2969.223309 0.9520 0.9520 0.9513 0.9499 0.9490
2973.573502 0.9490 0.9490 0.9490 0.9490 0.9490
2977.923694 0.9494 0.9504 0.9510 0.9510 0.9510
2982.273886 0.9510 0.9512 0.9517 0.9520 0.9520
2986.624078 0.9520 0.9520 0.9522 0.9527 0.9530
2990.974270 0.9530 0.9530 0.9530 0.9530 0.9530
2995.324462 0.9530 0.9530 0.9530 0.9530 0.9530
2999.674654 0.9530 0.9528 0.9523 0.9520 0.9520
3004.024846 0.9518 0.9513 0.9510 0.9510 0.9506
3008.375038 0.9496 0.9497 0.9518 0.9530 0.9530
3012.725231 0.9526 0.9516 0.9510 0.9510 0.9510
3017.075423 0.9510 0.9512 0.9517 0.9520 0.9520
3021.425615 0.9522 0.9527 0.9530 0.9530 0.9528
3025.775807 0.9523 0.9520 0.9520 0.9520 0.9520
3030.125999 0.9522 0.9527 0.9530 0.9530 0.9528
3034.476191 0.9523 0.9520 0.9520 0.9520 0.9520
3038.826383 0.9518 0.9513 0.9507 0.9497 0.9490
3043.176575 0.9490 0.9490 0.9490 0.9490 0.9490
3047.526768 0.9493 0.9503 0.9510 0.9510 0.9510
3051.876960 0.9510 0.9510 0.9510 0.9512 0.9517
3056.227152 0.9520 0.9520 0.9520 0.9520 0.9521
3060.577344 0.9526 0.9530 0.9530 0.9527 0.9517
3064.927536 0.9510 0.9510 0.9510 0.9510 0.9510
3069.277728 0.9510 0.9510 0.9510 0.9510 0.9510
3073.627920 0.9510 0.9510 0.9510 0.9510 0.9511
3077.978112 0.9516 0.9520 0.9520 0.9520 0.9520
3082.328304 0.9520 0.9520 0.9521 0.9526 0.9529
3086.678497 0.9524 0.9520 0.9520 0.9520 0.9520
3091.028689 0.9520 0.9520 0.9520 0.9520 0.9520
3095.378881 0.9520 0.9520 0.9520 0.9520 0.9520
3099.729073 0.9519 0.9514 0.9508 0.9498 0.9489
3104.079265 0.9484 0.9480 0.9480 0.9480 0.9480
3108.429457 0.9480 0.9480 0.9481 0.9486 0.9490
3112.779649 0.9490 0.9490 0.9490 0.9490 0.9490
3117.129841 0.9492 0.9502 0.9510 0.9510 0.9510
3121.480034 0.9510 0.9510 0.9510 0.9510 0.9510
3125.830226 0.9510 0.9510 0.9510 0.9510 0.9510
3130.180418 0.9510 0.9511 0.9516 0.9520 0.9520
3134.530610 0.9520 0.9520 0.9520 0.9520 0.9520
3138.880802 0.9520 0.9520 0.9520 0.9520 0.9520
3143.230994 0.9520 0.9520 0.9519 0.9514 0.9508
3147.581186 0.9493 0.9478 0.9463 0.9450 0.9450
3151.931378 0.9450 0.9450 0.9452 0.9462 0.9471
3156.281570 0.9476 0.9483 0.9503 0.9520 0.9520
3160.631763 0.9521 0.9526 0.9530 0.9530 0.9530
3164.981955 0.9530 0.9530 0.9530 0.9531 0.9541
3169.332147 0.9550 0.9550 0.9551 0.9556 0.9560
3173.682339 0.9560 0.9560 0.9560 0.9560 0.9560
3178.032531 0.9561 0.9566 0.9570 0.9570 0.9570
3182.382723 0.9570 0.9570 0.9570 0.9570 0.9570
3186.732915 0.9570 0.9570 0.9570 0.9565 0.9560
3191.083107 0.9560 0.9560 0.9565 0.9570 0.9570
3195.433299 0.9571 0.9581 0.9590 0.9590 0.9590
3199.783492 0.9590 0.9591 0.9601 0.9610 0.9610
3204.133684 0.9610 0.9605 0.9600 0.9605 0.9610
3208.483876 0.9610 0.9610 0.9605 0.9600 0.9605
3212.834068 0.9610 0.9610 0.9610 0.9610 0.9610
3217.184260 0.9610 0.9610 0.9620 0.9630 0.9630
3221.534452 0.9630 0.9635 0.9640 0.9640 0.9640
3225.884644 0.9640 0.9640 0.9640 0.9640 0.9650
3230.234836 0.9660 0.9660 0.9660 0.9645 0.9630
3234.585029 0.9630 0.9630 0.9630 0.9630 0.9630
3238.935221 0.9630 0.9635 0.9640 0.9640 0.9640
3243.285413 0.9640 0.9640 0.9640 0.9640 0.9640
3247.635605 0.9640 0.9650 0.9660 0.9660 0.9660
3251.985797 0.9660 0.9660 0.9660 0.9660 0.9660
3256.335989 0.9660 0.9660 0.9660 0.9660 0.9660
3260.686181 0.9660 0.9660 0.9665 0.9670 0.9665
3265.036373 0.9660 0.9660 0.9660 0.9660 0.9660
3269.386565 0.9660 0.9660 0.9660 0.9660 0.9665
3273.736758 0.9670 0.9670 0.9670 0.9670 0.9670
3278.086950 0.9675 0.9680 0.9680 0.9680 0.9675
3282.437142 0.9670 0.9670 0.9670 0.9670 0.9670
3286.787334 0.9670 0.9670 0.9670 0.9670 0.9670
3291.137526 0.9670 0.9670 0.9670 0.9670 0.9670
3295.487718 0.9670 0.9670 0.9670 0.9670 0.9670
3299.837910 0.9670 0.9684 0.9699 0.9700 0.9700
3304.188102 0.9705 0.9710 0.9710 0.9710 0.9715
3308.538295 0.9720 0.9720 0.9720 0.9734 0.9748
3312.888487 0.9750 0.9750 0.9746 0.9741 0.9740
3317.238679 0.9740 0.9740 0.9740 0.9740 0.9740
3321.588871 0.9744 0.9749 0.9746 0.9741 0.9740
3325.939063 0.9740 0.9740 0.9740 0.9740 0.9740
3330.289255 0.9744 0.9749 0.9750 0.9750 0.9750
3334.639447 0.9750 0.9750 0.9750 0.9750 0.9750
3338.989639 0.9750 0.9750 0.9750 0.9750 0.9750
3343.339831 0.9750 0.9750 0.9750 0.9750 0.9750
3347.690024 0.9750 0.9750 0.9750 0.9750 0.9738
3352.040216 0.9723 0.9720 0.9720 0.9720 0.9720
3356.390408 0.9728 0.9738 0.9744 0.9749 0.9754
3360.740600 0.9759 0.9760 0.9760 0.9756 0.9751
3365.090792 0.9750 0.9750 0.9750 0.9750 0.9746
3369.440984 0.9741 0.9740 0.9740 0.9740 0.9740
3373.791176 0.9744 0.9749 0.9750 0.9750 0.9750
3378.141368 0.9750 0.9754 0.9759 0.9768 0.9778
3382.491561 0.9780 0.9780 0.9780 0.9780 0.9772
3386.841753 0.9762 0.9760 0.9760 0.9760 0.9760
3391.191945 0.9768 0.9778 0.9780 0.9780 0.9780
3395.542137 0.9780 0.9780 0.9780 0.9780 0.9780
3399.892329 0.9784 0.9789 0.9790 0.9790 0.9786
3404.242521 0.9781 0.9780 0.9780 0.9773 0.9763
3408.592713 0.9760 0.9760 0.9753 0.9743 0.9740
3412.942905 0.9740 0.9744 0.9749 0.9750 0.9750
3417.293097 0.9754 0.9759 0.9760 0.9760 0.9760
3421.643290 0.9760 0.9767 0.9777 0.9784 0.9789
3425.993482 0.9790 0.9790 0.9790 0.9790 0.9790
3430.343674 0.9790 0.9786 0.9781 0.9773 0.9763
3434.693866 0.9760 0.9760 0.9760 0.9760 0.9760
3439.044058 0.9760 0.9757 0.9752 0.9750 0.9750
3443.394250 0.9750 0.9750 0.9750 0.9750 0.9750
3447.744442 0.9750 0.9747 0.9742 0.9740 0.9740
3452.094634 0.9754 0.9773 0.9780 0.9780 0.9780
3456.444826 0.9780 0.9783 0.9788 0.9790 0.9790
3460.795019 0.9787 0.9782 0.9780 0.9780 0.9780
3465.145211 0.9780 0.9780 0.9780 0.9783 0.9788
3469.495403 0.9790 0.9790 0.9780 0.9765 0.9760
3473.845595 0.9760 0.9760 0.9760 0.9760 0.9760
3478.195787 0.9760 0.9760 0.9760 0.9760 0.9754
3482.545979 0.9744 0.9740 0.9740 0.9743 0.9748
3486.896171 0.9750 0.9750 0.9753 0.9758 0.9766
3491.246363 0.9776 0.9774 0.9764 0.9757 0.9752
3495.596556 0.9750 0.9750 0.9747 0.9742 0.9743
3499.946748 0.9748 0.9750 0.9750 0.9750 0.9750
3504.296940 0.9741 0.9726 0.9720 0.9720 0.9720
3508.647132 0.9720 0.9726 0.9736 0.9740 0.9740
3512.997324 0.9746 0.9756 0.9760 0.9760 0.9760
3517.347516 0.9760 0.9766 0.9776 0.9783 0.9788
3521.697708 0.9793 0.9798 0.9789 0.9769 0.9760
3526.047900 0.9760 0.9760 0.9760 0.9768 0.9783
3530.398092 0.9793 0.9798 0.9808 0.9823 0.9836
3534.748285 0.9845 0.9850 0.9850 0.9853 0.9858
3539.098477 0.9860 0.9860 0.9860 0.9860 0.9863
3543.448669 0.9868 0.9870 0.9870 0.9870 0.9870
3547.798861 0.9870 0.9870 0.9875 0.9885 0.9890
3552.149053 0.9890 0.9890 0.9890 0.9890 0.9890
3556.499245 0.9890 0.9890 0.9893 0.9898 0.9900
3560.849437 0.9900 0.9898 0.9893 0.9892 0.9897
3565.199629 0.9902 0.9907 0.9910 0.9910 0.9910
3569.549822 0.9910 0.9910 0.9910 0.9910 0.9910
3573.900014 0.9910 0.9910 0.9910 0.9910 0.9910
3578.250206 0.9910 0.9908 0.9903 0.9900 0.9900
3582.600398 0.9902 0.9907 0.9908 0.9903 0.9900
3586.950590 0.9900 0.9900 0.9900 0.9902 0.9907
3591.300782 0.9915 0.9925 0.9932 0.9937 0.9940
3595.650974 0.9940 0.9940 0.9940 0.9942 0.9947
3600.001166 0.9950 0.9950 0.9950 0.9950 0.9950
3604.351358 0.9950 0.9954 0.9964 0.9970 0.9970
3608.701551 0.9970 0.9970 0.9970 0.9970 0.9970
3613.051743 0.9970 0.9970 0.9970 0.9970 0.9970
3617.401935 0.9970 0.9970 0.9972 0.9977 0.9980
3621.752127 0.9980 0.9980 0.9980 0.9980 0.9980
3626.102319 0.9980 0.9980 0.9978 0.9973 0.9970
3630.452511 0.9970 0.9970 0.9970 0.9970 0.9970
3634.802703 0.9970 0.9970 0.9970 0.9970 0.9970
3639.152895 0.9970 0.9972 0.9977 0.9980 0.9980
3643.503088 0.9980 0.9980 0.9980 0.9980 0.9980
3647.853280 0.9980 0.9980 0.9980 0.9980 0.9980
3652.203472 0.9980 0.9980 0.9980 0.9980 0.9980
3656.553664 0.9980 0.9980 0.9980 0.9980 0.9980
3660.903856 0.9980 0.9980 0.9978 0.9973 0.9972
3665.254048 0.9977 0.9980 0.9980 0.9978 0.9973
3669.604240 0.9975 0.9990 1.0000 1.0000 0.9997
3673.954432 0.9987 0.9980 0.9980 0.9980 0.9980
3678.304624 0.9980 0.9980 0.9980 0.9980 0.9983
3682.654817 0.9993 1.0000 1.0000 1.0002 1.0007
3687.005009 1.0010 1.0010 1.0009 1.0004 1.0000
3691.355201 1.0000 1.0000 1.0000 1.0000 1.0000
3695.705393 1.0000 1.0000 1.0000 1.0000 1.0000
3700.055585 1.0000 1.0000 1.0000 1.0000 1.0000
3704.405777 1.0000 1.0000 1.0000 1.0000 1.0000
3708.755969 1.0000 1.0000 1.0000 1.0000 1.0000
3713.106161 1.0000 1.0000 1.0001 1.0006 1.0010
3717.456353 1.0010 1.0010 1.0010 1.0010 1.0010
3721.806546 1.0010 1.0010 1.0010 1.0010 1.0010
3726.156738 1.0010 1.0010 1.0010 1.0010 1.0010
3730.506930 1.0010 1.0010 1.0009 1.0004 1.0000
3734.857122 1.0000 1.0000 1.0000 1.0000 1.0000
3739.207314 1.0000 1.0000 1.0001 1.0006 1.0010
3743.557506 1.0010 1.0010 1.0010 1.0011 1.0016
3747.907698 1.0022 1.0032 1.0041 1.0046 1.0051
3752.257890 1.0056 1.0060 1.0060 1.0060 1.0060
3756.608083 1.0062 1.0072 1.0080 1.0080 1.0080
3760.958275 1.0080 1.0080 1.0080 1.0080 1.0080
3765.308467 1.0080 1.0080 1.0080 1.0080 1.0078
3769.658659 1.0068 1.0060 1.0060 1.0060 1.0060
3774.008851 1.0060 1.0060 1.0059 1.0054 1.0050
3778.359043 1.0050 1.0050 1.0050 1.0050 1.0050
3782.709235 1.0050 1.0050 1.0050 1.0050 1.0049
3787.059427 1.0044 1.0040 1.0040 1.0039 1.0029
3791.409619 1.0020 1.0020 1.0020 1.0020 1.0020
3795.759812 1.0020
##END=
