##TITLE=Silane, diphenyl-
##JCAMP-DX=4.24
##DATA TYPE=INFRARED SPECTRUM
##CLASS=COBLENTZ II
##ORIGIN=DOW CORNING CORP.
##OWNER=Copyright (C) 1987 by the Coblentz Society
Collection (C) 2018 copyright by the U.S. Secretary of Commerce
on behalf of the United States of America. All rights reserved.
##DATE=1965/09/14
##NAMES=diphenylsilane
##CAS REGISTRY NO=775-12-2
##MOLFORM=C12 H12 Si
##BP=75 C
##SOURCE REFERENCE=COBLENTZ NO. 5544
##$NIST SOURCE=COBLENTZ
##$NIST IMAGE=cob5544
##SPECTROMETER/DATA SYSTEM=PERKIN-ELMER 521 (GRATING)
##INSTRUMENT PARAMETERS=FILTERS AT 3150, 2500, 2000, 1150, 700, 410. GRATING CHANGES: 2000, 630
##STATE=SOLUTION (10% CCl4 FOR 3800-1300, 2% CS2 FOR 1300-650, AND 10% CCl4 FOR 650-250)
##PATH LENGTH=0.011 CM, 0.011 CM, AND 0.010 CM
$$ SPECTRAL FEATURE AT 624 CM^-^1 IS AN ARTIFACT CAUSED BY A CHANGE IN RECORDING PARAMETER
##RESOLUTION=2
##XUNITS=1/CM
##YUNITS=TRANSMITTANCE
##XFACTOR=1.0
##YFACTOR=1
##FIRSTX=254
##LASTX=3808
##FIRSTY=0.8988
##MAXX=3808
##MINX=254
##MAXY=0.9027
##MINY=0.0174
##NPOINTS=3555
##XYDATA=(X++(Y..Y))
254.000000 0.8988 0.8986 0.8985 0.8984 0.8983
259.000000 0.8983 0.8986 0.8991 0.8995 0.8999
264.000000 0.9002 0.8999 0.8996 0.8993 0.8990
269.000000 0.8987 0.8986 0.8985 0.8984 0.8984
274.000000 0.8989 0.8995 0.9000 0.9006 0.9011
279.000000 0.9016 0.9019 0.9021 0.9024 0.9027
284.000000 0.9027 0.9024 0.9020 0.9017 0.9013
289.000000 0.9009 0.9006 0.9003 0.9001 0.8999
294.000000 0.8998 0.8996 0.8994 0.8992 0.8990
299.000000 0.8988 0.8986 0.8985 0.8983 0.8981
304.000000 0.8979 0.8984 0.8990 0.8996 0.9002
309.000000 0.9007 0.9008 0.9010 0.9011 0.9012
314.000000 0.9007 0.9001 0.8995 0.8989 0.8984
319.000000 0.8980 0.8999 0.8981 0.8981 0.8984
324.000000 0.8987 0.8989 0.8992 0.8994 0.8993
329.000000 0.8992 0.8991 0.8990 0.8989 0.8988
334.000000 0.8988 0.8988 0.8987 0.8987 0.8987
339.000000 0.8986 0.8981 0.8977 0.8972 0.8968
344.000000 0.8963 0.8957 0.8943 0.8929 0.8914
349.000000 0.8900 0.8882 0.8855 0.8829 0.8802
354.000000 0.8775 0.8748 0.8714 0.8669 0.8625
359.000000 0.8581 0.8537 0.8501 0.8466 0.8431
364.000000 0.8396 0.8361 0.8327 0.8281 0.8222
369.000000 0.8162 0.8103 0.8050 0.7997 0.7952
374.000000 0.7928 0.7916 0.7915 0.7929 0.7923
379.000000 0.7929 0.7965 0.8023 0.8103 0.8210
384.000000 0.8389 0.8482 0.8522 0.8543 0.8544
389.000000 0.8545 0.8553 0.8560 0.8567 0.8577
394.000000 0.8591 0.8614 0.8600 0.8597 0.8587
399.000000 0.8567 0.8543 0.8516 0.8490 0.8456
404.000000 0.8420 0.8380 0.8313 0.8243 0.8161
409.000000 0.8080 0.7969 0.7743 0.6870 0.6510
414.000000 0.6149 0.5789 0.5429 0.5068 0.4708
419.000000 0.4348 0.3988 0.3651 0.3650 0.3802
424.000000 0.4556 0.5310 0.6065 0.6819 0.7285
429.000000 0.7622 0.7707 0.7793 0.7884 0.7979
434.000000 0.8074 0.8160 0.8242 0.8323 0.8391
439.000000 0.8445 0.8499 0.8545 0.8581 0.8608
444.000000 0.8619 0.8630 0.8631 0.8626 0.8622
449.000000 0.8609 0.8585 0.8549 0.8505 0.8458
454.000000 0.8400 0.8341 0.8276 0.8210 0.8122
459.000000 0.8008 0.7807 0.7682 0.7569 0.7374
464.000000 0.7076 0.6778 0.6480 0.6182 0.5883
469.000000 0.5585 0.5287 0.4989 0.4691 0.4421
474.000000 0.4255 0.4186 0.4147 0.4133 0.4136
479.000000 0.4143 0.4181 0.4253 0.4418 0.4539
484.000000 0.4678 0.5154 0.5502 0.5851 0.6200
489.000000 0.6549 0.6818 0.6970 0.7142 0.7340
494.000000 0.7518 0.7610 0.7702 0.7794 0.7905
499.000000 0.8046 0.8135 0.8193 0.8251 0.8273
504.000000 0.8290 0.8307 0.8325 0.8330 0.8332
509.000000 0.8335 0.8333 0.8330 0.8327 0.8330
514.000000 0.8340 0.8351 0.8361 0.8375 0.8390
519.000000 0.8406 0.8421 0.8437 0.8463 0.8489
524.000000 0.8515 0.8540 0.8567 0.8594 0.8622
529.000000 0.8643 0.8656 0.8669 0.8679 0.8679
534.000000 0.8679 0.8679 0.8646 0.8678 0.8678
539.000000 0.8678 0.8678 0.8675 0.8670 0.8665
544.000000 0.8660 0.8655 0.8650 0.8642 0.8628
549.000000 0.8613 0.8592 0.8570 0.8549 0.8527
554.000000 0.8500 0.8471 0.8441 0.8411 0.8381
559.000000 0.8350 0.8317 0.8284 0.8250 0.8217
564.000000 0.8184 0.8150 0.8099 0.8016 0.7930
569.000000 0.7808 0.7686 0.7573 0.7462 0.7350
574.000000 0.7235 0.7091 0.6948 0.6769 0.6356
579.000000 0.5777 0.5178 0.4580 0.3981 0.3382
584.000000 0.2784 0.2185 0.1586 0.0987 0.0416
589.000000 0.0419 0.0422 0.0428 0.1038 0.1648
594.000000 0.2258 0.2868 0.3477 0.4087 0.4697
599.000000 0.5307 0.5917 0.6527 0.7136 0.7421
604.000000 0.7519 0.7807 0.7967 0.8052 0.8094
609.000000 0.8096 0.8121 0.8090 0.7951 0.7749
614.000000 0.7547 0.7346 0.7144 0.6942 0.6974
619.000000 0.6960 0.7786 0.8395 0.8405 0.8081
624.000000 0.7651 0.7658 0.7908 0.8186 0.8329
629.000000 0.8341 0.8355 0.8375 0.8394 0.8413
634.000000 0.8423 0.8434 0.8443 0.8448 0.8453
639.000000 0.8458 0.8462 0.8466 0.8470 0.8483
644.000000 0.8477 0.8481 0.8485 0.8489 0.8485
649.000000 0.8400 0.8316 0.8231 0.8146 0.8127
654.000000 0.8121 0.8115 0.8107 0.8097 0.8067
659.000000 0.8024 0.7974 0.7950 0.7925 0.7905
664.000000 0.7902 0.7891 0.7880 0.7867 0.7844
669.000000 0.7821 0.7820 0.7832 0.7843 0.7855
674.000000 0.7866 0.7876 0.7878 0.7879 0.7871
679.000000 0.7850 0.7802 0.7744 0.7675 0.7599
684.000000 0.7509 0.7420 0.7323 0.7223 0.7123
689.000000 0.6984 0.6792 0.6288 0.5783 0.5279
694.000000 0.4774 0.4270 0.3765 0.3475 0.3473
699.000000 0.3488 0.3499 0.3711 0.4234 0.4758
704.000000 0.5281 0.5804 0.6001 0.6045 0.6087
709.000000 0.6127 0.6162 0.6202 0.6258 0.6359
714.000000 0.6451 0.6467 0.6483 0.6486 0.6484
719.000000 0.6478 0.6455 0.6405 0.6330 0.6262
724.000000 0.6195 0.6128 0.6060 0.5992 0.5876
729.000000 0.5602 0.5329 0.5056 0.4782 0.4688
734.000000 0.4669 0.4669 0.4661 0.5323 0.5783
739.000000 0.6242 0.6702 0.7023 0.7106 0.7188
744.000000 0.7303 0.7409 0.7468 0.7527 0.7541
749.000000 0.7555 0.7570 0.7577 0.7581 0.7586
754.000000 0.7591 0.7590 0.7585 0.7600 0.7639
759.000000 0.7679 0.7729 0.7780 0.7831 0.7881
764.000000 0.7930 0.7970 0.8010 0.8051 0.8088
769.000000 0.8109 0.8129 0.8146 0.8150 0.8154
774.000000 0.8157 0.8161 0.8160 0.8159 0.8157
779.000000 0.8155 0.8154 0.8153 0.8150 0.8147
784.000000 0.8144 0.8141 0.8138 0.8134 0.8128
789.000000 0.8121 0.8115 0.8109 0.8102 0.8101
794.000000 0.8104 0.8107 0.8110 0.8112 0.8114
799.000000 0.8116 0.8107 0.8085 0.8064 0.8038
804.000000 0.8009 0.7981 0.7947 0.7913 0.7879
809.000000 0.7843 0.7795 0.7746 0.7698 0.7656
814.000000 0.7620 0.7585 0.7555 0.7543 0.7531
819.000000 0.7509 0.7471 0.7433 0.7358 0.7269
824.000000 0.7160 0.7043 0.6927 0.6571 0.6440
829.000000 0.6309 0.6179 0.5241 0.4657 0.4073
834.000000 0.3489 0.2905 0.2321 0.1737 0.1153
839.000000 0.0570 0.0355 0.0341 0.0354 0.0692
844.000000 0.1292 0.1893 0.2493 0.3093 0.3693
849.000000 0.4294 0.4894 0.5494 0.5987 0.6743
854.000000 0.6991 0.7120 0.7238 0.7324 0.7391
859.000000 0.7458 0.7519 0.7571 0.7623 0.7671
864.000000 0.7693 0.7716 0.7725 0.7730 0.7735
869.000000 0.7745 0.7760 0.7776 0.7815 0.7863
874.000000 0.7879 0.7894 0.7910 0.7914 0.7916
879.000000 0.7918 0.7919 0.7921 0.7922 0.7924
884.000000 0.7901 0.7926 0.7928 0.7926 0.7924
889.000000 0.7921 0.7919 0.7917 0.7914 0.7912
894.000000 0.7906 0.7898 0.7890 0.7882 0.7873
899.000000 0.7855 0.7837 0.7819 0.7792 0.7755
904.000000 0.7717 0.7666 0.7600 0.7534 0.7469
909.000000 0.7398 0.7326 0.7253 0.7180 0.7071
914.000000 0.6956 0.6793 0.6617 0.6441 0.6265
919.000000 0.6090 0.5914 0.5738 0.5562 0.5386
924.000000 0.5210 0.5034 0.4859 0.4683 0.4507
929.000000 0.4331 0.4155 0.3987 0.3969 0.3940
934.000000 0.3956 0.4291 0.4750 0.5209 0.5669
939.000000 0.6128 0.6587 0.7046 0.7480 0.7595
944.000000 0.7676 0.7743 0.7792 0.7829 0.7860
949.000000 0.7892 0.7920 0.7941 0.7962 0.7982
954.000000 0.7995 0.8001 0.8006 0.8012 0.8031
959.000000 0.8021 0.8022 0.8024 0.8026 0.8031
964.000000 0.8035 0.8040 0.8044 0.8049 0.8059
969.000000 0.8070 0.8082 0.8079 0.8071 0.8062
974.000000 0.8046 0.8031 0.8015 0.8000 0.7985
979.000000 0.7971 0.7956 0.7941 0.7922 0.7903
984.000000 0.7884 0.7864 0.7847 0.7840 0.7833
989.000000 0.7826 0.7819 0.7812 0.7806 0.7819
994.000000 0.7832 0.7846 0.7861 0.7881 0.7901
999.000000 0.7919 0.7935 0.7941 0.7935 0.7931
1004.000000 0.7928 0.7925 0.7922 0.7920 0.7920
1009.000000 0.7920 0.7921 0.7921 0.7921 0.7920
1014.000000 0.7912 0.7905 0.7897 0.7889 0.7882
1019.000000 0.7874 0.7855 0.7837 0.7819 0.7805
1024.000000 0.7793 0.7793 0.7812 0.7831 0.7851
1029.000000 0.7865 0.7871 0.7872 0.7867 0.7862
1034.000000 0.7857 0.7854 0.7851 0.7848 0.7854
1039.000000 0.7864 0.7874 0.7883 0.7883 0.7877
1044.000000 0.7870 0.7863 0.7855 0.7848 0.7841
1049.000000 0.7835 0.7828 0.7814 0.7800 0.7787
1054.000000 0.7771 0.7753 0.7734 0.7716 0.7697
1059.000000 0.7679 0.7682 0.7687 0.7692 0.7697
1064.000000 0.7701 0.7702 0.7702 0.7702 0.7703
1069.000000 0.7703 0.7704 0.7696 0.7687 0.7678
1074.000000 0.7669 0.7660 0.7652 0.7640 0.7627
1079.000000 0.7614 0.7601 0.7585 0.7567 0.7548
1084.000000 0.7530 0.7511 0.7490 0.7469 0.7449
1089.000000 0.7428 0.7407 0.7386 0.7327 0.7261
1094.000000 0.7155 0.7051 0.6955 0.6860 0.6743
1099.000000 0.6617 0.6599 0.6602 0.6607 0.6628
1104.000000 0.6660 0.6687 0.6712 0.6717 0.6680
1109.000000 0.6427 0.6175 0.5922 0.5669 0.5417
1114.000000 0.5164 0.4911 0.4658 0.4406 0.4387
1119.000000 0.4388 0.4384 0.4750 0.5290 0.5831
1124.000000 0.6371 0.6912 0.7315 0.7502 0.7548
1129.000000 0.7592 0.7604 0.7616 0.7626 0.7623
1134.000000 0.7650 0.7620 0.7620 0.7621 0.7620
1139.000000 0.7619 0.7617 0.7615 0.7618 0.7623
1144.000000 0.7628 0.7635 0.7647 0.7658 0.7669
1149.000000 0.7681 0.7692 0.7711 0.7730 0.7751
1154.000000 0.7773 0.7787 0.7793 0.7799 0.7804
1159.000000 0.7807 0.7814 0.7833 0.7852 0.7860
1164.000000 0.7865 0.7871 0.7876 0.7881 0.7885
1169.000000 0.7889 0.7893 0.7891 0.7877 0.7863
1174.000000 0.7848 0.7831 0.7814 0.7803 0.7803
1179.000000 0.7803 0.7802 0.7802 0.7804 0.7809
1184.000000 0.7813 0.7840 0.7870 0.7918 0.7947
1189.000000 0.7961 0.7975 0.7979 0.7983 0.7988
1194.000000 0.7992 0.7994 0.7994 0.7993 0.7993
1199.000000 0.7993 0.8019 0.8057 0.8100 0.8136
1204.000000 0.8132 0.8128 0.8122 0.8116 0.8112
1209.000000 0.8112 0.8113 0.8113 0.8113 0.8114
1214.000000 0.8116 0.8119 0.8123 0.8126 0.8129
1219.000000 0.8130 0.8130 0.8130 0.8130 0.8130
1224.000000 0.8129 0.8129 0.8126 0.8124 0.8121
1229.000000 0.8119 0.8116 0.8113 0.8107 0.8097
1234.000000 0.8088 0.8079 0.8069 0.8058 0.8046
1239.000000 0.8034 0.8022 0.8010 0.7997 0.7984
1244.000000 0.7971 0.7968 0.7967 0.7965 0.7963
1249.000000 0.7962 0.7961 0.7959 0.7958 0.7957
1254.000000 0.7956 0.7954 0.7947 0.7940 0.7933
1259.000000 0.7926 0.7919 0.7912 0.7907 0.7904
1264.000000 0.7900 0.7896 0.7892 0.7888 0.7887
1269.000000 0.7888 0.7888 0.7888 0.7889 0.7891
1274.000000 0.7896 0.7900 0.7905 0.7909 0.7914
1279.000000 0.7919 0.7924 0.7930 0.7933 0.7936
1284.000000 0.7939 0.7939 0.7927 0.7915 0.7902
1289.000000 0.7890 0.7876 0.7860 0.7843 0.7828
1294.000000 0.7816 0.7804 0.7792 0.7781 0.7790
1299.000000 0.7798 0.7825 0.7891 0.7969 0.8059
1304.000000 0.8163 0.8221 0.8254 0.8253 0.8253
1309.000000 0.8259 0.8230 0.8193 0.8148 0.8103
1314.000000 0.8050 0.7998 0.7919 0.7830 0.7736
1319.000000 0.7634 0.7526 0.7479 0.7481 0.7461
1324.000000 0.7498 0.7527 0.7564 0.7613 0.7670
1329.000000 0.7739 0.7826 0.7930 0.8049 0.8152
1334.000000 0.8251 0.8343 0.8428 0.8499 0.8519
1339.000000 0.8534 0.8548 0.8559 0.8565 0.8571
1344.000000 0.8572 0.8592 0.8570 0.8568 0.8567
1349.000000 0.8565 0.8559 0.8554 0.8549 0.8543
1354.000000 0.8538 0.8533 0.8524 0.8514 0.8504
1359.000000 0.8493 0.8467 0.8436 0.8404 0.8360
1364.000000 0.8316 0.8231 0.8133 0.8040 0.7908
1369.000000 0.7889 0.7894 0.7917 0.8022 0.7908
1374.000000 0.8177 0.8250 0.8298 0.8330 0.8362
1379.000000 0.8376 0.8391 0.8405 0.8419 0.8423
1384.000000 0.8427 0.8431 0.8455 0.8438 0.8439
1389.000000 0.8437 0.8435 0.8433 0.8430 0.8422
1394.000000 0.8413 0.8404 0.8396 0.8382 0.8366
1399.000000 0.8351 0.8336 0.8320 0.8305 0.8284
1404.000000 0.8260 0.8235 0.8210 0.8171 0.8128
1409.000000 0.8086 0.8040 0.7983 0.7927 0.7870
1414.000000 0.7813 0.7741 0.7657 0.7573 0.7487
1419.000000 0.7072 0.5657 0.4744 0.3830 0.2916
1424.000000 0.2003 0.1089 0.0235 0.0232 0.0460
1429.000000 0.2116 0.3772 0.5428 0.6126 0.6237
1434.000000 0.7394 0.7617 0.7748 0.7843 0.7926
1439.000000 0.8008 0.8083 0.8157 0.8201 0.8228
1444.000000 0.8255 0.8282 0.8308 0.8333 0.8359
1449.000000 0.8382 0.8395 0.8408 0.8422 0.8430
1454.000000 0.8406 0.8439 0.8443 0.8442 0.8437
1459.000000 0.8432 0.8427 0.8422 0.8417 0.8412
1464.000000 0.8405 0.8393 0.8382 0.8370 0.8359
1469.000000 0.8344 0.8323 0.8302 0.8276 0.8225
1474.000000 0.8175 0.8083 0.7975 0.7487 0.7040
1479.000000 0.6592 0.6145 0.5775 0.5788 0.5770
1484.000000 0.6571 0.7412 0.8252 0.8391 0.8475
1489.000000 0.8498 0.8521 0.8536 0.8544 0.8552
1494.000000 0.8560 0.8567 0.8564 0.8564 0.8562
1499.000000 0.8560 0.8559 0.8557 0.8554 0.8552
1504.000000 0.8549 0.8546 0.8544 0.8541 0.8538
1509.000000 0.8534 0.8530 0.8527 0.8523 0.8520
1514.000000 0.8517 0.8517 0.8517 0.8516 0.8516
1519.000000 0.8516 0.8516 0.8516 0.8515 0.8515
1524.000000 0.8515 0.8515 0.8515 0.8515 0.8515
1529.000000 0.8514 0.8513 0.8511 0.8509 0.8507
1534.000000 0.8506 0.8504 0.8502 0.8482 0.8458
1539.000000 0.8435 0.8412 0.8390 0.8368 0.8358
1544.000000 0.8359 0.8361 0.8362 0.8364 0.8365
1549.000000 0.8366 0.8361 0.8357 0.8352 0.8343
1554.000000 0.8319 0.8296 0.8272 0.8249 0.8229
1559.000000 0.8216 0.8203 0.8190 0.8177 0.8165
1564.000000 0.8191 0.8213 0.8222 0.8222 0.8222
1569.000000 0.8221 0.8216 0.8211 0.8205 0.8200
1574.000000 0.8189 0.8172 0.8148 0.8116 0.8085
1579.000000 0.8030 0.7873 0.7595 0.7317 0.7039
1584.000000 0.6762 0.6484 0.6249 0.6268 0.6847
1589.000000 0.8000 0.8358 0.8401 0.8427 0.8429
1594.000000 0.8428 0.8424 0.8419 0.8410 0.8393
1599.000000 0.8378 0.8368 0.8358 0.8348 0.8338
1604.000000 0.8330 0.8321 0.8313 0.8306 0.8300
1609.000000 0.8294 0.8289 0.8283 0.8279 0.8277
1614.000000 0.8290 0.8303 0.8314 0.8325 0.8336
1619.000000 0.8347 0.8357 0.8367 0.8378 0.8388
1624.000000 0.8398 0.8408 0.8414 0.8418 0.8422
1629.000000 0.8422 0.8417 0.8412 0.8407 0.8402
1634.000000 0.8397 0.8390 0.8383 0.8377 0.8370
1639.000000 0.8363 0.8357 0.8349 0.8342 0.8334
1644.000000 0.8327 0.8319 0.8318 0.8322 0.8328
1649.000000 0.8334 0.8344 0.8358 0.8372 0.8375
1654.000000 0.8378 0.8381 0.8384 0.8382 0.8380
1659.000000 0.8378 0.8376 0.8374 0.8372 0.8369
1664.000000 0.8365 0.8361 0.8358 0.8354 0.8350
1669.000000 0.8346 0.8342 0.8337 0.8332 0.8328
1674.000000 0.8323 0.8318 0.8314 0.8316 0.8324
1679.000000 0.8343 0.8363 0.8384 0.8392 0.8397
1684.000000 0.8402 0.8406 0.8411 0.8415 0.8420
1689.000000 0.8425 0.8430 0.8435 0.8440 0.8445
1694.000000 0.8450 0.8455 0.8461 0.8466 0.8471
1699.000000 0.8477 0.8482 0.8487 0.8492 0.8497
1704.000000 0.8502 0.8507 0.8511 0.8516 0.8520
1709.000000 0.8524 0.8528 0.8532 0.8536 0.8540
1714.000000 0.8541 0.8543 0.8545 0.8547 0.8549
1719.000000 0.8553 0.8556 0.8559 0.8563 0.8550
1724.000000 0.8566 0.8568 0.8569 0.8570 0.8569
1729.000000 0.8567 0.8565 0.8558 0.8550 0.8541
1734.000000 0.8533 0.8523 0.8512 0.8500 0.8489
1739.000000 0.8478 0.8469 0.8460 0.8452 0.8451
1744.000000 0.8459 0.8467 0.8464 0.8453 0.8442
1749.000000 0.8415 0.8388 0.8358 0.8324 0.8289
1754.000000 0.8256 0.8223 0.8190 0.8154 0.8114
1759.000000 0.8091 0.8080 0.8080 0.8077 0.8143
1764.000000 0.8227 0.8284 0.8317 0.8332 0.8334
1769.000000 0.8336 0.8336 0.8336 0.8337 0.8344
1774.000000 0.8359 0.8408 0.8448 0.8487 0.8519
1779.000000 0.8530 0.8541 0.8552 0.8557 0.8561
1784.000000 0.8564 0.8568 0.8571 0.8572 0.8572
1789.000000 0.8587 0.8568 0.8564 0.8557 0.8536
1794.000000 0.8514 0.8492 0.8470 0.8448 0.8425
1799.000000 0.8403 0.8380 0.8357 0.8317 0.8278
1804.000000 0.8233 0.8175 0.8118 0.8060 0.7990
1809.000000 0.7919 0.7775 0.7697 0.7631 0.7611
1814.000000 0.7599 0.7612 0.7687 0.7785 0.7882
1819.000000 0.7980 0.8070 0.8114 0.8145 0.8159
1824.000000 0.8167 0.8174 0.8180 0.8191 0.8203
1829.000000 0.8215 0.8236 0.8258 0.8281 0.8303
1834.000000 0.8330 0.8359 0.8388 0.8439 0.8485
1839.000000 0.8512 0.8537 0.8544 0.8550 0.8556
1844.000000 0.8591 0.8561 0.8561 0.8560 0.8555
1849.000000 0.8550 0.8545 0.8540 0.8535 0.8530
1854.000000 0.8525 0.8520 0.8515 0.8510 0.8505
1859.000000 0.8500 0.8495 0.8488 0.8476 0.8465
1864.000000 0.8442 0.8417 0.8391 0.8362 0.8322
1869.000000 0.8248 0.8136 0.8025 0.7913 0.7802
1874.000000 0.7690 0.7578 0.7517 0.7505 0.7508
1879.000000 0.7494 0.7620 0.7730 0.7841 0.7952
1884.000000 0.8062 0.8092 0.8104 0.8108 0.8108
1889.000000 0.8067 0.8064 0.7991 0.7919 0.7846
1894.000000 0.7788 0.7784 0.7764 0.7884 0.7994
1899.000000 0.8104 0.8214 0.8325 0.8432 0.8481
1904.000000 0.8492 0.8503 0.8515 0.8527 0.8537
1909.000000 0.8544 0.8549 0.8554 0.8559 0.8565
1914.000000 0.8584 0.8571 0.8574 0.8577 0.8580
1919.000000 0.8582 0.8583 0.8583 0.8582 0.8581
1924.000000 0.8581 0.8578 0.8574 0.8570 0.8564
1929.000000 0.8552 0.8541 0.8530 0.8519 0.8497
1934.000000 0.8471 0.8433 0.8395 0.8349 0.8303
1939.000000 0.8254 0.8195 0.8136 0.8057 0.7979
1944.000000 0.7801 0.7701 0.7620 0.7552 0.7505
1949.000000 0.7461 0.7495 0.7553 0.7668 0.7782
1954.000000 0.7897 0.8012 0.8076 0.8086 0.8089
1959.000000 0.8087 0.8081 0.8061 0.8022 0.7983
1964.000000 0.7945 0.7918 0.7905 0.7906 0.7909
1969.000000 0.8153 0.8334 0.8459 0.8492 0.8504
1974.000000 0.8510 0.8511 0.8511 0.8511 0.8513
1979.000000 0.8528 0.8565 0.8618 0.8647 0.8658
1984.000000 0.8668 0.8677 0.8682 0.8686 0.8658
1989.000000 0.8686 0.8676 0.8665 0.8649 0.8633
1994.000000 0.8616 0.8598 0.8594 0.8603 0.8612
1999.000000 0.8620 0.8628 0.8643 0.8659 0.8660
2004.000000 0.8662 0.8663 0.8665 0.8666 0.8668
2009.000000 0.8669 0.8671 0.8671 0.8671 0.8670
2014.000000 0.8670 0.8669 0.8669 0.8668 0.8667
2019.000000 0.8666 0.8666 0.8665 0.8665 0.8664
2024.000000 0.8663 0.8662 0.8661 0.8659 0.8657
2029.000000 0.8655 0.8654 0.8652 0.8651 0.8648
2034.000000 0.8646 0.8643 0.8641 0.8638 0.8636
2039.000000 0.8633 0.8630 0.8627 0.8625 0.8622
2044.000000 0.8619 0.8615 0.8612 0.8608 0.8604
2049.000000 0.8599 0.8595 0.8591 0.8587 0.8578
2054.000000 0.8570 0.8560 0.8551 0.8541 0.8531
2059.000000 0.8521 0.8511 0.8499 0.8488 0.8477
2064.000000 0.8466 0.8454 0.8443 0.8431 0.8420
2069.000000 0.8404 0.8388 0.8366 0.8344 0.8321
2074.000000 0.8299 0.8276 0.8254 0.8231 0.8209
2079.000000 0.8180 0.8151 0.8121 0.8092 0.8062
2084.000000 0.8033 0.8004 0.7975 0.7945 0.7916
2089.000000 0.7887 0.7858 0.7795 0.7733 0.7617
2094.000000 0.7502 0.7315 0.7129 0.6987 0.6846
2099.000000 0.6705 0.6564 0.6422 0.6281 0.6139
2104.000000 0.5998 0.5857 0.5716 0.5574 0.5433
2109.000000 0.5308 0.5184 0.5109 0.5034 0.4919
2114.000000 0.4804 0.4554 0.4305 0.3996 0.3688
2119.000000 0.3379 0.3071 0.2762 0.2454 0.2145
2124.000000 0.1837 0.1528 0.1220 0.0803 0.0387
2129.000000 0.0344 0.0302 0.0276 0.0250 0.0228
2134.000000 0.0207 0.0197 0.0188 0.0187 0.0186
2139.000000 0.0187 0.0174 0.0193 0.0197 0.0206
2144.000000 0.0216 0.0264 0.0313 0.0502 0.0691
2149.000000 0.0880 0.1069 0.1258 0.1447 0.1636
2154.000000 0.1825 0.2014 0.2203 0.2392 0.2581
2159.000000 0.2770 0.2959 0.3148 0.3337 0.3526
2164.000000 0.3715 0.3904 0.4093 0.4282 0.4471
2169.000000 0.4660 0.4849 0.5038 0.5227 0.5416
2174.000000 0.5605 0.5790 0.5975 0.6096 0.6217
2179.000000 0.6393 0.6570 0.6720 0.6870 0.6949
2184.000000 0.7029 0.7068 0.7108 0.7148 0.7188
2189.000000 0.7241 0.7294 0.7360 0.7427 0.7482
2194.000000 0.7537 0.7591 0.7646 0.7682 0.7718
2199.000000 0.7743 0.7769 0.7794 0.7820 0.7845
2204.000000 0.7871 0.7896 0.7922 0.7947 0.7973
2209.000000 0.7998 0.8023 0.8048 0.8073 0.8098
2214.000000 0.8123 0.8143 0.8163 0.8182 0.8202
2219.000000 0.8221 0.8241 0.8259 0.8278 0.8289
2224.000000 0.8301 0.8312 0.8324 0.8331 0.8339
2229.000000 0.8342 0.8346 0.8349 0.8353 0.8356
2234.000000 0.8360 0.8363 0.8367 0.8370 0.8373
2239.000000 0.8374 0.8375 0.8374 0.8374 0.8374
2244.000000 0.8374 0.8373 0.8373 0.8379 0.8385
2249.000000 0.8394 0.8404 0.8414 0.8424 0.8430
2254.000000 0.8436 0.8440 0.8444 0.8447 0.8450
2259.000000 0.8451 0.8452 0.8453 0.8454 0.8455
2264.000000 0.8456 0.8457 0.8458 0.8459 0.8489
2269.000000 0.8461 0.8462 0.8463 0.8464 0.8464
2274.000000 0.8464 0.8464 0.8464 0.8464 0.8465
2279.000000 0.8465 0.8465 0.8465 0.8466 0.8467
2284.000000 0.8469 0.8470 0.8472 0.8473 0.8475
2289.000000 0.8476 0.8478 0.8476 0.8475 0.8473
2294.000000 0.8471 0.8469 0.8468 0.8459 0.8451
2299.000000 0.8442 0.8433 0.8423 0.8414 0.8401
2304.000000 0.8388 0.8371 0.8354 0.8336 0.8319
2309.000000 0.8306 0.8293 0.8293 0.8293 0.8293
2314.000000 0.8294 0.8324 0.8354 0.8381 0.8409
2319.000000 0.8430 0.8451 0.8460 0.8469 0.8470
2324.000000 0.8472 0.8469 0.8466 0.8455 0.8445
2329.000000 0.8427 0.8409 0.8400 0.8392 0.8383
2334.000000 0.8374 0.8365 0.8357 0.8356 0.8356
2339.000000 0.8356 0.8357 0.8360 0.8363 0.8366
2344.000000 0.8370 0.8373 0.8376 0.8380 0.8384
2349.000000 0.8389 0.8394 0.8399 0.8404 0.8410
2354.000000 0.8417 0.8423 0.8429 0.8435 0.8441
2359.000000 0.8447 0.8454 0.8462 0.8470 0.8478
2364.000000 0.8486 0.8491 0.8497 0.8504 0.8512
2369.000000 0.8520 0.8528 0.8531 0.8535 0.8537
2374.000000 0.8539 0.8540 0.8542 0.8543 0.8545
2379.000000 0.8546 0.8548 0.8551 0.8554 0.8556
2384.000000 0.8558 0.8560 0.8562 0.8564 0.8566
2389.000000 0.8568 0.8570 0.8572 0.8574 0.8574
2394.000000 0.8575 0.8575 0.8575 0.8575 0.8576
2399.000000 0.8576 0.8576 0.8576 0.8576 0.8576
2404.000000 0.8577 0.8577 0.8578 0.8578 0.8578
2409.000000 0.8578 0.8579 0.8579 0.8580 0.8580
2414.000000 0.8581 0.8581 0.8582 0.8582 0.8582
2419.000000 0.8582 0.8583 0.8582 0.8582 0.8582
2424.000000 0.8582 0.8582 0.8582 0.8582 0.8582
2429.000000 0.8582 0.8582 0.8581 0.8581 0.8581
2434.000000 0.8581 0.8581 0.8581 0.8581 0.8581
2439.000000 0.8581 0.8581 0.8580 0.8580 0.8580
2444.000000 0.8580 0.8580 0.8580 0.8580 0.8580
2449.000000 0.8580 0.8581 0.8581 0.8581 0.8581
2454.000000 0.8581 0.8580 0.8580 0.8576 0.8573
2459.000000 0.8569 0.8565 0.8561 0.8558 0.8554
2464.000000 0.8551 0.8549 0.8547 0.8544 0.8542
2469.000000 0.8541 0.8541 0.8545 0.8550 0.8555
2474.000000 0.8560 0.8564 0.8569 0.8567 0.8566
2479.000000 0.8564 0.8563 0.8561 0.8559 0.8557
2484.000000 0.8555 0.8552 0.8550 0.8548 0.8546
2489.000000 0.8544 0.8542 0.8545 0.8548 0.8551
2494.000000 0.8554 0.8557 0.8560 0.8561 0.8563
2499.000000 0.8564 0.8565 0.8566 0.8567 0.8563
2504.000000 0.8559 0.8555 0.8551 0.8546 0.8542
2509.000000 0.8539 0.8537 0.8535 0.8533 0.8530
2514.000000 0.8528 0.8526 0.8524 0.8525 0.8527
2519.000000 0.8529 0.8531 0.8533 0.8535 0.8536
2524.000000 0.8538 0.8540 0.8542 0.8543 0.8545
2529.000000 0.8545 0.8545 0.8545 0.8545 0.8545
2534.000000 0.8546 0.8546 0.8546 0.8545 0.8544
2539.000000 0.8543 0.8542 0.8541 0.8540 0.8539
2544.000000 0.8538 0.8536 0.8535 0.8534 0.8533
2549.000000 0.8531 0.8530 0.8529 0.8528 0.8526
2554.000000 0.8525 0.8523 0.8522 0.8521 0.8520
2559.000000 0.8518 0.8517 0.8515 0.8514 0.8512
2564.000000 0.8510 0.8507 0.8504 0.8500 0.8497
2569.000000 0.8491 0.8486 0.8479 0.8473 0.8466
2574.000000 0.8460 0.8447 0.8434 0.8427 0.8421
2579.000000 0.8421 0.8422 0.8422 0.8422 0.8439
2584.000000 0.8456 0.8470 0.8485 0.8497 0.8509
2589.000000 0.8514 0.8519 0.8521 0.8524 0.8523
2594.000000 0.8522 0.8521 0.8520 0.8510 0.8501
2599.000000 0.8486 0.8472 0.8450 0.8429 0.8402
2604.000000 0.8376 0.8367 0.8359 0.8356 0.8354
2609.000000 0.8356 0.8358 0.8372 0.8386 0.8410
2614.000000 0.8434 0.8456 0.8478 0.8493 0.8509
2619.000000 0.8523 0.8538 0.8541 0.8544 0.8547
2624.000000 0.8551 0.8553 0.8555 0.8556 0.8557
2629.000000 0.8558 0.8559 0.8560 0.8562 0.8563
2634.000000 0.8564 0.8565 0.8566 0.8565 0.8565
2639.000000 0.8564 0.8564 0.8563 0.8562 0.8561
2644.000000 0.8560 0.8558 0.8557 0.8555 0.8554
2649.000000 0.8553 0.8552 0.8550 0.8549 0.8547
2654.000000 0.8546 0.8544 0.8543 0.8541 0.8540
2659.000000 0.8537 0.8535 0.8532 0.8529 0.8526
2664.000000 0.8524 0.8521 0.8518 0.8515 0.8512
2669.000000 0.8507 0.8502 0.8497 0.8492 0.8487
2674.000000 0.8482 0.8477 0.8472 0.8466 0.8461
2679.000000 0.8453 0.8445 0.8435 0.8425 0.8421
2684.000000 0.8417 0.8418 0.8419 0.8420 0.8421
2689.000000 0.8421 0.8422 0.8422 0.8423 0.8423
2694.000000 0.8424 0.8425 0.8426 0.8414 0.8402
2699.000000 0.8382 0.8363 0.8363 0.8364 0.8365
2704.000000 0.8366 0.8371 0.8376 0.8399 0.8422
2709.000000 0.8452 0.8483 0.8501 0.8520 0.8522
2714.000000 0.8525 0.8527 0.8530 0.8532 0.8535
2719.000000 0.8536 0.8538 0.8540 0.8542 0.8543
2724.000000 0.8545 0.8547 0.8549 0.8550 0.8552
2729.000000 0.8554 0.8556 0.8553 0.8551 0.8547
2734.000000 0.8543 0.8539 0.8536 0.8532 0.8529
2739.000000 0.8527 0.8526 0.8525 0.8525 0.8524
2744.000000 0.8524 0.8523 0.8523 0.8522 0.8522
2749.000000 0.8522 0.8523 0.8523 0.8524 0.8524
2754.000000 0.8525 0.8525 0.8526 0.8531 0.8536
2759.000000 0.8546 0.8556 0.8566 0.8576 0.8577
2764.000000 0.8578 0.8575 0.8572 0.8568 0.8564
2769.000000 0.8560 0.8557 0.8553 0.8549 0.8545
2774.000000 0.8541 0.8538 0.8535 0.8531 0.8528
2779.000000 0.8524 0.8521 0.8517 0.8514 0.8510
2784.000000 0.8507 0.8503 0.8500 0.8496 0.8493
2789.000000 0.8490 0.8488 0.8485 0.8482 0.8479
2794.000000 0.8476 0.8473 0.8471 0.8468 0.8465
2799.000000 0.8462 0.8460 0.8457 0.8454 0.8451
2804.000000 0.8449 0.8446 0.8444 0.8441 0.8438
2809.000000 0.8435 0.8433 0.8430 0.8428 0.8425
2814.000000 0.8422 0.8422 0.8422 0.8423 0.8425
2819.000000 0.8429 0.8433 0.8440 0.8448 0.8456
2824.000000 0.8464 0.8471 0.8479 0.8483 0.8487
2829.000000 0.8490 0.8494 0.8494 0.8494 0.8488
2834.000000 0.8483 0.8470 0.8457 0.8445 0.8433
2839.000000 0.8427 0.8421 0.8415 0.8410 0.8412
2844.000000 0.8415 0.8418 0.8422 0.8426 0.8430
2849.000000 0.8434 0.8439 0.8443 0.8448 0.8453
2854.000000 0.8458 0.8462 0.8467 0.8469 0.8472
2859.000000 0.8474 0.8476 0.8471 0.8466 0.8460
2864.000000 0.8455 0.8450 0.8445 0.8439 0.8434
2869.000000 0.8428 0.8423 0.8417 0.8411 0.8405
2874.000000 0.8400 0.8394 0.8389 0.8383 0.8378
2879.000000 0.8374 0.8370 0.8366 0.8363 0.8359
2884.000000 0.8356 0.8352 0.8349 0.8346 0.8343
2889.000000 0.8339 0.8335 0.8329 0.8324 0.8319
2894.000000 0.8314 0.8299 0.8284 0.8259 0.8235
2899.000000 0.8206 0.8177 0.8143 0.8109 0.8103
2904.000000 0.8097 0.8099 0.8102 0.8105 0.8109
2909.000000 0.8120 0.8132 0.8157 0.8182 0.8199
2914.000000 0.8217 0.8234 0.8252 0.8266 0.8280
2919.000000 0.8293 0.8306 0.8313 0.8320 0.8326
2924.000000 0.8333 0.8340 0.8347 0.8353 0.8360
2929.000000 0.8364 0.8368 0.8371 0.8375 0.8378
2934.000000 0.8381 0.8384 0.8387 0.8390 0.8393
2939.000000 0.8395 0.8397 0.8398 0.8400 0.8401
2944.000000 0.8403 0.8396 0.8390 0.8383 0.8377
2949.000000 0.8370 0.8364 0.8357 0.8351 0.8344
2954.000000 0.8338 0.8325 0.8313 0.8300 0.8288
2959.000000 0.8275 0.8263 0.8250 0.8238 0.8225
2964.000000 0.8213 0.8200 0.8188 0.8167 0.8146
2969.000000 0.8124 0.8102 0.8080 0.8058 0.8036
2974.000000 0.8014 0.7984 0.7955 0.7925 0.7895
2979.000000 0.7865 0.7836 0.7803 0.7771 0.7731
2984.000000 0.7691 0.7650 0.7610 0.7495 0.7381
2989.000000 0.7306 0.7231 0.7168 0.7106 0.7041
2994.000000 0.6977 0.6790 0.6604 0.6191 0.5778
2999.000000 0.5397 0.5058 0.5015 0.5014 0.5245
3004.000000 0.5476 0.5635 0.5794 0.5743 0.5802
3009.000000 0.5592 0.5493 0.5393 0.5293 0.5193
3014.000000 0.5094 0.5012 0.4931 0.4932 0.4911
3019.000000 0.4973 0.5013 0.5166 0.5319 0.5472
3024.000000 0.5626 0.5779 0.5932 0.6085 0.6238
3029.000000 0.6391 0.6545 0.6665 0.6779 0.6781
3034.000000 0.6778 0.6774 0.6771 0.6622 0.6474
3039.000000 0.6263 0.6052 0.5840 0.5629 0.5418
3044.000000 0.5207 0.4996 0.4785 0.4574 0.4363
3049.000000 0.4152 0.3941 0.3839 0.3738 0.3813
3054.000000 0.3710 0.4063 0.4238 0.4412 0.4586
3059.000000 0.4635 0.4684 0.4557 0.4714 0.4220
3064.000000 0.4011 0.3802 0.3593 0.3383 0.3174
3069.000000 0.2965 0.2756 0.2804 0.2853 0.3238
3074.000000 0.2733 0.4007 0.4392 0.4776 0.5161
3079.000000 0.5546 0.5931 0.6103 0.6275 0.6261
3084.000000 0.6247 0.6245 0.6244 0.6263 0.6282
3089.000000 0.6448 0.6615 0.6781 0.6948 0.7114
3094.000000 0.7280 0.7446 0.7613 0.7779 0.7945
3099.000000 0.7994 0.8044 0.8095 0.8146 0.8203
3104.000000 0.8261 0.8313 0.8365 0.8384 0.8404
3109.000000 0.8413 0.8436 0.8425 0.8429 0.8430
3114.000000 0.8431 0.8432 0.8433 0.8430 0.8427
3119.000000 0.8422 0.8417 0.8401 0.8385 0.8360
3124.000000 0.8335 0.8302 0.8270 0.8237 0.8205
3129.000000 0.8173 0.8141 0.8108 0.8076 0.8065
3134.000000 0.8055 0.8056 0.8058 0.8102 0.8147
3139.000000 0.8232 0.8317 0.8401 0.8486 0.8550
3144.000000 0.8614 0.8631 0.8648 0.8657 0.8666
3149.000000 0.8669 0.8672 0.8675 0.8679 0.8682
3154.000000 0.8654 0.8687 0.8690 0.8691 0.8692
3159.000000 0.8693 0.8695 0.8696 0.8697 0.8698
3164.000000 0.8700 0.8701 0.8703 0.8704 0.8705
3169.000000 0.8706 0.8708 0.8709 0.8710 0.8711
3174.000000 0.8713 0.8714 0.8716 0.8717 0.8719
3179.000000 0.8720 0.8722 0.8723 0.8725 0.8726
3184.000000 0.8727 0.8728 0.8730 0.8731 0.8732
3189.000000 0.8733 0.8735 0.8736 0.8737 0.8738
3194.000000 0.8740 0.8741 0.8742 0.8743 0.8744
3199.000000 0.8745 0.8747 0.8748 0.8749 0.8749
3204.000000 0.8750 0.8750 0.8750 0.8750 0.8751
3209.000000 0.8751 0.8751 0.8751 0.8752 0.8752
3214.000000 0.8752 0.8752 0.8753 0.8753 0.8753
3219.000000 0.8753 0.8754 0.8754 0.8754 0.8754
3224.000000 0.8755 0.8755 0.8756 0.8756 0.8756
3229.000000 0.8756 0.8757 0.8757 0.8757 0.8757
3234.000000 0.8758 0.8758 0.8758 0.8758 0.8759
3239.000000 0.8759 0.8759 0.8759 0.8759 0.8758
3244.000000 0.8758 0.8758 0.8758 0.8758 0.8758
3249.000000 0.8757 0.8757 0.8757 0.8757 0.8757
3254.000000 0.8757 0.8757 0.8757 0.8756 0.8756
3259.000000 0.8756 0.8756 0.8756 0.8756 0.8755
3264.000000 0.8755 0.8755 0.8755 0.8755 0.8755
3269.000000 0.8755 0.8755 0.8754 0.8754 0.8754
3274.000000 0.8754 0.8754 0.8754 0.8753 0.8753
3279.000000 0.8753 0.8753 0.8753 0.8753 0.8753
3284.000000 0.8753 0.8752 0.8752 0.8752 0.8752
3289.000000 0.8752 0.8753 0.8753 0.8753 0.8753
3294.000000 0.8753 0.8753 0.8754 0.8754 0.8754
3299.000000 0.8754 0.8754 0.8754 0.8755 0.8755
3304.000000 0.8755 0.8755 0.8755 0.8755 0.8756
3309.000000 0.8756 0.8756 0.8756 0.8756 0.8756
3314.000000 0.8757 0.8757 0.8757 0.8757 0.8757
3319.000000 0.8757 0.8758 0.8758 0.8758 0.8758
3324.000000 0.8758 0.8758 0.8759 0.8759 0.8760
3329.000000 0.8760 0.8761 0.8761 0.8762 0.8762
3334.000000 0.8763 0.8763 0.8764 0.8764 0.8765
3339.000000 0.8765 0.8766 0.8766 0.8767 0.8767
3344.000000 0.8768 0.8768 0.8768 0.8768 0.8769
3349.000000 0.8769 0.8770 0.8770 0.8771 0.8771
3354.000000 0.8772 0.8772 0.8773 0.8773 0.8774
3359.000000 0.8774 0.8775 0.8775 0.8776 0.8776
3364.000000 0.8777 0.8777 0.8778 0.8778 0.8779
3369.000000 0.8779 0.8780 0.8780 0.8781 0.8781
3374.000000 0.8781 0.8781 0.8782 0.8781 0.8781
3379.000000 0.8781 0.8781 0.8780 0.8780 0.8780
3384.000000 0.8780 0.8779 0.8779 0.8779 0.8779
3389.000000 0.8778 0.8778 0.8778 0.8778 0.8777
3394.000000 0.8777 0.8777 0.8777 0.8776 0.8776
3399.000000 0.8776 0.8776 0.8775 0.8775 0.8774
3404.000000 0.8774 0.8774 0.8774 0.8773 0.8773
3409.000000 0.8773 0.8773 0.8773 0.8773 0.8772
3414.000000 0.8772 0.8772 0.8772 0.8772 0.8772
3419.000000 0.8771 0.8771 0.8771 0.8771 0.8771
3424.000000 0.8771 0.8770 0.8770 0.8770 0.8770
3429.000000 0.8770 0.8770 0.8769 0.8769 0.8769
3434.000000 0.8769 0.8769 0.8769 0.8769 0.8769
3439.000000 0.8768 0.8768 0.8768 0.8768 0.8768
3444.000000 0.8768 0.8767 0.8767 0.8767 0.8767
3449.000000 0.8767 0.8767 0.8766 0.8766 0.8766
3454.000000 0.8766 0.8766 0.8766 0.8765 0.8765
3459.000000 0.8764 0.8764 0.8763 0.8763 0.8762
3464.000000 0.8762 0.8761 0.8761 0.8760 0.8760
3469.000000 0.8759 0.8759 0.8758 0.8758 0.8757
3474.000000 0.8757 0.8756 0.8756 0.8755 0.8755
3479.000000 0.8754 0.8754 0.8753 0.8753 0.8752
3484.000000 0.8752 0.8751 0.8751 0.8750 0.8750
3489.000000 0.8749 0.8749 0.8748 0.8748 0.8747
3494.000000 0.8747 0.8746 0.8746 0.8745 0.8745
3499.000000 0.8744 0.8744 0.8743 0.8743 0.8742
3504.000000 0.8742 0.8742 0.8742 0.8741 0.8741
3509.000000 0.8740 0.8740 0.8739 0.8739 0.8739
3514.000000 0.8739 0.8738 0.8738 0.8737 0.8737
3519.000000 0.8736 0.8736 0.8736 0.8736 0.8735
3524.000000 0.8735 0.8734 0.8734 0.8733 0.8733
3529.000000 0.8733 0.8733 0.8732 0.8732 0.8731
3534.000000 0.8731 0.8730 0.8730 0.8730 0.8731
3539.000000 0.8732 0.8733 0.8733 0.8734 0.8734
3544.000000 0.8735 0.8736 0.8737 0.8737 0.8738
3549.000000 0.8738 0.8739 0.8740 0.8741 0.8741
3554.000000 0.8742 0.8742 0.8743 0.8744 0.8745
3559.000000 0.8746 0.8747 0.8748 0.8749 0.8750
3564.000000 0.8752 0.8753 0.8755 0.8756 0.8758
3569.000000 0.8759 0.8760 0.8761 0.8763 0.8764
3574.000000 0.8766 0.8768 0.8770 0.8782 0.8795
3579.000000 0.8812 0.8830 0.8848 0.8866 0.8883
3584.000000 0.8900 0.8891 0.8883 0.8864 0.8846
3589.000000 0.8827 0.8808 0.8795 0.8783 0.8777
3594.000000 0.8772 0.8767 0.8762 0.8757 0.8752
3599.000000 0.8751 0.8750 0.8749 0.8748 0.8747
3604.000000 0.8746 0.8745 0.8745 0.8744 0.8744
3609.000000 0.8743 0.8743 0.8742 0.8741 0.8740
3614.000000 0.8740 0.8739 0.8739 0.8738 0.8738
3619.000000 0.8737 0.8737 0.8735 0.8733 0.8731
3624.000000 0.8730 0.8728 0.8727 0.8725 0.8724
3629.000000 0.8722 0.8721 0.8720 0.8720 0.8720
3634.000000 0.8720 0.8720 0.8721 0.8721 0.8721
3639.000000 0.8744 0.8768 0.8796 0.8824 0.8865
3644.000000 0.8906 0.8932 0.8959 0.8956 0.8954
3649.000000 0.8937 0.8921 0.8877 0.8834 0.8806
3654.000000 0.8778 0.8765 0.8752 0.8748 0.8745
3659.000000 0.8742 0.8739 0.8736 0.8733 0.8729
3664.000000 0.8726 0.8740 0.8754 0.8801 0.8849
3669.000000 0.8878 0.8908 0.8908 0.8909 0.8909
3674.000000 0.8910 0.8911 0.8912 0.8889 0.8867
3679.000000 0.8833 0.8799 0.8765 0.8731 0.8717
3684.000000 0.8704 0.8697 0.8691 0.8700 0.8709
3689.000000 0.8719 0.8730 0.8739 0.8749 0.8746
3694.000000 0.8744 0.8738 0.8733 0.8727 0.8722
3699.000000 0.8717 0.8713 0.8715 0.8718 0.8720
3704.000000 0.8723 0.8725 0.8728 0.8732 0.8736
3709.000000 0.8740 0.8745 0.8749 0.8753 0.8757
3714.000000 0.8761 0.8765 0.8770 0.8774 0.8778
3719.000000 0.8783 0.8788 0.8795 0.8802 0.8808
3724.000000 0.8815 0.8822 0.8829 0.8835 0.8842
3729.000000 0.8850 0.8858 0.8866 0.8874 0.8882
3734.000000 0.8890 0.8898 0.8906 0.8914 0.8923
3739.000000 0.8933 0.8944 0.8954 0.8965 0.8968
3744.000000 0.8972 0.8975 0.8978 0.8976 0.8975
3749.000000 0.8971 0.8967 0.8945 0.8924 0.8886
3754.000000 0.8848 0.8816 0.8785 0.8768 0.8751
3759.000000 0.8746 0.8742 0.8738 0.8735 0.8736
3764.000000 0.8738 0.8739 0.8741 0.8742 0.8744
3769.000000 0.8745 0.8747 0.8748 0.8750 0.8750
3774.000000 0.8751 0.8751 0.8752 0.8752 0.8752
3779.000000 0.8752 0.8753 0.8753 0.8753 0.8754
3784.000000 0.8755 0.8759 0.8763 0.8767 0.8772
3789.000000 0.8776 0.8780 0.8792 0.8805 0.8818
3794.000000 0.8831 0.8854 0.8877 0.8893 0.8909
3799.000000 0.8914 0.8920 0.8925 0.8931 0.8936
3804.000000 0.8942 0.8947 0.8953 0.8955 0.8957
##END=
