##TITLE=DICYCLOPENTADIENE
##JCAMP-DX=4.24
##DATA TYPE=INFRARED SPECTRUM
##CLASS=COBLENTZ III
##ORIGIN=DOW CHEMICAL COMPANY
##OWNER=COBLENTZ SOCIETY
Collection (C) 2018 copyright by the U.S. Secretary of Commerce
on behalf of the United States of America. All rights reserved.
##DATE=1959/12/03
##CAS REGISTRY NO=77-73-6
##MOLFORM=C10 H12
##SOURCE REFERENCE=COBLENTZ NO. 1262
##$NIST SOURCE=COBLENTZ
##$NIST IMAGE=cob1262
##SPECTROMETER/DATA SYSTEM=Not specified, most likely a prism, grating, or hybrid spectrometer.
##STATE=SOLUTION (10% CCl4 FOR 3800-1330, 10% CS2 FOR 1330-450 CM^-^1)
##PATH LENGTH=0.011 CM, 0.011 CM
$$SPECTRAL CONTAMINATION DUE TO CCl4 AROUND 1550 CM^-^1
##SAMPLING PROCEDURE=TRANSMISSION
##RESOLUTION=4
##DATA PROCESSING=DIGITIZED BY NIST FROM HARD COPY (FROM TWO SEGMENTS)
##XUNITS=1/CM
##YUNITS=TRANSMITTANCE
##XFACTOR=1.000000
##YFACTOR=1
##DELTAX=1.220505
##FIRSTX=448.739
##LASTX=3786.82
##FIRSTY=0.833
##MAXX=3786.82
##MINX=448.739
##MAXY=1.035
##MINY=0.00747106
##NPOINTS=2736
##XYDATA=(X++(Y..Y))
448.739000 0.8330 0.8330 0.8320 0.8280 0.8958
454.841527 0.8332 0.8330 0.8320 0.8280 0.8260
460.944055 0.8240 0.8180 0.8160 0.8150 0.8130
467.046582 0.8130 0.8110 0.8090 0.8070 0.8070
473.149110 0.8030 0.8000 0.7940 0.7900 0.7671
479.251637 0.7471 0.7281 0.5440 0.3949 0.2460
485.354164 0.2430 0.2450 0.3389 0.4318 0.5347
491.456692 0.6386 0.7007 0.7637 0.8256 0.8637
497.559219 0.8690 0.8880 0.8960 0.9030 0.9050
503.661747 0.9130 0.9240 0.9260 0.9280 0.9300
509.764274 0.9320 0.9320 0.9330 0.9350 0.9350
515.866801 0.9350 0.9370 0.9390 0.9410 0.9450
521.969329 0.9450 0.9490 0.9500 0.9500 0.9520
528.071856 0.9540 0.9540 0.9540 0.9560 0.9580
534.174384 0.9620 0.9660 0.9660 0.9710 0.9710
540.276911 0.9730 0.9730 0.9750 0.9770 0.9810
546.379438 0.9830 0.9830 0.9830 0.9840 0.9840
552.481966 0.9860 0.9900 0.9920 0.9920 0.9940
558.584493 0.9940 0.9940 0.9960 0.9960 0.9960
564.687021 0.9980 0.9980 1.0000 1.0000 1.0010
570.789548 1.0010 1.0010 1.0010 1.0010 1.0010
576.892075 1.0010 1.0010 1.0010 1.0010 1.0010
582.994603 1.0010 1.0010 1.0010 1.0010 1.0010
589.097130 1.0010 1.0010 1.0010 1.0010 1.0010
595.199658 1.0010 1.0010 1.0010 1.0010 1.0010
601.302185 1.0010 1.0010 1.0010 1.0000 1.0000
607.404712 1.0000 1.0000 0.9980 0.9980 0.9980
613.507240 0.9960 0.9960 0.9960 0.9960 0.9960
619.609767 0.9940 0.9860 0.9840 0.9840 0.9860
625.712295 0.9860 0.9860 0.9900 0.9900 0.9900
631.814822 0.9880 0.9880 0.9880 0.9860 0.9810
637.917349 0.9770 0.9750 0.9750 0.9750 0.9730
644.019877 0.9670 0.9640 0.9620 0.9600 0.9540
650.122404 0.9540 0.9540 0.9540 0.9540 0.9540
656.224932 0.9540 0.9560 0.9540 0.9520 0.9520
662.327459 0.9331 0.9300 0.9091 0.9011 0.8881
668.429986 0.8330 0.8280 0.7861 0.7411 0.5755
674.532514 0.3867 0.2885 0.2840 0.2860 0.4439
680.635041 0.6030 0.6839 0.7639 0.8518 0.9407
686.737569 0.9430 0.9450 0.9470 0.9470 0.9430
692.840096 0.9430 0.9430 0.9370 0.9150 0.8981
698.942623 0.7984 0.6099 0.4041 0.4000 0.4010
705.045151 0.5010 0.5999 0.6579 0.7149 0.7938
711.147678 0.8727 0.8770 0.8790 0.8770 0.8730
717.250206 0.8370 0.7920 0.7710 0.6203 0.3867
723.352733 0.1848 0.0815 0.0352 0.0320 0.0330
729.455260 0.1660 0.2959 0.4278 0.5577 0.6876
735.557788 0.7787 0.8686 0.8710 0.8710 0.8670
741.660315 0.8640 0.8540 0.8180 0.7751 0.7371
747.762843 0.6922 0.6153 0.1753 0.0647 0.0302
753.865370 0.0260 0.0280 0.0490 0.1069 0.1658
759.967897 0.2836 0.4005 0.5174 0.6343 0.6727
766.070425 0.7090 0.7690 0.8299 0.8410 0.8520
772.172952 0.8769 0.8840 0.8860 0.8860 0.8830
778.275480 0.8790 0.8770 0.8730 0.9009 0.9299
784.378007 0.9410 0.9539 0.9620 0.9690 0.9710
790.480534 0.9750 0.9730 0.9690 0.9660 0.9600
796.583062 0.9560 0.9520 0.9331 0.9012 0.6278
802.685589 0.5180 0.5150 0.5180 0.5769 0.6348
808.788117 0.6938 0.8085 0.8180 0.8260 0.8260
814.890644 0.8009 0.6390 0.5831 0.5281 0.4203
820.993172 0.4160 0.4200 0.5324 0.6444 0.7573
827.095699 0.8690 0.8880 0.9090 0.9130 0.9659
833.198226 0.9730 0.9790 0.9790 0.9790 0.9790
839.300754 0.9790 0.9770 0.9770 0.9670 0.9331
845.403281 0.9300 0.9180 0.9090 0.8961 0.8900
851.505809 0.8620 0.8490 0.8450 0.8430 0.8410
857.608336 0.8410 0.8410 0.8390 0.8390 0.8370
863.710863 0.8330 0.8300 0.8240 0.8220 0.8240
869.813391 0.8240 0.8280 0.8598 0.8918 0.8960
875.915918 0.8980 0.9200 0.9240 0.9280 0.9300
882.018446 0.9320 0.9300 0.9300 0.9280 0.9260
888.120973 0.9220 0.9090 0.9030 0.8321 0.8300
894.223500 0.8330 0.8659 0.8769 0.9237 0.9240
900.326028 0.9090 0.9030 0.7732 0.7131 0.5844
906.428555 0.4077 0.4050 0.4070 0.5233 0.6402
912.531083 0.7560 0.7560 0.7031 0.6731 0.6182
918.633610 0.5642 0.5600 0.5620 0.6832 0.8061
924.736137 0.9300 0.9320 0.9320 0.9320 0.9280
930.838665 0.9160 0.8413 0.8032 0.8010 0.7960
936.941192 0.7920 0.7370 0.7150 0.7110 0.7150
943.043720 0.7220 0.7320 0.7449 0.8026 0.8596
949.146247 0.8710 0.8940 0.8940 0.8750 0.8710
955.248774 0.8730 0.8879 0.9318 0.9499 0.9500
961.351302 0.9470 0.9470 0.9620 0.9770 0.9840
967.453829 0.9900 0.9920 0.9960 1.0000 1.0030
973.556357 1.0050 1.0050 1.0050 1.0050 1.0050
979.658884 1.0050 0.9980 0.9960 0.9880 0.9830
985.761411 0.9660 0.9220 0.8791 0.7962 0.7541
991.863939 0.7112 0.7110 0.7578 0.8385 0.9195
997.966466 0.9810 0.9920 0.9940 0.9960 0.9960
1004.068994 1.0000 1.0010 1.0010 1.0000 1.0000
1010.171521 0.9940 0.9900 0.9840 0.9830 0.9810
1016.274048 0.9730 0.9491 0.9221 0.8922 0.7907
1022.376576 0.7860 0.7490 0.7490 0.7999 0.8499
1028.479103 0.8899 0.9089 0.9180 0.9299 0.9499
1034.581631 0.9730 0.9790 0.9900 0.9940 0.9980
1040.684158 0.9980 1.0000 1.0000 1.0000 1.0000
1046.786685 1.0000 1.0000 1.0000 0.9980 0.9980
1052.889213 0.9980 0.9980 0.9980 0.9980 0.9980
1058.991740 0.9940 0.9900 0.9770 0.9710 0.9710
1065.094268 0.9600 0.9451 0.9161 0.9011 0.8921
1071.196795 0.9050 0.9240 0.9390 0.9500 0.9500
1077.299322 0.9500 0.9500 0.9500 0.9470 0.9430
1083.401850 0.9410 0.9370 0.9330 0.9280 0.9130
1089.504377 0.8861 0.8073 0.8030 0.8070 0.8279
1095.606905 0.8470 0.8960 0.9010 0.9010 0.9010
1101.709432 0.8860 0.8731 0.8690 0.8730 0.8859
1107.811959 0.9030 0.9110 0.9220 0.9280 0.9320
1113.914487 0.9300 0.9280 0.9220 0.9001 0.8881
1120.017014 0.8750 0.8670 0.8640 0.8670 0.8730
1126.119542 0.8730 0.8660 0.8541 0.7903 0.7473
1132.222069 0.6600 0.6560 0.6580 0.7998 0.8200
1138.324596 0.8409 0.8898 0.9009 0.9090 0.9130
1144.427124 0.9180 0.9220 0.9240 0.9240 0.9240
1150.529651 0.9240 0.9220 0.9160 0.8941 0.8711
1156.632179 0.8470 0.8300 0.7980 0.7750 0.7710
1162.734706 0.7730 0.7979 0.8199 0.8807 0.9317
1168.837233 0.9520 0.9620 0.9690 0.9770 0.9860
1174.939761 0.9900 0.9940 0.9940 0.9940 0.9880
1181.042288 0.9840 0.9880 0.9960 0.9980 1.0010
1187.144816 1.0050 1.0090 1.0090 1.0110 1.0130
1193.247343 1.0130 1.0130 1.0130 1.0130 1.0130
1199.349870 1.0130 1.0130 1.0130 1.0130 1.0130
1205.452398 1.0110 1.0110 1.0090 1.0070 1.0050
1211.554925 0.9980 0.9960 0.9940 0.9771 0.9730
1217.657453 0.9770 0.9770 0.9660 0.9321 0.8183
1223.759980 0.7981 0.7940 0.7960 0.8298 0.8618
1229.862507 0.8980 0.9430 0.9500 0.9540 0.9560
1235.965035 0.9520 0.9520 0.9182 0.9091 0.7888
1242.067562 0.7710 0.7050 0.5731 0.5730 0.6149
1248.170090 0.6539 0.7088 0.6284 0.5843 0.5433
1254.272617 0.5430 0.5540 0.5600 0.5899 0.6409
1260.375144 0.6918 0.8155 0.8449 0.8728 0.8978
1266.477672 0.9050 0.9130 0.9240 0.9320 0.9330
1272.580199 0.9350 0.9350 0.9350 0.9320 0.9300
1278.682727 0.9010 0.8690 0.8640 0.8430 0.8350
1284.785254 0.8350 0.8977 0.9279 0.9330 0.9390
1290.887781 0.9390 0.9280 0.9200 0.9110 0.8831
1296.990309 0.8601 0.8072 0.8000 0.8000 0.8159
1303.092836 0.8450 0.8730 0.8730 0.8450 0.8131
1309.195364 0.7901 0.7860 0.7880 0.8109 0.8388
1315.297891 0.8670 0.9180 0.9330 0.9450 0.9470
1321.400418 0.9490 0.9490 0.9490 0.9490 0.9490
1327.502946 0.9450 0.9410 0.9390 0.9350 0.9071
1333.605473 0.8901 0.8671 0.7774 0.7671 0.6120
1339.708001 0.4347 0.0940 0.0920 0.0940 0.1728
1345.810528 0.2518 0.3317 0.4594 0.5853 0.7122
1351.913055 0.8390 0.8770 0.8770 0.8670 0.8600
1358.015583 0.8500 0.8500 0.8918 0.9109 0.9915
1364.118110 0.9940 0.9960 0.9960 0.9960 0.9960
1370.220638 0.9980 0.9980 0.9980 1.0000 1.0000
1376.323165 1.0010 1.0010 1.0070 1.0150 1.0160
1382.425692 1.0200 1.0240 1.0240 1.0240 1.0240
1388.528220 1.0220 1.0200 1.0180 1.0160 1.0130
1394.630747 1.0070 0.9980 0.9980 0.9960 0.9880
1400.733275 0.9860 0.9790 0.9750 0.9770 0.9840
1406.835802 0.9860 0.9900 0.9920 0.9920 0.9920
1412.938329 0.9920 0.9900 0.9860 0.9860 0.9860
1419.040857 0.9840 0.9830 0.9750 0.9621 0.9620
1425.143384 0.9560 0.9500 0.9450 0.9330 0.9320
1431.245912 0.9280 0.9280 0.8792 0.7775 0.7203
1437.348439 0.6089 0.5520 0.4430 0.4430 0.5558
1443.450966 0.6687 0.7826 0.7830 0.7541 0.7242
1449.553494 0.6960 0.6670 0.6670 0.6940 0.7200
1455.656021 0.7469 0.7729 0.8009 0.8159 0.8319
1461.758549 0.8840 0.9180 0.9350 0.9560 0.9600
1467.861076 0.9640 0.9670 0.9690 0.9710 0.9710
1473.963603 0.9710 0.9710 0.9690 0.9660 0.9660
1480.066131 0.9620 0.9580 0.9500 0.9470 0.9430
1486.168658 0.9410 0.9350 0.9300 0.9240 0.9200
1492.271186 0.9160 0.9150 0.9110 0.9050 0.9010
1498.373713 0.8980 0.8830 0.8750 0.8670 0.8620
1504.476240 0.8540 0.8490 0.8410 0.8410 0.8370
1510.578768 0.8320 0.8000 0.7940 0.7860 0.7830
1516.681295 0.7790 0.7750 0.7730 0.7670 0.7620
1522.783823 0.7580 0.7520 0.7410 0.7300 0.7200
1528.886350 0.7090 0.7000 0.6900 0.6791 0.6691
1534.988878 0.6580 0.6390 0.6280 0.6180 0.6090
1541.091405 0.5980 0.5880 0.5771 0.5671 0.5581
1547.193932 0.5470 0.5280 0.5260 0.5320 0.5350
1553.296460 0.5450 0.5540 0.5640 0.5730 0.5839
1559.398987 0.5940 0.6030 0.6130 0.6280 0.6330
1565.501515 0.6370 0.6370 0.6330 0.6032 0.5941
1571.604042 0.5750 0.5750 0.6150 0.6350 0.6540
1577.706569 0.6879 0.6920 0.7029 0.7050 0.7130
1583.809097 0.7200 0.7220 0.7260 0.7370 0.7450
1589.911624 0.7540 0.7580 0.7749 0.7899 0.7900
1596.014152 0.7960 0.8110 0.8180 0.8260 0.8370
1602.116679 0.8599 0.8660 0.8750 0.8770 0.8790
1608.219206 0.8730 0.8580 0.8030 0.7750 0.7580
1614.321734 0.7221 0.7220 0.7748 0.8048 0.8348
1620.424261 0.8860 0.8920 0.9600 0.9640 0.9660
1626.526789 0.9710 0.9770 0.9770 0.9770 0.9770
1632.629316 0.9600 0.9560 0.9560 0.9500 0.9390
1638.731843 0.9260 0.9200 0.9130 0.9050 0.8961
1644.834371 0.8960 0.9240 0.9500 0.9750 0.9790
1650.936898 0.9940 1.0070 1.0110 1.0070 1.0070
1657.039426 1.0030 1.0010 1.0000 1.0000 0.9980
1663.141953 0.9960 0.9960 0.9960 0.9960 0.9960
1669.244480 0.9960 0.9960 0.9960 0.9960 0.9960
1675.347008 0.9960 0.9960 0.9960 0.9960 0.9940
1681.449535 0.9940 0.9940 0.9860 0.9750 0.9690
1687.552063 0.9660 0.9640 0.9660 0.9660 0.9670
1693.654590 0.9670 0.9710 0.9750 0.9770 0.9790
1699.757117 0.9830 0.9860 0.9880 0.9880 0.9920
1705.859645 0.9880 0.9860 0.9830 0.9810 0.9770
1711.962172 0.9770 0.9750 0.9750 0.9730 0.9730
1718.064700 0.9730 0.9730 0.9710 0.9710 0.9710
1724.167227 0.9690 0.9690 0.9690 0.9710 0.9730
1730.269754 0.9730 0.9770 0.9790 0.9810 0.9810
1736.372282 0.9810 0.9810 0.9830 0.9830 0.9840
1742.474809 0.9840 0.9840 0.9840 0.9860 0.9880
1748.577337 0.9940 0.9980 1.0000 1.0000 1.0010
1754.679864 1.0010 1.0010 1.0010 1.0010 1.0030
1760.782391 1.0050 1.0070 1.0070 1.0090 1.0090
1766.884919 1.0090 1.0090 1.0090 1.0110 1.0110
1772.987446 1.0090 1.0090 1.0090 1.0090 1.0090
1779.089974 1.0070 1.0070 1.0070 1.0070 1.0070
1785.192501 1.0050 1.0050 1.0070 1.0110 1.0130
1791.295028 1.0150 1.0150 1.0150 1.0150 1.0150
1797.397556 1.0150 1.0150 1.0130 1.0130 1.0110
1803.500083 1.0090 1.0050 1.0030 1.0010 1.0010
1809.602611 1.0010 1.0010 1.0030 1.0030 1.0030
1815.705138 1.0030 1.0030 1.0030 1.0010 0.9960
1821.807665 0.9960 0.9960 0.9960 0.9960 0.9960
1827.910193 0.9960 0.9960 0.9960 0.9980 0.9980
1834.012720 0.9980 0.9980 0.9980 0.9980 1.0000
1840.115248 1.0010 1.0010 1.0030 1.0050 1.0050
1846.217775 1.0050 1.0030 1.0030 1.0030 1.0030
1852.320302 1.0030 1.0030 1.0030 1.0030 1.0010
1858.422830 1.0010 1.0010 1.0010 1.0010 1.0000
1864.525357 1.0000 1.0000 1.0000 1.0000 1.0000
1870.627885 0.9980 0.9980 0.9980 0.9980 0.9980
1876.730412 0.9980 0.9980 0.9980 0.9980 1.0000
1882.832939 1.0000 1.0010 1.0010 1.0010 1.0030
1888.935467 1.0030 1.0030 1.0030 1.0050 1.0050
1895.037994 1.0050 1.0050 1.0050 1.0050 1.0050
1901.140522 1.0050 1.0050 1.0050 1.0050 1.0030
1907.243049 1.0030 1.0030 1.0030 1.0030 1.0030
1913.345576 1.0030 1.0030 1.0030 1.0030 1.0030
1919.448104 1.0030 1.0010 1.0010 1.0010 1.0010
1925.550631 1.0030 1.0030 1.0030 1.0030 1.0050
1931.653159 1.0050 1.0050 1.0070 1.0090 1.0110
1937.755686 1.0130 1.0130 1.0130 1.0130 1.0130
1943.858213 1.0150 1.0150 1.0150 1.0150 1.0150
1949.960741 1.0150 1.0150 1.0150 1.0150 1.0150
1956.063268 1.0150 1.0150 1.0150 1.0150 1.0130
1962.165796 1.0130 1.0110 1.0110 1.0090 1.0070
1968.268323 1.0070 1.0070 1.0070 1.0090 1.0090
1974.370850 1.0090 1.0090 1.0110 1.0110 1.0110
1980.473378 1.0090 1.0090 1.0090 1.0070 1.0090
1986.575905 1.0090 1.0090 1.0090 1.0090 1.0090
1992.678433 1.0070 1.0070 1.0070 1.0050 1.0050
1998.780960 1.0050 1.0050 1.0050 1.0050 1.0050
2004.883487 1.0050 1.0050 1.0050 1.0050 1.0050
2010.986015 1.0050 1.0050 1.0050 1.0050 1.0050
2017.088542 1.0050 1.0050 1.0050 1.0050 1.0050
2023.191070 1.0060 1.0070 1.0080 1.0090 1.0090
2029.293597 1.0090 1.0062 1.0032 1.0016 1.0001
2035.396124 1.0000 1.0000 0.9991 0.9981 0.9980
2041.498652 0.9980 0.9962 0.9942 0.9940 0.9940
2047.601179 0.9958 0.9978 0.9989 0.9999 1.0005
2053.703707 1.0010 1.0010 1.0010 1.0010 1.0010
2059.806234 1.0006 1.0000 1.0000 1.0000 0.9982
2065.908761 0.9962 0.9960 0.9960 0.9960 0.9960
2072.011289 0.9960 0.9960 0.9960 0.9960 0.9960
2078.113816 0.9960 0.9960 0.9960 0.9960 0.9960
2084.216344 0.9960 0.9960 0.9960 0.9960 0.9960
2090.318871 0.9960 0.9968 0.9978 0.9988 0.9998
2096.421398 1.0000 1.0000 1.0004 1.0009 1.0010
2102.523926 1.0010 1.0027 1.0047 1.0058 1.0068
2108.626453 1.0070 1.0070 1.0062 1.0052 1.0050
2114.728981 1.0050 1.0058 1.0068 1.0070 1.0070
2120.831508 1.0070 1.0070 1.0070 1.0070 1.0078
2126.934035 1.0088 1.0090 1.0090 1.0090 1.0090
2133.036563 1.0090 1.0090 1.0090 1.0090 1.0082
2139.139090 1.0072 1.0062 1.0052 1.0031 1.0006
2145.241618 0.9992 0.9982 0.9980 0.9980 0.9980
2151.344145 0.9980 0.9980 0.9980 0.9980 0.9980
2157.446672 0.9980 0.9980 0.9980 0.9980 0.9987
2163.549200 0.9997 1.0000 1.0000 1.0000 1.0000
2169.651727 1.0000 1.0000 1.0000 1.0000 1.0000
2175.754255 1.0000 1.0000 1.0000 0.9993 0.9983
2181.856782 0.9980 0.9980 0.9980 0.9980 0.9980
2187.959309 0.9980 0.9980 0.9980 0.9987 0.9997
2194.061837 0.9993 0.9983 0.9980 0.9980 0.9980
2200.164364 0.9980 0.9980 0.9980 0.9973 0.9963
2206.266892 0.9960 0.9960 0.9953 0.9943 0.9940
2212.369419 0.9940 0.9946 0.9956 0.9960 0.9960
2218.471946 0.9960 0.9960 0.9947 0.9927 0.9920
2224.574474 0.9920 0.9926 0.9936 0.9953 0.9973
2230.677001 0.9986 0.9996 1.0003 1.0008 1.0016
2236.779529 1.0026 1.0036 1.0046 1.0044 1.0034
2242.882056 1.0021 1.0006 1.0000 1.0000 0.9994
2248.984584 0.9984 0.9980 0.9980 0.9974 0.9964
2255.087111 0.9960 0.9960 0.9960 0.9960 0.9960
2261.189638 0.9960 0.9943 0.9913 0.9900 0.9900
2267.292166 0.9900 0.9900 0.9900 0.9900 0.9894
2273.394693 0.9884 0.9880 0.9880 0.9874 0.9864
2279.497221 0.9854 0.9844 0.9837 0.9832 0.9830
2285.599748 0.9830 0.9830 0.9830 0.9830 0.9830
2291.702275 0.9830 0.9830 0.9833 0.9838 0.9840
2297.804803 0.9840 0.9851 0.9871 0.9896 0.9926
2303.907330 0.9945 0.9955 0.9960 0.9960 0.9960
2310.009858 0.9960 0.9960 0.9960 0.9960 0.9960
2316.112385 0.9960 0.9960 0.9965 0.9975 0.9985
2322.214912 0.9995 1.0003 1.0007 1.0020 1.0040
2328.317440 1.0050 1.0050 1.0050 1.0050 1.0055
2334.419967 1.0065 1.0065 1.0055 1.0050 1.0050
2340.522495 1.0050 1.0050 1.0045 1.0035 1.0035
2346.625022 1.0045 1.0050 1.0050 1.0050 1.0050
2352.727549 1.0050 1.0050 1.0054 1.0064 1.0066
2358.830077 1.0056 1.0050 1.0050 1.0050 1.0050
2364.932604 1.0046 1.0036 1.0030 1.0030 1.0030
2371.035132 1.0030 1.0026 1.0016 1.0008 1.0003
2377.137659 1.0000 1.0000 1.0000 1.0000 1.0000
2383.240186 1.0000 1.0000 1.0000 1.0002 1.0007
2389.342714 1.0010 1.0010 1.0014 1.0024 1.0030
2395.445241 1.0030 1.0034 1.0044 1.0050 1.0050
2401.547769 1.0050 1.0050 1.0050 1.0050 1.0050
2407.650296 1.0050 1.0047 1.0037 1.0030 1.0030
2413.752823 1.0030 1.0030 1.0030 1.0030 1.0030
2419.855351 1.0030 1.0030 1.0030 1.0027 1.0017
2425.957878 1.0008 1.0003 1.0000 1.0000 1.0000
2432.060406 1.0000 1.0000 1.0000 1.0002 1.0007
2438.162933 1.0010 1.0010 1.0010 1.0010 1.0013
2444.265460 1.0023 1.0030 1.0030 1.0030 1.0030
2450.367988 1.0033 1.0043 1.0050 1.0050 1.0050
2456.470515 1.0050 1.0050 1.0050 1.0050 1.0050
2462.573043 1.0050 1.0050 1.0050 1.0050 1.0050
2468.675570 1.0050 1.0047 1.0037 1.0030 1.0030
2474.778097 1.0030 1.0030 1.0030 1.0030 1.0028
2480.880625 1.0018 1.0010 1.0010 1.0010 1.0010
2486.983152 1.0010 1.0010 1.0010 1.0010 1.0010
2493.085680 1.0010 1.0010 1.0010 1.0010 1.0010
2499.188207 1.0009 1.0004 1.0000 1.0000 1.0000
2505.290734 1.0000 1.0000 1.0000 1.0000 1.0000
2511.393262 1.0000 1.0000 1.0000 1.0000 1.0000
2517.495789 1.0000 1.0000 1.0000 1.0000 1.0000
2523.598317 1.0000 1.0000 1.0000 1.0000 1.0000
2529.700844 1.0000 1.0000 1.0000 1.0000 1.0000
2535.803371 1.0000 1.0000 1.0000 1.0000 1.0000
2541.905899 1.0000 1.0000 1.0000 1.0000 1.0000
2548.008426 1.0000 1.0000 1.0000 1.0000 1.0000
2554.110954 1.0000 1.0000 1.0000 1.0000 1.0000
2560.213481 1.0000 1.0000 1.0000 1.0000 1.0000
2566.316008 1.0000 1.0000 1.0000 1.0000 1.0000
2572.418536 1.0000 1.0000 1.0000 1.0000 1.0000
2578.521063 1.0000 1.0000 1.0000 0.9999 0.9989
2584.623591 0.9980 0.9980 0.9981 0.9991 1.0000
2590.726118 1.0000 1.0000 1.0000 1.0000 1.0000
2596.828645 1.0000 1.0000 1.0000 1.0000 1.0000
2602.931173 1.0005 1.0010 1.0010 1.0010 1.0020
2609.033700 1.0030 1.0030 1.0031 1.0040 1.0050
2615.136228 1.0050 1.0050 1.0050 1.0050 1.0050
2621.238755 1.0050 1.0050 1.0050 1.0050 1.0050
2627.341282 1.0050 1.0050 1.0050 1.0050 1.0050
2633.443810 1.0050 1.0050 1.0050 1.0050 1.0050
2639.546337 1.0050 1.0050 1.0050 1.0050 1.0050
2645.648865 1.0050 1.0050 1.0050 1.0050 1.0050
2651.751392 1.0050 1.0050 1.0050 1.0050 1.0050
2657.853919 1.0050 1.0050 1.0050 1.0050 1.0050
2663.956447 1.0050 1.0050 1.0050 1.0050 1.0060
2670.058974 1.0070 1.0060 1.0051 1.0050 1.0050
2676.161502 1.0050 1.0050 1.0050 1.0050 1.0050
2682.264029 1.0050 1.0050 1.0050 1.0041 1.0031
2688.366556 1.0016 1.0001 1.0000 1.0000 1.0000
2694.469084 1.0000 1.0000 1.0000 1.0000 1.0000
2700.571611 1.0005 1.0010 1.0010 1.0010 1.0010
2706.674139 1.0010 1.0019 1.0029 1.0030 1.0030
2712.776666 1.0030 1.0030 1.0030 1.0030 1.0030
2718.879193 1.0030 1.0030 1.0030 1.0017 1.0002
2724.981721 0.9991 0.9981 0.9980 0.9980 0.9980
2731.084248 0.9980 0.9980 0.9980 0.9980 0.9980
2737.186776 0.9980 0.9980 0.9988 0.9998 1.0000
2743.289303 1.0000 1.0000 1.0000 1.0000 1.0000
2749.391830 1.0004 1.0009 1.0010 1.0010 1.0006
2755.494358 1.0001 0.9992 0.9982 0.9972 0.9962
2761.596885 0.9968 0.9978 0.9980 0.9980 0.9988
2767.699413 0.9998 1.0000 1.0000 0.9992 0.9982
2773.801940 0.9972 0.9962 0.9960 0.9960 0.9960
2779.904467 0.9960 0.9937 0.9907 0.9900 0.9900
2786.006995 0.9892 0.9882 0.9872 0.9862 0.9852
2792.109522 0.9842 0.9829 0.9814 0.9810 0.9810
2798.212050 0.9803 0.9793 0.9783 0.9773 0.9763
2804.314577 0.9753 0.9750 0.9750 0.9743 0.9733
2810.417104 0.9682 0.9617 0.9585 0.9565 0.9553
2816.519632 0.9543 0.9540 0.9540 0.9540 0.9540
2822.622159 0.9466 0.9361 0.9260 0.9160 0.9116
2828.724687 0.9096 0.8729 0.8203 0.7944 0.7795
2834.827214 0.7652 0.7513 0.7363 0.7208 0.6539
2840.929741 0.5637 0.4670 0.3674 0.2912 0.2265
2847.032269 0.2050 0.2050 0.2512 0.3210 0.3904
2853.134796 0.4597 0.5293 0.5990 0.6233 0.6253
2859.237324 0.5678 0.4801 0.4484 0.4459 0.4444
2865.339851 0.4434 0.4176 0.3783 0.3405 0.3036
2871.442378 0.2900 0.2900 0.3118 0.3467 0.3809
2877.544906 0.4148 0.4286 0.4296 0.4294 0.4284
2883.647433 0.4174 0.4005 0.3835 0.3666 0.3341
2889.749961 0.2917 0.2590 0.2326 0.2104 0.1909
2895.852488 0.1744 0.1600 0.1470 0.1350 0.1294
2901.955015 0.1284 0.1280 0.1280 0.1286 0.1296
2908.057543 0.1370 0.1490 0.1612 0.1737 0.1853
2914.160070 0.1963 0.2016 0.2026 0.2030 0.2030
2920.262598 0.1894 0.1650 0.1483 0.1378 0.1230
2926.365125 0.1046 0.0879 0.0727 0.0613 0.0528
2932.467652 0.0479 0.0459 0.0450 0.0450 0.0455
2938.570180 0.0465 0.0573 0.0767 0.0920 0.1035
2944.672707 0.1149 0.1264 0.1343 0.1388 0.1400
2950.775235 0.1380 0.1332 0.1257 0.1114 0.0910
2956.877762 0.0723 0.0554 0.0440 0.0380 0.0328
2962.980290 0.0283 0.0235 0.0186 0.0143 0.0108
2969.082817 0.0085 0.0075 0.0075 0.0085 0.0129
2975.185344 0.0214 0.0295 0.0371 0.0446 0.0521
2981.287872 0.0586 0.0641 0.0966 0.1598 0.2229
2987.390399 0.2857 0.3483 0.4106 0.4499 0.4609
2993.492927 0.4716 0.4821 0.4884 0.4894 0.5045
2999.595454 0.5384 0.5676 0.5903 0.6127 0.6346
3005.697981 0.6730 0.7328 0.7723 0.7848 0.7960
3011.800509 0.8055 0.8124 0.8159 0.8196 0.8236
3017.903036 0.8260 0.8260 0.8256 0.8246 0.8219
3024.005564 0.8164 0.8126 0.8116 0.8080 0.8005
3030.108091 0.7903 0.7758 0.7512 0.7109 0.6847
3036.210618 0.6812 0.6363 0.5231 0.4440 0.4226
3042.313146 0.4014 0.3804 0.3509 0.3061 0.2767
3048.415673 0.2757 0.2757 0.2777 0.2794 0.2804
3054.518201 0.2819 0.2844 0.2881 0.2941 0.3002
3060.620728 0.3067 0.3142 0.3237 0.3325 0.3400
3066.723255 0.3593 0.4032 0.4472 0.4916 0.5356
3072.825783 0.5790 0.6225 0.6665 0.6963 0.6973
3078.928310 0.7113 0.7527 0.7871 0.8066 0.8261
3085.030838 0.8461 0.8722 0.9125 0.9413 0.9423
3091.133365 0.9446 0.9501 0.9554 0.9604 0.9650
3097.235892 0.9685 0.9713 0.9723 0.9739 0.9769
3103.338420 0.9797 0.9822 0.9854 0.9904 0.9943
3109.440947 0.9953 0.9965 0.9985 1.0000 1.0000
3115.543475 1.0000 1.0000 1.0000 1.0000 1.0000
3121.646002 1.0000 0.9998 0.9988 0.9980 0.9980
3127.748529 0.9973 0.9943 0.9910 0.9871 0.9830
3133.851057 0.9785 0.9740 0.9695 0.9645 0.9575
3139.953584 0.9492 0.9363 0.9256 0.9236 0.9222
3146.056112 0.9232 0.9249 0.9294 0.9386 0.9651
3152.158639 0.9870 0.9920 0.9967 1.0002 1.0036
3158.261166 1.0066 1.0096 1.0131 1.0162 1.0172
3164.363694 1.0185 1.0215 1.0242 1.0252 1.0262
3170.466221 1.0272 1.0280 1.0280 1.0282 1.0292
3176.568749 1.0300 1.0300 1.0300 1.0300 1.0300
3182.671276 1.0300 1.0300 1.0300 1.0300 1.0300
3188.773803 1.0300 1.0300 1.0299 1.0289 1.0280
3194.876331 1.0280 1.0279 1.0269 1.0260 1.0260
3200.978858 1.0257 1.0237 1.0217 1.0198 1.0178
3207.081386 1.0163 1.0148 1.0128 1.0109 1.0099
3213.183913 1.0083 1.0008 0.9938 0.9918 0.9900
3219.286440 0.9900 0.9901 0.9911 0.9924 0.9964
3225.388968 1.0000 1.0005 1.0010 1.0010 1.0014
3231.491495 1.0064 1.0112 1.0137 1.0161 1.0181
3237.594023 1.0201 1.0211 1.0220 1.0231 1.0240
3243.696550 1.0240 1.0240 1.0240 1.0241 1.0251
3249.799077 1.0260 1.0271 1.0280 1.0280 1.0280
3255.901605 1.0290 1.0300 1.0300 1.0300 1.0300
3262.004132 1.0300 1.0300 1.0300 1.0300 1.0300
3268.106660 1.0310 1.0320 1.0320 1.0320 1.0320
3274.209187 1.0320 1.0320 1.0320 1.0320 1.0320
3280.311714 1.0320 1.0320 1.0325 1.0330 1.0330
3286.414242 1.0330 1.0330 1.0330 1.0330 1.0330
3292.516769 1.0330 1.0330 1.0330 1.0330 1.0330
3298.619297 1.0330 1.0330 1.0330 1.0330 1.0330
3304.721824 1.0330 1.0330 1.0330 1.0330 1.0330
3310.824351 1.0330 1.0330 1.0330 1.0330 1.0330
3316.926879 1.0339 1.0349 1.0350 1.0350 1.0350
3323.029406 1.0350 1.0350 1.0350 1.0350 1.0350
3329.131934 1.0350 1.0350 1.0350 1.0350 1.0350
3335.234461 1.0350 1.0350 1.0350 1.0350 1.0350
3341.336988 1.0350 1.0350 1.0350 1.0350 1.0350
3347.439516 1.0350 1.0350 1.0350 1.0350 1.0350
3353.542043 1.0350 1.0350 1.0350 1.0350 1.0350
3359.644571 1.0350 1.0350 1.0350 1.0350 1.0350
3365.747098 1.0350 1.0350 1.0350 1.0350 1.0350
3371.849625 1.0350 1.0350 1.0350 1.0350 1.0350
3377.952153 1.0350 1.0350 1.0350 1.0350 1.0350
3384.054680 1.0350 1.0350 1.0350 1.0350 1.0350
3390.157208 1.0342 1.0332 1.0330 1.0330 1.0330
3396.259735 1.0330 1.0330 1.0330 1.0330 1.0330
3402.362262 1.0326 1.0321 1.0320 1.0320 1.0312
3408.464790 1.0302 1.0300 1.0300 1.0292 1.0282
3414.567317 1.0280 1.0280 1.0280 1.0280 1.0280
3420.669845 1.0280 1.0280 1.0280 1.0280 1.0280
3426.772372 1.0280 1.0280 1.0272 1.0262 1.0260
3432.874899 1.0260 1.0260 1.0260 1.0260 1.0260
3438.977427 1.0260 1.0260 1.0260 1.0260 1.0253
3445.079954 1.0243 1.0240 1.0240 1.0240 1.0240
3451.182482 1.0240 1.0240 1.0240 1.0240 1.0240
3457.285009 1.0240 1.0240 1.0240 1.0240 1.0240
3463.387536 1.0240 1.0240 1.0240 1.0240 1.0233
3469.490064 1.0223 1.0220 1.0220 1.0220 1.0220
3475.592591 1.0220 1.0220 1.0220 1.0220 1.0220
3481.695119 1.0220 1.0220 1.0220 1.0220 1.0220
3487.797646 1.0227 1.0237 1.0233 1.0223 1.0220
3493.900173 1.0220 1.0220 1.0220 1.0220 1.0220
3500.002701 1.0220 1.0220 1.0220 1.0220 1.0214
3506.105228 1.0204 1.0200 1.0200 1.0200 1.0200
3512.207756 1.0200 1.0200 1.0200 1.0200 1.0200
3518.310283 1.0200 1.0200 1.0200 1.0200 1.0200
3524.412810 1.0200 1.0200 1.0200 1.0200 1.0200
3530.515338 1.0200 1.0200 1.0200 1.0200 1.0200
3536.617865 1.0200 1.0200 1.0200 1.0200 1.0200
3542.720393 1.0200 1.0200 1.0200 1.0200 1.0200
3548.822920 1.0200 1.0200 1.0200 1.0200 1.0200
3554.925447 1.0200 1.0200 1.0200 1.0200 1.0200
3561.027975 1.0200 1.0200 1.0200 1.0200 1.0200
3567.130502 1.0200 1.0200 1.0200 1.0200 1.0200
3573.233030 1.0200 1.0200 1.0195 1.0185 1.0180
3579.335557 1.0180 1.0180 1.0180 1.0180 1.0180
3585.438084 1.0180 1.0180 1.0180 1.0180 1.0180
3591.540612 1.0180 1.0180 1.0180 1.0180 1.0180
3597.643139 1.0180 1.0180 1.0180 1.0180 1.0180
3603.745667 1.0180 1.0180 1.0180 1.0180 1.0180
3609.848194 1.0180 1.0180 1.0173 1.0158 1.0150
3615.950721 1.0150 1.0150 1.0150 1.0145 1.0135
3622.053249 1.0130 1.0130 1.0130 1.0130 1.0130
3628.155776 1.0130 1.0130 1.0130 1.0130 1.0130
3634.258304 1.0130 1.0130 1.0130 1.0130 1.0130
3640.360831 1.0130 1.0130 1.0130 1.0130 1.0130
3646.463358 1.0130 1.0130 1.0130 1.0130 1.0130
3652.565886 1.0130 1.0130 1.0130 1.0130 1.0130
3658.668413 1.0126 1.0116 1.0110 1.0110 1.0110
3664.770941 1.0110 1.0110 1.0110 1.0110 1.0110
3670.873468 1.0110 1.0110 1.0110 1.0110 1.0106
3676.975995 1.0096 1.0086 1.0076 1.0063 1.0043
3683.078523 1.0030 1.0030 1.0030 1.0030 1.0030
3689.181050 1.0030 1.0030 1.0030 1.0030 1.0030
3695.283578 1.0034 1.0044 1.0054 1.0064 1.0073
3701.386105 1.0083 1.0090 1.0090 1.0090 1.0090
3707.488633 1.0090 1.0090 1.0090 1.0090 1.0090
3713.591160 1.0090 1.0090 1.0090 1.0090 1.0090
3719.693687 1.0090 1.0090 1.0090 1.0090 1.0090
3725.796215 1.0090 1.0090 1.0090 1.0090 1.0090
3731.898742 1.0090 1.0090 1.0090 1.0090 1.0090
3738.001270 1.0090 1.0090 1.0090 1.0090 1.0090
3744.103797 1.0090 1.0090 1.0087 1.0077 1.0070
3750.206324 1.0070 1.0070 1.0070 1.0068 1.0057
3756.308852 1.0050 1.0050 1.0048 1.0037 1.0030
3762.411379 1.0030 1.0030 1.0030 1.0026 1.0011
3768.513907 1.0000 1.0000 1.0000 1.0000 1.0000
3774.616434 1.0000 1.0000 1.0000 1.0001 1.0006
3780.718961 1.0010 1.0010 1.0010 1.0010 1.0010
3786.821489 1.0010
##END=
