##TITLE=Silane, dimethyldiphenyl-
##JCAMP-DX=4.24
##DATA TYPE=INFRARED SPECTRUM
##CLASS=COBLENTZ II
##ORIGIN=DOW CORNING CORP.
##OWNER=Copyright (C) 1987 by the Coblentz Society
Collection (C) 2018 copyright by the U.S. Secretary of Commerce
on behalf of the United States of America. All rights reserved.
##DATE=1965/09/03
##NAMES=dimethyl(diphenyl)silane
##CAS REGISTRY NO=778-24-5
##MOLFORM=C14 H16 Si
##BP=114 C AT 3 mmHg
##SOURCE REFERENCE=COBLENTZ NO. 5552
##$NIST SOURCE=COBLENTZ
##$NIST IMAGE=cob5552
##SPECTROMETER/DATA SYSTEM=PERKIN-ELMER 521 (GRATING)
##INSTRUMENT PARAMETERS=FILTERS AT 3150, 2500, 2000, 1150, 700, 410. GRATING CHANGES: 2000, 630
##STATE=SOLUTION (10% CCl4 FOR 3800-1300, 2% CS2 FOR 1300-650, AND 10% CCl4 FOR 650-250)
$$ PURE BY GLC
##PATH LENGTH=0.011 CM, 0.012 CM, AND 0.020 CM
##RESOLUTION=2
##XUNITS=1/CM
##YUNITS=TRANSMITTANCE
##XFACTOR=1.0
##YFACTOR=1
##FIRSTX=242
##LASTX=3810
##FIRSTY=0.8146
##MAXX=3810
##MINX=242
##MAXY=0.8922
##MINY=0.0613
##NPOINTS=3569
##XYDATA=(X++(Y..Y))
242.000000 0.8146 0.8157 0.8171 0.8186 0.8201
247.000000 0.8217 0.8229 0.8234 0.8239 0.8244
252.000000 0.8249 0.8249 0.8245 0.8242 0.8232
257.000000 0.8216 0.8201 0.8185 0.8170 0.8149
262.000000 0.8127 0.8105 0.8082 0.8059 0.8037
267.000000 0.8014 0.7991 0.7968 0.7945 0.7922
272.000000 0.7899 0.7862 0.7825 0.7788 0.7750
277.000000 0.7699 0.7647 0.7593 0.7493 0.7441
282.000000 0.7405 0.7369 0.7333 0.7296 0.7260
287.000000 0.7212 0.7157 0.7102 0.7047 0.6989
292.000000 0.6928 0.6866 0.6807 0.6758 0.6709
297.000000 0.6678 0.6665 0.6674 0.6655 0.6666
302.000000 0.6696 0.6781 0.6866 0.6950 0.7035
307.000000 0.7120 0.7205 0.7290 0.7375 0.7455
312.000000 0.7520 0.7571 0.7621 0.7671 0.7713
317.000000 0.7750 0.7787 0.7823 0.7863 0.7906
322.000000 0.7948 0.7990 0.8003 0.8015 0.8027
327.000000 0.8042 0.8016 0.8007 0.7990 0.7974
332.000000 0.7951 0.7923 0.7890 0.7853 0.7810
337.000000 0.7766 0.7722 0.7671 0.7620 0.7569
342.000000 0.7477 0.7381 0.7250 0.6907 0.6752
347.000000 0.6597 0.6383 0.6166 0.5950 0.5733
352.000000 0.5517 0.5301 0.5084 0.4868 0.4651
357.000000 0.4435 0.4412 0.4390 0.4401 0.4519
362.000000 0.4819 0.5118 0.5418 0.5718 0.6017
367.000000 0.6317 0.6617 0.6916 0.7216 0.7516
372.000000 0.7749 0.7788 0.7810 0.7831 0.7851
377.000000 0.7869 0.7873 0.7824 0.7772 0.7721
382.000000 0.7690 0.7659 0.7634 0.7611 0.7588
387.000000 0.7566 0.7550 0.7534 0.7518 0.7502
392.000000 0.7486 0.7473 0.7460 0.7447 0.7412
397.000000 0.7371 0.7325 0.7256 0.7187 0.7118
402.000000 0.6962 0.6503 0.6254 0.6005 0.5755
407.000000 0.5506 0.5257 0.5008 0.4759 0.4451
412.000000 0.4091 0.3730 0.3370 0.3009 0.2648
417.000000 0.2288 0.1927 0.1567 0.1206 0.0926
422.000000 0.0930 0.0924 0.1058 0.1819 0.2581
427.000000 0.3342 0.4103 0.4865 0.5622 0.5760
432.000000 0.5855 0.5959 0.6082 0.6204 0.6363
437.000000 0.6539 0.6693 0.6720 0.6740 0.6750
442.000000 0.6759 0.6802 0.6757 0.6715 0.6617
447.000000 0.6317 0.6016 0.5715 0.5415 0.5114
452.000000 0.4813 0.4512 0.4212 0.3911 0.3610
457.000000 0.3000 0.2825 0.2744 0.2664 0.2583
462.000000 0.2507 0.2440 0.2372 0.2323 0.2275
467.000000 0.2222 0.2155 0.2088 0.2021 0.1953
472.000000 0.1886 0.1835 0.1830 0.1822 0.1836
477.000000 0.1850 0.1881 0.1931 0.1985 0.2078
482.000000 0.2185 0.2331 0.2987 0.3502 0.4020
487.000000 0.4539 0.5057 0.5575 0.6093 0.6652
492.000000 0.6869 0.7023 0.7175 0.7303 0.7432
497.000000 0.7508 0.7578 0.7646 0.7713 0.7777
502.000000 0.7815 0.7852 0.7889 0.7920 0.7946
507.000000 0.7973 0.7999 0.8025 0.8052 0.8065
512.000000 0.8079 0.8092 0.8106 0.8119 0.8133
517.000000 0.8139 0.8146 0.8152 0.8159 0.8166
522.000000 0.8172 0.8179 0.8184 0.8188 0.8191
527.000000 0.8194 0.8197 0.8201 0.8204 0.8207
532.000000 0.8210 0.8211 0.8210 0.8209 0.8208
537.000000 0.8207 0.8206 0.8205 0.8203 0.8202
542.000000 0.8201 0.8200 0.8199 0.8197 0.8196
547.000000 0.8195 0.8193 0.8192 0.8190 0.8189
552.000000 0.8187 0.8186 0.8185 0.8183 0.8182
557.000000 0.8180 0.8181 0.8183 0.8185 0.8186
562.000000 0.8188 0.8190 0.8191 0.8193 0.8195
567.000000 0.8196 0.8198 0.8200 0.8201 0.8208
572.000000 0.8218 0.8229 0.8240 0.8251 0.8261
577.000000 0.8275 0.8289 0.8303 0.8317 0.8331
582.000000 0.8345 0.8352 0.8353 0.8354 0.8355
587.000000 0.8355 0.8356 0.8357 0.8361 0.8344
592.000000 0.8334 0.8325 0.8315 0.8305 0.8295
597.000000 0.8283 0.8268 0.8254 0.8239 0.8225
602.000000 0.8207 0.8178 0.8149 0.8115 0.8078
607.000000 0.8042 0.7965 0.7840 0.7715 0.7591
612.000000 0.7466 0.7407 0.7411 0.7409 0.7611
617.000000 0.7738 0.7865 0.7921 0.7909 0.7916
622.000000 0.7823 0.7762 0.7707 0.7661 0.7613
627.000000 0.7560 0.7507 0.7454 0.7370 0.7283
632.000000 0.7152 0.6969 0.5832 0.5278 0.4724
637.000000 0.4170 0.3616 0.3062 0.2508 0.2303
642.000000 0.2324 0.2606 0.3231 0.3857 0.4482
647.000000 0.5372 0.6259 0.7145 0.8032 0.8485
652.000000 0.8508 0.8528 0.8533 0.8537 0.8566
657.000000 0.8531 0.8526 0.8518 0.8511 0.8495
662.000000 0.8477 0.8453 0.8414 0.8380 0.8356
667.000000 0.8333 0.8310 0.8289 0.8275 0.8260
672.000000 0.8253 0.8253 0.8267 0.8262 0.8249
677.000000 0.8224 0.8195 0.8166 0.8135 0.8103
682.000000 0.8072 0.8035 0.7953 0.7870 0.7787
687.000000 0.7517 0.7070 0.6726 0.6447 0.6235
692.000000 0.5885 0.5040 0.4195 0.3350 0.3243
697.000000 0.3234 0.3248 0.3242 0.3279 0.3369
702.000000 0.3424 0.3452 0.3469 0.3867 0.4707
707.000000 0.5548 0.6389 0.7230 0.7350 0.7366
712.000000 0.7375 0.7372 0.7362 0.7353 0.7329
717.000000 0.7008 0.6614 0.6220 0.5826 0.5432
722.000000 0.5038 0.4644 0.4250 0.3856 0.3462
727.000000 0.3116 0.3112 0.3122 0.3298 0.3752
732.000000 0.4205 0.4659 0.5112 0.5566 0.6019
737.000000 0.6473 0.6751 0.6828 0.7248 0.7276
742.000000 0.7294 0.7307 0.7318 0.7332 0.7352
747.000000 0.7404 0.7541 0.7690 0.7749 0.7807
752.000000 0.7856 0.7875 0.7895 0.7887 0.7887
757.000000 0.7881 0.7873 0.7853 0.7788 0.7712
762.000000 0.7636 0.7556 0.7357 0.7163 0.6741
767.000000 0.6319 0.5897 0.5474 0.5052 0.4630
772.000000 0.4208 0.3941 0.3935 0.3949 0.4295
777.000000 0.5393 0.6491 0.7596 0.7687 0.7723
782.000000 0.7739 0.7745 0.7750 0.7751 0.7762
787.000000 0.7743 0.7735 0.7727 0.7714 0.7701
792.000000 0.7658 0.7601 0.7547 0.7493 0.7423
797.000000 0.7335 0.7247 0.7055 0.6803 0.6550
802.000000 0.6298 0.6045 0.5793 0.5540 0.5288
807.000000 0.4633 0.3899 0.3166 0.2433 0.2024
812.000000 0.2008 0.2131 0.2628 0.3125 0.3622
817.000000 0.4119 0.4617 0.5114 0.5307 0.5330
822.000000 0.5185 0.4885 0.4586 0.4286 0.3987
827.000000 0.3687 0.3571 0.3569 0.3551 0.4119
832.000000 0.4804 0.5489 0.6174 0.6810 0.7025
837.000000 0.7098 0.7169 0.7240 0.7297 0.7353
842.000000 0.7409 0.7465 0.7518 0.7567 0.7617
847.000000 0.7667 0.7706 0.7744 0.7782 0.7820
852.000000 0.7858 0.7888 0.7914 0.7939 0.7964
857.000000 0.7990 0.8009 0.8026 0.8044 0.8062
862.000000 0.8079 0.8097 0.8112 0.8124 0.8135
867.000000 0.8146 0.8157 0.8168 0.8179 0.8187
872.000000 0.8196 0.8209 0.8235 0.8260 0.8286
877.000000 0.8312 0.8342 0.8371 0.8400 0.8402
882.000000 0.8405 0.8407 0.8409 0.8411 0.8413
887.000000 0.8414 0.8416 0.8418 0.8420 0.8421
892.000000 0.8418 0.8415 0.8412 0.8409 0.8407
897.000000 0.8405 0.8403 0.8402 0.8400 0.8399
902.000000 0.8398 0.8401 0.8404 0.8407 0.8410
907.000000 0.8413 0.8416 0.8420 0.8423 0.8432
912.000000 0.8440 0.8448 0.8456 0.8464 0.8470
917.000000 0.8476 0.8482 0.8488 0.8494 0.8500
922.000000 0.8497 0.8492 0.8488 0.8484 0.8480
927.000000 0.8476 0.8472 0.8468 0.8466 0.8463
932.000000 0.8461 0.8459 0.8466 0.8477 0.8489
937.000000 0.8495 0.8489 0.8484 0.8479 0.8474
942.000000 0.8470 0.8467 0.8464 0.8462 0.8459
947.000000 0.8456 0.8453 0.8450 0.8447 0.8444
952.000000 0.8442 0.8441 0.8439 0.8438 0.8436
957.000000 0.8434 0.8433 0.8431 0.8432 0.8438
962.000000 0.8444 0.8450 0.8456 0.8462 0.8468
967.000000 0.8470 0.8470 0.8467 0.8450 0.8434
972.000000 0.8420 0.8407 0.8397 0.8391 0.8434
977.000000 0.8379 0.8373 0.8367 0.8361 0.8355
982.000000 0.8349 0.8343 0.8338 0.8332 0.8327
987.000000 0.8321 0.8251 0.8157 0.8062 0.7968
992.000000 0.7911 0.7920 0.7922 0.7906 0.7988
997.000000 0.8074 0.8160 0.8246 0.8332 0.8353
1002.000000 0.8347 0.8339 0.8333 0.8329 0.8325
1007.000000 0.8320 0.8309 0.8297 0.8289 0.8283
1012.000000 0.8277 0.8270 0.8263 0.8254 0.8246
1017.000000 0.8237 0.8229 0.8220 0.8211 0.8203
1022.000000 0.8194 0.8185 0.8177 0.8168 0.8159
1027.000000 0.8152 0.8153 0.8154 0.8155 0.8156
1032.000000 0.8157 0.8153 0.8149 0.8144 0.8140
1037.000000 0.8122 0.8099 0.8077 0.8063 0.8049
1042.000000 0.8035 0.8021 0.8008 0.7993 0.7979
1047.000000 0.7965 0.7951 0.7937 0.7923 0.7909
1052.000000 0.7895 0.7880 0.7864 0.7847 0.7831
1057.000000 0.7815 0.7799 0.7796 0.7799 0.7802
1062.000000 0.7808 0.7831 0.7854 0.7879 0.7908
1067.000000 0.7901 0.7895 0.7888 0.7860 0.7826
1072.000000 0.7804 0.7793 0.7783 0.7773 0.7765
1077.000000 0.7757 0.7749 0.7741 0.7732 0.7719
1082.000000 0.7701 0.7682 0.7664 0.7639 0.7586
1087.000000 0.7495 0.7410 0.7358 0.7307 0.7255
1092.000000 0.7157 0.7020 0.6883 0.6743 0.6603
1097.000000 0.6359 0.6095 0.5831 0.5568 0.5304
1102.000000 0.5040 0.4776 0.4512 0.4248 0.3984
1107.000000 0.3816 0.3815 0.3810 0.4360 0.4837
1112.000000 0.5313 0.5790 0.6266 0.6370 0.6461
1117.000000 0.6533 0.6600 0.6773 0.6971 0.7103
1122.000000 0.7183 0.7218 0.7254 0.7321 0.7446
1127.000000 0.7801 0.7922 0.8014 0.8043 0.8056
1132.000000 0.8069 0.8075 0.8074 0.8073 0.8072
1137.000000 0.8069 0.8066 0.8084 0.8060 0.8057
1142.000000 0.8054 0.8053 0.8059 0.8066 0.8073
1147.000000 0.8080 0.8086 0.8095 0.8103 0.8112
1152.000000 0.8120 0.8128 0.8137 0.8146 0.8155
1157.000000 0.8163 0.8172 0.8181 0.8189 0.8197
1162.000000 0.8204 0.8211 0.8219 0.8226 0.8219
1167.000000 0.8242 0.8205 0.8196 0.8185 0.8174
1172.000000 0.8163 0.8152 0.8141 0.8127 0.8113
1177.000000 0.8100 0.8086 0.8072 0.8058 0.8049
1182.000000 0.8030 0.8037 0.8047 0.8057 0.8067
1187.000000 0.8082 0.8099 0.8116 0.8133 0.8152
1192.000000 0.8173 0.8194 0.8215 0.8236 0.8257
1197.000000 0.8278 0.8290 0.8303 0.8315 0.8327
1202.000000 0.8339 0.8348 0.8345 0.8342 0.8368
1207.000000 0.8337 0.8333 0.8329 0.8325 0.8321
1212.000000 0.8317 0.8313 0.8303 0.8292 0.8282
1217.000000 0.8271 0.8260 0.8250 0.8239 0.8227
1222.000000 0.8214 0.8201 0.8188 0.8175 0.8162
1227.000000 0.8146 0.8126 0.8106 0.8087 0.8043
1232.000000 0.7949 0.7836 0.7739 0.7653 0.7568
1237.000000 0.7403 0.7014 0.6533 0.6052 0.5572
1242.000000 0.5091 0.4926 0.4921 0.5503 0.5845
1247.000000 0.5874 0.6054 0.6384 0.6713 0.7165
1252.000000 0.7272 0.7333 0.7370 0.7408 0.7444
1257.000000 0.7476 0.7509 0.7543 0.7614 0.7686
1262.000000 0.7813 0.8025 0.8116 0.8165 0.8203
1267.000000 0.8227 0.8250 0.8274 0.8297 0.8309
1272.000000 0.8310 0.8312 0.8311 0.8309 0.8305
1277.000000 0.8302 0.8299 0.8297 0.8290 0.8278
1282.000000 0.8266 0.8254 0.8242 0.8230 0.8213
1287.000000 0.8177 0.8141 0.8105 0.8069 0.8007
1292.000000 0.7983 0.7980 0.7978 0.7987 0.7999
1297.000000 0.8012 0.8038 0.7942 0.7740 0.7538
1302.000000 0.7377 0.7385 0.7392 0.7393 0.7385
1307.000000 0.7373 0.7361 0.7345 0.7326 0.7307
1312.000000 0.7288 0.7307 0.7289 0.7309 0.7330
1317.000000 0.7357 0.7384 0.7411 0.7444 0.7479
1322.000000 0.7513 0.7548 0.7581 0.7615 0.7649
1327.000000 0.7681 0.7693 0.7706 0.7715 0.7721
1332.000000 0.7728 0.7768 0.7949 0.8022 0.8096
1337.000000 0.8179 0.8277 0.8304 0.8317 0.8324
1342.000000 0.8331 0.8338 0.8345 0.8353 0.8367
1347.000000 0.8387 0.8406 0.8411 0.8411 0.8429
1352.000000 0.8400 0.8395 0.8389 0.8379 0.8353
1357.000000 0.8318 0.8262 0.8200 0.8133 0.8067
1362.000000 0.7995 0.7920 0.7845 0.7741 0.7721
1367.000000 0.7700 0.7724 0.7732 0.7772 0.7818
1372.000000 0.7865 0.7924 0.7979 0.8032 0.8063
1377.000000 0.8073 0.8074 0.8096 0.8065 0.8059
1382.000000 0.8047 0.7984 0.7924 0.7866 0.7808
1387.000000 0.7740 0.7655 0.7570 0.7485 0.7365
1392.000000 0.7224 0.7083 0.6966 0.6851 0.6736
1397.000000 0.6618 0.6496 0.6373 0.6231 0.6088
1402.000000 0.5903 0.5859 0.5827 0.5814 0.5812
1407.000000 0.5865 0.6000 0.6135 0.6270 0.6323
1412.000000 0.6323 0.6304 0.6214 0.6128 0.6020
1417.000000 0.5849 0.5594 0.5373 0.4796 0.3863
1422.000000 0.2804 0.1745 0.0687 0.0613 0.0618
1427.000000 0.1542 0.2820 0.4098 0.5376 0.6270
1432.000000 0.6385 0.7151 0.7599 0.7716 0.7757
1437.000000 0.7799 0.7824 0.7840 0.7857 0.7858
1442.000000 0.7858 0.7858 0.7858 0.7859 0.7859
1447.000000 0.7859 0.7859 0.7882 0.7916 0.7953
1452.000000 0.7978 0.8000 0.8020 0.8033 0.8046
1457.000000 0.8059 0.8070 0.8081 0.8091 0.8098
1462.000000 0.8099 0.8097 0.8120 0.8093 0.8088
1467.000000 0.8084 0.8074 0.8065 0.8053 0.8035
1472.000000 0.7998 0.7952 0.7894 0.7823 0.7752
1477.000000 0.7690 0.7628 0.7325 0.6796 0.6268
1482.000000 0.5739 0.5210 0.5204 0.5248 0.6564
1487.000000 0.7881 0.8106 0.8161 0.8215 0.8258
1492.000000 0.8297 0.8317 0.8335 0.8351 0.8358
1497.000000 0.8350 0.8362 0.8362 0.8361 0.8359
1502.000000 0.8358 0.8356 0.8354 0.8352 0.8350
1507.000000 0.8344 0.8337 0.8330 0.8316 0.8304
1512.000000 0.8294 0.8284 0.8274 0.8272 0.8272
1517.000000 0.8272 0.8272 0.8271 0.8270 0.8270
1522.000000 0.8263 0.8251 0.8239 0.8225 0.8207
1527.000000 0.8190 0.8172 0.8155 0.8137 0.8123
1532.000000 0.8112 0.8100 0.8089 0.8078 0.8069
1537.000000 0.8059 0.8042 0.7999 0.7960 0.7921
1542.000000 0.7904 0.7897 0.7904 0.7894 0.7928
1547.000000 0.7943 0.7959 0.7974 0.7988 0.8002
1552.000000 0.8014 0.8023 0.8031 0.8055 0.8017
1557.000000 0.8005 0.7991 0.7974 0.7956 0.7948
1562.000000 0.7942 0.7946 0.7956 0.7966 0.7976
1567.000000 0.7986 0.7975 0.7965 0.7952 0.7929
1572.000000 0.7906 0.7879 0.7851 0.7806 0.7758
1577.000000 0.7709 0.7658 0.7607 0.7538 0.7466
1582.000000 0.7356 0.7232 0.7108 0.6993 0.7013
1587.000000 0.7033 0.7343 0.7653 0.7964 0.8274
1592.000000 0.8282 0.8282 0.8281 0.8286 0.8276
1597.000000 0.8272 0.8268 0.8265 0.8261 0.8256
1602.000000 0.8250 0.8245 0.8236 0.8227 0.8217
1607.000000 0.8211 0.8207 0.8204 0.8211 0.8162
1612.000000 0.8226 0.8236 0.8255 0.8277 0.8301
1617.000000 0.8324 0.8348 0.8371 0.8392 0.8411
1622.000000 0.8429 0.8411 0.8404 0.8396 0.8386
1627.000000 0.8376 0.8364 0.8352 0.8340 0.8316
1632.000000 0.8289 0.8259 0.8226 0.8193 0.8146
1637.000000 0.8115 0.8100 0.8096 0.8092 0.8088
1642.000000 0.8045 0.8103 0.8155 0.8198 0.8242
1647.000000 0.8286 0.8331 0.8376 0.8408 0.8439
1652.000000 0.8470 0.8470 0.8482 0.8471 0.8471
1657.000000 0.8471 0.8471 0.8472 0.8472 0.8477
1662.000000 0.8489 0.8504 0.8520 0.8537 0.8554
1667.000000 0.8568 0.8567 0.8567 0.8566 0.8565
1672.000000 0.8565 0.8566 0.8566 0.8566 0.8566
1677.000000 0.8569 0.8574 0.8579 0.8581 0.8579
1682.000000 0.8577 0.8574 0.8572 0.8565 0.8558
1687.000000 0.8552 0.8545 0.8538 0.8531 0.8525
1692.000000 0.8524 0.8523 0.8522 0.8531 0.8540
1697.000000 0.8550 0.8560 0.8569 0.8579 0.8588
1702.000000 0.8592 0.8597 0.8601 0.8602 0.8601
1707.000000 0.8600 0.8599 0.8597 0.8596 0.8595
1712.000000 0.8594 0.8594 0.8594 0.8594 0.8595
1717.000000 0.8595 0.8595 0.8595 0.8598 0.8603
1722.000000 0.8608 0.8613 0.8618 0.8623 0.8628
1727.000000 0.8633 0.8638 0.8643 0.8637 0.8630
1732.000000 0.8624 0.8617 0.8612 0.8608 0.8604
1737.000000 0.8600 0.8596 0.8602 0.8608 0.8614
1742.000000 0.8609 0.8600 0.8591 0.8581 0.8572
1747.000000 0.8551 0.8530 0.8504 0.8476 0.8448
1752.000000 0.8414 0.8376 0.8337 0.8308 0.8281
1757.000000 0.8254 0.8246 0.8262 0.8285 0.8301
1762.000000 0.8313 0.8326 0.8339 0.8351 0.8379
1767.000000 0.8399 0.8404 0.8408 0.8411 0.8414
1772.000000 0.8416 0.8419 0.8458 0.8520 0.8571
1777.000000 0.8595 0.8608 0.8604 0.8601 0.8601
1782.000000 0.8608 0.8667 0.8622 0.8622 0.8614
1787.000000 0.8603 0.8587 0.8570 0.8554 0.8534
1792.000000 0.8513 0.8492 0.8471 0.8450 0.8428
1797.000000 0.8404 0.8380 0.8356 0.8328 0.8296
1802.000000 0.8264 0.8231 0.8176 0.8085 0.8002
1807.000000 0.7924 0.7846 0.7767 0.7687 0.7595
1812.000000 0.7588 0.7573 0.7621 0.7675 0.7745
1817.000000 0.7816 0.7888 0.7958 0.8020 0.8083
1822.000000 0.8136 0.8187 0.8220 0.8247 0.8258
1827.000000 0.8266 0.8274 0.8295 0.8324 0.8354
1832.000000 0.8391 0.8428 0.8465 0.8507 0.8553
1837.000000 0.8578 0.8590 0.8592 0.8589 0.8586
1842.000000 0.8583 0.8581 0.8578 0.8576 0.8576
1847.000000 0.8575 0.8575 0.8634 0.8574 0.8574
1852.000000 0.8575 0.8576 0.8578 0.8579 0.8581
1857.000000 0.8582 0.8580 0.8570 0.8559 0.8549
1862.000000 0.8522 0.8466 0.8411 0.8361 0.8302
1867.000000 0.8233 0.8164 0.8083 0.8000 0.7908
1872.000000 0.7794 0.7598 0.7511 0.7486 0.7480
1877.000000 0.7479 0.7471 0.7604 0.7699 0.7785
1882.000000 0.7867 0.7889 0.7906 0.7896 0.7888
1887.000000 0.7834 0.7781 0.7711 0.7683 0.7674
1892.000000 0.7678 0.7693 0.7761 0.7890 0.8150
1897.000000 0.8290 0.8383 0.8479 0.8534 0.8564
1902.000000 0.8574 0.8584 0.8594 0.8600 0.8606
1907.000000 0.8610 0.8609 0.8608 0.8622 0.8607
1912.000000 0.8608 0.8612 0.8615 0.8618 0.8617
1917.000000 0.8613 0.8609 0.8605 0.8602 0.8588
1922.000000 0.8575 0.8562 0.8550 0.8538 0.8526
1927.000000 0.8512 0.8495 0.8478 0.8461 0.8446
1932.000000 0.8434 0.8421 0.8409 0.8396 0.8384
1937.000000 0.8361 0.8331 0.8260 0.8154 0.8051
1942.000000 0.7949 0.7847 0.7745 0.7643 0.7541
1947.000000 0.7439 0.7374 0.7352 0.7493 0.7759
1952.000000 0.7989 0.8029 0.8069 0.8123 0.8123
1957.000000 0.8124 0.8161 0.8091 0.8038 0.8017
1962.000000 0.8009 0.8011 0.8012 0.8072 0.8001
1967.000000 0.8292 0.8393 0.8494 0.8565 0.8587
1972.000000 0.8593 0.8599 0.8605 0.8612 0.8607
1977.000000 0.8626 0.8633 0.8640 0.8647 0.8652
1982.000000 0.8658 0.8663 0.8668 0.8674 0.8680
1987.000000 0.8686 0.8692 0.8698 0.8701 0.8704
1992.000000 0.8702 0.8696 0.8690 0.8685 0.8685
1997.000000 0.8687 0.8689 0.8692 0.8695 0.8698
2002.000000 0.8702 0.8702 0.8703 0.8701 0.8700
2007.000000 0.8698 0.8697 0.8695 0.8694 0.8692
2012.000000 0.8691 0.8688 0.8686 0.8683 0.8681
2017.000000 0.8678 0.8675 0.8672 0.8670 0.8669
2022.000000 0.8669 0.8669 0.8669 0.8669 0.8669
2027.000000 0.8669 0.8669 0.8670 0.8671 0.8672
2032.000000 0.8674 0.8675 0.8677 0.8678 0.8680
2037.000000 0.8681 0.8683 0.8684 0.8686 0.8686
2042.000000 0.8686 0.8686 0.8686 0.8686 0.8687
2047.000000 0.8687 0.8687 0.8687 0.8687 0.8687
2052.000000 0.8687 0.8687 0.8688 0.8688 0.8688
2057.000000 0.8688 0.8688 0.8687 0.8687 0.8686
2062.000000 0.8686 0.8686 0.8686 0.8685 0.8685
2067.000000 0.8685 0.8685 0.8684 0.8684 0.8683
2072.000000 0.8683 0.8683 0.8683 0.8683 0.8683
2077.000000 0.8683 0.8683 0.8683 0.8683 0.8683
2082.000000 0.8683 0.8683 0.8684 0.8684 0.8684
2087.000000 0.8684 0.8684 0.8684 0.8684 0.8684
2092.000000 0.8684 0.8684 0.8685 0.8685 0.8685
2097.000000 0.8684 0.8684 0.8684 0.8684 0.8684
2102.000000 0.8684 0.8684 0.8684 0.8684 0.8684
2107.000000 0.8683 0.8683 0.8683 0.8683 0.8683
2112.000000 0.8683 0.8683 0.8683 0.8683 0.8683
2117.000000 0.8682 0.8682 0.8682 0.8682 0.8682
2122.000000 0.8682 0.8682 0.8682 0.8681 0.8681
2127.000000 0.8681 0.8681 0.8681 0.8681 0.8680
2132.000000 0.8680 0.8680 0.8680 0.8679 0.8679
2137.000000 0.8679 0.8679 0.8679 0.8679 0.8678
2142.000000 0.8678 0.8678 0.8678 0.8677 0.8677
2147.000000 0.8677 0.8677 0.8676 0.8676 0.8675
2152.000000 0.8675 0.8675 0.8675 0.8674 0.8674
2157.000000 0.8673 0.8673 0.8673 0.8673 0.8672
2162.000000 0.8672 0.8671 0.8671 0.8670 0.8670
2167.000000 0.8670 0.8670 0.8669 0.8669 0.8668
2172.000000 0.8668 0.8667 0.8667 0.8666 0.8666
2177.000000 0.8666 0.8666 0.8665 0.8665 0.8664
2182.000000 0.8664 0.8664 0.8664 0.8663 0.8663
2187.000000 0.8662 0.8662 0.8662 0.8662 0.8661
2192.000000 0.8661 0.8660 0.8660 0.8660 0.8660
2197.000000 0.8659 0.8659 0.8658 0.8658 0.8658
2202.000000 0.8658 0.8657 0.8657 0.8656 0.8656
2207.000000 0.8655 0.8654 0.8653 0.8652 0.8651
2212.000000 0.8650 0.8649 0.8648 0.8647 0.8646
2217.000000 0.8645 0.8644 0.8643 0.8642 0.8641
2222.000000 0.8640 0.8639 0.8638 0.8637 0.8637
2227.000000 0.8636 0.8635 0.8634 0.8634 0.8633
2232.000000 0.8632 0.8631 0.8630 0.8630 0.8630
2237.000000 0.8630 0.8630 0.8630 0.8630 0.8630
2242.000000 0.8631 0.8631 0.8631 0.8631 0.8631
2247.000000 0.8631 0.8631 0.8631 0.8631 0.8631
2252.000000 0.8631 0.8631 0.8631 0.8631 0.8631
2257.000000 0.8630 0.8630 0.8630 0.8630 0.8630
2262.000000 0.8630 0.8630 0.8630 0.8629 0.8629
2267.000000 0.8628 0.8628 0.8627 0.8626 0.8625
2272.000000 0.8625 0.8624 0.8623 0.8622 0.8622
2277.000000 0.8621 0.8620 0.8619 0.8619 0.8618
2282.000000 0.8617 0.8616 0.8616 0.8615 0.8614
2287.000000 0.8613 0.8613 0.8613 0.8614 0.8614
2292.000000 0.8614 0.8614 0.8614 0.8614 0.8614
2297.000000 0.8614 0.8615 0.8615 0.8615 0.8615
2302.000000 0.8615 0.8615 0.8615 0.8615 0.8616
2307.000000 0.8616 0.8616 0.8619 0.8622 0.8626
2312.000000 0.8630 0.8634 0.8638 0.8641 0.8645
2317.000000 0.8649 0.8653 0.8656 0.8659 0.8660
2322.000000 0.8662 0.8663 0.8665 0.8666 0.8667
2327.000000 0.8668 0.8670 0.8671 0.8673 0.8674
2332.000000 0.8675 0.8677 0.8680 0.8683 0.8686
2337.000000 0.8688 0.8691 0.8694 0.8697 0.8699
2342.000000 0.8702 0.8704 0.8707 0.8710 0.8713
2347.000000 0.8717 0.8721 0.8725 0.8729 0.8732
2352.000000 0.8736 0.8731 0.8726 0.8718 0.8711
2357.000000 0.8705 0.8700 0.8695 0.8691 0.8686
2362.000000 0.8681 0.8677 0.8674 0.8672 0.8671
2367.000000 0.8669 0.8667 0.8665 0.8664 0.8662
2372.000000 0.8661 0.8659 0.8658 0.8656 0.8655
2377.000000 0.8654 0.8654 0.8654 0.8654 0.8653
2382.000000 0.8653 0.8653 0.8653 0.8653 0.8653
2387.000000 0.8652 0.8652 0.8652 0.8652 0.8652
2392.000000 0.8652 0.8651 0.8651 0.8650 0.8650
2397.000000 0.8650 0.8650 0.8649 0.8649 0.8648
2402.000000 0.8648 0.8647 0.8647 0.8647 0.8647
2407.000000 0.8646 0.8645 0.8644 0.8643 0.8642
2412.000000 0.8641 0.8640 0.8639 0.8638 0.8637
2417.000000 0.8636 0.8635 0.8634 0.8633 0.8631
2422.000000 0.8630 0.8629 0.8628 0.8627 0.8626
2427.000000 0.8625 0.8624 0.8623 0.8622 0.8621
2432.000000 0.8620 0.8618 0.8617 0.8615 0.8614
2437.000000 0.8612 0.8611 0.8610 0.8609 0.8607
2442.000000 0.8606 0.8604 0.8603 0.8601 0.8600
2447.000000 0.8598 0.8597 0.8595 0.8594 0.8592
2452.000000 0.8591 0.8589 0.8588 0.8586 0.8585
2457.000000 0.8584 0.8583 0.8581 0.8579 0.8576
2462.000000 0.8573 0.8570 0.8568 0.8565 0.8562
2467.000000 0.8559 0.8557 0.8554 0.8551 0.8548
2472.000000 0.8546 0.8544 0.8542 0.8543 0.8544
2477.000000 0.8545 0.8547 0.8548 0.8550 0.8551
2482.000000 0.8553 0.8554 0.8556 0.8558 0.8561
2487.000000 0.8565 0.8569 0.8573 0.8578 0.8582
2492.000000 0.8587 0.8589 0.8591 0.8592 0.8594
2497.000000 0.8595 0.8596 0.8597 0.8599 0.8599
2502.000000 0.8599 0.8597 0.8596 0.8594 0.8592
2507.000000 0.8590 0.8588 0.8590 0.8593 0.8597
2512.000000 0.8601 0.8600 0.8599 0.8597 0.8595
2517.000000 0.8593 0.8591 0.8588 0.8586 0.8584
2522.000000 0.8582 0.8580 0.8578 0.8576 0.8574
2527.000000 0.8572 0.8570 0.8568 0.8566 0.8564
2532.000000 0.8562 0.8560 0.8558 0.8555 0.8553
2537.000000 0.8551 0.8549 0.8547 0.8545 0.8543
2542.000000 0.8541 0.8539 0.8537 0.8534 0.8532
2547.000000 0.8530 0.8528 0.8526 0.8524 0.8522
2552.000000 0.8520 0.8518 0.8516 0.8515 0.8514
2557.000000 0.8514 0.8515 0.8516 0.8517 0.8518
2562.000000 0.8519 0.8519 0.8520 0.8521 0.8522
2567.000000 0.8523 0.8524 0.8525 0.8526 0.8527
2572.000000 0.8528 0.8529 0.8531 0.8532 0.8534
2577.000000 0.8527 0.8520 0.8511 0.8503 0.8494
2582.000000 0.8486 0.8484 0.8482 0.8481 0.8481
2587.000000 0.8481 0.8481 0.8480 0.8480 0.8480
2592.000000 0.8480 0.8480 0.8481 0.8481 0.8482
2597.000000 0.8482 0.8483 0.8483 0.8484 0.8485
2602.000000 0.8487 0.8488 0.8490 0.8492 0.8495
2607.000000 0.8497 0.8500 0.8502 0.8505 0.8507
2612.000000 0.8510 0.8512 0.8515 0.8520 0.8525
2617.000000 0.8531 0.8538 0.8540 0.8542 0.8541
2622.000000 0.8541 0.8540 0.8540 0.8539 0.8538
2627.000000 0.8537 0.8537 0.8536 0.8535 0.8534
2632.000000 0.8534 0.8533 0.8532 0.8531 0.8531
2637.000000 0.8530 0.8529 0.8528 0.8527 0.8526
2642.000000 0.8526 0.8525 0.8524 0.8523 0.8523
2647.000000 0.8522 0.8521 0.8520 0.8520 0.8519
2652.000000 0.8518 0.8516 0.8515 0.8513 0.8511
2657.000000 0.8508 0.8506 0.8503 0.8501 0.8498
2662.000000 0.8496 0.8493 0.8491 0.8488 0.8486
2667.000000 0.8483 0.8481 0.8477 0.8474 0.8468
2672.000000 0.8462 0.8456 0.8450 0.8444 0.8438
2677.000000 0.8433 0.8429 0.8425 0.8421 0.8417
2682.000000 0.8414 0.8410 0.8407 0.8403 0.8399
2687.000000 0.8395 0.8392 0.8389 0.8386 0.8387
2692.000000 0.8389 0.8392 0.8395 0.8399 0.8403
2697.000000 0.8409 0.8415 0.8423 0.8431 0.8442
2702.000000 0.8453 0.8465 0.8477 0.8483 0.8489
2707.000000 0.8494 0.8499 0.8502 0.8506 0.8507
2712.000000 0.8509 0.8510 0.8511 0.8512 0.8514
2717.000000 0.8515 0.8516 0.8516 0.8517 0.8516
2722.000000 0.8515 0.8514 0.8514 0.8513 0.8513
2727.000000 0.8512 0.8512 0.8511 0.8510 0.8508
2732.000000 0.8506 0.8504 0.8502 0.8500 0.8498
2737.000000 0.8496 0.8495 0.8493 0.8491 0.8489
2742.000000 0.8487 0.8485 0.8483 0.8480 0.8478
2747.000000 0.8475 0.8473 0.8470 0.8468 0.8465
2752.000000 0.8463 0.8459 0.8456 0.8453 0.8450
2757.000000 0.8446 0.8443 0.8439 0.8436 0.8432
2762.000000 0.8429 0.8426 0.8423 0.8419 0.8416
2767.000000 0.8412 0.8409 0.8405 0.8402 0.8398
2772.000000 0.8394 0.8390 0.8386 0.8382 0.8378
2777.000000 0.8373 0.8369 0.8362 0.8356 0.8350
2782.000000 0.8344 0.8338 0.8332 0.8326 0.8321
2787.000000 0.8315 0.8310 0.8305 0.8300 0.8294
2792.000000 0.8289 0.8284 0.8279 0.8273 0.8268
2797.000000 0.8269 0.8271 0.8274 0.8278 0.8281
2802.000000 0.8284 0.8287 0.8290 0.8289 0.8288
2807.000000 0.8280 0.8272 0.8263 0.8254 0.8248
2812.000000 0.8242 0.8243 0.8245 0.8246 0.8247
2817.000000 0.8248 0.8250 0.8251 0.8253 0.8255
2822.000000 0.8284 0.8264 0.8270 0.8276 0.8282
2827.000000 0.8287 0.8292 0.8285 0.8279 0.8272
2832.000000 0.8266 0.8260 0.8254 0.8248 0.8242
2837.000000 0.8236 0.8230 0.8224 0.8218 0.8212
2842.000000 0.8206 0.8200 0.8195 0.8192 0.8189
2847.000000 0.8185 0.8182 0.8179 0.8176 0.8172
2852.000000 0.8169 0.8166 0.8163 0.8159 0.8155
2857.000000 0.8151 0.8148 0.8144 0.8140 0.8136
2862.000000 0.8133 0.8122 0.8111 0.8097 0.8083
2867.000000 0.8068 0.8054 0.8040 0.8026 0.8010
2872.000000 0.7995 0.7967 0.7940 0.7912 0.7885
2877.000000 0.7851 0.7817 0.7780 0.7743 0.7712
2882.000000 0.7681 0.7655 0.7629 0.7602 0.7576
2887.000000 0.7550 0.7524 0.7490 0.7456 0.7419
2892.000000 0.7382 0.7135 0.6889 0.6868 0.6848
2897.000000 0.6844 0.6844 0.6849 0.6858 0.6898
2902.000000 0.6939 0.6984 0.7030 0.7075 0.7121
2907.000000 0.7166 0.7212 0.7257 0.7303 0.7348
2912.000000 0.7393 0.7445 0.7498 0.7512 0.7526
2917.000000 0.7534 0.7542 0.7549 0.7556 0.7555
2922.000000 0.7554 0.7552 0.7553 0.7549 0.7548
2927.000000 0.7545 0.7542 0.7537 0.7532 0.7522
2932.000000 0.7513 0.7500 0.7487 0.7465 0.7444
2937.000000 0.7414 0.7384 0.7345 0.7306 0.7247
2942.000000 0.7188 0.7021 0.6855 0.6600 0.6346
2947.000000 0.6051 0.5756 0.5461 0.5166 0.4871
2952.000000 0.4576 0.4281 0.3986 0.3691 0.3396
2957.000000 0.3274 0.3153 0.3152 0.3181 0.3277
2962.000000 0.3402 0.3597 0.3792 0.3987 0.4182
2967.000000 0.4377 0.4572 0.4767 0.4962 0.5157
2972.000000 0.5352 0.5547 0.5742 0.5937 0.6132
2977.000000 0.6327 0.6522 0.6710 0.6899 0.6898
2982.000000 0.6897 0.6896 0.6895 0.6860 0.6900
2987.000000 0.6692 0.6559 0.6425 0.6292 0.6159
2992.000000 0.6026 0.5892 0.5759 0.5625 0.5492
2997.000000 0.5358 0.5225 0.5092 0.4959 0.4849
3002.000000 0.4739 0.4697 0.4656 0.4621 0.4586
3007.000000 0.4566 0.4546 0.4526 0.4506 0.4495
3012.000000 0.4485 0.4477 0.4470 0.4467 0.4464
3017.000000 0.4462 0.4460 0.4454 0.4448 0.4415
3022.000000 0.4382 0.4364 0.4346 0.4343 0.4332
3027.000000 0.4409 0.4478 0.4740 0.5003 0.5265
3032.000000 0.5528 0.5717 0.5921 0.5904 0.5903
3037.000000 0.5897 0.5891 0.5753 0.5616 0.5435
3042.000000 0.5255 0.5074 0.4894 0.4713 0.4533
3047.000000 0.4352 0.4172 0.3991 0.3811 0.3630
3052.000000 0.3450 0.3368 0.3287 0.3389 0.3279
3057.000000 0.3638 0.3784 0.3930 0.4076 0.4119
3062.000000 0.4155 0.4156 0.4149 0.3923 0.3698
3067.000000 0.3472 0.3247 0.3021 0.2796 0.2570
3072.000000 0.2345 0.2214 0.2083 0.2081 0.2070
3077.000000 0.3127 0.4175 0.5156 0.6138 0.6137
3082.000000 0.6136 0.6135 0.6135 0.6075 0.6015
3087.000000 0.5940 0.5866 0.5824 0.5783 0.5857
3092.000000 0.5932 0.6151 0.6370 0.6589 0.6808
3097.000000 0.7027 0.7246 0.7465 0.7684 0.7812
3102.000000 0.7940 0.7989 0.8039 0.8045 0.8052
3107.000000 0.8058 0.8064 0.8067 0.8071 0.8072
3112.000000 0.8073 0.8074 0.8075 0.8076 0.8077
3117.000000 0.8077 0.8078 0.8077 0.8082 0.8076
3122.000000 0.8075 0.8056 0.8038 0.7991 0.7945
3127.000000 0.7899 0.7853 0.7806 0.7760 0.7714
3132.000000 0.7668 0.7638 0.7609 0.7610 0.7612
3137.000000 0.7622 0.7633 0.7716 0.7605 0.7891
3142.000000 0.7982 0.8072 0.8163 0.8205 0.8248
3147.000000 0.8257 0.8266 0.8275 0.8284 0.8291
3152.000000 0.8298 0.8300 0.8303 0.8305 0.8308
3157.000000 0.8307 0.8307 0.8305 0.8304 0.8302
3162.000000 0.8301 0.8299 0.8298 0.8297 0.8296
3167.000000 0.8296 0.8297 0.8298 0.8299 0.8300
3172.000000 0.8315 0.8302 0.8303 0.8306 0.8310
3177.000000 0.8314 0.8319 0.8324 0.8329 0.8333
3182.000000 0.8338 0.8343 0.8348 0.8352 0.8356
3187.000000 0.8360 0.8364 0.8368 0.8373 0.8377
3192.000000 0.8381 0.8385 0.8389 0.8393 0.8397
3197.000000 0.8401 0.8405 0.8408 0.8412 0.8416
3202.000000 0.8420 0.8423 0.8427 0.8430 0.8434
3207.000000 0.8437 0.8441 0.8444 0.8448 0.8451
3212.000000 0.8455 0.8462 0.8469 0.8473 0.8478
3217.000000 0.8481 0.8485 0.8489 0.8493 0.8496
3222.000000 0.8500 0.8503 0.8506 0.8507 0.8508
3227.000000 0.8509 0.8511 0.8512 0.8513 0.8514
3232.000000 0.8516 0.8517 0.8519 0.8520 0.8521
3237.000000 0.8522 0.8524 0.8525 0.8526 0.8526
3242.000000 0.8527 0.8527 0.8528 0.8528 0.8528
3247.000000 0.8528 0.8529 0.8529 0.8530 0.8530
3252.000000 0.8530 0.8530 0.8531 0.8531 0.8532
3257.000000 0.8532 0.8532 0.8532 0.8532 0.8532
3262.000000 0.8532 0.8532 0.8532 0.8532 0.8532
3267.000000 0.8531 0.8531 0.8531 0.8531 0.8531
3272.000000 0.8531 0.8531 0.8531 0.8530 0.8530
3277.000000 0.8530 0.8530 0.8530 0.8530 0.8530
3282.000000 0.8530 0.8529 0.8529 0.8529 0.8529
3287.000000 0.8529 0.8529 0.8529 0.8529 0.8528
3292.000000 0.8528 0.8528 0.8528 0.8528 0.8528
3297.000000 0.8528 0.8528 0.8527 0.8527 0.8527
3302.000000 0.8527 0.8527 0.8527 0.8527 0.8527
3307.000000 0.8526 0.8526 0.8526 0.8526 0.8526
3312.000000 0.8526 0.8526 0.8526 0.8525 0.8525
3317.000000 0.8525 0.8525 0.8525 0.8525 0.8525
3322.000000 0.8525 0.8525 0.8526 0.8526 0.8527
3327.000000 0.8527 0.8527 0.8527 0.8528 0.8528
3332.000000 0.8529 0.8529 0.8529 0.8529 0.8530
3337.000000 0.8530 0.8531 0.8531 0.8532 0.8532
3342.000000 0.8532 0.8532 0.8533 0.8533 0.8534
3347.000000 0.8534 0.8534 0.8534 0.8535 0.8535
3352.000000 0.8536 0.8536 0.8536 0.8536 0.8537
3357.000000 0.8537 0.8538 0.8538 0.8538 0.8538
3362.000000 0.8539 0.8539 0.8540 0.8540 0.8540
3367.000000 0.8540 0.8541 0.8541 0.8542 0.8542
3372.000000 0.8542 0.8542 0.8543 0.8543 0.8544
3377.000000 0.8544 0.8544 0.8544 0.8545 0.8545
3382.000000 0.8545 0.8545 0.8546 0.8546 0.8547
3387.000000 0.8547 0.8547 0.8547 0.8548 0.8549
3392.000000 0.8550 0.8550 0.8551 0.8552 0.8553
3397.000000 0.8553 0.8554 0.8554 0.8555 0.8556
3402.000000 0.8557 0.8557 0.8558 0.8559 0.8560
3407.000000 0.8560 0.8561 0.8562 0.8563 0.8563
3412.000000 0.8564 0.8564 0.8565 0.8566 0.8567
3417.000000 0.8567 0.8568 0.8569 0.8570 0.8570
3422.000000 0.8571 0.8572 0.8573 0.8574 0.8575
3427.000000 0.8576 0.8577 0.8577 0.8578 0.8579
3432.000000 0.8580 0.8581 0.8582 0.8582 0.8583
3437.000000 0.8584 0.8585 0.8586 0.8587 0.8588
3442.000000 0.8589 0.8589 0.8590 0.8591 0.8592
3447.000000 0.8593 0.8594 0.8595 0.8596 0.8596
3452.000000 0.8597 0.8598 0.8599 0.8600 0.8601
3457.000000 0.8601 0.8602 0.8603 0.8604 0.8605
3462.000000 0.8606 0.8608 0.8610 0.8611 0.8613
3467.000000 0.8614 0.8616 0.8617 0.8619 0.8621
3472.000000 0.8623 0.8624 0.8626 0.8627 0.8629
3477.000000 0.8631 0.8633 0.8634 0.8636 0.8637
3482.000000 0.8639 0.8640 0.8642 0.8644 0.8646
3487.000000 0.8647 0.8649 0.8650 0.8652 0.8653
3492.000000 0.8655 0.8657 0.8659 0.8660 0.8662
3497.000000 0.8662 0.8663 0.8663 0.8664 0.8664
3502.000000 0.8665 0.8665 0.8666 0.8666 0.8667
3507.000000 0.8667 0.8668 0.8668 0.8669 0.8670
3512.000000 0.8671 0.8671 0.8672 0.8672 0.8673
3517.000000 0.8673 0.8674 0.8674 0.8675 0.8675
3522.000000 0.8676 0.8676 0.8677 0.8677 0.8678
3527.000000 0.8678 0.8679 0.8680 0.8681 0.8681
3532.000000 0.8682 0.8683 0.8684 0.8684 0.8685
3537.000000 0.8686 0.8687 0.8687 0.8688 0.8689
3542.000000 0.8690 0.8690 0.8691 0.8692 0.8693
3547.000000 0.8693 0.8694 0.8695 0.8696 0.8696
3552.000000 0.8697 0.8698 0.8699 0.8699 0.8700
3557.000000 0.8701 0.8703 0.8704 0.8705 0.8706
3562.000000 0.8708 0.8709 0.8710 0.8711 0.8713
3567.000000 0.8714 0.8715 0.8716 0.8718 0.8719
3572.000000 0.8720 0.8726 0.8732 0.8741 0.8751
3577.000000 0.8763 0.8775 0.8787 0.8799 0.8811
3582.000000 0.8823 0.8821 0.8820 0.8819 0.8818
3587.000000 0.8813 0.8808 0.8794 0.8780 0.8759
3592.000000 0.8738 0.8724 0.8711 0.8700 0.8690
3597.000000 0.8684 0.8678 0.8677 0.8677 0.8676
3602.000000 0.8676 0.8676 0.8676 0.8674 0.8672
3607.000000 0.8668 0.8665 0.8662 0.8659 0.8657
3612.000000 0.8655 0.8654 0.8653 0.8652 0.8651
3617.000000 0.8650 0.8649 0.8647 0.8646 0.8645
3622.000000 0.8644 0.8643 0.8643 0.8643 0.8643
3627.000000 0.8643 0.8643 0.8643 0.8643 0.8642
3632.000000 0.8642 0.8642 0.8642 0.8642 0.8642
3637.000000 0.8643 0.8644 0.8649 0.8655 0.8660
3642.000000 0.8666 0.8671 0.8677 0.8682 0.8687
3647.000000 0.8683 0.8679 0.8675 0.8671 0.8667
3652.000000 0.8664 0.8661 0.8658 0.8655 0.8652
3657.000000 0.8649 0.8646 0.8643 0.8641 0.8643
3662.000000 0.8646 0.8648 0.8650 0.8652 0.8655
3667.000000 0.8657 0.8660 0.8659 0.8659 0.8658
3672.000000 0.8657 0.8653 0.8649 0.8644 0.8640
3677.000000 0.8635 0.8630 0.8626 0.8623 0.8621
3682.000000 0.8620 0.8618 0.8617 0.8616 0.8615
3687.000000 0.8613 0.8612 0.8611 0.8610 0.8611
3692.000000 0.8612 0.8613 0.8614 0.8615 0.8616
3697.000000 0.8616 0.8617 0.8618 0.8619 0.8620
3702.000000 0.8621 0.8622 0.8623 0.8624 0.8625
3707.000000 0.8626 0.8627 0.8629 0.8631 0.8634
3712.000000 0.8637 0.8640 0.8643 0.8646 0.8649
3717.000000 0.8652 0.8655 0.8657 0.8660 0.8663
3722.000000 0.8666 0.8669 0.8672 0.8675 0.8678
3727.000000 0.8681 0.8684 0.8688 0.8693 0.8699
3732.000000 0.8706 0.8712 0.8719 0.8725 0.8731
3737.000000 0.8737 0.8744 0.8750 0.8757 0.8764
3742.000000 0.8772 0.8779 0.8787 0.8794 0.8802
3747.000000 0.8807 0.8812 0.8810 0.8808 0.8806
3752.000000 0.8805 0.8803 0.8801 0.8798 0.8796
3757.000000 0.8792 0.8788 0.8784 0.8780 0.8780
3762.000000 0.8781 0.8781 0.8781 0.8781 0.8781
3767.000000 0.8783 0.8786 0.8789 0.8793 0.8792
3772.000000 0.8791 0.8790 0.8789 0.8788 0.8787
3777.000000 0.8786 0.8786 0.8785 0.8785 0.8785
3782.000000 0.8785 0.8784 0.8784 0.8784 0.8784
3787.000000 0.8786 0.8788 0.8791 0.8795 0.8798
3792.000000 0.8802 0.8805 0.8809 0.8812 0.8816
3797.000000 0.8822 0.8828 0.8835 0.8843 0.8851
3802.000000 0.8860 0.8868 0.8877 0.8885 0.8894
3807.000000 0.8903 0.8912 0.8917 0.8922
##END=
