##TITLE=Butanol, 2,2-bis(hydroxymethyl)-
##JCAMP-DX=4.24
$$ By DXEDIT 1.05 (RS McDonald)
##DATA TYPE=INFRARED SPECTRUM
##CLASS=COBLENTZ III
##ORIGIN=DOW CHEMICAL COMPANY
##OWNER=COPYRIGHT (C) 1988 by COBLENTZ SOCIETY INC.
Collection (C) 2018 copyright by the U.S. Secretary of Commerce
on behalf of the United States of America. All rights reserved.
##DATE=1970/01/16
##CAS NAME=1,1,1-Trimethylol propane
##NAMES=2-ethyl-2-(hydroxymethyl)-1,3-propanediol
##CAS REGISTRY NO=77-99-6
##MOLFORM=C6 H14 O3
##SOURCE REFERENCE=COBLENTZ NO. 09520
##$NIST SOURCE=COBLENTZ
##$NIST IMAGE=cob9520
##SPECTROMETER/DATA SYSTEM=DOW KBr FOREPRISM-GRATING
##INSTRUMENT PARAMETERS=BLAZED AT 3.5, 12.0, 20.0 MICRON AND CHANGED AT 5.0, 7.5, 14.9 MICRON
##STATE=SOLID (NEAT)
##PATH LENGTH=SMEAR ON KBr
$$ SEE SPECTRUM NO. 1119 FOR "MULL" RUN
##SAMPLING PROCEDURE=TRANSMISSION
##RESOLUTION=2
##DATA PROCESSING=DIGITIZED BY COBLENTZ SOCIETY (BATCH I) FROM HARD COPY
##XUNITS=1/CM
##YUNITS=TRANSMITTANCE
##XFACTOR=1
##YFACTOR=1
##DELTAX=1
##FIRSTX=3794
##LASTX=393
##FIRSTY=0.6796
##MAXX=3794
##MINX=393
##MAXY=0.9303
##MINY=0.053
##NPOINTS=3402
##XYDATA=(X++(Y..Y))
3794.000000 0.6796 0.6796 0.6797 0.6797 0.6798
3789.000000 0.6799 0.6800 0.6800 0.6801 0.6801
3784.000000 0.6801 0.6803 0.6804 0.6804 0.6805
3779.000000 0.6805 0.6806 0.6807 0.6808 0.6808
3774.000000 0.6808 0.6810 0.6811 0.6811 0.6811
3769.000000 0.6811 0.6812 0.6814 0.6815 0.6815
3764.000000 0.6815 0.6815 0.6817 0.6817 0.6818
3759.000000 0.6818 0.6818 0.6818 0.6819 0.6819
3754.000000 0.6821 0.6821 0.6821 0.6821 0.6821
3749.000000 0.6821 0.6822 0.6824 0.6825 0.6825
3744.000000 0.6826 0.6828 0.6830 0.6831 0.6833
3739.000000 0.6834 0.6836 0.6837 0.6839 0.6840
3734.000000 0.6841 0.6842 0.6844 0.6845 0.6847
3729.000000 0.6848 0.6850 0.6851 0.6851 0.6853
3724.000000 0.6855 0.6856 0.6858 0.6858 0.6861
3719.000000 0.6861 0.6864 0.6865 0.6865 0.6867
3714.000000 0.6868 0.6869 0.6871 0.6872 0.6875
3709.000000 0.6875 0.6878 0.6878 0.6880 0.6881
3704.000000 0.6883 0.6884 0.6886 0.6887 0.6884
3699.000000 0.6890 0.6892 0.6893 0.6895 0.6896
3694.000000 0.6897 0.6898 0.6900 0.6901 0.6903
3689.000000 0.6904 0.6906 0.6907 0.6908 0.6908
3684.000000 0.6911 0.6911 0.6914 0.6915 0.6915
3679.000000 0.6917 0.6918 0.6919 0.6921 0.6922
3674.000000 0.6925 0.6925 0.6926 0.6928 0.6930
3669.000000 0.6931 0.6933 0.6934 0.6936 0.6937
3664.000000 0.6939 0.6940 0.6941 0.6942 0.6944
3659.000000 0.6945 0.6947 0.6948 0.6950 0.6951
3654.000000 0.6953 0.6954 0.6956 0.6957 0.6958
3649.000000 0.6960 0.6961 0.6961 0.6964 0.6965
3644.000000 0.6967 0.6968 0.6968 0.6969 0.6971
3639.000000 0.6971 0.6972 0.6974 0.6975 0.6975
3634.000000 0.6976 0.6978 0.6978 0.6980 0.6982
3629.000000 0.6983 0.6984 0.6985 0.6986 0.6987
3624.000000 0.6988 0.6988 0.6989 0.6989 0.6989
3619.000000 0.6989 0.6990 0.6990 0.6990 0.6990
3614.000000 0.6991 0.6991 0.6991 0.6991 0.6992
3609.000000 0.6992 0.6992 0.6992 0.6993 0.6993
3604.000000 0.6993 0.6993 0.6993 0.6993 0.6993
3599.000000 0.6992 0.6992 0.6992 0.6992 0.6991
3594.000000 0.6991 0.6991 0.6991 0.6990 0.6990
3589.000000 0.6990 0.6990 0.6989 0.6989 0.6988
3584.000000 0.6988 0.6987 0.6986 0.6984 0.6983
3579.000000 0.6982 0.6981 0.6978 0.6978 0.6975
3574.000000 0.6975 0.6972 0.6971 0.6969 0.6968
3569.000000 0.6967 0.6965 0.6961 0.6958 0.6955
3564.000000 0.6951 0.6946 0.6942 0.6938 0.6934
3559.000000 0.6928 0.6925 0.6919 0.6915 0.6910
3554.000000 0.6905 0.6899 0.6894 0.6888 0.6883
3549.000000 0.6875 0.6868 0.6860 0.6851 0.6843
3544.000000 0.6835 0.6825 0.6818 0.6808 0.6801
3539.000000 0.6792 0.6784 0.6774 0.6765 0.6754
3534.000000 0.6743 0.6732 0.6721 0.6708 0.6698
3529.000000 0.6688 0.6678 0.6667 0.6657 0.6647
3524.000000 0.6637 0.6626 0.6617 0.6607 0.6597
3519.000000 0.6587 0.6576 0.6565 0.6554 0.6539
3514.000000 0.6524 0.6508 0.6494 0.6478 0.6464
3509.000000 0.6449 0.6434 0.6418 0.6403 0.6388
3504.000000 0.6373 0.6356 0.6340 0.6323 0.6306
3499.000000 0.6289 0.6272 0.6255 0.6238 0.6220
3494.000000 0.6202 0.6183 0.6164 0.6145 0.6127
3489.000000 0.6108 0.6089 0.6070 0.6051 0.6032
3484.000000 0.6012 0.5986 0.5960 0.5930 0.5901
3479.000000 0.5871 0.5841 0.5810 0.5782 0.5754
3474.000000 0.5726 0.5697 0.5669 0.5640 0.5612
3469.000000 0.5583 0.5555 0.5526 0.5498 0.5468
3464.000000 0.5439 0.5409 0.5379 0.5349 0.5319
3459.000000 0.5289 0.5259 0.5227 0.5195 0.5160
3454.000000 0.5128 0.5094 0.5060 0.5027 0.4994
3449.000000 0.4960 0.4927 0.4893 0.4860 0.4827
3444.000000 0.4794 0.4760 0.4727 0.4693 0.4660
3439.000000 0.4622 0.4584 0.4545 0.4506 0.4467
3434.000000 0.4428 0.4386 0.4345 0.4301 0.4257
3429.000000 0.4212 0.4168 0.4123 0.4079 0.4032
3424.000000 0.3987 0.3949 0.3912 0.3878 0.3845
3419.000000 0.3810 0.3777 0.3742 0.3708 0.3673
3414.000000 0.3639 0.3605 0.3571 0.3536 0.3502
3409.000000 0.3466 0.3432 0.3399 0.3364 0.3330
3404.000000 0.3296 0.3262 0.3228 0.3193 0.3159
3399.000000 0.3124 0.3090 0.3056 0.3022 0.2987
3394.000000 0.2953 0.2918 0.2884 0.2850 0.2816
3389.000000 0.2781 0.2747 0.2713 0.2679 0.2629
3384.000000 0.2579 0.2498 0.2417 0.2354 0.2292
3379.000000 0.2267 0.2242 0.2216 0.2191 0.2141
3374.000000 0.2092 0.2035 0.1979 0.1948 0.1916
3369.000000 0.1885 0.1856 0.1823 0.1791 0.1756
3364.000000 0.1721 0.1685 0.1652 0.1619 0.1587
3359.000000 0.1555 0.1523 0.1492 0.1462 0.1434
3354.000000 0.1406 0.1378 0.1350 0.1322 0.1295
3349.000000 0.1271 0.1246 0.1222 0.1198 0.1182
3344.000000 0.1166 0.1150 0.1134 0.1118 0.1102
3339.000000 0.1086 0.1070 0.1057 0.1044 0.1031
3334.000000 0.1019 0.1006 0.0993 0.0981 0.0969
3329.000000 0.0957 0.0946 0.0935 0.0924 0.0912
3324.000000 0.0901 0.0889 0.0879 0.0871 0.0863
3319.000000 0.0856 0.0849 0.0842 0.0836 0.0829
3314.000000 0.0822 0.0815 0.0808 0.0801 0.0795
3309.000000 0.0788 0.0781 0.0774 0.0768 0.0761
3304.000000 0.0754 0.0747 0.0741 0.0734 0.0727
3299.000000 0.0720 0.0714 0.0707 0.0700 0.0693
3294.000000 0.0687 0.0680 0.0673 0.0666 0.0660
3289.000000 0.0653 0.0646 0.0640 0.0634 0.0628
3284.000000 0.0622 0.0616 0.0610 0.0604 0.0599
3279.000000 0.0593 0.0588 0.0583 0.0578 0.0572
3274.000000 0.0567 0.0562 0.0557 0.0553 0.0550
3269.000000 0.0546 0.0543 0.0539 0.0535 0.0534
3264.000000 0.0533 0.0532 0.0532 0.0531 0.0531
3259.000000 0.0531 0.0531 0.0530 0.0530 0.0530
3254.000000 0.0530 0.0531 0.0533 0.0535 0.0537
3249.000000 0.0539 0.0541 0.0543 0.0545 0.0547
3244.000000 0.0549 0.0554 0.0560 0.0565 0.0571
3239.000000 0.0576 0.0581 0.0587 0.0593 0.0604
3234.000000 0.0616 0.0627 0.0639 0.0650 0.0661
3229.000000 0.0675 0.0690 0.0705 0.0721 0.0737
3224.000000 0.0753 0.0768 0.0784 0.0800 0.0817
3219.000000 0.0837 0.0857 0.0876 0.0896 0.0917
3214.000000 0.0937 0.0957 0.0976 0.0996 0.1018
3209.000000 0.1041 0.1065 0.1088 0.1111 0.1134
3204.000000 0.1158 0.1181 0.1205 0.1228 0.1252
3199.000000 0.1275 0.1298 0.1319 0.1340 0.1361
3194.000000 0.1382 0.1403 0.1425 0.1446 0.1467
3189.000000 0.1488 0.1509 0.1530 0.1552 0.1573
3184.000000 0.1594 0.1617 0.1640 0.1663 0.1685
3179.000000 0.1709 0.1732 0.1754 0.1778 0.1801
3174.000000 0.1825 0.1848 0.1871 0.1896 0.1923
3169.000000 0.1954 0.1984 0.2016 0.2048 0.2079
3164.000000 0.2111 0.2143 0.2176 0.2210 0.2245
3159.000000 0.2279 0.2314 0.2348 0.2383 0.2417
3154.000000 0.2452 0.2484 0.2518 0.2551 0.2584
3149.000000 0.2623 0.2661 0.2704 0.2748 0.2791
3144.000000 0.2834 0.2870 0.2906 0.2938 0.2970
3139.000000 0.3002 0.3034 0.3067 0.3099 0.3131
3134.000000 0.3164 0.3196 0.3228 0.3259 0.3292
3129.000000 0.3324 0.3356 0.3388 0.3420 0.3452
3124.000000 0.3484 0.3512 0.3541 0.3564 0.3587
3119.000000 0.3609 0.3634 0.3657 0.3680 0.3703
3114.000000 0.3727 0.3750 0.3773 0.3796 0.3820
3109.000000 0.3843 0.3866 0.3892 0.3918 0.3944
3104.000000 0.3970 0.3995 0.4021 0.4046 0.4072
3099.000000 0.4097 0.4122 0.4144 0.4167 0.4189
3094.000000 0.4212 0.4235 0.4258 0.4280 0.4303
3089.000000 0.4325 0.4347 0.4368 0.4389 0.4409
3084.000000 0.4430 0.4451 0.4472 0.4492 0.4512
3079.000000 0.4534 0.4555 0.4575 0.4596 0.4620
3074.000000 0.4645 0.4672 0.4700 0.4727 0.4754
3069.000000 0.4781 0.4809 0.4830 0.4851 0.4871
3064.000000 0.4891 0.4910 0.4931 0.4951 0.4971
3059.000000 0.4989 0.5007 0.5024 0.5042 0.5060
3054.000000 0.5078 0.5095 0.5112 0.5124 0.5137
3049.000000 0.5149 0.5162 0.5174 0.5187 0.5199
3044.000000 0.5212 0.5224 0.5237 0.5248 0.5259
3039.000000 0.5270 0.5281 0.5291 0.5302 0.5312
3034.000000 0.5323 0.5333 0.5344 0.5354 0.5365
3029.000000 0.5376 0.5387 0.5398 0.5410 0.5420
3024.000000 0.5431 0.5441 0.5451 0.5460 0.5470
3019.000000 0.5480 0.5490 0.5496 0.5503 0.5509
3014.000000 0.5516 0.5522 0.5528 0.5534 0.5541
3009.000000 0.5548 0.5555 0.5560 0.5567 0.5570
3004.000000 0.5573 0.5576 0.5576 0.5583 0.5586
2999.000000 0.5586 0.5587 0.5587 0.5587 0.5584
2994.000000 0.5581 0.5577 0.5574 0.5568 0.5562
2989.000000 0.5548 0.5534 0.5510 0.5488 0.5460
2984.000000 0.5434 0.5360 0.5288 0.5191 0.5094
2979.000000 0.4971 0.4848 0.4744 0.2388 0.3504
2974.000000 0.2368 0.2377 0.2387 0.2435 0.2485
2969.000000 0.2540 0.2595 0.2649 0.2704 0.2758
2964.000000 0.2813 0.2867 0.2922 0.2976 0.3031
2959.000000 0.3084 0.3140 0.3194 0.3249 0.3303
2954.000000 0.3358 0.3412 0.3466 0.3521 0.3640
2949.000000 0.3604 0.3632 0.3634 0.3636 0.3599
2944.000000 0.3562 0.3393 0.3223 0.3053 0.2883
2939.000000 0.2713 0.2543 0.2373 0.2204 0.2034
2934.000000 0.1864 0.1807 0.1767 0.1751 0.1753
2929.000000 0.1802 0.1851 0.1908 0.1966 0.2022
2924.000000 0.2079 0.2101 0.2123 0.2156 0.2190
2919.000000 0.2278 0.2367 0.2433 0.2499 0.2565
2914.000000 0.2631 0.2697 0.2764 0.2830 0.2896
2909.000000 0.2962 0.3028 0.3094 0.3161 0.3227
2904.000000 0.3293 0.3312 0.3334 0.3318 0.3304
2899.000000 0.3280 0.3259 0.3236 0.3214 0.3192
2894.000000 0.3170 0.3157 0.3145 0.3145 0.3145
2889.000000 0.3177 0.3209 0.3243 0.3278 0.3312
2884.000000 0.3348 0.3382 0.3416 0.3450 0.3486
2879.000000 0.3520 0.3555 0.3590 0.3625 0.3659
2874.000000 0.3694 0.3728 0.3762 0.3796 0.3829
2869.000000 0.3845 0.3893 0.3862 0.3862 0.3864
2864.000000 0.3862 0.3842 0.3821 0.3757 0.3694
2859.000000 0.3630 0.3566 0.3503 0.3440 0.3376
2854.000000 0.3312 0.3305 0.3295 0.3300 0.3304
2849.000000 0.3450 0.3597 0.3786 0.3975 0.4073
2844.000000 0.4171 0.4228 0.4286 0.4337 0.4388
2839.000000 0.4437 0.4487 0.4537 0.4588 0.4629
2834.000000 0.4671 0.4701 0.4732 0.4762 0.4792
2829.000000 0.4822 0.4853 0.4877 0.4902 0.4924
2824.000000 0.4946 0.4968 0.4990 0.5010 0.5033
2819.000000 0.5054 0.5076 0.5095 0.5114 0.5133
2814.000000 0.5152 0.5171 0.5190 0.5208 0.5227
2809.000000 0.5246 0.5265 0.5283 0.5302 0.5319
2804.000000 0.5336 0.5349 0.5362 0.5376 0.5390
2799.000000 0.5400 0.5410 0.5418 0.5427 0.5435
2794.000000 0.5443 0.5451 0.5459 0.5466 0.5473
2789.000000 0.5479 0.5486 0.5493 0.5500 0.5504
2784.000000 0.5508 0.5509 0.5510 0.5512 0.5515
2779.000000 0.5515 0.5515 0.5515 0.5515 0.5515
2774.000000 0.5515 0.5512 0.5512 0.5509 0.5506
2769.000000 0.5502 0.5499 0.5495 0.5492 0.5488
2764.000000 0.5484 0.5480 0.5476 0.5472 0.5468
2759.000000 0.5464 0.5460 0.5456 0.5453 0.5449
2754.000000 0.5442 0.5442 0.5439 0.5439 0.5439
2749.000000 0.5442 0.5445 0.5453 0.5462 0.5471
2744.000000 0.5480 0.5494 0.5508 0.5522 0.5536
2739.000000 0.5550 0.5565 0.5579 0.5593 0.5607
2734.000000 0.5621 0.5634 0.5647 0.5660 0.5674
2729.000000 0.5687 0.5701 0.5714 0.5728 0.5740
2724.000000 0.5752 0.5764 0.5776 0.5787 0.5799
2719.000000 0.5810 0.5823 0.5833 0.5844 0.5853
2714.000000 0.5862 0.5873 0.5883 0.5893 0.5903
2709.000000 0.5912 0.5922 0.5932 0.5942 0.5951
2704.000000 0.5960 0.5971 0.5981 0.5989 0.5997
2699.000000 0.6003 0.6010 0.6017 0.6024 0.6030
2694.000000 0.6036 0.6039 0.6042 0.6045 0.6048
2689.000000 0.6048 0.6048 0.6047 0.6045 0.6042
2684.000000 0.6039 0.6032 0.6025 0.6017 0.6009
2679.000000 0.6000 0.5991 0.5985 0.5979 0.5975
2674.000000 0.5971 0.5968 0.5966 0.5964 0.5962
2669.000000 0.5960 0.5960 0.5959 0.5960 0.5960
2664.000000 0.5962 0.5962 0.5964 0.5965 0.5966
2659.000000 0.5969 0.5973 0.5982 0.5992 0.6001
2654.000000 0.6010 0.6021 0.6031 0.6040 0.6050
2649.000000 0.6060 0.6070 0.6080 0.6090 0.6098
2644.000000 0.6107 0.6115 0.6123 0.6131 0.6140
2639.000000 0.6148 0.6156 0.6164 0.6173 0.6184
2634.000000 0.6195 0.6207 0.6219 0.6231 0.6243
2629.000000 0.6254 0.6266 0.6279 0.6293 0.6309
2624.000000 0.6325 0.6341 0.6357 0.6373 0.6389
2619.000000 0.6405 0.6421 0.6437 0.6453 0.6468
2614.000000 0.6485 0.6501 0.6517 0.6533 0.6549
2609.000000 0.6565 0.6581 0.6597 0.6612 0.6628
2604.000000 0.6645 0.6661 0.6676 0.6693 0.6710
2599.000000 0.6725 0.6742 0.6758 0.6774 0.6789
2594.000000 0.6805 0.6818 0.6831 0.6844 0.6858
2589.000000 0.6871 0.6885 0.6898 0.6911 0.6925
2584.000000 0.6939 0.6947 0.6956 0.6964 0.6972
2579.000000 0.6981 0.6990 0.6999 0.7008 0.7015
2574.000000 0.7025 0.7034 0.7044 0.7053 0.7062
2569.000000 0.7071 0.7081 0.7090 0.7099 0.7108
2564.000000 0.7117 0.7122 0.7130 0.7135 0.7140
2559.000000 0.7144 0.7149 0.7154 0.7158 0.7161
2554.000000 0.7165 0.7165 0.7165 0.7165 0.7165
2549.000000 0.7164 0.7161 0.7160 0.7158 0.7157
2544.000000 0.7156 0.7154 0.7153 0.7151 0.7149
2539.000000 0.7147 0.7145 0.7143 0.7142 0.7142
2534.000000 0.7143 0.7145 0.7148 0.7151 0.7154
2529.000000 0.7156 0.7158 0.7161 0.7165 0.7168
2524.000000 0.7171 0.7172 0.7175 0.7178 0.7182
2519.000000 0.7185 0.7189 0.7193 0.7198 0.7201
2514.000000 0.7207 0.7211 0.7215 0.7219 0.7225
2509.000000 0.7228 0.7234 0.7238 0.7243 0.7247
2504.000000 0.7251 0.7256 0.7261 0.7265 0.7271
2499.000000 0.7275 0.7281 0.7286 0.7291 0.7296
2494.000000 0.7301 0.7306 0.7311 0.7315 0.7321
2489.000000 0.7325 0.7330 0.7335 0.7340 0.7345
2484.000000 0.7350 0.7354 0.7358 0.7361 0.7365
2479.000000 0.7369 0.7374 0.7378 0.7382 0.7385
2474.000000 0.7389 0.7393 0.7397 0.7401 0.7405
2469.000000 0.7408 0.7411 0.7415 0.7418 0.7421
2464.000000 0.7425 0.7428 0.7431 0.7434 0.7437
2459.000000 0.7440 0.7443 0.7446 0.7449 0.7451
2454.000000 0.7455 0.7458 0.7461 0.7462 0.7465
2449.000000 0.7468 0.7471 0.7474 0.7476 0.7478
2444.000000 0.7482 0.7485 0.7488 0.7490 0.7493
2439.000000 0.7496 0.7499 0.7501 0.7504 0.7506
2434.000000 0.7508 0.7511 0.7515 0.7517 0.7519
2429.000000 0.7521 0.7525 0.7528 0.7531 0.7533
2424.000000 0.7536 0.7538 0.7541 0.7544 0.7547
2419.000000 0.7549 0.7551 0.7555 0.7558 0.7560
2414.000000 0.7562 0.7565 0.7568 0.7571 0.7574
2409.000000 0.7575 0.7578 0.7581 0.7584 0.7586
2404.000000 0.7589 0.7590 0.7592 0.7593 0.7595
2399.000000 0.7597 0.7599 0.7600 0.7601 0.7603
2394.000000 0.7605 0.7606 0.7608 0.7610 0.7611
2389.000000 0.7612 0.7615 0.7615 0.7618 0.7618
2384.000000 0.7618 0.7618 0.7618 0.7618 0.7619
2379.000000 0.7619 0.7619 0.7619 0.7621 0.7621
2374.000000 0.7621 0.7621 0.7621 0.7621 0.7622
2369.000000 0.7622 0.7622 0.7622 0.7624 0.7624
2364.000000 0.7624 0.7624 0.7624 0.7624 0.7624
2359.000000 0.7624 0.7624 0.7624 0.7625 0.7625
2354.000000 0.7625 0.7625 0.7625 0.7625 0.7625
2349.000000 0.7625 0.7625 0.7625 0.7625 0.7625
2344.000000 0.7625 0.7625 0.7625 0.7625 0.7626
2339.000000 0.7626 0.7626 0.7626 0.7626 0.7626
2334.000000 0.7628 0.7628 0.7630 0.7631 0.7633
2329.000000 0.7634 0.7636 0.7637 0.7639 0.7641
2324.000000 0.7643 0.7646 0.7649 0.7651 0.7655
2319.000000 0.7657 0.7660 0.7662 0.7665 0.7668
2314.000000 0.7671 0.7675 0.7678 0.7681 0.7684
2309.000000 0.7686 0.7689 0.7692 0.7695 0.7698
2304.000000 0.7701 0.7705 0.7708 0.7711 0.7715
2299.000000 0.7718 0.7721 0.7724 0.7728 0.7731
2294.000000 0.7734 0.7737 0.7741 0.7744 0.7747
2289.000000 0.7750 0.7753 0.7756 0.7758 0.7761
2284.000000 0.7765 0.7767 0.7769 0.7772 0.7775
2279.000000 0.7778 0.7782 0.7784 0.7787 0.7790
2274.000000 0.7793 0.7796 0.7799 0.7801 0.7804
2269.000000 0.7807 0.7810 0.7811 0.7815 0.7817
2264.000000 0.7819 0.7821 0.7824 0.7825 0.7826
2259.000000 0.7828 0.7831 0.7833 0.7835 0.7837
2254.000000 0.7839 0.7841 0.7843 0.7844 0.7846
2249.000000 0.7848 0.7850 0.7851 0.7854 0.7856
2244.000000 0.7858 0.7858 0.7860 0.7860 0.7861
2239.000000 0.7861 0.7862 0.7864 0.7865 0.7865
2234.000000 0.7865 0.7867 0.7868 0.7868 0.7869
2229.000000 0.7871 0.7871 0.7871 0.7872 0.7874
2224.000000 0.7875 0.7878 0.7882 0.7884 0.7887
2219.000000 0.7890 0.7893 0.7895 0.7898 0.7901
2214.000000 0.7904 0.7907 0.7910 0.7914 0.7918
2209.000000 0.7921 0.7925 0.7928 0.7933 0.7936
2204.000000 0.7940 0.7943 0.7946 0.7949 0.7951
2199.000000 0.7954 0.7957 0.7958 0.7961 0.7965
2194.000000 0.7968 0.7971 0.7975 0.7980 0.7985
2189.000000 0.7990 0.7995 0.8000 0.8006 0.8011
2184.000000 0.8015 0.8021 0.8025 0.8033 0.8041
2179.000000 0.8053 0.8065 0.8078 0.8094 0.8096
2174.000000 0.8099 0.8099 0.8099 0.8096 0.8094
2169.000000 0.8091 0.8089 0.8087 0.8085 0.8082
2164.000000 0.8080 0.8078 0.8075 0.8075 0.8074
2159.000000 0.8072 0.8071 0.8069 0.8068 0.8068
2154.000000 0.8067 0.8067 0.8067 0.8065 0.8065
2149.000000 0.8065 0.8065 0.8064 0.8064 0.8064
2144.000000 0.8064 0.8062 0.8062 0.8061 0.8061
2139.000000 0.8061 0.8061 0.8060 0.8060 0.8058
2134.000000 0.8058 0.8058 0.8058 0.8060 0.8061
2129.000000 0.8061 0.8062 0.8064 0.8065 0.8067
2124.000000 0.8068 0.8068 0.8071 0.8072 0.8075
2119.000000 0.8076 0.8078 0.8081 0.8083 0.8084
2114.000000 0.8086 0.8086 0.8087 0.8087 0.8088
2109.000000 0.8088 0.8088 0.8085 0.8083 0.8080
2104.000000 0.8078 0.8075 0.8074 0.8071 0.8068
2099.000000 0.8065 0.8064 0.8061 0.8058 0.8055
2094.000000 0.8051 0.8048 0.8045 0.8041 0.8038
2089.000000 0.8034 0.8031 0.8026 0.8022 0.8018
2084.000000 0.8015 0.8012 0.8011 0.8008 0.8008
2079.000000 0.8006 0.8004 0.8001 0.8001 0.8001
2074.000000 0.8004 0.8006 0.8008 0.8010 0.8011
2069.000000 0.8015 0.8018 0.8021 0.8026 0.8031
2064.000000 0.8036 0.8040 0.8045 0.8049 0.8054
2059.000000 0.8058 0.8062 0.8067 0.8071 0.8074
2054.000000 0.8076 0.8078 0.8082 0.8084 0.8087
2049.000000 0.8090 0.8093 0.8095 0.8098 0.8098
2044.000000 0.8098 0.8097 0.8097 0.8097 0.8097
2039.000000 0.8097 0.8097 0.8097 0.8097 0.8097
2034.000000 0.8097 0.8097 0.8097 0.8098 0.8099
2029.000000 0.8100 0.8101 0.8101 0.8103 0.8106
2024.000000 0.8110 0.8112 0.8117 0.8121 0.8125
2019.000000 0.8128 0.8133 0.8138 0.8143 0.8149
2014.000000 0.8155 0.8161 0.8168 0.8175 0.8182
2009.000000 0.8190 0.8198 0.8197 0.8197 0.8196
2004.000000 0.8196 0.8196 0.8196 0.8195 0.8194
1999.000000 0.8194 0.8194 0.8194 0.8195 0.8197
1994.000000 0.8199 0.8201 0.8202 0.8204 0.8206
1989.000000 0.8207 0.8209 0.8210 0.8210 0.8211
1984.000000 0.8212 0.8212 0.8213 0.8214 0.8214
1979.000000 0.8215 0.8215 0.8215 0.8216 0.8216
1974.000000 0.8216 0.8216 0.8217 0.8217 0.8217
1969.000000 0.8218 0.8218 0.8218 0.8218 0.8218
1964.000000 0.8218 0.8220 0.8220 0.8221 0.8221
1959.000000 0.8223 0.8224 0.8225 0.8225 0.8227
1954.000000 0.8228 0.8228 0.8230 0.8231 0.8234
1949.000000 0.8236 0.8238 0.8240 0.8243 0.8245
1944.000000 0.8247 0.8249 0.8251 0.8254 0.8256
1939.000000 0.8258 0.8260 0.8262 0.8265 0.8267
1934.000000 0.8268 0.8271 0.8273 0.8275 0.8277
1929.000000 0.8278 0.8281 0.8284 0.8286 0.8288
1924.000000 0.8290 0.8292 0.8294 0.8296 0.8299
1919.000000 0.8302 0.8306 0.8309 0.8313 0.8316
1914.000000 0.8318 0.8323 0.8325 0.8330 0.8333
1909.000000 0.8336 0.8340 0.8343 0.8347 0.8350
1904.000000 0.8354 0.8357 0.8360 0.8364 0.8367
1899.000000 0.8368 0.8371 0.8373 0.8374 0.8375
1894.000000 0.8377 0.8378 0.8380 0.8382 0.8383
1889.000000 0.8385 0.8387 0.8388 0.8390 0.8391
1884.000000 0.8393 0.8394 0.8396 0.8397 0.8398
1879.000000 0.8398 0.8398 0.8398 0.8399 0.8399
1874.000000 0.8399 0.8399 0.8400 0.8400 0.8400
1869.000000 0.8400 0.8401 0.8401 0.8401 0.8401
1864.000000 0.8401 0.8401 0.8401 0.8401 0.8401
1859.000000 0.8401 0.8401 0.8400 0.8400 0.8400
1854.000000 0.8400 0.8400 0.8400 0.8399 0.8399
1849.000000 0.8399 0.8399 0.8399 0.8399 0.8399
1844.000000 0.8398 0.8398 0.8398 0.8398 0.8398
1839.000000 0.8398 0.8397 0.8397 0.8397 0.8397
1834.000000 0.8397 0.8397 0.8396 0.8396 0.8396
1829.000000 0.8396 0.8396 0.8396 0.8398 0.8400
1824.000000 0.8403 0.8405 0.8407 0.8409 0.8411
1819.000000 0.8413 0.8416 0.8418 0.8420 0.8421
1814.000000 0.8424 0.8425 0.8428 0.8431 0.8433
1809.000000 0.8435 0.8437 0.8439 0.8441 0.8443
1804.000000 0.8445 0.8446 0.8448 0.8450 0.8452
1799.000000 0.8454 0.8455 0.8457 0.8459 0.8461
1794.000000 0.8462 0.8464 0.8466 0.8468 0.8470
1789.000000 0.8471 0.8473 0.8475 0.8477 0.8478
1784.000000 0.8481 0.8482 0.8484 0.8486 0.8488
1779.000000 0.8490 0.8492 0.8494 0.8496 0.8497
1774.000000 0.8499 0.8501 0.8503 0.8505 0.8506
1769.000000 0.8508 0.8509 0.8511 0.8513 0.8514
1764.000000 0.8516 0.8517 0.8518 0.8520 0.8521
1759.000000 0.8523 0.8525 0.8525 0.8527 0.8527
1754.000000 0.8527 0.8528 0.8528 0.8528 0.8528
1749.000000 0.8528 0.8530 0.8530 0.8530 0.8531
1744.000000 0.8531 0.8531 0.8531 0.8530 0.8528
1739.000000 0.8525 0.8523 0.8518 0.8515 0.8510
1734.000000 0.8506 0.8501 0.8495 0.8489 0.8483
1729.000000 0.8477 0.8471 0.8466 0.8461 0.8456
1724.000000 0.8451 0.8445 0.8440 0.8435 0.8430
1719.000000 0.8425 0.8420 0.8415 0.8411 0.8407
1714.000000 0.8403 0.8398 0.8394 0.8390 0.8386
1709.000000 0.8382 0.8378 0.8374 0.8371 0.8370
1704.000000 0.8368 0.8367 0.8366 0.8365 0.8363
1699.000000 0.8362 0.8362 0.8362 0.8365 0.8368
1694.000000 0.8371 0.8375 0.8378 0.8382 0.8384
1689.000000 0.8386 0.8387 0.8389 0.8390 0.8392
1684.000000 0.8393 0.8394 0.8396 0.8397 0.8399
1679.000000 0.8399 0.8399 0.8399 0.8399 0.8399
1674.000000 0.8399 0.8399 0.8398 0.8398 0.8398
1669.000000 0.8398 0.8398 0.8396 0.8393 0.8390
1664.000000 0.8386 0.8383 0.8380 0.8377 0.8374
1659.000000 0.8371 0.8368 0.8364 0.8361 0.8358
1654.000000 0.8355 0.8353 0.8352 0.8351 0.8350
1649.000000 0.8349 0.8349 0.8348 0.8347 0.8346
1644.000000 0.8345 0.8345 0.8344 0.8343 0.8342
1639.000000 0.8341 0.8341 0.8340 0.8339 0.8338
1634.000000 0.8336 0.8335 0.8334 0.8333 0.8332
1629.000000 0.8330 0.8328 0.8328 0.8327 0.8325
1624.000000 0.8325 0.8323 0.8321 0.8321 0.8320
1619.000000 0.8318 0.8318 0.8317 0.8316 0.8315
1614.000000 0.8314 0.8313 0.8312 0.8311 0.8310
1609.000000 0.8309 0.8308 0.8307 0.8306 0.8305
1604.000000 0.8304 0.8303 0.8302 0.8302 0.8300
1599.000000 0.8298 0.8297 0.8295 0.8294 0.8292
1594.000000 0.8290 0.8289 0.8287 0.8286 0.8284
1589.000000 0.8282 0.8281 0.8278 0.8278 0.8275
1584.000000 0.8275 0.8273 0.8271 0.8268 0.8267
1579.000000 0.8266 0.8264 0.8262 0.8260 0.8259
1574.000000 0.8257 0.8255 0.8253 0.8251 0.8250
1569.000000 0.8248 0.8246 0.8244 0.8242 0.8241
1564.000000 0.8239 0.8237 0.8235 0.8233 0.8232
1559.000000 0.8230 0.8228 0.8225 0.8224 0.8223
1554.000000 0.8221 0.8218 0.8217 0.8216 0.8215
1549.000000 0.8213 0.8212 0.8210 0.8209 0.8207
1544.000000 0.8206 0.8204 0.8203 0.8201 0.8200
1539.000000 0.8198 0.8197 0.8195 0.8194 0.8192
1534.000000 0.8191 0.8189 0.8188 0.8185 0.8182
1529.000000 0.8178 0.8175 0.8172 0.8168 0.8165
1524.000000 0.8162 0.8158 0.8151 0.8145 0.8138
1519.000000 0.8131 0.8124 0.8118 0.8108 0.8099
1514.000000 0.8088 0.8078 0.8067 0.8057 0.8045
1509.000000 0.8031 0.8018 0.8005 0.7991 0.7974
1504.000000 0.7956 0.7938 0.7919 0.7901 0.7883
1499.000000 0.7858 0.7833 0.7803 0.7749 0.7681
1494.000000 0.7597 0.7419 0.7322 0.4288 0.4299
1489.000000 0.4623 0.4979 0.5335 0.5691 0.6047
1484.000000 0.6403 0.6415 0.6424 0.6462 0.5948
1479.000000 0.5191 0.4783 0.4772 0.4778 0.4873
1474.000000 0.5018 0.5162 0.5307 0.5451 0.5596
1469.000000 0.5740 0.5884 0.5943 0.5962 0.6012
1464.000000 0.5991 0.5942 0.5862 0.5783 0.5703
1459.000000 0.5642 0.5610 0.5639 0.5715 0.5858
1454.000000 0.6001 0.6144 0.6286 0.6428 0.6571
1449.000000 0.6714 0.6774 0.6801 0.6817 0.6868
1444.000000 0.6830 0.6830 0.6810 0.6671 0.6534
1439.000000 0.6397 0.6259 0.6186 0.6186 0.6173
1434.000000 0.6159 0.6132 0.6107 0.6096 0.6093
1429.000000 0.6118 0.6195 0.6254 0.6394 0.6533
1424.000000 0.6672 0.6811 0.6951 0.7091 0.7214
1419.000000 0.7258 0.7303 0.7347 0.7386 0.7424
1414.000000 0.7453 0.7476 0.7500 0.7517 0.7532
1409.000000 0.7546 0.7551 0.7558 0.7564 0.7564
1404.000000 0.7565 0.7564 0.7562 0.7561 0.7554
1399.000000 0.7541 0.7526 0.7511 0.7489 0.7465
1394.000000 0.7441 0.7411 0.7380 0.7350 0.7301
1389.000000 0.7250 0.7172 0.7040 0.6715 0.6137
1384.000000 0.5558 0.5303 0.5308 0.5491 0.5674
1379.000000 0.5857 0.5970 0.5957 0.5931 0.5876
1374.000000 0.5642 0.5373 0.5104 0.4835 0.4588
1369.000000 0.4592 0.4594 0.4645 0.4695 0.4745
1364.000000 0.4795 0.4845 0.4868 0.4856 0.4662
1359.000000 0.4468 0.4280 0.4281 0.4326 0.4532
1354.000000 0.4738 0.4944 0.5114 0.5119 0.4818
1349.000000 0.3845 0.3845 0.3858 0.3873 0.3966
1344.000000 0.4126 0.4285 0.4444 0.4602 0.4760
1339.000000 0.4920 0.5079 0.5164 0.5180 0.5196
1334.000000 0.5227 0.5358 0.5488 0.5618 0.5748
1329.000000 0.5879 0.6009 0.6139 0.6270 0.6400
1324.000000 0.6530 0.6665 0.6791 0.6878 0.6961
1319.000000 0.7042 0.7104 0.7165 0.7207 0.7243
1314.000000 0.7278 0.7305 0.7328 0.7353 0.7371
1309.000000 0.7387 0.7401 0.7412 0.7418 0.7425
1304.000000 0.7443 0.7430 0.7430 0.7430 0.7428
1299.000000 0.7407 0.7382 0.7353 0.7321 0.7265
1294.000000 0.7176 0.7105 0.6895 0.6618 0.6343
1289.000000 0.6226 0.6229 0.6245 0.6292 0.6369
1284.000000 0.6458 0.6551 0.6658 0.6774 0.6889
1279.000000 0.7003 0.7118 0.7233 0.7324 0.7404
1274.000000 0.7458 0.7501 0.7538 0.7568 0.7601
1269.000000 0.7632 0.7656 0.7678 0.7701 0.7719
1264.000000 0.7739 0.7757 0.7761 0.7764 0.7765
1259.000000 0.7768 0.7769 0.7771 0.7775 0.7778
1254.000000 0.7784 0.7789 0.7794 0.7799 0.7806
1249.000000 0.7814 0.7821 0.7830 0.7838 0.7845
1244.000000 0.7853 0.7861 0.7872 0.7884 0.7895
1239.000000 0.7906 0.7918 0.7928 0.7939 0.7950
1234.000000 0.7961 0.7969 0.7978 0.7988 0.7996
1229.000000 0.8005 0.8011 0.8015 0.8018 0.8021
1224.000000 0.8022 0.8024 0.8024 0.8025 0.8025
1219.000000 0.8025 0.8021 0.8018 0.8015 0.8008
1214.000000 0.7992 0.7975 0.7934 0.7889 0.7821
1209.000000 0.7742 0.7647 0.7612 0.7586 0.7565
1204.000000 0.7546 0.7528 0.7511 0.7482 0.7454
1199.000000 0.7424 0.7342 0.7244 0.7158 0.7087
1194.000000 0.7025 0.6969 0.6915 0.6888 0.6878
1189.000000 0.6876 0.6892 0.6921 0.6968 0.7018
1184.000000 0.7069 0.7155 0.7201 0.7237 0.7258
1179.000000 0.7269 0.7278 0.7286 0.7290 0.7296
1174.000000 0.7303 0.7311 0.7318 0.7364 0.7422
1169.000000 0.7475 0.7525 0.7574 0.7625 0.7685
1164.000000 0.7728 0.7755 0.7772 0.7791 0.7795
1159.000000 0.7799 0.7799 0.7799 0.7798 0.7803
1154.000000 0.7808 0.7838 0.7876 0.7957 0.8010
1149.000000 0.8055 0.8097 0.8134 0.8168 0.8196
1144.000000 0.8214 0.8232 0.8249 0.8262 0.8275
1139.000000 0.8289 0.8302 0.8316 0.8328 0.8339
1134.000000 0.8350 0.8361 0.8371 0.8383 0.8392
1129.000000 0.8400 0.8408 0.8416 0.8423 0.8425
1124.000000 0.8428 0.8432 0.8442 0.8452 0.8462
1119.000000 0.8471 0.8481 0.8487 0.8492 0.8497
1114.000000 0.8502 0.8504 0.8506 0.8509 0.8511
1109.000000 0.8513 0.8515 0.8517 0.8518 0.8520
1104.000000 0.8511 0.8524 0.8525 0.8525 0.8528
1099.000000 0.8528 0.8528 0.8528 0.8520 0.8511
1094.000000 0.8501 0.8490 0.8478 0.8459 0.8427
1089.000000 0.8387 0.8300 0.8201 0.8100 0.7924
1084.000000 0.7739 0.7469 0.7380 0.7282 0.6719
1079.000000 0.5866 0.5010 0.4157 0.3314 0.3309
1074.000000 0.3309 0.3412 0.3642 0.3871 0.4100
1069.000000 0.4129 0.4133 0.3843 0.3359 0.2876
1064.000000 0.2393 0.1933 0.1935 0.1940 0.2055
1059.000000 0.2169 0.2284 0.2398 0.2513 0.2666
1054.000000 0.2934 0.3514 0.4059 0.4604 0.5148
1049.000000 0.5634 0.5975 0.6147 0.6216 0.6286
1044.000000 0.6357 0.6407 0.6454 0.6498 0.6535
1039.000000 0.6560 0.6571 0.6592 0.6584 0.6582
1034.000000 0.6565 0.6521 0.6461 0.6380 0.6282
1029.000000 0.6147 0.6021 0.5787 0.5257 0.4726
1024.000000 0.4196 0.3664 0.3134 0.2604 0.2073
1019.000000 0.1542 0.1246 0.1180 0.1140 0.1116
1014.000000 0.1109 0.1095 0.1096 0.1109 0.1151
1009.000000 0.1224 0.1301 0.1404 0.1509 0.1718
1004.000000 0.2081 0.2306 0.2527 0.2734 0.2915
999.000000 0.3177 0.3562 0.3948 0.4334 0.4719
994.000000 0.5026 0.5039 0.5030 0.4475 0.3975
989.000000 0.3474 0.2979 0.2976 0.2976 0.3414
984.000000 0.4042 0.4668 0.5295 0.5921 0.6548
979.000000 0.7222 0.7339 0.7432 0.7540 0.7618
974.000000 0.7669 0.7714 0.7755 0.7787 0.7806
969.000000 0.7818 0.7825 0.7831 0.7604 0.7255
964.000000 0.6906 0.6558 0.6209 0.5860 0.5497
959.000000 0.5474 0.5474 0.5828 0.6226 0.6625
954.000000 0.7022 0.7508 0.7686 0.7845 0.7944
949.000000 0.8043 0.8101 0.8145 0.8188 0.8231
944.000000 0.8275 0.8321 0.8367 0.8413 0.8452
939.000000 0.8485 0.8517 0.8549 0.8575 0.8595
934.000000 0.8615 0.8634 0.8654 0.8674 0.8692
929.000000 0.8707 0.8721 0.8737 0.8752 0.8764
924.000000 0.8775 0.8788 0.8800 0.8812 0.8823
919.000000 0.8834 0.8844 0.8855 0.8865 0.8875
914.000000 0.8885 0.8892 0.8898 0.8904 0.8911
909.000000 0.8917 0.8921 0.8925 0.8928 0.8932
904.000000 0.8936 0.8940 0.8944 0.8948 0.8956
899.000000 0.8970 0.8983 0.8991 0.8992 0.8993
894.000000 0.8990 0.8987 0.8984 0.8971 0.8961
889.000000 0.8949 0.8938 0.8930 0.8921 0.8914
884.000000 0.8906 0.8901 0.8901 0.8900 0.8900
879.000000 0.8901 0.8903 0.8906 0.8908 0.8910
874.000000 0.8910 0.8907 0.8900 0.8890 0.8868
869.000000 0.8814 0.8749 0.8688 0.8611 0.8528
864.000000 0.8474 0.8460 0.8460 0.8460 0.8487
859.000000 0.8542 0.8639 0.8701 0.8753 0.8787
854.000000 0.8816 0.8828 0.8830 0.8831 0.8832
849.000000 0.8834 0.8834 0.8831 0.8828 0.8825
844.000000 0.8844 0.8818 0.8815 0.8812 0.8808
839.000000 0.8798 0.8788 0.8778 0.8768 0.8762
834.000000 0.8755 0.8747 0.8740 0.8733 0.8725
829.000000 0.8716 0.8700 0.8684 0.8668 0.8651
824.000000 0.8635 0.8615 0.8595 0.8574 0.8553
819.000000 0.8532 0.8504 0.8475 0.8447 0.8418
814.000000 0.8390 0.8361 0.8323 0.8282 0.8240
809.000000 0.8198 0.8157 0.8114 0.8069 0.8026
804.000000 0.7984 0.7939 0.7886 0.7832 0.7778
799.000000 0.7725 0.7676 0.7628 0.7571 0.7481
794.000000 0.7390 0.7275 0.7168 0.7048 0.6907
789.000000 0.6811 0.6495 0.6057 0.5619 0.5182
784.000000 0.5107 0.5080 0.5095 0.5124 0.5260
779.000000 0.5491 0.5721 0.5951 0.6181 0.6265
774.000000 0.6293 0.6297 0.6297 0.6170 0.6023
769.000000 0.5877 0.5730 0.5653 0.5641 0.5660
764.000000 0.5896 0.6179 0.6532 0.6885 0.7238
759.000000 0.7528 0.7635 0.7690 0.7741 0.7782
754.000000 0.7822 0.7856 0.7885 0.7901 0.7912
749.000000 0.7925 0.7935 0.7943 0.7951 0.7951
744.000000 0.7951 0.7958 0.7958 0.7958 0.7954
739.000000 0.7949 0.7944 0.7939 0.7934 0.7925
734.000000 0.7911 0.7899 0.7886 0.7874 0.7858
729.000000 0.7839 0.7819 0.7800 0.7781 0.7761
724.000000 0.7738 0.7715 0.7692 0.7668 0.7638
719.000000 0.7607 0.7575 0.7545 0.7510 0.7468
714.000000 0.7425 0.7383 0.7340 0.7289 0.7237
709.000000 0.7186 0.7140 0.7095 0.7049 0.7000
704.000000 0.6939 0.6876 0.6798 0.6689 0.6569
699.000000 0.6446 0.6381 0.6325 0.6268 0.6212
694.000000 0.6173 0.6135 0.6097 0.6058 0.6021
689.000000 0.5983 0.5945 0.5908 0.5870 0.5847
684.000000 0.5824 0.5801 0.5782 0.5770 0.5757
679.000000 0.5746 0.5720 0.5725 0.5726 0.5730
674.000000 0.5734 0.5745 0.5755 0.5777 0.5818
669.000000 0.5869 0.5936 0.6002 0.6068 0.6118
664.000000 0.6164 0.6208 0.6240 0.6271 0.6303
659.000000 0.6334 0.6366 0.6388 0.6410 0.6431
654.000000 0.6451 0.6472 0.6490 0.6498 0.6506
649.000000 0.6514 0.6521 0.6530 0.6538 0.6545
644.000000 0.6553 0.6558 0.6565 0.6569 0.6575
639.000000 0.6582 0.6587 0.6591 0.6596 0.6600
634.000000 0.6605 0.6611 0.6618 0.6625 0.6639
629.000000 0.6664 0.6699 0.6741 0.6786 0.6828
624.000000 0.6871 0.6914 0.6956 0.6998 0.7040
619.000000 0.7082 0.7125 0.7167 0.7208 0.7251
614.000000 0.7293 0.7336 0.7378 0.7419 0.7461
609.000000 0.7504 0.7547 0.7589 0.7631 0.7661
604.000000 0.7686 0.7711 0.7736 0.7758 0.7782
599.000000 0.7805 0.7828 0.7847 0.7861 0.7874
594.000000 0.7880 0.7887 0.7889 0.7876 0.7865
589.000000 0.7850 0.7825 0.7801 0.7778 0.7753
584.000000 0.7725 0.7700 0.7672 0.7648 0.7628
579.000000 0.7610 0.7591 0.7575 0.7564 0.7551
574.000000 0.7543 0.7561 0.7574 0.7599 0.7624
569.000000 0.7651 0.7678 0.7707 0.7748 0.7788
564.000000 0.7828 0.7869 0.7911 0.7951 0.7992
559.000000 0.8032 0.8062 0.8095 0.8125 0.8158
554.000000 0.8186 0.8213 0.8240 0.8267 0.8294
549.000000 0.8320 0.8342 0.8365 0.8375 0.8385
544.000000 0.8392 0.8393 0.8394 0.8382 0.8364
539.000000 0.8347 0.8333 0.8325 0.8318 0.8316
534.000000 0.8320 0.8324 0.8328 0.8350 0.8371
529.000000 0.8391 0.8411 0.8431 0.8451 0.8470
524.000000 0.8488 0.8506 0.8524 0.8542 0.8559
519.000000 0.8577 0.8594 0.8611 0.8628 0.8645
514.000000 0.8662 0.8678 0.8696 0.8713 0.8723
509.000000 0.8734 0.8744 0.8755 0.8765 0.8775
504.000000 0.8786 0.8797 0.8807 0.8818 0.8828
499.000000 0.8838 0.8849 0.8859 0.8868 0.8880
494.000000 0.8890 0.8900 0.8911 0.8921 0.8930
489.000000 0.8940 0.8950 0.8960 0.8970 0.8980
484.000000 0.8989 0.8999 0.9008 0.9017 0.9025
479.000000 0.9035 0.9044 0.9053 0.9062 0.9071
474.000000 0.9080 0.9088 0.9097 0.9106 0.9114
469.000000 0.9123 0.9131 0.9138 0.9145 0.9152
464.000000 0.9158 0.9165 0.9171 0.9178 0.9185
459.000000 0.9192 0.9199 0.9206 0.9214 0.9221
454.000000 0.9228 0.9236 0.9243 0.9251 0.9258
449.000000 0.9265 0.9271 0.9278 0.9286 0.9291
444.000000 0.9294 0.9297 0.9300 0.9302 0.9303
439.000000 0.9303 0.9301 0.9300 0.9295 0.9289
434.000000 0.9270 0.9242 0.9204 0.9162 0.9091
429.000000 0.9021 0.8950 0.8864 0.8774 0.8701
424.000000 0.8627 0.8592 0.8561 0.8544 0.8528
419.000000 0.8514 0.8505 0.8497 0.8489 0.8481
414.000000 0.8475 0.8475 0.8475 0.8475 0.8475
409.000000 0.8475 0.8474 0.8503 0.8487 0.8497
404.000000 0.8507 0.8516 0.8525 0.8535 0.8545
399.000000 0.8555 0.8564 0.8574 0.8582 0.8589
394.000000 0.8596 0.8602
##END=
