##TITLE=MERCURY, DIBENZYL-,
##JCAMP-DX=4.24
##DATA TYPE=INFRARED SPECTRUM
##CLASS=COBLENTZ III
##ORIGIN=DOW CHEMICAL COMPANY
##OWNER=COBLENTZ SOCIETY
Collection (C) 2018 copyright by the U.S. Secretary of Commerce
on behalf of the United States of America. All rights reserved.
##DATE=1966/03/10
##NAMES=dibenzylmercury
##CAS REGISTRY NO=780-24-5
##MOLFORM=C14 H14 Hg
##SOURCE REFERENCE=COBLENTZ NO. 7892
##$NIST SOURCE=COBLENTZ
##$NIST IMAGE=cob7892
##SPECTROMETER/DATA SYSTEM=BECKMAN IR-9 (GRATING)
##INSTRUMENT PARAMETERS=ORDER CHANGES: 670, 1200, 2000 CM^-^1
##STATE=SOLID (MICRO SPLIT MULL), FLUOROLUBE FOR 3800-1335 CM^-^1, NUJOL FOR 1335-460 CM^-^1
$$ SEE SPECTRUM NO. 7902 FOR FAR INFRARED REGION
##SAMPLING PROCEDURE=TRANSMISSION
##RESOLUTION=2
##DATA PROCESSING=DIGITIZED BY NIST FROM HARD COPY (FROM TWO SEGMENTS)
##XUNITS=1/CM
##YUNITS=TRANSMITTANCE
##XFACTOR=1.000000
##YFACTOR=1
##DELTAX=0.879123
##FIRSTX=402.637
##LASTX=3797.81
##FIRSTY=0.71
##MAXX=3797.81
##MINX=402.637
##MAXY=1.034
##MINY=0.145001
##NPOINTS=3863
##XYDATA=(X++(Y..Y))
402.637000 0.7100 0.7080 0.7070 0.7060 0.7060
407.032614 0.7060 0.7040 0.7040 0.7040 0.7040
411.428229 0.7040 0.7060 0.7070 0.7070 0.7080
415.823843 0.7100 0.7110 0.7120 0.7180 0.7220
420.219457 0.7230 0.7260 0.7320 0.7360 0.7400
424.615071 0.7430 0.7470 0.7520 0.7580 0.7600
429.010686 0.7630 0.7710 0.7780 0.7820 0.7890
433.406300 0.7890 0.7920 0.7930 0.7950 0.7950
437.801914 0.7950 0.7950 0.7930 0.7920 0.7910
442.197529 0.7810 0.7521 0.6703 0.6461 0.6450
446.593143 0.6440 0.6450 0.6790 0.7209 0.7589
450.988757 0.7770 0.8059 0.8239 0.8439 0.8530
455.384372 0.8580 0.8690 0.8770 0.8910 0.8960
459.779986 0.9010 0.9050 0.9120 0.9170 0.9230
464.175600 0.9240 0.9270 0.9290 0.9350 0.9360
468.571214 0.9380 0.9390 0.9420 0.9450 0.9500
472.966829 0.9530 0.9560 0.9570 0.9570 0.9600
477.362443 0.9600 0.9650 0.9680 0.9690 0.9710
481.758057 0.9720 0.9760 0.9790 0.9790 0.9800
486.153672 0.9820 0.9830 0.9840 0.9860 0.9870
490.549286 0.9890 0.9910 0.9930 0.9940 0.9950
494.944900 0.9970 0.9980 1.0010 1.0020 1.0040
499.340514 1.0040 1.0060 1.0060 1.0080 1.0090
503.736129 1.0090 1.0090 1.0100 1.0100 1.0120
508.131743 1.0120 1.0130 1.0130 1.0150 1.0150
512.527357 1.0160 1.0160 1.0160 1.0160 1.0160
516.922972 1.0170 1.0170 1.0170 1.0170 1.0170
521.318586 1.0170 1.0170 1.0170 1.0170 1.0170
525.714200 1.0170 1.0170 1.0170 1.0170 1.0160
530.109815 1.0160 1.0150 1.0130 1.0130 1.0100
534.505429 1.0050 0.9980 0.9900 0.9391 0.8951
538.901043 0.7813 0.7780 0.7800 0.8019 0.9026
543.296657 0.9500 0.9750 1.0040 1.0050 1.0050
547.692272 1.0010 1.0000 0.9970 0.9940 1.0010
552.087886 1.0050 1.0090 1.0100 1.0100 1.0100
556.483500 1.0100 1.0090 1.0060 1.0050 1.0010
560.879115 0.9930 0.9840 0.9820 0.9840 0.9900
565.274729 1.0040 1.0060 1.0090 1.0090 1.0090
569.670343 1.0080 1.0010 0.9980 0.9940 0.9830
574.065958 0.9820 0.9840 1.0039 1.0050 1.0100
578.461572 1.0120 1.0130 1.0150 1.0150 1.0150
582.857186 1.0150 1.0130 1.0130 1.0150 1.0150
587.252800 1.0150 1.0150 1.0150 1.0150 1.0130
591.648415 1.0130 1.0130 1.0130 1.0150 1.0160
596.044029 1.0160 1.0160 1.0160 1.0160 1.0170
600.439643 1.0170 1.0190 1.0190 1.0190 1.0190
604.835258 1.0190 1.0190 1.0190 1.0190 1.0190
609.230872 1.0190 1.0190 1.0190 1.0170 1.0170
613.626486 1.0170 1.0170 1.0170 1.0170 1.0160
618.022100 1.0160 1.0160 1.0150 1.0130 1.0080
622.417715 1.0020 1.0020 1.0040 1.0040 1.0060
626.813329 1.0100 1.0120 1.0130 1.0150 1.0150
631.208943 1.0150 1.0150 1.0150 1.0150 1.0160
635.604558 1.0150 1.0150 1.0150 1.0130 1.0130
640.000172 1.0130 1.0130 1.0120 1.0120 1.0100
644.395786 1.0100 1.0100 1.0090 1.0080 1.0050
648.791401 1.0040 1.0040 1.0020 1.0020 1.0040
653.187015 1.0040 1.0080 1.0080 1.0090 1.0090
657.582629 1.0090 1.0090 1.0090 1.0090 1.0090
661.978243 1.0080 1.0060 1.0060 1.0050 1.0050
666.373858 1.0050 1.0040 1.0040 1.0040 1.0040
670.769472 1.0040 1.0040 1.0040 1.0040 1.0040
675.165086 1.0040 1.0040 1.0040 1.0020 1.0020
679.560701 1.0020 1.0010 1.0010 1.0000 0.9980
683.956315 0.9950 0.9910 0.9900 0.9870 0.9830
688.351929 0.9790 0.9750 0.9710 0.9650 0.9580
692.747543 0.9510 0.9420 0.9360 0.8910 0.8720
697.143158 0.8031 0.7102 0.6203 0.5303 0.4344
701.538772 0.3179 0.1960 0.1960 0.1970 0.2170
705.934386 0.3468 0.4507 0.6175 0.6917 0.7328
710.330001 0.7700 0.8430 0.8760 0.8980 0.9060
714.725615 0.9160 0.9200 0.9250 0.9270 0.9280
719.121229 0.9290 0.9290 0.9280 0.9240 0.9230
723.516844 0.9200 0.9140 0.9120 0.9100 0.9100
727.912458 0.9120 0.9140 0.9140 0.9200 0.9240
732.308072 0.9280 0.9310 0.9340 0.9340 0.9350
736.703686 0.9350 0.9360 0.9360 0.9360 0.9360
741.099301 0.9360 0.9350 0.9320 0.9310 0.9250
745.494915 0.9230 0.9130 0.8691 0.8351 0.7672
749.890529 0.7191 0.6672 0.6331 0.6290 0.6190
754.286144 0.5810 0.5410 0.5020 0.2634 0.1712
758.681758 0.1590 0.1560 0.1570 0.1849 0.3612
763.077372 0.4271 0.6160 0.6570 0.7279 0.7779
767.472986 0.8239 0.8509 0.8699 0.8770 0.8979
771.868601 0.9130 0.9180 0.9320 0.9350 0.9390
776.264215 0.9430 0.9490 0.9510 0.9540 0.9560
780.659829 0.9570 0.9580 0.9610 0.9640 0.9640
785.055444 0.9650 0.9670 0.9680 0.9690 0.9720
789.451058 0.9720 0.9750 0.9760 0.9760 0.9760
793.846672 0.9750 0.9720 0.9710 0.9650 0.9580
798.242287 0.9400 0.9270 0.8940 0.8071 0.8040
802.637901 0.8060 0.8309 0.8529 0.8719 0.8909
807.033515 0.9170 0.9380 0.9460 0.9560 0.9580
811.429129 0.9610 0.9650 0.9670 0.9670 0.9690
815.824744 0.9690 0.9680 0.9670 0.9650 0.9620
820.220358 0.9610 0.9560 0.9530 0.9530 0.9540
824.615972 0.9610 0.9710 0.9730 0.9790 0.9800
829.011587 0.9800 0.9820 0.9820 0.9800 0.9780
833.407201 0.9730 0.9690 0.9600 0.9570 0.9450
837.802815 0.9360 0.9200 0.9011 0.8831 0.8691
842.198430 0.8570 0.8500 0.8500 0.8500 0.8530
846.594044 0.8949 0.9169 0.9379 0.9509 0.9639
850.989658 0.9720 0.9790 0.9830 0.9860 0.9870
855.385272 0.9870 0.9890 0.9900 0.9910 0.9930
859.780887 0.9940 0.9940 0.9950 0.9970 0.9970
864.176501 0.9970 0.9970 0.9970 0.9970 0.9970
868.572115 0.9970 0.9970 0.9980 0.9970 0.9970
872.967730 0.9970 0.9970 0.9950 0.9950 0.9950
877.363344 0.9950 0.9950 0.9950 0.9950 0.9950
881.758958 0.9950 0.9950 0.9950 0.9950 0.9950
886.154572 0.9950 0.9950 0.9950 0.9950 0.9950
890.550187 0.9940 0.9940 0.9910 0.9900 0.9900
894.945801 0.9890 0.9890 0.9890 0.9870 0.9860
899.341415 0.9840 0.9830 0.9820 0.9760 0.9720
903.737030 0.9670 0.9640 0.9380 0.9070 0.8790
908.132644 0.8760 0.8770 0.8959 0.9359 0.9619
912.528258 0.9840 0.9840 0.9860 0.9860 0.9870
916.923873 0.9890 0.9890 0.9890 0.9890 0.9890
921.319487 0.9890 0.9870 0.9870 0.9870 0.9870
925.715101 0.9870 0.9870 0.9870 0.9870 0.9870
930.110715 0.9870 0.9890 0.9890 0.9890 0.9870
934.506330 0.9870 0.9870 0.9870 0.9870 0.9870
938.901944 0.9870 0.9860 0.9860 0.9820 0.9820
943.297558 0.9820 0.9820 0.9820 0.9820 0.9820
947.693173 0.9820 0.9830 0.9840 0.9840 0.9840
952.088787 0.9840 0.9830 0.9830 0.9830 0.9820
956.484401 0.9800 0.9800 0.9790 0.9790 0.9760
960.880015 0.9760 0.9750 0.9720 0.9710 0.9690
965.275630 0.9680 0.9650 0.9640 0.9610 0.9600
969.671244 0.9510 0.9211 0.9210 0.9240 0.9350
974.066858 0.9500 0.9510 0.9530 0.9530 0.9530
978.462473 0.9530 0.9530 0.9530 0.9530 0.9510
982.858087 0.9500 0.9470 0.9460 0.9450 0.9450
987.253701 0.9460 0.9460 0.9460 0.9460 0.9460
991.649316 0.9470 0.9460 0.9450 0.9430 0.9390
996.044930 0.9380 0.9350 0.9340 0.9280 0.9270
1000.440544 0.9250 0.9240 0.9210 0.9180 0.9180
1004.836158 0.9230 0.9250 0.9290 0.9360 0.9430
1009.231773 0.9430 0.9430 0.9420 0.9380 0.9360
1013.627387 0.9360 0.9350 0.9340 0.9310 0.9280
1018.023001 0.9250 0.9250 0.9250 0.9230 0.9200
1022.418616 0.9160 0.9130 0.9090 0.9010 0.8920
1026.814230 0.8038 0.6930 0.6900 0.6920 0.7450
1031.209844 0.8429 0.8799 0.8870 0.9139 0.9160
1035.605458 0.9170 0.9180 0.9200 0.9210 0.9210
1040.001073 0.9210 0.9200 0.9170 0.9140 0.9120
1044.396687 0.9050 0.8950 0.8790 0.8660 0.8480
1048.792301 0.8201 0.7961 0.7661 0.7251 0.6991
1053.187916 0.6530 0.6520 0.6550 0.7070 0.7709
1057.583530 0.8000 0.8329 0.8510 0.8580 0.8690
1061.979144 0.8770 0.8850 0.8900 0.8920 0.8940
1066.374759 0.8950 0.8960 0.8960 0.8960 0.8960
1070.770373 0.8960 0.8960 0.8950 0.8920 0.8870
1075.165987 0.8810 0.8720 0.8640 0.8530 0.8371
1079.561601 0.8149 0.7779 0.7189 0.6400 0.5870
1083.957216 0.5311 0.4731 0.4620 0.4600 0.4610
1088.352830 0.6201 0.6770 0.7080 0.7710 0.8110
1092.748444 0.8310 0.8529 0.8530 0.8530 0.8530
1097.144059 0.8419 0.7799 0.6880 0.5930 0.5900
1101.539673 0.5900 0.6179 0.6928 0.7837 0.8059
1105.935287 0.8390 0.8570 0.8680 0.8770 0.8840
1110.330902 0.8910 0.8960 0.9030 0.9060 0.9090
1114.726516 0.9090 0.9100 0.9100 0.9140 0.9140
1119.122130 0.9140 0.9140 0.9140 0.9140 0.9030
1123.517744 0.9030 0.9070 0.9170 0.9250 0.9310
1127.913359 0.9350 0.9360 0.9380 0.9380 0.9390
1132.308973 0.9390 0.9360 0.9350 0.9360 0.9380
1136.704587 0.9380 0.9400 0.9420 0.9420 0.9420
1141.100202 0.9420 0.9430 0.9420 0.9420 0.9420
1145.495816 0.9400 0.9390 0.9390 0.9380 0.9360
1149.891430 0.9360 0.9390 0.9390 0.9360 0.9350
1154.287044 0.9350 0.9340 0.9310 0.9290 0.9270
1158.682659 0.9230 0.9160 0.9130 0.9130 0.9170
1163.078273 0.9170 0.9170 0.9160 0.9160 0.9130
1167.473887 0.8880 0.8850 0.8850 0.8870 0.8990
1171.869502 0.9060 0.9090 0.9090 0.9070 0.9060
1176.265116 0.8979 0.8209 0.6920 0.6890 0.6900
1180.660730 0.7150 0.7739 0.8478 0.8689 0.8879
1185.056345 0.8950 0.9050 0.9090 0.9130 0.9160
1189.451959 0.9180 0.9180 0.9180 0.9200 0.9180
1193.847573 0.9180 0.9170 0.9160 0.9140 0.9100
1198.243187 0.9060 0.9030 0.8990 0.8910 0.8790
1202.638802 0.8690 0.8590 0.8530 0.8390 0.7760
1207.034416 0.7560 0.6891 0.6141 0.5053 0.3963
1211.430030 0.3940 0.3941 0.5530 0.6340 0.7039
1215.825645 0.7649 0.8169 0.8579 0.8829 0.8989
1220.221259 0.9120 0.9180 0.9270 0.9290 0.9340
1224.616873 0.9350 0.9350 0.9350 0.9360 0.9360
1229.012487 0.9380 0.9380 0.9380 0.9380 0.9360
1233.408102 0.9360 0.9350 0.9350 0.9350 0.9340
1237.803716 0.9340 0.9320 0.9290 0.9290 0.9280
1242.199330 0.9250 0.9210 0.9180 0.9170 0.9160
1246.594945 0.9140 0.9140 0.9100 0.9090 0.9090
1250.990559 0.9090 0.9090 0.9060 0.9060 0.9060
1255.386173 0.9060 0.9060 0.9050 0.9050 0.9030
1259.781788 0.9020 0.9020 0.8980 0.8960 0.8950
1264.177402 0.8940 0.8910 0.8870 0.8850 0.8850
1268.573016 0.8840 0.8840 0.8850 0.8910 0.8920
1272.968630 0.8940 0.8950 0.8950 0.8960 0.8960
1277.364245 0.8980 0.8990 0.9010 0.9010 0.9010
1281.759859 0.9020 0.9020 0.9010 0.9020 0.9010
1286.155473 0.9010 0.9010 0.9010 0.9020 0.9020
1290.551088 0.9020 0.9020 0.9020 0.9020 0.9020
1294.946702 0.9010 0.9010 0.9010 0.8990 0.8990
1299.342316 0.8960 0.8960 0.8950 0.8950 0.8940
1303.737930 0.8880 0.8870 0.8870 0.8870 0.8940
1308.133545 0.8940 0.8940 0.8940 0.8940 0.8910
1312.529159 0.8850 0.8810 0.8790 0.8760 0.8750
1316.924773 0.8730 0.8720 0.8690 0.8700 0.8730
1321.320388 0.8840 0.8960 0.9030 0.9070 0.9090
1325.716002 0.9130 0.9140 0.9140 0.9160 0.9160
1330.111616 0.9160 0.9170 0.9170 0.9160 0.9140
1334.507231 0.9130 0.9070 0.9060 0.9070 0.9070
1338.902845 0.9090 0.9090 0.9100 0.9140 0.9170
1343.298459 0.9170 0.9160 0.9160 0.9160 0.9140
1347.694073 0.9130 0.9120 0.9120 0.9120 0.9130
1352.089688 0.9210 0.9270 0.9280 0.9310 0.9340
1356.485302 0.9360 0.9380 0.9420 0.9450 0.9500
1360.880916 0.9510 0.9560 0.9600 0.9600 0.9610
1365.276531 0.9620 0.9620 0.9640 0.9650 0.9650
1369.672145 0.9650 0.9670 0.9680 0.9710 0.9710
1374.067759 0.9690 0.9680 0.9680 0.9680 0.9680
1378.463374 0.9680 0.9670 0.9670 0.9670 0.9650
1382.858988 0.9640 0.9620 0.9610 0.9600 0.9580
1387.254602 0.9580 0.9560 0.9560 0.9540 0.9540
1391.650216 0.9570 0.9610 0.9610 0.9650 0.9670
1396.045831 0.9670 0.9650 0.9640 0.9640 0.9620
1400.441445 0.9620 0.9580 0.9580 0.9580 0.9620
1404.837059 0.9620 0.9620 0.9620 0.9620 0.9620
1409.232674 0.9620 0.9610 0.9600 0.9580 0.9570
1413.628288 0.9570 0.9560 0.9500 0.9450 0.9390
1418.023902 0.9360 0.9310 0.9290 0.9280 0.9310
1422.419516 0.9350 0.9400 0.9470 0.9510 0.9530
1426.815131 0.9570 0.9570 0.9570 0.9580 0.9600
1431.210745 0.9610 0.9620 0.9640 0.9640 0.9640
1435.606359 0.9640 0.9640 0.9620 0.9610 0.9610
1440.001974 0.9610 0.9580 0.9540 0.9490 0.9400
1444.397588 0.9310 0.9200 0.9170 0.9140 0.9100
1448.793202 0.6677 0.5628 0.4569 0.4140 0.4120
1453.188817 0.4130 0.7647 0.8539 0.9029 0.9309
1457.584431 0.9380 0.9400 0.9420 0.9450 0.9460
1461.980045 0.9460 0.9450 0.9420 0.9390 0.9380
1466.375659 0.9360 0.9350 0.9340 0.9320 0.9320
1470.771274 0.9350 0.9360 0.9360 0.9360 0.9360
1475.166888 0.9360 0.9350 0.9340 0.9290 0.9270
1479.562502 0.9180 0.8990 0.8331 0.7502 0.6892
1483.958117 0.6258 0.5628 0.4599 0.3549 0.2510
1488.353731 0.1460 0.1450 0.1480 0.6330 0.7557
1492.749345 0.8093 0.9062 1.0020 1.0150 1.0270
1497.144959 1.0320 1.0320 1.0340 1.0340 1.0340
1501.540574 1.0340 1.0340 1.0340 1.0340 1.0320
1505.936188 1.0310 1.0300 1.0280 1.0280 1.0270
1510.331802 1.0270 1.0270 1.0260 1.0260 1.0240
1514.727417 1.0240 1.0230 1.0200 1.0190 1.0170
1519.123031 1.0170 1.0170 1.0170 1.0190 1.0170
1523.518645 1.0170 1.0170 1.0170 1.0170 1.0170
1527.914260 1.0170 1.0190 1.0170 1.0170 1.0170
1532.309874 1.0150 1.0130 1.0120 1.0100 1.0080
1536.705488 1.0060 1.0050 1.0040 1.0040 1.0020
1541.101102 1.0020 1.0010 0.9980 0.9950 0.9950
1545.496717 0.9940 0.9930 0.9930 0.9930 0.9930
1549.892331 0.9910 0.9910 0.9900 0.9900 0.9900
1554.287945 0.9910 0.9910 0.9910 0.9900 0.9890
1558.683560 0.9860 0.9830 0.9820 0.9800 0.9790
1563.079174 0.9750 0.9690 0.9680 0.9650 0.9600
1567.474788 0.9560 0.9540 0.9510 0.9500 0.9490
1571.870403 0.9470 0.9470 0.9460 0.9449 0.8830
1576.266017 0.8220 0.8200 0.8210 0.8500 0.9019
1580.661631 0.9380 0.9490 0.9530 0.9510 0.9460
1585.057245 0.9360 0.8650 0.8620 0.8610 0.8590
1589.452860 0.8580 0.8547 0.6520 0.6409 0.4580
1593.848474 0.2741 0.2740 0.2760 0.3369 0.5703
1598.244088 0.6712 0.7371 0.7851 0.8280 0.8730
1602.639703 0.9120 0.9350 0.9530 0.9580 0.9640
1607.035317 0.9720 0.9790 0.9820 0.9870 0.9910
1611.430931 0.9940 0.9950 1.0010 1.0020 1.0020
1615.826545 1.0020 1.0020 1.0020 1.0020 1.0020
1620.222160 1.0010 1.0000 0.9970 0.9930 0.9930
1624.617774 0.9910 0.9890 0.9870 0.9860 0.9860
1629.013388 0.9860 0.9860 0.9860 0.9860 0.9860
1633.409003 0.9870 0.9890 0.9890 0.9890 0.9900
1637.804617 0.9900 0.9900 0.9900 0.9900 0.9900
1642.200231 0.9900 0.9910 0.9900 0.9900 0.9890
1646.595846 0.9870 0.9860 0.9840 0.9840 0.9830
1650.991460 0.9820 0.9800 0.9790 0.9790 0.9790
1655.387074 0.9790 0.9790 0.9790 0.9780 0.9780
1659.782688 0.9760 0.9760 0.9750 0.9750 0.9730
1664.178303 0.9730 0.9730 0.9730 0.9730 0.9730
1668.573917 0.9750 0.9760 0.9780 0.9790 0.9790
1672.969531 0.9820 0.9830 0.9840 0.9860 0.9870
1677.365146 0.9890 0.9900 0.9910 0.9930 0.9940
1681.760760 0.9950 0.9980 0.9980 1.0010 1.0010
1686.156374 1.0020 1.0040 1.0040 1.0040 1.0040
1690.551988 1.0040 1.0040 1.0040 1.0040 1.0040
1694.947603 1.0040 1.0040 1.0040 1.0040 1.0040
1699.343217 1.0050 1.0050 1.0050 1.0060 1.0060
1703.738831 1.0060 1.0080 1.0080 1.0080 1.0080
1708.134446 1.0080 1.0080 1.0080 1.0090 1.0100
1712.530060 1.0100 1.0100 1.0100 1.0100 1.0100
1716.925674 1.0100 1.0090 1.0090 1.0090 1.0090
1721.321289 1.0080 1.0080 1.0060 1.0060 1.0050
1725.716903 1.0040 1.0040 1.0040 1.0040 1.0020
1730.112517 1.0010 1.0010 1.0010 1.0000 1.0000
1734.508131 0.9970 0.9950 0.9940 0.9930 0.9910
1738.903746 0.9910 0.9900 0.9890 0.9890 0.9860
1743.299360 0.9840 0.9830 0.9820 0.9820 0.9800
1747.694974 0.9800 0.9800 0.9800 0.9820 0.9820
1752.090589 0.9830 0.9840 0.9840 0.9860 0.9860
1756.486203 0.9870 0.9870 0.9890 0.9900 0.9930
1760.881817 1.0010 1.0010 1.0020 1.0020 1.0020
1765.277431 1.0040 1.0040 1.0050 1.0050 1.0060
1769.673046 1.0060 1.0080 1.0080 1.0090 1.0090
1774.068660 1.0090 1.0100 1.0100 1.0100 1.0100
1778.464274 1.0100 1.0100 1.0100 1.0100 1.0100
1782.859889 1.0100 1.0100 1.0100 1.0100 1.0100
1787.255503 1.0100 1.0090 1.0090 1.0090 1.0080
1791.651117 1.0080 1.0060 1.0060 1.0060 1.0050
1796.046732 1.0050 1.0020 1.0010 1.0010 1.0000
1800.442346 1.0000 0.9980 0.9950 0.9950 0.9940
1804.837960 0.9910 0.9910 0.9900 0.9900 0.9900
1809.233574 0.9900 0.9910 0.9910 0.9930 1.0010
1813.629189 1.0010 1.0010 1.0010 1.0010 1.0000
1818.024803 0.9980 0.9950 0.9950 0.9950 0.9950
1822.420417 0.9950 1.0010 1.0010 1.0020 1.0020
1826.816032 1.0020 1.0020 1.0040 1.0020 1.0020
1831.211646 1.0040 1.0040 1.0040 1.0040 1.0040
1835.607260 1.0040 1.0040 1.0040 1.0050 1.0050
1840.002875 1.0050 1.0050 1.0050 1.0050 1.0050
1844.398489 1.0050 1.0050 1.0050 1.0050 1.0050
1848.794103 1.0050 1.0050 1.0040 1.0040 1.0040
1853.189717 1.0020 1.0020 1.0020 1.0010 1.0010
1857.585332 1.0000 1.0000 0.9980 0.9980 0.9950
1861.980946 0.9940 0.9910 0.9870 0.9840 0.9820
1866.376560 0.9790 0.9780 0.9780 0.9780 0.9780
1870.772175 0.9780 0.9790 0.9790 0.9790 0.9800
1875.167789 0.9800 0.9820 0.9820 0.9830 0.9830
1879.563403 0.9820 0.9800 0.9780 0.9780 0.9780
1883.959017 0.9790 0.9800 0.9820 0.9820 0.9840
1888.354632 0.9840 0.9860 0.9870 0.9900 0.9930
1892.750246 0.9940 0.9940 0.9940 0.9940 0.9940
1897.145860 0.9940 0.9940 0.9940 0.9950 0.9950
1901.541475 0.9950 0.9950 0.9950 0.9950 0.9950
1905.937089 0.9950 0.9950 0.9950 0.9950 0.9950
1910.332703 0.9950 0.9950 0.9950 0.9950 0.9950
1914.728318 0.9950 0.9950 0.9950 0.9950 0.9950
1919.123932 0.9940 0.9940 0.9940 0.9930 0.9930
1923.519546 0.9930 0.9930 0.9930 0.9910 0.9900
1927.915160 0.9890 0.9870 0.9860 0.9840 0.9840
1932.310775 0.9820 0.9820 0.9820 0.9820 0.9820
1936.706389 0.9800 0.9800 0.9790 0.9780 0.9720
1941.102003 0.9679 0.9510 0.9350 0.9350 0.9350
1945.497618 0.9390 0.9540 0.9640 0.9690 0.9780
1949.893232 0.9780 0.9780 0.9790 0.9820 0.9820
1954.288846 0.9820 0.9820 0.9800 0.9790 0.9780
1958.684460 0.9760 0.9750 0.9730 0.9730 0.9780
1963.080075 0.9790 0.9820 0.9820 0.9830 0.9840
1967.475689 0.9860 0.9860 0.9860 0.9860 0.9870
1971.871303 0.9870 0.9890 0.9890 0.9870 0.9870
1976.266918 0.9870 0.9870 0.9860 0.9860 0.9860
1980.662532 0.9840 0.9840 0.9840 0.9830 0.9830
1985.058146 0.9830 0.9830 0.9830 0.9830 0.9800
1989.453761 0.9800 0.9800 0.9800 0.9800 0.9830
1993.849375 0.9830 0.9830 0.9830 0.9820 0.9820
1998.244989 0.9800 0.9790 0.9710 0.9700 0.9690
2002.640603 0.9700 0.9710 0.9715 0.9720 0.9725
2007.036218 0.9730 0.9730 0.9730 0.9740 0.9750
2011.431832 0.9755 0.9760 0.9760 0.9760 0.9760
2015.827446 0.9760 0.9770 0.9780 0.9780 0.9780
2020.223061 0.9785 0.9790 0.9790 0.9790 0.9790
2024.618675 0.9790 0.9795 0.9800 0.9800 0.9800
2029.014289 0.9800 0.9800 0.9800 0.9800 0.9800
2033.409903 0.9801 0.9811 0.9820 0.9820 0.9820
2037.805518 0.9820 0.9820 0.9820 0.9820 0.9820
2042.201132 0.9820 0.9820 0.9820 0.9820 0.9820
2046.596746 0.9820 0.9820 0.9820 0.9820 0.9820
2050.992361 0.9820 0.9820 0.9820 0.9820 0.9820
2055.387975 0.9820 0.9820 0.9820 0.9820 0.9820
2059.783589 0.9820 0.9820 0.9820 0.9820 0.9820
2064.179204 0.9820 0.9820 0.9820 0.9820 0.9820
2068.574818 0.9820 0.9820 0.9820 0.9820 0.9820
2072.970432 0.9820 0.9820 0.9820 0.9820 0.9820
2077.366046 0.9820 0.9820 0.9821 0.9826 0.9830
2081.761661 0.9830 0.9830 0.9830 0.9830 0.9830
2086.157275 0.9831 0.9836 0.9840 0.9840 0.9840
2090.552889 0.9840 0.9840 0.9840 0.9842 0.9852
2094.948504 0.9860 0.9860 0.9860 0.9860 0.9860
2099.344118 0.9860 0.9860 0.9860 0.9860 0.9860
2103.739732 0.9860 0.9860 0.9860 0.9860 0.9860
2108.135347 0.9860 0.9857 0.9847 0.9840 0.9840
2112.530961 0.9840 0.9840 0.9840 0.9840 0.9839
2116.926575 0.9834 0.9830 0.9830 0.9830 0.9830
2121.322189 0.9830 0.9830 0.9830 0.9830 0.9830
2125.717804 0.9830 0.9830 0.9830 0.9830 0.9830
2130.113418 0.9830 0.9830 0.9828 0.9823 0.9820
2134.509032 0.9820 0.9820 0.9820 0.9820 0.9820
2138.904647 0.9820 0.9820 0.9820 0.9820 0.9820
2143.300261 0.9820 0.9820 0.9820 0.9816 0.9806
2147.695875 0.9800 0.9800 0.9800 0.9800 0.9798
2152.091489 0.9793 0.9790 0.9790 0.9790 0.9790
2156.487104 0.9790 0.9790 0.9788 0.9783 0.9780
2160.882718 0.9780 0.9780 0.9780 0.9774 0.9759
2165.278332 0.9746 0.9736 0.9726 0.9716 0.9704
2169.673947 0.9689 0.9678 0.9673 0.9649 0.9599
2174.069561 0.9561 0.9541 0.9530 0.9530 0.9532
2178.465175 0.9537 0.9544 0.9555 0.9565 0.9575
2182.860790 0.9589 0.9609 0.9627 0.9642 0.9655
2187.256404 0.9665 0.9670 0.9670 0.9670 0.9670
2191.652018 0.9672 0.9677 0.9678 0.9673 0.9672
2196.047632 0.9677 0.9680 0.9680 0.9680 0.9680
2200.443247 0.9680 0.9680 0.9680 0.9680 0.9680
2204.838861 0.9680 0.9680 0.9680 0.9680 0.9680
2209.234475 0.9680 0.9680 0.9680 0.9680 0.9677
2213.630090 0.9672 0.9670 0.9670 0.9670 0.9670
2218.025704 0.9665 0.9655 0.9650 0.9650 0.9650
2222.421318 0.9650 0.9647 0.9642 0.9640 0.9640
2226.816932 0.9640 0.9640 0.9634 0.9624 0.9617
2231.212547 0.9612 0.9610 0.9610 0.9607 0.9602
2235.608161 0.9600 0.9600 0.9594 0.9584 0.9580
2240.003775 0.9580 0.9577 0.9572 0.9570 0.9570
2244.399390 0.9567 0.9562 0.9554 0.9544 0.9540
2248.795004 0.9540 0.9540 0.9540 0.9540 0.9540
2253.190618 0.9537 0.9532 0.9530 0.9530 0.9530
2257.586233 0.9530 0.9524 0.9514 0.9507 0.9502
2261.981847 0.9500 0.9500 0.9497 0.9492 0.9490
2266.377461 0.9490 0.9483 0.9473 0.9470 0.9470
2270.773075 0.9467 0.9462 0.9460 0.9460 0.9457
2275.168690 0.9452 0.9443 0.9433 0.9430 0.9430
2279.564304 0.9427 0.9421 0.9420 0.9420 0.9420
2283.959918 0.9420 0.9409 0.9394 0.9379 0.9364
2288.355533 0.9360 0.9360 0.9353 0.9343 0.9333
2292.751147 0.9323 0.9316 0.9311 0.9310 0.9310
2297.146761 0.9310 0.9310 0.9310 0.9310 0.9314
2301.542375 0.9319 0.9328 0.9338 0.9340 0.9340
2305.937990 0.9344 0.9349 0.9350 0.9350 0.9354
2310.333604 0.9359 0.9360 0.9360 0.9360 0.9360
2314.729218 0.9360 0.9360 0.9360 0.9360 0.9360
2319.124833 0.9360 0.9360 0.9360 0.9360 0.9360
2323.520447 0.9360 0.9360 0.9360 0.9360 0.9360
2327.916061 0.9360 0.9360 0.9360 0.9360 0.9360
2332.311676 0.9360 0.9360 0.9360 0.9360 0.9360
2336.707290 0.9360 0.9360 0.9360 0.9368 0.9378
2341.102904 0.9380 0.9380 0.9380 0.9380 0.9380
2345.498518 0.9380 0.9380 0.9380 0.9380 0.9380
2349.894133 0.9384 0.9389 0.9390 0.9390 0.9390
2354.289747 0.9390 0.9390 0.9390 0.9390 0.9390
2358.685361 0.9390 0.9390 0.9394 0.9399 0.9400
2363.080976 0.9400 0.9409 0.9419 0.9420 0.9420
2367.476590 0.9420 0.9420 0.9420 0.9420 0.9420
2371.872204 0.9420 0.9420 0.9420 0.9420 0.9420
2376.267819 0.9420 0.9420 0.9411 0.9401 0.9400
2380.663433 0.9400 0.9395 0.9390 0.9385 0.9380
2385.059047 0.9366 0.9350 0.9335 0.9320 0.9305
2389.454661 0.9290 0.9290 0.9290 0.9290 0.9290
2393.850276 0.9285 0.9280 0.9280 0.9280 0.9280
2398.245890 0.9280 0.9280 0.9280 0.9280 0.9280
2402.641504 0.9275 0.9270 0.9270 0.9270 0.9270
2407.037119 0.9270 0.9270 0.9270 0.9275 0.9280
2411.432733 0.9280 0.9280 0.9280 0.9280 0.9280
2415.828347 0.9280 0.9280 0.9280 0.9280 0.9280
2420.223961 0.9280 0.9280 0.9285 0.9290 0.9290
2424.619576 0.9291 0.9301 0.9310 0.9310 0.9310
2429.015190 0.9315 0.9320 0.9320 0.9321 0.9331
2433.410804 0.9340 0.9340 0.9340 0.9340 0.9340
2437.806419 0.9345 0.9350 0.9350 0.9350 0.9350
2442.202033 0.9350 0.9350 0.9350 0.9350 0.9350
2446.597647 0.9350 0.9350 0.9350 0.9350 0.9350
2450.993262 0.9350 0.9350 0.9350 0.9350 0.9350
2455.388876 0.9350 0.9350 0.9350 0.9350 0.9350
2459.784490 0.9350 0.9350 0.9350 0.9350 0.9349
2464.180104 0.9344 0.9340 0.9340 0.9340 0.9340
2468.575719 0.9340 0.9340 0.9338 0.9328 0.9320
2472.971333 0.9320 0.9320 0.9320 0.9319 0.9314
2477.366947 0.9310 0.9310 0.9310 0.9310 0.9310
2481.762562 0.9310 0.9310 0.9310 0.9310 0.9310
2486.158176 0.9310 0.9310 0.9310 0.9310 0.9310
2490.553790 0.9310 0.9310 0.9310 0.9310 0.9310
2494.949404 0.9310 0.9310 0.9310 0.9310 0.9310
2499.345019 0.9310 0.9310 0.9310 0.9310 0.9310
2503.740633 0.9307 0.9297 0.9290 0.9290 0.9290
2508.136247 0.9290 0.9290 0.9290 0.9290 0.9290
2512.531862 0.9290 0.9290 0.9290 0.9290 0.9290
2516.927476 0.9290 0.9290 0.9290 0.9290 0.9290
2521.323090 0.9290 0.9290 0.9290 0.9290 0.9290
2525.718705 0.9290 0.9290 0.9290 0.9290 0.9290
2530.114319 0.9290 0.9290 0.9290 0.9290 0.9290
2534.509933 0.9290 0.9290 0.9290 0.9290 0.9290
2538.905547 0.9290 0.9290 0.9290 0.9290 0.9290
2543.301162 0.9290 0.9290 0.9290 0.9290 0.9290
2547.696776 0.9290 0.9290 0.9290 0.9290 0.9290
2552.092390 0.9290 0.9288 0.9283 0.9280 0.9280
2556.488005 0.9280 0.9280 0.9280 0.9280 0.9278
2560.883619 0.9273 0.9270 0.9270 0.9270 0.9270
2565.279233 0.9270 0.9270 0.9270 0.9270 0.9270
2569.674847 0.9270 0.9270 0.9270 0.9270 0.9270
2574.070462 0.9270 0.9270 0.9270 0.9270 0.9270
2578.466076 0.9270 0.9270 0.9270 0.9270 0.9270
2582.861690 0.9270 0.9270 0.9265 0.9255 0.9250
2587.257305 0.9250 0.9250 0.9250 0.9250 0.9250
2591.652919 0.9250 0.9250 0.9250 0.9250 0.9250
2596.048533 0.9250 0.9250 0.9250 0.9250 0.9250
2600.444148 0.9250 0.9250 0.9250 0.9250 0.9250
2604.839762 0.9250 0.9250 0.9250 0.9250 0.9250
2609.235376 0.9250 0.9250 0.9250 0.9250 0.9250
2613.630990 0.9250 0.9250 0.9250 0.9250 0.9250
2618.026605 0.9250 0.9250 0.9250 0.9250 0.9250
2622.422219 0.9250 0.9250 0.9250 0.9247 0.9242
2626.817833 0.9240 0.9240 0.9240 0.9240 0.9240
2631.213448 0.9240 0.9240 0.9240 0.9240 0.9240
2635.609062 0.9240 0.9240 0.9237 0.9232 0.9230
2640.004676 0.9230 0.9230 0.9230 0.9230 0.9230
2644.400291 0.9230 0.9230 0.9224 0.9214 0.9210
2648.795905 0.9210 0.9210 0.9210 0.9210 0.9210
2653.191519 0.9210 0.9210 0.9210 0.9210 0.9210
2657.587133 0.9210 0.9207 0.9202 0.9200 0.9200
2661.982748 0.9200 0.9200 0.9200 0.9200 0.9200
2666.378362 0.9200 0.9193 0.9183 0.9180 0.9180
2670.773976 0.9180 0.9180 0.9180 0.9180 0.9177
2675.169591 0.9172 0.9170 0.9170 0.9170 0.9170
2679.565205 0.9167 0.9162 0.9160 0.9160 0.9160
2683.960819 0.9160 0.9153 0.9143 0.9140 0.9140
2688.356433 0.9136 0.9131 0.9130 0.9130 0.9130
2692.752048 0.9130 0.9130 0.9130 0.9130 0.9130
2697.147662 0.9130 0.9130 0.9130 0.9130 0.9130
2701.543276 0.9130 0.9130 0.9130 0.9130 0.9130
2705.938891 0.9130 0.9130 0.9130 0.9130 0.9130
2710.334505 0.9130 0.9130 0.9130 0.9130 0.9130
2714.730119 0.9130 0.9130 0.9130 0.9130 0.9130
2719.125734 0.9130 0.9130 0.9130 0.9130 0.9130
2723.521348 0.9126 0.9121 0.9120 0.9120 0.9120
2727.916962 0.9120 0.9120 0.9120 0.9120 0.9120
2732.312576 0.9120 0.9120 0.9112 0.9102 0.9100
2736.708191 0.9100 0.9100 0.9100 0.9096 0.9091
2741.103805 0.9090 0.9090 0.9090 0.9090 0.9081
2745.499419 0.9071 0.9070 0.9070 0.9070 0.9070
2749.895034 0.9066 0.9061 0.9060 0.9060 0.9060
2754.290648 0.9060 0.9056 0.9051 0.9050 0.9050
2758.686262 0.9041 0.9031 0.9030 0.9030 0.9030
2763.081876 0.9030 0.9030 0.9030 0.9025 0.9020
2767.477491 0.9020 0.9020 0.9020 0.9020 0.9020
2771.873105 0.9020 0.9015 0.9010 0.9010 0.9010
2776.268719 0.9001 0.8991 0.8990 0.8990 0.8990
2780.664334 0.8990 0.8990 0.8990 0.8985 0.8980
2785.059948 0.8980 0.8980 0.8980 0.8980 0.8970
2789.455562 0.8960 0.8960 0.8960 0.8960 0.8960
2793.851177 0.8955 0.8950 0.8950 0.8950 0.8950
2798.246791 0.8950 0.8935 0.8920 0.8920 0.8920
2802.642405 0.8915 0.8910 0.8905 0.8900 0.8900
2807.038019 0.8900 0.8890 0.8880 0.8880 0.8880
2811.433634 0.8875 0.8870 0.8870 0.8870 0.8860
2815.829248 0.8850 0.8845 0.8840 0.8840 0.8839
2820.224862 0.8819 0.8800 0.8795 0.8790 0.8779
2824.620477 0.8770 0.8770 0.8770 0.8765 0.8760
2829.016091 0.8755 0.8750 0.8750 0.8749 0.8739
2833.411705 0.8730 0.8725 0.8719 0.8709 0.8700
2837.807319 0.8700 0.8700 0.8695 0.8690 0.8690
2842.202934 0.8688 0.8673 0.8659 0.8649 0.8638
2846.598548 0.8623 0.8609 0.8599 0.8587 0.8562
2850.994162 0.8536 0.8501 0.8463 0.8408 0.8354
2855.389777 0.8304 0.8259 0.8249 0.8240 0.8240
2859.785391 0.8240 0.8240 0.8240 0.8240 0.8240
2864.181005 0.8240 0.8241 0.8246 0.8252 0.8267
2868.576620 0.8281 0.8286 0.8293 0.8308 0.8323
2872.972234 0.8338 0.8354 0.8374 0.8390 0.8390
2877.367848 0.8391 0.8396 0.8400 0.8400 0.8400
2881.763462 0.8400 0.8402 0.8412 0.8420 0.8420
2886.159077 0.8420 0.8420 0.8420 0.8420 0.8420
2890.554691 0.8420 0.8418 0.8408 0.8396 0.8375
2894.950305 0.8356 0.8341 0.8329 0.8324 0.8316
2899.345920 0.8301 0.8285 0.8265 0.8244 0.8219
2903.741534 0.8194 0.8169 0.8147 0.8137 0.8126
2908.137148 0.8111 0.8092 0.8062 0.8033 0.8008
2912.532763 0.7974 0.7919 0.7858 0.7783 0.7708
2916.928377 0.7633 0.7559 0.7489 0.7418 0.7343
2921.323991 0.7262 0.7166 0.7068 0.6963 0.6888
2925.719605 0.6883 0.6880 0.6880 0.6882 0.6887
2930.115220 0.6908 0.6963 0.7028 0.7114 0.7199
2934.510834 0.7284 0.7369 0.7454 0.7524 0.7564
2938.906448 0.7604 0.7644 0.7675 0.7690 0.7731
2943.302063 0.7822 0.7892 0.7927 0.7957 0.7977
2947.697677 0.7992 0.7997 0.8004 0.8014 0.8022
2952.093291 0.8027 0.8028 0.8023 0.8008 0.7978
2956.488905 0.7954 0.7939 0.7864 0.7693 0.7582
2960.884520 0.7562 0.7548 0.7543 0.7542 0.7547
2965.280134 0.7573 0.7628 0.7721 0.7866 0.7956
2969.675748 0.7971 0.8008 0.8073 0.8140 0.8210
2974.071363 0.8263 0.8293 0.8314 0.8324 0.8330
2978.466977 0.8330 0.8334 0.8344 0.8359 0.8379
2982.862591 0.8397 0.8412 0.8420 0.8420 0.8420
2987.258206 0.8420 0.8420 0.8420 0.8420 0.8420
2991.653820 0.8415 0.8405 0.8390 0.8370 0.8334
2996.049434 0.8279 0.8243 0.8228 0.8225 0.8235
3000.445048 0.8250 0.8270 0.8293 0.8318 0.8330
3004.840663 0.8330 0.8330 0.8330 0.8330 0.8330
3009.236277 0.8325 0.8315 0.8294 0.8264 0.8174
3013.631891 0.8029 0.7884 0.7738 0.7611 0.7500
3018.027506 0.7417 0.7357 0.7269 0.7159 0.7049
3022.423120 0.6939 0.6890 0.6890 0.6887 0.6882
3026.818734 0.6883 0.6888 0.7065 0.7376 0.7598
3031.214348 0.7753 0.7943 0.8158 0.8282 0.8337
3035.609963 0.8384 0.8424 0.8458 0.8488 0.8500
3040.005577 0.8500 0.8494 0.8484 0.8335 0.8095
3044.401191 0.7994 0.7984 0.7980 0.7980 0.7980
3048.796806 0.7980 0.7980 0.7980 0.7912 0.7800
3053.192420 0.7690 0.7580 0.7473 0.7368 0.7285
3057.588034 0.7215 0.7167 0.7132 0.7114 0.7104
3061.983649 0.7103 0.7108 0.7387 0.7813 0.8003
3066.379263 0.8068 0.8143 0.8223 0.8250 0.8250
3070.774877 0.8240 0.8225 0.8028 0.7748 0.7646
3075.170491 0.7626 0.7648 0.7688 0.7780 0.7895
3079.566106 0.8024 0.8159 0.8245 0.8310 0.8389
3083.961720 0.8475 0.8500 0.8500 0.8500 0.8500
3088.357334 0.8500 0.8500 0.8489 0.8474 0.8466
3092.752949 0.8461 0.8438 0.8408 0.8371 0.8330
3097.148563 0.8309 0.8294 0.8301 0.8316 0.8402
3101.544177 0.8512 0.8551 0.8566 0.8574 0.8579
3105.939791 0.8584 0.8589 0.8590 0.8590 0.8598
3110.335406 0.8608 0.8610 0.8610 0.8610 0.8610
3114.731020 0.8610 0.8610 0.8610 0.8610 0.8602
3119.126634 0.8592 0.8590 0.8590 0.8590 0.8590
3123.522249 0.8586 0.8581 0.8576 0.8571 0.8570
3127.917863 0.8570 0.8570 0.8570 0.8570 0.8570
3132.313477 0.8570 0.8570 0.8562 0.8552 0.8550
3136.709092 0.8550 0.8550 0.8550 0.8550 0.8550
3141.104706 0.8550 0.8550 0.8546 0.8541 0.8540
3145.500320 0.8540 0.8536 0.8531 0.8530 0.8530
3149.895934 0.8530 0.8530 0.8530 0.8530 0.8521
3154.291549 0.8511 0.8510 0.8510 0.8510 0.8510
3158.687163 0.8510 0.8510 0.8505 0.8500 0.8500
3163.082777 0.8500 0.8500 0.8500 0.8491 0.8481
3167.478392 0.8480 0.8480 0.8480 0.8480 0.8480
3171.874006 0.8480 0.8480 0.8480 0.8475 0.8470
3176.269620 0.8470 0.8470 0.8465 0.8460 0.8460
3180.665235 0.8460 0.8450 0.8440 0.8440 0.8440
3185.060849 0.8430 0.8420 0.8420 0.8420 0.8420
3189.456463 0.8420 0.8420 0.8420 0.8410 0.8400
3193.852077 0.8400 0.8400 0.8395 0.8390 0.8390
3198.247692 0.8390 0.8390 0.8390 0.8390 0.8390
3202.643306 0.8390 0.8390 0.8390 0.8390 0.8390
3207.038920 0.8390 0.8390 0.8390 0.8380 0.8370
3211.434535 0.8370 0.8370 0.8370 0.8370 0.8370
3215.830149 0.8370 0.8365 0.8360 0.8360 0.8360
3220.225763 0.8360 0.8360 0.8355 0.8350 0.8350
3224.621377 0.8349 0.8339 0.8330 0.8330 0.8330
3229.016992 0.8330 0.8330 0.8325 0.8320 0.8320
3233.412606 0.8320 0.8320 0.8320 0.8315 0.8310
3237.808220 0.8310 0.8310 0.8310 0.8309 0.8299
3242.203835 0.8290 0.8290 0.8290 0.8290 0.8289
3246.599449 0.8284 0.8279 0.8269 0.8260 0.8260
3250.995063 0.8259 0.8254 0.8250 0.8250 0.8249
3255.390678 0.8244 0.8240 0.8240 0.8239 0.8229
3259.786292 0.8219 0.8214 0.8210 0.8210 0.8209
3264.181906 0.8204 0.8200 0.8200 0.8197 0.8182
3268.577520 0.8170 0.8170 0.8170 0.8170 0.8170
3272.973135 0.8170 0.8168 0.8158 0.8150 0.8150
3277.368749 0.8150 0.8150 0.8149 0.8144 0.8139
3281.764363 0.8134 0.8130 0.8130 0.8130 0.8130
3286.159978 0.8128 0.8118 0.8110 0.8110 0.8110
3290.555592 0.8110 0.8109 0.8104 0.8100 0.8100
3294.951206 0.8099 0.8094 0.8090 0.8090 0.8090
3299.346820 0.8090 0.8090 0.8090 0.8090 0.8090
3303.742435 0.8090 0.8090 0.8090 0.8090 0.8090
3308.138049 0.8090 0.8090 0.8090 0.8087 0.8077
3312.533663 0.8069 0.8064 0.8060 0.8060 0.8060
3316.929278 0.8060 0.8057 0.8047 0.8040 0.8040
3321.324892 0.8038 0.8033 0.8030 0.8030 0.8028
3325.720506 0.8023 0.8020 0.8020 0.8017 0.8007
3330.116121 0.8000 0.8000 0.7998 0.7993 0.7988
3334.511735 0.7983 0.7980 0.7980 0.7980 0.7980
3338.907349 0.7980 0.7980 0.7976 0.7966 0.7960
3343.302963 0.7960 0.7958 0.7953 0.7950 0.7950
3347.698578 0.7950 0.7950 0.7950 0.7950 0.7950
3352.094192 0.7950 0.7946 0.7936 0.7930 0.7930
3356.489806 0.7930 0.7930 0.7928 0.7923 0.7920
3360.885421 0.7920 0.7920 0.7920 0.7920 0.7920
3365.281035 0.7918 0.7913 0.7910 0.7910 0.7910
3369.676649 0.7910 0.7906 0.7896 0.7890 0.7890
3374.072263 0.7888 0.7883 0.7880 0.7880 0.7880
3378.467878 0.7880 0.7878 0.7873 0.7870 0.7870
3382.863492 0.7870 0.7870 0.7865 0.7855 0.7850
3387.259106 0.7850 0.7850 0.7850 0.7848 0.7843
3391.654721 0.7835 0.7825 0.7820 0.7820 0.7820
3396.050335 0.7820 0.7818 0.7813 0.7812 0.7817
3400.445949 0.7818 0.7813 0.7810 0.7810 0.7807
3404.841564 0.7802 0.7795 0.7785 0.7780 0.7780
3409.237178 0.7780 0.7780 0.7780 0.7780 0.7780
3413.632792 0.7780 0.7780 0.7780 0.7780 0.7780
3418.028406 0.7780 0.7780 0.7780 0.7780 0.7780
3422.424021 0.7780 0.7780 0.7780 0.7780 0.7780
3426.819635 0.7780 0.7780 0.7780 0.7780 0.7780
3431.215249 0.7780 0.7780 0.7780 0.7777 0.7772
3435.610864 0.7770 0.7770 0.7770 0.7770 0.7770
3440.006478 0.7770 0.7767 0.7762 0.7760 0.7760
3444.402092 0.7760 0.7760 0.7754 0.7744 0.7740
3448.797707 0.7740 0.7737 0.7732 0.7730 0.7730
3453.193321 0.7730 0.7730 0.7724 0.7714 0.7710
3457.588935 0.7710 0.7710 0.7710 0.7707 0.7702
3461.984549 0.7697 0.7692 0.7690 0.7690 0.7690
3466.380164 0.7690 0.7690 0.7690 0.7690 0.7690
3470.775778 0.7690 0.7690 0.7690 0.7690 0.7683
3475.171392 0.7673 0.7670 0.7670 0.7670 0.7670
3479.567007 0.7670 0.7670 0.7670 0.7670 0.7666
3483.962621 0.7661 0.7660 0.7660 0.7660 0.7660
3488.358235 0.7660 0.7660 0.7660 0.7660 0.7660
3492.753849 0.7660 0.7660 0.7660 0.7660 0.7660
3497.149464 0.7660 0.7660 0.7660 0.7660 0.7660
3501.545078 0.7660 0.7660 0.7660 0.7660 0.7660
3505.940692 0.7660 0.7660 0.7656 0.7651 0.7650
3510.336307 0.7650 0.7650 0.7650 0.7650 0.7650
3514.731921 0.7650 0.7650 0.7650 0.7650 0.7650
3519.127535 0.7650 0.7642 0.7632 0.7630 0.7630
3523.523150 0.7630 0.7630 0.7630 0.7630 0.7626
3527.918764 0.7621 0.7620 0.7620 0.7620 0.7620
3532.314378 0.7620 0.7620 0.7620 0.7620 0.7620
3536.709992 0.7620 0.7620 0.7620 0.7620 0.7620
3541.105607 0.7620 0.7620 0.7620 0.7620 0.7620
3545.501221 0.7620 0.7620 0.7620 0.7620 0.7620
3549.896835 0.7620 0.7620 0.7620 0.7620 0.7611
3554.292450 0.7601 0.7600 0.7600 0.7600 0.7600
3558.688064 0.7600 0.7600 0.7596 0.7590 0.7590
3563.083678 0.7590 0.7590 0.7590 0.7590 0.7590
3567.479292 0.7590 0.7590 0.7585 0.7580 0.7580
3571.874907 0.7580 0.7580 0.7580 0.7580 0.7580
3576.270521 0.7580 0.7580 0.7580 0.7580 0.7570
3580.666135 0.7560 0.7560 0.7560 0.7560 0.7560
3585.061750 0.7560 0.7560 0.7555 0.7550 0.7550
3589.457364 0.7550 0.7550 0.7550 0.7550 0.7550
3593.852978 0.7545 0.7540 0.7530 0.7520 0.7520
3598.248593 0.7520 0.7520 0.7520 0.7520 0.7520
3602.644207 0.7520 0.7520 0.7520 0.7520 0.7520
3607.039821 0.7520 0.7520 0.7520 0.7520 0.7520
3611.435435 0.7515 0.7510 0.7510 0.7510 0.7510
3615.831050 0.7510 0.7510 0.7510 0.7510 0.7510
3620.226664 0.7510 0.7510 0.7510 0.7510 0.7505
3624.622278 0.7500 0.7500 0.7500 0.7500 0.7500
3629.017893 0.7500 0.7500 0.7500 0.7500 0.7500
3633.413507 0.7499 0.7489 0.7480 0.7480 0.7480
3637.809121 0.7480 0.7480 0.7475 0.7470 0.7470
3642.204736 0.7470 0.7470 0.7469 0.7459 0.7449
3646.600350 0.7444 0.7440 0.7440 0.7440 0.7440
3650.995964 0.7440 0.7440 0.7440 0.7440 0.7440
3655.391578 0.7440 0.7439 0.7434 0.7430 0.7430
3659.787193 0.7430 0.7430 0.7430 0.7430 0.7429
3664.182807 0.7418 0.7410 0.7410 0.7410 0.7410
3668.578421 0.7410 0.7410 0.7410 0.7410 0.7410
3672.974036 0.7410 0.7410 0.7410 0.7410 0.7410
3677.369650 0.7410 0.7410 0.7410 0.7410 0.7410
3681.765264 0.7410 0.7410 0.7410 0.7409 0.7404
3686.160878 0.7400 0.7400 0.7400 0.7400 0.7399
3690.556493 0.7394 0.7390 0.7390 0.7390 0.7390
3694.952107 0.7390 0.7390 0.7390 0.7390 0.7388
3699.347721 0.7378 0.7370 0.7370 0.7370 0.7370
3703.743336 0.7369 0.7364 0.7360 0.7360 0.7360
3708.138950 0.7360 0.7360 0.7360 0.7357 0.7347
3712.534564 0.7339 0.7334 0.7330 0.7330 0.7330
3716.930179 0.7330 0.7330 0.7330 0.7330 0.7330
3721.325793 0.7330 0.7330 0.7330 0.7330 0.7328
3725.721407 0.7323 0.7320 0.7320 0.7320 0.7320
3730.117021 0.7320 0.7320 0.7317 0.7307 0.7300
3734.512636 0.7300 0.7298 0.7293 0.7290 0.7290
3738.908250 0.7290 0.7290 0.7290 0.7290 0.7288
3743.303864 0.7283 0.7280 0.7280 0.7276 0.7266
3747.699479 0.7260 0.7260 0.7260 0.7260 0.7260
3752.095093 0.7260 0.7260 0.7260 0.7258 0.7253
3756.490707 0.7250 0.7250 0.7250 0.7250 0.7250
3760.886321 0.7250 0.7246 0.7236 0.7230 0.7230
3765.281936 0.7230 0.7230 0.7228 0.7223 0.7220
3769.677550 0.7220 0.7220 0.7220 0.7220 0.7220
3774.073164 0.7220 0.7220 0.7218 0.7213 0.7210
3778.468779 0.7210 0.7210 0.7210 0.7210 0.7210
3782.864393 0.7205 0.7195 0.7190 0.7190 0.7190
3787.260007 0.7190 0.7190 0.7190 0.7188 0.7183
3791.655622 0.7180 0.7180 0.7180 0.7180 0.7178
3796.051236 0.7173 0.7170 0.7170
##END=
