##TITLE=9,10-DIMETHYLANTHRACENE
##JCAMP-DX=4.24
##DATA TYPE=INFRARED SPECTRUM
##CLASS=COBLENTZ III
##ORIGIN=DOW CHEMICAL COMPANY
##OWNER=COBLENTZ SOCIETY
Collection (C) 2018 copyright by the U.S. Secretary of Commerce
on behalf of the United States of America. All rights reserved.
##DATE=1966/04/04
##CAS REGISTRY NO=781-43-1
##MOLFORM=C16 H14
##SOURCE REFERENCE=COBLENTZ NO. 7473
##$NIST SOURCE=COBLENTZ
##$NIST IMAGE=cob7473
##SPECTROMETER/DATA SYSTEM=DOW KBr FOREPRISM-GRATING
##INSTRUMENT PARAMETERS=BLAZED AT 3.5, 12.0, 20.0 MICRON AND CHANGED AT 5.0, 7.5, 14.9 MICRON
##STATE=SOLID (SPLIT MULL), FLUOROLUBE FOR 3800-1330 CM^-^1, NUJOL FOR 1330-400 CM^-^1
$$SEE SPECTRUM NO. 3565 FOR "KBr DISC" RUN
##SAMPLING PROCEDURE=TRANSMISSION
##RESOLUTION=2
##DATA PROCESSING=DIGITIZED BY NIST FROM HARD COPY (FROM TWO SEGMENTS)
##XUNITS=1/CM
##YUNITS=TRANSMITTANCE
##XFACTOR=1.000000
##YFACTOR=1
##DELTAX=0.889549
##FIRSTX=383.692
##LASTX=3801.34
##FIRSTY=0.888
##MAXX=3801.34
##MINX=383.692
##MAXY=1.015
##MINY=0.0730318
##NPOINTS=3843
##XYDATA=(X++(Y..Y))
383.692000 0.8880 0.8880 0.8890 0.8910 0.8910
388.139747 0.8920 0.8920 0.8940 0.8950 0.8960
392.587494 0.8980 0.8990 0.9010 0.9010 0.9020
397.035241 0.9020 0.9030 0.9050 0.9060 0.9060
401.482988 0.9080 0.9090 0.9100 0.9130 0.9150
405.930735 0.9170 0.9170 0.9170 0.9190 0.9200
410.378482 0.9220 0.9230 0.9230 0.9240 0.9260
414.826229 0.9280 0.9300 0.9310 0.9330 0.9340
419.273976 0.9350 0.9380 0.9400 0.9410 0.9420
423.721723 0.9440 0.9440 0.9450 0.9470 0.9470
428.169470 0.9480 0.9480 0.9490 0.9490 0.9520
432.617217 0.9540 0.9540 0.9550 0.9560 0.9590
437.064964 0.9590 0.9610 0.9610 0.9610 0.9620
441.512711 0.9630 0.9630 0.9650 0.9660 0.9670
445.960458 0.9670 0.9690 0.9690 0.9700 0.9700
450.408205 0.9720 0.9730 0.9740 0.9760 0.9760
454.855952 0.9770 0.9770 0.9790 0.9790 0.9830
459.303699 0.9830 0.9840 0.9860 0.9870 0.9880
463.751446 0.9880 0.9880 0.9900 0.9900 0.9910
468.199193 0.9930 0.9930 0.9930 0.9930 0.9940
472.646940 0.9950 0.9950 0.9970 0.9970 0.9980
477.094687 0.9980 0.9980 0.9980 0.9980 0.9980
481.542434 0.9980 0.9980 0.9980 0.9980 1.0000
485.990181 1.0010 1.0010 1.0000 1.0010 1.0020
490.437928 1.0020 1.0040 1.0040 1.0040 1.0040
494.885675 1.0040 1.0040 1.0040 1.0040 1.0040
499.333422 1.0020 1.0020 1.0010 1.0000 1.0000
503.781169 1.0000 1.0010 1.0010 1.0010 1.0010
508.228916 1.0020 1.0050 1.0050 1.0050 1.0050
512.676663 1.0020 1.0000 0.9980 0.9970 0.9970
517.124410 0.9970 0.9970 0.9950 0.9950 0.9950
521.572157 0.9940 0.9930 0.9930 0.9910 0.9910
526.019904 0.9910 0.9930 0.9940 0.9940 0.9950
530.467651 0.9950 0.9950 0.9950 0.9970 0.9970
534.915398 0.9970 0.9970 0.9970 0.9970 0.9970
539.363145 0.9970 0.9950 0.9930 0.9930 0.9930
543.810892 0.9930 0.9930 0.9940 0.9940 0.9940
548.258639 0.9930 0.9930 0.9910 0.9900 0.9900
552.706386 0.9900 0.9900 0.9900 0.9900 0.9900
557.154133 0.9900 0.9910 0.9900 0.9900 0.9900
561.601880 0.9900 0.9870 0.9860 0.9830 0.9800
566.049627 0.9770 0.9740 0.9700 0.9670 0.9650
570.497374 0.9620 0.9200 0.8850 0.8530 0.7951
574.945121 0.7571 0.7201 0.6881 0.6741 0.6541
579.392868 0.6350 0.6320 0.6330 0.8988 0.9400
583.840615 0.9610 0.9730 0.9800 0.9830 0.9860
588.288362 0.9860 0.9870 0.9880 0.9880 0.9870
592.736109 0.9830 0.9740 0.9591 0.9132 0.8324
597.183856 0.7719 0.7110 0.7080 0.8279 1.0048
601.631604 1.0090 1.0130 1.0130 1.0130 1.0130
606.079351 1.0130 1.0150 1.0150 1.0150 1.0150
610.527098 1.0150 1.0130 1.0130 1.0130 1.0120
614.974845 1.0120 1.0130 1.0130 1.0120 1.0120
619.422592 1.0110 1.0090 1.0090 1.0090 1.0090
623.870339 1.0090 1.0090 1.0090 1.0110 1.0110
628.318086 1.0120 1.0120 1.0130 1.0130 1.0130
632.765833 1.0130 1.0130 1.0130 1.0130 1.0130
637.213580 1.0130 1.0130 1.0130 1.0130 1.0130
641.661327 1.0130 1.0130 1.0130 1.0130 1.0130
646.109074 1.0130 1.0120 1.0120 1.0120 1.0120
650.556821 1.0120 1.0110 1.0110 1.0110 1.0110
655.004568 1.0090 1.0090 1.0090 1.0080 1.0080
659.452315 1.0080 1.0060 1.0060 1.0050 1.0050
663.900062 1.0050 1.0040 1.0040 1.0020 1.0010
668.347809 1.0010 1.0010 1.0000 1.0000 0.9980
672.795556 0.9980 0.9970 0.9970 0.9940 0.9940
677.243303 0.9940 0.9930 0.9930 0.9910 0.9910
681.691050 0.9910 0.9900 0.9900 0.9880 0.9870
686.138797 0.9870 0.9860 0.9860 0.9840 0.9840
690.586544 0.9830 0.9800 0.9790 0.9770 0.9740
695.034291 0.9730 0.9720 0.9700 0.9690 0.9670
699.482038 0.9660 0.9630 0.9610 0.9580 0.9550
703.929785 0.9520 0.9490 0.9480 0.9450 0.9420
708.377532 0.9400 0.9370 0.9330 0.9200 0.9120
712.825279 0.9080 0.9020 0.8940 0.8840 0.8740
717.273026 0.8640 0.8560 0.8480 0.8420 0.8380
721.720773 0.8370 0.8370 0.8350 0.8340 0.8340
726.168520 0.8320 0.8310 0.8300 0.8230 0.7792
730.616267 0.7670 0.7530 0.7360 0.7280 0.7220
735.064014 0.7180 0.7100 0.6960 0.6711 0.6321
739.511761 0.6000 0.5570 0.4520 0.3481 0.2861
743.959508 0.2251 0.1542 0.0822 0.0730 0.1218
748.407255 0.1931 0.2630 0.2930 0.3000 0.3020
752.855002 0.2710 0.2131 0.1033 0.1000 0.1010
757.302749 0.2252 0.4371 0.7839 0.7850 0.7850
761.750496 0.7850 0.7850 0.7850 0.7860 0.8139
766.198243 0.8271 0.8770 0.9100 0.9280 0.9330
770.645990 0.9340 0.9370 0.9380 0.9410 0.9420
775.093737 0.9440 0.9450 0.9470 0.9470 0.9480
779.541484 0.9480 0.9480 0.9490 0.9510 0.9510
783.989231 0.9520 0.9520 0.9510 0.9510 0.9510
788.436978 0.9510 0.9510 0.9490 0.9470 0.9470
792.884725 0.9470 0.9470 0.9480 0.9510 0.9510
797.332472 0.9510 0.9480 0.9480 0.9470 0.9470
801.780219 0.9450 0.9440 0.9440 0.9440 0.9420
806.227966 0.9400 0.9380 0.9370 0.9340 0.9270
810.675713 0.9160 0.9060 0.9050 0.8990 0.8830
815.123460 0.8660 0.8630 0.8640 0.8809 0.8910
819.571207 0.9060 0.9190 0.9260 0.9330 0.9330
824.018954 0.9330 0.9330 0.9330 0.9330 0.9330
828.466701 0.9330 0.9330 0.9310 0.9310 0.9310
832.914448 0.9300 0.9280 0.9260 0.9260 0.9240
837.362195 0.9230 0.9220 0.9200 0.9190 0.9170
841.809942 0.9150 0.8661 0.8640 0.8690 0.8949
846.257689 0.9190 0.9200 0.9220 0.9230 0.9230
850.705436 0.9230 0.9230 0.9230 0.9230 0.9230
855.153183 0.9230 0.9230 0.9220 0.9200 0.9190
859.600930 0.9170 0.9160 0.9150 0.9120 0.9120
864.048677 0.9120 0.9120 0.9120 0.9120 0.9120
868.496424 0.9120 0.9120 0.9120 0.9100 0.9080
872.944171 0.9030 0.9020 0.9020 0.9020 0.9030
877.391918 0.9050 0.9060 0.9050 0.9030 0.9020
881.839665 0.8990 0.8980 0.8980 0.8980 0.8960
886.287412 0.8960 0.8950 0.8950 0.8940 0.8920
890.735159 0.8940 0.8940 0.8940 0.8940 0.8940
895.182906 0.8940 0.8940 0.8940 0.8940 0.8940
899.630653 0.8940 0.8940 0.8940 0.8940 0.8940
904.078400 0.8940 0.8940 0.8940 0.8920 0.8920
908.526147 0.8920 0.8920 0.8910 0.8890 0.8870
912.973894 0.8870 0.8850 0.8850 0.8850 0.8850
917.421641 0.8850 0.8840 0.8840 0.8840 0.8840
921.869388 0.8840 0.8830 0.8810 0.8780 0.8780
926.317135 0.8780 0.8770 0.8770 0.8770 0.8760
930.764882 0.8760 0.8760 0.8740 0.8740 0.8740
935.212629 0.8730 0.8730 0.8730 0.8710 0.8710
939.660376 0.8710 0.8700 0.8690 0.8670 0.8660
944.108123 0.8640 0.8590 0.8530 0.8350 0.8300
948.555870 0.8380 0.8530 0.8590 0.8620 0.8630
953.003617 0.8630 0.8630 0.8630 0.8630 0.8630
957.451364 0.8620 0.8600 0.8570 0.8560 0.8560
961.899111 0.8550 0.8530 0.8520 0.8500 0.8490
966.346858 0.8460 0.8460 0.8450 0.8450 0.8450
970.794605 0.8440 0.8420 0.8410 0.8380 0.8370
975.242352 0.8370 0.8350 0.8340 0.8300 0.8280
979.690099 0.8230 0.8160 0.8070 0.7990 0.7930
984.137846 0.7910 0.7880 0.7820 0.7810 0.7790
988.585593 0.7780 0.7790 0.7950 0.8060 0.8170
993.033340 0.8280 0.8340 0.8370 0.8390 0.8390
997.481087 0.8450 0.8460 0.8480 0.8480 0.8480
1001.928834 0.8480 0.8490 0.8490 0.8490 0.8490
1006.376581 0.8480 0.8460 0.8440 0.8420 0.8390
1010.824328 0.8390 0.8370 0.8370 0.8370 0.8350
1015.272075 0.8300 0.8240 0.8170 0.8140 0.8060
1019.719822 0.7790 0.7431 0.7071 0.6970 0.5944
1024.167569 0.5910 0.5932 0.7750 0.8420 0.8440
1028.615317 0.8450 0.8450 0.8450 0.8450 0.8450
1033.063064 0.8450 0.8450 0.8450 0.8450 0.8450
1037.510811 0.8460 0.8460 0.8450 0.8420 0.8410
1041.958558 0.8380 0.8380 0.8380 0.8380 0.8380
1046.406305 0.8380 0.8380 0.8380 0.8380 0.8370
1050.854052 0.8350 0.8340 0.8310 0.8300 0.8300
1055.301799 0.8280 0.8280 0.8270 0.8250 0.8240
1059.749546 0.8210 0.8160 0.8160 0.8160 0.8160
1064.197293 0.8160 0.8170 0.8210 0.8240 0.8270
1068.645040 0.8280 0.8270 0.8270 0.8270 0.8270
1073.092787 0.8270 0.8270 0.8270 0.8270 0.8270
1077.540534 0.8270 0.8270 0.8270 0.8300 0.8300
1081.988281 0.8310 0.8310 0.8310 0.8310 0.8310
1086.436028 0.8310 0.8310 0.8310 0.8320 0.8320
1090.883775 0.8320 0.8320 0.8320 0.8340 0.8340
1095.331522 0.8340 0.8340 0.8340 0.8340 0.8350
1099.779269 0.8370 0.8370 0.8350 0.8350 0.8350
1104.227016 0.8350 0.8340 0.8340 0.8300 0.8280
1108.674763 0.8270 0.8270 0.8250 0.8240 0.8240
1113.122510 0.8240 0.8240 0.8240 0.8240 0.8240
1117.570257 0.8250 0.8250 0.8250 0.8250 0.8250
1122.018004 0.8240 0.8210 0.8210 0.8200 0.8200
1126.465751 0.8170 0.8160 0.8160 0.8160 0.8170
1130.913498 0.8170 0.8170 0.8170 0.8170 0.8170
1135.361245 0.8170 0.8170 0.8170 0.8170 0.8160
1139.808992 0.8140 0.8100 0.8070 0.8070 0.8060
1144.256739 0.8060 0.8020 0.7990 0.7930 0.7890
1148.704486 0.7880 0.7850 0.7850 0.7850 0.7860
1153.152233 0.7850 0.7850 0.7850 0.7840 0.7810
1157.599980 0.7790 0.7770 0.7750 0.7720 0.7630
1162.047727 0.7540 0.7450 0.7430 0.7420 0.7430
1166.495474 0.7470 0.7560 0.7630 0.7780 0.7790
1170.943221 0.7820 0.7880 0.7880 0.7890 0.7910
1175.390968 0.7910 0.7890 0.7890 0.7790 0.7720
1179.838715 0.7660 0.7560 0.7530 0.7530 0.7530
1184.286462 0.7490 0.7430 0.7420 0.7400 0.7420
1188.734209 0.7979 0.7960 0.7960 0.7960 0.7960
1193.181956 0.7960 0.7950 0.7950 0.7930 0.7930
1197.629703 0.7910 0.7910 0.7910 0.7910 0.7910
1202.077450 0.7910 0.7910 0.7910 0.7910 0.7890
1206.525197 0.7890 0.7880 0.7880 0.7860 0.7850
1210.972944 0.7850 0.7850 0.7850 0.7840 0.7820
1215.420691 0.7820 0.7810 0.7810 0.7790 0.7790
1219.868438 0.7780 0.7780 0.7750 0.7750 0.7750
1224.316185 0.7750 0.7750 0.7750 0.7750 0.7750
1228.763932 0.7750 0.7750 0.7750 0.7750 0.7750
1233.211679 0.7750 0.7750 0.7740 0.7720 0.7720
1237.659426 0.7720 0.7720 0.7720 0.7700 0.7680
1242.107173 0.7670 0.7640 0.7630 0.7610 0.7610
1246.554920 0.7610 0.7610 0.7610 0.7610 0.7610
1251.002667 0.7600 0.7600 0.7600 0.7590 0.7570
1255.450414 0.7520 0.7500 0.7490 0.7490 0.7470
1259.898161 0.7460 0.7450 0.7420 0.7420 0.7420
1264.345908 0.7420 0.7420 0.7420 0.7380 0.7360
1268.793655 0.7350 0.7330 0.7310 0.7280 0.7220
1273.241402 0.7170 0.7170 0.7180 0.7180 0.7270
1277.689149 0.7270 0.7270 0.7240 0.7220 0.7210
1282.136896 0.7220 0.7240 0.7250 0.7270 0.7240
1286.584643 0.7240 0.7220 0.7210 0.7210 0.7210
1291.032390 0.7210 0.7200 0.7180 0.7170 0.7140
1295.480137 0.7100 0.7080 0.7080 0.7080 0.7070
1299.927884 0.7070 0.7070 0.7060 0.7060 0.7060
1304.375631 0.7060 0.7040 0.7040 0.7040 0.7040
1308.823378 0.7040 0.7030 0.7030 0.7030 0.7030
1313.271125 0.7030 0.7040 0.7060 0.7060 0.7100
1317.718872 0.7100 0.7100 0.7100 0.7080 0.7060
1322.166619 0.7040 0.7040 0.7030 0.7030 0.7030
1326.614366 0.7030 0.7030 0.7030 0.7030 0.7040
1331.062113 0.7270 0.7280 0.7270 0.7240 0.7150
1335.509860 0.7110 0.7080 0.7080 0.7070 0.7060
1339.957607 0.7040 0.7030 0.7010 0.7000 0.6990
1344.405354 0.6970 0.6990 0.6990 0.6990 0.6990
1348.853101 0.6990 0.6970 0.6940 0.6930 0.6850
1353.300848 0.6830 0.6830 0.6850 0.6880 0.6900
1357.748595 0.6920 0.6930 0.6930 0.6691 0.6331
1362.196342 0.6180 0.6039 0.5720 0.5510 0.5300
1366.644089 0.5270 0.6159 0.6570 0.7169 0.7170
1371.091836 0.7110 0.6960 0.6680 0.6390 0.6360
1375.539583 0.6370 0.6460 0.6620 0.6899 0.6920
1379.987330 0.6920 0.6860 0.6720 0.6550 0.6350
1384.435077 0.6150 0.5960 0.5900 0.5870 0.5900
1388.882824 0.6000 0.6101 0.6471 0.7750 0.8000
1393.330571 0.8020 0.8090 0.8160 0.8160 0.8160
1397.778318 0.8160 0.8130 0.8110 0.8100 0.8070
1402.226065 0.8030 0.8000 0.7990 0.7990 0.7980
1406.673812 0.7980 0.7960 0.7930 0.7910 0.7890
1411.121559 0.7890 0.7880 0.7880 0.7860 0.7860
1415.569306 0.7860 0.7860 0.7860 0.7860 0.7850
1420.017053 0.7840 0.7820 0.7790 0.7770 0.7750
1424.464800 0.7740 0.7700 0.7640 0.7600 0.7590
1428.912547 0.7590 0.7570 0.7560 0.7560 0.7540
1433.360294 0.7540 0.7530 0.7530 0.7490 0.7460
1437.808041 0.7380 0.7290 0.7200 0.7080 0.6970
1442.255788 0.6850 0.6710 0.6540 0.6400 0.6370
1446.703535 0.6390 0.6969 0.8238 0.8300 0.8350
1451.151282 0.8370 0.8390 0.8390 0.8380 0.8380
1455.599030 0.8370 0.8350 0.8350 0.8350 0.8350
1460.046777 0.8350 0.8370 0.8350 0.8350 0.8350
1464.494524 0.8350 0.8350 0.8340 0.8340 0.8340
1468.942271 0.8340 0.8320 0.8310 0.8310 0.8310
1473.390018 0.8310 0.8310 0.8310 0.8310 0.8310
1477.837765 0.8310 0.8310 0.8310 0.8310 0.8310
1482.285512 0.8310 0.8310 0.8310 0.8310 0.8340
1486.733259 0.8340 0.8340 0.8340 0.8340 0.8340
1491.181006 0.8320 0.8310 0.8280 0.8250 0.8240
1495.628753 0.8230 0.8210 0.8210 0.8210 0.8210
1500.076500 0.8230 0.8240 0.8240 0.8240 0.8250
1504.524247 0.8270 0.8280 0.8300 0.8340 0.8340
1508.971994 0.8350 0.8350 0.8370 0.8380 0.8380
1513.419741 0.8380 0.8380 0.8380 0.8370 0.8350
1517.867488 0.8350 0.8320 0.8320 0.8240 0.8160
1522.315235 0.8070 0.8060 0.7960 0.7780 0.7780
1526.762982 0.7770 0.7740 0.7770 0.8069 0.8200
1531.210729 0.8300 0.8320 0.8350 0.8370 0.8390
1535.658476 0.8410 0.8440 0.8460 0.8490 0.8500
1540.106223 0.8500 0.8520 0.8530 0.8530 0.8530
1544.553970 0.8530 0.8530 0.8530 0.8530 0.8530
1549.001717 0.8530 0.8530 0.8530 0.8530 0.8530
1553.449464 0.8530 0.8530 0.8530 0.8530 0.8530
1557.897211 0.8530 0.8530 0.8520 0.8520 0.8520
1562.344958 0.8500 0.8490 0.8490 0.8490 0.8490
1566.792705 0.8490 0.8490 0.8490 0.8480 0.8480
1571.240452 0.8480 0.8480 0.8480 0.8460 0.8460
1575.688199 0.8450 0.8450 0.8420 0.8420 0.8410
1580.135946 0.8390 0.8370 0.8370 0.8380 0.8380
1584.583693 0.8370 0.8370 0.8350 0.8310 0.8240
1589.031440 0.8180 0.8160 0.8160 0.8160 0.8160
1593.479187 0.8160 0.8170 0.8170 0.8180 0.8180
1597.926934 0.8180 0.8180 0.8180 0.8180 0.8180
1602.374681 0.8180 0.8160 0.8140 0.8110 0.8100
1606.822428 0.8090 0.8050 0.8000 0.7980 0.7920
1611.270175 0.7860 0.7770 0.7720 0.7670 0.7530
1615.717922 0.7390 0.7220 0.7030 0.6601 0.5972
1620.165669 0.5500 0.5500 0.5485 0.8140 0.8160
1624.613416 0.8140 0.8140 0.8140 0.8140 0.8140
1629.061163 0.8140 0.8160 0.8160 0.8170 0.8180
1633.508910 0.8200 0.8230 0.8240 0.8280 0.8280
1637.956657 0.8300 0.8310 0.8310 0.8310 0.8310
1642.404404 0.8310 0.8310 0.8310 0.8310 0.8310
1646.852151 0.8310 0.8310 0.8310 0.8310 0.8310
1651.299898 0.8280 0.8270 0.8240 0.8240 0.8210
1655.747645 0.8200 0.8180 0.8180 0.8180 0.8180
1660.195392 0.8170 0.8170 0.8160 0.8160 0.8160
1664.643139 0.8160 0.8160 0.8140 0.8140 0.8140
1669.090886 0.8140 0.8140 0.8140 0.8140 0.8130
1673.538633 0.8110 0.8110 0.8100 0.8070 0.8050
1677.986380 0.7990 0.7980 0.7950 0.7890 0.7850
1682.434127 0.7810 0.7780 0.7770 0.7740 0.7710
1686.881874 0.7700 0.7680 0.7670 0.7660 0.7660
1691.329621 0.7610 0.7610 0.7610 0.7610 0.7610
1695.777368 0.7640 0.7670 0.7680 0.7840 0.7960
1700.225115 0.8030 0.8100 0.8160 0.8200 0.8240
1704.672862 0.8250 0.8280 0.8280 0.8300 0.8300
1709.120609 0.8300 0.8300 0.8300 0.8300 0.8300
1713.568356 0.8270 0.8240 0.8200 0.8160 0.8160
1718.016103 0.8160 0.8160 0.8160 0.8170 0.8160
1722.463850 0.8160 0.8160 0.8160 0.8160 0.8140
1726.911597 0.8140 0.8140 0.8140 0.8130 0.8100
1731.359344 0.8050 0.7990 0.7980 0.7950 0.7890
1735.807091 0.7890 0.7890 0.7890 0.7890 0.7890
1740.254838 0.7890 0.7910 0.7950 0.7960 0.7960
1744.702585 0.7960 0.7980 0.7980 0.8020 0.8030
1749.150332 0.8060 0.8070 0.8110 0.8110 0.8130
1753.598079 0.8140 0.8130 0.8140 0.8140 0.8140
1758.045826 0.8140 0.8140 0.8160 0.8140 0.8140
1762.493573 0.8140 0.8140 0.8130 0.8130 0.8110
1766.941320 0.8110 0.8110 0.8100 0.8100 0.8100
1771.389067 0.8090 0.8090 0.8060 0.8060 0.8050
1775.836814 0.8050 0.8030 0.8030 0.8000 0.7990
1780.284561 0.7980 0.7920 0.7840 0.7790 0.7780
1784.732308 0.7770 0.7750 0.7740 0.7750 0.7780
1789.180055 0.7780 0.7820 0.7850 0.7860 0.7880
1793.627802 0.7890 0.7890 0.7890 0.7890 0.7880
1798.075549 0.7860 0.7850 0.7840 0.7820 0.7810
1802.523296 0.7810 0.7790 0.7780 0.7780 0.7780
1806.971043 0.7790 0.7790 0.7820 0.7840 0.7850
1811.418790 0.7860 0.7880 0.7890 0.7920 0.7930
1815.866537 0.7930 0.7950 0.7950 0.7960 0.7980
1820.314284 0.7980 0.7980 0.7980 0.7980 0.7980
1824.762031 0.7960 0.7960 0.7960 0.7950 0.7950
1829.209778 0.7930 0.7920 0.7890 0.7890 0.7890
1833.657525 0.7880 0.7880 0.7880 0.7880 0.7880
1838.105272 0.7880 0.7880 0.7880 0.7880 0.7880
1842.553019 0.7880 0.7880 0.7880 0.7860 0.7860
1847.000766 0.7860 0.7850 0.7850 0.7840 0.7810
1851.448513 0.7790 0.7780 0.7780 0.7770 0.7770
1855.896260 0.7770 0.7770 0.7750 0.7750 0.7750
1860.344007 0.7750 0.7750 0.7750 0.7750 0.7750
1864.791754 0.7750 0.7750 0.7750 0.7750 0.7750
1869.239501 0.7750 0.7750 0.7750 0.7750 0.7740
1873.687248 0.7770 0.7770 0.7770 0.7770 0.7750
1878.134995 0.7740 0.7720 0.7700 0.7700 0.7680
1882.582743 0.7680 0.7670 0.7670 0.7660 0.7660
1887.030490 0.7660 0.7630 0.7610 0.7590 0.7570
1891.478237 0.7570 0.7540 0.7520 0.7500 0.7470
1895.925984 0.7450 0.7400 0.7330 0.7320 0.7320
1900.373731 0.7330 0.7500 0.7630 0.7680 0.7710
1904.821478 0.7710 0.7710 0.7710 0.7700 0.7640
1909.269225 0.7610 0.7590 0.7520 0.7450 0.7390
1913.716972 0.7320 0.7270 0.7270 0.7250 0.7270
1918.164719 0.7320 0.7360 0.7390 0.7420 0.7450
1922.612466 0.7460 0.7470 0.7470 0.7490 0.7490
1927.060213 0.7490 0.7490 0.7490 0.7490 0.7470
1931.507960 0.7460 0.7420 0.7400 0.7380 0.7330
1935.955707 0.7280 0.7220 0.7180 0.7150 0.7140
1940.403454 0.7140 0.7210 0.7311 0.7500 0.7560
1944.851201 0.7600 0.7610 0.7610 0.7610 0.7600
1949.298948 0.7600 0.7590 0.7570 0.7560 0.7530
1953.746695 0.7530 0.7520 0.7520 0.7500 0.7490
1958.194442 0.7490 0.7490 0.7490 0.7500 0.7490
1962.642189 0.7490 0.7490 0.7500 0.7500 0.7500
1967.089936 0.7490 0.7490 0.7490 0.7490 0.7490
1971.537683 0.7470 0.7470 0.7460 0.7460 0.7450
1975.985430 0.7450 0.7450 0.7430 0.7420 0.7420
1980.433177 0.7420 0.7400 0.7360 0.7360 0.7350
1984.880924 0.7330 0.7330 0.7320 0.7320 0.7310
1989.328671 0.7310 0.7320 0.7320 0.7320 0.7320
1993.776418 0.7320 0.7320 0.7320 0.7310 0.7310
1998.224165 0.7310 0.7310 0.7310 0.7310 0.7310
2002.671912 0.7300 0.7290 0.7280 0.7270 0.7270
2007.119659 0.7270 0.7260 0.7250 0.7245 0.7240
2011.567406 0.7195 0.7150 0.7145 0.7140 0.7135
2016.015153 0.7130 0.7130 0.7130 0.7130 0.7130
2020.462900 0.7130 0.7130 0.7130 0.7130 0.7130
2024.910647 0.7130 0.7130 0.7130 0.7130 0.7130
2029.358394 0.7130 0.7130 0.7130 0.7130 0.7130
2033.806141 0.7130 0.7130 0.7130 0.7130 0.7130
2038.253888 0.7130 0.7130 0.7120 0.7110 0.7110
2042.701635 0.7110 0.7110 0.7110 0.7105 0.7100
2047.149382 0.7100 0.7100 0.7090 0.7080 0.7080
2051.597129 0.7080 0.7075 0.7070 0.7065 0.7060
2056.044876 0.7060 0.7060 0.7050 0.7040 0.7035
2060.492623 0.7030 0.7030 0.7030 0.7020 0.7010
2064.940370 0.7005 0.7000 0.7000 0.7000 0.6995
2069.388117 0.6990 0.6980 0.6970 0.6965 0.6960
2073.835864 0.6960 0.6960 0.6950 0.6940 0.6940
2078.283611 0.6940 0.6940 0.6940 0.6940 0.6940
2082.731358 0.6940 0.6940 0.6935 0.6930 0.6930
2087.179105 0.6930 0.6930 0.6930 0.6930 0.6930
2091.626852 0.6915 0.6900 0.6890 0.6880 0.6870
2096.074599 0.6860 0.6860 0.6860 0.6860 0.6860
2100.522346 0.6845 0.6830 0.6830 0.6830 0.6830
2104.970093 0.6830 0.6825 0.6820 0.6815 0.6810
2109.417840 0.6800 0.6790 0.6790 0.6790 0.6790
2113.865587 0.6790 0.6790 0.6790 0.6785 0.6780
2118.313334 0.6780 0.6780 0.6770 0.6760 0.6760
2122.761081 0.6760 0.6760 0.6760 0.6760 0.6760
2127.208828 0.6760 0.6760 0.6760 0.6760 0.6760
2131.656575 0.6760 0.6760 0.6760 0.6755 0.6750
2136.104322 0.6750 0.6750 0.6750 0.6750 0.6745
2140.552069 0.6740 0.6725 0.6710 0.6700 0.6690
2144.999816 0.6685 0.6680 0.6680 0.6680 0.6680
2149.447563 0.6680 0.6675 0.6670 0.6670 0.6670
2153.895310 0.6660 0.6650 0.6650 0.6650 0.6645
2158.343057 0.6640 0.6640 0.6640 0.6630 0.6620
2162.790804 0.6615 0.6610 0.6610 0.6610 0.6605
2167.238551 0.6600 0.6600 0.6600 0.6590 0.6580
2171.686298 0.6580 0.6580 0.6575 0.6570 0.6560
2176.134045 0.6550 0.6550 0.6550 0.6545 0.6540
2180.581792 0.6540 0.6540 0.6525 0.6510 0.6510
2185.029539 0.6510 0.6510 0.6510 0.6510 0.6510
2189.477286 0.6505 0.6500 0.6500 0.6500 0.6500
2193.925033 0.6500 0.6495 0.6490 0.6490 0.6490
2198.372780 0.6490 0.6490 0.6480 0.6470 0.6470
2202.820527 0.6470 0.6465 0.6460 0.6460 0.6460
2207.268274 0.6450 0.6440 0.6435 0.6430 0.6425
2211.716021 0.6420 0.6410 0.6400 0.6395 0.6390
2216.163768 0.6375 0.6360 0.6360 0.6360 0.6355
2220.611515 0.6350 0.6350 0.6350 0.6340 0.6330
2225.059262 0.6330 0.6330 0.6325 0.6320 0.6320
2229.507009 0.6320 0.6310 0.6300 0.6295 0.6290
2233.954756 0.6290 0.6290 0.6285 0.6280 0.6280
2238.402503 0.6280 0.6265 0.6250 0.6250 0.6250
2242.850250 0.6240 0.6230 0.6230 0.6230 0.6225
2247.297997 0.6220 0.6220 0.6220 0.6215 0.6210
2251.745744 0.6210 0.6210 0.6200 0.6190 0.6190
2256.193491 0.6190 0.6185 0.6180 0.6170 0.6160
2260.641238 0.6160 0.6160 0.6160 0.6160 0.6160
2265.088985 0.6160 0.6160 0.6160 0.6160 0.6160
2269.536732 0.6155 0.6150 0.6150 0.6150 0.6150
2273.984479 0.6150 0.6145 0.6140 0.6140 0.6140
2278.432226 0.6140 0.6140 0.6130 0.6120 0.6120
2282.879973 0.6120 0.6115 0.6110 0.6105 0.6100
2287.327720 0.6100 0.6100 0.6100 0.6100 0.6100
2291.775467 0.6100 0.6100 0.6100 0.6100 0.6100
2296.223214 0.6100 0.6100 0.6090 0.6080 0.6080
2300.670961 0.6080 0.6080 0.6080 0.6080 0.6080
2305.118708 0.6075 0.6070 0.6070 0.6070 0.6070
2309.566456 0.6070 0.6060 0.6050 0.6050 0.6050
2314.014203 0.6050 0.6050 0.6045 0.6040 0.6040
2318.461950 0.6040 0.6035 0.6030 0.6020 0.6009
2322.909697 0.5994 0.5980 0.5970 0.5960 0.5960
2327.357444 0.5960 0.5960 0.5960 0.5965 0.5970
2331.805191 0.5970 0.5970 0.5975 0.5980 0.5980
2336.252938 0.5980 0.5970 0.5960 0.5960 0.5960
2340.700685 0.5960 0.5960 0.5960 0.5960 0.5950
2345.148432 0.5940 0.5940 0.5940 0.5940 0.5940
2349.596179 0.5935 0.5930 0.5930 0.5930 0.5920
2354.043926 0.5910 0.5910 0.5910 0.5910 0.5910
2358.491673 0.5910 0.5910 0.5905 0.5900 0.5900
2362.939420 0.5900 0.5900 0.5900 0.5895 0.5890
2367.387167 0.5890 0.5890 0.5890 0.5890 0.5880
2371.834914 0.5870 0.5870 0.5870 0.5865 0.5860
2376.282661 0.5860 0.5860 0.5860 0.5860 0.5850
2380.730408 0.5840 0.5840 0.5840 0.5840 0.5840
2385.178155 0.5835 0.5830 0.5830 0.5830 0.5830
2389.625902 0.5830 0.5825 0.5820 0.5820 0.5820
2394.073649 0.5820 0.5820 0.5810 0.5800 0.5800
2398.521396 0.5800 0.5795 0.5790 0.5790 0.5790
2402.969143 0.5790 0.5790 0.5790 0.5790 0.5790
2407.416890 0.5790 0.5780 0.5770 0.5770 0.5770
2411.864637 0.5770 0.5770 0.5770 0.5770 0.5770
2416.312384 0.5770 0.5765 0.5760 0.5760 0.5760
2420.760131 0.5760 0.5760 0.5760 0.5760 0.5755
2425.207878 0.5750 0.5750 0.5750 0.5750 0.5750
2429.655625 0.5750 0.5750 0.5750 0.5750 0.5740
2434.103372 0.5730 0.5730 0.5730 0.5730 0.5730
2438.551119 0.5725 0.5720 0.5720 0.5720 0.5715
2442.998866 0.5710 0.5710 0.5709 0.5699 0.5690
2447.446613 0.5690 0.5690 0.5685 0.5680 0.5680
2451.894360 0.5679 0.5664 0.5650 0.5650 0.5650
2456.342107 0.5650 0.5650 0.5650 0.5650 0.5650
2460.789854 0.5650 0.5645 0.5640 0.5640 0.5640
2465.237601 0.5640 0.5640 0.5640 0.5639 0.5629
2469.685348 0.5620 0.5620 0.5620 0.5620 0.5620
2474.133095 0.5615 0.5610 0.5610 0.5610 0.5610
2478.580842 0.5610 0.5610 0.5610 0.5610 0.5610
2483.028589 0.5610 0.5610 0.5610 0.5610 0.5610
2487.476336 0.5610 0.5610 0.5610 0.5610 0.5610
2491.924083 0.5610 0.5610 0.5615 0.5620 0.5620
2496.371830 0.5620 0.5620 0.5620 0.5615 0.5610
2500.819577 0.5610 0.5609 0.5599 0.5590 0.5585
2505.267324 0.5580 0.5580 0.5580 0.5575 0.5569
2509.715071 0.5559 0.5550 0.5550 0.5549 0.5534
2514.162818 0.5520 0.5520 0.5520 0.5520 0.5520
2518.610565 0.5520 0.5520 0.5520 0.5520 0.5515
2523.058312 0.5510 0.5510 0.5510 0.5510 0.5510
2527.506059 0.5510 0.5510 0.5510 0.5510 0.5505
2531.953806 0.5500 0.5500 0.5500 0.5500 0.5500
2536.401553 0.5500 0.5500 0.5500 0.5499 0.5489
2540.849300 0.5480 0.5480 0.5480 0.5480 0.5480
2545.297047 0.5480 0.5480 0.5480 0.5480 0.5480
2549.744794 0.5480 0.5480 0.5480 0.5480 0.5480
2554.192541 0.5480 0.5480 0.5475 0.5470 0.5470
2558.640288 0.5470 0.5470 0.5470 0.5470 0.5469
2563.088035 0.5459 0.5450 0.5450 0.5450 0.5450
2567.535782 0.5450 0.5445 0.5440 0.5440 0.5440
2571.983529 0.5435 0.5430 0.5430 0.5429 0.5419
2576.431276 0.5410 0.5410 0.5410 0.5405 0.5399
2580.879023 0.5389 0.5380 0.5380 0.5380 0.5375
2585.326770 0.5370 0.5370 0.5369 0.5354 0.5340
2589.774517 0.5340 0.5340 0.5340 0.5340 0.5335
2594.222264 0.5330 0.5330 0.5330 0.5325 0.5320
2598.670011 0.5320 0.5319 0.5309 0.5300 0.5295
2603.117758 0.5290 0.5290 0.5289 0.5279 0.5270
2607.565505 0.5270 0.5270 0.5265 0.5260 0.5260
2612.013252 0.5260 0.5255 0.5250 0.5250 0.5249
2616.460999 0.5234 0.5220 0.5220 0.5219 0.5209
2620.908746 0.5200 0.5200 0.5200 0.5195 0.5190
2625.356493 0.5190 0.5189 0.5174 0.5160 0.5160
2629.804240 0.5160 0.5160 0.5160 0.5160 0.5160
2634.251987 0.5160 0.5160 0.5160 0.5160 0.5155
2638.699734 0.5150 0.5150 0.5150 0.5150 0.5150
2643.147481 0.5150 0.5149 0.5139 0.5130 0.5130
2647.595228 0.5130 0.5130 0.5130 0.5130 0.5130
2652.042975 0.5125 0.5120 0.5120 0.5120 0.5120
2656.490722 0.5120 0.5120 0.5120 0.5115 0.5110
2660.938469 0.5110 0.5109 0.5099 0.5090 0.5090
2665.386216 0.5090 0.5090 0.5090 0.5090 0.5090
2669.833963 0.5085 0.5080 0.5080 0.5080 0.5080
2674.281710 0.5079 0.5069 0.5060 0.5060 0.5060
2678.729457 0.5055 0.5050 0.5050 0.5050 0.5045
2683.177204 0.5040 0.5040 0.5039 0.5029 0.5020
2687.624951 0.5020 0.5020 0.5015 0.5010 0.5010
2692.072698 0.5010 0.5005 0.4998 0.4973 0.4950
2696.520445 0.4945 0.4940 0.4940 0.4940 0.4940
2700.968192 0.4940 0.4940 0.4940 0.4940 0.4940
2705.415939 0.4935 0.4930 0.4930 0.4929 0.4919
2709.863686 0.4910 0.4910 0.4910 0.4910 0.4910
2714.311433 0.4910 0.4910 0.4905 0.4900 0.4900
2718.759180 0.4900 0.4900 0.4899 0.4889 0.4880
2723.206927 0.4880 0.4880 0.4880 0.4880 0.4880
2727.654674 0.4880 0.4880 0.4880 0.4880 0.4880
2732.102421 0.4880 0.4880 0.4875 0.4870 0.4870
2736.550169 0.4870 0.4865 0.4860 0.4860 0.4859
2740.997916 0.4849 0.4840 0.4840 0.4840 0.4835
2745.445663 0.4830 0.4830 0.4829 0.4819 0.4810
2749.893410 0.4805 0.4800 0.4800 0.4800 0.4800
2754.341157 0.4800 0.4800 0.4800 0.4800 0.4800
2758.788904 0.4800 0.4800 0.4800 0.4800 0.4800
2763.236651 0.4800 0.4800 0.4800 0.4795 0.4790
2767.684398 0.4790 0.4790 0.4790 0.4790 0.4790
2772.132145 0.4790 0.4790 0.4789 0.4779 0.4770
2776.579892 0.4770 0.4770 0.4770 0.4770 0.4770
2781.027639 0.4769 0.4754 0.4740 0.4740 0.4740
2785.475386 0.4735 0.4730 0.4730 0.4730 0.4725
2789.923133 0.4720 0.4720 0.4719 0.4709 0.4700
2794.370880 0.4700 0.4700 0.4695 0.4689 0.4679
2798.818627 0.4670 0.4670 0.4669 0.4664 0.4659
2803.266374 0.4655 0.4649 0.4639 0.4630 0.4625
2807.714121 0.4620 0.4615 0.4609 0.4594 0.4580
2812.161868 0.4580 0.4579 0.4569 0.4560 0.4560
2816.609615 0.4560 0.4555 0.4550 0.4550 0.4549
2821.057362 0.4545 0.4539 0.4529 0.4520 0.4520
2825.505109 0.4519 0.4504 0.4490 0.4485 0.4480
2829.952856 0.4475 0.4469 0.4459 0.4450 0.4445
2834.400603 0.4439 0.4429 0.4419 0.4409 0.4400
2838.848350 0.4400 0.4398 0.4383 0.4369 0.4359
2843.296097 0.4350 0.4345 0.4339 0.4324 0.4310
2847.743844 0.4305 0.4299 0.4284 0.4270 0.4270
2852.191591 0.4270 0.4270 0.4270 0.4270 0.4270
2856.639338 0.4270 0.4270 0.4270 0.4270 0.4270
2861.087085 0.4270 0.4270 0.4270 0.4270 0.4270
2865.534832 0.4270 0.4270 0.4265 0.4260 0.4260
2869.982579 0.4260 0.4260 0.4260 0.4260 0.4259
2874.430326 0.4249 0.4240 0.4240 0.4239 0.4234
2878.878073 0.4230 0.4230 0.4229 0.4225 0.4219
2883.325820 0.4209 0.4200 0.4200 0.4200 0.4195
2887.773567 0.4190 0.4190 0.4189 0.4179 0.4170
2892.221314 0.4170 0.4169 0.4159 0.4150 0.4150
2896.669061 0.4149 0.4139 0.4129 0.4124 0.4119
2901.116808 0.4109 0.4099 0.4089 0.4080 0.4080
2905.564555 0.4080 0.4080 0.4080 0.4080 0.4080
2910.012302 0.4080 0.4079 0.4069 0.4060 0.4060
2914.460049 0.4060 0.4060 0.4060 0.4060 0.4060
2918.907796 0.4060 0.4060 0.4060 0.4060 0.4060
2923.355543 0.4060 0.4060 0.4060 0.4060 0.4060
2927.803290 0.4060 0.4060 0.4060 0.4060 0.4060
2932.251037 0.4061 0.4071 0.4080 0.4080 0.4080
2936.698784 0.4080 0.4080 0.4080 0.4081 0.4086
2941.146531 0.4091 0.4096 0.4101 0.4111 0.4120
2945.594278 0.4120 0.4120 0.4120 0.4120 0.4120
2950.042025 0.4120 0.4120 0.4120 0.4120 0.4120
2954.489772 0.4120 0.4120 0.4120 0.4119 0.4109
2958.937519 0.4100 0.4100 0.4100 0.4100 0.4100
2963.385266 0.4100 0.4099 0.4094 0.4090 0.4090
2967.833013 0.4090 0.4090 0.4089 0.4084 0.4079
2972.280760 0.4069 0.4060 0.4060 0.4059 0.4054
2976.728507 0.4050 0.4050 0.4049 0.4039 0.4030
2981.176254 0.4030 0.4029 0.4024 0.4020 0.4020
2985.624001 0.4019 0.4014 0.4010 0.4010 0.4009
2990.071748 0.3999 0.3990 0.3990 0.3989 0.3984
2994.519495 0.3980 0.3980 0.3979 0.3969 0.3959
2998.967242 0.3954 0.3950 0.3950 0.3950 0.3950
3003.414989 0.3949 0.3944 0.3940 0.3940 0.3940
3007.862736 0.3940 0.3939 0.3929 0.3920 0.3920
3012.310483 0.3919 0.3914 0.3910 0.3910 0.3910
3016.758230 0.3910 0.3909 0.3899 0.3889 0.3884
3021.205977 0.3880 0.3880 0.3879 0.3874 0.3869
3025.653724 0.3859 0.3849 0.3844 0.3838 0.3823
3030.101471 0.3810 0.3810 0.3810 0.3810 0.3810
3034.549218 0.3810 0.3810 0.3810 0.3810 0.3810
3038.996965 0.3810 0.3810 0.3809 0.3804 0.3800
3043.444712 0.3800 0.3800 0.3800 0.3800 0.3800
3047.892459 0.3800 0.3800 0.3800 0.3800 0.3800
3052.340206 0.3800 0.3799 0.3789 0.3780 0.3780
3056.787953 0.3780 0.3780 0.3779 0.3769 0.3758
3061.235700 0.3743 0.3730 0.3730 0.3729 0.3719
3065.683447 0.3710 0.3710 0.3710 0.3710 0.3712
3070.131194 0.3727 0.3742 0.3757 0.3772 0.3787
3074.578941 0.3803 0.3823 0.3845 0.3885 0.3924
3079.026688 0.3954 0.3982 0.4002 0.4022 0.4037
3083.474435 0.4052 0.4073 0.4092 0.4107 0.4121
3087.922182 0.4126 0.4131 0.4141 0.4150 0.4150
3092.369929 0.4150 0.4150 0.4150 0.4150 0.4150
3096.817676 0.4150 0.4150 0.4150 0.4149 0.4139
3101.265423 0.4130 0.4130 0.4129 0.4124 0.4120
3105.713170 0.4120 0.4119 0.4109 0.4099 0.4094
3110.160917 0.4090 0.4090 0.4089 0.4084 0.4079
3114.608664 0.4069 0.4060 0.4060 0.4059 0.4054
3119.056411 0.4049 0.4039 0.4029 0.4024 0.4020
3123.504158 0.4020 0.4019 0.4014 0.4008 0.3993
3127.951905 0.3980 0.3980 0.3980 0.3980 0.3980
3132.399652 0.3980 0.3979 0.3969 0.3960 0.3960
3136.847399 0.3960 0.3960 0.3959 0.3954 0.3949
3141.295146 0.3944 0.3940 0.3940 0.3940 0.3940
3145.742893 0.3940 0.3940 0.3940 0.3940 0.3940
3150.190640 0.3940 0.3939 0.3929 0.3920 0.3920
3154.638387 0.3919 0.3914 0.3910 0.3910 0.3909
3159.086134 0.3899 0.3890 0.3890 0.3889 0.3884
3163.533881 0.3880 0.3880 0.3879 0.3874 0.3870
3167.981629 0.3870 0.3869 0.3859 0.3849 0.3844
3172.429376 0.3840 0.3840 0.3840 0.3840 0.3840
3176.877123 0.3840 0.3839 0.3834 0.3830 0.3830
3181.324870 0.3830 0.3830 0.3830 0.3830 0.3829
3185.772617 0.3819 0.3810 0.3810 0.3809 0.3804
3190.220364 0.3800 0.3800 0.3800 0.3800 0.3799
3194.668111 0.3789 0.3780 0.3780 0.3780 0.3780
3199.115858 0.3779 0.3774 0.3770 0.3770 0.3769
3203.563605 0.3764 0.3759 0.3749 0.3740 0.3740
3208.011352 0.3740 0.3740 0.3740 0.3740 0.3739
3212.459099 0.3734 0.3730 0.3730 0.3730 0.3730
3216.906846 0.3730 0.3730 0.3729 0.3719 0.3710
3221.354593 0.3710 0.3709 0.3704 0.3700 0.3700
3225.802340 0.3700 0.3700 0.3700 0.3700 0.3700
3230.250087 0.3700 0.3700 0.3700 0.3700 0.3700
3234.697834 0.3700 0.3700 0.3699 0.3694 0.3690
3239.145581 0.3690 0.3690 0.3690 0.3690 0.3690
3243.593328 0.3690 0.3690 0.3688 0.3678 0.3670
3248.041075 0.3670 0.3670 0.3670 0.3669 0.3664
3252.488822 0.3660 0.3660 0.3659 0.3649 0.3640
3256.936569 0.3640 0.3640 0.3640 0.3639 0.3634
3261.384316 0.3630 0.3630 0.3630 0.3630 0.3629
3265.832063 0.3624 0.3620 0.3620 0.3620 0.3620
3270.279810 0.3619 0.3609 0.3599 0.3594 0.3590
3274.727557 0.3590 0.3589 0.3579 0.3570 0.3570
3279.175304 0.3569 0.3564 0.3560 0.3560 0.3559
3283.623051 0.3554 0.3550 0.3550 0.3548 0.3538
3288.070798 0.3529 0.3524 0.3520 0.3520 0.3520
3292.518545 0.3520 0.3519 0.3509 0.3500 0.3500
3296.966292 0.3499 0.3494 0.3490 0.3490 0.3489
3301.414039 0.3484 0.3478 0.3468 0.3460 0.3460
3305.861786 0.3460 0.3460 0.3460 0.3460 0.3460
3310.309533 0.3460 0.3460 0.3460 0.3460 0.3460
3314.757280 0.3459 0.3454 0.3450 0.3450 0.3450
3319.205027 0.3450 0.3450 0.3450 0.3450 0.3450
3323.652774 0.3450 0.3450 0.3450 0.3450 0.3450
3328.100521 0.3450 0.3450 0.3450 0.3450 0.3450
3332.548268 0.3450 0.3450 0.3450 0.3450 0.3450
3336.996015 0.3450 0.3450 0.3450 0.3450 0.3450
3341.443762 0.3450 0.3450 0.3450 0.3450 0.3449
3345.891509 0.3444 0.3440 0.3440 0.3438 0.3428
3350.339256 0.3420 0.3420 0.3419 0.3414 0.3408
3354.787003 0.3398 0.3390 0.3390 0.3390 0.3390
3359.234750 0.3390 0.3390 0.3390 0.3390 0.3389
3363.682497 0.3384 0.3380 0.3380 0.3380 0.3380
3368.130244 0.3379 0.3374 0.3370 0.3370 0.3370
3372.577991 0.3370 0.3370 0.3370 0.3370 0.3370
3377.025738 0.3370 0.3370 0.3370 0.3370 0.3370
3381.473485 0.3370 0.3370 0.3370 0.3370 0.3370
3385.921232 0.3370 0.3370 0.3370 0.3370 0.3370
3390.368979 0.3370 0.3370 0.3370 0.3370 0.3370
3394.816726 0.3370 0.3370 0.3368 0.3358 0.3349
3399.264473 0.3344 0.3340 0.3340 0.3338 0.3328
3403.712220 0.3320 0.3320 0.3319 0.3314 0.3309
3408.159967 0.3304 0.3300 0.3300 0.3300 0.3300
3412.607714 0.3298 0.3288 0.3280 0.3280 0.3280
3417.055461 0.3280 0.3279 0.3274 0.3270 0.3270
3421.503208 0.3268 0.3258 0.3249 0.3244 0.3240
3425.950955 0.3240 0.3240 0.3240 0.3240 0.3240
3430.398702 0.3240 0.3240 0.3240 0.3240 0.3240
3434.846449 0.3240 0.3240 0.3240 0.3240 0.3240
3439.294196 0.3240 0.3240 0.3240 0.3240 0.3240
3443.741943 0.3240 0.3240 0.3240 0.3240 0.3240
3448.189690 0.3240 0.3240 0.3240 0.3240 0.3240
3452.637437 0.3240 0.3240 0.3240 0.3240 0.3240
3457.085184 0.3240 0.3240 0.3240 0.3240 0.3240
3461.532931 0.3240 0.3239 0.3234 0.3230 0.3230
3465.980678 0.3230 0.3230 0.3230 0.3230 0.3230
3470.428425 0.3230 0.3228 0.3218 0.3210 0.3210
3474.876172 0.3210 0.3210 0.3210 0.3210 0.3209
3479.323919 0.3204 0.3200 0.3200 0.3200 0.3200
3483.771666 0.3200 0.3200 0.3200 0.3200 0.3200
3488.219413 0.3200 0.3200 0.3200 0.3200 0.3200
3492.667160 0.3200 0.3200 0.3200 0.3200 0.3200
3497.114907 0.3200 0.3200 0.3200 0.3200 0.3200
3501.562654 0.3200 0.3200 0.3200 0.3200 0.3200
3506.010401 0.3200 0.3200 0.3200 0.3200 0.3200
3510.458148 0.3198 0.3188 0.3180 0.3180 0.3180
3514.905895 0.3180 0.3179 0.3174 0.3170 0.3170
3519.353642 0.3170 0.3170 0.3170 0.3170 0.3169
3523.801389 0.3164 0.3160 0.3160 0.3158 0.3148
3528.249136 0.3140 0.3140 0.3140 0.3140 0.3140
3532.696883 0.3140 0.3140 0.3140 0.3140 0.3140
3537.144630 0.3140 0.3140 0.3140 0.3140 0.3139
3541.592377 0.3134 0.3130 0.3130 0.3130 0.3130
3546.040124 0.3130 0.3130 0.3130 0.3130 0.3130
3550.487871 0.3130 0.3130 0.3130 0.3130 0.3130
3554.935618 0.3130 0.3130 0.3130 0.3130 0.3130
3559.383365 0.3130 0.3130 0.3130 0.3130 0.3130
3563.831112 0.3130 0.3130 0.3128 0.3118 0.3110
3568.278859 0.3110 0.3110 0.3110 0.3110 0.3110
3572.726606 0.3110 0.3110 0.3110 0.3110 0.3110
3577.174353 0.3110 0.3110 0.3110 0.3110 0.3110
3581.622100 0.3110 0.3110 0.3110 0.3110 0.3110
3586.069847 0.3110 0.3110 0.3110 0.3110 0.3110
3590.517594 0.3110 0.3110 0.3109 0.3104 0.3100
3594.965342 0.3100 0.3100 0.3100 0.3099 0.3094
3599.413089 0.3090 0.3090 0.3090 0.3090 0.3088
3603.860836 0.3078 0.3069 0.3064 0.3060 0.3060
3608.308583 0.3060 0.3060 0.3060 0.3060 0.3059
3612.756330 0.3054 0.3050 0.3050 0.3050 0.3050
3617.204077 0.3050 0.3050 0.3048 0.3038 0.3030
3621.651824 0.3030 0.3030 0.3030 0.3029 0.3024
3626.099571 0.3020 0.3020 0.3020 0.3020 0.3020
3630.547318 0.3020 0.3020 0.3020 0.3020 0.3020
3634.995065 0.3020 0.3020 0.3020 0.3020 0.3018
3639.442812 0.3008 0.3000 0.3000 0.3000 0.3000
3643.890559 0.3000 0.3000 0.3000 0.3000 0.3000
3648.338306 0.3000 0.3000 0.3000 0.3000 0.3000
3652.786053 0.3000 0.3000 0.3000 0.3000 0.3000
3657.233800 0.3000 0.3002 0.3012 0.3020 0.3020
3661.681547 0.3020 0.3020 0.3020 0.3020 0.3020
3666.129294 0.3020 0.3018 0.3008 0.3000 0.3000
3670.577041 0.2999 0.2994 0.2989 0.2984 0.2980
3675.024788 0.2980 0.2978 0.2968 0.2960 0.2960
3679.472535 0.2959 0.2954 0.2950 0.2950 0.2947
3683.920282 0.2932 0.2920 0.2920 0.2920 0.2920
3688.368029 0.2920 0.2920 0.2920 0.2920 0.2920
3692.815776 0.2920 0.2920 0.2920 0.2920 0.2920
3697.263523 0.2919 0.2914 0.2910 0.2910 0.2910
3701.711270 0.2910 0.2910 0.2910 0.2908 0.2898
3706.159017 0.2890 0.2890 0.2890 0.2890 0.2889
3710.606764 0.2884 0.2880 0.2880 0.2880 0.2880
3715.054511 0.2880 0.2880 0.2878 0.2868 0.2860
3719.502258 0.2860 0.2859 0.2854 0.2850 0.2850
3723.950005 0.2850 0.2850 0.2850 0.2850 0.2850
3728.397752 0.2850 0.2850 0.2850 0.2850 0.2850
3732.845499 0.2850 0.2850 0.2849 0.2844 0.2840
3737.293246 0.2840 0.2840 0.2840 0.2840 0.2840
3741.740993 0.2838 0.2828 0.2820 0.2820 0.2820
3746.188740 0.2820 0.2820 0.2820 0.2819 0.2814
3750.636487 0.2810 0.2810 0.2808 0.2798 0.2790
3755.084234 0.2790 0.2789 0.2784 0.2780 0.2780
3759.531981 0.2779 0.2774 0.2768 0.2758 0.2750
3763.979728 0.2750 0.2750 0.2750 0.2750 0.2750
3768.427475 0.2749 0.2744 0.2740 0.2740 0.2740
3772.875222 0.2740 0.2738 0.2728 0.2720 0.2720
3777.322969 0.2720 0.2720 0.2719 0.2714 0.2710
3781.770716 0.2710 0.2710 0.2710 0.2709 0.2704
3786.218463 0.2700 0.2700 0.2700 0.2700 0.2698
3790.666210 0.2688 0.2680 0.2680 0.2680 0.2680
3795.113957 0.2680 0.2680 0.2679 0.2674 0.2670
3799.561704 0.2670 0.2670 0.2670
##END=
