##TITLE=ANTHRACENE, 9,10-DIMETHYL-
##JCAMP-DX=4.24
##DATA TYPE=INFRARED SPECTRUM
##CLASS=COBLENTZ III
##ORIGIN=DOW CHEMICAL COMPANY
##OWNER=COBLENTZ SOCIETY
Collection (C) 2018 copyright by the U.S. Secretary of Commerce
on behalf of the United States of America. All rights reserved.
##DATE=1966/04/04
##NAMES=9,10-dimethylanthracene
##CAS REGISTRY NO=781-43-1
##MOLFORM=C16 H14
##MP=183 C
##SOURCE REFERENCE=COBLENTZ NO. 10676
##$NIST SOURCE=COBLENTZ
##$NIST IMAGE=cob10676
##SPECTROMETER/DATA SYSTEM=DOW KBr FOREPRISM-GRATING
##INSTRUMENT PARAMETERS=BLAZED AT 3.5, 12.0, 20.0 MICRON, CHANGED AT 5.0, 7.5, 14.9 MICRON
##STATE=SOLID (SPLIT MULL, FLUOROLUBE FOR 3800-1333 AND NUJOL FOR 1333-400 CM ^-^1)
##SAMPLING PROCEDURE=TRANSMISSION
##RESOLUTION=4
##DATA PROCESSING=DIGITIZED BY NIST FROM HARD COPY (FROM TWO SEGMENTS)
##XUNITS=1/CM
##YUNITS=TRANSMITTANCE
##XFACTOR=1.000000
##YFACTOR=1
##DELTAX=0.949368
##FIRSTX=383.228
##LASTX=3793.36
##FIRSTY=0.883
##MAXX=3793.36
##MINX=383.228
##MAXY=1.01
##MINY=0.0700412
##NPOINTS=3593
##XYDATA=(X++(Y..Y))
383.228000 0.8830 0.8840 0.8840 0.8840 0.8860
387.974840 0.8870 0.8870 0.8900 0.8920 0.8930
392.721680 0.8930 0.8950 0.8960 0.8960 0.8990
397.468521 0.9010 0.9020 0.9020 0.9030 0.9050
402.215361 0.9060 0.9090 0.9110 0.9120 0.9120
406.962201 0.9140 0.9150 0.9150 0.9170 0.9180
411.709041 0.9200 0.9230 0.9240 0.9260 0.9290
416.455881 0.9300 0.9300 0.9330 0.9330 0.9350
421.202722 0.9360 0.9360 0.9370 0.9420 0.9420
425.949562 0.9430 0.9450 0.9450 0.9460 0.9460
430.696402 0.9480 0.9490 0.9510 0.9520 0.9540
435.443242 0.9540 0.9550 0.9570 0.9570 0.9580
440.190082 0.9600 0.9600 0.9630 0.9640 0.9640
444.936923 0.9660 0.9660 0.9660 0.9670 0.9680
449.683763 0.9680 0.9700 0.9710 0.9730 0.9730
454.430603 0.9740 0.9740 0.9760 0.9770 0.9790
459.177443 0.9800 0.9800 0.9820 0.9830 0.9850
463.924284 0.9860 0.9860 0.9880 0.9880 0.9880
468.671124 0.9890 0.9890 0.9910 0.9920 0.9920
473.417964 0.9920 0.9920 0.9940 0.9940 0.9950
478.164804 0.9950 0.9940 0.9940 0.9940 0.9950
482.911644 0.9950 0.9970 0.9970 0.9970 0.9970
487.658485 0.9980 0.9980 1.0000 1.0000 1.0000
492.405325 1.0000 1.0000 1.0000 1.0000 1.0000
497.152165 0.9980 0.9980 0.9970 0.9970 0.9970
501.899005 0.9950 0.9950 0.9950 0.9950 0.9970
506.645845 0.9970 0.9970 0.9970 0.9970 0.9980
511.392686 0.9980 0.9970 0.9950 0.9940 0.9920
516.139526 0.9920 0.9910 0.9910 0.9910 0.9890
520.886366 0.9890 0.9880 0.9880 0.9860 0.9860
525.633206 0.9860 0.9880 0.9880 0.9880 0.9890
530.380046 0.9890 0.9890 0.9910 0.9910 0.9910
535.126887 0.9920 0.9920 0.9920 0.9920 0.9910
539.873727 0.9890 0.9880 0.9880 0.9880 0.9880
544.620567 0.9880 0.9880 0.9880 0.9880 0.9880
549.367407 0.9880 0.9880 0.9880 0.9860 0.9860
554.114247 0.9860 0.9860 0.9860 0.9860 0.9860
558.861088 0.9860 0.9860 0.9850 0.9850 0.9830
563.607928 0.9830 0.9790 0.9770 0.9730 0.9700
568.354768 0.9610 0.9580 0.9401 0.9231 0.8832
573.101608 0.8380 0.8030 0.7620 0.7220 0.7030
577.848449 0.6820 0.6441 0.6440 0.7137 0.7747
582.595289 0.8950 0.9170 0.9580 0.9680 0.9770
587.342129 0.9790 0.9800 0.9820 0.9820 0.9830
592.088969 0.9820 0.9760 0.9600 0.9430 0.9141
596.835809 0.8133 0.7104 0.7100 1.0006 1.0040
601.582650 1.0050 1.0070 1.0070 1.0070 1.0080
606.329490 1.0080 1.0080 1.0100 1.0100 1.0100
611.076330 1.0100 1.0100 1.0080 1.0080 1.0070
615.823170 1.0070 1.0050 1.0050 1.0050 1.0040
620.570010 1.0040 1.0020 1.0020 1.0020 1.0040
625.316851 1.0040 1.0050 1.0050 1.0050 1.0070
630.063691 1.0070 1.0070 1.0070 1.0080 1.0080
634.810531 1.0080 1.0080 1.0080 1.0080 1.0080
639.557371 1.0080 1.0070 1.0070 1.0050 1.0050
644.304211 1.0050 1.0050 1.0040 1.0040 1.0040
649.051052 1.0020 1.0020 1.0020 1.0010 1.0010
653.797892 1.0010 1.0010 1.0010 1.0010 1.0010
658.544732 1.0010 1.0010 1.0000 1.0000 1.0000
663.291572 1.0000 0.9980 0.9980 0.9970 0.9970
668.038412 0.9950 0.9950 0.9940 0.9920 0.9920
672.785253 0.9920 0.9910 0.9910 0.9910 0.9890
677.532093 0.9890 0.9890 0.9880 0.9860 0.9860
682.278933 0.9850 0.9850 0.9830 0.9830 0.9820
687.025773 0.9820 0.9820 0.9800 0.9800 0.9790
691.772613 0.9770 0.9760 0.9730 0.9710 0.9710
696.519454 0.9700 0.9680 0.9670 0.9640 0.9610
701.266294 0.9580 0.9550 0.9510 0.9480 0.9450
706.013134 0.9420 0.9360 0.9350 0.9330 0.9270
710.759974 0.9230 0.9150 0.9140 0.9060 0.9020
715.506815 0.8930 0.8840 0.8740 0.8550 0.8490
720.253655 0.8400 0.8360 0.8340 0.8340 0.8340
725.000495 0.8340 0.8330 0.8310 0.8240 0.8180
729.747335 0.8150 0.7871 0.7451 0.7281 0.7250
734.494175 0.7200 0.7130 0.7030 0.6920 0.6611
739.241016 0.6231 0.5184 0.4124 0.3632 0.3142
743.987856 0.1690 0.1650 0.1180 0.0700 0.2507
748.734696 0.2829 0.2950 0.3070 0.3070 0.1865
753.481536 0.1400 0.1040 0.1040 0.2918 0.2930
758.228376 0.4766 0.5647 0.7713 0.7840 0.7850
762.975217 0.7880 0.7880 0.7850 0.7820 0.7820
767.722057 0.8438 0.9148 0.9210 0.9320 0.9350
772.468897 0.9360 0.9370 0.9390 0.9390 0.9400
777.215737 0.9400 0.9420 0.9430 0.9430 0.9430
781.962577 0.9450 0.9460 0.9460 0.9460 0.9460
786.709418 0.9480 0.9480 0.9460 0.9460 0.9450
791.456258 0.9430 0.9420 0.9420 0.9420 0.9420
796.203098 0.9430 0.9430 0.9430 0.9450 0.9450
800.949938 0.9450 0.9430 0.9430 0.9420 0.9400
805.696778 0.9390 0.9370 0.9360 0.9330 0.9330
810.443619 0.9320 0.9230 0.9140 0.9020 0.8930
815.190459 0.8750 0.8680 0.8590 0.8590 0.8869
819.937299 0.9140 0.9210 0.9260 0.9270 0.9290
824.684139 0.9300 0.9320 0.9320 0.9320 0.9320
829.430980 0.9320 0.9300 0.9290 0.9260 0.9260
834.177820 0.9240 0.9240 0.9230 0.9200 0.9200
838.924660 0.9180 0.9170 0.9150 0.9120 0.9030
843.671500 0.8920 0.8621 0.8620 0.9088 0.9180
848.418340 0.9200 0.9200 0.9200 0.9200 0.9200
853.165181 0.9200 0.9200 0.9200 0.9200 0.9200
857.912021 0.9170 0.9170 0.9140 0.9120 0.9120
862.658861 0.9110 0.9090 0.9090 0.9090 0.9090
867.405701 0.9090 0.9090 0.9090 0.9090 0.9060
872.152541 0.9030 0.9020 0.9010 0.9010 0.9010
876.899382 0.9020 0.9030 0.9030 0.9020 0.8990
881.646222 0.8980 0.8960 0.8950 0.8950 0.8930
886.393062 0.8930 0.8920 0.8920 0.8900 0.8900
891.139902 0.8900 0.8900 0.8900 0.8900 0.8900
895.886742 0.8900 0.8900 0.8900 0.8900 0.8900
900.633583 0.8900 0.8900 0.8900 0.8900 0.8900
905.380423 0.8900 0.8900 0.8900 0.8900 0.8900
910.127263 0.8890 0.8870 0.8840 0.8830 0.8830
914.874103 0.8830 0.8830 0.8830 0.8830 0.8830
919.620943 0.8830 0.8830 0.8810 0.8800 0.8800
924.367784 0.8780 0.8750 0.8750 0.8740 0.8740
929.114624 0.8720 0.8720 0.8710 0.8710 0.8710
933.861464 0.8710 0.8710 0.8700 0.8700 0.8700
938.608304 0.8680 0.8680 0.8670 0.8670 0.8650
943.355144 0.8640 0.8610 0.8580 0.8500 0.8270
948.101985 0.8270 0.8430 0.8560 0.8590 0.8610
952.848825 0.8610 0.8610 0.8610 0.8610 0.8610
957.595665 0.8610 0.8580 0.8550 0.8520 0.8490
962.342505 0.8490 0.8490 0.8490 0.8470 0.8460
967.089346 0.8440 0.8430 0.8430 0.8410 0.8400
971.836186 0.8400 0.8370 0.8370 0.8340 0.8340
976.583026 0.8330 0.8330 0.8310 0.8240 0.8150
981.329866 0.8070 0.7990 0.7960 0.7900 0.7840
986.076706 0.7820 0.7790 0.7780 0.7760 0.7780
990.823547 0.7870 0.8160 0.8220 0.8330 0.8340
995.570387 0.8370 0.8380 0.8400 0.8430 0.8430
1000.317227 0.8440 0.8460 0.8460 0.8470 0.8470
1005.064067 0.8470 0.8470 0.8440 0.8430 0.8400
1009.810907 0.8380 0.8370 0.8360 0.8360 0.8340
1014.557748 0.8330 0.8270 0.8220 0.8150 0.8031
1019.304588 0.7970 0.7600 0.7450 0.7200 0.6950
1024.051428 0.6721 0.5892 0.8321 0.8370 0.8410
1028.798268 0.8410 0.8410 0.8410 0.8430 0.8430
1033.545108 0.8430 0.8430 0.8430 0.8430 0.8430
1038.291949 0.8440 0.8440 0.8430 0.8400 0.8400
1043.038789 0.8380 0.8360 0.8360 0.8360 0.8340
1047.785629 0.8340 0.8340 0.8330 0.8330 0.8300
1052.532469 0.8300 0.8280 0.8280 0.8270 0.8270
1057.279309 0.8250 0.8240 0.8220 0.8190 0.8150
1062.026150 0.8130 0.8130 0.8130 0.8150 0.8160
1066.772990 0.8210 0.8240 0.8250 0.8250 0.8250
1071.519830 0.8250 0.8250 0.8250 0.8250 0.8250
1076.266670 0.8250 0.8250 0.8250 0.8250 0.8250
1081.013510 0.8270 0.8270 0.8280 0.8300 0.8300
1085.760351 0.8300 0.8300 0.8300 0.8300 0.8300
1090.507191 0.8310 0.8310 0.8310 0.8310 0.8330
1095.254031 0.8330 0.8330 0.8330 0.8330 0.8330
1100.000871 0.8340 0.8340 0.8340 0.8340 0.8330
1104.747712 0.8330 0.8310 0.8270 0.8250 0.8250
1109.494552 0.8250 0.8240 0.8240 0.8240 0.8240
1114.241392 0.8240 0.8240 0.8240 0.8240 0.8240
1118.988232 0.8240 0.8240 0.8240 0.8240 0.8220
1123.735072 0.8190 0.8160 0.8150 0.8150 0.8150
1128.481913 0.8150 0.8160 0.8160 0.8160 0.8150
1133.228753 0.8150 0.8150 0.8150 0.8150 0.8150
1137.975593 0.8130 0.8130 0.8090 0.8060 0.8060
1142.722433 0.8060 0.8060 0.8050 0.7970 0.7910
1147.469273 0.7880 0.7870 0.7850 0.7850 0.7850
1152.216114 0.7850 0.7870 0.7870 0.7850 0.7790
1156.962954 0.7780 0.7760 0.7710 0.7600 0.7500
1161.709794 0.7440 0.7420 0.7420 0.7420 0.7440
1166.456634 0.7530 0.7620 0.7710 0.7760 0.7840
1171.203474 0.7850 0.7850 0.7870 0.7880 0.7880
1175.950315 0.7880 0.7870 0.7810 0.7710 0.7531
1180.697155 0.7500 0.7500 0.7510 0.7530 0.7510
1185.443995 0.7340 0.7340 0.7908 0.7930 0.7940
1190.190835 0.7940 0.7940 0.7940 0.7940 0.7930
1194.937675 0.7930 0.7910 0.7910 0.7910 0.7900
1199.684516 0.7900 0.7900 0.7900 0.7900 0.7900
1204.431356 0.7880 0.7880 0.7870 0.7870 0.7850
1209.178196 0.7850 0.7840 0.7840 0.7840 0.7820
1213.925036 0.7810 0.7790 0.7780 0.7780 0.7760
1218.671877 0.7760 0.7760 0.7760 0.7760 0.7760
1223.418717 0.7760 0.7760 0.7750 0.7750 0.7750
1228.165557 0.7750 0.7750 0.7750 0.7750 0.7750
1232.912397 0.7740 0.7720 0.7710 0.7710 0.7710
1237.659237 0.7710 0.7690 0.7680 0.7660 0.7630
1242.406078 0.7630 0.7620 0.7620 0.7600 0.7600
1247.152918 0.7600 0.7600 0.7600 0.7590 0.7590
1251.899758 0.7570 0.7540 0.7510 0.7480 0.7480
1256.646598 0.7450 0.7450 0.7420 0.7420 0.7410
1261.393438 0.7380 0.7380 0.7370 0.7370 0.7350
1266.140279 0.7350 0.7340 0.7320 0.7310 0.7250
1270.887119 0.7170 0.7160 0.7140 0.7160 0.7190
1275.633959 0.7200 0.7200 0.7220 0.7220 0.7200
1280.380799 0.7200 0.7200 0.7200 0.7200 0.7200
1285.127639 0.7200 0.7190 0.7190 0.7190 0.7170
1289.874480 0.7160 0.7160 0.7160 0.7110 0.7090
1294.621320 0.7090 0.7070 0.7070 0.7060 0.7060
1299.368160 0.7060 0.7060 0.7040 0.7040 0.7030
1304.115000 0.7030 0.7030 0.7030 0.7010 0.7010
1308.861840 0.7010 0.7010 0.7010 0.7010 0.7010
1313.608681 0.7010 0.7030 0.7030 0.7030 0.7030
1318.355521 0.7040 0.7040 0.7030 0.7010 0.7010
1323.102361 0.7000 0.7000 0.7000 0.7000 0.7000
1327.849201 0.7000 0.7010 0.7199 0.7220 0.7220
1332.596041 0.7190 0.7140 0.7100 0.7070 0.7060
1337.342882 0.7030 0.7010 0.7000 0.6980 0.6970
1342.089722 0.6950 0.6940 0.6940 0.6950 0.6950
1346.836562 0.6970 0.6970 0.6950 0.6940 0.6910
1351.583402 0.6860 0.6820 0.6800 0.6820 0.6830
1356.330243 0.6880 0.6880 0.6910 0.6910 0.6820
1361.077083 0.6610 0.6380 0.6020 0.5670 0.5340
1365.823923 0.5340 0.5420 0.5789 0.7105 0.7100
1370.570763 0.7000 0.6890 0.6600 0.6300 0.6300
1375.317603 0.6410 0.6450 0.6769 0.6860 0.6910
1380.064444 0.6910 0.6800 0.6520 0.6330 0.6020
1384.811284 0.5870 0.5870 0.6040 0.6180 0.6329
1389.558124 0.6481 0.7320 0.7940 0.7960 0.8000
1394.304964 0.8060 0.8060 0.8090 0.8120 0.8120
1399.051804 0.8090 0.8060 0.8050 0.8020 0.8020
1403.798645 0.8000 0.7990 0.7960 0.7960 0.7940
1408.545485 0.7930 0.7900 0.7870 0.7850 0.7850
1413.292325 0.7850 0.7840 0.7840 0.7840 0.7840
1418.039165 0.7840 0.7840 0.7810 0.7760 0.7750
1422.786005 0.7720 0.7690 0.7650 0.7620 0.7570
1427.532846 0.7540 0.7530 0.7530 0.7530 0.7510
1432.279686 0.7510 0.7500 0.7480 0.7440 0.7410
1437.026526 0.7340 0.7230 0.7200 0.6980 0.6750
1441.773366 0.6720 0.6660 0.6540 0.6420 0.6420
1446.520206 0.8000 0.8070 0.8210 0.8310 0.8330
1451.267047 0.8360 0.8360 0.8360 0.8360 0.8360
1456.013887 0.8360 0.8340 0.8340 0.8340 0.8340
1460.760727 0.8340 0.8340 0.8340 0.8340 0.8340
1465.507567 0.8340 0.8330 0.8330 0.8330 0.8310
1470.254408 0.8300 0.8300 0.8300 0.8280 0.8280
1475.001248 0.8280 0.8280 0.8280 0.8280 0.8280
1479.748088 0.8280 0.8280 0.8280 0.8280 0.8280
1484.494928 0.8280 0.8280 0.8280 0.8280 0.8280
1489.241768 0.8280 0.8280 0.8280 0.8250 0.8240
1493.988609 0.8220 0.8210 0.8210 0.8190 0.8190
1498.735449 0.8190 0.8190 0.8210 0.8220 0.8240
1503.482289 0.8250 0.8270 0.8280 0.8300 0.8310
1508.229129 0.8330 0.8340 0.8340 0.8340 0.8360
1512.975969 0.8360 0.8360 0.8340 0.8330 0.8310
1517.722810 0.8310 0.8280 0.8240 0.8180 0.8130
1522.469650 0.7990 0.7940 0.7820 0.7740 0.7740
1527.216490 0.7990 0.8050 0.8150 0.8250 0.8330
1531.963330 0.8330 0.8340 0.8360 0.8400 0.8410
1536.710170 0.8460 0.8470 0.8490 0.8490 0.8500
1541.457011 0.8500 0.8500 0.8500 0.8500 0.8520
1546.203851 0.8520 0.8520 0.8520 0.8520 0.8520
1550.950691 0.8520 0.8520 0.8520 0.8520 0.8520
1555.697531 0.8520 0.8500 0.8500 0.8500 0.8490
1560.444371 0.8490 0.8470 0.8470 0.8470 0.8470
1565.191212 0.8470 0.8470 0.8460 0.8460 0.8440
1569.938052 0.8440 0.8440 0.8440 0.8440 0.8440
1574.684892 0.8440 0.8430 0.8400 0.8380 0.8370
1579.431732 0.8360 0.8360 0.8360 0.8370 0.8370
1584.178572 0.8360 0.8310 0.8270 0.8220 0.8190
1588.925413 0.8190 0.8160 0.8160 0.8160 0.8160
1593.672253 0.8160 0.8160 0.8180 0.8180 0.8160
1598.419093 0.8160 0.8150 0.8130 0.8130 0.8130
1603.165933 0.8130 0.8120 0.8120 0.8050 0.8020
1607.912774 0.7990 0.7960 0.7850 0.7760 0.7660
1612.659614 0.7590 0.7201 0.7010 0.6860 0.6720
1617.406454 0.6229 0.5482 0.7850 0.7870 0.8090
1622.153294 0.8120 0.8120 0.8120 0.8120 0.8100
1626.900134 0.8100 0.8100 0.8120 0.8130 0.8150
1631.646975 0.8160 0.8210 0.8240 0.8250 0.8250
1636.393815 0.8250 0.8250 0.8250 0.8250 0.8270
1641.140655 0.8270 0.8270 0.8270 0.8250 0.8250
1645.887495 0.8250 0.8250 0.8250 0.8250 0.8250
1650.634335 0.8240 0.8240 0.8220 0.8210 0.8190
1655.381176 0.8160 0.8160 0.8150 0.8150 0.8150
1660.128016 0.8130 0.8130 0.8130 0.8130 0.8130
1664.874856 0.8130 0.8130 0.8130 0.8130 0.8130
1669.621696 0.8130 0.8120 0.8120 0.8120 0.8090
1674.368536 0.8070 0.8050 0.7990 0.7960 0.7960
1679.115377 0.7840 0.7780 0.7760 0.7750 0.7690
1683.862217 0.7660 0.7650 0.7650 0.7630 0.7630
1688.609057 0.7630 0.7620 0.7620 0.7620 0.7620
1693.355897 0.7630 0.7650 0.7680 0.7690 0.7810
1698.102737 0.7910 0.8090 0.8100 0.8180 0.8220
1702.849578 0.8250 0.8270 0.8270 0.8280 0.8300
1707.596418 0.8300 0.8300 0.8300 0.8280 0.8270
1712.343258 0.8220 0.8190 0.8160 0.8160 0.8160
1717.090098 0.8150 0.8150 0.8150 0.8150 0.8150
1721.836939 0.8150 0.8130 0.8130 0.8130 0.8130
1726.583779 0.8120 0.8090 0.8050 0.8020 0.7970
1731.330619 0.7960 0.7910 0.7900 0.7880 0.7870
1736.077459 0.7870 0.7870 0.7880 0.7880 0.7900
1740.824299 0.7910 0.7930 0.7940 0.7970 0.7990
1745.571140 0.8000 0.8020 0.8050 0.8060 0.8070
1750.317980 0.8090 0.8100 0.8120 0.8120 0.8120
1755.064820 0.8120 0.8130 0.8130 0.8130 0.8130
1759.811660 0.8130 0.8130 0.8130 0.8130 0.8130
1764.558500 0.8120 0.8120 0.8100 0.8090 0.8070
1769.305341 0.8060 0.8050 0.8050 0.8050 0.8030
1774.052181 0.8030 0.8020 0.7990 0.7970 0.7940
1778.799021 0.7880 0.7840 0.7790 0.7780 0.7760
1783.545861 0.7750 0.7740 0.7740 0.7750 0.7760
1788.292701 0.7810 0.7820 0.7850 0.7870 0.7870
1793.039542 0.7870 0.7870 0.7850 0.7850 0.7840
1797.786382 0.7790 0.7760 0.7750 0.7750 0.7760
1802.533222 0.7760 0.7780 0.7790 0.7810 0.7810
1807.280062 0.7820 0.7840 0.7850 0.7870 0.7880
1812.026902 0.7910 0.7910 0.7930 0.7930 0.7930
1816.773743 0.7940 0.7940 0.7940 0.7960 0.7960
1821.520583 0.7960 0.7960 0.7940 0.7940 0.7930
1826.267423 0.7910 0.7910 0.7900 0.7900 0.7900
1831.014263 0.7880 0.7880 0.7870 0.7870 0.7870
1835.761103 0.7870 0.7870 0.7870 0.7870 0.7870
1840.507944 0.7870 0.7870 0.7870 0.7850 0.7850
1845.254784 0.7850 0.7840 0.7840 0.7810 0.7790
1850.001624 0.7790 0.7780 0.7760 0.7760 0.7750
1854.748464 0.7750 0.7740 0.7740 0.7740 0.7740
1859.495305 0.7740 0.7740 0.7740 0.7740 0.7740
1864.242145 0.7740 0.7750 0.7750 0.7750 0.7750
1868.988985 0.7750 0.7750 0.7750 0.7750 0.7750
1873.735825 0.7750 0.7740 0.7720 0.7710 0.7690
1878.482665 0.7680 0.7660 0.7660 0.7660 0.7650
1883.229506 0.7650 0.7650 0.7630 0.7630 0.7630
1887.976346 0.7620 0.7600 0.7540 0.7530 0.7500
1892.723186 0.7470 0.7440 0.7410 0.7380 0.7370
1897.470026 0.7380 0.7480 0.7540 0.7620 0.7690
1902.216866 0.7710 0.7710 0.7690 0.7600 0.7590
1906.963707 0.7530 0.7500 0.7440 0.7350 0.7320
1911.710547 0.7290 0.7280 0.7280 0.7310 0.7340
1916.457387 0.7370 0.7380 0.7440 0.7450 0.7470
1921.204227 0.7470 0.7480 0.7480 0.7480 0.7480
1925.951067 0.7470 0.7470 0.7450 0.7440 0.7420
1930.697908 0.7400 0.7380 0.7350 0.7310 0.7250
1935.444748 0.7140 0.7090 0.7070 0.7090 0.7140
1940.191588 0.7530 0.7570 0.7590 0.7590 0.7600
1944.938428 0.7600 0.7600 0.7600 0.7590 0.7560
1949.685268 0.7540 0.7530 0.7510 0.7510 0.7500
1954.432109 0.7480 0.7480 0.7480 0.7480 0.7480
1959.178949 0.7480 0.7480 0.7480 0.7480 0.7480
1963.925789 0.7480 0.7480 0.7480 0.7450 0.7450
1968.672629 0.7450 0.7420 0.7420 0.7420 0.7410
1973.419469 0.7410 0.7410 0.7400 0.7380 0.7380
1978.166310 0.7370 0.7350 0.7350 0.7340 0.7320
1982.913150 0.7320 0.7310 0.7310 0.7290 0.7290
1987.659990 0.7290 0.7290 0.7290 0.7290 0.7290
1992.406830 0.7290 0.7290 0.7290 0.7290 0.7280
1997.153671 0.7280 0.7280 0.7280 0.7260 0.7245
2001.900511 0.7230 0.7225 0.7220 0.7210 0.7200
2006.647351 0.7195 0.7190 0.7180 0.7170 0.7155
2011.394191 0.7140 0.7135 0.7130 0.7120 0.7110
2016.141031 0.7110 0.7110 0.7105 0.7100 0.7100
2020.887872 0.7100 0.7095 0.7090 0.7090 0.7090
2025.634712 0.7090 0.7090 0.7090 0.7090 0.7090
2030.381552 0.7090 0.7090 0.7090 0.7090 0.7090
2035.128392 0.7090 0.7090 0.7090 0.7090 0.7090
2039.875232 0.7089 0.7079 0.7070 0.7065 0.7060
2044.622073 0.7060 0.7059 0.7049 0.7040 0.7040
2049.368913 0.7039 0.7034 0.7029 0.7019 0.7009
2054.115753 0.7004 0.7000 0.7000 0.6999 0.6989
2058.862593 0.6979 0.6974 0.6970 0.6970 0.6970
2063.609433 0.6970 0.6970 0.6970 0.6969 0.6958
2068.356274 0.6949 0.6944 0.6938 0.6928 0.6920
2073.103114 0.6920 0.6919 0.6914 0.6910 0.6910
2077.849954 0.6910 0.6910 0.6908 0.6898 0.6890
2082.596794 0.6890 0.6889 0.6884 0.6880 0.6880
2087.343634 0.6880 0.6880 0.6878 0.6868 0.6860
2092.090475 0.6860 0.6857 0.6842 0.6830 0.6830
2096.837315 0.6829 0.6824 0.6817 0.6802 0.6790
2101.584155 0.6790 0.6788 0.6778 0.6769 0.6764
2106.330995 0.6760 0.6760 0.6760 0.6760 0.6759
2111.077836 0.6754 0.6750 0.6750 0.6750 0.6750
2115.824676 0.6750 0.6750 0.6750 0.6750 0.6750
2120.571516 0.6750 0.6750 0.6750 0.6750 0.6750
2125.318356 0.6750 0.6750 0.6750 0.6750 0.6750
2130.065196 0.6750 0.6747 0.6737 0.6730 0.6730
2134.812037 0.6725 0.6710 0.6698 0.6693 0.6687
2139.558877 0.6677 0.6668 0.6663 0.6660 0.6660
2144.305717 0.6657 0.6647 0.6640 0.6640 0.6638
2149.052557 0.6633 0.6630 0.6630 0.6626 0.6616
2153.799397 0.6610 0.6610 0.6608 0.6603 0.6600
2158.546238 0.6600 0.6596 0.6586 0.6580 0.6580
2163.293078 0.6578 0.6573 0.6566 0.6556 0.6548
2168.039918 0.6543 0.6536 0.6526 0.6520 0.6520
2172.786758 0.6520 0.6520 0.6518 0.6513 0.6510
2177.533598 0.6510 0.6506 0.6496 0.6488 0.6483
2182.280439 0.6480 0.6480 0.6480 0.6480 0.6480
2187.027279 0.6480 0.6476 0.6466 0.6460 0.6460
2191.774119 0.6460 0.6460 0.6458 0.6453 0.6450
2196.520959 0.6450 0.6450 0.6450 0.6443 0.6428
2201.267799 0.6418 0.6413 0.6405 0.6395 0.6388
2206.014640 0.6383 0.6375 0.6365 0.6360 0.6360
2210.761480 0.6358 0.6352 0.6350 0.6350 0.6345
2215.508320 0.6335 0.6330 0.6330 0.6327 0.6322
2220.255160 0.6320 0.6320 0.6312 0.6297 0.6290
2225.002000 0.6290 0.6285 0.6275 0.6270 0.6270
2229.748841 0.6267 0.6262 0.6260 0.6260 0.6254
2234.495681 0.6244 0.6237 0.6232 0.6230 0.6230
2239.242521 0.6230 0.6230 0.6230 0.6230 0.6224
2243.989361 0.6214 0.6207 0.6202 0.6191 0.6176
2248.736202 0.6164 0.6154 0.6150 0.6150 0.6150
2253.483042 0.6150 0.6150 0.6150 0.6150 0.6150
2258.229882 0.6150 0.6150 0.6150 0.6150 0.6150
2262.976722 0.6150 0.6150 0.6150 0.6147 0.6142
2267.723562 0.6140 0.6140 0.6134 0.6124 0.6117
2272.470403 0.6112 0.6110 0.6110 0.6110 0.6110
2277.217243 0.6107 0.6102 0.6100 0.6100 0.6100
2281.964083 0.6100 0.6100 0.6100 0.6100 0.6100
2286.710923 0.6100 0.6100 0.6100 0.6100 0.6093
2291.457763 0.6083 0.6080 0.6080 0.6080 0.6080
2296.204604 0.6080 0.6080 0.6077 0.6072 0.6063
2300.951444 0.6053 0.6050 0.6050 0.6050 0.6050
2305.698284 0.6046 0.6041 0.6033 0.6023 0.6020
2310.445124 0.6020 0.6020 0.6020 0.6020 0.6020
2315.191964 0.5998 0.5968 0.5949 0.5934 0.5930
2319.938805 0.5930 0.5930 0.5930 0.5938 0.5948
2324.685645 0.5950 0.5950 0.5954 0.5959 0.5960
2329.432485 0.5960 0.5960 0.5960 0.5960 0.5960
2334.179325 0.5960 0.5960 0.5956 0.5951 0.5950
2338.926165 0.5950 0.5942 0.5932 0.5930 0.5930
2343.673006 0.5926 0.5921 0.5920 0.5920 0.5912
2348.419846 0.5902 0.5900 0.5900 0.5888 0.5873
2353.166686 0.5870 0.5870 0.5870 0.5870 0.5870
2357.913526 0.5870 0.5866 0.5861 0.5860 0.5860
2362.660367 0.5860 0.5860 0.5860 0.5860 0.5860
2367.407207 0.5860 0.5851 0.5841 0.5836 0.5831
2372.154047 0.5830 0.5830 0.5830 0.5830 0.5821
2376.900887 0.5811 0.5810 0.5810 0.5810 0.5810
2381.647727 0.5810 0.5810 0.5810 0.5810 0.5810
2386.394568 0.5810 0.5805 0.5800 0.5800 0.5800
2391.141408 0.5800 0.5800 0.5795 0.5790 0.5790
2395.888248 0.5790 0.5790 0.5790 0.5780 0.5770
2400.635088 0.5770 0.5770 0.5765 0.5760 0.5750
2405.381928 0.5740 0.5740 0.5740 0.5740 0.5740
2410.128769 0.5740 0.5740 0.5740 0.5740 0.5735
2414.875609 0.5730 0.5730 0.5730 0.5730 0.5730
2419.622449 0.5730 0.5730 0.5720 0.5710 0.5710
2424.369289 0.5710 0.5710 0.5710 0.5710 0.5710
2429.116129 0.5705 0.5700 0.5690 0.5680 0.5680
2433.862970 0.5680 0.5680 0.5680 0.5675 0.5670
2438.609810 0.5670 0.5670 0.5670 0.5670 0.5670
2443.356650 0.5670 0.5659 0.5650 0.5650 0.5650
2448.103490 0.5650 0.5650 0.5650 0.5650 0.5645
2452.850330 0.5640 0.5640 0.5640 0.5640 0.5639
2457.597171 0.5629 0.5620 0.5620 0.5620 0.5620
2462.344011 0.5620 0.5620 0.5620 0.5615 0.5610
2467.090851 0.5610 0.5610 0.5610 0.5610 0.5610
2471.837691 0.5610 0.5610 0.5610 0.5610 0.5610
2476.584531 0.5610 0.5609 0.5599 0.5590 0.5590
2481.331372 0.5590 0.5590 0.5590 0.5590 0.5590
2486.078212 0.5590 0.5589 0.5584 0.5580 0.5580
2490.825052 0.5580 0.5580 0.5580 0.5580 0.5578
2495.571892 0.5568 0.5560 0.5560 0.5559 0.5554
2500.318733 0.5550 0.5550 0.5550 0.5550 0.5548
2505.065573 0.5538 0.5530 0.5530 0.5529 0.5524
2509.812413 0.5520 0.5520 0.5520 0.5520 0.5518
2514.559253 0.5508 0.5500 0.5500 0.5499 0.5494
2519.306093 0.5490 0.5490 0.5490 0.5490 0.5490
2524.052934 0.5490 0.5490 0.5490 0.5490 0.5490
2528.799774 0.5490 0.5490 0.5489 0.5484 0.5480
2533.546614 0.5480 0.5480 0.5480 0.5477 0.5467
2538.293454 0.5460 0.5460 0.5460 0.5460 0.5460
2543.040294 0.5460 0.5459 0.5454 0.5450 0.5450
2547.787135 0.5450 0.5450 0.5450 0.5450 0.5450
2552.533975 0.5450 0.5450 0.5450 0.5447 0.5437
2557.280815 0.5430 0.5430 0.5430 0.5430 0.5430
2562.027655 0.5430 0.5430 0.5430 0.5430 0.5430
2566.774495 0.5425 0.5410 0.5398 0.5393 0.5390
2571.521336 0.5390 0.5386 0.5376 0.5370 0.5370
2576.268176 0.5368 0.5363 0.5360 0.5360 0.5356
2581.015016 0.5346 0.5340 0.5340 0.5338 0.5333
2585.761856 0.5330 0.5330 0.5326 0.5316 0.5310
2590.508696 0.5310 0.5308 0.5303 0.5296 0.5286
2595.255537 0.5278 0.5273 0.5270 0.5270 0.5266
2600.002377 0.5256 0.5248 0.5243 0.5240 0.5240
2604.749217 0.5236 0.5226 0.5220 0.5220 0.5218
2609.496057 0.5213 0.5205 0.5195 0.5190 0.5190
2614.242898 0.5188 0.5183 0.5180 0.5180 0.5175
2618.989738 0.5165 0.5160 0.5160 0.5160 0.5160
2623.736578 0.5158 0.5153 0.5150 0.5150 0.5150
2628.483418 0.5150 0.5148 0.5143 0.5140 0.5140
2633.230258 0.5140 0.5140 0.5140 0.5140 0.5135
2637.977099 0.5125 0.5120 0.5120 0.5120 0.5120
2642.723939 0.5120 0.5120 0.5120 0.5120 0.5120
2647.470779 0.5120 0.5117 0.5112 0.5110 0.5110
2652.217619 0.5110 0.5110 0.5105 0.5094 0.5090
2656.964459 0.5090 0.5087 0.5082 0.5080 0.5080
2661.711300 0.5074 0.5064 0.5060 0.5060 0.5057
2666.458140 0.5052 0.5050 0.5050 0.5044 0.5034
2671.204980 0.5030 0.5030 0.5027 0.5022 0.5020
2675.951820 0.5020 0.5014 0.5004 0.5000 0.5000
2680.698660 0.4997 0.4992 0.4990 0.4990 0.4984
2685.445501 0.4974 0.4967 0.4962 0.4960 0.4960
2690.192341 0.4954 0.4944 0.4940 0.4940 0.4937
2694.939181 0.4932 0.4930 0.4930 0.4924 0.4914
2699.686021 0.4910 0.4910 0.4907 0.4902 0.4900
2704.432861 0.4900 0.4900 0.4900 0.4900 0.4900
2709.179702 0.4893 0.4883 0.4880 0.4880 0.4880
2713.926542 0.4880 0.4880 0.4880 0.4880 0.4880
2718.673382 0.4876 0.4871 0.4870 0.4870 0.4870
2723.420222 0.4870 0.4870 0.4870 0.4870 0.4870
2728.167062 0.4870 0.4870 0.4863 0.4853 0.4850
2732.913903 0.4850 0.4850 0.4850 0.4846 0.4841
2737.660743 0.4840 0.4840 0.4836 0.4831 0.4830
2742.407583 0.4830 0.4830 0.4830 0.4822 0.4812
2747.154423 0.4810 0.4810 0.4810 0.4810 0.4806
2751.901264 0.4801 0.4800 0.4800 0.4800 0.4800
2756.648104 0.4800 0.4800 0.4800 0.4800 0.4792
2761.394944 0.4782 0.4780 0.4780 0.4780 0.4780
2766.141784 0.4780 0.4780 0.4776 0.4771 0.4770
2770.888624 0.4770 0.4770 0.4770 0.4762 0.4752
2775.635465 0.4750 0.4750 0.4746 0.4741 0.4731
2780.382305 0.4721 0.4716 0.4711 0.4701 0.4691
2785.129145 0.4686 0.4681 0.4680 0.4680 0.4671
2789.875985 0.4661 0.4660 0.4660 0.4660 0.4660
2794.622825 0.4647 0.4632 0.4626 0.4621 0.4611
2799.369666 0.4601 0.4586 0.4571 0.4570 0.4570
2804.116506 0.4570 0.4570 0.4565 0.4560 0.4560
2808.863346 0.4560 0.4560 0.4560 0.4560 0.4560
2813.610186 0.4551 0.4541 0.4535 0.4530 0.4521
2818.357026 0.4511 0.4501 0.4491 0.4480 0.4470
2823.103867 0.4470 0.4470 0.4465 0.4460 0.4450
2827.850707 0.4440 0.4426 0.4411 0.4391 0.4371
2832.597547 0.4370 0.4370 0.4355 0.4340 0.4330
2837.344387 0.4320 0.4315 0.4310 0.4295 0.4280
2842.091227 0.4280 0.4280 0.4280 0.4280 0.4270
2846.838068 0.4260 0.4260 0.4260 0.4260 0.4260
2851.584908 0.4260 0.4260 0.4260 0.4260 0.4260
2856.331748 0.4260 0.4260 0.4260 0.4255 0.4250
2861.078588 0.4250 0.4250 0.4250 0.4250 0.4250
2865.825428 0.4250 0.4250 0.4249 0.4239 0.4230
2870.572269 0.4230 0.4230 0.4230 0.4230 0.4225
2875.319109 0.4219 0.4209 0.4200 0.4195 0.4190
2880.065949 0.4185 0.4179 0.4169 0.4160 0.4160
2884.812789 0.4160 0.4155 0.4150 0.4150 0.4149
2889.559630 0.4139 0.4129 0.4124 0.4118 0.4103
2894.306470 0.4089 0.4079 0.4069 0.4064 0.4059
2899.053310 0.4049 0.4038 0.4023 0.4009 0.4004
2903.800150 0.4000 0.4000 0.4000 0.4000 0.3999
2908.546990 0.3988 0.3980 0.3980 0.3980 0.3980
2913.293831 0.3982 0.3992 0.4001 0.4006 0.4010
2918.040671 0.4010 0.4012 0.4022 0.4030 0.4030
2922.787511 0.4031 0.4036 0.4040 0.4040 0.4042
2927.534351 0.4052 0.4060 0.4060 0.4061 0.4066
2932.281191 0.4072 0.4082 0.4090 0.4090 0.4091
2937.028032 0.4096 0.4100 0.4100 0.4102 0.4112
2941.774872 0.4120 0.4120 0.4120 0.4120 0.4120
2946.521712 0.4120 0.4120 0.4120 0.4120 0.4120
2951.268552 0.4117 0.4107 0.4100 0.4100 0.4099
2956.015392 0.4094 0.4090 0.4090 0.4090 0.4090
2960.762233 0.4087 0.4077 0.4070 0.4070 0.4070
2965.509073 0.4070 0.4068 0.4063 0.4060 0.4060
2970.255913 0.4060 0.4060 0.4057 0.4047 0.4038
2975.002753 0.4033 0.4030 0.4030 0.4027 0.4017
2979.749593 0.4010 0.4010 0.4008 0.4003 0.4000
2984.496434 0.4000 0.4000 0.4000 0.3996 0.3986
2989.243274 0.3980 0.3980 0.3978 0.3973 0.3966
2993.990114 0.3956 0.3950 0.3950 0.3948 0.3943
2998.736954 0.3940 0.3940 0.3936 0.3926 0.3920
3003.483795 0.3920 0.3918 0.3913 0.3910 0.3910
3008.230635 0.3906 0.3896 0.3890 0.3890 0.3890
3012.977475 0.3890 0.3888 0.3883 0.3880 0.3880
3017.724315 0.3880 0.3880 0.3878 0.3873 0.3870
3022.471155 0.3870 0.3866 0.3856 0.3850 0.3850
3027.217996 0.3848 0.3843 0.3840 0.3840 0.3836
3031.964836 0.3826 0.3820 0.3820 0.3818 0.3813
3036.711676 0.3810 0.3810 0.3810 0.3810 0.3810
3041.458516 0.3810 0.3810 0.3810 0.3805 0.3795
3046.205356 0.3790 0.3790 0.3790 0.3790 0.3790
3050.952197 0.3790 0.3788 0.3783 0.3780 0.3780
3055.699037 0.3775 0.3765 0.3757 0.3752 0.3745
3060.445877 0.3735 0.3727 0.3722 0.3715 0.3705
3065.192717 0.3700 0.3700 0.3705 0.3715 0.3723
3069.939557 0.3728 0.3738 0.3753 0.3784 0.3830
3074.686398 0.3894 0.3974 0.4024 0.4049 0.4063
3079.433238 0.4068 0.4076 0.4086 0.4099 0.4114
3084.180078 0.4123 0.4128 0.4130 0.4130 0.4136
3088.926918 0.4146 0.4150 0.4150 0.4150 0.4150
3093.673758 0.4150 0.4150 0.4144 0.4134 0.4121
3098.420599 0.4106 0.4097 0.4092 0.4084 0.4074
3103.167439 0.4070 0.4070 0.4070 0.4070 0.4067
3107.914279 0.4062 0.4060 0.4060 0.4060 0.4060
3112.661119 0.4054 0.4044 0.4040 0.4040 0.4037
3117.407959 0.4032 0.4023 0.4013 0.4007 0.4002
3122.154800 0.4000 0.4000 0.3993 0.3983 0.3980
3126.901640 0.3980 0.3980 0.3980 0.3977 0.3972
3131.648480 0.3970 0.3970 0.3970 0.3970 0.3970
3136.395320 0.3970 0.3970 0.3970 0.3963 0.3953
3141.142161 0.3950 0.3950 0.3950 0.3950 0.3950
3145.889001 0.3950 0.3946 0.3941 0.3933 0.3923
3150.635841 0.3920 0.3920 0.3916 0.3911 0.3903
3155.382681 0.3892 0.3890 0.3890 0.3890 0.3890
3160.129521 0.3886 0.3881 0.3880 0.3880 0.3880
3164.876362 0.3880 0.3876 0.3871 0.3870 0.3870
3169.623202 0.3862 0.3852 0.3850 0.3850 0.3850
3174.370042 0.3850 0.3846 0.3841 0.3840 0.3840
3179.116882 0.3832 0.3822 0.3820 0.3820 0.3816
3183.863722 0.3811 0.3810 0.3810 0.3810 0.3810
3188.610563 0.3802 0.3792 0.3790 0.3790 0.3790
3193.357403 0.3790 0.3786 0.3781 0.3772 0.3762
3198.104243 0.3756 0.3751 0.3741 0.3731 0.3730
3202.851083 0.3730 0.3730 0.3730 0.3726 0.3721
3207.597923 0.3720 0.3720 0.3720 0.3720 0.3720
3212.344764 0.3720 0.3720 0.3720 0.3711 0.3701
3217.091604 0.3700 0.3700 0.3700 0.3700 0.3696
3221.838444 0.3690 0.3690 0.3690 0.3690 0.3690
3226.585284 0.3690 0.3690 0.3695 0.3700 0.3700
3231.332124 0.3700 0.3695 0.3690 0.3690 0.3690
3236.078965 0.3690 0.3690 0.3690 0.3690 0.3690
3240.825805 0.3690 0.3690 0.3690 0.3690 0.3690
3245.572645 0.3690 0.3690 0.3690 0.3690 0.3680
3250.319485 0.3670 0.3670 0.3670 0.3665 0.3660
3255.066326 0.3645 0.3630 0.3630 0.3630 0.3620
3259.813166 0.3610 0.3610 0.3610 0.3610 0.3610
3264.560006 0.3610 0.3610 0.3610 0.3610 0.3605
3269.306846 0.3600 0.3600 0.3600 0.3590 0.3580
3274.053686 0.3580 0.3580 0.3575 0.3570 0.3560
3278.800527 0.3550 0.3550 0.3550 0.3550 0.3550
3283.547367 0.3550 0.3550 0.3550 0.3550 0.3545
3288.294207 0.3540 0.3535 0.3530 0.3530 0.3529
3293.041047 0.3519 0.3510 0.3505 0.3500 0.3500
3297.787887 0.3500 0.3500 0.3499 0.3484 0.3470
3302.534728 0.3470 0.3470 0.3470 0.3470 0.3470
3307.281568 0.3470 0.3470 0.3470 0.3470 0.3470
3312.028408 0.3470 0.3470 0.3470 0.3470 0.3470
3316.775248 0.3470 0.3470 0.3470 0.3470 0.3470
3321.522088 0.3470 0.3470 0.3470 0.3470 0.3470
3326.268929 0.3468 0.3458 0.3450 0.3450 0.3450
3331.015769 0.3450 0.3450 0.3450 0.3450 0.3450
3335.762609 0.3450 0.3450 0.3450 0.3450 0.3450
3340.509449 0.3450 0.3450 0.3450 0.3450 0.3450
3345.256289 0.3449 0.3444 0.3440 0.3440 0.3437
3350.003130 0.3422 0.3408 0.3398 0.3390 0.3390
3354.749970 0.3390 0.3390 0.3389 0.3384 0.3380
3359.496810 0.3380 0.3380 0.3380 0.3380 0.3380
3364.243650 0.3377 0.3367 0.3360 0.3360 0.3360
3368.990490 0.3360 0.3360 0.3360 0.3360 0.3360
3373.737331 0.3360 0.3360 0.3360 0.3360 0.3360
3378.484171 0.3360 0.3363 0.3373 0.3380 0.3380
3383.231011 0.3380 0.3380 0.3380 0.3380 0.3380
3387.977851 0.3380 0.3377 0.3367 0.3360 0.3360
3392.724692 0.3360 0.3360 0.3360 0.3360 0.3360
3397.471532 0.3360 0.3358 0.3353 0.3345 0.3330
3402.218372 0.3317 0.3307 0.3300 0.3300 0.3300
3406.965212 0.3300 0.3300 0.3300 0.3300 0.3300
3411.712052 0.3298 0.3293 0.3290 0.3290 0.3290
3416.458893 0.3290 0.3286 0.3276 0.3270 0.3270
3421.205733 0.3270 0.3270 0.3268 0.3263 0.3260
3425.952573 0.3260 0.3260 0.3260 0.3256 0.3246
3430.699413 0.3240 0.3240 0.3240 0.3240 0.3240
3435.446253 0.3240 0.3240 0.3240 0.3240 0.3240
3440.193094 0.3240 0.3240 0.3240 0.3240 0.3240
3444.939934 0.3240 0.3240 0.3240 0.3238 0.3233
3449.686774 0.3230 0.3230 0.3230 0.3230 0.3230
3454.433614 0.3230 0.3230 0.3230 0.3230 0.3230
3459.180454 0.3230 0.3230 0.3230 0.3230 0.3230
3463.927295 0.3230 0.3230 0.3230 0.3230 0.3230
3468.674135 0.3230 0.3230 0.3230 0.3230 0.3230
3473.420975 0.3230 0.3230 0.3230 0.3230 0.3230
3478.167815 0.3230 0.3230 0.3230 0.3230 0.3227
3482.914655 0.3222 0.3220 0.3220 0.3220 0.3220
3487.661496 0.3215 0.3205 0.3200 0.3200 0.3200
3492.408336 0.3200 0.3200 0.3200 0.3200 0.3200
3497.155176 0.3200 0.3200 0.3200 0.3200 0.3200
3501.902016 0.3200 0.3200 0.3200 0.3200 0.3200
3506.648857 0.3200 0.3200 0.3197 0.3192 0.3190
3511.395697 0.3190 0.3190 0.3190 0.3184 0.3174
3516.142537 0.3170 0.3170 0.3170 0.3170 0.3167
3520.889377 0.3162 0.3160 0.3160 0.3160 0.3160
3525.636217 0.3154 0.3144 0.3140 0.3140 0.3140
3530.383058 0.3140 0.3140 0.3140 0.3140 0.3140
3535.129898 0.3140 0.3140 0.3140 0.3140 0.3140
3539.876738 0.3140 0.3140 0.3140 0.3140 0.3140
3544.623578 0.3140 0.3140 0.3140 0.3140 0.3140
3549.370418 0.3140 0.3137 0.3132 0.3130 0.3130
3554.117259 0.3130 0.3130 0.3130 0.3130 0.3130
3558.864099 0.3130 0.3130 0.3130 0.3130 0.3130
3563.610939 0.3130 0.3130 0.3130 0.3130 0.3130
3568.357779 0.3130 0.3130 0.3130 0.3130 0.3130
3573.104619 0.3130 0.3130 0.3130 0.3130 0.3130
3577.851460 0.3130 0.3130 0.3130 0.3130 0.3130
3582.598300 0.3130 0.3130 0.3130 0.3130 0.3122
3587.345140 0.3112 0.3110 0.3110 0.3106 0.3101
3592.091980 0.3100 0.3100 0.3092 0.3082 0.3080
3596.838820 0.3080 0.3076 0.3071 0.3070 0.3070
3601.585661 0.3070 0.3070 0.3070 0.3070 0.3070
3606.332501 0.3070 0.3070 0.3070 0.3070 0.3070
3611.079341 0.3062 0.3052 0.3050 0.3050 0.3050
3615.826181 0.3050 0.3050 0.3050 0.3050 0.3050
3620.573021 0.3050 0.3050 0.3050 0.3050 0.3050
3625.319862 0.3050 0.3050 0.3050 0.3050 0.3050
3630.066702 0.3050 0.3050 0.3046 0.3041 0.3040
3634.813542 0.3040 0.3031 0.3021 0.3020 0.3020
3639.560382 0.3020 0.3020 0.3020 0.3020 0.3020
3644.307223 0.3020 0.3020 0.3020 0.3020 0.3020
3649.054063 0.3020 0.3020 0.3020 0.3020 0.3020
3653.800903 0.3020 0.3020 0.3020 0.3020 0.3020
3658.547743 0.3020 0.3020 0.3020 0.3020 0.3020
3663.294583 0.3020 0.3015 0.3010 0.3000 0.2990
3668.041424 0.2990 0.2990 0.2975 0.2960 0.2955
3672.788264 0.2950 0.2950 0.2950 0.2950 0.2950
3677.535104 0.2940 0.2930 0.2930 0.2930 0.2940
3682.281944 0.2950 0.2950 0.2950 0.2940 0.2930
3687.028784 0.2930 0.2930 0.2930 0.2930 0.2930
3691.775625 0.2930 0.2930 0.2930 0.2925 0.2920
3696.522465 0.2920 0.2920 0.2920 0.2920 0.2920
3701.269305 0.2920 0.2910 0.2900 0.2900 0.2900
3706.016145 0.2900 0.2900 0.2900 0.2900 0.2895
3710.762985 0.2890 0.2890 0.2890 0.2890 0.2890
3715.509826 0.2885 0.2880 0.2880 0.2880 0.2880
3720.256666 0.2880 0.2880 0.2880 0.2880 0.2880
3725.003506 0.2880 0.2879 0.2869 0.2860 0.2860
3729.750346 0.2860 0.2860 0.2860 0.2860 0.2860
3734.497186 0.2860 0.2859 0.2854 0.2849 0.2839
3739.244027 0.2830 0.2830 0.2830 0.2830 0.2829
3743.990867 0.2824 0.2820 0.2820 0.2820 0.2820
3748.737707 0.2818 0.2808 0.2799 0.2794 0.2790
3753.484547 0.2790 0.2790 0.2790 0.2790 0.2790
3758.231387 0.2788 0.2778 0.2770 0.2770 0.2770
3762.978228 0.2770 0.2769 0.2764 0.2760 0.2760
3767.725068 0.2760 0.2760 0.2760 0.2760 0.2760
3772.471908 0.2760 0.2758 0.2748 0.2740 0.2740
3777.218748 0.2740 0.2740 0.2739 0.2734 0.2730
3781.965589 0.2730 0.2730 0.2730 0.2728 0.2717
3786.712429 0.2710 0.2710 0.2709 0.2704 0.2700
3791.459269 0.2700 0.2697 0.2687
##END=
