##TITLE=ETHYL PHOSPHATE, TRI-
##JCAMP-DX=4.24
##DATA TYPE=INFRARED SPECTRUM
##CLASS=COBLENTZ III
##ORIGIN=SOUTHERN RESEARCH INSTITUTE
##OWNER=Copyright (C) 1987 by the Coblentz Society
Collection (C) 2018 copyright by the U.S. Secretary of Commerce
on behalf of the United States of America. All rights reserved.
##DATE=1958/04/03
##NAMES=triethyl phosphate
Phosphoric acid, triethyl ester
##CAS REGISTRY NO=78-40-0
##MOLFORM=C6 H15 O4 P
##SOURCE REFERENCE=COBLENTZ NO. 6843
##$NIST SOURCE=COBLENTZ
##$NIST IMAGE=cob6843
##SPECTROMETER/DATA SYSTEM=PERKIN-ELMER 21 (GRATING)
##INSTRUMENT PARAMETERS=FILTER CHANGE ABOUT 1085 CM^-^1
##STATE=LIQUID (NEAT)
##PATH LENGTH=CAPILLARY
##RESOLUTION=2
##XUNITS=1/CM
##YUNITS=TRANSMITTANCE
##XFACTOR=1.0
##YFACTOR=1
##FIRSTX=596
##LASTX=3800
##FIRSTY=0.8804
##MAXX=3800
##MINX=596
##MAXY=0.9727
##MINY=0.0622
##NPOINTS=3205
##XYDATA=(X++(Y..Y))
596.000000 0.8804 0.8812 0.8819 0.8824 0.8827
601.000000 0.8831 0.8836 0.8842 0.8848 0.8854
606.000000 0.8862 0.8870 0.8878 0.8886 0.8894
611.000000 0.8903 0.8912 0.8920 0.8929 0.8936
616.000000 0.8942 0.8949 0.8956 0.8955 0.8954
621.000000 0.8954 0.8953 0.8959 0.8973 0.8987
626.000000 0.9001 0.9014 0.9028 0.9041 0.9054
631.000000 0.9068 0.9081 0.9094 0.9104 0.9115
636.000000 0.9125 0.9135 0.9146 0.9156 0.9166
641.000000 0.9177 0.9186 0.9191 0.9196 0.9200
646.000000 0.9204 0.9205 0.9206 0.9207 0.9207
651.000000 0.9208 0.9211 0.9224 0.9236 0.9249
656.000000 0.9259 0.9269 0.9278 0.9288 0.9296
661.000000 0.9300 0.9305 0.9309 0.9314 0.9318
666.000000 0.9322 0.9324 0.9324 0.9325 0.9325
671.000000 0.9325 0.9325 0.9325 0.9325 0.9326
676.000000 0.9326 0.9329 0.9332 0.9335 0.9338
681.000000 0.9342 0.9345 0.9348 0.9351 0.9354
686.000000 0.9355 0.9355 0.9355 0.9381 0.9354
691.000000 0.9354 0.9353 0.9342 0.9329 0.9316
696.000000 0.9303 0.9289 0.9274 0.9259 0.9244
701.000000 0.9229 0.9215 0.9204 0.9192 0.9181
706.000000 0.9169 0.9158 0.9146 0.9135 0.9123
711.000000 0.9112 0.9101 0.9089 0.9048 0.8988
716.000000 0.8930 0.8887 0.8863 0.8839 0.8815
721.000000 0.8791 0.8766 0.8741 0.8716 0.8690
726.000000 0.8663 0.8637 0.8610 0.8583 0.8556
731.000000 0.8529 0.8509 0.8493 0.8477 0.8460
736.000000 0.8444 0.8430 0.8417 0.8406 0.8409
741.000000 0.8412 0.8389 0.8440 0.8463 0.8487
746.000000 0.8510 0.8545 0.8582 0.8618 0.8656
751.000000 0.8701 0.8746 0.8791 0.8836 0.8879
756.000000 0.8922 0.8965 0.8994 0.9023 0.9052
761.000000 0.9076 0.9086 0.9095 0.9103 0.9102
766.000000 0.9135 0.9095 0.9086 0.9074 0.9032
771.000000 0.8985 0.8938 0.8897 0.8855 0.8802
776.000000 0.8744 0.8687 0.8631 0.8574 0.8521
781.000000 0.8473 0.8426 0.8360 0.7970 0.7831
786.000000 0.7745 0.7663 0.7576 0.7445 0.7314
791.000000 0.7184 0.7053 0.6922 0.6791 0.6656
796.000000 0.6513 0.6550 0.6527 0.6532 0.6540
801.000000 0.6547 0.6554 0.6573 0.6594 0.6612
806.000000 0.6625 0.6626 0.6638 0.6613 0.6600
811.000000 0.6587 0.6565 0.6542 0.6516 0.6491
816.000000 0.6447 0.6401 0.6372 0.6354 0.6355
821.000000 0.6351 0.6388 0.6416 0.6472 0.6591
826.000000 0.6710 0.6829 0.6948 0.7067 0.7185
831.000000 0.7304 0.7423 0.7542 0.7661 0.7780
836.000000 0.7899 0.8018 0.8136 0.8255 0.8402
841.000000 0.8487 0.8580 0.8651 0.8708 0.8765
846.000000 0.8833 0.8920 0.8998 0.9041 0.9084
851.000000 0.9127 0.9148 0.9166 0.9184 0.9203
856.000000 0.9213 0.9221 0.9229 0.9237 0.9245
861.000000 0.9253 0.9258 0.9259 0.9260 0.9262
866.000000 0.9263 0.9264 0.9264 0.9263 0.9262
871.000000 0.9261 0.9260 0.9255 0.9257 0.9256
876.000000 0.9253 0.9250 0.9246 0.9243 0.9240
881.000000 0.9236 0.9233 0.9229 0.9226 0.9223
886.000000 0.9218 0.9214 0.9209 0.9205 0.9200
891.000000 0.9195 0.9191 0.9175 0.9159 0.9144
896.000000 0.9133 0.9121 0.9109 0.9098 0.9088
901.000000 0.9077 0.9066 0.9053 0.9040 0.9027
906.000000 0.9014 0.8999 0.8984 0.8969 0.8947
911.000000 0.8921 0.8895 0.8869 0.8843 0.8817
916.000000 0.8788 0.8754 0.8720 0.8687 0.8653
921.000000 0.8603 0.8553 0.8503 0.8451 0.8388
926.000000 0.8326 0.8263 0.8163 0.8011 0.7858
931.000000 0.7743 0.7627 0.7512 0.7397 0.7281
936.000000 0.7166 0.7051 0.6935 0.6711 0.6577
941.000000 0.6432 0.6279 0.6163 0.6067 0.5972
946.000000 0.5859 0.5740 0.5620 0.5493 0.5366
951.000000 0.5290 0.5222 0.5155 0.5059 0.4950
956.000000 0.4810 0.4632 0.4356 0.4201 0.4074
961.000000 0.3950 0.3742 0.3563 0.3437 0.3310
966.000000 0.3233 0.3164 0.3094 0.3019 0.2930
971.000000 0.2853 0.2819 0.2798 0.2800 0.2825
976.000000 0.2828 0.2852 0.2882 0.2932 0.3005
981.000000 0.3094 0.3332 0.3527 0.3722 0.3917
986.000000 0.4113 0.4308 0.4503 0.4698 0.4893
991.000000 0.5089 0.5284 0.5479 0.5674 0.5869
996.000000 0.6065 0.6356 0.6367 0.6376 0.6366
1001.000000 0.6354 0.6338 0.6312 0.6270 0.6005
1006.000000 0.5735 0.5464 0.5194 0.4924 0.4653
1011.000000 0.4383 0.4112 0.3842 0.3571 0.3301
1016.000000 0.3030 0.2797 0.2544 0.2355 0.1798
1021.000000 0.1483 0.1266 0.1170 0.1073 0.0976
1026.000000 0.0831 0.0721 0.0663 0.0651 0.0641
1031.000000 0.0636 0.0631 0.0625 0.0622 0.0625
1036.000000 0.0628 0.0654 0.0688 0.0729 0.0778
1041.000000 0.0834 0.0891 0.0956 0.1024 0.1096
1046.000000 0.1170 0.1245 0.1347 0.1463 0.1632
1051.000000 0.1806 0.1901 0.1984 0.2067 0.2212
1056.000000 0.2380 0.2542 0.2870 0.3004 0.3139
1061.000000 0.3273 0.3408 0.3542 0.3677 0.3811
1066.000000 0.3946 0.4080 0.4215 0.4349 0.4482
1071.000000 0.4599 0.4657 0.4714 0.4768 0.4821
1076.000000 0.4883 0.4955 0.5034 0.5145 0.5251
1081.000000 0.5306 0.5358 0.5389 0.5480 0.5644
1086.000000 0.5807 0.5971 0.6135 0.6236 0.6239
1091.000000 0.6234 0.6229 0.6219 0.6206 0.6174
1096.000000 0.6135 0.6090 0.6040 0.6032 0.6029
1101.000000 0.6031 0.6036 0.6046 0.6060 0.6089
1106.000000 0.6137 0.6267 0.6453 0.6587 0.6678
1111.000000 0.6769 0.6877 0.6985 0.7114 0.7254
1116.000000 0.7376 0.7470 0.7550 0.7628 0.7693
1121.000000 0.7759 0.7825 0.7870 0.7906 0.7942
1126.000000 0.7978 0.8015 0.8054 0.8093 0.8114
1131.000000 0.8128 0.8141 0.8151 0.8149 0.8147
1136.000000 0.8145 0.8143 0.8128 0.8129 0.8120
1141.000000 0.8112 0.8103 0.8092 0.8070 0.8048
1146.000000 0.8022 0.7993 0.7965 0.7934 0.7899
1151.000000 0.7864 0.7829 0.7790 0.7735 0.7680
1156.000000 0.7616 0.7542 0.7454 0.7352 0.7250
1161.000000 0.7148 0.7046 0.6944 0.6842 0.6739
1166.000000 0.6603 0.6510 0.6464 0.6450 0.6445
1171.000000 0.6449 0.6548 0.6739 0.6930 0.7120
1176.000000 0.7311 0.7502 0.7692 0.7954 0.8048
1181.000000 0.8139 0.8227 0.8316 0.8370 0.8423
1186.000000 0.8476 0.8527 0.8565 0.8602 0.8639
1191.000000 0.8676 0.8710 0.8739 0.8767 0.8796
1196.000000 0.8824 0.8841 0.8858 0.8875 0.8888
1201.000000 0.8890 0.8892 0.8894 0.8899 0.8909
1206.000000 0.8913 0.8913 0.8913 0.8914 0.8900
1211.000000 0.8893 0.8884 0.8874 0.8865 0.8855
1216.000000 0.8845 0.8835 0.8820 0.8806 0.8791
1221.000000 0.8776 0.8760 0.8733 0.8707 0.8680
1226.000000 0.8650 0.8615 0.8580 0.8546 0.8511
1231.000000 0.8476 0.8440 0.8402 0.8364 0.8326
1236.000000 0.8288 0.8250 0.8205 0.8153 0.8100
1241.000000 0.8059 0.8023 0.7986 0.7861 0.7585
1246.000000 0.7309 0.7033 0.6757 0.6576 0.6508
1251.000000 0.6440 0.6370 0.6287 0.6203 0.5952
1256.000000 0.5228 0.4494 0.4173 0.3896 0.3763
1261.000000 0.3636 0.3567 0.3499 0.3431 0.3367
1266.000000 0.3326 0.3293 0.3261 0.3228 0.3203
1271.000000 0.3184 0.3178 0.3172 0.3172 0.3185
1276.000000 0.3227 0.3318 0.3439 0.3564 0.3710
1281.000000 0.3852 0.3995 0.4137 0.4279 0.4422
1286.000000 0.4564 0.4707 0.4849 0.4991 0.5134
1291.000000 0.5276 0.5419 0.5561 0.5703 0.5846
1296.000000 0.5988 0.6131 0.6273 0.6828 0.6928
1301.000000 0.6985 0.7039 0.7094 0.7149 0.7297
1306.000000 0.7437 0.7562 0.7844 0.7980 0.8474
1311.000000 0.8556 0.8612 0.8668 0.8724 0.8756
1316.000000 0.8785 0.8815 0.8837 0.8851 0.8866
1321.000000 0.8881 0.8895 0.8910 0.8925 0.8939
1326.000000 0.8954 0.8968 0.8983 0.8997 0.9012
1331.000000 0.9026 0.9041 0.9055 0.9068 0.9077
1336.000000 0.9087 0.9096 0.9105 0.9112 0.9119
1341.000000 0.9125 0.9132 0.9139 0.9145 0.9146
1346.000000 0.9148 0.9149 0.9151 0.9188 0.9150
1351.000000 0.9142 0.9128 0.9114 0.9100 0.9085
1356.000000 0.9070 0.9044 0.9019 0.8993 0.8964
1361.000000 0.8929 0.8894 0.8851 0.8797 0.8738
1366.000000 0.8613 0.8494 0.8400 0.8338 0.8250
1371.000000 0.8256 0.8260 0.8271 0.8303 0.8355
1376.000000 0.8436 0.8582 0.8751 0.8775 0.8786
1381.000000 0.8766 0.8759 0.8746 0.8725 0.8665
1386.000000 0.8551 0.8430 0.8309 0.8188 0.8067
1391.000000 0.7947 0.7826 0.7705 0.7584 0.7502
1396.000000 0.7493 0.7509 0.7487 0.7497 0.7563
1401.000000 0.7790 0.8017 0.8158 0.8204 0.8273
1406.000000 0.8347 0.8471 0.8632 0.8751 0.8852
1411.000000 0.8895 0.8926 0.8951 0.8976 0.9001
1416.000000 0.9026 0.9050 0.9074 0.9093 0.9121
1421.000000 0.9092 0.9089 0.9085 0.9080 0.9071
1426.000000 0.9051 0.9021 0.8992 0.8963 0.8933
1431.000000 0.8903 0.8875 0.8839 0.8791 0.8746
1436.000000 0.8705 0.8663 0.8611 0.8563 0.8531
1441.000000 0.8497 0.8398 0.8205 0.8107 0.8042
1446.000000 0.8007 0.7992 0.8023 0.7998 0.8091
1451.000000 0.8252 0.8385 0.8445 0.8485 0.8512
1456.000000 0.8539 0.8567 0.8588 0.8609 0.8628
1461.000000 0.8642 0.8655 0.8669 0.8682 0.8691
1466.000000 0.8697 0.8704 0.8710 0.8715 0.8707
1471.000000 0.8705 0.8674 0.8641 0.8595 0.8550
1476.000000 0.8505 0.8429 0.8401 0.8381 0.8376
1481.000000 0.8367 0.8374 0.8383 0.8399 0.8414
1486.000000 0.8452 0.8550 0.8660 0.8770 0.8881
1491.000000 0.8997 0.9046 0.9089 0.9118 0.9141
1496.000000 0.9164 0.9186 0.9208 0.9230 0.9251
1501.000000 0.9264 0.9278 0.9291 0.9305 0.9322
1506.000000 0.9341 0.9350 0.9359 0.9369 0.9376
1511.000000 0.9383 0.9389 0.9396 0.9402 0.9409
1516.000000 0.9412 0.9414 0.9417 0.9419 0.9422
1521.000000 0.9424 0.9425 0.9425 0.9426 0.9426
1526.000000 0.9427 0.9427 0.9428 0.9429 0.9429
1531.000000 0.9430 0.9432 0.9433 0.9434 0.9436
1536.000000 0.9437 0.9440 0.9444 0.9448 0.9453
1541.000000 0.9459 0.9464 0.9471 0.9479 0.9486
1546.000000 0.9493 0.9500 0.9505 0.9508 0.9512
1551.000000 0.9515 0.9518 0.9522 0.9525 0.9528
1556.000000 0.9529 0.9529 0.9529 0.9529 0.9530
1561.000000 0.9525 0.9521 0.9516 0.9512 0.9507
1566.000000 0.9502 0.9498 0.9493 0.9489 0.9484
1571.000000 0.9479 0.9475 0.9470 0.9466 0.9461
1576.000000 0.9456 0.9452 0.9447 0.9443 0.9438
1581.000000 0.9434 0.9429 0.9426 0.9424 0.9422
1586.000000 0.9420 0.9418 0.9417 0.9415 0.9414
1591.000000 0.9412 0.9410 0.9409 0.9408 0.9408
1596.000000 0.9409 0.9410 0.9410 0.9411 0.9412
1601.000000 0.9412 0.9415 0.9419 0.9422 0.9426
1606.000000 0.9429 0.9433 0.9435 0.9435 0.9435
1611.000000 0.9435 0.9434 0.9429 0.9423 0.9413
1616.000000 0.9401 0.9389 0.9377 0.9367 0.9361
1621.000000 0.9355 0.9349 0.9346 0.9346 0.9347
1626.000000 0.9347 0.9348 0.9348 0.9349 0.9349
1631.000000 0.9350 0.9350 0.9350 0.9350 0.9350
1636.000000 0.9349 0.9349 0.9349 0.9349 0.9349
1641.000000 0.9348 0.9348 0.9348 0.9348 0.9347
1646.000000 0.9347 0.9347 0.9347 0.9346 0.9346
1651.000000 0.9346 0.9346 0.9347 0.9347 0.9347
1656.000000 0.9347 0.9347 0.9347 0.9349 0.9353
1661.000000 0.9358 0.9362 0.9366 0.9370 0.9374
1666.000000 0.9378 0.9381 0.9385 0.9389 0.9393
1671.000000 0.9397 0.9400 0.9404 0.9408 0.9410
1676.000000 0.9412 0.9414 0.9416 0.9418 0.9420
1681.000000 0.9422 0.9417 0.9412 0.9407 0.9402
1686.000000 0.9396 0.9396 0.9399 0.9401 0.9404
1691.000000 0.9406 0.9411 0.9417 0.9422 0.9427
1696.000000 0.9432 0.9437 0.9441 0.9445 0.9450
1701.000000 0.9442 0.9433 0.9425 0.9412 0.9398
1706.000000 0.9384 0.9368 0.9350 0.9331 0.9313
1711.000000 0.9298 0.9287 0.9276 0.9270 0.9268
1716.000000 0.9266 0.9263 0.9261 0.9259 0.9256
1721.000000 0.9254 0.9252 0.9250 0.9248 0.9246
1726.000000 0.9244 0.9242 0.9242 0.9242 0.9243
1731.000000 0.9245 0.9246 0.9248 0.9249 0.9250
1736.000000 0.9252 0.9253 0.9255 0.9257 0.9260
1741.000000 0.9262 0.9265 0.9267 0.9271 0.9279
1746.000000 0.9287 0.9295 0.9304 0.9310 0.9313
1751.000000 0.9315 0.9318 0.9321 0.9323 0.9324
1756.000000 0.9324 0.9323 0.9323 0.9323 0.9322
1761.000000 0.9322 0.9322 0.9322 0.9322 0.9322
1766.000000 0.9323 0.9323 0.9323 0.9324 0.9325
1771.000000 0.9325 0.9326 0.9327 0.9328 0.9332
1776.000000 0.9336 0.9340 0.9344 0.9348 0.9352
1781.000000 0.9356 0.9360 0.9363 0.9367 0.9371
1786.000000 0.9375 0.9379 0.9383 0.9387 0.9390
1791.000000 0.9391 0.9392 0.9393 0.9394 0.9395
1796.000000 0.9396 0.9397 0.9398 0.9397 0.9395
1801.000000 0.9393 0.9391 0.9389 0.9387 0.9385
1806.000000 0.9382 0.9379 0.9376 0.9373 0.9370
1811.000000 0.9367 0.9364 0.9361 0.9358 0.9355
1816.000000 0.9352 0.9350 0.9349 0.9347 0.9345
1821.000000 0.9343 0.9342 0.9340 0.9338 0.9335
1826.000000 0.9333 0.9330 0.9329 0.9328 0.9327
1831.000000 0.9326 0.9325 0.9324 0.9323 0.9320
1836.000000 0.9316 0.9312 0.9308 0.9304 0.9300
1841.000000 0.9298 0.9296 0.9294 0.9293 0.9291
1846.000000 0.9290 0.9291 0.9293 0.9295 0.9296
1851.000000 0.9298 0.9299 0.9301 0.9303 0.9305
1856.000000 0.9307 0.9309 0.9311 0.9313 0.9314
1861.000000 0.9316 0.9318 0.9320 0.9322 0.9324
1866.000000 0.9327 0.9329 0.9332 0.9334 0.9337
1871.000000 0.9339 0.9342 0.9345 0.9347 0.9349
1876.000000 0.9350 0.9352 0.9354 0.9355 0.9357
1881.000000 0.9359 0.9360 0.9362 0.9365 0.9369
1886.000000 0.9374 0.9378 0.9382 0.9387 0.9392
1891.000000 0.9396 0.9401 0.9406 0.9410 0.9414
1896.000000 0.9417 0.9421 0.9424 0.9427 0.9431
1901.000000 0.9434 0.9438 0.9441 0.9444 0.9447
1906.000000 0.9450 0.9452 0.9455 0.9458 0.9460
1911.000000 0.9463 0.9466 0.9468 0.9470 0.9473
1916.000000 0.9475 0.9477 0.9479 0.9482 0.9484
1921.000000 0.9486 0.9488 0.9491 0.9493 0.9495
1926.000000 0.9498 0.9500 0.9502 0.9505 0.9507
1931.000000 0.9509 0.9512 0.9514 0.9516 0.9516
1936.000000 0.9516 0.9517 0.9517 0.9517 0.9517
1941.000000 0.9517 0.9517 0.9518 0.9518 0.9518
1946.000000 0.9518 0.9518 0.9518 0.9519 0.9519
1951.000000 0.9519 0.9519 0.9519 0.9519 0.9520
1956.000000 0.9520 0.9520 0.9520 0.9520 0.9520
1961.000000 0.9521 0.9521 0.9521 0.9521 0.9521
1966.000000 0.9521 0.9521 0.9522 0.9522 0.9522
1971.000000 0.9522 0.9522 0.9522 0.9523 0.9523
1976.000000 0.9523 0.9523 0.9523 0.9523 0.9528
1981.000000 0.9534 0.9541 0.9547 0.9554 0.9560
1986.000000 0.9557 0.9554 0.9552 0.9549 0.9546
1991.000000 0.9540 0.9534 0.9529 0.9529 0.9528
1996.000000 0.9527 0.9527 0.9526 0.9526 0.9525
2001.000000 0.9525 0.9524 0.9524 0.9525 0.9527
2006.000000 0.9529 0.9530 0.9532 0.9533 0.9535
2011.000000 0.9536 0.9535 0.9535 0.9535 0.9535
2016.000000 0.9534 0.9534 0.9534 0.9534 0.9534
2021.000000 0.9534 0.9534 0.9534 0.9534 0.9534
2026.000000 0.9535 0.9535 0.9535 0.9535 0.9535
2031.000000 0.9535 0.9534 0.9534 0.9534 0.9533
2036.000000 0.9533 0.9533 0.9533 0.9534 0.9534
2041.000000 0.9534 0.9535 0.9535 0.9535 0.9536
2046.000000 0.9536 0.9536 0.9537 0.9537 0.9537
2051.000000 0.9538 0.9538 0.9539 0.9539 0.9539
2056.000000 0.9540 0.9541 0.9542 0.9543 0.9544
2061.000000 0.9546 0.9547 0.9548 0.9549 0.9550
2066.000000 0.9551 0.9552 0.9554 0.9555 0.9556
2071.000000 0.9556 0.9556 0.9556 0.9556 0.9556
2076.000000 0.9556 0.9556 0.9555 0.9555 0.9555
2081.000000 0.9555 0.9555 0.9555 0.9555 0.9555
2086.000000 0.9555 0.9555 0.9556 0.9556 0.9557
2091.000000 0.9557 0.9557 0.9558 0.9558 0.9559
2096.000000 0.9559 0.9560 0.9560 0.9560 0.9561
2101.000000 0.9561 0.9562 0.9562 0.9563 0.9563
2106.000000 0.9564 0.9564 0.9565 0.9565 0.9566
2111.000000 0.9566 0.9565 0.9565 0.9564 0.9563
2116.000000 0.9563 0.9562 0.9562 0.9561 0.9561
2121.000000 0.9560 0.9560 0.9559 0.9558 0.9558
2126.000000 0.9558 0.9557 0.9557 0.9557 0.9557
2131.000000 0.9557 0.9557 0.9556 0.9556 0.9556
2136.000000 0.9556 0.9554 0.9553 0.9552 0.9551
2141.000000 0.9550 0.9548 0.9547 0.9546 0.9545
2146.000000 0.9543 0.9542 0.9541 0.9540 0.9538
2151.000000 0.9537 0.9536 0.9535 0.9534 0.9533
2156.000000 0.9533 0.9532 0.9532 0.9531 0.9531
2161.000000 0.9530 0.9530 0.9529 0.9529 0.9530
2166.000000 0.9532 0.9533 0.9535 0.9536 0.9538
2171.000000 0.9539 0.9541 0.9542 0.9544 0.9546
2176.000000 0.9549 0.9553 0.9556 0.9560 0.9564
2181.000000 0.9567 0.9571 0.9574 0.9578 0.9581
2186.000000 0.9585 0.9588 0.9592 0.9595 0.9599
2191.000000 0.9602 0.9606 0.9608 0.9608 0.9608
2196.000000 0.9608 0.9608 0.9609 0.9609 0.9607
2201.000000 0.9606 0.9604 0.9603 0.9602 0.9600
2206.000000 0.9598 0.9597 0.9595 0.9593 0.9592
2211.000000 0.9590 0.9590 0.9591 0.9591 0.9592
2216.000000 0.9592 0.9593 0.9594 0.9595 0.9597
2221.000000 0.9599 0.9601 0.9603 0.9605 0.9577
2226.000000 0.9611 0.9614 0.9617 0.9620 0.9623
2231.000000 0.9626 0.9629 0.9632 0.9637 0.9643
2236.000000 0.9648 0.9647 0.9642 0.9637 0.9632
2241.000000 0.9627 0.9622 0.9616 0.9612 0.9610
2246.000000 0.9607 0.9605 0.9603 0.9600 0.9598
2251.000000 0.9596 0.9593 0.9591 0.9589 0.9586
2256.000000 0.9584 0.9581 0.9579 0.9576 0.9574
2261.000000 0.9572 0.9569 0.9567 0.9565 0.9564
2266.000000 0.9564 0.9567 0.9570 0.9574 0.9577
2271.000000 0.9580 0.9584 0.9587 0.9590 0.9594
2276.000000 0.9597 0.9600 0.9604 0.9609 0.9613
2281.000000 0.9618 0.9623 0.9629 0.9636 0.9644
2286.000000 0.9651 0.9659 0.9662 0.9662 0.9662
2291.000000 0.9663 0.9662 0.9662 0.9661 0.9660
2296.000000 0.9660 0.9659 0.9658 0.9658 0.9657
2301.000000 0.9656 0.9656 0.9655 0.9654 0.9654
2306.000000 0.9653 0.9652 0.9652 0.9651 0.9649
2311.000000 0.9647 0.9645 0.9644 0.9642 0.9640
2316.000000 0.9638 0.9636 0.9635 0.9633 0.9631
2321.000000 0.9629 0.9629 0.9630 0.9630 0.9631
2326.000000 0.9632 0.9632 0.9633 0.9633 0.9632
2331.000000 0.9631 0.9631 0.9630 0.9629 0.9629
2336.000000 0.9628 0.9627 0.9626 0.9625 0.9625
2341.000000 0.9624 0.9623 0.9622 0.9620 0.9617
2346.000000 0.9614 0.9612 0.9609 0.9606 0.9604
2351.000000 0.9601 0.9598 0.9596 0.9593 0.9590
2356.000000 0.9588 0.9586 0.9585 0.9584 0.9582
2361.000000 0.9581 0.9579 0.9578 0.9577 0.9575
2366.000000 0.9574 0.9573 0.9573 0.9573 0.9573
2371.000000 0.9573 0.9573 0.9573 0.9574 0.9574
2376.000000 0.9574 0.9574 0.9574 0.9574 0.9574
2381.000000 0.9575 0.9574 0.9574 0.9573 0.9572
2386.000000 0.9572 0.9570 0.9568 0.9566 0.9565
2391.000000 0.9563 0.9561 0.9559 0.9558 0.9556
2396.000000 0.9554 0.9552 0.9550 0.9549 0.9548
2401.000000 0.9547 0.9547 0.9546 0.9545 0.9545
2406.000000 0.9544 0.9540 0.9542 0.9543 0.9545
2411.000000 0.9546 0.9548 0.9549 0.9551 0.9552
2416.000000 0.9554 0.9555 0.9557 0.9558 0.9559
2421.000000 0.9561 0.9562 0.9564 0.9567 0.9570
2426.000000 0.9573 0.9576 0.9579 0.9581 0.9584
2431.000000 0.9588 0.9591 0.9595 0.9599 0.9603
2436.000000 0.9607 0.9610 0.9614 0.9618 0.9620
2441.000000 0.9620 0.9620 0.9617 0.9614 0.9611
2446.000000 0.9608 0.9606 0.9606 0.9605 0.9605
2451.000000 0.9604 0.9604 0.9604 0.9604 0.9604
2456.000000 0.9605 0.9605 0.9605 0.9605 0.9606
2461.000000 0.9607 0.9607 0.9608 0.9609 0.9609
2466.000000 0.9610 0.9611 0.9613 0.9615 0.9616
2471.000000 0.9618 0.9620 0.9621 0.9623 0.9625
2476.000000 0.9626 0.9628 0.9629 0.9631 0.9633
2481.000000 0.9634 0.9636 0.9637 0.9632 0.9628
2486.000000 0.9623 0.9619 0.9614 0.9606 0.9597
2491.000000 0.9588 0.9579 0.9572 0.9567 0.9561
2496.000000 0.9556 0.9550 0.9545 0.9539 0.9534
2501.000000 0.9530 0.9529 0.9527 0.9526 0.9525
2506.000000 0.9524 0.9522 0.9521 0.9522 0.9524
2511.000000 0.9526 0.9527 0.9529 0.9530 0.9532
2516.000000 0.9533 0.9535 0.9536 0.9538 0.9541
2521.000000 0.9543 0.9546 0.9548 0.9551 0.9553
2526.000000 0.9556 0.9561 0.9567 0.9573 0.9579
2531.000000 0.9585 0.9591 0.9597 0.9603 0.9607
2536.000000 0.9610 0.9614 0.9618 0.9615 0.9611
2541.000000 0.9608 0.9605 0.9602 0.9594 0.9584
2546.000000 0.9575 0.9567 0.9562 0.9557 0.9552
2551.000000 0.9547 0.9546 0.9546 0.9546 0.9546
2556.000000 0.9547 0.9547 0.9547 0.9547 0.9548
2561.000000 0.9550 0.9551 0.9553 0.9555 0.9556
2566.000000 0.9558 0.9560 0.9562 0.9563 0.9565
2571.000000 0.9567 0.9568 0.9570 0.9572 0.9574
2576.000000 0.9577 0.9583 0.9589 0.9595 0.9601
2581.000000 0.9606 0.9613 0.9624 0.9634 0.9644
2586.000000 0.9655 0.9665 0.9670 0.9670 0.9666
2591.000000 0.9662 0.9658 0.9651 0.9645 0.9638
2596.000000 0.9631 0.9623 0.9612 0.9601 0.9589
2601.000000 0.9578 0.9568 0.9558 0.9549 0.9539
2606.000000 0.9529 0.9519 0.9520 0.9520 0.9520
2611.000000 0.9522 0.9524 0.9525 0.9527 0.9530
2616.000000 0.9534 0.9537 0.9541 0.9545 0.9548
2621.000000 0.9552 0.9556 0.9559 0.9563 0.9566
2626.000000 0.9569 0.9571 0.9573 0.9575 0.9578
2631.000000 0.9580 0.9582 0.9584 0.9586 0.9588
2636.000000 0.9587 0.9587 0.9587 0.9587 0.9587
2641.000000 0.9587 0.9587 0.9586 0.9586 0.9586
2646.000000 0.9586 0.9585 0.9583 0.9582 0.9580
2651.000000 0.9579 0.9578 0.9576 0.9575 0.9573
2656.000000 0.9572 0.9571 0.9569 0.9568 0.9566
2661.000000 0.9564 0.9563 0.9561 0.9560 0.9558
2666.000000 0.9557 0.9555 0.9556 0.9561 0.9566
2671.000000 0.9571 0.9575 0.9580 0.9582 0.9577
2676.000000 0.9572 0.9567 0.9565 0.9563 0.9562
2681.000000 0.9560 0.9556 0.9553 0.9549 0.9545
2686.000000 0.9542 0.9538 0.9534 0.9530 0.9527
2691.000000 0.9523 0.9519 0.9515 0.9511 0.9508
2696.000000 0.9504 0.9499 0.9494 0.9490 0.9485
2701.000000 0.9480 0.9475 0.9470 0.9466 0.9461
2706.000000 0.9456 0.9451 0.9449 0.9448 0.9446
2711.000000 0.9445 0.9443 0.9441 0.9440 0.9438
2716.000000 0.9437 0.9435 0.9433 0.9432 0.9430
2721.000000 0.9429 0.9429 0.9429 0.9430 0.9431
2726.000000 0.9431 0.9432 0.9433 0.9433 0.9434
2731.000000 0.9435 0.9435 0.9436 0.9436 0.9437
2736.000000 0.9438 0.9439 0.9440 0.9442 0.9443
2741.000000 0.9445 0.9446 0.9448 0.9449 0.9451
2746.000000 0.9452 0.9453 0.9455 0.9456 0.9458
2751.000000 0.9459 0.9461 0.9462 0.9464 0.9466
2756.000000 0.9467 0.9469 0.9471 0.9473 0.9474
2761.000000 0.9476 0.9479 0.9484 0.9489 0.9494
2766.000000 0.9499 0.9505 0.9510 0.9515 0.9520
2771.000000 0.9525 0.9531 0.9530 0.9527 0.9525
2776.000000 0.9522 0.9519 0.9516 0.9513 0.9509
2781.000000 0.9505 0.9501 0.9497 0.9492 0.9488
2786.000000 0.9483 0.9477 0.9470 0.9464 0.9458
2791.000000 0.9451 0.9445 0.9438 0.9432 0.9425
2796.000000 0.9419 0.9412 0.9404 0.9394 0.9384
2801.000000 0.9374 0.9364 0.9353 0.9343 0.9331
2806.000000 0.9319 0.9308 0.9296 0.9284 0.9272
2811.000000 0.9260 0.9248 0.9236 0.9225 0.9214
2816.000000 0.9203 0.9192 0.9181 0.9171 0.9160
2821.000000 0.9149 0.9138 0.9126 0.9113 0.9100
2826.000000 0.9087 0.9074 0.9061 0.9048 0.9035
2831.000000 0.9022 0.9011 0.9000 0.8988 0.8977
2836.000000 0.8966 0.8955 0.8946 0.8942 0.8937
2841.000000 0.8932 0.8927 0.8922 0.8918 0.8915
2846.000000 0.8912 0.8909 0.8906 0.8903 0.8900
2851.000000 0.8898 0.8895 0.8892 0.8889 0.8886
2856.000000 0.8883 0.8877 0.8872 0.8867 0.8845
2861.000000 0.8795 0.8733 0.8669 0.8605 0.8564
2866.000000 0.8532 0.8499 0.8466 0.8438 0.8412
2871.000000 0.8386 0.8360 0.8330 0.8298 0.8265
2876.000000 0.8233 0.8200 0.8168 0.8138 0.8109
2881.000000 0.8081 0.8053 0.8024 0.7996 0.7972
2886.000000 0.7958 0.7944 0.7930 0.7916 0.7902
2891.000000 0.7888 0.7879 0.7870 0.7861 0.7852
2896.000000 0.7844 0.7844 0.7845 0.7845 0.7845
2901.000000 0.7845 0.7845 0.7845 0.7846 0.7846
2906.000000 0.7846 0.7848 0.7850 0.7851 0.7871
2911.000000 0.7855 0.7856 0.7858 0.7861 0.7863
2916.000000 0.7866 0.7868 0.7871 0.7873 0.7875
2921.000000 0.7877 0.7879 0.7880 0.7879 0.7878
2926.000000 0.7874 0.7857 0.7838 0.7819 0.7791
2931.000000 0.7763 0.7734 0.7711 0.7688 0.7662
2936.000000 0.7634 0.7605 0.7576 0.7539 0.7502
2941.000000 0.7463 0.7422 0.7382 0.7341 0.7301
2946.000000 0.7247 0.7191 0.7136 0.7081 0.7002
2951.000000 0.6911 0.6820 0.6721 0.6620 0.6524
2956.000000 0.6432 0.6351 0.6279 0.6207 0.6163
2961.000000 0.6159 0.6159 0.6161 0.6147 0.6196
2966.000000 0.6273 0.6325 0.6376 0.6418 0.6459
2971.000000 0.6516 0.6584 0.6661 0.6742 0.6931
2976.000000 0.7122 0.7313 0.7504 0.7694 0.7885
2981.000000 0.8076 0.8155 0.8207 0.8271 0.8341
2986.000000 0.8420 0.8499 0.8517 0.8535 0.8551
2991.000000 0.8567 0.8595 0.8631 0.8662 0.8692
2996.000000 0.8722 0.8752 0.8788 0.8830 0.8872
3001.000000 0.8904 0.8928 0.8953 0.8977 0.9002
3006.000000 0.9024 0.9043 0.9063 0.9083 0.9102
3011.000000 0.9122 0.9134 0.9146 0.9158 0.9170
3016.000000 0.9182 0.9194 0.9204 0.9213 0.9222
3021.000000 0.9231 0.9240 0.9249 0.9258 0.9267
3026.000000 0.9276 0.9283 0.9290 0.9298 0.9305
3031.000000 0.9312 0.9319 0.9327 0.9334 0.9341
3036.000000 0.9354 0.9365 0.9371 0.9377 0.9383
3041.000000 0.9389 0.9396 0.9402 0.9409 0.9415
3046.000000 0.9422 0.9425 0.9429 0.9432 0.9436
3051.000000 0.9436 0.9436 0.9436 0.9436 0.9437
3056.000000 0.9437 0.9435 0.9434 0.9432 0.9431
3061.000000 0.9438 0.9448 0.9458 0.9467 0.9475
3066.000000 0.9483 0.9482 0.9476 0.9469 0.9462
3071.000000 0.9452 0.9442 0.9433 0.9429 0.9429
3076.000000 0.9429 0.9430 0.9431 0.9432 0.9433
3081.000000 0.9434 0.9435 0.9437 0.9439 0.9441
3086.000000 0.9443 0.9446 0.9448 0.9451 0.9453
3091.000000 0.9458 0.9462 0.9466 0.9471 0.9477
3096.000000 0.9483 0.9489 0.9496 0.9501 0.9504
3101.000000 0.9506 0.9508 0.9507 0.9507 0.9507
3106.000000 0.9507 0.9506 0.9506 0.9506 0.9505
3111.000000 0.9505 0.9505 0.9504 0.9504 0.9504
3116.000000 0.9503 0.9504 0.9506 0.9509 0.9511
3121.000000 0.9514 0.9516 0.9518 0.9527 0.9535
3126.000000 0.9544 0.9553 0.9561 0.9570 0.9570
3131.000000 0.9566 0.9563 0.9559 0.9556 0.9552
3136.000000 0.9545 0.9538 0.9531 0.9531 0.9531
3141.000000 0.9530 0.9530 0.9530 0.9529 0.9529
3146.000000 0.9529 0.9529 0.9530 0.9530 0.9530
3151.000000 0.9530 0.9530 0.9530 0.9531 0.9531
3156.000000 0.9531 0.9531 0.9531 0.9531 0.9532
3161.000000 0.9532 0.9532 0.9532 0.9532 0.9532
3166.000000 0.9532 0.9533 0.9533 0.9533 0.9533
3171.000000 0.9533 0.9533 0.9534 0.9534 0.9534
3176.000000 0.9541 0.9534 0.9534 0.9535 0.9533
3181.000000 0.9532 0.9530 0.9528 0.9526 0.9524
3186.000000 0.9520 0.9517 0.9513 0.9509 0.9505
3191.000000 0.9501 0.9497 0.9493 0.9488 0.9483
3196.000000 0.9478 0.9474 0.9469 0.9464 0.9459
3201.000000 0.9456 0.9454 0.9453 0.9451 0.9449
3206.000000 0.9448 0.9446 0.9444 0.9442 0.9441
3211.000000 0.9444 0.9448 0.9451 0.9455 0.9458
3216.000000 0.9462 0.9466 0.9471 0.9476 0.9481
3221.000000 0.9486 0.9490 0.9495 0.9499 0.9504
3226.000000 0.9508 0.9512 0.9517 0.9521 0.9526
3231.000000 0.9529 0.9531 0.9534 0.9536 0.9538
3236.000000 0.9540 0.9542 0.9544 0.9546 0.9548
3241.000000 0.9548 0.9548 0.9547 0.9547 0.9547
3246.000000 0.9547 0.9546 0.9546 0.9545 0.9542
3251.000000 0.9540 0.9538 0.9536 0.9533 0.9531
3256.000000 0.9529 0.9527 0.9525 0.9523 0.9521
3261.000000 0.9519 0.9518 0.9516 0.9514 0.9512
3266.000000 0.9510 0.9509 0.9507 0.9505 0.9503
3271.000000 0.9501 0.9500 0.9498 0.9496 0.9494
3276.000000 0.9493 0.9492 0.9491 0.9490 0.9489
3281.000000 0.9489 0.9488 0.9488 0.9488 0.9488
3286.000000 0.9488 0.9488 0.9489 0.9489 0.9489
3291.000000 0.9489 0.9489 0.9489 0.9490 0.9490
3296.000000 0.9490 0.9490 0.9490 0.9490 0.9491
3301.000000 0.9491 0.9492 0.9492 0.9493 0.9493
3306.000000 0.9494 0.9494 0.9495 0.9495 0.9496
3311.000000 0.9497 0.9497 0.9498 0.9498 0.9499
3316.000000 0.9500 0.9500 0.9501 0.9502 0.9502
3321.000000 0.9503 0.9503 0.9504 0.9505 0.9505
3326.000000 0.9503 0.9500 0.9497 0.9495 0.9492
3331.000000 0.9489 0.9488 0.9487 0.9486 0.9485
3336.000000 0.9484 0.9483 0.9482 0.9481 0.9480
3341.000000 0.9476 0.9471 0.9467 0.9462 0.9457
3346.000000 0.9452 0.9447 0.9443 0.9438 0.9433
3351.000000 0.9428 0.9424 0.9422 0.9419 0.9417
3356.000000 0.9415 0.9412 0.9410 0.9407 0.9405
3361.000000 0.9403 0.9400 0.9398 0.9395 0.9393
3366.000000 0.9390 0.9387 0.9384 0.9380 0.9377
3371.000000 0.9374 0.9370 0.9367 0.9364 0.9361
3376.000000 0.9362 0.9362 0.9362 0.9362 0.9362
3381.000000 0.9362 0.9362 0.9361 0.9360 0.9358
3386.000000 0.9357 0.9356 0.9355 0.9354 0.9353
3391.000000 0.9352 0.9350 0.9349 0.9348 0.9347
3396.000000 0.9344 0.9341 0.9338 0.9336 0.9333
3401.000000 0.9330 0.9327 0.9324 0.9322 0.9317
3406.000000 0.9311 0.9305 0.9298 0.9292 0.9286
3411.000000 0.9280 0.9268 0.9245 0.9225 0.9213
3416.000000 0.9202 0.9191 0.9179 0.9171 0.9162
3421.000000 0.9154 0.9146 0.9137 0.9132 0.9127
3426.000000 0.9122 0.9118 0.9114 0.9113 0.9111
3431.000000 0.9109 0.9108 0.9106 0.9104 0.9103
3436.000000 0.9101 0.9099 0.9099 0.9098 0.9098
3441.000000 0.9097 0.9097 0.9097 0.9096 0.9096
3446.000000 0.9095 0.9095 0.9094 0.9094 0.9094
3451.000000 0.9093 0.9093 0.9093 0.9092 0.9092
3456.000000 0.9092 0.9092 0.9091 0.9091 0.9091
3461.000000 0.9090 0.9090 0.9090 0.9089 0.9088
3466.000000 0.9087 0.9086 0.9085 0.9084 0.9083
3471.000000 0.9082 0.9081 0.9080 0.9079 0.9078
3476.000000 0.9077 0.9075 0.9074 0.9072 0.9069
3481.000000 0.9066 0.9063 0.9060 0.9057 0.9054
3486.000000 0.9051 0.9049 0.9044 0.9043 0.9040
3491.000000 0.9036 0.9033 0.9029 0.9025 0.9021
3496.000000 0.9017 0.9013 0.9009 0.9007 0.9006
3501.000000 0.9006 0.9006 0.9006 0.9005 0.9005
3506.000000 0.9005 0.9005 0.9005 0.9006 0.9007
3511.000000 0.9008 0.9010 0.9011 0.9012 0.9013
3516.000000 0.9015 0.9016 0.9017 0.9018 0.9020
3521.000000 0.9022 0.9029 0.9036 0.9043 0.9050
3526.000000 0.9057 0.9064 0.9071 0.9078 0.9086
3531.000000 0.9093 0.9101 0.9108 0.9116 0.9123
3536.000000 0.9126 0.9130 0.9133 0.9137 0.9140
3541.000000 0.9144 0.9146 0.9149 0.9151 0.9153
3546.000000 0.9155 0.9158 0.9161 0.9171 0.9180
3551.000000 0.9189 0.9199 0.9209 0.9220 0.9230
3556.000000 0.9240 0.9250 0.9258 0.9266 0.9273
3561.000000 0.9281 0.9288 0.9293 0.9298 0.9302
3566.000000 0.9306 0.9311 0.9315 0.9319 0.9323
3571.000000 0.9326 0.9329 0.9333 0.9336 0.9339
3576.000000 0.9346 0.9355 0.9364 0.9374 0.9384
3581.000000 0.9395 0.9405 0.9416 0.9426 0.9436
3586.000000 0.9447 0.9456 0.9464 0.9467 0.9466
3591.000000 0.9466 0.9466 0.9466 0.9466 0.9465
3596.000000 0.9465 0.9465 0.9465 0.9464 0.9464
3601.000000 0.9463 0.9463 0.9462 0.9462 0.9461
3606.000000 0.9461 0.9460 0.9460 0.9459 0.9458
3611.000000 0.9456 0.9455 0.9453 0.9451 0.9450
3616.000000 0.9448 0.9447 0.9445 0.9444 0.9442
3621.000000 0.9441 0.9439 0.9438 0.9437 0.9435
3626.000000 0.9434 0.9432 0.9431 0.9430 0.9428
3631.000000 0.9428 0.9429 0.9429 0.9430 0.9431
3636.000000 0.9431 0.9432 0.9434 0.9443 0.9452
3641.000000 0.9460 0.9469 0.9481 0.9493 0.9506
3646.000000 0.9519 0.9532 0.9544 0.9556 0.9569
3651.000000 0.9575 0.9578 0.9581 0.9585 0.9588
3656.000000 0.9592 0.9595 0.9598 0.9601 0.9604
3661.000000 0.9607 0.9610 0.9613 0.9615 0.9618
3666.000000 0.9621 0.9624 0.9626 0.9627 0.9628
3671.000000 0.9629 0.9631 0.9632 0.9633 0.9635
3676.000000 0.9636 0.9637 0.9637 0.9638 0.9638
3681.000000 0.9639 0.9639 0.9640 0.9640 0.9635
3686.000000 0.9642 0.9643 0.9645 0.9647 0.9649
3691.000000 0.9651 0.9653 0.9655 0.9657 0.9659
3696.000000 0.9662 0.9668 0.9673 0.9678 0.9683
3701.000000 0.9689 0.9694 0.9699 0.9704 0.9709
3706.000000 0.9711 0.9714 0.9716 0.9719 0.9721
3711.000000 0.9724 0.9726 0.9727 0.9727 0.9726
3716.000000 0.9725 0.9725 0.9721 0.9717 0.9712
3721.000000 0.9708 0.9703 0.9698 0.9692 0.9687
3726.000000 0.9681 0.9676 0.9670 0.9665 0.9660
3731.000000 0.9654 0.9649 0.9644 0.9639 0.9638
3736.000000 0.9637 0.9636 0.9635 0.9634 0.9633
3741.000000 0.9634 0.9635 0.9636 0.9637 0.9637
3746.000000 0.9638 0.9639 0.9640 0.9641 0.9644
3751.000000 0.9648 0.9651 0.9655 0.9658 0.9661
3756.000000 0.9665 0.9668 0.9670 0.9673 0.9675
3761.000000 0.9677 0.9679 0.9682 0.9684 0.9686
3766.000000 0.9689 0.9691 0.9692 0.9692 0.9693
3771.000000 0.9694 0.9695 0.9696 0.9697 0.9698
3776.000000 0.9699 0.9700 0.9700 0.9701 0.9702
3781.000000 0.9702 0.9703 0.9703 0.9704 0.9704
3786.000000 0.9705 0.9705 0.9705 0.9706 0.9706
3791.000000 0.9706 0.9707 0.9707 0.9708 0.9708
3796.000000 0.9708 0.9709 0.9709 0.9710 0.9710
##END=
