##TITLE=Beta-DIETHYLAMINO ETHYL ESTER OF DICYCLOHEXYLAMINO ACETIC ACID
##JCAMP-DX=4.24
##DATA TYPE=INFRARED SPECTRUM
##CLASS=COBLENTZ
##ORIGIN=ABBOTT LABORATORIES
##OWNER=COBLENTZ SOCIETY
Collection (C) 2018 copyright by the U.S. Secretary of Commerce
on behalf of the United States of America. All rights reserved.
##DATE=Not specified, most likely prior to 1970
##NAMES=2-(diethylamino)ethyl (dicyclohexylamino)acetate
##CAS REGISTRY NO=78546-03-9
##MOLFORM=C20 H38 N2 O2
##SOURCE REFERENCE=COBLENTZ NO. 689
##$NIST SOURCE=COBLENTZ
##$NIST IMAGE=cob689
##SPECTROMETER/DATA SYSTEM=Not specified, most likely a grating spectrometer.
##STATE=SOLUTION (7% CHCl3)
##PATH LENGTH=0.009 CM
$$SPECTRAL CONTAMINATION DUE TO INACTIVE CHCl3 AROUND 730-800 CM^-^1
##SAMPLING PROCEDURE=TRANSMISSION
##RESOLUTION=4
##DATA PROCESSING=DIGITIZED BY NIST FROM HARD COPY
##XUNITS=MICROMETERS
##YUNITS=TRANSMITTANCE
##XFACTOR=1.000000
##YFACTOR=1
##DELTAX=000.006768
##FIRSTX=1.998
##LASTX=15.4738
##FIRSTY=0.996
##MAXX=15.4738
##MINX=1.998
##MAXY=0.996
##MINY=0.139
##NPOINTS=1992
##XYDATA=(X++(Y..Y))
1.998000 0.9960 0.9960 0.9950 0.9950 0.9950
2.031858 0.9950 0.9950 0.9950 0.9950 0.9950
2.066000 0.9950 0.9950 0.9950 0.9930 0.9930
2.099858 0.9930 0.9910 0.9910 0.9910 0.9910
2.134000 0.9900 0.9910 0.9900 0.9900 0.9900
2.167858 0.9900 0.9900 0.9910 0.9880 0.9880
2.201000 0.9880 0.9880 0.9880 0.9880 0.9860
2.234858 0.9860 0.9850 0.9850 0.9830 0.9810
2.269000 0.9810 0.9800 0.9800 0.9800 0.9710
2.302858 0.9700 0.9700 0.9680 0.9680 0.9680
2.337000 0.9680 0.9660 0.9660 0.9650 0.9650
2.370858 0.9650 0.9650 0.9660 0.9660 0.9650
2.404000 0.9650 0.9650 0.9650 0.9650 0.9650
2.437858 0.9650 0.9650 0.9660 0.9680 0.9680
2.472000 0.9680 0.9680 0.9680 0.9680 0.9700
2.505858 0.9710 0.9710 0.9730 0.9750 0.9750
2.540000 0.9750 0.9750 0.9750 0.9760 0.9760
2.573858 0.9760 0.9780 0.9760 0.9760 0.9750
2.607000 0.9750 0.9750 0.9750 0.9750 0.9760
2.640858 0.9760 0.9760 0.9750 0.9750 0.9750
2.675000 0.9700 0.9660 0.9630 0.9630 0.9610
2.708858 0.9600 0.9600 0.9600 0.9610 0.9610
2.743000 0.9660 0.9710 0.9730 0.9710 0.9710
2.776858 0.9660 0.9610 0.9560 0.9500 0.9450
2.810000 0.9410 0.9400 0.9380 0.9360 0.9360
2.843858 0.9360 0.9330 0.9310 0.9280 0.9260
2.878000 0.9250 0.9230 0.9230 0.9210 0.9200
2.911858 0.9200 0.9180 0.9160 0.9160 0.9160
2.946000 0.9150 0.9150 0.9150 0.9150 0.9150
2.979858 0.9130 0.9130 0.9130 0.9130 0.9130
3.014000 0.9150 0.9160 0.9180 0.9180 0.9180
3.047858 0.9180 0.9200 0.9200 0.9180 0.9180
3.081000 0.9160 0.9160 0.9160 0.9180 0.9180
3.114858 0.9180 0.9180 0.9180 0.9160 0.9130
3.149000 0.9110 0.9110 0.9110 0.9130 0.9150
3.182858 0.9160 0.9160 0.9160 0.9150 0.9150
3.217000 0.9130 0.9130 0.9110 0.9100 0.9030
3.250858 0.9010 0.9000 0.8980 0.8820 0.8770
3.284000 0.8700 0.8550 0.7190 0.6860 0.6520
3.317858 0.6170 0.5530 0.5000 0.4230 0.3800
3.352000 0.3520 0.3370 0.3220 0.2670 0.2100
3.385858 0.1870 0.1390 0.1390 0.1510 0.1820
3.420000 0.2150 0.2540 0.3020 0.4250 0.4850
3.453858 0.4850 0.4610 0.4510 0.4350 0.3850
3.487000 0.3850 0.4510 0.5010 0.5240 0.5440
3.520858 0.5590 0.5740 0.5860 0.6070 0.6210
3.555000 0.6490 0.6610 0.7400 0.7470 0.7500
3.588858 0.7770 0.7920 0.8020 0.8100 0.8180
3.623000 0.8300 0.8350 0.8430 0.8480 0.8520
3.656858 0.8530 0.8600 0.8630 0.8650 0.8680
3.690000 0.8700 0.8730 0.8770 0.8820 0.8850
3.723858 0.8870 0.8870 0.8870 0.8870 0.8870
3.758000 0.8870 0.8900 0.8920 0.8930 0.8970
3.791858 0.9000 0.9010 0.9010 0.9030 0.9060
3.826000 0.9080 0.9110 0.9110 0.9110 0.9130
3.859858 0.9130 0.9130 0.9130 0.9130 0.9150
3.893000 0.9160 0.9200 0.9210 0.9210 0.9230
3.926858 0.9230 0.9230 0.9230 0.9230 0.9230
3.961000 0.9230 0.9230 0.9230 0.9230 0.9210
3.994858 0.9200 0.9200 0.9180 0.9180 0.9180
4.029000 0.9180 0.9180 0.9180 0.9180 0.9180
4.062858 0.9180 0.9200 0.9200 0.9230 0.9230
4.096000 0.9250 0.9250 0.9250 0.9250 0.9250
4.129858 0.9250 0.9250 0.9250 0.9250 0.9260
4.164000 0.9260 0.9280 0.9310 0.9350 0.9360
4.197858 0.9360 0.9380 0.9380 0.9400 0.9400
4.232000 0.9400 0.9410 0.9430 0.9410 0.9410
4.265858 0.9410 0.9400 0.9400 0.9400 0.9400
4.299000 0.9400 0.9400 0.9400 0.9410 0.9400
4.332858 0.9400 0.9400 0.9400 0.9400 0.9400
4.367000 0.9400 0.9400 0.9410 0.9410 0.9410
4.400858 0.9410 0.9410 0.9430 0.9430 0.9430
4.435000 0.9430 0.9430 0.9430 0.9430 0.9430
4.468858 0.9430 0.9410 0.9400 0.9400 0.9400
4.503000 0.9400 0.9410 0.9410 0.9410 0.9410
4.536858 0.9430 0.9430 0.9460 0.9460 0.9460
4.570000 0.9460 0.9460 0.9460 0.9480 0.9480
4.603858 0.9480 0.9480 0.9480 0.9480 0.9480
4.638000 0.9480 0.9460 0.9460 0.9450 0.9430
4.671858 0.9430 0.9430 0.9430 0.9430 0.9430
4.706000 0.9410 0.9410 0.9410 0.9400 0.9410
4.739858 0.9410 0.9400 0.9400 0.9400 0.9400
4.773000 0.9400 0.9400 0.9410 0.9410 0.9410
4.806858 0.9410 0.9410 0.9410 0.9410 0.9430
4.841000 0.9430 0.9430 0.9400 0.9400 0.9400
4.874858 0.9400 0.9400 0.9410 0.9410 0.9410
4.909000 0.9410 0.9410 0.9410 0.9430 0.9430
4.942858 0.9430 0.9430 0.9450 0.9460 0.9480
4.976000 0.9480 0.9480 0.9480 0.9480 0.9480
5.009858 0.9480 0.9460 0.9460 0.9450 0.9450
5.044000 0.9430 0.9430 0.9410 0.9410 0.9400
5.077858 0.9410 0.9410 0.9410 0.9410 0.9430
5.112000 0.9430 0.9430 0.9430 0.9430 0.9430
5.145858 0.9430 0.9430 0.9430 0.9410 0.9410
5.179000 0.9410 0.9400 0.9410 0.9430 0.9430
5.212858 0.9400 0.9400 0.9400 0.9400 0.9400
5.247000 0.9400 0.9380 0.9380 0.9380 0.9380
5.280858 0.9380 0.9380 0.9400 0.9400 0.9400
5.315000 0.9400 0.9400 0.9400 0.9400 0.9400
5.348858 0.9400 0.9400 0.9400 0.9400 0.9400
5.382000 0.9400 0.9380 0.9380 0.9380 0.9380
5.415858 0.9380 0.9380 0.9360 0.9380 0.9380
5.450000 0.9360 0.9360 0.9360 0.9350 0.9350
5.483858 0.9330 0.9350 0.9330 0.9330 0.9330
5.518000 0.9330 0.9310 0.9300 0.9300 0.9300
5.551858 0.9300 0.9280 0.9260 0.9250 0.9230
5.585000 0.9210 0.9160 0.9130 0.9100 0.9080
5.618858 0.9060 0.9030 0.9010 0.8730 0.8530
5.653000 0.8280 0.8020 0.7600 0.7050 0.6490
5.686858 0.6190 0.5690 0.5310 0.5040 0.4810
5.721000 0.4530 0.4350 0.4310 0.4280 0.4300
5.754858 0.4410 0.4580 0.4900 0.5340 0.5610
5.788000 0.5780 0.5940 0.5990 0.6110 0.6140
5.821858 0.6160 0.6170 0.6260 0.6360 0.6520
5.856000 0.6620 0.6990 0.7170 0.7350 0.7640
5.889858 0.7840 0.7990 0.8100 0.8170 0.8230
5.924000 0.8370 0.8500 0.8500 0.8450 0.8450
5.957858 0.8430 0.8380 0.8320 0.8220 0.8120
5.992000 0.7990 0.7920 0.7870 0.7850 0.7870
6.025858 0.7890 0.7970 0.8000 0.8070 0.8120
6.059000 0.8150 0.8180 0.8180 0.8220 0.8230
6.092858 0.8250 0.8270 0.8300 0.8380 0.8450
6.127000 0.8480 0.8520 0.8570 0.8630 0.8680
6.160858 0.8720 0.8750 0.8770 0.8780 0.8820
6.195000 0.8870 0.8880 0.8900 0.8920 0.8920
6.228858 0.8950 0.8950 0.8950 0.8970 0.8980
6.262000 0.8980 0.9000 0.9050 0.9060 0.9060
6.295858 0.9080 0.9080 0.9100 0.9100 0.9150
6.330000 0.9160 0.9160 0.9150 0.9150 0.9150
6.363858 0.9150 0.9150 0.9160 0.9160 0.9180
6.398000 0.9180 0.9200 0.9210 0.9210 0.9210
6.431858 0.9200 0.9200 0.9200 0.9200 0.9200
6.465000 0.9200 0.9200 0.9210 0.9210 0.9210
6.498858 0.9200 0.9200 0.9200 0.9200 0.9180
6.533000 0.9180 0.9150 0.9150 0.9150 0.9150
6.566858 0.9130 0.9110 0.9080 0.9080 0.9060
6.601000 0.9050 0.9010 0.9010 0.9010 0.9010
6.634858 0.9000 0.8980 0.8970 0.8950 0.8920
6.668000 0.8920 0.8920 0.8900 0.8900 0.8900
6.701858 0.8900 0.8900 0.8880 0.8850 0.8770
6.736000 0.8680 0.8600 0.8520 0.8470 0.8380
6.769858 0.8250 0.8200 0.7950 0.7700 0.7450
6.804000 0.7200 0.7070 0.6970 0.6820 0.6790
6.837858 0.6760 0.6720 0.6710 0.6710 0.6690
6.871000 0.6190 0.5680 0.5480 0.5230 0.4900
6.904858 0.4700 0.4660 0.4680 0.4810 0.5610
6.939000 0.6170 0.6390 0.6660 0.7070 0.7290
6.972858 0.7440 0.7520 0.7570 0.7620 0.7690
7.007000 0.7740 0.7740 0.7740 0.7740 0.7750
7.040858 0.7750 0.7790 0.7790 0.7800 0.7840
7.074000 0.7850 0.7870 0.7890 0.7890 0.7850
7.107858 0.7840 0.7820 0.7800 0.7790 0.7750
7.142000 0.7690 0.7640 0.7570 0.7490 0.7440
7.175858 0.7400 0.7250 0.7100 0.6960 0.6760
7.210000 0.6710 0.6660 0.6470 0.6420 0.6390
7.243858 0.6360 0.6360 0.6340 0.6360 0.6370
7.277000 0.6390 0.6440 0.6460 0.6470 0.6490
7.310858 0.6520 0.6610 0.6890 0.6990 0.7100
7.345000 0.7190 0.7200 0.7200 0.7200 0.7200
7.378858 0.7200 0.7200 0.7190 0.7140 0.7100
7.413000 0.7020 0.6970 0.6910 0.6860 0.6840
7.446858 0.6860 0.6890 0.6940 0.6990 0.7000
7.481000 0.7040 0.7090 0.7100 0.7100 0.7120
7.514858 0.7120 0.7150 0.7250 0.7350 0.7400
7.548000 0.7450 0.7470 0.7500 0.7600 0.7700
7.581858 0.7740 0.7740 0.7770 0.7790 0.7790
7.616000 0.7790 0.7770 0.7770 0.7750 0.7690
7.649858 0.7590 0.7500 0.7470 0.7350 0.7290
7.684000 0.7190 0.7120 0.7000 0.6960 0.6820
7.717858 0.6710 0.6670 0.6620 0.6610 0.6590
7.751000 0.6540 0.6510 0.6490 0.6490 0.6470
7.784858 0.6470 0.6470 0.6490 0.6470 0.6510
7.819000 0.6570 0.6610 0.6660 0.6660 0.6660
7.852858 0.6660 0.6640 0.6570 0.6510 0.6460
7.887000 0.6420 0.6390 0.6370 0.6260 0.6220
7.920858 0.6170 0.6070 0.6010 0.5960 0.5880
7.954000 0.5860 0.5840 0.5810 0.5790 0.5790
7.987858 0.5780 0.5780 0.5810 0.5830 0.5880
8.022000 0.5960 0.6040 0.6110 0.6170 0.6270
8.055858 0.6290 0.6290 0.6290 0.6290 0.6290
8.090000 0.6290 0.6290 0.6290 0.6290 0.6270
8.123858 0.6270 0.6260 0.6260 0.6240 0.6240
8.157000 0.6240 0.6240 0.6240 0.6240 0.6240
8.190858 0.6260 0.6270 0.6270 0.6270 0.6270
8.225000 0.6270 0.6270 0.6270 0.6270 0.6270
8.258858 0.6270 0.6270 0.6270 0.6290 0.6310
8.293000 0.6310 0.6290 0.6270 0.6260 0.6260
8.326858 0.6210 0.6110 0.6020 0.5960 0.5810
8.360000 0.5610 0.5380 0.5310 0.5280 0.5240
8.393858 0.5210 0.5110 0.4860 0.4750 0.4650
8.428000 0.4600 0.4500 0.4380 0.4300 0.4180
8.461858 0.4100 0.4010 0.3970 0.3900 0.3830
8.496000 0.3780 0.3700 0.3630 0.3570 0.3520
8.529858 0.3480 0.3400 0.3330 0.3330 0.3320
8.563000 0.3280 0.3270 0.3250 0.3270 0.3520
8.596858 0.3580 0.3730 0.3900 0.4030 0.4080
8.631000 0.4130 0.4160 0.4200 0.4250 0.4400
8.664858 0.4450 0.4480 0.4500 0.4660 0.4830
8.699000 0.4980 0.5080 0.5140 0.5260 0.5340
8.732858 0.5480 0.5660 0.5740 0.5860 0.5960
8.766000 0.6110 0.6170 0.6190 0.6210 0.6210
8.799858 0.6210 0.6190 0.6170 0.6090 0.6020
8.834000 0.6020 0.5960 0.5940 0.5910 0.5890
8.867858 0.5890 0.5880 0.5880 0.5880 0.5880
8.902000 0.5880 0.5880 0.5880 0.5880 0.5890
8.935858 0.5890 0.5910 0.5940 0.5990 0.6010
8.970000 0.6070 0.6120 0.6140 0.6170 0.6210
9.003858 0.6240 0.6270 0.6360 0.6440 0.6440
9.037000 0.6460 0.6470 0.6490 0.6510 0.6520
9.070858 0.6540 0.6560 0.6560 0.6590 0.6610
9.105000 0.6610 0.6620 0.6620 0.6640 0.6660
9.138858 0.6670 0.6670 0.6670 0.6690 0.6690
9.173000 0.6670 0.6670 0.6670 0.6670 0.6660
9.206858 0.6640 0.6620 0.6590 0.6570 0.6570
9.240000 0.6570 0.6590 0.6620 0.6690 0.6740
9.273858 0.6770 0.6860 0.6920 0.6990 0.7090
9.308000 0.7150 0.7140 0.7120 0.7100 0.7070
9.341858 0.7040 0.6970 0.6960 0.6960 0.6920
9.376000 0.6920 0.6910 0.6890 0.6870 0.6870
9.409858 0.6940 0.6990 0.7050 0.7090 0.7140
9.443000 0.7150 0.7170 0.7240 0.7270 0.7270
9.476858 0.7290 0.7300 0.7320 0.7350 0.7370
9.511000 0.7370 0.7370 0.7370 0.7370 0.7370
9.544858 0.7370 0.7370 0.7370 0.7370 0.7390
9.579000 0.7390 0.7400 0.7420 0.7440 0.7450
9.612858 0.7490 0.7490 0.7470 0.7470 0.7470
9.646000 0.7400 0.7370 0.7290 0.7240 0.7190
9.679858 0.7120 0.7090 0.7040 0.7020 0.6970
9.714000 0.6960 0.6940 0.6960 0.6990 0.7000
9.747858 0.7020 0.7050 0.7090 0.7120 0.7140
9.782000 0.7200 0.7240 0.7250 0.7270 0.7300
9.815858 0.7320 0.7340 0.7350 0.7390 0.7400
9.849000 0.7420 0.7420 0.7420 0.7400 0.7400
9.882858 0.7400 0.7400 0.7400 0.7420 0.7420
9.917000 0.7400 0.7400 0.7390 0.7390 0.7390
9.950858 0.7390 0.7390 0.7400 0.7390 0.7370
9.985000 0.7370 0.7370 0.7370 0.7370 0.7390
10.018858 0.7400 0.7440 0.7450 0.7470 0.7490
10.052000 0.7590 0.7640 0.7690 0.7720 0.7750
10.085858 0.7800 0.7920 0.7970 0.7990 0.8000
10.120000 0.8050 0.8080 0.8080 0.8100 0.8150
10.153858 0.8180 0.8180 0.8220 0.8230 0.8250
10.188000 0.8270 0.8270 0.8270 0.8320 0.8350
10.221858 0.8380 0.8420 0.8470 0.8500 0.8530
10.255000 0.8530 0.8570 0.8600 0.8630 0.8650
10.288858 0.8680 0.8680 0.8700 0.8730 0.8750
10.323000 0.8750 0.8750 0.8750 0.8750 0.8750
10.356858 0.8730 0.8730 0.8720 0.8700 0.8670
10.391000 0.8630 0.8620 0.8580 0.8530 0.8500
10.424858 0.8480 0.8470 0.8450 0.8380 0.8330
10.459000 0.8300 0.8270 0.8270 0.8250 0.8220
10.492858 0.8220 0.8230 0.8230 0.8220 0.8220
10.526000 0.8170 0.8120 0.8070 0.7990 0.7950
10.559858 0.7920 0.7900 0.7890 0.7890 0.7920
10.594000 0.7940 0.7970 0.7990 0.8050 0.8120
10.627858 0.8180 0.8250 0.8320 0.8400 0.8430
10.662000 0.8500 0.8550 0.8620 0.8670 0.8680
10.695858 0.8720 0.8730 0.8750 0.8750 0.8770
10.729000 0.8780 0.8800 0.8820 0.8830 0.8830
10.762858 0.8830 0.8820 0.8780 0.8770 0.8750
10.797000 0.8750 0.8750 0.8750 0.8750 0.8750
10.830858 0.8750 0.8750 0.8750 0.8720 0.8720
10.865000 0.8680 0.8670 0.8650 0.8650 0.8630
10.898858 0.8630 0.8630 0.8620 0.8620 0.8620
10.932000 0.8620 0.8620 0.8630 0.8630 0.8650
10.965858 0.8650 0.8630 0.8630 0.8630 0.8650
11.000000 0.8630 0.8630 0.8630 0.8620 0.8580
11.033858 0.8580 0.8570 0.8570 0.8570 0.8570
11.068000 0.8550 0.8530 0.8520 0.8480 0.8480
11.101858 0.8470 0.8450 0.8450 0.8400 0.8350
11.135000 0.8300 0.8250 0.8230 0.8200 0.8170
11.168858 0.8120 0.8070 0.7920 0.7750 0.7590
11.203000 0.7500 0.7440 0.7340 0.7290 0.7270
11.236858 0.7290 0.7370 0.7540 0.7700 0.7940
11.271000 0.8000 0.8170 0.8320 0.8430 0.8470
11.304858 0.8500 0.8530 0.8570 0.8580 0.8650
11.338000 0.8720 0.8780 0.8800 0.8820 0.8820
11.371858 0.8820 0.8820 0.8820 0.8800 0.8800
11.406000 0.8800 0.8800 0.8800 0.8820 0.8830
11.439858 0.8870 0.8870 0.8880 0.8880 0.8880
11.474000 0.8920 0.8920 0.8920 0.8930 0.8920
11.507858 0.8930 0.8930 0.8950 0.8950 0.8950
11.541000 0.8980 0.9050 0.9050 0.9060 0.9080
11.574858 0.9080 0.9080 0.9080 0.9080 0.9080
11.609000 0.9080 0.9080 0.9080 0.9080 0.9080
11.642858 0.9080 0.9080 0.9080 0.9080 0.9080
11.677000 0.9060 0.9060 0.9050 0.9030 0.9000
11.710858 0.8970 0.8950 0.8950 0.8930 0.8870
11.745000 0.8820 0.8730 0.8680 0.8670 0.8650
11.778858 0.8630 0.8630 0.8630 0.8630 0.8650
11.812000 0.8650 0.8650 0.8650 0.8650 0.8650
11.845858 0.8650 0.8650 0.8650 0.8670 0.8700
11.880000 0.8720 0.8750 0.8770 0.8780 0.8800
11.913858 0.8830 0.8850 0.8900 0.8920 0.8920
11.948000 0.8920 0.8930 0.8950 0.8950 0.8970
11.981858 0.8950 0.8930 0.8930 0.8950 0.8950
12.015000 0.8980 0.8980 0.9000 0.9010 0.9010
12.048858 0.9010 0.9030 0.9030 0.9010 0.9010
12.083000 0.9030 0.9030 0.9030 0.9030 0.9030
12.116858 0.9030 0.9010 0.9010 0.9010 0.9010
12.151000 0.9000 0.9010 0.9030 0.9030 0.9030
12.184858 0.9030 0.9030 0.9030 0.9030 0.9030
12.218000 0.9030 0.9030 0.9030 0.9030 0.9030
12.251858 0.9010 0.9000 0.8980 0.9000 0.8980
12.286000 0.8980 0.8980 0.8980 0.8970 0.8950
12.319858 0.8930 0.8920 0.8900 0.8900 0.8880
12.354000 0.8900 0.8900 0.8900 0.8900 0.8880
12.387858 0.8870 0.8850 0.8830 0.8820 0.8800
12.421000 0.8770 0.8750 0.8730 0.8720 0.8720
12.454858 0.8700 0.8680 0.8670 0.8650 0.8630
12.489000 0.8630 0.8620 0.8620 0.8580 0.8570
12.522858 0.8550 0.8530 0.8520 0.8520 0.8520
12.557000 0.8520 0.8520 0.8520 0.8520 0.8520
12.590858 0.8500 0.8500 0.8500 0.8500 0.8500
12.624000 0.8500 0.8500 0.8500 0.8500 0.8500
12.657858 0.8500 0.8500 0.8500 0.8500 0.8500
12.692000 0.8500 0.8480 0.8480 0.8480 0.8480
12.725858 0.8480 0.8480 0.8480 0.8480 0.8500
12.760000 0.8520 0.8520 0.8520 0.8530 0.8520
12.793858 0.8530 0.8530 0.8530 0.8530 0.8530
12.827000 0.8530 0.8530 0.8530 0.8530 0.8530
12.860858 0.8530 0.8530 0.8530 0.8530 0.8530
12.895000 0.8530 0.8530 0.8530 0.8550 0.8550
12.928858 0.8550 0.8550 0.8550 0.8550 0.8550
12.963000 0.8550 0.8550 0.8550 0.8550 0.8550
12.996858 0.8570 0.8570 0.8570 0.8570 0.8570
13.030000 0.8570 0.8570 0.8570 0.8570 0.8570
13.063858 0.8580 0.8580 0.8600 0.8600 0.8600
13.098000 0.8600 0.8600 0.8620 0.8620 0.8620
13.131858 0.8630 0.8630 0.8650 0.8670 0.8670
13.166000 0.8680 0.8700 0.8720 0.8730 0.8730
13.199858 0.8730 0.8720 0.8720 0.8720 0.8720
13.234000 0.8700 0.8680 0.8670 0.8670 0.8670
13.267858 0.8670 0.8670 0.8670 0.8670 0.8670
13.301000 0.8680 0.8680 0.8700 0.8700 0.8680
13.334858 0.8680 0.8680 0.8680 0.8680 0.8680
13.369000 0.8680 0.8680 0.8650 0.8650 0.8670
13.402858 0.8670 0.8670 0.8670 0.8680 0.8680
13.437000 0.8670 0.8670 0.8670 0.8670 0.8670
13.470858 0.8670 0.8680 0.8680 0.8700 0.8700
13.504000 0.8720 0.8730 0.8730 0.8730 0.8730
13.537858 0.8730 0.8730 0.8750 0.8770 0.8780
13.572000 0.8800 0.8800 0.8800 0.8800 0.8800
13.605858 0.8800 0.8800 0.8800 0.8780 0.8770
13.640000 0.8770 0.8750 0.8750 0.8750 0.8730
13.673858 0.8730 0.8730 0.8730 0.8730 0.8750
13.707000 0.8770 0.8770 0.8770 0.8770 0.8770
13.740858 0.8770 0.8770 0.8750 0.8750 0.8750
13.775000 0.8750 0.8750 0.8750 0.8730 0.8730
13.808858 0.8720 0.8720 0.8700 0.8700 0.8650
13.843000 0.8650 0.8630 0.8630 0.8620 0.8600
13.876858 0.8570 0.8570 0.8570 0.8570 0.8550
13.910000 0.8520 0.8470 0.8450 0.8420 0.8380
13.943858 0.8370 0.8350 0.8350 0.8350 0.8350
13.978000 0.8330 0.8320 0.8300 0.8280 0.8280
14.011858 0.8280 0.8270 0.8250 0.8250 0.8230
14.046000 0.8230 0.8230 0.8250 0.8230 0.8230
14.079858 0.8220 0.8220 0.8200 0.8180 0.8180
14.113000 0.8180 0.8200 0.8200 0.8220 0.8220
14.146858 0.8220 0.8220 0.8220 0.8220 0.8220
14.181000 0.8230 0.8250 0.8250 0.8280 0.8300
14.214858 0.8320 0.8320 0.8400 0.8400 0.8420
14.249000 0.8430 0.8470 0.8480 0.8480 0.8520
14.282858 0.8520 0.8500 0.8500 0.8520 0.8500
14.316000 0.8500 0.8500 0.8500 0.8520 0.8500
14.349858 0.8500 0.8500 0.8500 0.8520 0.8520
14.384000 0.8520 0.8530 0.8520 0.8520 0.8520
14.417858 0.8520 0.8520 0.8530 0.8550 0.8550
14.452000 0.8550 0.8550 0.8550 0.8570 0.8550
14.485858 0.8550 0.8550 0.8570 0.8580 0.8600
14.519000 0.8600 0.8620 0.8650 0.8670 0.8670
14.552858 0.8650 0.8650 0.8650 0.8650 0.8650
14.587000 0.8650 0.8630 0.8630 0.8620 0.8620
14.620858 0.8620 0.8620 0.8620 0.8620 0.8620
14.655000 0.8620 0.8620 0.8600 0.8600 0.8600
14.688858 0.8600 0.8600 0.8600 0.8600 0.8600
14.723000 0.8580 0.8570 0.8570 0.8550 0.8550
14.756858 0.8550 0.8550 0.8550 0.8530 0.8520
14.790000 0.8520 0.8500 0.8500 0.8500 0.8500
14.823858 0.8480 0.8480 0.8480 0.8480 0.8480
14.858000 0.8480 0.8500 0.8500 0.8520 0.8520
14.891858 0.8520 0.8530 0.8570 0.8580 0.8600
14.926000 0.8600 0.8620 0.8620 0.8600 0.8620
14.959858 0.8600 0.8600 0.8600 0.8580 0.8580
14.993000 0.8580 0.8580 0.8600 0.8600 0.8600
15.026858 0.8600 0.8620 0.8620 0.8620 0.8620
15.061000 0.8620 0.8620 0.8630 0.8620 0.8620
15.094858 0.8620 0.8620 0.8620 0.8620 0.8620
15.129000 0.8630 0.8630 0.8650 0.8680 0.8680
15.162858 0.8680 0.8720 0.8730 0.8780 0.8800
15.196000 0.8830 0.8870 0.8880 0.8900 0.8920
15.229858 0.8950 0.8970 0.9000 0.9000 0.9030
15.264000 0.9050 0.9080 0.9100 0.9100 0.9110
15.297858 0.9130 0.9160 0.9200 0.9210 0.9230
15.332000 0.9250 0.9280 0.9300 0.9310 0.9330
15.365858 0.9330 0.9330 0.9350 0.9350 0.9350
15.399000 0.9350 0.9360 0.9360 0.9380 0.9380
15.432858 0.9380 0.9380 0.9380 0.9380 0.9380
15.467000 0.9380 0.9380
##END=
