##TITLE=DIMETHYL DIETHOXY SILANE
$$ ANDERSON CHEM. CO.
##JCAMP-DX=4.24
##DATA TYPE=INFRARED SPECTRUM
##CLASS=COBLENTZ
##ORIGIN=WYANDOTTE CHEMICALS CORP., WYANDOTTE, MICHIGAN, USA
##OWNER=COBLENTZ SOCIETY
Collection (C) 2018 copyright by the U.S. Secretary of Commerce
on behalf of the United States of America. All rights reserved.
##DATE=Not specified, most likely prior to 1970
##NAMES=diethoxy(dimethyl)silane
##CAS REGISTRY NO=78-62-6
##MOLFORM=C6 H16 O2 Si
##SOURCE REFERENCE=COBLENTZ NO. 244
##$NIST SOURCE=COBLENTZ
##$NIST IMAGE=cob244
##SPECTROMETER/DATA SYSTEM=Not specified, most likely a prism, grating, or hybrid spectrometer.
##STATE=LIQUID
##PATH LENGTH=0.003 CM
##SAMPLING PROCEDURE=TRANSMISSION
##RESOLUTION=4
##DATA PROCESSING=DIGITIZED BY NIST FROM HARD COPY
##XUNITS=MICROMETERS
##YUNITS=TRANSMITTANCE
##XFACTOR=1.000000
##YFACTOR=1
##DELTAX=000.006481
##FIRSTX=2.034
##LASTX=15.9874
##FIRSTY=1.003
##MAXX=15.9874
##MINX=2.034
##MAXY=1.003
##MINY=0.022
##NPOINTS=2154
##XYDATA=(X++(Y..Y))
2.034000 1.0030 1.0030 1.0030 1.0030 1.0030
2.066419 1.0030 1.0030 1.0030 1.0030 1.0030
2.099000 1.0030 1.0030 1.0030 1.0030 1.0030
2.131419 1.0030 1.0030 1.0010 1.0010 1.0000
2.164000 0.9980 0.9930 0.9880 0.9820 0.9780
2.196419 0.9750 0.9700 0.9690 0.9640 0.9640
2.229000 0.9690 0.9690 0.9740 0.9800 0.9800
2.261419 0.9830 0.9830 0.9850 0.9850 0.9850
2.294000 0.9850 0.9850 0.9850 0.9870 0.9850
2.326419 0.9850 0.9850 0.9850 0.9830 0.9820
2.358000 0.9780 0.9750 0.9750 0.9740 0.9740
2.390419 0.9720 0.9720 0.9720 0.9720 0.9740
2.423000 0.9740 0.9750 0.9750 0.9750 0.9750
2.455419 0.9750 0.9770 0.9780 0.9820 0.9850
2.488000 0.9910 0.9950 0.9950 0.9960 0.9960
2.520419 0.9980 0.9980 1.0000 1.0010 1.0010
2.553000 1.0010 1.0010 1.0000 1.0000 1.0000
2.585419 0.9980 0.9960 0.9960 0.9950 0.9930
2.618000 0.9910 0.9930 0.9930 0.9910 0.9910
2.650419 0.9910 0.9910 0.9900 0.9900 0.9900
2.682000 0.9900 0.9900 0.9900 0.9900 0.9900
2.714419 0.9900 0.9900 0.9910 0.9910 0.9910
2.747000 0.9930 0.9930 0.9930 0.9950 0.9950
2.779419 0.9960 0.9960 0.9980 0.9980 1.0000
2.812000 1.0000 1.0010 1.0000 1.0000 1.0000
2.844419 1.0000 1.0000 1.0000 1.0000 1.0010
2.877000 1.0010 1.0010 1.0010 1.0010 1.0010
2.909419 1.0010 1.0010 1.0010 1.0010 1.0010
2.942000 1.0000 1.0000 1.0000 0.9980 0.9980
2.974419 0.9960 0.9960 0.9950 0.9950 0.9950
3.006000 0.9950 0.9950 0.9950 0.9950 0.9950
3.038419 0.9950 0.9950 0.9960 0.9960 0.9950
3.071000 0.9930 0.9930 0.9900 0.9870 0.9830
3.103419 0.9820 0.9800 0.9780 0.9750 0.9740
3.136000 0.9700 0.9690 0.9690 0.9670 0.9670
3.168419 0.9670 0.9670 0.9670 0.9660 0.9660
3.201000 0.9640 0.9570 0.9540 0.9480 0.9410
3.233419 0.9360 0.9320 0.9280 0.9170 0.9040
3.266000 0.8960 0.8860 0.8700 0.8490 0.8130
3.298419 0.7490 0.6610 0.5800 0.5220 0.4620
3.331000 0.3000 0.2110 0.1340 0.0690 0.0670
3.363419 0.0710 0.1580 0.2200 0.2470 0.2550
3.395000 0.2440 0.2370 0.2230 0.2030 0.1900
3.427419 0.1790 0.1730 0.1660 0.1630 0.1610
3.460000 0.1600 0.1560 0.1610 0.1760 0.2200
3.492419 0.2840 0.3520 0.4110 0.4780 0.6080
3.525000 0.6600 0.7070 0.7390 0.7680 0.7890
3.557419 0.8020 0.8170 0.8310 0.8470 0.8550
3.590000 0.8670 0.8720 0.8730 0.8680 0.8600
3.622419 0.8550 0.8540 0.8540 0.8540 0.8510
3.655000 0.8410 0.8310 0.8200 0.8280 0.8440
3.687419 0.8700 0.8800 0.9270 0.9540 0.9590
3.719000 0.9610 0.9620 0.9640 0.9640 0.9640
3.751419 0.9660 0.9660 0.9660 0.9670 0.9670
3.784000 0.9670 0.9670 0.9660 0.9660 0.9660
3.816419 0.9670 0.9690 0.9690 0.9720 0.9740
3.849000 0.9750 0.9770 0.9770 0.9800 0.9820
3.881419 0.9820 0.9830 0.9850 0.9880 0.9880
3.914000 0.9880 0.9900 0.9900 0.9900 0.9910
3.946419 0.9910 0.9930 0.9930 0.9930 0.9930
3.979000 0.9930 0.9930 0.9930 0.9930 0.9930
4.011419 0.9930 0.9930 0.9930 0.9910 0.9910
4.043000 0.9910 0.9910 0.9910 0.9910 0.9910
4.075419 0.9900 0.9880 0.9870 0.9850 0.9830
4.108000 0.9820 0.9800 0.9780 0.9780 0.9770
4.140419 0.9770 0.9770 0.9750 0.9770 0.9780
4.173000 0.9800 0.9830 0.9850 0.9850 0.9870
4.205419 0.9910 0.9950 0.9960 0.9960 0.9980
4.238000 0.9980 1.0000 1.0000 1.0010 1.0010
4.270419 1.0010 1.0010 1.0010 1.0030 1.0030
4.303000 1.0030 1.0030 1.0030 1.0030 1.0030
4.335419 1.0030 1.0030 1.0010 1.0000 1.0000
4.367000 1.0000 0.9980 0.9980 0.9960 0.9950
4.399419 0.9910 0.9910 0.9910 0.9910 0.9910
4.432000 0.9910 0.9910 0.9910 0.9910 0.9910
4.464419 0.9910 0.9910 0.9910 0.9910 0.9910
4.497000 0.9900 0.9900 0.9850 0.9850 0.9830
4.529419 0.9820 0.9800 0.9800 0.9820 0.9820
4.562000 0.9820 0.9820 0.9820 0.9800 0.9780
4.594419 0.9770 0.9750 0.9740 0.9740 0.9720
4.627000 0.9720 0.9720 0.9690 0.9670 0.9640
4.659419 0.9620 0.9620 0.9640 0.9670 0.9700
4.692000 0.9720 0.9720 0.9740 0.9750 0.9780
4.724419 0.9820 0.9830 0.9830 0.9830 0.9830
4.756000 0.9850 0.9830 0.9830 0.9850 0.9850
4.788419 0.9850 0.9850 0.9850 0.9850 0.9850
4.821000 0.9850 0.9850 0.9850 0.9850 0.9850
4.853419 0.9850 0.9850 0.9850 0.9850 0.9850
4.886000 0.9850 0.9850 0.9830 0.9820 0.9800
4.918419 0.9800 0.9820 0.9820 0.9820 0.9820
4.951000 0.9830 0.9830 0.9830 0.9830 0.9830
4.983419 0.9830 0.9830 0.9820 0.9820 0.9800
5.016000 0.9800 0.9800 0.9780 0.9770 0.9740
5.048419 0.9720 0.9720 0.9700 0.9700 0.9690
5.080000 0.9670 0.9670 0.9690 0.9690 0.9690
5.112419 0.9690 0.9690 0.9670 0.9660 0.9660
5.145000 0.9640 0.9640 0.9620 0.9620 0.9620
5.177419 0.9620 0.9620 0.9620 0.9610 0.9610
5.210000 0.9610 0.9610 0.9610 0.9610 0.9620
5.242419 0.9610 0.9610 0.9610 0.9610 0.9590
5.275000 0.9590 0.9590 0.9590 0.9590 0.9590
5.307419 0.9590 0.9570 0.9570 0.9510 0.9490
5.340000 0.9430 0.9480 0.9490 0.9510 0.9530
5.372419 0.9530 0.9530 0.9530 0.9510 0.9490
5.404000 0.9490 0.9490 0.9490 0.9490 0.9480
5.436419 0.9460 0.9410 0.9350 0.9250 0.9230
5.469000 0.9220 0.9200 0.9190 0.9170 0.9170
5.501419 0.9150 0.9150 0.9140 0.9140 0.9140
5.534000 0.9120 0.9140 0.9140 0.9140 0.9140
5.566419 0.9140 0.9150 0.9170 0.9220 0.9250
5.599000 0.9270 0.9300 0.9350 0.9430 0.9430
5.631419 0.9480 0.9510 0.9530 0.9540 0.9540
5.664000 0.9590 0.9610 0.9620 0.9620 0.9640
5.696419 0.9640 0.9640 0.9640 0.9640 0.9620
5.728000 0.9610 0.9610 0.9590 0.9570 0.9560
5.760419 0.9560 0.9540 0.9530 0.9530 0.9530
5.793000 0.9530 0.9530 0.9530 0.9530 0.9530
5.825419 0.9530 0.9530 0.9530 0.9510 0.9490
5.858000 0.9490 0.9440 0.9430 0.9410 0.9400
5.890419 0.9380 0.9380 0.9360 0.9380 0.9380
5.923000 0.9400 0.9400 0.9410 0.9410 0.9430
5.955419 0.9440 0.9480 0.9490 0.9510 0.9510
5.988000 0.9510 0.9530 0.9540 0.9540 0.9540
6.020419 0.9560 0.9560 0.9570 0.9590 0.9590
6.052000 0.9590 0.9610 0.9620 0.9640 0.9640
6.084419 0.9640 0.9640 0.9640 0.9640 0.9640
6.117000 0.9640 0.9670 0.9670 0.9670 0.9660
6.149419 0.9640 0.9640 0.9660 0.9660 0.9660
6.182000 0.9670 0.9670 0.9660 0.9640 0.9620
6.214419 0.9620 0.9620 0.9610 0.9610 0.9570
6.247000 0.9540 0.9530 0.9530 0.9530 0.9530
6.279419 0.9530 0.9530 0.9510 0.9490 0.9480
6.312000 0.9430 0.9430 0.9460 0.9480 0.9480
6.344419 0.9490 0.9510 0.9510 0.9510 0.9490
6.377000 0.9490 0.9480 0.9480 0.9460 0.9440
6.409419 0.9430 0.9430 0.9430 0.9430 0.9410
6.441000 0.9380 0.9350 0.9320 0.9250 0.9220
6.473419 0.9220 0.9230 0.9230 0.9230 0.9220
6.506000 0.9220 0.9200 0.9200 0.9190 0.9190
6.538419 0.9170 0.9150 0.9140 0.9120 0.9110
6.571000 0.9090 0.9070 0.9040 0.8990 0.8910
6.603419 0.8880 0.8830 0.8800 0.8770 0.8680
6.636000 0.8600 0.8520 0.8410 0.8300 0.8170
6.668419 0.7920 0.7490 0.7210 0.7130 0.7160
6.701000 0.7260 0.7370 0.7520 0.7620 0.7680
6.733419 0.7750 0.7780 0.7790 0.7790 0.7810
6.765000 0.7780 0.7650 0.7550 0.7370 0.7290
6.797419 0.7150 0.6870 0.6690 0.6530 0.6180
6.830000 0.6060 0.5980 0.5950 0.5800 0.5580
6.862419 0.5480 0.5420 0.5420 0.5530 0.5590
6.895000 0.5710 0.5920 0.6000 0.6160 0.6270
6.927419 0.6390 0.6500 0.6580 0.6730 0.6790
6.960000 0.6820 0.6870 0.6870 0.6920 0.6920
6.992419 0.6870 0.6820 0.6740 0.6660 0.6550
7.025000 0.6450 0.6390 0.6270 0.6190 0.6050
7.057419 0.5950 0.5800 0.5720 0.5460 0.5290
7.089000 0.5010 0.4880 0.4750 0.4510 0.4110
7.121419 0.3830 0.3440 0.3020 0.2450 0.2020
7.154000 0.1970 0.1970 0.2240 0.2500 0.3100
7.186419 0.3880 0.4530 0.4820 0.5330 0.5510
7.219000 0.5760 0.5870 0.5980 0.6010 0.6110
7.251419 0.6190 0.6260 0.6320 0.6320 0.6340
7.284000 0.6340 0.6390 0.6470 0.6610 0.6820
7.316419 0.7000 0.7240 0.7340 0.7410 0.7490
7.349000 0.7570 0.7650 0.7730 0.7750 0.7760
7.381419 0.7780 0.7830 0.7880 0.7920 0.7990
7.413000 0.8020 0.8040 0.8040 0.8050 0.8050
7.445419 0.8090 0.8130 0.8150 0.8150 0.8150
7.478000 0.8150 0.8150 0.8150 0.8130 0.8100
7.510419 0.8090 0.8070 0.8050 0.8000 0.7990
7.543000 0.7960 0.7880 0.7760 0.7700 0.7680
7.575419 0.7600 0.7500 0.7410 0.7260 0.7150
7.608000 0.7110 0.7030 0.6860 0.6710 0.6560
7.640419 0.6340 0.6190 0.6050 0.5970 0.5760
7.673000 0.5560 0.5500 0.5420 0.5370 0.5330
7.705419 0.5370 0.5430 0.5510 0.5710 0.5840
7.738000 0.5980 0.6030 0.6080 0.6130 0.6130
7.770419 0.6140 0.6140 0.6080 0.6050 0.5850
7.802000 0.5580 0.5270 0.5000 0.4820 0.4620
7.834419 0.4330 0.3810 0.3090 0.2520 0.2030
7.867000 0.1320 0.1000 0.0720 0.0550 0.0460
7.899419 0.0370 0.0300 0.0300 0.0240 0.0240
7.932000 0.0300 0.0400 0.0580 0.1000 0.1400
7.964419 0.1770 0.2160 0.2860 0.3150 0.3770
7.997000 0.4320 0.4750 0.5560 0.5870 0.6160
8.029419 0.6190 0.6370 0.6470 0.6580 0.6690
8.062000 0.6790 0.6900 0.6970 0.7020 0.7070
8.094419 0.7130 0.7210 0.7240 0.7290 0.7340
8.126000 0.7370 0.7370 0.7370 0.7390 0.7390
8.158419 0.7390 0.7390 0.7390 0.7390 0.7370
8.191000 0.7370 0.7370 0.7370 0.7370 0.7370
8.223419 0.7340 0.7330 0.7310 0.7290 0.7290
8.256000 0.7280 0.7260 0.7210 0.7180 0.7100
8.288419 0.7030 0.6990 0.6970 0.6920 0.6820
8.321000 0.6760 0.6680 0.6610 0.6560 0.6480
8.353419 0.6370 0.6290 0.6240 0.6080 0.5930
8.386000 0.5710 0.5500 0.5300 0.5110 0.5010
8.418419 0.4910 0.4670 0.4540 0.4220 0.3990
8.450000 0.3730 0.3390 0.3040 0.2810 0.2470
8.482419 0.2180 0.1790 0.1600 0.1400 0.1240
8.515000 0.1180 0.1100 0.1030 0.1010 0.1000
8.547419 0.0980 0.1000 0.1000 0.1050 0.1130
8.580000 0.1190 0.1390 0.1440 0.1600 0.1710
8.612419 0.1790 0.1870 0.1990 0.2000 0.2100
8.645000 0.2130 0.2160 0.2200 0.2260 0.2280
8.677419 0.2290 0.2280 0.2240 0.2230 0.2180
8.710000 0.2130 0.2070 0.1990 0.1890 0.1770
8.742419 0.1660 0.1580 0.1390 0.1290 0.1210
8.774000 0.1210 0.1050 0.0880 0.0770 0.0630
8.806419 0.0580 0.0500 0.0420 0.0400 0.0350
8.839000 0.0300 0.0290 0.0290 0.0290 0.0270
8.871419 0.0270 0.0250 0.0250 0.0240 0.0240
8.904000 0.0240 0.0240 0.0240 0.0240 0.0240
8.936419 0.0240 0.0240 0.0240 0.0240 0.0240
8.969000 0.0240 0.0240 0.0240 0.0240 0.0240
9.001419 0.0240 0.0240 0.0240 0.0240 0.0240
9.034000 0.0240 0.0240 0.0250 0.0250 0.0290
9.066419 0.0290 0.0290 0.0290 0.0290 0.0270
9.099000 0.0270 0.0250 0.0240 0.0240 0.0240
9.131419 0.0240 0.0240 0.0240 0.0240 0.0240
9.163000 0.0240 0.0240 0.0240 0.0240 0.0240
9.195419 0.0240 0.0240 0.0220 0.0220 0.0220
9.228000 0.0240 0.0220 0.0220 0.0220 0.0240
9.260419 0.0240 0.0240 0.0240 0.0240 0.0240
9.293000 0.0240 0.0250 0.0270 0.0290 0.0290
9.325419 0.0320 0.0330 0.0420 0.0500 0.0610
9.358000 0.0690 0.0840 0.0970 0.1140 0.1270
9.390419 0.1520 0.1730 0.1970 0.2130 0.2390
9.423000 0.2470 0.2580 0.2830 0.3000 0.3220
9.455419 0.3440 0.3600 0.3780 0.3890 0.4110
9.487000 0.4230 0.4490 0.4620 0.4740 0.4930
9.519419 0.5140 0.5290 0.5450 0.5550 0.5610
9.552000 0.5710 0.5790 0.5850 0.5980 0.6050
9.584419 0.6140 0.6210 0.6290 0.6390 0.6480
9.617000 0.6580 0.6610 0.6650 0.6760 0.6790
9.649419 0.6870 0.6900 0.6970 0.7000 0.7030
9.682000 0.7080 0.7150 0.7200 0.7230 0.7260
9.714419 0.7330 0.7390 0.7440 0.7490 0.7490
9.747000 0.7500 0.7520 0.7540 0.7540 0.7550
9.779419 0.7570 0.7600 0.7630 0.7680 0.7700
9.811000 0.7710 0.7750 0.7760 0.7760 0.7760
9.843419 0.7780 0.7790 0.7790 0.7810 0.7830
9.876000 0.7840 0.7860 0.7860 0.7880 0.7880
9.908419 0.7880 0.7880 0.7880 0.7860 0.7860
9.941000 0.7860 0.7840 0.7830 0.7810 0.7810
9.973419 0.7790 0.7790 0.7760 0.7730 0.7700
10.006000 0.7660 0.7630 0.7600 0.7580 0.7540
10.038419 0.7500 0.7450 0.7420 0.7410 0.7370
10.071000 0.7310 0.7280 0.7210 0.7180 0.7100
10.103419 0.7030 0.6990 0.6890 0.6860 0.6730
10.135000 0.6650 0.6580 0.6500 0.6470 0.6390
10.167419 0.6320 0.6160 0.6000 0.5880 0.5660
10.200000 0.5530 0.5400 0.5290 0.5190 0.5040
10.232419 0.4980 0.4900 0.4750 0.4510 0.4300
10.265000 0.4110 0.3990 0.3750 0.3510 0.3300
10.297419 0.3020 0.2810 0.2600 0.2440 0.2240
10.330000 0.2030 0.1840 0.1600 0.1390 0.1270
10.362419 0.1190 0.1000 0.0870 0.0800 0.0610
10.395000 0.0560 0.0500 0.0430 0.0430 0.0330
10.427419 0.0330 0.0320 0.0320 0.0300 0.0300
10.459000 0.0290 0.0290 0.0270 0.0270 0.0270
10.491419 0.0270 0.0270 0.0270 0.0270 0.0270
10.524000 0.0290 0.0300 0.0300 0.0300 0.0300
10.556419 0.0300 0.0300 0.0300 0.0320 0.0300
10.589000 0.0300 0.0300 0.0300 0.0320 0.0350
10.621419 0.0370 0.0380 0.0400 0.0430 0.0500
10.654000 0.0510 0.0510 0.0530 0.0590 0.0690
10.686419 0.0770 0.0850 0.0980 0.1030 0.1140
10.719000 0.1270 0.1400 0.1520 0.1630 0.1810
10.751419 0.2020 0.2280 0.2390 0.2520 0.2730
10.784000 0.2970 0.3180 0.3360 0.3640 0.3860
10.816419 0.4090 0.4230 0.4480 0.4590 0.4740
10.848000 0.5190 0.5290 0.5480 0.5590 0.5740
10.880419 0.5880 0.5950 0.6050 0.6110 0.6220
10.913000 0.6390 0.6480 0.6580 0.6680 0.6690
10.945419 0.6770 0.6890 0.6990 0.6990 0.7030
10.978000 0.7080 0.7180 0.7240 0.7290 0.7330
11.010419 0.7340 0.7360 0.7370 0.7410 0.7420
11.043000 0.7420 0.7440 0.7450 0.7490 0.7520
11.075419 0.7540 0.7580 0.7600 0.7600 0.7600
11.108000 0.7600 0.7600 0.7600 0.7600 0.7550
11.140419 0.7540 0.7540 0.7520 0.7490 0.7490
11.172000 0.7450 0.7440 0.7410 0.7390 0.7390
11.204419 0.7370 0.7360 0.7330 0.7310 0.7240
11.237000 0.7210 0.7150 0.7110 0.7070 0.7000
11.269419 0.6970 0.6920 0.6890 0.6860 0.6770
11.302000 0.6730 0.6690 0.6650 0.6600 0.6560
11.334419 0.6500 0.6400 0.6310 0.6270 0.6210
11.367000 0.6190 0.6130 0.6050 0.5980 0.5920
11.399419 0.5770 0.5690 0.5590 0.5550 0.5480
11.432000 0.5380 0.5300 0.5220 0.5140 0.5030
11.464419 0.5010 0.4980 0.4880 0.4820 0.4670
11.496000 0.4560 0.4490 0.4360 0.4300 0.4150
11.528419 0.4010 0.3810 0.3770 0.3680 0.3490
11.561000 0.3390 0.3250 0.3170 0.3070 0.2940
11.593419 0.2780 0.2700 0.2520 0.2410 0.2290
11.626000 0.2200 0.2020 0.1890 0.1760 0.1610
11.658419 0.1500 0.1370 0.1310 0.1190 0.1100
11.691000 0.1000 0.0850 0.0790 0.0690 0.0610
11.723419 0.0560 0.0510 0.0430 0.0400 0.0400
11.756000 0.0370 0.0370 0.0330 0.0320 0.0320
11.788419 0.0320 0.0300 0.0300 0.0300 0.0300
11.820000 0.0320 0.0320 0.0320 0.0300 0.0300
11.852419 0.0290 0.0290 0.0290 0.0290 0.0290
11.885000 0.0300 0.0290 0.0290 0.0290 0.0290
11.917419 0.0290 0.0290 0.0300 0.0290 0.0290
11.950000 0.0290 0.0290 0.0290 0.0300 0.0300
11.982419 0.0300 0.0320 0.0330 0.0330 0.0350
12.015000 0.0370 0.0380 0.0400 0.0430 0.0450
12.047419 0.0480 0.0510 0.0580 0.0630 0.0670
12.080000 0.0770 0.0800 0.0920 0.1000 0.1030
12.112419 0.1130 0.1190 0.1290 0.1390 0.1500
12.145000 0.1580 0.1650 0.1740 0.1810 0.1860
12.177419 0.1900 0.2000 0.2070 0.2130 0.2200
12.209000 0.2210 0.2240 0.2310 0.2340 0.2360
12.241419 0.2370 0.2370 0.2370 0.2370 0.2360
12.274000 0.2330 0.2330 0.2310 0.2240 0.2210
12.306419 0.2150 0.2080 0.2000 0.1920 0.1840
12.339000 0.1740 0.1660 0.1560 0.1500 0.1420
12.371419 0.1350 0.1290 0.1180 0.1060 0.0980
12.404000 0.0900 0.0820 0.0740 0.0710 0.0670
12.436419 0.0660 0.0640 0.0580 0.0530 0.0500
12.469000 0.0430 0.0380 0.0350 0.0350 0.0350
12.501419 0.0330 0.0330 0.0330 0.0330 0.0330
12.533000 0.0330 0.0330 0.0330 0.0320 0.0320
12.565419 0.0330 0.0330 0.0330 0.0330 0.0330
12.598000 0.0330 0.0330 0.0330 0.0330 0.0350
12.630419 0.0350 0.0370 0.0380 0.0400 0.0420
12.663000 0.0450 0.0500 0.0550 0.0630 0.0690
12.695419 0.0800 0.0880 0.1010 0.1190 0.1400
12.728000 0.1520 0.1710 0.1900 0.2100 0.2290
12.760419 0.2440 0.2520 0.2780 0.2860 0.3050
12.793000 0.3300 0.3490 0.3850 0.4020 0.4110
12.825419 0.4150 0.4220 0.4530 0.4640 0.4880
12.857000 0.5010 0.5190 0.5300 0.5380 0.5500
12.889419 0.5510 0.5610 0.5690 0.5790 0.5870
12.922000 0.5980 0.6000 0.6010 0.6080 0.6130
12.954419 0.6180 0.6260 0.6310 0.6350 0.6390
12.987000 0.6420 0.6450 0.6520 0.6600 0.6610
13.019419 0.6660 0.6710 0.6740 0.6770 0.6790
13.052000 0.6790 0.6810 0.6810 0.6820 0.6840
13.084419 0.6870 0.6920 0.6940 0.6940 0.6950
13.117000 0.6950 0.6970 0.6970 0.6990 0.7000
13.149419 0.7000 0.7020 0.7020 0.7030 0.7020
13.181000 0.7020 0.7020 0.7020 0.7020 0.7020
13.213419 0.7000 0.7000 0.7000 0.7000 0.6990
13.246000 0.6970 0.6970 0.6900 0.6890 0.6840
13.278419 0.6820 0.6810 0.6790 0.6760 0.6730
13.311000 0.6710 0.6690 0.6680 0.6660 0.6630
13.343419 0.6600 0.6550 0.6500 0.6470 0.6450
13.376000 0.6420 0.6350 0.6290 0.6220 0.6160
13.408419 0.6130 0.6100 0.6030 0.6000 0.5970
13.441000 0.5920 0.5900 0.5840 0.5800 0.5770
13.473419 0.5720 0.5690 0.5670 0.5630 0.5580
13.506000 0.5550 0.5500 0.5430 0.5350 0.5290
13.538419 0.5250 0.5170 0.5140 0.5110 0.5040
13.570000 0.5030 0.5010 0.4980 0.4910 0.4850
13.602419 0.4800 0.4740 0.4640 0.4560 0.4490
13.635000 0.4480 0.4350 0.4300 0.4250 0.4200
13.667419 0.4140 0.4090 0.3980 0.3940 0.3890
13.700000 0.3860 0.3850 0.3830 0.3830 0.3810
13.732419 0.3810 0.3800 0.3770 0.3750 0.3730
13.765000 0.3730 0.3750 0.3750 0.3770 0.3770
13.797419 0.3780 0.3810 0.3830 0.3860 0.3910
13.830000 0.3940 0.3990 0.4040 0.4090 0.4120
13.862419 0.4170 0.4220 0.4330 0.4410 0.4480
13.894000 0.4490 0.4540 0.4590 0.4690 0.4780
13.926419 0.4870 0.4980 0.5040 0.5090 0.5140
13.959000 0.5240 0.5290 0.5330 0.5460 0.5510
13.991419 0.5560 0.5660 0.5790 0.5850 0.5930
14.024000 0.5980 0.6010 0.6180 0.6220 0.6290
14.056419 0.6370 0.6470 0.6500 0.6560 0.6650
14.089000 0.6690 0.6760 0.6810 0.6820 0.6870
14.121419 0.6920 0.6990 0.7020 0.7100 0.7150
14.154000 0.7200 0.7280 0.7360 0.7410 0.7470
14.186419 0.7490 0.7520 0.7580 0.7600 0.7630
14.218000 0.7700 0.7750 0.7760 0.7780 0.7790
14.250419 0.7810 0.7830 0.7840 0.7860 0.7880
14.283000 0.7910 0.7920 0.7960 0.7990 0.8000
14.315419 0.8020 0.8040 0.8050 0.8070 0.8090
14.348000 0.8100 0.8120 0.8130 0.8150 0.8150
14.380419 0.8150 0.8170 0.8180 0.8180 0.8200
14.413000 0.8220 0.8220 0.8230 0.8230 0.8250
14.445419 0.8250 0.8250 0.8250 0.8250 0.8250
14.478000 0.8250 0.8260 0.8260 0.8260 0.8260
14.510419 0.8260 0.8260 0.8260 0.8260 0.8260
14.542000 0.8260 0.8250 0.8250 0.8250 0.8230
14.574419 0.8250 0.8230 0.8230 0.8250 0.8230
14.607000 0.8230 0.8230 0.8230 0.8250 0.8250
14.639419 0.8250 0.8260 0.8250 0.8250 0.8250
14.672000 0.8250 0.8250 0.8260 0.8260 0.8310
14.704419 0.8330 0.8340 0.8380 0.8390 0.8410
14.737000 0.8430 0.8440 0.8470 0.8490 0.8510
14.769419 0.8520 0.8520 0.8550 0.8570 0.8620
14.802000 0.8670 0.8720 0.8730 0.8750 0.8750
14.834419 0.8770 0.8780 0.8800 0.8810 0.8810
14.866000 0.8830 0.8850 0.8860 0.8860 0.8860
14.898419 0.8860 0.8880 0.8880 0.8890 0.8890
14.931000 0.8910 0.8910 0.8910 0.8890 0.8890
14.963419 0.8890 0.8880 0.8860 0.8850 0.8850
14.996000 0.8830 0.8830 0.8830 0.8810 0.8810
15.028419 0.8800 0.8770 0.8750 0.8730 0.8730
15.061000 0.8730 0.8750 0.8800 0.8830 0.8880
15.093419 0.8890 0.8910 0.8930 0.8930 0.8940
15.126000 0.8940 0.8940 0.8960 0.8960 0.8960
15.158419 0.8960 0.8960 0.8960 0.8960 0.8960
15.191000 0.8960 0.8960 0.8940 0.8940 0.8940
15.223419 0.8940 0.8940 0.8930 0.8930 0.8930
15.255000 0.8910 0.8890 0.8890 0.8890 0.8890
15.287419 0.8880 0.8860 0.8860 0.8850 0.8850
15.320000 0.8850 0.8850 0.8830 0.8810 0.8810
15.352419 0.8810 0.8830 0.8830 0.8830 0.8810
15.385000 0.8810 0.8800 0.8800 0.8780 0.8780
15.417419 0.8780 0.8780 0.8780 0.8780 0.8780
15.450000 0.8770 0.8770 0.8750 0.8700 0.8700
15.482419 0.8700 0.8680 0.8680 0.8680 0.8680
15.515000 0.8680 0.8680 0.8680 0.8680 0.8680
15.547419 0.8680 0.8700 0.8700 0.8700 0.8700
15.579000 0.8680 0.8680 0.8680 0.8680 0.8680
15.611419 0.8680 0.8680 0.8680 0.8670 0.8650
15.644000 0.8650 0.8640 0.8620 0.8600 0.8600
15.676419 0.8590 0.8590 0.8570 0.8550 0.8550
15.709000 0.8550 0.8540 0.8540 0.8520 0.8520
15.741419 0.8510 0.8510 0.8490 0.8490 0.8470
15.774000 0.8440 0.8430 0.8430 0.8410 0.8410
15.806419 0.8380 0.8340 0.8330 0.8330 0.8310
15.839000 0.8310 0.8300 0.8310 0.8310 0.8310
15.871419 0.8300 0.8300 0.8280 0.8280 0.8260
15.903000 0.8250 0.8250 0.8250 0.8250 0.8250
15.935419 0.8250 0.8230 0.8230 0.8230 0.8230
15.968000 0.8230 0.8230 0.8230 0.8230
##END=
