##TITLE=PROPANOL, 2-METHYL-
##JCAMP-DX=4.24
##DATA TYPE=INFRARED SPECTRUM
##CLASS=COBLENTZ III
##ORIGIN=DOW CHEMICAL COMPANY
##OWNER=COBLENTZ SOCIETY
Collection (C) 2018 copyright by the U.S. Secretary of Commerce
on behalf of the United States of America. All rights reserved.
##DATE=1965/10/13
##NAMES=2-methyl-1-propanol
##CAS REGISTRY NO=78-83-1
##MOLFORM=C4 H10 O
##SOURCE REFERENCE=COBLENTZ NO. 10144
##$NIST SOURCE=COBLENTZ
##$NIST IMAGE=cob10144
##SPECTROMETER/DATA SYSTEM=DOW KBr FOREPRISM-GRATING
##INSTRUMENT PARAMETERS=BLAZED AT 3.5, 12.0, 20.0 MICRON, CHANGED AT 5.0, 7.5, 14.9 MICRON
##STATE=SOLUTION (10% IN CCl4 FOR 3800-1340, 10% IN CS2 FOR 1340-400 CM^-^1) VS. SOLVENT
##PATH LENGTH=0.011, 0.011 CM
##SAMPLING PROCEDURE=TRANSMISSION
##RESOLUTION=4
##DATA PROCESSING=DIGITIZED BY NIST FROM HARD COPY (FROM TWO SEGMENTS)
##XUNITS=1/CM
##YUNITS=TRANSMITTANCE
##XFACTOR=1.000000
##YFACTOR=1
##DELTAX=0.870072
##FIRSTX=401.682
##LASTX=3798.44
##FIRSTY=0.963
##MAXX=3798.44
##MINX=401.682
##MAXY=1.025
##MINY=0.009
##NPOINTS=3905
##XYDATA=(X++(Y..Y))
401.682000 0.9630 0.9640 0.9640 0.9640 0.9650
406.032359 0.9650 0.9670 0.9670 0.9670 0.9670
410.382717 0.9670 0.9670 0.9650 0.9650 0.9650
414.733076 0.9640 0.9640 0.9640 0.9630 0.9610
419.083435 0.9610 0.9600 0.9590 0.9590 0.9570
423.433794 0.9570 0.9570 0.9570 0.9570 0.9570
427.784152 0.9570 0.9570 0.9570 0.9570 0.9570
432.134511 0.9560 0.9560 0.9560 0.9540 0.9540
436.484870 0.9540 0.9530 0.9530 0.9530 0.9520
440.835229 0.9520 0.9490 0.9460 0.9460 0.9430
445.185587 0.9420 0.9390 0.9380 0.9370 0.9340
449.535946 0.9340 0.9330 0.9310 0.9310 0.9270
453.886305 0.9240 0.9230 0.9200 0.9180 0.9130
458.236664 0.9120 0.9110 0.9070 0.9030 0.9010
462.587022 0.8980 0.8960 0.8930 0.8920 0.8900
466.937381 0.8900 0.8890 0.8860 0.8830 0.8810
471.287740 0.8780 0.8740 0.8710 0.8700 0.8680
475.638099 0.8660 0.8630 0.8600 0.8570 0.8530
479.988457 0.8490 0.8410 0.8340 0.8270 0.8150
484.338816 0.8120 0.8030 0.7900 0.7711 0.7541
488.689175 0.7410 0.7140 0.6910 0.6830 0.6810
493.039534 0.6810 0.6830 0.6880 0.6910 0.6960
497.389892 0.7040 0.7130 0.7250 0.7360 0.7500
501.740251 0.7620 0.7730 0.7800 0.7959 0.8069
506.090610 0.8120 0.8150 0.8190 0.8210 0.8220
510.440969 0.8230 0.8250 0.8250 0.8250 0.8250
514.791327 0.8250 0.8250 0.8230 0.8230 0.8230
519.141686 0.8230 0.8220 0.8210 0.8190 0.8190
523.492045 0.8160 0.8150 0.8140 0.8140 0.8120
527.842404 0.8120 0.8110 0.8100 0.8060 0.8040
532.192762 0.8040 0.8030 0.8010 0.8010 0.8000
536.543121 0.8000 0.8000 0.7970 0.7970 0.7960
540.893480 0.7950 0.7950 0.7950 0.7930 0.7930
545.243839 0.7920 0.7920 0.7900 0.7890 0.7880
549.594197 0.7860 0.7860 0.7850 0.7820 0.7820
553.944556 0.7810 0.7810 0.7800 0.7780 0.7770
558.294915 0.7770 0.7770 0.7750 0.7710 0.7700
562.645274 0.7690 0.7670 0.7660 0.7650 0.7630
566.995632 0.7630 0.7600 0.7600 0.7590 0.7580
571.345991 0.7580 0.7540 0.7520 0.7520 0.7520
575.696350 0.7510 0.7510 0.7500 0.7500 0.7470
580.046709 0.7440 0.7410 0.7410 0.7400 0.7390
584.397067 0.7360 0.7320 0.7300 0.7290 0.7280
588.747426 0.7260 0.7250 0.7240 0.7150 0.7130
593.097785 0.7110 0.7100 0.7090 0.7090 0.7090
597.448144 0.7090 0.7090 0.7100 0.7100 0.7110
601.798502 0.7110 0.7110 0.7110 0.7110 0.7110
606.148861 0.7110 0.7110 0.7110 0.7110 0.7100
610.499220 0.7100 0.7100 0.7090 0.7090 0.7070
614.849579 0.7070 0.7060 0.7060 0.7060 0.7060
619.199937 0.7060 0.7040 0.7040 0.7040 0.7040
623.550296 0.7040 0.7030 0.7030 0.7030 0.7030
627.900655 0.7030 0.7020 0.7020 0.7020 0.7020
632.251014 0.7000 0.7000 0.7000 0.7000 0.7000
636.601372 0.7000 0.7000 0.7000 0.7020 0.7020
640.951731 0.7020 0.7020 0.7030 0.7030 0.7030
645.302090 0.7030 0.7040 0.7040 0.7060 0.7060
649.652449 0.7060 0.7060 0.7070 0.7070 0.7070
654.002807 0.7090 0.7090 0.7090 0.7090 0.7100
658.353166 0.7100 0.7110 0.7130 0.7140 0.7140
662.703525 0.7150 0.7150 0.7170 0.7180 0.7180
667.053884 0.7180 0.7180 0.7180 0.7190 0.7220
671.404242 0.7220 0.7240 0.7250 0.7260 0.7280
675.754601 0.7280 0.7280 0.7290 0.7300 0.7320
680.104960 0.7330 0.7360 0.7390 0.7400 0.7410
684.455319 0.7430 0.7440 0.7470 0.7480 0.7500
688.805677 0.7510 0.7520 0.7540 0.7560 0.7590
693.156036 0.7590 0.7620 0.7650 0.7660 0.7670
697.506395 0.7690 0.7700 0.7740 0.7770 0.7780
701.856754 0.7780 0.7800 0.7810 0.7820 0.7840
706.207112 0.7850 0.7860 0.7880 0.7920 0.7930
710.557471 0.7950 0.7960 0.7970 0.8000 0.8010
714.907830 0.8040 0.8060 0.8080 0.8110 0.8120
719.258189 0.8140 0.8160 0.8210 0.8250 0.8250
723.608547 0.8260 0.8270 0.8310 0.8310 0.8330
727.958906 0.8340 0.8370 0.8380 0.8410 0.8450
732.309265 0.8480 0.8490 0.8510 0.8520 0.8530
736.659624 0.8550 0.8570 0.8570 0.8590 0.8620
741.009982 0.8640 0.8670 0.8700 0.8700 0.8710
745.360341 0.8710 0.8720 0.8740 0.8770 0.8780
749.710700 0.8810 0.8820 0.8850 0.8870 0.8890
754.061059 0.8920 0.8920 0.8930 0.8940 0.8970
758.411417 0.8980 0.9010 0.9040 0.9050 0.9080
762.761776 0.9110 0.9120 0.9130 0.9130 0.9160
767.112135 0.9180 0.9190 0.9200 0.9200 0.9220
771.462494 0.9230 0.9240 0.9260 0.9270 0.9270
775.812852 0.9270 0.9270 0.9270 0.9270 0.9260
780.163211 0.9260 0.9230 0.9200 0.9190 0.9190
784.513570 0.9190 0.9190 0.9200 0.9230 0.9330
788.863929 0.9340 0.9390 0.9420 0.9450 0.9450
793.214287 0.9460 0.9460 0.9480 0.9490 0.9490
797.564646 0.9490 0.9500 0.9500 0.9530 0.9540
801.915005 0.9540 0.9530 0.9520 0.9500 0.9490
806.265364 0.9450 0.9390 0.9350 0.9330 0.9240
810.615722 0.9130 0.8960 0.8770 0.8630 0.8510
814.966081 0.8231 0.7961 0.7442 0.7261 0.6911
819.316440 0.6740 0.6760 0.7210 0.7360 0.7520
823.666799 0.7969 0.8309 0.8559 0.8739 0.8959
828.017157 0.9130 0.9330 0.9450 0.9570 0.9690
832.367516 0.9780 0.9800 0.9860 0.9900 0.9940
836.717875 1.0010 1.0020 1.0040 1.0090 1.0100
841.068234 1.0130 1.0160 1.0170 1.0190 1.0200
845.418592 1.0230 1.0230 1.0240 1.0250 1.0250
849.768951 1.0250 1.0250 1.0240 1.0240 1.0240
854.119310 1.0230 1.0230 1.0200 1.0190 1.0190
858.469669 1.0190 1.0170 1.0160 1.0150 1.0150
862.820027 1.0150 1.0150 1.0150 1.0150 1.0130
867.170386 1.0130 1.0130 1.0130 1.0130 1.0120
871.520745 1.0120 1.0100 1.0090 1.0080 1.0050
875.871104 1.0050 1.0020 1.0010 1.0010 1.0000
880.221462 0.9980 0.9940 0.9910 0.9890 0.9870
884.571821 0.9860 0.9830 0.9780 0.9760 0.9690
888.922180 0.9600 0.9520 0.9380 0.9260 0.9080
893.272539 0.8930 0.8810 0.8630 0.8401 0.8121
897.622897 0.7900 0.7670 0.7470 0.7400 0.7470
901.973256 0.7590 0.7859 0.7900 0.8010 0.8189
906.323615 0.8330 0.8440 0.8560 0.8680 0.8830
910.673974 0.9010 0.9120 0.9220 0.9230 0.9260
915.024332 0.9260 0.9260 0.9240 0.9220 0.9130
919.374691 0.9050 0.9040 0.9040 0.9030 0.9000
923.725050 0.8980 0.8940 0.8920 0.8850 0.8770
928.075409 0.8700 0.8550 0.8271 0.7971 0.7661
932.425767 0.7140 0.6830 0.6540 0.6310 0.6050
936.776126 0.5790 0.5580 0.5381 0.5240 0.5569
941.126485 0.5951 0.6370 0.6610 0.7130 0.7430
945.476844 0.7810 0.8309 0.8450 0.8530 0.8570
949.827202 0.8590 0.8600 0.8590 0.8530 0.8440
954.177561 0.8310 0.8060 0.7621 0.7171 0.6881
958.527920 0.6660 0.6660 0.6840 0.7400 0.7820
962.878279 0.7960 0.8329 0.8529 0.8709 0.8790
967.228637 0.8830 0.8870 0.8890 0.8900 0.8900
971.578996 0.8900 0.8870 0.8860 0.8830 0.8810
975.929355 0.8780 0.8740 0.8710 0.8700 0.8630
980.279714 0.8560 0.8510 0.8360 0.8310 0.8151
984.630072 0.8000 0.7800 0.7340 0.7250 0.7110
988.980431 0.6731 0.6351 0.5771 0.5541 0.5391
993.330790 0.5239 0.4889 0.4480 0.4260 0.3900
997.681149 0.3620 0.3370 0.3110 0.2900 0.2820
1002.031507 0.2820 0.3010 0.3150 0.3460 0.4110
1006.381866 0.4190 0.4370 0.4570 0.4799 0.5099
1010.732225 0.5350 0.5360 0.5350 0.5250 0.5130
1015.082584 0.5010 0.4890 0.4780 0.4072 0.3921
1019.432942 0.3510 0.3160 0.2560 0.2170 0.2000
1023.783301 0.1730 0.1580 0.1311 0.1141 0.1030
1028.133660 0.0909 0.0600 0.0470 0.0230 0.0170
1032.484019 0.0150 0.0130 0.0130 0.0130 0.0130
1036.834377 0.0130 0.0130 0.0150 0.0150 0.0160
1041.184736 0.0170 0.0170 0.0190 0.0200 0.0210
1045.535095 0.0240 0.0310 0.0310 0.0380 0.0450
1049.885454 0.0500 0.0620 0.0989 0.1070 0.1219
1054.235812 0.1430 0.1650 0.1890 0.2150 0.2390
1058.586171 0.2600 0.3149 0.3380 0.3619 0.4557
1062.936530 0.4671 0.5041 0.5510 0.5910 0.6200
1067.286889 0.6350 0.6610 0.6700 0.6989 0.7239
1071.637247 0.7400 0.7580 0.7650 0.7750 0.7850
1075.987606 0.7950 0.7970 0.8030 0.8110 0.8120
1080.337965 0.8150 0.8150 0.8140 0.8140 0.8140
1084.688324 0.8140 0.8140 0.8140 0.8120 0.8110
1089.038682 0.8110 0.8100 0.8070 0.8030 0.8000
1093.389041 0.7970 0.7960 0.7950 0.7950 0.7920
1097.739400 0.7860 0.7810 0.7740 0.7660 0.7660
1102.089759 0.7590 0.7450 0.7410 0.7330 0.7151
1106.440117 0.7070 0.6920 0.6740 0.6610 0.6470
1110.790476 0.6390 0.6370 0.6390 0.6430 0.6530
1115.140835 0.6650 0.6770 0.6810 0.6850 0.6910
1119.491194 0.6920 0.6960 0.7020 0.7070 0.7070
1123.841552 0.7100 0.7150 0.7180 0.7240 0.7260
1128.191911 0.7320 0.7340 0.7400 0.7410 0.7440
1132.542270 0.7480 0.7500 0.7520 0.7580 0.7590
1136.892629 0.7630 0.7690 0.7740 0.7780 0.7850
1141.242987 0.7970 0.8110 0.8160 0.8230 0.8310
1145.593346 0.8330 0.8380 0.8410 0.8450 0.8480
1149.943705 0.8510 0.8530 0.8550 0.8570 0.8570
1154.294064 0.8570 0.8590 0.8590 0.8590 0.8590
1158.644422 0.8570 0.8570 0.8560 0.8530 0.8520
1162.994781 0.8510 0.8480 0.8440 0.8380 0.8340
1167.345140 0.8300 0.8230 0.8220 0.8110 0.8070
1171.695499 0.8010 0.7990 0.7970 0.7960 0.7950
1176.045857 0.7950 0.7950 0.7950 0.7960 0.7970
1180.396216 0.8000 0.8110 0.8330 0.8420 0.8520
1184.746575 0.8560 0.8660 0.8710 0.8740 0.8770
1189.096934 0.8790 0.8810 0.8820 0.8830 0.8830
1193.447292 0.8830 0.8830 0.8830 0.8820 0.8820
1197.797651 0.8790 0.8790 0.8770 0.8740 0.8710
1202.148010 0.8700 0.8660 0.8630 0.8600 0.8560
1206.498369 0.8520 0.8510 0.8400 0.8380 0.8340
1210.848727 0.8310 0.8210 0.8140 0.8120 0.8040
1215.199086 0.7960 0.7930 0.7820 0.7750 0.7700
1219.549445 0.7600 0.7500 0.7410 0.7330 0.7280
1223.899804 0.7240 0.7150 0.7090 0.7000 0.6930
1228.250162 0.6890 0.6800 0.6740 0.6610 0.6530
1232.600521 0.6480 0.6440 0.6360 0.6320 0.6310
1236.950880 0.6240 0.6220 0.6220 0.6210 0.6210
1241.301239 0.6210 0.6220 0.6220 0.6290 0.6290
1245.651597 0.6320 0.6360 0.6440 0.6480 0.6590
1250.001956 0.6680 0.6810 0.6930 0.7070 0.7140
1254.352315 0.7260 0.7410 0.7520 0.7590 0.7630
1258.702674 0.7660 0.7690 0.7700 0.7710 0.7710
1263.053032 0.7700 0.7700 0.7700 0.7690 0.7670
1267.403391 0.7650 0.7630 0.7620 0.7600 0.7550
1271.753750 0.7510 0.7480 0.7440 0.7400 0.7400
1276.104109 0.7330 0.7290 0.7250 0.7240 0.7180
1280.454467 0.7100 0.7070 0.7060 0.7040 0.7040
1284.804826 0.7030 0.7030 0.7030 0.7040 0.7060
1289.155185 0.7060 0.7100 0.7130 0.7210 0.7260
1293.505544 0.7320 0.7400 0.7440 0.7500 0.7540
1297.855902 0.7580 0.7590 0.7600 0.7600 0.7600
1302.206261 0.7590 0.7590 0.7580 0.7560 0.7540
1306.556620 0.7510 0.7480 0.7440 0.7430 0.7340
1310.906979 0.7250 0.7180 0.7140 0.7100 0.7070
1315.257337 0.6980 0.6930 0.6840 0.6780 0.6740
1319.607696 0.6630 0.6540 0.6440 0.6330 0.6290
1323.958055 0.6200 0.6050 0.5960 0.5950 0.5920
1328.308414 0.5900 0.5870 0.5840 0.5830 0.5800
1332.658772 0.5790 0.5770 0.5760 0.5750 0.5730
1337.009131 0.5720 0.5710 0.5690 0.5660 0.5660
1341.359490 0.5650 0.5650 0.5640 0.5640 0.5620
1345.709849 0.5620 0.5610 0.5610 0.5600 0.5600
1350.060207 0.5580 0.5580 0.5570 0.5560 0.5540
1354.410566 0.5510 0.5500 0.5490 0.5470 0.5420
1358.760925 0.5380 0.5350 0.5240 0.5130 0.4940
1363.111284 0.4790 0.4490 0.4270 0.3721 0.3461
1367.461642 0.3158 0.2450 0.2451 0.2930 0.3190
1371.812001 0.3380 0.3630 0.3870 0.3970 0.4459
1376.162360 0.4570 0.4610 0.4630 0.4600 0.4490
1380.512719 0.4370 0.4070 0.3770 0.3630 0.3401
1384.863077 0.3300 0.3190 0.3150 0.3070 0.3040
1389.213436 0.3030 0.3010 0.3030 0.3080 0.3120
1393.563795 0.3150 0.3220 0.3290 0.3400 0.3510
1397.914154 0.3550 0.3660 0.3780 0.3960 0.4120
1402.264512 0.4230 0.4340 0.4450 0.4560 0.4610
1406.614871 0.4680 0.4740 0.4780 0.4800 0.4870
1410.965230 0.4930 0.4980 0.5010 0.5020 0.5060
1415.315589 0.5090 0.5120 0.5150 0.5170 0.5210
1419.665947 0.5230 0.5240 0.5280 0.5320 0.5350
1424.016306 0.5360 0.5360 0.5390 0.5430 0.5450
1428.366665 0.5470 0.5500 0.5510 0.5530 0.5540
1432.717024 0.5560 0.5560 0.5570 0.5570 0.5570
1437.067382 0.5560 0.5560 0.5540 0.5510 0.5500
1441.417741 0.5500 0.5490 0.5430 0.5360 0.5350
1445.768100 0.5240 0.5230 0.5130 0.5040 0.4970
1450.118459 0.4640 0.4160 0.4040 0.4000 0.3980
1454.468817 0.3980 0.3970 0.3870 0.3790 0.3720
1458.819176 0.3659 0.2700 0.2450 0.2300 0.2180
1463.169535 0.1889 0.1620 0.1620 0.1760 0.1810
1467.519894 0.1880 0.1990 0.1980 0.1880 0.1551
1471.870252 0.1350 0.1200 0.1160 0.1200 0.1310
1476.220611 0.1440 0.1650 0.2030 0.2359 0.2560
1480.570970 0.3163 0.4121 0.4630 0.4791 0.5560
1484.921329 0.5910 0.6170 0.6370 0.6590 0.6770
1489.271687 0.6980 0.7090 0.7260 0.7430 0.7660
1493.622046 0.7770 0.7840 0.7930 0.7990 0.8070
1497.972405 0.8150 0.8190 0.8290 0.8360 0.8410
1502.322764 0.8460 0.8510 0.8520 0.8550 0.8600
1506.673122 0.8700 0.8720 0.8750 0.8780 0.8790
1511.023481 0.8830 0.8890 0.8930 0.8940 0.8970
1515.373840 0.9000 0.9030 0.9070 0.9090 0.9110
1519.724199 0.9120 0.9130 0.9180 0.9230 0.9230
1524.074557 0.9240 0.9270 0.9310 0.9330 0.9350
1528.424916 0.9380 0.9410 0.9430 0.9460 0.9520
1532.775275 0.9540 0.9570 0.9600 0.9630 0.9670
1537.125634 0.9710 0.9760 0.9780 0.9800 0.9820
1541.475992 0.9830 0.9840 0.9860 0.9860 0.9860
1545.826351 0.9870 0.9870 0.9870 0.9870 0.9870
1550.176710 0.9870 0.9870 0.9870 0.9870 0.9870
1554.527069 0.9870 0.9870 0.9870 0.9870 0.9870
1558.877427 0.9870 0.9870 0.9860 0.9840 0.9830
1563.227786 0.9800 0.9790 0.9790 0.9790 0.9780
1567.578145 0.9780 0.9780 0.9760 0.9760 0.9750
1571.928504 0.9750 0.9750 0.9750 0.9750 0.9750
1576.278862 0.9750 0.9750 0.9750 0.9740 0.9720
1580.629221 0.9720 0.9720 0.9720 0.9720 0.9720
1584.979580 0.9720 0.9720 0.9710 0.9710 0.9710
1589.329939 0.9690 0.9690 0.9680 0.9680 0.9680
1593.680297 0.9670 0.9670 0.9650 0.9650 0.9640
1598.030656 0.9630 0.9610 0.9600 0.9590 0.9570
1602.381015 0.9560 0.9540 0.9540 0.9530 0.9530
1606.731374 0.9520 0.9500 0.9490 0.9490 0.9480
1611.081732 0.9460 0.9450 0.9450 0.9450 0.9430
1615.432091 0.9430 0.9420 0.9420 0.9410 0.9390
1619.782450 0.9380 0.9350 0.9340 0.9330 0.9330
1624.132809 0.9330 0.9310 0.9310 0.9310 0.9310
1628.483167 0.9310 0.9310 0.9300 0.9300 0.9300
1632.833526 0.9310 0.9310 0.9330 0.9340 0.9340
1637.183885 0.9350 0.9350 0.9350 0.9370 0.9380
1641.534244 0.9380 0.9390 0.9410 0.9420 0.9430
1645.884602 0.9450 0.9450 0.9450 0.9460 0.9460
1650.234961 0.9480 0.9480 0.9490 0.9490 0.9490
1654.585320 0.9490 0.9490 0.9490 0.9490 0.9500
1658.935679 0.9500 0.9500 0.9530 0.9530 0.9540
1663.286037 0.9540 0.9540 0.9560 0.9560 0.9560
1667.636396 0.9570 0.9570 0.9600 0.9600 0.9610
1671.986755 0.9630 0.9630 0.9630 0.9630 0.9640
1676.337114 0.9650 0.9650 0.9650 0.9650 0.9650
1680.687472 0.9650 0.9670 0.9680 0.9680 0.9680
1685.037831 0.9680 0.9680 0.9680 0.9680 0.9680
1689.388190 0.9680 0.9680 0.9680 0.9690 0.9690
1693.738549 0.9690 0.9680 0.9680 0.9680 0.9680
1698.088907 0.9680 0.9670 0.9670 0.9670 0.9670
1702.439266 0.9650 0.9650 0.9650 0.9650 0.9650
1706.789625 0.9650 0.9650 0.9650 0.9650 0.9650
1711.139984 0.9670 0.9670 0.9680 0.9690 0.9710
1715.490342 0.9710 0.9720 0.9720 0.9720 0.9740
1719.840701 0.9740 0.9760 0.9760 0.9780 0.9780
1724.191060 0.9790 0.9790 0.9790 0.9800 0.9830
1728.541419 0.9840 0.9840 0.9860 0.9860 0.9860
1732.891777 0.9870 0.9870 0.9870 0.9890 0.9890
1737.242136 0.9890 0.9890 0.9900 0.9900 0.9900
1741.592495 0.9900 0.9900 0.9900 0.9910 0.9910
1745.942854 0.9910 0.9910 0.9910 0.9930 0.9910
1750.293212 0.9910 0.9910 0.9910 0.9910 0.9910
1754.643571 0.9930 0.9930 0.9930 0.9930 0.9930
1758.993930 0.9930 0.9930 0.9930 0.9940 0.9940
1763.344289 0.9940 0.9950 0.9950 0.9950 0.9970
1767.694647 0.9970 0.9970 0.9970 0.9970 0.9970
1772.045006 0.9980 0.9980 0.9980 0.9980 0.9980
1776.395365 0.9980 0.9980 0.9980 0.9980 0.9980
1780.745724 0.9980 0.9980 1.0000 1.0000 1.0000
1785.096082 1.0000 1.0010 1.0010 1.0010 1.0010
1789.446441 1.0010 1.0020 1.0020 1.0020 1.0020
1793.796800 1.0020 1.0020 1.0020 1.0020 1.0020
1798.147159 1.0020 1.0020 1.0020 1.0020 1.0020
1802.497517 1.0020 1.0020 1.0020 1.0020 1.0020
1806.847876 1.0020 1.0020 1.0020 1.0020 1.0020
1811.198235 1.0020 1.0020 1.0020 1.0020 1.0020
1815.548594 1.0020 1.0020 1.0040 1.0040 1.0040
1819.898952 1.0050 1.0050 1.0050 1.0050 1.0060
1824.249311 1.0060 1.0060 1.0060 1.0060 1.0060
1828.599670 1.0060 1.0060 1.0060 1.0050 1.0040
1832.950029 1.0040 1.0040 1.0040 1.0040 1.0040
1837.300387 1.0040 1.0040 1.0040 1.0040 1.0040
1841.650746 1.0050 1.0060 1.0060 1.0060 1.0060
1846.001105 1.0060 1.0060 1.0060 1.0060 1.0060
1850.351464 1.0060 1.0060 1.0060 1.0060 1.0060
1854.701822 1.0060 1.0060 1.0060 1.0060 1.0060
1859.052181 1.0060 1.0060 1.0060 1.0060 1.0060
1863.402540 1.0060 1.0050 1.0050 1.0040 1.0020
1867.752899 1.0020 1.0020 1.0020 1.0040 1.0050
1872.103257 1.0050 1.0050 1.0050 1.0050 1.0050
1876.453616 1.0040 1.0040 1.0040 1.0040 1.0040
1880.803975 1.0050 1.0050 1.0050 1.0050 1.0050
1885.154334 1.0050 1.0050 1.0050 1.0050 1.0050
1889.504692 1.0040 1.0040 1.0020 1.0020 1.0020
1893.855051 1.0020 1.0020 1.0020 1.0020 1.0040
1898.205410 1.0040 1.0050 1.0050 1.0050 1.0050
1902.555769 1.0050 1.0050 1.0050 1.0050 1.0050
1906.906127 1.0050 1.0050 1.0050 1.0050 1.0050
1911.256486 1.0050 1.0050 1.0040 1.0040 1.0040
1915.606845 1.0040 1.0040 1.0040 1.0040 1.0040
1919.957204 1.0040 1.0040 1.0040 1.0040 1.0040
1924.307562 1.0040 1.0040 1.0020 1.0020 1.0010
1928.657921 1.0010 1.0010 1.0010 1.0000 1.0000
1933.008280 1.0000 0.9980 0.9980 0.9970 0.9970
1937.358639 0.9950 0.9950 0.9950 0.9950 0.9950
1941.708997 0.9950 0.9950 0.9970 0.9970 0.9970
1946.059356 0.9970 0.9980 0.9980 0.9980 0.9980
1950.409715 1.0000 1.0000 1.0000 1.0000 1.0000
1954.760074 1.0000 1.0000 1.0000 1.0000 1.0000
1959.110432 1.0000 0.9980 0.9980 0.9980 0.9980
1963.460791 0.9980 0.9980 0.9980 0.9980 0.9980
1967.811150 0.9980 0.9980 0.9980 0.9980 0.9980
1972.161509 0.9980 0.9980 0.9980 0.9980 0.9980
1976.511867 0.9980 0.9980 0.9980 0.9970 0.9970
1980.862226 0.9970 0.9970 0.9970 0.9970 0.9970
1985.212585 0.9950 0.9950 0.9940 0.9940 0.9940
1989.562944 0.9940 0.9940 0.9940 0.9940 0.9940
1993.913302 0.9940 0.9940 0.9940 0.9940 0.9950
1998.263661 0.9950 0.9950 0.9950 0.9950 0.9950
2002.614020 0.9950 0.9950 0.9950 0.9950 0.9950
2006.964379 0.9950 0.9950 0.9950 0.9950 0.9950
2011.314737 0.9950 0.9950 0.9950 0.9950 0.9950
2015.665096 0.9950 0.9950 0.9950 0.9950 0.9950
2020.015455 0.9950 0.9950 0.9960 0.9970 0.9970
2024.365814 0.9970 0.9975 0.9980 0.9980 0.9980
2028.716172 0.9975 0.9970 0.9970 0.9970 0.9956
2033.066531 0.9941 0.9935 0.9930 0.9930 0.9930
2037.416890 0.9920 0.9910 0.9910 0.9910 0.9910
2041.767249 0.9910 0.9905 0.9900 0.9895 0.9890
2046.117607 0.9890 0.9890 0.9881 0.9871 0.9870
2050.467966 0.9870 0.9846 0.9821 0.9810 0.9801
2054.818325 0.9791 0.9781 0.9780 0.9780 0.9771
2059.168684 0.9761 0.9760 0.9760 0.9755 0.9750
2063.519042 0.9750 0.9750 0.9750 0.9750 0.9755
2067.869401 0.9760 0.9760 0.9760 0.9760 0.9760
2072.219760 0.9769 0.9779 0.9780 0.9780 0.9785
2076.570119 0.9790 0.9790 0.9790 0.9790 0.9790
2080.920477 0.9795 0.9800 0.9809 0.9819 0.9825
2085.270836 0.9830 0.9835 0.9840 0.9849 0.9859
2089.621195 0.9860 0.9860 0.9874 0.9889 0.9895
2093.971554 0.9900 0.9905 0.9910 0.9910 0.9910
2098.321912 0.9910 0.9910 0.9910 0.9910 0.9919
2102.672271 0.9929 0.9934 0.9940 0.9940 0.9940
2107.022630 0.9944 0.9949 0.9946 0.9941 0.9944
2111.372989 0.9949 0.9950 0.9950 0.9959 0.9969
2115.723347 0.9970 0.9970 0.9974 0.9979 0.9980
2120.073706 0.9980 0.9989 0.9999 1.0000 1.0000
2124.424065 1.0000 1.0000 1.0000 1.0000 1.0000
2128.774424 1.0000 1.0000 1.0000 1.0000 1.0000
2133.124782 1.0000 1.0000 0.9991 0.9981 0.9980
2137.475141 0.9980 0.9980 0.9980 0.9980 0.9980
2141.825500 0.9980 0.9980 0.9980 0.9980 0.9980
2146.175858 0.9980 0.9967 0.9952 0.9946 0.9941
2150.526217 0.9940 0.9940 0.9940 0.9940 0.9940
2154.876576 0.9940 0.9940 0.9940 0.9940 0.9940
2159.226935 0.9940 0.9940 0.9944 0.9949 0.9958
2163.577293 0.9968 0.9974 0.9979 0.9988 0.9998
2167.927652 1.0000 1.0000 1.0000 1.0000 1.0000
2172.278011 1.0000 0.9992 0.9982 0.9976 0.9971
2176.628370 0.9962 0.9952 0.9946 0.9941 0.9940
2180.978728 0.9940 0.9940 0.9940 0.9940 0.9940
2185.329087 0.9940 0.9940 0.9940 0.9940 0.9944
2189.679446 0.9949 0.9958 0.9968 0.9970 0.9970
2194.029805 0.9974 0.9979 0.9980 0.9980 0.9980
2198.380163 0.9980 0.9988 0.9998 1.0000 1.0000
2202.730522 1.0000 1.0000 1.0000 1.0000 1.0000
2207.080881 1.0000 1.0000 1.0000 1.0000 1.0000
2211.431240 1.0000 1.0000 1.0000 1.0000 1.0000
2215.781598 1.0000 1.0000 1.0000 1.0000 1.0000
2220.131957 0.9992 0.9982 0.9980 0.9980 0.9980
2224.482316 0.9980 0.9980 0.9980 0.9980 0.9980
2228.832675 0.9980 0.9980 0.9976 0.9971 0.9959
2233.183033 0.9944 0.9936 0.9931 0.9930 0.9930
2237.533392 0.9930 0.9930 0.9922 0.9913 0.9906
2241.883751 0.9901 0.9900 0.9900 0.9896 0.9891
2246.234110 0.9890 0.9890 0.9890 0.9890 0.9883
2250.584468 0.9873 0.9870 0.9870 0.9870 0.9870
2254.934827 0.9870 0.9870 0.9870 0.9870 0.9870
2259.285186 0.9870 0.9870 0.9870 0.9870 0.9870
2263.635545 0.9870 0.9870 0.9866 0.9861 0.9860
2267.985903 0.9860 0.9860 0.9860 0.9860 0.9860
2272.336262 0.9864 0.9869 0.9870 0.9870 0.9870
2276.686621 0.9870 0.9870 0.9870 0.9866 0.9861
2281.036980 0.9860 0.9860 0.9860 0.9860 0.9860
2285.387338 0.9860 0.9860 0.9860 0.9860 0.9860
2289.737697 0.9864 0.9869 0.9877 0.9887 0.9893
2294.088056 0.9898 0.9903 0.9909 0.9910 0.9910
2298.438415 0.9910 0.9910 0.9910 0.9910 0.9917
2302.788773 0.9927 0.9930 0.9930 0.9930 0.9930
2307.139132 0.9930 0.9930 0.9930 0.9930 0.9930
2311.489491 0.9930 0.9930 0.9930 0.9923 0.9913
2315.839850 0.9907 0.9902 0.9897 0.9892 0.9890
2320.190208 0.9890 0.9883 0.9873 0.9867 0.9862
2324.540567 0.9853 0.9843 0.9840 0.9840 0.9840
2328.890926 0.9840 0.9847 0.9857 0.9860 0.9860
2333.241285 0.9853 0.9843 0.9840 0.9840 0.9840
2337.591643 0.9840 0.9840 0.9840 0.9840 0.9840
2341.942002 0.9840 0.9840 0.9840 0.9840 0.9840
2346.292361 0.9840 0.9840 0.9840 0.9840 0.9840
2350.642720 0.9840 0.9840 0.9840 0.9840 0.9840
2354.993078 0.9840 0.9840 0.9840 0.9840 0.9840
2359.343437 0.9840 0.9840 0.9840 0.9840 0.9840
2363.693796 0.9840 0.9840 0.9840 0.9846 0.9856
2368.044155 0.9860 0.9860 0.9860 0.9860 0.9860
2372.394513 0.9860 0.9860 0.9860 0.9860 0.9860
2376.744872 0.9854 0.9844 0.9840 0.9840 0.9837
2381.095231 0.9832 0.9815 0.9790 0.9774 0.9764
2385.445590 0.9760 0.9760 0.9760 0.9760 0.9760
2389.795948 0.9760 0.9760 0.9760 0.9760 0.9760
2394.146307 0.9760 0.9760 0.9760 0.9760 0.9760
2398.496666 0.9760 0.9760 0.9760 0.9760 0.9760
2402.847025 0.9760 0.9760 0.9766 0.9776 0.9774
2407.197383 0.9764 0.9760 0.9760 0.9760 0.9760
2411.547742 0.9757 0.9752 0.9750 0.9750 0.9750
2415.898101 0.9750 0.9747 0.9742 0.9740 0.9740
2420.248460 0.9734 0.9724 0.9717 0.9712 0.9704
2424.598818 0.9694 0.9690 0.9690 0.9690 0.9690
2428.949177 0.9690 0.9690 0.9690 0.9690 0.9690
2433.299536 0.9690 0.9690 0.9690 0.9690 0.9690
2437.649895 0.9687 0.9682 0.9680 0.9680 0.9677
2442.000253 0.9672 0.9670 0.9670 0.9665 0.9655
2446.350612 0.9647 0.9642 0.9640 0.9640 0.9637
2450.700971 0.9632 0.9622 0.9607 0.9600 0.9600
2455.051330 0.9592 0.9577 0.9570 0.9570 0.9570
2459.401688 0.9570 0.9567 0.9562 0.9560 0.9560
2463.752047 0.9555 0.9545 0.9540 0.9540 0.9540
2468.102406 0.9540 0.9537 0.9532 0.9533 0.9538
2472.452765 0.9540 0.9540 0.9537 0.9532 0.9530
2476.803123 0.9530 0.9530 0.9530 0.9527 0.9522
2481.153482 0.9520 0.9520 0.9520 0.9520 0.9520
2485.503841 0.9520 0.9515 0.9505 0.9500 0.9500
2489.854200 0.9497 0.9492 0.9487 0.9482 0.9475
2494.204558 0.9465 0.9460 0.9460 0.9457 0.9453
2498.554917 0.9450 0.9450 0.9450 0.9450 0.9445
2502.905276 0.9435 0.9428 0.9423 0.9420 0.9420
2507.255635 0.9420 0.9420 0.9420 0.9420 0.9420
2511.605993 0.9420 0.9418 0.9413 0.9410 0.9410
2515.956352 0.9410 0.9410 0.9410 0.9410 0.9410
2520.306711 0.9410 0.9403 0.9388 0.9378 0.9373
2524.657070 0.9365 0.9355 0.9350 0.9350 0.9348
2529.007428 0.9343 0.9338 0.9333 0.9325 0.9315
2533.357787 0.9310 0.9310 0.9308 0.9303 0.9295
2537.708146 0.9285 0.9280 0.9280 0.9278 0.9273
2542.058505 0.9268 0.9263 0.9255 0.9245 0.9240
2546.408863 0.9240 0.9240 0.9240 0.9238 0.9233
2550.759222 0.9230 0.9230 0.9228 0.9223 0.9216
2555.109581 0.9206 0.9198 0.9193 0.9181 0.9161
2559.459940 0.9146 0.9136 0.9128 0.9123 0.9118
2563.810298 0.9113 0.9103 0.9089 0.9074 0.9059
2568.160657 0.9050 0.9050 0.9046 0.9036 0.9026
2572.511016 0.9016 0.9010 0.9010 0.9008 0.9003
2576.861375 0.9000 0.9000 0.9000 0.9000 0.9002
2581.211733 0.9007 0.9010 0.9010 0.9016 0.9031
2585.562092 0.9040 0.9040 0.9042 0.9047 0.9050
2589.912451 0.9050 0.9050 0.9050 0.9050 0.9050
2594.262810 0.9050 0.9050 0.9050 0.9050 0.9050
2598.613168 0.9050 0.9048 0.9043 0.9038 0.9033
2602.963527 0.9026 0.9016 0.9010 0.9010 0.9010
2607.313886 0.9010 0.9008 0.9003 0.8996 0.8986
2611.664245 0.8978 0.8973 0.8968 0.8963 0.8960
2616.014603 0.8960 0.8960 0.8960 0.8956 0.8946
2620.364962 0.8940 0.8940 0.8938 0.8933 0.8930
2624.715321 0.8930 0.8928 0.8923 0.8920 0.8920
2629.065680 0.8916 0.8906 0.8900 0.8900 0.8898
2633.416038 0.8893 0.8890 0.8890 0.8885 0.8870
2637.766397 0.8858 0.8853 0.8846 0.8836 0.8827
2642.116756 0.8817 0.8807 0.8796 0.8788 0.8783
2646.467115 0.8778 0.8773 0.8766 0.8756 0.8750
2650.817473 0.8750 0.8745 0.8730 0.8720 0.8720
2655.167832 0.8718 0.8713 0.8710 0.8710 0.8710
2659.518191 0.8710 0.8710 0.8710 0.8710 0.8710
2663.868550 0.8710 0.8710 0.8710 0.8710 0.8710
2668.218908 0.8710 0.8708 0.8703 0.8700 0.8700
2672.569267 0.8700 0.8700 0.8697 0.8687 0.8680
2676.919626 0.8680 0.8680 0.8680 0.8678 0.8673
2681.269985 0.8665 0.8650 0.8638 0.8633 0.8628
2685.620343 0.8623 0.8617 0.8607 0.8598 0.8593
2689.970702 0.8587 0.8577 0.8567 0.8557 0.8547
2694.321061 0.8537 0.8529 0.8523 0.8518 0.8513
2698.671420 0.8507 0.8497 0.8473 0.8419 0.8370
2703.021778 0.8335 0.8301 0.8271 0.8246 0.8231
2707.372137 0.8214 0.8194 0.8172 0.8142 0.8099
2711.722496 0.8024 0.7963 0.7938 0.7866 0.7681
2716.072855 0.7544 0.7524 0.7490 0.7420 0.7369
2720.423213 0.7364 0.7361 0.7366 0.7378 0.7408
2724.773572 0.7430 0.7430 0.7437 0.7462 0.7494
2729.123931 0.7549 0.7599 0.7634 0.7665 0.7685
2733.474290 0.7701 0.7706 0.7710 0.7710 0.7709
2737.824648 0.7704 0.7699 0.7694 0.7686 0.7671
2742.175007 0.7655 0.7635 0.7616 0.7601 0.7589
2746.525366 0.7584 0.7576 0.7561 0.7546 0.7531
2750.875725 0.7517 0.7507 0.7496 0.7481 0.7465
2755.226083 0.7445 0.7430 0.7430 0.7428 0.7418
2759.576442 0.7409 0.7404 0.7397 0.7382 0.7365
2763.926801 0.7345 0.7325 0.7305 0.7290 0.7290
2768.277160 0.7286 0.7271 0.7258 0.7248 0.7238
2772.627518 0.7228 0.7214 0.7189 0.7166 0.7146
2776.977877 0.7128 0.7118 0.7106 0.7086 0.7065
2781.328236 0.7040 0.7014 0.6984 0.6956 0.6936
2785.678595 0.6919 0.6914 0.6906 0.6886 0.6858
2790.028953 0.6804 0.6744 0.6670 0.6597 0.6532
2794.379312 0.6472 0.6432 0.6395 0.6370 0.6347
2798.729671 0.6332 0.6299 0.6188 0.6084 0.6004
2803.080030 0.5927 0.5862 0.5802 0.5762 0.5723
2807.430388 0.5688 0.5652 0.5612 0.5575 0.5550
2811.780747 0.5525 0.5495 0.5459 0.5399 0.5349
2816.131106 0.5344 0.5338 0.5328 0.5313 0.5279
2820.481465 0.5241 0.5191 0.5140 0.5085 0.5028
2824.831823 0.4958 0.4893 0.4853 0.4815 0.4785
2829.182182 0.4744 0.4649 0.4560 0.4500 0.4442
2833.532541 0.4392 0.4345 0.4309 0.4277 0.4257
2837.882900 0.4232 0.4188 0.4139 0.4069 0.3994
2842.233258 0.3894 0.3799 0.3729 0.3662 0.3612
2846.583617 0.3551 0.3421 0.3288 0.3139 0.2978
2850.933976 0.2754 0.2543 0.2422 0.2312 0.2257
2855.284335 0.2196 0.2101 0.1998 0.1848 0.1684
2859.634693 0.1429 0.1204 0.1159 0.1114 0.1069
2863.985052 0.1023 0.0968 0.0912 0.0852 0.0786
2868.335411 0.0671 0.0552 0.0406 0.0279 0.0274
2872.685770 0.0271 0.0276 0.0282 0.0297 0.0313
2877.036128 0.0332 0.0360 0.0440 0.0521 0.0610
2881.386487 0.0696 0.0746 0.0794 0.0834 0.0872
2885.736846 0.0892 0.0911 0.0916 0.0919 0.0914
2890.087205 0.0909 0.0904 0.0900 0.0900 0.0899
2894.437563 0.0889 0.0880 0.0880 0.0880 0.0880
2898.787922 0.0880 0.0875 0.0870 0.0870 0.0866
2903.138281 0.0827 0.0784 0.0708 0.0637 0.0607
2907.488640 0.0578 0.0553 0.0529 0.0519 0.0510
2911.838998 0.0510 0.0510 0.0510 0.0510 0.0510
2916.189357 0.0510 0.0505 0.0500 0.0495 0.0489
2920.539716 0.0474 0.0459 0.0444 0.0429 0.0414
2924.890075 0.0400 0.0395 0.0390 0.0390 0.0390
2929.240433 0.0390 0.0390 0.0395 0.0401 0.0411
2933.590792 0.0420 0.0420 0.0420 0.0425 0.0431
2937.941151 0.0441 0.0450 0.0450 0.0449 0.0439
2942.291510 0.0430 0.0425 0.0419 0.0409 0.0400
2946.641868 0.0395 0.0387 0.0332 0.0278 0.0233
2950.992227 0.0188 0.0153 0.0119 0.0104 0.0090
2955.342586 0.0090 0.0090 0.0090 0.0090 0.0095
2959.692945 0.0100 0.0100 0.0100 0.0110 0.0120
2964.043303 0.0125 0.0130 0.0140 0.0150 0.0160
2968.393662 0.0170 0.0185 0.0201 0.0226 0.0251
2972.744021 0.0301 0.0350 0.0370 0.0391 0.0421
2977.094380 0.0452 0.0517 0.0587 0.0867 0.1143
2981.444738 0.1293 0.1442 0.1552 0.1661 0.1736
2985.795097 0.1815 0.2254 0.2690 0.2750 0.2810
2990.145456 0.2835 0.2860 0.3696 0.4522 0.4642
2994.495815 0.4761 0.4826 0.4891 0.4996 0.5101
2998.846173 0.5340 0.5580 0.5859 0.6139 0.6289
3003.196532 0.6439 0.6475 0.6510 0.6559 0.6609
3007.546891 0.6684 0.6759 0.6805 0.6850 0.6920
3011.897250 0.6990 0.7059 0.7129 0.7194 0.7259
3016.247608 0.7275 0.7290 0.7364 0.7438 0.7513
3020.597967 0.7588 0.7639 0.7689 0.7700 0.7710
3024.948326 0.7739 0.7769 0.7775 0.7780 0.7809
3029.298685 0.7839 0.7845 0.7850 0.7869 0.7889
3033.649043 0.7905 0.7919 0.7925 0.7930 0.7930
3037.999402 0.7930 0.7940 0.7950 0.7950 0.7950
3042.349761 0.7950 0.7950 0.7950 0.7950 0.7950
3046.700120 0.7950 0.7950 0.7950 0.7950 0.7950
3051.050478 0.7950 0.7950 0.7941 0.7931 0.7930
3055.400837 0.7930 0.7930 0.7930 0.7930 0.7930
3059.751196 0.7916 0.7901 0.7895 0.7890 0.7885
3064.101555 0.7880 0.7871 0.7861 0.7855 0.7850
3068.451913 0.7845 0.7840 0.7826 0.7811 0.7792
3072.802272 0.7772 0.7761 0.7751 0.7745 0.7740
3077.152631 0.7740 0.7740 0.7722 0.7701 0.7677
3081.502990 0.7652 0.7641 0.7631 0.7612 0.7592
3085.853348 0.7585 0.7580 0.7571 0.7561 0.7537
3090.203707 0.7512 0.7483 0.7453 0.7432 0.7412
3094.554066 0.7406 0.7401 0.7400 0.7400 0.7382
3098.904425 0.7362 0.7333 0.7303 0.7277 0.7253
3103.254783 0.7219 0.7184 0.7162 0.7142 0.7127
3107.605142 0.7112 0.7101 0.7091 0.7081 0.7071
3111.955501 0.7030 0.6986 0.6953 0.6923 0.6916
3116.305860 0.6911 0.6901 0.6891 0.6868 0.6843
3120.656218 0.6805 0.6765 0.6712 0.6657 0.6633
3125.006577 0.6613 0.6601 0.6591 0.6586 0.6581
3129.356936 0.6550 0.6515 0.6475 0.6435 0.6404
3133.707295 0.6374 0.6353 0.6333 0.6321 0.6311
3138.057653 0.6284 0.6254 0.6220 0.6185 0.6133
3142.408012 0.6078 0.6053 0.6033 0.6026 0.6021
3146.758371 0.6003 0.5983 0.5955 0.5924 0.5899
3151.108730 0.5874 0.5827 0.5777 0.5749 0.5724
3155.459088 0.5707 0.5692 0.5686 0.5681 0.5651
3159.809447 0.5616 0.5568 0.5518 0.5473 0.5428
3164.159806 0.5391 0.5356 0.5329 0.5304 0.5275
3168.510165 0.5245 0.5211 0.5176 0.5141 0.5106
3172.860523 0.5067 0.5027 0.4983 0.4938 0.4914
3177.210882 0.4894 0.4861 0.4826 0.4796 0.4766
3181.561241 0.4732 0.4697 0.4674 0.4654 0.4617
3185.911600 0.4577 0.4566 0.4561 0.4531 0.4497
3190.261958 0.4474 0.4454 0.4402 0.4342 0.4286
3194.612317 0.4231 0.4212 0.4202 0.4168 0.4128
3198.962676 0.4084 0.4039 0.4002 0.3967 0.3932
3203.313035 0.3897 0.3858 0.3818 0.3802 0.3792
3207.663393 0.3758 0.3718 0.3678 0.3638 0.3603
3212.013752 0.3568 0.3540 0.3515 0.3467 0.3412
3216.364111 0.3392 0.3382 0.3353 0.3317 0.3286
3220.714470 0.3256 0.3207 0.3152 0.3085 0.3016
3225.064828 0.2981 0.2956 0.2927 0.2897 0.2855
3229.415187 0.2810 0.2766 0.2721 0.2680 0.2640
3233.765546 0.2611 0.2586 0.2569 0.2553 0.2531
3238.115905 0.2506 0.2477 0.2447 0.2398 0.2343
3242.466263 0.2311 0.2286 0.2254 0.2219 0.2184
3246.816622 0.2149 0.2114 0.2079 0.2051 0.2026
3251.166981 0.1998 0.1968 0.1945 0.1925 0.1916
3255.517340 0.1911 0.1888 0.1858 0.1835 0.1815
3259.867698 0.1777 0.1732 0.1705 0.1685 0.1658
3264.218057 0.1628 0.1620 0.1620 0.1595 0.1560
3268.568416 0.1532 0.1507 0.1478 0.1448 0.1422
3272.918775 0.1397 0.1383 0.1373 0.1355 0.1335
3277.269133 0.1308 0.1278 0.1248 0.1218 0.1199
3281.619492 0.1184 0.1173 0.1163 0.1153 0.1143
3285.969851 0.1133 0.1123 0.1099 0.1068 0.1046
3290.320210 0.1026 0.1009 0.0994 0.0990 0.0990
3294.670568 0.0986 0.0981 0.0969 0.0954 0.0947
3299.020927 0.0942 0.0916 0.0881 0.0860 0.0845
3303.371286 0.0830 0.0815 0.0810 0.0810 0.0806
3307.721645 0.0802 0.0790 0.0775 0.0770 0.0770
3312.072003 0.0763 0.0753 0.0750 0.0750 0.0743
3316.422362 0.0733 0.0723 0.0713 0.0710 0.0710
3320.772721 0.0700 0.0685 0.0680 0.0680 0.0673
3325.123080 0.0663 0.0660 0.0660 0.0657 0.0652
3329.473438 0.0650 0.0650 0.0647 0.0642 0.0640
3333.823797 0.0640 0.0640 0.0640 0.0640 0.0640
3338.174156 0.0640 0.0640 0.0640 0.0640 0.0643
3342.524515 0.0648 0.0650 0.0650 0.0650 0.0650
3346.874873 0.0650 0.0650 0.0650 0.0650 0.0653
3351.225232 0.0658 0.0660 0.0660 0.0666 0.0676
3355.575591 0.0680 0.0680 0.0683 0.0688 0.0690
3359.925950 0.0690 0.0696 0.0706 0.0713 0.0718
3364.276308 0.0720 0.0720 0.0723 0.0728 0.0739
3368.626667 0.0754 0.0763 0.0768 0.0776 0.0786
3372.977026 0.0790 0.0790 0.0793 0.0798 0.0800
3377.327385 0.0800 0.0803 0.0808 0.0816 0.0826
3381.677743 0.0839 0.0854 0.0863 0.0868 0.0873
3386.028102 0.0878 0.0886 0.0896 0.0903 0.0908
3390.378461 0.0925 0.0950 0.0969 0.0984 0.0990
3394.728820 0.0990 0.1002 0.1022 0.1036 0.1046
3399.079178 0.1062 0.1082 0.1099 0.1114 0.1126
3403.429537 0.1136 0.1146 0.1156 0.1166 0.1176
3407.779896 0.1186 0.1196 0.1206 0.1216 0.1229
3412.130255 0.1244 0.1256 0.1266 0.1282 0.1302
3416.480613 0.1313 0.1318 0.1329 0.1344 0.1350
3420.830972 0.1350 0.1361 0.1381 0.1393 0.1398
3425.181331 0.1411 0.1431 0.1449 0.1464 0.1487
3429.531690 0.1517 0.1536 0.1546 0.1559 0.1574
3433.882048 0.1583 0.1588 0.1598 0.1613 0.1628
3438.232407 0.1643 0.1661 0.1681 0.1704 0.1729
3442.582766 0.1751 0.1771 0.1788 0.1803 0.1821
3446.933125 0.1841 0.1858 0.1873 0.1883 0.1888
3451.283483 0.1901 0.1921 0.1944 0.1969 0.1983
3455.633842 0.1988 0.2001 0.2021 0.2046 0.2076
3459.984201 0.2111 0.2151 0.2181 0.2201 0.2213
3464.334560 0.2218 0.2231 0.2251 0.2271 0.2291
3468.684918 0.2319 0.2354 0.2386 0.2416 0.2443
3473.035277 0.2468 0.2488 0.2503 0.2518 0.2533
3477.385636 0.2545 0.2555 0.2570 0.2590 0.2618
3481.735995 0.2653 0.2699 0.2754 0.2785 0.2795
3486.086353 0.2805 0.2815 0.2853 0.2918 0.2978
3490.436712 0.3033 0.3075 0.3105 0.3138 0.3173
3494.787071 0.3195 0.3205 0.3225 0.3255 0.3293
3499.137430 0.3338 0.3385 0.3435 0.3475 0.3505
3503.487788 0.3532 0.3557 0.3577 0.3592 0.3615
3507.838147 0.3645 0.3675 0.3705 0.3747 0.3802
3512.188506 0.3861 0.3926 0.3965 0.3975 0.3997
3516.538865 0.4032 0.4074 0.4124 0.4177 0.4232
3520.889223 0.4282 0.4327 0.4369 0.4409 0.4437
3525.239582 0.4452 0.4474 0.4504 0.4550 0.4615
3529.589941 0.4685 0.4760 0.4823 0.4874 0.4924
3533.940300 0.4974 0.5005 0.5015 0.5029 0.5049
3538.290658 0.5083 0.5133 0.5195 0.5269 0.5376
3542.641017 0.5521 0.5609 0.5629 0.5660 0.5705
3546.991376 0.5759 0.5824 0.5893 0.5969 0.6037
3551.341735 0.6097 0.6146 0.6181 0.6225 0.6280
3555.692093 0.6314 0.6324 0.6359 0.6424 0.6480
3560.042452 0.6525 0.6574 0.6629 0.6684 0.6739
3564.392811 0.6783 0.6813 0.6847 0.6887 0.6930
3568.743170 0.6975 0.7042 0.7136 0.7210 0.7254
3573.093528 0.7306 0.7366 0.7406 0.7421 0.7447
3577.443887 0.7487 0.7539 0.7609 0.7675 0.7735
3581.794246 0.7789 0.7833 0.7881 0.7931 0.7971
3586.144605 0.7996 0.8029 0.8074 0.8112 0.8142
3590.494963 0.8179 0.8223 0.8258 0.8278 0.8298
3594.845322 0.8318 0.8332 0.8337 0.8346 0.8361
3599.195681 0.8378 0.8398 0.8412 0.8417 0.8420
3603.546040 0.8420 0.8420 0.8420 0.8418 0.8413
3607.896398 0.8408 0.8403 0.8396 0.8386 0.8372
3612.246757 0.8352 0.8332 0.8312 0.8290 0.8266
3616.597116 0.8237 0.8202 0.8165 0.8125 0.8073
3620.947475 0.8003 0.7902 0.7753 0.7624 0.7529
3625.297833 0.7438 0.7353 0.7263 0.7163 0.7065
3629.648192 0.6970 0.6868 0.6753 0.6644 0.6544
3633.998551 0.6466 0.6426 0.6384 0.6338 0.6290
3638.348910 0.6235 0.6193 0.6173 0.6156 0.6146
3642.699268 0.6144 0.6154 0.6162 0.6167 0.6182
3647.049627 0.6217 0.6268 0.6348 0.6466 0.6655
3651.399986 0.6835 0.6994 0.7170 0.7377 0.7558
3655.750345 0.7692 0.7817 0.7922 0.8064 0.8279
3660.100703 0.8489 0.8688 0.8845 0.8920 0.8977
3664.451062 0.8997 0.9015 0.9030 0.9042 0.9047
3668.801421 0.9061 0.9096 0.9122 0.9127 0.9133
3673.151780 0.9143 0.9150 0.9150 0.9150 0.9150
3677.502138 0.9147 0.9137 0.9128 0.9123 0.9120
3681.852497 0.9120 0.9120 0.9120 0.9122 0.9127
3686.202856 0.9133 0.9143 0.9156 0.9176 0.9216
3690.553215 0.9295 0.9367 0.9422 0.9472 0.9512
3694.903573 0.9545 0.9560 0.9573 0.9583 0.9602
3699.253932 0.9642 0.9677 0.9702 0.9724 0.9739
3703.604291 0.9756 0.9776 0.9794 0.9809 0.9820
3707.954650 0.9820 0.9826 0.9846 0.9861 0.9866
3712.305008 0.9873 0.9883 0.9891 0.9896 0.9900
3716.655367 0.9900 0.9901 0.9906 0.9910 0.9910
3721.005726 0.9913 0.9923 0.9931 0.9936 0.9940
3725.356085 0.9940 0.9941 0.9946 0.9953 0.9963
3729.706443 0.9970 0.9970 0.9971 0.9976 0.9983
3734.056802 0.9993 1.0001 1.0006 1.0010 1.0010
3738.407161 1.0010 1.0010 1.0010 1.0010 1.0009
3742.757520 1.0004 1.0000 1.0000 0.9997 0.9987
3747.107878 0.9980 0.9980 0.9980 0.9980 0.9979
3751.458237 0.9974 0.9970 0.9970 0.9970 0.9970
3755.808596 0.9970 0.9970 0.9968 0.9958 0.9950
3760.158955 0.9950 0.9950 0.9950 0.9950 0.9950
3764.509313 0.9950 0.9950 0.9950 0.9950 0.9950
3768.859672 0.9950 0.9950 0.9950 0.9950 0.9950
3773.210031 0.9950 0.9950 0.9950 0.9950 0.9950
3777.560390 0.9950 0.9950 0.9950 0.9950 0.9950
3781.910748 0.9950 0.9950 0.9950 0.9950 0.9950
3786.261107 0.9950 0.9950 0.9950 0.9950 0.9950
3790.611466 0.9950 0.9950 0.9950 0.9950 0.9950
3794.961825 0.9950 0.9950 0.9950 0.9950 0.9950
##END=
