##TITLE=PROPANE, 1,2-DICHLORO-
##JCAMP-DX=4.24
##DATA TYPE=INFRARED SPECTRUM
##CLASS=COBLENTZ III
##ORIGIN=DOW CHEMICAL COMPANY
##OWNER=COBLENTZ SOCIETY
Collection (C) 2018 copyright by the U.S. Secretary of Commerce
on behalf of the United States of America. All rights reserved.
##DATE=1970/05/22
##NAMES=1,2-dichloropropane
##CAS REGISTRY NO=78-87-5
##MOLFORM=C3 H6 Cl2
##BP=96 C
##SOURCE REFERENCE=COBLENTZ NO. 10012
##$NIST SOURCE=COBLENTZ
##$NIST IMAGE=cob10012
##SPECTROMETER/DATA SYSTEM=DOW KBr FOREPRISM-GRATING
##INSTRUMENT PARAMETERS=BLAZED AT 3.5, 12.0, 20.0 MICRON, CHANGED AT 5.0, 7.5, 14.9 MICRON
##STATE=SOLUTION (10% IN CCl4 FOR 3800-1333, AND 10% IN CS2 FOR 1333-450 CM^-^1)
##PATH LENGTH=0.010, 0.011 CM
$$SPECTRAL CONTAMINATION DUE TO CS2 AROUND 1550, 860 CM^-^1
##SAMPLING PROCEDURE=TRANSMISSION
##RESOLUTION=4
##DATA PROCESSING=DIGITIZED BY NIST FROM HARD COPY (FROM TWO SEGMENTS)
##XUNITS=1/CM
##YUNITS=TRANSMITTANCE
##XFACTOR=1.000000
##YFACTOR=1
##DELTAX=0.868622
##FIRSTX=389.577
##LASTX=3798.05
##FIRSTY=0.601
##MAXX=3798.05
##MINX=389.577
##MAXY=1.01
##MINY=0.078
##NPOINTS=3925
##XYDATA=(X++(Y..Y))
389.577000 0.6010 0.6030 0.6030 0.6040 0.6040
393.920110 0.6050 0.6050 0.6050 0.6050 0.6050
398.263221 0.6050 0.6070 0.6070 0.6100 0.6140
402.606331 0.6180 0.6200 0.6250 0.6300 0.6310
406.949442 0.6390 0.6460 0.6530 0.6600 0.6670
411.292552 0.6919 0.7030 0.7090 0.7200 0.7260
415.635663 0.7370 0.7440 0.7510 0.7600 0.7690
419.978773 0.7780 0.7890 0.7980 0.8070 0.8150
424.321884 0.8270 0.8310 0.8390 0.8460 0.8510
428.664994 0.8540 0.8600 0.8640 0.8690 0.8750
433.008105 0.8770 0.8800 0.8830 0.8880 0.8910
437.351215 0.8920 0.8950 0.8980 0.9000 0.9030
441.694326 0.9070 0.9100 0.9110 0.9130 0.9150
446.037436 0.9180 0.9210 0.9220 0.9230 0.9250
450.380546 0.9290 0.9300 0.9320 0.9320 0.9330
454.723657 0.9340 0.9360 0.9370 0.9380 0.9410
459.066767 0.9420 0.9440 0.9450 0.9470 0.9480
463.409878 0.9490 0.9520 0.9520 0.9530 0.9530
467.752988 0.9530 0.9550 0.9570 0.9590 0.9610
472.096099 0.9630 0.9630 0.9640 0.9670 0.9680
476.439209 0.9700 0.9710 0.9720 0.9750 0.9750
480.782320 0.9750 0.9760 0.9760 0.9760 0.9780
485.125430 0.9780 0.9790 0.9800 0.9800 0.9800
489.468541 0.9820 0.9820 0.9820 0.9830 0.9830
493.811651 0.9850 0.9850 0.9850 0.9860 0.9860
498.154762 0.9860 0.9870 0.9870 0.9860 0.9860
502.497872 0.9860 0.9850 0.9850 0.9850 0.9830
506.840982 0.9830 0.9830 0.9830 0.9830 0.9820
511.184093 0.9800 0.9790 0.9790 0.9780 0.9780
515.527203 0.9760 0.9750 0.9750 0.9740 0.9740
519.870314 0.9700 0.9640 0.9610 0.9570 0.9560
524.213424 0.9520 0.9440 0.9340 0.9230 0.9101
528.556535 0.8980 0.8910 0.8770 0.8720 0.8720
532.899645 0.8830 0.9059 0.9269 0.9519 0.9659
537.242756 0.9780 0.9860 0.9900 0.9940 0.9970
541.585866 0.9980 1.0000 1.0000 1.0010 1.0010
545.928977 1.0020 1.0040 1.0050 1.0050 1.0060
550.272087 1.0080 1.0080 1.0080 1.0060 1.0060
554.615198 1.0080 1.0080 1.0080 1.0080 1.0080
558.958308 1.0080 1.0090 1.0080 1.0090 1.0090
563.301418 1.0090 1.0090 1.0090 1.0090 1.0090
567.644529 1.0090 1.0090 1.0090 1.0090 1.0100
571.987639 1.0100 1.0090 1.0090 1.0090 1.0090
576.330750 1.0090 1.0090 1.0090 1.0090 1.0090
580.673860 1.0080 1.0080 1.0060 1.0060 1.0060
585.016971 1.0060 1.0060 1.0060 1.0060 1.0050
589.360081 1.0050 1.0040 1.0020 1.0020 1.0010
593.703192 1.0010 1.0000 1.0000 0.9980 0.9980
598.046302 0.9970 0.9950 0.9950 0.9930 0.9890
602.389413 0.9860 0.9830 0.9820 0.9790 0.9780
606.732523 0.9760 0.9710 0.9670 0.9640 0.9530
611.075634 0.9420 0.9221 0.9140 0.9001 0.8751
615.418744 0.8600 0.8360 0.8170 0.8070 0.7920
619.761854 0.7820 0.7670 0.7640 0.7630 0.7640
624.104965 0.7660 0.7660 0.7660 0.7630 0.7620
628.448075 0.7600 0.7600 0.7750 0.7969 0.8149
632.791186 0.8320 0.8460 0.8890 0.8950 0.9020
637.134296 0.9030 0.9040 0.9040 0.9030 0.9000
641.477407 0.8980 0.8940 0.8910 0.8830 0.8770
645.820517 0.8700 0.8640 0.8570 0.8490 0.8361
650.163628 0.8260 0.8120 0.7970 0.7850 0.7710
654.506738 0.7540 0.7321 0.7111 0.6941 0.6771
658.849849 0.6530 0.6160 0.5660 0.4890 0.4321
663.192959 0.3771 0.3391 0.3121 0.2891 0.2691
667.536070 0.2410 0.2060 0.1560 0.0850 0.0780
671.879180 0.0780 0.0840 0.0970 0.1189 0.1569
676.222290 0.2261 0.2811 0.3380 0.3550 0.5009
680.565401 0.6298 0.6899 0.7429 0.7709 0.7919
684.908511 0.8270 0.8470 0.8660 0.8730 0.8880
689.251622 0.8910 0.8990 0.9100 0.9130 0.9170
693.594732 0.9190 0.9210 0.9220 0.9250 0.9260
697.937843 0.9290 0.9290 0.9300 0.9320 0.9330
702.280953 0.9330 0.9320 0.9320 0.9320 0.9320
706.624064 0.9330 0.9330 0.9330 0.9330 0.9340
710.967174 0.9340 0.9340 0.9340 0.9330 0.9320
715.310285 0.9300 0.9260 0.9250 0.9180 0.9110
719.653395 0.9060 0.8890 0.8700 0.8510 0.8360
723.996506 0.8220 0.7961 0.7671 0.7132 0.6612
728.339616 0.6050 0.5620 0.5580 0.5620 0.5660
732.682727 0.5720 0.5730 0.5730 0.5421 0.5061
737.025837 0.4630 0.4380 0.4110 0.3750 0.3380
741.368947 0.3260 0.3160 0.3150 0.3160 0.3359
745.712058 0.3611 0.4060 0.4780 0.5200 0.5400
750.055168 0.5510 0.5630 0.5740 0.5770 0.5760
754.398279 0.5771 0.6441 0.7070 0.7770 0.8310
758.741389 0.8490 0.8690 0.8830 0.8950 0.9060
763.084500 0.9100 0.9130 0.9210 0.9290 0.9370
767.427610 0.9470 0.9550 0.9590 0.9670 0.9750
771.770721 0.9760 0.9780 0.9790 0.9830 0.9860
776.113831 0.9870 0.9890 0.9900 0.9900 0.9900
780.456942 0.9910 0.9900 0.9900 0.9900 0.9900
784.800052 0.9900 0.9900 0.9900 0.9900 0.9910
789.143163 0.9910 0.9910 0.9930 0.9910 0.9930
793.486273 0.9930 0.9940 0.9940 0.9940 0.9950
797.829383 0.9940 0.9940 0.9970 0.9980 0.9980
802.172494 0.9980 1.0000 1.0000 1.0000 1.0000
806.515604 1.0000 1.0000 1.0000 1.0000 1.0010
810.858715 1.0010 1.0000 1.0000 1.0000 1.0000
815.201825 1.0000 1.0000 1.0000 1.0000 0.9980
819.544936 0.9980 0.9970 0.9970 0.9950 0.9930
823.888046 0.9910 0.9900 0.9890 0.9860 0.9850
828.231157 0.9830 0.9830 0.9830 0.9820 0.9800
832.574267 0.9790 0.9780 0.9760 0.9760 0.9720
836.917378 0.9710 0.9660 0.9630 0.9570 0.9530
841.260488 0.9440 0.9370 0.9340 0.9220 0.9140
845.603599 0.9040 0.8950 0.8890 0.8790 0.8700
849.946709 0.8570 0.8450 0.8360 0.8300 0.8240
854.289819 0.8190 0.8170 0.8150 0.8130 0.8120
858.632930 0.8110 0.8090 0.8090 0.8090 0.8110
862.976040 0.8110 0.8120 0.8150 0.8200 0.8260
867.319151 0.8320 0.8360 0.8430 0.8490 0.8530
871.662261 0.8550 0.8580 0.8570 0.8550 0.8530
876.005372 0.8510 0.8510 0.8530 0.8690 0.8810
880.348482 0.8910 0.8950 0.8990 0.9000 0.9000
884.691593 0.8980 0.8960 0.8980 0.9030 0.9130
889.034703 0.9180 0.9270 0.9330 0.9340 0.9340
893.377814 0.9340 0.9330 0.9320 0.9300 0.9250
897.720924 0.9180 0.9080 0.8990 0.8850 0.8651
902.064035 0.8410 0.8050 0.7790 0.7550 0.7210
906.407145 0.7130 0.7200 0.7439 0.7669 0.7929
910.750255 0.7940 0.7930 0.7820 0.7540 0.7240
915.093366 0.7240 0.8428 0.8879 0.9099 0.9269
919.436476 0.9330 0.9480 0.9550 0.9570 0.9600
923.779587 0.9610 0.9660 0.9710 0.9750 0.9780
928.122697 0.9790 0.9790 0.9820 0.9830 0.9850
932.465808 0.9850 0.9850 0.9860 0.9860 0.9860
936.808918 0.9860 0.9860 0.9850 0.9850 0.9850
941.152029 0.9830 0.9830 0.9830 0.9830 0.9830
945.495139 0.9830 0.9830 0.9830 0.9830 0.9830
949.838250 0.9850 0.9850 0.9830 0.9830 0.9820
954.181360 0.9820 0.9820 0.9800 0.9800 0.9820
958.524471 0.9820 0.9820 0.9830 0.9850 0.9850
962.867581 0.9850 0.9860 0.9860 0.9860 0.9860
967.210691 0.9860 0.9860 0.9860 0.9860 0.9860
971.553802 0.9850 0.9850 0.9850 0.9830 0.9830
975.896912 0.9800 0.9800 0.9790 0.9780 0.9780
980.240023 0.9760 0.9750 0.9710 0.9680 0.9660
984.583133 0.9630 0.9600 0.9570 0.9550 0.9530
988.926244 0.9490 0.9420 0.9300 0.9220 0.9140
993.269354 0.9030 0.8800 0.8491 0.8121 0.7931
997.612465 0.7790 0.7730 0.7710 0.7690 0.7630
1001.955575 0.7560 0.7440 0.7360 0.7170 0.6971
1006.298686 0.6770 0.6560 0.6300 0.6050 0.5670
1010.641796 0.5230 0.4751 0.4321 0.3961 0.2983
1014.984907 0.2880 0.2880 0.3080 0.3460 0.3870
1019.328017 0.4439 0.6156 0.7058 0.7658 0.7889
1023.671127 0.8170 0.8490 0.8610 0.8730 0.8880
1028.014238 0.8920 0.8940 0.8980 0.9100 0.9150
1032.357348 0.9170 0.9180 0.9190 0.9220 0.9250
1036.700459 0.9300 0.9330 0.9370 0.9400 0.9420
1041.043569 0.9440 0.9450 0.9470 0.9470 0.9470
1045.386680 0.9470 0.9470 0.9470 0.9450 0.9440
1049.729790 0.9410 0.9380 0.9340 0.9290 0.9250
1054.072901 0.9190 0.9110 0.8980 0.8890 0.8790
1058.416011 0.8700 0.8530 0.8110 0.7740 0.7360
1062.759122 0.6941 0.6571 0.6410 0.6410 0.6520
1067.102232 0.6831 0.7400 0.7830 0.8280 0.8600
1071.445343 0.8730 0.8880 0.8940 0.9020 0.9110
1075.788453 0.9170 0.9250 0.9300 0.9320 0.9340
1080.131563 0.9360 0.9380 0.9400 0.9410 0.9410
1084.474674 0.9410 0.9410 0.9410 0.9420 0.9420
1088.817784 0.9420 0.9440 0.9450 0.9470 0.9470
1093.160895 0.9470 0.9470 0.9450 0.9440 0.9420
1097.504005 0.9410 0.9400 0.9400 0.9380 0.9330
1101.847116 0.9300 0.9260 0.9230 0.9180 0.9130
1106.190226 0.9060 0.8980 0.8890 0.8770 0.8621
1110.533337 0.8500 0.8340 0.8240 0.8260 0.8300
1114.876447 0.8470 0.8550 0.8690 0.8720 0.8720
1119.219558 0.8700 0.8610 0.8500 0.8410 0.8310
1123.562668 0.8310 0.8380 0.8540 0.8730 0.8919
1127.905779 0.9060 0.9150 0.9230 0.9320 0.9360
1132.248889 0.9410 0.9410 0.9420 0.9440 0.9450
1136.591999 0.9450 0.9450 0.9470 0.9470 0.9470
1140.935110 0.9480 0.9490 0.9490 0.9490 0.9530
1145.278220 0.9520 0.9530 0.9530 0.9530 0.9530
1149.621331 0.9530 0.9550 0.9550 0.9550 0.9550
1153.964441 0.9550 0.9530 0.9530 0.9530 0.9530
1158.307552 0.9530 0.9530 0.9530 0.9530 0.9480
1162.650662 0.9450 0.9400 0.9360 0.9330 0.9320
1166.993773 0.9250 0.9170 0.9060 0.8920 0.8800
1171.336883 0.8720 0.8690 0.8690 0.8690 0.8690
1175.679994 0.8690 0.8650 0.8610 0.8540 0.8500
1180.023104 0.8310 0.8090 0.7880 0.7620 0.7400
1184.366215 0.7031 0.6611 0.5513 0.4603 0.4191
1188.709325 0.3530 0.3380 0.3380 0.3600 0.4529
1193.052435 0.5139 0.6188 0.7098 0.7768 0.8308
1197.395546 0.8550 0.8750 0.8830 0.8890 0.9080
1201.738656 0.9140 0.9150 0.9170 0.9190 0.9210
1206.081767 0.9210 0.9210 0.9210 0.9190 0.9190
1210.424877 0.9180 0.9170 0.9170 0.9140 0.9140
1214.767988 0.9130 0.9130 0.9110 0.9070 0.9030
1219.111098 0.8960 0.8910 0.8800 0.8720 0.8620
1223.454209 0.8510 0.8320 0.8120 0.7930 0.7590
1227.797319 0.7131 0.6691 0.5802 0.4783 0.4292
1232.140430 0.3730 0.3732 0.5211 0.6300 0.7589
1236.483540 0.7930 0.8090 0.8160 0.8190 0.8190
1240.826651 0.8160 0.8110 0.8040 0.7960 0.7850
1245.169761 0.7750 0.7590 0.7480 0.7400 0.7370
1249.512871 0.7290 0.7250 0.7250 0.7290 0.7290
1253.855982 0.7280 0.7260 0.7240 0.7180 0.7160
1258.199092 0.7140 0.7140 0.7240 0.7370 0.7550
1262.542203 0.7700 0.7750 0.7780 0.7780 0.7750
1266.885313 0.7690 0.7590 0.7500 0.7430 0.7220
1271.228424 0.7060 0.6860 0.6670 0.6560 0.6500
1275.571534 0.6500 0.6540 0.6580 0.6580 0.6630
1279.914645 0.6760 0.7060 0.7409 0.7809 0.8129
1284.257755 0.8470 0.8640 0.8800 0.8910 0.8980
1288.600866 0.9030 0.9070 0.9130 0.9150 0.9180
1292.943976 0.9190 0.9210 0.9220 0.9220 0.9230
1297.287087 0.9250 0.9260 0.9320 0.9320 0.9330
1301.630197 0.9320 0.9320 0.9320 0.9320 0.9320
1305.973307 0.9320 0.9290 0.9270 0.9250 0.9250
1310.316418 0.9230 0.9210 0.9180 0.9150 0.9140
1314.659528 0.9110 0.9070 0.8960 0.8810 0.8601
1319.002639 0.8390 0.8170 0.7980 0.7880 0.7880
1323.345749 0.7900 0.7920 0.7930 0.7930 0.7940
1327.688860 0.7980 0.8170 0.8300 0.8410 0.8510
1332.031970 0.8650 0.8650 0.8640 0.8640 0.8650
1336.375081 0.8660 0.8690 0.8730 0.8750 0.8790
1340.718191 0.8760 0.8610 0.8530 0.8530 0.8570
1345.061302 0.8690 0.8870 0.8990 0.9030 0.9110
1349.404412 0.9130 0.9140 0.9150 0.9150 0.9140
1353.747523 0.9140 0.9130 0.9110 0.9110 0.9070
1358.090633 0.9040 0.9040 0.9020 0.9000 0.8990
1362.433744 0.8940 0.8910 0.8910 0.8910 0.8840
1366.776854 0.8790 0.8760 0.8700 0.8690 0.8580
1371.119964 0.8510 0.8430 0.8390 0.8320 0.8270
1375.463075 0.8150 0.8000 0.7860 0.7601 0.7321
1379.806185 0.7066 0.4110 0.4070 0.4070 0.3760
1384.149296 0.3161 0.3160 0.5205 0.6486 0.7407
1388.492406 0.7940 0.8190 0.8530 0.8660 0.8760
1392.835517 0.8790 0.8840 0.8890 0.8890 0.8910
1397.178627 0.8920 0.8940 0.8940 0.8950 0.8960
1401.521738 0.8960 0.8960 0.8960 0.8960 0.8960
1405.864848 0.8960 0.8960 0.8960 0.8960 0.8960
1410.207959 0.8950 0.8920 0.8920 0.8910 0.8890
1414.551069 0.8890 0.8840 0.8790 0.8760 0.8720
1418.894180 0.8700 0.8640 0.8570 0.8530 0.8500
1423.237290 0.8450 0.8390 0.8310 0.8190 0.8040
1427.580400 0.7940 0.7900 0.7710 0.7201 0.5884
1431.923511 0.5881 0.6710 0.7100 0.7320 0.7360
1436.266621 0.7360 0.7300 0.7100 0.6980 0.6830
1440.609732 0.6095 0.3680 0.3641 0.4420 0.5200
1444.952842 0.6289 0.6290 0.6150 0.5911 0.5810
1449.295953 0.5800 0.5910 0.5910 0.5860 0.5310
1453.639063 0.4760 0.4400 0.4110 0.3691 0.3112
1457.982174 0.3111 0.3361 0.3752 0.5001 0.6410
1462.325284 0.7370 0.7670 0.8000 0.8299 0.8430
1466.668395 0.8530 0.8600 0.8640 0.8680 0.8690
1471.011505 0.8720 0.8730 0.8750 0.8760 0.8760
1475.354616 0.8760 0.8760 0.8760 0.8760 0.8760
1479.697726 0.8760 0.8760 0.8760 0.8760 0.8760
1484.040836 0.8760 0.8750 0.8720 0.8690 0.8690
1488.383947 0.8650 0.8650 0.8620 0.8610 0.8570
1492.727057 0.8540 0.8530 0.8510 0.8500 0.8490
1497.070168 0.8430 0.8410 0.8390 0.8360 0.8320
1501.413278 0.8280 0.8200 0.8130 0.8110 0.8040
1505.756389 0.8000 0.7940 0.7930 0.7880 0.7810
1510.099499 0.7780 0.7730 0.7660 0.7590 0.7560
1514.442610 0.7560 0.7470 0.7430 0.7400 0.7320
1518.785720 0.7290 0.7250 0.7220 0.7160 0.7090
1523.128831 0.7070 0.7060 0.6970 0.6940 0.6900
1527.471941 0.6830 0.6800 0.6750 0.6690 0.6610
1531.815052 0.6560 0.6460 0.6440 0.6310 0.6270
1536.158162 0.6150 0.6030 0.5910 0.5820 0.5760
1540.501272 0.5590 0.5480 0.5360 0.5330 0.5250
1544.844383 0.5230 0.5190 0.5170 0.5160 0.5160
1549.187493 0.5160 0.5190 0.5230 0.5270 0.5320
1553.530604 0.5350 0.5380 0.5430 0.5500 0.5610
1557.873714 0.5650 0.5730 0.5780 0.5890 0.6000
1562.216825 0.6080 0.6150 0.6290 0.6330 0.6440
1566.559935 0.6520 0.6600 0.6650 0.6690 0.6730
1570.903046 0.6750 0.6770 0.6820 0.6830 0.6840
1575.246156 0.6860 0.6900 0.6900 0.6920 0.6940
1579.589267 0.6970 0.6970 0.7050 0.7100 0.7110
1583.932377 0.7170 0.7220 0.7260 0.7300 0.7400
1588.275488 0.7440 0.7550 0.7580 0.7690 0.7810
1592.618598 0.7900 0.7930 0.8040 0.8130 0.8230
1596.961708 0.8310 0.8390 0.8430 0.8530 0.8580
1601.304819 0.8680 0.8760 0.8850 0.8890 0.8920
1605.647929 0.8960 0.9000 0.9030 0.9060 0.9100
1609.991040 0.9130 0.9170 0.9230 0.9250 0.9270
1614.334150 0.9320 0.9320 0.9330 0.9360 0.9370
1618.677261 0.9380 0.9410 0.9420 0.9440 0.9450
1623.020371 0.9470 0.9470 0.9480 0.9480 0.9490
1627.363482 0.9490 0.9510 0.9530 0.9530 0.9550
1631.706592 0.9560 0.9570 0.9570 0.9570 0.9590
1636.049703 0.9590 0.9590 0.9570 0.9590 0.9590
1640.392813 0.9590 0.9590 0.9590 0.9590 0.9590
1644.735924 0.9600 0.9600 0.9600 0.9600 0.9600
1649.079034 0.9600 0.9600 0.9590 0.9600 0.9600
1653.422144 0.9600 0.9600 0.9610 0.9610 0.9610
1657.765255 0.9610 0.9610 0.9600 0.9600 0.9600
1662.108365 0.9630 0.9630 0.9630 0.9630 0.9640
1666.451476 0.9640 0.9640 0.9660 0.9660 0.9660
1670.794586 0.9660 0.9670 0.9670 0.9670 0.9670
1675.137697 0.9680 0.9680 0.9670 0.9670 0.9670
1679.480807 0.9680 0.9680 0.9700 0.9710 0.9710
1683.823918 0.9710 0.9710 0.9710 0.9720 0.9720
1688.167028 0.9720 0.9750 0.9760 0.9780 0.9780
1692.510139 0.9760 0.9780 0.9780 0.9780 0.9780
1696.853249 0.9780 0.9790 0.9790 0.9800 0.9800
1701.196360 0.9800 0.9800 0.9800 0.9800 0.9800
1705.539470 0.9790 0.9790 0.9790 0.9790 0.9790
1709.882580 0.9790 0.9790 0.9820 0.9820 0.9820
1714.225691 0.9830 0.9830 0.9850 0.9850 0.9860
1718.568801 0.9870 0.9870 0.9870 0.9900 0.9900
1722.911912 0.9900 0.9900 0.9910 0.9910 0.9910
1727.255022 0.9930 0.9930 0.9940 0.9940 0.9930
1731.598133 0.9930 0.9930 0.9930 0.9930 0.9930
1735.941243 0.9940 0.9940 0.9950 0.9970 0.9970
1740.284354 0.9980 0.9980 1.0000 1.0000 1.0000
1744.627464 1.0000 1.0000 1.0000 1.0000 1.0000
1748.970575 0.9980 1.0000 1.0010 1.0000 1.0000
1753.313685 1.0000 1.0000 1.0000 1.0000 1.0000
1757.656796 1.0010 1.0010 1.0020 1.0020 1.0020
1761.999906 1.0020 1.0020 1.0020 1.0020 1.0020
1766.343016 1.0020 1.0020 1.0020 1.0020 1.0020
1770.686127 1.0020 1.0040 1.0020 1.0020 1.0010
1775.029237 1.0010 1.0000 1.0000 1.0000 1.0000
1779.372348 1.0000 1.0010 1.0010 1.0000 0.9980
1783.715458 0.9980 0.9980 0.9980 0.9980 0.9980
1788.058569 0.9980 0.9980 0.9980 0.9980 0.9980
1792.401679 0.9980 0.9980 0.9980 0.9980 0.9980
1796.744790 0.9970 0.9970 0.9970 0.9970 0.9950
1801.087900 0.9950 0.9950 0.9970 0.9950 0.9950
1805.431011 0.9950 0.9950 0.9950 0.9950 0.9950
1809.774121 0.9950 0.9970 0.9970 0.9970 0.9980
1814.117232 0.9980 0.9980 0.9980 0.9970 0.9970
1818.460342 0.9950 0.9950 0.9940 0.9940 0.9940
1822.803452 0.9940 0.9940 0.9950 0.9950 0.9950
1827.146563 0.9950 0.9950 0.9950 0.9940 0.9940
1831.489673 0.9940 0.9940 0.9950 0.9940 0.9940
1835.832784 0.9940 0.9930 0.9930 0.9930 0.9930
1840.175894 0.9930 0.9930 0.9910 0.9910 0.9910
1844.519005 0.9910 0.9910 0.9910 0.9910 0.9910
1848.862115 0.9910 0.9910 0.9910 0.9930 0.9930
1853.205226 0.9930 0.9930 0.9910 0.9910 0.9910
1857.548336 0.9910 0.9910 0.9910 0.9910 0.9930
1861.891447 0.9940 0.9940 0.9940 0.9950 0.9950
1866.234557 0.9970 0.9970 0.9980 0.9980 0.9980
1870.577668 0.9980 0.9980 0.9980 0.9980 1.0000
1874.920778 1.0000 1.0000 1.0000 1.0000 1.0000
1879.263888 1.0000 1.0000 0.9970 0.9970 0.9980
1883.606999 1.0000 1.0000 1.0000 1.0010 1.0010
1887.950109 1.0010 1.0010 1.0010 1.0010 1.0010
1892.293220 1.0010 1.0010 1.0010 1.0010 1.0010
1896.636330 1.0010 1.0010 1.0020 1.0010 1.0010
1900.979441 1.0010 1.0020 1.0020 1.0010 1.0010
1905.322551 1.0020 1.0040 1.0060 1.0060 1.0060
1909.665662 1.0060 1.0060 1.0060 1.0050 1.0050
1914.008772 1.0040 1.0040 1.0040 1.0040 1.0040
1918.351883 1.0040 1.0040 1.0020 1.0020 1.0020
1922.694993 1.0020 1.0020 1.0040 1.0040 1.0020
1927.038104 1.0020 1.0020 1.0020 1.0020 1.0020
1931.381214 1.0020 1.0040 1.0040 1.0040 1.0010
1935.724324 1.0010 1.0010 1.0010 1.0010 1.0010
1940.067435 1.0010 1.0010 1.0010 1.0010 1.0010
1944.410545 1.0010 1.0010 1.0010 1.0010 1.0010
1948.753656 1.0010 1.0010 1.0010 1.0010 1.0010
1953.096766 1.0010 1.0010 1.0010 1.0010 1.0010
1957.439877 1.0010 1.0010 1.0010 1.0010 1.0010
1961.782987 1.0010 1.0010 1.0010 1.0010 1.0010
1966.126098 1.0020 1.0020 1.0020 1.0020 1.0020
1970.469208 1.0020 1.0020 1.0020 1.0010 1.0010
1974.812319 1.0010 1.0010 1.0010 1.0010 1.0010
1979.155429 1.0010 1.0010 1.0010 1.0010 1.0000
1983.498540 1.0000 1.0000 1.0000 1.0010 1.0010
1987.841650 1.0010 1.0010 1.0010 1.0010 1.0020
1992.184761 1.0010 1.0010 1.0010 1.0010 1.0010
1996.527871 1.0010 1.0010 1.0040 1.0040 1.0040
2000.870981 1.0040 1.0040 1.0040 1.0040 1.0030
2005.214092 1.0020 1.0015 1.0010 0.9995 0.9980
2009.557202 0.9975 0.9970 0.9955 0.9940 0.9925
2013.900313 0.9910 0.9900 0.9890 0.9890 0.9890
2018.243423 0.9890 0.9890 0.9890 0.9890 0.9895
2022.586534 0.9900 0.9895 0.9890 0.9890 0.9890
2026.929644 0.9890 0.9890 0.9895 0.9900 0.9905
2031.272755 0.9910 0.9910 0.9910 0.9905 0.9900
2035.615865 0.9900 0.9900 0.9900 0.9900 0.9900
2039.958976 0.9900 0.9900 0.9900 0.9905 0.9910
2044.302086 0.9910 0.9910 0.9910 0.9910 0.9919
2048.645197 0.9929 0.9935 0.9940 0.9940 0.9940
2052.988307 0.9945 0.9950 0.9950 0.9950 0.9950
2057.331417 0.9950 0.9950 0.9950 0.9950 0.9950
2061.674528 0.9959 0.9969 0.9970 0.9970 0.9970
2066.017638 0.9970 0.9970 0.9970 0.9970 0.9970
2070.360749 0.9970 0.9970 0.9975 0.9980 0.9980
2074.703859 0.9980 0.9980 0.9980 0.9980 0.9980
2079.046970 0.9980 0.9980 0.9980 0.9980 0.9980
2083.390080 0.9980 0.9980 0.9980 0.9980 0.9980
2087.733191 0.9980 0.9980 0.9980 0.9980 0.9989
2092.076301 0.9999 1.0000 1.0000 1.0000 1.0000
2096.419412 1.0000 1.0000 1.0000 1.0000 1.0000
2100.762522 1.0000 1.0000 1.0000 1.0000 1.0000
2105.105633 1.0000 1.0000 1.0000 1.0000 1.0000
2109.448743 1.0000 1.0000 1.0000 1.0000 1.0000
2113.791853 1.0000 1.0000 1.0000 1.0000 1.0000
2118.134964 1.0000 1.0000 1.0000 1.0000 1.0000
2122.478074 1.0000 1.0000 1.0000 1.0000 1.0000
2126.821185 1.0000 1.0000 1.0000 1.0000 1.0000
2131.164295 1.0000 1.0000 1.0000 1.0000 0.9992
2135.507406 0.9982 0.9980 0.9980 0.9980 0.9980
2139.850516 0.9980 0.9980 0.9976 0.9971 0.9970
2144.193627 0.9970 0.9970 0.9970 0.9970 0.9970
2148.536737 0.9970 0.9970 0.9974 0.9979 0.9980
2152.879848 0.9980 0.9980 0.9980 0.9980 0.9980
2157.222958 0.9988 0.9998 1.0000 1.0000 1.0000
2161.566069 1.0000 1.0000 1.0000 1.0000 1.0000
2165.909179 1.0000 1.0000 1.0000 1.0000 1.0000
2170.252289 1.0000 1.0004 1.0009 1.0014 1.0019
2174.595400 1.0020 1.0020 1.0032 1.0047 1.0066
2178.938510 1.0086 1.0090 1.0090 1.0075 1.0055
2183.281621 1.0046 1.0041 1.0032 1.0022 1.0012
2187.624731 1.0003 0.9992 0.9983 0.9980 0.9980
2191.967842 0.9976 0.9971 0.9959 0.9944 0.9940
2196.310952 0.9940 0.9940 0.9940 0.9940 0.9940
2200.654063 0.9940 0.9940 0.9936 0.9931 0.9930
2204.997173 0.9930 0.9930 0.9930 0.9930 0.9930
2209.340284 0.9930 0.9930 0.9923 0.9913 0.9910
2213.683394 0.9910 0.9910 0.9910 0.9910 0.9910
2218.026505 0.9910 0.9910 0.9910 0.9910 0.9917
2222.369615 0.9927 0.9923 0.9913 0.9910 0.9910
2226.712725 0.9910 0.9910 0.9910 0.9910 0.9906
2231.055836 0.9901 0.9900 0.9900 0.9896 0.9891
2235.398946 0.9890 0.9890 0.9883 0.9873 0.9870
2239.742057 0.9870 0.9867 0.9862 0.9857 0.9852
2244.085167 0.9850 0.9850 0.9843 0.9833 0.9830
2248.428278 0.9830 0.9827 0.9822 0.9813 0.9803
2252.771388 0.9797 0.9792 0.9790 0.9790 0.9790
2257.114499 0.9790 0.9790 0.9790 0.9790 0.9790
2261.457609 0.9790 0.9790 0.9790 0.9790 0.9790
2265.800720 0.9790 0.9787 0.9782 0.9780 0.9780
2270.143830 0.9780 0.9780 0.9780 0.9780 0.9780
2274.486941 0.9780 0.9780 0.9780 0.9780 0.9780
2278.830051 0.9773 0.9763 0.9760 0.9760 0.9760
2283.173161 0.9760 0.9754 0.9744 0.9734 0.9724
2287.516272 0.9717 0.9712 0.9701 0.9686 0.9674
2291.859382 0.9664 0.9651 0.9636 0.9621 0.9606
2296.202493 0.9597 0.9592 0.9590 0.9590 0.9578
2300.545603 0.9558 0.9544 0.9534 0.9527 0.9522
2304.888714 0.9523 0.9528 0.9530 0.9530 0.9539
2309.231824 0.9554 0.9575 0.9600 0.9637 0.9682
2313.574935 0.9718 0.9748 0.9760 0.9760 0.9766
2317.918045 0.9776 0.9783 0.9788 0.9793 0.9798
2322.261156 0.9809 0.9824 0.9839 0.9854 0.9863
2326.604266 0.9868 0.9879 0.9894 0.9900 0.9900
2330.947377 0.9903 0.9908 0.9910 0.9910 0.9910
2335.290487 0.9910 0.9910 0.9910 0.9910 0.9910
2339.633597 0.9910 0.9910 0.9910 0.9910 0.9910
2343.976708 0.9910 0.9910 0.9910 0.9910 0.9910
2348.319818 0.9910 0.9910 0.9916 0.9926 0.9930
2352.662929 0.9930 0.9924 0.9914 0.9910 0.9910
2357.006039 0.9910 0.9910 0.9910 0.9910 0.9910
2361.349150 0.9910 0.9915 0.9925 0.9930 0.9930
2365.692260 0.9930 0.9930 0.9930 0.9930 0.9930
2370.035371 0.9930 0.9925 0.9915 0.9910 0.9910
2374.378481 0.9910 0.9910 0.9910 0.9910 0.9910
2378.721592 0.9910 0.9910 0.9910 0.9907 0.9902
2383.064702 0.9897 0.9892 0.9890 0.9890 0.9890
2387.407813 0.9890 0.9885 0.9875 0.9870 0.9870
2391.750923 0.9867 0.9863 0.9860 0.9860 0.9860
2396.094033 0.9860 0.9860 0.9860 0.9860 0.9860
2400.437144 0.9868 0.9883 0.9895 0.9905 0.9915
2404.780254 0.9925 0.9930 0.9930 0.9930 0.9930
2409.123365 0.9930 0.9930 0.9930 0.9930 0.9925
2413.466475 0.9915 0.9910 0.9910 0.9910 0.9910
2417.809586 0.9910 0.9910 0.9910 0.9910 0.9910
2422.152696 0.9910 0.9908 0.9903 0.9900 0.9900
2426.495807 0.9900 0.9900 0.9900 0.9900 0.9900
2430.838917 0.9900 0.9900 0.9900 0.9900 0.9900
2435.182028 0.9900 0.9900 0.9900 0.9900 0.9900
2439.525138 0.9900 0.9893 0.9878 0.9870 0.9870
2443.868249 0.9870 0.9870 0.9870 0.9870 0.9870
2448.211359 0.9870 0.9870 0.9870 0.9868 0.9863
2452.554469 0.9860 0.9860 0.9860 0.9860 0.9860
2456.897580 0.9860 0.9858 0.9853 0.9850 0.9850
2461.240690 0.9850 0.9850 0.9850 0.9850 0.9850
2465.583801 0.9850 0.9852 0.9857 0.9860 0.9860
2469.926911 0.9862 0.9867 0.9874 0.9884 0.9892
2474.270022 0.9897 0.9900 0.9900 0.9902 0.9907
2478.613132 0.9910 0.9910 0.9910 0.9910 0.9910
2482.956243 0.9910 0.9910 0.9910 0.9910 0.9910
2487.299353 0.9908 0.9903 0.9900 0.9900 0.9900
2491.642464 0.9900 0.9900 0.9900 0.9900 0.9900
2495.985574 0.9898 0.9893 0.9890 0.9890 0.9886
2500.328685 0.9876 0.9868 0.9863 0.9858 0.9853
2504.671795 0.9850 0.9850 0.9850 0.9850 0.9850
2509.014905 0.9850 0.9852 0.9857 0.9865 0.9880
2513.358016 0.9892 0.9897 0.9900 0.9900 0.9900
2517.701126 0.9900 0.9900 0.9900 0.9900 0.9900
2522.044237 0.9902 0.9907 0.9910 0.9910 0.9910
2526.387347 0.9910 0.9910 0.9910 0.9910 0.9910
2530.730458 0.9910 0.9910 0.9910 0.9910 0.9910
2535.073568 0.9910 0.9910 0.9910 0.9910 0.9910
2539.416679 0.9910 0.9910 0.9910 0.9910 0.9910
2543.759789 0.9910 0.9913 0.9923 0.9927 0.9917
2548.102900 0.9910 0.9910 0.9913 0.9923 0.9930
2552.446010 0.9930 0.9927 0.9917 0.9910 0.9910
2556.789121 0.9910 0.9910 0.9910 0.9910 0.9910
2561.132231 0.9910 0.9910 0.9910 0.9910 0.9910
2565.475341 0.9909 0.9904 0.9900 0.9900 0.9900
2569.818452 0.9900 0.9899 0.9894 0.9890 0.9890
2574.161562 0.9890 0.9890 0.9890 0.9890 0.9890
2578.504673 0.9890 0.9890 0.9890 0.9891 0.9896
2582.847783 0.9900 0.9900 0.9900 0.9900 0.9900
2587.190894 0.9900 0.9901 0.9906 0.9910 0.9910
2591.534004 0.9910 0.9910 0.9910 0.9910 0.9910
2595.877115 0.9910 0.9910 0.9910 0.9910 0.9910
2600.220225 0.9910 0.9910 0.9910 0.9910 0.9910
2604.563336 0.9910 0.9910 0.9910 0.9910 0.9910
2608.906446 0.9910 0.9910 0.9910 0.9910 0.9912
2613.249557 0.9922 0.9930 0.9930 0.9928 0.9918
2617.592667 0.9910 0.9910 0.9910 0.9910 0.9910
2621.935778 0.9910 0.9909 0.9904 0.9900 0.9900
2626.278888 0.9900 0.9900 0.9900 0.9900 0.9900
2630.621998 0.9900 0.9900 0.9900 0.9900 0.9900
2634.965109 0.9900 0.9900 0.9900 0.9900 0.9900
2639.308219 0.9900 0.9900 0.9900 0.9900 0.9900
2643.651330 0.9900 0.9900 0.9900 0.9900 0.9900
2647.994440 0.9900 0.9900 0.9900 0.9900 0.9900
2652.337551 0.9899 0.9894 0.9890 0.9890 0.9890
2656.680661 0.9890 0.9890 0.9890 0.9888 0.9878
2661.023772 0.9870 0.9870 0.9869 0.9864 0.9860
2665.366882 0.9860 0.9860 0.9860 0.9860 0.9860
2669.709993 0.9860 0.9860 0.9860 0.9860 0.9861
2674.053103 0.9866 0.9870 0.9870 0.9870 0.9870
2678.396214 0.9870 0.9870 0.9872 0.9881 0.9890
2682.739324 0.9890 0.9889 0.9879 0.9870 0.9870
2687.082434 0.9870 0.9870 0.9870 0.9870 0.9870
2691.425545 0.9870 0.9871 0.9881 0.9890 0.9890
2695.768655 0.9890 0.9890 0.9889 0.9879 0.9870
2700.111766 0.9870 0.9871 0.9881 0.9890 0.9890
2704.454876 0.9888 0.9873 0.9860 0.9860 0.9859
2708.797987 0.9854 0.9849 0.9839 0.9830 0.9824
2713.141097 0.9820 0.9820 0.9818 0.9803 0.9790
2717.484208 0.9790 0.9790 0.9790 0.9792 0.9812
2721.827318 0.9830 0.9830 0.9830 0.9830 0.9830
2726.170429 0.9830 0.9830 0.9825 0.9820 0.9820
2730.513539 0.9819 0.9804 0.9790 0.9790 0.9790
2734.856650 0.9790 0.9790 0.9790 0.9790 0.9790
2739.199760 0.9790 0.9790 0.9790 0.9790 0.9791
2743.542870 0.9811 0.9830 0.9830 0.9830 0.9830
2747.885981 0.9831 0.9841 0.9850 0.9855 0.9860
2752.229091 0.9860 0.9860 0.9860 0.9860 0.9860
2756.572202 0.9860 0.9860 0.9860 0.9855 0.9850
2760.915312 0.9850 0.9850 0.9855 0.9860 0.9860
2765.258423 0.9860 0.9860 0.9860 0.9860 0.9860
2769.601533 0.9860 0.9860 0.9860 0.9860 0.9860
2773.944644 0.9860 0.9860 0.9860 0.9855 0.9850
2778.287754 0.9850 0.9850 0.9850 0.9850 0.9850
2782.630865 0.9850 0.9850 0.9850 0.9850 0.9850
2786.973975 0.9850 0.9850 0.9850 0.9850 0.9840
2791.317086 0.9830 0.9830 0.9830 0.9830 0.9830
2795.660196 0.9830 0.9830 0.9830 0.9830 0.9825
2800.003306 0.9820 0.9820 0.9820 0.9810 0.9800
2804.346417 0.9800 0.9800 0.9795 0.9790 0.9785
2808.689527 0.9780 0.9780 0.9780 0.9770 0.9760
2813.032638 0.9755 0.9750 0.9731 0.9711 0.9705
2817.375748 0.9700 0.9690 0.9680 0.9680 0.9680
2821.718859 0.9675 0.9670 0.9665 0.9660 0.9646
2826.061969 0.9631 0.9620 0.9610 0.9605 0.9600
2830.405080 0.9595 0.9590 0.9581 0.9571 0.9570
2834.748190 0.9570 0.9565 0.9560 0.9560 0.9560
2839.091301 0.9555 0.9550 0.9550 0.9550 0.9569
2843.434411 0.9589 0.9613 0.9638 0.9640 0.9640
2847.777522 0.9649 0.9659 0.9660 0.9660 0.9637
2852.120632 0.9612 0.9568 0.9523 0.9455 0.9385
2856.463742 0.9343 0.9303 0.9231 0.9156 0.9058
2860.806853 0.8958 0.8868 0.8778 0.8765 0.8760
2865.149963 0.8765 0.8770 0.8770 0.8770 0.8779
2869.493074 0.8789 0.8790 0.8790 0.8795 0.8800
2873.836184 0.8850 0.8905 0.8924 0.8939 0.8980
2878.179295 0.9025 0.9075 0.9125 0.9166 0.9206
2882.522405 0.9232 0.9257 0.9286 0.9316 0.9320
2886.865516 0.9320 0.9324 0.9329 0.9330 0.9330
2891.208626 0.9326 0.9321 0.9307 0.9292 0.9277
2895.551737 0.9262 0.9247 0.9232 0.9221 0.9211
2899.894847 0.9201 0.9191 0.9190 0.9190 0.9190
2904.237958 0.9190 0.9199 0.9209 0.9210 0.9210
2908.581068 0.9219 0.9229 0.9243 0.9258 0.9260
2912.924178 0.9260 0.9247 0.9232 0.9213 0.9193
2917.267289 0.9169 0.9144 0.9140 0.9140 0.9064
2921.610399 0.8973 0.8841 0.8701 0.8494 0.8274
2925.953510 0.8122 0.7982 0.7847 0.7712 0.7586
2930.296620 0.7461 0.7357 0.7257 0.7232 0.7222
2934.639731 0.7228 0.7238 0.7244 0.7249 0.7279
2938.982841 0.7314 0.7370 0.7430 0.7498 0.7568
2943.325952 0.7588 0.7598 0.7608 0.7618 0.7624
2947.669062 0.7629 0.7630 0.7630 0.7630 0.7630
2952.012173 0.7626 0.7621 0.7620 0.7620 0.7612
2956.355283 0.7602 0.7600 0.7600 0.7576 0.7546
2960.698394 0.7504 0.7459 0.7410 0.7360 0.7295
2965.041504 0.7225 0.7171 0.7121 0.7090 0.7066
2969.384614 0.7044 0.7024 0.6977 0.6923 0.6891
2973.727725 0.6865 0.6833 0.6798 0.6778 0.6763
2978.070835 0.6748 0.6733 0.6290 0.5721 0.5490
2982.413946 0.5360 0.5227 0.5092 0.5003 0.4928
2986.757056 0.4910 0.4910 0.4993 0.5103 0.5172
2991.100167 0.5227 0.5244 0.5249 0.5292 0.5347
2995.443277 0.5368 0.5378 0.5410 0.5450 0.5464
2999.786388 0.5469 0.5496 0.5531 0.5721 0.5966
3004.129498 0.6842 0.7945 0.8266 0.8301 0.8369
3008.472609 0.8449 0.8555 0.8670 0.8770 0.8865
3012.815719 0.8941 0.9011 0.9074 0.9134 0.9186
3017.158830 0.9236 0.9282 0.9327 0.9376 0.9426
3021.501940 0.9479 0.9534 0.9564 0.9584 0.9608
3025.845050 0.9633 0.9651 0.9666 0.9681 0.9696
3030.188161 0.9704 0.9709 0.9714 0.9719 0.9731
3034.531271 0.9746 0.9750 0.9750 0.9753 0.9758
3038.874382 0.9767 0.9777 0.9780 0.9780 0.9783
3043.217492 0.9788 0.9790 0.9790 0.9790 0.9790
3047.560603 0.9790 0.9790 0.9790 0.9790 0.9790
3051.903713 0.9790 0.9793 0.9798 0.9800 0.9800
3056.246824 0.9800 0.9800 0.9807 0.9817 0.9820
3060.589934 0.9820 0.9823 0.9828 0.9837 0.9847
3064.933045 0.9853 0.9858 0.9860 0.9860 0.9863
3069.276155 0.9868 0.9870 0.9870 0.9870 0.9870
3073.619266 0.9870 0.9870 0.9870 0.9870 0.9870
3077.962376 0.9870 0.9870 0.9870 0.9870 0.9870
3082.305486 0.9876 0.9886 0.9890 0.9890 0.9890
3086.648597 0.9890 0.9890 0.9890 0.9890 0.9890
3090.991707 0.9890 0.9890 0.9890 0.9890 0.9890
3095.334818 0.9890 0.9890 0.9890 0.9890 0.9890
3099.677928 0.9890 0.9890 0.9893 0.9898 0.9900
3104.021039 0.9900 0.9900 0.9900 0.9900 0.9900
3108.364149 0.9900 0.9900 0.9903 0.9908 0.9910
3112.707260 0.9910 0.9910 0.9910 0.9916 0.9926
3117.050370 0.9924 0.9914 0.9910 0.9910 0.9910
3121.393481 0.9910 0.9910 0.9910 0.9910 0.9910
3125.736591 0.9910 0.9910 0.9910 0.9910 0.9907
3130.079702 0.9902 0.9900 0.9900 0.9900 0.9900
3134.422812 0.9900 0.9900 0.9900 0.9900 0.9900
3138.765922 0.9900 0.9900 0.9900 0.9900 0.9900
3143.109033 0.9900 0.9900 0.9900 0.9900 0.9900
3147.452143 0.9900 0.9900 0.9900 0.9900 0.9900
3151.795254 0.9900 0.9900 0.9900 0.9900 0.9900
3156.138364 0.9900 0.9900 0.9900 0.9900 0.9900
3160.481475 0.9900 0.9900 0.9897 0.9892 0.9890
3164.824585 0.9890 0.9890 0.9890 0.9890 0.9890
3169.167696 0.9890 0.9890 0.9882 0.9867 0.9868
3173.510806 0.9883 0.9890 0.9890 0.9890 0.9890
3177.853917 0.9890 0.9890 0.9890 0.9890 0.9890
3182.197027 0.9890 0.9890 0.9890 0.9890 0.9890
3186.540138 0.9890 0.9890 0.9890 0.9890 0.9890
3190.883248 0.9890 0.9890 0.9890 0.9890 0.9890
3195.226358 0.9890 0.9890 0.9890 0.9890 0.9890
3199.569469 0.9890 0.9885 0.9875 0.9870 0.9870
3203.912579 0.9870 0.9870 0.9875 0.9885 0.9885
3208.255690 0.9875 0.9870 0.9870 0.9870 0.9870
3212.598800 0.9870 0.9870 0.9870 0.9870 0.9870
3216.941911 0.9870 0.9870 0.9870 0.9868 0.9863
3221.285021 0.9860 0.9860 0.9860 0.9860 0.9862
3225.628132 0.9867 0.9870 0.9870 0.9870 0.9870
3229.971242 0.9870 0.9870 0.9874 0.9884 0.9890
3234.314353 0.9890 0.9892 0.9897 0.9900 0.9900
3238.657463 0.9900 0.9900 0.9900 0.9900 0.9900
3243.000574 0.9900 0.9900 0.9900 0.9900 0.9900
3247.343684 0.9900 0.9900 0.9900 0.9900 0.9906
3251.686795 0.9922 0.9930 0.9930 0.9926 0.9916
3256.029905 0.9910 0.9910 0.9910 0.9910 0.9914
3260.373015 0.9924 0.9930 0.9930 0.9926 0.9916
3264.716126 0.9910 0.9910 0.9910 0.9910 0.9910
3269.059236 0.9910 0.9910 0.9910 0.9910 0.9910
3273.402347 0.9910 0.9910 0.9910 0.9910 0.9910
3277.745457 0.9910 0.9910 0.9910 0.9910 0.9910
3282.088568 0.9908 0.9903 0.9900 0.9900 0.9900
3286.431678 0.9900 0.9900 0.9900 0.9900 0.9900
3290.774789 0.9900 0.9900 0.9900 0.9900 0.9900
3295.117899 0.9900 0.9900 0.9900 0.9900 0.9900
3299.461010 0.9900 0.9900 0.9900 0.9900 0.9900
3303.804120 0.9900 0.9900 0.9900 0.9898 0.9893
3308.147231 0.9890 0.9890 0.9890 0.9890 0.9886
3312.490341 0.9876 0.9870 0.9870 0.9868 0.9863
3316.833451 0.9860 0.9860 0.9860 0.9860 0.9862
3321.176562 0.9867 0.9870 0.9870 0.9868 0.9863
3325.519672 0.9860 0.9860 0.9858 0.9853 0.9850
3329.862783 0.9850 0.9850 0.9850 0.9850 0.9850
3334.205893 0.9852 0.9857 0.9860 0.9860 0.9860
3338.549004 0.9860 0.9860 0.9860 0.9862 0.9867
3342.892114 0.9873 0.9883 0.9890 0.9890 0.9890
3347.235225 0.9890 0.9890 0.9890 0.9890 0.9890
3351.578335 0.9890 0.9890 0.9887 0.9877 0.9870
3355.921446 0.9870 0.9870 0.9870 0.9870 0.9870
3360.264556 0.9870 0.9870 0.9873 0.9883 0.9887
3364.607667 0.9877 0.9870 0.9870 0.9870 0.9870
3368.950777 0.9870 0.9870 0.9870 0.9870 0.9870
3373.293887 0.9870 0.9870 0.9870 0.9870 0.9870
3377.636998 0.9870 0.9870 0.9870 0.9870 0.9870
3381.980108 0.9870 0.9870 0.9870 0.9870 0.9870
3386.323219 0.9870 0.9870 0.9869 0.9864 0.9860
3390.666329 0.9860 0.9860 0.9860 0.9860 0.9860
3395.009440 0.9860 0.9860 0.9860 0.9860 0.9861
3399.352550 0.9866 0.9870 0.9870 0.9870 0.9870
3403.695661 0.9870 0.9870 0.9870 0.9870 0.9870
3408.038771 0.9870 0.9872 0.9882 0.9890 0.9890
3412.381882 0.9888 0.9878 0.9870 0.9870 0.9870
3416.724992 0.9870 0.9870 0.9870 0.9870 0.9870
3421.068103 0.9870 0.9870 0.9872 0.9882 0.9890
3425.411213 0.9890 0.9890 0.9890 0.9890 0.9890
3429.754323 0.9891 0.9896 0.9900 0.9900 0.9899
3434.097434 0.9894 0.9890 0.9890 0.9890 0.9890
3438.440544 0.9890 0.9890 0.9891 0.9896 0.9900
3442.783655 0.9900 0.9897 0.9882 0.9870 0.9870
3447.126765 0.9870 0.9870 0.9870 0.9870 0.9872
3451.469876 0.9882 0.9890 0.9890 0.9888 0.9878
3455.812986 0.9870 0.9870 0.9870 0.9870 0.9870
3460.156097 0.9870 0.9869 0.9864 0.9860 0.9860
3464.499207 0.9860 0.9860 0.9860 0.9860 0.9860
3468.842318 0.9860 0.9860 0.9860 0.9860 0.9860
3473.185428 0.9860 0.9860 0.9860 0.9860 0.9860
3477.528539 0.9860 0.9861 0.9866 0.9872 0.9881
3481.871649 0.9890 0.9890 0.9889 0.9879 0.9870
3486.214759 0.9870 0.9870 0.9870 0.9870 0.9870
3490.557870 0.9870 0.9870 0.9869 0.9864 0.9860
3494.900980 0.9860 0.9861 0.9866 0.9870 0.9870
3499.244091 0.9870 0.9870 0.9871 0.9881 0.9889
3503.587201 0.9879 0.9870 0.9870 0.9870 0.9870
3507.930312 0.9870 0.9870 0.9871 0.9881 0.9890
3512.273422 0.9890 0.9889 0.9879 0.9870 0.9870
3516.616533 0.9870 0.9870 0.9870 0.9870 0.9870
3520.959643 0.9865 0.9860 0.9860 0.9860 0.9860
3525.302754 0.9860 0.9860 0.9860 0.9855 0.9850
3529.645864 0.9850 0.9850 0.9850 0.9850 0.9855
3533.988975 0.9860 0.9860 0.9860 0.9860 0.9860
3538.332085 0.9860 0.9860 0.9865 0.9871 0.9881
3542.675195 0.9890 0.9890 0.9889 0.9879 0.9870
3547.018306 0.9870 0.9870 0.9870 0.9870 0.9865
3551.361416 0.9860 0.9860 0.9860 0.9855 0.9850
3555.704527 0.9850 0.9850 0.9850 0.9850 0.9850
3560.047637 0.9850 0.9850 0.9850 0.9850 0.9850
3564.390748 0.9850 0.9850 0.9850 0.9850 0.9840
3568.733858 0.9830 0.9830 0.9830 0.9830 0.9830
3573.076969 0.9830 0.9830 0.9830 0.9830 0.9830
3577.420079 0.9830 0.9830 0.9830 0.9830 0.9830
3581.763190 0.9830 0.9830 0.9830 0.9830 0.9830
3586.106300 0.9830 0.9830 0.9830 0.9830 0.9830
3590.449411 0.9830 0.9830 0.9830 0.9830 0.9830
3594.792521 0.9830 0.9830 0.9830 0.9830 0.9830
3599.135631 0.9830 0.9830 0.9830 0.9830 0.9830
3603.478742 0.9830 0.9830 0.9830 0.9830 0.9830
3607.821852 0.9840 0.9850 0.9850 0.9850 0.9850
3612.164963 0.9850 0.9850 0.9850 0.9850 0.9850
3616.508073 0.9850 0.9850 0.9850 0.9850 0.9850
3620.851184 0.9850 0.9860 0.9870 0.9880 0.9890
3625.194294 0.9890 0.9890 0.9890 0.9890 0.9890
3629.537405 0.9890 0.9880 0.9870 0.9870 0.9870
3633.880515 0.9865 0.9860 0.9855 0.9850 0.9850
3638.223626 0.9850 0.9850 0.9850 0.9855 0.9860
3642.566736 0.9860 0.9860 0.9865 0.9870 0.9870
3646.909847 0.9870 0.9870 0.9870 0.9870 0.9870
3651.252957 0.9865 0.9860 0.9860 0.9860 0.9860
3655.596067 0.9860 0.9855 0.9850 0.9850 0.9850
3659.939178 0.9841 0.9831 0.9839 0.9849 0.9841
3664.282288 0.9831 0.9830 0.9830 0.9839 0.9849
3668.625399 0.9855 0.9860 0.9860 0.9860 0.9860
3672.968509 0.9860 0.9860 0.9860 0.9855 0.9850
3677.311620 0.9841 0.9831 0.9830 0.9830 0.9830
3681.654730 0.9830 0.9830 0.9830 0.9830 0.9830
3685.997841 0.9830 0.9830 0.9830 0.9830 0.9826
3690.340951 0.9821 0.9811 0.9801 0.9796 0.9791
3694.684062 0.9790 0.9790 0.9790 0.9790 0.9794
3699.027172 0.9799 0.9800 0.9800 0.9809 0.9819
3703.370283 0.9824 0.9829 0.9839 0.9849 0.9850
3707.713393 0.9850 0.9850 0.9850 0.9841 0.9831
3712.056503 0.9826 0.9821 0.9824 0.9829 0.9830
3716.399614 0.9830 0.9830 0.9830 0.9830 0.9830
3720.742724 0.9838 0.9849 0.9854 0.9859 0.9856
3725.085835 0.9851 0.9850 0.9850 0.9850 0.9850
3729.428945 0.9837 0.9823 0.9820 0.9820 0.9812
3733.772056 0.9802 0.9800 0.9800 0.9800 0.9800
3738.115166 0.9800 0.9800 0.9800 0.9800 0.9808
3742.458277 0.9818 0.9820 0.9820 0.9824 0.9829
3746.801387 0.9830 0.9830 0.9830 0.9830 0.9838
3751.144498 0.9848 0.9854 0.9859 0.9856 0.9851
3755.487608 0.9854 0.9859 0.9860 0.9860 0.9860
3759.830719 0.9860 0.9864 0.9869 0.9878 0.9888
3764.173829 0.9890 0.9890 0.9882 0.9872 0.9870
3768.516939 0.9870 0.9882 0.9897 0.9900 0.9900
3772.860050 0.9900 0.9900 0.9896 0.9891 0.9890
3777.203160 0.9890 0.9894 0.9899 0.9904 0.9909
3781.546271 0.9918 0.9928 0.9930 0.9930 0.9930
3785.889381 0.9930 0.9930 0.9930 0.9919 0.9904
3790.232492 0.9900 0.9900 0.9900 0.9900 0.9896
3794.575602 0.9891 0.9890 0.9890 0.9890 0.9890
##END=
