##TITLE=1,2-DICHLOROPROPANE
##JCAMP-DX=4.24
##DATA TYPE=INFRARED SPECTRUM
##CLASS=COBLENTZ
##ORIGIN=W.T. BOLLETER
##OWNER=COBLENTZ SOCIETY
Collection (C) 2018 copyright by the U.S. Secretary of Commerce
on behalf of the United States of America. All rights reserved.
##DATE=Not specified, most likely prior to 1970
##CAS REGISTRY NO=78-87-5
##MOLFORM=C3 H6 Cl2
##SOURCE REFERENCE=COBLENTZ NO. 4479
##$NIST SOURCE=COBLENTZ
##$NIST IMAGE=cob4479
##SPECTROMETER/DATA SYSTEM=Not specified, most likely a prism, grating, or hybrid spectrometer.
##PATH LENGTH=0.0025 CM
##SAMPLING PROCEDURE=TRANSMISSION
##RESOLUTION=4
##DATA PROCESSING=DIGITIZED BY NIST FROM HARD COPY
##XUNITS=MICROMETERS
##YUNITS=TRANSMITTANCE
##XFACTOR=1.000000
##YFACTOR=1
##DELTAX=000.017505
##FIRSTX=14.543
##LASTX=38
##FIRSTY=0.085
##MAXX=38
##MINX=14.543
##MAXY=0.921
##MINY=0.01
##NPOINTS=1341
##XYDATA=(X++(Y..Y))
14.543000 0.0850 0.0830 0.0780 0.0740 0.0600
14.630593 0.0490 0.0400 0.0350 0.0310 0.0280
14.718000 0.0230 0.0190 0.0150 0.0140 0.0140
14.805593 0.0120 0.0120 0.0120 0.0120 0.0100
14.893000 0.0100 0.0100 0.0100 0.0100 0.0100
14.980593 0.0100 0.0100 0.0100 0.0100 0.0100
15.068000 0.0100 0.0100 0.0100 0.0100 0.0100
15.155593 0.0120 0.0120 0.0120 0.0120 0.0120
15.243000 0.0120 0.0120 0.0120 0.0120 0.0120
15.330593 0.0140 0.0150 0.0190 0.0240 0.0310
15.418000 0.0330 0.0370 0.0390 0.0470 0.0530
15.505593 0.0600 0.0740 0.0860 0.0970 0.0990
15.593000 0.1010 0.1060 0.1080 0.1090 0.1090
15.680593 0.1080 0.1040 0.1010 0.0990 0.0970
15.768000 0.0880 0.0810 0.0700 0.0510 0.0440
15.855593 0.0390 0.0350 0.0300 0.0280 0.0240
15.943000 0.0210 0.0190 0.0170 0.0150 0.0150
16.030593 0.0140 0.0140 0.0120 0.0120 0.0100
16.118000 0.0100 0.0100 0.0100 0.0100 0.0120
16.205593 0.0120 0.0120 0.0140 0.0140 0.0150
16.293000 0.0170 0.0190 0.0210 0.0240 0.0260
16.380593 0.0310 0.0370 0.0470 0.0620 0.0790
16.468000 0.0950 0.1110 0.1340 0.1630 0.1890
16.555593 0.2120 0.2440 0.2740 0.3010 0.3260
16.643000 0.3610 0.3840 0.4110 0.4320 0.4520
16.730593 0.4780 0.4980 0.5150 0.5390 0.5540
16.818000 0.5740 0.5990 0.6170 0.6340 0.6470
16.905593 0.6590 0.6710 0.6840 0.6980 0.7020
16.993000 0.7140 0.7250 0.7420 0.7500 0.7510
17.080593 0.7570 0.7600 0.7670 0.7760 0.7800
17.168000 0.7830 0.7870 0.7900 0.7960 0.7970
17.255593 0.7990 0.8040 0.8080 0.8120 0.8150
17.344000 0.8200 0.8220 0.8240 0.8260 0.8290
17.431593 0.8310 0.8330 0.8350 0.8350 0.8360
17.519000 0.8380 0.8420 0.8430 0.8450 0.8450
17.606593 0.8470 0.8490 0.8510 0.8520 0.8540
17.694000 0.8580 0.8580 0.8590 0.8610 0.8630
17.781593 0.8650 0.8670 0.8670 0.8680 0.8700
17.869000 0.8700 0.8720 0.8720 0.8740 0.8750
17.956593 0.8770 0.8770 0.8770 0.8770 0.8770
18.044000 0.8750 0.8740 0.8740 0.8720 0.8700
18.131593 0.8700 0.8680 0.8670 0.8630 0.8610
18.219000 0.8580 0.8520 0.8510 0.8490 0.8450
18.306593 0.8380 0.8330 0.8240 0.8200 0.8130
18.394000 0.8060 0.7990 0.7960 0.7830 0.7760
18.481593 0.7620 0.7500 0.7420 0.7260 0.7120
18.569000 0.7000 0.6950 0.6790 0.6590 0.6380
18.656593 0.6200 0.5990 0.5700 0.5440 0.5120
18.744000 0.4850 0.4480 0.4140 0.3820 0.3470
18.831593 0.3130 0.2760 0.2420 0.2030 0.1840
18.919000 0.1750 0.1480 0.1310 0.1180 0.1060
19.006593 0.0920 0.0900 0.0920 0.0990 0.1090
19.094000 0.1250 0.1500 0.1770 0.2090 0.2460
19.181593 0.2740 0.3100 0.3470 0.3860 0.4160
19.269000 0.4500 0.4800 0.5120 0.5400 0.5650
19.356593 0.5990 0.6320 0.6560 0.6750 0.7000
19.444000 0.7180 0.7350 0.7530 0.7640 0.7740
19.531593 0.7800 0.7920 0.8080 0.8170 0.8240
19.619000 0.8310 0.8350 0.8400 0.8470 0.8520
19.706593 0.8590 0.8610 0.8670 0.8680 0.8720
19.794000 0.8720 0.8750 0.8770 0.8810 0.8820
19.881593 0.8820 0.8860 0.8900 0.8930 0.8950
19.969000 0.8970 0.8970 0.8980 0.8980 0.9000
20.056593 0.9000 0.9040 0.9040 0.9040 0.9070
20.144000 0.9070 0.9090 0.9090 0.9110 0.9110
20.231593 0.9130 0.9140 0.9160 0.9160 0.9160
20.319000 0.9160 0.9180 0.9180 0.9200 0.9200
20.406593 0.9200 0.9210 0.9210 0.9210 0.9210
20.495000 0.9210 0.9210 0.9210 0.9210 0.9210
20.582593 0.9210 0.9200 0.9200 0.9200 0.9200
20.670000 0.9210 0.9210 0.9210 0.9210 0.9210
20.757593 0.9210 0.9210 0.9210 0.9210 0.9210
20.845000 0.9210 0.9210 0.9210 0.9210 0.9210
20.932593 0.9200 0.9200 0.9200 0.9180 0.9180
21.020000 0.9180 0.9160 0.9140 0.9140 0.9140
21.107593 0.9140 0.9140 0.9140 0.9140 0.9140
21.195000 0.9140 0.9140 0.9160 0.9160 0.9180
21.282593 0.9180 0.9160 0.9160 0.9160 0.9140
21.370000 0.9140 0.9140 0.9130 0.9110 0.9110
21.457593 0.9090 0.9090 0.9090 0.9090 0.9070
21.545000 0.9060 0.9040 0.9040 0.9040 0.9020
21.632593 0.9000 0.8980 0.8980 0.8970 0.8970
21.720000 0.8950 0.8930 0.8930 0.8910 0.8900
21.807593 0.8880 0.8860 0.8860 0.8840 0.8840
21.895000 0.8820 0.8810 0.8790 0.8770 0.8750
21.982593 0.8740 0.8720 0.8720 0.8700 0.8700
22.070000 0.8700 0.8700 0.8700 0.8700 0.8700
22.157593 0.8700 0.8680 0.8670 0.8650 0.8650
22.245000 0.8650 0.8650 0.8670 0.8670 0.8670
22.332593 0.8680 0.8700 0.8700 0.8700 0.8700
22.420000 0.8680 0.8680 0.8680 0.8680 0.8700
22.507593 0.8700 0.8680 0.8680 0.8670 0.8670
22.595000 0.8670 0.8670 0.8670 0.8670 0.8650
22.682593 0.8650 0.8650 0.8630 0.8610 0.8610
22.770000 0.8590 0.8590 0.8580 0.8540 0.8540
22.857593 0.8520 0.8510 0.8470 0.8470 0.8450
22.945000 0.8430 0.8400 0.8380 0.8360 0.8350
23.032593 0.8310 0.8280 0.8220 0.8170 0.8150
23.120000 0.8130 0.8080 0.8040 0.7990 0.7970
23.207593 0.7870 0.7830 0.7800 0.7740 0.7650
23.295000 0.7570 0.7500 0.7480 0.7370 0.7300
23.382593 0.7210 0.7140 0.7000 0.6960 0.6870
23.470000 0.6800 0.6660 0.6500 0.6310 0.6200
23.557593 0.6110 0.5990 0.5830 0.5630 0.5460
23.646000 0.5240 0.5080 0.4940 0.4760 0.4640
23.733593 0.4450 0.4180 0.3980 0.3860 0.3630
23.821000 0.3450 0.3220 0.3010 0.2780 0.2620
23.908593 0.2460 0.2280 0.2160 0.2020 0.1870
23.996000 0.1750 0.1610 0.1480 0.1470 0.1400
24.083593 0.1340 0.1310 0.1290 0.1290 0.1290
24.171000 0.1310 0.1320 0.1400 0.1480 0.1570
24.258593 0.1680 0.1840 0.2000 0.2210 0.2460
24.346000 0.2580 0.2810 0.3040 0.3260 0.3490
24.433593 0.3680 0.3980 0.4160 0.4270 0.4320
24.521000 0.4710 0.4940 0.5140 0.5300 0.5470
24.608593 0.5600 0.5700 0.5900 0.5970 0.6090
24.696000 0.6180 0.6310 0.6470 0.6500 0.6570
24.783593 0.6660 0.6770 0.6790 0.6860 0.6950
24.871000 0.6980 0.7030 0.7070 0.7120 0.7140
24.958593 0.7160 0.7180 0.7210 0.7250 0.7250
25.046000 0.7280 0.7320 0.7340 0.7340 0.7340
25.133593 0.7340 0.7340 0.7320 0.7320 0.7300
25.221000 0.7260 0.7210 0.7180 0.7140 0.7100
25.308593 0.7090 0.7050 0.7000 0.6980 0.6950
25.396000 0.6800 0.6710 0.6660 0.6610 0.6570
25.483593 0.6450 0.6310 0.6170 0.6060 0.5950
25.571000 0.5790 0.5620 0.5490 0.5390 0.5260
25.658593 0.5080 0.4890 0.4690 0.4500 0.4320
25.746000 0.4110 0.3970 0.3750 0.3590 0.3450
25.833593 0.3190 0.3010 0.2870 0.2710 0.2510
25.921000 0.2350 0.2250 0.2050 0.1930 0.1710
26.008593 0.1630 0.1560 0.1480 0.1380 0.1320
26.096000 0.1270 0.1200 0.1170 0.1110 0.1090
26.183593 0.1080 0.1080 0.1080 0.1090 0.1200
26.271000 0.1320 0.1400 0.1520 0.1660 0.1800
26.358593 0.1980 0.2100 0.2260 0.2410 0.2580
26.446000 0.2800 0.2890 0.3170 0.3430 0.3450
26.533593 0.3720 0.3930 0.4070 0.4250 0.4450
26.621000 0.4590 0.4710 0.4870 0.5000 0.5150
26.708593 0.5300 0.5470 0.5540 0.5690 0.5780
26.796000 0.5880 0.6010 0.6170 0.6270 0.6380
26.883593 0.6480 0.6500 0.6560 0.6660 0.6730
26.972000 0.6790 0.6800 0.6840 0.6870 0.6910
27.059593 0.6950 0.6980 0.7000 0.7020 0.7050
27.147000 0.7100 0.7120 0.7140 0.7160 0.7180
27.234593 0.7180 0.7180 0.7180 0.7180 0.7180
27.322000 0.7180 0.7180 0.7180 0.7140 0.7120
27.409593 0.7070 0.7030 0.7020 0.7020 0.6980
27.497000 0.6950 0.6890 0.6820 0.6770 0.6680
27.584593 0.6630 0.6500 0.6480 0.6360 0.6270
27.672000 0.6170 0.6080 0.6010 0.5950 0.5810
27.759593 0.5740 0.5600 0.5490 0.5370 0.5240
27.847000 0.5100 0.4980 0.4820 0.4660 0.4500
27.934593 0.4360 0.4210 0.4040 0.3950 0.3810
28.022000 0.3670 0.3490 0.3360 0.3240 0.3100
28.109593 0.2990 0.2890 0.2740 0.2640 0.2510
28.197000 0.2480 0.2370 0.2250 0.2210 0.2120
28.284593 0.2090 0.2030 0.2000 0.1980 0.1960
28.372000 0.1950 0.1950 0.1930 0.1930 0.1930
28.459593 0.1950 0.1950 0.1960 0.1980 0.2020
28.547000 0.2030 0.2120 0.2190 0.2260 0.2350
28.634593 0.2410 0.2500 0.2530 0.2570 0.2620
28.722000 0.2710 0.2780 0.2870 0.2970 0.2990
28.809593 0.3080 0.3170 0.3220 0.3280 0.3360
28.897000 0.3450 0.3510 0.3590 0.3650 0.3670
28.984593 0.3680 0.3700 0.3700 0.3700 0.3700
29.072000 0.3700 0.3680 0.3650 0.3650 0.3630
29.159593 0.3590 0.3560 0.3510 0.3470 0.3360
29.247000 0.3280 0.3200 0.3170 0.3030 0.2990
29.334593 0.2900 0.2800 0.2710 0.2550 0.2460
29.422000 0.2350 0.2280 0.2250 0.2180 0.2030
29.509593 0.1980 0.1960 0.1860 0.1800 0.1730
29.597000 0.1700 0.1680 0.1660 0.1640 0.1640
29.684593 0.1660 0.1660 0.1680 0.1700 0.1730
29.772000 0.1750 0.1790 0.1890 0.2000 0.2070
29.859593 0.2160 0.2250 0.2350 0.2500 0.2550
29.947000 0.2690 0.2830 0.2990 0.3150 0.3330
30.034593 0.3510 0.3650 0.3790 0.3950 0.4000
30.123000 0.4160 0.4250 0.4450 0.4500 0.4620
30.210593 0.4840 0.5000 0.5050 0.5190 0.5300
30.298000 0.5370 0.5470 0.5510 0.5600 0.5740
30.385593 0.5970 0.5990 0.6110 0.6220 0.6250
30.473000 0.6310 0.6400 0.6470 0.6540 0.6630
30.560593 0.6750 0.6800 0.6840 0.6960 0.7090
30.648000 0.7140 0.7160 0.7190 0.7210 0.7230
30.735593 0.7250 0.7260 0.7320 0.7370 0.7410
30.823000 0.7420 0.7440 0.7460 0.7460 0.7480
30.910593 0.7500 0.7500 0.7500 0.7510 0.7510
30.998000 0.7550 0.7580 0.7580 0.7600 0.7620
31.085593 0.7620 0.7640 0.7650 0.7650 0.7650
31.173000 0.7650 0.7650 0.7650 0.7650 0.7650
31.260593 0.7650 0.7640 0.7640 0.7640 0.7640
31.348000 0.7640 0.7640 0.7620 0.7620 0.7600
31.435593 0.7600 0.7580 0.7570 0.7550 0.7530
31.523000 0.7510 0.7510 0.7500 0.7500 0.7500
31.610593 0.7500 0.7500 0.7480 0.7480 0.7480
31.698000 0.7460 0.7460 0.7420 0.7390 0.7390
31.785593 0.7370 0.7370 0.7370 0.7350 0.7350
31.873000 0.7340 0.7340 0.7340 0.7340 0.7340
31.960593 0.7350 0.7350 0.7370 0.7370 0.7370
32.048000 0.7350 0.7350 0.7350 0.7370 0.7370
32.135593 0.7390 0.7390 0.7390 0.7420 0.7420
32.223000 0.7440 0.7440 0.7460 0.7460 0.7480
32.310593 0.7500 0.7500 0.7510 0.7510 0.7530
32.398000 0.7530 0.7550 0.7570 0.7580 0.7600
32.485593 0.7620 0.7640 0.7650 0.7670 0.7690
32.573000 0.7710 0.7730 0.7730 0.7740 0.7760
32.660593 0.7800 0.7800 0.7810 0.7810 0.7850
32.748000 0.7890 0.7900 0.7900 0.7920 0.7940
32.835593 0.7940 0.7960 0.7960 0.7970 0.7970
32.923000 0.7990 0.7990 0.7990 0.7990 0.7990
33.010593 0.7990 0.7970 0.7970 0.7970 0.7960
33.098000 0.7940 0.7920 0.7920 0.7900 0.7890
33.185593 0.7890 0.7900 0.7920 0.7920 0.7940
33.274000 0.7960 0.7960 0.7970 0.7990 0.8010
33.361593 0.8010 0.8010 0.7990 0.7990 0.7990
33.449000 0.7970 0.7970 0.7970 0.7990 0.8030
33.536593 0.8040 0.8040 0.8030 0.8010 0.7990
33.624000 0.7990 0.7970 0.7970 0.7960 0.7940
33.711593 0.7920 0.7920 0.7920 0.7920 0.7920
33.799000 0.7920 0.7900 0.7900 0.7870 0.7850
33.886593 0.7850 0.7850 0.7870 0.7870 0.7870
33.974000 0.7830 0.7810 0.7800 0.7760 0.7730
34.061593 0.7730 0.7690 0.7670 0.7670 0.7670
34.149000 0.7650 0.7600 0.7570 0.7550 0.7510
34.236593 0.7510 0.7500 0.7500 0.7500 0.7500
34.324000 0.7500 0.7480 0.7480 0.7480 0.7460
34.411593 0.7410 0.7340 0.7320 0.7320 0.7300
34.499000 0.7260 0.7230 0.7210 0.7190 0.7180
34.586593 0.7140 0.7100 0.7050 0.7020 0.6980
34.674000 0.6960 0.6950 0.6910 0.6860 0.6820
34.761593 0.6790 0.6750 0.6710 0.6680 0.6610
34.849000 0.6520 0.6500 0.6470 0.6430 0.6320
34.936593 0.6270 0.6250 0.6220 0.6180 0.6150
35.024000 0.6090 0.6060 0.5970 0.5950 0.5920
35.111593 0.5860 0.5780 0.5740 0.5720 0.5690
35.199000 0.5650 0.5620 0.5580 0.5540 0.5530
35.286593 0.5510 0.5470 0.5470 0.5420 0.5400
35.374000 0.5370 0.5350 0.5310 0.5300 0.5260
35.461593 0.5240 0.5230 0.5190 0.5170 0.5140
35.549000 0.5080 0.5070 0.5050 0.5050 0.5030
35.636593 0.5030 0.5010 0.5010 0.5010 0.5010
35.724000 0.5010 0.5010 0.5030 0.5030 0.5030
35.811593 0.5050 0.5050 0.5070 0.5070 0.5080
35.899000 0.5100 0.5100 0.5100 0.5100 0.5100
35.986593 0.5120 0.5120 0.5140 0.5150 0.5150
36.074000 0.5150 0.5150 0.5150 0.5150 0.5150
36.161593 0.5150 0.5170 0.5170 0.5150 0.5150
36.249000 0.5150 0.5150 0.5150 0.5150 0.5150
36.336593 0.5150 0.5150 0.5150 0.5150 0.5150
36.425000 0.5150 0.5150 0.5150 0.5150 0.5170
36.512593 0.5190 0.5210 0.5230 0.5230 0.5240
36.600000 0.5240 0.5240 0.5230 0.5210 0.5210
36.687593 0.5210 0.5210 0.5210 0.5210 0.5210
36.775000 0.5210 0.5210 0.5210 0.5210 0.5230
36.862593 0.5240 0.5240 0.5240 0.5260 0.5260
36.950000 0.5260 0.5280 0.5280 0.5280 0.5280
37.037593 0.5280 0.5260 0.5260 0.5260 0.5260
37.125000 0.5260 0.5240 0.5240 0.5260 0.5260
37.212593 0.5260 0.5260 0.5240 0.5240 0.5240
37.300000 0.5240 0.5240 0.5260 0.5280 0.5280
37.387593 0.5280 0.5280 0.5280 0.5280 0.5280
37.475000 0.5280 0.5300 0.5300 0.5310 0.5310
37.562593 0.5310 0.5330 0.5350 0.5350 0.5370
37.650000 0.5370 0.5390 0.5390 0.5390 0.5390
37.737593 0.5390 0.5390 0.5390 0.5370 0.5370
37.825000 0.5350 0.5330 0.5330 0.5330 0.5310
37.912593 0.5310 0.5310 0.5310 0.5310 0.5310
38.000000 0.5300
##END=
