##TITLE=2,3-DICHLOROPROPENE
##JCAMP-DX=4.24
##DATA TYPE=INFRARED SPECTRUM
##CLASS=COBLENTZ
##ORIGIN=W.T. BOLLETER
##OWNER=COBLENTZ SOCIETY
Collection (C) 2018 copyright by the U.S. Secretary of Commerce
on behalf of the United States of America. All rights reserved.
##DATE=Not specified, most likely prior to 1970
##NAMES=2,3-dichloro-1-propene
##CAS REGISTRY NO=78-88-6
##MOLFORM=C3 H4 Cl2
##SOURCE REFERENCE=COBLENTZ NO. 4489
##$NIST SOURCE=COBLENTZ
##$NIST IMAGE=cob4489
##SPECTROMETER/DATA SYSTEM=Not specified, most likely a prism, grating, or hybrid spectrometer.
##PATH LENGTH=0.0025 CM
##SAMPLING PROCEDURE=TRANSMISSION
##RESOLUTION=4
##DATA PROCESSING=DIGITIZED BY NIST FROM HARD COPY
##XUNITS=MICROMETERS
##YUNITS=TRANSMITTANCE
##XFACTOR=1.000000
##YFACTOR=1
##DELTAX=000.017480
##FIRSTX=14.507
##LASTX=37.9999
##FIRSTY=0.024
##MAXX=37.9999
##MINX=14.507
##MAXY=0.973
##MINY=0.024
##NPOINTS=1345
##XYDATA=(X++(Y..Y))
14.507000 0.0240 0.0240 0.0240 0.0260 0.0260
14.594465 0.0280 0.0280 0.0280 0.0280 0.0280
14.682000 0.0280 0.0280 0.0280 0.0280 0.0280
14.769465 0.0280 0.0300 0.0300 0.0300 0.0300
14.857000 0.0320 0.0320 0.0330 0.0350 0.0370
14.944465 0.0390 0.0440 0.0480 0.0510 0.0550
15.031000 0.0580 0.0600 0.0620 0.0670 0.0690
15.118465 0.0720 0.0740 0.0780 0.0780 0.0760
15.206000 0.0740 0.0690 0.0670 0.0670 0.0650
15.293465 0.0650 0.0640 0.0600 0.0560 0.0550
15.381000 0.0550 0.0490 0.0460 0.0460 0.0440
15.468465 0.0420 0.0390 0.0370 0.0350 0.0330
15.556000 0.0320 0.0320 0.0300 0.0300 0.0300
15.643465 0.0300 0.0300 0.0280 0.0280 0.0280
15.731000 0.0280 0.0280 0.0280 0.0280 0.0280
15.818465 0.0280 0.0280 0.0300 0.0300 0.0320
15.905000 0.0320 0.0330 0.0350 0.0370 0.0400
15.992465 0.0460 0.0490 0.0550 0.0620 0.0670
16.080000 0.0780 0.0970 0.1120 0.1200 0.1260
16.167465 0.1400 0.1580 0.1740 0.1930 0.2060
16.255000 0.2180 0.2340 0.2540 0.2770 0.2970
16.342465 0.3090 0.3230 0.3500 0.3660 0.3770
16.430000 0.3870 0.3980 0.4120 0.4230 0.4340
16.517465 0.4370 0.4510 0.4670 0.4780 0.4870
16.605000 0.4920 0.5000 0.5030 0.5100 0.5170
16.692465 0.5210 0.5300 0.5370 0.5480 0.5510
16.779000 0.5550 0.5650 0.5740 0.5850 0.5970
16.866465 0.6010 0.6130 0.6260 0.6310 0.6400
16.954000 0.6470 0.6540 0.6610 0.6760 0.6830
17.041465 0.6880 0.6950 0.7010 0.7040 0.7060
17.129000 0.7080 0.7080 0.7110 0.7110 0.7130
17.216465 0.7130 0.7130 0.7130 0.7130 0.7130
17.304000 0.7110 0.7110 0.7090 0.7080 0.7060
17.391465 0.7040 0.7020 0.7020 0.7020 0.7040
17.479000 0.7060 0.7090 0.7130 0.7180 0.7220
17.566465 0.7240 0.7270 0.7310 0.7330 0.7400
17.653000 0.7470 0.7500 0.7520 0.7650 0.7700
17.740465 0.7740 0.7750 0.7820 0.7860 0.7880
17.828000 0.7900 0.7910 0.7950 0.7980 0.8000
17.915465 0.8020 0.8040 0.8040 0.8060 0.8070
18.003000 0.8090 0.8090 0.8110 0.8110 0.8130
18.090465 0.8140 0.8160 0.8180 0.8200 0.8200
18.178000 0.8180 0.8180 0.8180 0.8180 0.8200
18.265465 0.8200 0.8180 0.8180 0.8160 0.8160
18.353000 0.8140 0.8130 0.8090 0.8040 0.8020
18.440465 0.8000 0.7970 0.7930 0.7880 0.7820
18.527000 0.7770 0.7720 0.7650 0.7540 0.7490
18.614465 0.7400 0.7310 0.7220 0.7170 0.7020
18.702000 0.6880 0.6760 0.6700 0.6650 0.6540
18.789465 0.6470 0.6290 0.6150 0.5970 0.5800
18.877000 0.5690 0.5550 0.5390 0.5280 0.5160
18.964465 0.5030 0.4890 0.4750 0.4590 0.4430
19.052000 0.4270 0.4090 0.3890 0.3680 0.3460
19.139465 0.3360 0.3250 0.3000 0.2750 0.2470
19.227000 0.2220 0.2010 0.1860 0.1700 0.1510
19.314465 0.1280 0.1100 0.1010 0.0810 0.0710
19.401000 0.0620 0.0580 0.0530 0.0490 0.0490
19.488465 0.0480 0.0480 0.0490 0.0510 0.0530
19.576000 0.0560 0.0600 0.0640 0.0740 0.0760
19.663465 0.0940 0.1150 0.1220 0.1370 0.1540
19.751000 0.1770 0.1950 0.2170 0.2450 0.2700
19.838465 0.2970 0.3200 0.3660 0.3890 0.4110
19.926000 0.4300 0.4500 0.4690 0.4870 0.5050
20.013465 0.5230 0.5390 0.5550 0.5690 0.5830
20.101000 0.5960 0.6080 0.6240 0.6380 0.6530
20.188465 0.6600 0.6760 0.6850 0.6970 0.7010
20.275000 0.7090 0.7220 0.7290 0.7340 0.7410
20.362465 0.7470 0.7500 0.7560 0.7610 0.7650
20.450000 0.7700 0.7740 0.7750 0.7790 0.7820
20.537465 0.7880 0.7900 0.7910 0.7970 0.7980
20.625000 0.7980 0.8000 0.8040 0.8060 0.8070
20.712465 0.8090 0.8090 0.8130 0.8140 0.8140
20.800000 0.8160 0.8160 0.8160 0.8160 0.8160
20.887465 0.8160 0.8160 0.8180 0.8180 0.8180
20.975000 0.8180 0.8200 0.8200 0.8200 0.8200
21.062465 0.8180 0.8180 0.8180 0.8180 0.8160
21.149000 0.8160 0.8140 0.8140 0.8130 0.8130
21.236465 0.8130 0.8130 0.8140 0.8140 0.8130
21.324000 0.8130 0.8130 0.8110 0.8110 0.8090
21.411465 0.8070 0.8070 0.8070 0.8040 0.8040
21.499000 0.8020 0.8000 0.7980 0.7970 0.7950
21.586465 0.7930 0.7930 0.7910 0.7900 0.7900
21.674000 0.7880 0.7840 0.7840 0.7820 0.7810
21.761465 0.7810 0.7790 0.7770 0.7750 0.7740
21.849000 0.7720 0.7700 0.7700 0.7680 0.7680
21.936465 0.7660 0.7650 0.7650 0.7630 0.7630
22.023000 0.7610 0.7590 0.7590 0.7580 0.7580
22.110465 0.7580 0.7580 0.7560 0.7560 0.7560
22.198000 0.7560 0.7560 0.7560 0.7560 0.7560
22.285465 0.7580 0.7580 0.7580 0.7580 0.7590
22.373000 0.7590 0.7610 0.7610 0.7610 0.7610
22.460465 0.7610 0.7610 0.7590 0.7590 0.7580
22.548000 0.7540 0.7540 0.7520 0.7520 0.7520
22.635465 0.7520 0.7520 0.7500 0.7500 0.7490
22.723000 0.7430 0.7410 0.7400 0.7400 0.7380
22.810465 0.7360 0.7340 0.7310 0.7270 0.7200
22.897000 0.7170 0.7130 0.7110 0.7040 0.7040
22.984465 0.7020 0.6970 0.6850 0.6790 0.6760
23.072000 0.6700 0.6670 0.6630 0.6600 0.6530
23.159465 0.6470 0.6380 0.6310 0.6220 0.6150
23.247000 0.6030 0.5970 0.5850 0.5710 0.5620
23.334465 0.5530 0.5480 0.5390 0.5280 0.5160
23.422000 0.5050 0.4940 0.4850 0.4760 0.4620
23.509465 0.4440 0.4270 0.4160 0.4020 0.3930
23.597000 0.3660 0.3480 0.3340 0.3270 0.3180
23.684465 0.3000 0.2900 0.2740 0.2590 0.2500
23.771000 0.2340 0.2240 0.2040 0.1880 0.1770
23.858465 0.1670 0.1540 0.1470 0.1400 0.1310
23.946000 0.1240 0.1130 0.1100 0.1060 0.1030
24.033465 0.1010 0.0990 0.0970 0.0960 0.0940
24.121000 0.0920 0.0900 0.0900 0.0880 0.0880
24.208465 0.0880 0.0900 0.0920 0.0960 0.0970
24.296000 0.0990 0.1010 0.1040 0.1060 0.1100
24.383465 0.1150 0.1170 0.1220 0.1260 0.1310
24.471000 0.1370 0.1470 0.1560 0.1720 0.1810
24.558465 0.1880 0.1990 0.2090 0.2180 0.2290
24.645000 0.2450 0.2500 0.2590 0.2750 0.2880
24.732465 0.3000 0.3130 0.3160 0.3230 0.3480
24.820000 0.3610 0.3730 0.3820 0.4090 0.4160
24.907465 0.4270 0.4340 0.4390 0.4460 0.4550
24.995000 0.4640 0.4750 0.4850 0.4920 0.5000
25.082465 0.5010 0.5080 0.5140 0.5190 0.5230
25.170000 0.5280 0.5320 0.5330 0.5400 0.5460
25.257465 0.5480 0.5490 0.5510 0.5510 0.5530
25.345000 0.5550 0.5550 0.5550 0.5530 0.5530
25.432465 0.5530 0.5510 0.5480 0.5420 0.5350
25.519000 0.5260 0.5190 0.5140 0.5010 0.4960
25.606465 0.4820 0.4730 0.4620 0.4510 0.4440
25.694000 0.4230 0.4030 0.3950 0.3790 0.3660
25.781465 0.3500 0.3380 0.3320 0.3270 0.3160
25.869000 0.3070 0.3000 0.2980 0.2950 0.2930
25.956465 0.2910 0.2900 0.2930 0.2970 0.3020
26.044000 0.3060 0.3090 0.3160 0.3290 0.3500
26.131465 0.3620 0.3750 0.3860 0.4000 0.4070
26.219000 0.4250 0.4370 0.4500 0.4620 0.4760
26.306465 0.4940 0.5010 0.5100 0.5170 0.5240
26.393000 0.5320 0.5460 0.5530 0.5580 0.5670
26.480465 0.5710 0.5740 0.5780 0.5800 0.5800
26.568000 0.5810 0.5850 0.5870 0.5880 0.5900
26.655465 0.5920 0.5920 0.5920 0.5960 0.5960
26.743000 0.5960 0.5960 0.5940 0.5940 0.5920
26.830465 0.5900 0.5880 0.5850 0.5830 0.5800
26.918000 0.5780 0.5740 0.5690 0.5650 0.5620
27.005465 0.5560 0.5490 0.5480 0.5400 0.5350
27.092000 0.5300 0.5260 0.5160 0.5030 0.4940
27.179465 0.4850 0.4780 0.4710 0.4660 0.4530
27.267000 0.4460 0.4320 0.4180 0.4030 0.3960
27.354465 0.3870 0.3770 0.3680 0.3570 0.3450
27.442000 0.3390 0.3320 0.3160 0.2980 0.2820
27.529465 0.2660 0.2520 0.2400 0.2290 0.2130
27.617000 0.1990 0.1830 0.1720 0.1630 0.1530
27.704465 0.1420 0.1330 0.1240 0.1150 0.1040
27.792000 0.1010 0.0940 0.0880 0.0800 0.0760
27.879465 0.0690 0.0650 0.0640 0.0620 0.0620
27.966000 0.0600 0.0580 0.0580 0.0580 0.0580
28.053465 0.0600 0.0620 0.0650 0.0670 0.0740
28.141000 0.0780 0.0880 0.0960 0.1040 0.1150
28.228465 0.1260 0.1380 0.1490 0.1560 0.1770
28.316000 0.1970 0.2110 0.2270 0.2470 0.2650
28.403465 0.2820 0.3000 0.3160 0.3520 0.3710
28.491000 0.3910 0.4110 0.4320 0.4550 0.4750
28.578465 0.4920 0.5010 0.5170 0.5320 0.5480
28.666000 0.5620 0.5760 0.5920 0.6060 0.6170
28.753465 0.6290 0.6420 0.6540 0.6810 0.6950
28.840000 0.7020 0.7130 0.7240 0.7330 0.7410
28.927465 0.7490 0.7560 0.7660 0.7750 0.7820
29.015000 0.7910 0.7980 0.8020 0.8070 0.8130
29.102465 0.8160 0.8200 0.8270 0.8300 0.8390
29.190000 0.8460 0.8520 0.8570 0.8620 0.8660
29.277465 0.8680 0.8710 0.8750 0.8770 0.8770
29.365000 0.8790 0.8800 0.8840 0.8890 0.8950
29.452465 0.8980 0.8980 0.9000 0.9020 0.9030
29.540000 0.9110 0.9110 0.9120 0.9140 0.9160
29.627465 0.9190 0.9230 0.9250 0.9270 0.9270
29.714000 0.9280 0.9300 0.9320 0.9340 0.9350
29.801465 0.9390 0.9410 0.9410 0.9430 0.9440
29.889000 0.9460 0.9460 0.9460 0.9480 0.9480
29.976465 0.9500 0.9500 0.9510 0.9510 0.9530
30.064000 0.9530 0.9510 0.9550 0.9550 0.9570
30.151465 0.9590 0.9590 0.9600 0.9620 0.9620
30.239000 0.9640 0.9640 0.9640 0.9640 0.9660
30.326465 0.9660 0.9670 0.9690 0.9710 0.9710
30.414000 0.9710 0.9710 0.9710 0.9710 0.9710
30.501465 0.9710 0.9730 0.9710 0.9710 0.9690
30.588000 0.9660 0.9660 0.9660 0.9640 0.9640
30.675465 0.9640 0.9640 0.9640 0.9640 0.9640
30.763000 0.9640 0.9640 0.9640 0.9640 0.9640
30.850465 0.9620 0.9600 0.9590 0.9590 0.9570
30.938000 0.9570 0.9570 0.9570 0.9570 0.9570
31.025465 0.9550 0.9530 0.9510 0.9510 0.9510
31.113000 0.9500 0.9500 0.9500 0.9500 0.9480
31.200465 0.9480 0.9480 0.9460 0.9460 0.9460
31.288000 0.9440 0.9440 0.9440 0.9430 0.9430
31.375465 0.9410 0.9390 0.9370 0.9370 0.9370
31.462000 0.9370 0.9350 0.9350 0.9350 0.9350
31.549465 0.9340 0.9340 0.9340 0.9320 0.9320
31.637000 0.9300 0.9300 0.9280 0.9280 0.9280
31.724465 0.9270 0.9250 0.9230 0.9230 0.9230
31.812000 0.9210 0.9210 0.9180 0.9180 0.9180
31.899465 0.9160 0.9160 0.9140 0.9140 0.9120
31.987000 0.9110 0.9110 0.9090 0.9090 0.9090
32.074465 0.9090 0.9090 0.9110 0.9110 0.9110
32.162000 0.9110 0.9090 0.9070 0.9070 0.9070
32.249465 0.9050 0.9050 0.9050 0.9030 0.9030
32.336000 0.9030 0.9030 0.9030 0.9020 0.9020
32.423465 0.9000 0.9000 0.9000 0.9000 0.9000
32.511000 0.9000 0.9000 0.9000 0.9000 0.9000
32.598465 0.8980 0.8980 0.8980 0.8960 0.8960
32.686000 0.8960 0.8960 0.8960 0.8960 0.8960
32.773465 0.8960 0.8960 0.8980 0.8980 0.8980
32.861000 0.8980 0.9000 0.9000 0.9000 0.8980
32.948465 0.8960 0.8960 0.8960 0.8950 0.8950
33.036000 0.8930 0.8930 0.8870 0.8870 0.8800
33.123465 0.8710 0.8680 0.8660 0.8620 0.8590
33.210000 0.8550 0.8520 0.8500 0.8480 0.8480
33.297465 0.8480 0.8500 0.8520 0.8540 0.8540
33.385000 0.8540 0.8570 0.8590 0.8590 0.8590
33.472465 0.8610 0.8610 0.8620 0.8640 0.8660
33.560000 0.8680 0.8680 0.8680 0.8660 0.8640
33.647465 0.8640 0.8620 0.8620 0.8620 0.8610
33.735000 0.8610 0.8610 0.8610 0.8590 0.8590
33.822465 0.8590 0.8590 0.8590 0.8590 0.8570
33.910000 0.8570 0.8570 0.8590 0.8590 0.8590
33.997465 0.8590 0.8570 0.8570 0.8550 0.8570
34.084000 0.8590 0.8590 0.8570 0.8570 0.8550
34.171465 0.8520 0.8520 0.8500 0.8480 0.8480
34.259000 0.8460 0.8460 0.8460 0.8460 0.8460
34.346465 0.8460 0.8460 0.8460 0.8460 0.8450
34.434000 0.8450 0.8450 0.8430 0.8390 0.8360
34.521465 0.8340 0.8320 0.8290 0.8270 0.8250
34.609000 0.8230 0.8230 0.8200 0.8200 0.8180
34.696465 0.8180 0.8140 0.8130 0.8090 0.8090
34.784000 0.8070 0.8060 0.8060 0.8040 0.8040
34.871465 0.8040 0.8040 0.8040 0.8040 0.8020
34.958000 0.8020 0.8020 0.8020 0.8000 0.7980
35.045465 0.7970 0.7930 0.7880 0.7860 0.7840
35.133000 0.7840 0.7840 0.7840 0.7840 0.7840
35.220465 0.7840 0.7820 0.7820 0.7810 0.7790
35.308000 0.7740 0.7720 0.7700 0.7680 0.7660
35.395465 0.7650 0.7630 0.7610 0.7590 0.7580
35.483000 0.7560 0.7540 0.7520 0.7500 0.7490
35.570465 0.7470 0.7470 0.7450 0.7430 0.7380
35.658000 0.7360 0.7360 0.7330 0.7310 0.7310
35.745465 0.7290 0.7290 0.7250 0.7240 0.7220
35.832000 0.7200 0.7170 0.7170 0.7090 0.7080
35.919465 0.7060 0.7040 0.7020 0.7010 0.6990
36.007000 0.6970 0.6950 0.6920 0.6900 0.6900
36.094465 0.6880 0.6880 0.6860 0.6810 0.6770
36.182000 0.6770 0.6770 0.6760 0.6760 0.6720
36.269465 0.6720 0.6700 0.6690 0.6690 0.6690
36.357000 0.6670 0.6670 0.6670 0.6650 0.6650
36.444465 0.6650 0.6630 0.6630 0.6610 0.6600
36.532000 0.6600 0.6580 0.6560 0.6560 0.6560
36.619465 0.6530 0.6510 0.6510 0.6490 0.6490
36.706000 0.6470 0.6420 0.6400 0.6380 0.6350
36.793465 0.6330 0.6310 0.6290 0.6280 0.6260
36.881000 0.6260 0.6260 0.6240 0.6240 0.6220
36.968465 0.6220 0.6220 0.6200 0.6190 0.6150
37.056000 0.6130 0.6120 0.6130 0.6190 0.6220
37.143465 0.6200 0.6170 0.6120 0.6100 0.6100
37.231000 0.6080 0.6060 0.6060 0.6060 0.6040
37.318465 0.6040 0.6040 0.6030 0.6030 0.6030
37.406000 0.6010 0.6010 0.6010 0.5990 0.5990
37.493465 0.5990 0.5990 0.5970 0.5970 0.5970
37.580000 0.5970 0.5970 0.5970 0.5970 0.5970
37.667465 0.5970 0.5970 0.5970 0.5970 0.5970
37.755000 0.5970 0.5970 0.5970 0.5970 0.5970
37.842465 0.5970 0.5970 0.5970 0.5970 0.5970
37.930000 0.5970 0.5970 0.5990 0.5990 0.5990
##END=
