##TITLE=PROPANOL, 2-METHYL-
##JCAMP-DX=4.24
##DATA TYPE=INFRARED SPECTRUM
##CLASS=COBLENTZ III
##ORIGIN=DOW CHEMICAL COMPANY
##OWNER=COBLENTZ SOCIETY
Collection (C) 2018 copyright by the U.S. Secretary of Commerce
on behalf of the United States of America. All rights reserved.
##DATE=1965/10/12
##NAMES=2-methyl-1-propanol
ISOBUTANOL
##CAS REGISTRY NO=78-83-1
##MOLFORM=C4 H10 O
##SOURCE REFERENCE=COBLENTZ NO. 10645
##$NIST SOURCE=COBLENTZ
##$NIST IMAGE=cob10645
##SPECTROMETER/DATA SYSTEM=DOW KBr FOREPRISM-GRATING
##INSTRUMENT PARAMETERS=BLAZED AT 3.5, 12.0, 20.0 MICRON, CHANGED AT 5.0, 7.5, 14.9 MICRON
##STATE=SOLUTION (0.5% IN CCl4 FOR 3800-1333, 0.5% IN CS2 FOR 1333-450 CM^-^1) VS SOLVENT
##PATH LENGTH=0.054, 0.051 CM
$$ SEE SPECTRUM NO. 10144 FOR "SOLUTION (10%)" STATE AND 10644 FOR "VAPOR" STATE
##SAMPLING PROCEDURE=TRANSMISSION
##RESOLUTION=4
##DATA PROCESSING=DIGITIZED BY NIST FROM HARD COPY (FROM TWO SEGMENTS)
##XUNITS=1/CM
##YUNITS=TRANSMITTANCE
##XFACTOR=1.000000
##YFACTOR=1
##DELTAX=0.945181
##FIRSTX=391.304
##LASTX=3801.52
##FIRSTY=0.951
##MAXX=3801.52
##MINX=391.304
##MAXY=1.039
##MINY=0.168009
##NPOINTS=3609
##XYDATA=(X++(Y..Y))
391.304000 0.9510 0.9510 0.9530 0.9530 0.9530
396.029903 0.9530 0.9540 0.9540 0.9540 0.9560
400.755807 0.9560 0.9570 0.9570 0.9580 0.9580
405.481710 0.9580 0.9580 0.9580 0.9600 0.9600
410.207613 0.9610 0.9630 0.9630 0.9630 0.9630
414.933516 0.9630 0.9640 0.9640 0.9640 0.9640
419.659420 0.9640 0.9640 0.9640 0.9640 0.9640
424.385323 0.9640 0.9640 0.9640 0.9640 0.9640
429.111226 0.9640 0.9640 0.9640 0.9640 0.9640
433.837129 0.9640 0.9640 0.9640 0.9640 0.9640
438.563033 0.9640 0.9640 0.9640 0.9630 0.9630
443.288936 0.9610 0.9610 0.9610 0.9600 0.9600
448.014839 0.9580 0.9570 0.9570 0.9560 0.9560
452.740742 0.9540 0.9540 0.9530 0.9530 0.9510
457.466646 0.9510 0.9510 0.9500 0.9500 0.9500
462.192549 0.9500 0.9500 0.9500 0.9500 0.9500
466.918452 0.9500 0.9500 0.9480 0.9480 0.9480
471.644355 0.9480 0.9470 0.9450 0.9440 0.9410
476.370259 0.9390 0.9380 0.9380 0.9360 0.9320
481.096162 0.9310 0.9260 0.9200 0.9170 0.9090
485.822065 0.9060 0.9060 0.9070 0.9100 0.9190
490.547969 0.9220 0.9230 0.9280 0.9340 0.9380
495.273872 0.9390 0.9410 0.9420 0.9420 0.9450
499.999775 0.9470 0.9480 0.9480 0.9500 0.9500
504.725678 0.9510 0.9510 0.9510 0.9500 0.9480
509.451582 0.9480 0.9480 0.9480 0.9480 0.9480
514.177485 0.9500 0.9500 0.9500 0.9500 0.9500
518.903388 0.9500 0.9510 0.9510 0.9510 0.9500
523.629291 0.9500 0.9500 0.9510 0.9510 0.9510
528.355195 0.9510 0.9510 0.9530 0.9530 0.9530
533.081098 0.9530 0.9540 0.9540 0.9540 0.9540
537.807001 0.9560 0.9560 0.9560 0.9560 0.9560
542.532904 0.9560 0.9560 0.9570 0.9570 0.9580
547.258808 0.9580 0.9580 0.9600 0.9600 0.9600
551.984711 0.9600 0.9600 0.9600 0.9610 0.9610
556.710614 0.9610 0.9610 0.9630 0.9630 0.9640
561.436517 0.9660 0.9670 0.9670 0.9690 0.9690
566.162421 0.9690 0.9690 0.9690 0.9670 0.9670
570.888324 0.9670 0.9670 0.9670 0.9670 0.9670
575.614227 0.9670 0.9670 0.9670 0.9690 0.9690
580.340130 0.9690 0.9690 0.9690 0.9690 0.9690
585.066034 0.9690 0.9690 0.9690 0.9690 0.9670
589.791937 0.9670 0.9670 0.9670 0.9670 0.9690
594.517840 0.9690 0.9690 0.9700 0.9700 0.9720
599.243744 0.9730 0.9750 0.9750 0.9750 0.9760
603.969647 0.9760 0.9760 0.9780 0.9790 0.9790
608.695550 0.9800 0.9820 0.9820 0.9820 0.9820
613.421453 0.9820 0.9820 0.9830 0.9830 0.9850
618.147357 0.9850 0.9850 0.9850 0.9850 0.9850
622.873260 0.9850 0.9850 0.9860 0.9860 0.9860
627.599163 0.9860 0.9860 0.9880 0.9890 0.9890
632.325066 0.9890 0.9890 0.9910 0.9910 0.9890
637.050970 0.9890 0.9890 0.9890 0.9890 0.9890
641.776873 0.9890 0.9890 0.9890 0.9910 0.9910
646.502776 0.9910 0.9910 0.9910 0.9920 0.9940
651.228679 0.9940 0.9940 0.9940 0.9950 0.9950
655.954583 0.9950 0.9970 0.9980 0.9980 0.9980
660.680486 0.9980 1.0000 1.0000 1.0000 1.0000
665.406389 1.0000 1.0010 1.0010 1.0020 1.0020
670.132292 1.0040 1.0040 1.0050 1.0050 1.0070
674.858196 1.0070 1.0080 1.0100 1.0100 1.0100
679.584099 1.0110 1.0130 1.0140 1.0140 1.0160
684.310002 1.0170 1.0190 1.0190 1.0190 1.0200
689.035906 1.0200 1.0200 1.0200 1.0200 1.0200
693.761809 1.0200 1.0200 1.0210 1.0210 1.0210
698.487712 1.0210 1.0210 1.0210 1.0200 1.0200
703.213615 1.0200 1.0200 1.0200 1.0200 1.0200
707.939519 1.0200 1.0200 1.0200 1.0210 1.0210
712.665422 1.0210 1.0210 1.0230 1.0240 1.0260
717.391325 1.0260 1.0260 1.0240 1.0240 1.0240
722.117228 1.0230 1.0230 1.0230 1.0230 1.0230
726.843132 1.0210 1.0210 1.0210 1.0210 1.0210
731.569035 1.0210 1.0210 1.0210 1.0210 1.0210
736.294938 1.0230 1.0230 1.0240 1.0240 1.0240
741.020841 1.0240 1.0260 1.0260 1.0260 1.0260
745.746745 1.0260 1.0260 1.0260 1.0270 1.0270
750.472648 1.0270 1.0270 1.0270 1.0270 1.0270
755.198551 1.0290 1.0290 1.0300 1.0300 1.0320
759.924454 1.0330 1.0330 1.0350 1.0360 1.0380
764.650358 1.0380 1.0360 1.0350 1.0330 1.0330
769.376261 1.0320 1.0290 1.0290 1.0270 1.0270
774.102164 1.0270 1.0270 1.0270 1.0270 1.0270
778.828068 1.0290 1.0290 1.0300 1.0320 1.0330
783.553971 1.0350 1.0380 1.0390 1.0380 1.0360
788.279874 1.0350 1.0320 1.0270 1.0240 1.0160
793.005777 1.0140 1.0110 1.0080 1.0080 1.0050
797.731681 1.0040 1.0020 1.0010 1.0010 1.0000
802.457584 0.9980 0.9970 0.9920 0.9910 0.9890
807.183487 0.9860 0.9830 0.9800 0.9730 0.9610
811.909390 0.9510 0.9440 0.9410 0.9390 0.9390
816.635294 0.9420 0.9500 0.9600 0.9690 0.9730
821.361197 0.9820 0.9830 0.9850 0.9880 0.9890
826.087100 0.9910 0.9940 0.9950 0.9950 0.9970
830.813003 0.9970 0.9970 0.9970 0.9970 0.9950
835.538907 0.9950 0.9950 0.9950 0.9940 0.9920
840.264810 0.9910 0.9910 0.9890 0.9880 0.9880
844.990713 0.9850 0.9850 0.9830 0.9830 0.9820
849.716616 0.9800 0.9790 0.9790 0.9780 0.9780
854.442520 0.9780 0.9780 0.9780 0.9760 0.9760
859.168423 0.9760 0.9760 0.9750 0.9750 0.9750
863.894326 0.9750 0.9750 0.9750 0.9750 0.9750
868.620229 0.9730 0.9730 0.9720 0.9720 0.9720
873.346133 0.9720 0.9720 0.9700 0.9700 0.9690
878.072036 0.9670 0.9660 0.9660 0.9640 0.9630
882.797939 0.9600 0.9580 0.9560 0.9500 0.9450
887.523843 0.9420 0.9390 0.9350 0.9231 0.9200
892.249746 0.9190 0.9170 0.9190 0.9200 0.9220
896.975649 0.9250 0.9280 0.9290 0.9360 0.9380
901.701552 0.9390 0.9420 0.9440 0.9470 0.9480
906.427456 0.9500 0.9510 0.9530 0.9540 0.9560
911.153359 0.9570 0.9570 0.9560 0.9540 0.9500
915.879262 0.9480 0.9470 0.9450 0.9450 0.9440
920.605165 0.9420 0.9410 0.9350 0.9350 0.9290
925.331069 0.9260 0.9190 0.9090 0.9040 0.8941
930.056972 0.8870 0.8750 0.8600 0.8570 0.8560
934.782875 0.8570 0.8590 0.8660 0.8730 0.8760
939.508778 0.8880 0.9030 0.9190 0.9200 0.9250
944.234682 0.9260 0.9290 0.9310 0.9290 0.9290
948.960585 0.9280 0.9250 0.9220 0.9170 0.9160
953.686488 0.9070 0.9000 0.8940 0.8910 0.8920
958.412391 0.8980 0.9030 0.9100 0.9230 0.9250
963.138295 0.9260 0.9260 0.9260 0.9260 0.9260
967.864198 0.9250 0.9250 0.9230 0.9220 0.9200
972.590101 0.9170 0.9160 0.9140 0.9120 0.9090
977.316005 0.9060 0.9030 0.9010 0.8950 0.8870
982.041908 0.8780 0.8720 0.8680 0.8501 0.8371
986.767811 0.8240 0.8180 0.8000 0.7840 0.7680
991.493714 0.7460 0.7280 0.7250 0.7240 0.7250
996.219618 0.7330 0.7400 0.7460 0.7750 0.7900
1000.945521 0.8189 0.8340 0.8350 0.8350 0.8370
1005.671424 0.8370 0.8370 0.8350 0.8320 0.8280
1010.397327 0.8160 0.8070 0.8000 0.7990 0.7811
1015.123231 0.7720 0.7620 0.7470 0.7300 0.7210
1019.849134 0.6592 0.6291 0.5991 0.5652 0.5322
1024.575037 0.4910 0.4510 0.4100 0.3651 0.3341
1029.300940 0.3021 0.2392 0.1703 0.1680 0.1700
1034.026844 0.1780 0.1870 0.2190 0.2430 0.3289
1038.752747 0.3649 0.3969 0.4698 0.5726 0.5740
1043.478650 0.5980 0.6210 0.6650 0.6670 0.6830
1048.204553 0.6990 0.7120 0.7778 0.7800 0.7969
1052.930457 0.8150 0.8310 0.8480 0.8540 0.8570
1057.656360 0.8650 0.8700 0.8750 0.8760 0.8820
1062.382263 0.8850 0.8880 0.8900 0.8910 0.8910
1067.108167 0.8920 0.8920 0.8940 0.8950 0.8950
1071.834070 0.8950 0.8950 0.8950 0.8950 0.8940
1076.559973 0.8920 0.8920 0.8910 0.8900 0.8880
1081.285876 0.8870 0.8850 0.8840 0.8810 0.8790
1086.011780 0.8780 0.8750 0.8730 0.8730 0.8720
1090.737683 0.8720 0.8700 0.8700 0.8700 0.8700
1095.463586 0.8720 0.8720 0.8730 0.8730 0.8750
1100.189489 0.8760 0.8780 0.8790 0.8790 0.8820
1104.915393 0.8840 0.8840 0.8850 0.8850 0.8870
1109.641296 0.8900 0.8910 0.8920 0.8940 0.8950
1114.367199 0.8950 0.8970 0.8970 0.9000 0.9010
1119.093102 0.9030 0.9030 0.9060 0.9060 0.9060
1123.819006 0.9070 0.9070 0.9070 0.9070 0.9070
1128.544909 0.9070 0.9070 0.9090 0.9090 0.9090
1133.270812 0.9100 0.9100 0.9100 0.9100 0.9100
1137.996715 0.9100 0.9100 0.9120 0.9120 0.9120
1142.722619 0.9120 0.9120 0.9120 0.9120 0.9120
1147.448522 0.9120 0.9100 0.9100 0.9100 0.9100
1152.174425 0.9100 0.9100 0.9090 0.9090 0.9060
1156.900328 0.9030 0.9010 0.9000 0.8970 0.8950
1161.626232 0.8940 0.8920 0.8910 0.8910 0.8880
1166.352135 0.8880 0.8870 0.8870 0.8870 0.8870
1171.078038 0.8870 0.8880 0.8880 0.8880 0.8900
1175.803942 0.8910 0.8910 0.8920 0.8950 0.8970
1180.529845 0.8980 0.9010 0.9010 0.9030 0.9030
1185.255748 0.9030 0.9030 0.9030 0.9010 0.9010
1189.981651 0.9000 0.9000 0.8980 0.8970 0.8950
1194.707555 0.8940 0.8920 0.8910 0.8910 0.8900
1199.433458 0.8870 0.8840 0.8810 0.8790 0.8760
1204.159361 0.8750 0.8730 0.8700 0.8680 0.8630
1208.885264 0.8620 0.8570 0.8540 0.8480 0.8460
1213.611168 0.8440 0.8430 0.8400 0.8400 0.8370
1218.337071 0.8370 0.8350 0.8350 0.8350 0.8370
1223.062974 0.8380 0.8400 0.8410 0.8430 0.8440
1227.788877 0.8460 0.8470 0.8480 0.8500 0.8510
1232.514781 0.8530 0.8540 0.8560 0.8570 0.8590
1237.240684 0.8600 0.8630 0.8650 0.8680 0.8690
1241.966587 0.8700 0.8720 0.8730 0.8750 0.8780
1246.692490 0.8790 0.8810 0.8820 0.8820 0.8840
1251.418394 0.8850 0.8850 0.8850 0.8850 0.8850
1256.144297 0.8850 0.8850 0.8850 0.8850 0.8850
1260.870200 0.8850 0.8850 0.8870 0.8870 0.8870
1265.596104 0.8870 0.8880 0.8880 0.8880 0.8900
1270.322007 0.8900 0.8900 0.8910 0.8910 0.8910
1275.047910 0.8920 0.8920 0.8920 0.8940 0.8940
1279.773813 0.8940 0.8920 0.8920 0.8910 0.8910
1284.499717 0.8910 0.8910 0.8910 0.8910 0.8910
1289.225620 0.8910 0.8900 0.8870 0.8850 0.8820
1293.951523 0.8810 0.8790 0.8790 0.8790 0.8780
1298.677426 0.8760 0.8760 0.8760 0.8760 0.8760
1303.403330 0.8750 0.8750 0.8750 0.8750 0.8750
1308.129233 0.8750 0.8750 0.8750 0.8730 0.8730
1312.855136 0.8720 0.8720 0.8700 0.8690 0.8690
1317.581039 0.8680 0.8660 0.8650 0.8650 0.8620
1322.306943 0.8620 0.8620 0.8600 0.8600 0.8590
1327.032846 0.8570 0.8570 0.8570 0.8560 0.8530
1331.758749 0.8470 0.8460 0.8410 0.8380 0.8380
1336.484652 0.8370 0.8370 0.8370 0.8350 0.8350
1341.210556 0.8350 0.8340 0.8340 0.8320 0.8310
1345.936459 0.8310 0.8310 0.8310 0.8290 0.8290
1350.662362 0.8280 0.8280 0.8260 0.8250 0.8250
1355.388266 0.8240 0.8210 0.8180 0.8160 0.8150
1360.114169 0.8000 0.7821 0.7780 0.7720 0.7521
1364.840072 0.7310 0.6950 0.6640 0.6430 0.6420
1369.565975 0.6430 0.6769 0.7059 0.7578 0.7620
1374.291879 0.7630 0.7680 0.7690 0.7710 0.7710
1379.017782 0.7710 0.7660 0.7630 0.7580 0.7470
1383.743685 0.7460 0.7430 0.7430 0.7410 0.7360
1388.469588 0.7340 0.7330 0.7210 0.7140 0.7120
1393.195492 0.7120 0.7140 0.7190 0.7220 0.7270
1397.921395 0.7330 0.7460 0.7809 0.7939 0.7960
1402.647298 0.8130 0.8160 0.8180 0.8260 0.8310
1407.373201 0.8340 0.8350 0.8380 0.8410 0.8470
1412.099105 0.8500 0.8510 0.8510 0.8530 0.8540
1416.825008 0.8560 0.8560 0.8570 0.8570 0.8600
1421.550911 0.8620 0.8620 0.8620 0.8630 0.8630
1426.276814 0.8630 0.8630 0.8630 0.8630 0.8620
1431.002718 0.8620 0.8620 0.8620 0.8620 0.8620
1435.728621 0.8600 0.8600 0.8570 0.8570 0.8540
1440.454524 0.8530 0.8460 0.8430 0.8380 0.8350
1445.180427 0.8280 0.8210 0.8160 0.8021 0.7970
1449.906331 0.7880 0.7870 0.7810 0.7800 0.7710
1454.632234 0.7620 0.7461 0.7330 0.7141 0.7021
1459.358137 0.6870 0.6700 0.6430 0.6420 0.6430
1464.084041 0.6510 0.6520 0.6520 0.6520 0.6510
1468.809944 0.6330 0.6010 0.5640 0.5630 0.5640
1473.535847 0.5790 0.5930 0.6080 0.7086 0.7299
1478.261750 0.7500 0.7910 0.8120 0.8540 0.8560
1482.987654 0.8590 0.8660 0.8730 0.8750 0.8780
1487.713557 0.8820 0.8850 0.8850 0.8900 0.8910
1492.439460 0.8920 0.8940 0.8950 0.8950 0.8970
1497.165363 0.8970 0.8980 0.9000 0.9010 0.9010
1501.891267 0.9010 0.9010 0.9030 0.9040 0.9040
1506.617170 0.9060 0.9060 0.9070 0.9070 0.9070
1511.343073 0.9090 0.9090 0.9090 0.9090 0.9090
1516.068976 0.9100 0.9100 0.9120 0.9130 0.9130
1520.794880 0.9130 0.9140 0.9140 0.9140 0.9140
1525.520783 0.9140 0.9140 0.9140 0.9140 0.9140
1530.246686 0.9140 0.9140 0.9160 0.9160 0.9160
1534.972589 0.9140 0.9140 0.9140 0.9140 0.9140
1539.698493 0.9130 0.9130 0.9130 0.9130 0.9130
1544.424396 0.9130 0.9130 0.9130 0.9130 0.9130
1549.150299 0.9130 0.9130 0.9130 0.9130 0.9130
1553.876203 0.9130 0.9130 0.9130 0.9130 0.9130
1558.602106 0.9130 0.9130 0.9130 0.9130 0.9130
1563.328009 0.9140 0.9140 0.9140 0.9160 0.9160
1568.053912 0.9160 0.9160 0.9160 0.9160 0.9140
1572.779816 0.9140 0.9140 0.9160 0.9160 0.9160
1577.505719 0.9160 0.9160 0.9160 0.9160 0.9160
1582.231622 0.9160 0.9160 0.9160 0.9140 0.9140
1586.957525 0.9140 0.9140 0.9160 0.9160 0.9160
1591.683429 0.9160 0.9160 0.9160 0.9160 0.9160
1596.409332 0.9170 0.9170 0.9170 0.9170 0.9170
1601.135235 0.9170 0.9170 0.9170 0.9170 0.9170
1605.861138 0.9170 0.9170 0.9170 0.9170 0.9170
1610.587042 0.9170 0.9170 0.9170 0.9170 0.9170
1615.312945 0.9170 0.9170 0.9170 0.9170 0.9170
1620.038848 0.9170 0.9170 0.9190 0.9200 0.9200
1624.764751 0.9200 0.9220 0.9220 0.9220 0.9220
1629.490655 0.9220 0.9230 0.9230 0.9230 0.9230
1634.216558 0.9230 0.9250 0.9250 0.9250 0.9250
1638.942461 0.9250 0.9250 0.9260 0.9260 0.9260
1643.668365 0.9260 0.9260 0.9260 0.9260 0.9260
1648.394268 0.9260 0.9280 0.9280 0.9280 0.9280
1653.120171 0.9280 0.9280 0.9280 0.9260 0.9260
1657.846074 0.9260 0.9260 0.9260 0.9260 0.9260
1662.571978 0.9280 0.9280 0.9280 0.9280 0.9280
1667.297881 0.9280 0.9280 0.9280 0.9280 0.9280
1672.023784 0.9290 0.9280 0.9290 0.9290 0.9290
1676.749687 0.9290 0.9290 0.9290 0.9290 0.9290
1681.475591 0.9310 0.9310 0.9290 0.9290 0.9290
1686.201494 0.9280 0.9280 0.9260 0.9260 0.9260
1690.927397 0.9260 0.9260 0.9260 0.9260 0.9260
1695.653300 0.9260 0.9260 0.9260 0.9250 0.9250
1700.379204 0.9250 0.9250 0.9250 0.9250 0.9250
1705.105107 0.9250 0.9250 0.9250 0.9230 0.9230
1709.831010 0.9230 0.9250 0.9250 0.9260 0.9260
1714.556913 0.9260 0.9260 0.9280 0.9280 0.9290
1719.282817 0.9290 0.9290 0.9310 0.9310 0.9310
1724.008720 0.9320 0.9320 0.9320 0.9340 0.9340
1728.734623 0.9340 0.9350 0.9350 0.9350 0.9360
1733.460526 0.9360 0.9360 0.9360 0.9360 0.9360
1738.186430 0.9360 0.9360 0.9380 0.9380 0.9380
1742.912333 0.9380 0.9380 0.9380 0.9380 0.9390
1747.638236 0.9390 0.9390 0.9390 0.9410 0.9410
1752.364140 0.9410 0.9410 0.9410 0.9410 0.9410
1757.090043 0.9410 0.9410 0.9410 0.9410 0.9410
1761.815946 0.9410 0.9410 0.9410 0.9410 0.9410
1766.541849 0.9410 0.9410 0.9420 0.9420 0.9420
1771.267753 0.9420 0.9420 0.9420 0.9420 0.9440
1775.993656 0.9440 0.9440 0.9440 0.9440 0.9440
1780.719559 0.9470 0.9480 0.9480 0.9480 0.9480
1785.445462 0.9500 0.9500 0.9500 0.9500 0.9500
1790.171366 0.9500 0.9500 0.9500 0.9500 0.9510
1794.897269 0.9510 0.9510 0.9500 0.9500 0.9500
1799.623172 0.9510 0.9510 0.9510 0.9510 0.9510
1804.349075 0.9510 0.9510 0.9510 0.9510 0.9510
1809.074979 0.9510 0.9510 0.9530 0.9530 0.9530
1813.800882 0.9530 0.9510 0.9510 0.9510 0.9510
1818.526785 0.9510 0.9510 0.9510 0.9510 0.9530
1823.252688 0.9530 0.9530 0.9530 0.9530 0.9530
1827.978592 0.9530 0.9530 0.9540 0.9540 0.9540
1832.704495 0.9530 0.9530 0.9530 0.9530 0.9530
1837.430398 0.9530 0.9530 0.9530 0.9530 0.9530
1842.156302 0.9530 0.9540 0.9530 0.9530 0.9530
1846.882205 0.9530 0.9540 0.9530 0.9530 0.9530
1851.608108 0.9530 0.9530 0.9510 0.9510 0.9510
1856.334011 0.9510 0.9510 0.9510 0.9510 0.9510
1861.059915 0.9510 0.9510 0.9510 0.9510 0.9500
1865.785818 0.9500 0.9500 0.9500 0.9500 0.9500
1870.511721 0.9500 0.9510 0.9510 0.9510 0.9510
1875.237624 0.9530 0.9530 0.9530 0.9530 0.9530
1879.963528 0.9530 0.9510 0.9510 0.9510 0.9510
1884.689431 0.9510 0.9510 0.9510 0.9510 0.9510
1889.415334 0.9510 0.9500 0.9500 0.9510 0.9510
1894.141237 0.9510 0.9510 0.9510 0.9510 0.9500
1898.867141 0.9500 0.9500 0.9500 0.9500 0.9500
1903.593044 0.9500 0.9500 0.9500 0.9500 0.9500
1908.318947 0.9500 0.9500 0.9500 0.9500 0.9500
1913.044850 0.9500 0.9500 0.9510 0.9510 0.9510
1917.770754 0.9510 0.9500 0.9500 0.9500 0.9500
1922.496657 0.9500 0.9500 0.9500 0.9500 0.9500
1927.222560 0.9500 0.9500 0.9500 0.9500 0.9500
1931.948464 0.9480 0.9480 0.9500 0.9500 0.9500
1936.674367 0.9500 0.9510 0.9510 0.9510 0.9510
1941.400270 0.9500 0.9500 0.9510 0.9510 0.9510
1946.126173 0.9510 0.9510 0.9510 0.9510 0.9510
1950.852077 0.9510 0.9530 0.9530 0.9530 0.9530
1955.577980 0.9530 0.9530 0.9530 0.9530 0.9530
1960.303883 0.9530 0.9530 0.9530 0.9530 0.9530
1965.029786 0.9530 0.9530 0.9530 0.9530 0.9540
1969.755690 0.9530 0.9530 0.9540 0.9540 0.9560
1974.481593 0.9560 0.9560 0.9570 0.9570 0.9570
1979.207496 0.9570 0.9570 0.9570 0.9570 0.9570
1983.933399 0.9570 0.9570 0.9570 0.9580 0.9580
1988.659303 0.9580 0.9570 0.9570 0.9580 0.9600
1993.385206 0.9600 0.9610 0.9610 0.9600 0.9580
1998.111109 0.9570 0.9570 0.9580 0.9580 0.9580
2002.837012 0.9580 0.9580 0.9580 0.9580 0.9580
2007.562916 0.9580 0.9580 0.9580 0.9580 0.9580
2012.288819 0.9590 0.9600 0.9600 0.9600 0.9590
2017.014722 0.9580 0.9580 0.9580 0.9580 0.9580
2021.740625 0.9590 0.9600 0.9600 0.9600 0.9600
2026.466529 0.9600 0.9600 0.9600 0.9600 0.9600
2031.192432 0.9600 0.9600 0.9590 0.9580 0.9580
2035.918335 0.9580 0.9580 0.9580 0.9580 0.9580
2040.644239 0.9580 0.9580 0.9575 0.9570 0.9570
2045.370142 0.9570 0.9570 0.9570 0.9570 0.9570
2050.096045 0.9570 0.9570 0.9565 0.9560 0.9560
2054.821948 0.9560 0.9560 0.9560 0.9565 0.9570
2059.547852 0.9570 0.9570 0.9575 0.9580 0.9590
2064.273755 0.9600 0.9600 0.9600 0.9600 0.9600
2068.999658 0.9600 0.9600 0.9590 0.9580 0.9580
2073.725561 0.9580 0.9590 0.9600 0.9600 0.9600
2078.451465 0.9605 0.9610 0.9610 0.9610 0.9620
2083.177368 0.9630 0.9635 0.9640 0.9640 0.9640
2087.903271 0.9640 0.9640 0.9640 0.9640 0.9640
2092.629174 0.9640 0.9650 0.9660 0.9660 0.9660
2097.355078 0.9660 0.9660 0.9660 0.9660 0.9660
2102.080981 0.9660 0.9660 0.9660 0.9650 0.9640
2106.806884 0.9640 0.9640 0.9640 0.9640 0.9640
2111.532787 0.9640 0.9640 0.9640 0.9640 0.9640
2116.258691 0.9640 0.9641 0.9651 0.9660 0.9660
2120.984594 0.9660 0.9660 0.9660 0.9665 0.9670
2125.710497 0.9670 0.9670 0.9670 0.9670 0.9670
2130.436401 0.9670 0.9665 0.9660 0.9660 0.9660
2135.162304 0.9660 0.9660 0.9665 0.9670 0.9670
2139.888207 0.9670 0.9670 0.9670 0.9670 0.9670
2144.614110 0.9670 0.9670 0.9670 0.9670 0.9670
2149.340014 0.9670 0.9670 0.9671 0.9681 0.9689
2154.065917 0.9679 0.9670 0.9670 0.9670 0.9670
2158.791820 0.9670 0.9670 0.9670 0.9670 0.9670
2163.517723 0.9670 0.9670 0.9670 0.9670 0.9670
2168.243627 0.9670 0.9670 0.9670 0.9670 0.9670
2172.969530 0.9670 0.9670 0.9670 0.9670 0.9670
2177.695433 0.9670 0.9670 0.9670 0.9670 0.9671
2182.421336 0.9681 0.9690 0.9690 0.9690 0.9690
2187.147240 0.9690 0.9690 0.9690 0.9690 0.9689
2191.873143 0.9679 0.9670 0.9670 0.9671 0.9681
2196.599046 0.9690 0.9690 0.9690 0.9690 0.9690
2201.324949 0.9690 0.9690 0.9690 0.9690 0.9690
2206.050853 0.9690 0.9690 0.9690 0.9690 0.9690
2210.776756 0.9690 0.9690 0.9690 0.9690 0.9690
2215.502659 0.9690 0.9690 0.9690 0.9690 0.9690
2220.228563 0.9690 0.9690 0.9690 0.9690 0.9690
2224.954466 0.9691 0.9696 0.9700 0.9700 0.9700
2229.680369 0.9700 0.9700 0.9700 0.9700 0.9700
2234.406272 0.9700 0.9700 0.9701 0.9711 0.9720
2239.132176 0.9720 0.9720 0.9720 0.9720 0.9720
2243.858079 0.9720 0.9720 0.9720 0.9720 0.9720
2248.583982 0.9720 0.9721 0.9726 0.9730 0.9730
2253.309885 0.9730 0.9730 0.9730 0.9730 0.9729
2258.035789 0.9724 0.9720 0.9720 0.9720 0.9720
2262.761692 0.9720 0.9720 0.9718 0.9708 0.9700
2267.487595 0.9700 0.9700 0.9700 0.9700 0.9700
2272.213498 0.9701 0.9711 0.9720 0.9720 0.9720
2276.939402 0.9720 0.9720 0.9720 0.9720 0.9720
2281.665305 0.9720 0.9720 0.9720 0.9720 0.9721
2286.391208 0.9726 0.9730 0.9730 0.9732 0.9742
2291.117111 0.9750 0.9750 0.9750 0.9750 0.9751
2295.843015 0.9756 0.9760 0.9760 0.9760 0.9760
2300.568918 0.9760 0.9760 0.9762 0.9772 0.9781
2305.294821 0.9786 0.9790 0.9790 0.9791 0.9796
2310.020724 0.9802 0.9812 0.9823 0.9838 0.9850
2314.746628 0.9850 0.9853 0.9868 0.9880 0.9880
2319.472531 0.9880 0.9880 0.9880 0.9880 0.9880
2324.198434 0.9880 0.9880 0.9880 0.9880 0.9880
2328.924338 0.9880 0.9880 0.9880 0.9880 0.9880
2333.650241 0.9880 0.9880 0.9880 0.9880 0.9880
2338.376144 0.9880 0.9880 0.9880 0.9880 0.9880
2343.102047 0.9880 0.9880 0.9880 0.9880 0.9880
2347.827951 0.9880 0.9880 0.9880 0.9880 0.9880
2352.553854 0.9880 0.9880 0.9880 0.9880 0.9880
2357.279757 0.9880 0.9880 0.9880 0.9880 0.9880
2362.005660 0.9880 0.9880 0.9880 0.9880 0.9880
2366.731564 0.9880 0.9880 0.9880 0.9880 0.9880
2371.457467 0.9880 0.9878 0.9868 0.9860 0.9860
2376.183370 0.9859 0.9854 0.9847 0.9832 0.9820
2380.909273 0.9820 0.9818 0.9808 0.9800 0.9800
2385.635177 0.9799 0.9794 0.9790 0.9790 0.9790
2390.361080 0.9790 0.9790 0.9790 0.9791 0.9796
2395.086983 0.9800 0.9800 0.9800 0.9800 0.9800
2399.812886 0.9800 0.9800 0.9800 0.9800 0.9800
2404.538790 0.9800 0.9800 0.9800 0.9800 0.9800
2409.264693 0.9800 0.9802 0.9812 0.9820 0.9820
2413.990596 0.9820 0.9820 0.9820 0.9820 0.9820
2418.716500 0.9820 0.9820 0.9820 0.9820 0.9820
2423.442403 0.9820 0.9820 0.9820 0.9820 0.9820
2428.168306 0.9820 0.9820 0.9820 0.9820 0.9820
2432.894209 0.9820 0.9820 0.9821 0.9826 0.9830
2437.620113 0.9830 0.9832 0.9842 0.9850 0.9850
2442.346016 0.9850 0.9850 0.9850 0.9850 0.9850
2447.071919 0.9850 0.9850 0.9850 0.9850 0.9850
2451.797822 0.9850 0.9850 0.9850 0.9850 0.9850
2456.523726 0.9850 0.9850 0.9850 0.9850 0.9850
2461.249629 0.9851 0.9856 0.9860 0.9860 0.9860
2465.975532 0.9860 0.9863 0.9873 0.9880 0.9880
2470.701435 0.9880 0.9880 0.9880 0.9880 0.9880
2475.427339 0.9880 0.9880 0.9880 0.9880 0.9880
2480.153242 0.9880 0.9880 0.9880 0.9880 0.9880
2484.879145 0.9880 0.9880 0.9880 0.9880 0.9880
2489.605048 0.9880 0.9880 0.9880 0.9880 0.9880
2494.330952 0.9880 0.9880 0.9880 0.9880 0.9880
2499.056855 0.9880 0.9880 0.9880 0.9880 0.9880
2503.782758 0.9880 0.9880 0.9880 0.9880 0.9880
2508.508662 0.9880 0.9880 0.9880 0.9880 0.9880
2513.234565 0.9880 0.9880 0.9880 0.9880 0.9880
2517.960468 0.9880 0.9880 0.9880 0.9880 0.9881
2522.686371 0.9886 0.9889 0.9884 0.9880 0.9880
2527.412275 0.9880 0.9880 0.9880 0.9880 0.9880
2532.138178 0.9880 0.9880 0.9880 0.9880 0.9880
2536.864081 0.9880 0.9880 0.9880 0.9880 0.9880
2541.589984 0.9880 0.9880 0.9880 0.9880 0.9880
2546.315888 0.9880 0.9880 0.9877 0.9867 0.9860
2551.041791 0.9860 0.9860 0.9860 0.9860 0.9860
2555.767694 0.9858 0.9853 0.9850 0.9850 0.9850
2560.493597 0.9850 0.9847 0.9837 0.9830 0.9830
2565.219501 0.9830 0.9830 0.9830 0.9830 0.9833
2569.945404 0.9843 0.9850 0.9850 0.9850 0.9850
2574.671307 0.9850 0.9850 0.9850 0.9850 0.9850
2579.397210 0.9850 0.9850 0.9850 0.9850 0.9850
2584.123114 0.9850 0.9850 0.9850 0.9850 0.9852
2588.849017 0.9857 0.9860 0.9860 0.9860 0.9860
2593.574920 0.9860 0.9860 0.9860 0.9860 0.9860
2598.300823 0.9860 0.9858 0.9853 0.9850 0.9850
2603.026727 0.9850 0.9850 0.9850 0.9850 0.9847
2607.752630 0.9837 0.9830 0.9830 0.9828 0.9823
2612.478533 0.9820 0.9820 0.9820 0.9820 0.9820
2617.204437 0.9820 0.9820 0.9820 0.9820 0.9820
2621.930340 0.9820 0.9820 0.9820 0.9820 0.9820
2626.656243 0.9820 0.9820 0.9820 0.9820 0.9820
2631.382146 0.9820 0.9820 0.9820 0.9820 0.9820
2636.108050 0.9820 0.9820 0.9820 0.9820 0.9820
2640.833953 0.9820 0.9820 0.9820 0.9820 0.9820
2645.559856 0.9820 0.9816 0.9806 0.9798 0.9793
2650.285759 0.9790 0.9790 0.9790 0.9790 0.9792
2655.011663 0.9797 0.9800 0.9800 0.9800 0.9800
2659.737566 0.9800 0.9800 0.9800 0.9800 0.9800
2664.463469 0.9800 0.9800 0.9800 0.9800 0.9800
2669.189372 0.9800 0.9800 0.9800 0.9800 0.9800
2673.915276 0.9800 0.9798 0.9793 0.9792 0.9797
2678.641179 0.9800 0.9800 0.9800 0.9800 0.9800
2683.367082 0.9800 0.9800 0.9800 0.9800 0.9800
2688.092985 0.9800 0.9800 0.9798 0.9793 0.9788
2692.818889 0.9783 0.9780 0.9780 0.9776 0.9766
2697.544792 0.9760 0.9760 0.9752 0.9732 0.9716
2702.270695 0.9706 0.9698 0.9693 0.9686 0.9676
2706.996599 0.9664 0.9649 0.9638 0.9633 0.9620
2711.722502 0.9595 0.9578 0.9573 0.9570 0.9570
2716.448405 0.9570 0.9570 0.9570 0.9570 0.9568
2721.174308 0.9563 0.9560 0.9560 0.9560 0.9560
2725.900212 0.9560 0.9560 0.9560 0.9560 0.9562
2730.626115 0.9567 0.9570 0.9570 0.9570 0.9570
2735.352018 0.9570 0.9570 0.9568 0.9563 0.9554
2740.077921 0.9539 0.9530 0.9530 0.9526 0.9516
2744.803825 0.9508 0.9503 0.9500 0.9500 0.9500
2749.529728 0.9500 0.9496 0.9486 0.9480 0.9480
2754.255631 0.9480 0.9480 0.9478 0.9473 0.9470
2758.981534 0.9470 0.9466 0.9456 0.9450 0.9450
2763.707438 0.9448 0.9443 0.9440 0.9440 0.9436
2768.433341 0.9426 0.9418 0.9413 0.9410 0.9410
2773.159244 0.9410 0.9410 0.9406 0.9396 0.9390
2777.885147 0.9390 0.9388 0.9383 0.9376 0.9366
2782.611051 0.9358 0.9353 0.9348 0.9343 0.9336
2787.336954 0.9326 0.9313 0.9298 0.9290 0.9290
2792.062857 0.9283 0.9268 0.9253 0.9238 0.9228
2796.788761 0.9223 0.9220 0.9220 0.9215 0.9205
2801.514664 0.9198 0.9193 0.9185 0.9175 0.9168
2806.240567 0.9163 0.9160 0.9160 0.9156 0.9146
2810.966470 0.9138 0.9133 0.9128 0.9123 0.9120
2815.692374 0.9120 0.9108 0.9083 0.9054 0.9019
2820.418277 0.8986 0.8956 0.8931 0.8911 0.8879
2825.144180 0.8834 0.8805 0.8795 0.8774 0.8739
2829.870083 0.8713 0.8698 0.8673 0.8638 0.8613
2834.595987 0.8598 0.8578 0.8553 0.8507 0.8437
2839.321890 0.8350 0.8245 0.8155 0.8080 0.8024
2844.047793 0.7989 0.7942 0.7882 0.7820 0.7755
2848.773696 0.7658 0.7527 0.7374 0.7200 0.7049
2853.499600 0.6924 0.6809 0.6704 0.6626 0.6576
2858.225503 0.6405 0.6105 0.5805 0.5505 0.5285
2862.951406 0.5150 0.5010 0.4865 0.4648 0.4353
2867.677309 0.4198 0.4193 0.4192 0.4197 0.4245
2872.403213 0.4335 0.4427 0.4522 0.4610 0.4690
2877.129116 0.4782 0.4887 0.5019 0.5179 0.5383
2881.855019 0.5633 0.5770 0.5790 0.5805 0.5815
2886.580922 0.5822 0.5828 0.5830 0.5830 0.5830
2891.306826 0.5830 0.5830 0.5830 0.5822 0.5807
2896.032729 0.5782 0.5747 0.5682 0.5587 0.5510
2900.758632 0.5450 0.5387 0.5322 0.5277 0.5252
2905.484536 0.5222 0.5187 0.5154 0.5124 0.5107
2910.210439 0.5102 0.5092 0.5077 0.5070 0.5070
2914.936342 0.5065 0.5055 0.5047 0.5042 0.5017
2919.662245 0.4972 0.4927 0.4882 0.4840 0.4800
2924.388149 0.4775 0.4765 0.4765 0.4775 0.4783
2929.114052 0.4788 0.4801 0.4821 0.4875 0.4960
2933.839955 0.5003 0.5008 0.5010 0.5010 0.4999
2938.565858 0.4980 0.4957 0.4932 0.4889 0.4829
2943.291762 0.4774 0.4723 0.4681 0.4646 0.4503
2948.017665 0.4268 0.3930 0.3505 0.3199 0.2994
2952.743568 0.2790 0.2585 0.2485 0.2475 0.2475
2957.469471 0.2485 0.2493 0.2498 0.2540 0.2615
2962.195375 0.2690 0.2766 0.2839 0.2909 0.2981
2966.921278 0.3056 0.3203 0.3408 0.3621 0.3841
2971.647181 0.4146 0.4521 0.4720 0.4775 0.4893
2976.373084 0.5063 0.5347 0.5727 0.5990 0.6155
2981.098988 0.6433 0.6807 0.7134 0.7423 0.7660
2985.824891 0.7855 0.7999 0.8104 0.8257 0.8446
2990.550794 0.8594 0.8709 0.8794 0.8854 0.8897
2995.276698 0.8927 0.8973 0.9033 0.9091 0.9146
3000.002601 0.9201 0.9256 0.9309 0.9359 0.9409
3004.728504 0.9459 0.9489 0.9504 0.9516 0.9526
3009.454407 0.9533 0.9538 0.9549 0.9564 0.9573
3014.180311 0.9578 0.9589 0.9604 0.9616 0.9626
3018.906214 0.9633 0.9638 0.9646 0.9656 0.9663
3023.632117 0.9668 0.9670 0.9670 0.9676 0.9686
3028.358020 0.9693 0.9698 0.9706 0.9716 0.9729
3033.083924 0.9744 0.9750 0.9750 0.9753 0.9758
3037.809827 0.9760 0.9760 0.9766 0.9776 0.9780
3042.535730 0.9780 0.9783 0.9788 0.9790 0.9790
3047.261633 0.9790 0.9790 0.9790 0.9790 0.9790
3051.987537 0.9790 0.9790 0.9790 0.9790 0.9790
3056.713440 0.9790 0.9790 0.9793 0.9798 0.9800
3061.439343 0.9800 0.9800 0.9800 0.9800 0.9800
3066.165246 0.9806 0.9816 0.9820 0.9820 0.9820
3070.891150 0.9820 0.9820 0.9820 0.9820 0.9820
3075.617053 0.9820 0.9820 0.9820 0.9820 0.9820
3080.342956 0.9820 0.9820 0.9820 0.9820 0.9820
3085.068860 0.9820 0.9820 0.9820 0.9820 0.9820
3089.794763 0.9820 0.9820 0.9820 0.9820 0.9820
3094.520666 0.9820 0.9820 0.9820 0.9820 0.9820
3099.246569 0.9820 0.9820 0.9820 0.9820 0.9820
3103.972473 0.9820 0.9820 0.9820 0.9820 0.9820
3108.698376 0.9820 0.9820 0.9820 0.9820 0.9820
3113.424279 0.9820 0.9820 0.9820 0.9820 0.9820
3118.150182 0.9820 0.9814 0.9804 0.9800 0.9800
3122.876086 0.9800 0.9800 0.9800 0.9800 0.9800
3127.601989 0.9800 0.9800 0.9800 0.9800 0.9800
3132.327892 0.9800 0.9800 0.9800 0.9800 0.9800
3137.053795 0.9800 0.9800 0.9800 0.9800 0.9800
3141.779699 0.9800 0.9800 0.9797 0.9792 0.9790
3146.505602 0.9790 0.9790 0.9790 0.9790 0.9790
3151.231505 0.9787 0.9782 0.9780 0.9780 0.9780
3155.957408 0.9780 0.9780 0.9780 0.9780 0.9780
3160.683312 0.9780 0.9780 0.9780 0.9780 0.9780
3165.409215 0.9780 0.9780 0.9780 0.9780 0.9780
3170.135118 0.9780 0.9780 0.9780 0.9780 0.9780
3174.861021 0.9780 0.9780 0.9780 0.9780 0.9780
3179.586925 0.9780 0.9780 0.9780 0.9780 0.9780
3184.312828 0.9780 0.9780 0.9780 0.9780 0.9780
3189.038731 0.9780 0.9780 0.9780 0.9780 0.9780
3193.764635 0.9780 0.9780 0.9780 0.9780 0.9780
3198.490538 0.9780 0.9780 0.9780 0.9780 0.9780
3203.216441 0.9780 0.9780 0.9780 0.9780 0.9780
3207.942344 0.9780 0.9780 0.9780 0.9780 0.9783
3212.668248 0.9788 0.9790 0.9790 0.9790 0.9790
3217.394151 0.9790 0.9790 0.9790 0.9790 0.9790
3222.120054 0.9790 0.9790 0.9790 0.9790 0.9790
3226.845957 0.9790 0.9790 0.9790 0.9790 0.9790
3231.571861 0.9790 0.9786 0.9781 0.9780 0.9780
3236.297764 0.9780 0.9780 0.9780 0.9780 0.9780
3241.023667 0.9780 0.9780 0.9780 0.9780 0.9780
3245.749570 0.9780 0.9780 0.9780 0.9780 0.9780
3250.475474 0.9780 0.9780 0.9780 0.9780 0.9780
3255.201377 0.9780 0.9780 0.9780 0.9780 0.9780
3259.927280 0.9780 0.9780 0.9780 0.9780 0.9780
3264.653183 0.9780 0.9780 0.9773 0.9763 0.9760
3269.379087 0.9760 0.9760 0.9760 0.9760 0.9760
3274.104990 0.9760 0.9760 0.9760 0.9760 0.9760
3278.830893 0.9760 0.9756 0.9751 0.9743 0.9733
3283.556797 0.9726 0.9721 0.9720 0.9720 0.9720
3288.282700 0.9720 0.9720 0.9720 0.9720 0.9720
3293.008603 0.9720 0.9720 0.9713 0.9703 0.9700
3297.734506 0.9700 0.9700 0.9700 0.9700 0.9700
3302.460410 0.9700 0.9700 0.9700 0.9700 0.9696
3307.186313 0.9691 0.9690 0.9690 0.9679 0.9664
3311.912216 0.9660 0.9660 0.9653 0.9643 0.9636
3316.638119 0.9631 0.9623 0.9613 0.9606 0.9601
3321.364023 0.9593 0.9582 0.9580 0.9580 0.9580
3326.089926 0.9580 0.9576 0.9571 0.9570 0.9570
3330.815829 0.9570 0.9570 0.9566 0.9561 0.9560
3335.541732 0.9560 0.9560 0.9560 0.9560 0.9560
3340.267636 0.9560 0.9560 0.9560 0.9560 0.9560
3344.993539 0.9560 0.9560 0.9560 0.9560 0.9560
3349.719442 0.9552 0.9542 0.9540 0.9540 0.9540
3354.445345 0.9540 0.9540 0.9540 0.9540 0.9540
3359.171249 0.9540 0.9540 0.9540 0.9540 0.9536
3363.897152 0.9531 0.9530 0.9530 0.9530 0.9530
3368.623055 0.9530 0.9530 0.9530 0.9530 0.9530
3373.348959 0.9530 0.9530 0.9530 0.9530 0.9530
3378.074862 0.9530 0.9530 0.9530 0.9530 0.9530
3382.800765 0.9530 0.9534 0.9539 0.9540 0.9540
3387.526668 0.9540 0.9540 0.9540 0.9540 0.9540
3392.252572 0.9540 0.9540 0.9540 0.9540 0.9540
3396.978475 0.9540 0.9540 0.9540 0.9540 0.9540
3401.704378 0.9540 0.9540 0.9540 0.9540 0.9540
3406.430281 0.9540 0.9540 0.9536 0.9531 0.9530
3411.156185 0.9530 0.9522 0.9512 0.9510 0.9510
3415.882088 0.9506 0.9501 0.9492 0.9482 0.9480
3420.607991 0.9480 0.9480 0.9480 0.9476 0.9471
3425.333894 0.9470 0.9470 0.9470 0.9470 0.9470
3430.059798 0.9470 0.9462 0.9452 0.9450 0.9450
3434.785701 0.9450 0.9450 0.9450 0.9450 0.9450
3439.511604 0.9450 0.9450 0.9450 0.9446 0.9441
3444.237507 0.9440 0.9440 0.9440 0.9440 0.9432
3448.963411 0.9422 0.9420 0.9420 0.9416 0.9411
3453.689314 0.9410 0.9410 0.9410 0.9410 0.9402
3458.415217 0.9392 0.9390 0.9390 0.9390 0.9390
3463.141120 0.9386 0.9381 0.9372 0.9362 0.9360
3467.867024 0.9360 0.9356 0.9351 0.9350 0.9350
3472.592927 0.9350 0.9350 0.9346 0.9341 0.9340
3477.318830 0.9340 0.9332 0.9322 0.9320 0.9320
3482.044734 0.9316 0.9311 0.9302 0.9292 0.9290
3486.770637 0.9290 0.9286 0.9281 0.9280 0.9280
3491.496540 0.9272 0.9261 0.9260 0.9260 0.9256
3496.222443 0.9251 0.9250 0.9250 0.9241 0.9231
3500.948347 0.9230 0.9230 0.9226 0.9221 0.9220
3505.674250 0.9220 0.9220 0.9220 0.9220 0.9220
3510.400153 0.9224 0.9229 0.9230 0.9230 0.9230
3515.126056 0.9230 0.9239 0.9249 0.9254 0.9259
3519.851960 0.9260 0.9260 0.9269 0.9279 0.9280
3524.577863 0.9280 0.9293 0.9308 0.9310 0.9310
3529.303766 0.9314 0.9319 0.9329 0.9339 0.9340
3534.029669 0.9340 0.9344 0.9349 0.9350 0.9350
3538.755573 0.9354 0.9359 0.9369 0.9379 0.9406
3543.481476 0.9436 0.9444 0.9449 0.9450 0.9450
3548.207379 0.9459 0.9469 0.9474 0.9479 0.9493
3552.933282 0.9508 0.9519 0.9529 0.9534 0.9539
3557.659186 0.9540 0.9540 0.9549 0.9559 0.9564
3562.385089 0.9569 0.9574 0.9579 0.9589 0.9599
3567.110992 0.9600 0.9600 0.9605 0.9609 0.9619
3571.836896 0.9629 0.9634 0.9639 0.9649 0.9659
3576.562799 0.9660 0.9660 0.9664 0.9669 0.9670
3581.288702 0.9670 0.9670 0.9670 0.9670 0.9670
3586.014605 0.9670 0.9670 0.9670 0.9670 0.9665
3590.740509 0.9660 0.9651 0.9641 0.9635 0.9630
3595.466412 0.9630 0.9630 0.9621 0.9611 0.9605
3600.192315 0.9600 0.9586 0.9571 0.9565 0.9560
3604.918218 0.9551 0.9541 0.9499 0.9454 0.9404
3609.644122 0.9354 0.9295 0.9235 0.9198 0.9163
3614.370025 0.9146 0.9131 0.9125 0.9120 0.9024
3619.095928 0.8919 0.8654 0.8374 0.8250 0.8140
3623.821831 0.8029 0.7918 0.7863 0.7813 0.7763
3628.547735 0.7713 0.7608 0.7498 0.7392 0.7288
3633.273638 0.7178 0.7068 0.6967 0.6867 0.6758
3637.999541 0.6648 0.6543 0.6438 0.6338 0.6238
3642.725444 0.6216 0.6201 0.6191 0.6181 0.6189
3647.451348 0.6199 0.6407 0.6627 0.6851 0.7076
3652.177251 0.7695 0.8340 0.8408 0.8438 0.8454
3656.903154 0.8469 0.8606 0.8750 0.8919 0.9089
3661.629058 0.9223 0.9354 0.9389 0.9419 0.9434
3666.354961 0.9449 0.9479 0.9509 0.9534 0.9559
3671.080864 0.9569 0.9579 0.9594 0.9609 0.9610
3675.806767 0.9610 0.9619 0.9629 0.9635 0.9640
3680.532671 0.9650 0.9660 0.9665 0.9670 0.9670
3685.258574 0.9670 0.9680 0.9690 0.9690 0.9690
3689.984477 0.9690 0.9690 0.9690 0.9690 0.9690
3694.710380 0.9690 0.9695 0.9700 0.9710 0.9720
3699.436284 0.9720 0.9720 0.9735 0.9750 0.9755
3704.162187 0.9760 0.9775 0.9790 0.9795 0.9800
3708.888090 0.9824 0.9849 0.9850 0.9850 0.9865
3713.613993 0.9880 0.9895 0.9910 0.9910 0.9910
3718.339897 0.9910 0.9910 0.9915 0.9920 0.9920
3723.065800 0.9920 0.9930 0.9940 0.9940 0.9940
3727.791703 0.9940 0.9940 0.9945 0.9950 0.9960
3732.517606 0.9970 0.9970 0.9970 0.9975 0.9980
3737.243510 0.9980 0.9980 0.9980 0.9980 0.9980
3741.969413 0.9980 0.9975 0.9970 0.9970 0.9970
3746.695316 0.9970 0.9970 0.9960 0.9950 0.9950
3751.421219 0.9950 0.9945 0.9940 0.9930 0.9920
3756.147123 0.9920 0.9920 0.9920 0.9920 0.9920
3760.873026 0.9920 0.9920 0.9920 0.9920 0.9920
3765.598929 0.9920 0.9920 0.9920 0.9920 0.9920
3770.324833 0.9920 0.9930 0.9940 0.9940 0.9940
3775.050736 0.9940 0.9940 0.9940 0.9940 0.9940
3779.776639 0.9940 0.9940 0.9940 0.9940 0.9940
3784.502542 0.9940 0.9940 0.9940 0.9940 0.9945
3789.228446 0.9950 0.9950 0.9950 0.9960 0.9970
3793.954349 0.9970 0.9970 0.9970 0.9970 0.9970
3798.680252 0.9970 0.9970 0.9970 0.9970
##END=
