##TITLE=Methyl Ethyl Ketone
##JCAMP-DX=4.24
##DATA TYPE=INFRARED SPECTRUM
##CLASS=IUPAC A
##ORIGIN=NIST, Anayltical Chemistry Division, 301-975-3108
##OWNER=COPYRIGHT (C) 1998 by the U.S. Secretary of Commerce
##DATE=98/10/1
##$SPECTRA VERSION=1.00
##$UNCERTAINTY IN Y=2.1 % relative (B=1.1E-04,C=8.6E-10,D=2.7E-14)
##CAS NAME=2-Butanone
##CAS REGISTRY NO=78-93-3
##MOLFORM=C H3 C H2 C O C H3
##MP=-86.35 C
##BP=79.6 C
##$NIST SOURCE=QUANT-IR
##SPECTROMETER/DATA SYSTEM=IFS66V (Bruker)
##INSTRUMENT PARAMETERS=KBr Beam splitter; MCT Detector; Multipass cell
##STATE=gas
##SAMPLE DESCRIPTION=Methyl Ethyl Ketone Primary Gas Standard
##PRESSURE=101.3 kPa
##TEMPERATURE=23 C
##SAMPLING PROCEDURE=1 L/min Flow
##RESOLUTION=1.9290
##DATA PROCESSING=3-Term B-H Apodization
##XUNITS=cm-1
##YUNITS=(micromol/mol)-1m-1 (base 10)
##XFACTOR=1.0
##YFACTOR=4.5474E-13
##DELTAX=0.9645
##FIRSTX=574.687
##LASTX=3974.595
##FIRSTY=.0000206
##MAXX=3973.63
##MINX=574.69
##MAXY=.0005682
##MINY=-9.08E-07
##NPOINTS=3527
##XYDATA=(X++(Y..Y))
574.69 45353280 50797730 55808400 59578040 61764380 62766430
579.51 63554750 63808140 63130580 63538520 66033310 69026690
585.29 71793970 72342420 69129010 65916670 65558160 66336230
591.08 66358320 65751240 65579780 65409320 64552520 63232860
596.86 61216570 57908100 53645910 49054590 44129460 38797450
602.65 33482810 28567510 24052950 20047110 16681820 13884300
608.44 11363550 9146064 7466910 6183576 5160632 4397180
614.22 3980344 3570724 3035172 2653620 2319212 1959946
620.01 1715748 1602042 1532412 1525030 1510326 1453496
625.79 1405708 1361712 1360974 1344110 1274694 1203598
631.58 1010230 782968 821216 1043118 1120170 971382
637.36 830426 911840 1389248 2941550 4223270 3098236
643.15 1505746 1029052 892072 932064 1180554 1405834
648.93 1744496 2426080 2858904 2527340 1965462 1765370
654.72 1943218 2404526 2830728 2806206 2409122 1878032
660.50 1507116 1400466 1284612 1106410 1036818 1223598
666.29 1596728 1634268 1310694 1103290 1073852 1069184
672.08 1028618 992752 988120 924042 764206 697614
677.86 733594 719144 643966 575828 567256 629924
683.65 633312 518352 425302 431130 517378 619830
689.43 602518 432030 245802 211976 268224 300956
695.22 329536 260274 159496 144844 189400 252868
701.00 245362 223376 284486 324908 315600 244788
706.79 219916 276118 311174 369306 538574 705070
712.57 822586 952830 1011142 1049554 1241942 1525374
718.36 1688944 1809590 2116714 2525022 2849604 3110430
724.14 3510346 4113812 4795704 5525082 6310710 7146082
729.93 8084918 9095920 10187180 11377880 12629330 14016950
735.71 15482650 16990300 18614400 20269350 21999290 23852810
741.50 25794840 27871110 30122010 32530940 35080370 37967420
747.29 41659950 46507950 51628690 54320390 53518900 51046320
753.07 48395220 46186880 44550160 43407480 43120320 44031480
758.86 45254380 45294740 44286140 43234460 42315440 41242760
764.64 39891540 38211790 36111000 33650010 30957110 28070200
770.43 25138630 22329480 19646160 17144540 14944580 13035750
776.21 11360830 9912930 8710834 7726678 6925394 6325722
782.00 5833908 5315646 4779356 4361970 4151572 4009950
787.78 3769896 3470806 3247018 3152190 3115756 3046756
793.57 2923370 2853044 2828432 2665222 2499038 2450244
799.35 2292492 2062548 1948266 1895366 1837380 1749436
805.14 1716982 1749050 1654586 1466860 1385802 1382134
810.93 1334992 1248656 1116292 948364 888468 932396
816.71 938646 868844 837490 881486 919914 879166
822.50 804438 786452 810210 788846 742476 698812
828.28 658910 747196 900760 885786 735278 747284
834.07 885138 859500 739694 774548 881624 845914
839.85 746118 703720 764138 868634 910728 916134
845.64 892498 899256 945926 959060 945388 918430
851.42 890100 870952 892188 980482 1080644 1100894
857.21 1060838 1049392 1119992 1209842 1226110 1256796
862.99 1370090 1460272 1485118 1507310 1567826 1655602
868.78 1755920 1845274 1938118 2051806 2200012 2387520
874.57 2583318 2754836 2837288 2857576 2930190 3089398
880.35 3262536 3424174 3604164 3761714 3930410 4151576
886.14 4368454 4533970 4718608 5013124 5409454 5766398
891.92 6076598 6510462 7025818 7509268 7956010 8423364
897.71 9045136 9813954 10603790 11403000 12263200 13234390
903.49 14346770 15579390 16941150 18442680 20053010 21793010
909.28 23693360 25748790 27948230 30222520 32539940 34985500
915.06 37552520 40163470 42917590 45890270 48986260 52251210
920.85 55754190 59228470 62614940 66157030 69902240 73897170
926.63 78074800 82250280 86462600 90717300 94894900 98943570
932.42 102684400 105861500 108066000 109284400 110090600 111318000
938.21 113863800 116628200 117760700 117513800 116678800 115570300
943.99 114241400 113400200 113444500 113687700 113221500 111576600
949.78 109076000 106078500 102570800 98525500 94143140 89688140
955.56 85219700 80784320 76418900 72212900 68306860 64679890
961.35 61278370 58104640 55168870 52471820 50051990 47906100
967.13 46002430 44319740 42874850 41656580 40630060 39835530
972.92 39232240 38727670 38290450 37939280 37715160 37574930
978.70 37369080 37026690 36639090 36189360 35628600 35001440
984.49 34380580 33896080 33634340 33437980 33056270 32444790
990.27 31728690 31129750 30635320 30080660 29536400 29113440
996.06 28751160 28304060 27804440 27361220 26931860 26282320
1001.85 25267690 24017010 22667230 21306250 20012250 18727550
1007.63 17494430 16452500 15571210 14773570 14060170 13444380
1013.42 12900150 12438180 12055460 11676290 11318440 10965860
1019.20 10604480 10250180 9842904 9446926 9095388 8713476
1024.99 8309180 7922964 7562398 7276850 7079540 6914034
1030.77 6801920 6755196 6669396 6514730 6408450 6386252
1036.56 6416576 6461294 6464988 6490812 6576320 6715100
1042.34 6893446 7053598 7195234 7354972 7611530 7962932
1048.13 8275948 8509672 8733258 8932962 9191278 9581192
1053.91 9986886 10397930 10918580 11539600 12175800 12815100
1059.70 13518900 14288840 15146310 16096570 17132070 18218360
1065.48 19267580 20348140 21518090 22739420 24018550 25361270
1071.27 26724520 28053190 29391460 30752210 32047140 33260130
1077.06 34372400 35310980 36049560 36573550 36891620 36905780
1082.84 36561240 35957200 35207840 34390600 33598940 32978800
1088.63 32703590 32924660 33588160 34293420 34571210 34276520
1094.41 33477300 32307410 30968500 29586940 28262880 27067030
1100.20 25944630 24844660 23831200 23035940 22437030 21955700
1105.98 21663230 21576450 21483390 21186680 20771020 20471130
1111.77 20310350 20221870 20229380 20299810 20397690 20564210
1117.55 20849310 21256150 21683550 22096220 22575680 23131070
1123.34 23695770 24237810 24863140 25630370 26504660 27496560
1129.12 28621110 29914680 31371910 33042350 35051720 37397730
1134.91 40096880 43240120 46871340 51074310 56049200 61987980
1140.70 69079540 77554260 87672360 99607520 113429500 129292100
1146.48 147265000 167152000 188625100 211389200 235179400 259515400
1152.27 283671400 306809800 328252800 347866100 365946100 383194000
1158.05 400635500 418327000 435267000 452017700 471575900 495090300
1163.84 519910400 541577300 553812600 558712300 563651800 564736200
1169.62 563538900 568072200 576595400 584024300 587007900 581073900
1175.41 566765200 554821800 542067600 515836100 482658400 454435100
1181.19 433932100 418266100 404474700 390714300 375289800 358001200
1186.98 339516300 320310800 300835300 281595500 262916500 245081000
1192.76 228600400 213700300 200292000 188311000 177740900 168479000
1198.55 160300300 152988300 146372900 140205800 134347900 128788100
1204.34 123422000 118251300 113495600 109172400 105120900 101130900
1210.12 96944110 92453820 87698240 82734090 77602910 72279990
1215.91 66900590 61762410 57011460 52610580 48572360 44969390
1221.69 41853370 39142490 36771750 34742930 33020520 31535580
1227.48 30245940 29167330 28288550 27529230 26837080 26242390
1233.26 25772470 25406390 25155920 25046370 25089990 25308030
1239.05 25645190 25922720 26109990 26381740 26814670 27318220
1244.83 27837180 28375660 28934430 29439040 29853440 30207260
1250.62 30524280 30806070 31057060 31266940 31415030 31517680
1256.40 31622940 31697860 31628170 31373060 31077090 30841260
1262.19 30668400 30567010 30464410 30215470 29856150 29517080
1267.98 29129480 28654400 28149670 27535000 26794790 26025000
1273.76 25314220 24638290 23974490 23360530 22775590 22186160
1279.55 21612630 21098430 20668770 20272010 19897940 19595760
1285.33 19385130 19217660 19129500 19228790 19456020 19752240
1291.12 20171620 20701360 21351480 22145290 23048580 24004200
1296.90 25008820 26113960 27329190 28589690 29908170 31315410
1302.69 32799040 34358260 36010590 37732370 39492090 41262920
1308.47 43052260 44884840 46812200 48862120 50995740 53158290
1314.26 55367740 57682150 60061330 62412070 64876040 67536820
1320.04 70292530 73141980 76252060 79555030 82954110 86486590
1325.83 90177540 94001060 97912260 101950300 106179600 110622600
1331.61 115340600 120340900 125607900 131055200 136604500 142334400
1337.40 148467000 155015400 162273200 170599000 179179400 187612600
1343.19 196944000 208354100 222692700 239864400 259132600 279859900
1348.97 301743800 324613800 348110300 371509200 393964600 414814900
1354.76 433366900 449016300 461600700 470889800 476152200 477118200
1360.54 475969000 476382800 482782400 500223400 524883300 540681000
1366.33 536119400 513451900 489179600 479966700 485356800 495645100
1372.11 503413000 504813600 497640900 481207300 456532100 425531100
1377.90 390170600 352541600 314790800 278778000 245847100 217053700
1383.68 192980900 173883000 159732100 149839500 143389500 140039100
1389.47 138660800 137733500 136611800 135479300 134234400 132147500
1395.25 129374600 126714600 124569600 122690300 120723400 119195400
1401.04 118574800 118837600 120087800 122103300 124411200 127157200
1406.83 130660600 134905500 139700800 144671900 149530700 154180800
1412.61 158532500 162474000 165975400 169048900 171562500 173459900
1418.40 173612300 170799000 167015800 164268800 163059000 163899900
1424.18 167143800 172587100 179121900 185610900 191274900 195188200
1429.97 196730400 196327900 194392200 191028000 187170000 184276100
1435.75 181803700 178491000 175961500 175189500 175066400 174782900
1441.54 174082400 173120000 172214900 171610800 171746500 172392400
1447.32 172028600 170623500 170325400 172319900 176862400 184940000
1453.11 197983300 215667700 232034300 236458300 227384700 213586000
1458.89 200266400 187624600 175124300 163325700 154211800 150689100
1464.68 153409400 158041900 159234000 156900300 154346200 153424000
1470.47 153896600 154080100 152686000 149558300 145537700 140767700
1476.25 134502700 127386700 120036300 112542200 105049400 97654950
1482.04 90583610 84041410 78066020 72859160 68422160 64238290
1487.82 60512390 57590130 54584360 51241140 48386680 46259260
1493.61 44890300 44606680 43733800 41675310 40345260 39216940
1499.39 37811070 36925020 36341270 35921590 36490630 38399330
1505.18 39916670 39555170 37770110 36327910 35620600 35246300
1510.96 35248690 34975700 34589130 34686250 35138980 35764560
1516.75 35716370 35192830 35813330 37389250 37590020 35952800
1522.53 34325320 33869240 33904790 33245450 32515320 32002320
1528.32 31331140 30794300 30585880 30694000 31032340 30548300
1534.11 29142550 28064180 27848250 29251060 31360160 31228670
1539.89 29499260 28391970 27058890 25596130 25152970 24465040
1545.68 23182140 22311280 22006440 21939980 21503160 20701930
1551.46 20329680 20937080 21406640 20420500 19992850 21835270
1557.25 23888430 24146710 22852420 19999570 17550410 16792540
1563.03 16712950 16598620 16126790 15648840 15626750 16242530
1568.82 16454120 15380090 14317660 13923920 13781670 14553690
1574.60 16674870 16959260 14570670 12945640 12545760 12353520
1580.39 12160090 11974250 11803290 11613720 11409390 11201400
1586.17 10982500 10790950 10622610 10421370 10186870 9959594
1591.96 9756606 9611140 9462748 9254076 9024146 8822246
1597.74 8665140 8531748 8411996 8297466 8213300 8145636
1603.53 8020226 7893576 7827976 7753996 7673510 7610544
1609.32 7468484 7306212 7201872 7146258 7159684 7932760
1615.10 9978044 10485530 8497276 7192758 7064714 7144444
1620.89 7491084 8231240 8451456 7804474 7389584 7612600
1626.67 7972418 7837800 7475946 7373582 7385256 7444220
1632.46 7875388 9523874 11213240 10518420 8962992 8306338
1638.24 8095128 8143732 8251546 8359966 8494304 8919846
1644.03 10297200 11615900 11310990 10432090 9643902 9084094
1649.81 9799450 13104910 16564030 15818230 12630220 10618390
1655.60 10081620 10201970 10438390 10739890 11200810 12072860
1661.38 13186910 13438390 12933200 12850510 13184380 13804370
1667.17 15128070 16650830 17041150 17064030 17419470 17865740
1672.96 19256450 21444290 22280690 22081680 22751980 24204000
1678.74 25914840 27562100 29378860 32176720 36326670 40234850
1684.53 40873760 40278630 41768320 44353630 47082050 49901360
1690.31 52761640 55852090 59339400 63945200 70540220 76017800
1696.10 78687820 82739870 90598900 100294600 108038500 114777400
1701.88 123849300 135096100 147234700 160141000 173974400 188845700
1707.67 205497700 224191800 244728700 267207800 291944600 319237600
1713.45 349213600 381672400 417476100 456567000 496897900 539172400
1719.24 585043600 634263000 686042200 739804500 794750900 850140900
1725.02 905550200 960153600 1012658000 1061543000 1104750000 1139346000
1730.81 1162984000 1174451000 1171064000 1149420000 1111672000 1067402000
1736.60 1028701000 1008128000 1015610000 1052205000 1109240000 1170533000
1742.38 1219040000 1245567000 1249500000 1233600000 1201633000 1157587000
1748.17 1104519000 1045728000 983876500 919529600 854298500 790376400
1753.95 728686800 669955100 614382800 561796600 512632300 466987300
1759.74 424810700 385643600 348483500 313826500 282415800 253961300
1765.52 228318300 205484400 184578400 165273000 148632600 134812100
1771.31 122781600 110908100 99467020 89892700 81704860 74332580
1777.09 67822380 62112860 57112740 52460710 47983720 43992970
1782.88 40622520 37549210 34322670 31223420 28591940 26400810
1788.66 24727250 23324830 22235220 21751620 21078710 20227910
1794.45 19576680 18681460 17596330 16815680 16365620 15770600
1800.24 15061550 14400230 13656790 12929400 12316240 11704260
1806.02 11028720 10286530 9549326 8960136 8341536 7568724
1811.81 6868952 6295940 5828986 5432402 5079256 4739580
1817.59 4393748 4106106 3918418 3801298 3672402 3595610
1823.38 3815446 3942992 3548838 3192354 3298406 3770376
1829.16 3979660 3536228 3128908 3061360 3033878 3007256
1834.95 3050848 3107496 3109372 3107410 3135132 3183096
1840.73 3296064 3746542 4707676 4909394 4047760 3596586
1846.52 3668950 3689508 3666654 3745998 3863084 3925960
1852.30 3968704 4049728 4143442 4255700 4382696 4518570
1858.09 4645890 4732218 4788698 4853508 4954244 5086054
1863.88 5236948 5426882 5665228 6022368 6449874 6462996
1869.66 6046752 5837786 5886838 5989116 6101290 6197046
1875.45 6286394 6365564 6388118 6361416 6331164 6317494
1881.23 6291418 6303934 6356750 6365782 6359086 6368390
1887.02 6437548 6622272 6608084 6306630 6097348 6009374
1892.80 5906720 5807816 5633628 5375220 5183134 5066862
1898.59 4955154 4833640 4712206 4571782 4430568 4327902
1904.37 4200040 4049948 3964064 3914468 3882706 3829250
1910.16 3698360 3565466 3459856 3385506 3331424 3303028
1915.94 3511734 3779810 3554844 3174312 3083726 3162776
1921.73 3237562 3158950 3006274 2920574 2885322 2869646
1927.51 2863110 2820018 2733984 2682972 2666438 2638310
1933.30 2587752 2515732 2471282 2475028 2491872 2491628
1939.09 2480342 2563084 2757028 2777212 2596718 2481644
1944.87 2417354 2332174 2263658 2218636 2150780 2053588
1950.66 1989106 1968482 1968868 1977618 1910520 1773030
1956.44 1671572 1629174 1618824 1617424 1591354 1534498
1962.23 1453116 1365972 1323686 1338838 1346074 1266678
1968.01 1138140 1033826 949222 889014 850564 826372
1973.80 877402 961042 978480 1001748 1052608 1099304
1979.58 1148526 1207366 1266656 1299466 1309948 1309022
1985.37 1292972 1298670 1317240 1305544 1335670 1483084
1991.15 1569518 1487764 1394964 1390388 1443916 1489346
1996.94 1501880 1498118 1473274 1420576 1357854 1291512
2002.73 1222638 1146008 1057424 981212 923260 852054
2008.51 782746 733754 690060 657516 619386 573548
2014.30 570322 615070 605146 531144 456640 392890
2020.08 373214 363960 314182 272230 269602 263994
2025.87 242624 232184 234572 236728 216660 202970
2031.65 241100 288190 301942 288970 279480 296410
2037.44 314218 334460 378898 401352 369632 347062
2043.22 358444 367918 366080 375874 406052 434132
2049.01 440840 457598 501926 533458 532824 536190
2054.79 578754 634706 676262 705796 731926 783862
2060.58 837836 865402 936820 1061980 1113846 1099590
2066.37 1121136 1186024 1250140 1283642 1344080 1471998
2072.15 1603036 1688454 1760558 1848034 1937276 2051072
2077.94 2182798 2294572 2404492 2537664 2691202 2858088
2083.72 3021678 3167882 3319202 3499280 3692460 3879152
2089.51 4045440 4194786 4347376 4514556 4683614 4839924
2095.29 5013990 5189950 5363650 5549108 5700112 5820348
2101.08 5951214 6099756 6254866 6407422 6539426 6654606
2106.86 6773122 6907256 7056236 7177434 7280054 7408090
2112.65 7521202 7581860 7595346 7591166 7564874 7455710
2118.43 7262934 7068586 6930312 6818852 6724590 6640456
2124.22 6579294 6530464 6390900 6166832 5937116 5726064
2130.01 5541070 5373096 5159832 4894102 4639870 4386548
2135.79 4098320 3794716 3507872 3240666 2982184 2745014
2141.58 2549966 2383800 2232504 2102712 1983338 1881556
2147.36 1820488 1771138 1688704 1607366 1557080 1508460
2153.15 1470152 1474214 1515528 1534610 1508326 1490664
2158.93 1475416 1459070 1461142 1450702 1443986 1485570
2164.72 1538846 1577318 1596752 1588996 1592340 1612704
2170.50 1607186 1566908 1515226 1456236 1386588 1317138
2176.29 1261196 1215792 1150728 1068652 996568 952034
2182.07 914208 853894 780492 699256 628294 580148
2187.86 545908 503734 443662 371946 303084 250448
2193.64 194666 150716 125776 101418 80874 67842
2199.43 53030 6426-47620-64884-68136-76660
2205.22-75284-63960-66482-69844-53556-44920
2211.00-30728 4736 26194 11812-23746-57210
2216.79-96900-116500-102618-111846-130802-132254
2222.57-127798-123778-133026-141534-157064-191794
2228.36-216622-219758-222828-228814-230732-245174
2234.14-274150-292856-296110-297852-315960-332706
2239.93-310492-287762-299256-301362-287802-295810
2245.71-307764-287932-246692-217482-216192-204268
2251.50-160018-132400-129308-99214-39234 8140
2257.28 32360 61380 111880 192276 261394 312516
2263.07 382650 445098 507932 605210 703208 785808
2268.86 868980 965624 1075740 1173104 1244724 1337282
2274.64 1474084 1601646 1702098 1800606 1901736 2011024
2280.43 2131378 2254844 2382456 2486564 2567076 2631864
2286.21 2688068 2760684 2840048 2879420 2906384 2975298
2292.00 3039672 3074266 3120010 3169716 3170950 3130250
2297.78 3083500 3052516 3048286 3025952 2958678 2863854
2303.57 2793974 2787510 2800016 2772018 2729806 2683052
2309.35 2641618 2625122 2610404 2571816 2511576 2466892
2315.14 2431942 2383144 2311300 2259212 2215572 2218936
2320.92 2228810 2199544 2160136 2160888 2167432 2190234
2326.71 2224644 2218746 2186646 2190274 2202724 2210930
2332.50 2236570 2259020 2252792 2256560 2261946 2266034
2338.28 2262166 2237262 2218112 2188020 2134040 2076150
2344.07 2007696 1943052 1886740 1827946 1785238 1812788
2349.85 1925118 2066382 2205234 2356996 2514706 2630718
2355.64 2714696 2803714 2898478 2991254 3071544 3121694
2361.42 3157238 3185444 3151440 3078022 3022366 3004482
2367.21 2985124 2910642 2793360 2682336 2612948 2549822
2372.99 2460896 2369000 2288054 2213780 2146444 2086160
2378.78 2036094 1992152 1940960 1883696 1823246 1767704
2384.56 1726350 1680544 1603114 1488882 1376514 1302360
2390.35 1279600 1282036 1239970 1151562 1088348 1064602
2396.14 1058776 1070900 1061956 1009334 956968 949818
2401.92 985238 1005292 976438 921124 895370 899020
2407.71 871116 828766 796094 761288 751028 743948
2413.49 716364 690986 670476 640912 626210 606316
2419.28 574722 606608 636500 625812 626898 607608
2425.06 572398 538570 505442 478018 470612 481636
2430.85 475448 457396 447646 435556 415354 391570
2436.63 385596 419186 446536 445572 449946 460074
2442.42 458074 446674 460618 468058 434584 417190
2448.20 433724 447616 477560 551120 644508 711996
2453.99 732974 732824 755504 807866 875590 936934
2459.77 962522 945732 950190 1007760 1058394 1070156
2465.56 1067332 1051728 1023146 1011048 1029306 1068744
2471.35 1103098 1132228 1198254 1277278 1300582 1281692
2477.13 1280028 1277992 1250780 1197320 1105762 1014680
2482.92 975416 956018 929562 905030 885472 884188
2488.70 914460 951144 968228 983832 1032530 1112234
2494.49 1193214 1284072 1379182 1460928 1532264 1591928
2500.27 1664000 1743480 1821790 1923192 2003314 2048818
2506.06 2116658 2195284 2251290 2294482 2352496 2411940
2511.84 2462104 2503668 2551152 2617692 2693808 2742396
2517.63 2738386 2712380 2658972 2593564 2556392 2507462
2523.41 2422670 2343152 2255778 2191336 2156828 2094778
2529.20 2013462 1934132 1850888 1770414 1709912 1642202
2534.99 1541094 1455338 1390952 1341850 1282786 1195720
2540.77 1124772 1074550 1016398 951016 865264 785208
2546.56 778636 800018 767708 729900 722414 717046
2552.34 703456 694578 712524 741542 743382 702630
2558.13 655618 640798 638634 621448 593770 579516
2563.91 566144 533914 498598 493192 515980 519028
2569.70 486214 458450 448182 426206 389862 348904
2575.48 315158 275334 232078 210052 194144 182578
2581.27 175278 161332 149464 143208 132094 97822
2587.05 75194 108932 157476 184416 181854 170930
2592.84 173460 164468 155518 168734 204742 232276
2598.63 252738 286940 301790 275370 247314 246762
2604.41 269902 287700 302466 325846 352018 380174
2610.20 383888 367950 366088 382328 378736 365598
2615.98 387264 398930 401136 418514 403852 371872
2621.77 374906 371810 347608 337162 324054 296290
2627.55 272278 250664 237368 234710 238654 231124
2633.34 215264 223644 228470 193456 188682 227292
2639.12 230298 205156 199964 216994 257976 284828
2644.91 288632 315846 373070 425166 458786 496118
2650.69 536826 577386 655340 757892 827062 868906
2656.48 925390 1003176 1085132 1169388 1262446 1351538
2662.27 1417716 1486050 1572706 1642012 1697790 1773940
2668.05 1861632 1924064 1942690 1961170 2012542 2063912
2673.84 2074796 2068368 2102522 2133442 2110784 2095746
2679.62 2094686 2089056 2101516 2123656 2134638 2122854
2685.41 2099246 2084554 2065192 2030318 1995382 1974876
2691.19 1969582 1942226 1864332 1778918 1743766 1762486
2696.98 1781786 1768820 1744184 1765114 1798858 1787900
2702.76 1772638 1764270 1764398 1779232 1807052 1835168
2708.55 1857422 1899466 1918398 1877934 1873938 1959420
2714.33 2057398 2124822 2167252 2195388 2211818 2235656
2720.12 2270320 2296114 2335702 2388850 2438308 2507012
2725.91 2596736 2686768 2786356 2899952 3003120 3118290
2731.69 3292564 3488528 3644504 3793930 3967340 4123938
2737.48 4276282 4426576 4584496 4772068 4960116 5155810
2743.26 5333392 5453292 5546488 5614778 5647724 5709402
2749.05 5849064 6008486 6069948 6041224 6051344 6108168
2754.83 6155350 6169292 6163528 6182290 6209264 6181936
2760.62 6072298 5916102 5742100 5557248 5378802 5234168
2766.40 5105786 4956044 4816684 4754282 4752232 4759700
2772.19 4778016 4828862 4911060 5002546 5112432 5262986
2777.97 5452720 5654732 5853478 6044352 6242288 6487262
2783.76 6768090 7081528 7430038 7804606 8225074 8662204
2789.54 9115848 9646396 10239100 10823380 11360450 11855240
2795.33 12311510 12713040 13107400 13582150 14100840 14591150
2801.12 15091650 15603290 16152220 16778310 17484030 18237930
2806.90 19017600 19813270 20573510 21309510 22091360 22914840
2812.69 23703610 24422180 25036390 25527950 25934630 26247010
2818.47 26476910 26705920 27017780 27375750 27717670 28092530
2824.26 28566170 29060360 29462060 29877380 30358480 30811580
2830.04 31261660 31756990 32282780 32808920 33318670 33731730
2835.83 33943580 33952660 33808200 33560200 33296010 33039440
2841.61 32802080 32640970 32575670 32599430 32649110 32653130
2847.40 32616760 32552510 32518090 32497700 32490560 32553260
2853.18 32670570 32806260 32971200 33127310 33268180 33442260
2858.97 33624360 33800160 34090110 34527520 35025080 35590930
2864.76 36333530 37325020 38635510 40318130 42377210 44921110
2870.54 48144520 52090460 56725710 62101580 68309140 75328600
2876.33 82921480 90800010 98770760 106536600 113735100 119971600
2882.11 124854500 128257300 130556900 132558800 135354300 140012900
2887.90 147558700 158646800 171845400 182859400 189084300 192977400
2893.68 198276500 205933700 214690100 222959700 229681600 234613100
2899.47 238027100 240254300 241851200 243289300 244420100 245171400
2905.25 246144800 247969400 250626200 253781600 257114000 260320300
2911.04 263468100 267369600 274082700 286261600 301293700 309695400
2916.82 306881200 296951600 285762100 277040600 270798000 265489600
2922.61 260384000 255350100 250431200 245617500 240946500 236796300
2928.40 233694500 231888600 231465600 232575800 235473500 240417700
2934.18 247173300 255067600 263460400 271645200 278928300 284589200
2939.97 287669800 287535400 284146800 277930200 270018100 262395900
2945.75 258784700 266383200 286088400 297904600 288382300 271980500
2951.54 262184800 260221700 263903100 270654200 278161200 284647800
2957.32 288903000 290464700 289516500 286377900 281393500 275995600
2963.11 271942400 270337000 271989300 277113200 284342600 291080500
2968.89 295633100 299128700 304220400 312391900 323110600 335213500
2974.68 347790500 360191300 372037100 383152400 393413200 402810500
2980.46 411400600 419211200 426113100 431536000 433891600 432064500
2986.25 427952600 428015300 440464000 476557700 540073900 580239300
2992.04 543152200 475389600 437207500 423032000 413793300 403054100
2997.82 389961800 375122500 359485200 343688200 327930200 312412000
3003.61 297232800 282251100 267363800 252517500 237802600 223589300
3009.39 210521000 199590800 191829800 186173200 178213700 165884100
3015.18 153270600 143960900 137600400 132706600 128380200 124124100
3020.96 119564800 114539300 109150200 103504000 97703890 91894630
3026.75 86158380 80623730 75504860 70847900 66601520 62760570
3032.53 59438560 56689460 54393660 52429590 50788170 49441240
3038.32 48335730 47402200 46572110 45862590 45258420 44603480
3044.10 43955940 43449450 43012480 42564920 42156060 41828140
3049.89 41474210 41015410 40554580 40147050 39752480 39324270
3055.67 38854420 38368700 37873300 37389320 36956360 36530700
3061.46 36069630 35574720 35076880 34556600 33967560 33380570
3067.25 32828500 32274490 31704980 31135330 30600990 29999260
3073.03 29296710 28611880 27958430 27255030 26565640 25919820
3078.82 25199630 24454540 23762710 23074600 22373370 21685160
3084.60 21015560 20357410 19752260 19169990 18510700 17863500
3090.39 17336000 16852040 16334070 15791030 15339360 14940850
3096.17 14528130 14136490 13798150 13470820 13074610 12691860
3101.96 12396000 12111130 11788550 11415470 11054910 10795500
3107.74 10581580 10326130 10058670 9816352 9565000 9238218
3113.53 8872260 8592924 8346242 8073092 7811232 7502510
3119.31 7174948 6965732 6835050 6657288 6456092 6267968
3125.10 6100092 5955740 5820302 5696528 5608280 5549932
3130.89 5479364 5381028 5267558 5151642 5070102 5022252
3136.67 4955120 4895518 4903974 4944602 4904512 4837202
3142.46 4835682 4882382 4986230 5045990 5009444 4971882
3148.24 4956978 4951230 5002680 5139874 5297956 5355898
3154.03 5290220 5244800 5309474 5388844 5466276 5579452
3159.81 5646746 5696338 5792980 5908918 6009006 6102742
3165.60 6226868 6354584 6506214 6678716 6759602 6696596
3171.38 6529536 6383994 6328734 6277364 6245496 6274372
3177.17 6321426 6384810 6426922 6424780 6492232 6690400
3182.95 6941506 7106906 6995948 6573696 6042756 5589032
3188.74 5260960 5010404 4842610 4728828 4579230 4394124
3194.53 4259554 4150496 3994774 3799978 3624264 3512910
3200.31 3390124 3216440 3000848 2758692 2536392 2316518
3206.10 2149034 2070980 2001036 1888108 1719034 1565354
3211.88 1505682 1458558 1384402 1343842 1302148 1211512
3217.67 1119008 1043760 1016384 1048566 1077494 1100488
3223.45 1131110 1156654 1204214 1253736 1278820 1336582
3229.24 1399084 1410876 1393198 1365722 1341666 1312900
3235.02 1294062 1258166 1214744 1261966 1367740 1435248
3240.81 1400544 1244640 1095508 1030830 959482 943718
3246.59 1008884 1031420 970886 861080 765546 702196
3252.38 624452 532096 444442 351492 225352 93302
3258.17 9420-40606-106096-167222-177354-184666
3263.95-280126-349048-331420-359446-452158-550604
3269.74-555350-460830-382574-372286-391058-440310
3275.52-550728-633104-616142-642112-730006-748420
3281.31-683390-627484-641810-652520-643006-671874
3287.09-693034-690396-696004-686210-631418-570066
3292.88-588600-705700-777258-699908-622144-604744
3298.66-547792-504000-521810-532270-549506-591230
3304.45-628748-594350-504964-442154-417136-442122
3310.23-480796-517316-540026-515932-457438-426920
3316.02-392224-318796-286790-349126-463134-555674
3321.80-600648-603716-564050-457942-361700-378004
3327.59-421708-469948-558360-598526-579250-510694
3333.38-415600-378758-425784-497950-535526-514304
3339.16-453972-424976-436662-449300-452776-445604
3344.95-421910-412282-382796-346550-370212-358410
3350.73-335708-307936-215856-165746-164524-143856
3356.52-125920-133662-91726 74770 203682 224356
3362.30 304482 418552 492858 561090 646230 657118
3368.09 649808 775614 861620 853592 905244 965352
3373.87 969796 942486 902208 890820 918946 945586
3379.66 919776 850658 881550 997560 1058994 1058652
3385.44 1011042 973946 1012830 1027246 960388 899592
3391.23 878268 830162 747594 683472 673316 690818
3397.02 625848 490420 453990 530380 530336 455622
3402.80 470520 577188 641692 640234 667900 697572
3408.59 657036 661026 710938 801430 990172 1170656
3414.37 1277612 1354958 1462624 1700874 2054258 2354500
3420.16 2548398 2758002 3059598 3396694 3714870 4034232
3425.94 4423078 4862418 5316494 5870558 6467938 6952234
3431.73 7379590 7901170 8612194 9434294 10172260 10820790
3437.51 11503290 12341260 13284840 14202700 15104380 15933610
3443.30 16706720 17558180 18485970 19369140 20133790 20850990
3449.08 21536580 22121330 22544710 22775840 22872880 22850520
3454.87 22646450 22331200 21964300 21566940 21236850 21069540
3460.66 21125280 21377790 21695270 21963300 22160420 22167860
3466.44 21868290 21344000 20599210 19628550 18558310 17390410
3472.23 16129420 14825480 13483770 12156240 10973940 9945318
3478.01 8991148 8053556 7116776 6234064 5447302 4760690
3483.80 4180244 3561160 2909752 2415356 1991352 1562976
3489.58 1190694 861090 547496 244706-14452-179952
3495.37-309368-524692-791158-934012-980332-1033042
3501.15-1032282-1039306-1148374-1282968-1405026-1526632
3506.94-1567884-1481176-1452554-1626344-1831812-1907466
3512.72-1879690-1897900-1998454-1990652-1902260-1903890
3518.51-1924980-1913550-1888582-1835552-1787518-1762606
3524.30-1771050-1806536-1838934-1870178-1864008-1816082
3530.08-1773094-1797934-1841692-1858332-1827088-1768688
3535.87-1800200-1864182-1843620-1778000-1738194-1754616
3541.65-1703922-1539214-1431990-1408842-1301768-1229796
3547.44-1325386-1412540-1385514-1233080-1102968-1121272
3553.22-1160138-1131648-1055224-1015498-982952-870700
3559.01-724852-587492-364634-156156-74770 88072
3564.79 478390 846062 1055096 919138 533796 336604
3570.58 273330 226014 188168 161678 148476 147516
3576.36 126570 96624 278790 720442 1103580 1083174
3582.15 711022 503630 721992 1043130 1080136 1140004
3587.94 1128516 628532 272160 397034 631478 642104
3593.72 631806 620970 411164 255080 203864 151192
3599.51 138040 44682-124470-293972-460346-545952
3605.29-394868-181974 190030 573878 54644-474730
3611.08-160418-38832-287930-456738-608930-446054
3616.86-77934 289728 395736-142090-629308-775786
3622.65-808768-827472-816078-530172 525176 1962878
3628.43 2263016 976510-329160-625274-419274-361422
3634.22-572078-727838-697350-584406-572652-629264
3640.00-586814-489510-462320-475490-373890 65798
3645.79 775878 1407626 2237690 2573408 1916908 1051324
3651.57 233080-163552 40896 915092 1403612 633838
3657.36-102872-218728-213358-200258-200802-234134
3663.15-248366-231244-197110-11132 559156 1309708
3668.93 2393164 2873888 1440884 244332 803008 2461324
3674.72 3439630 2257592 568742 109474 63932-234606
3680.50-472568-520650-527210-509364-507996-346480
3686.29 925796 2641030 2083046 731068 532528 149820
3692.07-392720-557792-633724-658972-628590-601332
3697.86-595516-555428-174056 223216-142350-667448
3703.64-747324-700942-668726-468206 71090 445096
3709.43 408106 1096966 1560516 486134-378992-493858
3715.21-611190-637920-463350-307342-354310-251704
3721.00 28784-95796-346004-184228 161354 241056
3726.79-120026-432914-420320 172022 1298132 1449632
3732.57 862710 1195046 1792158 1948906 1285864 300716
3738.36-146924-101428 33892 187912 1900776 4910272
3744.14 4622670 1509450 149402 1136864 3084216 3112158
3749.93 2355936 3390376 2859384 637382-286530-160626
3755.71-13004-150986-7268 299768 6740-493878
3761.50-651408-647358-468654-136032-183946-520124
3767.28-423260 211840 407802-183758-627552-780956
3773.07-838226-817026-766278-736322-585562-141610
3778.85 6970-435042-744892-728044-579478-459360
3784.64-512056-613722-648432-690142-725322-736588
3790.43-741482-721816-650214-571038-287288 93640
3796.21-3112-325176-246002 937854 2799708 2580348
3802.00 727486-255304-289270 657310 1797030 1207082
3807.78-94490-488748-450368-422628-399530-264444
3813.57 619534 2583352 2947850 1098318 62942 442904
3819.35 1549636 2301340 1632788 477636 334 42466
3825.14 294216 366490 169722 63928 255854 799138
3830.92 1014080 566276 623172 1208218 1297188 2198382
3836.71 3778440 3094944 1638940 1433924 1228138 958162
3842.49 1090860 990292 678524 575340 570860 640254
3848.28 831928 1334546 2826964 4402102 5797008 7018318
3854.07 5032604 2129746 1392304 1252702 1080858 1184864
3859.85 1590106 1853510 1659784 1888968 2660280 2532078
3865.64 1652064 1379882 2193042 3542856 3521168 2145078
3871.42 1425922 1693964 1909784 1500308 1070754 977264
3877.21 1066690 1501648 1997220 1738874 1120736 871700
3882.99 1095292 2054786 2550394 1558274 677310 550346
3888.78 807288 1507042 1643148 893592 408294 302442
3894.56 221094 213384 434644 1010136 1376654 1186314
3900.35 1342416 1433486 1381100 1598456 1242942 638834
3906.13 268684 65936-7424 3520 74024 93064
3911.92 45700 17234 55920 238634 525844 493740
3917.70 292440 352740 309484 109656 92380 251906
3923.49 394046 327174 163482 121054 154340 211498
3929.28 241944 325486 483168 428534 257036 144480
3935.06 86904 115300 194478 243686 218152 224754
3940.85 363822 398110 256244 242782 390778 588578
3946.63 698572 597710 347636 180134 195528 268578
3952.42 303020 321550 363846 383420 424258 514952
3958.20 562660 569050 593106 601530 589458 610570
3963.99 667902 753874 846124 878010 904330 972932
3969.77 1057856 1144548 1200688 1201194 1177666
##END=
