##TITLE=Methyl Ethyl Ketone
##JCAMP-DX=4.24
##DATA TYPE=INFRARED SPECTRUM
##CLASS=IUPAC A
##ORIGIN=NIST, Anayltical Chemistry Division, 301-975-3108
##OWNER=COPYRIGHT (C) 1998 by the U.S. Secretary of Commerce
##DATE=98/10/1
##$SPECTRA VERSION=1.00
##$UNCERTAINTY IN Y=2.1 % relative (B=1.1E-04,C=8.6E-10,D=2.7E-14)
##CAS NAME=2-Butanone
##CAS REGISTRY NO=78-93-3
##MOLFORM=C H3 C H2 C O C H3
##MP=-86.35 C
##BP=79.6 C
##$NIST SOURCE=QUANT-IR
##SPECTROMETER/DATA SYSTEM=IFS66V (Bruker)
##INSTRUMENT PARAMETERS=KBr Beam splitter; MCT Detector; Multipass cell
##STATE=gas
##SAMPLE DESCRIPTION=Methyl Ethyl Ketone Primary Gas Standard
##PRESSURE=101.3 kPa
##TEMPERATURE=23 C
##SAMPLING PROCEDURE=1 L/min Flow
##RESOLUTION=0.9640
##DATA PROCESSING=Happ Genzel Apodization
##XUNITS=cm-1
##YUNITS=(micromol/mol)-1m-1 (base 10)
##XFACTOR=1.0
##YFACTOR=4.5474E-13
##DELTAX=0.4820
##FIRSTX=575.169
##LASTX=3975.077
##FIRSTY=.0000217
##MAXX=3974.59
##MINX=575.17
##MAXY=.0005718
##MINY=-1.01E-06
##NPOINTS=7053
##XYDATA=(X++(Y..Y))
575.17 47725680 51434740 53996560 56072160 58179110 60268140
577.58 61807970 62212970 62553860 62713620 62709460 63602710
580.47 64379640 64806250 64062090 62695940 61483970 62099750
583.37 63772300 66756300 68538630 68558930 69070860 72638080
586.26 75232390 74056750 73167700 69048310 65202680 63249190
589.15 64943880 66424270 65434840 65979140 67963420 67243000
592.04 65448820 64953330 65278910 65931240 65760330 65769570
594.94 65520300 64554710 63731350 63476340 62846380 61782980
597.83 60392430 58448890 55682140 53588930 51627060 49097020
600.72 46770940 44406030 41670310 38880040 35882440 33014480
603.61 31012400 28604590 25957990 23929640 21776200 19673840
606.51 18197520 16462090 14859140 13820350 12804950 11431550
609.40 9736158 8862068 8074840 7362154 6882140 5956638
612.29 5358898 5302310 4895994 3964722 3710036 4125352
615.18 4227804 3774626 3022662 2763042 2876426 2752712
618.08 2452746 2309488 2244070 1892332 1612060 1721786
620.97 1618032 1593802 1686452 1422688 1302840 1701638
623.86 1615496 1479012 1427954 1512928 1379908 1366310
626.76 1510992 1327162 1204846 1301940 1588664 1416274
629.65 1183884 1224042 1283320 1217732 1317996 1078732
632.54 803064 592890 598162 686376 957530 1216528
635.43 1165490 1214112 1184612 987952 824048 582616
638.33 752348 933780 1064992 1057548 1130388 1688530
641.22 4460760 7796956 5043680 1924580 1322332 928672
644.11 1052696 1209764 981962 825292 566782 887418
647.00 1062862 1153388 1439834 1502666 1362024 1407014
649.90 1825736 2441884 3219842 3441358 2926356 2599188
652.79 2126518 1720178 1533570 1685522 1857942 1807224
655.68 1897264 2305176 2898412 3173530 3095348 2835176
658.58 2656242 2564718 2199096 1750086 1578372 1226294
661.47 1309502 1580956 1510446 1249692 1143102 1070992
664.36 1002522 976174 960200 1038130 1268288 1729882
667.25 2287256 1884138 1262862 1152336 1123246 1075082
670.15 1039848 997464 1131490 1178290 1023718 953336
673.04 1017862 1056140 935354 870172 1095140 1172584
675.93 777724 613172 672052 604146 730220 841626
678.82 711994 750622 764130 568040 560218 625158
681.72 550554 481640 481006 730876 758788 708476
684.61 537286 566524 430094 255894 440228 517414
687.50 346780 405140 705642 691222 612108 726190
690.40 662572 333458 258854 350360 30556-73506
693.29 473666 474616 128874 162488 347928 520792
696.18 367740 233384 154444 88284 130476 149252
699.07 120422 212002 192894 214148 398630 394964
701.97 96042 5836 211560 548468 348524 115908
704.86 342894 512446 346366 142884 66536 239362
707.75 277804 251112 364790 306800 304576 312786
710.64 279156 565668 797716 747644 701418 749784
713.54 854840 1087600 1043484 1046840 975862 940056
716.43 1039748 1168924 1399628 1603456 1736780 1824470
719.32 1645950 1572266 1876556 2134946 2297014 2588808
722.22 2765732 2906366 2991064 3057042 3116448 3414534
725.11 3728522 4150184 4469976 4757046 5115924 5482864
728.00 5903450 6349944 6696388 7070502 7532868 8022542
730.89 8664902 9146102 9451658 10095500 10826840 11385910
733.79 12025720 12537940 13101050 14021850 14843130 15563710
736.68 16113400 16826690 17753650 18690890 19557520 20148620
739.57 20997060 21987480 22868720 23890420 24778500 25682580
742.46 26771870 27851530 28863460 30055020 31281390 32498330
745.36 33751040 35010910 36317160 37664560 39221830 41206550
748.25 43574220 45994830 48891450 52664130 55765890 56119400
751.14 55044780 53743620 52461370 51153100 49682680 48173560
754.04 46840670 45881630 45273140 44525660 43690680 43069940
756.93 42757490 42657760 42738900 43628930 44996580 46121780
759.82 46333250 45730190 44777520 44122480 43650540 43167780
762.71 42697010 42458840 42002360 41298690 40640540 40005520
765.61 39275320 38375410 37333500 36317930 35052660 33579580
768.50 32371240 31167990 29612410 28032040 26558770 25077630
771.39 23643570 22284830 20970570 19621110 18271650 16954570
774.28 15892880 14865250 13849270 13016670 12039340 11263810
777.18 10611160 9795100 9131314 8634100 8194708 7674168
780.07 7176226 6913554 6484298 6192228 6186240 5890424
782.96 5513616 5365918 5104620 4679012 4463974 4280912
785.86 4116838 4096362 4172492 4075718 3955578 3788354
788.75 3626834 3425238 3297020 3164030 3151322 3118712
791.64 3142576 3183182 3028666 3103644 3089422 2867260
794.53 2763278 2815742 2783490 2983316 3012140 2622336
797.43 2339012 2434796 2441894 2546822 2546098 2413432
800.32 2064164 1874702 1943892 2067424 1918610 1777098
803.21 1916522 1887606 1852796 1722180 1595422 1658376
806.10 1749028 1804866 1877818 1771472 1469108 1355182
809.00 1344798 1387830 1369588 1395424 1457644 1355414
811.89 1229034 1236586 1264562 1195194 1054696 814088
814.78 772384 902582 915946 918062 980420 997316
817.68 1020856 802404 647534 903194 925506 758814
820.57 926112 1001574 1002626 877462 755856 799222
823.46 816640 697598 775652 845428 922358 815550
826.35 654494 698596 798066 771534 650016 556428
829.25 544876 733802 877478 950746 1042110 1074618
832.14 767178 614822 555026 591866 874088 1086790
835.03 1025196 856914 764268 699084 569130 640142
837.92 943410 1056862 970874 807216 730604 725140
840.82 769668 648090 591436 727996 878646 959204
843.71 918312 882732 878710 943394 1021166 860996
846.60 767554 842238 986596 1047162 906134 922198
849.50 1003946 980202 910710 887688 920482 921274
852.39 852276 838890 869674 880228 863532 958672
855.28 1062410 1154316 1144506 1101838 1124644 1014612
858.17 1019116 1045236 1003208 1080616 1196198 1310542
861.07 1267006 1217010 1175782 1152838 1286214 1434958
863.96 1485626 1457290 1471582 1547244 1457652 1434962
866.85 1533662 1608970 1590552 1610834 1699208 1802786
869.74 1828312 1812836 1851916 1977790 1974082 2014542
872.64 2160228 2132978 2236136 2465682 2515358 2494716
875.53 2692000 2844242 2859370 2890136 2818574 2808612
878.42 2869568 2897608 2950632 3033100 3268938 3350368
881.31 3238360 3375276 3529386 3662706 3719926 3727870
884.21 3800610 3925724 4000848 4137502 4310712 4407080
887.10 4467416 4562718 4550046 4650486 4832908 4981366
889.99 5098804 5436914 5709992 5864366 5914206 5895212
892.89 6153252 6572646 6776188 7030912 7313154 7485566
895.78 7767294 7985944 8138830 8388862 8572876 8907810
898.67 9478036 9855956 10183400 10605240 10980860 11410950
901.56 11761790 12224500 12711730 13157790 13698760 14316460
904.46 14952360 15535310 16157420 16879980 17617890 18462900
907.35 19204540 19960440 20868870 21766660 22600200 23648970
910.24 24731060 25634350 26733120 27963290 29113370 30200860
913.13 31361170 32494740 33640120 34911580 36243100 37592680
916.03 38880800 40114820 41365500 42786820 44329230 45917800
918.92 47371040 48973050 50534760 52059650 53773020 55799290
921.81 57821780 59340500 60738500 62476760 64329740 66112090
924.71 67963920 69807290 71696590 73786110 75966030 78156320
927.60 80248940 82199530 84235910 86411810 88621580 90820530
930.49 92887660 94877480 96866440 99098440 101218400 102808300
933.38 104286600 106333100 107876500 108427300 108877100 109431700
936.28 109762300 110092200 110340300 110640500 111490300 113089800
939.17 115970100 118654200 118062300 117322600 118121100 118377300
942.06 117114800 116159400 116201400 116241900 115258300 113642900
944.95 113065900 113077500 113163200 113362400 113620400 113944200
947.85 114100100 113789100 113038000 111826000 110482200 109180200
950.74 107865800 106235400 104568600 102830300 100770100 98696330
953.63 96449470 94039110 91837890 89800190 87543480 85134740
956.53 82877780 80797660 78660060 76383740 74127020 72047080
959.42 70138060 68232410 66355150 64600450 62906600 61203880
962.31 59553390 58018160 56518730 55110230 53741210 52309930
965.20 51116600 49979970 48835890 47869000 46807900 45894150
968.10 45125000 44261360 43400910 42770940 42209940 41634010
970.99 41060120 40498930 40079120 39775410 39508830 39200820
973.88 38926150 38714150 38482450 38285010 38057910 37857350
976.77 37768460 37679080 37624860 37579790 37550260 37502170
979.67 37280910 36968360 36744810 36715310 36539400 36202010
982.56 35930160 35675640 35327320 35009730 34680320 34323610
985.45 34031520 33797610 33616060 33578270 33600620 33543980
988.35 33447070 33115050 32741220 32598850 32155740 31618090
991.24 31211520 31036890 30985820 30758010 30359170 30017520
994.13 29813310 29499960 29196670 29048590 28976920 28824600
997.02 28629090 28303870 28023970 27780030 27541900 27313100
999.92 27159380 27006660 26812880 26483960 25966530 25305430
1002.81 24675080 24055430 23376020 22720550 21953290 21204130
1005.70 20629190 20009070 19453450 18759490 17997490 17361270
1008.59 16865810 16401300 16007980 15527330 15108250 14796640
1011.49 14375270 13973110 13706940 13441960 13165690 12885600
1014.38 12572680 12406640 12201290 12078930 11957170 11646020
1017.27 11379720 11309710 11230340 11039090 10716010 10498300
1020.17 10452450 10388920 10100800 9754614 9583866 9463674
1023.06 9240752 9110728 8986062 8719328 8460146 8313960
1025.95 8113388 7904450 7752478 7541062 7358420 7174042
1028.84 7174604 7132842 6969612 6888232 6816384 6760650
1031.74 6734212 6767084 6811782 6740178 6574446 6483282
1034.63 6396624 6355710 6369990 6413768 6395442 6325188
1037.52 6420190 6597306 6525048 6368524 6416450 6463552
1040.41 6574650 6582306 6530786 6690382 6844868 6909132
1043.31 6996344 7044218 7106972 7229332 7279502 7285000
1046.20 7377968 7588204 7768350 7940910 8209038 8393764
1049.09 8376506 8443008 8600540 8781258 8931594 8900628
1051.99 8921546 9118556 9322616 9609708 9859808 9992512
1054.88 10152900 10323120 10567300 10903520 11214660 11495980
1057.77 11884770 12244390 12472270 12723720 13106460 13555440
1060.66 13896450 14244280 14618170 15106370 15635600 16080610
1063.56 16546100 17058900 17651570 18328610 18833820 19180820
1066.45 19716070 20326440 20899060 21543010 22104370 22681080
1069.34 23358290 24013210 24666320 25305930 26024280 26850280
1072.23 27406060 27970240 28734280 29381730 30021540 30789310
1075.13 31530560 32080860 32610550 33260000 33913390 34518730
1078.02 34912720 35270940 35838380 36194740 36407700 36547020
1080.91 36830300 37043390 37096090 37039710 36916890 36633770
1083.81 36316090 36041340 35648400 35171490 34826720 34448990
1086.70 33935440 33496310 33178110 32909410 32618750 32476270
1089.59 32543570 32754610 33055960 33533600 34072160 34529450
1092.48 34763140 34783540 34617210 34469490 34171840 33566000
1095.38 33017970 32391190 31645500 30933680 30314150 29635390
1098.27 28841870 28103010 27615970 27141900 26476520 25856920
1101.16 25428320 24910380 24231940 23684810 23270640 22998550
1104.05 22706190 22382840 22158510 21920930 21682420 21480380
1106.95 21526170 21671090 21588850 21554140 21463100 21322440
1109.84 21007020 20567540 20506480 20479400 20355300 20295220
1112.73 20227890 20203600 20133040 20183430 20291230 20336190
1115.63 20318910 20322160 20451400 20570410 20614310 20760720
1118.52 20997170 21263560 21530330 21721750 21859590 22034630
1121.41 22299820 22546780 22810390 23146190 23418670 23716020
1124.30 24020880 24219860 24401700 24758680 25248310 25641070
1127.20 26005550 26405210 26942210 27517110 27989760 28504830
1130.09 29187050 29856120 30585630 31362180 32070970 32836400
1132.98 33836640 34993050 36120160 37242410 38556040 39946420
1135.87 41430680 43049730 44837390 46716320 48680530 50757600
1138.77 53129870 55731930 58530910 61605470 64894510 68606980
1141.66 72646300 76966300 81712660 87039000 92758010 98951210
1144.55 105661400 112721500 120287800 128455100 137350300 146646700
1147.45 156272400 166571400 177347100 188152900 199393400 211049600
1150.34 222842300 234921000 247280700 259562700 271849900 284027400
1153.23 295960700 307449900 318511600 329027500 338771200 348354400
1156.12 357669400 366371100 374753100 382954600 391394100 400405600
1159.02 409548600 418611900 427709800 435970700 443296400 450728400
1161.91 459248800 469433800 481582000 494777900 508314900 520678500
1164.80 532129900 544429100 556707300 560716000 555354100 553292400
1167.69 558337300 567559500 573633200 566199000 558528100 559579800
1170.59 563016200 566863700 571716600 577271500 582111400 585641700
1173.48 587692700 589253200 590159400 588004300 578022700 563315600
1176.37 552548500 549635600 556018000 556161500 536300800 514818600
1179.26 498538900 481007100 463893700 450375600 440577100 433067400
1182.16 425217800 417438300 410705100 404412300 398027600 391695500
1185.05 384362700 375885500 367164600 358470200 349221700 339752700
1187.94 330135100 320412000 310668100 300711400 290899000 281338500
1190.84 272020600 262779500 253460200 244493600 236034700 228026900
1193.73 220420300 213197700 206327800 199804500 193582200 187855200
1196.62 182363400 177218600 172530400 168133300 163928200 160022400
1199.51 156292800 152675400 149380700 146275500 143136800 140139900
1202.41 137138700 134214700 131374100 128722700 126129100 123431000
1205.30 120671500 118028400 115619100 113328500 111142000 109139800
1208.19 107068400 104996700 103144700 101313400 99209970 96994950
1211.08 94869250 92553300 90158360 87818270 85286590 82753760
1213.98 80224720 77712860 75085930 72318140 69527540 66822990
1216.87 64105660 61568260 59231450 56925640 54651940 52487570
1219.76 50382240 48444260 46560770 44762650 43124730 41727880
1222.66 40397200 39051490 37735460 36640240 35617610 34651930
1225.55 33732410 32909780 32206850 31505980 30788680 30153020
1228.44 29583750 29114620 28638910 28227280 27893050 27528880
1231.33 27157140 26808370 26445980 26191440 25969550 25750760
1234.23 25514570 25389880 25233630 25078490 25011840 25019100
1237.12 25019650 25003730 25087040 25238690 25463190 25672830
1240.01 25887650 26000240 26040440 26061000 26096720 26310920
1242.90 26560040 26787250 27072490 27320710 27553790 27847750
1245.80 28112510 28321800 28629590 28985930 29262310 29467580
1248.69 29670620 29884570 30037980 30225330 30386990 30517350
1251.58 30693620 30837040 30905940 31088420 31189550 31276550
1254.48 31387890 31459370 31452760 31506340 31545620 31642760
1257.37 31691140 31714360 31806330 31746700 31559980 31395470
1260.26 31152940 31031310 30945710 30844820 30729840 30613790
1263.15 30561450 30561260 30563090 30525390 30445080 30337300
1266.05 30029960 29763760 29605210 29580110 29456530 29179880
1268.94 28881030 28594330 28413490 28238810 27943750 27588970
1271.83 27177600 26807430 26429390 25989930 25557120 25321470
1274.72 25023420 24653640 24276580 23916250 23648130 23358500
1277.62 23057330 22819770 22453660 22174390 21912710 21582340
1280.51 21316250 21040670 20832070 20683660 20484400 20271900
1283.40 20057900 19869150 19687170 19567970 19450560 19339430
1286.30 19324320 19260590 19096660 18982020 19036940 19214910
1289.19 19356200 19485480 19517030 19660680 19909270 20167320
1292.08 20387630 20650200 20967630 21299660 21641460 22119840
1294.97 22584690 23028400 23490280 24003180 24512510 24962020
1297.87 25450670 26071470 26692510 27340370 27943130 28587060
1300.76 29193890 29859140 30563470 31298940 32051410 32760800
1303.65 33522660 34333850 35128550 35995300 36844480 37715030
1306.54 38601840 39505520 40372930 41239790 42161490 43051220
1309.44 43914270 44865040 45785270 46776340 47748740 48812020
1312.33 49937760 51037890 52026050 53099160 54306840 55354340
1315.22 56383820 57576120 58930040 60195120 61259140 62293390
1318.12 63498450 64823350 66133890 67479770 68872090 70409060
1321.01 71671300 72902410 74442200 76270080 77954100 79498380
1323.90 81167780 82907970 84658170 86436200 88255120 90103240
1326.79 92012790 94038970 95928660 97865620 99818680 101869900
1329.69 103967400 106170500 108258600 110501900 112830300 115245000
1332.58 117743100 120254400 122755400 125584400 128338400 130997900
1335.47 133749400 136627100 139390900 142118300 145045400 148329600
1338.36 151673700 155023000 158092300 161523300 165641500 170627200
1341.26 175550200 179517400 183146800 187130000 191576400 196358800
1344.15 201389900 207107400 213827300 221710200 230182900 239114400
1347.04 248675000 258672900 268937800 279530300 290269300 301284700
1349.94 312777100 324437900 336111600 348061600 360105100 371911600
1352.83 383462000 394474200 405118500 415676100 425488500 434444600
1355.72 442653000 450057000 456719100 462779000 467841400 472149600
1358.61 475639700 478298100 478846800 477773300 476676400 475356800
1361.51 474447000 474750100 476030300 478457000 483666600 494891400
1364.40 511065700 529193800 544705600 549530700 545132600 546011800
1367.29 535796800 512263200 494643600 481091400 474264900 474400200
1370.18 478227300 484023800 490874500 497136500 501886000 505395600
1373.08 508099500 508055600 505550000 501135800 493992700 484127900
1375.97 472269400 458719900 443568000 427108000 409496100 390902600
1378.86 371905300 352662500 333158000 314021800 295560700 277778800
1381.76 260631400 244262100 229145300 215390300 202867700 191208600
1384.65 180819700 172145500 164717200 157876300 152831900 149413700
1387.54 145074100 141763800 140195100 139428200 138986100 138630000
1390.43 138222300 137900700 137380000 136671000 135896800 135148600
1393.33 134808100 135234900 133973400 131948000 131028300 129412900
1396.22 127643300 126435300 125557000 124253900 123365800 123365300
1399.11 121956400 120182900 119401300 118873700 118564600 118281700
1402.00 118255800 118521600 118928600 119594400 120824000 122394600
1404.90 123244700 124099400 125443200 126848300 128511900 130433900
1407.79 132468500 134625500 137070500 139702500 142261700 144700900
1410.68 147182000 149619900 151962000 154255300 156532000 158715800
1413.58 160716400 162625500 164430700 166124700 167717800 169106700
1416.47 170674400 172150400 172563700 173077800 174796400 176654800
1419.36 173896600 170042300 168218700 166689800 165284500 163799800
1422.25 162621000 162187400 162594600 163147700 164119300 166106000
1425.15 168990700 172331400 175749600 179122400 182569600 185947500
1428.04 189014400 191662800 194372100 196525900 197079300 197269800
1430.93 197170100 196738300 196145400 195083100 193432400 191208600
1433.82 188983200 186819600 184776300 183090700 183318700 184153500
1436.72 180677600 177068200 175911600 175297800 175065000 175027100
1439.61 175153300 175190400 175054800 174969500 174747300 174195900
1442.50 173583200 173037100 172610800 172122600 171808400 171377000
1445.40 171040600 171226900 171999700 172709100 173666400 173155600
1448.29 171117300 169707200 169325100 169547100 170239000 171451300
1451.18 173412400 175836700 178746400 183028800 188720700 195877200
1454.07 204675100 215122800 226062800 236630600 245354900 244466500
1456.97 234392400 227203700 220996600 213119400 206136000 199768600
1459.86 193981800 187987800 181412800 174758300 168572500 162827400
1462.75 157087000 151893000 148472700 148227900 149177400 151896400
1465.64 156913600 160426900 161572200 160871400 158800200 156419500
1468.54 154851500 153761700 153013700 152693300 152809400 153901800
1471.43 155810200 154558600 152962400 154316400 152579200 149243600
1474.32 147304600 145392100 143935100 142165500 138378800 134325500
1477.21 130956200 127553600 123887400 120072700 116326000 112493800
1480.11 108682400 105141700 101385300 97425470 93828300 90430850
1483.00 87047440 83846230 80796790 77833860 75031010 72459650
1485.89 70083020 68407300 66979740 64121920 61486080 59898020
1488.79 58818180 57885100 56341980 55114180 53013800 50607890
1491.68 49311640 48156440 47148600 46114870 45292630 44350460
1494.57 43593140 43843390 46661020 45873540 41724690 40281520
1497.46 39908390 40801880 41126500 39213630 37909380 37447050
1500.36 37087850 36921000 36735090 36313640 35970060 35753400
1503.25 35580160 35503160 35845430 39111320 41858680 38901440
1506.14 40124310 42449960 38534780 36342690 36673830 36044250
1509.03 35985070 35866020 35147320 34770130 34732580 35683920
1511.93 36160000 34871050 34190660 34184450 34463380 34952920
1514.82 34839580 34589480 35288400 36066140 36862120 36439080
1517.71 34903430 34397890 34517450 35321840 36447770 37120100
1520.61 40383710 39271690 35490780 36104790 35279510 33643340
1523.50 33071510 33177240 34071070 35524680 34036250 32377930
1526.39 32433190 32801170 32190350 32184700 31933890 31147880
1529.28 30756560 30650510 30533710 30654640 30638350 30227770
1532.18 30431290 31442800 32141000 31494220 29362940 28658500
1535.07 28271440 27992860 27586180 27484870 27251710 27698780
1537.96 30041650 34883800 32821980 30797410 31745450 28084040
1540.85 26722200 29700690 29986830 26396260 25402130 24958660
1543.75 24455640 25400870 26495860 24702860 23281970 22814910
1546.64 22516080 22198850 22003460 21743930 21758640 22201490
1549.53 22438680 21768230 20814520 20493320 20245590 20064050
1552.43 19911260 20005030 21826500 23997390 21515220 19383050
1555.32 19000300 18987850 19365320 21772770 23296650 25893510
1558.21 26410850 21868340 23178180 26380510 22855000 18077880
1561.10 17331680 16914950 16948390 16712880 16609900 16382510
1564.00 16938990 17163970 16517810 15858130 15740980 15555610
1566.89 15487340 15247130 15432800 15862200 17186030 18265300
1569.78 16362770 14517480 14306140 14100000 14082430 13847730
1572.67 13875900 13644780 13620780 13556420 13891130 16408080
1575.57 21908400 19526780 14263330 13207480 12991390 12758350
1578.46 12565880 12517750 12453930 12389410 12276290 12130960
1581.35 12053220 11961410 11875950 11824010 11768760 11587370
1584.25 11484120 11419700 11339330 11199010 11075040 10994040
1587.14 10874610 10719500 10723060 10649200 10583920 10437840
1590.03 10267330 10169780 10115490 9930582 9843262 9740558
1592.92 9620938 9566454 9644762 9499930 9375830 9233740
1595.82 9134534 9043246 8900054 8763914 8733434 8659160
1598.71 8630884 8507276 8446926 8380632 8431176 8304188
1601.60 8166098 8133434 8260132 8227068 8105060 7984756
1604.49 7949850 7850542 7819414 7786708 7897158 7824070
1607.39 7645572 7545054 7648760 7769974 7651772 7378694
1610.28 7339748 7263988 7306102 7146144 7140942 7114210
1613.17 7204136 7064120 7086086 7076596 7389694 9448098
1616.07 14625310 13265590 8237618 7121024 6997090 7025854
1618.96 7015268 7081734 7081066 7108328 7095974 7276756
1621.85 7496256 7967912 9542522 9686082 7762178 7256288
1624.74 7248594 7359748 7285942 7304856 7625352 8689478
1627.64 8564370 7673476 7337260 7333064 7355986 7407050
1630.53 7354832 7379946 7372964 7436676 7428754 7495138
1633.42 7629166 8494652 10655810 13917490 13762610 9478004
1636.31 8116348 8820170 8896766 8081164 7926852 7915150
1639.21 8090046 8207242 8251828 8172808 8311800 8339726
1642.10 8471300 8441434 8519438 8631104 8886902 9055970
1644.99 11605090 14645290 12031250 9971616 10866100 10692740
1647.89 10453260 9379400 8920240 8788788 8919308 8810276
1650.78 9068990 11252110 17266210 19459680 20126180 16257160
1653.67 12489260 12615040 10649140 9860734 9826258 10047630
1656.56 10004450 10243180 10281660 10477650 10499540 10710850
1659.46 10826960 11138880 11380210 11833270 12124640 13632040
1662.35 15087050 13764880 12607660 12543960 12579370 12847490
1665.24 12937600 13157680 13317850 13613770 13916710 14611090
1668.13 15567350 18165720 18577900 16423200 15914980 16863890
1671.03 17953090 17534350 17302730 17560650 17902910 18413540
1673.92 19466870 22617780 24672130 22487450 21110620 21405730
1676.81 21973150 22639360 23354350 24028990 24906250 25989580
1679.71 26995710 27732570 28135760 28906610 29867330 31673000
1682.60 34257170 35527290 37225550 43443840 45672960 39844130
1685.49 38225800 39123890 40358260 41515550 43131480 44470360
1688.38 45595990 46757640 48650100 50076350 51248770 52536460
1691.28 54200060 55695360 57414290 59158200 61132840 62870360
1694.17 65155900 69259020 77509360 80269770 76204110 76536420
1697.06 79284710 81826440 84706300 88463940 95101230 102823400
1699.95 106890400 108673800 109653100 113102900 118054000 123356300
1702.85 128645100 134637500 141514700 147278000 152551000 159451300
1705.74 167255900 173993400 180488100 188010400 196122900 204821900
1708.63 213883300 223598300 233689600 244100300 254901900 266395900
1711.53 278448000 291115100 304258800 318188900 332999000 348132400
1714.42 364708100 381279800 397009900 414739600 435487000 458839900
1717.31 476588400 494971600 516840000 537751700 560044700 583852700
1720.20 608350400 633451100 659194200 685258500 711879000 739436500
1723.10 767206600 794607200 822280100 850078600 877874200 905772700
1725.99 933597800 960824300 987665900 1013951000 1039328000 1063189000
1728.88 1086185000 1108050000 1127154000 1143196000 1156860000 1167355000
1731.77 1174113000 1178713000 1182033000 1177682000 1169281000 1157398000
1734.67 1136652000 1113387000 1089609000 1065703000 1042853000 1022491000
1737.56 1006293000 996908000 996097800 1004824000 1021197000 1043689000
1740.45 1073472000 1107786000 1142786000 1175965000 1205074000 1227953000
1743.34 1243813000 1253535000 1257567000 1256472000 1250525000 1239298000
1746.24 1224006000 1205742000 1184291000 1160723000 1135049000 1106808000
1749.13 1076708000 1045862000 1015487000 985769000 953544600 919293700
1752.02 886346900 853744400 821456000 789585400 758356000 727786500
1754.92 697580700 668379100 640885400 614017100 586517000 560197800
1757.81 535412700 511484400 488308800 465918500 444112500 423271500
1760.70 403771900 385905300 366684100 347088800 329372500 312669600
1763.59 296663700 281373000 266925900 253058000 239816900 227246400
1766.49 215363100 204420100 195109300 184747000 173488500 163998000
1769.38 155397200 147491300 140743600 134481100 127201800 122751200
1772.27 118964900 110697900 103548300 98489780 93745280 89529420
1775.16 85663400 81458840 77484060 73996780 70685410 67589950
1778.06 64635270 61833880 59188760 56867460 55009760 52639710
1780.95 49874140 47712360 45713470 43830620 41994770 40349540
1783.84 38921820 38067490 36235290 34028600 32439510 31035080
1786.74 29744420 28510270 27278430 26187850 25230400 24508220
1789.63 24009380 23722650 22781920 21095100 21009450 22988100
1792.52 22387150 20506830 20215640 20156340 20000320 19712600
1795.41 19441970 18809820 18068840 17427440 16961680 16568450
1798.31 16313210 16666240 16624770 15589090 15123820 15142610
1801.20 14761640 14436410 14210650 13570200 13201790 12841750
1804.09 12590180 12340060 12065010 11725000 11414480 10979360
1806.98 10737010 10356640 9868634 9445724 9094506 8829536
1809.88 8946998 8641458 7824730 7379438 7192122 6884296
1812.77 6550180 6216182 5969756 5833028 5653816 5419362
1815.66 5204900 5005296 4993606 4812314 4493254 4344596
1818.56 4239114 4076736 3936976 3875242 3851300 3817614
1821.45 3763846 3705208 3632556 3420892 3395150 3526320
1824.34 4300508 4793648 3813708 3190970 3146844 3113458
1827.23 3054472 3052364 3348050 3737178 4219378 4879472
1830.13 3963462 3136514 3019090 3008176 3037424 3106192
1833.02 3141112 3017796 2952290 2944186 3041812 3052184
1835.91 3016810 3189238 3231390 3041888 3037968 3094540
1838.80 3153080 3151310 3151538 3108040 3178704 3313564
1841.70 3411064 3319226 3438988 4653080 6948482 5909964
1844.59 3820070 3475052 3423922 3483686 3537794 3802468
1847.48 3875810 3666448 3579040 3597936 3656910 3753716
1850.38 3807522 3881770 3971374 3959576 3888310 3915008
1853.27 4001898 4085722 4102564 4116102 4163172 4262444
1856.16 4338286 4378052 4433758 4494376 4612102 4689396
1859.05 4703536 4737704 4763406 4790480 4815378 4831946
1861.95 4871598 4933254 5034254 5086132 5144622 5224948
1864.84 5287672 5399494 5604920 5599916 5662194 6082018
1867.73 6153600 6280786 7306480 6982580 5940164 5751986
1870.62 5758792 5802070 5840654 5880888 5924134 5976494
1873.52 6037082 6129368 6170372 6202294 6215710 6266386
1876.41 6356402 6414676 6404844 6393682 6398536 6376972
1879.30 6321216 6302578 6309342 6348634 6360038 6261804
1882.20 6215016 6260982 6334020 6418970 6446684 6340180
1885.09 6277948 6372724 6421780 6339142 6349940 6391438
1887.98 6346244 6551738 7153810 6921922 6301004 6136944
1890.87 6104246 6070822 6041888 6073746 5990166 5880530
1893.77 5761536 5829198 5914628 5696568 5463524 5307074
1896.66 5199382 5177208 5111602 5078862 5005668 4974520
1899.55 4900946 4823642 4756340 4712342 4689916 4604668
1902.44 4453652 4381140 4356178 4350340 4323142 4249268
1905.34 4098682 3978880 3940448 3954624 4005552 3935726
1908.23 3799036 3825840 3972256 3951734 3736046 3659218
1911.12 3599916 3588134 3510684 3448502 3380934 3358770
1914.02 3379068 3368638 3284376 3275084 3201696 3172714
1916.91 3590152 4568796 4204714 3266918 3097206 3063498
1919.80 3057532 3036444 3066520 3139358 3234804 3318524
1922.69 3411184 3152458 2998772 2957962 2934818 2933100
1925.59 2878624 2856300 2908426 2856234 2837198 2877788
1928.48 2889496 2876548 2787080 2679036 2656908 2663894
1931.37 2701822 2691106 2638984 2633706 2633102 2620348
1934.26 2561854 2489822 2464120 2425590 2469680 2490918
1937.16 2474010 2485254 2517182 2518974 2481512 2458812
1940.05 2431428 2476926 2546994 2777654 3202366 2931582
1942.94 2529168 2509814 2485244 2491514 2470108 2426720
1945.84 2413852 2296922 2250076 2281850 2232832 2209172
1948.73 2223874 2192604 2094020 2045038 1964714 1943234
1951.62 2001058 2001892 1925140 1938260 1964180 2022896
1954.51 2052452 1949758 1826170 1742544 1675056 1644278
1957.41 1643792 1633654 1587324 1612080 1644674 1600416
1960.30 1643596 1627868 1522716 1564270 1516118 1457652
1963.19 1399476 1355622 1302436 1272088 1317362 1381968
1966.08 1311060 1367992 1472892 1263084 1139378 1113074
1968.98 1098412 1045786 970082 922554 925746 885098
1971.87 832238 846736 890608 832450 667608 811464
1974.76 1050552 1048556 982446 912418 964870 1000442
1977.66 1027162 1070376 1081322 1079412 1127124 1141754
1980.55 1183472 1205890 1210624 1282398 1352412 1300754
1983.44 1260438 1313930 1355584 1314918 1288596 1295000
1986.33 1269296 1266346 1313944 1360458 1356686 1291570
1989.23 1254160 1252268 1320356 1460094 1718748 1752858
1992.12 1515204 1428148 1416394 1386142 1334428 1325772
1995.01 1424612 1483482 1467884 1503180 1503100 1526904
1997.90 1493670 1476108 1515486 1519680 1445828 1394226
2000.80 1393530 1379196 1330272 1276362 1244396 1245642
2003.69 1199716 1130782 1109498 1079600 987998 947544
2006.58 951218 948122 918994 857054 769260 759022
2009.48 783596 745174 691532 685180 663364 654258
2012.37 663396 628936 599254 556794 513478 555504
2015.26 563004 599420 759314 674780 495070 485584
2018.15 523606 511386 400254 323016 353424 393802
2021.05 368016 403364 380836 303892 245270 235718
2023.94 276418 281090 266262 291612 269164 205422
2026.83 210764 265240 228960 208038 239154 263622
2029.72 246172 226178 194506 146836 170240 268268
2032.62 302254 285616 309440 314776 304438 307352
2035.51 262694 238298 280862 316538 316284 312196
2038.40 319752 314098 326404 382498 430238 469514
2041.29 394834 343424 327218 327890 344414 371550
2044.19 374870 369986 374954 356936 362188 354028
2047.08 380706 424962 415882 436036 482298 439272
2049.97 403064 422504 498586 514732 515946 567354
2052.87 551760 525074 518240 513852 528528 564054
2055.76 622470 680696 635268 650988 720426 734106
2058.65 704796 699656 733268 789602 820548 868620
2061.54 883384 849682 821788 873074 999000 1112876
2064.44 1204174 1161504 1067734 1038608 1105538 1121280
2067.33 1129848 1165598 1232456 1294672 1305348 1253262
2070.22 1253776 1314712 1373570 1478580 1565256 1631548
2073.11 1673858 1695488 1708608 1733766 1795590 1870706
2076.01 1908580 1924982 1940816 2030182 2141242 2219550
2078.90 2245464 2270226 2354158 2407906 2428600 2537612
2081.79 2624074 2681600 2755580 2861310 2947224 3050062
2084.69 3099048 3146292 3258992 3292132 3376376 3501126
2087.58 3615784 3695340 3773790 3877012 3999936 4074502
2090.47 4088322 4181916 4289214 4354470 4403936 4480586
2093.36 4631066 4722874 4758670 4811058 4892570 5010336
2096.26 5144030 5221324 5245180 5297116 5479616 5605560
2099.15 5646810 5695746 5773834 5812940 5863000 5945128
2102.04 6021236 6103704 6174792 6252816 6331122 6405984
2104.93 6514318 6552348 6571176 6658382 6719780 6761810
2107.83 6834258 6900670 6941056 7086894 7176056 7193464
2110.72 7200378 7253704 7309168 7424334 7532092 7522088
2113.61 7549494 7625872 7620752 7589970 7583530 7581460
2116.51 7583934 7638576 7571542 7468148 7397922 7274744
2119.40 7141756 7011968 6944906 6952588 6916050 6804410
2122.29 6686332 6743774 6744560 6629730 6543152 6538696
2125.18 6581354 6592388 6558944 6424482 6266130 6159806
2128.08 6050974 5932614 5816062 5718198 5623842 5529266
2130.97 5432126 5382058 5355336 5204332 5002916 4876174
2133.86 4743864 4634764 4536208 4419294 4259318 4083306
2136.75 3964006 3792342 3607096 3507702 3386096 3232406
2139.65 3099216 2989774 2847988 2722830 2609932 2536592
2142.54 2481734 2390118 2281980 2212954 2174144 2092550
2145.43 2039962 1995444 1921900 1835322 1832714 1817236
2148.33 1800080 1797730 1767200 1700770 1597058 1572316
2151.22 1591600 1562050 1553270 1510880 1442200 1474792
2154.11 1444438 1450206 1482862 1502260 1573556 1605322
2157.00 1520160 1458066 1483794 1495676 1508534 1503486
2159.90 1434348 1419426 1460900 1493018 1469488 1453540
2162.79 1445642 1394230 1404650 1507578 1558002 1541432
2165.68 1526180 1592500 1600954 1631580 1613520 1554172
2168.57 1572234 1581362 1603576 1625348 1642726 1628612
2171.47 1582894 1580806 1529838 1515668 1492746 1478182
2174.36 1415112 1376512 1359262 1311848 1284640 1238170
2177.25 1229716 1243480 1205920 1171924 1084376 1047108
2180.15 1069424 980938 909286 960668 963704 936006
2183.04 882226 852716 812188 798014 750426 694276
2185.93 635788 611212 620372 571138 533028 561092
2188.82 546836 515334 477328 424554 427060 393772
2191.72 322946 269852 250588 294644 252434 157090
2194.61 145994 146042 136676 152910 93884 96970
2197.50 90566 83898 71746 60468 46534 75486
2200.39 93170 5090-66704-60478-73514-82616
2203.29-42138-55898-83788-83816-80922-79722
2206.18-85450-52222-33796-58176-90476-100802
2209.07-71236-36464-12416-41144-93084-46446
2211.97 6124 10322 18606 53684 36424 21734
2214.86 4402-40054-63722-33464-55930-96856
2217.75-139054-170626-130536-41524-52638-136384
2220.64-160158-133664-123564-125766-132786-150834
2223.54-126638-83804-119334-154334-149098-147118
2226.43-115042-143318-177506-191190-225230-235030
2229.32-220118-214430-219884-204502-234926-250462
2232.21-220300-226832-217294-241406-253286-277198
2235.11-312924-290906-298436-288144-308590-292396
2238.00-283950-296482-335590-389366-346338-296732
2240.89-281196-254896-267690-315410-347146-312000
2243.79-269024-277750-286656-258924-329506-352204
2246.68-299146-283404-286958-247358-202120-206436
2249.57-197074-209760-251650-234420-187550-149624
2252.46-114026-99548-131536-168480-144260-98348
2255.36-73522-48074 304 61342 10064 5268
2258.25 34016 77958 93584 63516 108102 225032
2261.14 277872 265768 282976 277314 321140 399552
2264.03 466640 441260 440792 489636 523580 615750
2266.93 696196 699068 738006 783388 823040 891732
2269.82 885654 933560 1043552 1097974 1105924 1183424
2272.71 1265782 1236286 1225428 1293350 1412368 1506134
2275.61 1537666 1614764 1679486 1690288 1728308 1806090
2278.50 1862340 1905756 1958680 1948420 2086180 2196072
2281.39 2160338 2197950 2340728 2430356 2446808 2471932
2284.28 2537676 2580876 2598184 2647200 2667642 2664840
2287.18 2702212 2768258 2791332 2855732 2914864 2916112
2290.07 2849132 2851320 2914398 2995090 3053080 3059088
2292.96 3040510 3076984 3080658 3099588 3147832 3205304
2295.85 3223234 3201198 3123424 3113162 3144408 3084954
2298.75 3026046 3046868 3015936 3061366 3111098 3016886
2301.64 2982392 3006720 2927442 2846578 2778886 2769152
2304.53 2771230 2759008 2791776 2850786 2847210 2760976
2307.43 2687160 2724876 2780070 2707710 2591970 2581898
2310.32 2668894 2689818 2571806 2557518 2636988 2701816
2313.21 2482354 2410098 2486776 2592278 2418358 2325052
2316.10 2403378 2570756 2371596 2123824 2190114 2469640
2319.00 2333388 2011398 2014454 2416786 2406990 2064340
2321.89 2056884 2431094 2347972 1890428 1910688 2454244
2324.78 2412752 1849736 1918880 2540232 2396876 1834284
2327.67 2153352 2681648 2250730 1678576 2153364 2697792
2330.57 2122522 1723814 2398948 2639428 1915786 1837892
2333.46 2653888 2595614 1816088 2048860 2720324 2280294
2336.35 1800822 2423720 2660400 1933994 1999126 2726202
2339.24 2366302 1756422 2282400 2619300 2002334 1956220
2342.14 2483808 2184370 1790880 2187162 2271862 1835374
2345.03 1857038 2095152 1934532 1785164 1882010 1878364
2347.92 1782992 1730600 1726930 1830534 1800822 1860652
2350.82 2119546 2063418 1978302 2354810 2336052 2081440
2353.71 2591806 2688264 2314656 2808758 2812602 2358582
2356.60 2964960 2950400 2484422 3137810 3040226 2663636
2359.49 3342148 3033008 2864548 3523020 2946564 2952558
2362.39 3528714 2980902 3277560 3328082 2802484 3303740
2365.28 3005234 2866838 3193272 2795798 3119102 3080632
2368.17 2837866 3061584 2742536 2886172 2720400 2555304
2371.06 2727172 2541190 2652766 2530714 2546040 2449264
2373.96 2379498 2409280 2274880 2325980 2240868 2197648
2376.85 2176258 2163296 2098990 2087804 2044438 2041162
2379.74 2020820 1971946 1990972 1966742 1877106 1873674
2382.64 1887848 1836468 1758368 1743054 1766530 1746022
2385.53 1671506 1697534 1695222 1605576 1557150 1493066
2388.42 1422722 1345474 1314026 1302328 1262510 1240250
2391.31 1272562 1327850 1325372 1243422 1201026 1154356
2394.21 1067318 1050462 1085146 1089636 1039136 1037086
2397.10 1044518 1081106 1117162 1087128 1043850 996690
2399.99 983276 937684 914816 922864 946330 1012044
2402.88 1026222 1010166 1032394 989118 932242 934988
2405.78 878234 820878 908266 964606 918054 862680
2408.67 819070 819226 818306 814264 799486 728092
2411.56 700030 755282 807852 747810 717924 708550
2414.46 706248 698486 660274 662386 711298 646850
2417.35 558904 583296 696394 688902 546456 475452
2420.24 539896 620808 689490 712432 602976 543708
2423.13 618586 701926 655034 572198 572766 580504
2426.03 576588 545574 488612 495048 527504 482402
2428.92 414588 449318 503152 501510 479820 484946
2431.81 468248 453548 419352 460028 477576 422292
2434.70 410528 423976 426024 379256 366334 358146
2437.60 381016 405736 478442 487696 451176 394092
2440.49 430992 501968 451892 412492 478922 525218
2443.38 437388 390452 427638 476896 498782 491486
2446.28 479792 427182 372916 380212 437286 460812
2449.17 455058 413436 454998 463582 471336 550794
2452.06 599636 656980 712314 715770 750562 759368
2454.95 733922 685862 736286 762260 748884 818688
2457.85 825756 870870 943814 925980 962990 1017948
2460.74 972066 934788 902332 890392 982738 1020964
2463.63 1057884 1070558 1093498 1080168 1034172 1067168
2466.52 1107176 1062032 1010096 1023496 1017202 980228
2469.42 998734 1043796 1038326 1042194 1116070 1135128
2472.31 1111376 1088824 1117856 1208478 1260210 1279742
2475.20 1353516 1338710 1284094 1252848 1229904 1305046
2478.10 1329058 1264088 1261166 1271970 1235198 1213992
2480.99 1174144 1129684 1038660 957770 949202 993548
2483.88 989476 965658 914984 930748 939746 882188
2486.77 906274 866856 880092 881850 851912 908180
2489.67 963162 982320 945968 953504 996898 988608
2492.56 940488 996298 1121288 1107080 1136538 1205776
2495.45 1237530 1232514 1351590 1441358 1402488 1409714
2498.34 1539894 1564928 1544120 1579296 1626228 1631458
2501.24 1712036 1792480 1785850 1747744 1846764 1975792
2504.13 1990784 2023868 2059246 1996280 2023836 2152804
2507.02 2178612 2194646 2217892 2264754 2323316 2245452
2509.92 2260936 2394700 2431990 2390062 2398044 2483330
2512.81 2523974 2510992 2467492 2521040 2639538 2628412
2515.70 2585512 2684570 2811750 2789898 2719136 2720648
2518.59 2747348 2733736 2702726 2662980 2632872 2578128
2521.49 2518520 2544756 2597100 2581108 2436234 2356980
2524.38 2393780 2385802 2317334 2234258 2190032 2140772
2527.27 2172604 2222326 2161088 2059314 2056254 2017470
2530.16 1974014 1943154 1884412 1848398 1824132 1765720
2533.06 1696850 1692826 1719312 1699594 1595422 1500656
2535.95 1460880 1459824 1447040 1399172 1299650 1330012
2538.84 1387880 1317204 1207534 1177138 1171322 1083482
2541.74 1089814 1117922 1052892 996928 979250 959278
2544.63 938142 902184 779096 727916 741454 748982
2547.52 799780 869740 842594 753966 680554 700972
2550.41 772864 723474 683898 732242 744266 689366
2553.31 677386 694152 682052 691680 746854 755122
2556.20 760502 756342 751860 730016 644044 611614
2559.09 651296 643734 632142 651390 643328 622222
2561.98 629308 570986 547584 599302 587032 585942
2564.88 541606 530352 542672 477854 437550 500140
2567.77 502590 509212 555810 550300 502434 486536
2570.66 456016 431876 437256 489360 469472 386068
2573.56 407536 426582 372382 324944 299328 351274
2576.45 307984 280710 247752 200696 209450 218750
2579.34 206326 213422 163044 147792 211356 210630
2582.23 131568 159574 166184 140968 154530 123924
2585.13 140480 165854 129152 102576 58434 34088
2588.02 46256 102040 183886 179704 136092 183036
2590.91 242496 217906 129072 110592 196534 235766
2593.80 163620 116298 174942 172198 139496 129374
2596.70 174876 235586 251554 209256 237360 257926
2599.59 245582 279736 328198 360844 297342 233364
2602.48 259476 268298 209478 219440 261154 278874
2605.37 300590 288742 281800 286904 310992 342888
2608.27 350036 331736 323224 434300 435032 357908
2611.16 366018 375400 356750 352858 358738 370272
2614.05 431658 448274 302930 306528 373356 413206
2616.95 435384 402706 378044 370224 394626 459332
2619.84 460112 407964 390908 314640 317244 433190
2622.73 407500 368148 358332 342524 316580 317786
2625.62 381412 347422 282444 284558 285292 288706
2628.52 262232 228682 245638 227716 249912 217838
2631.41 227588 242172 262180 251360 195250 211070
2634.30 200754 196774 240830 299386 256706 134242
2637.19 117330 184984 203762 241000 300888 246314
2640.09 185742 193250 169670 221370 229082 158202
2642.98 204526 290494 319658 293136 275634 271458
2645.87 283124 303690 329714 368468 429452 445310
2648.77 433814 451674 474808 487076 513730 555836
2651.66 578972 531140 569994 652230 699712 799358
2654.55 828904 825838 837684 887794 867946 885452
2657.44 987084 1021222 1012012 1098176 1130428 1163598
2660.34 1202944 1254706 1327004 1361470 1410468 1418180
2663.23 1420344 1477368 1511818 1592074 1645716 1646616
2666.12 1661014 1681190 1699570 1792716 1840426 1822038
2669.01 1911048 2015566 1922306 1921364 1949186 1940370
2671.91 1966968 2002046 2054788 2111014 2081006 2068576
2674.80 2099690 2059522 1971302 2101982 2218318 2161268
2677.69 2136362 2101268 2034340 2107028 2122122 2111138
2680.59 2075120 2075126 2068482 2109342 2133992 2102584
2683.48 2137608 2163832 2129202 2134518 2117120 2078504
2686.37 2079022 2086102 2103736 2074364 2029978 2048512
2689.26 2014252 1960108 2004142 1958950 1954080 1979062
2692.16 1970742 1999842 1941106 1823962 1814822 1778682
2695.05 1734388 1666478 1739152 1813918 1778784 1761314
2697.94 1811266 1800048 1741012 1728642 1683982 1728186
2700.83 1845018 1862526 1798100 1769300 1733326 1794068
2703.73 1811518 1736512 1727594 1772116 1777830 1790996
2706.62 1766942 1758136 1880338 1883340 1782792 1840748
2709.51 1894312 1870286 1942544 1991368 1943958 1839488
2712.41 1796568 1814748 1891058 1973788 2039144 2068362
2715.30 2086674 2142132 2172498 2155278 2184688 2191740
2718.19 2226986 2230936 2179280 2203938 2276880 2306440
2721.08 2282070 2267788 2294950 2341934 2357684 2394812
2723.98 2436550 2424172 2429396 2489354 2585310 2590998
2726.87 2622848 2711166 2721742 2756920 2841690 2915274
2729.76 2975032 3012970 3025294 3078448 3163126 3289810
2732.65 3402816 3504900 3623326 3656570 3677810 3743508
2735.55 3884372 4005286 4089914 4112324 4136792 4276136
2738.44 4431326 4424930 4439436 4559328 4687272 4791836
2741.33 4866978 4966764 5026244 5120490 5311472 5397664
2744.23 5398384 5436528 5501314 5572282 5582034 5637368
2747.12 5683818 5624228 5607442 5679376 5751814 5826604
2750.01 5933366 6048618 6140486 6163232 6045812 5978628
2752.90 5973820 6058162 6091162 6109618 6144346 6150128
2755.80 6192288 6211172 6161078 6112704 6142900 6215908
2758.69 6198502 6182364 6287962 6226530 6138842 6105536
2761.58 5988660 5902158 5875706 5727124 5643970 5566032
2764.47 5471684 5360744 5255040 5228396 5190376 5127596
2767.37 5050076 4931004 4896010 4791784 4681260 4705598
2770.26 4815908 4767250 4691732 4771356 4800440 4756754
2773.15 4743852 4808112 4917332 4883784 4932702 5038002
2776.05 5035490 5067604 5183680 5246788 5333128 5451762
2778.94 5565700 5650356 5764792 5851402 5927398 6089602
2781.83 6145382 6178696 6317550 6479194 6677276 6745762
2784.72 6864032 7049676 7284894 7452728 7569280 7763260
2787.62 7997928 8238460 8427710 8694044 8879028 9061662
2790.51 9304216 9600924 9997112 10233970 10499790 10868950
2793.40 11159110 11361710 11576830 11879990 12137050 12319660
2796.29 12532580 12732840 12918540 13053060 13237860 13557210
2799.19 13870600 14189110 14351830 14519210 14809280 15136260
2802.08 15375520 15571600 15823150 16103540 16462670 16769640
2804.97 17042530 17445420 17904650 18260890 18569400 18969890
2807.87 19446460 19859560 20197350 20608370 20939230 21268180
2810.76 21663940 22062090 22489710 22939480 23368460 23744740
2813.65 24043870 24444660 24834750 25128080 25286500 25542350
2816.54 25755050 25980820 26185100 26246060 26375130 26522360
2819.44 26564060 26636850 26786260 27001610 27231920 27395480
2822.33 27557620 27712840 27842790 28073920 28252350 28500390
2825.22 28874350 29153800 29353630 29458760 29535370 29766080
2828.11 30189860 30458270 30556580 30776280 31061010 31243200
2831.01 31455340 31727290 32056390 32287410 32529680 32811560
2833.90 33070030 33344370 33608940 33798000 33990370 34040710
2836.79 33976750 33991440 33973950 33882640 33700120 33518850
2839.69 33428070 33312980 33140230 33055550 32935220 32741960
2842.58 32645600 32593820 32623640 32558030 32471740 32540660
2845.47 32736970 32722890 32589550 32644450 32697030 32643070
2848.36 32610960 32499140 32459220 32544780 32563700 32486560
2851.26 32458360 32454160 32472620 32533470 32587570 32710580
2854.15 32733070 32759980 32854820 32985660 33103910 33143650
2857.04 33165840 33269770 33293900 33438020 33566780 33656920
2859.93 33733610 33730360 33793800 34051720 34257440 34505810
2862.83 34812330 35025100 35192170 35564130 35859790 36187360
2865.72 36736440 37264450 37753460 38470560 39330780 40177660
2868.61 41206480 42238990 43333930 44669660 46150730 47872890
2871.51 49798890 51883720 54086840 56467300 59014540 61814380
2874.40 64815260 67971380 71410880 75141780 78961550 82849190
2877.29 86810310 90696540 94731800 98904150 102889900 106633400
2880.18 110506700 114134800 117337300 120476500 123175600 125448500
2883.08 127302500 128600600 129775700 130800300 131460200 132224900
2885.97 133246600 134737900 136634900 138960800 142115800 146177200
2888.86 151304100 157353700 164448800 172825700 180451400 185279000
2891.75 188220700 190198900 190917600 191809400 194074900 197360700
2894.65 201168800 205514800 210229000 214887500 219448900 223657000
2897.54 227215000 230342800 233022100 235131300 236848600 238452200
2900.43 239792500 240552900 241001100 241716100 242654400 243466800
2903.32 244054800 244682900 245023100 245078800 245250800 245755000
2906.22 246515400 247648000 249044200 250477400 252014500 253667000
2909.11 255466800 257234800 258825200 260433800 261892900 263260900
2912.00 264834600 266678200 268779700 271896400 276518400 283358200
2914.90 293383200 305010400 313011200 314685900 312717200 309186200
2917.79 304059600 297416900 290330600 284139400 279612700 276043500
2920.68 273355800 270688200 268000100 265384500 262927900 260450500
2923.57 257801200 255266400 252830100 250360000 248033400 245639800
2926.47 243146800 240842500 238492900 236333700 234582000 233274200
2929.36 232157900 231434500 231026200 230857000 231243200 232082100
2932.25 233104300 234586600 236878000 239791800 243056600 246774000
2935.14 250838500 254872400 259084000 263478400 267970100 272033300
2938.04 275743100 279399900 282737800 285559400 287657200 288887000
2940.93 289213400 288625300 287331900 285349100 282271300 278464600
2943.82 274473100 270085500 265553100 261401200 257805200 255326600
2946.72 255109200 258423900 267779000 287793400 309523000 312845500
2949.61 301011400 287554000 276948900 268765200 262862700 259250800
2952.50 257911400 258201200 260021800 262858200 266472300 270449500
2955.39 274535500 278572300 282312000 285487300 288057700 289941400
2958.29 291042400 291369700 290993300 290222600 288928100 287157900
2961.18 284925300 281657200 278059000 275339000 273096600 271198300
2964.07 269729100 269069100 269440100 270669100 272784300 276121400
2966.96 280331700 284616200 288659600 292282500 294791100 296223600
2969.86 297127900 298326700 300299300 302827700 306548700 311522600
2972.75 317008700 322669800 328688100 335038300 341493900 347962600
2975.64 354171200 360338400 366541900 372244000 377902300 383592800
2978.54 388702600 393594200 398582300 403207900 407387600 411495300
2981.43 415775300 419733100 422968700 426286800 429774500 432675300
2984.32 434760900 435668500 435094200 433505000 430583700 426818100
2987.21 423636400 423008300 426674000 434579100 445048600 460396900
2990.11 488393500 535973000 597402600 638274800 614869800 545474400
2993.00 486804100 454677200 438939900 430849000 426153300 422667600
2995.89 419074400 414700000 409605800 403945100 397631900 390577900
2998.78 383148600 375455100 367349400 359377400 351626500 343776500
3001.68 335795200 327770500 319959300 312232500 304744900 297181900
3004.57 289638700 282226000 274858300 267300700 259866600 252589500
3007.46 245137700 237568400 230266200 223295400 216398900 209820200
3010.36 203721900 198289600 193970500 190509300 188147900 186947700
3013.25 185461300 181385000 173872600 165285800 157796900 151665500
3016.14 146733700 142862300 139854800 137225300 134792800 132497300
3019.03 130420700 128383300 126294600 124229300 122119100 119791800
3021.93 117254300 114639400 111974400 109251500 106416200 103575100
3024.82 100699100 97662770 94690050 91914860 89047760 86093200
3027.71 83226220 80420100 77820730 75364810 72954190 70692970
3030.60 68572200 66478060 64472000 62583370 60824590 59161460
3033.50 57793120 56573610 55363830 54299130 53279760 52290280
3036.39 51459580 50662920 50006480 49370150 48760820 48285280
3039.28 47792800 47372520 47003030 46507930 46148400 45759900
3042.18 45481470 45379220 45075270 44566960 44191450 43842930
3045.07 43629600 43460460 43245100 43005300 42808140 42578020
3047.96 42316490 42057900 41967290 41827880 41727840 41571280
3050.85 41297200 40963190 40746050 40533450 40324050 40152030
3053.75 39969590 39743130 39566900 39354780 39139940 38803040
3056.64 38601370 38415040 38123010 37854240 37650720 37336100
3059.53 37098690 36996180 36778460 36536650 36305480 36083810
3062.42 35855060 35579610 35292850 35068370 34816330 34657950
3065.32 34336610 33918090 33594120 33356170 33160450 32851830
3068.21 32487800 32286750 32025810 31738870 31406440 31060390
3071.10 30811790 30673840 30402700 30071870 29650710 29277080
3074.00 28890420 28571420 28333190 27962060 27665960 27332400
3076.89 26793710 26425990 26295120 26039120 25636310 25206410
3079.78 24718160 24421620 24148600 23753750 23380970 23140820
3082.67 22740240 22321800 22000010 21720980 21341070 20974930
3085.57 20729020 20347680 19972290 19701250 19489570 19253330
3088.46 18916580 18531870 18101790 17705870 17570630 17410840
3091.35 17097540 16771670 16633270 16462100 16078020 15639840
3094.24 15441440 15359160 15218360 14970800 14665560 14510100
3097.14 14365840 14132510 13879830 13742610 13717680 13516320
3100.03 13335340 13085240 12781810 12618630 12534350 12400050
3102.92 12305490 12110030 11925040 11858630 11626490 11423660
3105.82 11237050 10910670 10866510 10837370 10680160 10564860
3108.71 10559980 10350240 10076420 10071340 9972886 9790850
3111.60 9681000 9602818 9491474 9291188 9009214 8841914
3114.49 8607132 8505914 8647742 8425492 8066888 8047402
3117.39 7998178 7825954 7680514 7555296 7371692 7050538
3120.28 6909960 6967718 6956342 6842014 6788768 6726924
3123.17 6442342 6458126 6438808 6212434 6146246 6135824
3126.06 5976422 5971154 5915442 5792876 5730726 5715284
3128.96 5639288 5548194 5555948 5616514 5544880 5429052
3131.85 5448506 5443518 5297416 5233220 5240976 5166524
3134.74 5077060 4971592 5054270 5115418 5021444 4878776
3137.64 4900132 4936376 4835202 4819666 4919246 5055474
3140.53 5034284 4904876 4780722 4791210 4809948 4864984
3143.42 4872170 4795986 4860548 5001374 5158924 5135746
3146.31 4995554 4965276 5004816 4963422 4935628 4977268
3149.21 4966234 4942502 4880042 4964984 5077758 5090710
3152.10 5217346 5363430 5415482 5430764 5375688 5262690
3154.99 5205148 5178912 5187928 5302622 5475720 5412428
3157.88 5322174 5435672 5507464 5609284 5741638 5664256
3160.78 5544606 5659708 5819382 5759904 5792162 5959878
3163.67 5983904 6017478 6059426 6041488 6140408 6241426
3166.56 6353594 6335170 6349950 6490880 6610406 6696726
3169.46 6849610 6828322 6719208 6752854 6741924 6474484
3172.35 6367506 6323686 6311630 6364952 6367932 6285100
3175.24 6166248 6190902 6267286 6295024 6311386 6287150
3178.13 6321202 6387100 6450798 6500994 6430140 6355764
3181.03 6420010 6398984 6508044 6713636 6835212 6933962
3183.92 7054782 7243708 7301604 7117114 6891380 6628038
3186.81 6240046 6036422 5769038 5493274 5325136 5311130
3189.70 5157182 4926044 4830304 4843188 4806884 4751514
3192.60 4644382 4652884 4527286 4303274 4247558 4254504
3195.49 4265540 4173608 4098756 3986756 3910428 3829364
3198.38 3708498 3518098 3487444 3595676 3535090 3371746
3201.27 3290274 3224218 3175130 3020566 2872816 2719520
3204.17 2612806 2553840 2488566 2301996 2136794 2064672
3207.06 2085722 2140588 2043622 1968446 1986414 1941088
3209.95 1813204 1754232 1601190 1442578 1500274 1518340
3212.85 1533096 1499578 1417336 1327052 1320584 1361018
3215.74 1348730 1348114 1299546 1171806 1133538 1127008
3218.63 1087224 1057394 982010 905102 1033686 1145538
3221.52 1043706 1045058 1105466 1100810 1094410 1136182
3224.42 1186186 1140110 1123924 1188360 1241246 1347558
3227.31 1288456 1163534 1261684 1401234 1376610 1402060
3230.20 1459234 1443660 1341444 1390834 1473646 1334010
3233.09 1246524 1412958 1401804 1267458 1231656 1270284
3235.99 1402182 1322616 1123442 1146916 1216252 1222514
3238.88 1310086 1389040 1463746 1453188 1465488 1445056
3241.77 1461186 1241380 1041698 1020470 1029850 1082752
3244.67 1135538 878960 766110 956306 972234 1056722
3247.56 1067574 1033660 1080124 963924 931284 873404
3250.45 775976 715916 729880 729742 724108 599534
3253.34 524968 584138 510738 384534 388020 419506
3256.24 342432 177558 137134 105408 15058-46556
3259.13-10154-10140-21950-114736-228484-137162
3262.02-143432-304000-188916-2266-154348-318730
3264.91-435256-478992-296244-221158-320798-389814
3267.81-359392-430706-495388-605042-664086-609806
3270.70-512084-436398-403890-321332-337798-390484
3273.59-400558-363622-392274-424520-431576-514424
3276.49-697874-712344-734850-524804-472108-643790
3279.38-711038-769190-841794-730246-736374-743590
3282.27-618634-505232-587328-726210-677536-653632
3285.16-648786-614966-584636-671918-783800-723338
3288.06-633408-626600-780636-705686-627458-727388
3290.95-760442-620926-506786-594374-547650-480266
3293.84-597830-720524-832130-908662-825758-663558
3296.73-556968-561588-617784-685432-631140-534716
3299.63-469648-400458-518554-605820-523604-529854
3302.52-487094-516808-630040-609690-511566-660714
3305.41-780736-636756-473362-429324-517234-471420
3308.31-392814-339400-394118-509310-466356-442652
3311.20-501284-528654-546906-554570-553386-541852
3314.09-521724-427614-351804-430248-482034-450886
3316.98-347270-254088-276106-280336-242924-279754
3319.88-437924-534078-483676-532284-674680-617632
3322.77-556912-638194-640344-541110-578282-514242
3325.66-356214-226972-274408-427724-475464-438982
3328.55-386702-369806-536450-611750-656366-641570
3331.45-486524-632898-643862-519824-419546-366398
3334.34-406456-336878-287988-461130-514552-492760
3337.23-498912-586968-580564-524134-473818-463916
3340.13-388046-364992-453014-490722-387294-443530
3343.02-531336-396800-427758-513368-444438-405398
3345.91-363878-388084-471288-493238-294114-219206
3348.80-272462-494714-541804-262784-236622-320106
3351.70-414874-420506-250492-142002-134406-142324
3354.59-174578-186958-215468-106230-70976-174770
3357.48-114130-99886-139754-223944-156052 128254
3360.37 324946 284034 239926 105258 122360 373984
3363.27 430724 415242 430062 526858 558136 495114
3366.16 553504 699644 748806 792418 566448 440726
3369.05 572202 906534 1006930 908698 795522 795280
3371.95 807878 916412 997324 1012586 983080 931308
3374.84 973784 1000200 912580 857742 878216 875416
3377.73 882362 938432 936072 946704 989040 955726
3380.62 924174 835484 636666 822362 1027722 1075000
3383.52 1040860 1045730 1072356 1127026 1045244 995454
3386.41 1001450 908076 876196 1046486 1143082 1113594
3389.30 943084 918242 979670 875390 775786 930216
3392.19 956584 868342 708586 710074 776824 696060
3395.09 560450 611538 743734 786022 670938 631518
3397.98 690152 421140 254166 395580 528038 570774
3400.87 647376 578576 476254 423522 322914 410696
3403.77 547804 633994 615158 705586 674108 635526
3406.66 545816 616808 769914 789900 760418 563160
3409.55 488318 682382 810444 698592 641310 735550
3412.44 850522 1002950 1161554 1229578 1214020 1257108
3415.34 1369868 1353740 1342250 1439188 1506360 1542280
3418.23 1872694 2159952 2268306 2361924 2549942 2528322
3421.12 2576984 2694442 2864364 3068196 3253670 3391886
3424.01 3544220 3759076 3886964 3967152 4135826 4418486
3426.91 4666194 4877826 5093524 5281572 5432622 5843386
3429.80 6199068 6598880 6827966 6886786 7180292 7342170
3432.69 7586318 7801070 8124050 8563258 8972606 9546332
3435.59 9946620 10174450 10452800 10833540 11179130 11411410
3438.48 11766170 12242260 12856990 13398150 13771530 14107840
3441.37 14612020 15203220 15625110 15953040 16307700 16635820
3444.26 17058770 17528770 18033810 18461970 18976330 19489020
3447.16 19830000 20100980 20449580 20859230 21251520 21604250
3450.05 21846790 22156570 22468420 22631030 22750720 22787490
3452.94 22895910 22905350 22825680 23008500 22956800 22620780
3455.83 22387480 22383420 22269510 21959940 21731050 21516490
3458.73 21392360 21199390 21001980 20960720 21034940 21072860
3461.62 21074210 21366990 21633950 21700810 21850750 21978650
3464.51 22078910 22219710 22297140 22312300 22271290 21903150
3467.40 21546950 21403050 21240310 20755890 20068450 19638800
3470.30 19130900 18602680 18063010 17419130 16768920 16154270
3473.19 15487210 14810980 14195540 13539010 12785660 12025910
3476.08 11464010 10942890 10399060 9906956 9484250 8976900
3478.98 8490780 8095942 7608092 7083472 6577706 6230572
3481.87 5810712 5361954 5134376 4699238 4307060 4203972
3484.76 4060752 3671192 3148916 2706030 2512464 2491450
3487.65 2311396 1920828 1760752 1551290 1326186 1173722
3490.55 1021682 861650 730198 484660 405176 288010
3493.44 67566-95392-194096-115776-261462-308350
3496.33-295598-458548-654060-922760-990102-988020
3499.22-921834-900546-1010196-1099624-1115498-1046912
3502.12-968922-890944-1082802-1205436-1196110-1304422
3505.01-1362140-1353470-1455162-1593014-1603410-1607608
3507.90-1671926-1490666-1244008-1344476-1439238-1640510
3510.80-1822940-1864730-1966248-1944196-1929708-1881118
3513.69-1799366-1795816-1896458-2075370-2225636-2069618
3516.58-1818838-1758966-1934798-1900706-1909148-2023028
3519.47-1894924-1866016-1897348-1962810-1916018-1763984
3522.37-1765250-1823394-1784886-1742632-1733594-1713976
3525.26-1805816-1879178-1820862-1737488-1863500-1995092
3528.15-1865702-1797818-1906472-1858700-1775968-1675744
3531.04-1714040-1846124-1876474-1795598-1884294-1874400
3533.94-1822914-1924272-1854274-1637250-1629556-1792940
3536.83-1969486-1932262-1811642-1859802-1872906-1774080
3539.72-1669916-1702262-1763114-1726838-1784242-1909670
3542.62-1670494-1371870-1386906-1484738-1326574-1396152
3545.51-1633978-1386450-938918-1053032-1318118-1420350
3548.40-1406208-1395088-1482396-1415516-1442320-1289380
3551.29-1008354-887028-1138122-1210560-1114652-1164106
3554.19-1196812-1194482-1121374-985064-950948-1030776
3557.08-1072616-996288-951212-961098-791394-600962
3559.97-597702-773806-627272-286564-99964-142670
3562.86-61036-35898-105812-158750 84826 591014
3565.76 932616 1021528 554374 1107192 1807990 1045890
3568.65 462840 279172 330916 436282 302626 179078
3571.54 268306 263880 190200 169278 172682 158918
3574.44 136002 167932 157608 82372 158296 235498
3577.33 149350-40884-78272 127908 496106 742444
3580.22 958338 1326706 1389442 1306620 1023516 552586
3583.11 353350 218338 439086 793618 834470 1032846
3586.01 1767782 1189952 391134 578486 1954168 2080568
3588.90 593666 283910 280530 119798 46380 325814
3591.79 625674 804170 924984 634068 329552 431366
3594.68 927562 924394 556948 292530 68406 204866
3597.58 430182 222336 67726 118292 108724 159236
3600.47 293364 93296-128762-211058-118278-201398
3603.36-482914-546096-428474-576250-836280-639438
3606.26 77602 267030-463920-643750 278836 2265404
3609.15 1295706-640852-939868-924264-789018-59786
3612.04 1007454 259618-725538-648524-117098-174036
3614.93-554734-857940-987856-720238 109532 393964
3617.83-274888-476638 1002018 1794794-30080-741446
3620.72-560624-618512-764572-828754-909120-742668
3623.61-755808-822476-899802-937638-739056-681026
3626.50-795752-287416 1719504 3127774 2001938 3645418
3629.40 3037650 154596-547396-781524-755142-706112
3632.29-695684-503126 102280-73610-599158-723316
3635.18-694568-728080-822476-829690-648558-426650
3638.08-451140-585626-620248-683278-712342-647454
3640.97-466508-445628-426200-438202-453192-540972
3643.86-531364-457738-341530-207156 216768 871162
3646.75 1874452 1438454 355862 1716210 4984518 3489844
3649.65 1090960 1758898 2037300 1394094 212516-104442
3652.54-217824-242936-318222-174752-72628 287408
3655.43 2186756 3400848 1091000-122374-258228-238226
3658.32-254596-207736-192918-169192-300040-197530
3661.22-168630-116760-228026-269810-313030-207314
3664.11-238120-236816-253346-196010-189420-125244
3667.00-111242 70984 1466614 2069780 735424 778316
3669.90 4225168 6316050 2344598 127776-260510-75722
3672.79-183682 179508 1000524 3034488 3388398 4747218
3675.68 5467318 1662632 10966 42436-101702-125914
3678.57 350646 561644-95830-432098-566132-498080
3681.47-492944-513762-560650-520156-567140-465580
3684.36-509154-442204-561462-532458-586622-360338
3687.25 962952 5691826 5843126 1059672-339556-170496
3690.14 324492 1496686 1204030-320930-568290-574372
3693.04-476020-524818-531272-708268-738120-694616
3695.93-595634-615180-617538-628162-575748-558612
3698.82-563458-656354-669078-676876 132106 1380142
3701.72 744018-586976-859534-809360-823142-817212
3704.61-602698-640990-722304-776854-683844-555984
3707.50-388262-379024 653296 1642830 433676-421930
3710.39-248824 227774 2764960 4091278 1132424-625650
3713.29-857770-600020-155782-317874-668198-673652
3716.18-721558-702066-665522-581226-246566 30770
3719.07-288326-464574-510494-523718-341060 572676
3721.96 670232-163834-648136-702796-415164 31948
3724.86-81842-177044 720848 905382-46382-313768
3727.75-443926-503988-575658-532808-438912-199798
3730.64-113344 1490696 3924352 2275544-80020-261158
3733.54 336318 1687236 2294188 1747870 893626 2864976
3736.43 3452486 708730-55662 323048 33136-446588
3739.32-443194-227272 183472 422008 12704-258592
3742.21-205910 150830 1999056 7015308 10883560 6130192
3745.11 896760-147810-355172-164462 170320 117956
3748.00 587404 4402500 7517352 3715246 464760 105796
3750.89 883128 5377158 8020334 2885972-98104-263856
3753.78-310308-464074-444650-443898 159600 668582
3756.68-47528-558422-504910-216654 204964 932794
3759.57 921382-204670-618508-698106-640332-669652
3762.46-647462-656198-657060-713942-563984 152412
3765.35 736180-202460-655150-696758-700606-663130
3768.25-585788-45748 1632974 1384070-265206-691996
3771.14-588350-562678-710344-855570-896930-858182
3774.03-829630-800236-844490-776216-667092-700062
3776.93-806084-759356-709520-323370 831662 715300
3779.82-424098-726966-813948-846296-787620-738850
3782.71-710194-633474-500294-243916-311100-570274
3785.60-715734-612280-608838-639074-679578-652898
3788.50-728940-772900-751074-704820-707700-764746
3791.39-784232-736336-741682-610942-553984-580756
3794.28-663624-585990-248946 786832 715594-259368
3797.17-363222-446888-531592-358326-400390-54310
3800.07 732772 4476874 6922182 2513374 225578 326190
3802.96-175814-557538-506758-457062-452844-246038
3805.85 919130 4069714 3728196 510522-419224-567718
3808.75-503512-608750-450358-450936-329912-448550
3811.64-441148-461812-354978-376310-220110-150952
3814.53 89982 2378980 7149694 5111466 666834-136054
3817.42-192834-123704-56264 51850 368222 1670968
3820.32 2808016 2748112 3443782 1786754 183088 62806
3823.21-25682-43802-127620-60932 31456 201170
3826.10 871452 685424 31372 49016 76486 5796
3828.99-11724 133414 177932 511320 1768926 2054848
3831.89 588392 129978-42248 68664 578434 2398694
3834.78 2225878 652690 381112 725748 2248822 7230584
3837.67 6746600 1805666 595938 1027566 1410926 1525404
3840.57 2241506 1263268 516118 499362 763420 1525072
3843.46 1771264 875172 524322 515216 658244 549126
3846.35 562548 572490 555080 518248 694664 798770
3849.24 1033424 1087700 1066902 1391582 4848440 7386616
3852.14 3817744 2339022 6316576 12111760 10005070 3470206
3855.03 1053036 981768 1258566 1709918 1714150 1065542
3857.92 990744 943570 1063870 1109586 1173142 1308792
3860.81 2071926 2722938 1836904 1167938 1299934 1396004
3863.71 1798308 3271682 4527170 2657614 1482244 1268762
3866.60 1180706 1140090 1176622 1486216 2772492 3867260
3869.49 5895294 4740226 1951404 1520370 1199176 1136234
3872.39 1197212 1487490 2206540 2784176 1969980 1069496
3875.28 1013528 1041474 898742 941182 1010126 1003462
3878.17 996434 1073422 1759344 2946870 2605810 1650318
3881.06 1166922 804502 774950 925740 913782 680880
3883.96 816582 1347482 3791224 4644090 2205392 664196
3886.85 391540 508460 565748 585492 567828 458318
3889.74 506746 1388604 3268156 2530772 771900 412596
3892.63 392288 320552 347618 371504 263862 201520
3895.53 107702 146702 207842 301292 530990 607752
3898.42 1539086 2702048 1443560 359002 233462 1343344
3901.31 2935540 1889154 395408 347318 1610962 3137022
3904.21 1881276 558924 686726 885822 422316 54648
3907.10 18140 104602 52172-54192-101674-49956
3909.99 77230 118628 97496 160038 102116 8066
3912.88-19652-9782 31822 41204 31114 104116
3915.78 291696 549046 1256016 702108-57560 29522
3918.67 109204 471142 925452 317060-119664 101778
3921.56 74352-70770 80240 315130 426054 372614
3924.45 596764 510016 83100-2342 67936 178726
3927.35 186716 101532 65790 270582 347778 280196
3930.24 160456 89870 334882 841876 787884 307558
3933.13 150744 284764 280034 117900 21618 37198
3936.03 98352 98034 122798 177110 313796 274590
3938.92 250960 260224 138710 127686 172926 335178
3941.81 619158 759818 243108-64600 170234 329474
3944.70 227748 324570 494382 598202 770338 825226
3947.60 704532 662738 603368 297396 47522 78374
3950.49 167524 210358 231266 234202 356410 397964
3953.38 222186 244686 360188 431490 417180 338576
3956.27 358938 391016 424432 558212 659320 550694
3959.17 534254 554788 563418 607862 623556 644272
3962.06 572078 570334 566588 567300 680892 663832
3964.95 669026 723374 798736 918936 945460 870198
3967.85 799882 854620 1008508 956844 991256 1036206
3970.74 1117304 1191704 1153638 1230218 1252274 1204650
3973.63 1213188 1130526 1111726
##END=
