##TITLE=3-BUTEN-2-ONE
##JCAMP-DX=4.24
##DATA TYPE=INFRARED SPECTRUM
##CLASS=COBLENTZ
##ORIGIN=TENNESSEE EASTMAN COMPANY, RESEARCH LABORATORIES
##OWNER=COBLENTZ SOCIETY
Collection (C) 2018 copyright by the U.S. Secretary of Commerce
on behalf of the United States of America. All rights reserved.
##DATE=Not specified, most likely prior to 1970
##CAS REGISTRY NO=78-94-4
##MOLFORM=C4 H6 O
##SOURCE REFERENCE=COBLENTZ NO. 2377
##$NIST SOURCE=COBLENTZ
##$NIST IMAGE=cob2377
##SPECTROMETER/DATA SYSTEM=Not specified, most likely a prism, grating, or hybrid spectrometer.
##PATH LENGTH=0.002 CM CELL
##SAMPLING PROCEDURE=TRANSMISSION
##RESOLUTION=4
##DATA PROCESSING=DIGITIZED BY NIST FROM HARD COPY
##XUNITS=MICROMETERS
##YUNITS=TRANSMITTANCE
##XFACTOR=1.000000
##YFACTOR=1
##DELTAX=000.006635
##FIRSTX=2.013
##LASTX=15.9935
##FIRSTY=0.869
##MAXX=15.9935
##MINX=2.013
##MAXY=0.989
##MINY=0.033
##NPOINTS=2108
##XYDATA=(X++(Y..Y))
2.013000 0.8690 0.8690 0.8690 0.8680 0.8680
2.046191 0.8680 0.8680 0.8680 0.8680 0.8680
2.080000 0.8660 0.8640 0.8640 0.8640 0.8640
2.113191 0.8640 0.8660 0.8730 0.8740 0.8740
2.146000 0.8730 0.8730 0.8730 0.8710 0.8710
2.179191 0.8710 0.8690 0.8680 0.8660 0.8640
2.212000 0.8640 0.8630 0.8630 0.8630 0.8590
2.245191 0.8580 0.8560 0.8560 0.8560 0.8580
2.279000 0.8580 0.8590 0.8630 0.8640 0.8640
2.312191 0.8660 0.8660 0.8680 0.8690 0.8690
2.345000 0.8730 0.8730 0.8740 0.8760 0.8780
2.378191 0.8780 0.8790 0.8790 0.8790 0.8790
2.411000 0.8790 0.8790 0.8810 0.8810 0.8810
2.444191 0.8810 0.8830 0.8840 0.8840 0.8840
2.478000 0.8840 0.8840 0.8840 0.8840 0.8860
2.511191 0.8860 0.8880 0.8880 0.8880 0.8890
2.544000 0.8890 0.8890 0.8910 0.8910 0.8930
2.577191 0.8930 0.8940 0.8940 0.8960 0.8960
2.610000 0.8960 0.8980 0.8980 0.8980 0.8990
2.643191 0.8990 0.8990 0.9010 0.9030 0.9030
2.677000 0.9040 0.9060 0.9060 0.9060 0.9060
2.710191 0.9080 0.9080 0.9080 0.9080 0.9080
2.743000 0.9080 0.9080 0.9060 0.9060 0.9030
2.776191 0.9010 0.9010 0.8990 0.8980 0.8960
2.809000 0.8940 0.8940 0.8930 0.8930 0.8910
2.842191 0.8910 0.8880 0.8860 0.8840 0.8830
2.876000 0.8830 0.8830 0.8830 0.8830 0.8810
2.909191 0.8790 0.8760 0.8710 0.8680 0.8630
2.942000 0.8610 0.8580 0.8560 0.8560 0.8510
2.975191 0.8490 0.8490 0.8510 0.8540 0.8610
3.009000 0.8660 0.8690 0.8710 0.8730 0.8740
3.042191 0.8780 0.8810 0.8860 0.8890 0.8890
3.075000 0.8890 0.8890 0.8880 0.8880 0.8880
3.108191 0.8860 0.8860 0.8860 0.8860 0.8860
3.141000 0.8840 0.8830 0.8830 0.8790 0.8760
3.174191 0.8740 0.8710 0.8660 0.8540 0.8410
3.208000 0.8280 0.8160 0.8060 0.7840 0.7820
3.241191 0.7820 0.7860 0.7910 0.7910 0.7910
3.274000 0.7810 0.7690 0.7570 0.7360 0.7120
3.307191 0.7020 0.6940 0.6920 0.6940 0.7060
3.340000 0.7170 0.7240 0.7290 0.7310 0.7320
3.373191 0.7320 0.7320 0.7320 0.7360 0.7490
3.407000 0.7620 0.7740 0.7990 0.8140 0.8230
3.440191 0.8290 0.8330 0.8360 0.8380 0.8390
3.473000 0.8390 0.8410 0.8480 0.8540 0.8630
3.506191 0.8730 0.8830 0.8930 0.9010 0.9030
3.539000 0.9040 0.9080 0.9090 0.9130 0.9160
3.572191 0.9180 0.9190 0.9190 0.9190 0.9210
3.606000 0.9210 0.9210 0.9230 0.9230 0.9240
3.639191 0.9240 0.9260 0.9260 0.9260 0.9260
3.672000 0.9260 0.9260 0.9260 0.9260 0.9260
3.705191 0.9260 0.9260 0.9260 0.9260 0.9260
3.738000 0.9260 0.9280 0.9280 0.9280 0.9280
3.771191 0.9280 0.9280 0.9280 0.9290 0.9310
3.805000 0.9310 0.9330 0.9330 0.9330 0.9340
3.838191 0.9340 0.9360 0.9360 0.9360 0.9360
3.871000 0.9360 0.9360 0.9360 0.9360 0.9360
3.904191 0.9360 0.9360 0.9380 0.9380 0.9390
3.937000 0.9390 0.9410 0.9410 0.9410 0.9410
3.970191 0.9410 0.9410 0.9410 0.9410 0.9410
4.004000 0.9410 0.9430 0.9430 0.9430 0.9430
4.037191 0.9430 0.9430 0.9430 0.9440 0.9440
4.070000 0.9440 0.9440 0.9460 0.9460 0.9460
4.103191 0.9460 0.9480 0.9480 0.9480 0.9480
4.136000 0.9480 0.9480 0.9460 0.9460 0.9460
4.169191 0.9460 0.9460 0.9460 0.9460 0.9460
4.203000 0.9460 0.9440 0.9440 0.9440 0.9440
4.236191 0.9440 0.9480 0.9480 0.9490 0.9490
4.269000 0.9460 0.9460 0.9460 0.9440 0.9440
4.302191 0.9440 0.9440 0.9440 0.9440 0.9440
4.336000 0.9430 0.9440 0.9460 0.9490 0.9530
4.369191 0.9540 0.9560 0.9580 0.9590 0.9590
4.402000 0.9590 0.9590 0.9590 0.9590 0.9590
4.435191 0.9590 0.9590 0.9590 0.9590 0.9590
4.468000 0.9590 0.9590 0.9590 0.9590 0.9590
4.501191 0.9590 0.9590 0.9590 0.9590 0.9590
4.535000 0.9590 0.9590 0.9590 0.9580 0.9560
4.568191 0.9530 0.9510 0.9510 0.9510 0.9510
4.601000 0.9560 0.9560 0.9560 0.9560 0.9560
4.634191 0.9540 0.9540 0.9530 0.9510 0.9510
4.667000 0.9490 0.9490 0.9510 0.9510 0.9530
4.700191 0.9560 0.9590 0.9630 0.9630 0.9630
4.734000 0.9640 0.9660 0.9660 0.9680 0.9680
4.767191 0.9680 0.9680 0.9680 0.9680 0.9690
4.800000 0.9690 0.9690 0.9690 0.9690 0.9680
4.833191 0.9660 0.9660 0.9640 0.9640 0.9630
4.866000 0.9630 0.9640 0.9690 0.9690 0.9690
4.899191 0.9690 0.9690 0.9690 0.9690 0.9660
4.933000 0.9640 0.9640 0.9630 0.9630 0.9610
4.966191 0.9590 0.9580 0.9540 0.9540 0.9530
4.999000 0.9530 0.9510 0.9510 0.9510 0.9510
5.032191 0.9490 0.9460 0.9430 0.9410 0.9410
5.065000 0.9390 0.9390 0.9390 0.9360 0.9330
5.098191 0.9280 0.9260 0.9240 0.9230 0.9210
5.132000 0.9190 0.9190 0.9190 0.9190 0.9190
5.165191 0.9190 0.9190 0.9210 0.9210 0.9240
5.198000 0.9260 0.9290 0.9330 0.9330 0.9340
5.231191 0.9360 0.9390 0.9430 0.9440 0.9460
5.264000 0.9480 0.9490 0.9530 0.9560 0.9590
5.297191 0.9610 0.9630 0.9690 0.9710 0.9710
5.331000 0.9710 0.9710 0.9710 0.9710 0.9710
5.364191 0.9710 0.9690 0.9690 0.9690 0.9690
5.397000 0.9690 0.9690 0.9710 0.9710 0.9710
5.430191 0.9710 0.9660 0.9630 0.9610 0.9630
5.464000 0.9640 0.9640 0.9630 0.9610 0.9610
5.497191 0.9510 0.9510 0.9510 0.9510 0.9490
5.530000 0.9490 0.9440 0.9430 0.9430 0.9430
5.563191 0.9430 0.9410 0.9410 0.9390 0.9380
5.596000 0.9310 0.9290 0.9280 0.9260 0.9230
5.629191 0.9180 0.9130 0.9080 0.9010 0.8910
5.663000 0.8810 0.8690 0.8530 0.8330 0.8160
5.696191 0.7990 0.7820 0.7520 0.7190 0.6820
5.729000 0.6510 0.6240 0.5920 0.5640 0.5270
5.762191 0.4950 0.4690 0.4450 0.4200 0.3920
5.795000 0.3570 0.3130 0.2580 0.2330 0.1980
5.828191 0.1700 0.1580 0.1510 0.1400 0.1230
5.862000 0.1110 0.1080 0.1080 0.1100 0.1210
5.895191 0.1210 0.1210 0.1110 0.0860 0.0710
5.928000 0.0630 0.0550 0.0430 0.0350 0.0330
5.961191 0.0350 0.0730 0.1000 0.1410 0.1960
5.994000 0.2630 0.3350 0.4120 0.4890 0.5620
6.027191 0.5840 0.6040 0.6260 0.6440 0.6610
6.061000 0.6710 0.6790 0.6860 0.6890 0.6920
6.094191 0.6940 0.6960 0.6960 0.6960 0.6940
6.127000 0.6820 0.6670 0.6420 0.6060 0.5620
6.160191 0.5040 0.4320 0.3320 0.3300 0.3330
6.193000 0.3970 0.4600 0.5350 0.6140 0.6840
6.226191 0.7370 0.7620 0.7840 0.8040 0.8180
6.260000 0.8260 0.8340 0.8460 0.8530 0.8680
6.293191 0.8740 0.8760 0.8780 0.8830 0.8910
6.326000 0.8940 0.8940 0.8910 0.8910 0.8930
6.359191 0.8940 0.8940 0.8930 0.8930 0.8930
6.392000 0.8930 0.8890 0.8840 0.8780 0.8740
6.425191 0.8710 0.8680 0.8680 0.8660 0.8640
6.459000 0.8630 0.8630 0.8630 0.8640 0.8760
6.492191 0.8810 0.8830 0.8830 0.8840 0.8860
6.525000 0.8860 0.8860 0.8860 0.8840 0.8830
6.558191 0.8830 0.8830 0.8810 0.8790 0.8790
6.591000 0.8780 0.8780 0.8760 0.8760 0.8760
6.624191 0.8790 0.8840 0.8880 0.8890 0.8910
6.658000 0.8910 0.8910 0.8890 0.8890 0.8890
6.691191 0.8880 0.8840 0.8810 0.8790 0.8740
6.724000 0.8710 0.8690 0.8660 0.8630 0.8590
6.757191 0.8540 0.8460 0.8380 0.8280 0.8230
6.791000 0.8190 0.8110 0.8010 0.7920 0.7820
6.824191 0.7760 0.7670 0.7520 0.7310 0.7070
6.857000 0.6910 0.6760 0.6640 0.6520 0.6370
6.890191 0.6240 0.6090 0.5920 0.5790 0.5640
6.923000 0.5490 0.5350 0.5120 0.4920 0.4770
6.956191 0.4650 0.4570 0.4470 0.4400 0.4300
6.990000 0.4190 0.4050 0.3950 0.3870 0.3800
7.023191 0.3730 0.3620 0.3480 0.3270 0.2980
7.056000 0.2820 0.2620 0.2470 0.2350 0.2200
7.089191 0.2120 0.2020 0.1950 0.1930 0.1950
7.122000 0.2130 0.2320 0.2500 0.2650 0.3080
7.155191 0.3570 0.3850 0.4040 0.4120 0.4190
7.189000 0.4250 0.4390 0.4450 0.4450 0.4450
7.222191 0.4440 0.4440 0.4420 0.4370 0.4320
7.255000 0.4240 0.4120 0.3900 0.3630 0.3320
7.288191 0.2980 0.2680 0.2400 0.2170 0.2020
7.321000 0.1830 0.1630 0.1610 0.1610 0.1630
7.354191 0.1700 0.1830 0.2050 0.2200 0.2430
7.388000 0.2720 0.3080 0.3470 0.3870 0.4290
7.421191 0.4690 0.5040 0.5450 0.5820 0.6120
7.454000 0.6410 0.6640 0.6860 0.7040 0.7220
7.487191 0.7390 0.7520 0.7660 0.7770 0.7870
7.520000 0.7960 0.8060 0.8130 0.8190 0.8230
7.553191 0.8310 0.8360 0.8430 0.8460 0.8490
7.587000 0.8510 0.8530 0.8540 0.8540 0.8540
7.620191 0.8540 0.8530 0.8510 0.8490 0.8440
7.653000 0.8380 0.8340 0.8280 0.8230 0.8140
7.686191 0.8080 0.8030 0.7960 0.7860 0.7710
7.719000 0.7610 0.7470 0.7370 0.7340 0.7310
7.752191 0.7260 0.7240 0.7210 0.7090 0.7060
7.786000 0.6970 0.6910 0.6860 0.6740 0.6710
7.819191 0.6710 0.6740 0.6960 0.7010 0.7070
7.852000 0.7110 0.7110 0.7120 0.7120 0.7110
7.885191 0.6870 0.6740 0.6590 0.6410 0.6190
7.918000 0.5920 0.5620 0.5290 0.4900 0.4470
7.951191 0.3980 0.3530 0.3200 0.2950 0.2770
7.985000 0.2580 0.2350 0.2020 0.1710 0.1680
8.018191 0.1700 0.1900 0.2220 0.2550 0.2930
8.051000 0.3320 0.3730 0.4140 0.4550 0.4950
8.084191 0.5340 0.5590 0.5920 0.6090 0.6260
8.118000 0.6440 0.6570 0.6670 0.6770 0.6810
8.151191 0.6820 0.6820 0.6810 0.6710 0.6690
8.184000 0.6710 0.6870 0.6920 0.7040 0.7210
8.217191 0.7390 0.7590 0.7770 0.7920 0.8010
8.250000 0.8080 0.8130 0.8180 0.8210 0.8210
8.283191 0.8230 0.8230 0.7960 0.7820 0.7460
8.317000 0.7440 0.7470 0.7740 0.7740 0.7440
8.350191 0.7090 0.6910 0.6690 0.6440 0.6170
8.383000 0.5970 0.5640 0.5290 0.4850 0.4400
8.416191 0.3950 0.3550 0.3180 0.2880 0.2780
8.449000 0.2750 0.2750 0.2880 0.3420 0.3820
8.482191 0.4220 0.4620 0.5020 0.5400 0.5720
8.516000 0.6010 0.6220 0.6340 0.6470 0.6570
8.549191 0.6640 0.6720 0.6810 0.6940 0.7140
8.582000 0.7320 0.7510 0.7610 0.7810 0.7970
8.615191 0.8130 0.8240 0.8360 0.8440 0.8530
8.648000 0.8590 0.8680 0.8740 0.8830 0.8890
8.681191 0.8960 0.8990 0.9040 0.9080 0.9090
8.715000 0.9130 0.9140 0.9160 0.9180 0.9180
8.748191 0.9230 0.9240 0.9260 0.9260 0.9280
8.781000 0.9290 0.9330 0.9330 0.9330 0.9340
8.814191 0.9340 0.9340 0.9340 0.9330 0.9330
8.847000 0.9330 0.9330 0.9330 0.9290 0.9280
8.880191 0.9280 0.9260 0.9240 0.9240 0.9230
8.914000 0.9210 0.9160 0.9140 0.9090 0.9080
8.947191 0.9030 0.8990 0.8910 0.8860 0.8780
8.980000 0.8710 0.8640 0.8590 0.8510 0.8430
9.013191 0.8310 0.8230 0.8230 0.8210 0.8210
9.046000 0.8230 0.8260 0.8330 0.8410 0.8510
9.079191 0.8610 0.8680 0.8740 0.8830 0.8880
9.113000 0.8930 0.8940 0.8960 0.8960 0.8980
9.146191 0.8980 0.9010 0.9030 0.9040 0.9080
9.179000 0.9090 0.9090 0.9090 0.9060 0.9030
9.212191 0.8990 0.8980 0.8930 0.8860 0.8760
9.245000 0.8580 0.8460 0.8310 0.8210 0.8060
9.278191 0.7920 0.7660 0.7420 0.7220 0.7060
9.312000 0.6920 0.6770 0.6740 0.6740 0.6740
9.345191 0.6790 0.6910 0.7020 0.7120 0.7220
9.378000 0.7310 0.7360 0.7420 0.7460 0.7510
9.411191 0.7570 0.7660 0.7690 0.7710 0.7720
9.445000 0.7740 0.7760 0.7770 0.7810 0.7840
9.478191 0.7890 0.7910 0.7920 0.7940 0.7970
9.511000 0.8040 0.8110 0.8130 0.8140 0.8160
9.544191 0.8180 0.8190 0.8210 0.8230 0.8230
9.577000 0.8230 0.8230 0.8230 0.8210 0.8190
9.610191 0.8160 0.8140 0.8130 0.8110 0.8110
9.644000 0.8110 0.8090 0.8030 0.7940 0.7910
9.677191 0.7870 0.7810 0.7670 0.7520 0.7370
9.710000 0.7270 0.7210 0.7110 0.6970 0.6760
9.743191 0.6620 0.6540 0.6470 0.6410 0.6320
9.776000 0.6310 0.6310 0.6320 0.6420 0.6510
9.809191 0.6560 0.6590 0.6610 0.6640 0.6670
9.843000 0.6690 0.6710 0.6720 0.6710 0.6710
9.876191 0.6660 0.6620 0.6560 0.6440 0.6340
9.909000 0.6260 0.6170 0.6060 0.5940 0.5800
9.942191 0.5690 0.5540 0.5390 0.5200 0.5000
9.975000 0.4770 0.4740 0.4620 0.4440 0.4240
10.008191 0.4050 0.3920 0.3870 0.3780 0.3700
10.042000 0.3670 0.3630 0.3620 0.3620 0.3620
10.075191 0.3620 0.3620 0.3620 0.3620 0.3620
10.108000 0.3620 0.3630 0.3700 0.3770 0.3900
10.141191 0.3970 0.4040 0.4070 0.4150 0.4250
10.174000 0.4290 0.4300 0.4320 0.4320 0.4320
10.207191 0.4300 0.4170 0.4120 0.4040 0.3950
10.241000 0.3870 0.3770 0.3680 0.3580 0.3480
10.274191 0.3380 0.3280 0.3170 0.3070 0.2980
10.307000 0.2880 0.2780 0.2680 0.2630 0.2600
10.340191 0.2550 0.2520 0.2500 0.2450 0.2430
10.373000 0.2420 0.2420 0.2420 0.2420 0.2470
10.406191 0.2500 0.2570 0.2680 0.2730 0.2820
10.440000 0.2850 0.2950 0.3080 0.3230 0.3380
10.473191 0.3450 0.3500 0.3530 0.3600 0.3600
10.506000 0.3620 0.3620 0.3630 0.3650 0.3680
10.539191 0.3720 0.3780 0.3830 0.3920 0.4000
10.573000 0.4090 0.4200 0.4320 0.4440 0.4570
10.606191 0.4790 0.5000 0.5200 0.5400 0.5600
10.639000 0.5800 0.5990 0.6170 0.6340 0.6520
10.672191 0.6670 0.6820 0.6970 0.7110 0.7240
10.705000 0.7340 0.7440 0.7520 0.7640 0.7740
10.738191 0.7820 0.7890 0.7960 0.8030 0.8080
10.772000 0.8130 0.8180 0.8230 0.8260 0.8330
10.805191 0.8380 0.8440 0.8510 0.8580 0.8610
10.838000 0.8630 0.8680 0.8710 0.8760 0.8780
10.871191 0.8780 0.8790 0.8790 0.8780 0.8780
10.904000 0.8780 0.8740 0.8740 0.8740 0.8740
10.937191 0.8760 0.8790 0.8840 0.8860 0.8930
10.971000 0.9010 0.9030 0.9080 0.9090 0.9130
11.004191 0.9160 0.9210 0.9230 0.9240 0.9240
11.037000 0.9260 0.9280 0.9280 0.9290 0.9310
11.070191 0.9310 0.9310 0.9310 0.9310 0.9310
11.103000 0.9280 0.9240 0.9210 0.9180 0.9140
11.136191 0.9130 0.9130 0.9140 0.9180 0.9210
11.170000 0.9240 0.9260 0.9290 0.9310 0.9330
11.203191 0.9340 0.9360 0.9380 0.9410 0.9440
11.236000 0.9460 0.9480 0.9490 0.9490 0.9510
11.269191 0.9510 0.9530 0.9530 0.9530 0.9540
11.302000 0.9540 0.9560 0.9580 0.9580 0.9580
11.335191 0.9560 0.9560 0.9540 0.9540 0.9540
11.369000 0.9540 0.9560 0.9560 0.9580 0.9580
11.402191 0.9580 0.9590 0.9590 0.9610 0.9610
11.435000 0.9610 0.9610 0.9610 0.9610 0.9610
11.468191 0.9610 0.9630 0.9630 0.9640 0.9640
11.501000 0.9660 0.9680 0.9680 0.9680 0.9680
11.534191 0.9690 0.9690 0.9690 0.9690 0.9690
11.568000 0.9710 0.9710 0.9710 0.9710 0.9710
11.601191 0.9710 0.9730 0.9740 0.9740 0.9740
11.634000 0.9740 0.9740 0.9740 0.9740 0.9740
11.667191 0.9740 0.9740 0.9740 0.9740 0.9740
11.700000 0.9740 0.9740 0.9740 0.9740 0.9740
11.733191 0.9740 0.9740 0.9740 0.9740 0.9740
11.767000 0.9740 0.9740 0.9740 0.9740 0.9740
11.800191 0.9740 0.9760 0.9760 0.9760 0.9760
11.833000 0.9760 0.9760 0.9760 0.9760 0.9760
11.866191 0.9760 0.9760 0.9760 0.9760 0.9760
11.900000 0.9760 0.9760 0.9740 0.9740 0.9740
11.933191 0.9740 0.9740 0.9730 0.9730 0.9710
11.966000 0.9690 0.9690 0.9680 0.9680 0.9690
11.999191 0.9690 0.9690 0.9690 0.9710 0.9710
12.032000 0.9730 0.9730 0.9740 0.9740 0.9740
12.065191 0.9740 0.9760 0.9760 0.9760 0.9760
12.099000 0.9780 0.9780 0.9780 0.9780 0.9790
12.132191 0.9790 0.9810 0.9810 0.9810 0.9810
12.165000 0.9830 0.9830 0.9830 0.9830 0.9840
12.198191 0.9840 0.9840 0.9840 0.9840 0.9840
12.231000 0.9840 0.9860 0.9860 0.9880 0.9880
12.264191 0.9880 0.9880 0.9880 0.9880 0.9880
12.298000 0.9880 0.9880 0.9880 0.9880 0.9880
12.331191 0.9880 0.9880 0.9880 0.9890 0.9890
12.364000 0.9890 0.9890 0.9890 0.9890 0.9890
12.397191 0.9890 0.9890 0.9890 0.9890 0.9890
12.430000 0.9890 0.9890 0.9890 0.9890 0.9890
12.463191 0.9890 0.9890 0.9890 0.9890 0.9890
12.497000 0.9890 0.9890 0.9890 0.9890 0.9890
12.530191 0.9890 0.9890 0.9890 0.9890 0.9890
12.563000 0.9890 0.9880 0.9860 0.9840 0.9840
12.596191 0.9840 0.9840 0.9840 0.9840 0.9830
12.629000 0.9830 0.9830 0.9830 0.9810 0.9810
12.662191 0.9780 0.9740 0.9730 0.9730 0.9710
12.696000 0.9710 0.9710 0.9690 0.9690 0.9640
12.729191 0.9630 0.9610 0.9590 0.9580 0.9560
12.762000 0.9560 0.9540 0.9530 0.9490 0.9430
12.795191 0.9410 0.9360 0.9330 0.9290 0.9230
12.828000 0.9210 0.9190 0.9140 0.9130 0.9060
12.861191 0.9030 0.9010 0.8990 0.8980 0.8980
12.895000 0.8980 0.8980 0.8990 0.8990 0.9030
12.928191 0.9040 0.9060 0.9080 0.9080 0.9090
12.961000 0.9090 0.9090 0.9090 0.9090 0.9090
12.994191 0.9080 0.9060 0.9030 0.8990 0.8940
13.027000 0.8910 0.8860 0.8810 0.8740 0.8690
13.060191 0.8640 0.8590 0.8540 0.8530 0.8510
13.094000 0.8510 0.8490 0.8480 0.8480 0.8460
13.127191 0.8460 0.8480 0.8490 0.8530 0.8540
13.160000 0.8580 0.8590 0.8610 0.8640 0.8690
13.193191 0.8760 0.8790 0.8830 0.8840 0.8860
13.227000 0.8880 0.8910 0.8940 0.9010 0.9030
13.260191 0.9040 0.9060 0.9080 0.9090 0.9110
13.293000 0.9140 0.9180 0.9190 0.9210 0.9210
13.326191 0.9230 0.9240 0.9240 0.9240 0.9260
13.359000 0.9260 0.9260 0.9280 0.9290 0.9330
13.392191 0.9330 0.9340 0.9340 0.9340 0.9340
13.426000 0.9340 0.9340 0.9340 0.9340 0.9360
13.459191 0.9360 0.9360 0.9360 0.9360 0.9360
13.492000 0.9360 0.9360 0.9360 0.9360 0.9340
13.525191 0.9340 0.9340 0.9340 0.9340 0.9340
13.558000 0.9340 0.9340 0.9340 0.9340 0.9340
13.591191 0.9340 0.9340 0.9340 0.9340 0.9340
13.625000 0.9340 0.9340 0.9340 0.9340 0.9340
13.658191 0.9330 0.9330 0.9290 0.9290 0.9290
13.691000 0.9290 0.9290 0.9290 0.9290 0.9280
13.724191 0.9280 0.9280 0.9260 0.9260 0.9230
13.757000 0.9230 0.9210 0.9190 0.9190 0.9190
13.790191 0.9190 0.9190 0.9160 0.9160 0.9140
13.824000 0.9140 0.9140 0.9140 0.9140 0.9140
13.857191 0.9140 0.9140 0.9140 0.9130 0.9110
13.890000 0.9110 0.9080 0.9030 0.9030 0.9010
13.923191 0.9010 0.9010 0.9010 0.8990 0.8990
13.956000 0.8980 0.8980 0.8980 0.8980 0.8960
13.989191 0.8930 0.8910 0.8910 0.8890 0.8880
14.023000 0.8860 0.8830 0.8830 0.8810 0.8790
14.056191 0.8780 0.8760 0.8760 0.8740 0.8730
14.089000 0.8730 0.8690 0.8660 0.8660 0.8660
14.122191 0.8640 0.8640 0.8640 0.8640 0.8630
14.155000 0.8610 0.8590 0.8560 0.8560 0.8530
14.188191 0.8530 0.8510 0.8510 0.8490 0.8480
14.222000 0.8440 0.8440 0.8410 0.8390 0.8380
14.255191 0.8380 0.8360 0.8340 0.8310 0.8290
14.288000 0.8260 0.8230 0.8210 0.8210 0.8190
14.321191 0.8180 0.8160 0.8130 0.8090 0.8080
14.355000 0.8080 0.8060 0.8040 0.8030 0.8010
14.388191 0.7970 0.7970 0.7940 0.7920 0.7910
14.421000 0.7890 0.7820 0.7810 0.7790 0.7770
14.454191 0.7760 0.7740 0.7710 0.7690 0.7690
14.487000 0.7640 0.7620 0.7610 0.7590 0.7590
14.520191 0.7570 0.7520 0.7520 0.7510 0.7510
14.554000 0.7490 0.7490 0.7470 0.7470 0.7460
14.587191 0.7460 0.7440 0.7440 0.7440 0.7420
14.620000 0.7420 0.7420 0.7420 0.7420 0.7420
14.653191 0.7420 0.7420 0.7420 0.7420 0.7420
14.686000 0.7420 0.7420 0.7420 0.7420 0.7420
14.719191 0.7440 0.7440 0.7440 0.7440 0.7440
14.753000 0.7440 0.7440 0.7440 0.7440 0.7420
14.786191 0.7420 0.7410 0.7410 0.7410 0.7410
14.819000 0.7390 0.7390 0.7370 0.7370 0.7360
14.852191 0.7340 0.7320 0.7320 0.7310 0.7310
14.885000 0.7310 0.7270 0.7260 0.7240 0.7240
14.918191 0.7260 0.7260 0.7260 0.7270 0.7270
14.952000 0.7290 0.7290 0.7290 0.7290 0.7270
14.985191 0.7260 0.7260 0.7260 0.7260 0.7260
15.018000 0.7270 0.7270 0.7290 0.7310 0.7310
15.051191 0.7310 0.7310 0.7290 0.7290 0.7290
15.084000 0.7290 0.7290 0.7290 0.7290 0.7290
15.117191 0.7290 0.7290 0.7290 0.7310 0.7310
15.151000 0.7320 0.7320 0.7320 0.7320 0.7340
15.184191 0.7340 0.7340 0.7340 0.7340 0.7340
15.217000 0.7360 0.7360 0.7370 0.7390 0.7390
15.250191 0.7390 0.7390 0.7390 0.7360 0.7360
15.283000 0.7340 0.7340 0.7340 0.7320 0.7320
15.316191 0.7320 0.7320 0.7320 0.7320 0.7310
15.350000 0.7310 0.7290 0.7290 0.7290 0.7310
15.383191 0.7310 0.7310 0.7310 0.7310 0.7310
15.416000 0.7310 0.7310 0.7310 0.7310 0.7310
15.449191 0.7310 0.7290 0.7290 0.7290 0.7270
15.482000 0.7270 0.7260 0.7260 0.7260 0.7260
15.515191 0.7240 0.7240 0.7240 0.7240 0.7240
15.549000 0.7240 0.7220 0.7220 0.7210 0.7210
15.582191 0.7190 0.7190 0.7190 0.7190 0.7170
15.615000 0.7170 0.7190 0.7190 0.7190 0.7190
15.648191 0.7190 0.7190 0.7190 0.7190 0.7170
15.682000 0.7170 0.7160 0.7160 0.7160 0.7160
15.715191 0.7160 0.7160 0.7160 0.7160 0.7160
15.748000 0.7160 0.7160 0.7160 0.7160 0.7140
15.781191 0.7160 0.7140 0.7120 0.7120 0.7120
15.814000 0.7120 0.7120 0.7120 0.7120 0.7120
15.847191 0.7120 0.7120 0.7120 0.7120 0.7120
15.881000 0.7120 0.7120 0.7120 0.7120 0.7120
15.914191 0.7120 0.7120 0.7120 0.7120 0.7120
15.947000 0.7140 0.7120 0.7120 0.7120 0.7120
15.980191 0.7120 0.7120 0.7120
##END=
