##TITLE=2-BUTANONE
##JCAMP-DX=4.24
##DATA TYPE=INFRARED SPECTRUM
##CLASS=COBLENTZ III
##ORIGIN=DOW CORNING CORP.
##OWNER=COBLENTZ SOCIETY
Collection (C) 2018 copyright by the U.S. Secretary of Commerce
on behalf of the United States of America. All rights reserved.
##DATE=1966/01/05
##NAMES=METHYL ETHYL KETONE
##CAS REGISTRY NO=78-93-3
##MOLFORM=C4 H8 O
##SOURCE REFERENCE=COBLENTZ NO. 4788
##$NIST SOURCE=COBLENTZ
##$NIST IMAGE=cob4788
##SPECTROMETER/DATA SYSTEM=PERKIN-ELMER 521 (GRATING)
##INSTRUMENT PARAMETERS=FILTERS AT 3150, 2500, 2000, 1150, 700, 410; GRATING CHANGES AT 2000, 630 CM^-^1
##STATE=SOLUTION (10% IN CCl4 FOR 3800-1300, 10% IN CS2 FOR 1300-650, AND 10% CCl4 FOR 650-250 CM^-^1) VERSUS SOLVENT
##PATH LENGTH=0.012, 0.011, AND 0.010 CM (CsBr CELL)
##SAMPLING PROCEDURE=TRANSMISSION
##RESOLUTION=4
##DATA PROCESSING=DIGITIZED BY NIST FROM HARD COPY (FROM TWO SEGMENTS)
##XUNITS=1/CM
##YUNITS=TRANSMITTANCE
##XFACTOR=1.000000
##YFACTOR=1
##DELTAX=0.983072
##FIRSTX=241.289
##LASTX=3795.09
##FIRSTY=0.745
##MAXX=3795.09
##MINX=241.289
##MAXY=0.942
##MINY=0
##NPOINTS=3616
##XYDATA=(X++(Y..Y))
241.289000 0.7450 0.7450 0.7460 0.7460 0.7480
246.204359 0.7480 0.7480 0.7490 0.7500 0.7540
251.119719 0.7580 0.7610 0.7650 0.7740 0.7820
256.035078 0.7850 0.7880 0.7930 0.8000 0.8129
260.950437 0.8140 0.8160 0.8170 0.8200 0.8210
265.865797 0.8240 0.8290 0.8290 0.8320 0.8380
270.781156 0.8410 0.8420 0.8440 0.8480 0.8520
275.696515 0.8530 0.8540 0.8540 0.8540 0.8560
280.611875 0.8570 0.8600 0.8610 0.8620 0.8650
285.527234 0.8700 0.8700 0.8730 0.8770 0.8780
290.442593 0.8800 0.8800 0.8800 0.8810 0.8820
295.357953 0.8850 0.8860 0.8880 0.8890 0.8890
300.273312 0.8900 0.8900 0.8900 0.8920 0.8920
305.188671 0.8930 0.8930 0.8930 0.8930 0.8930
310.104031 0.8940 0.8940 0.8940 0.8970 0.8980
315.019390 0.9010 0.9040 0.9080 0.9100 0.9130
319.934749 0.9160 0.9180 0.9180 0.9200 0.9210
324.850109 0.9220 0.9220 0.9250 0.9280 0.9290
329.765468 0.9300 0.9300 0.9320 0.9320 0.9330
334.680827 0.9330 0.9330 0.9330 0.9330 0.9330
339.596187 0.9330 0.9330 0.9330 0.9330 0.9330
344.511546 0.9330 0.9330 0.9330 0.9330 0.9330
349.426906 0.9330 0.9330 0.9330 0.9330 0.9330
354.342265 0.9330 0.9330 0.9330 0.9330 0.9330
359.257624 0.9340 0.9340 0.9340 0.9340 0.9340
364.172984 0.9340 0.9360 0.9360 0.9360 0.9370
369.088343 0.9370 0.9380 0.9380 0.9410 0.9420
374.003702 0.9420 0.9420 0.9410 0.9410 0.9410
378.919062 0.9380 0.9340 0.9260 0.9220 0.9160
383.834421 0.9100 0.9060 0.9040 0.9000 0.8980
388.749780 0.8940 0.8900 0.8780 0.8760 0.8700
393.665140 0.8570 0.8530 0.8410 0.8171 0.7931
398.580499 0.7860 0.7680 0.7460 0.7080 0.7050
403.495858 0.7080 0.7180 0.7290 0.7410 0.7500
408.411218 0.7660 0.7970 0.8180 0.8410 0.8490
413.326577 0.8530 0.8650 0.8780 0.8810 0.8820
418.241936 0.8880 0.8920 0.8930 0.8940 0.8960
423.157296 0.8970 0.8970 0.8970 0.8970 0.8970
428.072655 0.8960 0.8940 0.8940 0.8930 0.8920
432.988014 0.8920 0.8900 0.8890 0.8880 0.8860
437.903374 0.8850 0.8850 0.8840 0.8820 0.8810
442.818733 0.8810 0.8800 0.8760 0.8740 0.8730
447.734092 0.8730 0.8720 0.8690 0.8610 0.8560
452.649452 0.8520 0.8490 0.8480 0.8460 0.8450
457.564811 0.8440 0.8440 0.8450 0.8460 0.8480
462.480170 0.8490 0.8520 0.8530 0.8530 0.8540
467.395530 0.8540 0.8540 0.8540 0.8540 0.8540
472.310889 0.8540 0.8560 0.8560 0.8560 0.8540
477.226248 0.8530 0.8530 0.8520 0.8480 0.8460
482.141608 0.8450 0.8440 0.8440 0.8440 0.8410
487.056967 0.8400 0.8400 0.8380 0.8360 0.8330
491.972326 0.8320 0.8300 0.8290 0.8290 0.8280
496.887686 0.8260 0.8240 0.8200 0.8160 0.8100
501.803045 0.8080 0.7970 0.7940 0.7930 0.7801
506.718404 0.7700 0.7650 0.7540 0.7260 0.7020
511.633764 0.6900 0.6651 0.6501 0.6480 0.6500
516.549123 0.6610 0.6730 0.6850 0.7080 0.7120
521.464482 0.7320 0.7559 0.7650 0.7700 0.7800
526.379842 0.7900 0.7920 0.7970 0.8020 0.8040
531.295201 0.8060 0.8080 0.8100 0.8120 0.8140
536.210561 0.8160 0.8160 0.8170 0.8180 0.8200
541.125920 0.8210 0.8220 0.8220 0.8220 0.8220
546.041279 0.8220 0.8210 0.8180 0.8180 0.8170
550.956639 0.8120 0.8100 0.8090 0.8060 0.8040
555.871998 0.8020 0.8010 0.7980 0.7970 0.7960
560.787357 0.7940 0.7920 0.7890 0.7890 0.7860
565.702717 0.7840 0.7760 0.7700 0.7690 0.7610
570.618076 0.7580 0.7530 0.7440 0.7251 0.7200
575.533435 0.7130 0.7050 0.6760 0.6690 0.6440
580.448795 0.6250 0.6020 0.5920 0.5760 0.5740
585.364154 0.5760 0.5820 0.5900 0.6140 0.6380
590.279513 0.6690 0.7079 0.7260 0.7410 0.7609
595.194873 0.7770 0.7920 0.7980 0.8060 0.8120
600.110232 0.8130 0.8419 0.8440 0.8460 0.8480
605.025591 0.8490 0.8500 0.8520 0.8530 0.8540
609.940951 0.8560 0.8570 0.8580 0.8600 0.8610
614.856310 0.8610 0.8620 0.8620 0.8640 0.8640
619.771669 0.8650 0.8650 0.8660 0.8660 0.8680
624.687029 0.8680 0.8690 0.8690 0.8700 0.8700
629.602388 0.8700 0.8700 0.8700 0.8720 0.8720
634.517747 0.8720 0.8720 0.8720 0.8730 0.8730
639.433107 0.8730 0.8730 0.8730 0.8740 0.8740
644.348466 0.8740 0.8740 0.8740 0.8740 0.8760
649.263825 0.8760 0.8760 0.8760 0.8760 0.8760
654.179185 0.8760 0.8760 0.8760 0.8760 0.8760
659.094544 0.8760 0.8760 0.8760 0.8760 0.8760
664.009903 0.8760 0.8760 0.8760 0.8760 0.8760
668.925263 0.8760 0.8760 0.8760 0.8760 0.8760
673.840622 0.8760 0.8760 0.8760 0.8760 0.8760
678.755981 0.8760 0.8760 0.8740 0.8740 0.8740
683.671341 0.8730 0.8730 0.8730 0.8720 0.8720
688.586700 0.8720 0.8700 0.8700 0.8700 0.8690
693.502059 0.8690 0.8690 0.8680 0.8680 0.8680
698.417419 0.8660 0.8660 0.8650 0.8650 0.8640
703.332778 0.8640 0.8640 0.8620 0.8620 0.8610
708.248137 0.8610 0.8610 0.8600 0.8600 0.8560
713.163497 0.8530 0.8520 0.8520 0.8520 0.8500
718.078856 0.8500 0.8490 0.8490 0.8480 0.8450
722.994216 0.8420 0.8340 0.8330 0.8320 0.8300
727.909575 0.8280 0.8250 0.8220 0.8180 0.8100
732.824934 0.8000 0.7960 0.7930 0.7800 0.7760
737.740294 0.7690 0.7660 0.7481 0.7241 0.6921
742.655653 0.6810 0.6650 0.6520 0.6280 0.6130
747.571012 0.6090 0.6040 0.6010 0.5980 0.5960
752.486372 0.5930 0.5920 0.5880 0.5850 0.5850
757.401731 0.5860 0.5930 0.6010 0.6289 0.6609
762.317090 0.6860 0.7280 0.7500 0.7600 0.7720
767.232450 0.7930 0.7980 0.8010 0.8140 0.8200
772.147809 0.8210 0.8240 0.8250 0.8260 0.8290
777.063168 0.8300 0.8320 0.8320 0.8320 0.8320
781.978528 0.8320 0.8320 0.8320 0.8330 0.8340
786.893887 0.8340 0.8360 0.8370 0.8380 0.8400
791.809246 0.8410 0.8410 0.8410 0.8420 0.8420
796.724606 0.8440 0.8450 0.8460 0.8460 0.8480
801.639965 0.8500 0.8520 0.8530 0.8530 0.8540
806.555324 0.8540 0.8530 0.8520 0.8520 0.8520
811.470684 0.8520 0.8530 0.8540 0.8570 0.8580
816.386043 0.8600 0.8600 0.8610 0.8620 0.8640
821.301402 0.8640 0.8650 0.8660 0.8660 0.8680
826.216762 0.8690 0.8690 0.8700 0.8700 0.8720
831.132121 0.8720 0.8720 0.8700 0.8690 0.8680
836.047480 0.8660 0.8640 0.8610 0.8570 0.8540
840.962840 0.8500 0.8460 0.8460 0.8440 0.8440
845.878199 0.8420 0.8420 0.8410 0.8400 0.8400
850.793558 0.8380 0.8370 0.8370 0.8370 0.8370
855.708918 0.8370 0.8360 0.8360 0.8360 0.8360
860.624277 0.8360 0.8360 0.8370 0.8370 0.8380
865.539636 0.8380 0.8400 0.8400 0.8400 0.8400
870.454996 0.8400 0.8380 0.8380 0.8370 0.8370
875.370355 0.8400 0.8400 0.8420 0.8420 0.8400
880.285714 0.8380 0.8370 0.8360 0.8360 0.8370
885.201074 0.8380 0.8380 0.8380 0.8370 0.8360
890.116433 0.8360 0.8340 0.8330 0.8330 0.8320
895.031792 0.8260 0.8140 0.8120 0.8080 0.8040
899.947152 0.8000 0.7960 0.7940 0.7920 0.7810
904.862511 0.7800 0.7760 0.7720 0.7700 0.7650
909.777871 0.7580 0.7440 0.7260 0.7220 0.7140
914.693230 0.7100 0.7060 0.6880 0.6690 0.6521
919.608589 0.6460 0.6180 0.5860 0.5540 0.5380
924.523949 0.5240 0.5090 0.4940 0.4840 0.4730
929.439308 0.4500 0.4330 0.4200 0.4080 0.4000
934.354667 0.3920 0.3850 0.3770 0.3680 0.3650
939.270027 0.3640 0.3640 0.3640 0.3650 0.3730
944.185386 0.3800 0.3880 0.4100 0.4140 0.4290
949.100745 0.4440 0.4580 0.4960 0.5200 0.5340
954.016105 0.5440 0.5580 0.5720 0.5929 0.6099
958.931464 0.6210 0.6370 0.6490 0.6640 0.6740
963.846823 0.6780 0.6820 0.6860 0.6930 0.7000
968.762183 0.7050 0.7060 0.7100 0.7130 0.7170
973.677542 0.7200 0.7210 0.7210 0.7210 0.7200
978.592901 0.7170 0.7140 0.7100 0.7060 0.7020
983.508261 0.6970 0.6920 0.6820 0.6720 0.6610
988.423620 0.6520 0.6410 0.6380 0.6400 0.6440
993.338979 0.6490 0.6560 0.6740 0.6880 0.6920
998.254339 0.7100 0.7250 0.7280 0.7340 0.7440
1003.169698 0.7580 0.7610 0.7620 0.7690 0.7700
1008.085057 0.7720 0.7730 0.7740 0.7760 0.7760
1013.000417 0.7760 0.7770 0.7770 0.7780 0.7800
1017.915776 0.7820 0.7840 0.7850 0.7860 0.7860
1022.831135 0.7860 0.7880 0.7880 0.7880 0.7880
1027.746495 0.7880 0.7890 0.7900 0.7900 0.7920
1032.661854 0.7920 0.7920 0.7930 0.7930 0.7930
1037.577213 0.7920 0.7900 0.7890 0.7880 0.7860
1042.492573 0.7840 0.7820 0.7810 0.7800 0.7780
1047.407932 0.7770 0.7760 0.7730 0.7700 0.7680
1052.323291 0.7650 0.7640 0.7640 0.7610 0.7610
1057.238651 0.7600 0.7580 0.7560 0.7490 0.7450
1062.154010 0.7380 0.7300 0.7250 0.7220 0.7090
1067.069369 0.7060 0.6940 0.6920 0.6760 0.6600
1071.984729 0.6500 0.6420 0.6320 0.6200 0.6140
1076.900088 0.6010 0.5900 0.5820 0.5680 0.5490
1081.815447 0.5460 0.5480 0.5540 0.5570 0.5650
1086.730807 0.5920 0.6160 0.6320 0.6560 0.6700
1091.646166 0.6820 0.6850 0.6900 0.6920 0.6920
1096.561526 0.6920 0.6920 0.6900 0.6850 0.6840
1101.476885 0.6840 0.6860 0.6940 0.6970 0.7050
1106.392244 0.7100 0.7160 0.7180 0.7220 0.7240
1111.307604 0.7250 0.7280 0.7290 0.7290 0.7290
1116.222963 0.7290 0.7280 0.7280 0.7260 0.7210
1121.138322 0.7170 0.7140 0.7120 0.7100 0.7090
1126.053682 0.7090 0.7090 0.7080 0.7060 0.7010
1130.969041 0.6970 0.6900 0.6770 0.6660 0.6580
1135.884400 0.6500 0.6400 0.6340 0.6250 0.6120
1140.799760 0.5890 0.5810 0.5680 0.5421 0.5250
1145.715119 0.5120 0.5000 0.4840 0.4660 0.4410
1150.630478 0.4170 0.3601 0.3021 0.2970 0.2412
1155.545838 0.2089 0.1779 0.1479 0.0850 0.0490
1160.461197 0.0410 0.0340 0.0290 0.0280 0.0290
1165.376556 0.0300 0.0340 0.0380 0.0420 0.0460
1170.291916 0.0560 0.0770 0.0840 0.0900 0.0980
1175.207275 0.1060 0.1101 0.1420 0.1690 0.1980
1180.122634 0.2220 0.2739 0.3050 0.3260 0.3400
1185.037994 0.3740 0.3760 0.3850 0.3940 0.4040
1189.953353 0.4130 0.4170 0.4170 0.4120 0.4060
1194.868712 0.4020 0.3980 0.3940 0.3920 0.3900
1199.784072 0.3900 0.3920 0.4040 0.4160 0.4280
1204.699431 0.4400 0.4530 0.4650 0.4770 0.4890
1209.614790 0.4940 0.5480 0.5680 0.5979 0.6090
1214.530150 0.6180 0.6290 0.6360 0.6380 0.6500
1219.445509 0.6610 0.6700 0.6740 0.6760 0.6770
1224.360868 0.6800 0.6810 0.6840 0.6850 0.6860
1229.276228 0.6880 0.6890 0.6890 0.6890 0.6890
1234.191587 0.6880 0.6880 0.6860 0.6850 0.6840
1239.106946 0.6800 0.6780 0.6690 0.6610 0.6570
1244.022306 0.6460 0.6440 0.6370 0.6300 0.6200
1248.937665 0.6170 0.6160 0.6170 0.6200 0.6220
1253.853024 0.6330 0.6340 0.6370 0.6480 0.6500
1258.768384 0.6520 0.6570 0.6620 0.6660 0.6740
1263.683743 0.6770 0.6810 0.6820 0.6900 0.6940
1268.599102 0.7010 0.7100 0.7140 0.7160 0.7170
1273.514462 0.7210 0.7210 0.7220 0.7220 0.7220
1278.429821 0.7220 0.7220 0.7210 0.7200 0.7200
1283.345181 0.7180 0.7160 0.7130 0.7120 0.7100
1288.260540 0.7080 0.7060 0.7040 0.7040 0.7020
1293.175899 0.6980 0.6980 0.6970 0.6940 0.6920
1298.091259 0.6890 0.6890 0.6880 0.6860 0.6850
1303.006618 0.6820 0.6800 0.6720 0.6620 0.6560
1307.921977 0.6490 0.6460 0.6450 0.6440 0.6420
1312.837337 0.6410 0.6380 0.6360 0.6320 0.6300
1317.752696 0.6240 0.6220 0.6200 0.6120 0.6010
1322.668055 0.5820 0.5770 0.5660 0.5540 0.5340
1327.583415 0.5140 0.5050 0.4970 0.4660 0.4460
1332.498774 0.4130 0.3970 0.3800 0.3620 0.3370
1337.414133 0.3120 0.2880 0.2740 0.2600 0.2460
1342.329493 0.2380 0.2280 0.2260 0.2210 0.2090
1347.244852 0.2000 0.1970 0.1860 0.1680 0.1441
1352.160211 0.0880 0.0760 0.0640 0.0500 0.0420
1357.075571 0.0340 0.0320 0.0300 0.0320 0.0330
1361.990930 0.0360 0.0380 0.0460 0.0530 0.0580
1366.906289 0.0940 0.1040 0.1120 0.1300 0.1569
1371.821649 0.1771 0.1970 0.1980 0.1960 0.1920
1376.737008 0.1810 0.1800 0.1810 0.2050 0.2499
1381.652367 0.3042 0.3491 0.3690 0.3880 0.4010
1386.567727 0.4170 0.4380 0.4400 0.4500 0.4580
1391.483086 0.4580 0.4600 0.4600 0.4580 0.4540
1396.398445 0.4500 0.4400 0.4200 0.3980 0.3960
1401.313805 0.3540 0.3480 0.3440 0.3380 0.3180
1406.229164 0.2970 0.2770 0.2520 0.2300 0.2011
1411.144523 0.1799 0.1580 0.1560 0.1540 0.1560
1416.059883 0.1610 0.1720 0.1760 0.1960 0.2080
1420.975242 0.2341 0.2520 0.2620 0.2760 0.2800
1425.890601 0.2930 0.2980 0.3040 0.3050 0.3080
1430.805961 0.3090 0.3120 0.3240 0.3300 0.3330
1435.721320 0.3360 0.3370 0.3380 0.3380 0.3400
1440.636679 0.3400 0.3370 0.3340 0.3320 0.3280
1445.552039 0.3240 0.3130 0.3040 0.2930 0.2681
1450.467398 0.2650 0.2650 0.2640 0.2640 0.2600
1455.382757 0.2520 0.2320 0.2120 0.1920 0.1890
1460.298117 0.1690 0.1692 0.2361 0.3041 0.3490
1465.213476 0.3810 0.4250 0.4500 0.4840 0.5060
1470.128836 0.5421 0.5610 0.5700 0.5730 0.5890
1475.044195 0.6090 0.6170 0.6300 0.6360 0.6480
1479.959554 0.6520 0.6600 0.6680 0.6740 0.6740
1484.874914 0.6810 0.6850 0.6930 0.6970 0.7000
1489.790273 0.7010 0.7020 0.7050 0.7060 0.7060
1494.705632 0.7090 0.7170 0.7180 0.7200 0.7220
1499.620992 0.7240 0.7250 0.7280 0.7330 0.7370
1504.536351 0.7370 0.7380 0.7400 0.7400 0.7400
1509.451710 0.7400 0.7400 0.7410 0.7480 0.7490
1514.367070 0.7500 0.7500 0.7530 0.7540 0.7560
1519.282429 0.7570 0.7580 0.7600 0.7620 0.7640
1524.197788 0.7640 0.7650 0.7660 0.7660 0.7680
1529.113148 0.7700 0.7730 0.7760 0.7800 0.7820
1534.028507 0.7840 0.7840 0.7850 0.7850 0.7890
1538.943866 0.7900 0.7920 0.7930 0.7940 0.7960
1543.859226 0.7970 0.7980 0.7980 0.7980 0.7980
1548.774585 0.7980 0.7980 0.7970 0.7970 0.7960
1553.689944 0.7960 0.7940 0.7930 0.7930 0.7930
1558.605304 0.7930 0.7930 0.7920 0.7920 0.7900
1563.520663 0.7890 0.7880 0.7880 0.7880 0.7890
1568.436022 0.7900 0.7920 0.7920 0.7930 0.7930
1573.351382 0.7940 0.7940 0.7960 0.7960 0.7960
1578.266741 0.7980 0.7980 0.8000 0.8020 0.8040
1583.182100 0.8040 0.8050 0.8050 0.8040 0.8040
1588.097460 0.8050 0.8050 0.8050 0.8060 0.8080
1593.012819 0.8080 0.8080 0.8090 0.8090 0.8080
1597.928178 0.8060 0.8060 0.8060 0.8050 0.8050
1602.843538 0.8050 0.8050 0.8050 0.8040 0.8040
1607.758897 0.8040 0.8040 0.8020 0.8020 0.8020
1612.674256 0.8020 0.8020 0.8020 0.8020 0.8020
1617.589616 0.8040 0.8040 0.8050 0.8050 0.8060
1622.504975 0.8060 0.8060 0.8040 0.8020 0.8000
1627.420334 0.8000 0.7970 0.7970 0.7960 0.7960
1632.335694 0.7940 0.7930 0.7920 0.7920 0.7890
1637.251053 0.7890 0.7880 0.7880 0.7860 0.7820
1642.166412 0.7780 0.7740 0.7740 0.7700 0.7700
1647.081772 0.7690 0.7690 0.7680 0.7640 0.7600
1651.997131 0.7560 0.7530 0.7500 0.7450 0.7410
1656.912491 0.7360 0.7300 0.7260 0.7240 0.7180
1661.827850 0.7060 0.7040 0.6920 0.6850 0.6810
1666.743209 0.6740 0.6600 0.6500 0.6410 0.6170
1671.658569 0.5970 0.5850 0.5770 0.5730 0.5600
1676.573928 0.5460 0.5340 0.5250 0.5210 0.5140
1681.489287 0.5120 0.5040 0.5000 0.4980 0.4890
1686.404647 0.4800 0.4760 0.4620 0.4480 0.4300
1691.320006 0.4100 0.3840 0.3660 0.3450 0.3120
1696.235365 0.2809 0.2660 0.2599 0.2377 0.0780
1701.150725 0.0690 0.0560 0.0420 0.0290 0.0090
1706.066084 0.0020 0.0010 0.0010 0.0000 0.0000
1710.981443 0.0000 0.0000 0.0000 0.0000 0.0000
1715.896803 0.0000 0.0000 0.0000 0.0000 0.0000
1720.812162 0.0000 0.0000 0.0000 0.0010 0.0020
1725.727521 0.0040 0.0060 0.0160 0.0240 0.0320
1730.642881 0.0490 0.0680 0.0900 0.1010 0.1120
1735.558240 0.1321 0.1561 0.1721 0.1941 0.2241
1740.473599 0.2540 0.2850 0.3120 0.3220 0.3520
1745.388959 0.3640 0.3691 0.3840 0.3890 0.4040
1750.304318 0.4200 0.4260 0.4340 0.4490 0.4570
1755.219677 0.4621 0.4781 0.5000 0.5100 0.5240
1760.135037 0.5560 0.5690 0.5820 0.5900 0.6050
1765.050396 0.6161 0.6290 0.6400 0.6450 0.6480
1769.965755 0.6580 0.6690 0.6880 0.6900 0.6960
1774.881115 0.7050 0.7160 0.7240 0.7300 0.7340
1779.796474 0.7380 0.7420 0.7500 0.7610 0.7690
1784.711833 0.7740 0.7780 0.7850 0.7890 0.7900
1789.627193 0.7920 0.7940 0.7960 0.8000 0.8050
1794.542552 0.8140 0.8180 0.8200 0.8210 0.8210
1799.457911 0.8220 0.8260 0.8300 0.8320 0.8330
1804.373271 0.8340 0.8380 0.8410 0.8440 0.8490
1809.288630 0.8500 0.8530 0.8540 0.8560 0.8560
1814.203989 0.8560 0.8570 0.8570 0.8600 0.8600
1819.119349 0.8610 0.8610 0.8610 0.8620 0.8620
1824.034708 0.8620 0.8640 0.8640 0.8640 0.8640
1828.950067 0.8650 0.8650 0.8650 0.8650 0.8650
1833.865427 0.8650 0.8650 0.8660 0.8680 0.8680
1838.780786 0.8680 0.8680 0.8690 0.8690 0.8690
1843.696146 0.8690 0.8690 0.8690 0.8690 0.8690
1848.611505 0.8690 0.8690 0.8700 0.8700 0.8700
1853.526864 0.8700 0.8700 0.8700 0.8700 0.8700
1858.442224 0.8700 0.8700 0.8690 0.8690 0.8690
1863.357583 0.8680 0.8680 0.8680 0.8680 0.8660
1868.272942 0.8660 0.8660 0.8650 0.8650 0.8650
1873.188302 0.8620 0.8620 0.8620 0.8610 0.8610
1878.103661 0.8600 0.8600 0.8600 0.8580 0.8600
1883.019020 0.8600 0.8620 0.8640 0.8640 0.8640
1887.934380 0.8640 0.8620 0.8620 0.8640 0.8660
1892.849739 0.8660 0.8650 0.8650 0.8650 0.8650
1897.765098 0.8660 0.8660 0.8690 0.8690 0.8690
1902.680458 0.8690 0.8690 0.8700 0.8700 0.8700
1907.595817 0.8700 0.8690 0.8700 0.8700 0.8720
1912.511176 0.8720 0.8700 0.8680 0.8680 0.8700
1917.426536 0.8720 0.8720 0.8720 0.8720 0.8700
1922.341895 0.8690 0.8690 0.8690 0.8690 0.8690
1927.257254 0.8700 0.8700 0.8700 0.8690 0.8700
1932.172614 0.8700 0.8700 0.8700 0.8720 0.8720
1937.087973 0.8720 0.8730 0.8730 0.8730 0.8740
1942.003332 0.8740 0.8740 0.8760 0.8730 0.8730
1946.918692 0.8720 0.8730 0.8740 0.8760 0.8760
1951.834051 0.8760 0.8760 0.8760 0.8760 0.8760
1956.749410 0.8760 0.8760 0.8770 0.8770 0.8770
1961.664770 0.8780 0.8780 0.8780 0.8770 0.8770
1966.580129 0.8770 0.8760 0.8770 0.8770 0.8780
1971.495488 0.8770 0.8770 0.8760 0.8760 0.8740
1976.410848 0.8740 0.8730 0.8730 0.8730 0.8730
1981.326207 0.8730 0.8730 0.8730 0.8740 0.8740
1986.241566 0.8760 0.8760 0.8770 0.8780 0.8780
1991.156926 0.8780 0.8780 0.8800 0.8800 0.8800
1996.072285 0.8800 0.8810 0.8820 0.8840 0.8860
2000.987644 0.8875 0.8890 0.8905 0.8920 0.8925
2005.903004 0.8930 0.8930 0.8930 0.8935 0.8940
2010.818363 0.8940 0.8940 0.8940 0.8940 0.8935
2015.733722 0.8930 0.8930 0.8930 0.8935 0.8940
2020.649082 0.8940 0.8940 0.8935 0.8930 0.8925
2025.564441 0.8920 0.8920 0.8920 0.8920 0.8920
2030.479801 0.8920 0.8920 0.8911 0.8901 0.8900
2035.395160 0.8900 0.8900 0.8900 0.8900 0.8900
2040.310519 0.8895 0.8890 0.8890 0.8890 0.8890
2045.225879 0.8890 0.8890 0.8890 0.8890 0.8890
2050.141238 0.8895 0.8900 0.8900 0.8900 0.8900
2055.056597 0.8900 0.8896 0.8891 0.8890 0.8890
2059.971957 0.8890 0.8890 0.8886 0.8881 0.8880
2064.887316 0.8880 0.8880 0.8880 0.8867 0.8852
2069.802675 0.8846 0.8841 0.8827 0.8812 0.8810
2074.718035 0.8810 0.8806 0.8801 0.8800 0.8800
2079.633394 0.8800 0.8800 0.8800 0.8800 0.8787
2084.548753 0.8772 0.8753 0.8733 0.8726 0.8721
2089.464113 0.8712 0.8702 0.8700 0.8700 0.8696
2094.379472 0.8691 0.8690 0.8690 0.8678 0.8662
2099.294831 0.8652 0.8642 0.8640 0.8640 0.8632
2104.210191 0.8622 0.8616 0.8611 0.8610 0.8610
2109.125550 0.8598 0.8583 0.8580 0.8580 0.8576
2114.040909 0.8571 0.8570 0.8570 0.8570 0.8570
2118.956269 0.8570 0.8570 0.8574 0.8579 0.8588
2123.871628 0.8598 0.8600 0.8600 0.8604 0.8609
2128.786987 0.8610 0.8610 0.8622 0.8637 0.8640
2133.702347 0.8640 0.8655 0.8675 0.8684 0.8689
2138.617706 0.8694 0.8699 0.8712 0.8726 0.8730
2143.533065 0.8730 0.8726 0.8721 0.8720 0.8720
2148.448425 0.8720 0.8720 0.8720 0.8720 0.8720
2153.363784 0.8720 0.8720 0.8720 0.8720 0.8720
2158.279143 0.8724 0.8729 0.8730 0.8730 0.8734
2163.194503 0.8739 0.8740 0.8740 0.8740 0.8740
2168.109862 0.8740 0.8740 0.8747 0.8757 0.8767
2173.025221 0.8777 0.8780 0.8780 0.8790 0.8806
2177.940581 0.8821 0.8836 0.8840 0.8840 0.8843
2182.855940 0.8848 0.8847 0.8842 0.8840 0.8840
2187.771299 0.8830 0.8815 0.8807 0.8802 0.8793
2192.686659 0.8783 0.8777 0.8772 0.8773 0.8778
2197.602018 0.8790 0.8805 0.8810 0.8810 0.8810
2202.517377 0.8810 0.8810 0.8810 0.8813 0.8818
2207.432737 0.8817 0.8812 0.8810 0.8810 0.8810
2212.348096 0.8810 0.8810 0.8810 0.8810 0.8810
2217.263456 0.8810 0.8810 0.8810 0.8810 0.8813
2222.178815 0.8818 0.8820 0.8820 0.8817 0.8812
2227.094174 0.8810 0.8810 0.8813 0.8818 0.8826
2232.009534 0.8836 0.8840 0.8840 0.8840 0.8840
2236.924893 0.8843 0.8848 0.8850 0.8850 0.8847
2241.840252 0.8842 0.8840 0.8840 0.8840 0.8840
2246.755612 0.8840 0.8840 0.8834 0.8824 0.8820
2251.670971 0.8820 0.8820 0.8820 0.8817 0.8812
2256.586330 0.8807 0.8802 0.8794 0.8784 0.8777
2261.501690 0.8772 0.8773 0.8778 0.8777 0.8772
2266.417049 0.8770 0.8770 0.8762 0.8747 0.8737
2271.332408 0.8732 0.8730 0.8730 0.8730 0.8730
2276.247768 0.8730 0.8730 0.8727 0.8722 0.8715
2281.163127 0.8705 0.8700 0.8700 0.8697 0.8692
2286.078486 0.8693 0.8698 0.8697 0.8692 0.8687
2290.993846 0.8682 0.8680 0.8680 0.8675 0.8665
2295.909205 0.8660 0.8660 0.8660 0.8660 0.8665
2300.824564 0.8675 0.8680 0.8680 0.8680 0.8680
2305.739924 0.8680 0.8680 0.8682 0.8687 0.8690
2310.655283 0.8690 0.8690 0.8690 0.8690 0.8690
2315.570642 0.8692 0.8697 0.8700 0.8700 0.8700
2320.486002 0.8700 0.8700 0.8700 0.8700 0.8700
2325.401361 0.8700 0.8700 0.8700 0.8700 0.8700
2330.316720 0.8700 0.8700 0.8700 0.8700 0.8700
2335.232080 0.8700 0.8700 0.8700 0.8700 0.8700
2340.147439 0.8700 0.8700 0.8700 0.8698 0.8693
2345.062798 0.8690 0.8690 0.8682 0.8662 0.8648
2349.978158 0.8643 0.8640 0.8640 0.8644 0.8654
2354.893517 0.8664 0.8674 0.8682 0.8687 0.8690
2359.808876 0.8690 0.8692 0.8697 0.8700 0.8700
2364.724236 0.8698 0.8693 0.8692 0.8697 0.8700
2369.639595 0.8700 0.8700 0.8700 0.8704 0.8714
2374.554954 0.8720 0.8720 0.8720 0.8720 0.8720
2379.470314 0.8720 0.8716 0.8706 0.8700 0.8700
2384.385673 0.8698 0.8693 0.8690 0.8690 0.8692
2389.301032 0.8697 0.8700 0.8700 0.8703 0.8713
2394.216392 0.8722 0.8727 0.8730 0.8730 0.8732
2399.131751 0.8737 0.8740 0.8740 0.8737 0.8727
2404.047111 0.8720 0.8720 0.8720 0.8720 0.8720
2408.962470 0.8720 0.8717 0.8707 0.8700 0.8700
2413.877829 0.8700 0.8700 0.8700 0.8700 0.8700
2418.793189 0.8700 0.8703 0.8713 0.8721 0.8726
2423.708548 0.8729 0.8724 0.8721 0.8726 0.8730
2428.623907 0.8730 0.8731 0.8736 0.8740 0.8740
2433.539267 0.8739 0.8734 0.8730 0.8730 0.8730
2438.454626 0.8730 0.8730 0.8730 0.8730 0.8730
2443.369985 0.8729 0.8724 0.8717 0.8708 0.8700
2448.285345 0.8700 0.8700 0.8700 0.8699 0.8694
2453.200704 0.8690 0.8690 0.8690 0.8690 0.8690
2458.116063 0.8690 0.8689 0.8684 0.8678 0.8668
2463.031423 0.8660 0.8660 0.8662 0.8672 0.8680
2467.946782 0.8680 0.8680 0.8680 0.8680 0.8680
2472.862141 0.8678 0.8668 0.8660 0.8660 0.8660
2477.777501 0.8660 0.8660 0.8660 0.8662 0.8672
2482.692860 0.8680 0.8680 0.8681 0.8686 0.8691
2487.608219 0.8696 0.8700 0.8700 0.8699 0.8694
2492.523579 0.8690 0.8690 0.8689 0.8684 0.8678
2497.438938 0.8668 0.8660 0.8660 0.8659 0.8654
2502.354297 0.8649 0.8644 0.8640 0.8640 0.8639
2507.269657 0.8629 0.8619 0.8614 0.8611 0.8616
2512.185016 0.8620 0.8620 0.8621 0.8631 0.8641
2517.100375 0.8646 0.8651 0.8656 0.8661 0.8671
2522.015735 0.8679 0.8669 0.8659 0.8654 0.8650
2526.931094 0.8650 0.8651 0.8656 0.8660 0.8660
2531.846453 0.8659 0.8654 0.8649 0.8644 0.8640
2536.761813 0.8640 0.8641 0.8645 0.8650 0.8655
2541.677172 0.8661 0.8676 0.8690 0.8690 0.8690
2546.592531 0.8695 0.8700 0.8700 0.8700 0.8700
2551.507891 0.8700 0.8700 0.8700 0.8700 0.8700
2556.423250 0.8700 0.8700 0.8700 0.8701 0.8711
2561.338609 0.8719 0.8704 0.8690 0.8685 0.8680
2566.253969 0.8680 0.8680 0.8680 0.8680 0.8680
2571.169328 0.8681 0.8691 0.8700 0.8700 0.8700
2576.084687 0.8700 0.8700 0.8710 0.8720 0.8705
2581.000047 0.8690 0.8690 0.8690 0.8685 0.8680
2585.915406 0.8670 0.8660 0.8660 0.8660 0.8670
2590.830766 0.8680 0.8685 0.8690 0.8695 0.8700
2595.746125 0.8700 0.8700 0.8710 0.8720 0.8710
2600.661484 0.8700 0.8695 0.8690 0.8690 0.8690
2605.576844 0.8685 0.8680 0.8685 0.8690 0.8685
2610.492203 0.8680 0.8680 0.8680 0.8670 0.8660
2615.407562 0.8660 0.8660 0.8660 0.8660 0.8660
2620.322922 0.8660 0.8660 0.8660 0.8660 0.8660
2625.238281 0.8660 0.8660 0.8660 0.8660 0.8660
2630.153640 0.8660 0.8670 0.8680 0.8680 0.8680
2635.069000 0.8680 0.8680 0.8680 0.8680 0.8671
2639.984359 0.8661 0.8660 0.8660 0.8660 0.8660
2644.899718 0.8655 0.8650 0.8645 0.8640 0.8640
2649.815078 0.8640 0.8645 0.8650 0.8650 0.8650
2654.730437 0.8645 0.8640 0.8640 0.8640 0.8631
2659.645796 0.8621 0.8629 0.8639 0.8640 0.8640
2664.561156 0.8640 0.8640 0.8640 0.8640 0.8640
2669.476515 0.8640 0.8631 0.8621 0.8616 0.8611
2674.391874 0.8610 0.8610 0.8610 0.8610 0.8610
2679.307234 0.8610 0.8610 0.8610 0.8606 0.8601
2684.222593 0.8600 0.8600 0.8600 0.8600 0.8600
2689.137952 0.8600 0.8600 0.8600 0.8591 0.8582
2694.053312 0.8580 0.8580 0.8580 0.8580 0.8580
2698.968671 0.8580 0.8576 0.8571 0.8570 0.8570
2703.884030 0.8558 0.8543 0.8536 0.8531 0.8530
2708.799390 0.8530 0.8530 0.8530 0.8526 0.8521
2713.714749 0.8520 0.8520 0.8520 0.8520 0.8512
2718.630108 0.8502 0.8500 0.8500 0.8496 0.8491
2723.545468 0.8486 0.8481 0.8468 0.8453 0.8438
2728.460827 0.8423 0.8416 0.8411 0.8398 0.8383
2733.376186 0.8376 0.8371 0.8358 0.8343 0.8336
2738.291546 0.8331 0.8334 0.8339 0.8348 0.8358
2743.206905 0.8368 0.8377 0.8387 0.8397 0.8407
2748.122264 0.8418 0.8420 0.8420 0.8428 0.8437
2753.037624 0.8440 0.8440 0.8440 0.8440 0.8440
2757.952983 0.8440 0.8433 0.8423 0.8416 0.8411
2762.868342 0.8406 0.8401 0.8393 0.8383 0.8380
2767.783702 0.8380 0.8376 0.8371 0.8366 0.8361
2772.699061 0.8349 0.8334 0.8319 0.8304 0.8286
2777.614421 0.8266 0.8260 0.8260 0.8246 0.8226
2782.529780 0.8199 0.8169 0.8150 0.8135 0.8113
2787.445139 0.8088 0.8045 0.7996 0.7977 0.7972
2792.360499 0.7953 0.7928 0.7910 0.7895 0.7877
2797.275858 0.7857 0.7840 0.7825 0.7804 0.7779
2802.191217 0.7754 0.7729 0.7707 0.7687 0.7670
2807.106577 0.7655 0.7647 0.7642 0.7640 0.7640
2812.021936 0.7634 0.7624 0.7620 0.7620 0.7617
2816.937295 0.7612 0.7610 0.7610 0.7610 0.7610
2821.852655 0.7607 0.7602 0.7594 0.7584 0.7577
2826.768014 0.7572 0.7570 0.7570 0.7570 0.7570
2831.683373 0.7567 0.7562 0.7560 0.7560 0.7554
2836.598733 0.7544 0.7540 0.7540 0.7534 0.7524
2841.514092 0.7511 0.7496 0.7481 0.7466 0.7457
2846.429451 0.7452 0.7438 0.7418 0.7407 0.7402
2851.344811 0.7391 0.7376 0.7344 0.7299 0.7269
2856.260170 0.7249 0.7231 0.7217 0.7179 0.7124
2861.175529 0.7067 0.7007 0.6925 0.6825 0.6769
2866.090889 0.6749 0.6701 0.6631 0.6539 0.6429
2871.006248 0.6322 0.6218 0.6075 0.5900 0.5718
2875.921607 0.5528 0.5357 0.5203 0.4898 0.4459
2880.836967 0.4111 0.3847 0.3720 0.3720 0.3798
2885.752326 0.3949 0.4031 0.4051 0.4068 0.4083
2890.667685 0.4087 0.4082 0.4059 0.4020 0.3980
2895.583045 0.3940 0.3890 0.3830 0.3773 0.3718
2900.498404 0.3661 0.3601 0.3543 0.3488 0.3431
2905.413763 0.3370 0.3295 0.3206 0.3155 0.3145
2910.329123 0.3145 0.3155 0.3179 0.3219 0.3297
2915.244482 0.3417 0.3508 0.3568 0.3623 0.3673
2920.159841 0.3718 0.3758 0.3814 0.3889 0.3932
2925.075201 0.3937 0.3935 0.3925 0.3913 0.3898
2929.990560 0.3865 0.3810 0.3726 0.3607 0.3447
2934.905919 0.3238 0.3029 0.2819 0.2612 0.2407
2939.821279 0.2205 0.2006 0.1890 0.1890 0.1949
2944.736638 0.2090 0.2228 0.2363 0.2495 0.2625
2949.651997 0.2750 0.2870 0.3081 0.3420 0.3640
2954.567357 0.3690 0.3724 0.3734 0.3740 0.3740
2959.482716 0.3722 0.3677 0.3613 0.3518 0.3418
2964.398076 0.3307 0.3202 0.3107 0.3005 0.2890
2969.313435 0.2694 0.2370 0.2126 0.2011 0.1893
2974.228794 0.1768 0.1640 0.1505 0.1285 0.0916
2979.144154 0.0675 0.0660 0.0655 0.0670 0.0705
2984.059513 0.0775 0.0847 0.0922 0.0997 0.1072
2988.974872 0.1178 0.1343 0.1504 0.1659 0.1815
2993.890232 0.1974 0.2124 0.2254 0.2420 0.2659
2998.805591 0.2929 0.3263 0.3553 0.3747 0.3912
3003.720950 0.4013 0.4097 0.4146 0.4193 0.4233
3008.636310 0.4279 0.4339 0.4423 0.4557 0.4704
3013.551669 0.4879 0.5040 0.5169 0.5295 0.5409
3018.467028 0.5525 0.5645 0.5778 0.5942 0.6094
3023.382388 0.6215 0.6322 0.6397 0.6474 0.6553
3028.297747 0.6617 0.6642 0.6691 0.6801 0.6893
3033.213106 0.6937 0.6982 0.7027 0.7065 0.7085
3038.128466 0.7113 0.7163 0.7213 0.7263 0.7310
3043.043825 0.7350 0.7383 0.7393 0.7407 0.7431
3047.959184 0.7459 0.7494 0.7526 0.7551 0.7571
3052.874544 0.7576 0.7584 0.7599 0.7614 0.7628
3057.789903 0.7641 0.7646 0.7658 0.7693 0.7727
3062.705262 0.7757 0.7782 0.7792 0.7807 0.7837
3067.620622 0.7863 0.7878 0.7894 0.7914 0.7931
3072.535981 0.7936 0.7942 0.7952 0.7961 0.7966
3077.451340 0.7973 0.7988 0.8001 0.8006 0.8011
3082.366700 0.8016 0.8022 0.8032 0.8041 0.8046
3087.282059 0.8054 0.8074 0.8093 0.8108 0.8121
3092.197418 0.8126 0.8133 0.8153 0.8173 0.8187
3097.112778 0.8203 0.8223 0.8241 0.8246 0.8252
3102.028137 0.8267 0.8281 0.8286 0.8292 0.8307
3106.943496 0.8320 0.8320 0.8321 0.8326 0.8331
3111.858856 0.8336 0.8341 0.8351 0.8361 0.8366
3116.774215 0.8371 0.8376 0.8383 0.8402 0.8424
3121.689574 0.8454 0.8481 0.8491 0.8501 0.8511
3126.604934 0.8520 0.8520 0.8519 0.8509 0.8499
3131.520293 0.8494 0.8490 0.8490 0.8490 0.8490
3136.435652 0.8490 0.8490 0.8490 0.8495 0.8501
3141.351012 0.8511 0.8520 0.8520 0.8520 0.8520
3146.266371 0.8520 0.8520 0.8520 0.8520 0.8520
3151.181731 0.8520 0.8520 0.8520 0.8520 0.8520
3156.097090 0.8520 0.8525 0.8530 0.8530 0.8530
3161.012449 0.8530 0.8530 0.8530 0.8530 0.8530
3165.927809 0.8530 0.8530 0.8530 0.8530 0.8530
3170.843168 0.8530 0.8530 0.8535 0.8540 0.8540
3175.758527 0.8540 0.8550 0.8560 0.8560 0.8560
3180.673887 0.8565 0.8570 0.8570 0.8570 0.8575
3185.589246 0.8580 0.8590 0.8600 0.8605 0.8610
3190.504605 0.8610 0.8610 0.8615 0.8620 0.8620
3195.419965 0.8620 0.8630 0.8640 0.8645 0.8650
3200.335324 0.8655 0.8660 0.8660 0.8660 0.8670
3205.250683 0.8680 0.8680 0.8680 0.8685 0.8690
3210.166043 0.8690 0.8690 0.8695 0.8700 0.8700
3215.081402 0.8700 0.8700 0.8700 0.8695 0.8690
3219.996761 0.8690 0.8690 0.8690 0.8690 0.8690
3224.912121 0.8690 0.8690 0.8690 0.8690 0.8690
3229.827480 0.8695 0.8700 0.8700 0.8700 0.8700
3234.742839 0.8700 0.8709 0.8719 0.8720 0.8720
3239.658199 0.8720 0.8720 0.8720 0.8720 0.8720
3244.573558 0.8720 0.8725 0.8730 0.8730 0.8730
3249.488917 0.8730 0.8730 0.8730 0.8730 0.8730
3254.404277 0.8730 0.8735 0.8739 0.8740 0.8740
3259.319636 0.8749 0.8759 0.8760 0.8760 0.8765
3264.234995 0.8769 0.8770 0.8770 0.8770 0.8770
3269.150355 0.8770 0.8770 0.8766 0.8761 0.8760
3274.065714 0.8760 0.8751 0.8741 0.8740 0.8740
3278.981073 0.8740 0.8740 0.8740 0.8740 0.8740
3283.896433 0.8740 0.8740 0.8740 0.8740 0.8740
3288.811792 0.8740 0.8740 0.8740 0.8740 0.8736
3293.727151 0.8731 0.8730 0.8730 0.8730 0.8730
3298.642511 0.8730 0.8730 0.8726 0.8721 0.8720
3303.557870 0.8720 0.8720 0.8720 0.8720 0.8720
3308.473229 0.8720 0.8720 0.8720 0.8720 0.8720
3313.388589 0.8720 0.8720 0.8720 0.8720 0.8720
3318.303948 0.8720 0.8720 0.8720 0.8720 0.8720
3323.219307 0.8720 0.8720 0.8720 0.8720 0.8720
3328.134667 0.8720 0.8720 0.8720 0.8720 0.8712
3333.050026 0.8702 0.8700 0.8700 0.8700 0.8700
3337.965386 0.8700 0.8700 0.8700 0.8700 0.8700
3342.880745 0.8700 0.8700 0.8700 0.8700 0.8700
3347.796104 0.8700 0.8700 0.8700 0.8700 0.8700
3352.711464 0.8700 0.8700 0.8700 0.8700 0.8700
3357.626823 0.8700 0.8700 0.8696 0.8691 0.8690
3362.542182 0.8690 0.8690 0.8690 0.8686 0.8681
3367.457542 0.8673 0.8663 0.8660 0.8660 0.8656
3372.372901 0.8651 0.8646 0.8641 0.8633 0.8623
3377.288260 0.8617 0.8611 0.8599 0.8584 0.8576
3382.203620 0.8571 0.8567 0.8562 0.8553 0.8543
3387.118979 0.8540 0.8540 0.8533 0.8523 0.8493
3392.034338 0.8453 0.8427 0.8407 0.8390 0.8375
3396.949698 0.8357 0.8337 0.8303 0.8263 0.8220
3401.865057 0.8175 0.8133 0.8094 0.8054 0.8014
3406.780416 0.7977 0.7942 0.7904 0.7864 0.7828
3411.695776 0.7793 0.7761 0.7731 0.7688 0.7639
3416.611135 0.7601 0.7571 0.7521 0.7462 0.7434
3421.526494 0.7424 0.7426 0.7436 0.7459 0.7489
3426.441854 0.7559 0.7654 0.7730 0.7795 0.7854
3431.357213 0.7908 0.7966 0.8026 0.8074 0.8114
3436.272572 0.8169 0.8235 0.8281 0.8316 0.8354
3441.187932 0.8394 0.8434 0.8474 0.8493 0.8498
3446.103291 0.8518 0.8548 0.8572 0.8592 0.8606
3451.018650 0.8616 0.8626 0.8636 0.8643 0.8648
3455.934010 0.8650 0.8650 0.8650 0.8650 0.8653
3460.849369 0.8658 0.8660 0.8660 0.8660 0.8660
3465.764728 0.8660 0.8660 0.8660 0.8660 0.8660
3470.680088 0.8660 0.8660 0.8660 0.8660 0.8660
3475.595447 0.8657 0.8652 0.8650 0.8650 0.8653
3480.510806 0.8658 0.8660 0.8660 0.8660 0.8660
3485.426166 0.8665 0.8675 0.8683 0.8688 0.8690
3490.341525 0.8690 0.8690 0.8690 0.8690 0.8690
3495.256884 0.8687 0.8682 0.8680 0.8680 0.8675
3500.172244 0.8665 0.8660 0.8660 0.8660 0.8660
3505.087603 0.8658 0.8653 0.8648 0.8643 0.8642
3510.002962 0.8647 0.8650 0.8650 0.8650 0.8650
3514.918322 0.8652 0.8657 0.8660 0.8660 0.8658
3519.833681 0.8653 0.8652 0.8657 0.8658 0.8653
3524.749041 0.8648 0.8643 0.8640 0.8640 0.8640
3529.664400 0.8640 0.8640 0.8640 0.8640 0.8640
3534.579759 0.8640 0.8640 0.8640 0.8640 0.8640
3539.495119 0.8640 0.8640 0.8640 0.8642 0.8647
3544.410478 0.8652 0.8657 0.8660 0.8660 0.8660
3549.325837 0.8660 0.8660 0.8660 0.8658 0.8653
3554.241197 0.8650 0.8650 0.8652 0.8657 0.8664
3559.156556 0.8674 0.8682 0.8687 0.8692 0.8697
3564.071915 0.8700 0.8700 0.8700 0.8700 0.8700
3568.987275 0.8700 0.8704 0.8714 0.8724 0.8734
3573.902634 0.8746 0.8761 0.8772 0.8777 0.8786
3578.817993 0.8801 0.8816 0.8831 0.8840 0.8840
3583.733353 0.8836 0.8826 0.8818 0.8813 0.8808
3588.648712 0.8803 0.8800 0.8800 0.8800 0.8800
3593.564071 0.8802 0.8807 0.8810 0.8810 0.8810
3598.479431 0.8810 0.8810 0.8810 0.8810 0.8810
3603.394790 0.8808 0.8803 0.8800 0.8800 0.8797
3608.310149 0.8787 0.8780 0.8780 0.8778 0.8773
3613.225509 0.8770 0.8770 0.8770 0.8770 0.8770
3618.140868 0.8770 0.8770 0.8770 0.8771 0.8776
3623.056227 0.8780 0.8780 0.8780 0.8780 0.8780
3627.971587 0.8780 0.8780 0.8780 0.8780 0.8780
3632.886946 0.8779 0.8774 0.8770 0.8770 0.8770
3637.802305 0.8770 0.8770 0.8770 0.8770 0.8770
3642.717665 0.8770 0.8770 0.8770 0.8770 0.8770
3647.633024 0.8770 0.8770 0.8770 0.8770 0.8770
3652.548383 0.8769 0.8764 0.8761 0.8766 0.8769
3657.463743 0.8764 0.8760 0.8760 0.8758 0.8748
3662.379102 0.8740 0.8740 0.8740 0.8740 0.8740
3667.294461 0.8740 0.8739 0.8734 0.8727 0.8712
3672.209821 0.8699 0.8694 0.8689 0.8684 0.8677
3677.125180 0.8662 0.8646 0.8626 0.8609 0.8604
3682.040539 0.8600 0.8600 0.8601 0.8606 0.8611
3686.955899 0.8616 0.8620 0.8620 0.8622 0.8632
3691.871258 0.8643 0.8664 0.8681 0.8686 0.8694
3696.786617 0.8714 0.8736 0.8771 0.8802 0.8812
3701.701977 0.8822 0.8832 0.8841 0.8846 0.8850
3706.617336 0.8850 0.8850 0.8850 0.8851 0.8856
3711.532696 0.8860 0.8860 0.8859 0.8854 0.8850
3716.448055 0.8850 0.8850 0.8850 0.8851 0.8856
3721.363414 0.8861 0.8871 0.8881 0.8886 0.8890
3726.278774 0.8890 0.8891 0.8896 0.8900 0.8900
3731.194133 0.8899 0.8894 0.8891 0.8896 0.8900
3736.109492 0.8900 0.8900 0.8900 0.8900 0.8900
3741.024852 0.8901 0.8911 0.8920 0.8920 0.8920
3745.940211 0.8920 0.8920 0.8920 0.8920 0.8920
3750.855570 0.8920 0.8920 0.8920 0.8920 0.8919
3755.770930 0.8909 0.8900 0.8900 0.8900 0.8900
3760.686289 0.8900 0.8895 0.8890 0.8890 0.8890
3765.601648 0.8890 0.8890 0.8895 0.8900 0.8900
3770.517008 0.8900 0.8900 0.8900 0.8900 0.8900
3775.432367 0.8900 0.8900 0.8900 0.8900 0.8895
3780.347726 0.8890 0.8890 0.8890 0.8890 0.8890
3785.263086 0.8890 0.8890 0.8885 0.8880 0.8880
3790.178445 0.8880 0.8880 0.8880 0.8880 0.8880
3795.093804 0.8880
##END=
