##TITLE=Methyl Ethyl Ketone
##JCAMP-DX=4.24
##DATA TYPE=INFRARED SPECTRUM
##CLASS=IUPAC A
##ORIGIN=NIST, Anayltical Chemistry Division, 301-975-3108
##OWNER=COPYRIGHT (C) 1998 by the U.S. Secretary of Commerce
##DATE=98/10/1
##$SPECTRA VERSION=1.00
##$UNCERTAINTY IN Y=2.1 % relative (B=1.1E-04,C=8.6E-10,D=2.7E-14)
##CAS NAME=2-Butanone
##CAS REGISTRY NO=78-93-3
##MOLFORM=C H3 C H2 C O C H3
##MP=-86.35 C
##BP=79.6 C
##$NIST SOURCE=QUANT-IR
##SPECTROMETER/DATA SYSTEM=IFS66V (Bruker)
##INSTRUMENT PARAMETERS=KBr Beam splitter; MCT Detector; Multipass cell
##STATE=gas
##SAMPLE DESCRIPTION=Methyl Ethyl Ketone Primary Gas Standard
##PRESSURE=101.3 kPa
##TEMPERATURE=23 C
##SAMPLING PROCEDURE=1 L/min Flow
##RESOLUTION=0.9640
##DATA PROCESSING=3-Term B-H Apodization
##XUNITS=cm-1
##YUNITS=(micromol/mol)-1m-1 (base 10)
##XFACTOR=1.0
##YFACTOR=4.5474E-13
##DELTAX=0.4820
##FIRSTX=575.169
##LASTX=3975.077
##FIRSTY=.0000217
##MAXX=3974.59
##MINX=575.17
##MAXY=.0005714
##MINY=-9.86E-07
##NPOINTS=7053
##XYDATA=(X++(Y..Y))
575.17 47826730 51223870 53914890 56077120 58175880 60174270
577.58 61600900 62206500 62523100 62676380 62881020 63569740
580.47 64329930 64586620 63963990 62707820 61826320 62267170
583.37 64023560 66530390 68230760 68638780 69621660 72478000
586.26 74522410 74166940 72539580 69138630 65505650 63922630
589.15 64894980 65976900 65713260 66246420 67467170 67056720
592.04 65685880 65090400 65347080 65772420 65802850 65719400
594.94 65393860 64578060 63837840 63404080 62773650 61721750
597.83 60300820 58293330 55810480 53610070 51522820 49137220
600.72 46763130 44339050 41662100 38843930 35900410 33176330
603.61 30934260 28561730 26071980 23904590 21782840 19790920
606.51 18145800 16486700 14961620 13821130 12745910 11366400
609.40 9891072 8871500 8088316 7407546 6797122 6018096
612.29 5455060 5240760 4798846 4087836 3829942 4067250
615.18 4131262 3718840 3112596 2829206 2833120 2721454
618.08 2480910 2324180 2192184 1903684 1685380 1679328
620.97 1634422 1614944 1622452 1445448 1402236 1606974
623.86 1613014 1489658 1456310 1470686 1402110 1396828
626.76 1448392 1342006 1240002 1340650 1501948 1408680
629.65 1231004 1229530 1256802 1253256 1251794 1076826
632.54 811328 633854 610588 719762 956448 1158722
635.43 1185818 1199848 1153058 997612 804858 661274
638.33 749972 927562 1038912 1071348 1217604 2069602
641.22 4597578 6669002 5006574 2371622 1350002 1025900
644.11 1057794 1137366 1001484 798554 678368 855436
647.00 1049558 1189330 1398872 1466770 1394472 1474656
649.90 1858714 2472432 3122144 3305616 2967128 2567534
652.79 2141922 1756578 1595342 1688898 1816732 1833648
655.68 1952398 2340042 2839978 3112112 3062348 2850196
658.58 2672196 2516202 2181524 1805012 1539358 1308720
661.47 1340972 1520454 1475694 1278870 1147998 1072010
664.36 1009934 978018 976210 1066420 1306272 1753074
667.25 2110362 1847924 1355110 1165074 1119998 1078080
670.15 1037046 1030496 1115358 1141856 1039480 977062
673.04 1013540 1027292 944994 922460 1069990 1085538
675.93 821152 653212 647124 640498 727788 796688
678.82 744072 745930 725320 602970 573376 598556
681.72 554130 490062 530540 686056 749874 682270
684.61 577388 534426 422992 321752 419874 472900
687.50 387478 450220 647050 680606 647310 694474
690.40 614076 379632 289806 275048 67548 47594
693.29 371810 413274 199114 186352 348952 459346
696.18 373796 242144 156710 107738 126652 139278
699.07 144108 190276 200858 243322 366012 339946
701.97 136144 55352 238982 448890 344126 198716
704.86 332288 451460 341548 163552 113058 213902
707.75 265652 278508 331518 318364 306688 303084
710.64 338802 554580 747520 748274 719574 757046
713.54 881794 1033462 1056250 1030904 983148 964314
716.43 1044058 1187724 1394684 1590190 1730518 1775312
719.32 1664892 1640592 1867588 2116550 2322702 2565678
722.22 2761652 2894404 2990046 3052762 3162448 3413664
725.11 3750714 4129886 4465082 4769812 5117060 5492382
728.00 5908544 6331492 6701384 7086932 7536164 8051292
730.89 8635888 9113194 9513846 10110730 10794480 11402450
733.79 12002020 12545520 13168000 14000430 14828340 15530780
736.68 16143810 16864960 17753840 18681060 19504960 20197030
739.57 21022180 21965730 22896840 23864070 24782410 25715390
742.46 26770540 27837930 28897160 30060040 31279870 32504980
745.36 33751710 35019820 36323540 37702080 39296780 41276060
748.25 43580930 46079420 49047440 52551300 55269030 55873070
751.14 55003900 53747960 52456730 51124030 49675710 48205010
754.04 46906070 45945570 45246610 44510230 43729260 43123520
756.93 42797080 42685400 42886420 43711000 44956080 45957160
759.82 46191360 45665780 44833660 44152760 43650170 43167320
762.71 42741610 42417850 41958900 41307250 40644740 39988370
765.61 39245850 38349070 37339970 36273030 35014580 33628350
768.50 32372290 31103870 29609110 28051310 26556630 25086500
771.39 23656420 22293420 20963290 19622300 18275660 17001510
774.28 15898380 14865670 13885020 12987260 12077350 11285830
777.18 10580150 9823810 9160048 8644610 8180484 7676456
780.07 7221092 6881002 6509122 6245182 6132208 5876608
782.96 5555326 5345556 5073672 4718990 4467660 4285218
785.86 4141244 4115468 4139186 4074036 3945194 3791392
788.75 3617566 3440512 3293872 3187340 3146534 3128532
791.64 3147710 3144636 3073516 3085440 3053158 2887420
794.53 2793466 2796816 2828460 2951214 2937992 2639958
797.43 2410134 2414038 2463710 2524538 2525902 2371914
800.32 2094742 1919434 1954702 2018014 1918900 1830388
803.21 1882636 1889662 1834056 1723132 1629690 1662832
806.10 1742626 1808370 1846500 1734770 1505028 1371606
809.00 1355712 1375706 1377880 1402506 1427500 1351470
811.89 1252968 1240490 1246408 1183922 1035278 850416
814.78 803180 880926 914024 929748 970724 1000578
817.68 976394 812962 723088 860204 889956 822386
820.57 905866 991106 978504 878864 784860 795824
823.46 789522 736148 771030 849238 888138 806072
826.35 691646 708034 775812 754120 656036 569338
829.25 582514 723868 866280 952474 1034712 1010092
832.14 798396 629390 572036 636344 861358 1037754
835.03 1006500 870510 769512 686688 604728 682918
837.92 907790 1022840 955910 824130 741666 735926
840.82 738206 660446 626080 729790 866888 936876
843.71 919870 888236 890320 947424 976618 874342
846.60 797096 854230 972916 1009134 936176 932996
849.50 985248 972000 919138 897538 915076 908152
852.39 862944 846162 866732 874202 884780 959048
855.28 1061076 1136080 1137854 1115528 1098498 1036850
858.17 1022544 1032072 1025992 1085804 1197688 1280802
861.07 1267054 1218316 1178410 1181446 1288486 1417522
863.96 1471780 1464218 1484200 1515686 1471052 1455920
866.85 1529990 1591472 1598184 1622432 1702460 1788292
869.74 1821556 1821782 1868654 1953488 1981924 2034980
872.64 2126936 2157794 2258488 2433482 2501962 2535072
875.53 2683264 2819160 2863800 2870364 2830416 2821322
878.42 2862882 2903090 2954456 3061722 3241510 3313796
881.31 3285834 3375722 3527282 3648292 3711564 3739090
884.21 3810630 3915734 4012624 4143636 4297396 4399718
887.10 4475534 4541150 4572174 4663626 4828258 4973512
889.99 5140764 5423366 5689742 5846026 5901000 5944970
892.89 6182982 6532014 6786788 7036048 7292100 7506764
895.78 7755270 7973696 8157568 8375706 8599600 8951268
898.67 9441960 9847362 10201450 10594900 10993020 11394330
901.56 11783560 12228060 12704130 13175130 13712010 14319960
904.46 14942700 15541890 16176390 16880830 17639040 18442710
907.35 19207760 19987570 20867260 21753960 22639490 23655380
910.24 24697100 25671100 26755560 27949350 29101510 30214840
913.13 31355750 32496660 33663100 34921520 36246980 37581050
916.03 38871960 40116580 41397260 42806510 44339770 45890520
918.92 47400600 48963920 50528760 52092710 53828700 55799870
921.81 57730370 59319520 60799910 62496820 64316180 66125550
924.71 67961780 69815070 71732850 73801500 75968100 78139210
927.60 80223030 82215190 84260980 86416980 88620810 90795780
930.49 92875500 94875260 96911890 99077660 101125000 102785400
933.38 104393100 106241400 107698900 108411300 108897100 109389400
936.28 109764500 110076700 110348800 110738600 111622300 113313800
939.17 115950000 118051600 118048600 117596500 118025500 118101300
942.06 117174100 116337100 116200400 116061300 115140400 113834900
944.95 113166000 113091000 113183400 113372400 113632300 113915300
947.85 114015900 113713300 112954300 111804600 110488200 109180200
950.74 107807200 106230400 104557000 102770700 100770400 98664460
953.63 96420150 94076660 91867730 89760230 87516550 85161920
956.53 82909500 80787150 78635150 76387380 74158220 72077860
959.42 70138000 68237400 66377140 64611120 62904880 61212900
962.31 59574340 58023930 56534790 55118240 53728040 52354060
965.20 51126130 49977060 48870150 47849190 46835880 45919420
968.10 45108080 44261120 43443070 42782320 42207290 41634700
970.99 41061640 40524680 40099210 39782350 39501010 39206760
973.88 38937800 38709780 38489330 38279270 38062340 37878000
976.77 37767370 37685980 37626160 37582420 37547770 37470480
979.67 37265510 36983060 36781060 36687950 36510890 36213960
982.56 35933660 35657990 35333740 35007220 34675360 34335260
985.45 34041840 33806480 33641770 33589300 33585630 33538040
988.35 33405030 33105920 32786320 32541490 32141260 31640280
991.24 31253070 31059220 30953720 30727950 30368800 30043440
994.13 29792200 29502620 29223720 29063070 28961080 28818790
997.02 28604170 28313540 28029340 27781770 27542690 27327320
999.92 27158800 27000040 26788560 26450950 25940560 25311400
1002.81 24677240 24043950 23381420 22700090 21955760 21237190
1005.70 20618350 20023240 19426910 18748340 18019200 17387240
1008.59 16869720 16415650 15990930 15538760 15128030 14776070
1011.49 14378980 13997620 13706850 13439580 13166140 12877750
1014.38 12601270 12397300 12217400 12079010 11922870 11653980
1017.27 11415550 11306970 11211450 11014520 10735570 10528520
1020.17 10449860 10348250 10090650 9786060 9593284 9444040
1023.06 9258484 9111422 8960528 8720562 8480998 8303654
1025.95 8111628 7915780 7740164 7548130 7355860 7208904
1028.84 7166192 7110668 6985360 6888938 6819824 6765372
1031.74 6745046 6769134 6791364 6722630 6588976 6482960
1034.63 6405396 6365090 6375508 6402756 6385594 6355000
1037.52 6435300 6552402 6509254 6407060 6413880 6476750
1040.41 6555490 6571050 6569760 6688636 6828574 6913940
1043.31 6988846 7046818 7118152 7215928 7271742 7300306
1046.20 7399336 7582310 7766886 7958266 8194660 8356542
1049.09 8392680 8458744 8604370 8776764 8898300 8910096
1051.99 8953716 9118346 9338390 9602962 9838286 9998404
1054.88 10153870 10336550 10583650 10899120 11208680 11515900
1057.77 11879440 12220460 12476950 12746570 13119200 13534770
1060.66 13898980 14247870 14639060 15113750 15619970 16084790
1063.56 16554290 17072780 17667260 18297890 18804720 19215600
1066.45 19729100 20318750 20913210 21527100 22107430 22699400
1069.34 23353660 24013250 24663940 25318950 26045620 26799960
1072.23 27408180 28007060 28711890 29381020 30044320 30784930
1075.13 31496010 32077280 32632530 33259890 33905630 34481090
1078.02 34904850 35311520 35797380 36172200 36392000 36575250
1080.91 36816080 37015920 37076040 37029080 36887520 36628040
1083.81 36324100 36020230 35632780 35196050 34820640 34424080
1086.70 33949500 33517190 33187550 32904360 32645790 32512920
1089.59 32569520 32769490 33088280 33543540 34058620 34488930
1092.48 34726430 34749380 34621510 34443680 34114890 33579020
1095.38 33002480 32370630 31651140 30950790 30303130 29615180
1098.27 28850900 28148710 27618030 27107240 26484790 25891510
1101.16 25412340 24880660 24256840 23707050 23296820 22994440
1104.05 22700120 22401570 22155020 21921610 21687920 21524630
1106.95 21545160 21627870 21600160 21542340 21455240 21292010
1109.84 20982430 20638020 20510610 20461910 20367920 20292350
1112.73 20237310 20193460 20155950 20193010 20280140 20325170
1115.63 20322210 20345070 20449510 20556330 20633240 20776390
1118.52 21002350 21263930 21516650 21712420 21865910 22051160
1121.41 22296170 22549420 22824170 23133800 23423770 23717420
1124.30 24001780 24216760 24432710 24783060 25229750 25637090
1127.20 26010880 26430300 26948770 27498720 27996810 28535780
1130.09 29183240 29867580 30593980 31349800 32080750 32878510
1132.98 33864100 34987980 36118170 37277900 38568210 39963850
1135.87 41453710 43080420 44852620 46732150 48699340 50810760
1138.77 53170250 55765870 58581080 61641230 64971280 68663450
1141.66 72696380 77040570 81816700 87106940 92841830 99043610
1144.55 105721200 112812500 120392100 128585700 137419800 146704200
1147.45 156391800 166657300 177348800 188232100 199466500 211073000
1150.34 222892500 234972500 247264300 259565700 271829200 283985200
1153.23 295881500 307374200 318417300 328887200 338746000 348307100
1156.12 357559000 366316500 374719800 382996700 391496600 400428800
1159.02 409531900 418622600 427558800 435805000 443314400 450923200
1161.91 459539000 469787200 481760000 494846000 508099900 520519300
1164.80 532275900 544444600 555242000 559022200 555969500 554552300
1167.69 559060600 567051700 571166000 566190000 560095100 559977000
1170.59 563095300 567037200 571847600 577138200 581886000 585372500
1173.48 587613900 589133300 589632500 586607600 577173500 564034900
1176.37 553916500 551306400 554946300 552523800 536080700 515745200
1179.26 498295900 481084600 464534100 451029000 440989600 432996100
1182.16 425233200 417624400 410784100 404391400 398043400 391514200
1185.05 384160800 375842000 367173300 358367400 349185900 339725400
1187.94 330116000 320410300 310627600 300738900 290942700 281381600
1190.84 272035000 262763300 253524200 244582600 236114800 228097100
1193.73 220488800 213258900 206390600 199855100 193672800 187894100
1196.62 182425700 177299100 172582000 168166200 163982000 160053200
1199.51 156311900 152733000 149415100 146267200 143164600 140136700
1202.41 137154200 134227800 131408900 128732400 126110500 123419900
1205.30 120692000 118070100 115640000 113346000 111176200 109126300
1208.19 107068300 105036300 103148500 101264600 99189720 97012560
1211.08 94834210 92539030 90170150 87781690 85288650 82752820
1213.98 80229190 77691480 75061610 72313240 69544290 66818970
1216.87 64138560 61603560 59236900 56930610 54672500 52496340
1219.76 50413590 48452360 46576880 44789800 43168830 41738280
1222.66 40395520 39055140 37776480 36651500 35628580 34659450
1225.55 33749750 32931100 32207200 31502430 30804030 30163710
1228.44 29602640 29112330 28650790 28241010 27887590 27527240
1231.33 27162040 26804630 26466530 26195930 25971310 25746070
1234.23 25536080 25382960 25234300 25094070 25024960 25018070
1237.12 25015950 25022320 25098080 25252690 25459380 25674870
1240.01 25868790 25987590 26037390 26062660 26129540 26316480
1242.90 26555830 26798240 27065410 27318010 27564880 27842600
1245.80 28102040 28339890 28638160 28971460 29249910 29466900
1248.69 29673330 29872750 30045040 30220180 30381580 30525400
1251.58 30688570 30822010 30928520 31071870 31188380 31280090
1254.48 31381790 31444040 31465210 31502120 31557260 31633380
1257.37 31686450 31727510 31778970 31723490 31565730 31379420
1260.26 31176330 31036520 30943480 30842140 30729570 30625150
1263.15 30570820 30561300 30556650 30516760 30442220 30299470
1266.05 30039340 29781250 29630340 29561770 29429310 29176510
1268.94 28882570 28613600 28414760 28216690 27934160 27577900
1271.83 27185980 26805240 26419340 25989490 25594330 25308630
1274.72 25011420 24652290 24279210 23933080 23644260 23355490
1277.62 23070600 22794590 22470820 22177090 21899790 21594900
1280.51 21313540 21052980 20842990 20674000 20482640 20271090
1283.40 20062980 19869660 19698880 19568070 19451230 19357210
1286.30 19315360 19242520 19105690 19011710 19059670 19206840
1289.19 19355890 19466120 19538510 19678410 19911530 20159840
1292.08 20395780 20659410 20970890 21300110 21667240 22116160
1294.97 22581620 23031130 23499760 24002330 24501990 24968290
1297.87 25475450 26069820 26698970 27330550 27952250 28578830
1300.76 29205420 29865410 30569150 31302170 32043310 32770250
1303.65 33531910 34329790 35142660 35990940 36849160 37717240
1306.54 38605420 39498630 40372940 41249610 42156090 43045360
1309.44 43931680 44857430 45799970 46771050 47766280 48822200
1312.33 49934000 51017200 52041090 53124440 54276610 55352100
1315.22 56412130 57605560 58913830 60159280 61253880 62323760
1318.12 63520300 64819370 66141920 67485400 68901380 70356840
1321.01 71667550 72956070 74494930 76243080 77929200 79521360
1323.90 81179950 82909620 84663280 86443080 88260980 90112560
1326.79 92036100 94011510 95940020 97865800 99838640 101875200
1329.69 103989500 106146200 108289300 110514600 112847100 115258300
1332.58 117747400 120249100 122817800 125567800 128323200 131013000
1335.47 133773600 136604900 139385900 142151600 145111900 148336100
1338.36 151679300 154967700 158160800 161641200 165798400 170615800
1341.26 175378200 179458600 183210300 187211300 191636900 196400100
1344.15 201513300 207282100 214036000 221811700 230264100 239226000
1347.04 248752400 258718700 268997200 279554900 290318000 301370100
1349.94 312806500 324438800 336161700 348078500 360061800 371868000
1352.83 383366100 394407600 405107300 415541100 425338800 434311800
1355.72 442512300 449923400 456617500 462597300 467713800 471999600
1358.61 475500400 477920200 478557700 477776100 476632500 475429000
1361.51 474665200 474918200 476236800 478935600 484745500 495757700
1364.40 511419300 528726300 542841100 547812600 546190500 543997400
1367.29 533383200 513406900 495292200 482318000 475481800 475056400
1370.18 478568400 484216600 490765000 496872600 501660000 505266300
1373.08 507602900 507624600 505215500 500651900 493511300 483777300
1375.97 471971200 458436400 443337500 426905100 409321300 390832300
1378.86 371862900 352613700 333224700 314140700 295680500 277891000
1381.76 260766900 244485200 229384100 215610100 203017100 191433600
1384.65 181123100 172367100 164817100 158191600 153133500 149230200
1387.54 145268100 142069000 140337100 139484200 139002700 138618300
1390.43 138240700 137862800 137348700 136657200 135904900 135213200
1393.33 134957400 134925600 133834900 132158400 130891200 129392500
1396.22 127739900 126497100 125478600 124323800 123535500 123103000
1399.11 121894900 120363500 119440500 118916500 118565700 118329100
1402.00 118307100 118545800 118974900 119692500 120889600 122260300
1404.90 123248200 124187700 125451000 126896000 128556800 130454100
1407.79 132489200 134677300 137103400 139689600 142239600 144709500
1410.68 147173800 149603100 151953300 154252500 156515900 158682700
1413.58 160700900 162607000 164410800 166107500 167681100 169136900
1416.47 170665200 171951200 172591400 173279300 174847600 175807100
1419.36 173713900 170410600 168260200 166718700 165264700 163857300
1422.25 162749700 162340500 162616000 163222300 164299400 166264900
1425.15 169070800 172345200 175740400 179136900 182556600 185893600
1428.04 188938400 191674700 194279000 196233100 197023600 197215100
1430.93 197111800 196711600 196060500 194981300 193327800 191211600
1433.82 188992300 186841800 184838000 183424200 183450600 183356300
1436.72 180670400 177506800 175999100 175370200 175095700 175058600
1439.61 175136300 175159500 175064500 174945900 174687100 174187200
1442.50 173592800 173061500 172595600 172158100 171783300 171396800
1445.40 171129200 171337600 171978600 172764000 173401000 172881700
1448.29 171233800 169888100 169431200 169630300 170329800 171584700
1451.18 173494600 175918400 178993200 183275000 188980600 196165600
1454.07 204968500 215211100 225990000 236323300 243653600 242799000
1456.97 234958600 227357600 220693600 213290500 206235400 199878200
1459.86 193941400 187885000 181398800 174840700 168653600 162822700
1462.75 157188300 152196900 149048800 148427600 149487500 152318200
1465.64 156633200 160013600 161244000 160630800 158742300 156569000
1468.54 154931900 153824200 153087000 152773700 152973500 154064800
1471.43 155234600 154487900 153521800 153735400 152305000 149500000
1474.32 147299400 145477000 143885000 141797600 138337800 134448000
1477.21 130948300 127507700 123860000 120086300 116310100 112496300
1480.11 108732800 105102100 101347800 97491910 93862910 90432500
1483.00 87080480 83872740 80811990 77861860 75072490 72493300
1485.89 70205130 68460130 66713730 64167760 61673010 59982900
1488.79 58852420 57764690 56410960 54952000 52957210 50814050
1491.68 49326570 48190680 47135640 46161570 45260700 44395760
1494.57 43749640 44330050 46005000 45262020 42236640 40445340
1497.46 40147050 40700970 40716890 39334200 38054550 37464730
1500.36 37122430 36918120 36691780 36328410 35993060 35759260
1503.25 35600110 35570750 36362890 39051380 40785140 39690900
1506.14 40327360 41297710 38875450 36787970 36488390 36157870
1509.03 35970550 35756020 35214130 34823500 34912760 35603580
1511.93 35833750 34991720 34304530 34235620 34502180 34845440
1514.82 34810190 34767320 35292790 36077310 36643600 36236190
1517.71 35094050 34506410 34631440 35398460 36330190 37626760
1520.61 39582060 38778270 36322340 35804740 35156830 33823540
1523.50 33199390 33302180 34196200 34973880 34023420 32676160
1526.39 32496820 32612390 32312310 32133820 31839350 31219480
1529.28 30807470 30646270 30577970 30630400 30565940 30336670
1532.18 30579420 31380410 31914250 31210280 29640710 28695240
1535.07 28305270 27955370 27656890 27441420 27396030 27994920
1537.96 30551100 33592370 32851860 31359910 30870870 28524800
1540.85 27491180 29227320 29267340 26898270 25473460 24957800
1543.75 24704360 25447200 25954960 24791170 23441580 22848900
1546.64 22508620 22224310 21988690 21793910 21834860 22165870
1549.53 22276590 21715630 20932730 20500620 20261260 20065640
1552.43 19957700 20300510 21921020 23126400 21612220 19676720
1555.32 19078970 19033890 19755600 21586760 23500720 25546850
1558.21 25454850 22961040 23507070 25167660 22630870 18823270
1561.10 17356960 17018700 16881100 16752850 16572230 16535330
1564.00 16872140 17012440 16511860 15961420 15720500 15584580
1566.89 15448320 15329970 15470340 16021150 17154390 17718770
1569.78 16380920 14814400 14294480 14145360 14031330 13907620
1572.67 13816250 13695500 13597910 13646120 14240540 17003420
1575.57 20448610 19033480 15028920 13337020 12996860 12760040
1578.46 12595460 12512150 12455480 12380070 12270400 12143710
1581.35 12049890 11963210 11881110 11824810 11744420 11603040
1584.25 11489830 11417750 11327830 11202600 11082140 10988210
1587.14 10866180 10750620 10706340 10653190 10567780 10434730
1590.03 10279070 10179470 10089460 9950752 9838284 9739368
1592.92 9630098 9593610 9601070 9507044 9370262 9242958
1595.82 9134934 9034884 8899862 8784924 8722818 8670502
1598.71 8610534 8521998 8442192 8405372 8395922 8305046
1601.60 8182292 8164676 8228872 8213534 8103284 8002546
1604.49 7935340 7865834 7815642 7815832 7861522 7807234
1607.39 7657950 7582836 7650680 7729052 7620860 7425570
1610.28 7327040 7291684 7262842 7181034 7129616 7143272
1613.17 7153634 7103832 7067306 7150642 7665834 10056040
1616.07 13422360 12615440 8960974 7272342 7036674 7010156
1618.96 7035176 7065164 7089556 7098528 7131604 7284652
1621.85 7534954 8171976 9290102 9302348 8036478 7328158
1624.74 7280392 7317530 7311034 7347610 7771176 8467458
1627.64 8431634 7773564 7395748 7336300 7363202 7385758
1630.53 7371880 7370804 7389134 7420068 7446042 7502030
1633.42 7762628 8718626 10860250 13316160 13001420 10030360
1636.31 8466106 8716264 8726528 8212154 7941436 7955792
1639.21 8073834 8199686 8223944 8218302 8285116 8364918
1642.10 8436102 8466658 8519300 8663654 8862710 9476638
1644.99 11720150 13601010 12149530 10510000 10648360 10708190
1647.89 10280490 9509634 8961176 8851652 8857210 8899470
1650.78 9367150 11999020 16514140 19253090 19282260 16276790
1653.67 13219800 12189940 10899610 9967932 9889464 9984760
1656.56 10068780 10194950 10320920 10436370 10542790 10684790
1659.46 10870530 11117320 11427160 11794620 12344840 13632600
1662.35 14575460 13807010 12801420 12555880 12627230 12808420
1665.24 12968160 13139360 13350400 13604260 13999830 14637770
1668.13 15881450 17767800 18112230 16733300 16160420 16901900
1671.03 17669340 17579160 17385940 17574590 17935660 18501760
1673.92 19845950 22433910 23892330 22654880 21399470 21454330
1676.81 21989630 22649060 23345830 24065340 24943810 25973970
1679.71 26951180 27668050 28207100 28934920 30018120 31815150
1682.60 34022230 35586700 38052670 42748000 44181000 40663460
1685.49 38629020 39204760 40326770 41612130 43070080 44442420
1688.38 45591330 46900480 48555570 50039500 51262070 52611820
1691.28 54160230 55744960 57408030 59211730 61074980 62985600
1694.17 65447100 70036310 76521730 79023500 77035620 76938790
1697.06 79252020 81886060 84857590 88973610 95311170 102147900
1699.95 106510500 108507800 110113500 113355300 118121600 123349500
1702.85 128768800 134801900 141310000 147189600 152843400 159614100
1705.74 167060700 173949800 180675800 188108600 196231800 204880200
1708.63 214003900 223660800 233748700 244166200 255027500 266491600
1711.53 278558600 291198000 304396000 318350000 333047100 348393800
1714.42 364712500 381109400 397390800 415237100 436007200 457782100
1717.31 476730500 495601100 516642100 538015900 560303800 583977600
1720.20 608453800 633567500 659248300 685356500 712046100 739475100
1723.10 767136100 794660200 822299400 850079300 877890800 905763100
1725.99 933487200 960760600 987564000 1013795000 1039054000 1063040000
1728.88 1085987000 1107561000 1126609000 1142785000 1156294000 1166702000
1731.77 1173713000 1178529000 1180635000 1176979000 1168697000 1155780000
1734.67 1136246000 1113279000 1089595000 1065883000 1043298000 1023219000
1737.56 1007502000 998417200 997787700 1006175000 1022264000 1044991000
1740.45 1074268000 1107906000 1142464000 1175247000 1203973000 1226710000
1743.34 1242733000 1252529000 1256662000 1255619000 1249588000 1238580000
1746.24 1223487000 1205172000 1183923000 1160350000 1134594000 1106479000
1749.13 1076578000 1045941000 1015615000 985318200 953176300 919542500
1752.02 886394400 853806700 821525600 789700100 758473300 727848000
1754.92 697758100 668681600 641000800 613892900 586734600 560466200
1757.81 535564600 511614800 488451400 466015500 444289900 423497400
1760.70 404078400 385650000 366618400 347429300 329544800 312796100
1763.59 296786600 281525600 267024600 253171500 239931900 227372600
1766.49 215519800 204722900 194915000 184580900 173815600 164144600
1769.38 155525600 147689400 140843700 134278200 127715400 122887100
1772.27 118130500 110926500 103909900 98544380 93838300 89594500
1775.16 85598560 81501870 77570910 74026200 70724800 67613970
1778.06 64662540 61861820 59244050 56953380 54916990 52566010
1780.95 49987880 47735180 45738700 43833850 42034460 40379440
1783.84 39035200 37884140 36171790 34140450 32469710 31056140
1786.74 29754420 28509620 27304880 26209570 25274020 24545070
1789.63 24050710 23604830 22648230 21373030 21395700 22510880
1792.52 22162070 20800050 20246410 20145250 19971850 19720950
1795.41 19373490 18793170 18085340 17459010 16975050 16590060
1798.31 16424430 16597420 16441640 15696460 15209250 15069210
1801.20 14771680 14458320 14129770 13626020 13197310 12865250
1804.09 12587240 12338390 12050440 11734080 11387740 11018320
1806.98 10709000 10339500 9878768 9460490 9106112 8901996
1809.88 8869668 8549070 7893356 7424760 7169538 6880658
1812.77 6549506 6231964 5989362 5825470 5643292 5424336
1815.66 5205310 5041318 4961766 4787720 4524558 4351716
1818.56 4228874 4080824 3950836 3882068 3849162 3814710
1821.45 3761786 3705012 3604464 3457568 3419084 3642228
1824.34 4255792 4521136 3886578 3290426 3148920 3108620
1827.23 3064504 3104492 3367690 3745698 4265666 4583312
1830.13 3989852 3259860 3037480 3015502 3043932 3101420
1833.02 3111094 3030042 2960784 2964384 3025616 3043300
1835.91 3055150 3166014 3188240 3077664 3046462 3096634
1838.80 3140556 3153704 3141458 3130684 3187572 3310466
1841.70 3372192 3363148 3619896 4870176 6332218 5730992
1844.59 4138070 3517310 3449752 3477360 3579526 3766334
1847.48 3825380 3689208 3597476 3604774 3664154 3745420
1850.38 3811522 3884604 3953336 3948526 3906480 3925070
1853.27 4001910 4073174 4102510 4121642 4172826 4258112
1856.16 4331638 4381412 4433936 4505212 4604608 4677968
1859.05 4707576 4735850 4763800 4790166 4813602 4836480
1861.95 4874870 4941076 5024656 5087896 5148206 5222136
1864.84 5295406 5417996 5565764 5611718 5727422 6020464
1867.73 6156166 6454256 7055656 6856528 6097274 5781566
1870.62 5767744 5799636 5841950 5880704 5926384 5977196
1873.52 6043664 6119270 6169622 6198334 6222740 6273222
1876.41 6350948 6402250 6404914 6396442 6394010 6370514
1879.30 6328234 6306792 6315152 6344146 6339710 6271564
1882.20 6231352 6265672 6336116 6409230 6422198 6348266
1885.09 6306134 6364788 6397190 6357150 6354550 6376768
1887.98 6387632 6628682 6999880 6854002 6384730 6157796
1890.87 6105528 6069992 6054750 6051140 5987370 5877252
1893.77 5795606 5833084 5858922 5695244 5477054 5314908
1896.66 5215952 5167664 5119324 5069838 5014816 4965688
1899.55 4901106 4824964 4760672 4716154 4678998 4592272
1902.44 4468472 4388910 4360026 4346146 4315348 4235140
1905.34 4104386 3993472 3949302 3961820 3983698 3923468
1908.23 3828654 3846946 3943206 3915086 3763538 3659736
1911.12 3610596 3574452 3515034 3446270 3389940 3365486
1914.02 3374804 3353536 3300362 3260800 3212524 3246076
1916.91 3700246 4321176 4104406 3408164 3116480 3071212
1919.80 3052698 3047188 3072594 3145132 3230112 3324172
1922.69 3344124 3174772 3017086 2961552 2938630 2923622
1925.59 2883890 2870762 2888400 2863012 2847708 2872348
1928.48 2885512 2862800 2783476 2694982 2661322 2669978
1931.37 2692898 2683550 2647782 2634168 2631150 2612270
1934.26 2558970 2499028 2460522 2441510 2464822 2484338
1937.16 2479056 2488928 2511940 2511642 2484680 2457430
1940.05 2444558 2481800 2572924 2817486 3073444 2910196
1942.94 2598886 2506462 2492202 2485976 2465926 2433236
1945.84 2394050 2310028 2264464 2266466 2238142 2215566
1948.73 2216274 2179600 2104218 2038210 1975854 1957098
1951.62 1991308 1987056 1942456 1939442 1970560 2017844
1954.51 2028502 1946368 1833382 1745130 1681772 1649462
1957.41 1642392 1626656 1600346 1613780 1629994 1616934
1960.30 1633272 1610270 1551486 1545806 1516042 1456596
1963.19 1402830 1353338 1306860 1285052 1321796 1356522
1966.08 1334158 1378390 1413666 1281272 1155142 1115932
1968.98 1091090 1042050 974714 932104 917520 882880
1971.87 844530 851604 873384 811500 724236 828408
1974.76 1006130 1039012 980058 935900 960506 999534
1977.66 1029844 1064914 1078408 1089234 1120144 1147446
1980.55 1179592 1202734 1222614 1282494 1330076 1303142
1983.44 1277196 1311886 1340578 1317716 1294604 1288922
1986.33 1273460 1275460 1313536 1351884 1345188 1297242
1989.23 1259662 1265494 1331884 1482596 1678580 1703214
1992.12 1543988 1440366 1413514 1382092 1341932 1345230
1995.01 1417538 1469358 1478410 1495334 1508812 1515624
1997.90 1497036 1486124 1509398 1505422 1450078 1403288
2000.80 1391068 1372932 1329574 1279982 1250742 1236882
2003.69 1195684 1139334 1108226 1067974 997698 955074
2006.58 950162 943310 913514 851918 783510 765132
2009.48 772262 742326 700402 681992 665716 657792
2012.37 655186 630142 596988 556164 529310 549082
2015.26 567222 623460 714044 658224 526122 493236
2018.15 515316 493076 406774 341892 355752 380814
2021.05 380316 392120 371538 307108 253864 244898
2023.94 269820 277402 273958 282718 261884 217554
2026.83 220194 248086 232378 217040 238156 255884
2029.72 245984 224084 191478 159452 183850 256554
2032.62 293110 293284 305878 311882 307246 298418
2035.51 266436 250368 279472 310138 315628 314344
2038.40 317378 317006 334812 380072 430034 447852
2041.29 400104 349076 330488 330486 346488 367220
2044.19 373276 372180 370226 361776 359180 360530
2047.08 383942 415146 421112 441294 465490 441256
2049.97 412338 433222 487432 511942 525648 554596
2052.87 550306 528456 518686 517142 532436 567628
2055.76 623410 660978 647116 660254 710520 726298
2058.65 709380 706226 737736 784476 824184 862404
2061.54 874834 850702 835680 886822 996012 1109962
2064.44 1179378 1153170 1078540 1056686 1095336 1120694
2067.33 1134274 1171422 1231422 1285800 1293792 1262830
2070.22 1264768 1313626 1382526 1474710 1562026 1627096
2073.11 1670316 1693908 1710766 1740218 1798176 1863720
2076.01 1905196 1924324 1954432 2033684 2135600 2210138
2078.90 2245162 2281016 2348838 2401292 2445402 2532694
2081.79 2619440 2684092 2761820 2857060 2950906 3040208
2084.69 3098272 3159216 3243240 3302448 3382892 3499720
2087.58 3609224 3695338 3778116 3880552 3991602 4062980
2090.47 4103332 4183956 4281696 4351894 4408258 4494496
2093.36 4619994 4713134 4761642 4816238 4898852 5013506
2096.26 5133602 5212280 5249334 5321546 5468592 5590894
2099.15 5647974 5701400 5766390 5815114 5868802 5943778
2102.04 6022642 6101464 6176096 6253026 6330042 6412634
2104.93 6501322 6548840 6583932 6653214 6716620 6766980
2107.83 6833814 6894746 6961420 7075540 7164084 7190980
2110.72 7209370 7253328 7320170 7423292 7510430 7529196
2113.61 7558526 7610758 7616642 7594048 7584730 7581382
2116.51 7594536 7615792 7565540 7474418 7387938 7273464
2119.40 7142052 7022990 6958706 6944040 6903496 6801902
2122.29 6719264 6732576 6724168 6634914 6557606 6547332
2125.18 6575270 6585070 6540586 6420328 6275706 6159014
2128.08 6049488 5932740 5819590 5718628 5623960 5528630
2130.97 5440456 5386664 5332842 5195190 5016980 4874356
2133.86 4748498 4636404 4533022 4411768 4256012 4094132
2136.75 3954212 3789712 3623056 3503126 3380682 3235798
2139.65 3103922 2983376 2851514 2724562 2617178 2539900
2142.54 2475038 2387282 2288738 2218858 2165714 2098452
2145.43 2040884 1990790 1918754 1851258 1829618 1817232
2148.33 1802814 1792472 1761240 1693564 1611510 1580236
2151.22 1582396 1566152 1547504 1505124 1461938 1461854
2154.11 1451952 1454642 1480250 1511856 1566588 1584162
2157.00 1524400 1474058 1480832 1496002 1505694 1491406
2159.90 1444598 1429114 1459512 1482756 1471066 1455144
2162.79 1437548 1405174 1421676 1497492 1546766 1540718
2165.68 1542144 1580636 1606100 1622488 1605790 1568832
2168.57 1569758 1584250 1603216 1624606 1637484 1622132
2171.47 1592020 1570560 1537826 1512884 1495316 1468662
2174.36 1419952 1380390 1353392 1316086 1280648 1245122
2177.25 1234014 1233580 1207522 1161582 1093580 1058200
2180.15 1049060 983786 932198 950798 959294 930436
2183.04 887534 849762 817822 791300 749434 693562
2185.93 641816 617544 609584 573072 545328 552990
2188.82 544008 514386 474130 435112 420236 387098
2191.72 326422 275250 262686 278698 242938 172456
2194.61 147930 143700 142546 137806 106598 94030
2197.50 91328 82376 72330 59600 54370 73752
2200.39 73836 8226-52588-64180-73036-73164
2203.29-52410-58150-78744-83518-80940-81384
2206.18-78080-55072-41416-59488-86710-93528
2209.07-70498-38260-21650-45870-74742-45942
2211.97-2274 10750 24024 43622 37470 21002
2214.86-262-36752-53398-43610-58710-97274
2217.75-137178-158022-121400-59718-65590-125472
2220.64-151232-136736-125712-126508-134942-143284
2223.54-122990-98212-119096-146804-150420-140862
2226.43-126554-143992-173750-195146-220654-230792
2229.32-221592-216786-215614-213104-232294-241746
2232.21-227758-223008-224064-238754-255390-279936
2235.11-301558-297454-294002-294782-301140-294310
2238.00-287514-300988-338832-371422-345562-302946
2240.89-278854-262174-273676-312852-334906-310844
2243.79-278056-278308-278984-277734-320206-338788
2246.68-306012-286834-279220-246144-211416-203528
2249.57-201092-215250-240764-229340-189184-149972
2252.46-117722-107850-132524-157438-140390-102400
2255.36-72992-44680 3800 39782 19698 10414
2258.25 37102 72914 85100 77056 121030 213628
2261.14 265814 271970 277842 286982 326580 398318
2264.03 449370 446156 449728 486390 534402 613712
2266.93 681864 706032 739074 781856 829226 877248
2269.82 896004 944462 1033656 1089428 1118580 1184606
2272.71 1245154 1240136 1239252 1302416 1408112 1494448
2275.61 1546454 1612340 1669706 1695358 1735298 1802442
2278.50 1859410 1908768 1945536 1976494 2080568 2169764
2281.39 2173772 2216872 2330926 2417398 2448370 2479312
2284.28 2533634 2575956 2604368 2641704 2663694 2671742
2287.18 2707916 2759648 2799626 2854126 2905260 2903120
2290.07 2862238 2861620 2917816 2990794 3044222 3054032
2292.96 3051336 3070132 3084072 3104306 3149968 3197736
2295.85 3216816 3190542 3135948 3120604 3128032 3084720
2298.75 3041314 3036284 3030352 3062348 3084602 3028060
2301.64 2993372 2987184 2928216 2848120 2789746 2770982
2304.53 2768572 2767106 2796550 2839590 2832502 2763042
2307.43 2707234 2728106 2757078 2699930 2611078 2598840
2310.32 2657958 2663360 2592392 2571898 2637656 2646996
2313.21 2512556 2433244 2495552 2538398 2436338 2352444
2316.10 2422940 2501784 2365446 2177648 2231288 2392140
2319.00 2302554 2066994 2089204 2340082 2348940 2123012
2321.89 2127672 2347124 2281626 1974924 2006788 2347628
2324.78 2319178 1963000 2019846 2401338 2320560 1994654
2327.67 2190970 2508362 2224888 1867704 2166822 2494122
2330.57 2154696 1918944 2319702 2464868 2032276 2000716
2333.46 2494946 2464856 1999878 2128874 2517684 2273244
2336.35 2001726 2353482 2484534 2078304 2120144 2527756
2339.24 2320974 1963680 2247426 2445210 2107082 2061206
2342.14 2331884 2167688 1935696 2129130 2177256 1919676
2345.03 1895698 2022060 1937476 1829946 1863016 1862076
2347.92 1791464 1737850 1747870 1805110 1816814 1897786
2350.82 2062090 2056788 2064178 2282766 2290464 2223936
2353.71 2515736 2599462 2477740 2717838 2725416 2557858
2356.60 2848840 2864944 2695276 2996582 2986696 2864400
2359.49 3154416 3059352 3022504 3288742 3056788 3060980
2362.39 3312816 3145436 3230208 3216380 3001718 3147094
2365.28 3038248 2956426 3050316 2938242 3047048 3042524
2368.17 2930720 2951366 2837648 2823148 2721504 2620764
2371.06 2654012 2604568 2601894 2562254 2521856 2455136
2373.96 2399208 2375820 2312992 2297116 2251746 2199146
2376.85 2179722 2152196 2110354 2080430 2052716 2037656
2379.74 2015512 1984538 1983186 1954514 1893234 1876394
2382.64 1876338 1831412 1769938 1749644 1759158 1735484
2385.53 1690418 1692180 1679128 1613888 1553538 1492586
2388.42 1420942 1353986 1317452 1297182 1265648 1250016
2391.31 1276594 1317812 1310722 1251026 1200224 1146682
2394.21 1080328 1059270 1080166 1079128 1048592 1038134
2397.10 1049938 1081236 1104874 1085454 1042450 1003514
2399.99 976784 942144 920262 925272 954320 1002594
2402.88 1020626 1017656 1020210 986688 943350 924072
2405.78 877654 847528 902224 946152 916950 864350
2408.67 827234 818782 817700 812778 788778 736298
2411.56 714434 755558 786646 754276 720940 710082
2414.46 705220 693038 667166 671554 690200 643142
2417.35 578578 599634 674560 664750 559338 499740
2420.24 542514 618504 682070 687948 612496 567428
2423.13 620320 678400 648596 587562 573566 578616
2426.03 571864 540612 500214 499672 513650 477990
2428.92 433456 452296 493464 497598 485270 480254
2431.81 469496 449076 433522 455676 464166 430740
2434.70 414390 422658 416382 386352 366110 364708
2437.60 380144 415558 466046 480444 446784 411206
2440.49 437378 479666 454212 431264 475774 500448
2443.38 445376 405236 429700 472130 493368 491132
2446.28 472142 427104 383596 389576 430544 456560
2449.17 447464 429548 448234 463492 484608 544736
2452.06 601366 656982 702286 722342 745096 754100
2454.95 728900 704342 731610 754540 765074 806162
2457.85 833170 876138 926782 936388 966346 999378
2460.74 974104 935746 905088 910378 971528 1022012
2463.63 1052648 1073050 1086858 1074040 1048678 1068332
2466.52 1091850 1060778 1022080 1019772 1011554 990340
2469.42 1003456 1034706 1039680 1055404 1105590 1127940
2472.31 1111380 1098012 1128928 1201588 1253870 1290490
2475.20 1336900 1331882 1288672 1253434 1248308 1295498
2478.10 1312946 1275604 1263636 1262960 1238732 1209952
2480.99 1174066 1120768 1040864 970232 959220 984112
2483.88 986766 960174 927188 929982 926456 898770
2486.77 892950 877656 877530 875788 868090 907160
2489.67 957472 971770 954266 959812 987654 981408
2492.56 958718 1009800 1094650 1116442 1142664 1199950
2495.45 1229720 1255936 1345698 1418552 1410264 1432824
2498.34 1519870 1557468 1553792 1581932 1617814 1645834
2501.24 1711474 1777346 1779604 1772782 1852126 1954854
2504.13 1994476 2024630 2040966 2012662 2042568 2133282
2507.02 2177688 2195732 2221698 2267986 2297530 2262928
2509.92 2282168 2376992 2418128 2398738 2412368 2474716
2512.81 2515006 2505032 2484960 2533048 2615832 2622790
2515.70 2611062 2689772 2784700 2781442 2732130 2725170
2518.59 2739904 2730932 2700958 2664892 2628508 2576834
2521.49 2534362 2548908 2585578 2557400 2448296 2377994
2524.38 2385170 2375546 2314188 2241984 2188150 2155908
2527.27 2175548 2202732 2153216 2078094 2048816 2017136
2530.16 1976290 1937894 1888722 1850410 1818120 1763570
2533.06 1708744 1697994 1711420 1684112 1597534 1510118
2535.95 1468128 1457194 1441612 1388804 1323778 1334672
2538.84 1364704 1310480 1221506 1182192 1155446 1101298
2541.74 1093466 1100940 1054908 1003608 978944 958720
2544.63 936324 885580 792740 739140 740206 756676
2547.52 803568 852040 831918 756608 697030 710876
2550.41 750258 725728 699652 725730 732004 697416
2553.31 682396 688940 685706 700388 737754 755206
2556.20 758498 756360 749068 718134 653750 624784
2559.09 642330 643264 637694 646526 640674 627934
2561.98 617046 577156 561832 586552 590384 577172
2564.88 548092 534552 528758 481866 456852 488334
2567.77 503872 516324 546550 542424 508764 483332
2570.66 457582 436668 446062 476418 457640 405494
2573.56 406916 413010 374546 327488 314900 332474
2576.45 312208 279076 245274 210776 209602 214398
2579.34 210620 202384 169666 161846 200150 195710
2582.23 151918 155010 160384 148638 145732 132926
2585.13 142080 154274 131664 98888 62260 40440
2588.02 53880 107022 168340 172446 152732 185006
2590.91 227648 206280 141622 129480 187974 215970
2593.80 167676 136162 162914 167578 143016 139702
2596.70 177186 228146 240356 222676 235618 251830
2599.59 254366 281738 326042 343160 297446 249564
2602.48 256486 255640 222338 224916 256586 280084
2605.37 294142 289964 283768 290266 312588 338104
2608.27 346148 332302 346080 413538 421286 373626
2611.16 365862 370400 359508 354504 359760 378860
2614.05 424892 417358 331464 316684 368714 410336
2616.95 425226 404500 380866 375852 402064 447894
2619.84 450260 415138 379558 328562 338642 406328
2622.73 406202 373032 357304 340844 320890 329824
2625.62 363216 342096 294764 283852 286016 283484
2628.52 260340 238874 237828 236608 238576 226596
2631.41 227628 243470 256936 242464 209222 205414
2634.30 202400 205018 243770 281262 242184 153366
2637.19 132532 175758 207178 245534 279956 245240
2640.09 198688 186440 184126 213286 214382 180036
2642.98 210986 280662 309448 295122 277738 274444
2645.87 284542 304802 331716 372806 421136 440480
2648.77 439164 452598 472696 489872 516162 553086
2651.66 565428 547208 577838 645054 710368 785650
2654.55 824048 827660 845546 874304 875062 900512
2657.44 975106 1012666 1030472 1087154 1131496 1164318
2660.34 1205090 1258798 1319600 1364730 1402806 1416940
2663.23 1430890 1472290 1520888 1586846 1636438 1649014
2666.12 1662322 1680182 1713684 1784192 1828544 1841068
2669.01 1915102 1978098 1940844 1925468 1942756 1946848
2671.91 1968374 2004974 2056048 2094842 2084754 2076078
2674.80 2087566 2049492 2011918 2098776 2186952 2167648
2677.69 2134870 2094124 2061302 2094742 2119048 2105422
2680.59 2082692 2072918 2077602 2106366 2123516 2115002
2683.48 2135972 2152482 2137022 2130108 2113234 2085860
2686.37 2079722 2088410 2095154 2071504 2041640 2039040
2689.26 2009834 1979302 1986416 1967290 1959142 1972696
2692.16 1978050 1984130 1929842 1844808 1808300 1778820
2695.05 1728462 1692950 1738858 1794280 1781974 1773658
2697.94 1800218 1791070 1750366 1721708 1700470 1741024
2700.83 1827388 1847368 1805630 1766598 1751794 1785772
2703.73 1794896 1748542 1737298 1764648 1779652 1784300
2706.62 1768954 1782664 1858456 1864348 1812096 1839628
2709.51 1879660 1888672 1937528 1974820 1933212 1851110
2712.41 1806828 1825480 1891840 1970930 2032608 2066388
2715.30 2093396 2137900 2163288 2164646 2179682 2197476
2718.19 2221276 2220626 2193340 2212342 2269210 2296682
2721.08 2284068 2274992 2298742 2335986 2361678 2395880
2723.98 2426390 2427820 2438566 2496576 2568358 2595960
2726.87 2633446 2696420 2726708 2765614 2839642 2912786
2729.76 2971394 3007982 3033042 3083580 3170912 3287280
2732.65 3400508 3508670 3607224 3655220 3685014 3757632
2735.55 3880098 3999402 4078522 4112698 4157220 4279582
2738.44 4401518 4429252 4458322 4560324 4683534 4786038
2741.33 4872062 4959114 5032222 5138530 5292146 5382490
2744.23 5405530 5440698 5503152 5560492 5590792 5635894
2747.12 5664374 5632206 5623336 5679134 5752330 5832206
2750.01 5935112 6043994 6129268 6136824 6056338 5988292
2752.90 5990964 6047962 6088992 6112732 6138642 6157162
2755.80 6187942 6198872 6161352 6126732 6150646 6199812
2758.69 6197776 6206068 6256226 6222878 6148694 6090264
2761.58 5993774 5914260 5851906 5740628 5643762 5563626
2764.47 5468634 5361354 5269596 5226084 5185740 5125804
2767.37 5041294 4947680 4882294 4791290 4704742 4721812
2770.26 4786684 4762380 4720340 4761562 4787522 4762628
2773.15 4756792 4817570 4890010 4899788 4942600 5018310
2776.05 5041728 5083236 5173200 5251690 5338412 5451322
2778.94 5559980 5656112 5759830 5848788 5944008 6069696
2781.83 6141312 6198476 6319996 6487686 6652034 6756356
2784.72 6874852 7059286 7272540 7443254 7583854 7769540
2787.62 8000148 8227654 8443336 8678104 8879142 9072664
2790.51 9312572 9620608 9966688 10240180 10518320 10854460
2793.40 11143800 11363600 11593070 11871540 12123440 12325770
2796.29 12529730 12730730 12909210 13061500 13262990 13554440
2799.19 13873390 14159750 14353580 14540780 14816050 15120460
2802.08 15367580 15582200 15827280 16118500 16452810 16763370
2804.97 17066020 17455490 17886050 18252300 18586040 18983280
2807.87 19435530 19845050 20212060 20592720 20939500 21280100
2810.76 21664090 22067370 22493890 22935270 23360090 23729450
2813.65 24063810 24441180 24819260 25101940 25306250 25532890
2816.54 25758160 25977430 26158480 26259180 26378360 26502930
2819.44 26570150 26650200 26797950 27004480 27219690 27395350
2822.33 27556920 27707100 27862400 28063140 28264980 28523580
2825.22 28856400 29140630 29336280 29453940 29562150 29801620
2828.11 30161310 30427820 30578680 30788300 31041510 31249770
2831.01 31464790 31738830 32037530 32290280 32536540 32807290
2833.90 33072800 33343180 33594600 33799720 33964750 34019870
2836.79 33991950 33984810 33961490 33866060 33700380 33535230
2839.69 33423760 33302040 33156700 33049150 32921270 32760700
2842.58 32651790 32610060 32605200 32555050 32498680 32564510
2845.47 32698580 32701340 32624170 32643690 32677250 32648450
2848.36 32595420 32512530 32481670 32532780 32546210 32495850
2851.26 32462430 32457780 32481040 32530790 32601660 32691010
2854.15 32734880 32771590 32861470 32983190 33090410 33139350
2857.04 33182520 33252870 33317650 33433720 33560560 33654520
2859.93 33719400 33741350 33830130 34040400 34266220 34515640
2862.83 34796360 35015160 35231140 35548520 35865720 36227490
2865.72 36732070 37256960 37794410 38496500 39326480 40211940
2868.61 41205820 42249760 43377750 44693790 46194570 47908000
2871.51 49827680 51903660 54119080 56495800 59059880 61849670
2874.40 64842310 68021560 71462840 75157050 78973070 82863500
2877.29 86795160 90724220 94755840 98871680 102844900 106659000
2880.18 110463000 114057200 117330000 120396000 123101200 125375400
2883.08 127202200 128580200 129750300 130732900 131481500 132268300
2885.97 133330900 134809400 136709000 139109100 142274200 146366500
2888.86 151467000 157535500 164680700 172693500 179951100 184946700
2891.75 188055900 189969800 190950700 192054000 194254800 197451700
2894.65 201264200 205580800 210217600 214871300 219387000 223540400
2897.54 227140500 230263300 232921200 235061600 236829500 238406000
2900.43 239689300 240496700 241050200 241754900 242633000 243424800
2903.32 244065100 244630000 244973100 245099100 245310700 245798900
2906.22 246582000 247694900 249049600 250496600 252034300 253693500
2909.11 255461700 257201600 258830700 260405800 261877200 263296700
2912.00 264884100 266720300 268961400 272161000 276908800 283922600
2914.90 293674000 304366800 311882800 314048400 312443300 308904900
2917.79 303789000 297340700 290485500 284440900 279773700 276206900
2920.68 273352900 270688000 268010800 265414100 262924000 260418900
2923.57 257822300 255284200 252822600 250386800 248021500 245620200
2926.47 243183500 240831100 238528700 236404000 234662900 233305200
2929.36 232229200 231489800 231067200 230956300 231323500 232113200
2932.25 233185400 234730600 236987800 239853100 243136300 246837300
2935.14 250829800 254906500 259114000 263498400 267892100 271970800
2938.04 275735500 279342500 282647400 285431300 287503900 288727800
2940.93 289051600 288500600 287212200 285153700 282142100 278434600
2943.82 274401300 270059500 265621700 261497800 258002400 255724300
2946.72 255735200 259479200 269672300 288143500 306205200 310172400
2949.61 300740700 288062400 277372200 269170500 263263700 259656800
2952.50 258193600 258476100 260197300 262998200 266534500 270469400
2955.39 274526400 278520400 282211500 285381000 287936700 289802600
2958.29 290906800 291243700 290925800 290129200 288843500 287078900
2961.18 284739900 281596400 278220100 275419200 273159500 271272100
2964.07 269872900 269251400 269591600 270824000 273001800 276275900
2966.96 280344100 284572400 288588200 292083000 294601500 296130000
2969.86 297179200 298466900 300392800 303041000 306770600 311612300
2972.75 317038600 322733400 328747400 335055700 341497700 347915200
2975.64 354163400 360348100 366449200 372238000 377910000 383487200
2978.54 388664700 393613200 398516800 403128900 407374800 411526800
2981.43 415719500 419601600 422985900 426318100 429669200 432531700
2984.32 434554800 435402300 434920600 433265600 430435400 426919200
2987.21 424088200 423766500 427428800 435023600 445902500 462627300
2990.11 491864300 538444300 593832900 626810900 606675400 547482100
2993.00 491492500 457568600 440280100 431448900 426364600 422649100
2995.89 418934400 414573700 409505700 403830600 397499700 390512100
2998.78 383103600 375379400 367374900 359417100 351607500 343754800
3001.68 335785000 327811600 319970300 312278800 304728100 297187400
3004.57 289660400 282235900 274822100 267324000 259894700 252557800
3007.46 245116500 237615800 230326100 223306600 216455700 209905700
3010.36 203837000 198489700 194119200 190703800 188355400 186897900
3013.25 185004100 180771100 173685100 165483000 158035500 151878000
3016.14 146919800 143016700 139919600 137261300 134815600 132537400
3019.03 130426800 128374100 126299000 124221600 122080400 119754300
3021.93 117241200 114630200 111964800 109230900 106415600 103569300
3024.82 100669900 97674020 94726180 91897680 89031880 86109840
3027.71 83235630 80457690 77845800 75372420 72980710 70718310
3030.60 68575940 66494420 64491920 62607430 60839830 59215040
3033.50 57819040 56574540 55390300 54307020 53284010 52320110
3036.39 51463620 50689350 50009170 49374630 48785470 48281380
3039.28 47805470 47383090 46977930 46534990 46140960 45780180
3042.18 45513260 45343270 45037510 44593060 44193820 43868680
3045.07 43636330 43452900 43239920 43014030 42801060 42573850
3047.96 42314920 42090430 41955870 41837020 41716440 41551500
3050.85 41285220 40985550 40745610 40534660 40330220 40150930
3053.75 39960440 39753860 39558470 39356760 39115500 38829420
3056.64 38602940 38396540 38126690 37867020 37629660 37350110
3059.53 37123680 36974180 36775280 36537970 36307550 36082270
3062.42 35847220 35576610 35305600 35061190 34835480 34627200
3065.32 34319930 33935060 33609130 33363910 33140570 32840640
3068.21 32519030 32273940 32022740 31729790 31404710 31076670
3071.10 30833250 30647960 30394230 30053980 29660770 29273780
3074.00 28902340 28587050 28307640 27976790 27659520 27294570
3076.89 26824880 26468580 26272270 26012590 25633070 25193860
3079.78 24754350 24424540 24127520 23756510 23406760 23110010
3082.67 22738440 22338350 22008210 21702590 21342970 20998020
3085.57 20703040 20349820 19990460 19711900 19485270 19235310
3088.46 18908130 18524370 18106270 17754290 17564680 17384360
3091.35 17094210 16806460 16626660 16424570 16067570 15683570
3094.24 15461540 15348570 15199910 14959510 14693450 14511470
3097.14 14349910 14129390 13899420 13764630 13683560 13522350
3100.03 13321850 13075930 12806780 12633180 12524160 12408550
3102.92 12286670 12111520 11947820 11827310 11632340 11428010
3105.82 11208910 10964300 10867020 10815340 10686850 10585920
3108.71 10522710 10337750 10126780 10052550 9958826 9803596
3111.60 9686830 9596516 9476546 9275124 9031616 8828422
3114.49 8630386 8551570 8580806 8400904 8129448 8040416
3117.39 7976490 7831202 7683600 7545946 7345676 7083602
3120.28 6945358 6954770 6938394 6852072 6789840 6682988
3123.17 6500012 6449812 6401762 6241402 6157232 6106642
3126.06 6006776 5960226 5904312 5803312 5739510 5704012
3128.96 5636712 5565688 5565836 5592478 5536844 5453744
3131.85 5444156 5417674 5312466 5246592 5224994 5165574
3134.74 5072070 5007164 5049104 5088498 5011994 4908754
3137.64 4902954 4910656 4851742 4839054 4926974 5026236
3140.53 5016154 4904688 4806042 4791376 4817062 4856718
3143.42 4856100 4822564 4872694 5005628 5125968 5115014
3146.31 5015418 4977878 4989946 4965728 4948872 4966612
3149.21 4965400 4934064 4907372 4969900 5058852 5112132
3152.10 5220374 5346512 5409332 5418320 5364970 5273174
3154.99 5210202 5185398 5206108 5314328 5432400 5407582
3157.88 5359836 5426716 5513258 5615458 5703456 5656774
3160.78 5586730 5668226 5778842 5777024 5817048 5932858
3163.67 5986406 6019454 6047200 6064302 6138726 6245400
3166.56 6328644 6341992 6372210 6487306 6603422 6710358
3169.46 6817236 6813178 6744512 6746390 6693392 6505988
3172.35 6376954 6329750 6323482 6355596 6353188 6277868
3175.24 6192592 6199840 6258174 6293776 6303296 6298220
3178.13 6326522 6386664 6448714 6479442 6428578 6382496
3181.03 6402370 6423604 6524986 6698072 6831834 6937154
3183.92 7067786 7220168 7258388 7109770 6886286 6602940
3186.81 6276366 6022118 5769432 5510650 5354574 5284470
3189.70 5144184 4949720 4850514 4832932 4805250 4740214
3192.60 4667148 4627886 4509294 4334652 4257124 4256812
3195.49 4245394 4178552 4090510 3994454 3908554 3823338
3198.38 3694912 3547116 3512550 3565052 3516500 3387516
3201.27 3291576 3228878 3154646 3023338 2870644 2728646
3204.17 2620558 2553662 2465944 2306428 2153234 2080768
3207.06 2092774 2112216 2048332 1984936 1975358 1925540
3209.95 1826714 1736978 1599170 1483182 1490948 1519362
3212.85 1523550 1491556 1415402 1342226 1329108 1351060
3215.74 1351280 1339758 1284696 1188572 1138826 1120928
3218.63 1089266 1049376 980926 942464 1031056 1105854
3221.52 1063720 1054976 1093738 1100674 1102818 1138114
3224.42 1168516 1145464 1139046 1184848 1252468 1317024
3227.31 1276648 1203782 1269394 1370554 1387008 1406844
3230.20 1447150 1426986 1369462 1396890 1433424 1342752
3233.09 1293728 1379544 1380170 1285868 1243492 1288552
3235.99 1363498 1300972 1164142 1154762 1203966 1238586
3238.88 1306826 1390172 1446456 1459664 1457044 1454692
3241.77 1416426 1246484 1073156 1025876 1036784 1084744
3244.67 1078270 904876 822394 921528 987456 1042316
3247.56 1059022 1050316 1048076 981642 924944 867398
3250.45 781742 730132 726128 730098 701868 608586
3253.34 549698 559566 501368 408220 392516 400756
3256.24 325672 201146 137724 95410 19514-28086
3259.13-17716-11500-36344-119546-190402-155146
3262.02-171964-253898-175326-64750-154716-310504
3264.91-423528-436810-316936-251540-316072-370478
3267.81-379540-427692-504662-595540-643920-602458
3270.70-515418-445210-393380-340360-343260-383658
3273.59-391212-376386-392020-420798-443526-535150
3276.49-663958-718196-689566-555008-511822-624562
3279.38-709136-773576-806378-753578-735512-720242
3282.27-620446-540090-598296-691050-683570-656228
3285.16-644010-615176-605606-677160-751568-719840
3288.06-646064-658152-737102-706268-659526-715014
3290.95-730020-624432-544724-568652-544212-513996
3293.84-597836-718784-826368-879792-812060-673148
3296.73-577204-570046-620602-663140-623680-541110
3299.63-467462-434962-513154-573978-541772-519074
3302.52-501054-531478-606556-594508-557218-655228
3305.41-732738-634650-493262-454616-491456-466944
3308.31-396584-358630-405752-479834-470544-457458
3311.20-495190-527466-544744-553254-551294-540696
3314.09-508416-430310-380314-424600-467712-437982
3316.98-348714-275356-272322-273030-255898-301758
3319.88-426844-507466-501442-550108-637606-617736
3322.77-582336-624396-620738-567762-558404-498604
3325.66-360540-258844-293286-408628-460368-436974
3328.55-391444-404460-518588-606520-647620-612824
3331.45-544788-605394-621280-523956-427412-383850
3334.34-386414-339540-329834-437394-502842-496364
3337.23-515138-568602-572860-524226-482234-450942
3340.13-398106-384490-444696-464268-416636-450000
3343.02-489444-428212-437312-484576-451452-403464
3345.91-376748-397388-462342-451172-318862-239924
3348.80-303720-464208-480934-311228-253852-323012
3351.70-399140-388534-262068-160058-136442-147552
3354.59-169846-191340-189712-119366-97482-142852
3357.48-124638-107898-148932-196378-117564 113152
3360.37 281138 285640 222308 132106 166004 336726
3363.27 419748 419418 445738 514604 541328 516444
3366.16 570586 679632 751664 740492 587404 483874
3369.05 610994 862352 973372 904750 817286 795676
3371.95 826460 910550 985980 1004822 978580 948684
3374.84 970880 979436 918748 871284 873822 876918
3377.73 891794 927266 938736 952542 975360 955676
3380.62 915920 812108 709254 822872 1001102 1059380
3383.52 1049176 1048144 1079090 1101028 1051976 1005378
3386.41 983504 918280 913894 1031424 1122536 1086598
3389.30 970550 933134 950370 874642 823964 904418
3392.19 938570 853612 738842 721086 750736 685544
3395.09 594688 625346 728070 757782 683730 651612
3397.98 628534 441096 308914 393818 511166 578376
3400.87 620422 572652 486456 412564 358960 417186
3403.77 541004 612350 638220 680506 675736 624108
3406.66 575652 631648 744790 783188 728698 585704
3409.55 536382 670692 766816 709012 668444 738594
3412.44 857460 1004120 1145370 1214710 1224188 1270576
3415.34 1345578 1355392 1361126 1434870 1498260 1597772
3418.23 1862640 2129574 2263904 2381856 2509096 2543624
3421.12 2587562 2704522 2870006 3065098 3245228 3394036
3424.01 3556214 3742780 3878888 3982454 4156872 4411304
3426.91 4660550 4877670 5090308 5271926 5482594 5830070
3429.80 6209118 6568578 6795020 6933190 7152034 7360644
3432.69 7578492 7821172 8145486 8555574 9004690 9513522
3435.59 9916616 10183490 10470970 10827880 11157460 11434860
3438.48 11786110 12268240 12843050 13368700 13764510 14138080
3441.37 14627800 15172580 15608270 15958890 16301460 16654210
3444.26 17065580 17536610 18018350 18478610 18975790 19458250
3447.16 19817670 20114860 20460680 20855510 21245470 21583510
3450.05 21859540 22157330 22440690 22625060 22734420 22801470
3452.94 22878550 22887160 22876000 22964340 22906950 22638820
3455.83 22429070 22363710 22233380 21976490 21731430 21534460
3458.73 21378780 21198840 21029950 20980870 21029200 21064350
3461.62 21128180 21361660 21597210 21717360 21845740 21974010
3464.51 22086260 22208650 22285160 22304560 22210820 21906530
3467.40 21584840 21399540 21183890 20717390 20118170 19621620
3470.30 19129040 18600220 18044400 17418050 16775600 16144660
3473.19 15485400 14822390 14187710 13522360 12783380 12062530
3476.08 11470130 10939250 10407750 9920136 9468400 8980590
3478.98 8508106 8077970 7602864 7085416 6607264 6217262
3481.87 5803836 5404616 5094320 4707916 4358968 4196492
3484.76 4016726 3647914 3162666 2750696 2542810 2464190
3487.65 2271114 1965630 1749006 1549964 1338422 1174498
3490.55 1018916 868944 707030 516762 397364 269036
3493.44 79530-86806-158752-159656-241468-297704
3496.33-328498-461822-669972-884220-979908-975518
3499.22-929976-924444-1005706-1087528-1099240-1047108
3502.12-966258-941678-1068916-1181598-1218318-1294678
3505.01-1350148-1373482-1461782-1569860-1602246-1619306
3507.90-1627908-1477280-1309134-1339978-1460078-1637048
3510.80-1796376-1877926-1941834-1947444-1922660-1875548
3513.69-1813004-1814712-1909496-2072002-2169238-2054322
3516.58-1851182-1803442-1894742-1908996-1929850-1976630
3519.47-1915642-1874674-1904704-1942442-1896676-1792180
3522.37-1775102-1805904-1784236-1749172-1730522-1734982
3525.26-1801854-1856156-1815574-1775630-1864686-1947676
3528.15-1876688-1831024-1876106-1854734-1770998-1701714
3531.04-1729884-1829024-1854662-1828368-1865086-1866874
3533.94-1851470-1893022-1827418-1675720-1658990-1796080
3536.83-1930942-1916914-1843128-1852474-1853506-1772570
3539.72-1694810-1707192-1745492-1743070-1798472-1842388
3542.62-1661074-1427332-1403108-1436262-1368912-1426750
3545.51-1546924-1348988-1042198-1077778-1289180-1400434
3548.40-1405138-1415698-1450904-1436392-1407252-1268678
3551.29-1034306-956424-1103934-1180678-1141902-1159888
3554.19-1191288-1181798-1109802-1003508-971262-1023974
3557.08-1051442-1001544-962444-927332-789144-632542
3559.97-632374-713650-594454-312532-143168-117636
3562.86-72910-52004-103200-107002 134422 556858
3565.76 895068 913086 742338 1136832 1537194 1087762
3568.65 528812 322830 340046 393296 304008 218598
3571.54 250040 252152 199624 173538 169680 157032
3574.44 146014 160744 144834 110708 157728 206930
3577.33 130084-13032-35638 157276 474118 735614
3580.22 988690 1269276 1365486 1271758 987184 605330
3583.11 359888 285124 460630 740168 855456 1141982
3586.01 1519934 1160084 559468 797238 1731030 1783046
3588.90 818770 327894 256982 132024 111760 328226
3591.79 603014 797094 848330 634256 399104 505496
3594.68 835266 860350 577128 297286 133698 221890
3597.58 350152 233898 104070 107206 118440 177000
3600.47 230374 92250-105982-177986-150652-237062
3603.36-443648-513064-476702-596828-754476-547172
3606.26-12410 93746-353402-464850 492744 1717502
3609.15 1131094-342698-892824-897944-691088 14280
3612.04 669512 226470-539518-564530-226272-228806
3614.93-541902-826282-919982-616486 11098 222934
3617.83-192546-176066 888944 1308110 188878-592636
3620.72-600638-636536-746580-836120-860312-778784
3623.61-762844-825164-893394-894500-763836-714648
3626.50-682494-27892 1636426 2632026 2546510 3216020
3629.40 2631116 561664-481836-725248-758040-707984
3632.29-669542-421250-43786-133062-526942-696990
3635.18-705554-739210-806898-796288-640734-471088
3638.08-470992-566374-626992-675790-697506-624210
3640.97-498022-443118-434030-436448-468610-521222
3643.86-522500-447164-343014-149588 248628 945988
3646.75 1607508 1328856 778332 2086102 4104718 3337928
3649.65 1652990 1669726 1887456 1285210 379772-78938
3652.54-195208-257682-274862-184702-28364 559918
3655.43 2081976 2743334 1315538 53300-223586-250328
3658.32-238712-217798-186440-202530-252274-216478
3661.22-159194-150794-210922-274658-281926-235962
3664.11-228826-242822-237946-206582-178968-132112
3667.00-88048 294322 1326484 1715142 986918 1378266
3669.90 4011954 5185782 2708784 420860-138358-148702
3672.79-79644 236602 1245328 2707502 3579308 4654176
3675.68 4620076 2085724 290466 15960-83918-34574
3678.57 305772 399972-30156-402680-525384-513502
3681.47-493982-522136-540510-541444-533966-499034
3684.36-480948-484872-524148-560630-519644-196238
3687.25 1608174 4859858 4947574 1696800-82396-109826
3690.14 448592 1236322 974836-77234-539454-546414
3693.04-509934-510452-567576-677260-728848-681560
3695.93-619748-609444-621334-614750-584160-560214
3698.82-581746-639196-671314-532764 218508 1036212
3701.72 622188-393358-807316-818090-823162-775298
3704.61-652594-644592-720942-747206-681630-543936
3707.50-423022-194278 653580 1237574 505778-236772
3710.39-206652 602450 2561144 3299988 1375014-368062
3713.29-768090-566458-265178-351996-603390-685014
3716.18-706968-700706-656330-538004-252740-81610
3719.07-256588-446068-500352-496118-201932 422046
3721.96 504196-98464-573412-642660-384824-69304
3724.86-81736 5988 592900 695688 87022-298462
3727.75-425690-510746-551320-527814-408802-231302
3730.64 151166 1660764 3172306 2160924 314068-137404
3733.54 484222 1541820 2103438 1671764 1419292 2614856
3736.43 2840448 1085316 136162 205620-2816-357102
3739.32-408546-191654 154742 303084 40040-200894
3742.21-155458 415198 2556326 6844686 9304378 6072786
3745.11 1646588-13428-278312-141988 103616 202276
3748.00 1185144 4302748 6244168 3845328 975820 291546
3750.89 1551928 5074494 6580620 3321792 379484-236718
3753.78-335566-427288-453876-333822 146560 442262
3756.68-3676-461366-461844-195490 261586 804546
3759.57 713690-66172-567816-668178-660544-656692
3762.46-656044-651968-669958-674826-467572 139788
3765.35 449212-101156-590562-685616-697618-650496
3768.25-514932 173610 1278654 1134202-39058-603972
3771.14-599870-595386-708522-838016-881772-861268
3774.03-827984-815026-823196-769320-692336-713466
3776.93-778522-757900-655214-177278 599968 530410
3779.82-266772-695206-801412-831600-788408-743708
3782.71-699992-625924-474916-304620-342998-552076
3785.60-668602-633204-612342-643100-665252-673382
3788.50-721714-762098-746080-714124-716798-759028
3791.39-770378-748676-714246-627076-565876-594460
3794.28-630216-547704-114858 584622 551622-95902
3797.17-365246-447752-480238-405726-320966 10062
3800.07 1263252 4273608 5649620 2938672 632958 217538
3802.96-152976-480692-506172-469292-409464-92954
3805.85 1298052 3434196 3207608 941962-300798-516960
3808.75-545728-550632-489040-419650-381426-418114
3811.64-453498-431724-385926-335828-245756-108302
3814.53 425126 2872966 5890428 4699298 1329990-21576
3817.42-161884-129558-45664 85566 543026 1652358
3820.32 2570644 2917456 2995048 1811876 446446 62932
3823.21-9204-58546-99460-55336 40178 298156
3826.10 713648 601372 156372 45810 61572 13246
3828.99 19286 114002 227320 678614 1601454 1726662
3831.89 789398 162248 23726 119354 835860 2025916
3834.78 1982928 883498 499424 904292 2910076 6230644
3837.67 5943804 2502780 861168 1035542 1342328 1659190
3840.57 1914432 1321598 638982 550036 851462 1438382
3843.46 1557596 984162 576024 549332 606424 576820
3846.35 557500 571452 547088 561664 675464 828702
3849.24 994412 1082310 1115182 1954720 4707732 6253936
3852.14 4228870 3281482 6676628 10675300 9218626 4225954
3855.03 1453868 1045986 1287240 1635350 1588930 1178924
3857.92 985880 980440 1045212 1116636 1182436 1421220
3860.81 2057864 2439926 1881612 1311746 1288316 1454238
3863.71 1980794 3254192 3941054 2807542 1639710 1297490
3866.60 1182330 1162346 1210588 1680698 2710308 4065070
3869.49 5309884 4446712 2391506 1518980 1257712 1149986
3872.39 1242514 1559538 2188912 2528334 1958942 1220768
3875.28 1027084 1009606 933808 944514 997264 1002762
3878.17 1012218 1177170 1858636 2664942 2500808 1736946
3881.06 1184028 867126 803720 901194 866726 757458
3883.96 870194 1704016 3506538 4044714 2382468 881316
3886.85 463394 495378 559718 580158 548324 491150
3889.74 643500 1586298 2784378 2354990 1026368 467258
3892.63 384568 337382 348334 346046 274352 193608
3895.53 132990 149978 212586 327754 501210 756418
3898.42 1595624 2250076 1490812 522952 449756 1442774
3901.31 2449610 1817620 654932 570914 1675740 2620488
3904.21 1883066 814604 700290 763736 443080 111772
3907.10 41206 78480 43374-44006-84058-36378
3909.99 62040 106562 114124 137150 96292 20024
3912.88-13528-3354 24994 39234 43064 129550
3915.78 294922 642350 1020076 669844 95852 24062
3918.67 159226 493420 728396 352070-1402 54934
3921.56 53294-16280 93144 295434 393042 426444
3924.45 539564 447894 147148 22568 76958 158916
3927.35 171556 108288 111320 245538 323354 270358
3930.24 169438 144686 384406 739778 711964 366370
3933.13 202508 259448 251772 130312 40852 46178
3936.03 86022 104048 126180 194104 280350 278326
3938.92 257702 234842 160696 135536 195390 354778
3941.81 597748 637822 283422 31688 156786 281042
3944.70 265334 336702 482006 611398 749256 793394
3947.60 719308 660180 558362 307658 98082 88082
3950.49 159124 206976 227280 256024 342812 357046
3953.38 259864 259904 352650 416506 404978 357228
3956.27 360296 391350 442100 553574 619932 569070
3959.17 539956 552470 570600 601534 626034 626046
3962.06 585928 569636 566382 589390 655456 669230
3964.95 677250 726928 807210 902030 927180 871630
3967.85 820898 874722 968552 975150 991290 1043242
3970.74 1116746 1170048 1175864 1219658 1239430 1216096
3973.63 1195374 1142818 1127646
##END=
