##TITLE=Methyl Ethyl Ketone
##JCAMP-DX=4.24
##DATA TYPE=INFRARED SPECTRUM
##CLASS=IUPAC A
##ORIGIN=NIST, Anayltical Chemistry Division, 301-975-3108
##OWNER=COPYRIGHT (C) 1998 by the U.S. Secretary of Commerce
##DATE=98/10/1
##$SPECTRA VERSION=1.00
##$UNCERTAINTY IN Y=2.1 % relative (B=1.1E-04,C=8.6E-10,D=2.7E-14)
##CAS NAME=2-Butanone
##CAS REGISTRY NO=78-93-3
##MOLFORM=C H3 C H2 C O C H3
##MP=-86.35 C
##BP=79.6 C
##$NIST SOURCE=QUANT-IR
##SPECTROMETER/DATA SYSTEM=IFS66V (Bruker)
##INSTRUMENT PARAMETERS=KBr Beam splitter; MCT Detector; Multipass cell
##STATE=gas
##SAMPLE DESCRIPTION=Methyl Ethyl Ketone Primary Gas Standard
##PRESSURE=101.3 kPa
##TEMPERATURE=23 C
##SAMPLING PROCEDURE=1 L/min Flow
##RESOLUTION=0.9640
##DATA PROCESSING=NB Strong Apodization
##XUNITS=cm-1
##YUNITS=(micromol/mol)-1m-1 (base 10)
##XFACTOR=1.0
##YFACTOR=4.5474E-13
##DELTAX=0.4820
##FIRSTX=575.169
##LASTX=3975.077
##FIRSTY=.0000217
##MAXX=3974.59
##MINX=575.17
##MAXY=.0005718
##MINY=-1.01E-06
##NPOINTS=7053
##XYDATA=(X++(Y..Y))
575.17 47732270 51421890 53982220 56073620 58179510 60253300
577.58 61794780 62205340 62549670 62719680 62712030 63614550
580.47 64359680 64797490 64037490 62715670 61497000 62142150
583.37 63774970 66748750 68499540 68578470 69115380 72607370
586.26 75210540 73993250 73172560 69005140 65274240 63288070
589.15 64949260 66391610 65454170 65992980 67932880 67217660
592.04 65465220 64979040 65272420 65931020 65751670 65769350
594.94 65507140 64558840 63735940 63475700 62834130 61780440
597.83 60374940 58444930 55684350 53593700 51621040 49095660
600.72 46771550 44400860 41667220 38875570 35890850 33020540
603.61 31012090 28600980 25963780 23931060 21779850 19677970
606.51 18199760 16462830 14866920 13824700 12792900 11435170
609.40 9740274 8870744 8076030 7361140 6881208 5958698
612.29 5368706 5295236 4890888 3973538 3721294 4122690
615.18 4214918 3772478 3028812 2769858 2873568 2749230
618.08 2455470 2309686 2240224 1895094 1614424 1723148
620.97 1617094 1594954 1681302 1428206 1303978 1702706
623.86 1607054 1485790 1425648 1512982 1381004 1366326
626.76 1509986 1323702 1213258 1299704 1586024 1412010
629.65 1189876 1222444 1285760 1213898 1318556 1072922
632.54 807972 593822 602164 688842 955748 1214456
635.43 1163910 1213460 1183660 983962 829142 583262
638.33 758100 929136 1065046 1057640 1139374 1743138
641.22 4427734 7741030 5004528 1969522 1339380 929426
644.11 1055358 1206924 975270 833626 567104 891812
647.00 1059556 1155214 1437602 1498376 1366148 1412072
649.90 1832136 2442414 3208618 3433774 2921136 2603442
652.79 2123486 1727064 1537982 1685972 1855756 1807996
655.68 1904664 2306316 2894834 3165654 3092700 2836372
658.58 2656986 2559868 2200606 1748498 1583232 1228314
661.47 1314976 1574764 1507782 1250652 1145022 1070788
664.36 1003088 976634 962312 1039636 1276196 1724344
667.25 2277178 1877338 1270156 1156222 1122398 1074516
670.15 1041568 998654 1130646 1175428 1024254 956150
673.04 1016978 1053810 936782 874558 1091180 1167756
675.93 778912 616760 672752 605238 729788 839818
678.82 712436 750382 762376 569432 561578 624474
681.72 547818 487054 479870 732972 751662 711748
684.61 535808 566412 430118 259648 439930 513414
687.50 350926 407138 703008 689056 614574 723200
690.40 659238 337132 259964 345582 36096-68204
693.29 469636 467798 132444 169082 343760 519006
696.18 364988 235496 154948 89722 129838 150058
699.07 119974 212278 192928 216668 394536 392330
701.97 96438 14794 209148 543452 346512 122672
704.86 342646 507692 343576 147534 68350 238758
707.75 277390 250580 365186 305692 304460 314748
710.64 281700 566244 792900 747448 701866 753942
713.54 852226 1088350 1039322 1048580 975488 942006
716.43 1041624 1169632 1399476 1603052 1733766 1821782
719.32 1647618 1577524 1876884 2134484 2296394 2589826
722.22 2762496 2907482 2988272 3060334 3116704 3419016
725.11 3726984 4150738 4468492 4758132 5116586 5483758
728.00 5903346 6348940 6696768 7071150 7535312 8023322
730.89 8662366 9145010 9455242 10097460 10825910 11384510
733.79 12024810 12540480 13103520 14024520 14837550 15563630
736.68 16114820 16830160 17755880 18686170 19556960 20150000
739.57 20999780 21988360 22867390 23891090 24777600 25685890
742.46 26771360 27852030 28864610 30057030 31281010 32498580
745.36 33751880 35010960 36318810 37668120 39230540 41211780
748.25 43577760 46003830 48906970 52644900 55726390 56085190
751.14 55041730 53743460 52460600 51150710 49681850 48176640
754.04 46848620 45885920 45272800 44523720 43694040 43076740
756.93 42759130 42666020 42749160 43640700 44989500 46107670
759.82 46315590 45726460 44779480 44128200 43648670 43170870
762.71 42697540 42457340 41997500 41298800 40641110 40003980
765.61 39271480 38374240 37331930 36314000 35050390 33582310
768.50 32371220 31163440 29610580 28033780 26559480 25077860
771.39 23645510 22284870 20971080 19619640 18274360 16957220
774.28 15894160 14867410 13848680 13018510 12040410 11265710
777.18 10610650 9795682 9135512 8634744 8192968 7676692
780.07 7176714 6914072 6486264 6194806 6184028 5888302
782.96 5516480 5364242 5103558 4679888 4466772 4280298
785.86 4120516 4096034 4172216 4072562 3956942 3786272
788.75 3628470 3424020 3299610 3163860 3152500 3119944
791.64 3140302 3184248 3028102 3104618 3085134 2870058
794.53 2763534 2818594 2783548 2981914 3004662 2625410
797.43 2341778 2438842 2438620 2548856 2540128 2412830
800.32 2064676 1880772 1943504 2063640 1919956 1778178
803.21 1918268 1883770 1853024 1722070 1598066 1659474
806.10 1748694 1804568 1874016 1770088 1469666 1359398
809.00 1344070 1388102 1369938 1395294 1455792 1354568
811.89 1231270 1236726 1263770 1192272 1054794 816594
814.78 775074 901644 915500 918062 981586 994924
817.68 1018104 804666 651620 900990 924228 759924
820.57 929126 997052 1002092 876972 758902 797558
823.46 817360 697094 779198 842634 920744 814510
826.35 657312 700124 795644 770336 649366 559778
829.25 546258 734992 874890 952664 1037590 1073264
832.14 765716 618580 557132 595074 873426 1082082
835.03 1022996 858182 764244 698992 572820 642646
837.92 942152 1051636 970746 807238 733692 723824
840.82 768884 648338 594500 729192 876438 957978
843.71 917608 883502 880682 941566 1019584 860362
846.60 771062 843980 983568 1046152 906480 924402
849.50 1002056 979326 911478 888708 919626 920786
852.39 852432 840308 868580 881078 863936 960230
855.28 1061240 1152690 1144920 1100518 1125350 1014372
858.17 1020014 1045244 1003484 1083236 1194146 1309662
861.07 1265524 1217382 1176950 1154568 1287148 1433074
863.96 1484046 1458810 1470706 1546790 1457138 1437806
866.85 1532776 1608128 1590456 1612592 1698920 1802012
869.74 1826988 1814736 1851876 1976998 1974882 2014340
872.64 2160156 2133412 2238492 2462756 2515110 2496734
875.53 2692096 2842628 2857620 2890268 2818588 2809762
878.42 2870004 2896676 2952998 3034138 3266186 3349436
881.31 3239034 3378688 3527198 3662206 3718758 3729242
884.21 3800832 3926000 4001092 4138434 4309096 4407410
887.10 4465932 4563440 4549858 4653464 4830794 4983426
889.99 5099650 5438032 5706974 5861976 5914308 5899498
892.89 6154912 6571462 6775268 7031108 7313112 7485320
895.78 7767182 7985464 8138714 8389400 8575742 8909982
898.67 9476954 9854436 10183680 10606930 10978870 11412500
901.56 11761620 12225780 12711430 13158790 13700730 14316330
904.46 14951780 15536360 16157960 16882460 17617310 18463090
907.35 19204080 19963090 20868350 21767010 22602820 23648980
910.24 24730390 25635480 26736560 27961520 29113040 30200970
913.13 31361470 32495140 33641720 34913500 36242700 37592280
916.03 38879030 40116350 41367060 42790990 44327380 45919070
918.92 47370130 48974550 50533480 52063440 53778750 55797630
921.81 57814900 59337760 60743540 62479280 64329610 66111950
924.71 67964530 69808550 71699340 73788580 75965940 78154190
927.60 80247240 82200480 84238210 86413340 88620120 90819590
930.49 92884500 94879790 96868490 99097200 101208100 102810000
933.38 104290600 106326500 107860200 108423100 108877800 109430600
936.28 109759700 110091600 110342600 110648900 111506000 113116900
939.17 115949100 118618800 118045300 117349800 118111200 118356300
942.06 117115100 116177400 116202300 116221400 115253700 113652800
944.95 113081900 113078500 113164700 113364300 113621100 113940200
947.85 114093200 113778500 113031700 111821500 110484500 109177300
950.74 107862900 106233100 104566000 102827500 100766600 98694520
953.63 96446910 94042380 91840030 89797380 87540600 85137240
956.53 82880680 80796930 78657780 76383890 74130490 72049650
959.42 70138840 68232940 66357100 64601710 62906560 61205140
962.31 59554830 58019540 56520450 55109670 53742680 52311880
965.20 51118320 49981670 48835720 47870930 46808470 45897140
968.10 45123530 44262220 43403690 42773210 42209630 41633590
970.99 41061240 40500700 40081860 39775630 39508600 39201400
973.88 38926660 38714860 38482060 38285030 38058730 37858360
976.77 37769690 37678870 37625450 37580230 37549030 37500080
979.67 37278320 36971290 36746300 36714170 36536350 36202750
982.56 35930100 35675070 35326760 35009970 34680000 34324520
985.45 34032580 33799040 33618460 33578880 33600470 33541630
988.35 33443290 33116300 32740750 32598080 32151250 31621690
991.24 31215470 31038580 30983440 30754510 30360840 30018310
994.13 29813250 29499190 29199970 29049070 28977110 28821710
997.02 28628880 28302910 28025710 27779420 27542950 27313510
999.92 27160220 27005220 26810760 26480040 25964470 25305440
1002.81 24674930 24055500 23374950 22719380 21954400 21204840
1005.70 20631670 20007100 19453130 18757300 18000320 17362820
1008.59 16868150 16400590 16008160 15527930 15109300 14795960
1011.49 14375250 13975090 13707450 13442060 13164360 12887350
1014.38 12572400 12408670 12201280 12078810 11954670 11646700
1017.27 11382280 11310770 11227150 11037980 10717030 10501750
1020.17 10451550 10385640 10099640 9757422 9584308 9463402
1023.06 9241012 9111106 8983862 8719592 8461246 8313814
1025.95 8113464 7904116 7753440 7539240 7361060 7175036
1028.84 7174834 7131396 6969588 6889636 6815970 6761690
1031.74 6735028 6767280 6809454 6739404 6574314 6484672
1034.63 6396694 6357184 6370232 6412542 6395234 6327726
1037.52 6420986 6593566 6524418 6369630 6419374 6462498
1040.41 6573618 6582220 6532774 6691360 6843528 6908624
1043.31 6996296 7044524 7107366 7228694 7278472 7286846
1046.20 7379490 7588226 7768414 7942162 8207038 8391684
1049.09 8376470 8445206 8601370 8779522 8929660 8901234
1051.99 8923656 9120474 9322836 9609252 9858494 9991818
1054.88 10154000 10324140 10568910 10902990 11214920 11496950
1057.77 11884460 12242550 12472130 12726640 13106530 13555190
1060.66 13895000 14245970 14619610 15106930 15634920 16080270
1063.56 16547210 17060770 17652240 18325690 18832180 19182600
1066.45 19717860 20326920 20898540 21543010 22104270 22682280
1069.34 23358800 24012590 24666100 25308550 26023530 26848160
1072.23 27405460 27972270 28734210 29380760 30023830 30788480
1075.13 31527780 32080420 32611830 33261220 33911410 34515160
1078.02 34913780 35270870 35838620 36188790 36409320 36546730
1080.91 36830910 37039480 37094800 37037300 36914960 36632790
1083.81 36316350 36039380 35647720 35172600 34826420 34447400
1086.70 33935780 33499200 33178260 32910250 32620630 32480660
1089.59 32545700 32757470 33058010 33535680 34069730 34526340
1092.48 34757900 34781460 34616420 34465860 34168920 33563830
1095.38 33018330 32388450 31646460 30934660 30313570 29633100
1098.27 28843630 28106480 27616440 27139180 26477210 25859590
1101.16 25426860 24908830 24232430 23688900 23272050 22998720
1104.05 22706310 22383230 22159700 21919760 21684320 21484570
1106.95 21526330 21670390 21586240 21555390 21461080 21318440
1109.84 21007930 20570410 20509450 20477860 20354940 20297030
1112.73 20226540 20205010 20133600 20185150 20290070 20334900
1115.63 20319780 20323780 20451300 20569890 20615280 20762760
1118.52 20997870 21263180 21529320 21720540 21860630 22035620
1121.41 22299990 22547460 22810530 23146420 23418320 23716090
1124.30 24019270 24219630 24404970 24760160 25248090 25639300
1127.20 26007230 26406990 26942970 27515600 27991010 28506400
1130.09 29188510 29856380 30586400 31361400 32072200 32840270
1132.98 33839700 34992380 36121290 37244150 38559070 39947250
1135.87 41434040 43051980 44840080 46717000 48683980 50761980
1138.77 53134510 55736580 58534340 61611980 64900270 68614530
1141.66 72651030 76975530 81721760 87048060 92766820 98959700
1144.55 105670200 112729100 120301300 128466500 137359100 146653800
1147.45 156284500 166578500 177351700 188158400 199401500 211053200
1150.34 222847800 234924200 247282300 259560300 271849300 284021500
1153.23 295953100 307442100 318498700 329017400 338764500 348349400
1156.12 357660200 366362700 374751200 382959300 391403100 400408400
1159.02 409550000 418607500 427697200 435953500 443298700 450746700
1161.91 459284600 469463800 481609800 494775400 508300500 520658600
1164.80 532152700 544407800 556552100 560582300 555377000 553427800
1167.69 558436500 567439100 573468700 566156000 558665400 559656000
1170.59 563013200 566887700 571722800 577265500 582079900 585622100
1173.48 587675100 589247600 590085000 587870100 577949100 563360400
1176.37 552727800 549781100 555861000 555899000 536192000 514911800
1179.26 498543400 481006000 463957800 450450800 440610900 433072900
1182.16 425215600 417456400 410712700 404415700 398021400 391681300
1185.05 384340900 375881200 367160800 358465300 349213800 339751100
1187.94 330133800 320409100 310667500 300711600 290904900 281342900
1190.84 272020900 262780600 253464800 244503900 236042900 228035000
1193.73 220426900 213205500 206332600 199813200 193588100 187862600
1196.62 182368800 177227200 172535700 168138000 163932900 160025900
1199.51 156296000 152680700 149383400 146277500 143136400 140142600
1202.41 137138000 134218100 131376300 128724300 126127300 123429900
1205.30 120673800 118032200 115621500 113331500 111143700 109139900
1208.19 107068600 105000000 103145000 101308900 99208540 96994440
1211.08 94867430 92552060 90157010 87817820 85283950 82755660
1213.98 80223540 77711700 75082720 72318620 69527480 66824680
1216.87 64107900 61572090 59232200 56926860 54652660 52490530
1219.76 50383440 48446930 46561280 44766900 43127740 41730460
1222.66 40395840 39053790 37737440 36643350 35617680 34653400
1225.55 33734120 32911740 32206990 31506290 30789190 30155480
1228.44 29584280 29115740 28639560 28228560 27892790 27528960
1231.33 27156680 26809590 26446370 26193460 25968240 25752240
1234.23 25514640 25390790 25233110 25080200 25013200 25018760
1237.12 25020210 25004410 25089540 25238780 25464290 25671630
1240.01 25886630 25998710 26039510 26062550 26098580 26312300
1242.90 26560030 26787460 27072440 27320460 27554550 27847160
1245.80 28112230 28322870 28630570 28984740 29260780 29467860
1248.69 29669960 29884700 30037440 30225460 30386400 30518150
1251.58 30692220 30837720 30905250 31089320 31187870 31277750
1254.48 31386190 31459530 31451860 31508020 31545130 31642610
1257.37 31691120 31714350 31804270 31745050 31558310 31396640
1260.26 31152900 31033300 30944960 30844630 30730030 30614770
1263.15 30562390 30561540 30561820 30525800 30442310 30336410
1266.05 30028320 29767590 29606040 29579210 29453890 29178680
1268.94 28882130 28595630 28413480 28237440 27941510 27589090
1271.83 27177230 26808100 26427350 25991900 25558190 25322360
1274.72 25021300 24653430 24277470 23917210 23647920 23359370
1277.62 23056150 22820260 22453180 22175180 21912400 21582030
1280.51 21317390 21041350 20832890 20683470 20483440 20272500
1283.40 20057670 19870090 19687650 19568200 19451260 19340250
1286.30 19323900 19258990 19097300 18985510 19038220 19215970
1289.19 19353860 19485980 19517320 19663550 19908870 20167360
1292.08 20387770 20651700 20967200 21301260 21642210 22121020
1294.97 22583560 23029200 23490850 24003210 24511410 24963380
1297.87 25451640 26073350 26691080 27341580 27941840 28588220
1300.76 29193660 29860530 30563980 31298850 32051280 32761490
1303.65 33523050 34334830 35128330 35996380 36843880 37716050
1306.54 38601540 39505270 40372930 41240540 42160720 43051940
1309.44 43913790 44866990 45784100 46778220 47748840 48814170
1312.33 49936390 51036750 52027710 53099950 54306030 55352810
1315.22 56387500 57578230 58928900 60191560 61258620 62296370
1318.12 63500100 64824570 66132560 67483610 68870580 70407900
1321.01 71668730 72909260 74445750 76268960 77951740 79499620
1323.90 81169700 82908130 84658590 86437210 88255020 90106040
1326.79 92012020 94040060 95926230 97868780 99817790 101873800
1329.69 103965600 106172600 108257900 110505900 112830500 115247800
1332.58 117741200 120258100 122756700 125586700 128335000 131000800
1335.47 133749900 136626900 139388800 142124100 145048600 148335100
1338.36 151668400 155024200 158094000 161540400 165654200 170625900
1341.26 175535700 179509500 183152800 187139500 191581400 196366300
1344.15 201400400 207129100 213845600 221724100 230191400 239125600
1347.04 248683200 258679400 268942200 279534500 290274900 301292400
1349.94 312780700 324439600 336115400 348063000 360102400 371904700
1352.83 383452900 394469000 405112300 415665800 425470800 434430800
1355.72 442636600 450045700 456702500 462766300 467820900 472140800
1358.61 475615400 478263700 478819500 477764300 476678400 475364000
1361.51 474466200 474772900 476047100 478523500 483763800 494993000
1364.40 511098100 529147000 544472700 549463200 545086800 545865300
1367.29 535612900 512256900 494807800 481173700 474409800 474468200
1370.18 478269300 484038000 490868100 497104700 501870200 505365800
1373.08 508060100 508004900 505510600 501086900 493941400 484088800
1375.97 472237000 458690300 443542600 427085400 409479100 390893600
1378.86 371899500 352660500 333162800 314035000 295573600 277790300
1381.76 260648100 244283600 229173100 215410900 202887400 191231700
1384.65 180852100 172166500 164733200 157912700 152846100 149419700
1387.54 145079200 141799600 140210700 139435000 138986500 138631500
1390.43 138220700 137899700 137374500 136671800 135893200 135165700
1393.33 134806400 135215600 133962900 131951400 131032100 129401400
1396.22 127657300 126437400 125552400 124266400 123367300 123354300
1399.11 121945600 120195600 119413400 118872400 118569300 118284300
1402.00 118261500 118525000 118932900 119607200 120824000 122389000
1404.90 123241500 124106500 125448100 126850700 128517800 130435600
1407.79 132471800 134630000 137074200 139701100 142260400 144700400
1410.68 147181900 149618000 151961100 154254900 156529900 158713100
1413.58 160714100 162623600 164429200 166121400 167715400 169111200
1416.47 170665300 172142200 172554900 173114800 174768100 176603700
1419.36 173863000 170069900 168238100 166682800 165289600 163801600
1422.25 162638500 162198300 162602000 163154800 164137500 166123000
1425.15 168999600 172332700 175750000 179122200 182569400 185940000
1428.04 189009100 191662900 194355800 196507200 197062500 197268500
1430.93 197163700 196733100 196139000 195069100 193425600 191204400
1433.82 188987300 186819400 184785600 183133000 183300900 184112400
1436.72 180655400 177108900 175933000 175297700 175073300 175027300
1439.61 175152800 175187800 175054700 174966500 174743100 174192500
1442.50 173586800 173035900 172614400 172120700 171810600 171375900
1445.40 171054400 171230000 172010100 172701000 173645100 173131300
1448.29 171122400 169728300 169337100 169555400 170250300 171464000
1451.18 173420500 175850300 178767300 183058800 188747000 195910100
1454.07 204704300 215129700 226067200 236573300 245174400 244343900
1456.97 234382100 227247400 220974100 213118900 206160600 199770700
1459.86 193982300 187976600 181411100 174767700 168577400 162833200
1462.75 157091400 151938100 148515000 148263600 149214000 151921500
1465.64 156902500 160375600 161539000 160844400 158797700 156428700
1468.54 154864900 153766200 153023600 152697900 152839000 153894000
1471.43 155770200 154564200 152973900 154299100 152538500 149258300
1474.32 147318700 145394700 143923300 142140300 138366500 134337000
1477.21 130958300 127547300 123886100 120072100 116325200 112495600
1480.11 108684500 105139200 101383100 97429570 93832990 90432040
1483.00 87049790 83849570 80798350 77837400 75034240 72464540
1485.89 70098580 68401200 66968100 64117880 61504410 59913690
1488.79 58810640 57888820 56331960 55107130 53010860 50617360
1491.68 49325970 48149960 47156960 46109180 45301580 44339130
1494.57 43638840 43853510 46613990 45830010 41735460 40333900
1497.46 39914560 40790550 41101120 39209200 37930380 37449780
1500.36 37090300 36920340 36732340 36314120 35971430 35757270
1503.25 35576190 35520950 35900350 39062490 41827790 38921830
1506.14 40135340 42390430 38522540 36393410 36674550 36038360
1509.03 35989340 35859320 35145350 34785450 34744830 35670460
1511.93 36143050 34867120 34209790 34189720 34464490 34943100
1514.82 34842580 34595920 35301390 36057360 36841570 36426350
1517.71 34911440 34413990 34537560 35303910 36485420 37110610
1520.61 40334020 39246470 35509840 36132050 35239860 33670460
1523.50 33077880 33207240 34052330 35503040 34014190 32414970
1526.39 32430920 32799580 32185120 32188200 31924430 31152330
1529.28 30762210 30652540 30536100 30651230 30634740 30238010
1532.18 30442050 31443950 32103260 31490080 29361680 28685790
1535.07 28258360 28004890 27575570 27502240 27238490 27781110
1537.96 30008740 34835980 32796150 30809110 31729410 28087100
1540.85 26802540 29648160 29950240 26397090 25441890 24948150
1543.75 24489580 25382290 26474890 24684460 23309980 22814460
1546.64 22519240 22197360 22005640 21747760 21766220 22196630
1549.53 22423370 21765510 20819610 20500760 20243320 20066370
1552.43 19914770 20048620 21795760 23964080 21482040 19433160
1555.32 18993740 19020670 19366440 21792520 23300180 25827360
1558.21 26387980 21912560 23220220 26281670 22830830 18119220
1561.10 17375950 16895430 16964810 16697550 16624400 16382390
1564.00 16940840 17145750 16520450 15860970 15748870 15548410
1566.89 15493920 15246220 15443940 15879240 17166650 18232150
1569.78 16353450 14540190 14320680 14089720 14092140 13838600
1572.67 13885030 13634920 13634860 13543550 13975700 16385480
1575.57 21835140 19453650 14316660 13248970 12978600 12765890
1578.46 12563990 12520590 12452110 12389220 12276000 12131260
1581.35 12053930 11960810 11877400 11822400 11768650 11586780
1584.25 11486120 11418530 11339040 11198740 11076220 10992370
1587.14 10876250 10719070 10725020 10646640 10584280 10436250
1590.03 10269810 10168460 10116190 9929272 9845318 9738420
1592.92 9624664 9564920 9645272 9496470 9378052 9232972
1595.82 9135496 9041638 8901544 8763500 8735692 8656546
1598.71 8632852 8504636 8450850 8378394 8431960 8300990
1601.60 8170660 8133254 8260250 8223134 8107192 7983598
1604.49 7951944 7848304 7823242 7785250 7897080 7820252
1607.39 7648314 7547520 7649952 7764254 7652400 7377320
1610.28 7345762 7258836 7310234 7141254 7148196 7107942
1613.17 7209550 7056328 7098404 7063686 7461972 9440920
1616.07 14555790 13197950 8273770 7170862 6983682 7034862
1618.96 7010070 7085334 7077870 7110506 7098270 7275284
1621.85 7509358 7977370 9515206 9667462 7761898 7284680
1624.74 7238974 7365874 7278568 7322380 7623380 8679918
1627.64 8547276 7680962 7344788 7334718 7354208 7408336
1630.53 7352630 7383122 7370286 7439678 7425334 7502178
1633.42 7637402 8527018 10664580 13849250 13719830 9492698
1636.31 8173894 8800786 8892432 8078678 7941084 7910738
1639.21 8094838 8200678 8255642 8169600 8317310 8334216
1642.10 8475506 8436572 8527410 8624380 8896222 9102658
1644.99 11579620 14591400 12016430 10010460 10880010 10659110
1647.89 10465930 9368086 8943428 8778160 8933080 8792266
1650.78 9152602 11245040 17283740 19355290 20088900 16259310
1653.67 12512050 12642010 10620510 9905036 9811932 10059020
1656.56 9994856 10252700 10272760 10485290 10492900 10718790
1659.46 10821000 11147710 11372910 11842090 12142350 13618760
1662.35 15059040 13751940 12628750 12552460 12575660 12852700
1665.24 12931800 13164700 13311370 13625580 13907860 14639720
1668.13 15570650 18137320 18542760 16432070 15958040 16850750
1671.03 17943900 17524530 17315590 17564260 17900670 18434680
1673.92 19496690 22585290 24626740 22473840 21150720 21411140
1676.81 21974890 22639560 23354900 24032300 24908940 25990380
1679.71 26986870 27732790 28135070 28916290 29882190 31682440
1682.60 34232840 35558070 37277130 43358090 45597120 39836800
1685.49 38323080 39106830 40373950 41509220 43138210 44456780
1688.38 45607980 46757120 48654010 50063350 51257890 52534660
1691.28 54207200 55689230 57425740 59149220 61145310 62858660
1694.17 65227920 69286020 77424000 80186410 76223610 76613430
1697.06 79276420 81829510 84730130 88516530 95102260 102787000
1699.95 106819000 108686100 109673700 113145700 118054700 123359700
1702.85 128660500 134644300 141502700 147270200 152576800 159464900
1705.74 167243200 173988900 180500900 188028700 196127800 204835000
1708.63 213890100 223609600 233692800 244110900 254911500 266409600
1711.53 278457400 291125200 304276300 318197600 333017200 348150300
1714.42 364703700 381286200 397016800 414839600 435465800 458810900
1717.31 476565800 495020600 516857900 537751700 560084400 583862300
1720.20 608364700 633460300 659202600 685269600 711894700 739439500
1723.10 767205100 794606700 822285600 850077400 877877500 905767800
1725.99 933591600 960812200 987659300 1013928000 1039306000 1063169000
1728.88 1086161000 1107999000 1127101000 1143143000 1156806000 1167276000
1731.77 1174097000 1178638000 1181938000 1177590000 1169179000 1157292000
1734.67 1136556000 1113398000 1089598000 1065729000 1042895000 1022578000
1737.56 1006416000 997077000 996272300 1004967000 1021328000 1043811000
1740.45 1073564000 1107800000 1142751000 1175887000 1204956000 1227824000
1743.34 1243692000 1253429000 1257471000 1256375000 1250430000 1239220000
1746.24 1223942000 1205690000 1184244000 1160683000 1135002000 1106773000
1749.13 1076692000 1045877000 1015485000 985730100 953517400 919296800
1752.02 886369500 853742000 821468200 789596200 758367100 727796100
1754.92 697599700 668410400 640891200 614018900 586528900 560229500
1757.81 535428900 511500500 488319800 465935700 444122800 423310100
1760.70 403781800 385897600 366676100 347114100 329400300 312678300
1763.59 296681000 281385100 266940500 253067100 239833000 227253800
1766.49 215392700 204434000 195099100 184738500 173504900 164027200
1769.38 155403800 147521100 140734600 134489800 127239600 122741900
1772.27 118929300 110681900 103597800 98497860 93754180 89533000
1775.16 85662260 81460540 77492340 74002310 70687740 67593740
1778.06 64637830 61836280 59197560 56871290 55002760 52636250
1780.95 49877690 47722240 45710520 43836740 41991810 40363560
1783.84 38918840 38060820 36225280 34036770 32446570 31035560
1786.74 29745690 28511350 27279520 26192260 25232670 24515360
1789.63 24009580 23711660 22770040 21132110 21023620 22963800
1792.52 22361080 20522640 20232910 20146910 20003760 19707020
1795.41 19440180 18804930 18071840 17430410 16961910 16574800
1798.31 16320300 16657630 16614380 15592460 15133050 15138680
1801.20 14761860 14433650 14211400 13566480 13208690 12839190
1804.09 12593400 12336920 12066910 11721400 11417340 10977630
1806.98 10738270 10352750 9871090 9444860 9100370 8831254
1809.88 8941720 8634240 7828136 7384972 7191210 6882530
1812.77 6550982 6217600 5971468 5832406 5653510 5418086
1815.66 5207828 5005592 4992484 4810038 4495012 4346158
1818.56 4238126 4077092 3938336 3875886 3851462 3816606
1821.45 3765078 3702268 3634128 3419534 3403058 3535932
1824.34 4289212 4779764 3809082 3205334 3147346 3112398
1827.23 3056412 3057764 3346850 3748076 4205432 4869854
1830.13 3952878 3152200 3022262 3008018 3039050 3103970
1833.02 3140556 3016464 2955380 2944466 3040876 3052466
1835.91 3018702 3187154 3229386 3042062 3041598 3092738
1838.80 3153794 3149312 3153004 3107908 3182144 3309642
1841.70 3412478 3316276 3474908 4643148 6916286 5881916
1844.59 3841818 3493210 3417702 3489994 3536634 3801316
1847.48 3871170 3667128 3581716 3598886 3656976 3753690
1850.38 3807510 3881880 3969620 3959010 3889228 3916828
1853.27 4001204 4085226 4101896 4117200 4163676 4262212
1856.16 4337916 4377692 4434704 4494584 4611728 4688526
1859.05 4703288 4738026 4763212 4790386 4815534 4831886
1861.95 4872712 4933026 5034318 5085660 5145228 5224374
1864.84 5289652 5399078 5602898 5601822 5666060 6075606
1867.73 6163378 6280604 7295224 6967714 5949042 5762048
1870.62 5756154 5803796 5839652 5881624 5923692 5977428
1873.52 6036618 6129542 6169242 6202690 6215976 6267224
1876.41 6355660 6413780 6404508 6394056 6397876 6376794
1879.30 6321370 6303420 6309898 6347560 6359054 6262008
1882.20 6216832 6261668 6334214 6417462 6444940 6340820
1885.09 6280368 6371776 6420642 6339388 6351210 6389132
1887.98 6354554 6551254 7145536 6913460 6306206 6142462
1890.87 6102428 6072752 6040662 6074068 5987534 5882236
1893.77 5763970 5828530 5911392 5694550 5465150 5308874
1896.66 5199328 5178518 5110030 5080224 5004544 4975178
1899.55 4900016 4824236 4756672 4712654 4688566 4604252
1902.44 4454088 4382764 4356038 4350384 4321738 4248446
1905.34 4098980 3980150 3942054 3954428 4003876 3934866
1908.23 3801466 3828074 3968626 3950380 3735366 3662506
1911.12 3598270 3589124 3509240 3449660 3380930 3360218
1914.02 3377404 3369312 3282994 3276814 3199266 3187902
1916.91 3588042 4555146 4192488 3275024 3105838 3060452
1919.80 3059614 3035700 3068754 3138006 3237466 3314054
1922.69 3410164 3150194 3002700 2958006 2934902 2932468
1925.59 2879616 2856244 2908266 2855808 2838324 2877734
1928.48 2888486 2875406 2787074 2679792 2658346 2663750
1931.37 2701246 2690632 2639220 2634302 2632572 2619512
1934.26 2562142 2489522 2465440 2425628 2470170 2490032
1937.16 2474422 2485688 2516452 2518754 2481016 2459552
1940.05 2432286 2476884 2553042 2774772 3196140 2926874
1942.94 2534028 2512864 2483792 2491812 2470084 2425886
1945.84 2413606 2297368 2251022 2281590 2232358 2210322
1948.73 2222446 2192550 2093336 2045882 1965070 1944826
1951.62 1999670 2001650 1925202 1939774 1964174 2022150
1954.51 2050670 1948946 1826810 1743146 1675496 1645048
1957.41 1643226 1633672 1588172 1611776 1644628 1600692
1960.30 1642470 1628220 1522200 1565612 1513916 1458856
1963.19 1398922 1356046 1302504 1274006 1316442 1381228
1966.08 1312878 1366674 1471114 1261214 1142942 1112474
1968.98 1098240 1045040 970980 922870 925450 884904
1971.87 833118 847700 887590 832948 671036 813234
1974.76 1048028 1045172 984404 912660 966076 999606
1977.66 1027614 1069600 1081738 1079180 1127794 1141248
1980.55 1183578 1205668 1211696 1281928 1351012 1300546
1983.44 1262026 1313668 1354510 1314906 1288940 1294888
1986.33 1269512 1267152 1314150 1359152 1356238 1291230
1989.23 1255708 1252572 1323132 1460610 1714996 1749576
1992.12 1515516 1430948 1415582 1385908 1335508 1327178
1995.01 1423950 1483108 1467100 1504372 1501834 1527154
1997.90 1493360 1477184 1514732 1518662 1445932 1395100
2000.80 1393372 1378656 1329986 1277084 1244492 1245196
2003.69 1199276 1131508 1109072 1079232 988220 948684
2006.58 950968 947826 918010 857206 770146 759708
2009.48 782642 745046 691838 685432 663482 654222
2012.37 663192 628582 598990 557418 514130 555256
2015.26 564652 599126 757112 672608 497198 487446
2018.15 521904 510400 400364 325188 353000 394010
2021.05 367454 403436 379450 304198 246390 236260
2023.94 276030 280976 266364 291178 268390 206808
2026.83 210860 264774 228442 209246 238860 263166
2029.72 245852 225956 194450 148132 171178 267494
2032.62 301524 285762 309470 314618 304126 307066
2035.51 262894 239292 280960 315868 316224 312268
2038.40 319600 314686 326518 383426 428580 469090
2041.29 393960 344724 327260 328386 344402 371234
2044.19 374878 369646 375306 356514 362672 354334
2047.08 380822 424468 416318 435818 481772 438474
2049.97 404810 422748 498082 514642 515914 567176
2052.87 550950 525568 518340 514220 528732 565010
2055.76 621330 680328 635256 652246 719486 733438
2058.65 704954 700696 733186 789858 820168 868376
2061.54 882412 849816 823396 873888 999752 1111220
2064.44 1202858 1159778 1069648 1039224 1105844 1120376
2067.33 1130758 1165884 1232584 1293408 1304694 1253940
2070.22 1254566 1315514 1373496 1478968 1564448 1631308
2073.11 1673372 1695370 1708846 1734466 1795602 1870436
2076.01 1907692 1925610 1941522 2030974 2140464 2218662
2078.90 2245636 2270908 2353604 2408144 2428914 2538252
2081.79 2622984 2682360 2755478 2861826 2946694 3049458
2084.69 3099564 3145940 3259466 3291602 3377884 3500540
2087.58 3615468 3695120 3774330 3877334 3998730 4074286
2090.47 4088758 4182666 4288482 4353894 4405052 4480990
2093.36 4630754 4721636 4758886 4811644 4893356 5010284
2096.26 5143422 5219860 5246652 5298072 5479696 5603616
2099.15 5647144 5695770 5773710 5812882 5863436 5945380
2102.04 6020984 6103784 6174812 6252624 6331648 6405722
2104.93 6513666 6552100 6571716 6658572 6719154 6762554
2107.83 6833476 6901676 6941100 7087328 7173904 7193932
2110.72 7200396 7254594 7309838 7423798 7530904 7522170
2113.61 7550048 7625118 7619790 7590654 7583164 7582570
2116.51 7583314 7637748 7570380 7468260 7397734 7273928
2119.40 7142190 7013202 6945704 6952542 6913762 6805898
2122.29 6687482 6744058 6742304 6629990 6544862 6539204
2125.18 6581356 6590874 6557620 6423958 6266686 6160184
2128.08 6050546 5932866 5816168 5718482 5623642 5529418
2130.97 5433068 5381900 5353608 5203620 5003332 4877074
2133.86 4743660 4635232 4535800 4418334 4259622 4083408
2136.75 3963664 3792340 3607818 3508038 3385188 3233038
2139.65 3099110 2989932 2847616 2723568 2610404 2536888
2142.54 2481246 2389720 2282892 2212898 2174304 2092238
2145.43 2040660 1994368 1922602 1835664 1833422 1816870
2148.33 1800208 1797562 1766010 1700800 1598006 1572946
2151.22 1591424 1561834 1552490 1511666 1441962 1475730
2154.11 1443808 1451020 1483016 1502700 1572808 1603642
2157.00 1520428 1459178 1484180 1495472 1507818 1503136
2159.90 1434608 1420836 1460424 1492416 1469404 1453420
2162.79 1445342 1395330 1405702 1507450 1556048 1542536
2165.68 1525960 1593322 1599936 1631184 1613302 1554428
2168.57 1573196 1580866 1603952 1625180 1641788 1629020
2171.47 1582110 1581718 1528844 1516908 1491670 1478316
2174.36 1415030 1376742 1359388 1311364 1285028 1238586
2177.25 1229720 1243494 1204810 1171926 1085040 1047490
2180.15 1068306 981320 910340 961266 961942 936574
2183.04 881578 853626 811602 798278 749688 694536
2185.93 636468 611356 619838 571374 533576 561050
2188.82 546218 514960 477784 424644 427000 393064
2191.72 322874 271218 250732 293766 251610 158040
2194.61 146368 146570 135622 153558 93068 98220
2197.50 89682 84362 71314 60846 47110 74922
2200.39 91918 5096-65602-60474-73200-82490
2203.29-42346-56480-83388-83490-81312-79332
2206.18-85272-52232-34546-58456-89886-100330
2209.07-70880-36824-13530-40868-92246-45728
2211.97 5058 10692 18374 53598 35830 21934
2214.86 3792-39266-63580-33524-56828-96706
2217.75-138804-169202-130152-42886-53890-135606
2220.64-159216-133784-123836-126004-132742-150106
2223.54-126726-84614-119536-154036-148262-147672
2226.43-115192-143856-177288-191136-225126-234406
2229.32-220478-214174-220208-204752-234660-250342
2232.21-219830-227728-216924-241782-253520-276672
2235.11-313170-289924-299596-287342-309000-291932
2238.00-284482-297282-335044-388542-345728-297170
2240.89-281510-255208-268572-314820-346294-311654
2243.79-270088-277162-287348-259130-329556-350814
2246.68-299510-283796-286236-247520-202416-206766
2249.57-197352-209924-251050-233654-187658-149754
2252.46-114454-100358-131468-167618-143834-98448
2255.36-73944-46890-902 61176 9300 6820
2258.25 33890 77384 93216 64550 109302 223932
2261.14 277258 265166 283794 277214 322566 398456
2264.03 465924 441194 441428 490134 524030 615476
2266.93 695482 698998 738270 783884 822330 891796
2269.82 885752 934816 1042590 1097454 1106860 1183128
2272.71 1264660 1235946 1227094 1294292 1411600 1505780
2275.61 1537658 1614832 1678722 1690538 1729064 1805564
2278.50 1862814 1904368 1959810 1949036 2086396 2194010
2281.39 2161110 2199654 2340166 2428954 2446964 2472476
2284.28 2537324 2580768 2598138 2647138 2667060 2665782
2287.18 2702070 2768570 2791024 2856378 2913076 2915828
2290.07 2849494 2852962 2914468 2994884 3051780 3059398
2292.96 3040336 3077542 3080164 3100622 3147504 3205168
2295.85 3221746 3201036 3124108 3113746 3143150 3085296
2298.75 3026192 3047586 3016344 3061104 3109686 3017216
2301.64 2982906 3006166 2926148 2847760 2779306 2769614
2304.53 2771152 2759656 2792174 2849716 2845738 2761352
2307.43 2688936 2724998 2778198 2706890 2593648 2583878
2310.32 2666908 2689144 2571408 2561688 2633122 2701412
2313.21 2480590 2416400 2483360 2591756 2415892 2331518
2316.10 2400964 2568200 2368140 2131558 2190496 2465954
2319.00 2327712 2019642 2017530 2413058 2399858 2071308
2321.89 2060628 2425674 2341062 1899520 1916730 2446506
2324.78 2404388 1860162 1925654 2529718 2391438 1845980
2327.67 2156754 2667376 2249050 1694122 2153276 2682902
2330.57 2124806 1738360 2393372 2625604 1925544 1849546
2333.46 2642096 2585558 1829948 2054442 2706072 2279660
2336.35 1814982 2418568 2648444 1944110 2007158 2712684
2339.24 2362808 1770690 2280604 2607376 2008778 1963058
2342.14 2474714 2182560 1799912 2184756 2264698 1840202
2345.03 1860850 2090538 1933556 1788416 1881658 1876542
2347.92 1782814 1733212 1726568 1830130 1802492 1862016
2350.82 2115600 2064788 1981970 2349734 2336394 2087256
2353.71 2587312 2686324 2319408 2804520 2811554 2364398
2356.60 2960794 2948786 2489830 3133930 3040022 2666282
2359.49 3339438 3033962 2865718 3519234 2948596 2954172
2362.39 3528502 2978048 3277734 3329232 2800180 3307422
2365.28 3002366 2866554 3198058 2790866 3122350 3079028
2368.17 2834092 3068744 2735048 2890412 2719222 2554602
2371.06 2732286 2533936 2659682 2524840 2548894 2448696
2373.96 2378692 2411552 2272064 2328976 2237742 2200600
2376.85 2174360 2164462 2097850 2089046 2043920 2041268
2379.74 2020734 1972432 1990386 1966222 1877746 1874456
2382.64 1886528 1836278 1759092 1744076 1765204 1746172
2385.53 1672078 1697414 1694328 1605134 1557878 1492200
2388.42 1423224 1345900 1314436 1302022 1262758 1241196
2391.31 1273030 1326524 1324586 1243446 1201016 1154198
2394.21 1067958 1051796 1084152 1089490 1039006 1038030
2397.10 1044758 1080830 1116612 1086090 1044626 996330
2399.99 983594 937608 915384 923592 946462 1011486
2402.88 1025948 1010032 1031862 988918 932666 934334
2405.78 878778 822380 908352 962934 917316 863448
2408.67 819362 819534 818292 813586 799182 728328
2411.56 701970 754388 807178 747084 719000 708432
2414.46 706110 698058 661284 662270 710330 645882
2417.35 561272 584274 694636 686668 547526 477640
2420.24 540580 620720 687826 711166 603180 546290
2423.13 618482 699984 654466 573052 573502 580050
2426.03 575978 545526 489388 495494 526202 482396
2428.92 415724 450114 501992 501496 479562 485484
2431.81 467226 454396 419686 459894 476800 422250
2434.70 411696 422988 426200 378674 367586 357556
2437.60 382384 405156 478566 485858 451644 395368
2440.49 431172 500718 451580 414462 478062 523874
2443.38 437272 392186 427960 476264 498530 490926
2446.28 479460 426948 374268 380578 437532 459186
2449.17 455840 413388 455426 463560 471904 551076
2452.06 599446 656570 712312 715188 751078 757786
2454.95 734706 686478 736224 762446 748644 819252
2457.85 825658 870946 943300 926162 963108 1016974
2460.74 971514 934832 903712 890570 983626 1019444
2463.63 1058516 1070020 1092998 1080022 1035014 1067418
2466.52 1105844 1061970 1010838 1023408 1016854 980950
2469.42 999184 1043030 1038832 1042576 1115946 1133862
2472.31 1111596 1089804 1118750 1207780 1260358 1279396
2475.20 1352992 1337684 1283984 1254108 1230500 1304642
2478.10 1327852 1264562 1261458 1271720 1234600 1214504
2480.99 1173228 1129530 1038428 959478 949476 993636
2483.88 988138 966074 915670 930138 940270 881178
2486.77 907574 866096 880456 881842 852394 909146
2489.67 961680 982128 946184 954256 995970 988082
2492.56 942604 996170 1120950 1106044 1138294 1204204
2495.45 1238262 1233266 1351742 1439072 1403714 1410552
2498.34 1539494 1563358 1545378 1578954 1626578 1631722
2501.24 1712626 1790524 1786016 1749486 1847222 1974568
2504.13 1990526 2023478 2058454 1997544 2024820 2152396
2507.02 2177388 2195060 2218818 2263534 2322706 2246080
2509.92 2262830 2393636 2430264 2391206 2398782 2483326
2512.81 2522310 2511072 2469026 2521638 2637980 2627796
2515.70 2587714 2684866 2809694 2788742 2720272 2721080
2518.59 2746932 2733068 2702852 2662902 2632412 2578530
2521.49 2519394 2545826 2595100 2579734 2436948 2358644
2524.38 2393726 2384128 2317696 2234022 2191058 2141452
2527.27 2173120 2220242 2161096 2059670 2056894 2016810
2530.16 1974154 1943054 1884482 1848702 1823456 1765842
2533.06 1697622 1693660 1718132 1698578 1595126 1501964
2535.95 1461214 1460202 1445456 1399638 1300786 1330776
2538.84 1385944 1316246 1209128 1176754 1171388 1083896
2541.74 1090466 1116762 1052556 997760 979134 959642
2544.63 936918 901922 779392 729362 741604 749712
2547.52 799704 868522 841148 754342 682502 700988
2550.41 771898 723068 685314 731698 743436 689682
2553.31 677986 693764 682650 691800 746910 754358
2556.20 760690 756296 751146 729472 644768 612502
2559.09 651112 643372 632598 650930 643510 621848
2561.98 628940 571612 547902 599780 585608 586416
2564.88 541578 530656 541610 478632 438246 500342
2567.77 502066 509864 554946 549886 502292 486960
2570.66 455628 432938 437536 488170 469044 386948
2573.56 407824 425816 371418 326892 298648 351726
2576.45 306702 281250 247590 201388 209490 218886
2579.34 205728 213310 163306 149094 209974 210376
2582.23 131932 160104 165802 140676 154934 123996
2585.13 140614 165400 128462 102948 58416 34878
2588.02 47240 102056 182646 179278 137094 183592
2590.91 240842 216982 130296 112130 195940 233782
2593.80 164458 117044 175116 170848 140418 129948
2596.70 175548 234200 251488 209464 237698 257624
2599.59 245784 280676 327132 359782 297158 234742
2602.48 259082 267814 209954 220226 261090 278324
2605.37 300590 288386 282248 287232 310932 342846
2608.27 348842 333312 323498 433642 433566 358706
2611.16 366582 374842 356902 353064 358920 371432
2614.05 429466 447856 303184 308938 372750 412466
2616.95 434960 402366 378560 370950 394998 458280
2619.84 459722 407416 390880 316160 317786 432666
2622.73 405876 369132 358202 342154 317722 317766
2625.62 380656 346664 283132 285180 284940 288142
2628.52 262784 228214 246872 226386 250894 217062
2631.41 228616 241914 261298 251590 195116 211794
2634.30 200258 197974 240716 297654 255700 135708
2637.19 118656 184728 203950 240772 299574 246184
2640.09 185954 194272 169706 220884 228544 159106
2642.98 205958 289168 318980 292894 276156 271574
2645.87 283434 303642 330240 368428 428966 444806
2648.77 434156 451824 474782 487076 514386 554718
2651.66 578836 531866 570654 652764 699030 799534
2654.55 827268 827030 837194 887682 868168 886724
2657.44 985946 1021370 1011984 1098906 1129374 1164122
2660.34 1203300 1254484 1327202 1360864 1410156 1418358
2663.23 1420388 1478226 1511560 1592132 1644730 1646778
2666.12 1660848 1681928 1700008 1792312 1839518 1823952
2669.01 1909864 2014704 1921476 1923032 1948534 1940638
2671.91 1967368 2002538 2054148 2110392 2080682 2069568
2674.80 2097794 2060372 1973290 2102412 2215980 2160878
2677.69 2135960 2102360 2034376 2108350 2119880 2112084
2680.59 2074484 2076146 2068614 2109066 2133678 2102992
2683.48 2137574 2163372 2129042 2134580 2116864 2078718
2686.37 2079722 2085776 2103110 2074408 2030452 2047746
2689.26 2014898 1959814 2004750 1958308 1954814 1979152
2692.16 1970482 1998508 1941006 1824038 1816328 1776676
2695.05 1735944 1667344 1739888 1812114 1779000 1762132
2697.94 1810388 1799734 1740594 1729456 1684822 1729494
2700.83 1843298 1861658 1797368 1770858 1733590 1793930
2703.73 1810140 1737302 1728358 1772104 1777332 1790408
2706.62 1768100 1758996 1878990 1882218 1784232 1841148
2709.51 1893882 1870536 1943132 1989008 1943576 1839854
2712.41 1798328 1815354 1891542 1973248 2038564 2068288
2715.30 2087146 2141464 2172502 2154840 2185524 2191402
2718.19 2226552 2230474 2180040 2205046 2276048 2305642
2721.08 2282028 2268736 2294968 2341852 2357822 2394624
2723.98 2436190 2423878 2431058 2489008 2584756 2591112
2726.87 2623180 2710892 2721458 2757948 2841606 2915014
2729.76 2974382 3013014 3025434 3079598 3163468 3289702
2732.65 3403040 3504196 3622900 3655458 3679394 3744022
2735.55 3884820 4004016 4089104 4112432 4138826 4275690
2738.44 4429684 4424572 4441174 4560008 4686310 4792010
2741.33 4866566 4966602 5027152 5121188 5310468 5396050
2744.23 5398500 5437706 5500524 5572260 5582108 5637044
2747.12 5682658 5624508 5608934 5679736 5751762 5827206
2750.01 5933340 6048684 6138056 6162410 6044884 5981406
2752.90 5973932 6058442 6090460 6109586 6144554 6150082
2755.80 6192126 6209986 6161090 6114144 6143406 6214368
2758.69 6199624 6182142 6287352 6224942 6139462 6104712
2761.58 5989404 5901630 5875948 5726104 5645374 5565206
2764.47 5471382 5361338 5255752 5228644 5190114 5126398
2767.37 5050962 4930512 4896350 4790986 4684222 4706090
2770.26 4814108 4766940 4693236 4771514 4798978 4756894
2773.15 4746162 4807172 4917036 4883730 4933774 5036798
2776.05 5035898 5068352 5183944 5246308 5334222 5451234
2778.94 5565772 5650350 5764278 5852152 5927330 6088956
2781.83 6144960 6179452 6319844 6477474 6677494 6744636
2784.72 6866580 7049674 7284068 7452226 7569736 7765098
2787.62 7996648 8239532 8426808 8694354 8878322 9062300
2790.51 9306760 9600266 9996744 10233250 10501440 10868130
2793.40 11157140 11362390 11577710 11879480 12136150 12319310
2796.29 12533140 12731930 12917950 13054480 13238890 13559110
2799.19 13868470 14188230 14350890 14521670 14809750 15134880
2802.08 15375060 15571710 15824890 16103790 16462380 16769290
2804.97 17044400 17446390 17903130 18260090 18570790 18971360
2807.87 19444930 19859490 20196690 20608570 20938530 21269220
2810.76 21664440 22062440 22489950 22939610 23366420 23745110
2813.65 24043640 24446220 24831110 25128120 25285450 25543660
2816.54 25754460 25979780 26184030 26246010 26375500 26521260
2819.44 26563900 26638550 26787510 27001540 27231230 27395250
2822.33 27556900 27713880 27842620 28074650 28253280 28501680
2825.22 28874070 29151210 29352480 29458000 29538850 29768180
2828.11 30188060 30455550 30558060 30777040 31060560 31242300
2831.01 31457780 31726740 32056230 32286660 32530510 32811390
2833.90 33070290 33343600 33608710 33796720 33988280 34039300
2836.79 33976720 33992000 33971840 33881390 33700180 33520100
2839.69 33427600 33312800 33140770 33055070 32935000 32741940
2842.58 32648430 32593280 32623540 32556900 32475260 32541600
2845.47 32734240 32721260 32591480 32644950 32696070 32641660
2848.36 32611170 32499740 32461260 32543780 32562450 32486700
2851.26 32459110 32454960 32472370 32535060 32586670 32710710
2854.15 32732030 32761610 32855360 32985500 33102130 33144590
2857.04 33164850 33271480 33293260 33439480 33565520 33656450
2859.93 33732350 33732440 33795310 34053060 34256920 34507290
2862.83 34809940 35026340 35192870 35565100 35860100 36190340
2865.72 36736810 37264360 37757020 38472520 39332830 40178520
2868.61 41208110 42240440 43336970 44674230 46153830 47877750
2871.51 49801080 51886970 54089160 56471520 59018520 61818360
2874.40 64818620 67976630 71415810 75143990 78963310 82849020
2877.29 86811060 90697900 94734610 98899950 102887900 106632800
2880.18 110502600 114129700 117331500 120471500 123166500 125439200
2883.08 127294600 128596500 129771600 130796900 131458800 132232300
2885.97 133253900 134745700 136645000 138974000 142135200 146196000
2888.86 151321400 157377200 164467300 172810600 180405100 185242000
2891.75 188196400 190182800 190918000 191833400 194094900 197371800
2894.65 201178600 205520600 210230000 214884500 219441600 223646700
2897.54 227205200 230334500 233011600 235124300 236845500 238446700
2900.43 239782400 240548100 241004200 241721000 242651100 243465300
2903.32 244052000 244679700 245017400 245081200 245255800 245761400
2906.22 246521500 247652600 249046200 250478300 252017500 253669300
2909.11 255465500 257233600 258823000 260432600 261890800 263265300
2912.00 264837600 266686900 268796100 271926100 276562100 283417900
2914.90 293405200 304944400 312902600 314609600 312686000 309156200
2917.79 304033300 297406400 290351200 284162800 279640200 276051300
2920.68 273363400 270684000 268003600 265386200 262927400 260448800
2923.57 257802100 255267800 252831200 250360900 248032300 245640200
2926.47 243146500 240845400 238494000 236343400 234587700 233281000
2929.36 232163200 231440700 231032200 230866100 231251500 232086900
2932.25 233113100 234600900 236889900 239799400 243065300 246778400
2935.14 250841500 254872500 259090200 263476900 267964500 272026800
2938.04 275740100 279395500 282727100 285546000 287640900 288869400
2940.93 289196500 288612300 287316500 285330700 282258000 278458100
2943.82 274467800 270083100 265558500 261413400 257826000 255371700
2946.72 255170700 258554500 267973300 287771900 309246700 312549200
2949.61 300962800 287607700 276998800 268805800 262909600 259288800
2952.50 257948200 258225100 260045300 262870000 266481000 270450900
2955.39 274534800 278566000 282302100 285475300 288044500 289927200
2958.29 291026500 291358500 290983400 290213800 288920100 287145700
2961.18 284908600 281653600 278068900 275353100 273100500 271208500
2964.07 269743600 269088200 269456400 270687500 272805700 276137600
2966.96 280333900 284612900 288648300 292264500 294769700 296214000
2969.86 297134600 298337200 300315100 302847300 306571900 311533200
2972.75 317012900 322676000 328693600 335041900 341492100 347959400
2975.64 354171100 360335200 366537200 372241300 377900500 383585400
2978.54 388697700 393593900 398577200 403199400 407386600 411497500
2981.43 415767800 419723800 422967400 426288500 429765800 432659100
2984.32 434736400 435645600 435068600 433484300 430566600 426830700
2987.21 423684500 423090300 426747600 434634800 445148000 460638900
2990.11 488758900 536220200 596937000 637167200 614069000 545552800
2993.00 487322100 454993500 439091300 430912800 426177600 422665000
2995.89 419061200 414685600 409595000 403932000 397619300 390570400
2998.78 383141600 375450800 367349600 359381200 351626200 343772300
3001.68 335797100 327770700 319965300 312232500 304747200 297180100
3004.57 289642500 282224600 274857600 267301400 259869000 252587000
3007.46 245135800 237573300 230270900 223299100 216404000 209828500
3010.36 203737500 198306500 193990200 190529900 188167600 186941900
3013.25 185411100 181327200 173849400 165303500 157824400 151687400
3016.14 146755100 142876700 139864200 137227600 134797100 132499800
3019.03 130422200 128382500 126294800 124228200 122115200 119788100
3021.93 117252200 114639000 111972600 109250300 106415600 103573900
3024.82 100697000 97664010 94692360 91914260 89046500 86093480
3027.71 83228990 80422790 77823680 75366180 72956770 70695100
3030.60 68573710 66478830 64475140 62584520 60828300 59165350
3033.50 57796270 56574820 55365420 54300240 53281450 52291210
3036.39 51462560 50663650 50007780 49371130 48761960 48286220
3039.28 47794120 47371680 47004020 46506860 46150480 45761250
3042.18 45483840 45375920 45073100 44566510 44194740 43843440
3045.07 43631520 43459050 43245430 43004940 42808780 42575960
3047.96 42318850 42057910 41969500 41826240 41728220 41568050
3050.85 41297510 40963600 40747440 40532930 40325070 40151150
3053.75 39970160 39742090 39568550 39351930 39140880 38802860
3056.64 38602860 38412940 38123860 37854080 37650260 37337140
3059.53 37099910 36995930 36776710 36537460 36305340 36083860
3062.42 35853830 35580440 35292070 35070530 34815120 34657040
3065.32 34334270 33919430 33596230 33356460 33158300 32852320
3068.21 32488140 32288160 32023630 31739010 31405580 31063190
3071.10 30811820 30673930 30399160 30072380 29649710 29277950
3074.00 28891850 28571230 28333200 27961730 27665010 27330320
3076.89 26795880 26429640 26293720 26036850 25634030 25207900
3079.78 24719220 24423380 24145870 23755380 23380860 23140560
3082.67 22738340 22324270 22000100 21719660 21342000 20975040
3085.57 20728860 20346490 19974560 19702320 19488920 19251850
3088.46 18915520 18530460 18104230 17708180 17571970 17407160
3091.35 17098500 16773490 16633520 16457930 16077960 15642890
3094.24 15444180 15358310 15215740 14971080 14666720 14511130
3097.14 14364240 14131850 13882980 13742230 13717740 13513910
3100.03 13335420 13084250 12784130 12619520 12534950 12399030
3102.92 12304690 12110760 11924990 11858070 11626100 11422250
3105.82 11238440 10911650 10869290 10834230 10681780 10565200
3108.71 10557260 10350410 10078170 10072290 9970452 9792132
3111.60 9681522 9602582 9488878 9291576 9008830 8842442
3114.49 8610244 8507236 8643888 8423412 8070270 8049006
3117.39 7995644 7825866 7681576 7552938 7371100 7052590
3120.28 6913452 6967104 6954204 6843950 6785612 6728008
3123.17 6442788 6459756 6435632 6214424 6146218 6136208
3126.06 5975758 5972490 5913456 5794186 5731140 5714670
3128.96 5638940 5550050 5556334 5614718 5544324 5430750
3131.85 5448038 5441934 5298212 5233952 5241038 5164224
3134.74 5079276 4972546 5055398 5111872 5021474 4880810
3137.64 4900186 4935384 4835190 4822998 4918560 5054016
3140.53 5031104 4906256 4781538 4792898 4809802 4863810
3143.42 4872156 4796644 4863636 5000178 5156586 5133620
3146.31 4997146 4966316 5003946 4963736 4935866 4977848
3149.21 4964274 4943668 4881376 4965454 5077390 5091256
3152.10 5218238 5362026 5414310 5429496 5375116 5262982
3154.99 5206252 5179302 5190562 5302078 5472992 5412036
3157.88 5324068 5436834 5507432 5608946 5738916 5663468
3160.78 5548392 5659792 5817286 5760612 5793588 5959184
3163.67 5982958 6017162 6060156 6041214 6142846 6239338
3166.56 6353152 6334852 6352234 6490382 6610968 6695924
3169.46 6847998 6826388 6721728 6750468 6740694 6473868
3172.35 6370714 6323838 6312420 6364630 6365680 6285496
3175.24 6167806 6192172 6266940 6293876 6311702 6287378
3178.13 6322122 6387230 6450044 6498962 6431144 6355770
3181.03 6421426 6399528 6510010 6712910 6833920 6935266
3183.92 7055050 7241524 7297614 7116228 6889016 6629168
3186.81 6239288 6038622 5766806 5497090 5325714 5310478
3189.70 5155114 4928742 4831404 4843930 4804504 4753082
3192.60 4643856 4651836 4526094 4304574 4250556 4252742
3195.49 4265768 4171774 4099918 3985936 3911458 3827480
3198.38 3708578 3520382 3489318 3593500 3533464 3371908
3201.27 3292206 3222648 3175192 3018948 2874000 2719482
3204.17 2614446 2552668 2487592 2301620 2138592 2066938
3207.06 2085046 2139478 2043060 1970186 1985064 1940674
3209.95 1812882 1753232 1602262 1443922 1502266 1516388
3212.85 1533304 1498026 1417714 1328314 1321128 1360838
3215.74 1348324 1347072 1299048 1172388 1134524 1126646
3218.63 1087040 1056440 983004 907780 1032976 1143702
3221.52 1043554 1046840 1104504 1100496 1095554 1135696
3224.42 1185222 1140530 1124472 1189906 1240172 1345828
3227.31 1287520 1166734 1262132 1399940 1375806 1403620
3230.20 1456962 1443526 1343052 1391174 1470508 1335546
3233.09 1248656 1412000 1399194 1268148 1234772 1269914
3235.99 1399600 1321024 1125980 1148274 1216212 1222170
3238.88 1311856 1386902 1464534 1450950 1467888 1442150
3241.77 1460106 1240126 1045000 1021256 1031516 1080300
3244.67 1132718 881100 768636 957840 969652 1057080
3247.56 1067482 1032264 1080950 962072 932918 871638
3250.45 777498 716146 731022 728094 723198 600352
3253.34 526146 583032 509660 386208 389068 416918
3256.24 342164 178150 138350 103908 16266-45988
3259.13-9500-11242-23470-113736-226752-138232
3262.02-144844-300380-188624-5614-156854-317464
3264.91-432496-477194-296404-225028-319500-389852
3267.81-358836-432742-494726-604700-662098-608592
3270.70-513174-435858-404826-321506-339492-388958
3273.59-400704-363704-393142-423420-434486-513096
3276.49-699300-707344-735182-525242-476044-643008
3279.38-710946-767436-841620-729562-737610-741062
3282.27-619064-508690-587278-724998-676022-654960
3285.16-647786-615536-586638-671422-782468-720810
3288.06-637410-626030-779788-704302-630170-726824
3290.95-756944-622638-507934-594132-547004-482494
3293.84-599104-719984-830982-906420-823878-664886
3296.73-558448-563352-617036-683976-630376-534214
3299.63-471432-402276-517962-604782-522276-531414
3302.52-487220-518410-627364-609880-514024-660618
3305.41-777184-634814-477110-429552-517158-469214
3308.31-394074-341432-394056-508140-465746-443960
3311.20-501386-527942-547060-554110-553532-541234
3314.09-520574-428612-353278-430890-480004-449590
3316.98-347984-255220-276504-279448-244502-281498
3319.88-436774-532166-485232-532670-672936-616764
3322.77-559148-636582-640292-540802-578662-511316
3325.66-357556-229742-276112-426322-473980-437776
3328.55-389248-370576-536898-610798-653172-643614
3331.45-486398-634512-639846-520142-421304-366760
3334.34-405292-338328-289272-461790-511316-494746
3337.23-498610-586964-578398-525308-473212-464066
3340.13-388310-367224-451364-489802-389068-443006
3343.02-530256-397288-429044-512110-442964-407050
3345.91-363808-390416-467996-492448-293170-224040
3348.80-274074-490716-539438-263116-241360-319300
3351.70-412972-418388-250722-143776-135484-141670
3354.59-175702-185362-214568-107546-71376-174982
3357.48-112274-102736-139184-221654-152314 126206
3360.37 322526 281328 240184 108134 124254 373568
3363.27 427204 417162 430426 526146 556740 497328
3366.16 553604 700998 744328 792076 564762 448170
3369.05 572914 905088 1001522 909758 795766 797598
3371.95 807888 916952 995854 1011434 983436 932220
3374.84 973582 998702 912788 858888 878140 875814
3377.73 882448 938254 935990 946866 988204 955980
3380.62 921006 837890 638688 826102 1023314 1074608
3383.52 1040206 1047686 1070920 1126490 1044768 996246
3386.41 1000178 909848 877920 1047388 1138668 1113194
3389.30 944102 920070 976708 877124 776974 931396
3392.19 951798 869300 709824 711780 774112 695854
3395.09 562630 613770 741632 783558 673118 630124
3397.98 688212 420860 259712 395726 527444 569470
3400.87 646202 577834 475580 425450 323420 414076
3403.77 544434 635398 613034 707302 670644 637260
3406.66 547316 617900 769380 786418 759662 564492
3409.55 492806 681188 807196 698746 643788 736718
3412.44 850792 1003040 1159956 1228148 1215344 1257166
3415.34 1369054 1353002 1344484 1437648 1508616 1544054
3418.23 1874512 2155272 2269928 2360120 2550258 2526374
3421.12 2580036 2694646 2865286 3067746 3252808 3392604
3424.01 3544320 3758454 3885672 3969168 4137076 4418836
3426.91 4664810 4878756 5091140 5284468 5432748 5846688
3429.80 6197146 6595778 6828126 6885408 7183766 7339022
3432.69 7588816 7802074 8125052 8565692 8972054 9545622
3435.59 9942712 10175310 10454720 10832190 11178830 11411630
3438.48 11770250 12243240 12856590 13394750 13771290 14110530
3441.37 14613120 15200920 15623460 15952320 16308950 16635770
3444.26 17061370 17527540 18034470 18462050 18976530 19486280
3447.16 19828560 20102300 20450410 20859680 21249580 21603690
3450.05 21847040 22156170 22467220 22628180 22751250 22787220
3452.94 22893860 22906590 22826070 23007240 22950850 22622890
3455.83 22390680 22381660 22267530 21958770 21733930 21515850
3458.73 21392640 21199030 21004510 20963270 21033320 21074630
3461.62 21076830 21367420 21631740 21700130 21851690 21977900
3464.51 22079340 22218470 22297100 22308650 22268180 21901840
3467.40 21550740 21402870 21233630 20755090 20068530 19641260
3470.30 19128530 18602830 18061400 17418870 16769190 16153670
3473.19 15487240 14811420 14195380 13536620 12786850 12027810
3476.08 11466010 10942030 10400550 9907202 9483680 8977364
3478.98 8491134 8095996 7605792 7085582 6578860 6229732
3481.87 5812282 5361898 5134374 4698810 4311554 4203852
3484.76 4056422 3668516 3150648 2710310 2515764 2487486
3487.65 2310874 1920552 1763266 1549462 1328016 1173176
3490.55 1022942 859606 731574 484554 405874 286818
3493.44 66510-90798-195600-114946-262596-307310
3496.33-296710-462214-651888-922406-986340-988140
3499.22-922520-902148-1010874-1097204-1115370-1044564
3502.12-972076-892544-1083342-1203608-1196572-1304500
3505.01-1361130-1354998-1455614-1591246-1603512-1607380
3507.90-1668030-1491526-1246140-1348606-1438784-1640286
3510.80-1822338-1862692-1966978-1942138-1930138-1880298
3513.69-1800866-1797428-1898784-2072950-2222286-2066166
3516.58-1824172-1760128-1934282-1900578-1908700-2022766
3519.47-1892962-1869582-1896506-1961142-1914978-1765580
3522.37-1766598-1822048-1784720-1742524-1734782-1714620
3525.26-1806234-1876366-1821338-1740314-1863216-1991742
3528.15-1866604-1798988-1906618-1855444-1777720-1676860
3531.04-1716506-1843248-1876806-1795604-1884438-1873954
3533.94-1823884-1922246-1852372-1639520-1633886-1792162
3536.83-1966254-1931402-1812956-1860486-1870292-1774578
3539.72-1671764-1702774-1761906-1728960-1783046-1905892
3542.62-1668188-1377794-1386718-1483472-1328680-1398240
3545.51-1626238-1385010-944958-1058380-1314972-1417406
3548.40-1408122-1393292-1484358-1412394-1442542-1284812
3551.29-1013956-890104-1137626-1207568-1115458-1165466
3554.19-1195268-1193314-1120672-986528-953018-1030042
3557.08-1070774-997130-950620-959876-789444-606232
3559.97-597834-771086-621924-290902-101344-143798
3562.86-59824-38692-104928-152468 86314 593892
3565.76 918914 1023268 564878 1105876 1794584 1036872
3568.65 476180 281568 331822 432886 303072 181062
3571.54 268466 261970 191026 169902 172200 159156
3574.44 136604 166826 157860 83416 159240 232032
3577.33 148280-38932-73056 130048 494268 743654
3580.22 957120 1325178 1384356 1302346 1023518 552332
3583.11 359936 221122 443244 785956 845152 1026730
3586.01 1760918 1174712 417430 591240 1932538 2064416
3588.90 595948 302154 272422 124786 49938 327418
3591.79 624924 799328 921638 630762 340066 433800
3594.68 922626 917124 556342 296442 73314 205032
3597.58 425916 220866 71430 117918 110730 157470
3600.47 291486 89558-123832-210058-120326-204442
3603.36-479482-543944-431876-578086-828020-630512
3606.26 64488 260690-468242-603480 268730 2238376
3609.15 1269978-619946-923270-928510-769330-69888
3612.04 992360 245108-703520-643338-123052-182738
3614.93-552588-855630-977456-714594 101596 377838
3617.83-264712-448874 979480 1772542-34600-714028
3620.72-566934-618644-766248-824296-910108-741310
3623.61-759308-822304-897620-935558-740758-682684
3626.50-785350-253904 1681588 3136132 1989866 3639460
3629.40 3000142 169236-516390-789464-747116-712122
3632.29-685492-505298 96356-82790-593266-719104
3635.18-696130-728744-821082-826084-648618-430226
3638.08-452884-585438-618910-684228-708656-648226
3640.97-466030-448642-424420-440566-452044-541564
3643.86-527896-459820-336560-208398 231044 863490
3646.75 1859832 1421510 414014 1714124 4937906 3462912
3649.65 1126398 1776452 2003342 1399590 212994-89042
3652.54-223616-238066-318356-174380-64164 315266
3655.43 2155218 3373470 1076332-84774-262280-234148
3658.32-257484-204296-197634-165824-302576-192542
3661.22-173922-114382-231800-264926-315346-205024
3664.11-241436-234066-254488-195244-188412-129372
3667.00-99274 83008 1452524 2044532 754914 844314
3669.90 4169550 6267144 2316158 196892-271266-60214
3672.79-196760 215224 987732 3038314 3392450 4710714
3675.68 5437878 1652730 64994 34180-96828-118690
3678.57 342656 554792-100220-420816-567792-494906
3681.47-496922-510588-563704-515804-571538-460192
3684.36-516038-435722-570060-519908-601768-303088
3687.25 977104 5630590 5776792 1077422-284388-167618
3690.14 330506 1471754 1192780-316800-547696-583080
3693.04-470458-531234-528072-710646-732964-696846
3695.93-594680-617620-615302-629290-574124-561558
3698.82-561938-658628-665322-660468 129804 1357156
3701.72 729236-574140-847518-813748-818940-818808
3704.61-601734-646212-718194-777892-678628-561532
3707.50-383030-363794 642888 1620582 429080-407260
3710.39-227608 253780 2730234 4048950 1119474-581872
3713.29-851080-598834-163720-321214-665628-670172
3716.18-723170-700306-664938-575668-251898 27112
3719.07-292770-457210-514710-511888-338418 564250
3721.96 654296-161766-638002-695890-414784 23338
3724.86-77166-167252 709802 893726-47844-300500
3727.75-449302-499136-578062-526912-442232-197080
3730.64-79146 1478250 3882768 2248962-49396-229488
3733.54 333218 1688980 2256218 1768288 917106 2844526
3736.43 3416478 714402-20810 309378 31336-441542
3739.32-435958-224596 177642 415376 11160-252098
3742.21-198368 180104 2063310 6955096 10783410 6088902
3745.11 965794-113852-357660-157172 158770 138978
3748.00 643884 4360884 7444146 3687966 517846 149574
3750.89 937252 5314280 7947028 2861920-19962-266860
3753.78-307850-466598-438812-435822 152910 657050
3756.68-52950-544070-502560-210950 207640 916014
3759.57 912402-205662-602368-701716-637100-672480
3762.46-645104-658606-655682-711942-549442 137694
3765.35 727496-210696-638482-700098-696236-668250
3768.25-564088-45064 1611810 1360284-254074-674260
3771.14-592942-563788-711704-852818-896402-856998
3774.03-831334-799604-843932-775042-669758-700708
3776.93-804086-760456-696600-320916 815672 700448
3779.82-419326-714952-816364-843302-788534-738116
3782.71-710986-629732-501918-246248-316924-566106
3785.60-714334-610662-612164-636876-680946-652342
3788.50-729962-770874-751152-705316-709032-763202
3791.39-784984-734170-742742-609090-558574-577860
3794.28-666356-571920-248026 773088 703712-254468
3797.17-355480-446486-533786-350564-408118-27522
3800.07 779692 4420850 6863112 2494396 289062 318436
3802.96-177558-548738-507770-453518-458430-207058
3805.85 923366 4024862 3687134 522576-380504-579050
3808.75-493626-615960-442184-458920-324978-454440
3811.64-434354-466738-349486-381376-212670-160538
3814.53 161022 2361504 7084466 5050524 712450-98520
3817.42-203042-116474-60504 60620 385426 1656010
3820.32 2815488 2720364 3437438 1769952 209022 71440
3823.21-30686-40538-127068-61628 39044 200480
3826.10 862782 677992 36794 55232 71648 8868
3828.99-10858 132420 186732 523316 1746346 2041904
3831.89 581930 155932-54564 98462 574738 2382638
3834.78 2195978 674138 382948 784188 2255516 7166166
3837.67 6678546 1832814 657654 1007154 1429232 1505852
3840.57 2240456 1248288 535840 505510 771120 1511168
3843.46 1762332 871450 540658 510276 661054 545180
3846.35 566934 568222 559384 516142 700430 793402
3849.24 1038658 1075140 1090572 1439638 4805998 7330610
3852.14 3808782 2471074 6306654 12005120 9925790 3515476
3855.03 1116150 984286 1263440 1696826 1712662 1062874
3857.92 1002472 938564 1068428 1105490 1178386 1319608
3860.81 2062358 2707482 1832848 1181578 1304240 1398076
3863.71 1826210 3243460 4506252 2639800 1514284 1265588
3866.60 1186808 1133514 1196900 1479908 2802580 3846296
3869.49 5860926 4715242 1968222 1548186 1188266 1147450
3872.39 1196900 1499506 2195678 2768588 1963816 1083002
3875.28 1017138 1039658 899776 943062 1008438 1003580
3878.17 997262 1089760 1756352 2931560 2589674 1655690
3881.06 1174414 806522 781554 918202 918414 674100
3883.96 843992 1362464 3764588 4602130 2200226 697806
3886.85 395284 509914 564220 583644 569190 455838
3889.74 535452 1382500 3242886 2505810 789974 426184
3892.63 389022 323154 346204 371464 261862 203624
3895.53 108232 147554 210188 300036 532168 626732
3898.42 1525142 2684176 1426752 384108 260700 1334502
3901.31 2909070 1870348 419264 382654 1593810 3112742
3904.21 1864412 587122 687956 877874 420126 62422
3907.10 19218 103466 50440-52970-99684-48946
3909.99 75690 118608 96918 159680 100682 9144
3912.88-18440-9906 32130 39604 35324 100584
3915.78 303746 541418 1247024 693802-46520 35176
3918.67 113934 465970 915936 314956-109504 100766
3921.56 71868-67336 84028 310086 427666 372312
3924.45 593470 505874 85202 3818 66572 178458
3927.35 183558 104680 67012 270940 343788 279654
3930.24 161224 97038 336186 834490 780398 311838
3933.13 156040 282984 277414 118334 24354 37054
3936.03 98778 96702 125546 175782 313260 273692
3938.92 250530 260362 137984 131028 173324 339646
3941.81 611896 753858 243362-54816 169074 326934
3944.70 228700 326832 494070 598080 768576 822816
3947.60 705112 661758 600308 298032 51794 80224
3950.49 166844 209252 232018 235556 354092 396762
3953.38 222838 247980 359024 429590 416998 339104
3956.27 359940 391014 426372 556282 658034 549974
3959.17 535990 554814 563054 608844 621706 644694
3962.06 571712 570726 567874 566878 681190 662516
3964.95 670446 724108 798802 917712 943668 869784
3967.85 803488 853524 1008810 954826 993610 1036232
3970.74 1116272 1191822 1153382 1230354 1251570 1203862
3973.63 1213518 1130504 1113544
##END=
