##TITLE=Methyl Ethyl Ketone
##JCAMP-DX=4.24
##DATA TYPE=INFRARED SPECTRUM
##CLASS=IUPAC A
##ORIGIN=NIST, Anayltical Chemistry Division, 301-975-3108
##OWNER=COPYRIGHT (C) 1998 by the U.S. Secretary of Commerce
##DATE=98/10/1
##$SPECTRA VERSION=1.00
##$UNCERTAINTY IN Y=2.1 % relative (B=1.1E-04,C=8.6E-10,D=2.7E-14)
##CAS NAME=2-Butanone
##CAS REGISTRY NO=78-93-3
##MOLFORM=C H3 C H2 C O C H3
##MP=-86.35 C
##BP=79.6 C
##$NIST SOURCE=QUANT-IR
##SPECTROMETER/DATA SYSTEM=IFS66V (Bruker)
##INSTRUMENT PARAMETERS=KBr Beam splitter; MCT Detector; Multipass cell
##STATE=gas
##SAMPLE DESCRIPTION=Methyl Ethyl Ketone Primary Gas Standard
##PRESSURE=101.3 kPa
##TEMPERATURE=23 C
##SAMPLING PROCEDURE=1 L/min Flow
##RESOLUTION=1.9290
##DATA PROCESSING=Triangular Apodization
##XUNITS=cm-1
##YUNITS=(micromol/mol)-1m-1 (base 10)
##XFACTOR=1.0
##YFACTOR=4.5474E-13
##DELTAX=0.9645
##FIRSTX=574.687
##LASTX=3974.595
##FIRSTY=.0000203
##MAXX=3973.63
##MINX=574.69
##MAXY=.0005579
##MINY=-8.75E-07
##NPOINTS=3527
##XYDATA=(X++(Y..Y))
574.69 44756790 50143120 54949790 58605660 60800930 61574020
579.51 62551840 63281940 62263620 62402480 65409840 67796490
585.29 70546240 71914940 67935980 64555770 64844430 65693340
591.08 65645510 64613690 64598360 64490900 63387910 62074710
596.86 60252750 56944540 52717350 48384260 43707810 38529200
602.65 33355400 28715880 24302590 20419140 17103610 14437520
608.44 11947640 9653610 8069584 6738660 5737286 4833374
614.22 4472958 4068908 3367752 3064440 2704462 2302988
620.01 2034638 1944950 1807866 1807884 1779808 1678912
625.79 1649266 1561668 1565474 1562474 1429838 1424980
631.58 1232100 937686 984174 1264128 1316476 1182168
637.36 961364 1203342 1293038 2757988 4816226 2978532
643.15 1326424 1335552 1044374 1093020 1370182 1573502
648.93 1727030 2497538 3024660 2580488 1974722 1871588
654.72 2001884 2436796 2932418 2828888 2464696 1940120
660.50 1547354 1549432 1420038 1215570 1148742 1246076
666.29 1740236 1767732 1325562 1185790 1174942 1176376
672.08 1119706 1073666 1078248 1054952 835222 782408
677.86 854118 825038 742276 680304 649770 737200
683.65 759778 610662 523938 538198 604354 732182
689.43 713374 548664 333512 325354 415656 389664
695.22 475408 388504 263712 289114 304364 406732
701.00 388126 324486 446612 452722 483814 390526
706.79 362348 466668 489444 518352 720470 900992
712.57 967816 1159856 1214108 1226196 1428042 1771556
718.36 1928496 1995078 2345558 2783300 3116842 3353750
724.14 3749210 4397722 5058380 5776806 6576264 7376226
729.93 8330878 9333264 10387100 11613790 12792620 14193230
735.71 15656000 17084600 18748350 20346910 22043250 23897640
741.50 25784530 27826900 30029690 32404250 34883360 37583980
747.29 41007220 45420550 50713100 53460540 52251600 50036390
753.07 47605460 45617100 44194870 43062700 42629350 43478920
758.86 44911130 44768860 43565070 42604180 41751640 40681690
764.64 39329970 37719500 35663940 33257090 30692110 27895030
770.43 25040340 22363120 19766810 17313150 15188360 13329970
776.21 11683380 10247440 9054080 8085918 7246410 6646538
782.00 6159398 5626808 5069516 4617236 4415382 4286284
787.78 4017172 3698804 3458996 3370268 3322368 3254892
793.57 3097912 2994170 3041324 2828986 2605750 2652806
799.35 2467754 2189398 2122160 2052316 2008942 1898472
805.14 1831078 1923810 1813826 1582154 1520330 1542704
810.93 1470246 1388380 1285194 1077256 1027648 1090648
816.71 1103612 1001180 969012 1020490 1069098 1020322
822.50 930744 914672 962340 929630 871250 867942
828.28 774048 867334 1058968 1054492 829676 852510
834.07 1066398 1013318 840896 893890 1063284 979720
839.85 887436 844236 898630 1039060 1037740 1073394
845.64 1029708 1033550 1108158 1102892 1100612 1073100
851.42 1054968 1036790 1050224 1139546 1258448 1272670
857.21 1227976 1215102 1288622 1414484 1403636 1417232
862.99 1565208 1655902 1672220 1695798 1769734 1854384
868.78 1967946 2053128 2149000 2268012 2406176 2606444
874.57 2785446 2982078 3067256 3081186 3159010 3342034
880.35 3525174 3665576 3881530 4030572 4197210 4437366
886.14 4678246 4840644 5029570 5323088 5753632 6135302
891.92 6390952 6864470 7402902 7882298 8358486 8806548
897.71 9442802 10249700 11032880 11837450 12708320 13679180
903.49 14810120 16038880 17389700 18901320 20495010 22216300
909.28 24108920 26130720 28317660 30580450 32847670 35267040
915.06 37848450 40402510 43108520 46081660 49130400 52275250
920.85 55804480 59232820 62488900 66025520 69675080 73574200
926.63 77713830 81733050 85823580 89991340 93995130 97948530
932.42 101550900 104714600 106956600 108088800 109028800 109910600
938.21 112503300 115571400 116339200 116119200 115304600 114453600
943.99 113048800 112126400 112263800 112441100 112016400 110248600
949.78 107782800 104909100 101544000 97623010 93347530 89082450
955.56 84744930 80456430 76228430 72098860 68321700 64778650
961.35 61449320 58329370 55461500 52790710 50413940 48292440
967.13 46411020 44730880 43281590 42081760 41012080 40208630
972.92 39591110 39054380 38590020 38193960 37934670 37775440
978.70 37561460 37153480 36772980 36332020 35760240 35150340
984.49 34522040 34010110 33743040 33572940 33157410 32562420
990.27 31806540 31223470 30787280 30195410 29635940 29204420
996.06 28868280 28389270 27855770 27390890 26975240 26354500
1001.85 25317330 24101900 22807880 21462850 20248200 19002880
1007.63 17762460 16770300 15911210 15118370 14401050 13798410
1013.42 13249760 12764760 12411400 11995760 11642510 11296670
1019.20 10902760 10593590 10157370 9760200 9440526 9055308
1024.99 8652172 8289732 7927564 7640240 7468634 7289206
1030.77 7160576 7134272 7060992 6877228 6781478 6771966
1036.56 6786340 6864188 6838052 6873242 6964236 7090610
1042.34 7288406 7436970 7588734 7734660 7979430 8354142
1048.13 8670578 8872828 9137570 9333888 9567758 10010580
1053.91 10411270 10798860 11325140 11956460 12593500 13205750
1059.70 13925880 14678900 15527230 16470420 17468590 18581760
1065.48 19580710 20641050 21811300 22999380 24250640 25562400
1071.27 26910770 28190660 29479020 30833180 32072910 33243920
1077.06 34342120 35238140 35974430 36462060 36808030 36855680
1082.84 36529920 35981040 35298640 34555890 33817440 33239860
1088.63 32955580 33135210 33770020 34467640 34687920 34379100
1094.41 33627800 32495030 31245290 29941110 28670930 27560360
1100.20 26500410 25458600 24461970 23719340 23177250 22689380
1105.98 22387030 22336280 22280100 22000520 21570690 21328600
1111.77 21224820 21140730 21189580 21299220 21414710 21615530
1117.55 21914030 22374780 22840580 23263810 23791680 24398210
1123.34 25035090 25613300 26296950 27160940 28088240 29176540
1129.12 30366160 31768120 33330460 35072260 37214650 39679020
1134.91 42475260 45757220 49524220 53840560 58940000 64992430
1140.70 72155540 80660350 90737260 102617300 116228200 131809500
1146.48 149425700 168874600 189806000 211941200 235068800 258762100
1152.27 282279500 304925000 325882700 345179300 363032200 379956900
1158.05 397143200 414933200 431721200 447670400 466252100 489436500
1163.84 512792600 534909800 547013400 548946700 557058900 558262500
1169.62 554941500 560672400 568823400 575471100 578233600 573896300
1175.41 556451300 545313100 537398400 509672300 476884500 450252700
1181.19 431012000 415798100 401808700 388391900 372894600 355822200
1186.98 337707000 318995400 299951000 281233100 263052700 245574100
1192.76 229439300 214868500 201639000 189791100 179266200 170046100
1198.55 161836000 154459200 147794900 141577800 135617000 130043500
1204.34 124650500 119384600 114586700 110223000 106082100 102069100
1210.12 97826450 93315120 88574140 83642240 78603330 73372380
1215.91 68044570 63000130 58353670 54012270 50016400 46425500
1221.69 43339620 40633590 38227940 36185250 34429850 32923300
1227.48 31580430 30464980 29553210 28769020 28029210 27403060
1233.26 26913000 26518760 26231120 26097580 26090860 26258650
1239.05 26583270 26835790 26951370 27190820 27613030 28077890
1244.83 28553540 29042510 29578410 30054700 30429240 30764170
1250.62 31060280 31326450 31556730 31761610 31894230 31974200
1256.40 32066340 32148920 32095230 31818150 31525070 31315070
1262.19 31123430 31018750 30936010 30685480 30279170 29986660
1267.98 29611770 29108590 28655090 28057930 27334860 26581820
1273.76 25909380 25272470 24607330 24030620 23469390 22901770
1279.55 22348990 21848490 21456310 21083840 20721070 20439640
1285.33 20263710 20129500 20016940 20163940 20412830 20691180
1291.12 21136040 21668060 22308380 23110000 24012870 24971820
1296.90 25960690 27060350 28292320 29543610 30849370 32267950
1302.69 33744030 35296480 36945280 38667110 40424240 42199440
1308.47 43990020 45831560 47751080 49818870 51957280 54129250
1314.26 56326420 58649680 61085970 63410410 65878880 68588530
1320.04 71373270 74175220 77325510 80654570 84025550 87577500
1325.83 91260020 95121270 99028050 103081700 107341400 111786900
1331.61 116527200 121531800 126819400 132304500 137896800 143622100
1337.40 149848800 156478800 163528900 172117400 180847500 189148300
1343.19 198541800 209784800 223957200 240839000 259608000 279733900
1348.97 300892600 323031400 345744200 368422900 390055900 410259600
1354.76 428278800 443467700 455769100 465132100 470894800 472227000
1360.54 471398300 472251600 477280500 492846900 518481800 533875500
1366.33 529949500 507293900 482112500 474786000 480711400 489999300
1372.11 496362400 496971700 489548500 473368700 449477400 419786900
1377.90 385958000 349950400 313796700 279324500 247638200 219877900
1383.68 196548000 177818700 163868200 154024200 147117100 143471100
1389.47 141812200 140460900 138922200 137430300 136252500 133990000
1395.25 131097400 128439400 126328500 124644000 122560900 121024100
1401.04 120503900 120645400 121811700 123848600 125954900 128516200
1406.83 131887300 135912700 140518300 145272100 149870800 154328400
1412.61 158480900 162283600 165564800 168589400 170874500 172729100
1418.40 173572400 170464700 166930300 164697900 163560400 164456000
1424.18 167423100 172702200 178839900 184867500 190192900 194018000
1429.97 195298200 194950200 193289600 190173100 186252500 183622800
1435.75 181924600 178187500 175671000 175251600 175032900 174771800
1441.54 174029800 173085100 172259300 171633000 171631800 172670100
1447.32 172513700 170825900 170729200 172857700 177111900 184326600
1453.11 196106800 212328100 229399600 233660900 223112500 210363400
1458.89 198284900 186708900 174968300 163794300 154723600 150854800
1464.68 153627300 158558700 159185900 156162400 153654600 152570800
1470.47 153167200 153144200 151683400 148330000 144255800 139996000
1476.25 133600200 126722300 119676800 112372300 105168300 97954190
1482.04 91072760 84730930 78873620 73660460 69474140 65263940
1487.82 61330140 58697610 55732620 52223210 49412780 47453700
1493.61 45606440 45616700 45038590 42083970 41330910 40253050
1499.39 38539940 37871950 37306250 36748600 36912880 39038900
1505.18 40509220 40146160 38042720 36757400 36315300 35642700
1510.96 35949040 35562760 34983850 35256170 35443910 36297450
1516.75 36264900 35347870 35818180 37829120 38014240 36065640
1522.53 34461670 34064010 34509480 33467250 32774030 32464310
1528.32 31655510 31134500 30967510 30860840 31418630 31065690
1534.11 29315720 28571620 28053350 29176700 31954240 31525450
1539.89 29149030 28783100 27488030 25528980 25676770 24989520
1545.68 23422500 22757580 22338590 22459870 21972730 21134160
1551.46 20576840 21239970 22215410 20752190 19874490 22060070
1557.25 24324870 23968530 23310940 20145050 17627930 17384850
1563.03 17101350 17179090 16494870 16091200 15858890 16559090
1568.82 17105570 15604930 14636550 14451510 14281610 14343130
1574.60 17155910 17768760 14312060 13279320 13025470 12785630
1580.39 12579290 12366410 12211160 12002630 11801600 11597870
1586.17 11374390 11175550 11028360 10822550 10584930 10372840
1591.96 10154510 10022760 9891642 9669582 9451916 9246440
1597.74 9109102 8967834 8861882 8738568 8648770 8612200
1603.53 8474478 8331426 8301220 8225612 8122064 8114748
1609.32 7963382 7797792 7749130 7688452 7781202 7884798
1615.10 10532950 11435720 8436606 7665342 7720640 7732498
1620.89 7894006 8783218 9163758 8190984 7896456 8124912
1626.67 8654598 8438628 7984844 8054520 8033646 8185944
1632.46 8295722 9763976 12276290 10946750 9278862 9087162
1638.24 8747774 8924568 9008990 9117646 9343168 9467188
1644.03 10826660 12680160 11816920 11189860 10566130 10049590
1649.81 10269880 13378220 17957910 16481930 12986430 11494990
1655.60 11127080 11344300 11542720 11842980 12288060 12976930
1661.38 14410490 14664030 13917730 14096010 14524050 15020330
1667.17 16230810 18242590 18303140 18295690 19063210 19263840
1672.96 20477700 23278710 24058320 23426840 24575150 26001440
1678.74 27865740 29547610 31228360 33959260 37805480 42730030
1684.53 42961750 41799280 44257380 46797310 49617190 52522240
1690.31 55513090 58661150 62456610 66362120 73673150 79962790
1696.10 81636460 85974110 93863030 104541700 112044400 118191700
1701.88 127863500 139328000 151459900 164324500 178414900 193120500
1707.67 209882800 228617500 249109800 271418900 296043600 322964000
1713.45 352856400 384667500 419603100 458824900 498041600 539221400
1719.24 584327800 632425300 682822000 735120800 788527200 842083200
1725.02 895718300 948450700 999051000 1046031000 1087781000 1121245000
1730.81 1143880000 1155500000 1153947000 1134866000 1099743000 1059065000
1736.60 1023283000 1003594000 1010744000 1044888000 1098440000 1156154000
1742.38 1200784000 1224164000 1226855000 1211188000 1180211000 1138227000
1748.17 1087289000 1030552000 971596400 909447100 846198000 784555200
1753.95 724586000 667467300 613457200 561870600 513790100 468977600
1759.74 427367300 389161500 352289200 317970900 287076800 258889200
1765.52 233266600 210689400 190019300 170329100 153758100 139719600
1771.31 127880900 115824700 103797500 94464230 86117690 78495100
1777.09 71867440 65910440 60812590 56039640 51331040 47201800
1782.88 43698560 40639750 37220100 33974970 31373390 28981550
1788.66 27282210 25832100 24321210 24059270 23152240 22025940
1794.45 21520350 20479580 19281580 18387010 18034820 17294230
1800.24 16480290 15858570 15023080 14238650 13620770 12968370
1806.02 12254050 11509270 10678440 10115940 9527906 8646620
1811.81 7981244 7375666 6900226 6475230 6096532 5750578
1817.59 5366032 5057404 4849858 4715576 4595926 4370052
1823.38 4606866 4885744 4276356 3936058 3987282 4476884
1829.16 4818770 4139648 3749632 3785638 3704754 3651820
1834.95 3686336 3748470 3719854 3701084 3749396 3755406
1840.73 3905316 4033218 5278378 5608528 4285030 4057558
1846.52 4231488 4189524 4127898 4215824 4339284 4378312
1852.30 4399230 4490482 4565496 4669008 4788160 4905122
1858.09 5039324 5108034 5164490 5215780 5319154 5443762
1863.88 5582490 5756874 5980348 6238500 6765754 6820930
1869.66 6231530 6122920 6203602 6272244 6390976 6460502
1875.45 6541672 6622928 6639816 6605582 6568332 6573696
1881.23 6529796 6525842 6609418 6589492 6576268 6599892
1887.02 6583314 6835684 6862468 6438812 6287124 6233570
1892.80 6087402 6015764 5861028 5560244 5392586 5285290
1898.59 5171372 5039068 4926756 4787748 4626154 4546448
1904.37 4427480 4240206 4184336 4116962 4079262 4050968
1910.16 3889012 3768710 3670482 3583294 3568840 3464452
1915.94 3614842 4079862 3719278 3283692 3287772 3326550
1921.73 3448452 3332584 3162488 3098056 3063494 3036712
1927.51 3034986 3000716 2889636 2845870 2838980 2799552
1933.30 2761690 2675912 2631042 2639498 2654604 2656542
1939.09 2631682 2657198 2920606 2942388 2679896 2619442
1944.87 2566272 2466320 2399324 2361412 2302456 2187804
1950.66 2127128 2113670 2090970 2121390 2056758 1896088
1956.44 1808456 1769064 1752970 1754158 1723778 1664992
1962.23 1592044 1493950 1450712 1463590 1488430 1398532
1968.01 1260212 1175318 1091408 1028572 1009222 957042
1973.80 1005566 1123608 1095796 1125884 1183486 1217692
1979.58 1267206 1315942 1382214 1407374 1413384 1423754
1985.37 1395430 1402274 1438108 1418764 1403354 1587604
1991.15 1695330 1566902 1482368 1482782 1543286 1583794
1996.94 1585204 1581996 1561754 1502844 1445810 1379694
2002.73 1313880 1243432 1153084 1073150 1031298 953642
2008.51 880144 843278 788790 763844 728328 674286
2014.30 653942 724930 709678 615802 565912 483154
2020.08 473362 479098 413804 366240 376908 370914
2025.87 339906 334068 332890 342698 322114 289752
2031.65 342348 388180 398092 384570 367210 395046
2037.44 411360 417036 469506 503818 453774 432756
2043.22 455522 464216 458334 466042 498486 532500
2049.01 531804 541064 596744 628810 625886 619994
2054.79 671596 729412 764444 800772 815050 871620
2060.58 940490 948898 1002674 1164910 1207234 1170996
2066.37 1208176 1272408 1352356 1371480 1421050 1561698
2072.15 1695640 1771008 1835608 1938420 2015200 2127744
2077.94 2271368 2372610 2479622 2614274 2763876 2928240
2083.72 3093964 3233930 3376762 3559948 3747532 3932530
2089.51 4096532 4239966 4392052 4554148 4734366 4868608
2095.29 5051798 5225946 5379638 5582140 5724238 5836694
2101.08 5968244 6117290 6265782 6419942 6548778 6656916
2106.86 6776794 6898016 7056190 7172396 7250024 7389690
2112.65 7496050 7552820 7558948 7547884 7540618 7435846
2118.43 7244618 7045768 6934434 6815392 6726248 6639238
2124.22 6555528 6538456 6388156 6156040 5939106 5733038
2130.01 5543392 5390580 5185550 4902222 4664862 4425314
2135.79 4139596 3840380 3563768 3307996 3055358 2817094
2141.58 2630244 2469552 2312194 2189220 2069798 1958558
2147.36 1898736 1860996 1767506 1677622 1643976 1588100
2153.15 1544746 1541634 1587032 1612866 1561020 1556498
2158.93 1543378 1512718 1530690 1516994 1491526 1545744
2164.72 1593698 1621790 1650780 1627142 1628778 1656386
2170.50 1649098 1602198 1554388 1499756 1429640 1362296
2176.29 1302386 1268254 1200272 1118052 1043748 1000596
2182.07 972062 901348 837242 752018 682928 634540
2187.86 602916 561414 499248 432706 355564 318864
2193.64 254754 209634 192500 160584 142418 122342
2199.43 119866 70162 4838 14-2542-16798
2205.22-18572-582-5632-21302 10326 9388
2211.00 14888 58062 76886 63284 20310 282
2216.79-41930-74680-35392-58854-82158-75476
2222.57-79420-66046-85902-90806-98704-141012
2228.36-165726-162604-166792-178556-174754-187082
2234.14-221510-237466-239606-237510-252804-285000
2239.93-251876-219944-247432-249168-221496-235032
2245.71-252910-229302-186722-152480-157984-155238
2251.50-94922-66254-75786-43982 23294 72146
2257.28 87704 123550 163190 253920 326286 356580
2263.07 445216 504344 552018 663052 757036 835106
2268.86 917058 1009728 1121778 1224920 1286584 1369008
2274.64 1519428 1642946 1732890 1835018 1933632 2037404
2280.43 2162230 2270668 2407934 2502632 2582434 2650082
2286.21 2699782 2769378 2862216 2898074 2904316 2992006
2292.00 3057136 3076426 3120322 3182548 3179530 3134490
2297.78 3097536 3054858 3067640 3043118 2982848 2884658
2303.57 2813106 2807708 2841050 2787960 2759550 2709562
2309.35 2665226 2652174 2640892 2604624 2535398 2498050
2315.14 2463178 2429580 2334874 2313346 2242348 2260594
2320.92 2276432 2243090 2188480 2209178 2206438 2218382
2326.71 2270950 2259168 2211818 2228796 2245056 2238726
2332.50 2269298 2300994 2275646 2289590 2293552 2290236
2338.28 2302368 2256756 2252378 2224544 2164574 2119850
2344.07 2050132 1989728 1945048 1890590 1845556 1864806
2349.85 1987914 2119650 2246818 2382758 2550766 2653502
2355.64 2728452 2817740 2909808 2996172 3078470 3124052
2361.42 3143908 3197488 3152760 3078820 3023034 3007908
2367.21 3002274 2921492 2809258 2690730 2635540 2579564
2372.99 2484024 2394982 2319188 2244820 2179882 2118838
2378.78 2067380 2027622 1973154 1917354 1857846 1797138
2384.56 1759896 1715282 1645402 1527962 1418672 1346032
2390.35 1318196 1333850 1293026 1189704 1131826 1117728
2396.14 1097618 1117302 1113222 1052154 998922 986386
2401.92 1030874 1049358 1019486 956794 925860 952338
2407.71 911538 863934 848728 795558 795996 792802
2413.49 757168 731746 721728 681076 668892 671684
2419.28 595824 657590 692584 648632 678456 645886
2425.06 613918 583544 551758 525014 510794 534546
2430.85 521728 499228 495278 483950 464134 444314
2436.63 424276 471152 500162 485158 495592 505430
2442.42 510524 483888 505830 529578 477782 462974
2448.20 494728 501044 522796 597414 690236 757686
2453.99 776052 769466 795748 847200 912540 973300
2459.77 1006908 979376 975094 1048408 1098408 1100428
2465.56 1101608 1094310 1059858 1052414 1069136 1111978
2471.35 1149062 1160692 1225798 1316348 1334526 1298322
2477.13 1309164 1310852 1278104 1239160 1149314 1048792
2482.92 1027404 1011382 980432 961588 941934 936198
2488.70 970342 1012264 1025108 1037214 1082422 1172406
2494.49 1239378 1328876 1426604 1498162 1577380 1626024
2500.27 1699324 1787266 1843022 1958350 2042534 2064954
2506.06 2143638 2223478 2279430 2310398 2377868 2432328
2511.84 2484366 2521448 2564992 2627980 2701282 2758104
2517.63 2736082 2722680 2674084 2594532 2572954 2535832
2523.41 2429998 2376060 2278966 2207528 2196930 2120800
2529.20 2042044 1966692 1887850 1801096 1744868 1694174
2534.99 1572378 1500952 1432882 1385100 1339362 1235866
2540.77 1170734 1129660 1064720 1008144 929938 829102
2546.56 830820 874440 818376 777660 781592 771446
2552.34 760412 741074 761710 790840 796510 751656
2558.13 697724 691870 691336 675394 639098 630412
2563.91 621618 588214 548720 539930 570608 575726
2569.70 532916 503122 504428 476582 444694 399056
2575.48 372558 337832 283484 274584 253634 241008
2581.27 238978 219692 209754 202128 199862 165498
2587.05 125636 176474 218352 245954 242148 221210
2592.84 241356 224274 217174 225458 269050 294560
2598.63 301852 344844 365916 330630 305804 304208
2604.41 335482 350008 357838 389030 402724 443170
2610.20 442408 424158 418978 446446 445994 410242
2615.98 455654 461992 447594 486858 468624 419004
2621.77 441024 441234 401586 403614 392990 359180
2627.55 343260 319298 308184 304434 311170 308748
2633.34 280158 294052 318056 261884 252446 317120
2639.12 311078 276940 284926 291034 342904 373694
2644.91 364404 394700 456138 511148 536328 576378
2650.69 625662 652736 729478 844596 906930 941840
2656.48 999916 1081662 1160732 1240702 1331700 1426672
2662.27 1485954 1545676 1645478 1710798 1756732 1835394
2668.05 1923288 1992854 2002746 2015706 2075170 2131368
2673.84 2144664 2119318 2164940 2216472 2167016 2164028
2679.62 2173014 2155124 2174884 2195586 2209128 2197644
2685.41 2169018 2161400 2146974 2109152 2077768 2053558
2691.19 2054696 2038740 1956984 1871714 1836114 1867158
2696.98 1884776 1876470 1834598 1861496 1917292 1880982
2702.76 1880652 1870478 1872876 1888600 1915450 1952236
2708.55 1957918 2009516 2049486 1989662 1976488 2085486
2714.33 2175568 2239938 2279034 2313606 2329318 2351554
2720.12 2402288 2417962 2462062 2526026 2566954 2637984
2725.91 2734714 2820894 2915980 3040586 3141670 3241956
2731.69 3420172 3627574 3769642 3903654 4100124 4237714
2737.48 4395938 4548520 4688484 4893644 5060764 5255754
2743.26 5443496 5546210 5644752 5729018 5752676 5807766
2749.05 5948358 6124324 6192292 6130428 6160376 6225778
2754.83 6272076 6291358 6272110 6296240 6329868 6311394
2760.62 6198452 6053780 5894952 5724680 5551172 5420358
2766.40 5313404 5172230 5027578 4980112 4993406 4998822
2772.19 5018920 5070774 5164856 5254770 5364692 5515230
2777.97 5710328 5912864 6111838 6313144 6498682 6760454
2783.76 7039878 7349322 7708778 8065380 8495926 8935654
2789.54 9363376 9893062 10482060 11058650 11583530 12073520
2795.33 12540690 12948620 13325680 13812540 14358260 14818440
2801.12 15342060 15847840 16393390 17017130 17716220 18465230
2806.90 19216710 20019670 20763550 21476180 22240850 23067520
2812.69 23830150 24539700 25158660 25632310 26062630 26390240
2818.47 26634550 26863300 27198960 27583770 27917820 28283440
2824.26 28757720 29296030 29654130 30061630 30581920 31011860
2830.04 31454810 31948060 32468210 32972770 33472480 33900080
2835.83 34107300 34130280 34024100 33795810 33574650 33366180
2841.61 33141490 33018810 32962710 33007900 33086200 33089360
2847.40 33092430 33029120 33036770 33051750 33050050 33150290
2853.18 33300560 33447680 33651440 33847380 34004470 34233570
2858.97 34481310 34680880 35020230 35544140 36098310 36715840
2864.76 37531780 38592560 39952790 41715020 43815980 46360430
2870.54 49597240 53540330 58104040 63376640 69423780 76283720
2876.33 83680620 91295840 99043080 106599500 113627900 119809200
2882.11 124736600 128257300 130769500 132973900 135953200 140615300
2887.90 147815100 158327300 171553800 182622400 188265200 191777800
2893.68 197173700 204883900 213456800 221514100 228022600 232823400
2899.47 236300900 238603900 240250300 241932900 243275500 244111600
2905.25 245123200 247076100 249775800 252910000 256263000 259501700
2911.04 262625400 266358300 272043400 283008100 298740400 306972300
2916.82 303406700 293904600 283164600 275380000 269802600 264720100
2922.61 259828000 254976800 250301600 245763100 241328800 237358800
2928.40 234482400 232838000 232479600 233573300 236276800 240973300
2934.18 247436800 254851200 262785000 270498700 277326600 282767800
2939.97 285771300 285712300 282761000 277098400 269974200 262972900
2945.75 258964400 263455100 285445200 299655700 286276200 270360200
2951.54 262366800 260852200 264557300 270834000 277869100 283887600
2957.32 287900600 289327700 288515900 285857500 281264100 276221500
2963.11 272703100 271273000 272877600 277831100 285040400 291776800
2968.89 296149800 299365800 304377600 312508700 323004100 334611500
2974.68 346762800 358644300 370096600 380805500 390790000 399849700
2980.46 408232400 415775500 422514700 428065200 431044400 429850600
2986.25 426191400 425722200 437342000 464106400 527771300 581373700
2992.04 532941200 460071300 432649900 420678000 411392700 400095500
2997.82 387112600 372325200 357064200 341637700 326245800 311011300
3003.61 296209400 281503100 266951600 252441300 238056600 224156100
3009.39 211283900 200242200 192160100 186991800 179617500 166613000
3015.18 154025400 145250400 139033300 134015900 129505800 125128400
3020.96 120481600 115382700 110000200 104410500 98655090 92948510
3026.75 87308860 81822450 76792530 72201060 68005230 64168180
3032.53 60832720 58089440 55771290 53744530 52052680 50650310
3038.32 49479930 48498760 47599240 46806480 46206500 45483680
3044.10 44757990 44244530 43774040 43278530 42810100 42467310
3049.89 42102410 41582950 41098640 40677810 40261640 39816840
3055.67 39319790 38825480 38319830 37803700 37370340 36929160
3061.46 36452380 35939040 35423910 34925060 34299810 33709980
3067.25 33163440 32594300 32029670 31418710 30909890 30312330
3073.03 29576590 28893090 28272360 27548410 26833970 26243670
3078.82 25494970 24738840 24072560 23383410 22679560 21993450
3084.60 21335570 20666610 20051960 19513240 18830590 18160080
3090.39 17665460 17171850 16674940 16083620 15656160 15266510
3096.17 14831340 14436850 14082950 13787740 13360760 12958450
3101.96 12686740 12387810 12071240 11695840 11309390 11061990
3107.74 10858970 10581450 10302550 10060550 9816914 9502136
3113.53 9092522 8844436 8610202 8301882 8072074 7769132
3119.31 7406678 7207648 7106104 6897930 6697730 6510474
3125.10 6337712 6197300 6058890 5926824 5831706 5776700
3130.89 5701296 5595944 5487258 5364776 5275440 5247946
3136.67 5166670 5096584 5092216 5165704 5105154 5011544
3142.46 5042380 5046486 5171084 5237788 5167388 5142054
3148.24 5138130 5120542 5160026 5291116 5455888 5520554
3154.03 5433270 5369872 5470414 5544396 5582872 5735644
3159.81 5778622 5813280 5919240 6029526 6130560 6197786
3165.60 6336976 6444960 6570038 6761670 6831138 6776822
3171.38 6606174 6448098 6441074 6375518 6327340 6378358
3177.17 6400888 6466768 6522068 6488636 6534700 6730076
3182.95 6948400 7126032 7027626 6589456 6081436 5648160
3188.74 5361150 5100828 4931924 4833072 4683900 4471056
3194.53 4345116 4251706 4084252 3896664 3695150 3613032
3200.31 3483598 3304450 3107100 2846680 2658944 2430782
3206.10 2247994 2195662 2112500 2010494 1838748 1659726
3211.88 1629944 1586966 1482838 1453044 1426990 1314580
3217.67 1237104 1159330 1118406 1170750 1184716 1198024
3223.45 1238374 1245510 1292234 1356550 1347900 1412942
3229.24 1485434 1477786 1469552 1430972 1423182 1379798
3235.02 1371912 1349948 1269634 1326826 1434712 1489656
3240.81 1475100 1303718 1135372 1132162 1025158 993618
3246.59 1089046 1092752 1035310 916460 820102 774492
3252.38 690962 596960 510698 430026 304992 165240
3258.17 86816 51180-22294-92586-110302-75718
3263.95-208230-297664-229450-280772-360288-476810
3269.74-487422-375478-304232-311640-332182-358956
3275.52-475704-590472-520430-547606-668688-676606
3281.31-610392-536770-581742-595888-556418-610336
3287.09-627740-612264-626382-625738-572410-502508
3292.88-507452-636518-740062-616416-533992-567092
3298.66-487052-428706-482998-467386-488522-519526
3304.45-573502-541432-431980-396572-352808-395306
3310.23-422448-455328-481974-464638-386944-372282
3316.02-358820-266746-233976-296144-414802-494758
3321.80-536230-532898-512910-412704-282962-342336
3327.59-380876-390386-515684-530972-517992-462046
3333.38-354662-319890-372762-445324-476920-463670
3339.16-386942-365018-383570-393860-389776-395508
3344.95-352356-356160-341920-254266-337806-291464
3350.73-260416-279122-138602-104268-120398-82568
3356.52-58168-62976-64058 140392 292222 238228
3362.30 355250 471564 536360 584470 698834 721402
3368.09 636638 836224 924226 854644 944866 1007758
3373.87 999470 985688 938006 927572 963484 989262
3379.66 988554 877662 912508 1062572 1093000 1103140
3385.44 1057778 991810 1063372 1086062 998732 935094
3391.23 938678 890530 803452 742374 724128 769376
3397.02 714744 549402 506288 634966 629924 518706
3402.80 542238 671790 738926 709818 742558 823054
3408.59 731560 767780 834206 881756 1108094 1286162
3414.37 1383104 1475626 1566356 1794292 2176110 2475908
3420.16 2646480 2847078 3168640 3506644 3827092 4128058
3425.94 4519560 4981216 5388736 5938146 6572658 7027862
3431.73 7447242 7952976 8647806 9501696 10203650 10839430
3437.51 11489830 12312190 13276460 14122060 15033390 15847090
3443.30 16566860 17407110 18317380 19193750 19901380 20596750
3449.08 21272240 21833640 22259010 22471350 22561610 22590150
3454.87 22376930 22089640 21769180 21383190 21075710 20906080
3460.66 20947920 21183960 21479130 21682340 21852910 21876030
3466.44 21519490 21018300 20319150 19331140 18327670 17198180
3472.23 15968330 14720690 13431670 12115280 10973660 9980524
3478.01 9041340 8128338 7198632 6323456 5566632 4852356
3483.80 4317084 3720754 2996822 2564788 2145436 1688804
3489.58 1332332 999814 688436 385790 106900-57556
3495.37-169448-378970-691742-820344-834150-944980
3501.15-936152-921110-1067254-1194490-1299722-1431462
3506.94-1506408-1396952-1333722-1552850-1762182-1828572
3512.72-1786192-1775026-1943654-1926016-1786956-1838652
3518.51-1859420-1831948-1832566-1763912-1730188-1702842
3524.30-1708786-1755404-1768572-1815228-1804486-1764288
3530.08-1699914-1743928-1788134-1794886-1791108-1683154
3535.87-1737252-1823256-1778242-1719004-1656332-1701552
3541.65-1675126-1471592-1357476-1406548-1267888-1140962
3547.44-1305934-1355586-1356488-1184600-1023356-1089356
3553.22-1116070-1090724-987972-952650-945120-819632
3559.01-651570-573740-330842-90984-50174 34950
3564.79 508792 794890 1042584 957068 441450 371096
3570.58 299362 260112 220278 196792 186618 185014
3576.36 203902 116772 265636 727916 1120406 1138162
3582.15 674156 476040 698554 1146992 1011086 1048612
3587.94 1294438 563936 248686 417460 722538 625246
3593.72 591078 711076 376648 264044 258634 137680
3599.51 192380 73048-89508-245470-372472-541990
3605.29-314154-129198 13594 848356 54896-712524
3611.08 29846 54704-358878-297200-651438-394012
3616.86-44720 207588 584060-224486-609682-685586
3622.65-713966-720302-695470-574402 354062 1970576
3628.43 2394838 841358-484958-552408-324186-238218
3634.22-555454-673804-654976-497876-499280-598950
3640.00-530800-411902-377622-409340-304784 6454
3645.79 926972 1177364 2150990 2666494 1679804 1140674
3651.57 182078-51334-52846 879394 1713122 474666
3657.36-160192-100490-153948-140724-119442-189466
3663.15-160660-171386-60986-64474 671358 1175400
3668.93 2134072 3333382 1224040 65202 736190 2302504
3674.72 3751116 2140224 253896 210562 244556-205004
3680.50-399808-422804-426786-423022-328584-405414
3686.29 483588 3153666 2009218 182012 847488 145342
3692.07-420644-444160-567338-604582-546190-558348
3697.86-494450-578882-250542 434516-143864-737330
3703.64-628456-617814-588728-484080 57544 694668
3709.43 89960 935032 1984954 202100-448040-310872
3715.21-571196-589626-418368-190000-336726-326464
3721.00 193362-49620-400060-151966 195518 364960
3726.79-102308-387794-300654-52938 1512822 1648758
3732.57 448384 1292462 1697874 2017936 1339306 214884
3738.36-25554-3664 334998 163184 1145882 5404110
3744.14 4994864 783676 285626 779574 3524332 3355424
3749.93 1244448 3875602 3098750 162274-155186-74526
3755.71 211934-188584-62878 494796 38528-531622
3761.50-548584-572336-511520-5346-96976-536694
3767.28-532726 265990 588166-323858-588674-708718
3773.07-789360-745180-711654-651896-671112-101830
3778.85 155336-510734-730974-671236-560040-381044
3784.64-492846-597134-595834-642674-684346-674380
3790.43-683622-676458-566452-530788-345874 264620
3796.21 51892-285402-231462 480730 3135576 2726520
3802.00 310032-90628-321566 440616 2181382 1225412
3807.78-343984-323342-348474-275316-311956-98688
3813.57 147428 2741502 3369256 627454 83608 415806
3819.35 1475388 2516324 1600132 332094 89590 84384
3825.14 382480 498934 174904 159004 205014 854864
3830.92 1252470 485282 480456 1582300 1173886 1625436
3836.71 4356368 2990426 1151440 1703188 1286024 844956
3842.49 1262564 1076464 689580 681564 711820 700786
3848.28 1084562 1138730 2816970 4500716 4832774 7616016
3854.07 4872146 1445738 1765314 1335082 1199306 1200964
3859.85 1642628 2039546 1619562 1653920 2872814 2653822
3865.64 1521396 1392642 1932158 3712638 3690956 1866590
3871.42 1339886 1737230 2086914 1480300 1055454 1090130
3877.21 1058784 1422328 2149612 1784936 1017228 1017640
3882.99 905768 1998538 2894034 1357078 600986 729164
3888.78 639676 1597394 1834150 734062 434036 420260
3894.56 282926 296402 409774 987394 1617276 914016
3900.35 1399446 1521978 1080044 1817622 1170002 612756
3906.13 321640 108386 65988 34536 141026 142100
3911.92 87738 54304 101312 191720 610150 555414
3917.70 175106 437978 372264 89300 118834 264628
3923.49 448528 363164 146836 166956 174754 252634
3929.28 272472 277918 561276 434858 255514 187244
3935.06 106236 148232 224774 285182 252084 201762
3940.85 400654 476494 229758 267788 399972 596058
3946.63 717874 625696 355144 185700 240246 311638
3952.42 341160 334000 408082 408926 430474 552248
3958.20 588472 576670 619040 633994 606678 637938
3963.99 694818 765038 885766 893818 913368 996840
3969.77 1066506 1162004 1215308 1228982 1183326
##END=
