##TITLE=Methyl Ethyl Ketone
##JCAMP-DX=4.24
##DATA TYPE=INFRARED SPECTRUM
##CLASS=IUPAC A
##ORIGIN=NIST, Anayltical Chemistry Division, 301-975-3108
##OWNER=COPYRIGHT (C) 1998 by the U.S. Secretary of Commerce
##DATE=98/10/1
##$SPECTRA VERSION=1.00
##$UNCERTAINTY IN Y=2.1 % relative (B=1.1E-04,C=8.6E-10,D=2.7E-14)
##CAS NAME=2-Butanone
##CAS REGISTRY NO=78-93-3
##MOLFORM=C H3 C H2 C O C H3
##MP=-86.35 C
##BP=79.6 C
##$NIST SOURCE=QUANT-IR
##SPECTROMETER/DATA SYSTEM=IFS66V (Bruker)
##INSTRUMENT PARAMETERS=KBr Beam splitter; MCT Detector; Multipass cell
##STATE=gas
##SAMPLE DESCRIPTION=Methyl Ethyl Ketone Primary Gas Standard
##PRESSURE=101.3 kPa
##TEMPERATURE=23 C
##SAMPLING PROCEDURE=1 L/min Flow
##RESOLUTION=1.9290
##DATA PROCESSING=Happ Genzel Apodization
##XUNITS=cm-1
##YUNITS=(micromol/mol)-1m-1 (base 10)
##XFACTOR=1.0
##YFACTOR=4.5474E-13
##DELTAX=0.9645
##FIRSTX=574.687
##LASTX=3974.595
##FIRSTY=.0000205
##MAXX=3973.63
##MINX=574.69
##MAXY=.0005698
##MINY=-9.23E-07
##NPOINTS=3527
##XYDATA=(X++(Y..Y))
574.69 45190360 50915790 56024130 59884900 62018570 62732030
579.51 63617320 64123510 62901580 62984190 66096580 68965950
585.29 72124620 73347180 69040910 65174620 65424110 66509010
591.08 66564860 65541010 65607720 65568580 64615880 63315380
596.86 61512710 58075110 53675000 49108550 44230650 38791720
602.65 33385570 28515020 23957680 19930600 16567890 13846080
608.44 11336270 9007084 7425364 6117874 5146532 4292880
614.22 3995978 3623256 2968940 2662478 2326296 1939340
620.01 1678924 1611926 1506508 1533000 1522184 1444564
625.79 1412710 1346858 1362076 1366952 1254628 1240350
631.58 1028212 716412 776352 1084528 1167792 976078
637.36 768542 894070 1135014 2842326 4971174 3072076
643.15 1204980 1038518 850156 882262 1199708 1405656
648.93 1630758 2473642 3050636 2561886 1871218 1704642
654.72 1886768 2391848 2950172 2860238 2444206 1842574
660.50 1437636 1417682 1306508 1077470 999708 1150414
666.29 1688176 1725466 1256488 1074404 1068080 1085320
672.08 1021674 987792 991026 964292 728950 677034
677.86 748034 734810 637800 569568 543478 644612
683.65 665334 508566 404148 418402 507616 647204
689.43 635552 437226 209744 187510 292876 278712
695.22 367388 261414 138914 135566 183360 267602
701.00 261536 181454 311906 315414 346824 224166
706.79 202850 284640 314392 333632 545130 723098
712.57 804796 976748 1020864 1010468 1217940 1559456
718.36 1709386 1753126 2101664 2544136 2873272 3076702
724.14 3465480 4106824 4789724 5509162 6312054 7116924
729.93 8077770 9083834 10160300 11381170 12593680 14001800
735.71 15491760 16945820 18629760 20247330 21976590 23840190
741.50 25772670 27834630 30097210 32507300 35041920 37813020
747.29 41438600 46341770 52129840 55097030 53737540 51072570
753.07 48291120 46077220 44487200 43261440 42862500 43922680
758.86 45562340 45506910 44245500 43199050 42353750 41294560
764.64 39943180 38295150 36178630 33681280 31000440 28079520
770.43 25106080 22312190 19618900 17082460 14893190 12996720
776.21 11321620 9868336 8669044 7702264 6880632 6306118
782.00 5844566 5323656 4758176 4313892 4137892 4038582
787.78 3781920 3455336 3217658 3142868 3122734 3062594
793.57 2913210 2826186 2877582 2664758 2453290 2489218
799.35 2313920 2021688 1947472 1890134 1852604 1736642
805.14 1691488 1784640 1681178 1431986 1371582 1395382
810.93 1342906 1250138 1139194 913542 870588 937870
816.71 965774 851854 823842 879162 941990 885560
822.50 790640 774344 824326 795686 732620 714922
828.28 620586 730712 938608 928826 686570 710978
834.07 936020 882650 697184 750994 929598 850870
839.85 735360 683346 748236 894812 906266 930546
845.64 882690 886338 960284 959202 951268 915386
851.42 891954 862232 878820 973586 1102752 1112108
857.21 1055568 1030138 1112690 1233956 1223140 1229950
862.99 1381830 1473710 1486332 1495446 1566758 1649280
868.78 1762518 1842858 1934474 2046944 2188842 2389988
874.57 2582014 2776298 2852506 2843578 2911428 3086834
880.35 3272884 3409106 3619058 3755606 3919522 4149350
886.14 4386528 4528154 4698188 4986738 5421020 5789220
891.92 6037484 6496546 7037808 7513604 7960748 8387332
897.71 9013260 9818162 10602940 11391580 12244450 13205140
903.49 14328660 15556910 16912690 18427540 20030360 21761580
909.28 23668640 25718680 27936330 30222080 32512770 34956880
915.06 37558010 40135590 42868530 45876380 48964140 52184260
920.85 55771060 59265870 62562680 66135350 69847540 73859100
926.63 78087790 82244560 86439410 90749990 94896670 99010580
932.42 102764100 106050200 108272300 109343600 110056400 110993000
938.21 113751600 117083500 117952000 117646100 116664600 115686500
943.99 114120600 113200700 113409600 113819800 113474100 111719200
949.78 109146300 106171500 102672800 98593660 94137520 89699260
955.56 85208700 80774200 76397940 72146310 68262140 64638880
961.35 61242200 58056990 55134180 52416220 50005940 47861450
967.13 45966620 44276900 42830430 41631400 40581750 39800440
972.92 39218800 38715340 38279200 37911010 37698080 37585310
978.70 37407750 37022250 36651750 36213660 35638660 35004680
984.49 34355260 33847700 33614550 33486280 33095580 32474090
990.27 31695380 31100300 30665310 30073360 29513140 29091970
996.06 28781350 28311750 27791850 27347380 26974970 26360600
1001.85 25306950 24029960 22675580 21281300 20018860 18724620
1007.63 17449110 16424710 15560010 14759060 14040480 13433010
1013.42 12888660 12414330 12066260 11666410 11317170 10974340
1019.20 10590600 10273840 9835008 9434150 9106060 8718824
1024.99 8302236 7922444 7547928 7255454 7080606 6903834
1030.77 6783708 6764930 6690920 6499536 6390766 6380700
1036.56 6406904 6480150 6455592 6478874 6569938 6700914
1042.34 6905024 7052224 7199252 7331448 7590636 7970924
1048.13 8301374 8498060 8748468 8921888 9155978 9585634
1053.91 9992924 10369630 10900710 11537020 12183460 12794480
1059.70 13513490 14270090 15129360 16084140 17113700 18238700
1065.48 19258130 20326740 21514670 22726260 24008190 25352910
1071.27 26739350 28048190 29382060 30768390 32063460 33269810
1077.06 34412830 35338030 36097880 36596860 36951520 36974260
1082.84 36607420 35980290 35220740 34388640 33568700 32919140
1088.63 32609130 32832420 33575550 34386470 34677770 34364990
1094.41 33549160 32330690 30976150 29578750 28230770 27058130
1100.20 25941640 24837450 23781510 22999820 22424510 21921630
1105.98 21613520 21580320 21529070 21218170 20735890 20444500
1111.77 20305060 20199110 20218590 20299740 20383700 20544250
1117.55 20820680 21255580 21694330 22076940 22562600 23126800
1123.34 23710070 24218880 24832150 25617940 26479600 27477840
1129.12 28586920 29886890 31343040 32969870 34997800 37337570
1134.91 40016100 43153390 46779130 50933420 55880890 61785080
1140.70 68837580 77261950 87343450 99283260 113066000 128907100
1146.48 146925200 166871400 188404300 211195600 235076600 259542100
1152.27 283854200 307131200 328591900 348139600 366127000 383113800
1158.05 400535100 418512900 435440000 451441500 470688900 494885000
1163.84 520296300 543487400 555742300 557619200 564923600 565491800
1169.62 561850100 567439100 576817700 584809400 588510300 583416600
1175.41 565567000 554215300 545841000 516903900 481499400 452798400
1181.19 433177400 417956400 404450300 391082800 375649900 358186400
1186.98 339654900 320354400 300794400 281479900 262798800 244813600
1192.76 228318100 213434400 200048300 188053200 177509600 168283300
1198.55 160157500 152852600 146304300 140154700 134291100 128752400
1204.34 123408200 118158600 113418700 109121800 105107400 101170800
1210.12 97006720 92494780 87742060 82751540 77649750 72293710
1215.91 66855000 61679940 56960610 52541680 48502550 44870040
1221.69 41788420 39083070 36710680 34686350 32980350 31503450
1227.48 30208380 29127250 28270130 27519920 26821280 26214970
1233.26 25759160 25383860 25132240 25018110 25060420 25275490
1239.05 25666060 25945940 26092590 26341080 26810810 27312080
1244.83 27839740 28362070 28951180 29453920 29866740 30209390
1250.62 30534400 30807610 31066770 31275820 31429230 31509330
1256.40 31628960 31720590 31675830 31372290 31064740 30830610
1262.19 30654620 30559420 30501290 30239980 29840580 29526110
1267.98 29157470 28641810 28181510 27554920 26805750 26003860
1273.76 25312200 24637890 23963550 23352760 22782260 22179870
1279.55 21606820 21074170 20669900 20267020 19887240 19572820
1285.33 19382950 19208770 19086520 19204940 19455480 19718700
1291.12 20160340 20676070 21327500 22120820 23045880 23993650
1296.90 24994670 26083860 27332430 28574170 29894870 31298010
1302.69 32792300 34333690 36004440 37719540 39497760 41253800
1308.47 43051980 44861550 46793690 48839680 51001660 53143380
1314.26 55355900 57652020 60095360 62374000 64844510 67511560
1320.04 70301660 73067020 76229740 79537470 82934190 86452140
1325.83 90157190 93984580 97897900 101904200 106156100 110559200
1331.61 115302400 120279800 125585600 131033000 136591900 142240100
1337.40 148406700 154917100 162006700 170571000 179294500 187415700
1343.19 196602300 207772100 222188900 239487000 258901900 279648900
1348.97 301574200 324477600 348132400 371677100 394257800 415199600
1354.76 433928400 449524500 462192200 471558300 477065000 477500400
1360.54 475719100 475395800 480629100 498175800 526879400 544627500
1366.33 539926100 513857000 485610300 477190700 484598100 496264000
1372.11 504525600 506413500 499307500 482722000 457610400 426337200
1377.90 390547400 352581100 314434200 278258400 245072400 216231900
1383.68 192080800 173000400 158946100 149300200 142772100 139687000
1389.47 138615900 137801400 136609000 135442800 134446000 132287700
1395.25 129331300 126609300 124494800 122773400 120625000 119011300
1401.04 118438100 118648100 119929000 122093800 124334800 127003400
1406.83 130534100 134791700 139680300 144696200 149570000 154227100
1412.61 158613800 162549700 166047800 169147600 171663100 173662800
1418.40 174389500 170886800 166783300 164017500 162680200 163474300
1424.18 166698300 172411200 179142600 185749900 191577400 195672600
1429.97 197058400 196571900 194690000 191144400 186932100 184089200
1435.75 182195100 178248600 175572900 175108500 175109700 174868600
1441.54 174141100 173092100 172185100 171462300 171578000 172623700
1447.32 172354600 170321800 169913600 171882300 176294900 183982500
1453.11 197024900 215548600 234559300 239388400 227854800 213403300
1458.89 200086800 187693900 175001400 162941600 153132400 149388600
1464.68 152986800 158919800 159983900 156826900 154022700 153087200
1470.47 153997400 154382900 153039300 149705300 145565400 141177100
1476.25 134586900 127435000 120054000 112546700 105030600 97607860
1482.04 90468180 83962110 77922620 72689440 68409690 64197700
1487.82 60260520 57672390 54678310 51133560 48217200 46210940
1493.61 44553610 44734490 44166990 41299480 40383660 39337960
1499.39 37621630 36916420 36319520 35792450 36083530 38549320
1505.18 40269940 39920120 37597600 36175330 35623460 35096530
1510.96 35360290 35027120 34424910 34687900 35018920 35951130
1516.75 35875050 34912460 35524240 37727780 38039650 35867470
1522.53 34099220 33681200 34209640 33161340 32479040 32053870
1528.32 31314150 30699170 30577320 30562010 31231200 30798950
1534.11 28992230 27971800 27516860 28948790 31985830 31589860
1539.89 29169670 28518220 27189300 25198970 25315280 24614330
1545.68 23050650 22213640 21941750 22025620 21620140 20591640
1551.46 20135540 20845710 21933530 20231830 19470450 21728340
1557.25 24455480 24204640 23373500 19819780 17157550 16726200
1563.03 16699820 16714860 16111130 15572800 15471310 16261980
1568.82 16867790 15266830 14192100 13893470 13706770 14050630
1574.60 17105470 17740090 14134960 12775510 12507750 12385700
1580.39 12134390 11988250 11793360 11630090 11395990 11217510
1586.17 10966300 10791570 10624670 10436020 10176000 9965120
1591.96 9735230 9615600 9476676 9257622 9018654 8811390
1597.74 8663460 8527506 8413588 8291766 8203588 8165492
1603.53 8020362 7873832 7835272 7758094 7659698 7634260
1609.32 7476666 7281026 7208314 7129016 7102496 7482942
1615.10 10309180 11242270 8088952 7025098 7036858 7137810
1620.89 7338042 8349140 8702344 7687418 7274178 7553804
1626.67 8123560 7879206 7390356 7371258 7379076 7417166
1632.46 7609154 9347490 11939150 10609600 8683142 8305980
1638.24 7996886 8178464 8222486 8382910 8454182 8718994
1644.03 10179400 12160740 11265130 10459260 9601658 8925096
1649.81 9197866 12870060 17717970 16255070 12248930 10359540
1655.60 9962474 10218050 10412450 10730880 11117480 11971640
1661.38 13384460 13668770 12727660 12838730 13112580 13710040
1667.17 14944210 17062740 17022710 16977160 17461130 17696070
1672.96 18940920 21856710 22535190 21785320 22644290 24154860
1678.74 25933040 27591820 29141850 31948850 36154510 41150010
1684.53 41144840 39611700 41700100 44308800 47091500 49878480
1690.31 52746960 55752560 59252390 63346810 70734980 76948170
1696.10 78171680 82046380 90037810 100971700 108286900 114161500
1701.88 123459100 134991200 147117200 159935200 173868700 188470200
1707.67 205139900 223868800 244407300 266792000 291508500 318721100
1713.45 348835100 381098800 416682400 456595000 496532100 538461400
1719.24 584434200 633840800 685667800 739599400 794699300 850109800
1725.02 905682300 960516200 1013290000 1062495000 1106291000 1141362000
1730.81 1165052000 1176993000 1174500000 1152586000 1112843000 1066437000
1736.60 1025494000 1002783000 1010194000 1048296000 1108442000 1173110000
1742.38 1223257000 1249610000 1253032000 1236458000 1203703000 1159199000
1748.17 1105558000 1046095000 984440200 919694300 853993200 790004300
1753.95 728144400 669359600 613921500 561148100 512015900 466383300
1759.74 424200900 385408100 348028800 313198000 281916600 253477700
1765.52 227778800 205137600 184421600 164692400 148149900 134415000
1771.31 122857400 110915300 98981590 89701160 81571020 74174410
1777.09 67683160 61976380 57047100 52472960 47865320 43890310
1782.88 40531640 37641540 34280220 31128830 28523440 26299640
1788.66 24664390 23342880 22001080 21879830 21112990 20132030
1794.45 19668150 18719710 17536170 16712100 16438780 15786020
1800.24 15033210 14434920 13650750 12897160 12322140 11717150
1806.02 11039680 10296700 9503766 8962312 8400748 7527966
1811.81 6859248 6266388 5824626 5419634 5079010 4743962
1817.59 4383028 4084352 3905582 3803068 3684324 3510476
1823.38 3811686 4111332 3506252 3105744 3210558 3807158
1829.16 4175348 3484452 3049588 3071190 3038542 2983850
1834.95 3053200 3117340 3117234 3086756 3151172 3154510
1840.73 3281668 3544898 4886882 5225232 3847916 3513606
1846.52 3694356 3711464 3625394 3750166 3869140 3939896
1852.30 3947084 4059786 4131132 4259402 4376464 4521814
1858.09 4653184 4740302 4784914 4847798 4945922 5087352
1863.88 5226016 5422666 5645316 5983110 6536090 6593042
1869.66 5951942 5803084 5877152 5991990 6100858 6203492
1875.45 6279022 6385180 6391660 6367906 6317852 6331288
1881.23 6277954 6293510 6370080 6370430 6349358 6372936
1887.02 6387010 6669012 6690936 6259916 6074696 6023292
1892.80 5896490 5823344 5661428 5350412 5170394 5067332
1898.59 4959242 4830526 4717296 4575538 4415408 4336510
1904.37 4210588 4028736 3961268 3912086 3879056 3858010
1910.16 3687378 3566328 3449902 3382800 3336052 3257826
1915.94 3452678 3939976 3569314 3095240 3064008 3154306
1921.73 3281302 3171870 2985724 2913650 2882620 2866298
1927.51 2869378 2834834 2721254 2675584 2671974 2639490
1933.30 2596712 2507584 2461342 2472630 2496332 2496544
1939.09 2466708 2520726 2802302 2832794 2559768 2479032
1944.87 2423438 2329098 2255166 2225712 2158794 2045982
1950.66 1977466 1970580 1958372 1998002 1927396 1761370
1956.44 1659652 1625078 1615134 1624166 1596712 1538482
1962.23 1456970 1355574 1311250 1338012 1367578 1277582
1968.01 1127334 1034050 943214 884278 852514 810140
1973.80 862254 990486 966286 999230 1053214 1100110
1979.58 1145114 1207240 1271634 1305924 1307310 1318160
1985.37 1283688 1296258 1325680 1304384 1296842 1499020
1991.15 1614282 1482034 1376464 1377810 1448084 1496670
1996.94 1503520 1501130 1480648 1420368 1359324 1291274
2002.73 1223806 1149778 1054814 974970 928832 852428
2008.51 775072 737478 683668 661242 621504 567150
2014.30 552772 631728 620366 524558 460850 379142
2020.08 370754 377052 311248 261246 272152 269262
2025.87 237954 230926 232804 243122 217926 187478
2031.65 241202 296134 306502 289924 270246 299366
2037.44 314500 327134 381524 418534 363360 339596
2043.22 359572 372194 362384 371834 405280 441484
2049.01 438140 449438 505734 541364 532470 526002
2054.79 576218 640148 675816 710530 722624 783628
2060.58 847390 857186 916082 1085208 1129050 1086772
2066.37 1113932 1184360 1261394 1277982 1326062 1473598
2072.15 1614014 1691698 1753072 1852780 1929908 2046166
2077.94 2190026 2294494 2398868 2534594 2688220 2858400
2083.72 3026636 3167332 3311570 3497700 3693590 3882972
2089.51 4050160 4192354 4345868 4510942 4692046 4831048
2095.29 5015538 5192974 5355278 5560444 5705694 5817388
2101.08 5946768 6099928 6253692 6412572 6543226 6652746
2106.86 6771556 6900960 7063838 7184350 7268476 7413476
2112.65 7531146 7591344 7598190 7590092 7584394 7472094
2118.43 7264620 7051200 6930468 6813708 6723608 6638810
2124.22 6567228 6556276 6406508 6165422 5933060 5722490
2130.01 5533878 5383660 5174254 4886062 4639748 4395396
2135.79 4101320 3790352 3503694 3240434 2978988 2735796
2141.58 2544454 2383568 2226032 2102792 1980882 1872338
2147.36 1816248 1782300 1687856 1597724 1560174 1507180
2153.15 1461076 1465754 1518970 1550046 1499526 1492864
2158.93 1477016 1451894 1465968 1453198 1428794 1486246
2164.72 1542394 1578524 1605910 1584382 1587062 1619332
2170.50 1614742 1567686 1515910 1459632 1385526 1315720
2176.29 1256068 1222494 1153672 1066944 990340 949150
2182.07 922306 853148 784604 695888 624152 576864
2187.86 547622 508390 444332 374044 295446 255548
2193.64 190834 145844 128022 99232 80780 65096
2199.43 62276 9132-58746-65944-65742-79116
2205.22-78606-59808-64528-78284-47928-46266
2211.00-37758 9098 32938 17302-27464-53504
2216.79-99434-129228-91770-110982-136652-130634
2222.57-130890-117350-136240-139954-151464-194394
2228.36-222578-218138-221866-231082-227942-240668
2234.14-277742-295732-296890-293902-313592-344704
2239.93-310404-276490-303992-306440-280666-294174
2245.71-316394-291478-245154-209006-218888-214054
2251.50-155054-123950-138218-105072-36952 16108
2257.28 27850 60760 101522 196870 267992 303464
2263.07 386990 447534 495990 608268 706262 785696
2268.86 866302 961914 1078162 1180662 1240958 1323728
2274.64 1479642 1607304 1701644 1799434 1902132 2005602
2280.43 2135290 2248452 2391610 2488442 2570902 2633860
2286.21 2684496 2756266 2851126 2884498 2891314 2979040
2292.00 3048140 3069642 3116674 3181606 3180106 3128302
2297.78 3084066 3041392 3055750 3032960 2966860 2857846
2303.57 2780444 2781154 2814408 2771022 2730436 2685646
2309.35 2630498 2630812 2608206 2586628 2495898 2476680
2315.14 2420858 2406196 2286452 2279468 2186240 2232240
2320.92 2225904 2215772 2134818 2175358 2153788 2193460
2326.71 2227272 2234530 2166418 2197886 2198928 2211540
2332.50 2229884 2275342 2240768 2262686 2258614 2268012
2338.28 2268412 2233576 2219306 2196556 2129600 2082554
2344.07 2004190 1942066 1887520 1827440 1771478 1793434
2349.85 1922688 2067960 2203164 2351828 2526570 2637032
2355.64 2711290 2803612 2897892 2993940 3076616 3127722
2361.42 3150006 3205250 3156226 3075274 3012564 3003546
2367.21 2999152 2917812 2793770 2669966 2613000 2557154
2372.99 2460354 2366176 2287634 2212074 2145640 2084116
2378.78 2034160 1994614 1941788 1884128 1823512 1762752
2384.56 1728018 1685584 1612852 1487292 1369300 1292474
2390.35 1271906 1293256 1252236 1143280 1079644 1064504
2396.14 1052110 1075340 1073678 1007694 948870 937982
2401.92 990818 1014814 983518 913628 885720 910168
2407.71 873976 822338 802924 750798 752472 749178
2413.49 715302 688170 675434 636188 624144 619180
2419.28 550310 610628 651152 613284 638068 607322
2425.06 573072 537856 505168 474592 464116 488162
2430.85 477590 454154 448688 437496 415830 390406
2436.63 373690 421750 455752 440316 450732 460302
2442.42 464696 436396 462056 480692 429362 407160
2448.20 439222 443652 468434 545906 651172 720700
2453.99 739236 725088 751424 803504 877822 941858
2459.77 975286 939854 936128 1010864 1068532 1070288
2465.56 1069730 1055946 1019012 1004912 1025262 1069238
2471.35 1108580 1120572 1194854 1289874 1312434 1271728
2477.13 1282384 1282898 1254404 1205774 1108514 998714
2482.92 974646 958098 928714 904488 883008 876290
2488.70 913238 957044 968594 977270 1024152 1115986
2494.49 1189508 1282436 1384098 1460110 1537834 1587048
2500.27 1662018 1747688 1812196 1928208 2015636 2037684
2506.06 2116982 2198802 2257150 2286772 2355154 2412294
2511.84 2465004 2502654 2546126 2616536 2695970 2758720
2517.63 2735666 2721310 2661282 2585700 2556392 2522478
2523.41 2411944 2352490 2248194 2182634 2166210 2098228
2529.20 2010760 1936898 1849648 1767020 1706938 1657550
2534.99 1530160 1455970 1384730 1344398 1291306 1190636
2540.77 1118514 1079816 1014516 956946 867376 766686
2546.56 769916 819358 765168 721892 723978 718308
2552.34 704330 687136 710254 746898 753030 704786
2558.13 645686 639988 641210 625898 588036 579970
2563.91 570676 535416 492116 485450 521332 527936
2569.70 484338 451934 453796 427126 392530 345198
2575.48 317032 278462 224156 211594 192766 180794
2581.27 178404 159708 148834 142604 138694 97892
2587.05 58744 108840 161912 189676 186204 162054
2592.84 181832 160974 154180 159992 210236 233412
2598.63 248232 289444 314272 272456 243378 239508
2604.41 273734 288434 298874 327918 348030 387458
2610.20 388120 364234 361090 386546 386070 349750
2615.98 395440 400726 393920 427200 411192 357318
2621.77 380092 377412 342224 337324 330200 291624
2627.55 275190 246510 237540 230922 242730 233690
2633.34 209116 220710 244754 182908 176662 238340
2639.12 238140 196102 200422 207460 263498 291274
2644.91 282344 308628 375142 430346 456776 494372
2650.69 540642 567654 648248 767904 832828 864684
2656.48 920346 1003808 1084700 1167434 1261812 1358532
2662.27 1417106 1479156 1578514 1646218 1691024 1772102
2668.05 1865202 1936114 1941478 1952444 2012320 2073474
2673.84 2080738 2055748 2100892 2152544 2102494 2093748
2679.62 2098334 2083062 2100164 2125738 2139304 2126292
2685.41 2094972 2086154 2069128 2029952 1992678 1970694
2691.19 1972520 1956068 1864466 1769590 1729778 1765520
2696.98 1787480 1774776 1731196 1759616 1816026 1782108
2702.76 1774354 1761410 1762096 1776782 1805656 1840518
2708.55 1848568 1903432 1936260 1870002 1849358 1962754
2714.33 2062344 2130828 2167846 2199302 2210022 2231016
2720.12 2276174 2291186 2332216 2392708 2433016 2502114
2725.91 2598706 2684922 2781626 2904140 3003460 3102550
2731.69 3288036 3499960 3647204 3782054 3977888 4120648
2737.48 4277676 4427896 4573076 4777896 4954942 5157982
2743.26 5348706 5455084 5549614 5625816 5641646 5691186
2749.05 5842754 6029868 6095012 6024210 6043022 6111512
2754.83 6161166 6176536 6154186 6180802 6218394 6201558
2760.62 6077664 5919890 5743072 5558492 5369492 5230758
2766.40 5112182 4957154 4797910 4742472 4753900 4757520
2772.19 4772270 4820910 4912348 4998870 5104870 5254462
2777.97 5451400 5656110 5853974 6046968 6228782 6483138
2783.76 6762936 7072470 7430386 7790878 8224644 8663022
2789.54 9097838 9633066 10243000 10832440 11369280 11858420
2795.33 12325960 12715410 13089410 13567850 14119350 14578360
2801.12 15097530 15593240 16139510 16761490 17476210 18235670
2806.90 19009940 19824020 20580180 21298280 22079800 22924680
2812.69 23715740 24438570 25065130 25535410 25956000 26261550
2818.47 26480620 26683310 27009240 27384510 27712190 28069970
2824.26 28556380 29092530 29455000 29854950 30375700 30808020
2830.04 31253890 31748250 32287230 32806220 33335700 33770910
2835.83 33983080 33975330 33833410 33555780 33296570 33037820
2841.61 32787100 32622250 32560690 32588690 32668760 32650220
2847.40 32634120 32534620 32522630 32494830 32477550 32538590
2853.18 32675800 32792420 32978380 33130510 33260760 33436470
2858.97 33638320 33771080 34060660 34519800 35020410 35553290
2864.76 36293140 37266630 38567790 40254110 42300540 44788860
2870.54 48017540 51970560 56599730 61947920 68160640 75219380
2876.33 82886440 90767900 98814440 106627700 113911300 120209300
2882.11 125146400 128452500 130634600 132400800 135038000 139488800
2887.90 146887700 158109300 172301200 183937800 189532800 192591300
2893.68 197790400 205737700 214795200 223262300 230019700 234871000
2899.47 238251300 240368600 241842800 243349200 244520600 245132900
2905.25 245963600 247812100 250547600 253738700 257158200 260344500
2911.04 263383400 266925300 272978900 285325100 302757200 312046600
2916.82 308110700 297143900 285138200 276574300 270676700 265470600
2922.61 260376300 255326100 250411000 245608000 240863300 236594300
2928.40 233461900 231648500 231196800 232266500 235092500 240074200
2934.18 246988900 254965200 263505500 271801600 279204300 285047900
2939.97 288278600 288094700 284702300 278218600 270045600 261796400
2945.75 256862300 263051200 287646900 303340200 289048400 270436600
2951.54 260696600 259270300 263323700 270584000 278316600 285106000
2957.32 289365900 290949700 289848100 286796100 281450000 275741800
2963.11 271492000 269768800 271295000 276708400 284434100 291609300
2968.89 295857500 298814000 303571400 311950200 322864300 335151400
2974.68 347815500 360314800 372145000 383330800 393543000 402980700
2980.46 411499800 419402800 426281900 432125900 434689600 432693100
2986.25 427228500 425863400 436615400 469402100 542502000 600141200
2992.04 548195800 466732500 433290000 422594000 414258800 403440100
2997.82 390332700 375210500 359522800 343664700 327905400 312319600
3003.61 297221600 282218900 267373400 252494700 237731200 223389000
3009.39 210168800 198964500 191292200 186629200 179345800 165825800
3015.18 152533600 143410900 137385800 132605800 128379400 124174400
3020.96 119669600 114590900 109203000 103528300 97707020 91876300
3026.75 86138100 80531430 75429480 70768690 66543720 62660140
3032.53 59334710 56604280 54347580 52363860 50741420 49393080
3038.32 48309270 47382900 46558020 45825040 45287540 44601110
3044.10 43921600 43436590 43022480 42556310 42136080 41830210
3049.89 41507330 41007200 40544830 40142490 39761960 39331460
3055.67 38857680 38368260 37877000 37371440 36959380 36536080
3061.46 36078680 35572760 35077080 34577530 33964000 33369280
3067.25 32834660 32271990 31714630 31114140 30620960 30022880
3073.03 29289380 28598550 27978070 27251730 26544910 25947310
3078.82 25203050 24436940 23767080 23076600 22371970 21678300
3084.60 21019360 20343600 19743150 19193160 18513160 17825600
3090.39 17338910 16850490 16355660 15756690 15335430 14945950
3096.17 14524400 14125040 13790950 13493730 13071810 12666010
3101.96 12400600 12115370 11801860 11415740 11029000 10786140
3107.74 10595910 10327410 10050820 9817290 9579910 9255034
3113.53 8842758 8588984 8359494 8060104 7826520 7511584
3119.31 7145568 6945044 6856272 6656348 6455064 6263406
3125.10 6095474 5954566 5819774 5688884 5600850 5553958
3130.89 5485272 5383088 5269184 5145670 5058172 5033070
3136.67 4952704 4882136 4890560 4969360 4912464 4813620
3142.46 4838500 4859382 4999396 5070480 5004026 4966158
3148.24 4959972 4939320 4984492 5132898 5319260 5385876
3154.03 5284972 5214108 5312506 5395376 5446606 5599170
3159.81 5649062 5682750 5791696 5910752 6015650 6089058
3165.60 6232650 6349042 6495414 6699938 6787186 6717980
3171.38 6527058 6354532 6339298 6272868 6229034 6276388
3177.17 6315464 6386860 6444522 6407914 6463542 6680840
3182.95 6952880 7159660 7065724 6585612 6029212 5556784
3188.74 5256998 4989676 4832402 4736752 4593084 4376732
3194.53 4253680 4164192 4000388 3800824 3602360 3520334
3200.31 3400914 3220706 3012400 2745756 2543904 2306108
3206.10 2125656 2074296 2007754 1901362 1720168 1536594
3211.88 1508568 1468530 1372634 1342080 1319104 1205926
3217.67 1118956 1035310 999764 1054788 1078250 1096454
3223.45 1136080 1149826 1201394 1266274 1265738 1334704
3229.24 1414190 1412088 1398310 1360528 1347032 1307454
3235.02 1296640 1269044 1187208 1252828 1374808 1454372
3240.81 1427474 1246400 1062626 1050386 942486 922606
3246.59 1022370 1047778 980486 858340 753766 710842
3252.38 624712 532608 441532 362396 225980 83324
3258.17-672-31700-107990-177360-185538-154364
3263.95-287196-379762-308692-353362-443000-574916
3269.74-576362-456330-364012-372018-386064-425792
3275.52-550436-669042-596768-625218-749672-765630
3281.31-682800-605962-646332-662574-626158-678274
3287.09-698850-685572-698718-696744-635320-553256
3292.88-564846-711282-821290-691916-602212-622746
3298.66-545578-482340-533982-526042-546494-588148
3304.45-644536-611040-489636-444394-398160-447550
3310.23-476432-522194-546322-529140-444108-428416
3316.02-405890-308520-267124-337772-470662-563730
3321.80-609224-608068-580204-461386-327612-379150
3327.59-427268-449030-578484-604616-589538-519020
3333.38-401986-360778-421186-506748-544924-526732
3339.16-442930-417208-437428-452208-452306-452642
3344.95-415528-414348-396088-315490-393230-355266
3350.73-329376-335086-197368-155714-173252-142622
3356.52-118046-138576-127908 82934 243984 192142
3362.30 305034 426276 497414 548484 665452 673568
3368.09 599366 794356 891424 825160 909140 977762
3373.87 974212 946110 897030 879188 922670 950944
3379.66 941156 820980 860936 1017074 1067220 1068304
3385.44 1014148 947492 1022414 1047908 956636 886658
3391.23 887154 839226 741460 675240 659950 713540
3397.02 644356 468918 418462 558816 548256 433448
3402.80 445452 593396 656268 632880 656674 731350
3408.59 632618 657222 709746 771256 996918 1188400
3414.37 1280362 1354346 1434832 1671504 2070598 2380634
3420.16 2543618 2734118 3055974 3401406 3718526 4017344
3425.94 4410634 4871028 5289572 5856022 6501642 6963054
3431.73 7361080 7863380 8581760 9464108 10187960 10817560
3437.51 11468800 12314440 13304960 14193600 15123160 15951200
3443.30 16682780 17543590 18491420 19402300 20134580 20855190
3449.08 21554740 22150220 22582660 22799900 22884270 22895710
3454.87 22661000 22338260 21975670 21552040 21209350 21025510
3460.66 21087670 21364580 21712750 21968020 22192000 22235760
3466.44 21900990 21378410 20655040 19629090 18584350 17404190
3472.23 16138060 14829180 13491960 12118760 10947680 9931086
3478.01 8991194 8054600 7109394 6210584 5437508 4728560
3483.80 4193488 3584062 2857066 2411528 1997592 1547170
3489.58 1184272 858868 546170 240104-37190-189036
3495.37-288846-505456-825390-956428-964064-1054240
3501.15-1032266-1009806-1149262-1287570-1399728-1540378
3506.94-1602382-1472054-1396714-1626992-1860312-1930974
3512.72-1869850-1866720-2031434-2015104-1866304-1908742
3518.51-1932202-1912436-1897834-1832958-1782188-1759484
3524.30-1759508-1816358-1828832-1885996-1865794-1824276
3530.08-1748330-1800694-1845294-1866402-1840914-1742106
3535.87-1789792-1892548-1844694-1780324-1713754-1773606
3541.65-1733342-1525322-1399680-1445182-1296544-1178066
3547.44-1340322-1429740-1415340-1234160-1054400-1132426
3553.22-1165044-1154050-1033412-1019538-995648-887756
3559.01-700690-626952-353394-126910-77960 9536
3564.79 510378 857628 1123866 998508 451176 333272
3570.58 263174 231926 180508 163172 143326 149858
3576.36 141796 52670 212586 736516 1179982 1179120
3582.15 658674 413946 686950 1141174 1060370 1098478
3587.94 1319148 541948 187094 355238 721002 620752
3593.72 617950 691410 382598 225690 227312 117144
3599.51 173710 51196-122860-296966-461800-609564
3605.29-400804-176744 73982 883338 39006-743272
3611.08-49976 56486-364118-399012-709628-483390
3616.86-49486 266048 633228-235098-670228-814098
3622.65-785174-850034-823592-714496 407504 2194628
3628.43 2659114 933988-578838-698108-385382-279954
3634.22-608526-756752-724438-552644-552210-663566
3640.00-592182-479214-438302-510650-414552-43898
3645.79 880636 1288526 2319680 2868432 1839166 1131670
3651.57 82588-212402-155032 964884 1781454 543878
3657.36-249032-206164-222434-195868-190702-241458
3663.15-253706-232748-207828-111870 546924 1255800
3668.93 2345922 3529060 1242682-94472 558878 2557640
3674.72 3993510 2352616 185400 102206 128248-240956
3680.50-543894-487170-568230-471384-532142-520564
3686.29 592032 3379998 2200248 303296 729254 155360
3692.07-501370-543156-652592-667094-628494-595458
3697.86-590064-623416-246328 475106-148096-783802
3703.64-755510-682260-703220-543196 63524 656824
3709.43 142804 1072244 2082034 294810-536116-439678
3715.21-641834-681016-469760-234740-393230-332174
3721.00 158230-58514-476428-194364 185022 385044
3726.79-173214-475656-514620-16264 1526844 1744022
3732.57 445062 1293270 1776180 2199280 1321348 180562
3738.36-254614-105586 91370-64598 1311742 5807314
3744.14 5364864 841552-147614 752828 3644096 3447046
3749.93 1517520 4000120 3277024 175058-416134-186250
3755.71 120704-258230-73848 480156 42340-601504
3761.50-655372-673024-539322-29874-102552-627200
3767.28-561076 290664 660642-313574-645606-813066
3773.07-838234-835636-747990-750438-674732-96076
3778.85 198650-528492-789230-761144-568820-422438
3784.64-494632-649680-625214-706592-717974-749778
3790.43-728680-755124-620964-625762-334836 219434
3796.21 63764-434704-385434 573254 3408226 2950920
3802.00 394212-356058-483508 495514 2304594 1343554
3807.78-398110-495996-474648-381430-451560-308052
3813.57 195592 2966444 3595990 702508-135948 266696
3819.35 1602398 2652512 1734452 261338-48338-27940
3825.14 350184 434542 135380 20604 159402 841962
3830.92 1249886 394584 460724 1434314 1149756 1778420
3836.71 4556258 3181032 1225070 1558006 1253484 801500
3842.49 1194266 1040034 601226 579916 552478 617686
3848.28 816228 1100026 2752004 4675376 5357524 8097468
3854.07 5123036 1484982 1431384 1250690 1033556 1108228
3859.85 1603946 2010718 1557410 1683494 2919820 2728452
3865.64 1457226 1218798 1967380 3898658 3872438 1901582
3871.42 1233794 1694242 2109780 1457768 999330 962560
3877.21 1001206 1430332 2216456 1809436 999138 844264
3882.99 885152 2095146 3020116 1415240 519814 538100
3888.78 648844 1625540 1918508 732500 366538 295270
3894.56 228060 156346 370904 993102 1626000 975468
3900.35 1403238 1526428 1179120 1850386 1228134 601362
3906.13 231398 48196-21920-13706 89806 107678
3911.92 41220 2988 38550 185634 612910 555220
3917.70 175176 411760 348860 56018 60630 249540
3923.49 446278 352354 121358 116406 146528 218520
3929.28 244994 273650 562020 438102 241056 139582
3935.06 66586 106088 199272 263806 216302 181888
3940.85 385018 461820 201694 223372 373568 608228
3946.63 739540 634644 326594 135442 191652 276280
3952.42 311910 305516 378970 376488 408794 527848
3958.20 574604 557326 600380 606776 581710 602010
3963.99 667014 743558 869068 874570 894010 972488
3969.77 1054978 1151472 1210932 1210282 1161728
##END=
