##TITLE=Methyl Ethyl Ketone
##JCAMP-DX=4.24
##DATA TYPE=INFRARED SPECTRUM
##CLASS=IUPAC A
##ORIGIN=NIST, Anayltical Chemistry Division, 301-975-3108
##OWNER=COPYRIGHT (C) 1998 by the U.S. Secretary of Commerce
##DATE=98/10/1
##$SPECTRA VERSION=1.00
##$UNCERTAINTY IN Y=2.1 % relative (B=1.1E-04,C=8.6E-10,D=2.7E-14)
##CAS NAME=2-Butanone
##CAS REGISTRY NO=78-93-3
##MOLFORM=C H3 C H2 C O C H3
##MP=-86.35 C
##BP=79.6 C
##$NIST SOURCE=QUANT-IR
##SPECTROMETER/DATA SYSTEM=IFS66V (Bruker)
##INSTRUMENT PARAMETERS=KBr Beam splitter; MCT Detector; Multipass cell
##STATE=gas
##SAMPLE DESCRIPTION=Methyl Ethyl Ketone Primary Gas Standard
##PRESSURE=101.3 kPa
##TEMPERATURE=23 C
##SAMPLING PROCEDURE=1 L/min Flow
##RESOLUTION=0.9640
##DATA PROCESSING=Boxcar Apodization
##XUNITS=cm-1
##YUNITS=(micromol/mol)-1m-1 (base 10)
##XFACTOR=1.0
##YFACTOR=4.5474E-13
##DELTAX=0.4820
##FIRSTX=575.169
##LASTX=3975.077
##FIRSTY=.0000215
##MAXX=3974.59
##MINX=575.17
##MAXY=.0005724
##MINY=-1.09E-06
##NPOINTS=7053
##XYDATA=(X++(Y..Y))
575.17 47401850 52101840 53910330 56092540 58186450 60248550
577.58 62395540 61995690 62537650 63149850 61871320 64225650
580.47 63879990 65699920 63646360 63394610 60114660 62769860
583.37 62520670 67696530 68797100 68777260 67811130 72305430
586.26 78241420 71135100 76692220 66972780 66249370 60989520
589.15 65524050 67544000 64710360 65017040 69493890 67336980
592.04 64772650 65139210 64700160 66769640 65205180 66046940
594.94 65686500 64605600 63304150 63854360 62766100 62025750
597.83 60233150 59130860 55072620 53656310 51947980 48848650
600.72 46825860 44565030 41615010 38904700 36087490 32381520
603.61 31419090 28693890 25581620 24100730 21878250 19213460
606.51 18544160 16372370 14589450 13975510 12689060 11904870
609.40 9069140 9124556 8042268 7101156 7291328 5707902
612.29 5202602 5374792 5232790 3630958 3475828 4335888
615.18 4283394 3989916 2763278 2660934 3001194 2800640
618.08 2392334 2245890 2375120 1936306 1306910 2000166
620.97 1486816 1542194 1821284 1515916 806492 2248442
623.86 1320326 1671554 1188262 1743872 1298480 1206032
626.76 1808298 1121918 1325136 1007008 1967218 1286624
629.65 1167958 1118360 1526810 879894 1697286 870696
632.54 945790 402278 684948 591466 909364 1436028
635.43 1011272 1254970 1321570 794544 1105814 195808
638.33 962392 818570 1174108 1056670 943076 1641316
641.22 2544430 11753630 3812858 1206870 1711942 528244
644.11 1080212 1512890 631704 1268640-16030 1225442
647.00 1001806 1042780 1563198 1548890 1334218 1240078
649.90 1869530 2309168 3324070 3887166 2517934 2918954
652.79 1933994 1783486 1358608 1692100 1997092 1698946
655.68 1870124 2158962 3081552 3210330 3179578 2783738
658.58 2610848 2634732 2355118 1399260 1964016 857252
661.47 1350060 1667104 1610716 1119718 1192078 1052168
664.36 993836 973162 965536 934804 1351924 1406560
667.25 2862588 1824866 1044026 1211752 1121942 1037784
670.15 1115288 865806 1186986 1267628 961032 926146
673.04 1009118 1129990 930758 751446 1086762 1458380
675.93 591220 532446 823584 457912 726092 1012158
678.82 559062 768838 899668 443012 528296 751942
681.72 426056 639774 168104 1052662 542488 969810
684.61 264430 741708 459674 49414 534140 611810
687.50 280312 236930 922646 667764 514550 784212
690.40 802376 214560 142114 575674 32608-519328
693.29 861132 562138-116232 267804 195380 784142
696.18 231438 269510 151012 47386 121040 235584
699.07-24058 342534 143358 158886 413960 602562
701.97-108648 67346-23234 903870 290506-71394
704.86 378588 673846 269528 198242-112970 353880
707.75 324362 93042 546868 211482 289246 433454
710.64 54640 648978 882224 749152 609560 868108
713.54 613818 1404198 822324 1199032 916098 892196
716.43 1075750 1103252 1415414 1659148 1661492 1990154
719.32 1600670 1407444 1928652 2224044 2133252 2752268
722.22 2662798 3019468 2885928 3208068 2875624 3587000
725.11 3550858 4284774 4435332 4736036 5127814 5468054
728.00 5872492 6411112 6684596 7009192 7599534 7900920
730.89 8729476 9278140 9254494 10085450 10959960 11257440
733.79 12111740 12593190 12835160 14229600 14723580 15735720
736.68 16002310 16750440 17829060 18580830 19809620 19945700
739.57 20961340 22131820 22676690 24053920 24722470 25633840
742.46 26756470 27945840 28726420 30101000 31276300 32473650
745.36 33777960 34965590 36349660 37592860 39146820 41025930
748.25 43687940 45857040 48623380 52551740 56967190 56175620
751.14 55140280 53691040 52469710 51212240 49698420 48116390
754.04 46782150 45701610 45401390 44545300 43604100 43038170
756.93 42609940 42821240 42323980 43625180 44942700 46493730
759.82 46432580 45940860 44536030 44177920 43579560 43288840
762.71 42473440 42627100 42051440 41263000 40629260 40044380
765.61 39291050 38469480 37240150 36415430 35168080 33420450
768.50 32362560 31342290 29566530 27989630 26596570 25039690
771.39 23647280 22238800 21029840 19563980 18345750 16806350
774.28 15909400 14940840 13644660 13235340 11878210 11219510
777.18 10752850 9672022 9124666 8606140 8208806 7750358
780.07 6961672 7102954 6423290 6008062 6391094 5886190
782.96 5399626 5407158 5235930 4495554 4550360 4230746
785.86 4128564 3975578 4346110 3964118 4065826 3689682
788.75 3741204 3297010 3408600 3036572 3217000 3112756
791.64 3034340 3425052 2767402 3242172 3116516 2873392
794.53 2603706 3025662 2537750 3114972 3121554 2653848
797.43 2049578 2699830 2201334 2745504 2428530 2621118
800.32 1913522 1858866 1872870 2194706 1964840 1534604
803.21 2155446 1740696 1962704 1708334 1513974 1672658
806.10 1769438 1777750 1903600 1917686 1298022 1419916
809.00 1261240 1464728 1334908 1355412 1549354 1345784
811.89 1183950 1217542 1333678 1150234 1161654 709470
814.78 710746 979198 915552 853620 1071004 895764
817.68 1160690 819510 404186 1043660 1074276 460068
820.57 1140754 891104 1120258 839558 723142 748544
823.46 993584 471690 928968 721728 1050642 823522
826.35 561842 701764 827956 824588 591258 612598
829.25 390484 837570 834894 1016782 912460 1370076
832.14 547056 678124 534826 479084 912200 1180122
835.03 1043492 827556 738874 760264 516466 500944
837.92 1088766 1046552 1049002 712820 785784 619586
840.82 910894 590070 520728 757878 865506 1030086
843.71 887430 878632 887606 858028 1198456 770428
846.60 734954 840794 952898 1211056 758826 945088
849.50 1032144 996964 889134 874826 916274 975958
852.39 798622 853846 844256 944834 765388 1011342
855.28 1029010 1191438 1192960 984466 1284704 891176
858.17 1032668 1115420 893962 1146024 1114590 1436870
861.07 1211590 1226500 1200278 1067886 1303724 1463668
863.96 1499170 1475960 1371838 1700040 1365964 1429298
866.85 1517198 1676448 1543220 1615148 1668384 1855216
869.74 1814792 1832962 1763912 2076312 1961670 1900834
872.64 2332858 2016626 2204712 2529014 2578798 2353606
875.53 2740046 2918234 2775708 2995802 2757900 2782990
878.42 2919140 2840422 3009568 2923264 3313048 3511626
881.31 3011246 3495274 3459194 3727340 3715336 3723218
884.21 3751268 3993180 3942714 4144220 4316616 4463410
887.10 4366056 4708030 4420172 4695232 4776360 5102578
889.99 4903430 5551114 5703814 5883276 5980772 5789736
892.89 6055892 6744044 6689282 7011204 7418550 7369064
895.78 7824552 8031862 8040144 8476174 8533752 8760920
898.67 9624782 9852580 10095010 10720540 10846310 11555280
901.56 11638660 12255730 12737450 13107700 13695040 14298510
904.46 14979770 15542210 16074730 16965670 17485210 18579830
907.35 19167620 19915420 20858380 21846810 22487850 23615880
910.24 24887350 25481410 26738400 27972520 29166620 30129910
913.13 31400720 32500100 33576260 34929220 36205730 37644200
916.03 38859340 40167470 41247400 42839240 44203860 46111880
918.92 47178690 49079240 50519540 52025810 53678770 55740240
921.81 58057650 59352680 60594920 62459510 64398880 66038570
924.71 67996910 69812250 71606080 73792230 75951850 78172960
927.60 80321940 82154490 84182260 86442580 88569560 90921980
930.49 92834690 94976960 96688040 99172370 101336300 102989400
933.38 103857700 106584900 108220500 108365000 108779700 109616600
936.28 109652100 110165100 110362200 110464400 111330200 112889900
939.17 115316000 120577000 117503500 116851900 118240600 119111400
942.06 116800400 115852300 116235500 116470900 115713500 112983100
944.95 113112400 113040200 113129800 113364100 113591000 113945400
947.85 114294500 113801200 113255600 111766800 110534600 109075000
950.74 108071200 106177000 104536000 103036300 100643600 98799030
953.63 96509340 93960140 91753260 89913220 87583300 85080780
956.53 82812120 80828090 78712160 76370380 74086550 71978120
959.42 70168620 68226630 66309660 64589860 62915960 61201480
962.31 59497420 58035960 56497360 55051420 53860390 52152810
965.20 51126270 50057800 48651980 48043310 46679140 45873060
968.10 45158430 44298890 43276670 42792960 42213830 41617820
970.99 41091990 40428040 40071350 39748340 39542670 39190310
973.88 38883540 38761470 38434300 38315820 38063790 37786290
976.77 37816800 37637800 37637760 37581830 37517070 37596170
979.67 37267840 36996140 36604020 36822150 36577200 36168390
982.56 35905300 35749960 35272510 35032610 34693560 34297100
985.45 34015540 33803240 33566540 33544490 33668840 33497460
988.35 33527700 33208450 32484370 32873580 32072010 31633350
991.24 31128580 30983320 31070240 30791240 30368180 29906090
994.13 29926960 29455220 29177380 28983200 29072460 28747620
997.02 28756420 28213360 28062620 27744400 27580640 27248950
999.92 27195290 26985980 26866320 26515020 26029070 25272030
1002.81 24659740 24113930 23314580 22781560 21984090 21053130
1005.70 20776660 19860990 19587170 18733780 17991800 17274510
1008.59 16933270 16299660 16106630 15486040 15044420 14879460
1011.49 14355520 13917200 13721230 13463330 13112790 12991530
1014.38 12411130 12530960 12111950 12080170 12043020 11633770
1017.27 11277640 11363960 11215140 11132180 10645740 10463860
1020.17 10431250 10490520 10109430 9690932 9548466 9559440
1023.06 9155320 9121500 9040990 8722392 8390522 8360440
1025.95 8128892 7830140 7853470 7439064 7466748 7024904
1028.84 7229486 7196184 6888324 6932802 6784100 6775330
1031.74 6702936 6766104 6833524 6806698 6491544 6535714
1034.63 6352624 6360248 6348212 6430570 6440096 6256070
1037.52 6371640 6697654 6588702 6203848 6532772 6357520
1040.41 6641846 6634910 6399964 6732066 6883496 6867488
1043.31 7031978 7042010 7061610 7277830 7283844 7271032
1046.20 7318764 7623114 7776152 7895374 8211976 8515838
1049.09 8290578 8437770 8607672 8746658 9035612 8873702
1051.99 8828500 9186600 9249770 9628686 9925340 9937944
1054.88 10187070 10288080 10540960 10907990 11255640 11425650
1057.77 11900500 12307180 12441680 12708760 13040680 13657680
1060.66 13831510 14286810 14557780 15090530 15691950 16049130
1063.56 16542770 17050830 17593870 18387000 18927020 19063070
1066.45 19709510 20384390 20808110 21626070 22084000 22630220
1069.34 23396920 23996190 24669210 25329670 25887230 27038810
1072.23 27373230 27849950 28848070 29352970 29982520 30781190
1075.13 31615050 32082660 32542440 33297450 33890130 34583640
1078.02 34995790 35047880 36066810 36095650 36554000 36378260
1080.91 36933970 37040320 37159950 37002790 37005660 36623760
1083.81 36285220 36080460 35706130 35081580 34846740 34525120
1086.70 33873520 33490300 33133150 32970890 32542170 32445410
1089.59 32482420 32784470 32957100 33558220 34052640 34631700
1092.48 34767570 34884200 34564520 34473220 34365750 33417770
1095.38 33112260 32398050 31654090 30872930 30355100 29659770
1098.27 28858770 27984510 27623870 27228960 26456690 25770370
1101.16 25459170 25014220 24119180 23712910 23184860 23028620
1104.05 22742050 22300050 22216910 21880670 21718940 21398940
1106.95 21431960 21873350 21438060 21656360 21431610 21343320
1109.84 21164540 20302990 20588120 20519410 20277280 20373310
1112.73 20130890 20308910 20030480 20196580 20305690 20352120
1115.63 20329480 20261010 20457610 20627290 20550420 20750460
1118.52 20994980 21248980 21566160 21728060 21862600 21984090
1121.41 22324670 22557550 22743760 23218760 23379200 23710750
1124.30 24065140 24227680 24356320 24681670 25340800 25599040
1127.20 26039450 26332940 26939710 27557320 28000660 28396760
1130.09 29261280 29804070 30572450 31397980 32068330 32750140
1132.98 33805830 34995100 36175500 37116050 38604320 39883370
1135.87 41435700 42966280 44858580 46659080 48707660 50638640
1138.77 53085230 55725330 58394060 61656000 64698940 68589570
1141.66 72555640 76914700 81497470 87013000 92641260 98775600
1144.55 105671100 112524500 120231800 128182000 137315700 146599100
1147.45 156088700 166374800 177513300 187931400 199309900 211050500
1150.34 222787500 234762000 247425800 259460800 271937400 284034700
1153.23 296100300 307560900 318540600 329394800 338657100 348414200
1156.12 357912300 366357500 374861800 382894800 391187200 400376500
1159.02 409692200 418385500 428060300 436216000 443308400 450348700
1161.91 459035000 468648300 481666400 494318700 508961400 520802000
1164.80 532107300 543510700 558895200 564795800 553012500 551378800
1167.69 558039400 565991900 580738900 564686800 555189400 560163500
1170.59 562607600 566822700 571215900 577779400 582141400 586373500
1173.48 587433400 589617000 590223900 590550900 579839600 561252900
1176.37 551607200 546042400 556052700 565912600 533506700 513212000
1179.26 499881800 480731100 462776900 449663600 439637000 433685400
1182.16 425055300 417129500 410542600 404659900 397704100 392150700
1185.05 384624100 375964500 366962300 358836900 349122300 339838700
1187.94 330182700 320320400 310855400 300578600 290877600 281269200
1190.84 271961300 262910300 253292300 244402100 235908300 227962300
1193.73 220296400 213167400 206169900 199856600 193317600 187925600
1196.62 182228600 177115800 172448400 168136200 163811300 159993100
1199.51 156301800 152571600 149291400 146398400 142972500 140258800
1202.41 137029800 134272700 131264200 128732300 126158800 123456400
1205.30 120643900 117950700 115594000 113346100 111021900 109218400
1208.19 107074000 104905400 103132300 101413000 99261920 96885700
1211.08 94983030 92587160 90044500 87995350 85178680 82829760
1213.98 80151460 77790690 75092590 72365600 69432940 66910360
1216.87 64009070 61526450 59225050 56951380 54566150 52552750
1219.76 50256840 48504480 46491140 44779610 42994610 41773640
1222.66 40354330 39120860 37586710 36697330 35560490 34671220
1225.55 33698350 32873100 32206870 31540570 30724340 30186970
1228.44 29502470 29170280 28596860 28205690 27908110 27545250
1231.33 27111460 26875680 26348170 26244600 25910610 25832080
1234.23 25401070 25461990 25210370 25059550 24990810 25013210
1237.12 25061140 24929230 25120250 25167340 25523700 25617790
1240.01 25950440 26010950 26025070 26105830 25992270 26331450
1242.90 26581630 26738240 27107300 27325490 27522970 27854040
1245.80 28157840 28265180 28617940 29021180 29271620 29481690
1248.69 29630610 29952960 29978870 30260960 30388630 30509180
1251.58 30665170 30944440 30758220 31212290 31129460 31307080
1254.48 31352400 31551520 31351220 31591000 31463840 31691130
1257.37 31708780 31649960 31870280 31813410 31467420 31522640
1260.26 31026670 31078010 30926950 30857230 30733720 30593380
1263.15 30541540 30575990 30546610 30588670 30356470 30508350
1266.05 29918830 29810990 29498450 29648640 29501790 29158760
1268.94 28907260 28542060 28403440 28308400 27911750 27653780
1271.83 27114900 26847770 26405800 26066070 25396350 25423490
1274.72 25008460 24658260 24288060 23868120 23656800 23407890
1277.62 22944900 22969220 22345780 22189950 21966700 21509430
1280.51 21368210 21001800 20803890 20728120 20459660 20298410
1283.40 20022230 19900660 19642530 19577870 19470300 19277160
1286.30 19353930 19302380 19069690 18953910 18959970 19299660
1289.19 19272000 19609270 19410010 19674610 19878860 20214890
1292.08 20344720 20660510 20931650 21358760 21529720 22185000
1294.97 22557870 23046970 23455580 24014590 24524140 24983260
1297.87 25350310 26152370 26603770 27439820 27844820 28675950
1300.76 29121800 29880100 30547570 31283970 32085260 32739830
1303.65 33485300 34392700 35045020 36059420 36795910 37742920
1306.54 38569060 39537240 40367940 41220270 42157220 43112690
1309.44 43801750 44978500 45663480 46876320 47655830 48838050
1312.33 49907480 51108160 52004260 52994820 54437660 55313460
1315.22 56366430 57494780 58975660 60258760 61266030 62243420
1318.12 63437390 64896020 66039670 67591720 68658530 70650980
1321.01 71594840 72870090 74285460 76380220 77997560 79426500
1323.90 81166980 82910910 84642120 86442890 88214670 90161770
1326.79 91855190 94231700 95772820 97989360 99669600 101996000
1329.69 103775800 106386200 108061600 110590800 112734700 115292900
1332.58 117643300 120426100 122464800 125763000 128287100 131033500
1335.47 133625700 136754000 139332300 142164800 144796000 148508200
1338.36 151446000 155370700 157788400 161523400 165257900 170655200
1341.26 175931200 179555600 183014400 187047100 191439200 196425900
1344.15 201121800 206980100 213390200 221694900 230066000 238943900
1347.04 248561000 258672300 268786200 279557200 290211700 301116000
1349.94 312751600 324497900 335984400 348022700 360230000 371895900
1352.83 383630200 394635600 404941400 416014700 425620500 434654400
1355.72 442778900 450357700 456633200 463280700 467753400 472607700
1358.61 475476600 479052700 479358200 477447100 476949800 475267500
1361.51 473972300 474734800 475563900 478414500 481449300 494094900
1364.40 510193500 530073100 546142100 555984400 537853400 551273500
1367.29 541886500 506104100 497018300 477640200 473221300 473326500
1370.18 478085900 483458500 491281600 497340200 502516100 504960800
1373.08 509289900 508459300 505878800 501873100 494671200 484528300
1375.97 472650200 459121800 443851700 427352200 409794500 390943600
1378.86 371915100 352844400 332985800 313874000 295403000 277615800
1381.76 260535100 243872000 228900100 214991200 202812200 190874000
1384.65 180386400 171777100 164764700 157546500 151757900 150624500
1387.54 144242800 141464300 139984300 139418000 138896200 138764000
1390.43 138050700 138081000 137329700 136796100 135720100 135409700
1393.33 133967700 136168400 134322800 130962500 131873800 129120400
1396.22 127634700 126186100 125817500 124319500 122537300 124346200
1399.11 121903400 119690200 119612700 118619100 118728900 118126800
1402.00 118196200 118523700 118842200 119535400 120484600 122904800
1404.90 123113700 123890400 125573100 126692900 128486500 130390300
1407.79 132483100 134512600 137031500 139719500 142333800 144635600
1410.68 147220500 149638700 151975400 154254000 156538400 158795200
1413.58 160707700 162658100 164467200 166118000 167797900 169130800
1416.47 170359400 172953400 172067200 173332900 173493200 179301900
1419.36 173637000 169097200 168653700 166324700 165578400 163558200
1422.25 162585100 161767700 162769400 163013600 163839100 165879000
1425.15 168902600 172308200 175814500 179039500 182623700 185973600
1428.04 189210300 191597800 194267300 197391200 196764300 197502600
1430.93 197231900 196693200 196349900 195120000 193730000 191050000
1433.82 189057500 186743100 184760100 182847200 181989800 186892500
1436.72 179923000 176224000 176184200 174962900 175193400 174867200
1439.61 175234000 175250900 175005600 174973700 174923600 174109200
1442.50 173670400 172853600 172832000 171851700 172045300 171212000
1445.40 171094200 170744100 172486500 172119000 174309200 173713300
1448.29 170700000 169495500 169208800 169426000 170168100 171217400
1451.18 173280900 175914300 178211400 182827500 188316300 195558000
1454.07 204183600 214939600 226489800 236189200 247801800 248808100
1456.97 230996000 227905400 221773500 212274000 206438800 199290900
1459.86 194213300 188132200 181425100 174664400 168310900 163091400
1462.75 156727600 151921600 146991500 148481700 148871800 150586400
1465.64 157979100 160753300 162112700 161129300 159027800 155940100
1468.54 154930400 153578700 153020400 152433000 152974000 152801500
1471.43 157398100 155111900 150427600 156730500 152570000 148449500
1474.32 147771200 145070300 143764100 143199100 138154000 134083600
1477.21 131061700 127582600 123977800 119981200 116381100 112541900
1480.11 108493900 105262900 101506500 97224780 93812980 90467620
1483.00 86962890 83824680 80779920 77808280 74947490 72448710
1485.89 69997340 67917360 67960970 63751510 61147570 60010920
1488.79 58384950 58636740 55630640 55707770 53212010 49857120
1491.68 49756380 47728000 47556630 45616740 45835890 43700400
1494.57 44382460 41643440 48439980 47525630 39450340 41233120
1497.46 38891370 40957800 42348390 38442700 37878550 37448080
1500.36 37013110 36902110 36872980 36246170 35911760 35830070
1503.25 35416090 35713300 35099660 37718740 46373730 35458540
1506.14 39466460 46325910 36385190 35761760 37656490 35291910
1509.03 36188280 36203860 34755030 35006520 34233400 35624000
1511.93 37274260 34094840 34279840 34078370 34336710 35144150
1514.82 35122670 33874190 35726050 35680980 37305280 37008680
1517.71 34243140 34339620 34688650 34295750 38350270 34158700
1520.61 42803150 40960600 31797580 38642540 34487970 33764060
1523.50 32517100 33673070 32680070 37716120 33253540 32183410
1526.39 31956610 33795410 31324790 32605830 32061580 30963810
1529.28 30663950 30765500 30368670 30687170 30864680 30061150
1532.18 29979890 31855190 31943100 32888630 27790290 29508410
1535.07 27542830 28735190 26710100 28482170 25931740 29102420
1537.96 26189500 39973330 31696930 28296910 35735240 25880110
1540.85 25577740 30236300 32573020 23700130 26513400 24510170
1543.75 24450730 24412770 28657520 23532740 23479680 22569800
1546.64 22722270 21981100 22183710 21605080 21628310 22216500
1549.53 22739620 21958310 20353120 20747820 20039460 20224530
1552.43 19714090 20058200 20172080 27456790 19747010 19701270
1555.32 18276470 19988880 17362550 23417050 22344600 25398790
1558.21 30597130 17650360 22986240 29154350 23299060 15519120
1561.10 18830000 15646700 17960360 15887860 17391220 15508120
1564.00 17414960 17258810 16691450 15371500 16160760 15130560
1566.89 15942640 14781320 15639020 15602930 16690640 19925580
1569.78 15964050 13730760 14907490 13477790 14744940 13140590
1572.67 14601190 12918210 14384340 12541040 15098640 12422760
1575.57 27020890 19459310 12189960 13907760 12590320 13011290
1578.46 12335950 12657210 12374020 12437210 12293200 12075870
1581.35 12097290 11927720 11904190 11758260 11897300 11479210
1584.25 11529910 11382140 11397170 11161510 11088390 10957420
1587.14 10985180 10533710 10887520 10528500 10692610 10385610
1590.03 10304980 10061180 10288080 9766898 9955176 9658392
1592.92 9717726 9357566 9902790 9329628 9494598 9144798
1595.82 9180490 9017006 8967238 8626284 8881860 8494118
1598.71 8821714 8322196 8624864 8156306 8660048 8171784
1601.60 8257386 7947344 8443880 8143996 8204148 7834836
1604.49 8115318 7678614 7987092 7568814 8094958 7763776
1607.39 7693904 7414566 7700804 7761488 7858914 7058532
1610.28 7645834 6906486 7716646 6747388 7506444 6681332
1613.17 7732416 6493790 7727112 6182086 8514088 5972778
1616.07 18494980 14244320 5751234 8035386 6356422 7454316
1618.96 6695136 7323494 6904000 7251956 6977384 7216828
1621.85 7716026 7262660 9866224 11066620 6283160 7910364
1624.74 6702652 7861196 6846332 7736846 6755030 9545524
1627.64 8625568 7440280 7265818 7401008 7241722 7577686
1630.53 7174062 7553948 7179662 7643208 7211576 7721262
1633.42 7250848 8420236 9912236 14627270 16265580 7054894
1636.31 8347024 8639534 9714850 7244302 8401006 7502622
1639.21 8392236 7972098 8571106 7786278 8676788 7985340
1642.10 8829902 8120180 8802864 8257106 9332384 8476752
1644.99 10131840 18172610 10924340 8473912 12515270 9408496
1647.89 11868000 8195552 9654264 7931606 9924160 7561466
1650.78 10611390 6976306 21874270 16799230 23255370 16148290
1653.67 9513136 15777870 8333664 10925560 8902274 10883780
1656.56 9241170 10906840 9696024 11023500 9985124 11176370
1659.46 10349920 11591070 10872280 12355020 11576310 13174340
1662.35 16756210 13103150 12318290 12787760 12200510 13255360
1665.24 12542370 13542430 12874870 14127300 13153980 15486560
1668.13 14024580 19249620 19776510 15108030 16140050 16196670
1671.03 19145250 16926520 17342320 17586580 17718440 18649880
1673.92 18556930 22408180 27167810 21110020 21022540 21316970
1676.81 21996090 22575830 23430910 23954160 24801770 26102260
1679.71 26914330 28079090 27741880 29111920 29592090 31265300
1682.60 34705690 36201960 34773920 43972620 50879120 35219900
1685.49 39604030 38014730 41232770 40660480 43794310 44055270
1688.38 46115280 45924580 49344640 49754360 51559610 52017620
1691.28 54724430 55158500 57919490 58490820 61954740 61856320
1694.17 66153050 66127970 79674370 83836580 72538500 77128860
1697.06 79151620 81751160 84677100 87729620 93965220 105124800
1699.95 106309100 110012600 107913200 113355300 117703300 123571400
1702.85 128507100 134040800 142161100 147479700 151923900 159086200
1705.74 167830900 174083300 179945900 188158900 195728500 205007600
1708.63 213482000 223696200 233486100 244158000 254579800 266398000
1711.53 278207400 291059700 304152400 317706600 333351500 347468700
1714.42 364462900 382520000 395201900 415720400 431988200 463421600
1717.31 474996500 493471500 518449200 536452700 560087400 583538000
1720.20 608353500 633156300 659237900 685131100 711577200 739332400
1723.10 767539600 794303900 822383300 850016300 877920300 905625500
1725.99 933969900 960702400 987963700 1013935000 1039977000 1063207000
1728.88 1086360000 1108753000 1128097000 1143356000 1157922000 1167883000
1731.77 1175553000 1176983000 1185911000 1178030000 1168640000 1162029000
1734.67 1135344000 1114328000 1089234000 1065767000 1042025000 1021873000
1737.56 1004402000 995128400 993568400 1002972000 1020403000 1041274000
1740.45 1072614000 1107674000 1143221000 1176886000 1206562000 1229787000
1743.34 1245061000 1254925000 1258764000 1257416000 1251974000 1240251000
1746.24 1224396000 1206850000 1184500000 1161247000 1135723000 1107278000
1749.13 1076795000 1045936000 1014757000 986740400 954513900 918087200
1752.02 886891300 853337000 821549900 789356900 758155500 727824500
1754.92 697329800 667923500 640492700 614764400 585797800 559949500
1757.81 535178200 511424000 487932300 466073000 443544600 423478000
1760.70 402516900 386996000 366748100 346223000 329450900 312339600
1763.59 296659000 280999300 266959800 252773700 239820300 226852500
1766.49 215592400 203338900 195772200 185332500 172355200 164290100
1769.38 154958700 147527700 139939200 135837300 125857200 121705300
1772.27 122087000 108936100 103421800 98455980 93636660 89288230
1775.16 85985190 81287400 77332750 74034020 70573920 67597060
1778.06 64589400 61780560 59202830 56564120 55240230 52917330
1780.95 49391110 47958560 45458930 44062560 41660940 40706220
1783.84 38205580 38809410 36197450 33749460 32511430 30961650
1786.74 29730140 28560530 27173090 26242220 25075720 24579670
1789.63 23773970 23988620 23050430 20948350 19482480 24635200
1792.52 22648610 19528660 20648580 19892010 20281110 19453180
1795.41 19749650 18712500 18097150 17359080 16917290 16667890
1798.31 15987460 16719010 17221800 15136790 15012270 15371290
1801.20 14739090 14204670 14674680 13133400 13485350 12608260
1804.09 12743190 12214930 12228990 11532330 11670760 10698380
1806.98 10943880 10292730 9918586 9327960 9247758 8503322
1809.88 9172834 8863470 7591780 7329814 7282952 6842390
1812.77 6583460 6180288 5932698 5845748 5703662 5345526
1815.66 5307420 4824964 5124136 4857534 4394916 4358542
1818.56 4261720 4066908 3914694 3859062 3873562 3791572
1821.45 3822454 3599310 3835154 3192860 3538948 3261762
1824.34 4131322 5734166 3260380 3184928 3135728 3134686
1827.23 3041652 3004170 3175628 4094404 3464874 6105624
1830.13 3431716 3062570 3013996 2987484 3050674 3056434
1833.02 3277860 2906558 3017398 2846040 3100082 3101554
1835.91 2889034 3230368 3393412 2854186 3128534 3010344
1838.80 3257072 3053072 3274856 2962148 3281774 3154686
1841.70 3716200 2955174 3772040 3145466 9053496 5837454
1844.59 2935614 3867478 3098428 3740184 3270194 3960080
1847.48 3966814 3579076 3570058 3599978 3621048 3797560
1850.38 3784036 3872304 4001606 3999862 3823504 3928046
1853.27 3976084 4136000 4077992 4126484 4129984 4277330
1856.16 4360150 4348202 4465632 4444908 4638598 4717446
1859.05 4674706 4756928 4755824 4787586 4831892 4804618
1861.95 4895794 4882100 5090122 5055994 5152492 5214890
1864.84 5320872 5282958 5750152 5587852 5477838 6166928
1867.73 6487942 5359818 8223562 7112262 5438818 5938462
1870.62 5629860 5880094 5792146 5914446 5891298 6010466
1873.52 5982388 6191368 6131622 6239828 6185352 6262460
1876.41 6356594 6449892 6390552 6393160 6398030 6405088
1879.30 6290278 6309570 6298558 6334290 6432194 6217340
1882.20 6195214 6258924 6331550 6414884 6515922 6316850
1885.09 6218898 6376902 6516786 6244876 6381554 6381214
1887.98 6425166 6127072 7669658 6976326 6047156 6218292
1890.87 6036844 6147536 5925734 6207390 5909788 5960566
1893.77 5664440 5789176 6087388 5636774 5445334 5332744
1896.66 5108896 5277250 5011992 5178478 4913198 5048712
1899.55 4862656 4842560 4740474 4707150 4696336 4657682
1902.44 4389250 4399962 4329102 4375600 4312618 4295244
1905.34 4078596 3949012 3948890 3912176 4059450 3973102
1908.23 3724746 3798396 3991012 4102310 3560952 3778514
1911.12 3479012 3703540 3427864 3511154 3322896 3386190
1914.02 3330646 3484970 3135084 3432278 3048146 3329532
1916.91 2931268 5388874 4291886 2817012 3292254 2922094
1919.80 3164820 2942534 3127284 3048678 3363104 3121442
1922.69 3733996 2947352 3049708 2931306 2928432 2953242
1925.59 2890736 2775736 3009926 2804172 2824068 2900876
1928.48 2877606 2905874 2807026 2621726 2684832 2626906
1931.37 2729302 2712592 2602750 2649962 2626710 2631168
1934.26 2588720 2429830 2530964 2342374 2514472 2492428
1937.16 2463834 2479356 2520440 2547398 2451154 2486498
1940.05 2401834 2445450 2625484 2465332 3658906 2873634
1942.94 2339518 2627444 2405514 2529166 2489616 2365506
1945.84 2506718 2245406 2207386 2354404 2186938 2218390
1948.73 2209896 2261978 2013364 2114336 1914944 1931272
1951.62 1999460 2074564 1834678 1986890 1928322 2025176
1954.51 2112150 1940360 1809304 1751358 1655214 1645076
1957.41 1631480 1671250 1548064 1595052 1715846 1528144
1960.30 1653700 1735454 1350890 1711084 1434928 1510672
1963.19 1356614 1388332 1278276 1272938 1263922 1486530
1966.08 1255914 1264336 1722038 1099836 1185206 1071952
1968.98 1136934 1034946 979932 882232 959308 890914
1971.87 797308 855102 876640 958708 493520 782912
1974.76 1196066 978500 1064576 794676 1035112 971096
1977.66 1034266 1066646 1115188 1016944 1189458 1091798
1980.55 1210664 1211674 1187614 1263300 1421762 1279628
1983.44 1229066 1314490 1397486 1298854 1269852 1322094
1986.33 1256898 1245444 1324590 1357598 1402992 1247676
1989.23 1282608 1194238 1357396 1360020 1796410 1896170
1992.12 1374750 1462120 1402246 1403684 1329090 1277636
1995.01 1434836 1547718 1382182 1588110 1425922 1598250
1997.90 1461342 1464558 1517842 1560910 1425268 1378740
2000.80 1399338 1394760 1322716 1283420 1213538 1277402
2003.69 1203606 1112940 1099608 1129140 943948 949682
2006.58 946154 964570 911698 890446 724464 752648
2009.48 808462 756490 655476 710744 655206 635026
2012.37 698210 610494 602712 579944 456840 579232
2015.26 598774 463280 917874 685200 407360 509698
2018.15 507520 575056 366614 303980 323862 471868
2021.05 281502 466122 378728 300458 237074 209216
2023.94 296230 297364 227960 324568 278330 192358
2026.83 163024 340612 191502 204742 232276 289622
2029.72 234274 230496 208006 126996 131986 302786
2032.62 323968 251026 328016 324488 278864 344088
2035.51 250082 210742 290846 327680 316220 305042
2038.40 324874 322506 283696 430000 370410 570132
2041.29 333734 362160 309378 333924 332320 383132
2044.19 383744 345888 412484 316414 395980 329082
2047.08 370308 456606 405744 398826 553188 400280
2049.97 416372 374784 540032 525632 463984 627562
2052.87 530174 526344 517016 512992 512698 581012
2055.76 575826 772806 570538 648838 736466 754570
2058.65 683976 703622 706078 826388 787258 892422
2061.54 894416 848588 807504 828340 1043074 1066776
2064.44 1290284 1140548 1081636 962472 1173314 1090390
2067.33 1141352 1142454 1243876 1295806 1342818 1227420
2070.22 1224034 1349560 1324036 1513206 1552290 1647568
2073.11 1673406 1701196 1704250 1726192 1780966 1899122
2076.01 1894112 1951802 1893244 2040886 2142138 2239500
2078.90 2250390 2239926 2360796 2452888 2350012 2587772
2081.79 2608124 2697606 2717718 2901938 2910064 3079254
2084.69 3121910 3065474 3359338 3218264 3397364 3485502
2087.58 3641362 3686362 3770274 3869422 4001472 4126858
2090.47 4025308 4196888 4303570 4348020 4420424 4421368
2093.36 4678992 4728884 4752722 4802340 4889742 4989408
2096.26 5179782 5215194 5277172 5200492 5542618 5611672
2099.15 5654228 5664636 5809882 5798878 5848822 5960226
2102.04 6006186 6117378 6169296 6245032 6354502 6362632
2104.93 6558670 6562462 6522416 6693718 6711858 6764328
2107.83 6805892 6970396 6832682 7164700 7159480 7226094
2110.72 7151278 7289282 7273078 7413302 7601338 7489226
2113.61 7519554 7679662 7606622 7594826 7561986 7622518
2116.51 7505090 7729404 7560030 7440550 7440696 7255434
2119.40 7153870 6999796 6898490 6998368 6899818 6871610
2122.29 6552134 6814328 6770712 6613736 6526090 6512400
2125.18 6612690 6577158 6607640 6427056 6235318 6177140
2128.08 6043836 5941472 5800716 5726474 5616362 5538670
2130.97 5420218 5353384 5410834 5227722 4943226 4917448
2133.86 4712774 4642854 4537868 4425680 4285808 4031116
2136.75 4002640 3806708 3548512 3544244 3381588 3238468
2139.65 3069082 3030304 2815852 2740688 2588124 2530080
2142.54 2500258 2390144 2279920 2178626 2226118 2048338
2145.43 2062186 1979712 1965420 1762494 1875236 1803672
2148.33 1790896 1817930 1757410 1739318 1554140 1554986
2151.22 1630952 1536346 1553154 1570466 1329518 1576976
2154.11 1381530 1458744 1498948 1469426 1582224 1657444
2157.00 1506738 1414212 1511774 1488056 1497370 1555072
2159.90 1389176 1419072 1450506 1526992 1456222 1442950
2162.79 1475586 1378430 1349764 1558996 1545366 1586500
2165.68 1432302 1685010 1536750 1666774 1644256 1488512
2168.57 1617370 1550592 1617182 1624792 1634814 1679120
2171.47 1504512 1669640 1449736 1577018 1438392 1535354
2174.36 1384516 1366296 1392358 1274964 1317438 1217752
2177.25 1206568 1295720 1158448 1226936 1056978 1005772
2180.15 1133742 982920 823506 1035898 922210 988360
2183.04 827592 903626 759000 844904 727570 709294
2185.93 625928 585304 656976 569992 487976 601234
2188.82 540496 507238 509068 373324 459630 404762
2191.72 302256 289428 191752 349096 270416 113790
2194.61 144852 180860 65960 257564-4442 159736
2197.50 51868 111722 50980 80240 23808 65882
2200.39 149588-11248-101264-41480-64042-127658
2203.29 3954-64218-96336-74066-94058-57118
2206.18-118154-37436-20804-60490-90152-121216
2209.07-63796-38622-4094-5644-161064-21824
2211.97 10696 23396-20572 105274 7512 35066
2214.86 4836-27280-114762 18984-74602-87262
2217.75-141504-185128-165892 6592-29490-165914
2220.64-174334-121302-121852-129828-120200-165120
2223.54-148114-38024-126372-184214-112546-199308
2226.43-59858-159598-188772-169112-245152-234844
2229.32-225340-193204-253066-169108-238568-292246
2232.21-164816-277876-169688-267844-251404-243122
2235.11-382534-220228-364270-222968-364162-264490
2238.00-285772-299162-300932-452922-329434-279210
2240.89-304932-227776-268170-306488-383474-302998
2243.79-261542-252526-352838-166292-381250-371924
2246.68-277120-277794-302784-259178-164342-233250
2249.57-185930-186912-286930-234030-182816-152122
2252.46-110602-83922-124970-194474-151308-77600
2255.36-93820-22060-63048 170560-69228 34670
2258.25 11142 86752 124242 28846 83732 244256
2261.14 321452 209756 340840 221118 344968 365544
2264.03 533526 411594 418248 522622 484022 616888
2266.93 744818 661994 739862 809684 765532 970636
2269.82 833734 921870 1060678 1125254 1071588 1166752
2272.71 1334178 1205148 1211084 1279198 1408656 1554206
2275.61 1491396 1629140 1704576 1671262 1720420 1803774
2278.50 1897160 1839622 2068726 1820848 2125926 2258736
2281.39 2119926 2156284 2373244 2449268 2443312 2452506
2284.28 2545904 2603634 2562722 2675512 2665588 2664562
2287.18 2664746 2827318 2733906 2889400 2898968 2977428
2290.07 2790118 2858600 2895538 3014220 3049990 3099148
2292.96 2974678 3135554 3042570 3114666 3121418 3242650
2295.85 3202012 3253346 3078652 3098016 3183034 3100624
2298.75 2950298 3128296 2953352 3049674 3196678 2972734
2301.64 2940164 3090628 2877398 2881078 2735226 2778614
2304.53 2780990 2741060 2778930 2872480 2872000 2764060
2307.43 2642752 2713932 2832552 2723684 2545582 2568542
2310.32 2649408 2814722 2438656 2639708 2484544 2990106
2313.21 2246118 2526058 2303416 2875502 2219998 2424242
2316.10 2198588 2860556 2266422 2128128 1971220 2763074
2319.00 2283066 2021144 1717018 2702098 2450518 2010228
2321.89 1804520 2692664 2447042 1771972 1610374 2750472
2324.78 2606578 1622528 1623338 2905170 2605176 1402306
2327.67 2071852 3094660 2327256 1228152 2081432 3246500
2330.57 2033184 1207104 2620714 3073082 1645762 1388876
2333.46 3078254 2928212 1336518 1823538 3287224 2293682
2336.35 1242106 2612292 3165108 1530262 1645402 3293762
2339.24 2482028 1168680 2402908 3114798 1678952 1644810
2342.14 2960476 2210032 1348356 2404804 2517888 1564568
2345.03 1785054 2317554 1886052 1664678 1965554 1904314
2347.92 1730596 1783978 1606008 1952162 1771130 1718798
2350.82 2281332 2142596 1660672 2555512 2580404 1546172
2353.71 2832048 3076592 1637944 3132484 3223840 1532704
2356.60 3421304 3331898 1588908 3727492 3310118 1722922
2359.49 4213206 2927936 2098102 4590386 2456220 2447432
2362.39 4628082 2043592 3521812 3941336 1702758 4230860
2365.28 2740434 2397756 4088282 1899460 3595738 3226086
2368.17 2225972 3878056 1991230 3360856 2673018 2190544
2371.06 3289090 1952074 3168504 2149548 2782694 2390102
2373.96 2253936 2662010 1974654 2588592 2064278 2305362
2376.85 2079590 2272800 1991390 2176350 1977522 2068726
2379.74 2040460 1927062 2008210 2014638 1813464 1888142
2382.64 1900116 1858904 1720446 1746356 1757956 1806718
2385.53 1592398 1720968 1747962 1546356 1601430 1464580
2388.42 1451202 1314384 1312328 1317636 1256588 1221210
2391.31 1268356 1333738 1373600 1204422 1204284 1190020
2394.21 1021172 1052338 1075378 1140752 984566 1064912
2397.10 1024652 1070498 1162318 1058416 1078964 947316
2399.99 1029670 910934 908146 934266 910960 1040962
2402.88 1045624 966190 1077366 993614 890370 968614
2405.78 901100 734480 942350 1002486 898430 879430
2408.67 787832 831630 821664 797144 846822 691322
2411.56 695196 720036 897644 686054 742136 693274
2414.46 710618 709024 661750 608080 789796 631268
2417.35 540270 530050 750618 736150 516882 425810
2420.24 549912 630598 668854 796552 559636 510570
2423.13 605150 757964 667884 522108 593446 575154
2426.03 580054 569930 454242 487532 553400 507018
2428.92 353948 463718 511076 524084 439254 530252
2431.81 424882 507472 356338 478334 520986 375476
2434.70 432886 393394 486450 317598 415990 299164
2437.60 437982 329894 550532 458712 492520 347132
2440.49 405292 574846 428514 383508 464138 608848
2443.38 391068 374060 428108 480118 518160 472216
2446.28 509788 417340 367550 341026 484346 423696
2449.17 523914 325688 507792 461064 425244 589210
2452.06 586662 640348 766128 658662 798724 730038
2454.95 788472 610464 759268 808462 657400 902870
2457.85 783462 847372 1013130 878434 949824 1078286
2460.74 945214 928526 938978 790600 1074760 960068
2463.63 1109322 1035630 1113326 1105078 988856 1069062
2466.52 1141060 1066186 973306 1039890 1035412 952002
2469.42 990936 1063674 1050250 985150 1167306 1127382
2472.31 1121026 1072840 1093932 1218728 1299096 1210916
2475.20 1421054 1338452 1256968 1293062 1154856 1341942
2478.10 1369104 1222682 1255730 1312338 1193976 1254288
2480.99 1139946 1173828 1016370 955520 904430 1047402
2483.88 956946 1007484 876734 911778 1029042 759264
2486.77 1022284 782470 908418 911592 785852 946448
2489.67 941176 1031198 909362 946190 1014724 1005992
2492.56 921906 918372 1252598 1017668 1170282 1176650
2495.45 1309254 1130980 1392798 1476006 1409018 1313736
2498.34 1634460 1545302 1541206 1549752 1686352 1562356
2501.24 1737872 1801408 1826236 1676016 1836700 2041008
2504.13 1962632 2006274 2126174 1955976 1960476 2239610
2507.02 2142488 2201938 2229782 2206092 2436660 2175942
2509.92 2216506 2449656 2444598 2384886 2347616 2528926
2512.81 2512610 2545546 2428710 2479972 2709242 2636382
2515.70 2528972 2666636 2882032 2792792 2691002 2711160
2518.59 2772444 2724954 2715522 2650624 2639280 2600160
2521.49 2465550 2560540 2587118 2656956 2398030 2304698
2524.38 2437980 2379676 2347918 2183600 2238848 2082512
2527.27 2178694 2248488 2204872 1971482 2118792 1995034
2530.16 1968514 1965832 1864852 1848652 1831354 1782750
2533.06 1660330 1696202 1717450 1746764 1571620 1499640
2535.95 1432070 1489368 1418618 1471058 1211922 1333038
2538.84 1441042 1318610 1190076 1137218 1257392 1004506
2541.74 1093938 1165500 1030838 991768 975068 976492
2544.63 903310 981096 716850 722402 751858 736220
2547.52 775904 919072 848412 752528 662876 649852
2550.41 858404 696186 652244 745514 781250 656676
2553.31 673790 706490 685710 649082 797094 727346
2556.20 777982 752850 742852 771902 619402 573716
2559.09 692294 633170 619836 659846 663202 580418
2561.98 678836 562578 482770 683888 518374 650446
2564.88 502932 523040 574844 487192 359066 571124
2567.77 475512 497260 570824 579302 462078 519768
2570.66 433416 445018 399658 517266 513916 317924
2573.56 417302 474346 324362 382516 191142 468686
2576.45 237322 312230 250524 176800 206658 248620
2579.34 161122 269552 134692 122722 219422 281150
2582.23 37214 202254 182300 92496 212798 80542
2585.13 136324 210120 92046 134804 37874 30056
2588.02 39714 77728 221124 203112 83634 191528
2590.91 262612 246500 106448 64464 222418 268176
2593.80 173452 36120 246312 147158 156528 92078
2596.70 189284 224048 308818 145384 258798 279286
2599.59 207186 301510 301466 417292 288444 198156
2602.48 260484 318440 159060 218216 282680 253840
2605.37 333510 270492 286574 281966 298762 368570
2608.27 327064 385126 211780 521478 453312 305910
2611.16 383898 384382 345936 354360 356274 368868
2614.05 387554 597394 160888 340054 373916 405348
2616.95 470836 382652 381388 365632 369780 481630
2619.84 496832 352874 447702 296364 224250 555214
2622.73 357278 377022 358304 339706 333322 254370
2625.62 450286 347674 243966 307042 272664 293022
2628.52 294668 155734 332980 131654 346688 142262
2631.41 265410 224626 259896 305070 117450 267050
2634.30 174014 196880 219294 335056 296202 86148
2637.19 84562 225012 191960 210064 362262 248430
2640.09 125430 263848 96266 246848 286994 76120
2642.98 221028 294414 350808 272184 284376 258674
2645.87 288378 295310 338562 343468 456736 451742
2648.77 418870 450772 486580 471360 524258 531526
2651.66 644158 474240 550954 710196 618190 879530
2654.55 793378 861202 775754 958730 834246 855828
2657.44 1005820 1074592 912042 1182798 1086774 1179954
2660.34 1202246 1227562 1370538 1324820 1437956 1431946
2663.23 1366268 1534976 1453986 1623656 1656438 1642742
2666.12 1645838 1714708 1638302 1827458 1866030 1793614
2669.01 1844414 2184026 1793462 1961354 1955922 1921286
2671.91 1969374 2007032 2023084 2176550 2045958 2067272
2674.80 2094250 2144796 1825730 2137634 2295012 2119952
2677.69 2123974 2181680 1890858 2221940 2054952 2179098
2680.59 2008684 2126228 2022286 2118576 2174842 2054042
2683.48 2143648 2207072 2083076 2159006 2128796 2047974
2686.37 2099480 2062318 2128246 2087934 1988804 2068146
2689.26 2062378 1848018 2119500 1890976 1957074 2010196
2692.16 1928370 2030210 2000412 1713562 1905232 1705036
2695.05 1824046 1554450 1770430 1850846 1771188 1724452
2697.94 1837496 1836848 1676692 1795326 1624930 1710492
2700.83 1872752 1914788 1730296 1839688 1643992 1835502
2703.73 1847424 1703702 1702200 1810770 1751800 1805656
2706.62 1795968 1660472 1948292 1941568 1682452 1858256
2709.51 1958168 1781300 1990136 1992692 1989500 1788908
2712.41 1807550 1778600 1906324 1967878 2055046 2073288
2715.30 2070180 2138572 2222390 2089954 2240652 2148780
2718.19 2243108 2267552 2133284 2198382 2287566 2330430
2721.08 2269310 2263494 2276298 2369946 2342178 2381620
2723.98 2478244 2394146 2440186 2439460 2654998 2568476
2726.87 2579572 2778246 2686162 2748296 2847820 2920778
2729.76 2969884 3041304 2989912 3091882 3135630 3298560
2732.65 3423560 3458648 3694204 3622542 3698368 3685098
2735.55 3925000 3988802 4124050 4111342 4102888 4241396
2738.44 4530478 4389786 4401420 4577838 4674030 4827614
2741.33 4826116 5001730 5025786 5051826 5375484 5421682
2744.23 5363772 5455886 5464102 5633612 5537294 5634896
2747.12 5743210 5594090 5575602 5695122 5746392 5821162
2750.01 5919528 6077870 6109424 6275606 5954714 6028672
2752.90 5885732 6124600 6075498 6094290 6179522 6112284
2755.80 6209076 6233106 6162056 6086766 6123900 6243392
2758.69 6243744 6048006 6434632 6185528 6114134 6149848
2761.58 5993486 5816214 6011454 5618310 5696806 5546296
2764.47 5481324 5374568 5207898 5245566 5208804 5092170
2767.37 5129078 4823568 4983724 4763698 4665400 4635860
2770.26 4908588 4779602 4597076 4824836 4820784 4728550
2773.15 4758566 4724814 5052106 4795230 4922178 5094746
2776.05 5021352 5009238 5250108 5203054 5345558 5434194
2778.94 5598970 5619544 5773674 5889304 5840652 6167994
2781.83 6155552 6099026 6387824 6372038 6820704 6647694
2784.72 6899746 6997008 7322556 7484856 7507892 7797008
2787.62 7939850 8334422 8313062 8788630 8854224 9027330
2790.51 9349246 9475992 10144240 10174770 10461880 10913330
2793.40 11172430 11373770 11522820 11905980 12176500 12276000
2796.29 12564720 12714130 12944660 13061990 13140630 13640700
2799.19 13778910 14314540 14306510 14494920 14788630 15171870
2802.08 15400780 15520190 15862440 16034400 16506010 16789750
2804.97 16986330 17426490 17948720 18279920 18528620 18954070
2807.87 19448100 19935000 20094910 20698850 20910650 21246350
2810.76 21676670 22051830 22471480 22970160 23335860 23842830
2813.65 23924660 24523170 24781400 25270870 25141420 25640790
2816.54 25713490 25966340 26281940 26177790 26369550 26585470
2819.44 26527850 26627160 26768450 26986910 27269070 27390200
2822.33 27534200 27779710 27735380 28156620 28219390 28425000
2825.22 28957370 29129910 29405990 29455110 29520050 29651420
2828.11 30279780 30518400 30496390 30735280 31151860 31174670
2831.01 31494500 31644600 32153110 32242400 32526780 32823730
2833.90 33067920 33321260 33674780 33742920 34049810 34099050
2836.79 33895410 34044340 33963980 33926840 33698100 33478130
2839.69 33434650 33362630 33075400 33069200 33003840 32641060
2842.58 32715630 32486660 32722140 32530690 32457720 32445540
2845.47 32845650 32774690 32479200 32662020 32768690 32564760
2848.36 32700240 32448770 32415620 32571440 32611680 32443940
2851.26 32460930 32466780 32417930 32606140 32479370 32821570
2854.15 32682700 32762160 32832170 33000340 33104880 33205210
2857.04 33038710 33423230 33142600 33517740 33547350 33661140
2859.93 33756640 33752310 33652860 34164310 34187730 34513330
2862.83 34806360 35125250 35010080 35684190 35837900 36086470
2865.72 36772360 37302560 37667600 38404800 39427050 40032030
2868.61 41268260 42236720 43215030 44708720 46033120 47867310
2871.51 49725740 51901250 54000800 56473320 58919750 61777040
2874.40 64796170 67898060 71317810 75140990 78967570 82768100
2877.29 86920140 90596170 94707270 98924750 103052900 106474400
2880.18 110585100 114355900 117168500 120712800 123232900 125504700
2883.08 127532800 128562700 129756700 131033100 131300700 132259700
2885.97 133068000 134650300 136612400 138672300 141982700 145870200
2888.86 151088600 157241100 163881600 172980800 181407700 185689500
2891.75 188192200 190818500 190759000 191387000 193845800 197297700
2894.65 201022800 205380800 210319800 214865400 219507000 223896900
2897.54 227246900 230458700 233167800 235245500 236828200 238499100
2900.43 239966500 240679800 240843100 241691400 242646600 243635600
2903.32 243893100 244851500 245079000 245064100 245112900 245759400
2906.22 246387000 247571000 249088800 250413000 252016400 253611500
2909.11 255447400 257367300 258713000 260545000 261894800 263236300
2912.00 264684400 266783600 268426000 271601600 276055000 282516800
2914.90 292626000 306017300 315044000 315259300 312988800 309540900
2917.79 304555500 297420900 290269200 283383600 279774100 275465200
2920.68 273663100 270529400 268084200 265274500 262941700 260549100
2923.57 257729100 255221600 252908200 250256200 248054300 245761900
2926.47 242940200 241013900 238344500 236318200 234359300 233365800
2929.36 231975200 231376700 231028800 230669600 231122800 232097900
2932.25 233004400 234343700 236735800 239744300 242958700 246597400
2935.14 251001800 254698300 259149500 263317000 268184000 272123900
2938.04 275671200 279530200 282824500 285742900 287865800 289084700
2940.93 289446400 288798100 287400700 285705200 282466300 278382100
2943.82 274655700 270138000 265392700 261342600 257546500 254872000
2946.72 254168000 257543800 264734700 285121500 317090000 316259700
2949.61 300630000 286653800 276579800 268105900 262489800 258489900
2952.50 257788100 257620700 259969300 262545500 266477200 270387800
2955.39 274565800 278612300 282485200 285607400 288209200 290154400
2958.29 291176200 291618000 290983500 290391500 289067700 287138800
2961.18 285292600 281854500 277561000 275426000 272914000 271193600
2964.07 269493700 268814100 269239600 270534100 272413600 275900000
2966.96 280346400 284729000 288622400 292676800 295022100 296365900
2969.86 297092800 297972000 300388500 302418100 306223100 311439600
2972.75 317016000 322561000 328577500 335073300 341417600 348092600
2975.64 354204100 360173200 366858200 372172200 377797600 383876800
2978.54 388725000 393476100 398739100 403322500 407409200 411402300
2981.43 415798300 420094700 422823700 426181100 429996800 432849100
2984.32 434948300 436235100 435066000 434019200 430743600 426774900
2987.21 422993400 421999200 425379100 434372000 444262700 457560400
2990.11 483153600 531460900 599329900 658848100 629191400 537461300
2993.00 480469700 450937600 437615500 430034300 425984700 422666300
2995.89 419353300 414831000 409740900 404065000 397869600 390643800
2998.78 383132400 375691200 367226400 359294800 351721300 343737200
3001.68 335923500 327553700 320123700 311981200 304928100 297080800
3004.57 289671600 282119600 275028700 267199400 259809100 252668100
3007.46 245186400 237493900 230124200 223370100 216292400 209676500
3010.36 203683600 197856800 193906100 190234700 187753600 186981400
3013.25 186062900 182536700 174018700 164867300 157530200 151349400
3016.14 146538800 142573100 139861200 137121800 134830900 132375100
3019.03 130449000 128400200 126278200 124227500 122184700 119857400
3021.93 117245600 114671700 111958100 109315400 106395800 103564600
3024.82 100779000 97647020 94583360 91982170 89089230 86016560
3027.71 83276100 80319470 77798980 75372750 72912090 70633960
3030.60 68611580 66418530 64483520 62498580 60881130 59018610
3033.50 57775280 56609290 55288670 54293820 53321990 52167140
3036.39 51546040 50550190 50042960 49377620 48679890 48332930
3039.28 47779430 47283890 47172510 46326520 46266840 45693810
3042.18 45407230 45442450 45203560 44408620 44299980 43720950
3045.07 43670630 43442480 43292270 42937640 42876270 42519620
3047.96 42416080 41880890 42112900 41713810 41809120 41552120
3050.85 41378140 40853350 40804660 40501960 40335770 40118800
3053.75 40045840 39642380 39675590 39237700 39307280 38651560
3056.64 38652400 38432040 38137980 37779040 37746070 37299810
3059.53 37010820 37102710 36732870 36560630 36284430 36099450
3062.42 35846670 35630260 35194310 35185460 34669100 34790880
3065.32 34336470 33882650 33582440 33332840 33184370 32932200
3068.21 32331660 32407890 31959050 31799560 31377010 31082010
3071.10 30693310 30818130 30317520 30186070 29559640 29327940
3074.00 28875810 28486990 28464130 27873720 27666220 27457570
3076.89 26706360 26333750 26360970 26102770 25568700 25327690
3079.78 24561040 24475420 24156650 23802990 23235920 23297550
3082.67 22679840 22323930 21958800 21772290 21363400 20857710
3085.57 20860110 20294320 19959810 19679400 19493720 19290040
3088.46 18927250 18518230 18168330 17530020 17653910 17416830
3091.35 17153750 16647040 16680540 16509170 16133780 15516700
3094.24 15433350 15385090 15224410 15037510 14561460 14536650
3097.14 14396770 14122820 13890880 13611060 13901410 13395410
3100.03 13413490 13092870 12739200 12570250 12610970 12319590
3102.92 12376940 12124580 11809130 11996090 11587250 11348490
3105.82 11435540 10662260 10965690 10839270 10704590 10464060
3108.71 10660450 10421330 9874052 10203910 9959170 9773872
3111.60 9662174 9632070 9475184 9388892 8879110 8933246
3114.49 8591512 8317488 8860190 8482038 7858786 8137552
3117.39 8025574 7794836 7698980 7523090 7486788 6951608
3120.28 6845236 7019412 6969522 6862494 6666714 6999952
3123.17 6149778 6567692 6510714 6142042 6078496 6308596
3126.06 5789838 6079808 5898836 5789826 5694046 5757252
3128.96 5638550 5523042 5516562 5680798 5566394 5358738
3131.85 5455860 5521108 5250038 5184330 5330528 5088574
3134.74 5184474 4814806 5124712 5129300 5073704 4791592
3137.64 4887380 5038436 4747122 4837580 4850410 5161596
3140.53 5012802 4957104 4675034 4851056 4767684 4867504
3143.42 4956398 4680210 4905842 4935164 5251464 5166652
3146.31 4947872 4935776 5051550 4964756 4872182 5054612
3149.21 4901806 5028252 4783026 4958308 5162524 4999326
3152.10 5232224 5400636 5407778 5448314 5412776 5216482
3154.99 5220472 5158044 5186060 5222176 5606980 5422840
3157.88 5193570 5521738 5476864 5564626 5845956 5675120
3160.78 5457194 5618162 5959204 5694194 5713998 6072608
3163.67 5942590 5991648 6152658 5909564 6238280 6142792
3166.56 6474816 6281416 6320996 6486090 6671936 6591098
3169.46 6968094 6831530 6681046 6695992 6957394 6284860
3172.35 6434234 6294390 6281522 6399164 6368516 6335328
3175.24 6084428 6188176 6303744 6261286 6365064 6236184
3178.13 6328214 6389856 6439548 6538002 6476040 6215138
3181.03 6563766 6289300 6490244 6768346 6809308 6962544
3183.92 6991896 7293818 7378544 7129766 6826154 6805242
3186.81 6016260 6197248 5681164 5545942 5182458 5437400
3189.70 5145036 4905302 4755486 4929960 4728332 4867170
3192.60 4504714 4747634 4579868 4184188 4304684 4177586
3195.49 4383874 4077260 4188250 3911340 3961306 3790756
3198.38 3787538 3441730 3426934 3674426 3580570 3289586
3201.27 3354712 3140550 3289034 2943814 2931258 2665396
3204.17 2634118 2510474 2574788 2265380 2114678 2059838
3207.06 2025956 2251124 1997176 1944542 1995528 2007004
3209.95 1732772 1807168 1652106 1276354 1621094 1442158
3212.85 1593414 1483234 1443886 1289462 1297970 1404500
3215.74 1322558 1354052 1359798 1104382 1141212 1144786
3218.63 1071296 1066846 1021426 805164 1022090 1289272
3221.52 933446 1055534 1132222 1092932 1087786 1111350
3224.42 1242544 1129456 1062554 1261654 1143076 1450008
3227.31 1312878 1069892 1232806 1520890 1290338 1433724
3230.20 1439872 1529928 1246064 1375620 1571124 1344102
3233.09 1073342 1553228 1425122 1195944 1276744 1162122
3235.99 1516312 1375804 1004746 1148182 1286122 1121216
3238.88 1395366 1299888 1590816 1330982 1600828 1284066
3241.77 1665086 1162322 1002220 1013250 1055572 986418
3244.67 1334806 819470 561998 1189242 806848 1141306
3247.56 1109144 896802 1277654 802334 1027402 835862
3250.45 807030 643604 793596 667422 811358 577112
3253.34 440054 671052 525324 316370 402874 424996
3256.24 423310 71070 180394 102216 37866-125332
3259.13 52912-42200 1644-56786-366400-78226
3262.02-45512-437234-251446 205370-237812-319232
3264.91-398478-637130-190340-202578-295368-498372
3267.81-230840-520496-420972-643996-698174-604592
3270.70-533604-369346-495716-224076-373976-367074
3273.59-461630-291482-434008-395648-482414-348846
3276.49-932950-498152-991730-371894-414820-706078
3279.38-727340-677946-1024028-580238-786638-775180
3282.27-626786-443056-528830-868154-592230-686056
3285.16-639348-633544-547210-623100-910582-648540
3288.06-710692-437878-983060-650850-556310-770166
3290.95-798600-661622-348250-722038-542472-385342
3293.84-639662-712664-819734-980530-829816-661506
3296.73-502102-580514-576896-750496-642076-486256
3299.63-540486-287676-523712-737388-380788-643212
3302.52-414308-500882-656500-697414-358100-683980
3305.41-909016-578026-501590-302818-652370-416186
3308.31-419404-307376-334154-620846-424088-410540
3311.20-536186-510554-563374-544814-568542-526580
3314.09-550814-448958-254594-481586-486064-473070
3316.98-363916-182610-311122-287864-231968-223564
3319.88-458718-603744-446800-449702-810552-582472
3322.77-506784-648386-745800-386126-698214-490472
3325.66-385742-153036-240800-474244-506042-405304
3328.55-450536-219096-640898-609978-586738-865276
3331.45-174184-836900-615400-517250-430264-296822
3334.34-464958-379512-109282-613640-456964-549882
3337.23-395218-690000-538208-569990-403020-542910
3340.13-340406-344384-437702-597382-294756-393238
3343.02-709706-253034-419512-621732-354252-477668
3345.91-287846-427572-396156-690378-130118-280682
3348.80-164796-515580-775910-21518-312872-273742
3351.70-435568-507696-201898-106730-164446-91962
3354.59-237760-109704-316496-85384 55368-351508
3357.48 7668-161080-64602-293858-220078 131228
3360.37 469640 180886 339212 67192-39822 556134
3363.27 362582 464368 353228 575108 587854 471776
3366.16 456876 860796 566228 1063006 386954 488886
3369.05 382106 1099266 981050 974982 681626 881934
3371.95 706658 970106 1000828 1016350 1015552 874004
3374.84 980838 1057100 886728 828408 897244 883598
3377.73 834496 992868 915292 927780 1022302 972646
3380.62 849662 1049630 321414 959626 1002896 1153742
3383.52 963300 1109024 980414 1250306 985854 978814
3386.41 1043914 924942 732880 1162008 1090422 1247064
3389.30 825198 914292 1020518 949668 556876 1112928
3392.19 877038 985908 585212 719268 813482 748790
3395.09 455546 617000 754786 844664 680354 475242
3397.98 947492 304318 167502 406344 598530 485178
3400.87 742838 586718 395308 554742 145420 505426
3403.77 454852 807152 408924 904588 537710 762024
3406.66 438050 581178 878752 704572 900230 489882
3409.55 397152 699588 927444 648162 587464 760162
3412.44 826180 997708 1191956 1254422 1209190 1184900
3415.34 1473586 1312720 1329644 1401220 1637346 1305734
3418.23 1999406 2143870 2358010 2183352 2782680 2373234
3421.12 2635994 2642996 2872984 3065622 3269410 3404972
3424.01 3483812 3824484 3881644 3961860 4065026 4475066
3426.91 4639868 4918768 5020222 5439382 5174544 6028320
3429.80 6080530 6646526 7005992 6593822 7451480 7133712
3432.69 7719472 7728100 8053014 8685836 8787362 9691810
3435.59 9965700 10156880 10424240 10815390 11285190 11295280
3438.48 11808750 12137680 12919880 13429510 13803210 14039610
3441.37 14571750 15278440 15659070 15892500 16388320 16534710
3444.26 17119320 17441460 18142030 18373520 18988390 19550990
3447.16 19844960 20074100 20419750 20894720 21215880 21691510
3450.05 21788900 22137190 22569450 22563790 22849560 22706940
3452.94 22913460 23043890 22573810 23195420 23006850 22601340
3455.83 22280070 22424360 22391200 21830580 21830650 21399010
3458.73 21476540 21189190 20946070 20945310 21011360 21179600
3461.62 20885170 21410110 21748160 21591170 21909390 21973450
3464.51 22060050 22228420 22359010 22221430 22477720 21839240
3467.40 21477750 21416200 21297650 20930550 19806400 19818070
3470.30 19052710 18626230 18097670 17418880 16741160 16183750
3473.19 15498550 14764220 14232590 13540380 12842250 11898830
3476.08 11506230 10930650 10408150 9846260 9547448 8974708
3478.98 8411470 8191996 7556184 7145360 6466292 6270144
3481.87 5902466 5137098 5346352 4636814 4197842 4232288
3484.76 4143994 3694890 3143056 2616626 2477718 2489430
3487.65 2509882 1670018 1917260 1486142 1337384 1140104
3490.55 1088532 747220 901884 312400 469558 347664
3493.44-32792 21748-431432 144092-406762-327828
3496.33-164464-569492-493652-1113078-907584-1059746
3499.22-901022-832502-1058916-1074158-1199770-960116
3502.12-1096656-679558-1178692-1262198-1099664-1355174
3505.01-1390704-1302424-1435408-1654016-1608204-1541610
3507.90-1761088-1594086-978826-1512978-1316784-1651354
3510.80-1938922-1723774-2119576-1850790-1986854-1875226
3513.69-1789124-1747424-1915476-2001106-2408614-2023018
3516.58-1839384-1566710-2127356-1853368-1784562-2255764
3519.47-1718192-1946642-1825640-2015444-1977112-1673968
3522.37-1760996-1866466-1785242-1702476-1793758-1624268
3525.26-1843610-1899142-1868128-1632246-1852532-2120358
3528.15-1845214-1658882-2074752-1761224-1870180-1570792
3531.04-1726306-1828664-2006686-1620318-1993686-1892904
3533.94-1711912-2012062-1931680-1515778-1626386-1750746
3536.83-2057986-1981618-1691314-1922568-1881776-1802526
3539.72-1599986-1700560-1808518-1719664-1661914-2134374
3542.62-1632866-1294440-1291648-1701738-1171258-1313990
3545.51-1812862-1536350-610108-1109088-1365106-1417448
3548.40-1482358-1217220-1723022-1185864-1644092-1227764
3551.29-1078478-625270-1306634-1257600-1004660-1228478
3554.19-1173286-1220062-1155962-941940-914834-1044268
3557.08-1115222-1001496-865204-1101704-728756-627296
3559.97-411712-1002276-602554-309944 83980-319388
3562.86 43204-46020-91384-199286-131460 873844
3565.76 653274 1643446-62036 904306 2750044 512488
3568.65 586894 123650 334492 529854 319614 35754
3571.54 373126 256166 172632 165254 175320 173956
3574.44 107404 164810 235738-31982 195958 260662
3577.33 216276-118192-117572 53408 547310 819262
3580.22 758256 1564490 1340058 1329670 1219352 260210
3583.11 568340-55350 507232 774480 1124624 217182
3586.01 2845138 803386 437102-128328 2369914 3066080
3588.90-509418 696330 114538 252174-183932 378238
3591.79 713194 668804 1211134 513166 339216 123418
3594.68 1242398 996734 437492 396032-94044 120032
3597.58 701816 106212 13930 154838 137326-4144
3600.47 562532-37476-70674-355626-13960-124450
3603.36-568478-641628-300688-513646-997952-781502
3606.26 50762 999294-1226090-147974-1218604 4201262
3609.15 1230264-1457164-606258-1201326-595526-828316
3612.04 2269982-104056-901834-935372 274394-212736
3614.93-532160-949408-970200-1067488 340364 747670
3617.83-378168-1056344 778284 3582578-1362162-533130
3620.72-606910-480138-953102-608934-1217516-489408
3623.61-859008-781328-881980-1059898-707856-491082
3626.50-1097570-395898 776168 6036872-1311576 5702120
3629.40 3801256-1409552 159422-1335190-430026-934006
3632.29-450250-1030260 674528-101046-757746-727022
3635.18-680232-695578-851802-880906-688014-324104
3638.08-404686-686620-530802-762666-650438-806508
3640.97-273186-577790-309570-546854-313216-686272
3643.86-429560-614074-120994-583766 585806 155890
3646.75 2826214 1371220 207528-312992 7961914 3331426
3649.65-612472 2827158 1636548 2182832-689540 347938
3652.54-575302 50856-596350-38074-72168-108302
3655.43 1570908 5919330-648408 323114-636120 42490
3658.32-495570 10790-429980 156718-669170 104860
3661.22-431752 172066-475974-49346-578260 42408
3664.11-419294-95750-383612-106868-216480-208810
3667.00 161074-649374 1662594 3125032 13540 30964
3669.90 3288048 10606770-672264 1124922-1399594 1012964
3672.79-1293128 1209418-751898 4882442 2507012 3951906
3675.68 8843952-899808 463130-133602 32604-383290
3678.57 316406 1164490-600420-178252-856308-276660
3681.47-656704-326986-806792-219754-934732-56464
3684.36-951414 70504-1129796 133210-1488956 799848
3687.25-1939886 7902590 8162566-1631066 238226-396684
3690.14-51252 1922902 2049546-1488614 34442-1054912
3693.04-61478-864784-194590-983672-579070-863820
3695.93-415194-748648-503622-752328-462868-662658
3698.82-411488-819006-521532-863580-396326 2361390
3701.72 865898-1157906-707016-917164-660076-1109756
3704.61-291446-822214-567510-983720-503310-805386
3707.50-26472-815708 287880 2975314-112856-832126
3710.39 226628-775432 2570966 6758102-613968-416466
3713.29-1125492-674144 98534-231164-936682-478482
3716.18-866210-626978-713186-592818-422164 509568
3719.07-633992-279328-727542-235024-993772 1076604
3721.96 962744-419046-694616-768704-557098 269708
3724.86 65936-778374 983782 1606230-809104 81500
3727.75-741108-275654-799858-352312-687088 53836
3730.64-304620 166106 6378160 1954264-1077124 213446
3733.54-553036 2535286 1947864 2861408-1051504 3466688
3736.43 5376764-1053896 155456 449848 194556-760374
3739.32-355234-331322 143578 791396-161908-358344
3742.21-122418-248332 1355902 5748118 15632730 4932248
3745.11-575908 299382-763640-56176 181932 369704
3748.00-533714 3422516 11626290 2020070-238610 551664
3750.89-590682 4655392 13029690-308736 199990-583026
3753.78 17230-802116-156312-760240 6992 1435696
3756.68-460638-566388-637578-133722 10674 997236
3759.57 1704406-982376-298278-1002120-388286-866880
3762.46-490644-794086-499904-886858-524358-333524
3765.35 1963490-1059156-368586-920010-503828-940500
3768.25-174996-1189940 2754516 1837706-1045438-546670
3771.14-677768-421306-777608-842372-964330-794152
3774.03-901500-697340-939172-770616-626332-658728
3776.93-870288-803544-545282-998854 1475424 1159324
3779.82-1081404-473068-965196-801774-831310-671492
3782.71-803614-530828-702928 3256-361902-506892
3785.60-926580-432378-717932-530646-813310-516334
3788.50-811268-749374-789436-663234-717280-729812
3791.39-893748-583008-936842-444782-672908-385600
3794.28-944154-286804-926202 1369914 1138678-926422
3797.17-100200-414010-870324 141560-1013266 488358
3800.07-362164 3533452 11518100-417956 351588 575212
3802.96-280648-682068-543724-245156-865060 301712
3805.85-905590 5796280 5014364-1342424 332282-1250218
3808.75 125422-1224914 95376-949696 166982-870020
3811.64-80268-854636 73582-855680 292756-781666
3814.53 877534-876542 11480150 5066766-1153058 515534
3817.42-640096 142880-229626 149290 105848 1199746
3820.32 4336018 849374 5592556 1022098-234106 318122
3823.21-236318 122238-238908-117672 249482-328352
3826.10 1388992 863076-432882 283456-16342 86192
3828.99-159718 235818 187506 97680 1800832 3365588
3831.89-750930 937680-874478 920470-976498 3866206
3834.78 2348132 299994-219240 1863618-985332 10183980
3837.67 8551888-905246 1387984 248358 2485994 63970
3840.57 3976300 369372 636864 381110 637854 1438936
3843.46 2613280 137988 857920 131980 1067086 230142
3846.35 775762 397268 778216 192038 1019758 438422
3849.24 1418948 728480 1594990 172554 4034114 11425180
3852.14 1311358 2061192 4015732 15943080 11263690 1128738
3855.03 1142928 767630 1320458 1605070 2344068 352762
3857.92 1450914 554554 1344306 918570 1320744 1083170
3860.81 1823556 3640478 1480340 865720 1561066 1124596
3863.71 1864468 2317722 6905710 1184124 1849168 923988
3866.60 1493104 708254 1795054 201440 4176496 2066154
3869.49 7762494 5365548 258118 2490192 518716 1496582
3872.39 912612 1562178 1888080 3594276 1789128 767838
3875.28 1054118 1164454 741740 999532 1004430 1034000
3878.17 931224 1111080 1127772 3881954 2583052 1382746
3881.06 1342232 541872 879854 763182 1351056 43642
3883.96 1498236-1660 4346254 6288386 1103330 695086
3886.85 153054 644710 545808 533334 746916 184286
3889.74 809382 122836 4922640 2551166 91206 581744
3892.63 339140 326892 287178 509422 133884 321718
3895.53-11426 171780 246298 154124 699852 513626
3898.42 735470 4440476 610374 391598 31618 546572
3901.31 4515078 1637110-148414 423274 665862 5004856
3904.21 1247842 236328 623214 1285354 215754 41462
3907.10-75636 213720 30118-57904-129828-79724
3909.99 99414 182392-11008 265894 83976-19318
3912.88-3908-56724 93918-24574 142028-172076
3915.78 710918-223110 2189680 555574-443432 230150
3918.67 34108 163592 1626108 51666-372460 299176
3921.56 115182-245786 151834 239154 655764 76720
3924.45 780206 688568-177000 84824-31150 282354
3927.35 146706 184458-137208 421010 327222 322518
3930.24 134378 59260 116842 1119504 918796 150634
3933.13 62670 356466 339464 64866 20136-18160
3936.03 183492 16120 203784 40432 469498 223684
3938.92 198522 400648-5878 214302 59070 397330
3941.81 466222 1197976 30558-215586 192748 503488
3944.70 59978 343656 544610 527850 816034 906144
3947.60 645514 640696 731412 267118-65934 92792
3950.49 189032 192044 274436 169710 344530 570836
3953.38 47842 280534 357858 445274 472942 258910
3956.27 390182 386032 403480 511756 821386 428548
3959.17 565138 567868 513900 674562 546128 753290
3962.06 487920 587326 613078 437324 824938 588196
3964.95 679280 725926 761510 958452 984102 842262
3967.85 821502 707050 1232218 787742 1076212 996454
3970.74 1088992 1304250 1031684 1287720 1294514 1118216
3973.63 1316554 1066864 1093112
##END=
