##TITLE=Methyl Ethyl Ketone
##JCAMP-DX=4.24
##DATA TYPE=INFRARED SPECTRUM
##CLASS=IUPAC A
##ORIGIN=NIST, Anayltical Chemistry Division, 301-975-3108
##OWNER=COPYRIGHT (C) 1998 by the U.S. Secretary of Commerce
##DATE=98/10/1
##$SPECTRA VERSION=1.00
##$UNCERTAINTY IN Y=2.1 % relative (B=1.1E-04,C=8.6E-10,D=2.7E-14)
##CAS NAME=2-Butanone
##CAS REGISTRY NO=78-93-3
##MOLFORM=C H3 C H2 C O C H3
##MP=-86.35 C
##BP=79.6 C
##$NIST SOURCE=QUANT-IR
##SPECTROMETER/DATA SYSTEM=IFS66V (Bruker)
##INSTRUMENT PARAMETERS=KBr Beam splitter; MCT Detector; Multipass cell
##STATE=gas
##SAMPLE DESCRIPTION=Methyl Ethyl Ketone Primary Gas Standard
##PRESSURE=101.3 kPa
##TEMPERATURE=23 C
##SAMPLING PROCEDURE=1 L/min Flow
##RESOLUTION=1.9290
##DATA PROCESSING=NB Strong Apodization
##XUNITS=cm-1
##YUNITS=(micromol/mol)-1m-1 (base 10)
##XFACTOR=1.0
##YFACTOR=4.5474E-13
##DELTAX=0.9645
##FIRSTX=574.687
##LASTX=3974.595
##FIRSTY=.0000205
##MAXX=3973.63
##MINX=574.69
##MAXY=.0005696
##MINY=-9.22E-07
##NPOINTS=3527
##XYDATA=(X++(Y..Y))
574.69 45192240 50914440 55995310 59853190 61996080 62731110
579.51 63604450 64102150 62928380 63019430 66116840 68960590
585.29 72072940 73274840 69036140 65237750 65456160 66477680
591.08 66562300 65542180 65616030 65549370 64610870 63299450
596.86 61489580 58053560 53671520 49101740 44222060 38792540
602.65 33392610 28524450 23965530 19944520 16578950 13849270
608.44 11344780 9013386 7438522 6116796 5156528 4296672
614.22 3996908 3621274 2969798 2666262 2323094 1943658
620.01 1679662 1614712 1506040 1533788 1521118 1444234
625.79 1413444 1347654 1361068 1367264 1253272 1238582
631.58 1026776 722476 780040 1082216 1160962 978746
637.36 770000 900434 1168916 2821148 4936382 3048554
643.15 1237138 1045828 849608 888940 1196574 1409940
648.93 1637326 2469264 3034110 2556650 1879332 1712624
654.72 1893506 2389082 2943510 2849738 2443268 1845848
660.50 1443028 1417468 1305182 1077758 1008130 1152128
666.29 1682098 1717764 1257846 1080468 1066668 1085702
672.08 1020492 990236 987764 964122 729282 680600
677.86 746068 734008 637190 571742 544470 643544
683.65 662764 508850 406270 420478 507526 645146
689.43 631868 436878 213816 187810 294658 275938
695.22 367604 259200 141458 136668 184132 264724
701.00 263504 180158 315198 310722 348340 223208
706.79 205920 283034 315632 335414 545144 722552
712.57 804252 975930 1019834 1014056 1220102 1556028
718.36 1709230 1755996 2105288 2540872 2872416 3079244
724.14 3469908 4108138 4790826 5509388 6314082 7117986
729.93 8079580 9085668 10161240 11383340 12595920 14002640
735.71 15494250 16945660 18632680 20246860 21980140 23841190
741.50 25775650 27837490 30101200 32507830 35049930 37825090
747.29 41469030 46347440 52079100 55028510 53698430 51077890
753.07 48297780 46089460 44495580 43277080 42890780 43926190
758.86 45539610 45482640 44246640 43203560 42350120 41289260
764.64 39936620 38286980 36171830 33676470 30996970 28078600
770.43 25108500 22314680 19622350 17088150 14899190 13000930
776.21 11325790 9873454 8672586 7706436 6884048 6308668
782.00 5843606 5322834 4760830 4318234 4139222 4036476
787.78 3780140 3457354 3220098 3144356 3121752 3060974
793.57 2915492 2825970 2875378 2664626 2455516 2487274
799.35 2312422 2023162 1950438 1888416 1852612 1737836
805.14 1692772 1781964 1679240 1433944 1373898 1393776
810.93 1342908 1247878 1139960 914198 874470 935490
816.71 965296 851514 826634 878232 940764 884386
822.50 792286 775122 823124 795864 731326 716434
828.28 622014 733492 933692 926590 689932 713846
834.07 932604 879846 701564 751658 927602 848236
839.85 737198 685952 748024 894980 903852 931158
845.64 882874 887070 960184 957776 951838 914676
851.42 892624 862556 880800 973338 1101506 1110342
857.21 1056404 1032108 1112788 1232374 1223596 1231376
862.99 1381992 1471534 1486904 1495688 1568006 1648832
868.78 1762786 1842580 1934902 2047928 2189116 2390876
874.57 2580960 2774760 2851028 2844610 2913730 3086282
880.35 3273672 3408172 3619838 3754720 3921590 4148498
886.14 4385988 4527770 4701096 4988810 5419520 5788874
891.92 6039268 6498908 7037038 7512084 7961694 8390192
897.71 9016368 9818550 10602720 11392730 12246860 13207640
903.49 14331090 15559380 16915240 18429690 20032790 21764480
909.28 23671990 25721290 27937690 30222680 32515590 34958840
915.06 37559030 40138060 42873160 45878080 48968240 52188600
920.85 55770080 59264790 62563770 66141480 69851270 73863280
926.63 78086990 82246160 86438610 90751160 94891430 99007780
932.42 102752000 106030600 108254200 109330900 110068100 111024000
938.21 113750500 117059200 117910700 117648300 116649500 115689000
943.99 114125700 113221900 113415000 113803000 113451700 111701300
949.78 109138300 106162200 102661200 98588350 94135040 89700570
955.56 85208460 80775430 76401560 72151330 68268690 64642030
961.35 61247470 58060500 55139710 52420640 50011990 47865530
967.13 45970930 44281690 42834200 41635670 40585720 39804480
972.92 39220660 38716070 38281320 37913070 37700680 37582830
978.70 37406020 37020480 36651330 36211220 35637050 35004950
984.49 34357700 33853070 33615120 33483520 33089310 32472950
990.27 31697910 31102020 30664880 30071960 29517340 29091910
996.06 28780630 28309430 27794140 27347660 26970640 26353100
1001.85 25302370 24027730 22676380 21281870 20019360 18725430
1007.63 17452720 16428320 15561200 14760690 14042480 13433970
1013.42 12891030 12414870 12067260 11666190 11317150 10975080
1019.20 10589420 10273980 9834372 9435588 9105264 8718382
1024.99 8302432 7923018 7549534 7256952 7081404 6904692
1030.77 6785300 6763816 6689600 6500364 6392418 6382416
1036.56 6406132 6480172 6455330 6480256 6571478 6700834
1042.34 6905690 7050594 7200496 7332756 7593422 7969104
1048.13 8300834 8496638 8748810 8922748 9158714 9585884
1053.91 9992922 10371450 10903520 11536290 12184350 12794730
1059.70 13515640 14271300 15131060 16086570 17113660 18238710
1065.48 19258130 20328660 21516010 22726720 24010240 25352560
1071.27 26739100 28048100 29382800 30766890 32062390 33266980
1077.06 34410910 35332440 36095520 36591700 36946620 36966540
1082.84 36602620 35977540 35219410 34389090 33571690 32925930
1088.63 32619050 32841950 33576110 34377990 34666060 34354950
1094.41 33542480 32327190 30975510 29580310 28232830 27060350
1100.20 25940860 24839810 23785360 23004040 22426220 21925650
1105.98 21617560 21580710 21523820 21216270 20737950 20447630
1111.77 20306470 20200690 20219930 20300260 20384570 20547120
1117.55 20822930 21255770 21694210 22077660 22565080 23126070
1123.34 23709960 24220310 24834820 25620570 26480990 27481010
1129.12 28589940 29889580 31347760 32975590 35005020 37343620
1134.91 40024990 43162120 46790340 50947480 55899720 61806660
1140.70 68863830 77293800 87377700 99319550 113104900 128947700
1146.48 146962600 166900800 188429600 211215000 235088100 259538900
1152.27 283834300 307097500 328556700 348107400 366112500 383118800
1158.05 400543300 418492600 435431700 451501800 470766200 494925200
1163.84 520242600 543252100 555659600 557565400 564891800 565425000
1169.62 561956900 567558200 576764100 584760900 588277200 583281000
1175.41 565635600 554180400 545611800 516688000 481658900 452938800
1181.19 433283200 417983000 404450200 391049200 375611300 358163200
1186.98 339643000 320347400 300801500 281487700 262817700 244837200
1192.76 228351200 213461300 200076400 188079200 177535900 168302700
1198.55 160175300 152864600 146313700 140159600 134297600 128754600
1204.34 123413100 118165300 113428600 109126600 105108900 101166400
1210.12 97001260 92488520 87739610 82747020 77646950 72291220
1215.91 66860980 61686520 56968680 52546800 48512470 44878240
1221.69 41797170 39088730 36717610 34692090 32984910 31506920
1227.48 30212640 29130990 28272600 27520690 26823540 26216910
1233.26 25761670 25385480 25135440 25020430 25064750 25277160
1239.05 25665320 25943100 26095100 26343640 26813280 27310930
1244.83 27841420 28361390 28951150 29451160 29866320 30208060
1250.62 30534420 30806390 31066700 31273770 31429170 31508650
1256.40 31629620 31716470 31673040 31370600 31066780 30831410
1262.19 30656660 30559020 30498400 30237630 29841420 29524610
1267.98 29156920 28639690 28181150 27550620 26806540 26004200
1273.76 25313600 24637570 23964940 23352910 22782710 22179200
1279.55 21609070 21074860 20671430 20266460 19889380 19574200
1285.33 19383760 19210220 19090420 19206980 19457570 19719770
1291.12 20163760 20677220 21331310 22122100 23047620 23993450
1296.90 24997870 26084770 27334510 28573980 29897730 31298400
1302.69 32794830 34334330 36007080 37718960 39499180 41252820
1308.47 43053980 44862200 46797470 48839900 51003640 53142220
1314.26 55360630 57650290 60097580 62373130 64851650 67510060
1320.04 70306380 73069310 76236060 79537270 82937860 86454420
1325.83 90160620 93984940 97901750 101905900 106162500 110562100
1331.61 115310400 120282700 125591300 131032300 136597200 142246900
1337.40 148413200 154933400 162027400 170574400 179292300 187425500
1343.19 196650000 207824400 222249100 239523300 258931500 279668000
1348.97 301595700 324488400 348132700 371656600 394230200 415151200
1354.76 433877700 449459800 462138800 471470800 476986200 477449000
1360.54 475751400 475497200 480891300 498303000 526743000 544171500
1366.33 539550900 513842300 485913600 477519600 484670200 496216300
1372.11 504390200 506254800 499119600 482569300 457483200 426260400
1377.90 390498000 352585500 314462500 278324000 245146900 216327100
1383.68 192172300 173101000 159021200 149371900 142826900 139729200
1389.47 138621000 137794800 136612100 135438100 134431500 132271100
1395.25 129333900 126623600 124495900 122773900 120630500 119030400
1401.04 118455200 118667900 119942700 122099700 124341800 127018200
1406.83 130550300 134801000 139684700 144692600 149566700 154220800
1412.61 158606500 162540400 166041600 169132400 171664400 173613000
1418.40 174343400 170854000 166813300 164046700 162716900 163525400
1424.18 166738700 172435100 179138800 185736500 191540300 195628000
1429.97 197019600 196543300 194661900 191131000 186963100 184084900
1435.75 182188800 178251900 175617400 175120000 175104200 174859500
1441.54 174136700 173091800 172191200 171479000 171590400 172597600
1447.32 172336600 170336000 169967800 171922000 176368300 184071200
1453.11 197144600 215519700 234310500 239120500 227747300 213449100
1458.89 200086500 187705200 175000600 162998100 153240200 149525100
1464.68 153019800 158845900 159907100 156820900 154067800 153109700
1470.47 153997300 154345800 153003700 149695700 145542200 141158900
1476.25 134558800 127439600 120047200 112549000 105030400 97616050
1482.04 90476540 83974000 77937550 72705300 68410670 64211820
1487.82 60270890 57676400 54664050 51149180 48224110 46234020
1493.61 44574450 44714400 44155120 41299450 40400360 39327620
1499.39 37628190 36930720 36309740 35825590 36099520 38556030
1505.18 40215640 39900940 37600100 36192710 35633680 35098360
1510.96 35356930 35025860 34428130 34705750 35014120 35941120
1516.75 35860360 34940580 35545700 37697000 38003220 35859790
1522.53 34139810 33675380 34209270 33146360 32493660 32044520
1528.32 31321040 30699940 30591310 30562480 31214470 30782520
1534.11 28992520 27992260 27555880 28957310 31942010 31555870
1539.89 29182750 28514200 27192010 25209990 25320830 24594150
1545.68 23059820 22228770 21945010 22016450 21614510 20593480
1551.46 20171040 20825230 21917330 20225830 19539320 21711850
1557.25 24444500 24141980 23367470 19812290 17200250 16742200
1563.03 16691460 16712470 16106120 15583810 15490530 16243280
1568.82 16852680 15253750 14220160 13882720 13739890 14074240
1574.60 17062390 17695890 14131980 12824060 12496560 12392580
1580.39 12129420 11992560 11789740 11632560 11393420 11219470
1586.17 10965020 10793710 10622480 10436780 10174560 9967160
1591.96 9735258 9616342 9474968 9257154 9019488 8812020
1597.74 8664256 8527452 8413680 8292724 8203500 8164550
1603.53 8020204 7875128 7835044 7758234 7659786 7632448
1609.32 7477306 7279606 7214386 7119458 7129372 7508370
1615.10 10269160 11204280 8082944 7072660 7024516 7151524
1620.89 7343104 8337752 8687168 7685922 7296366 7550448
1626.67 8116054 7872858 7395710 7375716 7377052 7421090
1632.46 7647448 9333334 11903070 10580840 8705970 8321768
1638.24 7992086 8187694 8215764 8387708 8452770 8753010
1644.03 10160120 12147740 11231960 10479330 9592790 8952906
1649.81 9263856 12859720 17642970 16190630 12281570 10395140
1655.60 9969448 10222890 10410140 10735030 11126850 11978300
1661.38 13361650 13660320 12726080 12860440 13102950 13742370
1667.17 14929940 17055840 17001250 16993380 17455170 17724870
1672.96 18949890 21833060 22510770 21800900 22667370 24156230
1678.74 25928030 27600900 29148680 31999550 36130560 41090970
1684.53 41116880 39649230 41739160 44294730 47102760 49870890
1690.31 52760400 55746260 59286920 63389660 70697990 76907910
1696.10 78166370 82166280 90046430 100943900 108252900 114212800
1701.88 123508900 135001100 147135500 159945900 173895400 188497700
1707.67 205185600 223899200 244447100 266831100 291562000 318770000
1713.45 348877200 381176600 416730400 456631700 496552700 538541100
1719.24 584496800 633891200 685704400 739621800 794708300 850109100
1725.02 905670000 960475200 1013224000 1062388000 1106124000 1141153000
1730.81 1164824000 1176711000 1174136000 1152264000 1112707000 1066540000
1736.60 1025856000 1003328000 1010786000 1048700000 1108526000 1172845000
1742.38 1222818000 1249166000 1252653000 1236153000 1203474000 1159025000
1748.17 1105459000 1046029000 984401200 919670700 854020700 790049400
1753.95 728202300 669416900 613982300 561209500 512083900 466454900
1759.74 424251200 385450700 348070800 313263300 281973300 253530100
1765.52 227836900 205166100 184459700 164732000 148219400 134441400
1771.31 122858000 110925500 99012180 89737160 81579620 74192850
1777.09 67698100 61991430 57050880 52478960 47870010 43909100
1782.88 40531420 37642430 34278520 31140510 28530530 26313090
1788.66 24662040 23359320 22002670 21883930 21104950 20136210
1794.45 19666240 18710880 17547230 16715350 16438560 15781520
1800.24 15034750 14433800 13650390 12899870 12322290 11715880
1806.02 11037510 10297570 9507100 8960440 8399612 7526374
1811.81 6865012 6266040 5827624 5419420 5079768 4743390
1817.59 4384396 4086072 3907828 3801164 3686078 3518176
1823.38 3806852 4104012 3502208 3118982 3219026 3798250
1829.16 4165148 3481672 3059922 3070730 3038528 2984866
1834.95 3054444 3114680 3119190 3084386 3155918 3148684
1840.73 3296206 3552488 4869722 5207248 3849520 3533256
1846.52 3687258 3713158 3625350 3753302 3865674 3941506
1852.30 3945904 4061992 4129776 4261002 4375764 4522272
1858.09 4651886 4740008 4784740 4848982 4946046 5088148
1863.88 5226422 5423324 5648474 5985528 6525058 6587348
1869.66 5952324 5812824 5875248 5993564 6099312 6204618
1875.45 6277580 6385400 6389160 6369414 6316760 6332190
1881.23 6277946 6294894 6368660 6370866 6348052 6376236
1887.02 6388402 6664868 6685646 6260676 6078536 6022614
1892.80 5896488 5821550 5660230 5350988 5172894 5066750
1898.59 4959324 4830414 4716762 4575838 4415994 4335934
1904.37 4210356 4029624 3962276 3912848 3877546 3857804
1910.16 3685822 3568206 3449712 3383770 3334658 3266600
1915.94 3449646 3933518 3562854 3102668 3068790 3152328
1921.73 3279188 3169608 2987464 2914864 2882754 2866768
1927.51 2868190 2834334 2721680 2676474 2671936 2638516
1933.30 2596724 2507760 2462670 2472696 2496160 2495462
1939.09 2469834 2522514 2798572 2829242 2559958 2481734
1944.87 2421814 2330006 2255406 2225408 2157892 2047006
1950.66 1977826 1971824 1957820 1996906 1925630 1762194
1956.44 1660944 1625818 1615098 1623820 1596034 1537870
1962.23 1456994 1356286 1312808 1337648 1365734 1276716
1968.01 1127580 1034854 943446 884738 852520 812406
1973.80 861778 990456 964956 1000984 1052428 1100486
1979.58 1145124 1207494 1270754 1305976 1306422 1318552
1985.37 1283540 1297164 1324104 1306138 1298826 1498010
1991.15 1610746 1481292 1379058 1378666 1448014 1495840
1996.94 1503330 1500600 1480278 1419960 1359462 1291144
2002.73 1223674 1149462 1055196 975248 928548 852612
2008.51 775094 738158 683300 661642 620696 568700
2014.30 553326 630816 619104 524054 461776 379604
2020.08 371174 376094 311362 262170 272022 268994
2025.87 237966 231498 232626 242560 218250 188340
2031.65 241636 295328 305746 290352 270482 299628
2037.44 314308 327962 380702 417774 363144 340726
2043.22 359266 372072 362446 372520 405004 441126
2049.01 438310 450048 505542 540508 532636 526864
2054.79 576384 640104 675082 710946 722842 783906
2060.58 846408 858662 916734 1084078 1127366 1087442
2066.37 1115358 1183840 1260906 1278466 1327470 1473852
2072.15 1612680 1691800 1752980 1853230 1930138 2046634
2077.94 2189610 2294344 2399386 2535046 2688472 2858316
2083.72 3026212 3167492 3312092 3498084 3693414 3882450
2089.51 4050008 4192096 4346706 4510324 4692414 4830920
2095.29 5015754 5193122 5355134 5560192 5704636 5817902
2101.08 5946968 6100254 6253480 6412218 6542908 6652642
2106.86 6772168 6901126 7063162 7184234 7268664 7413654
2112.65 7529766 7590404 7598168 7589414 7583136 7469770
2118.43 7265254 7051802 6931574 6813666 6723650 6639912
2124.22 6566790 6555130 6404150 6165716 5933286 5723258
2130.01 5534150 5382628 5173348 4886108 4640076 4394508
2135.79 4100998 3790754 3504090 3240552 2979378 2736706
2141.58 2544888 2384036 2226204 2103160 1981042 1873396
2147.36 1816290 1781674 1687850 1598298 1560340 1507174
2153.15 1461974 1466804 1517990 1549674 1499138 1493350
2158.93 1476846 1452288 1465586 1453474 1429500 1486760
2164.72 1542028 1577924 1605604 1584444 1587588 1618762
2170.50 1613988 1567524 1515718 1459562 1385264 1316362
2176.29 1255960 1222374 1153052 1067242 991058 949014
2182.07 922224 852404 784862 695784 624828 577100
2187.86 547378 508216 443710 374632 295242 255912
2193.64 190802 146268 128190 98980 81328 64776
2199.43 61714 8982-58070-65490-66038-78838
2205.22-78372-60260-64274-78212-47812-46302
2211.00-37320 9026 31880 17180-27604-53656
2216.79-98728-128968-91840-111470-136330-130134
2222.57-131418-117146-136556-139892-151980-194132
2228.36-222154-218106-221970-230956-228252-240904
2234.14-277640-295278-296868-294430-313380-343970
2239.93-310392-277182-303874-306006-281180-294260
2245.71-315820-290786-245660-209518-218676-213296
2251.50-155516-124362-137892-104048-37652 16054
2257.28 27368 61810 101750 196728 267712 303664
2263.07 386918 447636 496428 608636 705628 785814
2268.86 866580 962244 1077866 1179974 1241620 1324418
2274.64 1479734 1606426 1701830 1799246 1902706 2005224
2280.43 2136102 2247780 2391822 2487438 2570922 2633458
2286.21 2685080 2756326 2850172 2884464 2891948 2979232
2292.00 3047270 3070018 3116808 3180546 3179410 3127766
2297.78 3085076 3041288 3056066 3031406 2966678 2858012
2303.57 2782250 2781050 2813978 2770400 2730326 2686232
2309.35 2630160 2632120 2606078 2588072 2494020 2479544
2315.14 2417528 2409080 2283188 2283332 2183760 2235578
2320.92 2222030 2218376 2132996 2177922 2151996 2195582
2326.71 2224646 2235692 2165502 2199686 2197326 2213332
2332.50 2228372 2276210 2239580 2263878 2257888 2268146
2338.28 2267906 2233790 2218880 2196504 2128930 2082952
2344.07 2003784 1942592 1887194 1827734 1772994 1795016
2349.85 1923452 2067510 2203792 2351670 2525940 2636228
2355.64 2711406 2803924 2897650 2994006 3075470 3128248
2361.42 3149022 3204856 3154622 3076164 3013282 3003466
2367.21 2998204 2916518 2794332 2670604 2613300 2556490
2372.99 2460284 2366428 2287810 2212136 2145806 2084348
2378.78 2034232 1994514 1941642 1883978 1823782 1762852
2384.56 1728232 1684636 1612298 1487142 1370144 1293648
2390.35 1272356 1292284 1251238 1143828 1080414 1065034
2396.14 1052328 1074936 1072838 1007390 950234 938546
2401.92 990820 1013460 983058 914408 886202 909566
2407.71 873782 822108 803536 750674 753022 748408
2413.49 715570 688116 675278 636798 623276 619870
2419.28 550862 610896 650598 612726 638650 606178
2425.06 573628 537626 505284 475166 464286 487988
2430.85 477184 454412 448638 437384 415518 391046
2436.63 374364 421600 455336 440024 451462 459398
2442.42 465042 436606 462094 479720 429778 407730
2448.20 439376 443622 469628 546142 650846 719400
2453.99 739142 725224 752432 803464 878084 940722
2459.77 974632 940182 937382 1010672 1067732 1069940
2465.56 1069538 1055676 1019294 1005558 1025838 1068776
2471.35 1108784 1121054 1195528 1288272 1311970 1271718
2477.13 1282826 1282142 1254032 1204728 1108876 999426
2482.92 975428 957644 928846 904496 883446 876918
2488.70 913358 956642 968366 978232 1024488 1116250
2494.49 1189534 1282498 1384072 1459510 1537932 1587166
2500.27 1662072 1747898 1812544 1927660 2015254 2037612
2506.06 2117920 2197640 2257478 2286542 2355712 2411710
2511.84 2464992 2502770 2546358 2617204 2694756 2758414
2517.63 2734502 2721364 2660586 2586846 2555444 2522686
2523.41 2410954 2353254 2248142 2183458 2165646 2097758
2529.20 2010760 1937032 1849320 1768080 1705926 1657842
2534.99 1529410 1457344 1384502 1344394 1290612 1191066
2540.77 1118796 1079946 1014078 956598 867386 768466
2546.56 770168 818562 764644 722780 724086 717862
2552.34 704648 687526 710680 746252 752034 704848
2558.13 646150 640596 640488 625996 588080 580218
2563.91 570116 535338 492826 486014 520958 527028
2569.70 484662 452076 453916 426396 392786 345196
2575.48 316858 278590 224286 212008 192690 180860
2581.27 178392 159554 149176 142406 138062 98376
2587.05 59618 109466 161322 188804 186606 161624
2592.84 182414 160098 155416 159864 210468 232932
2598.63 248856 288738 313768 271948 244466 239638
2604.41 273786 288342 298848 328364 347696 387244
2610.20 387492 364616 361676 385628 386548 349740
2615.98 395850 400162 394450 426300 411180 357642
2621.77 380376 376672 342692 337088 330226 291206
2627.55 275796 246140 238226 230716 242706 233258
2633.34 210048 220120 244356 183184 177884 237360
2639.12 237786 196020 201574 207388 263536 290558
2644.91 282900 309320 374974 429924 456940 494282
2650.69 540760 568372 648780 767252 832090 865126
2656.48 920740 1003948 1084612 1167782 1261600 1358084
2662.27 1417202 1479498 1578184 1645938 1691318 1772684
2668.05 1864360 1935388 1941342 1953284 2012384 2072422
2673.84 2080454 2056812 2100462 2151926 2102110 2094426
2679.62 2098148 2083310 2100546 2125434 2138760 2126184
2685.41 2095064 2086170 2068744 2029916 1993010 1971162
2691.19 1971854 1955250 1863896 1771106 1730506 1765948
2696.98 1786270 1774794 1732268 1759502 1815724 1781208
2702.76 1775214 1761146 1762548 1777148 1805336 1840744
2708.55 1848808 1903048 1934804 1870984 1850920 1963528
2714.33 2061090 2130740 2167306 2199184 2210270 2231010
2720.12 2276240 2291282 2332526 2392674 2433308 2502604
2725.91 2598654 2685142 2781904 2903804 3003782 3103694
2731.69 3288670 3498748 3647540 3781938 3978272 4119992
2737.48 4277760 4428344 4573126 4778488 4954752 5157722
2743.26 5347614 5454486 5549144 5625098 5642114 5692988
2749.05 5843392 6027302 6093634 6024540 6044560 6111158
2754.83 6160196 6176498 6154342 6181536 6216814 6200296
2760.62 6076342 5919998 5742494 5558910 5370000 5231290
2766.40 5111428 4957476 4799400 4743760 4754064 4757458
2772.19 4773204 4821272 4912728 4998958 5105868 5255176
2777.97 5451612 5656164 5853428 6047528 6229328 6484078
2783.76 6763606 7072768 7431396 7791348 8225144 8663200
2789.54 9099390 9634412 10242890 10831190 11368810 11857340
2795.33 12325130 12714800 13091860 13567710 14120050 14577010
2801.12 15099050 15592950 16141670 16762820 17477090 18236420
2806.90 19009920 19823540 20579360 21299510 22080570 22924090
2812.69 23714480 24436060 25063470 25532980 25955010 26259060
2818.47 26481240 26684740 27010360 27383980 27712530 28072710
2824.26 28556080 29090980 29455170 29856030 30375880 30806900
2830.04 31255730 31748180 32287850 32805560 33334270 33766500
2835.83 33979560 33971660 33832230 33554860 33297240 33037850
2841.61 32788780 32623840 32563230 32588020 32669350 32647460
2847.40 32635490 32533610 32524180 32494030 32479820 32538780
2853.18 32677130 32792010 32978990 33129450 33262220 33435700
2858.97 33638920 33772570 34064400 34520200 35022060 35556030
2864.76 36298500 37272360 38575320 40260480 42310360 44801270
2870.54 48032260 51982870 56614270 61963410 68177600 75229020
2876.33 82893540 90767800 98812700 106615300 113894800 120180700
2882.11 125119400 128427500 130631300 132412900 135076500 139541100
2887.90 146966200 158152000 172256600 183834400 189484100 192624200
2893.68 197842900 205759200 214784400 223230300 229985100 234840800
2899.47 238228600 240357500 241840300 243343700 244511500 245137100
2905.25 245981300 247828600 250558200 253740400 257156700 260339800
2911.04 263395600 266972500 273110500 285379100 302630800 311809600
2916.82 307960900 297137000 285186300 276630900 270690800 265472600
2922.61 260377500 255328400 250412800 245609800 240873200 236614400
2928.40 233487300 231674800 231225200 232301000 235133000 240108500
2934.18 247012500 254972800 263503000 271783700 279174900 284995900
2939.97 288219600 288025900 284653500 278175700 270058500 261838600
2945.75 257131600 263311300 287459000 302924000 288849700 270638000
2951.54 260837100 259388900 263372200 270605600 278287400 285069400
2957.32 289305000 290910200 289797100 286766500 281435200 275772900
2963.11 271536200 269836200 271361200 276756300 284417100 291565500
2968.89 295828500 298851900 303630800 312005000 322886300 335162700
2974.68 347808200 360307400 372126700 383318900 393521200 402971400
2980.46 411478100 419395200 426247800 432074400 434594700 432640400
2986.25 427312000 426061300 437106800 470147400 541844400 598667200
2992.04 547425100 467458700 433866400 422595400 414241300 403375600
2997.82 390310900 375187200 359527300 343660600 327914700 312322300
3003.61 297229400 282217200 267376400 252494400 237741900 223407800
3009.39 210210500 199030900 191342800 186570600 179260400 165809000
3015.18 152613400 143467900 137414200 132613000 128382600 124165900
3020.96 119662200 114581900 109199700 103524000 97708220 91875980
3026.75 86143750 80537580 75440630 70774500 66552770 62668810
3032.53 59347250 56611710 54354980 52368620 50748370 49396640
3038.32 48313580 47383360 46562160 45825340 45287810 44600000
3044.10 43925220 43437740 43022210 42556750 42138450 41828870
3049.89 41505940 41006190 40546930 40142190 39761630 39330220
3055.67 38857850 38367400 37878030 37371690 36960340 36534700
3061.46 36078260 35572890 35076340 34576380 33963970 33369760
3067.25 32835480 32270270 31716180 31113660 30620550 30019990
3073.03 29290400 28598890 27977090 27252330 26545250 25946410
3078.82 25202040 24438120 23767550 23075720 22372770 21678140
3084.60 21019930 20344600 19743730 19191040 18514160 17826790
3090.39 17341840 16847250 16357300 15756750 15337920 14944770
3096.17 14524890 14126560 13790720 13492440 13072110 12667500
3101.96 12401530 12113900 11800980 11415970 11031160 10787080
3107.74 10594980 10327020 10051440 9817518 9577532 9255018
3113.53 8844012 8589878 8359232 8059736 7826000 7510706
3119.31 7148522 6946152 6855942 6654932 6456018 6263484
3125.10 6096114 5954602 5819998 5689640 5601446 5553738
3130.89 5484636 5382806 5268954 5146798 5058326 5033212
3136.67 4952066 4884380 4890716 4967698 4912258 4813952
3142.46 4840962 4859364 4999178 5068138 5004058 4966704
3148.24 4960152 4940252 4986546 5133346 5317094 5383074
3154.03 5285678 5216406 5312572 5395864 5446430 5599100
3159.81 5648066 5683868 5792504 5909654 6016332 6088884
3165.60 6233256 6349390 6495854 6698402 6784014 6715550
3171.38 6528346 6355582 6340088 6272718 6230288 6276982
3177.17 6315720 6386166 6443784 6409026 6466452 6682166
3182.95 6951370 7153558 7060052 6582416 6032326 5558122
3188.74 5259582 4990358 4834286 4735220 4592818 4377492
3194.53 4254398 4163438 3998806 3802140 3602990 3520624
3200.31 3399778 3219324 3012806 2745204 2544572 2306908
3206.10 2127394 2074852 2006510 1899980 1720974 1538092
3211.88 1509200 1467612 1373568 1341780 1318556 1205280
3217.67 1119648 1036322 1000720 1054970 1077930 1096540
3223.45 1136096 1150364 1201072 1266212 1266088 1334922
3229.24 1413434 1410838 1398922 1359898 1347470 1307554
3235.02 1295848 1269516 1188312 1254842 1373620 1452528
3240.81 1424278 1247806 1062934 1051626 942524 924840
3246.59 1021502 1045810 979434 859062 753968 711144
3252.38 623706 533392 440900 362126 225378 84840
3258.17-444-31586-108624-175352-186294-155920
3263.95-286408-378694-308224-356448-441900-573766
3269.74-573614-457218-365098-372926-386122-427932
3275.52-548746-667938-596884-627142-748236-763320
3281.31-683570-607220-646186-662442-626416-678672
3287.09-698000-685890-698504-695626-635164-554806
3292.88-567530-709558-818696-691588-603732-621836
3298.66-546040-482978-534788-525098-547830-587836
3304.45-642732-610668-488942-446766-397610-449170
3310.23-475256-522906-544438-529208-444246-428572
3316.02-404996-309084-269468-338540-470462-562392
3321.80-608760-607130-578500-462128-329498-379786
3327.59-427792-448848-578754-602418-589018-518302
3333.38-403148-362726-421494-506316-543182-526450
3339.16-443158-418488-437104-452300-451750-452520
3344.95-416096-412932-397598-314840-394090-354334
3350.73-329002-334580-197340-157394-172594-142466
3356.52-119178-137126-125114 81282 243002 191666
3362.30 307600 423990 498196 548672 663238 674368
3368.09 601046 794238 889380 825778 910316 975984
3373.87 973738 945726 897930 879522 923560 948586
3379.66 941212 822492 862998 1016082 1065618 1067174
3385.44 1014974 948536 1022458 1045694 957050 887474
3391.23 886634 838514 741430 677120 659936 712274
3397.02 642064 471950 420110 557868 545726 436050
3402.80 447022 592946 653964 634846 655096 731678
3408.59 631908 659006 710506 772884 997202 1186622
3414.37 1279466 1355126 1437604 1673850 2069570 2377956
3420.16 2544232 2735892 3057064 3400462 3718672 4018948
3425.94 4411164 4871674 5291484 5856878 6499510 6961246
3431.73 7363038 7868008 8583156 9463198 10184920 10818710
3437.51 11472410 12315710 13305580 14192100 15122250 15949980
3443.30 16683970 17546240 18489440 19400720 20132930 20855340
3449.08 21552640 22147090 22578590 22798050 22881170 22893030
3454.87 22658160 22337520 21975210 21552820 21213030 21029580
3460.66 21092130 21365200 21712190 21966590 22188170 22229920
3466.44 21896740 21373490 20652020 19625570 18584180 17401060
3472.23 16138370 14827240 13493280 12120660 10951740 9931868
3478.01 8991814 8053962 7111156 6211480 5440602 4730176
3483.80 4192124 3584342 2858920 2414236 1996644 1548332
3489.58 1185344 859050 546120 241188-35418-187908
3495.37-291294-506280-822766-954808-963636-1053762
3501.15-1032128-1011830-1150100-1286994-1400032-1538648
3506.94-1599278-1473808-1400452-1628490-1856840-1928622
3512.72-1871614-1868070-2029170-2013756-1867422-1910188
3518.51-1930902-1912186-1897454-1832956-1782422-1760854
3524.30-1758936-1817724-1827224-1886910-1863166-1825988
3530.08-1748442-1802082-1844326-1865112-1840726-1743954
3535.87-1790192-1891620-1842230-1782540-1713844-1773054
3541.65-1729958-1527654-1400564-1443792-1297286-1180846
3547.44-1341598-1426150-1412682-1235668-1055934-1135122
3553.22-1161038-1155262-1032340-1021688-991838-889550
3559.01-698312-627660-351210-132582-73148 11074
3564.79 513294 852760 1115798 996198 451430 340288
3570.58 260096 234064 179460 164150 143488 149020
3576.36 141458 57308 217610 737086 1168954 1173900
3582.15 659714 426356 686404 1135406 1063864 1091320
3587.94 1316608 536140 205618 351326 719918 618302
3593.72 618442 688066 382962 227452 229404 114950
3599.51 174998 47190-120946-298618-459222-604010
3605.29-404040-164294 64018 871748 35194-724754
3611.08-52420 48342-366456-392922-707060-479494
3616.86-43160 250038 631812-245674-652850-818988
3622.65-779784-855236-814526-700450 419896 2167094
3628.43 2627514 932338-555816-685532-393008-282722
3634.22-610416-749688-724630-554264-553608-662260
3640.00-589262-483134-436278-513482-400018-47706
3645.79 887284 1289432 2307042 2857156 1820618 1148910
3651.57 76548-190008-143530 953592 1760228 538376
3657.36-230672-204666-223852-195410-191472-241534
3663.15-252042-234460-203132-104298 545508 1278326
3668.93 2311816 3511476 1225232-41636 579478 2540648
3674.72 3947854 2343778 208910 117960 114548-234556
3680.50-544752-480492-574490-464532-542952-475292
3686.29 579746 3348014 2175938 326508 735540 141506
3692.07-489184-541050-653532-664676-629254-595506
3697.86-591914-610360-252978 465808-157382-770354
3703.64-754086-682746-702098-529888 50744 655278
3709.43 158370 1061232 2060876 286260-509976-443322
3715.21-641854-674126-472326-238694-388844-329718
3721.00 150368-60920-470426-184300 172292 381766
3726.79-177004-467538-501366-2622 1496340 1744690
3732.57 442314 1325542 1744758 2196588 1305422 197444
3738.36-246338-101884 78950-12272 1326370 5741644
3744.14 5310960 856818-64100 750698 3600626 3449586
3749.93 1531420 3991280 3227214 200484-380104-200400
3755.71 122236-255990-68700 467622 36976-593928
3761.50-651858-668690-537438-36818-110160-618232
3767.28-545148 274318 652378-320108-629718-817966
3773.07-832794-837394-747932-748336-666064-106488
3778.85 191668-532244-776038-762216-567498-427976
3784.64-493510-650700-622366-709626-714444-752826
3790.43-724832-757466-618734-622014-332108 207540
3796.21 63044-438626-342440 570420 3375884 2911002
3802.00 410794-331402-461082 492998 2273278 1326092
3807.78-381436-477370-486876-370620-464698-276534
3813.57 211442 2930732 3558606 702750-87144 271914
3819.35 1598054 2619932 1726962 271882-30784-29416
3825.14 348732 428150 135922 28192 168940 830176
3830.92 1239712 403250 473820 1415924 1183342 1772480
3836.71 4528150 3150796 1256968 1561062 1248388 809296
3842.49 1192006 1033480 605424 583408 553030 618960
3848.28 820064 1131758 2727334 4715046 5307666 8068934
3854.07 5080190 1538224 1451804 1236976 1045246 1113700
3859.85 1599654 2000216 1569102 1693496 2901498 2713496
3865.64 1462360 1254520 1970030 3872584 3843938 1911052
3871.42 1264598 1684250 2102000 1452252 1010434 962998
3877.21 1012482 1427742 2203140 1801314 1003856 857772
3882.99 902860 2077920 2998230 1408052 541548 546088
3888.78 657628 1610618 1905908 729708 383928 288640
3894.56 233694 155618 387730 975552 1628266 971766
3900.35 1405918 1529334 1172130 1853634 1209510 615230
3906.13 230740 52154-20616-12740 89148 105586
3911.92 42416 2808 43780 186634 605276 554412
3917.70 177172 413318 342918 60238 65518 248286
3923.49 441748 350898 123008 119166 146568 216546
3929.28 249096 271636 561170 432796 243812 140524
3935.06 68018 107564 198368 261894 217310 185266
3940.85 381374 460144 201532 229726 372628 607732
3946.63 734204 631866 328458 139054 193520 274182
3952.42 312806 304822 379454 376328 410186 526716
3958.20 574016 557316 600546 605884 582780 602188
3963.99 668540 742558 868780 873712 895230 972952
3969.77 1054712 1151270 1209262 1210172 1162730
##END=
