##TITLE=Methyl Ethyl Ketone
##JCAMP-DX=4.24
##DATA TYPE=INFRARED SPECTRUM
##CLASS=IUPAC A
##ORIGIN=NIST, Anayltical Chemistry Division, 301-975-3108
##OWNER=COPYRIGHT (C) 1998 by the U.S. Secretary of Commerce
##DATE=98/10/1
##$SPECTRA VERSION=1.00
##$UNCERTAINTY IN Y=2.1 % relative (B=1.1E-04,C=8.6E-10,D=2.7E-14)
##CAS NAME=2-Butanone
##CAS REGISTRY NO=78-93-3
##MOLFORM=C H3 C H2 C O C H3
##MP=-86.35 C
##BP=79.6 C
##$NIST SOURCE=QUANT-IR
##SPECTROMETER/DATA SYSTEM=IFS66V (Bruker)
##INSTRUMENT PARAMETERS=KBr Beam splitter; MCT Detector; Multipass cell
##STATE=gas
##SAMPLE DESCRIPTION=Methyl Ethyl Ketone Primary Gas Standard
##PRESSURE=101.3 kPa
##TEMPERATURE=23 C
##SAMPLING PROCEDURE=1 L/min Flow
##RESOLUTION=0.9640
##DATA PROCESSING=Triangular Apodization
##XUNITS=cm-1
##YUNITS=(micromol/mol)-1m-1 (base 10)
##XFACTOR=1.0
##YFACTOR=4.5474E-13
##DELTAX=0.4820
##FIRSTX=575.169
##LASTX=3975.077
##FIRSTY=.0000215
##MAXX=3974.59
##MINX=575.17
##MAXY=.0005654
##MINY=-9.77E-07
##NPOINTS=7053
##XYDATA=(X++(Y..Y))
575.17 47484650 50987760 53434090 55460690 57531090 59500940
577.58 61069620 61460320 61949820 62167330 62222960 63065080
580.47 63804010 64172340 63626050 62444960 61464220 62092620
583.37 63560520 66287080 67954500 68117350 68435850 71828460
586.26 74074470 72836930 72237320 68564030 65106840 63367580
589.15 64728960 66197830 65007020 65544000 67388100 66648500
592.04 65021410 64644360 64851120 65423610 65169920 65127860
594.94 64913180 63930650 63143740 62819350 62150470 61029390
597.83 59678950 57821880 55147340 53121360 51217640 48689490
600.72 46433060 44116120 41421520 38749510 35861510 33036520
603.61 31084920 28714750 26094650 24157620 22028890 19937440
606.51 18509820 16770500 15184230 14118520 13079230 11750360
609.40 10086650 9251586 8438982 7673770 7222202 6288654
612.29 5678216 5591148 5188572 4281760 4021364 4357360
615.18 4389172 3965690 3261094 3002986 3092936 2935076
618.08 2645084 2484394 2435186 2081612 1811350 1915174
620.97 1798024 1733106 1862834 1577346 1461470 1835998
623.86 1732706 1599592 1557600 1636004 1500674 1474720
626.76 1621104 1442104 1325190 1407032 1662552 1509920
629.65 1269858 1342600 1365240 1295830 1387722 1170942
632.54 915626 740266 739890 813952 1040802 1294722
635.43 1214720 1281854 1253810 1070698 957062 712026
638.33 904724 1039580 1218204 1185060 1417246 1765376
641.22 4152004 7344226 4704654 1918454 1632678 1055690
644.11 1220556 1293852 1088860 954806 707008 1003316
647.00 1174508 1210844 1518262 1562760 1465758 1508772
649.90 1917748 2422624 3145010 3340418 2861916 2604740
652.79 2186424 1814026 1649350 1772766 1940478 1886498
655.68 1977152 2338606 2867914 3110436 3036666 2816970
658.58 2631006 2573244 2214156 1803576 1669766 1324008
661.47 1376162 1636232 1536064 1309984 1210508 1154008
664.36 1073410 1070782 1040392 1134248 1320032 1708862
667.25 2236702 1862710 1291930 1237930 1181192 1136418
670.15 1104632 1051426 1173060 1217664 1068052 1008258
673.04 1064080 1098288 992342 913416 1119308 1199246
675.93 820578 681886 756868 658416 781740 887388
678.82 749084 789070 820044 611964 627412 672822
681.72 614720 544182 545186 765196 788866 740354
684.61 583802 615972 507146 317232 508254 575780
687.50 411236 460284 748940 720088 637114 752862
690.40 700000 389152 316150 431552 125052-2188
693.29 537022 509172 192206 243522 397358 553876
696.18 411362 288926 238904 155516 212484 217930
699.07 191936 278654 270304 263134 454106 441980
701.97 185448 101060 282180 593222 417230 184200
704.86 423008 556334 411630 236136 166232 330272
707.75 364904 322778 459162 385280 403564 423908
710.64 383490 647482 875756 810718 804522 843378
713.54 943508 1163724 1121698 1135398 1094442 1054166
716.43 1176428 1277994 1509304 1689634 1817998 1921232
719.32 1781700 1711636 2029382 2254746 2415438 2695560
722.22 2878378 3010026 3127664 3200040 3285376 3576668
725.11 3883816 4284778 4612766 4889020 5265016 5617704
728.00 6036744 6479564 6830618 7209010 7681116 8146366
730.89 8783536 9273738 9582332 10227340 10948340 11477870
733.79 12142340 12657890 13218810 14123610 14913500 15638690
736.68 16203990 16918380 17830320 18729690 19611020 20198460
739.57 21058630 22039960 22893670 23916700 24804600 25697940
742.46 26787790 27852900 28855580 30038200 31245580 32445850
745.36 33689840 34943800 36247330 37604530 39133550 41065260
748.25 43337290 45658430 48303090 51763320 54632800 54971970
751.14 54076900 52987220 51815580 50630790 49258720 47870620
754.04 46620770 45695480 45108030 44379740 43601190 43014350
756.93 42730530 42637640 42693650 43467790 44676760 45639740
759.82 45830240 45277440 44427920 43812240 43371160 42877680
762.71 42401760 42136670 41678440 40967960 40331510 39679220
765.61 38952200 38059800 37027810 36031320 34808620 33361240
768.50 32179540 30993750 29467810 27939730 26508830 25057550
771.39 23651360 22316150 21020920 19698130 18389200 17090710
774.28 16052100 15029890 14011810 13203390 12225090 11452830
777.18 10814390 9994142 9348442 8837008 8393366 7876186
780.07 7368508 7118490 6679152 6365990 6350276 6041068
782.96 5656806 5520576 5253342 4840916 4633452 4457990
785.86 4273648 4245520 4291430 4187942 4060602 3906480
788.75 3743766 3553942 3430896 3293558 3282230 3232178
791.64 3245304 3285678 3121330 3185414 3185970 2952544
794.53 2875968 2915674 2867306 3027132 3079230 2691608
797.43 2454164 2536232 2526642 2600190 2602226 2472686
800.32 2165004 1981084 2039168 2147008 2002908 1859460
803.21 2003754 1950722 1924268 1810632 1684132 1746662
806.10 1820748 1851588 1922010 1825776 1545834 1450028
809.00 1433904 1467546 1444038 1456358 1518776 1419730
811.89 1298986 1308358 1323098 1253982 1134374 912740
814.78 867466 995658 987322 991936 1047670 1050322
817.68 1083762 894098 724324 990924 992592 828846
820.57 996248 1055338 1047528 953744 821350 881284
823.46 888186 775438 849998 905434 973086 885408
826.35 729756 776572 863490 832626 731664 650092
829.25 640364 806646 943084 988850 1078252 1117344
832.14 831766 707314 667770 675926 938026 1120520
835.03 1064410 915600 837190 792388 665816 726434
837.92 1000196 1095654 1015704 879562 809214 802188
840.82 848344 737774 683358 815416 940048 1019128
843.71 978546 957308 950856 1003538 1087722 934420
846.60 859080 925318 1050330 1113506 976780 996924
849.50 1077570 1046772 991906 966376 1001368 999842
852.39 939938 926468 961478 970982 955676 1046618
855.28 1135924 1223024 1216020 1172468 1213408 1099574
858.17 1115074 1144492 1101424 1177166 1278428 1385898
861.07 1347064 1307148 1285630 1255652 1387200 1515314
863.96 1570046 1542150 1560508 1639774 1559670 1538238
866.85 1640490 1705056 1696620 1715852 1804678 1897782
869.74 1931042 1920526 1958484 2088968 2083182 2121414
872.64 2278768 2247066 2344744 2571406 2619348 2598862
875.53 2796442 2936420 2946600 2995984 2932826 2931792
878.42 3000680 3024864 3092158 3154126 3388946 3471104
881.31 3369062 3514532 3660554 3780084 3855214 3861256
884.21 3948918 4068640 4150688 4274724 4456492 4540976
887.10 4615646 4716758 4723056 4819174 5014380 5156512
889.99 5276188 5599596 5863972 6011906 6102988 6091414
892.89 6352814 6760800 6949852 7206612 7500674 7662050
895.78 7958438 8181536 8340938 8615374 8809614 9131112
898.67 9701396 10058490 10397250 10824170 11198960 11637850
901.56 11995650 12459330 12959270 13400830 13953290 14557660
904.46 15199450 15779160 16411590 17131710 17860300 18700130
907.35 19447530 20197560 21109970 22006620 22833510 23874550
910.24 24954860 25849130 26945000 28158140 29293220 30375570
913.13 31539830 32671700 33817770 35079220 36397180 37726000
916.03 39019330 40253300 41520790 42924640 44453090 46020760
918.92 47463180 49055220 50621160 52138900 53834690 55795870
921.81 57786540 59303780 60724940 62467920 64300290 66056720
924.71 67904540 69736610 71609020 73668660 75803210 77946090
927.60 80021570 81949740 83975870 86108040 88276190 90423230
930.49 92468030 94427280 96383580 98532230 100619000 102181900
933.38 103624200 105595600 107114200 107669400 108208500 108800400
936.28 109176400 109548700 109893700 110214200 111132600 112531500
939.17 115133600 117676300 117127600 116477000 117323500 117532400
942.06 116381900 115520200 115545200 115542100 114651700 113149000
944.95 112651500 112632200 112641000 112801300 112972400 113221800
947.85 113298400 112954500 112215900 111056100 109754000 108478300
950.74 107185400 105572600 103931900 102234900 100201900 98186060
953.63 96006790 93651420 91495110 89481990 87264820 84909580
956.53 82697390 80640200 78531520 76302340 74097430 72049550
959.42 70162620 68275580 66419150 64682140 63004290 61320520
962.31 59687940 58172670 56680530 55280860 53937160 52509510
965.20 51336930 50201220 49053920 48101550 47043170 46124340
968.10 45363100 44497900 43648320 43016100 42443510 41858880
970.99 41293920 40733450 40310600 39988860 39709180 39390110
973.88 39108000 38889090 38644260 38444160 38215230 38006370
976.77 37912210 37802430 37736990 37670990 37621530 37558410
979.67 37343940 37041920 36815950 36769000 36587940 36247300
982.56 35988660 35733720 35389690 35079370 34763080 34411720
985.45 34131440 33899400 33710000 33649800 33651280 33556680
988.35 33465840 33136530 32763480 32631200 32196600 31689360
991.24 31305420 31109110 31036350 30801630 30413380 30082960
994.13 29879850 29574110 29266920 29118640 29019260 28855830
997.02 28655330 28340790 28059890 27823860 27574350 27343500
999.92 27168410 26997360 26777960 26447220 25940510 25304020
1002.81 24690560 24091620 23412610 22787610 22034880 21308120
1005.70 20742160 20119150 19566020 18899310 18152960 17545440
1008.59 17047360 16578540 16185940 15709430 15286090 14981440
1011.49 14560610 14161370 13900490 13620930 13348340 13071280
1014.38 12759230 12594060 12380160 12237800 12124600 11811270
1017.27 11557910 11473870 11380880 11190040 10885450 10666120
1020.17 10608450 10529190 10255740 9919844 9758132 9633444
1023.06 9404852 9270350 9148032 8885410 8633274 8495760
1025.95 8291048 8087448 7939842 7732872 7563552 7375836
1028.84 7369596 7324836 7157810 7087534 7014288 6956900
1031.74 6928444 6944852 6984696 6913278 6759506 6680918
1034.63 6599726 6558240 6568022 6605408 6594250 6525738
1037.52 6605592 6778158 6706644 6566496 6627552 6659456
1040.41 6767448 6786438 6731262 6894324 7035970 7092546
1043.31 7188022 7236690 7299102 7422432 7478944 7493536
1046.20 7589934 7792924 7968070 8124664 8383956 8567910
1049.09 8559232 8640762 8797110 8962692 9124852 9106210
1051.99 9143520 9348566 9536182 9814462 10061990 10196350
1054.88 10372670 10550010 10790920 11123060 11430570 11703810
1057.77 12087870 12443060 12680950 12939700 13320410 13760610
1060.66 14100100 14456480 14832740 15309740 15834780 16271610
1063.56 16742910 17251390 17822210 18484230 18993000 19345200
1066.45 19891860 20493270 21049320 21692680 22250030 22820140
1069.34 23495920 24133070 24787100 25417880 26111570 26931440
1072.23 27479240 28040620 28804660 29436020 30062950 30812900
1075.13 31534890 32083030 32607510 33251980 33867720 34472720
1078.02 34858580 35215610 35766560 36114750 36328630 36480800
1080.91 36746240 36957090 36996700 36955840 36843570 36587150
1083.81 36282670 36033620 35662620 35208030 34885400 34528940
1086.70 34043880 33634630 33336550 33084230 32816560 32682550
1089.59 32749410 32937650 33209950 33638350 34122980 34529170
1092.48 34736510 34758320 34588870 34446240 34164550 33577210
1095.38 33063040 32468930 31749950 31071300 30465970 29815210
1098.27 29055570 28341460 27858880 27391500 26743160 26138550
1101.16 25721940 25216900 24565800 24050990 23641850 23368920
1104.05 23080120 22757920 22545740 22310380 22093560 21888850
1106.95 21920160 22048010 21945890 21918480 21821900 21691820
1109.84 21420450 20998480 20962090 20926950 20803910 20757950
1112.73 20695200 20683960 20622060 20672900 20782590 20828350
1115.63 20832630 20843770 20982520 21109620 21164570 21323290
1118.52 21559510 21818910 22087270 22289150 22446190 22634580
1121.41 22913030 23167360 23436500 23785120 24062500 24371590
1124.30 24694170 24923710 25132770 25507770 26002680 26409500
1127.20 26799740 27226100 27771230 28370780 28863960 29410500
1130.09 30116410 30804930 31551410 32365300 33108700 33919770
1132.98 34939650 36119570 37269580 38431110 39779620 41207500
1135.87 42722480 44381480 46197290 48116850 50130410 52256620
1138.77 54677050 57317370 60154150 63276090 66601160 70344010
1141.66 74414800 78759830 83521020 88851820 94549800 100718400
1144.55 107397400 114422800 121944900 130037400 138821800 148018000
1147.45 157503800 167664200 178279200 188927000 200000400 211494300
1150.34 223079000 234961200 247099700 259158800 271225200 283187400
1153.23 294917600 306228600 317137700 327573500 337239800 346782900
1156.12 356060400 364750000 373170800 381418800 389827800 398785900
1159.02 407801500 416736900 425730600 434018000 441438500 449058400
1161.91 457591100 467627500 479371200 492035000 505006900 516956900
1164.80 527913700 539394300 551054400 555466200 550999200 549987100
1167.69 554655400 562775200 568810700 562128700 555544600 557124800
1170.59 560116300 563612200 568088800 573139300 577555800 580734800
1173.48 582547800 583724600 584180500 582036400 572888800 559358300
1176.37 549624100 545737200 550517100 550083800 530898200 511024700
1179.26 496053800 479051700 462820900 449697300 439913400 432207300
1182.16 424264400 416384900 409621900 403146000 396616100 390148600
1185.05 382825400 374397000 365814200 357213200 348081200 338744900
1187.94 329286900 319688400 310120400 300312300 290675600 281242500
1190.84 272049400 262943500 253781100 244956500 236623400 228686400
1193.73 221161000 213982000 207173300 200687400 194503000 188796100
1196.62 183329500 178177200 173492800 169065500 164844700 160907700
1199.51 157170500 153512500 150196900 147045200 143877200 140855700
1202.41 137845200 134904100 132055100 129368300 126760400 124049900
1205.30 121312400 118668500 116260200 113944900 111728800 109696500
1208.19 107603900 105498100 103609600 101735300 99615830 97383910
1211.08 95268540 92940380 90554780 88224660 85708000 83189220
1213.98 80681210 78169700 75578860 72839350 70102740 67438620
1216.87 64768090 62248000 59939620 57634160 55389310 53238590
1219.76 51155370 49222520 47362580 45567310 43941650 42522450
1222.66 41190320 39836030 38529280 37422720 36393690 35410530
1225.55 34493030 33647110 32937820 32216520 31499820 30854860
1228.44 30277730 29791810 29308200 28873450 28533440 28146280
1231.33 27775480 27419250 27057850 26789430 26563270 26332550
1234.23 26093000 25959170 25801380 25639030 25568160 25561560
1237.12 25555100 25532600 25607740 25739840 25941790 26125220
1240.01 26323880 26427820 26471860 26506570 26540410 26748170
1242.90 26982170 27188860 27465820 27701320 27923020 28206350
1245.80 28465470 28663160 28960860 29294800 29560430 29756170
1248.69 29958740 30165310 30316340 30494420 30661310 30774740
1251.58 30956780 31089640 31158420 31332520 31435030 31505840
1254.48 31625300 31685240 31687710 31738280 31776170 31860100
1257.37 31911210 31909960 32006820 31935340 31764750 31617650
1260.26 31389110 31269540 31189290 31078450 30977140 30854210
1263.15 30807150 30786450 30785450 30728860 30647620 30540870
1266.05 30253830 29999750 29843300 29796050 29671230 29392700
1268.94 29120330 28830090 28651190 28463210 28173280 27826800
1271.83 27435300 27067510 26711030 26282060 25862340 25624210
1274.72 25328050 24958630 24606870 24242450 23988940 23693170
1277.62 23395170 23166390 22804750 22531930 22284090 21952120
1280.51 21707490 21432400 21228720 21078330 20882290 20676010
1283.40 20474490 20293510 20120000 20004180 19897400 19780810
1286.30 19773150 19711180 19572840 19469700 19532750 19693860
1289.19 19830910 19962670 20011450 20154390 20409750 20655280
1292.08 20888290 21145180 21474060 21801420 22147060 22614730
1294.97 23079320 23513410 23983610 24483100 25004680 25451060
1297.87 25953120 26563450 27182370 27819180 28427080 29068120
1300.76 29684560 30344880 31055390 31776650 32539120 33240030
1303.65 34011190 34816460 35611220 36471650 37322480 38183900
1306.54 39073890 39968160 40846030 41703490 42638300 43522270
1309.44 44397630 45349310 46275980 47266870 48247230 49299210
1312.33 50421440 51518360 52516670 53584900 54799510 55847940
1315.22 56895470 58081540 59420190 60674800 61763390 62815650
1318.12 64042730 65356290 66676900 68016230 69405600 70937520
1321.01 72230460 73478770 75030020 76824650 78506770 80044340
1323.90 81737330 83464410 85226160 86993060 88831220 90665820
1326.79 92583850 94594810 96501950 98434740 100420800 102457300
1329.69 104575300 106768600 108884600 111119900 113477500 115862200
1332.58 118387000 120887200 123401800 126208200 128976700 131620600
1335.47 134407200 137271400 140086900 142829100 145806800 149069700
1338.36 152426100 155796100 158948000 162423200 166518200 171371600
1341.26 176244300 180219700 183987500 188064100 192593600 197434200
1344.15 202552800 208309600 215003700 222773600 231119500 239884800
1347.04 249300400 259110800 269201000 279618700 290197500 301014600
1349.94 312309300 323742000 335186800 346881900 358668700 370186600
1352.83 381518800 392301700 402731200 413055100 422669000 431434400
1355.72 439551100 446826600 453425600 459396900 464434400 468702500
1358.61 472174700 474886200 475692200 474927000 474308100 473325600
1361.51 472807400 473352800 474962100 477567400 482735000 493128600
1364.40 507998300 524024400 538342900 542957600 538220100 539649900
1367.29 530446700 508561900 493376000 480850200 474269500 474261600
1370.18 477219500 482282800 488213200 493815400 497921300 500934000
1373.08 503183000 502831300 500109700 495689200 488593500 478976700
1375.97 467442800 454291400 439559800 423586500 406504900 388462800
1378.86 370027600 351359000 332409500 313816600 295834100 278491900
1381.76 261769000 245791000 231005600 217494300 205191700 193719700
1384.65 183479100 174838500 167489000 160589700 155447500 151939000
1387.54 147521800 144151600 142477000 141412900 140782900 140211500
1390.43 139668300 139194000 138601300 137797100 137019600 136211000
1393.33 135696600 136039200 134745600 132735300 131917400 130295100
1396.22 128582100 127388900 126523100 125221100 124255100 124261600
1399.11 122862700 121186300 120499900 119933200 119633500 119349300
1402.00 119324600 119582000 119984800 120608000 121745300 123256000
1404.90 124073500 124936300 126294300 127650700 129280600 131152400
1407.79 133132000 135227200 137589600 140128500 142604600 144970600
1410.68 147392200 149762500 152050700 154281400 156505300 158627000
1413.58 160590100 162446600 164232500 165856800 167464400 168758900
1416.47 170297500 171697900 172188600 172610000 174093100 175886200
1419.36 173321600 169823400 168342300 166827700 165550600 164202000
1422.25 163141900 162770500 163196400 163766500 164727400 166652000
1425.15 169369700 172519800 175758200 178960800 182246600 185449300
1428.04 188398500 190877300 193442400 195511000 196043400 196302500
1430.93 196263900 195839000 195295600 194267400 192745600 190648100
1433.82 188608400 186548400 184717600 182981500 182994200 183801500
1436.72 180460200 177155900 176210800 175470300 175207600 175093000
1439.61 175154900 175156800 174975800 174883700 174646900 174132400
1442.50 173547000 173049000 172632200 172177800 171873100 171514600
1445.40 171178000 171367000 172056700 172614400 173495600 173094100
1448.29 171255600 170111800 169837100 170100000 170835800 172045200
1451.18 174014400 176435300 179323200 183511800 188995800 195776800
1454.07 204017500 213680800 223723000 233002600 241088000 240449800
1456.97 231140600 224920800 219215900 211598600 205105500 198900200
1459.86 193287700 187461000 181143600 174760000 168848800 163348500
1462.75 157940300 153069100 149753800 149487700 150155200 152365200
1465.64 156845100 159840200 160781500 160206000 158324400 156175200
1468.54 154722000 153692200 152911700 152598800 152605500 153355800
1471.43 155181000 153873500 152164300 153540600 151717100 148485600
1474.32 146780800 144724500 143180100 141405300 137704700 133818600
1477.21 130567000 127185600 123596300 119850600 116190700 112434000
1480.11 108672700 105194700 101509400 97626860 94109210 90763260
1483.00 87418180 84269800 81256360 78342460 75563760 73055440
1485.89 70647050 68892000 67471620 64652120 62133390 60556360
1488.79 59363660 58394190 56747780 55582540 53542320 51225880
1491.68 49976940 48810680 47746670 46760570 45885420 45039600
1494.57 44291760 44217990 46818360 46054170 42092300 41042020
1497.46 40480800 41170210 41474760 39583100 38442980 38016580
1500.36 37584470 37410990 37193870 36796240 36453110 36294250
1503.25 36091020 36202100 36265960 39200480 41978060 38851350
1506.14 40049560 42502120 38508540 36726060 37137600 36325880
1509.03 36298130 36185280 35461310 35190940 35039790 35891620
1511.93 36341680 35106620 34544060 34571700 34726210 35232780
1514.82 35097530 34872230 35528060 36163580 36866550 36567080
1517.71 35099720 34811670 34835470 35577860 36692180 36905010
1520.61 40156810 39093620 35438830 36325390 35476290 33828400
1523.50 33525300 33407460 34178940 35485570 34142330 32534360
1526.39 32727790 32950110 32352520 32305230 32139360 31310580
1529.28 31029980 30869840 30767880 30812560 30877680 30406060
1532.18 30647080 31422400 32094940 31460470 29556140 28895250
1535.07 28628760 28205030 27983200 27757980 27765570 28042940
1537.96 29915720 34627740 32458950 30507240 31906950 28271780
1540.85 26895240 29784750 29852420 26488190 25699870 25393680
1543.75 24645140 25544530 26489740 24799400 23488000 23156010
1546.64 22752730 22482120 22255480 22021590 21977690 22344290
1549.53 22552850 21914950 21060130 20764280 20567240 20322860
1552.43 20338450 20223590 21840910 23888520 21564190 19651200
1555.32 19538720 19434830 19707760 22042360 23126030 25484280
1558.21 26294070 21797470 23006310 26172900 22583690 18392990
1561.10 17823940 17342540 17221550 17056960 16856380 16676010
1564.00 17070080 17355000 16647150 16130650 15973720 15825500
1566.89 15732140 15531850 15699440 16050450 17105100 18235960
1569.78 16361760 14789050 14615780 14403720 14305980 14155610
1572.67 14083300 14006080 13854160 14054510 14199210 16211230
1575.57 21407330 19155280 14253380 13717430 13284600 13058720
1578.46 12820200 12769280 12670680 12607510 12481070 12345590
1581.35 12255150 12174260 12067660 12024360 11954840 11789810
1584.25 11675000 11623130 11522520 11404670 11261680 11203170
1587.14 11068960 10929190 10915340 10847530 10761890 10646290
1590.03 10456980 10383230 10309640 10145360 10041390 9967980
1592.92 9823862 9782644 9834306 9703294 9568872 9457274
1595.82 9331718 9272232 9107376 9001152 8946662 8890050
1598.71 8838490 8743198 8662080 8614110 8636456 8542320
1601.60 8386706 8377606 8462856 8451814 8309220 8227956
1604.49 8170046 8100122 8047038 8029132 8104876 8064550
1607.39 7870756 7814376 7860114 8010150 7857132 7648828
1610.28 7581522 7548664 7541932 7451118 7386274 7440338
1613.17 7451288 7436652 7379766 7569966 7796652 9370772
1616.07 14268760 12985660 8294858 7666542 7404878 7375882
1618.96 7359672 7386768 7402252 7418536 7425148 7586890
1621.85 7852194 8120970 9635328 9763436 7977398 7607788
1624.74 7629432 7647854 7653378 7622638 7895410 8860384
1627.64 8769672 7913428 7703656 7661158 7693722 7726918
1630.53 7693422 7717308 7728834 7800648 7818962 7937898
1633.42 8084722 8921536 10660380 13686160 13609580 9669824
1636.31 8561872 9277822 9184132 8484954 8317436 8359742
1639.21 8435594 8611750 8594298 8581240 8676854 8748880
1642.10 8847058 8873664 8944492 9083114 9435840 9497084
1644.99 11644660 14715920 12071110 10358250 11299280 11021000
1647.89 10796760 9929194 9402550 9495130 9438370 9676784
1650.78 9781410 11726620 17240790 18909330 19732740 16330340
1653.67 12769600 13278200 11194820 10506480 10528320 10597970
1656.56 10622830 10770320 10875550 11004570 11096940 11259150
1659.46 11431070 11707650 11968070 12446660 12668170 13984910
1662.35 15450370 14145940 13218600 13228680 13240360 13497850
1665.24 13615720 13816210 14041350 14315540 14669770 15371830
1668.13 16109780 18571350 19013260 17043150 16737560 17605050
1671.03 18620990 18252000 18096830 18459250 18769810 19411400
1673.92 20209740 23132520 25114130 23092660 22014360 22452530
1676.81 22912450 23613340 24301660 25004670 25858850 26933990
1679.71 27912640 28717250 29159200 30051680 31006230 32734020
1682.60 35238420 36662020 37830550 43809170 46000500 40613830
1685.49 39564860 40620480 41570370 42863400 44292840 45771980
1688.38 46814400 48094410 49890230 51419260 52550210 53991490
1691.28 55605980 57223980 58902340 60781680 62746450 64673760
1694.17 67038480 70619830 78468270 81322660 77661060 78646100
1697.06 81474820 83909540 87055090 90604080 96966830 104256800
1699.95 108279400 110406800 111830100 115424800 120415300 125612000
1702.85 130946800 136800200 143681900 149464200 154845200 161729600
1705.74 169511800 176242000 182880800 190483400 198623400 207304800
1708.63 216381800 226052200 236159700 246541700 257376900 268839300
1711.53 280885500 293504300 306646900 320458900 335300900 350177500
1714.42 366738300 383158800 399041900 416608400 436826200 459853600
1717.31 477444400 495801100 517793600 538308600 560494100 584002900
1720.20 608126700 632881900 658258500 683974700 710161900 737275600
1723.10 764565600 791521400 818750400 846103800 873372200 900759000
1725.99 928008800 954687400 980926000 1006624000 1031397000 1054696000
1728.88 1077020000 1098304000 1116811000 1132479000 1145761000 1156148000
1731.77 1162772000 1167098000 1170502000 1166188000 1158265000 1147448000
1734.67 1127965000 1106503000 1084548000 1062243000 1041181000 1022406000
1737.56 1007650000 999206900 998645400 1006930000 1022363000 1043330000
1740.45 1071160000 1103089000 1135605000 1166521000 1193735000 1215235000
1743.34 1230218000 1239492000 1243331000 1242212000 1236518000 1225695000
1746.24 1210980000 1193378000 1172577000 1149680000 1124751000 1097296000
1749.13 1068110000 1038084000 1008253000 979110000 947554700 914090800
1752.02 881969700 849977200 818269200 786976300 756246800 726188400
1754.92 696477000 667645100 640458000 613894900 586761600 560792800
1757.81 536315900 512537000 489604200 467378300 445817600 425116000
1760.70 405617900 387797900 368732800 349364700 331903700 315266500
1763.59 299332600 284120900 269714100 255915100 242699000 230201400
1766.49 218349500 207276100 197904600 187559400 176406100 167054700
1769.38 158455600 150449400 143569100 137354000 129860800 125179500
1772.27 121327600 113054000 106150300 101179300 96235780 91967200
1775.16 88001090 83763650 79751370 76240920 72851430 69713140
1778.06 66703860 63862440 61179760 58745340 56829490 54406920
1780.95 51655040 49483090 47462240 45507020 43677360 41967760
1783.84 40450090 39517580 37686300 35487340 33964710 32494800
1786.74 31195420 29925630 28693670 27576760 26613280 25831940
1789.63 25269700 24892600 24059750 22412480 22172300 24005410
1792.52 23309670 21501300 21310980 21144100 20919420 20597440
1795.41 20293620 19675820 18945980 18333950 17852290 17476240
1798.31 17129890 17420710 17352670 16338680 15883810 15909630
1801.20 15446340 15135990 14894120 14262330 13890410 13541720
1804.09 13238240 13002200 12678480 12355710 12021660 11594130
1806.98 11324370 10963610 10455690 10068710 9704178 9405204
1809.88 9476060 9182272 8375424 7973762 7764822 7443402
1812.77 7109724 6784930 6521164 6380336 6179078 5948376
1815.66 5733138 5518180 5491578 5310306 4987424 4850158
1818.56 4731470 4568254 4423426 4357346 4315054 4275898
1821.45 4208870 4146462 4086626 3874562 3886488 3934556
1824.34 4617690 5092420 4154278 3615020 3614746 3523336
1827.23 3510540 3452948 3770478 4065190 4457286 5105668
1830.13 4242258 3492356 3446046 3374400 3403508 3441106
1833.02 3477848 3352162 3298438 3282062 3366990 3383146
1835.91 3321866 3497440 3525750 3352184 3348274 3410560
1838.80 3440788 3460516 3441998 3434460 3464616 3636150
1841.70 3691088 3702698 3760054 4750324 6931764 5934616
1844.59 4015518 3868250 3731896 3788062 3803128 4039474
1847.48 4110152 3902992 3843410 3856880 3904940 3994456
1850.38 4039514 4103012 4190026 4179906 4117472 4145662
1853.27 4224088 4300298 4317300 4333902 4377684 4471470
1856.16 4541416 4579802 4636744 4690722 4800726 4875302
1859.05 4885250 4926222 4947944 4978836 5001932 5023814
1861.95 5060082 5121094 5213990 5269202 5318836 5410624
1864.84 5462502 5570208 5767020 5784130 5803036 6251172
1867.73 6298636 6340672 7346336 7031990 6057460 5970580
1870.62 5940268 5970812 6005204 6034510 6079906 6123448
1873.52 6180886 6264824 6303640 6334558 6351318 6394172
1876.41 6478928 6529802 6521828 6510906 6517592 6498220
1879.30 6445720 6431806 6432692 6465608 6479160 6388034
1882.20 6346402 6392228 6448024 6524382 6550642 6458368
1885.09 6393590 6489404 6527220 6453366 6457088 6520404
1887.98 6462550 6613434 7187040 6958238 6384126 6270726
1890.87 6224150 6179746 6144836 6168118 6085494 5986266
1893.77 5868834 5913466 5998318 5774526 5573368 5425032
1896.66 5319708 5291156 5222992 5184978 5113554 5076092
1899.55 5008706 4926296 4867436 4810864 4791942 4705450
1902.44 4565612 4494098 4467926 4449314 4420728 4348282
1905.34 4210742 4096630 4062868 4058356 4108408 4037880
1908.23 3915002 3924048 4062844 4030278 3833792 3763616
1911.12 3710284 3685528 3621046 3549826 3501370 3458542
1914.02 3492780 3464230 3401680 3381368 3351218 3303816
1916.91 3629260 4556456 4203948 3335008 3248948 3186934
1919.80 3169402 3154738 3164452 3242662 3308446 3380900
1922.69 3470996 3229832 3089048 3065998 3020592 3032606
1925.59 2967802 2948294 2996522 2944320 2921138 2962920
1928.48 2959876 2953636 2868562 2770818 2751130 2751540
1931.37 2782050 2772972 2718182 2717888 2708800 2699786
1934.26 2642020 2577318 2555966 2515420 2554352 2575044
1937.16 2552918 2566772 2591634 2597094 2557194 2550036
1940.05 2514338 2574912 2626092 2807444 3219998 2958266
1942.94 2588000 2605388 2554594 2562560 2537642 2488298
1945.84 2486110 2368612 2325046 2355866 2303172 2275324
1948.73 2291030 2255906 2164002 2121198 2048694 2017628
1951.62 2075730 2069758 1997304 2011520 2030302 2073566
1954.51 2104676 2002642 1894336 1817558 1754348 1720544
1957.41 1718344 1707850 1660576 1679570 1716508 1656878
1960.30 1707544 1689052 1583742 1628476 1579224 1519732
1963.19 1472048 1425302 1381816 1346670 1382898 1450904
1966.08 1367796 1417138 1523366 1316292 1209076 1189018
1968.98 1162636 1118280 1042578 998574 1000098 961508
1971.87 910170 920288 958816 919856 754224 892950
1974.76 1108190 1096654 1045526 984926 1034182 1069930
1977.66 1085146 1135460 1140098 1142570 1188016 1201588
1980.55 1238974 1267212 1264162 1333390 1398666 1352614
1983.44 1314494 1367604 1403960 1365840 1341854 1353890
1986.33 1326654 1326042 1366426 1409262 1405520 1350154
1989.23 1320108 1322464 1386462 1497774 1735852 1770432
1992.12 1546972 1482372 1472736 1439750 1399308 1381084
1995.01 1478776 1525402 1510162 1545400 1543240 1565210
1997.90 1538086 1514156 1554748 1553572 1487098 1436480
2000.80 1437968 1418390 1374342 1321758 1290172 1288164
2003.69 1245848 1175104 1157478 1127658 1040840 1000998
2006.58 1003826 992510 965868 908774 826584 813132
2009.48 836576 795316 744780 740692 716948 704396
2012.37 714754 677390 652164 616538 569026 615668
2015.26 617694 635076 793206 709228 543532 541712
2018.15 569446 555668 457064 381278 413316 445086
2021.05 414480 447596 428224 354160 307022 291250
2023.94 331844 330624 315172 338336 321814 258120
2026.83 265084 315768 280120 258996 290734 309066
2029.72 293350 274754 251944 206418 226714 316796
2032.62 346536 327448 355610 358284 347482 354576
2035.51 314282 290324 332314 361532 362774 357378
2038.40 370464 361970 376628 424652 465842 504066
2041.29 436028 390518 381016 377320 392982 417132
2044.19 419652 414962 422374 404182 412738 404866
2047.08 426570 473484 459072 479150 525242 485394
2049.97 455788 472676 545042 557872 556172 609604
2052.87 593768 569946 570530 563434 582684 611168
2055.76 665068 722988 680608 695096 765276 773572
2058.65 752978 749380 782972 835412 861944 908468
2061.54 925010 900096 877428 928312 1041244 1141618
2064.44 1226228 1194750 1110932 1090826 1153698 1169212
2067.33 1176520 1214710 1273060 1332622 1347480 1302648
2070.22 1309468 1370678 1422562 1522352 1603582 1665490
2073.11 1710812 1733410 1753478 1777696 1839430 1909412
2076.01 1949344 1970128 1989686 2074276 2179698 2252962
2078.90 2285914 2308362 2396926 2449560 2470980 2578666
2081.79 2663852 2718690 2794626 2897864 2977128 3082162
2084.69 3131450 3178314 3295602 3327380 3411158 3533820
2087.58 3641372 3722822 3800682 3900496 4018714 4097196
2090.47 4111562 4208558 4311126 4377364 4430822 4504252
2093.36 4649260 4739292 4776070 4837416 4914690 5029292
2096.26 5153748 5235440 5264052 5316466 5489852 5610676
2099.15 5649460 5704622 5783312 5824554 5874976 5958606
2102.04 6030044 6113118 6181754 6259360 6337718 6405478
2104.93 6515380 6552850 6574448 6661494 6724200 6760852
2107.83 6839044 6902742 6940694 7078130 7165640 7181138
2110.72 7197814 7251158 7303736 7405772 7515106 7498900
2113.61 7530122 7602168 7598020 7567576 7568462 7562194
2116.51 7558258 7609078 7543010 7441290 7383200 7260126
2119.40 7142784 7017084 6952046 6949758 6914312 6809496
2122.29 6693024 6744186 6741010 6627376 6551288 6539690
2125.18 6572566 6569760 6537346 6408626 6259294 6158728
2128.08 6051544 5935208 5822294 5724616 5631090 5537486
2130.97 5439974 5379494 5351476 5201622 5009608 4891278
2133.86 4758032 4647168 4546720 4428700 4275670 4099496
2136.75 3987768 3819034 3637200 3539610 3418278 3264940
2139.65 3136492 3027912 2888944 2768144 2656942 2580304
2142.54 2523204 2433284 2326646 2258966 2218400 2136642
2145.43 2081642 2040074 1967746 1883194 1880028 1859870
2148.33 1837392 1833058 1800024 1741258 1642628 1616780
2151.22 1636796 1596266 1594148 1552808 1484796 1520850
2154.11 1487704 1490190 1526030 1532208 1599368 1628470
2157.00 1550594 1493126 1522504 1524590 1536476 1533884
2159.90 1469946 1455514 1494106 1519962 1498738 1481412
2162.79 1483666 1431122 1443216 1533908 1582162 1564000
2165.68 1552342 1616278 1618574 1647044 1636692 1574946
2168.57 1601430 1601922 1625150 1638874 1657998 1641258
2171.47 1599612 1598030 1549934 1533278 1512162 1495426
2174.36 1437554 1396824 1385238 1331802 1313020 1262206
2177.25 1254076 1263558 1223190 1194300 1112896 1068946
2180.15 1099688 1007274 941986 987574 985980 954616
2183.04 908206 876412 838658 820794 777318 722030
2185.93 670200 639386 652228 600278 562636 589144
2188.82 570140 538782 506908 449966 455504 419604
2191.72 354980 305924 282256 321010 283852 187146
2194.61 187130 177662 167978 183358 125884 127914
2197.50 124046 111358 104028 90526 76850 97400
2200.39 118310 33324-31588-22180-37658-51286
2203.29-10200-27078-51996-51082-49140-47556
2206.18-54966-25100-7626-31350-56962-68244
2209.07-39220-13094 12318-12728-60526-17402
2211.97 33068 30580 40838 72536 56608 39992
2214.86 30524-14910-36146-9178-31136-70324
2217.75-102480-135766-101626-21816-31778-109972
2220.64-127422-104098-97320-100474-103820-122732
2223.54-102946-60360-97194-127022-119990-124224
2226.43-91884-120694-152718-161436-195118-204612
2229.32-190652-186928-195370-176914-207384-222708
2232.21-191594-204372-191130-217998-225334-247676
2235.11-281974-260168-269698-259686-279222-265868
2238.00-257232-271292-299682-354918-310202-268438
2240.89-257618-232636-241652-285228-311304-282826
2243.79-239546-253104-261186-229454-295832-317748
2246.68-262968-252778-255418-219180-174838-183368
2249.57-170208-178600-217368-198862-155162-123766
2252.46-89824-75532-99818-134474-106658-67352
2255.36-40522-20252 25500 86006 38108 38116
2258.25 67640 105568 127672 99842 141318 252662
2261.14 298736 290186 313534 311218 351430 424876
2264.03 489792 468704 471864 526370 552548 640862
2266.93 720520 719996 765794 809378 845602 918368
2269.82 913390 958968 1066784 1118344 1126732 1201300
2272.71 1284948 1258548 1257524 1322984 1433118 1524310
2275.61 1551714 1630214 1694504 1708192 1745744 1825684
2278.50 1875478 1920426 1980362 1966052 2097834 2209048
2281.39 2171856 2215248 2350014 2432664 2451674 2478126
2284.28 2544974 2585626 2603770 2651814 2677644 2672692
2287.18 2714396 2775496 2798422 2854938 2915394 2916690
2290.07 2862750 2865000 2929028 2994394 3055146 3057832
2292.96 3045982 3081120 3088826 3101456 3151260 3197006
2295.85 3216782 3197020 3129052 3113552 3151652 3088152
2298.75 3036390 3060502 3025210 3059980 3116398 3015082
2301.64 2989320 3011252 2934758 2861636 2801928 2787914
2304.53 2794116 2773930 2805432 2852426 2852952 2771730
2307.43 2707660 2733640 2790294 2714390 2619966 2596954
2310.32 2686900 2691692 2596612 2565712 2649842 2697382
2313.21 2509486 2425552 2512984 2588228 2447806 2340070
2316.10 2425836 2559678 2401068 2150120 2227364 2463054
2319.00 2358354 2046766 2059798 2414498 2420596 2085156
2321.89 2090470 2424924 2366966 1931872 1952658 2448374
2324.78 2424106 1890046 1955050 2537698 2409080 1864718
2327.67 2171676 2666612 2271276 1730158 2173058 2692422
2330.57 2144676 1762976 2409136 2638062 1951312 1871948
2333.46 2647950 2593730 1847826 2074948 2722526 2294144
2336.35 1827132 2434142 2667094 1956546 2016974 2726922
2339.24 2374800 1783274 2302590 2624182 2012146 1974300
2342.14 2501132 2195542 1811374 2211354 2283916 1853782
2345.03 1893032 2120018 1952582 1814414 1919078 1902016
2347.92 1818786 1777506 1767202 1874966 1845836 1884048
2350.82 2148820 2096388 1991878 2376826 2370966 2084324
2353.71 2609150 2709944 2292770 2825388 2840468 2337562
2356.60 2989146 2974324 2453586 3170764 3051436 2625144
2359.49 3381362 3028170 2821862 3567994 2922088 2938690
2362.39 3571668 2919490 3280682 3351672 2755330 3350786
2365.28 2995786 2854444 3245476 2757842 3139252 3076498
2368.17 2812304 3095066 2716356 2907240 2733240 2561170
2371.06 2758584 2536934 2669672 2534696 2554732 2466494
2373.96 2387386 2433220 2283634 2343358 2260216 2209064
2376.85 2200412 2174416 2120176 2103840 2065466 2054014
2379.74 2043068 1982626 2007950 1980650 1895516 1889756
2382.64 1903748 1850510 1781054 1761492 1782770 1762346
2385.53 1685658 1711030 1706954 1616114 1575390 1512876
2388.42 1447376 1374544 1342064 1331982 1291056 1269966
2391.31 1294254 1341132 1338478 1257966 1222586 1181334
2394.21 1098214 1081042 1111568 1113532 1064114 1066094
2397.10 1068832 1099184 1131588 1101626 1063538 1019236
2399.99 1009004 965906 944078 954316 967696 1031146
2402.88 1040658 1021796 1046918 1006330 948730 959430
2405.78 906240 847170 929460 977076 929430 884990
2408.67 841738 844092 837848 833200 820546 757214
2411.56 726664 778034 823562 765938 739226 733934
2414.46 724540 724130 682434 683330 729282 671548
2417.35 589250 610264 709986 704776 574326 513710
2420.24 574840 640194 698088 725248 625390 571888
2423.13 639526 713360 669116 592164 598054 599718
2426.03 595158 568758 514558 517928 550380 507126
2428.92 444850 476218 526100 519000 501254 506066
2431.81 490032 479820 443224 482248 498386 445276
2434.70 434898 449002 447660 407642 394398 391338
2437.60 408456 430858 494632 504760 473284 422812
2440.49 452780 523886 473754 437180 498620 543638
2443.38 459704 421472 455962 498228 515874 509290
2446.28 499508 456632 404176 415068 462492 485378
2449.17 481658 443122 485938 497486 497886 582090
2452.06 618468 675788 727644 730798 764010 775700
2454.95 755944 710262 761758 788390 767988 845426
2457.85 844812 886602 961694 938550 973666 1031728
2460.74 981394 958738 929752 917196 1004836 1036292
2463.63 1069848 1083286 1103174 1098226 1050120 1083910
2466.52 1120314 1078832 1029988 1047190 1040878 1006446
2469.42 1022758 1068548 1060646 1063780 1134082 1151396
2472.31 1131134 1117078 1139556 1227418 1272298 1285300
2475.20 1359752 1343768 1295560 1274940 1246090 1316736
2478.10 1340210 1272612 1276404 1283584 1246672 1226634
2480.99 1188668 1146882 1067036 989498 981778 1019378
2483.88 1010392 993186 940550 958766 967372 907350
2486.77 938860 896106 909940 917588 882522 940248
2489.67 985664 1007500 972980 983112 1023092 1023396
2492.56 974482 1030340 1148252 1133738 1159944 1235074
2495.45 1262072 1260590 1367600 1462558 1419524 1433724
2498.34 1556144 1582792 1559596 1604274 1647280 1653968
2501.24 1726788 1807842 1804116 1772322 1864326 1989486
2504.13 1995280 2031170 2074988 2015016 2041818 2168920
2507.02 2184178 2207174 2229718 2269960 2336168 2261002
2509.92 2276642 2405148 2436726 2401018 2411342 2491736
2512.81 2527368 2521866 2483418 2530720 2645264 2635142
2515.70 2594346 2687350 2803806 2782180 2718524 2724180
2518.59 2746678 2731358 2703638 2665022 2638966 2589438
2521.49 2531456 2552500 2593786 2581870 2445510 2373032
2524.38 2405480 2392696 2326108 2251394 2211492 2162704
2527.27 2182608 2231174 2168128 2072636 2073078 2032090
2530.16 1986752 1960832 1900612 1865340 1842088 1785862
2533.06 1720672 1711832 1732470 1709780 1614862 1525516
2535.95 1490182 1481084 1467202 1425046 1327116 1351834
2538.84 1403790 1333626 1231738 1203410 1201358 1109696
2541.74 1115458 1141196 1074776 1022954 1007978 982356
2544.63 960402 930432 814540 767902 783834 781592
2547.52 824764 887626 860078 783852 716632 731558
2550.41 800300 750618 711290 760286 768120 717016
2553.31 706224 725856 710194 718702 770354 774162
2556.20 779388 775420 767886 753918 671878 642152
2559.09 680834 669220 656062 675952 666962 642258
2561.98 657238 597658 576478 625696 607936 608996
2564.88 569342 552000 573404 506780 470872 530732
2567.77 530250 529206 578566 567472 525520 511414
2570.66 485572 460762 463444 508570 495374 408134
2573.56 436938 447204 399466 354744 329238 377328
2576.45 333862 305736 284052 230120 245726 247390
2579.34 235074 243026 198906 176844 241290 238172
2582.23 160694 192442 197734 167324 189344 152892
2585.13 170018 193800 156028 136168 96738 75300
2588.02 87774 132502 210622 206648 165298 210352
2590.91 263252 243068 163364 146778 223168 261224
2593.80 192176 150652 207482 203852 172840 168654
2596.70 205468 262910 278416 237546 268060 288660
2599.59 274304 307820 348136 380374 324500 263276
2602.48 292182 300730 243284 255702 294682 305764
2605.37 330182 317410 315032 318420 342324 368654
2608.27 379566 364408 350948 457198 458732 381306
2611.16 399808 403722 388580 383112 394802 395106
2614.05 454024 475244 336484 346196 408964 435058
2616.95 462344 428706 411672 404792 422764 483096
2619.84 483220 430276 427750 352628 350542 463670
2622.73 430312 396646 390904 375754 352904 347864
2625.62 410256 376964 314190 323910 315848 324120
2628.52 295728 266768 282934 263414 286206 255184
2631.41 264184 277072 292842 287670 230808 252026
2634.30 241350 234994 273568 325512 291578 177942
2637.19 166386 230800 241706 271112 333610 279142
2640.09 225692 241638 210072 261886 273470 203090
2642.98 250352 328198 352164 331084 317572 317306
2645.87 327582 349568 373270 408534 466244 483068
2648.77 472578 494218 516284 529530 554642 593338
2651.66 623754 575602 620062 696902 736588 831562
2654.55 863294 859484 876996 926050 913902 923428
2657.44 1030222 1057014 1050582 1137266 1167580 1199594
2660.34 1243130 1287508 1362900 1388768 1444210 1451482
2663.23 1457574 1515650 1546374 1620212 1676950 1673362
2666.12 1697764 1717044 1735696 1820470 1876024 1847168
2669.01 1937102 2037992 1947334 1952372 1988306 1969796
2671.91 2006616 2031246 2083052 2134114 2110762 2093304
2674.80 2133420 2098104 2013272 2132518 2246554 2175506
2677.69 2171318 2137492 2074384 2142806 2156510 2141852
2680.59 2115548 2114176 2109500 2142784 2172970 2134462
2683.48 2173138 2196898 2160282 2169900 2154156 2116812
2686.37 2119814 2122316 2138268 2114104 2065134 2091664
2689.26 2055340 2001632 2049646 2002178 1994558 2025334
2692.16 2000818 2038430 1978942 1871932 1865684 1832102
2695.05 1792622 1728082 1791200 1863950 1824072 1809316
2697.94 1858592 1846250 1790870 1788386 1745782 1779600
2700.83 1892176 1900654 1845032 1825710 1788204 1843698
2703.73 1864946 1789632 1787582 1829894 1829476 1847330
2706.62 1828888 1812038 1931692 1937778 1835970 1903206
2709.51 1951076 1922708 1991388 2037898 1993750 1905972
2712.41 1869934 1889940 1956368 2033734 2091818 2125262
2715.30 2138594 2196844 2225050 2209680 2242930 2247560
2718.19 2281060 2292202 2242096 2269300 2336328 2363808
2721.08 2344536 2335380 2361754 2409206 2421574 2459144
2723.98 2501698 2493866 2502298 2558024 2653210 2657706
2726.87 2688960 2781428 2789730 2827324 2911840 2979118
2729.76 3039774 3081736 3098284 3156442 3235832 3359462
2732.65 3465024 3562088 3678914 3717422 3743852 3812834
2735.55 3944704 4060128 4142230 4176842 4199884 4334236
2738.44 4485646 4482368 4504896 4624950 4743598 4846706
2741.33 4918700 5022626 5083588 5168324 5355134 5434350
2744.23 5441688 5485352 5547728 5619744 5628274 5681676
2747.12 5735796 5680186 5673886 5744362 5814084 5880870
2750.01 5985438 6085204 6173196 6198514 6096832 6042732
2752.90 6040184 6118154 6148162 6162788 6202546 6202998
2755.80 6243946 6264684 6218936 6180066 6201692 6276866
2758.69 6253734 6233606 6337022 6275484 6185464 6171402
2761.58 6047622 5970180 5946296 5801216 5722526 5651524
2764.47 5554984 5459278 5349068 5330156 5281918 5225252
2767.37 5151682 5038028 5007396 4916808 4807610 4830270
2770.26 4930928 4887288 4809760 4897634 4916868 4884798
2773.15 4873804 4934554 5042874 5010380 5056652 5171026
2776.05 5162044 5203026 5317542 5380136 5463706 5583156
2778.94 5693108 5777402 5892314 5984780 6051878 6223622
2781.83 6277184 6322704 6462200 6616062 6812616 6886478
2784.72 7009262 7193222 7419974 7590402 7711126 7907504
2787.62 8137448 8375752 8558512 8829128 9013920 9203608
2790.51 9449864 9730018 10123180 10352790 10613740 10979030
2793.40 11259840 11469780 11684560 11985590 12239710 12422030
2796.29 12643150 12841180 13039440 13181130 13372440 13685000
2799.19 13982930 14298780 14471530 14644830 14936480 15254600
2802.08 15496400 15699320 15961140 16235280 16593040 16901850
2804.97 17174370 17570380 18019990 18370820 18686240 19077900
2807.87 19547430 19950110 20285400 20697790 21032260 21357610
2810.76 21761140 22144300 22570920 23001360 23427640 23797010
2813.65 24100330 24486610 24873160 25161460 25329420 25590830
2816.54 25804890 26020970 26240840 26300300 26443480 26597950
2819.44 26650100 26737080 26891470 27097650 27328010 27486380
2822.33 27656910 27820120 27950210 28191390 28367810 28607110
2825.22 28970660 29235340 29438250 29565990 29655180 29881830
2828.11 30286470 30553270 30651140 30884320 31162910 31348470
2831.01 31561070 31829730 32149090 32378760 32614470 32899150
2833.90 33142440 33411290 33666600 33843150 34034620 34092950
2836.79 34036640 34063900 34047040 33968160 33806980 33639810
2839.69 33560070 33456980 33287000 33218330 33105730 32928990
2842.58 32845170 32794370 32822230 32770820 32688410 32752490
2845.47 32934960 32928410 32799110 32868800 32915540 32863450
2848.36 32850470 32752720 32717020 32804740 32825480 32757130
2851.26 32748640 32748910 32777150 32840630 32896020 33021250
2854.15 33056240 33087100 33197450 33315750 33450090 33491440
2857.04 33534090 33649700 33685580 33832840 33976960 34063980
2859.93 34177690 34190430 34280260 34545600 34762790 35008040
2862.83 35338760 35566340 35758200 36155590 36478180 36818790
2865.72 37394570 37941200 38453550 39192110 40068750 40916800
2868.61 41971400 43022460 44141090 45500600 46989120 48707950
2871.51 50628700 52698360 54895530 57265760 59798600 62571400
2874.40 65545930 68661180 72044370 75707080 79444730 83256720
2877.29 87153860 90971820 94922390 99008220 102918100 106578300
2880.18 110385900 113946800 117083900 120196200 122866500 125139100
2883.08 127061900 128423400 129704500 130846000 131640100 132562600
2885.97 133711700 135303500 137296100 139678800 142870800 146870500
2888.86 151877500 157710900 164406600 172278800 179514300 184160800
2891.75 187194200 189423900 190432600 191579400 193974700 197225900
2894.65 200939000 205144000 209703400 214178300 218585700 222671700
2897.54 226145800 229228500 231900700 234023400 235776200 237397600
2900.43 238786600 239621500 240171800 240940800 241907500 242731100
2903.32 243347400 244015200 244430500 244572100 244845700 245411500
2906.22 246199400 247325300 248709100 250114000 251642900 253261300
2909.11 255033000 256776900 258360100 259984100 261492400 262912200
2912.00 264565600 266495800 268673200 271819700 276331200 282717000
2914.90 291821600 302390800 309672100 311235700 309579300 306492400
2917.79 301799800 295741100 289190100 283433500 279116100 275612000
2920.68 272915700 270268200 267591600 265034700 262592400 260178400
2923.57 257571500 255108400 252731100 250304700 248043800 245717600
2926.47 243303000 241098000 238852900 236788000 235116800 233862100
2929.36 232787000 232100100 231738500 231587900 231985600 232827800
2932.25 233849500 235320000 237544300 240361000 243483100 247059600
2935.14 250964700 254847300 258898800 263110500 267413800 271321900
2938.04 274877800 278398800 281567500 284253700 286250400 287434100
2940.93 287774600 287246900 286031700 284203500 281328800 277789800
2943.82 274102400 270053000 265878700 262148000 258954100 256899200
2946.72 256930500 260346100 268478700 286094700 305685700 308456400
2949.61 297899200 286362100 276861800 269409500 263885900 260510300
2952.50 259174700 259383300 260998900 263611900 266932500 270653700
2955.39 274452200 278252400 281762600 284766400 287203600 289009900
2958.29 290079700 290439800 290115100 289428100 288226000 286546800
2961.18 284515400 281506700 278196400 275722700 273647400 271905400
2964.07 270600800 270035300 270463100 271675500 273709000 276860300
2966.96 280831800 284854800 288681300 292179400 294676000 296252400
2969.86 297364000 298746100 300865900 303448000 307126800 311975600
2972.75 317284600 322786300 328643900 334821900 341083400 347400400
2975.64 353459600 359481700 365575600 371156000 376701500 382306400
2978.54 387323900 392143300 397060500 401612100 405756200 409799000
2981.43 413995600 417890600 421080100 424326700 427722400 430482000
2984.32 432538000 433507200 433122400 431875700 429492400 426401400
2987.21 423981100 423863300 427737200 435644600 446146300 461015800
2990.11 486904900 529001700 582766600 619473200 598548800 536498300
2993.00 484957400 455754200 440032900 431351100 425860400 421784800
2995.89 417714800 413093500 407842600 402139600 395833500 388856800
2998.78 381525100 373984300 366001300 358168000 350502500 342752200
3001.68 334870500 326969600 319249500 311605200 304174800 296694900
3004.57 289206400 281872900 274570100 267102200 259740800 252557600
3007.46 245204600 237768800 230582800 223736800 216943900 210498500
3010.36 204509600 199122500 194792900 191209700 188573500 186964400
3013.25 185105900 181007300 173828900 165750900 158659500 152723500
3016.14 147847100 143946300 140847000 138120000 135596600 133224700
3019.03 131065300 128960000 126800900 124680700 122519700 120166400
3021.93 117622800 115014800 112352500 109642900 106819800 103995500
3024.82 101149900 98148520 95200560 92452100 89602890 86687420
3027.71 83867170 81094510 78514600 76081510 73675870 71431430
3030.60 69313540 67233800 65236270 63365000 61616240 59956150
3033.50 58572210 57342520 56101490 55034600 53996100 52997680
3036.39 52155030 51339550 50660630 50014320 49372930 48894580
3039.28 48365590 47931760 47543200 47034660 46666830 46273940
3042.18 45949580 45834180 45500790 45005700 44635480 44286760
3045.07 44044980 43869680 43624300 43387460 43166350 42943030
3047.96 42668380 42412740 42300000 42147670 42015400 41862180
3050.85 41577020 41259080 41031830 40823680 40591420 40424280
3053.75 40221260 39998310 39805370 39591980 39372630 39040990
3056.64 38827720 38645670 38341090 38076110 37874240 37558700
3059.53 37313770 37204300 36972670 36728110 36499350 36264540
3062.42 36040800 35757820 35477280 35247700 34983990 34815300
3065.32 34502320 34086840 33781960 33521800 33328070 33012630
3068.21 32654390 32447330 32182590 31885340 31572520 31218020
3071.10 30969910 30809520 30531470 30201620 29792870 29427500
3074.00 29049040 28717160 28485590 28096830 27802310 27480170
3076.89 26954550 26584630 26445190 26162460 25769110 25356320
3079.78 24879310 24574910 24306130 23901820 23533600 23289880
3082.67 22892990 22479160 22159670 21877630 21500090 21131030
3085.57 20890320 20509470 20139240 19869910 19638700 19400840
3088.46 19057390 18694150 18280070 17890330 17740550 17572720
3091.35 17255830 16937960 16783370 16611030 16237310 15821120
3094.24 15621780 15522170 15364920 15128740 14822860 14672130
3097.14 14516090 14291930 14039290 13896590 13859390 13647950
3100.03 13468070 13238450 12933650 12780580 12683490 12536770
3102.92 12440840 12249240 12051230 11998190 11749990 11559710
3105.82 11389330 11062200 11015590 10979100 10810600 10689240
3108.71 10682220 10478720 10205050 10204400 10096270 9909170
3111.60 9806508 9711596 9600568 9407288 9132058 8983988
3114.49 8755248 8626326 8766330 8540802 8192664 8183106
3117.39 8117094 7940806 7800914 7670804 7506838 7195918
3120.28 7063476 7100976 7083578 6952872 6905186 6850610
3123.17 6566434 6577362 6569714 6324040 6279024 6259758
3126.06 6097344 6089700 6038980 5909014 5855978 5831614
3128.96 5762486 5668754 5670898 5721964 5652462 5536382
3131.85 5553592 5549980 5401564 5346096 5347926 5274032
3134.74 5195050 5089794 5160098 5213860 5123992 4989898
3137.64 5011080 5045602 4946704 4932354 5019112 5135188
3140.53 5116684 4999576 4889264 4903096 4911508 4960702
3143.42 4973492 4898908 4963406 5082260 5224236 5206726
3146.31 5076698 5054298 5094858 5049932 5025072 5065750
3149.21 5051850 5039572 4977856 5058700 5169610 5169900
3152.10 5291312 5425968 5464962 5486356 5438898 5339396
3154.99 5291276 5273948 5277164 5374860 5541802 5483432
3157.88 5398112 5521962 5575674 5664034 5795358 5730204
3160.78 5618464 5731442 5884748 5823446 5852852 6025034
3163.67 6029902 6074722 6117882 6103320 6197382 6290670
3166.56 6395030 6389376 6395046 6542334 6640388 6718186
3169.46 6858290 6849338 6731524 6775718 6766704 6513892
3172.35 6424876 6387954 6360366 6412740 6406544 6339434
3175.24 6224366 6253024 6317902 6338890 6357650 6335620
3178.13 6366452 6429704 6476570 6534362 6466864 6399574
3181.03 6474852 6446736 6546906 6739222 6843296 6935204
3183.92 7039204 7200104 7257146 7066266 6870640 6625414
3186.81 6258196 6066920 5820650 5546212 5387508 5357150
3189.70 5215588 4982846 4901218 4895162 4853570 4797098
3192.60 4682752 4691920 4572804 4357888 4307568 4303078
3195.49 4302072 4211528 4136320 4032368 3949018 3874752
3198.38 3759206 3582664 3536204 3640186 3563154 3413930
3201.27 3333210 3265724 3210604 3064364 2920582 2781130
3204.17 2667828 2608336 2541302 2365406 2211994 2142128
3207.06 2146168 2196550 2096480 2021252 2037078 1990560
3209.95 1858170 1815456 1670188 1516266 1573250 1576488
3212.85 1581668 1553394 1474174 1393096 1380340 1419160
3215.74 1393918 1394632 1351316 1228510 1194964 1188122
3218.63 1142482 1118826 1055700 973170 1092928 1198314
3221.52 1092826 1101480 1160930 1150528 1148150 1181726
3224.42 1235896 1187818 1178550 1240004 1278072 1380282
3227.31 1335830 1210610 1312828 1437252 1408876 1431504
3230.20 1489242 1475804 1380240 1419696 1509168 1372456
3233.09 1285430 1450710 1429544 1306456 1282868 1303744
3235.99 1427078 1360462 1165426 1207470 1260948 1265880
3238.88 1340972 1417488 1475792 1473404 1475892 1455296
3241.77 1471034 1276088 1082558 1081630 1068346 1106820
3244.67 1170250 926820 818256 1014952 993656 1085504
3247.56 1088354 1049714 1102916 985156 954822 909592
3250.45 807146 759054 761808 756650 750452 636930
3253.34 554810 620504 540414 423834 421066 448472
3256.24 372078 218182 179356 152754 60360 2978
3259.13 34142 24342 13022-65234-185114-93438
3262.02-93914-260284-154442 22384-137810-270872
3264.91-370882-424994-258868-192466-294306-351946
3267.81-322432-395370-449704-547392-602374-553918
3270.70-466794-401896-375224-299378-309086-364974
3273.59-364992-341070-359118-407896-397398-483720
3276.49-645190-652832-686156-503582-442310-626628
3279.38-657854-719016-790936-682330-689148-705984
3282.27-588368-487506-558136-690650-632148-618798
3285.16-615834-590418-555590-637354-736362-684558
3288.06-603732-592794-742676-669206-589648-689442
3290.95-716340-591178-480418-575756-528664-460316
3293.84-579852-679308-775806-847264-774060-629908
3296.73-538474-540710-583584-645112-592816-504340
3299.63-460098-380026-494768-572830-487048-506896
3302.52-467096-484074-597544-579548-478546-620170
3305.41-728178-592782-450716-408658-490886-442460
3308.31-374330-328394-369336-483968-434702-416466
3311.20-474598-494530-511468-518670-516894-503256
3314.09-489834-405868-330946-406284-444786-416974
3316.98-326502-239670-263606-269404-233392-266884
3319.88-408086-504070-448696-496540-633528-579802
3322.77-515396-604698-599052-501538-540840-484128
3325.66-339568-229154-263400-407144-439084-412634
3328.55-374028-347352-514364-563526-610332-609042
3331.45-449096-596376-603796-478686-407830-339442
3334.34-396358-321134-274990-435904-484474-455976
3337.23-470278-544146-544190-484836-446806-436266
3340.13-372308-340780-426292-462624-358910-409764
3343.02-507368-360136-401434-479484-409232-378064
3345.91-345852-354504-432990-455078-270948-214458
3348.80-249024-446400-500462-228552-224622-292848
3351.70-364824-380344-215706-126676-118390-120256
3354.59-148470-148996-187188-78644-43698-148032
3357.48-80336-67732-99210-164306-112700 152008
3360.37 327804 282088 269676 146414 159926 399402
3363.27 444482 431026 456008 537134 586368 510968
3366.16 584906 705612 750490 796302 607260 486680
3369.05 617192 904166 1004568 904810 824126 822402
3371.95 837246 928984 1008348 1013868 1001180 943724
3374.84 989944 1012386 933662 881226 909822 898748
3377.73 907342 957688 958608 956608 1012270 960808
3380.62 949540 875388 687872 858002 1051134 1072858
3383.52 1061742 1056668 1088286 1133996 1065578 1007606
3386.41 1037192 936428 913656 1060652 1148092 1117426
3389.30 970786 934428 1013290 899358 810770 949876
3392.19 971194 886344 748702 738510 810764 727908
3395.09 607048 652102 766110 806230 694498 651136
3397.98 726186 471396 318284 458712 567210 591776
3400.87 676318 603970 519834 479542 388512 462158
3403.77 596064 663522 649906 735186 709674 680314
3406.66 602456 661834 808904 810344 804364 628028
3409.55 556412 740458 856814 755170 712178 811754
3412.44 910886 1054084 1199716 1274078 1260524 1310538
3415.34 1420682 1417862 1403102 1519154 1584088 1622434
3418.23 1927828 2209204 2297602 2403744 2591446 2582282
3421.12 2638114 2767982 2922656 3125746 3303822 3445740
3424.01 3594038 3808788 3943004 4029884 4204842 4474598
3426.91 4720894 4920958 5148642 5343576 5491566 5901900
3429.80 6222822 6614966 6851084 6912802 7228668 7384646
3432.69 7641328 7863452 8177552 8617716 8990828 9552972
3435.59 9940522 10178210 10464110 10844640 11191660 11434700
3438.48 11794900 12256870 12840100 13369430 13740660 14087450
3441.37 14572310 15152210 15555830 15895150 16255990 16590680
3444.26 17005910 17466890 17958320 18375190 18868340 19372140
3447.16 19706970 19987040 20334350 20731900 21106010 21457200
3450.05 21689640 21992450 22295170 22447500 22581830 22612480
3452.94 22730030 22748730 22655930 22837230 22788100 22476450
3455.83 22262560 22258270 22143470 21848130 21645360 21436390
3458.73 21320880 21142580 20955720 20916720 20981190 21022530
3461.62 21005400 21281940 21524940 21571770 21720490 21837860
3464.51 21916050 22048280 22101380 22096720 22062520 21707160
3467.40 21367430 21208590 21036180 20566900 19902840 19497500
3470.30 18990810 18461510 17941770 17304830 16672740 16071880
3473.19 15417280 14753450 14145480 13505130 12775680 12038690
3476.08 11485760 10968520 10423310 9932158 9511476 9005544
3478.98 8519786 8129796 7642576 7138896 6632568 6296500
3481.87 5878152 5422894 5206882 4777322 4377798 4268444
3484.76 4095158 3722810 3227004 2815288 2598706 2565854
3487.65 2373190 1991362 1837874 1634580 1395070 1258322
3490.55 1088858 931888 804614 554986 477690 358520
3493.44 143440-6162-122194-41632-204932-254986
3496.33-245470-413880-582768-839636-899306-911074
3499.22-863914-846482-952190-1034334-1048320-996372
3502.12-939224-861300-1046408-1163434-1141336-1259834
3505.01-1315476-1306568-1404158-1534896-1543528-1537586
3507.90-1618166-1456244-1227838-1347558-1414592-1600180
3510.80-1771850-1799248-1907156-1885310-1874150-1845456
3513.69-1764376-1775952-1854628-2014110-2148984-2016372
3516.58-1790730-1736248-1909794-1860470-1862176-1986614
3519.47-1851336-1836652-1860310-1916156-1881248-1734718
3522.37-1740960-1796814-1752014-1719600-1714530-1692706
3525.26-1772628-1845404-1791458-1715834-1823940-1959752
3528.15-1823146-1769274-1872410-1824054-1750394-1668866
3531.04-1689716-1820764-1841454-1761624-1852116-1846548
3533.94-1778430-1890066-1823366-1625806-1626038-1764158
3536.83-1924048-1888938-1774150-1825552-1836494-1743850
3539.72-1652010-1675628-1740574-1688704-1735058-1855474
3542.62-1639810-1357300-1382092-1473746-1312176-1356366
3545.51-1595124-1365690-949042-1075880-1299170-1385762
3548.40-1368630-1360722-1443554-1370184-1393068-1270128
3551.29-1007400-894808-1125114-1186088-1079570-1142486
3554.19-1158734-1155852-1094360-966090-935820-999704
3557.08-1039590-955746-914888-921172-770998-585304
3559.97-576160-726470-593180-270776-106998-145210
3562.86-53902-22480-65988-111690 118144 572776
3565.76 863306 1016236 525754 1038780 1722528 959188
3568.65 483364 335964 342690 458226 311000 203058
3571.54 285902 279570 202658 193354 188786 182890
3574.44 151110 188942 179380 107508 174844 251194
3577.33 173880 15840-10254 176912 515930 740188
3580.22 915546 1279200 1303594 1251942 1000582 582762
3583.11 414720 303508 459274 840512 821886 982238
3586.01 1695496 1171360 464014 593058 1843104 1975518
3588.90 544352 366578 356158 177580 116522 363372
3591.79 626680 764618 894266 638864 365544 445094
3594.68 896566 879606 532910 337244 104558 225436
3597.58 434604 227644 84302 153008 117272 156752
3600.47 284038 93820-105128-185124-105376-178802
3603.36-442574-508216-379652-528202-732314-612478
3606.26 84986 229246-377580-541516 189386 2070924
3609.15 1146172-630338-759658-779596-708040-99334
3612.04 910574 214664-686054-561586-118072-177004
3614.93-529638-761540-875400-672928 90736 350930
3617.83-201934-482004 896466 1644006-94160-678538
3620.72-444660-610772-688512-785058-839596-711282
3623.61-698256-791544-798826-892332-624946-615094
3626.50-580942-284982 1624052 2964038 1663062 3362998
3629.40 2863120 59906-327720-651986-658798-605608
3632.29-631836-485288 76214-90026-586612-657486
3635.18-653426-679950-770308-774318-623726-413908
3638.08-448792-561472-588768-633544-671342-602618
3640.97-446304-418312-413212-397610-425488-471348
3643.86-484314-366376-286228-106456 248422 837542
3646.75 1750762 1495958 434340 1568296 4718650 3220470
3649.65 1013788 1801554 1939918 1335108 287818-13678
3652.54-83760-177982-188976-116740 110648 229478
3655.43 2001268 3135074 966612-68774-85144-213914
3658.32-153976-202162-126600-160596-237930-187154
3661.22-121676-119706-174858-250782-252088-188450
3664.11-182296-210518-186694-156334-111202-70426
3667.00 45992 68592 1446472 1979086 910858 710688
3669.90 3933726 5831636 2138508 229668 77596 25696
3672.79 73088 307646 1033332 2974248 3105822 4265454
3675.68 5198268 1487592 187138 252374-2648-48376
3678.57 354400 549386-79612-366476-471362-456698
3681.47-418420-489298-484022-492852-489880-444038
3684.36-425886-416410-437752-458770-377920-132482
3687.25 770612 5185892 5379206 846604-72216 50146
3690.14 276686 1429310 1099006-295066-465860-475780
3693.04-452242-468326-512130-641964-703608-636524
3695.93-578184-574678-596978-586266-556304-526150
3698.82-532608-609996-580966-612204 46460 1245194
3701.72 622020-571946-757532-724382-769180-764980
3704.61-573212-602856-682210-708690-625568-509038
3707.50-295268-358762 558302 1543030 387452-335876
3710.39-6152 158830 2486958 3757124 950408-503568
3713.29-639046-560630-97746-323544-610184-620304
3716.18-651878-662570-587794-564302-234742 4354
3719.07-273868-441382-430242-462090-331262 499958
3721.96 607800-185646-544956-611314-370460 47772
3724.86-34318-203792 677918 830188-67314-249144
3727.75-361860-438954-481588-437878-356898-42520
3730.64-33264 1289664 3676400 2063062 11004-12322
3733.54 429732 1613316 2175496 1758982 819334 2687600
3736.43 3293196 621550 77460 447904 85630-315520
3739.32-318598-120552 206704 493668 83518-46630
3742.21 25492 504136 1928966 6336268 10011890 5582220
3745.11 938404 315600-111820 87116 341206 461572
3748.00 614462 4051270 7003432 3434070 605022 688246
3750.89 839998 4962570 7437032 2577052 41392 81642
3753.78-222640-290312-343084-339424 131136 670706
3756.68-61102-452274-413756-136696 152398 845098
3759.57 828452-201216-549900-596270-605878-595166
3762.46-627126-582920-630818-605968-564416 114718
3765.35 646708-216974-623640-577154-671436-545518
3768.25-514504-105774 1457590 1241036-318776-583904
3771.14-535784-532070-674260-808794-845822-815664
3774.03-796802-762948-811074-746870-646684-665958
3776.93-771306-690784-641386-372998 725596 607474
3779.82-457074-652170-744886-804416-733132-712590
3782.71-668826-613542-494586-268686-316304-563086
3785.60-676816-591490-584882-626666-653462-635488
3788.50-696012-747520-714064-688150-673542-739780
3791.39-739898-701572-700310-590616-516778-551286
3794.28-593288-510170-269308 709000 656220-277940
3797.17-266840-360076-455140-214836-304132 217766
3800.07 637068 4014624 6422204 2180730 292744 555578
3802.96-118400-402808-382918-329676-304398-61122
3805.85 741326 3752134 3384010 420092-253170-394988
3808.75-438424-487118-419826-359472-321140-348806
3811.64-419596-337900-326446-219334-176036 123274
3814.53 207540 2073068 6591154 4670156 548810 205770
3817.42-53114 43814 42762 234944 394018 1656322
3820.32 2641686 2463362 3237396 1719492 210866 252444
3823.21 29282 63100-70306 22602 97552 196018
3826.10 846078 667562 51950 119710 137112 56604
3828.99 65926 190526 293992 461404 1688460 1918114
3831.89 594572 219406 157798 184426 612978 2252214
3834.78 2203046 644938 680590 981286 2003686 6731586
3837.67 6256526 1665960 853678 1227502 1428884 1500108
3840.57 2175882 1291050 567202 686942 755430 1517384
3843.46 1695284 896892 581830 613662 691964 624578
3846.35 599320 659124 612600 614946 774580 883822
3849.24 1128328 1194526 1363904 1422204 4598688 7077630
3852.14 3802082 2532940 5985170 11226940 9294594 3296446
3855.03 1452886 1298234 1382778 1780926 1745330 1138846
3857.92 1086876 1046170 1124574 1192552 1245402 1359550
3860.81 1990808 2677470 1787690 1272220 1392862 1547372
3863.71 1769992 3114626 4291888 2552460 1505228 1464450
3866.60 1221278 1326956 1268882 1612370 2772516 3586002
3869.49 5524514 4503932 1873612 1710980 1312888 1233540
3872.39 1313682 1500408 2137182 2669078 1927436 1098822
3875.28 1108276 1094006 955362 987982 1065822 1041478
3878.17 1083504 1127572 1694112 2816052 2459986 1607772
3881.06 1229536 890076 833580 998120 966552 784720
3883.96 975398 1296394 3518346 4349946 2026862 782308
3886.85 541946 605254 624172 649736 618814 578122
3889.74 593302 1287218 3070574 2361434 736110 538456
3892.63 463856 372414 393512 405938 304012 252192
3895.53 171190 202570 285132 331850 633370 613146
3898.42 1430150 2574164 1360056 477126 393734 1246112
3901.31 2819850 1760748 515934 475804 1520556 2960216
3904.21 1766016 553706 768620 873978 453848 101614
3907.10 87510 135632 92540-17770-48446-18544
3909.99 104106 133760 107050 175226 115940 36854
3912.88 9150 27684 49380 87240 50398 155080
3915.78 308192 492940 1182864 678436-46806 139022
3918.67 127022 439850 888094 310828-93652 165350
3921.56 97850-25432 107766 323060 423946 349322
3924.45 572402 501920 98178 45490 101422 188046
3927.35 206220 124232 91996 278236 349328 280912
3930.24 200662 126596 331648 796020 747700 304238
3933.13 180326 301908 286404 138754 53588 69524
3936.03 121532 120858 144770 185516 322254 273742
3938.92 257724 275742 163902 157182 210342 330864
3941.81 584864 729444 262220-22956 220172 347456
3944.70 247696 344136 508266 581302 747532 797804
3947.60 680060 642198 601014 318060 92462 126054
3950.49 198234 228956 257140 245948 363162 410040
3953.38 239360 272132 374914 434072 428546 355124
3956.27 381012 416200 435480 560552 659072 551854
3959.17 548370 570374 572778 618456 626090 655900
3962.06 581984 591610 589340 582376 698104 677714
3964.95 684644 744702 800618 921064 938538 885474
3967.85 817790 871178 1019332 962922 1004162 1048564
3970.74 1115478 1199590 1148326 1234040 1252404 1203796
3973.63 1227488 1148526 1136558
##END=
