##TITLE=TRIPHENYLSILANE
##JCAMP-DX=4.24
##DATA TYPE=INFRARED SPECTRUM
##CLASS=COBLENTZ II
##ORIGIN=DOW CORNING CORP.
##OWNER=COBLENTZ SOCIETY
Collection (C) 2018 copyright by the U.S. Secretary of Commerce
on behalf of the United States of America. All rights reserved.
##DATE=1965/09/09
##CAS REGISTRY NO=789-25-3
##MOLFORM=C18 H16 Si
##MP=43-44 C
##SOURCE REFERENCE=COBLENTZ NO. 5543
##$NIST SOURCE=COBLENTZ
##$NIST IMAGE=cob5543
##SPECTROMETER/DATA SYSTEM=PERKIN-ELMER 521 (GRATING)
##INSTRUMENT PARAMETERS=FILTERS AT 3150, 2500, 2000, 1150, 700, 410. GRATING CHANGES: 2000, 630 CM^-^1
##STATE=SOLUTION (10% IN CCl4 FOR 3800-1300, 2% IN CS2 FOR 1300-650, AND 10% IN CCl4 FOR 650-250)
##PATH LENGTH=0.011 CM, 0.011 CM, AND 0.020 CM
$$ 98% PURE BY GLC
##SAMPLING PROCEDURE=TRANSMISSION
##RESOLUTION=2
##DATA PROCESSING=DIGITIZED BY NIST FROM HARD COPY (FROM TWO SEGMENTS)
##XUNITS=1/CM
##YUNITS=TRANSMITTANCE
##XFACTOR=1.000000
##YFACTOR=1
##DELTAX=0.920600
##FIRSTX=261.91
##LASTX=3803.46
##FIRSTY=0.821
##MAXX=3803.46
##MINX=261.91
##MAXY=0.894
##MINY=0.0410139
##NPOINTS=3848
##XYDATA=(X++(Y..Y))
261.910000 0.8210 0.8200 0.8190 0.8190 0.8170
266.513002 0.8170 0.8170 0.8160 0.8160 0.8210
271.116005 0.8210 0.8210 0.8200 0.8110 0.8070
275.719007 0.8070 0.8140 0.8150 0.8150 0.8110
280.322009 0.8070 0.8050 0.8050 0.8040 0.8020
284.925012 0.8020 0.8020 0.8040 0.8050 0.8060
289.528014 0.8070 0.8090 0.8090 0.8100 0.8110
294.131016 0.8120 0.8140 0.8150 0.8160 0.8170
298.734019 0.8190 0.8190 0.8190 0.8170 0.8170
303.337021 0.8190 0.8190 0.8200 0.8200 0.8210
307.940024 0.8220 0.8220 0.8240 0.8250 0.8270
312.543026 0.8290 0.8290 0.8290 0.8290 0.8290
317.146028 0.8300 0.8310 0.8320 0.8350 0.8350
321.749031 0.8350 0.8360 0.8360 0.8360 0.8360
326.352033 0.8370 0.8390 0.8390 0.8390 0.8390
330.955035 0.8370 0.8370 0.8350 0.8350 0.8340
335.558038 0.8340 0.8320 0.8320 0.8310 0.8300
340.161040 0.8300 0.8290 0.8270 0.8270 0.8260
344.764042 0.8250 0.8250 0.8240 0.8220 0.8220
349.367045 0.8210 0.8200 0.8200 0.8190 0.8170
353.970047 0.8170 0.8160 0.8150 0.8150 0.8140
358.573049 0.8120 0.8110 0.8020 0.7960 0.7910
363.176052 0.7880 0.7850 0.7810 0.7800 0.7790
367.779054 0.7760 0.7730 0.7640 0.7530 0.7480
372.382057 0.7410 0.7330 0.7240 0.7180 0.7130
376.985059 0.7100 0.7000 0.6970 0.6920 0.6850
381.588061 0.6820 0.6720 0.6550 0.6530 0.6520
386.191064 0.6520 0.6530 0.6570 0.6600 0.6640
390.794066 0.6680 0.6720 0.6740 0.6750 0.6780
395.397068 0.6800 0.6820 0.6830 0.6830 0.6840
400.000071 0.6830 0.6800 0.6770 0.6720 0.6700
404.603073 0.6650 0.6580 0.6480 0.6370 0.6231
409.206075 0.6080 0.5910 0.5720 0.5520 0.5290
413.809078 0.5041 0.4701 0.4401 0.4350 0.4280
418.412080 0.4170 0.4010 0.3970 0.3940 0.3840
423.015082 0.3810 0.3840 0.4009 0.4080 0.4219
427.618085 0.4350 0.4580 0.4810 0.5020 0.5210
432.221087 0.5479 0.5789 0.5939 0.6189 0.6190
436.824090 0.6290 0.6450 0.6480 0.6530 0.6550
441.427092 0.6570 0.6570 0.6580 0.6580 0.6580
446.030094 0.6580 0.6570 0.6550 0.6550 0.6540
450.633097 0.6500 0.6480 0.6420 0.6370 0.6191
455.236099 0.6000 0.5790 0.5560 0.5310 0.5041
459.839101 0.4771 0.4461 0.4131 0.3971 0.3801
464.442104 0.3420 0.3040 0.2610 0.2081 0.1631
469.045106 0.1570 0.1381 0.1171 0.1140 0.1130
473.648108 0.1130 0.1130 0.1100 0.1100 0.0990
478.251111 0.0960 0.0920 0.0840 0.0720 0.0630
482.854113 0.0610 0.0580 0.0570 0.0560 0.0560
487.457115 0.0540 0.0540 0.0560 0.0560 0.0570
492.060118 0.0580 0.0580 0.0610 0.0620 0.0670
496.663120 0.0690 0.0989 0.1179 0.1190 0.1867
501.266123 0.1880 0.2200 0.2540 0.2800 0.3998
505.869125 0.4319 0.4649 0.4919 0.5129 0.5289
510.472127 0.5430 0.5530 0.5620 0.5680 0.5740
515.075130 0.5790 0.5860 0.5890 0.5960 0.6069
519.678132 0.6220 0.6350 0.6490 0.6570 0.6720
524.281134 0.7049 0.7150 0.7240 0.7330 0.7439
528.884137 0.7510 0.7550 0.7580 0.7600 0.7630
533.487139 0.7650 0.7660 0.7680 0.7690 0.7700
538.090141 0.7760 0.7780 0.7780 0.7780 0.7760
542.693144 0.7760 0.7760 0.7760 0.7760 0.7760
547.296146 0.7750 0.7750 0.7750 0.7760 0.7780
551.899148 0.7790 0.7790 0.7830 0.7880 0.7880
556.502151 0.7890 0.7890 0.7890 0.7890 0.7900
561.105153 0.7900 0.7900 0.7900 0.7900 0.7910
565.708156 0.7910 0.7910 0.7910 0.7910 0.7910
570.311158 0.7930 0.7950 0.7950 0.7950 0.7960
574.914160 0.7960 0.7960 0.7960 0.7960 0.7980
579.517163 0.7980 0.7980 0.7980 0.7990 0.7990
584.120165 0.7990 0.7990 0.7990 0.8000 0.8000
588.723167 0.8000 0.8000 0.8010 0.8010 0.8010
593.326170 0.8020 0.8040 0.8040 0.8050 0.8050
597.929172 0.8060 0.8070 0.8070 0.8090 0.8090
602.532174 0.8090 0.8090 0.8070 0.8070 0.8070
607.135177 0.8060 0.8050 0.7940 0.7930 0.7890
611.738179 0.7840 0.7840 0.7800 0.7800 0.7740
616.341181 0.7710 0.7710 0.7740 0.7899 0.7950
620.944184 0.7960 0.7960 0.7940 0.7910 0.7900
625.547186 0.7880 0.7860 0.7850 0.7850 0.7830
630.150189 0.7800 0.7790 0.7780 0.7780 0.7760
634.753191 0.7760 0.7750 0.7750 0.7740 0.7730
639.356193 0.7730 0.7730 0.7710 0.7710 0.7710
643.959196 0.7730 0.7740 0.7740 0.7760 0.7790
648.562198 0.7830 0.7980 0.8270 0.8270 0.8260
653.165200 0.8260 0.8250 0.8240 0.8220 0.8210
657.768203 0.8200 0.8200 0.8170 0.8150 0.8150
662.371205 0.8090 0.8010 0.8000 0.7990 0.7990
666.974207 0.7990 0.7980 0.7980 0.7950 0.7910
671.577210 0.7830 0.7800 0.7790 0.7780 0.7760
676.180212 0.7750 0.7740 0.7740 0.7750 0.7780
680.783214 0.7980 0.7980 0.7960 0.7900 0.7850
685.386217 0.7810 0.7800 0.7750 0.7540 0.7200
689.989219 0.7030 0.6850 0.6800 0.6222 0.5413
694.592222 0.5079 0.4510 0.4230 0.4110 0.3970
699.195224 0.4409 0.4829 0.5239 0.5260 0.5419
703.798226 0.5580 0.5740 0.6050 0.6080 0.6250
708.401229 0.6440 0.6620 0.6800 0.7079 0.7180
713.004231 0.7380 0.7400 0.7400 0.7340 0.7260
717.607233 0.7150 0.7050 0.7010 0.6970 0.6731
722.210236 0.6090 0.5760 0.5540 0.4830 0.4410
726.813238 0.3971 0.3691 0.3421 0.3161 0.3160
731.416240 0.3410 0.3670 0.4170 0.4450 0.4700
736.019243 0.4910 0.5120 0.5369 0.5520 0.5958
740.622245 0.6401 0.7240 0.7530 0.7650 0.7780
745.225247 0.7910 0.8020 0.8040 0.8070 0.8100
749.828250 0.8110 0.8120 0.8140 0.8140 0.8140
754.431252 0.8140 0.8140 0.8140 0.8140 0.8140
759.034255 0.8140 0.8140 0.8140 0.8140 0.8120
763.637257 0.8120 0.8120 0.8140 0.8140 0.8120
768.240259 0.8100 0.8100 0.8060 0.8020 0.8000
772.843262 0.7980 0.7960 0.7960 0.7950 0.7930
777.446264 0.7910 0.7880 0.7840 0.7780 0.7680
782.049266 0.7650 0.7590 0.7530 0.7460 0.7350
786.652269 0.7250 0.7160 0.7080 0.6800 0.6520
791.255271 0.6340 0.6001 0.5661 0.5291 0.4931
795.858273 0.4580 0.4230 0.3950 0.3650 0.3100
800.461276 0.2561 0.2011 0.2010 0.2249 0.2479
805.064278 0.2700 0.2900 0.3040 0.3200 0.4049
809.667280 0.4509 0.4869 0.5209 0.5569 0.5819
814.270283 0.6100 0.6300 0.6570 0.6770 0.7080
818.873285 0.7240 0.7400 0.7550 0.7640 0.7700
823.476288 0.7740 0.7780 0.7790 0.7800 0.7830
828.079290 0.7940 0.7960 0.8010 0.8020 0.8040
832.682292 0.8050 0.8060 0.8070 0.8090 0.8090
837.285295 0.8100 0.8110 0.8110 0.8100 0.8100
841.888297 0.8090 0.8090 0.8090 0.8070 0.8060
846.491299 0.8050 0.8050 0.8060 0.8090 0.8100
851.094302 0.8150 0.8160 0.8190 0.8200 0.8210
855.697304 0.8220 0.8240 0.8250 0.8260 0.8290
860.300306 0.8300 0.8310 0.8320 0.8320 0.8320
864.903309 0.8320 0.8310 0.8310 0.8300 0.8300
869.506311 0.8310 0.8320 0.8320 0.8340 0.8350
874.109313 0.8350 0.8360 0.8360 0.8360 0.8370
878.712316 0.8370 0.8370 0.8360 0.8360 0.8360
883.315318 0.8360 0.8360 0.8360 0.8360 0.8360
887.918321 0.8360 0.8350 0.8350 0.8320 0.8320
892.521323 0.8320 0.8320 0.8320 0.8320 0.8310
897.124325 0.8310 0.8310 0.8310 0.8310 0.8310
901.727328 0.8310 0.8310 0.8320 0.8320 0.8320
906.330330 0.8320 0.8340 0.8340 0.8340 0.8340
910.933332 0.8340 0.8320 0.8320 0.8320 0.8320
915.536335 0.8340 0.8340 0.8340 0.8340 0.8340
920.139337 0.8340 0.8340 0.8340 0.8340 0.8340
924.742339 0.8340 0.8350 0.8350 0.8350 0.8350
929.345342 0.8350 0.8350 0.8350 0.8360 0.8360
933.948344 0.8360 0.8360 0.8360 0.8360 0.8360
938.551346 0.8360 0.8360 0.8360 0.8360 0.8360
943.154349 0.8360 0.8350 0.8350 0.8350 0.8350
947.757351 0.8340 0.8350 0.8350 0.8350 0.8340
952.360354 0.8340 0.8340 0.8320 0.8320 0.8320
956.963356 0.8310 0.8310 0.8300 0.8300 0.8300
961.566358 0.8300 0.8300 0.8300 0.8300 0.8300
966.169361 0.8300 0.8300 0.8300 0.8290 0.8290
970.772363 0.8290 0.8290 0.8270 0.8270 0.8270
975.375365 0.8270 0.8250 0.8250 0.8250 0.8240
979.978368 0.8240 0.8220 0.8200 0.8200 0.8190
984.581370 0.8170 0.8170 0.8160 0.8150 0.8140
989.184372 0.8120 0.8120 0.8110 0.8090 0.8060
993.787375 0.8050 0.7990 0.7790 0.7610 0.7610
998.390377 0.8060 0.8110 0.8110 0.8100 0.8090
1002.993379 0.8070 0.8070 0.8050 0.8020 0.8010
1007.596382 0.8010 0.8010 0.8010 0.8000 0.8000
1012.199384 0.7990 0.7990 0.7980 0.7980 0.7960
1016.802387 0.7960 0.7950 0.7950 0.7910 0.7890
1021.405389 0.7880 0.7850 0.7790 0.7740 0.7650
1026.008391 0.7650 0.7850 0.7910 0.7910 0.7940
1030.611394 0.7950 0.7950 0.7980 0.7980 0.7960
1035.214396 0.7950 0.7950 0.7960 0.7960 0.7990
1039.817398 0.7990 0.7980 0.7980 0.7980 0.7960
1044.420401 0.7960 0.7960 0.7940 0.7940 0.7930
1049.023403 0.7930 0.7910 0.7910 0.7880 0.7850
1053.626405 0.7840 0.7830 0.7830 0.7810 0.7800
1058.229408 0.7780 0.7740 0.7680 0.7650 0.7650
1062.832410 0.7680 0.7700 0.7730 0.7760 0.7780
1067.435412 0.7790 0.7790 0.7800 0.7800 0.7790
1072.038415 0.7790 0.7790 0.7780 0.7780 0.7750
1076.641417 0.7750 0.7750 0.7740 0.7730 0.7700
1081.244420 0.7690 0.7690 0.7680 0.7650 0.7630
1085.847422 0.7600 0.7600 0.7580 0.7550 0.7500
1090.450424 0.7450 0.7400 0.7360 0.7340 0.7310
1095.053427 0.7240 0.7150 0.7080 0.7040 0.6990
1099.656429 0.6900 0.6820 0.6730 0.6640 0.6550
1104.259431 0.6470 0.6330 0.6180 0.6020 0.5811
1108.862434 0.5530 0.5229 0.4630 0.4630 0.4820
1113.465436 0.4900 0.5020 0.5259 0.5410 0.5579
1118.068438 0.5760 0.5940 0.6100 0.6620 0.6640
1122.671441 0.6770 0.7030 0.7150 0.7280 0.7380
1127.274443 0.7480 0.7600 0.7650 0.7740 0.7740
1131.877445 0.7790 0.7840 0.7880 0.7910 0.7940
1136.480448 0.7950 0.7960 0.7960 0.7980 0.7980
1141.083450 0.7980 0.7980 0.7980 0.7980 0.7980
1145.686453 0.7980 0.7980 0.7980 0.7980 0.7980
1150.289455 0.7980 0.7980 0.7990 0.7990 0.7990
1154.892457 0.8000 0.8000 0.8010 0.8040 0.8050
1159.495460 0.8060 0.8060 0.8070 0.8070 0.8090
1164.098462 0.8090 0.8090 0.8070 0.8070 0.8070
1168.701464 0.8070 0.8060 0.8050 0.8050 0.8020
1173.304467 0.8000 0.7990 0.7980 0.7980 0.7960
1177.907469 0.7950 0.7950 0.7940 0.7940 0.7940
1182.510471 0.7940 0.7950 0.7960 0.7990 0.8000
1187.113474 0.8000 0.8020 0.8050 0.8090 0.8170
1191.716476 0.8240 0.8250 0.8260 0.8270 0.8290
1196.319478 0.8290 0.8300 0.8310 0.8310 0.8320
1200.922481 0.8340 0.8340 0.8340 0.8340 0.8350
1205.525483 0.8350 0.8350 0.8350 0.8350 0.8350
1210.128486 0.8350 0.8360 0.8360 0.8360 0.8360
1214.731488 0.8350 0.8350 0.8350 0.8350 0.8350
1219.334490 0.8350 0.8360 0.8370 0.8370 0.8370
1223.937493 0.8370 0.8370 0.8370 0.8360 0.8350
1228.540495 0.8350 0.8350 0.8350 0.8350 0.8350
1233.143497 0.8350 0.8350 0.8350 0.8350 0.8350
1237.746500 0.8350 0.8350 0.8340 0.8340 0.8320
1242.349502 0.8320 0.8320 0.8310 0.8300 0.8290
1246.952504 0.8270 0.8270 0.8250 0.8240 0.8210
1251.555507 0.8200 0.8170 0.8150 0.8140 0.8120
1256.158509 0.8120 0.8110 0.8110 0.8110 0.8100
1260.761511 0.8100 0.8090 0.8090 0.8090 0.8070
1265.364514 0.8070 0.8090 0.8090 0.8100 0.8110
1269.967516 0.8120 0.8140 0.8150 0.8160 0.8170
1274.570519 0.8200 0.8210 0.8240 0.8250 0.8270
1279.173521 0.8300 0.8300 0.8310 0.8310 0.8310
1283.776523 0.8300 0.8290 0.8270 0.8260 0.8250
1288.379526 0.8220 0.8190 0.8150 0.8120 0.8100
1292.982528 0.8070 0.8060 0.8050 0.8050 0.8050
1297.585530 0.8050 0.8060 0.8060 0.8070 0.8090
1302.188533 0.8100 0.8110 0.8140 0.8150 0.8190
1306.791535 0.8200 0.8210 0.8210 0.8190 0.8170
1311.394537 0.8150 0.8140 0.8100 0.8070 0.8060
1315.997540 0.8010 0.7980 0.7900 0.7790 0.7690
1320.600542 0.7630 0.7540 0.7480 0.7350 0.7330
1325.203544 0.7310 0.7330 0.7340 0.7390 0.7530
1329.806547 0.7761 0.7990 0.8170 0.8270 0.8370
1334.409549 0.8490 0.8520 0.8540 0.8540 0.8550
1339.012552 0.8550 0.8560 0.8560 0.8560 0.8570
1343.615554 0.8570 0.8590 0.8590 0.8590 0.8590
1348.218556 0.8590 0.8590 0.8590 0.8590 0.8600
1352.821559 0.8600 0.8600 0.8600 0.8600 0.8600
1357.424561 0.8600 0.8590 0.8570 0.8500 0.8460
1362.027563 0.8440 0.8420 0.8400 0.8370 0.8320
1366.630566 0.8190 0.8110 0.8000 0.7980 0.7990
1371.233568 0.8050 0.8100 0.8150 0.8170 0.8260
1375.836570 0.8340 0.8390 0.8440 0.8470 0.8510
1380.439573 0.8540 0.8570 0.8590 0.8600 0.8610
1385.042575 0.8610 0.8610 0.8610 0.8620 0.8620
1389.645577 0.8620 0.8620 0.8640 0.8640 0.8640
1394.248580 0.8640 0.8620 0.8620 0.8620 0.8610
1398.851582 0.8610 0.8610 0.8600 0.8600 0.8570
1403.454585 0.8560 0.8550 0.8540 0.8510 0.8420
1408.057587 0.8390 0.8360 0.8350 0.8300 0.8240
1412.660589 0.8170 0.8110 0.8049 0.7710 0.7510
1417.263592 0.7310 0.7110 0.6990 0.6850 0.6541
1421.866594 0.5518 0.4957 0.3467 0.1989 0.1190
1426.469596 0.0810 0.0410 0.1479 0.2089 0.2599
1431.072599 0.3450 0.7031 0.7351 0.7640 0.7850
1435.675601 0.7990 0.8110 0.8170 0.8210 0.8250
1440.278603 0.8350 0.8390 0.8400 0.8410 0.8410
1444.881606 0.8410 0.8410 0.8420 0.8420 0.8440
1449.484608 0.8450 0.8450 0.8470 0.8470 0.8470
1454.087610 0.8460 0.8450 0.8440 0.8440 0.8420
1458.690613 0.8410 0.8400 0.8400 0.8390 0.8370
1463.293615 0.8360 0.8360 0.8320 0.8310 0.8310
1467.896618 0.8310 0.8250 0.8220 0.8120 0.8060
1472.499620 0.8020 0.7940 0.7840 0.7710 0.7610
1477.102622 0.7530 0.7460 0.7310 0.7050 0.6970
1481.705625 0.6870 0.6640 0.6600 0.6001 0.6000
1486.308627 0.6641 0.7151 0.7691 0.7980 0.8160
1490.911629 0.8320 0.8400 0.8490 0.8540 0.8550
1495.514632 0.8570 0.8590 0.8600 0.8610 0.8640
1500.117634 0.8650 0.8650 0.8660 0.8660 0.8660
1504.720636 0.8670 0.8670 0.8670 0.8670 0.8670
1509.323639 0.8670 0.8660 0.8660 0.8660 0.8660
1513.926641 0.8660 0.8660 0.8660 0.8660 0.8660
1518.529643 0.8660 0.8660 0.8660 0.8660 0.8660
1523.132646 0.8660 0.8660 0.8660 0.8650 0.8650
1527.735648 0.8650 0.8640 0.8640 0.8640 0.8620
1532.338651 0.8620 0.8610 0.8610 0.8610 0.8610
1536.941653 0.8610 0.8610 0.8610 0.8600 0.8590
1541.544655 0.8570 0.8550 0.8520 0.8510 0.8500
1546.147658 0.8490 0.8490 0.8500 0.8500 0.8500
1550.750660 0.8510 0.8510 0.8520 0.8520 0.8510
1555.353662 0.8490 0.8470 0.8470 0.8420 0.8390
1559.956665 0.8359 0.7980 0.7890 0.7790 0.7750
1564.559667 0.7750 0.7880 0.7990 0.8150 0.8260
1569.162669 0.8300 0.8300 0.8290 0.8260 0.8240
1573.765672 0.8150 0.8070 0.8020 0.7990 0.7960
1578.368674 0.7940 0.7910 0.7860 0.7630 0.7260
1582.971676 0.7040 0.6920 0.6780 0.6520 0.6241
1587.574679 0.6242 0.7031 0.7391 0.8190 0.8270
1592.177681 0.8360 0.8390 0.8420 0.8420 0.8450
1596.780684 0.8450 0.8460 0.8470 0.8490 0.8490
1601.383686 0.8490 0.8470 0.8460 0.8460 0.8450
1605.986688 0.8390 0.8370 0.8360 0.8340 0.8340
1610.589691 0.8320 0.8320 0.8320 0.8340 0.8370
1615.192693 0.8420 0.8470 0.8510 0.8540 0.8560
1619.795695 0.8570 0.8570 0.8590 0.8600 0.8600
1624.398698 0.8610 0.8620 0.8620 0.8610 0.8610
1629.001700 0.8600 0.8590 0.8590 0.8550 0.8510
1633.604702 0.8490 0.8460 0.8450 0.8370 0.8340
1638.207705 0.8290 0.8250 0.8200 0.8170 0.8170
1642.810707 0.8160 0.8160 0.8160 0.8170 0.8190
1647.413709 0.8200 0.8200 0.8210 0.8220 0.8290
1652.016712 0.8300 0.8320 0.8420 0.8460 0.8490
1656.619714 0.8510 0.8520 0.8520 0.8540 0.8550
1661.222717 0.8550 0.8550 0.8560 0.8570 0.8570
1665.825719 0.8570 0.8590 0.8590 0.8600 0.8600
1670.428721 0.8600 0.8600 0.8610 0.8610 0.8620
1675.031724 0.8620 0.8620 0.8640 0.8640 0.8640
1679.634726 0.8650 0.8650 0.8650 0.8650 0.8660
1684.237728 0.8660 0.8660 0.8650 0.8660 0.8660
1688.840731 0.8660 0.8660 0.8660 0.8660 0.8660
1693.443733 0.8660 0.8660 0.8660 0.8660 0.8660
1698.046735 0.8660 0.8660 0.8660 0.8660 0.8660
1702.649738 0.8660 0.8660 0.8650 0.8650 0.8650
1707.252740 0.8650 0.8650 0.8650 0.8650 0.8650
1711.855742 0.8650 0.8650 0.8660 0.8660 0.8660
1716.458745 0.8640 0.8640 0.8640 0.8640 0.8650
1721.061747 0.8670 0.8670 0.8650 0.8650 0.8650
1725.664750 0.8650 0.8650 0.8650 0.8660 0.8660
1730.267752 0.8660 0.8660 0.8660 0.8660 0.8660
1734.870754 0.8650 0.8650 0.8650 0.8650 0.8650
1739.473757 0.8640 0.8640 0.8640 0.8640 0.8640
1744.076759 0.8640 0.8620 0.8620 0.8620 0.8610
1748.679761 0.8610 0.8600 0.8600 0.8560 0.8540
1753.282764 0.8510 0.8490 0.8470 0.8440 0.8420
1757.885766 0.8400 0.8360 0.8320 0.8300 0.8270
1762.488768 0.8260 0.8250 0.8250 0.8260 0.8270
1767.091771 0.8290 0.8300 0.8310 0.8320 0.8320
1771.694773 0.8340 0.8340 0.8340 0.8360 0.8400
1776.297775 0.8500 0.8550 0.8600 0.8600 0.8610
1780.900778 0.8610 0.8620 0.8640 0.8640 0.8640
1785.503780 0.8640 0.8640 0.8640 0.8620 0.8620
1790.106783 0.8610 0.8610 0.8600 0.8600 0.8600
1794.709785 0.8590 0.8570 0.8560 0.8540 0.8510
1799.312787 0.8500 0.8490 0.8490 0.8470 0.8460
1803.915790 0.8450 0.8440 0.8410 0.8350 0.8300
1808.518792 0.8210 0.8140 0.8020 0.7930 0.7830
1813.121794 0.7710 0.7650 0.7640 0.7630 0.7630
1817.724797 0.7660 0.7700 0.7730 0.7800 0.7900
1822.327799 0.8050 0.8120 0.8160 0.8200 0.8210
1826.930801 0.8210 0.8220 0.8240 0.8240 0.8250
1831.533804 0.8260 0.8270 0.8290 0.8340 0.8410
1836.136806 0.8460 0.8510 0.8540 0.8570 0.8600
1840.739808 0.8620 0.8620 0.8640 0.8650 0.8650
1845.342811 0.8660 0.8660 0.8660 0.8670 0.8670
1849.945813 0.8670 0.8670 0.8670 0.8670 0.8660
1854.548816 0.8660 0.8660 0.8660 0.8660 0.8650
1859.151818 0.8650 0.8640 0.8640 0.8620 0.8620
1863.754820 0.8610 0.8600 0.8590 0.8550 0.8510
1868.357823 0.8500 0.8490 0.8450 0.8370 0.8320
1872.960825 0.8299 0.8160 0.8040 0.7950 0.7860
1877.563827 0.7790 0.7700 0.7630 0.7600 0.7600
1882.166830 0.7710 0.7760 0.7830 0.7880 0.7930
1886.769832 0.7980 0.8000 0.8010 0.8010 0.8010
1891.372834 0.8000 0.8000 0.7990 0.7960 0.7940
1895.975837 0.7910 0.7900 0.7910 0.7980 0.8000
1900.578839 0.8110 0.8200 0.8290 0.8400 0.8470
1905.181841 0.8540 0.8570 0.8600 0.8600 0.8600
1909.784844 0.8610 0.8610 0.8620 0.8640 0.8660
1914.387846 0.8670 0.8690 0.8700 0.8700 0.8700
1918.990849 0.8700 0.8700 0.8690 0.8690 0.8690
1923.593851 0.8690 0.8690 0.8690 0.8690 0.8670
1928.196853 0.8670 0.8670 0.8670 0.8660 0.8660
1932.799856 0.8660 0.8660 0.8650 0.8640 0.8610
1937.402858 0.8570 0.8550 0.8510 0.8460 0.8420
1942.005860 0.8360 0.8310 0.8250 0.8190 0.8110
1946.608863 0.8040 0.7940 0.7810 0.7710 0.7640
1951.211865 0.7560 0.7550 0.7580 0.7660 0.7800
1955.814867 0.7900 0.8010 0.8050 0.8190 0.8200
1960.417870 0.8190 0.8160 0.8140 0.8110 0.8060
1965.020872 0.8020 0.7990 0.7960 0.7960 0.8000
1969.623874 0.8090 0.8190 0.8340 0.8460 0.8510
1974.226877 0.8560 0.8590 0.8610 0.8620 0.8640
1978.829879 0.8640 0.8650 0.8650 0.8660 0.8660
1983.432882 0.8670 0.8670 0.8690 0.8690 0.8700
1988.035884 0.8700 0.8710 0.8710 0.8720 0.8720
1992.638886 0.8740 0.8740 0.8740 0.8720 0.8720
1997.241889 0.8720 0.8710 0.8690 0.8670 0.8635
2001.844891 0.8600 0.8560 0.8519 0.8469 0.8421
2006.447893 0.8491 0.8561 0.8611 0.8660 0.8675
2011.050896 0.8690 0.8690 0.8690 0.8695 0.8700
2015.653898 0.8700 0.8700 0.8705 0.8710 0.8715
2020.256900 0.8720 0.8720 0.8720 0.8720 0.8720
2024.859903 0.8720 0.8720 0.8720 0.8720 0.8720
2029.462905 0.8720 0.8720 0.8720 0.8720 0.8720
2034.065907 0.8720 0.8720 0.8720 0.8720 0.8720
2038.668910 0.8720 0.8720 0.8720 0.8720 0.8720
2043.271912 0.8720 0.8719 0.8714 0.8710 0.8710
2047.874915 0.8709 0.8704 0.8700 0.8700 0.8699
2052.477917 0.8694 0.8690 0.8690 0.8690 0.8690
2057.080919 0.8688 0.8678 0.8670 0.8670 0.8670
2061.683922 0.8670 0.8669 0.8664 0.8659 0.8654
2066.286924 0.8646 0.8631 0.8619 0.8614 0.8608
2070.889926 0.8597 0.8586 0.8571 0.8557 0.8547
2075.492929 0.8536 0.8521 0.8507 0.8497 0.8486
2080.095931 0.8471 0.8454 0.8434 0.8415 0.8400
2084.698933 0.8384 0.8364 0.8334 0.8284 0.8240
2089.301936 0.8210 0.8183 0.8163 0.8136 0.8096
2093.904938 0.8054 0.8009 0.7948 0.7857 0.7762
2098.507940 0.7657 0.7548 0.7432 0.7321 0.7216
2103.110943 0.7127 0.7067 0.7005 0.6940 0.6850
2107.713945 0.6719 0.6576 0.6414 0.6230 0.6015
2112.316948 0.5757 0.5441 0.5089 0.4688 0.4386
2116.919950 0.4216 0.4043 0.3868 0.3564 0.3098
2121.522952 0.2818 0.2768 0.2711 0.2645 0.2585
2126.125955 0.2530 0.2495 0.2485 0.2480 0.2480
2130.728957 0.2485 0.2495 0.2520 0.2560 0.2610
2135.331959 0.2670 0.2753 0.2858 0.2961 0.3061
2139.934962 0.3113 0.3118 0.3258 0.3524 0.3842
2144.537964 0.4208 0.4461 0.4612 0.4769 0.4929
2149.140966 0.5081 0.5227 0.5381 0.5541 0.5696
2153.743969 0.5846 0.5988 0.6123 0.6258 0.6394
2158.346971 0.6520 0.6641 0.6820 0.7040 0.7184
2162.949973 0.7274 0.7365 0.7456 0.7534 0.7604
2167.552976 0.7668 0.7728 0.7769 0.7799 0.7836
2172.155978 0.7876 0.7903 0.7923 0.7953 0.7988
2176.758981 0.8016 0.8041 0.8080 0.8125 0.8167
2181.361983 0.8207 0.8237 0.8262 0.8294 0.8329
2185.964985 0.8347 0.8357 0.8381 0.8411 0.8434
2190.567988 0.8454 0.8460 0.8460 0.8471 0.8486
2195.170990 0.8497 0.8507 0.8514 0.8519 0.8520
2199.773992 0.8520 0.8527 0.8538 0.8548 0.8558
2204.376995 0.8564 0.8569 0.8570 0.8570 0.8551
2208.979997 0.8525 0.8516 0.8511 0.8510 0.8510
2213.582999 0.8514 0.8519 0.8528 0.8538 0.8548
2218.186002 0.8558 0.8564 0.8569 0.8578 0.8588
2222.789004 0.8582 0.8572 0.8566 0.8561 0.8543
2227.392006 0.8523 0.8520 0.8520 0.8537 0.8557
2231.995009 0.8577 0.8597 0.8617 0.8637 0.8640
2236.598011 0.8640 0.8644 0.8649 0.8650 0.8650
2241.201013 0.8650 0.8650 0.8650 0.8650 0.8650
2245.804016 0.8650 0.8650 0.8650 0.8650 0.8650
2250.407018 0.8645 0.8640 0.8640 0.8640 0.8631
2255.010021 0.8621 0.8620 0.8620 0.8615 0.8610
2259.613023 0.8610 0.8610 0.8630 0.8650 0.8650
2264.216025 0.8650 0.8650 0.8650 0.8655 0.8660
2268.819028 0.8660 0.8660 0.8655 0.8650 0.8650
2273.422030 0.8650 0.8650 0.8650 0.8650 0.8650
2278.025032 0.8645 0.8640 0.8640 0.8640 0.8640
2282.628035 0.8639 0.8629 0.8620 0.8620 0.8621
2287.231037 0.8631 0.8640 0.8640 0.8640 0.8645
2291.834039 0.8650 0.8650 0.8650 0.8650 0.8650
2296.437042 0.8650 0.8650 0.8650 0.8650 0.8650
2301.040044 0.8650 0.8650 0.8649 0.8644 0.8640
2305.643046 0.8640 0.8638 0.8623 0.8609 0.8604
2310.246049 0.8598 0.8583 0.8569 0.8564 0.8560
2314.849051 0.8560 0.8561 0.8566 0.8572 0.8582
2319.452054 0.8591 0.8596 0.8601 0.8606 0.8613
2324.055056 0.8628 0.8641 0.8646 0.8650 0.8650
2328.658058 0.8650 0.8650 0.8650 0.8650 0.8650
2333.261061 0.8650 0.8650 0.8650 0.8650 0.8650
2337.864063 0.8649 0.8644 0.8637 0.8627 0.8620
2342.467065 0.8620 0.8620 0.8620 0.8623 0.8633
2347.070068 0.8637 0.8627 0.8620 0.8620 0.8623
2351.673070 0.8633 0.8642 0.8647 0.8650 0.8650
2356.276072 0.8650 0.8650 0.8652 0.8657 0.8665
2360.879075 0.8680 0.8692 0.8697 0.8700 0.8700
2365.482077 0.8691 0.8666 0.8650 0.8650 0.8650
2370.085079 0.8650 0.8650 0.8650 0.8650 0.8650
2374.688082 0.8650 0.8650 0.8650 0.8650 0.8650
2379.291084 0.8650 0.8648 0.8643 0.8636 0.8626
2383.894087 0.8620 0.8620 0.8627 0.8642 0.8650
2388.497089 0.8650 0.8650 0.8650 0.8650 0.8650
2393.100091 0.8652 0.8657 0.8660 0.8660 0.8660
2397.703094 0.8660 0.8662 0.8667 0.8670 0.8670
2402.306096 0.8662 0.8647 0.8643 0.8648 0.8653
2406.909098 0.8658 0.8663 0.8668 0.8675 0.8685
2411.512101 0.8690 0.8690 0.8690 0.8690 0.8690
2416.115103 0.8690 0.8684 0.8674 0.8667 0.8662
2420.718105 0.8657 0.8652 0.8650 0.8650 0.8650
2425.321108 0.8650 0.8653 0.8658 0.8660 0.8660
2429.924110 0.8660 0.8660 0.8663 0.8668 0.8676
2434.527112 0.8686 0.8690 0.8690 0.8690 0.8690
2439.130115 0.8690 0.8690 0.8683 0.8673 0.8667
2443.733117 0.8662 0.8660 0.8660 0.8660 0.8660
2448.336120 0.8663 0.8668 0.8670 0.8670 0.8677
2452.939122 0.8687 0.8690 0.8690 0.8690 0.8690
2457.542124 0.8683 0.8673 0.8677 0.8687 0.8690
2462.145127 0.8690 0.8683 0.8673 0.8677 0.8687
2466.748129 0.8683 0.8673 0.8666 0.8661 0.8656
2471.351131 0.8651 0.8650 0.8650 0.8650 0.8650
2475.954134 0.8650 0.8650 0.8654 0.8659 0.8664
2480.557136 0.8669 0.8666 0.8661 0.8660 0.8660
2485.160138 0.8656 0.8651 0.8650 0.8650 0.8646
2489.763141 0.8641 0.8632 0.8622 0.8620 0.8620
2494.366143 0.8620 0.8620 0.8620 0.8620 0.8620
2498.969145 0.8620 0.8637 0.8658 0.8660 0.8660
2503.572148 0.8660 0.8660 0.8660 0.8660 0.8651
2508.175150 0.8641 0.8640 0.8640 0.8626 0.8611
2512.778153 0.8610 0.8610 0.8624 0.8639 0.8645
2517.381155 0.8650 0.8655 0.8660 0.8660 0.8660
2521.984157 0.8655 0.8650 0.8650 0.8650 0.8650
2526.587160 0.8650 0.8650 0.8650 0.8650 0.8650
2531.190162 0.8635 0.8620 0.8620 0.8620 0.8620
2535.793164 0.8620 0.8620 0.8620 0.8620 0.8620
2540.396167 0.8615 0.8610 0.8605 0.8600 0.8600
2544.999169 0.8601 0.8621 0.8640 0.8645 0.8650
2549.602171 0.8650 0.8650 0.8650 0.8650 0.8645
2554.205174 0.8639 0.8624 0.8610 0.8605 0.8600
2558.808176 0.8595 0.8590 0.8590 0.8591 0.8601
2563.411178 0.8610 0.8610 0.8610 0.8610 0.8612
2568.014181 0.8627 0.8641 0.8646 0.8649 0.8644
2572.617183 0.8640 0.8640 0.8640 0.8640 0.8637
2577.220186 0.8617 0.8595 0.8565 0.8538 0.8528
2581.823188 0.8520 0.8520 0.8522 0.8532 0.8542
2586.426190 0.8552 0.8563 0.8578 0.8590 0.8590
2591.029193 0.8590 0.8590 0.8591 0.8596 0.8600
2595.632195 0.8600 0.8601 0.8606 0.8611 0.8616
2600.235197 0.8624 0.8639 0.8650 0.8650 0.8646
2604.838200 0.8631 0.8617 0.8607 0.8596 0.8581
2609.441202 0.8567 0.8557 0.8549 0.8544 0.8537
2614.044204 0.8527 0.8523 0.8533 0.8545 0.8560
2618.647207 0.8575 0.8590 0.8603 0.8613 0.8625
2623.250209 0.8640 0.8650 0.8650 0.8650 0.8650
2627.853211 0.8650 0.8650 0.8648 0.8643 0.8640
2632.456214 0.8640 0.8644 0.8654 0.8660 0.8660
2637.059216 0.8658 0.8653 0.8650 0.8650 0.8650
2641.662219 0.8650 0.8648 0.8643 0.8640 0.8640
2646.265221 0.8642 0.8647 0.8650 0.8650 0.8650
2650.868223 0.8650 0.8652 0.8657 0.8660 0.8660
2655.471226 0.8658 0.8653 0.8650 0.8650 0.8648
2660.074228 0.8643 0.8640 0.8640 0.8640 0.8640
2664.677230 0.8640 0.8640 0.8640 0.8640 0.8640
2669.280233 0.8640 0.8635 0.8625 0.8617 0.8612
2673.883235 0.8610 0.8610 0.8607 0.8602 0.8597
2678.486237 0.8592 0.8582 0.8567 0.8557 0.8552
2683.089240 0.8547 0.8542 0.8534 0.8524 0.8520
2687.692242 0.8520 0.8520 0.8520 0.8526 0.8536
2692.295244 0.8540 0.8540 0.8543 0.8548 0.8553
2696.898247 0.8558 0.8560 0.8560 0.8560 0.8560
2701.501249 0.8560 0.8560 0.8563 0.8568 0.8570
2706.104252 0.8570 0.8576 0.8586 0.8590 0.8590
2710.707254 0.8597 0.8607 0.8613 0.8618 0.8627
2715.310256 0.8637 0.8640 0.8640 0.8640 0.8640
2719.913259 0.8640 0.8640 0.8640 0.8640 0.8640
2724.516261 0.8640 0.8644 0.8649 0.8650 0.8650
2729.119263 0.8654 0.8659 0.8660 0.8660 0.8660
2733.722266 0.8660 0.8656 0.8651 0.8650 0.8650
2738.325268 0.8650 0.8650 0.8650 0.8650 0.8650
2742.928270 0.8650 0.8646 0.8641 0.8644 0.8649
2747.531273 0.8654 0.8659 0.8664 0.8669 0.8670
2752.134275 0.8670 0.8670 0.8670 0.8670 0.8670
2756.737277 0.8666 0.8661 0.8656 0.8651 0.8650
2761.340280 0.8650 0.8654 0.8659 0.8660 0.8660
2765.943282 0.8660 0.8660 0.8656 0.8651 0.8650
2770.546285 0.8650 0.8650 0.8650 0.8650 0.8650
2775.149287 0.8650 0.8650 0.8650 0.8650 0.8650
2779.752289 0.8650 0.8650 0.8650 0.8650 0.8650
2784.355292 0.8645 0.8640 0.8640 0.8640 0.8640
2788.958294 0.8640 0.8640 0.8640 0.8640 0.8640
2793.561296 0.8640 0.8640 0.8630 0.8620 0.8620
2798.164299 0.8620 0.8620 0.8620 0.8615 0.8610
2802.767301 0.8605 0.8600 0.8600 0.8600 0.8600
2807.370303 0.8600 0.8595 0.8590 0.8590 0.8590
2811.973306 0.8590 0.8590 0.8590 0.8590 0.8590
2816.576308 0.8590 0.8595 0.8600 0.8600 0.8600
2821.179310 0.8605 0.8610 0.8610 0.8610 0.8615
2825.782313 0.8620 0.8620 0.8620 0.8620 0.8621
2830.385315 0.8631 0.8640 0.8640 0.8639 0.8629
2834.988318 0.8620 0.8620 0.8619 0.8614 0.8610
2839.591320 0.8610 0.8610 0.8610 0.8609 0.8604
2844.194322 0.8600 0.8600 0.8600 0.8600 0.8601
2848.797325 0.8606 0.8610 0.8610 0.8610 0.8610
2853.400327 0.8611 0.8616 0.8622 0.8632 0.8640
2858.003329 0.8640 0.8640 0.8640 0.8640 0.8640
2862.606332 0.8640 0.8640 0.8638 0.8628 0.8619
2867.209334 0.8614 0.8610 0.8610 0.8610 0.8610
2871.812336 0.8610 0.8610 0.8610 0.8610 0.8609
2876.415339 0.8604 0.8600 0.8600 0.8596 0.8580
2881.018341 0.8570 0.8570 0.8568 0.8563 0.8560
2885.621343 0.8560 0.8558 0.8553 0.8548 0.8543
2890.224346 0.8537 0.8527 0.8520 0.8520 0.8518
2894.827348 0.8513 0.8508 0.8503 0.8498 0.8493
2899.430351 0.8481 0.8455 0.8427 0.8392 0.8366
2904.033353 0.8356 0.8348 0.8343 0.8336 0.8326
2908.636355 0.8320 0.8320 0.8326 0.8341 0.8354
2913.239358 0.8364 0.8378 0.8398 0.8427 0.8468
2917.842360 0.8497 0.8512 0.8525 0.8535 0.8540
2922.445362 0.8540 0.8542 0.8547 0.8550 0.8550
2927.048365 0.8550 0.8550 0.8550 0.8550 0.8550
2931.651367 0.8550 0.8550 0.8550 0.8550 0.8550
2936.254369 0.8547 0.8542 0.8540 0.8540 0.8535
2940.857372 0.8525 0.8520 0.8520 0.8517 0.8512
2945.460374 0.8510 0.8510 0.8505 0.8495 0.8484
2950.063376 0.8474 0.8464 0.8454 0.8442 0.8426
2954.666379 0.8417 0.8412 0.8404 0.8394 0.8381
2959.269381 0.8366 0.8354 0.8344 0.8334 0.8324
2963.872384 0.8314 0.8304 0.8291 0.8276 0.8267
2968.475386 0.8262 0.8247 0.8227 0.8214 0.8204
2973.078388 0.8190 0.8175 0.8160 0.8145 0.8127
2977.681391 0.8107 0.8083 0.8058 0.8026 0.7991
2982.284393 0.7963 0.7938 0.7920 0.7905 0.7876
2986.887395 0.7841 0.7802 0.7762 0.7729 0.7698
2991.490398 0.7668 0.7638 0.7543 0.7422 0.7181
2996.093400 0.6895 0.6606 0.6315 0.6088 0.5882
3000.696402 0.5665 0.5445 0.5243 0.5048 0.5000
3005.299405 0.5000 0.5381 0.5882 0.5996 0.5991
3009.902407 0.5669 0.5263 0.5116 0.5036 0.5020
3014.505409 0.5020 0.5186 0.5391 0.5430 0.5430
3019.108412 0.5381 0.5321 0.5298 0.5283 0.5251
3023.711414 0.5216 0.5210 0.5210 0.5379 0.5582
3028.314417 0.5696 0.5796 0.5970 0.6156 0.6385
3032.917419 0.6620 0.6659 0.6669 0.6683 0.6698
3037.520421 0.6620 0.6530 0.6377 0.6217 0.6092
3042.123424 0.5972 0.5802 0.5627 0.5450 0.5273
3046.726426 0.5093 0.4912 0.4652 0.4387 0.4267
3051.329428 0.4156 0.4103 0.4053 0.3998 0.3943
3055.932431 0.3835 0.3725 0.3619 0.3514 0.3746
3060.535433 0.3992 0.4300 0.4611 0.4620 0.4620
3065.138435 0.4460 0.4300 0.4129 0.3958 0.3748
3069.741438 0.3538 0.3352 0.3166 0.2925 0.2690
3074.344440 0.2690 0.2711 0.3483 0.4233 0.4344
3078.947442 0.4458 0.4689 0.4943 0.5748 0.6500
3083.550445 0.6500 0.6495 0.6430 0.6363 0.6273
3088.153447 0.6190 0.6190 0.6196 0.6272 0.6346
3092.756450 0.6417 0.6489 0.6584 0.6700 0.6995
3097.359452 0.7278 0.7448 0.7609 0.7690 0.7803
3101.962454 0.8124 0.8408 0.8463 0.8513 0.8533
3106.565457 0.8551 0.8556 0.8561 0.8566 0.8570
3111.168459 0.8570 0.8572 0.8582 0.8590 0.8590
3115.771461 0.8590 0.8590 0.8588 0.8578 0.8568
3120.374464 0.8558 0.8549 0.8544 0.8537 0.8522
3124.977466 0.8508 0.8498 0.8487 0.8472 0.8454
3129.580468 0.8429 0.8396 0.8336 0.8272 0.8197
3134.183471 0.8118 0.8028 0.7957 0.7947 0.7945
3138.786473 0.7966 0.8040 0.8255 0.8433 0.8513
3143.389475 0.8582 0.8622 0.8659 0.8689 0.8711
3147.992478 0.8717 0.8720 0.8720 0.8720 0.8720
3152.595480 0.8720 0.8720 0.8720 0.8720 0.8720
3157.198483 0.8720 0.8723 0.8734 0.8740 0.8740
3161.801485 0.8740 0.8740 0.8740 0.8740 0.8740
3166.404487 0.8740 0.8740 0.8740 0.8740 0.8740
3171.007490 0.8740 0.8740 0.8742 0.8747 0.8750
3175.610492 0.8750 0.8752 0.8757 0.8762 0.8767
3180.213494 0.8770 0.8770 0.8774 0.8784 0.8790
3184.816497 0.8790 0.8792 0.8797 0.8800 0.8800
3189.419499 0.8800 0.8800 0.8800 0.8800 0.8802
3194.022501 0.8807 0.8810 0.8810 0.8812 0.8817
3198.625504 0.8820 0.8820 0.8820 0.8820 0.8820
3203.228506 0.8820 0.8820 0.8820 0.8820 0.8820
3207.831508 0.8820 0.8820 0.8825 0.8835 0.8840
3212.434511 0.8840 0.8840 0.8840 0.8843 0.8848
3217.037513 0.8850 0.8850 0.8850 0.8850 0.8850
3221.640516 0.8850 0.8850 0.8850 0.8850 0.8850
3226.243518 0.8850 0.8850 0.8850 0.8850 0.8850
3230.846520 0.8850 0.8850 0.8850 0.8850 0.8850
3235.449523 0.8850 0.8850 0.8850 0.8850 0.8850
3240.052525 0.8850 0.8850 0.8850 0.8850 0.8850
3244.655527 0.8853 0.8858 0.8860 0.8860 0.8860
3249.258530 0.8860 0.8860 0.8860 0.8860 0.8860
3253.861532 0.8860 0.8860 0.8860 0.8860 0.8860
3258.464534 0.8860 0.8860 0.8860 0.8864 0.8869
3263.067537 0.8870 0.8870 0.8870 0.8870 0.8870
3267.670539 0.8870 0.8870 0.8870 0.8870 0.8870
3272.273541 0.8870 0.8870 0.8870 0.8870 0.8866
3276.876544 0.8861 0.8860 0.8860 0.8860 0.8860
3281.479546 0.8860 0.8860 0.8860 0.8860 0.8860
3286.082549 0.8860 0.8860 0.8860 0.8860 0.8860
3290.685551 0.8860 0.8860 0.8860 0.8860 0.8860
3295.288553 0.8860 0.8860 0.8860 0.8860 0.8860
3299.891556 0.8860 0.8860 0.8860 0.8860 0.8860
3304.494558 0.8860 0.8860 0.8860 0.8860 0.8860
3309.097560 0.8860 0.8860 0.8860 0.8860 0.8860
3313.700563 0.8860 0.8855 0.8850 0.8850 0.8850
3318.303565 0.8850 0.8850 0.8850 0.8850 0.8850
3322.906567 0.8850 0.8850 0.8850 0.8850 0.8850
3327.509570 0.8850 0.8850 0.8850 0.8850 0.8850
3332.112572 0.8850 0.8850 0.8850 0.8850 0.8850
3336.715574 0.8850 0.8850 0.8850 0.8850 0.8850
3341.318577 0.8850 0.8850 0.8850 0.8845 0.8840
3345.921579 0.8840 0.8840 0.8840 0.8840 0.8840
3350.524582 0.8840 0.8840 0.8840 0.8840 0.8840
3355.127584 0.8840 0.8840 0.8840 0.8840 0.8840
3359.730586 0.8840 0.8840 0.8840 0.8840 0.8840
3364.333589 0.8840 0.8840 0.8840 0.8840 0.8840
3368.936591 0.8839 0.8829 0.8820 0.8820 0.8820
3373.539593 0.8820 0.8820 0.8820 0.8820 0.8820
3378.142596 0.8819 0.8814 0.8810 0.8810 0.8809
3382.745598 0.8804 0.8800 0.8800 0.8800 0.8800
3387.348600 0.8800 0.8800 0.8800 0.8800 0.8801
3391.951603 0.8806 0.8810 0.8810 0.8810 0.8810
3396.554605 0.8810 0.8810 0.8811 0.8816 0.8820
3401.157607 0.8820 0.8820 0.8820 0.8820 0.8820
3405.760610 0.8819 0.8814 0.8810 0.8810 0.8809
3410.363612 0.8804 0.8800 0.8800 0.8800 0.8800
3414.966615 0.8800 0.8800 0.8800 0.8800 0.8800
3419.569617 0.8800 0.8800 0.8800 0.8802 0.8807
3424.172619 0.8810 0.8810 0.8810 0.8810 0.8810
3428.775622 0.8810 0.8810 0.8810 0.8810 0.8810
3433.378624 0.8810 0.8810 0.8810 0.8810 0.8810
3437.981626 0.8810 0.8808 0.8803 0.8800 0.8800
3442.584629 0.8800 0.8800 0.8800 0.8800 0.8800
3447.187631 0.8800 0.8800 0.8800 0.8802 0.8807
3451.790633 0.8810 0.8810 0.8810 0.8810 0.8810
3456.393636 0.8810 0.8810 0.8810 0.8810 0.8810
3460.996638 0.8810 0.8810 0.8812 0.8817 0.8820
3465.599640 0.8820 0.8820 0.8820 0.8820 0.8820
3470.202643 0.8825 0.8835 0.8840 0.8840 0.8840
3474.805645 0.8840 0.8843 0.8848 0.8850 0.8850
3479.408648 0.8850 0.8850 0.8847 0.8842 0.8840
3484.011650 0.8840 0.8840 0.8840 0.8834 0.8824
3488.614652 0.8820 0.8820 0.8820 0.8820 0.8820
3493.217655 0.8820 0.8820 0.8820 0.8820 0.8820
3497.820657 0.8820 0.8820 0.8820 0.8820 0.8820
3502.423659 0.8820 0.8820 0.8820 0.8820 0.8820
3507.026662 0.8820 0.8820 0.8820 0.8820 0.8820
3511.629664 0.8820 0.8820 0.8820 0.8820 0.8820
3516.232666 0.8820 0.8820 0.8817 0.8812 0.8810
3520.835669 0.8810 0.8810 0.8810 0.8810 0.8810
3525.438671 0.8814 0.8819 0.8820 0.8820 0.8820
3530.041673 0.8820 0.8820 0.8820 0.8820 0.8820
3534.644676 0.8827 0.8838 0.8840 0.8840 0.8840
3539.247678 0.8840 0.8840 0.8840 0.8840 0.8840
3543.850681 0.8840 0.8840 0.8832 0.8822 0.8820
3548.453683 0.8820 0.8820 0.8820 0.8820 0.8820
3553.056685 0.8820 0.8820 0.8820 0.8820 0.8820
3557.659688 0.8820 0.8820 0.8820 0.8820 0.8820
3562.262690 0.8833 0.8848 0.8854 0.8859 0.8860
3566.865692 0.8860 0.8864 0.8869 0.8870 0.8870
3571.468695 0.8879 0.8889 0.8890 0.8890 0.8894
3576.071697 0.8900 0.8905 0.8910 0.8915 0.8920
3580.674699 0.8920 0.8920 0.8929 0.8939 0.8940
3585.277702 0.8940 0.8926 0.8911 0.8891 0.8871
3589.880704 0.8860 0.8850 0.8850 0.8850 0.8850
3594.483706 0.8850 0.8845 0.8840 0.8840 0.8840
3599.086709 0.8825 0.8810 0.8800 0.8790 0.8790
3603.689711 0.8790 0.8780 0.8770 0.8770 0.8770
3608.292714 0.8770 0.8770 0.8770 0.8770 0.8770
3612.895716 0.8770 0.8770 0.8770 0.8770 0.8771
3617.498718 0.8781 0.8790 0.8795 0.8800 0.8805
3622.101721 0.8810 0.8810 0.8810 0.8805 0.8800
3626.704723 0.8800 0.8800 0.8795 0.8789 0.8779
3631.307725 0.8769 0.8764 0.8760 0.8760 0.8761
3635.910728 0.8766 0.8770 0.8770 0.8771 0.8781
3640.513730 0.8791 0.8796 0.8800 0.8800 0.8802
3645.116732 0.8812 0.8820 0.8820 0.8819 0.8814
3649.719735 0.8810 0.8810 0.8809 0.8804 0.8800
3654.322737 0.8800 0.8799 0.8794 0.8790 0.8790
3658.925739 0.8788 0.8778 0.8770 0.8770 0.8770
3663.528742 0.8770 0.8772 0.8782 0.8790 0.8790
3668.131744 0.8791 0.8796 0.8800 0.8800 0.8800
3672.734747 0.8800 0.8799 0.8794 0.8787 0.8777
3677.337749 0.8767 0.8757 0.8750 0.8750 0.8750
3681.940751 0.8750 0.8750 0.8750 0.8748 0.8743
3686.543754 0.8740 0.8740 0.8737 0.8727 0.8720
3691.146756 0.8720 0.8718 0.8713 0.8710 0.8710
3695.749758 0.8710 0.8710 0.8710 0.8710 0.8710
3700.352761 0.8710 0.8712 0.8717 0.8720 0.8720
3704.955763 0.8720 0.8720 0.8726 0.8741 0.8750
3709.558765 0.8750 0.8752 0.8757 0.8762 0.8767
3714.161768 0.8774 0.8784 0.8792 0.8797 0.8800
3718.764770 0.8800 0.8800 0.8800 0.8804 0.8815
3723.367772 0.8820 0.8820 0.8825 0.8835 0.8840
3727.970775 0.8840 0.8840 0.8840 0.8840 0.8840
3732.573777 0.8840 0.8840 0.8843 0.8848 0.8850
3737.176780 0.8850 0.8850 0.8850 0.8847 0.8842
3741.779782 0.8840 0.8840 0.8835 0.8825 0.8820
3746.382784 0.8820 0.8820 0.8820 0.8817 0.8812
3750.985787 0.8810 0.8810 0.8807 0.8802 0.8800
3755.588789 0.8800 0.8800 0.8800 0.8800 0.8800
3760.191791 0.8800 0.8800 0.8800 0.8800 0.8800
3764.794794 0.8800 0.8800 0.8800 0.8800 0.8800
3769.397796 0.8800 0.8800 0.8800 0.8800 0.8803
3774.000798 0.8808 0.8810 0.8810 0.8810 0.8810
3778.603801 0.8810 0.8810 0.8813 0.8818 0.8820
3783.206803 0.8820 0.8820 0.8820 0.8820 0.8820
3787.809805 0.8827 0.8837 0.8840 0.8840 0.8840
3792.412808 0.8840 0.8844 0.8849 0.8854 0.8859
3797.015810 0.8860 0.8860 0.8864 0.8869 0.8866
3801.618813 0.8861 0.8864 0.8869
##END=
