##TITLE=Methyl Ethyl Ketone
##JCAMP-DX=4.24
##DATA TYPE=INFRARED SPECTRUM
##CLASS=IUPAC A
##ORIGIN=NIST, Anayltical Chemistry Division, 301-975-3108
##OWNER=COPYRIGHT (C) 1998 by the U.S. Secretary of Commerce
##DATE=98/10/1
##$SPECTRA VERSION=1.00
##$UNCERTAINTY IN Y=2.1 % relative (B=1.1E-04,C=8.6E-10,D=2.7E-14)
##CAS NAME=2-Butanone
##CAS REGISTRY NO=78-93-3
##MOLFORM=C H3 C H2 C O C H3
##MP=-86.35 C
##BP=79.6 C
##$NIST SOURCE=QUANT-IR
##SPECTROMETER/DATA SYSTEM=IFS66V (Bruker)
##INSTRUMENT PARAMETERS=KBr Beam splitter; MCT Detector; Multipass cell
##STATE=gas
##SAMPLE DESCRIPTION=Methyl Ethyl Ketone Primary Gas Standard
##PRESSURE=101.3 kPa
##TEMPERATURE=23 C
##SAMPLING PROCEDURE=1 L/min Flow
##RESOLUTION=1.9290
##DATA PROCESSING=Boxcar Apodization
##XUNITS=cm-1
##YUNITS=(micromol/mol)-1m-1 (base 10)
##XFACTOR=1.0
##YFACTOR=4.5474E-13
##DELTAX=0.9645
##FIRSTX=574.687
##LASTX=3974.595
##FIRSTY=.0000201
##MAXX=3973.63
##MINX=574.69
##MAXY=.0005719
##MINY=-1.07E-06
##NPOINTS=3527
##XYDATA=(X++(Y..Y))
574.69 44379480 51496030 56097720 60380500 62515260 62497290
579.51 63496750 65018780 62660540 61347030 67129320 68435500
585.29 72040780 76009460 68439370 63476550 65873490 66322690
591.08 67579480 64438650 66075670 65684460 64791040 63138450
596.86 62252720 58159650 53700210 49131500 44463340 38786660
602.65 33131950 28576530 23754540 19813020 16381120 13758700
608.44 11514990 8496662 7690614 5734906 5439072 3875292
614.22 4121428 3823838 2656888 2842440 2247990 1992938
620.01 1505580 1769532 1350388 1607898 1540776 1393070
625.79 1468548 1302008 1329858 1497350 1099666 1373618
631.58 1069956 585370 668744 1218512 1187568 1070914
637.36 543224 992104 1016096 1555466 7672400 2081692
643.15 783554 1311928 655288 843238 1200318 1554760
648.93 1262952 2565284 3470428 2556114 1666822 1663424
654.72 1838676 2222364 3340632 2766572 2598492 1761702
660.50 1275432 1492180 1386038 935194 1101006 827770
666.29 1952942 1930568 1019248 1136178 985360 1193074
672.08 933756 1055496 883788 1176878 548572 702066
677.86 747062 796276 579086 616378 450786 686940
683.65 739634 470300 366812 425144 454252 714650
689.43 682724 446348 170432 64894 490802 58852
695.22 579822 180058 132914 111772 193764 230656
701.00 427682-95402 581476 89972 575586 69694
706.79 233320 264876 382100 205858 583414 795036
712.57 694868 1071152 1038268 929954 1170606 1616416
718.36 1815352 1555010 2153340 2527694 2973320 2985318
724.14 3393396 4113900 4803740 5432834 6392748 7002918
729.93 8107212 9083894 10060310 11470100 12494450 13948860
735.71 15632710 16705620 18819610 20110730 21993890 23802060
741.50 25775490 27736690 30122360 32399000 35145070 37444100
747.29 41342140 45658260 52936860 56717720 53474240 51371990
753.07 47971990 45955190 44467270 43065750 42512390 43476480
758.86 46374510 45752460 44066180 43157100 42429850 41372760
764.64 39976720 38435300 36286450 33670300 31101760 28094090
770.43 25023270 22311360 19603040 16963450 14839660 12947870
776.21 11267800 9821006 8579342 7726466 6768694 6296086
782.00 5866958 5340786 4740370 4217130 4113268 4116128
787.78 3782888 3445458 3150840 3145822 3128000 3087350
793.57 2939408 2677918 3059056 2653646 2296402 2619142
799.35 2378770 1857330 2048254 1802364 1936890 1706102
805.14 1607678 1872496 1756526 1313978 1382902 1402760
810.93 1390646 1171616 1292922 747936 920722 876214
816.71 1098946 744486 855386 829566 1018712 875326
822.50 776296 739432 853882 840230 633512 856348
828.28 466210 745176 961454 1078720 546322 621788
834.07 1083818 905264 628696 648970 1111436 785780
839.85 742246 668862 658256 1037644 797974 1027666
845.64 836420 845718 1031074 909610 1003088 871968
851.42 929032 825388 881434 926152 1176460 1107302
857.21 1058976 995876 1081274 1302830 1225874 1137070
862.99 1450828 1465538 1515668 1438648 1607804 1599056
868.78 1807992 1819830 1931480 2056108 2141020 2433204
874.57 2538082 2833370 2881300 2804428 2897242 3051538
880.35 3358818 3293640 3728922 3688030 3940024 4103154
886.14 4466512 4483204 4694718 4921266 5431586 5896108
891.92 5897356 6505946 7073798 7485658 8018642 8300704
897.71 8958228 9854272 10593810 11372930 12232900 13142930
903.49 14322580 15528570 16857360 18425960 20001420 21702290
909.28 23660130 25654840 27926260 30241330 32472970 34877100
915.06 37627040 40077790 42779080 45868080 48993050 51992710
920.85 55822580 59429180 62327990 66244000 69689110 73820900
926.63 78118260 82283540 86279860 90967670 94712020 99256690
932.42 102734700 106340100 108689000 109231800 110259200 110407700
938.21 113093100 118632700 117457600 118425400 116015400 116419400
943.99 113646800 112927600 113392300 113932100 113985200 111823000
949.78 109210800 106319100 102787700 98758330 94015250 89802140
955.56 85143170 80768280 76419070 71978290 68265750 64537600
961.35 61248450 57932210 55156820 52283300 49985890 47775400
967.13 45937870 44224930 42737230 41653470 40474040 39761430
972.92 39217860 38678380 38299100 37833590 37703640 37549560
978.70 37550430 36932900 36702650 36251820 35635630 35032560
984.49 34308680 33786680 33529150 33641750 33080500 32584590
990.27 31609760 31006000 30810920 29984720 29542690 28972560
996.06 28919990 28266520 27809060 27277010 27049960 26497880
1001.85 25350800 24013690 22747100 21170520 20074110 18738220
1007.63 17343410 16406740 15547970 14741390 14011400 13407470
1013.42 12914260 12310120 12157670 11609020 11309080 11044200
1019.20 10476540 10403230 9769126 9420568 9130874 8733630
1024.99 8272216 7940918 7529548 7197842 7115838 6881128
1030.77 6744828 6777040 6756770 6451098 6355370 6413050
1036.56 6330516 6579068 6398886 6464476 6592470 6622808
1042.34 6991680 6984970 7269754 7248966 7585678 7943880
1048.13 8419298 8383608 8843982 8890380 9073342 9614460
1053.91 10030640 10283360 10909980 11496410 12258840 12694560
1059.70 13563350 14216000 15103080 16104090 17018660 18345170
1065.48 19210230 20282910 21545550 22674360 24028100 25295560
1071.27 26811580 28014560 29363330 30793280 32115380 33212450
1077.06 34558140 35274040 36267290 36526260 37091220 37050710
1082.84 36678880 35997330 35241920 34394730 33521160 32853610
1088.63 32470090 32689190 33529080 34570380 34814590 34465800
1094.41 33680080 32326930 30990080 29592850 28134490 27093430
1100.20 25899360 24888520 23656310 22966740 22420520 21891570
1105.98 21492920 21616970 21582150 21317280 20622860 20418330
1111.77 20327240 20140030 20208860 20319870 20343650 20541020
1117.55 20752400 21259720 21749100 22001090 22581830 23079230
1123.34 23782820 24171110 24766430 25646620 26402520 27492520
1129.12 28518890 29840130 31364050 32796920 34979420 37241610
1134.91 39919690 43015650 46708620 50707200 55686270 61508860
1140.70 68528670 76887360 86869680 98905540 112578700 128364300
1146.48 146502800 166472700 188171000 210881100 234955100 259556300
1152.27 284096700 307586700 329103100 348404500 366558000 382843800
1158.05 400300100 418775200 436113700 450532300 468891700 495040700
1163.84 520515600 545040400 562834800 549889400 570446700 567066000
1169.62 556862300 568276700 576060900 587125400 588151700 590732300
1175.41 561605600 549648900 557484100 514856600 481104300 449065600
1181.19 433206400 417221600 404422100 391745100 376197700 358276300
1186.98 339965800 320308400 300851000 281148700 262882000 244255100
1192.76 228049300 213008900 199812600 187637800 177263400 167956400
1198.55 160066400 152571100 146295800 140057300 134241100 128641500
1204.34 123522400 117908300 113379200 109021200 105099400 101212200
1210.12 97145630 92476970 87885530 82672300 77802550 72270570
1215.91 66838930 61476940 56994820 52364450 48502240 44641360
1221.69 41771640 38974660 36647530 34594100 32940510 31459610
1227.48 30168740 29049680 28266830 27498270 26823570 26138930
1233.26 25783850 25321770 25128810 24950700 25064740 25160050
1239.05 25755720 25962810 26096790 26212540 26885380 27235020
1244.83 27918670 28260220 29043220 29427320 29926720 30166120
1250.62 30593060 30765740 31119890 31243810 31506470 31434380
1256.40 31687130 31687770 31830670 31302480 31076860 30798720
1262.19 30658830 30500710 30597050 30278340 29793370 29513020
1267.98 29289390 28493990 28339270 27500750 26897000 25897730
1273.76 25358470 24618680 23962170 23311650 22839300 22119710
1279.55 21660860 20967810 20735740 20218310 19912030 19498290
1285.33 19407570 19210130 19006830 19148920 19533830 19579170
1291.12 20229250 20580670 21345580 22032110 23103140 23925990
1296.90 25042080 25952700 27431800 28480220 29935850 31213850
1302.69 32856630 34220580 36074770 37624160 39586960 41163160
1308.47 43132200 44753550 46843000 48718720 51118740 53011290
1314.26 55476330 57419370 60370800 62128390 64950530 67313140
1320.04 70535770 72743730 76352900 79428290 82976900 86340430
1325.83 90188110 93901780 97974330 101715600 106274300 110320800
1331.61 115400600 120054700 125684400 130886000 136725000 141987200
1337.40 148345600 154968900 161367600 170536300 179855400 186743400
1343.19 196545500 206594000 221748800 238811200 258802900 279224100
1348.97 301486800 324129000 348282700 371785700 394818600 415421400
1354.76 435063100 449787300 463372900 471841100 479084000 477576100
1360.54 475740000 473813100 478746000 491840300 532394900 549045100
1366.33 546549000 515348700 477684500 474372600 483274400 497913500
1372.11 505403600 509088400 501180000 485156400 458582100 427797400
1377.90 390685300 352977000 313554200 277947000 243690700 215424100
1383.68 190659300 172056000 157546200 149104100 141511800 139382000
1389.47 138574100 137947300 136688200 135085700 135030800 132441100
1395.25 129186400 126559700 124147800 123240100 120309400 118746500
1401.04 118331200 118379500 119592000 122265000 124196100 126728500
1406.83 130452400 134530600 139740500 144689200 149668000 154222000
1412.61 158798100 162575200 166241700 169067700 172239700 172912700
1418.40 176837200 170152900 166649400 163726300 162065000 163070100
1424.18 165827000 172360300 179114000 185991600 191821600 196593300
1429.97 197374600 196785500 195270700 191239100 186797400 182939400
1435.75 184065000 177086000 175145800 175056800 175192100 174970400
1441.54 174307500 172923200 172271100 171246500 171157100 172892100
1447.32 173463900 169227500 169733900 171019100 176045600 182152700
1453.11 196190400 213845000 238884000 245179500 226375200 213984000
1458.89 199076100 188548700 174316700 163052600 151307800 147471200
1464.68 151944900 160934600 161191900 156213200 153894300 152132000
1470.47 154509800 154666900 153593100 150119200 144851700 142677800
1476.25 133999600 127867000 119862100 112689100 104899000 97679520
1482.04 90149500 84000750 77684540 72400230 68369410 64513210
1487.82 59289530 58274350 54650130 51148080 47583110 46766440
1493.61 43542120 44701780 46003220 39346100 41155340 39619960
1499.39 36862340 37395630 35851900 36334940 34466670 39606210
1505.18 40164970 41178760 36737330 36024480 35965400 34424260
1510.96 35796860 35277270 33673460 35326610 34211430 36596080
1516.75 36185390 34429620 34766560 38387410 39149330 35101680
1522.53 34373160 32457280 35846160 32142020 32855870 31936440
1528.32 31525990 30197350 31043720 29868590 31698890 31502150
1534.11 28257610 28197050 27160190 27669150 33724340 32244510
1539.89 27927330 28994700 27996930 23498710 26369790 24670390
1545.68 22728040 22183910 21768610 22103730 22100330 20015650
1551.46 20427440 19574010 24232420 18926940 19277180 20465000
1557.25 27128480 22206620 25944700 18538630 16685380 16878580
1563.03 16411320 17194450 15898930 15523140 15362610 15673210
1568.82 18535720 14169050 14560430 13355360 14482610 12247170
1574.60 17828280 20276640 11731110 13604390 11885080 12864580
1580.39 11768500 12258290 11577650 11831920 11211420 11390870
1586.17 10818930 10885730 10544400 10550990 10059270 10073490
1591.96 9618018 9670574 9484858 9263684 9016232 8779272
1597.74 8681512 8505508 8424844 8295392 8150226 8236340
1603.53 8015380 7816016 7867240 7779912 7598020 7683456
1609.32 7555668 7085466 7462866 6736980 7710268 6049336
1615.10 10601920 13885740 5712232 7839962 6435848 7636668
1620.89 6675312 8586376 9469220 7028286 7444178 7123232
1626.67 8668486 7851916 7153640 7481338 7331930 7386856
1632.46 7573158 7915428 14464590 10068000 8018850 8848864
1638.24 7325898 8711142 7787632 8748894 8123884 8930486
1644.03 8820388 14600590 9805984 11335680 9066754 9116244
1649.81 8337242 11288320 21095030 16264970 11392100 10232880
1655.60 9622614 10485370 10189490 10859960 10970950 11717060
1661.38 13566530 14626910 11534490 13613540 12334360 14428200
1667.17 13409330 19043010 16093770 17170790 17408530 17874280
1672.96 17567610 23213180 22979560 20819980 22844370 24001560
1678.74 25823160 28121040 28125130 32535890 34402240 43863340
1684.53 41564380 37447070 42711660 43591960 47579220 49452560
1690.31 53171960 55049330 59974690 61769440 70400820 80480630
1696.10 75250060 82682460 87357860 103648900 108336600 112809100
1701.88 123143300 134846500 147177000 159248300 174296800 187490000
1707.67 204932100 223275200 244191500 266043600 291140000 317834300
1713.45 348372800 380915900 414253100 458121000 495376400 537642200
1719.24 583460800 633500600 685017500 739356200 794751900 849922400
1725.02 905908100 960918300 1014189000 1063566000 1108303000 1144319000
1730.81 1167518000 1180032000 1179374000 1157593000 1114111000 1065136000
1736.60 1021801000 994474100 1003159000 1042335000 1107352000 1177097000
1742.38 1229565000 1254695000 1257784000 1240276000 1206222000 1161251000
1748.17 1107391000 1045588000 985984100 919692500 853413400 789651300
1753.95 727423300 668324900 613714400 560004700 511253200 465809800
1759.74 422854100 385737500 347194400 312268800 281371400 252837900
1765.52 227078200 204355800 185022500 163085100 148114800 133296800
1771.31 123325300 111325700 97547340 89985410 81191510 74042500
1777.09 67465210 61832570 56823240 52784180 47396230 44041460
1782.88 40031560 38189150 33973280 31087780 28380200 26293460
1788.66 24233490 24041150 20822370 22712370 20993940 19791490
1794.45 20065020 18618460 17610770 16279730 16822680 15701710
1800.24 14946130 14567950 13613170 12821280 12358290 11738630
1806.02 11025870 10372950 9389544 8901190 8677756 7253708
1811.81 7018356 6093392 5918238 5337342 5113120 4741060
1817.59 4381582 4028370 3917798 3754276 3802226 3339160
1823.38 3618604 4734910 3148504 3112658 3046832 3690620
1829.16 4839514 3109786 3003944 3095916 3080726 2882698
1834.95 3123084 3060576 3244106 2877742 3417296 2803404
1840.73 3711288 2757098 5217394 6245194 2852278 3774672
1846.52 3565530 3914762 3382850 3902186 3762628 4084724
1852.30 3779098 4201560 4009542 4344528 4310552 4562262
1858.09 4638662 4778008 4753922 4864168 4903468 5126780
1863.88 5179196 5434540 5638420 5872194 6586692 7081878
1869.66 5458344 5974176 5748450 6080550 6028804 6289358
1875.45 6177744 6505092 6312714 6462512 6202262 6443010
1881.23 6199524 6295974 6381742 6416968 6250486 6512536
1887.02 6169522 6769144 6934778 6043558 6090074 6069932
1892.80 5847640 5837072 5767002 5239354 5193054 5048538
1898.59 4985482 4808700 4726518 4604364 4357274 4362150
1904.37 4255898 3953260 3977746 3930816 3802702 4005528
1910.16 3568980 3645594 3378644 3420540 3298852 3338402
1915.94 3028710 4556594 3411928 2949414 3118934 3050388
1921.73 3432244 3159886 2939474 2919516 2874128 2865548
1927.51 2860220 2894588 2669972 2667622 2699780 2611424
1933.30 2644716 2469946 2458306 2459824 2516842 2484966
1939.09 2503278 2363090 2906130 2999164 2371116 2560722
1944.87 2396266 2349588 2214102 2256596 2165230 2045974
1950.66 1926752 2027336 1881930 2067844 1951048 1731738
1956.44 1640858 1631436 1594456 1647104 1600338 1537862
1962.23 1478072 1326822 1300192 1321490 1414394 1304384
1968.01 1078210 1064950 917764 880884 858710 809688
1973.80 762622 1147384 852116 1051688 1023896 1123176
1979.58 1122482 1219880 1262492 1344728 1258784 1383162
1985.37 1225804 1319332 1312856 1361962 1161510 1547612
1991.15 1723106 1426942 1369560 1342102 1469408 1504294
1996.94 1506136 1496646 1506590 1404098 1372126 1284664
2002.73 1225848 1158184 1054092 953130 946824 862542
2008.51 734428 782476 635492 697314 602790 589384
2014.30 479608 686940 654976 473004 514478 323516
2020.08 373652 411228 300680 235936 280886 287976
2025.87 213956 243948 217500 257384 235456 137550
2031.65 256038 310224 303342 310152 229288 325950
2037.44 307394 319634 364380 483428 321208 341686
2043.22 353106 392552 343764 375684 390922 468388
2049.01 429244 428654 518144 553844 535450 504136
2054.79 567586 668452 646646 751274 679308 795088
2060.58 861198 867464 829188 1167534 1149064 1043850
2066.37 1124670 1158950 1303366 1265868 1280878 1491724
2072.15 1624006 1712980 1709714 1894370 1898760 2038150
2077.94 2212284 2289948 2387316 2534758 2681490 2857392
2083.72 3037668 3170134 3290456 3502290 3694230 3883398
2089.51 4070718 4168938 4368648 4469618 4749690 4779922
2095.29 5031744 5213330 5306688 5610640 5697026 5820978
2101.08 5929366 6113176 6239568 6427184 6551472 6640020
2106.86 6783726 6874688 7079518 7216384 7214410 7446766
2112.65 7534840 7606906 7611528 7558346 7642758 7474208
2118.43 7296496 6980624 6970644 6786534 6720206 6668624
2124.22 6487818 6651194 6403176 6169600 5917914 5731874
2130.01 5505158 5402922 5217204 4845332 4649990 4410256
2135.79 4106116 3781196 3495960 3244248 2976008 2720688
2141.58 2530852 2399968 2198002 2117520 1973202 1862172
2147.36 1795204 1819442 1682698 1568308 1581410 1502470
2153.15 1443940 1459682 1501736 1618482 1438614 1522752
2158.93 1477356 1430486 1476406 1477090 1374220 1507882
2164.72 1547768 1564370 1642318 1562464 1577604 1633734
2170.50 1627444 1566100 1511626 1475718 1370094 1331360
2176.29 1224844 1253662 1147388 1068344 983226 928944
2182.07 962240 822458 815696 674172 626770 568016
2187.86 547612 527252 425142 406206 247872 295736
2193.64 169412 135930 145418 79510 99084 39324
2199.43 91264 17560-92672-55862-62748-82616
2205.22-87314-54272-45222-119850-14324-54446
2211.00-59116 28784 31366 40760-51510-39558
2216.79-88056-185870-38186-122744-156320-104650
2222.57-165600-76108-165370-128370-141572-197648
2228.36-239624-207720-220970-238106-224802-225104
2234.14-292868-295076-300132-291140-294116-381508
2239.93-309384-241684-324842-317634-261916-287466
2245.71-342090-285336-255202-181518-226972-237392
2251.50-146660-92310-175094-98048-51450 57986
2257.28-14082 95594 54288 217706 290818 264994
2263.07 405906 464828 448794 637314 699942 789962
2268.86 861490 953876 1081104 1195582 1245394 1275982
2274.64 1513510 1604244 1708240 1783646 1927480 1961450
2280.43 2186788 2188920 2449074 2460164 2593816 2628156
2286.21 2687216 2734490 2876144 2909366 2834808 3005162
2292.00 3062302 3058058 3104022 3204818 3205010 3097260
2297.78 3124056 2977528 3107802 3012476 3005934 2830040
2303.57 2774666 2744334 2873590 2746340 2726062 2724744
2309.35 2553964 2714902 2511372 2727548 2332944 2644624
2315.14 2228394 2646352 2023412 2540548 1926096 2439168
2320.92 2055362 2410728 1921102 2357772 2003814 2299882
2326.71 2134688 2370774 2016346 2312366 2112200 2287938
2332.50 2132548 2399034 2129408 2342446 2209784 2288762
2338.28 2277804 2226138 2206704 2241892 2080580 2131732
2344.07 1969730 1957082 1879346 1837036 1753134 1748740
2349.85 1938054 2060768 2214656 2318734 2566244 2641796
2355.64 2696700 2814838 2884320 3012624 3059950 3179510
2361.42 3074612 3296492 3122908 3093734 2984552 2996780
2367.21 3038336 2910066 2815368 2627058 2624724 2571574
2372.99 2455922 2359478 2292070 2205438 2147568 2081344
2378.78 2027136 2003366 1941664 1880496 1835074 1739542
2384.56 1744608 1677768 1644800 1473358 1362306 1281564
2390.35 1248106 1317804 1281108 1119278 1061482 1082402
2396.14 1025752 1083342 1106250 987984 955150 895092
2401.92 1020932 1016254 1005338 899854 854070 945466
2407.71 883876 779376 861084 690710 780766 748186
2413.49 719904 671674 694944 633654 583348 709860
2419.28 443348 640426 708356 528356 716450 564816
2425.06 597412 524512 509450 475830 436844 516058
2430.85 474364 446650 451460 444256 407756 406250
2436.63 336068 428950 490630 401142 481446 428628
2442.42 513090 387800 473132 510452 418786 372956
2448.20 475376 421098 464572 524782 676550 718328
2453.99 770390 687422 767704 777422 900186 926020
2459.77 1020502 919014 907852 1019244 1094316 1057634
2465.56 1075802 1067650 1008770 994284 1025858 1054850
2471.35 1146208 1074472 1202544 1297286 1359904 1216778
2477.13 1311814 1279288 1262404 1210848 1137304 938982
2482.92 999556 952162 930492 901112 886368 857056
2488.70 911102 974404 962468 977080 992512 1145082
2494.49 1171544 1275866 1408662 1434990 1570198 1565136
2500.27 1655042 1775184 1776148 1933350 2068262 1975082
2506.06 2153228 2174272 2301638 2236182 2389998 2392792
2511.84 2480112 2501952 2526832 2635332 2662362 2835060
2517.63 2676884 2773484 2643950 2589534 2518498 2611710
2523.41 2318174 2431062 2203398 2169888 2191622 2103218
2529.20 1993184 1959324 1828262 1789892 1652386 1751318
2534.99 1443836 1510500 1340816 1361464 1308140 1181858
2540.77 1093620 1113276 987906 977874 877134 734104
2546.56 732288 893562 733222 711344 735184 710458
2552.34 719758 662192 712740 752512 767948 718724
2558.13 609086 658078 628660 653638 558384 591650
2563.91 574294 541262 482894 464498 536912 541800
2569.70 486602 421594 488088 405956 415580 325302
2575.48 321256 298906 187946 233928 183114 174134
2581.27 194018 146230 156860 132704 151458 114890
2587.05 4650 128866 166282 184754 224556 98130
2592.84 248762 109306 193794 106584 250852 219082
2598.63 249420 274602 364114 237602 262158 205318
2604.41 296664 288622 279768 353724 315824 417512
2610.20 388936 356818 356844 375268 442570 264986
2615.98 454788 387360 377868 437944 451450 290472
2621.77 419222 378372 333360 326764 365940 250210
2627.55 313982 209616 265158 201000 266530 228908
2633.34 212014 182558 318462 134898 159418 258670
2639.12 269810 143688 244744 153700 295664 298216
2644.91 270682 293690 381442 441890 452304 482100
2650.69 565086 542126 629810 797414 837118 858232
2656.48 907304 1012898 1079094 1169586 1250746 1379872
2662.27 1416506 1455744 1596458 1659404 1665198 1782932
2668.05 1853730 1974250 1929482 1936704 2012146 2088342
2673.84 2100102 2027934 2076312 2231226 2045116 2107698
2679.62 2109820 2062158 2105098 2126654 2144236 2140440
2685.41 2075324 2095364 2075488 2028048 1988856 1966228
2691.19 1962954 2001144 1843968 1775636 1681096 1797558
2696.98 1775164 1806156 1701138 1726400 1895628 1719846
2702.76 1813924 1736498 1767050 1776136 1788026 1876326
2708.55 1809424 1912178 1977022 1865198 1774198 2008956
2714.33 2043462 2159808 2150550 2216262 2208470 2207404
2720.12 2308672 2269082 2325298 2411500 2416256 2493654
2725.91 2607722 2682712 2767284 2914016 3017946 3059092
2731.69 3288596 3515674 3674646 3714680 4046726 4080410
2737.48 4288498 4449678 4516452 4828646 4920880 5160746
2743.26 5388630 5443476 5548628 5658054 5627752 5657672
2749.05 5832844 6050968 6177642 5946182 6052912 6116772
2754.83 6157836 6213336 6109336 6199724 6208098 6261098
2760.62 6056042 5944704 5725818 5581716 5336954 5233220
2766.40 5118814 4975668 4752278 4726668 4769556 4744584
2772.19 4775678 4791996 4933632 4983020 5101104 5235512
2777.97 5452050 5665770 5837620 6080350 6178394 6494828
2783.76 6760592 7036518 7468274 7735814 8242010 8672936
2789.54 9060896 9608968 10261490 10833900 11399980 11833020
2795.33 12376150 12701750 13086550 13483750 14245460 14460600
2801.12 15186160 15527570 16153640 16718470 17469790 18248970
2806.90 18970500 19862960 20586670 21282260 22047320 22953160
2812.69 23735550 24432070 25156780 25484250 26033470 26246890
2818.47 26523870 26613400 27005920 27412810 27697030 28046940
2824.26 28496660 29205210 29425390 29773920 30473660 30748830
2830.04 31280570 31696700 32336250 32763340 33376300 33813280
2835.83 34066610 33957880 33924780 33495650 33327110 33026230
2841.61 32775580 32574850 32579560 32502490 32799030 32530970
2847.40 32779770 32397280 32610080 32443840 32498600 32462120
2853.18 32757060 32699790 33044010 33103780 33279410 33374210
2858.97 33738880 33667680 34044650 34491000 35062180 35452340
2864.76 36280030 37164540 38491520 40149080 42261870 44542260
2870.54 47891460 51787120 56477850 61696850 68004090 74989860
2876.33 82970460 90586970 98987780 106637400 114245400 120405600
2882.11 125715000 128559900 130939300 131998100 134802300 138627900
2887.90 146184900 156788200 173117400 185909300 190156400 191700600
2893.68 197105400 205479200 214973500 223694900 230541500 235126800
2899.47 238603400 240554000 241701200 243462100 244733700 245081600
2905.25 245651700 247573500 250529700 253563700 257356500 260289900
2911.04 263459800 266298400 271854300 282284400 305893800 315908800
2916.82 309184300 297806800 283556100 276162500 270553800 265478100
2922.61 260370000 255289200 250368200 245632800 240790000 236265000
2928.40 233167000 231347000 230833800 231894000 234568700 239513800
2934.18 246887600 254700400 263661200 271947500 279601500 285533700
2939.97 289360500 288497900 285887800 278139200 270734700 260343400
2945.75 256249600 254811400 289086400 317123600 285421600 269439600
2951.54 257778900 258764200 261942900 271106500 278005600 286252900
2957.32 289529600 292096700 289692500 287962800 281176200 275576400
2963.11 270693300 269272000 270003600 276332300 284291200 292869700
2968.89 295985500 298546400 302267000 311641100 322355000 335276300
2974.68 347656600 360725700 372014000 383870000 393389200 403575200
2980.46 411184500 420160400 425852900 433404700 435414000 434283700
2986.25 426259500 422435300 433469000 458139900 531625800 652262400
2992.04 547003300 446924900 432700500 421031000 416136300 403104400
2997.82 391527900 374771500 359918300 343351100 328143600 311903700
3003.61 297466700 281967600 267557900 252348600 237772900 223016600
3009.39 209874400 198008100 190287100 186922300 182287200 164903800
3015.18 151516900 142536600 137345900 132328200 128513800 124116700
3020.96 119969500 114522200 109372800 103487500 97778900 91758740
3026.75 86248100 80260720 75446680 70558100 66582280 62439340
3032.53 59253410 56419830 54385720 52186330 50756390 49261570
3038.32 48336730 47292870 46639220 45633670 45457560 44544550
3044.10 43876680 43403520 43073700 42521880 42119270 41789520
3049.89 41636140 40924500 40571320 40103310 39805110 39319870
3055.67 38884870 38332020 37936230 37283710 37011440 36513550
3061.46 36113310 35562980 35055030 34642660 33947990 33322730
3067.25 32899240 32195840 31822490 30981650 30715050 30040630
3073.03 29289250 28538430 28048190 27254050 26449850 26057650
3078.82 25187200 24385440 23806880 23055850 22394750 21634890
3084.60 21063150 20301610 19722050 19233950 18569040 17661940
3090.39 17464200 16723400 16533440 15572940 15408830 14926600
3096.17 14528230 14113270 13749330 13565780 13069940 12582190
3101.96 12457710 12085690 11842300 11423620 10970790 10770230
3107.74 10638610 10321910 10029050 9830568 9574534 9341802
3113.53 8732998 8599914 8419454 7979116 7889798 7526220
3119.31 7099212 6873116 6958772 6600174 6485050 6239964
3125.10 6096484 5948620 5826522 5675176 5583240 5567626
3130.89 5492774 5385408 5267986 5155756 4999804 5096828
3136.67 4917514 4890720 4826720 5039416 4948476 4701454
3142.46 4940582 4737262 5063234 5112520 4979600 4952548
3148.24 4984486 4910176 4962180 5110884 5355002 5444206
3154.03 5280600 5135940 5330078 5448058 5337698 5699364
3159.81 5626764 5650810 5813292 5882172 6074924 6010770
3165.60 6285936 6330152 6456246 6752100 6821878 6741302
3171.38 6559642 6236748 6424354 6243304 6190390 6304970
3177.17 6295674 6372154 6512374 6358508 6418776 6673072
3182.95 6961038 7213646 7232278 6529036 6071016 5431808
3188.74 5334278 4901798 4850200 4721460 4659004 4310836
3194.53 4248272 4209144 3975188 3850454 3510616 3568414
3200.31 3417822 3193946 3086052 2658936 2608114 2278990
3206.10 2067400 2108304 2001814 1921068 1754916 1438160
3211.88 1548036 1486848 1346268 1319964 1389514 1153898
3217.67 1143784 1026056 948438 1093276 1071304 1079444
3223.45 1161314 1133816 1175710 1328920 1210606 1331244
3229.24 1466878 1374152 1445848 1311504 1389646 1283090
3235.02 1282128 1344070 1080830 1278656 1364540 1494934
3240.81 1449524 1308546 898212 1200486 852194 895250
3246.59 1056866 1068970 989224 871610 696482 769632
3252.38 587970 565556 400334 413674 204764 87812
3258.17-48592 22698-141788-159784-253962-51576
3263.95-294688-505330-171740-431730-352050-666570
3269.74-583840-468706-299930-408902-358008-428716
3275.52-486752-820816-497060-605462-799490-777604
3281.31-703820-538928-664574-711160-547160-725556
3287.09-699024-671742-704400-712432-652468-518182
3292.88-535910-679050-961894-635332-554020-681578
3298.66-554148-389576-627064-461112-576580-561646
3304.45-661580-687642-381692-543598-275528-538974
3310.23-406166-577912-508158-603822-375796-443850
3316.02-445010-276614-246504-305764-503750-558326
3321.80-636322-596866-605962-503412-218712-405998
3327.59-476920-332640-692816-557456-626506-535334
3333.38-373456-335232-407732-538540-531556-582516
3339.16-391700-422928-429362-470758-431754-481830
3344.95-405400-372870-520122-129780-544344-303946
3350.73-285978-456110-101704-161924-195226-133290
3356.52-111804-117368-214850 64484 423792 3778
3362.30 400178 384204 550584 486508 691050 784644
3368.09 396812 886888 975914 698744 969480 978690
3373.87 983876 947178 905848 826294 975994 894578
3379.66 1057464 716246 828970 1080238 1057746 1076316
3385.44 1060162 844572 1075064 1077358 952014 846700
3391.23 914576 863600 706984 699790 586184 792298
3397.02 657054 466772 285786 679848 549332 414150
3402.80 362602 670146 645034 668614 537310 923362
3408.59 477192 704676 726480 675752 1038954 1219964
3414.37 1264170 1378554 1388016 1600392 2120984 2423196
3420.16 2540936 2670304 3076256 3394298 3743148 3985284
3425.94 4366372 4939302 5216316 5810836 6601202 6960054
3431.73 7331910 7830192 8472310 9588804 10164840 10841080
3437.51 11415390 12221190 13431140 14094200 15188080 16000600
3443.30 16599000 17560520 18448670 19522100 20076280 20883130
3449.08 21568890 22193340 22630880 22859430 22829940 23035920
3454.87 22634200 22348650 22018050 21503770 21198700 20939780
3460.66 21052440 21317790 21785920 21936910 22222740 22375330
3466.44 21923010 21375240 20841220 19500250 18717710 17357120
3472.23 16200530 14773180 13588550 11985300 10960480 9880180
3478.01 9020520 8033756 7137334 6119808 5495722 4619322
3483.80 4216380 3714220 2647926 2488092 1996408 1509858
3489.58 1185026 856930 537234 256268-94758-196282
3495.37-266402-433798-911774-1015346-863554-1147394
3501.15-1027480-928310-1182356-1292966-1380186-1552102
3506.94-1673206-1487346-1235206-1683078-1887862-1973238
3512.72-1875430-1753438-2122436-2097020-1716566-1985106
3518.51-1922664-1901564-1927582-1824668-1757680-1796916
3524.30-1673914-1921900-1712438-2007456-1776040-1933642
3530.08-1617226-1869042-1824622-1869796-1900258-1673514
3535.87-1744056-2012824-1760292-1873584-1582660-1859926
3541.65-1763064-1537386-1259418-1589380-1294360-1008808
3547.44-1456854-1399832-1472434-1297576-847850-1293360
3553.22-1041338-1325486-866586-1130750-912888-1053730
3559.01-475202-873992-202058-186054 86300-353298
3564.79 779714 745372 1197580 1330302 24962 566930
3570.58 96168 349256 93804 214146 113554 142004
3576.36 204492-4754 34884 844718 1185574 1502200
3582.15 418528 375696 498636 1437764 1091420 610486
3587.94 2244620-132438 413452-21756 1177026 399302
3593.72 581400 921904 263404 121508 431156-142704
3599.51 409680-60680-46134-364134-391010-724704
3605.29-559368 293228-891154 2107584-199804-1472118
3611.08 414516 287950-841822 98866-1118360-564070
3616.86 339900-443828 1849220-1128094-234956-1228406
3622.65-426138-1180028-503644-1214002 240602 2418578
3628.43 3625934 642912-1078516-634258-466750 53428
3634.22-871348-656992-875024-440384-492298-803880
3640.00-507306-578608-219106-809650-104254-743770
3645.79 1650110 708926 2279846 4023430 761014 2171560
3651.57-925018 345608-802330 855248 2988020-108692
3657.36-377020-90638-304970-161578-166804-275610
3663.15-236398-272198-137014-308748 372804 1809054
3668.93 847346 6380840-445860 45990-71022 2542100
3674.72 5222574 2576082-1038952 652612-41414-52
3680.50-1002840-16436-1070316 51970-1094106 195518
3686.29-1618572 6148612 1916084-1084766 1930506-260686
3692.07-648624-398340-775716-619442-669710-541334
3697.86-647546-504614-876612 1483188-526246-896684
3703.64-777888-562090-867136-461726-409442 1692792
3709.43-695072 548578 4061924-1005956-436018-299954
3715.21-769468-685794-581410 6890-452082-655982
3721.00 543562 73012-967606 120640-156424 1046440
3726.79-617330-356192-612854-443742 1578116 3377802
3732.57-1903668 2994800 518438 3493450 859236 227954
3738.36-608766 89498-57796 441462-1252704 8167996
3744.14 7357100-2088484 1165350-1271542 5065628 5241640
3749.93-2360474 6845474 3719102-1323256 128378-780040
3755.71 885166-762960-223480 964524 53198-905188
3761.50-547354-657698-834472 267988 79460-897946
3767.28-701886 104452 1717898-1251020-156834-1181116
3773.07-610178-1027696-612772-783916-809952-249936
3778.85 976962-1169502-537686-996132-436080-451360
3784.64-341272-895888-383384-919028-533918-946558
3790.43-506300-1029896-362566-815200-446762 406774
3796.21 448362-1176988 414894-1462066 5482510 3436734
3802.00-714606-60112-688314-428866 3837052 1461012
3807.78-1424094 137612-1046894 248852-1187202 565190
3813.57-1467262 3707446 5670544-1357864 543834-500836
3819.35 1781158 3288364 2039700-531970 334728-458886
3825.14 615312 540390 6714 30698 10940 634628
3830.92 2156958-252150 141832 1917928 1597980-664702
3836.71 7661666 2528586 223394 2259636 1254878 244080
3842.49 1649248 1082430 331860 748774 433818 633172
3848.28 765392 1117974 1392704 7559002 1227008 12797650
3854.07 3996770 77474 2258546 854536 1167544 899818
3859.85 1535378 2468128 1418376 971218 3611200 3254626
3865.64 617516 1619890 883816 4844140 4706568 953726
3871.42 1309090 1338076 2910778 1011788 1045786 878418
3877.21 1075752 949972 2906186 1872978 564376 1140112
3882.99 433584 1684222 4715916 397674 489794 711998
3888.78 180504 1678876 2946106-240482 790058-15050
3894.56 524858-221630 670136 264938 3015786-256988
3900.35 1811978 2109380-119856 3280960 481364 918458
3906.13-18828 128438-72084-55188 141492 114160
3911.92 58728-72588 123658-48974 795234 849220
3917.70-371054 776152 344006-67088 55388 200584
3923.49 557964 431282-37486 182214 116686 180500
3929.28 409106-73590 948734 294958 261602 139186
3935.06 18488 106256 193296 306236 235276 82074
3940.85 361480 742914-93964 350608 243712 699640
3946.63 759370 733154 279972 28856 239706 242280
3952.42 392224 194070 478950 330490 381394 551050
3958.20 620146 491856 647332 599308 583652 559570
3963.99 719432 652098 981176 824350 885188 984258
3969.77 1032316 1178596 1207314 1251718 1116534
##END=
