##TITLE=Trichloroethene
##JCAMP-DX=4.24
##DATA TYPE=INFRARED SPECTRUM
##CLASS=IUPAC A
##ORIGIN=NIST, Analytical Chemistry Division, 301-975-3108
##OWNER=COPYRIGHT (C) 2000 by the U.S. Secretary of Commerce
##DATE=00/02/01
##$SPECTRA VERSION=1.10
##$UNCERTAINTY IN Y=2.1 % relative (B=1.1E-04,C=2.4E-09,D=2.3E-13)
##CAS NAME=Trichloroethene
##CAS REGISTRY NO=79-01-6
##MOLFORM=C2 H Cl3
##MP=-73 C
##BP=87 C
##$NIST SOURCE=QUANT-IR
##SPECTROMETER/DATA SYSTEM=IFS66V (Bruker)
##INSTRUMENT PARAMETERS=KBr Beam Splitter; MCT Detector; Multipass cell
##STATE=gas
##SAMPLE DESCRIPTION=Trichloroethene Primary Gas Standard
##PRESSURE=101.3 Pa
##TEMPERATURE=23 C
##SAMPLING PROCEDURE=1 L/min Flow
##RESOLUTION=1.9290
##DATA PROCESSING=Happ Genzel Apodization
##XUNITS=cm-1
##YUNITS=(micromol/mol)-1m-1 (base 10)
##XFACTOR=1.0
##YFACTOR=9.0949E-13
##DELTAX=0.9645
##FIRSTX=575.652
##LASTX=3974.605
##FIRSTY=1.31E-06
##MAXX=3973.64
##MINX=575.65
##MAXY=.0009062
##MINY=-1.40E-06
##NPOINTS=3526
##XYDATA=(X++(Y..Y))
575.65 1441096 2079008 2427187 3944100 4102383 1962927
580.47 2145755 2601433 1268033 972521 1344222 772614
586.26-3060-513244-546934-447359 665914 503927
592.04 247651 464148 797147 245972 659679 1582372
597.83 1093925 695734 1251302 1444762 1818850 1722295
603.62 1416440 1851893 2888757 3068752 4107076 5520732
609.40 6894054 8385376 10060800 11444404 13531803 16251994
615.19 19127113 23117017 28005502 32963025 39398687 46360354
620.97 53890529 61553386 69333818 75908832 81833941 85767843
626.76 88793525 90113787 89768687 88258409 85146612 80679922
632.54 77675830 78472924 85229200 93682361 97058083 93306046
638.33 84424072 72253497 59336857 47332851 37011689 28984124
644.11 23323864 18906480 15212700 12057645 10137892 8364395
649.90 7097811 5621849 4352764 3477240 2830637 2096466
655.68 1850007 2259096 2812438 2153385 1837227 1996235
661.47 2205443 2096898 1887283 1364136 1515992 1948196
667.25 1988294 1558810 1729135 1605220 1838010 1619402
673.04 1280857 994098 1030915 1164783 1392929 1358971
678.83 1262423 986245 1364607 960929 872264 1043664
684.61 729689 302540 578732 530658 696131 228897
690.40 122432 225963 436660 274861 179848-121918
696.18-54548 72843 215408-40170 52076 73798
701.97-57322-150818 246973 113208 110978-89737
707.75 65774 122345 454327 264437 241841 162798
713.54 404594 272887 430145 502231 575460 337265
719.32 496611 658633 665941 365904 866188 969026
725.11 1004264 497895 1005311 1170394 1209284 955762
730.89 1246378 1000185 1043603 1038649 1516357 1518655
736.68 1671463 1430291 1905732 1940855 2362409 2016031
742.47 2044203 1748051 1989772 1775512 2192303 2085219
748.25 2517608 2340175 2593781 2258607 2732736 2575660
754.04 3358105 3915634 4911133 5512979 7642965 9453514
759.82 12238100 15166457 19552048 24184126 30554661 36630372
765.61 44658282 52337497 61785733 70354484 79317083 86445329
771.39 94495354 98853379 103006552 107484809 118715495 131281878
777.18 137612284 125131234 111692397 133288789 345815627 482920484
782.96 240483120 100388871 103597482 112309836 114297512 115890972
788.75 114356386 113259295 109476781 106190090 101041534 96738175
794.53 89713277 81085832 70290991 61596971 53292452 47237925
800.32 40907423 35387563 29054707 24361425 21477414 21283146
806.11 21410654 20885737 18453059 15759356 12293920 9423403
811.89 6965474 5804194 5085821 5048238 5191678 6027293
817.68 6736062 8175035 9298795 10862566 12655440 14700714
823.46 16878238 20045758 23714629 29191889 36298509 46548887
829.25 61950699 83322240 109372694 141809182 183948318 236722388
835.03 298628610 367995857 441882011 515799512 586450486 650521711
840.82 706239857 750845224 781954785 817689054 834142249 761654455
846.60 740881402 882089221 996385695 920832336 761258935 741352537
852.39 780604157 764011657 681923156 549975348 396533944 254041397
858.17 143898615 72627465 33561435 16211545 9624119 7703877
863.96 7062827 6153888 5330919 5521049 5317380 5025975
869.75 4828193 4934830 4554310 4267069 3802989 3823049
875.53 3643658 3473719 3007729 3001440 2772064 2423874
881.32 2242509 2562250 2628351 2796850 2836736 3167604
887.10 3541297 4012400 4349509 4935813 5462134 6498842
892.89 7549418 8564314 9889960 11762133 13718038 16079661
898.67 18639892 21542323 23816842 25679069 26644096 26404107
904.46 24805176 22424334 20353659 20785952 24431706 29728125
910.24 34111354 36915931 37986510 38655238 39744505 41984887
916.03 45789217 51674767 59552062 69748060 81996145 96716804
921.81 114590033 136450065 162726378 194478916 232200103 276542935
927.60 326728039 382123529 441464232 501397885 557689116 605435738
933.39 639285477 655139473 651047281 629407783 597386106 568517153
939.17 556518306 571154407 614681582 674538506 728414063 749112087
944.96 716825353 642177195 546299892 446020680 353380526 276378538
950.74 217274366 174221682 142515678 117385787 96035562 77477901
956.53 61212865 47355702 35707838 26868022 20162243 15126799
962.31 11470333 9169253 7724677 6852872 6466076 6710942
968.10 6775086 6874788 6996140 7311486 7764683 8413096
973.88 9375551 10918107 12525254 14149388 15288584 15976824
979.67 15879957 14819380 13732232 14171748 14331360 13213757
985.45 13116009 13174239 12975849 13016623 12883764 12524661
991.24 11519260 10177613 8749602 7397261 6184293 5362053
997.03 4688860 4464075 4581142 4760224 4857917 5168701
1002.81 5575451 6139322 6555720 7197623 7712070 8457377
1008.60 9044267 9253894 9475071 9970900 10109675 10141104
1014.38 10366387 10375608 10013647 9664260 9270521 9048923
1020.17 8850826 8973858 9178259 9125109 8545915 7744168
1025.95 6694665 5668898 4748315 4057366 3481604 3248557
1031.74 2945468 2588567 2382307 2212071 2080489 1823332
1037.52 1724236 1814539 1528643 1481944 1527553 1525168
1043.31 1500889 1540594 1411491 1268840 1202476 1303637
1049.09 1306066 1249924 1121734 1025346 1058077 1092971
1054.88 929135 929132 849428 778115 647904 734835
1060.67 708759 596264 579364 674656 728572 812537
1066.45 762417 536205 526692 657315 671364 498657
1072.24 576868 764975 663458 749088 770618 642029
1078.02 573949 567757 549020 606146 515666 557048
1083.81 545861 680355 763807 738939 802178 891313
1089.59 772575 650120 581401 722581 808737 928126
1095.38 1170929 1394731 1476696 1482557 1504901 1754739
1101.16 2032462 2221948 2364310 2593923 2647858 2613871
1106.95 2823799 3069976 3182506 3252873 3234680 3442156
1112.73 3616742 3638754 3658189 3648362 3325158 2926393
1118.52 2676926 2625540 2502693 2173851 2095925 2270613
1124.31 2276532 2114423 1965422 1935549 1692586 1523302
1130.09 1436653 1355628 1246539 1018409 920542 1017178
1135.88 904640 762078 835004 958739 1106332 1260370
1141.66 1237792 1068226 876908 693511 560351 663839
1147.45 686989 797948 767506 593736 409514 477804
1153.23 568981 443897 356845 392071 273950 292965
1159.02 373699 359727 264238 304042 92369 163380
1164.80 343491 281162 176307 233299 231372 214423
1170.59 243138 383100 495202 530043 488595 465319
1176.37 425972 455925 469516 517219 553258 642875
1182.16 702882 673897 518219 493985 604400 565032
1187.95 512319 653761 733612 696647 699729 720006
1193.73 767666 845364 793763 818758 993574 1075474
1199.52 1159787 1472386 1536166 1609735 1783005 1745363
1205.30 1934210 2306059 2496241 2553555 2754912 3071191
1211.09 3346652 3679864 4055968 4423707 4769760 5176541
1216.87 5610798 6166415 6698740 7295080 7930280 8638563
1222.66 9449865 10450004 11365031 12120738 12612621 12739237
1228.44 12428251 12000917 12068305 13591772 15104046 15962297
1234.23 16815273 17903109 20017085 22730521 25860814 29570311
1240.01 34075706 39226695 44924053 50278533 54416347 56765376
1245.80 56803038 54663232 51413610 50864520 55258120 58181472
1251.59 59533414 62902356 65326028 64971938 62757658 58572803
1257.37 53848590 50277991 46965354 42995419 38515978 34215880
1263.16 30129694 26539209 23734976 21552751 20133980 19312798
1268.94 18166022 16521776 14633642 12411798 10228434 8376858
1274.73 6742151 5497458 4660981 3915048 3267905 2819303
1280.51 2430571 2008842 1592420 1409699 1233382 981090
1286.30 786424 635483 675230 824360 881280 641047
1292.08 417061 443346 468524 551085 700652 792644
1297.87 758142 768610 905604 901538 925315 1062726
1303.65 1165898 1303083 1440011 1581945 1683231 1805817
1309.44 1894874 1892134 1952939 2126534 2211804 2302048
1315.23 2346267 2369679 2359233 2284979 2268651 2341643
1321.01 2327739 2158705 2034698 1952989 1857518 1735732
1326.80 1759984 1714280 1595823 1357030 1224477 1208452
1332.58 1003531 837857 863589 838982 749063 746705
1338.37 724495 663570 631845 582996 641675 744614
1344.15 647362 697186 653701 608409 508482 349524
1349.94 337391-183128-329741 183485 123596 135005
1355.72 432942 549773 648468 697826 604224 394707
1361.51 284876 458252 734698 817647 875669 885272
1367.29 877427 739644 655464 760961 828410 758695
1373.08 795972 1169817 1353619 1224308 992275 1070294
1378.87 1255039 1223369 1123689 1104858 1347311 1505712
1384.65 1343003 1005028 788460 996531 1202689 1229786
1390.44 1191611 1115958 957952 805551 843926 1022263
1396.22 1013785 832793 782800 957808 1089535 1174599
1402.01 1233257 993693 856755 977714 1048068 1161834
1407.79 1227665 1200941 1220539 1170473 1202057 1283763
1413.58 1389511 1277649 1226409 1269985 1068838 948749
1419.36 1332921 1561443 1610748 1481789 1399708 1608217
1425.15 1736427 1642127 1571476 1428831 1281186 1317642
1430.93 1274858 1162026 1067632 976907 658808 294001
1436.72 576858 812008 897244 891940 869567 850500
1442.51 703635 646954 729171 695785 450015 458266
1448.29 655914 714732 707309 673312 686807 787448
1454.08 707221 74848-317293 190862 547267 638214
1459.86 685468 725500 737015 662520 432673 622968
1465.65 844733 755612 657198 688893 645138 350413
1471.43 27555 85549 399679 530663 415458 604551
1477.22 653826 611154 602447 648919 750518 760168
1483.00 643473 652491 635440 463108 443509 576708
1488.79 433285 323780 567994 739544 630275 441805
1494.57 74536-56095 289243 250094 269503 519000
1500.36 615084 634075 536671 323482-333355-681370
1506.15-607930-136795 175081 383331 542621 499644
1511.93 434471 478598 508457 385208 135436 256285
1517.72 543723 406660-104962-223132 177952 550834
1523.50 524169 345991 484895 642674 706390 855082
1529.29 1019947 1037808 1052958 966724 1216381 1869243
1535.07 2384095 2879465 2942204 2874639 3771820 5347241
1540.86 6650179 8296283 10207230 11891122 13862689 16271150
1546.64 18601281 21503879 25645342 31333599 37387785 44007050
1552.43 51113375 57324079 60834106 59922188 53402155 43695181
1558.21 38408507 43733516 45712173 42499414 47541263 53713603
1564.00 55703822 54131701 50338952 44660092 38544257 32812402
1569.79 28693647 25701211 23882843 23066129 23159060 23083137
1575.57 24010115 26177457 28377648 30794105 33720249 37088516
1581.36 40879460 44562762 47746245 50035789 51249733 50856447
1587.14 48937414 45743677 42256296 39879920 40142981 43684624
1592.93 48816593 52414206 52639301 49671754 44766922 38828640
1598.71 32670550 26680795 21594630 17568577 14444198 12050349
1604.50 10179366 8337806 6731993 5392423 4327628 3402400
1610.28 2701372 2086079 1561099 1165220 828021 113466
1616.07-101337 422622 517930 522719 644383 552990
1621.85 226187 60016 361840 554890 483654 359720
1627.64 459375 598497 511048 360589 560327 569798
1633.43 161953-468971-232783 235352 424735 397291
1639.21 382525 460671 378728 314214 320104-16245
1645.00-425478-168958 80780 158513 210926 130544
1650.78-598665-1548538-1123003-266163 114788 238140
1656.57 338007 320924 238877 228625 230312 88837
1662.35 136992 379400 420436 425068 350142 103982
1668.14-149911 31571 154335 185993 375287 362975
1673.92-61995 40035 490322 569200 451169 431946
1679.71 493956 569277 403794-90220-686062-223596
1685.49 606213 703384 732955 699094 782921 830769
1691.28 797205 721960 606330-182852-494276 346997
1697.07 576113 10993-737548-264566 539570 475169
1702.85 188921 11287-43998-5714 303074 322953
1708.64 244689 220834 261633 197404 103220-78456
1714.42 79635 53470-511603-317149 235690 411444
1720.21 465298 439582 467522 503239 612476 587843
1725.99 506230 513154 499728 463875 574277 535682
1731.78 138991-407001-175177 463934 740024 722427
1737.56 665824 442891 648352 883556 803941 865108
1743.35 1101053 1191277 1217865 1296625 1434630 1505047
1749.13 1595529 1467242 1737794 2155622 2461407 2636128
1754.92 2644043 2629888 2813539 2887154 2825209 2622769
1760.71 2478357 2687838 2833409 2854911 2892050 2774909
1766.49 2586345 2450516 2586244 2459082 2256203 1878020
1772.28 2015072 2441554 2398742 2321252 2424843 2422666
1778.06 2448939 2508415 2456781 2445301 2619075 2585227
1783.85 2450348 2457188 2543327 2525200 2549855 2640129
1789.63 2643976 2518584 2201174 1819270 1603540 1375644
1795.42 1274963 1270704 1148252 943284 962949 913341
1801.20 826409 836169 904920 837975 760107 768894
1806.99 741245 647565 576886 528446 601218 554470
1812.77 475956 492229 600990 569286 571676 560234
1818.56 594464 526718 506528 473679 478227 475799
1824.35 463267 493473 458348 473033 513840 545990
1830.13 626947 674500 744336 698086 750517 744938
1835.92 772308 870152 861137 785837 785575 740193
1841.70 655703 388493 330384 607597 757831 798327
1847.49 868468 859001 866249 939053 1084382 1161628
1853.27 1203532 1216814 1363120 1438405 1486917 1562619
1859.06 1643824 1552080 1587927 1668906 1782954 1814051
1864.84 1773939 1780744 1819776 1702454 1803529 1962565
1870.63 1914569 1777739 1632813 1513173 1474839 1361559
1876.41 1355502 1377909 1339059 1284962 1341073 1303615
1882.20 1169694 1078700 966050 877268 910572 823616
1887.99 624782 442507 355978 290381 265007 250534
1893.77 215579 166927 301354 343287 388446 347953
1899.56 229721 277158 355709 328555 414803 405977
1905.34 453358 466037 499464 486388 422188 414611
1911.13 457004 444789 604502 644516 729471 567215
1916.91 336535 451308 635052 596388 600198 553165
1922.70 577950 596268 661005 679835 632549 599553
1928.48 621387 605329 656365 563843 519423 559053
1934.27 618525 629674 626666 590906 556027 543533
1940.05 542120 521467 444737 537866 648961 592001
1945.84 613008 685730 671746 581487 622933 641889
1951.63 699516 772209 871101 841389 788329 721899
1957.41 707690 685937 800000 825143 798467 822629
1963.20 882072 900439 855825 825390 917623 915455
1968.98 846743 886611 1011604 1106100 1263120 1097292
1974.77 768448 777401 880904 925644 886704 787936
1980.55 750706 835308 907408 761800 780473 809315
1986.34 744495 681017 675381 656134 697688 752248
1992.12 789422 731684 723366 760971 794666 741586
1997.91 725159 738726 726397 787508 862779 800694
2003.69 647511 592066 724741 788153 810295 741018
2009.48 730922 705486 747642 851007 945650 826284
2015.27 675828 680234 679976 673299 733133 709503
2021.05 755388 684939 753060 825238 834954 791288
2026.84 816925 783341 816847 881685 883508 907391
2032.62 944068 937138 1003814 955419 804420 779311
2038.41 834764 870461 896928 829784 870602 913481
2044.19 918030 873857 805033 768747 837355 813181
2049.98 797894 730847 753209 765153 866778 958747
2055.76 953736 816921 781893 787022 916750 904061
2061.55 800481 860849 949456 999838 966411 964805
2067.33 1008595 1014754 1077543 1055648 1013495 1040500
2073.12 1175418 1207864 1224883 1151232 1168199 1283858
2078.91 1322998 1348571 1282280 1288470 1360457 1426616
2084.69 1488209 1510661 1638279 1634642 1593158 1645514
2090.48 1830150 1898390 1940131 1865497 1840351 1841706
2096.26 1884219 1845946 1815292 1948625 1984342 1766620
2102.05 1519469 1505264 1619300 1509385 1299888 1181816
2107.83 1154033 1016929 942061 818607 950242 975545
2113.62 860798 735494 835541 858949 897337 758922
2119.40 828237 859321 730645 709683 847837 830046
2125.19 832931 724116 683331 801279 893128 904599
2130.97 874698 885295 948938 848730 759478 750089
2136.76 803724 918859 1067760 1023232 926362 880173
2142.55 866601 908720 1013700 986256 1019016 1050912
2148.33 988639 933150 1022124 1106745 1070044 889515
2154.12 887913 991167 997888 926055 1045433 1078667
2159.90 1012226 927577 1017290 1127130 1107423 998125
2165.69 1165379 1201721 935212 908609 1054800 1067889
2171.47 1042043 1151857 1229128 1129127 1061558 1122961
2177.26 1243458 1150121 1125175 1237517 1270012 1153237
2183.04 1249748 1254031 1135351 1157546 1352635 1283257
2188.83 1201998 1250388 1369564 1252156 1245898 1277955
2194.61 1166312 1049636 1206143 1288901 1210118 1192535
2200.40 1220006 1200281 1173552 1169843 1195168 1143690
2206.19 1182983 1261042 1352402 1270605 1268451 1354172
2211.97 1428936 1497850 1555209 1503850 1486403 1473167
2217.76 1575528 1659396 1615176 1431456 1455606 1534003
2223.54 1487398 1478327 1481578 1390897 1417110 1416889
2229.33 1413706 1355098 1329185 1298995 1285281 1236218
2235.11 1222954 1238750 1226395 1164848 1192099 1206729
2240.90 1142069 1105588 1126909 1041050 1076337 1057057
2246.68 983493 1004357 1086447 1061531 1110828 1128497
2252.47 1060758 1060146 1158476 1167586 1130180 1159324
2258.25 1128255 1132445 1159343 1145281 1101323 1079334
2264.04 1105545 1090320 1131659 1178731 1186677 1058606
2269.83 1103007 1142238 1094928 979163 957949 1027408
2275.61 1143129 1122845 1083234 1097818 1142352 1070592
2281.40 1077981 1069419 1128090 1086155 1028485 1044173
2287.18 1086364 1078956 1072431 1037596 1105566 1196187
2292.97 1214212 1205958 1199486 1096418 1038768 1087514
2298.75 1114626 1052557 1083349 1040457 1060421 1120799
2304.54 1298162 1281239 1223007 1255635 1248194 1221953
2310.32 1235965 1340291 1312580 1132433 1096799 1175090
2316.11 1268235 1209844 1106540 1016087 1020110 1087239
2321.89 1171130 1171386 1112529 1099661 1082609 1016216
2327.68 1040612 1023095 1091150 1109646 1050202 1055615
2333.47 1032792 981458 972234 898102 906201 881834
2339.25 936867 1050808 1075329 1126616 1196456 1131427
2345.04 984956 965766 1157029 1183952 1105724 1093584
2350.82 1120524 1094585 1065283 1022113 1037733 1038773
2356.61 962750 900262 925196 961862 978648 887146
2362.39 852249 872393 872419 854385 1013945 1008091
2368.18 962895 1037208 1070242 1096857 1010438 1066790
2373.96 1270549 1177473 1073330 1093857 1192440 1231464
2379.75 1217362 1224712 1262090 1191046 1256503 1221754
2385.53 1159799 1140124 1131052 1164921 1397768 1364222
2391.32 1170349 1015888 1139886 1280762 1320786 1253102
2397.11 1297058 1261127 1266481 1380352 1469873 1345487
2402.89 1198786 1206441 1241340 1312201 1416381 1253547
2408.68 1219289 1276579 1328946 1336826 1388126 1373452
2414.46 1398509 1402813 1431845 1439322 1474339 1448872
2420.25 1467889 1535047 1619006 1668237 1707664 1626511
2426.03 1682457 1783179 1877639 1862680 1834036 1779379
2431.82 1726852 1717158 1826521 1755768 1654728 1633395
2437.60 1759277 1704406 1558437 1441411 1381512 1293369
2443.39 1287880 1299600 1356005 1330735 1357689 1428712
2449.17 1487693 1432195 1430631 1277045 1272379 1305595
2454.96 1382031 1435423 1458001 1402143 1444255 1464969
2460.75 1520303 1538497 1616194 1589986 1593419 1686140
2466.53 1712862 1848410 2067405 2028911 1967558 2009449
2472.32 2067153 2092770 2109660 2131876 2213102 2184249
2478.10 2191369 2212394 2291091 2206858 2044152 2105177
2483.89 2171056 2112101 2124295 2108656 2126504 2064700
2489.67 1934161 1866534 1955720 1878194 1811005 1832753
2495.46 1939275 1917631 1890802 1934094 1933187 1798223
2501.24 1856177 1824638 1832698 1857347 1857827 1822517
2507.03 1801701 1704781 1676129 1765127 1863906 1897776
2512.81 1954310 2013628 1920701 1830154 1911507 1898880
2518.60 1906511 1917952 1959571 1911362 1965624 1980496
2524.39 1894295 1901874 1936329 1792321 1801225 1781812
2530.17 1718415 1663594 1653958 1650872 1685233 1629203
2535.96 1465543 1294082 1245689 1292651 1501668 1434774
2541.74 1285803 1242825 1387266 1424665 1293967 1210824
2547.53 1210351 1288453 1395394 1378229 1356356 1333648
2553.31 1392367 1227601 1203102 1366209 1457265 1428366
2559.10 1333574 1270687 1332502 1378643 1315269 1329396
2564.88 1367544 1310905 1254544 1257268 1427544 1449362
2570.67 1349078 1318686 1444216 1432058 1306188 1294754
2576.45 1386260 1372882 1352611 1330021 1332404 1297647
2582.24 1359568 1410445 1349634 1372943 1444703 1305373
2588.03 1265640 1357888 1388439 1342184 1346797 1392646
2593.81 1486803 1510500 1480044 1333626 1293844 1370759
2599.60 1328310 1275630 1344818 1408024 1393611 1395553
2605.38 1411872 1380422 1284760 1270069 1378236 1435880
2611.17 1556636 1504928 1458098 1439684 1537964 1527360
2616.95 1470626 1424925 1434497 1337749 1308829 1293713
2622.74 1467027 1612272 1570845 1425719 1479264 1533074
2628.52 1488727 1430944 1431030 1400073 1395808 1299769
2634.31 1335988 1460422 1565165 1473425 1459379 1473121
2640.09 1418878 1361146 1403852 1434478 1511923 1489999
2645.88 1462307 1459470 1433840 1431842 1612393 1571117
2651.66 1554857 1484879 1437251 1444198 1385106 1296143
2657.45 1367954 1476104 1482820 1326095 1302959 1378965
2663.24 1426525 1438941 1546524 1447261 1335048 1288260
2669.02 1320887 1416645 1535683 1513522 1471195 1457766
2674.81 1576932 1545136 1495261 1456657 1554205 1449223
2680.59 1395926 1468014 1448535 1409833 1439342 1350615
2686.38 1370561 1433286 1462057 1382176 1461932 1476723
2692.16 1506448 1437317 1334446 1269704 1367838 1532252
2697.95 1539022 1291954 1250545 1269040 1361562 1489209
2703.73 1688067 1694682 1631761 1676099 1713357 1621235
2709.52 1634807 1530522 1431044 1437565 1407181 1267735
2715.30 1348297 1513562 1656099 1607395 1609966 1606003
2721.09 1598849 1595138 1657809 1565265 1555041 1527448
2726.88 1510980 1432374 1427876 1497348 1451911 1307111
2732.66 1309238 1418328 1465130 1316506 1246393 1359166
2738.45 1564052 1591935 1665020 1558690 1392472 1345082
2744.23 1373072 1499818 1685891 1608419 1506872 1648294
2750.02 1671402 1549848 1577573 1553570 1430045 1359654
2755.80 1342804 1397820 1449041 1410611 1547353 1626884
2761.59 1569252 1422010 1444139 1433379 1499765 1527928
2767.37 1583017 1584774 1655601 1661909 1669412 1670948
2773.16 1588827 1530221 1564134 1478345 1523291 1605184
2778.94 1672162 1657698 1582352 1634211 1680056 1633533
2784.73 1526832 1500412 1627280 1709244 1730557 1672885
2790.52 1655620 1548040 1663067 1852642 1773085 1807297
2796.30 1877250 1802844 1896645 2089942 2332202 2358338
2802.09 2291349 2231152 2374599 2504867 2440998 2527218
2807.87 2643404 2623533 2658087 2733549 2742623 2724717
2813.66 2836781 2874864 2956323 3025714 3098613 3212925
2819.44 3119087 3010822 3167838 3418487 3582489 3548310
2825.23 3601391 3728477 3864720 3654308 3380736 3188530
2831.01 3239308 3353657 3442036 3200525 3059043 3336276
2836.80 3496292 3237323 3020505 2866543 2744457 2479133
2842.58 2184899 2009623 2100396 2093799 2132048 1983392
2848.37 1942788 1965552 1945406 1828697 1809483 1662193
2854.16 1765286 1973104 1991830 1795459 1827818 1888377
2859.94 1875135 1788208 1763801 1814012 1732373 1657457
2865.73 1755034 1766758 1740765 1641842 1671674 1757711
2871.51 1949294 1982361 2007394 2243381 2238020 2031582
2877.30 2060767 2007488 1956338 2075285 2085419 1935620
2883.08 1814020 1882944 2146061 2286393 2320996 2117316
2888.87 2038991 2064193 2163142 2162717 2114449 2125309
2894.65 2048287 1948900 1980112 2122469 2365945 2450090
2900.44 2402571 2296262 2201554 2385557 2542523 2471689
2906.22 2347940 2309391 2388622 2362388 2353023 2308203
2912.01 2342857 2321305 2436856 2502557 2339905 2196169
2917.80 2340054 2427802 2411045 2501548 2441206 2305667
2923.58 2534453 2643345 2534568 2505159 2581019 2584202
2929.37 2624729 2519570 2461207 2612066 2750975 2827877
2935.15 2893150 2884969 2969925 2773128 2679756 2759592
2940.94 3007701 3118092 3132590 2947529 2847365 2921402
2946.72 3099041 2990111 2803478 2933564 3169436 3061965
2952.51 2977796 3012077 2955727 3054733 3279775 3180362
2958.29 2977573 2881163 2544933 2765066 3447335 3463452
2964.08 3446427 3446289 3332052 3246400 3389158 3494188
2969.86 3556751 3628589 3586767 3647681 3929177 3954537
2975.65 3684886 3615463 3827142 3850416 3757709 3825803
2981.44 3957226 4070148 4066237 3991126 3949622 3933043
2987.22 4012611 3845888 3764585 3712153 3785405 3805688
2993.01 3810718 3922198 3828888 3516047 3439282 3268377
2998.79 3115438 3128718 3161001 3108607 2988862 2981924
3004.58 3046491 2817078 2780909 2854367 2959199 2896271
3010.36 2763378 2724256 2777487 2583644 2455050 2512751
3016.15 2654244 2637124 2649211 2658904 2564840 2522736
3021.93 2530880 2446178 2480288 2588949 2492479 2379182
3027.72 2341567 2252237 2248470 2354261 2522476 2407004
3033.50 2242654 2437756 2582355 2477067 2315024 2312599
3039.29 2406319 2361377 2422033 2438744 2462838 2481069
3045.08 2665564 2851901 2800319 2635706 2753514 2733368
3050.86 2689196 2638580 2595545 2660367 2613701 2585209
3056.65 2779343 3025174 2847803 2618685 2692784 2872351
3062.43 3011464 3107726 3197749 3265911 3367380 3580493
3068.22 3865395 4261316 4679646 5144247 5586587 6019039
3074.00 6333083 6769899 7584552 8735244 9897825 11349727
3079.79 13466120 16083569 19687018 24559711 30627649 38030409
3085.57 46549521 55634767 63999282 70912505 74740188 74748215
3091.36 70401127 64038221 66028662 80906998 78937747 60301421
3097.14 62847014 76004072 84229330 84557339 78416276 67200397
3102.93 54012393 41423192 31362228 23835633 18648398 14920696
3108.72 12343824 10362076 8972892 7773400 6922300 6194967
3114.50 5866258 5288296 4938116 4851515 4615029 4158260
3120.29 4371510 4328939 4194100 4237555 4168434 4114927
3126.07 4330625 4356711 4297353 4449805 4688224 4787602
3131.86 4849553 4863616 4849093 4663748 4631485 4640799
3137.64 4745765 4679838 4883513 4915118 4911956 5098109
3143.43 5387351 5390564 5514189 5649522 5649047 5336716
3149.21 5195415 5383954 5669897 5837732 6412183 6863453
3155.00 7323773 7813090 8347035 8695773 9182188 9701983
3160.78 10335435 11060004 11526155 11787813 12158193 12295412
3166.57 12464659 12577567 12398998 12249904 12079648 11819231
3172.36 11935389 11859282 11177019 10690225 10584520 10119731
3178.14 9203067 8029411 6856085 5518933 4519159 3731212
3183.93 3298023 3188456 3042839 2980659 3136192 2967631
3189.71 2858087 2705230 2693908 2662669 2819535 2720278
3195.50 2583587 2484883 2428788 2575544 2871738 2810886
3201.28 2783031 2904256 3080643 2958454 2834542 2685340
3207.07 2616664 2658525 2851925 2937827 2860042 2589627
3212.85 2610648 2782200 2996720 3116632 3055440 2708025
3218.64 2624564 2903768 3084580 2939009 3043812 2957922
3224.42 2870754 3075172 2968485 2769869 2936949 3066341
3230.21 3137706 3036057 3016170 2953112 2983171 2900227
3236.00 2943173 2867980 2993246 3183981 3217874 3084481
3241.78 3036342 3017058 3174966 3298627 2914790 2598494
3247.57 2917745 2951191 2826283 2910620 3091442 3146223
3253.35 3292998 3165968 3168732 3264363 3413812 3123200
3259.14 2976786 3161910 3403403 3193895 3174654 3249996
3264.92 3101889 2974967 3077359 3013624 3036247 3077198
3270.71 3043285 3097378 3288768 3224608 3056855 3065451
3276.49 3120727 2900614 2870755 2841871 2732166 2678661
3282.28 2830819 2777443 2761633 2754387 2879861 2973862
3288.06 3148967 3009228 2704840 2533410 2677526 2733110
3293.85 2735898 2830392 2898110 2896591 2886359 2815546
3299.64 2692553 2748770 2919924 2855806 2609628 2450066
3305.42 2739279 2831288 2850098 2909500 2752953 2644931
3311.21 2853895 2729212 2688186 2521545 2451615 2664124
3316.99 2898662 2934677 2913502 2730196 2614326 2631273
3322.78 2788289 2780886 2712308 2582855 2631479 2629777
3328.56 2809018 2671240 2516448 2545558 2944659 2757657
3334.35 2431377 2601153 2857060 2638920 2579714 2533007
3340.13 2566174 2669665 2715843 2684596 2727027 2571854
3345.92 2539368 2627078 2746910 2547933 2414854 2379809
3351.70 2550232 2728790 2530332 2438939 2709966 2952831
3357.49 2958644 2890028 2973607 2825888 2667943 2566972
3363.28 2503884 2447972 2693639 3033407 2850929 2629120
3369.06 2520329 2505352 2572912 2503567 2675204 2705607
3374.85 2700242 2691796 2552177 2337266 2469456 2606374
3380.63 2614344 2407928 2528852 2581850 2698815 2852472
3386.42 2899020 2755371 2637851 2782011 2833998 2556787
3392.20 2405850 2326850 2672350 2822560 2863115 2684043
3397.99 2402213 2577124 2666127 2582280 2532537 2468331
3403.77 2387736 2484133 2614937 2653843 2777048 2665436
3409.56 2466121 2217552 2289344 2555510 2672018 2580445
3415.34 2493344 2488721 2515131 2551391 2552497 2546731
3421.13 2604064 2713978 2684860 2607377 2608045 2765628
3426.92 2734033 2415462 2574885 2592977 2464750 2537948
3432.70 2454986 2315827 2513659 2435548 2507828 2765989
3438.49 2778346 2638304 2614303 2472854 2396708 2380641
3444.27 2841729 2975631 2698887 2606236 2766469 2709689
3450.06 2719670 2827188 2840589 2843583 2889777 2848380
3455.84 2740378 2678182 2813880 2626388 2629550 2869002
3461.63 2905044 2731750 2716765 2710979 2734560 2702178
3467.41 2891551 2901943 2875669 2912382 2799151 2640943
3473.20 2765669 2867788 2748549 2755981 2727273 2650291
3478.98 2854505 2796012 2847460 2885426 2933181 2907761
3484.77 3053007 3125039 2995266 2794834 2779355 2635273
3490.56 2539583 2633817 2988900 2989207 3093855 3040868
3496.34 2921729 2909047 2906576 2873999 2808220 2589013
3502.13 2694122 2869385 2962528 2949897 2786780 2720166
3507.91 2893492 3053202 3080891 2798952 2663995 2608353
3513.70 2748951 2838298 2859339 2774878 2817827 2886538
3519.48 2876824 2806515 2751376 2615399 2774421 3000457
3525.27 2878500 2738117 2740152 2698531 2704120 2768553
3531.05 2918201 2863753 3013788 2925324 2831732 2727427
3536.84 2913384 2973557 2717500 2593478 2902406 2915595
3542.62 2810996 2925781 2973909 3033687 3139228 3142575
3548.41 3031017 2836678 2687562 2821713 3043770 2806668
3554.20 2820722 2951959 2897730 2953480 3056752 2859605
3559.98 2799917 3038414 3125956 2864312 2672467 2617140
3565.77 2561979 2723315 3057658 2993551 2880645 3055012
3571.55 3247298 3028367 2821031 2935984 3112996 2975254
3577.34 2858334 2903363 2943192 2942406 3066998 3173908
3583.12 3212499 3095690 3119402 3107664 2998478 2782868
3588.91 2940040 3092132 3016439 3002065 3036804 2900413
3594.69 2995173 2995180 2815438 3020407 3155684 3028569
3600.48 3050236 2921476 2922437 3154093 3297247 3079807
3606.26 3115444 3044757 2742636 2947923 3296796 3134340
3612.05 2967407 2914541 2956290 3089446 3271401 3307674
3617.84 3112308 2920466 3087656 3232158 3456915 3378721
3623.62 3279111 3274837 3454106 3239157 2751792 2625879
3629.41 2979915 3135019 3178091 2991084 2975004 3290050
3635.19 3528377 3438974 3291800 3294990 3354231 3303360
3640.98 3251824 3256596 3259820 3251190 3331518 3131614
3646.76 3026787 2829848 2858728 3056504 3349272 3605133
3652.55 3430138 3322884 3159954 2923692 3119433 3327497
3658.33 3502306 3512118 3438400 3350955 3249092 3393291
3664.12 3480302 3284652 3257628 3192412 3092563 3048727
3669.90 2760058 3147521 3487512 3266515 2867303 2404595
3675.69 2642060 3153349 3291598 3185229 3231725 3305572
3681.48 3252314 3296125 3485168 3417936 3312524 3023952
3687.26 2565088 2918186 3257557 2974290 3050400 3209921
3693.05 3211074 3448617 3666833 3578781 3634272 3713152
3698.83 3775453 3567782 3320753 3591404 3730962 3557506
3704.62 3484782 3553000 3602953 3404557 3287894 3444439
3710.40 3330639 3125166 3456174 3849565 4104316 4141639
3716.19 4019102 3963933 3907210 3894185 4152277 4192019
3721.97 4184361 4263724 4391420 4144920 3954304 4044159
3727.76 4109907 4178683 4094793 3763280 3792223 3969512
3733.54 3840782 3659928 3438344 3497620 3625493 3569680
3739.33 3440013 3372838 3597814 3194081 2115482 2313270
3745.12 3362340 3474176 3138061 2471386 2751361 3073980
3750.90 2470084 2666780 3394455 3662901 3578245 3471982
3756.69 3528290 3361447 3303500 3304325 3420356 3463818
3762.47 3562849 3521980 3285964 3224261 3460029 3573653
3768.26 3370645 3114184 3270526 3445578 3538915 3632891
3774.04 3646067 3542005 3419305 3225863 3129154 3220907
3779.83 3462053 3494650 3569872 3491975 3475616 3510227
3785.61 3547663 3396195 3461034 3555592 3723651 3543756
3791.40 3520083 3503761 3539188 3448602 3326724 3403295
3797.18 3494903 3491053 3395636 2671884 2729265 3205135
3802.97 3284252 3340693 3237135 3050212 3477298 3729424
3808.76 3701050 3625047 3537401 3399765 3550361 3462163
3814.54 2965159 2888588 3467747 3463334 3478069 3313365
3820.33 3000983 3035738 3354407 3459853 3523663 3375094
3826.11 3495344 3566378 3520425 3624293 3580533 3360931
3831.90 3418482 3504574 3316393 3375136 3420072 2601079
3837.68 2709022 3138813 3313905 3423092 3584374 3440553
3843.47 3459157 3602678 3571408 3529463 3597273 3624842
3849.25 3599237 3303257 3133997 2874613 2210278 2566653
3855.04 3315495 3489146 3669770 3870705 4160484 4197792
3860.82 4127003 3830927 3578712 3314139 3486934 3803711
3866.61 3721475 3476132 3121278 3112492 3466668 3723110
3872.40 3667837 3360455 3474210 3615339 3598150 3401319
3878.18 3265772 3223324 3485168 3618522 3642428 3388716
3883.97 3194978 3185965 3412509 3547166 3644941 3595520
3889.75 3270872 3152809 3479554 3523638 3564041 3483066
3895.54 3487226 3411652 3320849 3223661 3443335 3335514
3901.32 3210146 3421594 3456259 3289349 3341391 3509350
3907.11 3426993 3403963 3657037 3763173 3837985 3704317
3912.89 3541515 3485726 3476958 3299070 3369501 3425365
3918.68 3447387 3304638 3398036 3507986 3524545 3408667
3924.46 3471581 3697375 4000934 3995439 3852920 3794180
3930.25 3998313 3897267 3746327 4032267 4166919 4062723
3936.04 4220457 4375125 4315169 4017093 4107088 4236231
3941.82 4418789 4422920 4350894 4440200 4350540 4119545
3947.61 4211699 4344013 4313449 3947927 3792704 3819465
3953.39 3863827 3810361 3824175 3818556 3881631 3751137
3959.18 3713969 3569016 3536302 3561659 3729020 3594166
3964.96 3530977 3626941 3650598 3746650 3928849 3882199
3970.75 3711305 3501095 3652419 3672668
##END=
