##TITLE=Trichloroethene
##JCAMP-DX=4.24
##DATA TYPE=INFRARED SPECTRUM
##CLASS=IUPAC A
##ORIGIN=NIST, Analytical Chemistry Division, 301-975-3108
##OWNER=COPYRIGHT (C) 2000 by the U.S. Secretary of Commerce
##DATE=00/02/01
##$SPECTRA VERSION=1.10
##$UNCERTAINTY IN Y=2.1 % relative (B=1.1E-04,C=2.4E-09,D=2.3E-13)
##CAS NAME=Trichloroethene
##CAS REGISTRY NO=79-01-6
##MOLFORM=C2 H Cl3
##MP=-73 C
##BP=87 C
##$NIST SOURCE=QUANT-IR
##SPECTROMETER/DATA SYSTEM=IFS66V (Bruker)
##INSTRUMENT PARAMETERS=KBr Beam Splitter; MCT Detector; Multipass cell
##STATE=gas
##SAMPLE DESCRIPTION=Trichloroethene Primary Gas Standard
##PRESSURE=101.3 Pa
##TEMPERATURE=23 C
##SAMPLING PROCEDURE=1 L/min Flow
##RESOLUTION=0.9640
##DATA PROCESSING=3-Term B-H Apodization
##XUNITS=cm-1
##YUNITS=(micromol/mol)-1m-1 (base 10)
##XFACTOR=1.0
##YFACTOR=9.0949E-13
##DELTAX=0.4820
##FIRSTX=575.17
##LASTX=3974.605
##FIRSTY=4.06E-07
##MAXX=3974.12
##MINX=575.17
##MAXY=.0009328
##MINY=-1.69E-06
##NPOINTS=7052
##XYDATA=(X++(Y..Y))
575.17 446699 833730 2622050 2413912 1875971 1932202
577.58 2768933 4273974 5214268 4644971 2978233 1435566
580.47 819552 2010204 3458187 3167941 1910200 871191
583.37 486340 913914 1463839 1657991 1124318 565255
586.26 686571 112515-969457-512092-69953-668969
589.15-902153-704221 58096 1014529 1207749 410338
592.04-14624 185601 327489 476832 615304 998249
594.94 971080 34195-397350 479189 1585963 2021302
597.83 1648239 1026520 464192 354388 1051818 1573625
600.72 1325905 1202332 1674471 2015936 1849567 1742742
603.62 1706102 1308785 989163 1693779 2780755 3167164
606.51 2948547 2850357 3273093 3986636 4844252 5739228
609.40 6257629 6590186 7585612 8557361 9166036 10060597
612.29 10868165 11384062 12122513 13315836 14830514 16461427
615.19 17760122 18764062 20441043 23030543 25883258 28162345
618.08 29939398 32625429 36138924 39293361 42570176 46455159
620.97 50198123 53677154 57520528 61683988 65623093 69463659
623.86 72949846 75945283 79007079 82144577 84608561 85831421
626.76 87043426 89034264 90354982 90471837 89994096 89701664
629.65 89497207 88576176 87153060 85386876 83032769 80462643
632.54 78451399 77150372 76837080 77616523 80013377 84786352
635.44 90348738 94621209 97200637 98020718 96883090 94038916
638.33 89773943 84782680 79094160 72364787 65504684 59159356
641.22 53049890 47143259 41735726 36652116 32146789 28777107
644.11 25802805 23030392 20830001 18933796 17055532 15080479
647.01 13333739 11857814 10827350 10229407 9304261 8228979
649.90 7536028 7118372 6608409 5667784 4690909 4225967
652.79 3907496 3479964 3173877 2814648 2405596 2097504
655.68 1849298 1698860 1736947 2209838 2894896 3065144
658.58 2657153 2136567 1705189 1586321 1926738 2200847
661.47 2087783 2107980 2269085 2186085 1995696 1947648
664.36 1683133 1206243 1189978 1474503 1683608 2048642
667.26 2332339 2074575 1559583 1376085 1664759 1870160
670.15 1660957 1525549 1640797 1843460 1961514 1780431
673.04 1360370 1079131 1132959 1151504 921207 795301
675.93 1096611 1352140 1278727 1291172 1436530 1421506
678.83 1390725 1366835 969801 715664 1181691 1581930
681.72 1462805 950828 541670 652758 1119228 1310404
684.61 1080968 646645 284762 171385 424061 721455
687.50 591169 407532 593085 869144 683705 153179
690.40-107209 49571 219812 273364 361671 400649
693.29 441899 366469 150702 171990 85936-157263
696.18-171289-142267-64580 207857 281549 120740
699.08 127433 43964-149243-80565 150336 246120
701.97 109553-150996-347566-218987 162222 366029
704.86 203282 47474 209220 130181-146177-62071
707.75 74631-33020-59805 230580 379211 366790
710.65 483814 371500 166344 143080 159206 205605
713.54 312817 369190 354735 369577 328919 216718
716.43 428634 774074 656604 350230 438405 511205
719.32 347133 266850 490736 909263 959051 570656
722.22 249637 273956 663454 905335 863130 1027269
725.11 1276718 1043751 578248 376031 564314 981843
728.00 1246285 1336030 1316566 1065812 937419 1034322
730.90 1140424 1159803 1174414 1173936 1022539 772117
733.79 896243 1273367 1309147 1290734 1593713 1740604
736.68 1630673 1561324 1492345 1435916 1590740 1881378
739.57 1984492 1963053 2146298 2380440 2350479 2073249
742.47 1929293 1960112 1901925 1795764 1867719 1907682
745.36 1885161 1826130 1900764 2150412 2208834 2121048
748.25 2258459 2459401 2504196 2439740 2444615 2543369
751.14 2450854 2259308 2367073 2675441 2841471 2617662
754.04 2589094 3197677 3793831 4038005 4400748 4854568
756.93 5048168 5392210 6345957 7502804 8604938 9619935
759.82 10639219 11902263 13432941 15307495 17319953 19141725
762.72 21399495 24313775 27366756 30247311 33351547 36694081
765.61 40364551 44346850 48488591 52476942 56687694 61504848
768.50 66284827 70697760 75125016 79171331 82859633 86644158
771.39 90725211 94579298 97534872 99534466 101061268 102328335
774.29 104048263 107018275 111982054 118021590 123742278 131927056
777.18 140876629 141050239 133066758 124405779 118676552 112385467
780.07 104991101 107968357 152952209 308373606 558593140 623438176
782.96 389130639 164766369 98180372 94763082 99826661 105087226
785.86 109095345 112130345 114362997 115275116 115303283 115491537
788.75 115429358 114981395 114204872 113031114 111475620 109976721
791.64 108166164 105981256 103516001 101282045 99235821 96646287
794.54 93659505 90536659 86209291 80974844 75530591 70204146
797.43 65525185 61379057 57160702 53132337 49867790 47124164
800.32 44165053 41015462 38012644 35309796 32416104 29125177
803.21 25996230 23776600 22428015 21384007 20754147 21018082
806.11 21459044 21755461 21675706 20920228 19921168 18699684
809.00 17148142 15695761 14151767 12367095 10662934 9218229
811.89 7952653 6930927 6180832 5583352 5211125 5217127
814.78 5112100 4829190 4809286 5279230 5716424 5877933
817.68 6253784 6734242 7343007 8179345 8802101 9357403
820.57 9939890 10672870 11621804 12786794 13841506 14566420
823.46 15416916 16848913 18419269 19934278 21560389 23523222
826.36 25989424 28873479 32291840 36138699 40352634 45638773
829.25 52598445 61297368 71316129 82590058 95259702 108954754
832.14 123395306 140135722 160181426 182718227 207650319 235427173
835.03 265678984 297758739 331533304 367228984 404388336 442088284
837.93 479358502 516070032 552311955 587459525 620526040 651657058
840.82 680651494 707282964 731872647 753337962 770334353 782281024
843.71 792439440 813027938 843268358 857508320 827613054 754502274
846.60 694252635 706975127 783929626 886438143 984884404 1025697061
849.50 1010451590 953679883 820717549 712989825 708139658 742757388
852.39 772787618 789300536 789567645 772824454 738720048 688871213
855.28 625788843 552687368 474259253 394995323 318775244 249239827
858.18 188912854 138647517 98691468 68287073 46156332 30890867
861.07 20894244 14828927 11378419 9226978 8014693 7385941
863.96 7217616 7471259 6941991 5849644 5381143 5297426
866.85 5350707 5503059 5598010 5449158 5151235 4904523
869.75 4769950 4837951 5008365 4981977 4743000 4577551
872.64 4485376 4227097 3973902 3789879 3694880 3822734
875.53 3838995 3655754 3580328 3517675 3271411 2911434
878.42 2862660 3021838 3010533 2892957 2621031 2285504
881.32 2161455 2221081 2417012 2547328 2639412 2701162
884.21 2657487 2751881 2856326 2846207 2920904 3075784
887.10 3341920 3627036 3792861 3964511 4176250 4337433
889.99 4596427 4965156 5180920 5365487 5851919 6447080
892.89 7061663 7698317 8095262 8352507 9011612 9938605
895.78 10789432 11680050 12687478 13709338 14804910 16057238
898.67 17257169 18539994 20119732 21659599 22910801 23878626
901.57 24773909 25759378 26518868 26846154 26865007 26537382
904.46 25903861 24967025 23781562 22384891 20990899 20067205
907.35 19742679 20183692 21755508 24300313 27116706 29827515
910.24 32332250 34370026 35957302 37161226 37820255 38054659
913.14 38219981 38534947 39037241 39662206 40477622 41738439
916.03 43421346 45533726 48203255 51386001 55114054 59258609
918.92 64002059 69511710 75408745 81670624 88651192 96312577
921.81 104702299 114063812 124481408 135924213 148336766 161961669
924.71 177133971 193763277 211715698 231282058 252660293 275779261
927.60 300378352 326076462 353077521 381508855 411082841 441400436
930.49 471894346 501827280 530879354 558818252 584572603 607218766
933.39 626407353 641676845 652344987 657824311 658077793 653425269
936.28 644180615 630958336 614788222 596920372 579980635 566324569
939.17 556810763 552833734 556140600 566928158 585989767 612090482
942.06 643344625 675843235 705091689 732255585 752291445 757211732
944.96 746603320 722581661 687321866 644502263 597167520 546977761
947.85 495476110 444783175 396440818 351334483 310221289 273860299
950.74 242305809 215246086 192166656 172598639 156159955 141925071
953.63 128823176 116789365 105914671 95788673 86177045 77136769
956.53 68710336 60914653 53756057 47103300 40872374 35308944
959.42 30564971 26576533 23102142 19995783 17266277 14901749
962.31 12932880 11346447 10015571 9018010 8268145 7685937
965.21 7244603 6778708 6408347 6357927 6552803 6774064
968.10 6818637 6782727 6772689 6834705 6933267 7028324
970.99 7089837 7219469 7508282 7814715 8039025 8340541
973.88 8753514 9264869 10045464 10966412 11715810 12482509
976.78 13386484 14232743 14877046 15358744 15732096 16035652
979.67 16195300 16077875 15609611 14846473 14004719 13434804
982.56 13436463 14117451 14918296 14850405 13789753 12656932
985.45 12611357 13453063 13499441 13022261 12928797 12999912
988.35 13029370 13017477 12981674 12904309 12829276 12636236
991.24 12170430 11586013 10903586 10133415 9436563 8782777
994.13 8083260 7362691 6681725 6119395 5709906 5380925
997.03 4973664 4592312 4454533 4427564 4417890 4572332
999.92 4784960 4806171 4684780 4786017 5091842 5178769
1002.81 5192607 5547191 5978833 6195117 6248664 6503172
1005.70 6889286 7217426 7500348 7675597 7958064 8445091
1008.60 8921106 9155640 9219245 9226040 9227608 9430100
1011.49 9758985 9986388 10186566 10231600 10015308 9993212
1014.38 10244985 10469432 10522482 10415923 10192554 9997626
1017.27 9878737 9683304 9396783 9259287 9165692 9014486
1020.17 8936414 8833159 8773217 8945762 9110299 9242629
1023.06 9283875 9167980 8975889 8582980 8124332 7813669
1025.95 7303717 6647901 6157223 5664031 5153253 4709080
1028.85 4353688 4085484 3718717 3377470 3294679 3268075
1031.74 3178657 3009681 2729083 2466711 2438433 2510304
1034.63 2301411 2075543 2139225 2201363 2038638 1751226
1037.52 1578041 1676596 1895357 1931276 1716690 1448160
1040.42 1356154 1488263 1563761 1532301 1541507 1524095
1043.31 1482226 1481314 1544941 1581671 1508780 1396545
1046.20 1367943 1257063 1120539 1215223 1281673 1262752
1049.09 1333926 1370646 1296485 1200837 1176871 1195541
1051.99 1083674 916666 954112 1125230 1180072 1080895
1054.88 995742 943762 854346 907563 1008044 837908
1057.77 738982 827413 761449 579989 553740 784331
1060.67 875898 714669 590608 561031 576455 596812
1063.56 577128 653955 776575 740154 692061 804707
1066.45 911933 851774 630468 423064 432427 587045
1069.34 610237 573024 737477 813719 591532 377615
1072.24 402553 565782 767090 867526 737703 575009
1075.13 610301 783600 856938 814101 698931 608963
1078.02 570708 555218 612928 600901 481155 506265
1080.91 639582 654691 573958 462204 460863 619497
1083.81 619574 474271 503299 717351 825511 774970
1086.70 738095 718608 716944 790818 894493 955834
1089.59 867482 734829 714774 664392 563460 545903
1092.49 590724 729163 861451 810925 772499 900264
1095.38 1058033 1178796 1299905 1417241 1479715 1486467
1098.27 1480829 1488444 1494712 1426591 1527584 1818829
1101.16 1928434 2001231 2164007 2268340 2272893 2296092
1104.06 2468032 2666836 2698211 2656496 2614900 2556396
1106.95 2597461 2833731 3045105 3103345 3096669 3144906
1109.84 3286073 3336182 3191585 3127787 3304874 3486943
1112.73 3553423 3640308 3699222 3619629 3578088 3656300
1115.63 3743587 3709734 3546974 3334467 3123093 2884046
1118.52 2715801 2681348 2632122 2572916 2638121 2621137
1121.41 2358389 2081250 1980339 2051721 2240200 2313046
1124.31 2263053 2346222 2275740 2052021 1995784 1941564
1127.20 1930356 2028238 1910856 1620370 1509594 1549418
1130.09 1504859 1420495 1377757 1378342 1307451 1242458
1132.98 1240035 998133 787062 895925 1023035 1062364
1135.88 1010139 920037 822719 675392 699867 888781
1138.77 965637 909424 948458 1147286 1255816 1242951
1141.66 1279613 1290623 1202627 1064628 897032 867615
1144.55 895996 697059 472976 508728 648297 707882
1147.45 658924 654735 730207 815023 858230 796384
1150.34 701419 596665 463578 367286 371817 451548
1153.23 567742 650666 579473 419229 280750 319416
1156.13 458055 451987 295012 246315 271679 244863
1159.02 318123 423586 433662 388403 256224 175309
1161.91 313366 422196 266919 7650-74227 144918
1164.80 374010 405331 346087 270865 209931 132836
1167.70 156000 277011 276755 218158 212112 204186
1170.59 214377 222949 279648 399611 457412 509379
1173.48 548706 530095 510873 485162 482047 467232
1176.37 435934 426048 405196 468211 492482 436263
1179.27 488200 530850 527336 556989 570214 635709
1182.16 713088 711303 713956 706002 610623 515398
1185.05 426547 414757 572090 692489 627507 540639
1187.95 502709 474433 530183 669252 760934 774612
1190.84 713527 654670 679250 723656 726860 695146
1193.73 713682 771897 813792 877424 868274 779804
1196.62 730826 776795 899642 1018580 1093388 1120897
1199.52 1033527 1031938 1319515 1591340 1599634 1524536
1202.41 1476260 1528105 1751855 1923603 1796155 1622183
1205.30 1719786 1921907 2160241 2343053 2423440 2556249
1208.19 2565291 2470000 2556377 2778464 2949774 3052303
1211.09 3190715 3374289 3497642 3627154 3875171 4088037
1213.98 4235565 4429791 4593409 4732231 4982566 5203699
1216.87 5342283 5572461 5889785 6183793 6437473 6679464
1219.77 6974820 7299467 7592132 7917332 8285997 8636965
1222.66 8960896 9417086 9949325 10448223 10952550 11402409
1225.55 11796862 12136995 12416489 12692033 12820199 12774497
1228.44 12664141 12448234 12221743 11996465 11739054 11770435
1231.34 12375846 13584131 14842255 15336181 15331125 15827578
1234.23 16633894 16867307 17015921 17710575 18731721 19973177
1237.12 21293616 22663155 24197424 25807005 27499672 29430304
1240.01 31647638 34037066 36473860 39095220 41996534 44973312
1242.91 47850671 50466249 52714828 54622838 56125259 57092116
1245.80 57443648 57108456 56153646 54834645 53240313 51269642
1248.69 49498295 49511004 52244700 55989900 58246301 58508511
1251.59 58127674 58904396 60885009 63110410 64958332 65898658
1254.48 65688378 64987528 64285526 63194534 61265561 58574160
1257.37 55904101 53662039 51723169 50231916 48830598 47080271
1260.26 45148682 43098696 40809953 38456128 36219087 34203931
1263.16 32209663 30069731 28061587 26401493 25004604 23684277
1266.05 22464420 21452216 20635952 19987161 19630218 19444864
1268.94 18968870 18211336 17383213 16539888 15658790 14693074
1271.83 13623300 12408736 11197774 10160617 9250976 8370570
1274.73 7498819 6707728 5956289 5407797 5051613 4659906
1277.62 4284609 3924624 3529482 3210076 3006909 2845359
1280.51 2617642 2405921 2258558 2041476 1763991 1518164
1283.41 1408943 1454030 1389294 1229079 1092093 965381
1286.30 872422 799996 689289 599630 579699 651868
1289.19 779975 833554 859815 953887 906340 617244
1292.08 386171 369333 448779 450550 431906 492986
1294.98 493295 486323 618813 772785 762726 750886
1297.87 853489 806899 642503 701185 886555 963693
1300.76 940416 878559 871821 884613 983910 1123553
1303.65 1107150 1121419 1243123 1316430 1366083 1436482
1306.55 1503388 1599157 1662383 1654321 1726116 1817592
1309.44 1878148 1917466 1908342 1894861 1856546 1912960
1312.33 2056491 2155513 2210574 2194876 2208826 2327231
1315.23 2388664 2335370 2301135 2395737 2426432 2342119
1318.12 2317459 2294102 2245917 2241979 2284353 2349317
1321.01 2417033 2369457 2224912 2145480 2088054 2027150
1323.90 1978925 1944104 1948315 1877486 1761723 1693139
1326.80 1706059 1793658 1803835 1710853 1627228 1630402
1329.69 1563961 1325284 1170496 1182921 1265347 1296936
1332.58 1133246 962805 892244 804492 772912 888474
1335.47 955819 840534 726669 743088 770450 716297
1338.37 739065 783430 689850 610513 640667 679657
1341.26 614364 552247 548190 597397 752612 853342
1344.15 718090 542678 580872 784686 800128 600680
1347.05 524089 627567 702619 531948 323271 274630
1349.94 349661 476676 366331-240310-760452-496700
1352.83 64567 349526 358876 96424-148967 78877
1355.72 389130 467944 541850 521774 543822 715541
1358.62 705508 664838 731056 644878 478213 385550
1361.51 291259 249203 263147 410793 676334 802637
1364.40 788333 794249 853038 889946 896333 888796
1367.29 868314 888806 897317 756590 573092 585306
1370.19 751011 791570 757191 857529 905479 739040
1373.08 610022 746100 948404 1191007 1421074 1391398
1375.97 1305076 1276930 1119077 905881 869602 1062572
1378.87 1261840 1315507 1234760 1222544 1222650 1096123
1381.76 1048940 1069326 1148615 1341530 1543623 1605157
1384.65 1449708 1329967 1236384 1043248 771895 627069
1387.54 838568 1061497 1142106 1205284 1281847 1237964
1390.44 1173137 1214695 1187504 1116969 1049060 969229
1393.33 880708 752747 729677 850602 928927 1028318
1396.22 1144691 1051245 883318 836068 756712 697675
1399.11 831890 1004287 1074384 1095188 1103365 1137972
1402.01 1255439 1331511 1205862 954613 784825 798322
1404.90 923696 1021200 1030580 1023405 1069424 1146453
1407.79 1273778 1293203 1152605 1139905 1267554 1273682
1410.69 1160907 1137593 1182297 1205097 1213880 1270929
1413.58 1352400 1426796 1448751 1264527 1105048 1206316
1416.47 1324325 1307102 1229277 1136846 878490 712243
1419.36 1080940 1486787 1553270 1521843 1577784 1672434
1422.26 1635657 1475122 1331040 1330505 1453950 1640902
1425.15 1764352 1770328 1722614 1622748 1562112 1580237
1428.04 1572873 1479565 1271183 1166752 1325768 1395383
1430.93 1290343 1258828 1271670 1153351 1046940 1105852
1433.83 1060790 932982 924475 827061 356787-28221
1436.72 294570 758774 816522 748723 819828 955876
1439.61 971304 869143 810250 875593 927480 870921
1442.51 781284 689408 637392 603002 653431 761449
1445.40 801542 749352 587369 400420 299412 418539
1448.29 611505 693898 723928 699641 709953 741254
1451.18 680277 652064 686954 654511 682060 836985
1454.08 882648 740799 580816 198772-530040-663437
1456.97-37525 326223 432848 582505 638110 629765
1459.86 635825 688037 746973 733917 693822 723305
1462.75 783755 760103 543257 248879 366515 700628
1465.65 819492 887315 890817 741934 619847 646788
1468.54 680105 684238 711796 672288 608534 407954
1471.43 29178-46819 41361-5841 158513 477007
1474.33 615842 606855 433165 270662 436652 699182
1477.22 742447 641313 586119 610130 615530 597582
1480.11 611105 622696 671587 786196 837878 762830
1483.00 684611 647180 589354 614379 721404 708362
1485.90 563920 408839 342834 423186 546142 623193
1488.79 604618 472623 265534 175850 389212 662117
1491.68 726605 748859 756740 647782 518922 427460
1494.57 386910 155759-311123-259358 209690 430122
1497.47 423882 225137 36161 211368 509656 569273
1500.36 525132 611581 714997 660884 535923 533203
1503.25 525988 433591 172746-484785-831596-543084
1506.15-663238-895642-411168 39574 81976 150590
1509.04 263820 369279 510299 601781 591896 470271
1511.93 398451 458271 454947 437638 508112 555009
1514.82 529269 400484 224362 113972 30409 144579
1517.72 498441 683268 605525 417096 214906-81598
1520.61-499996-366490 64746 168735 356340 639888
1523.50 709371 579998 344421 204389 373677 559841
1526.39 562617 631890 742006 680441 687591 857604
1529.29 993213 1074998 1052555 980287 1026652 1133399
1532.18 1085308 878095 843328 1145821 1591866 1931536
1535.07 2130926 2351936 2666622 2922775 3062739 3114966
1537.97 2828231 2485496 3023140 3803639 4421117 5465619
1540.86 6237246 6485091 7153276 8313479 9348666 10254997
1543.75 11126282 11847549 12610750 13769318 15136485 16329159
1546.64 17381237 18552322 19831040 21298667 23162706 25405103
1549.54 28114855 31361601 34504185 37297187 40349022 43862260
1552.43 47583813 51294054 54708471 57569283 59927260 61519404
1555.32 61810211 60632904 58045204 54023192 48917718 43229667
1558.21 38403679 36298332 37922809 44210059 50118663 47594476
1561.11 41332152 40036268 43365278 47851804 51712789 54455620
1564.00 55847521 56040824 55499594 54482905 52866075 50539989
1566.89 47753367 44769268 41622078 38481860 35391112 32516268
1569.79 30347678 28584238 26915678 25588905 24539157 23696879
1572.68 23164673 22971555 22991180 23166701 23352467 23068554
1575.57 22751769 23673732 25219873 26297793 27225605 28313936
1578.46 29465510 30730970 32156728 33651539 35268931 37022783
1581.36 38915378 40915674 42804729 44602648 46373149 47886241
1584.25 49092291 50152717 51005135 51481683 51488905 51054200
1587.14 50263241 49112516 47596743 45826723 43908172 42072747
1590.03 40581834 39583137 39169006 39565256 41088850 43499826
1592.93 46245121 49030713 51383585 52921843 53523511 53071833
1595.82 51747503 49918833 47632799 44868870 41905793 38870104
1598.71 35753320 32661974 29555518 26546343 23836729 21423919
1601.61 19318864 17489283 15834459 14317414 13021829 12002052
1604.50 11089804 10168418 9261436 8333824 7430105 6655656
1607.39 6011861 5399194 4782967 4276752 3852154 3409063
1610.28 2962710 2653467 2419223 2120726 1769459 1504122
1613.18 1332402 1170138 1013332 864993 666817 163336
1616.07-529279-382739 349994 603198 544796 508253
1618.96 455799 467601 604886 716605 665890 571188
1621.85 449954 248909-19721-96115 167177 437992
1624.75 539383 580017 582961 508602 370792 295027
1627.64 367786 470536 517742 627552 714767 543459
1630.53 292608 259369 436822 619872 668914 601213
1633.43 491760 292774-176835-753108-728132-147613
1636.32 194288 229447 318455 491670 506044 378553
1639.21 304212 344669 452934 529929 461458 347342
1642.10 309621 289404 320142 374247 311596 92527
1645.00-361492-698730-439608-49236 80301 75955
1647.89 67193 179292 255624 182187 170968 230588
1650.78 117235-451708-1347976-1865708-1808625-1120319
1653.67-450434-236560 14824 180402 179730 216063
1656.57 302658 359588 371863 340687 282756 196496
1659.46 197469 261212 230074 239448 263374 58486
1662.35-93204 107614 334625 433579 434590 403445
1665.25 419012 427590 434457 384176 259100 143986
1668.14-41251-325963-226015 153057 233630 124557
1671.03 101002 178314 240274 371776 519326 492400
1673.92 241680-218021-378168 27516 415530 543192
1676.82 593231 623507 538032 385712 380854 457783
1679.71 470265 466657 512838 609971 651861 440121
1682.60 113060 21194-231772-1036439-1134978-100920
1685.49 578720 658868 685533 739542 727938 692536
1688.39 729450 729591 680839 745615 854296 882593
1691.28 845179 768847 725170 730586 728404 685131
1694.17 512067-70979-981344-954403 59327 617241
1697.07 670888 624184 448238 164380-433252-1068989
1699.96-1035860-298066 512331 747281 576667 452455
1702.85 384605 192937-42921-22562 95937-34002
1705.74-199885-86462 197790 385836 391658 328343
1708.64 278406 232355 177302 206641 299459 276513
1711.53 200867 211230 206875 110157-8047-97657
1714.42-166000 4816 313358 354922-181040-921693
1717.31-757352-192257 43503 276143 407391 408474
1720.21 458962 488457 440260 424527 462595 466622
1723.10 451623 501749 559339 615857 658153 627844
1725.99 532377 453648 461322 540721 589746 500061
1728.89 385040 437744 561829 576997 577267 593873
1731.78 532796 214544-337405-492357-497127-389833
1734.67 221087 655176 714438 724684 728051 739380
1737.56 743353 692880 593056 372336 286889 626224
1740.46 976459 994366 822837 726597 767308 851240
1743.35 977619 1129620 1205475 1206685 1195482 1203298
1746.24 1219758 1272097 1404627 1474427 1441060 1451867
1749.13 1585917 1709779 1588548 1328797 1365042 1760733
1752.03 2083023 2146817 2262565 2509266 2621872 2637266
1754.92 2667936 2693817 2602606 2513184 2700971 2896407
1757.81 2894021 2883411 2890964 2842956 2749231 2660427
1760.71 2510670 2317347 2465830 2799228 2883963 2815865
1763.60 2769898 2854406 2964070 2903907 2813760 2791880
1766.49 2751968 2613977 2365281 2358433 2568109 2654380
1769.38 2604777 2455520 2316563 2297072 2220756 1776049
1772.28 1538280 1977698 2420712 2552553 2510057 2385503
1775.17 2270581 2265317 2386369 2470890 2456692 2410042
1778.06 2398019 2424372 2491940 2558684 2520953 2446935
1780.95 2393345 2368699 2519103 2707192 2685652 2586016
1783.85 2506931 2411855 2388447 2454759 2523586 2569954
1786.74 2550869 2519212 2510930 2520096 2579054 2667803
1789.63 2731371 2635123 2527320 2607342 2513411 2123403
1792.53 1930181 1861870 1672197 1572964 1531859 1384036
1795.42 1232363 1232988 1294937 1304007 1273405 1172811
1798.31 1010104 873078 887722 1010208 1012488 905321
1801.20 844346 809622 787982 827441 893816 930208
1804.10 898703 859576 789394 697517 730133 827382
1806.99 800117 719299 682785 649573 630180 588546
1809.88 496902 484317 583031 640748 592671 565694
1812.77 537974 436641 407827 483888 591139 633747
1815.67 588237 559931 571620 565418 554916 562530
1818.56 583106 595684 593274 547952 462509 473976
1821.45 542175 505057 426029 417566 526231 570549
1824.35 408015 348596 545919 592143 433012 399301
1827.24 467309 499958 481697 516410 533891 501045
1830.13 599317 676665 618156 630519 755245 796659
1833.02 718826 658497 689829 760405 805256 763660
1835.92 691684 720155 838838 935969 901087 842901
1838.81 821555 771356 764335 808313 783819 723840
1841.70 719264 694805 591783 384065 167130 239429
1844.59 471208 662149 774016 755266 734924 800254
1847.49 862862 872056 875265 864929 851713 852731
1850.38 862815 925732 1031348 1097600 1125975 1161101
1853.27 1216363 1220845 1170502 1182226 1275558 1377589
1856.17 1441931 1450019 1446804 1481381 1507782 1537181
1859.06 1643788 1713632 1617798 1498653 1504648 1594259
1861.95 1656990 1659962 1695319 1796589 1848587 1837435
1864.84 1797294 1749688 1741235 1771619 1826819 1871138
1867.74 1810032 1645307 1592710 1805145 1995191 1984849
1870.63 1968004 1939537 1834194 1765542 1736370 1641358
1873.52 1522518 1477134 1510688 1520780 1432378 1309879
1876.41 1304850 1380446 1383420 1357522 1407901 1372226
1879.31 1237800 1255955 1338632 1335994 1346207 1371936
1882.20 1254718 1088859 1102391 1137017 1052609 939445
1885.09 869047 862139 890886 928014 920847 847709
1887.99 745323 614394 482527 441097 406409 340104
1890.88 302283 289038 301477 256391 203876 271904
1893.77 303115 213273 125595 120804 218504 340693
1896.66 362600 335367 340552 385114 421611 400092
1899.56 287927 162427 152051 291274 424179 372234
1902.45 281175 294933 387268 449937 421655 388035
1905.34 407197 459835 475020 474562 483077 463617
1908.23 515324 548433 456257 379533 371387 407208
1911.13 486078 493750 407788 361943 510818 693919
1914.02 652980 581825 672265 777062 767640 630368
1916.91 379045 192999 297880 499139 598090 673144
1919.81 655225 561409 568613 629705 603765 533945
1922.70 522855 573669 617522 609719 578230 642991
1925.59 737326 706331 649418 616900 593695 598481
1928.48 617406 629708 618832 574419 605200 711188
1931.38 678633 546045 468439 491383 560611 576264
1934.27 567524 607369 659450 656161 603402 602221
1937.16 650258 615471 546612 517145 553997 603650
1940.05 514228 474036 589798 596321 452375 372896
1942.95 424658 541654 675417 689584 597997 595981
1945.84 581020 555656 666744 726596 714506 690374
1948.73 607921 535297 574891 656245 640810 625439
1951.63 661164 695696 732970 753800 831966 913369
1954.52 881196 835543 820068 787912 746551 709714
1957.41 713339 724319 680168 653901 703477 807618
1960.30 891574 859786 763313 761073 824058 835273
1963.20 838536 868395 914824 931623 897738 840672
1966.09 799918 817899 849053 915871 986539 949802
1968.98 857847 811717 810501 884464 980511 1007706
1971.87 1039661 1105985 1162324 1278847 1382927 1191813
1974.77 803444 644124 719180 805833 852488 865663
1977.66 903604 957235 957660 877122 806386 809045
1980.55 767918 700083 731932 845096 940684 972181
1983.45 863176 695956 678720 796274 859387 829201
1986.34 779083 734539 696927 676332 672193 683434
1989.23 662854 644265 663802 691344 719696 761168
1992.12 793680 797973 784447 726773 688839 710712
1995.02 743636 763921 794816 804043 783473 758316
1997.91 696289 683358 754640 789646 722058 671885
2000.80 737934 799618 840216 897322 857141 804634
2003.69 774462 635158 507327 550557 684669 751920
2006.59 750702 791664 830952 827859 782840 721697
2009.48 710935 744808 737060 682026 700106 743797
2012.37 775242 847630 933094 986743 948705 838431
2015.27 719603 624069 617812 702149 759534 681702
2018.16 581211 644799 787137 771556 660750 671888
2021.05 770997 803656 723234 643201 662276 757664
2023.94 820657 839314 855759 837806 796886 780662
2026.84 802067 818604 821987 797467 747866 777104
2029.73 871506 935222 911453 826409 854652 948774
2032.62 960417 928432 910414 952857 968936 966796
2035.51 1053326 1036366 859325 733133 721394 814595
2038.41 852454 784768 823118 919611 910586 883065
2041.30 882253 826373 791853 853118 928643 946213
2044.19 917367 887698 913794 911345 838981 791781
2047.09 746465 743079 811903 868818 844470 791342
2049.98 808140 825626 759786 707900 717645 756458
2052.87 777570 755010 764406 867686 940056 971692
2055.76 1011222 968609 887047 811250 743427 774222
2058.66 810162 763109 775322 935375 1040799 958727
2061.55 776639 709765 827090 910696 895964 914286
2064.44 995923 1053202 1011642 924787 916827 981654
2067.33 1013974 1004979 1002793 997620 1040612 1102459
2070.23 1092891 1059732 1035179 1000121 977894 1014285
2073.12 1117766 1204448 1222374 1198413 1210245 1236806
2076.01 1231891 1164987 1063793 1108994 1266683 1351170
2078.91 1307403 1264858 1337065 1418462 1372969 1214444
2081.80 1185633 1335846 1381929 1312063 1345440 1464395
2084.69 1507528 1481280 1457945 1490288 1574063 1664928
2087.58 1688425 1636247 1614137 1578089 1545201 1618151
2090.48 1766373 1853939 1881594 1901224 1930258 1950607
2093.37 1939095 1876192 1792248 1820867 1876304 1843113
2096.26 1823629 1890660 1920761 1879976 1784172 1727825
2099.15 1846978 2008402 2055981 1996291 1907002 1802891
2102.05 1642767 1439971 1379817 1526715 1618914 1629419
2104.94 1626282 1537482 1421227 1281037 1128729 1178988
2107.83 1250637 1160816 1062382 993780 987473 997479
2110.73 856997 725214 813996 998642 1061487 977617
2113.62 923069 903192 758813 625177 766923 917971
2116.51 865494 798213 872318 999086 891992 648922
2119.40 669566 877391 934591 894482 818320 685029
2122.30 628866 699073 792385 874391 897464 823095
2125.19 775206 842774 878129 746475 572079 619928
2128.08 773876 842446 850949 863428 935905 950395
2130.97 871571 849680 863400 868539 928684 988635
2133.87 949885 854567 756063 724697 753041 761546
2136.76 769157 773346 817992 942895 1018985 1058665
2139.65 1129309 1076356 916542 867045 936945 907673
2142.55 837480 852990 864781 896294 965211 1044918
2145.44 1053662 969532 934770 1009022 1081799 1090263
2148.33 1039541 958278 933708 935736 932018 1000571
2151.22 1097975 1149545 1123111 1082697 1014173 862696
2154.12 775310 862102 977317 1019555 1026510 1009393
2157.01 971569 869800 884451 1097494 1177117 1070137
2159.90 998727 1041726 1023239 844607 854097 1082997
2162.79 1140851 1075933 1143345 1224935 1034602 843652
2165.69 996129 1235204 1325133 1255230 1100540 878675
2168.58 743806 896404 1069370 1060744 1046257 1117592
2171.47 1090197 949059 999442 1227631 1286953 1206936
2174.37 1180269 1166812 1081736 1000093 1034973 1132151
2177.26 1221260 1272864 1261619 1155891 1035484 1094988
2180.15 1183360 1239466 1324776 1329159 1205901 1055764
2183.04 1121279 1323987 1339970 1234295 1216809 1149920
2185.94 1009100 1083826 1331375 1430048 1366174 1277667
2188.83 1214340 1171389 1173505 1234595 1337610 1434426
2191.72 1386372 1216277 1136025 1224655 1343523 1322701
2194.61 1222232 1181554 1094779 955160 1034401 1257713
2197.51 1344386 1314948 1259725 1177244 1142449 1218119
2200.40 1240208 1193545 1203447 1235610 1199994 1140729
2203.29 1138806 1182649 1211998 1196734 1176759 1131258
2206.19 1122422 1182376 1222283 1243887 1316975 1408162
2209.08 1364785 1240760 1203276 1238574 1320295 1389457
2211.97 1394508 1402164 1452609 1516376 1552204 1566682
2214.86 1546343 1498226 1479435 1480856 1482243 1464822
2217.76 1472600 1561622 1667122 1693878 1661073 1639622
2220.65 1567155 1382071 1307843 1448450 1583008 1571288
2223.54 1505296 1468495 1453995 1463165 1523780 1525107
2226.43 1425302 1342271 1365132 1446899 1456614 1393823
2229.33 1394492 1446680 1416507 1322220 1315284 1355232
2232.22 1320627 1273826 1302103 1302145 1250681 1239799
2235.11 1228889 1192153 1214755 1272627 1264650 1213901
2238.01 1180610 1176900 1144385 1162406 1237112 1250900
2240.90 1187789 1120607 1079998 1090174 1147952 1165475
2243.79 1090028 1008252 998492 1077630 1153846 1080637
2246.68 978965 953896 971436 998116 1037850 1127416
2249.58 1124914 1012409 1023678 1141292 1161049 1153087
2252.47 1113603 1011941 1020588 1077954 1083708 1146336
2255.36 1238379 1209669 1100089 1072239 1155564 1220250
2258.25 1164372 1074249 1102471 1158892 1156241 1157141
2261.15 1152509 1146072 1165458 1093009 1024192 1086161
2264.04 1123874 1113914 1081695 1069128 1119193 1136861
2266.93 1137086 1159529 1235160 1265615 1110005 965569
2269.83 1039149 1145903 1140495 1132429 1169714 1122588
2272.72 1000345 954119 978268 941545 919359 1033794
2275.61 1137940 1154985 1135663 1146155 1129094 1031080
2278.50 1044406 1113572 1159421 1174109 1089690 1051889
2281.40 1072348 1069946 1073701 1081125 1066862 1112900
2284.29 1189579 1126664 988708 981706 1056972 1057295
2287.18 1049124 1095461 1097266 1075722 1085080 1069363
2290.07 1048965 1046719 1023688 1062621 1189487 1246592
2292.97 1214358 1181763 1207594 1235379 1198823 1195521
2295.86 1205542 1094617 1000608 1029697 1044303 1070739
2298.75 1161953 1164857 1040163 1003128 1074589 1128436
2301.65 1082776 991604 1027881 1091196 1068774 1065810
2304.54 1185510 1357547 1397803 1287788 1177008 1180990
2307.43 1255479 1304423 1254155 1209305 1254045 1247259
2310.32 1191612 1198154 1263058 1371260 1432129 1344529
2313.22 1191292 1087919 1086674 1097148 1081548 1166923
2316.11 1279587 1291355 1255353 1222509 1169671 1098281
2319.00 1031874 1004830 1019291 1000829 1002437 1108610
2321.89 1178368 1148998 1162548 1222951 1192029 1055533
2324.79 1017438 1150517 1194619 1035237 975960 1053750
2327.68 1055145 994737 1019841 1085024 1015197 1003446
2330.57 1178333 1229391 1041324 925563 1061098 1167062
2333.47 1037733 954442 1041475 1021702 917647 969433
2336.36 1024553 866181 786466 957016 991981 824821
2339.25 808097 955436 1030100 1060291 1094138 1069190
2342.14 1042323 1120185 1225616 1201676 1169229 1179975
2345.04 1084142 948214 872454 929901 1071530 1172443
2347.93 1242663 1242964 1121247 1039351 1096441 1126827
2350.82 1087177 1110076 1157258 1082068 1054965 1107303
2353.71 1017206 1004018 1053961 988876 1050601 1118470
2356.61 989119 937494 933528 856387 917409 956399
2359.50 884086 966638 1048211 963726 940627 898713
2362.39 825358 854248 828669 877495 944700 856270
2365.29 825222 817411 872390 1074668 1123363 1011659
2368.18 920662 900532 999868 1105959 1070310 1006184
2371.07 1072839 1176095 1119833 963597 882682 1027844
2373.96 1265239 1336337 1283368 1172428 1078136 1056060
2376.86 1035793 1087517 1174015 1179708 1212130 1262326
2379.75 1260581 1205260 1150626 1209882 1321364 1304609
2382.64 1183574 1143075 1213406 1282529 1285557 1235453
2385.53 1174757 1136869 1123020 1145784 1185654 1134500
2388.43 1059471 1096993 1289118 1474183 1483792 1381119
2391.32 1257011 1181380 1060968 935882 994346 1181072
2394.21 1245985 1260430 1357885 1367716 1264627 1199573
2397.11 1259989 1337009 1307552 1262574 1228892 1214213
2400.00 1303016 1412918 1457044 1490141 1473816 1369731
2402.89 1230459 1144939 1143610 1232798 1283771 1227357
2405.78 1180302 1289021 1461061 1487316 1367939 1207078
2408.68 1157047 1213158 1249808 1286734 1327325 1320816
2411.57 1322191 1339596 1357458 1400940 1402598 1355727
2414.46 1373369 1407595 1395422 1407383 1430424 1407291
2417.35 1433199 1467255 1438122 1465865 1502675 1451180
2420.25 1415575 1450000 1501580 1538777 1586211 1628451
2423.14 1633694 1650807 1720318 1762720 1672721 1568478
2426.03 1605924 1692074 1745227 1770128 1837655 1917729
2428.93 1892587 1839161 1866840 1846276 1774774 1792690
2431.82 1787861 1714898 1659078 1677720 1794740 1879524
2434.71 1839023 1754635 1679376 1660918 1607657 1559000
2437.60 1703445 1830525 1776744 1720120 1645042 1527372
2440.50 1467110 1453484 1424651 1372851 1330203 1292508
2443.39 1259551 1289388 1298829 1269928 1332011 1396652
2446.28 1350804 1305668 1335085 1355990 1359930 1419718
2449.17 1515958 1537153 1436408 1370479 1456003 1513056
2452.07 1382977 1200430 1194500 1313300 1313425 1264010
2454.96 1338352 1402422 1399747 1433876 1487259 1478109
2457.85 1417776 1372607 1399659 1465916 1465077 1447078
2460.75 1483552 1538294 1541281 1516586 1545947 1642188
2463.64 1675849 1586333 1526476 1554469 1640716 1736636
2466.53 1748464 1663929 1663830 1851388 2028506 2102754
2469.42 2107616 2049135 1964738 1904604 1965159 2061543
2472.32 2049277 2030162 2084949 2118229 2115572 2096684
2475.21 2091990 2117412 2179765 2256165 2227994 2142371
2478.10 2172834 2224839 2168030 2191316 2269844 2295472
2480.99 2316575 2271953 2099544 1946646 1977032 2140270
2483.89 2259067 2170191 2067175 2138829 2145405 2080304
2486.78 2117028 2142146 2101726 2110194 2134122 2097821
2489.67 2023844 1910986 1822102 1839715 1918644 1997123
2492.57 1978280 1868871 1801945 1800917 1792574 1805296
2495.46 1905188 1970277 1942582 1940133 1908733 1830784
2498.35 1870091 1975709 2005360 1952314 1854415 1740766
2501.24 1757556 1904534 1923152 1807907 1748130 1822139
2504.14 1899843 1872208 1831329 1860101 1869198 1804440
2507.03 1806448 1825427 1771279 1712857 1642612 1622857
2509.92 1699160 1809392 1836293 1815803 1910682 1956275
2512.81 1860258 1907986 2043992 2054469 2007840 1944874
2515.71 1796624 1749730 1901049 1967843 1902629 1882312
2518.60 1899433 1916130 1895487 1900002 1958593 1987636
2521.49 1950065 1888278 1879737 1959679 2048685 2010731
2524.39 1931704 1885835 1818078 1870038 2007336 2013987
2527.28 1853498 1706723 1761578 1841936 1809518 1793395
2530.17 1762828 1700256 1666649 1669219 1675655 1638958
2533.06 1624796 1653432 1687646 1695857 1653726 1661161
2535.96 1630623 1438869 1291773 1299546 1305646 1221329
2538.85 1168209 1267223 1424654 1541399 1576587 1463691
2541.74 1315954 1236984 1242385 1243916 1243553 1372595
2544.63 1520932 1497218 1345854 1233256 1234960 1237621
2547.53 1196240 1174111 1210718 1290739 1382773 1424903
2550.42 1384036 1368897 1394124 1366695 1302326 1290091
2553.31 1391313 1450275 1383968 1223769 1060559 1137052
2556.21 1332427 1412521 1422518 1442694 1484780 1469621
2559.10 1377022 1301742 1289917 1258995 1275193 1305981
2561.99 1375585 1465034 1371408 1229523 1270784 1374083
2564.88 1381321 1364286 1343965 1315447 1296003 1251828
2567.78 1196897 1213179 1324738 1475236 1505040 1462329
2570.67 1423675 1330292 1259847 1295454 1385284 1458230
2573.56 1486674 1490897 1389449 1226021 1227422 1329110
2576.45 1349802 1373858 1427248 1386332 1333401 1348694
2579.35 1350519 1323515 1328411 1346634 1318884 1281582
2582.24 1289252 1344402 1412632 1467303 1425450 1285520
2585.13 1277985 1392933 1454036 1485915 1429250 1286324
2588.03 1186929 1242805 1316908 1369433 1430601 1395198
2590.92 1339541 1333928 1359618 1336974 1317814 1397534
2593.81 1470353 1485013 1498473 1528102 1528590 1493002
2596.70 1423786 1329968 1259385 1231350 1315615 1460027
2599.60 1415951 1277733 1247714 1283078 1312662 1317015
2602.49 1361914 1468622 1464198 1328968 1319589 1465148
2605.38 1462850 1334491 1385124 1459467 1376624 1234338
2608.27 1171859 1263060 1384921 1401184 1345011 1397867
2611.17 1563466 1591470 1534791 1519937 1473968 1450369
2614.06 1413071 1419593 1489578 1551250 1568173 1547704
2616.95 1506303 1457567 1417607 1396451 1475342 1474703
2619.85 1358675 1321360 1334075 1307650 1260958 1284946
2622.74 1330950 1428280 1606671 1671862 1641541 1583202
2625.63 1470158 1388335 1406450 1462386 1527730 1599650
2628.52 1548515 1427159 1436713 1466259 1424009 1422651
2631.42 1414280 1389658 1418433 1420278 1343850 1295151
2634.31 1259867 1292015 1417108 1459660 1533631 1621869
2637.20 1564875 1447640 1398867 1446687 1501207 1502835
2640.09 1458077 1417940 1360611 1320604 1402875 1423450
2642.99 1376285 1434308 1490242 1520604 1520177 1504693
2645.88 1482614 1427773 1427722 1492112 1502876 1431702
2648.77 1344682 1368534 1540068 1694226 1658773 1542193
2651.67 1496545 1569641 1598174 1477343 1408978 1411475
2654.56 1438368 1487240 1456087 1370909 1312917 1268215
2657.45 1296837 1370576 1403939 1494806 1562532 1517326
2660.34 1389206 1290705 1294373 1273163 1288919 1419633
2663.24 1477047 1404329 1376312 1424903 1506114 1595688
2666.13 1564676 1438823 1366023 1311473 1275093 1312070
2669.02 1312192 1268522 1330266 1436549 1512711 1561005
2671.91 1527362 1509154 1535194 1470692 1382335 1421946
2674.81 1556344 1620199 1565717 1542670 1558431 1485628
2677.70 1406426 1445661 1521477 1560304 1579538 1508697
2680.59 1317315 1271329 1486117 1574005 1452482 1408709
2683.49 1420951 1398608 1428670 1482626 1411995 1320805
2686.38 1319983 1348012 1411887 1449490 1465643 1505675
2689.27 1426957 1312635 1369667 1510872 1523276 1449754
2692.16 1459398 1521770 1546044 1442798 1346200 1345045
2695.06 1285934 1229877 1282661 1362178 1429326 1532912
2697.95 1674550 1625970 1364343 1226921 1241390 1233177
2700.84 1250865 1299169 1282740 1322755 1434969 1489167
2703.73 1563876 1705064 1799823 1727896 1611723 1590354
2706.63 1616605 1692246 1758874 1733093 1657436 1592393
2709.52 1600249 1655868 1651734 1549432 1429199 1380708
2712.41 1409089 1471133 1483124 1421295 1314684 1232763
2715.31 1237653 1322381 1443697 1530884 1597806 1682944
2718.20 1706720 1592667 1519690 1626932 1671590 1571586
2721.09 1594936 1633430 1560737 1557745 1635030 1727913
2723.98 1662108 1490838 1519636 1592666 1550577 1528738
2726.88 1517423 1490874 1508163 1472067 1345061 1359539
2729.77 1512809 1547675 1497609 1475937 1368537 1273454
2732.66 1281706 1268389 1324083 1469167 1506496 1467300
2735.55 1427924 1324431 1217426 1204753 1250900 1335135
2738.45 1498188 1617532 1602173 1577408 1582227 1674700
2741.34 1758043 1588060 1377494 1357799 1368145 1357894
2744.23 1345860 1333938 1385680 1512150 1618377 1683067
2747.12 1780936 1678404 1423293 1395785 1576099 1713736
2750.02 1742438 1679447 1590341 1533983 1506776 1555722
2752.91 1660500 1606774 1448242 1397848 1396257 1355570
2755.80 1348670 1343602 1297944 1391500 1513111 1477165
2758.70 1386819 1355518 1441600 1585230 1628297 1614961
2761.59 1663953 1627566 1444946 1329011 1443156 1509693
2764.48 1392182 1408606 1492780 1483622 1505883 1558418
2767.37 1556316 1549989 1605034 1625058 1554216 1615581
2770.27 1763700 1702639 1565830 1639941 1757696 1688163
2773.16 1621670 1606753 1509948 1487048 1571711 1614436
2776.05 1542180 1442988 1430986 1495030 1617243 1655118
2778.94 1572828 1648132 1769870 1691226 1581764 1518291
2781.84 1566609 1692714 1685562 1651231 1678918 1676323
2784.73 1593827 1500065 1441168 1478993 1573434 1630233
2787.62 1671650 1726297 1759758 1738655 1689362 1658474
2790.52 1674462 1671780 1631293 1544476 1451963 1578821
2793.41 1886413 1976295 1833936 1703760 1677467 1825143
2796.30 1947151 1901068 1805810 1769932 1814691 1872493
2799.19 1968488 2099064 2206142 2358865 2452094 2383349
2802.09 2265246 2294283 2312344 2160621 2196004 2384606
2804.98 2514855 2594066 2495258 2342591 2395552 2566116
2807.87 2661535 2637492 2632050 2642652 2611570 2618016
2810.76 2695455 2781307 2770752 2733702 2713876 2680626
2813.66 2758591 2874788 2898451 2860239 2849956 2969651
2816.55 3034526 3038454 3032696 3047035 3165497 3282932
2819.44 3273929 3110786 2953599 2964560 3071408 3161228
2822.34 3250040 3414697 3610898 3653329 3519554 3496494
2825.23 3619282 3591070 3568093 3731832 3889451 3917051
2828.12 3837306 3673104 3480290 3360775 3264754 3143081
2831.01 3131188 3256730 3312875 3323195 3413554 3542577
2833.91 3441818 3169269 2999815 2946362 3112291 3376996
2836.80 3563699 3606215 3403485 3168407 3108041 3045739
2839.69 2903539 2835605 2850514 2793014 2611735 2471214
2842.58 2362677 2199367 1981014 1893624 2089225 2200195
2845.48 2063646 2023415 2154338 2206447 2085297 1948898
2848.37 1901573 1921236 1972956 1970898 1984793 2000589
2851.26 1855126 1758595 1845892 1870229 1760775 1603341
2854.16 1575584 1749627 1922919 2006017 2052352 2046093
2857.05 1910160 1730933 1696807 1829361 1941871 1912868
2859.94 1848190 1878223 1880068 1798298 1713218 1703775
2862.83 1812614 1882613 1818659 1725605 1619639 1610648
2865.73 1719187 1780737 1782639 1763691 1769682 1756846
2868.62 1702645 1617796 1582059 1688463 1731247 1713122
2871.51 1809529 1987110 2068272 2020727 1904692 1895679
2874.40 2107094 2339390 2394173 2251810 2078463 1994111
2877.30 1968724 2067358 2157793 2032656 1877121 1878075
2880.19 2024667 2139504 2125570 2091334 2041247 1933755
2883.08 1841187 1808155 1756622 1800592 2049891 2217136
2885.98 2215115 2260054 2379580 2384082 2265240 2079241
2888.87 1961472 2057182 2080343 2016308 2092949 2185010
2891.76 2217928 2204109 2104783 2048273 2124546 2197653
2894.65 2118427 2021355 1965449 1959936 1929235 1928704
2897.55 2053990 2108531 2196133 2407386 2511488 2471882
2900.44 2403321 2378000 2411250 2343390 2172014 2125040
2903.33 2210008 2394650 2587256 2580105 2496107 2485366
2906.22 2445263 2331425 2246072 2268256 2390811 2442708
2909.12 2357535 2345378 2366078 2372968 2342409 2254153
2912.01 2296365 2409415 2362734 2248212 2300576 2471470
2914.90 2557507 2517961 2468717 2389233 2180311 2071605
2917.80 2246037 2409991 2387370 2467169 2469294 2320477
2920.69 2377702 2569597 2623695 2469319 2246254 2201942
2923.58 2374870 2573661 2690470 2685111 2615677 2523277
2926.47 2414735 2476689 2614779 2612036 2533537 2555965
2929.37 2657175 2648798 2575228 2561276 2459820 2350810
2932.26 2464739 2686897 2761750 2709652 2744756 2842606
2935.15 2918344 2946312 2829478 2779614 2999463 3101950
2938.04 2893119 2716338 2675007 2666200 2663201 2714025
2940.94 2892110 3041757 3093543 3141703 3158167 3132954
2943.83 3107515 2988472 2765308 2779965 2935525 2895681
2946.72 2918190 3198839 3234324 2970348 2786852 2765277
2949.62 2797966 2873501 3079720 3298447 3255298 2983329
2952.51 2896219 3006532 3010074 3022158 3037701 2917793
2955.40 2889591 3022223 3195266 3362635 3379111 3172236
2958.29 2994923 2952641 2929890 2938861 2877522 2505465
2961.19 2132245 2586235 3443623 3629346 3481800 3468448
2964.08 3407909 3383518 3495887 3528490 3403433 3293694
2966.97 3237682 3234832 3260087 3360593 3528819 3534816
2969.86 3477798 3511720 3613795 3702921 3645363 3538098
2972.76 3528182 3607135 3773115 3969331 4075318 4034463
2975.65 3843467 3626908 3513000 3563737 3723203 3863150
2978.54 3937743 3887669 3765363 3712074 3728984 3827381
2981.44 3943694 3944170 3963213 4101011 4191394 4072118
2984.33 3923403 3985592 4074393 3950676 3815234 3888778
2987.22 4068272 4090035 3941039 3811826 3754827 3772282
2990.11 3764917 3673282 3682062 3810679 3861815 3813480
2993.01 3773356 3772584 3828937 3939475 4060748 3904691
2995.90 3568699 3446420 3446147 3478037 3426507 3267862
2998.79 3134112 3056266 3098246 3139835 3178513 3181809
3001.68 3101981 3134225 3130782 2953622 2848403 2934832
3004.58 3132805 3176205 2927514 2706797 2746705 2811939
3007.47 2770350 2839984 2954372 2975438 2958241 2924705
3010.36 2857130 2730243 2639018 2725718 2813598 2797707
3013.26 2759062 2593602 2411963 2413554 2469546 2500279
3016.15 2574108 2696298 2714394 2628436 2574272 2621759
3019.04 2725146 2710105 2590291 2552451 2518632 2483398
3021.93 2563544 2573390 2487671 2422144 2410006 2443623
3024.83 2529954 2682452 2649174 2423934 2365786 2400946
3027.72 2381122 2346579 2296643 2231901 2224133 2247442
3030.61 2245277 2332546 2465195 2565675 2590406 2446115
3033.50 2232264 2129539 2233553 2495237 2642563 2590182
3036.40 2539725 2497721 2429571 2280295 2182007 2293334
3039.29 2439762 2478001 2344524 2290297 2414657 2445717
3042.18 2428931 2428808 2461053 2476552 2447865 2451997
3045.08 2514756 2669035 2791389 2875949 2948871 2855438
3047.97 2627462 2539541 2644564 2813910 2870526 2703018
3050.86 2626332 2696055 2726586 2680794 2535114 2512361
3053.75 2682655 2723663 2626582 2612022 2600208 2519557
3056.65 2594118 2765256 2954720 3123598 3090951 2858744
3059.54 2605331 2534772 2634718 2701615 2754861 2864801
3062.43 2998669 3025995 3019262 3116405 3186969 3172921
3065.32 3234024 3307861 3248100 3333820 3506429 3541003
3068.22 3682887 3885502 4029390 4233838 4488652 4703266
3071.11 4864127 5125301 5425798 5590920 5757463 6050486
3074.00 6259860 6317107 6430600 6701429 7088255 7544585
3076.90 8098423 8711817 9367266 9963089 10403002 11107779
3079.79 12318504 13549430 14613861 15845991 17537709 19591733
3082.68 21834962 24354441 27246308 30507117 34032888 37812387
3085.57 41970400 46527931 51170243 55645355 60084292 64277058
3088.47 67960166 71180291 73838428 75465020 75702561 75052404
3091.36 73812171 71216446 67079912 62930108 60948786 62937173
3094.25 70563469 83266573 92196814 84601985 65227815 53637701
3097.14 55278386 62498175 70222146 76937776 82039034 85165066
3100.04 86380773 85576851 82844054 78983984 73917881 67527829
3102.93 60658705 53826429 47231872 41131328 35693519 30925627
3105.82 26931672 23641422 20768488 18366102 16455417 14859465
3108.72 13456749 12180728 11173488 10373086 9582302 8901258
3111.61 8298216 7745664 7329077 6916499 6430105 6110939
3114.50 6029120 5925958 5639566 5284774 5010757 4804490
3117.39 4804674 4965474 4953517 4626612 4228465 4056680
3120.29 4101970 4367607 4632274 4446168 4061160 4042086
3123.18 4259628 4380891 4274950 4045843 4050176 4171730
3126.07 4175327 4275464 4458416 4488372 4290181 4116186
3128.96 4292547 4559932 4634500 4598054 4716564 4927234
3131.86 4851146 4734838 4838108 4945485 4934964 4809589
3134.75 4740684 4693097 4610492 4598727 4594856 4636471
3137.64 4742711 4769925 4726108 4623028 4669321 4913982
3140.54 5047999 4955947 4827541 4843774 4944650 5088659
3143.43 5304620 5444707 5427078 5379175 5390785 5466543
3146.32 5603092 5728844 5710870 5657917 5568639 5346230
3149.21 5142274 5100851 5208186 5372762 5621826 5747502
3152.11 5644455 5719734 6082881 6434062 6714335 6920407
3155.00 7029914 7237674 7598444 7884319 8033520 8322412
3157.89 8649748 8713255 8766314 9134100 9573764 9734702
3160.78 9868908 10242982 10783041 11169089 11348275 11541062
3163.68 11686821 11728831 11913604 12254618 12367358 12241820
3166.57 12268150 12468689 12629035 12652519 12569770 12353683
3169.46 12185131 12304070 12310196 12052942 11888768 11764036
3172.36 11749876 11934355 12075574 12055240 11676237 11037982
3175.25 10681689 10668381 10689993 10633662 10454052 10202397
3178.14 9826020 9224779 8546530 8015770 7547804 6896179
3181.03 6149178 5459743 4908915 4484931 4095023 3718441
3183.93 3406058 3169665 3164087 3300854 3213692 2984020
3186.82 2858230 2900722 3158383 3281268 3030788 2895873
3189.71 2969442 2870851 2717900 2699428 2715060 2691677
3192.60 2630447 2639915 2739064 2801129 2910951 2816559
3195.50 2507834 2522139 2607248 2520080 2426572 2362476
3198.39 2392005 2553083 2793671 2943957 2921931 2808835
3201.28 2736704 2734456 2780750 2929487 3051623 3085607
3204.18 3112978 2999796 2811255 2800761 2833720 2698485
3207.07 2576421 2590980 2603934 2651485 2738093 2850385
3209.96 2939523 2978057 2962025 2887550 2755721 2510866
3212.85 2466317 2621098 2682423 2789010 2912167 2974572
3215.75 3071390 3157301 3203293 3084773 2887929 2713891
3218.64 2538433 2485763 2691751 2994785 3117835 3123459
3221.53 3052302 2858249 2852086 3100515 3193064 3004358
3224.42 2749395 2715163 2983378 3210347 3190527 2979599
3227.32 2704777 2667007 2877771 2971457 2969298 3068093
3230.21 3184874 3182633 3053222 2995662 3071029 3031295
3233.10 2924519 2946217 2994151 3012986 2936841 2860453
3236.00 2898309 2989207 2937354 2842926 2841985 2912274
3238.89 3139192 3293133 3237089 3183335 3175650 3121913
3241.78 3014599 2968430 3051689 3068459 2984641 3076290
3244.67 3348000 3477842 3283874 2876277 2506424 2457039
3247.57 2725083 2968577 3107514 3050150 2777783 2733736
3250.46 2846556 2886592 3045123 3155963 3083710 3075868
3253.35 3234196 3411945 3311474 3069352 3070221 3235193
3256.24 3196937 3159173 3392014 3575241 3407653 3032016
3259.14 2877365 2979202 3025247 3052009 3366000 3619024
3262.03 3368866 3053829 3091238 3160371 3226799 3351242
3264.92 3274458 3059866 2901753 2950272 3071655 3075012
3267.82 3095370 3045669 2925499 2990401 3117211 3129248
3270.71 3083422 3001022 2952595 3111620 3256787 3260775
3273.60 3345526 3316734 3105166 2984668 2957513 3059376
3276.49 3228378 3179522 2981065 2872985 2851725 2811563
3279.39 2873355 2953392 2815952 2636344 2645370 2692293
3282.28 2714296 2866271 2910960 2755616 2698254 2771663
3285.17 2775918 2722978 2781502 2883866 2952089 2967915
3288.06 2998643 3194473 3283421 3030992 2785853 2693173
3290.96 2572921 2474051 2516267 2685693 2825493 2787205
3293.85 2646895 2661676 2818503 2875033 2858792 2896000
3296.74 2899056 2914764 2928762 2837985 2835776 2928012
3299.64 2769727 2569787 2639896 2749320 2892148 2970520
3302.53 2893848 2888181 2854837 2602795 2332943 2356667
3305.42 2581902 2781669 2867437 2898233 2815743 2729713
3308.31 2877031 3055717 2958259 2681509 2536600 2578928
3311.21 2770353 2984838 2875302 2659532 2631355 2714552
3314.10 2716264 2543155 2362095 2345643 2496924 2734185
3316.99 2855110 2852754 2950007 3006747 2911869 2903691
3319.88 2895823 2728060 2614091 2595754 2552740 2616722
3322.78 2740507 2803560 2811450 2807000 2772089 2717896
3325.67 2640178 2499872 2575977 2754433 2589240 2481997
3328.56 2749631 2943323 2816564 2631396 2580881 2508529
3331.46 2421964 2440521 2675124 3097982 3188860 2761382
3334.35 2383415 2355373 2395173 2543253 2877558 3008112
3337.24 2792941 2572936 2498393 2570973 2652269 2541561
3340.13 2448687 2528515 2632594 2722617 2733178 2688840
3343.03 2691616 2674864 2700416 2781806 2715139 2527978
3345.92 2494706 2503445 2541612 2674664 2701135 2746887
3348.81 2815558 2574305 2284130 2373870 2518228 2379296
3351.70 2263814 2496080 2804874 2865474 2678926 2463776
3354.60 2358853 2401621 2531057 2682292 2889455 3016367
3357.49 3055143 2955996 2826062 2872436 2966952 2980353
3360.38 2986610 2878168 2675117 2590810 2630071 2668278
3363.28 2487598 2388911 2564558 2501056 2323503 2550941
3366.17 3052349 3269734 3012006 2748352 2679384 2653089
3369.06 2613301 2483230 2406080 2491811 2631543 2616227
3371.95 2492242 2456707 2508242 2691703 2849989 2710927
3374.85 2582324 2729068 2752460 2647137 2728795 2627914
3377.74 2319088 2245501 2366240 2489765 2544421 2611699
3380.63 2701616 2687264 2497261 2304183 2341551 2583641
3383.52 2674592 2563506 2539736 2651383 2829540 2938545
3386.42 2886093 2843197 2914079 2856518 2594357 2487354
3389.31 2671896 2861820 2903011 2892172 2737698 2486368
3392.20 2425165 2457833 2343977 2202516 2328018 2739578
3395.10 3003273 2844336 2645871 2852508 3090409 2757708
3397.99 2310662 2255944 2447953 2670627 2695819 2661762
3400.88 2641664 2584890 2523015 2524057 2539119 2476001
3403.77 2432216 2355148 2296559 2503407 2676816 2608334
3406.67 2571684 2624935 2749963 2837730 2770646 2671604
3409.56 2596993 2443423 2334419 2238765 2074241 2165906
3412.45 2515602 2675294 2577378 2647191 2779532 2591085
3415.34 2394562 2502401 2545467 2450721 2485543 2523166
3418.24 2519879 2580241 2578631 2517513 2537272 2579272
3421.13 2548551 2547029 2650815 2801075 2763705 2641496
3424.02 2623619 2604973 2619598 2589757 2549520 2761641
3426.92 3017317 2868178 2423574 2229959 2440660 2638570
3429.81 2687065 2675607 2498578 2335923 2423098 2621754
3432.70 2684920 2471264 2182250 2228223 2455751 2589164
3435.59 2576518 2403044 2326191 2448338 2638282 2848768
3438.49 2943076 2766294 2586809 2646114 2690938 2619046
3441.38 2525457 2461382 2440618 2439550 2310130 2222917
3444.27 2498665 2932502 3148049 3066669 2845897 2626648
3447.16 2520334 2569756 2711572 2828257 2780064 2709761
3450.06 2682774 2613934 2760632 2959976 2882459 2757281
3452.95 2758478 2934052 2938092 2777810 2863536 2980989
3455.84 2814116 2666176 2657071 2631727 2750478 2896427
3458.74 2841947 2612530 2430036 2535207 2785461 2974607
3461.63 2983498 2877062 2828871 2733776 2652023 2695347
3464.52 2749732 2739513 2667346 2754828 2791565 2591234
3467.41 2674474 2993258 3045579 2894000 2788247 2828502
3470.31 2952751 2972180 2881447 2813221 2687588 2577690
3473.20 2622192 2738761 2908457 2972132 2827492 2684547
3476.09 2628677 2760879 2945193 2748276 2500354 2558728
3478.98 2808988 2966378 2865041 2732445 2763696 2859954
3481.88 2903624 2884457 2890540 2964396 2937523 2853801
3484.77 2922674 3064359 3145887 3180755 3123157 3007643
3487.66 2841975 2710178 2807425 2857516 2691455 2599806
3490.56 2636608 2529161 2380791 2587716 2904483 3033699
3493.45 3093556 3000707 2856966 3104124 3305898 3042349
3496.34 2861702 2893943 2903549 2961106 2933661 2846699
3499.23 2879040 2914756 2897249 2802026 2725163 2566743
3502.13 2445922 2649852 2922092 2932428 2832029 2938152
3505.02 3056195 3016467 2876002 2731226 2692593 2683141
3507.91 2773431 2918951 2965633 3047585 3180949 3150306
3510.80 2974201 2747678 2636383 2695215 2639286 2549230
3513.70 2612907 2771122 2854012 2849251 2852470 2868503
3516.59 2848107 2762610 2728250 2791348 2860000 2971164
3519.48 2917264 2782685 2886903 2849799 2724718 2787536
3522.38 2723498 2558896 2548152 2699301 3001242 3146840
3525.27 3015086 2805897 2730488 2762512 2736723 2741024
3528.16 2721078 2668722 2739056 2714435 2625885 2723627
3531.05 2943626 3008938 2855206 2769027 2896659 3104294
3533.95 3099930 2881373 2800450 2870378 2816792 2663841
3536.84 2662059 2910468 3148584 3068607 2830765 2677509
3539.73 2580498 2498945 2610361 2978449 3198358 2922872
3542.62 2682334 2747520 2885646 3009275 2959088 2905253
3545.52 3016175 3048473 3049818 3172015 3190346 3139277
3548.41 3136797 3041721 2903871 2860123 2773959 2620981
3551.30 2595578 2758608 3085262 3213805 2958969 2711931
3554.20 2686765 2757303 2943994 3098276 2947087 2774568
3557.09 2848612 3007667 3054944 3075028 3061599 2868852
3559.98 2683531 2692414 2880444 3129803 3204343 3141739
3562.87 3032726 2904775 2718204 2524587 2658058 2765584
3565.77 2538030 2441711 2593844 2685456 2882056 3192866
3568.66 3160021 2973815 2892106 2789333 2840224 3123838
3571.55 3244648 3259397 3266774 3080829 2819544 2673644
3574.44 2817381 3012259 3042749 3107948 3196204 3019004
3577.34 2758556 2790802 2928943 2928451 2914458 2942364
3580.23 2947524 2934888 2931820 3074177 3191102 3145153
3583.12 3189106 3317418 3187593 2968958 3075860 3189046
3586.02 3118211 3103393 3085148 3073916 2899462 2628529
3588.91 2718454 2997049 3115223 3129495 3102165 2991024
3591.80 2906306 2990966 3113671 3079612 2954194 2870770
3594.69 2830415 2963465 3163401 3118296 2843907 2640219
3597.59 2781329 3088023 3276377 3209521 3019281 2957100
3600.48 3050201 3133153 3012312 2869391 2881308 2875156
3603.37 2928457 3183071 3387308 3382685 3189556 3001588
3606.26 3012178 3082506 3192866 3240955 2903769 2457671
3609.16 2610551 3071634 3242121 3317226 3361214 3179834
3612.05 2918314 2887636 3004910 2949781 2852319 2909718
3614.94 3023578 3121876 3154209 3276786 3364145 3321971
3617.84 3324284 3156647 2833171 2820101 3046600 3105896
3620.73 3121607 3223030 3341419 3502772 3565652 3372486
3623.62 3228877 3294166 3262744 3203779 3346309 3500758
3626.51 3544362 3382566 2899346 2626380 2625562 2476027
3629.41 2705847 3138270 3152924 3094099 3142355 3224376
3632.30 3227017 2969572 2761561 2924136 3129811 3296139
3635.19 3503176 3568158 3546608 3485848 3336882 3202197
3638.08 3239801 3354788 3351010 3305535 3354251 3393236
3640.98 3232012 3162421 3270221 3310149 3261756 3236928
3643.87 3253734 3201121 3270684 3467436 3334695 3026550
3646.76 2976220 3091787 3066012 2787475 2574530 2843386
3649.66 3133005 3027387 3011844 3341771 3667303 3698208
3652.55 3570462 3411750 3261534 3279205 3421336 3275607
3655.44 2861268 2751633 3009232 3180039 3220901 3314245
3658.33 3440930 3519958 3555307 3557165 3479731 3371294
3661.23 3399028 3445601 3307443 3110860 3177746 3491077
3664.12 3602569 3454684 3387282 3326128 3154574 3167010
3667.01 3374089 3350080 2983939 2869686 3241161 3348654
3669.90 2823118 2417919 2720234 3271882 3575172 3555454
3672.80 3402294 3263818 3142841 2929811 2603551 2210239
3675.69 2230699 2669683 2972766 3207800 3374309 3323241
3678.58 3208086 3161161 3159275 3205767 3301030 3355754
3681.48 3323278 3236106 3154007 3238684 3467809 3551160
3684.37 3493073 3432443 3347370 3265835 3267152 3217385
3687.26 2809683 2189199 2354498 3116334 3405250 3301792
3690.15 3155754 2906014 2800097 3018472 3260453 3316721
3693.05 3177450 3098589 3218213 3474350 3715222 3723034
3695.94 3600868 3553180 3574329 3592704 3685849 3787463
3698.83 3723627 3721771 3840714 3727978 3275650 3052974
3701.72 3391108 3731568 3794518 3743045 3658937 3542715
3704.62 3485981 3449622 3442695 3597765 3666448 3573697
3707.51 3571622 3486725 3215493 3130144 3359239 3571601
3710.40 3537150 3354661 3100287 2981895 3177823 3483912
3713.30 3717097 3852974 4023931 4130776 4148754 4210984
3716.19 4151102 3936366 3872551 4042507 4055719 3842350
3719.08 3768367 3880180 4007706 4174804 4303599 4191950
3721.97 4125337 4185733 4183602 4240247 4366949 4449757
3724.87 4423459 4175192 3851591 3858263 4037954 4085573
3727.76 4087892 4089292 4097999 4203457 4289787 4123551
3730.65 3921734 3746218 3551092 3709549 4042871 4080920
3733.54 3915413 3800574 3746175 3695261 3620929 3345968
3736.44 3230946 3558412 3734357 3592787 3553026 3616258
3739.33 3583276 3430848 3289173 3285162 3464161 3697400
3742.22 3696279 3405192 2776936 1784484 1394389 2231941
3745.12 3192646 3540957 3572922 3501152 3376217 3242616
3748.01 2916820 2258067 2004784 2752841 3422841 3318490
3750.90 2867394 2185888 2034902 2710585 3213500 3427952
3753.79 3610145 3721227 3747274 3599752 3354834 3403542
3756.69 3623398 3595245 3433287 3312965 3317042 3322287
3759.58 3239970 3286696 3379939 3438318 3433790 3454502
3762.47 3531662 3533239 3590456 3633355 3455805 3202137
3765.36 3090404 3213630 3368994 3435083 3549402 3655704
3768.26 3633625 3385516 3048657 3051711 3209393 3194890
3771.15 3346395 3596631 3501333 3416071 3589534 3704714
3774.04 3724767 3623095 3516738 3607867 3575396 3351720
3776.94 3274329 3275041 3196656 3060787 3020246 3214908
3779.83 3458526 3488660 3447727 3481475 3579333 3592204
3782.72 3512721 3519309 3489240 3424181 3440620 3507647
3785.61 3645053 3607250 3380441 3354598 3455724 3426959
3788.51 3456342 3559432 3670644 3799311 3738056 3500418
3791.40 3387285 3518697 3611823 3503234 3440858 3537222
3794.29 3600365 3488465 3357796 3237514 3233969 3488678
3797.18 3582056 3434033 3422910 3500335 3554400 3588652
3800.08 3244812 2424550 2133536 2755562 3190451 3281816
3802.97 3308006 3222329 3251068 3387857 3438758 3311460
3805.86 3023631 2809716 3142571 3612958 3743259 3775883
3808.76 3716901 3682803 3683599 3596612 3612602 3613231
3811.65 3415974 3278302 3411625 3632640 3658120 3499619
3814.54 3335293 2988992 2488053 2649701 3316862 3709438
3817.43 3622569 3324861 3359576 3571167 3537146 3332862
3820.33 3143009 2943418 2794197 2989654 3302545 3399825
3823.22 3399073 3444623 3541009 3590738 3481539 3303210
3826.11 3291500 3495703 3670909 3643183 3484312 3415957
3829.00 3547095 3677556 3746397 3619018 3371045 3322791
3831.90 3367512 3358712 3444165 3649366 3597347 3186468
3834.79 3027792 3344123 3717040 3746255 3126618 2170294
3837.68 2192823 2858840 3081536 3115490 3269274 3367834
3840.58 3297961 3361005 3590315 3670611 3560424 3414495
3843.47 3334580 3396970 3547034 3707118 3686009 3495552
3846.36 3438079 3585856 3628853 3524192 3564532 3697386
3849.25 3712058 3552884 3476975 3453535 3078351 2878229
3852.15 3250237 3264901 2511955 1726912 1919861 2729889
3855.04 3148880 3331279 3507924 3496750 3506789 3672597
3857.93 3766680 3844653 4026068 4201439 4255822 4225109
3860.82 4171521 4132590 4062187 3862675 3605877 3538290
3863.72 3572856 3277457 3050818 3441388 3858223 3927550
3866.61 3800656 3647674 3646241 3591868 3295502 3024149
3869.50 2900580 3083728 3344354 3430775 3616615 3796967
3872.40 3833000 3751601 3473621 3201605 3294135 3553808
3875.29 3570495 3617426 3707319 3605761 3491357 3408885
3878.18 3311230 3270874 3199275 3107393 3293295 3602061
3881.07 3599116 3561958 3696888 3712348 3585630 3359990
3883.97 3203602 3216261 3114818 3109995 3302567 3430730
3886.86 3530536 3545636 3593787 3662278 3637479 3683872
3889.75 3580176 3214982 2945204 3041176 3378644 3606016
3892.64 3543680 3451906 3553171 3632651 3535128 3421588
3895.54 3476918 3547531 3427981 3391590 3442506 3334470
3898.43 3185383 3141126 3280872 3501829 3601265 3388948
3901.32 3085945 3074036 3283729 3538828 3594582 3392543
3904.22 3345953 3350814 3200379 3220766 3485322 3634882
3907.11 3554635 3395580 3258720 3329168 3586596 3724507
3910.00 3693234 3733613 3867481 3888610 3766938 3714871
3912.89 3692503 3478417 3362172 3536424 3606908 3474496
3915.79 3350935 3251487 3282937 3384873 3402313 3427313
3918.68 3492967 3479879 3368834 3268696 3266451 3377690
3921.57 3487347 3559459 3567940 3495818 3469202 3437742
3924.46 3350165 3408982 3557800 3701425 3881052 4021612
3927.36 4100090 4069308 3899235 3791824 3803820 3753327
3930.25 3800054 4056309 4165599 3954208 3660768 3579371
3933.14 3808749 4126305 4275759 4202771 4039816 3990716
3936.04 4106930 4241386 4311021 4358235 4495053 4454499
3938.93 4056120 3866636 4029492 4123736 4172956 4255692
3941.82 4297364 4399731 4530013 4507120 4336108 4235619
3944.71 4334708 4535479 4588972 4322733 4108897 4104734
3947.61 4129177 4168472 4270057 4408570 4429624 4354927
3950.50 4191246 3893436 3756946 3759562 3786835 3829918
3953.39 3885965 3892640 3791879 3777904 3888443 3828729
3956.28 3723003 3819683 3923687 3915165 3821771 3708083
3959.18 3729525 3755399 3647123 3551666 3521140 3529516
3962.07 3514178 3524633 3637853 3802702 3775930 3598044
3964.96 3460684 3412776 3585116 3775909 3658403 3522374
3967.86 3649557 3798266 3854517 3932531 3981294 3908192
3970.75 3828613 3726515 3548246 3453031 3462342 3610734
3973.64 3853782 3814314
##END=
