##TITLE=1,1,2-Trichloroethane
##JCAMP-DX=4.24
##DATA TYPE=INFRARED SPECTRUM
##CLASS=IUPAC A
##ORIGIN=NIST, Analytical Chemistry Division, 301-975-3108
##OWNER=COPYRIGHT (C) 2001 by the U.S. Secretary of Commerce
##DATE=01/06/01
##$SPECTRA VERSION=1.10
##$UNCERTAINTY IN Y=2.1 % relative (B=1.14E-04,C=1.89E-9,D=6.50E-14)
##CAS NAME=1,1,2-Trichloroethane
##CAS REGISTRY NO=79-00-5
##MOLFORM=Cl C H2 C H Cl2
##MP=-36.5 C
##BP=113.77 C
##$NIST SOURCE=QUANT-IR
##SPECTROMETER/DATA SYSTEM=IFS66V (Bruker)
##INSTRUMENT PARAMETERS=KBr Beam Splitter; MCT Detector; Multipass cell
##STATE=gas
##SAMPLE DESCRIPTION=1,1,2-Trichloroethane Primary Gas Standard
##PRESSURE=101.3 Pa
##TEMPERATURE=23 C
##SAMPLING PROCEDURE=1 L/min Flow
##RESOLUTION=0.9640
##DATA PROCESSING=3-Term B-H Apodization
##XUNITS=cm-1
##YUNITS=(micromol/mol)-1m-1 (base 10)
##XFACTOR=1.0
##YFACTOR=9.0949E-13
##DELTAX=0.4820
##FIRSTX=575.17
##LASTX=3974.606
##FIRSTY=-8.98E-07
##MAXX=3974.12
##MINX=575.17
##MAXY=.0008584
##MINY=-3.21E-06
##NPOINTS=7052
##XYDATA=(X++(Y..Y))
575.17-987886-1835856-1805843-1626043-2385536-2377215
577.58-1668385-1068349-1026874-1121141-716645-871768
580.47-1189574-275986 192513-1073358-1933656-1509108
583.37-607788 126646 216250 52141-603175-2127666
586.26-2817626-1980260-905251-188550 450545 1101035
589.15 1413397 979643 34006-582608-421680-211452
592.04-635800-951068-890250-851336-475645 150571
594.94 260616-106246-1016904-1849855-1773508-1338188
597.83-1403565-1810199-1566904-1100976-870882-1040649
600.72-1438971-1409252-951323-151123 315230-1764
603.62-207565-391135-705200-693325-698701-990080
606.51-1197432-1101692-747598-505227-500061-200003
609.40-34181-401225-606475-535362-883324-1456453
612.29-1502964-1465327-1565617-1562636-1510775-1107753
615.19-667519-883778-1052056-607895-307239-322112
618.08-408290-630928-739940-624685-672557-673603
620.97-306007-118727-274093-471809-418380-380035
623.86-601450-542988-406335-535428-617696-639243
626.76-476785-107173 137048 140754 67867 164597
629.65 577540 745298 456766 438330 848933 898525
632.54 973386 1585129 1601608 1011417 1173467 1429059
635.44 1235242 1570697 2161016 2414608 2511496 2314252
638.33 2094130 2233231 2480563 2803617 3355935 3874826
641.22 4293237 4417927 3945171 3641904 4040239 4911860
644.11 5893069 6441680 6667184 6926126 7448247 8069082
647.01 8607418 9037459 9381586 10025301 10605182 10835887
649.90 10868648 10813844 11146813 11811721 12708708 13905456
652.79 15298587 16682158 18036171 19677560 21827831 23971830
655.68 25720468 27554940 30011057 32703385 35325961 38226907
658.58 41501331 45006856 48709687 52626196 57008329 61673195
661.47 66105812 70762461 75773995 81193765 87523812 94139518
664.36 100677550 107683228 115096199 122336279 129013040 134726357
667.26 140857701 148959108 157438105 164389973 169729916 173853799
670.15 176427001 177113712 176506759 175676157 175153610 173875809
673.04 171395787 168801060 167110960 166105260 164836089 163402195
675.93 163406222 166135695 171877310 180608226 191428683 202129429
678.83 210585915 215383004 216132739 212955184 206230664 196760854
681.72 185498922 173526895 161288956 148721086 136168876 124240235
684.61 113780034 105017944 96975006 89234174 82323931 76399790
687.50 71016167 66068963 61580464 57027113 52707724 48885991
690.40 44997143 41108042 37753770 34585621 31316664 28309409
693.29 25737509 23422482 21220706 19230161 17889245 16771550
696.18 15377613 14215581 13611771 13220458 12985889 12982534
699.08 13039386 13065127 12964515 12949352 13544246 14412579
701.97 15050428 15502283 16051225 16862681 17753920 18539883
704.86 19294477 20215149 21086959 21642826 22339033 23290280
707.75 24085640 24568524 25260660 26307539 27270612 28111944
710.65 28857146 29455099 29825826 30089687 30692810 31252343
713.54 31706799 32725642 34146453 35442774 36853474 38640961
716.43 40864387 43398901 46176445 48875507 50928394 52545164
719.32 54737162 57859828 61823335 66680485 71908566 77124795
722.22 83073820 90165801 98228109 107241005 117290612 128236883
725.11 140489457 154805644 170855273 188224218 207462770 228677375
728.00 252083692 278020482 306233329 336196438 367788024 400986804
730.90 435931377 472784165 511216851 550472287 589730161 628513977
733.79 666543389 703650165 739266310 772430861 803069328 830996880
736.68 855534643 876084785 892857103 906087814 915666793 922006696
739.57 927099823 931049783 933268459 935548809 938010396 938354246
742.47 936147154 936697918 942933121 943879055 934612160 918278642
745.36 904286809 909809343 913034155 873129251 819562034 795593226
748.25 783693833 762591188 729892170 687526896 636681602 578540374
751.14 515955712 452450689 390300100 330729361 275455238 226302913
754.04 184250945 149369239 120724047 97911308 80367034 67321137
756.93 57940597 51066608 45700256 41712103 38888226 36787777
759.82 34964371 33468682 32287644 31155619 30321657 29860007
762.72 29259027 28667096 28611256 28961144 29181177 29285330
765.61 29628206 30227645 30984700 31926832 32934254 34032749
768.50 34943017 35742941 36729687 37842209 38802077 39736555
771.39 40582502 41273334 42316140 43621890 44695134 45903431
774.29 47747023 50197639 53078626 56337818 59896303 63623729
777.18 67211569 70677506 73983216 76947040 79538066 81828221
780.07 84007744 86391516 88935545 91365185 93877145 96885978
782.96 100097181 103454435 107328682 111588727 115605139 118925477
785.86 121881015 124525749 125742422 124577451 120985807 116101826
788.75 111094970 106056305 100504006 94515214 88864250 84415473
791.64 81806613 81672967 84495442 90338613 98379968 107190394
794.54 114672178 119100906 120248838 118637544 115049289 110096615
797.43 104105243 97497587 90538820 83377692 76199714 69262491
800.32 62707948 56694908 51176077 46023922 41447618 37627664
803.21 34318948 31063117 28005303 25480865 23424099 21540536
806.11 19411764 17102112 15048712 13543239 12247362 10689873
809.00 9228434 8142031 7073957 6084736 5310307 4573421
811.89 3857302 3297202 2905144 2551457 2351950 2319848
814.78 2144928 1950317 1921015 1920926 1738816 1524615
817.68 1492528 1519421 1543763 1570474 1711734 1993192
820.57 2027896 1991956 1989371 2175869 2413146 2369060
823.46 2349140 2399924 2403956 2573215 2847188 2863441
826.36 2681969 2509912 2198851 1818224 1694880 1821077
829.25 2000765 2084455 1954552 1880492 1992896 2222773
832.14 2527675 2784525 2708203 2369736 2042390 1917580
835.03 2233516 2620770 2763579 2750483 2620115 2647361
837.93 2778302 2566919 2324958 2394447 2422005 2298092
840.82 2378326 2528561 2328859 2055902 2151041 2502211
843.71 2721825 2726709 2728219 2774866 2668239 2511294
846.60 2452248 2596301 2975510 3168511 2883198 2695868
849.50 2852575 2797812 2386610 2019979 2030102 2176660
852.39 2129564 2104231 2195454 2256314 2336406 2418241
855.28 2328082 2109664 1922870 1691355 1527952 1617712
858.18 1818404 1935910 1915231 1692974 1389458 1173635
861.07 1051735 1096615 1218237 1205198 1150877 1085869
863.96 894651 794631 806090 804929 900307 970816
866.85 882955 812587 786739 849755 1013161 1036276
869.75 1044580 1267716 1349005 1191506 1101390 1073714
872.64 963763 819619 785806 1061095 1379468 1402836
875.53 1344239 1364293 1431252 1511768 1607775 1696791
878.42 1643500 1562840 1579686 1633504 1717203 1786070
881.32 1747500 1577115 1480496 1704731 2123391 2353037
884.21 2255094 2145627 2334247 2586937 2579602 2602174
887.10 2758238 2868229 2963890 3040847 3223157 3543070
890.00 3736516 3776055 3918451 4114680 4151875 4123814
892.89 4244105 4414157 4473704 4508135 4531178 4600058
895.78 4648964 4637678 4771466 4934683 4977789 4934434
898.67 4929878 5136412 5316388 5352554 5620894 6006066
901.57 6212988 6475609 6724259 6972571 7291039 7546603
904.46 7622895 7573811 7600568 7771527 8008682 8375703
907.35 8812593 9186891 9558936 10015307 10505107 10976676
910.24 11474451 12130767 12999691 13941358 14728714 15517750
913.14 16570650 17716481 18764519 19912849 21452462 23164721
916.03 24601274 25974153 27669805 29582129 31584959 33759240
918.92 36116107 38638213 41231179 43862764 46637014 49681869
921.82 52934991 56457528 60393838 64564385 68767571 73146892
924.71 77907190 82999940 88457030 94252486 100301643 106562515
927.60 112877411 119315086 126159805 133228390 140121612 146769343
930.49 153009406 158575071 163091967 165949153 166551677 164671240
933.39 160474423 154321997 146916934 139302556 132360598 126718134
936.28 123404454 123299173 126651233 133479578 143469118 156094783
939.17 169537859 180622418 187018756 188513874 186118699 180918568
942.06 173786814 165408569 156522789 147423914 138099360 128782776
944.96 119620784 110981535 103117070 96119333 90402692 86083297
947.85 82534129 78840818 74432748 69619276 64907490 60439898
950.74 56389734 52793120 49283479 45732145 42292240 38987876
953.64 35806006 32803996 30119400 27578035 24870414 22383298
956.53 20367682 18565215 16872303 15406661 14144204 13020984
959.42 12112916 11455802 10866786 10113438 9456743 9093319
962.31 8679061 8178445 7714148 7298039 6895526 6483752
965.21 6326887 6343383 6107231 5848429 5757685 5696044
968.10 5632618 5413037 5096109 4974103 4973662 4870395
970.99 4753989 4739708 4757450 4744152 4654138 4480637
973.88 4249895 4074347 4113314 4301197 4424015 4448867
976.78 4437093 4321356 4060073 3843916 3684032 3423325
979.67 3079663 2779432 2612518 2536739 2447704 2277638
982.56 2169167 2227762 2249293 2093730 1950984 2000030
985.46 2069068 2090440 2167963 2247838 2257800 2273426
988.35 2367305 2465432 2508439 2500424 2527953 2592945
991.24 2573275 2495240 2413282 2408897 2527066 2632050
994.13 2618203 2573024 2669544 2858278 2992199 2982505
997.03 2827652 2767076 2793288 2758671 2727527 2845103
999.92 2997790 3019847 3011729 3073532 3014954 2903250
1002.81 2886553 2936243 2872951 2682771 2602639 2627767
1005.70 2598667 2547877 2599326 2657159 2650496 2571113
1008.60 2565542 2651691 2704384 2813899 2908902 2936672
1011.49 2938639 2890237 2931188 3221934 3570395 3622231
1014.38 3183282 2407754 1857735 1857019 1922930 1777498
1017.28 1744644 1877315 1939610 2010256 2090163 2145842
1020.17 2263242 2392897 2539941 2675863 2677649 2593735
1023.06 2602434 2702754 2834421 2961015 3012298 3069073
1025.95 3107529 3152845 3327396 3506085 3518144 3554706
1028.85 3730713 3921287 4156572 4393954 4631809 5013095
1031.74 5466465 5807922 6143977 6625134 7035995 7318273
1034.63 7655891 8054979 8494087 8874515 9186917 9730485
1037.52 10335382 10640260 10866218 11308049 11853874 12368445
1040.42 12831775 13154557 13427538 13918821 14569778 15080965
1043.31 15462990 15970161 16539649 17005970 17472175 17989112
1046.20 18417884 18792747 19249473 19778969 20219479 20472314
1049.10 20401389 20123533 20045173 19960827 19682140 19530814
1051.99 19432336 19185153 18935470 18701009 18343518 17963802
1054.88 17805045 18027408 18456488 18930339 19441487 19909199
1057.77 20081800 19776474 19270284 18616074 17652563 16689223
1060.67 15855888 15091274 14422021 13800107 13262394 12835095
1063.56 12421712 11870845 11293202 10896426 10551402 10299784
1066.45 10163930 9980001 9829843 9717261 9462819 9170906
1069.34 8765590 8136265 7645354 7356883 6904726 6474492
1072.24 6246395 5975039 5611006 5171410 4861658 4704655
1075.13 4483347 4258291 4012573 3778293 3598386 3453895
1078.02 3339816 3151187 2896289 2737496 2688219 2475136
1080.92 2224151 2241030 2312466 2288986 2233966 2090715
1083.81 1814799 1531926 1289723 1145309 1138239 985182
1086.70 785734 792529 875090 880845 797697 806212
1089.59 886097 796405 585096 533488 650018 626858
1092.49 464346 412476 382860 333334 435692 612251
1095.38 692338 698952 627382 447658 280214 285191
1098.27 333666 279898 278433 361975 368076 295018
1101.16 340836 320460 164149 118559 94957 142235
1104.06 255523 198494 40249 42242 208986 278533
1106.95 173691 104003 196940 411189 467022 274727
1109.84 227184 325160 231663 53393 53738 229856
1112.74 325546 325541 271956 180286 245448 412743
1115.63 460923 410230 351023 309311 358849 404848
1118.52 395277 407122 444772 527801 631903 703549
1121.41 745125 669736 517176 489476 500013 447167
1124.31 482785 661082 765525 773767 843008 947914
1127.20 883479 670434 608794 695379 739999 770064
1130.09 818058 845672 756490 650297 658888 722783
1132.98 816967 891038 874518 847203 868048 909698
1135.88 985268 1155206 1318825 1377824 1347540 1415807
1138.77 1591580 1743793 1952883 2258923 2543226 2742519
1141.66 2910952 3163391 3393637 3626677 3972385 4331083
1144.56 4775694 5328501 5852069 6347039 6858322 7369655
1147.45 7915241 8540100 9294465 10199477 11140890 12001585
1150.34 12765337 13512450 14326168 15308631 16343678 17301430
1153.23 18380717 19663636 21130755 22503532 22671918 21673743
1156.13 20905039 21067127 22245640 24653177 27923566 29457459
1159.02 27680118 25485336 24969864 25747276 26932897 27459348
1161.91 27341242 27494821 27928111 27472477 25567355 23490895
1164.80 22455311 22166206 21806154 21075830 20243400 19605372
1167.70 19037132 18291067 17402532 16467285 15365346 14133500
1170.59 13070549 12190282 11308038 10336524 9322257 8441492
1173.48 7788089 7208766 6514882 5912406 5500344 5202908
1176.38 4973444 4726488 4390498 3957460 3636161 3596602
1179.27 3647172 3614665 3535558 3446611 3386209 3413942
1182.16 3529492 3687346 3866581 4090477 4363737 4618120
1185.05 4840303 5133435 5437998 5742669 6189014 6656218
1187.95 7058894 7476518 7899813 8430649 9081075 9753634
1190.84 10492838 11442743 12552228 13759738 15076086 16537319
1193.73 18252113 20291347 22567258 25159498 28185709 31530170
1196.62 35369234 39790863 44709027 50282105 56444947 63200215
1199.52 70724539 78861980 87270080 95785722 104300647 112567929
1202.41 120001014 126149008 130776077 133666715 134707861 133530354
1205.30 129245594 121652438 111889967 101902956 95938782 105204349
1208.20 139797638 170627231 154886477 115661316 96162077 98965930
1211.09 111467040 125130874 136444086 144796690 150117947 152296935
1213.98 151491199 147739297 141245770 132684592 122680038 111673850
1216.87 100100160 88491405 77404246 67234564 58232722 50456009
1219.77 43789789 38132418 33493283 29727116 26639342 24130863
1222.66 21992887 20088338 18477662 17072630 15851401 14916434
1225.55 14097372 13252924 12516426 11910302 11326867 10841786
1228.44 10558870 10394274 10275128 10216857 10095829 9934549
1231.34 9929077 10026813 10114189 10243263 10445936 10710611
1234.23 11146361 11716628 12407015 13348426 14343826 14822168
1237.12 14659660 14340335 14330342 14661399 15055246 15337523
1240.02 15549451 15738051 15967184 16244810 16371264 16250333
1242.91 16072811 15879604 15787373 15948249 16221531 16564712
1245.80 17032273 17567470 18279907 19344983 20612430 21902260
1248.69 23285634 24855782 26728228 28945849 31445045 34268361
1251.59 37395090 40859210 44676250 48728740 53042083 57671333
1254.48 62687052 68111613 73550413 78761126 83899293 88937714
1257.37 93673419 97858520 101365983 104049108 105795325 106679198
1260.26 106476436 105026336 102837751 100598930 98705288 97748891
1263.16 98876758 100482429 98779588 95299247 94241337 95758388
1266.05 98015125 99837505 100867152 101066352 100308749 98669104
1268.94 96362360 93656059 90574682 87077724 83398922 79629645
1271.84 75655578 71532047 67329481 62993632 58572687 54142107
1274.73 49805890 45759892 42017159 38417275 35004274 31871172
1277.62 28951735 26261058 23867545 21679941 19589266 17601509
1280.51 15825960 14312030 12968329 11790117 10716801 9693215
1283.41 8714287 7809028 7035481 6421502 5908143 5437496
1286.30 5080386 4793579 4568891 4444941 4319568 4226461
1289.19 4280334 4502974 4816983 5164760 5623611 6201988
1292.08 6749076 7370560 8181267 9098436 10025161 11008914
1294.98 12201955 13552346 14895114 16334552 17924937 19554351
1297.87 21316166 23146926 24798330 26343941 27922444 29518585
1300.76 31123958 32689094 34035460 35156555 36251147 37285723
1303.66 38120932 38906333 40301692 43623876 47735141 47222362
1306.55 41615328 37349710 36641176 37342892 38171655 38492267
1309.44 38212942 37969615 38220972 39043565 39844229 40003935
1312.33 40193100 40757122 41067027 40859692 40098270 38820438
1315.23 37214134 35287204 32975417 30433682 27841170 25328315
1318.12 22942555 20784077 18861043 17011530 15162208 13517113
1321.01 12259627 11212368 10255856 9454184 8792039 8156018
1323.90 7519351 7056419 6674710 6258274 5939988 5756749
1326.80 5644971 5481722 5290825 5243711 5389909 5575860
1329.69 5592346 5541494 5503385 5397735 5279201 5216678
1332.58 5129674 4978437 4931296 4980078 4960790 4835114
1335.48 4684089 4593757 4580858 4640881 4708933 4742971
1338.37 4718268 4631144 4593718 4646297 4686746 4694831
1341.26 4687570 4664904 4719073 4757794 4697151 4803064
1344.15 5024847 5099830 5224184 5352895 5187781 4891729
1347.05 4731349 4693590 4642744 4419317 4196647 4186852
1349.94 3982710 3505977 3260071 3451716 3844287 4127915
1352.83 4238441 4375506 4491549 4224081 3874407 3862203
1355.72 3749652 3227665 2687274 2489862 2367315 2140916
1358.62 1891131 1620543 1584980 1644521 1410138 1166292
1361.51 1235800 1371511 1448949 1510669 1348206 1154784
1364.40 1208565 1323982 1320321 1095772 853358 845033
1367.29 897616 777045 702323 838551 884533 749309
1370.19 749804 952159 974029 835896 763632 667019
1373.08 575247 649484 714943 659252 670324 743479
1375.97 664594 538142 554019 605164 625680 709251
1378.87 825209 873417 856915 815650 740715 681176
1381.76 767418 875023 830657 862549 1003995 965871
1384.65 855428 766069 517910 322490 249739 230646
1387.54 357637 535077 600796 655473 754109 720210
1390.44 667809 792653 813591 719313 613460 480753
1393.33 292602 128471 267590 568697 664588 654679
1396.22 706177 656169 454017 367025 396988 425492
1399.11 501607 620353 793827 862322 685571 654859
1402.01 850703 979072 1009115 1066785 971851 801264
1404.90 870801 1051817 1152163 1253222 1301882 1367593
1407.79 1419741 1374815 1399591 1561193 1634545 1642126
1410.69 1721340 1811528 1889879 2053054 2300744 2507102
1413.58 2528255 2622025 2843998 3064048 3284329 3590545
1416.47 3956455 4301236 4710055 5162718 5427669 5878292
1419.36 6926364 8124407 9008374 9781526 10674712 11753428
1422.26 12915746 14086088 15224930 16540465 17966766 19386249
1425.15 20833959 22396777 24067133 25920537 27934330 30111320
1428.04 32521169 35280718 38413642 41838849 44808623 46681858
1430.93 47803330 48976080 50165546 51234051 51990189 51920906
1433.83 50808887 49059784 46931182 45318829 46843529 60297892
1436.72 98957071 140543604 125162555 69635733 41303725 40738106
1439.61 45052838 48985005 51962194 53816708 54642926 54630806
1442.51 54109962 53032736 51386804 49316613 46857056 44103302
1445.40 41481128 39052953 36669850 34180952 31891957 29898683
1448.29 28008740 26071163 24105900 22183977 20474733 18876995
1451.18 17233669 15552346 14002464 12635921 11454059 10322627
1454.08 9059075 7745892 6771032 5819629 4511660 3668471
1456.97 3666199 3543096 3230077 2982558 2708139 2452495
1459.86 2353463 2305314 2151824 1977419 1791058 1576988
1462.75 1472232 1397533 1213949 937369 893711 1083096
1465.65 1275776 1382153 1368912 1297584 1299702 1344995
1468.54 1275519 1122642 1075631 1086570 1117566 975677
1471.43 696421 738698 868746 668947 617329 851444
1474.33 1015205 963720 775465 674524 827687 1044009
1477.22 1123766 1145187 1141409 1053582 1038808 1105676
1480.11 1181612 1201156 1232468 1218854 1129812 1116749
1483.00 1120377 1030444 979359 1091484 1224648 1157918
1485.90 1004862 840308 752163 880631 1030273 948826
1488.79 682834 469845 423226 513705 744734 830842
1491.68 716933 634481 576284 570080 617797 570496
1494.57 464452 178015-343209-390338 7042 148198
1497.47 52153-190433-287105-130584-67174-139556
1500.36-207729-258414-227411-158597-90667 6297
1503.25-3680-131640-418576-1062498-1408997-1201792
1506.15-1353338-1430194-872143-456540-404425-368650
1509.04-307693-220283-136926-151228-166915-204352
1511.93-245628-166964-69543-33404-59805-155851
1514.82-138581-86759-176854-310755-428869-343981
1517.72-112956-62529-107122-174979-288898-555671
1520.61-921103-807510-470556-414402-278648-107272
1523.50-73020-130382-349180-532393-412638-292756
1526.39-293974-202969-77477-146728-253640-196782
1529.29-142694-186345-197591-196661-245921-315968
1532.18-347195-391083-482468-448970-289459-247692
1535.07-205373-83086-17214-90066-226817-385870
1537.97-831499-1406179-1299056-1016885-875944-445934
1540.86-348409-698702-688448-321077-148166-78057
1543.75-1762-157161-345597-232541-39047 36464
1546.64 69222 123424 183323 166099 81990 50098
1549.54 40579 3219 21999 133025 178744 95966
1552.43 92795 96593-176782-397143-134847 122934
1555.32 126092 122550-11504-429711-862539-1294098
1558.21-1304432-869288-994584-1274877-780005-138752
1561.11 29366 30330 75692 126886 102239 29742
1564.00-47513-81307-14467 47824 85847 108332
1566.89 43163 2367 1979-79348-309665-446263
1569.79-200075 38774 27638-8619 983-51100
1572.68-168472-173358-90859-65798-259529-1000010
1575.57-1747798-1368059-537963-234247-206092-220917
1578.46-184291-156350-208502-251440-210582-143413
1581.36-131126-153385-179002-232710-268795-217241
1584.25-144577-142702-147853-163077-194722-152886
1587.14-77483-59297-83483-93061-164289-309393
1590.03-334591-283259-230236-194737-204802-205371
1592.93-196390-199613-200965-115100 55494 100112
1595.82 12916 1849 97862 153916 72368-36607
1598.71-26256 13621 13554 57155 124368 165914
1601.61 173015 107266 42711 61549 90926 175797
1604.50 314347 320902 255958 230817 231545 245784
1607.39 281669 300862 293607 275039 278273 288364
1610.28 261622 268384 291739 272280 211465 207876
1613.18 262569 262924 202786 135053 55016-351299
1616.07-927036-691238 11507 323035 325147 185893
1618.96 110991 149804 153186 59525-458 46792
1621.85 12107-233710-538278-552899-253210-36425
1624.75-5476-81703-200393-288033-326714-353307
1627.64-290852-209217-265148-371075-370571-289030
1630.53-240516-233246-244543-279490-273881-284716
1633.43-381897-518791-824061-1226327-1103353-553352
1636.32-314893-406868-478811-438059-363087-323395
1639.21-303108-241112-177743-214213-274864-287795
1642.10-280265-221202-137355-105785-118087-251017
1645.00-689693-992521-683104-462312-558017-525139
1647.89-419016-273864-148545-146571-181738-205854
1650.78-346262-901274-1721439-2185835-2159722-1592325
1653.67-1035575-743654-349609-161266-211627-236949
1656.57-190375-160868-177274-176732-175067-202668
1659.46-202299-186061-186091-237692-408750-664895
1662.35-704821-420083-170823-176787-267681-269295
1665.25-277371-302266-222807-164051-231994-327547
1668.14-535682-852573-801519-434562-342206-536883
1671.03-603304-427399-277298-250440-220868-205265
1673.92-372710-766342-951078-691221-406784-307043
1676.82-290551-250944-182839-204866-247603-273158
1679.71-314305-321634-296301-260489-283465-460179
1682.60-669805-734841-1016905-1674819-1652512-784643
1685.49-229663-111336-58993-9143-25351-58387
1688.39-37201-57551-183282-264120-196231-60036
1691.28 46283 53372-25673-128896-189703-185894
1694.17-288033-793198-1589945-1623241-797509-254513
1697.07-117147-53804-57324-288303-965158-1593756
1699.96-1518432-921912-323170-43135-50116-116776
1702.85-119844-226447-425998-431188-259887-286230
1705.74-429712-335010-188061-186096-201431-202234
1708.64-225176-216800-157689-115242-129735-151102
1711.53-99805-81261-153277-213088-261313-364909
1714.42-535333-543054-312754-281049-806751-1332763
1717.31-1032600-612075-526351-266616 16699 63995
1720.21 13698-59216-112665-69764-75955-157947
1723.10-154931-52036 37491 18459-103409-192021
1725.99-152531-102802-136840-143597-67515-27131
1728.89-113660-219540-155136-87930-114810-93090
1731.78-126487-497749-1035895-1159971-1181887-1134426
1734.67-619174-183668-105799-183475-269128-242778
1737.56-170552-202801-374277-692648-785455-499957
1740.46-291069-226638-207011-319608-456831-447136
1743.35-364578-300217-241979-260833-320833-352281
1746.24-395097-419204-429576-545088-646366-532527
1749.13-400199-426453-609271-901705-869113-568419
1752.03-448042-417183-362015-289847-269955-385333
1754.92-490158-546837-639790-617462-455966-395102
1757.81-415499-447958-475344-412675-315237-319299
1760.71-492217-700887-662891-495780-368784-258031
1763.60-196398-194917-177552-171405-229119-302866
1766.49-367493-461233-573490-515417-361938-325503
1769.38-239439-159517-283946-404179-442901-740343
1772.28-926302-590426-365884-376484-250622-132224
1775.17-145605-180943-173381-126938-64826-50715
1778.06-99164-114124-54470-22920-102731-135245
1780.95-81597-66390 2867 132665 213019 187597
1783.85 43893-124281-106238-366 13248 20238
1786.74 55944 49003-2118 1287 54254 48925
1789.63 33178-10930-77342-29454-82401-261498
1792.53-117741 158859 232740 251806 275654 243882
1795.42 203523 197629 231960 278810 294646 250478
1798.31 180243 115642 106401 189413 260608 221392
1801.20 145286 117699 113083 85492 97278 192171
1804.10 270693 295821 324763 315925 252258 187108
1806.99 128062 103536 105094 110701 151663 126960
1809.88 35602 2076-4976-662 39343 88125
1812.77 135615 130643 111875 138691 171420 165327
1815.67 146139 105415 37141 26634 99029 187148
1818.56 207626 214832 285787 352761 369557 327765
1821.45 278055 277371 366809 521625 590044 501218
1824.35 420476 614704 883957 818571 569814 363164
1827.24 218134 193600 186655 131871 78411 51060
1830.13 136361 211164 205808 250562 298194 263680
1833.02 203931 156550 166481 203287 187249 143568
1835.92 125671 68051-34547-72446-49772 1808
1838.81 44339 29708-5158-9626-26554-134798
1841.70-232746-303801-408950-597208-811436-693956
1844.59-361955-152484-92916-168022-243666-311525
1847.49-374547-363092-386256-423548-352398-295490
1850.38-319241-357501-412243-456838-408265-280840
1853.27-231040-314039-390846-381152-354860-368837
1856.17-359231-344808-379885-386741-374844-388272
1859.06-348686-312396-405312-522884-504632-415069
1861.95-380554-395612-396808-429967-508082-594486
1864.84-620099-537179-462258-413404-396314-445749
1867.74-450266-466850-551641-466170-313113-355105
1870.63-450962-468242-412336-367501-364661-306153
1873.52-243156-290351-362882-327824-298662-365765
1876.41-354447-323353-339022-336295-340124-323608
1879.31-278979-235297-213747-271755-371351-434821
1882.20-501720-520385-404375-327723-380234-413171
1885.09-384165-381518-409415-370983-335058-390120
1887.99-418099-392654-383750-375857-330632-261569
1890.88-225807-224468-215372-233740-300581-331055
1893.77-362889-463441-498215-441301-398492-381856
1896.66-342932-267766-240042-318430-393138-377994
1899.56-291234-241530-305814-359872-331256-327600
1902.45-376918-421727-446341-437211-402330-377836
1905.34-324024-280035-322350-417344-468453-412024
1908.23-328968-321024-381418-443659-484262-435067
1911.13-323378-337872-428543-395571-274216-244700
1914.02-296754-325530-327320-314131-312162-348959
1916.91-400526-469962-414585-271952-260337-287017
1919.81-298275-334305-344794-347469-386507-410472
1922.70-314019-216855-226769-277406-321860-298428
1925.59-252222-258968-290325-292518-276076-243977
1928.48-191506-203581-248245-209884-124655-112402
1931.38-154194-143857-115484-143920-165475-145560
1934.27-166768-168214-131631-119887-83782-50041
1937.16-66665-71370-33785-60778-118387-143457
1940.05-183447-170856-119364-105872-66718 1542
1942.95-46106-171357-191611-125105-85714-63759
1945.84-78603-70047-8611-28381-133750-205222
1948.73-209517-226236-224654-152479-71571-66797
1951.63-112716-167378-307292-409017-365624-275514
1954.52-224319-246438-271046-196453-106063-158356
1957.41-259429-281650-215562-111531-80893-139651
1960.30-204591-221201-184657-171576-252682-381420
1963.20-397416-324050-291066-291493-301598-314206
1966.09-306023-253609-214186-197217-163173-118852
1968.98-90784-96124-112663-120132-115179-63848
1971.87 26504 73182 41042-20038-42484 39264
1974.77 177697 211032 125328 124440 225037 288379
1977.66 324952 342299 319554 287336 285257 338475
1980.55 394021 379296 381985 406713 377835 332148
1983.45 305417 336600 377851 393240 427902 445370
1986.34 419912 400298 389591 347052 334853 414255
1989.23 500280 497249 405831 317919 303417 299554
1992.12 236781 165653 159480 200446 235561 200729
1995.02 128488 120116 145354 123242 115392 86036
1997.91 3415-4425 60650 95159 100545 113840
2000.80 92509 50581 43983 56370 31206-4526
2003.69 3876 15537 3574-13419 21789 63658
2006.59 26500-28305-699 81473 59646-3993
2009.48 20760 17611-26145-7288 44419 53449
2012.37 12324-59013-100550-90973-71090-69425
2015.27-64447-27168-39654-139066-249424-263483
2018.16-182892-111840-85808-128351-164879-174152
2021.05-295008-389331-309241-203534-117261-33316
2023.94-20861-76083-126436-124649-134733-178223
2026.84-202431-234906-267032-230813-191527-183419
2029.73-149885-110519-113807-97852-31354-23846
2032.62-92862-118992-140220-207336-215940-115735
2035.51 7774 66214 45541 7722 319 12984
2038.41 17226 28463 33673 15255 23313 53236
2041.30 41954 3422 13689 91456 160227 169896
2044.19 189982 261346 274820 235470 259650 263642
2047.09 214837 175039 183196 238800 238248 140827
2049.98 129004 231518 245546 203420 182520 136051
2052.87 94794 70824 96599 157071 171482 165077
2055.76 124901 84514 134450 200947 145872 81926
2058.66 53592-65072-136327-86686-79781-102329
2061.55-57652 28028 27759-70788-166998-250800
2064.44-288740-277602-216431-163615-192834-230855
2067.33-188829-157549-159721-92429-58670-119467
2070.23-168073-175344-127940-82767-138642-215939
2073.12-177128-84000-25787-9491-16253 4065
2076.01 4846-127616-288716-253050-67263 62464
2078.91 115819 110054 56116-38546-173573-285534
2081.80-264119-145936 17855 147396 114315 98428
2084.69 142430 48331-124612-98952 68175 167098
2087.58 218815 226621 278012 387133 352553 135783
2090.48 113137 380138 590496 589513 559739 564411
2093.37 506941 240613 37022 268889 556104 650369
2096.26 690172 760183 895180 888292 548891 313577
2099.15 521777 713949 721072 746444 803235 759806
2102.05 539522 180083 141822 430452 540055 560336
2104.94 671281 766888 737563 490586 222126 374439
2107.83 709619 810557 729911 661065 663644 568374
2110.73 197843 54566 397505 665619 755421 726640
2113.62 562997 383098 54430-274101-102624 190628
2116.51 285339 319781 286365 233173 41867-354872
2119.40-435434-128217 73366 114279 129293 165345
2122.30 34567-394466-658357-429444-159926-71214
2125.19-9972 42235-19265-289884-542471-363243
2128.08-14863 114386 68536-59668-149434-287528
2130.97-518665-490222-288930-176992-116847-115981
2133.87-174215-256558-336512-269367-119915-65845
2136.76-19451 9783-80173-245976-368389-407364
2139.65-356918-272172-177892-88912-113845-155526
2142.55-148375-166083-116697-21532 34395-11914
2145.44-88922-165243-340646-398469-274137-204349
2148.33-184186-123462-53453-197372-472114-487356
2151.22-304881-151064-74132-61127-134879-434071
2154.12-663602-486402-256071-206486-194028-197620
2157.01-342239-692355-776822-408734-111719-50080
2159.90-81985-156455-449818-869768-757431-312654
2162.79-124403-109382-111193-308945-806041-956675
2165.69-517368-203644-177767-116048-91326-424290
2168.58-891582-756229-345068-183614-38388 36544
2171.47-211041-677942-704187-221135 23350-66104
2174.37-82760-88384-421290-625643-272361 31189
2177.26 132773 209810 104433-336052-752101-497220
2180.15-3241 154728 159262 167339-13400-392063
2183.04-384621-47953 138506 226823 239706 23086
2185.94-351552-336384 65759 284329 266576 195293
2188.83 23784-206880-58426 327701 465828 441096
2191.72 369220 186109 11996 109461 344516 497850
2194.61 555330 503167 340545 199768 308758 530722
2197.51 660250 648784 513600 300991 193309 314928
2200.40 480999 568863 569015 448276 223636 131284
2203.29 289261 461286 562343 567861 449291 358540
2206.19 449329 538444 512110 471715 398286 274417
2209.08 130644 65627 124043 222669 249104 179723
2211.97 116504 149071 226636 228288 161283 75052
2214.86 22885 51501 128375 163483 45847-50191
2217.76-26777-62059-134093-152228-77121-21236
2220.65-86600-145548-126266-77753-26556-47045
2223.54-94087-83253-48094-32124-113595-197626
2226.43-168064-133485-77540 33119 36732-63781
2229.33-86949-63777-26513 27022 9652-30418
2232.22-40285-74276-178302-223803-78793 26956
2235.11-35374-89642-113568-133369-53938 47094
2238.01-20026-123182-72127-1654 6629-35197
2240.90-93128-79095-24030 32216 88901 62470
2243.79-29189-16594 73493 103656 59869 5389
2246.68 61145 184245 217388 111442 2065 21317
2249.58 97546 89923 33685 64239 153083 228979
2252.47 187404 90612 76586 81129 111678 159988
2255.36 178275 144664 104791 97123 100089 104209
2258.25 102465 24682-33886 16179 22915-11111
2261.15 58498 97243 23357-45220-63942-61965
2264.04-47897 7135 76164 70334 38440 64017
2266.93 69891 24458 9550 7244-13991-80771
2269.83-166636-133000-7147 28657-5783-52160
2272.72-133549-172290-149660-165835-149460-66265
2275.61-29417-37217-67808-49219 32804 2514
2278.50-62623-23636-46071-151991-169192-167983
2281.40-198361-152746-79354-66007-114522-183687
2284.29-202314-199644-205162-202328-209498-266010
2287.18-301156-231314-104914-31373-73530-184041
2290.07-227354-178711-103258-61004-81405-167401
2292.97-254008-255623-206526-228046-296736-288622
2295.86-247121-308780-403818-415830-323603-232844
2298.75-249664-316008-283937-170120-87641-56277
2301.65-123541-221028-209486-216023-313021-370566
2304.54-244129-133109-227523-440689-540531-422432
2307.43-254669-261832-436595-487790-456006-596872
2310.32-737194-606757-368691-333219-528089-650840
2313.22-497501-497134-833826-1096552-804816-472884
2316.11-736702-1206164-1051674-673578-888511-1392896
2319.00-1220133-668407-895922-1620575-1488173-834892
2321.89-1103839-1964268-1782060-970300-1252976-2183502
2324.79-1904444-999430-1530916-2655420-2127589-1073993
2327.68-1785633-2865954-2070006-1142825-2249448-3251431
2330.57-2164380-1539670-2890009-3234722-1745264-1672089
2333.47-3133406-2857642-1515348-2259547-3540188-2565060
2336.36-1657186-2831090-3190298-1769826-1798766-3034504
2339.25-2439221-1404392-2248503-2699184-1560228-1454020
2342.14-2251882-1704231-1063300-1652463-1664600-873215
2345.04-912206-1101706-486609-128603-289233-140975
2347.93 196313 355979 328438 280628 426787 346451
2350.82-27256 81670 184941-391668-426192-202913
2353.71-840002-777775-330781-1062205-1011459-437582
2356.61-1247101-1189157-622415-1491777-1279645-759679
2359.50-1580075-1074042-711106-1427792-785153-800659
2362.39-1139666-239474-501747-607037-218028-715904
2365.29-247010-109396-437091 69585-112861-31491
2368.18 207238 81805 408517 345554 401052 494219
2371.07 447572 640658 565899 555914 437795 386769
2373.96 444259 468633 618342 730430 797304 708441
2376.86 651728 691050 758860 727830 620056 603673
2379.75 655433 622641 527955 527966 557666 487952
2382.64 470613 565698 623682 606302 604666 594369
2385.53 540638 483854 418846 365207 415594 538120
2388.43 584821 544258 533168 565125 601502 627918
2391.32 679041 780847 843476 838972 834844 825835
2394.21 825756 912305 991806 983472 1008417 1040973
2397.11 1031415 1037962 1056921 1131045 1241184 1289554
2400.00 1277975 1276841 1287695 1307593 1374510 1447606
2402.89 1472375 1477887 1563614 1837893 2221394 2449045
2405.78 2395513 2145834 1845145 1584871 1416036 1320100
2408.68 1192116 1105536 1105562 1060055 1049211 1094448
2411.57 1097230 1113150 1140075 1132759 1134880 1123810
2414.46 1057860 1004474 979492 952354 834009 606640
2417.35 429741 457445 632516 762584 819788 842052
2420.25 815386 720272 601291 536725 467044 410084
2423.14 425924 413766 312751 238274 261496 264024
2426.03 208594 196354 199986 190900 146968 54339
2428.93 61837 131462 95463 29399 29284 40834
2431.82 75297 125788 96088 22600 5192-2833
2434.71-42369-4595 137497 224617 185890 190380
2437.60 263170 318924 268948 203917 332545 467991
2440.50 442162 395517 428873 479369 503304 549156
2443.39 553517 518033 504889 534750 653840 767314
2446.28 824716 910056 1048663 1150561 1125743 1116034
2449.17 1219935 1290826 1311415 1383855 1516467 1630476
2452.07 1695680 1750734 1779911 1811879 1892256 1950061
2454.96 2022813 2132601 2183239 2217830 2310465 2362360
2457.85 2406793 2558993 2629877 2578216 2544416 2538209
2460.75 2581960 2617260 2517999 2430836 2461238 2417276
2463.64 2308205 2298232 2308797 2309899 2396473 2397960
2466.53 2272931 2139104 2038880 1928789 1796936 1746082
2469.42 1751621 1760181 1786037 1719029 1625980 1574433
2472.32 1448514 1375942 1439997 1464251 1420573 1387690
2475.21 1342257 1291028 1288110 1277098 1169110 1085879
2478.10 1089004 1089436 1079521 1018224 942987 941703
2480.99 962804 964492 961854 978499 1020319 1029027
2483.89 966077 887656 876351 959152 1032131 955737
2486.78 788563 761795 884489 996633 1023951 999958
2489.67 1000722 1001939 940544 852633 829506 862460
2492.57 822454 720550 707917 798522 874900 847719
2495.46 802955 814174 835306 793981 715819 728921
2498.35 761159 719795 682678 708853 768677 797866
2501.24 849277 866192 799881 852097 928969 866591
2504.14 885680 993976 997238 979331 956939 949334
2507.03 1075369 1169264 1172877 1210895 1283333 1302038
2509.92 1282309 1309162 1356573 1421371 1493501 1565108
2512.81 1638575 1634983 1604020 1626732 1660080 1594445
2515.71 1452952 1378156 1339233 1264975 1207834 1194615
2518.60 1216413 1273681 1325870 1311000 1268706 1295282
2521.49 1352403 1319105 1275098 1324450 1337333 1221457
2524.39 1054613 979186 908668 843352 845086 786988
2527.28 686464 603279 518621 443550 408203 428375
2530.17 473488 376854 154086 61192 72176 4656
2533.06-66222-82343-25868 37444-4089-57919
2535.96-125842-263914-291487-156234-102781-189900
2538.85-244496-271517-289933-226327-128806-144506
2541.74-186383-136664-105163-52564 8939-65531
2544.63-230899-307991-255217-164181-187267-192798
2547.53-83734-35710-74070-70664-9913-41070
2550.42-76625 31407 169008 200003 87272-58459
2553.31-106781-122212-165633-90660 18205 4221
2556.21-22317 12115 137048 308026 386418 355513
2559.10 369280 426289 437883 436671 442412 447639
2561.99 419272 357137 420479 589211 627808 589008
2564.88 638279 631699 491526 390588 446762 510668
2567.78 432610 384688 470197 567778 630152 653370
2570.67 614469 572682 576222 543358 414898 294916
2573.56 319585 408461 429589 435797 441071 429803
2576.45 407597 355818 323252 308795 298451 351545
2579.35 397212 368916 317001 252839 243138 261517
2582.24 197168 129552 139624 169838 195607 186894
2585.13 191788 253769 309510 393418 409294 318037
2588.03 321566 376817 313456 231517 278349 329863
2590.92 293448 302954 370537 421920 415264 355956
2593.81 369943 406451 385215 422360 437033 391141
2596.70 418813 522223 608683 621115 561835 453734
2599.60 330981 311427 407037 443325 446767 505700
2602.49 529055 481469 466153 450923 408676 350205
2605.38 231255 196736 231322 197387 164376 142757
2608.27 184973 293028 313342 245218 210904 247465
2611.17 234305 183352 179978 203745 219798 208985
2614.06 244393 266438 154391 31088-12061-15263
2616.95 61132 113436-1810-31474 42822 15671
2619.85-32937-92542-200064-193166-137968-153507
2622.74-101591-84618-184460-201924-172107-183245
2625.63-145941-43308 28914-4925-117780-215168
2628.52-221827-229643-245479-172244-59650 16308
2631.42 4426-88109-176995-191834-135848-70419
2634.31-94802-123045-80760-77548-97392-33621
2637.20 76665 30095-117267-100802 64906 196568
2640.09 202453 106656 60962 76207-253-76021
2642.99-21365 83016 138461 149577 144242 135383
2645.88 57994-74824-115473-45379 24047 51529
2648.77 168930 275325 200459 64019-48182-141632
2651.67-141494-111300-73562 21191 120908 175814
2654.56 130415 33241-52871-138986-124007-10188
2657.45 5765-95118-193927-188863-98779-10038
2660.34 52788 104879 66021-60996-125776-142543
2663.24-137095-131088-113019-69670-41568 16275
2666.13 24869-48963-70979-20953-53280-188837
2669.02-236819-150285-27847 17125 2947 21604
2671.91 28197 6068-14048-28755 4656 45937
2674.81 59818 109235 168599 140696 49011 5866
2677.70 48065 113141 59954-66990-55647 87265
2680.59 155801 70664 2378 21555 58504 74266
2683.49 7666-71255-44421 12467-5725-31141
2686.38 36478 156476 264007 337560 334127 319747
2689.27 382281 486800 614998 687691 643083 654522
2692.16 780534 874291 862567 828503 830840 873785
2695.06 965277 994033 967703 964165 928514 925970
2697.95 972980 988895 1014750 1042441 998427 872476
2700.84 821146 929300 1000740 958513 962624 1058727
2703.73 1168211 1189155 1100213 992443 928200 886119
2706.63 903749 990139 1050137 975831 788174 558109
2709.52 404494 423225 466264 401872 292352 246474
2712.41 237716 201030 157661 115697 72329-375
2715.31-31022 10597-31452-133619-132302-17311
2718.20 46314 88133 138745 74647-109993-226247
2721.09-177434-85810-51189-19629 33145 55912
2723.98 49792 123767 234108 270694 290558 308077
2726.88 237757 135428 116146 157947 193010 253889
2729.77 306677 249620 167739 147210 247268 461707
2732.66 647714 727071 772021 806343 700261 584225
2735.55 648653 692839 686284 819458 995891 1083132
2738.45 1004368 815566 753580 875505 971122 961822
2741.34 986531 998252 870137 761524 741927 708328
2744.23 696800 662470 633620 779851 944975 898674
2747.13 697314 528783 527685 722539 889809 834702
2750.02 717314 673920 598323 468901 353357 329173
2752.91 392858 391736 353935 276215 142536 66532
2755.80 28199-29005-43446-20963-7460 5497
2758.70 53935 74429 42007 75155 62840-79531
2761.59-156403-93456-14088 23587 14866-35570
2764.48-5366 39859-24789-91930-68243-55630
2767.37-111312-101335-20112 13106-56240-113076
2770.27-80240-95587-198274-265097-226591-91332
2773.16 60319 111115 46060-67228-86607-282
2776.05-8443-87460-67059 29302 102592 136041
2778.95 215039 183860 22376-5161 49467 15771
2781.84-32240 7446 62717 56212 43210 13113
2784.73-4643 83080 91019-20625-25241 30506
2787.62-33568-126286 60563 340680 285170 111810
2790.52 18026-93341-117139 8045 135637 141961
2793.41 115210 177713 247940 259869 189784 54529
2796.30-18393 10226-34320-76118 8821 4391
2799.19-55014 14725 123494 256395 371800 260533
2802.09 82803 10245-73866-121794 12093 167941
2804.98 170596 82323-40595-100951-119100-24817
2807.87 56120 18877 41671 150910 162693 55173
2810.77 15175 37623 99368 204306 219672 121207
2813.66 46912 48166 116113 228463 250914 215884
2816.55 115490-61941-46902 171186 346805 401949
2819.44 298493 87108 4442 94130 140870 188956
2822.34 278452 172277 36887 77515 132397 102196
2825.23 17085 19776 171549 256990 284689 434027
2828.12 530336 541854 529047 460665 409661 370241
2831.01 351674 381776 447324 421844 274754 180712
2833.91 217247 275208 290362 284856 349138 501689
2836.80 678231 785047 812389 826573 813987 757667
2839.69 685199 740616 862358 887668 984777 1241271
2842.59 1381972 1358621 1392854 1557467 1776260 1964704
2845.48 2104045 2247849 2517299 2836972 3229523 3652569
2848.37 3983115 4344684 4799575 5262819 5692567 6100160
2851.26 6549631 6975830 7174012 7172360 7105001 6913425
2854.16 6641479 6351523 6059003 5907194 6026905 6806159
2857.05 8198319 9069944 8436756 6774125 5487416 5122626
2859.94 5316864 5801669 6322828 6759330 7078887 7046550
2862.83 6823827 6727759 6642131 6341059 5840823 5324848
2865.73 4886165 4455652 4017889 3626492 3305104 3113342
2868.62 2924556 2584215 2330449 2282673 2119508 1802649
2871.51 1584950 1473506 1400348 1343397 1184966 890254
2874.41 603066 487838 719684 1340448 1762216 1643417
2877.30 1386202 1297783 1337502 1359556 1256750 1175648
2880.19 1247543 1294890 1219811 1143188 1102223 1119586
2883.08 1198425 1244445 1211037 1151524 1140632 1213614
2885.98 1308721 1307134 1200991 1130284 1224077 1378029
2888.87 1205166 981471 1148691 1281289 1189708 1149191
2891.76 1138897 1084908 1117910 1211541 1251610 1314719
2894.65 1432486 1456381 1298872 1139243 1115175 1151874
2897.55 1139637 1112328 1186515 1307905 1414619 1489532
2900.44 1427490 1319391 1309429 1350772 1446420 1511106
2903.33 1378687 1213500 1127557 1094652 1118394 1100735
2906.23 1112233 1227994 1327298 1340910 1318616 1303877
2909.12 1340339 1341658 1315273 1347155 1331288 1378516
2912.01 1480593 1410622 1322130 1389661 1396633 1303216
2914.90 1272322 1215745 1215283 1425916 1641665 1705728
2917.80 1672095 1524498 1443685 1530219 1654383 1721110
2920.69 1637666 1554844 1623817 1767680 1786524 1685695
2923.58 1803660 2052455 2058987 1980325 1921695 1876854
2926.47 2027773 2156749 2026409 1976614 2028697 2049182
2929.37 2084328 2089628 2075560 2052570 2017582 2011560
2932.26 2047358 2115684 2170520 2131260 2057151 2100509
2935.15 2154811 2055969 2029363 2189392 2285277 2334878
2938.05 2387718 2400578 2428423 2382331 2233485 2140426
2940.94 2062672 2032854 2178993 2376305 2449818 2414490
2943.83 2380918 2391949 2460635 2677071 2990081 3226267
2946.72 3235613 3087131 3054113 3184340 3431623 3665217
2949.62 3761897 3857399 4024219 4228868 4426193 4610236
2952.51 4754076 4890255 5053083 5178817 5266140 5466841
2955.40 5793732 6123360 6451725 6776825 7053170 7371948
2958.29 7931470 8757351 9742560 10913956 12459643 14288138
2961.19 16095954 17785327 19114379 19972232 20764173 22284458
2964.08 24732177 27628210 30695780 33975822 37472025 41052431
2966.97 44282547 46944385 49158882 50803997 51486450 51266037
2969.87 50277218 48465434 45802694 42647747 39970819 40440927
2972.76 50241010 67282117 71516539 58868964 47794101 44154017
2975.65 43334097 43955026 46009080 48662844 51113427 52870201
2978.54 53732496 53661221 52642943 50829086 48446115 45518399
2981.44 42187357 38688398 35268196 32098332 29110579 26506897
2984.33 24659004 23421068 21975078 19650966 16940810 14751156
2987.22 13200357 11943444 10966948 10197539 9552728 9019562
2990.11 8618256 8292512 7951525 7652272 7414024 7197676
2993.01 7020335 6818209 6632084 6624670 6763648 6921821
2995.90 7170517 7640981 8142132 8609618 9162770 9759258
2998.79 10454516 11119498 11580075 11837869 11946387 11921023
3001.69 11784737 11490090 10839275 9913455 8983685 8176244
3004.58 7975655 9638055 12964426 14576384 12867135 10316013
3007.47 8957597 8744535 9097133 9685715 10406327 11051834
3010.36 11508011 11867236 11925149 11640633 11309239 10944457
3013.26 10496384 9980293 9473309 9011727 8543153 8132003
3016.15 7833635 7580205 7337571 7142120 6979193 6871878
3019.04 6937652 7108130 7168536 7089691 6897021 6491246
3021.93 5986927 5486023 4963315 4689102 5132782 5978000
3024.83 6161195 5384713 4658641 4697395 5033051 5291180
3027.72 5632411 6044949 6357828 6466310 6308138 5969480
3030.61 5678305 5512195 5292074 4906594 4506803 4133914
3033.51 3692135 3188433 2949133 2936705 2711959 2398549
3036.40 2204002 1964194 1818688 1726123 1461936 1282034
3039.29 1318630 1317742 1183562 1022448 936477 967083
3042.18 939833 753352 650499 636532 680066 739760
3045.08 629911 442058 376837 466024 601427 676891
3047.97 657080 546859 463138 449535 535415 606003
3050.86 522642 383198 451456 611823 510740 325612
3053.75 304097 353299 416204 421019 319235 236871
3056.65 248989 237124 183349 183113 148700 117918
3059.54 183160 264599 317845 316646 228721 188556
3062.43 316865 453747 421403 305944 241053 163507
3065.33 62278 53110 141972 264216 418868 499843
3068.22 432189 454036 469828 276608 89467 41733
3071.11 55513 174750 345939 336287 202496 283896
3074.00 444967 363492 212506 174003 253147 279736
3076.90 250376 274658 242608 180189 224016 360831
3079.79 503363 530629 485125 546297 643327 593588
3082.68 481823 402805 406244 450608 394605 240066
3085.57 225265 327005 443635 485723 277551 168871
3088.47 407830 472496 171356 21225 134826 224257
3091.36 149832 40731 52337 138335 147300 133402
3094.25 209547 192869 70010 67229 166649 182556
3097.15 180024 183832 3622-193082-91923 95530
3100.04 85761-60438-140789-103521-57264-27343
3102.93 23327 109257 93682 42645 117408 220323
3105.82 280836 207265 33745-76026-16225 151535
3108.72 179193 84708 83224 156078 249872 316317
3111.61 257296 93275 56112 204739 252003 152466
3114.50 79404 127161 349030 426540 245276 85629
3117.39 74967 25753-42763-8007 67262 206771
3120.29 265854 109527-104135-113498 13053 29207
3123.18 24272 40156-5369 74822 187982 118753
3126.07 30264-9102-68130-113872-124970-10035
3128.97 93706 57173-44184-137987-171668-94829
3131.86 116922 322739 312389 236771 283768 307583
3134.75 193704-53-28265 155189 236532 19995
3137.64-145399-35518 84904 146561 305768 397237
3140.54 277979 215669 317475 349685 211475 85451
3143.43 61810 113931 214133 393379 511081 299536
3146.32-51317-160361-79685-73075 29178 301470
3149.21 458978 392400 295085 299533 273301 249909
3152.11 319273 399165 418173 308588 116748 113524
3155.00 222599 230424 196712 190922 184113 134373
3157.89 177934 312206 321055 222357 173703 163922
3160.79 125961 68621 5647-33954 64681 97197
3163.68 77879 229012 224615-3770-6464 251619
3166.57 326349 95391-69007-47521 4296 83996
3169.46 180610 213964 106067-59095-27276 89999
3172.36 112963 101367 76229 67723 145690 217572
3175.25 170793 114642 54816-43971-80045 37849
3178.14 147959 139241 92251 63621 129547 172041
3181.03 113419 71989 59953 191911 374110 334318
3183.93 166390 61584-41212-86547 16626 148444
3186.82 177311 74118-35922-122894-184081-202432
3189.71-132282 131270 335652 333427 233743 119170
3192.61 144256 252016 255909 254098 315095 219565
3195.50 85233 176749 259876 157538 20222-71583
3198.39-124000-171890-30593 257546 315374 114145
3201.28-22652 16186 90273 225874 275362 98386
3204.18 3149 114233 220704 246377 187558 93745
3207.07 47100-32444-151231-140472-154659-333839
3209.96-392178-327452-189301 17889 157067 214694
3212.85 116070 8615 18008 5158-17254 60687
3215.75 204671 141850-83152-73463 23292-126758
3218.64-242914-158913-86168-53514-8664-42448
3221.53-97883-46470 17827 68736 89506 10111
3224.43-6000 68025-12255-84775 86494 298705
3227.32 317923 163462 34139 90164 71538-167618
3230.21-276258-120470 21021 72180 246850 357699
3233.10 295046 230243 28519-129663 52105 216532
3236.00 110112 2025 130247 307924 209498-33277
3238.89-115658-57367-75924-142008-35960 137704
3241.78 208740 223526 180033 82625 36587 55067
3244.67 113594 161386 130549 8343-88409-61258
3247.57 504 23135 87959 101587 13812-20945
3250.46 51227 151663 138291 61403 80751 103499
3253.35-59896-159705-83973-42762-5518 64013
3256.25 90786 79532 26432-145999-346600-363144
3259.14-235282-112203-41420 5472-234-54975
3262.03-45537-51868-109945-43305 90487 126790
3264.92 163776 152056 11084-101491-146803-163203
3267.82-181338-160303-21946 54835 26778 23517
3270.71-5900-39196 40681 95604 91764 13738
3273.60-118726-108193-4347-13803-159356-150316
3276.49 7816-97242-277358-220333-105645-41678
3279.39-20682-128048-223650-198421-165685-54343
3282.28 98131-79466-388418-315874-45409 43931
3285.17-5061-41308 34824 73725-25619-15226
3288.07 27487-13325 56606 262321 237900 2842
3290.96 3260 110257-24085-204164-139660-10688
3293.85-34073-156367-235244-89035 169042 246208
3296.74 96191-63707-25384 79786 117624 215438
3299.64 275110 145163-31902-66641-28857-66721
3302.53-175242-254226-302466-191121 105501 245185
3305.42 82844-146105-98971 88280 54405-72772
3308.31-43979 139736 218998 137046 42442-10817
3311.21 4760 66946-8317-95036 8871 123818
3314.10 155359 152234-21644-185930-134202-41689
3316.99-30568-103220-108284-12638 115406 185989
3319.89 142682 38871-34338-38614-43349-61935
3322.78-22608-58480-237373-284640-105819 47350
3325.67 107743 48779-17336 109559 66815-223144
3328.56-297580-213405-180519-27733 204692 166061
3331.46-9633-49963 54181 35271-172238-226744
3334.35-22575 286197 452935 366499 135272-97477
3337.24-173256-138963-37832 89728 3453-87084
3340.13 37814 31056-181710-332089-252221-87756
3343.03 37895 79363 26785 108187 255615 209977
3345.92 11159-25233 155672 261692 181376 109604
3348.81 107459 874-203389-209453 87868 306827
3351.71 295184 156913 105804 162025 101958 85634
3354.60 140725 145465 121040 52845 745 74443
3357.49 198415 235106 178850 205121 206374 82586
3360.38 35557 84367 105280 137014 328058 360455
3363.28 99932-69888-120071-154719-106261-79230
3366.17-58282-460 43622 83541 143392 139168
3369.06 128457 209949 218064 97044-40445-175650
3371.95-163396 17052 134372 162393 153685 123388
3374.85 34363 2807 24881 62227 61145-70242
3377.74-108863-54548-32346-73894-122411-135138
3380.63-106901 152694 398172 322683 133243 12372
3383.53-5496 80440 84559-29223-61738 37441
3386.42 114480 92437 159130 358220 439022 390623
3389.31 399142 366810 279387 265517 279276 250553
3392.20 281806 338922 261971 180380 225334 253464
3395.10 252688 293584 342143 293078 137077-47892
3397.99-122573 113112 377221 451033 453568 268822
3400.88 160366 251177 136321 11385 208459 479113
3403.77 568140 438468 341660 407921 318342 41038
3406.67-35504 117700 268360 354358 325788 334816
3409.56 345651 299957 356839 266110-33842-59995
3412.45 263561 512945 407818 188918 296847 409267
3415.35 271486 399961 735350 722787 579453 543625
3418.24 470726 486323 446338 373888 366764 237258
3421.13 54339 1156 1399-29586 19925 93215
3424.02 24771 16201 177141 379160 487133 249438
3426.92 1410-24038-161248-389170-317899-49645
3429.81 112032 123282-120032-417925-423295-241011
3432.70-76057 9013 96010 87253-70123-151499
3435.59-181045-145180-13762 44290 100543 132520
3438.49-26471-157022-180837-221256-295411-416363
3441.38-418267-109767 270961 318206 53685-70608
3444.27 71248 44516-78385 44625 138376 59797
3447.17 28496-58200-254048-340102-311527-121409
3450.06 172849 291500 233468 114197 69881 172596
3452.95 231015 183023 87667-102320-288962-316133
3455.84-120695 66478 27720-58378-83150-131257
3458.74-184164-129023-45346 47125 114894-4958
3461.63-210021-158724-69884-175374-186377-97298
3464.52-84483-161279-264185-275466-159170 2544
3467.41 91303 67341-22316 50478 180830 54117
3470.31-229440-356758-262164-154281-225526-395649
3473.20-394647-290938-211564-109922-11871-59552
3476.09-206333-178615-105168-86037-31852 1956
3478.99 16611 9103-5840 5484 30069 17084
3481.88-122436-239749-216412-272417-375085-302793
3484.77-154610-31961-43808-123177-150810-165863
3487.66-59803 52077 51059-13269-86287-117199
3490.56-132596-118900-122835-174455-261275-391680
3493.45-383215-145357 85301 8902-131834-149448
3496.34-76668 31688 1787-57511-85945-201882
3499.23-284638-202533-123839-124141-127389-135830
3502.13-118484-143220-263233-360059-420881-360327
3505.02-206355-123891-15643 8257-103302-119605
3507.91-137580-195091-175018-200029-214708-163682
3510.81-96276-121769-303886-354872-280297-245094
3513.70-180116-223246-292330-232389-169455-51058
3516.59 74692 58180-10487 2622-35264-206868
3519.48-302629-182919 19095 26682-61302-109789
3522.38-184502-176612-128633-110608-108252-232883
3525.27-329554-247204-166526-170769-196936-202585
3528.16-141911-96259-155344-209646-270223-264878
3531.05-264929-346899-235281-6742 20237 6538
3533.95 98237 86364-23898-183465-321492-359759
3536.84-376926-259907-118483-272150-389982-140617
3539.73 140831 149513-9827 9392 143356-2602
3542.63-301437-404673-310755-236659-256558-225727
3545.52-182669-210124-190349-42662 39002-15890
3548.41-108555-215791-332773-404180-283845-185011
3551.30-227109-77904 59711-63608-110489-67665
3554.20-130677-326216-490493-360572-166550-108261
3557.09-77836-83174-116276-104466-87367-135903
3559.98-118326-94629-109396-39613 3596-63381
3562.87-73042-50689-78492-40427-4524-56263
3565.77-111216-118274-208418-444452-566093-418526
3568.66-307626-315469-243913-106781 16870 101905
3571.55 148016-5900-271711-250998-37544 18308
3574.45-80797-157923-204022-251618-265092-212421
3577.34-141360-83464-3636-8591-63198-10105
3580.23-83529-222021-68413 130373 60293-54874
3583.12-10602-17675-159738-286073-318562-290382
3586.02-346396-364471-297516-307325-408330-460763
3588.91-329066-196394-217807-249440-162590-54121
3591.80-56147-182174-227479-120759-11828-22428
3594.69-278253-418592-300466-234322-177936-140005
3597.59-144219-132620-123167-180703-241177-274186
3600.48-344736-385794-274926-156268-179959-209483
3603.37-243555-290337-295982-276101-251128-255633
3606.27-324255-289023-171195-208625-445392-831997
3609.16-882721-469928-134661-78759-146193-265891
3612.05-325590-213561-179155-200732-106392-153422
3614.94-375267-468695-385010-281998-301747-282927
3617.84-114929-118316-467032-672700-571094-551233
3620.73-456095-209520-90302-71040-90446-90472
3623.62 20722 91042-6947-195689-250160-43990
3626.51 58203-185885-592158-808706-713318-695447
3629.41-502942-113282-30274-65879 65492 235058
3632.30 145134-154768-312687-156138 70762 64720
3635.19-147685-233200-58770 87388 152416 198040
3638.09 117408-26496-83675-28651 80611 135978
3640.98 67701-3071 40780 120015 241350 356038
3643.87 262219 119063 197285 274379 184939-38592
3646.76-242871-188094-81341-296177-468869-205546
3649.66-76663-234688-287648-151219 10422 51848
3652.55 29576 75733 166466 148632 67317 12191
3655.44-89586-57190 207635 347420 344774 308567
3658.33 201824 127783 181218 223407 156729 123069
3661.23 189474 274884 281006 197744 195442 263337
3664.12 252054 243784 309723 265995 139914 105837
3667.01 124987 180573 103545 4983 26132-208020
3669.91-665069-740068-327978-125693-212914-208246
3672.80-26683 92944-39789-372552-619449-737966
3675.69-600618-220260 54686 271233 341306 263894
3678.58 190089 106407 146358 304589 292282 172708
3681.48 133778 124695 190344 233100 141379 32780
3684.37 24103 41434 75703 149568 188398 124824
3687.26-234403-839625-745499 63491 432222 256857
3690.15-53400-313695-264648-124342-9553 210789
3693.05 272220 169825 74421 46525 125467 155088
3695.94 108129 147499 278784 404406 483667 403255
3698.83 281237 309244 422398 435692 187092-38434
3701.73 54509 153146 90637 164091 288427 238861
3704.62 198198 237805 231715 174380 68266 8506
3707.51 130799 196465 15750-65199 63173 173179
3710.40 197314-73967-662198-766123-239818 147568
3713.30 259788 217309 107258-801-51140 28361
3716.19 109420 52688 39553 77296-60230-146060
3719.08-59297 8570 52827 2838-114378-162858
3721.97-82217-10419-97770-162601-83146-64739
3724.87-112764-206197-399997-425217-234047-143387
3727.76-64174 72519 60858-140797-244352-213346
3730.65-237421-402183-614739-576578-338571-194343
3733.55-280517-529187-594429-440807-490096-842518
3736.44-896779-520391-272314-250557-304105-373110
3739.33-298597-45491 186147 365844 443557 327463
3742.22 168210-111021-655916-1382159-1694306-1055577
3745.12-85293 399356 424539 262351-10877-112869
3748.01-136776-604348-909229-383778 181447 318983
3750.90 107930-542271-855745-356903 83411 275737
3753.79 540326 667360 584940 422897 274396 291341
3756.69 472226 575488 672351 803111 682633 512094
3759.58 532098 636962 769528 888424 922870 872966
3762.47 839570 887514 942112 1003312 1089674 1011890
3765.37 975585 1092721 997882 851712 852266 867836
3768.26 847853 741712 593223 616264 754225 849353
3771.15 894943 883035 824623 723136 645745 661562
3774.04 695895 689451 544067 403415 439607 472998
3776.94 491156 472603 301478 145263 154860 217555
3779.83 168126 145998 205631 234373 241414 234031
3782.72 258309 247558 109242 67969 182597 215707
3785.61 237739 318192 364959 363769 415865 464334
3788.51 327583 202119 265002 363983 383407 354239
3791.40 437057 601780 649335 560503 440676 314179
3794.29 223020 243151 233772 171816 296220 403193
3797.19 416926 571795 669364 642482 610746 562649
3800.08 331510-216120-407334 32507 272965 233022
3802.97 333020 615792 766278 639083 568786 599023
3805.86 330886-143951-87469 326746 573600 762927
3808.76 869773 811655 558682 357353 419932 525153
3811.65 494019 514394 677044 702090 697416 763437
3814.54 602990 59220-416175-77024 592355 852969
3817.43 831279 786054 746058 616756 289923-103031
3820.33-208870-102081-108785 47478 381146 470068
3823.22 333001 211311 206312 316588 389525 323706
3826.11 252008 262936 254359 261090 259003 49119
3829.01-125683-43695 23713-166693-460733-479714
3831.90-281368-88948-56492-193822-331681-471494
3834.79-453799-342986-314352-453979-978893-1530203
3837.68-1245294-542699-341576-432523-491959-548853
3840.58-561457-515177-474781-486310-645107-765636
3843.47-641781-403347-394832-616763-667864-551475
3846.36-473057-319598-170409-178867-201746-188091
3849.25-235148-231878-212469-574375-1220473-1368982
3852.15-941162-835315-1453304-2082207-1625529-573904
3855.04-181955-270236-349488-433126-387355-168343
3857.93-60144-52614-26953-99357-267530-349518
3860.83-354929-278534-183879-176772-205802-280264
3863.72-360706-500945-622040-465182-281674-223506
3866.61-131349-70775-216186-429994-537012-770883
3869.50-1155427-1049541-605361-331012-234548-303920
3872.40-316680-348961-573947-634670-391994-157469
3875.29-61262-105393-271474-300585-191924-189252
3878.18-269465-441834-617790-746903-696810-431556
3881.07-358767-495569-489899-297631-134986-28937
3883.97 2424-229106-611411-687412-494545-243982
3886.86-40886-50699-92277-87785-133331-104261
3889.75-25173-170615-394282-313325-83894 37717
3892.65 115766 225098 196634 68256 111322 224378
3895.54 197592 229396 402840 453159 360398 237817
3898.43 46311-21553 178367 215560 108772 122023
3901.32 54656 57450 233173 328538 269187 199274
3904.22 256137 276101 282722 275242 200474 254699
3907.11 369504 400165 375053 242143 43071-50304
3910.00 18757 109075 119106 85914 37137 72487
3912.89 153121 202839 182029 55146-44671-66215
3915.79-72654-82191-143789-152917-204667-334675
3918.68-403131-537327-626047-508120-331840-159930
3921.57-79244-230482-354923-343327-302442-285077
3924.47-215571-45234-10750-82859-31311 37956
3927.36 11233 36818 61122-22140-20090 123576
3930.25 276764 293414 197846 93216 33921 71283
3933.14 182625 306905 432987 478345 301900 161028
3936.04 230263 400253 540371 441454 251967 292048
3938.93 444630 465353 436088 565453 661402 477447
3941.82 229686 153057 267880 550565 723970 710647
3944.71 697091 574577 451884 566265 798579 910400
3947.61 872764 808568 670949 519767 515870 506255
3950.50 507399 601091 712870 806482 902702 996398
3953.39 1042630 914625 659666 498253 493456 669092
3956.29 953680 1202497 1187878 909763 761481 899753
3959.18 1064191 1013720 803777 614305 525075 547232
3962.07 588883 672186 789814 827437 699567 512671
3964.96 456633 403761 266707 226570 337988 351912
3967.86 286757 343428 331423 175924 119747 79680
3970.75 885 32520 42436 24765-26349-199391
3973.64-301976-142662
##END=
