##TITLE=1,1,2-Trichloroethane
##JCAMP-DX=4.24
##DATA TYPE=INFRARED SPECTRUM
##CLASS=IUPAC A
##ORIGIN=NIST, Analytical Chemistry Division, 301-975-3108
##OWNER=COPYRIGHT (C) 2001 by the U.S. Secretary of Commerce
##DATE=01/06/01
##$SPECTRA VERSION=1.10
##$UNCERTAINTY IN Y=2.1 % relative (B=1.14E-04,C=1.89E-9,D=6.50E-14)
##CAS NAME=1,1,2-Trichloroethane
##CAS REGISTRY NO=79-00-5
##MOLFORM=Cl C H2 C H Cl2
##MP=-36.5 C
##BP=113.77 C
##$NIST SOURCE=QUANT-IR
##SPECTROMETER/DATA SYSTEM=IFS66V (Bruker)
##INSTRUMENT PARAMETERS=KBr Beam Splitter; MCT Detector; Multipass cell
##STATE=gas
##SAMPLE DESCRIPTION=1,1,2-Trichloroethane Primary Gas Standard
##PRESSURE=101.3 Pa
##TEMPERATURE=23 C
##SAMPLING PROCEDURE=1 L/min Flow
##RESOLUTION=0.9640
##DATA PROCESSING=NB Strong Apodization
##XUNITS=cm-1
##YUNITS=(micromol/mol)-1m-1 (base 10)
##XFACTOR=1.0
##YFACTOR=9.0949E-13
##DELTAX=0.4820
##FIRSTX=575.17
##LASTX=3974.606
##FIRSTY=-4.42E-07
##MAXX=3974.12
##MINX=575.17
##MAXY=.00086
##MINY=-3.81E-06
##NPOINTS=7052
##XYDATA=(X++(Y..Y))
575.17-485990-2255318-1821692-1251783-2719401-2424272
577.58-1672789-955797-933871-1366978-508413-782277
580.47-1550934-227780 722223-1300924-2160786-1560892
583.37-605329 289921 232913 55875-286907-2355392
586.26-3139115-1964372-818578-191916 434392 1149169
589.15 1551763 1094540-42510-735801-468727 10590
592.04-723850-1026958-847229-903661-600414 342699
594.94 261686 30824-990924-2108899-1772134-1302444
597.83-1201645-2098242-1500654-1107767-782459-968480
600.72-1563988-1452286-1024138-142983 584367-150049
603.62-171058-335284-816035-676064-620521-1020333
606.51-1253004-1143576-754089-384652-636958-166217
609.40 117980-472413-680780-442462-781086-1651334
612.29-1464991-1424927-1624191-1520260-1602735-1152458
615.19-476693-894406-1243274-517822-253384-339147
618.08-356565-656293-806827-572001-646213-820272
620.97-211680-79689-247150-541534-433479-265103
623.86-710133-563590-299453-606922-579583-697790
626.76-508235-95407 210883 119049 86771 35333
629.65 664318 836228 422763 272692 1009185 893369
632.54 794236 1718626 1824029 721355 1195128 1601675
635.44 1049927 1526229 2283883 2371582 2610808 2313519
638.33 2002716 2231454 2489255 2726911 3387155 3890802
641.22 4299635 4594988 3891374 3485802 4004284 4834464
644.11 6037317 6460852 6684605 6852884 7433929 8107355
647.01 8586091 9118984 9258516 10054338 10699669 10811387
649.90 10965224 10665097 11144299 11750144 12679611 13845560
652.79 15330182 16675740 18020689 19531996 21857962 24053302
655.68 25731926 27390379 29992141 32748809 35258975 38160633
658.58 41476266 44968442 48690907 52549264 56908556 61801995
661.47 66025153 70686112 75791701 80931993 87535787 94175721
664.36 100588932 107568548 115184646 122358391 129264305 134709075
667.26 140349119 148936356 157751330 164651932 169892858 174074483
670.15 176801596 177281873 176595025 175481768 175357986 174096195
673.04 171431394 168588386 166990722 166164590 164955482 163128375
675.93 162953640 165647905 171408799 180183151 191502420 202465938
678.83 211229163 216014767 216759245 213537257 206651255 197066946
681.72 185580052 173538799 161379316 148707886 136091359 123998729
684.61 113438099 104944882 96974086 89068938 82157179 76309606
687.50 71001263 65899550 61693908 56951219 52603424 48909813
690.40 45057116 40932920 37766679 34607872 31286870 28195348
693.29 25740305 23362321 21263947 19038501 17875927 16853189
696.18 15342291 14072349 13622295 13184244 12944269 12972698
699.08 13054014 13069275 13010432 12771182 13525372 14458780
701.97 15093412 15479147 15997579 16846444 17788622 18540654
704.86 19269459 20181503 21220315 21559084 22310914 23293666
707.75 24196052 24499552 25179401 26349671 27289945 28110255
710.65 28905671 29452682 29922944 29932344 30756730 31287050
713.54 31593598 32612867 34253275 35369324 36832177 38524128
716.43 40857731 43323230 46194622 48981975 51068383 52385982
719.32 54596973 57732056 61670368 66586670 72016830 76938431
722.22 82906773 89993290 98118132 107025450 117201165 128036345
725.11 140131406 154486709 170766780 187822278 207223732 228296877
728.00 251696095 277613309 306018775 335903494 367567980 400699242
730.90 435624842 472508592 511099710 550469147 589836133 628599386
733.79 666737231 703773456 739802527 772715697 803575667 831425743
736.68 856312881 876558961 893521414 906527689 916422591 921974851
739.57 927318418 931408496 933261389 935262662 938608918 938698775
742.47 936183167 934522796 944570103 945632787 935572448 918980564
745.36 899587216 908223995 923891236 876050606 810799001 795212269
748.25 785180169 764899812 731013596 689131695 637687447 579447292
751.14 515897127 452318928 389819862 330171129 274337038 225295599
754.04 182935165 148562839 119671999 97174122 79578176 66806085
756.93 57465599 50956082 45390880 41592274 38707908 36821485
759.82 34869868 33425249 32289840 31130167 30189656 29956673
762.72 29242229 28580494 28497910 29042196 29180844 29263111
765.61 29541913 30267721 30877153 32003752 32825434 34146233
768.50 34916416 35744260 36652184 37933722 38761237 39760015
771.39 40637088 41197758 42226699 43738319 44643077 45805979
774.29 47621033 50170343 52977739 56334733 59810898 63709258
777.18 67188363 70723628 74022023 77030354 79563258 81881734
780.07 83933420 86378612 88947383 91402782 93719273 96900383
782.96 100079185 103359212 107239679 111641775 115736079 119005332
785.86 121828943 124814727 126096582 125048717 121156925 116103049
788.75 111051496 106190146 100571958 94489985 88631175 84165430
791.64 81374565 81237687 83946223 90015784 98204990 107416544
794.54 115219010 119627841 120691945 118950389 115233334 110292631
797.43 104170823 97570273 90552288 83405093 76135314 69222346
800.32 62605492 56610644 51142388 45923796 41321347 37523159
803.21 34348182 31040304 27889019 25423996 23363499 21622443
806.11 19435698 17071351 14928876 13500322 12332528 10677389
809.00 9113490 8190190 7047998 6038173 5313992 4577214
811.89 3825871 3264094 2907070 2540270 2278475 2397528
814.78 2122143 1931584 1892582 1984210 1734130 1487763
817.68 1476992 1542977 1511762 1606189 1595700 2137763
820.57 1964006 2038849 1926283 2151908 2509556 2332483
823.46 2333494 2432346 2360302 2540444 2909188 2908853
826.36 2645318 2557061 2213975 1769590 1634833 1840734
829.25 1981153 2171189 1908212 1864124 1962700 2222583
832.14 2512654 2858625 2763926 2339951 2049872 1790179
835.03 2242826 2677640 2770774 2789974 2588242 2588107
837.93 2893177 2562663 2238156 2418245 2471053 2243148
840.82 2339650 2635848 2331162 1984561 2088200 2551194
843.71 2752357 2738226 2684179 2840746 2654976 2506263
846.60 2415714 2544877 2992132 3303313 2845287 2595099
849.50 2921867 2864974 2383380 1933438 1999059 2245636
852.39 2110129 2071768 2220707 2242014 2332838 2448514
855.28 2367299 2073381 1954860 1677822 1475367 1595888
858.18 1845698 1946256 1959368 1710480 1358431 1174856
861.07 1012569 1077825 1255756 1213826 1126782 1145358
863.96 853866 774419 825711 775313 895616 1027407
866.85 852910 819490 770760 817449 1049722 1061690
869.75 956369 1323050 1397047 1168076 1078393 1110021
872.64 953394 825762 704837 1049244 1462610 1400099
875.53 1326978 1360907 1424085 1519930 1587646 1743998
878.42 1641991 1536696 1583635 1622086 1720529 1802300
881.32 1777686 1572030 1409993 1667849 2157568 2429454
884.21 2251553 2082956 2303506 2678983 2549964 2566594
887.10 2791021 2849670 2985956 3016820 3186257 3572813
890.00 3780193 3738745 3903591 4156466 4165875 4088462
892.89 4225206 4459587 4454203 4527407 4512404 4597684
895.78 4686352 4583758 4773447 4964824 4981297 4951222
898.67 4859448 5153941 5363031 5299377 5565675 6109023
901.57 6134203 6525285 6700174 6969366 7288759 7592634
904.46 7638187 7568625 7554241 7788651 7966390 8370655
907.35 8825040 9195349 9529893 10020260 10501826 10986238
910.24 11436742 12101025 12970580 13991866 14732105 15452756
913.14 16556662 17750716 18751532 19835138 21400305 23254078
916.03 24609343 25901476 27633091 29589496 31536966 33747601
918.92 36070317 38643581 41217463 43855132 46572542 49661608
921.82 52900406 56370223 60362044 64568449 68752499 73058367
924.71 77876992 82929576 88403606 94219933 100254950 106565458
927.60 112872732 119228903 126107311 133290273 140137276 146841135
930.49 153109480 158730834 163353406 166315651 166960767 165032399
933.39 160798160 154530292 146948174 139171946 132186052 126351342
936.28 122852894 122782957 126057426 133015843 142993203 155908807
939.17 169942707 181442889 187827216 189115181 186562158 181204567
942.06 173999622 165471215 156527734 147503031 138056719 128798858
944.96 119515603 110855104 102999297 95912098 90141931 85968731
947.85 82548653 79006605 74490812 69586949 64873001 60380150
950.74 56284266 52803795 49296724 45707111 42269034 38974279
953.64 35776826 32755808 30059914 27670201 24804573 22296247
956.53 20338373 18564914 16821100 15376553 14129353 12984563
959.42 12067173 11435557 10917316 10106813 9360302 9143994
962.31 8681235 8173671 7705397 7290055 6915806 6436246
965.21 6258830 6443621 6089143 5806988 5772127 5676930
968.10 5670206 5443873 5042809 4949202 5007918 4872319
970.99 4724539 4743373 4756270 4762896 4663735 4494899
973.88 4243999 4032866 4078633 4326545 4437879 4453201
976.78 4445277 4366816 4036698 3828497 3711917 3435463
979.67 3076075 2748229 2601497 2534228 2472500 2269620
982.56 2122263 2242464 2286103 2099961 1892832 2011199
985.46 2083660 2070184 2169429 2263967 2259987 2249221
988.35 2373155 2472678 2521109 2494930 2507625 2624244
991.24 2573451 2501926 2400143 2379853 2531626 2658173
994.13 2627271 2542907 2644119 2885158 2993506 3044480
997.03 2775495 2767363 2795890 2780461 2673042 2854470
999.92 3013332 3047703 2956923 3133194 3006456 2892961
1002.81 2863529 2959226 2913749 2642056 2589743 2634962
1005.70 2621067 2502807 2618187 2654926 2677294 2555035
1008.60 2531374 2689219 2666386 2830986 2918460 2936987
1011.49 2951715 2885663 2867616 3215640 3616278 3716444
1014.38 3244553 2382143 1712541 1874281 1976865 1751676
1017.28 1689627 1926760 1915895 2012806 2104557 2120178
1020.17 2272597 2385949 2535395 2705759 2697514 2570447
1023.06 2582052 2710854 2815471 2999977 2988202 3084747
1025.95 3108215 3123961 3317315 3557077 3508645 3513061
1028.85 3751099 3898840 4160843 4404662 4595381 4997673
1031.74 5495302 5819652 6090682 6652680 7067285 7295163
1034.63 7649624 8049305 8491210 8922730 9112058 9715705
1037.52 10412717 10654829 10807756 11297986 11864672 12369117
1040.42 12859332 13178336 13371772 13887263 14600924 15121673
1043.31 15417201 15962237 16566770 17008073 17444488 18023048
1046.20 18421385 18781627 19223339 19805412 20241797 20525182
1049.10 20467354 20045777 20049100 20032327 19623058 19526217
1051.99 19472580 19180477 18915903 18745254 18337061 17942286
1054.88 17716026 18006640 18453434 18920453 19445079 19947244
1057.77 20189222 19795102 19267314 18713088 17622223 16669061
1060.67 15853241 15064971 14425004 13783716 13240266 12831676
1063.56 12446583 11897753 11222805 10921327 10523296 10274334
1066.45 10183641 9978735 9796065 9777148 9443374 9187749
1069.34 8828241 8104057 7576798 7427679 6896765 6408545
1072.24 6286451 5969499 5644629 5143354 4811886 4752704
1075.13 4455187 4280220 4004052 3766225 3601087 3434529
1078.02 3364834 3160772 2886025 2692976 2738990 2497232
1080.92 2140679 2251136 2332476 2287050 2246833 2122221
1083.81 1811520 1518147 1294436 1082922 1197264 995779
1086.70 726775 794019 879630 914982 768145 784669
1089.59 927074 826519 548161 490399 685681 668952
1092.49 416817 419302 397891 294729 418254 643499
1095.38 695250 712228 649167 451181 239453 271137
1098.27 376949 252313 266686 369370 406755 244195
1101.16 355599 376270 100653 147878 70699 120063
1104.06 298631 223218 1987 6407 229105 325618
1106.95 153561 82413 162257 439560 538084 229605
1109.84 179439 394044 233676 29558-1509 269399
1112.74 335126 326790 298506 135192 225767 441816
1115.63 482670 397807 365384 274965 367791 420021
1118.52 383153 409267 433311 522713 642495 702613
1121.41 762676 703527 468239 494264 514676 438419
1124.31 434385 694040 781554 760406 824922 985302
1127.20 922441 631516 570722 727037 725783 779387
1130.09 803591 884226 755174 623511 653523 720554
1132.98 809405 924258 862637 847414 853224 924573
1135.88 943628 1175557 1320957 1416675 1311915 1397229
1138.77 1604955 1736277 1921925 2276679 2547585 2766117
1141.66 2872065 3180998 3401623 3584950 3993545 4307728
1144.56 4751252 5342607 5857089 6339593 6862473 7364846
1147.45 7899425 8526471 9255629 10204074 11146447 12032961
1150.34 12752484 13519917 14277167 15305976 16367113 17285186
1153.23 18322821 19672377 21053547 22770204 22911833 21589525
1156.13 20737915 20925575 22042068 24435783 28144553 30302514
1159.02 27589998 25162717 24767106 25658002 27080679 27613344
1161.91 27242455 27415975 28067558 27808161 25569713 23267508
1164.80 22321655 22205009 21879674 21098056 20188398 19593381
1167.70 19077464 18318327 17394285 16500399 15404190 14087695
1170.59 13034802 12201020 11317037 10359972 9285625 8411597
1173.48 7752129 7270082 6473952 5886063 5481858 5190121
1176.38 4978103 4739423 4415519 3943689 3568340 3589595
1179.27 3668981 3618947 3537080 3445201 3367647 3400356
1182.16 3521882 3688318 3856366 4082545 4362848 4637967
1185.05 4812823 5135637 5451241 5701883 6186251 6685912
1187.95 7031896 7501663 7862408 8419222 9071706 9762812
1190.84 10434477 11431006 12531489 13747964 15051787 16502553
1193.73 18186509 20264305 22527092 25063368 28164153 31446601
1196.62 35253371 39752669 44567002 50211285 56351216 63073459
1199.52 70606238 78848781 87231749 95808113 104296743 112731176
1202.41 120192824 126402168 131037747 133976804 134997973 134072636
1205.30 129794565 122033151 111925849 101531472 93811533 99944807
1208.20 138453369 182142423 158742405 110442251 92668459 97499770
1211.09 111540218 125513715 136972206 145211719 150679675 152715206
1213.98 151987130 148176749 141576370 132894118 122848767 111756866
1216.87 100118705 88390798 77267731 67034431 58042839 50271804
1219.77 43648797 37954506 33359274 29625249 26542368 24070125
1222.66 21975316 20023789 18451656 17055373 15786174 14901816
1225.55 14116828 13228040 12486779 11920444 11310172 10801825
1228.44 10539061 10398083 10251413 10233366 10118013 9887371
1231.34 9919436 10029903 10114506 10215113 10460410 10659957
1234.23 11136797 11699967 12363598 13309035 14455042 14940791
1237.12 14685909 14270609 14269333 14652343 15088736 15338355
1240.02 15561467 15725848 15955181 16262375 16439493 16233296
1242.91 16088678 15868180 15725981 15942505 16214940 16534049
1245.80 17031527 17546887 18204486 19313642 20623711 21882172
1248.69 23258288 24810467 26658528 28921004 31377476 34231356
1251.59 37340752 40792381 44651839 48685672 52989102 57621357
1254.48 62593272 68117892 73613633 78748523 83921624 88973765
1257.37 93773268 97961240 101490122 104218413 105907194 106849438
1260.26 106708283 105141765 102834548 100538635 98610546 97350552
1263.16 98583703 101328250 99160477 94677293 93819581 95667698
1266.05 98110084 99978789 100975178 101243302 100435666 98790933
1268.94 96406060 93712490 90658925 87096162 83401741 79674591
1271.84 75679789 71532694 67362601 63002770 58575302 54133672
1274.73 49753650 45699385 42010104 38388599 34948904 31845011
1277.62 28918766 26205389 23834420 21672208 19571394 17575427
1280.51 15764200 14306717 12924725 11784301 10704421 9690527
1283.41 8702661 7787023 7009322 6399455 5916472 5406163
1286.30 5072602 4793179 4533724 4463574 4308571 4206518
1289.19 4243145 4495887 4810087 5156874 5578497 6237712
1292.08 6724434 7338919 8160330 9104981 10020415 10969215
1294.98 12165225 13574399 14874778 16296329 17938763 19523998
1297.87 21289206 23200676 24809922 26332814 27921545 29517897
1300.76 31121280 32729358 34086779 35142637 36258991 37327446
1303.66 38140669 38842497 39975143 43212535 48661754 48444675
1306.55 41058183 36678066 36498992 37323176 38261545 38632938
1309.44 38178934 37891416 38110103 39015529 40038056 39967319
1312.33 40077819 40844434 41135354 40957065 40182731 38869084
1315.23 37250193 35373421 32995034 30455342 27810459 25324249
1318.12 22895666 20743466 18849930 17024382 15133082 13433312
1321.01 12233876 11209473 10220003 9437231 8778056 8182655
1323.90 7465110 7047323 6696564 6229603 5922252 5738239
1326.80 5659276 5496672 5255769 5215436 5367748 5629576
1329.69 5593991 5530416 5526118 5396081 5267637 5214442
1332.58 5160465 4945301 4912746 4997549 4979666 4842083
1335.48 4666918 4587192 4561527 4644402 4713998 4750108
1338.37 4736587 4619190 4571824 4653788 4695246 4689132
1341.26 4703550 4639679 4716814 4799760 4653592 4762938
1344.15 5090783 5067429 5209377 5428616 5207397 4856528
1347.05 4712340 4691807 4678252 4441357 4108524 4248426
1349.94 4049123 3451555 3176288 3417972 3871216 4165501
1352.83 4230770 4347757 4592178 4251872 3760453 3902510
1355.72 3834729 3239074 2591868 2490508 2404490 2115794
1358.62 1932400 1553315 1553661 1732240 1409762 1084799
1361.51 1236147 1399011 1418222 1577420 1360053 1078533
1364.40 1222662 1325461 1379950 1097273 798013 830263
1367.29 948258 773085 633023 876977 920142 732122
1370.19 674800 1021181 997506 810894 770103 685594
1373.08 517972 663327 745297 643083 641681 791545
1375.97 672894 499150 552401 621023 605032 703440
1378.87 840311 885641 856590 823212 744738 648751
1381.76 750742 933090 800307 829420 1052639 988019
1384.65 809274 845481 474400 310913 246089 202848
1387.54 336934 577426 590548 643582 776041 754764
1390.44 579048 858860 811954 727153 613247 490079
1393.33 306836 59515 224187 636289 673084 635385
1396.22 717033 712196 405862 353575 403178 415829
1399.11 491209 619933 779061 964542 613362 627574
1402.01 853061 1028943 957383 1127097 982029 753333
1404.90 832174 1109536 1105851 1303767 1266679 1385328
1407.79 1431674 1379414 1338308 1613100 1629623 1637120
1410.69 1702999 1844104 1841907 2070841 2262022 2601262
1413.58 2465784 2624605 2827450 3088942 3245561 3596367
1416.47 3948970 4314009 4654116 5254884 5379119 5762947
1419.36 6877077 8243995 8976231 9804054 10589317 11796819
1422.26 12854355 14166954 15122151 16576641 17924519 19434020
1425.15 20757042 22441059 23976561 25953189 27852629 30140446
1428.04 32390540 35303832 38254209 41994108 44935442 46920811
1430.93 47639372 49092820 50072980 51385221 51990658 52283955
1433.83 50692297 49365412 46631151 45257307 45056994 55933684
1436.72 95040058 153645485 134493456 60329171 37718779 40279402
1439.61 45429679 48891729 52365707 53788779 54952861 54544306
1442.51 54326706 53023595 51543480 49281904 47020723 43966582
1445.40 41538053 38953206 36794991 34062157 31898268 29828074
1448.29 28078837 26019220 24161612 22084537 20503946 18845898
1451.18 17290761 15481275 14015983 12561432 11482568 10309215
1454.08 9133032 7616186 6787457 5910494 4466251 3395250
1456.97 3816321 3521827 3237096 2969594 2734082 2394860
1459.86 2359279 2321545 2165095 1953885 1836235 1513653
1462.75 1501428 1382337 1281732 852669 870820 1075966
1465.65 1301741 1390963 1397140 1263295 1303103 1351657
1468.54 1322489 1062659 1100698 1051344 1163503 1018747
1471.43 620394 686556 1009131 587434 575035 861018
1474.33 1068145 975475 779483 599006 835607 1062620
1477.22 1149380 1115150 1201068 999093 1055641 1074766
1480.11 1224099 1171333 1252549 1235475 1111382 1102735
1483.00 1159655 1009934 958175 1063802 1295353 1147342
1485.90 1017711 831072 702877 871682 1086389 975614
1488.79 681089 419312 430649 453552 791135 875080
1491.68 691207 640399 568656 546871 649816 574188
1494.57 472402 278588-458663-514253 130344 133775
1497.47 120197-237093-345120-99510-33883-159662
1500.36-192736-286726-229077-151491-109219 30862
1503.25 23764-138384-310647-1102197-1609898-1025211
1506.15-1373190-1618796-789376-388584-420338-371335
1509.04-305286-238386-93398-173821-153435-197951
1511.93-278022-168927-48384-40295-22330-196075
1514.82-149904-39737-189238-295934-468148-396237
1517.72-41793-68370-99405-167440-278899-486891
1520.61-1047798-872566-337988-498760-255388-90987
1523.50-56859-108918-321390-641779-374174-275846
1526.39-307901-234312-10733-150398-290867-200151
1529.29-102249-216690-185749-197624-228244-340031
1532.18-334077-385330-489839-511180-218216-280620
1535.07-204279-92503 33431-103404-210125-373319
1537.97-706170-1643877-1286738-933393-1021404-341276
1540.86-237576-797250-778830-237526-145669-98324
1543.75 56669-135264-436415-227925-14338 42535
1546.64 62312 120532 196435 187042 61678 46778
1549.54 54115-11092 3943 136057 228720 55444
1552.43 90434 152499-145675-560859-82903 164259
1555.32 124324 113928 93914-485255-818171-1360097
1558.21-1470147-677049-949688-1489486-788178-10238
1561.11 25882 29331 62505 153001 103875 31302
1564.00-49026-110413-6699 57412 72096 144441
1566.89 25759-6820 18389-53292-298717-562897
1569.79-175465 98267 15649-15650 5849-19258
1572.68-208371-182837-82566-40842-161431-917051
1575.57-2057355-1430638-378945-232458-176953-253451
1578.46-171550-143672-205079-275709-211197-133603
1581.36-121157-161879-165478-238228-284121-229030
1584.25-116508-153309-144049-153412-214804-160247
1587.14-61633-53340-87331-92442-124343-358949
1590.03-333300-286415-229271-179935-212986-205265
1592.93-194108-197696-212442-146426 90131 129421
1595.82-8808-21330 106494 182769 82398-71331
1598.71-27581 30236-3007 54065 132797 165010
1601.61 192061 109105 17785 68125 86811 143822
1604.50 362733 321979 250308 222890 235753 234914
1607.39 289249 304669 294542 275239 265158 313607
1610.28 238329 275782 290516 292551 191676 196740
1613.18 274450 277542 198210 133652 90142-230235
1616.07-1159854-774163 139074 337042 375523 152567
1618.96 95690 151750 182456 49858-29417 61823
1621.85 58639-221217-583891-642434-200722-21324
1624.75 23908-86646-193874-314084-306532-385286
1627.64-293683-178022-252154-399732-383355-281788
1630.53-227749-241381-225724-300913-267067-265755
1633.43-381571-500902-758894-1352502-1206093-453928
1636.32-260242-421082-501990-442169-354196-318770
1639.21-311747-249702-147846-213914-288771-283871
1642.10-292659-229018-121603-102707-109192-183179
1645.00-676060-1185499-619287-376674-632058-504205
1647.89-444636-264292-125713-136030-199106-181907
1650.78-291900-792161-1859305-2203832-2309753-1573599
1653.67-932320-846075-257927-138774-210370-264909
1656.57-175092-156443-177634-186172-155041-221651
1659.46-196163-189825-174370-222853-377280-705348
1662.35-783083-401137-117651-160757-299182-262177
1665.25-262213-338766-214320-133216-236172-319598
1668.14-476603-943464-880374-353933-286590-567311
1671.03-662598-410693-246505-263072-218835-181398
1673.92-309180-802917-1064455-669042-370915-298229
1676.82-289466-273864-146200-212393-252008-263278
1679.71-326430-324062-300240-254806-250512-445876
1682.60-718302-711874-878035-1817283-1885981-627615
1685.49-186892-92500-80221 21457-31222-67979
1688.39-36811-23442-198174-293317-206963-53384
1691.28 62001 73839-30238-124461-220885-158719
1694.17-238449-675203-1753932-1843447-659969-202510
1697.07-116222-41033-39719-181092-956402-1759635
1699.96-1591333-928840-246656-5079-29412-155827
1702.85-84184-204213-463633-485288-202776-248271
1705.74-506274-335023-147389-195440-203487-194954
1708.64-229756-232566-148619-109131-118651-178839
1711.53-89162-57369-164619-214311-252981-345732
1714.42-554256-621624-258347-188352-738113-1591517
1717.31-1005804-506017-613854-256872 69295 74256
1720.21 10251-46800-152417-47473-57945-179053
1723.10-175015-48317 57230 39766-107599-224850
1725.99-151397-80082-142477-168667-54476-7646
1728.89-94161-274061-149648-51781-148963-76145
1731.78-81667-410323-1184343-1148317-1143042-1302059
1734.67-549966-130735-77233-187835-286022-265716
1737.56-131495-201843-320915-732665-891844-446599
1740.46-272540-231690-172839-312882-492706-460087
1743.35-349144-314334-217066-255608-332099-345177
1746.24-396717-433731-398344-540586-702501-535705
1749.13-353199-428716-545653-988039-935566-494359
1752.03-453262-417936-366035-290219-228174-398921
1754.92-503711-527833-657767-666546-409643-394349
1757.81-411158-445960-493247-427205-286592-301633
1760.71-456727-780242-669015-486278-367931-253237
1763.60-176925-207053-175801-154460-230908-303992
1766.49-366304-444376-609965-551601-302243-362791
1769.38-238898-110001-280353-458183-357526-739010
1772.28-1092575-518787-311172-436145-235824-104197
1775.17-145712-190432-178447-131953-56908-33166
1778.06-109259-129516-53619 9379-113359-168741
1780.95-46694-95338-260 134811 239520 197666
1783.85 68856-179326-119443 29728 7528 11152
1786.74 67223 58575-10470-20772 83077 37961
1789.63 39364 5551-115086-18518-10676-371327
1792.53-130188 214653 231272 243685 296446 237575
1795.42 202713 184883 234704 278448 312364 249145
1798.31 183026 106633 86062 188921 289542 223769
1801.20 135188 110613 124292 78152 76506 197425
1804.10 287269 284952 334942 328093 247927 188657
1806.99 122880 92758 117224 88735 171494 144419
1809.88 14753 1048-1590-16156 48838 75842
1812.77 156176 128735 102987 135189 183771 163946
1815.67 147573 118160 21337 13182 93213 204185
1818.56 214314 191001 296029 355150 385815 326260
1821.45 270206 264122 346185 542690 618705 511892
1824.35 356368 583812 976770 839725 551092 365885
1827.24 184794 193337 206307 115892 95098 8850
1830.13 147882 233353 187409 246008 325362 256342
1833.02 211299 138857 162690 214623 195714 130631
1835.92 134689 84585-55880-78808-54287-925
1838.81 61791 28335-7416-18841 6238-146473
1841.70-241647-288028-412045-553918-902720-733539
1844.59-316516-147473-48849-186899-239880-305239
1847.49-400984-349925-372862-462233-339972-278093
1850.38-323046-352265-410694-475124-427495-265750
1853.27-198092-322082-407499-386903-337561-380348
1856.17-362555-326898-390626-394595-357508-408595
1859.06-350087-282488-395417-560229-512442-405126
1861.95-364672-409772-385311-421979-509038-596285
1864.84-655275-521739-461283-414070-371728-464091
1867.74-455057-428833-601912-489100-249581-362624
1870.63-459964-486983-408146-351983-382313-312039
1873.52-212606-287490-386329-337515-251784-408580
1876.41-346850-310233-352003-326829-347260-329685
1879.31-275383-237595-195093-262186-385857-429647
1882.20-501291-561268-391022-294227-392973-425894
1885.09-378605-367685-430435-374192-304148-405068
1887.99-428984-384656-384168-382839-337418-253415
1890.88-217414-230567-211508-218235-312512-337864
1893.77-333331-486330-515609-434545-391898-387589
1896.66-350782-264092-209790-325925-407907-393373
1899.56-286701-211854-309840-384807-318714-318021
1902.45-379323-426030-448716-448859-389844-390901
1905.34-323408-259840-315204-420738-496077-413087
1908.23-315564-304749-387551-442388-498468-460906
1911.13-285326-322962-456276-419975-245462-231497
1914.02-304621-331068-326005-320130-293140-361358
1916.91-379893-499318-445336-223095-266630-293099
1919.81-284098-348518-341149-344607-376954-447474
1922.70-311120-187671-231043-267960-343952-299773
1925.59-240418-253667-298267-296363-272928-258283
1928.48-171708-195356-268846-220664-107627-97187
1931.38-172774-146213-101414-142263-185877-123664
1934.27-175194-182122-113509-135703-79342-40649
1937.16-64489-91820-11901-53184-137689-124016
1940.05-203640-176942-107431-108983-85553 34085
1942.95-30146-195032-214651-104966-95295-48475
1945.84-82301-92102 16897-14797-138214-226995
1948.73-196591-230176-242014-151990-59670-48734
1951.63-131213-132316-319403-442246-366676-272863
1954.52-204860-247103-290080-210844-62369-157185
1957.41-274292-296622-225338-96570-59957-145248
1960.30-207795-238663-175347-158569-233093-411550
1963.20-416910-305624-292211-285403-306010-310378
1966.09-323757-244043-210940-201641-165323-116157
1968.98-83900-93762-116995-118043-125356-72836
1971.87 34375 91330 42195-21930-65377 26523
1974.77 196923 244912 99996 99304 245296 285600
1977.66 329506 349677 322296 280605 277064 330282
1980.55 420121 368434 372716 427183 371806 336945
1983.45 287662 336454 388921 381734 433869 454684
1986.34 417930 393980 401904 342384 312424 414404
1989.23 517910 513575 407037 297417 304334 311578
1992.12 242606 146029 157472 194535 254944 206923
1995.02 116091 105705 169250 108930 118997 107110
1997.91-19774-17521 69117 104188 90387 126011
2000.80 96062 42065 39155 64959 37866-21839
2003.69 10468 15442 10954-28250 17053 86649
2006.59 26353-41049-21878 111467 73015-39053
2009.48 38608 26244-41961-15390 57443 58111
2012.37 21708-66239-112149-89495-69980-63640
2015.27-81025-12679-23906-135408-267327-286958
2018.16-171591-110797-68674-126718-187769-134249
2021.05-299978-436593-300767-198810-125680-13150
2023.94-12902-72060-145287-116861-126920-185330
2026.84-202265-225002-292319-223816-184957-189283
2029.73-155909-94101-120776-110977-21515 1952
2032.62-115263-116092-126496-218131-241436-115446
2035.51 17174 85159 44099 3679-6761 19846
2038.41 12596 28624 42596 7416 16743 63902
2041.30 48765-6778-662 92733 176647 166358
2044.19 175049 271922 298635 202251 276797 269801
2047.09 214385 166126 171745 246661 267691 121192
2049.98 93180 265643 252463 190118 197535 128245
2052.87 95465 64043 80043 180493 161678 179350
2055.76 124426 67108 121515 239262 142457 60569
2058.66 90031-78342-171631-63878-75857-117434
2061.55-67516 42515 56928-88760-153782-271327
2064.44-286354-294464-213103-146434-186916-256036
2067.33-183468-140479-187523-83256-31398-133933
2070.23-166887-191032-128519-60950-127807-249831
2073.12-181122-76648-18960-3942-22458-1402
2076.01 39672-119722-328495-290676-38048 64151
2078.91 132467 112027 66150-34229-169358-317114
2081.80-279683-145307 3192 205669 93299 80996
2084.69 174734 73785-171481-136103 108396 150060
2087.58 249437 202371 272175 398460 420913 76337
2090.48 58249 389829 650535 573949 559126 564228
2093.37 553719 257038-94261 289271 597465 649018
2096.26 693701 733341 917579 963575 549675 172621
2099.15 574045 735955 724308 718487 843434 764491
2102.05 603741 104543 51242 513757 535558 543552
2104.94 668113 796252 762477 537451 95589 357794
2107.83 760083 847600 716055 650753 662195 651325
2110.73 164768-94636 475386 668226 783466 749345
2113.62 561544 392493 118853-443829-82687 232013
2116.51 281811 339191 284848 239355 122205-432358
2119.40-533104-66908 83509 130528 105213 196499
2122.30 102758-408030-799499-396256-130849-66680
2125.19-20720 69421 9836-257319-665264-380755
2128.08 39523 135563 86308-69801-159218-225098
2130.97-605191-512837-259010-177669-105469-102357
2133.87-178057-243856-369731-296174-76869-83974
2136.76-12399 29142-58843-264148-375108-428763
2139.65-359599-269089-189631-56161-109943-183182
2142.55-116944-199971-112666-23860 60430-5192
2145.44-108057-121708-368885-450161-238432-207495
2148.33-183370-143991-5539-153460-545699-518728
2151.22-288043-146256-52530-70185-70942-436627
2154.12-772463-479655-205813-220742-181538-194088
2157.01-269125-746708-894677-360820-72311-40116
2159.90-77768-135336-365835-1021840-818634-228845
2162.79-111306-108225-99374-207178-879977-1108703
2165.69-453189-139505-212562-108687-35134-342178
2168.58-1066584-800895-247282-227230-12341 79150
2171.47-131842-775999-834780-134279 88418-96743
2174.37-106006 1892-419881-803509-201168 59628
2177.26 118065 247889 156948-289497-940008-524247
2180.15 90764 161064 156868 181302 75987-501910
2183.04-457143 22348 128135 247726 264188 91227
2185.94-445093-432214 139929 312708 276631 194301
2188.83 78320-307972-114597 411205 473672 449239
2191.72 385231 206474-62032 90681 371394 501752
2194.61 584252 509457 364288 122066 306394 541828
2197.51 690901 662741 533692 287759 134257 320680
2200.40 493821 581598 588353 472476 208532 58080
2203.29 315544 459198 584714 587291 456747 303727
2206.19 458081 571133 497582 487361 399731 286842
2209.08 112458 42729 116507 236394 270914 176339
2211.97 98306 135095 248833 237569 163251 74030
2214.86 692 50756 122291 208053 40856-94242
2217.76 9305-68870-133350-180256-72153 9547
2220.65-90707-167503-120770-89378-4996-40915
2223.54-113427-79379-54329-6497-107457-236442
2226.43-152521-139218-96481 55404 69100-96647
2229.33-87095-62574-40707 51914 9023-38941
2232.22-35994-58976-177842-280381-63490 70977
2235.11-51081-95114-104035-158888-65060 89430
2238.01-6456-173813-60791 7030 13473-25319
2240.90-114650-83246-20603 25297 105460 83813
2243.79-57445-35060 95188 108478 74055-26429
2246.68 50582 199985 248080 112764-29272 12343
2249.58 114300 109261 2556 63626 147390 253417
2252.47 209342 51190 96291 60930 119040 155457
2255.36 198430 137443 103896 88909 110042 90018
2258.25 131170 18616-63202 28066 46133-54012
2261.15 74998 121585 17972-56308-64707-63705
2264.04-53500-3324 98748 74434 21830 66958
2266.93 90058 5950 14928 5763-4037-71890
2269.83-190122-161517 25184 35690-8334-40363
2272.72-140113-194926-127610-175108-170768-46760
2275.61-27038-31611-70289-80337 71996 9397
2278.50-97708-6003-17126-187523-165905-153321
2281.40-221615-157884-62462-61827-101146-205015
2284.29-197986-201581-202918-208396-190882-272784
2287.18-320277-245599-90315-15386-51374-207057
2290.07-238871-187201-92099-55644-64015-169788
2292.97-267685-273814-182817-221022-310310-308027
2295.86-209321-313235-411774-444175-318127-214419
2298.75-231986-344140-297900-160732-79853-44856
2301.65-97506-272811-182195-213501-296530-435346
2304.54-225573-98627-198618-464812-586972-429091
2307.43-224236-214904-473611-519048-395146-604780
2310.32-786839-647050-299260-319353-493411-781929
2313.22-401994-480465-773814-1293839-759553-389217
2316.11-622582-1420326-1057197-571715-768656-1593367
2319.00-1295746-507497-726436-1872566-1597357-632850
2321.89-911219-2257286-1929550-706348-1061785-2504174
2324.79-2081705-630481-1348638-3099981-2270386-606731
2327.68-1673803-3376015-2116631-594687-2263947-3832090
2330.57-2040718-972389-3168953-3752286-1347163-1241650
2333.47-3624413-3170344-922217-2096184-4197675-2528726
2336.36-1049928-3064442-3728433-1326349-1446942-3589850
2339.25-2562229-825762-2382055-3188398-1213300-1185275
2342.14-2695109-1710164-669108-1857466-1905503-578971
2345.04-888905-1357176-378305 12817-415721-157673
2347.93 239864 377744 356885 202803 473308 458836
2350.82-174892 38862 445259-574516-564409 163004
2353.71-1085333-968054 152107-1349129-1261225 146544
2356.61-1597828-1431819 15868-1954265-1430390-120186
2359.50-2194315-1003670-189742-2122076-419986-613253
2362.39-1773519 375831-670329-890423 345247-1277285
2365.29-30127 124769-941230 555604-368458-64660
2368.18 454408-267126 727287 172819 418540 609397
2371.07 236216 880613 382312 702804 355576 378019
2373.96 487536 385037 693471 665948 898043 643629
2376.86 674499 651242 803746 731529 608090 576759
2379.75 685643 632545 509094 508727 601576 463264
2382.64 450210 571642 648857 589689 611221 602939
2385.53 539484 483238 425497 339916 400818 553997
2388.43 608277 529205 528405 564026 604588 626851
2391.32 661745 792163 858887 833469 835681 831797
2394.21 801589 910914 1023287 963272 1007692 1058306
2397.11 1016310 1047237 1040546 1123504 1254670 1303295
2400.00 1271154 1274789 1291084 1293722 1374366 1458359
2402.89 1477256 1466922 1528375 1809101 2255777 2499122
2405.78 2428662 2150928 1837086 1571665 1394822 1336960
2408.68 1188048 1071746 1136217 1044910 1032301 1116191
2411.57 1085670 1111684 1150146 1129184 1130632 1146102
2414.46 1044285 1006233 972047 970801 859122 597345
2417.35 391685 423839 652836 773303 821975 852230
2420.25 823683 734101 576535 548245 465967 389545
2423.14 432371 436694 306703 212845 268013 284526
2426.03 188680 198210 204131 188196 172823 23557
2428.93 46035 162709 99970 8169 35423 36390
2431.82 64523 148294 104232 7774 241 15918
2434.71-64558-22950 140449 268386 159192 183922
2437.60 262867 337957 290160 141066 340534 507456
2440.50 439512 378723 422939 496177 485184 563958
2443.39 563057 506039 509557 505492 661370 781908
2446.28 815719 899781 1049583 1184217 1123490 1079326
2449.17 1239540 1299508 1300618 1369494 1522356 1642110
2452.07 1692969 1755507 1786528 1789585 1908907 1944804
2454.96 2008221 2152116 2186917 2198772 2320171 2379650
2457.85 2359330 2590287 2654814 2564425 2546164 2527197
2460.75 2574640 2654995 2517540 2388061 2492604 2430438
2463.64 2282588 2289920 2334664 2261284 2434214 2414001
2466.53 2275684 2127762 2041590 1940165 1777028 1732071
2469.42 1765456 1737660 1817939 1723704 1600633 1608724
2472.32 1434498 1339029 1457956 1479576 1409560 1395047
2475.21 1343739 1281164 1281810 1308337 1160396 1060797
2478.10 1102797 1080722 1094563 1024480 920405 943214
2480.99 966141 965930 958400 971993 1024610 1047047
2483.89 965813 879307 852727 961988 1058634 984981
2486.78 750001 734472 891176 1011696 1036504 989233
2489.67 999862 1016086 947244 838921 813952 879327
2492.57 842643 694203 692637 795673 904604 846130
2495.46 789221 814031 843907 812614 685157 727106
2498.35 783864 712304 675045 695035 786241 786730
2501.24 847552 904832 757649 842948 979274 836835
2504.14 858519 1034333 989591 975834 974904 896992
2507.03 1098548 1186677 1162000 1201599 1295439 1315384
2509.92 1263119 1313009 1351623 1417648 1501547 1550580
2512.81 1665732 1634868 1593430 1620342 1680542 1615821
2515.71 1429720 1372368 1352925 1257783 1200625 1190141
2518.60 1209218 1272346 1340811 1319412 1250676 1286574
2521.49 1374223 1329350 1237284 1345845 1350944 1247355
2524.39 1015065 990964 914107 812400 873741 786861
2527.28 684201 601825 522334 430594 406657 409341
2530.17 507172 408711 121093 30389 110507-9627
2533.06-68580-97803-34774 71520-11629-61766
2535.96-96839-289735-331529-135530-63681-213853
2538.85-242851-269227-307750-238168-101535-129770
2541.74-229321-106481-124626-52623 31241-34919
2544.63-264644-317683-280593-120630-195339-228989
2547.53-58316-22783-77791-97634 23353-37905
2550.42-116921 34270 183171 232658 91057-79684
2553.31-118654-96864-202231-101993 60658-9504
2556.21-23110-10964 130171 321380 419498 334047
2559.10 361228 440949 436987 434293 444438 447274
2561.99 439768 326526 391679 624764 650012 550804
2564.88 657135 661927 483142 355342 440453 555146
2567.78 419791 352310 476484 573318 633536 668199
2570.67 615395 557918 583755 564824 416459 262361
2573.56 303934 434955 422721 437261 446538 425701
2576.45 420373 347577 318589 316312 279076 351646
2579.35 420640 360740 330210 236660 233145 286234
2582.24 197691 106515 144904 165156 204973 189845
2585.13 167137 272834 290033 405610 445522 284164
2588.03 309345 409475 319180 196422 277806 361061
2590.92 272600 293971 375938 427724 434988 334474
2593.81 358289 439848 351067 436081 454112 370807
2596.70 404978 526232 623028 632360 569400 458860
2599.60 316787 273782 436787 445139 431429 510724
2602.49 553423 463005 468527 462833 395915 381529
2605.38 204598 176148 263600 181194 171988 131872
2608.27 160425 322246 324685 243988 183982 268198
2611.17 242062 167316 181368 198657 234722 193841
2614.06 238492 307038 147863 14195-14061-27339
2616.95 44952 180206-41540-55964 79187 10862
2619.85-38745-64641-235573-206690-101878-187054
2622.74-94973-43186-219803-207298-154309-199078
2625.63-157017-41399 54389 3790-113045-244247
2628.52-214540-220120-273568-171616-58510 36045
2631.42 16643-85243-196646-198108-147143-42870
2634.31-93571-150206-59787-76785-109428-56858
2637.20 117117 56895-159974-128613 76174 217388
2640.09 225434 95999 34657 112475-4926-104259
2642.99-30539 98026 142647 154299 140521 145489
2645.88 81241-105288-127585-55072 54249 14214
2648.77 171909 317897 208519 48482-34230-174351
2651.67-138183-107915-93200 28633 119937 201063
2654.56 137729 25200-44835-155668-157572 24003
2657.45 20646-90312-219292-202275-97059-2575
2660.34 49478 117465 97863-92266-121779-152230
2663.24-134670-128472-129328-50161-63144 30857
2666.13 45633-63219-89416-5565-20343-217784
2669.02-257155-159958-9581 32554-13800 28500
2671.91 35575-138-7098-44161 3908 57814
2674.81 47363 105450 186468 157170 33734-5911
2677.70 36158 140221 82761-103282-80510 99824
2680.59 196651 58807-18158 26599 53431 96753
2683.49 12083-98267-50154 33251-3821-52654
2686.38 27062 164211 262433 357888 336934 299165
2689.27 380236 481479 616465 726852 621735 630459
2692.16 788407 898389 864715 816518 833121 852407
2695.06 984446 1008878 948825 983593 918685 908867
2697.95 992633 976783 1017556 1050567 1022644 858078
2700.84 781114 940026 1035187 936869 950894 1050355
2703.73 1189595 1206827 1107095 974219 936078 869456
2706.63 893496 988861 1081019 992437 794813 552871
2709.52 358501 426588 487985 413097 274354 238801
2712.41 249457 197025 160451 112521 79748 284
2715.31-65821 47339-29502-142472-175029 17347
2718.20 37845 85573 156062 108794-130485-257275
2721.09-187650-62826-60119-19754 32563 74434
2723.98 23553 116834 255212 271033 282537 332067
2726.88 244340 115438 104958 164216 189053 243002
2729.77 343500 243329 162108 126394 220428 472273
2732.66 667521 736397 756707 846257 708236 529055
2735.55 663111 719831 635551 826022 1003623 1116112
2738.45 1030381 788876 710272 887526 999329 946477
2741.34 979337 1042319 858321 735665 760245 694274
2744.23 700683 680006 579276 781233 987328 930469
2747.13 684073 506606 481711 727012 944055 841483
2750.02 691308 687091 611034 460820 348161 291595
2752.91 429542 382513 363724 292532 125816 56451
2755.80 43285-45551-46907-19307-4358-4337
2758.70 54258 100522 11227 85142 101014-101162
2761.59-184124-94312-125 20141 39628-65522
2764.48-8874 70984-28418-112597-69754-26851
2767.37-136783-111524-13869 38442-57671-142337
2770.27-63458-76240-207139-285124-241122-100546
2773.16 85933 126504 60622-86290-116923 26565
2776.05 13970-122512-69499 22895 130144 102877
2778.95 242594 223948-22157-19733 76451 17467
2781.84-54040 3768 82257 50901 44362 25201
2784.73-45458 105544 128438-59523-34435 55731
2787.62-12084-191701 20736 444164 287718 84066
2790.52 39211-113140-150050 10770 160205 155766
2793.41 81177 188849 251005 278253 200770 48869
2796.30-54624 39549-26978-126408 46342 18278
2799.19-94212 16925 125384 235001 438846 266136
2802.09 47259 27964-78369-159866-3727 224512
2804.98 154327 121847-88976-71192-168621-11958
2807.87 87508 43 20057 169701 199765 24194
2810.77 11743 34559 80908 226897 242985 114816
2813.66 27191 49212 89300 263131 252206 219122
2816.55 152764-111519-90081 192692 361067 429050
2819.44 327239 58599-38625 116465 148642 149149
2822.34 346426 171704-12247 87807 144211 117902
2825.23 2605-20497 190685 287320 228611 465178
2828.12 544235 532434 557612 438159 422911 355890
2831.01 354054 360952 471817 446316 266491 144815
2833.91 225454 276702 303599 265412 335335 496255
2836.80 689607 807790 800584 841960 810166 777909
2839.69 649160 723927 897588 873664 936440 1274109
2842.59 1423015 1332874 1377438 1537431 1798238 1955735
2845.48 2130223 2193758 2535992 2811434 3220775 3683402
2848.37 3971904 4322165 4804910 5265395 5702167 6088239
2851.26 6543470 7024235 7213281 7165124 7135787 6928409
2854.16 6631037 6374113 6015208 5891568 5911230 6653580
2857.05 8291697 9357096 8647863 6665308 5306057 5056981
2859.94 5261585 5799385 6353198 6746033 7167799 7078782
2862.83 6781876 6724883 6686443 6378591 5839277 5305007
2865.73 4887591 4463492 4001385 3626432 3272222 3108153
2868.62 2970474 2568957 2266218 2324215 2154749 1771756
2871.51 1565799 1477332 1383045 1371607 1205048 899037
2874.41 560907 455564 605796 1394734 1879019 1655460
2877.30 1343001 1282463 1332467 1397008 1251017 1136058
2880.19 1254440 1330590 1205745 1144583 1089818 1106466
2883.08 1204299 1263648 1211821 1146956 1119475 1212293
2885.98 1321658 1338537 1183361 1113144 1179253 1470308
2888.87 1232028 854231 1186285 1334819 1160364 1144050
2891.76 1160625 1060146 1101587 1236134 1239802 1302672
2894.65 1443377 1503895 1291807 1110698 1104653 1164290
2897.55 1149282 1084465 1179724 1318620 1404832 1527252
2900.44 1435692 1291262 1308487 1341925 1435145 1570736
2903.33 1372750 1192699 1132826 1065633 1145552 1089498
2906.23 1089302 1230992 1350724 1338527 1325212 1285452
2909.12 1347515 1362402 1276752 1383559 1309231 1353735
2912.01 1533666 1413067 1274706 1408455 1432393 1262799
2914.90 1298183 1207654 1164365 1425192 1686275 1699355
2917.80 1712313 1507440 1400434 1541776 1644295 1771219
2920.69 1626534 1528058 1603686 1793752 1825482 1634920
2923.58 1752607 2142042 2046910 1978367 1932661 1830734
2926.47 2010480 2256307 1968049 1969257 2042759 2035268
2929.37 2098208 2088955 2076361 2058435 2009362 2006163
2932.26 2040445 2115715 2188951 2146827 2022489 2095116
2935.15 2198567 2046327 1965230 2233950 2279438 2333065
2938.05 2401736 2390281 2436108 2421408 2198551 2152011
2940.94 2058477 1992370 2168599 2406988 2466696 2414756
2943.83 2366239 2395526 2424904 2660468 3003079 3264790
2946.72 3279457 3047120 3033224 3164037 3423322 3713512
2949.62 3742813 3854984 4006855 4243239 4415947 4627908
2952.51 4750081 4885132 5056395 5198279 5238138 5440300
2955.40 5802996 6121039 6448946 6790388 7052587 7326291
2958.29 7881300 8742363 9715673 10855063 12382999 14335748
2961.19 16071758 17875468 19177953 20031111 20599285 22128758
2964.08 24657612 27636485 30629140 33973639 37407218 41152228
2966.97 44354358 47041826 49185121 51033905 51574372 51432033
2969.87 50348512 48678146 45821891 42687152 39529184 39073412
2972.76 47788607 70138576 75457084 57497524 46500292 43862502
2975.65 43174631 43626578 45978961 48660242 51266985 52988559
2978.54 53900270 53795741 52795444 50883752 48558409 45572133
2981.44 42219104 38676667 35210691 32084446 29064838 26359191
2984.33 24548842 23436617 22183972 19709638 16839400 14609479
2987.22 13206117 11861697 10958920 10162555 9550182 8986531
2990.11 8608281 8300824 7944965 7634012 7422700 7178918
2993.01 7031880 6823744 6591311 6599763 6766939 6917485
2995.90 7112950 7642155 8168981 8563981 9188372 9713813
2998.79 10471145 11151820 11618183 11855401 11970064 11939114
3001.69 11796255 11560347 10895628 9893624 8982362 8109564
3004.58 7678461 9175273 13326546 15302442 12925779 10054090
3007.47 8772917 8665141 9071272 9656410 10416618 11104442
3010.36 11495708 11922605 12007224 11615069 11329102 10950040
3013.26 10515692 9975399 9459710 9021644 8533187 8106596
3016.15 7830657 7580670 7328666 7133647 6983405 6829447
3019.04 6919701 7128610 7203817 7082757 6958930 6493028
3021.93 5985990 5493249 4949080 4537340 5037027 6109173
3024.83 6375170 5361443 4476524 4668192 5073684 5257842
3027.72 5621098 6062373 6392104 6509069 6349949 5948419
3030.61 5656347 5511214 5347541 4884181 4514408 4129303
3033.51 3735861 3122384 2890541 3003127 2735061 2338712
3036.40 2253477 1927010 1797368 1786926 1437635 1226029
3039.29 1340630 1341499 1189112 1006539 915880 962525
3042.18 1005216 703327 652317 624423 664837 784410
3045.08 645215 411784 353971 450372 626521 675421
3047.97 696220 518134 472255 412403 546937 630944
3050.86 547630 332156 417689 688729 522248 277502
3053.75 306684 344284 425634 448086 312423 213846
3056.65 253748 259736 151223 205651 147452 92395
3059.54 186251 269348 322411 339677 222971 146407
3062.43 316450 491944 437788 284992 247083 176450
3065.33 37481 38963 136746 262375 413411 561738
3068.22 383766 455457 525693 268788 53002 47213
3071.11 31471 156266 386080 373897 146635 250269
3074.00 529638 348369 208141 132157 278545 293543
3076.90 225035 293900 255058 149047 216652 348983
3079.79 534587 544426 463456 522542 697448 583588
3082.68 490730 374506 406343 458171 437637 191890
3085.57 208903 335726 428896 567020 254009 75033
3088.47 446296 580073 106288-22921 139507 265399
3091.36 153103 14155 36151 156545 164275 89999
3094.25 243199 216152 42982 36523 200844 180635
3097.15 163744 230317 21837-276315-99516 140273
3100.04 110147-73538-173053-90963-62407-20606
3102.93 465 137769 111021-4939 133947 209986
3105.82 316499 223650 22026-105747-46168 185676
3108.72 214096 46219 83009 146246 256236 334215
3111.61 289707 64099 9964 230120 295762 120884
3114.50 91138 52808 402299 471930 243902 37715
3117.39 97440 38555-84654 12585 30986 230923
3120.29 303805 130780-155101-144068 50574 32103
3123.18-894 85646-54738 68095 237870 115839
3126.07 7281 16731-93573-91698-175042 4375
3128.97 120139 66920-46798-146770-189260-120626
3131.86 108705 375674 329716 188154 307128 318304
3134.75 230585-46302-66678 162956 320567 173
3137.64-214263-22802 107667 111300 313036 460452
3140.54 251598 180218 329313 397771 194677 71274
3143.43 46860 110686 200296 382375 597142 319452
3146.32-98862-214850-28905-102673-15142 333298
3149.21 500674 403764 252323 327092 267319 230216
3152.11 316822 414142 429708 349265 58338 92938
3155.00 257923 226793 197576 178984 210827 107355
3157.89 154252 342679 348487 197628 175072 162746
3160.79 140635 52279 29559-91403 92387 127173
3163.68 5627 274454 287565-64491-65695 291325
3166.57 404663 63820-108903-39102-3967 77149
3169.46 195120 231798 139260-121121-37059 119522
3172.36 108086 109243 72691 52733 133688 263359
3175.25 150407 124904 58317-43858-124827 45837
3178.14 177768 135440 99312 36500 129614 212018
3181.03 83398 93353 17168 177309 426426 362193
3183.93 134437 75270-47815-125776 21047 158873
3186.82 214175 63094-38712-120783-203054-192241
3189.71-199034 157267 379100 336837 251455 81288
3192.61 126361 281979 261611 217049 364680 234849
3195.50 19109 182903 313021 142972 26519-97191
3198.39-98267-217054-73197 315864 366205 99793
3201.28-73423 36748 61913 236005 340761 71530
3204.18-47453 130825 229483 262264 198208 74802
3207.07 55268-12506-188113-147765-85819-390161
3209.96-401100-332400-221478 55365 144718 263434
3212.85 114115-29796 40511 726-28256 28773
3215.75 253829 189652-149058-104604 108753-150627
3218.64-291332-142682-77196-66177 10803-28513
3221.53-137142-33613 15815 68157 118115 799
3224.43-49425 127334-16862-143290 79903 343543
3227.32 343838 169761-22550 105735 138775-208491
3230.21-329879-116979 65553 16100 265208 411105
3233.10 258643 277675 35004-228328 69892 281471
3236.00 105421-49139 109064 379435 235599-73681
3238.89-144519-37933-50422-195060-43156 164507
3241.78 213329 228591 202154 59823 34846 40579
3244.67 120719 169056 156139-109-112635-72177
3247.57 24517-1049 98804 133776-10259-30511
3250.46 31084 189170 144203 45950 57927 171979
3253.35-85972-206116-55806-49461-15274 76724
3256.25 96009 80847 50775-129584-394351-384747
3259.14-231503-100628-39322 8730 23890-84913
3262.03-36628-32225-139938-67044 132939 107781
3264.92 171078 189631-6070-112741-147408-169464
3267.82-169260-209007 7806 73059 16506 23290
3270.71 16644-90602 68913 95300 102677 39669
3273.60-160917-124185 17667 22125-186207-216151
3276.49 101318-92015-338501-222484-85510-54800
3279.39 22971-137052-254659-188508-173341-95223
3282.28 187155-42096-488642-351612 8847 60141
3285.17-4803-66346 27491 137373-84136-6559
3288.07 48570-30093 7072 317346 301522-73995
3290.96-19203 175909-12464-268603-149184 31576
3293.85-28216-147967-291359-110945 207749 291416
3296.74 98740-109015-43205 119060 80624 228951
3299.64 311510 162272-75417-71656-18544-42044
3302.53-196515-245649-327577-247173 148960 300306
3305.42 103151-207962-144322 166744 51508-88149
3308.31-98521 182284 241169 142007 25229-6825
3311.21-30333 117872-8164-144008 10479 155133
3314.10 133079 205037-18784-252553-115867-45989
3316.99 9356-136877-114578-26802 130698 204686
3319.89 156243 29763-46975-41648-26899-90538
3322.78-4588-20863-261060-348097-76604 52640
3325.67 129036 70682-90451 150366 148565-306432
3328.56-312582-194612-195149-81195 298605 170127
3331.46-27597-92109 80520 93240-220416-267816
3334.35-45786 312398 507246 379533 148006-139571
3337.24-187496-139839-68052 153118 12854-169242
3340.13 94257 62427-185949-389764-260037-71845
3343.03 33808 128384-26913 101435 290376 253886
3345.92-30235-74760 177774 303661 176346 80162
3348.81 141238 18417-225524-300975 132319 340565
3351.71 319993 147422 52404 229966 63367 80356
3354.60 152138 149153 125726 63254-39543 76812
3357.49 203637 273228 142076 207613 253787 43888
3360.38 31077 77349 134610 66249 371425 434032
3363.28 61710-98407-95066-200620-75884-91495
3366.17-60163-1987 53358 66093 164648 145543
3369.06 94289 231355 247738 87764-31383-196309
3371.95-218720 59282 129206 186634 133373 159835
3374.85 6004-3174 31382 44237 123256-118521
3377.74-115171-48530-22871-62254-151301-104425
3380.63-184066 158776 475772 332684 113996 5108
3383.53-39420 103267 115945-53831-85892 37069
3386.42 150727 66673 126332 383797 481031 349593
3389.31 424120 375784 262846 254240 302725 229730
3392.20 270546 375053 267433 135972 247016 254164
3395.10 244752 287952 360471 318287 131628-43651
3397.99-205731 110254 443417 417323 525212 248484
3400.88 87384 329256 142085-78122 214212 504384
3403.77 619374 432948 284598 452909 366655-6761
3406.67-92346 147659 252363 404117 297840 331131
3409.56 382489 245943 393067 330788-101243-137427
3412.45 289731 576179 455740 84333 299427 502877
3415.35 188800 340636 836923 747641 514116 609286
3418.24 399943 532371 445191 345496 404448 249585
3421.13 19913-8431 21370-53483 7293 136537
3424.02 16006-40193 206036 343996 606014 225098
3426.92-54751 6745-118324-471259-354439-9856
3429.81 116950 180052-95438-500250-439491-244474
3432.70-47189-4884 106011 140975-114276-144520
3435.59-189743-178994 18432 41435 81497 201862
3438.49-53447-178187-168405-223674-277605-430093
3441.38-487806-129521 343307 382470 26787-154585
3444.27 133927 76884-162131 65684 186919 27328
3447.17 38981-15663-299507-342699-340617-158354
3450.06 226174 313369 245861 105283 28003 189623
3452.95 257297 173450 120384-109069-311221-363511
3455.84-128308 135817 14453-63755-87994-107095
3458.74-232460-109941-60515 53682 141671 41074
3461.63-294271-162037-2330-218879-204395-73487
3464.52-76577-145241-291981-288760-180607 32833
3467.41 92470 106059-74519 33272 243680 83689
3470.31-261904-407011-256019-126176-186525-452867
3473.20-404932-277299-224029-107550 4685-10682
3476.09-276124-169582-87853-107406-16140-1975
3478.99 23075 12801-16518 9741 23762 54727
3481.88-126292-283758-190641-246241-435969-294924
3484.77-163674-1165-21558-160109-117864-218632
3487.66-46299 72069 59523-8185-101191-113062
3490.56-140433-121068-100465-190864-222998-438223
3493.45-409961-175796 186534-4740-156334-153304
3496.34-105627 83598-6050-70487-59434-202398
3499.23-332430-191446-103633-134321-117879-146536
3502.13-116290-109760-284736-354438-441028-396814
3505.02-160340-156016 3701 52120-145705-114309
3507.91-110723-241262-138325-214486-226105-163035
3510.81-95188-62844-349403-385181-244291-281883
3513.70-141313-211819-342922-202889-196720-52588
3516.59 106978 70730-37942 9425 8313-233839
3519.48-334304-217411 79223 39703-87387-80514
3522.38-216605-181445-111611-128873-65844-237344
3525.27-380975-232034-153148-165826-203481-209468
3528.16-156829-47080-188249-182817-297356-269297
3531.05-221646-403019-266161 52702 28743-42154
3533.95 144382 89840-12801-179153-358192-339932
3536.84-409741-286582-29554-277972-489393-128550
3539.73 189101 195120-58033-30874 220656 27649
3542.63-352414-436746-310770-198459-287863-219955
3545.52-168988-210086-233448-19652 68752-21290
3548.41-97180-224850-319635-460717-281577-122265
3551.30-299099-80537 147483-111541-125007-39387
3554.20-116107-305392-578407-359153-126685-122520
3557.09-60177-84699-117155-123894-46287-173550
3559.98-110634-77915-138756-34740 38559-85512
3562.87-86247-18590-113220-30385 10992-51500
3565.77-132788-99671-173988-457969-642327-393455
3568.66-273940-348696-245751-110961 33852 92344
3571.55 187178 39564-352868-284724 1537 52821
3574.45-99099-158642-203286-255172-280240-215699
3577.34-131686-97366 11540 20962-118210 31415
3580.23-50252-309979-71684 198226 66596-104701
3583.12 7132 19213-178728-288074-352969-247090
3586.02-364550-389461-270425-298257-401269-517943
3588.91-318271-164046-212356-284809-159431-38990
3591.80-23384-197835-272396-98276-20538 57577
3594.69-307668-499715-242152-266421-155326-142803
3597.59-139272-145735-96499-187629-249539-261519
3600.48-345707-419816-286261-102840-205478-195365
3603.37-245372-296563-302938-272665-254283-230794
3606.27-344799-327693-111510-207636-375494-908809
3609.16-992058-427837-84753-60846-145835-254053
3612.05-393206-172144-164389-246984-72208-101178
3614.94-423362-488157-402987-236542-315422-323631
3617.84-89517-24971-501617-768433-502250-582704
3620.73-500387-162073-83780-65222-83647-127722
3623.62 34106 124275 9800-211210-320370-22798
3626.51 142907-179646-591674-931977-623509-752285
3629.41-572849-4455-32460-94023 38606 302531
3632.30 181841-177607-384921-165760 119837 107557
3635.19-167865-307142-28459 100529 141801 231425
3638.09 129094-47143-101482-40561 90466 161669
3640.98 74066-40583 50464 107467 232557 402806
3643.87 288161 42420 217108 303222 204025-23729
3646.76-313723-199923-6885-272225-625246-127839
3649.66-23367-265306-325090-155725 40376 61717
3652.55 16608 56043 199240 158742 51599 30391
3655.44-97914-142362 271586 357423 347479 324906
3658.33 200947 92205 186586 253125 146392 98949
3661.23 192155 281241 313788 169721 178846 288737
3664.12 253079 214401 337933 294554 97329 120899
3667.01 95127 217042 126568-70336 114747-174237
3669.91-710780-901140-216237-98842-214358-274288
3672.80 12001 115138 28386-421828-622988-772722
3675.69-684708-144366 20555 317844 367178 248605
3678.58 206788 81690 107518 351941 321290 128725
3681.48 159884 85184 207485 253183 156473-7317
3684.37 38855 29141 73591 147196 214451 146472
3687.26-118067-1000432-930652 214539 521668 252694
3690.15-29640-404990-267842-92849-72460 270110
3693.05 295944 159486 75549 7962 148170 171105
3695.94 90937 121211 296046 392994 527471 413417
3698.83 239078 303939 423520 505927 185094-122237
3701.73 60104 212692 37736 151023 343141 225429
3704.62 174513 259052 231748 188259 66686-37492
3707.51 131696 276548-24096-111514 82167 177658
3710.40 234672 32151-766012-933389-144209 163482
3713.30 302786 214139 114030-11280-76742 19334
3716.19 155101 36252 9531 139594-75687-201526
3719.08-21841-16612 90581 4515-117660-198582
3721.97-78788 26656-94502-217947-44835-64048
3724.87-110144-174623-424858-501983-166751-168070
3727.76-69554 86667 124173-182872-268527-197450
3730.65-217445-374115-676004-619507-305936-168239
3733.55-224665-583301-641103-406895-396987-913798
3736.44-1008686-456230-241163-242404-295761-396656
3739.33-344915-26695 194978 364581 507967 302549
3742.22 198219-69626-608666-1429121-1914244-1102893
3745.12 27084 481359 429988 304373-49450-168624
3748.01-255-610939-1143715-340219 271626 334809
3750.90 234452-591591-1085573-274377 132920 225691
3753.79 583513 703098 593354 425594 246433 246276
3756.69 503987 584787 626263 890745 677898 466689
3759.58 528103 629521 771445 902737 942303 867691
3762.47 821612 885891 954424 971522 1144059 1011338
3765.37 899213 1184535 985564 819755 855471 874667
3768.26 855927 770310 541535 600473 768858 853059
3771.15 906891 889479 830715 728274 612365 674432
3774.04 686846 727111 551153 344570 463117 471127
3776.94 483030 522910 286343 118608 131332 262868
3779.83 151669 123537 225462 226596 254509 220060
3782.72 259556 285721 91365 13596 230977 201793
3785.61 227834 323937 380040 350974 400591 520744
3788.51 322565 150890 273049 370770 407375 321202
3791.40 419374 627853 678024 556936 444787 312406
3794.29 195551 243712 274134 102556 308705 449361
3797.19 347972 607349 690105 634863 616722 572890
3800.08 429172-272951-598653 145267 310105 203132
3802.97 288562 636064 847297 602068 543614 647932
3805.86 424047-293502-158766 410163 539798 802082
3808.76 874661 868617 546319 292756 420173 558834
3811.65 492285 455182 734182 705555 653539 827170
3814.54 653314 112070-644125-112611 691392 898277
3817.43 820324 789232 750902 662682 306809-155664
3820.33-279115-23565-166743 1034 446433 511486
3823.22 319188 197061 176744 326036 421760 324100
3826.11 225152 276749 255125 237979 326017 40319
3829.01-195723-28353 67854-125163-537902-512935
3831.90-270684-77497 7306-240138-284787-535401
3834.79-455623-330090-295415-384203-920757-1738859
3837.68-1338458-383603-321306-442613-492376-547843
3840.58-589066-492510-493625-430078-664125-807950
3843.47-676423-351672-335116-667193-708883-513392
3846.36-508118-319571-127952-183619-218498-162809
3849.25-245806-261535-128502-496505-1321663-1521897
3852.15-843626-704550-1404079-2335012-1767341-368351
3855.04-125086-290879-339163-445964-450293-116070
3857.93-52925-60217-15264-60228-309456-343905
3860.83-378075-284921-155502-183559-190229-282269
3863.72-361079-465077-723161-438347-261297-229716
3866.61-146440-7094-217503-450622-538083-673329
3869.50-1303071-1108349-537660-334832-170957-342336
3872.40-319654-283621-614958-707082-372058-134518
3875.29-44657-69374-300828-349533-135867-206839
3878.18-228638-457547-618982-763975-774969-362687
3881.07-322291-523718-542181-268390-136510-19184
3883.97 43395-168808-701927-727259-489190-260782
3886.86 28679-63375-107466-62524-153709-127547
3889.75 27454-134728-485094-325912-59827 52506
3892.65 88881 260846 226975 19396 93352 271850
3895.54 182904 181665 445493 475885 356111 255339
3898.43 44361-116555 241856 255193 41695 177122
3901.32 33072 6049 270483 342330 294167 138447
3904.22 295106 265387 277541 311698 155297 246248
3907.11 396032 396396 399762 258676 19782-81016
3910.00 11272 139103 108472 109005 3658 73210
3912.89 156851 211490 208284 49523-71278-49867
3915.79-94308-46429-174943-144099-167724-382611
3918.68-360188-552204-670533-514789-319802-173843
3921.57 3716-264539-373481-348400-295847-284045
3924.47-259193-2106 15299-123042-33450 70864
3927.36-9595 26684 107564-57604-38307 113539
3930.25 310598 312501 193313 92798 8911 65241
3933.14 174772 317282 421042 551924 279932 116462
3936.04 224181 388914 598000 468230 186890 276694
3938.93 474387 487304 385197 568847 730306 485490
3941.82 186952 135405 220787 574426 781293 671511
3944.71 742834 574438 398865 543598 827048 941509
3947.61 867179 818052 697600 455459 548815 493319
3950.50 491647 596809 722365 800204 906351 997114
3953.39 1073872 952552 621766 489344 448177 661111
3956.29 947205 1252508 1251158 876146 697425 901722
3959.18 1105318 1050348 784198 611131 487792 563128
3962.07 572911 664777 804399 855043 725520 462621
3964.96 468972 423289 253356 178446 371592 377761
3967.86 238859 362927 376009 136326 115382 114830
3970.75-56908 66336 33078 28774 3548-202643
3973.64-373431-128980
##END=
