##TITLE=Trichloroethene
##JCAMP-DX=4.24
##DATA TYPE=INFRARED SPECTRUM
##CLASS=IUPAC A
##ORIGIN=NIST, Analytical Chemistry Division, 301-975-3108
##OWNER=COPYRIGHT (C) 2000 by the U.S. Secretary of Commerce
##DATE=00/02/01
##$SPECTRA VERSION=1.10
##$UNCERTAINTY IN Y=2.1 % relative (B=1.1E-04,C=2.4E-09,D=2.3E-13)
##CAS NAME=Trichloroethene
##CAS REGISTRY NO=79-01-6
##MOLFORM=C2 H Cl3
##MP=-73 C
##BP=87 C
##$NIST SOURCE=QUANT-IR
##SPECTROMETER/DATA SYSTEM=IFS66V (Bruker)
##INSTRUMENT PARAMETERS=KBr Beam Splitter; MCT Detector; Multipass cell
##STATE=gas
##SAMPLE DESCRIPTION=Trichloroethene Primary Gas Standard
##PRESSURE=101.3 Pa
##TEMPERATURE=23 C
##SAMPLING PROCEDURE=1 L/min Flow
##RESOLUTION=0.9640
##DATA PROCESSING=Happ Genzel Apodization
##XUNITS=cm-1
##YUNITS=(micromol/mol)-1m-1 (base 10)
##XFACTOR=1.0
##YFACTOR=9.0949E-13
##DELTAX=0.4820
##FIRSTX=575.17
##LASTX=3974.605
##FIRSTY=-9.72E-08
##MAXX=3974.12
##MINX=575.17
##MAXY=.0009455
##MINY=-1.80E-06
##NPOINTS=7052
##XYDATA=(X++(Y..Y))
575.17-106976 339995 3448978 2198692 1877671 1733339
577.58 2614841 4392203 5508658 4927421 2839259 1403550
580.47 303359 1978644 3891685 3356254 1788450 827827
583.37 219581 991602 1448902 1883429 1125921 330876
586.26 850329 402842-1537113-439795 297352-934220
589.15-841233-920159 73235 1098305 1537275 237006
592.04-164979 279414 254644 560256 481742 1084192
594.94 1227948-69689-757060 509951 1684242 2236491
597.83 1640008 1036032 402150 129227 1099601 1800406
600.72 1260755 1054520 1695798 2187486 1770765 1736676
603.62 1778850 1368855 689275 1630280 2958739 3288657
606.51 2925384 2709123 3254971 3943139 4842215 5789917
609.40 6393102 6327205 7643537 8683754 9027853 10106492
612.29 10952669 11323820 12028549 13263354 14797157 16521938
615.19 17885542 18586087 20255046 22981757 25992513 28358444
618.08 29680238 32417894 36313208 39266160 42373416 46544995
620.97 50259194 53601335 57402637 61810457 65577751 69542901
623.86 73081030 75892554 78977373 82243560 84925593 85841217
626.76 86734480 89268764 90573192 90596853 89934304 89614971
629.65 89728733 88614080 87219113 85492083 83129037 80283907
632.54 78378071 76944388 76650120 77402672 79432915 84656951
635.44 90652513 94931144 97472694 98428466 97135662 94350196
638.33 89856120 84868176 79373126 72351261 65373934 59134979
641.22 53037241 47021501 41686783 36612307 31824661 28775504
644.11 25791663 22872232 20811579 18900396 17129791 14993421
647.01 13306727 11790072 10675238 10368157 9330289 8127170
649.90 7491559 7119276 6725272 5687283 4544629 4209233
652.79 3968976 3409359 3211699 2826091 2370442 2103620
655.68 1818847 1688344 1636637 2141874 3021706 3194432
658.58 2647550 2134231 1649141 1475371 1930873 2340737
661.47 2008610 2079275 2331613 2222270 1925679 2002215
664.36 1773067 1063502 1130199 1536221 1617493 2051128
667.26 2469168 2127404 1484400 1263530 1677434 2004917
670.15 1608188 1477601 1629465 1846913 2034120 1826102
673.04 1345492 972249 1166798 1202464 926154 656012
675.93 1129970 1441229 1246782 1237333 1508301 1405700
678.83 1369903 1461747 995637 452350 1286233 1636154
681.72 1593921 888628 467444 525975 1232485 1364543
684.61 1142524 610014 255090 86904 391529 859373
687.50 584645 322492 552724 990624 762673 85527
690.40-209958 64902 259360 240628 389479 392720
693.29 444730 451911 30377 229136 138790-245868
696.18-154063-141472-133525 255502 368610 24862
699.08 176142 81385-225976-110767 180613 298064
701.97 128125-152995-417163-287362 214271 440740
704.86 226483-84504 300904 198170-276090-51599
707.75 137841-39237-165447 281653 445126 268797
710.65 587627 373984 117605 144067 161175 177443
713.54 336664 378209 353043 357685 395578 105257
716.43 399884 880953 736811 188585 486333 562155
719.32 330137 203065 431978 990317 1082025 514046
722.22 218230 150077 729122 975985 808589 965229
725.11 1431807 1071069 525577 293057 517091 1017086
728.00 1302986 1304275 1427293 992446 912626 1015799
730.90 1186944 1133475 1192362 1182384 1089265 661067
733.79 829281 1379267 1335793 1162858 1667023 1794350
736.68 1605019 1561757 1509657 1375903 1563189 1919379
739.57 2042572 1874490 2159513 2411988 2443719 2000999
742.47 1913454 1959660 1961112 1692365 1932100 1879452
745.36 1927702 1781544 1857631 2192043 2273530 2026135
748.25 2270003 2482745 2540590 2413287 2418817 2581243
751.14 2509774 2147863 2360522 2662907 2981659 2562443
754.04 2427640 3207063 3919274 3964474 4382895 4924859
756.93 5051829 5201297 6363390 7489243 8645563 9609514
759.82 10602743 11833990 13405858 15201832 17488352 18959680
762.72 21328646 24215541 27528999 30080397 33415238 36541716
765.61 40390394 44224203 48623088 52382950 56580379 61462131
768.50 66481522 70538963 75320626 79159808 82921825 86470887
771.39 90851044 94664033 97843638 99462131 101277165 102097935
774.29 103991764 106449015 111876147 118133165 123488796 130804978
777.18 143541401 142217920 133503241 123057082 119374201 112546301
780.07 104112429 101635847 134036709 276265719 595199229 704316341
782.96 370641795 129434953 90611260 94822793 99413553 105727786
785.86 108968511 112469271 114423821 115691585 114964709 115778130
788.75 115311710 115208729 114098995 113309146 111236231 110225149
791.64 108077803 106190333 103337350 101308163 99280566 96850200
794.54 93458988 90964967 86272187 81059828 75477119 70113292
797.43 65343838 61499366 57083416 53016830 49686851 47273519
800.32 44135703 41054658 37859492 35418060 32463280 29160742
803.21 25746352 23651726 22345921 21415021 20437682 21099510
806.11 21430434 21837778 21823521 20954501 19917111 18844507
809.00 17038636 15761073 14184287 12374428 10570828 9232352
811.89 7872807 6909536 6122218 5603964 5050542 5311045
814.78 5124240 4809692 4657585 5312418 5806135 5798437
817.68 6233149 6761368 7203198 8329477 8729758 9422933
820.57 9850219 10690317 11518464 12850271 13890908 14594033
823.46 15214837 16889245 18410513 19934047 21490646 23424236
826.36 25925285 28781707 32181365 36156716 40106998 45372790
829.25 52217772 61134587 71058679 82368782 95006853 108980489
832.14 122925116 139469303 159786418 182343327 207068253 235023987
835.03 265331278 297539248 331092305 367030568 404208382 442284498
837.93 479387829 516204356 552386504 587994165 620748286 652096793
840.82 681062334 707626791 732327115 754296687 771074116 783343617
843.71 790044274 810124926 846207910 865921007 837773317 752841617
846.60 677767982 694737785 780950958 884891715 996929445 1039661540
849.50 1008438271 979840113 812419909 687757861 704488440 744002289
852.39 775571978 792000617 792721659 775853208 741631721 691104846
855.28 627744839 553508814 474465311 394393230 317632670 247466998
858.18 187214574 136717034 97044677 66788491 44962685 29947750
861.07 20234203 14314727 11241361 9019931 7925455 7345093
863.96 7032723 7700438 7110268 5609673 5377517 5244619
866.85 5354351 5486937 5672755 5467576 5139656 4885758
869.75 4732277 4800240 5065216 5025979 4727134 4532978
872.64 4560392 4200506 3964709 3789613 3622815 3851912
875.53 3911963 3589270 3600712 3534540 3336705 2811413
878.42 2818536 3082326 3013643 2921217 2660298 2205776
881.32 2161079 2161096 2460469 2544672 2631941 2753341
884.21 2600963 2750094 2907600 2797910 2930583 3036911
887.10 3341759 3658558 3792498 3937990 4213773 4302183
889.99 4570067 4998848 5220524 5254645 5867385 6433089
892.89 7052586 7740053 8168614 8223116 8968361 9975385
895.78 10776378 11649441 12693097 13705252 14749891 16089605
898.67 17255583 18442789 20150878 21708119 22975043 23890383
901.57 24734812 25798626 26629089 26865244 26955683 26568416
904.46 25975059 25000584 23823764 22408074 20876975 19970755
907.35 19621263 19962096 21554586 24273816 27151639 29840554
910.24 32438266 34450545 36005215 37277606 37902351 38060058
913.14 38186666 38499099 39016654 39646083 40378333 41663757
916.03 43366942 45401843 48147458 51251285 55076505 59147605
918.92 63835594 69460764 75374689 81503453 88549881 96189947
921.81 104520764 113877344 124293870 135768012 148132258 161662061
924.71 176877027 193552000 211428570 230939299 252370245 275478214
927.60 300246480 325817020 352821129 381298436 410954851 441350588
930.49 472016430 502000441 531018920 559219734 585156427 607804594
933.39 627108388 642467415 653310895 658729821 658972489 654200468
936.28 644963617 631392815 615237749 596677415 579382772 565555634
939.17 555973559 551315669 555026916 565267853 584763202 611213087
942.06 642795817 677098982 704856387 733470019 755344001 759993695
944.96 748897595 724720926 688552842 645298218 597615726 547307886
947.85 495243127 444399780 395816400 350692294 309298246 273048693
950.74 241469271 214573295 191535673 172042327 155730670 141805108
953.63 128617063 116566103 105788691 95718216 86063169 77037181
956.53 68590735 60806938 53650771 47065840 40728206 35174937
959.42 30407647 26504491 23032914 19936787 17191812 14848361
962.31 12834963 11339661 9923957 8991050 8235209 7653877
965.21 7258590 6778235 6320073 6331655 6523558 6844716
968.10 6807273 6797096 6737810 6845859 6917663 7053552
970.99 7068549 7188227 7496224 7856130 8004937 8325926
973.88 8742557 9213258 9990314 11047831 11686502 12458223
976.78 13387757 14290232 14890626 15391704 15727214 16069795
979.67 16236053 16155023 15655153 14879436 13939296 13346398
982.56 13277739 14082248 15096506 15087661 13781382 12469009
985.45 12295497 13775271 13568703 12905472 12911651 13014986
988.35 13035972 13018497 12994297 12899211 12837039 12715485
991.24 12169336 11608853 10928341 10108529 9426150 8800396
994.13 8082062 7362527 6653136 6095785 5682138 5412873
997.03 4974333 4530565 4433393 4449117 4362580 4566562
999.92 4819495 4861179 4616286 4736270 5147465 5230045
1002.81 5063200 5570097 5999315 6268605 6168303 6485132
1005.70 6916867 7202038 7551921 7637585 7917208 8439163
1008.60 8983532 9185477 9217816 9248056 9170423 9401885
1011.49 9795824 9983829 10193436 10336096 9934328 9947345
1014.38 10245760 10519403 10534046 10458159 10169218 9988298
1017.27 9880769 9735924 9329513 9267307 9182834 8991807
1020.17 8937034 8859116 8674261 8995053 9088217 9269578
1023.06 9318106 9167421 9019592 8617561 8044497 7885916
1025.95 7343723 6578768 6182384 5664060 5137054 4700705
1028.85 4319274 4121019 3727724 3295052 3304761 3276929
1031.74 3190359 3038303 2728382 2418365 2390885 2608094
1034.63 2300365 1990474 2150963 2252900 2063976 1731144
1037.52 1514804 1650124 1936400 1989537 1720997 1419182
1040.42 1291606 1514349 1597074 1500585 1564054 1519777
1043.31 1483480 1455407 1558174 1599283 1529360 1357320
1046.20 1393154 1287224 1031561 1246720 1306065 1225190
1049.09 1348149 1396556 1298684 1186614 1157707 1230994
1051.99 1107067 858566 927058 1153002 1219825 1068367
1054.88 982743 968221 820507 869061 1110749 804239
1057.77 674744 892459 771165 568336 461606 838959
1060.67 933841 694696 568566 561366 563197 625003
1063.56 544599 636854 825007 744883 641211 813422
1066.45 944768 887013 631995 371188 398013 621223
1069.34 645568 491842 767701 888656 585852 316704
1072.24 384198 559560 774028 935697 732706 539771
1075.13 562888 829808 862740 840582 685376 597084
1078.02 576760 527846 627547 642657 434327 479170
1080.91 677045 668904 579297 453164 395461 679043
1083.81 651163 434182 450190 753591 862788 760966
1086.70 735156 724076 690490 794309 890704 996620
1089.59 880162 693898 729857 684717 531470 546930
1092.49 566782 718999 920544 802032 727690 902651
1095.38 1068400 1175659 1299178 1427752 1494581 1482705
1098.27 1484406 1475193 1529675 1394320 1451239 1905675
1101.16 1911795 1982137 2174644 2297493 2265994 2265009
1104.06 2448484 2725152 2695657 2660647 2616182 2551414
1106.95 2533374 2854486 3075522 3117096 3084865 3117938
1109.84 3301934 3393050 3171499 3062034 3314854 3518830
1112.73 3542041 3632603 3752425 3594178 3559261 3645355
1115.63 3778954 3727356 3563264 3320109 3143100 2866501
1118.52 2682125 2689056 2649171 2525008 2656986 2686421
1121.41 2353799 2042013 1951802 2023115 2259431 2372194
1124.31 2183965 2402872 2323754 1980099 2020202 1938417
1127.20 1877480 2095799 1951210 1572869 1465913 1591506
1130.09 1500099 1418944 1358195 1399848 1319365 1188547
1132.98 1330240 991210 688037 923044 1029371 1084712
1135.88 1019632 905187 859636 625830 658679 923715
1138.77 997138 890346 897043 1180670 1286497 1218868
1141.66 1283636 1322018 1195503 1091503 854544 845166
1144.55 961791 710865 392263 506579 654997 747121
1147.45 636230 639812 732209 815459 889522 795427
1150.34 701034 608512 453502 349940 351564 455968
1153.23 553481 706107 575501 437705 224219 305018
1156.13 483728 503239 252029 228795 304383 207424
1159.02 310855 455628 428751 417326 251240 113876
1161.91 317786 493491 279643-18626-155274 150886
1164.80 428320 408095 358238 254074 229393 107973
1167.70 122643 318856 287785 194401 225976 191011
1170.59 221124 217043 251267 431940 446641 510964
1173.48 568299 520228 519838 475579 482774 481327
1176.37 413483 452228 366276 481491 526727 389307
1179.27 500956 548286 503018 579738 546043 634648
1182.16 735655 707670 704541 742143 593512 524598
1185.05 414695 369363 578450 747400 618581 529464
1187.95 507221 458718 503127 690637 768671 794210
1190.84 714194 630447 679288 731518 737628 683767
1193.73 697382 792214 789689 904136 882464 772628
1196.62 708672 764183 896944 1036796 1086039 1161557
1199.52 1020125 953211 1324230 1666350 1599052 1522077
1202.41 1463558 1480204 1759884 1996996 1817940 1531849
1205.30 1727244 1905202 2166617 2387080 2378808 2597413
1208.19 2598208 2415540 2531103 2793736 2968906 3039913
1211.09 3177252 3391311 3506715 3581804 3896209 4104460
1213.98 4216530 4435967 4615087 4686477 4998527 5230163
1216.87 5313952 5553447 5900231 6190554 6441586 6668832
1219.77 6960415 7322309 7571938 7917914 8277684 8665377
1222.66 8914848 9406178 9965940 10435563 10969482 11412365
1225.55 11800043 12161800 12396679 12728640 12860673 12768461
1228.44 12698441 12444651 12209602 12031929 11673983 11668943
1231.34 12246952 13550144 15031224 15462456 15186927 15719095
1234.23 16831558 16874876 16863638 17688259 18671317 19971854
1237.12 21293369 22617217 24193050 25799301 27450838 29375474
1240.01 31612480 34044144 36441688 39024407 41995300 44985298
1242.91 47899745 50539041 52768531 54691133 56225135 57197088
1245.80 57570533 57227534 56212004 54866256 53332656 51282910
1248.69 49171540 48912818 52016387 56377495 58619388 58694539
1251.59 57795460 58688017 60848983 63190692 65102841 66165618
1254.48 65756111 64945254 64362437 63353157 61439580 58554653
1257.37 55782900 53662188 51590321 50225385 48919126 47108835
1260.26 45145582 43175980 40800510 38450361 36155748 34201869
1263.16 32262573 30035560 27992214 26346120 25005731 23667854
1266.05 22421032 21417600 20612693 19935791 19563172 19539849
1268.94 19012030 18221439 17381633 16545881 15677113 14706353
1271.83 13657673 12414819 11146576 10150171 9233161 8393400
1274.73 7454645 6732421 5901254 5363260 5078173 4650294
1277.62 4274471 3948647 3501882 3195306 2986781 2876134
1280.51 2607528 2386672 2276901 2060389 1747475 1510240
1283.41 1344115 1509273 1395604 1225114 1088491 963659
1286.30 858114 821166 677736 590001 561843 633932
1289.19 803628 843492 829557 980906 976284 590840
1292.08 341950 347724 472534 463411 392123 525923
1294.98 492393 453847 604530 825557 760583 705756
1297.87 896634 848760 573886 674410 925173 970418
1300.76 961836 849788 882833 865317 957134 1185207
1303.65 1086667 1090933 1266306 1317479 1358814 1441550
1306.55 1495661 1597111 1698388 1615835 1731426 1826885
1309.44 1871503 1942530 1889757 1920760 1825665 1892464
1312.33 2076211 2154570 2231546 2193098 2170182 2351674
1315.23 2409090 2340574 2254963 2416487 2464833 2307116
1318.12 2329503 2297757 2237693 2229355 2286381 2338910
1321.01 2443696 2399009 2195063 2148434 2091251 2017765
1323.90 1988862 1917871 1978015 1884007 1748410 1684969
1326.80 1676541 1821443 1821889 1712735 1598884 1640515
1329.69 1620538 1294397 1133444 1179225 1257386 1361766
1332.58 1121515 934583 907600 797118 730291 898844
1335.47 1007780 832336 695706 737298 804907 688780
1338.37 723344 836590 670299 594435 625874 722061
1341.26 599730 544120 542495 570510 753159 922003
1344.15 719330 498812 532343 831771 865290 548806
1347.05 499621 612297 783996 525006 287548 256348
1349.94 329767 512580 489977-230143-981512-529391
1352.83 135513 393339 408608 127892-298155 80153
1355.72 466286 431110 580771 522482 471256 796999
1358.62 697988 624017 778832 667305 438592 411556
1361.51 263045 252722 236161 370433 722071 828627
1364.40 781487 776928 864085 894477 896853 895804
1367.29 856882 882654 937875 770064 526383 544674
1370.19 788807 820757 700689 878240 954542 743597
1373.08 525007 759907 937785 1171570 1502274 1392194
1375.97 1272142 1325373 1124004 879038 802921 1080476
1378.87 1279404 1360426 1204842 1209400 1278993 1053522
1381.76 1046244 1064946 1111981 1352120 1551649 1680442
1384.65 1414173 1325392 1267087 1046818 782211 500980
1387.54 878358 1077573 1155531 1180853 1322810 1246337
1390.44 1126199 1252684 1185353 1116776 1054149 963669
1393.33 899961 732160 683732 881655 918983 1007677
1396.22 1205376 1069091 835119 859644 761140 640690
1399.11 831572 1030732 1080452 1095798 1104871 1111298
1402.01 1261851 1377680 1233902 933913 747513 773852
1404.90 934646 1038818 1038621 1001168 1077141 1122390
1407.79 1294445 1347668 1107793 1106601 1298407 1311729
1410.69 1123229 1131268 1186007 1213396 1199307 1264867
1413.58 1361427 1416942 1512217 1262582 1025971 1219678
1416.47 1352336 1320390 1217606 1177515 898676 540864
1419.36 1102683 1571112 1560717 1502971 1557795 1713188
1422.26 1653367 1480628 1290121 1316500 1433928 1656303
1425.15 1794016 1769108 1742257 1612159 1539254 1591852
1428.04 1583875 1510277 1262243 1078606 1367402 1439723
1430.93 1260306 1245119 1308334 1162571 979228 1152637
1433.83 1081969 888864 937010 918625 375545-239772
1436.72 290906 868121 830257 710870 803532 986588
1439.61 998796 857361 779997 875217 964723 860077
1442.51 796899 665580 649775 579329 635881 787183
1445.40 805424 785385 579823 399531 240590 402646
1448.29 652636 684835 750044 683482 699328 774053
1451.18 669320 626160 720070 638938 641924 866025
1454.08 930296 727335 601842 336349-671692-884191
1456.97 102797 357974 403810 615554 646548 626127
1459.86 626654 680881 769859 737211 679814 708315
1462.75 809223 783484 601171 126375 316370 786740
1465.65 797610 905222 926356 740067 572967 657614
1468.54 690085 666687 736150 672093 615307 495518
1471.43-77856-80901 112877-76703 117245 540032
1474.33 624102 646453 448966 174484 423667 755203
1477.22 771320 625397 566617 617708 625583 581716
1480.11 619717 615424 650820 800726 869820 760191
1483.00 666679 666576 567182 588110 754366 737744
1485.90 558578 401048 299785 426526 548350 646743
1488.79 620936 495429 247039 102707 370434 733858
1491.68 713710 748844 789289 647108 509532 417528
1494.57 398459 277177-472486-355022 305426 448359
1497.47 468486 242215-68365 191367 573174 595741
1500.36 477118 614265 747533 688227 488404 541721
1503.25 551129 429768 304254-540830-1054058-370785
1506.15-610034-1137105-355354 148239 40777 149417
1509.04 272444 349745 528322 614310 622147 462932
1511.93 350554 492793 455834 408770 520722 566169
1514.82 547609 420698 191738 130080-8385 71470
1517.72 551537 741234 610060 433350 195321 20069
1520.61-668641-445104 210444 95435 344572 686505
1523.50 751842 590923 349540 106236 386625 612222
1526.39 539255 602719 812164 650738 643113 882958
1529.29 991393 1100024 1070858 943588 1014164 1162114
1532.18 1138517 831166 774797 1113192 1626440 1957011
1535.07 2132915 2311943 2695481 2937755 3075732 3163614
1537.97 2931479 2196721 3011227 3918234 4225464 5564076
1540.86 6388895 6361670 7024075 8392372 9353706 10259109
1543.75 11156781 11866437 12496874 13738754 15174729 16378791
1546.64 17327220 18552375 19798660 21218919 23095369 25342823
1549.54 27966006 31401740 34619314 37210831 40261827 43822069
1552.43 47595131 51324934 54848625 57619604 60066526 61750075
1555.32 62101848 60840872 58351501 54180591 49074435 43109349
1558.21 37842177 35714290 36917364 43870554 52423291 48346451
1561.11 39946310 39216121 43214634 48032996 51879980 54732656
1564.00 56055941 56174400 55555133 54598447 53001744 50629309
1566.89 47763839 44819118 41609032 38467127 35396071 32330387
1569.79 30281957 28611524 26813104 25560388 24497468 23650895
1572.68 23084095 22951399 22953803 23151515 23448594 23170589
1575.57 22392517 23562966 25384090 26301050 27181143 28314062
1578.46 29447829 30686990 32162368 33620430 35245555 37004074
1581.36 38876027 40955848 42821828 44588487 46428890 47955773
1584.25 49098387 50192545 51070031 51572974 51566167 51116300
1587.14 50320121 49191645 47629417 45867076 43889642 42009486
1590.03 40490975 39484503 39037486 39341146 40910284 43474682
1592.93 46209515 49120115 51538533 53079095 53723976 53237713
1595.82 51816822 49995205 47738570 44892586 41907732 38903413
1598.71 35727291 32680047 29542812 26477691 23792967 21364468
1601.61 19267692 17461505 15813952 14281534 12957441 11989057
1604.50 11099038 10158855 9269356 8335664 7397122 6635678
1607.39 5998319 5421811 4740547 4274155 3845027 3433458
1610.28 2911438 2651583 2424389 2149022 1735198 1494304
1613.18 1325409 1180583 996083 884141 695843 293526
1616.07-771456-523630 518191 644018 521241 527353
1618.96 436770 443111 598257 773501 651945 585374
1621.85 456109 278306-55177-186831 180860 480765
1624.75 541011 586798 596956 525868 359562 257463
1627.64 363844 493184 498148 614745 790671 555387
1630.53 243642 211762 442693 646716 695129 600680
1633.43 502961 345425-117857-895202-876440-46206
1636.32 248736 214670 278878 545042 530287 367060
1639.21 275771 337012 450005 570228 470619 319374
1642.10 318366 276024 306902 407414 328464 148488
1645.00-352472-875847-440072 21127 88909 93222
1647.89 19305 194995 295019 167207 134694 281493
1650.78 176600-316196-1497829-1915419-1982681-1111496
1653.67-290350-323331 68623 205078 174229 192862
1656.57 323478 355832 391444 333043 302409 172974
1659.46 172715 303581 210067 221103 331863 60195
1662.35-206384 134077 353533 452443 447252 377846
1665.25 437299 412315 455283 395678 258820 138169
1668.14 25664-432118-307732 261896 251439 112673
1671.03 62157 207348 211957 362547 564887 519196
1673.92 309012-271181-540185 71009 468764 552793
1676.82 587578 649292 564844 338549 366726 479227
1679.71 472101 454457 503458 609148 712392 478182
1682.60 35140 26154-31065-1186599-1479909 89604
1685.49 677234 658155 665673 766082 731367 670447
1688.39 736456 756529 638978 742097 873696 893367
1691.28 853380 764548 706085 743735 722935 713805
1694.17 565203 79876-1207360-1232702 260549 691144
1697.07 667387 665422 441158 241918-392116-1236110
1699.96-1167181-332472 668292 819788 548252 435968
1702.85 415658 219030-114773-52516 173764-26338
1705.74-271754-118427 219770 430477 396693 326450
1708.64 272744 244266 155924 184918 333459 292926
1711.53 165787 223527 223612 120059-28211-77701
1714.42-224805-42297 386171 440022-43464-1215445
1717.31-814507-62042-15965 322107 431809 389528
1720.21 459448 518345 421769 416524 466414 483864
1723.10 420101 515156 551485 620294 670921 644770
1725.99 527301 435914 445525 543754 623792 512342
1728.89 337196 423353 594345 580667 555981 627674
1731.78 544849 339286-497779-493426-463670-583845
1734.67 320260 724342 710861 725503 729590 732211
1737.56 765059 687224 630544 364677 159201 644194
1740.46 1049319 1035160 797524 696322 766461 843445
1743.35 965567 1151120 1219794 1206514 1192427 1198988
1746.24 1223296 1239171 1426812 1498926 1430414 1422436
1749.13 1579912 1767709 1631223 1259479 1275828 1787996
1752.03 2152498 2128102 2211952 2563459 2630944 2633383
1754.92 2663178 2718525 2627165 2419227 2713737 2951063
1757.81 2881733 2876710 2908155 2848289 2750411 2657661
1760.71 2559324 2216901 2419170 2882068 2897239 2819371
1763.60 2734212 2842871 3014858 2906386 2785509 2810564
1766.49 2750505 2672572 2293370 2302574 2621067 2661543
1769.38 2639053 2443648 2297206 2277950 2341131 1746230
1772.28 1333316 2029779 2477155 2583869 2522982 2384440
1775.17 2252223 2228229 2403992 2489554 2464578 2398886
1778.06 2392758 2417480 2483558 2590411 2525071 2435259
1780.95 2404942 2320209 2502415 2772491 2688839 2576749
1783.85 2518482 2396631 2362719 2466030 2517274 2592540
1786.74 2549474 2510760 2516318 2500461 2583271 2656229
1789.63 2779179 2643528 2461356 2643512 2614744 2041778
1792.53 1903098 1919466 1629020 1563128 1561468 1390283
1795.42 1189482 1223311 1313611 1303198 1290805 1184839
1798.31 1008693 841776 853842 1048348 1036690 886659
1801.20 840050 815615 765509 830711 890020 957047
1804.10 887235 869731 801043 666605 707334 868904
1806.99 806741 702808 689303 643178 631425 609617
1809.88 475718 456793 593245 671311 580807 556705
1812.77 573751 406273 393599 472687 607236 655236
1815.67 581507 546504 582670 562739 552977 557703
1818.56 586785 597073 599159 565575 437015 451962
1821.45 581692 503673 420018 381582 537146 631793
1824.35 386477 266076 595665 652987 378793 389729
1827.24 470524 521899 459902 515633 568684 445434
1830.13 613203 715191 598422 594879 783557 821592
1833.02 714751 634130 686114 762941 823840 777905
1835.92 659806 709502 831825 979401 896751 829785
1838.81 836885 760707 744962 832426 790985 706143
1841.70 721983 717027 599139 418542 74580 222009
1844.59 485141 667581 812867 748748 714097 800120
1847.49 882264 863381 883969 862876 848807 853307
1850.38 853295 910339 1047529 1101337 1127645 1150069
1853.27 1229318 1237714 1153127 1164103 1276929 1383722
1856.17 1454688 1453982 1432833 1486727 1512501 1513491
1859.06 1646158 1761058 1617417 1470011 1486150 1603854
1861.95 1671076 1655948 1669496 1817926 1856660 1843180
1864.84 1800097 1740454 1733292 1769311 1822047 1895996
1867.74 1834657 1630696 1517760 1815744 2056067 1964943
1870.63 1971900 1962783 1822627 1748958 1761529 1642144
1873.52 1510500 1453679 1520834 1538546 1448885 1275513
1876.41 1287327 1401271 1396362 1324722 1429588 1411997
1879.31 1183146 1246825 1368029 1326710 1334536 1407174
1882.20 1279007 1026512 1107791 1168522 1052165 933985
1885.09 851684 861068 883562 940556 932482 854050
1887.99 745267 627706 448328 448070 416604 327684
1890.88 304185 275900 316968 269831 157553 290303
1893.77 330853 210874 106950 103782 203780 375501
1896.66 364519 331793 327137 390857 428360 422607
1899.56 292917 136321 122808 281076 483520 369041
1902.45 259808 276822 393190 475554 417828 377612
1905.34 398011 469570 483798 457677 510277 429918
1908.23 522171 583372 447895 360209 374565 383479
1911.13 511285 509848 408607 311208 494815 762804
1914.02 654430 534056 676791 800109 790472 654012
1916.91 379510 113630 282916 538584 582996 698578
1919.81 677942 530416 554215 657130 610988 520673
1922.70 507238 578545 626135 621731 553236 626215
1925.59 783455 697286 647787 615406 587874 595028
1928.48 620109 631593 630919 561910 570414 759217
1931.38 693815 533511 447266 479375 577632 582554
1934.27 552409 605086 671620 669501 592227 580976
1937.16 680732 618307 536034 510230 533194 656757
1940.05 498293 423723 625554 633365 432347 342865
1942.95 419776 529972 701401 725090 558276 604277
1945.84 603102 494921 701913 734239 711399 708012
1948.73 606995 509942 558321 692256 633881 609445
1951.63 671575 684366 749362 733413 825910 950033
1954.52 875570 826681 828118 786768 748992 699666
1957.41 707129 745258 672291 638835 692340 808395
1960.30 918552 877800 737248 742423 847637 829520
1963.20 835784 862415 920421 945755 896368 846382
1966.09 775634 828265 835216 912082 1012761 964416
1968.98 838619 812597 790203 877422 1003735 1003140
1971.87 1026940 1118643 1145028 1266654 1452175 1248696
1974.77 734702 595864 730716 807731 866295 854563
1977.66 899772 968264 975155 880482 775121 832100
1980.55 772345 679773 708336 860055 940206 1009791
1983.45 877160 661615 642713 819050 876250 832615
1986.34 773892 738644 687619 680506 659672 699026
1989.23 659396 634612 664778 690871 717740 758927
1992.12 806588 790701 804296 717100 676754 708440
1995.02 750281 757730 798427 816302 772528 779000
1997.91 680644 663119 762059 817274 719485 637264
2000.80 745532 811913 817404 935749 852548 788585
2003.69 811028 634019 463338 535295 698731 776733
2006.59 726224 800033 836601 836195 789717 707049
2009.48 702589 749991 760447 651685 701188 751257
2012.37 760247 849173 934326 1007998 964075 834688
2015.27 721760 602660 599441 703370 795676 689245
2018.16 539997 621612 830621 797974 621308 657225
2021.05 782938 835125 717815 624385 641780 769945
2023.94 832023 831826 868185 840273 793934 768394
2026.84 807446 819758 824755 811310 725472 761957
2029.73 882537 946433 938374 790183 837746 978950
2032.62 959558 934086 887109 962918 984049 927601
2035.51 1080577 1083007 831805 721381 689827 827795
2038.41 891370 745819 809073 953404 910843 867008
2041.30 906386 818935 768450 850890 944444 952347
2044.19 921860 869675 917336 939763 815600 805822
2047.09 732312 728650 811892 890570 851046 772356
2049.98 802520 857115 746440 699516 708183 763436
2052.87 785535 756306 729781 885618 949709 958391
2055.76 1036665 975870 876240 827063 705360 781004
2058.66 830518 757805 725993 956865 1078203 983118
2061.55 753201 657819 846089 935422 884296 898133
2064.44 1001605 1074492 1025661 902068 901492 990158
2067.33 1027965 993624 1013686 981732 1033697 1124456
2070.23 1094460 1054255 1042305 994990 971170 992459
2073.12 1127951 1214497 1237156 1183579 1207991 1245847
2076.01 1237096 1189228 1019377 1087005 1284243 1381142
2078.91 1309567 1229628 1339904 1441311 1407809 1184313
2081.80 1131000 1374754 1410535 1282554 1320991 1491530
2084.69 1517509 1481708 1445908 1478050 1575817 1670786
2087.58 1720302 1608659 1631369 1574346 1526980 1592294
2090.48 1791417 1861092 1883282 1898558 1929207 1961552
2093.37 1940419 1898507 1749356 1823061 1897171 1845910
2096.26 1789333 1911388 1929379 1892032 1786489 1676131
2099.15 1845189 2032706 2079360 1997252 1907151 1815322
2102.05 1655691 1419112 1312671 1563075 1629722 1624581
2104.94 1648911 1543661 1411649 1314888 1055375 1183115
2107.83 1298784 1147563 1062326 981998 970223 1046198
2110.73 857508 666081 799753 1021836 1104724 956757
2113.62 913408 932046 778633 534238 777492 973688
2116.51 859278 771747 842933 1064705 929419 581303
2119.40 615656 939036 937995 900636 835651 670362
2122.30 592969 707627 786486 888388 918356 824279
2125.19 734264 859024 907427 775444 501024 606132
2128.08 799417 849347 856017 840132 949485 981974
2130.97 845095 846753 870660 853129 923220 1018640
2133.87 953510 860060 740644 707329 767367 754581
2136.76 774241 768689 791182 959902 1034082 1031191
2139.65 1167803 1100281 891821 828065 973724 920193
2142.55 800460 873660 849291 896425 954989 1061976
2145.44 1077473 958115 904790 1015327 1094839 1099624
2148.33 1050377 942175 924712 951607 902500 1004223
2151.22 1099177 1175208 1117360 1084754 1040749 850198
2154.12 730377 860272 1000617 1016488 1039307 1000970
2157.01 998786 850400 816890 1146267 1217134 1057219
2159.90 969572 1047603 1083938 793329 786447 1147477
2162.79 1164229 1039682 1124089 1305542 1043158 739982
2165.69 998827 1262346 1361468 1263194 1115509 879409
2168.58 655637 906428 1115662 1060024 1012756 1145072
2171.47 1127621 901865 943409 1286953 1312805 1186024
2174.37 1176492 1187405 1084073 969231 1024936 1137819
2177.26 1222974 1290454 1270274 1183460 967190 1108006
2180.15 1193539 1219272 1350535 1347671 1228204 997533
2183.04 1084671 1377657 1371651 1192991 1234511 1181928
2185.94 953725 1035151 1381857 1457813 1368774 1268925
2188.83 1214444 1162475 1160409 1230172 1329399 1468694
2191.72 1417910 1192005 1099175 1215638 1380021 1342083
2194.61 1196423 1191816 1126784 893459 998314 1303715
2197.51 1360574 1317666 1264395 1177888 1100284 1243710
2200.40 1255934 1175366 1196857 1254462 1207002 1122676
2203.29 1134012 1179870 1231831 1184465 1192896 1120917
2206.19 1102897 1193118 1226711 1233000 1303595 1443743
2209.08 1386861 1209833 1197606 1225764 1321821 1409072
2211.97 1389657 1393651 1448108 1525458 1554018 1571665
2214.86 1558299 1484042 1481371 1475736 1491919 1459456
2217.76 1454148 1554883 1689466 1703855 1656893 1639320
2220.65 1611391 1350265 1257720 1451144 1624830 1572740
2223.54 1502022 1458528 1460918 1437669 1543947 1546640
2226.43 1423050 1316022 1352702 1462353 1481007 1370351
2229.33 1383281 1464392 1440473 1291163 1306670 1375665
2232.22 1327499 1245886 1313864 1319291 1231700 1244011
2235.11 1237678 1179324 1198053 1300040 1262629 1220610
2238.01 1158014 1202741 1122127 1151917 1249141 1272569
2240.90 1181104 1119820 1068568 1078721 1154761 1190242
2243.79 1089299 991757 984005 1065270 1203218 1077805
2246.68 959634 950548 965179 1007063 1010765 1153551
2249.58 1156886 979767 988435 1184210 1154058 1154079
2252.47 1145203 971163 1013717 1099952 1065154 1132908
2255.36 1272215 1226812 1081739 1042829 1163839 1244542
2258.25 1181600 1032853 1103850 1175498 1151466 1155749
2261.15 1162493 1123474 1198369 1096666 977557 1108006
2264.04 1128549 1116818 1086507 1039353 1143250 1129731
2266.93 1141370 1140487 1239393 1315061 1113329 899701
2269.83 1043144 1174588 1140707 1110279 1195748 1141449
2272.72 979674 933915 999613 946370 873120 1047359
2275.61 1155434 1161501 1129388 1139083 1172852 983522
2278.50 1041250 1125502 1148015 1218236 1061581 1044548
2281.40 1079435 1069474 1066877 1095927 1049203 1098263
2284.29 1227025 1148034 951155 961591 1084104 1058278
2287.18 1027189 1113728 1102783 1060863 1097627 1068954
2290.07 1040637 1057873 1013529 1030880 1216357 1261500
2292.97 1215837 1165654 1204256 1259208 1185638 1183573
2295.86 1244493 1091591 958402 1050735 1038493 1051191
2298.75 1177536 1208713 1006466 981819 1081307 1145266
2301.65 1107094 945632 1028177 1116500 1062999 1039857
2304.54 1166291 1393533 1426521 1291094 1144129 1173190
2307.43 1254744 1333225 1254413 1176098 1276003 1259848
2310.32 1172015 1191326 1252093 1374776 1472336 1351527
2313.22 1184146 1061758 1084243 1117466 1046534 1162493
2316.11 1307185 1297862 1250677 1228479 1173678 1096677
2319.00 1026879 989163 1033991 1000527 969931 1118410
2321.89 1210915 1128308 1152593 1239213 1227014 1028226
2324.79 975119 1164869 1263415 993687 942557 1081677
2327.68 1068538 975891 995745 1137423 999604 945053
2330.57 1212450 1292021 1022323 858531 1067936 1237259
2333.47 1020402 898621 1081426 1048392 867286 963376
2336.36 1091386 850222 703256 1006536 1045843 780782
2339.25 762853 991003 1032253 1053805 1111942 1071853
2342.14 1016571 1106915 1266773 1200995 1141464 1223476
2345.04 1079730 944791 840515 910438 1089519 1172247
2347.93 1252350 1276688 1113564 996346 1112399 1146244
2350.82 1069130 1094864 1199870 1071096 1010287 1177571
2353.71 978819 979282 1113266 934620 1043965 1189624
2356.61 949912 919824 981875 795051 930107 1001976
2359.50 826287 964742 1110751 922234 950058 926061
2362.39 767153 903644 793993 862813 1008766 815250
2365.29 831611 819376 808128 1133461 1151095 1001157
2368.18 912048 872549 991698 1149903 1071661 977231
2371.07 1053316 1226387 1131924 956934 828686 1000893
2373.96 1318519 1349201 1296722 1172328 1051770 1070867
2376.86 1016007 1070636 1211467 1157749 1212608 1273004
2379.75 1270434 1211580 1120917 1194381 1354037 1331400
2382.64 1160212 1117603 1217761 1295805 1297219 1235118
2385.53 1171667 1129661 1122301 1128620 1218448 1136049
2388.43 1038136 1062728 1282655 1528214 1488227 1400979
2391.32 1224604 1207265 1062662 898494 953616 1225550
2394.21 1258275 1222529 1388718 1391617 1255899 1170135
2397.11 1251240 1374681 1298292 1262991 1230666 1187896
2400.00 1294565 1441432 1442261 1509164 1483937 1387379
2402.89 1206885 1142255 1110402 1249453 1306181 1230614
2405.78 1141560 1268784 1504066 1508038 1384423 1177143
2408.68 1132436 1226527 1248334 1279024 1347255 1311727
2411.57 1320331 1342643 1347645 1408014 1424201 1328662
2414.46 1374392 1421129 1389027 1396792 1455304 1385657
2417.35 1429402 1494182 1414706 1460841 1533563 1440170
2420.25 1401536 1446086 1509417 1532796 1586593 1639093
2423.14 1632020 1635373 1723372 1794891 1683210 1521578
2426.03 1608988 1693517 1759211 1755109 1830178 1946928
2428.93 1901212 1809078 1881272 1871070 1733464 1810566
2431.82 1800939 1710986 1645853 1654141 1797267 1918773
2434.71 1832899 1765197 1653353 1675379 1620858 1498503
2437.60 1707946 1889869 1753086 1731167 1657512 1511007
2440.50 1456565 1460196 1428756 1371610 1324976 1301647
2443.39 1235645 1296584 1318366 1236977 1332493 1428175
2446.28 1348309 1282489 1343051 1362507 1345280 1409580
2449.17 1530652 1568366 1431445 1325643 1464892 1558010
2452.07 1397814 1156372 1160815 1351546 1330799 1218081
2454.96 1351224 1420886 1385551 1428200 1502866 1489870
2457.85 1412467 1360991 1381602 1493319 1462776 1436468
2460.75 1475482 1554519 1546967 1505306 1527880 1652322
2463.64 1714712 1568692 1511834 1543200 1636251 1754131
2466.53 1773785 1650441 1608849 1865659 2050941 2109031
2469.42 2126256 2046392 1971767 1869131 1957089 2093408
2472.32 2051128 2002048 2101245 2119661 2122016 2092647
2475.21 2084797 2115087 2165066 2287703 2241919 2112752
2478.10 2156245 2277353 2127391 2184820 2288527 2287415
2480.99 2328164 2304137 2099197 1900212 1955247 2140815
2483.89 2315327 2178213 2002547 2172850 2165945 2042492
2486.78 2125256 2164696 2081338 2107091 2151629 2099905
2489.67 2033686 1911671 1791218 1835984 1911122 2020903
2492.57 2000728 1854762 1786100 1806769 1794306 1776524
2495.46 1914906 1999633 1924427 1945622 1933880 1791243
2498.35 1859410 1994162 2022671 1955980 1865088 1715961
2501.24 1712068 1949843 1947976 1797240 1712397 1823187
2504.14 1929552 1871993 1812606 1860561 1899894 1777063
2507.03 1800506 1854947 1755300 1729358 1625686 1606510
2509.92 1686811 1831127 1855291 1776247 1916302 2015947
2512.81 1802121 1893058 2078888 2065280 1996053 1981237
2515.71 1773884 1691637 1930480 2006618 1873575 1887500
2518.60 1888642 1935763 1884884 1886353 1966567 2001941
2521.49 1956437 1876322 1861761 1950988 2084481 2019850
2524.39 1908282 1914039 1779679 1848717 2040397 2048496
2527.28 1858425 1648085 1759260 1883267 1786599 1804056
2530.17 1770688 1690763 1662314 1662554 1693931 1629571
2533.06 1614190 1657221 1684640 1719749 1631206 1662460
2535.96 1682636 1420750 1253364 1303085 1332325 1214974
2538.85 1131755 1254668 1443073 1540289 1625111 1456697
2541.74 1309981 1210446 1249892 1252755 1207502 1363084
2544.63 1567691 1518024 1342186 1196546 1245436 1245909
2547.53 1193872 1159273 1204710 1286710 1390491 1449042
2550.42 1374792 1352568 1415587 1368103 1301833 1250910
2553.31 1407830 1478405 1392975 1245835 991385 1112639
2556.21 1372824 1415711 1427645 1424331 1508086 1477321
2559.10 1385942 1265527 1321854 1227599 1285988 1298073
2561.99 1353394 1522747 1380435 1181414 1254631 1411660
2564.88 1371618 1371398 1342061 1315321 1296529 1265373
2567.78 1171318 1205860 1299038 1517854 1513321 1453624
2570.67 1442596 1327121 1231381 1290342 1384967 1474485
2573.56 1480284 1514827 1415290 1177583 1204667 1360307
2576.45 1345294 1355428 1461380 1384910 1312154 1356977
2579.35 1358268 1314892 1321365 1363248 1317583 1274229
2582.24 1276498 1346278 1409971 1485388 1458007 1251302
2585.13 1239076 1430860 1434621 1520161 1436452 1292078
2588.03 1134991 1252146 1326825 1349355 1470136 1386721
2590.92 1335284 1319281 1376875 1341730 1283697 1408149
2593.81 1481705 1486043 1489079 1539126 1532546 1499801
2596.70 1430317 1323671 1253282 1214133 1281964 1521523
2599.60 1432008 1245199 1239338 1284024 1321531 1310394
2602.49 1338368 1494473 1504954 1293175 1276595 1502637
2605.38 1512376 1262889 1391599 1498134 1384736 1222873
2608.27 1131194 1261144 1407516 1423239 1318839 1361034
2611.17 1605304 1616301 1499124 1556399 1441349 1477026
2614.06 1390727 1410964 1490354 1560905 1577475 1545459
2616.95 1517096 1441822 1436149 1349685 1504049 1508441
2619.85 1325865 1317577 1339878 1321531 1234691 1287170
2622.74 1329355 1389562 1650074 1683573 1641408 1600760
2625.63 1463349 1363742 1401620 1466256 1514090 1631404
2628.52 1572846 1382666 1434966 1496840 1397525 1433120
2631.42 1419579 1372853 1421625 1448105 1326221 1296700
2634.31 1257307 1246348 1467255 1434070 1526236 1663574
2637.20 1571301 1436286 1371656 1452376 1508766 1516685
2640.09 1451369 1421089 1370189 1275359 1424020 1454890
2642.99 1324434 1459323 1480089 1536833 1517155 1505254
2645.88 1493965 1417250 1404277 1513731 1512945 1444409
2648.77 1315621 1340403 1533301 1750980 1664957 1531662
2651.67 1464810 1574100 1651266 1446144 1400245 1411439
2654.56 1423903 1511785 1467101 1358915 1316381 1254883
2657.45 1274741 1403582 1369264 1508558 1583776 1533989
2660.34 1389222 1252283 1317627 1265270 1253297 1439234
2663.24 1514931 1383748 1361446 1424401 1494057 1625655
2666.13 1590727 1413814 1369007 1312679 1250622 1322929
2669.02 1333461 1232340 1325504 1449020 1506583 1589622
2671.91 1520030 1489091 1565733 1477141 1350798 1400522
2674.81 1571677 1654270 1550764 1527349 1587442 1488792
2677.70 1372808 1441938 1534168 1557089 1594971 1545296
2680.59 1291353 1190296 1529915 1632384 1412994 1402259
2683.49 1435402 1385689 1411917 1523578 1413991 1291435
2686.38 1327366 1331777 1420382 1462011 1440945 1544962
2689.27 1438535 1266060 1351258 1542812 1551085 1414055
2692.16 1460911 1516090 1587408 1438237 1311622 1372588
2695.06 1286637 1196738 1286511 1363095 1427766 1509088
2697.95 1716088 1688858 1318802 1193085 1260149 1225534
2700.84 1234391 1328785 1265659 1296608 1466102 1474954
2703.73 1551539 1706192 1845362 1735735 1581133 1592107
2706.63 1601513 1691478 1784652 1737578 1659551 1574327
2709.52 1588090 1670116 1673082 1554667 1409620 1369864
2712.41 1397062 1486102 1495813 1431097 1311657 1211471
2715.31 1226821 1309439 1458043 1532848 1591792 1688255
2718.20 1747840 1583756 1467690 1641926 1726862 1517872
2721.09 1594009 1677656 1525608 1553545 1619675 1763224
2723.98 1706021 1417911 1519635 1630736 1532042 1529515
2726.88 1526356 1473958 1515664 1509783 1303501 1322512
2729.77 1549747 1570738 1469085 1512248 1364401 1237343
2732.66 1305318 1251113 1291869 1506631 1519540 1456410
2735.55 1449701 1325703 1193235 1195621 1250018 1312055
2738.45 1502958 1660930 1587682 1581717 1560870 1659511
2741.34 1833367 1595181 1316462 1369241 1370199 1354906
2744.23 1354173 1314172 1375560 1506518 1650786 1639540
2747.12 1842575 1718886 1362882 1346516 1601002 1727471
2750.02 1765860 1680312 1583678 1528817 1498115 1525827
2752.91 1707933 1633108 1410644 1392320 1410343 1347098
2755.80 1337109 1378091 1246292 1387111 1558213 1480162
2758.70 1378540 1328710 1426540 1610428 1649473 1579913
2761.59 1691348 1660527 1437723 1262959 1453179 1580858
2764.48 1331068 1400767 1525444 1467934 1495758 1578220
2767.37 1554871 1534874 1604799 1665858 1512348 1585119
2770.27 1825820 1724062 1503363 1627939 1818032 1677559
2773.16 1594638 1651125 1478559 1466059 1580116 1642595
2776.05 1549133 1417861 1423184 1477480 1629608 1704563
2778.94 1517284 1630389 1838641 1677067 1579300 1500932
2781.84 1528215 1750686 1673641 1641783 1677903 1705725
2784.73 1583523 1504202 1414347 1467500 1587536 1630678
2787.62 1668377 1727204 1776222 1739040 1691972 1639034
2790.52 1685894 1676065 1638491 1558960 1403009 1522987
2793.41 1948289 2031781 1810038 1703998 1619396 1840699
2796.30 1986939 1906597 1793920 1749538 1818029 1868155
2799.19 1949192 2124626 2176071 2377605 2485351 2399954
2802.09 2224559 2280810 2393163 2085515 2170272 2411714
2804.98 2505455 2641293 2516238 2280152 2380964 2577225
2807.87 2699552 2620467 2627470 2661183 2596709 2607918
2810.76 2684390 2813234 2771499 2722283 2732400 2647299
2813.66 2745475 2910441 2892912 2880649 2786679 3011434
2816.55 3033285 3042396 3036208 3013491 3171351 3303841
2819.44 3312060 3110294 2911053 2948001 3080238 3163841
2822.34 3232761 3400057 3645455 3699094 3494351 3439124
2825.23 3685396 3583503 3514439 3743235 3914924 3938103
2828.12 3847672 3689722 3450805 3363659 3272077 3129506
2831.01 3079310 3297390 3311894 3313110 3385776 3600924
2833.91 3491281 3117077 3008933 2880379 3100304 3398760
2836.80 3576459 3671744 3408171 3115638 3115024 3076010
2839.69 2875476 2821186 2858514 2837541 2583969 2469613
2842.58 2373469 2214035 1968954 1805436 2119523 2272031
2845.48 2027010 1979952 2177145 2248092 2085309 1923584
2848.37 1897702 1903857 1996834 1964322 1968029 2056252
2851.26 1842692 1698935 1877888 1891788 1775189 1580618
2854.16 1518810 1764661 1938972 2014105 2051367 2083052
2857.05 1917290 1703654 1651690 1842766 1969602 1930164
2859.94 1807392 1896483 1896245 1798662 1701024 1672729
2862.83 1818743 1924824 1806288 1741695 1597834 1574995
2865.73 1744671 1783910 1793648 1750545 1775104 1769376
2868.62 1700234 1629198 1519596 1729462 1737431 1692104
2871.51 1779073 2021629 2085285 2041641 1886156 1837121
2874.40 2109827 2374245 2438194 2256458 2049855 1997010
2877.30 1936462 2056232 2227471 2025309 1848833 1841468
2880.19 2033808 2175909 2118566 2093794 2057317 1930747
2883.08 1821804 1819860 1750422 1729616 2086451 2255485
2885.98 2201031 2230859 2415379 2406200 2272457 2086984
2888.87 1881033 2098355 2105502 1967699 2097258 2204473
2891.76 2210385 2241609 2082703 2028053 2107071 2258925
2894.65 2096712 2028097 1942764 1971857 1936411 1873298
2897.55 2098410 2096183 2154711 2441812 2541449 2471546
2900.44 2399495 2354594 2435502 2379582 2129628 2106520
2903.33 2193755 2376583 2648443 2589981 2469422 2496408
2906.22 2464139 2325194 2222791 2247704 2395983 2498919
2909.12 2311788 2354375 2365074 2374368 2372088 2213561
2912.01 2275067 2455590 2380871 2204515 2271960 2497534
2914.90 2582795 2519490 2456756 2442761 2150424 2008835
2917.80 2235607 2495384 2315792 2498785 2522382 2252662
2920.69 2351683 2602893 2666486 2488194 2205773 2150846
2923.58 2379500 2587857 2714464 2702341 2603324 2554327
2926.47 2356104 2465623 2649432 2633203 2503902 2535268
2929.37 2685358 2673104 2536575 2598078 2467141 2292874
2932.26 2441031 2723957 2797471 2676586 2733525 2855103
2935.15 2912639 2991531 2823374 2694490 3031666 3190457
2938.04 2863682 2688162 2675580 2662871 2663283 2673060
2940.94 2903623 3072086 3077675 3158315 3159833 3137455
2943.83 3107238 3050872 2680619 2753838 2992126 2900448
2946.72 2808833 3289527 3295606 2941860 2750780 2760549
2949.62 2798373 2838492 3070865 3354053 3320621 2928898
2952.51 2838621 3061465 2994160 3007565 3094311 2881589
2955.40 2857108 3021553 3190279 3386945 3440803 3156538
2958.29 2956416 2966171 2912590 2945782 2945311 2552516
2961.19 1920712 2465790 3663556 3670395 3421211 3505310
2964.08 3396954 3343489 3515094 3575302 3383329 3290764
2966.97 3223995 3231146 3255609 3319565 3590572 3537832
2969.86 3454836 3502913 3605320 3746119 3653209 3512128
2972.76 3516007 3590406 3760947 3994140 4095713 4072603
2975.65 3843303 3608597 3480077 3537911 3736686 3867398
2978.54 3966681 3906324 3742531 3703163 3715363 3810016
2981.44 3988889 3930678 3935694 4103013 4249646 4078531
2984.33 3867332 3972420 4142655 3944706 3769111 3859007
2987.22 4109901 4130906 3924769 3802877 3736516 3772661
2990.11 3800437 3640846 3653514 3830953 3890522 3798192
2993.01 3777382 3750031 3832919 3911650 4129677 3963406
2995.90 3484405 3448843 3427063 3497261 3461199 3241795
2998.79 3147042 3006549 3119381 3133429 3176293 3224096
3001.68 3052129 3143269 3186876 2924759 2813681 2905369
3004.58 3159958 3256441 2913318 2641397 2740823 2863320
3007.47 2719460 2838714 2978233 2979585 2958775 2932061
3010.36 2867736 2736767 2582008 2733925 2845875 2781779
3013.26 2796074 2606855 2351350 2419429 2471906 2498577
3016.15 2547831 2729896 2734714 2619846 2554154 2602991
3019.04 2754306 2741953 2556370 2554562 2538095 2429381
3021.93 2599588 2588215 2482036 2411540 2400257 2441682
3024.83 2500100 2721173 2717483 2352590 2360713 2415714
3027.72 2381119 2348434 2303860 2219332 2209095 2272835
3030.61 2210396 2329368 2473897 2569960 2634707 2457795
3033.50 2210279 2088992 2195409 2518008 2704223 2562576
3036.40 2552213 2490736 2455195 2280045 2115545 2305797
3039.29 2446765 2530901 2327907 2223571 2470557 2434571
3042.18 2435717 2415051 2463614 2496586 2427228 2457648
3045.08 2476360 2691097 2796804 2866381 2987309 2892904
3047.97 2590791 2494373 2644023 2814629 2953986 2656329
3050.86 2596084 2714690 2731379 2714399 2512534 2445052
3053.75 2735803 2749578 2603770 2597754 2650361 2453956
3056.65 2593765 2758822 2950079 3168317 3134180 2860000
3059.54 2572078 2482761 2667269 2692014 2751570 2845498
3062.43 3033313 3036008 2982476 3128478 3212233 3152279
3065.32 3213886 3371485 3195237 3302994 3574883 3488024
3068.22 3675439 3913048 4002546 4230793 4488706 4732489
3071.11 4828088 5113996 5466390 5592402 5713168 6074628
3074.00 6303266 6294302 6403666 6674186 7088406 7515043
3076.90 8096230 8699060 9370430 10019659 10356488 10965974
3079.79 12347263 13592130 14586507 15743696 17470670 19576404
3082.68 21779000 24289978 27172590 30466194 33995225 37740491
3085.57 41888762 46503829 51239013 55615318 60133321 64384626
3088.47 68031054 71268577 74010462 75762943 75851861 75092690
3091.36 74079518 71563303 67101817 62519335 60253922 61925064
3094.25 69349021 83593554 95840778 87574867 62912443 50869168
3097.14 54527739 62513176 70418487 77219356 82415710 85490423
3100.04 86722692 85991235 82966278 79199085 74219373 67566671
3102.93 60656502 53780421 47150230 40996545 35590442 30781001
3105.82 26788181 23596314 20677354 18267458 16411177 14816229
3108.72 13453967 12120793 11122355 10401836 9541026 8894221
3111.61 8296933 7707651 7329078 6949398 6391517 6049821
3114.50 6044518 5963068 5662713 5246961 5022860 4752319
3117.39 4763791 5006185 5022130 4648168 4162513 4032461
3120.29 4053113 4346179 4749780 4500976 3951588 4001321
3123.18 4288418 4418352 4324656 3970671 4023329 4226637
3126.07 4136443 4252683 4497033 4531640 4308779 4006323
3128.96 4291857 4602545 4664607 4561307 4669181 5024112
3131.86 4855144 4661135 4863158 4950612 4982253 4774418
3134.75 4742494 4710261 4583162 4604629 4593380 4601468
3137.64 4784377 4760450 4762186 4583692 4615916 4946692
3140.54 5098335 4964449 4786393 4833221 4943420 5063481
3143.43 5320822 5486303 5424146 5369979 5374951 5461052
3146.32 5589636 5778042 5705409 5655238 5614213 5331023
3149.21 5117908 5058117 5220557 5334873 5646587 5820549
3152.11 5593912 5645753 6107003 6444217 6720448 6956272
3155.00 7001108 7199899 7614412 7933627 7986844 8297007
3157.89 8737582 8706629 8695512 9098082 9676016 9716167
3160.78 9829076 10189509 10830392 11218326 11327832 11547799
3163.68 11726822 11690398 11864747 12311102 12437866 12183311
3166.57 12237859 12475937 12664689 12661249 12601241 12362619
3169.46 12088380 12338994 12396363 11990230 11905834 11746185
3172.36 11686860 11966819 12084968 12132134 11750651 10959049
3175.25 10603299 10683757 10693279 10669241 10457062 10220024
3178.14 9881301 9237902 8513600 7984008 7613481 6898733
3181.03 6147368 5423390 4890281 4474457 4105897 3691615
3183.93 3411781 3115571 3118695 3369722 3243775 2948446
3186.82 2843047 2837508 3178723 3398035 2981431 2829708
3189.71 3039763 2874038 2680056 2698726 2723529 2701279
3192.60 2621443 2602629 2775241 2765436 2945389 2915733
3195.50 2373021 2536082 2653149 2505756 2431916 2338171
3198.39 2372125 2527550 2817608 2979116 2940121 2798592
3201.28 2716891 2739533 2745597 2939181 3080778 3065661
3204.18 3150688 3028208 2753102 2793085 2881844 2698525
3207.07 2524716 2619938 2579088 2655538 2725537 2856842
3209.96 2953545 2977569 2989243 2870331 2817512 2448604
3212.85 2412654 2674370 2654171 2781452 2946334 2939709
3215.75 3099202 3135260 3261641 3087436 2880576 2721219
3218.64 2519632 2426959 2664552 3049705 3134676 3122845
3221.53 3103584 2810885 2779306 3149165 3254178 3014606
3224.42 2712026 2631095 3006989 3262621 3220931 3004224
3227.32 2653270 2595116 2927860 2993636 2932639 3070130
3230.21 3204355 3220485 3032644 2955501 3103720 3063313
3233.10 2863691 2972238 2972218 3058932 2920213 2848253
3236.00 2867303 3039458 2944550 2807801 2854908 2852769
3238.89 3163252 3348932 3222913 3170862 3189227 3133782
3241.78 3008094 2926139 3072694 3104919 2937750 3029606
3244.67 3381897 3546071 3325378 2870987 2444396 2374727
3247.57 2754462 2983065 3129037 3135545 2692673 2702112
3250.46 2894199 2833688 3055430 3218390 3047827 3055257
3253.35 3203429 3496483 3338955 3012725 3015117 3310074
3256.24 3200868 3071547 3416578 3642302 3472444 2960981
3259.14 2826166 2994701 3061315 2952290 3376699 3750227
3262.03 3386387 2935844 3120352 3164634 3184818 3421394
3264.92 3287994 3058593 2849637 2928527 3122812 3047129
3267.82 3112533 3082577 2859767 2986999 3146055 3138055
3270.71 3084805 3013903 2886457 3117595 3314138 3207001
3273.60 3378848 3372233 3061751 2980111 2933927 3024095
3276.49 3296732 3203847 2960516 2842938 2879725 2776838
3279.39 2859191 3017874 2823110 2584036 2638984 2722937
3282.28 2654672 2899071 2969003 2717936 2668837 2790344
3285.17 2801585 2680849 2782071 2890197 2960203 2980248
3288.06 2942051 3211546 3381862 3012117 2739788 2719840
3290.96 2563659 2449359 2482882 2695680 2860008 2821714
3293.85 2600977 2628105 2847874 2899561 2824694 2922717
3296.74 2887838 2907143 2967575 2815688 2790605 3006661
3299.64 2789679 2472506 2671665 2724497 2899665 3029408
3302.53 2847710 2900517 2901325 2625549 2244494 2333620
3305.42 2577759 2823800 2855325 2933572 2825004 2664576
3308.31 2865967 3126856 2995284 2649486 2490942 2572494
3311.21 2722028 3099479 2875995 2619020 2603999 2734470
3314.10 2757634 2546375 2320820 2320464 2470510 2762679
3316.99 2895283 2810043 2955925 3064329 2866552 2904722
3319.88 2944396 2711444 2576825 2633417 2506220 2615116
3322.78 2750513 2819268 2806976 2814546 2779760 2707901
3325.67 2679393 2444270 2522088 2879519 2565320 2373304
3328.56 2782624 3018098 2828128 2580508 2603518 2512281
3331.46 2397757 2412794 2601750 3179482 3312992 2744780
3334.35 2278163 2379531 2371582 2486161 2921773 3102622
3337.24 2768896 2551023 2467264 2557664 2714701 2532552
3340.13 2397840 2540838 2626487 2739478 2755710 2657271
3343.03 2716496 2656268 2685644 2808403 2766479 2460924
3345.92 2505049 2506501 2495236 2726222 2687456 2717680
3348.81 2904036 2599388 2165363 2375444 2592750 2384541
3351.70 2161056 2493761 2856046 2921525 2677504 2438396
3354.60 2337390 2370739 2555626 2635843 2937971 3005649
3357.49 3100489 2962032 2780013 2860283 3001765 2961336
3360.38 3014638 2912184 2630028 2581799 2606230 2742350
3363.28 2476710 2281150 2659545 2533713 2218125 2489250
3366.17 3111280 3394251 2991699 2693606 2694186 2633295
3369.06 2657640 2458768 2377736 2469985 2673907 2645415
3371.95 2457096 2454776 2474628 2680834 2938844 2709273
3374.85 2490046 2775420 2805611 2555543 2789753 2695656
3377.74 2233599 2225266 2356333 2522193 2526894 2611443
3380.63 2711967 2738688 2491855 2262569 2280113 2629178
3383.52 2729808 2526083 2520164 2634040 2841063 2982244
3386.42 2881751 2804570 2941303 2921327 2549591 2419374
3389.31 2674978 2908744 2891068 2926281 2773398 2427367
3392.20 2403349 2503073 2353698 2147622 2253945 2771060
3395.10 3110533 2854068 2540208 2821602 3258648 2773915
3397.99 2195244 2240977 2409403 2752533 2678180 2667979
3400.88 2644219 2592925 2505037 2515135 2570809 2458005
3403.77 2439268 2377017 2209107 2515172 2756106 2570590
3406.67 2570675 2598629 2759368 2874925 2777338 2648850
3409.56 2634272 2424096 2318580 2289535 2000234 2106633
3412.45 2557364 2760575 2507957 2623805 2873989 2597946
3415.34 2291771 2541082 2588766 2396719 2495525 2543698
3418.24 2484605 2607717 2590606 2497770 2523254 2614249
3421.13 2527912 2537853 2619034 2859113 2785231 2594041
3424.02 2650546 2579090 2635263 2609802 2478199 2740551
3426.92 3117447 2938041 2364629 2125250 2464053 2679812
3429.81 2671195 2732034 2493522 2275339 2399549 2653000
3432.70 2737778 2511948 2079845 2200350 2487858 2601137
3435.59 2631333 2370651 2280999 2446618 2627523 2864932
3438.49 3010440 2775595 2502402 2676553 2706692 2629181
3441.38 2509476 2464550 2417991 2482499 2314924 2126138
3444.27 2469926 2982464 3211505 3086413 2845592 2606764
3447.16 2483738 2559679 2703357 2879788 2778277 2684167
3450.06 2723038 2551808 2727063 3067266 2849261 2767225
3452.95 2677984 2997538 2987134 2698207 2850273 3071851
3455.84 2796491 2616443 2699332 2573922 2748917 2943395
3458.74 2873981 2617000 2349320 2518289 2795684 3010848
3461.63 3018858 2839514 2854228 2736585 2607493 2712366
3464.52 2744113 2782200 2606456 2756505 2889824 2497955
3467.41 2610117 3080540 3077133 2883364 2755377 2808500
3470.31 2976506 3006347 2855082 2837350 2691700 2528202
3473.20 2628269 2712481 2930805 3027403 2816082 2667415
3476.09 2605777 2700577 3086615 2730516 2437470 2515710
3478.98 2828203 3033446 2866444 2688788 2754086 2874824
3481.88 2914825 2886193 2857807 2999277 2955151 2810655
3484.77 2906694 3089470 3141052 3207895 3129825 3012656
3487.66 2858454 2631306 2826511 2922730 2659733 2564757
3490.56 2671986 2569895 2265491 2578947 2958960 3031209
3493.45 3117553 3053770 2723674 3112871 3454315 2986695
3496.34 2808884 2928291 2870288 2985142 2965062 2787503
3499.23 2909469 2898080 2942863 2766825 2758856 2575619
3502.13 2349955 2645827 2979985 2975102 2752218 2951169
3505.02 3092991 3026846 2891939 2685552 2712359 2651036
3507.91 2757266 2955722 2952754 3021411 3228988 3174863
3510.80 2980710 2740462 2563916 2759363 2631285 2522219
3513.70 2582454 2799204 2870139 2844268 2848105 2875022
3516.59 2865946 2755047 2693714 2812574 2829350 3007728
3519.48 2971452 2666438 2963397 2870170 2651571 2834562
3522.38 2758705 2498509 2548962 2632158 3056176 3198706
3525.27 3033719 2771639 2699590 2795213 2718231 2740514
3528.16 2755543 2603000 2786411 2729392 2578687 2694199
3531.05 2975688 3071674 2827262 2727274 2870756 3153314
3533.95 3160743 2834848 2761230 2908236 2844937 2627229
3536.84 2609075 2897796 3240879 3086895 2811553 2656903
3539.73 2601950 2448622 2558689 2980600 3356510 2884018
3542.62 2604366 2760758 2862859 3069169 2957694 2848882
3545.52 3049745 3066511 2992545 3218299 3202799 3111786
3548.41 3168664 3053496 2871196 2870412 2806769 2575296
3551.30 2578906 2700232 3130264 3313184 2943483 2654780
3554.20 2684355 2732660 2925938 3198758 2934993 2718766
3557.09 2826563 3048742 3051597 3068111 3116934 2863961
3559.98 2636203 2668190 2850230 3185117 3224322 3144311
3562.87 3043887 2896437 2766711 2406276 2672880 2870124
3565.77 2489333 2373290 2636854 2666908 2812610 3314014
3568.66 3172854 2936493 2913694 2768605 2754899 3193968
3571.55 3262153 3229868 3340672 3069620 2825725 2582927
3574.44 2819970 3059950 3028306 3081355 3271520 3047248
3577.34 2669907 2776533 2971695 2926856 2893981 2963658
3580.23 2933202 2959266 2875358 3085861 3240992 3117105
3583.12 3150755 3390702 3224443 2861722 3084394 3259677
3586.02 3063137 3137816 3055158 3115119 2949415 2518739
3588.91 2684760 3048541 3127718 3131398 3124139 2992560
3591.80 2858400 2985074 3150545 3104283 2928411 2882498
3594.69 2785596 2935759 3232668 3156447 2847111 2542472
3597.59 2763009 3106287 3335076 3238726 2980662 2930785
3600.48 3039640 3194801 3015297 2817234 2903532 2872403
3603.37 2862967 3207152 3427475 3418431 3201854 2932627
3606.26 3026496 3063982 3191787 3328936 2962882 2288880
3609.16 2541310 3180689 3232852 3314631 3416773 3204918
3612.05 2857344 2847502 3060674 2964476 2794961 2924347
3614.94 3002113 3167984 3107163 3287093 3413560 3276626
3617.84 3372198 3209782 2751536 2751716 3120787 3098760
3620.73 3099473 3229237 3325709 3510942 3641356 3357066
3623.62 3158882 3340354 3275873 3138970 3355828 3525647
3626.51 3560333 3486995 2843589 2519975 2750748 2342664
3629.41 2643597 3288952 3124999 3080521 3132980 3229807
3632.30 3295674 2974024 2643874 2947199 3143299 3262633
3635.19 3555145 3573421 3549854 3510066 3336073 3164383
3638.08 3211446 3403053 3345614 3295574 3326654 3478758
3640.98 3187624 3120421 3296562 3327388 3257810 3215259
3643.87 3286191 3179959 3203492 3575592 3368788 2957262
3646.76 2937405 3130047 3117689 2801111 2431669 2842039
3649.66 3261169 2982899 2932844 3338266 3750675 3712640
3652.55 3576521 3414521 3231560 3227586 3497133 3350934
3655.44 2783460 2653770 3059523 3203539 3204248 3303145
3658.33 3458427 3523069 3562548 3568051 3502153 3324763
3661.23 3395336 3492045 3327312 3052734 3107243 3548751
3664.12 3672079 3411370 3383156 3376090 3101968 3113664
3667.01 3425530 3446576 2930829 2721795 3317885 3503418
3669.90 2808781 2218414 2707736 3310372 3662942 3554466
3672.80 3416377 3232161 3189496 2921974 2660779 2110320
3675.69 2113458 2754570 2957102 3218696 3428864 3331557
3678.58 3187058 3157544 3151389 3190498 3312334 3373452
3681.48 3333101 3238938 3125229 3185242 3524305 3569568
3684.37 3493175 3429342 3365765 3223422 3289268 3263335
3687.26 2933277 1968276 2205401 3277837 3470264 3282290
3690.15 3197298 2884245 2703804 3040693 3281234 3378798
3693.05 3150216 3059071 3195464 3464145 3779399 3745428
3695.94 3578860 3536995 3584557 3576490 3665261 3852660
3698.83 3695615 3682421 3890728 3818116 3237977 2887612
3701.72 3430949 3785634 3816505 3735928 3680393 3518508
3704.62 3483481 3461999 3383299 3623825 3721331 3522778
3707.51 3592855 3548263 3166075 3055052 3366608 3635235
3710.40 3553263 3373179 3086988 2891299 3180175 3484201
3713.30 3760539 3819036 4045502 4160060 4115276 4244889
3716.19 4192679 3904386 3801133 4088216 4122796 3790896
3719.08 3732894 3884279 4005756 4153556 4393023 4160413
3721.97 4087015 4225832 4155476 4228433 4376299 4466903
3724.87 4465016 4217831 3752209 3825384 4088298 4079184
3727.76 4092580 4089025 4079612 4184964 4373632 4113086
3730.65 3901019 3793654 3446993 3665369 4131945 4112213
3733.54 3902446 3776831 3766937 3666157 3698398 3318367
3736.44 3094702 3616978 3823194 3539459 3536534 3637630
3739.33 3612852 3426352 3262424 3249463 3441058 3755149
3742.22 3749543 3445617 2897851 1682901 1062387 2260148
3745.12 3339973 3583407 3583927 3517831 3364146 3271588
3748.01 3014695 2206463 1717538 2800625 3631925 3315134
3750.90 2967797 2086348 1781294 2840808 3242521 3432681
3753.79 3619434 3738624 3771932 3649397 3269640 3355017
3756.69 3707240 3606702 3427105 3286242 3302293 3379555
3759.58 3172198 3304601 3370865 3463980 3426894 3426800
3762.47 3571711 3507071 3581279 3700040 3459304 3183200
3765.36 3027722 3213625 3403202 3408319 3553561 3679577
3768.26 3672979 3433200 2946731 3015383 3287244 3139164
3771.15 3296839 3716487 3487286 3330328 3637091 3703485
3774.04 3756439 3637947 3443913 3644615 3641117 3286063
3776.94 3273328 3287242 3218399 3039409 2971487 3189019
3779.83 3532806 3484437 3438257 3458738 3599140 3627335
3782.72 3469649 3538487 3506217 3386968 3456644 3463096
3785.61 3694295 3662372 3320736 3314246 3520210 3390120
3788.51 3445676 3568781 3645530 3849885 3779636 3472547
3791.40 3324060 3527977 3675854 3478079 3407019 3536590
3794.29 3657074 3474620 3358442 3236586 3139675 3545336
3797.18 3649357 3378404 3408830 3520483 3529411 3663002
3800.08 3382466 2327000 1852156 2890039 3243304 3267830
3802.97 3363744 3170681 3240340 3393872 3490400 3322920
3805.86 3056792 2647106 3118198 3729720 3714087 3822442
3808.76 3698732 3663614 3730604 3551188 3612035 3676394
3811.65 3396238 3218044 3385401 3689275 3690025 3495483
3814.54 3344012 3101646 2288734 2546366 3401467 3792106
3817.43 3695889 3215737 3322462 3644774 3562324 3326965
3820.33 3135089 2968976 2689267 2972625 3363906 3412445
3823.22 3386108 3432874 3546204 3627986 3501502 3264988
3826.11 3241175 3501625 3723727 3660699 3481524 3343100
3829.00 3581024 3663230 3798023 3655815 3308404 3305752
3831.90 3398305 3329511 3412418 3686746 3723312 3095235
3834.79 2938061 3318559 3808234 3831211 3305135 1867799
3837.68 2057242 3025955 3086351 3087550 3266244 3437740
3840.58 3246152 3322335 3626527 3719675 3550155 3418460
3843.47 3287258 3398583 3524781 3755280 3727389 3463444
3846.36 3381411 3614343 3683509 3464262 3557056 3712012
3849.25 3767830 3524740 3435227 3568443 3063342 2671266
3852.15 3380269 3416344 2559234 1476435 1775115 2880487
3855.04 3173326 3307939 3569946 3490989 3448159 3716151
3857.93 3761770 3820595 4022565 4235930 4265020 4233092
3860.82 4162786 4136491 4090030 3884724 3559919 3493145
3863.72 3671642 3295888 2848382 3484519 3925201 3964854
3866.61 3805534 3610061 3637809 3685659 3248327 3031017
3869.50 2813660 3064155 3421649 3370735 3628542 3833247
3872.40 3835856 3808434 3475606 3121834 3231529 3661790
3875.29 3528274 3601074 3771306 3591500 3482158 3424566
3878.18 3286234 3280416 3222865 3038288 3243599 3710169
3881.07 3593783 3498323 3747868 3728590 3607359 3360924
3883.97 3128406 3285678 3084449 3044886 3354653 3403682
3886.86 3572310 3529003 3573008 3718400 3580014 3729832
3889.75 3642389 3196818 2860155 2994179 3399416 3681397
3892.64 3547072 3392623 3564005 3678560 3537433 3380263
3895.54 3460132 3620188 3392013 3356428 3506766 3321222
3898.43 3182839 3085155 3278179 3508157 3682477 3413083
3901.32 3007275 3037193 3277212 3562751 3690273 3315577
3904.22 3340076 3409793 3153959 3155082 3520975 3689954
3907.11 3554761 3406200 3210255 3281223 3620512 3770622
3910.00 3666487 3707095 3896008 3926166 3745691 3688172
3912.89 3764993 3453487 3276374 3574053 3664007 3444826
3915.79 3369774 3210974 3266381 3417060 3393180 3414691
3918.68 3509503 3507413 3358286 3257890 3230847 3390715
3921.57 3489416 3569672 3592897 3478321 3462266 3474996
3924.46 3297727 3397571 3569350 3680691 3898715 4026935
3927.36 4118610 4106682 3885179 3747757 3843543 3732227
3930.25 3735797 4094163 4242479 3963598 3623299 3503765
3933.14 3798705 4159845 4325554 4217379 4019676 3944335
3936.04 4116963 4247815 4329607 4319526 4519444 4571505
3938.93 3988914 3771189 4080326 4123942 4156367 4279514
3941.82 4276659 4385855 4569484 4537636 4326892 4179782
3944.71 4328120 4538574 4697851 4282735 4063884 4109272
3947.61 4128097 4154715 4257151 4434132 4458950 4339678
3950.50 4267584 3815541 3753979 3745189 3794152 3818618
3953.39 3895559 3923274 3776327 3725711 3950251 3842973
3956.28 3656052 3832814 3946977 3926974 3837091 3667505
3959.18 3722811 3807154 3621477 3554648 3495840 3554719
3962.07 3496398 3516457 3603795 3860658 3807033 3575534
3964.96 3461934 3354286 3568978 3868156 3660303 3441747
3967.86 3662979 3821947 3843260 3930278 4021832 3896614
3970.75 3828571 3758416 3518452 3437647 3444706 3562319
3973.64 3932024 3877358
##END=
