##TITLE=Trichloroethene
##JCAMP-DX=4.24
##DATA TYPE=INFRARED SPECTRUM
##CLASS=IUPAC A
##ORIGIN=NIST, Analytical Chemistry Division, 301-975-3108
##OWNER=COPYRIGHT (C) 2000 by the U.S. Secretary of Commerce
##DATE=00/02/01
##$SPECTRA VERSION=1.10
##$UNCERTAINTY IN Y=2.1 % relative (B=1.1E-04,C=2.4E-09,D=2.3E-13)
##CAS NAME=Trichloroethene
##CAS REGISTRY NO=79-01-6
##MOLFORM=C2 H Cl3
##MP=-73 C
##BP=87 C
##$NIST SOURCE=QUANT-IR
##SPECTROMETER/DATA SYSTEM=IFS66V (Bruker)
##INSTRUMENT PARAMETERS=KBr Beam Splitter; MCT Detector; Multipass cell
##STATE=gas
##SAMPLE DESCRIPTION=Trichloroethene Primary Gas Standard
##PRESSURE=101.3 Pa
##TEMPERATURE=23 C
##SAMPLING PROCEDURE=1 L/min Flow
##RESOLUTION=0.9640
##DATA PROCESSING=NB Strong Apodization
##XUNITS=cm-1
##YUNITS=(micromol/mol)-1m-1 (base 10)
##XFACTOR=1.0
##YFACTOR=9.0949E-13
##DELTAX=0.4820
##FIRSTX=575.17
##LASTX=3974.605
##FIRSTY=-8.13E-08
##MAXX=3974.12
##MINX=575.17
##MAXY=.0009452
##MINY=-1.79E-06
##NPOINTS=7052
##XYDATA=(X++(Y..Y))
575.17-89489 361783 3434688 2153283 1921397 1732516
577.58 2636486 4381767 5469362 4917455 2823925 1441820
580.47 327507 1993778 3847591 3340983 1785171 855655
583.37 220057 1010659 1427151 1876184 1121512 352294
586.26 823598 406018-1516173-435486 281813-945920
589.15-808379-930104 97457 1064419 1529330 237678
592.04-150006 283849 243030 571584 479882 1080057
594.94 1203785-54494-735332 524625 1658747 2228409
597.83 1629317 1039569 412166 145828 1095240 1784661
600.72 1260423 1072782 1687496 2182206 1765753 1746369
603.62 1762005 1377835 704874 1643492 2941367 3273842
606.51 2931652 2716345 3265366 3940531 4850183 5771547
609.40 6400488 6331859 7648627 8674976 9031276 10108446
612.29 10943743 11328717 12038282 13269708 14801131 16510872
615.19 17882570 18596243 20276820 22988892 25973919 28352110
618.08 29697177 32436103 36304695 39268319 42384282 46546319
620.97 50246796 53615991 57402059 61813621 65569542 69538846
623.86 73070932 75892015 78984888 82226509 84897826 85847832
626.76 86743840 89266051 90538405 90588409 89942433 89611347
629.65 89722187 88595443 87221096 85472076 83132352 80286894
632.54 78398998 76960283 76666881 77441141 79475006 84679575
635.44 90620615 94900789 97434040 98398077 97094348 94328962
638.33 89841513 84853377 79355234 72345083 65388161 59138056
641.22 53041076 47032387 41688103 36630654 31839851 28788562
644.11 25792795 22880856 20824203 18892516 17134280 14992844
647.01 13313407 11801980 10679166 10365714 9323074 8136196
649.90 7499503 7115071 6716376 5686687 4555642 4211308
652.79 3968711 3408273 3213719 2823577 2371841 2106910
655.68 1817772 1693785 1645341 2146767 3010577 3182883
658.58 2644127 2137633 1654292 1487380 1925555 2336539
661.47 2007164 2086659 2323204 2222158 1928316 1996676
664.36 1770034 1071593 1137007 1535097 1619630 2050625
667.26 2457709 2120770 1492201 1275248 1672607 1998990
670.15 1606378 1485543 1631028 1844156 2029628 1818110
673.04 1352138 975902 1170083 1191783 933015 661676
675.93 1131673 1431735 1250582 1238408 1507135 1403306
678.83 1373240 1447728 1007497 456287 1298565 1611771
681.72 1596270 881338 487935 525046 1234345 1348503
684.61 1143885 607694 262248 95248 390000 853067
687.50 579693 334418 552629 982030 753633 92582
690.40-201134 64445 257668 239752 389656 394184
693.29 437856 455315 29517 230699 134352-242273
696.18-151613-141489-128346 249062 367279 24446
699.08 177596 77205-220538-105953 176524 294039
701.97 124524-151310-409756-283083 212773 428486
704.86 232022-81651 297846 193890-270460-46888
707.75 128535-34680-159784 277522 445444 265927
710.65 588860 367416 124018 143727 162678 177306
713.54 337460 374230 357330 351664 398912 107701
716.43 407721 865270 738849 191074 491962 552581
719.32 333148 209873 436885 980367 1076259 509636
722.22 232743 151817 730122 965729 817418 963337
725.11 1425839 1061654 534058 300038 523221 1010730
728.00 1304391 1295141 1430353 987378 924313 1010265
730.90 1189748 1128846 1197251 1173891 1091094 666582
733.79 836505 1369602 1337248 1166592 1667450 1785992
736.68 1607516 1560853 1510863 1378801 1568561 1911713
739.57 2044072 1873953 2167044 2399703 2444719 1997751
742.47 1924179 1949935 1968408 1687034 1940733 1869873
745.36 1932646 1780644 1864572 2184375 2274240 2026632
748.25 2276075 2475557 2540593 2413249 2423303 2573388
751.14 2512394 2147830 2372849 2652281 2978152 2562958
754.04 2444521 3203620 3914462 3963565 4389174 4914051
756.93 5060328 5207429 6374897 7481029 8648331 9605442
759.82 10612053 11832780 13423135 15190471 17499322 18951351
762.72 21360638 24199165 27544161 30064283 33440361 36528872
765.61 40414843 44210739 48633203 52374700 56606540 61445972
768.50 66491765 70519262 75334110 79131685 82943297 86459723
771.39 90866538 94624013 97848355 99426272 101300541 102075725
774.29 104046040 106462646 111928408 118069587 123627554 130726564
777.18 143474525 141923039 133613584 123021817 119466649 112376563
780.07 104415319 102021607 136830289 278583801 590591025 698884458
782.96 369849023 133856694 91532284 94854567 99371106 105750243
785.86 108902255 112499386 114354003 115717098 114926311 115816269
788.75 115263834 115240242 114054000 113338855 111201446 110254382
791.64 108037774 106212086 103319452 101334487 99246087 96868456
794.54 93430179 90966978 86231156 81072605 75467225 70138387
797.43 65343081 61508412 57073881 53046007 49684309 47282452
800.32 44115854 41072983 37852652 35426720 32441705 29174823
803.21 25754347 23681603 22335981 21439143 20438851 21118835
806.11 21415710 21836937 21805547 20954886 19905901 18847356
809.00 17030853 15768894 14170865 12383042 10569487 9242723
811.89 7870146 6922863 6115486 5619073 5047470 5318898
814.78 5110299 4822659 4663572 5313434 5799277 5803662
817.68 6231693 6772359 7195190 8340179 8712309 9438210
820.57 9840028 10706429 11513038 12857087 13873740 14606553
823.46 15217468 16900927 18401518 19940032 21495400 23435157
826.36 25931649 28795753 32182891 36170766 40117307 45416902
829.25 52241177 61169602 71071343 82408346 95012932 109002028
832.14 122962790 139539456 159830810 182391271 207117460 235080846
835.03 265353991 297583261 331115962 367075625 404201962 442291070
837.93 479359297 516215689 552346110 587972719 620693659 652069964
840.82 681005123 707604864 732246389 754245778 770918576 783327346
843.71 790268615 810347014 845967081 864939211 836827121 753113931
846.60 679286783 696022741 781518408 884835405 995415806 1039308084
849.50 1006660043 979092054 812372265 690138277 705424221 743591607
852.39 775429741 791613937 792442261 775485882 741356058 690825167
855.28 627574956 553385568 474469129 394435540 317778899 247629246
858.18 187424892 136900746 97239545 66937847 45100303 30041086
861.07 20316555 14355391 11272422 9032020 7936125 7359091
863.96 7036479 7685219 7100911 5615582 5395850 5237696
866.85 5363246 5480745 5671239 5462003 5142242 4887030
869.75 4737784 4801051 5062562 5019148 4732015 4531102
872.64 4560525 4197585 3967235 3791817 3627297 3848351
875.53 3910462 3587267 3606937 3524606 3338837 2815100
878.42 2824384 3078657 3011188 2916770 2662176 2205199
881.32 2170723 2158543 2462521 2542590 2630385 2753147
884.21 2602453 2750217 2907082 2796123 2935918 3036509
887.10 3343862 3654555 3794278 3936758 4214948 4301968
889.99 4575071 4991892 5224055 5256025 5874455 6429383
892.89 7056783 7730747 8169609 8228029 8976677 9972063
895.78 10777030 11652414 12692304 13708065 14751852 16088387
898.67 17258386 18446786 20153301 21699378 22970443 23888696
901.57 24738281 25792293 26623588 26854893 26953947 26558354
904.46 25972266 24994391 23818900 22409352 20884529 19983527
907.35 19634831 19985384 21573858 24278471 27149791 29835123
910.24 32430290 34441522 35997607 37267682 37892898 38059388
913.14 38189775 38503496 39017549 39650614 40386687 41670906
916.03 43377835 45407974 48162915 51256492 55087577 59157371
918.92 63851850 69466544 75382861 81515005 88565136 96202263
921.81 104539477 113898541 124312654 135785910 148155609 161691841
924.71 176905274 193575851 211460531 230971700 252408726 275500327
927.60 300272329 325836756 352852838 381318286 410971198 441353035
930.49 472004520 501985368 530997268 559179028 585096818 607736071
933.39 627038426 642374690 653216276 658623017 658886861 654101914
936.28 644900631 631319419 615218669 596680843 579463447 565615051
939.17 556103529 551426886 555198348 565410594 584899085 611344242
942.06 642765297 677090769 704777082 733369234 755032169 759690656
944.96 748635048 724516494 688396181 645228970 597548909 547294578
947.85 495246732 444458437 395866608 350779817 309379417 273150799
950.74 241547673 214654626 191597696 172108157 155767134 141829903
953.63 128632724 116591606 105801316 95728632 86072253 77050854
956.53 68600740 60822012 53656776 47077198 40736820 35195106
959.42 30419039 26516918 23037101 19946311 17195816 14859872
962.31 12837651 11349281 9926055 8998974 8236640 7657665
965.21 7256290 6782050 6323381 6341247 6518904 6845880
968.10 6800595 6802350 6735327 6850226 6914337 7055227
970.99 7067778 7193787 7494210 7856482 8004335 8329907
973.88 8742427 9221627 9989481 11048084 11682587 12465113
976.78 13383655 14288759 14884541 15392522 15723604 16069558
979.67 16228407 16150271 15646595 14880384 13941542 13360769
982.56 13290135 14087609 15074927 15070767 13771097 12506305
985.45 12299721 13770735 13546925 12919322 12914755 13012991
988.35 13035624 13017721 12993444 12900497 12832854 12712274
991.24 12164922 11608348 10926099 10110202 9427022 8799899
994.13 8080492 7364476 6654143 6100519 5682381 5411715
997.03 4974198 4536311 4434416 4450908 4363755 4570645
999.92 4812425 4860302 4619238 4743260 5138794 5233120
1002.81 5064463 5579143 5987245 6270849 6168781 6489773
1005.70 6916338 7198250 7552817 7636791 7924269 8437286
1008.60 8979196 9182099 9215644 9249454 9173511 9405224
1011.49 9792866 9985325 10186634 10335110 9933563 9957845
1014.38 10241580 10518763 10527671 10458945 10166897 9993499
1017.27 9875109 9738000 9328997 9271123 9179495 8995288
1020.17 8933117 8864914 8672940 9001115 9082608 9270603
1023.06 9313858 9166848 9013665 8619358 8044718 7883791
1025.95 7340329 6580875 6184614 5661917 5138493 4703574
1028.85 4320125 4118604 3729347 3298464 3308227 3273910
1031.74 3189276 3036074 2727534 2425769 2390429 2603868
1034.63 2298682 1997137 2151733 2247239 2061126 1733957
1037.52 1520363 1653202 1931799 1984926 1718487 1424822
1040.42 1295098 1513304 1595475 1499639 1566098 1516576
1043.31 1486667 1454855 1559595 1594808 1530458 1358349
1046.20 1390549 1288845 1033632 1248480 1302940 1227129
1049.09 1348183 1393674 1298039 1188896 1158306 1227904
1051.99 1106250 862236 931024 1149523 1216917 1068769
1054.88 983398 966885 825320 867409 1107328 804594
1057.77 678236 891928 763975 576461 463360 838786
1060.67 926452 696476 570058 563578 561276 625774
1063.56 545713 638328 821207 744955 644139 814465
1066.45 940396 883655 632432 375640 401995 616252
1069.34 646670 493983 768065 880587 586727 321525
1072.24 387201 560986 770322 932904 729295 547222
1075.13 562702 830830 857182 841372 684873 598252
1078.02 577679 529187 625611 640968 436816 481934
1080.91 674581 666791 577487 458016 396118 678208
1083.81 645475 439776 453246 751873 858909 761549
1086.70 735267 725250 690617 796755 888431 993987
1089.59 879416 696060 729307 684028 532041 549231
1092.49 568692 718139 917444 801546 731597 903442
1095.38 1067190 1175727 1299456 1426131 1494197 1481293
1098.27 1486368 1473751 1527913 1399905 1451740 1905974
1101.16 1906895 1987203 2171762 2296236 2265220 2270044
1104.06 2446934 2723952 2691681 2663108 2613335 2555922
1106.95 2535200 2856017 3070688 3116288 3086051 3120433
1109.84 3299495 3388908 3173300 3067064 3315369 3515412
1112.73 3543788 3630388 3751692 3592398 3564434 3643542
1115.63 3778220 3722793 3564313 3318431 3143809 2867015
1118.52 2685751 2687574 2650028 2526876 2655897 2680984
1121.41 2353129 2046054 1955161 2026690 2254004 2373536
1124.31 2183330 2401788 2320440 1982209 2021627 1939272
1127.20 1878765 2092799 1945674 1578494 1467529 1591624
1130.09 1496760 1421862 1358396 1397326 1322206 1186733
1132.98 1327350 991171 693610 926035 1024943 1083749
1135.88 1019711 903178 860445 627998 663008 921275
1138.77 993162 893746 899510 1179446 1283351 1220411
1141.66 1282632 1321385 1192260 1092845 856509 847062
1144.55 955995 711426 395849 511725 650106 747051
1147.45 635670 642302 732683 813668 888349 794096
1150.34 701157 608101 453502 353161 351354 459318
1153.23 549506 706751 569439 441955 224914 310022
1156.13 477969 501843 253461 230395 303922 208625
1159.02 311854 454343 426444 416160 252052 118979
1161.91 316759 488762 275357-12708-150093 151385
1164.80 424591 404555 360344 252313 230268 109769
1167.70 124444 316636 286489 194833 227304 190135
1170.59 221349 218826 251039 432382 445190 511206
1173.48 567568 519236 520652 475810 481781 482800
1176.37 411208 454796 366181 481059 525803 390314
1179.27 501622 547639 502102 581442 545469 636016
1182.16 733170 708815 702896 742288 591556 525937
1185.05 415636 373538 576979 744232 617210 531393
1187.95 506709 461173 503890 690904 765870 793231
1190.84 714252 631938 680269 730094 736831 685578
1193.73 696741 793949 787977 904530 879308 774360
1196.62 710000 766664 895516 1037586 1083420 1159951
1199.52 1021470 959918 1323328 1661565 1596107 1523437
1202.41 1465675 1483688 1759555 1988848 1819251 1534857
1205.30 1732211 1904407 2164661 2387210 2377632 2596474
1208.19 2595262 2419116 2534887 2791783 2967646 3040560
1211.09 3178710 3389009 3508161 3582877 3896737 4102105
1213.98 4218326 4434215 4616069 4687333 4998992 5227775
1216.87 5315883 5555517 5899727 6189431 6441183 6670794
1219.77 6959578 7323512 7570219 7921596 8274333 8667287
1222.66 8915720 9408708 9965245 10434993 10968981 11411428
1225.55 11797918 12162280 12395403 12726318 12857538 12766208
1228.44 12697323 12444612 12208300 12032722 11677269 11681941
1231.34 12260125 13550518 15014852 15450588 15200981 15723201
1234.23 16821341 16871123 16874245 17698265 18671960 19974980
1237.12 21293715 22620157 24194925 25800336 27455337 29381942
1240.01 31615133 34044666 36445808 39029203 41998242 44982245
1242.91 47894996 50531833 52762099 54683487 56215224 57184902
1245.80 57557321 57215077 56206002 54860844 53324056 51283512
1248.69 49208145 48972041 52033996 56351427 58566308 58691963
1251.59 57812327 58720832 60848322 63186861 65080644 66145118
1254.48 65745285 64947270 64356909 63333827 61424277 58557188
1257.37 55788319 53673327 51594667 50230608 48909331 47107194
1260.26 45141020 43174524 40795234 38456111 36158813 34202485
1263.16 32259591 30036808 28000961 26350244 25007575 23669024
1266.05 22425357 21421681 20614475 19944343 19563692 19536958
1268.94 19003220 18222030 17381041 16545162 15675853 14703986
1271.83 13654306 12415919 11148360 10155640 9229924 8397558
1274.73 7451958 6736502 5903351 5367876 5077392 4650389
1277.62 4274177 3949234 3501372 3200071 2985479 2876199
1280.51 2606786 2388900 2274664 2060303 1745524 1516876
1283.41 1343262 1510706 1390386 1227794 1087322 965705
1286.30 857061 821740 676870 592077 563744 634872
1289.19 801971 843022 831516 977290 972091 590685
1292.08 347939 349217 470050 464413 391923 526610
1294.98 490247 458560 603798 822531 760532 708402
1297.87 893175 846477 578305 677203 923852 966020
1300.76 963672 848791 884330 867545 956386 1183723
1303.65 1085813 1093948 1265435 1316423 1359602 1441154
1306.55 1497230 1594659 1699078 1615438 1733220 1826229
1309.44 1869649 1943996 1886832 1922602 1826175 1894741
1312.33 2075730 2152866 2230190 2194447 2171219 2352235
1315.23 2404451 2342886 2256771 2415177 2463248 2306777
1318.12 2331431 2295646 2239661 2229422 2287729 2338569
1321.01 2441044 2397740 2195524 2149684 2091202 2016830
1323.90 1991082 1916704 1978016 1882187 1749094 1687942
1326.80 1676577 1821354 1818187 1713898 1600993 1638244
1329.69 1617741 1295353 1136969 1182241 1253874 1359792
1332.58 1119890 937616 906787 798263 733663 897500
1335.47 1004283 831485 699877 736252 803838 690509
1338.37 722846 835533 667914 599810 623329 722114
1341.26 597867 546548 542808 573798 750816 918312
1344.15 716662 505085 535559 826828 862303 548589
1347.05 507650 607763 781786 521837 292237 258726
1349.94 331344 507993 477033-225374-968100-519702
1352.83 126804 389338 400172 131874-290912 83232
1355.72 461739 429175 579804 524794 471462 796378
1358.62 694984 627648 774976 666739 437936 414574
1361.51 261160 255363 238812 372161 720334 824206
1364.40 783137 777453 864136 893498 896607 895521
1367.29 858136 882108 934937 768581 531093 548033
1370.19 785154 820423 702016 879477 947102 747117
1373.08 528043 763109 938190 1170360 1498089 1390602
1375.97 1273003 1324415 1119947 885665 804974 1083573
1378.87 1273269 1359522 1206168 1208513 1278539 1052634
1381.76 1049192 1066091 1112747 1355474 1544853 1679505
1384.65 1412490 1327231 1266214 1040974 790506 502341
1387.54 884500 1069121 1159140 1178880 1321167 1246507
1390.44 1126766 1253585 1182411 1117878 1053995 962983
1393.33 899094 735017 685570 881729 919015 1008042
1396.22 1201031 1067888 837085 859489 761313 644322
1399.11 833121 1027900 1079711 1095156 1106017 1112721
1402.01 1261481 1373102 1231303 935457 751862 775682
1404.90 934532 1035900 1039597 1000729 1079340 1122855
1407.79 1291731 1345183 1109329 1111231 1294242 1310509
1410.69 1123634 1134423 1184157 1213694 1200279 1264720
1413.58 1362898 1414218 1508604 1263282 1030583 1221737
1416.47 1347619 1320235 1217946 1171094 904564 548014
1419.36 1107136 1561520 1558549 1506599 1557097 1712220
1422.26 1648588 1483005 1291298 1320649 1434245 1655104
1425.15 1792113 1767124 1742003 1612710 1540772 1591973
1428.04 1581702 1506829 1266418 1082148 1367250 1434647
1430.93 1262303 1246844 1303936 1164971 980497 1152354
1433.83 1078933 891993 936556 907059 381224-228318
1436.72 297111 857117 827558 714912 804733 984026
1439.61 996054 858256 783461 873634 964301 856809
1442.51 799792 663770 651913 580335 636725 787303
1445.40 801253 785701 576603 403383 244281 403853
1448.29 651658 681514 750939 683277 700034 772046
1451.18 670322 626824 719278 639701 644979 863849
1454.08 925689 729398 594344 329798-657766-871552
1456.97 101814 347549 407231 613846 644387 626882
1459.86 627924 680492 768978 735663 682622 707400
1462.75 810332 775294 602993 133213 320980 783820
1465.65 793659 906744 921149 742085 575156 658320
1468.54 689373 666771 734874 673367 608892 495644
1471.43-74248-76515 110220-73322 120838 537378
1474.33 619608 643159 450145 180204 427167 749450
1477.22 768350 626643 568562 616842 625628 581627
1480.11 620241 615894 652408 799452 866829 760747
1483.00 666805 666806 568505 590088 751804 735190
1485.90 557335 404582 301002 429222 545757 646110
1488.79 617688 494065 249173 110055 370188 731011
1491.68 711239 749846 786514 646844 509349 422239
1494.57 388715 277326-465321-344477 300996 441332
1497.47 465314 243091-61741 195499 566365 594603
1500.36 478978 616465 742073 688483 490027 541690
1503.25 551438 423825 295677-531085-1044440-377458
1506.15-612878-1124185-352459 137097 41159 151684
1509.04 272066 349723 528659 611171 619835 465008
1511.93 351960 492737 454598 410787 520703 564569
1514.82 544670 421338 191294 131474-4213 76000
1517.72 548504 736110 605382 438662 186168 23353
1520.61-659996-439610 207043 91630 351869 678928
1523.50 749911 585882 354886 109989 389047 606341
1526.39 542489 601748 810375 650781 646844 883228
1529.29 989008 1098348 1069995 945483 1016993 1157013
1532.18 1136439 833143 783610 1114804 1625206 1952180
1535.07 2135623 2311838 2696784 2932391 3079233 3148098
1537.97 2939050 2208594 3018014 3917221 4228998 5563415
1540.86 6373923 6372599 7032991 8392326 9347183 10261845
1543.75 11150371 11870177 12502211 13746491 15167330 16378739
1546.64 17326833 18556866 19800324 21228234 23100353 25354853
1549.54 27975246 31399384 34612368 37213607 40274725 43823477
1552.43 47598142 51314975 54842263 57606127 60056758 61720179
1555.32 62078585 60807626 58330162 54154133 49062498 43127691
1558.21 37890630 35785035 37041147 43833372 52266242 48248717
1561.11 40057610 39327659 43221130 48025000 51851513 54711252
1564.00 56028387 56163947 55544713 54588872 52985657 50622419
1566.89 47758346 44817626 41609219 38465475 35403465 32342220
1569.79 30290593 28614293 26816213 25569771 24497672 23659808
1572.68 23088293 22957645 22954948 23155625 23431089 23176914
1575.57 22412511 23580186 25372156 26295851 27186684 28314321
1578.46 29450890 30688797 32165128 33621606 35248313 37007886
1581.36 38876831 40954534 42819531 44588481 46423508 47950235
1584.25 49094762 50190284 51061585 51564556 51556832 51110703
1587.14 50311894 49186240 47622581 45865618 43890007 42016937
1590.03 40500376 39494904 39053177 39364401 40926073 43483647
1592.93 46207487 49113607 51521924 53060795 53703426 53220866
1595.82 51807762 49986380 47729454 44888905 41905732 38903682
1598.71 35725833 32680853 29544241 26483087 23799721 21369636
1601.61 19273437 17464718 15815849 14286576 12962440 11991450
1604.50 11098593 10158906 9268836 8336471 7398759 6640099
1607.39 5996419 5424288 4739767 4279203 3840961 3436639
1610.28 2911084 2656366 2419929 2150366 1734673 1498564
1613.18 1323231 1183174 992959 889007 681341 296055
1616.07-757924-509486 508573 634839 523331 527704
1618.96 436513 447955 595191 772875 648168 587795
1621.85 452415 277298-50843-180340 181692 476535
1624.75 539649 586804 594936 524535 360937 260672
1627.64 364294 491663 500416 613235 786514 552071
1630.53 249524 215610 443324 643037 693445 599480
1633.43 502680 337636-119671-881670-866511-48631
1636.32 238023 219534 278534 543752 525301 369649
1639.21 277187 339636 448256 567634 469779 320476
1642.10 319367 276906 307016 405998 325134 141377
1645.00-346799-866585-434653 14407 84496 95902
1647.89 19842 195895 290152 170547 133609 283665
1650.78 158738-313461-1500707-1894223-1974316-1112927
1653.67-295591-329263 74131 196312 178564 191523
1656.57 325258 352432 392968 330462 302996 174782
1659.46 173213 302530 210385 221982 325723 63255
1662.35-201686 137873 348241 450989 447663 376962
1665.25 439629 409903 456272 391915 262116 133032
1668.14 26075-424853-302718 258209 243114 118791
1671.03 61015 209418 211964 363226 562615 512894
1673.92 304418-263118-530892 73728 460033 552857
1676.82 587289 646259 564290 340793 369292 477291
1679.71 471767 455293 505376 607630 706881 475524
1682.60 42602 20274-43993-1167769-1462439 90720
1685.49 655234 663039 664207 765958 729971 672895
1688.39 734550 756741 640009 744279 871323 892197
1691.28 852242 766124 705730 745675 719403 716066
1694.17 550762 75363-1186587-1215452 256237 674515
1697.07 668142 664251 437927 234747-391795-1225289
1699.96-1147740-335227 658643 809215 550947 437793
1702.85 411835 218700-109351-50518 168481-27767
1705.74-265636-114029 216654 427391 394434 327973
1708.64 271856 244575 157577 186352 330651 292441
1711.53 166614 224880 219741 121663-29781-76050
1714.42-219583-41301 386563 417835-37713-1203861
1717.31-802069-68931-20277 324794 426018 392513
1720.21 457845 517894 421019 419404 463751 485495
1723.10 419245 517450 549785 621217 668690 643776
1725.99 527382 437868 447232 543038 620451 512166
1728.89 340517 425358 591069 581961 553373 632182
1731.78 530996 342955-495649-489010-458045-579994
1734.67 323731 710842 712727 724611 730747 730768
1737.56 765542 685261 627097 369427 165765 647254
1740.46 1039785 1032242 798976 699476 767097 844444
1743.35 965807 1149915 1217961 1206214 1193478 1197951
1746.24 1225546 1239463 1426642 1495829 1431549 1425557
1749.13 1579715 1762133 1627966 1266066 1283617 1786344
1752.03 2145938 2130637 2213277 2562771 2626703 2635179
1754.92 2663386 2714151 2629685 2422779 2715716 2945864
1757.81 2881603 2877464 2907390 2846122 2752926 2653021
1760.71 2561197 2222415 2423426 2877974 2891469 2821968
1763.60 2736420 2843422 3011184 2906213 2785632 2813253
1766.49 2744538 2673195 2296931 2307106 2620307 2655558
1769.38 2640116 2440840 2303537 2273936 2333277 1752514
1772.28 1344027 2034680 2466017 2582551 2520829 2384433
1775.17 2255354 2229869 2404287 2486355 2464617 2399309
1778.06 2393545 2418835 2482869 2588699 2524370 2434906
1780.95 2406367 2323715 2502748 2769000 2686127 2578021
1783.85 2517778 2398531 2363688 2467472 2515236 2592301
1786.74 2548785 2510895 2517778 2499751 2586035 2654014
1789.63 2776477 2643157 2466365 2638187 2610425 2044296
1792.53 1906503 1917616 1629049 1566259 1557771 1390827
1795.42 1192385 1224714 1312753 1301717 1290135 1182960
1798.31 1009146 845626 855422 1046325 1033826 888054
1801.20 840222 816657 765372 833136 887383 957458
1804.10 885771 869866 799986 669902 708041 866883
1806.99 805084 703872 689696 643381 630609 608942
1809.88 476884 459772 591900 669074 581857 555547
1812.77 573891 405698 397667 472230 606328 653035
1815.67 582264 546986 582861 561925 553949 557604
1818.56 586789 596956 597821 564887 439514 452216
1821.45 580960 500719 423212 383477 535962 626659
1824.35 389573 271158 592420 649189 379724 394506
1827.24 467471 522026 460991 514053 569655 446082
1830.13 614543 710935 600758 596802 782549 818041
1833.02 715881 635610 687434 762229 821492 778197
1835.92 660478 713453 829330 978124 895357 831010
1838.81 836196 761742 745748 831367 789741 707956
1841.70 720774 717311 593595 421980 77295 227732
1844.59 483335 665305 811178 747738 716997 799152
1847.49 882063 862201 884686 862161 849460 853085
1850.38 854945 910513 1047568 1099511 1128713 1150066
1853.27 1228392 1236495 1154335 1165952 1277179 1382762
1856.17 1453428 1454020 1433458 1486567 1512492 1515490
1859.06 1644970 1758074 1616144 1473413 1487585 1603506
1861.95 1669030 1657677 1669821 1818074 1854357 1843118
1864.84 1799772 1741377 1733850 1770326 1821341 1894454
1867.74 1831176 1634254 1522895 1815098 2052417 1963785
1870.63 1972845 1960479 1823976 1749191 1761035 1640358
1873.52 1513249 1454397 1521411 1535130 1449188 1277274
1876.41 1289825 1398775 1396453 1326235 1427241 1410875
1879.31 1185201 1249225 1365649 1326980 1335534 1403003
1882.20 1279375 1028941 1109548 1165329 1051171 935765
1885.09 852082 862726 882873 940406 930356 854493
1887.99 743291 629296 448799 449127 415643 327737
1890.88 305568 276013 315226 270826 158746 290959
1893.77 327135 211478 108118 107039 202849 374845
1896.66 361924 333882 326995 391610 426501 420951
1899.56 292609 138164 127418 279102 481316 366484
1902.45 263321 278210 392277 473994 417159 379296
1905.34 398664 468129 484870 455722 512057 429588
1908.23 522984 580062 448630 360869 376951 382641
1911.13 511532 506117 410377 315518 494983 758467
1914.02 653291 537717 677723 797060 788487 650448
1916.91 382077 119039 284903 537061 581306 697608
1919.81 675908 532789 555352 655466 609451 522519
1922.70 508136 578920 624346 621400 555932 625631
1925.59 782452 694958 649737 614839 588804 595081
1928.48 620237 630952 629677 564800 570446 757996
1931.38 690108 535524 449383 480143 576504 581948
1934.27 553450 605604 670278 668137 594132 581125
1937.16 679853 617007 536457 513272 531435 655209
1940.05 498643 427263 623645 629414 434125 345336
1942.95 421625 530129 698287 723827 559658 603466
1945.84 604757 494972 703693 730726 712057 706722
1948.73 606684 513265 558145 691033 633344 610329
1951.63 672679 682772 750330 734084 825894 948168
1954.52 874674 827735 827920 786137 749309 700729
1957.41 706773 744668 671960 640860 693492 807951
1960.30 915976 876372 739667 743223 847372 828213
1963.20 837246 862469 919634 945357 894663 848356
1966.09 775117 830001 834954 912874 1009924 963901
1968.98 838713 814429 791270 877901 1002332 1003235
1971.87 1027418 1118670 1146421 1266806 1445284 1245102
1974.77 739003 601316 731140 805626 866670 854386
1977.66 900642 967177 972716 881978 775293 832585
1980.55 770223 683207 708732 861270 937382 1007939
1983.45 874955 665718 644874 818619 873306 833068
1986.34 773295 739747 686738 682233 658658 699378
1989.23 658741 635698 665014 690501 718644 757821
1992.12 807311 788871 804715 716416 678843 708102
1995.02 750282 757969 797529 816730 771047 779510
1997.91 680640 665712 760941 814870 720156 639653
2000.80 745066 812515 816160 935218 851601 789190
2003.69 808916 633917 466839 538043 695879 776695
2006.59 725695 801440 834869 835494 789608 707603
2009.48 704538 747677 760894 651925 702573 750751
2012.37 760646 850268 933089 1006357 962741 834027
2015.27 722883 603799 602164 702188 792980 688404
2018.16 544008 623247 826892 796269 623256 660385
2021.05 780305 833562 716914 627415 642839 769347
2023.94 831269 831310 868232 838979 795182 768641
2026.84 807689 819494 823733 811247 726815 763309
2029.73 882659 943166 938320 791979 839150 978011
2032.62 957045 935964 887572 962217 984394 928899
2035.51 1078570 1080244 831294 725622 691154 826321
2038.41 889736 747382 810967 950774 910771 867081
2041.30 905948 818587 771076 850847 943561 950769
2044.19 922350 871053 915847 939862 814089 807812
2047.09 731627 731264 811031 889088 850089 774603
2049.98 801595 856496 745312 702162 707813 763914
2052.87 783367 758370 730531 885777 948648 958324
2055.76 1035282 975398 875090 829127 705508 782883
2058.66 826830 760705 727770 957231 1073062 981091
2061.55 756330 661059 845989 932570 885273 899615
2064.44 1001274 1071928 1025108 903379 903639 988681
2067.33 1027968 992647 1014667 982170 1034263 1123045
2070.23 1093855 1054351 1042572 994332 973441 992785
2073.12 1128771 1211815 1237241 1183831 1208441 1245908
2076.01 1234263 1190080 1021038 1090603 1282117 1378051
2078.91 1310279 1231374 1341329 1437430 1405649 1187577
2081.80 1134188 1373270 1406968 1285613 1322311 1490608
2084.69 1515143 1482293 1447091 1478680 1577124 1667455
2087.58 1721117 1606845 1633373 1572295 1530957 1592414
2090.48 1791378 1858748 1883710 1898902 1928431 1962214
2093.37 1937307 1900326 1749654 1825558 1893399 1847834
2096.26 1789672 1912124 1926961 1890623 1788236 1678686
2099.15 1847357 2029249 2077642 1996567 1907072 1814392
2102.05 1653495 1424067 1314778 1563995 1626323 1625275
2104.94 1646507 1544587 1408473 1317743 1057064 1185112
2107.83 1295018 1146661 1063594 983710 969760 1043477
2110.73 857364 670448 803055 1017529 1103013 956225
2113.62 915966 926970 781244 538027 779261 968653
2116.51 857957 776837 842609 1060598 925288 588462
2119.40 618066 937730 933858 901427 833526 672801
2122.30 594559 709374 784975 888275 915007 826351
2125.19 735162 860615 901005 777064 503754 609822
2128.08 797041 847377 857121 841040 948062 980640
2130.97 845421 848322 869872 854797 922631 1017466
2133.87 951305 860654 742088 708034 767739 753700
2136.76 774440 769718 792687 958550 1034295 1030603
2139.65 1166710 1096406 895654 829731 971795 919818
2142.55 800735 875847 847286 899112 954120 1061085
2145.44 1074999 959569 906842 1015632 1093290 1098217
2148.33 1049927 943683 924313 952916 902085 1006941
2151.22 1096353 1174908 1116478 1084476 1038786 851529
2154.12 734212 860537 999706 1014418 1040618 999152
2157.01 997596 853753 819736 1145043 1211672 1058448
2159.90 973116 1044796 1081207 797388 790461 1145140
2162.79 1159520 1044667 1123438 1299526 1043955 745623
2165.69 1003223 1256776 1359472 1261349 1112990 883127
2168.58 659685 908724 1110010 1060940 1014390 1143155
2171.47 1124460 906968 946179 1284524 1308562 1188019
2174.37 1176850 1185516 1084328 971509 1026293 1137983
2177.26 1221179 1291105 1265377 1186503 967923 1110747
2180.15 1191991 1219369 1350557 1342814 1229190 1001341
2183.04 1088227 1372975 1369612 1194536 1233850 1179775
2185.94 958783 1038260 1379701 1452985 1369383 1269025
2188.83 1215076 1163336 1161252 1231747 1328801 1465855
2191.72 1415218 1193660 1103431 1215900 1376923 1340509
2194.61 1198101 1190104 1126265 897590 1001493 1301330
2197.51 1356988 1318450 1262443 1180610 1100924 1243959
2200.40 1253405 1177108 1197374 1252763 1206808 1123246
2203.29 1136157 1178025 1232578 1182720 1193580 1121077
2206.19 1104423 1192968 1225611 1234915 1303599 1440879
2209.08 1385541 1210833 1200183 1226081 1321571 1407970
2211.97 1389208 1395166 1447961 1525117 1553623 1570536
2214.86 1558500 1483650 1482940 1474732 1492122 1459439
2217.76 1456392 1554802 1688274 1701829 1658570 1636716
2220.65 1610309 1351287 1263540 1450041 1622498 1570418
2223.54 1504210 1457372 1463102 1437236 1544006 1543432
2226.43 1423971 1317996 1354496 1459963 1480200 1370955
2229.33 1385490 1461452 1440077 1292181 1308609 1373131
2232.22 1327952 1247010 1313505 1318312 1232098 1244647
2235.11 1236337 1181554 1197529 1300424 1259381 1223675
2238.01 1155972 1204476 1121223 1154685 1246750 1271773
2240.90 1180236 1121068 1069157 1080162 1153572 1188412
2243.79 1089146 992797 987218 1063527 1201549 1076051
2246.68 961718 952010 963933 1008951 1010551 1152488
2249.58 1153642 983481 989499 1183438 1152638 1153177
2252.47 1144990 972296 1015542 1098408 1066503 1133500
2255.36 1269971 1224399 1084176 1044718 1164285 1240551
2258.25 1182308 1034176 1105495 1173455 1152095 1154786
2261.15 1163860 1122713 1196965 1097111 979196 1108985
2264.04 1126499 1116115 1088324 1038643 1144858 1127092
2266.93 1143446 1141006 1238851 1310397 1114393 903451
2269.83 1045028 1170825 1141659 1110669 1194561 1139240
2272.72 981724 935462 997661 947534 874852 1048428
2275.61 1152693 1160588 1131537 1136131 1173797 983524
2278.50 1043668 1125539 1145310 1218718 1060226 1047615
2281.40 1077743 1070426 1066138 1096043 1050291 1099078
2284.29 1223934 1146339 954127 963358 1082328 1058228
2287.18 1028080 1113129 1102213 1061243 1097541 1068598
2290.07 1041077 1057096 1015531 1031752 1216106 1258383
2292.97 1216540 1166966 1203946 1258091 1186419 1183730
2295.86 1241858 1092419 960021 1051674 1037394 1053926
2298.75 1174325 1207248 1007139 985014 1081156 1141738
2301.65 1107815 946913 1029884 1114010 1063051 1043346
2304.54 1166622 1391685 1422104 1292307 1145507 1175929
2307.43 1253161 1331323 1254931 1177436 1275534 1258357
2310.32 1173208 1192827 1253202 1373223 1470076 1349117
2313.22 1186037 1063885 1083741 1117756 1047747 1163826
2316.11 1304700 1296872 1250898 1228129 1173308 1096433
2319.00 1028306 989472 1033422 1000927 972252 1117332
2321.89 1209316 1128345 1155001 1235997 1225588 1029393
2324.79 980411 1161068 1260648 994475 946508 1079954
2327.68 1066134 979396 994997 1135558 1000225 949455
2330.57 1210022 1286208 1024089 864532 1066805 1232091
2333.47 1021648 902141 1079420 1046085 871107 963426
2336.36 1086171 852813 707717 1004764 1040100 785006
2339.25 765656 990321 1030323 1054450 1110658 1071421
2342.14 1019512 1106926 1264085 1201521 1141014 1223411
2345.04 1076474 947697 842608 912175 1088908 1171383
2347.93 1251079 1273812 1114945 998758 1112490 1143826
2350.82 1071366 1094843 1197005 1073642 1009383 1177295
2353.71 978833 980356 1112292 936038 1044358 1186031
2356.61 951171 920027 982337 795885 930630 999554
2359.50 829467 964254 1108537 922272 949570 927652
2362.39 765517 906075 793713 862828 1007444 814230
2365.29 832860 821913 808874 1132824 1145694 1002413
2368.18 913479 875435 991126 1147709 1069703 981823
2371.07 1052505 1224712 1127818 959700 833509 1002078
2373.96 1316171 1345312 1296160 1173204 1052273 1071656
2376.86 1017488 1070347 1211394 1156514 1214462 1271341
2379.75 1269099 1211892 1123212 1195765 1351029 1329174
2382.64 1161919 1120127 1217816 1294045 1296450 1234525
2385.53 1172803 1129114 1124548 1127376 1217953 1134222
2388.43 1040971 1066702 1280982 1526805 1482820 1404033
2391.32 1222795 1208557 1060390 904163 955055 1223403
2394.21 1257304 1223687 1388099 1388065 1257075 1173403
2397.11 1250561 1373582 1296788 1264009 1230605 1190622
2400.00 1293968 1441620 1440068 1510448 1479877 1388837
2402.89 1205660 1146382 1110298 1250213 1302549 1231304
2405.78 1145197 1269489 1502172 1503367 1384831 1178950
2408.68 1134865 1225962 1248489 1278548 1347113 1311098
2411.57 1321158 1342451 1348533 1406396 1424169 1328989
2414.46 1375721 1419270 1390447 1395911 1455453 1386005
2417.35 1429597 1493254 1415551 1461062 1532135 1439647
2420.25 1403911 1445784 1509486 1532743 1586675 1638155
2423.14 1632317 1636604 1723088 1791224 1684112 1523042
2426.03 1611911 1690939 1759720 1755561 1830763 1944394
2428.93 1900877 1810937 1879608 1871267 1733639 1811886
2431.82 1798170 1711789 1647237 1656809 1795495 1917738
2434.71 1829861 1767610 1653237 1674761 1621249 1502457
2437.60 1707147 1887248 1751336 1732422 1655737 1512500
2440.50 1457518 1459988 1427831 1372487 1324116 1302737
2443.39 1236335 1296104 1317979 1238347 1333124 1425393
2446.28 1348522 1283975 1343063 1361828 1346534 1410643
2449.17 1528935 1565426 1432678 1328611 1464878 1553323
2452.07 1396745 1160535 1163399 1348523 1330317 1219887
2454.96 1351990 1418732 1386546 1428834 1501352 1488984
2457.85 1412191 1363659 1381091 1493177 1461080 1438773
2460.75 1475160 1553871 1545901 1506657 1529781 1650124
2463.64 1713110 1568157 1514663 1543978 1636622 1752392
2466.53 1771045 1653210 1611870 1866292 2048363 2107174
2469.42 2126179 2044329 1973649 1870793 1958423 2090461
2472.32 2051635 2002734 2102080 2117657 2122413 2092771
2475.21 2084999 2116820 2164349 2286385 2239561 2116979
2478.10 2154453 2277508 2126708 2187618 2286851 2287316
2480.99 2327193 2300860 2100129 1903247 1959397 2138806
2483.89 2310725 2178988 2005029 2172671 2163649 2044745
2486.78 2125219 2163262 2082149 2107703 2150447 2098951
2489.67 2032679 1912780 1792402 1838519 1910143 2019313
2492.57 1998619 1855698 1787788 1806066 1795157 1778149
2495.46 1914094 1997951 1924868 1944656 1933727 1792576
2498.35 1862002 1991739 2021429 1954739 1864466 1719759
2501.24 1713454 1948710 1943328 1799638 1714904 1823337
2504.14 1927276 1871304 1815043 1859040 1899293 1777959
2507.03 1800652 1854665 1753212 1731102 1625014 1609769
2509.92 1686996 1829119 1854493 1779279 1913854 2014866
2512.81 1803023 1896949 2074828 2065183 1994694 1980128
2515.71 1775749 1695991 1928379 2004510 1872875 1890704
2518.60 1886421 1936491 1884427 1888069 1965889 2000291
2521.49 1956127 1877080 1864316 1950673 2081703 2019881
2524.39 1907337 1915453 1780669 1851487 2037700 2043864
2527.28 1859822 1652033 1759474 1881787 1785465 1805149
2530.17 1769350 1691223 1663835 1661676 1693761 1629585
2533.06 1615006 1658189 1682727 1719883 1631922 1661447
2535.96 1679792 1420868 1257499 1302683 1330203 1215419
2538.85 1135499 1254966 1443879 1536285 1624599 1453506
2541.74 1313559 1210976 1250134 1252451 1210498 1363248
2544.63 1564794 1513923 1344683 1197654 1246651 1243806
2547.53 1194927 1160099 1205850 1287033 1389152 1447422
2550.42 1375624 1352835 1415680 1365459 1304781 1252007
2553.31 1407669 1476140 1389341 1247652 995154 1115605
2556.21 1370875 1412483 1430119 1422761 1509201 1472898
2559.10 1389605 1263238 1325126 1225373 1288048 1298807
2561.99 1353003 1519933 1378182 1186572 1254820 1410944
2564.88 1369365 1373005 1340655 1316709 1294596 1266766
2567.78 1170603 1210453 1297446 1517119 1510739 1454227
2570.67 1441365 1327669 1233146 1292375 1383420 1474623
2573.56 1479336 1512449 1414383 1180710 1207077 1358277
2576.45 1345657 1355518 1460145 1384043 1313882 1356844
2579.35 1357228 1316047 1321174 1362850 1316615 1275885
2582.24 1276889 1347021 1409676 1483053 1455858 1254960
2585.13 1239853 1432627 1430480 1521878 1431280 1295856
2588.03 1136250 1253406 1326738 1347916 1470405 1383916
2590.92 1338386 1318775 1376040 1342185 1284963 1409103
2593.81 1479342 1486903 1488801 1539165 1531355 1499335
2596.70 1429733 1324301 1253307 1218159 1281369 1519113
2599.60 1428834 1247939 1241130 1283367 1320900 1311566
2602.49 1339730 1491854 1502290 1295577 1281024 1497648
2605.38 1511721 1264563 1394246 1493686 1383116 1225463
2608.27 1133647 1262629 1404418 1421751 1321624 1363303
2611.17 1601851 1616126 1496973 1560099 1437264 1480545
2614.06 1388807 1414067 1489409 1559920 1577394 1543705
2616.95 1519102 1439077 1439673 1349353 1503701 1505764
2619.85 1326716 1320245 1337324 1322400 1235327 1287479
2622.74 1331608 1389422 1649658 1680177 1641537 1599548
2625.63 1463849 1366058 1401978 1467038 1513807 1628755
2628.52 1571701 1385276 1435181 1496176 1396975 1434275
2631.42 1418338 1374716 1420312 1447255 1326276 1296404
2634.31 1260745 1245170 1468635 1432417 1527751 1660626
2637.20 1569000 1439014 1372649 1453530 1506635 1516346
2640.09 1451508 1419933 1371745 1277154 1422345 1455108
2642.99 1323732 1462833 1476390 1538377 1515662 1505737
2645.88 1492745 1419103 1404716 1513967 1509538 1445464
2648.77 1316518 1345350 1531084 1748685 1661491 1534406
2651.67 1467568 1571909 1649737 1445473 1403007 1411733
2654.56 1423921 1510586 1465708 1359544 1316351 1257522
2657.45 1273532 1405363 1367876 1510221 1580419 1531906
2660.34 1391187 1252905 1318258 1265194 1256262 1437336
2663.24 1512453 1384267 1363309 1425431 1493836 1623145
2666.13 1589139 1414382 1369895 1312858 1252261 1321692
2669.02 1333139 1233833 1326841 1448761 1505042 1588713
2671.91 1520200 1489883 1564191 1476058 1353729 1402940
2674.81 1569531 1652095 1551405 1528284 1585529 1488549
2677.70 1375297 1442832 1533323 1556778 1593178 1541924
2680.59 1295627 1194995 1527608 1627924 1413906 1404697
2683.49 1433580 1387715 1411621 1521511 1413404 1292788
2686.38 1329055 1331648 1419725 1462603 1440190 1543466
2689.27 1437067 1269876 1353711 1538804 1550686 1413906
2692.16 1464612 1513072 1585887 1438188 1313344 1371809
2695.06 1286399 1198618 1288046 1361377 1429799 1509643
2697.95 1711690 1685049 1320690 1197083 1259143 1226370
2700.84 1234368 1327955 1266840 1297344 1466237 1473585
2703.73 1554803 1704036 1842363 1734832 1582643 1593945
2706.63 1601957 1691327 1783160 1735764 1660446 1575558
2709.52 1589304 1668913 1670629 1554757 1410521 1372315
2712.41 1396946 1485709 1493821 1430214 1312450 1212671
2715.31 1229324 1309226 1458066 1531650 1593198 1686215
2718.20 1745261 1584351 1472374 1639268 1725187 1519353
2721.09 1594677 1676225 1524926 1557542 1619110 1759056
2723.98 1705408 1420528 1521847 1627885 1531975 1530337
2726.88 1525741 1475371 1513704 1508571 1305876 1326136
2729.77 1546461 1569960 1468413 1511623 1364312 1238991
2732.66 1305485 1252280 1293464 1504934 1517587 1456405
2735.55 1448749 1325216 1195433 1196613 1250784 1314099
2738.45 1501119 1659514 1585821 1583452 1563035 1658544
2741.34 1828517 1594320 1319889 1371118 1368710 1354812
2744.23 1354894 1314114 1379271 1503034 1653531 1637157
2747.12 1840660 1714013 1368638 1350391 1601002 1723727
2750.02 1765145 1679016 1585142 1528333 1501172 1525725
2752.91 1705363 1630566 1412792 1394049 1408523 1349138
2755.80 1335079 1379457 1247429 1388808 1554769 1478192
2758.70 1380618 1330797 1428237 1607245 1649675 1579860
2761.59 1691292 1655588 1440235 1268156 1450690 1578900
2764.48 1331673 1404029 1522630 1468625 1496481 1577316
2767.37 1554041 1537486 1602496 1665084 1514591 1587346
2770.27 1821178 1722136 1508453 1628579 1814063 1678024
2773.16 1594575 1651311 1477944 1470111 1578384 1640141
2776.05 1548874 1419161 1425289 1479002 1626510 1703292
2778.94 1520144 1631062 1835784 1674543 1581086 1504413
2781.84 1527392 1750795 1669992 1645943 1675081 1706010
2784.73 1581284 1506557 1415389 1469047 1586732 1629911
2787.62 1669345 1726094 1775957 1737286 1693699 1638854
2790.52 1686447 1674878 1637294 1558652 1408185 1526513
2793.41 1943620 2027569 1808228 1709235 1620563 1841848
2796.30 1982433 1905521 1795729 1750935 1817958 1869926
2799.19 1947962 2126554 2174778 2378421 2480502 2399156
2802.09 2229338 2277601 2392932 2086198 2175513 2410365
2804.98 2503572 2637884 2515536 2283294 2385506 2573447
2807.87 2698514 2620037 2628136 2660713 2596345 2610936
2810.76 2683236 2812018 2770806 2722084 2732884 2649379
2813.66 2745531 2910684 2887716 2886035 2784721 3014401
2816.55 3029078 3043306 3036868 3014811 3172686 3300111
2819.44 3309225 3110335 2914601 2950220 3079465 3163595
2822.34 3234754 3400719 3642381 3694353 3498681 3440081
2825.23 3684121 3581992 3518968 3743764 3911150 3937004
2828.12 3844688 3690742 3450812 3365765 3269335 3134281
2831.01 3079390 3298840 3307731 3317537 3385475 3595793
2833.91 3489441 3115946 3015195 2881779 3103966 3397145
2836.80 3572547 3667453 3407168 3119779 3114673 3074731
2839.69 2875802 2824985 2854727 2837045 2582952 2471912
2842.58 2371804 2211640 1973482 1810075 2118452 2266259
2845.48 2028762 1984503 2175204 2244018 2085516 1924705
2848.37 1900460 1903043 1996415 1964954 1967316 2053343
2851.26 1843851 1702025 1878207 1887310 1774484 1584055
2854.16 1521897 1766037 1935399 2014915 2049160 2081484
2857.05 1914980 1708082 1654062 1843708 1964595 1931464
2859.94 1807672 1897566 1893304 1798826 1702696 1675608
2862.83 1816981 1923466 1803911 1742681 1599691 1576679
2865.73 1745158 1780762 1794770 1750307 1774798 1769522
2868.62 1697087 1633761 1518805 1731619 1732817 1697158
2871.51 1778868 2021433 2081030 2040697 1888685 1841177
2874.40 2111309 2369612 2434187 2256403 2050961 1998839
2877.30 1939365 2054852 2224648 2022418 1854006 1843843
2880.19 2033000 2173556 2117637 2094146 2055671 1931338
2883.08 1823150 1818356 1754126 1731917 2086761 2249849
2885.98 2203595 2231683 2413623 2403796 2269210 2091543
2888.87 1882496 2098932 2102407 1970850 2097699 2204024
2891.76 2207509 2242287 2080694 2034365 2103310 2259467
2894.65 2092528 2032201 1942142 1971033 1938801 1873322
2897.55 2099163 2095446 2157790 2439933 2538046 2470673
2900.44 2401289 2355589 2432913 2378171 2131125 2109890
2903.33 2196373 2375426 2645499 2587456 2471596 2495954
2906.22 2462147 2325982 2224551 2251379 2391835 2499137
2909.12 2310141 2357717 2363722 2373106 2371756 2215643
2912.01 2277153 2451845 2379146 2208408 2274407 2496091
2914.90 2579010 2521259 2454013 2442151 2149869 2018345
2917.80 2231010 2495938 2314037 2499603 2518500 2256277
2920.69 2355988 2599319 2661850 2486754 2209881 2155033
2923.58 2380495 2585758 2711391 2702788 2600202 2556906
2926.47 2357142 2469313 2644963 2632120 2505856 2537666
2929.37 2681776 2673412 2536121 2597618 2465939 2297867
2932.26 2443885 2719834 2795419 2678023 2735044 2855346
2935.15 2910662 2988580 2825251 2700126 3029100 3184280
2938.04 2863314 2692157 2676234 2661723 2665703 2674824
2940.94 2903224 3070619 3076237 3159663 3156717 3140668
2943.83 3101234 3052658 2682166 2760069 2984180 2905710
2946.72 2810483 3288244 3286136 2945033 2754310 2761070
2949.62 2799447 2840934 3072117 3347413 3316154 2933402
2952.51 2841865 3060357 2993615 3007061 3092983 2881645
2955.40 2861782 3021856 3190684 3383114 3436652 3157141
2958.29 2958828 2967685 2912010 2946354 2935620 2553696
2961.19 1939242 2472169 3651969 3660300 3425738 3505193
2964.08 3396358 3347554 3512435 3573080 3382172 3293340
2966.97 3224537 3230748 3259376 3318228 3589767 3534464
2969.86 3457535 3505089 3603904 3743924 3651506 3514407
2972.76 3517822 3592430 3760936 3993436 4091407 4070664
2975.65 3841880 3611156 3483690 3539462 3737138 3865244
2978.54 3964420 3904927 3743736 3704574 3717949 3808760
2981.44 3988114 3929263 3940112 4100854 4245741 4077194
2984.33 3873091 3971871 4139172 3942782 3775163 3860655
2987.22 4106519 4127519 3924609 3805167 3738151 3771217
2990.11 3799593 3641920 3657213 3828231 3889563 3796616
2993.01 3780553 3748507 3836792 3910492 4123454 3961594
2995.90 3485711 3455150 3425276 3495783 3460411 3239330
2998.79 3152008 3005468 3121833 3132534 3174543 3224237
3001.68 3053061 3143179 3183486 2924881 2819111 2907656
3004.58 3155999 3250871 2912954 2648697 2739244 2863121
3007.47 2719426 2841732 2975122 2979160 2958358 2931999
3010.36 2865123 2739032 2584619 2734396 2844088 2780570
3013.26 2793634 2607246 2353614 2422725 2468857 2501599
3016.15 2547225 2729058 2731527 2620776 2556675 2604123
3019.04 2751362 2740234 2558029 2553844 2540010 2429148
3021.93 2600778 2584164 2483360 2412745 2400445 2443583
3024.83 2501702 2715775 2715791 2353367 2365426 2412794
3027.72 2381412 2347998 2303261 2221426 2208143 2274112
3030.61 2210472 2331469 2473202 2567821 2632001 2455508
3033.50 2212934 2093234 2199423 2513929 2702238 2559914
3036.40 2555434 2488358 2453548 2282283 2117747 2309550
3039.29 2441794 2528052 2330782 2224802 2472183 2429724
3042.18 2438817 2414637 2463018 2496965 2425519 2461716
3045.08 2475669 2692237 2795084 2866747 2983622 2889893
3047.97 2594165 2497356 2648047 2808345 2952892 2655439
3050.86 2600927 2713867 2728867 2712294 2516275 2447451
3053.75 2735157 2744108 2608367 2594588 2652567 2453275
3056.65 2598873 2757538 2950366 3164053 3130131 2858660
3059.54 2577878 2483916 2669092 2688699 2755433 2844236
3062.43 3031874 3035143 2984471 3128540 3209334 3155647
3065.32 3211859 3370666 3197481 3303890 3574180 3487693
3068.22 3678245 3911776 4002406 4234030 4485507 4733165
3071.11 4829034 5115680 5462791 5592923 5715746 6072930
3074.00 6300259 6294381 6408543 6674788 7091281 7515421
3076.90 8098425 8699892 9368749 10015424 10363533 10974505
3079.79 12350038 13585303 14591142 15752852 17477586 19580291
3082.68 21782914 24298538 27178999 30471425 33999719 37747470
3085.57 41898582 46502665 51238442 55612182 60130562 64374001
3088.47 68021715 71260487 73988329 75735949 75835540 75082911
3091.36 74053228 71529248 67099909 62561173 60328907 62039059
3094.25 69474005 83524312 95468673 87348100 63054991 51179364
3097.14 54626519 62507343 70400148 77185885 82378439 85455266
3100.04 86679680 85958887 82941989 79177332 74194619 67553803
3102.93 60661936 53782089 47162067 41007575 35604301 30796178
3105.82 26800783 23605168 20685365 18277006 16418475 14817845
3108.72 13457365 12126179 11125211 10403847 9540921 8897138
3111.61 8297324 7710682 7328801 6947622 6395091 6054480
3114.50 6045206 5957055 5663682 5246019 5026500 4755021
3117.39 4768117 5002724 5014161 4648264 4165586 4038196
3120.29 4057639 4345906 4739886 4497181 3958681 4007507
3123.18 4286508 4411429 4324199 3974595 4025825 4224773
3126.07 4137254 4255339 4494658 4524041 4312600 4010658
3128.96 4296768 4596171 4662260 4566450 4669186 5019410
3131.86 4853872 4664557 4866643 4943891 4983455 4773191
3134.75 4744268 4709301 4584275 4604532 4595758 4600141
3137.64 4786395 4755119 4763584 4585464 4620729 4944675
3140.54 5092498 4964529 4789054 4835144 4944275 5064930
3143.43 5319143 5483440 5422599 5372514 5374830 5464224
3146.32 5587333 5776734 5704051 5654229 5612804 5329039
3149.21 5124034 5058299 5224126 5335260 5644194 5815682
3152.11 5597549 5651760 6107261 6442213 6718451 6955133
3155.00 7002155 7204561 7611376 7931362 7990184 8296942
3157.89 8733551 8703549 8705990 9095827 9673819 9711046
3160.78 9838287 10190612 10828260 11213359 11328636 11546672
3163.68 11724721 11693287 11868912 12305101 12434042 12184781
3166.57 12243934 12473287 12662943 12658772 12597484 12365377
3169.46 12093537 12336276 12392555 11989248 11909051 11747920
3172.36 11689596 11968556 12079831 12125136 11745271 10964977
3175.25 10610312 10685697 10689363 10668498 10454986 10217769
3178.14 9877053 9235106 8519005 7982949 7612387 6893568
3181.03 6151223 5424281 4894653 4473083 4108106 3690624
3183.93 3414650 3120111 3121351 3365317 3240539 2949660
3186.82 2848038 2841907 3174760 3391156 2983430 2834114
3189.71 3037200 2871250 2683800 2699502 2722567 2699569
3192.60 2624798 2601959 2776766 2766301 2938279 2916075
3195.50 2374516 2542176 2647158 2505291 2433973 2338371
3198.39 2376403 2528068 2816590 2974922 2938257 2800173
3201.28 2717207 2741811 2746775 2938714 3079668 3064773
3204.18 3148054 3026888 2756384 2794988 2876824 2700523
3207.07 2525129 2623061 2576450 2658845 2724691 2856609
3209.96 2953495 2974248 2991680 2864984 2818413 2451147
3212.85 2416744 2673499 2653879 2781495 2947361 2936529
3215.75 3103853 3129976 3261841 3083431 2882445 2720461
3218.64 2521995 2432990 2665869 3046270 3132476 3120397
3221.53 3101855 2814506 2784786 3146450 3247563 3012394
3224.42 2718480 2635930 3007432 3256690 3216739 3002875
3227.32 2659175 2599252 2926199 2990810 2934648 3071861
3230.21 3200455 3218499 3033939 2959061 3099723 3064428
3233.10 2862417 2977991 2966360 3061439 2916127 2854363
3236.00 2865768 3037774 2943636 2808007 2859179 2853623
3238.89 3163198 3343904 3222862 3172414 3188330 3131759
3241.78 3010427 2928303 3071354 3102540 2941350 3033974
3244.67 3379032 3538971 3321050 2871099 2452586 2379733
3247.57 2754882 2981257 3122562 3134156 2695221 2706223
3250.46 2893235 2835093 3054582 3215830 3046126 3062984
3253.35 3200300 3493322 3333152 3020703 3016786 3306298
3256.24 3200848 3076325 3418410 3631369 3470847 2963336
3259.14 2834542 2989929 3063559 2956521 3377434 3737311
3262.03 3387177 2941318 3122844 3164130 3184443 3420156
3264.92 3281868 3061835 2853817 2928899 3121957 3046125
3267.82 3111171 3082210 2861900 2990223 3142149 3137995
3270.71 3082440 3016299 2890044 3116670 3312831 3206933
3273.60 3377601 3368655 3062335 2983082 2937022 3024073
3276.49 3294081 3198346 2964865 2842707 2880871 2778134
3279.39 2859801 3013472 2821480 2589249 2638053 2724456
3282.28 2655476 2898066 2964388 2719439 2673062 2787232
3285.17 2801775 2681678 2784363 2889010 2958208 2981723
3288.06 2945360 3209032 3375154 3011892 2743076 2720213
3290.96 2562225 2453791 2484504 2696255 2854698 2820704
3293.85 2603497 2632158 2844419 2899528 2823908 2923953
3296.74 2887063 2907330 2965122 2818340 2792087 3000938
3299.64 2790384 2475125 2676137 2722829 2898217 3028005
3302.53 2846778 2903105 2893412 2628042 2247564 2341434
3305.42 2573516 2824405 2851961 2932401 2824466 2669818
3308.31 2866857 3121008 2990544 2653945 2492132 2580140
3311.21 2717077 3097667 2869434 2626020 2605333 2733098
3314.10 2753332 2546694 2323522 2324957 2471773 2759738
3316.99 2893320 2812117 2954510 3062472 2866941 2906092
3319.88 2939917 2713911 2576629 2635850 2505176 2619135
3322.78 2747301 2819177 2806377 2813681 2780607 2705661
3325.67 2678807 2449972 2522030 2874239 2564808 2382084
3328.56 2782084 3009232 2828767 2582064 2604345 2511202
3331.46 2398674 2419747 2603863 3174263 3299849 2748148
3334.35 2283572 2382880 2371831 2491675 2916181 3096787
3337.24 2766945 2555735 2470357 2556884 2711253 2532658
3340.13 2401025 2542533 2625260 2737485 2756121 2655999
3343.03 2718506 2654981 2689250 2802437 2766956 2461430
3345.92 2507510 2507354 2495420 2725769 2687141 2718587
3348.81 2896804 2599312 2172148 2378827 2583784 2387052
3351.70 2166683 2497758 2848774 2917218 2676854 2440131
3354.60 2342394 2369003 2560540 2631772 2941649 2999478
3357.49 3100482 2959665 2785072 2860103 3001350 2960216
3360.38 3012287 2911410 2629966 2588007 2603275 2738242
3363.28 2480009 2284531 2656915 2528829 2227383 2496714
3366.17 3103251 3385270 2991353 2697277 2697603 2629307
3369.06 2659035 2456830 2383667 2469810 2670766 2643633
3371.95 2457769 2457713 2477425 2679713 2932614 2709811
3374.85 2495998 2771998 2804655 2557510 2787192 2691590
3377.74 2236084 2233162 2352641 2523451 2524733 2614529
3380.63 2707680 2736771 2489624 2269623 2283225 2626177
3383.52 2725733 2526818 2524541 2634743 2839627 2978737
3386.42 2882032 2807716 2937781 2917542 2551864 2426991
3389.31 2673675 2906804 2889075 2923631 2771659 2430987
3392.20 2405911 2499622 2352109 2154098 2260147 2767746
3395.10 3101211 2852492 2551439 2820319 3247482 2771244
3397.99 2201571 2251210 2403680 2753912 2672248 2671965
3400.88 2641287 2593755 2506443 2514702 2570091 2458050
3403.77 2437583 2378976 2213645 2514371 2752476 2568247
3406.67 2575899 2597969 2759939 2870474 2778135 2647915
3409.56 2633854 2425041 2317295 2290079 2003133 2115013
3412.45 2550363 2757152 2510302 2626584 2865776 2599011
3415.34 2297140 2540702 2585393 2398958 2496067 2543316
3418.24 2484581 2608078 2587681 2501183 2521895 2614904
3421.13 2525561 2543285 2617714 2856050 2784011 2594298
3424.02 2653403 2577510 2635015 2609433 2483665 2741947
3426.92 3108786 2930639 2371319 2133299 2463686 2677301
3429.81 2668288 2730436 2492280 2281623 2401534 2651217
3432.70 2729416 2513013 2084845 2205517 2486161 2596081
3435.59 2629975 2371280 2285829 2448051 2627806 2862889
3438.49 3003497 2777677 2504887 2679530 2700916 2631274
3441.38 2507898 2467803 2416676 2480119 2315858 2133106
3444.27 2474617 2976746 3205775 3083349 2845793 2609591
3447.16 2485885 2563224 2701081 2877223 2778119 2683788
3450.06 2723245 2556931 2725400 3066492 2841099 2777298
3452.95 2676384 2996826 2981998 2704426 2850658 3065834
3455.84 2797357 2617602 2701913 2573944 2751644 2938739
3458.74 2868888 2619993 2353409 2523116 2793539 3006283
3461.63 3018189 2839169 2854237 2737122 2608283 2715873
3464.52 2738736 2783974 2608943 2754359 2886443 2502433
3467.41 2615957 3075628 3070858 2885820 2758020 2810917
3470.31 2973099 3005474 2854298 2836784 2692439 2529762
3473.20 2631873 2712116 2929163 3022954 2816328 2667494
3476.09 2614183 2695857 3084319 2724027 2447609 2518744
3478.98 2826013 3028028 2865548 2692687 2755439 2873865
3481.88 2912424 2888335 2857905 2998061 2953204 2814385
3484.77 2907715 3089203 3138737 3207060 3128773 3010006
3487.66 2861482 2634296 2826571 2917743 2660691 2569402
3490.56 2666075 2571742 2270318 2583524 2953492 3031150
3493.45 3111772 3055817 2730260 3112181 3445377 2986793
3496.34 2814314 2928726 2869911 2983159 2965987 2786037
3499.23 2914933 2891247 2946349 2763686 2758480 2576588
3502.13 2355388 2649898 2970944 2975840 2754125 2953637
3505.02 3088990 3023353 2894618 2684649 2715623 2651386
3507.91 2759001 2953384 2953827 3022108 3226347 3171626
3510.80 2978132 2746362 2563228 2761192 2626324 2528655
3513.70 2582496 2798809 2867359 2844948 2848473 2874313
3516.59 2863900 2757436 2693796 2814728 2829663 3002089
3519.48 2974281 2666294 2964702 2866027 2656122 2831777
3522.38 2757695 2498246 2557283 2630691 3056698 3190093
3525.27 3033302 2774923 2700903 2794880 2718663 2738426
3528.16 2758056 2601924 2787509 2725731 2583517 2697488
3531.05 2971106 3068217 2827096 2733605 2871876 3148388
3533.95 3156606 2837473 2765175 2905130 2842659 2629717
3536.84 2616320 2895417 3236302 3081140 2816091 2655688
3539.73 2604324 2449606 2568584 2972726 3349822 2882148
3542.62 2611575 2764350 2859328 3067544 2956816 2852660
3545.52 3047636 3067036 2993195 3218045 3200308 3112978
3548.41 3167128 3052171 2873844 2868405 2807103 2574880
3551.30 2586107 2701744 3126936 3304694 2943633 2659774
3554.20 2685936 2736455 2922813 3195034 2931613 2726661
3557.09 2826743 3047054 3050968 3067126 3113716 2863709
3559.98 2639577 2673870 2849200 3183239 3220543 3142930
3562.87 3046321 2890503 2771514 2409532 2674400 2861961
3565.77 2492058 2378968 2634552 2671229 2811736 3310603
3568.66 3166474 2940808 2911604 2773949 2757206 3192475
3571.55 3259737 3227750 3340938 3062511 2833201 2585407
3574.44 2823339 3054611 3030385 3081387 3265894 3045733
3577.34 2675571 2779802 2967601 2927414 2893472 2965813
3580.23 2929222 2962907 2875972 3086781 3236516 3119761
3583.12 3152695 3384377 3223492 2868196 3083973 3258191
3586.02 3059795 3142845 3052261 3112065 2948315 2524802
3588.91 2690254 3044372 3125246 3131194 3121798 2993694
3591.80 2861403 2986869 3145884 3103863 2927498 2884847
3594.69 2788880 2936611 3229352 3148344 2851921 2546840
3597.59 2769297 3101811 3330151 3236477 2982437 2936057
3600.48 3037610 3191272 3014724 2820304 2903096 2874057
3603.37 2866112 3207618 3422420 3413433 3204395 2933962
3606.26 3030441 3062946 3192462 3318140 2962483 2300747
3609.16 2547692 3175671 3228515 3316340 3410923 3203370
3612.05 2862652 2850635 3056282 2964771 2795593 2929792
3614.94 2996790 3170771 3106572 3286892 3412173 3275930
3617.84 3369959 3205215 2759463 2755175 3119147 3095516
3620.73 3102624 3229204 3327291 3508115 3636208 3358586
3623.62 3162677 3338889 3274825 3142983 3356443 3524468
3626.51 3554139 3480791 2850586 2520365 2753320 2346484
3629.41 2648559 3282714 3118869 3086754 3132343 3228751
3632.30 3288657 2977257 2649252 2950019 3141753 3262326
3635.19 3554314 3569921 3550153 3507952 3335777 3169410
3638.08 3211160 3402942 3341207 3302126 3321826 3478517
3640.98 3186454 3126063 3294856 3324463 3259706 3215193
3643.87 3284342 3184490 3203661 3571272 3362499 2964485
3646.76 2940435 3128218 3109273 2805295 2440706 2842422
3649.66 3253467 2982321 2943452 3335872 3746216 3707583
3652.55 3577569 3413240 3236807 3229220 3491578 3344049
3655.44 2791173 2660469 3059054 3198678 3206808 3303162
3658.33 3458189 3521228 3563217 3564732 3503140 3326445
3661.23 3396890 3487317 3325561 3059291 3112143 3544283
3664.12 3666674 3413212 3383137 3374219 3104882 3119358
3667.01 3419730 3438230 2937895 2731118 3314495 3485809
3669.90 2815118 2229518 2718321 3299260 3660862 3547289
3672.80 3421985 3227551 3193084 2914208 2662264 2118719
3675.69 2120058 2755143 2951806 3219914 3423390 3330455
3678.58 3188564 3158563 3152362 3191364 3311768 3371392
3681.48 3332185 3238055 3130641 3185962 3523765 3563945
3684.37 3495712 3426302 3368953 3221382 3294209 3248259
3687.26 2934325 1981677 2219401 3268295 3460018 3282801
3690.15 3194650 2888479 2708158 3044942 3273157 3377680
3693.05 3149500 3064124 3198963 3462502 3775715 3741572
3695.94 3581410 3538188 3583997 3579422 3663350 3851215
3698.83 3695247 3686687 3885578 3808891 3245792 2896174
3701.72 3434869 3775760 3816857 3733521 3681357 3518960
3704.62 3483380 3463836 3385715 3622053 3718736 3523823
3707.51 3591852 3543950 3169427 3062849 3365398 3630628
3710.40 3549694 3371096 3091716 2894880 3186280 3478248
3713.30 3762107 3817401 4045303 4158574 4115330 4243633
3716.19 4187813 3908934 3805727 4084686 4118326 3792690
3719.08 3738582 3882467 4009330 4149362 4391072 4159485
3721.97 4090034 4225670 4154767 4231556 4374491 4465937
3724.87 4458189 4218445 3757620 3829822 4085734 4076701
3727.76 4094222 4087482 4084049 4182069 4370342 4111837
3730.65 3900168 3795427 3452565 3669971 4126161 4105903
3733.54 3906249 3775330 3770734 3662070 3695713 3321733
3736.44 3103512 3614374 3816195 3540525 3540917 3634160
3739.33 3610826 3426224 3265180 3254025 3441645 3750479
3742.22 3744853 3437374 2888680 1698319 1084753 2266520
3745.12 3323297 3577872 3582279 3517339 3364250 3268026
3748.01 3004496 2218434 1736581 2799571 3617628 3303321
3750.90 2965402 2099882 1792791 2844669 3228552 3437129
3753.79 3615737 3739112 3765799 3649207 3275288 3358281
3756.69 3703409 3601702 3429101 3290201 3298950 3382189
3759.58 3169668 3310608 3366403 3464334 3427552 3426738
3762.47 3571605 3507592 3580751 3696839 3455273 3188396
3765.36 3031558 3214273 3401716 3408422 3554376 3677496
3768.26 3666182 3433398 2952948 3018589 3283600 3142980
3771.15 3297947 3710317 3486989 3334795 3638677 3698811
3774.04 3754617 3638663 3447536 3641746 3638398 3286656
3776.94 3278166 3282978 3218547 3039856 2978687 3187438
3779.83 3530954 3480027 3442231 3459413 3596666 3626789
3782.72 3470087 3538386 3506252 3386086 3461211 3461822
3785.61 3692175 3657219 3326339 3315210 3519697 3388861
3788.51 3448435 3569456 3644772 3847188 3774591 3475908
3791.40 3329710 3526184 3672558 3477312 3412841 3533738
3794.29 3655057 3473296 3357853 3241346 3142751 3543448
3797.18 3643526 3381110 3411054 3520630 3528803 3655863
3800.08 3368678 2344022 1864629 2892921 3230590 3267437
3802.97 3364071 3169418 3246738 3388263 3490977 3313940
3805.86 3063306 2655822 3121287 3724922 3707472 3824898
3808.76 3697506 3663953 3730307 3552037 3612367 3672287
3811.65 3396260 3225496 3385900 3686558 3683723 3500170
3814.54 3333643 3104545 2297350 2560474 3395800 3778147
3817.43 3695454 3220492 3327946 3639333 3557228 3329928
3820.33 3131605 2973200 2693747 2976985 3358398 3410029
3823.22 3387669 3434179 3545131 3624539 3499860 3268510
3826.11 3246350 3500153 3720764 3655173 3487335 3343013
3829.00 3585473 3658509 3795474 3652986 3312539 3307804
3831.90 3397344 3330097 3418181 3677148 3719927 3095512
3834.79 2953879 3314249 3808886 3806560 3308145 1881622
3837.68 2074429 3016585 3077952 3095424 3261064 3437278
3840.58 3246325 3328316 3621625 3717294 3547005 3423015
3843.47 3286827 3403721 3522458 3753073 3722533 3467014
3846.36 3386287 3610672 3682192 3464698 3562408 3706780
3849.25 3765215 3527188 3435996 3559142 3070996 2678225
3852.15 3380434 3391367 2563416 1496007 1787578 2873364
3855.04 3165840 3309477 3565757 3492188 3449915 3716810
3857.93 3759048 3824665 4021265 4234459 4262138 4233658
3860.82 4162705 4136373 4086834 3883245 3564967 3495247
3863.72 3662221 3301025 2856513 3490763 3913191 3962882
3866.61 3803913 3615945 3632877 3685578 3242764 3039096
3869.50 2817829 3064992 3420277 3369745 3630896 3829937
3872.40 3832484 3805751 3473398 3133117 3230729 3660707
3875.29 3525543 3603771 3767479 3590349 3483327 3424616
3878.18 3286985 3279691 3221893 3045524 3244409 3704980
3881.07 3592281 3501679 3747206 3724156 3604612 3365377
3883.97 3128149 3286159 3085300 3047491 3357070 3398571
3886.86 3573639 3529186 3571497 3720166 3577819 3729980
3889.75 3634379 3199870 2867285 3000361 3395876 3675375
3892.64 3546648 3396832 3564002 3674300 3536554 3385626
3895.54 3458382 3617705 3393233 3357476 3506003 3316339
3898.43 3188972 3085526 3283243 3503184 3676902 3410880
3901.32 3013240 3042042 3279595 3555004 3688846 3315776
3904.22 3343298 3405397 3157484 3160820 3518181 3685640
3907.11 3551811 3407982 3213902 3285698 3617464 3767056
3910.00 3667921 3709715 3893390 3922566 3748670 3687266
3912.89 3761976 3454842 3283062 3571398 3660786 3442631
3915.79 3373024 3211955 3268439 3415364 3392683 3416508
3918.68 3507047 3506276 3357026 3261786 3231459 3392049
3921.57 3487814 3568503 3591232 3479956 3460680 3475707
3924.46 3298879 3400497 3569267 3680391 3899205 4024969
3927.36 4116735 4103198 3887699 3748886 3843150 3733595
3930.25 3740655 4091231 4235671 3960769 3629315 3509066
3933.14 3801771 4155074 4321707 4214451 4023635 3946222
3936.04 4119199 4244163 4330651 4321885 4514295 4565222
3938.93 3992591 3778591 4079909 4121493 4157380 4279138
3941.82 4277529 4386695 4566752 4533126 4330194 4181538
3944.71 4334292 4530708 4695297 4280514 4070643 4108995
3947.61 4128024 4156294 4258380 4430167 4460345 4332749
3950.50 4270881 3812825 3762155 3741772 3796700 3817747
3953.39 3895222 3919926 3779808 3726849 3947544 3841697
3956.28 3659772 3834216 3943872 3924791 3837330 3670584
3959.18 3721746 3806496 3618462 3559800 3493063 3557416
3962.07 3493520 3521962 3602401 3858164 3803425 3575548
3964.96 3464996 3358652 3569076 3861594 3660006 3446868
3967.86 3664617 3818534 3844888 3928735 4020286 3896041
3970.75 3827924 3757596 3519270 3439628 3449062 3562655
3973.64 3927577 3870166
##END=
